# vtk DataFile Version 3.0
Some data
ASCII
DATASET UNSTRUCTURED_GRID
POINTS 861 float
0.0 0.0 0.0
0.4 0.0 0.0
0.8 0.0 0.0
1.2000000000000002 0.0 0.0
1.6 0.0 0.0
2.0 0.0 0.0
2.4000000000000004 0.0 0.0
2.8000000000000003 0.0 0.0
3.2 0.0 0.0
3.6 0.0 0.0
4.0 0.0 0.0
4.4 0.0 0.0
4.800000000000001 0.0 0.0
5.2 0.0 0.0
5.6000000000000005 0.0 0.0
6.0 0.0 0.0
6.4 0.0 0.0
6.800000000000001 0.0 0.0
7.2 0.0 0.0
7.6000000000000005 0.0 0.0
8.0 0.0 0.0
8.4 0.0 0.0
8.8 0.0 0.0
9.200000000000001 0.0 0.0
9.600000000000001 0.0 0.0
10.0 0.0 0.0
10.4 0.0 0.0
10.8 0.0 0.0
11.200000000000001 0.0 0.0
11.600000000000001 0.0 0.0
12.0 0.0 0.0
12.4 0.0 0.0
12.8 0.0 0.0
13.200000000000001 0.0 0.0
13.600000000000001 0.0 0.0
14.0 0.0 0.0
14.4 0.0 0.0
14.8 0.0 0.0
15.200000000000001 0.0 0.0
15.600000000000001 0.0 0.0
16.0 0.0 0.0
0.0 0.1 0.0
0.4 0.1 0.0
0.8 0.1 0.0
1.2000000000000002 0.1 0.0
1.6 0.1 0.0
2.0 0.1 0.0
2.4000000000000004 0.1 0.0
2.8000000000000003 0.1 0.0
3.2 0.1 0.0
3.6 0.1 0.0
4.0 0.1 0.0
4.4 0.1 0.0
4.800000000000001 0.1 0.0
5.2 0.1 0.0
5.6000000000000005 0.1 0.0
6.0 0.1 0.0
6.4 0.1 0.0
6.800000000000001 0.1 0.0
7.2 0.1 0.0
7.6000000000000005 0.1 0.0
8.0 0.1 0.0
8.4 0.1 0.0
8.8 0.1 0.0
9.200000000000001 0.1 0.0
9.600000000000001 0.1 0.0
10.0 0.1 0.0
10.4 0.1 0.0
10.8 0.1 0.0
11.200000000000001 0.1 0.0
11.600000000000001 0.1 0.0
12.0 0.1 0.0
12.4 0.1 0.0
12.8 0.1 0.0
13.200000000000001 0.1 0.0
13.600000000000001 0.1 0.0
14.0 0.1 0.0
14.4 0.1 0.0
14.8 0.1 0.0
15.200000000000001 0.1 0.0
15.600000000000001 0.1 0.0
16.0 0.1 0.0
0.0 0.2 0.0
0.4 0.2 0.0
0.8 0.2 0.0
1.2000000000000002 0.2 0.0
1.6 0.2 0.0
2.0 0.2 0.0
2.4000000000000004 0.2 0.0
2.8000000000000003 0.2 0.0
3.2 0.2 0.0
3.6 0.2 0.0
4.0 0.2 0.0
4.4 0.2 0.0
4.800000000000001 0.2 0.0
5.2 0.2 0.0
5.6000000000000005 0.2 0.0
6.0 0.2 0.0
6.4 0.2 0.0
6.800000000000001 0.2 0.0
7.2 0.2 0.0
7.6000000000000005 0.2 0.0
8.0 0.2 0.0
8.4 0.2 0.0
8.8 0.2 0.0
9.200000000000001 0.2 0.0
9.600000000000001 0.2 0.0
10.0 0.2 0.0
10.4 0.2 0.0
10.8 0.2 0.0
11.200000000000001 0.2 0.0
11.600000000000001 0.2 0.0
12.0 0.2 0.0
12.4 0.2 0.0
12.8 0.2 0.0
13.200000000000001 0.2 0.0
13.600000000000001 0.2 0.0
14.0 0.2 0.0
14.4 0.2 0.0
14.8 0.2 0.0
15.200000000000001 0.2 0.0
15.600000000000001 0.2 0.0
16.0 0.2 0.0
0.0 0.30000000000000004 0.0
0.4 0.30000000000000004 0.0
0.8 0.30000000000000004 0.0
1.2000000000000002 0.30000000000000004 0.0
1.6 0.30000000000000004 0.0
2.0 0.30000000000000004 0.0
2.4000000000000004 0.30000000000000004 0.0
2.8000000000000003 0.30000000000000004 0.0
3.2 0.30000000000000004 0.0
3.6 0.30000000000000004 0.0
4.0 0.30000000000000004 0.0
4.4 0.30000000000000004 0.0
4.800000000000001 0.30000000000000004 0.0
5.2 0.30000000000000004 0.0
5.6000000000000005 0.30000000000000004 0.0
6.0 0.30000000000000004 0.0
6.4 0.30000000000000004 0.0
6.800000000000001 0.30000000000000004 0.0
7.2 0.30000000000000004 0.0
7.6000000000000005 0.30000000000000004 0.0
8.0 0.30000000000000004 0.0
8.4 0.30000000000000004 0.0
8.8 0.30000000000000004 0.0
9.200000000000001 0.30000000000000004 0.0
9.600000000000001 0.30000000000000004 0.0
10.0 0.30000000000000004 0.0
10.4 0.30000000000000004 0.0
10.8 0.30000000000000004 0.0
11.200000000000001 0.30000000000000004 0.0
11.600000000000001 0.30000000000000004 0.0
12.0 0.30000000000000004 0.0
12.4 0.30000000000000004 0.0
12.8 0.30000000000000004 0.0
13.200000000000001 0.30000000000000004 0.0
13.600000000000001 0.30000000000000004 0.0
14.0 0.30000000000000004 0.0
14.4 0.30000000000000004 0.0
14.8 0.30000000000000004 0.0
15.200000000000001 0.30000000000000004 0.0
15.600000000000001 0.30000000000000004 0.0
16.0 0.30000000000000004 0.0
0.0 0.4 0.0
0.4 0.4 0.0
0.8 0.4 0.0
1.2000000000000002 0.4 0.0
1.6 0.4 0.0
2.0 0.4 0.0
2.4000000000000004 0.4 0.0
2.8000000000000003 0.4 0.0
3.2 0.4 0.0
3.6 0.4 0.0
4.0 0.4 0.0
4.4 0.4 0.0
4.800000000000001 0.4 0.0
5.2 0.4 0.0
5.6000000000000005 0.4 0.0
6.0 0.4 0.0
6.4 0.4 0.0
6.800000000000001 0.4 0.0
7.2 0.4 0.0
7.6000000000000005 0.4 0.0
8.0 0.4 0.0
8.4 0.4 0.0
8.8 0.4 0.0
9.200000000000001 0.4 0.0
9.600000000000001 0.4 0.0
10.0 0.4 0.0
10.4 0.4 0.0
10.8 0.4 0.0
11.200000000000001 0.4 0.0
11.600000000000001 0.4 0.0
12.0 0.4 0.0
12.4 0.4 0.0
12.8 0.4 0.0
13.200000000000001 0.4 0.0
13.600000000000001 0.4 0.0
14.0 0.4 0.0
14.4 0.4 0.0
14.8 0.4 0.0
15.200000000000001 0.4 0.0
15.600000000000001 0.4 0.0
16.0 0.4 0.0
0.0 0.5 0.0
0.4 0.5 0.0
0.8 0.5 0.0
1.2000000000000002 0.5 0.0
1.6 0.5 0.0
2.0 0.5 0.0
2.4000000000000004 0.5 0.0
2.8000000000000003 0.5 0.0
3.2 0.5 0.0
3.6 0.5 0.0
4.0 0.5 0.0
4.4 0.5 0.0
4.800000000000001 0.5 0.0
5.2 0.5 0.0
5.6000000000000005 0.5 0.0
6.0 0.5 0.0
6.4 0.5 0.0
6.800000000000001 0.5 0.0
7.2 0.5 0.0
7.6000000000000005 0.5 0.0
8.0 0.5 0.0
8.4 0.5 0.0
8.8 0.5 0.0
9.200000000000001 0.5 0.0
9.600000000000001 0.5 0.0
10.0 0.5 0.0
10.4 0.5 0.0
10.8 0.5 0.0
11.200000000000001 0.5 0.0
11.600000000000001 0.5 0.0
12.0 0.5 0.0
12.4 0.5 0.0
12.8 0.5 0.0
13.200000000000001 0.5 0.0
13.600000000000001 0.5 0.0
14.0 0.5 0.0
14.4 0.5 0.0
14.8 0.5 0.0
15.200000000000001 0.5 0.0
15.600000000000001 0.5 0.0
16.0 0.5 0.0
0.0 0.6000000000000001 0.0
0.4 0.6000000000000001 0.0
0.8 0.6000000000000001 0.0
1.2000000000000002 0.6000000000000001 0.0
1.6 0.6000000000000001 0.0
2.0 0.6000000000000001 0.0
2.4000000000000004 0.6000000000000001 0.0
2.8000000000000003 0.6000000000000001 0.0
3.2 0.6000000000000001 0.0
3.6 0.6000000000000001 0.0
4.0 0.6000000000000001 0.0
4.4 0.6000000000000001 0.0
4.800000000000001 0.6000000000000001 0.0
5.2 0.6000000000000001 0.0
5.6000000000000005 0.6000000000000001 0.0
6.0 0.6000000000000001 0.0
6.4 0.6000000000000001 0.0
6.800000000000001 0.6000000000000001 0.0
7.2 0.6000000000000001 0.0
7.6000000000000005 0.6000000000000001 0.0
8.0 0.6000000000000001 0.0
8.4 0.6000000000000001 0.0
8.8 0.6000000000000001 0.0
9.200000000000001 0.6000000000000001 0.0
9.600000000000001 0.6000000000000001 0.0
10.0 0.6000000000000001 0.0
10.4 0.6000000000000001 0.0
10.8 0.6000000000000001 0.0
11.200000000000001 0.6000000000000001 0.0
11.600000000000001 0.6000000000000001 0.0
12.0 0.6000000000000001 0.0
12.4 0.6000000000000001 0.0
12.8 0.6000000000000001 0.0
13.200000000000001 0.6000000000000001 0.0
13.600000000000001 0.6000000000000001 0.0
14.0 0.6000000000000001 0.0
14.4 0.6000000000000001 0.0
14.8 0.6000000000000001 0.0
15.200000000000001 0.6000000000000001 0.0
15.600000000000001 0.6000000000000001 0.0
16.0 0.6000000000000001 0.0
0.0 0.7000000000000001 0.0
0.4 0.7000000000000001 0.0
0.8 0.7000000000000001 0.0
1.2000000000000002 0.7000000000000001 0.0
1.6 0.7000000000000001 0.0
2.0 0.7000000000000001 0.0
2.4000000000000004 0.7000000000000001 0.0
2.8000000000000003 0.7000000000000001 0.0
3.2 0.7000000000000001 0.0
3.6 0.7000000000000001 0.0
4.0 0.7000000000000001 0.0
4.4 0.7000000000000001 0.0
4.800000000000001 0.7000000000000001 0.0
5.2 0.7000000000000001 0.0
5.6000000000000005 0.7000000000000001 0.0
6.0 0.7000000000000001 0.0
6.4 0.7000000000000001 0.0
6.800000000000001 0.7000000000000001 0.0
7.2 0.7000000000000001 0.0
7.6000000000000005 0.7000000000000001 0.0
8.0 0.7000000000000001 0.0
8.4 0.7000000000000001 0.0
8.8 0.7000000000000001 0.0
9.200000000000001 0.7000000000000001 0.0
9.600000000000001 0.7000000000000001 0.0
10.0 0.7000000000000001 0.0
10.4 0.7000000000000001 0.0
10.8 0.7000000000000001 0.0
11.200000000000001 0.7000000000000001 0.0
11.600000000000001 0.7000000000000001 0.0
12.0 0.7000000000000001 0.0
12.4 0.7000000000000001 0.0
12.8 0.7000000000000001 0.0
13.200000000000001 0.7000000000000001 0.0
13.600000000000001 0.7000000000000001 0.0
14.0 0.7000000000000001 0.0
14.4 0.7000000000000001 0.0
14.8 0.7000000000000001 0.0
15.200000000000001 0.7000000000000001 0.0
15.600000000000001 0.7000000000000001 0.0
16.0 0.7000000000000001 0.0
0.0 0.8 0.0
0.4 0.8 0.0
0.8 0.8 0.0
1.2000000000000002 0.8 0.0
1.6 0.8 0.0
2.0 0.8 0.0
2.4000000000000004 0.8 0.0
2.8000000000000003 0.8 0.0
3.2 0.8 0.0
3.6 0.8 0.0
4.0 0.8 0.0
4.4 0.8 0.0
4.800000000000001 0.8 0.0
5.2 0.8 0.0
5.6000000000000005 0.8 0.0
6.0 0.8 0.0
6.4 0.8 0.0
6.800000000000001 0.8 0.0
7.2 0.8 0.0
7.6000000000000005 0.8 0.0
8.0 0.8 0.0
8.4 0.8 0.0
8.8 0.8 0.0
9.200000000000001 0.8 0.0
9.600000000000001 0.8 0.0
10.0 0.8 0.0
10.4 0.8 0.0
10.8 0.8 0.0
11.200000000000001 0.8 0.0
11.600000000000001 0.8 0.0
12.0 0.8 0.0
12.4 0.8 0.0
12.8 0.8 0.0
13.200000000000001 0.8 0.0
13.600000000000001 0.8 0.0
14.0 0.8 0.0
14.4 0.8 0.0
14.8 0.8 0.0
15.200000000000001 0.8 0.0
15.600000000000001 0.8 0.0
16.0 0.8 0.0
0.0 0.9 0.0
0.4 0.9 0.0
0.8 0.9 0.0
1.2000000000000002 0.9 0.0
1.6 0.9 0.0
2.0 0.9 0.0
2.4000000000000004 0.9 0.0
2.8000000000000003 0.9 0.0
3.2 0.9 0.0
3.6 0.9 0.0
4.0 0.9 0.0
4.4 0.9 0.0
4.800000000000001 0.9 0.0
5.2 0.9 0.0
5.6000000000000005 0.9 0.0
6.0 0.9 0.0
6.4 0.9 0.0
6.800000000000001 0.9 0.0
7.2 0.9 0.0
7.6000000000000005 0.9 0.0
8.0 0.9 0.0
8.4 0.9 0.0
8.8 0.9 0.0
9.200000000000001 0.9 0.0
9.600000000000001 0.9 0.0
10.0 0.9 0.0
10.4 0.9 0.0
10.8 0.9 0.0
11.200000000000001 0.9 0.0
11.600000000000001 0.9 0.0
12.0 0.9 0.0
12.4 0.9 0.0
12.8 0.9 0.0
13.200000000000001 0.9 0.0
13.600000000000001 0.9 0.0
14.0 0.9 0.0
14.4 0.9 0.0
14.8 0.9 0.0
15.200000000000001 0.9 0.0
15.600000000000001 0.9 0.0
16.0 0.9 0.0
0.0 1.0 0.0
0.4 1.0 0.0
0.8 1.0 0.0
1.2000000000000002 1.0 0.0
1.6 1.0 0.0
2.0 1.0 0.0
2.4000000000000004 1.0 0.0
2.8000000000000003 1.0 0.0
3.2 1.0 0.0
3.6 1.0 0.0
4.0 1.0 0.0
4.4 1.0 0.0
4.800000000000001 1.0 0.0
5.2 1.0 0.0
5.6000000000000005 1.0 0.0
6.0 1.0 0.0
6.4 1.0 0.0
6.800000000000001 1.0 0.0
7.2 1.0 0.0
7.6000000000000005 1.0 0.0
8.0 1.0 0.0
8.4 1.0 0.0
8.8 1.0 0.0
9.200000000000001 1.0 0.0
9.600000000000001 1.0 0.0
10.0 1.0 0.0
10.4 1.0 0.0
10.8 1.0 0.0
11.200000000000001 1.0 0.0
11.600000000000001 1.0 0.0
12.0 1.0 0.0
12.4 1.0 0.0
12.8 1.0 0.0
13.200000000000001 1.0 0.0
13.600000000000001 1.0 0.0
14.0 1.0 0.0
14.4 1.0 0.0
14.8 1.0 0.0
15.200000000000001 1.0 0.0
15.600000000000001 1.0 0.0
16.0 1.0 0.0
0.0 1.1 0.0
0.4 1.1 0.0
0.8 1.1 0.0
1.2000000000000002 1.1 0.0
1.6 1.1 0.0
2.0 1.1 0.0
2.4000000000000004 1.1 0.0
2.8000000000000003 1.1 0.0
3.2 1.1 0.0
3.6 1.1 0.0
4.0 1.1 0.0
4.4 1.1 0.0
4.800000000000001 1.1 0.0
5.2 1.1 0.0
5.6000000000000005 1.1 0.0
6.0 1.1 0.0
6.4 1.1 0.0
6.800000000000001 1.1 0.0
7.2 1.1 0.0
7.6000000000000005 1.1 0.0
8.0 1.1 0.0
8.4 1.1 0.0
8.8 1.1 0.0
9.200000000000001 1.1 0.0
9.600000000000001 1.1 0.0
10.0 1.1 0.0
10.4 1.1 0.0
10.8 1.1 0.0
11.200000000000001 1.1 0.0
11.600000000000001 1.1 0.0
12.0 1.1 0.0
12.4 1.1 0.0
12.8 1.1 0.0
13.200000000000001 1.1 0.0
13.600000000000001 1.1 0.0
14.0 1.1 0.0
14.4 1.1 0.0
14.8 1.1 0.0
15.200000000000001 1.1 0.0
15.600000000000001 1.1 0.0
16.0 1.1 0.0
0.0 1.2000000000000002 0.0
0.4 1.2000000000000002 0.0
0.8 1.2000000000000002 0.0
1.2000000000000002 1.2000000000000002 0.0
1.6 1.2000000000000002 0.0
2.0 1.2000000000000002 0.0
2.4000000000000004 1.2000000000000002 0.0
2.8000000000000003 1.2000000000000002 0.0
3.2 1.2000000000000002 0.0
3.6 1.2000000000000002 0.0
4.0 1.2000000000000002 0.0
4.4 1.2000000000000002 0.0
4.800000000000001 1.2000000000000002 0.0
5.2 1.2000000000000002 0.0
5.6000000000000005 1.2000000000000002 0.0
6.0 1.2000000000000002 0.0
6.4 1.2000000000000002 0.0
6.800000000000001 1.2000000000000002 0.0
7.2 1.2000000000000002 0.0
7.6000000000000005 1.2000000000000002 0.0
8.0 1.2000000000000002 0.0
8.4 1.2000000000000002 0.0
8.8 1.2000000000000002 0.0
9.200000000000001 1.2000000000000002 0.0
9.600000000000001 1.2000000000000002 0.0
10.0 1.2000000000000002 0.0
10.4 1.2000000000000002 0.0
10.8 1.2000000000000002 0.0
11.200000000000001 1.2000000000000002 0.0
11.600000000000001 1.2000000000000002 0.0
12.0 1.2000000000000002 0.0
12.4 1.2000000000000002 0.0
12.8 1.2000000000000002 0.0
13.200000000000001 1.2000000000000002 0.0
13.600000000000001 1.2000000000000002 0.0
14.0 1.2000000000000002 0.0
14.4 1.2000000000000002 0.0
14.8 1.2000000000000002 0.0
15.200000000000001 1.2000000000000002 0.0
15.600000000000001 1.2000000000000002 0.0
16.0 1.2000000000000002 0.0
0.0 1.3 0.0
0.4 1.3 0.0
0.8 1.3 0.0
1.2000000000000002 1.3 0.0
1.6 1.3 0.0
2.0 1.3 0.0
2.4000000000000004 1.3 0.0
2.8000000000000003 1.3 0.0
3.2 1.3 0.0
3.6 1.3 0.0
4.0 1.3 0.0
4.4 1.3 0.0
4.800000000000001 1.3 0.0
5.2 1.3 0.0
5.6000000000000005 1.3 0.0
6.0 1.3 0.0
6.4 1.3 0.0
6.800000000000001 1.3 0.0
7.2 1.3 0.0
7.6000000000000005 1.3 0.0
8.0 1.3 0.0
8.4 1.3 0.0
8.8 1.3 0.0
9.200000000000001 1.3 0.0
9.600000000000001 1.3 0.0
10.0 1.3 0.0
10.4 1.3 0.0
10.8 1.3 0.0
11.200000000000001 1.3 0.0
11.600000000000001 1.3 0.0
12.0 1.3 0.0
12.4 1.3 0.0
12.8 1.3 0.0
13.200000000000001 1.3 0.0
13.600000000000001 1.3 0.0
14.0 1.3 0.0
14.4 1.3 0.0
14.8 1.3 0.0
15.200000000000001 1.3 0.0
15.600000000000001 1.3 0.0
16.0 1.3 0.0
0.0 1.4000000000000001 0.0
0.4 1.4000000000000001 0.0
0.8 1.4000000000000001 0.0
1.2000000000000002 1.4000000000000001 0.0
1.6 1.4000000000000001 0.0
2.0 1.4000000000000001 0.0
2.4000000000000004 1.4000000000000001 0.0
2.8000000000000003 1.4000000000000001 0.0
3.2 1.4000000000000001 0.0
3.6 1.4000000000000001 0.0
4.0 1.4000000000000001 0.0
4.4 1.4000000000000001 0.0
4.800000000000001 1.4000000000000001 0.0
5.2 1.4000000000000001 0.0
5.6000000000000005 1.4000000000000001 0.0
6.0 1.4000000000000001 0.0
6.4 1.4000000000000001 0.0
6.800000000000001 1.4000000000000001 0.0
7.2 1.4000000000000001 0.0
7.6000000000000005 1.4000000000000001 0.0
8.0 1.4000000000000001 0.0
8.4 1.4000000000000001 0.0
8.8 1.4000000000000001 0.0
9.200000000000001 1.4000000000000001 0.0
9.600000000000001 1.4000000000000001 0.0
10.0 1.4000000000000001 0.0
10.4 1.4000000000000001 0.0
10.8 1.4000000000000001 0.0
11.200000000000001 1.4000000000000001 0.0
11.600000000000001 1.4000000000000001 0.0
12.0 1.4000000000000001 0.0
12.4 1.4000000000000001 0.0
12.8 1.4000000000000001 0.0
13.200000000000001 1.4000000000000001 0.0
13.600000000000001 1.4000000000000001 0.0
14.0 1.4000000000000001 0.0
14.4 1.4000000000000001 0.0
14.8 1.4000000000000001 0.0
15.200000000000001 1.4000000000000001 0.0
15.600000000000001 1.4000000000000001 0.0
16.0 1.4000000000000001 0.0
0.0 1.5 0.0
0.4 1.5 0.0
0.8 1.5 0.0
1.2000000000000002 1.5 0.0
1.6 1.5 0.0
2.0 1.5 0.0
2.4000000000000004 1.5 0.0
2.8000000000000003 1.5 0.0
3.2 1.5 0.0
3.6 1.5 0.0
4.0 1.5 0.0
4.4 1.5 0.0
4.800000000000001 1.5 0.0
5.2 1.5 0.0
5.6000000000000005 1.5 0.0
6.0 1.5 0.0
6.4 1.5 0.0
6.800000000000001 1.5 0.0
7.2 1.5 0.0
7.6000000000000005 1.5 0.0
8.0 1.5 0.0
8.4 1.5 0.0
8.8 1.5 0.0
9.200000000000001 1.5 0.0
9.600000000000001 1.5 0.0
10.0 1.5 0.0
10.4 1.5 0.0
10.8 1.5 0.0
11.200000000000001 1.5 0.0
11.600000000000001 1.5 0.0
12.0 1.5 0.0
12.4 1.5 0.0
12.8 1.5 0.0
13.200000000000001 1.5 0.0
13.600000000000001 1.5 0.0
14.0 1.5 0.0
14.4 1.5 0.0
14.8 1.5 0.0
15.200000000000001 1.5 0.0
15.600000000000001 1.5 0.0
16.0 1.5 0.0
0.0 1.6 0.0
0.4 1.6 0.0
0.8 1.6 0.0
1.2000000000000002 1.6 0.0
1.6 1.6 0.0
2.0 1.6 0.0
2.4000000000000004 1.6 0.0
2.8000000000000003 1.6 0.0
3.2 1.6 0.0
3.6 1.6 0.0
4.0 1.6 0.0
4.4 1.6 0.0
4.800000000000001 1.6 0.0
5.2 1.6 0.0
5.6000000000000005 1.6 0.0
6.0 1.6 0.0
6.4 1.6 0.0
6.800000000000001 1.6 0.0
7.2 1.6 0.0
7.6000000000000005 1.6 0.0
8.0 1.6 0.0
8.4 1.6 0.0
8.8 1.6 0.0
9.200000000000001 1.6 0.0
9.600000000000001 1.6 0.0
10.0 1.6 0.0
10.4 1.6 0.0
10.8 1.6 0.0
11.200000000000001 1.6 0.0
11.600000000000001 1.6 0.0
12.0 1.6 0.0
12.4 1.6 0.0
12.8 1.6 0.0
13.200000000000001 1.6 0.0
13.600000000000001 1.6 0.0
14.0 1.6 0.0
14.4 1.6 0.0
14.8 1.6 0.0
15.200000000000001 1.6 0.0
15.600000000000001 1.6 0.0
16.0 1.6 0.0
0.0 1.7000000000000002 0.0
0.4 1.7000000000000002 0.0
0.8 1.7000000000000002 0.0
1.2000000000000002 1.7000000000000002 0.0
1.6 1.7000000000000002 0.0
2.0 1.7000000000000002 0.0
2.4000000000000004 1.7000000000000002 0.0
2.8000000000000003 1.7000000000000002 0.0
3.2 1.7000000000000002 0.0
3.6 1.7000000000000002 0.0
4.0 1.7000000000000002 0.0
4.4 1.7000000000000002 0.0
4.800000000000001 1.7000000000000002 0.0
5.2 1.7000000000000002 0.0
5.6000000000000005 1.7000000000000002 0.0
6.0 1.7000000000000002 0.0
6.4 1.7000000000000002 0.0
6.800000000000001 1.7000000000000002 0.0
7.2 1.7000000000000002 0.0
7.6000000000000005 1.7000000000000002 0.0
8.0 1.7000000000000002 0.0
8.4 1.7000000000000002 0.0
8.8 1.7000000000000002 0.0
9.200000000000001 1.7000000000000002 0.0
9.600000000000001 1.7000000000000002 0.0
10.0 1.7000000000000002 0.0
10.4 1.7000000000000002 0.0
10.8 1.7000000000000002 0.0
11.200000000000001 1.7000000000000002 0.0
11.600000000000001 1.7000000000000002 0.0
12.0 1.7000000000000002 0.0
12.4 1.7000000000000002 0.0
12.8 1.7000000000000002 0.0
13.200000000000001 1.7000000000000002 0.0
13.600000000000001 1.7000000000000002 0.0
14.0 1.7000000000000002 0.0
14.4 1.7000000000000002 0.0
14.8 1.7000000000000002 0.0
15.200000000000001 1.7000000000000002 0.0
15.600000000000001 1.7000000000000002 0.0
16.0 1.7000000000000002 0.0
0.0 1.8 0.0
0.4 1.8 0.0
0.8 1.8 0.0
1.2000000000000002 1.8 0.0
1.6 1.8 0.0
2.0 1.8 0.0
2.4000000000000004 1.8 0.0
2.8000000000000003 1.8 0.0
3.2 1.8 0.0
3.6 1.8 0.0
4.0 1.8 0.0
4.4 1.8 0.0
4.800000000000001 1.8 0.0
5.2 1.8 0.0
5.6000000000000005 1.8 0.0
6.0 1.8 0.0
6.4 1.8 0.0
6.800000000000001 1.8 0.0
7.2 1.8 0.0
7.6000000000000005 1.8 0.0
8.0 1.8 0.0
8.4 1.8 0.0
8.8 1.8 0.0
9.200000000000001 1.8 0.0
9.600000000000001 1.8 0.0
10.0 1.8 0.0
10.4 1.8 0.0
10.8 1.8 0.0
11.200000000000001 1.8 0.0
11.600000000000001 1.8 0.0
12.0 1.8 0.0
12.4 1.8 0.0
12.8 1.8 0.0
13.200000000000001 1.8 0.0
13.600000000000001 1.8 0.0
14.0 1.8 0.0
14.4 1.8 0.0
14.8 1.8 0.0
15.200000000000001 1.8 0.0
15.600000000000001 1.8 0.0
16.0 1.8 0.0
0.0 1.9000000000000001 0.0
0.4 1.9000000000000001 0.0
0.8 1.9000000000000001 0.0
1.2000000000000002 1.9000000000000001 0.0
1.6 1.9000000000000001 0.0
2.0 1.9000000000000001 0.0
2.4000000000000004 1.9000000000000001 0.0
2.8000000000000003 1.9000000000000001 0.0
3.2 1.9000000000000001 0.0
3.6 1.9000000000000001 0.0
4.0 1.9000000000000001 0.0
4.4 1.9000000000000001 0.0
4.800000000000001 1.9000000000000001 0.0
5.2 1.9000000000000001 0.0
5.6000000000000005 1.9000000000000001 0.0
6.0 1.9000000000000001 0.0
6.4 1.9000000000000001 0.0
6.800000000000001 1.9000000000000001 0.0
7.2 1.9000000000000001 0.0
7.6000000000000005 1.9000000000000001 0.0
8.0 1.9000000000000001 0.0
8.4 1.9000000000000001 0.0
8.8 1.9000000000000001 0.0
9.200000000000001 1.9000000000000001 0.0
9.600000000000001 1.9000000000000001 0.0
10.0 1.9000000000000001 0.0
10.4 1.9000000000000001 0.0
10.8 1.9000000000000001 0.0
11.200000000000001 1.9000000000000001 0.0
11.600000000000001 1.9000000000000001 0.0
12.0 1.9000000000000001 0.0
12.4 1.9000000000000001 0.0
12.8 1.9000000000000001 0.0
13.200000000000001 1.9000000000000001 0.0
13.600000000000001 1.9000000000000001 0.0
14.0 1.9000000000000001 0.0
14.4 1.9000000000000001 0.0
14.8 1.9000000000000001 0.0
15.200000000000001 1.9000000000000001 0.0
15.600000000000001 1.9000000000000001 0.0
16.0 1.9000000000000001 0.0
0.0 2.0 0.0
0.4 2.0 0.0
0.8 2.0 0.0
1.2000000000000002 2.0 0.0
1.6 2.0 0.0
2.0 2.0 0.0
2.4000000000000004 2.0 0.0
2.8000000000000003 2.0 0.0
3.2 2.0 0.0
3.6 2.0 0.0
4.0 2.0 0.0
4.4 2.0 0.0
4.800000000000001 2.0 0.0
5.2 2.0 0.0
5.6000000000000005 2.0 0.0
6.0 2.0 0.0
6.4 2.0 0.0
6.800000000000001 2.0 0.0
7.2 2.0 0.0
7.6000000000000005 2.0 0.0
8.0 2.0 0.0
8.4 2.0 0.0
8.8 2.0 0.0
9.200000000000001 2.0 0.0
9.600000000000001 2.0 0.0
10.0 2.0 0.0
10.4 2.0 0.0
10.8 2.0 0.0
11.200000000000001 2.0 0.0
11.600000000000001 2.0 0.0
12.0 2.0 0.0
12.4 2.0 0.0
12.8 2.0 0.0
13.200000000000001 2.0 0.0
13.600000000000001 2.0 0.0
14.0 2.0 0.0
14.4 2.0 0.0
14.8 2.0 0.0
15.200000000000001 2.0 0.0
15.600000000000001 2.0 0.0
16.0 2.0 0.0
CELLS 800 4000
4 0 1 42 41
4 1 2 43 42
4 2 3 44 43
4 3 4 45 44
4 4 5 46 45
4 5 6 47 46
4 6 7 48 47
4 7 8 49 48
4 8 9 50 49
4 9 10 51 50
4 10 11 52 51
4 11 12 53 52
4 12 13 54 53
4 13 14 55 54
4 14 15 56 55
4 15 16 57 56
4 16 17 58 57
4 17 18 59 58
4 18 19 60 59
4 19 20 61 60
4 20 21 62 61
4 21 22 63 62
4 22 23 64 63
4 23 24 65 64
4 24 25 66 65
4 25 26 67 66
4 26 27 68 67
4 27 28 69 68
4 28 29 70 69
4 29 30 71 70
4 30 31 72 71
4 31 32 73 72
4 32 33 74 73
4 33 34 75 74
4 34 35 76 75
4 35 36 77 76
4 36 37 78 77
4 37 38 79 78
4 38 39 80 79
4 39 40 81 80
4 41 42 83 82
4 42 43 84 83
4 43 44 85 84
4 44 45 86 85
4 45 46 87 86
4 46 47 88 87
4 47 48 89 88
4 48 49 90 89
4 49 50 91 90
4 50 51 92 91
4 51 52 93 92
4 52 53 94 93
4 53 54 95 94
4 54 55 96 95
4 55 56 97 96
4 56 57 98 97
4 57 58 99 98
4 58 59 100 99
4 59 60 101 100
4 60 61 102 101
4 61 62 103 102
4 62 63 104 103
4 63 64 105 104
4 64 65 106 105
4 65 66 107 106
4 66 67 108 107
4 67 68 109 108
4 68 69 110 109
4 69 70 111 110
4 70 71 112 111
4 71 72 113 112
4 72 73 114 113
4 73 74 115 114
4 74 75 116 115
4 75 76 117 116
4 76 77 118 117
4 77 78 119 118
4 78 79 120 119
4 79 80 121 120
4 80 81 122 121
4 82 83 124 123
4 83 84 125 124
4 84 85 126 125
4 85 86 127 126
4 86 87 128 127
4 87 88 129 128
4 88 89 130 129
4 89 90 131 130
4 90 91 132 131
4 91 92 133 132
4 92 93 134 133
4 93 94 135 134
4 94 95 136 135
4 95 96 137 136
4 96 97 138 137
4 97 98 139 138
4 98 99 140 139
4 99 100 141 140
4 100 101 142 141
4 101 102 143 142
4 102 103 144 143
4 103 104 145 144
4 104 105 146 145
4 105 106 147 146
4 106 107 148 147
4 107 108 149 148
4 108 109 150 149
4 109 110 151 150
4 110 111 152 151
4 111 112 153 152
4 112 113 154 153
4 113 114 155 154
4 114 115 156 155
4 115 116 157 156
4 116 117 158 157
4 117 118 159 158
4 118 119 160 159
4 119 120 161 160
4 120 121 162 161
4 121 122 163 162
4 123 124 165 164
4 124 125 166 165
4 125 126 167 166
4 126 127 168 167
4 127 128 169 168
4 128 129 170 169
4 129 130 171 170
4 130 131 172 171
4 131 132 173 172
4 132 133 174 173
4 133 134 175 174
4 134 135 176 175
4 135 136 177 176
4 136 137 178 177
4 137 138 179 178
4 138 139 180 179
4 139 140 181 180
4 140 141 182 181
4 141 142 183 182
4 142 143 184 183
4 143 144 185 184
4 144 145 186 185
4 145 146 187 186
4 146 147 188 187
4 147 148 189 188
4 148 149 190 189
4 149 150 191 190
4 150 151 192 191
4 151 152 193 192
4 152 153 194 193
4 153 154 195 194
4 154 155 196 195
4 155 156 197 196
4 156 157 198 197
4 157 158 199 198
4 158 159 200 199
4 159 160 201 200
4 160 161 202 201
4 161 162 203 202
4 162 163 204 203
4 164 165 206 205
4 165 166 207 206
4 166 167 208 207
4 167 168 209 208
4 168 169 210 209
4 169 170 211 210
4 170 171 212 211
4 171 172 213 212
4 172 173 214 213
4 173 174 215 214
4 174 175 216 215
4 175 176 217 216
4 176 177 218 217
4 177 178 219 218
4 178 179 220 219
4 179 180 221 220
4 180 181 222 221
4 181 182 223 222
4 182 183 224 223
4 183 184 225 224
4 184 185 226 225
4 185 186 227 226
4 186 187 228 227
4 187 188 229 228
4 188 189 230 229
4 189 190 231 230
4 190 191 232 231
4 191 192 233 232
4 192 193 234 233
4 193 194 235 234
4 194 195 236 235
4 195 196 237 236
4 196 197 238 237
4 197 198 239 238
4 198 199 240 239
4 199 200 241 240
4 200 201 242 241
4 201 202 243 242
4 202 203 244 243
4 203 204 245 244
4 205 206 247 246
4 206 207 248 247
4 207 208 249 248
4 208 209 250 249
4 209 210 251 250
4 210 211 252 251
4 211 212 253 252
4 212 213 254 253
4 213 214 255 254
4 214 215 256 255
4 215 216 257 256
4 216 217 258 257
4 217 218 259 258
4 218 219 260 259
4 219 220 261 260
4 220 221 262 261
4 221 222 263 262
4 222 223 264 263
4 223 224 265 264
4 224 225 266 265
4 225 226 267 266
4 226 227 268 267
4 227 228 269 268
4 228 229 270 269
4 229 230 271 270
4 230 231 272 271
4 231 232 273 272
4 232 233 274 273
4 233 234 275 274
4 234 235 276 275
4 235 236 277 276
4 236 237 278 277
4 237 238 279 278
4 238 239 280 279
4 239 240 281 280
4 240 241 282 281
4 241 242 283 282
4 242 243 284 283
4 243 244 285 284
4 244 245 286 285
4 246 247 288 287
4 247 248 289 288
4 248 249 290 289
4 249 250 291 290
4 250 251 292 291
4 251 252 293 292
4 252 253 294 293
4 253 254 295 294
4 254 255 296 295
4 255 256 297 296
4 256 257 298 297
4 257 258 299 298
4 258 259 300 299
4 259 260 301 300
4 260 261 302 301
4 261 262 303 302
4 262 263 304 303
4 263 264 305 304
4 264 265 306 305
4 265 266 307 306
4 266 267 308 307
4 267 268 309 308
4 268 269 310 309
4 269 270 311 310
4 270 271 312 311
4 271 272 313 312
4 272 273 314 313
4 273 274 315 314
4 274 275 316 315
4 275 276 317 316
4 276 277 318 317
4 277 278 319 318
4 278 279 320 319
4 279 280 321 320
4 280 281 322 321
4 281 282 323 322
4 282 283 324 323
4 283 284 325 324
4 284 285 326 325
4 285 286 327 326
4 287 288 329 328
4 288 289 330 329
4 289 290 331 330
4 290 291 332 331
4 291 292 333 332
4 292 293 334 333
4 293 294 335 334
4 294 295 336 335
4 295 296 337 336
4 296 297 338 337
4 297 298 339 338
4 298 299 340 339
4 299 300 341 340
4 300 301 342 341
4 301 302 343 342
4 302 303 344 343
4 303 304 345 344
4 304 305 346 345
4 305 306 347 346
4 306 307 348 347
4 307 308 349 348
4 308 309 350 349
4 309 310 351 350
4 310 311 352 351
4 311 312 353 352
4 312 313 354 353
4 313 314 355 354
4 314 315 356 355
4 315 316 357 356
4 316 317 358 357
4 317 318 359 358
4 318 319 360 359
4 319 320 361 360
4 320 321 362 361
4 321 322 363 362
4 322 323 364 363
4 323 324 365 364
4 324 325 366 365
4 325 326 367 366
4 326 327 368 367
4 328 329 370 369
4 329 330 371 370
4 330 331 372 371
4 331 332 373 372
4 332 333 374 373
4 333 334 375 374
4 334 335 376 375
4 335 336 377 376
4 336 337 378 377
4 337 338 379 378
4 338 339 380 379
4 339 340 381 380
4 340 341 382 381
4 341 342 383 382
4 342 343 384 383
4 343 344 385 384
4 344 345 386 385
4 345 346 387 386
4 346 347 388 387
4 347 348 389 388
4 348 349 390 389
4 349 350 391 390
4 350 351 392 391
4 351 352 393 392
4 352 353 394 393
4 353 354 395 394
4 354 355 396 395
4 355 356 397 396
4 356 357 398 397
4 357 358 399 398
4 358 359 400 399
4 359 360 401 400
4 360 361 402 401
4 361 362 403 402
4 362 363 404 403
4 363 364 405 404
4 364 365 406 405
4 365 366 407 406
4 366 367 408 407
4 367 368 409 408
4 369 370 411 410
4 370 371 412 411
4 371 372 413 412
4 372 373 414 413
4 373 374 415 414
4 374 375 416 415
4 375 376 417 416
4 376 377 418 417
4 377 378 419 418
4 378 379 420 419
4 379 380 421 420
4 380 381 422 421
4 381 382 423 422
4 382 383 424 423
4 383 384 425 424
4 384 385 426 425
4 385 386 427 426
4 386 387 428 427
4 387 388 429 428
4 388 389 430 429
4 389 390 431 430
4 390 391 432 431
4 391 392 433 432
4 392 393 434 433
4 393 394 435 434
4 394 395 436 435
4 395 396 437 436
4 396 397 438 437
4 397 398 439 438
4 398 399 440 439
4 399 400 441 440
4 400 401 442 441
4 401 402 443 442
4 402 403 444 443
4 403 404 445 444
4 404 405 446 445
4 405 406 447 446
4 406 407 448 447
4 407 408 449 448
4 408 409 450 449
4 410 411 452 451
4 411 412 453 452
4 412 413 454 453
4 413 414 455 454
4 414 415 456 455
4 415 416 457 456
4 416 417 458 457
4 417 418 459 458
4 418 419 460 459
4 419 420 461 460
4 420 421 462 461
4 421 422 463 462
4 422 423 464 463
4 423 424 465 464
4 424 425 466 465
4 425 426 467 466
4 426 427 468 467
4 427 428 469 468
4 428 429 470 469
4 429 430 471 470
4 430 431 472 471
4 431 432 473 472
4 432 433 474 473
4 433 434 475 474
4 434 435 476 475
4 435 436 477 476
4 436 437 478 477
4 437 438 479 478
4 438 439 480 479
4 439 440 481 480
4 440 441 482 481
4 441 442 483 482
4 442 443 484 483
4 443 444 485 484
4 444 445 486 485
4 445 446 487 486
4 446 447 488 487
4 447 448 489 488
4 448 449 490 489
4 449 450 491 490
4 451 452 493 492
4 452 453 494 493
4 453 454 495 494
4 454 455 496 495
4 455 456 497 496
4 456 457 498 497
4 457 458 499 498
4 458 459 500 499
4 459 460 501 500
4 460 461 502 501
4 461 462 503 502
4 462 463 504 503
4 463 464 505 504
4 464 465 506 505
4 465 466 507 506
4 466 467 508 507
4 467 468 509 508
4 468 469 510 509
4 469 470 511 510
4 470 471 512 511
4 471 472 513 512
4 472 473 514 513
4 473 474 515 514
4 474 475 516 515
4 475 476 517 516
4 476 477 518 517
4 477 478 519 518
4 478 479 520 519
4 479 480 521 520
4 480 481 522 521
4 481 482 523 522
4 482 483 524 523
4 483 484 525 524
4 484 485 526 525
4 485 486 527 526
4 486 487 528 527
4 487 488 529 528
4 488 489 530 529
4 489 490 531 530
4 490 491 532 531
4 492 493 534 533
4 493 494 535 534
4 494 495 536 535
4 495 496 537 536
4 496 497 538 537
4 497 498 539 538
4 498 499 540 539
4 499 500 541 540
4 500 501 542 541
4 501 502 543 542
4 502 503 544 543
4 503 504 545 544
4 504 505 546 545
4 505 506 547 546
4 506 507 548 547
4 507 508 549 548
4 508 509 550 549
4 509 510 551 550
4 510 511 552 551
4 511 512 553 552
4 512 513 554 553
4 513 514 555 554
4 514 515 556 555
4 515 516 557 556
4 516 517 558 557
4 517 518 559 558
4 518 519 560 559
4 519 520 561 560
4 520 521 562 561
4 521 522 563 562
4 522 523 564 563
4 523 524 565 564
4 524 525 566 565
4 525 526 567 566
4 526 527 568 567
4 527 528 569 568
4 528 529 570 569
4 529 530 571 570
4 530 531 572 571
4 531 532 573 572
4 533 534 575 574
4 534 535 576 575
4 535 536 577 576
4 536 537 578 577
4 537 538 579 578
4 538 539 580 579
4 539 540 581 580
4 540 541 582 581
4 541 542 583 582
4 542 543 584 583
4 543 544 585 584
4 544 545 586 585
4 545 546 587 586
4 546 547 588 587
4 547 548 589 588
4 548 549 590 589
4 549 550 591 590
4 550 551 592 591
4 551 552 593 592
4 552 553 594 593
4 553 554 595 594
4 554 555 596 595
4 555 556 597 596
4 556 557 598 597
4 557 558 599 598
4 558 559 600 599
4 559 560 601 600
4 560 561 602 601
4 561 562 603 602
4 562 563 604 603
4 563 564 605 604
4 564 565 606 605
4 565 566 607 606
4 566 567 608 607
4 567 568 609 608
4 568 569 610 609
4 569 570 611 610
4 570 571 612 611
4 571 572 613 612
4 572 573 614 613
4 574 575 616 615
4 575 576 617 616
4 576 577 618 617
4 577 578 619 618
4 578 579 620 619
4 579 580 621 620
4 580 581 622 621
4 581 582 623 622
4 582 583 624 623
4 583 584 625 624
4 584 585 626 625
4 585 586 627 626
4 586 587 628 627
4 587 588 629 628
4 588 589 630 629
4 589 590 631 630
4 590 591 632 631
4 591 592 633 632
4 592 593 634 633
4 593 594 635 634
4 594 595 636 635
4 595 596 637 636
4 596 597 638 637
4 597 598 639 638
4 598 599 640 639
4 599 600 641 640
4 600 601 642 641
4 601 602 643 642
4 602 603 644 643
4 603 604 645 644
4 604 605 646 645
4 605 606 647 646
4 606 607 648 647
4 607 608 649 648
4 608 609 650 649
4 609 610 651 650
4 610 611 652 651
4 611 612 653 652
4 612 613 654 653
4 613 614 655 654
4 615 616 657 656
4 616 617 658 657
4 617 618 659 658
4 618 619 660 659
4 619 620 661 660
4 620 621 662 661
4 621 622 663 662
4 622 623 664 663
4 623 624 665 664
4 624 625 666 665
4 625 626 667 666
4 626 627 668 667
4 627 628 669 668
4 628 629 670 669
4 629 630 671 670
4 630 631 672 671
4 631 632 673 672
4 632 633 674 673
4 633 634 675 674
4 634 635 676 675
4 635 636 677 676
4 636 637 678 677
4 637 638 679 678
4 638 639 680 679
4 639 640 681 680
4 640 641 682 681
4 641 642 683 682
4 642 643 684 683
4 643 644 685 684
4 644 645 686 685
4 645 646 687 686
4 646 647 688 687
4 647 648 689 688
4 648 649 690 689
4 649 650 691 690
4 650 651 692 691
4 651 652 693 692
4 652 653 694 693
4 653 654 695 694
4 654 655 696 695
4 656 657 698 697
4 657 658 699 698
4 658 659 700 699
4 659 660 701 700
4 660 661 702 701
4 661 662 703 702
4 662 663 704 703
4 663 664 705 704
4 664 665 706 705
4 665 666 707 706
4 666 667 708 707
4 667 668 709 708
4 668 669 710 709
4 669 670 711 710
4 670 671 712 711
4 671 672 713 712
4 672 673 714 713
4 673 674 715 714
4 674 675 716 715
4 675 676 717 716
4 676 677 718 717
4 677 678 719 718
4 678 679 720 719
4 679 680 721 720
4 680 681 722 721
4 681 682 723 722
4 682 683 724 723
4 683 684 725 724
4 684 685 726 725
4 685 686 727 726
4 686 687 728 727
4 687 688 729 728
4 688 689 730 729
4 689 690 731 730
4 690 691 732 731
4 691 692 733 732
4 692 693 734 733
4 693 694 735 734
4 694 695 736 735
4 695 696 737 736
4 697 698 739 738
4 698 699 740 739
4 699 700 741 740
4 700 701 742 741
4 701 702 743 742
4 702 703 744 743
4 703 704 745 744
4 704 705 746 745
4 705 706 747 746
4 706 707 748 747
4 707 708 749 748
4 708 709 750 749
4 709 710 751 750
4 710 711 752 751
4 711 712 753 752
4 712 713 754 753
4 713 714 755 754
4 714 715 756 755
4 715 716 757 756
4 716 717 758 757
4 717 718 759 758
4 718 719 760 759
4 719 720 761 760
4 720 721 762 761
4 721 722 763 762
4 722 723 764 763
4 723 724 765 764
4 724 725 766 765
4 725 726 767 766
4 726 727 768 767
4 727 728 769 768
4 728 729 770 769
4 729 730 771 770
4 730 731 772 771
4 731 732 773 772
4 732 733 774 773
4 733 734 775 774
4 734 735 776 775
4 735 736 777 776
4 736 737 778 777
4 738 739 780 779
4 739 740 781 780
4 740 741 782 781
4 741 742 783 782
4 742 743 784 783
4 743 744 785 784
4 744 745 786 785
4 745 746 787 786
4 746 747 788 787
4 747 748 789 788
4 748 749 790 789
4 749 750 791 790
4 750 751 792 791
4 751 752 793 792
4 752 753 794 793
4 753 754 795 794
4 754 755 796 795
4 755 756 797 796
4 756 757 798 797
4 757 758 799 798
4 758 759 800 799
4 759 760 801 800
4 760 761 802 801
4 761 762 803 802
4 762 763 804 803
4 763 764 805 804
4 764 765 806 805
4 765 766 807 806
4 766 767 808 807
4 767 768 809 808
4 768 769 810 809
4 769 770 811 810
4 770 771 812 811
4 771 772 813 812
4 772 773 814 813
4 773 774 815 814
4 774 775 816 815
4 775 776 817 816
4 776 777 818 817
4 777 778 819 818
4 779 780 821 820
4 780 781 822 821
4 781 782 823 822
4 782 783 824 823
4 783 784 825 824
4 784 785 826 825
4 785 786 827 826
4 786 787 828 827
4 787 788 829 828
4 788 789 830 829
4 789 790 831 830
4 790 791 832 831
4 791 792 833 832
4 792 793 834 833
4 793 794 835 834
4 794 795 836 835
4 795 796 837 836
4 796 797 838 837
4 797 798 839 838
4 798 799 840 839
4 799 800 841 840
4 800 801 842 841
4 801 802 843 842
4 802 803 844 843
4 803 804 845 844
4 804 805 846 845
4 805 806 847 846
4 806 807 848 847
4 807 808 849 848
4 808 809 850 849
4 809 810 851 850
4 810 811 852 851
4 811 812 853 852
4 812 813 854 853
4 813 814 855 854
4 814 815 856 855
4 815 816 857 856
4 816 817 858 857
4 817 818 859 858
4 818 819 860 859
CELL_TYPES 800
9
9
9
9
9
9
9
9
9
9
9
9
9
9
9
9
9
9
9
9
9
9
9
9
9
9
9
9
9
9
9
9
9
9
9
9
9
9
9
9
9
9
9
9
9
9
9
9
9
9
9
9
9
9
9
9
9
9
9
9
9
9
9
9
9
9
9
9
9
9
9
9
9
9
9
9
9
9
9
9
9
9
9
9
9
9
9
9
9
9
9
9
9
9
9
9
9
9
9
9
9
9
9
9
9
9
9
9
9
9
9
9
9
9
9
9
9
9
9
9
9
9
9
9
9
9
9
9
9
9
9
9
9
9
9
9
9
9
9
9
9
9
9
9
9
9
9
9
9
9
9
9
9
9
9
9
9
9
9
9
9
9
9
9
9
9
9
9
9
9
9
9
9
9
9
9
9
9
9
9
9
9
9
9
9
9
9
9
9
9
9
9
9
9
9
9
9
9
9
9
9
9
9
9
9
9
9
9
9
9
9
9
9
9
9
9
9
9
9
9
9
9
9
9
9
9
9
9
9
9
9
9
9
9
9
9
9
9
9
9
9
9
9
9
9
9
9
9
9
9
9
9
9
9
9
9
9
9
9
9
9
9
9
9
9
9
9
9
9
9
9
9
9
9
9
9
9
9
9
9
9
9
9
9
9
9
9
9
9
9
9
9
9
9
9
9
9
9
9
9
9
9
9
9
9
9
9
9
9
9
9
9
9
9
9
9
9
9
9
9
9
9
9
9
9
9
9
9
9
9
9
9
9
9
9
9
9
9
9
9
9
9
9
9
9
9
9
9
9
9
9
9
9
9
9
9
9
9
9
9
9
9
9
9
9
9
9
9
9
9
9
9
9
9
9
9
9
9
9
9
9
9
9
9
9
9
9
9
9
9
9
9
9
9
9
9
9
9
9
9
9
9
9
9
9
9
9
9
9
9
9
9
9
9
9
9
9
9
9
9
9
9
9
9
9
9
9
9
9
9
9
9
9
9
9
9
9
9
9
9
9
9
9
9
9
9
9
9
9
9
9
9
9
9
9
9
9
9
9
9
9
9
9
9
9
9
9
9
9
9
9
9
9
9
9
9
9
9
9
9
9
9
9
9
9
9
9
9
9
9
9
9
9
9
9
9
9
9
9
9
9
9
9
9
9
9
9
9
9
9
9
9
9
9
9
9
9
9
9
9
9
9
9
9
9
9
9
9
9
9
9
9
9
9
9
9
9
9
9
9
9
9
9
9
9
9
9
9
9
9
9
9
9
9
9
9
9
9
9
9
9
9
9
9
9
9
9
9
9
9
9
9
9
9
9
9
9
9
9
9
9
9
9
9
9
9
9
9
9
9
9
9
9
9
9
9
9
9
9
9
9
9
9
9
9
9
9
9
9
9
9
9
9
9
9
9
9
9
9
9
9
9
9
9
9
9
9
9
9
9
9
9
9
9
9
9
9
9
9
9
9
9
9
9
9
9
9
9
9
9
9
9
9
9
9
9
9
9
9
9
9
9
9
9
9
9
9
9
9
9
9
9
9
9
9
9
9
9
9
9
9
9
9
9
9
9
9
9
9
9
9
9
9
9
9
9
9
9
9
9
9
9
9
9
9
9
9
9
9
9
9
9
9
9
9
9
9
9
9
9
9
9
9
9
9
9
9
9
9
9
9
9
9
9
9
9
9
9
9
9
9
9
9
9
9
9
9
9
9
9
9
9
9
9
9
9
9
9
9
9
9
9
9
9
9
9
9
9
9
9
9
9
9
9
9
9
9
9
9
9
9
9
9
9
9
9
9
9
9
9
9
9
9
9
9
9
9
9
9
9
POINT_DATA 861
SCALARS Disp float 2
LOOKUP_TABLE default
0.0 0.0
0.005187530307612448 -0.1936341694919506
0.006368721981087646 -0.3789273621112334
0.007123662916755723 -0.5633319522532052
0.008062639885814566 -0.7474121469078547
0.00948403972059661 -0.9308447801071462
0.011858634039194214 -1.1132098302526796
0.015734185650709755 -1.293987622850928
0.021746659155213566 -1.472533940244589
0.030585541417798418 -1.6480201447999168
0.04294784923189438 -1.819334855062062
0.05951981455289702 -1.985012195660757
0.08097149591478608 -2.143233208253663
0.1079489955672556 -2.2919019912556378
0.14107487766323598 -2.428710210618259
0.18088211739748453 -2.551185317445678
0.22768878399145995 -2.6567457611131915
0.28143994652185633 -2.742793152322673
0.3415645617268353 -2.806885543747259
0.4069052205375139 -2.8469752072039447
0.47559086283083263 -2.861651251727798
0.5442765051241475 -2.8469752072038577
0.6096171639348131 -2.806885543747082
0.6697417791397696 -2.742793152322417
0.7234929416701374 -2.6567457611128704
0.7702996082640824 -2.5511853174453125
0.8101068479982994 -2.428710210617857
0.8432327300942494 -2.2919019912552137
0.8702102297466876 -2.1432332082532275
0.8916619111085466 -1.9850121956603246
0.9082338764295227 -1.8193348550616437
0.9205961842435963 -1.6480201447995226
0.9294350665061641 -1.4725339402442243
0.9354475400106546 -1.2939876228505982
0.9393230916221613 -1.1132098302523885
0.9416976859407535 -0.9308447801068989
0.943119085775533 -0.7474121469076516
0.9440580627445911 -0.5633319522530488
0.944813003680259 -0.3789273621111228
0.9459941953537331 -0.19363416949188839
0.9511817256613422 0.0
0.04830473904020483 -0.0021975918269382653
0.0518792136904306 -0.1938408812157629
0.05250867441218821 -0.37898841786334364
0.05318225616183341 -0.5634167444712693
0.05401370561051177 -0.7475356693071432
0.05523266813051353 -0.9310995887393397
0.05728345216461615 -1.113720656208187
0.06068475922251162 -1.2949006796505584
0.0660345014740121 -1.4740117478742523
0.07396207924226526 -1.650227319491727
0.0850886894568918 -1.8224322359401688
0.10001181688211168 -1.9891568909334474
0.11931805488264076 -2.1485803663991656
0.1435971052201937 -2.298604416961217
0.17341994681523878 -2.4369116930230366
0.20928500177260265 -2.5609971301780603
0.2515010083174767 -2.66821098518389
0.3000449476389796 -2.7558491701521657
0.35443219435254686 -2.821334167310824
0.413588700752965 -2.8624624809541133
0.4755908628308219 -2.877561367554803
0.537593024908675 -2.8624624809540244
0.5967495313090813 -2.8213341673106433
0.6511367780226287 -2.755849170151904
0.6996807173441069 -2.668210985183563
0.7418967238889538 -2.5609971301776877
0.7777617788462893 -2.436911693022628
0.8075846204413067 -2.2986044169607855
0.8318636707788317 -2.1485803663987233
0.851169908779334 -1.9891568909330084
0.8660930362045297 -1.8224322359397447
0.8772196464191362 -1.6502273194913284
0.8851472241873736 -1.4740117478738843
0.8904969664388621 -1.2949006796502265
0.8938982734967496 -1.113720656207894
0.8959490575308474 -0.9310995887390916
0.8971680200508472 -0.7475356693069398
0.8979994694995251 -0.5634167444711128
0.8986730512491701 -0.3789884178632331
0.8993025119709277 -0.19384088121570037
0.9028769866211485 -0.002197591826935855
0.09570792182184032 -0.003928898107404543
0.09830512424956868 -0.19394132321966218
0.09866903166426753 -0.3790237522972944
0.0992197058290493 -0.5634919617613474
0.09995166448171533 -0.7476365136970453
0.10098903939547327 -0.9313015722992015
0.10272142770209257 -1.114142577851824
0.10565013747044472 -1.29568095237503
0.11032624428475021 -1.4753017610265289
0.11732206441664965 -1.6521760031111632
0.12718619977487447 -1.8251809662402088
0.14043593507366448 -1.9928414760953352
0.157577185545381 -2.1533374245538055
0.1791288456131314 -2.3045734290047353
0.20561453768583124 -2.4442251495045184
0.23749523750696494 -2.5697602564203543
0.27507708418301524 -2.6784704613068033
0.31838568038697884 -2.767558435473515
0.36702461003808584 -2.8343204433466056
0.4199947731242308 -2.8763766162539213
0.47559086283081164 -2.89186241783586
0.5311869525373888 -2.8763766162538307
0.584157115623523 -2.8343204433464213
0.6327960452746123 -2.7675584354732483
0.6761046414785546 -2.6784704613064703
0.7136864881545806 -2.569760256419976
0.7455671879756893 -2.444225149504103
0.7720528800483645 -2.3045734290042974
0.7936045401160902 -2.1533374245533565
0.810745790587783 -1.9928414760948905
0.8239955258865511 -1.8251809662397798
0.8338596612447583 -1.6521760031107604
0.8408554813766435 -1.4753017610261578
0.8455315881909383 -1.2956809523746957
0.8484602979592833 -1.11414257785153
0.8501926862658986 -0.9313015722989529
0.8512300611796553 -0.7476365136968418
0.8519620198323209 -0.5634919617611909
0.8525126939971026 -0.37902375229718394
0.8528766014118015 -0.19394132321959934
0.8554738038395249 -0.003928898107399557
0.14263887504304368 -0.0053149714220319085
0.14458532272761274 -0.19400926334516688
0.1448082495547706 -0.3790436084022617
0.14523946788439143 -0.5635538562654051
0.1458710176389783 -0.7477213657440345
0.1467494708435232 -0.931457526347254
0.14818139652513823 -1.1144783885464946
0.15064137835181465 -1.2963297221757715
0.15463997696696472 -1.4764020218895348
0.16069162310841378 -1.6538623708891336
0.16927643271024417 -1.8275764745852077
0.18083509719530036 -1.9960625864049673
0.19579727172923353 -2.157501542135846
0.21460950694117079 -2.30980388424233
0.23773328843077826 -2.450643484845528
0.2655989824872014 -2.577466281294091
0.29851327861372146 -2.6875161961938963
0.33655091339753834 -2.7779157570625146
0.3794093097043598 -2.845840013295014
0.42624172020873785 -2.8887485075500243
0.47559086283080165 -2.9046237674742397
0.524940005452862 -2.8887485075499324
0.5717724159572304 -2.845840013294826
0.6146308122640365 -2.7779157570622433
0.6526684470478346 -2.687516196193558
0.6855827431743333 -2.5774662812937064
0.7134484372307347 -2.4506434848451075
0.7365722187203203 -2.309803884241886
0.7553844539322359 -2.157501542135391
0.7703466284661484 -1.9960625864045167
0.7819052929511857 -1.827576474584774
0.7904901025530005 -1.6538623708887275
0.796541748694437 -1.476402021889161
0.8005403473095777 -1.2963297221754353
0.803000329136248 -1.1144783885461995
0.80443225481786 -0.9314575263470051
0.8053107080224038 -0.7477213657438307
0.8059422577769904 -0.5635538562652487
0.8063734761066113 -0.37904360840215123
0.8065964029337691 -0.19400926334510374
0.8085428506183336 -0.005314971422024582
0.18929849731621215 -0.006430682440000014
0.19076362764940388 -0.19406343920023753
0.19090934371573665 -0.37905501316807505
0.19123896373910168 -0.5636020079891801
0.19176895415647902 -0.7477927266787753
0.19250546976940403 -0.9315779491816792
0.19366921660067554 -1.1147347910944396
0.19566922732480596 -1.2968493564571881
0.1989940051224016 -1.4773131245310434
0.2040973432278287 -1.6552849241628735
0.21139438596918209 -1.8296169081912594
0.22125414659289722 -1.9988184146092511
0.2340296716282241 -2.161071596465077
0.25009526459356124 -2.31429463085099
0.26985333773603387 -2.456163225315568
0.29368832963829766 -2.5841097000142503
0.3219063919338928 -2.695340995504627
0.354633549527598 -2.7869121633402587
0.3916805186526009 -2.8558922304853054
0.4323973021520445 -2.8996006971779464
0.4755908628307919 -2.915884583098104
0.5187844235095362 -2.8996006971778527
0.5595012070089709 -2.855892230485115
0.5965481761339604 -2.7869121633399834
0.6292753337276492 -2.6953409955042837
0.6574933960232261 -2.584109700013861
0.6813283879254712 -2.4561632253151426
0.7010864610679247 -2.3142946308505405
0.7171520540332437 -2.1610715964646174
0.7299275790685528 -1.9988184146087964
0.7397873396922521 -1.8296169081908225
0.7470843824335918 -1.655284924162464
0.752187720539008 -1.477313124530667
0.7555124983365956 -1.2968493564568504
0.7575125090607211 -1.1147347910941436
0.7586762558919903 -0.93157794918143
0.7594127715049146 -0.7477927266785716
0.7599427619222916 -0.5636020079890236
0.7602723819456567 -0.37905501316796464
0.7604180980119895 -0.19406343920017408
0.7618832283451774 -0.00643068243999066
0.23577829424116475 -0.00732336029250304
0.2368702068208918 -0.19411003050612707
0.23697053001582427 -0.37906277389331744
0.23721560576573683 -0.5636374856429806
0.23764355698991893 -0.7478520375115248
0.23825101093047787 -0.9316711404022434
0.23917661837109916 -1.1149236696663647
0.24075120249356868 -1.2972443940093452
0.24340700009270852 -1.4780376551643604
0.24756627471456702 -1.6564448487181116
0.25357587734197284 -1.8313025149800388
0.2617361869271794 -2.0011097056673695
0.27232768554076525 -2.1640487111844373
0.28565143007814553 -2.3180467585809903
0.30204367532250265 -2.460785501000785
0.32185064031911326 -2.589689160994863
0.3453610922306964 -2.7019387186291457
0.37273930956572393 -2.7945383517977
0.4039315486323143 -2.8644731394478278
0.4385185120130648 -2.908943508676324
0.4755908628307821 -2.925667727155434
0.5126632136484965 -2.9089435086762285
0.5472501770292391 -2.8644731394476346
0.5784424160958181 -2.794538351797421
0.6058206334308318 -2.7019387186287993
0.6293310853423995 -2.5896891609944697
0.6491380503389942 -2.4607855010003554
0.6655302955833357 -2.318046758580537
0.6788540401207006 -2.1640487111839737
0.689445538734272 -2.001109705666911
0.6976058483194651 -1.8313025149795985
0.7036154509468595 -1.6564448487176995
0.707774725568709 -1.4780376551639818
0.7104305231678423 -1.2972443940090064
0.7120051072903082 -1.1149236696660683
0.7129307147309276 -0.9316711404019938
0.7135381686714862 -0.7478520375113211
0.713966119895668 -0.5636374856428242
0.7142111956455806 -0.37906277389320703
0.714311518840513 -0.19411003050606349
0.7154034314202371 -0.007323360292491929
0.2821271488676244 -0.008029360686991359
0.2829261153373505 -0.19415112570041015
0.2829963208325512 -0.3790693430393125
0.2831689714747596 -0.56366171416512
0.28349573563295977 -0.747899466216025
0.28398048489792427 -0.9317432168458106
0.28469378288957475 -1.1150586287001987
0.2858829382291177 -1.297527906504942
0.2879027951205517 -1.4785805979051165
0.2911266021159961 -1.6573457834079035
0.2958580981136693 -1.8326363526020053
0.3023271170071091 -2.002939503179456
0.3107446792689089 -2.16643675192089
0.3213404675259287 -2.3210647692794373
0.3343850366451273 -2.464513937403961
0.3501724608052252 -2.594207309931301
0.3689754043281239 -2.70730753071474
0.39098417649047623 -2.8007854946526063
0.4162664531650922 -2.871572507918625
0.4446637884867469 -2.9167744699980584
0.4755908628307721 -2.9339822591387965
0.5065179371747947 -2.9167744699979616
0.5349152724964428 -2.8715725079184296
0.5601975491710494 -2.8007854946523243
0.5822063213333903 -2.7073075307143903
0.6010092648562764 -2.5942073099309035
0.6167966890163613 -2.464513937403528
0.6298412581355475 -2.3210647692789803
0.6404370463925553 -2.1664367519204233
0.6488546086543435 -2.0029395031789945
0.6553236275477727 -1.8326363526015623
0.6600551235454366 -1.6573457834074894
0.663278930540874 -1.4785805979047364
0.6652987874323031 -1.2975279065046024
0.6664879427718433 -1.1150586286999018
0.6672012407634926 -0.931743216845561
0.6676859900284569 -0.7478994662158212
0.6680127541866567 -0.5636617141649636
0.6681854048288651 -0.3790693430392021
0.6682556103240658 -0.1941511257003464
0.6690545767937895 -0.008029360686978801
0.3283782000892449 -0.008577662579814705
0.3289470766752297 -0.19418844427987553
0.3289933043617375 -0.3790752538421149
0.32910055195834537 -0.5636760775876772
0.3293280863753406 -0.7479342837040526
0.32968915392055254 -0.9317984610572055
0.33021580820494056 -1.1151508662818834
0.33105762237558106 -1.2977170293000448
0.33248950607767047 -1.4789552873278358
0.3348116807576324 -1.6579948018539907
0.338280758862845 -1.833624255965128
0.3430736636974607 -2.004313665870774
0.34933672836457935 -2.1682425835911534
0.3572291285348717 -2.3233565699948007
0.3669521296207912 -2.4673567004626538
0.37874573293372055 -2.5976701675713043
0.39285542023402703 -2.7114497124612917
0.40948263557394704 -2.805647744799106
0.42879659935889175 -2.877174252059618
0.45090004664375904 -2.9230769351495764
0.47559086283076174 -2.940822908934146
0.5002816790177624 -2.9230769351494788
0.5223851263026246 -2.877174252059421
0.541699090087562 -2.805647744798822
0.558326305427473 -2.7114497124609396
0.5724359927277695 -2.597670167570904
0.5842295960406892 -2.4673567004622177
0.5939525971265995 -2.323356569994341
0.6018449972968831 -2.168242583590685
0.6081080619639936 -2.00431366587031
0.612900966798601 -1.8336242559646831
0.6163700449038069 -1.6579948018535748
0.6186922195837637 -1.4789552873274547
0.6201241032858497 -1.2977170292997042
0.6209659174564885 -1.1151508662815863
0.6214925717408758 -0.931798461056956
0.6218536392860874 -0.7479342837038486
0.6220811737030826 -0.5636760775875208
0.6221884212996904 -0.3790752538420045
0.6222346489861981 -0.1941884442798117
0.6228035255721812 -0.008577662579801021
0.37455089081349285 -0.008996060363156668
0.3749478754847007 -0.19422340992069653
0.3749674101769418 -0.3790797587003139
0.3750131950042387 -0.563681656648374
0.37514457120445577 -0.7479559730474643
0.3753775697289452 -0.931837759203604
0.375729073909797 -1.1152120096649178
0.376268060376141 -1.297830507742555
0.37716593989375224 -1.4791828726172211
0.3786416160628533 -1.658407848082706
0.38088627826342125 -1.8342769064247781
0.38403004225848253 -2.0052421375896565
0.3881637946894265 -2.169476943030108
0.39338534683645887 -2.3249344432528836
0.3998260022221208 -2.469326371652418
0.407661416411078 -2.6000886950883006
0.41710226330076694 -2.7143734305513423
0.42836230044623225 -2.8091240853162813
0.44165551729036445 -2.881258531779441
0.45730997971969645 -2.9278188428249714
0.47559086283075097 -2.9461686757132983
0.49387174594180433 -2.9278188428248724
0.5095262083711329 -2.8812585317792423
0.5228194252152596 -2.809124085315996
0.5340794623607185 -2.7143734305509883
0.5435203092504008 -2.6000886950878987
0.5513557234393511 -2.4693263716519804
0.5577963788250075 -2.3249344432524226
0.5630179309720345 -2.1694769430296375
0.5671516834029734 -2.005242137589191
0.5702954473980291 -1.8342769064243318
0.5725401095985929 -1.6584078480822888
0.5740157857676906 -1.47918287261684
0.5749136652853 -1.2978305077422139
0.5754526517516431 -1.1152120096646208
0.5758041559324945 -0.9318377592033543
0.5760371544569837 -0.7479559730472604
0.5761685306572008 -0.5636816566482176
0.5762143154844976 -0.37907975870020355
0.5762338501767384 -0.19422340992063267
0.5766308348479453 -0.008996060363142147
0.42065819474392785 -0.009313228775075155
0.4209351234071065 -0.19425794488744522
0.4209242247193559 -0.3790812898141263
0.4209107818303344 -0.5636792459856199
0.4209489582452383 -0.7479646424188735
0.4210520632296285 -0.9318597438635088
0.4212250291968789 -1.1152483649683091
0.4214936091129244 -1.2978897933468134
0.4219212163151352 -1.4792928746061518
0.4226229417191608 -1.6586135542194038
0.42370596121983795 -1.8346175190495073
0.4252480535112695 -2.0057441277406696
0.42728864304173814 -2.170157980188821
0.42987582531519825 -2.325817973090883
0.4330785695386182 -2.4704435193901517
0.4369999740227679 -2.6014814219867404
0.44180052075644083 -2.7160931453052997
0.44770431311576886 -2.811226102286015
0.45498327372721686 -2.883812404786512
0.4640211544579516 -2.9309510774378222
0.4755908628307398 -2.94997579966479
0.4871605712035277 -2.9309510774377228
0.4961984519342607 -2.8838124047863127
0.5034774125457053 -2.811226102285729
0.5093812049050296 -2.716093145304945
0.5141817516386993 -2.601481421986337
0.518103156122846 -2.4704435193897134
0.5213059003462637 -2.3258179730904205
0.5238930826197218 -2.1701579801883497
0.5259336721501883 -2.0057441277402033
0.5274757644416171 -1.8346175190490603
0.5285587839422926 -1.6586135542189862
0.529260509346317 -1.47929287460577
0.5296881165485271 -1.2978897933464724
0.5299566964645722 -1.1152483649680118
0.5301296624318224 -0.9318597438632591
0.5302327674162125 -0.7479646424186696
0.5302709438311165 -0.5636792459854635
0.5302575009420949 -0.3790812898140159
0.5302466022543443 -0.19425794488738138
0.5305235309175224 -0.009313228775060032
0.4667161693342108 -0.009553222483403529
0.4669086063237168 -0.1942937690097628
0.4668685717057132 -0.37907859905955404
0.4667977564875953 -0.5636693657472319
0.4667455784161912 -0.7479605416999761
0.4667193611851651 -0.9318638259165276
0.46670958663803824 -1.1152598088441155
0.46670690449418945 -1.2979089588003694
0.46670637777281093 -1.4793246507728035
0.46670657298167956 -1.6586671769588186
0.46670679651835595 -1.834704581629911
0.46670657688300093 -2.0058736305913314
0.466702699229167 -2.17033626403164
0.4666913213717635 -2.326055387043443
0.4666763724504293 -2.4707550284254305
0.46669433860143034 -2.6018916310515636
0.4668561932797783 -2.716645835091831
0.4674003840631134 -2.8119886616046443
0.4686919512438351 -2.884868483616609
0.4711431020962464 -2.9324351923827314
0.4755908628307283 -2.952176774299852
0.48003862356521076 -2.932435192382632
0.4824897744176216 -2.8848684836164096
0.4837813415983419 -2.811988661604357
0.48432553238167697 -2.7166458350914757
0.48448738706002575 -2.60189163105116
0.4845053532110271 -2.470755028424991
0.48449040428969387 -2.326055387042981
0.4844790264322917 -2.1703362640311683
0.48447514877845865 -2.0058736305908647
0.4844749291431046 -1.834704581629464
0.48447515267978175 -1.658667176958401
0.48447534788865065 -1.4793246507724216
0.48447482116727253 -1.297908958800028
0.48447213902342384 -1.1152598088438181
0.48446236447629704 -0.9318638259162779
0.4844361472452711 -0.7479605416997722
0.48438396917386706 -0.5636693657470755
0.4843131539557491 -0.3790785990594436
0.4842731193377456 -0.19429376900969905
0.4844655563272513 -0.009553222483388042
0.5127358670964945 -0.009738012112888748
0.5128705655739856 -0.19432933049936724
0.5128042687433707 -0.37907177840478873
0.5126788181962215 -0.5636522223929393
0.5125390246332615 -0.7479441205723693
0.5123856554532004 -0.931850002226645
0.5121940720607454 -1.1152457401070364
0.5119198736316296 -1.297889259715848
0.5114913639284264 -1.479292883838948
0.510790162867613 -1.6586136041626172
0.5097080368208207 -1.8346176515965391
0.5081651157492277 -2.0057433010056256
0.5061158870549989 -2.1701546120042967
0.5035058350064026 -2.325811366864752
0.5002749835424977 -2.470441043723374
0.4963923724089443 -2.60151325358614
0.49190905672723184 -2.7162338214325974
0.48702796994804576 -2.8116121224330177
0.4821288957839082 -2.8846097431721094
0.4777819195329339 -2.9323845567042763
0.47559086283071683 -2.9528836367004034
0.4733998061284995 -2.932384556704177
0.46905282987752533 -2.8846097431719095
0.4641537557133898 -2.8116121224327304
0.45927266893420793 -2.716233821432243
0.4547893532525004 -2.601513253585736
0.45090674211895077 -2.470441043722935
0.44767589065504987 -2.3258113668642904
0.4450658386064583 -2.1701546120038255
0.44301660991223407 -2.0057433010051597
0.4414736888406451 -1.8346176515960924
0.44039156279385616 -1.6586136041621997
0.4396903617330448 -1.4792928838385666
0.4392618520298428 -1.2978892597155067
0.43898765360072767 -1.115245740106739
0.43879607020827305 -0.9318500022263955
0.43864270102821235 -0.7479441205721655
0.43850290746525233 -0.5636522223927829
0.4383774569181032 -0.3790717784046782
0.43831116008748844 -0.19432933049930348
0.4384458585649793 -0.009738012112873055
0.5587320741048594 -0.00988024647068801
0.5588254990420639 -0.1943626287257217
0.5587355596687932 -0.37906117766349307
0.558558697811939 -0.5636281055917144
0.5583347759180002 -0.7479159872827013
0.5580572009707232 -0.9318186039683846
0.5576885284265227 -1.1152067915092252
0.5571446092437055 -1.2978294091435336
0.5562462382038242 -1.4791829238829262
0.5547718114752451 -1.6584081209845187
0.5525278620651826 -1.8342770124019596
0.5493825364834108 -2.0052401701976854
0.5452409825528179 -2.1694697870238784
0.5399997264085825 -2.3249209479868878
0.5335349373290603 -2.4693215260873447
0.5257363414508844 -2.600153447461459
0.5165875252862796 -2.7146540059535833
0.5062505001812754 -2.809879944044326
0.49514314327085696 -2.882848675251024
0.48425237189888604 -2.9308995472633543
0.4755908628307057 -2.9522603827368163
0.46692935376252526 -2.930899547263255
0.45603858239055567 -2.8828486752508247
0.44493122548014186 -2.80987994404404
0.4345942003751449 -2.7146540059532303
0.42544538421054856 -2.600153447461057
0.41764678833238006 -2.4693215260869072
0.411181999252865 -2.3249209479864272
0.4059407431086376 -2.169469787023409
0.40179918917805235 -2.0052401701972205
0.39865386359628785 -1.834277012401514
0.3964099141862313 -1.6584081209841022
0.3949354874576562 -1.4791829238825451
0.3940371164177773 -1.2978294091431926
0.39349319723496134 -1.1152067915089279
0.39312452469076153 -0.9318186039681351
0.39284694974348494 -0.7479159872824974
0.39262302784954645 -0.5636281055915578
0.39244616599269244 -0.3790611776633826
0.39235622661942177 -0.194362628725658
0.39244965155662614 -0.00988024647067212
0.6047196650109029 -0.009986429243749621
0.6047789064469189 -0.1943920875086806
0.6046672553622341 -0.3790470295621099
0.6044423284357113 -0.5635974350761028
0.6041378719840956 -0.7478767970350837
0.6037411449695882 -0.9317707658910235
0.6031996837376481 -1.1151428073684484
0.6023535015752015 -1.2977154176548251
0.6009229260215911 -1.478955645826602
0.5986022519113128 -1.657995340836104
0.5951331783228603 -1.8336241410448257
0.590338208557065 -2.004310592455939
0.5840699857781771 -2.1682325308196106
0.5761666980074189 -2.3233379774053278
0.5664311824976418 -2.4673504543541185
0.5546681184310644 -2.5977626738877917
0.5407762916442889 -2.711847959537082
0.52488103199924 -2.80672537447739
0.5075580196823544 -2.8795371369574316
0.49017238647863853 -2.9278391289394117
0.47559086283069485 -2.9503327176466847
0.4610093391827516 -2.927839128939312
0.4436237059790387 -2.879537136957233
0.42630069366215956 -2.806725374477106
0.41040543401712065 -2.711847959536731
0.3965136072303568 -2.5977626738873916
0.38475054316379015 -2.4673504543536833
0.37501502765402356 -2.32333797740487
0.3671117398832761 -2.168232530819143
0.3608435171043994 -2.004310592455476
0.3560485473386142 -1.8336241410443819
0.3525794737501703 -1.657995340835689
0.35025879963989803 -1.4789556458262214
0.3488282240862916 -1.2977154176544847
0.3479820419238471 -1.115142807368151
0.347440580691908 -0.931770765890774
0.347043853677401 -0.74787679703488
0.3467393972257857 -0.5635974350759464
0.34651447029926297 -0.37904702956199937
0.34640281921457833 -0.19439208750861686
0.3464620606505943 -0.0099864292437336
0.6507077608772478 -0.010062075696756663
0.6507370472596371 -0.19441631374572554
0.6506043283770767 -0.3790294149532118
0.6503342100510648 -0.5635606816384197
0.6499529187621657 -0.747827451365692
0.6494442550318457 -0.9317077179888829
0.6487181103985453 -1.1150475457197424
0.6475280055516732 -1.2975263184070458
0.6455104489974759 -1.4785815046035067
0.6422877321189358 -1.6573464449594313
0.637555267523738 -1.8326357935526496
0.6310840871362248 -2.0029355577349026
0.622665494780103 -2.1664255487052597
0.6120728290360732 -2.3210449170929475
0.5990362021207004 -2.464508839328963
0.5832709886177903 -2.5943174612405473
0.5645808687022983 -2.7077848511830798
0.543083678843287 -2.802126506395723
0.5195403067306861 -2.874664026014685
0.4958149376377347 -2.923260964154292
0.47559086283068425 -2.9471640913672363
0.4553667880236346 -2.923260964154193
0.43164141893068797 -2.8746640260144884
0.40809804681809553 -2.80212650639544
0.38660085695909674 -2.707784851182732
0.36791073704361926 -2.5943174612401507
0.35214552354072304 -2.4645088393285306
0.339108896625364 -2.3210449170924927
0.3285162308813484 -2.166425548704795
0.32009763852524054 -2.0029355577344425
0.3136264581377402 -1.8326357935522084
0.3088939935425535 -1.657346444959018
0.30567127666402166 -1.4785815046031274
0.3036537201098298 -1.2975263184067058
0.30246361526296084 -1.1150475457194453
0.3017374706296619 -0.9317077179886335
0.3012288068993424 -0.7478274513654884
0.30084751561044365 -0.5635606816382632
0.3005773972844319 -0.37902941495310133
0.30044467840187167 -0.19441631374566182
0.30047396478426097 -0.01006207569674053
0.6967026398134242 -0.010112314796681064
0.696705599483886 -0.19443433400110918
0.6965520118404865 -0.3790082826818467
0.6962392390230637 -0.5635182844177723
0.695786059321454 -0.7477692652118954
0.6951676760593759 -0.9316289698283194
0.6942343205664044 -1.114910279438849
0.6926606487121288 -1.2972434028960924
0.6900073466655973 -1.4780390912791623
0.6858482017785489 -1.6564453989621388
0.6798368696741123 -1.831301360792375
0.6716747698004869 -2.0011052896188977
0.6610873580748697 -2.1640386400971234
0.647783165328966 -2.31803095662066
0.6314245952142904 -2.4607857607847197
0.6116381355741751 -2.589805639726458
0.588147047548998 -2.7024541087556164
0.5610643839979059 -2.796077238909924
0.5313541454078455 -2.8682421648831316
0.5013987872167304 -2.917202066333305
0.47559086283067364 -2.9427721520207
0.4497829384446188 -2.917202066333207
0.4198275802535098 -2.868242164882936
0.39011734166346024 -2.796077238909645
0.36303467811238277 -2.7024541087552727
0.3395435900872225 -2.5898056397260656
0.3197571304471248 -2.460785760784291
0.30339856033246615 -2.3180309566202086
0.2900943675865795 -2.1640386400966634
0.27950695586097934 -2.001105289618441
0.27134485598736974 -1.8313013607919368
0.26533352388294623 -1.6564453989617283
0.26117437899590834 -1.4780390912787849
0.25852107694938387 -1.2972434028957536
0.25694740509511244 -1.1149102794385526
0.2560140496021431 -0.93162896982807
0.25539566634006566 -0.7477692652116918
0.2549424866384562 -0.5635182844176161
0.25462971382103367 -0.37900828268173614
0.2544761261776343 -0.19443433400104548
0.2544790858480962 -0.010112314796664853
0.7427087706594401 -0.010142120270585213
0.7426894073487359 -0.19444565933108202
0.7425155580478043 -0.378983513771789
0.7421623673232134 -0.5634707877495635
0.7416409992367454 -0.7477030703823684
0.7409072127863396 -0.9315305769501435
0.7397426137801794 -1.1147201691013529
0.7377448735410683 -1.2968491543995386
0.7344212695015029 -1.477314835008466
0.7293169756545951 -1.655285134178207
0.7220177521907369 -1.8296151230304147
0.7121574372764774 -1.9988141281175111
0.699391646667652 -2.161065049570404
0.6833602815868743 -2.3142882852715436
0.663660990733984 -2.4561745501857275
0.6398643246020957 -2.5842269078695415
0.6116216249648218 -2.695861881799883
0.5790312046918222 -2.7885887694873164
0.5432400514887726 -2.860287330122855
0.5070786207167344 -2.909666387551234
0.47559086283066326 -2.9371339412219624
0.44410310494459465 -2.909666387551137
0.4079416741725643 -2.860287330122662
0.3721505209695277 -2.78858876948704
0.3395601006965452 -2.695861881799544
0.3113174010592907 -2.584226907869153
0.28752073492742297 -2.4561745501853034
0.2678214440745529 -2.3142882852710964
0.25179007899379535 -2.161065049569949
0.23902428838498985 -1.9988141281170588
0.2291639734707486 -1.8296151230299806
0.221864750006906 -1.6552851341777994
0.21676045616001038 -1.4773148350080905
0.2134368521204539 -1.2968491543992011
0.21143911188134812 -1.114720169101057
0.2102745128751906 -0.9315305769498945
0.20954072642478574 -0.7477030703821649
0.2090193583383181 -0.5634707877494071
0.20866616761372733 -0.3789835137716785
0.20849231831279602 -0.19444565933101832
0.20847295500209195 -0.01014212027056897
0.7887290514827092 -0.010156471945254597
0.7886924430825879 -0.1944502751228926
0.7885002345764759 -0.3789550897344982
0.7881087455368531 -0.5634186759427153
0.7875208454813336 -0.747629182792544
0.7866603472570218 -0.9314076405716207
0.7852342842857511 -1.114463853496475
0.7827754425006808 -1.2963299092583696
0.7787759406732165 -1.476403627554365
0.7727222480807773 -1.6538620646153823
0.7641353201781809 -1.8275741916050676
0.7525782430351379 -1.9960592528994623
0.7376314638184183 -2.1575006276080493
0.7188635758698292 -2.309811071891636
0.6958176151333884 -2.4506724616606115
0.6680294321265242 -2.5775896485821317
0.6351339994106704 -2.6880316633247623
0.5971961117573306 -2.779689417783008
0.5554305844233092 -2.8508093877675686
0.5129980248457263 -2.9006260936084627
0.47559086283065305 -2.930191995066943
0.43818370081558244 -2.9006260936083668
0.39575114123800914 -2.8508093877673786
0.35398561390400307 -2.7796894177827363
0.3160477262506828 -2.688031663324428
0.2831522935348513 -2.5775896485817493
0.25536411052801045 -2.4506724616601927
0.23231814979159313 -2.309811071891194
0.21355026184302728 -2.157500627607599
0.19860348262633054 -1.9960592528990149
0.18704640548330842 -1.8275741916046384
0.1784594775807296 -1.6538620646149784
0.17240578498830428 -1.4764036275539925
0.1684062831608506 -1.2963299092580336
0.16594744137578685 -1.1144638534961804
0.16452137840451958 -0.9314076405713719
0.16366088018020916 -0.7476291827923404
0.16307298012469007 -0.5634186759425588
0.1626814910850676 -0.3789550897343877
0.16248928257895567 -0.19445027512282892
0.16245267417883444 -0.010156471945238315
0.8347646124573792 -0.010160434265721621
0.8347177366102857 -0.19444871219154636
0.8345116424610847 -0.3789231821946926
0.8340836823970478 -0.5633624883881971
0.8334272091264148 -0.7475461072600138
0.832422326922715 -0.9312529244135829
0.8306995642530084 -1.1141285769633562
0.8277694369294739 -1.2956807926404144
0.8230899298858813 -1.4753028447388992
0.8160912323568985 -1.6521750868330485
0.8062255255019161 -1.8251784918926082
0.7929801934142193 -1.9928400726662134
0.7758594464214087 -2.153343757952056
0.7543577916984087 -2.3045964266183954
0.727961280600795 -2.44427773974294
0.6962072461217915 -2.56990649612326
0.6587821292421956 -2.679004914356222
0.615748460497056 -2.769427751506293
0.5681716531736749 -2.8398152432375063
0.5193432852110721 -2.890021399418606
0.4755908628306424 -2.921846127537341
0.4318384404502164 -2.890021399418512
0.3830100724876246 -2.83981524323732
0.3354332651642613 -2.769427751506026
0.29239959641914387 -2.6790049143558923
0.2549744795395733 -2.569906496122883
0.22322044506059624 -2.444277739742527
0.19682393396300885 -2.3045964266179597
0.1753222792400354 -2.1533437579516117
0.15820153224725048 -1.9928400726657718
0.14495620015957716 -1.8251784918921836
0.13509049330461415 -1.6521750868326486
0.12809179577564714 -1.4753028447385295
0.12341228873206635 -1.2956807926400806
0.12048216140853976 -1.1141285769630627
0.11875939873883755 -0.9312529244133346
0.1177545165351395 -0.7475461072598104
0.11709804326450692 -0.5633624883880406
0.11667008320047045 -0.3789231821945822
0.11646398905126958 -0.1944487121914827
0.1164171132041761 -0.010160434265705324
0.8808141631065628 -0.010159151805156658
0.8807672934404649 -0.19444223563978247
0.880556240341042 -0.37888839809169933
0.8800928986532962 -0.5633022516692547
0.8793596652045418 -0.7474513998096428
0.8781840073022957 -0.9310552398758214
0.8761434875276406 -1.1137068695500054
0.872736967317662 -1.2948993081330904
0.8673817523386634 -1.47401194174348
0.8594507043987006 -1.6502257769165516
0.8483233855270179 -1.8224299958185783
0.8334076781673786 -1.9891584209363034
0.8141262262728841 -2.1485950845565807
0.7899002072482532 -2.2986442209506746
0.760174096833188 -2.4369926512361477
0.7244853447474464 -2.56118893696403
0.6826123901200459 -2.668823543500142
0.6347564362091342 -2.7578888151554692
0.5818142839619281 -2.8273365834275213
0.5264243716470002 -2.877748575118809
0.47559086283063157 -2.9119266924338123
0.4247573540142674 -2.8777485751187166
0.36936744169935215 -2.8273365834273387
0.3164252894521663 -2.7578888151552072
0.26856933554127993 -2.668823543499818
0.22669638091390779 -2.561188936963659
0.19100762882819564 -2.436992651235741
0.16128151841315996 -2.2986442209502456
0.13705549938855868 -2.148595084556143
0.11777404749409279 -1.989158420935868
0.1028583401344793 -1.822429995818159
0.09173102126281821 -1.6502257769161564
0.08379997332287267 -1.4740119417431137
0.07844475834388727 -1.2948993081327593
0.07503823813391786 -1.1137068695497132
0.07299771835926779 -0.9310552398755738
0.07182206045702404 -0.7474513998094395
0.07108882700827011 -0.5633022516690983
0.07062548532052486 -0.37888839809158903
0.07041443222110201 -0.1944422356397188
0.07036756255500436 -0.010159151805140362
0.9268726497564925 -0.010157673859249658
0.9268420351067205 -0.19443336542862197
0.9266424294310897 -0.37885195273274425
0.9261423290772723 -0.5632370029049114
0.9253139908666739 -0.7473390900464395
0.9239415657475635 -0.9308067841898948
0.9215731273565544 -1.1131950504233479
0.9176891827938759 -1.2939844567703793
0.9116697230258026 -1.4725329428270606
0.902826912511688 -1.648018006884671
0.8904648951704139 -1.8193333050450622
0.873902998802842 -1.9850175551976665
0.8524796197943185 -2.1432571600713723
0.8255581636671407 -2.291959290768852
0.7925386677846031 -2.4288242365040027
0.7529602731153535 -2.551446588871629
0.7066861371011268 -2.6575113632432226
0.6541293742904988 -2.7451562250172774
0.5964159996659107 -2.8135434157516594
0.5353643618894771 -2.8636976016772064
0.4755908628306206 -2.8999999999999977
0.4158173637717687 -2.8636976016771167
0.35476572599534933 -2.813543415751481
0.29705235137078445 -2.745156225017022
0.2444955885601856 -2.6575113632429064
0.1982214525459905 -2.551446588871266
0.158643057876773 -2.428824236503604
0.12562356199426827 -2.29195929076843
0.09870210586712337 -2.1432571600709425
0.07727872685863112 -1.9850175551972382
0.060716830491087705 -1.8193333050446487
0.048354813149837014 -1.648018006884281
0.039512002635741304 -1.472532942826698
0.033492542867682475 -1.293984456770051
0.029608598305014163 -1.1131950504230574
0.027240159914010954 -0.9308067841896481
0.025867734794903344 -0.7473390900462364
0.02503939658430568 -0.563237002904755
0.024539296230488793 -0.37885195273263406
0.02433969055485823 -0.1944333654285583
0.0243090759050862 -0.010157673859233374
SCALARS Stress float 6
LOOKUP_TABLE default
-1130.5362162604004 -1923.0315018110896 -1449.9785321042086 -18.544272984879242 0.0 0.0
1274.9244817585213 742.2029138330151 929.7652235265643 -23.45872129634119 0.0 0.0
564.211370051044 125.51640967358442 215.07634043865218 -38.30055680032268 0.0 0.0
465.9112955636204 20.553505375693046 148.27279919439604 -2.6813014774938146 0.0 0.0
578.966700773605 60.88185906270243 217.7749461221144 1.1545433847356854 0.0 0.0
678.3975504559577 100.22535385752798 319.83028058121505 1.4722286779619753 0.0 0.0
788.7946759552369 137.6988904338673 425.7178623955688 0.7254810607031841 0.0 0.0
898.5286950370519 190.71578867439646 525.4872156489644 -0.41007807195513757 0.0 0.0
1014.5502923869673 256.0179569179769 622.4909568082476 -1.776108001112814 0.0 0.0
1144.4420962852587 339.57344144660055 730.8548011439999 -3.25008856152263 0.0 0.0
1293.0584011641595 445.5644491523735 858.393468586937 -4.705513851136544 0.0 0.0
1460.5055786227897 574.4752974091862 1006.3219373220884 -5.954946824065675 0.0 0.0
1642.4784572620474 720.2387847703412 1169.7301644287386 -6.746584398280545 0.0 0.0
1833.0020493321404 876.7292246641229 1342.7537908903255 -7.386338585738087 0.0 0.0
2023.5854193351006 1035.3450960250784 1516.8586046449752 -7.825574707573714 0.0 0.0
2204.880660168204 1186.9266214219335 1682.8205116376016 -8.032775274653469 0.0 0.0
2367.7224663597935 1322.9471347275678 1831.8532481513232 -7.8654936761907015 0.0 0.0
2502.629130005695 1434.7180910511202 1954.9247160900225 -7.193712537187323 0.0 0.0
2605.4650540356956 1518.9519726209187 2048.261415303815 -6.061735283152526 0.0 0.0
2664.469532416657 1564.9363005205491 2100.663606218761 -6.4996306441741885 0.0 0.0
2657.560147657252 1555.9103625442958 2093.003221418395 2.2858159809402423e-11 0.0 0.0
2664.4695324154736 1564.9363005193825 2100.6636062179587 6.49963064423741 0.0 0.0
2605.4650540341386 1518.951972619414 2048.261415302482 6.061735283301864 0.0 0.0
2502.62913000417 1434.7180910496552 1954.9247160887437 7.193712537154999 0.0 0.0
2367.722466357849 1322.94713472571 1831.8532481496165 7.865493676182515 0.0 0.0
2204.880660167072 1186.9266214209408 1682.8205116367394 8.03277527460077 0.0 0.0
2023.5854193332843 1035.3450960233777 1516.8586046434143 7.825574707608505 0.0 0.0
1833.0020493303398 876.7292246624841 1342.7537908889435 7.386338585688673 0.0 0.0
1642.4784572602193 720.2387847686824 1169.7301644272472 6.746584398224824 0.0 0.0
1460.5055786223195 574.4752974089477 1006.3219373215584 5.954946824031117 0.0 0.0
1293.058401163102 445.5644491515394 858.3934685860842 4.705513851157194 0.0 0.0
1144.4420962842578 339.5734414458469 730.8548011431802 3.250088561479947 0.0 0.0
1014.5502923861347 256.01795691739636 622.4909568075622 1.7761080010845447 0.0 0.0
898.5286950360667 190.71578867363698 525.4872156481968 0.4100780721040529 0.0 0.0
788.7946759549316 137.69889043385683 425.7178623951729 -0.7254810608086437 0.0 0.0
678.3975504554264 100.2253538572653 319.8302805806837 -1.4722286781207181 0.0 0.0
578.966700773156 60.88185906250961 217.774946121774 -1.154543384825521 0.0 0.0
465.91129556354707 20.553505375980446 148.27279919444203 2.6813014774747232 0.0 0.0
564.2113700505638 125.51640967309433 215.0763404383306 38.300556800204724 0.0 0.0
1274.924481758247 742.2029138328072 929.7652235261248 23.458721296381455 0.0 0.0
-1130.5362162577921 -1923.0315018084775 -1449.978532101597 18.544272984446422 0.0 0.0
-1440.3609828861643 -2203.031033390307 -1710.7599394526462 -18.679494178535816 0.0 0.0
866.4813598728279 412.4808616948665 580.6130666428813 -32.99770265632377 0.0 0.0
392.12290356446493 50.207507923730994 131.09566798618235 -31.960878057482 0.0 0.0
412.5322871081615 2.8661107035463895 125.22233078524329 -16.22290401736116 0.0 0.0
515.7931765857004 26.546293612126956 178.25103725059208 -15.491647286459411 0.0 0.0
608.8759021172838 36.753604351007155 255.98160970882745 -19.940440119925885 0.0 0.0
687.046509992687 50.570798801578974 338.0706258444724 -22.124704191688746 0.0 0.0
762.9657141117574 68.0163960943594 405.0998979119866 -22.802664218882814 0.0 0.0
833.904856222171 87.51982262332959 457.34837864966437 -23.161673581916656 0.0 0.0
903.1756299862379 110.6204040971003 505.42567710173483 -23.59028484585759 0.0 0.0
972.8640844597292 138.32194250502334 554.6220525721424 -23.759467345737086 0.0 0.0
1043.732139520697 170.26083883783886 606.159326288133 -23.616501280070032 0.0 0.0
1114.6306474753317 206.1042791901457 659.5295342792415 -23.134568860576874 0.0 0.0
1183.0795260694338 240.90278602125287 711.1057730411545 -22.52875356141255 0.0 0.0
1243.0350133474656 269.31320465509714 755.2399116043841 -21.851951532427695 0.0 0.0
1289.6176567423975 286.5783703651625 787.1199750999875 -20.90545584496637 0.0 0.0
1319.5576006771478 289.9255993881022 803.7324823909447 -19.44288985296519 0.0 0.0
1332.9708855934346 280.23115569969343 805.5813535210843 -17.33643965972091 0.0 0.0
1328.5208322629953 257.15667051458604 791.919195097126 -14.829415957885287 0.0 0.0
1282.3879690364276 198.2216476468242 740.0355572979869 -13.564771226922511 0.0 0.0
1200.8820351562915 115.06700135980708 658.838290647813 -2.2928325904558733e-11 0.0 0.0
1282.3879690355866 198.22164764600882 740.0355572974266 13.564771226908597 0.0 0.0
1328.5208322621484 257.15667051379194 791.9191950964854 14.829415957945326 0.0 0.0
1332.9708855929832 280.23115569931974 805.5813535207855 17.336439659692637 0.0 0.0
1319.5576006763881 289.925599387432 803.7324823903429 19.442889852945136 0.0 0.0
1289.617656741698 286.5783703645819 787.1199750995288 20.905455844866957 0.0 0.0
1243.0350133466861 269.313204654443 755.2399116037686 21.851951532430558 0.0 0.0
1183.079526068641 240.90278602063742 711.1057730405907 22.528753561375147 0.0 0.0
1114.6306474745572 206.1042791895813 659.529534278663 23.13456886067346 0.0 0.0
1043.7321395206513 170.26083883801175 606.1593262880988 23.616501280175292 0.0 0.0
972.8640844592246 138.32194250472452 554.6220525717864 23.759467345723735 0.0 0.0
903.1756299854226 110.62040409652295 505.4256771011734 23.590284845779912 0.0 0.0
833.9048562221257 87.51982262355432 457.34837864957643 23.161673581942168 0.0 0.0
762.9657141112496 68.01639609413203 405.09989791160376 22.802664219033357 0.0 0.0
687.0465099919827 50.570798801103535 338.0706258438899 22.12470419162048 0.0 0.0
608.8759021166868 36.753604350632884 255.98160970831412 19.940440119774614 0.0 0.0
515.793176585438 26.546293612183803 178.25103725043607 15.49164728648204 0.0 0.0
412.5322871080501 2.8661107037148144 125.22233078526573 16.22290401739117 0.0 0.0
392.12290356421494 50.20750792341661 131.09566798601782 31.960878057371495 0.0 0.0
866.4813598723737 412.480861694544 580.613066642331 32.99770265630417 0.0 0.0
-1440.3609828841325 -2203.0310333882258 -1710.7599394505392 18.679494178056174 0.0 0.0
-1191.7836662483335 -1920.089598037344 -1435.0726887879755 -57.15327900973459 0.0 0.0
671.2811471057986 321.520713548045 436.9364673532302 -100.19512747661598 0.0 0.0
275.94963872642137 57.61718121221723 100.07031994182232 -33.87929359549717 0.0 0.0
353.28677803613135 -0.14983075699949144 105.72907828641921 -37.0613183862707 0.0 0.0
470.4697342212458 17.887748873410604 153.23490369185586 -37.74991431418606 0.0 0.0
576.4497252059016 32.44497603743651 227.36329170671561 -38.887781574655826 0.0 0.0
658.2907584502452 47.25682956967849 313.30786306807397 -41.55681772865083 0.0 0.0
735.5988874707189 61.184486802952165 383.6206768550162 -42.800574647399586 0.0 0.0
804.7704037431987 77.97538396558073 436.5235154620909 -43.69726070891547 0.0 0.0
870.6654290604816 97.27078581846375 481.9074729330981 -44.44575387680992 0.0 0.0
936.5194608451868 121.42800646249003 527.6250807284562 -44.54358532238831 0.0 0.0
1003.4770255337911 150.72409479095063 575.9263074425952 -43.87954761819377 0.0 0.0
1071.3070892759883 182.8829910020225 625.939665186735 -42.867950401913156 0.0 0.0
1135.6727345246775 214.89622337838338 674.1079270980543 -41.68304930322353 0.0 0.0
1192.8466811055991 240.97398435327713 715.6947119577123 -40.33899082031903 0.0 0.0
1237.9090230991337 257.07625347691885 746.2284940872674 -38.55268317727173 0.0 0.0
1268.5628027472178 261.30164008433695 763.6348321623484 -35.93129816382337 0.0 0.0
1282.5377412220967 252.1284303747407 766.0702119503702 -32.38311987768194 0.0 0.0
1271.9297433371496 222.7882708875023 746.3499860845905 -28.29798115828497 0.0 0.0
1244.0897992257705 182.2351836536289 712.5165227968628 -24.100695049011378 0.0 0.0
1144.3088447940336 81.23383051405872 613.5696593251605 1.70281566624908e-11 0.0 0.0
1244.0897992250332 182.23518365292261 712.5165227962851 24.100695049078396 0.0 0.0
1271.929743337177 222.78827088760812 746.3499860846445 28.29798115841057 0.0 0.0
1282.5377412220291 252.12843037475278 766.0702119503795 32.38311987782885 0.0 0.0
1268.5628027469959 261.3016400841974 763.634832162139 35.9312981638158 0.0 0.0
1237.909023098996 257.07625347692823 746.2284940871582 38.55268317722234 0.0 0.0
1192.8466811053308 240.97398435313158 715.694711957505 40.33899082044122 0.0 0.0
1135.6727345243255 214.8962233782133 674.1079270977103 41.683049303228685 0.0 0.0
1071.307089276337 182.88299100258382 625.9396651869688 42.86795040203371 0.0 0.0
1003.4770255337272 150.7240947911041 575.9263074425608 43.87954761820951 0.0 0.0
936.5194608448791 121.42800646239542 527.6250807282489 44.54358532238661 0.0 0.0
870.6654290596131 97.27078581780745 481.907472932519 44.44575387676231 0.0 0.0
804.7704037432849 77.97538396595371 436.5235154621153 43.69726070894899 0.0 0.0
735.5988874705816 61.184486803121445 383.6206768548499 42.80057464746831 0.0 0.0
658.2907584495379 47.256829569265875 313.30786306747564 41.556817728625276 0.0 0.0
576.4497252052711 32.44497603707341 227.3632917062172 38.88778157468661 0.0 0.0
470.4697342210745 17.8877488736959 153.23490369183756 37.749914314274776 0.0 0.0
353.28677803590676 -0.14983075717710959 105.72907828630196 37.06131838624779 0.0 0.0
275.9496387263337 57.61718121201429 100.07031994173556 33.879293595439414 0.0 0.0
671.281147105229 321.52071354769777 436.93646735263786 100.19512747648469 0.0 0.0
-1191.783666246426 -1920.0895980353835 -1435.0726887859153 57.15327900933283 0.0 0.0
-967.8122960963373 -1665.5023816311725 -1188.0865480498348 -70.61630590270651 0.0 0.0
508.46878410924916 226.24599877175936 315.8543355099345 -144.61156022478056 0.0 0.0
202.10988692710796 52.26591771536538 76.31274139274198 -56.09083791940209 0.0 0.0
294.2109476515782 5.113546623761508 89.78998877266594 -57.77743857996053 0.0 0.0
415.5540613873094 9.002648212661962 128.66268553223608 -62.009773407067286 0.0 0.0
530.5605028490755 26.87791743898384 195.60617736774904 -59.486177463167344 0.0 0.0
627.1754649650636 41.63359001996584 283.10003115724504 -62.3955445310058 0.0 0.0
703.2346811914155 54.55258248058615 357.8153070738914 -63.11157525345374 0.0 0.0
771.6114718671927 68.57821394612569 412.8045257752667 -64.01618954164175 0.0 0.0
834.5167066297747 84.4699767267848 456.49552691776654 -64.70388677196382 0.0 0.0
896.2527686071596 104.88467294466355 498.6789851256756 -64.48807106650209 0.0 0.0
959.513234507989 130.3559445519053 543.3089230186188 -63.387275349687926 0.0 0.0
1023.388158038078 160.04007222418932 590.1480827263848 -61.819427435660636 0.0 0.0
1084.3923074667553 187.98925805536553 634.6242573074779 -60.225554284575296 0.0 0.0
1138.3020164624434 211.5800599943413 673.3506121877874 -58.30663927919719 0.0 0.0
1182.6953797971746 227.6472698488068 703.5422299533211 -55.72916504610981 0.0 0.0
1214.242691075593 232.60885224833902 721.7697810786151 -52.23221144087375 0.0 0.0
1228.2766204192158 223.2386654438676 724.1844789263503 -47.68939075215226 0.0 0.0
1221.6064086827994 197.47884714963462 708.2011544195892 -41.925913030520995 0.0 0.0
1203.5570780467506 166.0368555650644 683.6744603514503 -33.58668425513557 0.0 0.0
1062.5995625464993 23.992069815380134 544.4234896064131 -3.035793838535028e-11 0.0 0.0
1203.5570780464504 166.03685556479533 683.6744603512357 33.586684255190946 0.0 0.0
1221.6064086825809 197.47884714949015 708.201154419445 41.92591303062121 0.0 0.0
1228.2766204197012 223.2386654444603 724.1844789268507 47.68939075238379 0.0 0.0
1214.2426910750173 232.60885224784545 721.7697810782103 52.23221144089472 0.0 0.0
1182.6953797976962 227.64726984948007 703.5422299536336 55.72916504615431 0.0 0.0
1138.3020164621696 211.58005999422562 673.3506121875383 58.306639279357974 0.0 0.0
1084.3923074670372 187.98925805581788 634.6242573076217 60.225554284557354 0.0 0.0
1023.3881580389025 160.0400722252434 590.1480827269528 61.81942743577546 0.0 0.0
959.5132345077527 130.35594455188084 543.3089230184441 63.38727534969799 0.0 0.0
896.2527686062374 104.8846729439091 498.67898512509896 64.48807106646302 0.0 0.0
834.5167066293731 84.46997672663284 456.49552691744975 64.70388677191062 0.0 0.0
771.6114718670227 68.57821394622489 412.8045257751344 64.01618954166732 0.0 0.0
703.2346811913233 54.55258248074932 357.815307073713 63.11157525337741 0.0 0.0
627.1754649647232 41.63359001997209 283.1000311568729 62.39554453095481 0.0 0.0
530.5605028485222 26.87791743875533 195.60617736735898 59.486177463179736 0.0 0.0
415.5540613870141 9.00264821276748 128.6626855321637 62.009773407060045 0.0 0.0
294.2109476515139 5.113546623721323 89.78998877263253 57.77743857982161 0.0 0.0
202.10988692705638 52.26591771521484 76.31274139268135 56.090837919281846 0.0 0.0
508.4687841086964 226.245998771482 315.8543355094164 144.6115602245785 0.0 0.0
-967.8122960946832 -1665.5023816294254 -1188.086548047988 70.61630590244914 0.0 0.0
-774.1322865074839 -1443.9388609329387 -971.4881122477474 -70.24119549132672 0.0 0.0
388.44893523358 143.8683803892841 222.54378167945976 -175.09213829996622 0.0 0.0
148.91186227000378 42.758390362213675 57.50107578966524 -85.52374468535717 0.0 0.0
241.04170659157958 11.406321396428844 75.73505353742816 -80.11019298125814 0.0 0.0
352.25194352142705 5.567059101444832 107.06784758981416 -86.12292117599284 0.0 0.0
477.28330102423706 15.01742775621678 161.3281613692236 -85.3248602277235 0.0 0.0
583.6615318416073 34.497998076843416 245.98614253185386 -83.40621831347175 0.0 0.0
665.0157241189797 48.980102231162185 327.31741579466745 -83.76873402809181 0.0 0.0
733.514715176106 59.683913819343154 385.2906233302707 -84.11534297972115 0.0 0.0
793.7405335620524 72.01365301614042 428.2892702145662 -84.32782615292145 0.0 0.0
851.9673779811328 88.4610615759895 467.4726765334974 -83.64810134360546 0.0 0.0
910.9914426982577 110.01885471531389 508.24508348156667 -82.04710795471392 0.0 0.0
971.0428812269715 135.572555335668 551.1606923736985 -80.11823579426408 0.0 0.0
1028.266632057393 161.53629550831712 592.8025431641963 -78.08908867777022 0.0 0.0
1079.4900368486637 182.31649257671583 628.8187353941939 -75.68155825696658 0.0 0.0
1122.273998323559 196.44511418923068 657.2405092186239 -72.51971665929246 0.0 0.0
1154.862632139052 202.86578030915854 676.7279302413823 -68.37418095729477 0.0 0.0
1172.6561424698389 196.9482249261686 682.737993833332 -63.10544010685588 0.0 0.0
1171.6024991347624 175.99299042947433 671.9345186805143 -55.59226443637537 0.0 0.0
1157.9615001575253 147.47359703725118 651.0271984254933 -43.38843484661138 0.0 0.0
965.8433117989011 -45.604117501024334 461.8124511500821 5.324096719050431e-11 0.0 0.0
1157.9615001579616 147.47359703773637 651.0271984259105 43.388434846762614 0.0 0.0
1171.6024991348913 175.99299042970227 671.9345186805515 55.59226443653956 0.0 0.0
1172.6561424704412 196.9482249268916 682.7379938339076 63.105440107080994 0.0 0.0
1154.8626321379393 202.86578030810398 676.7279302405966 68.37418095728842 0.0 0.0
1122.2739983232127 196.44511418900998 657.2405092183877 72.519716659328 0.0 0.0
1079.4900368473277 182.31649257547448 628.8187353932599 75.68155825699421 0.0 0.0
1028.2666320579963 161.53629550912814 592.8025431645829 78.08908867787673 0.0 0.0
971.0428812269696 135.57255533583185 551.1606923736723 80.11823579428014 0.0 0.0
910.9914426978473 110.01885471509551 508.2450834812324 82.04710795471341 0.0 0.0
851.9673779800482 88.46106157510945 467.4726765327669 83.64810134355128 0.0 0.0
793.7405335621842 72.013653016511 428.2892702146356 84.32782615289973 0.0 0.0
733.5147151762162 59.68391381978793 385.2906233302796 84.11534297977599 0.0 0.0
665.0157241181273 48.98010223048669 327.3174157939957 83.7687340279427 0.0 0.0
583.6615318410771 34.49799807665129 245.98614253139525 83.40621831354954 0.0 0.0
477.28330102394875 15.017427756290537 161.32816136903324 85.32486022762282 0.0 0.0
352.25194352098407 5.5670591012561434 107.06784758964015 86.12292117591772 0.0 0.0
241.0417065915074 11.406321396404328 75.7350535373988 80.11019298116194 0.0 0.0
148.91186226997127 42.75839036204971 57.50107578960629 85.52374468518569 0.0 0.0
388.44893523305547 143.86838038896684 222.54378167899887 175.09213829975857 0.0 0.0
-774.1322865060129 -1443.9388609313016 -971.4881122460732 70.24119549115252 0.0 0.0
-604.3823168009646 -1247.7521561159858 -779.6704199025537 -68.427109634841 0.0 0.0
294.06409248386905 80.29806244176137 151.56895380502115 -192.13491749417963 0.0 0.0
107.97279610892652 30.52694422528188 41.54992210026251 -113.41794899955899 0.0 0.0
192.0485765160422 16.70133160527561 62.62651083805319 -102.8057331844472 0.0 0.0
288.0530193322301 4.710280177911068 87.51608532889256 -109.13883817158064 0.0 0.0
408.64189112046904 7.0248465413789365 129.32746524734236 -110.95480015759311 0.0 0.0
522.3666562878276 26.787221424610554 203.8718348208863 -106.09217940077296 0.0 0.0
619.4576940007886 40.208913793005074 287.9468488276116 -105.6912382213883 0.0 0.0
687.2372890898541 51.54969348520848 351.9497203660345 -103.7928658444538 0.0 0.0
747.5313912694498 59.70533270283666 396.1634442425852 -103.37143636611088 0.0 0.0
802.3347018745924 72.16998091369192 433.0794232298675 -102.02056256205614 0.0 0.0
857.2173300904182 89.72168088110271 470.21968776259797 -99.8530751177063 0.0 0.0
913.045909098702 111.71810429321168 509.37431642878664 -97.52507687024924 0.0 0.0
966.4549037595672 133.57386814134412 547.118770567244 -95.27316747422061 0.0 0.0
1014.7214806894415 152.31289139267597 580.6918075420392 -92.52255348249905 0.0 0.0
1055.8933890582468 165.54843919368645 607.9189467423921 -88.76079751928239 0.0 0.0
1089.40494066354 171.8762506448889 627.7990625400045 -84.21143940580549 0.0 0.0
1112.7587009246172 171.2683683316212 639.1799008875637 -78.49678264492418 0.0 0.0
1119.0839716515175 156.8839917114657 635.3399829253914 -69.6328939669754 0.0 0.0
1108.0569858002407 128.66853985058225 615.9137981114553 -54.15882492417634 0.0 0.0
854.5662428705333 -125.41502684391 367.0972043878537 4.1321612798128626e-11 0.0 0.0
1108.0569858007489 128.66853985115682 615.9137981118522 54.158824924270405 0.0 0.0
1119.0839716525184 156.88399171258163 635.3399829261728 69.63289396720295 0.0 0.0
1112.7587009248402 171.26836833198615 639.1799008877058 78.4967826451219 0.0 0.0
1089.4049406626195 171.87625064403923 627.7990625393041 84.21143940585337 0.0 0.0
1055.8933890580863 165.54843919366834 607.91894674232 88.760797519326 0.0 0.0
1014.7214806878821 152.31289139117524 580.6918075409496 92.5225534824211 0.0 0.0
966.4549037595064 133.57386814154404 547.1187705671038 95.27316747439349 0.0 0.0
913.0459090989722 111.71810429363782 509.37431642891505 97.52507687025407 0.0 0.0
857.2173300898028 89.72168088063819 470.219687762175 99.85307511765212 0.0 0.0
802.334701874227 72.16998091358204 433.0794232295716 102.02056256206855 0.0 0.0
747.5313912689484 59.705332702515065 396.1634442422714 103.37143636602927 0.0 0.0
687.2372890898728 51.549693485542356 351.94972036595567 103.79286584448802 0.0 0.0
619.4576939999263 40.20891379233413 287.9468488269175 105.69123822123454 0.0 0.0
522.3666562874068 26.7872214246076 203.8718348205397 106.09217940080372 0.0 0.0
408.6418911201852 7.024846541572033 129.32746524725593 110.95480015750415 0.0 0.0
288.0530193320384 4.710280177946295 87.51608532884927 109.13883817141752 0.0 0.0
192.0485765159193 16.701331605215156 62.62651083799765 102.80573318440739 0.0 0.0
107.9727961089525 30.52694422531368 41.549922100279844 113.41794899940896 0.0 0.0
294.06409248338446 80.29806244148136 151.56895380463746 192.13491749401703 0.0 0.0
-604.3823167996758 -1247.7521561145127 -779.6704199010697 68.42710963472527 0.0 0.0
-458.63738822912137 -1067.8205282592858 -610.5897146331014 -67.45758421553079 0.0 0.0
219.71134546158552 29.77418341761251 97.71251482888722 -202.0777218629067 0.0 0.0
74.53136646025688 18.226565315777112 27.82728211088446 -136.49647166690693 0.0 0.0
145.8041649871569 20.083003749277218 49.767219776893164 -124.06552772062814 0.0 0.0
225.9276886836559 6.113738693604458 69.53898078172763 -129.47479664611527 0.0 0.0
331.1785776786819 -0.012906609448099848 99.31222690931504 -137.62259245056907 0.0 0.0
448.99992585394256 14.080160673828821 157.961706671461 -132.8999445203784 0.0 0.0
552.4293567619549 32.61674545924174 238.9983153901395 -127.20433630789812 0.0 0.0
634.405325381623 39.88729842719857 308.91689680174727 -125.51738691373536 0.0 0.0
692.0605986454266 47.7777001231478 357.34323223174397 -121.6256047351462 0.0 0.0
745.8939895770886 56.05341817072489 394.0219364750453 -119.54433991415601 0.0 0.0
796.7946809893959 69.36213000666501 428.0559025183931 -116.8183736727232 0.0 0.0
848.0832399844684 87.31169947232691 463.26811801369587 -114.10879751602624 0.0 0.0
897.3136331452595 105.93372892272491 497.4474635433246 -111.61990087488851 0.0 0.0
942.1247813072263 121.87007276322258 528.0022908188175 -108.69483262653458 0.0 0.0
981.2548076076013 132.32774099980924 552.8808121619486 -104.80212466106265 0.0 0.0
1015.2648546950186 140.58443709903696 573.9884311230767 -99.52178497538877 0.0 0.0
1045.7682353800765 145.8755360410655 591.7792481687757 -93.59514825042442 0.0 0.0
1061.5855625399513 139.00405635480104 596.386349299027 -84.3635881517471 0.0 0.0
1053.82320681549 111.36514334595904 579.0015077571436 -66.60298185843543 0.0 0.0
726.6976319898383 -215.24182307663065 259.4326743360037 8.543388219095505e-11 0.0 0.0
1053.8232068154157 111.36514334593423 579.0015077571459 66.60298185859966 0.0 0.0
1061.5855625398017 139.00405635476002 596.3863492990729 84.36358815200276 0.0 0.0
1045.7682353799732 145.87553604105437 591.7792481686708 93.59514825062419 0.0 0.0
1015.2648546940635 140.58443709815054 573.9884311223636 99.52178497535397 0.0 0.0
981.2548076080506 132.3277410003595 552.8808121623255 104.80212466113723 0.0 0.0
942.124781306364 121.87007276250095 528.0022908181996 108.6948326265352 0.0 0.0
897.3136331454442 105.93372892306255 497.4474635433675 111.61990087495488 0.0 0.0
848.0832399840526 87.3116994719679 463.268118013405 114.10879751592586 0.0 0.0
796.7946809894228 69.3621300069111 428.05590251842887 116.8183736727103 0.0 0.0
745.8939895766453 56.05341817048352 394.0219364747089 119.5443399141482 0.0 0.0
692.0605986448593 47.77770012283197 357.3432322313527 121.62560473506717 0.0 0.0
634.4053253810183 39.887298426806254 308.9168968012612 125.51738691371835 0.0 0.0
552.4293567617773 32.61674545955873 238.99831538994945 127.20433630795644 0.0 0.0
448.9999258534411 14.080160673625215 157.96170667110846 132.8999445203396 0.0 0.0
331.1785776783114 -0.012906609383967815 99.31222690922905 137.6225924504692 0.0 0.0
225.92768868368782 6.113738693911821 69.53898078183009 129.4747966459426 0.0 0.0
145.80416498718176 20.08300374943143 49.767219776946476 124.06552772050796 0.0 0.0
74.53136646026539 18.226565315831447 27.827282110903433 136.49647166676246 0.0 0.0
219.7113454611658 29.774183417440753 97.71251482860552 202.07772186277055 0.0 0.0
-458.63738822808995 -1067.8205282580072 -610.5897146318647 67.45758421548143 0.0 0.0
-330.3320496494031 -912.6667204658471 -462.6546878170752 -75.91804928883815 0.0 0.0
156.13243354504567 -8.293765305460958 55.89095135232616 -203.32439340389075 0.0 0.0
45.6407186630164 8.115508832995246 16.12667194775913 -154.15862502992428 0.0 0.0
101.15797444546162 21.443113596586016 36.781462324923076 -142.50167852271906 0.0 0.0
165.68842946463374 8.668739008334144 52.251979308243044 -147.17538151823396 0.0 0.0
246.65297984505773 -1.2039212328466367 73.02119040411179 -159.31367597554038 0.0 0.0
356.2360311005055 2.609492354507935 112.99484914033545 -161.08153518051526 0.0 0.0
465.46440198403764 19.2484668368145 179.84520760266196 -151.03216256361785 0.0 0.0
557.922976347071 30.432743245631862 252.24398892810086 -145.3974012059931 0.0 0.0
625.5497083537552 32.67825829191029 306.1433370822957 -141.12020488172286 0.0 0.0
677.7397234155006 39.132718345163255 345.4823386998087 -136.16272628833175 0.0 0.0
725.6880082100317 49.11928198935639 378.58762288281423 -132.69611569300938 0.0 0.0
772.973895551761 63.019767054890984 410.69408772873294 -129.64332550039313 0.0 0.0
817.1647881994551 77.54292793932208 440.733135378035 -126.98314824146114 0.0 0.0
858.3560162787012 90.33668909352124 468.09942276613674 -124.12726192993196 0.0 0.0
894.9574919990881 99.76753486951034 491.3687139045875 -120.24488848160463 0.0 0.0
928.4602069988669 105.99740404533767 511.3569475922124 -114.68194705819744 0.0 0.0
964.9494613473555 117.00478382561487 534.8060486790273 -108.14865226374597 0.0 0.0
994.6736827025229 123.32217542867518 552.8264084627756 -99.4788314289479 0.0 0.0
994.6146184800069 99.41522658762202 541.4527575687385 -81.58141710747901 0.0 0.0
576.4701111886122 -315.1161747888184 136.12486109673623 9.192291372528416e-11 0.0 0.0
994.6146184802005 99.41522658798743 541.4527575688932 81.5814171077511 0.0 0.0
994.673682702226 123.32217542850432 552.8264084626054 99.4788314292214 0.0 0.0
964.9494613469486 117.00478382532981 534.8060486787288 108.1486522639202 0.0 0.0
928.460206998341 105.99740404490608 511.3569475917463 114.6819470582415 0.0 0.0
894.9574919987521 99.767534869319 491.3687139044146 120.24488848169548 0.0 0.0
858.3560162778087 90.33668909260045 468.0994227655521 124.12726192982183 0.0 0.0
817.1647881992327 77.54292793919484 440.7331353778659 126.98314824145122 0.0 0.0
772.973895551387 63.01976705470049 410.69408772843474 129.64332550035087 0.0 0.0
725.6880082104562 49.11928199004889 378.58762288313767 132.69611569315012 0.0 0.0
677.7397234153028 39.132718345169245 345.482338699594 136.16272628825354 0.0 0.0
625.5497083536575 32.67825829212232 306.14333708223074 141.12020488173948 0.0 0.0
557.9229763459208 30.43274324451272 252.24398892724963 145.39740120584972 0.0 0.0
465.46440198410266 19.24846683742883 179.84520760266318 151.03216256367952 0.0 0.0
356.23603109987965 2.609492354004303 112.99484913994003 161.08153518044082 0.0 0.0
246.65297984468987 -1.2039212327076965 73.02119040407942 159.3136759752823 0.0 0.0
165.688429464597 8.668739008468048 52.25197930827118 147.17538151813625 0.0 0.0
101.1579744454738 21.443113596689653 36.78146232495812 142.5016785225493 0.0 0.0
45.64071866292782 8.115508832924553 16.12667194771119 154.15862502979644 0.0 0.0
156.13243354463035 -8.293765305659669 55.890951352075696 203.3243934036838 0.0 0.0
-330.3320496486219 -912.6667204647416 -462.6546878160966 75.91804928887099 0.0 0.0
-235.03822198136942 -762.223000756224 -345.4234264036327 -84.44324617680583 0.0 0.0
101.43938216758906 -39.00114693614934 24.13484800001028 -198.26537342385754 0.0 0.0
18.500556651602192 1.2940560053867896 5.940157025649895 -166.82057452224876 0.0 0.0
57.79536694124554 21.28582015442579 23.7234602442549 -157.2676764092879 0.0 0.0
105.23099941560722 11.594430558615267 35.01198591493227 -161.1902577049846 0.0 0.0
162.11377277362178 1.1839433841469487 48.80945892269167 -174.73336815417792 0.0 0.0
244.1817451445306 -3.517232259206213 72.1454255480967 -188.0124016644442 0.0 0.0
350.03768006298026 1.3244289745694013 114.76901401187563 -182.00757313393768 0.0 0.0
450.71310736373414 13.214689887088763 175.57631115406957 -166.99603665891698 0.0 0.0
528.5658656286698 17.449820692094214 232.31488119076286 -158.00815425514912 0.0 0.0
586.2409815706225 21.457965567830158 276.9097141803576 -151.09959257281898 0.0 0.0
633.5910557534369 27.364500521175202 311.3375352401559 -146.9348673379754 0.0 0.0
677.5077729850918 38.27037146019313 342.795722620471 -143.7041915422414 0.0 0.0
716.7890903721576 48.769943609339435 369.8129337470292 -140.96873484267178 0.0 0.0
753.2358594095444 58.28987846036998 393.9704275225295 -138.38640306183655 0.0 0.0
787.586177864433 66.16462865907349 415.77632903938445 -135.1301441925118 0.0 0.0
820.845976028575 72.43360586305269 436.1908300604344 -129.75126179854144 0.0 0.0
857.7774553873566 82.44201288260089 459.67055795604233 -122.18858875879518 0.0 0.0
903.5153800024536 101.71503456943407 491.68731410854724 -114.26766799263028 0.0 0.0
926.5562190289353 96.11719532502471 501.56182777283124 -100.44094652630228 0.0 0.0
395.28512165363975 -421.49656560680313 -4.911493841562731 9.403677836417046e-11 0.0 0.0
926.5562190295027 96.11719532571924 501.56182777331145 100.44094652662726 0.0 0.0
903.5153800026993 101.71503456981173 491.6873141087635 114.26766799284185 0.0 0.0
857.7774553869252 82.44201288218225 459.6705579556882 122.1885887588839 0.0 0.0
820.8459760280904 72.43360586265656 436.19083006008293 129.75126179865805 0.0 0.0
787.5861778639972 66.16462865877791 415.77632903909193 135.13014419256038 0.0 0.0
753.2358594082561 58.28987845890871 393.9704275217241 138.38640306159778 0.0 0.0
716.7890903721124 48.7699436095291 369.8129337469348 140.96873484274693 0.0 0.0
677.5077729852185 38.27037146045237 342.79572262058934 143.70419154238215 0.0 0.0
633.5910557529451 27.3645005207665 311.3375352397972 146.93486733790323 0.0 0.0
586.2409815707285 21.457965568129655 276.909714180362 151.0995925727735 0.0 0.0
528.5658656279231 17.449820691340772 232.31488119019747 158.0081542549749 0.0 0.0
450.7131073632422 13.214689886928946 175.5763111537027 166.99603665884393 0.0 0.0
350.0376800629278 1.324428975080532 114.76901401192724 182.00757313405003 0.0 0.0
244.18174514394747 -3.5172322595825127 72.145425547827 188.01240166420976 0.0 0.0
162.1137727734528 1.1839433842214402 48.80945892266945 174.7333681538484 0.0 0.0
105.23099941550768 11.594430558610265 35.01198591490002 161.19025770482094 0.0 0.0
57.79536694116887 21.285820154341582 23.723460244206713 157.2676764091337 0.0 0.0
18.500556651504198 1.2940560053906083 5.940157025621271 166.82057452206016 0.0 0.0
101.43938216715301 -39.00114693642003 24.134847999762624 198.26537342355982 0.0 0.0
-235.03822198081372 -762.2230007552564 -345.42342640290804 84.44324617686682 0.0 0.0
-160.8061152954559 -632.3490674978525 -253.58928885051205 -100.35990470208233 0.0 0.0
52.199342764755414 -61.137237022869215 -0.6910937650291133 -187.19924304636496 0.0 0.0
-7.5230206897026815 -1.9496468859479548 -2.8417160072823693 -174.68419311837988 0.0 0.0
15.413630062608002 20.11379014779443 10.658286321265729 -167.80272853651098 0.0 0.0
44.93947224031419 14.206413697640754 17.733357341778234 -171.09530869332784 0.0 0.0
78.32681004019359 4.359492556224796 24.691259869868915 -185.99254618203688 0.0 0.0
121.46295704427389 -1.0418878346264084 36.047159856957194 -201.91295109402125 0.0 0.0
187.91688063000737 -4.250199309718006 55.32262305280036 -207.7944093925059 0.0 0.0
277.8747259761816 -10.11810618822787 83.63087015327338 -199.31728439683025 0.0 0.0
367.75089410457986 -17.51847115739073 116.91095221117915 -182.68785122721445 0.0 0.0
433.60695636327216 -14.983745140646516 152.88364601204873 -168.31193733973555 0.0 0.0
479.5183140621707 -4.893806937677979 185.8191273767107 -159.2470170130248 0.0 0.0
519.4774532815219 7.920551327123981 216.65686901735103 -155.8317900685114 0.0 0.0
554.9273798979094 17.490609540501993 243.92659471322492 -154.3281828222454 0.0 0.0
586.7046183640997 25.531249188177668 268.7151421486744 -153.56864147806365 0.0 0.0
618.2449160462234 32.88157707938465 292.75310985455553 -153.08718386257016 0.0 0.0
652.4664985674111 39.09021579776567 317.64386753947906 -149.47525665800637 0.0 0.0
690.4540481270019 44.07747537165781 343.2483623290875 -141.18626006714337 0.0 0.0
739.9826988244952 57.536236448897405 375.6273106708196 -131.0482570191209 0.0 0.0
813.7619522376294 92.66803860276767 432.4393044604728 -125.07165997449457 0.0 0.0
150.09466715415186 -531.5895915097825 -176.6160760450211 -1.0480505352461478e-11 0.0 0.0
813.7619522375037 92.66803860275809 432.4393044604896 125.07165997462482 0.0 0.0
739.9826988242841 57.53623644879861 375.6273106707651 131.0482570194618 0.0 0.0
690.4540481267466 44.077475371465454 343.24836232892244 141.18626006727553 0.0 0.0
652.4664985664109 39.09021579659023 317.643867538714 149.47525665809718 0.0 0.0
618.2449160464795 32.881577080077534 292.75310985482497 153.0871838625619 0.0 0.0
586.7046183640756 25.531249188502862 268.7151421486644 153.56864147804603 0.0 0.0
554.9273798981138 17.49060954068908 243.9265947132737 154.3281828223883 0.0 0.0
519.4774532809231 7.920551326579078 216.65686901697924 155.83179006855465 0.0 0.0
479.5183140619936 -4.893806937904991 185.8191273764408 159.24701701291266 0.0 0.0
433.6069563634515 -14.983745140191598 152.88364601215017 168.31193733976244 0.0 0.0
367.75089410377325 -17.51847115828905 116.9109522106359 182.68785122697966 0.0 0.0
277.8747259764871 -10.118106186997124 83.63087015370472 199.3172843969771 0.0 0.0
187.91688062992608 -4.2501993092040955 55.32262305293147 207.79440939246174 0.0 0.0
121.46295704394893 -1.0418878349682803 36.04715985675503 201.91295109383864 0.0 0.0
78.32681004017284 4.359492556395071 24.691259869916088 185.9925461816465 0.0 0.0
44.939472240238636 14.206413697443022 17.733357341697946 171.09530869313548 0.0 0.0
15.413630062588874 20.113790147693457 10.658286321229161 167.80272853634196 0.0 0.0
-7.52302068969653 -1.9496468858251266 -2.8417160072438237 174.68419311816777 0.0 0.0
52.199342764422966 -61.137237023072835 -0.6910937652081675 187.1992430460703 0.0 0.0
-160.80611529508136 -632.349067497042 -253.5892888500368 100.35990470220734 0.0 0.0
-118.91364764848726 -511.1669021705138 -191.3315578325577 -109.8651778839419 0.0 0.0
10.668693595127035 -74.92559527615013 -18.9556459350644 -172.03160881405984 0.0 0.0
-31.81879459747698 -3.1858869901849363 -10.497942644195318 -178.4670978787401 0.0 0.0
-25.813676134261655 18.64950544234559 -2.1476535580992384 -174.11463947853022 0.0 0.0
-14.556231142505375 16.330187730127992 0.533595654614387 -176.604734784357 0.0 0.0
-6.444091617086309 7.870993186750612 0.43232924422141084 -190.08581013530403 0.0 0.0
-2.5572406418317293 1.6188807630196966 -0.2849187987028996 -207.14393697297757 0.0 0.0
-0.6664100988305357 0.15133570728034051 -0.15638896196647067 -212.37738432433673 0.0 0.0
-0.1067053601586565 -0.07002832285940297 -0.05354362656333045 -205.1588644112796 0.0 0.0
0.09493010746401609 0.0027404133689969967 0.03918741174949503 -194.9631619810893 0.0 0.0
-0.02328299845837023 -0.17354967679403188 -0.1320965795195832 -193.1724541777551 0.0 0.0
-0.8941281764720372 0.36688475159253997 0.03327529207859925 -190.327680107801 0.0 0.0
-1.8975021015405815 0.6370866636622381 0.14618222474714315 -183.33282351066433 0.0 0.0
-1.7270720086642228 1.2648220287159475 0.5235785948402878 -175.1526187648773 0.0 0.0
2.9746209276617606 3.7043548971303366 1.3959596621450743 -169.2686197755131 0.0 0.0
19.778701689255882 8.982524083907052 4.047794069963047 -164.09938432881611 0.0 0.0
59.72477263881015 19.193064256949597 10.670258413153732 -158.861359865969 0.0 0.0
142.32232025397 25.394766110705334 14.581273664622188 -150.6329054052836 0.0 0.0
345.92736050246145 -28.943816340393838 28.86926255237205 -144.11399018494765 0.0 0.0
531.8185920938541 -0.1693612934807902 196.47234487171698 -178.4945427183485 0.0 0.0
-449.9679278103791 -740.175636257364 -519.7481068633659 -1.6918022538447985e-11 0.0 0.0
531.8185920941543 -0.16936129309161174 196.47234487188862 178.49454271820468 0.0 0.0
345.9273605023533 -28.943816339924 28.869262552538856 144.113990185794 0.0 0.0
142.32232025405352 25.394766110886124 14.581273664798886 150.63290540583034 0.0 0.0
59.72477263800065 19.193064255539852 10.670258412352624 158.861359866161 0.0 0.0
19.778701690235494 8.982524085573594 4.047794070805594 164.09938432883334 0.0 0.0
2.9746209281618974 3.704354897609683 1.395959662505902 169.26861977566634 0.0 0.0
-1.727072007987104 1.264822029450194 0.5235785952827783 175.1526187647236 0.0 0.0
-1.897502100754025 0.6370866644346833 0.1461822252368279 183.33282351085992 0.0 0.0
-0.894128176119743 0.3668847506626882 0.033275291934778295 190.32768010777158 0.0 0.0
-0.023282997475611467 -0.17354967545979427 -0.1320965788178725 193.1724541775788 0.0 0.0
0.09493010752234454 0.0027404128244103987 0.039187411594614474 194.96316198099154 0.0 0.0
-0.10670535985835983 -0.07002832252400104 -0.05354362636504639 205.15886441135711 0.0 0.0
-0.6664100985796679 0.15133570757385995 -0.1563889617995633 212.37738432432013 0.0 0.0
-2.5572406419481286 1.6188807627375106 -0.2849187988226407 207.14393697273033 0.0 0.0
-6.444091617074285 7.870993186679954 0.43232924420393415 190.08581013497795 0.0 0.0
-14.556231142645725 16.330187729705386 0.5335956544447871 176.60473478419462 0.0 0.0
-25.813676134278115 18.649505442342683 -2.1476535581055565 174.1146394782531 0.0 0.0
-31.818794597461128 -3.185886990135511 -10.497942644175046 178.46709787862838 0.0 0.0
10.668693595053908 -74.92559527624648 -18.95564593511329 172.03160881392355 0.0 0.0
-118.91364764833594 -511.1669021697391 -191.3315578323073 109.86517788384369 0.0 0.0
-97.87926019814236 -401.55284909099123 -149.7547620582045 -107.72995190453703 0.0 0.0
-16.7254854704838 -82.80418546398833 -29.868589665105947 -160.2039296929028 0.0 0.0
-54.48113125724838 -4.201158058957294 -17.606331633767265 -178.34074010132295 0.0 0.0
-65.48697235310709 17.308523243785732 -14.448730915001189 -175.89213445493576 0.0 0.0
-72.9526803342845 17.69281844239631 -16.580809309128448 -177.01132747331087 0.0 0.0
-90.0936669517909 11.176589060943499 -23.62340957365562 -187.9969882457385 0.0 0.0
-126.54229421545261 4.463528072350522 -36.49153511318147 -203.4834925349519 0.0 0.0
-189.10866106378313 4.452848497544679 -55.66262804334731 -208.01837211710762 0.0 0.0
-277.8969094944008 9.885089202259485 -83.74018252476901 -199.3178874211042 0.0 0.0
-367.6015583296943 17.512656999583808 -116.85060517309955 -182.65246243900674 0.0 0.0
-434.1457711898473 15.214249233236362 -152.7998571562194 -168.39772259612477 0.0 0.0
-479.8146578525141 4.709023315392493 -186.3369849854443 -159.05978461711294 0.0 0.0
-520.5559796026226 -7.596970077087448 -217.7049951817482 -155.37571498265842 0.0 0.0
-555.5879091444571 -14.975421485397646 -243.90372329783747 -153.5953183977944 0.0 0.0
-581.8653015533284 -17.98188785091338 -262.311088791579 -153.28159012416404 0.0 0.0
-597.499215245667 -15.982175575127002 -269.7638934608533 -155.62611755413184 0.0 0.0
-600.3162299291156 -8.97895493585915 -263.88350757588626 -160.6179375736239 0.0 0.0
-595.1729009321814 -1.9101165962992468 -243.72367125308526 -170.92699843015637 0.0 0.0
-578.7433725110852 41.288764031951004 -191.80598700446942 -183.56723944142036 0.0 0.0
-326.44610596425883 109.77682487038913 -30.488516209363993 -133.44965691886935 0.0 0.0
-989.1362891585974 -973.2310215402724 -985.474659483257 -9.412559620614047e-11 0.0 0.0
-326.44610596363566 109.776824871396 -30.48851620881871 133.4496569193075 0.0 0.0
-578.7433725106578 41.288764032428006 -191.80598700421612 183.5672394416331 0.0 0.0
-595.1729009315112 -1.910116595576767 -243.72367125260678 170.92699843022748 0.0 0.0
-600.3162299296048 -8.978954936959695 -263.8835075762622 160.61793757376006 0.0 0.0
-597.4992152443097 -15.982175573292245 -269.76389345989344 155.6261175540044 0.0 0.0
-581.865301553935 -17.981887852045666 -262.3110887919386 153.281590124271 0.0 0.0
-555.5879091427468 -14.975421483389589 -243.9037232966354 153.5953183977036 0.0 0.0
-520.5559796019957 -7.596970076520105 -217.70499518134656 155.37571498277643 0.0 0.0
-479.81465785254534 4.709023315061025 -186.3369849853503 159.05978461713988 0.0 0.0
-434.1457711889976 15.214249234006182 -152.79985715563149 168.39772259615432 0.0 0.0
-367.6015583294527 17.51265699889648 -116.85060517315475 182.65246243907328 0.0 0.0
-277.89690949388154 9.88508920199122 -83.74018252467067 199.31788742119537 0.0 0.0
-189.10866106332847 4.452848497501618 -55.66262804321168 208.01837211708866 0.0 0.0
-126.54229421515718 4.463528072323994 -36.49153511310048 203.48349253474328 0.0 0.0
-90.09366695174296 11.176589060524707 -23.623409573771905 187.99698824545538 0.0 0.0
-72.95268033411455 17.692818442506415 -16.58080930904759 177.0113274730751 0.0 0.0
-65.48697235303656 17.308523243833015 -14.448730914969495 175.89213445477475 0.0 0.0
-54.48113125719306 -4.201158058997845 -17.60633163376605 178.34074010121716 0.0 0.0
-16.725485470541656 -82.80418546405173 -29.86858966514645 160.20392969281866 0.0 0.0
-97.87926019806088 -401.55284909052205 -149.75476205803656 107.72995190440388 0.0 0.0
-80.43540622432721 -307.45817504215995 -116.36807437994612 -98.99738965713586 0.0 0.0
-35.03323558195271 -83.97920875696884 -35.701601485751596 -148.81459575009885 0.0 0.0
-75.52720478691917 -5.152295218922956 -24.19916212504246 -174.44167518380442 0.0 0.0
-103.19466478369536 15.884748845923182 -26.21163621633171 -172.90272113748856 0.0 0.0
-130.2849559578858 18.58922452332228 -33.430951111508584 -173.497853735874 0.0 0.0
-172.8800639721656 14.333156703002926 -47.266935850236464 -181.53177193729232 0.0 0.0
-246.53289578197513 6.018462606847271 -72.5235497411665 -187.3914226352412 0.0 0.0
-350.2689916016767 -1.5001170106438426 -115.05712801669841 -182.29142594685615 0.0 0.0
-450.7640334665695 -13.463906189166686 -175.6756347665999 -167.05495628029652 0.0 0.0
-528.5175198668509 -17.501912913386022 -232.30733758749827 -157.96091494860138 0.0 0.0
-586.2113186145093 -21.414601062640138 -276.89457093610235 -151.03511740094504 0.0 0.0
-633.790054290545 -27.268121844658857 -311.47014487531146 -146.65475433812276 0.0 0.0
-678.1017857504916 -37.89607816710746 -343.0554711346802 -142.88095592358908 0.0 0.0
-716.7327090095764 -46.93061402372838 -369.14129325493934 -139.69241582492302 0.0 0.0
-747.9901223423783 -51.7002244439431 -388.4518286366457 -138.01663363650766 0.0 0.0
-768.099636829037 -49.55327551184773 -398.03036852718924 -138.91607297567694 0.0 0.0
-775.5890120596672 -40.98664422463109 -397.4203984320458 -142.9447847608468 0.0 0.0
-769.7405394915183 -28.385595214671397 -387.7427358640042 -150.19108249842887 0.0 0.0
-728.7894680491837 10.46899184440359 -348.9941635933783 -158.86688406311157 0.0 0.0
-650.0827547052772 74.78730791382552 -281.3104161425874 -165.15274480423545 0.0 0.0
-1735.2191223589457 -1258.7985058005845 -1455.571072768708 6.73665567774151e-11 0.0 0.0
-650.082754704461 74.78730791466384 -281.31041614204776 165.15274480433717 0.0 0.0
-728.7894680494479 10.468991843849281 -348.99416359363596 158.8668840635363 0.0 0.0
-769.7405394909912 -28.385595214258785 -387.742735863648 150.1910824986121 0.0 0.0
-775.5890120597576 -40.98664422493175 -397.42039843220556 142.94478476106872 0.0 0.0
-768.0996368283855 -49.553275511231185 -398.0303685267828 138.91607297568112 0.0 0.0
-747.9901223424868 -51.70022444433711 -388.45182863667105 138.01663363658395 0.0 0.0
-716.7327090092338 -46.930614023395705 -369.14129325476245 139.69241582499004 0.0 0.0
-678.1017857503498 -37.89607816709187 -343.05547113456083 142.8809559234091 0.0 0.0
-633.7900542899438 -27.2681218442459 -311.47014487488707 146.65475433806887 0.0 0.0
-586.2113186137075 -21.414601061993274 -276.8945709355377 151.03511740084454 0.0 0.0
-528.5175198665715 -17.50191291356493 -232.30733758724233 157.96091494856205 0.0 0.0
-450.764033465792 -13.463906188722202 -175.67563476603425 167.0549562802814 0.0 0.0
-350.2689916015157 -1.5001170112406266 -115.0571280167171 182.2914259470429 0.0 0.0
-246.53289578118344 6.018462607342686 -72.52354974078465 187.3914226349699 0.0 0.0
-172.8800639719505 14.333156702816229 -47.26693585023217 181.53177193713586 0.0 0.0
-130.28495595760435 18.589224523533456 -33.43095111136419 173.49785373565297 0.0 0.0
-103.19466478356836 15.884748845888316 -26.211636216305926 172.9027211373746 0.0 0.0
-75.52720478682151 -5.152295218887558 -24.19916212500294 174.44167518369832 0.0 0.0
-35.033235582015706 -83.97920875705806 -35.70160148579697 148.8145957499704 0.0 0.0
-80.43540622425402 -307.4581750417593 -116.36807437980399 98.99738965700118 0.0 0.0
-65.02743310576214 -227.6812362416465 -87.81260080422258 -87.36244618351914 0.0 0.0
-48.609290283170964 -79.82781036606505 -38.531479778435056 -135.99660592465986 0.0 0.0
-94.9505532057511 -5.785243827113652 -30.218684268476196 -166.39125327551906 0.0 0.0
-139.38123726947475 14.510289011079289 -37.43377984141543 -166.35258164311642 0.0 0.0
-185.22590580736193 18.312502440918166 -49.98647043738959 -163.94126755982555 0.0 0.0
-251.7306126391325 13.947247757480678 -71.369340393553 -164.4950258858222 0.0 0.0
-357.0703110336366 0.5650311858241803 -112.65736793739867 -163.88565695999668 0.0 0.0
-465.68128412557706 -19.5506516293762 -180.0147955603872 -151.62475276080536 0.0 0.0
-557.9477712796249 -30.698909854896474 -252.33616024729423 -145.41108899049084 0.0 0.0
-625.5332210655116 -32.70188505477027 -306.16714286820087 -141.09395924057682 0.0 0.0
-677.6056777878445 -38.999835275482496 -345.37446006691573 -136.10945088020725 0.0 0.0
-725.634206459003 -48.85678915908172 -378.4731878514748 -132.39268322678703 0.0 0.0
-773.2560605556439 -62.63829721423956 -410.70393921207835 -128.67898170578 0.0 0.0
-817.3367795357983 -76.43373526413265 -440.404300682536 -125.34476925554897 0.0 0.0
-854.8355010896187 -85.74138686759949 -464.31845131232865 -123.34135151370592 0.0 0.0
-880.0086159761713 -86.67863438694086 -477.65398070183596 -124.24601231384307 0.0 0.0
-889.6856477925292 -76.72679077916092 -477.62965506066746 -128.9165301836434 0.0 0.0
-873.6614541214132 -48.45045748111204 -455.71394309899193 -135.73191989683346 0.0 0.0
-826.0951022734557 2.382584378515432 -407.56784163281054 -141.71711155954193 0.0 0.0
-702.2544039069239 114.18443518820575 -294.9452909128812 -146.2945491722895 0.0 0.0
-2179.571580525269 -1498.8960234598117 -1807.7085319931732 1.3035261758886918e-10 0.0 0.0
-702.2544039064048 114.18443518859146 -294.945290912588 146.2945491724448 0.0 0.0
-826.0951022742771 2.3825843774519058 -407.56784163334487 141.71711155996948 0.0 0.0
-873.6614541204704 -48.450457480223946 -455.7139430982347 135.731919896877 0.0 0.0
-889.6856477927181 -76.72679077956833 -477.6296550608979 128.91653018375968 0.0 0.0
-880.0086159765707 -86.6786343874733 -477.6539807020739 124.24601231395376 0.0 0.0
-854.83550108906 -85.74138686718322 -464.3184513119015 123.34135151360107 0.0 0.0
-817.3367795367474 -76.43373526540522 -440.4043006831868 125.34476925571877 0.0 0.0
-773.2560605555001 -62.638297214285984 -410.7039392120552 128.67898170586156 0.0 0.0
-725.6342064587418 -48.85678915902529 -378.47318785128715 132.3926832267349 0.0 0.0
-677.6056777873744 -38.999835275179805 -345.37446006663225 136.10945088012207 0.0 0.0
-625.5332210644107 -32.70188505381577 -306.1671428673803 141.09395924039967 0.0 0.0
-557.9477712790381 -30.69890985465459 -252.33616024681626 145.4110889904995 0.0 0.0
-465.6812841252537 -19.550651629732357 -180.0147955601682 151.62475276092002 0.0 0.0
-357.0703110328485 0.5650311864251185 -112.6573679369159 163.8856569599341 0.0 0.0
-251.73061263860157 13.947247757484709 -71.3693403934226 164.49502588562237 0.0 0.0
-185.22590580718378 18.312502440623913 -49.98647043743207 163.94126755962708 0.0 0.0
-139.3812372692734 14.510289011094116 -37.43377984135661 166.35258164291855 0.0 0.0
-94.95055320574099 -5.785243827198529 -30.218684268497086 166.3912532754212 0.0 0.0
-48.60929028310578 -79.8278103659756 -38.531479778388636 135.99660592444144 0.0 0.0
-65.02743310561088 -227.6812362413177 -87.81260080407857 87.36244618338645 0.0 0.0
-52.91429239072186 -161.01332633387256 -64.17828561737832 -74.67085460117738 0.0 0.0
-59.181990881799315 -71.7884273324268 -39.29112546426783 -121.20837582561265 0.0 0.0
-113.21486060848834 -5.943421397652542 -35.74777269344493 -154.3570128037117 0.0 0.0
-173.54290338846027 12.580527759742582 -48.29198786463654 -154.81945996101405 0.0 0.0
-238.52530801353157 17.250689192786115 -66.117710220209 -150.60788581685583 0.0 0.0
-332.17289950095176 11.763921329677524 -96.85609233120744 -145.52551202272832 0.0 0.0
-446.3265332529326 -12.596651512287224 -157.4129163443053 -133.6504459198207 0.0 0.0
-552.5103631586132 -33.13671094068027 -239.10440473740044 -127.52435897725825 0.0 0.0
-634.5250807423752 -40.166154456506376 -309.0932916623805 -125.50987099349692 0.0 0.0
-692.0284850468782 -47.753801966970684 -357.35144916036944 -121.60786480810063 0.0 0.0
-745.6937492898219 -55.808056946894276 -393.82567683022205 -119.51192286972409 0.0 0.0
-796.3977475446378 -68.82485492844057 -427.6282696956056 -116.5190043034762 0.0 0.0
-847.8267243398179 -86.64317510275619 -462.83960693460585 -113.14231984107103 0.0 0.0
-897.7322880720671 -105.51955151752256 -497.50411086738666 -109.88961002267956 0.0 0.0
-941.6297525508877 -120.55797508722326 -527.2286102925239 -107.62707642692341 0.0 0.0
-972.5224729891777 -124.57473642081973 -544.900773757053 -108.29403788759791 0.0 0.0
-979.6303668268249 -110.92823052045486 -541.8830580532685 -112.3472808445247 0.0 0.0
-953.21457426959 -68.80925905696387 -507.9884802669785 -118.42773570255848 0.0 0.0
-881.1138289304679 9.557777451732818 -433.9770162422913 -123.19328975124064 0.0 0.0
-731.7078106071447 148.9910453704729 -293.0291569984554 -126.04808595601767 0.0 0.0
-2527.649543558554 -1741.3200280035796 -2109.7098722880223 1.1083045592386043e-10 0.0 0.0
-731.7078106073491 148.9910453701333 -293.02915699868277 126.04808595633196 0.0 0.0
-881.1138289304514 9.557777451552724 -433.9770162422029 123.19328975150731 0.0 0.0
-953.2145742686897 -68.80925905612109 -507.9884802662994 118.42773570266618 0.0 0.0
-979.6303668272886 -110.92823052108817 -541.883058053749 112.34728084465974 0.0 0.0
-972.5224729895529 -124.57473642134354 -544.900773757273 108.2940378876042 0.0 0.0
-941.6297525509004 -120.5579750874404 -527.2286102924584 107.62707642703853 0.0 0.0
-897.7322880717101 -105.51955151737272 -497.50411086710574 109.88961002270128 0.0 0.0
-847.8267243403315 -86.64317510357236 -462.83960693498506 113.1423198412641 0.0 0.0
-796.3977475440261 -68.82485492801244 -427.62826969520603 116.51900430337069 0.0 0.0
-745.6937492898408 -55.808056947219036 -393.82567683027787 119.51192286977103 0.0 0.0
-692.0284850459626 -47.753801966218255 -357.3514491597311 121.60786480794971 0.0 0.0
-634.5250807424823 -40.166154457090485 -309.0932916623583 125.5098709935956 0.0 0.0
-552.5103631577889 -33.1367109401844 -239.10440473674151 127.5243589772012 0.0 0.0
-446.3265332523887 -12.596651512180582 -157.41291634395014 133.6504459198331 0.0 0.0
-332.17289950036644 11.763921329875686 -96.85609233096228 145.52551202258635 0.0 0.0
-238.52530801336277 17.250689192641183 -66.11771022020434 150.60788581680234 0.0 0.0
-173.54290338838788 12.580527759610817 -48.291987864655454 154.81945996082752 0.0 0.0
-113.21486060839909 -5.943421397643122 -35.74777269341577 154.35701280360934 0.0 0.0
-59.18199088172978 -71.78842733238587 -39.29112546423468 121.20837582543595 0.0 0.0
-52.91429239064239 -161.0133263336404 -64.17828561728481 74.67085460105437 0.0 0.0
-44.18747593640916 -106.89855982829873 -45.32581072941236 -61.53839231601617 0.0 0.0
-67.62225167506352 -61.22886099972403 -38.65533380243626 -104.47380084332599 0.0 0.0
-130.46418209706547 -5.475578803444089 -40.782573556440106 -138.36435247996937 0.0 0.0
-205.95207175986238 10.570200178983054 -58.603730674143506 -139.31315482236423 0.0 0.0
-289.3578656674904 13.319675857323457 -82.7362041859631 -131.12119870885317 0.0 0.0
-404.9775749740421 3.6551093198497773 -125.6616594034221 -120.1932824413689 0.0 0.0
-520.7501180437565 -24.97153887617948 -202.72888913515993 -107.7220837837166 0.0 0.0
-619.8124986961573 -40.89946041102019 -288.2367101294844 -105.79796496033376 0.0 0.0
-687.3271279336043 -51.69352229767655 -352.08469565366505 -103.78140566496438 0.0 0.0
-747.4829194715563 -59.64436996089194 -396.143877185577 -103.37043187086915 0.0 0.0
-802.0567697535655 -71.85166558240603 -432.8102453649898 -101.97993837169705 0.0 0.0
-856.4858679848297 -88.9003853325896 -469.4844527308751 -99.55400619288889 0.0 0.0
-912.085548985906 -110.57189482417752 -508.34751375265455 -96.65663485797836 0.0 0.0
-966.8025107021219 -133.56421132032864 -547.2805123312364 -93.76112830098081 0.0 0.0
-1017.3383353089179 -154.47636667534357 -583.1060366711228 -91.41559911011787 0.0 0.0
-1053.2778076405104 -163.1537555754198 -605.6523000767663 -91.10351322244446 0.0 0.0
-1058.3567849654223 -143.9131061887812 -598.9013860217469 -94.30731490571434 0.0 0.0
-1016.6934976820197 -85.26620247929412 -549.2618670431467 -99.58380034346465 0.0 0.0
-919.1527308054935 19.21200292087319 -449.31753077597784 -103.87331548333229 0.0 0.0
-752.4453329618697 176.31770772050598 -289.48247784561676 -108.77247497935714 0.0 0.0
-2829.254489711022 -1973.792324996786 -2381.483304676676 -1.822186845856777e-11 0.0 0.0
-752.4453329628996 176.31770771932614 -289.4824778463294 108.77247497962358 0.0 0.0
-919.1527308046585 19.212002921657415 -449.3175307754068 103.8733154834208 0.0 0.0
-1016.6934976816192 -85.2662024789739 -549.261867042842 99.58380034352204 0.0 0.0
-1058.3567849658687 -143.91310618931706 -598.9013860220534 94.30731490574391 0.0 0.0
-1053.277807639636 -163.1537555746291 -605.6523000761399 91.10351322231938 0.0 0.0
-1017.338335308986 -154.47636667566556 -583.10603667112 91.4155991102625 0.0 0.0
-966.8025107008324 -133.56421131924316 -547.2805123303236 93.76112830116024 0.0 0.0
-912.0855489861758 -110.5718948246644 -508.34751375287976 96.65663485803128 0.0 0.0
-856.4858679836597 -88.90038533158015 -469.48445273011816 99.55400619279638 0.0 0.0
-802.0567697536362 -71.85166558271614 -432.81024536508505 101.97993837165416 0.0 0.0
-747.4829194709304 -59.64436996055023 -396.14387718516343 103.3704318708279 0.0 0.0
-687.3271279333484 -51.693522297772276 -352.08469565341426 103.78140566497886 0.0 0.0
-619.8124986957251 -40.89946041094796 -288.23671012905317 105.79796496037277 0.0 0.0
-520.7501180433453 -24.97153887624051 -202.72888913480816 107.72208378372625 0.0 0.0
-404.97757497372186 3.6551093196448248 -125.66165940330482 120.19328244135129 0.0 0.0
-289.35786566697277 13.319675857397554 -82.7362041858211 131.12119870874352 0.0 0.0
-205.95207175963202 10.570200179111994 -58.60373067403424 139.31315482220367 0.0 0.0
-130.46418209688733 -5.47557880332241 -40.782573556349746 138.36435247983275 0.0 0.0
-67.62225167499179 -61.22886099968971 -38.65533380240444 104.47380084319414 0.0 0.0
-44.18747593630362 -106.89855982813303 -45.325810729330996 61.53839231599691 0.0 0.0
-38.50827561259185 -65.02788578291688 -31.060848418652615 -48.21456190901334 0.0 0.0
-74.22027609863225 -49.32640600207653 -37.064004630212644 -85.96337561506718 0.0 0.0
-146.67934001360197 -4.410812263666221 -45.327495302862474 -118.48219744778498 0.0 0.0
-236.86843373814716 7.959659940908371 -68.6692954720179 -119.399542033261 0.0 0.0
-343.1258736950047 8.900797757679115 -100.04046123056764 -109.0862740651119 0.0 0.0
-464.1541827925626 -10.99314036193251 -158.02044545240912 -90.34526467531765 0.0 0.0
-582.4414632203576 -33.17663096872104 -244.7790781704631 -84.45163118034141 0.0 0.0
-665.2417897453776 -49.36610233907053 -327.498187780615 -83.7098193100184 0.0 0.0
-733.6085168939283 -59.76393593462709 -385.40441422453046 -84.10347584894969 0.0 0.0
-793.6812052191019 -71.93142458062016 -428.2498225373766 -84.34500000155036 0.0 0.0
-851.6050819527876 -88.06197186051043 -467.1214642416775 -83.59408812794614 0.0 0.0
-909.98893941136 -108.9736565708193 -507.261557357163 -81.74948541352097 0.0 0.0
-969.5081438598178 -134.035178034487 -549.647761423546 -79.41713655681555 0.0 0.0
-1028.0307635358777 -161.35199981056584 -592.5653726362108 -77.01901574657965 0.0 0.0
-1083.2214256688953 -186.00571571398984 -632.4981638332565 -74.76474500666589 0.0 0.0
-1125.1763046344986 -199.20652056243182 -660.2429197124468 -73.47405703088816 0.0 0.0
-1130.838736676711 -179.89827928041342 -653.8493508281716 -74.9237832975983 0.0 0.0
-1074.7995273035108 -105.08855441926886 -589.0425235182739 -79.4682821505073 0.0 0.0
-951.7251766771701 26.053064823726004 -462.75008366994894 -85.15331819417268 0.0 0.0
-763.658505066335 203.7825309604665 -280.93512510597253 -94.07488078728275 0.0 0.0
-3095.000100229392 -2188.791680686484 -2625.513192277973 1.929478798956552e-11 0.0 0.0
-763.6585050666163 203.78253096007325 -280.9351251060814 94.07488078746111 0.0 0.0
-951.7251766767369 26.05306482406425 -462.7500836696631 85.15331819435073 0.0 0.0
-1074.7995273033923 -105.08855441919926 -589.0425235181942 79.46828215058972 0.0 0.0
-1130.838736676768 -179.898279280607 -653.8493508281917 74.92378329764175 0.0 0.0
-1125.1763046343963 -199.20652056242074 -660.2429197122965 73.47405703092537 0.0 0.0
-1083.22142566864 -186.0057157138651 -632.4981638331245 74.76474500656408 0.0 0.0
-1028.0307635355437 -161.35199981040603 -592.5653726359038 77.01901574665168 0.0 0.0
-969.5081438587005 -134.03517803359117 -549.6477614228065 79.41713655684791 0.0 0.0
-909.9889394110209 -108.97365657071121 -507.26155735695534 81.74948541358721 0.0 0.0
-851.6050819533858 -88.0619718613863 -467.1214642421075 83.59408812794268 0.0 0.0
-793.6812052188242 -71.93142458060093 -428.2498225371609 84.34500000152754 0.0 0.0
-733.6085168934159 -59.76393593432644 -385.4044142241231 84.10347584878653 0.0 0.0
-665.2417897452048 -49.36610233931277 -327.4981877803783 83.70981931008939 0.0 0.0
-582.4414632201805 -33.17663096897715 -244.77907817019326 84.4516311803823 0.0 0.0
-464.15418279234785 -10.993140362291012 -158.02044545229586 90.34526467527087 0.0 0.0
-343.12587369445964 8.900797757896328 -100.04046123036005 109.08627406509459 0.0 0.0
-236.86843373780715 7.959659941393196 -68.66929547177023 119.39954203316762 0.0 0.0
-146.67934001354877 -4.410812263821902 -45.327495302893176 118.48219744769753 0.0 0.0
-74.22027609846069 -49.326406001956364 -37.064004630125105 85.96337561498541 0.0 0.0
-38.50827561241871 -65.02788578276034 -31.060848418553714 48.214561909001574 0.0 0.0
-35.20603573721258 -35.21357041091132 -21.125881844437167 -35.02299649226786 0.0 0.0
-78.76695525023439 -37.11205825483998 -34.7637040515223 -65.89430221586096 0.0 0.0
-161.62999495129782 -2.9715614665738186 -49.380466925361475 -94.62145833668077 0.0 0.0
-267.2365612931515 4.621211914499584 -78.75443166936505 -95.16177556647669 0.0 0.0
-394.4665958352673 0.9447403346991594 -119.3192635075541 -81.65090275729835 0.0 0.0
-522.773880378141 -21.264938937076945 -190.93058652237048 -65.30699325064994 0.0 0.0
-625.8723128751519 -41.00793941980676 -282.20487542660624 -62.7311959934452 0.0 0.0
-703.2564117699014 -54.52394580864518 -357.78000244478676 -62.98497670342232 0.0 0.0
-771.722060760728 -68.63762721631392 -412.91115054598333 -64.0101138920425 0.0 0.0
-834.4510832410558 -84.37536879770587 -456.44299446143737 -64.73269251060125 0.0 0.0
-895.7917717927041 -104.39964170383752 -498.23389551148415 -64.42041610882116 0.0 0.0
-958.3609370367994 -129.2140460428047 -542.1966135276136 -63.11118163489567 0.0 0.0
-1021.6028868764824 -158.3857880219603 -588.4492575497486 -61.321425659489734 0.0 0.0
-1083.2459042526102 -187.1451838844395 -633.6177071347404 -59.62494531609519 0.0 0.0
-1140.1764396035662 -213.77725720143403 -675.3600357909947 -57.75013664781252 0.0 0.0
-1186.7746783201198 -231.74052005630904 -707.715262617029 -55.64925315801531 0.0 0.0
-1200.5970496169296 -219.10010330911084 -708.7094686659403 -54.92411869221865 0.0 0.0
-1138.3974285792556 -136.6122568622089 -637.0797290997567 -58.37441635091122 0.0 0.0
-986.5440825774232 24.31988084574553 -481.362904649749 -66.57052901346222 0.0 0.0
-762.70446974325 238.22655251378097 -262.87774661207465 -80.60481268738917 0.0 0.0
-3325.0855019396245 -2376.803452261206 -2837.529353085329 -2.284039624100842e-11 0.0 0.0
-762.7044697431518 238.22655251381818 -262.87774661189565 80.60481268751994 0.0 0.0
-986.5440825776658 24.319880845432323 -481.36290464997364 66.57052901353623 0.0 0.0
-1138.3974285805125 -136.6122568635629 -637.0797291005726 58.374416351043216 0.0 0.0
-1200.5970496160098 -219.1001033082807 -708.7094686653152 54.9241186921755 0.0 0.0
-1186.774678320063 -231.74052005641133 -707.7152626169027 55.64925315807906 0.0 0.0
-1140.1764396032004 -213.77725720123087 -675.3600357907239 57.75013664787249 0.0 0.0
-1083.2459042531411 -187.14518388513082 -633.6177071349913 59.62494531612437 0.0 0.0
-1021.6028868755968 -158.3857880212785 -588.4492575492255 61.32142565952104 0.0 0.0
-958.3609370369655 -129.21404604319193 -542.1966135277212 63.11118163489385 0.0 0.0
-895.7917717927519 -104.39964170418072 -498.23389551154474 64.42041610885515 0.0 0.0
-834.45108324125 -84.37536879817131 -456.4429944615291 64.73269251058065 0.0 0.0
-771.7220607601809 -68.63762721603712 -412.9111505455992 64.01011389195524 0.0 0.0
-703.2564117696352 -54.523945808633364 -357.78000244447253 62.98497670333175 0.0 0.0
-625.8723128749558 -41.007939420038696 -282.20487542630127 62.73119599339155 0.0 0.0
-522.7738803776901 -21.264938937033897 -190.9305865220319 65.30699325066286 0.0 0.0
-394.4665958347859 0.9447403347168359 -119.31926350739724 81.65090275723806 0.0 0.0
-267.23656129289674 4.621211914681291 -78.75443166923225 95.16177556639332 0.0 0.0
-161.62999495126473 -2.971561466809616 -49.38046692542228 94.62145833668619 0.0 0.0
-78.76695525020955 -37.11205825488611 -34.763704051528684 65.89430221579914 0.0 0.0
-35.206035737177814 -35.21357041081995 -21.12588184439933 35.02299649227005 0.0 0.0
-33.09712394875255 -17.129382683594542 -15.067951989704124 -22.702822714910994 0.0 0.0
-80.49597003560334 -25.663676048097663 -31.84789382511029 -44.55254783304099 0.0 0.0
-174.9076816864948 -1.6729154492563083 -52.974179140725326 -66.32241715249158 0.0 0.0
-298.1064525827821 0.5720709289349855 -89.17576886356738 -66.12391180275003 0.0 0.0
-441.64668683291694 -10.716675077231368 -141.5263522950444 -51.7197411324787 0.0 0.0
-570.0958846806574 -30.019074587935755 -223.6613471126047 -42.19777243160288 0.0 0.0
-656.9530830346308 -46.31110821581572 -312.33218835189604 -41.5729422138825 0.0 0.0
-735.4108602726317 -60.78334468108781 -383.3244613023128 -42.67394339373072 0.0 0.0
-804.9287610260106 -78.06754556261257 -436.66702405932523 -43.70210470393608 0.0 0.0
-870.5715522043729 -97.14245704800784 -481.81948364791214 -44.47259892995933 0.0 0.0
-935.9585568250145 -120.86401521520008 -527.0873009104058 -44.47461264934879 0.0 0.0
-1002.2991019491136 -149.61191464698527 -574.8085008242414 -43.66048037058757 0.0 0.0
-1069.5328385274288 -181.3188367140385 -624.2917684690325 -42.569658920582825 0.0 0.0
-1133.6478829032167 -213.2772370905436 -672.3011654844839 -41.43520000386328 0.0 0.0
-1190.9139267698395 -239.58984578153112 -714.0611516749733 -40.125261676939516 0.0 0.0
-1235.6187346565052 -255.30174733836387 -744.27007187393 -38.106382832440985 0.0 0.0
-1259.1921394773851 -252.43316452232193 -754.8161499096461 -35.673033305204136 0.0 0.0
-1224.2541803102122 -195.99175951380823 -709.7950341532827 -36.47315098879433 0.0 0.0
-1043.3211065269238 -3.8325483017624435 -524.0700487921279 -46.39793320649932 0.0 0.0
-738.5099289593131 292.7011394659085 -223.38895076923646 -67.20261350526134 0.0 0.0
-3505.3823827680458 -2520.0821281613516 -3001.8068817776393 -2.3218760247800674e-11 0.0 0.0
-738.509928959091 292.70113946607313 -223.38895076906198 67.20261350532822 0.0 0.0
-1043.3211065274834 -3.832548302355633 -524.0700487925576 46.39793320649166 0.0 0.0
-1224.2541803106105 -195.99175951434907 -709.7950341535823 36.473150988932325 0.0 0.0
-1259.1921394759815 -252.43316452099285 -754.8161499086958 35.67303330526151 0.0 0.0
-1235.618734655091 -255.30174733704817 -744.270071872961 38.106382832413445 0.0 0.0
-1190.913926768857 -239.58984578070186 -714.0611516742196 40.12526167692409 0.0 0.0
-1133.6478829035034 -213.27723709101292 -672.3011654846246 41.43520000387355 0.0 0.0
-1069.5328385265204 -181.31883671335277 -624.291768468479 42.569658920633415 0.0 0.0
-1002.2991019488118 -149.61191464690054 -574.8085008240176 43.66048037059559 0.0 0.0
-935.9585568243313 -120.86401521476199 -527.0873009100006 44.474612649343754 0.0 0.0
-870.5715522046365 -97.14245704855566 -481.81948364802446 44.47259893000792 0.0 0.0
-804.9287610249534 -78.06754556180363 -436.6670240586105 43.702104703859405 0.0 0.0
-735.4108602725271 -60.78334468129714 -383.32446130212224 42.673943393709905 0.0 0.0
-656.9530830337383 -46.31110821523893 -312.33218835117344 41.57294221386413 0.0 0.0
-570.095884680066 -30.019074587703876 -223.66134711211436 42.19777243164537 0.0 0.0
-441.64668683254433 -10.716675077460678 -141.52635229495075 51.71974113249594 0.0 0.0
-298.10645258248127 0.5720709290433503 -89.1757688634439 66.12391180268413 0.0 0.0
-174.90768168642938 -1.6729154495286918 -52.97417914078742 66.32241715248125 0.0 0.0
-80.4959700355461 -25.66367604809398 -31.84789382509202 44.55254783296593 0.0 0.0
-33.09712394871016 -17.12938268355113 -15.067951989678388 22.702822714987082 0.0 0.0
-29.95434844746765 -9.804164200602957 -11.927553794421177 -12.886391615140043 0.0 0.0
-77.9470290170019 -16.54129493655719 -28.346497186067722 -22.312721231016432 0.0 0.0
-185.86586378841375 -1.3826647571384068 -56.17455856366564 -32.39116821655169 0.0 0.0
-330.81627137123394 -3.2243824650175625 -100.10509826192299 -31.75878028298494 0.0 0.0
-490.4606970864818 -19.77300317053631 -165.2803601824475 -23.106735034844572 0.0 0.0
-604.1787122315438 -36.78438720534649 -253.79738940637722 -21.165069194142838 0.0 0.0
-685.1665010853728 -48.86339132827829 -336.5537479626003 -22.1106301378972 0.0 0.0
-762.7143038606832 -67.68716822504292 -404.843345936362 -22.743360122029024 0.0 0.0
-834.1018943506901 -87.57659599777108 -457.4810544066624 -23.170705798572346 0.0 0.0
-903.039787600217 -110.44805370307765 -505.29154503098954 -23.602495170234455 0.0 0.0
-972.2191669110407 -137.69706670793443 -554.0080420920524 -23.71080852639682 0.0 0.0
-1042.5960143950267 -169.23546016568682 -605.0993879059072 -23.48915143933652 0.0 0.0
-1112.967563732917 -204.69120343386587 -658.0158555789019 -23.003782883203183 0.0 0.0
-1180.2377896575977 -238.48612966934573 -708.5173566234804 -22.47343353189614 0.0 0.0
-1236.9960879688729 -263.9287319617629 -749.6061457307281 -21.79556315503248 0.0 0.0
-1276.7168415508008 -274.7071933658442 -774.8745317195553 -20.4860969455839 0.0 0.0
-1296.4495963851496 -268.5411394914206 -781.6993180706693 -18.122393574971873 0.0 0.0
-1298.2972760709617 -248.77930082227152 -772.9235493917568 -16.181407522629463 0.0 0.0
-1207.6956619409075 -144.13943109213878 -676.1365436836631 -22.624981092530412 0.0 0.0
-723.2660819485183 336.92138711166274 -193.7991587252207 -49.33054074755811 0.0 0.0
-3488.676391229773 -2467.8611041630365 -2970.0296817054164 8.919087690628658e-12 0.0 0.0
-723.2660819485726 336.92138711159845 -193.7991587252512 49.330540747535146 0.0 0.0
-1207.6956619403438 -144.13943109165587 -676.1365436832783 22.624981092557796 0.0 0.0
-1298.2972760709988 -248.77930082237407 -772.92354939178 16.18140752267484 0.0 0.0
-1296.4495963852917 -268.5411394916712 -781.6993180709242 18.122393574981647 0.0 0.0
-1276.7168415503018 -274.7071933654552 -774.8745317192123 20.486096945624936 0.0 0.0
-1236.9960879683676 -263.9287319613975 -749.6061457303679 21.795563154980808 0.0 0.0
-1180.2377896570963 -238.4861296690239 -708.5173566231616 22.473433531866064 0.0 0.0
-1112.967563732155 -204.69120343328632 -658.0158555783378 23.0037828832071 0.0 0.0
-1042.5960143946634 -169.23546016554818 -605.0993879056435 23.489151439294123 0.0 0.0
-972.2191669103963 -137.6970667075337 -554.0080420916478 23.710808526407767 0.0 0.0
-903.0397876004921 -110.44805370365304 -505.29154503109197 23.60249517029405 0.0 0.0
-834.1018943498868 -87.57659599722193 -457.4810544061197 23.17070579862299 0.0 0.0
-762.7143038604078 -67.68716822509035 -404.8433459361129 22.74336012201902 0.0 0.0
-685.1665010844928 -48.86339132766585 -336.5537479619028 22.110630137964456 0.0 0.0
-604.1787122311197 -36.78438720526482 -253.7973894059702 21.165069194121713 0.0 0.0
-490.46069708602477 -19.77300317052892 -165.28036018220945 23.106735034945086 0.0 0.0
-330.8162713708942 -3.2243824650656108 -100.10509826184966 31.75878028299827 0.0 0.0
-185.8658637883782 -1.3826647574342998 -56.17455856374372 32.39116821645401 0.0 0.0
-77.94702901688002 -16.541294936500886 -28.346497186014272 22.31272123108002 0.0 0.0
-29.954348447292386 -9.804164200540628 -11.927553794349905 12.886391615193835 0.0 0.0
-18.900692069296333 -4.8520638384897055 -7.12582677233581 -8.027878779297446 0.0 0.0
-67.2431350946583 -9.323516885607884 -22.969995594079847 -9.26399456227793 0.0 0.0
-193.42565342379456 -2.7970185989172975 -58.86680160681357 -10.973534221892812 0.0 0.0
-371.10644084267705 -16.30876753733066 -116.61507266268664 -9.126571549556765 0.0 0.0
-553.4166256091157 -55.9044819364974 -204.60715750566567 -1.601428441565666 0.0 0.0
-681.8411817795584 -96.64296436870282 -317.2771180432923 0.7954071336782356 0.0 0.0
-787.4634675444405 -136.49473735262512 -424.6855078708338 0.7827601016060619 0.0 0.0
-898.8694111731766 -190.7938759871724 -525.7076060032697 -0.3914844358657028 0.0 0.0
-1014.8899886705344 -256.25026443584534 -622.7840911630747 -1.7907826993551623 0.0 0.0
-1144.215532476905 -339.31062855786143 -730.6410891806677 -3.266721727296529 0.0 0.0
-1292.0227736807483 -444.562997961384 -857.406428805712 -4.696607050611389 0.0 0.0
-1458.8190103799534 -572.9223190913476 -1004.7270874042842 -5.9122506690376255 0.0 0.0
-1640.1562308120383 -718.175134918707 -1167.568168042182 -6.73232552739057 0.0 0.0
-1828.08208611966 -872.2292738414097 -1338.1327369979783 -7.4622148523041645 0.0 0.0
-2008.4204400828246 -1020.8927301997654 -1502.2947638584874 -7.926880632350489 0.0 0.0
-2161.177821297106 -1144.578605977249 -1640.3347878940822 -7.885172899439127 0.0 0.0
-2261.3417426202654 -1219.2490789866624 -1727.8196593297419 -6.887568908985877 0.0 0.0
-2287.5803368149927 -1224.63121892411 -1743.6736503125371 -4.8353985921832745 0.0 0.0
-2297.606323178241 -1219.5562349754796 -1745.1318131777737 -8.886764814332038 0.0 0.0
-2299.1534129105603 -1219.0997222506996 -1742.5901788819656 -38.13966430309557 0.0 0.0
-5560.739376672681 -4511.992837849961 -5010.679439971102 2.6943780540023e-11 0.0 0.0
-2299.15341291147 -1219.0997222516758 -1742.5901788825138 38.139664303223974 0.0 0.0
-2297.6063231761345 -1219.556234973392 -1745.1318131761673 8.886764814279967 0.0 0.0
-2287.5803368150205 -1224.6312189242458 -1743.6736503122129 4.835398592092872 0.0 0.0
-2261.341742620564 -1219.249078987077 -1727.819659329978 6.8875689090022405 0.0 0.0
-2161.1778212966938 -1144.5786059769825 -1640.3347878934803 7.88517289954607 0.0 0.0
-2008.4204400827152 -1020.8927301998182 -1502.2947638581588 7.9268806324100325 0.0 0.0
-1828.0820861180732 -872.2292738399692 -1338.1327369967248 7.4622148521692715 0.0 0.0
-1640.156230811993 -718.1751349188958 -1167.5681680419154 6.732325527372218 0.0 0.0
-1458.8190103792085 -572.922319090829 -1004.727087403563 5.9122506689973875 0.0 0.0
-1292.022773679843 -444.56299796071346 -857.4064288049535 4.696607050563827 0.0 0.0
-1144.2155324767482 -339.31062855801156 -730.64108918039 3.2667217272056632 0.0 0.0
-1014.8899886699212 -256.2502644355036 -622.7840911625498 1.7907826994408644 0.0 0.0
-898.8694111723108 -190.7938759865997 -525.707606002603 0.3914844357371763 0.0 0.0
-787.4634675436712 -136.49473735214724 -424.68550787015613 -0.7827601015515135 0.0 0.0
-681.8411817793043 -96.64296436880255 -317.2771180429172 -0.7954071337620547 0.0 0.0
-553.4166256085459 -55.90448193622495 -204.6071575052601 1.6014284416456093 0.0 0.0
-371.1064408424116 -16.30876753751518 -116.61507266265744 9.126571549582476 0.0 0.0
-193.42565342367143 -2.7970185991751997 -58.86680160685398 10.973534221713075 0.0 0.0
-67.24313509454846 -9.323516885613211 -22.9699955940485 9.263994562474382 0.0 0.0
-18.900692069263243 -4.852063838494044 -7.125826772327185 8.027878779290242 0.0 0.0
SCALARS Strain float 6
LOOKUP_TABLE default
0.01296882576903113 -0.021975918269382527 0.0 -0.0010380333278282 0.0 0.0
0.007960902476359562 -0.0020671172381233577 0.0 -0.006742368810860214 0.0 0.0
0.002420165761429092 -0.0006105575211025308 0.0 -0.0007227041405626156 0.0 0.0
0.0021173973809086484 -0.0008479221806412293 0.0 -2.0048544999968063e-05 0.0 0.0
0.0029504710048011105 -0.0012352239928842667 0.0 0.00011962242954563204 0.0 0.0
0.004744992691724559 -0.0025480863219351562 0.0 0.00023917991813846145 0.0 0.0
0.007812682412641435 -0.005108259555072079 0.0 0.00031962782449255676 0.0 0.0
0.012360031395024201 -0.009130567996303381 0.0 0.0003505982281316912 0.0 0.0
0.01856419470886085 -0.01477807629663445 0.0 0.00033777075174917657 0.0 0.0
0.026501487595851046 -0.022071746918099364 0.0 0.0002642347228270757 0.0 0.0
0.036167841418873276 -0.030973808781066273 0.0 0.00016833867392411668 0.0 0.0
0.04752955835361468 -0.041446952726906544 0.0 4.7081802645278724e-05 0.0 0.0
0.060536476267948267 -0.05347158145502602 0.0 -0.00014665481505414957 0.0 0.0
0.07512922718556249 -0.06702425705578924 0.0 -0.00036515642636335624 0.0 0.0
0.09116640228778633 -0.0820148240477759 0.0 -0.0006534662175228128 0.0 0.0
0.10826738291028001 -0.09811812732382458 0.0 -0.0010155943674844386 0.0 0.0
0.1256972864054647 -0.11465224070698724 0.0 -0.0013875503360761602 0.0 0.0
0.14234472216921915 -0.13056017829492533 0.0 -0.0016247171213514863 0.0 0.0
0.1568315925195719 -0.14448623563565102 0.0 -0.0015512423444735799 0.0 0.0
0.16753287637999698 -0.15487273750168523 0.0 -0.0016223328211616827 0.0 0.0
0.1717141057332924 -0.15910115827005236 0.0 2.321060010856968e-15 0.0 0.0
0.16753287637997563 -0.1548727375016699 0.0 0.001622332821169972 0.0 0.0
0.15683159251952777 -0.1444862356356158 0.0 0.001551242344482835 0.0 0.0
0.1423447221691555 -0.13056017829487043 0.0 0.0016247171213540582 0.0 0.0
0.1256972864053911 -0.11465224070692473 0.0 0.0013875503360749782 0.0 0.0
0.10826738291020246 -0.09811812732375305 0.0 0.0010155943674807783 0.0 0.0
0.09116640228770884 -0.0820148240477086 0.0 0.0006534662175225426 0.0 0.0
0.07512922718548565 -0.06702425705572215 0.0 0.0003651564263612876 0.0 0.0
0.0605364762678718 -0.053471581454959435 0.0 0.00014665481505115197 0.0 0.0
0.04752955835354396 -0.041446952726838286 0.0 -4.7081802647708964e-05 0.0 0.0
0.0361678414188122 -0.030973808781010755 0.0 -0.00016833867392515578 0.0 0.0
0.026501487595801884 -0.022071746918055336 0.0 -0.0002642347228291983 0.0 0.0
0.0185641947088228 -0.014778076296600596 0.0 -0.00033777075174983245 0.0 0.0
0.012360031394996428 -0.009130567996280632 0.0 -0.00035059822812938716 0.0 0.0
0.007812682412623726 -0.0051082595550557995 0.0 -0.00031962782449385503 0.0 0.0
0.004744992691714597 -0.002548086321927843 0.0 -0.00023917991813965378 0.0 0.0
0.0029504710047969594 -0.0012352239928820788 0.0 -0.00011962242954618614 0.0 0.0
0.0021173973809074714 -0.0008479221806395314 0.0 2.0048544999823356e-05 0.0 0.0
0.002420165761427469 -0.0006105575211034896 0.0 0.0007227041405600431 0.0 0.0
0.00796090247635401 -0.0020671172381196462 0.0 0.006742368810851671 0.0 0.0
0.012968825769022804 -0.02197591826935855 0.0 0.0010380333277870831 0.0 0.0
0.008936186625564422 -0.019644490537022663 0.0 -0.0005686143628599301 0.0 0.0
0.005254919214979223 -0.0015357686385580657 0.0 -0.0054005628357256625 0.0 0.0
0.001628803089253514 -0.0004819509303047568 0.0 -0.00046828065348356604 0.0 0.0
0.001881288997904451 -0.0008000475407105479 0.0 -0.00020384974328128505 0.0 0.0
0.0025630149608501527 -0.0011218339459533125 0.0 -0.00015843235558420272 0.0 0.0
0.004087183192630483 -0.0022839609602762472 0.0 -0.00020623525192142535 0.0 0.0
0.0068151138649976154 -0.004663737995720136 0.0 -0.00043739532453158345 0.0 0.0
0.010938811636744936 -0.008466647620508735 0.0 -0.0007841054839065343 0.0 0.0
0.016596650024692034 -0.013839103909701687 0.0 -0.0012603741537770949 0.0 0.0
0.023817734978599625 -0.020779291556229474 0.0 -0.0018429950881394264 0.0 0.0
0.032562172049808026 -0.029230555890734262 0.0 -0.002470211587249919 0.0 0.0
0.04278670678218618 -0.03914640217289281 0.0 -0.0031045604699084617 0.0 0.0
0.05448161042260252 -0.05052108150071303 0.0 -0.0037809593817376974 0.0 0.0
0.06762736491574761 -0.06335718874548392 0.0 -0.004514908050460454 0.0 0.0
0.08210987069051136 -0.07757469443129739 0.0 -0.005292591408078496 0.0 0.0
0.09760132687779739 -0.09287469487338236 0.0 -0.006058514653665258 0.0 0.0
0.11344993233297102 -0.10862350096805852 0.0 -0.006623549009855406 0.0 0.0
0.12866398254383765 -0.1238264157542093 0.0 -0.006675308333054293 0.0 0.0
0.14192969139248182 -0.1371744979967324 0.0 -0.005966396946182017 0.0 0.0
0.1514483355978441 -0.14700704524988148 0.0 -0.004836237371390096 0.0 0.0
0.1550054051946377 -0.15105583054030997 0.0 5.249273238305818e-15 0.0 0.0
0.15144833559782403 -0.14700704524986594 0.0 0.004836237371405841 0.0 0.0
0.14192969139244216 -0.1371744979966973 0.0 0.005966396946199592 0.0 0.0
0.12866398254378197 -0.12382641575415568 0.0 0.006675308333062696 0.0 0.0
0.11344993233290637 -0.10862350096799803 0.0 0.006623549009856078 0.0 0.0
0.0976013268777282 -0.09287469487331641 0.0 0.006058514653658566 0.0 0.0
0.08210987069044115 -0.07757469443123141 0.0 0.005292591408076551 0.0 0.0
0.06762736491567806 -0.06335718874541826 0.0 0.004514908050457744 0.0 0.0
0.05448161042253407 -0.05052108150064849 0.0 0.003780959381734997 0.0 0.0
0.042786706782122444 -0.03914640217282889 0.0 0.0031045604699053144 0.0 0.0
0.03256217204975268 -0.029230555890681215 0.0 0.0024702115872435627 0.0 0.0
0.0238177349785547 -0.020779291556188455 0.0 0.0018429950881338217 0.0 0.0
0.01659665002465749 -0.013839103909666983 0.0 0.001260374153774497 0.0 0.0
0.010938811636720034 -0.008466647620486066 0.0 0.0007841054839061865 0.0 0.0
0.0068151138649815935 -0.004663737995707639 0.0 0.0004373953245293024 0.0 0.0
0.004087183192622119 -0.002283960960270851 0.0 0.00020623525191933712 0.0 0.0
0.00256301496084724 -0.0011218339459511235 0.0 0.00015843235558485409 0.0 0.0
0.001881288997903728 -0.0008000475407096663 0.0 0.0002038497432816987 0.0 0.0
0.0016288030892532429 -0.0004819509303059439 0.0 0.00046828065348188846 0.0 0.0
0.005254919214973005 -0.0015357686385545069 0.0 0.005400562835714725 0.0 0.0
0.008936186625552 -0.019644490536997808 0.0 0.0005686143628273897 0.0 0.0
0.006493006069320917 -0.015586897975468233 0.0 -0.00336038276644993 0.0 0.0
0.00370138730303403 -0.0008419106470198825 0.0 -0.005338022551451713 0.0 0.0
0.0011432269743508036 -0.0002759526945898814 0.0 -0.00044042246419467965 0.0 0.0
0.0016032910218097517 -0.0006855589706786493 0.0 -0.0004798931368986749 0.0 0.0
0.0022116669580299433 -0.0009284821844569187 0.0 -0.0004754530299851847 0.0 0.0
0.0034622040254715424 -0.0017896880395714336 0.0 -0.000548566628424498 0.0 0.0
0.00582637259371431 -0.0037886616915383167 0.0 -0.000984503292174952 0.0 0.0
0.009506020728322058 -0.007145212626064679 0.0 -0.0016658833218664833 0.0 0.0
0.014589908682756149 -0.011951370076414412 0.0 -0.002591435955403705 0.0 0.0
0.021074944362655296 -0.01817525698703121 0.0 -0.003701287186357453 0.0 0.0
0.028892338321268515 -0.025721193225196226 0.0 -0.004893124963453391 0.0 0.0
0.037988732213133154 -0.03452847735759847 0.0 -0.006079171326052242 0.0 0.0
0.04836613817433365 -0.044605878683404175 0.0 -0.007268856903785928 0.0 0.0
0.060046690175562856 -0.055997336405560566 0.0 -0.00854764758350553 0.0 0.0
0.07295798986729202 -0.0686589591124589 0.0 -0.009916826191826737 0.0 0.0
0.08682818312148 -0.08234575558015327 0.0 -0.011236736179863356 0.0 0.0
0.10111305360001727 -0.09652605505002947 0.0 -0.01218637233522783 0.0 0.0
0.11493440731883821 -0.11033293455174377 0.0 -0.012282648756958519 0.0 0.0
0.12701136592156492 -0.12252922992094634 0.0 -0.011137149216442785 0.0 0.0
0.1357078159909075 -0.13143013297955483 0.0 -0.008662370832703608 0.0 0.0
0.1389902242664478 -0.1353119995971812 0.0 1.2126150777946876e-14 0.0 0.0
0.13570781599088902 -0.13143013297954065 0.0 0.008662370832733635 0.0 0.0
0.12701136592152934 -0.12252922992091062 0.0 0.011137149216473931 0.0 0.0
0.11493440731878968 -0.11033293455169527 0.0 0.012282648756977786 0.0 0.0
0.10111305359996035 -0.09652605504997366 0.0 0.012186372335229331 0.0 0.0
0.08682818312141831 -0.08234575558009212 0.0 0.011236736179856963 0.0 0.0
0.07295798986722989 -0.06865895911239797 0.0 0.009916826191825783 0.0 0.0
0.06004669017550121 -0.05599733640550071 0.0 0.00854764758350169 0.0 0.0
0.048366138174273224 -0.04460587868334145 0.0 0.007268856903780315 0.0 0.0
0.037988732213076276 -0.03452847735754144 0.0 0.006079171326043582 0.0 0.0
0.028892338321219332 -0.025721193225148275 0.0 0.004893124963443424 0.0 0.0
0.021074944362615446 -0.018175256986995562 0.0 0.0037012871863487482 0.0 0.0
0.014589908682724959 -0.011951370076382258 0.0 0.0025914359553980905 0.0 0.0
0.009506020728299829 -0.007145212626042714 0.0 0.001665883321862658 0.0 0.0
0.005826372593700295 -0.0037886616915277383 0.0 0.0009845032921721576 0.0 0.0
0.0034622040254648017 -0.0017896880395676775 0.0 0.0005485666284244105 0.0 0.0
0.002211666958027757 -0.0009284821844545415 0.0 0.0004754530299864735 0.0 0.0
0.0016032910218091432 -0.0006855589706790803 0.0 0.0004798931368983939 0.0 0.0
0.0011432269743508125 -0.00027595269459064514 0.0 0.0004404224641939209 0.0 0.0
0.0037013873030277665 -0.000841910647016635 0.0 0.0053380225514377076 0.0 0.0
0.006493006069308244 -0.015586897975443697 0.0 0.0033603827664271156 0.0 0.0
0.004866119211422648 -0.012508921662977353 0.0 -0.003782852335978407 0.0 0.0
0.0027117181396586264 -0.0006105799028767375 0.0 -0.004868279226111336 0.0 0.0
0.0008176814459733787 -0.000156304353902948 0.0 -0.0007291808929522271 0.0 0.0
0.0013284601052596446 -0.0005502311391636332 0.0 -0.0007509071269539922 0.0 0.0
0.0018875036989146731 -0.0007810649086502578 0.0 -0.0007931392284927165 0.0 0.0
0.0028879736076999367 -0.001381884412388319 0.0 -0.0008641266334212919 0.0 0.0
0.004864884385364348 -0.002961066213079796 0.0 -0.0013513002927319389 0.0 0.0
0.008073225552283078 -0.005842020410791293 0.0 -0.002309092406994582 0.0 0.0
0.012562805945748896 -0.010056817522571718 0.0 -0.0035770067034458205 0.0 0.0
0.01829556967909934 -0.015544605258550687 0.0 -0.005091671813696153 0.0 0.0
0.02517934260860822 -0.022179709755253216 0.0 -0.0067093384232534544 0.0 0.0
0.033151048773736716 -0.02988469256957968 0.0 -0.008315276842133448 0.0 0.0
0.04221801218233805 -0.0386708595563608 0.0 -0.009914191882488193 0.0 0.0
0.05242002087693092 -0.0486060092312717 0.0 -0.011595333484953362 0.0 0.0
0.06373684443253833 -0.059690379055249126 0.0 -0.013383996063688324 0.0 0.0
0.07597498772867907 -0.07174721796948046 0.0 -0.015125428528796211 0.0 0.0
0.08868991363792111 -0.08435267098911597 0.0 -0.016415305956140692 0.0 0.0
0.10112003886329783 -0.09676863933371888 0.0 -0.016665425673300614 0.0 0.0
0.11211350851399937 -0.10785893569349528 0.0 -0.015261395036812175 0.0 0.0
0.12022694140805246 -0.11612040462012613 0.0 -0.011467047584964023 0.0 0.0
0.12337285655515537 -0.12011082631121878 0.0 1.593300144597798e-14 0.0 0.0
0.12022694140803587 -0.11612040462011083 0.0 0.011467047585003758 0.0 0.0
0.1121135085139682 -0.10785893569346512 0.0 0.0152613950368506 0.0 0.0
0.10112003886325521 -0.09676863933367323 0.0 0.016665425673326444 0.0 0.0
0.08868991363787102 -0.08435267098906885 0.0 0.016415305956143364 0.0 0.0
0.07597498772862524 -0.07174721796942357 0.0 0.015125428528790119 0.0 0.0
0.06373684443248359 -0.05969037905519574 0.0 0.013383996063685535 0.0 0.0
0.052420020876876285 -0.04860600923121533 0.0 0.01159533348494678 0.0 0.0
0.04221801218228508 -0.03867085955630285 0.0 0.009914191882479707 0.0 0.0
0.033151048773687256 -0.029884692569531135 0.0 0.008315276842120963 0.0 0.0
0.02517934260856501 -0.02217970975521451 0.0 0.006709338423240754 0.0 0.0
0.018295569679063897 -0.015544605258516964 0.0 0.005091671813683677 0.0 0.0
0.012562805945721489 -0.010056817522544717 0.0 0.0035770067034378425 0.0 0.0
0.008073225552263872 -0.005842020410772297 0.0 0.0023090924069870153 0.0 0.0
0.00486488438535284 -0.0029610662130697034 0.0 0.0013513002927279614 0.0 0.0
0.0028879736076947308 -0.0013818844123854568 0.0 0.0008641266334207896 0.0 0.0
0.0018875036989129323 -0.000781064908649042 0.0 0.0007931392284928098 0.0 0.0
0.0013284601052593861 -0.0005502311391636509 0.0 0.0007509071269521513 0.0 0.0
0.0008176814459734375 -0.0001563043539035324 0.0 0.000729180892950664 0.0 0.0
0.0027117181396529204 -0.0006105799028737326 0.0 0.0048682792260977955 0.0 0.0
0.004866119211411376 -0.012508921662955565 0.0 0.003782852335962427 0.0 0.0
0.003662825832979319 -0.010041944352355654 0.0 -0.0033847959099885657 0.0 0.0
0.002013557999405591 -0.0005038358048009425 0.0 -0.004355992943698457 0.0 0.0
0.0005941701121222007 -9.582745527843515e-05 0.0 -0.001111808680909643 0.0 0.0
0.001074513050927951 -0.00041814688787707746 0.0 -0.0010414524816481567 0.0 0.0
0.0015831325378779268 -0.0006533588374525543 0.0 -0.0011072297359207514 0.0 0.0
0.0023753280552456374 -0.0010680702749462823 0.0 -0.0011698800848067084 0.0 0.0
0.00395469694425243 -0.00222640559935182 0.0 -0.0016131498645810141 0.0 0.0
0.006655985652157567 -0.004573359167867954 0.0 -0.0026737960869841746 0.0 0.0
0.01053514487877838 -0.008178166374126938 0.0 -0.004209344003387217 0.0 0.0
0.015500476058475605 -0.012912389144890091 0.0 -0.006006471544503727 0.0 0.0
0.021446004206335675 -0.018630201974154437 0.0 -0.007919639899328614 0.0 0.0
0.028294107073802525 -0.02523559631201225 0.0 -0.009812911682876456 0.0 0.0
0.03605139750083004 -0.03273584524295732 0.0 -0.011693201244515092 0.0 0.0
0.044779582634762234 -0.04121437169330241 0.0 -0.013654920378240301 0.0 0.0
0.05449133130592058 -0.05071008077628146 0.0 -0.015716901995453635 0.0 0.0
0.06506631774732369 -0.06111439850386083 0.0 -0.01771392357676366 0.0 0.0
0.07618152486162533 -0.07211261217624611 0.0 -0.019264011072634802 0.0 0.0
0.08721765839838497 -0.08311297367592635 0.0 -0.019747062884919293 0.0 0.0
0.0972046907805581 -0.09316563076406853 0.0 -0.018249472657336636 0.0 0.0
0.10488793022273894 -0.1009750056314983 0.0 -0.013606481744363652 0.0 0.0
0.10798390169686477 -0.10521979840596886 0.0 1.929879867024198e-14 0.0 0.0
0.10488793022272366 -0.10097500563148035 0.0 0.013606481744409395 0.0 0.0
0.09720469078053022 -0.09316563076403987 0.0 0.018249472657380368 0.0 0.0
0.08721765839834796 -0.0831129736758855 0.0 0.019747062884947975 0.0 0.0
0.07618152486158226 -0.07211261217620898 0.0 0.01926401107263886 0.0 0.0
0.06506631774727745 -0.06111439850381617 0.0 0.017713923576756815 0.0 0.0
0.054491331305873074 -0.05071008077624095 0.0 0.015716901995447962 0.0 0.0
0.04477958263471561 -0.041214371693252184 0.0 0.013654920378234608 0.0 0.0
0.03605139750078506 -0.03273584524291208 0.0 0.011693201244504377 0.0 0.0
0.028294107073760406 -0.025235596311972044 0.0 0.009812911682862299 0.0 0.0
0.021446004206298802 -0.018630201974122962 0.0 0.00791963989931307 0.0 0.0
0.01550047605844489 -0.01291238914485822 0.0 0.006006471544488737 0.0 0.0
0.01053514487875488 -0.008178166374102307 0.0 0.004209344003377937 0.0 0.0
0.006655985652141573 -0.004573359167856354 0.0 0.00267379608697597 0.0 0.0
0.003954696944243455 -0.0022264055993452105 0.0 0.0016131498645789966 0.0 0.0
0.002375328055241886 -0.0010680702749433406 0.0 0.001169880084804403 0.0 0.0
0.001583132537876605 -0.0006533588374528443 0.0 0.0011072297359201305 0.0 0.0
0.0010745130509276619 -0.0004181468878770407 0.0 0.0010414524816468947 0.0 0.0
0.0005941701121223725 -9.582745527911773e-05 0.0 0.001111808680907414 0.0 0.0
0.0020135579994009284 -0.0005038358047988838 0.0 0.004355992943686915 0.0 0.0
0.0036628258329699476 -0.010041944352336732 0.0 0.0033847959099773577 0.0 0.0
0.0027297814493176427 -0.007993391234956652 0.0 -0.0028234177769993203 0.0 0.0
0.001490294718324424 -0.00043843250086312083 0.0 -0.003861828561284881 0.0 0.0
0.0004317486810563162 -7.164935618737413e-05 0.0 -0.0014744333369942667 0.0 0.0
0.000841283717618358 -0.00029853087969961597 0.0 -0.0013365408444694653 0.0 0.0
0.0012942564559263515 -0.0005336976862482838 0.0 -0.0014081610666750732 0.0 0.0
0.0019163267264753411 -0.0008263383206569604 0.0 -0.0014644645509483453 0.0 0.0
0.003125239453863544 -0.0016191880287968958 0.0 -0.0018437355643814999 0.0 0.0
0.005287977152011703 -0.003392750238768891 0.0 -0.002823927350936355 0.0 0.0
0.008518840276247953 -0.006337366870365759 0.0 -0.004456618395207117 0.0 0.0
0.012711096561580423 -0.010304296225150679 0.0 -0.006434780328760897 0.0 0.0
0.017712390265765477 -0.015097222053729167 0.0 -0.008512510464136418 0.0 0.0
0.023439760248490465 -0.02060544285102222 0.0 -0.010567893184438867 0.0 0.0
0.029894053938707595 -0.02682577727906622 0.0 -0.012596277938602303 0.0 0.0
0.03714498722717179 -0.033850692142235496 0.0 -0.01469497260859751 0.0 0.0
0.045249012801209736 -0.04175356044196143 0.0 -0.016894508471874556 0.0 0.0
0.05414677113524218 -0.050488049585253526 0.0 -0.019020866200813766 0.0 0.0
0.06361083655826331 -0.05983267605056644 0.0 -0.02071642653238966 0.0 0.0
0.07321307050202241 -0.06936665656173484 0.0 -0.021414891208960788 0.0 0.0
0.08222400305917613 -0.07840138716659942 0.0 -0.02007677353582364 0.0 0.0
0.08957414274808495 -0.08586886410056034 0.0 -0.015160802960996467 0.0 0.0
0.09268087704428973 -0.09048838020346077 0.0 1.9617554108952717e-14 0.0 0.0
0.08957414274807102 -0.0858688641005436 0.0 0.015160802961040592 0.0 0.0
0.08222400305915195 -0.07840138716656944 0.0 0.0200767735358694 0.0 0.0
0.07321307050199088 -0.0693666565617018 0.0 0.021414891208989553 0.0 0.0
0.0636108365582267 -0.059832676050534744 0.0 0.02071642653239535 0.0 0.0
0.054146771135203144 -0.05048804958521496 0.0 0.019020866200806365 0.0 0.0
0.045249012801170205 -0.04175356044193021 0.0 0.016894508471865393 0.0 0.0
0.037144987227133 -0.03385069214219671 0.0 0.014694972608592323 0.0 0.0
0.029894053938670388 -0.026825777279027328 0.0 0.012596277938591166 0.0 0.0
0.023439760248455743 -0.0206054428509905 0.0 0.01056789318442378 0.0 0.0
0.017712390265734543 -0.015097222053699781 0.0 0.008512510464119204 0.0 0.0
0.012711096561554806 -0.010304296225127326 0.0 0.006434780328744678 0.0 0.0
0.00851884027622837 -0.006337366870345627 0.0 0.004456618395196411 0.0 0.0
0.005287977151998837 -0.0033927502387604805 0.0 0.0028239273509284533 0.0 0.0
0.003125239453856646 -0.0016191880287915372 0.0 0.001843735564378887 0.0 0.0
0.0019163267264725946 -0.000826338320654568 0.0 0.0014644645509466346 0.0 0.0
0.0012942564559255037 -0.0005336976862478355 0.0 0.0014081610666731267 0.0 0.0
0.0008412837176179059 -0.0002985308796996417 0.0 0.0013365408444689245 0.0 0.0
0.0004317486810563722 -7.164935618728011e-05 0.0 0.0014744333369923165 0.0 0.0
0.0014902947183207777 -0.00043843250086177094 0.0 0.0038618285612760615 0.0 0.0
0.0027297814493101305 -0.00799339123494065 0.0 0.0028234177769911237 0.0 0.0
0.0019974161743152295 -0.00627151143655825 0.0 -0.0023048832931467714 0.0 0.0
0.0010864649561584745 -0.0003920688687423033 0.0 -0.0034156286687118493 0.0 0.0
0.0003035701717613258 -6.239974398748873e-05 0.0 -0.001774363851321349 0.0 0.0
0.0006242685005106523 -0.00019295972348399763 0.0 -0.0016129230078479014 0.0 0.0
0.001014391778955745 -0.00041123096263776866 0.0 -0.0016792314237551622 0.0 0.0
0.001497559070768624 -0.0006366032748115259 0.0 -0.0017582381548436493 0.0 0.0
0.0023780666639917542 -0.0011359830775932898 0.0 -0.0020349129047073674 0.0 0.0
0.004011265288721204 -0.002363176453498532 0.0 -0.0028703620960854465 0.0 0.0
0.006554579858597943 -0.004588160817376803 0.0 -0.004359816203892054 0.0 0.0
0.009944128741396965 -0.00774976567939633 0.0 -0.006342663155784468 0.0 0.0
0.014000643613891327 -0.01160870492544561 0.0 -0.008467742110079857 0.0 0.0
0.01860822644404954 -0.016019801017020625 0.0 -0.010563115297199596 0.0 0.0
0.02376668814852451 -0.02096936203358352 0.0 -0.012611368505906538 0.0 0.0
0.029550446720273058 -0.026549057069050454 0.0 -0.014707989570208576 0.0 0.0
0.036039991599120635 -0.032855997309342064 0.0 -0.016885904323388056 0.0 0.0
0.043237959603745726 -0.03990503288220704 0.0 -0.01901652856543809 0.0 0.0
0.05101464460656372 -0.04755496916072949 0.0 -0.020751090884978243 0.0 0.0
0.059113811046210274 -0.05554696500703036 0.0 -0.02161459146374099 0.0 0.0
0.06709951499533827 -0.0635055630589507 0.0 -0.02066096554892813 0.0 0.0
0.07415551208210007 -0.07066713236626286 0.0 -0.01610451587174304 0.0 0.0
0.07731768586005978 -0.07577590889356138 0.0 1.9245889604224686e-14 0.0 0.0
0.0741555120820883 -0.07066713236625127 0.0 0.0161045158717881 0.0 0.0
0.06709951499531858 -0.06350556305893132 0.0 0.020660965548975667 0.0 0.0
0.05911381104618445 -0.05554696500700508 0.0 0.021614591463768176 0.0 0.0
0.05101464460653367 -0.047554969160704494 0.0 0.020751090884981675 0.0 0.0
0.04323795960371371 -0.03990503288217228 0.0 0.01901652856542906 0.0 0.0
0.03603999159908884 -0.03285599730931468 0.0 0.01688590432337873 0.0 0.0
0.029550446720242485 -0.026549057069018715 0.0 0.01470798957020119 0.0 0.0
0.023766688148495214 -0.020969362033556368 0.0 0.012611368505894296 0.0 0.0
0.01860822644402192 -0.0160198010169924 0.0 0.010563115297184686 0.0 0.0
0.014000643613866333 -0.011608704925422658 0.0 0.008467742110061781 0.0 0.0
0.009944128741376453 -0.0077497656793783665 0.0 0.006342663155768853 0.0 0.0
0.006554579858582949 -0.0045881608173647765 0.0 0.004359816203882504 0.0 0.0
0.004011265288711665 -0.002363176453489092 0.0 0.0028703620960801235 0.0 0.0
0.002378066663986994 -0.001135983077590645 0.0 0.0020349129047043816 0.0 0.0
0.0014975590707670076 -0.0006366032748106945 0.0 0.0017582381548429454 0.0 0.0
0.0010143917789553055 -0.0004112309626364457 0.0 0.0016792314237529628 0.0 0.0
0.0006242685005104565 -0.000192959723483337 0.0 0.0016129230078463122 0.0 0.0
0.0003035701717612652 -6.239974398726471e-05 0.0 0.0017743638513195788 0.0 0.0
0.0010864649561555452 -0.0003920688687411209 0.0 0.003415628668705082 0.0 0.0
0.0019974161743095313 -0.006271511436545453 0.0 0.0023048832931413573 0.0 0.0
0.0014221914649619092 -0.004833498380826561 0.0 -0.0019082445208098565 0.0 0.0
0.0007688803406156871 -0.00036142110143186525 0.0 -0.0030131883411242738 0.0 0.0
0.00019184410389454693 -5.20783050070053e-05 0.0 -0.0020040949127988236 0.0 0.0
0.0004184775170038569 -9.971241626991533e-05 0.0 -0.0018526696800266287 0.0 0.0
0.0007357524527589514 -0.0002825341571965295 0.0 -0.0019088014794300047 0.0 0.0
0.0011096522869998948 -0.00047271178896724875 0.0 -0.002035304067183862 0.0 0.0
0.001710585568785634 -0.0007669048235949363 0.0 -0.0022217552024375053 0.0 0.0
0.0028421223409124245 -0.0015130061880653958 0.0 -0.0028299155723239228 0.0 0.0
0.004692572977564188 -0.0030113735605225792 0.0 -0.0040314918264297344 0.0 0.0
0.007239065981468083 -0.005310323374012153 0.0 -0.005761141062329052 0.0 0.0
0.01032747867478527 -0.008202769113864323 0.0 -0.007757679272218706 0.0 0.0
0.013819961877167965 -0.011513172051003575 0.0 -0.009758283275665058 0.0 0.0
0.017694331046763802 -0.015200955546093024 0.0 -0.01170805305244528 0.0 0.0
0.022019251570264815 -0.01934836986723117 0.0 -0.01366824953672479 0.0 0.0
0.026895755498561096 -0.02406217124228436 0.0 -0.01568716908566289 0.0 0.0
0.032379113266544815 -0.0294069257849984 0.0 -0.017671486969033378 0.0 0.0
0.038421128300283 -0.03532949918301018 0.0 -0.019337676671536925 0.0 0.0
0.044926473906080795 -0.0416929533183768 0.0 -0.020265054719127953 0.0 0.0
0.05177176383726504 -0.04843011930407712 0.0 -0.01984116731172645 0.0 0.0
0.0584928293398376 -0.05522186413456491 0.0 -0.016329864928411823 0.0 0.0
0.06172704046750428 -0.060932082872511215 0.0 1.6602171026836032e-14 0.0 0.0
0.05849282933982848 -0.05522186413455424 0.0 0.01632986492845468 0.0 0.0
0.051771763837249386 -0.04843011930406278 0.0 0.01984116731177128 0.0 0.0
0.04492647390606037 -0.041692953318358365 0.0 0.020265054719153113 0.0 0.0
0.03842112830025915 -0.03532949918298914 0.0 0.019337676671538833 0.0 0.0
0.0323791132665202 -0.029406925784975238 0.0 0.017671486969024514 0.0 0.0
0.026895755498537583 -0.024062171242265652 0.0 0.015687169085652722 0.0 0.0
0.022019251570242444 -0.01934836986720989 0.0 0.013668249536717646 0.0 0.0
0.01769433104674263 -0.01520095554607358 0.0 0.011708053052435205 0.0 0.0
0.01381996187714736 -0.01151317205098007 0.0 0.009758283275652056 0.0 0.0
0.010327478674766568 -0.00820276911384643 0.0 0.007757679272201133 0.0 0.0
0.007239065981453476 -0.005310323373997456 0.0 0.005761141062316317 0.0 0.0
0.0046925729775536065 -0.003011373560518239 0.0 0.004031491826421658 0.0 0.0
0.002842122340906116 -0.0015130061880577268 0.0 0.0028299155723189463 0.0 0.0
0.0017105855687828122 -0.0007669048235951642 0.0 0.0022217552024351504 0.0 0.0
0.0011096522869986855 -0.00047271178896656223 0.0 0.0020353040671822692 0.0 0.0
0.0007357524527584952 -0.00028253415719582263 0.0 0.001908801479428691 0.0 0.0
0.0004184775170037117 -9.971241626946853e-05 0.0 0.001852669680024491 0.0 0.0
0.0001918441038942788 -5.2078305007151614e-05 0.0 0.0020040949127971544 0.0 0.0
0.0007688803406134126 -0.00036142110143131973 0.0 0.003013188341118248 0.0 0.0
0.0014221914649578213 -0.004833498380816743 0.0 0.0019082445208067865 0.0 0.0
0.0009924616780197706 -0.003677830976302223 0.0 -0.0016684006204349625 0.0 0.0
0.000520649204311311 -0.0003475030378484109 0.0 -0.0026643892620630536 0.0 0.0
8.164939942250595e-05 -3.017986005722819e-05 0.0 -0.0021682066215047064 0.0 0.0
0.00022145128439248374 -1.5841989712631233e-05 0.0 -0.002044118573992711 0.0 0.0
0.0004554684058831888 -0.00015179357410487925 0.0 -0.002090768844549246 0.0 0.0
0.0007306283816765056 -0.000306414031515585 0.0 -0.0022554992264374194 0.0 0.0
0.0011131133089947217 -0.00048749343212787957 0.0 -0.002444830713996582 0.0 0.0
0.001796082479944039 -0.0008638202338451883 0.0 -0.0027836450036626136 0.0 0.0
0.0029669446083903494 -0.0016879363915805628 0.0 -0.003563124237865494 0.0 0.0
0.0046504229620862765 -0.0030937618270632248 0.0 -0.004811237451804425 0.0 0.0
0.006735532744536556 -0.004966315421898933 0.0 -0.006416850098723025 0.0 0.0
0.009096895532506628 -0.007152309349477089 0.0 -0.008128096687618665 0.0 0.0
0.011694130722470464 -0.009576982988338947 0.0 -0.009855808693239505 0.0 0.0
0.014577759415867836 -0.01230701548041078 0.0 -0.011578301876254202 0.0 0.0
0.017845086968273957 -0.015434094637489081 0.0 -0.01331061520513723 0.0 0.0
0.02159532634830772 -0.019056272077181937 0.0 -0.015037618178418878 0.0 0.0
0.02587610504394287 -0.023217164220038722 0.0 -0.016568735172906423 0.0 0.0
0.03069156748699696 -0.02789178743454501 0.0 -0.01749798882601459 0.0 0.0
0.03618459909183021 -0.033190763634469295 0.0 -0.01743507504423701 0.0 0.0
0.042419181925483156 -0.03937071144122957 0.0 -0.015532140846358742 0.0 0.0
0.04570220777763489 -0.045764453653224346 0.0 1.4190038033490282e-14 0.0 0.0
0.042419181925477424 -0.03937071144122034 0.0 0.015532140846396356 0.0 0.0
0.036184599091819154 -0.03319076363445657 0.0 0.017435075044275716 0.0 0.0
0.03069156748698197 -0.027891787434532345 0.0 0.017497988826034025 0.0 0.0
0.025876105043926567 -0.02321716422002491 0.0 0.016568735172905694 0.0 0.0
0.021595326348290825 -0.01905627207716708 0.0 0.015037618178409148 0.0 0.0
0.01784508696825836 -0.015434094637480578 0.0 0.013310615205128048 0.0 0.0
0.014577759415854265 -0.012307015480397112 0.0 0.011578301876249626 0.0 0.0
0.011694130722457407 -0.00957698298832489 0.0 0.009855808693233294 0.0 0.0
0.009096895532493272 -0.007152309349466251 0.0 0.008128096687605306 0.0 0.0
0.006735532744524533 -0.004966315421886088 0.0 0.006416850098708991 0.0 0.0
0.004650422962077046 -0.003093761827058124 0.0 0.0048112374517930104 0.0 0.0
0.002966944608383679 -0.0016879363915759302 0.0 0.0035631242378593737 0.0 0.0
0.0017960824799404832 -0.0008638202338406119 0.0 0.0027836450036595674 0.0 0.0
0.0011131133089931874 -0.0004874934321288033 0.0 0.0024448307139944996 0.0 0.0
0.0007306283816757362 -0.00030641403151504873 0.0 0.002255499226434067 0.0 0.0
0.0004554684058827228 -0.00015179357410468694 0.0 0.0020907688445470545 0.0 0.0
0.0002214512843922985 -1.584198971286417e-05 0.0 0.002044118573990794 0.0 0.0
8.164939942205454e-05 -3.0179860057022376e-05 0.0 0.002168206621502377 0.0 0.0
0.0005206492043095534 -0.00034750303784856183 0.0 0.0026643892620574305 0.0 0.0
0.000992461678017088 -0.003677830976295046 0.0 0.0016684006204332946 0.0 0.0
0.0006923216579465929 -0.0027858106012342335 0.0 -0.0015353976773353883 0.0 0.0
0.0003325374692850972 -0.0003517954453313831 0.0 -0.0024064221037333492 0.0 0.0
-3.042697096501719e-05 5.798203799151202e-06 0.0 -0.002270818728861231 0.0 0.0
3.0916907353021135e-05 6.14545057103152e-05 0.0 -0.002181383339150528 0.0 0.0
0.0001766017491176291 -2.2843262558162662e-05 0.0 -0.0022205862886842623 0.0 0.0
0.0003450886895506934 -0.00013033356461811875 0.0 -0.0023956959056955986 0.0 0.0
0.0005519323541197523 -0.00023899589598654292 0.0 -0.00263499821292401 0.0 0.0
0.000870233897820409 -0.00039225528907422944 0.0 -0.0028614164570612676 0.0 0.0
0.001411665757795624 -0.0007088907779131699 0.0 -0.0032025116954445096 0.0 0.0
0.0022309311308784502 -0.001296644380561714 0.0 -0.0038310209600628028 0.0 0.0
0.0032813897401358615 -0.002138376025666512 0.0 -0.004810625626908167 0.0 0.0
0.004478352277375281 -0.0031574650083728752 0.0 -0.006042903301549976 0.0 0.0
0.005784714754911024 -0.004296605007659027 0.0 -0.0073977839890635244 0.0 0.0
0.007237408121100141 -0.0056047189527968656 0.0 -0.008827051325139867 0.0 0.0
0.008905185884462116 -0.007143283865060208 0.0 -0.010327459978279658 0.0 0.0
0.01090243902227839 -0.00901467981631806 0.0 -0.011897421442174155 0.0 0.0
0.01338042386625113 -0.011362022702441812 0.0 -0.013411200479036338 0.0 0.0
0.016478441213469964 -0.014322881441814466 0.0 -0.014458656267109234 0.0 0.0
0.02039605167772844 -0.018049759185840036 0.0 -0.01447404917240487 0.0 0.0
0.025759486379403722 -0.023081747788801957 0.0 -0.013538631715097867 0.0 0.0
0.028924270931970114 -0.030040492932771425 0.0 1.0145530249250356e-14 0.0 0.0
0.025759486379401137 -0.023081747788799647 0.0 0.013538631715128077 0.0 0.0
0.020396051677722155 -0.018049759185834468 0.0 0.014474049172435971 0.0 0.0
0.01647844121346112 -0.014322881441806849 0.0 0.01445865626712078 0.0 0.0
0.013380423866242436 -0.011362022702439013 0.0 0.01341120047903193 0.0 0.0
0.010902439022270444 -0.009014679816307679 0.0 0.01189742144216364 0.0 0.0
0.008905185884455432 -0.007143283865052947 0.0 0.010327459978275125 0.0 0.0
0.007237408121094693 -0.005604718952790544 0.0 0.008827051325136014 0.0 0.0
0.005784714754905615 -0.00429660500765665 0.0 0.007397783989059027 0.0 0.0
0.004478352277369202 -0.0031574650083681416 0.0 0.006042903301537622 0.0 0.0
0.0032813897401304816 -0.0021383760256596606 0.0 0.004810625626899161 0.0 0.0
0.002230931130874792 -0.0012966443805625515 0.0 0.0038310209600556453 0.0 0.0
0.0014116657577931929 -0.0007088907779068032 0.0 0.0032025116954423095 0.0 0.0
0.0008702338978189827 -0.0003922552890716759 0.0 0.002861416457059413 0.0 0.0
0.0005519323541189625 -0.00023899589598749105 0.0 0.0026349982129213164 0.0 0.0
0.00034508868955031215 -0.00013033356461734414 0.0 0.002395695905691158 0.0 0.0
0.00017660174911767474 -2.2843262558915505e-05 0.0 0.0022205862886821542 0.0 0.0
3.0916907353124886e-05 6.145450570989814e-05 0.0 0.002181383339148332 0.0 0.0
-3.0426970965228565e-05 5.798203799697595e-06 0.0 0.0022708187288585304 0.0 0.0
0.0003325374692842901 -0.0003517954453320062 0.0 0.002406422103730124 0.0 0.0
0.0006923216579451609 -0.002785810601229482 0.0 0.001535397677335193 0.0 0.0
0.0004810924737648054 -0.002123916689067924 0.0 -0.0014630045530648122 0.0 0.0
0.0001905029643779848 -0.00035692805961015986 0.0 -0.002229509885792288 0.0 0.0
-0.0001385622951518297 4.7557046688115205e-05 0.0 -0.002319275801762409 0.0 0.0
-0.00015374161190253707 0.00013511796340250645 0.0 -0.002262246471092473 0.0 0.0
-9.799412803773933e-05 0.00010260923252221332 0.0 -0.002292743271503567 0.0 0.0
-4.4989722691132224e-05 4.870818431890367e-05 0.0 -0.002456122812315079 0.0 0.0
-1.557086371948744e-05 1.3124306364457588e-05 0.0 -0.0027112017854693557 0.0 0.0
-4.011081534134356e-06 2.668154827101056e-06 0.0 -0.002949729817334242 0.0 0.0
-4.1439063737405105e-07 -4.61639817887183e-08 0.0 -0.003097034631605118 0.0 0.0
5.234319312717229e-07 -2.497160661068718e-07 0.0 -0.0033888078291231527 0.0 0.0
4.876651669126226e-09 -6.627351612126828e-07 0.0 -0.003997689035727576 0.0 0.0
-5.121611486128843e-06 4.133675220527382e-06 0.0 -0.004954291812369625 0.0 0.0
-1.9069389046795352e-05 1.68409226205338e-05 0.0 -0.006090975498835311 0.0 0.0
-3.2908473422241734e-05 3.303113065202554e-05 0.0 -0.007373407036216844 0.0 0.0
3.771537083510873e-06 1.2378333890363609e-05 0.0 -0.008813234990753652 0.0 0.0
0.000224776036686234 -0.00015915799699998148 0.0 -0.010401516402119202 0.0 0.0
0.0008825568271038733 -0.000703380636486047 0.0 -0.012078608337396041 0.0 0.0
0.00229469745507102 -0.0019301007350124282 0.0 -0.013660026494588372 0.0 0.0
0.004678397541416253 -0.0039866919279873715 0.0 -0.01483005318915152 0.0 0.0
0.008623639483616592 -0.0071673963322724105 0.0 -0.015331537979141767 0.0 0.0
0.011119401836205526 -0.014539185178067744 0.0 9.305056725139593e-15 0.0 0.0
0.008623639483616575 -0.0071673963322706705 0.0 0.015331537979161466 0.0 0.0
0.004678397541413854 -0.003986691927983917 0.0 0.014830053189168226 0.0 0.0
0.002294697455069196 -0.0019301007350097203 0.0 0.01366002649458943 0.0 0.0
0.0008825568271048556 -0.0007033806364930674 0.0 0.012078608337388795 0.0 0.0
0.00022477603668776827 -0.00015915799699453732 0.0 0.010401516402112688 0.0 0.0
3.7715370852055893e-06 1.237833389134866e-05 0.0 0.008813234990747126 0.0 0.0
-3.290847341925812e-05 3.303113065275092e-05 0.0 0.007373407036208333 0.0 0.0
-1.906938904399334e-05 1.68409226218285e-05 0.0 0.006090975498828631 0.0 0.0
-5.121611483899398e-06 4.1336752168548365e-06 0.0 0.004954291812359938 0.0 0.0
4.876653879055514e-09 -6.627351573856795e-07 0.0 0.003997689035720368 0.0 0.0
5.234319325707597e-07 -2.497160686880861e-07 0.0 0.0033888078291196572 0.0 0.0
-4.143906365754006e-07 -4.6163980919452434e-08 0.0 0.0030970346316055073 0.0 0.0
-4.011081533581115e-06 2.6681548279703557e-06 0.0 0.0029497298173316207 0.0 0.0
-1.5570863719457028e-05 1.312430636339051e-05 0.0 0.0027112017854656694 0.0 0.0
-4.498972269095827e-05 4.87081843185775e-05 0.0 0.002456122812311718 0.0 0.0
-9.799412803759313e-05 0.00010260923252060204 0.0 0.002292743271502409 0.0 0.0
-0.00015374161190264261 0.0001351179634025607 0.0 0.0022622464710893146 0.0 0.0
-0.00013856229515183798 4.755704668829463e-05 0.0 0.0023192758017606973 0.0 0.0
0.0001905029643778143 -0.00035692805961042603 0.0 0.002229509885790573 0.0 0.0
0.00048109247376433914 -0.0021239166890651045 0.0 0.0014630045530643076 0.0 0.0
0.0003367461937277297 -0.0016351199364224062 0.0 -0.0013987721129535679 0.0 0.0
8.550205859523776e-05 -0.00034429857979439396 0.0 -0.0020827442731390583 0.0 0.0
-0.0002396842222051384 8.710698030519247e-05 0.0 -0.002318675051565197 0.0 0.0
-0.0003315551376364764 0.0002063007775878312 0.0 -0.0022857210877573137 0.0 0.0
-0.0003664534287763278 0.00022277208637429448 0.0 -0.0023012372830870033 0.0 0.0
-0.0004311907156450634 0.00022610974071605745 0.0 -0.0024378254905438315 0.0 0.0
-0.0005822272769635793 0.0002650866744510119 0.0 -0.0026543629190813565 0.0 0.0
-0.0008783851653988155 0.00039774828417964386 0.0 -0.002870405917309962 0.0 0.0
-0.001412138455020584 0.0007086344493867628 0.0 -0.0032061284033948183 0.0 0.0
-0.002229158884507095 0.001295279871500675 0.0 -0.003829767229160697 0.0 0.0
-0.0032813088979816267 0.0021378461397559647 0.0 -0.004806793319627006 0.0 0.0
-0.004490187207277204 0.0031673019682320687 0.0 -0.00604140250764689 0.0 0.0
-0.005824100928531392 0.004332385038808474 0.0 -0.0073936657056533905 0.0 0.0
-0.007301129390626555 0.0056721952827711725 0.0 -0.008816014464751375 0.0 0.0
-0.008891828246822919 0.0071675116904312795 0.0 -0.010334534008579681 0.0 0.0
-0.010457408519082232 0.008690917950518939 0.0 -0.012030957889258788 0.0 0.0
-0.011705503076123102 0.009959145691241377 0.0 -0.013966926026089465 0.0 0.0
-0.012225201179154582 0.010543587801591441 0.0 -0.016219321583580443 0.0 0.0
-0.011557563018889848 0.010099041827922647 0.0 -0.018709582703963563 0.0 0.0
-0.008172541191489177 0.007678225596882717 0.0 -0.01979601789716977 0.0 0.0
-0.0054776417555429825 -0.0004180421848212746 0.0 1.1247079656495629e-14 0.0 0.0
-0.008172541191489378 0.007678225596887266 0.0 0.01979601789718894 0.0 0.0
-0.01155756301888709 0.010099041827922206 0.0 0.018709582703978038 0.0 0.0
-0.012225201179146744 0.010543587801587347 0.0 0.016219321583583062 0.0 0.0
-0.011705503076111777 0.009959145691226124 0.0 0.013966926026082245 0.0 0.0
-0.010457408519071447 0.008690917950516453 0.0 0.0120309578892487 0.0 0.0
-0.008891828246813187 0.007167511690417355 0.0 0.010334534008571983 0.0 0.0
-0.00730112939061558 0.005672195282770034 0.0 0.008816014464744545 0.0 0.0
-0.005824100928519719 0.004332385038799991 0.0 0.007393665705643688 0.0 0.0
-0.00449018720726662 0.0031673019682209496 0.0 0.00604140250763544 0.0 0.0
-0.0032813088979724556 0.0021378461397512077 0.0 0.004806793319616757 0.0 0.0
-0.0022291588845002788 0.001295279871492857 0.0 0.003829767229154562 0.0 0.0
-0.0014121384550166466 0.0007086344493835243 0.0 0.0032061284033941526 0.0 0.0
-0.0008783851653964001 0.00039774828417832254 0.0 0.002870405917307372 0.0 0.0
-0.0005822272769621484 0.0002650866744502809 0.0 0.0026543629190781248 0.0 0.0
-0.0004311907156441436 0.00022610974071416318 0.0 0.002437825490541099 0.0 0.0
-0.00036645342877587546 0.00022277208637456406 0.0 0.002301237283084914 0.0 0.0
-0.00033155513763634663 0.00020630077758800055 0.0 0.0022857210877562017 0.0 0.0
-0.00023968422220482208 8.710698030490813e-05 0.0 0.0023186750515646233 0.0 0.0
8.55020585951117e-05 -0.00034429857979459134 0.0 0.0020827442731380804 0.0 0.0
0.00033674619372714394 -0.0016351199364203833 0.0 0.0013987721129517549 0.0 0.0
0.00023356234301152303 -0.00124208565430439 0.0 -0.0012869660655427664 0.0 0.0
4.3569549173551065e-06 -0.0003137850465667016 0.0 -0.0019344596263397274 0.0 0.0
-0.00033350153765620026 0.00012374421339443094 0.0 -0.0022669129881734505 0.0 0.0
-0.0005009796884912306 0.0002739365841830229 0.0 -0.002250960826561084 0.0 0.0
-0.0006268710515196518 0.00033661768642750755 0.0 -0.0022438862166670155 0.0 0.0
-0.0008078093643467633 0.000396181678107965 0.0 -0.002336057701215586 0.0 0.0
-0.001140739658772173 0.000514663692939584 0.0 -0.002485448084423287 0.0 0.0
-0.001802862778373051 0.0008692103051150123 0.0 -0.002802025749266731 0.0 0.0
-0.0029659972105754114 0.0016861900617307392 0.0 -0.0035655793354077573 0.0 0.0
-0.004647970173302197 0.003091316632566724 0.0 -0.0048071654302930585 0.0 0.0
-0.006736593739792825 0.004967552758566323 0.0 -0.0064143540062599445 0.0 0.0
-0.009108599390455815 0.007163542748434783 0.0 -0.008125504238212133 0.0 0.0
-0.011728512593535459 0.009610405923430897 0.0 -0.00983047862061207 0.0 0.0
-0.014632556529696961 0.01236694729712048 0.0 -0.01151035882425156 0.0 0.0
-0.017829231197122628 0.01545294684627668 0.0 -0.01325962956749415 0.0 0.0
-0.02118426505347606 0.01875289849173991 0.0 -0.015286869722197755 0.0 0.0
-0.024357301587011354 0.021929309477578665 0.0 -0.01782194614329729 0.0 0.0
-0.026805477519278205 0.024433739778137818 0.0 -0.020978026365829752 0.0 0.0
-0.027497660352986585 0.025363031073390267 0.0 -0.024128884531555136 0.0 0.0
-0.024440350550189137 0.02272713882432105 0.0 -0.02481229962871799 0.0 0.0
-0.02165377267045112 0.012754595268594637 0.0 1.4297590889000844e-14 0.0 0.0
-0.024440350550187548 0.022727138824323843 0.0 0.02481229962874998 0.0 0.0
-0.027497660352979333 0.02536303107338085 0.0 0.024128884531586233 0.0 0.0
-0.026805477519263522 0.02443373977812574 0.0 0.02097802636584285 0.0 0.0
-0.024357301586991665 0.02192930947755787 0.0 0.017821946143293094 0.0 0.0
-0.021184265053456112 0.018752898491723315 0.0 0.015286869722186305 0.0 0.0
-0.017829231197104393 0.0154529468462574 0.0 0.013259629567483465 0.0 0.0
-0.01463255652967808 0.01236694729710329 0.0 0.011510358824241652 0.0 0.0
-0.011728512593515905 0.009610405923411901 0.0 0.009830478620597688 0.0 0.0
-0.009108599390437172 0.007163542748419018 0.0 0.008125504238196048 0.0 0.0
-0.006736593739776361 0.004967552758553881 0.0 0.006414354006243742 0.0 0.0
-0.004647970173289537 0.0030913166325547796 0.0 0.004807165430281231 0.0 0.0
-0.0029659972105674825 0.001686190061726385 0.0 0.0035655793354024932 0.0 0.0
-0.001802862778368595 0.0008692103051096479 0.0 0.0028020257492644618 0.0 0.0
-0.001140739658769648 0.0005146636929403967 0.0 0.002485448084419747 0.0 0.0
-0.0008078093643455405 0.0003961816781068072 0.0 0.002336057701214153 0.0 0.0
-0.0006268710515188639 0.0003366176864279937 0.0 0.002243886216664568 0.0 0.0
-0.0005009796884906304 0.0002739365841826586 0.0 0.0022509608265599626 0.0 0.0
-0.00033350153765582534 0.0001237442133944012 0.0 0.0022669129881720527 0.0 0.0
4.356954917242095e-06 -0.0003137850465669837 0.0 0.001934459626338027 0.0 0.0
0.00023356234301107482 -0.0012420856543027096 0.0 0.0012869660655410154 0.0 0.0
0.00014810359003999282 -0.0009091461303432555 0.0 -0.0011357118003857487 0.0 0.0
-6.55120608359154e-05 -0.00026842510001942686 0.0 -0.0017680093100844764 0.0 0.0
-0.00042072251400941045 0.0001588135514067285 0.0 -0.0021628409178590857 0.0 0.0
-0.0006617292226731812 0.00033711976647355925 0.0 -0.002159648145587527 0.0 0.0
-0.0008764793326540446 0.00044267958504637774 0.0 -0.0021259492978237702 0.0 0.0
-0.0011727353080594107 0.0005544298975090011 0.0 -0.0021472426110924624 0.0 0.0
-0.0017345542429832751 0.0007962289474128528 0.0 -0.002282904844639302 0.0 0.0
-0.002845947145071112 0.0015154536824404307 0.0 -0.0028490665328527154 0.0 0.0
-0.004689062079860835 0.003007096397097202 0.0 -0.004028850008340249 0.0 0.0
-0.007237184623413601 0.005308380125436636 0.0 -0.005756015804326139 0.0 0.0
-0.010330054192809721 0.008206094246549235 0.0 -0.007757037232015316 0.0 0.0
-0.013828990680853755 0.011523062313914626 0.0 -0.009752733954411256 0.0 0.0
-0.017714388187057496 0.015221191593093576 0.0 -0.011661670050309445 0.0 0.0
-0.022048504100669334 0.019380154469704383 0.0 -0.013531891280680783 0.0 0.0
-0.02687322447044317 0.0240634337919041 0.0 -0.015524546644879855 0.0 0.0
-0.0320686135666911 0.02917993110456118 0.0 -0.0179486456441757 0.0 0.0
-0.037233858039780604 0.0343457738525159 0.0 -0.02123665865690457 0.0 0.0
-0.04152283995241816 0.0387671882430151 0.0 -0.025445578465378548 0.0 0.0
-0.04338580690075168 0.04092324618169617 0.0 -0.02940637577838067 0.0 0.0
-0.0399589460645744 0.03819291554531118 0.0 -0.030681647167323127 0.0 0.0
-0.036453809119858696 0.02548145684790218 0.0 1.6718397499726478e-14 0.0 0.0
-0.0399589460645701 0.03819291554530931 0.0 0.030681647167361055 0.0 0.0
-0.043385806900740086 0.04092324618167972 0.0 0.029406375778419237 0.0 0.0
-0.0415228399523976 0.03876718824299974 0.0 0.025445578465395725 0.0 0.0
-0.03723385803975348 0.03434577385248713 0.0 0.021236658656901716 0.0 0.0
-0.03206861356666316 0.02917993110453091 0.0 0.017948645644162986 0.0 0.0
-0.026873224470416554 0.02406343379188027 0.0 0.01552454664486562 0.0 0.0
-0.022048504100642668 0.019380154469671975 0.0 0.013531891280669978 0.0 0.0
-0.017714388187030288 0.015221191593066587 0.0 0.011661670050296929 0.0 0.0
-0.013828990680827408 0.0115230623138893 0.0 0.009752733954392634 0.0 0.0
-0.01033005419278641 0.008206094246528038 0.0 0.0077570372319962725 0.0 0.0
-0.007237184623395149 0.005308380125423936 0.0 0.005756015804310786 0.0 0.0
-0.0046890620798483015 0.003007096397087279 0.0 0.004028850008331789 0.0 0.0
-0.00284594714506365 0.0015154536824333411 0.0 0.002849066532849219 0.0 0.0
-0.0017345542429794913 0.0007962289474128124 0.0 0.0022829048446363683 0.0 0.0
-0.001172735308057647 0.0005544298975085677 0.0 0.0021472426110913743 0.0 0.0
-0.0008764793326528611 0.0004426795850448774 0.0 0.0021259492978219835 0.0 0.0
-0.000661729222672431 0.000337119766473359 0.0 0.0021596481455857445 0.0 0.0
-0.00042072251400915967 0.00015881355140628638 0.0 0.0021628409178575956 0.0 0.0
-6.551206083579305e-05 -0.0002684251000191471 0.0 0.0017680093100816338 0.0 0.0
0.00014810359004003985 -0.0009091461303420544 0.0 0.0011357118003840244 0.0 0.0
7.321595597326695e-05 -0.0006294277646572124 0.0 -0.0009707211098153061 0.0 0.0
-0.00012929062521395467 -0.00021123246214303342 0.0 -0.0015757088857329643 0.0 0.0
-0.0005035465107153953 0.0001937344013162237 0.0 -0.0020066774746045407 0.0 0.0
-0.0008142620186386985 0.00039575329165198966 0.0 -0.002012992578837551 0.0 0.0
-0.0011124437740238375 0.0005376591159419286 0.0 -0.0019428587512867147 0.0 0.0
-0.0015435104545254619 0.0007089803135204982 0.0 -0.0018924624936235254 0.0 0.0
-0.0023953118502155375 0.0011626396479964872 0.0 -0.002100066378920686 0.0 0.0
-0.004009576751336772 0.002360073793663383 0.0 -0.0028817129200683794 0.0 0.0
-0.00655034179092196 0.004582772737199434 0.0 -0.004353054970450603 0.0 0.0
-0.009943976842172261 0.0077497093698238265 0.0 -0.006338111850247035 0.0 0.0
-0.014004556228388643 0.011613901262254755 0.0 -0.00846793421307821 0.0 0.0
-0.018612215929543787 0.01602651418520641 0.0 -0.01055438772365215 0.0 0.0
-0.023764072625189415 0.020969453612435074 0.0 -0.012549837714092637 0.0 0.0
-0.029536615824253196 0.02653510392333922 0.0 -0.01452177667189432 0.0 0.0
-0.03600230052285376 0.032823467846992464 0.0 -0.016623616601256733 0.0 0.0
-0.04306916677300275 0.039785170806668685 0.0 -0.019244929102091926 0.0 0.0
-0.05023413721812906 0.046969253907327854 0.0 -0.022907526920423246 0.0 0.0
-0.056300702464515365 0.05324067783732833 0.0 -0.02768220854617699 0.0 0.0
-0.05908592650694043 0.056474860371498334 0.0 -0.03243744357075459 0.0 0.0
-0.054936804875002396 0.05318531303053215 0.0 -0.03449307800022922 0.0 0.0
-0.05056018701762523 0.03780282812992486 0.0 1.8503427956506613e-14 0.0 0.0
-0.054936804874995276 0.053185313030523484 0.0 0.034493078000271224 0.0 0.0
-0.05908592650692383 0.05647486037148164 0.0 0.032437443570796136 0.0 0.0
-0.05630070246448901 0.053240677837306745 0.0 0.027682208546198427 0.0 0.0
-0.050234137218095415 0.04696925390729117 0.0 0.022907526920422895 0.0 0.0
-0.04306916677296725 0.0397851708066309 0.0 0.019244929102080494 0.0 0.0
-0.03600230052281906 0.03282346784695746 0.0 0.016623616601244433 0.0 0.0
-0.029536615824218272 0.026535103923305887 0.0 0.01452177667188274 0.0 0.0
-0.02376407262515438 0.020969453612396608 0.0 0.012549837714080192 0.0 0.0
-0.018612215929510283 0.016026514185175787 0.0 0.01055438772363313 0.0 0.0
-0.014004556228358837 0.011613901262224169 0.0 0.00846793421305881 0.0 0.0
-0.009943976842148204 0.0077497093698043855 0.0 0.006338111850229708 0.0 0.0
-0.006550341790904632 0.004582772737180774 0.0 0.0043530549704405 0.0 0.0
-0.004009576751326007 0.0023600737936565756 0.0 0.0028817129200619527 0.0 0.0
-0.0023953118502098325 0.0011626396479927938 0.0 0.0021000663789176558 0.0 0.0
-0.0015435104545230888 0.000708980313520183 0.0 0.0018924624936219022 0.0 0.0
-0.0011124437740228465 0.0005376591159409943 0.0 0.0019428587512862407 0.0 0.0
-0.000814262018638136 0.00039575329165127083 0.0 0.0020129925788352062 0.0 0.0
-0.0005035465107150124 0.00019373440131609644 0.0 0.002006677474603231 0.0 0.0
-0.00012929062521371796 -0.00021123246214298276 0.0 0.0015757088857306677 0.0 0.0
7.321595597317583e-05 -0.0006294277646563113 0.0 0.0009707211098137066 0.0 0.0
7.399176154520844e-06 -0.00040022286914276144 0.0 -0.0007999991001082104 0.0 0.0
-0.00018828496617207717 -0.00014672792678237053 0.0 -0.0013581594109632379 0.0 0.0
-0.0005829505760279024 0.00022950590711400296 0.0 -0.0017987896671906602 0.0 0.0
-0.0009574406487907927 0.00044946944428074693 0.0 -0.001810441801818404 0.0 0.0
-0.0013394537046098982 0.000621904916617638 0.0 -0.0016979543902846258 0.0 0.0
-0.0019396734438119328 0.0008857051936967033 0.0 -0.0016114790112219282 0.0 0.0
-0.0031337841840586903 0.0016368830919484979 0.0 -0.0018955244265455697 0.0 0.0
-0.0052837173760090644 0.003385820037535742 0.0 -0.002826674853416291 0.0 0.0
-0.008515558666975086 0.006333347975205192 0.0 -0.004448392562422625 0.0 0.0
-0.012713096239356327 0.010306553906120277 0.0 -0.0064316192132184945 0.0 0.0
-0.017716789972577678 0.015103352611175753 0.0 -0.008512439985954402 0.0 0.0
-0.02343688949905322 0.020607148086956625 0.0 -0.010554848429672458 0.0 0.0
-0.029864505589401243 0.02680249567427573 0.0 -0.012526324314457842 0.0 0.0
-0.037078453575724424 0.0337831591070171 0.0 -0.014496638105488794 0.0 0.0
-0.04518128719348867 0.041671445716177875 0.0 -0.016594410815830015 0.0 0.0
-0.05409693458161542 0.050452766855030036 0.0 -0.019118755042093778 0.0 0.0
-0.06321718947033644 0.05961484691598454 0.0 -0.022635717666714864 0.0 0.0
-0.07099112767644059 0.06768868454203156 0.0 -0.027497440916718314 0.0 0.0
-0.07458199597646936 0.07188347945914814 0.0 -0.03290731048879385 0.0 0.0
-0.06970410322146489 0.06797288301529092 0.0 -0.03684406852696329 0.0 0.0
-0.0645198109651396 0.050150750726370645 0.0 1.6856308016066635e-14 0.0 0.0
-0.06970410322145479 0.06797288301527497 0.0 0.03684406852700427 0.0 0.0
-0.07458199597644825 0.07188347945913144 0.0 0.0329073104888342 0.0 0.0
-0.07099112767640886 0.0676886845420019 0.0 0.027497440916739384 0.0 0.0
-0.06321718947029713 0.05961484691594254 0.0 0.022635717666714864 0.0 0.0
-0.05409693458157243 0.05045276685499169 0.0 0.019118755042084275 0.0 0.0
-0.04518128719344537 0.04167144571613385 0.0 0.016594410815820346 0.0 0.0
-0.03707845357568159 0.03378315910698076 0.0 0.014496638105479923 0.0 0.0
-0.029864505589358478 0.026802495674231 0.0 0.012526324314444302 0.0 0.0
-0.023436889499012247 0.02060714808692151 0.0 0.01055484842965476 0.0 0.0
-0.01771678997254144 0.01510335261113855 0.0 0.008512439985933568 0.0 0.0
-0.012713096239326744 0.010306553906093453 0.0 0.006431619213202124 0.0 0.0
-0.00851555866695295 0.006333347975183884 0.0 0.0044483925624113595 0.0 0.0
-0.005283717375994864 0.0033858200375234105 0.0 0.0028266748534098176 0.0 0.0
-0.0031337841840509903 0.001636883091942202 0.0 0.0018955244265420447 0.0 0.0
-0.001939673443808429 0.0008857051936936651 0.0 0.0016114790112205719 0.0 0.0
-0.0013394537046085076 0.0006219049166177156 0.0 0.0016979543902846353 0.0 0.0
-0.0009574406487899544 0.0004494694442808457 0.0 0.0018104418018162535 0.0 0.0
-0.0005829505760273189 0.0002295059071141999 0.0 0.0017987896671888526 0.0 0.0
-0.0001882849661718177 -0.0001467279267823542 0.0 0.0013581594109615238 0.0 0.0
7.399176154677887e-06 -0.00040022286914221327 0.0 0.0007999991001079597 0.0 0.0
-4.8408276760605036e-05 -0.00022078574286771773 0.0 -0.0006267893048171736 0.0 0.0
-0.00024151576454472764 -7.970560891711539e-05 0.0 -0.0011175238829958735 0.0 0.0
-0.000658800031903116 0.0002659647367428546 0.0 -0.0015402968431560177 0.0 0.0
-0.0010931985138235767 0.0004980423752850629 0.0 -0.001551913194278659 0.0 0.0
-0.001568943171092174 0.0007004120967563877 0.0 -0.0014008057013275737 0.0 0.0
-0.002372981820707619 0.0011066462834938096 0.0 -0.0013080174105010562 0.0 0.0
-0.003952924056589079 0.002232129711869995 0.0 -0.0016484032150110256 0.0 0.0
-0.00665168034834555 0.004567468188615423 0.0 -0.002669363441131795 0.0 0.0
-0.010534872358091496 0.00817731862398533 0.0 -0.004202004685240147 0.0 0.0
-0.015504396638457384 0.012916671733783195 0.0 -0.006005128516295114 0.0 0.0
-0.021449422972647063 0.01863584593653709 0.0 -0.007918989903788008 0.0 0.0
-0.02828263190385629 0.025230183597177595 0.0 -0.00979504200173212 0.0 0.0
-0.03599644461200393 0.03269006244536823 0.0 -0.01162216772479826 0.0 0.0
-0.04466331991708496 0.04109942364511966 0.0 -0.013484823064839276 0.0 0.0
-0.054369946230973354 0.05056649562054109 0.0 -0.015458178652009158 0.0 0.0
-0.0650492072114528 0.06107995572163398 0.0 -0.017652681755950507 0.0 0.0
-0.07604139988784171 0.07211222715427111 0.0 -0.020517567713857536 0.0 0.0
-0.08547696684506143 0.08193910563457936 0.0 -0.02487317160659198 0.0 0.0
-0.08994072996885982 0.08716388557781292 0.0 -0.030964827502578736 0.0 0.0
-0.08456148582263681 0.08287986362421312 0.0 -0.03806207572890467 0.0 0.0
-0.07871939471517474 0.06290078476878709 0.0 1.75918307698808e-14 0.0 0.0
-0.0845614858226236 0.0828798636241983 0.0 0.03806207572894411 0.0 0.0
-0.08994072996883365 0.08716388557778883 0.0 0.030964827502618072 0.0 0.0
-0.08547696684502384 0.08193910563454232 0.0 0.024873171606612354 0.0 0.0
-0.0760413998877963 0.07211222715422522 0.0 0.02051756771385972 0.0 0.0
-0.06504920721140285 0.061079955721584575 0.0 0.01765268175594524 0.0 0.0
-0.054369946230922256 0.050566495620490974 0.0 0.015458178651998406 0.0 0.0
-0.04466331991703457 0.04109942364507086 0.0 0.013484823064828805 0.0 0.0
-0.03599644461195383 0.03269006244532368 0.0 0.01162216772478704 0.0 0.0
-0.028282631903808447 0.02523018359713107 0.0 0.009795042001717142 0.0 0.0
-0.021449422972604836 0.018635845936491084 0.0 0.007918989903768957 0.0 0.0
-0.015504396638422752 0.01291667173374957 0.0 0.00600512851627996 0.0 0.0
-0.010534872358065113 0.008177318623961382 0.0 0.004202004685227574 0.0 0.0
-0.006651680348327833 0.00456746818859804 0.0 0.0026693634411255446 0.0 0.0
-0.003952924056579138 0.0022321297118604332 0.0 0.001648403215007306 0.0 0.0
-0.0023729818207029975 0.0011066462834891262 0.0 0.001308017410499189 0.0 0.0
-0.0015689431710906 0.0007004120967567533 0.0 0.0014008057013279952 0.0 0.0
-0.0010931985138229658 0.000498042375286597 0.0 0.0015519131942774108 0.0 0.0
-0.0006588000319025697 0.000265964736742042 0.0 0.0015402968431548797 0.0 0.0
-0.00024151576454418115 -7.970560891690321e-05 0.0 0.0011175238829948106 0.0 0.0
-4.840827676012247e-05 -0.00022078574286734314 0.0 0.0006267893048170205 0.0 0.0
-9.152100030304015e-05 -9.1569975682082e-05 0.0 -0.0004552989543994822 0.0 0.0
-0.00028602113279162857 -1.526430232156489e-05 0.0 -0.0008566259288061927 0.0 0.0
-0.0007296219321685862 0.00030165788548211975 0.0 -0.00123007895837685 0.0 0.0
-0.001224236368927812 0.0005414968068317776 0.0 -0.0012360409533859649 0.0 0.0
-0.0018104978497890246 0.0007848156117727799 0.0 -0.0010551563377860671 0.0 0.0
-0.0028582014944780114 0.0013882626828028344 0.0 -0.000967767698037217 0.0 0.0
-0.004856130945426339 0.0029579606899832072 0.0 -0.001368083494291094 0.0 0.0
-0.008072929515668195 0.00584180879562153 0.0 -0.002301900630334843 0.0 0.0
-0.012566493024879286 0.010059951347833223 0.0 -0.003571892274374883 0.0 0.0
-0.01830077561879457 0.015550236725794184 0.0 -0.005091921551862065 0.0 0.0
-0.02518000630704921 0.02218315568903315 0.0 -0.006707618799204882 0.0 0.0
-0.0331298204497033 0.029870277256488866 0.0 -0.00829426431501751 0.0 0.0
-0.04214333395663589 0.03860645809173953 0.0 -0.009850774971433482 0.0 0.0
-0.052267310856287545 0.0484592932657439 0.0 -0.011477242008031513 0.0 0.0
-0.06354267967913128 0.059484052213939334 0.0 -0.01322177152906583 0.0 0.0
-0.0758545196533973 0.07160205873141047 0.0 -0.014984394481709915 0.0 0.0
-0.08854165046149182 0.08428483721830785 0.0 -0.016822190114226473 0.0 0.0
-0.09962926873420123 0.09580508990511873 0.0 -0.019885876527338846 0.0 0.0
-0.10524760863950518 0.10236043442674232 0.0 -0.026512836357307255 0.0 0.0
-0.09979965199082033 0.09822494066313742 0.0 -0.03790493665252942 0.0 0.0
-0.09351790503768 0.07643906842310765 0.0 1.4346163146328195e-14 0.0 0.0
-0.09979965199080479 0.09822494066312235 0.0 0.037904936652564336 0.0 0.0
-0.10524760863947424 0.10236043442670983 0.0 0.026512836357339847 0.0 0.0
-0.09962926873415798 0.09580508990506861 0.0 0.019885876527356957 0.0 0.0
-0.08854165046143976 0.08428483721826058 0.0 0.016822190114227475 0.0 0.0
-0.07585451965334042 0.07160205873135365 0.0 0.014984394481706999 0.0 0.0
-0.06354267967907262 0.059484052213882324 0.0 0.013221771529060813 0.0 0.0
-0.052267310856229064 0.04845929326568248 0.0 0.011477242008022285 0.0 0.0
-0.04214333395657829 0.038606458091686134 0.0 0.009850774971424909 0.0 0.0
-0.033129820449648614 0.02987027725643286 0.0 0.00829426431500444 0.0 0.0
-0.025180006307001176 0.022183155688984216 0.0 0.006707618799189602 0.0 0.0
-0.01830077561875517 0.015550236725753255 0.0 0.005091921551848459 0.0 0.0
-0.012566493024848783 0.010059951347805145 0.0 0.003571892274364887 0.0 0.0
-0.008072929515646764 0.005841808795601283 0.0 0.002301900630326756 0.0 0.0
-0.004856130945413772 0.002957960689971181 0.0 0.0013680834942866823 0.0 0.0
-0.0028582014944721367 0.0013882626827986238 0.0 0.0009677676980363601 0.0 0.0
-0.0018104978497869022 0.000784815611771969 0.0 0.001055156337785815 0.0 0.0
-0.001224236368926952 0.0005414968068320566 0.0 0.0012360409533847855 0.0 0.0
-0.0007296219321679756 0.00030165788548098236 0.0 0.0012300789583769207 0.0 0.0
-0.00028602113279142544 -1.526430232182323e-05 0.0 0.0008566259288053888 0.0 0.0
-9.152100030306014e-05 -9.156997568173411e-05 0.0 0.00045529895439951046 0.0 0.0
-0.00011718961773381472 -1.3399299510287726e-05 0.0 -0.00029513669529384283 0.0 0.0
-0.0003162124953682048 4.019741555058211e-05 0.0 -0.0005791831218295329 0.0 0.0
-0.0007925677665475017 0.0003334582139945486 0.0 -0.0008621914229823905 0.0 0.0
-0.001355541668337504 0.0005821213673026746 0.0 -0.0008578907494360884 0.0 0.0
-0.00207669434291617 0.0008889149145057844 0.0 -0.0006689464156914538 0.0 0.0
-0.003409556091758253 0.0017620034789958576 0.0 -0.0006097869028081074 0.0 0.0
-0.0058161124915514974 0.0037849197323468146 0.0 -0.0009888190740920217 0.0 0.0
-0.009512042958909011 0.00715300562639695 0.0 -0.0016602106345220656 0.0 0.0
-0.014597755715719304 0.011958429054423403 0.0 -0.00258880941355915 0.0 0.0
-0.021080505479956525 0.018181438494155926 0.0 -0.0037022773525199576 0.0 0.0
-0.028888798678348995 0.025720978932447725 0.0 -0.004890905547270653 0.0 0.0
-0.037957598850634135 0.03450415981579345 0.0 -0.0060594069131058035 0.0 0.0
-0.0482780021447634 0.0445277152573424 0.0 -0.0072216301678984865 0.0 0.0
-0.059872707275767184 0.05583425470481064 0.0 -0.008484320346485899 0.0 0.0
-0.07268818197077151 0.06839905212231884 0.0 -0.009855178382083978 0.0 0.0
-0.0864739391982493 0.08200355809051162 0.0 -0.01112940516199147 0.0 0.0
-0.10057348203091927 0.09604059912310067 0.0 -0.012009615681912708 0.0 0.0
-0.11326309508565094 0.10900301313769632 0.0 -0.0132112888425864 0.0 0.0
-0.12050646910747986 0.11736402170023821 0.0 -0.018823562197297014 0.0 0.0
-0.11572598792879074 0.11438759244826524 0.0 -0.035406871368424075 0.0 0.0
-0.10938105595106984 0.09132651316565574 0.0 9.707512571566213e-15 0.0 0.0
-0.11572598792877219 0.11438759244824812 0.0 0.03540687136845136 0.0 0.0
-0.12050646910744399 0.11736402170019919 0.0 0.01882356219732226 0.0 0.0
-0.11326309508560103 0.10900301313764398 0.0 0.013211288842600786 0.0 0.0
-0.10057348203086006 0.09604059912304877 0.0 0.012009615681915874 0.0 0.0
-0.0864739391981846 0.08200355809045448 0.0 0.011129405161989488 0.0 0.0
-0.07268818197070558 0.06839905212225798 0.0 0.00985517838207978 0.0 0.0
-0.05987270727570109 0.05583425470474283 0.0 0.00848432034647793 0.0 0.0
-0.04827800214469804 0.04452771525728131 0.0 0.007221630167892696 0.0 0.0
-0.03795759885057286 0.034504159815733335 0.0 0.006059406913097348 0.0 0.0
-0.028888798678295465 0.025720978932397304 0.0 0.00489090554725918 0.0 0.0
-0.02108050547991251 0.01818143849411008 0.0 0.003702277352510534 0.0 0.0
-0.014597755715684724 0.011958429054393992 0.0 0.0025888094135516288 0.0 0.0
-0.009512042958884206 0.007153005626372307 0.0 0.0016602106345164499 0.0 0.0
-0.005816112491536017 0.0037849197323357193 0.0 0.0009888190740891462 0.0 0.0
-0.0034095560917503254 0.0017620034789905558 0.0 0.0006097869028078256 0.0 0.0
-0.002076694342913294 0.0008889149145033823 0.0 0.0006689464156919966 0.0 0.0
-0.001355541668336322 0.0005821213673025584 0.0 0.0008578907494351937 0.0 0.0
-0.0007925677665466726 0.0003334582139931817 0.0 0.0008621914229822563 0.0 0.0
-0.0003162124953679514 4.0197415550487204e-05 0.0 0.0005791831218285569 0.0 0.0
-0.00011718961773370656 -1.3399299510172802e-05 0.0 0.000295136695294832 0.0 0.0
-0.00011717416524480205 1.380203235981844e-05 0.0 -0.00016752309099682055 0.0 0.0
-0.0003224034569010723 7.673381462181849e-05 0.0 -0.0002900653760032136 0.0 0.0
-0.0008429934839608629 0.000356147309742427 0.0 -0.00042108518681517186 0.0 0.0
-0.0014957189206253293 0.0006274274164289799 0.0 -0.00041051874630585426 0.0 0.0
-0.0023861141887506665 0.0010350860678717353 0.0 -0.0002573265569114303 0.0 0.0
-0.004020222096126529 0.0022307011184399925 0.0 -0.0002231430512102217 0.0 0.0
-0.006808799980792098 0.004667632700039595 0.0 -0.00043726980385474135 0.0 0.0
-0.010952168986221427 0.008481679350177244 0.0 -0.0007826109198325772 0.0 0.0
-0.016607828648701854 0.013849509559191606 0.0 -0.0012591202797191765 0.0 0.0
-0.023822958514556975 0.0207853997418884 0.0 -0.0018441668199245514 0.0 0.0
-0.03255378278915262 0.02922593423773058 0.0 -0.002468956682198659 0.0 0.0
-0.04274644906766728 0.03911258734273402 0.0 -0.0030923339793895764 0.0 0.0
-0.054384338648906724 0.05043298940341532 0.0 -0.003756383153414915 0.0 0.0
-0.06744016179961994 0.06318567924771909 0.0 -0.004495098505797903 0.0 0.0
-0.08176857812600849 0.07726751619468582 0.0 -0.005293959097653776 0.0 0.0
-0.09695213339142776 0.09229953625815529 0.0 -0.00602348036218229 0.0 0.0
-0.11216113567288996 0.1074677555649955 0.0 -0.006354808444643258 0.0 0.0
-0.12599763269764702 0.12135763244507708 0.0 -0.006236730942009272 0.0 0.0
-0.13541508070266756 0.13135913742923402 0.0 -0.008602967492994757 0.0 0.0
-0.13277927641412085 0.13161898870699673 0.0 -0.025632252865838052 0.0 0.0
-0.1270837720409161 0.10923063768671963 0.0 5.431419203283383e-15 0.0 0.0
-0.13277927641409923 0.1316189887069747 0.0 0.025632252865852835 0.0 0.0
-0.13541508070262642 0.13135913742919575 0.0 0.008602967493009962 0.0 0.0
-0.12599763269759032 0.12135763244501993 0.0 0.0062367309420156836 0.0 0.0
-0.1121611356728232 0.10746775556492745 0.0 0.006354808444643834 0.0 0.0
-0.09695213339135544 0.09229953625808543 0.0 0.0060234803621817875 0.0 0.0
-0.08176857812593467 0.0772675161946145 0.0 0.005293959097649828 0.0 0.0
-0.06744016179954625 0.06318567924764762 0.0 0.0044950985057950876 0.0 0.0
-0.054384338648834046 0.050432989403346486 0.0 0.003756383153411938 0.0 0.0
-0.042746449067599265 0.039112587342667565 0.0 0.0030923339793831875 0.0 0.0
-0.03255378278909328 0.029225934237674098 0.0 0.0024689566821925616 0.0 0.0
-0.023822958514508254 0.020785399741837785 0.0 0.0018441668199202206 0.0 0.0
-0.016607828648663663 0.01384950955915719 0.0 0.001259120279716334 0.0 0.0
-0.010952168986193509 0.008481679350150284 0.0 0.0007826109198298369 0.0 0.0
-0.0068087999807743575 0.004667632700026232 0.0 0.0004372698038541472 0.0 0.0
-0.004020222096117291 0.0022307011184325796 0.0 0.00022314305120966617 0.0 0.0
-0.0023861141887470743 0.0010350860678695476 0.0 0.0002573265569132047 0.0 0.0
-0.001495718920623954 0.0006274274164283353 0.0 0.0004105187463060511 0.0 0.0
-0.0008429934839601239 0.0003561473097410114 0.0 0.00042108518681390215 0.0 0.0
-0.0003224034569006274 7.673381462183699e-05 0.0 0.00029006537600404024 0.0 0.0
-0.00011717416524412618 1.3802032359760295e-05 0.0 0.0001675230909975199 0.0 0.0
-7.653662443024338e-05 1.4779459069999668e-05 0.0 -0.00010436242413086681 0.0 0.0
-0.00028777540675376 8.870211160506779e-05 0.0 -0.00012043192930961312 0.0 0.0
-0.0008746325368103767 0.00036445358955132566 0.0 -0.00014265594488460653 0.0 0.0
-0.0016605482055198106 0.0006524876434344218 0.0 -0.00011461740235613363 0.0 0.0
-0.002750954162135982 0.0011230976320334234 0.0 8.103001509390128e-05 0.0 0.0
-0.004676079387649234 0.002484556859266127 0.0 0.00025563398154241474 0.0 0.0
-0.007815478692109525 0.005118191266573725 0.0 0.00032430756353499094 0.0 0.0
-0.012379255413439672 0.009148513627112427 0.0 0.0003497892574978582 0.0 0.0
-0.018577837852734674 0.014789989164195766 0.0 0.00033776922852859635 0.0 0.0
-0.02650603481923571 0.022077700318804846 0.0 0.00026162835737302773 0.0 0.0
-0.03615489213605734 0.03096690773516163 0.0 0.0001656610427180358 0.0 0.0
-0.04748159422011913 0.041408657386367946 0.0 4.838757174664308e-05 0.0 0.0
-0.060431043919626594 0.053379244852080676 0.0 -0.00014323424963692908 0.0 0.0
-0.07492619001214446 0.06684930181822639 0.0 -0.0003792813519114639 0.0 0.0
-0.09074736318973409 0.08168414732145177 0.0 -0.0007134131143194744 0.0 0.0
-0.10731566335434531 0.0974234809240084 0.0 -0.0011096247449525459 0.0 0.0
-0.12353862353106827 0.11312180256919474 0.0 -0.0013995753712513024 0.0 0.0
-0.13783767179401996 0.12732590138191657 0.0 -0.0013106848218995687 0.0 0.0
-0.14845626550127694 0.13793167675861412 0.0 -0.0021595637850856334 0.0 0.0
-0.15103142104411285 0.1405097344160262 0.0 -0.01867082788565244 0.0 0.0
-0.14943374764713568 0.11926692433814808 0.0 1.8318679906315083e-15 0.0 0.0
-0.15103142104408881 0.14050973441599746 0.0 0.01867082788565949 0.0 0.0
-0.14845626550123026 0.13793167675857887 0.0 0.00215956378509001 0.0 0.0
-0.13783767179395467 0.12732590138185185 0.0 0.0013106848218990535 0.0 0.0
-0.12353862353099243 0.11312180256911697 0.0 0.0013995753712507056 0.0 0.0
-0.10731566335426573 0.09742348092393135 0.0 0.0011096247449544593 0.0 0.0
-0.09074736318965265 0.08168414732137119 0.0 0.0007134131143171213 0.0 0.0
-0.07492619001206202 0.06684930181815248 0.0 0.00037928135190898153 0.0 0.0
-0.060431043919546484 0.05337924485200089 0.0 0.00014323424963597585 0.0 0.0
-0.0474815942200446 0.041408657386297336 0.0 -4.8387571750552714e-05 0.0 0.0
-0.03615489213599265 0.030966907735101645 0.0 -0.0001656610427206986 0.0 0.0
-0.026506034819182962 0.02207770031875268 0.0 -0.00026162835737564196 0.0 0.0
-0.01857783785269315 0.014789989164157212 0.0 -0.00033776922852807615 0.0 0.0
-0.0123792554134089 0.009148513627085865 0.0 -0.00034978925749949035 0.0 0.0
-0.007815478692089418 0.005118191266557468 0.0 -0.0003243075635340051 0.0 0.0
-0.004676079387638546 0.002484556859256498 0.0 -0.00025563398154272905 0.0 0.0
-0.002750954162131592 0.001123097632031531 0.0 -8.103001509211674e-05 0.0 0.0
-0.0016605482055181877 0.0006524876434330192 0.0 0.00011461740235651504 0.0 0.0
-0.0008746325368093136 0.0003644535895499122 0.0 0.00014265594488226997 0.0 0.0
-0.0002877754067532498 8.87021116048294e-05 0.0 0.00012043192931216695 0.0 0.0
-7.653662443008437e-05 1.4779459069915425e-05 0.0 0.00010436242413077316 0.0 0.0
SCALARS Statev float 8
LOOKUP_TABLE default
0.0 0.016977885022992245 0.013561991799460188 -0.016231532882873996 0.0026695410834138107 -0.0007969577790247702 0.0 0.0
0.0 0.005612557866698821 0.004094232273606322 -0.0024710972493608057 -0.0016231350242455172 -0.00643740543400778 0.0 0.0
0.0 6.476951376015179e-05 0.00010999803634222707 -6.920800373590886e-05 -4.079003260631838e-05 -0.00022479690215842065 0.0 0.0
0.0 0.00012500104197327237 4.108035994567963e-05 -2.9413565382670095e-05 -1.1666794563009663e-05 1.4808374207451441e-05 0.0 0.0
0.0 0.0007816866344257572 0.0004736227087103107 -0.0003445208178541999 -0.00012910189085611117 0.00010461336554406813 0.0 0.0
0.0 0.001971408712113674 0.001983088391102884 -0.0015518713446670373 -0.0004312170464358468 0.00022004094532495567 0.0 0.0
0.0 0.0051163852604670535 0.004713834162109401 -0.003974985199715208 -0.0007388489623941874 0.00031019657070341535 0.0 0.0
0.0 0.009852396798860626 0.008941692426323984 -0.007948123073646339 -0.0009935693526776492 0.00035592924306710816 0.0 0.0
0.0 0.016516593888089133 0.014809206617515346 -0.01360260420743151 -0.0012066024100838223 0.0003608601557636428 0.0 0.0
0.0 0.025216230510671008 0.022384919478310648 -0.020956668779188486 -0.0014282506991222096 0.0003064858741268695 0.0 0.0
0.0 0.035926376630261186 0.03165848628966143 -0.02997445322220149 -0.0016840330674598863 0.0002295103539888918 0.0 0.0
0.0 0.04827780321546407 0.04259822631259763 -0.04061908794003516 -0.001979138372562477 0.00012449611135813287 0.0 0.0
0.0 0.06257786442495888 0.05515903740543664 -0.05285446244634155 -0.002304574959095111 -5.894921787650154e-05 0.0 0.0
0.0 0.07871104755803973 0.06929344146223344 -0.06664426941877616 -0.0026491720434572326 -0.0002691340247487615 0.0 0.0
0.0 0.09653906644705551 0.08487678074211591 -0.08188088349193115 -0.002995897250184606 -0.0005517337463243556 0.0 0.0
0.0 0.11569011886773534 0.10154760030902829 -0.09822120867322554 -0.0033263916358028025 -0.0009111682889139446 0.0 0.0
0.0 0.13530430107893807 0.11859087464798404 -0.1149676128088584 -0.003623261839125577 -0.0012852989182856813 0.0 0.0
0.0 0.15411166197220597 0.13491604072990235 -0.13104743798103735 -0.0038686027488648907 -0.0015311988583680512 0.0 0.0
0.0 0.17052339387133497 0.14915508733128052 -0.14510040579474634 -0.004054681536534157 -0.001472439785792597 0.0 0.0
0.0 0.18247458502260783 0.15970892857802266 -0.15554971929633488 -0.004159209281687998 -0.001537837622787417 0.0 0.0
0.0 0.18735347194766588 0.16389967537095018 -0.15975486502916042 -0.004144810341789648 2.0278917434168875e-15 0.0 0.0
0.0 0.18247458502258693 0.1597089285780043 -0.15554971929631667 -0.004159209281687508 0.001537837622794881 0.0 0.0
0.0 0.17052339387128929 0.14915508733123994 -0.14510040579470795 -0.004054681536532085 0.0014724397857999103 0.0 0.0
0.0 0.15411166197213763 0.1349160407298423 -0.13104743798097934 -0.00386860274886298 0.0015311988583710445 0.0 0.0
0.0 0.13530430107885927 0.11859087464791485 -0.11496761280879209 -0.0036232618391227444 0.0012852989182846053 0.0 0.0
0.0 0.1156901188676502 0.1015476003089536 -0.09822120867315205 -0.003326391635801681 0.0009111682889109711 0.0 0.0
0.0 0.09653906644697197 0.08487678074204258 -0.0818808834918604 -0.0029958972501820794 0.0005517337463236348 0.0 0.0
0.0 0.07871104755795713 0.0692934414621611 -0.06664426941870565 -0.0026491720434554823 0.0002691340247473351 0.0 0.0
0.0 0.06257786442487648 0.055159037405364576 -0.05285446244627165 -0.002304574959092884 5.894921787422862e-05 0.0 0.0
0.0 0.048277803215384836 0.04259822631252813 -0.04061908793996721 -0.001979138372560891 -0.00012449611136011425 0.0 0.0
0.0 0.03592637663019462 0.03165848628960315 -0.02997445322214467 -0.0016840330674584585 -0.00022951035399019896 0.0 0.0
0.0 0.02521623051061789 0.022384919478264133 -0.020956668779143418 -0.001428250699120745 -0.00030648587412843815 0.0 0.0
0.0 0.016516593888048818 0.014809206617479571 -0.013602604207397034 -0.0012066024100825148 -0.00036086015576393117 0.0 0.0
0.0 0.009852396798832933 0.008941692426298845 -0.007948123073622426 -0.0009935693526764292 -0.0003559292430667402 0.0 0.0
0.0 0.005116385260449418 0.004713834162092615 -0.003974985199699929 -0.0007388489623926826 -0.00031019657070334254 0.0 0.0
0.0 0.001971408712105446 0.0019830883910943843 -0.001551871344660003 -0.00043121704643438066 -0.00022004094532408438 0.0 0.0
0.0 0.0007816866344217739 0.0004736227087076049 -0.000344520817852232 -0.00012910189085537158 -0.0001046133655434543 0.0 0.0
0.0 0.0001250010419720901 4.10803599453693e-05 -2.941356538245014e-05 -1.1666794562918634e-05 -1.4808374207348042e-05 0.0 0.0
0.0 6.476951375949102e-05 0.0001099980363417859 -6.920800373561963e-05 -4.079003260616575e-05 0.00022479690215738185 0.0 0.0
0.0 0.005612557866689018 0.00409423227360117 -0.002471097249357125 -0.001623135024244043 0.006437405433998713 0.0 0.0
0.0 0.016977885022972247 0.01356199179944665 -0.01623153288285524 0.0026695410834085827 0.00079695777898928 0.0 0.0
0.0 0.013770298881204835 0.010267305080730812 -0.013356016753579345 0.0030887116728485257 -0.0003257809385389637 0.0 0.0
0.0 0.0033690058358159507 0.0024121533081217046 -0.0014275313072588352 -0.0009846220008628657 -0.004971592701193455 0.0 0.0
0.0 -5.771556591582262e-05 -5.98566647039411e-05 5.183938740255904e-05 8.017277301382087e-06 -5.278923873630017e-05 0.0 0.0
0.0 1.917233887988799e-05 1.0760224596827475e-05 -7.746167388172632e-06 -3.0140572086548592e-06 7.048008944410057e-06 0.0 0.0
0.0 0.0003974187974383252 0.00029124507421572843 -0.00021349909325950848 -7.774598095621954e-05 4.29590591397696e-05 0.0 0.0
0.0 0.0017357742488096578 0.0014819065031338148 -0.001170442714292116 -0.00031146378884170083 5.2990469637611155e-05 0.0 0.0
0.0 0.0043043522136220445 0.0039628434520032575 -0.0033789162859722906 -0.0005839271660309628 -0.00014977417003962987 0.0 0.0
0.0 0.008696259253755076 0.007833657507195666 -0.007054631182944916 -0.0007790263242507582 -0.00048767084906105784 0.0 0.0
0.0 0.014912488684240098 0.013244428045490666 -0.012339823170510581 -0.0009046048749800716 -0.0009592723972121786 0.0 0.0
0.0 0.02295234222693355 0.020225925950466694 -0.019219491616083013 -0.0010064343343836677 -0.001536321385143277 0.0 0.0
0.0 0.032795609589847605 0.028737267620125132 -0.02763093639771158 -0.001106331222413584 -0.002161338511755337 0.0 0.0
0.0 0.04448931197934472 0.03873267633227166 -0.03752286916836875 -0.0012098071639028618 -0.0027975459532675498 0.0 0.0
0.0 0.05743780579739541 0.05020690790542995 -0.04889036262403189 -0.001316545281397992 -0.0034802099865501985 0.0 0.0
0.0 0.07236024163296725 0.06313998012399406 -0.061720424726924315 -0.0014195553970697433 -0.004222034254162092 0.0 0.0
0.0 0.08884245106637462 0.07743152529816322 -0.07592384806714507 -0.0015076772310180777 -0.005008516038156939 0.0 0.0
0.0 0.10655269955258571 0.09276378611228311 -0.0911924802774446 -0.0015713058348385983 -0.005786743727680694 0.0 0.0
0.0 0.12477475216850492 0.10849263145225385 -0.10688819384039688 -0.001604437611856849 -0.006370791441766857 0.0 0.0
0.0 0.1423572826395289 0.12362784687970169 -0.12201974317403597 -0.00160810370566573 -0.006449934617477917 0.0 0.0
0.0 0.15773179309594035 0.13686070102958442 -0.13527962130826515 -0.0015810797213192578 -0.005773614538729508 0.0 0.0
0.0 0.16893551737983967 0.14644378156007917 -0.144964518198614 -0.0014792633614650573 -0.004659895345440103 0.0 0.0
0.0 0.17363104804959195 0.15016185295686768 -0.14884158505840284 -0.001320267898464917 5.549380399649806e-15 0.0 0.0
0.0 0.16893551737981957 0.1464437815600613 -0.1449645181985965 -0.00147926336146474 0.004659895345456029 0.0 0.0
0.0 0.15773179309589735 0.13686070102954684 -0.13527962130822824 -0.0015810797213185173 0.005773614538746304 0.0 0.0
0.0 0.14235728263946587 0.1236278468796472 -0.12201974317398159 -0.0016081037056654736 0.006449934617486693 0.0 0.0
0.0 0.12477475216843234 0.10849263145219107 -0.10688819384033509 -0.001604437611855985 0.006370791441767791 0.0 0.0
0.0 0.10655269955250815 0.09276378611221588 -0.0911924802773775 -0.0015713058348382236 0.005786743727675294 0.0 0.0
0.0 0.0888424510662965 0.07743152529809504 -0.07592384806707797 -0.0015076772310171484 0.005008516038154953 0.0 0.0
0.0 0.07236024163288969 0.06313998012392671 -0.061720424726857605 -0.0014195553970690368 0.004222034254159868 0.0 0.0
0.0 0.05743780579731905 0.05020690790536365 -0.048890362623966566 -0.001316545281397107 0.003480209986546243 0.0 0.0
0.0 0.04448931197927204 0.03873267633220835 -0.03752286916830583 -0.0012098071639024995 0.0027975459532630365 0.0 0.0
0.0 0.03279560958978553 0.028737267620071325 -0.027630936397658325 -0.0011063312224130093 0.0021613385117491535 0.0 0.0
0.0 0.022952342226885372 0.020225925950424134 -0.019219491616041175 -0.001006434334382949 0.0015363213851386816 0.0 0.0
0.0 0.0149124886842019 0.01324442804545656 -0.012339823170477203 -0.0009046048749793622 0.0009592723972092481 0.0 0.0
0.0 0.008696259253729322 0.00783365750717239 -0.007054631182922447 -0.0007790263242499471 0.00048767084905875267 0.0 0.0
0.0 0.0043043522136069655 0.003962843451989171 -0.0033789162859593474 -0.0005839271660298201 0.00014977417003823613 0.0 0.0
0.0 0.0017357742488019617 0.0014819065031271051 -0.0011704427142865139 -0.0003114637888405912 -5.299046963773294e-05 0.0 0.0
0.0 0.00039741879743557826 0.0002912450742139788 -0.0002134990932582313 -7.774598095574782e-05 -4.2959059139412476e-05 0.0 0.0
0.0 1.9172338879310097e-05 1.0760224596948218e-05 -7.746167388266783e-06 -3.0140572086812634e-06 -7.048008944386478e-06 0.0 0.0
0.0 -5.771556591559351e-05 -5.9856664703680496e-05 5.1839387402322105e-05 8.017277301358235e-06 5.278923873605891e-05 0.0 0.0
0.0 0.003369005835806232 0.0024121533081164492 -0.001427531307255171 -0.0009846220008612784 0.00497159270118277 0.0 0.0
0.0 0.013770298881183536 0.010267305080714516 -0.013356016753558684 0.00308871167284416 0.00032578093851265904 0.0 0.0
0.0 0.01016975916346912 0.007419180970324605 -0.009926734517835973 0.002507553547511362 -0.00261739013932338 0.0 0.0
0.0 0.0023427528397407258 0.0014826673388569508 -0.0007871877930715648 -0.0006954795457853863 -0.004035485894255706 0.0 0.0
0.0 4.029269664158582e-08 1.0032449755816921e-08 -8.662648602047646e-09 -1.3698011537694324e-09 8.352546783565895e-09 0.0 0.0
0.0 -3.2291912150984552e-06 -4.773997076775732e-06 3.7139675901739394e-06 1.0600294866016662e-06 1.904002122844116e-06 0.0 0.0
0.0 0.00014992518769443614 0.00011600226577161381 -8.236397195431938e-05 -3.363829381729488e-05 1.5295856099234277e-05 0.0 0.0
0.0 0.0012053436243247917 0.0009696678010582619 -0.0007461933943896901 -0.00022347440666857098 -4.3025467953972496e-05 0.0 0.0
0.0 0.003272036099721702 0.0030757658404197137 -0.0025675479071092314 -0.0005082179333104843 -0.00044426466170249113 0.0 0.0
0.0 0.007201577038156316 0.006495234036455416 -0.005772305713590835 -0.0007229283228645748 -0.0011094758514502891 0.0 0.0
0.0 0.012742824494361172 0.011337805013181665 -0.010479306117434379 -0.0008584988957472851 -0.0020233715661878027 0.0 0.0
0.0 0.020008915321179214 0.017590384605480226 -0.016632751563133166 -0.0009576330423470723 -0.003123492385958925 0.0 0.0
0.0 0.02883389867810289 0.02518332064782899 -0.024132116445148212 -0.0010512042026807652 -0.0043140583542623425 0.0 0.0
0.0 0.039036676322857344 0.03406132268881452 -0.03291299283208864 -0.0011483298567258632 -0.005508737207015722 0.0 0.0
0.0 0.050965777047694165 0.04422283671223685 -0.042974423506720205 -0.0012484132055166604 -0.006711573548561056 0.0 0.0
0.0 0.06395770895878757 0.055701832728654116 -0.054357146530018385 -0.0013446861986356798 -0.008005767942563623 0.0 0.0
0.0 0.07867166705178856 0.06842875950623052 -0.0670010169446303 -0.001427742561600248 -0.009392419311162586 0.0 0.0
0.0 0.09452587423343874 0.08214359512733059 -0.08065493057175825 -0.001488664555572259 -0.010735551298558826 0.0 0.0
0.0 0.11091376318186547 0.09630764429465116 -0.09478426679808684 -0.0015233774965644096 -0.011719265459098129 0.0 0.0
0.0 0.12681447036586851 0.1100490165762154 -0.10852066477385877 -0.0015283518023565949 -0.011861668198548657 0.0 0.0
0.0 0.1407985726452446 0.12210542459033731 -0.12061575168125127 -0.0014896729090859747 -0.010769275461385085 0.0 0.0
0.0 0.1509605167853884 0.1308294945544544 -0.12940639941478904 -0.0014230951396652157 -0.008349061797066461 0.0 0.0
0.0 0.15539033453821663 0.13431088527723642 -0.1330813509935727 -0.0012295342836636637 1.1904106173021844e-14 0.0 0.0
0.0 0.15096051678537092 0.13082949455443763 -0.12940639941477328 -0.0014230951396644919 0.008349061797095617 0.0 0.0
0.0 0.14079857264520404 0.12210542459030184 -0.12061575168121588 -0.0014896729090860459 0.010769275461414596 0.0 0.0
0.0 0.1268144703658128 0.11004901657616722 -0.10852066477381038 -0.001528351802356727 0.01186166819856601 0.0 0.0
0.0 0.11091376318179992 0.09630764429459487 -0.09478426679803097 -0.0015233774965639057 0.011719265459099725 0.0 0.0
0.0 0.09452587423336836 0.08214359512726946 -0.08065493057169754 -0.0014886645555719068 0.01073555129855307 0.0 0.0
0.0 0.0786716670517177 0.06842875950616918 -0.06700101694456938 -0.0014277425615998325 0.009392419311160048 0.0 0.0
0.0 0.06395770895871807 0.05570183272859347 -0.05435714652995874 -0.0013446861986347437 0.008005767942559716 0.0 0.0
0.0 0.05096577704762354 0.04422283671217587 -0.04297442350665941 -0.001248413205516463 0.006711573548553873 0.0 0.0
0.0 0.03903667632279205 0.034061322688758125 -0.03291299283203253 -0.0011483298567255564 0.005508737207006858 0.0 0.0
0.0 0.028833898678047927 0.025183320647780897 -0.02413211644510057 -0.0010512042026803322 0.004314058354252399 0.0 0.0
0.0 0.02000891532113702 0.01759038460544287 -0.0166327515630964 -0.0009576330423464643 0.0031234923859508384 0.0 0.0
0.0 0.01274282449432604 0.011337805013150636 -0.010479306117403928 -0.0008584988957467188 0.0020233715661817533 0.0 0.0
0.0 0.007201577038131971 0.006495234036433877 -0.005772305713570175 -0.0007229283228636947 0.0011094758514455694 0.0 0.0
0.0 0.0032720360997090304 0.0030757658404077194 -0.0025675479070985468 -0.0005082179333091721 0.0004442646617000295 0.0 0.0
0.0 0.0012053436243188791 0.0009696678010533817 -0.0007461933943858123 -0.00022347440666756896 4.3025467953484456e-05 0.0 0.0
0.0 0.000149925187692633 0.00011600226577068517 -8.236397195365279e-05 -3.363829381703233e-05 -1.5295856099098423e-05 0.0 0.0
0.0 -3.2291912153259784e-06 -4.77399707670318e-06 3.7139675901185646e-06 1.0600294865846391e-06 -1.9040021228272816e-06 0.0 0.0
0.0 4.029269663090157e-08 1.0032449768663882e-08 -8.662648612765093e-09 -1.3698011558985099e-09 -8.35254679151115e-09 0.0 0.0
0.0 0.002342752839732791 0.0014826673388521243 -0.000787187793068323 -0.0006954795457837998 0.004035485894243406 0.0 0.0
0.0 0.010169759163447286 0.007419180970308429 -0.009926734517815288 0.002507553547506861 0.0026173901393057894 0.0 0.0
0.0 0.007643097544356485 0.0054247972973828235 -0.007415258021040748 0.001990460723657909 -0.0028648403592432224 0.0 0.0
0.0 0.0016562513936248307 0.000982524720534922 -0.0005053252173067594 -0.0004771995032281603 -0.0029883289431891897 0.0 0.0
0.0 0.0 0.0 0.0 0.0 0.0 0.0 0.0
0.0 -6.128322155664971e-07 -2.393299036049733e-07 2.0253235392532347e-07 3.6797549679646295e-08 1.9957458549459221e-07 0.0 0.0
0.0 3.89809314955151e-05 1.6231392595473205e-05 -9.753029334249727e-06 -6.478363261223212e-06 1.2987825799158197e-05 0.0 0.0
0.0 0.0006641674993139023 0.0005688972356646579 -0.0004270239792580009 -0.00014187325640665623 -9.080632640011608e-05 0.0 0.0
0.0 0.0025329051320958675 0.002216107492304845 -0.0018038209189961624 -0.00041228657330868117 -0.0005401582138288638 0.0 0.0
0.0 0.005748964756187725 0.005175603980657716 -0.004523208340796263 -0.0006523956398614541 -0.0014886419286996842 0.0 0.0
0.0 0.010645478386750656 0.00942682269599502 -0.008623084595838658 -0.0008037381001563566 -0.0027447962394044783 0.0 0.0
0.0 0.017067208681669686 0.014934434401417292 -0.0140304367918633 -0.0009039976095539942 -0.004250521285660622 0.0 0.0
0.0 0.024794030443397355 0.02160342425267794 -0.020611735489377288 -0.0009916887633006437 -0.0058709934993889275 0.0 0.0
0.0 0.03387486260142189 0.029363979902552555 -0.02828223905604929 -0.0010817408465032532 -0.007491242262587504 0.0 0.0
0.0 0.04401171517449273 0.03822635362457353 -0.037050755556335045 -0.0011755980682385235 -0.009110539325824606 0.0 0.0
0.0 0.055836951274559024 0.04823197961264141 -0.046967430674387176 -0.0012645489382542092 -0.010812401279253881 0.0 0.0
0.0 0.06863436474448101 0.059372730358499305 -0.05803080041224548 -0.0013419299462537608 -0.012626009753058762 0.0 0.0
0.0 0.08243910264451865 0.0714582950793964 -0.07005609790409878 -0.0014021971752976351 -0.014400949383196786 0.0 0.0
0.0 0.09708767694516938 0.08405026813253356 -0.08261169654212636 -0.0014385715904071785 -0.015736287207409338 0.0 0.0
0.0 0.1113774581205146 0.09639979047775707 -0.09495614101191988 -0.001443649465837126 -0.01604546359352264 0.0 0.0
0.0 0.12403787442883066 0.10736399647293918 -0.10595161858458986 -0.0014123778883492956 -0.0147163581674154 0.0 0.0
0.0 0.13338345980386818 0.11548372299169349 -0.11411974159035411 -0.0013639814013395308 -0.011030420689647262 0.0 0.0
0.0 0.13779497453921147 0.11891248208155553 -0.11782025208206633 -0.0010922299994892454 1.6325048951548737e-14 0.0 0.0
0.0 0.1333834598038518 0.11548372299167765 -0.11411974159033826 -0.0013639814013393097 0.011030420689686276 0.0 0.0
0.0 0.12403787442879657 0.1073639964729087 -0.10595161858455952 -0.0014123778883491185 0.014716358167452523 0.0 0.0
0.0 0.11137745812046476 0.09639979047771369 -0.09495614101187572 -0.0014436494658380112 0.016045463593545452 0.0 0.0
0.0 0.09708767694511294 0.08405026813248499 -0.08261169654207824 -0.0014385715904067574 0.01573628720741173 0.0 0.0
0.0 0.08243910264445506 0.07145829507934143 -0.070056097904044 -0.0014021971752974033 0.014400949383190108 0.0 0.0
0.0 0.06863436474441915 0.0593727303584454 -0.05803080041219232 -0.0013419299462530997 0.01262600975305388 0.0 0.0
0.0 0.05583695127449564 0.04823197961258627 -0.046967430674332435 -0.0012645489382538272 0.010812401279247536 0.0 0.0
0.0 0.0440117151744288 0.03822635362451887 -0.03705075555628029 -0.0011755980682385465 0.009110539325814628 0.0 0.0
0.0 0.0338748626013662 0.029363979902503983 -0.02828223905600124 -0.0010817408465027703 0.0074912422625748884 0.0 0.0
0.0 0.024794030443350615 0.021603424252637334 -0.02061173548933705 -0.0009916887633002758 0.005870993499376736 0.0 0.0
0.0 0.017067208681630613 0.014934434401383156 -0.014030436791829895 -0.0009039976095532409 0.00425052128564884 0.0 0.0
0.0 0.010645478386720104 0.009426822695968413 -0.008623084595812607 -0.0008037381001558005 0.002744796239396166 0.0 0.0
0.0 0.00574896475616722 0.005175603980638948 -0.004523208340778489 -0.0006523956398604563 0.001488641928693109 0.0 0.0
0.0 0.0025329051320835214 0.0022161074922944926 -0.0018038209189871702 -0.0004122865733073219 0.0005401582138255492 0.0 0.0
0.0 0.0006641674993093128 0.0005688972356612897 -0.00042702397925541174 -0.00014187325640587837 9.08063263994532e-05 0.0 0.0
0.0 3.898093149440755e-05 1.6231392595259166e-05 -9.75302933411287e-06 -6.478363261146329e-06 -1.29878257989706e-05 0.0 0.0
0.0 -6.128322154721217e-07 -2.3932990365223864e-07 2.0253235396212017e-07 3.6797549690130405e-08 -1.9957458552987656e-07 0.0 0.0
0.0 0.0 0.0 0.0 0.0 0.0 0.0 0.0
0.0 0.0016562513936176878 0.0009825247205307859 -0.0005053252173039737 -0.0004771995032268146 0.002988328943178274 0.0 0.0
0.0 0.007643097544338341 0.005424797297368673 -0.007415258021022443 0.001990460723653778 0.002864840359230589 0.0 0.0
0.0 0.005535438667705229 0.0039103468057457074 -0.0054406806458238074 0.0015303338400781035 -0.0024716603686013184 0.0 0.0
0.0 0.0013202858489806113 0.0006209315663408066 -0.0003066886313778036 -0.0003142429349630025 -0.0020797951457988966 0.0 0.0
0.0 0.0 0.0 0.0 0.0 0.0 0.0 0.0
0.0 -1.7918878968638495e-07 1.6580370838373166e-08 -1.3354665710081564e-08 -3.22570512829003e-09 -1.9972891801069645e-08 0.0 0.0
0.0 -1.884393281437705e-05 -9.174819692320307e-06 7.785553707083232e-06 1.3892659852370663e-06 1.236823936715556e-05 0.0 0.0
0.0 0.0003352086457988336 0.000253429933812613 -0.00018524022013717548 -6.81897136754374e-05 -6.065690184630293e-05 0.0 0.0
0.0 0.0018126133428950889 0.0014571154959574404 -0.001154424078175845 -0.0003026914177815938 -0.0005288690265058808 0.0 0.0
0.0 0.004369523967958937 0.0038953533086014125 -0.003329759969153293 -0.000565593339448124 -0.0015848025446189814 0.0 0.0
0.0 0.008585904095514773 0.007535033108622268 -0.006798377935464089 -0.0007366551731581796 -0.003115844544650841 0.0 0.0
0.0 0.014124926214373135 0.012282227775511408 -0.011439412704305868 -0.0008428150712055425 -0.004910209804515748 0.0 0.0
0.0 0.02084746122344809 0.018020067923594243 -0.017093347200262444 -0.0009267207233318037 -0.006832214581861742 0.0 0.0
0.0 0.028642437781800777 0.024666545767606567 -0.02365683579631908 -0.0010097099712874757 -0.008746299279465174 0.0 0.0
0.0 0.03756316382481642 0.03222628296625923 -0.031130402659234654 -0.0010958803070245315 -0.01065166417918966 0.0 0.0
0.0 0.04729610702541288 0.04076975773248404 -0.03959044940801161 -0.0011793083244724168 -0.012639762225429285 0.0 0.0
0.0 0.05849555463552034 0.05031058396363362 -0.049059200080800745 -0.001251383882832901 -0.014733041738113071 0.0 0.0
0.0 0.07069300637456549 0.06073547619081767 -0.05942735231349372 -0.0013081238773239355 -0.016771167260192853 0.0 0.0
0.0 0.08327728189564264 0.07172660226675587 -0.07037955523422124 -0.0013470470325345962 -0.018375146720189976 0.0 0.0
0.0 0.09591206440960677 0.08267390701417503 -0.08131462359610243 -0.0013592834180726492 -0.01892669216353016 0.0 0.0
0.0 0.10736000452323444 0.09261856954854923 -0.09128029018949299 -0.001338279359056218 -0.017526773219663748 0.0 0.0
0.0 0.1161389236771698 0.10029587391514545 -0.09899889056881 -0.0012969833463353016 -0.013042432091357716 0.0 0.0
0.0 0.12068584990811562 0.10377899763834386 -0.10285029417404028 -0.0009287034643035948 1.860621032245824e-14 0.0 0.0
0.0 0.1161389236771533 0.10029587391512934 -0.09899889056879321 -0.0012969833463360057 0.013042432091401483 0.0 0.0
0.0 0.10736000452320402 0.09261856954852113 -0.09128029018946524 -0.0013382793590558664 0.017526773219705354 0.0 0.0
0.0 0.09591206440956336 0.08267390701413699 -0.08131462359606345 -0.0013592834180735389 0.018926692163555914 0.0 0.0
0.0 0.08327728189559601 0.07172660226671564 -0.0703795552341817 -0.0013470470325339192 0.018375146720194108 0.0 0.0
0.0 0.07069300637451338 0.06073547619077249 -0.05942735231344881 -0.0013081238773236038 0.01677116726018555 0.0 0.0
0.0 0.058495554635469814 0.05031058396358954 -0.04905920008075743 -0.0012513838828320954 0.014733041738107033 0.0 0.0
0.0 0.04729610702535765 0.0407697577324362 -0.03959044940796396 -0.001179308324472229 0.01263976222542221 0.0 0.0
0.0 0.03756316382476473 0.032226282966214465 -0.03113040265919028 -0.001095880307024159 0.010651664179178736 0.0 0.0
0.0 0.028642437781753696 0.024666545767565665 -0.02365683579627891 -0.001009709971286748 0.008746299279451024 0.0 0.0
0.0 0.02084746122340869 0.01802006792356038 -0.017093347200229293 -0.0009267207233310978 0.006832214581846904 0.0 0.0
0.0 0.014124926214337228 0.012282227775480686 -0.011439412704275544 -0.0008428150712051356 0.004910209804501042 0.0 0.0
0.0 0.008585904095488019 0.007535033108598898 -0.0067983779354415024 -0.0007366551731573919 0.003115844544640848 0.0 0.0
0.0 0.0043695239679434434 0.0038953533085876596 -0.003329759969140603 -0.0005655933394470572 0.0015848025446127145 0.0 0.0
0.0 0.0018126133428858068 0.00145711549595014 -0.0011544240781697578 -0.00030269141778038375 0.0005288690265028521 0.0 0.0
0.0 0.0003352086457950959 0.00025342993381012867 -0.00018524022013532044 -6.818971367480767e-05 6.065690184530595e-05 0.0 0.0
0.0 -1.8843932814598167e-05 -9.174819691970785e-06 7.785553706811253e-06 1.3892659851594694e-06 -1.2368239366800121e-05 0.0 0.0
0.0 -1.7918878958620634e-07 1.6580370829333657e-08 -1.3354665703083526e-08 -3.225705126253981e-09 1.9972891788994082e-08 0.0 0.0
0.0 0.0 0.0 0.0 0.0 0.0 0.0 0.0
0.0 0.0013202858489739795 0.0006209315663375991 -0.0003066886313756366 -0.0003142429349619608 0.002079795145790052 0.0 0.0
0.0 0.005535438667690215 0.00391034680573395 -0.005440680645808354 0.0015303338400743949 0.0024716603685923755 0.0 0.0
0.0 0.003980107418394589 0.002710559169294657 -0.003830709559431998 0.0011201503901373418 -0.0019338653517463875 0.0 0.0
0.0 0.0007631702667466546 0.0003677747802752527 -0.00017147324363859249 -0.00019630153663666045 -0.0013640746338605464 0.0 0.0
0.0 0.0 0.0 0.0 0.0 0.0 0.0 0.0
0.0 -4.2819074672083497e-07 3.2598703140169964e-08 -2.4906694850939358e-08 -7.692008289230642e-09 -6.631307165159322e-08 0.0 0.0
0.0 -9.260073354181881e-06 -7.66909247459395e-06 6.104569853845062e-06 1.5645226207488984e-06 1.064382955547485e-05 0.0 0.0
0.0 8.29736884283355e-05 7.764573855607791e-05 -5.45085188121382e-05 -2.3137219743939755e-05 -2.2052148899634598e-05 0.0 0.0
0.0 0.0009728867820437343 0.0008593947567926513 -0.0006637663992568781 -0.00019562835753577412 -0.0004645372321714515 0.0 0.0
0.0 0.0033534319854996407 0.002682922325938685 -0.0022326879934913163 -0.00045023433244736747 -0.0014499412540583073 0.0 0.0
0.0 0.006457185186880248 0.005687902951575547 -0.005036334823607969 -0.0006515681279675789 -0.0031073111392292173 0.0 0.0
0.0 0.011263939168322613 0.009657242770651307 -0.00888728063539681 -0.0007699621352544967 -0.005090951656001455 0.0 0.0
0.0 0.016916616271210126 0.014458590862607854 -0.013604950770640938 -0.000853640091966912 -0.007186243150829688 0.0 0.0
0.0 0.02342727608646818 0.019993585651003926 -0.019062895728648208 -0.0009306899223557089 -0.009269803207908687 0.0 0.0
0.0 0.030790573940485406 0.026260463024297076 -0.025250737462241043 -0.0010097255620560622 -0.011328451939289063 0.0 0.0
0.0 0.039169294608623395 0.03333375166643684 -0.032248200971452 -0.0010855506949848538 -0.013456421431432641 0.0 0.0
0.0 0.04840739006965337 0.04127491244616461 -0.04012200496657758 -0.0011529074795870202 -0.015691715276602066 0.0 0.0
0.0 0.05848065149907692 0.05002750526885508 -0.04882007327752101 -0.0012074319913340614 -0.017866975833063094 0.0 0.0
0.0 0.06962112286441996 0.05936332482472297 -0.05811625129898557 -0.001247073525737379 -0.01962167782011419 0.0 0.0
0.0 0.08051128616884368 0.06886494940122811 -0.06759509050067468 -0.0012698589005534623 -0.02039443303457677 0.0 0.0
0.0 0.0905944945495096 0.07781691916287382 -0.07655417119329137 -0.0012627479695824825 -0.01917154591425296 0.0 0.0
0.0 0.09897996797284976 0.0851507313260268 -0.0839262506239457 -0.0012244807020810428 -0.014456738236982175 0.0 0.0
0.0 0.10380852086895047 0.088770569096253 -0.08802880989835364 -0.000741759197899334 1.9080657193137895e-14 0.0 0.0
0.0 0.0989799679728355 0.08515073132601178 -0.08392625062393048 -0.0012244807020814032 0.014456738237025075 0.0 0.0
0.0 0.0905944945494817 0.07781691916284748 -0.07655417119326428 -0.0012627479695832141 0.019171545914295762 0.0 0.0
0.0 0.08051128616880833 0.06886494940119625 -0.0675950905006429 -0.001269858900553289 0.02039443303460297 0.0 0.0
0.0 0.06962112286438021 0.05936332482468859 -0.05811625129895206 -0.0012470735257365327 0.01962167782011925 0.0 0.0
0.0 0.058480651499032345 0.05002750526881669 -0.04882007327748269 -0.0012074319913339688 0.017866975833055125 0.0 0.0
0.0 0.04840739006961256 0.041274912446129006 -0.040122004966542855 -0.0011529074795861617 0.015691715276593916 0.0 0.0
0.0 0.03916929460857982 0.033333751666398445 -0.032248200971414516 -0.0010855506949839439 0.013456421431425204 0.0 0.0
0.0 0.03079057394044124 0.02626046302425937 -0.025250737462203687 -0.0010097255620556617 0.011328451939277862 0.0 0.0
0.0 0.023427276086429586 0.019993585650970952 -0.01906289572861573 -0.0009306899223552139 0.009269803207894303 0.0 0.0
0.0 0.016916616271174623 0.014458590862578134 -0.013604950770611995 -0.0008536400919661442 0.007186243150812315 0.0 0.0
0.0 0.011263939168294351 0.009657242770627242 -0.008887280635373073 -0.0007699621352541619 0.005090951655986296 0.0 0.0
0.0 0.00645718518685833 0.005687902951556251 -0.005036334823589596 -0.0006515681279666558 0.0031073111392180665 0.0 0.0
0.0 0.003353431985486356 0.0026829223259280817 -0.0022326879934818863 -0.00045023433244619664 0.0014499412540524043 0.0 0.0
0.0 0.0009728867820369229 0.0008593947567873325 -0.0006637663992526554 -0.00019562835753467674 0.0004645372321684389 0.0 0.0
0.0 8.297368842625126e-05 7.764573855491049e-05 -5.4508518811266606e-05 -2.313721974364387e-05 2.2052148899080692e-05 0.0 0.0
0.0 -9.260073355057969e-06 -7.669092474494807e-06 6.104569853764263e-06 1.564522620730513e-06 -1.0643829555301524e-05 0.0 0.0
0.0 -4.2819074657463115e-07 3.259870312858171e-08 -2.4906694842016207e-08 -7.692008286562386e-09 6.631307162822855e-08 0.0 0.0
0.0 0.0 0.0 0.0 0.0 0.0 0.0 0.0
0.0 0.000763170266741603 0.0003677747802730338 -0.0001714732436371448 -0.00019630153663588863 0.0013640746338538408 0.0 0.0
0.0 0.0039801074183823636 0.0027105591692851354 -0.0038307095594192053 0.0011201503901340662 0.0019338653517396952 0.0 0.0
0.0 0.002576298774748075 0.0017729877511222555 -0.002536249449555154 0.0007632616984328965 -0.0014279346983448711 0.0 0.0
0.0 0.0004452473770876262 0.00017913827622029652 -6.48039953946567e-05 -0.00011433428082563924 -0.0007886182844940607 0.0 0.0
0.0 4.5030000765742004e-07 -5.889399966331698e-09 5.402290337682763e-09 4.871096286490315e-10 9.028034844085993e-08 0.0 0.0
0.0 -3.9933846218285653e-07 2.3010864123224606e-08 -1.7665084308602554e-08 -5.345779814626124e-09 -7.114747973550936e-08 0.0 0.0
0.0 -2.9529861865393266e-06 -1.7675852495367461e-06 1.400348092284363e-06 3.672371572524216e-07 3.940932644336319e-06 0.0 0.0
0.0 -1.3948873215123931e-05 -9.384837174985463e-06 9.19746511771008e-06 1.8737205727541982e-07 3.0855547013748136e-05 0.0 0.0
0.0 0.000496804622981803 0.00039112983573997705 -0.00029594143217432874 -9.518840356564807e-05 -0.0003072136259424482 0.0 0.0
0.0 0.001955304596362762 0.0016565410961855013 -0.0013391186725665984 -0.00031742242361890274 -0.0012167057240827705 0.0 0.0
0.0 0.004962290408556396 0.003905759524533246 -0.0033726139762377413 -0.0005331455482955039 -0.002728090174013494 0.0 0.0
0.0 0.008328735842287523 0.007091507146702173 -0.006414548433696314 -0.0006769587130058585 -0.004761530294227567 0.0 0.0
0.0 0.013054231234970634 0.010946286697974539 -0.010179098127221032 -0.000767188570753507 -0.006913665691195829 0.0 0.0
0.0 0.01832174477016044 0.015370380087890143 -0.01452933579179227 -0.0008410442960978742 -0.009044476439454194 0.0 0.0
0.0 0.024212191830649564 0.020352141674831202 -0.01943889349394791 -0.0009132481808832873 -0.011127954138198197 0.0 0.0
0.0 0.030851254162812116 0.025968950343245825 -0.0249865840686312 -0.0009823662746146456 -0.013256930858835026 0.0 0.0
0.0 0.038277081343496805 0.03230417623795756 -0.03126015706496911 -0.0010440191729884152 -0.015472871499243108 0.0 0.0
0.0 0.04681461725586637 0.03935949839545035 -0.038265468157551746 -0.0010940302378986272 -0.017654100944844278 0.0 0.0
0.0 0.0553962123360697 0.0470101796354218 -0.045874011417497536 -0.0011361682179243007 -0.019457307680298186 0.0 0.0
0.0 0.06484374061555026 0.05499145204562465 -0.053820021461912414 -0.001171430583712166 -0.020397854536485464 0.0 0.0
0.0 0.07404955803744634 0.06289467279111928 -0.061713625472966244 -0.001181047318153006 -0.01956423890295541 0.0 0.0
0.0 0.0819286815913546 0.06992194602467723 -0.06877472101113372 -0.0011472250135435443 -0.015238677107583374 0.0 0.0
0.0 0.08721643980876208 0.07375048397699965 -0.07322050431868946 -0.0005299796583102073 1.8136533941337518e-14 0.0 0.0
0.0 0.08192868159134524 0.06992194602466585 -0.0687747210111221 -0.0011472250135437052 0.015238677107626306 0.0 0.0
0.0 0.07404955803742777 0.06289467279110034 -0.06171362547294683 -0.001181047318153522 0.01956423890299963 0.0 0.0
0.0 0.06484374061552271 0.054991452045599166 -0.05382002146188739 -0.0011714305837118122 0.02039785453651006 0.0 0.0
0.0 0.05539621233603758 0.04701017963539413 -0.0458740114174706 -0.001136168217923498 0.01945730768030208 0.0 0.0
0.0 0.04681461725582752 0.039359498395417504 -0.03826546815751851 -0.0010940302378990119 0.017654100944834276 0.0 0.0
0.0 0.038277081343463235 0.03230417623792808 -0.03126015706494034 -0.0010440191729877003 0.015472871499233768 0.0 0.0
0.0 0.03085125416277652 0.025968950343214912 -0.024986584068600815 -0.0009823662746140777 0.01325693085882678 0.0 0.0
0.0 0.024212191830616042 0.020352141674803002 -0.01943889349392002 -0.0009132481808829942 0.011127954138187263 0.0 0.0
0.0 0.018321744770127612 0.015370380087862814 -0.014529335791765177 -0.0008410442960976443 0.009044476439439453 0.0 0.0
0.0 0.013054231234941647 0.010946286697950898 -0.010179098127198045 -0.0007671885707528518 0.006913665691177854 0.0 0.0
0.0 0.008328735842264977 0.007091507146683434 -0.00641454843367821 -0.0006769587130052274 0.00476153029421298 0.0 0.0
0.0 0.004962290408539176 0.00390575952451996 -0.003372613976225388 -0.0005331455482945694 0.0027280901740041655 0.0 0.0
0.0 0.0019553045963522004 0.0016565410961770412 -0.0013391186725592958 -0.00031742242361774384 0.0012167057240766888 0.0 0.0
0.0 0.0004968046229770412 0.00039112983573688935 -0.0002959414321719465 -9.518840356494295e-05 0.0003072136259399664 0.0 0.0
0.0 -1.3948873215618053e-05 -9.384837174781632e-06 9.197465117535836e-06 1.8737205724568208e-07 -3.0855547013153945e-05 0.0 0.0
0.0 -2.9529861872722782e-06 -1.7675852495207927e-06 1.4003480922718837e-06 3.6723715724890715e-07 -3.9409326442912075e-06 0.0 0.0
0.0 -3.9933846203843063e-07 2.3010864114477826e-08 -1.766508430182229e-08 -5.345779812654833e-09 7.114747970917023e-08 0.0 0.0
0.0 4.503000071303827e-07 -5.889399959299267e-09 5.402290331223529e-09 4.871096280759266e-10 -9.028034833325816e-08 0.0 0.0
0.0 0.00044524737708393733 0.00017913827621878576 -6.480399539366774e-05 -0.00011433428082511794 0.0007886182844890646 0.0 0.0
0.0 0.002576298774738889 0.0017729877511151733 -0.002536249449545348 0.000763261698430178 0.0014279346983400983 0.0 0.0
0.0 0.0019334422185310807 0.001010869600784541 -0.0014596448846970426 0.00044877528391250136 -0.0009213098800549604 0.0 0.0
0.0 0.00012159652362391757 5.9613951960756493e-05 -1.917197558502718e-06 -5.7696754402253785e-05 -0.00036997122687369374 0.0 0.0
0.0 -1.6359315948714524e-07 3.781750596414535e-09 -4.763255818210833e-09 9.815052217967462e-10 -3.278740980812844e-08 0.0 0.0
0.0 -7.398519191745401e-07 2.4508658812307933e-08 -1.8829097268388878e-08 -5.679561543919343e-09 -1.4785923128019126e-07 0.0 0.0
0.0 -9.47303917190038e-07 -1.308617089351545e-06 1.0327609211149884e-06 2.758561682365631e-07 4.478480307037241e-06 0.0 0.0
0.0 -2.5646689634848666e-05 -1.5886708468496464e-05 1.2819072570738839e-05 3.067635897757603e-06 3.577372049816218e-05 0.0 0.0
0.0 0.00014759525373346242 0.00010281192552537184 -7.610596500621471e-05 -2.6705960519157253e-05 -0.0001276952450908071 0.0 0.0
0.0 0.0010057150079133366 0.00081344084265145 -0.0006412841078694187 -0.0001721567347820314 -0.0008664974589968908 0.0 0.0
0.0 0.0029101751714634334 0.0023269731940894324 -0.0019482868288379805 -0.00037868636525145016 -0.0021413256107518236 0.0 0.0
0.0 0.005982016136015852 0.004619549832760615 -0.004076175097317628 -0.0005433747354429805 -0.003926578398866655 0.0 0.0
0.0 0.009283313300360401 0.0075157026432752265 -0.006863599612417176 -0.000652103030858048 -0.005987563830470393 0.0 0.0
0.0 0.01324003254562749 0.010833082193426064 -0.010102355014311087 -0.0007307271791149898 -0.00803323377165593 0.0 0.0
0.0 0.017733275371950647 0.014540032351180437 -0.013740552406446734 -0.0007994799447336871 -0.01002268982094017 0.0 0.0
0.0 0.02271896605499331 0.01871084172424357 -0.017849237621561546 -0.0008616041026820092 -0.012017468609585795 0.0 0.0
0.0 0.028449404048023787 0.023441629584957078 -0.022524171529184716 -0.0009174580557723499 -0.014073514680573778 0.0 0.0
0.0 0.03476844848469841 0.028791030179710516 -0.027826274150490438 -0.00096475602922004 -0.01610830341877252 0.0 0.0
0.0 0.041923183399860196 0.03470485879274499 -0.03369976047135024 -0.001005098321394756 -0.01784681135978036 0.0 0.0
0.0 0.04928303236200903 0.04107944284810099 -0.040028343972465304 -0.0010510988756356808 -0.018859122239699256 0.0 0.0
0.0 0.056835899382533785 0.04781261829958961 -0.04672548004447255 -0.0010871382551170816 -0.018547942503150127 0.0 0.0
0.0 0.0644871317228941 0.054481058223672094 -0.0534148392034299 -0.0010662190202422493 -0.015269306506014595 0.0 0.0
0.0 0.07047040951726963 0.0585762029410231 -0.05828760954013908 -0.00028859340088399106 1.540477814754304e-14 0.0 0.0
0.0 0.06448713172288797 0.0544810582236628 -0.05341483920342054 -0.0010662190202421846 0.015269306506053917 0.0 0.0
0.0 0.05683589938252105 0.04781261829957492 -0.046725480044458055 -0.0010871382551169313 0.018547942503191403 0.0 0.0
0.0 0.049283032361988804 0.04107944284808172 -0.04002834397244651 -0.0010510988756352254 0.018859122239722147 0.0 0.0
0.0 0.041923183399833766 0.034704858792722434 -0.033699760471328534 -0.0010050983213938615 0.017846811359781698 0.0 0.0
0.0 0.034768448484670054 0.028791030179687045 -0.027826274150467085 -0.0009647560292199666 0.016108303418762477 0.0 0.0
0.0 0.02844940404799891 0.02344162958493577 -0.02252417152916362 -0.0009174580557721473 0.01407351468056504 0.0 0.0
0.0 0.022718966054967902 0.018710841724221876 -0.017849237621540216 -0.000861604102681689 0.012017468609578783 0.0 0.0
0.0 0.01773327537192656 0.014540032351160404 -0.013740552406427353 -0.0007994799447330426 0.010022689820930646 0.0 0.0
0.0 0.013240032545601509 0.010833082193404859 -0.010102355014289924 -0.0007307271791149308 0.008033233771641104 0.0 0.0
0.0 0.009283313300337513 0.0075157026432571975 -0.006863599612399931 -0.0006521030308572623 0.005987563830453837 0.0 0.0
0.0 0.005982016135997842 0.0046195498327467185 -0.004076175097304234 -0.0005433747354424838 0.0039265783988537035 0.0 0.0
0.0 0.0029101751714533572 0.0023269731940816466 -0.0019482868288310477 -0.0003786863652505982 0.002141325610745612 0.0 0.0
0.0 0.0010057150079057122 0.000813440842645741 -0.0006412841078647221 -0.0001721567347810187 0.0008664974589911113 0.0 0.0
0.0 0.00014759525373164622 0.00010281192552433083 -7.610596500545638e-05 -2.6705960518874384e-05 0.00012769524508941975 0.0 0.0
0.0 -2.56466896348766e-05 -1.588670846770624e-05 1.2819072570130115e-05 3.0676358975761566e-06 -3.5773720496400366e-05 0.0 0.0
0.0 -9.473039176803327e-07 -1.3086170893809682e-06 1.032760921139385e-06 2.7585616824157544e-07 -4.478480307080105e-06 0.0 0.0
0.0 -7.398519195415277e-07 2.4508658814311785e-08 -1.882909726890552e-08 -5.679561545406168e-09 1.4785923135050773e-07 0.0 0.0
0.0 -1.635931594526776e-07 3.781750593238529e-09 -4.763255815837391e-09 9.815052225990617e-10 3.278740980120743e-08 0.0 0.0
0.0 0.00012159652362128033 5.961395195988482e-05 -1.9171975579623687e-06 -5.769675440192245e-05 0.00036997122687035873 0.0 0.0
0.0 0.0019334422185228394 0.0010108696007796738 -0.001459644884690112 0.00044877528391043775 0.000921309880051463 0.0 0.0
0.0 0.0008913578953633907 0.0005061831471868329 -0.0007374084450986057 0.00023122529791177334 -0.0005706384201364865 0.0 0.0
0.0 -1.323023953135018e-06 -8.847154930842895e-06 3.58640420837347e-05 -2.701688715289187e-05 -8.69394075529053e-05 0.0 0.0
0.0 2.1122780755375956e-06 -2.0642889499915286e-09 1.0930431715996376e-08 -8.866142766003806e-09 4.60847284526908e-07 0.0 0.0
0.0 1.7511861102621881e-06 -1.1629715722904351e-08 7.150293490461872e-09 4.479422232442335e-09 3.6121932803134345e-07 0.0 0.0
0.0 -2.492545588981355e-06 -7.769664845260797e-07 5.987510978536937e-07 1.7821538667238498e-07 4.704505615553907e-06 0.0 0.0
0.0 -1.7515274724592587e-05 -4.9503787313451525e-06 4.051099108150441e-06 8.99279623194715e-07 1.6034559566893017e-05 0.0 0.0
0.0 1.9032117638535462e-05 -4.8531267945955e-06 4.583485207092462e-06 2.6964158750298003e-07 -6.694923588082609e-07 0.0 0.0
0.0 0.00041343709792031417 0.00022003424410880544 -0.00017323233760575165 -4.680190650305387e-05 -0.000417546552921424 0.0 0.0
0.0 0.001416780088663187 0.0009965655731334164 -0.0008145757132393015 -0.00018198985989411354 -0.0013921757612995736 0.0 0.0
0.0 0.0032886692121292505 0.002382240686767213 -0.002039689810294547 -0.00034255087647266827 -0.0027571314464874866 0.0 0.0
0.0 0.005537205268474445 0.004251879356305726 -0.003778879206111615 -0.0004730001501941094 -0.004452555395276376 0.0 0.0
0.0 0.008327785641408283 0.006436993307381441 -0.005871738965592574 -0.0005652543417888613 -0.006217943412224984 0.0 0.0
0.0 0.01138115620585155 0.008878190998666005 -0.008237879602231568 -0.0006403113964344277 -0.00798765420319037 0.0 0.0
0.0 0.014774839494820575 0.011621688280041599 -0.010920962162278697 -0.0007007261177629004 -0.009745708323299464 0.0 0.0
0.0 0.018676781118501587 0.014757298130200583 -0.014004734599392823 -0.0007525635308077759 -0.011511591965333351 0.0 0.0
0.0 0.023182695783146808 0.018380306895533244 -0.017582051460121578 -0.0007982554354116629 -0.01328092630391622 0.0 0.0
0.0 0.028262413023932724 0.02253481181768522 -0.02169377704022047 -0.0008410347774647307 -0.014881968769525388 0.0 0.0
0.0 0.03368229294654156 0.027215849066318142 -0.02632782547894291 -0.000888023587375276 -0.015909537172150247 0.0 0.0
0.0 0.0398123023096143 0.03255712571483491 -0.03160653476614997 -0.0009505909486849053 -0.01594959536033282 0.0 0.0
0.0 0.04701598512650999 0.03868291936498527 -0.037709120347652045 -0.0009737990173332164 -0.014226408541516812 0.0 0.0
0.0 0.05365234148014471 0.04308617008019414 -0.04307141038347223 -1.4759696721931923e-05 1.2966190621188645e-14 0.0 0.0
0.0 0.047015985126507474 0.03868291936497846 -0.03770912034764473 -0.0009737990173337255 0.014226408541550196 0.0 0.0
0.0 0.0398123023096053 0.03255712571482351 -0.03160653476613842 -0.0009505909486850516 0.015949595360368767 0.0 0.0
0.0 0.03368229294652633 0.027215849066304146 -0.026327825478929333 -0.0008880235873747803 0.015909537172168534 0.0 0.0
0.0 0.028262413023913607 0.02253481181767022 -0.02169377704020593 -0.000841034777464294 0.014881968769523135 0.0 0.0
0.0 0.023182695783127365 0.018380306895517645 -0.017582051460106336 -0.000798255435411297 0.013280926303905868 0.0 0.0
0.0 0.018676781118486373 0.01475729813018803 -0.01400473459938015 -0.000752563530807873 0.011511591965327275 0.0 0.0
0.0 0.014774839494804798 0.011621688280028398 -0.010920962162266186 -0.0007007261177622116 0.009745708323293918 0.0 0.0
0.0 0.011381156205835194 0.008878190998652877 -0.008237879602218442 -0.0006403113964344408 0.007987654203182327 0.0 0.0
0.0 0.008327785641391618 0.006436993307369395 -0.005871738965580971 -0.000565254341788419 0.006217943412212564 0.0 0.0
0.0 0.005537205268458552 0.004251879356293627 -0.003778879206100103 -0.0004730001501935227 0.004452555395262933 0.0 0.0
0.0 0.003288669212118378 0.002382240686759738 -0.002039689810287647 -0.0003425508764720916 0.0027571314464783373 0.0 0.0
0.0 0.0014167800886562751 0.0009965655731284148 -0.0008145757132351575 -0.000181989859893257 0.0013921757612944021 0.0 0.0
0.0 0.000413437097915947 0.00022003424410635555 -0.00017323233760373186 -4.680190650262361e-05 0.000417546552916917 0.0 0.0
0.0 1.9032117637642513e-05 -4.853126794183578e-06 4.583485206771031e-06 2.6964158741256377e-07 6.69492359773425e-07 0.0 0.0
0.0 -1.7515274725486562e-05 -4.950378731191661e-06 4.051099108027491e-06 8.992796231641423e-07 -1.6034559565962274e-05 0.0 0.0
0.0 -2.4925455895970718e-06 -7.769664845499626e-07 5.98751097873246e-07 1.7821538667672835e-07 -4.704505615618854e-06 0.0 0.0
0.0 1.751186109882542e-06 -1.162971572337093e-08 7.150293491276846e-09 4.479422232094953e-09 -3.6121932794506737e-07 0.0 0.0
0.0 2.112278074978371e-06 -2.0642889486199333e-09 1.093043171278356e-08 -8.866142764163054e-09 -4.608472844053425e-07 0.0 0.0
0.0 -1.323023954545553e-06 -8.847154931197844e-06 3.586404208391163e-05 -2.7016887152713715e-05 8.693940755115339e-05 0.0 0.0
0.0 0.0008913578953578916 0.0005061831471839104 -0.0007374084450943465 0.0002312252979104355 0.0005706384201340264 0.0 0.0
0.0 0.0003602874705092506 0.0001674446999013257 -0.00024565836996392343 7.8213670062598e-05 -0.0002307189162083176 0.0 0.0
0.0 -3.97621013403758e-05 -2.1201740720527194e-05 3.115311328255231e-05 -9.951372562025133e-06 2.7168055869395256e-05 0.0 0.0
0.0 3.752924145788859e-07 1.0881436507427485e-09 -6.668165866363456e-10 -4.213270641053044e-10 7.578167770759034e-08 0.0 0.0
0.0 4.263920693709191e-07 6.871743571376446e-09 -6.570452846360841e-09 -3.012907250177378e-10 5.2131824114539875e-08 0.0 0.0
0.0 -1.9797821639277394e-06 -1.859555248134565e-07 1.3391332677219706e-07 5.20421980412677e-08 3.6527243289993667e-06 0.0 0.0
0.0 -1.0378281973213436e-05 -2.969232011134078e-06 2.3960774658510213e-06 5.731545452830307e-07 2.220719467088032e-05 0.0 0.0
0.0 1.8552947022312808e-05 -2.8745230681209186e-06 2.4787185384357e-06 3.958045296852418e-07 -1.0129848701732738e-05 0.0 0.0
0.0 0.00011134850866852006 7.258130284995569e-06 -6.1450370014278045e-06 -1.1130932835678018e-06 -0.00016008913495869106 0.0 0.0
0.0 0.0004164718483054926 0.00013256127386228504 -0.00011604185277784836 -1.6519421084436578e-05 -0.0006113869982857153 0.0 0.0
0.0 0.0011240645990049573 0.0005412653819362333 -0.00048205925530112205 -5.920612663511213e-05 -0.0014560788941090147 0.0 0.0
0.0 0.0024252131052212938 0.0013202048096266049 -0.0011837213964002982 -0.00013648341322630562 -0.002622570441491604 0.0 0.0
0.0 0.003792608116791184 0.002352148687722976 -0.002134989811526163 -0.00021715887619681444 -0.003972692080380652 0.0 0.0
0.0 0.005479310743349557 0.003524193619020127 -0.003232006280846337 -0.00029218733817378646 -0.005371970718172876 0.0 0.0
0.0 0.007405855743323781 0.0048548970279911835 -0.004493891038582674 -0.0003610059894085079 -0.0068207849484506755 0.0 0.0
0.0 0.009595564659902389 0.0064130323796468955 -0.005987810470231935 -0.00042522190941495614 -0.008331067639064832 0.0 0.0
0.0 0.012187051353973976 0.008299666472448184 -0.007812590662863815 -0.0004870758095843658 -0.009907288051960745 0.0 0.0
0.0 0.015356188760764314 0.01065319249841994 -0.010102308232270306 -0.0005508842661496299 -0.011468022142482256 0.0 0.0
0.0 0.01918355979281625 0.013607159729386071 -0.012992715202988621 -0.0006144445263974483 -0.012623234886236371 0.0 0.0
0.0 0.023581499129398376 0.01734588350428554 -0.016664025353841552 -0.0006818581504440096 -0.012770421831156302 0.0 0.0
0.0 0.02926299803560529 0.022478337632810437 -0.021675786096768637 -0.0008025515360417681 -0.011912700135429437 0.0 0.0
0.0 0.03768393349308828 0.02711148909486715 -0.027422327088558816 0.000310837993691659 1.0281706042114536e-14 0.0 0.0
0.0 0.029262998035609417 0.02247833763280849 -0.021675786096766455 -0.0008025515360420548 0.011912700135457956 0.0 0.0
0.0 0.02358149912939499 0.01734588350428008 -0.016664025353835883 -0.0006818581504442012 0.01277042183118296 0.0 0.0
0.0 0.019183559792805737 0.013607159729377963 -0.012992715202980674 -0.0006144445263972939 0.012623234886246198 0.0 0.0
0.0 0.015356188760752565 0.01065319249841334 -0.01010230823226428 -0.0005508842661490685 0.011468022142476667 0.0 0.0
0.0 0.012187051353962242 0.0082996664724404 -0.00781259066285611 -0.00048707580958428975 0.009907288051950337 0.0 0.0
0.0 0.00959556465989491 0.006413032379640805 -0.005987810470226351 -0.0004252219094144542 0.008331067639060524 0.0 0.0
0.0 0.007405855743314243 0.004854897027985067 -0.004493891038576909 -0.00036100598940816425 0.006820784948444963 0.0 0.0
0.0 0.005479310743342925 0.003524193619016337 -0.0032320062808426915 -0.00029218733817364313 0.005371970718167817 0.0 0.0
0.0 0.0037926081167811094 0.0023521486877170375 -0.0021349898115209658 -0.0002171588761960712 0.003972692080369756 0.0 0.0
0.0 0.002425213105212104 0.0013202048096211624 -0.0011837213963953003 -0.00013648341322586093 0.0026225704414822503 0.0 0.0
0.0 0.001124064599000667 0.0005412653819344456 -0.00048205925529949277 -5.920612663495309e-05 0.0014560788941049099 0.0 0.0
0.0 0.00041647184830248394 0.00013256127386081888 -0.00011604185277652992 -1.651942108428872e-05 0.0006113869982816073 0.0 0.0
0.0 0.0001113485086673846 7.258130284943604e-06 -6.145037001369221e-06 -1.1130932835744557e-06 0.00016008913495741078 0.0 0.0
0.0 1.8552947020905093e-05 -2.8745230681022276e-06 2.4787185384063596e-06 3.958045296958787e-07 1.0129848701413463e-05 0.0 0.0
0.0 -1.0378281973225737e-05 -2.9692320110853996e-06 2.3960774658139543e-06 5.731545452714453e-07 -2.22071946702466e-05 0.0 0.0
0.0 -1.9797821641627457e-06 -1.8595552480700756e-07 1.339133267742528e-07 5.204219803275146e-08 -3.6527243286075856e-06 0.0 0.0
0.0 4.263920688490142e-07 6.871743564442552e-09 -6.570452842116494e-09 -3.0129072232523707e-10 -5.213182411389615e-08 0.0 0.0
0.0 3.752924143091098e-07 1.0881436506432341e-09 -6.668165872929771e-10 -4.213270633542405e-10 -7.578167765116563e-08 0.0 0.0
0.0 -3.97621013406e-05 -2.1201740720246278e-05 3.1153113282180306e-05 -9.95137256193398e-06 -2.7168055868790078e-05 0.0 0.0
0.0 0.00036028747050589134 0.0001674446998999495 -0.00024565836996194855 7.821367006199873e-05 0.00023071891620649737 0.0 0.0
0.0 3.604232677546059e-05 2.191302200263447e-05 -3.3449986436921856e-05 1.1536964434287327e-05 -3.4757240573567455e-05 0.0 0.0
0.0 -5.739489569519701e-06 -3.6623654144721027e-06 5.269488260684707e-06 -1.6071228462125906e-06 6.9010287904908184e-06 0.0 0.0
0.0 3.549656122189833e-06 5.93338398480489e-09 1.1375776531463115e-08 -1.7309160516272637e-08 7.964706612117744e-07 0.0 0.0
0.0 6.653473850563916e-07 7.954659514080843e-08 -7.155834776289498e-08 -7.98824737791019e-09 1.243842128419533e-06 0.0 0.0
0.0 -1.725356202070672e-06 8.270275190109267e-08 -7.565936026308323e-08 -7.043391638009569e-09 3.118280693074251e-06 0.0 0.0
0.0 -7.188642583589238e-06 -3.142809592426479e-07 3.3557482585325945e-07 -2.129386661060912e-08 1.4992719443873738e-05 0.0 0.0
0.0 2.5226167195213863e-05 -7.837175638536061e-07 7.666633885571538e-07 1.7054175296443017e-08 -1.8330604820646754e-05 0.0 0.0
0.0 0.00011122609046620386 -6.866109220108863e-07 6.77277699503854e-07 9.333222507046548e-09 -0.00018882382111786442 0.0 0.0
0.0 0.00029702810851052475 -6.622176071494636e-08 6.360415242537861e-08 2.617608289579718e-09 -0.00042996939425848235 0.0 0.0
0.0 0.0004850956095391311 1.1167313162954556e-07 -6.224185413167594e-08 -4.9431277497919596e-08 -0.0008542867233689902 0.0 0.0
0.0 0.0008600570732288746 -3.3717774050976313e-07 -2.8056144209534712e-08 3.652338847193995e-07 -0.0014864471314167602 0.0 0.0
0.0 0.001209088915415146 -5.0730538262046395e-08 1.0079721359746103e-06 -9.572415977122996e-07 -0.002480031970968212 0.0 0.0
0.0 0.0018609740133094504 -8.406975206478532e-06 1.1028509487032563e-05 -2.621534280553394e-06 -0.003707648793196674 0.0 0.0
0.0 0.002758151206593147 -2.1590512443586305e-05 2.490178038770988e-05 -3.3112679441237123e-06 -0.005096422992273442 0.0 0.0
0.0 0.0038243046598070264 -3.451095715884347e-06 4.124302894213715e-07 3.038665426462596e-06 -0.006612742933671982 0.0 0.0
0.0 0.005020481563602337 0.00014542800547076026 -0.00016833087378068795 2.2902868309928915e-05 -0.008268224405844593 0.0 0.0
0.0 0.006410736952797522 0.0006287279479149773 -0.0006937534111928489 6.502546327787095e-05 -0.010013410659138444 0.0 0.0
0.0 0.007946425905700157 0.001643049913464162 -0.0018217191746880668 0.000178669261223902 -0.011701798724319692 0.0 0.0
0.0 0.010184462162837063 0.0029486489082219134 -0.0032797779117031537 0.0003311290034812409 -0.012956571316747201 0.0 0.0
0.0 0.01496144769909416 0.006259000998514676 -0.006074113120356647 -0.00018488787815802517 -0.013011108923803244 0.0 0.0
0.0 0.02621480862730321 0.011479355860576327 -0.012292881048791544 0.0008135251882152158 9.527968691802613e-15 0.0 0.0
0.0 0.014961447699100374 0.006259000998513999 -0.006074113120356148 -0.00018488787815784978 0.013011108923824797 0.0 0.0
0.0 0.010184462162834971 0.002948648908221009 -0.003279777911701958 0.00033112900348094995 0.012956571316752902 0.0 0.0
0.0 0.007946425905690611 0.0016430499134624569 -0.0018217191746858722 0.0001786692612234149 0.011701798724313636 0.0 0.0
0.0 0.006410736952787669 0.0006287279479166907 -0.0006937534111952357 6.502546327854755e-05 0.010013410659128698 0.0 0.0
0.0 0.0050204815635989455 0.0001454280054711593 -0.0001683308737808444 2.290286830968581e-05 0.008268224405837856 0.0 0.0
0.0 0.0038243046597981065 -3.4510957154311505e-06 4.124302893018924e-07 3.038665426127984e-06 0.006612742933663464 0.0 0.0
0.0 0.0027581512065888943 -2.1590512442223463e-05 2.4901780386443534e-05 -3.3112679442191627e-06 0.005096422992266928 0.0 0.0
0.0 0.001860974013304149 -8.406975205715742e-06 1.102850948637887e-05 -2.62153428066321e-06 0.0037076487931874524 0.0 0.0
0.0 0.0012090889154096032 -5.073053940455154e-08 1.0079721372636453e-06 -9.57241597859358e-07 0.0024800319709589076 0.0 0.0
0.0 0.0008600570732263503 -3.371777401593761e-07 -2.805614452680615e-08 3.652338846861924e-07 0.0014864471314118444 0.0 0.0
0.0 0.0004850956095383932 1.1167313158772077e-07 -6.224185413458634e-08 -4.943127745296163e-08 0.0008542867233667681 0.0 0.0
0.0 0.00029702810850989786 -6.622176061728082e-08 6.36041523655298e-08 2.61760825170951e-09 0.0004299693942578654 0.0 0.0
0.0 0.00011122609046482798 -6.866109220212977e-07 6.772776995322128e-07 9.333222489087497e-09 0.00018882382111545934 0.0 0.0
0.0 2.5226167193756963e-05 -7.837175638440587e-07 7.666633885468027e-07 1.7054175297271945e-08 1.8330604820175187e-05 0.0 0.0
0.0 -7.188642583590334e-06 -3.14280959261003e-07 3.3557482587216766e-07 -2.1293866611170372e-08 -1.499271944299485e-05 0.0 0.0
0.0 -1.7253562020610086e-06 8.27027518607115e-08 -7.5659360226272e-08 -7.043391634436369e-09 -3.118280692121266e-06 0.0 0.0
0.0 6.653473847220113e-07 7.954659510359841e-08 -7.155834772823705e-08 -7.988247375362225e-09 -1.2438421279756336e-06 0.0 0.0
0.0 3.5496561217378606e-06 5.933384001809216e-09 1.1375776517925108e-08 -1.7309160519725137e-08 -7.964706614716209e-07 0.0 0.0
0.0 -5.739489570379295e-06 -3.662365414494842e-06 5.269488260717183e-06 -1.6071228462223556e-06 -6.901028790433663e-06 0.0 0.0
0.0 3.604232677517079e-05 2.1913022002949496e-05 -3.344998643737345e-05 1.153696443442408e-05 3.475724057433958e-05 0.0 0.0
0.0 -1.1961146132474783e-07 -8.189220053520125e-07 1.1932756480298082e-06 -3.7435364267780915e-07 1.7172618054137583e-06 0.0 0.0
0.0 -1.3510137053856528e-07 1.203232540152953e-07 -1.6876517783682884e-07 4.844192382153576e-08 -9.318713132183276e-08 0.0 0.0
0.0 -2.457151598648378e-07 1.019954201662973e-08 -1.8423736544484847e-08 8.22419452785473e-09 -2.454302479984399e-07 0.0 0.0
0.0 9.785930588487468e-07 1.694126222358976e-07 -1.4539353325981906e-07 -2.4019088976080087e-08 8.766601568510078e-07 0.0 0.0
0.0 -1.3128310504135036e-06 -2.2013405003509433e-08 7.759697193519618e-09 1.4253707809991865e-08 -9.002593396175239e-08 0.0 0.0
0.0 -5.538897762437983e-06 6.073883448227835e-07 -3.488193768297619e-07 -2.5856896799298644e-07 6.135356650768368e-06 0.0 0.0
0.0 3.728372289012106e-05 2.442183552437546e-06 -1.7817099036918477e-06 -6.604736487457564e-07 -9.077516126982642e-06 0.0 0.0
0.0 0.00012050058034899748 -9.656529398603582e-06 8.327108031224847e-06 1.3294213673787343e-06 -0.00016616707978756208 0.0 0.0
0.0 0.0004178697183577418 -0.00013343654753234375 0.00011675336534671062 1.6683182185632943e-05 -0.0006149958669204639 0.0 0.0
0.0 0.0011218492678571903 -0.0005401580151188968 0.00048103834124856514 5.911967387033216e-05 -0.0014552852174536098 0.0 0.0
0.0 0.002432475928830836 -0.0013169584539168653 0.0011813564510706834 0.00013560200284618042 -0.0026176229258773847 0.0 0.0
0.0 0.0038152526337601658 -0.002363555860519709 0.002144529387398169 0.00021902647312153884 -0.003973625307624422 0.0 0.0
0.0 0.005519936340068743 -0.003559273978406532 0.003262978427017355 0.00029629555138917555 -0.00537378141087883 0.0 0.0
0.0 0.0074680994738130285 -0.004911508562079123 0.004547834941534717 0.0003636736205444057 -0.006819275325580047 0.0 0.0
0.0 0.009562229577818318 -0.006402941204020015 0.005991156544168484 0.0004117846598515328 -0.008341873336965547 0.0 0.0
0.0 0.011731888655707304 -0.007898531546407867 0.007469934165334791 0.0004285973810730753 -0.010007818361055075 0.0 0.0
0.0 0.013665589667449594 -0.009113215620245144 0.00870774085966317 0.0004054747605819688 -0.011878892837632354 0.0 0.0
0.0 0.015168662683433283 -0.009617787356267747 0.009294793526295038 0.0003229938299727059 -0.01399727060398841 0.0 0.0
0.0 0.015351019260465386 -0.008889621990793194 0.008736773968489561 0.00015284802230364583 -0.0163232085912251 0.0 0.0
0.0 0.012614817340006877 -0.0064213781986763455 0.006593939539270337 -0.0001725613405939846 -0.018061172357224473 0.0 0.0
0.0 0.02510920454718557 -0.0034700188312852902 0.001486196499917304 0.001983822331367982 1.2470927068797266e-14 0.0 0.0
0.0 0.012614817340012706 -0.006421378198677334 0.0065939395392716075 -0.00017256134059426574 0.018061172357237937 0.0 0.0
0.0 0.015351019260464418 -0.008889621990791486 0.008736773968487755 0.00015284802230373565 0.01632320859123681 0.0 0.0
0.0 0.015168662683424558 -0.009617787356261464 0.009294793526289057 0.0003229938299724017 0.013997270603990102 0.0 0.0
0.0 0.013665589667433614 -0.009113215620233586 0.008707740859652119 0.0004054747605814647 0.011878892837623365 0.0 0.0
0.0 0.011731888655696097 -0.007898531546399676 0.007469934165326611 0.0004285973810730648 0.010007818361046644 0.0 0.0
0.0 0.00956222957780559 -0.00640294120400949 0.005991156544158772 0.00041178465985072224 0.008341873336956459 0.0 0.0
0.0 0.007468099473803995 -0.004911508562071882 0.004547834941527908 0.0003636736205439725 0.006819275325574399 0.0 0.0
0.0 0.005519936340054415 -0.00355927397839654 0.003262978427007579 0.0002962955513889587 0.005373781410867593 0.0 0.0
0.0 0.0038152526337457875 -0.002363555860509327 0.0021445293873888008 0.00021902647312052506 0.003973625307612623 0.0 0.0
0.0 0.0024324759288189644 -0.001316958453909905 0.0011813564510642334 0.0001356020028456705 0.00261762292586675 0.0 0.0
0.0 0.00112184926784873 -0.0005401580151144027 0.0004810383412444634 5.911967386993946e-05 0.0014552852174466086 0.0 0.0
0.0 0.00041786971835557876 -0.00013343654753125776 0.00011675336534573988 1.6683182185517936e-05 0.0006149958669186127 0.0 0.0
0.0 0.00012050058034697328 -9.656529398322543e-06 8.327108031004318e-06 1.3294213673182206e-06 0.00016616707978521993 0.0 0.0
0.0 3.728372288854877e-05 2.4421835524729524e-06 -1.7817099037256297e-06 -6.604736487473153e-07 9.077516126462838e-06 0.0 0.0
0.0 -5.538897763449849e-06 6.073883447003886e-07 -3.488193767325781e-07 -2.58568967967811e-07 -6.135356649820705e-06 0.0 0.0
0.0 -1.312831050332758e-06 -2.20134051145377e-08 7.759697288779661e-09 1.4253707825753622e-08 9.002593493690763e-08 0.0 0.0
0.0 9.785930588789033e-07 1.6941262213147282e-07 -1.4539353317362514e-07 -2.4019088957847065e-08 -8.76660155869514e-07 0.0 0.0
0.0 -2.4571515994250634e-07 1.0199541997355368e-08 -1.842373654130024e-08 8.224194543940665e-09 2.454302488005894e-07 0.0 0.0
0.0 -1.351013704811719e-07 1.2032325402278633e-07 -1.6876517786497866e-07 4.844192384219586e-08 9.318713143820738e-08 0.0 0.0
0.0 -1.196114622818527e-07 -8.189220053895375e-07 1.1932756480811051e-06 -3.7435364269158783e-07 -1.7172618054952819e-06 0.0 0.0
0.0 0.0 0.0 0.0 0.0 0.0 0.0 0.0
0.0 6.941689154642336e-07 1.9174630380099817e-09 8.741616586318072e-09 -1.0659079624333038e-08 1.301184115584059e-07 0.0 0.0
0.0 3.145544029058849e-07 1.0730026244767569e-07 -8.386087889675241e-08 -2.3439383550932257e-08 8.287892160075905e-07 0.0 0.0
0.0 1.0254621024857206e-06 -4.966956283665899e-07 4.033884533663023e-07 9.330717500027551e-08 -3.22545177373285e-06 0.0 0.0
0.0 2.3487687154811066e-06 2.2911383874977237e-06 -1.9022967931953555e-06 -3.888415943023118e-07 1.1585881899345843e-05 0.0 0.0
0.0 5.456841765932772e-06 7.1902867932143775e-06 -5.704605140652675e-06 -1.485681652561683e-06 2.3855333969214392e-05 0.0 0.0
0.0 2.5373334688309926e-05 -7.832810563776058e-06 5.986711620635343e-06 1.8460989431407981e-06 -4.935959016515072e-05 0.0 0.0
0.0 0.00042837561999510543 -0.00022635368790568095 0.00017872171074066924 4.763197716501163e-05 -0.0004322372119576007 0.0 0.0
0.0 0.0014160815392085207 -0.0009958863546762134 0.0008138500903268184 0.0001820362643493951 -0.0013938649037639023 0.0 0.0
0.0 0.003284487516398001 -0.002380096449719268 0.0020375889109521305 0.00034250753876713586 -0.00275367353596124 0.0 0.0
0.0 0.005537555161665903 -0.004253000904718394 0.0037799669295536086 0.0004730339751647878 -0.00445089748004766 0.0 0.0
0.0 0.008340722742134335 -0.0064477565190830454 0.005881993058909293 0.0005657634601737521 -0.006218992431816536 0.0 0.0
0.0 0.011414656738087338 -0.008909430988735683 0.008268150428938678 0.0006412805597970027 -0.00797302619360541 0.0 0.0
0.0 0.01482046424219555 -0.011673000845567083 0.01097278936384235 0.0007002114817247394 -0.009694357418527562 0.0 0.0
0.0 0.018644607969979226 -0.014749508665031615 0.014006785042027856 0.0007427236230037463 -0.011465413330219554 0.0 0.0
0.0 0.022761752844534387 -0.01801514233538944 0.017251469861264804 0.00076367247412462 -0.01348096077351396 0.0 0.0
0.0 0.026770286715569386 -0.02113696709069803 0.02037472858296425 0.0007622385077337818 -0.015963663941406275 0.0 0.0
0.0 0.02992625324147874 -0.023580967318438624 0.02283944284117789 0.0007415244772607365 -0.019025542293350184 0.0 0.0
0.0 0.03161749550459099 -0.024361500770364128 0.0236940106667044 0.0006674901036597212 -0.022063615038734687 0.0 0.0
0.0 0.029306253934077778 -0.021499721439005894 0.020956112528480123 0.0005436089105257599 -0.02266531394626292 0.0 0.0
0.0 0.030922694385719353 -0.017049231426510325 0.014262402504906076 0.002786828921604247 1.343022915101244e-14 0.0 0.0
0.0 0.02930625393408649 -0.021499721439006317 0.02095611252848077 0.0005436089105255424 0.022665313946293595 0.0 0.0
0.0 0.03161749550458727 -0.02436150077035677 0.02369401066669698 0.0006674901036597815 0.022063615038760257 0.0 0.0
0.0 0.029926253241464407 -0.023580967318425426 0.022839442841165066 0.0007415244772603653 0.019025542293360884 0.0 0.0
0.0 0.02677028671554506 -0.021136967090678582 0.02037472858294458 0.0007622385077339937 0.015963663941399194 0.0 0.0
0.0 0.022761752844511797 -0.018015142335371204 0.01725146986124672 0.0007636724741244894 0.013480960773502453 0.0 0.0
0.0 0.018644607969957 -0.014749508665013471 0.014006785042010349 0.0007427236230031193 0.011465413330207872 0.0 0.0
0.0 0.014820464242174296 -0.011673000845549147 0.010972789363824271 0.0007002114817248688 0.009694357418516784 0.0 0.0
0.0 0.011414656738063661 -0.008909430988716632 0.00826815042891999 0.0006412805597966417 0.007973026193593366 0.0 0.0
0.0 0.008340722742112176 -0.006447756519066151 0.005881993058893002 0.0005657634601731507 0.0062189924318011534 0.0 0.0
0.0 0.00553755516164742 -0.004253000904704117 0.0037799669295399806 0.00047303397516413736 0.004450897480032762 0.0 0.0
0.0 0.0032844875163826155 -0.0023800964497078894 0.002037588910941883 0.0003425075387660072 0.0027536735359499245 0.0 0.0
0.0 0.0014160815392010148 -0.0009958863546706562 0.0008138500903222567 0.00018203626434839984 0.001393864903758835 0.0 0.0
0.0 0.0004283756199904754 -0.00022635368790295294 0.0001787217107385017 4.763197716445098e-05 0.0004322372119529048 0.0 0.0
0.0 2.5373334686904346e-05 -7.832810563893314e-06 5.986711620731136e-06 1.8460989431621353e-06 4.935959016513813e-05 0.0 0.0
0.0 5.456841765123443e-06 7.190286793088419e-06 -5.704605140547924e-06 -1.4856816525405912e-06 -2.3855333968613385e-05 0.0 0.0
0.0 2.348768714245109e-06 2.2911383874116343e-06 -1.9022967931262944e-06 -3.888415942853325e-07 -1.1585881898920788e-05 0.0 0.0
0.0 1.0254621019783741e-06 -4.966956284151663e-07 4.0338845340557427e-07 9.330717500959904e-08 3.2254517740927654e-06 0.0 0.0
0.0 3.145544020065122e-07 1.0730026244660286e-07 -8.386087889771312e-08 -2.3439383548885696e-08 -8.287892160250487e-07 0.0 0.0
0.0 6.941689152566836e-07 1.9174630381573208e-09 8.741616587663093e-09 -1.0659079625820865e-08 -1.3011841158874127e-07 0.0 0.0
0.0 0.0 0.0 0.0 0.0 0.0 0.0 0.0
0.0 0.0 0.0 0.0 0.0 0.0 0.0 0.0
0.0 -2.601208151042033e-07 -4.54463681070783e-09 2.796718489368658e-09 1.747918321339569e-09 -5.343306389855201e-08 0.0 0.0
0.0 8.056653418338547e-07 2.4359875960331665e-08 -1.4085669044193575e-08 -1.027420691613191e-08 2.453747226618502e-07 0.0 0.0
0.0 1.3095563898844051e-06 7.9172742868855e-07 -6.542042481724654e-07 -1.3752318051608518e-07 2.9354157729865743e-06 0.0 0.0
0.0 5.66400897018538e-07 2.1392443880579026e-06 -1.7014915253403256e-06 -4.377528627176146e-07 5.28718045396237e-06 0.0 0.0
0.0 -1.1107272582968665e-05 -2.1538381785681844e-07 4.372917256954458e-08 1.7165464528733527e-07 -8.807274576773374e-06 0.0 0.0
0.0 0.0002140606129660654 -0.00011734119294245392 8.881227302717884e-05 2.852891991527492e-05 -0.0001523913041593444 0.0 0.0
0.0 0.0010204723234455676 -0.0008168888952278721 0.0006446628210583653 0.0001722260741695062 -0.0008779447469622458 0.0 0.0
0.0 0.00290626940350486 -0.002323875828615995 0.001945165049081305 0.0003787107795346893 -0.002138505851463867 0.0 0.0
0.0 0.005979459919626472 -0.004617822059970502 0.004074339004809921 0.0005434830551605819 -0.003921794334198641 0.0 0.0
0.0 0.009281897318149011 -0.007518587246884098 0.006866623216144507 0.0006519640307395887 -0.005987614370572622 0.0 0.0
0.0 0.013250849432630973 -0.01084181461407457 0.010111185168244316 0.0007306294458302465 -0.008031629072463027 0.0 0.0
0.0 0.017750055324155786 -0.014558121238918746 0.013758443079513192 0.0007996781594055668 -0.009988843288134304 0.0 0.0
0.0 0.022729837497713422 -0.01873707725691035 0.01787571152569754 0.0008613657312127844 -0.011902409280358649 0.0 0.0
0.0 0.028391360814445876 -0.023424136722264968 0.022513409797639182 0.0009107269246258155 -0.013921109075201676 0.0 0.0
0.0 0.034438719746301506 -0.028515069409443407 0.027576830381478866 0.0009382390279645122 -0.016333447484095747 0.0 0.0
0.0 0.04083442665994475 -0.033616964469577716 0.03267843485213191 0.0009385296174458022 -0.0195607437645172 0.0 0.0
0.0 0.046242849702530245 -0.03791077928268124 0.03701537743459004 0.0008954018480911714 -0.02368106350671971 0.0 0.0
0.0 0.04911688215586526 -0.039863109275265846 0.03906083884394419 0.0008022704313216416 -0.027564053328106627 0.0 0.0
0.0 0.04606794166562573 -0.036718815328626773 0.03612619382714044 0.0005926215014863281 -0.028779818028083357 0.0 0.0
0.0 0.04332311558403427 -0.03051585805041181 0.026995016796423583 0.0035208412539882447 1.5023572663697138e-14 0.0 0.0
0.0 0.04606794166563044 -0.03671881532862407 0.03612619382713786 0.0005926215014862206 0.028779818028119263 0.0 0.0
0.0 0.04911688215585588 -0.039863109275252544 0.03906083884393104 0.0008022704313214866 0.02756405332813963 0.0 0.0
0.0 0.04624284970251158 -0.037910779282662926 0.037015377434572797 0.0008954018480901324 0.023681063506736322 0.0 0.0
0.0 0.040834426659912354 -0.03361696446955059 0.03267843485210453 0.0009385296174460603 0.019560743764512833 0.0 0.0
0.0 0.03443871974626691 -0.028515069409414628 0.02757683038145031 0.000938239027964303 0.016333447484081588 0.0 0.0
0.0 0.02839136081441583 -0.023424136722239884 0.022513409797614743 0.0009107269246251435 0.013921109075188799 0.0 0.0
0.0 0.02272983749767961 -0.018737077256881816 0.017875711525669098 0.000861365731212705 0.01190240928034563 0.0 0.0
0.0 0.017750055324123666 -0.014558121238892297 0.013758443079486687 0.0007996781594055975 0.009988843288120728 0.0 0.0
0.0 0.013250849432599304 -0.010841814614049166 0.010111185168219383 0.0007306294458297845 0.00803162907244508 0.0 0.0
0.0 0.009281897318121493 -0.007518587246862256 0.006866623216122927 0.0006519640307393303 0.0059876143705546855 0.0 0.0
0.0 0.005979459919606837 -0.00461782205995489 0.00407433900479533 0.0005434830551595617 0.003921794334185589 0.0 0.0
0.0 0.002906269403490923 -0.002323875828605317 0.0019451650490717714 0.00037871077953354246 0.0021385058514552945 0.0 0.0
0.0 0.001020472323438256 -0.0008168888952222311 0.0006446628210538701 0.00017222607416836206 0.0008779447469572586 0.0 0.0
0.0 0.0002140606129629996 -0.00011734119294098432 8.88122730260401e-05 2.852891991494423e-05 0.0001523913041572253 0.0 0.0
0.0 -1.1107272583090797e-05 -2.153838185458484e-07 4.372917310808643e-08 1.7165464543777404e-07 8.80727457828334e-06 0.0 0.0
0.0 5.664008966341859e-07 2.1392443878451555e-06 -1.7014915251657794e-06 -4.377528626793772e-07 -5.287180453168733e-06 0.0 0.0
0.0 1.3095563890853964e-06 7.917274285426104e-07 -6.542042480566739e-07 -1.3752318048593385e-07 -2.9354157721969584e-06 0.0 0.0
0.0 8.056653418001634e-07 2.435987600188081e-08 -1.4085669078064161e-08 -1.0274206923821385e-08 -2.453747228798278e-07 0.0 0.0
0.0 -2.601208150903466e-07 -4.544636810377973e-09 2.7967184891725414e-09 1.7479183212069819e-09 5.3433063895465725e-08 0.0 0.0
0.0 0.0 0.0 0.0 0.0 0.0 0.0 0.0
0.0 0.0 0.0 0.0 0.0 0.0 0.0 0.0
0.0 0.0 0.0 0.0 0.0 0.0 0.0 0.0
0.0 -1.9309150286631492e-07 -8.998809599996295e-09 7.558351586545631e-09 1.4404580134486699e-09 -3.630815628831382e-08 0.0 0.0
0.0 -1.5625194431087863e-06 -1.1469185373772594e-07 9.831597363160376e-08 1.6375880106132582e-08 -3.3959934436848633e-07 0.0 0.0
0.0 -1.459990590946142e-06 6.8822345026858425e-06 -5.558857372612792e-06 -1.323377130073048e-06 1.5043764332410643e-05 0.0 0.0
0.0 5.065639266987505e-05 -1.0284213522997652e-05 6.617219123871843e-06 3.6669943991257305e-06 -6.308373280573736e-07 0.0 0.0
0.0 0.0005178440020620809 -0.0004186935357357631 0.0003200137311620666 9.867980457369657e-05 -0.00036261058196301676 0.0 0.0
0.0 0.0019620215385774704 -0.0016553866090608263 0.001338335196522764 0.0003170514125380619 -0.0012238962533640228 0.0 0.0
0.0 0.004956389417203086 -0.003901605556388414 0.003368175950874832 0.0005334296055135803 -0.0027214266475351426 0.0 0.0
0.0 0.008326985198744058 -0.00709149229362888 0.0064144084783478075 0.0006770838152810752 -0.004757209607741726 0.0 0.0
0.0 0.013060098414764217 -0.010950538082605205 0.010183662407809161 0.0007668756747960355 -0.006914279215771796 0.0 0.0
0.0 0.01832734736782235 -0.015374906878756667 0.01453459943398825 0.0008403074447684107 -0.00903964066770696 0.0 0.0
0.0 0.024205057532408935 -0.020349163176546378 0.019436669991037218 0.0009124931855091691 -0.011078987556158717 0.0 0.0
0.0 0.030812798681077305 -0.025952489877470224 0.02496984708251765 0.0009826427949525486 -0.013093211741599484 0.0 0.0
0.0 0.03818922188337663 -0.03226583163816894 0.031222970178163455 0.0010428614600054545 -0.015224464607706729 0.0 0.0
0.0 0.0466160633928832 -0.03921076767332366 0.03813190961865344 0.0010788580546702692 -0.017837106609553156 0.0 0.0
0.0 0.054741825168251074 -0.046315202316855514 0.045241624922609996 0.0010735773942454224 -0.021447012269444427 0.0 0.0
0.0 0.06243177178656502 -0.05239982620215331 0.051392919550808304 0.0010069066513450622 -0.026142647982043733 0.0 0.0
0.0 0.06660765497008442 -0.05531698622047392 0.05445443521648053 0.0008625510039933548 -0.030835930803988464 0.0 0.0
0.0 0.06275821557357926 -0.05149432298940865 0.050903252352271375 0.0005910706371372701 -0.03285445288280099 0.0 0.0
0.0 0.056870396246773786 -0.04369848415026986 0.03955338914617289 0.0041450950040969135 1.7067944280135805e-14 0.0 0.0
0.0 0.0627582155735778 -0.05149432298940137 0.05090325235226378 0.00059107063713759 0.0328544528828389 0.0 0.0
0.0 0.06660765497007155 -0.05531698622045757 0.054454435216464876 0.0008625510039926667 0.030835930804026548 0.0 0.0
0.0 0.06243177178653951 -0.05239982620212921 0.051392919550784844 0.001006906651344282 0.026142647982063765 0.0 0.0
0.0 0.05474182516821108 -0.046315202316821215 0.045241624922575066 0.0010735773942461798 0.021447012269442317 0.0 0.0
0.0 0.04661606339284047 -0.03921076767328742 0.038131909618617385 0.0010788580546700205 0.017837106609541638 0.0 0.0
0.0 0.03818922188333633 -0.0322658316381344 0.03122297017812961 0.0010428614600047816 0.015224464607692932 0.0 0.0
0.0 0.03081279868103822 -0.025952489877436438 0.024969847082484533 0.0009826427949519048 0.013093211741587627 0.0 0.0
0.0 0.024205057532366334 -0.02034916317651056 0.019436669991001493 0.0009124931855090689 0.011078987556143758 0.0 0.0
0.0 0.01832734736778459 -0.015374906878724974 0.014534599433957001 0.0008403074447679724 0.009039640667689308 0.0 0.0
0.0 0.013060098414728974 -0.010950538082575876 0.010183662407780087 0.0007668756747957991 0.006914279215751785 0.0 0.0
0.0 0.008326985198718464 -0.007091492293607314 0.006414408478326934 0.0006770838152803845 0.004757209607726361 0.0 0.0
0.0 0.004956389417181364 -0.0039016055563713954 0.0033681759508589655 0.000533429605512433 0.0027214266475237585 0.0 0.0
0.0 0.001962021538566808 -0.0016553866090524513 0.0013383351965157025 0.00031705141253674803 0.0012238962533583375 0.0 0.0
0.0 0.0005178440020564928 -0.00041869353573208547 0.00032001373115918833 9.867980457289702e-05 0.00036261058195982535 0.0 0.0
0.0 5.065639266873138e-05 -1.02842135228871e-05 6.617219123811543e-06 3.666994399075483e-06 6.308373282790015e-07 0.0 0.0
0.0 -1.4599905920962909e-06 6.882234502622832e-06 -5.558857372562135e-06 -1.3233771300606744e-06 -1.5043764332190287e-05 0.0 0.0
0.0 -1.5625194437256542e-06 -1.1469185376337452e-07 9.831597365174787e-08 1.6375880111643143e-08 3.395993444491118e-07 0.0 0.0
0.0 -1.9309150298983628e-07 -8.998809605285815e-09 7.558351589758323e-09 1.4404580155274932e-09 3.6308156309724407e-08 0.0 0.0
0.0 0.0 0.0 0.0 0.0 0.0 0.0 0.0
0.0 0.0 0.0 0.0 0.0 0.0 0.0 0.0
0.0 0.0 0.0 0.0 0.0 0.0 0.0 0.0
0.0 0.0 0.0 0.0 0.0 0.0 0.0 0.0
0.0 -3.008317283811859e-07 -1.6894082401111415e-08 1.3667650964936457e-08 3.226431436173586e-09 -5.3084951058647605e-08 0.0 0.0
0.0 4.787239820933699e-07 2.6941426577841416e-07 -2.1526026517706913e-07 -5.415400060132e-08 6.292108723311515e-07 0.0 0.0
0.0 -1.4501662251333484e-05 3.2108312345942786e-06 -2.83456744915943e-06 -3.7626378543486034e-07 6.62119293046595e-06 0.0 0.0
0.0 0.00017254454886556726 -9.779539406708023e-05 7.147079553125824e-05 2.6324598535822085e-05 -4.896633948413234e-05 0.0 0.0
0.0 0.0010138473905891494 -0.0008715842358569164 0.0006765222755610202 0.00019506196029589554 -0.000495137337357254 0.0 0.0
0.0 0.003353046541050318 -0.002678359138339035 0.00222824352635238 0.0004501156119866556 -0.0014513013089319526 0.0 0.0
0.0 0.006453221803828655 -0.005684590354234074 0.005032697851312671 0.000651892502921404 -0.0030992342887780884 0.0 0.0
0.0 0.011265294418159703 -0.009659364012718247 0.00888933556093904 0.0007700284517792131 -0.005087803598897195 0.0 0.0
0.0 0.016922353199941932 -0.014463498990230946 0.013610310416409949 0.0008531885738209922 -0.007186700787122339 0.0 0.0
0.0 0.023425624090148516 -0.019992037416224257 0.019062694532546012 0.0009293428836782461 -0.009260646349164903 0.0 0.0
0.0 0.030755170915034345 -0.02623245695733695 0.025224705554288775 0.0010077514030481475 -0.011269788061304119 0.0 0.0
0.0 0.0390748113665044 -0.03326570810769117 0.032179855629068686 0.0010858524786225069 -0.013277743437576046 0.0 0.0
0.0 0.048283150807821855 -0.04120096912196379 0.04004316099158453 0.0011578081303792217 -0.015406008027398483 0.0 0.0
0.0 0.05839636921511081 -0.04998375462689116 0.048780140471331224 0.0012036141555599364 -0.017934409370201996 0.0 0.0
0.0 0.0693349496544102 -0.05903962728382511 0.05784852519044767 0.0011911020933774298 -0.021409722572940566 0.0 0.0
0.0 0.0786493902760331 -0.06685945229231416 0.0657660825073403 0.001093369784973763 -0.026202851512253277 0.0 0.0
0.0 0.08339654119623371 -0.07063139061422455 0.06973471405217156 0.0008966765620529592 -0.03155695738751053 0.0 0.0
0.0 0.0790860308926615 -0.0661116237118432 0.06552840276047717 0.0005832209513660381 -0.03543002635223164 0.0 0.0
0.0 0.07148371499118172 -0.05690645196109468 0.05220360565977303 0.00470284630132167 1.709309777053747e-14 0.0 0.0
0.0 0.07908603089265326 -0.06611162371183078 0.06552840276046448 0.0005832209513662871 0.03543002635226916 0.0 0.0
0.0 0.08339654119621688 -0.07063139061420558 0.06973471405215306 0.0008966765620525327 0.031556957387549725 0.0 0.0
0.0 0.07864939027599951 -0.06685945229228347 0.06576608250731006 0.0010933697849733201 0.02620285151227359 0.0 0.0
0.0 0.06933494965436367 -0.059039627283784826 0.05784852519040726 0.001191102093377488 0.02140972257294019 0.0 0.0
0.0 0.05839636921506379 -0.0499837546268504 0.04878014047129116 0.0012036141555593024 0.017934409370194124 0.0 0.0
0.0 0.048283150807771735 -0.04120096912192062 0.04004316099154202 0.0011578081303786221 0.015406008027386935 0.0 0.0
0.0 0.03907481136645935 -0.03326570810765177 0.032179855629030245 0.001085852478621505 0.013277743437564842 0.0 0.0
0.0 0.03075517091498413 -0.026232456957293926 0.025224705554245747 0.0010077514030481388 0.011269788061289896 0.0 0.0
0.0 0.023425624090104083 -0.019992037416186492 0.019062694532508744 0.0009293428836777304 0.009260646349148407 0.0 0.0
0.0 0.016922353199899008 -0.014463498990194952 0.013610310416374054 0.0008531885738208966 0.007186700787102065 0.0 0.0
0.0 0.011265294418127078 -0.00965936401269066 0.008889335560912065 0.0007700284517785965 0.00508780359888136 0.0 0.0
0.0 0.00645322180380522 -0.0056845903542129895 0.0050326978512926 0.0006518925029203907 0.003099234288766635 0.0 0.0
0.0 0.003353046541034268 -0.0026783591383262393 0.002228243526340982 0.0004501156119852567 0.0014513013089249719 0.0 0.0
0.0 0.0010138473905814348 -0.0008715842358508357 0.0006765222755561744 0.00019506196029466237 0.000495137337353604 0.0 0.0
0.0 0.00017254454886222073 -9.779539406530966e-05 7.147079552990106e-05 2.6324598535408557e-05 4.896633948300493e-05 0.0 0.0
0.0 -1.4501662251086513e-05 3.210831233720086e-06 -2.8345674484630954e-06 -3.7626378525702143e-07 -6.621192929030225e-06 0.0 0.0
0.0 4.787239812714202e-07 2.6941426582235913e-07 -2.1526026521355902e-07 -5.4154000608795464e-08 -6.2921087239424e-07 0.0 0.0
0.0 -3.0083172820327663e-07 -1.6894082390560128e-08 1.3667650956397697e-08 3.226431434162971e-09 5.3084951026648725e-08 0.0 0.0
0.0 0.0 0.0 0.0 0.0 0.0 0.0 0.0
0.0 0.0 0.0 0.0 0.0 0.0 0.0 0.0
0.0 0.0 0.0 0.0 0.0 0.0 0.0 0.0
0.0 0.0 0.0 0.0 0.0 0.0 0.0 0.0
0.0 -1.680433764396781e-07 -1.0793184899027673e-08 8.54508648894806e-09 2.2480984100807976e-09 -2.827633481288059e-08 0.0 0.0
0.0 -1.3166626677573758e-06 7.920157049536932e-08 -6.251823472667309e-08 -1.668333576872528e-08 2.8085215373421573e-07 0.0 0.0
0.0 4.596902033493342e-06 9.976702173516682e-06 -8.841394420366526e-06 -1.1353077531500951e-06 1.7315861518880513e-05 0.0 0.0
0.0 0.00031365857098476253 -0.0003057312854663175 0.00022835004293601438 7.738124253030295e-05 -0.00013352896972192708 0.0 0.0
0.0 0.0018422705039939152 -0.0014576503041960668 0.0011571820546273687 0.0003004682495686974 -0.0005505320096665874 0.0 0.0
0.0 0.004365080240392478 -0.0038907678347981887 0.003325188734021786 0.0005655791007764029 -0.0015811357901015558 0.0 0.0
0.0 0.008585324308675502 -0.007534582298860594 0.006797618906980775 0.0007369633918798195 -0.0031086594992038004 0.0 0.0
0.0 0.014129298008006514 -0.012286262483038872 0.011443432315051578 0.0008428301679873006 -0.004908643516274958 0.0 0.0
0.0 0.020852517365361277 -0.018024172717036404 0.017098065976547942 0.0009261067404884398 -0.006832266758124705 0.0 0.0
0.0 0.028631621706871578 -0.024657040027691455 0.0236491761348789 0.0010078638928125465 -0.008732298691356347 0.0 0.0
0.0 0.03750109503919954 -0.0321744283018919 0.031081504477615613 0.0010929238242762727 -0.010589744949559658 0.0 0.0
0.0 0.04715258142793504 -0.04065404215807574 0.039475289439914345 0.0011787527181613888 -0.012483575860133742 0.0 0.0
0.0 0.058321661387608165 -0.05018159492194974 0.04892294481485781 0.0012586501070919536 -0.014486236966922496 0.0 0.0
0.0 0.07063020240597588 -0.06071249984869261 0.0593978594879257 0.0013146403607668397 -0.016697519014548957 0.0 0.0
0.0 0.08319543283615081 -0.07163782764962104 0.07033468641941586 0.0013031412302051714 -0.019543558530988766 0.0 0.0
0.0 0.09441457616139574 -0.08114416582545017 0.07996878533044302 0.0011753804950072 -0.02384008393863539 0.0 0.0
0.0 0.10035975535553027 -0.08583714961374332 0.08491190736317361 0.0009252422505695792 -0.02985783436605449 0.0 0.0
0.0 0.09549636006237992 -0.08085892218852339 0.0802940605241523 0.0005648616643710607 -0.03683910227866999 0.0 0.0
0.0 0.0863975265459643 -0.07046585152347445 0.06526397323345844 0.005201878290016051 1.73376937806502e-14 0.0 0.0
0.0 0.09549636006236951 -0.08085892218850954 0.08029406052413889 0.0005648616643705926 0.03683910227870712 0.0 0.0
0.0 0.1003597553555054 -0.08583714961371836 0.08491190736314891 0.0009252422505693064 0.029857834366091518 0.0 0.0
0.0 0.09441457616135375 -0.08114416582541298 0.07996878533040593 0.0011753804950070845 0.023840083938654683 0.0 0.0
0.0 0.08319543283609879 -0.0716378276495757 0.0703346864193708 0.0013031412302048967 0.019543558530990376 0.0 0.0
0.0 0.07063020240591869 -0.06071249984864293 0.05939785948787664 0.0013146403607662564 0.016697519014543208 0.0 0.0
0.0 0.058321661387549815 -0.05018159492189954 0.04892294481480765 0.0012586501070918654 0.014486236966913072 0.0 0.0
0.0 0.047152581427877927 -0.040654042158026316 0.039475289439865724 0.0011787527181605945 0.012483575860122331 0.0 0.0
0.0 0.03750109503914588 -0.03217442830184493 0.03108150447756938 0.001092923824275595 0.010589744949548018 0.0 0.0
0.0 0.028631621706817326 -0.024657040027644846 0.02364917613483266 0.0010078638928121793 0.008732298691340509 0.0 0.0
0.0 0.020852517365310626 -0.01802417271699315 0.017098065976504772 0.0009261067404883797 0.0068322667581057 0.0 0.0
0.0 0.014129298007967746 -0.012286262483005272 0.011443432315018593 0.0008428301679866675 0.0049086435162601005 0.0 0.0
0.0 0.008585324308647295 -0.007534582298835708 0.006797618906956702 0.0007369633918790022 0.003108659499193349 0.0 0.0
0.0 0.0043650802403732685 -0.0038907678347813467 0.0033251887340062297 0.0005655791007751161 0.0015811357900943825 0.0 0.0
0.0 0.0018422705039823112 -0.001457650304186991 0.0011571820546197582 0.0003004682495672298 0.0005505320096623362 0.0 0.0
0.0 0.0003136585709802611 -0.0003057312854631374 0.00022835004293361586 7.73812425295211e-05 0.00013352896972066775 0.0 0.0
0.0 4.596902032972689e-06 9.97670217300308e-06 -8.841394419957993e-06 -1.1353077530449502e-06 -1.7315861518234135e-05 0.0 0.0
0.0 -1.3166626679706939e-06 7.92015705049738e-08 -6.251823473508572e-08 -1.6683335769886697e-08 -2.8085215376808826e-07 0.0 0.0
0.0 -1.6804337643450485e-07 -1.0793184898566844e-08 8.545086488621468e-09 2.248098409945835e-09 2.8276334812116163e-08 0.0 0.0
0.0 0.0 0.0 0.0 0.0 0.0 0.0 0.0
0.0 0.0 0.0 0.0 0.0 0.0 0.0 0.0
0.0 0.0 0.0 0.0 0.0 0.0 0.0 0.0
0.0 0.0 0.0 0.0 0.0 0.0 0.0 0.0
0.0 0.0 0.0 0.0 0.0 0.0 0.0 0.0
0.0 -1.7969027656091993e-06 7.46607905647837e-07 -5.957421844951768e-07 -1.5086572115265137e-07 1.0621289782321756e-06 0.0 0.0
0.0 4.212684690524943e-05 -1.5726655371970544e-05 9.413121085052188e-06 6.313534286918625e-06 6.30539805881149e-06 0.0 0.0
0.0 0.0006813879658291396 -0.0005626253807764767 0.0004240306771374519 0.00013859470363902543 -0.00011877678577876751 0.0 0.0
0.0 0.002534258661321883 -0.002211588603320199 0.0018008846046296033 0.0004107039986905931 -0.0005525779463763066 0.0 0.0
0.0 0.005749981780076863 -0.005175103379198834 0.004522873903342724 0.000652229475856114 -0.0014830959331903534 0.0 0.0
0.0 0.010649465361315771 -0.009430205887719091 0.008626189666954727 0.0008040162207643543 -0.0027397607937783303 0.0 0.0
0.0 0.01707356281388573 -0.014939747747478 0.014035772453228967 0.0009039752942490445 -0.004250396549224246 0.0 0.0
0.0 0.024796440216752196 -0.02160499775390868 0.020614115396596046 0.0009908823573126088 -0.00587015338979021 0.0 0.0
0.0 0.03385339201983793 -0.029345131753874924 0.028265511160856256 0.001079620593018663 -0.007473818953763863 0.0 0.0
0.0 0.04392879704508945 -0.03815557209061104 0.03698330881520998 0.001172263275401078 -0.009053596437860113 0.0 0.0
0.0 0.05565995365191934 -0.048082225671553264 0.046819723768085075 0.0012625019034681283 -0.010702117718922276 0.0 0.0
0.0 0.06839675857675377 -0.05917550342060211 0.05782963378685467 0.0013458696337474742 -0.012471019752644271 0.0 0.0
0.0 0.08226967952702939 -0.07132982993580671 0.0699190264202863 0.0014108035155205021 -0.014260954190655716 0.0 0.0
0.0 0.09692543261959076 -0.08393037957136973 0.08251637795742908 0.0014140016139406403 -0.016108176571227626 0.0 0.0
0.0 0.10995926560929799 -0.09509781957024789 0.09382493545291123 0.0012728841173365877 -0.019127009114776994 0.0 0.0
0.0 0.11718863172904159 -0.10100045276232407 0.10003697454167286 0.0009634782206512282 -0.025647419480132248 0.0 0.0
0.0 0.11248309530304336 -0.09602310643325151 0.09549543457603556 0.0005276718572161691 -0.03685707408759335 0.0 0.0
0.0 0.10264156601344762 -0.08471397673600167 0.07907916340187626 0.005634813334125401 1.4646270307672182e-14 0.0 0.0
0.0 0.11248309530303004 -0.09602310643323615 0.0954954345760207 0.0005276718572154773 0.036857074087626576 0.0 0.0
0.0 0.11718863172900744 -0.10100045276229273 0.1000369745416412 0.0009634782206515186 0.02564741948016388 0.0 0.0
0.0 0.10995926560924474 -0.09509781957020164 0.09382493545286477 0.00127288411733675 0.019127009114793397 0.0 0.0
0.0 0.09692543261953365 -0.0839303795713201 0.08251637795737997 0.0014140016139401414 0.016108176571229194 0.0 0.0
0.0 0.08226967952696426 -0.07132982993575009 0.06991902642023026 0.0014108035155198028 0.01426095419065197 0.0 0.0
0.0 0.06839675857668741 -0.059175503420544555 0.057829633786797605 0.0013458696337469728 0.01247101975263847 0.0 0.0
0.0 0.05565995365185045 -0.048082225671493534 0.04681972376802594 0.0012625019034675498 0.01070211771891267 0.0 0.0
0.0 0.04392879704502582 -0.038155572090556075 0.03698330881515528 0.001172263275400815 0.009053596437851136 0.0 0.0
0.0 0.03385339201977497 -0.029345131753820145 0.028265511160801792 0.0010796205930183698 0.007473818953750818 0.0 0.0
0.0 0.02479644021669713 -0.021604997753861006 0.020614115396548675 0.000990882357312326 0.005870153389774483 0.0 0.0
0.0 0.017073562813840117 -0.014939747747438467 0.014035772453189948 0.0009039752942485143 0.004250396549210909 0.0 0.0
0.0 0.010649465361283228 -0.009430205887690333 0.008626189666926664 0.0008040162207636689 0.0027397607937694702 0.0 0.0
0.0 0.0057499817800541865 -0.0051751033791782464 0.004522873903323288 0.0006522294758549604 0.0014830959331834435 0.0 0.0
0.0 0.0025342586613082228 -0.002211588603308503 0.0018008846046194899 0.00041070399868901457 0.0005525779463725921 0.0 0.0
0.0 0.0006813879658234803 -0.0005626253807722847 0.00042403067713421035 0.00013859470363807383 0.0001187767857777427 0.0 0.0
0.0 4.212684690445449e-05 -1.5726655371992584e-05 9.413121085110049e-06 6.313534286882457e-06 -6.305398058279887e-06 0.0 0.0
0.0 -1.7969027661854064e-06 7.466079057050992e-07 -5.957421845432703e-07 -1.5086572116182362e-07 -1.0621289783274801e-06 0.0 0.0
0.0 0.0 0.0 0.0 0.0 0.0 0.0 0.0
0.0 0.0 0.0 0.0 0.0 0.0 0.0 0.0
0.0 0.0 0.0 0.0 0.0 0.0 0.0 0.0
0.0 0.0 0.0 0.0 0.0 0.0 0.0 0.0
0.0 0.0 0.0 0.0 0.0 0.0 0.0 0.0
0.0 0.0 0.0 0.0 0.0 0.0 0.0 0.0
0.0 -1.6249711586149913e-06 2.085047674458353e-06 -1.662319511524623e-06 -4.227281629337451e-07 1.7201039996619752e-06 0.0 0.0
0.0 9.735381832574172e-05 -9.682544980999896e-05 6.773873119999925e-05 2.9086718609999698e-05 3.410219030769095e-06 0.0 0.0
0.0 0.0011678760854087365 -0.0009395973009057785 0.0007214630042456433 0.00021813429666013418 -6.121586119727e-05 0.0 0.0
0.0 0.003265744309058046 -0.0030693120212299104 0.002562547366346102 0.0005067646548838111 -0.0004483708253115492 0.0 0.0
0.0 0.007217456366768643 -0.006501150366520951 0.005778819367439972 0.000722330999080985 -0.0011054493704035662 0.0 0.0
0.0 0.01275039546706453 -0.011345213765022157 0.010486373104608461 0.0008588406604136912 -0.0020206820524079814 0.0 0.0
0.0 0.02001620310765462 -0.01759609062997854 0.016638564225617544 0.0009575264043609896 -0.003124133566430488 0.0 0.0
0.0 0.02883200815801058 -0.025180932868412324 0.024130730221920596 0.001050202646491708 -0.004312735582829121 0.0 0.0
0.0 0.03900427429314106 -0.03403273396409541 0.03288655798486834 0.001146175979227059 -0.005491820668288167 0.0 0.0
0.0 0.050868824489176 -0.04413875385990086 0.0428935725304179 0.001245181329482962 -0.006668224601930911 0.0 0.0
0.0 0.06376292403687261 -0.05553283546511364 0.05419171731768181 0.0013411181474317795 -0.007945662746435678 0.0 0.0
0.0 0.07836790335616957 -0.06816408883310705 0.06673953873355928 0.0014245500995478115 -0.009333549980283764 0.0 0.0
0.0 0.09412196157098951 -0.0817952032537852 0.08031023361740776 0.0014849696363773454 -0.010634022185169739 0.0 0.0
0.0 0.11029152232794592 -0.0957883953051803 0.09428175251163173 0.0015066427935486702 -0.011545866248945056 0.0 0.0
0.0 0.12498423208830411 -0.10850050437460053 0.10708189811357013 0.0014186062610303822 -0.012737137879732071 0.0 0.0
0.0 0.1340062961551764 -0.11608171747048607 0.11503209770876843 0.0010496197617176112 -0.018220389065612515 0.0 0.0
0.0 0.1302766858114606 -0.11192947000094916 0.11148123843134292 0.0004482315696060745 -0.03453323739285567 0.0 0.0
0.0 0.12031709006204541 -0.10013697755213809 0.09416613990964395 0.005970837642494102 1.00076197329102e-14 0.0 0.0
0.0 0.13027668581144275 -0.11192947000093123 0.1114812384313255 0.00044823156960578376 0.034533237392882096 0.0 0.0
0.0 0.13400629615513443 -0.11608171747044893 0.11503209770873092 0.0010496197617180293 0.018220389065637867 0.0 0.0
0.0 0.12498423208824558 -0.10850050437454989 0.1070818981135194 0.0014186062610304726 0.012737137879744665 0.0 0.0
0.0 0.1102915223278819 -0.09578839530512469 0.0942817525115767 0.001506642793548017 0.011545866248947472 0.0 0.0
0.0 0.09412196157091936 -0.08179520325372416 0.08031023361734764 0.0014849696363765966 0.01063402218516811 0.0 0.0
0.0 0.0783679033560966 -0.06816408883304365 0.06673953873349685 0.0014245500995467596 0.009333549980279767 0.0 0.0
0.0 0.06376292403679559 -0.055532835465047045 0.05419171731761572 0.0013411181474313495 0.007945662746427575 0.0 0.0
0.0 0.05086882448910388 -0.04413875385983817 0.04289357253035557 0.0012451813294825844 0.00666822460192446 0.0 0.0
0.0 0.03900427429307134 -0.03403273396403517 0.032886557984808586 0.001146175979226521 0.005491820668279607 0.0 0.0
0.0 0.02883200815795203 -0.025180932868360956 0.024130730221869616 0.0010502026464913631 0.004312735582817711 0.0 0.0
0.0 0.020016203107604404 -0.017596090629934204 0.016638564225573863 0.0009575264043603343 0.003124133566420431 0.0 0.0
0.0 0.012750395467029206 -0.011345213764990578 0.010486373104577666 0.0008588406604129168 0.0020206820524014566 0.0 0.0
0.0 0.007217456366741818 -0.0065011503664966965 0.005778819367416821 0.0007223309990798749 0.001105449370398221 0.0 0.0
0.0 0.0032657443090441797 -0.0030693120212169447 0.0025625473663345453 0.000506764654882402 0.0004483708253089123 0.0 0.0
0.0 0.0011678760854014621 -0.0009395973008997227 0.0007214630042408049 0.000218134296658917 6.12158611964359e-05 0.0 0.0
0.0 9.735381832388458e-05 -9.682544980919012e-05 6.773873119944352e-05 2.908671860974646e-05 -3.4102190304506776e-06 0.0 0.0
0.0 -1.6249711590047338e-06 2.085047674483425e-06 -1.6623195115460969e-06 -4.2272816293734866e-07 -1.7201039996999299e-06 0.0 0.0
0.0 0.0 0.0 0.0 0.0 0.0 0.0 0.0
0.0 0.0 0.0 0.0 0.0 0.0 0.0 0.0
0.0 0.0 0.0 0.0 0.0 0.0 0.0 0.0
0.0 0.0 0.0 0.0 0.0 0.0 0.0 0.0
0.0 0.0 0.0 0.0 0.0 0.0 0.0 0.0
0.0 0.0 0.0 0.0 0.0 0.0 0.0 0.0
0.0 -4.474987942301141e-06 3.368215140430096e-06 -2.8327256956678323e-06 -5.354894447622585e-07 2.3453973729499634e-06 0.0 0.0
0.0 0.0002866933284402198 -0.00021139074834773376 0.00015033949782102316 6.105125052671062e-05 4.30609985415492e-05 0.0 0.0
0.0 0.0016343235917635564 -0.0014352011998863944 0.0011276589020098428 0.00030754229787655025 5.200284831363517e-05 0.0 0.0
0.0 0.004295058757699338 -0.003961093184301551 0.003379369283109027 0.0005817239011925242 -0.00014983161206207763 0.0 0.0
0.0 0.008700324981450746 -0.007847393238160116 0.007068778716606893 0.0007786145215532211 -0.0004869472382461999 0.0 0.0
0.0 0.014930612992750704 -0.013254905652555049 0.012350018116044428 0.0009048875365106207 -0.000957901104337736 0.0 0.0
0.0 0.022959534725074164 -0.02023136897465699 0.019225143011456974 0.0010062259632000056 -0.001537334382711504 0.0 0.0
0.0 0.032788519124941136 -0.028730244617797406 0.027625078757765615 0.0011051658600317992 -0.002160716171355501 0.0 0.0
0.0 0.044446818358714266 -0.03869497126779952 0.03748722154011106 0.0012077497276884663 -0.002786975010678201 0.0 0.0
0.0 0.057330942185496614 -0.05011356141876129 0.04879997029161692 0.0013135911271443354 -0.003457333975933276 0.0 0.0
0.0 0.07215458465304955 -0.0629594780807712 0.06154497717664419 0.0014145009041269868 -0.004202943869883253 0.0 0.0
0.0 0.08847234245318615 -0.07710390000270288 0.07560725650394526 0.0014966434987576877 -0.005010616776638354 0.0 0.0
0.0 0.10584843583454985 -0.09214292177130186 0.09059568516507899 0.001547236606222809 -0.005757161101889699 0.0 0.0
0.0 0.12333974320961605 -0.10725424837730733 0.1056932378907689 0.0015610104865384907 -0.006119217328168623 0.0 0.0
0.0 0.13928913320402808 -0.12103870059261329 0.11949469771099437 0.0015440028816189348 -0.006026372644215091 0.0 0.0
0.0 0.15036698222183104 -0.13060701635512675 0.12925408627625784 0.0013529300788687473 -0.008308842738791861 0.0 0.0
0.0 0.1492282238638894 -0.1289482626617986 0.1285587839104278 0.0003894787513708206 -0.024990955836119804 0.0 0.0
0.0 0.1405859554726206 -0.11779722626356993 0.11188188409813203 0.005915342165437867 5.304784389537076e-15 0.0 0.0
0.0 0.14922822386386544 -0.12894826266177684 0.12855878391040598 0.00038947875137079416 0.024990955836134865 0.0 0.0
0.0 0.15036698222178574 -0.13060701635508706 0.12925408627621857 0.0013529300788683914 0.008308842738806712 0.0 0.0
0.0 0.1392891332039623 -0.12103870059255654 0.11949469771093765 0.001544002881618841 0.006026372644220909 0.0 0.0
0.0 0.12333974320953836 -0.10725424837724062 0.1056932378907015 0.0015610104865391766 0.006119217328169073 0.0 0.0
0.0 0.10584843583446815 -0.09214292177123096 0.09059568516500842 0.0015472366062224262 0.0057571611018886635 0.0 0.0
0.0 0.08847234245310263 -0.0771039000026305 0.0756072565038734 0.0014966434987571913 0.005010616776635076 0.0 0.0
0.0 0.07215458465296623 -0.06295947808069909 0.06154497717657235 0.0014145009041266281 0.004202943869880829 0.0 0.0
0.0 0.05733094218541545 -0.05011356141869073 0.04879997029154717 0.001313591127143528 0.0034573339759302445 0.0 0.0
0.0 0.044446818358637494 -0.03869497126773274 0.03748722154004485 0.001207749727687901 0.002786975010672364 0.0 0.0
0.0 0.032788519124874974 -0.02873024461774007 0.027625078757708706 0.0011051658600313439 0.0021607161713492603 0.0 0.0
0.0 0.02295953472501849 -0.020231368974607908 0.019225143011408673 0.0010062259631992423 0.001537334382706398 0.0 0.0
0.0 0.014930612992710628 -0.01325490565251924 0.012350018116009292 0.0009048875365099354 0.000957901104334235 0.0 0.0
0.0 0.008700324981421082 -0.007847393238133278 0.007068778716580953 0.0007786145215523175 0.0004869472382435894 0.0 0.0
0.0 0.0042950587576830075 -0.0039610931842862475 0.003379369283094968 0.000581723901191276 0.00014983161206060924 0.0 0.0
0.0 0.0016343235917545347 -0.0014352011998785435 0.001127658902003269 0.0003075422978752741 -5.2002848313916164e-05 0.0 0.0
0.0 0.0002866933284374431 -0.00021139074834605748 0.00015033949781984097 6.10512505262167e-05 -4.306099854108134e-05 0.0 0.0
0.0 -4.474987942509409e-06 3.3682151401438208e-06 -2.832725695452317e-06 -5.354894446914408e-07 -2.345397372926455e-06 0.0 0.0
0.0 0.0 0.0 0.0 0.0 0.0 0.0 0.0
0.0 0.0 0.0 0.0 0.0 0.0 0.0 0.0
0.0 0.0 0.0 0.0 0.0 0.0 0.0 0.0
0.0 0.0 0.0 0.0 0.0 0.0 0.0 0.0
0.0 0.0 0.0 0.0 0.0 0.0 0.0 0.0
0.0 0.0 0.0 0.0 0.0 0.0 0.0 0.0
0.0 5.752754090387988e-06 -4.4017616064513845e-06 2.449210863029611e-06 1.9525507434218778e-06 4.0280277881043195e-06 0.0 0.0
0.0 0.0005363364599687557 -0.0003746384932536471 0.0002655843670437383 0.00010905412620990872 0.00010184858483425492 0.0 0.0
0.0 0.002143079555184482 -0.0018877536023694354 0.0014690942313753657 0.00041865937099406977 0.0002452936888045975 0.0 0.0
0.0 0.00510413948298011 -0.00471993172222251 0.00398244149021394 0.000737490232008571 0.00031413168221411234 0.0 0.0
0.0 0.009879240662755445 -0.00895966058055945 0.00796561748128362 0.000994043099275825 0.0003548785551641126 0.0 0.0
0.0 0.01653266471047169 -0.014821939442780385 0.01361472936662458 0.001207210076155804 0.00036104940362021365 0.0 0.0
0.0 0.025223017275675188 -0.022389884733458976 0.02096196852910779 0.0014279162043511887 0.0003040957398278818 0.0 0.0
0.0 0.035915314267579816 -0.03164773240780424 0.02996557892123886 0.0016821534865653623 0.00022671693437598377 0.0 0.0
0.0 0.048228204251435286 -0.04255397327796281 0.04057794983514832 0.001976023442814469 0.00012524683044413173 0.0 0.0
0.0 0.0624642760366064 -0.05505887772000773 0.05275853392839287 0.0023003437916147918 -5.5714017780851555e-05 0.0 0.0
0.0 0.07849438112119267 -0.06910132259780523 0.06646112595275698 0.0026401966450482883 -0.00028227255883151066 0.0 0.0
0.0 0.09610676166535059 -0.08449004223040735 0.08152253816653865 0.002967504063868552 -0.00061036366609892 0.0 0.0
0.0 0.1147337432261521 -0.10068714433866677 0.09744410504010789 0.0032430392985588787 -0.0010071174972598393 0.0 0.0
0.0 0.13315072688392496 -0.11665251792544154 0.11323430586120306 0.0034182120642383186 -0.0013100369754344855 0.0 0.0
0.0 0.14957171141463393 -0.13085222741379998 0.12740217649584584 0.0034500509179540314 -0.0012478246402011853 0.0 0.0
0.0 0.16162123824947844 -0.1414152659576156 0.1379653507289575 0.003449915228658289 -0.0020440358424993147 0.0 0.0
0.0 0.16400670865985886 -0.14397818883125907 0.14054261763959092 0.00343557119166794 -0.018175012249712203 0.0 0.0
0.0 0.15977959224400728 -0.1359140591805039 0.1259697603024322 0.009944298878071545 1.4849232954361469e-15 0.0 0.0
0.0 0.16400670865982897 -0.14397818883123273 0.14054261763956488 0.0034355711916678527 0.018175012249717577 0.0 0.0
0.0 0.16162123824943075 -0.14141526595757395 0.13796535072891739 0.0034499152286565464 0.0020440358425043697 0.0 0.0
0.0 0.149571711414559 -0.13085222741373426 0.12740217649578223 0.0034500509179521653 0.0012478246402018462 0.0 0.0
0.0 0.13315072688383664 -0.11665251792536517 0.11323430586112655 0.0034182120642384296 0.001310036975433677 0.0 0.0
0.0 0.11473374322606203 -0.10068714433858797 0.09744410504003101 0.003243039298556887 0.0010071174972603597 0.0 0.0
0.0 0.09610676166525758 -0.08449004223032604 0.08152253816645896 0.002967504063866997 0.0006103636660957923 0.0 0.0
0.0 0.07849438112110285 -0.06910132259772671 0.06646112595268014 0.002640196645046561 0.00028227255883078034 0.0 0.0
0.0 0.06246427603651483 -0.05505887771992774 0.052758533928314505 0.0023003437916132435 5.571401778013858e-05 0.0 0.0
0.0 0.04822820425135209 -0.04255397327789014 0.04057794983507733 0.001976023442812759 -0.0001252468304475205 0.0 0.0
0.0 0.03591531426750874 -0.031647732407741935 0.029965578921178015 0.0016821534865639341 -0.000226716934378029 0.0 0.0
0.0 0.02522301727561542 -0.022389884733406824 0.02096196852905703 0.0014279162043498105 -0.0003040957398293153 0.0 0.0
0.0 0.01653266471042668 -0.014821939442740623 0.013614729366586024 0.0012072100761546124 -0.0003610494036208078 0.0 0.0
0.0 0.009879240662724175 -0.008959660580531149 0.007965617481256492 0.0009940430992746488 -0.0003548785551640739 0.0 0.0
0.0 0.005104139482960915 -0.004719931722204517 0.003982441490197464 0.0007374902320070533 -0.0003141316822138355 0.0 0.0
0.0 0.002143079555174207 -0.0018877536023596034 0.0014690942313671787 0.0004186593709924264 -0.00024529368880382235 0.0 0.0
0.0 0.0005363364599651313 -0.0003746384932510899 0.00026558436704194683 0.00010905412620914412 -0.00010184858483350972 0.0 0.0
0.0 5.752754090109717e-06 -4.401761606388579e-06 2.4492108629915605e-06 1.952550743397001e-06 -4.028027788057158e-06 0.0 0.0
0.0 0.0 0.0 0.0 0.0 0.0 0.0 0.0
0.0 0.0 0.0 0.0 0.0 0.0 0.0 0.0
0.0 0.0 0.0 0.0 0.0 0.0 0.0 0.0
SCALARS Wm float 4
LOOKUP_TABLE default
11.793580722414646 1.9793996906750717 4.835105821364543 4.979075210375024
5.706903646085405 2.773171309382897 1.3005809094199292 1.6331514272825796
0.6362008560598448 0.608750166900597 0.0013210851652107874 0.02612960399403684
0.49727347706792974 0.47924074550598916 0.004880987914039919 0.013151743647900907
0.953972246419217 0.7257913749425253 0.08068900312689134 0.14749186834979966
1.9912621134268997 1.0165614485991412 0.34670556091959653 0.6279951039081607
4.0466463681084015 1.4270112011541345 1.0945626878716965 1.5250724790825734
7.356680324451961 1.9198436579765972 2.485113284457716 2.9517233820176454
12.218759496741743 2.5277175637496874 4.739353025491937 4.951688907500122
18.867834572744286 3.286300308386114 8.037951675865909 7.54358258849227
27.448130278063708 4.230664978204377 12.499167737485944 10.718297562373387
37.94063729644546 5.380329350485517 18.097836284196035 14.46247166176392
50.522588300722596 6.726873662368745 25.032496415861566 18.763218222492306
65.20973096950814 8.262128723823892 33.33922458117565 23.608377664508595
81.85415058444619 9.875222579454942 43.03055645627734 28.948371548713865
99.97937168361688 11.364744811627421 53.95760733485271 34.657019537136776
118.60573197377646 12.478555748539122 65.6118743626899 40.51530186254745
136.33872097620926 13.012522324493556 77.1922312772715 46.133967374444126
151.61404215675586 12.983877585810646 87.59113033561195 51.03903423533339
162.32581600853132 12.311790111195304 95.32519979749152 54.688826099844405
165.8687696856241 11.119562558806248 98.52299139525036 56.22621573156754
162.32581600850176 12.311790111185223 95.3251997974778 54.688826099838785
151.61404215670356 12.983877585801734 87.59113033558239 51.039034235319356
136.33872097613755 13.012522324485321 77.1922312772287 46.133967374423534
118.60573197368602 12.478555748520137 65.6118743626421 40.51530186252372
99.97937168353188 11.36474481161786 53.95760733480307 34.65701953711099
81.85415058435953 9.875222579440102 43.03055645623088 28.948371548688563
65.20973096942826 8.262128723812653 33.3392245811319 23.608377664483697
50.522588300643754 6.726873662355775 25.032496415820383 18.763218222467636
37.94063729638063 5.380329350481751 18.097836284158817 14.46247166174008
27.448130278007525 4.230664978197208 12.499167737456943 10.71829756235335
18.86783457270119 3.2863003083800186 8.03795167584477 7.5435825884764025
12.218759496710966 2.527717563745578 4.739353025477482 4.951688907487913
7.356680324429719 1.919843657971612 2.4851132844489823 2.951723382009131
4.046646368096276 1.4270112011523246 1.094562687866946 1.5250724790770054
1.991262113420796 1.016561448597576 0.34670556091802535 0.6279951039051939
0.953972246416824 0.7257913749415054 0.0806890031263582 0.14749186834896058
0.49727347706737296 0.47924074550558793 0.004880987913985555 0.01315174364779948
0.6362008560589157 0.6087501668997862 0.0013210851651937728 0.026129603993935355
5.706903646080643 2.773171309383857 1.3005809094171847 1.6331514272796004
11.79358072238846 1.979399690662111 4.83510582135732 4.979075210369037
13.950207413690793 6.1537896460779695 3.7258821522205965 4.070535615392224
2.209698567700598 0.48389023879403303 0.7135385933388864 1.0122697355676782
0.25308909683400616 0.28652245845480057 -0.009916634845052938 -0.0235167267757415
0.3913643373189688 0.3876067459308401 0.0005345215536285668 0.003223069834500013
0.7252989801171695 0.5965496739184832 0.038268658009184 0.09048064818950242
1.596128233458284 0.8623539697601253 0.26519484105997226 0.46857942263818686
3.3222646925453745 1.1543710261796625 0.8804712960133014 1.28742237035241
6.228106578473515 1.5030841012130125 2.12284792525221 2.6021745520082944
10.522270858886301 1.8933937474492308 4.1675360298692645 4.461341081567804
16.34695457277105 2.332793613111222 7.144172520397687 6.869988439262134
23.795811994369156 2.8255495848417036 11.159400803463512 9.81086160606394
32.97477405098921 3.3879949174337365 16.32311271502011 13.263666418535367
43.75373120654143 4.032853175593293 22.491896386701555 17.228981644246588
56.45352733019192 4.740386373439215 30.01341735981996 21.69972359693275
70.89215767755532 5.462854773589344 38.78163505390842 26.647667850057562
86.7142954582107 6.08778461547794 48.668599516811526 31.957911325921224
103.16275362674101 6.4750227844919745 59.29385878316524 37.39387205908376
119.07003525690224 6.522829025661867 69.91418234441653 42.63302388682384
132.86294607973247 6.170835451959692 79.46810322359619 47.22400740417655
142.60459047534442 5.464850119817797 86.57975358818696 50.55998676733962
146.231364505409 4.6828006472384205 89.59596562674001 51.95259823143056
142.60459047532515 5.464850119817294 86.5797535881742 50.55998676733365
132.86294607969438 6.170835451961787 79.46810322356905 47.22400740416361
119.07003525684758 6.522829025664635 69.91418234437783 42.633023886805134
103.16275362667486 6.475022784490683 59.2938587831222 37.39387205906197
86.71429545813855 6.0877846154733515 48.66859951676718 31.957911325898028
70.89215767748576 5.462854773586004 38.781635053865685 26.647667850034065
56.453527330126455 4.740386373437202 30.0134173597797 21.69972359690955
43.753731206476864 4.032853175589121 22.491896386664173 17.228981644223563
32.97477405093154 3.3879949174314303 16.32311271498669 13.263666418513422
23.795811994320257 2.825549584837857 11.15940080343711 9.810861606045297
16.346954572733157 2.332793613106747 7.144172520378887 6.869988439247518
10.522270858859871 1.893393747447956 4.167536029855863 4.46134108155605
6.228106578455394 1.5030841012106917 2.1228479252443586 2.6021745520003456
3.3222646925344197 1.1543710261772515 0.8804712960094775 1.2874223703476892
1.5961282334529503 0.8623539697584384 0.2651948410584534 0.4685794226360585
0.7252989801156227 0.5965496739177913 0.03826865800886725 0.09048064818896394
0.39136433731866166 0.3876067459304973 0.0005345215536290323 0.0032230698345354237
0.25308909683402525 0.2865224584546472 -0.00991663484499071 -0.023516726775631228
2.209698567694449 0.48389023879324644 0.7135385933363114 1.0122697355648924
13.95020741366542 6.153789646066317 3.72588215221331 4.070535615385789
10.440011609436056 4.857095103264956 2.5550782726429278 3.027838233528172
1.3591207922231945 0.18394432239606864 0.4720675135728046 0.7031089562543227
0.15944365573408126 0.15943975286759848 3.6858834978215206e-07 3.5342781329661686e-06
0.29319150364702184 0.29513688593428067 -0.00038579894315706457 -0.0015595833441016884
0.5544755370609628 0.5082446499248688 0.01101353078235979 0.03521735635373419
1.2415734484391832 0.7737370639093555 0.1630599311616548 0.3047764533681732
2.6819810799379376 1.0558185668917373 0.6308228558506782 0.9953396571955224
5.2159343923405075 1.386434029676034 1.6744907759911976 2.155009586673274
8.989333399442797 1.7432399060915118 3.4232863763037056 3.8228071170475784
14.132945811734901 2.130668617614962 6.01517925970057 5.987097934419369
20.671253937062424 2.558503883920615 9.495243455689161 8.617506597452643
28.609925048008673 3.041593024502893 13.875239486875065 11.693092536630708
38.158709367160796 3.6033260506500127 19.3472340591277 15.208149257383084
49.14197588845077 4.2358292251780885 25.722018326901104 19.18412833637156
61.794246516669766 4.886201060354231 33.31570291341997 23.59234254289556
75.72909995203489 5.477301986010705 41.90312994024157 28.34866802578264
90.322876429618 5.89522169655249 51.15696108819036 33.270693644875166
104.52622527991122 6.011813893986748 60.48750692955045 38.026904456374005
116.86426899585724 5.726102696023504 68.94422893549198 42.19393736434178
125.621162088433 5.1837651040665245 75.23083893825728 45.20655804610919
128.7753944914094 4.247415647881531 77.9958018729716 46.532176970556286
125.62116208841363 5.183765104063616 75.23083893824634 45.20655804610362
116.86426899582516 5.726102696028475 68.94422893546711 42.19393736432956
104.52622527986057 6.011813893986081 60.48750692951733 38.026904456357116
90.32287642956246 5.895221696554512 51.156961088152535 33.27069364485544
75.72909995197776 5.477301986013615 41.90312994020254 28.34866802576159
61.79424651660835 4.886201060351457 33.315702913382474 23.592342542874377
49.14197588839284 4.235829225176106 25.722018326866113 19.184128336350618
38.158709367107235 3.6033260506512494 19.34723405909415 15.208149257361848
28.609925047958875 3.0415930245016916 13.87523948684606 11.693092536611138
20.671253937019898 2.5585038839175795 9.495243455666449 8.617506597435868
14.132945811702518 2.130668617611407 6.0151792596846585 5.987097934406455
8.989333399418651 1.7432399060899486 3.423286376291876 3.8228071170368287
5.215934392324927 1.3864340296748807 1.6744907759841539 2.1550095866658943
2.6819810799291655 1.0558185668899798 0.6308228558477433 0.9953396571914411
1.2415734484350116 0.7737370639077484 0.16305993116064105 0.3047764533666226
0.5544755370599332 0.5082446499242752 0.011013530782211152 0.03521735635344662
0.29319150364676316 0.2951368859339941 -0.0003857989431512659 -0.0015595833440797107
0.15944365573403443 0.15943975286754694 3.6858835011565413e-07 3.534278137339392e-06
1.359120792218176 0.18394432239562736 0.47206751357073345 0.7031089562518145
10.440011609412482 4.857095103255057 2.5550782726359467 3.027838233521479
7.8425090237087876 3.7756718039583617 1.7867752629751785 2.280061956775248
0.9018244707777407 0.09208538695571711 0.3059969471381166 0.5037421366839061
0.1122730735196332 0.1122730735196332 0.0 0.0
0.2210259605800274 0.22111519924411635 -3.959474118788444e-06 -8.527918997020386e-05
0.42502159101857934 0.4207460625065626 0.00025046672836335235 0.0040250617836534155
0.9257300385002455 0.6674650115034252 0.07961772172114352 0.1786473052756773
2.114631578457714 0.9614894343602631 0.43534673676473057 0.7177954073327195
4.2447670865414535 1.264349870109482 1.260547067437077 1.7198701489948927
7.5112886604777085 1.5904333998217492 2.729927642689026 3.190927617966933
11.967030607636115 1.9318084419505372 4.927769992273308 5.107452173412273
17.591393105598208 2.2985907710196454 7.863684316088955 7.4291180184896115
24.45388403090165 2.7153212816347088 11.611243413338636 10.127319335928313
32.523443632512034 3.1975008872762305 16.12198987242452 13.20395287281129
42.10617739819453 3.7473163447121687 21.686235858236312 16.672625195246052
52.95694222443853 4.337474300786867 28.077309396359343 20.54215852729233
64.96586967157238 4.898692547281177 35.32337741897016 24.743799705321045
77.77594154712125 5.338838889953682 43.322490841752575 29.11461181541498
90.35277969165665 5.528577275610484 51.425446923765044 33.39875549228113
101.38392655563416 5.362299121982523 58.820280981633 37.20134645201864
109.34587231094088 4.92995502659634 64.40577742911414 40.01013985523044
112.21963346861628 3.8092455296722214 67.09433512634729 41.31605281259674
109.345872310931 4.929955026601002 64.40577742910428 40.01013985522568
101.38392655559831 5.362299121977299 58.82028098161271 37.20134645200836
90.35277969161929 5.528577275616832 51.4254469237362 33.39875549226625
77.77594154706803 5.338838889948984 43.32249084172108 29.11461181539795
64.96586967151916 4.898692547281011 35.323377418936126 24.74379970530206
52.95694222438618 4.337474300784875 28.077309396327617 20.542158527273685
42.10617739814789 3.7473163447154803 21.686235858205478 16.67262519522693
32.52344363246338 3.197500887276004 16.12198987239526 13.203952872792115
24.4538840308586 2.715321281632565 11.611243413314687 10.127319335911345
17.591393105559977 2.298590771014277 7.863684316070362 7.429118018475341
11.967030607608738 1.931808441949165 4.927769992259153 5.107452173400413
7.51128866045681 1.5904333998199345 2.7299276426792267 3.1909276179576476
4.244767086528177 1.264349870108291 1.260547067431513 1.7198701489883714
2.1146315784501333 0.9614894343587819 0.4353467367620551 0.7177954073292964
0.9257300384972553 0.6674650115021475 0.07961772172049926 0.17864730527460868
0.42502159101778486 0.42074606250586316 0.00025046672832221864 0.004025061783599491
0.22102596057982285 0.22111519924392886 -3.959474120071409e-06 -8.527918998596422e-05
0.11227307351950215 0.11227307351950215 0.0 0.0
0.9018244707736633 0.09208538695549769 0.3059969471363868 0.5037421366817794
7.842509023689554 3.775671803950453 1.7867752629697429 2.2800619567693623
5.80291596512013 2.9127563596733514 1.2047517385179423 1.6854078669288366
0.6599466129654695 0.10784632387200084 0.2139865327894476 0.33811375630402113
0.10220797194666231 0.10220797194666231 0.0 0.0
0.1766483444390407 0.17664205487204776 3.5059575947504334e-07 5.938971233487455e-06
0.3289402643598327 0.33439439869982523 -0.00179598457315614 -0.003658149766836293
0.6819372115207082 0.5747976714068441 0.02857508357732994 0.07856445653653384
1.5987991619871684 0.8465321147788389 0.27800993033887045 0.47425711686946054
3.3297566515688195 1.138156338899691 0.8896459438097719 1.3019543688593562
6.084126067739072 1.4337668980635117 2.0812701757742578 2.569088993901304
9.856133904593996 1.7338603735646392 3.8875937410505403 4.23467978997882
14.624138588338425 2.0497037116965697 6.327899953891996 6.246534922749856
20.38423584515134 2.4019230056298557 9.412196866143605 8.570115973377881
27.224080099082602 2.8150457477254434 13.203113502106016 11.205920849251152
35.10492691402544 3.2919755225803464 17.631527235892733 14.181424155552369
44.30174648873126 3.8089916310403464 22.99030729345252 17.50244756423839
54.594260373729306 4.337601099120468 29.12369187918189 21.132967395426952
65.52013648569985 4.80184490692387 35.75655488642507 24.96173669235092
76.49867871823152 5.077775130413623 42.663549938096914 28.75735364972096
86.34822076280858 5.040942735508061 49.1174499749125 32.189828052388044
93.70768411690274 4.70168842836019 54.18461934068213 34.82137634786039
96.411461336506 3.378121798670106 56.8480700400155 36.18526949782043
93.70768411689195 4.701688428363972 54.18461934067255 34.82137634785543
86.34822076279198 5.04094273551797 49.1174499748951 32.18982805237889
76.49867871819396 5.077775130413277 42.66354993807273 28.75735364970794
65.5201364856569 4.801844906919952 35.75655488639995 24.961736692336984
54.594260373681315 4.3376010991150595 29.123691879154983 21.132967395411267
44.30174648868227 3.808991631031333 22.99030729342767 17.502447564223278
35.104926913980776 3.2919755225780865 17.631527235866926 14.181424155535758
27.224080099040982 2.8150457477223267 13.2031135020832 11.205920849235449
20.384235845115963 2.4019230056282583 9.412196866124193 8.570115973363515
14.624138588308131 2.0497037116932972 6.327899953877004 6.246534922737832
9.85613390456952 1.733860373563382 3.8875937410381765 4.234679789967966
6.084126067722155 1.4337668980629148 2.081270175766193 2.569088993893048
3.3297566515574046 1.1381563388969675 0.8896459438058144 1.3019543688546225
1.5987991619815038 0.8465321147773962 0.27800993033708404 0.47425711686702376
0.6819372115186236 0.5747976714059673 0.02857508357692433 0.07856445653573205
0.32894026435930873 0.33439439869914245 -0.00179598457312257 -0.0036581497667111554
0.17664834443881225 0.1766420548718228 3.5059575927603094e-07 5.938971230153005e-06
0.10220797194648544 0.10220797194648544 0.0 0.0
0.6599466129622162 0.10784632387181317 0.21398653278805896 0.3381137563023447
5.802915965104751 2.9127563596670267 1.204751738513764 1.6854078669239592
4.211696315208858 2.229664340118194 0.788490201462704 1.1935417736279608
0.4668423926906643 0.14263562434421742 0.1099152231348582 0.21429154521158844
0.11487527333189104 0.11487527333189104 0.0 0.0
0.15507272552529575 0.15505730758611636 1.0256537066026557e-06 1.4392285472793056e-05
0.26585448715335425 0.2696295513148038 -0.0007073055230752093 -0.00306775863837442
0.49711036117913454 0.4710374506205691 0.0029632652048355453 0.023109645353730144
1.1289024420786062 0.712986269100462 0.131152595713906 0.28476357726423807
2.523931660252962 1.0038832558011708 0.6113022943361361 0.9087461101156552
4.699626897769862 1.270000615213803 1.4683279781334861 1.9612983044225765
7.8311155712433385 1.5368988873888487 2.922195835418868 3.3720208484356187
11.748422515238401 1.806614720339327 4.869632077485561 5.0721757174135105
16.44730069196873 2.103649203644143 7.320216933535079 7.023434554789513
21.9759768475611 2.451355229804951 10.302267115761381 9.222354501994761
28.472718992885916 2.8576130676598557 13.91483222589786 11.700273699328195
35.93172562734495 3.318372714040464 18.13345708691516 14.479895826389319
44.328046134419665 3.796201414820806 22.9925890736821 17.539255645916757
53.622837628000575 4.263673144912334 28.568654173230403 20.790510309857844
63.00312632668622 4.639343542611261 34.26661936703215 24.09716341704281
71.6660417338346 4.746785195979755 39.731756407144715 27.187500130710156
78.55517713472622 4.500691423473627 44.37742637635194 29.677059334900637
81.18702321288643 2.9625575626015603 47.10066218959313 31.123803460691732
78.55517713471535 4.50069142347522 44.37742637634389 29.6770593348962
71.66604173381339 4.746785195982322 39.73175640712935 27.187500130701718
63.00312632666001 4.639343542614339 34.26661936701326 24.097163417032355
53.62283762796749 4.263673144911471 28.568654173210014 20.790510309845995
44.32804613438688 3.796201414823306 22.992589073660202 17.539255645903403
35.93172562730975 3.318372714036687 18.13345708689599 14.479895826377078
28.4727189928518 2.857613067658418 13.91483222587841 11.700273699314966
21.975976847531527 2.4513552298071835 10.302267115742888 9.222354501981453
16.447300691938434 2.103649203640676 7.320216933519967 7.02343455477779
11.748422515213004 1.8066147203374976 4.8696320774727715 5.072175717402741
7.831115571222281 1.5368988873856495 2.9221958354096875 3.3720208484269394
4.699626897755699 1.270000615212769 1.4683279781272185 1.9612983044157126
2.5239316602442394 1.0038832557991688 0.6113022943330845 0.9087461101119854
1.1289024420746694 0.7129862690994742 0.13115259571276455 0.28476357726243057
0.49711036117759905 0.4710374506195703 0.0029632652046723057 0.023109645353356648
0.2658544871529439 0.26962955131433963 -0.000707305523062566 -0.0030677586383331874
0.1550727255251364 0.15505730758596245 1.0256537061492444e-06 1.4392285467779322e-05
0.11487527333167849 0.11487527333167849 0.0 0.0
0.46684239268835287 0.14263562434407495 0.1099152231339244 0.21429154521035385
4.211696315196802 2.2296643401132235 0.7884902014595977 1.1935417736239822
2.945142934309764 1.6808676905297442 0.46638062986496015 0.7978946139150609
0.35197218084085724 0.18575314851837715 0.05126886552675544 0.11495016679572434
0.1376108073495155 0.1376265651814698 -8.23290305344124e-07 -1.4934541648948963e-05
0.1504214365042943 0.15040715048817718 9.176681420014073e-07 1.3368347975063384e-05
0.2261169039803832 0.2271962375208884 -0.00019322508754979523 -0.0008861084529554853
0.37283674870200173 0.38295013585732235 -0.0043463779248126356 -0.005767009230507818
0.7787750178848809 0.5937832252169996 0.050112532373658376 0.13487926029422292
1.7330732297155311 0.8370594339503054 0.3180263748521484 0.5779874209130774
3.4941667654668915 1.1066414101555504 1.009735515158582 1.377789840152758
5.867455605772783 1.3342808901563497 2.0114769855817416 2.521697730034692
8.991345176736896 1.5674974013302316 3.5140840496616135 3.909763725745053
12.682977345996617 1.8165131093542595 5.377555769051295 5.48890846759106
16.98508671944941 2.1059561188716356 7.623704032779213 7.255426567798565
22.012210134773674 2.448299569530576 10.324275106141993 9.239635459101102
27.84626319118497 2.8431958614421573 13.526833535005988 11.476233794736828
34.615217152498204 3.281749676230977 17.374355377683255 13.959112098583967
41.862707103348555 3.733905056553031 21.485068527269444 16.643733519526098
49.73842646812761 4.17922007176257 26.149488015682493 19.40971838068255
57.44954486616787 4.4550611876789485 30.85957191827578 22.134911760213146
63.88006207975619 4.332733390789402 35.0255496407547 24.521779048212093
66.55320252358283 2.5745697861339343 37.87584541136692 26.102787326081977
63.88006207974474 4.332733390785732 35.02554964074966 24.521779048209343
57.44954486614566 4.455061187672053 30.85957191826602 22.134911760207597
49.73842646810169 4.179220071758946 26.149488015668542 19.409718380674192
41.86270710331784 3.7339050565474747 21.48506852725385 16.64373351951653
34.615217152467174 3.281749676229685 17.374355377665143 13.959112098572335
27.84626319115589 2.843195861438181 13.526833534991091 11.476233794726621
22.012210134749186 2.4482995695317813 10.324275106127061 9.239635459090346
16.985086719419783 2.1059561188654063 7.623704032765939 7.255426567788447
12.682977345976372 1.8165131093559774 5.377555769039237 5.488908467581159
8.991345176715486 1.5674974013274536 3.5140840496518377 3.9097637257361946
5.867455605757797 1.3342808901549918 2.0114769855749364 2.5216977300278693
3.49416676545558 1.106641410153472 1.0097355151541523 1.3777898401479567
1.7330732297093856 0.8370594339493291 0.3180263748499718 0.5779874209100853
0.7787750178820255 0.5937832252158626 0.05011253237303362 0.13487926029312935
0.3728367487013203 0.382950135856481 -0.00434637792476677 -0.0057670092303937995
0.22611690397999917 0.22719623752049709 -0.00019322508755067775 -0.0008861084529473133
0.15042143650407347 0.15040715048796172 9.176681415783688e-07 1.336834797013782e-05
0.13761080734928346 0.13762656518121894 -8.232903041218908e-07 -1.4934541631370911e-05
0.351972180839236 0.1857531485182319 0.051268865526156115 0.1149501667948479
2.945142934300845 1.6808676905259696 0.46638062986285833 0.7978946139120175
2.0373657334435746 1.2881504021661265 0.28103284412155805 0.4681824871558902
0.26176912635504396 0.20706152069624267 0.008087416509024172 0.0466201891497772
0.16189283939912186 0.16188700711702042 3.7705430600642793e-07 5.455227795464113e-06
0.15708332220119595 0.15705636797709432 1.9856943216208e-06 2.4968529779967134e-05
0.2029776689178642 0.20400774005432018 -0.00015403504602724014 -0.0008760360904287059
0.2982583474556415 0.30941248307639163 -0.0031312464309447108 -0.008022889189805512
0.520671985367697 0.47457888378982593 0.006384674236613158 0.03970842734125797
1.1124421423875444 0.6724540912037307 0.13488160169580055 0.30510644948801324
2.2845401539414842 0.9030467068194046 0.5238888755064229 0.8576045716156574
4.114436083758201 1.126452654031609 1.2888129239582609 1.6991705057683308
6.367881898184266 1.3230317402924947 2.282849559428873 2.762000598462898
9.083332348446126 1.5310868680622567 3.579768015352228 3.9724774650316386
12.241422802070751 1.77078756413343 5.159823984230827 5.310811253706492
15.898759652176118 2.0518126428940713 7.039029953681197 6.807917055600857
20.212348849334163 2.3892784101882785 9.322185201995024 8.500885237150861
25.172778869228686 2.778601412944216 11.985027015131715 10.40915044115277
30.839380832265995 3.2026649244982566 15.140018858567082 12.49669704920066
36.94564544415394 3.6843834361911294 18.52988015488188 14.731381853080933
43.3577460834284 4.126924107548084 22.178262883682784 17.052559092197537
49.47558450152687 4.191716148913542 25.96979718703447 19.31407116557886
52.33321825939402 2.222651118959257 29.02591923472077 21.084647905714
49.475584501529184 4.1917161489206185 25.96979718703139 19.314071165577182
43.357746083422384 4.126924107552219 22.17826288367651 17.05255909219367
36.94564544413871 3.6843834361915913 18.529880154872306 14.731381853074826
30.839380832248544 3.2026649245007777 15.140018858555084 12.49669704919268
25.172778869203135 2.778601412939377 11.985027015119483 10.40915044114427
20.212348849312008 2.389278410183892 9.322185201984775 8.500885237143347
15.898759652155352 2.0518126428908325 7.03902995367131 6.807917055593208
12.241422802057313 1.7707875641360293 5.159823984222062 5.3108112536992165
9.08333234842813 1.5310868680610963 3.5797680153433626 3.9724774650236707
6.367881898169633 1.3230317402918979 2.282849559421816 2.762000598455916
4.114436083747016 1.1264526540305795 1.28881292395333 1.6991705057631072
2.2845401539340253 0.9030467068170712 0.5238888755041435 0.8576045716128109
1.1124421423834951 0.6724540912031548 0.1348816016944762 0.305106449485863
0.5206719853662554 0.47457888378893903 0.006384674236474958 0.0397084273408413
0.2982583474550434 0.30941248307533376 -0.003131246430878395 -0.008022889189412139
0.2029776689175799 0.20400774005404665 -0.00015403504602583067 -0.0008760360904408967
0.1570833222008698 0.15705636797675626 1.985694321836739e-06 2.4968529791673438e-05
0.16189283939887034 0.16188700711677015 3.77054305894178e-07 5.455227794269461e-06
0.26176912635381594 0.20706152069587289 0.008087416508726294 0.046620189149216645
2.0373657334372597 1.288150402163469 0.2810328441200109 0.46818248715377997
1.315161853554165 0.9550881077558493 0.11446697214324252 0.24560677365507322
0.21157781323244682 0.21413199863503868 -0.0050015265981506445 0.0024473411955589137
0.18300648528611493 0.1830866632101914 -6.891134986441236e-06 -7.328678909005853e-05
0.17021011990386703 0.17027296278865214 -4.153057242887411e-06 -5.8689827542243214e-05
0.19285611947091205 0.19386062828522344 -0.00015468686253531622 -0.0008498219517760257
0.2548465137203247 0.259635346314642 -0.0015962121703945497 -0.003192620423922893
0.36946178732350776 0.37422600452094607 -0.004243451739213613 -0.0005207654582248003
0.6589671923150021 0.5203346912967854 0.034590857678154084 0.10404164334006263
1.3109597200580614 0.6894855190435503 0.2053910068526345 0.41608319416187645
2.426990580187068 0.8735233552223154 0.6058433088520352 0.9476239161127179
3.903271285261591 1.0452766542434326 1.1967858892029473 1.6612087418152126
5.707513004952285 1.2224521374106598 1.9956710173317185 2.4893898502099048
7.78627144802498 1.4203633195284548 2.9590946651432524 3.406813463353276
10.182367543504158 1.6465400131402848 4.106985624387031 4.42884190597684
13.016521780102357 1.9225148684355282 5.506242991075285 5.587763920591541
16.391723879748138 2.263515163101927 7.212039679012843 6.916169037633364
20.322479629479943 2.6628514810151906 9.237192826785718 8.422435321679036
24.70804136758569 3.10136502435389 11.52462483259955 10.082051510632247
29.81251479152169 3.6712137174547337 14.206625619655671 11.93467545441128
35.57226979004901 4.068591630569124 17.472030737180624 14.031647422299251
38.711576006522556 1.9474971572746087 20.637689144237452 16.126389705010514
35.572269790044196 4.068591630566338 17.472030737179388 14.031647422298466
29.812514791514147 3.671213717454015 14.206625619651593 11.934675454408543
24.708041367571347 3.1013650243505433 11.524624832593016 10.082051510627789
20.322479629458787 2.6628514810076824 9.237192826777816 8.422435321673278
16.391723879734528 2.2635151631017183 7.212039679005257 6.9161690376275535
13.016521780087414 1.9225148684307243 5.506242991069675 5.587763920587007
10.182367543495584 1.6465400131419126 4.106985624381542 4.4288419059721305
7.786271448010821 1.420363319524852 2.959094665137811 3.406813463348155
5.707513004940333 1.2224521374086283 1.9956710173266887 2.4893898502050185
3.903271285251189 1.0452766542423537 1.1967858891985557 1.6612087418102792
2.4269905801796794 0.873523355220467 0.6058433088495099 0.9476239161097025
1.310959720054427 0.689485519043087 0.20539100685137346 0.416083194159967
0.6589671923127465 0.5203346912962521 0.034590857677578836 0.10404164333891552
0.369461787322689 0.37422600451988264 -0.004243451739173221 -0.0005207654580204825
0.25484651371960143 0.25963534631373236 -0.0015962121703705712 -0.0031926204237603425
0.19285611947050857 0.1938606282848337 -0.00015468686253561074 -0.0008498219517894967
0.17021011990354853 0.1702729627883187 -4.153057241293014e-06 -5.868982752885634e-05
0.18300648528572344 0.1830866632097788 -6.891134984875096e-06 -7.328678907042576e-05
0.21157781323149383 0.214131998634467 -0.00500152659826668 0.0024473411952934208
1.3151618535501093 0.9550881077539947 0.11446697214238115 0.24560677365373376
0.841810313115128 0.7233112827231163 0.03277500578165726 0.08572402461035465
0.185700626511961 0.2009736835063932 -0.004634511131483727 -0.010638545862948502
0.19852537738560577 0.19853805830688112 -6.695763111968447e-07 -1.2011344964188092e-05
0.18585491739025653 0.1858633779228651 -2.3103769051607443e-08 -8.437428839509456e-06
0.19402866851526718 0.19479613409249438 -0.00013123582711272285 -0.0006362297501144635
0.2323546030173709 0.23772192434502745 -0.0014242209230007031 -0.003943100404655826
0.2989672215651789 0.2986546965306042 -0.0012176946311103299 0.0015302196656849525
0.39837567180074196 0.365652075763037 0.005981740979864428 0.02674185505784061
0.6146140689670042 0.45597991786267744 0.04174236949162337 0.11689178161270336
1.0622710494101393 0.5772617300965238 0.15826805682990985 0.3267412624837056
1.7928314386258395 0.7014850150595943 0.4140471536029594 0.6772992699632856
2.6893002783157027 0.8159083421247451 0.7446575133912757 1.1287344227996827
3.7770197275113406 0.9544043742434519 1.1860085041480524 1.6366068491198371
5.061794803542888 1.1220766154930217 1.731991417150318 2.2077267708995483
6.5923226955044125 1.3288648731260801 2.3982064575742483 2.8652513648040854
8.48684326744825 1.6053717277433848 3.2349501112830046 3.646521428421856
10.872527302214714 1.9677593508052984 4.313976415864826 4.590791535544584
13.773087634256301 2.3750876709437105 5.692821655676501 5.705178307636096
17.2064487184116 2.8387691389750085 7.357857621707182 7.009821957729413
22.102844375180524 3.709829919397478 9.64892431961682 8.744090136166225
26.362389285295304 1.8381795579524145 13.250904179893691 11.27330554744919
22.10284437518208 3.7098299193961424 9.648924319618505 8.744090136167422
17.206448718406747 2.838769138972494 7.357857621705818 7.009821957728434
13.773087634250967 2.375087670945467 5.692821655672572 5.7051783076329325
10.872527302205324 1.9677593508035067 4.313976415860661 4.590791535541157
8.486843267441271 1.6053717277439348 3.2349501112790655 3.6465214284182714
6.59232269550448 1.328864873130759 2.3982064575719804 2.865251364801743
5.061794803535209 1.122076615490818 1.7319914171475466 2.2077267708968438
3.777019727507455 0.9544043742434214 1.1860085041462163 1.6366068491178172
2.6893002783105207 0.8159083421251333 0.7446575133887419 1.1287344227966454
1.7928314386215034 0.7014850150599098 0.4140471536009892 0.6772992699606047
1.0622710494075864 0.5772617300956286 0.15826805682922795 0.32674126248272967
0.6146140689655977 0.45597991786259323 0.041742369491194864 0.11689178161180967
0.39837567180006234 0.3656520757626736 0.005981740979759268 0.026741855057629656
0.2989672215644696 0.29865469652999244 -0.0012176946311509666 0.001530219665628046
0.23235460301654715 0.23772192434406203 -0.0014242209229683308 -0.003943100404546533
0.19402866851488032 0.19479613409203142 -0.00013123582710297771 -0.0006362297500480381
0.1858549173898868 0.18586337792249755 -2.3103770350947355e-08 -8.437428840387982e-06
0.1985253773851332 0.19853805830639892 -6.695763105209002e-07 -1.2011344955200635e-05
0.1857006265115841 0.2009736835057995 -0.0046345111314300205 -0.01063854586278541
0.8418103131128052 0.7233112827218365 0.03277500578130901 0.08572402460965943
0.536555768631095 0.522618798616606 0.002091416232857376 0.011845553781631666
0.17637613362824403 0.17878760351192877 -0.00036182434972231443 -0.0020496455339624013
0.20813203936622307 0.20827020698425736 -1.1011372613498148e-05 -0.00012715624542082438
0.20133608464028724 0.2015764646817093 -2.621792073986274e-05 -0.0002141621206822045
0.20387908162348703 0.20456650833129977 -0.00014551860621541115 -0.0005419081015973571
0.22992152353157064 0.23365682183933015 -0.0011479699791325296 -0.002587328328626987
0.2788839303406907 0.2759817067622407 -0.0003427082381342566 0.003244931816584381
0.32948406072233416 0.2877295285443319 0.00905554036896905 0.032698991809033136
0.36858025438479747 0.2623978481598397 0.031766781891882034 0.074415624333076
0.433544510359666 0.22291017961941023 0.06738538429214593 0.14324894644810993
0.5975425490306374 0.22928804485674814 0.13929582331610096 0.22895868085778853
0.8569780569626704 0.2696723812021702 0.22756650535767978 0.3597391704028204
1.2246357264539265 0.29796429467366825 0.370725610951829 0.555945820828429
1.698737339147464 0.30113408012442167 0.576049878190819 0.8215533808322233
2.299185902076443 0.31203299794484224 0.8473450078062638 1.1398078963253377
3.0281491416369692 0.3505135429406545 1.1724258871060431 1.5052097115902703
3.938611150122962 0.43597338438759453 1.5853692693298285 1.91726849640554
5.043278797417305 0.5708448018354089 2.0944749667811378 2.377959028800758
6.703838557667939 0.8575646857978004 2.8215258351462453 3.0247480367238926
10.730373364547322 2.1161531845859223 4.156670110658928 4.457550069302472
17.881023082173225 1.8302777147849052 8.228720069613221 7.8220252977751015
10.730373364555666 2.116153184590436 4.156670110661127 4.457550069304106
6.703838557669563 0.8575646858003252 2.8215258351457067 3.0247480367235275
5.043278797410415 0.5708448018339932 2.0944749667781815 2.377959028798241
3.93861115011466 0.43597338438485644 1.5853692693270545 1.917268496402746
3.0281491416359896 0.3505135429419921 1.1724258871049302 1.5052097115890675
2.299185902068241 0.3120329979411105 0.8473450078042003 1.1398078963229306
1.6987373391474883 0.3011340801266639 0.5760498781898173 0.8215533808310087
1.2246357264525916 0.29796429467508473 0.3707256109505406 0.5559458208269661
0.8569780569577521 0.26967238119922665 0.22756650535662154 0.3597391704019044
0.5975425490290543 0.22928804485629822 0.13929582331557014 0.22895868085718535
0.4335445103591885 0.22291017961945525 0.06738538429195987 0.1432489464477737
0.3685802543846794 0.2623978481598863 0.031766781891822575 0.07441562433297041
0.329484060721561 0.2877295285441861 0.009055540368759819 0.03269899180861511
0.2788839303398973 0.27598170676157546 -0.00034270823817755813 0.0032449318164992436
0.22992152353093528 0.2336568218385093 -0.0011479699790969452 -0.0025873283284772288
0.20387908162325075 0.2045665083308786 -0.0001455186061950359 -0.000541908101432832
0.20133608463974373 0.20157646468107726 -2.6217920727594325e-05 -0.0002141621206059642
0.20813203936592212 0.20827020698400803 -1.1011372618314835e-05 -0.00012715624546759047
0.17637613362809948 0.17878760351177728 -0.0003618243497182442 -0.002049645533959572
0.536555768629831 0.5226187986151665 0.0020914162328450254 0.011845553781819567
0.3525836375789956 0.3531290180629157 -7.607867067418168e-05 -0.00046930181324595266
0.1674762370782021 0.16742880349210446 7.829739053598955e-06 3.96038470440839e-05
0.2118661313074146 0.21182439037657239 1.514769564138231e-06 4.0226161278045664e-05
0.2146481873708819 0.21483462488031996 -3.0430800601613028e-05 -0.00015600670883645943
0.21943212034953694 0.2194988577985623 -7.851627642771715e-05 1.1778827402355753e-05
0.24765528261198738 0.24974250413623697 -0.0009998017050338187 -0.0010874198192159005
0.3075533578220589 0.30666560034028145 -0.0005456152453467712 0.001433372727124128
0.40193114520128664 0.36716971211942784 0.006762380207056499 0.027999052874802324
0.6154426109479638 0.45574979654656256 0.042117816189379084 0.11757499821202202
1.0611801823976406 0.5767981786492787 0.15797420930209297 0.32640779444626866
1.7935012452872277 0.7032093339756511 0.41396572133520815 0.676326189976369
2.6994993910706455 0.8176535763035442 0.7498595874552049 1.1319862273118964
3.8026496415325646 0.9586019164495624 1.1962342318671002 1.6478134932159025
5.098532943254966 1.1257451809721577 1.7490538661489192 2.223733896133888
6.559980012019599 1.3149694783266717 2.390030332997524 2.8549802006953997
8.129459809868258 1.5307133319559316 3.0928216283046552 3.505924849607674
9.605997943946562 1.7589696455308266 3.756000789830875 4.091027508584858
10.804285860300144 2.017646880417015 4.301329143946834 4.485309835936301
11.227488657024658 2.1891326637791524 4.473005516343216 4.565350476902291
8.97112328546941 1.28659847801321 3.8943179703356634 3.7902068371205324
18.105140258018963 3.1168102202538006 7.5303366872501 7.457993350515071
8.97112328547416 1.2865984780129374 3.894317970338441 3.790206837122775
11.227488657018977 2.1891326637742616 4.473005516342726 4.5653504769019895
10.804285860293742 2.0176468804165606 4.30132914394355 4.485309835933627
9.605997943939322 1.758969645534093 3.756000789825278 4.091027508579955
8.129459809856309 1.5307133319511013 3.0928216283009506 3.505924849604257
6.559980012011312 1.3149694783265984 2.3900303329934296 2.854980200691285
5.098532943246537 1.1257451809690626 1.7490538661462425 2.2237338961312325
3.802649641520173 0.9586019164455923 1.1962342318630248 1.64781349321156
2.6994993910638145 0.8176535763045362 0.7498595874517118 1.1319862273075654
1.7935012452795265 0.7032093339736425 0.413965721332684 0.6763261899732005
1.0611801823932105 0.5767981786481552 0.1579742093007819 0.3264077944442738
0.6154426109466756 0.45574979654600434 0.04211781618913538 0.11757499821153584
0.4019311452001293 0.3671697121188802 0.006762380206858796 0.02799905287439029
0.3075533578211965 0.306665600339558 -0.0005456152453911561 0.0014333727270295872
0.24765528261136796 0.2497425041354235 -0.0009998017050042358 -0.001087419819051361
0.21943212034917442 0.21949885779800637 -7.851627640546257e-05 1.177882757352089e-05
0.2146481873706753 0.214834624879921 -3.0430800581224095e-05 -0.00015600670866453546
0.21186613130729565 0.21182439037630618 1.5147695734717208e-06 4.022616141592205e-05
0.16747623707810622 0.1674288034919885 7.82973905243608e-06 3.960384706536722e-05
0.35258363757817307 0.35312901806212094 -7.607867067860576e-05 -0.0004693018132692722
0.22830644382398121 0.22830644382398121 0.0 0.0
0.15387563680717248 0.15389819246549488 -1.3752797492406909e-06 -2.118037857320858e-05
0.20898125208246415 0.20914431796099525 -1.6267978268638977e-05 -0.00014679790026241195
0.22428191992973545 0.22362332999482384 8.236084885706034e-05 0.0005762290860546626
0.2389789346641774 0.24157535213187142 -0.00048608776552671944 -0.0021103297021672707
0.283877052779256 0.2900303905025717 -0.0015153696086283358 -0.004637968114687355
0.3828915339242157 0.3761728846000087 -0.002025987365299092 0.008744636689506107
0.6649171810371288 0.5210235033381723 0.03657764839265419 0.10731602930630268
1.3107750752324612 0.6893121426735247 0.20535622093545558 0.4161067116234808
2.424976693033237 0.8733290620846982 0.6049080159283696 0.9467396150201677
3.903924457800182 1.0455016931373313 1.1968947385025044 1.6615280261603453
5.7164654378859225 1.2236980120129686 1.9995147164474651 2.4932527094254873
7.809254539439198 1.4227215332961827 2.9699160274363674 3.416616978706656
10.21058760397163 1.645931169019905 4.122808005742021 4.4418484292097
12.971757854293827 1.9006753240723007 5.49471019649645 5.576372333725074
16.018335944943075 2.1797965062460753 7.05063131122568 6.78790812747132
19.099124526404953 2.479645445556545 8.639714088478012 7.979764992370392
21.783451261591807 2.8205100287656215 9.971725270907406 8.99121596191878
23.13797356534579 2.9431593512082346 10.704354852208704 9.490459361928838
21.39459030429546 2.891902463312218 9.811947499543066 8.690740341440174
26.13338611992637 6.523545281633643 10.32311735664953 9.286723481643179
21.394590304296997 2.891902463307455 9.811947499546804 8.690740341442748
23.13797356534124 2.943159351206424 10.704354852207079 9.490459361927735
21.7834512615767 2.820510028760814 9.971725270901352 8.99121596191454
19.09912452638606 2.479645445554816 8.639714088468116 7.979764992363123
16.01833594492098 2.179796506239575 7.05063131121688 6.78790812746453
12.971757854280442 1.900675324073837 5.494710196488235 5.5763723337183695
10.21058760395146 1.6459311690137677 4.122808005734504 4.441848429203186
7.809254539424674 1.4227215332965157 2.9699160274286287 3.4166169786995297
5.716465437870545 1.2236980120108587 1.9995147164407883 2.4932527094188957
3.9039244577880643 1.045501693135909 1.196894738497442 1.661528026154711
2.4249766930246865 0.8733290620840378 0.6049080159247905 0.9467396150158581
1.3107750752277656 0.6893121426722474 0.20535622093408606 0.41610671162143203
0.6649171810347446 0.5210235033376307 0.03657764839204126 0.10731602930507303
0.38289153392285835 0.37617288459867326 -0.0020259873653310934 0.008744636689516161
0.2838770527788231 0.29003039050198975 -0.0015153696085853123 -0.004637968114581274
0.23897893466362874 0.24157535213123435 -0.0004860877655126303 -0.0021103297020930306
0.2242819199294577 0.2236233299944833 8.236084885713761e-05 0.0005762290861172815
0.20898125208219215 0.20914431796072824 -1.6267978269060277e-05 -0.00014679790026707424
0.15387563680697408 0.15389819246530198 -1.3752797487088173e-06 -2.118037857911301e-05
0.22830644382340287 0.22830644382340287 0.0 0.0
0.1408825554644418 0.1408825554644418 0.0 0.0
0.13498448305442826 0.13497511086401323 6.316936465528355e-07 8.74049676847986e-06
0.19937513010762983 0.1994202292743978 -3.6885917225397675e-06 -4.141057504537805e-05
0.23007952406606785 0.23073471964524644 -9.30497448005848e-05 -0.0005621458343779813
0.2623169812607038 0.263784217510688 -0.0003514067739336306 -0.0011158294760505406
0.3325795835422593 0.33314888457202724 -0.0018022740377755427 0.0012329730080077018
0.542258424547621 0.4844675547549139 0.011480280090407566 0.046310589702299405
1.1178148849174256 0.6733762025257719 0.13714232014140165 0.30729636225025203
2.2824863505427886 0.9029936810649192 0.5229643052808977 0.8565283641969711
4.11306938126777 1.1265882538237746 1.2883461005103445 1.6981350269336513
6.368914135089356 1.3231347357118606 2.2820805112386995 2.7636988881387996
9.090583412459475 1.5315330073160394 3.5834306532496765 3.9756197518937597
12.253402137384892 1.771496396089815 5.16605501952237 5.315850721772705
15.903306599341224 2.0488092058879586 7.04342897500912 6.811068418444144
20.146552290284898 2.3649814256632027 9.298534821892002 8.483036042729696
24.855507247180746 2.7032164169473156 11.843205636642672 10.309085193590752
29.874538676383352 3.053921090473674 14.651581148800418 12.169036437109261
34.2470463920812 3.3020638054960134 17.121971639502412 13.823010947082778
36.52339904533292 3.3199778674606684 18.49968018533523 14.703740992537014
33.87094858963377 2.9148208209935356 17.144608074408747 13.811519694231484
38.05602381791295 9.307049622802616 15.78455151064017 12.964422684470174
33.870948589634 2.914820820990066 17.144608074410996 13.811519694232928
36.52339904532597 3.3199778674609894 18.499680185330753 14.703740992534236
34.24704639207029 3.3020638054993894 17.121971639493754 13.823010947077151
29.874538676357947 3.053921090472543 14.651581148785809 12.169036437099587
24.855507247153184 2.703216416945083 11.84320563662776 10.309085193580339
20.14655229026081 2.3649814256604405 9.298534821879676 8.483036042720697
15.903306599319741 2.0488092058897447 7.043428974995987 6.811068418434006
12.253402137361135 1.7714963960874366 5.166055019510637 5.315850721763064
9.090583412437212 1.531533007313984 3.5834306532389473 3.9756197518842806
6.368914135069888 1.3231347357091476 2.28208051123018 2.763698888130562
4.113069381254256 1.1265882538213154 1.2883461005049759 1.698135026927964
2.282486350533747 0.902993681062953 0.5229643052777304 0.8565283641930636
1.1178148849134684 0.6733762025251034 0.13714232014015673 0.30729636224820817
0.5422584245455155 0.484467554753683 0.011480280090143478 0.04631058970168902
0.33257958354159 0.3331488845709663 -0.0018022740377226754 0.0012329730083463738
0.26231698126013286 0.26378421750994263 -0.0003514067739103002 -0.0011158294758995514
0.23007952406565296 0.23073471964467146 -9.304974478184564e-05 -0.0005621458342366643
0.1993751301073606 0.19942022927417366 -3.688591727990936e-06 -4.1410575085102475e-05
0.13498448305403687 0.13497511086362235 6.316936464977709e-07 8.740496767980233e-06
0.14088255546404038 0.14088255546404038 0.0 0.0
0.08236947764457891 0.08236947764457891 0.0 0.0
0.11222457557949705 0.11222457557949705 0.0 0.0
0.18405853358662766 0.18405162783883158 4.89220268079431e-07 6.416527528000789e-06
0.23244310856768002 0.23237741738422463 5.6673362444366325e-06 6.002384721091812e-05
0.2872639131607032 0.2915388224399293 -0.0008753235332441046 -0.003399585745981973
0.41044588300325907 0.4088208808563522 -0.0011726303403068706 0.002797632487213637
0.794484549268655 0.5908377870970596 0.0557854121497911 0.1478613500218041
1.7349388655665323 0.837471770860903 0.3190527420788142 0.5784143526268155
3.4912967200970595 1.1070118056710692 1.0081663003682504 1.3761186140577395
5.867004675220468 1.3345906347853091 2.010909072900617 2.521504967534543
8.99468214491013 1.5674252818295793 3.516133995444914 3.911122867635637
12.685679011996484 1.8154329462670962 5.379666975194789 5.490579090534596
16.977195326172914 2.102936846927353 7.621046547098982 7.253211932146587
21.978208577774673 2.4419043045103193 10.308392430293999 9.227911842970354
27.765899549203898 2.8279961540106715 13.488101518984319 11.449801876208907
34.42634491918486 3.244028876948601 17.282224066190423 13.900091976045832
41.20647188259975 3.59096630666592 21.168066036944108 16.447439538989755
47.34799145273304 3.718314709837092 24.942363584660434 18.6873131582355
50.40283721236831 3.454051128167658 27.052649370445607 19.896136713755034
46.93188149198792 2.9933889741900686 25.160758013082983 18.777734504714882
51.2354698124382 11.982419332061859 22.19875850860649 17.054291971769842
46.93188149198105 2.9933889741843007 25.1607580130823 18.77773450471445
50.402837212364176 3.4540511281739374 27.05264937043905 19.8961367137512
47.347991452702104 3.7183147098266076 24.94236358464757 18.687313158227933
41.206471882567186 3.590966306664807 21.168066036924735 16.447439538977637
34.42634491915333 3.244028876949725 17.282224066170578 13.900091976033035
27.765899549170538 2.8279961540073986 13.488101518966456 11.449801876196682
21.978208577748344 2.4419043045121396 10.308392430277623 9.227911842958584
16.97719532614318 2.102936846927217 7.621046547082178 7.253211932133774
12.685679011970095 1.8154329462661356 5.379666975180882 5.490579090523077
8.994682144887008 1.5674252818291556 3.5161339954330098 3.911122867624839
5.867004675201475 1.334590634781919 2.0109090728928347 2.5215049675267234
3.491296720084485 1.1070118056701919 1.0081663003626464 1.3761186140516455
1.7349388655595177 0.8374717708589913 0.3190527420766502 0.5784143526238767
0.7944845492653017 0.5908377870957827 0.0557854121490325 0.1478613500204859
0.4104458830022067 0.40882088085530555 -0.0011726303403056587 0.0027976324872070325
0.2872639131603706 0.29153882243954715 -0.0008753235332323973 -0.0033995857459440705
0.23244310856717953 0.2323774173837092 5.667336243974783e-06 6.002384722634068e-05
0.18405853358640806 0.18405162783860796 4.892202681134833e-07 6.416527531985191e-06
0.11222457557917992 0.11222457557917992 0.0 0.0
0.08236947764432975 0.08236947764432975 0.0 0.0
0.0453297485479792 0.0453297485479792 0.0 0.0
0.0883432218169575 0.0883432218169575 0.0 0.0
0.16469748984923188 0.16468683125493747 6.366593226293898e-07 1.002193497175889e-05
0.2320921250853916 0.2322536424556647 -2.143329157508067e-05 -0.00014008407869799526
0.31584874839527927 0.3184712283703224 -0.0010390269773052976 -0.0015834529977380028
0.5288561610615787 0.48928904526340733 0.008255027632374859 0.031312088165796254
1.1416824264879004 0.7138063839190382 0.13674941230103388 0.2911266302678283
2.5229348504943707 1.0046397580768232 0.6106691227391614 0.9076259696783869
4.69770453652945 1.2706904212136998 1.4671962266232188 1.9598178886925315
7.832436432240501 1.5372170889473389 2.922652512580887 3.3725668307122767
11.75185314116566 1.806195333172524 4.871719907438012 5.073937900555127
16.44291418026452 2.100325940333037 7.319630540696606 7.022957699234873
21.941565061241032 2.4423238443454283 10.28757561853504 9.211665598360565
28.391528962008536 2.846678180549675 13.873029191875263 11.671821589583596
35.84007245504346 3.3217365092425264 18.0755505504626 14.442785395338335
44.267892437503164 3.8025487468875 22.95089146447459 17.514452226141074
53.26271910514811 4.13608552345624 28.42130389256665 20.705329689125207
60.88465074900638 4.069369589359027 33.27776368593837 23.537517473709006
64.3643858882863 3.49326908880325 35.83503384705994 25.036082952423083
60.3975603445687 3.1489471082130147 33.568159589706376 23.68045364664932
65.60221462027457 14.704802763880439 29.539459823700422 21.357952032693692
60.39756034456206 3.148947108213167 33.56815958970206 23.680453646646843
64.36438588826779 3.49326908879892 35.835033847050894 25.036082952417953
60.884650748980825 4.069369589361338 33.27776368592057 23.537517473698934
53.26271910511415 4.136085523460089 28.421303892542728 20.705329689111334
44.2678924374669 3.802548746888484 22.950891464451495 17.514452226126924
35.84007245500424 3.3217365092419895 18.075550550439072 14.442785395323167
28.391528961969684 2.8466781805445156 13.873029191855194 11.671821589569975
21.941565061205274 2.4423238443459168 10.287575618513985 9.21166559834537
16.442914180229778 2.100325940329155 7.31963054067921 7.0229576992214096
11.751853141135278 1.8061953331706688 4.871719907422508 5.073937900542099
7.8324364322181825 1.537217088945426 2.9226525125703136 3.3725668307024397
4.697704536514114 1.2706904212125265 1.4671962266165113 1.959817888685078
2.5229348504844076 1.0046397580750062 0.610669122735438 0.9076259696739627
1.14168242648337 0.7138063839178908 0.13674941229972984 0.2911266302657496
0.5288561610597653 0.4892890452624523 0.008255027632109748 0.031312088165202964
0.3158487483948542 0.3184712283694602 -0.0010390269772408854 -0.0015834529973649716
0.23209212508493107 0.23225364245522875 -2.1433291580756372e-05 -0.00014008407871691806
0.1646974898488878 0.16468683125459993 6.366593221431451e-07 1.0021934965748754e-05
0.08834322181675673 0.08834322181675673 0.0 0.0
0.04532974854789964 0.04532974854789964 0.0 0.0
0.023408096069668618 0.023408096069668618 0.0 0.0
0.06587038476177816 0.06587038476177816 0.0 0.0
0.14364004354161944 0.1436340693985758 3.662909033654852e-07 5.6078521402870744e-06
0.23105087133458557 0.2311214466436768 -1.4673484154664351e-05 -5.5901824936530794e-05
0.35755150320775586 0.36358190285404973 -0.0017709515324044304 -0.0042594481138893536
0.690976519375698 0.5600498277077268 0.032399168683240255 0.0985275229847307
1.604279857908261 0.8469502561606653 0.2812440490200821 0.4760855527275132
3.328195459186726 1.1391309630466504 0.8883044556472637 1.3007600404928115
6.084150427632708 1.4344902371258894 2.081149535808289 2.5685106546985277
9.859184861063428 1.734129394172303 3.8891029120168374 4.235952554874289
14.626511911326277 2.0486131905387284 6.329840479975486 6.248058240812057
20.370576804211794 2.3959332063456915 9.407792219981193 8.566851377884912
27.16289278868061 2.799769041354633 13.175877081219951 11.187246666106022
34.978597857045116 3.2754590443203044 17.564819251085403 14.138319561639412
44.178896224064374 3.8233376218898316 22.90511517767297 17.450443424501564
54.591497360675135 4.384627063420027 29.09177502096349 21.11509527629163
65.3443109472386 4.693923223348687 35.712339433269335 24.938048290620564
74.52020683546817 4.3820985171133415 41.83047049203293 28.307637826321912
78.75927956515667 3.5208899107592897 45.14953631132185 30.08885334307554
74.43529447313978 3.3263508525908168 42.4684503818719 28.640493238677067
80.82527443255728 17.45124840664802 37.451301872870644 25.92272415303864
74.4352944731355 3.3263508525953283 42.46845038186618 28.640493238673983
78.75927956513043 3.520889910754669 45.14953631130772 30.088853343068017
74.52020683542688 4.382098517107892 41.8304704920096 28.307637826309346
65.3443109471946 4.693923223348276 35.71233943324137 24.93804829060494
54.59149736061796 4.384627063409589 29.091775020933923 21.11509527627443
44.17889622401586 3.823337621887491 22.90511517764431 17.450443424484046
34.97859785699647 3.2754590443154505 17.564819251058786 14.138319561622215
27.162892788639994 2.799769041354025 13.175877081196266 11.187246666089695
20.370576804168486 2.3959332063412395 9.407792219958807 8.56685137786843
14.626511911290788 2.0486131905379295 6.329840479956217 6.248058240796639
9.859184861036216 1.7341293941702691 3.8891029120034597 4.235952554862488
6.084150427613168 1.4344902371236719 2.081149535799759 2.568510654689735
3.328195459174662 1.13913096304531 0.8883044556422969 1.3007600404870552
1.6042798579018256 0.8469502561595015 0.28124404901785105 0.47608555272447217
0.6909765193733182 0.5600498277069238 0.03239916868269799 0.09852752298369645
0.3575515032072319 0.3635819028532757 -0.0017709515323509292 -0.004259448113692879
0.23105087133426935 0.23112144664336912 -1.4673484157050082e-05 -5.590182494262752e-05
0.14364004354139967 0.1436340693983562 3.662909033509835e-07 5.607852140109466e-06
0.06587038476163279 0.06587038476163279 0.0 0.0
0.02340809606962572 0.02340809606962572 0.0 0.0
0.01148358559078631 0.01148358559078631 0.0 0.0
0.04674171087530753 0.04674171087530753 0.0 0.0
0.12343964849465822 0.12343964849465822 0.0 0.0
0.23263465880993553 0.2329861986678407 -5.0493346408197895e-05 -0.00030104651149701913
0.41880915744435443 0.41445126487366385 0.0002304407575931043 0.004127451813097479
0.9218653839370878 0.6635280237931692 0.08030208715678103 0.1780352729871378
2.1136997262054655 0.961014478939886 0.4351857412144269 0.7174995060511529
4.24566597542834 1.2650383872328845 1.2609001243786593 1.7197274638167968
7.514147158326653 1.5911001711463533 2.7311698128132837 3.1918771743670127
11.97113926475008 1.9318463809391657 4.930047457027353 5.109245426783557
17.590892801830915 2.2964544158562923 7.8646445906694415 7.429793795305187
24.429612324524438 2.7067233471085075 11.602049604411969 10.120839373003973
32.44128794883497 3.178162058758934 16.084071681035702 13.179054209040315
41.94468818215241 3.7247504335563733 21.60035138683542 16.619586361760646
52.76890421870207 4.341698358167073 27.95610873493262 20.471097125602377
64.87439052230981 4.948108202424628 35.233260702796116 24.69302161708909
77.55099454829532 5.251941613461618 43.232788783360974 29.066264151472694
88.31311664535818 4.73449415072862 50.60612488984616 32.97249760478342
93.49765840463628 3.5688620244302296 54.77914872339418 35.14964765681185
89.28588231470619 3.4726720913359808 52.085767849858954 33.727442373511245
97.39080024233594 20.169269605706052 46.448592093507706 30.772938543122194
89.28588231468623 3.4726720913276505 52.08576784985122 33.72744237350741
93.49765840460404 3.5688620244282014 54.779148723374234 35.14964765680158
88.31311664531601 4.734494150732936 50.60612488981549 32.972497604767554
77.55099454824882 5.25194161346414 43.23278878332919 29.066264151455513
64.87439052225895 4.948108202428045 35.23326070276126 24.693021617069633
52.768904218647805 4.341698358166731 27.95610873489863 20.471097125582432
41.94468818209698 3.724750433555123 21.60035138680191 16.619586361739948
32.4412879487804 3.1781620587526316 16.084071681006577 13.179054209021189
24.429612324477375 2.706723347107768 11.602049604384877 10.120839372984744
17.590892801791096 2.2964544158550826 7.864644590647573 7.429793795288438
11.971139264719403 1.9318463809387714 4.930047457010863 5.109245426769769
7.514147158304276 1.591100171144439 2.731169812802814 3.191877174357022
4.245665975413295 1.2650383872311595 1.2609001243725864 1.7197274638095492
2.113699726197477 0.9610144789387332 0.4351857412114528 0.7174995060472908
0.9218653839338052 0.6635280237920339 0.080302087155974 0.17803527298579688
0.41880915744339026 0.4144512648726745 0.00023044075757315324 0.0041274518131426
0.23263465880958017 0.2329861986675149 -5.049334641296547e-05 -0.00030104651152168007
0.12343964849455993 0.12343964849455993 0.0 0.0
0.04674171087523083 0.04674171087523083 0.0 0.0
0.011483585590775098 0.011483585590775098 0.0 0.0
0.005578213367712906 0.005578213367712906 0.0 0.0
0.03209692112821413 0.03209692112821413 0.0 0.0
0.1069041949978326 0.1069041949978326 0.0 0.0
0.24197825986801463 0.24282829678066575 -0.000125453473524444 -0.000724583439126646
0.5080487881447256 0.4713754419076261 0.007573437055773029 0.02909990918132666
1.2197083733688758 0.7669127149714924 0.15710798401516302 0.2956876743822203
2.679207458668988 1.0555858520416197 0.6289100047361819 0.9947116018911857
5.222625386958588 1.3867586494944897 1.6790340170285496 2.156832720435552
8.994800534733347 1.7436460713311255 3.4259221603629904 3.825232303039229
14.137249269928734 2.1302997286417398 6.017868969363912 5.989080571923082
20.66626475811653 2.5549906268190985 9.49443820565911 8.616835925638316
28.575091816689405 3.030949105854834 13.860829680127019 11.683313030707538
38.062729773864206 3.5825631948647816 19.301160754639284 15.179005824360138
48.95809273532233 4.2082661071971605 25.624146324844034 19.125680303281143
61.51702348124051 4.86060962224064 33.155176043909286 23.501237815090583
75.35807339660906 5.4503595404934435 41.68024956249013 28.22746429362547
89.64935696308035 5.76616558644729 50.8029008929523 33.080290483680756
102.11959709254855 5.244501229971014 59.38888752808018 37.48620833449733
108.61113008905858 3.652855149140657 64.80698962552044 40.151285314397505
105.12371112712232 3.5129977746926926 62.5836327050584 39.02708064737123
115.43968848718204 22.721514246031315 56.63341266716124 36.08476157398951
105.12371112710636 3.512997774692822 62.58363270504769 39.02708064736583
108.61113008902286 3.6528551491430106 64.80698962549499 40.151285314384914
102.11959709250584 5.24450122998076 59.38888752804537 37.486208334479656
89.64935696301939 5.766165586442453 50.802900892915375 33.080290483661564
75.3580733965387 5.4503595404829515 41.6802495624513 28.227464293604402
61.51702348117629 4.860609622236915 33.15517604387066 23.50123781506872
48.95809273526263 4.208266107199328 25.624146324805317 19.125680303258004
38.06272977380796 3.5825631948644587 19.30116075460506 15.179005824338443
28.57509181663467 3.0309491058520592 13.860829680096028 11.683313030686595
20.666264758069758 2.5549906268144764 9.494438205634891 8.616835925620393
14.137249269893152 2.1302997286404386 6.017868969344985 5.989080571907729
8.994800534706902 1.7436460713274673 3.4259221603511176 3.825232303028319
5.22262538694065 1.3867586494926936 1.6790340170207203 2.156832720427236
2.679207458659177 1.055585852039427 0.6289100047330649 0.9947116018866845
1.2197083733641683 0.7669127149699723 0.15710798401391365 0.2956876743802829
0.5080487881433402 0.47137544190663294 0.007573437055620003 0.02909990918108748
0.24197825986759497 0.24282829678025747 -0.0001254534735252002 -0.0007245834391372487
0.10690419499765644 0.10690419499765644 0.0 0.0
0.032096921128154265 0.032096921128154265 0.0 0.0
0.005578213367725786 0.005578213367725786 0.0 0.0
0.0026471589537820487 0.0026471589537820487 0.0 0.0
0.022043700118089718 0.022043700118089718 0.0 0.0
0.09776458437326781 0.09776458437326781 0.0 0.0
0.2673825285395776 0.26888164299754835 -0.0003571054750492751 -0.0011420089829214742
0.6466085608418256 0.5554492298930931 0.026357346950285406 0.06480198399844736
1.5602226861489499 0.8555611565224212 0.2510104144702813 0.45365111515624756
3.3194156650045654 1.1536420288633318 0.8784476623012857 1.287325973839948
6.234041840594138 1.502524048629998 2.1244363602296144 2.607081431734524
10.531875521846413 1.8935877359276463 4.173359941021641 4.4649278448971295
16.350666431626063 2.331857032166689 7.146908162973266 6.87190123648611
23.785454903999554 2.820509794484865 11.156336841642137 9.808608267872554
32.93031239300046 3.375951357490893 16.303539737469258 13.250821298040306
43.64875087348442 4.012269885267568 22.4395680265583 17.19691296165859
56.25268342820721 4.707859341408673 29.90680523642304 21.63801885037551
70.51401278666563 5.397618107484138 38.58009327859712 26.53630140058438
85.94089994215616 5.926544891566254 48.26704471183561 31.747310338754282
101.52404884728847 6.112878651477873 58.44136555400385 36.96980464180673
115.54665560796981 5.7880835463398395 68.03746506636925 41.72110699526069
123.9852507796373 4.11190328124345 74.85280011546665 45.020547382927155
122.05574576347652 3.262024488164027 74.14940792870225 44.64431334661026
135.0852114542077 24.133519115060892 68.83652340193038 42.11516893721641
122.05574576344249 3.2620244881518645 74.14940792868737 44.64431334660324
123.9852507796007 4.111903281249024 74.8528001154384 45.02054738291332
115.54665560790775 5.7880835463376945 68.03746506632906 41.72110699524102
101.52404884721722 6.112878651476021 58.44136555395782 36.96980464178334
85.94089994207751 5.926544891558727 48.267044711789 31.747310338729815
70.51401278658807 5.397618107477184 38.58009327855155 26.536301400559346
56.2526834281379 4.707859341407507 29.906805236379867 21.638018850350516
43.648750873412276 4.012269885259487 22.439568026518533 17.196912961634236
32.9303123929384 3.3759513574872795 16.303539737433983 13.250821298017122
23.7854549039468 2.820509794480113 11.15633684161399 9.808608267852701
16.35066643158646 2.331857032165729 7.146908162951529 6.871901236469203
10.531875521816485 1.8935877359241455 4.17335994100756 4.464927844884778
6.234041840574186 1.5025240486282851 2.124436360220564 2.607081431725339
3.3194156649924964 1.1536420288605354 0.8784476622971605 1.2873259738348004
1.560222686143153 0.8555611565208732 0.25101041446852773 0.4536511151537523
0.6466085608399905 0.5554492298920606 0.02635734694999365 0.06480198399793607
0.2673825285390787 0.26888164299695233 -0.00035710547504074733 -0.001142008982832913
0.09776458437306892 0.09776458437306892 0.0 0.0
0.02204370011808622 0.02204370011808622 0.0 0.0
0.0026471589537769374 0.0026471589537769374 0.0 0.0
0.0007751287736420963 0.0007751287736420963 0.0 0.0
0.015968661402456202 0.015968661402456202 0.0 0.0
0.10152704048237454 0.10152704048237454 0.0 0.0
0.3239617896931002 0.3227981146357093 -6.343230511188886e-05 0.001227107362502755
0.8476526315471745 0.6754929337769826 0.056283782826683254 0.11587591494350831
1.9849815527999004 1.0357768431263867 0.3534018678802455 0.5958028417932685
4.045305697177619 1.4257930925619482 1.0917445359604032 1.5277680686552677
7.37125976205666 1.9201571543409606 2.493152474377852 2.9579501333378495
12.228798093099156 2.527764420930568 4.745002952348231 4.956030719820361
18.869656640290888 3.2837388086441206 8.040566385179353 7.545351446467407
27.430360381384112 4.22125350909257 12.494269196333555 10.714837675957984
37.8837051590359 5.361606545124798 18.074535966045488 14.447562647865608
50.40150028629805 6.696731013291733 24.975633874451365 18.729135398554963
64.96172223066898 8.1939023509641 33.22445428002933 23.54336559967551
81.27022817850703 9.661024543117037 42.78874117376816 28.820462461621812
98.52210924747146 10.748617883940057 53.40042547256658 34.373065890964824
115.22442638093524 11.040636914143585 64.30957552974338 39.874213937048275
129.5236639181481 10.382505727649423 74.36162204294482 44.77953614755391
139.66315045998488 9.365385516731294 81.91563012186872 48.382134821384916
135.8909796038663 3.297980105234469 83.42125815666738 49.171741341964406
192.98394851454248 64.51441868713037 80.73269167625423 47.73683815115785
135.89097960385283 3.297980105249316 83.42125815664839 49.171741341955126
139.66315045992647 9.36538551671683 81.9156301218386 48.382134821370954
129.52366391808445 10.382505727655222 74.36162204289823 44.779536147531104
115.22442638086223 11.040636914150387 64.30957552969008 39.87421393702177
98.52210924738652 10.748617883934621 53.40042547251423 34.373065890937596
81.2702281784315 9.661024543121398 42.788741173716325 28.82046246159383
64.9617222305845 8.193902350954101 33.22445427998174 23.543365599648666
50.401500286222685 6.696731013289658 24.975633874405617 18.729135398527433
37.88370515896776 5.361606545120562 18.0745359660065 14.44756264784068
27.43036038132499 4.221253509085818 12.494269196302586 10.714837675936595
18.869656640247122 3.2837388086419868 8.040566385155577 7.54535144644956
12.228798093066155 2.527764420927331 4.7450029523320705 4.956030719806758
7.371259762033679 1.9201571543374596 2.4931524743679816 2.957950133328236
4.0453056971632835 1.4257930925586995 1.0917445359553093 1.5277680686492763
1.9849815527931431 1.0357768431249426 0.3534018678781765 0.5958028417900231
0.847652631544649 0.6754929337756985 0.056283782826229145 0.11587591494272134
0.3239617896924638 0.3227981146350921 -6.343230511203068e-05 0.0012271073624836957
0.10152704048212982 0.10152704048212982 0.0 0.0
0.01596866140244002 0.01596866140244002 0.0 0.0
0.0007751287736445993 0.0007751287736445993 0.0 0.0
CELL_DATA 800
SCALARS Stress float 6
LOOKUP_TABLE default
159.81823516929873 -512.0841089092708 -182.23990448760557 -108.23891832980449 0.0 0.0
398.91920084708244 -53.13982829909265 116.45968466610358 57.28546993795631 0.0 0.0
397.34116323460614 9.122635911392813 121.74295373889495 -3.767660745696567 0.0 0.0
457.33033322978264 -10.75613807074834 139.1557725453805 -14.170355002061669 0.0 0.0
532.2559059647484 -15.766892084449177 187.90987915459664 -11.449750011999264 0.0 0.0
603.4426693643879 -9.782621142771866 258.11495296418343 -9.887205953436526 0.0 0.0
672.4345111182786 -2.5569448660575205 318.4522142857533 -10.081964157739357 0.0 0.0
741.6262941690766 12.476584634982736 370.120895464414 -11.338121611615827 0.0 0.0
812.4367869872733 34.566017931273265 419.5789106718472 -12.794326861983679 0.0 0.0
885.1301595369746 62.95626156036131 471.0984220625653 -13.840341170405438 0.0 0.0
958.6931754995696 95.78216314818255 524.767250748201 -14.322412626242318 0.0 0.0
1032.0658886833892 132.07272166497208 579.9274456798998 -14.262814415315539 0.0 0.0
1105.2082757739179 170.3207394481111 635.855100838109 -14.031667164771665 0.0 0.0
1178.8881741881492 211.07176725347512 693.2220895578803 -13.750347631776371 0.0 0.0
1253.8367372361968 255.23086924611425 752.8787328751234 -13.32059217847218 0.0 0.0
1329.512715223289 302.5914432910617 814.4745455639556 -12.550969830496935 0.0 0.0
1403.624248272181 351.6058579342419 876.1038007525643 -11.259865979851536 0.0 0.0
1473.093835077952 400.09296220012516 935.123419169179 -9.532508323320632 0.0 0.0
1535.2410554438711 446.418587354651 989.3253298022577 -8.315148850060707 0.0 0.0
1611.567535095057 514.0612508701792 1060.7750030861223 -11.609712554532802 0.0 0.0
1611.5675350943777 514.0612508695073 1060.77500308564 11.609712554544714 0.0 0.0
1535.241055443127 446.41858735393885 989.3253298017147 8.31514885010558 0.0 0.0
1473.0938350765143 400.092962198759 935.1234191680423 9.53250832337274 0.0 0.0
1403.6242482704768 351.6058579326193 876.1038007512122 11.25986597982932 0.0 0.0
1329.5127152222692 302.5914432901485 814.4745455631667 12.55096983039659 0.0 0.0
1253.83673723532 255.23086924536713 752.8787328745135 13.32059217854686 0.0 0.0
1178.888174187096 211.07176725256298 693.2220895570932 13.750347631686799 0.0 0.0
1105.2082757726282 170.3207394469926 635.8551008371923 14.031667164765427 0.0 0.0
1032.0658886828164 132.07272166460817 579.9274456794503 14.26281441533065 0.0 0.0
958.6931754989689 95.78216314780431 524.767250747732 14.322412626290012 0.0 0.0
885.1301595364412 62.95626156006287 471.09842206218525 13.840341170311039 0.0 0.0
812.4367869866622 34.56601793090418 419.57891067141713 12.794326862019858 0.0 0.0
741.6262941683111 12.476584634458447 370.1208954639023 11.338121611689731 0.0 0.0
672.4345111180371 -2.5569448660092746 318.45221428553197 10.081964157728311 0.0 0.0
603.4426693642897 -9.782621142571145 258.11495296401193 9.887205953356192 0.0 0.0
532.2559059645117 -15.766892084423265 187.90987915438606 11.449750011822893 0.0 0.0
457.3303332296345 -10.756138070610524 139.15577254535785 14.170355002004626 0.0 0.0
397.3411632345069 9.122635911438291 121.74295373888194 3.767660745648866 0.0 0.0
398.91920084706254 -53.13982829901974 116.45968466608267 -57.285469937947326 0.0 0.0
159.8182351698592 -512.0841089086928 -182.23990448706186 108.23891832951938 0.0 0.0
60.903287103062695 -541.4443189626047 -241.53150533296457 -153.47225245778623 0.0 0.0
255.96093289562637 -39.490582382514404 64.94364014726234 11.06332265978753 0.0 0.0
348.2309318794459 27.75455009851079 112.79515446705909 -10.1260871354963 0.0 0.0
420.4808727036054 -8.318976155559618 124.81396684149665 -33.96077538844551 0.0 0.0
503.2841169056009 -16.59169978710537 166.44860457143818 -32.48854740216341 0.0 0.0
579.2009327501758 -10.962825875444182 236.4815973304181 -29.229141115592906 0.0 0.0
652.1055598999862 -3.756995214452999 302.42603144828297 -29.783080778790904 0.0 0.0
722.3054926214413 10.71880044803423 357.41668118852897 -31.689983897774866 0.0 0.0
791.9936082335289 31.443248179089828 406.94490190029046 -33.92533748978547 0.0 0.0
861.9295052416505 57.42766680679402 456.32401229315144 -35.28137988816437 0.0 0.0
931.4159134975249 86.89171150624344 506.44292268227105 -35.47206625454025 0.0 0.0
1000.0953648056844 118.49611686663879 556.980522161701 -34.85435727362073 0.0 0.0
1068.174918409937 152.53924020442162 608.3043493055116 -33.94462080959906 0.0 0.0
1136.7644586174076 188.92684258249614 660.9709286413612 -32.98412702426629 0.0 0.0
1206.2159552098028 228.0407471296158 715.383224782353 -31.77424150994471 0.0 0.0
1276.0122946355773 269.8519815859391 771.2880738385259 -29.892654161786265 0.0 0.0
1344.7638542607235 313.60718809221794 827.6100504075806 -27.087465474731083 0.0 0.0
1410.794608982994 358.58558551900376 883.1266405918625 -23.756462545973058 0.0 0.0
1477.2605003958345 409.3141723407607 941.5654173928533 -21.04857653854161 0.0 0.0
1526.1023337438633 449.1212298660678 985.71984950179 -18.425680323342664 0.0 0.0
1526.1023337439638 449.1212298661821 985.7198495018621 18.42568032337225 0.0 0.0
1477.2605003953424 409.31417234030926 941.5654173924881 21.04857653859745 0.0 0.0
1410.7946089825327 358.585585518618 883.1266405915255 23.756462546069898 0.0 0.0
1344.7638542605173 313.60718809210584 827.6100504073576 27.087465474756996 0.0 0.0
1276.0122946346357 269.85198158509536 771.288073837733 29.892654161686593 0.0 0.0
1206.215955208846 228.04074712878358 715.3832247816431 31.774241509985785 0.0 0.0
1136.764458617181 188.92684258240914 660.9709286411044 32.98412702418114 0.0 0.0
1068.174918409339 152.539240204016 608.3043493050036 33.94462080972767 0.0 0.0
1000.0953648051707 118.49611686634967 556.980522161295 34.85435727376909 0.0 0.0
931.4159134969775 86.89171150592753 506.44292268186547 35.472066254618426 0.0 0.0
861.9295052410612 57.42766680641496 456.3240122927211 35.281379888069885 0.0 0.0
791.9936082334816 31.443248179290023 406.94490190020883 33.92533748973956 0.0 0.0
722.305492621328 10.718800448193946 357.41668118841676 31.68998389781312 0.0 0.0
652.1055598994059 -3.7569952147717984 302.4260314478578 29.78308077881736 0.0 0.0
579.2009327491685 -10.962825876233751 236.4815973297012 29.229141115571135 0.0 0.0
503.28411690526883 -16.59169978717516 166.4486045712191 32.48854740217777 0.0 0.0
420.4808727034589 -8.318976155377275 124.81396684150923 33.96077538852407 0.0 0.0
348.23093187929743 27.75455009833876 112.79515446696331 10.126087135528113 0.0 0.0
255.96093289575643 -39.49058238220357 64.9436401473974 -11.06332265987243 0.0 0.0
60.903287103385594 -541.4443189623413 -241.53150533264338 153.47225245746017 0.0 0.0
12.070979198661803 -546.4808061079447 -260.84245323501693 -167.76510949031186 0.0 0.0
146.84062150640784 -33.54767921370475 33.98788268781093 -42.22198659026716 0.0 0.0
283.2807765633745 31.57021300515835 94.45529687055985 -32.9363022899692 0.0 0.0
373.32984643333884 -0.19669481903338015 112.19322530172178 -53.11566337852428 0.0 0.0
464.8512014426952 -15.160265294411913 145.68640018647972 -55.691377460990815 0.0 0.0
551.7332693860683 -14.110731073831829 210.66184752587978 -50.59441044906627 0.0 0.0
627.5702471700043 -4.08887293009537 282.9996341222466 -49.7958051162978 0.0 0.0
698.5971221754468 9.008064996062778 341.50904686934996 -51.992156949115916 0.0 0.0
767.6591542041688 28.415122217407614 392.02054198059494 -54.62839720217262 0.0 0.0
834.8204438534335 51.712665910857346 439.36718284677835 -56.02273958588172 0.0 0.0
900.3152868624063 77.50109603035591 485.88684543378326 -55.86670755723566 0.0 0.0
964.2225703077381 105.17878715592606 532.169541886198 -54.6843354245905 0.0 0.0
1027.622361067151 134.52734514409497 578.8527945062439 -53.276071233854154 0.0 0.0
1090.9647457264603 166.33668426122944 626.6430999430296 -51.71072455643848 0.0 0.0
1154.7210752424414 200.2395002835035 675.6350610813774 -49.75209632140877 0.0 0.0
1218.6454448048235 236.29493267570035 725.7494720520598 -46.938887278698886 0.0 0.0
1282.1944715552518 274.7435521838783 776.8151533925613 -43.021092457379865 0.0 0.0
1346.1197399087503 317.4016323403857 830.0785079375981 -38.416194179304796 0.0 0.0
1405.7132385313655 360.7743040714133 881.4678401967401 -32.88533469612023 0.0 0.0
1447.326986335702 392.3774031826298 917.9634796784856 -24.395413851169955 0.0 0.0
1447.3269863349428 392.37740318187906 917.9634796778759 24.39541385119297 0.0 0.0
1405.7132385310147 360.774304071104 881.4678401964068 32.885334696182156 0.0 0.0
1346.119739908681 317.40163234040665 830.0785079375036 38.41619417953146 0.0 0.0
1282.194471555122 274.7435521838536 776.8151533923843 43.02109245748578 0.0 0.0
1218.6454448049235 236.29493267591118 725.7494720521331 46.9388872786534 0.0 0.0
1154.7210752424971 200.23950028371164 675.6350610814027 49.75209632157217 0.0 0.0
1090.9647457263188 166.33668426123708 626.6430999428251 51.71072455642335 0.0 0.0
1027.6223610670747 134.52734514420817 578.8527945061178 53.27607123392646 0.0 0.0
964.2225703081475 105.1787871565497 532.1695418865017 54.68433542461566 0.0 0.0
900.3152868622285 77.50109603040141 485.88684543369226 55.86670755725602 0.0 0.0
834.8204438531042 51.71266591073177 439.3671828465341 56.02273958580771 0.0 0.0
767.6591542035021 28.415122216992813 392.0205419801561 54.62839720219192 0.0 0.0
698.5971221754187 9.008064996347585 341.5090468693027 51.992156949204166 0.0 0.0
627.5702471698589 -4.088872929934233 282.9996341220535 49.79580511626583 0.0 0.0
551.7332693858198 -14.110731073737881 210.66184752564243 50.59441044911337 0.0 0.0
464.8512014426776 -15.16026529395927 145.686400186527 55.69137746111035 0.0 0.0
373.32984643312835 -0.19669481897267982 112.19322530168422 53.11566337847394 0.0 0.0
283.2807765633521 31.57021300506334 94.45529687052462 32.93630228992009 0.0 0.0
146.84062150654879 -33.54767921337595 33.987882687951846 42.22198659006646 0.0 0.0
12.070979198830315 -546.4808061077109 -260.84245323474926 167.76510949011228 0.0 0.0
-6.016362274736707 -532.3298392558446 -254.13471996583647 -170.04851802448886 0.0 0.0
86.22753864550069 -35.111956936517274 15.33467451269502 -87.33872056764278 0.0 0.0
221.69185556929978 29.564103388701774 75.37678768740045 -62.96948284068229 0.0 0.0
321.9807468580944 6.626196222528292 98.57401810756795 -73.90855148907829 0.0 0.0
416.7525559842669 -12.47861844981977 125.62215046906181 -80.76574320262651 0.0 0.0
512.9278719792127 -15.281564266346454 182.58555691550953 -74.03344246376565 0.0 0.0
596.0260915757053 -5.869111748142458 257.246291022204 -70.64026309589492 0.0 0.0
670.2683728357512 7.918821537357111 322.08075628024585 -72.38105093007934 0.0 0.0
738.5466336094678 25.245121325621717 373.9336112422001 -74.87918667049223 0.0 0.0
803.1722395520778 45.76525477572618 419.7530206827151 -76.0712699049065 0.0 0.0
864.8875394303267 67.9807168653648 462.9929108471273 -75.51168171471792 0.0 0.0
924.5153172482801 91.59359894123989 505.2469808090175 -73.84796240893593 0.0 0.0
982.80770668776 116.57322446957684 547.2593349114622 -71.94512478499836 0.0 0.0
1041.1920034409754 143.5470101048138 590.2024347543344 -69.91366360722013 0.0 0.0
1099.3496790299396 171.9804362321614 633.7006334183333 -67.31791316261139 0.0 0.0
1157.0700275466838 202.2587080922895 677.850200958309 -63.7304131895052 0.0 0.0
1215.6488379689717 235.5012207785347 723.8312060175788 -59.05119749523842 0.0 0.0
1274.695557791874 272.67515844712045 771.9240085624563 -53.13939751952139 0.0 0.0
1329.3786850004742 309.9957792039342 817.8547426509796 -44.59305514739122 0.0 0.0
1368.4177668062698 337.3216460555458 850.9370206799583 -30.721906860335302 0.0 0.0
1368.4177668061475 337.32164605543494 850.937020679892 30.721906860396757 0.0 0.0
1329.378684999927 309.99577920343427 817.8547426505984 44.593055147490006 0.0 0.0
1274.6955577915028 272.67515844683874 771.9240085622564 53.13939751971213 0.0 0.0
1215.6488379690122 235.50122077869926 723.8312060177195 59.05119749536587 0.0 0.0
1157.0700275462468 202.25870809195206 677.8502009579497 63.73041318951029 0.0 0.0
1099.34967902992 171.9804362323245 633.7006334181656 67.31791316282228 0.0 0.0
1041.1920034413488 143.54701010535936 590.2024347545465 69.9136636072462 0.0 0.0
982.8077066881979 116.573224470219 547.2593349117236 71.94512478510667 0.0 0.0
924.5153172483537 91.59359894154343 505.24698080898463 73.84796240901426 0.0 0.0
864.8875394291803 67.98071686440306 462.9929108463459 75.51168171469294 0.0 0.0
803.1722395515835 45.765254775462324 419.7530206823472 76.07126990487323 0.0 0.0
738.5466336092852 25.24512132568431 373.9336112420236 74.87918667045446 0.0 0.0
670.2683728355653 7.918821537442284 322.08075628006003 72.38105093002507 0.0 0.0
596.0260915754 -5.869111748165778 257.24629102189664 70.64026309583465 0.0 0.0
512.927871978738 -15.28156426650358 182.5855569151661 74.03344246373948 0.0 0.0
416.7525559839011 -12.478618449853126 125.62215046891984 80.76574320253818 0.0 0.0
321.98074685784377 6.626196222377589 98.5740181074489 73.9085514889627 0.0 0.0
221.69185556936355 29.564103388704712 75.37678768742046 62.96948284050936 0.0 0.0
86.22753864561918 -35.11195693624079 15.334674512813518 87.33872056731826 0.0 0.0
-6.016362274585418 -532.329839255592 -254.1347199655654 170.04851802430946 0.0 0.0
-9.63882669204817 -507.0888519352751 -233.2933967798055 -167.97066032659853 0.0 0.0
51.4447334266195 -37.679763841240124 4.129490875613811 -122.42841045439404 0.0 0.0
168.46201271293066 24.683303203504728 57.94359477493062 -93.30704460353856 0.0 0.0
267.70248218451184 10.561679357430314 83.47814805772134 -96.18507705156944 0.0 0.0
359.43416000850726 -7.5739268253328795 106.86560445966963 -105.0604356688887 0.0 0.0
462.7901193746535 -15.482872822524017 153.36469215778277 -100.60962940816583 0.0 0.0
556.806305891341 -8.260604862158363 225.785767890418 -93.54550407887525 0.0 0.0
635.5789430575601 6.3795022378918205 296.980713979071 -92.87070551094416 0.0 0.0
703.9288076011585 22.170199481494855 351.8959760830678 -94.73609982554096 0.0 0.0
766.3063055013174 39.60643259950449 396.9122573304332 -95.4793330394867 0.0 0.0
824.6249715284429 58.29921996758828 437.37507183590105 -94.44876358910884 0.0 0.0
879.8568336272758 77.86001382693183 475.6584894197241 -92.29780562609713 0.0 0.0
933.462291447667 98.48818101688232 513.2793433330773 -90.05386690364226 0.0 0.0
986.2578654780292 120.6154786372144 551.0671096119256 -87.56006840368246 0.0 0.0
1038.878271851684 143.79186333146367 589.2112620398807 -84.42132985330349 0.0 0.0
1091.3033214129691 168.22493725951418 627.8328579854607 -80.33222618871561 0.0 0.0
1143.5091131612073 195.0963421340855 667.4749202630267 -75.04224239809871 0.0 0.0
1196.7286397309135 225.6632282122072 709.3697018937619 -68.00009212959698 0.0 0.0
1247.6025522237637 257.3548670820892 750.5832285649124 -56.75089937614649 0.0 0.0
1286.7101548670355 282.17137248322956 782.4242686723328 -37.937166650277184 0.0 0.0
1286.7101548675323 282.17137248376383 782.4242686726595 37.937166650417666 0.0 0.0
1247.602552224729 257.35486708313204 750.5832285655752 56.7508993763182 0.0 0.0
1196.7286397313644 225.66322821276518 709.3697018940446 68.00009212977542 0.0 0.0
1143.5091131605802 195.09634213357683 667.4749202625919 75.04224239823661 0.0 0.0
1091.3033214115972 168.22493725820942 627.8328579845075 80.33222618865696 0.0 0.0
1038.8782718502066 143.7918633300648 589.2112620388704 84.42132985324817 0.0 0.0
986.2578654765886 120.61547863583647 551.0671096109047 87.56006840359014 0.0 0.0
933.4622914471847 98.48818101660552 513.2793433327103 90.05386690372313 0.0 0.0
879.8568336268893 77.86001382670622 475.6584894194116 92.29780562607677 0.0 0.0
824.6249715280526 58.29921996740683 437.3750718355611 94.4487635890898 0.0 0.0
766.3063055008502 39.60643259924994 396.91225733010106 95.47933303942708 0.0 0.0
703.9288076013404 22.17019948196308 351.8959760831583 94.73609982555843 0.0 0.0
635.5789430571105 6.379502237711911 296.98071397871524 92.870705510878 0.0 0.0
556.8063058905644 -8.260604862700944 225.78576788982213 93.54550407885247 0.0 0.0
462.7901193742415 -15.48287282251614 153.36469215753468 100.60962940815118 0.0 0.0
359.43416000842535 -7.5739268249829665 106.86560445974156 105.06043566877446 0.0 0.0
267.7024821841866 10.561679357124827 83.47814805753326 96.18507705150655 0.0 0.0
168.46201271287623 24.683303203334987 57.943594774863364 93.30704460341471 0.0 0.0
51.44473342674013 -37.67976384102981 4.129490875713093 122.4284104542147 0.0 0.0
-9.638826692043281 -507.08885193508223 -233.29339677957984 167.97066032649676 0.0 0.0
-6.756978792944693 -474.45921252088 -204.72337470645775 -164.61065389690015 0.0 0.0
29.890805172820343 -39.56805083596788 -2.9031736989442622 -148.4772493606256 0.0 0.0
122.81311188615891 18.790599451715114 42.4811134013622 -120.23622812230103 0.0 0.0
212.66344781813345 12.381185911403627 67.50941366027757 -118.29711233800498 0.0 0.0
297.4740575656217 -2.434259462731857 88.82433518096389 -127.47571267822433 0.0 0.0
396.75945792272944 -13.933265793856187 123.90100953780836 -128.6774919601584 0.0 0.0
501.7340086078633 -9.452421765689312 188.87675333769045 -119.51857669718041 0.0 0.0
589.9066771948203 3.361846088123709 262.87744244331435 -114.64907888941491 0.0 0.0
662.0923815356209 18.738276419070285 323.90177648918655 -114.47281374941657 0.0 0.0
723.0654186945244 33.41099909006951 369.77944349314885 -114.26928333069256 0.0 0.0
777.9641654067293 48.34254650947097 407.93575210603143 -112.70045580259313 0.0 0.0
829.2199079713375 64.03405045791442 442.81346733907174 -110.10731152284252 0.0 0.0
877.9755971607951 80.46647211611933 476.1373399738896 -107.4874462925398 0.0 0.0
925.4406114789879 97.57666330684474 508.87394837932834 -104.7590729528153 0.0 0.0
972.6954334856393 115.5463740248372 541.7880663974651 -101.2353039203393 0.0 0.0
1019.1274167214069 134.58176534452653 574.7604094051801 -96.56102459058145 0.0 0.0
1064.9801555479426 154.28729116281013 607.7136379004213 -90.88130296431852 0.0 0.0
1111.3633121779426 176.74952296307137 642.1811888535054 -83.1548391596628 0.0 0.0
1158.4179627606097 202.464827195317 678.479417717841 -69.81345010073586 0.0 0.0
1199.654546028144 225.71244012678116 710.5404771920796 -46.607015381526274 0.0 0.0
1199.6545460279938 225.7124401266657 710.5404771919729 46.60701538164642 0.0 0.0
1158.4179627613012 202.46482719610358 678.4794177183628 69.81345010096575 0.0 0.0
1111.3633121785585 176.74952296384902 642.1811888539543 83.15483915994882 0.0 0.0
1064.9801555478002 154.2872911628069 607.7136379002853 90.88130296445723 0.0 0.0
1019.1274167210555 134.58176534430615 574.7604094048536 96.56102459067849 0.0 0.0
972.6954334853324 115.5463740246912 541.7880663971698 101.23530392042657 0.0 0.0
925.4406114791587 97.57666330719596 508.87394837936193 104.75907295290692 0.0 0.0
877.9755971610242 80.46647211655849 476.1373399739748 107.4874462926312 0.0 0.0
829.219907971068 64.03405045776942 442.8134673388283 110.10731152272648 0.0 0.0
777.9641654059462 48.342546508822394 407.9357521054657 112.70045580250606 0.0 0.0
723.065418694031 33.41099908982753 369.77944349279534 114.26928333068396 0.0 0.0
662.0923815351123 18.738276418796232 323.90177648878904 114.47281374938738 0.0 0.0
589.9066771943695 3.3618460879503616 262.8774424429176 114.64907888937503 0.0 0.0
501.73400860787365 -9.452421765184532 188.87675333764022 119.51857669721647 0.0 0.0
396.7594579223297 -13.933265793828557 123.90100953762543 128.67749196008447 0.0 0.0
297.47405756548375 -2.4342594626509086 88.82433518095146 127.47571267805588 0.0 0.0
212.66344781813612 12.381185911752182 67.50941366038434 118.29711233787543 0.0 0.0
122.81311188620802 18.790599451858164 42.481113401419854 120.23622812217933 0.0 0.0
29.89080517288386 -39.56805083581257 -2.9031736988786108 148.47724936043556 0.0 0.0
-6.7569787928479315 -474.45921252055723 -204.72337470616114 164.6106538967818 0.0 0.0
-1.1260764393793963 -435.92777711916085 -172.09541734401333 -161.1815964968973 0.0 0.0
14.244701169719589 -41.40059724150487 -8.146821029788232 -166.66212863018495 0.0 0.0
82.4998542017956 13.077711845072422 28.673269814060404 -142.2056557962869 0.0 0.0
158.17956508507774 13.733863078595864 51.5709048714149 -138.50325088262053 0.0 0.0
232.0422139431779 1.2683412199557837 70.17070264063892 -147.59758638686623 0.0 0.0
319.81042652724625 -9.77116942313699 96.22643272094473 -155.29836159016122 0.0 0.0
428.136352216482 -9.974177870093754 147.7928275497406 -148.72778317705223 0.0 0.0
528.030983852256 0.6066002136480941 219.1697423312925 -139.06529085704477 0.0 0.0
607.5336300907254 14.063026180094413 285.3722188417393 -134.8603416893725 0.0 0.0
670.5161123483601 26.982001776334165 335.55617715424916 -132.69772831406192 0.0 0.0
722.5802776880057 38.143529129792725 372.8133871160585 -130.31354685299556 0.0 0.0
770.1151248675465 50.166302077890236 405.12449967503716 -127.28284212201932 0.0 0.0
814.1625522843427 62.37492328288354 434.4993274352881 -124.35208231856812 0.0 0.0
856.0995594123976 74.80893596973638 462.4134476761621 -121.42916126148178 0.0 0.0
897.2186567243364 87.25545387177829 489.6163133066878 -117.7529330329658 0.0 0.0
938.9637775695666 101.12034148040561 517.7116790659145 -112.68209317265253 0.0 0.0
978.2207946511635 114.08901564939144 544.1026459906913 -106.36575857020888 0.0 0.0
1016.0645555688508 126.98184241414037 569.6181705101968 -98.45529993616564 0.0 0.0
1058.5113958849888 144.478255404327 599.4762465097255 -84.25001773962437 0.0 0.0
1103.9571607251892 166.5195340593303 632.9175199386584 -57.57737314599265 0.0 0.0
1103.957160724729 166.51953405892056 632.9175199384117 57.57737314619695 0.0 0.0
1058.5113958838635 144.47825540327662 599.4762465090266 84.25001773984341 0.0 0.0
1016.0645555680035 126.98184241338674 569.6181705096305 98.45529993634332 0.0 0.0
978.2207946501861 114.089015648518 544.1026459899922 106.36575857026698 0.0 0.0
938.9637775688072 101.12034147970596 517.7116790653862 112.68209317263953 0.0 0.0
897.2186567240047 87.25545387153338 489.61631330646674 117.75293303294657 0.0 0.0
856.0995594125226 74.80893597000988 462.41344767625725 121.42916126151988 0.0 0.0
814.1625522833575 62.37492328199859 434.49932743464655 124.35208231851927 0.0 0.0
770.1151248671312 50.166302077598544 405.1244996747433 127.28284212202153 0.0 0.0
722.5802776877006 38.14352912972613 372.8133871158574 130.31354685300593 0.0 0.0
670.5161123480965 26.982001776239585 335.5561771540183 132.6977283139545 0.0 0.0
607.5336300903548 14.063026180067666 285.3722188414844 134.86034168944423 0.0 0.0
528.0309838517086 0.6066002134072122 219.1697423308527 139.06529085703144 0.0 0.0
428.1363522161099 -9.974177870049552 147.79282754952703 148.72778317707872 0.0 0.0
319.8104265267831 -9.771169423213546 96.2264327207698 155.29836159006712 0.0 0.0
232.04221394315982 1.2683412202989741 70.170702640744 147.59758638674256 0.0 0.0
158.17956508507075 13.733863078767572 51.57090487146531 138.5032508824693 0.0 0.0
82.49985420181908 13.07771184515569 28.67326981409243 142.20565579613316 0.0 0.0
14.244701169651757 -41.40059724149046 -8.146821029804196 166.66212863005666 0.0 0.0
-1.1260764393614267 -435.9277771188031 -172.09541734375313 161.18159649686234 0.0 0.0
3.4044178868279644 -393.0027960254727 -140.14689652327155 -158.3693264622621 0.0 0.0
-0.6387846878991805 -43.64990503576216 -13.286071108337959 -177.27223411659384 0.0 0.0
45.684741742269935 8.496697313414582 16.25402864545781 -159.21435065969223 0.0 0.0
105.06005182545414 15.05516528938179 36.03290837170364 -155.39902000183054 0.0 0.0
164.37076295468106 3.8752572971139836 50.57654878598755 -165.2402252156579 0.0 0.0
232.44940100035015 -4.464030715165499 69.75984690749087 -176.4859841914021 0.0 0.0
329.00123419100373 -7.789596009334578 105.23419607238998 -178.91573665634564 0.0 0.0
439.92707436275685 -1.5737268642150752 165.0893350753747 -167.91529171719355 0.0 0.0
531.793142321666 8.731582692189125 231.5532603994739 -157.68469444425781 0.0 0.0
600.1620038319726 19.593048751348803 287.09091761587985 -151.4287034309424 0.0 0.0
652.8797327510246 27.618052525800515 327.1147869379064 -147.67545443345008 0.0 0.0
696.6950449290199 35.96710899360373 358.27063777231626 -143.91455717561917 0.0 0.0
736.2198066724127 44.48642934503862 384.9322197162868 -140.63189796274787 0.0 0.0
772.6449394713658 52.2598642165073 408.51937143235807 -137.59454035728928 0.0 0.0
807.7638136714808 59.388914200344175 430.48644390533127 -134.04095608739112 0.0 0.0
843.5092042120601 67.26012258193026 452.70052433637346 -128.81553361570792 0.0 0.0
879.1533931979005 75.3290418988635 474.9038502046746 -121.67225636346271 0.0 0.0
908.2764353097092 78.29635517478626 491.3645101935918 -113.46102716390165 0.0 0.0
940.8217091333789 82.66432998735215 509.7390442098761 -100.05174830201308 0.0 0.0
991.5319625506916 102.26831912650151 544.325643240214 -72.03575709656285 0.0 0.0
991.5319625510369 102.26831912694422 544.3256432404457 72.03575709682562 0.0 0.0
940.8217091341361 82.66432998834281 509.73904421036957 100.05174830240855 0.0 0.0
908.2764353099811 78.29635517526202 491.36451019371935 113.46102716415552 0.0 0.0
879.1533931978418 75.32904189890706 474.90385020456506 121.67225636355236 0.0 0.0
843.5092042116321 67.26012258168558 452.70052433604144 128.81553361586 0.0 0.0
807.7638136705552 59.38891419952489 430.4864439046905 134.04095608733994 0.0 0.0
772.6449394706539 52.259864215690286 408.51937143183824 137.59454035710354 0.0 0.0
736.2198066724912 44.486429345230874 384.93221971630885 140.63189796275478 0.0 0.0
696.6950449293804 35.967108994260855 358.27063777252755 143.9145571757295 0.0 0.0
652.8797327509989 27.6180525259731 327.11478693784915 147.67545443339435 0.0 0.0
600.1620038321048 19.59304875180051 287.0909176159205 151.4287034309636 0.0 0.0
531.793142320937 8.73158269165068 231.5532603989384 157.68469444417565 0.0 0.0
439.92707436204444 -1.5737268647323468 165.0893350748488 167.9152917171279 0.0 0.0
329.0012341907193 -7.789596009254421 105.23419607226812 178.91573665622442 0.0 0.0
232.44940100000548 -4.464030715327285 69.75984690733816 176.48598419116774 0.0 0.0
164.3707629545125 3.875257297108652 50.57654878593941 165.24022521547124 0.0 0.0
105.06005182540306 15.055165289362856 36.03290837168345 155.39902000164724 0.0 0.0
45.68474174229486 8.496697313512033 16.254028645495033 159.2143506594993 0.0 0.0
-0.6387846880397263 -43.64990503576016 -13.286071108379808 177.27223411637277 0.0 0.0
3.404417886784586 -393.00279602525836 -140.14689652310594 158.36932646212153 0.0 0.0
2.0063046716734974 -346.4789035979527 -113.59001375009777 -154.06401747614444 0.0 0.0
-17.90005791192933 -47.307191127066844 -19.560449557128685 -183.05704574201002 0.0 0.0
11.391887921188253 5.848788708268145 5.171907146979939 -171.38289041566435 0.0 0.0
53.45282932313197 16.02772955100155 20.843053938739622 -168.46615338370958 0.0 0.0
95.20088072925205 7.383590017391518 30.84514401855784 -178.13663456390282 0.0 0.0
140.3497287822175 -0.9003445725003272 42.49455011447409 -192.95641395051425 0.0 0.0
205.14430054445654 -3.0838984020041815 63.566317726154686 -202.47556110913843 0.0 0.0
303.8460155694168 -0.8212570435067637 102.18545838917602 -199.54904776843404 0.0 0.0
410.4518980912519 4.456585685765564 156.6971853565741 -186.1926174164666 0.0 0.0
491.68630946411145 10.811849816880514 211.5060004295271 -172.97245491904084 0.0 0.0
548.9070977267882 17.124411658158227 256.121730317976 -165.4027958319645 0.0 0.0
591.3186183070216 21.290455432979662 288.78637782921635 -160.46134857877902 0.0 0.0
627.1528368232163 26.439143462842623 315.4495407419479 -156.56827246560212 0.0 0.0
658.274137276026 30.21019186876839 336.94648719889096 -153.22898321937012 0.0 0.0
686.6606930376122 32.066470760998044 354.5979164586393 -149.7575480908768 0.0 0.0
715.5316129717921 33.28422105371418 370.95104958292626 -145.06527651043382 0.0 0.0
748.2438112887235 35.77393509204971 389.0463848881862 -137.40707165990239 0.0 0.0
778.1963044375193 35.23570329265614 404.4539599948726 -127.56095239115872 0.0 0.0
794.3417131372728 18.394862581014507 404.7088495170965 -116.13444666628071 0.0 0.0
846.7212231934482 27.36650903372795 434.13553431674836 -91.8537674846905 0.0 0.0
846.7212231933574 27.366509033669843 434.1355343167771 91.85376748486757 0.0 0.0
794.3417131375935 18.394862581467294 404.7088495174163 116.13444666651898 0.0 0.0
778.1963044370477 35.23570329228983 404.45395999458736 127.56095239135314 0.0 0.0
748.2438112872511 35.7739350906069 389.0463848871792 137.40707166000539 0.0 0.0
715.5316129710257 33.284221052883595 370.95104958236993 145.06527651024635 0.0 0.0
686.6606930371726 32.066470760702714 354.59791645842466 149.75754809091387 0.0 0.0
658.2741372759365 30.210191868758628 336.9464871988075 153.2289832194793 0.0 0.0
627.152836822805 26.439143462616713 315.44954074170585 156.56827246572607 0.0 0.0
591.3186183061982 21.290455432126294 288.7863778285833 160.46134857868344 0.0 0.0
548.9070977261547 17.12441165757707 256.12173031747693 165.40279583185256 0.0 0.0
491.6863094636212 10.811849816356649 211.50600042910486 172.9724549188104 0.0 0.0
410.4518980907226 4.456585685368978 156.69718535616073 186.19261741641003 0.0 0.0
303.84601556928106 -0.8212570428821362 102.18545838926993 199.54904776855398 0.0 0.0
205.14430054423391 -3.083898401831389 63.56631772612823 202.47556110903525 0.0 0.0
140.3497287820465 -0.9003445725835642 42.49455011439527 192.95641395028875 0.0 0.0
95.20088072911066 7.383590017339105 30.845144018501827 178.13663456362576 0.0 0.0
53.45282932312778 16.027729550952042 20.843053938723923 168.46615338352427 0.0 0.0
11.391887921175966 5.848788708275004 5.171907146978432 171.38289041547353 0.0 0.0
-17.900057912080285 -47.30719112716083 -19.560449557202936 183.05704574180848 0.0 0.0
2.006304671623912 -346.47890359762926 -113.59001374995168 154.0640174760074 0.0 0.0
-5.485400208497335 -297.4500665011294 -93.25557697741037 -146.08424124501016 0.0 0.0
-36.256520772282975 -51.95077438135324 -26.459440306035475 -186.2735697710644 0.0 0.0
-21.104945090568553 4.7711087932267535 -4.899998264295716 -179.18954500292074 0.0 0.0
3.356277309930396 16.7989473239154 6.046133267130419 -177.08687765011544 0.0 0.0
25.839675438375433 11.14556584921494 11.116269261715622 -185.93509882877106 0.0 0.0
45.19337316352246 3.238840181799077 14.747602169067113 -201.84370764951274 0.0 0.0
68.48069875446708 -0.17747270084019906 21.35955816338812 -216.15365584942285 0.0 0.0
105.45561018122027 0.173045705896973 33.94259411363698 -221.84340459056702 0.0 0.0
165.48595201991654 3.640023187376123 56.07714268511859 -213.82090880209816 0.0 0.0
236.2548251265828 5.0466126755151315 84.01216099697542 -200.2139400752973 0.0 0.0
298.4505432637015 8.014824071642032 115.79146504868193 -186.38891361206262 0.0 0.0
349.0906044197936 8.581559715662436 145.80602505890693 -178.72035623784473 0.0 0.0
388.5564194111932 9.452312576605422 172.62453959962815 -172.8750880510981 0.0 0.0
417.35625116936427 8.755772689209834 193.95257034795358 -167.99347589432284 0.0 0.0
441.3266530525106 5.58547019157939 210.8992734698711 -163.98201228283327 0.0 0.0
468.3718459189032 -0.27836811786841054 226.1602763258002 -160.0591721770917 0.0 0.0
504.31251845696136 -6.023778213972832 243.57796102010005 -153.70682719379028 0.0 0.0
551.0393859252346 -8.068569702752512 267.0136820686943 -142.7961754428799 0.0 0.0
583.4702788302013 -29.02418448146915 275.71420760335724 -128.18246862501735 0.0 0.0
610.3686462204856 -76.35257170594667 264.1781676004599 -115.79800107310751 0.0 0.0
610.368646220594 -76.35257170584643 264.17816760052335 115.79800107323842 0.0 0.0
583.4702788293224 -29.024184482460242 275.7142076027519 128.18246862542588 0.0 0.0
551.0393859249319 -8.06856970285017 267.01368206854727 142.79617544315744 0.0 0.0
504.31251845692356 -6.0237782138860325 243.57796102011312 153.7068271939509 0.0 0.0
468.3718459189034 -0.278368117990226 226.1602763257278 160.05917217707707 0.0 0.0
441.3266530535247 5.585470193223003 210.8992734706133 163.98201228298825 0.0 0.0
417.35625116994163 8.755772690277638 193.9525703484108 167.9934758944902 0.0 0.0
388.55641941107433 9.452312576271275 172.62453959942212 172.87508805119535 0.0 0.0
349.09060442021945 8.58155971649775 145.80602505920712 178.72035623778004 0.0 0.0
298.4505432638406 8.014824071944076 115.79146504873327 186.38891361197994 0.0 0.0
236.25482512651962 5.046612675529293 84.01216099694136 200.21394007521795 0.0 0.0
165.48595201995008 3.640023187895615 56.07714268525944 213.82090880213823 0.0 0.0
105.45561018154083 0.173045706730786 33.942594113974465 221.84340459054857 0.0 0.0
68.48069875446117 -0.17747270067324727 21.359558163435228 216.15365584924854 0.0 0.0
45.1933731634915 3.2388401817995867 14.747602169055936 201.8437076492114 0.0 0.0
25.839675438305346 11.14556584903915 11.116269261642309 185.93509882854505 0.0 0.0
3.356277309880195 16.798947323719695 6.046133267057136 177.08687764980414 0.0 0.0
-21.10494509058165 4.7711087932933145 -4.8999982642797875 179.18954500268507 0.0 0.0
-36.25652077228893 -51.95077438137323 -26.459440306044222 186.27356977093154 0.0 0.0
-5.485400208584839 -297.45006650090863 -93.25557697735893 146.0842412448842 0.0 0.0
-17.12775630716288 -249.3050384535367 -79.98533609028426 -135.01996879575978 0.0 0.0
-52.365674195861175 -54.02700233716327 -31.91656595128905 -186.2315081364238 0.0 0.0
-52.214390767830594 3.9426498118889692 -14.484339691141745 -183.0347484100414 0.0 0.0
-45.19883134986842 17.45769268030023 -8.329928059108571 -181.0071635498325 0.0 0.0
-42.81548137959588 14.660878780991975 -8.474860607074593 -188.16840737500212 0.0 0.0
-50.66307197946744 7.6747545308918275 -13.129327385424421 -202.7912907050348 0.0 0.0
-70.17092551283213 2.6752618759830638 -21.135140464567577 -216.32176885386298 0.0 0.0
-105.78567075907785 0.23058185925279595 -33.92763052138826 -221.97701753736112 0.0 0.0
-165.25091178022305 -3.5542938341078028 -55.97412670892957 -213.86801011656698 0.0 0.0
-236.01595222040868 -4.995569783636075 -83.92047288507119 -200.18949927326446 0.0 0.0
-298.64299779034013 -7.235759453423114 -115.4351369045817 -186.3104554400298 0.0 0.0
-350.26188905164304 -7.186910384338802 -145.78863548041605 -178.3067674041089 0.0 0.0
-392.17502936521726 -8.307770091835451 -173.7303767089075 -172.31151911572294 0.0 0.0
-423.60076102090824 -11.963782405735927 -198.0484954802658 -167.8813295038481 0.0 0.0
-445.702352351785 -19.419837764323248 -219.37550527866682 -165.88640656293853 0.0 0.0
-457.33108807533256 -30.418708942571868 -237.18551844070652 -166.25343584759406 0.0 0.0
-448.68709204880224 -43.150670923675506 -247.34015728340145 -167.45633752604476 0.0 0.0
-390.5590753699878 -40.6475748744964 -235.2861740756183 -168.02253728031323 0.0 0.0
-209.4336876956031 -34.16489570772703 -167.85198331250464 -170.2782377828437 0.0 0.0
9.335070739394922 -173.45688254529975 -66.00497327024856 -146.06375562022106 0.0 0.0
9.335070739720834 -173.4568825448538 -66.00497327000909 146.06375562052258 0.0 0.0
-209.43368769530758 -34.16489570703061 -167.8519833121844 170.2782377833637 0.0 0.0
-390.55907536958597 -40.64757487360737 -235.2861740751601 168.02253728058963 0.0 0.0
-448.6870920489877 -43.15067092392502 -247.34015728349237 167.45633752609552 0.0 0.0
-457.3310880750456 -30.418708942900366 -237.18551844065183 166.2534358476984 0.0 0.0
-445.70235235165876 -19.41983776403916 -219.3755052784736 165.88640656287356 0.0 0.0
-423.6007610201461 -11.963782405215852 -198.04849547977167 167.8813295038404 0.0 0.0
-392.1750293635379 -8.307770089946914 -173.7303767077362 172.31151911572374 0.0 0.0
-350.2618890510091 -7.186910384385051 -145.78863548007402 178.3067674040962 0.0 0.0
-298.6429977897942 -7.235759453672415 -115.43513690437896 186.31045544004675 0.0 0.0
-236.01595221936896 -4.995569783025644 -83.92047288452173 200.1894992731967 0.0 0.0
-165.25091177983307 -3.5542938342855948 -55.97412670884344 213.8680101166473 0.0 0.0
-105.78567075885078 0.23058185890903182 -33.92763052141729 221.97701753741148 0.0 0.0
-70.17092551262385 2.6752618760017697 -21.13514046448923 216.32176885369273 0.0 0.0
-50.6630719795408 7.674754530530683 -13.129327385551989 202.7912907048053 0.0 0.0
-42.81548137964042 14.66087878055152 -8.474860607221036 188.16840737485066 0.0 0.0
-45.19883134997727 17.45769268002078 -8.329928059226814 181.00716354965726 0.0 0.0
-52.21439076782118 3.942649811838942 -14.484339691156638 183.0347484098413 0.0 0.0
-52.36567419576656 -54.027002337068794 -31.916565951235295 186.23150813629326 0.0 0.0
-17.12775630720729 -249.30503845329403 -79.98533609023623 135.01996879561938 0.0 0.0
-24.496495527611366 -203.39144770270434 -68.3663829690947 -122.03257074415548 0.0 0.0
-65.67433358064865 -53.08912042466834 -35.6278860700712 -182.32209205568657 0.0 0.0
-81.68219592627527 3.10928338107211 -23.578483655252903 -182.84786760484047 0.0 0.0
-92.23348718894634 17.85282564512744 -22.316271785657563 -180.39342078211433 0.0 0.0
-110.03933645242566 17.445186126663653 -27.917059439141575 -184.5131834946957 0.0 0.0
-144.7416367368616 11.29404765216415 -40.84523114566481 -195.2726605643493 0.0 0.0
-206.52113140262247 5.506714734623909 -63.31116547630216 -203.46977292774227 0.0 0.0
-303.77658865002405 1.130826441768395 -102.12838137888308 -199.8399013181848 0.0 0.0
-410.1625467330255 -4.41850239960457 -156.57848393680715 -186.28757822211492 0.0 0.0
-491.4909987378868 -10.650006145484355 -211.3502239557118 -172.92261856765344 0.0 0.0
-548.5636264556861 -16.4509427685815 -255.71458282855264 -165.21393091531442 0.0 0.0
-591.1472345262343 -20.004110862338138 -288.1983242278818 -159.8749192958045 0.0 0.0
-628.093373283654 -25.443783239635295 -315.42081829025165 -155.49762694297388 0.0 0.0
-662.1272227788701 -32.89753024053796 -339.9093018891857 -152.61071473451528 0.0 0.0
-694.5736773335736 -43.93702591325808 -363.9342773096288 -152.0845037672634 0.0 0.0
-724.4070910939782 -58.85344392498965 -387.76785969245174 -154.37792673563962 0.0 0.0
-747.1914731526401 -75.34336249912656 -408.80042270307206 -159.88615654599965 0.0 0.0
-757.9354158995885 -89.94644553105434 -423.0217857244872 -168.55343563891964 0.0 0.0
-794.4356550337345 -144.61434702453855 -469.3488572645483 -177.56853037948176 0.0 0.0
-784.7277058698471 -222.96218612361855 -504.5052032324635 -194.7193451185508 0.0 0.0
-784.7277058696097 -222.9621861235958 -504.5052032324486 194.71934511878234 0.0 0.0
-794.435655033237 -144.6143470240193 -469.34885726425387 177.56853037970467 0.0 0.0
-757.9354158995313 -89.9464455311907 -423.02178572450345 168.5534356391596 0.0 0.0
-747.1914731517965 -75.34336249829593 -408.8004227024892 159.88615654608077 0.0 0.0
-724.4070910932512 -58.853443924432156 -387.76785969200324 154.37792673567822 0.0 0.0
-694.5736773333554 -43.93702591295029 -363.93427730937975 152.08450376718537 0.0 0.0
-662.1272227783588 -32.897530240336295 -339.90930188891866 152.61071473467274 0.0 0.0
-628.0933732830197 -25.443783239004418 -315.4208182897741 155.49762694288637 0.0 0.0
-591.1472345258691 -20.004110862217594 -288.1983242275889 159.8749192957619 0.0 0.0
-548.5636264550981 -16.4509427682326 -255.71458282809542 165.21393091528074 0.0 0.0
-491.49099873767955 -10.650006145788229 -211.3502239555179 172.92261856768084 0.0 0.0
-410.1625467327445 -4.418502400033917 -156.57848393667985 186.2875782222306 0.0 0.0
-303.7765886494738 1.1308264417405427 -102.12838137865606 199.83990131822898 0.0 0.0
-206.52113140212666 5.506714734697846 -63.311165476108656 203.4697729275664 0.0 0.0
-144.74163673665592 11.294047652113887 -40.84523114561205 195.2726605640932 0.0 0.0
-110.03933645222892 17.445186126595814 -27.91705943910391 184.51318349445796 0.0 0.0
-92.23348718866744 17.852825645571226 -22.31627178544351 180.39342078194818 0.0 0.0
-81.6821959261561 3.1092833811003846 -23.578483655213006 182.84786760472946 0.0 0.0
-65.67433358065828 -53.08912042478312 -35.627886070113334 182.3220920556111 0.0 0.0
-24.496495527675215 -203.39144770259713 -68.3663829690817 122.03257074402738 0.0 0.0
-26.87663748568007 -160.57521389003426 -56.235555412714305 -108.08146888182785 0.0 0.0
-76.67839194162337 -49.684627112432985 -37.907721107439286 -174.34963215894038 0.0 0.0
-109.37303769370705 2.392378254986999 -32.09078768478928 -178.50171791092313 0.0 0.0
-137.4821105686956 17.80880978886653 -35.91125711881513 -174.97184079268703 0.0 0.0
-175.4719951362341 18.884830809315325 -47.28074934191266 -175.4695609628903 0.0 0.0
-235.21651852144515 13.973827335746758 -68.03537355725257 -180.23817866972786 0.0 0.0
-328.9120510235979 9.88095593994703 -104.84317199303385 -180.0677934423553 0.0 0.0
-439.3636260079234 1.8091457284805017 -164.86327807051717 -168.38290649833897 0.0 0.0
-531.6236832382322 -8.711147325460587 -231.4576818746695 -157.700137962626 0.0 0.0
-600.0427060168294 -19.47104326513532 -286.99686091882677 -151.38214691983222 0.0 0.0
-652.6231259693095 -27.134319204167525 -326.80439985518507 -147.51383527797137 0.0 0.0
-696.4249837287133 -34.92781841732092 -357.6727762435158 -143.26603223157247 0.0 0.0
-736.6469763701291 -43.50729466825739 -384.61871126379117 -139.2639574708972 0.0 0.0
-775.4644451374309 -54.02069571164637 -410.5994404971713 -136.3389416515235 0.0 0.0
-814.7070476988382 -68.54123466489533 -438.1759158731247 -135.7302869511094 0.0 0.0
-853.2678769706033 -87.60733233387414 -467.4766598854866 -138.52197825665007 0.0 0.0
-888.2043871968242 -109.17768350352426 -496.25593949030366 -144.81399159398845 0.0 0.0
-927.6863996653963 -142.74293040746332 -533.2817856704504 -151.81227977143539 0.0 0.0
-970.6826791669981 -192.13193625646065 -580.0467005423075 -158.49034108083416 0.0 0.0
-1054.4761413812773 -318.646852007308 -683.5639190034639 -168.98660994721368 0.0 0.0
-1054.4761413810031 -318.6468520071709 -683.5639190033287 168.98660994741886 0.0 0.0
-970.6826791668537 -192.13193625651527 -580.0467005422227 158.4903410812175 0.0 0.0
-927.6863996656998 -142.7429304080472 -533.2817856706936 151.81227977174524 0.0 0.0
-888.2043871963999 -109.17768350326935 -496.25593948995873 144.81399159410168 0.0 0.0
-853.2678769703607 -87.60733233384732 -467.4766598853564 138.52197825679212 0.0 0.0
-814.7070476988665 -68.54123466505675 -438.1759158731605 135.73028695104654 0.0 0.0
-775.4644451379795 -54.0206957124535 -410.59944049757286 136.33894165169033 0.0 0.0
-736.6469763701364 -43.50729466851093 -384.6187112638533 139.26395747090683 0.0 0.0
-696.4249837281286 -34.927818416782266 -357.67277624312703 143.26603223142396 0.0 0.0
-652.6231259685296 -27.134319203564417 -326.80439985465125 147.51383527788045 0.0 0.0
-600.0427060157448 -19.47104326412245 -286.99686091805154 151.38214691963117 0.0 0.0
-531.6236832374427 -8.711147324929183 -231.45768187409612 157.70013796257686 0.0 0.0
-439.36362600760157 1.8091457282029382 -164.8632780703117 168.38290649846815 0.0 0.0
-328.91205102300216 9.880955939861204 -104.84317199282212 180.0677934423885 0.0 0.0
-235.21651852088846 13.973827336087435 -68.03537355697725 180.2381786695406 0.0 0.0
-175.47199513599955 18.884830809297366 -47.280749341851674 175.46956096278078 0.0 0.0
-137.4821105685452 17.808809788692386 -35.91125711882603 174.9718407925227 0.0 0.0
-109.37303769365596 2.392378254843002 -32.090787684821294 178.50171791069542 0.0 0.0
-76.67839194151593 -49.68462711232665 -37.9077211073755 174.34963215875635 0.0 0.0
-26.876637485635566 -160.57521388983793 -56.23555541264204 108.08146888165705 0.0 0.0
-27.82584383592048 -121.67557049233557 -44.8504242984768 -93.7451536199392 0.0 0.0
-86.05429367687975 -44.145937011925014 -39.06006920664142 -162.22961064152332 0.0 0.0
-135.24738894676003 1.7965433975416563 -40.032320831859224 -169.8209249819929 0.0 0.0
-180.9506493407439 16.865160172695102 -49.2590809665754 -164.96532627462602 0.0 0.0
-237.91298271976675 19.1327541577855 -66.10505812408117 -161.11393500946605 0.0 0.0
-319.2770318375893 17.431429574863404 -94.63418639625064 -159.59661382287592 0.0 0.0
-426.73956464978073 11.909487736002248 -146.94706269719637 -150.33670086377424 0.0 0.0
-527.6118718304424 -0.4616767376952282 -218.90784162530275 -139.31529461540882 0.0 0.0
-607.5244738142048 -14.121694559027361 -285.380450219089 -134.81906445231812 0.0 0.0
-670.442299127834 -26.904628885900195 -335.5060146456751 -132.66590800419365 0.0 0.0
-722.4393739842965 -37.83467110560548 -372.61426769615764 -130.1732557617705 0.0 0.0
-769.981981908732 -49.493734593523044 -404.74165441001634 -126.63091220903803 0.0 0.0
-814.2961150068303 -61.472074137517566 -434.09669076942265 -122.83953347981438 0.0 0.0
-857.4452669101504 -75.25186619165463 -463.20353877783873 -119.75320075412635 0.0 0.0
-901.2969656618793 -92.65696939949257 -494.15036486967637 -118.92917323628474 0.0 0.0
-947.3305292653538 -116.3553685378512 -529.2282879976494 -121.72343783361475 0.0 0.0
-996.5497348113929 -148.59957764741677 -570.190538406361 -127.46658764587441 0.0 0.0
-1050.2673333789155 -192.14634690877764 -619.1290271079588 -133.4288634860769 0.0 0.0
-1118.0626099498481 -260.81593479963544 -687.3085710024166 -136.59573918452347 0.0 0.0
-1208.8858597807043 -383.97050457062466 -793.6650085983238 -142.8783411944599 0.0 0.0
-1208.8858597810272 -383.97050457121327 -793.6650085986553 142.878341194807 0.0 0.0
-1118.0626099503024 -260.8159348002678 -687.3085710028022 136.59573918481743 0.0 0.0
-1050.267333378315 -192.14634690834848 -619.1290271074558 133.42886348625547 0.0 0.0
-996.5497348103601 -148.5995776464375 -570.1905384056133 127.46658764587283 0.0 0.0
-947.3305292656626 -116.355368538373 -529.2282879978289 121.72343783375021 0.0 0.0
-901.296965662047 -92.6569693998203 -494.1503648697269 118.92917323628791 0.0 0.0
-857.445266910138 -75.2518661918104 -463.20353877775403 119.75320075413522 0.0 0.0
-814.2961150073659 -61.47207413837605 -434.0966907697757 122.8395334800579 0.0 0.0
-769.9819819087758 -49.49373459389479 -404.74165441005147 126.63091220912091 0.0 0.0
-722.4393739844344 -37.83467110604545 -372.61426769620914 130.17325576179795 0.0 0.0
-670.4422991272254 -26.904628885496287 -335.5060146452298 132.665908004058 0.0 0.0
-607.5244738135124 -14.121694558586382 -285.3804502185157 134.81906445226338 0.0 0.0
-527.6118718297251 -0.46167673731375114 -218.90784162474299 139.31529461539293 0.0 0.0
-426.7395646490844 11.909487736258612 -146.94706269677508 150.3367008637915 0.0 0.0
-319.2770318370596 17.431429574966135 -94.6341863960296 159.59661382270036 0.0 0.0
-237.91298271962606 19.132754157523337 -66.10505812411918 161.11393500937433 0.0 0.0
-180.95064934055176 16.86516017252873 -49.259080966573414 164.96532627445367 0.0 0.0
-135.24738894673627 1.7965433974493417 -40.03232083188091 169.82092498186006 0.0 0.0
-86.05429367678313 -44.14593701192021 -39.060069206611 162.22961064136317 0.0 0.0
-27.825843835842747 -121.67557049214707 -44.85042429839694 93.74515361974491 0.0 0.0
-28.528360275884857 -87.23672067651859 -34.729524285721034 -79.08967420144694 0.0 0.0
-94.55776393952212 -37.10495819227486 -39.498816639539086 -146.35645553737623 0.0 0.0
-159.51854654651436 1.453572029879239 -47.41826009897588 -156.77979131103703 0.0 0.0
-222.8344646709305 15.06979707073595 -62.321265357880534 -150.5328505335515 0.0 0.0
-297.3463628666611 19.402316805412394 -84.12453828763303 -142.89293439611043 0.0 0.0
-394.5233007767441 19.67827153476462 -122.30644603561669 -133.58412337977057 0.0 0.0
-500.1533138569165 11.038121441894262 -187.79076618550118 -120.58736859144659 0.0 0.0
-589.7996107534399 -3.399645254168341 -262.76528120318176 -114.66968623070298 0.0 0.0
-662.1768092470335 -18.844154987823686 -323.9943351661584 -114.42479555423868 0.0 0.0
-723.0517006381798 -33.360931812077396 -369.76341090338786 -114.25351432579438 0.0 0.0
-777.9628027013428 -48.21179951033922 -407.87337030115356 -112.56045000942113 0.0 0.0
-829.3051442441547 -63.77717762631913 -442.72841886370145 -109.49512094361407 0.0 0.0
-877.8829078306774 -79.74429710725809 -475.73665021280624 -106.04521752668974 0.0 0.0
-924.901526830803 -96.46225746416626 -508.03681815753004 -103.01271132302935 0.0 0.0
-973.2424825025205 -116.75783529902839 -542.5452507580886 -101.80640050287224 0.0 0.0
-1026.7125687660975 -146.12098210750304 -584.0115581624536 -103.84590326324616 0.0 0.0
-1088.415568045054 -188.04606338767692 -635.9219667262544 -108.90975435095902 0.0 0.0
-1159.1584898272336 -246.1091340210805 -700.417521935055 -113.72914318474332 0.0 0.0
-1240.2420776757328 -326.96285086692234 -781.3522426490964 -116.02941916526393 0.0 0.0
-1323.4354773595842 -440.1032390237831 -879.3678605018803 -123.84267300241575 0.0 0.0
-1323.4354773598466 -440.10323902408663 -879.367860502108 123.84267300258016 0.0 0.0
-1240.2420776754748 -326.9628508668122 -781.3522426489305 116.02941916551438 0.0 0.0
-1159.158489826766 -246.10913402071887 -700.4175219346846 113.72914318487616 0.0 0.0
-1088.4155680454746 -188.04606338822663 -635.9219667264922 108.90975435104835 0.0 0.0
-1026.7125687662278 -146.1209821077257 -584.0115581625973 103.84590326316462 0.0 0.0
-973.2424825025769 -116.75783529922192 -542.5452507581165 101.80640050292368 0.0 0.0
-924.9015268306363 -96.46225746428624 -508.0368181574131 103.01271132328344 0.0 0.0
-877.8829078299984 -79.74429710677545 -475.7366502123285 106.0452175267272 0.0 0.0
-829.3051442439948 -63.77717762635764 -442.72841886359697 109.49512094357097 0.0 0.0
-777.962802700521 -48.21179950971624 -407.8733703006477 112.56045000936467 0.0 0.0
-723.0517006378382 -33.36093181200276 -369.76341090315805 114.25351432574865 0.0 0.0
-662.1768092468428 -18.844154987958174 -323.99433516602204 114.42479555424235 0.0 0.0
-589.7996107532682 -3.399645254439422 -262.7652812029999 114.66968623077872 0.0 0.0
-500.15331385645715 11.038121441912825 -187.79076618513267 120.58736859148053 0.0 0.0
-394.5233007762769 19.67827153471348 -122.30644603540824 133.58412337972806 0.0 0.0
-297.34636286613807 19.402316805771548 -84.12453828737722 142.8929343960122 0.0 0.0
-222.83446467079784 15.069797070522299 -62.32126535791056 150.53285053343183 0.0 0.0
-159.518546546448 1.4535720297706454 -47.41826009898914 156.7797913108856 0.0 0.0
-94.55776393934437 -37.104958192094976 -39.49881663943181 146.3564555372161 0.0 0.0
-28.528360275848826 -87.23672067643453 -34.729524285685 79.08967420135086 0.0 0.0
-29.249765779867282 -57.73429948478898 -26.09521957939688 -64.01955975596871 0.0 0.0
-102.43921390858858 -29.129355318120595 -39.47057076801275 -127.15258007443082 0.0 0.0
-182.4393280297228 1.2351317234500359 -54.35907178606135 -139.49068610299264 0.0 0.0
-262.2445299790428 12.376623174105763 -74.99571640413916 -131.7019065840379 0.0 0.0
-352.1512214843901 20.162466040487693 -101.64804560150924 -120.7199405105628 0.0 0.0
-458.2249111147114 19.59076644500225 -151.32937810712542 -105.36421265720404 0.0 0.0
-555.7030538928568 9.315198322424713 -224.8476176711753 -94.02285309601248 0.0 0.0
-635.7005239009834 -6.545730320901697 -297.05813146258737 -92.73414801770636 0.0 0.0
-704.046371800973 -22.283244561760213 -352.01695578912876 -94.71091532076774 0.0 0.0
-766.3322768404579 -39.5881017432653 -396.92048687073543 -95.46607776177501 0.0 0.0
-824.7479431795673 -58.323509062635395 -437.4396318190433 -94.29608811275426 0.0 0.0
-880.1087630246263 -77.94370661455571 -475.8189191237358 -91.76038174124355 0.0 0.0
-933.1793161195701 -97.9815248152158 -512.9081111520206 -88.89704447623767 0.0 0.0
-984.1764818106743 -118.34527685343286 -548.9364757937022 -86.05465815264927 0.0 0.0
-1036.3574651635433 -141.4990988064476 -586.7409037598118 -84.26487047341428 0.0 0.0
-1096.7659957163103 -175.533995403351 -633.9202662877378 -85.18109017321004 0.0 0.0
-1169.9306412312217 -227.54325297047023 -696.4625500034367 -89.08490079244736 0.0 0.0
-1255.4796240167193 -299.43115501880345 -775.1986344477754 -93.68856574021629 0.0 0.0
-1344.4235211564155 -388.19264593794486 -864.0930790064783 -97.79000652147556 0.0 0.0
-1422.9348568505168 -495.1937913480487 -956.948819859122 -109.46624294883462 0.0 0.0
-1422.9348568506414 -495.1937913482208 -956.9488198592263 109.46624294895585 0.0 0.0
-1344.4235211565772 -388.19264593822777 -864.0930790065886 97.79000652168034 0.0 0.0
-1255.4796240160301 -299.4311550182098 -775.1986344472906 93.68856574035676 0.0 0.0
-1169.930641230404 -227.54325296971712 -696.4625500028051 89.08490079243576 0.0 0.0
-1096.7659957152837 -175.53399540244183 -633.9202662868522 85.18109017325548 0.0 0.0
-1036.3574651622837 -141.49909880526633 -586.7409037588396 84.26487047330012 0.0 0.0
-984.1764818101208 -118.34527685305328 -548.9364757933075 86.05465815274846 0.0 0.0
-933.1793161191927 -97.98152481505886 -512.9081111517442 88.89704447632602 0.0 0.0
-880.1087630237752 -77.94370661392168 -475.81891912315865 91.76038174125934 0.0 0.0
-824.7479431790989 -58.32350906238941 -437.43963181872647 94.29608811268871 0.0 0.0
-766.3322768401874 -39.58810174322598 -396.92048687053364 95.46607776170683 0.0 0.0
-704.0463718002852 -22.28324456134581 -352.01695578862655 94.71091532071868 0.0 0.0
-635.700523900538 -6.54573032076863 -297.05813146218946 92.73414801770109 0.0 0.0
-555.7030538926281 9.315198322235318 -224.84761767092334 94.02285309605736 0.0 0.0
-458.22491111469594 19.59076644439905 -151.3293781071307 105.36421265724081 0.0 0.0
-352.1512214841514 20.162466040157327 -101.64804560152504 120.71994051050208 0.0 0.0
-262.2445299787153 12.37662317433924 -74.99571640398194 131.70190658393292 0.0 0.0
-182.43932802946347 1.2351317237277581 -54.359071785901065 139.49068610285332 0.0 0.0
-102.43921390848129 -29.12935531810512 -39.47057076797592 127.15258007426857 0.0 0.0
-29.249765779734446 -57.734299484646264 -26.09521957931421 64.01955975591532 0.0 0.0
-29.77940257391231 -33.60597086128838 -19.015612030560206 -48.468847081795964 0.0 0.0
-109.45700497799747 -20.747237869404096 -39.06127285422047 -104.98269252108668 0.0 0.0
-204.15039518403415 1.0079011178635557 -60.94274821985117 -117.9462708411499 0.0 0.0
-300.4099441141502 9.458871708944326 -87.34302465539095 -109.27338771057869 0.0 0.0
-404.98665654705223 20.564768174577978 -119.94611245793584 -95.03965544386031 0.0 0.0
-509.28922530626585 18.453261342162172 -180.19781342879793 -77.63321469480162 0.0 0.0
-595.724685357083 6.144649981838619 -256.88186462109036 -70.52365941258536 0.0 0.0
-670.4701646235415 -8.085896659126774 -322.2536174364735 -72.21573441964436 0.0 0.0
-738.6680157282296 -25.338217517991055 -374.04274903195574 -74.87263641659933 0.0 0.0
-803.2469882532728 -45.79395697422747 -419.80118837629186 -76.05419498269791 0.0 0.0
-865.0869549235837 -68.11846877857609 -463.1480036221368 -75.34671228813278 0.0 0.0
-924.7813405439542 -91.8366741713301 -505.4951752415721 -73.4157163444802 0.0 0.0
-982.3573300912392 -116.20923733538127 -546.8782202706454 -71.17391302679316 0.0 0.0
-1038.6247210745555 -141.13487711800266 -587.7678825807114 -68.85704287374013 0.0 0.0
-1095.0007062820728 -167.75393963025786 -629.4065344921444 -66.59531245739191 0.0 0.0
-1158.6796473713694 -204.4525477108018 -679.5061192957324 -65.79418214697739 0.0 0.0
-1241.3431013755953 -264.32449639798307 -750.5994076153231 -68.36424960256936 0.0 0.0
-1339.7878646120964 -348.1718187825676 -841.7305032885638 -73.69181236804829 0.0 0.0
-1438.510378479195 -446.6929613023308 -940.4498835883765 -81.19658019457994 0.0 0.0
-1517.3844630264541 -553.0418629627236 -1033.2983677489844 -97.69897355662457 0.0 0.0
-1517.384463026518 -553.0418629628161 -1033.2983677490029 97.69897355669642 0.0 0.0
-1438.5103784786825 -446.6929613018817 -940.4498835879979 81.19658019470478 0.0 0.0
-1339.7878646125168 -348.1718187831021 -841.7305032888082 73.69181236821963 0.0 0.0
-1241.3431013755535 -264.32449639803775 -750.5994076152049 68.36424960259106 0.0 0.0
-1158.6796473716777 -204.45254771124016 -679.5061192958747 65.79418214702613 0.0 0.0
-1095.000706283021 -167.7539396313676 -629.4065344927927 66.59531245742 0.0 0.0
-1038.624721074268 -141.1348771178813 -587.767882580511 68.85704287379151 0.0 0.0
-982.3573300906618 -116.209237334969 -546.8782202701701 71.17391302677431 0.0 0.0
-924.7813405430737 -91.83667417068858 -505.4951752409385 73.4157163445632 0.0 0.0
-865.0869549236917 -68.11846877894554 -463.14800362219444 75.34671228813791 0.0 0.0
-803.2469882541652 -45.793956975451295 -419.80118837686746 76.05419498276399 0.0 0.0
-738.6680157282134 -25.338217518243187 -374.0427490319247 74.87263641652865 0.0 0.0
-670.4701646231815 -8.085896659057656 -322.2536174361763 72.21573441958375 0.0 0.0
-595.7246853569635 6.144649981592213 -256.88186462087606 70.52365941255272 0.0 0.0
-509.28922530612545 18.45326134180482 -180.19781342866384 77.63321469486134 0.0 0.0
-404.98665654653297 20.56476817468142 -119.94611245772234 95.03965544383472 0.0 0.0
-300.40994411377767 9.458871709261619 -87.34302465519262 109.27338771051693 0.0 0.0
-204.15039518385026 1.0079011179545643 -60.942748219768696 117.94627084107518 0.0 0.0
-109.45700497787604 -20.747237869394755 -39.06127285418123 104.98269252106746 0.0 0.0
-29.779402573860203 -33.60597086126643 -19.015612030537987 48.46884708177034 0.0 0.0
-29.479923074660498 -15.270944087808914 -13.425260148740822 -32.563759037655785 0.0 0.0
-114.73427564276702 -12.391094888807757 -38.13761115947243 -80.04605437744726 0.0 0.0
-224.9520477756888 0.39977548479420477 -67.36568168726836 -92.06859831801123 0.0 0.0
-338.0515782292803 7.687861935855695 -99.21189493106444 -83.36371055826703 0.0 0.0
-452.33717683620023 20.34150171266311 -139.38786596392399 -66.93171387624012 0.0 0.0
-549.5193106890074 15.37100721679316 -208.88599424711072 -52.481628193476695 0.0 0.0
-627.8130903494967 3.878186473526249 -283.1879113169389 -49.49765271902026 0.0 0.0
-698.8106621166963 -9.130653057266485 -341.69064568366167 -51.84217479038362 0.0 0.0
-767.7651089608689 -28.476176235235258 -392.1010461928855 -54.631693543471606 0.0 0.0
-834.9436841828651 -51.796381469330456 -439.46292085057064 -56.00028938298113 0.0 0.0
-900.5273679666188 -77.69842064233627 -486.0801163325808 -55.70990590933238 0.0 0.0
-964.3492444793116 -105.39212285563397 -532.3377905160353 -54.37941226811367 0.0 0.0
-1027.0454491695866 -134.20797443983184 -578.4234230477553 -52.85205041180009 0.0 0.0
-1088.8226312847657 -164.57730695379783 -624.7269807642573 -51.133668964256714 0.0 0.0
-1150.7636209918016 -196.58868093985518 -671.8476853750708 -48.89355660844768 0.0 0.0
-1216.8487104339367 -234.7828946468564 -723.9583235441033 -46.569252994940776 0.0 0.0
-1298.9893645439602 -293.2162646868009 -793.9790066786894 -47.05586283550267 0.0 0.0
-1411.2937340480134 -389.83998742324746 -898.2984224606923 -53.13280787967623 0.0 0.0
-1525.6618799304597 -503.0558175176876 -1012.2652153711213 -65.07613267598313 0.0 0.0
-1615.1897113561736 -618.2134250174798 -1114.9328121706058 -87.23200204231175 0.0 0.0
-1615.1897113562734 -618.213425017589 -1114.9328121706299 87.23200204236093 0.0 0.0
-1525.6618799307894 -503.05581751809257 -1012.2652153713182 65.076132676101 0.0 0.0
-1411.2937340486892 -389.8399874239886 -898.2984224611084 53.13280787971141 0.0 0.0
-1298.9893645436289 -293.21626468658445 -793.9790066783892 47.055862835635835 0.0 0.0
-1216.848710431927 -234.7828946449368 -723.9583235425871 46.56925299491718 0.0 0.0
-1150.7636209911425 -196.58868093933148 -671.8476853744655 48.893556608472785 0.0 0.0
-1088.8226312847155 -164.57730695392763 -624.7269807641089 51.13366896432713 0.0 0.0
-1027.045449170009 -134.20797444044368 -578.4234230480445 52.85205041181786 0.0 0.0
-964.3492444790613 -105.39212285562526 -532.3377905158981 54.37941226819291 0.0 0.0
-900.5273679661083 -77.69842064204587 -486.0801163322032 55.70990590928242 0.0 0.0
-834.943684182567 -51.79638146930665 -439.4629208503739 56.00028938300449 0.0 0.0
-767.7651089605301 -28.47617623515135 -392.10104619264894 54.631693543386774 0.0 0.0
-698.810662116227 -9.130653057084203 -341.69064568330043 51.84217479031978 0.0 0.0
-627.8130903492307 3.8781864735109792 -283.1879113166348 49.49765271886609 0.0 0.0
-549.5193106886827 15.371007216745944 -208.8859942467977 52.48162819348488 0.0 0.0
-452.3371768359578 20.34150171238118 -139.3878659638464 66.9317138762792 0.0 0.0
-338.0515782291309 7.687861935581015 -99.21189493111261 83.36371055821863 0.0 0.0
-224.952047775465 0.3997754847559136 -67.36568168721271 92.06859831790446 0.0 0.0
-114.7342756427597 -12.391094889005917 -38.137611159529676 80.04605437739602 0.0 0.0
-29.479923074635813 -15.270944087797574 -13.425260148730013 32.56375903764511 0.0 0.0
-27.07261751894815 -3.076163190714504 -9.044634212898794 -16.820369519227906 0.0 0.0
-116.58186938854321 -4.6222794553435325 -36.36124465316601 -52.3090013958966 0.0 0.0
-245.13761534856582 -0.6404923628912869 -73.73343231343713 -61.336848676651904 0.0 0.0
-377.3415792185827 7.3734610845724715 -111.23815819973512 -54.12320030234079 0.0 0.0
-492.0533473746988 19.923087971832857 -159.72733648246074 -39.17051894343769 0.0 0.0
-578.5885244832916 10.735107444497416 -235.7182329071938 -29.83005740195496 0.0 0.0
-652.6928301884079 3.2720869995784767 -303.0041635701372 -29.52916224561843 0.0 0.0
-722.4193621405773 -10.785011500429476 -357.5281336211131 -31.577936628421998 0.0 0.0
-792.0838205616035 -31.474606026318938 -407.00021171277285 -33.92906852389319 0.0 0.0
-862.0937603479135 -57.56610828810986 -456.46623421239013 -35.256636254175056 0.0 0.0
-931.5774586098175 -87.08725014245374 -506.6154359828362 -35.35558781331047 0.0 0.0
-1000.0132965794583 -118.57002617916882 -556.9781683443359 -34.68233156585961 0.0 0.0
-1067.5380553805699 -152.22413729292703 -607.8362416055418 -33.763552827401206 0.0 0.0
-1135.4370738174011 -188.07722966922643 -659.888705654619 -32.721678951574496 0.0 0.0
-1204.413626781817 -226.83343468180692 -713.8753764464767 -31.099771702585894 0.0 0.0
-1274.5750166913745 -269.20380619945894 -770.1908307080066 -28.38234911720158 0.0 0.0
-1350.3869505455718 -321.0187763819632 -833.8404158454688 -26.270446047365006 0.0 0.0
-1450.76980483021 -404.3038114245503 -925.2857133398045 -30.875758356969012 0.0 0.0
-1611.7368920073943 -561.5179677412065 -1084.4600392531227 -47.42089122823731 0.0 0.0
-1726.162333567239 -698.6322416711179 -1210.7639144459456 -77.11625672583997 0.0 0.0
-1726.1623335667505 -698.63224167064 -1210.7639144456439 77.1162567258323 0.0 0.0
-1611.7368920066988 -561.5179677405325 -1084.4600392525915 47.42089122819932 0.0 0.0
-1450.7698048299383 -404.30381142434965 -925.285713339634 30.875758357044887 0.0 0.0
-1350.3869505449538 -321.01877638144276 -833.8404158449952 26.270446047443667 0.0 0.0
-1274.5750166896273 -269.20380619781787 -770.1908307067818 28.382349117215774 0.0 0.0
-1204.4136267804472 -226.83343468055375 -713.8753764456097 31.09977170249556 0.0 0.0
-1135.437073816621 -188.07722966859703 -659.888705654062 32.72167895154361 0.0 0.0
-1067.5380553792154 -152.22413729175278 -607.8362416045537 33.76355282741309 0.0 0.0
-1000.0132965780037 -118.57002617792006 -556.9781683432965 34.68233156586021 0.0 0.0
-931.5774586089797 -87.08725014183752 -506.61543598223864 35.35558781323722 0.0 0.0
-862.0937603478089 -57.56610828827696 -456.46623421227855 35.25663625422801 0.0 0.0
-792.0838205611874 -31.474606026187118 -407.0002117124735 33.92906852401036 0.0 0.0
-722.4193621400408 -10.785011500181291 -357.5281336207082 31.577936628391832 0.0 0.0
-652.6928301879075 3.2720869997702486 -303.00416356974074 29.529162245698437 0.0 0.0
-578.5885244824752 10.735107445027978 -235.71823290657122 29.83005740197661 0.0 0.0
-492.05334737425744 19.923087971894837 -159.7273364821918 39.17051894349572 0.0 0.0
-377.3415792183465 7.373461084367442 -111.23815819973501 54.1232003024401 0.0 0.0
-245.13761534832045 -0.6404923629325232 -73.73343231337589 61.33684867657077 0.0 0.0
-116.58186938853478 -4.622279455468036 -36.36124465320084 52.30900139586885 0.0 0.0
-27.072617518823378 -3.07616319062977 -9.044634212835945 16.820369519242853 0.0 0.0
-20.10636184037334 2.75458895578276 -5.205531865377172 -2.486744159125608 0.0 0.0
-112.05887423023448 1.7720979844787603 -33.08603287372671 -21.2525702716135 0.0 0.0
-265.5656159307216 -2.0620515542761044 -80.28830024549931 -24.656316694801827 0.0 0.0
-417.36445503032917 9.27312608872367 -123.99463928729585 -21.943317167719318 0.0 0.0
-526.1657362991889 17.465884737302108 -181.9384139608212 -13.442121067069683 0.0 0.0
-604.3256913127927 8.215559314337256 -258.8016900817538 -9.800787289394922 0.0 0.0
-672.9726332989072 2.1086847294986484 -319.00031091969333 -9.990700764048515 0.0 0.0
-741.7998962957037 -12.501945802688695 -370.2441769946561 -11.277960624428847 0.0 0.0
-812.5246793827575 -34.58772094122244 -419.62676272383317 -12.785621993595639 0.0 0.0
-885.3040346001695 -63.12045341947791 -471.25863158691755 -13.823367412679357 0.0 0.0
-958.7806168225084 -95.9409141763768 -524.8895181260584 -14.275895378669036 0.0 0.0
-1031.7956526352884 -131.99289756429476 -579.7552045742316 -14.213082927424418 0.0 0.0
-1104.5951044780413 -170.03716748258125 -635.4030303428223 -13.97983142677065 0.0 0.0
-1178.4603180291983 -211.15109219928425 -693.0302408537598 -13.588613526425437 0.0 0.0
-1254.4622169224617 -256.7029449944492 -753.8944985874016 -12.768523586045653 0.0 0.0
-1331.7393922196552 -306.4214921968106 -817.4498933004614 -11.115135302687268 0.0 0.0
-1406.9795305681628 -358.1276621735483 -880.9147704426148 -8.417634321322744 0.0 0.0
-1482.3165352261815 -415.803045098662 -947.1901794135358 -8.160429034688665 0.0 0.0
-1593.1157421598414 -518.8773185692912 -1053.6229527115045 -23.449981550952373 0.0 0.0
-1924.9987349640571 -866.2321593278602 -1393.9843391804188 -63.054876318822686 0.0 0.0
-1924.9987349643848 -866.2321593282176 -1393.9843391806553 63.05487631888113 0.0 0.0
-1593.1157421598427 -518.8773185693449 -1053.622952711474 23.44998155101198 0.0 0.0
-1482.3165352255476 -415.80304509809855 -947.1901794129484 8.160429034627814 0.0 0.0
-1406.9795305683226 -358.1276621738049 -880.9147704426692 8.41763432131614 0.0 0.0
-1331.739392219847 -306.42149219712326 -817.4498933005575 11.115135302737075 0.0 0.0
-1254.4622169231718 -256.7029449953094 -753.8944985878356 12.768523586067154 0.0 0.0
-1178.4603180289153 -211.15109219916596 -693.0302408535284 13.588613526419113 0.0 0.0
-1104.5951044776837 -170.03716748240998 -635.4030303425225 13.979831426688165 0.0 0.0
-1031.7956526353785 -131.9928975646089 -579.7552045742024 14.213082927430447 0.0 0.0
-958.7806168220565 -95.94091417616423 -524.889518125693 14.275895378659383 0.0 0.0
-885.3040346000616 -63.12045341963694 -471.258631586808 13.823367412586354 0.0 0.0
-812.5246793826336 -34.587720941377654 -419.62676272373585 12.785621993700957 0.0 0.0
-741.7998962951918 -12.50194580246535 -370.2441769943155 11.27796062437902 0.0 0.0
-672.9726332982309 2.108684729888573 -319.00031091922096 9.990700764030183 0.0 0.0
-604.3256913125365 8.21555931427396 -258.8016900814845 9.800787289407644 0.0 0.0
-526.1657362990346 17.465884737102744 -181.93841396066702 13.442121067101255 0.0 0.0
-417.3644550300279 9.273126088579541 -123.99463928724737 21.94331716771805 0.0 0.0
-265.56561593057006 -2.0620515545771525 -80.28830024554416 24.656316694707886 0.0 0.0
-112.05887423018125 1.7720979843307703 -33.08603287375514 21.252570271632717 0.0 0.0
-20.106361840293506 2.754588955777323 -5.205531865354854 2.4867441591960646 0.0 0.0
SCALARS Strain float 6
LOOKUP_TABLE default
0.010952506197297774 -0.01202151775375293 0.0 -0.006614711485854102 0.0 0.0
0.0022633154940410096 -0.0013388373796128228 0.0 0.0011072674860140574 0.0 0.0
0.001785653356641598 -0.0007292398508718101 0.0 -4.8417556480440105e-05 0.0 0.0
0.0022130330221715004 -0.0010415730867626705 0.0 -0.00020060451427994508 0.0 0.0
0.0033004529434797585 -0.001891655157409966 0.0 -0.00024722011628949825 0.0 0.0
0.0055317229408752815 -0.0038281729385036822 0.0 -0.00036541434128103956 0.0 0.0
0.00909607333676376 -0.007119413775687811 0.0 -0.0005703115646557289 0.0 0.0
0.014202769695005363 -0.01195432214646841 0.0 -0.0008796525686915468 0.0 0.0
0.020958075038547495 -0.0184249116073667 0.0 -0.001305319499676022 0.0 0.0
0.029361147535903152 -0.026522777849583345 0.0 -0.0018126431409127286 0.0 0.0
0.03936886593277811 -0.03621038075398619 0.0 -0.00233828171890621 0.0 0.0
0.05094739920302269 -0.04745926709096615 0.0 -0.0028628035879337543 0.0 0.0
0.06407068748752806 -0.060247919255407734 0.0 -0.0033926988510685763 0.0 0.0
0.07868590461378197 -0.07451954055178289 0.0 -0.003928475255847164 0.0 0.0
0.0945903683645156 -0.09006647568580073 0.0 -0.004460912342449053 0.0 0.0
0.1112783414235617 -0.10638518401540509 0.0 -0.004892329836005294 0.0 0.0
0.1278688773148739 -0.12260620950095591 0.0 -0.005020843006495468 0.0 0.0
0.14313982739818285 -0.1375232069652883 0.0 -0.004608567014881659 0.0 0.0
0.15562145651387083 -0.14967948656866925 0.0 -0.003766907169155065 0.0 0.0
0.16335975546397016 -0.15698694788586742 0.0 -0.0038012628284769256 0.0 0.0
0.16335975546395984 -0.15698694788586076 0.0 0.0038012628284821437 0.0 0.0
0.15562145651383977 -0.14967948656864216 0.0 0.0037669071691744938 0.0 0.0
0.1431398273981301 -0.13752320696524345 0.0 0.004608567014890541 0.0 0.0
0.12786887731480728 -0.12260620950089862 0.0 0.00502084300650163 0.0 0.0
0.11127834142349008 -0.10638518401533892 0.0 0.0048923298359947465 0.0 0.0
0.09459036836444051 -0.09006647568573012 0.0 0.004460912342450163 0.0 0.0
0.07868590461370936 -0.07451954055171583 0.0 0.003928475255844166 0.0 0.0
0.06407068748745429 -0.060247919255340676 0.0 0.0033926988510682987 0.0 0.0
0.05094739920295152 -0.04745926709089776 0.0 0.002862803587928564 0.0 0.0
0.039368865932714825 -0.0362103807539258 0.0 0.0023382817189039895 0.0 0.0
0.02936114753585009 -0.02652277784953272 0.0 0.001812643140905179 0.0 0.0
0.02095807503850647 -0.01842491160732851 0.0 0.001305319499674662 0.0 0.0
0.014202769694973777 -0.011954322146440433 0.0 0.0008796525686901036 0.0 0.0
0.009096073336742727 -0.007119413775667605 0.0 0.0005703115646544243 0.0 0.0
0.005531722940862599 -0.0038281729384911367 0.0 0.00036541434127893013 0.0 0.0
0.0033004529434741414 -0.001891655157405192 0.0 0.0002472201162867227 0.0 0.0
0.0022130330221701022 -0.0010415730867613382 0.0 0.0002006045142791124 0.0 0.0
0.0017856533566411315 -0.000729239850871477 0.0 4.841755647982948e-05 0.0 0.0
0.002263315494039575 -0.001338837379611324 0.0 -0.0011072674860121978 0.0 0.0
0.010952506197287382 -0.012021517753739178 0.0 0.00661471148582371 0.0 0.0
0.0077145963474426656 -0.009158741421827682 0.0 -0.007924176422484969 0.0 0.0
0.0012417101705705785 -0.0006788821892498298 0.0 0.00014388189957073583 0.0 0.0
0.0015303198930337325 -0.0005527586201437007 0.0 -0.0001316354934970121 0.0 0.0
0.001954260126680471 -0.0008803083999013861 0.0 -0.00045230327236750467 0.0 0.0
0.002820421792199622 -0.0015141397488197539 0.0 -0.0005645718621244133 0.0 0.0
0.004728965425902402 -0.0031195260174921025 0.0 -0.0008558572646557849 0.0 0.0
0.007912521032809525 -0.00601097184054189 0.0 -0.0013812285299242832 0.0 0.0
0.012532311332257462 -0.01035142938374145 0.0 -0.002129240800635035 0.0 0.0
0.018654247375190718 -0.016193483858564894 0.0 -0.003103627202023479 0.0 0.0
0.0262384319660642 -0.023487069597381005 0.0 -0.004224872010024167 0.0 0.0
0.03521607840501232 -0.03216657730964023 0.0 -0.005373313512828631 0.0 0.0
0.045559360590307005 -0.04220821658263896 0.0 -0.00648303563377009 0.0 0.0
0.05728838800662916 -0.05363035099078939 0.0 -0.007620713487837161 0.0 0.0
0.07038566708468127 -0.06641234262499873 0.0 -0.008817089384352744 0.0 0.0
0.08468219347312206 -0.0803829136188785 0.0 -0.010001547063801297 0.0 0.0
0.09974731652615533 -0.09511301182603527 0.0 -0.010973516865845023 0.0 0.0
0.11481566940683294 -0.10984370722131187 0.0 -0.011323655851045 0.0 0.0
0.1287827204558429 -0.12347770678565517 0.0 -0.010643014121994643 0.0 0.0
0.14015833685820378 -0.1345020566779449 0.0 -0.008988167904232292 0.0 0.0
0.14699781473054777 -0.14107592790432433 0.0 -0.006200498372008534 0.0 0.0
0.14699781473053766 -0.14107592790431367 0.0 0.006200498372027186 0.0 0.0
0.14015833685817536 -0.13450205667791915 0.0 0.008988167904266375 0.0 0.0
0.12878272045579617 -0.12347770678561076 0.0 0.010643014122016958 0.0 0.0
0.11481566940677551 -0.10984370722125547 0.0 0.01132365585105577 0.0 0.0
0.09974731652609115 -0.0951130118259762 0.0 0.010973516865835253 0.0 0.0
0.08468219347305533 -0.08038291361881678 0.0 0.010001547063799299 0.0 0.0
0.07038566708461574 -0.06641234262493434 0.0 0.008817089384348886 0.0 0.0
0.057288388006563495 -0.05363035099072677 0.0 0.007620713487836661 0.0 0.0
0.045559360590243764 -0.04220821658257812 0.0 0.006483035633764289 0.0 0.0
0.03521607840495494 -0.03216657730958539 0.0 0.005373313512821998 0.0 0.0
0.026238431966016995 -0.023487069597336596 0.0 0.004224872010011871 0.0 0.0
0.018654247375153116 -0.016193483858527147 0.0 0.003103627202017789 0.0 0.0
0.012532311332229346 -0.010351429383713473 0.0 0.00212924080063015 0.0 0.0
0.007912521032790443 -0.006010971840525459 0.0 0.0013812285299213412 0.0 0.0
0.004728965425891379 -0.0031195260174861072 0.0 0.0008558572646535922 0.0 0.0
0.0028204217921954933 -0.0015141397488168673 0.0 0.0005645718621238582 0.0 0.0
0.001954260126679458 -0.0008803083999002759 0.0 0.00045230327236850387 0.0 0.0
0.0015303198930333994 -0.0005527586201442003 0.0 0.00013163549349742842 0.0 0.0
0.001241710170570648 -0.0006788821892487473 0.0 -0.00014388189957190156 0.0 0.0
0.0077145963474301305 -0.009158741421813327 0.0 0.007924176422457685 0.0 0.0
0.005679562640371769 -0.007270067200660368 0.0 -0.007327637798003855 0.0 0.0
0.0007335428023208801 -0.0004389811523598519 0.0 -0.000548885825673473 0.0 0.0
0.0012273656180032955 -0.0004087530451251098 0.0 -0.0004281719297695996 0.0 0.0
0.0017043855090660837 -0.0007337327552340289 0.0 -0.000694500704883888 0.0 0.0
0.0023947851478785323 -0.0012040304752090059 0.0 -0.0008526009801553547 0.0 0.0
0.003955392485292954 -0.00245882371361672 0.0 -0.0012253333343504869 0.0 0.0
0.006735864493785708 -0.004922902477061397 0.0 -0.001981086668526144 0.0 0.0
0.010843381786819428 -0.008745153318737708 0.0 -0.003091517638656255 0.0 0.0
0.016309332841685606 -0.01393314320488126 0.0 -0.004501781985398273 0.0 0.0
0.023061181200069017 -0.020409380614846873 0.0 -0.006099875395730842 0.0 0.0
0.03101049972980771 -0.028083093273154613 0.0 -0.007736301808579177 0.0 0.0
0.04012928125706215 -0.03692613945836243 0.0 -0.00932238870924404 0.0 0.0
0.050454869099609556 -0.04697286409817458 0.0 -0.010919195637307921 0.0 0.0
0.06201184195288423 -0.058243952893022755 0.0 -0.012617091013794435 0.0 0.0
0.0746829923469461 -0.0706218010737314 0.0 -0.014334900579581977 0.0 0.0
0.08812017850321292 -0.08375879880414772 0.0 -0.01575045267810432 0.0 0.0
0.1016827887347254 -0.09701528238046198 0.0 -0.016352281587833584 0.0 0.0
0.11437165744741058 -0.10938445768703708 0.0 -0.015608166747819174 0.0 0.0
0.12475321698815363 -0.11945730622255457 0.0 -0.01304760019900264 0.0 0.0
0.13118154041080632 -0.12566620467241263 0.0 -0.007966591460207062 0.0 0.0
0.13118154041079674 -0.1256662046724073 0.0 0.007966591460236705 0.0 0.0
0.12475321698812808 -0.11945730622253103 0.0 0.013047600199047271 0.0 0.0
0.11437165744736946 -0.10938445768699623 0.0 0.015608166747852703 0.0 0.0
0.10168278873467537 -0.09701528238041268 0.0 0.016352281587848738 0.0 0.0
0.08812017850315595 -0.08375879880408998 0.0 0.015750452678095495 0.0 0.0
0.07468299234688755 -0.07062180107367233 0.0 0.014334900579580534 0.0 0.0
0.062011841952825775 -0.05824395289296502 0.0 0.012617091013789605 0.0 0.0
0.05045486909955166 -0.04697286409811685 0.0 0.010919195637303813 0.0 0.0
0.040129281257006655 -0.03692613945830425 0.0 0.0093223887092313 0.0 0.0
0.031010499729756863 -0.02808309327310421 0.0 0.00773630180856788 0.0 0.0
0.023061181200027425 -0.020409380614806683 0.0 0.006099875395715715 0.0 0.0
0.016309332841651925 -0.013933143204850618 0.0 0.004501781985390307 0.0 0.0
0.010843381786794531 -0.008745153318712395 0.0 0.003091517638649788 0.0 0.0
0.006735864493769145 -0.004922902477045188 0.0 0.0019810866685207595 0.0 0.0
0.003955392485284065 -0.0024588237136086155 0.0 0.0012253333343479056 0.0 0.0
0.0023947851478755 -0.001204030475205009 0.0 0.0008526009801559098 0.0 0.0
0.0017043855090651538 -0.0007337327552334738 0.0 0.0006945007048833329 0.0 0.0
0.0012273656180033787 -0.00040875304512549837 0.0 0.00042817192976896123 0.0 0.0
0.0007335428023208801 -0.00043898115235863067 0.0 0.000548885825670864 0.0 0.0
0.00567956264035982 -0.00727006720064708 0.0 0.007327637797981956 0.0 0.0
0.004264472522200996 -0.005849434365193834 0.0 -0.006219174879417616 0.0 0.0
0.0004608036168632368 -0.0003279031044198799 0.0 -0.0011354033673793562 0.0 0.0
0.0009510479412323455 -0.0002977824479415414 0.0 -0.0008186032769288698 0.0 0.0
0.0014519252149552547 -0.0005975632925788732 0.0 -0.0009606233492258087 0.0 0.0
0.002018711021837344 -0.0009589188458303255 0.0 -0.0011320516657464808 0.0 0.0
0.0032445906411082207 -0.0018841269118514692 0.0 -0.0015030351329100855 0.0 0.0
0.005574990688508551 -0.003880184146809018 0.0 -0.002379028497388358 0.0 0.0
0.009154220515932107 -0.0071536846146254 0.0 -0.003760699092382025 0.0 0.0
0.013943730308595192 -0.011668279576240614 0.0 -0.005491444415027025 0.0 0.0
0.01985231542897975 -0.017314934398958703 0.0 -0.007439242763810944 0.0 0.0
0.02677303138596414 -0.0239813090516785 0.0 -0.009424509514514734 0.0 0.0
0.03467212446157509 -0.031629412667578016 0.0 -0.011357925500443261 0.0 0.0
0.043597285221592987 -0.040304004689455386 0.0 -0.01331593285859134 0.0 0.0
0.05360231829010016 -0.050052435393499906 0.0 -0.015356209046489877 0.0 0.0
0.06462585744835872 -0.06081579595099784 0.0 -0.017414606652296882 0.0 0.0
0.07641544802764401 -0.07234109015444945 0.0 -0.01918921063138801 0.0 0.0
0.08845599047190242 -0.08410602794237221 0.0 -0.02008466362915695 0.0 0.0
0.09988170678978042 -0.09524311734017754 0.0 -0.019361178830428205 0.0 0.0
0.10943649250477701 -0.1045220340910662 0.0 -0.01613724672682576 0.0 0.0
0.1156783791260144 -0.11056502625893083 0.0 -0.009421022588982253 0.0 0.0
0.11567837912600573 -0.11056502625892284 0.0 0.009421022589020556 0.0 0.0
0.10943649250475374 -0.10452203409104577 0.0 0.01613724672687855 0.0 0.0
0.09988170678974459 -0.09524311734014335 0.0 0.01936117883046584 0.0 0.0
0.08845599047185865 -0.0841060279423278 0.0 0.020084663629173827 0.0 0.0
0.0764154480275947 -0.07234109015440238 0.0 0.01918921063138046 0.0 0.0
0.06462585744830807 -0.060815795950947216 0.0 0.017414606652293663 0.0 0.0
0.05360231829004869 -0.05005243539344617 0.0 0.01535620904648416 0.0 0.0
0.04359728522154327 -0.040304004689402984 0.0 0.013315932858585233 0.0 0.0
0.034672124461526926 -0.031629412667529166 0.0 0.011357925500429578 0.0 0.0
0.026773031385920826 -0.023981309051640975 0.0 0.009424509514500634 0.0 0.0
0.019852315428943085 -0.017314934398924287 0.0 0.0074392427637935965 0.0 0.0
0.013943730308565744 -0.011668279576211749 0.0 0.0054914444150155894 0.0 0.0
0.009154220515910666 -0.007153684614604527 0.0 0.003760699092372033 0.0 0.0
0.005574990688494846 -0.0038801841467965836 0.0 0.0023790284973818077 0.0 0.0
0.003244590641101497 -0.0018841269118466952 0.0 0.0015030351329066716 0.0 0.0
0.002018711021835151 -0.0009589188458292153 0.0 0.0011320516657448154 0.0 0.0
0.001451925214954436 -0.0005975632925790952 0.0 0.0009606233492243377 0.0 0.0
0.00095104794123263 -0.00029778244794165243 0.0 0.0008186032769266216 0.0 0.0
0.0004608036168632368 -0.00032790310441885295 0.0 0.0011354033673751374 0.0 0.0
0.004264472522190671 -0.005849434365182158 0.0 0.006219174879399769 0.0 0.0
0.003196303641148479 -0.004696345791962736 0.0 -0.005092403235124304 0.0 0.0
0.00030754907658153696 -0.0002717601556595506 0.0 -0.0015915693359071226 0.0 0.0
0.0007183697165970004 -0.0002161918952142683 0.0 -0.0012129915798460011 0.0 0.0
0.0011974270519493346 -0.00047394243275000747 0.0 -0.0012503638972991005 0.0 0.0
0.0016799619418549488 -0.0007625102665692607 0.0 -0.0014046867694591791 0.0 0.0
0.002611692839866009 -0.001410348962446184 0.0 -0.0017469993136142448 0.0 0.0
0.004468243558249957 -0.0029195806204107555 0.0 -0.0025972274362296432 0.0 0.0
0.0074757192459193045 -0.005597840927370257 0.0 -0.0040964358407397095 0.0 0.0
0.011578265909107002 -0.00942227594277556 0.0 -0.006064109196749934 0.0 0.0
0.016633306710949036 -0.014227656720086523 0.0 -0.00823494856524598 0.0 0.0
0.022525087761152127 -0.019884489234488267 0.0 -0.010443212846287853 0.0 0.0
0.029208779561140874 -0.02634202888739301 0.0 -0.01258996298200038 0.0 0.0
0.036736671878396784 -0.03364621224680153 0.0 -0.014755455242455418 0.0 0.0
0.04518789798353724 -0.0418720170760829 0.0 -0.01702665575020129 0.0 0.0
0.05455244612359307 -0.05100868332914699 0.0 -0.01929942702952936 0.0 0.0
0.06466064275897279 -0.06088592052565689 0.0 -0.021266011517727446 0.0 0.0
0.07513171866091584 -0.07111955790979918 0.0 -0.022411199580584074 0.0 0.0
0.08529901023949155 -0.08103548709981778 0.0 -0.02185961840477113 0.0 0.0
0.09412968360024265 -0.08961860230450114 0.0 -0.01836234569775358 0.0 0.0
0.10033238937058124 -0.09562977777853598 0.0 -0.010654081194032106 0.0 0.0
0.10033238937057332 -0.09562977777852533 0.0 0.010654081194073295 0.0 0.0
0.09412968360022139 -0.08961860230447449 0.0 0.01836234569780748 0.0 0.0
0.08529901023946082 -0.08103548709978448 0.0 0.02185961840481132 0.0 0.0
0.07513171866087803 -0.07111955790976454 0.0 0.02241119958060378 0.0 0.0
0.06466064275893088 -0.06088592052562225 0.0 0.021266011517720673 0.0 0.0
0.05455244612354973 -0.05100868332911146 0.0 0.019299427029521254 0.0 0.0
0.0451878979834936 -0.04187201707604693 0.0 0.01702665575019524 0.0 0.0
0.036736671878355026 -0.03364621224676201 0.0 0.014755455242449256 0.0 0.0
0.029208779561100406 -0.026342028887354374 0.0 0.012589962981985336 0.0 0.0
0.02252508776111567 -0.01988448923445363 0.0 0.01044321284627131 0.0 0.0
0.016633306710917617 -0.014227656720057213 0.0 0.008234948565225497 0.0 0.0
0.011578265909082064 -0.009422275942749136 0.0 0.006064109196737555 0.0 0.0
0.007475719245901125 -0.0055978409273540475 0.0 0.004096435840728607 0.0 0.0
0.004468243558239243 -0.002919580620403872 0.0 0.0025972274362243697 0.0 0.0
0.0026116928398608186 -0.0014103489624422982 0.0 0.0017469993136112194 0.0 0.0
0.0016799619418536305 -0.0007625102665672623 0.0 0.0014046867694572918 0.0 0.0
0.0011974270519484742 -0.0004739424327507846 0.0 0.0012503638972983233 0.0 0.0
0.0007183697165970837 -0.00021619189521493443 0.0 0.0012129915798443913 0.0 0.0
0.00030754907658167574 -0.00027176015565882894 0.0 0.001591569335904791 0.0 0.0
0.0031963036411400136 -0.004696345791953426 0.0 0.0050924032351115645 0.0 0.0
0.002363598811816442 -0.0037354779438570074 0.0 -0.004111728319212193 0.0 0.0
0.00021316086266646994 -0.00023832170139065356 0.0 -0.0019302042416881326 0.0 0.0
0.0005221579901511786 -0.00015398834067270606 0.0 -0.0015630709655899133 0.0 0.0
0.0009433942279778451 -0.00035828613319821567 0.0 -0.0015376581389939525 0.0 0.0
0.0013652540069042651 -0.0005975257403365575 0.0 -0.0016703038481946375 0.0 0.0
0.002048631790339678 -0.0010351773870063141 0.0 -0.0019767339685266005 0.0 0.0
0.0034546743275156028 -0.0020923576471558736 0.0 -0.0027430014145323756 0.0 0.0
0.005844568113217333 -0.004132276181764816 0.0 -0.004169786877026294 0.0 0.0
0.009228852021628597 -0.0072193871527408415 0.0 -0.0061848616743113705 0.0 0.0
0.013426373281348783 -0.011173861558793297 0.0 -0.008472553454409115 0.0 0.0
0.018286660598308024 -0.015818175670263557 0.0 -0.010772172322845941 0.0 0.0
0.02376132609423201 -0.02108919124269537 0.0 -0.013005698782761144 0.0 0.0
0.029899415993000084 -0.027030257174498473 0.0 -0.015252425064241848 0.0 0.0
0.03679601795444476 -0.03373223550811444 0.0 -0.01758289432835941 0.0 0.0
0.04449298644588562 -0.04123292669806977 0.0 -0.01993038160809113 0.0 0.0
0.05289174429310228 -0.049434805110160074 0.0 -0.022006560104454453 0.0 0.0
0.06173373687172473 -0.05807977470250236 0.0 -0.023301101272126368 0.0 0.0
0.07059314467650789 -0.06673255662851885 0.0 -0.023003393857532084 0.0 0.0
0.07873037337800652 -0.07465164896265897 0.0 -0.019689509102612246 0.0 0.0
0.08499928145217849 -0.08072746652548446 0.0 -0.01168862715644925 0.0 0.0
0.08499928145217106 -0.0807274665254778 0.0 0.01168862715649055 0.0 0.0
0.07873037337798827 -0.07465164896263676 0.0 0.019689509102666647 0.0 0.0
0.07059314467648223 -0.06673255662848954 0.0 0.023003393857574106 0.0 0.0
0.06173373687169309 -0.058079774702471276 0.0 0.023301101272143354 0.0 0.0
0.05289174429306723 -0.04943480511012677 0.0 0.022006560104448902 0.0 0.0
0.044492986445849536 -0.04123292669803513 0.0 0.019930381608082137 0.0 0.0
0.036796017954409455 -0.03373223550807802 0.0 0.01758289432835225 0.0 0.0
0.029899415992966055 -0.027030257174462946 0.0 0.01525242506423441 0.0 0.0
0.02376132609419962 -0.021089191242664285 0.0 0.013005698782744268 0.0 0.0
0.01828666059827805 -0.015818175670237578 0.0 0.010772172322828955 0.0 0.0
0.013426373281322845 -0.011173861558769538 0.0 0.008472553454388798 0.0 0.0
0.009228852021608475 -0.007219387152723078 0.0 0.006184861674298714 0.0 0.0
0.005844568113202858 -0.004132276181752381 0.0 0.0041697868770158575 0.0 0.0
0.003454674327507651 -0.002092357647146992 0.0 0.0027430014145267134 0.0 0.0
0.002048631790336014 -0.0010351773870037606 0.0 0.0019767339685231866 0.0 0.0
0.0013652540069035712 -0.0005975257403360024 0.0 0.0016703038481926114 0.0 0.0
0.0009433942279772067 -0.00035828613319666136 0.0 0.0015376581389923427 0.0 0.0
0.0005221579901511231 -0.00015398834067215095 0.0 0.0015630709655883313 0.0 0.0
0.00021316086266645606 -0.0002383217013900707 0.0 0.0019302042416856624 0.0 0.0
0.002363598811809836 -0.0037354779438489687 0.0 0.0041117283192016185 0.0 0.0
0.0017098038196385612 -0.0029281023614436685 0.0 -0.0033056205943510775 0.0 0.0
0.00014554147713560783 -0.00021614691133875485 0.0 -0.00216655929109949 0.0 0.0
0.00034987279852027875 -0.00010137112679842186 0.0 -0.0018486735253517295 0.0 0.0
0.000692873218994236 -0.0002459045529240589 0.0 -0.0018002915792671992 0.0 0.0
0.001057271012720462 -0.00045030849711291676 0.0 -0.0019298111536275586 0.0 0.0
0.001549940345048087 -0.0007374089653979787 0.0 -0.002181299658861713 0.0 0.0
0.0025387118877293058 -0.0014068018839370477 0.0 -0.0028107537194852483 0.0 0.0
0.004314675741904292 -0.0028190610891098977 0.0 -0.004056711267046154 0.0 0.0
0.006932477094257844 -0.005118539344032724 0.0 -0.005896927042401967 0.0 0.0
0.010250717628607228 -0.00818460904604934 0.0 -0.008111332177488939 0.0 0.0
0.014077404660069404 -0.011810330272201686 0.0 -0.010394663406234073 0.0 0.0
0.01835078366114809 -0.015899971807907143 0.0 -0.01258972914715717 0.0 0.0
0.023110235534140225 -0.020488161928135185 0.0 -0.014773954179675808 0.0 0.0
0.028459462756397658 -0.025672818870281056 0.0 -0.017032853317437258 0.0 0.0
0.034476284341284066 -0.031528103493478454 0.0 -0.01930672402419309 0.0 0.0
0.0411407885290065 -0.03802519693277473 0.0 -0.02133326691978993 0.0 0.0
0.04829498437784027 -0.04502215946525778 0.0 -0.02270262039773091 0.0 0.0
0.05574530057445083 -0.052319971437464474 0.0 -0.02274887427181216 0.0 0.0
0.06312597825815251 -0.059521046462554406 0.0 -0.020048784707681122 0.0 0.0
0.06952236316378514 -0.06571557473433876 0.0 -0.012510912871625313 0.0 0.0
0.06952236316377891 -0.06571557473433476 0.0 0.012510912871664837 0.0 0.0
0.06312597825813784 -0.059521046462545524 0.0 0.020048784707735745 0.0 0.0
0.05574530057443011 -0.05231997143744804 0.0 0.02274887427185268 0.0 0.0
0.04829498437781474 -0.045022159465237355 0.0 0.022702620397746842 0.0 0.0
0.04114078852897812 -0.038025196932750305 0.0 0.021333266919782434 0.0 0.0
0.034476284341255825 -0.03152810349345181 0.0 0.019306724024181765 0.0 0.0
0.02845946275637065 -0.025672818870253078 0.0 0.017032853317430097 0.0 0.0
0.023110235534114315 -0.020488161928114312 0.0 0.014773954179667537 0.0 0.0
0.018350783661123443 -0.015899971807884494 0.0 0.012589729147143958 0.0 0.0
0.014077404660045839 -0.011810330272179259 0.0 0.010394663406217086 0.0 0.0
0.010250717628587175 -0.008184609046030467 0.0 0.008111332177467845 0.0 0.0
0.006932477094242773 -0.0051185393440189575 0.0 0.0058969270423913644 0.0 0.0
0.004314675741893842 -0.002819061089101904 0.0 0.0040567112670379935 0.0 0.0
0.0025387118877240045 -0.001406801883932829 0.0 0.0028107537194808074 0.0 0.0
0.0015499403450457694 -0.0007374089653970906 0.0 0.002181299658859631 0.0 0.0
0.0010572710127198792 -0.00045030849711147347 0.0 0.0019298111536264484 0.0 0.0
0.0006928732189938891 -0.00024590455292328173 0.0 0.0018002915792653118 0.0 0.0
0.00034987279852022324 -0.0001013711267980888 0.0 0.001848673525349731 0.0 0.0
0.00014554147713527477 -0.00021614691133856057 0.0 0.0021665592910978804 0.0 0.0
0.0017098038196336762 -0.002928102361437512 0.0 0.003305620594344527 0.0 0.0
0.0012073265714908632 -0.002266817120814696 0.0 -0.0026802164034060993 0.0 0.0
8.220297343616845e-05 -0.00019735249510016706 0.0 -0.002304424803944355 0.0 0.0
0.0001912905298808859 -5.0419594478601226e-05 0.0 -0.0020696578115396713 0.0 0.0
0.00044863827151543634 -0.0001363420205423571 0.0 -0.0020200137692895914 0.0 0.0
0.0007425825871267 -0.00030493744905113473 0.0 -0.002157951199076913 0.0 0.0
0.0010976980815497056 -0.0005022076471643544 0.0 -0.0023999120412435404 0.0 0.0
0.0017260007962306562 -0.0008731091277225378 0.0 -0.002862307842666001 0.0 0.0
0.002912204024625817 -0.0017053186594779834 0.0 -0.003803919544862755 0.0 0.0
0.004747313561328709 -0.003203157590502048 0.0 -0.0052987668830362655 0.0 0.0
0.007142175382225641 -0.005328483441827236 0.0 -0.007195867037525616 0.0 0.0
0.00992083603709619 -0.007905610892666726 0.0 -0.00925881153016439 0.0 0.0
0.012996021372578423 -0.01081415578918854 0.0 -0.01128742952169387 0.0 0.0
0.016392440396655855 -0.014061163485188377 0.0 -0.013297935150856144 0.0 0.0
0.020204570589476778 -0.01773772223923631 0.0 -0.015339619069650812 0.0 0.0
0.02453627187735828 -0.021940993533803965 0.0 -0.017396957787232492 0.0 0.0
0.029438167737494247 -0.026711228035233514 0.0 -0.01926771772079916 0.0 0.0
0.034859065606731604 -0.032000293036128724 0.0 -0.020553319183316543 0.0 0.0
0.040758975786346144 -0.03780310118498997 0.0 -0.020883278135799932 0.0 0.0
0.04719738714274907 -0.04413093697608783 0.0 -0.01923448763231006 0.0 0.0
0.05371462412257165 -0.05043837227273684 0.0 -0.013070092961487423 0.0 0.0
0.0537146241225675 -0.050438372272730625 0.0 0.013070092961522173 0.0 0.0
0.04719738714273844 -0.04413093697607273 0.0 0.019234487632360464 0.0 0.0
0.04075897578633014 -0.03780310118497221 0.0 0.020883278135836014 0.0 0.0
0.03485906560671226 -0.03200029303610963 0.0 0.020553319183328256 0.0 0.0
0.029438167737473597 -0.026711228035214862 0.0 0.01926771772079172 0.0 0.0
0.024536271877337507 -0.021940993533787978 0.0 0.017396957787221834 0.0 0.0
0.02020457058945846 -0.017737722239222098 0.0 0.01533961906964254 0.0 0.0
0.01639244039663823 -0.01406116348517017 0.0 0.013297935150849538 0.0 0.0
0.012996021372561783 -0.010814155789169444 0.0 0.011287429521681935 0.0 0.0
0.009920836037078828 -0.007905610892649184 0.0 0.009258811530147792 0.0 0.0
0.007142175382212235 -0.0053284834418125815 0.0 0.007195867037509518 0.0 0.0
0.004747313561318217 -0.003203157590495165 0.0 0.005298766883025718 0.0 0.0
0.002912204024618975 -0.0017053186594746528 0.0 0.003803919544855816 0.0 0.0
0.0017260007962275614 -0.0008731091277200953 0.0 0.0028623078426607274 0.0 0.0
0.0010976980815483872 -0.0005022076471643544 0.0 0.0023999120412400987 0.0 0.0
0.0007425825871260339 -0.0003049374490509127 0.0 0.0021579511990749145 0.0 0.0
0.0004486382715152559 -0.0001363420205423571 0.0 0.0020200137692873155 0.0 0.0
0.00019129052988081652 -5.041959447821265e-05 0.0 0.0020696578115372843 0.0 0.0
8.220297343553007e-05 -0.0001973524950998895 0.0 0.002304424803941607 0.0 0.0
0.001207326571487477 -0.0022668171208106366 0.0 0.002680216403400021 0.0 0.0
0.0008423916679831389 -0.001758516893335893 0.0 -0.002242322823183873 0.0 0.0
1.0795005613212227e-05 -0.00018033040280546198 0.0 -0.0023793048087740465 0.0 0.0
4.042742284425527e-05 4.397744708617424e-06 0.0 -0.0022278108068925495 0.0 0.0
0.00021194076890121427 -3.129354327546796e-05 0.0 -0.0021897717060388178 0.0 0.0
0.00042012938609958805 -0.0001532701565691852 0.0 -0.002326706793640221 0.0 0.0
0.0006555876851276343 -0.0002916998164792517 0.0 -0.00260134551881655 0.0 0.0
0.0010094579779868634 -0.00047820453824964915 0.0 -0.0029673879508508305 0.0 0.0
0.0016568583997775832 -0.0008464379659474108 0.0 -0.0035401818766742643 0.0 0.0
0.002721751966408406 -0.0015785406281412229 0.0 -0.0044990584599690076 0.0 0.0
0.004159602126556319 -0.0027315938071352797 0.0 -0.0058362359015988186 0.0 0.0
0.00585732035811605 -0.004213013878710203 0.0 -0.007426328774032154 0.0 0.0
0.007717927451765846 -0.005915136548627409 0.0 -0.009096524335261091 0.0 0.0
0.009760918025615642 -0.007822834983559623 0.0 -0.01082023225079115 0.0 0.0
0.012054249511352325 -0.010003387878664949 0.0 -0.012556614397320476 0.0 0.0
0.014696023341383743 -0.012549373180869239 0.0 -0.014294657899653396 0.0 0.0
0.017801742029202372 -0.01556220826198551 0.0 -0.015936498140182276 0.0 0.0
0.02145478688099159 -0.019108658618453678 0.0 -0.01715316405601519 0.0 0.0
0.025715221819475276 -0.023279449884025194 0.0 -0.017552090672625364 0.0 0.0
0.030865428950083373 -0.0284305380996126 0.0 -0.01692907374551278 0.0 0.0
0.03731323935480352 -0.03469679282171567 0.0 -0.01316232020289898 0.0 0.0
0.03731323935480149 -0.034696792821713895 0.0 0.013162320202927513 0.0 0.0
0.03086542895007713 -0.028430538099604163 0.0 0.01692907374555508 0.0 0.0
0.025715221819464174 -0.023279449884016312 0.0 0.017552090672655507 0.0 0.0
0.021454786880978877 -0.019108658618448793 0.0 0.01715316405602363 0.0 0.0
0.017801742029190076 -0.015562208261977517 0.0 0.015936498140170174 0.0 0.0
0.014696023341371184 -0.01254937318085858 0.0 0.014294657899643237 0.0 0.0
0.012054249511342624 -0.010003387878655623 0.0 0.012556614397318033 0.0 0.0
0.00976091802560633 -0.007822834983552074 0.0 0.010820232250788542 0.0 0.0
0.007717927451756784 -0.005915136548622968 0.0 0.009096524335252099 0.0 0.0
0.005857320358105739 -0.00421301387870332 0.0 0.007426328774018165 0.0 0.0
0.004159602126549228 -0.002731593807131061 0.0 0.005836235901584552 0.0 0.0
0.002721751966402619 -0.0015785406281381142 0.0 0.0044990584599611805 0.0 0.0
0.001656858399774308 -0.0008464379659429699 0.0 0.003540181876671822 0.0 0.0
0.0010094579779851565 -0.00047820453824809483 0.0 0.002967387950847722 0.0 0.0
0.0006555876851269682 -0.0002916998164792517 0.0 0.0026013455188132195 0.0 0.0
0.00042012938609908845 -0.0001532701565691852 0.0 0.0023267067936369734 0.0 0.0
0.00021194076890129754 -3.1293543275690006e-05 0.0 0.002189771706036514 0.0 0.0
4.042742284418588e-05 4.397744708672935e-06 0.0 0.0022278108068901625 0.0 0.0
1.0795005612712627e-05 -0.00018033040280560075 0.0 0.0023793048087715762 0.0 0.0
0.0008423916679811128 -0.0017585168933330272 0.0 0.0022423228231803205 0.0 0.0
0.0005867070658557155 -0.00137908915322979 0.0 -0.001949290763944761 0.0 0.0
-6.366663219263546e-05 -0.00016566683872670795 0.0 -0.0024210692057522187 0.0 0.0
-0.00010532263392423746 6.285496480096242e-05 0.0 -0.002329295355872979 0.0 0.0
-1.7502070625258215e-05 6.990478642721065e-05 0.0 -0.002302741341428327 0.0 0.0
9.610969170517625e-05 9.33293934357593e-08 0.0 -0.0024283914440361154 0.0 0.0
0.00020398927515438703 -7.762964412560969e-05 0.0 -0.0027214780570053443 0.0 0.0
0.00033237221524584637 -0.00015304664681181634 0.0 -0.003123958806325322 0.0 0.0
0.0005338506010404004 -0.00025470810103889185 0.0 -0.0035311823450110413 0.0 0.0
0.0008774007661178362 -0.0004269945303330136 0.0 -0.003985043648110809 0.0 0.0
0.001354053796691873 -0.0007034265990937261 0.0 -0.004629379071311057 0.0 0.0
0.0019273408200956438 -0.0010828271553275925 0.0 -0.005572778714480808 0.0 0.0
0.0025458898457934726 -0.0015389334674047461 0.0 -0.0067327095647726765 0.0 0.0
0.003219755520070741 -0.002078488976895887 0.0 -0.00807613367235982 0.0 0.0
0.0039847441276071455 -0.00274461493919409 0.0 -0.0095899897596885 0.0 0.0
0.0049242132939384675 -0.0036085905005105445 0.0 -0.011257294076034985 0.0 0.0
0.006203001765026167 -0.004814494256772495 0.0 -0.012957223688534525 0.0 0.0
0.008059978928328895 -0.006576245525802715 0.0 -0.014336012013500654 0.0 0.0
0.010713159740212155 -0.009093190743629798 0.0 -0.014808913320763006 0.0 0.0
0.014361289478932546 -0.012700968875028362 0.0 -0.014228600997225005 0.0 0.0
0.020021836384087777 -0.018425447899857783 0.0 -0.012848141988694661 0.0 0.0
0.020021836384087888 -0.01842544789985734 0.0 0.01284814198871631 0.0 0.0
0.014361289478929812 -0.012700968875030583 0.0 0.014228600997260643 0.0 0.0
0.010713159740206174 -0.009093190743624913 0.0 0.014808913320782935 0.0 0.0
0.008059978928324135 -0.00657624552579783 0.0 0.014336012013500432 0.0 0.0
0.006203001765023114 -0.00481449425676983 0.0 0.0129572236885247 0.0 0.0
0.004924213293935054 -0.0036085905005003305 0.0 0.011257294076028157 0.0 0.0
0.003984744127605577 -0.0027446149391883168 0.0 0.009589989759684392 0.0 0.0
0.003219755520069867 -0.002078488976896331 0.0 0.008076133672355379 0.0 0.0
0.00254588984579171 -0.0015389334673998611 0.0 0.0067327095647631285 0.0 0.0
0.0019273408200935205 -0.001082827155324484 0.0 0.0055727787144692065 0.0 0.0
0.0013540537966908184 -0.0007034265990928379 0.0 0.004629379071303452 0.0 0.0
0.0008774007661165595 -0.00042699453033034906 0.0 0.0039850436481076446 0.0 0.0
0.0005338506010400534 -0.0002547081010355612 0.0 0.0035311823450086544 0.0 0.0
0.0003323722152453745 -0.00015304664681092817 0.0 0.0031239588063213253 0.0 0.0
0.00020398927515419274 -7.762964412549866e-05 0.0 0.0027214780570002928 0.0 0.0
9.6109691705204e-05 9.332939276962549e-08 0.0 0.0024283914440333954 0.0 0.0
-1.7502070625119437e-05 6.99047864264335e-05 0.0 0.002302741341425135 0.0 0.0
-0.00010532263392443175 6.285496480129549e-05 0.0 0.002329295355870009 0.0 0.0
-6.366663219262159e-05 -0.00016566683872679122 0.0 0.0024210692057506367 0.0 0.0
0.000586707065854758 -0.001379089153228463 0.0 0.0019492907639430679 0.0 0.0
0.00040891933374626044 -0.0011017555954482283 0.0 -0.001756546078284571 0.0 0.0
-0.00013291431077305793 -0.00014370417419556913 0.0 -0.002420816004384929 0.0 0.0
-0.0002453322065839314 0.00011982004528976464 0.0 -0.0023802196133674014 0.0 0.0
-0.00023996454295510672 0.00016782240949775318 0.0 -0.0023563030367353133 0.0 0.0
-0.00022448301385896707 0.00015122408744761007 0.0 -0.002462754913006543 0.0 0.0
-0.00025169742447719856 0.00013946213480919845 0.0 -0.0027357525562621 0.0 0.0
-0.00034610071620586047 0.00016883910800302715 0.0 -0.00312856415559587 0.0 0.0
-0.0005362955307270934 0.0002573300918846666 0.0 -0.0035343686541396413 0.0 0.0
-0.0008762573149308506 0.0004266986502843295 0.0 -0.003986177929360679 0.0 0.0
-0.0013523781376449384 0.0007025141478667063 0.0 -0.004627664189277125 0.0 0.0
-0.0019289258836849843 0.001086298095388294 0.0 -0.005569477119675537 0.0 0.0
-0.0025663829350783263 0.00155990806524553 0.0 -0.006733797088431137 0.0 0.0
-0.003276787382499813 0.0021283610301678912 0.0 -0.008081340037968454 0.0 0.0
-0.004057250481548924 0.002790024403735103 0.0 -0.009596024167224715 0.0 0.0
-0.004830806228190487 0.003461810837400936 0.0 -0.011277791113212587 0.0 0.0
-0.005401826254205544 0.003951955623288317 0.0 -0.013088978583568278 0.0 0.0
-0.005421119994813706 0.003942764154301948 0.0 -0.014999162729611881 0.0 0.0
-0.004509383729269845 0.003176398080629639 0.0 -0.01702415131379309 0.0 0.0
-0.0023697817482037087 0.0015468806147720393 0.0 -0.01879809298905799 0.0 0.0
0.002820880040331125 -0.003281133610483433 0.0 -0.017106740208179372 0.0 0.0
0.002820880040331375 -0.003281133610481657 0.0 0.017106740208193583 0.0 0.0
-0.0023697817482041944 0.001546880614775148 0.0 0.018798092989075144 0.0 0.0
-0.004509383729269012 0.0031763980806323033 0.0 0.017024151313798308 0.0 0.0
-0.005421119994808543 0.00394276415429573 0.0 0.014999162729605109 0.0 0.0
-0.005401826254198411 0.003951955623281211 0.0 0.013088978583556954 0.0 0.0
-0.004830806228185283 0.003461810837396939 0.0 0.011277791113204205 0.0 0.0
-0.004057250481542707 0.0027900244037324384 0.0 0.009596024167216666 0.0 0.0
-0.0032767873824921107 0.0021283610301696676 0.0 0.00808134003796196 0.0 0.0
-0.0025663829350715817 0.001559908065240645 0.0 0.0067337970884222 0.0 0.0
-0.001928925883678878 0.0010862980953831869 0.0 0.0055694771196661 0.0 0.0
-0.001352378137639651 0.0007025141478658181 0.0 0.004627664189269243 0.0 0.0
-0.0008762573149280334 0.00042669865028210907 0.0 0.003986177929358237 0.0 0.0
-0.0005362955307251643 0.00025733009188244615 0.0 0.003534368654139197 0.0 0.0
-0.00034610071620480576 0.00016883910800258306 0.0 0.00312856415559154 0.0 0.0
-0.00025169742447676835 0.00013946213480764413 0.0 0.0027357525562581864 0.0 0.0
-0.00022448301385834257 0.0001512240874457227 0.0 0.002462754913005072 0.0 0.0
-0.0002399645429551206 0.00016782240949675398 0.0 0.0023563030367337867 0.0 0.0
-0.0002453322065838759 0.00011982004528959811 0.0 0.0023802196133658193 0.0 0.0
-0.000132914310772822 -0.00014370417419531933 0.0 0.0024208160043837357 0.0 0.0
0.0004089193337457331 -0.0011017555954472083 0.0 0.0017565460782830444 0.0 0.0
0.00028515426836964175 -0.0008776629207684628 0.0 -0.0015864234196740212 0.0 0.0
-0.0001952952548569531 -0.00011348742529382339 0.0 -0.002370124086486819 0.0 0.0
-0.0003778905050042525 0.00017358771260334027 0.0 -0.002378362189764699 0.0 0.0
-0.0004546443211234097 0.0002612504544644567 0.0 -0.002346570335739706 0.0 0.0
-0.0005386801591726609 0.0002976577396428537 0.0 -0.002424138913641183 0.0 0.0
-0.0007003199208192312 0.0003517342803585066 0.0 -0.0026498973600390663 0.0 0.0
-0.0010226470149164169 0.0004939958506278153 0.0 -0.0029867116646343783 0.0 0.0
-0.0016586009288553916 0.0008490526416811139 0.0 -0.0035483741407473235 0.0 0.0
-0.0027195347367406364 0.0015772156706017615 0.0 -0.004499782366427285 0.0 0.0
-0.004157594321068686 0.0027306118633905196 0.0 -0.005833804304233914 0.0 0.0
-0.005860308316705781 0.004218850012600139 0.0 -0.007424779113289592 0.0 0.0
-0.007738478281027222 0.005939778941794316 0.0 -0.009088578621069265 0.0 0.0
-0.009814135241039662 0.007876219291412578 0.0 -0.010789960279336541 0.0 0.0
-0.012119550679283886 0.0100496825694667 0.0 -0.012518592755136004 0.0 0.0
-0.014601508764661625 0.012396618803548698 0.0 -0.01436054990358715 0.0 0.0
-0.017040164807896663 0.014698108018473821 0.0 -0.016414219918286954 0.0 0.0
-0.019022639855237777 0.016559969338528102 0.0 -0.018750304902565795 0.0 0.0
-0.020008038843194964 0.017466231548884714 0.0 -0.0212740513313463 0.0 0.0
-0.0190471845286814 0.016230386810035746 0.0 -0.022358607666117747 0.0 0.0
-0.01356570721299688 0.010541317022545016 0.0 -0.019972632507281984 0.0 0.0
-0.013565707212997213 0.010541317022545904 0.0 0.01997263250730802 0.0 0.0
-0.019047184528679664 0.016230386810036634 0.0 0.022358607666152386 0.0 0.0
-0.020008038843186735 0.017466231548876276 0.0 0.02127405133136756 0.0 0.0
-0.019022639855223497 0.016559969338518332 0.0 0.018750304902567017 0.0 0.0
-0.01704016480787987 0.014698108018460498 0.0 0.016414219918275796 0.0 0.0
-0.014601508764647636 0.012396618803536263 0.0 0.014360549903575437 0.0 0.0
-0.012119550679269939 0.01004968256945471 0.0 0.012518592755127678 0.0 0.0
-0.009814135241023744 0.007876219291400144 0.0 0.01078996027932766 0.0 0.0
-0.007738478281011901 0.005939778941780549 0.0 0.009088578621054944 0.0 0.0
-0.0058603083166918896 0.004218850012589037 0.0 0.007424779113274271 0.0 0.0
-0.0041575943210569455 0.0027306118633789733 0.0 0.005833804304219592 0.0 0.0
-0.0027195347367329065 0.00157721567059399 0.0 0.004499782366419791 0.0 0.0
-0.0016586009288512282 0.0008490526416784494 0.0 0.0035483741407442704 0.0 0.0
-0.00102264701491378 0.000493995850626705 0.0 0.0029867116646298264 0.0 0.0
-0.0007003199208180377 0.00035173428035772947 0.0 0.0026498973600348474 0.0 0.0
-0.0005386801591716617 0.00029765773964218756 0.0 0.0024241389136382685 0.0 0.0
-0.0004546443211230905 0.00026125045446601103 0.0 0.002346570335738124 0.0 0.0
-0.0003778905050038778 0.00017358771260334027 0.0 0.0023783621897641716 0.0 0.0
-0.00019529525485678656 -0.00011348742529432299 0.0 0.0023701240864864304 0.0 0.0
0.00028515426836914215 -0.0008776629207678504 0.0 0.001586423419672356 0.0 0.0
0.00019083296652572246 -0.0006782077801025799 0.0 -0.001405059095463762 0.0 0.0
-0.00025198807244439236 -7.655340787859899e-05 0.0 -0.0022663482475211993 0.0 0.0
-0.0005022359792213049 0.00022409308497428615 0.0 -0.002320035216701488 0.0 0.0
-0.0006604729319431291 0.0003493038161458406 0.0 -0.0022754211131213453 0.0 0.0
-0.0008428774522305504 0.00043514162489288744 0.0 -0.0023105316022267453 0.0 0.0
-0.0011376672201756366 0.0005591110906897345 0.0 -0.002474789722879789 0.0 0.0
-0.0017376266815798402 0.0008898781474264705 0.0 -0.0028937966877495835 0.0 0.0
-0.0029111832418643457 0.0017063477251644255 0.0 -0.003814277892647322 0.0 0.0
-0.00474387604857196 0.003200291023695234 0.0 -0.0052954738696952 0.0 0.0
-0.007141278748143826 0.005328257527742242 0.0 -0.007193331063976349 0.0 0.0
-0.009925369184458716 0.007912245494401393 0.0 -0.009257069851888733 0.0 0.0
-0.01301222088685089 0.010834169730071785 0.0 -0.011266067492264331 0.0 0.0
-0.016430679893742056 0.0141011339291377 0.0 -0.013215885314929343 0.0 0.0
-0.020250380736624274 0.01777021157393177 0.0 -0.015200234974469984 0.0 0.0
-0.024452074930941536 0.021809226534467818 0.0 -0.017415065390927742 0.0 0.0
-0.02880080368922555 0.025984099950845607 0.0 -0.02012958848582136 0.0 0.0
-0.032790355937566434 0.029803079917185116 0.0 -0.02353270040894373 0.0 0.0
-0.035537961534130025 0.0323305393026434 0.0 -0.026998575961114213 0.0 0.0
-0.03534550571960832 0.031859783087676785 0.0 -0.028766625036638183 0.0 0.0
-0.029053790895155196 0.02494041707037109 0.0 -0.02521795732721155 0.0 0.0
-0.029053790895154544 0.024940417070371534 0.0 0.0252179573272453 0.0 0.0
-0.0353455057196031 0.0318597830876719 0.0 0.028766625036683424 0.0 0.0
-0.035537961534116314 0.032330539302627415 0.0 0.026998575961143967 0.0 0.0
-0.03279035593754481 0.029803079917165576 0.0 0.02353270040894817 0.0 0.0
-0.028800803689200308 0.025984099950821182 0.0 0.0201295884858117 0.0 0.0
-0.0244520749309189 0.021809226534444726 0.0 0.017415065390913587 0.0 0.0
-0.020250380736602028 0.017770211573906014 0.0 0.015200234974458826 0.0 0.0
-0.016430679893718728 0.014101133929113718 0.0 0.013215885314918074 0.0 0.0
-0.013012220886827436 0.010834169730051357 0.0 0.011266067492246845 0.0 0.0
-0.009925369184437122 0.00791224549438363 0.0 0.009257069851869026 0.0 0.0
-0.007141278748125646 0.005328257527729807 0.0 0.00719333106395742 0.0 0.0
-0.0047438760485590675 0.0032002910236861304 0.0 0.0052954738696842085 0.0 0.0
-0.0029111832418567407 0.00170634772515732 0.0 0.0038142778926419374 0.0 0.0
-0.0017376266815755104 0.000889878147423584 0.0 0.0028937966877468635 0.0 0.0
-0.0011376672201736243 0.0005591110906900676 0.0 0.0024747897228767357 0.0 0.0
-0.0008428774522295512 0.00043514162489244335 0.0 0.0023105316022257183 0.0 0.0
-0.0006604729319421992 0.0003493038161448414 0.0 0.0022754211131196245 0.0 0.0
-0.0005022359792208886 0.00022409308497362002 0.0 0.002320035216699101 0.0 0.0
-0.0002519880724441148 -7.655340787832143e-05 0.0 0.002266348247518868 0.0 0.0
0.00019083296652554205 -0.0006782077801017732 0.0 0.0014050590954615416 0.0 0.0
0.00011065977300661611 -0.0004993634502600819 0.0 -0.0012186869970592096 0.0 0.0
-0.0003054624590565491 -3.305814073434332e-05 0.0 -0.002108984938339803 0.0 0.0
-0.0006188065656683173 0.000271840232906162 0.0 -0.0022073170980190238 0.0 0.0
-0.0008571846756435797 0.00043049553537433116 0.0 -0.002148022640698244 0.0 0.0
-0.0011317384310342848 0.0005619678576621601 0.0 -0.0021270101472748715 0.0 0.0
-0.0015845073315505775 0.0007915477542326244 0.0 -0.0022821528945810854 0.0 0.0
-0.0025453587616482976 0.0014218044824263476 0.0 -0.0028495755302549997 0.0 0.0
-0.004310165134759625 0.0028162023543727432 0.0 -0.004059133198514531 0.0 0.0
-0.0069292387360231356 0.005115185498838493 0.0 -0.0058907782892436145 0.0 0.0
-0.01025192272956274 0.008186216844243921 0.0 -0.008109838959921067 0.0 0.0
-0.014082687691635648 0.011816911066063529 0.0 -0.010392930591518412 0.0 0.0
-0.018358518918761835 0.01591008417693729 0.0 -0.012557973762106989 0.0 0.0
-0.02311994189348504 0.02050021213365749 0.0 -0.014647818563854775 0.0 0.0
-0.0284651780314375 0.025673376687678218 0.0 -0.016789745722443183 0.0 0.0
-0.03441034696185949 0.03143413836199738 0.0 -0.019236602757650045 0.0 0.0
-0.04072743337783444 0.037541605006232714 0.0 -0.022403608266102104 0.0 0.0
-0.04674056188007522 0.04330988217834486 0.0 -0.02648771818090634 0.0 0.0
-0.0510829805368582 0.04735989512206684 0.0 -0.030761933161860378 0.0 0.0
-0.051388752870833915 0.04725637863933008 0.0 -0.03299947161484329 0.0 0.0
-0.04350699806874292 0.03873395532284363 0.0 -0.029783139104843648 0.0 0.0
-0.04350699806874099 0.038733955322839186 0.0 0.029783139104882228 0.0 0.0
-0.051388752870824395 0.04725637863931764 0.0 0.032999471614890974 0.0 0.0
-0.05108298053683956 0.0473598951220513 0.0 0.030761933161895072 0.0 0.0
-0.04674056188004705 0.04330988217832221 0.0 0.026487718180913333 0.0 0.0
-0.04072743337780181 0.037541605006198076 0.0 0.022403608266094166 0.0 0.0
-0.0344103469618286 0.0314341383619654 0.0 0.0192366027576365 0.0 0.0
-0.028465178031406982 0.025673376687647576 0.0 0.016789745722429306 0.0 0.0
-0.023119941893453885 0.020500212133622853 0.0 0.014647818563845338 0.0 0.0
-0.018358518918730762 0.015910084176905315 0.0 0.01255797376209089 0.0 0.0
-0.014082687691606935 0.011816911066033553 0.0 0.010392930591497207 0.0 0.0
-0.010251922729538288 0.008186216844222383 0.0 0.008109838959899252 0.0 0.0
-0.006929238736005067 0.005115185498823838 0.0 0.005890778289230569 0.0 0.0
-0.00431016513474787 0.0028162023543643055 0.0 0.004059133198505593 0.0 0.0
-0.002545358761641775 0.0014218044824225728 0.0 0.00284957553025017 0.0 0.0
-0.0015845073315475383 0.0007915477542312921 0.0 0.0022821528945771163 0.0 0.0
-0.0011317384310331607 0.0005619678576607168 0.0 0.0021270101472737613 0.0 0.0
-0.000857184675642525 0.00043049553537333196 0.0 0.0021480226406964953 0.0 0.0
-0.0006188065656680536 0.0002718402329057179 0.0 0.002207317098017414 0.0 0.0
-0.0003054624590561189 -3.3058140734509855e-05 0.0 0.0021089849383377213 0.0 0.0
0.00011065977300660224 -0.0004993634502593759 0.0 0.0012186869970566838 0.0 0.0
4.030756606393515e-05 -0.0003412967765401842 0.0 -0.0010281657646188103 0.0 0.0
-0.00035788315744988974 1.5560079907217528e-05 0.0 -0.0019026339219858912 0.0 0.0
-0.0007286139292933536 0.0003176474600621315 0.0 -0.002038023349372614 0.0 0.0
-0.0010430887381360776 0.0005029168722199273 0.0 -0.0019563404953074903 0.0 0.0
-0.001408808740497619 0.0006846715717998553 0.0 -0.0018921561154254807 0.0 0.0
-0.0020743751578397585 0.0010800722072845659 0.0 -0.0020782656997882787 0.0 0.0
-0.003454720876434475 0.0021009089592334274 0.0 -0.0027706035391091843 0.0 0.0
-0.005838573250911361 0.00412664417648978 0.0 -0.004165889081528096 0.0 0.0
-0.00922732720698563 0.007217296608183599 0.0 -0.006177223409952637 0.0 0.0
-0.013429745874542959 0.011177393787835666 0.0 -0.008471278979380326 0.0 0.0
-0.018291600326423352 0.01582350438139768 0.0 -0.010768192187787018 0.0 0.0
-0.023757505102173643 0.021085883620705292 0.0 -0.01296644701558447 0.0 0.0
-0.0298710731124171 0.027004345402115604 0.0 -0.0151036082007322 0.0 0.0
-0.03674399628756056 0.03368519508265555 0.0 -0.017279761067679922 0.0 0.0
-0.044439591428781844 0.041174500291662586 0.0 -0.01975792581677882 0.0 0.0
-0.052726509925836273 0.049212819707764144 0.0 -0.022978194699189936 0.0 0.0
-0.0607248167626292 0.05690004956631123 0.0 -0.027221561702095554 0.0 0.0
-0.06656701337832674 0.062355643086760004 0.0 -0.031905337831320546 0.0 0.0
-0.06710090910508296 0.062403794762699416 0.0 -0.03495760820645 0.0 0.0
-0.05753999899138426 0.052254185837613765 0.0 -0.03392226823049904 0.0 0.0
-0.05753999899138054 0.052254185837608436 0.0 0.03392226823053823 0.0 0.0
-0.06710090910506944 0.06240379476268698 0.0 0.03495760820649885 0.0 0.0
-0.06656701337830258 0.062355643086738244 0.0 0.031905337831356906 0.0 0.0
-0.06072481676259524 0.05690004956627481 0.0 0.027221561702102937 0.0 0.0
-0.05272650992579729 0.049212819707724176 0.0 0.022978194699181498 0.0 0.0
-0.04443959142874242 0.04117450029162262 0.0 0.019757925816767996 0.0 0.0
-0.036743996287522035 0.03368519508261736 0.0 0.017279761067669264 0.0 0.0
-0.02987107311237784 0.027004345402079633 0.0 0.015103608200721208 0.0 0.0
-0.023757505102135007 0.0210858836206671 0.0 0.012966447015566873 0.0 0.0
-0.018291600326387478 0.015823504381365705 0.0 0.010768192187765924 0.0 0.0
-0.013429745874512788 0.0111773937878068 0.0 0.008471278979358954 0.0 0.0
-0.00922732720696215 0.007217296608160506 0.0 0.0061772234099385925 0.0 0.0
-0.005838573250895429 0.004126644176474015 0.0 0.004165889081518714 0.0 0.0
-0.0034547208764254544 0.0021009089592261 0.0 0.0027706035391033557 0.0 0.0
-0.002074375157835401 0.0010800722072814573 0.0 0.0020782656997849203 0.0 0.0
-0.0014088087404961203 0.0006846715718006324 0.0 0.001892156115424537 0.0 0.0
-0.0010430887381351894 0.0005029168722188171 0.0 0.001956340495306269 0.0 0.0
-0.000728613929292854 0.0003176474600615209 0.0 0.002038023349370699 0.0 0.0
-0.0003578831574494318 1.5560079907689373e-05 0.0 0.0019026339219838095 0.0 0.0
4.030756606393515e-05 -0.00034129677653987195 0.0 0.0010281657646175613 0.0 0.0
-2.0504550303057645e-05 -0.00020565401938504868 0.0 -0.0008322542768275931 0.0 0.0
-0.00040929618041374294 6.721790042429898e-05 0.0 -0.0016529835409676008 0.0 0.0
-0.0008324544275172541 0.0003613278913325857 0.0 -0.0018132221047882924 0.0 0.0
-0.0012181847350971053 0.0005684574886789528 0.0 -0.0017137382064547901 0.0 0.0
-0.0016902121406049408 0.0008229385385141175 0.0 -0.001636630768973496 0.0 0.0
-0.0026224431239145474 0.0014425160783608781 0.0 -0.0018494774984802453 0.0 0.0
-0.004464265116733174 0.0029217941702499584 0.0 -0.0026150457307149155 0.0 0.0
-0.007471132607621361 0.0055925238362524166 0.0 -0.004085972915771396 0.0 0.0
-0.01157929841744515 0.009422605273141427 0.0 -0.006057275006138063 0.0 0.0
-0.01663819446036849 0.014232512729459579 0.0 -0.008234156389701597 0.0 0.0
-0.022528018484856138 0.01988699631673363 0.0 -0.010435917428948005 0.0 0.0
-0.029191502918053364 0.026323760140527508 0.0 -0.012545559570035336 0.0 0.0
-0.03666944728335175 0.03358130937917814 0.0 -0.014612416027391939 0.0 0.0
-0.0450723262094575 0.041769409740541885 0.0 -0.016733777459796095 0.0 0.0
-0.054478907215004424 0.05094971227954481 0.0 -0.019027373043870366 0.0 0.0
-0.0646672345780637 0.060854794063248896 0.0 -0.021850471480653333 0.0 0.0
-0.07459135478011439 0.07040348189170409 0.0 -0.025730531753475838 0.0 0.0
-0.08187673974138751 0.07721652091442088 0.0 -0.030565724386715565 0.0 0.0
-0.08264598620394165 0.07745256771173992 0.0 -0.03509500069353566 0.0 0.0
-0.07161960284016008 0.0658694479040447 0.0 -0.03789788169768704 0.0 0.0
-0.07161960284015424 0.06586944790403804 0.0 0.03789788169772518 0.0 0.0
-0.08264598620392412 0.07745256771172127 0.0 0.03509500069358357 0.0 0.0
-0.08187673974135777 0.07721652091439468 0.0 0.030565724386751814 0.0 0.0
-0.07459135478007489 0.070403481891669 0.0 0.025730531753484387 0.0 0.0
-0.06466723457801854 0.06085479406320937 0.0 0.021850471480650835 0.0 0.0
-0.054478907214956754 0.050949712279503956 0.0 0.019027373043861817 0.0 0.0
-0.04507232620941089 0.04176940974049792 0.0 0.016733777459785715 0.0 0.0
-0.03666944728330529 0.033581309379133284 0.0 0.014612416027380781 0.0 0.0
-0.02919150291800704 0.02632376014048532 0.0 0.012545559570021403 0.0 0.0
-0.022528018484813644 0.019886996316693217 0.0 0.010435917428926855 0.0 0.0
-0.01663819446033262 0.014232512729424718 0.0 0.008234156389680586 0.0 0.0
-0.011579298417416853 0.009422605273116336 0.0 0.006057275006124241 0.0 0.0
-0.007471132607601204 0.005592523836234209 0.0 0.004085972915761321 0.0 0.0
-0.004464265116721489 0.002921794170238856 0.0 0.002615045730708726 0.0 0.0
-0.0026224431239086285 0.0014425160783537727 0.0 0.0018494774984766649 0.0 0.0
-0.0016902121406028245 0.000822938538511786 0.0 0.0016366307689721082 0.0 0.0
-0.0012181847350963351 0.000568457488679619 0.0 0.0017137382064539575 0.0 0.0
-0.0008324544275166365 0.00036132789133336285 0.0 0.0018132221047865438 0.0 0.0
-0.00040929618041328497 6.72179004241602e-05 0.0 0.0016529835409654914 0.0 0.0
-2.0504550302731517e-05 -0.00020565401938465837 0.0 0.0008322542768268992 0.0 0.0
-6.996463853178869e-05 -9.483733239973313e-05 0.0 -0.0006300950120633475 0.0 0.0
-0.00045757225880455055 0.0001190412274013064 0.0 -0.0013647750027741268 0.0 0.0
-0.0009308497052671894 0.0004026792206951457 0.0 -0.0015333015209349488 0.0 0.0
-0.001386585177484273 0.0006299969833630792 0.0 -0.0014223645621541936 0.0 0.0
-0.0019928558433970067 0.0009841198417361863 0.0 -0.001342551857214186 0.0 0.0
-0.0032383274717887323 0.0018962599170029293 0.0 -0.0015832314638099532 0.0 0.0
-0.005570727530226721 0.003877803730234053 0.0 -0.0023826039991798886 0.0 0.0
-0.009153882333787028 0.007152262976348744 0.0 -0.0037480479745239936 0.0 0.0
-0.013947483049183862 0.011671385084627506 0.0 -0.005486202298969511 0.0 0.0
-0.019857689208068185 0.01732000494086061 0.0 -0.007438442734237105 0.0 0.0
-0.02677174007162819 0.023979033216979584 0.0 -0.009413214246341894 0.0 0.0
-0.03464071228193141 0.03159648590201769 0.0 -0.01131225565471694 0.0 0.0
-0.04349906628670838 0.040208176711313826 0.0 -0.013201542812302791 0.0 0.0
-0.05343156448666414 0.049896509525117594 0.0 -0.015134974942154433 0.0 0.0
-0.06448106142344057 0.06069673906263162 0.0 -0.017103271137505316 0.0 0.0
-0.07642266544140958 0.07233738881265372 0.0 -0.019208825989831202 0.0 0.0
-0.08816038490792391 0.0836478508971461 0.0 -0.022094395125314192 0.0 0.0
-0.09694585067133873 0.09188647029797226 0.0 -0.026745963274899864 0.0 0.0
-0.09824248793702628 0.09259118149028644 0.0 -0.033445018768948676 0.0 0.0
-0.08611864987643075 0.07991120048895439 0.0 -0.041694798266602495 0.0 0.0
-0.08611864987642394 0.07991120048894729 0.0 0.04169479826663952 0.0 0.0
-0.09824248793700448 0.09259118149026735 0.0 0.03344501876899231 0.0 0.0
-0.09694585067130344 0.09188647029793451 0.0 0.026745963274932227 0.0 0.0
-0.0881603849078784 0.0836478508971008 0.0 0.02209439512532091 0.0 0.0
-0.07642266544135762 0.07233738881259999 0.0 0.01920882598982887 0.0 0.0
-0.06448106142338558 0.060696739062571226 0.0 0.017103271137498377 0.0 0.0
-0.05343156448660922 0.04989650952506386 0.0 0.015134974942146051 0.0 0.0
-0.04349906628665435 0.040208176711262755 0.0 0.01320154281229105 0.0 0.0
-0.03464071228187778 0.031596485901968396 0.0 0.01131225565470606 0.0 0.0
-0.0267717400715793 0.023979033216929624 0.0 0.009413214246323132 0.0 0.0
-0.019857689208026733 0.01732000494081376 0.0 0.007438442734219314 0.0 0.0
-0.013947483049151187 0.011671385084594421 0.0 0.0054862022989566606 0.0 0.0
-0.009153882333762707 0.007152262976325874 0.0 0.003748047974513863 0.0 0.0
-0.005570727530211893 0.003877803730219398 0.0 0.0023826039991730608 0.0 0.0
-0.003238327471781016 0.0018962599169950467 0.0 0.0015832314638068168 0.0 0.0
-0.001992855843394113 0.000984119841734965 0.0 0.0013425518572131867 0.0 0.0
-0.0013865851774833848 0.0006299969833639674 0.0 0.0014223645621536662 0.0 0.0
-0.0009308497052665302 0.00040267922069520123 0.0 0.0015333015209339773 0.0 0.0
-0.00045757225880401625 0.00011904122740111212 0.0 0.001364775002773877 0.0 0.0
-6.99646385315944e-05 -9.483733239973487e-05 0.0 0.0006300950120630144 0.0 0.0
-0.00010435530901847789 -1.19969456039426e-05 0.0 -0.00042332886748952525 0.0 0.0
-0.0004978783191414149 0.0001673523557593204 0.0 -0.0010405987069068146 0.0 0.0
-0.0010243113795747327 0.0004404754716184067 0.0 -0.001196891778134146 0.0 0.0
-0.0015554666576906018 0.0006963154352416234 0.0 -0.001086154625677127 0.0 0.0
-0.0023317255350145394 0.0011889584528396169 0.0 -0.0010148771119356248 0.0 0.0
-0.003936032051221727 0.0024499634557830774 0.0 -0.0012785336785319512 0.0 0.0
-0.0067362113857561134 0.0049219657553702945 0.0 -0.0019764673184390347 0.0 0.0
-0.010848761088821074 0.008749497167105824 0.0 -0.003079794785810941 0.0 0.0
-0.01631548765177751 0.013938802988999521 0.0 -0.004498481500028961 0.0 0.0
-0.02306579344697357 0.020413387473968037 0.0 -0.006098467062274571 0.0 0.0
-0.031003011538424607 0.028074399728541533 0.0 -0.00772252407091617 0.0 0.0
-0.0400844077619128 0.03688024944621082 0.0 -0.009281660082676946 0.0 0.0
-0.0503369283394865 0.04685757464617213 0.0 -0.010842899029558484 0.0 0.0
-0.06180308979256813 0.0580468359545625 0.0 -0.012488972136969867 0.0 0.0
-0.07442777185733454 0.0703893718827211 0.0 -0.014075031813931216 0.0 0.0
-0.087900686994312 0.08354950713706222 0.0 -0.015295822085527377 0.0 0.0
-0.10121444549809905 0.0964420762262801 0.0 -0.01659834665414217 0.0 0.0
-0.11167791832175314 0.10627905403388915 0.0 -0.020417239694261458 0.0 0.0
-0.11407615942523192 0.10799419359959339 0.0 -0.029596931948934757 0.0 0.0
-0.10144948049437916 0.09475280859729063 0.0 -0.0450119851448445 0.0 0.0
-0.10144948049437068 0.09475280859728175 0.0 0.04501198514487281 0.0 0.0
-0.11407615942520628 0.10799419359956586 0.0 0.029596931948972005 0.0 0.0
-0.11167791832171192 0.1062790540338443 0.0 0.02041723969428877 0.0 0.0
-0.10121444549804709 0.09644207622622991 0.0 0.016598346654149942 0.0 0.0
-0.0879006869942527 0.08354950713701381 0.0 0.015295822085526045 0.0 0.0
-0.07442777185727234 0.07038937188266248 0.0 0.014075031813929662 0.0 0.0
-0.06180308979250586 0.05804683595450033 0.0 0.01248897213696426 0.0 0.0
-0.05033692833942426 0.04685757464610729 0.0 0.01084289902954888 0.0 0.0
-0.04008440776185204 0.03688024944615087 0.0 0.009281660082669979 0.0 0.0
-0.0310030115383694 0.028074399728488686 0.0 0.007722524070900599 0.0 0.0
-0.023065793446927232 0.02041338747392274 0.0 0.006098467062260082 0.0 0.0
-0.01631548765174043 0.013938802988963772 0.0 0.004498481500017748 0.0 0.0
-0.010848761088793069 0.008749497167079845 0.0 0.00307979478580217 0.0 0.0
-0.006736211385737906 0.004921965755353197 0.0 0.001976467318431069 0.0 0.0
-0.003936032051211888 0.0024499634557744177 0.0 0.001278533678528676 0.0 0.0
-0.0023317255350105773 0.001188958452835731 0.0 0.0010148771119348476 0.0 0.0
-0.0015554666576896164 0.0006963154352402912 0.0 0.0010861546256767385 0.0 0.0
-0.0010243113795736399 0.0004404754716177961 0.0 0.0011968917781327582 0.0 0.0
-0.0004978783191409951 0.00016735235575840446 0.0 0.0010405987069061484 0.0 0.0
-0.00010435530901838769 -1.199694560393913e-05 0.0 0.0004233288674893865 0.0 0.0
-0.00011718189148932079 3.879506164419788e-05 0.0 -0.00021866480374996278 0.0 0.0
-0.0005214340607799517 0.00020630327378584612 0.0 -0.0006800170181466558 0.0 0.0
-0.0011141271897283367 0.000475104109678548 0.0 -0.0007973790327964747 0.0 0.0
-0.0017371333992344251 0.0007747208465669342 0.0 -0.0007075970933780318 0.0 0.0
-0.002725675132432326 0.0014619599406616723 0.0 -0.0006676392361460726 0.0 0.0
-0.004704103055452324 0.0030969597555603467 0.0 -0.0008810845088818853 0.0 0.0
-0.007920809416891245 0.006015959603373311 0.0 -0.0013735495110772655 0.0 0.0
-0.012543402528239184 0.010361937513714947 0.0 -0.0021215929312422 0.0 0.0
-0.018662181836181874 0.01620106455958048 0.0 -0.0031011241111046917 0.0 0.0
-0.02624128215833152 0.023489029952634688 0.0 -0.004222869617463099 0.0 0.0
-0.03520129930916999 0.03215073901969978 0.0 -0.005360783472857289 0.0 0.0
-0.045502748609131366 0.042151625626925426 0.0 -0.0064541131094764115 0.0 0.0
-0.0571595921845387 0.05350439531598061 0.0 -0.007581279318943257 0.0 0.0
-0.07015327689084844 0.0661864708725659 0.0 -0.008761020351335747 0.0 0.0
-0.08430348320593153 0.08001323833011131 0.0 -0.009826728345014302 0.0 0.0
-0.09912258938374546 0.09449465007654778 0.0 -0.01037448344381553 0.0 0.0
-0.11361202832006378 0.10860153603451783 0.0 -0.010168953057105412 0.0 0.0
-0.12564869946323406 0.12008798080404492 0.0 -0.011541042502424048 0.0 0.0
-0.13027285034691333 0.12375742054890981 0.0 -0.022154098719577076 0.0 0.0
-0.11823241399599824 0.1109612970166296 0.0 -0.04709812461258689 0.0 0.0
-0.11823241399598768 0.11096129701662161 0.0 0.04709812461260671 0.0 0.0
-0.13027285034688374 0.12375742054888406 0.0 0.022154098719604776 0.0 0.0
-0.1256486994631866 0.12008798080399874 0.0 0.011541042502444476 0.0 0.0
-0.11361202832000468 0.10860153603446188 0.0 0.010168953057109242 0.0 0.0
-0.09912258938367853 0.09449465007649005 0.0 0.010374483443813753 0.0 0.0
-0.08430348320586148 0.08001323833004825 0.0 0.00982672834501197 0.0 0.0
-0.07015327689077874 0.06618647087250018 0.0 0.0087610203513305 0.0 0.0
-0.05715959218446859 0.05350439531591755 0.0 0.007581279318937012 0.0 0.0
-0.04550274860906349 0.04215162562686503 0.0 0.006454113109471776 0.0 0.0
-0.03520129930910862 0.032150739019642494 0.0 0.005360783472845826 0.0 0.0
-0.02624128215828011 0.023489029952583396 0.0 0.004222869617453329 0.0 0.0
-0.018662181836140653 0.016201064559540956 0.0 0.0031011241111002508 0.0 0.0
-0.012543402528207726 0.01036193751368586 0.0 0.002121592931236538 0.0 0.0
-0.007920809416869973 0.006015959603354215 0.0 0.001373549511074268 0.0 0.0
-0.0047041030554403895 0.003096959755552353 0.0 0.0008810845088800534 0.0 0.0
-0.0027256751324272292 0.0014619599406581196 0.0 0.0006676392361458783 0.0 0.0
-0.0017371333992331414 0.0007747208465657129 0.0 0.0007075970933794473 0.0 0.0
-0.0011141271897271397 0.00047510410967788186 0.0 0.00079737903279542 0.0 0.0
-0.0005214340607796707 0.00020630327378526325 0.0 0.000680017018146295 0.0 0.0
-0.00011718189148891833 3.879506164434013e-05 0.0 0.00021866480375015707 0.0 0.0
-9.685539483747507e-05 5.174078533753956e-05 0.0 -3.2327674068632906e-05 0.0 0.0
-0.0005133234688173005 0.00022657785057833557 0.0 -0.0002762834135309755 0.0 0.0
-0.0012043025519539452 0.0005084706164929509 0.0 -0.0003205321170324238 0.0 0.0
-0.0019519645741912228 0.00088779263773342 0.0 -0.0002952636718528967 0.0 0.0
-0.003185103776695508 0.0018038272456500914 0.0 -0.00027999722504196134 0.0 0.0
-0.005511197707080334 0.0038013740629199155 0.0 -0.0003638785136361733 0.0 0.0
-0.009113080965821307 0.0071333524468431 0.0 -0.0005680296370058624 0.0 0.0
-0.014218343433839847 0.011969251395653746 0.0 -0.000875468767072396 0.0 0.0
-0.020967323067596744 0.018433844741501115 0.0 -0.001302730037718025 0.0 0.0
-0.02936167026619599 0.026522304026982857 0.0 -0.0018108075461037987 0.0 0.0
-0.039347004659014057 0.03618778256076416 0.0 -0.00233169269361283 0.0 0.0
-0.050881038628772385 0.04739395111922473 0.0 -0.002851764832989545 0.0 0.0
-0.06393434393976097 0.06011427333515407 0.0 -0.0033823341628557158 0.0 0.0
-0.07843200787200347 0.07426672456983896 0.0 -0.0039040831742654936 0.0 0.0
-0.09408393344373917 0.08955381412273056 0.0 -0.004325801022773912 0.0 0.0
-0.110183863302034 0.10527264174660012 0.0 -0.004380849389691299 0.0 0.0
-0.12551589590192433 0.12022385197555563 0.0 -0.0036542414744998863 0.0 0.0
-0.13831940858974276 0.13262878907026598 0.0 -0.0024204298313061923 0.0 0.0
-0.14555193761420182 0.13922070558732047 0.0 -0.007999192288745016 0.0 0.0
-0.1382587598440319 0.12988832937708716 0.0 -0.043400693334913476 0.0 0.0
-0.13825875984401995 0.1298883293770734 0.0 0.04340069333492186 0.0 0.0
-0.14555193761416813 0.13922070558728672 0.0 0.007999192288759449 0.0 0.0
-0.1383194085896886 0.13262878907021536 0.0 0.002420429831313964 0.0 0.0
-0.1255158959018564 0.1202238519754868 0.0 0.0036542414744990537 0.0 0.0
-0.11018386330195926 0.10527264174652418 0.0 0.004380849389690494 0.0 0.0
-0.09408393344366198 0.08955381412264929 0.0 0.004325801022774106 0.0 0.0
-0.07843200787192539 0.07426672456976213 0.0 0.0039040831742634674 0.0 0.0
-0.06393434393968295 0.060114273335077684 0.0 0.003382334162852718 0.0 0.0
-0.05088103862869764 0.047393951119149236 0.0 0.002851764832987269 0.0 0.0
-0.03934700465894626 0.036187782560698434 0.0 0.0023316926936067517 0.0 0.0
-0.029361670266139686 0.02652230402692668 0.0 0.0018108075460971929 0.0 0.0
-0.020967323067551537 0.01843384474145604 0.0 0.0013027300377173312 0.0 0.0
-0.014218343433805276 0.011969251395621328 0.0 0.0008754687670691763 0.0 0.0
-0.009113080965797134 0.0071333524468220055 0.0 0.000568029637004086 0.0 0.0
-0.005511197707066643 0.003801374062907148 0.0 0.00036387851363525736 0.0 0.0
-0.0031851037766891825 0.0018038272456439852 0.0 0.00027999722504176705 0.0 0.0
-0.0019519645741894794 0.0008877926377320877 0.0 0.00029526367185281344 0.0 0.0
-0.0012043025519526684 0.0005084706164912856 0.0 0.00032053211703120255 0.0 0.0
-0.0005133234688167697 0.00022657785057755842 0.0 0.0002762834135312253 0.0 0.0
-9.685539483710124e-05 5.174078533735915e-05 0.0 3.232767406954884e-05 0.0 0.0
SCALARS Statev float 8
LOOKUP_TABLE default
0.0 0.01184338414385152 0.009111929001355967 -0.009494729713184036 0.0003828007118280699 -0.005207605547566644 0.0 0.0
0.0 0.0005420057402502984 0.00036369927435611377 -0.00030006990984758055 -6.362936450853331e-05 0.0003625563768206254 0.0 0.0
0.0 3.342380937738801e-05 -4.754075056001044e-06 3.773145031477424e-06 9.809300245235895e-07 5.62033213615258e-07 0.0 0.0
0.0 0.00019495952578419673 0.0001189808077345351 -9.306323774618407e-05 -2.59175699883511e-05 -1.6389899253143407e-05 0.0 0.0
0.0 0.0011566811939937246 0.000897387894261237 -0.0007325720193087026 -0.00016481587495253437 -9.83733661335078e-05 0.0 0.0
0.0 0.0031623895707864388 0.0028870080917854594 -0.002486923399296966 -0.0004000846924884934 -0.0002368806638863647 0.0 0.0
0.0 0.006917282525203598 0.006207743685301911 -0.005620298963251475 -0.0005874447220504352 -0.00043924603060511714 0.0 0.0
0.0 0.012484614334747672 0.011068534444309074 -0.01034908428519309 -0.000719450159115981 -0.0007322569877405411 0.0 0.0
0.0 0.019986556858797022 0.01757710849651581 -0.016749718150534387 -0.0008273903459814166 -0.001138993250470234 0.0 0.0
0.0 0.029422675740923387 0.02573657876365267 -0.024803216284985843 -0.0009333624786668228 -0.001632718705697458 0.0 0.0
0.0 0.04076710293282651 0.03550622417612484 -0.03446410093035545 -0.0010421232457693773 -0.00215209035476506 0.0 0.0
0.0 0.05369791800763063 0.04685507001062306 -0.04570164069774608 -0.0011534293128769573 -0.0026773870005346524 0.0 0.0
0.0 0.06849006255704361 0.059753909869087796 -0.05848792788773025 -0.0012659819813575018 -0.0032102871779265446 0.0 0.0
0.0 0.08507782529938833 0.07414790452805826 -0.07276673399243122 -0.0013811705356269652 -0.0037497207366340704 0.0 0.0
0.0 0.10316237717568749 0.0898333490815165 -0.08833255682686432 -0.0015007922546521509 -0.004287744644128915 0.0 0.0
0.0 0.12219702260445725 0.1063063768307278 -0.10468216034067954 -0.0016242164900482524 -0.004729167228208834 0.0 0.0
0.0 0.141138553066384 0.12269232056154318 -0.12094464671709 -0.0017476738444531883 -0.004874464748757398 0.0 0.0
0.0 0.158566211945461 0.13777718279484705 -0.13591134589491824 -0.0018658368999287796 -0.0044846444066784915 0.0 0.0
0.0 0.17279419977527335 0.15009886711238685 -0.1481247299275733 -0.0019741371848135056 -0.003658810234104276 0.0 0.0
0.0 0.1813677595700458 0.15766417216942932 -0.15554874033294655 -0.002115431836482758 -0.003650336565267999 0.0 0.0
0.0 0.18136775957003615 0.1576641721694207 -0.15554874033293828 -0.002115431836482373 0.0036503365652730624 0.0 0.0
0.0 0.17279419977523996 0.1500988671123576 -0.1481247299275446 -0.0019741371848129765 0.0036588102341231213 0.0 0.0
0.0 0.15856621194540468 0.13777718279479773 -0.13591134589487042 -0.0018658368999273024 0.004484644406686696 0.0 0.0
0.0 0.14113855306631268 0.12269232056148065 -0.12094464671702919 -0.0017476738444514184 0.004874464748763848 0.0 0.0
0.0 0.12219702260437797 0.10630637683065872 -0.10468216034061151 -0.0016242164900472072 0.004729167228199591 0.0 0.0
0.0 0.10316237717560378 0.08983334908144373 -0.0883325568267922 -0.0015007922546515372 0.0042877446441290535 0.0 0.0
0.0 0.08507782529930805 0.07414790452798836 -0.07276673399236236 -0.0013811705356259782 0.0037497207366322376 0.0 0.0
0.0 0.0684900625569628 0.05975390986901742 -0.058487927887660905 -0.001265981981356531 0.003210287177926348 0.0 0.0
0.0 0.053697918007550687 0.04685507001055353 -0.0457016406976774 -0.0011534293128761157 0.0026773870005292657 0.0 0.0
0.0 0.04076710293275615 0.035506224176063285 -0.03446410093029477 -0.0010421232457685007 0.0021520903547622193 0.0 0.0
0.0 0.02942267574086421 0.025736578763601255 -0.024803216284935096 -0.0009333624786661704 0.0016327187056911355 0.0 0.0
0.0 0.01998655685875267 0.01757710849647664 -0.01674971815049591 -0.0008273903459807364 0.0011389932504684039 0.0 0.0
0.0 0.012484614334714947 0.011068534444279764 -0.010349084285164404 -0.0007194501591153575 0.0007322569877381371 0.0 0.0
0.0 0.006917282525181558 0.006207743685281826 -0.005620298963232204 -0.0005874447220496182 0.0004392460306039563 0.0 0.0
0.0 0.003162389570773556 0.002887008091773311 -0.0024869233992858286 -0.000400084692487482 0.00023688066388529962 0.0 0.0
0.0 0.0011566811939879395 0.000897387894256527 -0.0007325720193047292 -0.0001648158749517979 9.837336613302506e-05 0.0 0.0
0.0 0.00019495952578262987 0.00011898080773405049 -9.306323774579716e-05 -2.591756998825334e-05 1.638989925305228e-05 0.0 0.0
0.0 3.342380937687491e-05 -4.754075055922566e-06 3.7731450314146314e-06 9.80930024507978e-07 -5.620332136057866e-07 0.0 0.0
0.0 0.0005420057402479477 0.00036369927435485653 -0.0003000699098465075 -6.362936450834915e-05 -0.00036255637681888256 0.0 0.0
0.0 0.011843384143834346 0.009111929001344454 -0.009494729713171519 0.0003828007118270596 0.0052076055475399575 0.0 0.0
0.0 0.008645303246047049 0.006235616175483999 -0.0067224621543595115 0.00048684597887551 -0.0059290371405337485 0.0 0.0
0.0 2.064405126288814e-07 8.509273956854511e-08 -7.24177729247294e-08 -1.2674966643816174e-08 5.870499349789628e-08 0.0 0.0
0.0 9.430826945183483e-08 -1.020951514236367e-08 7.758883502814768e-09 2.450631639548195e-09 3.6392644398315674e-09 0.0 0.0
0.0 6.102295498458741e-05 2.6598249191349533e-05 -2.077125980593503e-05 -5.826989385414728e-06 -1.0813192317712948e-05 0.0 0.0
0.0 0.0007398458633685677 0.0005287865648481163 -0.00042658216766866834 -0.00010220439717944772 -0.00014222074589628894 0.0 0.0
0.0 0.002375164081507802 0.0021712389193339838 -0.0018411880929939907 -0.0003300508263399933 -0.0004758784301530771 0.0 0.0
0.0 0.0056838268681719305 0.005099996787660338 -0.004560389477447221 -0.0005396073102131149 -0.0009940484798000014 0.0 0.0
0.0 0.010695524519471547 0.0094729870916051 -0.008785440125266667 -0.0006875469663384316 -0.0017172710099639618 0.0 0.0
0.0 0.017470549588995195 0.01535186155914214 -0.014552292334259614 -0.0007995692248825243 -0.002662597814656268 0.0 0.0
0.0 0.025962359763374916 0.022699411958505868 -0.021796827655112774 -0.0009025843033930905 -0.00376621407147803 0.0 0.0
0.0 0.0360918422093952 0.03144900078880747 -0.030444247612901758 -0.0010047531759057027 -0.004912176651519608 0.0 0.0
0.0 0.04786891991406765 0.041572098724821094 -0.040465083336521074 -0.0011070153883000204 -0.00602992898921302 0.0 0.0
0.0 0.061021677151778704 0.053088778798844376 -0.05187832829023832 -0.0012104505086060209 -0.007179433417312373 0.0 0.0
0.0 0.07582362610651609 0.06597669144843002 -0.06466037375702306 -0.0013163176914069508 -0.008388295733037282 0.0 0.0
0.0 0.09207675240402532 0.080066249654941 -0.07864071858453835 -0.0014255310704026363 -0.009588481924172016 0.0 0.0
0.0 0.10921150671025524 0.09492896513611414 -0.0933913211812538 -0.0015376439548603555 -0.010584912361741803 0.0 0.0
0.0 0.12635952723992325 0.10980367599327902 -0.1081531823047705 -0.0016504936885084914 -0.010971518799873497 0.0 0.0
0.0 0.142260224940498 0.12359131575009423 -0.1218297528388879 -0.0017615629112063165 -0.010334180108896994 0.0 0.0
0.0 0.15516595930514554 0.13479835374082502 -0.13292038866296568 -0.0018779650778593744 -0.008714536409231251 0.0 0.0
0.0 0.16287753668429572 0.14151956468088023 -0.1395538007787862 -0.0019657639020940532 -0.005960964527805078 0.0 0.0
0.0 0.16287753668428398 0.1415195646808699 -0.13955380077877585 -0.0019657639020940927 0.005960964527823347 0.0 0.0
0.0 0.15516595930511498 0.13479835374079785 -0.13292038866293893 -0.0018779650778589635 0.008714536409264608 0.0 0.0
0.0 0.1422602249404461 0.12359131575004871 -0.12182975283884276 -0.0017615629112059023 0.01033418010891805 0.0 0.0
0.0 0.1263595272398581 0.10980367599322212 -0.1081531823047142 -0.001650493688507853 0.010971518799883928 0.0 0.0
0.0 0.10921150671018412 0.0949289651360522 -0.09339132118119313 -0.0015376439548590683 0.010584912361733327 0.0 0.0
0.0 0.0920767524039515 0.08006624965487674 -0.07864071858447497 -0.0014255310704017713 0.009588481924169483 0.0 0.0
0.0 0.07582362610644147 0.06597669144836511 -0.06466037375695896 -0.0013163176914061372 0.008388295733034531 0.0 0.0
0.0 0.0610216771517053 0.05308877879878033 -0.051878328290175336 -0.0012104505086049859 0.007179433417310201 0.0 0.0
0.0 0.04786891991399684 0.04157209872475938 -0.040465083336460164 -0.0011070153882991947 0.006029928989205291 0.0 0.0
0.0 0.036091842209331204 0.03144900078875175 -0.03044424761284676 -0.00100475317590497 0.004912176651511958 0.0 0.0
0.0 0.025962359763322843 0.022699411958460394 -0.021796827655067998 -0.0009025843033923913 0.0037662140714669625 0.0 0.0
0.0 0.017470549588953284 0.015351861559104958 -0.01455229233422306 -0.000799569224881887 0.0026625978146511747 0.0 0.0
0.0 0.010695524519440563 0.009472987091577623 -0.008785440125239826 -0.0006875469663378009 0.0017172710099585793 0.0 0.0
0.0 0.005683826868152943 0.005099996787643042 -0.004560389477430704 -0.0005396073102123379 0.0009940484797967154 0.0 0.0
0.0 0.0023751640814986315 0.0021712389193257377 -0.0018411880929866341 -0.0003300508263391039 0.00047587843015116745 0.0 0.0
0.0 0.0007398458633644076 0.0005287865648452148 -0.0004265821676662596 -0.00010220439717895516 0.00014222074589554724 0.0 0.0
0.0 6.102295498389379e-05 2.6598249191361175e-05 -2.0771259805937392e-05 -5.826989385423637e-06 1.0813192317691008e-05 0.0 0.0
0.0 9.430826938068039e-08 -1.0209515134588993e-08 7.758883496907494e-09 2.4506316376819497e-09 -3.6392644370560787e-09 0.0 0.0
0.0 2.064405126202875e-07 8.509273965666143e-08 -7.241777299881822e-08 -1.2674966657841577e-08 -5.870499355997594e-08 0.0 0.0
0.0 0.008645303246027032 0.006235616175470726 -0.006722462154345508 0.0004868459788747836 0.005929037140510702 0.0 0.0
0.0 0.006466282182191129 0.004408222855364017 -0.004910820381175178 0.0005025975258111605 -0.005146691374629801 0.0 0.0
0.0 0.0 0.0 0.0 0.0 0.0 0.0 0.0
0.0 0.0 0.0 0.0 0.0 0.0 0.0 0.0
0.0 9.56701058509251e-06 5.7310726234217576e-06 -4.464673536271061e-06 -1.2663990871507173e-06 -3.9970809630723645e-06 0.0 0.0
0.0 0.00037350775454916157 0.0002663183430031579 -0.00021242274629318394 -5.38955967099738e-05 -0.00012861307316247418 0.0 0.0
0.0 0.0018174568019942532 0.0014915528130406842 -0.001244677382879639 -0.00024687543016104445 -0.0005676059985126254 0.0 0.0
0.0 0.004498408420952242 0.004016379399723912 -0.003536603290472544 -0.00047977610925136984 -0.0013337412020142728 0.0 0.0
0.0 0.008928464597011828 0.007876171843740313 -0.007230034390150827 -0.0006461374535894858 -0.0024156195983177477 0.0 0.0
0.0 0.014981176724683963 0.013101690566961767 -0.012335699271691153 -0.0007659912952706102 -0.003791612821770029 0.0 0.0
0.0 0.02254312012778462 0.019623698753938303 -0.018756662504350843 -0.0008670362495874556 -0.005371579781114379 0.0 0.0
0.0 0.031533885753480276 0.02735400520769189 -0.026391295554862106 -0.0009627096528297735 -0.007010034610335113 0.0 0.0
0.0 0.04182856783829302 0.03626419089908665 -0.035207445225851154 -0.0010567456732354943 -0.008611492348724362 0.0 0.0
0.0 0.05363499611850054 0.04638682750374931 -0.04523578809053497 -0.0011510394132143512 -0.010226606711267816 0.0 0.0
0.0 0.06664650940373038 0.05774648790055831 -0.05649922454582467 -0.0012472633547336133 -0.011944851594560733 0.0 0.0
0.0 0.08100229687941483 0.07022319881278122 -0.06887746437066318 -0.0013457344421179697 -0.013688123327403663 0.0 0.0
0.0 0.09628863803735196 0.08347001788628045 -0.0820236810922409 -0.0014463367940395133 -0.015140247143481235 0.0 0.0
0.0 0.11168533872271391 0.09684915443531379 -0.09530048570395966 -0.0015486687313541118 -0.015793007385887646 0.0 0.0
0.0 0.12602734858478734 0.1093622789582838 -0.10770716847696948 -0.0016551104813142877 -0.015108756223488212 0.0 0.0
0.0 0.13770050430314204 0.11958801401189903 -0.11783040612481949 -0.001757607887079532 -0.012620090847953076 0.0 0.0
0.0 0.14485243565475836 0.1259104168034195 -0.1240801559893045 -0.0018302608141149302 -0.007649451080141852 0.0 0.0
0.0 0.1448524356547503 0.12591041680341164 -0.12408015598929747 -0.0018302608141141468 0.007649451080171196 0.0 0.0
0.0 0.1377005043031152 0.11958801401187427 -0.11783040612479542 -0.0017576078870788563 0.012620090847996902 0.0 0.0
0.0 0.1260273485847416 0.10936227895824292 -0.10770716847692899 -0.0016551104813138872 0.015108756223518795 0.0 0.0
0.0 0.11168533872265762 0.09684915443526412 -0.0953004857039107 -0.0015486687313534587 0.015793007385901423 0.0 0.0
0.0 0.09628863803728581 0.08347001788622341 -0.08202368109218396 -0.0014463367940394142 0.015140247143473 0.0 0.0
0.0 0.08100229687934746 0.07022319881272274 -0.06887746437060505 -0.0013457344421177017 0.013688123327400097 0.0 0.0
0.0 0.06664650940366382 0.05774648790050027 -0.05649922454576749 -0.0012472633547327926 0.011944851594556102 0.0 0.0
0.0 0.053634996118434516 0.046386827503691774 -0.0452357880904781 -0.001151039413213665 0.01022660671126277 0.0 0.0
0.0 0.04182856783822768 0.03626419089903049 -0.035207445225795025 -0.001056745673235463 0.008611492348711296 0.0 0.0
0.0 0.03153388575342279 0.027354005207641863 -0.026391295554812337 -0.0009627096528295162 0.007010034610323552 0.0 0.0
0.0 0.022543120127738174 0.0196236987538978 -0.018756662504310885 -0.0008670362495869166 0.0053715797811002145 0.0 0.0
0.0 0.014981176724647952 0.013101690566930137 -0.012335699271660096 -0.0007659912952700385 0.0037916128217618124 0.0 0.0
0.0 0.0089284645969842 0.007876171843715914 -0.007230034390127052 -0.0006461374535888644 0.0024156195983101336 0.0 0.0
0.0 0.004498408420934584 0.004016379399708029 -0.0035366032904576485 -0.0004797761092503807 0.0013337412020093036 0.0 0.0
0.0 0.001817456801984729 0.0014915528130328229 -0.001244677382872733 -0.0002468754301600894 0.0005676059985094317 0.0 0.0
0.0 0.0003735077545459536 0.00026631834300096366 -0.00021242274629140582 -5.3895596709557625e-05 0.00012861307316147527 0.0 0.0
0.0 9.567010584677159e-06 5.7310726235792625e-06 -4.4646735363916015e-06 -1.26639908718768e-06 3.997080963171811e-06 0.0 0.0
0.0 0.0 0.0 0.0 0.0 0.0 0.0 0.0
0.0 0.0 0.0 0.0 0.0 0.0 0.0 0.0
0.0 0.006466282182173615 0.004408222855351978 -0.0049108203811624035 0.0005025975258104254 0.005146691374610497 0.0 0.0
0.0 0.004776445439691588 0.003114857494742158 -0.00357801179227547 0.0004631542975333104 -0.004008544145099261 0.0 0.0
0.0 0.0 0.0 0.0 0.0 0.0 0.0 0.0
0.0 0.0 0.0 0.0 0.0 0.0 0.0 0.0
0.0 1.7764958665315978e-06 -1.7819784007305854e-07 1.3787375697884427e-07 4.03240830942293e-08 1.8782013220909485e-07 0.0 0.0
0.0 0.00015630385829697754 0.00010466353994487195 -8.296369390123352e-05 -2.16998460436383e-05 -8.209700411233615e-05 0.0 0.0
0.0 0.0011908969297572155 0.0009309072701859016 -0.0007644489471776536 -0.00016645832300824846 -0.000540600380881132 0.0 0.0
0.0 0.003423427222723393 0.0029719259995411164 -0.002570930014171442 -0.0004009959853696756 -0.001460705077141724 0.0 0.0
0.0 0.007207512175628759 0.006297878018479756 -0.00570475502863819 -0.000593122989841567 -0.002819745430290993 0.0 0.0
0.0 0.012513089935351442 0.010849765239399584 -0.010125784815591222 -0.0007239804238083662 -0.004518014988310626 0.0 0.0
0.0 0.019135452663344668 0.01653473164440702 -0.015709372782485145 -0.0008253588619218698 -0.006450316255047159 0.0 0.0
0.0 0.026967572399185825 0.02324505413038124 -0.022329391960589143 -0.0009156621697920997 -0.008442857652223402 0.0 0.0
0.0 0.035945997985730754 0.030944808744959074 -0.029942737215198273 -0.0010020715297608077 -0.010397901989127094 0.0 0.0
0.0 0.04610000154405439 0.039678995527225744 -0.03859177024940444 -0.0010872252778213066 -0.01238064623638636 0.0 0.0
0.0 0.057529831183993886 0.04949698244018401 -0.048323078786731005 -0.0011739036534529883 -0.014447331419596017 0.0 0.0
0.0 0.07012292467751254 0.060337630657684764 -0.05907612266348624 -0.0012615079941985154 -0.016539473781182933 0.0 0.0
0.0 0.08336037170478569 0.0719502612534865 -0.07060000335215341 -0.0013502579013330849 -0.018360715259924443 0.0 0.0
0.0 0.09701350192144115 0.08381674492225173 -0.08237431398028505 -0.0014424309419666344 -0.01931699806171885 0.0 0.0
0.0 0.10987354817105102 0.0950751277513354 -0.09353656378288165 -0.0015385639684537896 -0.01867036666267443 0.0 0.0
0.0 0.1205005171866828 0.10448137486255701 -0.10285116284560869 -0.0016302120169482848 -0.015557537009909675 0.0 0.0
0.0 0.12731042869288706 0.1106186782920863 -0.10892260230797923 -0.0016960759841070686 -0.009021637799797895 0.0 0.0
0.0 0.12731042869287826 0.11061867829207798 -0.10892260230797096 -0.0016960759841070873 0.009021637799835398 0.0 0.0
0.0 0.12050051718665998 0.10448137486253514 -0.10285116284558715 -0.001630212016947951 0.015557537009961181 0.0 0.0
0.0 0.109873548171013 0.09507512775130073 -0.09353656378284689 -0.00153856396845377 0.018670366662709582 0.0 0.0
0.0 0.09701350192139191 0.08381674492220821 -0.0823743139802412 -0.0014424309419670304 0.01931699806173407 0.0 0.0
0.0 0.08336037170473003 0.07195026125343831 -0.07060000335210584 -0.0013502579013324513 0.018360715259916827 0.0 0.0
0.0 0.07012292467745453 0.0603376306576342 -0.05907612266343671 -0.001261507994197462 0.016539473781176976 0.0 0.0
0.0 0.05752983118393382 0.0494969824401318 -0.04832307878667913 -0.0011739036534526713 0.014447331419589959 0.0 0.0
0.0 0.04610000154399626 0.03967899552717519 -0.038591770249354194 -0.001087225277820994 0.012380646236378847 0.0 0.0
0.0 0.03594599798567536 0.03094480874491095 -0.029942737215150877 -0.0010020715297600776 0.010397901989112392 0.0 0.0
0.0 0.026967572399139765 0.023245054130341048 -0.022329391960549703 -0.0009156621697913547 0.008442857652209626 0.0 0.0
0.0 0.019135452663303812 0.01653473164437188 -0.0157093727824507 -0.000825358861921168 0.0064503162550302445 0.0 0.0
0.0 0.012513089935318505 0.010849765239370878 -0.010125784815563208 -0.0007239804238076638 0.0045180149882996816 0.0 0.0
0.0 0.007207512175605113 0.006297878018459092 -0.005704755028618301 -0.0005931229898407889 0.002819745430281707 0.0 0.0
0.0 0.003423427222708725 0.002971925999528442 -0.00257093001415981 -0.000400995985368632 0.001460705077135957 0.0 0.0
0.0 0.0011908969297501452 0.0009309072701808002 -0.0007644489471733211 -0.00016645832300747908 0.0005406003808780584 0.0 0.0
0.0 0.00015630385829521612 0.00010466353994424556 -8.296369390071835e-05 -2.16998460435273e-05 8.209700411181909e-05 0.0 0.0
0.0 1.7764958662467406e-06 -1.7819784004332652e-07 1.3787375695581053e-07 4.032408308752122e-08 -1.8782013217738892e-07 0.0 0.0
0.0 0.0 0.0 0.0 0.0 0.0 0.0 0.0
0.0 0.0 0.0 0.0 0.0 0.0 0.0 0.0
0.0 0.004776445439675989 0.003114857494731862 -0.003578011792264424 0.00046315429753256094 0.004008544145083746 0.0 0.0
0.0 0.003405784283578043 0.0021339244015360992 -0.0025252998674941407 0.0003913754659580428 -0.002908784650878523 0.0 0.0
0.0 0.0 0.0 0.0 0.0 0.0 0.0 0.0
0.0 0.0 0.0 0.0 0.0 0.0 0.0 0.0
0.0 3.1234164431588785e-07 -2.5617850497127908e-08 2.0115826190663957e-08 5.502024306463789e-09 4.21043713021938e-08 0.0 0.0
0.0 5.622312981687223e-05 3.1728658263917704e-05 -2.5190985740331057e-05 -6.537672523586658e-06 -3.8901105763626134e-05 0.0 0.0
0.0 0.0006797105250810419 0.0005045649719956293 -0.00040870238103490956 -9.586259096071968e-05 -0.000439074131308089 0.0 0.0
0.0 0.0025218151917923265 0.002010499773335641 -0.0017043894854273252 -0.00030611028790831596 -0.001381135883204265 0.0 0.0
0.0 0.0055950952373287075 0.004752864854956948 -0.004230898953004769 -0.0005219659019521774 -0.002889116669097435 0.0 0.0
0.0 0.01008381665974092 0.008619721134448054 -0.007949389764656695 -0.0006703313697913592 -0.004832539899017902 0.0 0.0
0.0 0.015767365382674033 0.013456553218337355 -0.012680861038836418 -0.0007756921795009337 -0.006993717235732653 0.0 0.0
0.0 0.022455879421945966 0.01914547434121515 -0.01828298526927969 -0.000862489071935459 -0.009215378919629438 0.0 0.0
0.0 0.03006054103915544 0.025639773147874478 -0.024698055971957168 -0.0009417171759173094 -0.011390091508861118 0.0 0.0
0.0 0.03870919089852361 0.03298701170768339 -0.031968540699714824 -0.0010184710079685624 -0.013584754972708068 0.0 0.0
0.0 0.04829151613779533 0.041264132538520806 -0.04016910700663404 -0.0010950255318867633 -0.01588837486095342 0.0 0.0
0.0 0.05901291597710316 0.050457559452391665 -0.04928550834496696 -0.0011720511074246815 -0.018201949741436414 0.0 0.0
0.0 0.07064466291244662 0.06039821284477541 -0.059148340942856814 -0.0012498719019185794 -0.02022169257727414 0.0 0.0
0.0 0.08236383835838283 0.07070802998870546 -0.06937856357033326 -0.001329466418372194 -0.02143565042940879 0.0 0.0
0.0 0.09369051607420087 0.08071791643599593 -0.07930465572844181 -0.0014132607075541285 -0.02097561720708637 0.0 0.0
0.0 0.1033989702183085 0.08940357798259434 -0.08790809796872857 -0.001495480013865783 -0.017624584005863676 0.0 0.0
0.0 0.11003122030590706 0.09549573205797941 -0.09393693300564308 -0.0015587990523362669 -0.010160898027578502 0.0 0.0
0.0 0.11003122030589768 0.0954957320579703 -0.09393693300563385 -0.0015587990523363532 0.010160898027617864 0.0 0.0
0.0 0.10339897021828419 0.08940357798257081 -0.08790809796870469 -0.0014954800138660845 0.017624584005915343 0.0 0.0
0.0 0.09369051607416724 0.08071791643596421 -0.07930465572841018 -0.0014132607075540296 0.02097561720712424 0.0 0.0
0.0 0.08236383835834321 0.07070802998866939 -0.06937856357029767 -0.0013294664183717245 0.021435650429426703 0.0 0.0
0.0 0.07064466291240255 0.06039821284473697 -0.059148340942819136 -0.001249871901917828 0.020221692577268132 0.0 0.0
0.0 0.0590129159770578 0.0504575594523521 -0.04928550834492816 -0.0011720511074239446 0.018201949741429028 0.0 0.0
0.0 0.04829151613774972 0.04126413253848077 -0.04016910700659487 -0.001095025531885886 0.01588837486094857 0.0 0.0
0.0 0.0387091908984778 0.03298701170764307 -0.031968540699675196 -0.0010184710079678657 0.013584754972700855 0.0 0.0
0.0 0.0300605410391099 0.025639773147835138 -0.024698055971918452 -0.0009417171759166647 0.011390091508846338 0.0 0.0
0.0 0.022455879421904988 0.019145474341179858 -0.018282985269245242 -0.0008624890719346167 0.009215378919613142 0.0 0.0
0.0 0.015767365382638114 0.013456553218307393 -0.012680861038807036 -0.0007756921795003554 0.006993717235712946 0.0 0.0
0.0 0.01008381665971171 0.008619721134423042 -0.007949389764632204 -0.0006703313697908364 0.004832539899005295 0.0 0.0
0.0 0.005595095237308725 0.004752864854940213 -0.004230898952988869 -0.0005219659019513428 0.0028891166690871934 0.0 0.0
0.0 0.0025218151917817287 0.0020104997733271027 -0.0017043894854197874 -0.00030611028790731556 0.0013811358831992875 0.0 0.0
0.0 0.0006797105250759593 0.000504564971992139 -0.00040870238103205334 -9.586259096008554e-05 0.00043907413130525423 0.0 0.0
0.0 5.622312981567659e-05 3.172865826364163e-05 -2.5190985740097195e-05 -6.537672523544357e-06 3.8901105763223956e-05 0.0 0.0
0.0 3.1234164401444015e-07 -2.5617850471780222e-08 2.0115826170972936e-08 5.502024300809174e-09 -4.2104371261965705e-08 0.0 0.0
0.0 0.0 0.0 0.0 0.0 0.0 0.0 0.0
0.0 0.0 0.0 0.0 0.0 0.0 0.0 0.0
0.0 0.00340578428356575 0.002133924401528237 -0.002525299867485449 0.00039137546595721087 0.0029087846508671065 0.0 0.0
0.0 0.0022727836268222413 0.001378609824940159 -0.001680402411501711 0.00030179258656155177 -0.0019717898185524912 0.0 0.0
0.0 0.0 0.0 0.0 0.0 0.0 0.0 0.0
0.0 0.0 0.0 0.0 0.0 0.0 0.0 0.0
0.0 1.2459832782016668e-06 -8.711175530045244e-08 6.722946238267231e-08 1.9882292917777628e-08 2.0432140011233723e-07 0.0 0.0
0.0 2.329054614134637e-05 7.468832653504681e-06 -5.906853903019903e-06 -1.5619787504847712e-06 -1.3119583377721448e-05 0.0 0.0
0.0 0.000321208186715053 0.0002297861163419586 -0.0001845203568462265 -4.526575949573195e-05 -0.00030392657304454106 0.0 0.0
0.0 0.0015850129787068085 0.001215140781834288 -0.0010091793954090965 -0.00020596138642519138 -0.0011892599174690302 0.0 0.0
0.0 0.004081376923674681 0.003294393660040388 -0.002869909232748232 -0.00042448442729215563 -0.0026793488514638996 0.0 0.0
0.0 0.0077590143714832 0.006432350193312878 -0.005834087297798982 -0.0005982628955138961 -0.004696715095568955 0.0 0.0
0.0 0.012454357155401908 0.01041583185175099 -0.009701649260962135 -0.0007141825907888537 -0.006987052771110112 0.0 0.0
0.0 0.01797591700053027 0.01508125721919763 -0.014281038526541771 -0.0008002186926558569 -0.00930706639741223 0.0 0.0
0.0 0.02424257771343438 0.020375497831070802 -0.01950131143201933 -0.0008741863990514808 -0.01157430373296419 0.0 0.0
0.0 0.03128822073406562 0.02634444372533112 -0.025401420129377045 -0.0009430235959540763 -0.013855088262438829 0.0 0.0
0.0 0.03922405421697306 0.03307849081457909 -0.032068646984861185 -0.0010098438297178928 -0.016221026379972813 0.0 0.0
0.0 0.04811612056758244 0.040615510939090875 -0.0395389333183693 -0.0010765776207216106 -0.018614322657126717 0.0 0.0
0.0 0.05757185257604316 0.048860120471619806 -0.04771688219769283 -0.0011432382739270002 -0.020751266784776897 0.0 0.0
0.0 0.06768759550568632 0.05755183748757987 -0.05634217046814387 -0.0012096670194359773 -0.022119644333590226 0.0 0.0
0.0 0.07760622736550557 0.06626472418334305 -0.06498598749178702 -0.001278736691556006 -0.021922380948456468 0.0 0.0
0.0 0.08627483220286296 0.07425969993157322 -0.07290862702791787 -0.0013510729036553153 -0.018781934251302684 0.0 0.0
0.0 0.092837123733219 0.08040538809801606 -0.07899073619128803 -0.0014146519067280102 -0.011082735956489408 0.0 0.0
0.0 0.0928371237332126 0.08040538809800904 -0.07899073619128118 -0.0014146519067278756 0.011082735956529147 0.0 0.0
0.0 0.08627483220284386 0.07425969993155346 -0.07290862702789778 -0.0013510729036557072 0.01878193425135409 0.0 0.0
0.0 0.07760622736547834 0.06626472418331614 -0.06498598749176002 -0.00127873669155616 0.021922380948494774 0.0 0.0
0.0 0.0676875955056525 0.05755183748754873 -0.05634217046811318 -0.0012096670194355163 0.022119644333605408 0.0 0.0
0.0 0.05757185257600387 0.04886012047158569 -0.04771688219765943 -0.0011432382739262254 0.02075126678477008 0.0 0.0
0.0 0.0481161205675418 0.04061551093905567 -0.039538933318334836 -0.001076577620720813 0.018614322657116593 0.0 0.0
0.0 0.03922405421693231 0.0330784908145435 -0.03206864698482623 -0.0010098438297172778 0.01622102637996446 0.0 0.0
0.0 0.03128822073402611 0.026344443725296735 -0.025401420129343242 -0.0009430235959535001 0.013855088262430204 0.0 0.0
0.0 0.024242577713397044 0.020375497831039174 -0.01950131143198829 -0.0008741863990508855 0.011574303732948824 0.0 0.0
0.0 0.017975917000497256 0.015081257219169749 -0.014281038526514571 -0.0008002186926551756 0.009307066397396375 0.0 0.0
0.0 0.01245435715537219 0.010415831851726624 -0.009701649260938437 -0.0007141825907881894 0.006987052771089906 0.0 0.0
0.0 0.007759014371461207 0.006432350193294291 -0.005834087297781208 -0.0005982628955130826 0.004696715095556678 0.0 0.0
0.0 0.004081376923658608 0.003294393660027312 -0.002869909232736203 -0.0004244844272911081 0.0026793488514539818 0.0 0.0
0.0 0.0015850129786972743 0.001215140781826966 -0.0010091793954027984 -0.00020596138642416746 0.0011892599174628993 0.0 0.0
0.0 0.00032120818671161987 0.00022978611634006055 -0.00018452035684468515 -4.526575949537541e-05 0.00030392657304208843 0.0 0.0
0.0 2.329054614058475e-05 7.468832653603139e-06 -5.906853903094969e-06 -1.5619787505081599e-06 1.311958337788493e-05 0.0 0.0
0.0 1.245983277765114e-06 -8.711175526903953e-08 6.722946235833695e-08 1.9882292910690027e-08 -2.0432140003799813e-07 0.0 0.0
0.0 0.0 0.0 0.0 0.0 0.0 0.0 0.0
0.0 0.0 0.0 0.0 0.0 0.0 0.0 0.0
0.0 0.002272783626812166 0.0013786098249339983 -0.0016804024114946959 0.000301792586560698 0.001971789818543455 0.0 0.0
0.0 0.0013974752086517409 0.0008033994101406971 -0.0010082957165229534 0.0002048963063822563 -0.0012102598398914125 0.0 0.0
0.0 2.413150468070681e-07 -3.1561199297649185e-09 2.895078666521106e-09 2.6104126324386403e-10 4.838109291425756e-08 0.0 0.0
0.0 0.0 0.0 0.0 0.0 0.0 0.0 0.0
0.0 1.343535810957597e-06 -6.745450613659108e-08 5.1836617700734505e-08 1.5617888435866596e-08 2.5068220686766373e-07 0.0 0.0
0.0 1.135371617502034e-05 4.218508795464614e-06 -3.3308283369705048e-06 -8.876804584941132e-07 -1.1042530598297582e-05 0.0 0.0
0.0 0.0001615051182108629 8.057110735856705e-05 -6.449782941000731e-05 -1.6073277948559785e-05 -0.0001624209581896168 0.0 0.0
0.0 0.0008751579445457048 0.0006047581011663659 -0.0004930372249372453 -0.00011172087622912072 -0.0008772925381835697 0.0 0.0
0.0 0.002658742545979916 0.0020041853364604224 -0.0017012930009028156 -0.00030289233555760625 -0.0022488624859045713 0.0 0.0
0.0 0.005521237560888066 0.004343961811336968 -0.0038494957015344994 -0.000494466109802467 -0.0041437426004401244 0.0 0.0
0.0 0.009218282600503022 0.007441944335261303 -0.006810410620677098 -0.0006315337145842046 -0.0063862617094061335 0.0 0.0
0.0 0.013571489511687448 0.011080938645998153 -0.010357957420644553 -0.0007229812253535948 -0.00870058729714513 0.0 0.0
0.0 0.018483387314015016 0.015183144239439748 -0.014387943881482719 -0.0007952003579570308 -0.010935052199570918 0.0 0.0
0.0 0.024001140048802962 0.01978473414879577 -0.018927043724970158 -0.0008576904238256013 -0.013157377109534421 0.0 0.0
0.0 0.030169091350226745 0.02498479853480452 -0.024069094039496898 -0.0009157044953076093 -0.015454274221037994 0.0 0.0
0.0 0.03713620054307833 0.03085549870843008 -0.02988412830779081 -0.0009713704006392671 -0.017775935894764533 0.0 0.0
0.0 0.04479385274812275 0.03737421767197815 -0.03634578545522354 -0.0010284322167546144 -0.019868399708545446 0.0 0.0
0.0 0.052860611535710464 0.04439116789704458 -0.04330911938254196 -0.0010820485145026238 -0.021319865536318195 0.0 0.0
0.0 0.061146863820083476 0.05170987781599308 -0.050576356560416605 -0.0011335212555764976 -0.021468955372642005 0.0 0.0
0.0 0.06917000714690424 0.05894935303159864 -0.05775645627598397 -0.0011928967556146535 -0.01895353447706601 0.0 0.0
0.0 0.07579613270118085 0.06520173294115618 -0.06394286038363964 -0.0012588725575165124 -0.011762407020727408 0.0 0.0
0.0 0.07579613270117685 0.06520173294115127 -0.06394286038363464 -0.0012588725575165846 0.011762407020764276 0.0 0.0
0.0 0.06917000714689565 0.05894935303158698 -0.057756456275972576 -0.0011928967556144225 0.01895353447711778 0.0 0.0
0.0 0.06114686382006706 0.05170987781597462 -0.05057635656039852 -0.001133521255576068 0.021468955372680218 0.0 0.0
0.0 0.05286061153568686 0.04439116789702157 -0.043309119382519676 -0.0010820485145019057 0.02131986553633337 0.0 0.0
0.0 0.044793852748092194 0.037374217671951725 -0.03634578545519754 -0.0010284322167541614 0.01986839970853812 0.0 0.0
0.0 0.03713620054304621 0.0308554987084028 -0.02988412830776377 -0.0009713704006390266 0.01777593589475346 0.0 0.0
0.0 0.030169091350195385 0.024984798534777437 -0.024069094039469958 -0.0009157044953074873 0.015454274221030337 0.0 0.0
0.0 0.024001140048776102 0.019784734148772496 -0.018927043724947298 -0.0008576904238251989 0.013157377109526787 0.0 0.0
0.0 0.018483387313987083 0.0151831442394163 -0.014387943881459675 -0.0007952003579566222 0.010935052199557677 0.0 0.0
0.0 0.013571489511659856 0.011080938645975712 -0.010357957420622553 -0.0007229812253531472 0.008700587297128009 0.0 0.0
0.0 0.009218282600478318 0.00744194433524208 -0.006810410620658493 -0.0006315337145835877 0.006386261709386436 0.0 0.0
0.0 0.005521237560870634 0.004343961811323327 -0.0038494957015215367 -0.0004944661098017886 0.004143742600428589 0.0 0.0
0.0 0.0026587425459685143 0.002004185336451689 -0.0017012930008950982 -0.00030289233555659 0.002248862485896585 0.0 0.0
0.0 0.0008751579445401232 0.000604758101162671 -0.0004930372249341258 -0.00011172087622854473 0.0008772925381787842 0.0 0.0
0.0 0.00016150511820927377 8.057110735818845e-05 -6.449782940969357e-05 -1.6073277948494753e-05 0.00016242095818875862 0.0 0.0
0.0 1.1353716174778692e-05 4.218508795644487e-06 -3.3308283371126233e-06 -8.876804585318679e-07 1.1042530598794792e-05 0.0 0.0
0.0 1.343535810551308e-06 -6.74545061154224e-08 5.1836617684484416e-08 1.561788843093987e-08 -2.5068220678900275e-07 0.0 0.0
0.0 0.0 0.0 0.0 0.0 0.0 0.0 0.0
0.0 2.413150465246296e-07 -3.1561199259962506e-09 2.8950786630596134e-09 2.610412629367381e-10 -4.838109285659394e-08 0.0 0.0
0.0 0.0013974752086444537 0.0008033994101366492 -0.0010082957165181683 0.0002048963063815189 0.0012102598398853167 0.0 0.0
0.0 0.000740655683844995 0.000390579943233607 -0.0005069168586419976 0.0001163369154083907 -0.0006214151593966919 0.0 0.0
0.0 5.68229300698234e-07 -7.067340485817422e-09 9.746384288017086e-09 -2.679043802201258e-09 1.14239571365149e-07 0.0 0.0
0.0 6.305102464673167e-07 -7.0898921551877894e-09 5.074535917472657e-09 2.0153562377156586e-09 1.2874703632778445e-07 0.0 0.0
0.0 8.694762653476193e-07 -2.987712020632065e-08 2.159330647060148e-08 8.283813735721381e-09 1.7349073420562356e-07 0.0 0.0
0.0 9.53040591288386e-06 2.406481477946999e-06 -1.892767925701793e-06 -5.137135522452185e-07 -9.82827127336048e-06 0.0 0.0
0.0 9.1667691462878e-05 3.3394800836442746e-05 -2.657362172676539e-05 -6.821179109677351e-06 -0.00010559424675531264 0.0 0.0
0.0 0.00042702038989906227 0.00022716152537022053 -0.00018280800228077438 -4.435352308944618e-05 -0.0005364032661335073 0.0 0.0
0.0 0.001463991476842433 0.0009578420651287721 -0.0007899254109997109 -0.00016791665412906103 -0.0016210207525392385 0.0 0.0
0.0 0.0034439543547910316 0.0024487751143578733 -0.002101795899881284 -0.00034697921447658696 -0.0032488658552609143 0.0 0.0
0.0 0.0060460810703810075 0.004601391312616621 -0.004095569303412202 -0.0005058220092044175 -0.005227293892923365 0.0 0.0
0.0 0.009311460550119614 0.007188536632536626 -0.006573709375762332 -0.0006148272567742946 -0.00733903062252954 0.0 0.0
0.0 0.012839673065435422 0.010103902768082203 -0.009411542810104555 -0.0006923599579776463 -0.009416540278410821 0.0 0.0
0.0 0.016792694105694755 0.01335546933688578 -0.01260186759233052 -0.0007536017445552571 -0.011469720477340422 0.0 0.0
0.0 0.021267872620984646 0.01703251474559325 -0.01622727509396326 -0.0008052396516299812 -0.013550890045006052 0.0 0.0
0.0 0.026391017556133416 0.021232265846159393 -0.020380562718440468 -0.0008517031277189193 -0.015654425358096406 0.0 0.0
0.0 0.032061177356137664 0.0260005626868114 -0.025103214055320518 -0.0008973486314908821 -0.01759311578379496 0.0 0.0
0.0 0.03827069794365553 0.0312886479788974 -0.03034585238051918 -0.0009427955983782266 -0.018971579850591527 0.0 0.0
0.0 0.04476391401576916 0.03707208490785016 -0.03609512154260895 -0.0009769633652412161 -0.01940828478266921 0.0 0.0
0.0 0.05159661376853242 0.043381883658378015 -0.042368417496009704 -0.0010134661623682842 -0.01793381490438389 0.0 0.0
0.0 0.05817947719140505 0.049726855253368264 -0.04864592745968299 -0.0010809277936852817 -0.012133628119232106 0.0 0.0
0.0 0.05817947719140157 0.0497268552533634 -0.04864592745967812 -0.0010809277936852572 0.01213362811926344 0.0 0.0
0.0 0.05159661376852368 0.04338188365836582 -0.04236841749599769 -0.0010134661623681298 0.017933814904429152 0.0 0.0
0.0 0.044763914015755336 0.03707208490783371 -0.03609512154259297 -0.0009769633652407324 0.01940828478270199 0.0 0.0
0.0 0.038270697943635794 0.03128864797887826 -0.03034585238050055 -0.0009427955983777027 0.018971579850602077 0.0 0.0
0.0 0.032061177356114516 0.026000562686792027 -0.025103214055301783 -0.0008973486314902306 0.017593115783785543 0.0 0.0
0.0 0.02639101755611133 0.021232265846141053 -0.020380562718422736 -0.0008517031277183325 0.015654425358086414 0.0 0.0
0.0 0.02126787262096494 0.017032514745576485 -0.01622727509394681 -0.0008052396516296752 0.013550890045000194 0.0 0.0
0.0 0.01679269410567409 0.013355469336868084 -0.012601867592313125 -0.0007536017445549608 0.011469720477333726 0.0 0.0
0.0 0.012839673065414054 0.010103902768065064 -0.009411542810087888 -0.0006923599579771761 0.009416540278397452 0.0 0.0
0.0 0.009311460550097763 0.007188536632519568 -0.006573709375745777 -0.0006148272567737878 0.0073390306225136655 0.0 0.0
0.0 0.006046081070362645 0.004601391312603292 -0.004095569303399546 -0.0005058220092037448 0.005227293892906991 0.0 0.0
0.0 0.003443954354779508 0.0024487751143494156 -0.0021017958998736054 -0.00034697921447581073 0.003248865855251435 0.0 0.0
0.0 0.0014639914768356192 0.0009578420651239275 -0.0007899254109956513 -0.00016791665412827598 0.0016210207525331533 0.0 0.0
0.0 0.00042702038989540536 0.00022716152536848545 -0.00018280800227934212 -4.435352308914342e-05 0.00053640326612981 0.0 0.0
0.0 9.166769146167099e-05 3.339480083637623e-05 -2.65736217267026e-05 -6.821179109673622e-06 0.00010559424675491813 0.0 0.0
0.0 9.530405912578852e-06 2.4064814780435317e-06 -1.892767925778156e-06 -5.137135522653687e-07 9.828271273788665e-06 0.0 0.0
0.0 8.694762648168817e-07 -2.987712019000699e-08 2.1593306458356525e-08 8.283813731647456e-09 -1.7349073409897767e-07 0.0 0.0
0.0 6.305102458760242e-07 -7.089892147158693e-09 5.074535912009278e-09 2.015356235150372e-09 -1.2874703620679312e-07 0.0 0.0
0.0 5.682293000733039e-07 -7.067340481250902e-09 9.746384282047934e-09 -2.6790438007974454e-09 -1.1423957123934295e-07 0.0 0.0
0.0 0.0007406556838395191 0.0003905799432310078 -0.000506916858638827 0.00011633691540781927 0.0006214151593924408 0.0 0.0
0.0 0.0002734805032195188 0.00014225676860269573 -0.00019349793896376576 5.124117036107007e-05 -0.00023949059599399534 0.0 0.0
0.0 2.0717276247831737e-06 -6.165853434397743e-09 1.47916262852059e-08 -8.625772850807937e-09 4.367858720835785e-07 0.0 0.0
0.0 8.129603515550081e-07 -9.729788138728575e-10 -5.062304710215263e-10 1.479209284894036e-09 1.6676851108718092e-07 0.0 0.0
0.0 1.3942118126280809e-06 -1.7202479833820512e-08 1.1633862331670308e-08 5.568617502153395e-09 2.882879494068393e-07 0.0 0.0
0.0 9.948343386621862e-06 1.4680835072518292e-06 -1.1190695344279636e-06 -3.4901397282386975e-07 -1.0930544309483616e-05 0.0 0.0
0.0 7.569597875159095e-05 1.623034952950741e-05 -1.2931675271712696e-05 -3.2986742577947168e-06 -9.291213745986492e-05 0.0 0.0
0.0 0.00024050352291082335 7.44601042508064e-05 -5.971911883371141e-05 -1.474098541709492e-05 -0.0003352056564320314 0.0 0.0
0.0 0.00064939094742368 0.00028967462394900327 -0.0002332844697919878 -5.639015415701524e-05 -0.0009460442556846216 0.0 0.0
0.0 0.0016505402068284303 0.0009112231325156559 -0.0007500999313983118 -0.00016112320111734434 -0.0020785544335549418 0.0 0.0
0.0 0.0032018172988860115 0.0020346473546053734 -0.0017308645913792246 -0.0003037827632261477 -0.003587593987651287 0.0 0.0
0.0 0.005142747367862971 0.0035226540824463103 -0.0030910926949338485 -0.0004315613875124605 -0.005276092428216615 0.0 0.0
0.0 0.007424082195578346 0.005226449610124033 -0.0047014313315879505 -0.00052501827853608 -0.007010526803736965 0.0 0.0
0.0 0.009917959743161568 0.0071379868678067455 -0.00654112713452609 -0.0005968597332806512 -0.008784844708738323 0.0 0.0
0.0 0.012734613926545225 0.009313613843573685 -0.008661607901296416 -0.0006520059422772636 -0.010564637615468666 0.0 0.0
0.0 0.015957371157640246 0.01184271645702514 -0.011147817620429852 -0.0006948988365952815 -0.012347809774471996 0.0 0.0
0.0 0.01966461131079434 0.014830436870298374 -0.014098905373422005 -0.0007315314968763719 -0.014050649545546636 0.0 0.0
0.0 0.023906892481416576 0.018350798304518325 -0.017581592999648562 -0.0007692053048697715 -0.01536687212443646 0.0 0.0
0.0 0.02864238697456018 0.022483774792218976 -0.02168165300383989 -0.0008021217883791003 -0.0158937982915403 0.0 0.0
0.0 0.03421342439400117 0.027528375952544176 -0.02672393656853612 -0.0008044393840080517 -0.015419325938851128 0.0 0.0
0.0 0.04059816834722922 0.03377188630386199 -0.032912340230619015 -0.0008595460732429771 -0.011968221225598005 0.0 0.0
0.0 0.04059816834722966 0.033771886303860375 -0.03291234023061704 -0.0008595460732433448 0.011968221225624236 0.0 0.0
0.0 0.034213424393998756 0.027528375952537487 -0.026723936568528985 -0.0008044393840084909 0.015419325938890331 0.0 0.0
0.0 0.028642386974554047 0.022483774792209248 -0.02168165300383031 -0.0008021217883789308 0.015893798291567916 0.0 0.0
0.0 0.023906892481408003 0.0183507983045093 -0.017581592999640183 -0.0007692053048691091 0.015366872124443558 0.0 0.0
0.0 0.01966461131078012 0.014830436870287829 -0.014098905373411843 -0.0007315314968759858 0.014050649545536972 0.0 0.0
0.0 0.015957371157625185 0.011842716457014013 -0.011147817620418698 -0.0006948988365953106 0.012347809774461357 0.0 0.0
0.0 0.012734613926533914 0.00931361384356429 -0.0086616079012873 -0.0006520059422769954 0.010564637615464802 0.0 0.0
0.0 0.009917959743151832 0.007137986867798788 -0.006541127134518391 -0.0005968597332803967 0.008784844708734103 0.0 0.0
0.0 0.007424082195568494 0.0052264496101168565 -0.004701431331581427 -0.0005250182785354295 0.007010526803729214 0.0 0.0
0.0 0.005142747367849993 0.0035226540824375464 -0.003091092694925758 -0.00043156138751178726 0.005276092428204081 0.0 0.0
0.0 0.0032018172988758386 0.002034647354599313 -0.001730864591373755 -0.0003037827632255573 0.003587593987640017 0.0 0.0
0.0 0.0016505402068217297 0.0009112231325113004 -0.0007500999313946342 -0.0001611232011166663 0.0020785544335478498 0.0 0.0
0.0 0.0006493909474203057 0.00028967462394748425 -0.0002332844697907328 -5.639015415675129e-05 0.0009460442556806204 0.0 0.0
0.0 0.00024050352290901504 7.446010425043211e-05 -5.971911883339469e-05 -1.4740985417037394e-05 0.00033520565643026354 0.0 0.0
0.0 7.569597875052304e-05 1.623034952945323e-05 -1.2931675271671254e-05 -3.2986742577819664e-06 9.291213745946556e-05 0.0 0.0
0.0 9.94834338625154e-06 1.468083507296478e-06 -1.119069534461989e-06 -3.4901397283449144e-07 1.0930544309838233e-05 0.0 0.0
0.0 1.3942118121365584e-06 -1.7202479827439693e-08 1.1633862327329383e-08 5.568617500112952e-09 -2.8828794930130727e-07 0.0 0.0
0.0 8.12960351106587e-07 -9.729788137991681e-10 -5.062304704954294e-10 1.479209284295063e-09 -1.667685109932312e-07 0.0 0.0
0.0 2.0717276240791394e-06 -6.165853431574411e-09 1.4791626278552993e-08 -8.625772846978897e-09 -4.3678587193397695e-07 0.0 0.0
0.0 0.0002734805032165948 0.00014225676860162183 -0.00019349793896237245 5.124117036075044e-05 0.00023949059599222424 0.0 0.0
0.0 6.016106658930436e-05 2.8075601680392553e-05 -3.995028650300434e-05 1.1874684822611791e-05 -5.019562775962849e-05 0.0 0.0
0.0 2.3409661729961703e-06 6.496376963596438e-10 1.3091562580591183e-08 -1.3741200276949575e-08 4.872012716183131e-07 0.0 0.0
0.0 8.28283976103979e-07 8.757322001854407e-09 -7.994197467743662e-09 -7.631245341108108e-10 1.6872916499049268e-07 0.0 0.0
0.0 1.5109680052953086e-06 -1.5836288341471843e-08 1.36656732248834e-08 2.170615116589038e-09 -6.119319768265129e-07 0.0 0.0
0.0 1.2667282857679427e-05 3.040671796949237e-07 -2.005828025023645e-07 -1.034843771925655e-07 -1.123515926209127e-05 0.0 0.0
0.0 7.106363546047515e-05 5.002072863073985e-06 -3.912382035720712e-06 -1.0896908273532608e-06 -9.750985756167856e-05 0.0 0.0
0.0 0.0002019409385424165 2.1741849667332807e-05 -1.7398897930832558e-05 -4.34295173650027e-06 -0.0003139612802828248 0.0 0.0
0.0 0.0004330878749414485 5.774600986360005e-05 -4.647602312609091e-05 -1.1269986737509064e-05 -0.0006472180853336702 0.0 0.0
0.0 0.0007506369159867679 0.0001395467548269956 -0.00011285000421234161 -2.669675061465399e-05 -0.001205371833683533 0.0 0.0
0.0 0.0013181605598517688 0.0003063678315676947 -0.0002482591832859644 -5.810864828173024e-05 -0.0020265978503321925 0.0 0.0
0.0 0.0020098057707877794 0.0006207975374576223 -0.0005015382632172277 -0.00011925927424039448 -0.003149722837523994 0.0 0.0
0.0 0.0029512350960313534 0.0010320182008563582 -0.0008394963217650076 -0.00019252187909135054 -0.004409344933680696 0.0 0.0
0.0 0.004071303818004644 0.0015500887012791255 -0.001283979101262682 -0.00026610960001644294 -0.005828757527695545 0.0 0.0
0.0 0.005431405710835617 0.002202025386316069 -0.0018714305703641622 -0.00033059481595190687 -0.007406074573062303 0.0 0.0
0.0 0.007020858603923053 0.00304230714416809 -0.0026581789616848686 -0.0003841281824832207 -0.009125527916358152 0.0 0.0
0.0 0.008950930209398585 0.004199965397743549 -0.0037713042328160976 -0.0004286611649274491 -0.010876454450232331 0.0 0.0
0.0 0.011260501658761073 0.005894747610253279 -0.005424290915517259 -0.00047045669473601753 -0.01233782325998138 0.0 0.0
0.0 0.014031842637814346 0.008346380479134895 -0.007825768293125143 -0.0005206121860097491 -0.012952563040005567 0.0 0.0
0.0 0.01767265989523746 0.011813973119464371 -0.01126707122297068 -0.0005469018964936879 -0.01256222890509978 0.0 0.0
0.0 0.023182830218139654 0.017251731546827118 -0.01673186482059663 -0.0005198667262304913 -0.011342767974744263 0.0 0.0
0.0 0.023182830218141798 0.017251731546826934 -0.01673186482059643 -0.0005198667262304951 0.01134276797476421 0.0 0.0
0.0 0.017672659895242155 0.011813973119463637 -0.01126707122297017 -0.0005469018964934665 0.012562228905130108 0.0 0.0
0.0 0.014031842637812186 0.00834638047913006 -0.007825768293120445 -0.0005206121860096142 0.012952563040021889 0.0 0.0
0.0 0.01126050165875431 0.005894747610248857 -0.005424290915512845 -0.00047045669473600924 0.01233782325997907 0.0 0.0
0.0 0.008950930209390782 0.004199965397740203 -0.0037713042328129326 -0.0004286611649272692 0.010876454450222697 0.0 0.0
0.0 0.007020858603913797 0.0030423071441631846 -0.0026581789616802387 -0.00038412818248294517 0.00912552791634931 0.0 0.0
0.0 0.005431405710830118 0.0022020253863139017 -0.0018714305703621764 -0.00033059481595172505 0.00740607457305602 0.0 0.0
0.0 0.004071303818000653 0.001550088701278035 -0.0012839791012619428 -0.0002661096000160921 0.005828757527689839 0.0 0.0
0.0 0.002951235096024731 0.0010320182008541703 -0.0008394963217632102 -0.0001925218790909601 0.004409344933671988 0.0 0.0
0.0 0.002009805770780874 0.0006207975374553332 -0.0005015382632153436 -0.00011925927423998926 0.003149722837513467 0.0 0.0
0.0 0.0013181605598472518 0.00030636783156692604 -0.0002482591832852929 -5.810864828163338e-05 0.0020265978503256187 0.0 0.0
0.0 0.0007506369159844754 0.00013954675482654176 -0.00011285000421201293 -2.669675061452871e-05 0.0012053718336798476 0.0 0.0
0.0 0.00043308787494014206 5.774600986340713e-05 -4.6476023125942154e-05 -1.1269986737464953e-05 0.0006472180853315224 0.0 0.0
0.0 0.0002019409385404688 2.1741849667211613e-05 -1.739889793071732e-05 -4.342951736494275e-06 0.00031396128028109453 0.0 0.0
0.0 7.106363545929183e-05 5.0020728630185046e-06 -3.912382035675442e-06 -1.0896908273430644e-06 9.750985756054417e-05 0.0 0.0
0.0 1.2667282857240893e-05 3.0406717969944363e-07 -2.0058280250463884e-07 -1.0348437719480815e-07 1.1235159262309507e-05 0.0 0.0
0.0 1.510968005207192e-06 -1.583628835516157e-08 1.3665673241014955e-08 2.1706151141465295e-09 6.119319776815266e-07 0.0 0.0
0.0 8.282839756553083e-07 8.757321996808003e-09 -7.99419746324245e-09 -7.631245335657651e-10 -1.687291648967851e-07 0.0 0.0
0.0 2.340966172321822e-06 6.496376968874008e-10 1.3091562575233056e-08 -1.3741200272117913e-08 -4.87201271473837e-07 0.0 0.0
0.0 6.0161066588233864e-05 2.8075601680280914e-05 -3.9950286502835496e-05 1.1874684822554533e-05 5.0195627759573426e-05 0.0 0.0
0.0 3.399534257683731e-06 6.225534663434332e-07 -9.000417767154043e-07 2.774883103719643e-07 -1.286483939693774e-06 0.0 0.0
0.0 2.025358629458305e-06 -1.2922264305201703e-09 7.477269521909359e-09 -6.18504309138433e-09 1.9360138858031158e-07 0.0 0.0
0.0 1.5770750577890814e-06 -7.278756365760228e-08 5.870054186129735e-08 1.4087021796306246e-08 -7.678840368629489e-07 0.0 0.0
0.0 3.42764720361462e-06 -2.7873927397712924e-07 2.4080698278655316e-07 3.793229119057625e-08 -3.209910587490732e-06 0.0 0.0
0.0 1.682637276308363e-05 -1.1265797001115758e-06 9.841805626444773e-07 1.42399137467108e-07 -1.6565617131515485e-05 0.0 0.0
0.0 7.704705442615229e-05 -6.5639238616602164e-06 5.399763107401525e-06 1.1641607542586857e-06 -9.946577709664755e-05 0.0 0.0
0.0 0.00020331706259351536 -2.2935906524576623e-05 1.8503699657012304e-05 4.432206867564305e-06 -0.00031638116049565113 0.0 0.0
0.0 0.00043328152231728213 -5.7912749924907245e-05 4.660723066770346e-05 1.1305519257203725e-05 -0.0006486674261539467 0.0 0.0
0.0 0.0007505817001059748 -0.00013929538684429133 0.00011263256172113963 2.6662825123151597e-05 -0.0012058937978453085 0.0 0.0
0.0 0.0013167418044685794 -0.0003056724405459557 0.0002475873591266669 5.808508141928882e-05 -0.002025200698724687 0.0 0.0
0.0 0.00201739238722118 -0.0006197172392702907 0.0005013596906130268 0.0001183575486572637 -0.0031474411989551488 0.0 0.0
0.0 0.002959360068631952 -0.001044536808617243 0.0008517668303691353 0.00019276997824810757 -0.004415809112177722 0.0 0.0
0.0 0.004103014614284811 -0.0015889694558748409 0.0013210417715158816 0.00026792768435895844 -0.005841290289464056 0.0 0.0
0.0 0.005472196043777972 -0.002254265093273385 0.0019173694310120216 0.00033689566226136286 -0.00741356688367469 0.0 0.0
0.0 0.0069505289540881905 -0.002960487480996047 0.0025612932397768746 0.00039919424121917166 -0.009121267827894386 0.0 0.0
0.0 0.008439766687784834 -0.003516577154903799 0.003062274258227118 0.000454302896676676 -0.010927683917549554 0.0 0.0
0.0 0.009648776224738644 -0.0036134207768803096 0.00311447663492202 0.0004989441419582907 -0.0128222303417733 0.0 0.0
0.0 0.010425378046650852 -0.0029704889758450778 0.002440868080833712 0.0005296208950113653 -0.014839858329149018 0.0 0.0
0.0 0.01071556108444668 -0.0016256386282560405 0.0011517765867985127 0.00047386204145752786 -0.016584475897881024 0.0 0.0
0.0 0.01034367740240447 0.002415011902910828 -0.002498854051553215 8.38421486423856e-05 -0.015207911385116499 0.0 0.0
0.0 0.010343677402407731 0.0024150119029104767 -0.0024988540515528197 8.384214864234554e-05 0.01520791138512679 0.0 0.0
0.0 0.01071556108445061 -0.0016256386282564794 0.001151776586799063 0.00047386204145741516 0.016584475897891415 0.0 0.0
0.0 0.010425378046648554 -0.0029704889758442334 0.0024408680808332213 0.0005296208950110106 0.014839858329150642 0.0 0.0
0.0 0.009648776224728615 -0.0036134207768747303 0.0031144766349166355 0.0004989441419580929 0.012822230341765866 0.0 0.0
0.0 0.008439766687774509 -0.0035165771548985106 0.0030622742582221674 0.00045430289667634034 0.010927683917536873 0.0 0.0
0.0 0.00695052895407932 -0.002960487480990759 0.0025612932397719368 0.00039919424121882124 0.009121267827886848 0.0 0.0
0.0 0.005472196043770316 -0.002254265093269458 0.0019173694310086413 0.0003368956622608155 0.007413566883666741 0.0 0.0
0.0 0.004103014614277725 -0.0015889694558709458 0.0013210417715124908 0.0002679276843584541 0.005841290289457551 0.0 0.0
0.0 0.002959360068623333 -0.0010445368086132243 0.0008517668303659455 0.00019276997824727875 0.004415809112168949 0.0 0.0
0.0 0.002017392387213975 -0.0006197172392669841 0.0005013596906102893 0.00011835754865669502 0.003147441198945492 0.0 0.0
0.0 0.0013167418044629357 -0.0003056724405441271 0.0002475873591251103 5.8085081419016796e-05 0.0020252006987176857 0.0 0.0
0.0 0.0007505817001035362 -0.0001392953868435615 0.0001126325617205223 2.6662825123039213e-05 0.0012058937978418217 0.0 0.0
0.0 0.00043328152231625686 -5.7912749924672786e-05 4.660723066749889e-05 1.1305519257173878e-05 0.0006486674261528479 0.0 0.0
0.0 0.0002033170625914377 -2.2935906524417615e-05 1.850369965690458e-05 4.432206867513031e-06 0.00031638116049353417 0.0 0.0
0.0 7.704705442467367e-05 -6.563923861596324e-06 5.399763107351547e-06 1.1641607542447853e-06 9.946577709571752e-05 0.0 0.0
0.0 1.6826372762667614e-05 -1.1265797001447507e-06 9.841805626729072e-07 1.4239913747184002e-07 1.6565617132013035e-05 0.0 0.0
0.0 3.427647203506966e-06 -2.78739274043269e-07 2.4080698284393117e-07 3.793229119933823e-08 3.2099105882420975e-06 0.0 0.0
0.0 1.5770750577041276e-06 -7.278756374650989e-08 5.8700541936671506e-08 1.4087021809838815e-08 7.678840378822615e-07 0.0 0.0
0.0 2.025358628868215e-06 -1.2922264453200035e-09 7.477269521865637e-09 -6.185043076540741e-09 -1.9360138807637216e-07 0.0 0.0
0.0 3.399534257093507e-06 6.225534664742668e-07 -9.000417769034359e-07 2.7748831042917194e-07 1.2864839399925762e-06 0.0 0.0
0.0 0.0 0.0 0.0 0.0 0.0 0.0 0.0
0.0 8.419826137859035e-07 9.033041809134973e-10 4.8473534385352e-09 -5.750657619450235e-09 6.311023710661662e-08 0.0 0.0
0.0 2.9380265869385635e-06 -1.83325784147268e-07 1.5027632568747113e-07 3.3049458459792685e-08 -1.3399109017729545e-06 0.0 0.0
0.0 5.875683381306076e-06 -1.7205438947312126e-07 1.616877769136534e-07 1.0366612559481353e-08 -1.4558655722196957e-06 0.0 0.0
0.0 2.2368961172653333e-05 -4.191286879249423e-06 3.4972151721845623e-06 6.940717070648697e-07 -2.546752821013864e-05 0.0 0.0
0.0 8.72113742493909e-05 -2.0938512375174266e-05 1.6883740273896308e-05 4.054772101277931e-06 -0.0001113527727025254 0.0 0.0
0.0 0.0002505557976820769 -7.674803401582177e-05 6.171383163630879e-05 1.5034202379512995e-05 -0.00034160461657372883 0.0 0.0
0.0 0.0006532591178574147 -0.00029121431801094346 0.0002345410544289114 5.667326358203205e-05 -0.0009504554236109214 0.0 0.0
0.0 0.001648143211280986 -0.0009102174825801264 0.0007491966365950355 0.00016102084598509068 -0.002078043849539791 0.0 0.0
0.0 0.0031989630961480027 -0.0020331396725310467 0.0017296000600775436 0.00030353961245350254 -0.0035858102628544193 0.0 0.0
0.0 0.005145804027321845 -0.0035257384728230525 0.003094687412516689 0.00043105106030636207 -0.005276998011390505 0.0 0.0
0.0 0.007441770414178619 -0.00524504576103138 0.004720781157974833 0.0005242646030565504 -0.007010204670223807 0.0 0.0
0.0 0.00995976870727999 -0.007184965276916222 0.006588166920249897 0.0005967983566663245 -0.00876849112907788 0.0 0.0
0.0 0.012781107744581893 -0.00936812481358412 0.008711115433667307 0.0006570093799168166 -0.010534653463587305 0.0 0.0
0.0 0.015864704346173757 -0.011740447332828086 0.011028542001150185 0.0007119053316778964 -0.012383451354612725 0.0 0.0
0.0 0.019000092423048405 -0.014088061307852933 0.013324112811919125 0.0007639484959338073 -0.01440730687072364 0.0 0.0
0.0 0.021825350478153885 -0.016012898167277873 0.015202698307240168 0.0008101998600377103 -0.016671784867467798 0.0 0.0
0.0 0.023738164671463793 -0.016987814110580333 0.016144527974103873 0.0008432861364764718 -0.019082856668040344 0.0 0.0
0.0 0.023203304710904236 -0.015995951059946358 0.015057781776711014 0.0009381692832353323 -0.020050216771184487 0.0 0.0
0.0 0.01794647960268045 -0.010733269767681767 0.009722278589509643 0.0010109911781721191 -0.017441281020740825 0.0 0.0
0.0 0.017946479602688338 -0.01073326976768323 0.009722278589510795 0.0010109911781724349 0.01744128102076385 0.0 0.0
0.0 0.0232033047109115 -0.01599595105994589 0.015057781776710494 0.0009381692832353851 0.020050216771216225 0.0 0.0
0.0 0.02373816467145926 -0.016987814110572617 0.016144527974096178 0.000843286136476434 0.019082856668058486 0.0 0.0
0.0 0.02182535047814057 -0.016012898167265692 0.015202698307228382 0.0008101998600373075 0.016671784867467968 0.0 0.0
0.0 0.019000092423029902 -0.014088061307838268 0.013324112811904779 0.0007639484959334913 0.01440730687071198 0.0 0.0
0.0 0.015864704346156326 -0.011740447332814354 0.011028542001136912 0.0007119053316774404 0.012383451354602027 0.0 0.0
0.0 0.012781107744566152 -0.009368124813572026 0.008711115433655476 0.000657009379916551 0.010534653463576932 0.0 0.0
0.0 0.009959768707262938 -0.007184965276901813 0.006588166920235975 0.0005967983566658344 0.008768491129070136 0.0 0.0
0.0 0.007441770414159778 -0.005245045761017265 0.00472078115796145 0.0005242646030558145 0.007010204670210039 0.0 0.0
0.0 0.005145804027304598 -0.0035257384728108916 0.00309468741250541 0.0004310510603054813 0.0052769980113756216 0.0 0.0
0.0 0.0031989630961325112 -0.0020331396725205065 0.0017296000600681184 0.00030353961245238787 0.0035858102628397405 0.0 0.0
0.0 0.0016481432112722763 -0.0009102174825742547 0.0007491966365900232 0.00016102084598423172 0.0020780438495307933 0.0 0.0
0.0 0.000653259117854237 -0.0002912143180092324 0.00023454105442755196 5.667326358168049e-05 0.0009504554236072933 0.0 0.0
0.0 0.00025055579767968084 -7.674803401526294e-05 6.171383163586283e-05 1.5034202379400094e-05 0.00034160461657146323 0.0 0.0
0.0 8.721137424762227e-05 -2.0938512375005293e-05 1.6883740273758076e-05 4.054772101247198e-06 0.00011135277270163607 0.0 0.0
0.0 2.236896117197815e-05 -4.191286879279132e-06 3.4972151722092236e-06 6.940717070698926e-07 2.5467528210314835e-05 0.0 0.0
0.0 5.87568338112783e-06 -1.7205438956172228e-07 1.6168777698849125e-07 1.0366612573234846e-08 1.4558655727978783e-06 0.0 0.0
0.0 2.938026586419987e-06 -1.8332578426616242e-07 1.502763257847029e-07 3.304945848145959e-08 1.3399109026887037e-06 0.0 0.0
0.0 8.41982613401024e-07 9.033041602069861e-10 4.84735343518813e-09 -5.750657595394763e-09 -6.31102365140633e-08 0.0 0.0
0.0 0.0 0.0 0.0 0.0 0.0 0.0 0.0
0.0 0.0 0.0 0.0 0.0 0.0 0.0 0.0
0.0 9.659038647247042e-07 1.536493391610939e-08 -9.441890028047111e-09 -5.923043888061976e-09 1.9697054502569396e-07 0.0 0.0
0.0 3.2111389861552194e-06 8.159510252703991e-08 -6.454436839333061e-08 -1.705073413371301e-08 4.871161405127574e-07 0.0 0.0
0.0 8.635396599728744e-06 -2.16050094573894e-07 1.6971567024189263e-07 4.6334424332009704e-08 -7.871828164138589e-07 0.0 0.0
0.0 2.9328149973927856e-05 -8.111354348275734e-06 6.588354129090656e-06 1.5230002191850952e-06 -2.9427309709171064e-05 0.0 0.0
0.0 0.00011269801222555649 -4.267694690066955e-05 3.4364115892954235e-05 8.312831007715287e-06 -0.00013169340017332633 0.0 0.0
0.0 0.00044669358989064855 -0.0002355097505414807 0.00018984053320178775 4.566921733969294e-05 -0.0005529153729989644 0.0 0.0
0.0 0.001467356739769989 -0.0009589463103377836 0.0007909616404043621 0.00016798466993342163 -0.0016253001081689155 0.0 0.0
0.0 0.0034388361134984036 -0.0024460108761809943 0.0020992247126531845 0.00034678616352780856 -0.0032453720761810617 0.0 0.0
0.0 0.006044075014706556 -0.004600767074335622 0.004095053393664434 0.0005057136806711872 -0.005225363154018531 0.0 0.0
0.0 0.009316256198275877 -0.007193161633201196 0.006578775801685489 0.0006143858315157101 -0.0073393899932751045 0.0 0.0
0.0 0.012852704393635995 -0.010118996860198577 0.009427662182200047 0.0006913346779985276 -0.00940360907325389 0.0 0.0
0.0 0.01681296924768652 -0.013389634020789484 0.012636771871028105 0.0007528621497613766 -0.01140545386780768 0.0 0.0
0.0 0.021278035467643397 -0.017069988715250346 0.0162612192240381 0.000808769491212241 -0.013427828733000177 0.0 0.0
0.0 0.026287547077683233 -0.021138615418254375 0.02027260826243435 0.0008660071558200238 -0.01565057166056332 0.0 0.0
0.0 0.031530499906825715 -0.025367090292701577 0.024441019807230846 0.0009260704854707168 -0.018328802768484906 0.0 0.0
0.0 0.03659774218953221 -0.029257484436073053 0.028272277844672046 0.0009852065914009956 -0.021650118518221878 0.0 0.0
0.0 0.040144782685191296 -0.03191356660991991 0.03085280167667695 0.0010607649332429628 -0.025025016324085554 0.0 0.0
0.0 0.04038116948573235 -0.03165036027897148 0.03049434869939513 0.001156011579576349 -0.02670625060258734 0.0 0.0
0.0 0.032833385473277465 -0.025284726344764967 0.02392659123983052 0.0013581351049344421 -0.023021131397897767 0.0 0.0
0.0 0.03283338547328473 -0.02528472634476528 0.023926591239830895 0.0013581351049343827 0.023021131397928857 0.0 0.0
0.0 0.0403811694857358 -0.031650360278966935 0.030494348699390862 0.0011560115795760596 0.026706250602627598 0.0 0.0
0.0 0.04014478268518097 -0.03191356660990593 0.030852801676663058 0.0010607649332428476 0.02502501632411128 0.0 0.0
0.0 0.0365977421895104 -0.029257484436052653 0.028272277844652385 0.0009852065914002903 0.021650118518224848 0.0 0.0
0.0 0.031530499906796815 -0.025367090292677308 0.02444101980720684 0.0009260704854704702 0.0183288027684734 0.0 0.0
0.0 0.02628754707765579 -0.021138615418231893 0.020272608262411968 0.0008660071558199178 0.01565057166054998 0.0 0.0
0.0 0.021278035467615242 -0.01706998871522717 0.016261219224014953 0.0008087694912122148 0.013427828732986851 0.0 0.0
0.0 0.01681296924765931 -0.01338963402076659 0.01263677187100529 0.0007528621497612956 0.011405453867796286 0.0 0.0
0.0 0.012852704393608933 -0.010118996860176655 0.009427662182178385 0.000691334677998269 0.009403609073238332 0.0 0.0
0.0 0.009316256198250987 -0.007193161633181797 0.00657877580166668 0.0006143858315151155 0.007339389993256581 0.0 0.0
0.0 0.006044075014686031 -0.004600767074320182 0.004095053393649725 0.0005057136806704569 0.005225363154002214 0.0 0.0
0.0 0.00343883611348469 -0.0024460108761703916 0.002099224712643468 0.00034678616352692293 0.0032453720761707093 0.0 0.0
0.0 0.0014673567397617661 -0.0009589463103318959 0.0007909616403994355 0.00016798466993246062 0.0016253001081618515 0.0 0.0
0.0 0.0004466935898870556 -0.00023550975053994076 0.00018984053320054148 4.56692173393992e-05 0.000552915372995813 0.0 0.0
0.0 0.00011269801222394253 -4.267694690051674e-05 3.436411589283189e-05 8.312831007684802e-06 0.00013169340017270834 0.0 0.0
0.0 2.932814997302913e-05 -8.111354348384755e-06 6.588354129179636e-06 1.5230002192050825e-06 2.9427309709568045e-05 0.0 0.0
0.0 8.635396598946891e-06 -2.1605009467358935e-07 1.6971567032261696e-07 4.633442435096067e-08 7.871828168294498e-07 0.0 0.0
0.0 3.211138985584485e-06 8.159510242379211e-08 -6.45443683108494e-08 -1.7050734112936226e-08 -4.871161399392457e-07 0.0 0.0
0.0 9.659038644330307e-07 1.5364933911636078e-08 -9.441890025310556e-09 -5.923043886328447e-09 -1.969705449648645e-07 0.0 0.0
0.0 0.0 0.0 0.0 0.0 0.0 0.0 0.0
0.0 0.0 0.0 0.0 0.0 0.0 0.0 0.0
0.0 0.0 0.0 0.0 0.0 0.0 0.0 0.0
0.0 1.817951645792938e-06 7.671291400653151e-08 -6.204874947512021e-08 -1.466416453141539e-08 3.549267468841901e-07 0.0 0.0
0.0 8.003105354726216e-06 -1.0223101306805256e-06 8.551390498767303e-07 1.671710808037912e-07 -3.4733991281051937e-06 0.0 0.0
0.0 3.724775120036726e-05 -1.2631973384894814e-05 1.0277025607460766e-05 2.3549477774340803e-06 -3.252899215181261e-05 0.0 0.0
0.0 0.000191030567317054 -0.00010392630759471194 8.35237790075475e-05 2.0402528587164404e-05 -0.0002073969148836985 0.0 0.0
0.0 0.0009022849991479984 -0.000614217300841185 0.0005017271027258709 0.00011249019811531415 -0.0008951984190259344 0.0 0.0
0.0 0.002656804215850741 -0.0020011600531519096 0.0016987311678776018 0.0003024288852743075 -0.002248034368514216 0.0 0.0
0.0 0.005515732717267727 -0.004340869584119287 0.003846436585583689 0.000494432998535597 -0.004138130451363479 0.0 0.0
0.0 0.009216613404022318 -0.007443327199220933 0.006811817518013158 0.0006315096812077746 -0.00638518215586655 0.0 0.0
0.0 0.013577301366745615 -0.01108616422991681 0.010363503959070876 0.0007226602708459355 -0.008700678266615396 0.0 0.0
0.0 0.01848614587913269 -0.015189962092723483 0.014395467395426782 0.0007944946972966994 -0.010911771903389494 0.0 0.0
0.0 0.02398786879660416 -0.019791814465811297 0.018934983295680698 0.0008568311701305916 -0.013050904628617188 0.0 0.0
0.0 0.030128165394864837 -0.02498563480434099 0.024068662810104505 0.0009169719942364864 -0.015232954112639542 0.0 0.0
0.0 0.03704148178394989 -0.03078407313495385 0.029804252213197508 0.0009798209217563246 -0.017690523505578343 0.0 0.0
0.0 0.044493566610189064 -0.03695915621631092 0.035908543623027464 0.0010506125932834396 -0.02082120357426511 0.0 0.0
0.0 0.05167798102244465 -0.042835998380098925 0.04170276965675532 0.0011332287233435908 -0.02483065254150997 0.0 0.0
0.0 0.05705608677916556 -0.04704855693098872 0.04581653231588042 0.0012320246151082542 -0.02902735793654138 0.0 0.0
0.0 0.057622008730863594 -0.04722062657978775 0.04585240154189986 0.001368225037887858 -0.031223727005444485 0.0 0.0
0.0 0.04825191131955943 -0.03922902203959282 0.03764998154312821 0.0015790404964646258 -0.027925720669315666 0.0 0.0
0.0 0.048251911319563266 -0.03922902203959065 0.03764998154312573 0.0015790404964649155 0.027925720669349736 0.0 0.0
0.0 0.05762200873085948 -0.047220626579777485 0.045852401541889326 0.0013682250378881555 0.031223727005488346 0.0 0.0
0.0 0.05705608677915228 -0.047048556930971694 0.04581653231586438 0.0012320246151072845 0.029027357936573753 0.0 0.0
0.0 0.05167798102241737 -0.04283599838007333 0.04170276965673044 0.001133228723342871 0.024830652541516986 0.0 0.0
0.0 0.0444935666101507 -0.0369591562162778 0.0359085436229947 0.0010506125932830913 0.020821203574255414 0.0 0.0
0.0 0.03704148178391309 -0.030784073134922683 0.029804252213166845 0.0009798209217558337 0.01769052350556476 0.0 0.0
0.0 0.030128165394828987 -0.02498563480431064 0.02406866281007479 0.0009169719942358479 0.015232954112625548 0.0 0.0
0.0 0.023987868796566593 -0.019791814465779285 0.01893498329564902 0.000856831170130266 0.013050904628604587 0.0 0.0
0.0 0.01848614587909621 -0.015189962092692803 0.014395467395396547 0.0007944946972962515 0.010911771903372319 0.0 0.0
0.0 0.013577301366710435 -0.011086164229888144 0.010363503959042814 0.0007226602708453262 0.008700678266593834 0.0 0.0
0.0 0.009216613403993892 -0.0074433271991982495 0.006811817517991182 0.0006315096812070667 0.0063851821558464986 0.0 0.0
0.0 0.005515732717247609 -0.004340869584103157 0.0038464365855687276 0.0004944329985344305 0.004138130451351146 0.0 0.0
0.0 0.002656804215838431 -0.0020011600531423296 0.0016987311678691719 0.00030242888527315674 0.002248034368505485 0.0 0.0
0.0 0.000902284999141789 -0.0006142173008371278 0.0005017271027224907 0.00011249019811463683 0.000895198419020881 0.0 0.0
0.0 0.00019103056731445528 -0.00010392630759383547 8.352377900682756e-05 2.0402528587007944e-05 0.00020739691488201183 0.0 0.0
0.0 3.7247751199391236e-05 -1.263197338492434e-05 1.0277025607482338e-05 2.354947777441953e-06 3.2528992151895e-05 0.0 0.0
0.0 8.003105354030829e-06 -1.0223101308330934e-06 8.551390500005635e-07 1.671710808325221e-07 3.473399128597358e-06 0.0 0.0
0.0 1.8179516452039342e-06 7.671291398036889e-08 -6.204874945453973e-08 -1.4664164525830292e-08 -3.5492674676704203e-07 0.0 0.0
0.0 0.0 0.0 0.0 0.0 0.0 0.0 0.0
0.0 0.0 0.0 0.0 0.0 0.0 0.0 0.0
0.0 0.0 0.0 0.0 0.0 0.0 0.0 0.0
0.0 0.0 0.0 0.0 0.0 0.0 0.0 0.0
0.0 6.301117771691601e-07 3.177133557320747e-08 -2.5610055499987776e-08 -6.161280073216576e-09 1.139376708674144e-07 0.0 0.0
0.0 8.618131938677317e-06 2.0638278785803445e-07 -1.6570817696894764e-07 -4.067461088907568e-08 5.86561628679577e-07 0.0 0.0
0.0 5.758770151463995e-05 -1.9160258387644275e-05 1.54536360413521e-05 3.706622346292175e-06 -3.45479682760452e-05 0.0 0.0
0.0 0.00037534896752891404 -0.000255700915707316 0.00020643622939220166 4.9264686315114306e-05 -0.00034167209585126123 0.0 0.0
0.0 0.0016024072558466708 -0.0012190832742653029 0.0010138022319603297 0.0002052810423049728 -0.0012029677474203787 0.0 0.0
0.0 0.004075944509425099 -0.0032888225868301867 0.0028647950648256894 0.00042402752200449654 -0.002675183160528957 0.0 0.0
0.0 0.0077554023109142585 -0.006430700895981437 0.00583226066650293 0.0005984402294785066 -0.004689701067747534 0.0 0.0
0.0 0.012457767268334065 -0.010419173885425258 0.0097049757795837 0.0007141981058415539 -0.006985983293144998 0.0 0.0
0.0 0.01798059779773995 -0.015085914067633877 0.014285809119445632 0.0008001049481882452 -0.009304906337664544 0.0 0.0
0.0 0.02423184700958119 -0.020370737775687903 0.019496719164175103 0.0008740186115127967 -0.011543010443317486 0.0 0.0
0.0 0.031234488484492753 -0.02631487999424381 0.025372637550586667 0.000942242443657128 -0.013725020372885232 0.0 0.0
0.0 0.03912455375207012 -0.03302623726683909 0.03201809885249388 0.0010081384143451966 -0.01594059582048054 0.0 0.0
0.0 0.04803259863656579 -0.04056233364535492 0.03948460786826681 0.0010777257770881198 -0.018434442610241485 0.0 0.0
0.0 0.05749272464946592 -0.048688145892410724 0.047527338427908836 0.0011608074645018678 -0.021628197956767733 0.0 0.0
0.0 0.06697622178314983 -0.05651869096757482 0.05525377358109265 0.001264917386482176 -0.025805734895533085 0.0 0.0
0.0 0.07399139001852212 -0.062191010913124775 0.060796824739221975 0.0013941861739028044 -0.030426858969918882 0.0 0.0
0.0 0.0747442918268259 -0.06256217135697832 0.06100621753654678 0.0015559538204314998 -0.03344922575730157 0.0 0.0
0.0 0.06375403997826361 -0.05290202825387483 0.05115049702594049 0.0017515312279343508 -0.03231231348146764 0.0 0.0
0.0 0.06375403997826483 -0.052902028253870595 0.05115049702593594 0.0017515312279346405 0.03231231348150469 0.0 0.0
0.0 0.07474429182681842 -0.06256217135696568 0.061006217536534436 0.0015559538204312229 0.03344922575734716 0.0 0.0
0.0 0.07399139001850105 -0.06219101091310185 0.060796824739199666 0.001394186173902196 0.030426858969953514 0.0 0.0
0.0 0.06697622178311127 -0.05651869096753994 0.055253773581058 0.0012649173864819091 0.025805734895539306 0.0 0.0
0.0 0.057492724649420714 -0.04868814589237164 0.04752733842786956 0.0011608074645020564 0.021628197956760357 0.0 0.0
0.0 0.04803259863652 -0.04056233364531554 0.03948460786822769 0.0010777257770878841 0.018434442610229987 0.0 0.0
0.0 0.039124553752026225 -0.0330262372668014 0.03201809885245672 0.0010081384143446823 0.01594059582046658 0.0 0.0
0.0 0.031234488484449742 -0.026314879994206508 0.02537263755055002 0.000942242443656482 0.013725020372873754 0.0 0.0
0.0 0.02423184700953667 -0.020370737775649964 0.0194967191641375 0.0008740186115124563 0.011543010443300451 0.0 0.0
0.0 0.01798059779769992 -0.015085914067600417 0.014285809119412534 0.0008001049481878825 0.009304906337644183 0.0 0.0
0.0 0.012457767268299419 -0.01041917388539634 0.009704975779555319 0.000714198105841029 0.006985983293124221 0.0 0.0
0.0 0.007755402310887232 -0.006430700895958906 0.005832260666480999 0.0005984402294779091 0.004689701067733442 0.0 0.0
0.0 0.0040759445094068585 -0.0032888225868152464 0.0028647950648118094 0.00042402752200343803 0.002675183160518591 0.0 0.0
0.0 0.001602407255836972 -0.0012190832742579982 0.001013802231954151 0.00020528104230384682 0.001202967747414109 0.0 0.0
0.0 0.0003753489675248221 -0.0002557009157050582 0.0002064362293903621 4.926468631469612e-05 0.0003416720958484557 0.0 0.0
0.0 5.758770151378516e-05 -1.9160258387838293e-05 1.5453636041501805e-05 3.7066223463363866e-06 3.454796827637818e-05 0.0 0.0
0.0 8.618131938057316e-06 2.0638278771747208e-07 -1.6570817685699667e-07 -4.067461086046485e-08 -5.865616283445785e-07 0.0 0.0
0.0 6.301117768796378e-07 3.177133555832444e-08 -2.5610055487985994e-08 -6.161280070339225e-09 -1.1393767081387647e-07 0.0 0.0
0.0 0.0 0.0 0.0 0.0 0.0 0.0 0.0
0.0 0.0 0.0 0.0 0.0 0.0 0.0 0.0
0.0 0.0 0.0 0.0 0.0 0.0 0.0 0.0
0.0 0.0 0.0 0.0 0.0 0.0 0.0 0.0
0.0 9.159772724021529e-07 5.630253744311479e-08 -4.536700834069255e-08 -1.0935529102421052e-08 1.5681455061216043e-07 0.0 0.0
0.0 5.354946795681747e-06 -8.907250469413368e-07 7.14003233651161e-07 1.7672181329021725e-07 -1.6134208622970116e-06 0.0 0.0
0.0 9.321311080951231e-05 -5.168440252452279e-05 4.1427307682830096e-05 1.025709484169271e-05 -6.727154233617964e-05 0.0 0.0
0.0 0.0007132217039152932 -0.0005289264858341746 0.0004302308123031116 9.869567353106328e-05 -0.0004797427339365928 0.0 0.0
0.0 0.0025286135231688146 -0.002009048476292015 0.0017043921712917866 0.00030465630500022846 -0.0013927486404667533 0.0 0.0
0.0 0.0055892604759657976 -0.004748035780791678 0.00422611450481157 0.0005219212759801092 -0.0028804289915412137 0.0 0.0
0.0 0.010083664024953578 -0.008620516858966618 0.007949926504565075 0.000670590354401544 -0.004826033106968082 0.0 0.0
0.0 0.01577258085781155 -0.0134612959590872 0.012685574092609116 0.0007757218664780928 -0.006993097378798521 0.0 0.0
0.0 0.02245766532730714 -0.01914792348028082 0.01828533249954889 0.0008625909807319128 -0.0092100682834822 0.0 0.0
0.0 0.030034546659475827 -0.02562160304153767 0.024679587150377744 0.0009420158911599061 -0.01135267460739917 0.0 0.0
0.0 0.038617108468014985 -0.032919885156704756 0.03190208586234683 0.0010177992943579245 -0.01345675444920085 0.0 0.0
0.0 0.048134330862845374 -0.04115236642937484 0.040061466688402485 0.0010908997409723505 -0.015615066903811656 0.0 0.0
0.0 0.05890863270074768 -0.0503894798930361 0.049222560220192016 0.0011669196728440723 -0.01793192972771598 0.0 0.0
0.0 0.07069166465311245 -0.060397585992018776 0.05913643464725958 0.0012611513447591976 -0.0207431173084016 0.0 0.0
0.0 0.08199232138804273 -0.07012771027841913 0.06874160836970446 0.0013861019087146465 -0.02457242804317402 0.0 0.0
0.0 0.09043414018708812 -0.07721128630550379 0.07566765930181815 0.0015436270036855932 -0.029347773032092753 0.0 0.0
0.0 0.09157952077684679 -0.0778022971855762 0.0760807560411853 0.0017215411443908517 -0.03382373060875648 0.0 0.0
0.0 0.07960872009462323 -0.06668314247271825 0.06477559134572047 0.0019075511269977617 -0.03647482053935219 0.0 0.0
0.0 0.07960872009462176 -0.0666831424727122 0.06477559134571434 0.0019075511269978384 0.036474820539388754 0.0 0.0
0.0 0.09157952077683205 -0.07780229718555845 0.07608075604116765 0.0017215411443907366 0.03382373060880172 0.0 0.0
0.0 0.09043414018706022 -0.07721128630547587 0.07566765930179074 0.0015436270036850936 0.029347773032127177 0.0 0.0
0.0 0.0819923213880012 -0.07012771027838165 0.06874160836966778 0.001386101908713844 0.02457242804318272 0.0 0.0
0.0 0.07069166465306417 -0.06039758599197606 0.05913643464721838 0.0012611513447576728 0.020743117308398513 0.0 0.0
0.0 0.05890863270069684 -0.050389479892991494 0.049222560220148606 0.0011669196728428736 0.017931929727708917 0.0 0.0
0.0 0.048134330862793395 -0.041152366429329824 0.04006146668835804 0.0010908997409717765 0.015615066903799985 0.0 0.0
0.0 0.03861710846796303 -0.03291988515665953 0.03190208586230217 0.0010177992943573438 0.013456754449188542 0.0 0.0
0.0 0.03003454665942533 -0.025621603041493784 0.02467958715033453 0.0009420158911592483 0.011352674607385031 0.0 0.0
0.0 0.022457665327258985 -0.019147923480239824 0.018285332499508426 0.0008625909807314001 0.009210068283461902 0.0 0.0
0.0 0.01577258085777029 -0.013461295959052324 0.012685574092574765 0.0007757218664775481 0.006993097378778396 0.0 0.0
0.0 0.010083664024923196 -0.008620516858940386 0.007949926504539698 0.0006705903544006863 0.004826033106954898 0.0 0.0
0.0 0.005589260475944011 -0.004748035780772951 0.004226114504793961 0.0005219212759789877 0.002880428991531207 0.0 0.0
0.0 0.0025286135231556523 -0.0020090484762813805 0.0017043921712823528 0.000304656304999028 0.0013927486404599803 0.0 0.0
0.0 0.0007132217039083921 -0.0005289264858292458 0.0004302308122990375 9.869567353020824e-05 0.0004797427339325341 0.0 0.0
0.0 9.321311080783147e-05 -5.168440252411894e-05 4.142730768248477e-05 1.0257094841634167e-05 6.727154233558123e-05 0.0 0.0
0.0 5.354946795500856e-06 -8.907250472225991e-07 7.14003233876932e-07 1.7672181334564455e-07 1.613420862829466e-06 0.0 0.0
0.0 9.159772720464821e-07 5.630253742091469e-08 -4.5367008322703315e-08 -1.0935529098212496e-08 -1.5681455054918204e-07 0.0 0.0
0.0 0.0 0.0 0.0 0.0 0.0 0.0 0.0
0.0 0.0 0.0 0.0 0.0 0.0 0.0 0.0
0.0 0.0 0.0 0.0 0.0 0.0 0.0 0.0
0.0 0.0 0.0 0.0 0.0 0.0 0.0 0.0
0.0 0.0 0.0 0.0 0.0 0.0 0.0 0.0
0.0 4.8692210185099525e-06 -1.3616863331918514e-06 1.073171664045896e-06 2.8851466914597335e-07 -1.810521916670653e-06 0.0 0.0
0.0 0.00017755388920343235 -0.00011699457708678225 9.389684735581435e-05 2.3097729730967983e-05 -0.00010703633644400187 0.0 0.0
0.0 0.0012112658324692535 -0.0009344981733873564 0.0007697630521895228 0.0001647351211978342 -0.000573999672777532 0.0 0.0
0.0 0.0034219109295096236 -0.002968209925400184 0.0025681706553575996 0.00040003927004258555 -0.0014657964268162788 0.0 0.0
0.0 0.007206663868606282 -0.006297040781812722 0.005703606786554356 0.0005934339952583657 -0.0028092434270686165 0.0 0.0
0.0 0.012516915394906914 -0.010853214420367633 0.010129010025077182 0.0007242043952904482 -0.0045128580255537195 0.0 0.0
0.0 0.019141278981636096 -0.016539846984827602 0.015714402460787404 0.0008254445240402092 -0.006449738199462033 0.0 0.0
0.0 0.026964205238447857 -0.02324320500561134 0.02232727312305388 0.0009159318825574447 -0.008433706986596168 0.0 0.0
0.0 0.0359048864815541 -0.030912803353330996 0.02991025449919605 0.001002548854134934 -0.010357851342238699 0.0 0.0
0.0 0.04597932881082143 -0.03958191082266123 0.03849536957244791 0.0010865412502132966 -0.01227628194295448 0.0 0.0
0.0 0.05732439154007742 -0.04933179502083944 0.048162595005224705 0.0011692000156147205 -0.014239833384795812 0.0 0.0
0.0 0.06994385157398575 -0.060201798603213806 0.058948897899621586 0.0012529007035922265 -0.01623753207555922 0.0 0.0
0.0 0.08335997378942553 -0.07195520520506253 0.07060237290120708 0.001352832303855406 -0.018353501621920496 0.0 0.0
0.0 0.09673395750810725 -0.08347605525706589 0.08198155961564964 0.001494495641416248 -0.02120565988048079 0.0 0.0
0.0 0.10682834344400363 -0.09203176483138495 0.09035505184003409 0.0016767129913508236 -0.025787969714115237 0.0 0.0
0.0 0.10863243031407988 -0.09313065031196636 0.09125620590369675 0.0018744444082695933 -0.032389463226419134 0.0 0.0
0.0 0.09588408339256255 -0.08091123790736604 0.07885038555760485 0.002060852349761156 -0.04042471161036637 0.0 0.0
0.0 0.09588408339255987 -0.08091123790735907 0.07885038555759809 0.002060852349761013 0.04042471161040247 0.0 0.0
0.0 0.10863243031406081 -0.0931306503119459 0.09125620590367674 0.001874444408269144 0.03238946322646114 0.0 0.0
0.0 0.1068283434439645 -0.09203176483134873 0.09035505183999804 0.001676712991350613 0.02578796971414537 0.0 0.0
0.0 0.09673395750805588 -0.08347605525702051 0.08198155961560485 0.0014944956414156382 0.021205659880487226 0.0 0.0
0.0 0.08335997378936509 -0.07195520520500989 0.07060237290115486 0.0013528323038549974 0.01835350162191753 0.0 0.0
0.0 0.06994385157391958 -0.06020179860315672 0.05894889789956434 0.0012529007035923813 0.016237532075551918 0.0 0.0
0.0 0.05732439154001498 -0.04933179502078547 0.048162595005171095 0.0011692000156143315 0.014239833384786762 0.0 0.0
0.0 0.04597932881076106 -0.03958191082260875 0.038495369572396354 0.001086541250212405 0.012276281942942984 0.0 0.0
0.0 0.03590488648149563 -0.030912803353279852 0.029910254499145823 0.0010025488541340495 0.010357851342226738 0.0 0.0
0.0 0.026964205238391378 -0.023243205005562553 0.022327273123005524 0.0009159318825570163 0.00843370698657734 0.0 0.0
0.0 0.019141278981585866 -0.016539846984784383 0.015714402460744466 0.0008254445240399129 0.006449738199443382 0.0 0.0
0.0 0.01251691539486997 -0.01085321442033537 0.01012901002504543 0.0007242043952899387 0.004512858025541788 0.0 0.0
0.0 0.0072066638685800676 -0.006297040781789649 0.005703606786532125 0.0005934339952575224 0.002809243427059274 0.0 0.0
0.0 0.0034219109294932977 -0.002968209925386001 0.0025681706553446777 0.00040003927004132365 0.0014657964268098753 0.0 0.0
0.0 0.0012112658324603218 -0.0009344981733806772 0.0007697630521838385 0.00016473512119683826 0.0005739996727736192 0.0 0.0
0.0 0.00017755388920130823 -0.00011699457708600973 9.389684735517509e-05 2.309772973083446e-05 0.00010703633644333543 0.0 0.0
0.0 4.86922101801376e-06 -1.3616863333932038e-06 1.073171664204008e-06 2.8851466918920866e-07 1.8105219169461254e-06 0.0 0.0
0.0 0.0 0.0 0.0 0.0 0.0 0.0 0.0
0.0 0.0 0.0 0.0 0.0 0.0 0.0 0.0
0.0 0.0 0.0 0.0 0.0 0.0 0.0 0.0
0.0 0.0 0.0 0.0 0.0 0.0 0.0 0.0
0.0 0.0 0.0 0.0 0.0 0.0 0.0 0.0
0.0 0.0 0.0 0.0 0.0 0.0 0.0 0.0
0.0 6.524876165207427e-06 -2.49481603701316e-06 1.980915821827851e-06 5.139002151852992e-07 -2.4263884196556414e-06 0.0 0.0
0.0 0.0003519185074251602 -0.0002486091972104294 0.00019966338007611507 4.894581713431429e-05 -0.00014476483154450307 0.0 0.0
0.0 0.0018067172997643483 -0.0014787079783221664 0.0012355004622949346 0.00024320751602723234 -0.0005962725120167543 0.0 0.0
0.0 0.004497688040114681 -0.004016110521273749 0.0035360733205030102 0.0004800372007707388 -0.0013329978330917712 0.0 0.0
0.0 0.008934827348570557 -0.007880939726348984 0.00723439847069162 0.0006465412556573645 -0.002405846513535954 0.0 0.0
0.0 0.014988164234241161 -0.013107527940615347 0.012341384637445066 0.0007661433031702715 -0.0037882694839638303 0.0 0.0
0.0 0.02254813926661562 -0.019627963979539097 0.018760759473764533 0.0008672045057745601 -0.005370463300295816 0.0 0.0
0.0 0.031523605332252555 -0.02734604250405389 0.026382980605304415 0.0009630618987494712 -0.00699829529409485 0.0 0.0
0.0 0.041773952679337985 -0.03621925640957374 0.035162179507995966 0.0010570769015777587 -0.00857472772319147 0.0 0.0
0.0 0.0534972930689055 -0.046270648189869944 0.04512041121004527 0.0011502369798246494 -0.010155822374205084 0.0 0.0
0.0 0.06640694225286667 -0.05754293306772139 0.05629939807125796 0.0012435349964634414 -0.011824234440434529 0.0 0.0
0.0 0.08070458424420501 -0.06997660830184792 0.06863839832787007 0.001338209973977869 -0.013439415578021396 0.0 0.0
0.0 0.09600525090669296 -0.08325455526942875 0.08181221105932944 0.0014423442100993272 -0.014690421796593148 0.0 0.0
0.0 0.11108468922915729 -0.09635029158242749 0.09476870499288012 0.0015815865895473056 -0.015986620437280635 0.0 0.0
0.0 0.12295020143781388 -0.10655365726633899 0.10476386573624233 0.0017897915300965712 -0.019726513191825664 0.0 0.0
0.0 0.12600037432073655 -0.10872083157491283 0.10670258204422947 0.002018249530683386 -0.028750942224146973 0.0 0.0
0.0 0.11323117951691117 -0.09597325129338041 0.09374869193708786 0.0022245593562925494 -0.043877969118294446 0.0 0.0
0.0 0.11323117951690481 -0.09597325129337164 0.09374869193707934 0.002224559356292356 0.04387796911832212 0.0 0.0
0.0 0.12600037432070893 -0.10872083157488646 0.10670258204420316 0.0020182495306832683 0.02875094222418269 0.0 0.0
0.0 0.12295020143776592 -0.10655365726629612 0.10476386573619956 0.0017897915300965255 0.01972651319185252 0.0 0.0
0.0 0.11108468922909903 -0.0963502915823764 0.0947687049928298 0.0015815865895466262 0.015986620437286676 0.0 0.0
0.0 0.09600525090663108 -0.08325455526937434 0.08181221105927672 0.0014423442100976402 0.014690421796592123 0.0 0.0
0.0 0.08070458424413579 -0.06997660830178731 0.06863839832781073 0.0013382099739766174 0.013439415578019516 0.0 0.0
0.0 0.06640694225279536 -0.057542933067659334 0.05629939807119673 0.0012435349964625801 0.011824234440428008 0.0 0.0
0.0 0.05349729306883269 -0.046270648189806945 0.04512041120998243 0.001150236979824544 0.01015582237419525 0.0 0.0
0.0 0.04177395267926907 -0.036219256409514025 0.035162179507936556 0.0010570769015774606 0.008574727723183472 0.0 0.0
0.0 0.03152360533219112 -0.02734604250400023 0.026382980605251447 0.0009630618987487854 0.006998295294079929 0.0 0.0
0.0 0.022548139266563808 -0.01962796397949392 0.01876075947371986 0.0008672045057740595 0.005370463300281024 0.0 0.0
0.0 0.014988164234200333 -0.013107527940579478 0.01234138463740976 0.0007661433031697226 0.00378826948395372 0.0 0.0
0.0 0.008934827348540795 -0.007880939726322509 0.0072343984706659745 0.0006465412556565356 0.002405846513528013 0.0 0.0
0.0 0.004497688040095387 -0.004016110521256437 0.003536073320486844 0.00048003720076959463 0.0013329978330858096 0.0 0.0
0.0 0.0018067172997539862 -0.0014787079783135525 0.0012355004622874675 0.0002432075160260838 0.0005962725120133726 0.0 0.0
0.0 0.00035191850742132214 -0.0002486091972079859 0.00019966338007411895 4.894581713386708e-05 0.00014476483154321788 0.0 0.0
0.0 6.524876164667881e-06 -2.4948160372589383e-06 1.9809158220207845e-06 5.139002152381617e-07 2.4263884198962487e-06 0.0 0.0
0.0 0.0 0.0 0.0 0.0 0.0 0.0 0.0
0.0 0.0 0.0 0.0 0.0 0.0 0.0 0.0
0.0 0.0 0.0 0.0 0.0 0.0 0.0 0.0
0.0 0.0 0.0 0.0 0.0 0.0 0.0 0.0
0.0 0.0 0.0 0.0 0.0 0.0 0.0 0.0
0.0 0.0 0.0 0.0 0.0 0.0 0.0 0.0
0.0 1.5454008426197885e-05 -6.2225488142553825e-06 4.983935016595177e-06 1.2386137976602343e-06 -3.995489447601496e-06 0.0 0.0
0.0 0.000651646641575109 -0.00047511476832477355 0.00038467347501676885 9.04412933080048e-05 -0.00015842248988138255 0.0 0.0
0.0 0.002353569282609234 -0.0021486351212299105 0.0018218240822521314 0.0003268110389777778 -0.0004932937626564709 0.0 0.0
0.0 0.005690244777485144 -0.005106943380805043 0.004566053677737601 0.000540889703067442 -0.000989670401884226 0.0 0.0
0.0 0.010700204589387044 -0.009483775435218611 0.00879594132757456 0.0006878341076440558 -0.0017110797550727139 0.0 0.0
0.0 0.017480181100237146 -0.015359474959982494 0.01455981154130051 0.0007996634186819808 -0.00266004622029408 0.0 0.0
0.0 0.025965385045189523 -0.0227018618703427 0.02179902050223478 0.0009028413681079158 -0.003764533346158823 0.0 0.0
0.0 0.03607382898958239 -0.031433966045308834 0.03042888592852307 0.0010050801167857738 -0.004901160831284252 0.0 0.0
0.0 0.047802995160595774 -0.04151600441801933 0.04040898856043558 0.0011070158575837389 -0.006003242799120237 0.0 0.0
0.0 0.06087460067734784 -0.05296199247598356 0.051752454556966074 0.0012095379190174638 -0.0071423531321870405 0.0 0.0
0.0 0.0755592458109651 -0.06574804042474719 0.06443386835170402 0.0013141720730431542 -0.008335638524965277 0.0 0.0
0.0 0.09163773859921266 -0.07969247828871487 0.07826997199867791 0.0014225062900369483 -0.009422431312880683 0.0 0.0
0.0 0.10846156697721455 -0.09430880625564977 0.092773520336446 0.001535285919203783 -0.010005512905291909 0.0 0.0
0.0 0.12487462483258285 -0.10859238235567707 0.10693028886684108 0.0016620934888360416 -0.009827437258489669 0.0 0.0
0.0 0.13847828494909065 -0.12038923472622955 0.11854541658391266 0.0018438181423168821 -0.011139657643783451 0.0 0.0
0.0 0.14387965933206978 -0.12468313289736785 0.12252071499072506 0.002162417906642713 -0.02153762713360999 0.0 0.0
0.0 0.1321491937977779 -0.11246569656233764 0.11004906885296542 0.0024166277093721927 -0.04609561327515097 0.0 0.0
0.0 0.13214919379776954 -0.11246569656232834 0.11004906885295622 0.002416627709372134 0.04609561327517089 0.0 0.0
0.0 0.14387965933203928 -0.12468313289733993 0.12252071499069779 0.0021624179066421106 0.021537627133638187 0.0 0.0
0.0 0.13847828494903736 -0.12038923472618288 0.11854541658386612 0.0018438181423167375 0.011139657643802894 0.0 0.0
0.0 0.1248746248325169 -0.10859238235561956 0.10693028886678416 0.001662093488835381 0.009827437258492475 0.0 0.0
0.0 0.10846156697714285 -0.09430880625558728 0.09277352033638453 0.0015352859192027412 0.010005512905289948 0.0 0.0
0.0 0.09163773859913621 -0.07969247828864849 0.07826997199861194 0.0014225062900365473 0.009422431312879528 0.0 0.0
0.0 0.07555924581088724 -0.06574804042467963 0.06443386835163714 0.001314172073042483 0.008335638524960434 0.0 0.0
0.0 0.06087460067727146 -0.05296199247591697 0.05175245455690066 0.0012095379190163163 0.007142353132180642 0.0 0.0
0.0 0.04780299516052273 -0.0415160044179553 0.040408988560372686 0.0011070158575825972 0.006003242799115594 0.0 0.0
0.0 0.03607382898951463 -0.03143396604524984 0.030428885928464856 0.0010050801167849675 0.0049011608312737424 0.0 0.0
0.0 0.025965385045131364 -0.022701861870291898 0.02179902050218465 0.000902841368107264 0.0037645333461483643 0.0 0.0
0.0 0.017480181100192345 -0.015359474959942707 0.014559811541261403 0.0007996634186813062 0.002660046220288116 0.0 0.0
0.0 0.01070020458935372 -0.009483775435188857 0.008795941327545641 0.0006878341076432084 0.0017110797550674438 0.0 0.0
0.0 0.005690244777463534 -0.005106943380785392 0.004566053677718892 0.0005408897030664979 0.0009896704018801882 0.0 0.0
0.0 0.002353569282598844 -0.002148635121220328 0.0018218240822436439 0.00032681103897668525 0.0004932937626543575 0.0 0.0
0.0 0.000651646641570299 -0.00047511476832138715 0.0003846734750139716 9.044129330741516e-05 0.00015842248988043393 0.0 0.0
0.0 1.5454008425452808e-05 -6.222548814460061e-06 4.983935016753467e-06 1.2386137977065484e-06 3.995489447726108e-06 0.0 0.0
0.0 0.0 0.0 0.0 0.0 0.0 0.0 0.0
0.0 0.0 0.0 0.0 0.0 0.0 0.0 0.0
0.0 0.0 0.0 0.0 0.0 0.0 0.0 0.0
0.0 0.0 0.0 0.0 0.0 0.0 0.0 0.0
0.0 0.0 0.0 0.0 0.0 0.0 0.0 0.0
0.0 0.0 0.0 0.0 0.0 0.0 0.0 0.0
0.0 5.491269800582206e-05 -3.722456883743517e-05 2.9388365813364203e-05 7.836203024071124e-06 -1.0000548672545561e-05 0.0 0.0
0.0 0.0010886017720854477 -0.0008009838890348421 0.0006543415965735658 0.0001466422924612759 -0.00010524965117005548 0.0 0.0
0.0 0.003138522991008492 -0.0028654484466674956 0.0024656051942564096 0.00039984325241108616 -0.00023646827887403935 0.0 0.0
0.0 0.006926319040267156 -0.006223555238612063 0.005634849606867706 0.000588705631744354 -0.00043815052707323163 0.0 0.0
0.0 0.01250365557531811 -0.011083463136557347 0.01036369501473165 0.0007197681218256919 -0.0007288552789548209 0.0 0.0
0.0 0.019998011613115846 -0.01758602139618054 0.016758556183047342 0.0008274652131331963 -0.0011365169518012818 0.0 0.0
0.0 0.029423176680427814 -0.02573671872070473 0.024803062294799616 0.0009336564259051169 -0.0016311037697389666 0.0 0.0
0.0 0.04074166346980288 -0.03548434722335517 0.034441981929223195 0.0010423652941319644 -0.002146106053690133 0.0 0.0
0.0 0.053622188573516895 -0.046789682518803735 0.04563658932123192 0.0011530931975717836 -0.0026669947549330278 0.0 0.0
0.0 0.06833518788704111 -0.05961952871410887 0.05835446197033568 0.0012650667437731776 -0.0032005963543076973 0.0 0.0
0.0 0.08478653900908863 -0.07389597828143704 0.07251524419251094 0.0013807340889260753 -0.0037274311984219627 0.0 0.0
0.0 0.10256955888651939 -0.08932751852449963 0.08782479377443801 0.0015027247500616426 -0.0041598102161553175 0.0 0.0
0.0 0.12089508508962736 -0.10521097341918163 0.103580965279304 0.0016300081398776087 -0.004236352630756364 0.0 0.0
0.0 0.13833763328507118 -0.12033956189800776 0.11858264883490721 0.0017569130631005076 -0.003544812228322691 0.0 0.0
0.0 0.15283638293353363 -0.13295231575038013 0.1310635442237997 0.0018887715265804143 -0.002314344253855239 0.0 0.0
0.0 0.1610333305961367 -0.1399451093103238 0.13784498413785992 0.002100125172463824 -0.007694342528582636 0.0 0.0
0.0 0.15406842883982524 -0.13202409091697404 0.12924101556250975 0.0027830753544642196 -0.042580979942768785 0.0 0.0
0.0 0.15406842883981123 -0.13202409091696132 0.1292410155624969 0.0027830753544643727 0.042580979942776404 0.0 0.0
0.0 0.16103333059609815 -0.13994510931029014 0.13784498413782648 0.0021001251724635885 0.007694342528596293 0.0 0.0
0.0 0.15283638293347324 -0.13295231575032745 0.1310635442237481 0.001888771526579273 0.0023143442538638022 0.0 0.0
0.0 0.13833763328499243 -0.12033956189793951 0.11858264883483934 0.0017569130631001557 0.003544812228321944 0.0 0.0
0.0 0.12089508508954068 -0.10521097341910654 0.10358096527922919 0.001630008139877332 0.004236352630754912 0.0 0.0
0.0 0.10256955888642841 -0.08932751852442083 0.08782479377435934 0.001502724750061457 0.004159810216155233 0.0 0.0
0.0 0.0847865390089996 -0.07389597828135985 0.0725152441924343 0.0013807340889255208 0.003727431198420019 0.0 0.0
0.0 0.06833518788695253 -0.05961952871403193 0.058354461970259425 0.001265066743772472 0.0032005963543057722 0.0 0.0
0.0 0.0536221885734309 -0.04678968251872896 0.04563658932115791 0.0011530931975710311 0.0026669947549306733 0.0 0.0
0.0 0.04074166346972673 -0.03548434722328876 0.03444198192915763 0.0010423652941311343 0.0021461060536841796 0.0 0.0
0.0 0.029423176680363677 -0.025736718720649046 0.02480306229474456 0.0009336564259044924 0.0016311037697335704 0.0 0.0
0.0 0.01999801161306528 -0.017586021396136037 0.016758556183003374 0.0008274652131326628 0.0011365169517992186 0.0 0.0
0.0 0.012503655575281377 -0.011083463136524488 0.010363695014699394 0.0007197681218250922 0.0007288552789522491 0.0 0.0
0.0 0.006926319040242721 -0.006223555238589978 0.005634849606846385 0.0005887056317435914 0.0004381505270716937 0.0 0.0
0.0 0.0031385229909949943 -0.0028654484466547766 0.002465605194244747 0.00039984325241002895 0.00023646827887295797 0.0 0.0
0.0 0.0010886017720783024 -0.0008009838890293556 0.0006543415965689191 0.00014664229246043727 0.00010524965116945071 0.0 0.0
0.0 5.491269800495365e-05 -3.7224568837341605e-05 2.938836581327719e-05 7.836203024064402e-06 1.0000548672478801e-05 0.0 0.0
0.0 0.0 0.0 0.0 0.0 0.0 0.0 0.0
0.0 0.0 0.0 0.0 0.0 0.0 0.0 0.0
0.0 0.0 0.0 0.0 0.0 0.0 0.0 0.0