# vtk DataFile Version 3.0
Some data
ASCII
DATASET UNSTRUCTURED_GRID
POINTS 861 float
0.0 0.0 0.0
0.4 0.0 0.0
0.8 0.0 0.0
1.2000000000000002 0.0 0.0
1.6 0.0 0.0
2.0 0.0 0.0
2.4000000000000004 0.0 0.0
2.8000000000000003 0.0 0.0
3.2 0.0 0.0
3.6 0.0 0.0
4.0 0.0 0.0
4.4 0.0 0.0
4.800000000000001 0.0 0.0
5.2 0.0 0.0
5.6000000000000005 0.0 0.0
6.0 0.0 0.0
6.4 0.0 0.0
6.800000000000001 0.0 0.0
7.2 0.0 0.0
7.6000000000000005 0.0 0.0
8.0 0.0 0.0
8.4 0.0 0.0
8.8 0.0 0.0
9.200000000000001 0.0 0.0
9.600000000000001 0.0 0.0
10.0 0.0 0.0
10.4 0.0 0.0
10.8 0.0 0.0
11.200000000000001 0.0 0.0
11.600000000000001 0.0 0.0
12.0 0.0 0.0
12.4 0.0 0.0
12.8 0.0 0.0
13.200000000000001 0.0 0.0
13.600000000000001 0.0 0.0
14.0 0.0 0.0
14.4 0.0 0.0
14.8 0.0 0.0
15.200000000000001 0.0 0.0
15.600000000000001 0.0 0.0
16.0 0.0 0.0
0.0 0.1 0.0
0.4 0.1 0.0
0.8 0.1 0.0
1.2000000000000002 0.1 0.0
1.6 0.1 0.0
2.0 0.1 0.0
2.4000000000000004 0.1 0.0
2.8000000000000003 0.1 0.0
3.2 0.1 0.0
3.6 0.1 0.0
4.0 0.1 0.0
4.4 0.1 0.0
4.800000000000001 0.1 0.0
5.2 0.1 0.0
5.6000000000000005 0.1 0.0
6.0 0.1 0.0
6.4 0.1 0.0
6.800000000000001 0.1 0.0
7.2 0.1 0.0
7.6000000000000005 0.1 0.0
8.0 0.1 0.0
8.4 0.1 0.0
8.8 0.1 0.0
9.200000000000001 0.1 0.0
9.600000000000001 0.1 0.0
10.0 0.1 0.0
10.4 0.1 0.0
10.8 0.1 0.0
11.200000000000001 0.1 0.0
11.600000000000001 0.1 0.0
12.0 0.1 0.0
12.4 0.1 0.0
12.8 0.1 0.0
13.200000000000001 0.1 0.0
13.600000000000001 0.1 0.0
14.0 0.1 0.0
14.4 0.1 0.0
14.8 0.1 0.0
15.200000000000001 0.1 0.0
15.600000000000001 0.1 0.0
16.0 0.1 0.0
0.0 0.2 0.0
0.4 0.2 0.0
0.8 0.2 0.0
1.2000000000000002 0.2 0.0
1.6 0.2 0.0
2.0 0.2 0.0
2.4000000000000004 0.2 0.0
2.8000000000000003 0.2 0.0
3.2 0.2 0.0
3.6 0.2 0.0
4.0 0.2 0.0
4.4 0.2 0.0
4.800000000000001 0.2 0.0
5.2 0.2 0.0
5.6000000000000005 0.2 0.0
6.0 0.2 0.0
6.4 0.2 0.0
6.800000000000001 0.2 0.0
7.2 0.2 0.0
7.6000000000000005 0.2 0.0
8.0 0.2 0.0
8.4 0.2 0.0
8.8 0.2 0.0
9.200000000000001 0.2 0.0
9.600000000000001 0.2 0.0
10.0 0.2 0.0
10.4 0.2 0.0
10.8 0.2 0.0
11.200000000000001 0.2 0.0
11.600000000000001 0.2 0.0
12.0 0.2 0.0
12.4 0.2 0.0
12.8 0.2 0.0
13.200000000000001 0.2 0.0
13.600000000000001 0.2 0.0
14.0 0.2 0.0
14.4 0.2 0.0
14.8 0.2 0.0
15.200000000000001 0.2 0.0
15.600000000000001 0.2 0.0
16.0 0.2 0.0
0.0 0.30000000000000004 0.0
0.4 0.30000000000000004 0.0
0.8 0.30000000000000004 0.0
1.2000000000000002 0.30000000000000004 0.0
1.6 0.30000000000000004 0.0
2.0 0.30000000000000004 0.0
2.4000000000000004 0.30000000000000004 0.0
2.8000000000000003 0.30000000000000004 0.0
3.2 0.30000000000000004 0.0
3.6 0.30000000000000004 0.0
4.0 0.30000000000000004 0.0
4.4 0.30000000000000004 0.0
4.800000000000001 0.30000000000000004 0.0
5.2 0.30000000000000004 0.0
5.6000000000000005 0.30000000000000004 0.0
6.0 0.30000000000000004 0.0
6.4 0.30000000000000004 0.0
6.800000000000001 0.30000000000000004 0.0
7.2 0.30000000000000004 0.0
7.6000000000000005 0.30000000000000004 0.0
8.0 0.30000000000000004 0.0
8.4 0.30000000000000004 0.0
8.8 0.30000000000000004 0.0
9.200000000000001 0.30000000000000004 0.0
9.600000000000001 0.30000000000000004 0.0
10.0 0.30000000000000004 0.0
10.4 0.30000000000000004 0.0
10.8 0.30000000000000004 0.0
11.200000000000001 0.30000000000000004 0.0
11.600000000000001 0.30000000000000004 0.0
12.0 0.30000000000000004 0.0
12.4 0.30000000000000004 0.0
12.8 0.30000000000000004 0.0
13.200000000000001 0.30000000000000004 0.0
13.600000000000001 0.30000000000000004 0.0
14.0 0.30000000000000004 0.0
14.4 0.30000000000000004 0.0
14.8 0.30000000000000004 0.0
15.200000000000001 0.30000000000000004 0.0
15.600000000000001 0.30000000000000004 0.0
16.0 0.30000000000000004 0.0
0.0 0.4 0.0
0.4 0.4 0.0
0.8 0.4 0.0
1.2000000000000002 0.4 0.0
1.6 0.4 0.0
2.0 0.4 0.0
2.4000000000000004 0.4 0.0
2.8000000000000003 0.4 0.0
3.2 0.4 0.0
3.6 0.4 0.0
4.0 0.4 0.0
4.4 0.4 0.0
4.800000000000001 0.4 0.0
5.2 0.4 0.0
5.6000000000000005 0.4 0.0
6.0 0.4 0.0
6.4 0.4 0.0
6.800000000000001 0.4 0.0
7.2 0.4 0.0
7.6000000000000005 0.4 0.0
8.0 0.4 0.0
8.4 0.4 0.0
8.8 0.4 0.0
9.200000000000001 0.4 0.0
9.600000000000001 0.4 0.0
10.0 0.4 0.0
10.4 0.4 0.0
10.8 0.4 0.0
11.200000000000001 0.4 0.0
11.600000000000001 0.4 0.0
12.0 0.4 0.0
12.4 0.4 0.0
12.8 0.4 0.0
13.200000000000001 0.4 0.0
13.600000000000001 0.4 0.0
14.0 0.4 0.0
14.4 0.4 0.0
14.8 0.4 0.0
15.200000000000001 0.4 0.0
15.600000000000001 0.4 0.0
16.0 0.4 0.0
0.0 0.5 0.0
0.4 0.5 0.0
0.8 0.5 0.0
1.2000000000000002 0.5 0.0
1.6 0.5 0.0
2.0 0.5 0.0
2.4000000000000004 0.5 0.0
2.8000000000000003 0.5 0.0
3.2 0.5 0.0
3.6 0.5 0.0
4.0 0.5 0.0
4.4 0.5 0.0
4.800000000000001 0.5 0.0
5.2 0.5 0.0
5.6000000000000005 0.5 0.0
6.0 0.5 0.0
6.4 0.5 0.0
6.800000000000001 0.5 0.0
7.2 0.5 0.0
7.6000000000000005 0.5 0.0
8.0 0.5 0.0
8.4 0.5 0.0
8.8 0.5 0.0
9.200000000000001 0.5 0.0
9.600000000000001 0.5 0.0
10.0 0.5 0.0
10.4 0.5 0.0
10.8 0.5 0.0
11.200000000000001 0.5 0.0
11.600000000000001 0.5 0.0
12.0 0.5 0.0
12.4 0.5 0.0
12.8 0.5 0.0
13.200000000000001 0.5 0.0
13.600000000000001 0.5 0.0
14.0 0.5 0.0
14.4 0.5 0.0
14.8 0.5 0.0
15.200000000000001 0.5 0.0
15.600000000000001 0.5 0.0
16.0 0.5 0.0
0.0 0.6000000000000001 0.0
0.4 0.6000000000000001 0.0
0.8 0.6000000000000001 0.0
1.2000000000000002 0.6000000000000001 0.0
1.6 0.6000000000000001 0.0
2.0 0.6000000000000001 0.0
2.4000000000000004 0.6000000000000001 0.0
2.8000000000000003 0.6000000000000001 0.0
3.2 0.6000000000000001 0.0
3.6 0.6000000000000001 0.0
4.0 0.6000000000000001 0.0
4.4 0.6000000000000001 0.0
4.800000000000001 0.6000000000000001 0.0
5.2 0.6000000000000001 0.0
5.6000000000000005 0.6000000000000001 0.0
6.0 0.6000000000000001 0.0
6.4 0.6000000000000001 0.0
6.800000000000001 0.6000000000000001 0.0
7.2 0.6000000000000001 0.0
7.6000000000000005 0.6000000000000001 0.0
8.0 0.6000000000000001 0.0
8.4 0.6000000000000001 0.0
8.8 0.6000000000000001 0.0
9.200000000000001 0.6000000000000001 0.0
9.600000000000001 0.6000000000000001 0.0
10.0 0.6000000000000001 0.0
10.4 0.6000000000000001 0.0
10.8 0.6000000000000001 0.0
11.200000000000001 0.6000000000000001 0.0
11.600000000000001 0.6000000000000001 0.0
12.0 0.6000000000000001 0.0
12.4 0.6000000000000001 0.0
12.8 0.6000000000000001 0.0
13.200000000000001 0.6000000000000001 0.0
13.600000000000001 0.6000000000000001 0.0
14.0 0.6000000000000001 0.0
14.4 0.6000000000000001 0.0
14.8 0.6000000000000001 0.0
15.200000000000001 0.6000000000000001 0.0
15.600000000000001 0.6000000000000001 0.0
16.0 0.6000000000000001 0.0
0.0 0.7000000000000001 0.0
0.4 0.7000000000000001 0.0
0.8 0.7000000000000001 0.0
1.2000000000000002 0.7000000000000001 0.0
1.6 0.7000000000000001 0.0
2.0 0.7000000000000001 0.0
2.4000000000000004 0.7000000000000001 0.0
2.8000000000000003 0.7000000000000001 0.0
3.2 0.7000000000000001 0.0
3.6 0.7000000000000001 0.0
4.0 0.7000000000000001 0.0
4.4 0.7000000000000001 0.0
4.800000000000001 0.7000000000000001 0.0
5.2 0.7000000000000001 0.0
5.6000000000000005 0.7000000000000001 0.0
6.0 0.7000000000000001 0.0
6.4 0.7000000000000001 0.0
6.800000000000001 0.7000000000000001 0.0
7.2 0.7000000000000001 0.0
7.6000000000000005 0.7000000000000001 0.0
8.0 0.7000000000000001 0.0
8.4 0.7000000000000001 0.0
8.8 0.7000000000000001 0.0
9.200000000000001 0.7000000000000001 0.0
9.600000000000001 0.7000000000000001 0.0
10.0 0.7000000000000001 0.0
10.4 0.7000000000000001 0.0
10.8 0.7000000000000001 0.0
11.200000000000001 0.7000000000000001 0.0
11.600000000000001 0.7000000000000001 0.0
12.0 0.7000000000000001 0.0
12.4 0.7000000000000001 0.0
12.8 0.7000000000000001 0.0
13.200000000000001 0.7000000000000001 0.0
13.600000000000001 0.7000000000000001 0.0
14.0 0.7000000000000001 0.0
14.4 0.7000000000000001 0.0
14.8 0.7000000000000001 0.0
15.200000000000001 0.7000000000000001 0.0
15.600000000000001 0.7000000000000001 0.0
16.0 0.7000000000000001 0.0
0.0 0.8 0.0
0.4 0.8 0.0
0.8 0.8 0.0
1.2000000000000002 0.8 0.0
1.6 0.8 0.0
2.0 0.8 0.0
2.4000000000000004 0.8 0.0
2.8000000000000003 0.8 0.0
3.2 0.8 0.0
3.6 0.8 0.0
4.0 0.8 0.0
4.4 0.8 0.0
4.800000000000001 0.8 0.0
5.2 0.8 0.0
5.6000000000000005 0.8 0.0
6.0 0.8 0.0
6.4 0.8 0.0
6.800000000000001 0.8 0.0
7.2 0.8 0.0
7.6000000000000005 0.8 0.0
8.0 0.8 0.0
8.4 0.8 0.0
8.8 0.8 0.0
9.200000000000001 0.8 0.0
9.600000000000001 0.8 0.0
10.0 0.8 0.0
10.4 0.8 0.0
10.8 0.8 0.0
11.200000000000001 0.8 0.0
11.600000000000001 0.8 0.0
12.0 0.8 0.0
12.4 0.8 0.0
12.8 0.8 0.0
13.200000000000001 0.8 0.0
13.600000000000001 0.8 0.0
14.0 0.8 0.0
14.4 0.8 0.0
14.8 0.8 0.0
15.200000000000001 0.8 0.0
15.600000000000001 0.8 0.0
16.0 0.8 0.0
0.0 0.9 0.0
0.4 0.9 0.0
0.8 0.9 0.0
1.2000000000000002 0.9 0.0
1.6 0.9 0.0
2.0 0.9 0.0
2.4000000000000004 0.9 0.0
2.8000000000000003 0.9 0.0
3.2 0.9 0.0
3.6 0.9 0.0
4.0 0.9 0.0
4.4 0.9 0.0
4.800000000000001 0.9 0.0
5.2 0.9 0.0
5.6000000000000005 0.9 0.0
6.0 0.9 0.0
6.4 0.9 0.0
6.800000000000001 0.9 0.0
7.2 0.9 0.0
7.6000000000000005 0.9 0.0
8.0 0.9 0.0
8.4 0.9 0.0
8.8 0.9 0.0
9.200000000000001 0.9 0.0
9.600000000000001 0.9 0.0
10.0 0.9 0.0
10.4 0.9 0.0
10.8 0.9 0.0
11.200000000000001 0.9 0.0
11.600000000000001 0.9 0.0
12.0 0.9 0.0
12.4 0.9 0.0
12.8 0.9 0.0
13.200000000000001 0.9 0.0
13.600000000000001 0.9 0.0
14.0 0.9 0.0
14.4 0.9 0.0
14.8 0.9 0.0
15.200000000000001 0.9 0.0
15.600000000000001 0.9 0.0
16.0 0.9 0.0
0.0 1.0 0.0
0.4 1.0 0.0
0.8 1.0 0.0
1.2000000000000002 1.0 0.0
1.6 1.0 0.0
2.0 1.0 0.0
2.4000000000000004 1.0 0.0
2.8000000000000003 1.0 0.0
3.2 1.0 0.0
3.6 1.0 0.0
4.0 1.0 0.0
4.4 1.0 0.0
4.800000000000001 1.0 0.0
5.2 1.0 0.0
5.6000000000000005 1.0 0.0
6.0 1.0 0.0
6.4 1.0 0.0
6.800000000000001 1.0 0.0
7.2 1.0 0.0
7.6000000000000005 1.0 0.0
8.0 1.0 0.0
8.4 1.0 0.0
8.8 1.0 0.0
9.200000000000001 1.0 0.0
9.600000000000001 1.0 0.0
10.0 1.0 0.0
10.4 1.0 0.0
10.8 1.0 0.0
11.200000000000001 1.0 0.0
11.600000000000001 1.0 0.0
12.0 1.0 0.0
12.4 1.0 0.0
12.8 1.0 0.0
13.200000000000001 1.0 0.0
13.600000000000001 1.0 0.0
14.0 1.0 0.0
14.4 1.0 0.0
14.8 1.0 0.0
15.200000000000001 1.0 0.0
15.600000000000001 1.0 0.0
16.0 1.0 0.0
0.0 1.1 0.0
0.4 1.1 0.0
0.8 1.1 0.0
1.2000000000000002 1.1 0.0
1.6 1.1 0.0
2.0 1.1 0.0
2.4000000000000004 1.1 0.0
2.8000000000000003 1.1 0.0
3.2 1.1 0.0
3.6 1.1 0.0
4.0 1.1 0.0
4.4 1.1 0.0
4.800000000000001 1.1 0.0
5.2 1.1 0.0
5.6000000000000005 1.1 0.0
6.0 1.1 0.0
6.4 1.1 0.0
6.800000000000001 1.1 0.0
7.2 1.1 0.0
7.6000000000000005 1.1 0.0
8.0 1.1 0.0
8.4 1.1 0.0
8.8 1.1 0.0
9.200000000000001 1.1 0.0
9.600000000000001 1.1 0.0
10.0 1.1 0.0
10.4 1.1 0.0
10.8 1.1 0.0
11.200000000000001 1.1 0.0
11.600000000000001 1.1 0.0
12.0 1.1 0.0
12.4 1.1 0.0
12.8 1.1 0.0
13.200000000000001 1.1 0.0
13.600000000000001 1.1 0.0
14.0 1.1 0.0
14.4 1.1 0.0
14.8 1.1 0.0
15.200000000000001 1.1 0.0
15.600000000000001 1.1 0.0
16.0 1.1 0.0
0.0 1.2000000000000002 0.0
0.4 1.2000000000000002 0.0
0.8 1.2000000000000002 0.0
1.2000000000000002 1.2000000000000002 0.0
1.6 1.2000000000000002 0.0
2.0 1.2000000000000002 0.0
2.4000000000000004 1.2000000000000002 0.0
2.8000000000000003 1.2000000000000002 0.0
3.2 1.2000000000000002 0.0
3.6 1.2000000000000002 0.0
4.0 1.2000000000000002 0.0
4.4 1.2000000000000002 0.0
4.800000000000001 1.2000000000000002 0.0
5.2 1.2000000000000002 0.0
5.6000000000000005 1.2000000000000002 0.0
6.0 1.2000000000000002 0.0
6.4 1.2000000000000002 0.0
6.800000000000001 1.2000000000000002 0.0
7.2 1.2000000000000002 0.0
7.6000000000000005 1.2000000000000002 0.0
8.0 1.2000000000000002 0.0
8.4 1.2000000000000002 0.0
8.8 1.2000000000000002 0.0
9.200000000000001 1.2000000000000002 0.0
9.600000000000001 1.2000000000000002 0.0
10.0 1.2000000000000002 0.0
10.4 1.2000000000000002 0.0
10.8 1.2000000000000002 0.0
11.200000000000001 1.2000000000000002 0.0
11.600000000000001 1.2000000000000002 0.0
12.0 1.2000000000000002 0.0
12.4 1.2000000000000002 0.0
12.8 1.2000000000000002 0.0
13.200000000000001 1.2000000000000002 0.0
13.600000000000001 1.2000000000000002 0.0
14.0 1.2000000000000002 0.0
14.4 1.2000000000000002 0.0
14.8 1.2000000000000002 0.0
15.200000000000001 1.2000000000000002 0.0
15.600000000000001 1.2000000000000002 0.0
16.0 1.2000000000000002 0.0
0.0 1.3 0.0
0.4 1.3 0.0
0.8 1.3 0.0
1.2000000000000002 1.3 0.0
1.6 1.3 0.0
2.0 1.3 0.0
2.4000000000000004 1.3 0.0
2.8000000000000003 1.3 0.0
3.2 1.3 0.0
3.6 1.3 0.0
4.0 1.3 0.0
4.4 1.3 0.0
4.800000000000001 1.3 0.0
5.2 1.3 0.0
5.6000000000000005 1.3 0.0
6.0 1.3 0.0
6.4 1.3 0.0
6.800000000000001 1.3 0.0
7.2 1.3 0.0
7.6000000000000005 1.3 0.0
8.0 1.3 0.0
8.4 1.3 0.0
8.8 1.3 0.0
9.200000000000001 1.3 0.0
9.600000000000001 1.3 0.0
10.0 1.3 0.0
10.4 1.3 0.0
10.8 1.3 0.0
11.200000000000001 1.3 0.0
11.600000000000001 1.3 0.0
12.0 1.3 0.0
12.4 1.3 0.0
12.8 1.3 0.0
13.200000000000001 1.3 0.0
13.600000000000001 1.3 0.0
14.0 1.3 0.0
14.4 1.3 0.0
14.8 1.3 0.0
15.200000000000001 1.3 0.0
15.600000000000001 1.3 0.0
16.0 1.3 0.0
0.0 1.4000000000000001 0.0
0.4 1.4000000000000001 0.0
0.8 1.4000000000000001 0.0
1.2000000000000002 1.4000000000000001 0.0
1.6 1.4000000000000001 0.0
2.0 1.4000000000000001 0.0
2.4000000000000004 1.4000000000000001 0.0
2.8000000000000003 1.4000000000000001 0.0
3.2 1.4000000000000001 0.0
3.6 1.4000000000000001 0.0
4.0 1.4000000000000001 0.0
4.4 1.4000000000000001 0.0
4.800000000000001 1.4000000000000001 0.0
5.2 1.4000000000000001 0.0
5.6000000000000005 1.4000000000000001 0.0
6.0 1.4000000000000001 0.0
6.4 1.4000000000000001 0.0
6.800000000000001 1.4000000000000001 0.0
7.2 1.4000000000000001 0.0
7.6000000000000005 1.4000000000000001 0.0
8.0 1.4000000000000001 0.0
8.4 1.4000000000000001 0.0
8.8 1.4000000000000001 0.0
9.200000000000001 1.4000000000000001 0.0
9.600000000000001 1.4000000000000001 0.0
10.0 1.4000000000000001 0.0
10.4 1.4000000000000001 0.0
10.8 1.4000000000000001 0.0
11.200000000000001 1.4000000000000001 0.0
11.600000000000001 1.4000000000000001 0.0
12.0 1.4000000000000001 0.0
12.4 1.4000000000000001 0.0
12.8 1.4000000000000001 0.0
13.200000000000001 1.4000000000000001 0.0
13.600000000000001 1.4000000000000001 0.0
14.0 1.4000000000000001 0.0
14.4 1.4000000000000001 0.0
14.8 1.4000000000000001 0.0
15.200000000000001 1.4000000000000001 0.0
15.600000000000001 1.4000000000000001 0.0
16.0 1.4000000000000001 0.0
0.0 1.5 0.0
0.4 1.5 0.0
0.8 1.5 0.0
1.2000000000000002 1.5 0.0
1.6 1.5 0.0
2.0 1.5 0.0
2.4000000000000004 1.5 0.0
2.8000000000000003 1.5 0.0
3.2 1.5 0.0
3.6 1.5 0.0
4.0 1.5 0.0
4.4 1.5 0.0
4.800000000000001 1.5 0.0
5.2 1.5 0.0
5.6000000000000005 1.5 0.0
6.0 1.5 0.0
6.4 1.5 0.0
6.800000000000001 1.5 0.0
7.2 1.5 0.0
7.6000000000000005 1.5 0.0
8.0 1.5 0.0
8.4 1.5 0.0
8.8 1.5 0.0
9.200000000000001 1.5 0.0
9.600000000000001 1.5 0.0
10.0 1.5 0.0
10.4 1.5 0.0
10.8 1.5 0.0
11.200000000000001 1.5 0.0
11.600000000000001 1.5 0.0
12.0 1.5 0.0
12.4 1.5 0.0
12.8 1.5 0.0
13.200000000000001 1.5 0.0
13.600000000000001 1.5 0.0
14.0 1.5 0.0
14.4 1.5 0.0
14.8 1.5 0.0
15.200000000000001 1.5 0.0
15.600000000000001 1.5 0.0
16.0 1.5 0.0
0.0 1.6 0.0
0.4 1.6 0.0
0.8 1.6 0.0
1.2000000000000002 1.6 0.0
1.6 1.6 0.0
2.0 1.6 0.0
2.4000000000000004 1.6 0.0
2.8000000000000003 1.6 0.0
3.2 1.6 0.0
3.6 1.6 0.0
4.0 1.6 0.0
4.4 1.6 0.0
4.800000000000001 1.6 0.0
5.2 1.6 0.0
5.6000000000000005 1.6 0.0
6.0 1.6 0.0
6.4 1.6 0.0
6.800000000000001 1.6 0.0
7.2 1.6 0.0
7.6000000000000005 1.6 0.0
8.0 1.6 0.0
8.4 1.6 0.0
8.8 1.6 0.0
9.200000000000001 1.6 0.0
9.600000000000001 1.6 0.0
10.0 1.6 0.0
10.4 1.6 0.0
10.8 1.6 0.0
11.200000000000001 1.6 0.0
11.600000000000001 1.6 0.0
12.0 1.6 0.0
12.4 1.6 0.0
12.8 1.6 0.0
13.200000000000001 1.6 0.0
13.600000000000001 1.6 0.0
14.0 1.6 0.0
14.4 1.6 0.0
14.8 1.6 0.0
15.200000000000001 1.6 0.0
15.600000000000001 1.6 0.0
16.0 1.6 0.0
0.0 1.7000000000000002 0.0
0.4 1.7000000000000002 0.0
0.8 1.7000000000000002 0.0
1.2000000000000002 1.7000000000000002 0.0
1.6 1.7000000000000002 0.0
2.0 1.7000000000000002 0.0
2.4000000000000004 1.7000000000000002 0.0
2.8000000000000003 1.7000000000000002 0.0
3.2 1.7000000000000002 0.0
3.6 1.7000000000000002 0.0
4.0 1.7000000000000002 0.0
4.4 1.7000000000000002 0.0
4.800000000000001 1.7000000000000002 0.0
5.2 1.7000000000000002 0.0
5.6000000000000005 1.7000000000000002 0.0
6.0 1.7000000000000002 0.0
6.4 1.7000000000000002 0.0
6.800000000000001 1.7000000000000002 0.0
7.2 1.7000000000000002 0.0
7.6000000000000005 1.7000000000000002 0.0
8.0 1.7000000000000002 0.0
8.4 1.7000000000000002 0.0
8.8 1.7000000000000002 0.0
9.200000000000001 1.7000000000000002 0.0
9.600000000000001 1.7000000000000002 0.0
10.0 1.7000000000000002 0.0
10.4 1.7000000000000002 0.0
10.8 1.7000000000000002 0.0
11.200000000000001 1.7000000000000002 0.0
11.600000000000001 1.7000000000000002 0.0
12.0 1.7000000000000002 0.0
12.4 1.7000000000000002 0.0
12.8 1.7000000000000002 0.0
13.200000000000001 1.7000000000000002 0.0
13.600000000000001 1.7000000000000002 0.0
14.0 1.7000000000000002 0.0
14.4 1.7000000000000002 0.0
14.8 1.7000000000000002 0.0
15.200000000000001 1.7000000000000002 0.0
15.600000000000001 1.7000000000000002 0.0
16.0 1.7000000000000002 0.0
0.0 1.8 0.0
0.4 1.8 0.0
0.8 1.8 0.0
1.2000000000000002 1.8 0.0
1.6 1.8 0.0
2.0 1.8 0.0
2.4000000000000004 1.8 0.0
2.8000000000000003 1.8 0.0
3.2 1.8 0.0
3.6 1.8 0.0
4.0 1.8 0.0
4.4 1.8 0.0
4.800000000000001 1.8 0.0
5.2 1.8 0.0
5.6000000000000005 1.8 0.0
6.0 1.8 0.0
6.4 1.8 0.0
6.800000000000001 1.8 0.0
7.2 1.8 0.0
7.6000000000000005 1.8 0.0
8.0 1.8 0.0
8.4 1.8 0.0
8.8 1.8 0.0
9.200000000000001 1.8 0.0
9.600000000000001 1.8 0.0
10.0 1.8 0.0
10.4 1.8 0.0
10.8 1.8 0.0
11.200000000000001 1.8 0.0
11.600000000000001 1.8 0.0
12.0 1.8 0.0
12.4 1.8 0.0
12.8 1.8 0.0
13.200000000000001 1.8 0.0
13.600000000000001 1.8 0.0
14.0 1.8 0.0
14.4 1.8 0.0
14.8 1.8 0.0
15.200000000000001 1.8 0.0
15.600000000000001 1.8 0.0
16.0 1.8 0.0
0.0 1.9000000000000001 0.0
0.4 1.9000000000000001 0.0
0.8 1.9000000000000001 0.0
1.2000000000000002 1.9000000000000001 0.0
1.6 1.9000000000000001 0.0
2.0 1.9000000000000001 0.0
2.4000000000000004 1.9000000000000001 0.0
2.8000000000000003 1.9000000000000001 0.0
3.2 1.9000000000000001 0.0
3.6 1.9000000000000001 0.0
4.0 1.9000000000000001 0.0
4.4 1.9000000000000001 0.0
4.800000000000001 1.9000000000000001 0.0
5.2 1.9000000000000001 0.0
5.6000000000000005 1.9000000000000001 0.0
6.0 1.9000000000000001 0.0
6.4 1.9000000000000001 0.0
6.800000000000001 1.9000000000000001 0.0
7.2 1.9000000000000001 0.0
7.6000000000000005 1.9000000000000001 0.0
8.0 1.9000000000000001 0.0
8.4 1.9000000000000001 0.0
8.8 1.9000000000000001 0.0
9.200000000000001 1.9000000000000001 0.0
9.600000000000001 1.9000000000000001 0.0
10.0 1.9000000000000001 0.0
10.4 1.9000000000000001 0.0
10.8 1.9000000000000001 0.0
11.200000000000001 1.9000000000000001 0.0
11.600000000000001 1.9000000000000001 0.0
12.0 1.9000000000000001 0.0
12.4 1.9000000000000001 0.0
12.8 1.9000000000000001 0.0
13.200000000000001 1.9000000000000001 0.0
13.600000000000001 1.9000000000000001 0.0
14.0 1.9000000000000001 0.0
14.4 1.9000000000000001 0.0
14.8 1.9000000000000001 0.0
15.200000000000001 1.9000000000000001 0.0
15.600000000000001 1.9000000000000001 0.0
16.0 1.9000000000000001 0.0
0.0 2.0 0.0
0.4 2.0 0.0
0.8 2.0 0.0
1.2000000000000002 2.0 0.0
1.6 2.0 0.0
2.0 2.0 0.0
2.4000000000000004 2.0 0.0
2.8000000000000003 2.0 0.0
3.2 2.0 0.0
3.6 2.0 0.0
4.0 2.0 0.0
4.4 2.0 0.0
4.800000000000001 2.0 0.0
5.2 2.0 0.0
5.6000000000000005 2.0 0.0
6.0 2.0 0.0
6.4 2.0 0.0
6.800000000000001 2.0 0.0
7.2 2.0 0.0
7.6000000000000005 2.0 0.0
8.0 2.0 0.0
8.4 2.0 0.0
8.8 2.0 0.0
9.200000000000001 2.0 0.0
9.600000000000001 2.0 0.0
10.0 2.0 0.0
10.4 2.0 0.0
10.8 2.0 0.0
11.200000000000001 2.0 0.0
11.600000000000001 2.0 0.0
12.0 2.0 0.0
12.4 2.0 0.0
12.8 2.0 0.0
13.200000000000001 2.0 0.0
13.600000000000001 2.0 0.0
14.0 2.0 0.0
14.4 2.0 0.0
14.8 2.0 0.0
15.200000000000001 2.0 0.0
15.600000000000001 2.0 0.0
16.0 2.0 0.0
CELLS 800 4000
4 0 1 42 41
4 1 2 43 42
4 2 3 44 43
4 3 4 45 44
4 4 5 46 45
4 5 6 47 46
4 6 7 48 47
4 7 8 49 48
4 8 9 50 49
4 9 10 51 50
4 10 11 52 51
4 11 12 53 52
4 12 13 54 53
4 13 14 55 54
4 14 15 56 55
4 15 16 57 56
4 16 17 58 57
4 17 18 59 58
4 18 19 60 59
4 19 20 61 60
4 20 21 62 61
4 21 22 63 62
4 22 23 64 63
4 23 24 65 64
4 24 25 66 65
4 25 26 67 66
4 26 27 68 67
4 27 28 69 68
4 28 29 70 69
4 29 30 71 70
4 30 31 72 71
4 31 32 73 72
4 32 33 74 73
4 33 34 75 74
4 34 35 76 75
4 35 36 77 76
4 36 37 78 77
4 37 38 79 78
4 38 39 80 79
4 39 40 81 80
4 41 42 83 82
4 42 43 84 83
4 43 44 85 84
4 44 45 86 85
4 45 46 87 86
4 46 47 88 87
4 47 48 89 88
4 48 49 90 89
4 49 50 91 90
4 50 51 92 91
4 51 52 93 92
4 52 53 94 93
4 53 54 95 94
4 54 55 96 95
4 55 56 97 96
4 56 57 98 97
4 57 58 99 98
4 58 59 100 99
4 59 60 101 100
4 60 61 102 101
4 61 62 103 102
4 62 63 104 103
4 63 64 105 104
4 64 65 106 105
4 65 66 107 106
4 66 67 108 107
4 67 68 109 108
4 68 69 110 109
4 69 70 111 110
4 70 71 112 111
4 71 72 113 112
4 72 73 114 113
4 73 74 115 114
4 74 75 116 115
4 75 76 117 116
4 76 77 118 117
4 77 78 119 118
4 78 79 120 119
4 79 80 121 120
4 80 81 122 121
4 82 83 124 123
4 83 84 125 124
4 84 85 126 125
4 85 86 127 126
4 86 87 128 127
4 87 88 129 128
4 88 89 130 129
4 89 90 131 130
4 90 91 132 131
4 91 92 133 132
4 92 93 134 133
4 93 94 135 134
4 94 95 136 135
4 95 96 137 136
4 96 97 138 137
4 97 98 139 138
4 98 99 140 139
4 99 100 141 140
4 100 101 142 141
4 101 102 143 142
4 102 103 144 143
4 103 104 145 144
4 104 105 146 145
4 105 106 147 146
4 106 107 148 147
4 107 108 149 148
4 108 109 150 149
4 109 110 151 150
4 110 111 152 151
4 111 112 153 152
4 112 113 154 153
4 113 114 155 154
4 114 115 156 155
4 115 116 157 156
4 116 117 158 157
4 117 118 159 158
4 118 119 160 159
4 119 120 161 160
4 120 121 162 161
4 121 122 163 162
4 123 124 165 164
4 124 125 166 165
4 125 126 167 166
4 126 127 168 167
4 127 128 169 168
4 128 129 170 169
4 129 130 171 170
4 130 131 172 171
4 131 132 173 172
4 132 133 174 173
4 133 134 175 174
4 134 135 176 175
4 135 136 177 176
4 136 137 178 177
4 137 138 179 178
4 138 139 180 179
4 139 140 181 180
4 140 141 182 181
4 141 142 183 182
4 142 143 184 183
4 143 144 185 184
4 144 145 186 185
4 145 146 187 186
4 146 147 188 187
4 147 148 189 188
4 148 149 190 189
4 149 150 191 190
4 150 151 192 191
4 151 152 193 192
4 152 153 194 193
4 153 154 195 194
4 154 155 196 195
4 155 156 197 196
4 156 157 198 197
4 157 158 199 198
4 158 159 200 199
4 159 160 201 200
4 160 161 202 201
4 161 162 203 202
4 162 163 204 203
4 164 165 206 205
4 165 166 207 206
4 166 167 208 207
4 167 168 209 208
4 168 169 210 209
4 169 170 211 210
4 170 171 212 211
4 171 172 213 212
4 172 173 214 213
4 173 174 215 214
4 174 175 216 215
4 175 176 217 216
4 176 177 218 217
4 177 178 219 218
4 178 179 220 219
4 179 180 221 220
4 180 181 222 221
4 181 182 223 222
4 182 183 224 223
4 183 184 225 224
4 184 185 226 225
4 185 186 227 226
4 186 187 228 227
4 187 188 229 228
4 188 189 230 229
4 189 190 231 230
4 190 191 232 231
4 191 192 233 232
4 192 193 234 233
4 193 194 235 234
4 194 195 236 235
4 195 196 237 236
4 196 197 238 237
4 197 198 239 238
4 198 199 240 239
4 199 200 241 240
4 200 201 242 241
4 201 202 243 242
4 202 203 244 243
4 203 204 245 244
4 205 206 247 246
4 206 207 248 247
4 207 208 249 248
4 208 209 250 249
4 209 210 251 250
4 210 211 252 251
4 211 212 253 252
4 212 213 254 253
4 213 214 255 254
4 214 215 256 255
4 215 216 257 256
4 216 217 258 257
4 217 218 259 258
4 218 219 260 259
4 219 220 261 260
4 220 221 262 261
4 221 222 263 262
4 222 223 264 263
4 223 224 265 264
4 224 225 266 265
4 225 226 267 266
4 226 227 268 267
4 227 228 269 268
4 228 229 270 269
4 229 230 271 270
4 230 231 272 271
4 231 232 273 272
4 232 233 274 273
4 233 234 275 274
4 234 235 276 275
4 235 236 277 276
4 236 237 278 277
4 237 238 279 278
4 238 239 280 279
4 239 240 281 280
4 240 241 282 281
4 241 242 283 282
4 242 243 284 283
4 243 244 285 284
4 244 245 286 285
4 246 247 288 287
4 247 248 289 288
4 248 249 290 289
4 249 250 291 290
4 250 251 292 291
4 251 252 293 292
4 252 253 294 293
4 253 254 295 294
4 254 255 296 295
4 255 256 297 296
4 256 257 298 297
4 257 258 299 298
4 258 259 300 299
4 259 260 301 300
4 260 261 302 301
4 261 262 303 302
4 262 263 304 303
4 263 264 305 304
4 264 265 306 305
4 265 266 307 306
4 266 267 308 307
4 267 268 309 308
4 268 269 310 309
4 269 270 311 310
4 270 271 312 311
4 271 272 313 312
4 272 273 314 313
4 273 274 315 314
4 274 275 316 315
4 275 276 317 316
4 276 277 318 317
4 277 278 319 318
4 278 279 320 319
4 279 280 321 320
4 280 281 322 321
4 281 282 323 322
4 282 283 324 323
4 283 284 325 324
4 284 285 326 325
4 285 286 327 326
4 287 288 329 328
4 288 289 330 329
4 289 290 331 330
4 290 291 332 331
4 291 292 333 332
4 292 293 334 333
4 293 294 335 334
4 294 295 336 335
4 295 296 337 336
4 296 297 338 337
4 297 298 339 338
4 298 299 340 339
4 299 300 341 340
4 300 301 342 341
4 301 302 343 342
4 302 303 344 343
4 303 304 345 344
4 304 305 346 345
4 305 306 347 346
4 306 307 348 347
4 307 308 349 348
4 308 309 350 349
4 309 310 351 350
4 310 311 352 351
4 311 312 353 352
4 312 313 354 353
4 313 314 355 354
4 314 315 356 355
4 315 316 357 356
4 316 317 358 357
4 317 318 359 358
4 318 319 360 359
4 319 320 361 360
4 320 321 362 361
4 321 322 363 362
4 322 323 364 363
4 323 324 365 364
4 324 325 366 365
4 325 326 367 366
4 326 327 368 367
4 328 329 370 369
4 329 330 371 370
4 330 331 372 371
4 331 332 373 372
4 332 333 374 373
4 333 334 375 374
4 334 335 376 375
4 335 336 377 376
4 336 337 378 377
4 337 338 379 378
4 338 339 380 379
4 339 340 381 380
4 340 341 382 381
4 341 342 383 382
4 342 343 384 383
4 343 344 385 384
4 344 345 386 385
4 345 346 387 386
4 346 347 388 387
4 347 348 389 388
4 348 349 390 389
4 349 350 391 390
4 350 351 392 391
4 351 352 393 392
4 352 353 394 393
4 353 354 395 394
4 354 355 396 395
4 355 356 397 396
4 356 357 398 397
4 357 358 399 398
4 358 359 400 399
4 359 360 401 400
4 360 361 402 401
4 361 362 403 402
4 362 363 404 403
4 363 364 405 404
4 364 365 406 405
4 365 366 407 406
4 366 367 408 407
4 367 368 409 408
4 369 370 411 410
4 370 371 412 411
4 371 372 413 412
4 372 373 414 413
4 373 374 415 414
4 374 375 416 415
4 375 376 417 416
4 376 377 418 417
4 377 378 419 418
4 378 379 420 419
4 379 380 421 420
4 380 381 422 421
4 381 382 423 422
4 382 383 424 423
4 383 384 425 424
4 384 385 426 425
4 385 386 427 426
4 386 387 428 427
4 387 388 429 428
4 388 389 430 429
4 389 390 431 430
4 390 391 432 431
4 391 392 433 432
4 392 393 434 433
4 393 394 435 434
4 394 395 436 435
4 395 396 437 436
4 396 397 438 437
4 397 398 439 438
4 398 399 440 439
4 399 400 441 440
4 400 401 442 441
4 401 402 443 442
4 402 403 444 443
4 403 404 445 444
4 404 405 446 445
4 405 406 447 446
4 406 407 448 447
4 407 408 449 448
4 408 409 450 449
4 410 411 452 451
4 411 412 453 452
4 412 413 454 453
4 413 414 455 454
4 414 415 456 455
4 415 416 457 456
4 416 417 458 457
4 417 418 459 458
4 418 419 460 459
4 419 420 461 460
4 420 421 462 461
4 421 422 463 462
4 422 423 464 463
4 423 424 465 464
4 424 425 466 465
4 425 426 467 466
4 426 427 468 467
4 427 428 469 468
4 428 429 470 469
4 429 430 471 470
4 430 431 472 471
4 431 432 473 472
4 432 433 474 473
4 433 434 475 474
4 434 435 476 475
4 435 436 477 476
4 436 437 478 477
4 437 438 479 478
4 438 439 480 479
4 439 440 481 480
4 440 441 482 481
4 441 442 483 482
4 442 443 484 483
4 443 444 485 484
4 444 445 486 485
4 445 446 487 486
4 446 447 488 487
4 447 448 489 488
4 448 449 490 489
4 449 450 491 490
4 451 452 493 492
4 452 453 494 493
4 453 454 495 494
4 454 455 496 495
4 455 456 497 496
4 456 457 498 497
4 457 458 499 498
4 458 459 500 499
4 459 460 501 500
4 460 461 502 501
4 461 462 503 502
4 462 463 504 503
4 463 464 505 504
4 464 465 506 505
4 465 466 507 506
4 466 467 508 507
4 467 468 509 508
4 468 469 510 509
4 469 470 511 510
4 470 471 512 511
4 471 472 513 512
4 472 473 514 513
4 473 474 515 514
4 474 475 516 515
4 475 476 517 516
4 476 477 518 517
4 477 478 519 518
4 478 479 520 519
4 479 480 521 520
4 480 481 522 521
4 481 482 523 522
4 482 483 524 523
4 483 484 525 524
4 484 485 526 525
4 485 486 527 526
4 486 487 528 527
4 487 488 529 528
4 488 489 530 529
4 489 490 531 530
4 490 491 532 531
4 492 493 534 533
4 493 494 535 534
4 494 495 536 535
4 495 496 537 536
4 496 497 538 537
4 497 498 539 538
4 498 499 540 539
4 499 500 541 540
4 500 501 542 541
4 501 502 543 542
4 502 503 544 543
4 503 504 545 544
4 504 505 546 545
4 505 506 547 546
4 506 507 548 547
4 507 508 549 548
4 508 509 550 549
4 509 510 551 550
4 510 511 552 551
4 511 512 553 552
4 512 513 554 553
4 513 514 555 554
4 514 515 556 555
4 515 516 557 556
4 516 517 558 557
4 517 518 559 558
4 518 519 560 559
4 519 520 561 560
4 520 521 562 561
4 521 522 563 562
4 522 523 564 563
4 523 524 565 564
4 524 525 566 565
4 525 526 567 566
4 526 527 568 567
4 527 528 569 568
4 528 529 570 569
4 529 530 571 570
4 530 531 572 571
4 531 532 573 572
4 533 534 575 574
4 534 535 576 575
4 535 536 577 576
4 536 537 578 577
4 537 538 579 578
4 538 539 580 579
4 539 540 581 580
4 540 541 582 581
4 541 542 583 582
4 542 543 584 583
4 543 544 585 584
4 544 545 586 585
4 545 546 587 586
4 546 547 588 587
4 547 548 589 588
4 548 549 590 589
4 549 550 591 590
4 550 551 592 591
4 551 552 593 592
4 552 553 594 593
4 553 554 595 594
4 554 555 596 595
4 555 556 597 596
4 556 557 598 597
4 557 558 599 598
4 558 559 600 599
4 559 560 601 600
4 560 561 602 601
4 561 562 603 602
4 562 563 604 603
4 563 564 605 604
4 564 565 606 605
4 565 566 607 606
4 566 567 608 607
4 567 568 609 608
4 568 569 610 609
4 569 570 611 610
4 570 571 612 611
4 571 572 613 612
4 572 573 614 613
4 574 575 616 615
4 575 576 617 616
4 576 577 618 617
4 577 578 619 618
4 578 579 620 619
4 579 580 621 620
4 580 581 622 621
4 581 582 623 622
4 582 583 624 623
4 583 584 625 624
4 584 585 626 625
4 585 586 627 626
4 586 587 628 627
4 587 588 629 628
4 588 589 630 629
4 589 590 631 630
4 590 591 632 631
4 591 592 633 632
4 592 593 634 633
4 593 594 635 634
4 594 595 636 635
4 595 596 637 636
4 596 597 638 637
4 597 598 639 638
4 598 599 640 639
4 599 600 641 640
4 600 601 642 641
4 601 602 643 642
4 602 603 644 643
4 603 604 645 644
4 604 605 646 645
4 605 606 647 646
4 606 607 648 647
4 607 608 649 648
4 608 609 650 649
4 609 610 651 650
4 610 611 652 651
4 611 612 653 652
4 612 613 654 653
4 613 614 655 654
4 615 616 657 656
4 616 617 658 657
4 617 618 659 658
4 618 619 660 659
4 619 620 661 660
4 620 621 662 661
4 621 622 663 662
4 622 623 664 663
4 623 624 665 664
4 624 625 666 665
4 625 626 667 666
4 626 627 668 667
4 627 628 669 668
4 628 629 670 669
4 629 630 671 670
4 630 631 672 671
4 631 632 673 672
4 632 633 674 673
4 633 634 675 674
4 634 635 676 675
4 635 636 677 676
4 636 637 678 677
4 637 638 679 678
4 638 639 680 679
4 639 640 681 680
4 640 641 682 681
4 641 642 683 682
4 642 643 684 683
4 643 644 685 684
4 644 645 686 685
4 645 646 687 686
4 646 647 688 687
4 647 648 689 688
4 648 649 690 689
4 649 650 691 690
4 650 651 692 691
4 651 652 693 692
4 652 653 694 693
4 653 654 695 694
4 654 655 696 695
4 656 657 698 697
4 657 658 699 698
4 658 659 700 699
4 659 660 701 700
4 660 661 702 701
4 661 662 703 702
4 662 663 704 703
4 663 664 705 704
4 664 665 706 705
4 665 666 707 706
4 666 667 708 707
4 667 668 709 708
4 668 669 710 709
4 669 670 711 710
4 670 671 712 711
4 671 672 713 712
4 672 673 714 713
4 673 674 715 714
4 674 675 716 715
4 675 676 717 716
4 676 677 718 717
4 677 678 719 718
4 678 679 720 719
4 679 680 721 720
4 680 681 722 721
4 681 682 723 722
4 682 683 724 723
4 683 684 725 724
4 684 685 726 725
4 685 686 727 726
4 686 687 728 727
4 687 688 729 728
4 688 689 730 729
4 689 690 731 730
4 690 691 732 731
4 691 692 733 732
4 692 693 734 733
4 693 694 735 734
4 694 695 736 735
4 695 696 737 736
4 697 698 739 738
4 698 699 740 739
4 699 700 741 740
4 700 701 742 741
4 701 702 743 742
4 702 703 744 743
4 703 704 745 744
4 704 705 746 745
4 705 706 747 746
4 706 707 748 747
4 707 708 749 748
4 708 709 750 749
4 709 710 751 750
4 710 711 752 751
4 711 712 753 752
4 712 713 754 753
4 713 714 755 754
4 714 715 756 755
4 715 716 757 756
4 716 717 758 757
4 717 718 759 758
4 718 719 760 759
4 719 720 761 760
4 720 721 762 761
4 721 722 763 762
4 722 723 764 763
4 723 724 765 764
4 724 725 766 765
4 725 726 767 766
4 726 727 768 767
4 727 728 769 768
4 728 729 770 769
4 729 730 771 770
4 730 731 772 771
4 731 732 773 772
4 732 733 774 773
4 733 734 775 774
4 734 735 776 775
4 735 736 777 776
4 736 737 778 777
4 738 739 780 779
4 739 740 781 780
4 740 741 782 781
4 741 742 783 782
4 742 743 784 783
4 743 744 785 784
4 744 745 786 785
4 745 746 787 786
4 746 747 788 787
4 747 748 789 788
4 748 749 790 789
4 749 750 791 790
4 750 751 792 791
4 751 752 793 792
4 752 753 794 793
4 753 754 795 794
4 754 755 796 795
4 755 756 797 796
4 756 757 798 797
4 757 758 799 798
4 758 759 800 799
4 759 760 801 800
4 760 761 802 801
4 761 762 803 802
4 762 763 804 803
4 763 764 805 804
4 764 765 806 805
4 765 766 807 806
4 766 767 808 807
4 767 768 809 808
4 768 769 810 809
4 769 770 811 810
4 770 771 812 811
4 771 772 813 812
4 772 773 814 813
4 773 774 815 814
4 774 775 816 815
4 775 776 817 816
4 776 777 818 817
4 777 778 819 818
4 779 780 821 820
4 780 781 822 821
4 781 782 823 822
4 782 783 824 823
4 783 784 825 824
4 784 785 826 825
4 785 786 827 826
4 786 787 828 827
4 787 788 829 828
4 788 789 830 829
4 789 790 831 830
4 790 791 832 831
4 791 792 833 832
4 792 793 834 833
4 793 794 835 834
4 794 795 836 835
4 795 796 837 836
4 796 797 838 837
4 797 798 839 838
4 798 799 840 839
4 799 800 841 840
4 800 801 842 841
4 801 802 843 842
4 802 803 844 843
4 803 804 845 844
4 804 805 846 845
4 805 806 847 846
4 806 807 848 847
4 807 808 849 848
4 808 809 850 849
4 809 810 851 850
4 810 811 852 851
4 811 812 853 852
4 812 813 854 853
4 813 814 855 854
4 814 815 856 855
4 815 816 857 856
4 816 817 858 857
4 817 818 859 858
4 818 819 860 859
CELL_TYPES 800
9
9
9
9
9
9
9
9
9
9
9
9
9
9
9
9
9
9
9
9
9
9
9
9
9
9
9
9
9
9
9
9
9
9
9
9
9
9
9
9
9
9
9
9
9
9
9
9
9
9
9
9
9
9
9
9
9
9
9
9
9
9
9
9
9
9
9
9
9
9
9
9
9
9
9
9
9
9
9
9
9
9
9
9
9
9
9
9
9
9
9
9
9
9
9
9
9
9
9
9
9
9
9
9
9
9
9
9
9
9
9
9
9
9
9
9
9
9
9
9
9
9
9
9
9
9
9
9
9
9
9
9
9
9
9
9
9
9
9
9
9
9
9
9
9
9
9
9
9
9
9
9
9
9
9
9
9
9
9
9
9
9
9
9
9
9
9
9
9
9
9
9
9
9
9
9
9
9
9
9
9
9
9
9
9
9
9
9
9
9
9
9
9
9
9
9
9
9
9
9
9
9
9
9
9
9
9
9
9
9
9
9
9
9
9
9
9
9
9
9
9
9
9
9
9
9
9
9
9
9
9
9
9
9
9
9
9
9
9
9
9
9
9
9
9
9
9
9
9
9
9
9
9
9
9
9
9
9
9
9
9
9
9
9
9
9
9
9
9
9
9
9
9
9
9
9
9
9
9
9
9
9
9
9
9
9
9
9
9
9
9
9
9
9
9
9
9
9
9
9
9
9
9
9
9
9
9
9
9
9
9
9
9
9
9
9
9
9
9
9
9
9
9
9
9
9
9
9
9
9
9
9
9
9
9
9
9
9
9
9
9
9
9
9
9
9
9
9
9
9
9
9
9
9
9
9
9
9
9
9
9
9
9
9
9
9
9
9
9
9
9
9
9
9
9
9
9
9
9
9
9
9
9
9
9
9
9
9
9
9
9
9
9
9
9
9
9
9
9
9
9
9
9
9
9
9
9
9
9
9
9
9
9
9
9
9
9
9
9
9
9
9
9
9
9
9
9
9
9
9
9
9
9
9
9
9
9
9
9
9
9
9
9
9
9
9
9
9
9
9
9
9
9
9
9
9
9
9
9
9
9
9
9
9
9
9
9
9
9
9
9
9
9
9
9
9
9
9
9
9
9
9
9
9
9
9
9
9
9
9
9
9
9
9
9
9
9
9
9
9
9
9
9
9
9
9
9
9
9
9
9
9
9
9
9
9
9
9
9
9
9
9
9
9
9
9
9
9
9
9
9
9
9
9
9
9
9
9
9
9
9
9
9
9
9
9
9
9
9
9
9
9
9
9
9
9
9
9
9
9
9
9
9
9
9
9
9
9
9
9
9
9
9
9
9
9
9
9
9
9
9
9
9
9
9
9
9
9
9
9
9
9
9
9
9
9
9
9
9
9
9
9
9
9
9
9
9
9
9
9
9
9
9
9
9
9
9
9
9
9
9
9
9
9
9
9
9
9
9
9
9
9
9
9
9
9
9
9
9
9
9
9
9
9
9
9
9
9
9
9
9
9
9
9
9
9
9
9
9
9
9
9
9
9
9
9
9
9
9
9
9
9
9
9
9
9
9
9
9
9
9
9
9
9
9
9
9
9
9
9
9
9
9
9
9
9
9
9
9
9
9
9
9
9
9
9
9
9
9
9
9
9
9
9
9
9
9
9
9
9
9
9
9
9
9
9
9
9
9
9
9
9
9
9
9
9
9
9
9
9
9
9
9
9
9
9
9
9
9
9
9
9
9
9
9
9
9
9
9
9
9
9
9
9
9
9
9
9
9
9
9
9
9
9
9
9
9
9
9
9
9
9
9
9
9
9
9
9
9
9
9
9
9
9
9
9
9
9
9
9
POINT_DATA 861
SCALARS Disp float 2
LOOKUP_TABLE default
0.0 0.0
0.018802225164262814 -0.3436247283510681
0.033489828991043614 -0.6339751607830832
0.0452712698061183 -0.919341708117569
0.058731099046830666 -1.1992197553933766
0.07491892850246826 -1.4734848497748
0.09435092525718071 -1.7408263830202417
0.11723424690612955 -1.9998283422265928
0.14363670669503462 -2.249027482712417
0.17357402176420264 -2.4869785501697295
0.20704384170868753 -2.712253026677269
0.24404074794470493 -2.9234354941375225
0.28456140576020644 -3.1191192388050197
0.32860950657042304 -3.2979042906684106
0.37620638084533553 -3.458392774584262
0.42741044076429413 -3.599169687407255
0.48233674665723547 -3.7187480391641503
0.5411376604186471 -3.8154583913168896
0.6038605053184392 -3.887306197822508
0.6700971289102234 -3.931953678260862
0.7385381376251823 -3.9471738543992534
0.8069791463401409 -3.9319536782608604
0.8732157699319248 -3.8873061978225065
0.9359386148317167 -3.8154583913168882
0.9947395285931282 -3.71874803916415
1.0496658344860694 -3.599169687407255
1.1008698944050281 -3.458392774584261
1.1484667686799408 -3.297904290668409
1.192514869490157 -3.1191192388050184
1.2330355273056584 -2.9234354941375216
1.2700324335416762 -2.7122530266772684
1.3035022534861609 -2.4869785501697286
1.333439568555329 -2.2490274827124157
1.3598420283442343 -1.9998283422265914
1.3827253499931829 -1.7408263830202397
1.4021573467478952 -1.4734848497748005
1.4183451762035328 -1.1992197553933759
1.431805005444245 -0.9193417081175695
1.4435864462593198 -0.6339751607830824
1.4582740500861007 -0.34362472835106705
1.4770762752503634 0.0
0.08512048646174887 -0.011676545834989952
0.09682867348240166 -0.34271450120910296
0.10493248015088777 -0.6356239255723678
0.11584910339258114 -0.920491223937599
0.12781982165311814 -1.2007342699169028
0.1424351290004326 -1.4752888426331408
0.15994808629666143 -1.7429797231833917
0.18055936701297637 -2.002336397285746
0.2043289569611925 -2.251895030923144
0.23127529645727504 -2.490205701821853
0.261399041426771 -2.7158394219420248
0.2946970614655615 -2.927380674626309
0.33116764897709555 -3.123423157667933
0.37081518341001074 -3.3025679557215435
0.4136586678067544 -3.463419667471302
0.45974559666330406 -3.604567838033713
0.5091620589095086 -3.7245307639631053
0.5620053913101861 -3.8216377437099203
0.6182538992968504 -3.893869442979381
0.6774820048847313 -3.938819732226933
0.7385381376251821 -3.954159984756017
0.7995942703656329 -3.938819732226932
0.8588223759535136 -3.8938694429793803
0.9150708839401777 -3.821637743709919
0.9679142163408552 -3.7245307639631045
1.0173306785870593 -3.604567838033712
1.0634176074436092 -3.463419667471301
1.106261091840353 -3.3025679557215417
1.145908626273268 -3.123423157667932
1.1823792137848022 -2.927380674626308
1.2156772338235926 -2.7158394219420243
1.2458009787930884 -2.490205701821852
1.272747318289171 -2.251895030923143
1.2965169082373873 -2.002336397285745
1.317128188953702 -1.7429797231833895
1.334641146249931 -1.4752888426331412
1.3492564535972453 -1.2007342699169021
1.3612271718577822 -0.9204912239375994
1.3721437950994757 -0.6356239255723669
1.3802476017679617 -0.3427145012091019
1.3919557887886145 -0.011676545834990016
0.1644451335942573 -0.02170637997684262
0.17284290906137936 -0.3420469428981472
0.17720433361143595 -0.6365323717209828
0.1859449010633711 -0.9216103113585294
0.19655972579725875 -1.2020454618682248
0.2094938666841873 -1.4769090192322436
0.22507453864413962 -1.7449050554291794
0.24340357273006089 -2.004581581077383
0.2645387044448822 -2.254461138448107
0.2884941945555019 -2.493093449534164
0.31527247256256596 -2.719048466241141
0.3448719688837726 -2.930910740479536
0.37729203653200777 -3.1272742181231354
0.41253650729858315 -3.3067407244150857
0.4506197720401913 -3.4679165927309326
0.4915760339746299 -3.6093946560310184
0.5354646787817408 -3.7296972357827087
0.5823457341603155 -3.8271530084949372
0.6321739408750144 -3.8997237074897164
0.684567946825368 -3.944946774261809
0.7385381376251818 -3.960399294631028
0.7925083284249961 -3.9449467742618087
0.8449023343753493 -3.899723707489715
0.8947305410900482 -3.827153008494936
0.9416115964686229 -3.7296972357827074
0.9855002412757334 -3.6093946560310175
1.0264565032101725 -3.4679165927309317
1.0645397679517805 -3.3067407244150835
1.0997842387183558 -3.1272742181231337
1.1322043063665912 -2.930910740479535
1.1618038026877977 -2.7190484662411407
1.1885820806948615 -2.4930934495341632
1.2125375708054813 -2.2544611384481064
1.2336727025203027 -2.0045815810773817
1.252001736606224 -1.7449050554291772
1.2675824085661762 -1.4769090192322438
1.2805165494531048 -1.202045461868224
1.2911313741869923 -0.9216103113585299
1.2998719416389275 -0.6365323717209821
1.3042333661889842 -0.34204694289814613
1.312631141656106 -0.02170637997684271
0.24034523178287717 -0.030278807652406207
0.24701589044835354 -0.34185066105659767
0.24932853049367582 -0.6369346629974227
0.25583414772250124 -0.9225349420853896
0.26491065764779664 -1.2031864561588987
0.27616288413584567 -1.4783263560626145
0.2897800803765376 -1.7466032682643673
0.3058222315991517 -2.006562310150154
0.3243200187351146 -2.2567258877111045
0.3452846013183767 -2.4956418206668913
0.3687176745488001 -2.7218802536647453
0.39461880099264174 -2.9340256917047136
0.4229878078856315 -3.1306722041168897
0.45382704361479576 -3.3104218738545157
0.48714477494428 -3.4718818999205094
0.5229608402296649 -3.6136474229678783
0.5613112349601417 -3.734245119890015
0.6022347063643764 -3.8320075591945075
0.6456990326534027 -3.904888284780114
0.691410924523928 -3.9503782220477
0.738538137625182 -3.965948786486395
0.7856653507264358 -3.950378222047699
0.831377242596961 -3.9048882847801125
0.8748415688859875 -3.8320075591945066
0.9157650402902221 -3.7342451198900135
0.9541154350206986 -3.613647422967877
0.9899315003060838 -3.471881899920508
1.023249231635568 -3.310421873854514
1.0540884673647322 -3.1306722041168884
1.0824574742577218 -2.934025691704712
1.1083586007015633 -2.721880253664745
1.1317916739319869 -2.4956418206668904
1.1527562565152487 -2.2567258877111036
1.1712540436512118 -2.0065623101501533
1.1872961948738259 -1.746603268264365
1.2009133911145178 -1.478326356062615
1.2121656176025668 -1.203186456158898
1.2212421275278622 -0.9225349420853898
1.2277477447566878 -0.636934662997422
1.23006038480201 -0.3418506610565966
1.2367310434674863 -0.03027880765240633
0.3140571387040535 -0.03758016873950647
0.31968732042908327 -0.342101527041021
0.32090895506149253 -0.6370474864152758
0.32549380174005416 -0.9232182415013319
0.3329283291237728 -1.2041472318039022
0.34247945375611943 -1.479539910524717
0.35412069590749345 -1.7480708387104908
0.3678684994337005 -2.0082783992533635
0.3837272128526808 -2.258688965790507
0.40170028138836217 -2.497850871634571
0.4217882221852543 -2.7243348121774087
0.44399094294548236 -2.9367255086459716
0.46830834927617737 -3.1336169244885865
0.49474066786559495 -3.3136108562045963
0.5232892532086194 -3.4753144461045857
0.5539594697454021 -3.6173244462816188
0.5867674070433914 -3.738173497414788
0.6217436300303438 -3.836205553666616
0.6588970537467367 -3.9093802903014825
0.6980549108005202 -3.955150290696301
0.7385381376251818 -3.970855967871765
0.7790213644498437 -3.9551502906963005
0.818179221503627 -3.9093802903014816
0.85533264522002 -3.8362055536666144
0.8903088682069725 -3.7381734974147873
0.9231168055049613 -3.617324446281618
0.9537870220417444 -3.475314446104584
0.9823356073847688 -3.3136108562045945
1.0087679259741862 -3.133616924488585
1.0330853323048812 -2.9367255086459703
1.055288053065109 -2.7243348121774082
1.0753759938620013 -2.49785087163457
1.0933490623976827 -2.258688965790506
1.109207775816663 -2.0082783992533626
1.12295557934287 -1.7480708387104886
1.134596821494244 -1.4795399105247167
1.1441479461265907 -1.2041472318039015
1.1515824735103093 -0.9232182415013322
1.156167320188871 -0.6370474864152749
1.1573889548212801 -0.34210152704102
1.16301913654631 -0.03758016873950658
0.3862910854871862 -0.04378180794437261
0.39118368821477534 -0.3426966102974144
0.3918290321944844 -0.6370206611738484
0.3948607580598175 -0.9236719800778096
0.40065746863481716 -1.2049162128512603
0.40848796376974933 -1.4805492242406098
0.41814797798385345 -1.7493061379327346
0.42959632898816247 -2.009729249872701
0.44281410557593864 -2.260350240461448
0.45779504981809954 -2.4997205573580117
0.47453767588968554 -2.7264121494236093
0.49304183502802346 -2.939010153439104
0.5133071592334851 -3.13610823719243
0.5353314621856134 -3.316307329563409
0.5591090430920578 -3.4782136069557517
0.5846313888707394 -3.6204249440830747
0.6118977070776318 -3.741482407948543
0.6409397223913408 -3.8397509622840365
0.6718277333569393 -3.9132137173091874
0.7045356081353616 -3.9592929778529387
0.7385381376251817 -3.9751616947879755
0.7725406671150021 -3.959292977852938
0.8052485418934242 -3.9132137173091865
0.836136552859023 -3.8397509622840356
0.8651785681727322 -3.7414824079485425
0.8924448863796239 -3.620424944083074
0.9179672321583059 -3.478213606955751
0.9417448130647502 -3.3163073295634073
0.9637691160168785 -3.136108237192429
0.9840344402223402 -2.939010153439103
1.002538599360678 -2.726412149423609
1.019281225432264 -2.499720557358011
1.034262169674425 -2.2603502404614466
1.047479946262201 -2.0097292498727
1.0589282972665102 -1.7493061379327326
1.068588311480614 -1.4805492242406098
1.0764188066155462 -1.2049162128512598
1.0822155171905459 -0.9236719800778102
1.085247243055879 -0.6370206611738477
1.0858925870355882 -0.3426966102974135
1.0907851897631773 -0.043781807944372746
0.4574899641387767 -0.04903271258863945
0.46177822776812 -0.34352165593783685
0.46210456409667405 -0.6369434233634079
0.46389852234759 -0.9239297068173329
0.4681291489255553 -1.2054906118375608
0.4742357756660824 -1.4813534719933847
0.48191264314093135 -1.7503087936277963
0.491059247166476 -2.0109143955935673
0.5016344823642748 -2.261709580584837
0.5136226340610395 -2.5012508179063815
0.5270196117254374 -2.7281122376784213
0.5418249514853336 -2.940879585554616
0.5580378148921248 -3.138146059890143
0.5756536105467696 -3.318511168964314
0.5946600217699358 -3.48057926084301
0.6150357887854965 -3.6229489325610635
0.6367654286222199 -3.744172493948725
0.6598869049383864 -3.8426468599030343
0.6845448369224291 -3.9163988225603745
0.7108828681907817 -3.9628307660793776
0.7385381376251816 -3.9789023062066864
0.7661934070595819 -3.9628307660793776
0.7925314383279346 -3.9163988225603736
0.8171893703119774 -3.842646859903034
0.8403108466281439 -3.744172493948724
0.8620404864648671 -3.6229489325610627
0.882416253480428 -3.4805792608430086
0.9014226647035941 -3.3185111689643123
0.9190384603582389 -3.1381460598901416
0.9352513237650301 -2.940879585554615
0.9500566635249262 -2.728112237678421
0.9634536411893242 -2.501250817906381
0.9754417928860889 -2.2617095805848355
0.9860170280838877 -2.0109143955935664
0.9951636321094323 -1.7503087936277943
1.002840499584281 -1.481353471993385
1.0089471263248082 -1.2054906118375601
1.0131777529027735 -0.9239297068173334
1.0149717111536893 -0.6369434233634073
1.0152980474822435 -0.3435216559378359
1.0195863111115868 -0.049032712588639615
0.5279498869753928 -0.05345814065861245
0.5316916318710035 -0.3444754207015967
0.5318108878364052 -0.6368613677845689
0.5326062406608161 -0.9240279343034464
0.5353713816664578 -1.205875827990592
0.5397699702947749 -1.481952915789615
0.545465758882199 -1.7510790484277425
0.5523103963069094 -2.011833682615425
0.5602420616542175 -2.2627668612652028
0.5692367101676052 -2.5024415823788635
0.5792875996133359 -2.729435026583709
0.5903937933223579 -2.942333765608153
0.602553934237922 -3.1397303743621925
0.6157613017341736 -3.3202224575584025
0.6299979082843278 -3.4824117516419606
0.6452313454599826 -3.624897129427945
0.6614327008448162 -3.746244766340229
0.6786467416855726 -3.84489496552439
0.6970981269926888 -3.9189416579340466
0.717122391542573 -3.965783021554917
0.7385381376251815 -3.9821114118277126
0.7599538837077907 -3.9657830215549175
0.779978148257675 -3.9189416579340457
0.7984295335647912 -3.8448949655243894
0.8156435744055474 -3.7462447663402285
0.8318449297903809 -3.624897129427944
0.8470783669660358 -3.4824117516419593
0.86131497351619 -3.3202224575584007
0.8745223410124414 -3.139730374362191
0.8866824819280058 -2.942333765608151
0.8977886756370279 -2.729435026583709
0.9078395650827583 -2.5024415823788626
0.9168342135961461 -2.2627668612652014
0.9247658789434543 -2.011833682615424
0.9316105163681647 -1.7510790484277405
0.9373063049555886 -1.481952915789615
0.9417048935839057 -1.2058758279905912
0.9444700345895475 -0.924027934303447
0.9452653874139584 -0.6368613677845685
0.94538464337936 -0.34447542070159576
0.9491263882749705 -0.05345814065861259
0.5978813178281781 -0.05716186199841648
0.6011021553364655 -0.3454763893118097
0.60104698146905 -0.6367918031304973
0.601012202846959 -0.923998073593135
0.6024162993726219 -1.2060822130910858
0.6051372633897901 -1.4823496133499383
0.6088587750657348 -1.7516176100258873
0.6134028156522421 -2.012487226275531
0.6186904625576826 -2.263522001525709
0.6246909166738633 -2.5032927679382095
0.6313951967545941 -2.7303804515703503
0.6388018754668708 -2.943372658637155
0.6469091436680516 -3.1408612221786876
0.6557086447152946 -3.321441461311845
0.6651780875706731 -3.483711832336314
0.6752760027674681 -3.626270878472448
0.6859605810259628 -3.74770050428993
0.6972794291059644 -3.846495412393268
0.709535193917787 -3.92084364797007
0.7232770348888617 -3.9681640634258857
0.7385381376251816 -3.9848215716525774
0.7537992403615018 -3.968164063425886
0.7675410813325768 -3.9208436479700692
0.7797968461443994 -3.846495412393267
0.7911156942244008 -3.747700504289929
0.8018002724828955 -3.626270878472448
0.8118981876796904 -3.483711832336313
0.8213676305350691 -3.3214414613118435
0.8301671315823119 -3.1408612221786867
0.8382743997834927 -2.9433726586371534
0.8456810784957696 -2.73038045157035
0.8523853585765002 -2.5032927679382087
0.8583858126926811 -2.263522001525708
0.8636734595981216 -2.01248722627553
0.8682175001846286 -1.751617610025885
0.8719390118605734 -1.4823496133499388
0.8746599758777418 -1.2060822130910849
0.8760640724034046 -0.9239980735931356
0.8760292937813137 -0.6367918031304968
0.8759741199138981 -0.34547638931180874
0.8791949574221855 -0.05716186199841661
0.6674422634719628 -0.06022994173877344
0.670155949478475 -0.34646256297957756
0.6699181189593062 -0.6367351077528204
0.6691650290919879 -0.9238639717398683
0.6693030921478662 -1.2061220711941638
0.6703850765498583 -1.48254729233777
0.6721434711043203 -1.7519256560021714
0.6743896023291615 -2.0128753367031864
0.6770332304703257 -2.2639749744696642
0.6800388514084033 -2.5038042854243674
0.6833959458788524 -2.7309484380958438
0.687102715028364 -2.9439962356120626
0.6911570509253099 -3.141538694096483
0.6955496028823408 -3.3221685896736655
0.7002554624551336 -3.4844805890669757
0.7052267562580995 -3.627072090873821
0.7104091087386911 -3.748541293616184
0.7158447794088895 -3.84744675212577
0.7219032908267597 -3.9221011683582705
0.7293679501345653 -3.9699828439345057
0.7385381376251817 -3.9870660609200925
0.7477083251157983 -3.9699828439345057
0.7551729844236041 -3.92210116835827
0.7612314958414743 -3.8474467521257685
0.7666671665116724 -3.7485412936161833
0.7718495189922641 -3.62707209087382
0.7768208127952301 -3.4844805890669743
0.7815266723680229 -3.3221685896736637
0.7859192243250536 -3.1415386940964822
0.7899735602219996 -2.9439962356120613
0.7936803293715111 -2.7309484380958433
0.7970374238419603 -2.5038042854243665
0.800043044780038 -2.263974974469664
0.8026866729212021 -2.0128753367031855
0.8049328041460432 -1.7519256560021692
0.8066911987005052 -1.4825472923377705
0.8077731831024973 -1.2061220711941634
0.8079112461583756 -0.9238639717398688
0.8071581562910575 -0.6367351077528198
0.8069203257718887 -0.34646256297957656
0.8096340117784008 -0.06022994173877356
0.7367572002474428 -0.0627348505145261
0.7389753766315783 -0.34738885808234804
0.7385278466500749 -0.6366824296846809
0.7371262666629907 -0.9236420796764002
0.7360783538332111 -1.2060075936202423
0.7355625641425065 -1.4825508026622651
0.7353720551057794 -1.752004791547172
0.7353239747893894 -2.0129984594659636
0.7353238729486794 -2.2641257959935785
0.7353340698467383 -2.5039760447272563
0.735343372684725 -2.7311389049794847
0.7353498227388681 -2.944204472575671
0.7353512246060867 -3.141762915337146
0.7353379513086741 -3.322404346074638
0.7352843434453871 -3.484719343430235
0.7351394219086271 -3.6273031875044355
0.7348372340113244 -3.7487691985055402
0.734403131943952 -3.8477462263279865
0.7342513289609215 -3.9227051281351653
0.7354157587302611 -3.971242125319001
0.7385381376251817 -3.988880909596325
0.7416605165201025 -3.971242125319001
0.7428249462894423 -3.9227051281351653
0.7426731433064115 -3.8477462263279856
0.7422390412390392 -3.748769198505539
0.7419368533417364 -3.6273031875044346
0.7417919318049767 -3.4847193434302346
0.7417383239416894 -3.322404346074636
0.7417250506442769 -3.141762915337145
0.7417264525114954 -2.9442044725756698
0.7417329025656385 -2.7311389049794843
0.7417422054036252 -2.5039760447272554
0.7417524023016842 -2.264125795993578
0.7417523004609743 -2.0129984594659627
0.7417042201445841 -1.75200479154717
0.741513711107857 -1.4825508026622654
0.7409979214171525 -1.206007593620242
0.7399500085873728 -0.9236420796764008
0.7385484286002887 -0.6366824296846801
0.7381008986187853 -0.34738885808234715
0.7403190750029208 -0.06273485051452621
0.8059281758286748 -0.06473931823670447
0.8076651091101994 -0.3482240052718824
0.8069746088039934 -0.6366206508253961
0.804965051851864 -0.9233426838107334
0.80279523654891 -1.205749681376427
0.8007212209065596 -1.4823654685447432
0.7985973367715468 -1.751856916254402
0.7962592992465565 -2.0128571217618494
0.7936158818672981 -2.263974505512161
0.7906300868780769 -2.503807956957239
0.7872909834404773 -2.7309517676148394
0.7835966978068077 -2.9439973479926653
0.779545180780442 -3.141534028488535
0.7751272581121981 -3.322149273754396
0.7703183917371288 -3.484429531633714
0.7650683918995332 -3.626967013090185
0.7593025188430548 -3.748387044690362
0.7530160826826547 -3.8473903741358293
0.7466322130583714 -3.922640618503459
0.741442011264624 -3.9719369612433777
0.7385381376251817 -3.9903074265603036
0.7356342639857396 -3.971936961243378
0.7304440621919924 -3.922640618503459
0.7240601925677088 -3.847390374135829
0.7177737564073088 -3.7483870446903604
0.7120078833508303 -3.6269670130901845
0.7067578835132348 -3.4844295316337126
0.7019490171381655 -3.3221492737543947
0.6975310944699216 -3.1415340284885342
0.6934795774435557 -2.9439973479926644
0.6897852918098862 -2.730951767614839
0.6864461883722867 -2.5038079569572376
0.6834603933830655 -2.2639745055121607
0.680816976003807 -2.012857121761849
0.6784789384788168 -1.7518569162544
0.6763550543438039 -1.4823654685447434
0.6742810387014536 -1.205749681376427
0.6721112233984996 -0.9233426838107338
0.6701016664463703 -0.6366206508253953
0.6694111661401643 -0.3482240052718816
0.6711480994216887 -0.06473931823670456
0.8750413301475952 -0.06629971148216639
0.8763163422799088 -0.34894768298297746
0.8753506514219737 -0.6365354832179104
0.8727545989919929 -0.92297143247122
0.869512246919929 -1.2053574114322865
0.865915072755274 -1.4819965042188392
0.8618728684890712 -1.7514840258104032
0.8572491022101494 -2.0124518721416607
0.8519627398129644 -2.2635211455876982
0.8459803786543567 -2.503299934278564
0.8392922638662155 -2.730386941082796
0.8318968268476511 -2.943374839131626
0.8237923769293362 -3.1408521751255987
0.8149708856945685 -3.3214039038124867
0.8054106336633448 -3.4836125646804676
0.7950664146280353 -3.626066679777124
0.7838605037709807 -3.7473987595020715
0.7717468192743746 -3.8463760807885263
0.7591057204115739 -3.9218867888812587
0.7474713201259003 -3.9720521779480618
0.7385381376251817 -3.9913954540331957
0.7296049551244632 -3.9720521779480618
0.7179705548387897 -3.9218867888812587
0.7053294559759888 -3.8463760807885254
0.6932157714793827 -3.7473987595020706
0.6820098606223284 -3.6260666797771237
0.6716656415870189 -3.4836125646804663
0.6621053895557948 -3.3214039038124854
0.6532838983210275 -3.1408521751255973
0.6451794484027122 -2.943374839131625
0.6377840113841481 -2.730386941082795
0.6310958965960068 -2.503299934278563
0.6251135354373991 -2.263521145587698
0.6198271730402141 -2.0124518721416593
0.6152034067612924 -1.751484025810401
0.6111612024950894 -1.4819965042188394
0.6075640283304344 -1.2053574114322865
0.6043216762583706 -0.9229714324712207
0.6017256238283899 -0.6365354832179095
0.6007599329704548 -0.3489476829829767
0.6020349451027683 -0.06629971148216648
0.944170540193528 -0.06746889371786585
0.9450095062657186 -0.34954812310314265
0.9437420215900074 -0.6364133774815752
0.9405701162437419 -0.922530811337368
0.9362921021225838 -1.2048378990540412
0.9312005630184251 -1.4814485465858391
0.9252529946106971 -1.7508879887711664
0.9183470669431452 -2.0117832119597168
0.9104179146711295 -2.262765742898668
0.9014383825504143 -2.5024518892125442
0.8914006792360903 -2.72944434338878
0.8803036873776724 -2.9423369186047394
0.8681462152593895 -3.139717476124585
0.8549220009817938 -3.3201687117640843
0.8406135557530862 -3.4822696864812634
0.825184495062921 -3.6246052909501607
0.8085636551153941 -3.7458096508257426
0.7906596508667625 -3.844702199802252
0.7717421242370534 -3.9204172872840983
0.75353485589992 -3.971558389999865
0.7385381376251817 -3.9922076279222645
0.7235414193504436 -3.9715583899998648
0.7053341510133101 -3.9204172872840983
0.6864166243836007 -3.844702199802251
0.6685126201349694 -3.7458096508257417
0.6518917801874426 -3.6246052909501603
0.6364627194972774 -3.4822696864812617
0.6221542742685695 -3.3201687117640826
0.6089300599909739 -3.1397174761245843
0.596772587872691 -2.9423369186047386
0.5856755960142732 -2.72944434338878
0.5756378926999494 -2.502451889212543
0.566658360579234 -2.2627657428986674
0.5587292083072183 -2.011783211959715
0.5518232806396663 -1.7508879887711641
0.5458757122319384 -1.4814485465858394
0.5407841731277798 -1.204837899054041
0.5365061590066216 -0.9225308113373687
0.5333342536603564 -0.6364133774815746
0.5320667689846451 -0.34954812310314176
0.5329057350568357 -0.06746889371786596
1.0133790790511554 -0.06829859690041627
1.0138157859207497 -0.3500202335126028
1.0122291168229276 -0.6362427471716956
1.0084878110730102 -0.9220214305294028
1.0032008140663065 -1.2041963542435372
0.9966362423632997 -1.4807252995738958
0.988792791381936 -1.7500703317150912
0.9796070054406123 -2.0108515247015464
0.9690348454604326 -2.2617082919061056
0.9570574952579577 -2.50126373493734
0.9436696754497538 -2.7281238990212024
0.9288707543640424 -2.940883552883253
0.9126600612558051 -3.138130010297516
0.8950335828787062 -3.318444082659099
0.8759792523543397 -3.4804018664688754
0.8554720886932116 -3.6225855138680623
0.8334599341719563 -3.74362639336347
0.809817964837982 -3.842371864410591
0.7846266382760854 -3.9182019337521212
0.7596765440964937 -3.9704058672330347
0.7385381376251817 -3.992824891474735
0.7173997311538699 -3.9704058672330342
0.6924496369742779 -3.918201933752121
0.6672583104123813 -3.842371864410591
0.6436163410784072 -3.7436263933634697
0.6216041865571519 -3.622585513868062
0.6010970228960237 -3.4804018664688736
0.5820426923716571 -3.318444082659097
0.5644162139945584 -3.138130010297515
0.5482055208863212 -2.940883552883252
0.5334065998006097 -2.728123899021202
0.5200187799924059 -2.5012637349373392
0.5080414297899308 -2.2617082919061047
0.4974692698097511 -2.010851524701545
0.4882834838684275 -1.7500703317150892
0.4804400328870639 -1.4807252995738962
0.4738754611840572 -1.2041963542435368
0.4685884641773534 -0.9220214305294034
0.46484715842743607 -0.6362427471716949
0.46326048932961406 -0.350020233512602
0.46369719619920835 -0.06829859690041636
1.0827196901845297 -0.06884133694049734
1.0827976634197463 -0.3503642385971225
1.0808876140972443 -0.6360148827691782
1.0765847608706571 -0.921443071931768
1.0703070247618722 -1.2034361764931938
1.0622823320739485 -1.4798292627968168
1.0525479054689808 -1.7490320554985044
1.0410828008569653 -2.0096570124968713
1.0278669210167064 -2.2603487429709825
1.0128910697301565 -2.499735387841577
0.9961526821685807 -2.7264255425725388
0.9776515051348491 -2.9390147045787027
0.9573872828892722 -3.136089794842547
0.9353584378729634 -3.3162302697287536
0.9115595177939324 -3.478009777780968
0.8859777998207283 -3.6200090518819947
0.8585914218026017 -3.740856312046878
0.8292792595916879 -3.8393954403414208
0.7978642165945056 -3.915210930069103
0.7659647207732523 -3.9685153101774095
0.7385381376251816 -3.9933532732867687
0.711111554477111 -3.968515310177409
0.6792120586558578 -3.9152109300691027
0.6477970156586754 -3.8393954403414208
0.6184848534477616 -3.7408563120468776
0.591098475429635 -3.6200090518819943
0.5655167574564312 -3.478009777780967
0.5417178373774 -3.3162302697287513
0.5196889923610915 -3.136089794842546
0.4994247701155145 -2.9390147045787014
0.4809235930817828 -2.7264255425725383
0.4641852055202071 -2.499735387841576
0.4492093542336571 -2.260348742970981
0.4359934743933982 -2.00965701249687
0.4245283697813827 -1.7490320554985022
0.41479394317641527 -1.4798292627968175
0.40676925048849155 -1.2034361764931931
0.40049151437970637 -0.9214430719317687
0.39618866115311946 -0.6360148827691775
0.3942786118306176 -0.35036423859712157
0.3943565850658339 -0.0688413369404974
1.1522331126263652 -0.0691518639327388
1.1520086197265575 -0.350584886571676
1.149789885166739 -0.6357248427276393
1.1449395206071165 -0.9207954539150478
1.1376815193589636 -1.202558966537603
1.1282001932603587 -1.4787615184134897
1.1165743117302027 -1.747773497031603
1.1028283203828373 -2.00819964885401
1.0869674533833904 -2.258686997199212
1.06899241116551 -2.4978667733390294
1.0489031202169323 -2.724349222571175
1.0266994206783142 -2.936730336332674
1.0023812931839429 -3.1335967826749545
0.9759493011075502 -3.313527316058953
0.9474056947642793 -3.475093875321299
0.9167505718139298 -3.616876283870759
0.8839944165048882 -3.737505353625718
0.8490851947912768 -3.835793475120659
0.8115823196831237 -3.911424136002339
0.7725153224556474 -3.9657644232031295
0.7385381376251817 -3.9939310686900833
0.704560952794716 -3.965764423203129
0.6654939555672397 -3.9114241360023385
0.6279910804590866 -3.8357934751206586
0.593081858745475 -3.7375053536257172
0.5603257034364336 -3.616876283870758
0.5296705804860841 -3.475093875321298
0.5011269741428133 -3.313527316058951
0.4746949820664208 -3.1335967826749536
0.4503768545720492 -2.9367303363326727
0.4281731550334313 -2.7243492225711745
0.4080838640848535 -2.497866773339028
0.39010882186697327 -2.258686997199211
0.37424795486752616 -2.0081996488540086
0.36050196352016084 -1.7477734970316008
0.3488760819900049 -1.4787615184134901
0.33939475589140017 -1.2025589665376029
0.33213675464324727 -0.9207954539150484
0.32728639008362476 -0.6357248427276386
0.3250676555238062 -0.35058488657167514
0.3248431626239984 -0.06915186393273888
1.221944708729569 -0.0692880521012617
1.2214920947301315 -0.3506914097676295
1.2190073035146085 -0.6353725478752914
1.213633373407236 -0.9200786160489244
1.2053967586204795 -1.2015643634029134
1.1944517192108446 -1.477521567024211
1.1809280144864913 -1.7462942444148768
1.1648973023014926 -2.0064791549653416
1.1463896490998209 -2.2567229108652747
1.1254147737009383 -2.495657834273994
1.1019744080225218 -2.7218949094632188
1.0760680053782654 -2.9340304053960966
1.047695525045663 -3.130650898111391
1.0168591452081428 -3.310334947115343
0.9835682984169539 -3.471654391091195
0.9478402919806426 -3.6131867351628926
0.9097043420369948 -3.733574247880071
0.8692449575442253 -3.83159717625417
0.8259227336330511 -3.9068503100511727
0.779541028168102 -3.9619696674545266
0.7385381376251816 -3.9947327900585816
0.6975352470822612 -3.9619696674545266
0.6511535416173121 -3.9068503100511727
0.6078313177061381 -3.831597176254169
0.5673719332133683 -3.73357424788007
0.5292359832697208 -3.6131867351628917
0.4935079768334093 -3.4716543910911937
0.46021713004222087 -3.3103349471153423
0.42938075020470046 -3.13065089811139
0.4010082698720981 -2.934030405396095
0.3751018672278419 -2.7218949094632183
0.35166150154942494 -2.495657834273993
0.3306866261505427 -2.2567229108652738
0.3121789729488709 -2.0064791549653402
0.29614826076387213 -1.7462942444148748
0.2826245560395192 -1.4775215670242112
0.2716795166298841 -1.201564363402913
0.2634429018431276 -0.9200786160489249
0.2580689717357551 -0.6353725478752907
0.2555841805202321 -0.3506914097676287
0.2551315665207947 -0.06928805210126178
1.2918582671239176 -0.06931098803282047
1.2912798570268202 -0.3506987039866724
1.2886143120860816 -0.6349642287082103
1.2827520000987744 -0.9192926992710423
1.2735262013006206 -1.2004496664893252
1.2610986901838257 -1.4761072268763185
1.245664705265183 -1.7445931055015396
1.2273432275312857 -2.00449500619079
1.2061865797497044 -2.2544563126707424
1.1822113671858823 -2.4931085388856844
1.1554199474981512 -2.7190626118440564
1.1258108558988642 -2.93091485227452
1.093383339874804 -3.1272520583313126
1.0581414008784706 -3.3066526685776103
1.0200977569087235 -3.4676906303559885
0.9792941775757042 -3.608941211372316
0.9357700488825229 -3.7290542433761336
0.8897183692683898 -3.8268387219638815
0.8409909713138402 -3.901565603215176
0.7874637224064931 -3.9568659547946394
0.7385381376251816 -3.9959576040424385
0.6896125528438702 -3.9568659547946394
0.6360853039365229 -3.901565603215176
0.5873579059819735 -3.8268387219638815
0.5413062263678403 -3.729054243376133
0.4977820976746591 -3.6089412113723154
0.4569785183416397 -3.4676906303559876
0.41893487437189286 -3.3066526685776094
0.3836929353755593 -3.1272520583313113
0.35126541935149935 -2.930914852274518
0.3216563277522122 -2.719062611844056
0.29486490806448135 -2.4931085388856835
0.27088969550065917 -2.254456312670742
0.2497330477190779 -2.0044950061907887
0.23141156998518062 -1.7445931055015376
0.2159775850665379 -1.4761072268763187
0.2035500739497431 -1.2004496664893245
0.19432427515158923 -0.9192926992710428
0.18846196316428193 -0.6349642287082096
0.18579641822354334 -0.35069870398667147
0.1852180081264461 -0.06931098803282057
1.3619449581412588 -0.06928376612077282
1.361390172437796 -0.35063076386005027
1.35869603858701 -0.6345141806661774
1.3523867241356031 -0.918436670005529
1.3421432791622399 -1.1992093436149311
1.3282021566118432 -1.47451460806476
1.3108393616543383 -1.7426681250629688
1.2902191989290632 -2.002246479494224
1.2664111596352343 -2.251887028184894
1.239435351308268 -2.4902189030502493
1.2092931728603773 -2.7158523568905624
1.175981517139398 -2.9273837016298287
1.1394986014283321 -3.123399904474085
1.0998483085321182 -3.302480550254794
1.057049506145566 -3.463199346738022
1.0111465947080718 -3.6041432722018527
0.9622659855181781 -3.723933130960193
0.910454149319974 -3.8215091850304237
0.8566499359238926 -3.8957874308341154
0.7971974252207022 -3.9501020372022744
0.7385381376251816 -3.9977620182141256
0.6798788500296609 -3.950102037202274
0.6204263393264706 -3.8957874308341154
0.5666221259303891 -3.821509185030424
0.5148102897321849 -3.723933130960193
0.4659296805422916 -3.604143272201852
0.4200267691047973 -3.4631993467380218
0.3772279667182449 -3.3024805502547934
0.33757767382203135 -3.1233999044740837
0.30109475811096537 -2.9273837016298274
0.26778310238998626 -2.7158523568905615
0.23764092394209546 -2.4902189030502484
0.2106651156151292 -2.2518870281848926
0.1868570763213002 -2.002246479494222
0.16623691359602527 -1.742668125062967
0.14887411863852046 -1.4745146080647602
0.1349329960881238 -1.1992093436149305
0.12468955111476045 -0.9184366700055295
0.11838023666335361 -0.6345141806661766
0.11568610281256762 -0.35063076386004943
0.11513131710910474 -0.06928376612077296
1.4321232367449586 -0.06926801266878964
1.4318266712313794 -0.3505286538861027
1.4293634991063133 -0.6340461808779926
1.4226321892239127 -0.9175051873637458
1.4113209907932092 -1.1978349300480393
1.3958215233036884 -1.4727380083946084
1.3765058955369798 -1.7405167133345363
1.3535778227651563 -1.9997327258222362
1.3271161317524824 -2.249014923216129
1.2971398546263302 -2.4869889954754587
1.2636475157919613 -2.7122642399051187
1.2266336773614794 -2.9234369110759224
1.186094913505503 -3.119094437057037
1.1420342107051697 -3.2978170328608876
1.0944718563287927 -3.458182421880008
1.0434639883013628 -3.598775268854961
0.9891494470716573 -3.7182597322217763
0.9317875785394228 -3.8154230696400475
0.8717286354148057 -3.8900022685599667
0.8109441709077839 -3.9413315784410834
0.7385381376251815 -4.0
0.6661321043425793 -3.941331578441083
0.6053476398355575 -3.8900022685599667
0.5452886967109403 -3.815423069640048
0.4879268281787054 -3.718259732221776
0.43361228694900056 -3.59877526885496
0.3826044189215709 -3.458182421880008
0.33504206454519325 -3.2978170328608867
0.2909813617448604 -3.119094437057036
0.25044259788888384 -2.923436911075921
0.2134287594584022 -2.7122642399051182
0.1799364206240334 -2.4869889954754574
0.14996014349788098 -2.249014923216128
0.12349845248520727 -1.9997327258222348
0.10057037971338398 -1.740516713334534
0.08125475194667531 -1.4727380083946087
0.06575528445715444 -1.1978349300480384
0.054444086026451025 -0.9175051873637464
0.047712776144050166 -0.6340461808779917
0.04524960401898413 -0.3505286538861018
0.044953038505404816 -0.06926801266878978
SCALARS Stress float 6
LOOKUP_TABLE default
-817.5936413499811 -26013.135373743316 -8049.21870452799 -604.3812507831989 0.0 0.0
12320.877612714883 7280.875332845209 5880.52588366803 -938.8052151896652 0.0 0.0
7005.430651450063 -621.3314554982483 1915.229758785545 -401.51639305264916 0.0 0.0
7168.293784124621 545.717511811898 2314.203388780956 -59.80056909522956 0.0 0.0
8230.060687972178 198.56551786458624 2528.587861751029 -137.82315451263804 0.0 0.0
9905.911291936376 280.5710848066522 3055.944713022909 -142.0215041490771 0.0 0.0
11756.108889905125 305.7166382008764 3618.5476584318003 -150.59655153331084 0.0 0.0
13692.651377177604 356.07024043111903 4214.616485282619 -153.8595035962315 0.0 0.0
15651.791680243903 405.60696026581104 4817.219592152912 -155.01978979552928 0.0 0.0
17615.303146375158 456.7746404824654 5421.623336057288 -155.3217711800697 0.0 0.0
19576.61523602768 507.7905632297985 6025.321739777244 -155.3217522236017 0.0 0.0
21535.51041489233 558.7781145443352 6628.2865588310015 -155.35615008640124 0.0 0.0
23494.57969567835 609.9432477891237 7231.3568830402455 -155.65873036302065 0.0 0.0
25460.90693849585 662.003955766493 7836.873268278705 -156.55010216740547 0.0 0.0
27450.05336866092 716.1923513169941 8449.873715993375 -158.3751007205214 0.0 0.0
29488.31469463021 773.7818439448658 9078.628961572525 -160.96321036625307 0.0 0.0
31601.208769497163 834.0899144979954 9730.58960519855 -162.13518187011294 0.0 0.0
33767.39678825395 890.7472102824701 10397.443199560923 -155.41456981206437 0.0 0.0
35826.8459459654 929.6479177805636 11026.948159123793 -129.62837660410574 0.0 0.0
37401.83321930362 939.1285971293345 11502.288544929888 -75.8316135272654 0.0 0.0
38005.143915725515 933.7861687968822 11681.67902535672 -1.3642420526593924e-12 0.0 0.0
37401.83321930218 939.1285971265584 11502.288544928626 75.83161352727421 0.0 0.0
35826.845945964575 929.647917778836 11026.94815912302 129.6283766040134 0.0 0.0
33767.396788254235 890.7472102832546 10397.443199561247 155.4145698119906 0.0 0.0
31601.208769498284 834.0899145005905 9730.58960519966 162.13518187008867 0.0 0.0
29488.314694631328 773.7818439475127 9078.628961573655 160.9632103660075 0.0 0.0
27450.053368660912 716.1923513169196 8449.87371599335 158.37510072068193 0.0 0.0
25460.906938495165 662.0039557648718 7836.873268278012 156.55010216759115 0.0 0.0
23494.57969567814 609.9432477889455 7231.3568830401255 155.6587303627956 0.0 0.0
21535.51041489242 558.7781145444354 6628.286558831058 155.35615008666866 0.0 0.0
19576.615236028087 507.7905632305942 6025.321739777607 155.32175222356122 0.0 0.0
17615.303146375172 456.7746404825424 5421.623336057313 155.32177117996574 0.0 0.0
15651.791680243226 405.60696026413723 4817.21959215221 155.01978979554974 0.0 0.0
13692.651377177384 356.07024043086767 4214.616485282475 153.85950359607057 0.0 0.0
11756.108889905321 305.716638201662 3618.547658432095 150.5965515332308 0.0 0.0
9905.911291936236 280.5710848063515 3055.9447130227777 142.021504149161 0.0 0.0
8230.060687972124 198.56551786444766 2528.5878617509707 137.82315451267556 0.0 0.0
7168.2937841247 545.7175118120763 2314.2033887810335 59.80056909516399 0.0 0.0
7005.4306514500795 -621.3314554982518 1915.2297587855487 401.5163930526219 0.0 0.0
12320.877612714863 7280.875332845048 5880.525883667973 938.80521518952 0.0 0.0
-817.5936413499112 -26013.135373743386 -8049.21870452799 604.3812507831076 0.0 0.0
-4642.4010304313815 -25842.765251330642 -9145.549884528606 -413.01695876892916 0.0 0.0
7577.758714376152 4981.441045634813 3767.7599280032896 -748.5234758568964 0.0 0.0
4925.792217137634 -699.0681024349232 1268.0172344108134 -280.64463912755235 0.0 0.0
6393.661135773437 247.169892298031 1992.2493084214402 -232.29031880035828 0.0 0.0
7317.004882537554 30.687284990532252 2204.3076502584263 -334.91458594515854 0.0 0.0
8836.914375744396 24.425438568133288 2658.4019442937597 -379.3942826550525 0.0 0.0
10477.192172141968 8.167624392919187 3145.6079389604665 -399.33664468938736 0.0 0.0
12193.616752030393 2.4963543971633175 3658.8339319282686 -407.5004273102872 0.0 0.0
13933.059484702702 0.26094873025939824 4179.996130029889 -409.74168622274755 0.0 0.0
15678.451869511453 -0.33311574156702806 4703.435626130967 -409.97113977730623 0.0 0.0
17423.41732170846 -0.3371520946422999 5226.924050884144 -409.6585950905088 0.0 0.0
19167.177728274695 -0.051679105508133816 5750.137814750754 -409.5049970805377 0.0 0.0
20911.8798939306 0.7185060629282702 6273.779519998057 -410.07288538741483 0.0 0.0
22663.45802151479 2.543826060843706 6799.800554272689 -412.3564318007301 0.0 0.0
24433.99399101034 5.977483323201049 7331.991442300064 -417.91514737943794 0.0 0.0
26241.543953563367 10.146723215661517 7875.507203033709 -427.76188946741945 0.0 0.0
28097.50976468564 9.705702931954121 8432.164640285278 -438.2862671332585 0.0 0.0
29966.70560455833 -8.353837659778641 8987.505530069568 -433.30615861560113 0.0 0.0
31698.37399112111 -60.597594143777 9491.332919093198 -377.7159894914857 0.0 0.0
32984.25559071944 -142.0179346879184 9852.671296809454 -231.46828039012422 0.0 0.0
33465.41228774127 -191.13125225870732 9982.28431064477 -1.7905676941154525e-12 0.0 0.0
32984.25559071817 -142.01793469054306 9852.67129680829 231.4682803901481 0.0 0.0
31698.373991120952 -60.59759414377885 9491.332919093156 377.71598949148057 0.0 0.0
29966.705604558323 -8.353837659767706 8987.50553006957 433.3061586156373 0.0 0.0
28097.50976468662 9.705702934454607 8432.164640286319 438.2862671332345 0.0 0.0
26241.54395356376 10.1467232166642 7875.507203034124 427.761889467218 0.0 0.0
24433.99399101021 5.977483322795905 7331.991442299902 417.9151473797227 0.0 0.0
22663.458021514838 2.5438260611185086 6799.800554272788 412.35643180093547 0.0 0.0
20911.879893930738 0.718506063334317 6273.779519998225 410.07288538721184 0.0 0.0
19167.17772827495 -0.05167910500969697 5750.13781475098 409.504997080719 0.0 0.0
17423.417321708625 -0.33715209421595205 5226.924050884322 409.65859509069236 0.0 0.0
15678.451869511384 -0.3331157416586805 4703.435626130918 409.9711397772676 0.0 0.0
13933.059484702251 0.26094872909247613 4179.996130029404 409.7416862227964 0.0 0.0
12193.616752030399 2.4963543972265256 3658.8339319282877 407.5004273100833 0.0 0.0
10477.192172142184 8.167624393278302 3145.6079389606393 399.33664468934114 0.0 0.0
8836.91437574438 24.425438568110437 2658.401944293748 379.3942826550118 0.0 0.0
7317.004882537494 30.687284990751685 2204.307650258474 334.91458594520213 0.0 0.0
6393.661135773526 247.16989229827487 1992.2493084215405 232.29031880027253 0.0 0.0
4925.7922171375485 -699.0681024351383 1268.017234410723 280.64463912751364 0.0 0.0
7577.758714375997 4981.441045634591 3767.7599280031764 748.5234758568652 0.0 0.0
-4642.40103043148 -25842.765251330733 -9145.549884528664 413.01695876891546 0.0 0.0
-5079.725253331079 -22619.07106177517 -8309.638894531876 -1902.1292844323098 0.0 0.0
4792.330862995913 3003.1309770041394 2338.6385520000154 -1353.5696038781518 0.0 0.0
3653.1295631385883 125.2561588671196 1133.5157166017123 -190.3045278105763 0.0 0.0
5334.765746503503 40.484058621760454 1612.5749415375783 -535.8570026501519 0.0 0.0
6510.409828930875 95.46548493091146 1981.7625941585366 -666.8619129807923 0.0 0.0
7843.9196526193755 23.753005547229677 2360.3017974499808 -764.2858672405816 0.0 0.0
9321.4135264138 12.973839918375155 2800.3162098996536 -802.3639928495119 0.0 0.0
10843.1829919376 3.2181345578507052 3253.9203379486353 -817.7523725217286 0.0 0.0
12387.69573666161 0.3786256456441186 3716.4223086921756 -821.8866693357561 0.0 0.0
13937.641859775713 -0.48188980780627055 4181.147990990372 -822.1258027526708 0.0 0.0
15488.194212752089 -0.47909862374885925 4646.314534238502 -821.4190824283492 0.0 0.0
17038.30494448272 -0.08587918249929416 5111.465719590067 -821.0378628532071 0.0 0.0
18589.57747673992 0.9766670017370309 5577.166243122495 -822.0527212890729 0.0 0.0
20146.49668084698 3.5335962175627493 6045.009083119363 -826.4359412170829 0.0 0.0
21717.78352605018 8.464973574239597 6517.874549887328 -837.4522178683685 0.0 0.0
23315.35230677247 14.72798403993778 6999.0240872437225 -857.6604602242369 0.0 0.0
24943.059143119088 14.766086710164192 7487.347568948776 -880.9277174409494 0.0 0.0
26563.800424897385 -10.915735030248513 7965.865406960138 -875.8857202159838 0.0 0.0
28044.682069547183 -89.46790506457056 8386.564249344785 -770.503109679096 0.0 0.0
29127.283625094664 -218.51561206597415 8672.630403908608 -476.9142869735156 0.0 0.0
29524.858193887358 -301.2165217167583 8767.09250165118 1.9042545318370685e-11 0.0 0.0
29127.283625094104 -218.51561206726362 8672.630403908053 476.9142869734842 0.0 0.0
28044.682069547565 -89.46790506349245 8386.564249345223 770.5031096790768 0.0 0.0
26563.800424896865 -10.915735031405106 7965.8654069596405 875.885720216123 0.0 0.0
24943.059143119466 14.76608671122834 7487.347568949207 880.9277174410228 0.0 0.0
23315.352306772635 14.7279840402485 6999.024087243866 857.6604602243283 0.0 0.0
21717.783526050134 8.464973573927836 6517.874549887219 837.4522178685925 0.0 0.0
20146.496680847147 3.53359621795353 6045.009083119532 826.4359412171696 0.0 0.0
18589.577476739974 0.9766670018271526 5577.1662431225395 822.0527212889608 0.0 0.0
17038.304944483432 -0.08587918091065205 5111.465719590754 821.0378628530348 0.0 0.0
15488.194212752076 -0.4790986237311188 4646.314534238503 821.4190824284426 0.0 0.0
13937.641859775462 -0.48188980824699 4181.147990990165 822.1258027527952 0.0 0.0
12387.695736661864 0.3786256461464603 3716.422308692404 821.8866693357794 0.0 0.0
10843.182991937354 3.2181345573183506 3253.9203379484024 817.7523725217488 0.0 0.0
9321.413526413486 12.973839917801506 2800.3162098993866 802.3639928494492 0.0 0.0
7843.919652619362 23.753005547117446 2360.3017974499435 764.2858672405529 0.0 0.0
6510.4098289308395 95.46548493087704 1981.7625941585156 666.8619129808396 0.0 0.0
5334.765746503567 40.484058622084106 1612.5749415376958 535.8570026500888 0.0 0.0
3653.129563138497 125.2561588668677 1133.5157166016093 190.30452781061746 0.0 0.0
4792.330862995848 3003.1309770040384 2338.638551999966 1353.5696038781798 0.0 0.0
-5079.725253331197 -22619.071061775223 -8309.638894531927 1902.1292844324494 0.0 0.0
-4668.088645927756 -19444.33333469858 -7233.7265941879 -2374.5852278075135 0.0 0.0
2991.7346760146934 1222.1894294197643 1264.1772316303372 -1853.674026365507 0.0 0.0
2670.501182092266 578.4404029923937 974.6824755253979 -564.0187719774566 0.0 0.0
4316.333094481597 82.90083961034955 1319.770180227584 -774.6336975715047 0.0 0.0
5628.842099292507 102.72360774375889 1719.4697121108795 -992.0192953047083 0.0 0.0
6851.69536497642 45.35153831619847 2069.1140709877855 -1103.3138286288608 0.0 0.0
8155.097734009853 16.15915928838551 2451.3770679894715 -1158.7812532811736 0.0 0.0
9491.237999917093 5.235872513578894 2848.942161729202 -1179.1262146325807 0.0 0.0
10841.474034892803 0.3819024261538111 3252.556781195688 -1185.1420082252487 0.0 0.0
12196.852187063565 -0.714008188543577 3658.841453662506 -1185.5787136730664 0.0 0.0
13553.040696376782 -0.7253458035549851 4065.694605171968 -1184.6992833719967 0.0 0.0
14909.313238490247 -0.1494543120793992 4472.74913525345 -1184.2359812793638 0.0 0.0
16266.597210079974 1.3918093186618528 4880.396705819592 -1185.6664589541558 0.0 0.0
17627.749420019823 5.154378348489871 5289.871139510495 -1191.6397630358495 0.0 0.0
18998.189222127483 12.571893381281 5703.22833465263 -1206.5023499664312 0.0 0.0
20384.987360761363 22.3679341728714 6122.206588480269 -1233.6035467707854 0.0 0.0
21788.55400759716 23.37849547590161 6543.579750921919 -1264.3483826948002 0.0 0.0
23177.117393878743 -14.801525347609761 6948.6947605593405 -1254.9597509601513 0.0 0.0
24440.121796907355 -137.2915505185402 7290.849073916645 -1103.6741698368176 0.0 0.0
25357.285460988413 -345.24736780872104 7503.611427953906 -683.9082505454626 0.0 0.0
25687.543486956696 -481.9025064009169 7561.692294166735 7.131006896088365e-11 0.0 0.0
25357.28546098795 -345.24736780945966 7503.611427953549 683.9082505454429 0.0 0.0
24440.121796906962 -137.29155051944852 7290.8490739162535 1103.6741698367596 0.0 0.0
23177.117393879053 -14.80152534701405 6948.694760559615 1254.9597509601786 0.0 0.0
21788.55400759643 23.378495474234455 6543.579750921199 1264.3483826950112 0.0 0.0
20384.987360761377 22.36793417287349 6122.206588480278 1233.6035467709585 0.0 0.0
18998.189222127723 12.57189338188239 5703.228334652881 1206.5023499663982 0.0 0.0
17627.749420019445 5.154378347798641 5289.871139510173 1191.6397630358904 0.0 0.0
16266.597210079619 1.3918093180092654 4880.396705819289 1185.666458954225 0.0 0.0
14909.31323849032 -0.14945431178626478 4472.749135253562 1184.235981279246 0.0 0.0
13553.040696376904 -0.725345803263771 4065.694605172091 1184.699283371876 0.0 0.0
12196.852187063276 -0.7140081890723593 3658.8414536622613 1185.5787136731747 0.0 0.0
10841.474034893254 0.3819024273193321 3252.556781196172 1185.1420082251338 0.0 0.0
9491.237999916644 5.235872512518405 2848.9421617287503 1179.126214632617 0.0 0.0
8155.097734009682 16.159159287860597 2451.3770679892623 1158.7812532809637 0.0 0.0
6851.695364976828 45.35153831702019 2069.1140709881556 1103.313828628869 0.0 0.0
5628.842099292267 102.72360774311166 1719.4697121106137 992.0192953046226 0.0 0.0
4316.333094481784 82.90083961062192 1319.770180227722 774.6336975715477 0.0 0.0
2670.5011820922405 578.4404029924261 974.6824755254002 564.0187719773558 0.0 0.0
2991.734676014513 1222.1894294195663 1264.1772316302238 1853.6740263653842 0.0 0.0
-4668.08864592778 -19444.33333469854 -7233.726594187894 2374.5852278076895 0.0 0.0
-4000.6470842875165 -16553.024895426977 -6166.101593914349 -2428.779017864677 0.0 0.0
1817.8520967439101 -150.5350803149008 500.19510492870296 -2191.9352509694604 0.0 0.0
1904.4899547928198 721.7064900480293 787.8589334522546 -1068.7218901035228 0.0 0.0
3388.9981984096403 202.93549995566744 1077.5801095095928 -1057.048465323196 0.0 0.0
4718.3886444287855 121.3350318304771 1451.917102877779 -1282.1562572406676 0.0 0.0
5849.6225649089065 64.26881573577121 1774.1674141934031 -1406.0854202859468 0.0 0.0
6985.042486666245 23.40318838725319 2102.5337025160497 -1467.9709903252656 0.0 0.0
8136.6510550843 6.982625204809116 2443.0901040867325 -1492.4747619205084 0.0 0.0
9294.723109543382 0.6475410745074122 2788.6111951853677 -1499.6274055683853 0.0 0.0
10455.876203585241 -1.0384304636139792 3136.4513319364887 -1500.38965269331 0.0 0.0
11617.878932378371 -1.014258501918146 3485.0594021629367 -1499.4838122941565 0.0 0.0
12780.16100114317 -0.21861971922377066 3833.982714427184 -1499.0361701588126 0.0 0.0
13943.061419918735 1.9350310202225494 4183.4989352816865 -1500.7636699240986 0.0 0.0
15107.73360674861 7.209228283869464 4534.482850509745 -1507.6776281469743 0.0 0.0
16276.49657383432 17.72156983950535 4888.265443102149 -1524.6651428760995 0.0 0.0
17452.731897165617 31.916840327383333 5245.3946212478995 -1555.4669947985685 0.0 0.0
18636.618523665948 34.05842384771103 5601.203084254101 -1589.9248956765803 0.0 0.0
19807.052396589923 -20.49742292176309 5935.966492100447 -1575.6469979650608 0.0 0.0
20878.546877036144 -200.87829343897505 6203.300575079151 -1387.4936745709172 0.0 0.0
21659.159494531283 -513.9380245842361 6343.566440984114 -863.1676081295836 0.0 0.0
21933.18634261038 -724.138052706326 6362.7144869712165 2.3646862246096134e-11 0.0 0.0
21659.15949453135 -513.9380245840114 6343.566440984201 863.1676081295948 0.0 0.0
20878.546877035526 -200.87829344045124 6203.300575078521 1387.4936745710497 0.0 0.0
19807.05239659029 -20.4974229211402 5935.966492100745 1575.6469979649985 0.0 0.0
18636.618523665056 34.0584238457549 5601.203084253242 1589.9248956766835 0.0 0.0
17452.731897165508 31.916840327301664 5245.394621247842 1555.4669947986006 0.0 0.0
16276.496573833296 17.721569837051035 4888.265443101104 1524.6651428759528 0.0 0.0
15107.733606748712 7.209228284204741 4534.482850509875 1507.6776281469488 0.0 0.0
13943.061419918355 1.9350310194471163 4183.498935281341 1500.7636699240088 0.0 0.0
12780.161001142853 -0.21861971967156535 3833.9827144269534 1499.0361701588026 0.0 0.0
11617.878932378273 -1.0142585019871078 3485.059402162886 1499.4838122941287 0.0 0.0
10455.876203585183 -1.0384304638394894 3136.451331936403 1500.3896526934172 0.0 0.0
9294.723109543676 0.6475410752870303 2788.611195185689 1499.6274055683568 0.0 0.0
8136.651055084101 6.982625204433383 2443.090104086561 1492.4747619204834 0.0 0.0
6985.042486666178 23.403188387117392 2102.533702515989 1467.9709903253 0.0 0.0
5849.622564909235 64.26881573657144 1774.167414193742 1406.0854202861592 0.0 0.0
4718.388644428606 121.33503183006599 1451.9171028776018 1282.1562572404068 0.0 0.0
3388.998198409511 202.93549995543472 1077.580109509484 1057.0484653232345 0.0 0.0
1904.48995479265 721.7064900477401 787.858933452117 1068.7218901034785 0.0 0.0
1817.8520967438326 -150.53508031516031 500.1951049286019 2191.9352509694527 0.0 0.0
-4000.6470842873655 -16553.024895426897 -6166.101593914281 2428.7790178647238 0.0 0.0
-3314.138846314833 -14005.558240874469 -5195.909126156789 -2317.144516076039 0.0 0.0
1044.4269321777535 -1112.9696629301943 -20.562819225732525 -2391.8484493585843 0.0 0.0
1297.511804697519 670.4314897800106 590.382988343259 -1557.0128499682091 0.0 0.0
2560.647658188386 315.5904073544823 862.8714196628605 -1372.7566583912508 0.0 0.0
3811.0519021932655 157.0661628536607 1190.435419514078 -1545.5735534298612 0.0 0.0
4839.943645155754 81.33687136582681 1476.3841549564745 -1669.6766770790891 0.0 0.0
5812.648919289669 31.84413320594284 1753.3479157486836 -1731.9458363788074 0.0 0.0
6780.333512603302 9.157944737708444 2036.8474372023031 -1757.7991920780523 0.0 0.0
7747.29174411524 0.9109734887437284 2324.460815281195 -1765.598984513011 0.0 0.0
8714.694083389435 -1.3358014162574392 2614.007484591953 -1766.5863722550926 0.0 0.0
9682.614925832391 -1.324923008981223 2904.387000847023 -1765.7728769577325 0.0 0.0
10650.839447252883 -0.27420243524792554 3195.169573445292 -1765.389770136131 0.0 0.0
11619.123330983322 2.5524148649620706 3486.502723754484 -1767.2416981265312 0.0 0.0
12586.992014105615 9.46607228953209 3778.937425918545 -1774.3845229445867 0.0 0.0
13553.928362249733 23.315739399375012 4073.173230494734 -1791.7827186923857 0.0 0.0
14520.519833926946 42.32577558986164 4368.853682855041 -1823.4158492705437 0.0 0.0
15488.960396007984 45.82200055622656 4660.434718969264 -1859.0319120814154 0.0 0.0
16452.620630679972 -27.235374123385824 4927.615576966977 -1842.135550814872 0.0 0.0
17353.308322184603 -275.5406738902466 5123.330294488307 -1629.892583282017 0.0 0.0
18019.573330806328 -717.4085539149037 5190.649433067429 -1022.7065305520919 0.0 0.0
18244.19965569351 -1023.1873287923916 5166.3036980703355 1.9326762412674725e-12 0.0 0.0
18019.57333080654 -717.4085539145213 5190.649433067605 1022.7065305520525 0.0 0.0
17353.30832218448 -275.54067389062936 5123.330294488155 1629.892583282042 0.0 0.0
16452.620630679517 -27.23537412474657 4927.615576966428 1842.1355508147299 0.0 0.0
15488.960396008062 45.82200055662956 4660.434718969408 1859.0319120815166 0.0 0.0
14520.519833926941 42.32577558994637 4368.853682855067 1823.4158492707254 0.0 0.0
13553.928362248973 23.315739397437184 4073.173230493923 1791.7827186923444 0.0 0.0
12586.992014105701 9.46607228984388 3778.937425918664 1774.3845229445994 0.0 0.0
11619.123330983348 2.552414865017248 3486.502723754509 1767.2416981264892 0.0 0.0
10650.839447253185 -0.27420243448411696 3195.169573445611 1765.3897701361634 0.0 0.0
9682.614925832273 -1.3249230093236974 2904.387000846886 1765.7728769578196 0.0 0.0
8714.69408338894 -1.335801417447044 2614.007484591447 1766.5863722552158 0.0 0.0
7747.291744115258 0.9109734889304448 2324.460815281257 1765.598984513001 0.0 0.0
6780.333512603294 9.157944737717951 2036.8474372023034 1757.7991920780587 0.0 0.0
5812.64891928959 31.844133205784388 1753.3479157486126 1731.9458363788503 0.0 0.0
4839.943645155605 81.3368713654397 1476.384154956313 1669.6766770792697 0.0 0.0
3811.0519021933947 157.06616285391215 1190.4354195141923 1545.5735534297185 0.0 0.0
2560.6476581882116 315.59040735405443 862.8714196626798 1372.7566583912458 0.0 0.0
1297.5118046974717 670.4314897797456 590.3829883431653 1557.0128499682376 0.0 0.0
1044.426932177746 -1112.9696629302462 -20.562819225749976 2391.848449358577 0.0 0.0
-3314.138846314979 -14005.558240874601 -5195.909126156875 2317.1445160760136 0.0 0.0
-2696.168353849567 -11788.833376089211 -4345.500518981633 -2148.3346870739247 0.0 0.0
526.7535988026156 -1728.9851655486696 -360.6694700238163 -2488.3592451784452 0.0 0.0
805.4607080596795 520.2451268379382 397.7117504692854 -1969.291183828174 0.0 0.0
1822.1463026216147 389.7613542701399 663.5722970675266 -1688.9671221306733 0.0 0.0
2925.2592094934757 199.1603872204023 937.3258790141633 -1785.3954855277834 0.0 0.0
3828.8538903639255 98.41919586447092 1178.181925868519 -1893.2842009743508 0.0 0.0
4638.912238589562 39.85195389255688 1403.6292577446354 -1950.9423083462327 0.0 0.0
5423.061617822817 11.605811238210732 1630.4002287183089 -1975.4343925051055 0.0 0.0
6199.243202735028 1.1912585845844106 1860.1303383958834 -1983.1344230479472 0.0 0.0
6973.25025374576 -1.6015625179930524 2091.4946073683313 -1984.232278419433 0.0 0.0
7747.196925425937 -1.6157793228632649 2323.674343830922 -1983.5646878493744 0.0 0.0
8521.34981433775 -0.3140016012890179 2556.310743820938 -1983.2681763831283 0.0 0.0
9294.950355427765 3.1796361032816804 2789.4389974593146 -1985.0464799953413 0.0 0.0
10066.05347138247 11.684460270027756 3023.321379495751 -1991.7156498678232 0.0 0.0
10831.611126758527 28.773245303848157 3258.115311618713 -2007.9137334297411 0.0 0.0
11589.981914786209 52.645716370278066 3492.788289346946 -2037.8275719944484 0.0 0.0
12346.611171634406 58.043917858519066 3721.3965268478782 -2072.880026272324 0.0 0.0
13111.914385443963 -33.3589340982398 3923.5666354037157 -2057.5241764155935 0.0 0.0
13857.521887906747 -355.50229513765225 4050.6058778307274 -1836.7626570524858 0.0 0.0
14426.56636997735 -949.1019974583212 4043.2393117557103 -1168.8798093717432 0.0 0.0
14604.67151945915 -1377.9067551083026 3968.0294293052557 -4.285993782104924e-11 0.0 0.0
14426.566369977138 -949.101997459109 4043.239311755407 1168.8798093718483 0.0 0.0
13857.521887906623 -355.5022951380238 4050.605877830581 1836.7626570525742 0.0 0.0
13111.914385443595 -33.35893409913611 3923.5666354033374 2057.52417641569 0.0 0.0
12346.611171634595 58.04391785910252 3721.3965268481093 2072.880026272329 0.0 0.0
11589.981914785876 52.64571636965999 3492.788289346661 2037.827571994572 0.0 0.0
10831.611126759071 28.773245305235257 3258.115311619291 2007.9137334297543 0.0 0.0
10066.053471382676 11.684460270566824 3023.3213794959734 1991.7156498679647 0.0 0.0
9294.950355427976 3.179636103788674 2789.4389974595297 1985.0464799951283 0.0 0.0
8521.349814338108 -0.3140016003886501 2556.3107438213156 1983.2681763830171 0.0 0.0
7747.196925425635 -1.615779323609864 2323.6743438306084 1983.5646878494376 0.0 0.0
6973.250253745562 -1.60156251845563 2091.4946073681326 1984.2322784194241 0.0 0.0
6199.243202735073 1.1912585847109156 1860.1303383959353 1983.1344230480802 0.0 0.0
5423.061617822788 11.60581123819781 1630.4002287182961 1975.434392505076 0.0 0.0
4638.912238589436 39.85195389243495 1403.629257744562 1950.942308346263 0.0 0.0
3828.8538903639073 98.4191958645316 1178.1819258685318 1893.2842009744525 0.0 0.0
2925.2592094938277 199.1603872211999 937.3258790145086 1785.3954855278766 0.0 0.0
1822.1463026214583 389.76135426984683 663.5722970673913 1688.9671221306644 0.0 0.0
805.4607080596408 520.2451268378477 397.71175046924645 1969.2911838282043 0.0 0.0
526.7535988027156 -1728.9851655484608 -360.66947002372353 2488.3592451783916 0.0 0.0
-2696.1683538496463 -11788.83337608926 -4345.500518981672 2148.3346870737505 0.0 0.0
-2171.4117489795185 -9863.736254812116 -3610.5444011374916 -1968.1870508041134 0.0 0.0
171.64449708713002 -2074.4967253943796 -570.8556684921748 -2510.3381589013698 0.0 0.0
395.2742463275403 336.01888898701367 219.38794059436626 -2286.8119338794227 0.0 0.0
1158.800745228068 421.5005657548564 474.0903932948773 -1976.8979046679765 0.0 0.0
2069.562134394642 236.84393284471398 691.921820171807 -1997.7288171059763 0.0 0.0
2822.449241901245 114.96027229456985 881.2228542587441 -2076.6605329153244 0.0 0.0
3465.249293646635 46.847062012387774 1053.6289066977074 -2124.6383775572563 0.0 0.0
4065.3918856041687 13.925443320894919 1223.795198677519 -2145.5325859996124 0.0 0.0
4650.7281603079655 1.4978479648011174 1395.66780248183 -2152.3056720968466 0.0 0.0
5231.507948648645 -1.8262987418951333 1568.9044949720246 -2153.3687372317595 0.0 0.0
5811.587277890598 -1.8624764300156045 1742.9174404381752 -2152.8695300637237 0.0 0.0
6391.705066424758 -0.33857871788192995 1917.4099463120633 -2152.6588319552434 0.0 0.0
6970.702472123762 3.7490940479362393 2092.33546985151 -2154.1708506290684 0.0 0.0
7545.399526657013 13.641173478033817 2267.712210040514 -2159.7346736219506 0.0 0.0
8110.550392356473 33.56391177476896 2443.2342912393738 -2173.3085256340905 0.0 0.0
8662.509470519557 62.01404628382563 2617.3570550410136 -2199.2460356135725 0.0 0.0
9210.175455993967 70.28361168461008 2784.137720303573 -2232.4256232184953 0.0 0.0
9782.468901552962 -36.69188860239883 2923.7331038851694 -2223.7302811062723 0.0 0.0
10384.213657820233 -434.04624521446385 2985.0502237817313 -2012.175773951534 0.0 0.0
10869.255109103644 -1202.5141252278827 2900.022295162728 -1307.0276058986562 0.0 0.0
10999.48364451122 -1790.6228841006728 2762.658228123165 -6.218670023372397e-11 0.0 0.0
10869.255109103558 -1202.5141252285036 2900.0222951625165 1307.0276058987124 0.0 0.0
10384.213657819988 -434.0462452151745 2985.0502237814444 2012.1757739516756 0.0 0.0
9782.468901553597 -36.69188860082464 2923.733103885832 2223.7302811063164 0.0 0.0
9210.175455993754 70.28361168427108 2784.1377203034085 2232.425623218601 0.0 0.0
8662.50947051925 62.01404628306853 2617.3570550406953 2199.2460356137867 0.0 0.0
8110.550392356281 33.5639117741819 2443.2342912391387 2173.308525633835 0.0 0.0
7545.399526657076 13.64117347815651 2267.712210040571 2159.7346736219974 0.0 0.0
6970.702472123612 3.7490940475075263 2092.3354698513367 2154.1708506291207 0.0 0.0
6391.705066425115 -0.3385787173965653 1917.4099463123155 2152.6588319550942 0.0 0.0
5811.587277890421 -1.862476430452439 1742.9174404379903 2152.8695300636628 0.0 0.0
5231.507948648912 -1.8262987411697722 1568.9044949723232 2153.368737231788 0.0 0.0
4650.728160307649 1.4978479640114486 1395.6678024814985 2152.305672096826 0.0 0.0
4065.3918856042947 13.92544332124934 1223.7951986776634 2145.532585999557 0.0 0.0
3465.2492936467843 46.84706201284028 1053.6289066978877 2124.638377557295 0.0 0.0
2822.4492419010985 114.96027229421581 881.2228542585942 2076.6605329154527 0.0 0.0
2069.5621343949247 236.84393284529446 691.9218201720658 1997.7288171060434 0.0 0.0
1158.800745228102 421.5005657548418 474.09039329488314 1976.8979046679133 0.0 0.0
395.2742463276298 336.018888987145 219.38794059443245 2286.811933879487 0.0 0.0
171.64449708712925 -2074.4967253942887 -570.855668492148 2510.3381589013625 0.0 0.0
-2171.4117489795826 -9863.736254812118 -3610.5444011375107 1968.1870508041093 0.0 0.0
-1738.9369156686148 -8186.798326672225 -2977.720572702253 -1794.1873692794852 0.0 0.0
-81.0606658493152 -2218.413118309936 -689.8421352477753 -2478.141413672598 0.0 0.0
42.5698535786542 156.99151059789952 59.86840925296611 -2508.9192105501666 0.0 0.0
555.4219273048212 418.21661013950853 292.091561233299 -2216.851561144288 0.0 0.0
1246.1781421613 263.47941963845625 452.8972685399269 -2175.451714535596 0.0 0.0
1825.2313112466747 129.08094860578555 586.2936779557381 -2218.747299468062 0.0 0.0
2293.248795385295 52.48291842991897 703.7195141445643 -2252.5734651064745 0.0 0.0
2707.7867014661438 15.805193198080001 817.0775683992671 -2268.0353279628243 0.0 0.0
3101.8917643176756 1.7852567275768152 931.1031063135758 -2273.1602306006057 0.0 0.0
3489.4568669391874 -1.9943597774731572 1046.2387521485145 -2274.0274116778405 0.0 0.0
3875.758336799736 -2.0502865746898493 1162.1124150675141 -2273.7024650846174 0.0 0.0
4261.922516696798 -0.3518927444219955 1278.471187185713 -2273.5657484916564 0.0 0.0
4646.516727282473 4.1997685156863085 1395.214948739448 -2274.647685109492 0.0 0.0
5025.433746884502 15.15060002437771 1512.1753040726637 -2278.5966889382885 0.0 0.0
5391.608522357688 37.2416469284267 1628.6550507858346 -2288.384661286621 0.0 0.0
5739.322924832532 69.64230198771426 1742.689568046074 -2308.368150110405 0.0 0.0
6080.079666250746 82.09208119011606 1848.651524232259 -2338.355994742441 0.0 0.0
6461.579376259537 -34.9127963072945 1927.9999739856726 -2341.4416141224165 0.0 0.0
6926.399778345954 -503.53242930640636 1926.8602047118643 -2158.461124647497 0.0 0.0
7337.631605610761 -1470.4901685714844 1760.142431111783 -1441.8932033209328 0.0 0.0
7413.444673073599 -2267.4787581104288 1543.7897744889513 5.150013748789206e-11 0.0 0.0
7337.6316056109645 -1470.4901685713612 1760.1424311118813 1441.893203320927 0.0 0.0
6926.39977834581 -503.53242930695876 1926.8602047116556 2158.461124647697 0.0 0.0
6461.579376260758 -34.91279630440688 1927.9999739869058 2341.4416141223182 0.0 0.0
6080.07966625082 82.09208119018544 1848.6515242323014 2338.35599474226 0.0 0.0
5739.322924833054 69.64230198890624 1742.6895680465875 2308.3681501104265 0.0 0.0
5391.608522357384 37.24164692778477 1628.655050785551 2288.384661286648 0.0 0.0
5025.433746884444 15.15060002423781 1512.175304072605 2278.596688938253 0.0 0.0
4646.516727282519 4.199768515830613 1395.214948739505 2274.647685109528 0.0 0.0
4261.922516696632 -0.35189274487439803 1278.471187185528 2273.5657484915682 0.0 0.0
3875.7583367998764 -2.0502865743269822 1162.112415067665 2273.7024650844332 0.0 0.0
3489.4568669390746 -1.9943597777169373 1046.238752148407 2274.0274116778046 0.0 0.0
3101.891764317175 1.785256726420549 931.1031063130787 2273.160230600515 0.0 0.0
2707.786701466017 15.80519319793286 817.077568399185 2268.035327962907 0.0 0.0
2293.2487953854657 52.48291843021721 703.7195141447049 2252.573465106344 0.0 0.0
1825.2313112464012 129.08094860494862 586.293677955405 2218.747299468112 0.0 0.0
1246.1781421610617 263.47941963797564 452.89726853971115 2175.4517145355317 0.0 0.0
555.4219273049146 418.2166101398208 292.0915612334206 2216.8515611442594 0.0 0.0
42.56985357872691 156.9915105980699 59.86840925303906 2508.9192105501347 0.0 0.0
-81.06066584935789 -2218.4131183099316 -689.8421352477868 2478.1414136725593 0.0 0.0
-1738.9369156687046 -8186.798326672239 -2977.7205727022833 1794.1873692796114 0.0 0.0
-1388.6662549107518 -6719.305885192079 -2432.391642030849 -1630.9339235143648 0.0 0.0
-270.1267709161942 -2217.3826496655975 -746.2528261745376 -2405.027003230345 0.0 0.0
-270.38275748140404 4.312275163271082 -79.82114469543998 -2642.11038809533 0.0 0.0
-1.5990711182974309 390.5167901084779 116.67531569705417 -2397.183478578474 0.0 0.0
453.64258919305934 276.4176710206786 219.01807806412137 -2311.067572648596 0.0 0.0
839.8260070796695 138.83827520250247 293.59928468465165 -2317.5367112636136 0.0 0.0
1124.3029903705192 56.369939516367495 354.201878966066 -2334.1273274267573 0.0 0.0
1350.649869079154 17.05522912987834 410.3115294627097 -2342.757876817551 0.0 0.0
1552.846631742845 1.995295065453469 466.4525780424897 -2345.702611268618 0.0 0.0
1747.1003072656579 -2.096339794736501 523.5011902412765 -2346.235666796136 0.0 0.0
1939.692520678168 -2.1684901873365234 581.2572091472492 -2346.081391074147 0.0 0.0
2132.0176953374603 -0.35938168529796855 639.4974940956487 -2346.0064339086366 0.0 0.0
2322.4950517467714 4.483419475270544 698.0935413666126 -2346.5413759098783 0.0 0.0
2506.4549786176617 16.079866887529615 756.7604536515577 -2348.5258266321407 0.0 0.0
2675.4779088108917 39.478341226213516 814.4868750111318 -2353.6997789711872 0.0 0.0
2821.5295962046152 74.82144014565924 868.9053109050825 -2366.0603831318704 0.0 0.0
2956.8188205865968 92.81881804188335 914.8912915885443 -2391.1585875483297 0.0 0.0
3146.6109326852325 -25.973264804043936 936.1913003643567 -2410.1022490515106 0.0 0.0
3477.136206662986 -555.3813675786197 876.52645172531 -2276.1107342497035 0.0 0.0
3822.4608111330426 -1744.2881063447592 623.4518114364852 -1577.884345790762 0.0 0.0
3830.3158434456254 -2819.246994289056 303.3206547469705 6.02540239924565e-11 0.0 0.0
3822.4608111333164 -1744.288106344304 623.4518114367035 1577.8843457908206 0.0 0.0
3477.1362066624265 -555.3813675799622 876.5264517247392 2276.1107342498717 0.0 0.0
3146.610932685393 -25.97326480347286 936.1913003645761 2410.1022490514665 0.0 0.0
2956.818820587302 92.81881804361502 914.8912915892755 2391.1585875482474 0.0 0.0
2821.5295962051878 74.82144014701424 868.9053109056609 2366.060383131919 0.0 0.0
2675.477908810756 39.478341225935964 814.4868750110076 2353.6997789713314 0.0 0.0
2506.4549786177904 16.079866887989105 756.7604536517338 2348.525826631995 0.0 0.0
2322.4950517469406 4.48341947574319 698.0935413668052 2346.541375909906 0.0 0.0
2132.0176953372825 -0.3593816857481613 639.4974940954601 2346.0064339087357 0.0 0.0
1939.6925206783187 -2.1684901869744593 581.257209147403 2346.081391074228 0.0 0.0
1747.1003072655224 -2.0963397951280385 523.5011902411183 2346.235666796134 0.0 0.0
1552.8466317428233 1.9952950654896284 466.45257804249405 2345.702611268502 0.0 0.0
1350.6498690789267 17.05522912955223 410.3115294625438 2342.757876817709 0.0 0.0
1124.3029903702313 56.36993951570927 354.2018789657824 2334.127327426752 0.0 0.0
839.8260070796179 138.83827520238987 293.59928468460237 2317.536711263617 0.0 0.0
453.6425891927605 276.4176710200695 219.01807806384903 2311.0675726484824 0.0 0.0
-1.5990711183157913 390.5167901084591 116.67531569704296 2397.1834785784517 0.0 0.0
-270.38275748130707 4.312275163490334 -79.82114469534508 2642.1103880952505 0.0 0.0
-270.12677091625176 -2217.3826496656593 -746.2528261745734 2405.027003230337 0.0 0.0
-1388.6662549108248 -6719.305885192098 -2432.3916420308774 1630.9339235143264 0.0 0.0
-1108.5600287151249 -5430.455944098785 -1961.704791844173 -1477.3428566149767 0.0 0.0
-420.32609082862 -2115.790623877071 -760.8350144117073 -2299.128908005514 0.0 0.0
-556.263781299084 -112.62192009042742 -200.66571041685333 -2694.9290591637573 0.0 0.0
-523.6055080973291 348.4415175574213 -52.549197161972344 -2512.026240005496 0.0 0.0
-311.40576108410426 275.759968037344 -10.693737914028112 -2398.090902085559 0.0 0.0
-132.7983449856367 142.89278954104267 3.0283333666217587 -2370.444278858083 0.0 0.0
-40.63694704738717 58.12234991324091 5.2456208597560945 -2368.480205268549 0.0 0.0
-5.7065290220948555 17.570763756156797 3.559270420218546 -2369.443920848702 0.0 0.0
3.667927475003154 2.0873068333313007 1.726570292500348 -2369.901891673344 0.0 0.0
4.444219127909122 -2.129986166729495 0.6942698883538867 -2370.016068001072 0.0 0.0
3.3805777383988698 -2.2099930525192377 0.3511754057638825 -2370.026692491823 0.0 0.0
2.0007154955123667 -0.3649467678864795 0.49073061828782727 -2370.0076196043847 0.0 0.0
-1.303495960497628 4.568400575521743 0.9794713845072494 -2369.9378921575185 0.0 0.0
-11.364283349872153 16.355877760315806 1.4974783231330662 -2369.789151313392 0.0 0.0
-37.35656736459879 40.09711207679719 0.8221634136595242 -2369.9157982516754 0.0 0.0
-89.84772282712373 76.9639249820693 -3.865139353516227 -2373.3954336124903 0.0 0.0
-158.80012706076326 101.44711677823108 -17.205903084759697 -2391.288308278453 0.0 0.0
-164.653820843059 -8.612088119154294 -51.97977268866401 -2427.9535129388105 0.0 0.0
29.5666231687635 -580.1309474197947 -165.16929727530942 -2363.4817369776765 0.0 0.0
315.30062227641383 -2012.2528199834715 -509.0856593121172 -1719.1862443197354 0.0 0.0
231.5825406903085 -3462.690603672287 -969.332418894594 -1.0402345651527867e-11 0.0 0.0
315.30062227605345 -2012.2528199844162 -509.08565931250865 1719.1862443196712 0.0 0.0
29.566623168234287 -580.1309474209356 -165.16929727581038 2363.481736977757 0.0 0.0
-164.65382084343048 -8.612088119877612 -51.9797726889924 2427.9535129388387 0.0 0.0
-158.8001270599554 101.44711677999518 -17.205903083987977 2391.2883082784533 0.0 0.0
-89.84772282727863 76.96392498146355 -3.8651393537445244 2373.39543361235 0.0 0.0
-37.35656736442422 40.09711207727671 0.8221634138556624 2369.9157982516617 0.0 0.0
-11.364283350102369 16.35587775990642 1.4974783229412054 2369.7891513134596 0.0 0.0
-1.303495960346197 4.5684005758723885 0.9794713846578276 2369.9378921575994 0.0 0.0
2.0007154947364825 -0.3649467697310129 0.49073061750162594 2370.0076196044606 0.0 0.0
3.3805777387898672 -2.2099930517207227 0.3511754061207881 2370.0266924919315 0.0 0.0
4.444219128214257 -2.129986166016664 0.6942698886592922 2370.0160680010886 0.0 0.0
3.6679274749286037 2.0873068330684745 1.7265702923990958 2369.901891673334 0.0 0.0
-5.706529022060806 17.57076375619406 3.55927042023999 2369.443920848714 0.0 0.0
-40.63694704767083 58.12234991268364 5.245620859503866 2368.480205268552 0.0 0.0
-132.7983449855873 142.89278954111978 3.0283333666597194 2370.444278858064 0.0 0.0
-311.40576108431003 275.7599680367761 -10.693737914260169 2398.0909020855356 0.0 0.0
-523.6055080974072 348.4415175572601 -52.54919716204418 2512.026240005515 0.0 0.0
-556.2637812990232 -112.6219200902535 -200.66571041678307 2694.929059163748 0.0 0.0
-420.32609082864246 -2115.7906238772016 -760.8350144117534 2299.1289080055303 0.0 0.0
-1108.5600287150367 -5430.455944098756 -1961.7047918441376 1477.3428566148793 0.0 0.0
-887.5608495355829 -4297.81285599909 -1555.6121116604018 -1330.0821605525507 0.0 0.0
-547.1571144386455 -1947.490302484086 -748.3942250768196 -2165.141345708686 0.0 0.0
-823.8963080337114 -191.61878391496796 -304.6545275846038 -2675.7172549283932 0.0 0.0
-1019.6076597796473 300.00023941371205 -215.88222610978056 -2559.202041829107 0.0 0.0
-1053.1072289260896 263.1542512906087 -236.9858932906441 -2431.4627295325436 0.0 0.0
-1092.9671692515208 140.7046674920774 -285.678750527833 -2374.730810279354 0.0 0.0
-1201.1664797499718 57.48440622641658 -343.1046220570665 -2354.6538157633872 0.0 0.0
-1361.112328755016 17.311556141232025 -403.1402317841352 -2347.7961129537694 0.0 0.0
-1545.6096975382811 2.046839384752168 -463.0688574460586 -2345.7084363700933 0.0 0.0
-1738.5078655499158 -2.0962844749375193 -522.181245007456 -2345.3871992504523 0.0 0.0
-1933.1806124337677 -2.1720243524205713 -580.6057910358564 -2345.5602220639385 0.0 0.0
-2128.125831331733 -0.36882436677414177 -638.5483967095522 -2345.6004267849416 0.0 0.0
-2324.8651597933444 4.442636514120451 -696.1267569837672 -2344.9342758397215 0.0 0.0
-2527.991161412613 15.96231780219879 -753.6086530831242 -2342.669769384701 0.0 0.0
-2746.6691582425956 39.09645939860936 -812.2718096531961 -2337.7479292268767 0.0 0.0
-2993.895073595175 75.70181165874882 -875.4579785809283 -2331.686747982277 0.0 0.0
-3265.4277152174254 106.50790608147247 -947.6759427407864 -2339.450192982536 0.0 0.0
-3473.576635541787 16.978738020066984 -1036.979369256516 -2392.1946626352064 0.0 0.0
-3423.001388429352 -567.7266896487351 -1197.2184234234262 -2416.252048551819 0.0 0.0
-3191.305749089164 -2257.870188137736 -1634.75278116807 -1869.6694686815558 0.0 0.0
-3405.2290478191217 -4222.619522549561 -2288.354571110605 -1.064108801074326e-10 0.0 0.0
-3191.305749089175 -2257.8701881380084 -1634.7527811681555 1869.6694686815522 0.0 0.0
-3423.0013884293667 -567.7266896487506 -1197.2184234234358 2416.2520485518953 0.0 0.0
-3473.5766355415954 16.978738020651896 -1036.9793692562828 2392.194662635375 0.0 0.0
-3265.427715217806 106.50790608060706 -947.67594274116 2339.4501929826197 0.0 0.0
-2993.8950735952026 75.70181165863991 -875.4579785809685 2331.6867479822495 0.0 0.0
-2746.669158242203 39.09645939948508 -812.2718096528154 2337.747929226774 0.0 0.0
-2527.991161412987 15.9623178012424 -753.608653083523 2342.6697693847027 0.0 0.0
-2324.8651597929374 4.442636515029044 -696.126756983373 2344.9342758397343 0.0 0.0
-2128.125831332368 -0.36882436820664566 -638.548396710172 2345.6004267849007 0.0 0.0
-1933.1806124333293 -2.172024351348515 -580.6057910354036 2345.560222064055 0.0 0.0
-1738.507865549659 -2.0962844743833173 -522.1812450072127 2345.3871992504532 0.0 0.0
-1545.6096975383741 2.04683938456904 -463.0688574461416 2345.7084363700087 0.0 0.0
-1361.1123287547116 17.311556142075617 -403.14023178379074 2347.796112953736 0.0 0.0
-1201.166479749805 57.484406226778596 -343.1046220569078 2354.6538157634786 0.0 0.0
-1092.9671692515255 140.70466749199093 -285.67875052786036 2374.730810279241 0.0 0.0
-1053.107228926346 263.1542512900202 -236.98589329089776 2431.4627295325195 0.0 0.0
-1019.607659779783 300.0002394134668 -215.88222610989476 2559.202041829102 0.0 0.0
-823.8963080336516 -191.61878391490097 -304.6545275845657 2675.7172549283987 0.0 0.0
-547.1571144387176 -1947.490302484237 -748.3942250768864 2165.14134570867 0.0 0.0
-887.5608495356622 -4297.812855999106 -1555.6121116604302 1330.082160552483 0.0 0.0
-716.5738423819635 -3306.6365710882906 -1206.963124041076 -1185.2389944432487 0.0 0.0
-659.8156276188963 -1737.8526659687752 -719.3004880763015 -2005.5945301603592 0.0 0.0
-1079.0828312288982 -234.69116522899495 -394.13219893736795 -2591.740225402505 0.0 0.0
-1496.459703554209 250.82768019700907 -373.6896070071601 -2538.62217758315 0.0 0.0
-1775.7353744423995 240.92914983878708 -460.44186738108397 -2407.4624473965773 0.0 0.0
-2041.951226401721 132.48459407409698 -572.8399896982871 -2327.8121087167806 0.0 0.0
-2357.435770050259 54.42586034727391 -690.9029729108959 -2291.60928521342 0.0 0.0
-2715.5761109209147 16.30232843238077 -809.7821347465602 -2277.504710667332 0.0 0.0
-3094.995842722541 1.883774540036903 -927.9336204547512 -2273.0702809209793 0.0 0.0
-3481.755706293358 -1.9966821531732677 -1045.1257165339598 -2272.3666159373206 0.0 0.0
-3869.9890352997304 -2.0565908881136608 -1161.6136878563534 -2272.7040067894586 0.0 0.0
-4258.368072261771 -0.36720907278833437 -1277.6205844003675 -2272.8149768600815 0.0 0.0
-4648.219216547126 4.1174390070482545 -1393.2305332620233 -2271.627573564483 0.0 0.0
-5043.531681644408 14.92816974728315 -1508.581053569138 -2267.444045815908 0.0 0.0
-5452.555559438634 36.64668601070552 -1624.7726620283786 -2257.896144308463 0.0 0.0
-5889.915556070104 71.04953094159403 -1745.6598075385532 -2242.479054620448 0.0 0.0
-6360.982745201327 106.16548790250215 -1876.4451771896483 -2237.005377119649 0.0 0.0
-6780.066899659508 48.294772209200076 -2019.5316382350923 -2299.3996771880834 0.0 0.0
-6886.94804841324 -508.32804342947145 -2218.5828275528133 -2426.5819658468495 0.0 0.0
-6703.376181855492 -2456.863151001215 -2748.071799857012 -2032.431404880133 0.0 0.0
-7108.989007383734 -5134.842939384391 -3673.149584030438 -6.656364348600619e-11 0.0 0.0
-6703.376181854919 -2456.8631509999386 -2748.071799856458 2032.4314048801214 0.0 0.0
-6886.948048413116 -508.3280434291097 -2218.5828275526683 2426.581965846849 0.0 0.0
-6780.066899659227 48.29477220979761 -2019.5316382348287 2299.3996771880434 0.0 0.0
-6360.982745201984 106.16548790076007 -1876.4451771903666 2237.0053771197217 0.0 0.0
-5889.915556069971 71.04953094176281 -1745.6598075384625 2242.4790546204963 0.0 0.0
-5452.555559438784 36.64668601052092 -1624.772662028479 2257.8961443084913 0.0 0.0
-5043.531681644323 14.928169747449132 -1508.581053569062 2267.444045815986 0.0 0.0
-4648.219216547141 4.117439007024057 -1393.2305332620354 2271.627573564462 0.0 0.0
-4258.368072261835 -0.3672090728780262 -1277.620584400414 2272.814976860044 0.0 0.0
-3869.9890352998427 -2.0565908885262303 -1161.6136878565103 2272.7040067895045 0.0 0.0
-3481.755706293321 -1.9966821530318732 -1045.1257165339057 2272.3666159372724 0.0 0.0
-3094.995842722595 1.8837745400702985 -927.9336204547578 2273.070280920832 0.0 0.0
-2715.5761109202854 16.302328433889528 -809.7821347459192 2277.50471066741 0.0 0.0
-2357.435770050165 54.42586034749787 -690.9029729108001 2291.609285213396 0.0 0.0
-2041.9512264017028 132.48459407421572 -572.8399896982461 2327.8121087167133 0.0 0.0
-1775.7353744422903 240.92914983904058 -460.4418673809747 2407.462447396513 0.0 0.0
-1496.4597035542913 250.8276801968073 -373.68960700724523 2538.622177583118 0.0 0.0
-1079.0828312289316 -234.69116522913902 -394.1321989374212 2591.7402254025687 0.0 0.0
-659.8156276188568 -1737.8526659686872 -719.300488076263 2005.5945301602633 0.0 0.0
-716.5738423820399 -3306.6365710883374 -1206.9631240411138 1185.238994443281 0.0 0.0
-588.5144234774049 -2448.79784989679 -911.1936820122585 -1039.179149645434 0.0 0.0
-762.9921432763098 -1505.6235884649277 -680.584719522371 -1821.7989615716617 0.0 0.0
-1325.1393076566533 -246.22888326512867 -471.41045727653477 -2448.9256375393 0.0 0.0
-1959.1063927961131 204.34115233697074 -526.4295721377428 -2451.1224277304523 0.0 0.0
-2483.3743419339307 211.58373120328102 -681.5371832191947 -2323.410256053901 0.0 0.0
-2981.6969636483764 119.05805397851705 -858.7916729009579 -2227.4433927905484 0.0 0.0
-3510.1030472699936 49.180117446884395 -1038.2768789469328 -2178.3628656170995 0.0 0.0
-4069.297610365513 14.638870408441907 -1216.397621987121 -2158.282808235517 0.0 0.0
-4644.545508172906 1.6273993471096233 -1392.8754326477392 -2151.947563745544 0.0 0.0
-5225.300766854994 -1.832920713473591 -1568.1401062705404 -2150.9744303565376 0.0 0.0
-5807.03660913847 -1.8705670014101727 -1742.672152841964 -2151.479140196347 0.0 0.0
-6388.74100271275 -0.35466229087803214 -1916.7286995010886 -2151.675256753712 0.0 0.0
-6971.43398241126 3.6324999368664805 -2090.3404447423177 -2150.101524371972 0.0 0.0
-7558.209745359558 13.317969996612959 -2263.467532608884 -2144.367463473925 0.0 0.0
-8155.4886006251045 33.03039269069123 -2436.737462380323 -2130.9715790477458 0.0 0.0
-8777.659305533853 63.60305483892742 -2614.2168752084776 -2107.429623439822 0.0 0.0
-9442.572870667753 98.64035059477061 -2803.1797560218956 -2086.4603123257543 0.0 0.0
-10081.73651986349 79.49355515230367 -3000.6728894133553 -2146.447519608327 0.0 0.0
-10368.043423954245 -394.15583099416745 -3228.659776484524 -2381.9729557276232 0.0 0.0
-10224.62392801839 -2572.849029561011 -3839.241887273821 -2208.6004572878087 0.0 0.0
-10918.620439654054 -6250.219135169438 -5150.65187244705 5.4228621593210846e-11 0.0 0.0
-10224.623928017858 -2572.84902955986 -3839.2418872733156 2208.600457287769 0.0 0.0
-10368.04342395403 -394.1558309934186 -3228.659776484236 2381.9729557275277 0.0 0.0
-10081.736519863964 79.49355515120703 -3000.6728894138278 2146.447519608295 0.0 0.0
-9442.57287066799 98.6403505939735 -2803.1797560222053 2086.460312325796 0.0 0.0
-8777.659305533882 63.60305483888205 -2614.216875208501 2107.4296234397198 0.0 0.0
-8155.488600625243 33.030392690478735 -2436.73746238043 2130.971579047735 0.0 0.0
-7558.209745358776 13.317969998397295 -2263.467532608113 2144.367463473863 0.0 0.0
-6971.433982411344 3.632499936616135 -2090.3404447424177 2150.101524371972 0.0 0.0
-6388.7410027128 -0.35466229096637747 -1916.7286995011302 2151.675256753921 0.0 0.0
-5807.036609138337 -1.8705670011611062 -1742.6721528418498 2151.4791401963944 0.0 0.0
-5225.300766855359 -1.8329207143202062 -1568.1401062709042 2150.9744303565135 0.0 0.0
-4644.545508172686 1.627399347697967 -1392.8754326474964 2151.9475637455785 0.0 0.0
-4069.2976103656483 14.638870408102319 -1216.3976219872632 2158.2828082356054 0.0 0.0
-3510.1030472699604 49.18011744694602 -1038.276878946904 2178.3628656170195 0.0 0.0
-2981.696963648569 119.05805397808743 -858.7916729011445 2227.443392790613 0.0 0.0
-2483.374341933854 211.58373120368591 -681.5371832190505 2323.410256053921 0.0 0.0
-1959.1063927960115 204.3411523371976 -526.4295721376442 2451.122427730472 0.0 0.0
-1325.1393076567215 -246.22888326543548 -471.41045727664704 2448.9256375393497 0.0 0.0
-762.9921432763234 -1505.6235884648884 -680.5847195223636 1821.7989615717138 0.0 0.0
-588.5144234773985 -2448.797849896786 -911.1936820122557 1039.1791496455025 0.0 0.0
-497.8568508297842 -1721.5465873133735 -665.8210314429473 -889.1031981120321 0.0 0.0
-857.8423810265588 -1264.4769478902597 -636.6957986750457 -1614.569389919972 0.0 0.0
-1563.167662760201 -232.0227209664738 -538.5571151180022 -2251.81028729342 0.0 0.0
-2410.829155247492 162.10553302575113 -674.6170866665224 -2297.5989004019034 0.0 0.0
-3179.822607586729 177.573344932543 -900.6747787962561 -2177.324854551728 0.0 0.0
-3914.651602034948 101.72490574566223 -1143.878008886786 -2071.817427832613 0.0 0.0
-4660.262460907357 42.231772426062086 -1385.4092065443888 -2014.0943937033471 0.0 0.0
-5422.655187325804 12.487845921467773 -1623.050202421301 -1989.9062053589982 0.0 0.0
-6194.354430113381 1.3205493858915105 -1857.9101642182475 -1982.3254666812766 0.0 0.0
-6969.142962650923 -1.6092136990220354 -2091.2256529049837 -1981.2363842430527 0.0 0.0
-7744.306560697903 -1.6249916828266393 -2323.7794657142194 -1981.9044438414917 0.0 0.0
-8519.265915634445 -0.32931984660009306 -2555.8785706443127 -1982.1961776544717 0.0 0.0
-9294.616587158192 3.05583851316225 -2787.468224593509 -1980.409543876485 0.0 0.0
-10072.324898379537 11.247609848644899 -3018.323186559267 -1973.6642891039392 0.0 0.0
-10856.324754563415 28.50774287421222 -3248.3451035067606 -1957.4599082287293 0.0 0.0
-11657.709541283219 54.650930841395095 -3480.917583132548 -1928.0103714773802 0.0 0.0
-12506.673155780722 83.22664627428847 -3727.03395285193 -1891.854210932422 0.0 0.0
-13372.690276015668 100.45082767562923 -3981.6718345020113 -1932.4139893220347 0.0 0.0
-13870.848971657246 -223.37789445127711 -4228.268059832556 -2264.0032108301957 0.0 0.0
-13754.930129176104 -2550.926294421314 -4891.756927079225 -2394.5671374312633 0.0 0.0
-14888.722835212344 -7639.8321650955995 -6758.566500092383 7.105427357601002e-12 0.0 0.0
-13754.930129175582 -2550.9262944200595 -4891.75692707869 2394.5671374311924 0.0 0.0
-13870.848971657168 -223.37789445088953 -4228.268059832418 2264.003210830124 0.0 0.0
-13372.69027601581 100.45082767516863 -3981.6718345021923 1932.4139893220658 0.0 0.0
-12506.673155780612 83.22664627438031 -3727.0339528518693 1891.8542109324876 0.0 0.0
-11657.70954128329 54.65093084119478 -3480.9175831326293 1928.0103714774514 0.0 0.0
-10856.324754563697 28.507742873694983 -3248.3451035070007 1957.4599082287957 0.0 0.0
-10072.324898379004 11.247609849908326 -3018.3231865587286 1973.6642891038186 0.0 0.0
-9294.616587158183 3.0558385128802463 -2787.4682245935905 1980.4095438763281 0.0 0.0
-8519.265915633996 -0.329319845568115 -2555.8785706438684 1982.1961776544686 0.0 0.0
-7744.306560697407 -1.6249916815833387 -2323.779465713697 1981.9044438414353 0.0 0.0
-6969.142962651337 -1.6092137000904039 -2091.225652905428 1981.236384242989 0.0 0.0
-6194.354430112749 1.3205493873721235 -1857.910164217613 1982.3254666812873 0.0 0.0
-5422.6551873261305 12.487845920621155 -1623.050202421653 1989.9062053590021 0.0 0.0
-4660.262460906974 42.231772426838106 -1385.4092065440411 2014.0943937033355 0.0 0.0
-3914.6516020352487 101.72490574486629 -1143.8780088871151 2071.8174278327965 0.0 0.0
-3179.822607586553 177.5733449329287 -900.6747787960875 2177.324854551826 0.0 0.0
-2410.8291552474566 162.10553302586544 -674.6170866664772 2297.5989004019084 0.0 0.0
-1563.167662760148 -232.02272096642088 -538.5571151179706 2251.8102872934046 0.0 0.0
-857.8423810265285 -1264.476947890232 -636.6957986750282 1614.5693899200403 0.0 0.0
-497.8568508297187 -1721.546587313265 -665.8210314428953 889.1031981120337 0.0 0.0
-439.78745648260474 -1126.1364179678792 -469.77716233514525 -733.6220204241814 0.0 0.0
-942.3254480710185 -1024.3516305724554 -590.0031235930422 -1384.827942831691 0.0 0.0
-1792.0896401417758 -198.9126545043795 -597.3006883938465 -2003.438457634671 0.0 0.0
-2853.481056507035 124.30659595288705 -818.7523381662445 -2078.31303726832 0.0 0.0
-3868.670630084162 141.32545077083984 -1118.203553793997 -1967.6317013865814 0.0 0.0
-4843.676015642572 82.14012561070979 -1428.4607670095588 -1859.6226362570692 0.0 0.0
-5809.3606883187795 34.26814839938027 -1732.5277619758199 -1798.237337210272 0.0 0.0
-6776.172163244413 10.07549875951721 -2029.828999345469 -1772.2526638055683 0.0 0.0
-7744.5471829295275 1.0124236827661974 -2323.0604277740285 -1764.2253512378063 0.0 0.0
-8713.27561332443 -1.3361438302995907 -2614.38352714642 -1763.1861510910958 0.0 0.0
-9681.77090225123 -1.3342877481271103 -2904.931556999807 -1763.9940065780202 0.0 0.0
-10649.961362894743 -0.2949241208553559 -3195.07688610468 -1764.3833666271087 0.0 0.0
-11617.92016165633 2.4601752928055873 -3484.637995909057 -1762.5612920672465 0.0 0.0
-12586.209445463144 8.950457598827725 -3773.177696359295 -1755.4913483695802 0.0 0.0
-13556.181374746757 23.165287280099413 -4059.9048262399965 -1737.7896647580314 0.0 0.0
-14532.014998637887 45.87268992858766 -4345.84269261279 -1705.057863753521 0.0 0.0
-15549.87042068584 62.187113938302076 -4646.30499202426 -1658.505685355521 0.0 0.0
-16641.815623917577 96.7925237411463 -4963.5069300529285 -1662.0863662543131 0.0 0.0
-17397.509554406966 -7.946127952383478 -5221.636704707807 -2047.8023276765146 0.0 0.0
-17287.75117434664 -2308.5482726267774 -5878.889834092026 -2575.695171254906 0.0 0.0
-19098.379358517654 -9400.599082604433 -8549.693532336627 5.707079253625125e-11 0.0 0.0
-17287.751174346286 -2308.5482726260666 -5878.889834091706 2575.695171254939 0.0 0.0
-17397.509554406588 -7.946127951499342 -5221.636704707426 2047.8023276765557 0.0 0.0
-16641.81562391713 96.79252374214752 -4963.5069300524965 1662.0863662544443 0.0 0.0
-15549.870420685544 62.18711393909447 -4646.3049920239355 1658.5056853556216 0.0 0.0
-14532.014998637595 45.87268992925459 -4345.842692612503 1705.0578637536819 0.0 0.0
-13556.181374746586 23.165287280407792 -4059.9048262398537 1737.7896647581183 0.0 0.0
-12586.209445463404 8.950457598112298 -3773.1776963595876 1755.4913483697765 0.0 0.0
-11617.920161656824 2.460175291526671 -3484.6379959095884 1762.561292067283 0.0 0.0
-10649.961362894643 -0.2949241203769084 -3195.0768861045062 1764.3833666269543 0.0 0.0
-9681.77090225124 -1.3342877481056163 -2904.9315569998034 1763.9940065780575 0.0 0.0
-8713.275613324004 -1.3361438292715153 -2614.3835271459816 1763.1861510910855 0.0 0.0
-7744.547182929577 1.0124236828067312 -2323.0604277740313 1764.2253512379928 0.0 0.0
-6776.172163244325 10.075498759564997 -2029.8289993454287 1772.2526638055833 0.0 0.0
-5809.360688318261 34.26814840031277 -1732.527761975385 1798.2373372102518 0.0 0.0
-4843.676015642455 82.14012561069917 -1428.4607670095272 1859.6226362571717 0.0 0.0
-3868.6706300844376 141.3254507702399 -1118.2035537942588 1967.6317013865994 0.0 0.0
-2853.481056506995 124.30659595300335 -818.7523381661975 2078.3130372683136 0.0 0.0
-1792.0896401415978 -198.91265450421622 -597.3006883937444 2003.4384576346404 0.0 0.0
-942.3254480710191 -1024.3516305723583 -590.0031235930134 1384.8279428316582 0.0 0.0
-439.787456482826 -1126.136417967979 -469.7771623352413 733.6220204240713 0.0 0.0
-408.82127531166554 -666.1048990504573 -322.47785230863684 -573.6510670883189 0.0 0.0
-1010.9926088206091 -792.8113054363375 -541.141174277084 -1134.158995515467 0.0 0.0
-2008.4459187233383 -154.90001584100065 -649.0037803693018 -1704.9816994149803 0.0 0.0
-3287.744714437773 90.3686200141785 -959.2128283270781 -1792.2763138125072 0.0 0.0
-4553.535304997249 105.42233113340168 -1334.4338921591543 -1692.99317923205 0.0 0.0
-5772.024237021948 62.20474743668477 -1712.9458468755788 -1590.0944179245612 0.0 0.0
-6959.1046701500545 26.110178317503575 -2079.898347549765 -1530.5475356229585 0.0 0.0
-8130.467213909942 7.66518473072918 -2436.8406087537637 -1505.3359989905784 0.0 0.0
-9295.258617922702 0.7486205696286632 -2788.3529992059216 -1497.712706977009 0.0 0.0
-10457.677372798738 -1.03363495454375 -3137.6133023259854 -1496.8662970035382 0.0 0.0
-11619.391158583352 -1.0213654149932054 -3486.123757199505 -1497.7557286422302 0.0 0.0
-12780.826876906322 -0.24538394190193458 -3834.321678254468 -1498.2268394341413 0.0 0.0
-13941.542126032327 1.8629692349278173 -4181.90374703922 -1496.5395289150924 0.0 0.0
-15100.255652727323 6.838361369383037 -4528.025187407381 -1489.833010156429 0.0 0.0
-16256.080037407064 17.04997272997541 -4871.709019403128 -1472.4851268961543 0.0 0.0
-17404.382076274447 38.030449841134505 -5209.905487929994 -1438.6066985348614 0.0 0.0
-18570.81101715816 43.349307818784354 -5558.238512801815 -1390.9144531085506 0.0 0.0
-19870.457149295347 53.610768159850736 -5945.053914340649 -1351.5375544683607 0.0 0.0
-20945.27241029996 210.9492064983259 -6220.296961140492 -1705.469223873811 0.0 0.0
-20805.844313990372 -1723.77643909164 -6758.886225924604 -2711.7022219563055 0.0 0.0
-23665.13408116668 -11658.152816996988 -10596.986069449102 -8.412825991399586e-12 0.0 0.0
-20805.844313990663 -1723.7764390923332 -6758.886225924899 2711.7022219562637 0.0 0.0
-20945.272410299982 210.94920649835194 -6220.296961140491 1705.4692238738776 0.0 0.0
-19870.457149294612 53.610768161614814 -5945.0539143399 1351.5375544684725 0.0 0.0
-18570.81101715798 43.34930781910259 -5558.238512801663 1390.914453108424 0.0 0.0
-17404.382076274105 38.03044984180863 -5209.90548792969 1438.606698534918 0.0 0.0
-16256.08003740679 17.04997273052443 -4871.709019402882 1472.485126896056 0.0 0.0
-15100.255652728008 6.838361367511821 -4528.02518740815 1489.833010156645 0.0 0.0
-13941.54212603239 1.8629692347540363 -4181.903747039291 1496.5395289150113 0.0 0.0
-12780.826876906043 -0.24538394130258645 -3834.3216782542045 1498.226839434063 0.0 0.0
-11619.391158583296 -1.0213654150041815 -3486.12375719949 1497.7557286424912 0.0 0.0
-10457.67737279857 -1.0336349543628298 -3137.6133023258803 1496.8662970033802 0.0 0.0
-9295.258617923027 0.7486205688959915 -2788.3529992062386 1497.712706977134 0.0 0.0
-8130.467213910073 7.6651847305753655 -2436.8406087538497 1505.3359989904318 0.0 0.0
-6959.104670149873 26.11017831776983 -2079.898347549632 1530.5475356229013 0.0 0.0
-5772.024237021578 62.20474743730162 -1712.945846875284 1590.0944179245862 0.0 0.0
-4553.535304997182 105.42233113325273 -1334.4338921591786 1692.9931792319926 0.0 0.0
-3287.74471443767 90.36862001423174 -959.2128283270313 1792.276313812451 0.0 0.0
-2008.4459187233222 -154.90001584095506 -649.0037803692832 1704.9816994149091 0.0 0.0
-1010.9926088206613 -792.8113054365007 -541.1411742771486 1134.1589955153358 0.0 0.0
-408.82127531156306 -666.1048990504275 -322.4778523085971 573.6510670883202 0.0 0.0
-396.44640351459475 -344.76724994765857 -222.364096038676 -414.04782139683397 0.0 0.0
-1054.2137252250034 -576.8799646528555 -489.3281069633577 -865.3410166327222 0.0 0.0
-2205.946203227075 -109.56593387870797 -694.6536411317346 -1354.7594811466024 0.0 0.0
-3713.4980062901855 59.879584123547694 -1096.0855266499914 -1436.7209193260699 0.0 0.0
-5238.460519009866 72.85763281760921 -1549.6808658576774 -1352.3291546787298 0.0 0.0
-6703.351465954846 43.93897302072164 -1997.8237478802373 -1263.0666652014536 0.0 0.0
-8111.356730995242 18.64000546745408 -2427.815017658337 -1211.1551731932084 0.0 0.0
-9486.194507118065 5.523962026236973 -2844.201163527548 -1189.33056313506 0.0 0.0
-10846.609897223409 0.5567786289650982 -3253.8159355783323 -1182.901331095651 0.0 0.0
-12202.301639469044 -0.728775877008502 -3660.909124603816 -1182.3244727361227 0.0 0.0
-13557.117766023239 -0.7309908024083853 -4067.354627047693 -1183.198268964191 0.0 0.0
-14911.844814430717 -0.1488126083235244 -4473.598088111714 -1183.6776698050721 0.0 0.0
-16265.640820536497 1.2356303652040168 -4879.321557051388 -1182.341822673373 0.0 0.0
-17615.135414656394 5.2139226664565825 -5282.976447596981 -1176.4513361656502 0.0 0.0
-18956.395817729226 11.264391644897088 -5683.539427825298 -1161.8787951704096 0.0 0.0
-20280.13580184609 28.373116179122675 -6075.528805700091 -1129.3686290171843 0.0 0.0
-21574.712406726198 40.62902303453578 -6460.225015107499 -1087.2991904557093 0.0 0.0
-23029.529853186512 -29.410424138004046 -6917.682083197356 -1033.0157944856069 0.0 0.0
-24501.207316677894 333.0350919330883 -7250.451667423442 -1224.7966036049195 0.0 0.0
-24274.545728519275 -624.8400281671126 -7469.815727005916 -2700.85386577178 0.0 0.0
-28767.254414863026 -14555.785246320876 -12996.911898355173 -8.924416761146858e-11 0.0 0.0
-24274.54572851961 -624.8400281679066 -7469.815727006251 2700.853865771621 0.0 0.0
-24501.20731667843 333.0350919318068 -7250.4516674239885 1224.7966036048422 0.0 0.0
-23029.529853186617 -29.410424138116248 -6917.682083197421 1033.0157944855046 0.0 0.0
-21574.712406726667 40.62902303343921 -6460.225015107969 1087.2991904556015 0.0 0.0
-20280.135801846434 28.37311617814179 -6075.528805700487 1129.3686290171945 0.0 0.0
-18956.395817729383 11.264391644151805 -5683.53942782557 1161.878795170357 0.0 0.0
-17615.135414657165 5.213922664626242 -5282.976447597763 1176.4513361657039 0.0 0.0
-16265.64082053639 1.2356303656202634 -4879.32155705123 1182.3418226732715 0.0 0.0
-14911.844814430338 -0.1488126075630678 -4473.59808811137 1183.6776698050903 0.0 0.0
-13557.117766023512 -0.7309908027613812 -4067.3546270478805 1183.1982689640845 0.0 0.0
-12202.301639469237 -0.7287758774903015 -3660.909124604019 1182.3244727361468 0.0 0.0
-10846.609897223701 0.5567786279994968 -3253.8159355787107 1182.9013310958774 0.0 0.0
-9486.194507118089 5.523962026066735 -2844.2011635276067 1189.3305631351125 0.0 0.0
-8111.356730995272 18.640005467320606 -2427.815017658385 1211.1551731932225 0.0 0.0
-6703.35146595476 43.938973021006746 -1997.8237478801254 1263.066665201489 0.0 0.0
-5238.460519009575 72.85763281841975 -1549.6808658573473 1352.3291546787004 0.0 0.0
-3713.4980062901823 59.87958412354998 -1096.085526649989 1436.720919325989 0.0 0.0
-2205.946203226932 -109.56593387859044 -694.6536411316567 1354.7594811465458 0.0 0.0
-1054.2137252249317 -576.8799646528192 -489.32810696332547 865.3410166325797 0.0 0.0
-396.44640351458025 -344.767249947669 -222.36409603867483 414.0478213968535 0.0 0.0
-386.84180737960463 -161.07947735071275 -164.37638541909521 -266.7725250908933 0.0 0.0
-1056.7276141298453 -386.2394087158354 -432.8901068537043 -582.7817158396902 0.0 0.0
-2374.7399993727176 -74.48504466090156 -734.7675132100858 -946.0629802658543 0.0 0.0
-4130.453027763456 34.14215666786049 -1228.8932613286786 -1006.9264295812935 0.0 0.0
-5928.506343694973 47.1453999351651 -1764.408283127943 -945.0428305995747 0.0 0.0
-7641.680996858072 29.344363380959138 -2283.700990043133 -879.0085969443044 0.0 0.0
-9268.01953581162 12.73816806787869 -2776.5844103231225 -840.6144849118166 0.0 0.0
-10843.979468987396 3.8719540797685568 -3252.0322544722885 -824.5789095115521 0.0 0.0
-12398.674531406381 0.43913531037868125 -3719.4706188287996 -819.9510147346671 0.0 0.0
-13947.079378651033 -0.4722350875320416 -4184.265484121569 -819.6143023071995 0.0 0.0
-15494.85327582929 -0.48374166712407884 -4648.601105248922 -820.3128882129279 0.0 0.0
-17043.067700394695 -0.10179877536033644 -5112.950849751016 -820.711484877574 0.0 0.0
-18590.108725725422 0.9354222776202192 -5576.751991034342 -819.7606511936176 0.0 0.0
-20132.034540190674 3.1905383247353 -6038.653200559781 -815.5691085360412 0.0 0.0
-21657.213023138902 9.594806756943967 -6494.285464914589 -804.203065409252 0.0 0.0
-23162.134646678925 11.24225146741513 -6945.267718563454 -782.5386644642342 0.0 0.0
-24583.521880416767 58.83888628035383 -7357.404898240922 -735.6669871953793 0.0 0.0
-26076.810014222236 -90.07107890146916 -7850.064327937112 -737.9416092352391 0.0 0.0
-28030.19122252839 144.07103326489846 -8365.836056779048 -684.463814172227 0.0 0.0
-27632.609268921762 1198.8050960150294 -7930.141251872023 -2285.231982390528 0.0 0.0
-34678.31369254292 -18190.956588611036 -15860.78108434619 4.831690603168681e-11 0.0 0.0
-27632.60926892167 1198.80509601523 -7930.141251871935 2285.231982390534 0.0 0.0
-28030.191222528534 144.07103326471164 -8365.836056779146 684.4638141723711 0.0 0.0
-26076.810014222945 -90.07107890315214 -7850.064327937831 737.9416092353448 0.0 0.0
-24583.52188041689 58.83888628005434 -7357.4048982410495 735.6669871954537 0.0 0.0
-23162.134646679347 11.242251466525303 -6945.267718563849 782.5386644643372 0.0 0.0
-21657.21302313932 9.594806755790849 -6494.285464915058 804.2030654094318 0.0 0.0
-20132.034540191 3.1905383238735503 -6038.653200560137 815.5691085358383 0.0 0.0
-18590.10872572532 0.9354222778435517 -5576.7519910342435 819.7606511937796 0.0 0.0
-17043.067700395026 -0.10179877610691612 -5112.95084975134 820.7114848773631 0.0 0.0
-15494.853275829235 -0.4837416668772905 -4648.601105248832 820.3128882127248 0.0 0.0
-13947.079378650928 -0.4722350874169412 -4184.265484121504 819.6143023072173 0.0 0.0
-12398.674531406354 0.4391353104519471 -3719.47061882877 819.951014734678 0.0 0.0
-10843.979468987203 3.871954080164329 -3252.032254472111 824.5789095116398 0.0 0.0
-9268.019535811794 12.73816806739276 -2776.5844103233203 840.6144849119364 0.0 0.0
-7641.680996858126 29.34436338078665 -2283.7009900432017 879.0085969442321 0.0 0.0
-5928.506343694736 47.1453999357692 -1764.4082831276896 945.0428305995542 0.0 0.0
-4130.453027763649 34.142156667602 -1228.8932613288137 1006.926429581355 0.0 0.0
-2374.73999937271 -74.48504466077827 -734.7675132100464 946.0629802657678 0.0 0.0
-1056.7276141298123 -386.23940871581357 -432.89010685368794 582.7817158396258 0.0 0.0
-386.84180737961657 -161.07947735081552 -164.37638541912963 266.77252509079545 0.0 0.0
-348.61997500522386 -102.18288595732665 -135.24085828876514 -157.12663407601212 0.0 0.0
-995.280561197422 -239.6805695575455 -370.4883392264903 -292.6113199198629 0.0 0.0
-2500.3636611892866 -62.74065675403169 -768.9312953829957 -462.41904466843687 0.0 0.0
-4539.383321434114 18.84880432677283 -1356.1603551322019 -497.5390815575833 0.0 0.0
-6630.535354369855 31.6787396497936 -1979.6569844160185 -471.036547007288 0.0 0.0
-8591.192344941679 20.498315585643624 -2571.208208806811 -439.17778544100395 0.0 0.0
-10430.961431510437 9.139789796088472 -3126.5464925143046 -419.91445598797327 0.0 0.0
-12204.32931303287 2.8482818363062137 -3660.4443093589675 -411.5886717732952 0.0 0.0
-13951.454802413531 0.3539359037336567 -4185.330259952938 -409.0591870107347 0.0 0.0
-15691.89358179314 -0.32427107057119997 -4707.665355859113 -408.78643691114013 0.0 0.0
-17432.518072828945 -0.3407796328132804 -5229.857655738527 -409.08898118635534 0.0 0.0
-19174.360848131644 -0.06541997058737081 -5752.32788043067 -409.25593587124285 0.0 0.0
-20915.432930752777 0.6620123972391099 -6274.431275506661 -408.70712520844256 0.0 0.0
-22649.809537436788 2.4285682668468382 -6794.214290750984 -406.55797664814594 0.0 0.0
-24366.033416180726 5.994993044085575 -7308.011526940991 -400.6081025751015 0.0 0.0
-26033.333374204736 14.222529027455153 -7805.733253553183 -389.85974226304654 0.0 0.0
-27659.27807040354 8.123853736331696 -8295.346265000164 -370.03077615705797 0.0 0.0
-28957.9095804804 134.14020598509714 -8647.130812348592 -343.98680671056627 0.0 0.0
-31444.089078480072 -769.0770169202682 -9663.9498286201 -542.5188238449595 0.0 0.0
-30787.022685014716 3876.304952088263 -8073.215319877934 -774.3070552737332 0.0 0.0
-41814.36431865511 -22362.635210809673 -19253.09985883944 -4.206412995699793e-11 0.0 0.0
-30787.022685013933 3876.304952089834 -8073.215319877227 774.3070552737036 0.0 0.0
-31444.089078480014 -769.0770169201211 -9663.94982862004 542.518823844947 0.0 0.0
-28957.9095804805 134.14020598511541 -8647.130812348612 343.9868067104685 0.0 0.0
-27659.278070403358 8.123853736724545 -8295.346264999991 370.03077615700664 0.0 0.0
-26033.333374204543 14.222529027611303 -7805.733253553079 389.85974226321855 0.0 0.0
-24366.03341618117 5.994993043081651 -7308.011526941428 400.6081025752618 0.0 0.0
-22649.80953743663 2.428568267139161 -6794.214290750846 406.55797664808904 0.0 0.0
-20915.432930752893 0.6620123968238634 -6274.431275506822 408.70712520870103 0.0 0.0
-19174.360848131888 -0.06541997106548791 -5752.327880430883 409.2559358711941 0.0 0.0
-17432.518072829058 -0.3407796331829255 -5229.857655738673 409.0889811864915 0.0 0.0
-15691.893581792787 -0.324271069703705 -4707.665355858747 408.78643691117423 0.0 0.0
-13951.454802413215 0.3539359045619106 -4185.330259952594 409.0591870108276 0.0 0.0
-12204.329313032811 2.8482818361359055 -3660.4443093590025 411.5886717731878 0.0 0.0
-10430.961431510383 9.139789796149916 -3126.5464925142705 419.91445598802454 0.0 0.0
-8591.192344941803 20.498315585503416 -2571.2082088068896 439.17778544101407 0.0 0.0
-6630.535354369638 31.67873965033678 -1979.6569844157902 471.03654700727657 0.0 0.0
-4539.383321434486 18.848804326077328 -1356.1603551325225 497.53908155768033 0.0 0.0
-2500.363661189229 -62.740656753849095 -768.9312953829229 462.4190446683193 0.0 0.0
-995.2805611974194 -239.68056955752616 -370.48833922648373 292.61131991988543 0.0 0.0
-348.61997500532124 -102.1828859574394 -135.24085828882818 157.12663407588224 0.0 0.0
-181.43434339000845 -43.13460434690389 -67.37068432107371 -105.29361586790883 0.0 0.0
-810.9386584508335 -123.1276141767235 -280.2198817882671 -123.6709481281276 0.0 0.0
-2554.2970738381564 -66.12778288725826 -786.1274570176246 -157.38935800145165 0.0 0.0
-4997.210326390875 -94.44697112738095 -1527.497189255477 -175.4835061123612 0.0 0.0
-7436.958453661892 -166.57875070832597 -2281.061161311065 -174.14692145247724 0.0 0.0
-9666.695899517877 -238.25501154827754 -2971.4852733198463 -166.0432453589725 0.0 0.0
-11734.231840737793 -300.5790780471244 -3610.4432756354754 -159.85061216280315 0.0 0.0
-13721.070113643053 -355.7252751049047 -4223.038616624387 -156.65569161991414 0.0 0.0
-15679.57969814556 -407.5012579638279 -4826.124286832815 -155.4319918494577 0.0 0.0
-17632.81393887905 -458.22229294763247 -5427.310869548005 -155.12405235496237 0.0 0.0
-19587.9054424669 -508.8452216208577 -6029.0251992263275 -155.1127065183282 0.0 0.0
-21545.44436112722 -559.4969154134234 -6631.482382962196 -155.08801685246146 0.0 0.0
-23503.12733581831 -610.2031064545979 -7233.9991326818745 -154.77165073043432 0.0 0.0
-25453.701095346813 -659.240263046271 -7833.882407517925 -153.91994601532303 0.0 0.0
-27383.911549725948 -709.7536135869482 -8428.099548993869 -151.86870464032336 0.0 0.0
-29251.191561276646 -738.4154012255456 -8996.882088750657 -147.90015340748346 0.0 0.0
-31037.177817863645 -832.6394199256997 -9560.945171336802 -151.93349588967862 0.0 0.0
-32494.178472545373 -549.9987071883319 -9913.253153920117 -103.3752483269136 0.0 0.0
-33993.26725201362 -1853.900747237752 -10754.150399775413 -507.58777632027954 0.0 0.0
-34703.96510859596 4402.605637394122 -9090.407841360551 -2.2851868634970742 0.0 0.0
-51317.11677006855 -26911.69133195187 -23468.642430606124 -3.728928277269006e-11 0.0 0.0
-34703.965108594864 4402.6056373964775 -9090.407841359514 2.2851868636103063 0.0 0.0
-33993.26725201388 -1853.9007472381493 -10754.150399775612 507.587776320122 0.0 0.0
-32494.178472545078 -549.9987071872835 -9913.253153919712 103.37524832692134 0.0 0.0
-31037.17781786359 -832.6394199255876 -9560.945171336753 151.93349588954766 0.0 0.0
-29251.19156127639 -738.4154012253465 -8996.88208875052 147.90015340750165 0.0 0.0
-27383.911549726614 -709.7536135883018 -8428.099548994476 151.86870464037293 0.0 0.0
-25453.701095346456 -659.2402630452492 -7833.882407517513 153.91994601527153 0.0 0.0
-23503.12733581895 -610.2031064560427 -7233.999132682498 154.77165073042647 0.0 0.0
-21545.444361127076 -559.4969154130378 -6631.482382962035 155.0880168523106 0.0 0.0
-19587.90544246747 -508.84522162248726 -6029.025199226986 155.11270651828477 0.0 0.0
-17632.813938878076 -458.2222929455681 -5427.310869547092 155.12405235494134 0.0 0.0
-15679.579698145673 -407.5012579642404 -4826.1242868329755 155.431991849499 0.0 0.0
-13721.070113643545 -355.7252751061485 -4223.038616624908 156.65569162001236 0.0 0.0
-11734.231840737355 -300.5790780461191 -3610.4432756350425 159.85061216303552 0.0 0.0
-9666.695899517828 -238.255011548253 -2971.485273319825 166.04324535904232 0.0 0.0
-7436.958453661664 -166.5787507078219 -2281.0611613108463 174.14692145246494 0.0 0.0
-4997.210326391267 -94.44697112816823 -1527.4971892558303 175.48350611240028 0.0 0.0
-2554.2970738380563 -66.1277828869795 -786.1274570175111 157.38935800127442 0.0 0.0
-810.9386584506933 -123.127614176403 -280.21988178812893 123.67094812815033 0.0 0.0
-181.43434339008323 -43.13460434696959 -67.37068432111585 105.29361586777964 0.0 0.0
SCALARS Strain float 6
LOOKUP_TABLE default
0.04700556291065708 -0.11676545834989968 0.0 -0.007856956260181586 0.0 0.0
0.04186228623880455 0.009102271419651699 0.0 -0.01220446779746565 0.0 0.0
0.033086305802319374 -0.01648764789284465 0.0 -0.005219713109684441 0.0 0.0
0.03155158756973384 -0.011495158200298883 0.0 -0.0007774073982379845 0.0 0.0
0.03705957337043748 -0.015145145235261878 0.0 -0.001791701008664296 0.0 0.0
0.04452478276293755 -0.01803992858340567 0.0 -0.001846279553938001 0.0 0.0
0.05289414800457663 -0.021533401631501012 0.0 -0.0019577551699330406 0.0 0.0
0.06160722679731745 -0.025080550591534752 0.0 -0.0020001735467510126 0.0 0.0
0.07042471857259142 -0.02867548210726617 0.0 -0.0020152572673418807 0.0 0.0
0.07925891876706619 -0.032271516521236346 0.0 -0.0020191830253409072 0.0 0.0
0.08808340772562788 -0.0358639526475584 0.0 -0.002019182778906821 0.0 0.0
0.09689695506439866 -0.03945180488786333 0.0 -0.002019629951123218 0.0 0.0
0.10571094828214775 -0.04303918862913229 0.0 -0.002023563494719269 0.0 0.0
0.11455621885641151 -0.0466366505313294 0.0 -0.002035151328176268 0.0 0.0
0.12350116774233907 -0.05026892887039648 0.0 -0.0020588763093667747 0.0 0.0
0.13266295726487504 -0.05398150626457979 0.0 -0.0020925217347612895 0.0 0.0
0.1421590245679411 -0.057827247989553604 0.0 -0.0021077573643114725 0.0 0.0
0.15190469832650463 -0.06179352393030997 0.0 -0.00202038940755684 0.0 0.0
0.16119933561447053 -0.06563245156873099 0.0 -0.0016851688958533766 0.0 0.0
0.16834704038342926 -0.06866053966070358 0.0 -0.0009858109758544547 0.0 0.0
0.1711025217873972 -0.06986130356763895 0.0 -2.2551405187698492e-17 0.0 0.0
0.1683470403834282 -0.06866053966071343 0.0 0.0009858109758545675 0.0 0.0
0.16119933561447009 -0.0656324515687372 0.0 0.0016851688958521736 0.0 0.0
0.15190469832650444 -0.06179352393030697 0.0 0.002020389407555879 0.0 0.0
0.14215902456794102 -0.057827247989543945 0.0 0.0021077573643111507 0.0 0.0
0.13266295726487495 -0.053981506264569934 0.0 0.002092521734758099 0.0 0.0
0.12350116774233916 -0.050268928870396815 0.0 0.0020588763093688633 0.0 0.0
0.11455621885641151 -0.04663665053133541 0.0 0.002035151328178687 0.0 0.0
0.10571094828214714 -0.0430391886291327 0.0 0.002023563494716344 0.0 0.0
0.09689695506439888 -0.03945180488786304 0.0 0.0020196299511266898 0.0 0.0
0.08808340772562817 -0.03586395264755558 0.0 0.002019182778906293 0.0 0.0
0.07925891876706607 -0.03227151652123602 0.0 0.0020191830253395533 0.0 0.0
0.07042471857259162 -0.028675482107272464 0.0 0.0020152572673421466 0.0 0.0
0.061607226797316894 -0.025080550591535453 0.0 0.0020001735467489166 0.0 0.0
0.05289414800457597 -0.021533401631497816 0.0 0.0019577551699319997 0.0 0.0
0.044524782762937504 -0.018039928583406768 0.0 0.0018462795539390935 0.0 0.0
0.037059573370437485 -0.015145145235262406 0.0 0.0017917010086647817 0.0 0.0
0.03155158756973384 -0.01149515820029822 0.0 0.0007774073982371322 0.0 0.0
0.03308630580231946 -0.016487647892844706 0.0 0.005219713109684085 0.0 0.0
0.041862286238804794 0.009102271419650984 0.0 0.01220446779746376 0.0 0.0
0.04700556291065752 -0.11676545834990013 0.0 0.007856956260180398 0.0 0.0
0.029270467551631978 -0.10853189988421325 0.0 -0.005369220463996078 0.0 0.0
0.02476499211142361 0.007888927264604903 0.0 -0.00973080518613966 0.0 0.0
0.023775537387724338 -0.01278605468949729 0.0 -0.003648380308658179 0.0 0.0
0.02860917687778798 -0.011343016204802166 0.0 -0.0030197741444046573 0.0 0.0
0.03323253200981434 -0.014128532374241314 0.0 -0.0043538896172870606 0.0 0.0
0.04016033080442915 -0.01712084728721658 0.0 -0.004932125674515682 0.0 0.0
0.047655297515679776 -0.020393362044689063 0.0 -0.0051913763809620355 0.0 0.0
0.055476088330663836 -0.023766194253952176 0.0 -0.005297505555033733 0.0 0.0
0.06339491180537331 -0.027168278678447604 0.0 -0.005326641920895719 0.0 0.0
0.07133760558197318 -0.03057449682217147 0.0 -0.005329624817104981 0.0 0.0
0.07927720626035806 -0.03397719781936212 0.0 -0.005325561736176618 0.0 0.0
0.08721075943790561 -0.037376231710065724 0.0 -0.005323564962046988 0.0 0.0
0.09514765243056153 -0.04077489659057834 0.0 -0.005330947510036393 0.0 0.0
0.10311377353707367 -0.04418216873337701 0.0 -0.005360633613409492 0.0 0.0
0.11116301656661681 -0.047619090733349606 0.0 -0.005432896915932694 0.0 0.0
0.1193792388784428 -0.05112484311881732 0.0 -0.005560904563076454 0.0 0.0
0.12782474330860238 -0.054745983092796616 0.0 -0.005697721472732358 0.0 0.0
0.13636480048417704 -0.058473085890240764 0.0 -0.005632980062002819 0.0 0.0
0.14434576696818144 -0.062087548336040355 0.0 -0.004910307863389316 0.0 0.0
0.15035529791041485 -0.06496548000473296 0.0 -0.003009087645071615 0.0 0.0
0.1526403318511273 -0.06612720115887262 0.0 -2.5587171270657905e-17 0.0 0.0
0.1503552979104143 -0.06496548000474243 0.0 0.003009087645071927 0.0 0.0
0.14434576696818077 -0.06208754833604009 0.0 0.0049103078633892456 0.0 0.0
0.13636480048417693 -0.05847308589024068 0.0 0.0056329800620032846 0.0 0.0
0.12782474330860194 -0.05474598309278715 0.0 0.00569772147273205 0.0 0.0
0.1193792388784426 -0.05112484311881351 0.0 0.005560904563073832 0.0 0.0
0.111163016566617 -0.047619090733351195 0.0 0.005432896915936396 0.0 0.0
0.10311377353707336 -0.044182168733375854 0.0 0.005360633613412161 0.0 0.0
0.09514765243056142 -0.04077489659057678 0.0 0.005330947510033756 0.0 0.0
0.08721075943790577 -0.03737623171006395 0.0 0.005323564962049346 0.0 0.0
0.07927720626035797 -0.03397719781936051 0.0 0.005325561736179001 0.0 0.0
0.07133760558197302 -0.030574496822171754 0.0 0.005329624817104479 0.0 0.0
0.06339491180537353 -0.027168278678452024 0.0 0.005326641920896352 0.0 0.0
0.05547608833066375 -0.023766194253951902 0.0 0.005297505555031081 0.0 0.0
0.047655297515680047 -0.020393362044687852 0.0 0.005191376380961435 0.0 0.0
0.04016033080442912 -0.017120847287216644 0.0 0.0049321256745151545 0.0 0.0
0.033232532009813645 -0.014128532374240197 0.0 0.004353889617287627 0.0 0.0
0.028609176877787912 -0.01134301620480123 0.0 0.003019774144403544 0.0 0.0
0.02377553738772437 -0.012786054689498103 0.0 0.003648380308657679 0.0 0.0
0.024764992111423335 0.007888927264604202 0.0 0.009730805186139255 0.0 0.0
0.029270467551631686 -0.10853189988421345 0.0 0.005369220463995903 0.0 0.0
0.02099443866780517 -0.09301130908708144 0.0 -0.024727680697620033 0.0 0.0
0.01594900002147333 0.004319200762526803 0.0 -0.017596404850415973 0.0 0.0
0.016377490002489697 -0.0065536871252748555 0.0 -0.0024739588615374907 0.0 0.0
0.0241942402322785 -0.010218590738952817 0.0 -0.0069661410344519755 0.0 0.0
0.02943620702602022 -0.012260931209979566 0.0 -0.008669204868750302 0.0 0.0
0.03564351605860106 -0.015187567147367888 0.0 -0.009935716274127562 0.0 0.0
0.04238713255734198 -0.018117725404878313 0.0 -0.01043073190704366 0.0 0.0
0.04933020725092827 -0.021129564322040103 0.0 -0.010630780842782472 0.0 0.0
0.05636327728180132 -0.024154283939802457 0.0 -0.010684526701364829 0.0 0.0
0.06341721014710473 -0.027180594225188166 0.0 -0.01068763543578472 0.0 0.0
0.07047221791033835 -0.03020415861360464 0.0 -0.01067844807156854 0.0 0.0
0.0775244549618023 -0.03322508539202169 0.0 -0.010673492217091692 0.0 0.0
0.08458067301851324 -0.03624523224478495 0.0 -0.010686685376757949 0.0 0.0
0.09165966938522951 -0.039269590664861714 0.0 -0.010743667235822077 0.0 0.0
0.09879940834505858 -0.042311162246035074 0.0 -0.010886878832288787 0.0 0.0
0.10605613342693693 -0.04539792467082462 0.0 -0.011149585982915076 0.0 0.0
0.11346212523210705 -0.04857177963455097 0.0 -0.011452060326732343 0.0 0.0
0.12088657761659208 -0.05184907742293753 0.0 -0.011386514362807784 0.0 0.0
0.12777776583131562 -0.05509420900366083 0.0 -0.010016540425828249 0.0 0.0
0.1329552459377094 -0.057792449103834784 0.0 -0.006199885730655703 0.0 0.0
0.1349254769995352 -0.058944008651891616 0.0 2.445960101127298e-16 0.0 0.0
0.13295524593770935 -0.057792449103839544 0.0 0.006199885730655296 0.0 0.0
0.12777776583131523 -0.05509420900365666 0.0 0.010016540425827995 0.0 0.0
0.120886577616592 -0.0518490774229418 0.0 0.011386514362809595 0.0 0.0
0.11346212523210669 -0.048571779634546876 0.0 0.011452060326733293 0.0 0.0
0.10605613342693705 -0.045397924670823535 0.0 0.011149585982916266 0.0 0.0
0.09879940834505894 -0.04231116224603639 0.0 0.0108868788322917 0.0 0.0
0.09165966938522954 -0.039269590664860264 0.0 0.010743667235823203 0.0 0.0
0.08458067301851334 -0.03624523224478464 0.0 0.010686685376756492 0.0 0.0
0.07752445496180237 -0.033225085392015824 0.0 0.01067349221708945 0.0 0.0
0.07047221791033823 -0.03020415861360453 0.0 0.01067844807156975 0.0 0.0
0.06341721014710444 -0.02718059422518968 0.0 0.01068763543578634 0.0 0.0
0.05636327728180151 -0.024154283939800677 0.0 0.010684526701365129 0.0 0.0
0.04933020725092822 -0.021129564322042046 0.0 0.010630780842782739 0.0 0.0
0.042387132557341646 -0.018117725404880308 0.0 0.01043073190704284 0.0 0.0
0.035643516058601214 -0.015187567147368377 0.0 0.009935716274127187 0.0 0.0
0.029436207026020116 -0.012260931209979651 0.0 0.00866920486875092 0.0 0.0
0.02419424023227817 -0.010218590738951476 0.0 0.006966141034451154 0.0 0.0
0.01637749000248977 -0.006553687125275819 0.0 0.002473958861538027 0.0 0.0
0.015949000021473238 0.004319200762526472 0.0 0.017596404850416338 0.0 0.0
0.020994438667804743 -0.09301130908708145 0.0 0.024727680697621848 0.0 0.0
0.01667664666369094 -0.07936894381331941 0.0 -0.030869607961497667 0.0 0.0
0.011229123388498321 -0.0002729207143687265 0.0 -0.024097762342751593 0.0 0.0
0.011022821592684647 -0.002575573471464528 0.0 -0.007332244035706936 0.0 0.0
0.019477658942651088 -0.008039650714012025 0.0 -0.010070238068429556 0.0 0.0
0.025410920516680584 -0.010508849678386289 0.0 -0.012896250838961206 0.0 0.0
0.03108677841092615 -0.013154456462365323 0.0 -0.014343079772175197 0.0 0.0
0.037074184329132495 -0.015828916406557064 0.0 -0.015064156292655256 0.0 0.0
0.04317492294822131 -0.018484090879901553 0.0 -0.01532864079022355 0.0 0.0
0.049327962149031276 -0.021139136712001978 0.0 -0.015406846106928232 0.0 0.0
0.05549706976710689 -0.023787110502031833 0.0 -0.015412523277749873 0.0 0.0
0.061667749592831306 -0.02643172968134091 0.0 -0.01540109068383596 0.0 0.0
0.0678376666710392 -0.029073840832175957 0.0 -0.015395067756631728 0.0 0.0
0.07401030327769251 -0.031713531827256045 0.0 -0.015413663966404027 0.0 0.0
0.08019620882331065 -0.03435065894755304 0.0 -0.01549131691946604 0.0 0.0
0.08641724576858655 -0.03698926686826377 0.0 -0.0156845305495636 0.0 0.0
0.09270807501982709 -0.03964895125299809 0.0 -0.016036846108020204 0.0 0.0
0.09909233266838909 -0.042381308160399124 0.0 -0.016436528975032408 0.0 0.0
0.10548474711657613 -0.04526272585839519 0.0 -0.016314476762481964 0.0 0.0
0.11147027269943963 -0.04828291405882872 0.0 -0.014347764207878633 0.0 0.0
0.11604888121472429 -0.05101758217245708 0.0 -0.00889080725709101 0.0 0.0
0.1178180327531348 -0.05228336620368975 0.0 9.298117831235686e-16 0.0 0.0
0.11604888121472365 -0.051017582172459566 0.0 0.008890807257090756 0.0 0.0
0.11147027269943963 -0.04828291405883207 0.0 0.01434776420787787 0.0 0.0
0.10548474711657642 -0.04526272585839309 0.0 0.01631447676248232 0.0 0.0
0.09909233266838899 -0.042381308160405265 0.0 0.01643652897503514 0.0 0.0
0.09270807501982718 -0.039648951252998124 0.0 0.01603684610802246 0.0 0.0
0.08641724576858648 -0.036989266868261504 0.0 0.015684530549563175 0.0 0.0
0.08019620882331027 -0.03435065894755544 0.0 0.015491316919466574 0.0 0.0
0.07401030327769216 -0.031713531827258334 0.0 0.015413663966404926 0.0 0.0
0.06783766667103898 -0.02907384083217477 0.0 0.015395067756630198 0.0 0.0
0.061667749592831264 -0.026431729681339815 0.0 0.015401090683834391 0.0 0.0
0.05549706976710661 -0.023787110502033675 0.0 0.015412523277751274 0.0 0.0
0.04932796214903103 -0.02113913671199754 0.0 0.01540684610692674 0.0 0.0
0.04317492294822134 -0.01848409087990551 0.0 0.015328640790224016 0.0 0.0
0.03707418432913274 -0.015828916406559118 0.0 0.01506415629265253 0.0 0.0
0.031086778410926393 -0.013154456462362383 0.0 0.014343079772175301 0.0 0.0
0.025410920516680754 -0.010508849678388766 0.0 0.012896250838960097 0.0 0.0
0.019477658942651417 -0.008039650714011153 0.0 0.010070238068430121 0.0 0.0
0.011022821592684464 -0.0025755734714643314 0.0 0.007332244035705624 0.0 0.0
0.011229123388497884 -0.0002729207143692797 0.0 0.024097762342749986 0.0 0.0
0.016676646663690755 -0.07936894381331919 0.0 0.03086960796149996 0.0 0.0
0.014075454312574419 -0.06751500145983211 0.0 -0.0315741272322408 0.0 0.0
0.008564770446798847 -0.004229746204083422 0.0 -0.028495158262602988 0.0 0.0
0.007258101638713673 -0.00042999088212746536 0.0 -0.013893384571345804 0.0 0.0
0.015024217577850316 -0.005685189962100514 0.0 -0.013741630049201557 0.0 0.0
0.02123206502008155 -0.008648783461807462 0.0 -0.016668031344128684 0.0 0.0
0.02649045847965077 -0.011114340889974613 0.0 -0.01827911046371731 0.0 0.0
0.03173630709697627 -0.013514348341837177 0.0 -0.019083622874228448 0.0 0.0
0.03700814618148419 -0.01583469861273251 0.0 -0.019402171904966608 0.0 0.0
0.042289727443327096 -0.018121763751720595 0.0 -0.019495156272389007 0.0 0.0
0.04757626166571691 -0.020393683455600674 0.0 -0.019505065485013035 0.0 0.0
0.05286332694640035 -0.02265947879432156 0.0 -0.01949328955982403 0.0 0.0
0.05815015886365392 -0.02492230867195165 0.0 -0.01948747021206456 0.0 0.0
0.06343715615014082 -0.02718016537769952 0.0 -0.019509927709013282 0.0 0.0
0.06872612991555264 -0.029427278544468187 0.0 -0.019599809165910666 0.0 0.0
0.07402350234975914 -0.03165853517620719 0.0 -0.019820646857389296 0.0 0.0
0.07934769229346517 -0.033887605575983366 0.0 -0.0202210709323814 0.0 0.0
0.08473020035617707 -0.03618644029264153 0.0 -0.020669023643795543 0.0 0.0
0.09016205837918162 -0.03871701544764437 0.0 -0.020483410973545793 0.0 0.0
0.09538910096272048 -0.04162716264536784 0.0 -0.018037417769421926 0.0 0.0
0.0995513548480566 -0.044573779026194284 0.0 -0.011221178905684586 0.0 0.0
0.10120806706165457 -0.04606454150790404 0.0 3.0747973611688906e-16 0.0 0.0
0.09955135484805648 -0.04457377902619338 0.0 0.011221178905684734 0.0 0.0
0.0953891009627205 -0.04162716264537335 0.0 0.018037417769423653 0.0 0.0
0.09016205837918206 -0.03871701544764227 0.0 0.020483410973544988 0.0 0.0
0.08473020035617679 -0.03618644029264868 0.0 0.020669023643796886 0.0 0.0
0.07934769229346483 -0.03388760557598352 0.0 0.02022107093238181 0.0 0.0
0.07402350234975925 -0.03165853517621635 0.0 0.019820646857387388 0.0 0.0
0.06872612991555246 -0.02942727854446687 0.0 0.019599809165910333 0.0 0.0
0.06343715615014062 -0.027180165377702317 0.0 0.019509927709012116 0.0 0.0
0.05815015886365334 -0.024922308671953074 0.0 0.01948747021206444 0.0 0.0
0.05286332694640004 -0.022659478794321678 0.0 0.019493289559823674 0.0 0.0
0.04757626166571708 -0.02039368345560158 0.0 0.019505065485014426 0.0 0.0
0.04228972744332694 -0.018121763751717618 0.0 0.019495156272388636 0.0 0.0
0.03700814618148402 -0.015834698612733834 0.0 0.019402171904966285 0.0 0.0
0.03173630709697624 -0.013514348341837665 0.0 0.019083622874228896 0.0 0.0
0.0264904584796507 -0.011114340889971607 0.0 0.018279110463720067 0.0 0.0
0.02123206502008154 -0.008648783461808985 0.0 0.016668031344125287 0.0 0.0
0.015024217577850184 -0.005685189962101322 0.0 0.01374163004920205 0.0 0.0
0.007258101638713466 -0.0004299908821284496 0.0 0.013893384571345216 0.0 0.0
0.008564770446799003 -0.0042297462040844554 0.0 0.028495158262602883 0.0 0.0
0.014075454312574944 -0.06751500145983204 0.0 0.03157412723224141 0.0 0.0
0.012231506818972726 -0.057262719245664895 0.0 -0.030122878708988512 0.0 0.0
0.006922433384122659 -0.007100644484079009 0.0 -0.031094029841661597 0.0 0.0
0.004596337306302692 0.0005203152593388858 0.0 -0.02024116704958672 0.0 0.0
0.011035545550415917 -0.003557326580004459 0.0 -0.01784583655908626 0.0 0.0
0.017034007137414726 -0.006716900168292713 0.0 -0.020092456194588198 0.0 0.0
0.021863136686295324 -0.00906780734333921 0.0 -0.021705796802028155 0.0 0.0
0.02638545652301641 -0.011189774586527819 0.0 -0.022515295872924494 0.0 0.0
0.030832659490106495 -0.013179981701019871 0.0 -0.02285138949701469 0.0 0.0
0.0352484010374213 -0.015103073971650942 0.0 -0.022952786798669144 0.0 0.0
0.039654462892183634 -0.01699973135905337 0.0 -0.022965622839316198 0.0 0.0
0.04405848151240489 -0.018887127505064036 0.0 -0.022955047400450523 0.0 0.0
0.04846185417974937 -0.02077038454322351 0.0 -0.0229500670117697 0.0 0.0
0.05286203394698744 -0.022645677007781907 0.0 -0.022974142075644913 0.0 0.0
0.05725235482321599 -0.024501563798588588 0.0 -0.023066998798279625 0.0 0.0
0.061624908356407535 -0.02632407369211984 0.0 -0.023293175343001012 0.0 0.0
0.06598582998196738 -0.028122431397223688 0.0 -0.02370440604051708 0.0 0.0
0.0703854169007517 -0.02999498266968475 0.0 -0.024167414857058405 0.0 0.0
0.07491253284913449 -0.032206531182087356 0.0 -0.023947762160593345 0.0 0.0
0.07949485718002594 -0.035092661294460606 0.0 -0.021188603582666225 0.0 0.0
0.08338800533530288 -0.038402376915385165 0.0 -0.013295184897177192 0.0 0.0
0.08500632372455065 -0.04023169167460772 0.0 2.862293735361732e-17 0.0 0.0
0.08338800533530306 -0.03840237691538384 0.0 0.013295184897176692 0.0 0.0
0.07949485718002612 -0.0350926612944621 0.0 0.021188603582666547 0.0 0.0
0.07491253284913506 -0.03220653118209266 0.0 0.023947762160591496 0.0 0.0
0.07038541690075126 -0.029994982669683062 0.0 0.02416741485705972 0.0 0.0
0.06598582998196721 -0.028122431397223292 0.0 0.02370440604051943 0.0 0.0
0.061624908356407826 -0.02632407369212716 0.0 0.023293175343000475 0.0 0.0
0.05725235482321575 -0.024501563798587336 0.0 0.023066998798279798 0.0 0.0
0.05286203394698745 -0.022645677007781702 0.0 0.022974142075644362 0.0 0.0
0.04846185417974924 -0.02077038454322062 0.0 0.02295006701177012 0.0 0.0
0.044058481512405025 -0.01888712750506536 0.0 0.022955047400451664 0.0 0.0
0.03965446289218369 -0.01699973135905782 0.0 0.022965622839317804 0.0 0.0
0.03524840103742102 -0.01510307397165013 0.0 0.02295278679866901 0.0 0.0
0.030832659490106433 -0.01317998170101981 0.0 0.02285138949701476 0.0 0.0
0.026385456523016357 -0.011189774586528384 0.0 0.022515295872925056 0.0 0.0
0.021863136686295383 -0.009067807343340674 0.0 0.02170579680203051 0.0 0.0
0.017034007137414823 -0.006716900168291823 0.0 0.02009245619458634 0.0 0.0
0.01103554555041596 -0.0035573265800060653 0.0 0.017845836559086198 0.0 0.0
0.004596337306302994 0.0005203152593377729 0.0 0.020241167049587092 0.0 0.0
0.006922433384122725 -0.007100644484079228 0.0 0.0310940298416615 0.0 0.0
0.012231506818972322 -0.05726271924566524 0.0 0.03012287870898818 0.0 0.0
0.010720659073358433 -0.04838166357119925 0.0 -0.027928350931961027 0.0 0.0
0.00576824994737181 -0.008894052020911553 0.0 -0.03234867018731979 0.0 0.0
0.0026503682243375626 0.0007964669463962443 0.0 -0.025600785389766272 0.0 0.0
0.007530731036101577 -0.0017797711281830127 0.0 -0.021956572587698748 0.0 0.0
0.012921566648115529 -0.004798075696659446 0.0 -0.023210141311861183 0.0 0.0
0.017229367769220145 -0.007018457745026314 0.0 -0.024612694612666564 0.0 0.0
0.021029339375492017 -0.008864552475038513 0.0 -0.025362250008501026 0.0 0.0
0.024652299029179318 -0.01052216371362064 0.0 -0.025680647102566376 0.0 0.0
0.028204233618204445 -0.012083104018773445 0.0 -0.025780747499623308 0.0 0.0
0.03173141170145331 -0.013605125104261108 0.0 -0.025795019619452624 0.0 0.0
0.0352528967803676 -0.015114385800499609 0.0 -0.02578634094204187 0.0 0.0
0.03877275395835929 -0.016618060845244476 0.0 -0.02578248629298067 0.0 0.0
0.04228582382679493 -0.018110685848814215 0.0 -0.025805604239939436 0.0 0.0
0.0457777585972637 -0.019575639974967196 0.0 -0.0258923034482817 0.0 0.0
0.049227722798408785 -0.020990723431046618 0.0 -0.026102878534586635 0.0 0.0
0.05263175856535522 -0.02236092672434834 0.0 -0.026491758435927836 0.0 0.0
0.05606389519111245 -0.023811791958430837 0.0 -0.02694744034154021 0.0 0.0
0.0597242603752616 -0.025720016201762723 0.0 -0.026747814293402724 0.0 0.0
0.06374495406549413 -0.02863970312429448 0.0 -0.023877914541682317 0.0 0.0
0.0674916258784407 -0.03245021850989121 0.0 -0.015195437521832668 0.0 0.0
0.06913817358600033 -0.03474858519868813 0.0 -5.542441505745899e-16 0.0 0.0
0.06749162587844126 -0.03245021850989437 0.0 0.015195437521834033 0.0 0.0
0.06374495406549431 -0.028639703124295923 0.0 0.02387791454168346 0.0 0.0
0.05972426037526167 -0.02572001620176608 0.0 0.026747814293403963 0.0 0.0
0.05606389519111217 -0.023811791958428544 0.0 0.026947440341540264 0.0 0.0
0.05263175856535491 -0.022360926724350517 0.0 0.026491758435929443 0.0 0.0
0.049227722798408556 -0.020990723431041365 0.0 0.02610287853458681 0.0 0.0
0.045777758597263574 -0.01957563997496514 0.0 0.02589230344828354 0.0 0.0
0.04228582382679492 -0.018110685848812324 0.0 0.02580560423993667 0.0 0.0
0.038772753958359156 -0.016618060845241082 0.0 0.025782486292979225 0.0 0.0
0.035252896780367686 -0.015114385800502419 0.0 0.025786340942042695 0.0 0.0
0.0317314117014533 -0.013605125104262825 0.0 0.025795019619452506 0.0 0.0
0.0282042336182044 -0.012083104018772961 0.0 0.025780747499625042 0.0 0.0
0.024652299029179203 -0.01052216371362064 0.0 0.025680647102565984 0.0 0.0
0.021029339375491698 -0.008864552475038827 0.0 0.025362250008501407 0.0 0.0
0.017229367769219944 -0.007018457745026002 0.0 0.024612694612667886 0.0 0.0
0.01292156664811558 -0.0047980756966565065 0.0 0.0232101413118624 0.0 0.0
0.007530731036101433 -0.0017797711281840407 0.0 0.021956572587698644 0.0 0.0
0.0026503682243375626 0.0007964669463959084 0.0 0.02560078538976666 0.0 0.0
0.005768249947371855 -0.008894052020910793 0.0 0.032348670187319094 0.0 0.0
0.010720659073358165 -0.048381663571199315 0.0 0.027928350931958747 0.0 0.0
0.009354362239026824 -0.040645747048885086 0.0 -0.02558643166045347 0.0 0.0
0.004826251076265483 -0.009773666869864334 0.0 -0.03263439606571781 0.0 0.0
0.0011432609872656318 0.0007581011645522091 0.0 -0.02972855514043249 0.0 0.0
0.004450617287565742 -0.00034183387901013626 0.0 -0.025699672760683696 0.0 0.0
0.008954662042448429 -0.0029580062676261036 0.0 -0.02597047462237769 0.0 0.0
0.012617971519676254 -0.004980706782767135 0.0 -0.02699658692789922 0.0 0.0
0.015675532515168043 -0.006544081990454578 0.0 -0.02762029890824434 0.0 0.0
0.018470378465023224 -0.007864153409818058 0.0 -0.027891923617994963 0.0 0.0
0.021157892325869884 -0.00906210470436069 0.0 -0.027979973737259013 0.0 0.0
0.023806922448898028 -0.010209750159140479 0.0 -0.027993793584012872 0.0 0.0
0.026446353943440755 -0.011341069459643242 0.0 -0.027987303890828402 0.0 0.0
0.029082918280732534 -0.012465365412694645 0.0 -0.027984564815418167 0.0 0.0
0.03170938551476965 -0.01357581144272323 0.0 -0.02800422105817789 0.0 0.0
0.03430496755800725 -0.014651461737656121 0.0 -0.02807655075708536 0.0 0.0
0.03683755465726118 -0.015662857466519933 0.0 -0.028253010833243174 0.0 0.0
0.03929349070061052 -0.01660972955692173 0.0 -0.02859019846297645 0.0 0.0
0.04176924528198757 -0.01764005170602326 0.0 -0.029021533101840448 0.0 0.0
0.044581782684840664 -0.019242762451169192 0.0 -0.028908493654381525 0.0 0.0
0.048094562321250284 -0.022224127048475276 0.0 -0.02615828506136995 0.0 0.0
0.05180001329061596 -0.026666486732538977 0.0 -0.016991358876682544 0.0 0.0
0.05353936520652237 -0.02959632722945494 0.0 -8.018759267702791e-16 0.0 0.0
0.051800013290616786 -0.026666486732541638 0.0 0.016991358876683262 0.0 0.0
0.04809456232125055 -0.022224127048478027 0.0 0.026158285061371786 0.0 0.0
0.044581782684840476 -0.01924276245116327 0.0 0.02890849365438212 0.0 0.0
0.04176924528198726 -0.017640051706024396 0.0 0.029021533101841815 0.0 0.0
0.03929349070061061 -0.01660972955692458 0.0 0.02859019846297922 0.0 0.0
0.03683755465726143 -0.015662857466522215 0.0 0.028253010833239854 0.0 0.0
0.034304967558007306 -0.014651461737655695 0.0 0.028076550757085983 0.0 0.0
0.031709385514769796 -0.013575811442724888 0.0 0.02800422105817857 0.0 0.0
0.029082918280733193 -0.012465365412693127 0.0 0.027984564815416224 0.0 0.0
0.026446353943440797 -0.011341069459644882 0.0 0.02798730389082761 0.0 0.0
0.023806922448897833 -0.010209750159137707 0.0 0.027993793584013243 0.0 0.0
0.021157892325869978 -0.009062104704363664 0.0 0.027979973737258745 0.0 0.0
0.018470378465023106 -0.007864153409816693 0.0 0.027891923617994252 0.0 0.0
0.015675532515167834 -0.006544081990452808 0.0 0.027620298908244828 0.0 0.0
0.01261797151967628 -0.004980706782768463 0.0 0.026996586927900884 0.0 0.0
0.008954662042448587 -0.0029580062676240154 0.0 0.025970474622378562 0.0 0.0
0.004450617287565924 -0.00034183387901026913 0.0 0.02569967276068288 0.0 0.0
0.0011432609872657831 0.0007581011645526315 0.0 0.02972855514043333 0.0 0.0
0.0048262510762653015 -0.009773666869863916 0.0 0.03263439606571771 0.0 0.0
0.009354362239026538 -0.04064574704888496 0.0 0.025586431660453417 0.0 0.0
0.008052093770718647 -0.03385900540080484 0.0 -0.023324435800633314 0.0 0.0
0.003957079551089992 -0.009935711389904048 0.0 -0.032215838377743784 0.0 0.0
-0.00011244061188302748 0.0006313001587420672 0.0 -0.032615949737152164 0.0 0.0
0.0017116473794648957 0.0008198128178903624 0.0 -0.028819070294875744 0.0 0.0
0.005156325678538926 -0.0012312160178595594 0.0 -0.028280872288962748 0.0 0.0
0.00805309461639109 -0.0029718827407746932 0.0 -0.028843714893084807 0.0 0.0
0.010331940328064752 -0.004233037872145195 0.0 -0.02928345504638416 0.0 0.0
0.0122896093649347 -0.005208270438807718 0.0 -0.029484459263516713 0.0 0.0
0.014110126277026652 -0.006040566022308994 0.0 -0.029551082997807884 0.0 0.0
0.01588091774613938 -0.0068135152275189195 0.0 -0.02956235635181194 0.0 0.0
0.01763869849125945 -0.007567057560674327 0.0 -0.029558132046100027 0.0 0.0
0.019392433641822054 -0.008312350019545878 0.0 -0.029556354730391546 0.0 0.0
0.021133461560529667 -0.009041598671454452 0.0 -0.029570419906423395 0.0 0.0
0.02283617987827695 -0.009730660576313863 0.0 -0.029621756956197752 0.0 0.0
0.024459197565217056 -0.010344187125073153 0.0 -0.029749000596726076 0.0 0.0
0.025978116819111982 -0.01087480722937934 0.0 -0.030008785951435267 0.0 0.0
0.027504282923120175 -0.011482636379773932 0.0 -0.03039862793165174 0.0 0.0
0.029468266114780123 -0.012758933006904291 0.0 -0.030438740983591422 0.0 0.0
0.03249700722862159 -0.015797552121118764 0.0 -0.02805999462041747 0.0 0.0
0.03625367963424336 -0.020999111897941243 0.0 -0.018744611643172124 0.0 0.0
0.038152756840800224 -0.024773245461895972 0.0 6.700369425960417e-16 0.0 0.0
0.03625367963424405 -0.020999111897941077 0.0 0.018744611643172055 0.0 0.0
0.03249700722862202 -0.015797552121120995 0.0 0.028059994620420067 0.0 0.0
0.029468266114780053 -0.012758933006893533 0.0 0.030438740983590146 0.0 0.0
0.027504282923120384 -0.01148263637977376 0.0 0.03039862793164938 0.0 0.0
0.025978116819112024 -0.01087480722937493 0.0 0.03000878595143555 0.0 0.0
0.024459197565216927 -0.010344187125075482 0.0 0.029749000596726423 0.0 0.0
0.022836179878276967 -0.009730660576314389 0.0 0.029621756956197287 0.0 0.0
0.021133461560529594 -0.009041598671453885 0.0 0.02957041990642386 0.0 0.0
0.01939243364182219 -0.008312350019547617 0.0 0.02955635473039038 0.0 0.0
0.01763869849125938 -0.007567057560672949 0.0 0.029558132046097627 0.0 0.0
0.015880917746139336 -0.006813515227519809 0.0 0.029562356351811446 0.0 0.0
0.01411012627702663 -0.006040566022313279 0.0 0.029551082997806698 0.0 0.0
0.012289609364934412 -0.005208270438808141 0.0 0.02948445926351778 0.0 0.0
0.010331940328064948 -0.0042330378721441705 0.0 0.029283455046382474 0.0 0.0
0.008053094616391478 -0.0029718827407779667 0.0 0.028843714893085452 0.0 0.0
0.00515632567853878 -0.0012312160178612817 0.0 0.02828087228896191 0.0 0.0
0.0017116473794647111 0.0008198128178916013 0.0 0.028819070294875362 0.0 0.0
-0.00011244061188302896 0.0006313001587427011 0.0 0.03261594973715175 0.0 0.0
0.003957079551089789 -0.00993571138990394 0.0 0.032215838377743285 0.0 0.0
0.008052093770718263 -0.03385900540080472 0.0 0.023324435800634945 0.0 0.0
0.0067842150162806345 -0.027864942580547995 0.0 -0.021202141005686743 0.0 0.0
0.0030948193591792323 -0.009562343852691889 0.0 -0.03126535104199448 0.0 0.0
-0.001238650483108767 0.0005468672290816212 0.0 -0.03434743504523929 0.0 0.0
-0.0007687835142997851 0.0017799695836742545 0.0 -0.031163385221520172 0.0 0.0
0.001525059322338097 0.0003730973542176218 0.0 -0.03004387844443176 0.0 0.0
0.003550473695567617 -0.0010059465616339695 0.0 -0.030127977246426983 0.0 0.0
0.005005657224128945 -0.0019359076064230409 0.0 -0.03034365525654785 0.0 0.0
0.0061121992075068915 -0.002556165952163405 0.0 -0.03045585239862817 0.0 0.0
0.007061561349052311 -0.0030189723393507354 0.0 -0.03049413394649203 0.0 0.0
0.007953394260658482 -0.0034163839452340844 0.0 -0.03050106366834976 0.0 0.0
0.00882982952495097 -0.0037922670456748088 0.0 -0.03049905808396393 0.0 0.0
0.009701381308071775 -0.004159069692576154 0.0 -0.03049808364081228 0.0 0.0
0.010558609817471032 -0.004508465792293725 0.0 -0.030505037886828422 0.0 0.0
0.011373014412279683 -0.004814423813966182 0.0 -0.03053083574621783 0.0 0.0
0.012096441719698444 -0.005037555469601969 0.0 -0.030598097126625437 0.0 0.0
0.01269205785444697 -0.005161545159936252 0.0 -0.030758784980714313 0.0 0.0
0.013272528938487347 -0.005343471078053296 0.0 -0.031085061638128297 0.0 0.0
0.014367727610085698 -0.006254069673594604 0.0 -0.03133132923766965 0.0 0.0
0.016903963407094897 -0.009307400825475544 0.0 -0.029589439545246142 0.0 0.0
0.020793558498027626 -0.015390309465578091 0.0 -0.020512496495279905 0.0 0.0
0.022925468726541262 -0.02029668971873418 0.0 7.840950111415168e-16 0.0 0.0
0.020793558498027984 -0.01539030946557655 0.0 0.02051249649528067 0.0 0.0
0.016903963407094966 -0.009307400825480561 0.0 0.029589439545248328 0.0 0.0
0.014367727610085312 -0.006254069673592319 0.0 0.03133132923766906 0.0 0.0
0.013272528938487176 -0.005343471078046792 0.0 0.0310850616381272 0.0 0.0
0.012692057854446933 -0.0051615451599312055 0.0 0.03075878498071495 0.0 0.0
0.012096441719698366 -0.005037555469602966 0.0 0.03059809712662731 0.0 0.0
0.011373014412279368 -0.004814423813964341 0.0 0.030530835746215935 0.0 0.0
0.010558609817470883 -0.004508465792291904 0.0 0.030505037886828776 0.0 0.0
0.009701381308071844 -0.004159069692577854 0.0 0.030498083640813557 0.0 0.0
0.00882982952495095 -0.0037922670456734557 0.0 0.030499058083964962 0.0 0.0
0.007953394260658627 -0.003416383945235601 0.0 0.03050106366834974 0.0 0.0
0.007061561349052143 -0.003018972339350529 0.0 0.030494133946490525 0.0 0.0
0.006112199207506491 -0.0025561659521644454 0.0 0.030455852398630218 0.0 0.0
0.005005657224128922 -0.001935907606425475 0.0 0.030343655256547766 0.0 0.0
0.003550473695567601 -0.001005946561634381 0.0 0.030127977246427018 0.0 0.0
0.0015250593223379246 0.00037309735421543354 0.0 0.030043878444430273 0.0 0.0
-0.0007687835142998323 0.0017799695836742046 0.0 0.03116338522151988 0.0 0.0
-0.0012386504831087535 0.0005468672290824294 0.0 0.03434743504523826 0.0 0.0
0.003094819359179091 -0.00956234385269206 0.0 0.03126535104199438 0.0 0.0
0.006784215016280339 -0.02786494258054794 0.0 0.02120214100568624 0.0 0.0
0.005545440960338814 -0.02254688248965498 0.0 -0.0192054571359947 0.0 0.0
0.002213308003290068 -0.008807211461524866 0.0 -0.029888675804071667 0.0 0.0
-0.0023113874607344985 0.0005722846371217691 0.0 -0.035034077769128855 0.0 0.0
-0.0030618660210798196 0.0026064396456760594 0.0 -0.032656341120071444 0.0 0.0
-0.0019546281506054967 0.001861949088683919 0.0 -0.031175181727112262 0.0 0.0
-0.0008828734092896808 0.0009091189651337357 0.0 -0.030815775625155098 0.0 0.0
-0.00029823669139643144 0.00034369873884765133 0.0 -0.030790242668491147 0.0 0.0
-6.022769637503765e-05 9.107470668359862e-05 0.0 -0.030802770971033122 0.0 0.0
1.2618821686268228e-05 2.344787515401296e-06 0.0 -0.030808724591753482 0.0 0.0
2.437467005710959e-05 -1.8357664358041874e-05 0.0 -0.030810208884013937 0.0 0.0
1.9691115162127405e-05 -1.664759497884002e-05 0.0 -0.030810347002393698 0.0 0.0
9.814901701960194e-06 -5.561903010132879e-06 0.0 -0.03081009905485701 0.0 0.0
-1.4839287742531623e-05 2.3328039741593728e-05 0.0 -0.030809192598047742 0.0 0.0
-8.360145087453496e-05 9.65795963416878e-05 0.0 -0.0308072589670741 0.0 0.0
-0.000248161750058679 0.00025528716631039437 0.0 -0.030808905377271774 0.0 0.0
-0.0005588867925784477 0.0005253889181813067 0.0 -0.030854140636962374 0.0 0.0
-0.0009203624558440245 0.0007712446291094406 0.0 -0.031086748007619888 0.0 0.0
-0.0007323813130035678 0.00028188994970181286 0.0 -0.03156339566820454 0.0 0.0
0.0012657834828864738 -0.002697250725939155 0.0 -0.030725262580709796 0.0 0.0
0.005358510830325452 -0.009770586544363802 0.0 -0.022349421176156563 0.0 0.0
0.007805947237301865 -0.016206828201055012 0.0 -1.3791051634015616e-16 0.0 0.0
0.005358510830325653 -0.009770586544367396 0.0 0.022349421176155716 0.0 0.0
0.001265783482886292 -0.002697250725943315 0.0 0.030725262580710844 0.0 0.0
-0.0007323813130038471 0.0002818899496992459 0.0 0.031563395668204916 0.0 0.0
-0.0009203624558437875 0.0007712446291158909 0.0 0.031086748007619895 0.0 0.0
-0.0005588867925779718 0.0005253889181788523 0.0 0.03085414063696055 0.0 0.0
-0.00024816175005881996 0.00025528716631223616 0.0 0.0308089053772716 0.0 0.0
-8.360145087478346e-05 9.657959634027421e-05 0.0 0.030807258967074973 0.0 0.0
-1.4839287742525334e-05 2.3328039742894608e-05 0.0 0.03080919259804879 0.0 0.0
9.814901702026113e-06 -5.561903017011979e-06 0.0 0.030810099054857987 0.0 0.0
1.9691115162349666e-05 -1.6647594975969322e-05 0.0 0.030810347002395107 0.0 0.0
2.4374670057107314e-05 -1.835766435539382e-05 0.0 0.030810208884014152 0.0 0.0
1.2618821686441483e-05 2.3447875143507583e-06 0.0 0.03080872459175335 0.0 0.0
-6.022769637495525e-05 9.107470668370135e-05 0.0 0.03080277097103328 0.0 0.0
-0.00029823669139663505 0.00034369873884566843 0.0 0.03079024266849118 0.0 0.0
-0.0008828734092896064 0.0009091189651339907 0.0 0.030815775625154827 0.0 0.0
-0.001954628150605325 0.0018619490886817368 0.0 0.03117518172711195 0.0 0.0
-0.0030618660210798613 0.0026064396456754787 0.0 0.0326563411200717 0.0 0.0
-0.0023113874607345614 0.000572284637122442 0.0 0.03503407776912873 0.0 0.0
0.002213308003290223 -0.00880721146152542 0.0 0.029888675804071896 0.0 0.0
0.0055454409603391585 -0.02254688248965502 0.0 0.019205457135993424 0.0 0.0
0.004342333203811325 -0.01782430483820148 0.0 -0.017291068087183156 0.0 0.0
0.0013080412191481304 -0.007794124503147235 0.0 -0.028146837494212908 0.0 0.0
-0.0033750715729192002 0.0007347323338526327 0.0 -0.03478432431406911 0.0 0.0
-0.005224215318854135 0.0033532360259027035 0.0 -0.033269626543778394 0.0 0.0
-0.005304788681630394 0.0032509109397781447 0.0 -0.031609015483923066 0.0 0.0
-0.005247374721703972 0.002771492217129419 0.0 -0.030871500533631607 0.0 0.0
-0.005577402075003884 0.0026038286838426404 0.0 -0.030610499604924055 0.0 0.0
-0.006226818630310726 0.0027329366215148873 0.0 -0.030521349468399003 0.0 0.0
-0.007036515460599446 0.003023252029400271 0.0 -0.030494209672811218 0.0 0.0
-0.007906123033525992 0.003380552243461373 0.0 -0.030490033590255892 0.0 0.0
-0.008791736339086427 0.003759819483442335 0.0 -0.030492282886831208 0.0 0.0
-0.009682253325044179 0.00414816722022806 0.0 -0.030492805548204237 0.0 0.0
-0.010586799618262253 0.004553701057736271 0.0 -0.030484145585916382 0.0 0.0
-0.011533486304141673 0.005002211310754599 0.0 -0.030454707002001126 0.0 0.0
-0.012573582765831103 0.005533893748836736 0.0 -0.03039072307994939 0.0 0.0
-0.013769841117592618 0.006182538636557903 0.0 -0.030311927723769616 0.0 0.0
-0.015065386521098161 0.006852195017344683 0.0 -0.03041285250877296 0.0 0.0
-0.01583788223085427 0.006850727697297792 0.0 -0.03109853061425767 0.0 0.0
-0.014467589272538526 0.004091696269535494 0.0 -0.03141127663117365 0.0 0.0
-0.010117594291487113 -0.0040502631453028315 0.0 -0.02430570309286023 0.0 0.0
-0.007259684098605359 -0.012572722184353218 0.0 -1.3825746103535153e-15 0.0 0.0
-0.010117594291486641 -0.004050263145304044 0.0 0.024305703092860176 0.0 0.0
-0.01446758927253856 0.004091696269535451 0.0 0.03141127663117464 0.0 0.0
-0.015837882230854534 0.006850727697300078 0.0 0.03109853061425988 0.0 0.0
-0.015065386521098206 0.006852195017341488 0.0 0.03041285250877406 0.0 0.0
-0.013769841117592524 0.006182538636557459 0.0 0.03031192772376924 0.0 0.0
-0.012573582765831023 0.005533893748839954 0.0 0.03039072307994805 0.0 0.0
-0.01153348630414151 0.005002211310750977 0.0 0.030454707002001126 0.0 0.0
-0.010586799618262177 0.004553701057739613 0.0 0.03048414558591655 0.0 0.0
-0.009682253325044273 0.004148167220222778 0.0 0.030492805548203696 0.0 0.0
-0.008791736339086524 0.0037598194834463595 0.0 0.030492282886832714 0.0 0.0
-0.007906123033525902 0.003380552243463392 0.0 0.03049003359025588 0.0 0.0
-0.0070365154605995135 0.003023252029399619 0.0 0.030494209672810114 0.0 0.0
-0.006226818630310984 0.0027329366215181317 0.0 0.030521349468398566 0.0 0.0
-0.005577402075003829 0.0026038286838439622 0.0 0.03061049960492524 0.0 0.0
-0.005247374721703825 0.0027714922171290343 0.0 0.03087150053363013 0.0 0.0
-0.005304788681630413 0.003250910939775967 0.0 0.03160901548392276 0.0 0.0
-0.005224215318854271 0.0033532360259018504 0.0 0.03326962654377834 0.0 0.0
-0.003375071572919058 0.0007347323338528211 0.0 0.03478432431406918 0.0 0.0
0.0013080412191480975 -0.007794124503147782 0.0 0.02814683749421271 0.0 0.0
0.004342333203810993 -0.01782430483820139 0.0 0.017291068087182275 0.0 0.0
0.0031875303307842334 -0.013647877405806898 0.0 -0.015408106927762233 0.0 0.0
0.00038665159297313534 -0.006620589156301084 0.0 -0.026072728892084673 0.0 0.0
-0.004452179109894949 0.0010363667191044255 0.0 -0.03369262293023257 0.0 0.0
-0.00729800562755582 0.0040593623668271 0.0 -0.03300208830858094 0.0 0.0
-0.008549407795898554 0.004558911611929161 0.0 -0.031297011816155504 0.0 0.0
-0.009549223038572321 0.0045846097945205 0.0 -0.030261557413318138 0.0 0.0
-0.010832463181405868 0.004844637416178104 0.0 -0.02979092070777447 0.0 0.0
-0.012387660845133312 0.005369549010663118 0.0 -0.02960756123867532 0.0 0.0
-0.014085904444740633 0.006043813067466123 0.0 -0.02954991365197273 0.0 0.0
-0.015838094933436096 0.0067803387234751135 0.0 -0.02954076600718515 0.0 0.0
-0.017604439758381957 0.007537121130293558 0.0 -0.029545152088262965 0.0 0.0
-0.01937485867109913 0.008302146939629272 0.0 -0.02954659469918107 0.0 0.0
-0.02115742644135317 0.009082761819748968 0.0 -0.029531158456338295 0.0 0.0
-0.022977179082489266 0.009902809951556736 0.0 -0.029476772595606805 0.0 0.0
-0.024880588833166663 0.010799225762254049 0.0 -0.029352649876010013 0.0 0.0
-0.026937662365455084 0.011808610700120957 0.0 -0.02915222771006583 0.0 0.0
-0.029149494192075937 0.012886969323098976 0.0 -0.029081069902555438 0.0 0.0
-0.03094347919925871 0.013440871667887908 0.0 -0.029892195803445085 0.0 0.0
-0.03034437393559277 0.011116656096801722 0.0 -0.03154556555600904 0.0 0.0
-0.025709478482990124 0.0018928562175626828 0.0 -0.02642160826344174 0.0 0.0
-0.02233295625179642 -0.009501006809800705 0.0 -8.690964614643804e-16 0.0 0.0
-0.025709478482990007 0.0018928562175673724 0.0 0.02642160826344158 0.0 0.0
-0.030344373935592923 0.01111665609680313 0.0 0.03154556555600904 0.0 0.0
-0.030943479199258585 0.013440871667890073 0.0 0.02989219580344457 0.0 0.0
-0.029149494192075513 0.012886969323092327 0.0 0.029081069902556385 0.0 0.0
-0.02693766236545482 0.011808610700121467 0.0 0.02915222771006646 0.0 0.0
-0.02488058883316699 0.0107992257622535 0.0 0.02935264987601039 0.0 0.0
-0.022977179082489196 0.009902809951557325 0.0 0.029476772595607832 0.0 0.0
-0.02115742644135319 0.009082761819748887 0.0 0.029531158456338018 0.0 0.0
-0.019374858671099247 0.008302146939628986 0.0 0.029546594699180577 0.0 0.0
-0.017604439758381663 0.0075371211302919 0.0 0.029545152088263554 0.0 0.0
-0.015838094933436197 0.006780338723475681 0.0 0.02954076600718454 0.0 0.0
-0.014085904444740949 0.006043813067466383 0.0 0.029549913651970815 0.0 0.0
-0.012387660845133389 0.005369549010668758 0.0 0.02960756123867632 0.0 0.0
-0.010832463181405873 0.004844637416178937 0.0 0.029790920707774157 0.0 0.0
-0.009549223038572469 0.004584609794521004 0.0 0.030261557413317264 0.0 0.0
-0.00854940779589855 0.004558911611930101 0.0 0.03129701181615467 0.0 0.0
-0.0072980056275558005 0.004059362366826342 0.0 0.03300208830858054 0.0 0.0
-0.004452179109894819 0.0010363667191038346 0.0 0.03369262293023338 0.0 0.0
0.0003866515929731421 -0.006620589156300758 0.0 0.02607272889208341 0.0 0.0
0.0031875303307839797 -0.013647877405806965 0.0 0.015408106927762653 0.0 0.0
0.0020974151804765495 -0.009994427091249458 0.0 -0.013509328945390642 0.0 0.0
-0.0005356482544006013 -0.005362752648126617 0.0 -0.023683386500431607 0.0 0.0
-0.005549237527470775 0.0014636802310741387 0.0 -0.0318360332880109 0.0 0.0
-0.009312399334279412 0.004750009709085639 0.0 -0.031864591560495883 0.0 0.0
-0.011711941531645783 0.005805285943746094 0.0 -0.03020433332870072 0.0 0.0
-0.013798884389858223 0.006356023224716589 0.0 -0.028956764106277143 0.0 0.0
-0.0160668700940999 0.007068470476559813 0.0 -0.0283187172530223 0.0 0.0
-0.018543849924459545 0.008001737200571164 0.0 -0.028057676507061726 0.0 0.0
-0.02113585549091359 0.009064268407966519 0.0 -0.027975318328692076 0.0 0.0
-0.023771544293798956 0.010180996706120935 0.0 -0.02796266759463498 0.0 0.0
-0.0264183689659273 0.011315210307963603 0.0 -0.027969228822552514 0.0 0.0
-0.0290680799708758 0.012456431241866368 0.0 -0.027971778337798254 0.0 0.0
-0.03172710799484812 0.013610824140414698 0.0 -0.027951319816835643 0.0 0.0
-0.034415824382879386 0.01479910576693573 0.0 -0.027876777025161018 0.0 0.0
-0.03717188239859107 0.016053491057961607 0.0 -0.027702630527620703 0.0 0.0
-0.04006237579711495 0.017405829545308133 0.0 -0.027396585104717687 0.0 0.0
-0.0431560552451981 0.018861830693008334 0.0 -0.027123984060234804 0.0 0.0
-0.04602691359792588 0.020021081889676794 0.0 -0.027903817754908262 0.0 0.0
-0.04640599370855319 0.01842427564568732 0.0 -0.030965648424459105 0.0 0.0
-0.041504983264839715 0.00823155357513326 0.0 -0.028711805944741525 0.0 0.0
-0.03749179568684557 -0.007147187207695533 0.0 7.042977312465837e-16 0.0 0.0
-0.04150498326483954 0.008231553575137466 0.0 0.028711805944740994 0.0 0.0
-0.046405993708553674 0.018424275645690307 0.0 0.030965648424457863 0.0 0.0
-0.046026913597925906 0.020021081889672727 0.0 0.027903817754907842 0.0 0.0
-0.04315605524519761 0.018861830693005167 0.0 0.027123984060235348 0.0 0.0
-0.04006237579711502 0.017405829545307998 0.0 0.027396585104716355 0.0 0.0
-0.037171882398591295 0.016053491057960907 0.0 0.027702630527620557 0.0 0.0
-0.03441582438287929 0.014799105766942322 0.0 0.027876777025160226 0.0 0.0
-0.031727107994848014 0.013610824140413726 0.0 0.027951319816835643 0.0 0.0
-0.029068079970875856 0.012456431241866068 0.0 0.02797177833780097 0.0 0.0
-0.02641836896592717 0.011315210307964478 0.0 0.027969228822553135 0.0 0.0
-0.02377154429379897 0.0101809967061178 0.0 0.02796266759463468 0.0 0.0
-0.021135855490913735 0.009064268407968767 0.0 0.027975318328692524 0.0 0.0
-0.018543849924459493 0.008001737200569878 0.0 0.028057676507062868 0.0 0.0
-0.016066870094099864 0.007068470476560026 0.0 0.028318717253021257 0.0 0.0
-0.013798884389858261 0.006356023224715009 0.0 0.028956764106277982 0.0 0.0
-0.011711941531646224 0.005805285943747785 0.0 0.030204333328700983 0.0 0.0
-0.00931239933427939 0.004750009709086473 0.0 0.03186459156049613 0.0 0.0
-0.0055492375274704825 0.0014636802310728756 0.0 0.031836033288011545 0.0 0.0
-0.0005356482544007387 -0.005362752648126412 0.0 0.023683386500432276 0.0 0.0
0.0020974151804765712 -0.009994427091249451 0.0 0.013509328945391535 0.0 0.0
0.0010917671739855605 -0.006862216113157772 0.0 -0.01155834157545642 0.0 0.0
-0.0014374527852848355 -0.004080577469898894 0.0 -0.020989402068959637 0.0 0.0
-0.0066599685596742935 0.0019924735619849367 0.0 -0.029273533734814464 0.0 0.0
-0.011285378445776307 0.005438697027999778 0.0 -0.029868785705224755 0.0 0.0
-0.014814460887138083 0.007008612804237195 0.0 -0.028305223109172453 0.0 0.0
-0.01801002835546306 0.008096418945110916 0.0 -0.026933626561823965 0.0 0.0
-0.021286546153359304 0.00927966636330793 0.0 -0.02618322711814352 0.0 0.0
-0.02469743240187928 0.010630997314228 0.0 -0.02586878066966697 0.0 0.0
-0.028186887728318386 0.012084999638426902 0.0 -0.0257702310668566 0.0 0.0
-0.03170646251334861 0.013582506854838756 0.0 -0.025756072995159692 0.0 0.0
-0.035233426117393954 0.015094004081204055 0.0 -0.02576475776993939 0.0 0.0
-0.03876201774243585 0.016611070130185143 0.0 -0.025768550309508132 0.0 0.0
-0.04229646435667046 0.01813840641019337 0.0 -0.025745324070394312 0.0 0.0
-0.04585101112683175 0.019692210176651435 0.0 -0.025657635758351206 0.0 0.0
-0.049451867731868264 0.02129954350147633 0.0 -0.025446978806973494 0.0 0.0
-0.05314914772797939 0.02298119534083063 0.0 -0.025064134829205945 0.0 0.0
-0.05706765481903717 0.024766693894320426 0.0 -0.024594104742121488 0.0 0.0
-0.061041619869838776 0.02653379730415468 0.0 -0.02512138186118645 0.0 0.0
-0.06267677592686048 0.026031786074978323 0.0 -0.029432041740792544 0.0 0.0
-0.05761062581362972 0.015215399112276425 0.0 -0.031129372786606435 0.0 0.0
-0.05284601617827974 -0.005728226822520913 0.0 9.540979117872439e-17 0.0 0.0
-0.05761062581362979 0.01521539911228112 0.0 0.0311293727866055 0.0 0.0
-0.0626767759268609 0.026031786074979937 0.0 0.029432041740791608 0.0 0.0
-0.06104161986983854 0.02653379730415286 0.0 0.025121381861186863 0.0 0.0
-0.057067654819036834 0.024766693894320638 0.0 0.024594104742122338 0.0 0.0
-0.05314914772797934 0.022981195340829867 0.0 0.025064134829206868 0.0 0.0
-0.049451867731868535 0.02129954350147453 0.0 0.025446978806974354 0.0 0.0
-0.0458510111268318 0.01969221017665615 0.0 0.025657635758349638 0.0 0.0
-0.04229646435666984 0.018138406410192067 0.0 0.02574532407039226 0.0 0.0
-0.03876201774243583 0.016611070130188955 0.0 0.025768550309508094 0.0 0.0
-0.03523342611739412 0.015094004081208742 0.0 0.025764757769938657 0.0 0.0
-0.03170646251334842 0.013582506854834699 0.0 0.025756072995158856 0.0 0.0
-0.028186887728318392 0.012084999638432405 0.0 0.025770231066856733 0.0 0.0
-0.02469743240187911 0.010630997314224785 0.0 0.025868780669667035 0.0 0.0
-0.02128654615335907 0.009279666363310715 0.0 0.026183227118143363 0.0 0.0
-0.018010028355462872 0.008096418945107877 0.0 0.026933626561826365 0.0 0.0
-0.014814460887138028 0.007008612804238605 0.0 0.028305223109173744 0.0 0.0
-0.011285378445776366 0.005438697028000228 0.0 0.02986878570522481 0.0 0.0
-0.006659968559674153 0.0019924735619850737 0.0 0.029273533734814255 0.0 0.0
-0.0014374527852847518 -0.004080577469898825 0.0 0.020989402068960522 0.0 0.0
0.001091767173985648 -0.006862216113157407 0.0 0.01155834157545644 0.0 0.0
0.0001949330880415134 -0.004266335161612772 0.0 -0.009537086265514359 0.0 0.0
-0.002290095109106847 -0.002823265295366187 0.0 -0.018002763256811983 0.0 0.0
-0.007766128186361541 0.0025895222202815364 0.0 -0.02604469994925072 0.0 0.0
-0.01322573666921514 0.006129883071774356 0.0 -0.02701806948448816 0.0 0.0
-0.01787803599588608 0.008186938529671438 0.0 -0.02557921211802556 0.0 0.0
-0.02219889911611459 0.009818905802031748 0.0 -0.024175094271341898 0.0 0.0
-0.026499414021229246 0.011484173417438803 0.0 -0.023377085383733537 0.0 0.0
-0.030851230565343148 0.013259379237682412 0.0 -0.02303928462947239 0.0 0.0
-0.03523966390851075 0.015106473534469173 0.0 -0.022934929566091486 0.0 0.0
-0.03964279856015707 0.01698480799155478 0.0 -0.022921419964184248 0.0 0.0
-0.04404945574413425 0.018873382250135923 0.0 -0.022931922085514266 0.0 0.0
-0.04845674909913542 0.020766082752894863 0.0 -0.02293698376615241 0.0 0.0
-0.052866334077357274 0.022666138112812116 0.0 -0.02291329679687421 0.0 0.0
-0.05728470636917503 0.024583833000727803 0.0 -0.022821387528804544 0.0 0.0
-0.061725797565293936 0.026539955737880632 0.0 -0.022591265641854406 0.0 0.0
-0.06621011998916315 0.028546149986518964 0.0 -0.02216575222879577 0.0 0.0
-0.07087317528630026 0.030605198688756677 0.0 -0.021560573909621773 0.0 0.0
-0.07590900651012022 0.032891946449661494 0.0 -0.021607122761306073 0.0 0.0
-0.07914317352304458 0.033888988748910255 0.0 -0.02662143025979469 0.0 0.0
-0.07415759871165502 0.023207220149524112 0.0 -0.03348403722631379 0.0 0.0
-0.0685664578701767 -0.005530886076740736 0.0 7.441963711940502e-16 0.0 0.0
-0.07415759871165478 0.023207220149526663 0.0 0.0334840372263142 0.0 0.0
-0.07914317352304456 0.03388898874891353 0.0 0.02662143025979523 0.0 0.0
-0.07590900651012014 0.03289194644966519 0.0 0.02160712276130778 0.0 0.0
-0.07087317528630048 0.030605198688759695 0.0 0.021560573909623085 0.0 0.0
-0.06621011998916312 0.028546149986521427 0.0 0.022165752228797863 0.0 0.0
-0.06172579756529378 0.026539955737881708 0.0 0.022591265641855537 0.0 0.0
-0.057284706369174834 0.024583833000725062 0.0 0.022821387528807094 0.0 0.0
-0.05286633407735704 0.02266613811280726 0.0 0.022913296796874677 0.0 0.0
-0.048456749099135915 0.020766082752896854 0.0 0.0229369837661504 0.0 0.0
-0.04404945574413433 0.01887338225013604 0.0 0.022931922085514752 0.0 0.0
-0.03964279856015713 0.01698480799155862 0.0 0.022921419964184113 0.0 0.0
-0.03523966390851106 0.01510647353446945 0.0 0.0229349295660939 0.0 0.0
-0.030851230565342835 0.013259379237682462 0.0 0.023039284629472582 0.0 0.0
-0.026499414021228702 0.011484173417442034 0.0 0.023377085383733273 0.0 0.0
-0.022198899116114043 0.009818905802031475 0.0 0.02417509427134324 0.0 0.0
-0.01787803599588616 0.008186938529669245 0.0 0.02557921211802579 0.0 0.0
-0.013225736669215185 0.006129883071774807 0.0 0.027018069484488077 0.0 0.0
-0.0077661281863610505 0.0025895222202819332 0.0 0.02604469994925032 0.0 0.0
-0.0022900951091070387 -0.0028232652953657437 0.0 0.018002763256811556 0.0 0.0
0.00019493308804070052 -0.004266335161612794 0.0 0.009537086265512928 0.0 0.0
-0.0005612322495196869 -0.002233575803821833 0.0 -0.007457463872148146 0.0 0.0
-0.003054034324532915 -0.0016358558525351476 0.0 -0.014744066941701068 0.0 0.0
-0.008836373899301241 0.003211674469433959 0.0 -0.022164762092394746 0.0 0.0
-0.015135457259719522 0.006822279414218172 0.0 -0.023299592079562583 0.0 0.0
-0.02092415918344762 0.009359065451401617 0.0 -0.022008911330016645 0.0 0.0
-0.026384009535951398 0.011538478863029713 0.0 -0.020671227433019294 0.0 0.0
-0.03171484109690188 0.013689055418137249 0.0 -0.019897117963098468 0.0 0.0
-0.03700857293351516 0.01588928765764921 0.0 -0.019569367986877525 0.0 0.0
-0.04229488652165908 0.018129160528541084 0.0 -0.019470265190701126 0.0 0.0
-0.04758041645807291 0.020387767837914367 0.0 -0.019459261861045993 0.0 0.0
-0.052866238108995024 0.022653165546599324 0.0 -0.019470824472348987 0.0 0.0
-0.058152283791237075 0.024921495913031683 0.0 -0.01947694891264384 0.0 0.0
-0.0634376494634552 0.027194483655781965 0.0 -0.019455013875896196 0.0 0.0
-0.06871949802457962 0.029476613067048976 0.0 -0.01936782913203358 0.0 0.0
-0.07399841161702563 0.031776933448865174 0.0 -0.019142306649650012 0.0 0.0
-0.07926409782423895 0.03411158359551234 0.0 -0.0187018870809532 0.0 0.0
-0.08458172127831629 0.036410320834033894 0.0 -0.018081887890411156 0.0 0.0
-0.09051512102720552 0.038991320436253245 0.0 -0.017569988208088687 0.0 0.0
-0.09571234041953657 0.04180310008965233 0.0 -0.022171099910359534 0.0 0.0
-0.09130522757242748 0.032728213614414275 0.0 -0.03525212888543198 0.0 0.0
-0.0849429620761643 -0.0068975838590612645 0.0 -1.0755285551056204e-16 0.0 0.0
-0.09130522757242746 0.03272821361441169 0.0 0.03525212888543143 0.0 0.0
-0.09571234041953673 0.041803100089652497 0.0 0.02217109991036041 0.0 0.0
-0.09051512102720564 0.03899132043625986 0.0 0.017569988208090147 0.0 0.0
-0.08458172127831605 0.036410320834034976 0.0 0.01808188789040951 0.0 0.0
-0.07926409782423872 0.03411158359551474 0.0 0.018701887080953942 0.0 0.0
-0.07399841161702544 0.031776933448867145 0.0 0.01914230664964873 0.0 0.0
-0.0687194980245791 0.0294766130670418 0.0 0.01936782913203639 0.0 0.0
-0.06343764946345515 0.027194483655781296 0.0 0.019455013875895145 0.0 0.0
-0.05815228379123699 0.024921495913033866 0.0 0.01947694891264282 0.0 0.0
-0.05286623810899475 0.022653165546599165 0.0 0.019470824472352388 0.0 0.0
-0.04758041645807249 0.020387767837914864 0.0 0.019459261861043943 0.0 0.0
-0.04229488652165911 0.018129160528538375 0.0 0.01947026519070274 0.0 0.0
-0.03700857293351546 0.015889287657648764 0.0 0.019569367986875613 0.0 0.0
-0.03171484109690157 0.01368905541813811 0.0 0.01989711796309772 0.0 0.0
-0.026384009535950933 0.011538478863031807 0.0 0.02067122743301962 0.0 0.0
-0.020924159183447023 0.009359065451400805 0.0 0.0220089113300159 0.0 0.0
-0.01513545725971915 0.006822279414218212 0.0 0.02329959207956186 0.0 0.0
-0.008836373899301255 0.003211674469434133 0.0 0.02216476209239382 0.0 0.0
-0.003054034324532833 -0.0016358558525357894 0.0 0.014744066941699361 0.0 0.0
-0.0005612322495192779 -0.002233575803821898 0.0 0.007457463872148163 0.0 0.0
-0.0011315349985934722 -0.0007956205004083865 0.0 -0.005382621678158842 0.0 0.0
-0.0036717565187006987 -0.0005690870749817356 0.0 -0.011249433216225393 0.0 0.0
-0.009823401653619713 0.0038030700971446747 0.0 -0.01761187325490583 0.0 0.0
-0.017013181117661272 0.007513773220028008 0.0 -0.01867737195123891 0.0 0.0
-0.02397706774548924 0.010546500241389364 0.0 -0.017580279010823485 0.0 0.0
-0.030585930167484975 0.013271457685856242 0.0 -0.016419866647618894 0.0 0.0
-0.036943021136689895 0.015901957650317645 0.0 -0.01574501725151171 0.0 0.0
-0.043172956733338375 0.01852321331609961 0.0 -0.015461297320755778 0.0 0.0
-0.04935316075069299 0.02115342264234744 0.0 -0.015377717304243466 0.0 0.0
-0.05551905134662401 0.023791172266724253 0.0 -0.015370218145569596 0.0 0.0
-0.06168346040334104 0.02643305363559436 0.0 -0.01538157749653448 0.0 0.0
-0.06784860372107356 0.029077420290772038 0.0 -0.015387809707465942 0.0 0.0
-0.07401107521265322 0.03172362171820786 0.0 -0.015370443694753847 0.0 0.0
-0.08015903328588617 0.03437323740671235 0.0 -0.015293867370153456 0.0 0.0
-0.08627356653437554 0.03701622482655629 0.0 -0.015104424337215329 0.0 0.0
-0.09232994547494902 0.03967536249221489 0.0 -0.014681792177223396 0.0 0.0
-0.09824416804552157 0.04225555124792325 0.0 -0.014134889475924218 0.0 0.0
-0.10472701050492955 0.04477376578388579 0.0 -0.013429205328312889 0.0 0.0
-0.11212991172015394 0.04929266393581746 0.0 -0.01592235584686396 0.0 0.0
-0.10923074500983687 0.04449234204245225 0.0 -0.03511110025503313 0.0 0.0
-0.10250722635730111 -0.010132676761777072 0.0 -1.1657341758564144e-15 0.0 0.0
-0.10923074500983682 0.04449234204244926 0.0 0.03511110025503108 0.0 0.0
-0.11212991172015396 0.04929266393581268 0.0 0.015922355846862947 0.0 0.0
-0.10472701050492979 0.04477376578388548 0.0 0.013429205328311558 0.0 0.0
-0.09824416804552157 0.04225555124791916 0.0 0.01413488947592282 0.0 0.0
-0.09232994547494866 0.0396753624922111 0.0 0.01468179217722353 0.0 0.0
-0.08627356653437478 0.037016224826553194 0.0 0.015104424337214647 0.0 0.0
-0.08015903328588615 0.034373237406705545 0.0 0.01529386737015415 0.0 0.0
-0.07401107521265356 0.031723621718209534 0.0 0.01537044369475253 0.0 0.0
-0.06784860372107328 0.029077420290774744 0.0 0.015387809707466178 0.0 0.0
-0.06168346040334159 0.026433053635593284 0.0 0.0153815774965331 0.0 0.0
-0.05551905134662394 0.023791172266722442 0.0 0.015370218145569905 0.0 0.0
-0.04935316075069246 0.021153422642343624 0.0 0.015377717304246405 0.0 0.0
-0.04317295673333814 0.01852321331609889 0.0 0.015461297320756462 0.0 0.0
-0.036943021136689756 0.015901957650317093 0.0 0.015745017251511895 0.0 0.0
-0.03058593016748512 0.013271457685857363 0.0 0.016419866647619356 0.0 0.0
-0.023977067745489494 0.010546500241392488 0.0 0.017580279010823107 0.0 0.0
-0.01701318111766125 0.007513773220028009 0.0 0.018677371951237854 0.0 0.0
-0.009823401653619295 0.003803070097144933 0.0 0.017611873254905094 0.0 0.0
-0.0036717565187004437 -0.0005690870749817106 0.0 0.011249433216223539 0.0 0.0
-0.0011315349985933862 -0.0007956205004084623 0.0 0.005382621678159097 0.0 0.0
-0.0014460252427433117 2.142990244448618e-05 0.0 -0.0034680428261816137 0.0 0.0
-0.004054943797294918 0.00030322953789614675 0.0 -0.007576162305915972 0.0 0.0
-0.010659821160057112 0.004291836045569699 0.0 -0.012298818743456109 0.0 0.0
-0.018860138481826057 0.008209730216977506 0.0 -0.013090043584556817 0.0 0.0
-0.027066637393685707 0.011775098939910203 0.0 -0.012285556797794472 0.0 0.0
-0.0348268700442971 0.015034794797256602 0.0 -0.01142711176027596 0.0 0.0
-0.042194328315675246 0.01813059675954151 0.0 -0.010927988303853615 0.0 0.0
-0.04934765689434821 0.021163377355588372 0.0 -0.010719525823650175 0.0 0.0
-0.05641482543175427 0.02417941340190467 0.0 -0.010659363191550673 0.0 0.0
-0.06345829031444152 0.027194656118721242 0.0 -0.010654985929993593 0.0 0.0
-0.07050063910877237 0.0302127628632817 0.0 -0.010664067546768062 0.0 0.0
-0.07754575952918391 0.03323351883134176 0.0 -0.01066924930340846 0.0 0.0
-0.08458681877549205 0.03625496818652776 0.0 -0.010656888465517031 0.0 0.0
-0.09160697870760082 0.03927198430274936 0.0 -0.010602398410968536 0.0 0.0
-0.09855902912845806 0.04227522176586497 0.0 -0.010454639850320278 0.0 0.0
-0.10540963503275058 0.045217314805200644 0.0 -0.010173002638035047 0.0 0.0
-0.111969760384143 0.04820558459938831 0.0 -0.009563670833539931 0.0 0.0
-0.11847384696085336 0.05043995611873168 0.0 -0.009593240920058109 0.0 0.0
-0.12781830857737073 0.055314396085285655 0.0 -0.008898029584238952 0.0 0.0
-0.1280660421108234 0.05933815126126585 0.0 -0.029708015771076873 0.0 0.0
-0.12231396195327879 -0.015146140777721506 0.0 6.331740687315346e-16 0.0 0.0
-0.1280660421108233 0.05933815126126657 0.0 0.029708015771076936 0.0 0.0
-0.12781830857737106 0.05531439608528511 0.0 0.008898029584240826 0.0 0.0
-0.11847384696085331 0.05043995611872543 0.0 0.009593240920059486 0.0 0.0
-0.11196976038414297 0.04820558459938719 0.0 0.009563670833540896 0.0 0.0
-0.10540963503275079 0.045217314805197424 0.0 0.010173002638036383 0.0 0.0
-0.09855902912845772 0.04227522176586052 0.0 0.010454639850322614 0.0 0.0
-0.09160697870760061 0.039271984302746074 0.0 0.0106023984109659 0.0 0.0
-0.08458681877549201 0.036254968186528576 0.0 0.010656888465519137 0.0 0.0
-0.07754575952918394 0.03323351883133902 0.0 0.01066924930340572 0.0 0.0
-0.07050063910877259 0.030212762863282706 0.0 0.010664067546765422 0.0 0.0
-0.06345829031444128 0.027194656118721575 0.0 0.01065498592999382 0.0 0.0
-0.056414825431754294 0.024179413401904944 0.0 0.010659363191550813 0.0 0.0
-0.049347656894348106 0.021163377355589798 0.0 0.010719525823651316 0.0 0.0
-0.042194328315675086 0.018130596759539645 0.0 0.010927988303855173 0.0 0.0
-0.03482687004429703 0.015034794797255929 0.0 0.011427111760275015 0.0 0.0
-0.027066637393685797 0.01177509893991249 0.0 0.012285556797794207 0.0 0.0
-0.018860138481826424 0.008209730216976702 0.0 0.01309004358455761 0.0 0.0
-0.010659821160057315 0.004291836045570244 0.0 0.012298818743454985 0.0 0.0
-0.004054943797294812 0.0003032295378961828 0.0 0.007576162305915133 0.0 0.0
-0.0014460252427431655 2.1429902444041713e-05 0.0 0.00346804282618034 0.0 0.0
-0.001386964258656982 0.00021487682015435027 0.0 -0.0020426462429881578 0.0 0.0
-0.004061149442811059 0.0008502505028481417 0.0 -0.0038039471589582183 0.0 0.0
-0.011254310377740898 0.004590239151088266 0.0 -0.00601144758068968 0.0 0.0
-0.020690949280962424 0.00893755953648334 0.0 -0.006468008060248582 0.0 0.0
-0.03023070940469995 0.013073682206427783 0.0 -0.006123475111094744 0.0 0.0
-0.039129896884876655 0.01684609240855096 0.0 -0.00570931121073305 0.0 0.0
-0.04747869710347487 0.020381960835017563 0.0 -0.0054588879278436525 0.0 0.0
-0.05553525252388035 0.023811401842769284 0.0 -0.005350652733052839 0.0 0.0
-0.06347980952599384 0.02720694727306838 0.0 -0.005317769431139554 0.0 0.0
-0.0713974834685712 0.03059771705112553 0.0 -0.005314223679844823 0.0 0.0
-0.07931729271108771 0.03399185969468715 0.0 -0.0053181567554226195 0.0 0.0
-0.08724321429005635 0.03738970599299055 0.0 -0.005320327166326158 0.0 0.0
-0.09516651075909975 0.04078810637137535 0.0 -0.005313192627709751 0.0 0.0
-0.10306136910345777 0.04417817858361591 0.0 -0.005285253696425894 0.0 0.0
-0.1108771422800583 0.04754104237990302 0.0 -0.0052079053334763165 0.0 0.0
-0.11847940078423508 0.05082971258677415 0.0 -0.005068176649419602 0.0 0.0
-0.12586555673512198 0.05397255577178723 0.0 -0.004810400090041753 0.0 0.0
-0.13202006199285676 0.05707826161916897 0.0 -0.004471828487237364 0.0 0.0
-0.1415709051240898 0.05781667327604893 0.0 -0.00705274470998447 0.0 0.0
-0.1476397478733891 0.07767188176778031 0.0 -0.010065991718558532 0.0 0.0
-0.14664821898880198 -0.02021197978780649 0.0 -5.39499001028787e-16 0.0 0.0
-0.14763974787338857 0.07767188176778594 0.0 0.01006599171855815 0.0 0.0
-0.14157090512408982 0.05781667327604949 0.0 0.007052744709984312 0.0 0.0
-0.13202006199285723 0.05707826161916926 0.0 0.004471828487236096 0.0 0.0
-0.12586555673512193 0.053972555771788666 0.0 0.004810400090041085 0.0 0.0
-0.11847940078423452 0.050829712586774496 0.0 0.005068176649421843 0.0 0.0
-0.11087714228005835 0.04754104237989932 0.0 0.005207905333478405 0.0 0.0
-0.1030613691034576 0.04417817858361691 0.0 0.005285253696425157 0.0 0.0
-0.09516651075909947 0.0407881063713737 0.0 0.005313192627713112 0.0 0.0
-0.08724321429005649 0.03738970599298883 0.0 0.0053203271663255225 0.0 0.0
-0.07931729271108753 0.03399185969468569 0.0 0.005318156755424391 0.0 0.0
-0.07139748346857126 0.030597717051128785 0.0 0.005314223679845267 0.0 0.0
-0.06347980952599402 0.02720694727307153 0.0 0.00531776943114076 0.0 0.0
-0.055535252523879766 0.023811401842768403 0.0 0.0053506527330514425 0.0 0.0
-0.04747869710347475 0.02038196083501773 0.0 0.005458887927844319 0.0 0.0
-0.03912989688487694 0.01684609240855056 0.0 0.005709311210733184 0.0 0.0
-0.030230709404700008 0.01307368220642983 0.0 0.006123475111094595 0.0 0.0
-0.020690949280962757 0.0089375595364809 0.0 0.006468008060249845 0.0 0.0
-0.011254310377740986 0.0045902391510889845 0.0 0.00601144758068815 0.0 0.0
-0.004061149442811084 0.0008502505028482242 0.0 0.0038039471589585106 0.0 0.0
-0.0013869642586572047 0.00021487682015402693 0.0 0.002042646242986469 0.0 0.0
-0.0007414137839480757 0.00015753451983210377 0.0 -0.0013688170062828148 0.0 0.0
-0.0034496720483066824 0.0010210997394750339 0.0 -0.0016077223256656592 0.0 0.0
-0.011493102509333462 0.004679997881847382 0.0 -0.0020460616540188712 0.0 0.0
-0.022553135391380097 0.009314826417832626 0.0 -0.0022812855794606935 0.0 0.0
-0.03351333240028037 0.013744135668917808 0.0 -0.002263909978882205 0.0 0.0
-0.04351886907028721 0.017765996701515203 0.0 -0.002158562189666643 0.0 0.0
-0.05280462567316507 0.021514117284324286 0.0 -0.0020780579581164424 0.0 0.0
-0.061737204730621324 0.025137536719876636 0.0 -0.0020365239910588844 0.0 0.0
-0.07054746017353285 0.028721049687648433 0.0 -0.0020206158940429472 0.0 0.0
-0.0793357699506518 0.03229907574790243 0.0 -0.002016612680614511 0.0 0.0
-0.08813272158106374 0.03588116985443556 0.0 -0.002016465184738265 0.0 0.0
-0.09694075285807273 0.03946790553906703 0.0 -0.002016144219082 0.0 0.0
-0.10574933332038688 0.04305467417047731 0.0 -0.002012031459495649 0.0 0.0
-0.11452882147088778 0.04663517393906576 0.0 -0.002000959298199198 0.0 0.0
-0.12321277800475852 0.05016924858014499 0.0 -0.0019742931603242055 0.0 0.0
-0.13165301157141895 0.053680033468913244 0.0 -0.0019227019942972857 0.0 0.0
-0.1395955122024245 0.0567339873841722 0.0 -0.001975135446565822 0.0 0.0
-0.14677601457106423 0.060861153903756585 0.0 -0.0013438782282498753 0.0 0.0
-0.1510542595395484 0.057851622741494815 0.0 -0.006598641092163637 0.0 0.0
-0.1664881222370302 0.08770458761190542 0.0 -2.9707429225461074e-05 0.0 0.0
-0.18101508320650575 -0.022379817858747354 0.0 -4.718447854656915e-16 0.0 0.0
-0.1664881222370298 0.08770458761191399 0.0 2.970742922692518e-05 0.0 0.0
-0.15105425953954882 0.05785162274149351 0.0 0.006598641092161588 0.0 0.0
-0.14677601457106496 0.06086115390376079 0.0 0.0013438782282499812 0.0 0.0
-0.1395955122024245 0.056733987384172596 0.0 0.001975135446564122 0.0 0.0
-0.13165301157141818 0.05368003346891365 0.0 0.0019227019942975234 0.0 0.0
-0.12321277800475891 0.05016924858014014 0.0 0.0019742931603248474 0.0 0.0
-0.11452882147088816 0.04663517393906973 0.0 0.0020009592981985284 0.0 0.0
-0.10574933332038695 0.04305467417047196 0.0 0.0020120314594955467 0.0 0.0
-0.09694075285807281 0.039467905539068496 0.0 0.0020161442190800346 0.0 0.0
-0.08813272158106313 0.035881169854429254 0.0 0.002016465184737703 0.0 0.0
-0.07933576995065139 0.03229907574790992 0.0 0.002016612680614238 0.0 0.0
-0.07054746017353256 0.028721049687646775 0.0 0.0020206158940434867 0.0 0.0
-0.06173720473062116 0.025137536719871945 0.0 0.0020365239910601594 0.0 0.0
-0.052804625673165045 0.021514117284328005 0.0 0.0020780579581194617 0.0 0.0
-0.04351886907028704 0.017765996701515217 0.0 0.002158562189667551 0.0 0.0
-0.03351333240028033 0.01374413566891966 0.0 0.0022639099788820446 0.0 0.0
-0.02255313539138034 0.009314826417829807 0.0 0.002281285579461204 0.0 0.0
-0.011493102509333549 0.004679997881848455 0.0 0.0020460616540165675 0.0 0.0
-0.00344967204830667 0.0010210997394762191 0.0 0.0016077223256659545 0.0 0.0
-0.000741413783948288 0.00015753451983195073 0.0 0.0013688170062811354 0.0 0.0