# vtk DataFile Version 3.0
Some data
ASCII
DATASET UNSTRUCTURED_GRID
POINTS 861 float
0.0 0.0 0.0
0.4 0.0 0.0
0.8 0.0 0.0
1.2000000000000002 0.0 0.0
1.6 0.0 0.0
2.0 0.0 0.0
2.4000000000000004 0.0 0.0
2.8000000000000003 0.0 0.0
3.2 0.0 0.0
3.6 0.0 0.0
4.0 0.0 0.0
4.4 0.0 0.0
4.800000000000001 0.0 0.0
5.2 0.0 0.0
5.6000000000000005 0.0 0.0
6.0 0.0 0.0
6.4 0.0 0.0
6.800000000000001 0.0 0.0
7.2 0.0 0.0
7.6000000000000005 0.0 0.0
8.0 0.0 0.0
8.4 0.0 0.0
8.8 0.0 0.0
9.200000000000001 0.0 0.0
9.600000000000001 0.0 0.0
10.0 0.0 0.0
10.4 0.0 0.0
10.8 0.0 0.0
11.200000000000001 0.0 0.0
11.600000000000001 0.0 0.0
12.0 0.0 0.0
12.4 0.0 0.0
12.8 0.0 0.0
13.200000000000001 0.0 0.0
13.600000000000001 0.0 0.0
14.0 0.0 0.0
14.4 0.0 0.0
14.8 0.0 0.0
15.200000000000001 0.0 0.0
15.600000000000001 0.0 0.0
16.0 0.0 0.0
0.0 0.1 0.0
0.4 0.1 0.0
0.8 0.1 0.0
1.2000000000000002 0.1 0.0
1.6 0.1 0.0
2.0 0.1 0.0
2.4000000000000004 0.1 0.0
2.8000000000000003 0.1 0.0
3.2 0.1 0.0
3.6 0.1 0.0
4.0 0.1 0.0
4.4 0.1 0.0
4.800000000000001 0.1 0.0
5.2 0.1 0.0
5.6000000000000005 0.1 0.0
6.0 0.1 0.0
6.4 0.1 0.0
6.800000000000001 0.1 0.0
7.2 0.1 0.0
7.6000000000000005 0.1 0.0
8.0 0.1 0.0
8.4 0.1 0.0
8.8 0.1 0.0
9.200000000000001 0.1 0.0
9.600000000000001 0.1 0.0
10.0 0.1 0.0
10.4 0.1 0.0
10.8 0.1 0.0
11.200000000000001 0.1 0.0
11.600000000000001 0.1 0.0
12.0 0.1 0.0
12.4 0.1 0.0
12.8 0.1 0.0
13.200000000000001 0.1 0.0
13.600000000000001 0.1 0.0
14.0 0.1 0.0
14.4 0.1 0.0
14.8 0.1 0.0
15.200000000000001 0.1 0.0
15.600000000000001 0.1 0.0
16.0 0.1 0.0
0.0 0.2 0.0
0.4 0.2 0.0
0.8 0.2 0.0
1.2000000000000002 0.2 0.0
1.6 0.2 0.0
2.0 0.2 0.0
2.4000000000000004 0.2 0.0
2.8000000000000003 0.2 0.0
3.2 0.2 0.0
3.6 0.2 0.0
4.0 0.2 0.0
4.4 0.2 0.0
4.800000000000001 0.2 0.0
5.2 0.2 0.0
5.6000000000000005 0.2 0.0
6.0 0.2 0.0
6.4 0.2 0.0
6.800000000000001 0.2 0.0
7.2 0.2 0.0
7.6000000000000005 0.2 0.0
8.0 0.2 0.0
8.4 0.2 0.0
8.8 0.2 0.0
9.200000000000001 0.2 0.0
9.600000000000001 0.2 0.0
10.0 0.2 0.0
10.4 0.2 0.0
10.8 0.2 0.0
11.200000000000001 0.2 0.0
11.600000000000001 0.2 0.0
12.0 0.2 0.0
12.4 0.2 0.0
12.8 0.2 0.0
13.200000000000001 0.2 0.0
13.600000000000001 0.2 0.0
14.0 0.2 0.0
14.4 0.2 0.0
14.8 0.2 0.0
15.200000000000001 0.2 0.0
15.600000000000001 0.2 0.0
16.0 0.2 0.0
0.0 0.30000000000000004 0.0
0.4 0.30000000000000004 0.0
0.8 0.30000000000000004 0.0
1.2000000000000002 0.30000000000000004 0.0
1.6 0.30000000000000004 0.0
2.0 0.30000000000000004 0.0
2.4000000000000004 0.30000000000000004 0.0
2.8000000000000003 0.30000000000000004 0.0
3.2 0.30000000000000004 0.0
3.6 0.30000000000000004 0.0
4.0 0.30000000000000004 0.0
4.4 0.30000000000000004 0.0
4.800000000000001 0.30000000000000004 0.0
5.2 0.30000000000000004 0.0
5.6000000000000005 0.30000000000000004 0.0
6.0 0.30000000000000004 0.0
6.4 0.30000000000000004 0.0
6.800000000000001 0.30000000000000004 0.0
7.2 0.30000000000000004 0.0
7.6000000000000005 0.30000000000000004 0.0
8.0 0.30000000000000004 0.0
8.4 0.30000000000000004 0.0
8.8 0.30000000000000004 0.0
9.200000000000001 0.30000000000000004 0.0
9.600000000000001 0.30000000000000004 0.0
10.0 0.30000000000000004 0.0
10.4 0.30000000000000004 0.0
10.8 0.30000000000000004 0.0
11.200000000000001 0.30000000000000004 0.0
11.600000000000001 0.30000000000000004 0.0
12.0 0.30000000000000004 0.0
12.4 0.30000000000000004 0.0
12.8 0.30000000000000004 0.0
13.200000000000001 0.30000000000000004 0.0
13.600000000000001 0.30000000000000004 0.0
14.0 0.30000000000000004 0.0
14.4 0.30000000000000004 0.0
14.8 0.30000000000000004 0.0
15.200000000000001 0.30000000000000004 0.0
15.600000000000001 0.30000000000000004 0.0
16.0 0.30000000000000004 0.0
0.0 0.4 0.0
0.4 0.4 0.0
0.8 0.4 0.0
1.2000000000000002 0.4 0.0
1.6 0.4 0.0
2.0 0.4 0.0
2.4000000000000004 0.4 0.0
2.8000000000000003 0.4 0.0
3.2 0.4 0.0
3.6 0.4 0.0
4.0 0.4 0.0
4.4 0.4 0.0
4.800000000000001 0.4 0.0
5.2 0.4 0.0
5.6000000000000005 0.4 0.0
6.0 0.4 0.0
6.4 0.4 0.0
6.800000000000001 0.4 0.0
7.2 0.4 0.0
7.6000000000000005 0.4 0.0
8.0 0.4 0.0
8.4 0.4 0.0
8.8 0.4 0.0
9.200000000000001 0.4 0.0
9.600000000000001 0.4 0.0
10.0 0.4 0.0
10.4 0.4 0.0
10.8 0.4 0.0
11.200000000000001 0.4 0.0
11.600000000000001 0.4 0.0
12.0 0.4 0.0
12.4 0.4 0.0
12.8 0.4 0.0
13.200000000000001 0.4 0.0
13.600000000000001 0.4 0.0
14.0 0.4 0.0
14.4 0.4 0.0
14.8 0.4 0.0
15.200000000000001 0.4 0.0
15.600000000000001 0.4 0.0
16.0 0.4 0.0
0.0 0.5 0.0
0.4 0.5 0.0
0.8 0.5 0.0
1.2000000000000002 0.5 0.0
1.6 0.5 0.0
2.0 0.5 0.0
2.4000000000000004 0.5 0.0
2.8000000000000003 0.5 0.0
3.2 0.5 0.0
3.6 0.5 0.0
4.0 0.5 0.0
4.4 0.5 0.0
4.800000000000001 0.5 0.0
5.2 0.5 0.0
5.6000000000000005 0.5 0.0
6.0 0.5 0.0
6.4 0.5 0.0
6.800000000000001 0.5 0.0
7.2 0.5 0.0
7.6000000000000005 0.5 0.0
8.0 0.5 0.0
8.4 0.5 0.0
8.8 0.5 0.0
9.200000000000001 0.5 0.0
9.600000000000001 0.5 0.0
10.0 0.5 0.0
10.4 0.5 0.0
10.8 0.5 0.0
11.200000000000001 0.5 0.0
11.600000000000001 0.5 0.0
12.0 0.5 0.0
12.4 0.5 0.0
12.8 0.5 0.0
13.200000000000001 0.5 0.0
13.600000000000001 0.5 0.0
14.0 0.5 0.0
14.4 0.5 0.0
14.8 0.5 0.0
15.200000000000001 0.5 0.0
15.600000000000001 0.5 0.0
16.0 0.5 0.0
0.0 0.6000000000000001 0.0
0.4 0.6000000000000001 0.0
0.8 0.6000000000000001 0.0
1.2000000000000002 0.6000000000000001 0.0
1.6 0.6000000000000001 0.0
2.0 0.6000000000000001 0.0
2.4000000000000004 0.6000000000000001 0.0
2.8000000000000003 0.6000000000000001 0.0
3.2 0.6000000000000001 0.0
3.6 0.6000000000000001 0.0
4.0 0.6000000000000001 0.0
4.4 0.6000000000000001 0.0
4.800000000000001 0.6000000000000001 0.0
5.2 0.6000000000000001 0.0
5.6000000000000005 0.6000000000000001 0.0
6.0 0.6000000000000001 0.0
6.4 0.6000000000000001 0.0
6.800000000000001 0.6000000000000001 0.0
7.2 0.6000000000000001 0.0
7.6000000000000005 0.6000000000000001 0.0
8.0 0.6000000000000001 0.0
8.4 0.6000000000000001 0.0
8.8 0.6000000000000001 0.0
9.200000000000001 0.6000000000000001 0.0
9.600000000000001 0.6000000000000001 0.0
10.0 0.6000000000000001 0.0
10.4 0.6000000000000001 0.0
10.8 0.6000000000000001 0.0
11.200000000000001 0.6000000000000001 0.0
11.600000000000001 0.6000000000000001 0.0
12.0 0.6000000000000001 0.0
12.4 0.6000000000000001 0.0
12.8 0.6000000000000001 0.0
13.200000000000001 0.6000000000000001 0.0
13.600000000000001 0.6000000000000001 0.0
14.0 0.6000000000000001 0.0
14.4 0.6000000000000001 0.0
14.8 0.6000000000000001 0.0
15.200000000000001 0.6000000000000001 0.0
15.600000000000001 0.6000000000000001 0.0
16.0 0.6000000000000001 0.0
0.0 0.7000000000000001 0.0
0.4 0.7000000000000001 0.0
0.8 0.7000000000000001 0.0
1.2000000000000002 0.7000000000000001 0.0
1.6 0.7000000000000001 0.0
2.0 0.7000000000000001 0.0
2.4000000000000004 0.7000000000000001 0.0
2.8000000000000003 0.7000000000000001 0.0
3.2 0.7000000000000001 0.0
3.6 0.7000000000000001 0.0
4.0 0.7000000000000001 0.0
4.4 0.7000000000000001 0.0
4.800000000000001 0.7000000000000001 0.0
5.2 0.7000000000000001 0.0
5.6000000000000005 0.7000000000000001 0.0
6.0 0.7000000000000001 0.0
6.4 0.7000000000000001 0.0
6.800000000000001 0.7000000000000001 0.0
7.2 0.7000000000000001 0.0
7.6000000000000005 0.7000000000000001 0.0
8.0 0.7000000000000001 0.0
8.4 0.7000000000000001 0.0
8.8 0.7000000000000001 0.0
9.200000000000001 0.7000000000000001 0.0
9.600000000000001 0.7000000000000001 0.0
10.0 0.7000000000000001 0.0
10.4 0.7000000000000001 0.0
10.8 0.7000000000000001 0.0
11.200000000000001 0.7000000000000001 0.0
11.600000000000001 0.7000000000000001 0.0
12.0 0.7000000000000001 0.0
12.4 0.7000000000000001 0.0
12.8 0.7000000000000001 0.0
13.200000000000001 0.7000000000000001 0.0
13.600000000000001 0.7000000000000001 0.0
14.0 0.7000000000000001 0.0
14.4 0.7000000000000001 0.0
14.8 0.7000000000000001 0.0
15.200000000000001 0.7000000000000001 0.0
15.600000000000001 0.7000000000000001 0.0
16.0 0.7000000000000001 0.0
0.0 0.8 0.0
0.4 0.8 0.0
0.8 0.8 0.0
1.2000000000000002 0.8 0.0
1.6 0.8 0.0
2.0 0.8 0.0
2.4000000000000004 0.8 0.0
2.8000000000000003 0.8 0.0
3.2 0.8 0.0
3.6 0.8 0.0
4.0 0.8 0.0
4.4 0.8 0.0
4.800000000000001 0.8 0.0
5.2 0.8 0.0
5.6000000000000005 0.8 0.0
6.0 0.8 0.0
6.4 0.8 0.0
6.800000000000001 0.8 0.0
7.2 0.8 0.0
7.6000000000000005 0.8 0.0
8.0 0.8 0.0
8.4 0.8 0.0
8.8 0.8 0.0
9.200000000000001 0.8 0.0
9.600000000000001 0.8 0.0
10.0 0.8 0.0
10.4 0.8 0.0
10.8 0.8 0.0
11.200000000000001 0.8 0.0
11.600000000000001 0.8 0.0
12.0 0.8 0.0
12.4 0.8 0.0
12.8 0.8 0.0
13.200000000000001 0.8 0.0
13.600000000000001 0.8 0.0
14.0 0.8 0.0
14.4 0.8 0.0
14.8 0.8 0.0
15.200000000000001 0.8 0.0
15.600000000000001 0.8 0.0
16.0 0.8 0.0
0.0 0.9 0.0
0.4 0.9 0.0
0.8 0.9 0.0
1.2000000000000002 0.9 0.0
1.6 0.9 0.0
2.0 0.9 0.0
2.4000000000000004 0.9 0.0
2.8000000000000003 0.9 0.0
3.2 0.9 0.0
3.6 0.9 0.0
4.0 0.9 0.0
4.4 0.9 0.0
4.800000000000001 0.9 0.0
5.2 0.9 0.0
5.6000000000000005 0.9 0.0
6.0 0.9 0.0
6.4 0.9 0.0
6.800000000000001 0.9 0.0
7.2 0.9 0.0
7.6000000000000005 0.9 0.0
8.0 0.9 0.0
8.4 0.9 0.0
8.8 0.9 0.0
9.200000000000001 0.9 0.0
9.600000000000001 0.9 0.0
10.0 0.9 0.0
10.4 0.9 0.0
10.8 0.9 0.0
11.200000000000001 0.9 0.0
11.600000000000001 0.9 0.0
12.0 0.9 0.0
12.4 0.9 0.0
12.8 0.9 0.0
13.200000000000001 0.9 0.0
13.600000000000001 0.9 0.0
14.0 0.9 0.0
14.4 0.9 0.0
14.8 0.9 0.0
15.200000000000001 0.9 0.0
15.600000000000001 0.9 0.0
16.0 0.9 0.0
0.0 1.0 0.0
0.4 1.0 0.0
0.8 1.0 0.0
1.2000000000000002 1.0 0.0
1.6 1.0 0.0
2.0 1.0 0.0
2.4000000000000004 1.0 0.0
2.8000000000000003 1.0 0.0
3.2 1.0 0.0
3.6 1.0 0.0
4.0 1.0 0.0
4.4 1.0 0.0
4.800000000000001 1.0 0.0
5.2 1.0 0.0
5.6000000000000005 1.0 0.0
6.0 1.0 0.0
6.4 1.0 0.0
6.800000000000001 1.0 0.0
7.2 1.0 0.0
7.6000000000000005 1.0 0.0
8.0 1.0 0.0
8.4 1.0 0.0
8.8 1.0 0.0
9.200000000000001 1.0 0.0
9.600000000000001 1.0 0.0
10.0 1.0 0.0
10.4 1.0 0.0
10.8 1.0 0.0
11.200000000000001 1.0 0.0
11.600000000000001 1.0 0.0
12.0 1.0 0.0
12.4 1.0 0.0
12.8 1.0 0.0
13.200000000000001 1.0 0.0
13.600000000000001 1.0 0.0
14.0 1.0 0.0
14.4 1.0 0.0
14.8 1.0 0.0
15.200000000000001 1.0 0.0
15.600000000000001 1.0 0.0
16.0 1.0 0.0
0.0 1.1 0.0
0.4 1.1 0.0
0.8 1.1 0.0
1.2000000000000002 1.1 0.0
1.6 1.1 0.0
2.0 1.1 0.0
2.4000000000000004 1.1 0.0
2.8000000000000003 1.1 0.0
3.2 1.1 0.0
3.6 1.1 0.0
4.0 1.1 0.0
4.4 1.1 0.0
4.800000000000001 1.1 0.0
5.2 1.1 0.0
5.6000000000000005 1.1 0.0
6.0 1.1 0.0
6.4 1.1 0.0
6.800000000000001 1.1 0.0
7.2 1.1 0.0
7.6000000000000005 1.1 0.0
8.0 1.1 0.0
8.4 1.1 0.0
8.8 1.1 0.0
9.200000000000001 1.1 0.0
9.600000000000001 1.1 0.0
10.0 1.1 0.0
10.4 1.1 0.0
10.8 1.1 0.0
11.200000000000001 1.1 0.0
11.600000000000001 1.1 0.0
12.0 1.1 0.0
12.4 1.1 0.0
12.8 1.1 0.0
13.200000000000001 1.1 0.0
13.600000000000001 1.1 0.0
14.0 1.1 0.0
14.4 1.1 0.0
14.8 1.1 0.0
15.200000000000001 1.1 0.0
15.600000000000001 1.1 0.0
16.0 1.1 0.0
0.0 1.2000000000000002 0.0
0.4 1.2000000000000002 0.0
0.8 1.2000000000000002 0.0
1.2000000000000002 1.2000000000000002 0.0
1.6 1.2000000000000002 0.0
2.0 1.2000000000000002 0.0
2.4000000000000004 1.2000000000000002 0.0
2.8000000000000003 1.2000000000000002 0.0
3.2 1.2000000000000002 0.0
3.6 1.2000000000000002 0.0
4.0 1.2000000000000002 0.0
4.4 1.2000000000000002 0.0
4.800000000000001 1.2000000000000002 0.0
5.2 1.2000000000000002 0.0
5.6000000000000005 1.2000000000000002 0.0
6.0 1.2000000000000002 0.0
6.4 1.2000000000000002 0.0
6.800000000000001 1.2000000000000002 0.0
7.2 1.2000000000000002 0.0
7.6000000000000005 1.2000000000000002 0.0
8.0 1.2000000000000002 0.0
8.4 1.2000000000000002 0.0
8.8 1.2000000000000002 0.0
9.200000000000001 1.2000000000000002 0.0
9.600000000000001 1.2000000000000002 0.0
10.0 1.2000000000000002 0.0
10.4 1.2000000000000002 0.0
10.8 1.2000000000000002 0.0
11.200000000000001 1.2000000000000002 0.0
11.600000000000001 1.2000000000000002 0.0
12.0 1.2000000000000002 0.0
12.4 1.2000000000000002 0.0
12.8 1.2000000000000002 0.0
13.200000000000001 1.2000000000000002 0.0
13.600000000000001 1.2000000000000002 0.0
14.0 1.2000000000000002 0.0
14.4 1.2000000000000002 0.0
14.8 1.2000000000000002 0.0
15.200000000000001 1.2000000000000002 0.0
15.600000000000001 1.2000000000000002 0.0
16.0 1.2000000000000002 0.0
0.0 1.3 0.0
0.4 1.3 0.0
0.8 1.3 0.0
1.2000000000000002 1.3 0.0
1.6 1.3 0.0
2.0 1.3 0.0
2.4000000000000004 1.3 0.0
2.8000000000000003 1.3 0.0
3.2 1.3 0.0
3.6 1.3 0.0
4.0 1.3 0.0
4.4 1.3 0.0
4.800000000000001 1.3 0.0
5.2 1.3 0.0
5.6000000000000005 1.3 0.0
6.0 1.3 0.0
6.4 1.3 0.0
6.800000000000001 1.3 0.0
7.2 1.3 0.0
7.6000000000000005 1.3 0.0
8.0 1.3 0.0
8.4 1.3 0.0
8.8 1.3 0.0
9.200000000000001 1.3 0.0
9.600000000000001 1.3 0.0
10.0 1.3 0.0
10.4 1.3 0.0
10.8 1.3 0.0
11.200000000000001 1.3 0.0
11.600000000000001 1.3 0.0
12.0 1.3 0.0
12.4 1.3 0.0
12.8 1.3 0.0
13.200000000000001 1.3 0.0
13.600000000000001 1.3 0.0
14.0 1.3 0.0
14.4 1.3 0.0
14.8 1.3 0.0
15.200000000000001 1.3 0.0
15.600000000000001 1.3 0.0
16.0 1.3 0.0
0.0 1.4000000000000001 0.0
0.4 1.4000000000000001 0.0
0.8 1.4000000000000001 0.0
1.2000000000000002 1.4000000000000001 0.0
1.6 1.4000000000000001 0.0
2.0 1.4000000000000001 0.0
2.4000000000000004 1.4000000000000001 0.0
2.8000000000000003 1.4000000000000001 0.0
3.2 1.4000000000000001 0.0
3.6 1.4000000000000001 0.0
4.0 1.4000000000000001 0.0
4.4 1.4000000000000001 0.0
4.800000000000001 1.4000000000000001 0.0
5.2 1.4000000000000001 0.0
5.6000000000000005 1.4000000000000001 0.0
6.0 1.4000000000000001 0.0
6.4 1.4000000000000001 0.0
6.800000000000001 1.4000000000000001 0.0
7.2 1.4000000000000001 0.0
7.6000000000000005 1.4000000000000001 0.0
8.0 1.4000000000000001 0.0
8.4 1.4000000000000001 0.0
8.8 1.4000000000000001 0.0
9.200000000000001 1.4000000000000001 0.0
9.600000000000001 1.4000000000000001 0.0
10.0 1.4000000000000001 0.0
10.4 1.4000000000000001 0.0
10.8 1.4000000000000001 0.0
11.200000000000001 1.4000000000000001 0.0
11.600000000000001 1.4000000000000001 0.0
12.0 1.4000000000000001 0.0
12.4 1.4000000000000001 0.0
12.8 1.4000000000000001 0.0
13.200000000000001 1.4000000000000001 0.0
13.600000000000001 1.4000000000000001 0.0
14.0 1.4000000000000001 0.0
14.4 1.4000000000000001 0.0
14.8 1.4000000000000001 0.0
15.200000000000001 1.4000000000000001 0.0
15.600000000000001 1.4000000000000001 0.0
16.0 1.4000000000000001 0.0
0.0 1.5 0.0
0.4 1.5 0.0
0.8 1.5 0.0
1.2000000000000002 1.5 0.0
1.6 1.5 0.0
2.0 1.5 0.0
2.4000000000000004 1.5 0.0
2.8000000000000003 1.5 0.0
3.2 1.5 0.0
3.6 1.5 0.0
4.0 1.5 0.0
4.4 1.5 0.0
4.800000000000001 1.5 0.0
5.2 1.5 0.0
5.6000000000000005 1.5 0.0
6.0 1.5 0.0
6.4 1.5 0.0
6.800000000000001 1.5 0.0
7.2 1.5 0.0
7.6000000000000005 1.5 0.0
8.0 1.5 0.0
8.4 1.5 0.0
8.8 1.5 0.0
9.200000000000001 1.5 0.0
9.600000000000001 1.5 0.0
10.0 1.5 0.0
10.4 1.5 0.0
10.8 1.5 0.0
11.200000000000001 1.5 0.0
11.600000000000001 1.5 0.0
12.0 1.5 0.0
12.4 1.5 0.0
12.8 1.5 0.0
13.200000000000001 1.5 0.0
13.600000000000001 1.5 0.0
14.0 1.5 0.0
14.4 1.5 0.0
14.8 1.5 0.0
15.200000000000001 1.5 0.0
15.600000000000001 1.5 0.0
16.0 1.5 0.0
0.0 1.6 0.0
0.4 1.6 0.0
0.8 1.6 0.0
1.2000000000000002 1.6 0.0
1.6 1.6 0.0
2.0 1.6 0.0
2.4000000000000004 1.6 0.0
2.8000000000000003 1.6 0.0
3.2 1.6 0.0
3.6 1.6 0.0
4.0 1.6 0.0
4.4 1.6 0.0
4.800000000000001 1.6 0.0
5.2 1.6 0.0
5.6000000000000005 1.6 0.0
6.0 1.6 0.0
6.4 1.6 0.0
6.800000000000001 1.6 0.0
7.2 1.6 0.0
7.6000000000000005 1.6 0.0
8.0 1.6 0.0
8.4 1.6 0.0
8.8 1.6 0.0
9.200000000000001 1.6 0.0
9.600000000000001 1.6 0.0
10.0 1.6 0.0
10.4 1.6 0.0
10.8 1.6 0.0
11.200000000000001 1.6 0.0
11.600000000000001 1.6 0.0
12.0 1.6 0.0
12.4 1.6 0.0
12.8 1.6 0.0
13.200000000000001 1.6 0.0
13.600000000000001 1.6 0.0
14.0 1.6 0.0
14.4 1.6 0.0
14.8 1.6 0.0
15.200000000000001 1.6 0.0
15.600000000000001 1.6 0.0
16.0 1.6 0.0
0.0 1.7000000000000002 0.0
0.4 1.7000000000000002 0.0
0.8 1.7000000000000002 0.0
1.2000000000000002 1.7000000000000002 0.0
1.6 1.7000000000000002 0.0
2.0 1.7000000000000002 0.0
2.4000000000000004 1.7000000000000002 0.0
2.8000000000000003 1.7000000000000002 0.0
3.2 1.7000000000000002 0.0
3.6 1.7000000000000002 0.0
4.0 1.7000000000000002 0.0
4.4 1.7000000000000002 0.0
4.800000000000001 1.7000000000000002 0.0
5.2 1.7000000000000002 0.0
5.6000000000000005 1.7000000000000002 0.0
6.0 1.7000000000000002 0.0
6.4 1.7000000000000002 0.0
6.800000000000001 1.7000000000000002 0.0
7.2 1.7000000000000002 0.0
7.6000000000000005 1.7000000000000002 0.0
8.0 1.7000000000000002 0.0
8.4 1.7000000000000002 0.0
8.8 1.7000000000000002 0.0
9.200000000000001 1.7000000000000002 0.0
9.600000000000001 1.7000000000000002 0.0
10.0 1.7000000000000002 0.0
10.4 1.7000000000000002 0.0
10.8 1.7000000000000002 0.0
11.200000000000001 1.7000000000000002 0.0
11.600000000000001 1.7000000000000002 0.0
12.0 1.7000000000000002 0.0
12.4 1.7000000000000002 0.0
12.8 1.7000000000000002 0.0
13.200000000000001 1.7000000000000002 0.0
13.600000000000001 1.7000000000000002 0.0
14.0 1.7000000000000002 0.0
14.4 1.7000000000000002 0.0
14.8 1.7000000000000002 0.0
15.200000000000001 1.7000000000000002 0.0
15.600000000000001 1.7000000000000002 0.0
16.0 1.7000000000000002 0.0
0.0 1.8 0.0
0.4 1.8 0.0
0.8 1.8 0.0
1.2000000000000002 1.8 0.0
1.6 1.8 0.0
2.0 1.8 0.0
2.4000000000000004 1.8 0.0
2.8000000000000003 1.8 0.0
3.2 1.8 0.0
3.6 1.8 0.0
4.0 1.8 0.0
4.4 1.8 0.0
4.800000000000001 1.8 0.0
5.2 1.8 0.0
5.6000000000000005 1.8 0.0
6.0 1.8 0.0
6.4 1.8 0.0
6.800000000000001 1.8 0.0
7.2 1.8 0.0
7.6000000000000005 1.8 0.0
8.0 1.8 0.0
8.4 1.8 0.0
8.8 1.8 0.0
9.200000000000001 1.8 0.0
9.600000000000001 1.8 0.0
10.0 1.8 0.0
10.4 1.8 0.0
10.8 1.8 0.0
11.200000000000001 1.8 0.0
11.600000000000001 1.8 0.0
12.0 1.8 0.0
12.4 1.8 0.0
12.8 1.8 0.0
13.200000000000001 1.8 0.0
13.600000000000001 1.8 0.0
14.0 1.8 0.0
14.4 1.8 0.0
14.8 1.8 0.0
15.200000000000001 1.8 0.0
15.600000000000001 1.8 0.0
16.0 1.8 0.0
0.0 1.9000000000000001 0.0
0.4 1.9000000000000001 0.0
0.8 1.9000000000000001 0.0
1.2000000000000002 1.9000000000000001 0.0
1.6 1.9000000000000001 0.0
2.0 1.9000000000000001 0.0
2.4000000000000004 1.9000000000000001 0.0
2.8000000000000003 1.9000000000000001 0.0
3.2 1.9000000000000001 0.0
3.6 1.9000000000000001 0.0
4.0 1.9000000000000001 0.0
4.4 1.9000000000000001 0.0
4.800000000000001 1.9000000000000001 0.0
5.2 1.9000000000000001 0.0
5.6000000000000005 1.9000000000000001 0.0
6.0 1.9000000000000001 0.0
6.4 1.9000000000000001 0.0
6.800000000000001 1.9000000000000001 0.0
7.2 1.9000000000000001 0.0
7.6000000000000005 1.9000000000000001 0.0
8.0 1.9000000000000001 0.0
8.4 1.9000000000000001 0.0
8.8 1.9000000000000001 0.0
9.200000000000001 1.9000000000000001 0.0
9.600000000000001 1.9000000000000001 0.0
10.0 1.9000000000000001 0.0
10.4 1.9000000000000001 0.0
10.8 1.9000000000000001 0.0
11.200000000000001 1.9000000000000001 0.0
11.600000000000001 1.9000000000000001 0.0
12.0 1.9000000000000001 0.0
12.4 1.9000000000000001 0.0
12.8 1.9000000000000001 0.0
13.200000000000001 1.9000000000000001 0.0
13.600000000000001 1.9000000000000001 0.0
14.0 1.9000000000000001 0.0
14.4 1.9000000000000001 0.0
14.8 1.9000000000000001 0.0
15.200000000000001 1.9000000000000001 0.0
15.600000000000001 1.9000000000000001 0.0
16.0 1.9000000000000001 0.0
0.0 2.0 0.0
0.4 2.0 0.0
0.8 2.0 0.0
1.2000000000000002 2.0 0.0
1.6 2.0 0.0
2.0 2.0 0.0
2.4000000000000004 2.0 0.0
2.8000000000000003 2.0 0.0
3.2 2.0 0.0
3.6 2.0 0.0
4.0 2.0 0.0
4.4 2.0 0.0
4.800000000000001 2.0 0.0
5.2 2.0 0.0
5.6000000000000005 2.0 0.0
6.0 2.0 0.0
6.4 2.0 0.0
6.800000000000001 2.0 0.0
7.2 2.0 0.0
7.6000000000000005 2.0 0.0
8.0 2.0 0.0
8.4 2.0 0.0
8.8 2.0 0.0
9.200000000000001 2.0 0.0
9.600000000000001 2.0 0.0
10.0 2.0 0.0
10.4 2.0 0.0
10.8 2.0 0.0
11.200000000000001 2.0 0.0
11.600000000000001 2.0 0.0
12.0 2.0 0.0
12.4 2.0 0.0
12.8 2.0 0.0
13.200000000000001 2.0 0.0
13.600000000000001 2.0 0.0
14.0 2.0 0.0
14.4 2.0 0.0
14.8 2.0 0.0
15.200000000000001 2.0 0.0
15.600000000000001 2.0 0.0
16.0 2.0 0.0
CELLS 800 4000
4 0 1 42 41
4 1 2 43 42
4 2 3 44 43
4 3 4 45 44
4 4 5 46 45
4 5 6 47 46
4 6 7 48 47
4 7 8 49 48
4 8 9 50 49
4 9 10 51 50
4 10 11 52 51
4 11 12 53 52
4 12 13 54 53
4 13 14 55 54
4 14 15 56 55
4 15 16 57 56
4 16 17 58 57
4 17 18 59 58
4 18 19 60 59
4 19 20 61 60
4 20 21 62 61
4 21 22 63 62
4 22 23 64 63
4 23 24 65 64
4 24 25 66 65
4 25 26 67 66
4 26 27 68 67
4 27 28 69 68
4 28 29 70 69
4 29 30 71 70
4 30 31 72 71
4 31 32 73 72
4 32 33 74 73
4 33 34 75 74
4 34 35 76 75
4 35 36 77 76
4 36 37 78 77
4 37 38 79 78
4 38 39 80 79
4 39 40 81 80
4 41 42 83 82
4 42 43 84 83
4 43 44 85 84
4 44 45 86 85
4 45 46 87 86
4 46 47 88 87
4 47 48 89 88
4 48 49 90 89
4 49 50 91 90
4 50 51 92 91
4 51 52 93 92
4 52 53 94 93
4 53 54 95 94
4 54 55 96 95
4 55 56 97 96
4 56 57 98 97
4 57 58 99 98
4 58 59 100 99
4 59 60 101 100
4 60 61 102 101
4 61 62 103 102
4 62 63 104 103
4 63 64 105 104
4 64 65 106 105
4 65 66 107 106
4 66 67 108 107
4 67 68 109 108
4 68 69 110 109
4 69 70 111 110
4 70 71 112 111
4 71 72 113 112
4 72 73 114 113
4 73 74 115 114
4 74 75 116 115
4 75 76 117 116
4 76 77 118 117
4 77 78 119 118
4 78 79 120 119
4 79 80 121 120
4 80 81 122 121
4 82 83 124 123
4 83 84 125 124
4 84 85 126 125
4 85 86 127 126
4 86 87 128 127
4 87 88 129 128
4 88 89 130 129
4 89 90 131 130
4 90 91 132 131
4 91 92 133 132
4 92 93 134 133
4 93 94 135 134
4 94 95 136 135
4 95 96 137 136
4 96 97 138 137
4 97 98 139 138
4 98 99 140 139
4 99 100 141 140
4 100 101 142 141
4 101 102 143 142
4 102 103 144 143
4 103 104 145 144
4 104 105 146 145
4 105 106 147 146
4 106 107 148 147
4 107 108 149 148
4 108 109 150 149
4 109 110 151 150
4 110 111 152 151
4 111 112 153 152
4 112 113 154 153
4 113 114 155 154
4 114 115 156 155
4 115 116 157 156
4 116 117 158 157
4 117 118 159 158
4 118 119 160 159
4 119 120 161 160
4 120 121 162 161
4 121 122 163 162
4 123 124 165 164
4 124 125 166 165
4 125 126 167 166
4 126 127 168 167
4 127 128 169 168
4 128 129 170 169
4 129 130 171 170
4 130 131 172 171
4 131 132 173 172
4 132 133 174 173
4 133 134 175 174
4 134 135 176 175
4 135 136 177 176
4 136 137 178 177
4 137 138 179 178
4 138 139 180 179
4 139 140 181 180
4 140 141 182 181
4 141 142 183 182
4 142 143 184 183
4 143 144 185 184
4 144 145 186 185
4 145 146 187 186
4 146 147 188 187
4 147 148 189 188
4 148 149 190 189
4 149 150 191 190
4 150 151 192 191
4 151 152 193 192
4 152 153 194 193
4 153 154 195 194
4 154 155 196 195
4 155 156 197 196
4 156 157 198 197
4 157 158 199 198
4 158 159 200 199
4 159 160 201 200
4 160 161 202 201
4 161 162 203 202
4 162 163 204 203
4 164 165 206 205
4 165 166 207 206
4 166 167 208 207
4 167 168 209 208
4 168 169 210 209
4 169 170 211 210
4 170 171 212 211
4 171 172 213 212
4 172 173 214 213
4 173 174 215 214
4 174 175 216 215
4 175 176 217 216
4 176 177 218 217
4 177 178 219 218
4 178 179 220 219
4 179 180 221 220
4 180 181 222 221
4 181 182 223 222
4 182 183 224 223
4 183 184 225 224
4 184 185 226 225
4 185 186 227 226
4 186 187 228 227
4 187 188 229 228
4 188 189 230 229
4 189 190 231 230
4 190 191 232 231
4 191 192 233 232
4 192 193 234 233
4 193 194 235 234
4 194 195 236 235
4 195 196 237 236
4 196 197 238 237
4 197 198 239 238
4 198 199 240 239
4 199 200 241 240
4 200 201 242 241
4 201 202 243 242
4 202 203 244 243
4 203 204 245 244
4 205 206 247 246
4 206 207 248 247
4 207 208 249 248
4 208 209 250 249
4 209 210 251 250
4 210 211 252 251
4 211 212 253 252
4 212 213 254 253
4 213 214 255 254
4 214 215 256 255
4 215 216 257 256
4 216 217 258 257
4 217 218 259 258
4 218 219 260 259
4 219 220 261 260
4 220 221 262 261
4 221 222 263 262
4 222 223 264 263
4 223 224 265 264
4 224 225 266 265
4 225 226 267 266
4 226 227 268 267
4 227 228 269 268
4 228 229 270 269
4 229 230 271 270
4 230 231 272 271
4 231 232 273 272
4 232 233 274 273
4 233 234 275 274
4 234 235 276 275
4 235 236 277 276
4 236 237 278 277
4 237 238 279 278
4 238 239 280 279
4 239 240 281 280
4 240 241 282 281
4 241 242 283 282
4 242 243 284 283
4 243 244 285 284
4 244 245 286 285
4 246 247 288 287
4 247 248 289 288
4 248 249 290 289
4 249 250 291 290
4 250 251 292 291
4 251 252 293 292
4 252 253 294 293
4 253 254 295 294
4 254 255 296 295
4 255 256 297 296
4 256 257 298 297
4 257 258 299 298
4 258 259 300 299
4 259 260 301 300
4 260 261 302 301
4 261 262 303 302
4 262 263 304 303
4 263 264 305 304
4 264 265 306 305
4 265 266 307 306
4 266 267 308 307
4 267 268 309 308
4 268 269 310 309
4 269 270 311 310
4 270 271 312 311
4 271 272 313 312
4 272 273 314 313
4 273 274 315 314
4 274 275 316 315
4 275 276 317 316
4 276 277 318 317
4 277 278 319 318
4 278 279 320 319
4 279 280 321 320
4 280 281 322 321
4 281 282 323 322
4 282 283 324 323
4 283 284 325 324
4 284 285 326 325
4 285 286 327 326
4 287 288 329 328
4 288 289 330 329
4 289 290 331 330
4 290 291 332 331
4 291 292 333 332
4 292 293 334 333
4 293 294 335 334
4 294 295 336 335
4 295 296 337 336
4 296 297 338 337
4 297 298 339 338
4 298 299 340 339
4 299 300 341 340
4 300 301 342 341
4 301 302 343 342
4 302 303 344 343
4 303 304 345 344
4 304 305 346 345
4 305 306 347 346
4 306 307 348 347
4 307 308 349 348
4 308 309 350 349
4 309 310 351 350
4 310 311 352 351
4 311 312 353 352
4 312 313 354 353
4 313 314 355 354
4 314 315 356 355
4 315 316 357 356
4 316 317 358 357
4 317 318 359 358
4 318 319 360 359
4 319 320 361 360
4 320 321 362 361
4 321 322 363 362
4 322 323 364 363
4 323 324 365 364
4 324 325 366 365
4 325 326 367 366
4 326 327 368 367
4 328 329 370 369
4 329 330 371 370
4 330 331 372 371
4 331 332 373 372
4 332 333 374 373
4 333 334 375 374
4 334 335 376 375
4 335 336 377 376
4 336 337 378 377
4 337 338 379 378
4 338 339 380 379
4 339 340 381 380
4 340 341 382 381
4 341 342 383 382
4 342 343 384 383
4 343 344 385 384
4 344 345 386 385
4 345 346 387 386
4 346 347 388 387
4 347 348 389 388
4 348 349 390 389
4 349 350 391 390
4 350 351 392 391
4 351 352 393 392
4 352 353 394 393
4 353 354 395 394
4 354 355 396 395
4 355 356 397 396
4 356 357 398 397
4 357 358 399 398
4 358 359 400 399
4 359 360 401 400
4 360 361 402 401
4 361 362 403 402
4 362 363 404 403
4 363 364 405 404
4 364 365 406 405
4 365 366 407 406
4 366 367 408 407
4 367 368 409 408
4 369 370 411 410
4 370 371 412 411
4 371 372 413 412
4 372 373 414 413
4 373 374 415 414
4 374 375 416 415
4 375 376 417 416
4 376 377 418 417
4 377 378 419 418
4 378 379 420 419
4 379 380 421 420
4 380 381 422 421
4 381 382 423 422
4 382 383 424 423
4 383 384 425 424
4 384 385 426 425
4 385 386 427 426
4 386 387 428 427
4 387 388 429 428
4 388 389 430 429
4 389 390 431 430
4 390 391 432 431
4 391 392 433 432
4 392 393 434 433
4 393 394 435 434
4 394 395 436 435
4 395 396 437 436
4 396 397 438 437
4 397 398 439 438
4 398 399 440 439
4 399 400 441 440
4 400 401 442 441
4 401 402 443 442
4 402 403 444 443
4 403 404 445 444
4 404 405 446 445
4 405 406 447 446
4 406 407 448 447
4 407 408 449 448
4 408 409 450 449
4 410 411 452 451
4 411 412 453 452
4 412 413 454 453
4 413 414 455 454
4 414 415 456 455
4 415 416 457 456
4 416 417 458 457
4 417 418 459 458
4 418 419 460 459
4 419 420 461 460
4 420 421 462 461
4 421 422 463 462
4 422 423 464 463
4 423 424 465 464
4 424 425 466 465
4 425 426 467 466
4 426 427 468 467
4 427 428 469 468
4 428 429 470 469
4 429 430 471 470
4 430 431 472 471
4 431 432 473 472
4 432 433 474 473
4 433 434 475 474
4 434 435 476 475
4 435 436 477 476
4 436 437 478 477
4 437 438 479 478
4 438 439 480 479
4 439 440 481 480
4 440 441 482 481
4 441 442 483 482
4 442 443 484 483
4 443 444 485 484
4 444 445 486 485
4 445 446 487 486
4 446 447 488 487
4 447 448 489 488
4 448 449 490 489
4 449 450 491 490
4 451 452 493 492
4 452 453 494 493
4 453 454 495 494
4 454 455 496 495
4 455 456 497 496
4 456 457 498 497
4 457 458 499 498
4 458 459 500 499
4 459 460 501 500
4 460 461 502 501
4 461 462 503 502
4 462 463 504 503
4 463 464 505 504
4 464 465 506 505
4 465 466 507 506
4 466 467 508 507
4 467 468 509 508
4 468 469 510 509
4 469 470 511 510
4 470 471 512 511
4 471 472 513 512
4 472 473 514 513
4 473 474 515 514
4 474 475 516 515
4 475 476 517 516
4 476 477 518 517
4 477 478 519 518
4 478 479 520 519
4 479 480 521 520
4 480 481 522 521
4 481 482 523 522
4 482 483 524 523
4 483 484 525 524
4 484 485 526 525
4 485 486 527 526
4 486 487 528 527
4 487 488 529 528
4 488 489 530 529
4 489 490 531 530
4 490 491 532 531
4 492 493 534 533
4 493 494 535 534
4 494 495 536 535
4 495 496 537 536
4 496 497 538 537
4 497 498 539 538
4 498 499 540 539
4 499 500 541 540
4 500 501 542 541
4 501 502 543 542
4 502 503 544 543
4 503 504 545 544
4 504 505 546 545
4 505 506 547 546
4 506 507 548 547
4 507 508 549 548
4 508 509 550 549
4 509 510 551 550
4 510 511 552 551
4 511 512 553 552
4 512 513 554 553
4 513 514 555 554
4 514 515 556 555
4 515 516 557 556
4 516 517 558 557
4 517 518 559 558
4 518 519 560 559
4 519 520 561 560
4 520 521 562 561
4 521 522 563 562
4 522 523 564 563
4 523 524 565 564
4 524 525 566 565
4 525 526 567 566
4 526 527 568 567
4 527 528 569 568
4 528 529 570 569
4 529 530 571 570
4 530 531 572 571
4 531 532 573 572
4 533 534 575 574
4 534 535 576 575
4 535 536 577 576
4 536 537 578 577
4 537 538 579 578
4 538 539 580 579
4 539 540 581 580
4 540 541 582 581
4 541 542 583 582
4 542 543 584 583
4 543 544 585 584
4 544 545 586 585
4 545 546 587 586
4 546 547 588 587
4 547 548 589 588
4 548 549 590 589
4 549 550 591 590
4 550 551 592 591
4 551 552 593 592
4 552 553 594 593
4 553 554 595 594
4 554 555 596 595
4 555 556 597 596
4 556 557 598 597
4 557 558 599 598
4 558 559 600 599
4 559 560 601 600
4 560 561 602 601
4 561 562 603 602
4 562 563 604 603
4 563 564 605 604
4 564 565 606 605
4 565 566 607 606
4 566 567 608 607
4 567 568 609 608
4 568 569 610 609
4 569 570 611 610
4 570 571 612 611
4 571 572 613 612
4 572 573 614 613
4 574 575 616 615
4 575 576 617 616
4 576 577 618 617
4 577 578 619 618
4 578 579 620 619
4 579 580 621 620
4 580 581 622 621
4 581 582 623 622
4 582 583 624 623
4 583 584 625 624
4 584 585 626 625
4 585 586 627 626
4 586 587 628 627
4 587 588 629 628
4 588 589 630 629
4 589 590 631 630
4 590 591 632 631
4 591 592 633 632
4 592 593 634 633
4 593 594 635 634
4 594 595 636 635
4 595 596 637 636
4 596 597 638 637
4 597 598 639 638
4 598 599 640 639
4 599 600 641 640
4 600 601 642 641
4 601 602 643 642
4 602 603 644 643
4 603 604 645 644
4 604 605 646 645
4 605 606 647 646
4 606 607 648 647
4 607 608 649 648
4 608 609 650 649
4 609 610 651 650
4 610 611 652 651
4 611 612 653 652
4 612 613 654 653
4 613 614 655 654
4 615 616 657 656
4 616 617 658 657
4 617 618 659 658
4 618 619 660 659
4 619 620 661 660
4 620 621 662 661
4 621 622 663 662
4 622 623 664 663
4 623 624 665 664
4 624 625 666 665
4 625 626 667 666
4 626 627 668 667
4 627 628 669 668
4 628 629 670 669
4 629 630 671 670
4 630 631 672 671
4 631 632 673 672
4 632 633 674 673
4 633 634 675 674
4 634 635 676 675
4 635 636 677 676
4 636 637 678 677
4 637 638 679 678
4 638 639 680 679
4 639 640 681 680
4 640 641 682 681
4 641 642 683 682
4 642 643 684 683
4 643 644 685 684
4 644 645 686 685
4 645 646 687 686
4 646 647 688 687
4 647 648 689 688
4 648 649 690 689
4 649 650 691 690
4 650 651 692 691
4 651 652 693 692
4 652 653 694 693
4 653 654 695 694
4 654 655 696 695
4 656 657 698 697
4 657 658 699 698
4 658 659 700 699
4 659 660 701 700
4 660 661 702 701
4 661 662 703 702
4 662 663 704 703
4 663 664 705 704
4 664 665 706 705
4 665 666 707 706
4 666 667 708 707
4 667 668 709 708
4 668 669 710 709
4 669 670 711 710
4 670 671 712 711
4 671 672 713 712
4 672 673 714 713
4 673 674 715 714
4 674 675 716 715
4 675 676 717 716
4 676 677 718 717
4 677 678 719 718
4 678 679 720 719
4 679 680 721 720
4 680 681 722 721
4 681 682 723 722
4 682 683 724 723
4 683 684 725 724
4 684 685 726 725
4 685 686 727 726
4 686 687 728 727
4 687 688 729 728
4 688 689 730 729
4 689 690 731 730
4 690 691 732 731
4 691 692 733 732
4 692 693 734 733
4 693 694 735 734
4 694 695 736 735
4 695 696 737 736
4 697 698 739 738
4 698 699 740 739
4 699 700 741 740
4 700 701 742 741
4 701 702 743 742
4 702 703 744 743
4 703 704 745 744
4 704 705 746 745
4 705 706 747 746
4 706 707 748 747
4 707 708 749 748
4 708 709 750 749
4 709 710 751 750
4 710 711 752 751
4 711 712 753 752
4 712 713 754 753
4 713 714 755 754
4 714 715 756 755
4 715 716 757 756
4 716 717 758 757
4 717 718 759 758
4 718 719 760 759
4 719 720 761 760
4 720 721 762 761
4 721 722 763 762
4 722 723 764 763
4 723 724 765 764
4 724 725 766 765
4 725 726 767 766
4 726 727 768 767
4 727 728 769 768
4 728 729 770 769
4 729 730 771 770
4 730 731 772 771
4 731 732 773 772
4 732 733 774 773
4 733 734 775 774
4 734 735 776 775
4 735 736 777 776
4 736 737 778 777
4 738 739 780 779
4 739 740 781 780
4 740 741 782 781
4 741 742 783 782
4 742 743 784 783
4 743 744 785 784
4 744 745 786 785
4 745 746 787 786
4 746 747 788 787
4 747 748 789 788
4 748 749 790 789
4 749 750 791 790
4 750 751 792 791
4 751 752 793 792
4 752 753 794 793
4 753 754 795 794
4 754 755 796 795
4 755 756 797 796
4 756 757 798 797
4 757 758 799 798
4 758 759 800 799
4 759 760 801 800
4 760 761 802 801
4 761 762 803 802
4 762 763 804 803
4 763 764 805 804
4 764 765 806 805
4 765 766 807 806
4 766 767 808 807
4 767 768 809 808
4 768 769 810 809
4 769 770 811 810
4 770 771 812 811
4 771 772 813 812
4 772 773 814 813
4 773 774 815 814
4 774 775 816 815
4 775 776 817 816
4 776 777 818 817
4 777 778 819 818
4 779 780 821 820
4 780 781 822 821
4 781 782 823 822
4 782 783 824 823
4 783 784 825 824
4 784 785 826 825
4 785 786 827 826
4 786 787 828 827
4 787 788 829 828
4 788 789 830 829
4 789 790 831 830
4 790 791 832 831
4 791 792 833 832
4 792 793 834 833
4 793 794 835 834
4 794 795 836 835
4 795 796 837 836
4 796 797 838 837
4 797 798 839 838
4 798 799 840 839
4 799 800 841 840
4 800 801 842 841
4 801 802 843 842
4 802 803 844 843
4 803 804 845 844
4 804 805 846 845
4 805 806 847 846
4 806 807 848 847
4 807 808 849 848
4 808 809 850 849
4 809 810 851 850
4 810 811 852 851
4 811 812 853 852
4 812 813 854 853
4 813 814 855 854
4 814 815 856 855
4 815 816 857 856
4 816 817 858 857
4 817 818 859 858
4 818 819 860 859
CELL_TYPES 800
9
9
9
9
9
9
9
9
9
9
9
9
9
9
9
9
9
9
9
9
9
9
9
9
9
9
9
9
9
9
9
9
9
9
9
9
9
9
9
9
9
9
9
9
9
9
9
9
9
9
9
9
9
9
9
9
9
9
9
9
9
9
9
9
9
9
9
9
9
9
9
9
9
9
9
9
9
9
9
9
9
9
9
9
9
9
9
9
9
9
9
9
9
9
9
9
9
9
9
9
9
9
9
9
9
9
9
9
9
9
9
9
9
9
9
9
9
9
9
9
9
9
9
9
9
9
9
9
9
9
9
9
9
9
9
9
9
9
9
9
9
9
9
9
9
9
9
9
9
9
9
9
9
9
9
9
9
9
9
9
9
9
9
9
9
9
9
9
9
9
9
9
9
9
9
9
9
9
9
9
9
9
9
9
9
9
9
9
9
9
9
9
9
9
9
9
9
9
9
9
9
9
9
9
9
9
9
9
9
9
9
9
9
9
9
9
9
9
9
9
9
9
9
9
9
9
9
9
9
9
9
9
9
9
9
9
9
9
9
9
9
9
9
9
9
9
9
9
9
9
9
9
9
9
9
9
9
9
9
9
9
9
9
9
9
9
9
9
9
9
9
9
9
9
9
9
9
9
9
9
9
9
9
9
9
9
9
9
9
9
9
9
9
9
9
9
9
9
9
9
9
9
9
9
9
9
9
9
9
9
9
9
9
9
9
9
9
9
9
9
9
9
9
9
9
9
9
9
9
9
9
9
9
9
9
9
9
9
9
9
9
9
9
9
9
9
9
9
9
9
9
9
9
9
9
9
9
9
9
9
9
9
9
9
9
9
9
9
9
9
9
9
9
9
9
9
9
9
9
9
9
9
9
9
9
9
9
9
9
9
9
9
9
9
9
9
9
9
9
9
9
9
9
9
9
9
9
9
9
9
9
9
9
9
9
9
9
9
9
9
9
9
9
9
9
9
9
9
9
9
9
9
9
9
9
9
9
9
9
9
9
9
9
9
9
9
9
9
9
9
9
9
9
9
9
9
9
9
9
9
9
9
9
9
9
9
9
9
9
9
9
9
9
9
9
9
9
9
9
9
9
9
9
9
9
9
9
9
9
9
9
9
9
9
9
9
9
9
9
9
9
9
9
9
9
9
9
9
9
9
9
9
9
9
9
9
9
9
9
9
9
9
9
9
9
9
9
9
9
9
9
9
9
9
9
9
9
9
9
9
9
9
9
9
9
9
9
9
9
9
9
9
9
9
9
9
9
9
9
9
9
9
9
9
9
9
9
9
9
9
9
9
9
9
9
9
9
9
9
9
9
9
9
9
9
9
9
9
9
9
9
9
9
9
9
9
9
9
9
9
9
9
9
9
9
9
9
9
9
9
9
9
9
9
9
9
9
9
9
9
9
9
9
9
9
9
9
9
9
9
9
9
9
9
9
9
9
9
9
9
9
9
9
9
9
9
9
9
9
9
9
9
9
9
9
9
9
9
9
9
9
9
9
9
9
9
9
9
9
9
9
9
9
9
9
9
9
9
9
9
9
9
9
9
9
9
9
9
9
9
9
9
9
9
9
9
9
9
9
9
9
9
9
9
9
9
9
9
9
9
9
9
9
9
9
9
9
9
9
9
9
9
9
9
9
9
9
9
9
9
9
9
9
9
9
9
9
9
9
9
9
9
9
9
9
9
9
9
9
9
9
9
9
9
9
9
9
9
9
9
9
9
9
9
9
9
9
9
9
9
9
9
9
9
9
9
9
9
9
9
9
9
9
9
9
9
9
9
9
9
9
9
9
9
9
9
9
9
9
9
POINT_DATA 861
SCALARS Disp float 2
LOOKUP_TABLE default
0.0 0.0
0.0038808299430057604 -0.11452429430464739
0.004837466713521987 -0.22246808422567402
0.005542257307649271 -0.3298092279098984
0.00637814190601649 -0.43686517245335554
0.007509380406719148 -0.5434444312131237
0.009201868167983839 -0.6493048855475488
0.011695985559728912 -0.7541823176464394
0.015254529325727543 -0.8577504778940743
0.02015978926629623 -0.9595841723372802
0.026716912137249315 -1.0591114168144948
0.03529348844070691 -1.1555696940804436
0.04635572765033611 -1.247983666069567
0.06045800711773436 -1.3351829136321203
0.07823202208561784 -1.4158250660060159
0.10030541141049584 -1.488414739670002
0.12715888497422276 -1.5513255964578916
0.15894851836109408 -1.602844419970118
0.19534931268132802 -1.6412919745612244
0.23548645709182095 -1.6652428800464858
0.2779094380835955 -1.6737416069227526
0.32033241907536875 -1.6652428800464465
0.3604695634858564 -1.6412919745611443
0.39687035780608104 -1.6028444199700016
0.42865999119294057 -1.551325596457746
0.45551346475665483 -1.4884147396698366
0.47758685408152074 -1.415825066005834
0.4953608690493918 -1.3351829136319269
0.5094631485167769 -1.2479836660693675
0.5205253877263928 -1.1555696940802445
0.5291019640298384 -1.0591114168143012
0.5356590869007813 -0.9595841723370964
0.5405643468413419 -0.8577504778939027
0.5441228906073338 -0.7541823176462831
0.5466170079990739 -0.6493048855474091
0.5483094957603353 -0.5434444312130039
0.5494407342610363 -0.43686517245325623
0.5502766188594033 -0.32980922790982103
0.5509814094535302 -0.22246808422561778
0.5519380462240457 -0.11452429430461403
0.5558188761670491 0.0
0.028586503495406444 -0.0017351639538590404
0.031168041656927714 -0.11462358564621296
0.03169815850535352 -0.222534136950941
0.032336595255123175 -0.32988571159021557
0.03308590111463722 -0.43696195651720565
0.034073072706563914 -0.543615158164293
0.035554523177042496 -0.6496107038160386
0.03776271039112815 -0.7546822590466561
0.04094151736119635 -0.8585100114481028
0.045341519530477874 -0.9606702701725217
0.051230225731564064 -1.0605992870734275
0.05892458376496651 -1.1575546425096503
0.06883128463505275 -1.2505872634930988
0.0814635796881275 -1.3385495364985245
0.09740580386216288 -1.4201125036306506
0.11724723226753453 -1.4937661567160652
0.14144292356166013 -1.557828502464626
0.17015149564217297 -1.610488853895663
0.2030993617906704 -1.6499414073653023
0.23949226138077814 -1.6746246783593473
0.2779094380835907 -1.6834105932618852
0.31632661478640195 -1.6746246783593075
0.3527195143765049 -1.6499414073652205
0.38566738052499433 -1.6104888538955444
0.41437595260549703 -1.5578285024644773
0.43857164389961156 -1.4937661567158969
0.4584130723049722 -1.4201125036304658
0.47435529647899644 -1.338549536498328
0.4869875915320594 -1.2505872634928965
0.49689429240213384 -1.1575546425094485
0.5045886504355254 -1.0605992870732315
0.5104773566366023 -0.9606702701723359
0.5148773588058765 -0.8585100114479296
0.5180561657759386 -0.7546822590464984
0.5202643529900197 -0.6496107038158979
0.5217458034604956 -0.5436151581641728
0.522732975052421 -0.43696195651710623
0.5234822809119347 -0.3298857115901382
0.5241207176617042 -0.2225341369508848
0.5246508345101301 -0.11462358564617946
0.5272323726716477 -0.0017351639538570158
0.056441264858752165 -0.0030848348271336843
0.05827669138825665 -0.11466511760226782
0.05858485256480819 -0.22257479503717387
0.059106713436845 -0.32995610931604885
0.05977555617366466 -0.4370448611380047
0.06063451763710319 -0.5437521773457809
0.061902667600540376 -0.6498642093344829
0.06382292787681446 -0.7551083893765749
0.06661567655971105 -0.8591686045995465
0.07050367707555986 -0.9616207471471664
0.07571796944792285 -1.0619072181988174
0.08253002602544016 -1.1593017480857444
0.09128960139527298 -1.252880984249202
0.1024508058871621 -1.3415235871467042
0.11655557379924497 -1.4239129767485905
0.1341462777375942 -1.498527063358299
0.15565400886424993 -1.5636345680748385
0.1812551332619607 -1.6173380212317587
0.21073780623306287 -1.6577163269588604
0.24338243135299267 -1.683066889911243
0.27790943808358626 -1.6921205022183978
0.31243644481417854 -1.6830668899112027
0.3450810699341041 -1.6577163269587774
0.37456374290519917 -1.6173380212316382
0.40016486730290124 -1.563634568074688
0.4216725984295473 -1.4985270633581282
0.4392633023678866 -1.4239129767484033
0.4533680702799595 -1.341523587146505
0.4645292747718382 -1.2528809842489967
0.47328885014166067 -1.1593017480855399
0.4801009067191682 -1.061907218198619
0.48531519909152304 -0.9616207471469788
0.4892031996073651 -0.8591686045993718
0.4919959482902562 -0.7551083893764162
0.4939162085665264 -0.6498642093343416
0.4951843585299613 -0.5437521773456604
0.4960433199933989 -0.43704486113790525
0.4967121627302183 -0.3299561093159714
0.49723402360225505 -0.22257479503711772
0.49754218477880674 -0.1146651176022341
0.4993776113083076 -0.0030848348271296055
0.08391451156131183 -0.004158918333529485
0.0852664734623719 -0.11469367958037675
0.08545428557222753 -0.22259737784422312
0.08586114292690507 -0.33001447102939707
0.08644116591507123 -0.437118424101266
0.0871893622207664 -0.5438606981088393
0.08825394250043715 -0.6500656584152805
0.08988329428577976 -0.7554617899675597
0.09228643849740417 -0.8597261632652683
0.09565783546980951 -0.962435586749977
0.10019506755009945 -1.0630355240858091
0.10612536410234887 -1.1608134821400784
0.11374512843924302 -1.2548685681643432
0.1234476059615173 -1.3441062214661215
0.13571258405127565 -1.4272253418596792
0.15104165324008884 -1.502693418499653
0.16984235576152235 -1.5687380301762788
0.19231050004122055 -1.6233873307295084
0.2183019822984269 -1.6646132748681959
0.24720757461129514 -1.6905820734488735
0.2779094380835821 -1.6999014168576452
0.3086113015558677 -1.6905820734488324
0.3375168938687321 -1.6646132748681115
0.36350837612593223 -1.623387330729386
0.38597652040562286 -1.5687380301761262
0.40477722292704793 -1.5026934184994802
0.4201062921158524 -1.4272253418594896
0.43237127020560195 -1.34410622146592
0.4420737477278672 -1.254868568164136
0.44969351206475233 -1.1608134821398715
0.4556238086169932 -1.0630355240856089
0.4601610406972759 -0.9624355867497877
0.4635324376696753 -0.8597261632650925
0.4659355818812949 -0.7554617899674
0.4675649336666342 -0.6500656584151387
0.4686295139463031 -0.5438606981087187
0.4693777102519977 -0.4371184241011664
0.46995773324016354 -0.33001447102931963
0.4703645905948411 -0.22259737784416705
0.4705524027046968 -0.11469367958034282
0.4719043646057537 -0.004158918333523564
0.1111651326549633 -0.005017988207549526
0.11216972110206301 -0.11472174819326872
0.1122908728983383 -0.2226095442840798
0.11259813894929996 -0.3300594313881118
0.1130834204928695 -0.43718280207476773
0.1137268760948549 -0.5439495454382701
0.11461366748390868 -0.6502194687293532
0.11595121654069307 -0.7557432840416927
0.11796356242796885 -0.8601839250500934
0.1208163533973407 -0.9631155850033896
0.12467566818932135 -1.0639859105473475
0.1297282933776415 -1.1620922202694404
0.1362164096402482 -1.2565539186835277
0.14447084775135222 -1.3463017415732812
0.15491080248802455 -1.4300506569163247
0.16797800531169935 -1.5062635530456474
0.18405785838671063 -1.5731349422901129
0.20336924712460008 -1.6286307753675962
0.22584171906296102 -1.670628954844669
0.25100240121981354 -1.69717804569206
0.27790943808357804 -1.7067701594714075
0.30481647494734143 -1.6971780456920182
0.32997715710419023 -1.6706289548445834
0.35244962904254573 -1.628630775367472
0.3717610177804287 -1.5731349422899585
0.3878408708554325 -1.5062635530454727
0.4009080736790998 -1.4300506569161333
0.4113480284157647 -1.3463017415730778
0.41960246652686084 -1.2565539186833186
0.42609058278945994 -1.1620922202692314
0.43114320797777284 -1.0639859105471454
0.43500252276974727 -0.9631155850031989
0.43785531373911396 -0.8601839250499164
0.43986765962638563 -0.7557432840415322
0.4412052086831673 -0.6502194687292109
0.44209200007221977 -0.5439495454381496
0.44273545567420475 -0.4371828020746681
0.44322073721777394 -0.3300594313880343
0.44352800326873565 -0.22260954428402374
0.44364915506501096 -0.1147217481932346
0.44465374351210807 -0.005017988207542037
0.13826758876107456 -0.005701117637458815
0.139010884781134 -0.11475227468027059
0.13909187084810656 -0.22261651456107467
0.1393152929618038 -0.33009188269408585
0.13970389361896096 -0.43723682431958694
0.14024269440977052 -0.5440231139223243
0.1409717640280315 -0.6503354968304144
0.14204165772307745 -0.7559541572316634
0.14365780025136982 -0.8605437903200812
0.14599229487601403 -0.9636628272736892
0.14917533410734937 -1.0647604909239436
0.15335513854336144 -1.163141605874928
0.15872318610655756 -1.2579417934917523
0.16554714241397914 -1.3481150588135322
0.1741744006574153 -1.4323938782635326
0.1849949484185862 -1.5092393636064965
0.19835669289412602 -1.576822870517964
0.21448829817064954 -1.6330623348540847
0.23340750325751186 -1.6757581591826078
0.25479792519976774 -1.7028562534929148
0.277909438083574 -1.712735259986483
0.30102095096737924 -1.7028562534928724
0.3224113729096317 -1.675758159182521
0.3413305779964893 -1.6330623348539592
0.3574621832730074 -1.5768228705178082
0.3708239277485408 -1.50923936360632
0.3816444755097053 -1.4323938782633396
0.39027173375313534 -1.3481150588133273
0.39709569006055045 -1.2579417934915413
0.40246373762374016 -1.1631416058747177
0.4066435420597462 -1.0647604909237405
0.4098265812910764 -0.9636628272734973
0.41216107591571627 -0.8605437903199032
0.41377721844400533 -0.7559541572315023
0.4148471121390493 -0.6503354968302717
0.41557618175730937 -0.5440231139222036
0.4161149825481185 -0.43723682431948724
0.4165035832052755 -0.33009188269400824
0.4167270053189726 -0.22261651456101858
0.41680799138594515 -0.11475227468023633
0.41755128740600256 -0.005701117637450017
0.16526263615514233 -0.006238961765568401
0.1658074610145926 -0.1147852662021466
0.1658602383045248 -0.22262102287289606
0.16601166900274236 -0.3301133889453429
0.16630521010671234 -0.43727925106128246
0.16673526389284993 -0.5440838997441163
0.16731686254076295 -0.6504236699283326
0.16814762890973792 -0.756105059406709
0.16938698261863888 -0.8608078094850447
0.17120016759613998 -0.964080348582277
0.17371116572385104 -1.0653629282132953
0.1770250215577862 -1.1639660543955879
0.18128567100813547 -1.2590381131251667
0.1866979777746428 -1.3495534159426392
0.19353956849914195 -1.4342609649229383
0.20213042968178555 -1.5116261284868366
0.21278385043581252 -1.5798034175073394
0.2257305714132241 -1.636676968924716
0.24105825484497476 -1.679992514737138
0.2586271005408968 -1.7076111853002969
0.2779094380835699 -1.7177979668362107
0.29719177562624177 -1.707611185300254
0.3147606213221611 -1.6799925147370502
0.33008830475390777 -1.6366769689245895
0.3430350257313148 -1.5798034175071825
0.35368844648533654 -1.5116261284866586
0.36227930766797484 -1.434260964922744
0.3691208983924691 -1.3495534159424327
0.3745332051589715 -1.2590381131249544
0.37879385460931564 -1.1639660543953765
0.38210771044324604 -1.0653629282130908
0.384618708570953 -0.9640803485820841
0.3864318935484506 -0.8608078094848661
0.3876712472573491 -0.7561050594065475
0.38850201362632264 -0.6504236699281899
0.3890836122742351 -0.5440838997439956
0.3895136660603724 -0.4372792510611828
0.38980720716434214 -0.3301133889452653
0.38995863786255963 -0.22262102287283994
0.3900114151524917 -0.11478526620211224
0.3905562400119405 -0.006238961765558548
0.1921784535223619 -0.0066553930783736686
0.19257129529788608 -0.11482129172384699
0.19260094355353305 -0.22262378915106867
0.19268811733398944 -0.33012542756329055
0.1928897962448141 -0.43730961785662914
0.19320708806313172 -0.544131654812636
0.19364697792611543 -0.6504889241802544
0.19425849004216034 -0.7562089251740685
0.1951533260198127 -0.8609858851645581
0.19646187198409001 -0.9643724477069568
0.19830251880584138 -1.0657982429692838
0.20075810069338493 -1.164571509555121
0.20392582478125454 -1.2598503373367187
0.20794941638785308 -1.350625797068222
0.21303333308591826 -1.4356620896290744
0.21942685928452518 -1.513431494031837
0.2273915129468841 -1.5820807976901037
0.23715050688916556 -1.6394732617178067
0.24885397759465158 -1.6833216375702411
0.26252829599621613 -1.7114295038098064
0.2779094380835655 -1.7219517085687657
0.2932905801709139 -1.7114295038097629
0.30696489857247633 -1.6833216375701525
0.31866836927795916 -1.6394732617176793
0.3284273632202369 -1.5820807976899458
0.33639201688259185 -1.5134314940316576
0.34278554308119463 -1.435662089628879
0.3478694597792564 -1.3506257970680147
0.35189305138585136 -1.2598503373365055
0.35506077547371717 -1.1645715095549083
0.3575163573612571 -1.0657982429690787
0.3593570041830054 -0.9643724477067633
0.36066555014728036 -0.8609858851643791
0.3615603861249311 -0.7562089251739066
0.36217189824097507 -0.6504889241801117
0.36261178810395844 -0.5441316548125154
0.36292907992227585 -0.4373096178565294
0.3631307588331003 -0.33012542756321295
0.3632179326135566 -0.22262378915101247
0.3632475808692035 -0.11482129172381263
0.3636404226447266 -0.0066553930783630234
0.2190305055765464 -0.006974381222960226
0.21931318674543973 -0.11486036049745615
0.21931832828943748 -0.22262453459491444
0.21934708859142577 -0.3301291459457094
0.21946035402836706 -0.4373281035573872
0.21966297733628817 -0.5441648174721281
0.21995566613812848 -0.6505362123296619
0.220364639903093 -0.7562766847262302
0.22094748624419375 -0.8610939448927346
0.2217860751210423 -0.9645511426455121
0.2229734467726192 -1.0660743045155912
0.22458111106691814 -1.1649667969697404
0.2266690796653365 -1.2603886938986597
0.22932742653132604 -1.3513444465377866
0.23268765375289294 -1.4366105706380299
0.2369218485464115 -1.5146679338747295
0.24222701023604196 -1.5836638511682803
0.24881315556929656 -1.6414529454826068
0.2568629891986286 -1.6857351065578665
0.2665466763550521 -1.7142906363281571
0.27790943808356083 -1.7251821100671163
0.28927219981206903 -1.7142906363281132
0.29895588696849107 -1.6857351065577777
0.30700572059782066 -1.6414529454824787
0.3135918659310727 -1.583663851168122
0.3188970276207005 -1.5146679338745495
0.3231312224142162 -1.4366105706378338
0.32649144963578103 -1.3513444465375788
0.32914979650176845 -1.2603886938984457
0.3312377651001843 -1.1649667969695272
0.3328454293944811 -1.0660743045153853
0.3340328010460559 -0.9645511426453182
0.3348713899229031 -0.8610939448925554
0.3354542362640029 -0.7562766847260682
0.3358632100289669 -0.6505362123295192
0.336155898830807 -0.5441648174720073
0.336358522138728 -0.4373281035572875
0.33647178757566926 -0.33012914594563175
0.3365005478776575 -0.2226245345948582
0.3365056894216551 -0.11486036049742177
0.33678837059054784 -0.006974381222949019
0.24582892864579378 -0.00722183906754351
0.24603572648805616 -0.11490187724074113
0.2460173344392535 -0.2226227162760722
0.2459918530721082 -0.330125444651224
0.2460201190956339 -0.43733494372581494
0.24610769548705422 -0.5441827848662256
0.2462501064299946 -0.6505643599658971
0.24645466192171736 -0.7563169644180319
0.24674436912007142 -0.8611524275992654
0.24715973385790443 -0.9646394599869361
0.24773429375044329 -1.0662102483669202
0.24852004001225478 -1.1651683182395258
0.2495456315376236 -1.2606698617749823
0.25085896166632965 -1.3517281941060229
0.2525282457543329 -1.4371271929730856
0.2546422868466834 -1.5153559861802695
0.2573242002697252 -1.584568449706914
0.2607491493758536 -1.642627249041904
0.26514868929702057 -1.687229423063468
0.2707523552946624 -1.7161670518317296
0.27790943808355595 -1.7274631581921134
0.2850665208724494 -1.7161670518316854
0.2906701868700905 -1.6872294230633786
0.2950697267912559 -1.6426272490417755
0.29849467589738277 -1.5845684497067551
0.3011765893204234 -1.515355986180089
0.3032906304127726 -1.437127192972889
0.30495991450077514 -1.3517281941058146
0.3062732446294804 -1.260669861774768
0.3072988361548482 -1.1651683182393124
0.3080845824166588 -1.0662102483667142
0.3086591423091969 -0.9646394599867419
0.3090745070470294 -0.8611524275990861
0.309364214245383 -0.7563169644178699
0.3095687697371057 -0.6505643599657546
0.30971118068004605 -0.5441827848661049
0.3097987570714663 -0.4373349437257152
0.30982702309499205 -0.3301254446511463
0.3098015417278467 -0.22262271627601596
0.309783149679044 -0.11490187724070676
0.30998994752130604 -0.007221839067531943
0.27258813740589993 -0.0074166234956615515
0.2727420933166467 -0.1149440052766784
0.2727022490904427 -0.22261828578585258
0.2726263512517034 -0.33011489661120247
0.27257283978514374 -0.43733049965507165
0.27254631588759026 -0.5441853940506801
0.27253668771723827 -0.6505727707728136
0.2725345317587836 -0.7563303098832735
0.27253459244951383 -0.8611715429774808
0.2725350459801381 -0.9646673340899582
0.2725353982675696 -1.0662493933836465
0.2725355336841406 -1.1652227596982316
0.2725348537783296 -1.260743451014137
0.27253174437339595 -1.3518281591461494
0.2725262002852005 -1.4372629521424916
0.2725293350189598 -1.5155427510957884
0.27259357827841796 -1.584837094080584
0.27286492070471763 -1.6430307336446093
0.27361609174029994 -1.6878371251541036
0.27517799505278406 -1.7170482541308436
0.27790943808355095 -1.7287647307804495
0.280640881114318 -1.7170482541307992
0.2822027844268019 -1.6878371251540139
0.28295395546238367 -1.6430307336444805
0.2832252978886834 -1.584837094080425
0.2832895411481419 -1.5155427510956079
0.28329267588190143 -1.4372629521422948
0.2832871317937065 -1.3518281591459413
0.2832840223887735 -1.260743451013923
0.283283342482963 -1.165222759698018
0.2832834778995345 -1.0662493933834403
0.28328383018696646 -0.964667334089764
0.283284283717591 -0.8611715429773015
0.2832843444083214 -0.7563303098831117
0.2832821884498668 -0.6505727707726711
0.283272560279515 -0.5441853940505594
0.2832460363819616 -0.4373304996549719
0.283192524915402 -0.3301148966111247
0.2831166270766628 -0.22261828578579632
0.28307678285045873 -0.11494400527664403
0.2832307387612054 -0.00741662349564977
0.2993216033875669 -0.007570777868816443
0.29943713666106175 -0.11498427052135664
0.2993774938021342 -0.22261142452574997
0.299254710823589 -0.33009793374150986
0.299122622253998 -0.43731524777962427
0.298984102880786 -0.5441727557575509
0.29882344306419967 -0.6505612915846662
0.2986143499339111 -0.7563164247867193
0.298324867532098 -0.8611526044164046
0.29791039246025736 -0.964639604617009
0.29733652709605285 -1.0662103292873373
0.2965510897794805 -1.1651681931486872
0.2955242059285013 -1.2606691050823298
0.29420488226790903 -1.3517263858589015
0.29252402647675513 -1.4371256285473222
0.2904152169068825 -1.5153649993145255
0.2878547609415419 -1.5846280443742313
0.2849275575586446 -1.6428232545750348
0.28189571119574414 -1.6877043526360715
0.2792264009227973 -1.7170396969464845
0.2779094380835462 -1.7291986015688683
0.27659247524429476 -1.7170396969464403
0.2739231649713478 -1.687704352635982
0.2708913186084481 -1.6428232545749057
0.26796411522555275 -1.5846280443740726
0.2654036592602141 -1.5153649993143452
0.2632948496903433 -1.4371256285471254
0.2616139938991911 -1.3517263858586939
0.2602946702386008 -1.2606691050821157
0.2592677863876237 -1.165168193148474
0.2584823490710534 -1.066210329287131
0.25790848370685043 -0.9646396046168152
0.2574940086350109 -0.8611526044162253
0.2572045262331984 -0.7563164247865575
0.2569954331029102 -0.6505612915845238
0.25683477328632426 -0.5441727557574304
0.25669625391311246 -0.43731524777952446
0.2565641653435216 -0.33009793374143215
0.2564413823649766 -0.22261142452569369
0.25638173950604903 -0.11498427052132223
0.2564972727795438 -0.0075707778688044935
0.3260432747550769 -0.007689972848713878
0.32612619667024945 -0.11502097667927208
0.3260478819466682 -0.2226020813895313
0.325881222829787 -0.3300749885345533
0.3256738928516083 -0.43728975148132215
0.32542638779262556 -0.5441452424224749
0.3251169224563658 -0.6505301703821658
0.32470452394663396 -0.7562756765539345
0.32412179150715037 -0.8610942868297391
0.32328420053275614 -0.9645514626422798
0.3220974612113304 -1.0660744695401718
0.32048993167320333 -1.1649665468845742
0.3184011458074482 -1.2603871579441102
0.3157382087124631 -1.3513403792763239
0.31236627821348284 -1.436606521743943
0.3081309900777603 -1.5146862479961085
0.30292498316945665 -1.5837827232134347
0.2967776651995757 -1.641846632366291
0.289956756584821 -1.6866905109684405
0.28319538317633736 -1.7162198613708168
0.2779094380835414 -1.7289026284904783
0.2726234929907452 -1.7162198613707726
0.2658621195822619 -1.6866905109683512
0.2590412109675089 -1.6418466323661627
0.25289389299763115 -1.5837827232132766
0.2476878860893312 -1.514686247995929
0.24345259795361177 -1.4366065217437467
0.24008066745463452 -1.3513403792761167
0.23741773035965283 -1.260387157943897
0.23532894449390118 -1.1649665468843615
0.23372141495577758 -1.0660744695399662
0.2325346756343547 -0.9645514626420861
0.23169708465996253 -0.8610942868295598
0.23111435222048007 -0.7562756765537727
0.230701953710749 -0.6505301703820234
0.2303924883744897 -0.5441452424223543
0.2301449833155073 -0.4372897514812224
0.2299376533373289 -0.3300749885344757
0.2297709942204478 -0.22260208138947501
0.22969267949686667 -0.11502097667923766
0.22977560141203915 -0.007689972848701792
0.3527617042527407 -0.007779025505148272
0.3528153196799662 -0.11505263402331195
0.3527183757974414 -0.22259010742021923
0.35251035482864673 -0.33004646883950534
0.3522311406726411 -0.4372545963284328
0.3518783861113434 -0.5441036562383889
0.3514254960706663 -0.6504801463384517
0.35081055576787645 -0.7562074916953231
0.3499163332925511 -0.8609864917110641
0.3486087627396216 -0.964372995818144
0.34676844680640095 -1.0657984472891655
0.3443127059412247 -1.1645711525869158
0.3411449860951804 -1.259848377218577
0.33712002972230626 -1.3506200547687222
0.33202853213130634 -1.435655336683002
0.3256283863421785 -1.513455043555736
0.31772120415407074 -1.5822456129668898
0.30827768417953594 -1.6400315879873624
0.2976422558808341 -1.6847348460517482
0.286832528034854 -1.7144363284498128
0.2779094380835366 -1.727878514387548
0.2689863481322192 -1.7144363284497686
0.25817662028623994 -1.6847348460516591
0.2475411919875409 -1.6400315879872345
0.2380976720130106 -1.5822456129667328
0.23019048982490775 -1.5134550435555574
0.22379034403578438 -1.4356553366828066
0.21869884644478885 -1.3506200547685159
0.21467389007191945 -1.2598483772183648
0.21150617022587995 -1.1645711525867037
0.2090504293607085 -1.0657984472889606
0.20721011342749196 -0.9643729958179509
0.20590254287456547 -0.8609864917108853
0.20500832039924213 -0.7562074916951613
0.20439338009645336 -0.6504801463383095
0.20394049005577686 -0.5441036562382683
0.2035877354944797 -0.4372545963283331
0.2033085213384744 -0.3300464688394277
0.20310050036967994 -0.22259010742016294
0.20300355648715523 -0.11505263402327755
0.20305717191438066 -0.00777902550513609
0.37948296358642075 -0.007842352357759163
0.379510019985849 -0.11507818954902534
0.3793940050707109 -0.22257522642642363
0.37914662323400605 -0.33001273016694593
0.3787987235484218 -0.4372105454860272
0.3783459910597462 -0.5440488125229732
0.3777539105421658 -0.6504122068094487
0.37692192185336876 -0.7561034649841549
0.3756833136425932 -0.8608087308955557
0.3738708387191116 -0.9640810848588279
0.37135968664235336 -1.065363057717187
0.3680454750671026 -1.1639656088226347
0.36378562648495594 -1.259036251292968
0.3583767557023537 -1.3495475240646133
0.35153731869201266 -1.4342527249211223
0.3429389644934591 -1.511649947533632
0.33228612947330244 -1.5799908247933803
0.3195038544260834 -1.6373562293374833
0.305039486129597 -1.6818226491405508
0.2902563313452605 -1.7117180055804746
0.277909438083532 -1.726155950074087
0.2655625448218038 -1.7117180055804306
0.25077939003746896 -1.6818226491404622
0.2363150217409861 -1.6373562293373563
0.22353274669377263 -1.5799908247932248
0.212879911673622 -1.5116499475334548
0.20428155747507415 -1.434252724920928
0.19744212046473886 -1.3495475240644084
0.19203324968214255 -1.259036251292757
0.18777340110000215 -1.163965608822424
0.18445918952475743 -1.0653630577169833
0.18194803744800447 -0.9640810848586356
0.18013556252452678 -0.8608087308953772
0.17889695431375424 -0.7561034649839935
0.17806496562495883 -0.6504122068093063
0.17747288510737927 -0.5440488125228528
0.1770201526187042 -0.4372105454859275
0.17667225293312033 -0.33001273016686833
0.17642487109641578 -0.22257522642636732
0.17630885618127776 -0.11507818954899095
0.176335912580706 -0.007842352357746909
0.4062116420492175 -0.007884176011754488
0.4062150837610164 -0.11509705173658179
0.40607973265776437 -0.22255711194548472
0.40579465676815246 -0.32997414972407546
0.405381297105407 -0.43715818405427287
0.4048341230189746 -0.5439825984441322
0.4040991357589333 -0.6503218704321305
0.4030286186803308 -0.755952583797039
0.4014134419425126 -0.8605450292819778
0.3990789737089488 -0.9636636176548302
0.39589543085662954 -1.0647604762606964
0.39171507979936404 -1.163141074174802
0.3863486238686962 -1.2579405984965244
0.37953341856621975 -1.348111196091785
0.3709216671305118 -1.4323870095803384
0.36009910027601816 -1.509258833594378
0.34668850426912157 -1.5770077002695841
0.33057339535908425 -1.6338129730557727
0.31230115779956896 -1.677955431474095
0.293611511397926 -1.7080871323483968
0.27790943808352764 -1.7237540826268933
0.26220736476912954 -1.708087132348353
0.24351771836748914 -1.6779554314740075
0.22524548080797827 -1.633812973055647
0.20913037189794736 -1.57700770026943
0.1957197758910578 -1.509258833594202
0.18489720903657111 -1.4323870095801454
0.17628545760087022 -1.3481111960915815
0.1694702522984012 -1.2579405984963155
0.16410379636774075 -1.163141074174593
0.15992344531048255 -1.0647604762604943
0.15673990245816952 -0.963663617654639
0.1544054342246107 -0.8605450292818003
0.15279025748679637 -0.7559525837968781
0.15171974040819625 -0.6503218704319885
0.15098475314815607 -0.5439825984440116
0.15043757906172428 -0.4371581840541732
0.15002421939897925 -0.32997414972399786
0.1497391435093676 -0.22255711194542843
0.14960379240611574 -0.11509705173654738
0.14960723411791468 -0.00788417601174219
0.4329511520343239 -0.007908680526533016
0.4329345510227012 -0.11510904673665007
0.43278043655205045 -0.22253552808129715
0.43245914798577917 -0.3299310021421472
0.43198323126689575 -0.43709841756582174
0.4313446746756362 -0.5439046453398986
0.43045756770212806 -0.6502042403692803
0.42912093852320254 -0.7557419315945643
0.4271085691348857 -0.8601853088450159
0.4242550557053835 -0.9631162809202298
0.42039493790186744 -1.063985703253323
0.4153418444829074 -1.1620916483904293
0.4088563698635521 -1.2565539482300234
0.40061526658410185 -1.3463020861863462
0.3902028319520872 -1.4300488221196772
0.3771476093745135 -1.5062773994797716
0.3610003369239799 -1.5732979320335105
0.3416004863156576 -1.6294071703557829
0.3195837081692949 -1.6731415870737905
0.297011798114775 -1.7035464315135083
0.2779094380835232 -1.7206656596768464
0.2588070780522721 -1.7035464315134647
0.23623516799775537 -1.6731415870737039
0.2142183898513981 -1.6294071703556587
0.19481853924308307 -1.573297932033358
0.1786712667925575 -1.5062773994795975
0.16561604421499204 -1.4300488221194863
0.15520360958298554 -1.3463020861861446
0.14696250630354402 -1.2565539482298163
0.1404770316841976 -1.162091648390222
0.13542393826524599 -1.0639857032531224
0.13156382046173715 -0.96311628092004
0.12871030703224076 -0.8601853088448395
0.12669793764392864 -0.7557419315944041
0.12536130846500618 -0.6502042403691386
0.12447420149149963 -0.5439046453397781
0.12383564490024077 -0.43709841756572215
0.12335972818135785 -0.3299310021420696
0.12303843961508687 -0.22253552808124089
0.12288432514443627 -0.11510904673661566
0.12286772413281363 -0.007908680526520684
0.4597036961997451 -0.007920122549664151
0.45967171666425855 -0.11511439384916057
0.45950091651800645 -0.222510446811851
0.4591450412548879 -0.32988342773589224
0.45860849045484414 -0.43703232317803364
0.4578784183548261 -0.5438134615901604
0.4568201334908626 -0.6500500164334788
0.455191213213698 -0.7554605099109579
0.45278643222528114 -0.8597273811016868
0.4494135774481308 -0.9624360705575047
0.44487536821814794 -1.0630351137524292
0.43894500618791404 -1.160813026570726
0.4313294363333225 -1.2548703805715444
0.42164335104625905 -1.3441122388482851
0.40941240687672176 -1.4272317179656704
0.39411406449719516 -1.502705693389237
0.3752779549142695 -1.5688746642640554
0.3527100913217305 -1.6241603939441545
0.32704828859443064 -1.6673911568200448
0.3005661246651799 -1.6980772661168455
0.27790943808351887 -1.7168575387868892
0.2552527515018587 -1.6980772661168027
0.22877058757261176 -1.6673911568199593
0.20310878484531825 -1.6241603939440317
0.18054092125278765 -1.5688746642639047
0.1617048116698711 -1.502705693389065
0.1464064692903538 -1.4272317179654816
0.13417552512082592 -1.3441122388480855
0.12448943983377253 -1.2548703805713395
0.11687386997919112 -1.160813026570521
0.11094350794896674 -1.0630351137522305
0.10640529871899218 -0.9624360705573165
0.1030324439418485 -0.8597273811015116
0.10062766295343711 -0.7554605099107986
0.09899874267627627 -0.6500500164333374
0.09794045781231486 -0.5438134615900403
0.09721038571229769 -0.43703232317793417
0.0966738349122544 -0.3298834277358147
0.09631795964913621 -0.22251044681179477
0.0961471595028842 -0.11511439384912617
0.09611517996739775 -0.007920122549651812
0.48646997630791966 -0.007922883243746721
0.48642905730221875 -0.11511376063008139
0.4862461873778108 -0.22248213181735196
0.485857475086112 -0.3298315464946631
0.4852608232653736 -0.43696029853291696
0.4844330070868738 -0.5437054528081052
0.48317585824593634 -0.6498490356056473
0.48125398435587907 -0.7551066062365543
0.4784576815148376 -0.8591693506481598
0.4745676861816874 -0.9616209300826648
0.4693523276795945 -1.0619066383892972
0.4625409656684749 -1.1593016957980504
0.45378752691258967 -1.2528851289366651
0.44264424849435235 -1.341535803617431
0.42857413176315867 -1.4239291952857498
0.41103024659489995 -1.4985457305125474
0.3895639139492183 -1.5637627370121223
0.3640053021962791 -1.618112370652448
0.334864310911614 -1.660718272340397
0.3044192710570878 -1.6916389303978774
0.27790943808351437 -1.7122631211707637
0.2513996051099421 -1.6916389303978354
0.22095456525542043 -1.6607182723403129
0.19181357397076276 -1.6181123706523275
0.16625496221783298 -1.5637627370119738
0.14478862957216163 -1.4985457305123775
0.12724474440391328 -1.4239291952855635
0.11317462767273025 -1.3415358036172336
0.1020313492545043 -1.2528851289364629
0.09327791049863061 -1.159301695797848
0.08646654848752157 -1.0619066383891012
0.08125118998543795 -0.9616209300824786
0.07736119465229528 -0.859169350647986
0.07456489181125994 -0.7551066062363961
0.07264301792120702 -0.6498490356055067
0.07138586908027222 -0.5437054528079852
0.07055805290177355 -0.4369602985328176
0.06996140108103566 -0.3298315464945856
0.06957268878933724 -0.22248213181729576
0.06938981886492943 -0.11511376063004697
0.06934889985922857 -0.0079228832437344
0.5132485203610971 -0.007921445177659638
0.5132081676036444 -0.1151084447735909
0.513021914957007 -0.2224512997385387
0.5126021676684356 -0.32977527181873906
0.5119422636677454 -0.4368819007518156
0.5109987445458942 -0.5435720966602788
0.5095292516658171 -0.6495960237698171
0.507316075198002 -0.7546792290870522
0.5041322886760948 -0.8585100424471317
0.4997297724066673 -0.9606700796635216
0.493840027627342 -1.0605986173970987
0.48614738960978976 -1.1575553796366265
0.4762488539702608 -1.2505942356093251
0.4636349405684182 -1.338567787469114
0.447724812548427 -1.4201387035644415
0.42794246517534557 -1.4938001727755836
0.4038801160943079 -1.5579836456109086
0.37549215940518355 -1.611327905589312
0.343256428279191 -1.6531651938389254
0.30882168470964216 -1.6841624673357556
0.27790943808350976 -1.7067571017477623
0.24699719145737853 -1.684162467335714
0.21256244788783513 -1.6531651938388425
0.18032671676185108 -1.6113279055891934
0.15193876007273754 -1.5579836456107627
0.12787641099171135 -1.4938001727754164
0.10809406361864146 -1.4201387035642579
0.09218393559866232 -1.3385677874689195
0.07957002219683228 -1.250594235609126
0.0696714865573162 -1.1575553796364269
0.06197884853977561 -1.0605986173969049
0.05608910376046045 -0.9606700796633374
0.05168658749104117 -0.8585100424469595
0.048502800969140863 -0.7546792290868951
0.046289624501330784 -0.6495960237696771
0.04482013162125679 -0.5435720966601593
0.043876612499407025 -0.4368819007517163
0.043216708498717456 -0.3297752718186616
0.04279696121014637 -0.22245129973848254
0.042610708563509146 -0.1151084447735565
0.04257035580605646 -0.007921445177647316
0.5400343327936241 -0.007920230201458173
0.5400097857100096 -0.11510086744529094
0.5398353088410661 -0.22241916367845155
0.5393855684964777 -0.3297144736355
0.5386516159181308 -0.43679317085432284
0.5375710348048262 -0.5434083204251166
0.535886093970412 -0.6492893067169038
0.5333844296019649 -0.7541777191849521
0.5298198129912246 -0.8577495512838446
0.5249114206379303 -0.9595835442586289
0.5183534641526155 -1.0591107851089978
0.509779707885119 -1.1555716291047808
0.4987274005901028 -1.2479938773703843
0.48464367852919077 -1.3352067794756564
0.4668997252569649 -1.4158609926445762
0.4448987154880125 -1.4884728152189721
0.41827037113438315 -1.55154897723042
0.38710739399358146 -1.6038551351835575
0.3521513575273121 -1.64488489406295
0.31463704915424057 -1.6755916463136609
0.27790943808350493 -1.7000000000000004
0.24118182701277033 -1.67559164631362
0.20366751863970498 -1.6448848940628689
0.16871148217344556 -1.6038551351834414
0.13754850503265628 -1.5515489772302766
0.11092016067903966 -1.4884728152188076
0.08891915091010026 -1.4158609926443952
0.07117519763788768 -1.3352067794754647
0.05709147557698962 -1.247993877370188
0.04603916828198749 -1.1555716291045843
0.037465412014503846 -1.0591107851088066
0.03090745552919999 -0.9595835442584469
0.02599906317591468 -0.8577495512836744
0.022434446565182 -0.7541777191847966
0.019932782196740398 -0.6492893067167648
0.018247841362329913 -0.5434083204249973
0.01716726024902693 -0.4367931708542237
0.016433307670680748 -0.32971447363542267
0.015983567326092667 -0.22241916367839545
0.015809090457149417 -0.11510086744525654
0.01578454337353489 -0.007920230201445853
SCALARS Stress float 6
LOOKUP_TABLE default
-915.7574274407784 -1688.2350559819001 -1220.7898571153316 -1.7573574796303086 0.0 0.0
1115.3447840905112 644.829865035487 766.7853389973437 -24.2181853228024 0.0 0.0
484.0515132983762 61.20156105027612 162.8754022186619 -33.03841757953887 0.0 0.0
431.8564730719585 15.07229226286261 133.5748283885679 -4.184261431586987 0.0 0.0
528.8055099237035 38.433618984653 178.29248876001574 -1.220973356959608 0.0 0.0
598.2795280306245 65.73313347281615 247.18149637934246 -0.5066934496992372 0.0 0.0
682.9610856836917 81.86887308153732 322.7069194167727 -1.1534438517672516 0.0 0.0
764.4086309610535 115.52529815525396 403.2722933902629 -1.6664225938407835 0.0 0.0
849.7876169888249 159.8845056823501 482.53742379150754 -2.2117116365638334 0.0 0.0
946.3772626333556 219.46626067280297 567.6565576873311 -2.9431411585105662 0.0 0.0
1058.0536512251635 296.3592134388921 664.7978246790954 -3.795065559021727 0.0 0.0
1183.9910367969035 390.07422417889603 775.4522886704029 -4.709441448072309 0.0 0.0
1320.4617793987493 493.9709667534628 895.404309330697 -5.276767683568462 0.0 0.0
1463.589914682836 604.3795013016534 1021.6002740454835 -5.758609898297102 0.0 0.0
1606.031607372931 714.3300159954376 1147.0779364336481 -6.1731688224350485 0.0 0.0
1740.234762050409 817.1029170900389 1264.866395921835 -6.521324972038461 0.0 0.0
1859.971698474028 907.8724037483288 1369.5677082297632 -6.594451525025654 0.0 0.0
1959.0762540178623 981.924928701497 1455.8465064960772 -6.101169677211758 0.0 0.0
2033.0832988434931 1036.111685404912 1519.852702067153 -4.94423485691777 0.0 0.0
2073.642291011016 1063.5286186439514 1553.9159024547403 -4.052234710501585 0.0 0.0
2072.7639473109384 1059.3305206672703 1551.7000760755582 2.9132252166164108e-12 0.0 0.0
2073.642291010329 1063.5286186432754 1553.9159024542241 4.052234710506138 0.0 0.0
2033.0832988426223 1036.1116854040638 1519.8527020664178 4.944234856933424 0.0 0.0
1959.0762540172707 981.9249287009536 1455.846506495528 6.101169677209464 0.0 0.0
1859.9716984736785 907.8724037480541 1369.5677082292798 6.594451525013486 0.0 0.0
1740.234762049903 817.102917089609 1264.866395921401 6.521324972066035 0.0 0.0
1606.0316073730892 714.3300159957021 1147.0779364335963 6.1731688224134995 0.0 0.0
1463.5899146825761 604.3795013015226 1021.6002740451806 5.758609898346501 0.0 0.0
1320.461779397999 493.9709667528459 895.4043093299945 5.276767683528012 0.0 0.0
1183.991036795547 390.0742241776871 775.4522886693628 4.709441448113404 0.0 0.0
1058.0536512244441 296.35921343835105 664.7978246784526 3.7950655589575355 0.0 0.0
946.377262633076 219.46626067272342 567.6565576870457 2.9431411583885065 0.0 0.0
849.7876169878374 159.88450568153974 482.53742379072247 2.211711636505628 0.0 0.0
764.4086309607702 115.52529815523255 403.27229338995016 1.666422593839977 0.0 0.0
682.9610856833826 81.86887308146663 322.7069194163992 1.1534438518555685 0.0 0.0
598.2795280303361 65.73313347282604 247.18149637904887 0.5066934497164635 0.0 0.0
528.8055099231697 38.4336189842555 178.29248875969358 1.2209733570529924 0.0 0.0
431.85647307175407 15.072292262829405 133.5748283885088 4.184261431530538 0.0 0.0
484.051513297991 61.20156105002803 162.87540221848016 33.03841757947992 0.0 0.0
1115.344784090174 644.8298650351028 766.7853389968428 24.21818532283416 0.0 0.0
-915.7574274384426 -1688.235055979537 -1220.789857112984 1.7573574791138533 0.0 0.0
-1166.3135571365492 -1905.5508820344105 -1413.2999267616553 0.6498065219979434 0.0 0.0
750.5353290286863 366.5206157023594 475.67019243479666 -39.92834958041739 0.0 0.0
333.4043532420915 23.419644882759965 106.74497199772462 -25.876593058499417 0.0 0.0
382.07243806954 2.6034480359727254 115.45972932071867 -16.40683593320782 0.0 0.0
471.41975835765726 15.155647024855838 149.50129014504918 -14.984441434955297 0.0 0.0
551.5810016029262 19.79766768538004 202.14478807176832 -17.607568022448124 0.0 0.0
614.3646641623908 27.73619982048082 265.6132215343535 -19.86484133400761 0.0 0.0
679.554676870839 42.70938159025803 329.42798129632274 -20.689465848115308 0.0 0.0
741.8801723026074 63.18655020317806 386.3722259076426 -20.742826718418318 0.0 0.0
806.7535053510657 91.30852737759592 440.9436740358554 -20.57688670547752 0.0 0.0
876.1928795015434 126.71343539564724 497.00537085144106 -20.177565477411793 0.0 0.0
949.2578464496498 166.40493972401757 554.8640152551361 -19.75877456047842 0.0 0.0
1022.3228859592186 208.41636469226927 612.8377522373045 -19.161831176904883 0.0 0.0
1093.20141637035 246.75702349186207 667.43229062189 -18.541948777879682 0.0 0.0
1155.216249755586 276.57506029130826 713.2146956455068 -18.09533298925175 0.0 0.0
1203.2778537940028 293.5323885363928 745.5803491135845 -17.636996345504905 0.0 0.0
1234.4843543443953 295.9435287862515 762.3076836503625 -16.80178423196954 0.0 0.0
1249.8471799379795 286.23758480477585 765.1859742872709 -15.15322068597879 0.0 0.0
1251.665020780874 268.1554891277346 757.2770826301166 -12.561116154990353 0.0 0.0
1231.1684853040454 234.3770804470474 730.7274554302344 -9.65407305522325 0.0 0.0
1191.8360481930142 191.74269112697647 690.6539000814414 9.495515485014039e-12 0.0 0.0
1231.1684853036495 234.37708044666462 730.7274554298912 9.654073055224195 0.0 0.0
1251.66502078035 268.15548912724245 757.277082629732 12.561116155028637 0.0 0.0
1249.8471799375047 286.237584804347 765.185974286901 15.153220686011554 0.0 0.0
1234.4843543443158 295.94352878622976 762.307683650237 16.80178423200087 0.0 0.0
1203.277853793404 293.53238853586663 745.5803491131338 17.636996345529298 0.0 0.0
1155.2162497557367 276.5750602915616 713.2146956455216 18.095332989295578 0.0 0.0
1093.2014163704612 246.75702349208976 667.432290621913 18.541948777900245 0.0 0.0
1022.3228859588529 208.41636469204553 612.837752236996 19.1618311768894 0.0 0.0
949.2578464489386 166.40493972346547 554.8640152546443 19.7587745605226 0.0 0.0
876.1928795013205 126.7134353956094 497.0053708512136 20.177565477390942 0.0 0.0
806.7535053507328 91.3085273774451 440.94367403556396 20.57688670544764 0.0 0.0
741.8801723018703 63.18655020261621 386.37222590706335 20.742826718362203 0.0 0.0
679.5546768705491 42.70938159021612 329.4279812960273 20.689465848118427 0.0 0.0
614.3646641620287 27.73619982035402 265.61322153399556 19.86484133403821 0.0 0.0
551.5810016027453 19.797667685494332 202.1447880715825 17.607568022368703 0.0 0.0
471.4197583571873 15.155647024668063 149.50129014482837 14.984441434943573 0.0 0.0
382.0724380694164 2.603448036061572 115.45972932071817 16.406835933168363 0.0 0.0
333.4043532420007 23.419644882636963 106.74497199766279 25.876593058394835 0.0 0.0
750.5353290282397 366.5206157019613 475.6701924342868 39.928349580470986 0.0 0.0
-1166.313557134722 -1905.5508820324874 -1413.2999267597115 -0.6498065224922467 0.0 0.0
-947.2481812367946 -1652.0968931452549 -1165.7577129134556 -40.07366152461829 0.0 0.0
553.1189086408026 270.8054897180701 340.5830825167017 -102.274300189771 0.0 0.0
242.8494229684374 34.58258689845307 83.22953729559026 -25.62344580194332 0.0 0.0
326.42393442564173 -1.5855486211464702 97.45277177706379 -35.73642095020625 0.0 0.0
422.79750532677065 10.37178241912213 130.53937726437013 -36.63751064937013 0.0 0.0
520.3881471296315 16.57204565598041 178.6345876459531 -35.090502572610006 0.0 0.0
586.1234819794807 26.883553702909587 242.3628660322374 -37.77889527949186 0.0 0.0
653.6831266813859 37.1452994870662 305.97487105402365 -39.32009503072018 0.0 0.0
715.3733315129351 55.53975980251214 364.175614986444 -39.69682096856029 0.0 0.0
777.7862114001219 80.12907361283997 417.7263264817163 -39.49768953020568 0.0 0.0
843.2719647448329 111.52763567676385 471.07596229934455 -38.86672367588032 0.0 0.0
911.505282553623 148.00964961590304 525.6559588539227 -37.822272359770295 0.0 0.0
981.6107235336252 185.39119206359356 580.2238198689298 -36.652415686666835 0.0 0.0
1047.7616312937184 220.65342974896444 631.1052724471585 -35.49678993504391 0.0 0.0
1106.4374340424588 247.4081683218415 673.7287315844117 -34.581800543930136 0.0 0.0
1152.154642945798 262.3099642758866 703.9028494373005 -33.618278474029196 0.0 0.0
1183.441244205008 264.9613930442175 720.8127863473685 -31.953105312774554 0.0 0.0
1199.9406146087008 256.3530402342045 724.8876160524283 -28.94869562219009 0.0 0.0
1199.4608877939597 235.73204834972296 714.6996135173601 -24.42299810535203 0.0 0.0
1185.66472065503 208.51760789421354 694.59985421211 -18.22939261544158 0.0 0.0
1134.4706974943733 154.16963716667908 643.0590891801374 1.0884626533425035e-11 0.0 0.0
1185.6647206547327 208.5176078939374 694.599854211841 18.229392615480045 0.0 0.0
1199.4608877939793 235.73204834978492 714.6996135173796 24.422998105451626 0.0 0.0
1199.9406146083793 256.3530402339359 724.8876160521404 28.948695622242916 0.0 0.0
1183.4412442044302 264.96139304368927 720.8127863469045 31.95310531280722 0.0 0.0
1152.1546429451892 262.3099642753466 703.9028494368104 33.618278474034625 0.0 0.0
1106.437434042495 247.40816832199934 673.7287315843444 34.58180054404275 0.0 0.0
1047.7616312935888 220.6534297489405 631.1052724469902 35.49678993506253 0.0 0.0
981.6107235328053 185.39119206289035 580.2238198682701 36.65241568666206 0.0 0.0
911.5052825536076 148.00964961605806 525.6559588538786 37.82227235975861 0.0 0.0
843.2719647449255 111.52763567703799 471.0759622993334 38.86672367583363 0.0 0.0
777.7862113995561 80.12907361245728 417.7263264812653 39.49768953021155 0.0 0.0
715.3733315124277 55.53975980218694 364.1756149860112 39.69682096849227 0.0 0.0
653.6831266811639 37.14529948711985 305.97487105375825 39.32009503070573 0.0 0.0
586.1234819789768 26.883553702653636 242.36286603180704 37.77889527949969 0.0 0.0
520.3881471291401 16.57204565568192 178.63458764559982 35.09050257250061 0.0 0.0
422.7975053266074 10.371782419355636 130.5393772643759 36.63751064933668 0.0 0.0
326.42393442557125 -1.585548621115063 97.45277177705454 35.736420950154105 0.0 0.0
242.849422968377 34.58258689824267 83.22953729550905 25.623445801833462 0.0 0.0
553.1189086403612 270.80548971781 340.5830825162634 102.27430018968616 0.0 0.0
-947.248181235131 -1652.0968931434925 -1165.7577129116205 40.07366152429992 0.0 0.0
-759.2022236028615 -1432.0283380781764 -951.7005130334705 -55.207093461570835 0.0 0.0
408.50520958496793 176.82159867391954 235.45547106119946 -141.5096685546616 0.0 0.0
180.0815042721474 38.991801934259954 65.7219918619222 -47.76058797114264 0.0 0.0
272.49703658596314 3.2641316280116404 82.73386590623628 -53.392857171116795 0.0 0.0
369.9634188287578 3.908064041941687 111.41323388489131 -59.767123595257004 0.0 0.0
473.45398801935545 12.398876513485806 153.7122700980302 -55.17946281321312 0.0 0.0
558.1207768571021 22.450224704737273 214.98805189565905 -57.309182725183675 0.0 0.0
622.4992215022322 31.94438870492284 278.6297251028687 -58.331214268850395 0.0 0.0
684.7552185493283 47.82263389243596 338.20926120943517 -58.50468715632286 0.0 0.0
745.0065391653193 69.22460844445192 391.5673697670101 -58.06359895308469 0.0 0.0
806.3199573712435 96.6251193634722 442.52944727697064 -56.97066135039441 0.0 0.0
870.5635507920961 128.32458172479363 493.71946395760426 -55.41052082698378 0.0 0.0
935.9229394275601 162.97594732702834 545.1661894118294 -53.560574191415625 0.0 0.0
998.8368252574729 193.24430880873075 592.1925570106641 -52.04909451185114 0.0 0.0
1053.6001250452014 217.01548549282944 631.4635192346843 -50.73504265136549 0.0 0.0
1097.8825077384397 231.34503579208175 660.6555570018451 -49.2678479156423 0.0 0.0
1129.7320978382122 234.32887591035293 678.0327387737814 -46.99099534974231 0.0 0.0
1146.7986740828314 225.97260868633498 682.6099632025871 -42.98094931308502 0.0 0.0
1148.2202080165953 206.76398888183328 674.1176948767275 -36.56469544450474 0.0 0.0
1137.7319450780974 182.15297875330754 656.8854898490118 -26.340441632057747 0.0 0.0
1064.218799801893 105.32772124113697 583.6396867906157 -9.681144774731365e-14 0.0 0.0
1137.7319450777184 182.15297875295505 656.8854898487482 26.34044163214233 0.0 0.0
1148.2202080167735 206.76398888206353 674.1176948768191 36.564695444613534 0.0 0.0
1146.7986740829592 225.97260868651915 682.6099632026373 42.98094931316447 0.0 0.0
1129.7320978376044 234.32887590979553 678.0327387732605 46.99099534976204 0.0 0.0
1097.882507738416 231.34503579215206 660.6555570017722 49.26784791567456 0.0 0.0
1053.6001250449065 217.01548549262333 631.4635192343967 50.73504265143493 0.0 0.0
998.8368252573401 193.24430880871435 592.192557010515 52.04909451185657 0.0 0.0
935.9229394268709 162.97594732646726 545.1661894112644 53.560574191434796 0.0 0.0
870.5635507922598 128.3245817251302 493.71946395764417 55.41052082701849 0.0 0.0
806.3199573713135 96.62511936372388 442.52944727695035 56.97066135035182 0.0 0.0
745.0065391648247 69.2246084441342 391.5673697665987 58.06359895302583 0.0 0.0
684.7552185490074 47.82263389235598 338.2092612091324 58.50468715633019 0.0 0.0
622.4992215019281 31.944388704846503 278.6297251025473 58.33121426884004 0.0 0.0
558.1207768567776 22.45022470472139 214.98805189535125 57.30918272509639 0.0 0.0
473.45398801855805 12.398876512849071 153.71227009755782 55.179462813131195 0.0 0.0
369.9634188286141 3.9080640422626947 111.41323388495294 59.76712359524724 0.0 0.0
272.4970365858218 3.2641316278843373 82.73386590615442 53.392857170999775 0.0 0.0
180.08150427212897 38.991801934171 65.72199186188998 47.760587971013535 0.0 0.0
408.5052095845717 176.82159867376583 235.45547106085272 141.50966855450778 0.0 0.0
-759.2022236014361 -1432.0283380766134 -951.7005130318508 55.207093461402074 0.0 0.0
-597.331698023867 -1237.5300635864517 -764.9009393383479 -58.16989265997661 0.0 0.0
303.97046177307396 96.35506427771087 156.77437632401163 -169.0183447392503 0.0 0.0
133.13866963651762 36.0300706666411 50.75062209094761 -75.70597031989752 0.0 0.0
222.06453941096132 10.099927304688332 69.64861814460367 -72.75674426057 0.0 0.0
311.2365059558849 3.6647149360593336 94.55894927760184 -80.50247920291966 0.0 0.0
420.050886773069 2.646354913640221 127.6675940005444 -81.24655739460758 0.0 0.0
516.4917021529766 15.92766186116635 183.19737679978425 -77.1248610022414 0.0 0.0
585.6039547837822 28.948436954630218 248.2137880402192 -77.20704573894771 0.0 0.0
648.5818496943293 40.407259007290165 307.6537896708419 -77.21887734226988 0.0 0.0
707.164774832168 58.50220495144404 361.29781178139956 -76.23895930390955 0.0 0.0
765.3716136522772 81.53901765566675 410.6347610435049 -74.62946564948409 0.0 0.0
825.1166892175661 108.73377546707493 458.8036050202208 -72.42970518383513 0.0 0.0
886.4193855911767 138.15318982470248 506.4605896313428 -70.1495648230431 0.0 0.0
944.7791178781442 166.41101792783505 550.7120255267203 -68.15836231547996 0.0 0.0
996.7489546378301 186.80440400406783 587.0791069423119 -66.49445003934237 0.0 0.0
1039.1977650496203 198.6899778731011 614.1594266465202 -64.70988377328267 0.0 0.0
1071.7191020016326 203.09383969860107 632.6123371502492 -61.96965934362545 0.0 0.0
1091.1612055667465 196.78316165692425 639.4582439914789 -57.20754491535955 0.0 0.0
1095.4918054922616 179.56477184809006 633.4539461384047 -48.921078547889884 0.0 0.0
1085.9728303863517 154.45279511039115 616.4486522857599 -34.804044771787794 0.0 0.0
984.2353888322016 49.10837009226521 515.8444986858992 5.161737703929248e-11 0.0 0.0
1085.9728303862562 154.45279511032757 616.4486522857383 34.80404477194637 0.0 0.0
1095.4918054921236 179.5647718480156 633.4539461382699 48.92107854802257 0.0 0.0
1091.161205567078 196.78316165731246 639.4582439917439 57.207544915476184 0.0 0.0
1071.7191020011967 203.09383969822306 632.6123371498625 61.96965934367257 0.0 0.0
1039.197765049952 198.68997787352097 614.1594266467328 64.7098837733164 0.0 0.0
996.7489546371884 186.80440400352722 587.0791069417685 66.49445003937866 0.0 0.0
944.779117878116 166.41101792792 550.7120255266924 68.15836231551549 0.0 0.0
886.4193855910013 138.15318982467863 506.4605896311968 70.14956482309074 0.0 0.0
825.1166892175537 108.7337754672057 458.8036050201827 72.42970518385765 0.0 0.0
765.3716136518398 81.53901765536762 410.63476104313605 74.62946564940889 0.0 0.0
707.1647748317266 58.5022049511854 361.29781178102286 76.23895930385925 0.0 0.0
648.5818496941836 40.40725900740037 307.6537896706456 77.2188773422678 0.0 0.0
585.603954783327 28.948436954438616 248.21378803982142 77.20704573891598 0.0 0.0
516.4917021528564 15.927661861450748 183.1973767996599 77.12486100224217 0.0 0.0
420.0508867724593 2.646354913275381 127.6675940002342 81.24655739457376 0.0 0.0
311.2365059556554 3.664714936087222 94.5589492775432 80.50247920285253 0.0 0.0
222.06453941087887 10.099927304709963 69.64861814458553 72.7567442604093 0.0 0.0
133.13866963657372 36.03007066673486 50.75062209099258 75.70597031971906 0.0 0.0
303.9704617726851 96.35506427758618 156.77437632372525 169.018344739111 0.0 0.0
-597.3316980227098 -1237.5300635851158 -764.9009393369665 58.16989265986213 0.0 0.0
-456.2467135074449 -1064.8864695260431 -602.1806869393897 -61.913032144021706 0.0 0.0
222.01014192497652 35.80643510775613 98.56470516752772 -181.7277513193163 0.0 0.0
95.82279802375481 28.453079574775792 37.282763279559184 -102.12946048744033 0.0 0.0
174.83984178876642 15.637341831233567 57.143155085999986 -92.90284084065897 0.0 0.0
256.5063496563667 3.8892672571901112 78.1078217788184 -100.40749128328356 0.0 0.0
351.3586398496454 0.23555333636672252 104.93904786766589 -104.13224564493767 0.0 0.0
453.2870658642815 10.319798917743192 150.24220858634467 -99.50572100962263 0.0 0.0
543.1967607058914 20.52881651519641 210.60864982435112 -98.06886458142333 0.0 0.0
602.8244531972485 34.81094185257518 271.8017381575764 -94.93891012670767 0.0 0.0
663.3758272065212 47.69023991663893 325.48364564593885 -94.16820538746997 0.0 0.0
718.7315653977395 66.49822392252639 374.0033379026328 -91.86313031941302 0.0 0.0
774.1867459798813 88.97202969317868 419.663408462929 -88.97455127804828 0.0 0.0
830.9519791064192 114.24134449218506 464.32299144074705 -86.14724374043149 0.0 0.0
885.4642841377448 137.43831989781634 504.9205668554844 -83.88673418638129 0.0 0.0
934.2512069116423 155.79708761636527 539.0604418176176 -81.94377756666229 0.0 0.0
975.0918149549751 167.17374514842786 565.2284848673944 -79.71660185231933 0.0 0.0
1008.1184873075441 170.590843912117 583.446220754324 -76.81637752921117 0.0 0.0
1030.6805254478452 167.23372122963795 593.3583376378452 -71.56610310202528 0.0 0.0
1039.4346557676593 153.70257509942488 591.4799311598209 -61.67907792768831 0.0 0.0
1030.3398245165704 126.71142917801416 573.8089920015342 -44.09485449941691 0.0 0.0
893.8313682746054 -13.713227602175337 439.754552077166 7.608669250203093e-11 0.0 0.0
1030.3398245168758 126.71142917836957 573.808992001807 44.09485449952562 0.0 0.0
1039.434655767351 153.70257509917627 591.4799311596029 61.67907792783882 0.0 0.0
1030.6805254481114 167.23372123001386 593.3583376380316 71.5661031022079 0.0 0.0
1008.1184873066293 170.59084391123812 583.4462207535946 76.81637752928137 0.0 0.0
975.0918149554096 167.17374514898177 565.2284848676877 79.71660185237899 0.0 0.0
934.2512069111665 155.79708761597232 539.0604418171879 81.94377756669913 0.0 0.0
885.464284137879 137.43831989808538 504.9205668555445 83.88673418639856 0.0 0.0
830.9519791059288 114.24134449182871 464.32299144037114 86.14724374047525 0.0 0.0
774.1867459794073 88.97202969280133 419.66340846258106 88.9745512779889 0.0 0.0
718.7315653972043 66.49822392217459 374.0033379021634 91.86313031939257 0.0 0.0
663.3758272061165 47.6902399164406 325.4836456456024 94.1682053874929 0.0 0.0
602.8244531967575 34.810941852265444 271.8017381571612 94.93891012665047 0.0 0.0
543.1967607055901 20.52881651525877 210.60864982408168 98.06886458143177 0.0 0.0
453.2870658638841 10.319798917645421 150.24220858609166 99.50572100959991 0.0 0.0
351.3586398491904 0.2355533363877771 104.93904786755623 104.13224564477477 0.0 0.0
256.5063496561991 3.8892672571567086 78.10782177875674 100.40749128318045 0.0 0.0
174.83984178871145 15.637341831277709 57.143155085996746 92.90284084049289 0.0 0.0
95.82279802373806 28.453079574805784 37.28276327956315 102.12946048729303 0.0 0.0
222.01014192465829 35.8064351076784 98.56470516731763 181.72775131912155 0.0 0.0
-456.246713506451 -1064.8864695248296 -602.1806869382023 61.9130321439589 0.0 0.0
-337.4352641592147 -904.6810114456259 -462.54125236947743 -66.61464707341429 0.0 0.0
158.38602383460173 -12.688640822994085 55.26135141142148 -187.70772926082037 0.0 0.0
64.52696332311898 19.660357914355053 25.256196371242208 -124.21460783561648 0.0 0.0
130.39731657964032 19.022070616878448 44.82581615895563 -112.20487496575997 0.0 0.0
201.49661313883686 6.392734192043947 62.373616380784064 -117.93999262473429 0.0 0.0
279.0594679509703 -1.1857499198861863 83.05682747118942 -124.82521105048025 0.0 0.0
382.6183055843087 0.20907715585321152 116.33237821503496 -126.69201261059777 0.0 0.0
473.0101997630788 14.949848800402387 168.94514409598418 -118.26446993818573 0.0 0.0
552.849583735772 23.093778922603438 226.65620515107938 -116.51899599436595 0.0 0.0
608.4237945480145 37.98260417642631 282.1569588642157 -111.03180974676148 0.0 0.0
664.499418678296 51.39096877207161 330.2632252276924 -108.63449837333181 0.0 0.0
716.2522262282475 68.82976596781074 374.2246099994667 -105.19200688284391 0.0 0.0
768.5086794772074 89.38632890799408 416.34301473420254 -101.83799563993244 0.0 0.0
818.640048471439 108.86417495887298 454.3360717241897 -99.21096205134083 0.0 0.0
864.1532676390007 124.34251610524856 486.25824436585054 -96.90209762437392 0.0 0.0
903.656342452986 133.02772388909887 510.6660807255358 -94.80132784906375 0.0 0.0
936.4593503690353 138.75198628283684 530.0593151486105 -91.35935273226617 0.0 0.0
963.1158370234195 137.816290388713 543.2534690085585 -85.8199029804095 0.0 0.0
977.7674126083548 127.75673915297097 546.110583951778 -75.1218266724872 0.0 0.0
970.1887368481949 99.79095284049548 528.884042203529 -54.755199315459485 0.0 0.0
790.9347428635701 -83.4298268026752 354.29555657297664 9.891110153148475e-11 0.0 0.0
970.1887368486999 99.79095284106518 528.8840422038683 54.75519931557518 0.0 0.0
977.7674126079206 127.75673915261375 546.1105839514845 75.12182667266148 0.0 0.0
963.1158370236404 137.8162903890598 543.2534690087078 85.81990298063747 0.0 0.0
936.4593503682621 138.75198628212527 530.0593151479908 91.3593527323394 0.0 0.0
903.6563424535822 133.02772388982683 510.66608072595585 94.80132784917909 0.0 0.0
864.1532676384932 124.34251610485208 486.2582443654589 96.90209762439723 0.0 0.0
818.6400484713814 108.86417495892763 454.33607172411064 99.21096205142732 0.0 0.0
768.5086794768785 89.38632890780625 416.34301473390354 101.83799563997746 0.0 0.0
716.2522262280572 68.82976596781663 374.22460999931377 105.1920068828567 0.0 0.0
664.499418678143 51.39096877209791 330.26322522747296 108.63449837333457 0.0 0.0
608.4237945475803 37.98260417616517 282.15695886385714 111.03180974669317 0.0 0.0
552.8495837351333 23.093778922186146 226.65620515056955 116.51899599430618 0.0 0.0
473.0101997627816 14.949848800489034 168.94514409578218 118.2644699382135 0.0 0.0
382.6183055837043 0.20907715549846317 116.3323782147197 126.69201261047358 0.0 0.0
279.05946795069343 -1.1857499199487305 83.05682747109084 124.8252110503537 0.0 0.0
201.496613138721 6.392734192156664 62.3736163807833 117.9399926246113 0.0 0.0
130.3973165794806 19.02207061673068 44.82581615886338 112.20487496559764 0.0 0.0
64.52696332309652 19.660357914452568 25.256196371264732 124.21460783545801 0.0 0.0
158.3860238342215 -12.688640823164334 55.26135141120009 187.70772926061497 0.0 0.0
-337.43526415844946 -904.6810114445761 -462.54125236853207 66.61464707342604 0.0 0.0
-231.78810639594911 -772.4438268688111 -343.26449080956996 -82.98802371487159 0.0 0.0
102.2709523485241 -47.44772833350678 21.49730719310109 -184.35770750331685 0.0 0.0
37.28926625457465 12.121838932395114 14.82336233174168 -141.51949114337188 0.0 0.0
88.11946320046374 20.450099210682477 32.570868723343864 -129.24522604103436 0.0 0.0
146.46604465819655 9.09105576019618 46.66836503368652 -133.22643683183637 0.0 0.0
208.4924564600666 0.001400276663172273 62.45037404709311 -141.7104589850435 0.0 0.0
291.5838114887025 -1.9977311668408804 86.18415324765738 -149.11539392935086 0.0 0.0
385.51770478125496 3.5183837189352327 123.36817125754598 -142.89317183701402 0.0 0.0
472.0386054692608 15.415161460330543 174.32142755105204 -135.10198306571993 0.0 0.0
542.3582840514974 22.933455934086716 225.96859319500024 -131.1942384487526 0.0 0.0
596.6904111820103 35.42093587778358 274.59084050927396 -124.9293519145073 0.0 0.0
646.0901181930517 48.63580709970621 317.9838739593504 -120.61925986358128 0.0 0.0
695.1363385620773 64.28479998173827 358.69923676601843 -117.10324152206817 0.0 0.0
740.6841418482369 79.26136896478401 394.6706917332491 -114.13351101236204 0.0 0.0
783.1442090796234 91.2154825912686 425.02783102044924 -111.60010728015605 0.0 0.0
820.4911184751663 99.66168612289731 449.1961387732004 -109.28751299253398 0.0 0.0
853.821133174314 103.87087603612372 468.5035913371869 -106.09569159678027 0.0 0.0
883.3205519668761 106.0170397104615 484.7614184502178 -99.95997459647472 0.0 0.0
905.9335238894247 103.29468228309034 495.4104339131045 -88.86596156023549 0.0 0.0
903.3659918470819 76.18870749996222 481.4805365731838 -67.43395467630874 0.0 0.0
669.8179089338391 -160.4354871449573 256.6871101327751 6.709299782414746e-11 0.0 0.0
903.3659918472891 76.18870750029504 481.48053657336266 67.43395467656003 0.0 0.0
905.9335238888855 103.29468228260663 495.41043391272433 88.86596156046046 0.0 0.0
883.3205519670402 106.01703971073549 484.7614184503454 99.95997459667069 0.0 0.0
853.8211331737673 103.87087603564535 468.5035913367271 106.0956915968806 0.0 0.0
820.4911184753979 99.66168612324105 449.1961387733673 109.28751299261737 0.0 0.0
783.1442090791325 91.21548259082611 425.0278310200903 111.60010728012298 0.0 0.0
740.6841418479329 79.2613689646207 394.6706917330081 114.13351101242301 0.0 0.0
695.1363385618452 64.28479998166912 358.6992367658157 117.10324152214602 0.0 0.0
646.0901181930313 48.63580709982139 317.98387395928967 120.61925986359189 0.0 0.0
596.6904111818128 35.42093587774669 274.5908405090349 124.92935191445103 0.0 0.0
542.3582840509757 22.93345593368818 225.9685931945847 131.19423844862868 0.0 0.0
472.0386054690229 15.415161460450085 174.32142755086582 135.1019830657386 0.0 0.0
385.51770478091674 3.5183837189783604 123.36817125738615 142.8931718370179 0.0 0.0
291.58381148825003 -1.9977311669790425 86.18415324748975 149.11539392920798 0.0 0.0
208.49245645992116 0.0014002768508736274 62.45037404711905 141.7104589847934 0.0 0.0
146.46604465808693 9.091055760174024 46.66836503364389 133.2264368317027 0.0 0.0
88.11946320038216 20.45009921066908 32.57086872331538 129.2452260408981 0.0 0.0
37.28926625456633 12.121838932504083 14.823362331771786 141.51949114318754 0.0 0.0
102.2709523481333 -47.44772833366925 21.497307192902703 184.35770750310616 0.0 0.0
-231.78810639546433 -772.4438268679753 -343.26449080890933 82.9880237149726 0.0 0.0
-163.80013968680882 -641.2266313481753 -257.7367407729473 -94.60550597092895 0.0 0.0
54.12217430625885 -72.34593992294175 -3.350831061804219 -174.91446468372507 0.0 0.0
12.028984816317742 6.332071988596394 5.50978442760977 -154.1981487036429 0.0 0.0
47.78726525505562 20.461478588973723 20.474623153208803 -143.13711634595256 0.0 0.0
91.69621190844823 11.469450446064778 30.950130220222064 -145.60953267938547 0.0 0.0
137.0576292239586 2.715150958294404 41.972154444354864 -154.13515453678656 0.0 0.0
194.3231325641131 -1.7049423913764394 57.33144997329054 -166.61306485384608 0.0 0.0
273.8090702686897 -4.176672387510923 80.15705850097909 -171.38515955738757 0.0 0.0
360.0009097872191 -1.2802419607080888 113.32025662331446 -161.62658924329418 0.0 0.0
436.89504882929947 6.862310069332205 154.93727141951518 -150.06531083564883 0.0 0.0
499.1310591631251 17.960990165596968 199.79192275272376 -140.54928524584602 0.0 0.0
551.4754860319148 25.93095681887882 240.34240408575806 -134.90953426964467 0.0 0.0
598.9224122481425 38.28034008170822 280.433317266176 -131.15965791789617 0.0 0.0
641.0634644287641 48.75798839357836 315.79475739863005 -128.37755162166792 0.0 0.0
680.1126021669944 57.42043612008231 346.222361112709 -125.80904179763756 0.0 0.0
715.8755494911275 63.903904030088526 371.08797736578884 -123.60407770015948 0.0 0.0
750.1564565718351 69.61348075727774 393.16690994865075 -120.69551944528817 0.0 0.0
780.1318030690568 71.60947279269587 410.7772655114563 -114.21263025993464 0.0 0.0
811.3900357974646 73.92283566168877 428.67388657070785 -102.84797006313921 0.0 0.0
824.5880749977488 57.10888006735068 428.46354321008135 -83.05524403924976 0.0 0.0
522.4239504624137 -242.29108395197534 144.69523575595147 4.291322852623125e-11 0.0 0.0
824.5880749973962 57.1088800670898 428.463543209931 83.05524403949782 0.0 0.0
811.3900357973413 73.92283566177116 428.67388657060275 102.84797006344175 0.0 0.0
780.1318030690985 71.60947279281763 410.7772655114497 114.21263026014927 0.0 0.0
750.1564565711963 69.613480756685 393.1669099481391 120.69551944540949 0.0 0.0
715.8755494911612 63.90390403024537 371.08797736577395 123.60407770021261 0.0 0.0
680.1126021668883 57.42043612012024 346.22236111261407 125.80904179767317 0.0 0.0
641.0634644286754 48.757988393660995 315.79475739856184 128.37755162177658 0.0 0.0
598.9224122478632 38.280340081526795 280.4333172659311 131.15965791795693 0.0 0.0
551.4754860314256 25.930956818423724 240.34240408536562 134.90953426958498 0.0 0.0
499.1310591628353 17.96099016553091 199.79192275250114 140.54928524585193 0.0 0.0
436.8950488288474 6.862310069078995 154.9372714192001 150.06531083562297 0.0 0.0
360.0009097868995 -1.2802419606767943 113.32025662317346 161.6265892432922 0.0 0.0
273.8090702683868 -4.176672387323009 80.15705850094375 171.38515955731293 0.0 0.0
194.3231325637708 -1.704942391681091 57.33144997310428 166.6130648536976 0.0 0.0
137.0576292239538 2.715150958425499 41.97215444439325 154.13515453658528 0.0 0.0
91.6962119083556 11.469450445932365 30.950130220154172 145.6095326792223 0.0 0.0
47.787265255074736 20.46147858912744 20.47462315326065 143.13711634577297 0.0 0.0
12.028984816263222 6.332071988575308 5.509784427586888 154.19814870344482 0.0 0.0
54.1221743059783 -72.3459399229278 -3.350831061906211 174.91446468346936 0.0 0.0
-163.8001396864157 -641.2266313474329 -257.73674077248296 94.60550597101502 0.0 0.0
-116.90275060994006 -534.112959689858 -196.09266862554784 -108.3563794921102 0.0 0.0
15.346556106793155 -85.71392493169446 -20.990958318367117 -162.18863426846036 0.0 0.0
-11.160137682273888 2.0838724273537292 -2.722597057905721 -162.30452795815543 0.0 0.0
9.156911840474084 19.584341154192767 8.622493510292987 -153.39040418891332 0.0 0.0
37.59843495234722 13.486257841596862 15.32657233657492 -154.54173594143532 0.0 0.0
65.535223712647 5.468258266928115 21.297155615714683 -163.13349309892314 0.0 0.0
96.2395074351862 0.3825198794052591 28.835886470773268 -176.3011738959124 0.0 0.0
135.41181035980833 -0.940166150999802 40.37964448076642 -182.09473479737156 0.0 0.0
191.3035041857895 -1.707410531983228 57.07865459768308 -180.3160142527448 0.0 0.0
260.2773391864994 -8.527685618337124 76.47462929924163 -174.13087412504206 0.0 0.0
326.4327099560762 -12.684659815888459 98.72112619035332 -168.19958065315683 0.0 0.0
386.2840741446519 -15.941193698400397 121.83641531397534 -158.3102555437656 0.0 0.0
434.8434891315757 -9.318092513680728 149.40784848521366 -150.67936891714328 0.0 0.0
476.33966306801756 0.10846547305169807 178.40423599620527 -144.4345397401526 0.0 0.0
511.72181228186076 13.558669207525448 208.34399507687243 -140.59116312635217 0.0 0.0
546.1831460750757 26.02674397443144 238.2186294237117 -141.6889408534058 0.0 0.0
582.2207946314924 33.13260720855786 268.32839813238974 -141.85326511687245 0.0 0.0
616.7737958661384 34.4504983501491 294.61094283668825 -135.34045366082205 0.0 0.0
651.2431995207168 29.916361777814082 315.7976473646849 -121.71309465660063 0.0 0.0
698.8790384570277 36.15624367759589 346.3882027340101 -103.13501860635027 0.0 0.0
316.5284699115911 -330.6743506537258 3.9475835265098027 1.2428813533915672e-10 0.0 0.0
698.8790384567981 36.15624367755894 346.3882027339341 103.13501860662367 0.0 0.0
651.2431995210719 29.916361778391312 315.7976473649229 121.7130946569905 0.0 0.0
616.7737958663115 34.45049835043963 294.610942836811 135.34045366111164 0.0 0.0
582.220794631308 33.13260720845304 268.32839813220215 141.85326511702038 0.0 0.0
546.1831460751353 26.026743974558734 238.21862942377922 141.68894085342544 0.0 0.0
511.72181228215277 13.558669207930294 208.3439950770584 140.5911631263818 0.0 0.0
476.33966306756787 0.10846547253294325 178.4042359958896 144.43453974016347 0.0 0.0
434.8434891312289 -9.318092514059368 149.4078484849731 150.6793689172231 0.0 0.0
386.28407414435566 -15.94119369860148 121.83641531377998 158.31025554371482 0.0 0.0
326.43270995598925 -12.684659815645517 98.72112619037733 168.19958065310482 0.0 0.0
260.27733918622306 -8.527685618227668 76.47462929918544 174.13087412495523 0.0 0.0
191.3035041855524 -1.7074105318971027 57.078654597640075 180.3160142527035 0.0 0.0
135.4118103596389 -0.9401661511106463 40.37964448068052 182.09473479733606 0.0 0.0
96.23950743499799 0.38251987907979546 28.835886470621137 176.30117389570913 0.0 0.0
65.53522371245934 5.468258266557072 21.29715561554736 163.133493098694 0.0 0.0
37.598434952299854 13.486257841501295 15.326572336532115 154.5417359412654 0.0 0.0
9.156911840573551 19.584341154375913 8.622493510377744 153.3904041886953 0.0 0.0
-11.160137682265098 2.0838724273667655 -2.722597057899389 162.30452795799562 0.0 0.0
15.346556106675298 -85.71392493173639 -20.990958318419707 162.18863426829813 0.0 0.0
-116.90275060979339 -534.1129596892273 -196.09266862528892 108.35637949208638 0.0 0.0
-97.9115963792565 -424.9805632352063 -157.00995513442328 -104.04238989104783 0.0 0.0
-9.103623723861265 -94.49734798772973 -31.062426987889978 -153.4690687665206 0.0 0.0
-32.43875363539035 -1.4942283173102693 -10.176432831305425 -166.430698220604 0.0 0.0
-27.683062624387198 18.372088411240806 -2.792567313402955 -159.71021991384632 0.0 0.0
-15.574940645473987 14.972890620650086 -0.18018706911480287 -159.66151714111993 0.0 0.0
-6.380490438076155 8.286018089993236 0.5722015943415952 -167.02104856192608 0.0 0.0
-2.2085837322372335 2.447026588459819 0.06742971700503109 -180.2262371272345 0.0 0.0
-0.36754023500655464 0.3973635802532143 0.009712608497640218 -186.03865938873514 0.0 0.0
0.0718850576319987 -0.16531653567129911 -0.027223024031574283 -185.7621630343734 0.0 0.0
0.1706282860525974 -0.06310146016756057 0.03453427684709709 -177.70685269385143 0.0 0.0
0.16202627423032112 -0.06223352590090592 0.002721210156881426 -171.77425689451474 0.0 0.0
-0.1537895072226405 0.12633052839701797 -0.00011969923257026949 -166.23471528439524 0.0 0.0
-1.035157526632446 0.6123439544004441 -0.05377401242900959 -165.5292189572379 0.0 0.0
-2.030068865444292 1.210881732160658 -0.06862826864890081 -163.79410199788416 0.0 0.0
1.5731524420246359 0.2737033013580721 0.5583621432623502 -160.23208143720765 0.0 0.0
15.039101038870143 1.7629378938937776 2.776371187725644 -151.02775414942255 0.0 0.0
45.79593042828509 7.756858307567256 7.201596569451873 -143.7658333213042 0.0 0.0
130.30978127244228 -0.5428164379575975 19.290116014785497 -140.8723708185595 0.0 0.0
280.2730703623677 -57.27909151831115 35.353557188982 -136.84865720172962 0.0 0.0
418.7863448132207 -46.408387540886636 129.35072037210017 -137.2456292092421 0.0 0.0
-178.27297327961207 -481.4136556785081 -264.61802447025815 2.9601210371765774e-11 0.0 0.0
418.7863448133618 -46.40838754084679 129.35072037212902 137.24562920943504 0.0 0.0
280.2730703625036 -57.27909151815 35.35355718907972 136.8486572022223 0.0 0.0
130.30978127268185 -0.542816437756656 19.290116014995412 140.87237081896748 0.0 0.0
45.7959304285837 7.756858307814582 7.201596569634475 143.76583332150074 0.0 0.0
15.039101039111934 1.7629378941962628 2.7763711878910655 151.02775414937906 0.0 0.0
1.5731524421726277 0.27370330093281936 0.5583621431947279 160.232081437286 0.0 0.0
-2.030068865572858 1.2108817312813613 -0.06862826897353358 163.79410199791792 0.0 0.0
-1.0351575262538404 0.6123439545365432 -0.053774012276747385 165.52921895738285 0.0 0.0
-0.15378950715306416 0.12633052794274668 -0.00011969933956734735 166.234715284421 0.0 0.0
0.16202627473196074 -0.062233525311380156 0.0027212104870120157 171.7742568945292 0.0 0.0
0.17062828621328308 -0.06310146029275376 0.03453427685808208 177.70685269373274 0.0 0.0
0.07188505786197297 -0.1653165354697106 -0.027223023902749333 185.76216303439932 0.0 0.0
-0.36754023509134903 0.3973635798675057 0.009712608356749364 186.0386593886817 0.0 0.0
-2.208583732248238 2.4470265882084687 0.06742971692620614 180.22623712699914 0.0 0.0
-6.38049043825992 8.286018089335526 0.5722015940891636 167.02104856166693 0.0 0.0
-15.57494064539437 14.972890620717408 -0.18018706907083581 159.66151714095326 0.0 0.0
-27.683062624348864 18.372088411231655 -2.7925673133944926 159.7102199136484 0.0 0.0
-32.43875363534445 -1.4942283171837922 -10.17643283125398 166.43069822048403 0.0 0.0
-9.103623723900151 -94.4973479877371 -31.062426987898913 153.46906876635003 0.0 0.0
-97.91159637913438 -424.9805632345997 -157.0099551342447 104.04238989091454 0.0 0.0
-79.9494469439228 -334.62777631461046 -124.3795675037177 -96.76078127694345 0.0 0.0
-25.595925429836516 -95.55616021582729 -36.34491173395132 -144.6397805320715 0.0 0.0
-52.04276678356873 -4.499170628277626 -16.963220205453705 -166.44159703340836 0.0 0.0
-62.75671434320269 16.967430377369173 -13.735241996282042 -161.97950242303457 0.0 0.0
-67.55952713205924 15.822449564801882 -15.522452310944326 -160.62260921749845 0.0 0.0
-77.43984671098977 10.834932766801845 -20.003009166614426 -165.7357699452547 0.0 0.0
-100.72782728368541 4.70830171423489 -28.575089608010472 -178.34355763000258 0.0 0.0
-136.211307167242 1.6075402836328276 -40.42261733193496 -182.302230507012 0.0 0.0
-191.10519709941207 1.3879432683504813 -57.11579784879135 -180.30247161636163 0.0 0.0
-259.98196210137996 8.373502202148352 -76.42569343254235 -174.09827121904917 0.0 0.0
-326.51453048828097 12.846035496590504 -98.5860718078032 -168.2417002555754 0.0 0.0
-386.36221198511885 16.05834549052936 -121.8648290813016 -158.407795499927 0.0 0.0
-435.4394711023849 9.532499881918401 -149.74004844512433 -150.2564587269411 0.0 0.0
-477.2101434384386 0.3675237760651697 -178.81986311501805 -143.83324772339287 0.0 0.0
-510.6449601252598 -10.53023955959712 -206.28965458441166 -140.7622208910011 0.0 0.0
-536.6483450970326 -15.05949831631932 -225.3253668952453 -143.39818126638758 0.0 0.0
-551.0609251131159 -11.715399476019563 -231.08360018601968 -149.573816260249 0.0 0.0
-551.4173465579338 4.149415205872096 -216.88496397499182 -160.1753302980318 0.0 0.0
-539.8177876820127 27.670000079081674 -184.539645644217 -163.6921003957425 0.0 0.0
-338.86154886145425 26.563791780787923 -108.14103797606879 -106.24160143000418 0.0 0.0
-670.7226808984447 -674.2512448252437 -645.9738984127425 -1.2822454209526768e-10 0.0 0.0
-338.86154886143936 26.563791780549323 -108.14103797609336 106.24160143056957 0.0 0.0
-539.8177876821833 27.67000007881969 -184.53964564430575 163.69210039615237 0.0 0.0
-551.4173465580863 4.149415205599347 -216.8849639750867 160.1753302983232 0.0 0.0
-551.0609251129474 -11.715399475802734 -231.08360018584696 149.57381626025773 0.0 0.0
-536.6483450970679 -15.05949831653341 -225.32536689530838 143.39818126646145 0.0 0.0
-510.6449601252743 -10.530239559734476 -206.28965458436508 140.76222089104223 0.0 0.0
-477.21014343832337 0.36752377586543616 -178.81986311494384 143.83324772342218 0.0 0.0
-435.4394711018786 9.532499882352864 -149.74004844476252 150.25645872709867 0.0 0.0
-386.36221198478313 16.058345490093487 -121.86482908127282 158.40779549995602 0.0 0.0
-326.51453048778535 12.846035496584618 -98.5860718076119 168.24170025568048 0.0 0.0
-259.9819621009028 8.373502201824417 -76.42569343248807 174.0982712189538 0.0 0.0
-191.10519709873296 1.3879432688490572 -57.11579784843555 180.30247161639574 0.0 0.0
-136.2113071671402 1.6075402833596542 -40.42261733198193 182.30223050691401 0.0 0.0
-100.72782728357114 4.708301714066243 -28.575089608029028 178.34355762978987 0.0 0.0
-77.43984671080483 10.834932766771178 -20.003009166571317 165.73576994498748 0.0 0.0
-67.55952713193258 15.822449564881898 -15.522452310881963 160.6226092173491 0.0 0.0
-62.75671434323953 16.9674303771358 -13.735241996363602 161.97950242284514 0.0 0.0
-52.04276678348463 -4.499170628141719 -16.963220205388154 166.4415970332067 0.0 0.0
-25.59592542985838 -95.55616021580042 -36.34491173394965 144.63978053197107 0.0 0.0
-79.94944694381171 -334.6277763142302 -124.37956750356868 96.76078127678097 0.0 0.0
-64.33003959451419 -256.41357337768994 -96.22308389166122 -86.69271157896975 0.0 0.0
-37.89001210103092 -91.36328047239216 -38.77596757027998 -134.5557534109276 0.0 0.0
-70.14147540225315 -6.639369723720479 -23.035041336218473 -162.53546549978637 0.0 0.0
-96.16167781311854 15.331624687815783 -24.2508762758118 -160.08716448240952 0.0 0.0
-118.10659228703072 16.06957562186957 -30.60625358206071 -157.42037578134168 0.0 0.0
-148.01636371827837 13.041146342640937 -40.382481745838916 -160.92172748424446 0.0 0.0
-196.5154964633108 5.437149539130275 -57.22344128440336 -165.82192034324896 0.0 0.0
-274.16655810277564 4.696789105797601 -80.1543457718616 -171.6685030956646 0.0 0.0
-359.9079154188247 0.895675587275452 -113.4081304910614 -161.56638791297001 0.0 0.0
-436.828255257557 -6.950041435340129 -154.906141031663 -150.03592170617367 0.0 0.0
-499.04364950267507 -17.923944801898163 -199.74544748665588 -140.52351500206166 0.0 0.0
-551.4405425660038 -25.82408096459188 -240.33109946676416 -134.81187919590857 0.0 0.0
-599.228088530425 -38.158675841142085 -280.62042670941173 -130.71275788092277 0.0 0.0
-641.6521701424508 -48.3276333968838 -315.9847172406923 -127.56758556775607 0.0 0.0
-678.9932905125906 -55.1640936377468 -344.62460173867987 -125.4998620121566 0.0 0.0
-707.1392560730412 -55.86818620646142 -362.91256326249464 -125.9690570955192 0.0 0.0
-721.791339675555 -48.92690734202404 -369.03128349464436 -130.22094305269826 0.0 0.0
-721.988928607818 -38.69020713189592 -365.29601047545805 -138.89880745376797 0.0 0.0
-701.0043059715927 -18.208710530869098 -345.9467872133091 -148.3554746399128 0.0 0.0
-679.6020736698098 -11.277601183153678 -330.27314676737126 -147.3453192378186 0.0 0.0
-1329.2648853876544 -914.4179998125874 -1063.5305274937537 1.1979750524915289e-11 0.0 0.0
-679.6020736699404 -11.277601183582476 -330.2731467675528 147.34531923818227 0.0 0.0
-701.0043059716154 -18.208710531118484 -345.9467872133669 148.35547464021326 0.0 0.0
-721.988928608016 -38.69020713231314 -365.29601047559595 138.89880745404884 0.0 0.0
-721.7913396752699 -48.92690734180464 -369.03128349442306 130.2209430527901 0.0 0.0
-707.1392560733829 -55.86818620704207 -362.91256326272475 125.96905709560608 0.0 0.0
-678.9932905122992 -55.164093637541896 -344.62460173840526 125.49986201218005 0.0 0.0
-641.652170142218 -48.32763339686075 -315.9847172405449 127.56758556782034 0.0 0.0
-599.2280885302647 -38.15867584127547 -280.620426709271 130.71275788105714 0.0 0.0
-551.4405425655906 -25.824080964410776 -240.33109946643617 134.811879195918 0.0 0.0
-499.0436495024776 -17.92394480200389 -199.7454474864537 140.52351500203883 0.0 0.0
-436.8282552569502 -6.950041435133323 -154.9061410312754 150.03592170612922 0.0 0.0
-359.90791541817225 0.8956755875618656 -113.40813049071812 161.56638791303058 0.0 0.0
-274.1665581022037 4.696789105922703 -80.15434577164973 171.6685030955877 0.0 0.0
-196.51549646290962 5.437149539169873 -57.22344128428324 165.82192034304464 0.0 0.0
-148.01636371798472 13.041146342861088 -40.38248174568283 160.92172748410897 0.0 0.0
-118.10659228687373 16.06957562180968 -30.60625358203282 157.42037578118362 0.0 0.0
-96.16167781299065 15.331624687814465 -24.250876275774402 160.0871644822414 0.0 0.0
-70.14147540214178 -6.639369723656238 -23.035041336165467 162.53546549964122 0.0 0.0
-37.89001210101853 -91.36328047237892 -38.77596757027232 134.55575341080424 0.0 0.0
-64.33003959444952 -256.41357337740504 -96.22308389155636 86.69271157884594 0.0 0.0
-51.8239484320191 -189.66027355360086 -72.44526659568596 -75.81362605304732 0.0 0.0
-47.58911654490027 -83.26662110525453 -39.25672129504645 -122.67198583392391 0.0 0.0
-87.13507363958445 -7.837710835940822 -28.49283982995293 -154.73435049172144 0.0 0.0
-128.06628943969514 13.54423658474037 -34.35398112680756 -154.15251578624253 0.0 0.0
-167.04786462694295 15.523647573631875 -45.44124302401148 -149.91060272686133 0.0 0.0
-215.37309934527326 13.517171197183071 -60.597199331777546 -148.5700449466214 0.0 0.0
-295.2840863589099 7.9323710702285934 -85.13331758527607 -153.84228306597706 0.0 0.0
-385.67293321876656 -3.5365555508241187 -123.4883231032766 -143.21081320403547 0.0 0.0
-472.10454107891445 -15.730816692111196 -174.3954494296149 -135.0424682682189 0.0 0.0
-542.422617019127 -23.046245177115505 -226.01573301810924 -131.13977061239896 0.0 0.0
-596.5886374774319 -35.36708207046901 -274.55022198869176 -124.88217924703574 0.0 0.0
-645.9700987184578 -48.466506165067294 -317.88118478040485 -120.5257528654877 0.0 0.0
-695.2547411215543 -64.17531378780063 -358.72595405957964 -116.66079119050434 0.0 0.0
-741.3630231979294 -79.25903578651382 -395.0236391605673 -113.14888064606083 0.0 0.0
-783.0663148426008 -90.20022818177387 -424.51851250363427 -110.81769344019256 0.0 0.0
-814.3158211056417 -93.66009976023936 -443.3529087150307 -111.2415995156588 0.0 0.0
-830.5623145906109 -85.46945473611545 -448.41103218927304 -115.58576254558986 0.0 0.0
-824.4232477351636 -63.34626683539305 -435.5655841825211 -123.59973618583972 0.0 0.0
-796.2910667198504 -30.544650141518872 -406.7323038407774 -131.7217766943627 0.0 0.0
-736.3963895921671 16.03790655270158 -358.0131644160141 -136.44635602180335 0.0 0.0
-1749.977182336665 -1141.3701611852014 -1395.8190546468638 4.82458517581108e-11 0.0 0.0
-736.39638959246 16.037906552232457 -358.0131644162722 136.4463560220601 0.0 0.0
-796.2910667196572 -30.544650141457993 -406.7323038406361 131.72177669459822 0.0 0.0
-824.4232477350156 -63.34626683534873 -435.5655841824163 123.59973618601431 0.0 0.0
-830.5623145908477 -85.46945473649862 -448.4110321894038 115.58576254572202 0.0 0.0
-814.315821105537 -93.66009976026152 -443.35290871495243 111.24159951570583 0.0 0.0
-783.0663148425895 -90.20022818185862 -424.5185125035257 110.81769344024165 0.0 0.0
-741.363023197999 -79.25903578675018 -395.02363916060295 113.14888064609934 0.0 0.0
-695.2547411213131 -64.17531378777561 -358.72595405940825 116.66079119055507 0.0 0.0
-645.9700987180709 -48.46650616489126 -317.88118478007146 120.52575286552592 0.0 0.0
-596.5886374771585 -35.36708207037128 -274.55022198844347 124.88217924693518 0.0 0.0
-542.4226170183715 -23.046245176602046 -226.0157330175415 131.1397706123087 0.0 0.0
-472.1045410785685 -15.730816692216106 -174.3954494293566 135.04246826824485 0.0 0.0
-385.6729332182631 -3.536555550757168 -123.48832310302559 143.21081320406805 0.0 0.0
-295.2840863582321 7.932371070578589 -85.13331758497935 153.84228306580977 0.0 0.0
-215.37309934502213 13.517171196836056 -60.59719933182075 148.57004494641774 0.0 0.0
-167.04786462666144 15.523647573748331 -45.441243023890166 149.91060272674764 0.0 0.0
-128.06628943951304 13.54423658479529 -34.3539811267372 154.1525157860758 0.0 0.0
-87.13507363944794 -7.837710835804459 -28.492839829870782 154.73435049160722 0.0 0.0
-47.58911654493816 -83.26662110530805 -39.25672129507385 122.67198583379147 0.0 0.0
-51.823948431992505 -189.66027355340145 -72.4452665956182 75.81362605296253 0.0 0.0
-42.45271573460568 -133.74402828869125 -52.85902320698909 -64.60799967548361 0.0 0.0
-55.56356582728115 -72.62363070602736 -38.45615895999254 -109.02093696762516 0.0 0.0
-103.25904182989387 -7.997675131722186 -33.37756610394311 -143.1797269995703 0.0 0.0
-158.58744639953736 11.474304814975552 -44.14002127136035 -144.01547289212698 0.0 0.0
-213.9080025224615 14.37944640731584 -59.835867397567384 -138.1471486613689 0.0 0.0
-284.555383631469 14.47116106745641 -80.27942070446262 -135.04616500253434 0.0 0.0
-380.2454346538426 1.8374920193323945 -115.94554554797504 -127.14600833149507 0.0 0.0
-472.8569194090092 -15.074821674684138 -168.92157543870104 -118.59212287384472 0.0 0.0
-553.0514992705541 -23.41639127558448 -226.80299564891536 -116.41665203530358 0.0 0.0
-608.5070695519654 -38.07212285869493 -282.24227445503715 -110.97119200410944 0.0 0.0
-664.433451713327 -51.28211348594871 -330.2091461334992 -108.62019256139227 0.0 0.0
-716.0177556159551 -68.56530609733278 -374.00850637592316 -105.10498630284894 0.0 0.0
-768.3098096466755 -89.09272036372681 -416.1002678264873 -101.44797482402082 0.0 0.0
-819.2384117902761 -109.07716657419324 -454.73009988234884 -98.21453448295053 0.0 0.0
-865.5175839650316 -125.01119578012329 -487.2729691547853 -95.85884635247172 0.0 0.0
-901.7473076467454 -130.91017084087662 -508.81087981111637 -96.21265467836452 0.0 0.0
-917.2756553772585 -122.05055595047249 -512.8358375181051 -99.46318291095817 0.0 0.0
-903.7330453605949 -88.47804612750882 -490.40366935410725 -106.1220665508735 0.0 0.0
-856.6116189749562 -33.36035253723641 -441.193509869104 -114.17331757929333 0.0 0.0
-766.3286098236052 44.78231866185968 -361.743484089204 -121.73951255811681 0.0 0.0
-2074.5461082740494 -1368.633197320834 -1679.3578699295877 5.67297320230864e-11 0.0 0.0
-766.3286098233168 44.7823186619935 -361.7434840890023 121.73951255832038 0.0 0.0
-856.6116189753145 -33.36035253779025 -441.1935098693096 114.17331757966457 0.0 0.0
-903.7330453604488 -88.47804612742584 -490.4036693539162 106.12206655101714 0.0 0.0
-917.2756553770811 -122.05055595043005 -512.8358375179754 99.46318291101149 0.0 0.0
-901.7473076465138 -130.9101708407341 -508.81087981094413 96.2126546784238 0.0 0.0
-865.5175839646967 -125.01119577988318 -487.2729691544478 95.85884635247186 0.0 0.0
-819.2384117899433 -109.07716657401144 -454.7300998820626 98.21453448296512 0.0 0.0
-768.3098096467025 -89.09272036393608 -416.10026782648833 101.44797482408794 0.0 0.0
-716.0177556156626 -68.565306097256 -374.0085063756495 105.10498630287331 0.0 0.0
-664.4334517134727 -51.282113486370825 -330.20914613355865 108.62019256142293 0.0 0.0
-608.5070695515368 -38.07212285851219 -282.2422744546665 110.9711920040393 0.0 0.0
-553.0514992700608 -23.416391275435068 -226.80299564848764 116.4166520353135 0.0 0.0
-472.85691940868844 -15.074821674809451 -168.92157543846605 118.592122873843 0.0 0.0
-380.24543465340923 1.8374920192469635 -115.94554554783215 127.1460083314312 0.0 0.0
-284.555383630884 14.471161067853647 -80.27942070417298 135.04616500242636 0.0 0.0
-213.90800252218997 14.379446407271642 -59.83586739750408 138.14714866123222 0.0 0.0
-158.58744639935142 11.474304814978819 -44.140021271303944 144.01547289201235 0.0 0.0
-103.25904182974918 -7.997675131607247 -33.37756610386497 143.17972699944227 0.0 0.0
-55.56356582724341 -72.62363070602107 -38.45615895997935 109.02093696753386 0.0 0.0
-42.45271573450826 -133.74402828852743 -52.85902320691069 64.60799967544422 0.0 0.0
-35.949714427960984 -88.29511802280189 -37.27344973522886 -53.17285173480335 0.0 0.0
-62.19480729176752 -60.56391480058081 -36.827616627704494 -93.73190253089308 0.0 0.0
-118.58587285494104 -7.199291263508573 -37.735843605213084 -128.01470111481274 0.0 0.0
-187.8844487985818 9.270512911654695 -53.588222339752605 -129.8856684811933 0.0 0.0
-258.2977202248198 12.190473100742485 -73.9065455984046 -121.96150562213762 0.0 0.0
-351.7553757184118 11.927503012829863 -101.10501115418225 -115.1236631015623 0.0 0.0
-451.6981215230919 -7.632890601930072 -149.193099106377 -101.87380345720112 0.0 0.0
-543.2101374750272 -20.84620798528965 -210.66881582583957 -98.22907201990277 0.0 0.0
-603.0166844035007 -35.02007520761118 -271.9362211532491 -94.836752810156 0.0 0.0
-663.4498010386495 -47.73350012074884 -325.5637810226314 -94.12768298836686 0.0 0.0
-718.6742154652347 -66.41099192618367 -373.9623264387341 -91.84379290966227 0.0 0.0
-773.8657167177755 -88.62889401476565 -419.35867621278504 -88.8842450827722 0.0 0.0
-830.3728760089678 -113.6591621741662 -463.7485751704075 -85.81582067274627 0.0 0.0
-885.659778489843 -137.5393122979109 -505.05417490975157 -83.04079182791554 0.0 0.0
-936.9591337177208 -158.15799524869522 -541.574798796967 -80.9244166978339 0.0 0.0
-977.5669996025368 -169.19526912372666 -567.5943849912725 -80.46083931002791 0.0 0.0
-994.0227738259697 -157.06604091251182 -570.2448586714114 -82.66919339990115 0.0 0.0
-970.2513055388501 -112.20304498654218 -536.9897386941208 -87.73839859870698 0.0 0.0
-900.3075472890625 -33.55574615530408 -464.65901537804405 -95.6736161866291 0.0 0.0
-782.1465780378143 73.01709174941145 -356.7601688213117 -107.63713231650273 0.0 0.0
-2363.946949309443 -1595.0697241756004 -1942.8489764119006 6.194866841724433e-11 0.0 0.0
-782.1465780373074 73.01709174984889 -356.76016882095803 107.63713231664487 0.0 0.0
-900.3075472892674 -33.55574615565456 -464.65901537819906 95.67361618687102 0.0 0.0
-970.2513055389109 -112.2030449866997 -536.9897386941141 87.73839859887772 0.0 0.0
-994.0227738250228 -157.06604091161643 -570.2448586707574 82.66919339994308 0.0 0.0
-977.566999602275 -169.19526912354146 -567.5943849910428 80.46083931005892 0.0 0.0
-936.9591337172841 -158.1579952483464 -541.5747987966228 80.92441669785461 0.0 0.0
-885.6597784895669 -137.53931229771808 -505.05417490943455 83.0407918278656 0.0 0.0
-830.3728760087827 -113.65916217419449 -463.7485751703048 85.81582067279477 0.0 0.0
-773.86571671732 -88.62889401448695 -419.3586762123696 88.88424508282287 0.0 0.0
-718.6742154650033 -66.41099192619531 -373.9623264385264 91.84379290965082 0.0 0.0
-663.4498010383778 -47.73350012072944 -325.56378102235976 94.12768298831153 0.0 0.0
-603.0166844029496 -35.02007520732021 -271.93622115275866 94.83675281016514 0.0 0.0
-543.2101374746405 -20.846207985235253 -210.6688158254756 98.2290720198336 0.0 0.0
-451.6981215226913 -7.632890602031692 -149.1930991061569 101.87380345720555 0.0 0.0
-351.75537571748765 11.927503013556816 -101.10501115371201 115.12366310145725 0.0 0.0
-258.2977202245809 12.190473100527315 -73.90654559840102 121.961505622009 0.0 0.0
-187.88444879827574 9.270512911893176 -53.58822233958918 129.8856684811098 0.0 0.0
-118.5858728548477 -7.199291263562497 -37.73584360520112 128.014701114697 0.0 0.0
-62.19480729169077 -60.56391480053961 -36.82761662766912 93.73190253079251 0.0 0.0
-35.949714427888566 -88.29511802269472 -37.273449735174985 53.17285173479002 0.0 0.0
-31.912145078526553 -53.17832361569898 -25.527140608267658 -41.588059434976415 0.0 0.0
-67.45739071436921 -47.96757687623321 -34.62749027718072 -76.95345594191251 0.0 0.0
-133.0692141754529 -5.7492965876038 -41.645553228917024 -109.348073512409 0.0 0.0
-215.92820583589082 7.1263215121978405 -62.64644844003339 -111.64954463806215 0.0 0.0
-303.4413759290673 9.472707038458811 -87.9249593507195 -102.99483593383576 0.0 0.0
-406.8192225958389 0.9908379473889868 -124.86920840182299 -87.64347824189979 0.0 0.0
-514.9048021564165 -13.509300890795622 -181.78599559501976 -79.17765421145182 0.0 0.0
-585.5818927777905 -29.14371378955495 -248.21378275594313 -77.13200072916074 0.0 0.0
-648.7602025780315 -40.51373890562013 -307.7823689258331 -77.13449868541299 0.0 0.0
-707.2397432812504 -58.53469369241785 -361.37734034944003 -76.22187773097814 0.0 0.0
-765.31201559201 -81.45406502046268 -410.5846627674091 -74.61178587667173 0.0 0.0
-824.7264883344506 -108.33057043845031 -458.4289549842024 -72.32959203933693 0.0 0.0
-885.565289576608 -137.35367239507013 -505.64741233169974 -69.86983331600523 0.0 0.0
-944.4353986242169 -166.19971198077428 -550.4329753108045 -67.5779608548667 0.0 0.0
-999.5530385557848 -189.61745527703454 -589.8862254897365 -65.75084786490376 0.0 0.0
-1044.9361595031703 -204.00287141054065 -619.7698488011844 -64.79658654362851 0.0 0.0
-1064.1656235860669 -194.96211619015585 -625.2341581866906 -65.18144644322463 0.0 0.0
-1031.867572940749 -139.62857699767218 -582.449042694095 -68.52463256434282 0.0 0.0
-937.6604856033053 -34.778715759069485 -484.8042890634117 -77.31787664811257 0.0 0.0
-784.9982277599981 105.53854723793705 -342.293544206328 -94.97200189002848 0.0 0.0
-2630.066521218775 -1815.5992377713417 -2190.924680064358 4.836309130951122e-11 0.0 0.0
-784.9982277600818 105.53854723779412 -342.2935442063927 94.97200189017119 0.0 0.0
-937.6604856031014 -34.778715758915254 -484.8042890633046 77.31787664821601 0.0 0.0
-1031.867572940399 -139.6285769973916 -582.4490426938389 68.52463256441268 0.0 0.0
-1064.1656235856483 -194.96211618982417 -625.234158186389 65.1814464433394 0.0 0.0
-1044.9361595029945 -204.0028714104703 -619.7698488009514 64.79658654373792 0.0 0.0
-999.5530385558403 -189.61745527721573 -589.886225489724 65.75084786498027 0.0 0.0
-944.435398624109 -166.1997119808041 -550.4329753106038 67.57796085487657 0.0 0.0
-885.5652895759563 -137.35367239455033 -505.6474123312904 69.86983331601634 0.0 0.0
-824.7264883344244 -108.33057043863924 -458.4289549841013 72.32959203940351 0.0 0.0
-765.3120155912566 -81.45406501984428 -410.5846627668689 74.6117858765954 0.0 0.0
-707.2397432809255 -58.5346936923103 -361.3773403491236 76.22187773092102 0.0 0.0
-648.7602025774604 -40.513738905258485 -307.7823689253397 77.1344986853478 0.0 0.0
-585.5818927775572 -29.14371378964557 -248.21378275564948 77.13200072906832 0.0 0.0
-514.9048021555948 -13.509300890205317 -181.78599559443975 79.17765421137167 0.0 0.0
-406.8192225952662 0.9908379474684308 -124.86920840160738 87.64347824185094 0.0 0.0
-303.4413759288289 9.472707038234422 -87.92495935072053 102.99483593376382 0.0 0.0
-215.9282058356235 7.126321512344607 -62.646448439908625 111.64954463797669 0.0 0.0
-133.06921417533522 -5.7492965875904165 -41.64555322887768 109.3480735123016 0.0 0.0
-67.45739071433093 -47.96757687623563 -34.62749027716996 76.95345594177859 0.0 0.0
-31.91214507848074 -53.178323615639584 -25.52714060823609 41.58805943493668 0.0 0.0
-29.718562662330704 -28.343908408816034 -17.418741321344015 -30.119760058640015 0.0 0.0
-70.96271602624755 -35.59269525441094 -31.96662338419754 -58.874917703552285 0.0 0.0
-146.44099510832532 -4.083213348507485 -45.15726253704984 -87.11832535482927 0.0 0.0
-242.94941906087098 5.1609406568451 -71.33869236202213 -89.28109167170908 0.0 0.0
-348.879384113533 5.027186582271718 -102.48953274569959 -79.53554025639143 0.0 0.0
-465.2350712476118 -5.670889504237742 -148.8358122531889 -63.19802374531852 0.0 0.0
-556.1297592301404 -21.44914264239101 -213.9124022506952 -58.24172650091427 0.0 0.0
-622.4128335401268 -31.8015119973026 -278.53555042554933 -58.18787716885592 0.0 0.0
-684.9194037314439 -47.874217110944215 -338.3332404973041 -58.44737881050472 0.0 0.0
-745.1022226949975 -69.27584645196936 -391.6598413985199 -58.06393447940553 0.0 0.0
-806.2314287514445 -96.51767560052048 -442.4457732193226 -56.952878813670296 0.0 0.0
-870.1281727381269 -127.8950639426157 -493.3027103872522 -55.30405313557935 0.0 0.0
-935.0078091872218 -162.158677659229 -544.3197432916929 -53.336019361584604 0.0 0.0
-998.092750442835 -192.74760877538458 -591.5966288693386 -51.74346443482378 0.0 0.0
-1055.006446024238 -218.68252078957397 -633.0480415330624 -50.37223420624928 0.0 0.0
-1102.9131297667493 -236.24152282285723 -665.7054058824135 -48.99590492546249 0.0 0.0
-1129.149096804283 -232.9973809304566 -677.3492034596399 -47.76110201944768 0.0 0.0
-1096.6827473285402 -176.19785722220308 -633.6615870112507 -48.90884527867938 0.0 0.0
-977.2723524669558 -44.439734303689434 -509.98024008989785 -58.64438905753529 0.0 0.0
-774.2289891201316 147.17578748458814 -315.97557860634583 -82.56488515842044 0.0 0.0
-2873.797332718557 -2020.8819615987431 -2419.832667552054 4.795097652277036e-11 0.0 0.0
-774.2289891208766 147.17578748375792 -315.97557860682537 82.56488515861327 0.0 0.0
-977.272352467083 -44.439734303892024 -509.98024009002376 58.64438905768783 0.0 0.0
-1096.6827473283595 -176.19785722205773 -633.6615870110738 48.90884527876955 0.0 0.0
-1129.1490968042742 -232.99738093051093 -677.3492034596441 47.761102019461404 0.0 0.0
-1102.9131297664521 -236.24152282265547 -665.7054058821076 48.995904925505315 0.0 0.0
-1055.0064460242918 -218.6825207897348 -633.0480415330259 50.37223420628676 0.0 0.0
-998.0927504422962 -192.74760877494725 -591.5966288689008 51.74346443478706 0.0 0.0
-935.0078091870009 -162.15867765918267 -544.3197432915515 53.336019361622164 0.0 0.0
-870.128172738348 -127.8950639430726 -493.30271038735293 55.30405313572082 0.0 0.0
-806.2314287514826 -96.51767560074344 -442.4457732193067 56.952878813654614 0.0 0.0
-745.1022226949767 -69.2758464521819 -391.65984139842493 58.06393447934916 0.0 0.0
-684.9194037308285 -47.874217110553445 -338.33324049679743 58.44737881046793 0.0 0.0
-622.4128335400691 -31.801511997563317 -278.53555042536277 58.187877168846676 0.0 0.0
-556.1297592295665 -21.44914264209779 -213.91240225022597 58.24172650083927 0.0 0.0
-465.235071247017 -5.670889504033809 -148.83581225286693 63.19802374526536 0.0 0.0
-348.8793841131284 5.027186582226646 -102.48953274560094 79.53554025637102 0.0 0.0
-242.9494190606785 5.160940656743383 -71.33869236199425 89.2810916716158 0.0 0.0
-146.44099510815965 -4.0832133483978605 -45.15726253696724 87.11832535475595 0.0 0.0
-70.96271602619059 -35.59269525439646 -31.96662338417612 58.874917703460056 0.0 0.0
-29.718562662269015 -28.343908408799606 -17.418741321320585 30.119760058595375 0.0 0.0
-28.304693065344303 -13.584020099971596 -12.566613949594768 -19.46712762127823 0.0 0.0
-71.88142326566675 -24.268878575739087 -28.845090552421755 -39.75430923673924 0.0 0.0
-158.23608812500302 -2.8186824796633396 -48.31643118139991 -60.94154890187421 0.0 0.0
-269.20915858089916 3.4699821393974295 -79.72360094854629 -62.46451423175921 0.0 0.0
-391.6293913509055 -3.5353044425003253 -119.07173818566746 -52.089954457202865 0.0 0.0
-512.1066438269146 -13.336656919024517 -174.24751169840889 -39.83987676279755 0.0 0.0
-584.4710959401069 -26.050955690953245 -241.38549608661924 -38.092410932762085 0.0 0.0
-653.4313463979754 -36.55289024516311 -305.67416052920487 -39.21265847491625 0.0 0.0
-715.5892308853013 -55.64420440870657 -364.35628718813757 -39.661414666118084 0.0 0.0
-777.8819217229459 -80.17723021581712 -417.8097601302958 -39.504962230081475 0.0 0.0
-843.1360128838768 -111.38083057229315 -470.94258897563606 -38.84962602276251 0.0 0.0
-911.0563093987096 -147.59392221589013 -525.2329125146144 -37.72544664632503 0.0 0.0
-980.8251782376997 -184.7332541304999 -579.5273959097747 -36.49659921470948 0.0 0.0
-1046.8491852984291 -220.01156514920513 -630.3827700188909 -35.39551467494248 0.0 0.0
-1105.7711062383887 -247.09955314275726 -673.3445247050005 -34.524401130124325 0.0 0.0
-1151.7099297874931 -262.13080757164875 -703.7438622200634 -33.32542339507249 0.0 0.0
-1181.3335233304842 -262.86634249789347 -718.8437504427027 -31.282414237733988 0.0 0.0
-1174.520810057662 -231.30204895649055 -700.2081523818059 -29.86016010237901 0.0 0.0
-1038.0912913739544 -79.88671149324325 -558.384006328475 -38.08606591366138 0.0 0.0
-744.024015683751 205.54832662430118 -271.3228757777645 -68.83207040566126 0.0 0.0
-3080.2016641297646 -2192.630180348874 -2613.366774671055 -1.3223200312495464e-11 0.0 0.0
-744.0240156838263 205.54832662418366 -271.3228757777382 68.83207040569093 0.0 0.0
-1038.0912913738007 -79.88671149313757 -558.3840063283928 38.08606591376444 0.0 0.0
-1174.5208100577654 -231.302048956659 -700.208152381784 29.86016010248673 0.0 0.0
-1181.3335233303 -262.8663424977668 -718.8437504425669 31.28241423775724 0.0 0.0
-1151.7099297869215 -262.1308075711551 -703.7438622195093 33.325423395103726 0.0 0.0
-1105.771106238184 -247.09955314264892 -673.3445247048002 34.52440113009461 0.0 0.0
-1046.8491852979716 -220.01156514885764 -630.382770018474 35.395514674945225 0.0 0.0
-980.8251782376985 -184.7332541306597 -579.5273959097955 36.496599214713015 0.0 0.0
-911.0563093984431 -147.59392221580524 -525.232912514358 37.725446646343144 0.0 0.0
-843.1360128838987 -111.38083057252629 -470.9425889756078 38.849626022768454 0.0 0.0
-777.8819217227942 -80.17723021589362 -417.8097601301071 39.50496223008367 0.0 0.0
-715.5892308847502 -55.64420440836139 -364.3562871876697 39.661414666064196 0.0 0.0
-653.4313463975764 -36.55289024502541 -305.674160528799 39.21265847484969 0.0 0.0
-584.471095939714 -26.050955690908904 -241.38549608624783 38.09241093277955 0.0 0.0
-512.106643826413 -13.336656918827273 -174.24751169805901 39.83987676276206 0.0 0.0
-391.6293913503702 -3.535304442371883 -119.07173818547302 52.08995445716281 0.0 0.0
-269.2091585807192 3.469982139234289 -79.72360094854234 62.46451423169531 0.0 0.0
-158.23608812485378 -2.8186824796427956 -48.31643118134895 60.94154890180175 0.0 0.0
-71.88142326559692 -24.268878575711216 -28.845090552392435 39.75430923667927 0.0 0.0
-28.304693065289293 -13.584020099969967 -12.566613949577778 19.46712762123318 0.0 0.0
-25.629908503689414 -8.068815415266508 -10.109617175686775 -11.208966254298984 0.0 0.0
-68.82305822816977 -15.327261448936122 -25.245095903131762 -19.898166318763856 0.0 0.0
-167.61451344500213 -2.6390344430128034 -51.07606436640445 -29.840499242927272 0.0 0.0
-295.8157140653696 1.8895695565854749 -88.17376337169655 -30.598134930880924 0.0 0.0
-438.20742083683325 -9.619333641135482 -136.49350062515472 -23.6599903093511 0.0 0.0
-545.1919411381003 -20.69066217367196 -199.41894042173965 -19.179900610203774 0.0 0.0
-612.1940713430746 -25.971259662129516 -264.180789568529 -20.096694003709892 0.0 0.0
-679.2792519059986 -42.31101177073569 -329.29397589443676 -20.65734130778548 0.0 0.0
-742.15306151066 -63.247453297912905 -386.54031898701635 -20.718695030888682 0.0 0.0
-806.8410557881242 -91.34586578147986 -441.01167381133837 -20.581455484853844 0.0 0.0
-876.0072050942462 -126.5265255375759 -496.8223166681485 -20.162923176821735 0.0 0.0
-948.8226060743764 -166.03005570321187 -554.4641407244017 -19.69520374799644 0.0 0.0
-1021.7623777917731 -208.00546535342568 -612.3838920092226 -19.086479247543032 0.0 0.0
-1092.2429165865228 -246.04334382171743 -666.6792738019537 -18.55041612836284 0.0 0.0
-1152.4172650933263 -274.13256676481785 -710.7406858782491 -18.160429383687426 0.0 0.0
-1195.65843442335 -286.5047923756588 -738.4838230873795 -17.435721603136333 0.0 0.0
-1218.586448748324 -281.2391053145042 -747.2160980331415 -15.880200488348853 0.0 0.0
-1230.4780340408643 -269.1700324666371 -747.0681457135292 -13.57270421277804 0.0 0.0
-1184.8038391352297 -206.4050028005119 -694.392149159341 -16.25778985579032 0.0 0.0
-729.2525828666187 247.72338878356564 -242.1294676759748 -46.76189970119533 0.0 0.0
-3127.8810776292607 -2205.3072583571866 -2649.3170197701156 2.212807714840892e-11 0.0 0.0
-729.2525828664219 247.72338878375467 -242.12946767580863 46.76189970116671 0.0 0.0
-1184.803839134965 -206.40500280027675 -694.3921491591732 16.257789855838375 0.0 0.0
-1230.4780340408454 -269.1700324666789 -747.0681457134597 13.572704212785709 0.0 0.0
-1218.5864487475058 -281.23910531374935 -747.2160980325276 15.88020048837937 0.0 0.0
-1195.6584344228768 -286.50479237527617 -738.4838230869401 17.43572160320964 0.0 0.0
-1152.4172650927935 -274.13256676436407 -710.740685877805 18.160429383681425 0.0 0.0
-1092.2429165857961 -246.043343821111 -666.6792738013013 18.55041612832474 0.0 0.0
-1021.7623777913109 -208.00546535310804 -612.3838920089187 19.086479247527336 0.0 0.0
-948.822606074504 -166.03005570352585 -554.4641407244237 19.69520374796205 0.0 0.0
-876.0072050935136 -126.52652553702458 -496.8223166676264 20.162923176793672 0.0 0.0
-806.8410557878109 -91.34586578138857 -441.0116738110385 20.58145548485811 0.0 0.0
-742.1530615104895 -63.24745329797459 -386.54031898680154 20.718695030903834 0.0 0.0
-679.2792519055649 -42.31101177055619 -329.2939758940268 20.657341307781444 0.0 0.0
-612.1940713427824 -25.97125966213275 -264.1807895682061 20.096694003765595 0.0 0.0
-545.1919411377327 -20.690662173658534 -199.4189404214446 19.179900610232636 0.0 0.0
-438.20742083633223 -9.61933364107188 -136.49350062495574 23.659990309359998 0.0 0.0
-295.81571406520885 1.88956955644676 -88.17376337169064 30.598134930853252 0.0 0.0
-167.61451344492937 -2.6390344431024366 -51.07606436640954 29.840499242865874 0.0 0.0
-68.82305822807851 -15.327261448909345 -25.245095903096352 19.898166318765398 0.0 0.0
-25.629908503612928 -8.068815415239078 -10.1096171756556 11.208966254245912 0.0 0.0
-15.12017989272708 -3.8097997310377694 -5.6789938871294545 -7.189906485549576 0.0 0.0
-58.236143687816394 -8.304878503631853 -19.962306657434475 -8.268137122145957 0.0 0.0
-172.99303137650196 -3.511167101692223 -52.95125954345826 -10.23606901298795 0.0 0.0
-328.20385809376455 -7.048448298197492 -100.56485424723144 -10.240819277479625 0.0 0.0
-492.68532902607006 -33.59714668212811 -164.151594110044 -4.768493740552767 0.0 0.0
-604.3243185303746 -61.634528775804455 -243.61119420676027 -1.3840227482592695 0.0 0.0
-681.1757476058378 -80.23797345013811 -321.62926616593626 -1.1749246065786423 0.0 0.0
-764.7900310447894 -115.49992656555196 -403.5861438817183 -1.6701198116200935 0.0 0.0
-850.1788897152289 -160.12847268867841 -482.86742368149646 -2.2124400803451287 0.0 0.0
-946.4977610021349 -219.5352894525727 -567.7579492124544 -2.950716204391629 0.0 0.0
-1057.698198581406 -296.0109937788856 -664.4498376429084 -3.7878769078335495 0.0 0.0
-1183.2915333608944 -389.4532924572334 -774.7922415240372 -4.67202289824529 0.0 0.0
-1319.8392194770868 -493.50157226105114 -894.8863610114877 -5.247886482736821 0.0 0.0
-1462.6762049248177 -603.6798358041798 -1020.9010751948967 -5.825440970289545 0.0 0.0
-1600.6429145007448 -709.2886869541525 -1142.1156999547236 -6.333161833768571 0.0 0.0
-1717.7876849070742 -795.4531515121523 -1243.3177071363584 -6.541825318127692 0.0 0.0
-1794.967363211017 -844.853966599312 -1306.412701766826 -6.143578540100954 0.0 0.0
-1811.051323618803 -838.1618765121569 -1311.3182755148703 -4.6700725888135 0.0 0.0
-1796.596923172855 -806.7154481251576 -1289.154273412483 -4.777024633111793 0.0 0.0
-1685.0134659908324 -689.9041179794841 -1172.1769579345007 -32.997503886915645 0.0 0.0
-4528.208371351771 -3577.028065186779 -4018.7686630698927 2.8066438062523957e-11 0.0 0.0
-1685.0134659910118 -689.9041179796786 -1172.176957934646 32.9975038868867 0.0 0.0
-1796.5969231725844 -806.7154481249144 -1289.1542734122795 4.77702463311055 0.0 0.0
-1811.0513236188217 -838.161876512244 -1311.3182755148123 4.67007258876928 0.0 0.0
-1794.9673632093693 -844.8539665977062 -1306.4127017655674 6.143578540084459 0.0 0.0
-1717.7876849064455 -795.4531515116115 -1243.3177071358293 6.541825318130087 0.0 0.0
-1600.642914499923 -709.2886869534107 -1142.115699953943 6.333161833766102 0.0 0.0
-1462.676204923551 -603.6798358030371 -1020.9010751938326 5.825440970187479 0.0 0.0
-1319.839219475941 -493.5015722600361 -894.8863610106071 5.2478864827495535 0.0 0.0
-1183.2915333609935 -389.45329245753754 -774.7922415240031 4.672022898238282 0.0 0.0
-1057.698198580214 -296.01099377786306 -664.4498376420019 3.7878769078376884 0.0 0.0
-946.4977610017582 -219.53528945241567 -567.7579492120765 2.9507162043159525 0.0 0.0
-850.1788897151051 -160.1284726888096 -482.8674236812682 2.212440080314529 0.0 0.0
-764.7900310446184 -115.49992656567235 -403.5861438814452 1.6701198116721336 0.0 0.0
-681.1757476055875 -80.23797345021036 -321.62926616561253 1.1749246066504995 0.0 0.0
-604.3243185297222 -61.63452877539316 -243.61119420622887 1.3840227483574807 0.0 0.0
-492.6853290256806 -33.59714668211512 -164.15159410985007 4.768493740623278 0.0 0.0
-328.2038580935173 -7.048448298245372 -100.56485424717441 10.240819277481336 0.0 0.0
-172.99303137640902 -3.5111671017967225 -52.95125954346174 10.236069012988107 0.0 0.0
-58.236143687756645 -8.304878503626743 -19.962306657415024 8.268137122237778 0.0 0.0
-15.120179892706535 -3.809799731024797 -5.6789938871193995 7.189906485468219 0.0 0.0
SCALARS Strain float 6
LOOKUP_TABLE default
0.009702074857514405 -0.017351639538590417 0.0 -0.000445700807553958 0.0 0.0
0.006046833391902483 -0.0009929134156557973 0.0 -0.005212988142872973 0.0 0.0
0.002076784205804387 -0.0006605272526697588 0.0 -0.0004992490882484542 0.0 0.0
0.001925843990618131 -0.000764836803171352 0.0 -5.2980809862853575e-05 0.0 0.0
0.0024589038738373507 -0.0009678406385006061 0.0 3.358795717581725e-05 0.0 0.0
0.00352965782745919 -0.0017072695116936236 0.0 8.728163070622934e-05 0.0 0.0
0.0052332564412622086 -0.0030581826848982037 0.0 0.00010419204894220438 0.0 0.0
0.007565826447179638 -0.004999414002166496 0.0 0.00011025788083554971 0.0 0.0
0.010579754633209147 -0.007595335540283781 0.0 0.00011756199113693169 0.0 0.0
0.01432797851440222 -0.010860978352415247 0.0 0.00011612899129075771 0.0 0.0
0.018917123968013365 -0.014878702589327056 0.0 0.00015123376419330702 0.0 0.0
0.0245485193913585 -0.019849484292066115 0.0 0.00022064167375579512 0.0 0.0
0.031455648346284344 -0.026035974235318504 0.0 0.00023904540757046448 0.0 0.0
0.03984536804410223 -0.033666228664042286 0.0 0.00025397578337003055 0.0 0.0
0.04980925536595196 -0.04287437624634789 0.0 0.00019803521809798265 0.0 0.0
0.0611585786107562 -0.053514170460631685 0.0 4.2545505542033535e-05 0.0 0.0
0.07330388368824776 -0.06502906006734353 0.0 -0.00019671450077127293 0.0 0.0
0.08523803463388159 -0.07644433925545059 0.0 -0.00042819981837753 0.0 0.0
0.09567242341340858 -0.08649432804077746 0.0 -0.0004975840020364508 0.0 0.0
0.10320015675283453 -0.0938179831286153 0.0 -0.0005039975623382662 0.0 0.0
0.10605745247943496 -0.0966898633913274 0.0 1.0443035325380379e-15 0.0 0.0
0.10320015675282615 -0.09381798312861031 0.0 0.0005039975623425102 0.0 0.0
0.09567242341339048 -0.08649432804076426 0.0 0.0004975840020412835 0.0 0.0
0.08523803463385532 -0.07644433925542776 0.0 0.0004281998183808247 0.0 0.0
0.07330388368821732 -0.06502906006731532 0.0 0.00019671450077126968 0.0 0.0
0.06115857861072525 -0.0535141704606034 0.0 -4.254550554242363e-05 0.0 0.0
0.04980925536592119 -0.042874376246316376 0.0 -0.0001980352180986826 0.0 0.0
0.03984536804407021 -0.033666228664011644 0.0 -0.0002539757833700672 0.0 0.0
0.03145564834625127 -0.026035974235289597 0.0 -0.00023904540757184087 0.0 0.0
0.02454851939132709 -0.01984948429204191 0.0 -0.00022064167375538605 0.0 0.0
0.018917123967985776 -0.014878702589303277 0.0 -0.0001512337641955368 0.0 0.0
0.014327978514379381 -0.010860978352393698 0.0 -0.00011612899129318356 0.0 0.0
0.01057975463319061 -0.007595335540270403 0.0 -0.00011756199113814852 0.0 0.0
0.007565826447165049 -0.004999414002153139 0.0 -0.00011025788083579582 0.0 0.0
0.005233256441251901 -0.0030581826848894026 0.0 -0.00010419204894115952 0.0 0.0
0.0035296578274530274 -0.001707269511688605 0.0 -8.728163070558522e-05 0.0 0.0
0.0024589038738351207 -0.0009678406385008826 0.0 -3.3587957174278045e-05 0.0 0.0
0.0019258439906174813 -0.0007648368031712965 0.0 5.298080986210743e-05 0.0 0.0
0.0020767842058031657 -0.0006605272526701669 0.0 0.0004992490882472121 0.0 0.0
0.006046833391898545 -0.0009929134156542966 0.0 0.005212988142865841 0.0 0.0
0.009702074857508224 -0.01735163953857017 0.0 0.00044570080752314974 0.0 0.0
0.006453845403803179 -0.015424174135668416 0.0 -1.4729937123930431e-05 0.0 0.0
0.0038895687624338465 -0.0007041164881021603 0.0 -0.0040194090200980255 0.0 0.0
0.0014606919977443273 -0.0005335540574991747 0.0 -0.00034072817357213366 0.0 0.0
0.0017346782616046153 -0.0007344070307521521 0.0 -0.00021249381185208755 0.0 0.0
0.0021705968143009113 -0.0008984434232457864 0.0 -0.00017473687935594428 0.0 0.0
0.0030857775780065867 -0.0015387306632864378 0.0 -0.00018524797162088562 0.0 0.0
0.004612047105705289 -0.0027966189346708375 0.0 -0.0003298789401711997 0.0 0.0
0.006733742730192325 -0.004630358650677484 0.0 -0.0004894229546525904 0.0 0.0
0.009473511424187172 -0.007090633527360314 0.0 -0.0006792777374144135 0.0 0.0
0.012860885462959661 -0.01018287404943062 0.0 -0.0008921554853378556 0.0 0.0
0.016978830293110793 -0.013979006921613534 0.0 -0.0011001788680431617 0.0 0.0
0.022001323629360848 -0.01866027002650323 0.0 -0.0013022826009225967 0.0 0.0
0.028173744903951234 -0.024486590898173646 0.0 -0.00157424876140824 0.0 0.0
0.03571814903388768 -0.031703367572919486 0.0 -0.0019425563248009997 0.0 0.0
0.04472956572425885 -0.040439553712874055 0.0 -0.0024030167037904643 0.0 0.0
0.05504639962437156 -0.05056161844148361 0.0 -0.0029406669069775367 0.0 0.0
0.06613032921829794 -0.06154485808473585 0.0 -0.0034277520243608727 0.0 0.0
0.07707054778626274 -0.0724680063082027 0.0 -0.003608056621511982 0.0 0.0
0.08667595717325645 -0.08212176198817898 0.0 -0.0032273128209311264 0.0 0.0
0.09351259536615047 -0.08912004932378784 0.0 -0.002356611064870449 0.0 0.0
0.09604294175702982 -0.09189447647822692 0.0 3.5774334883331704e-15 0.0 0.0
0.09351259536614269 -0.0891200493237823 0.0 0.0023566110648794362 0.0 0.0
0.08667595717324052 -0.0821217619881658 0.0 0.0032273128209421432 0.0 0.0
0.07707054778624019 -0.07246800630818262 0.0 0.0036080566215189757 0.0 0.0
0.0661303292182716 -0.06154485808471 0.0 0.0034277520243625455 0.0 0.0
0.055046399624344045 -0.0505616184414592 0.0 0.0029406669069765 0.0 0.0
0.04472956572423108 -0.04043955371284547 0.0 0.002403016703790448 0.0 0.0
0.03571814903385902 -0.03170336757289007 0.0 0.001942556324800339 0.0 0.0
0.028173744903921816 -0.024486590898146022 0.0 0.00157424876140601 0.0 0.0
0.022001323629332444 -0.01866027002647834 0.0 0.001302282600921665 0.0 0.0
0.016978830293085556 -0.013979006921589274 0.0 0.0011001788680402996 0.0 0.0
0.012860885462938875 -0.01018287404941139 0.0 0.0008921554853353709 0.0 0.0
0.009473511424170336 -0.007090633527347236 0.0 0.0006792777374122862 0.0 0.0
0.006733742730179008 -0.00463035865066542 0.0 0.0004894229546513233 0.0 0.0
0.004612047105696324 -0.0027966189346635677 0.0 0.00032987894017093213 0.0 0.0
0.003085777578001704 -0.001538730663282059 0.0 0.00018524797161975797 0.0 0.0
0.0021705968142988813 -0.0008984434232455144 0.0 0.00017473687935610366 0.0 0.0
0.0017346782616040636 -0.0007344070307516708 0.0 0.0002124938118515432 0.0 0.0
0.0014606919977442588 -0.0005335540574996579 0.0 0.00034072817357070647 0.0 0.0
0.0038895687624294108 -0.0007041164881004332 0.0 0.004019409020090487 0.0 0.0
0.006453845403794157 -0.015424174135648009 0.0 1.4729937100199956e-05 0.0 0.0
0.004588566323761202 -0.01211877189835222 0.0 -0.0023106666083084785 0.0 0.0
0.0026794846325700417 -0.00035046967081889176 0.0 -0.003870291235329424 0.0 0.0
0.0010375275607354536 -0.00031620446641049177 0.0 -0.0003331043078562794 0.0 0.0
0.0014883795110705773 -0.0006437971959074593 0.0 -0.00046484426712912466 0.0 0.0
0.0019097552503227308 -0.0007823379203022051 0.0 -0.00046876103499505063 0.0 0.0
0.0026588892835946454 -0.0012276997227315147 0.0 -0.0004427376745852141 0.0 0.0
0.003985512799639083 -0.0022747729962098295 0.0 -0.0006981684215191377 0.0 0.0
0.005891261198963349 -0.0038976546045183967 0.0 -0.0010275746080714357 0.0 0.0
0.008350936498431749 -0.006080759085827967 0.0 -0.0014158415322003293 0.0 0.0
0.01137786611026475 -0.008826582887275388 0.0 -0.0018416873024305644 0.0 0.0
0.015032936187350368 -0.012181185061908479 0.0 -0.0022770420805454782 0.0 0.0
0.019464539934187678 -0.01629419815214078 0.0 -0.0027133058760687627 0.0 0.0
0.024900974827152447 -0.021406523356220165 0.0 -0.003208079805248635 0.0 0.0
0.031582465504965025 -0.027783424837985335 0.0 -0.003869859257287094 0.0 0.0
0.03961933981304016 -0.035564191145142754 0.0 -0.004720444318929815 0.0 0.0
0.048873043831256215 -0.044636308917938204 0.0 -0.005679884295038823 0.0 0.0
0.058886069405458076 -0.05454763855826489 0.0 -0.006516536342513619 0.0 0.0
0.06885474671101614 -0.06449238416922551 0.0 -0.006807176609789421 0.0 0.0
0.07765912261378999 -0.07335933751446785 0.0 -0.0061479833105725825 0.0 0.0
0.08396453981315438 -0.0797869754476316 0.0 -0.004428652921836801 0.0 0.0
0.0863175168264825 -0.08245411797880012 0.0 7.458660425396779e-15 0.0 0.0
0.08396453981314718 -0.07978697544762615 0.0 0.00442865292185414 0.0 0.0
0.07765912261377579 -0.07335933751445357 0.0 0.006147983310592107 0.0 0.0
0.06885474671099653 -0.06449238416920758 0.0 0.006807176609801234 0.0 0.0
0.0588860694054352 -0.05454763855824514 0.0 0.006516536342516642 0.0 0.0
0.04887304383123171 -0.04463630891791703 0.0 0.0056798842950378445 0.0 0.0
0.039619339813015256 -0.03556419114511757 0.0 0.004720444318930372 0.0 0.0
0.031582465504939546 -0.02778342483796051 0.0 0.003869859257285853 0.0 0.0
0.024900974827126495 -0.021406523356198554 0.0 0.003208079805245648 0.0 0.0
0.019464539934162618 -0.01629419815211552 0.0 0.002713305876064531 0.0 0.0
0.015032936187327987 -0.012181185061885392 0.0 0.0022770420805404592 0.0 0.0
0.011377866110246068 -0.008826582887259508 0.0 0.001841687302427012 0.0 0.0
0.008350936498416563 -0.00608075908581531 0.0 0.001415841532196775 0.0 0.0
0.005891261198951669 -0.003897654604507584 0.0 0.0010275746080689423 0.0 0.0
0.003985512799631341 -0.002274772996204466 0.0 0.0006981684215181029 0.0 0.0
0.002658889283590658 -0.001227699722729814 0.0 0.00044273767458358454 0.0 0.0
0.001909755250321298 -0.0007823379203006194 0.0 0.0004687610349946912 0.0 0.0
0.0014883795110702382 -0.0006437971959072168 0.0 0.00046484426712845625 0.0 0.0
0.0010375275607355894 -0.0003162044664113321 0.0 0.0003331043078548516 0.0 0.0
0.002679484632565724 -0.00035046967081685466 0.0 0.003870291235319614 0.0 0.0
0.004588566323752212 -0.0121187718983327 0.0 0.002310666608292444 0.0 0.0
0.0033799047526501744 -0.009665766902079195 0.0 -0.002717564136062508 0.0 0.0
0.001924717513644628 -0.0002831529550044539 0.0 -0.003582925819335426 0.0 0.0
0.0007433368306664641 -0.00017374623452980466 0.0 -0.000620887643624854 0.0 0.0
0.0012336004285546202 -0.0005166103603141976 0.0 -0.0006941802590287225 0.0 0.0
0.0016602741173266612 -0.0006897046838154794 0.0 -0.000768462253278423 0.0 0.0
0.0022659707317073947 -0.0009868404624456513 0.0 -0.0007222506037595479 0.0 0.0
0.0033674150812666934 -0.0017762969743516958 0.0 -0.0009463654065591486 0.0 0.0
0.005040619996208761 -0.003174473325588714 0.0 -0.0014341877430919235 0.0 0.0
0.007218176480037156 -0.0050766022527347545 0.0 -0.001977816636732394 0.0 0.0
0.00988578631586909 -0.007474189281115526 0.0 -0.0025733194167718325 0.0 0.0
0.013084410790674204 -0.010393461742650835 0.0 -0.0031838755306343026 0.0 0.0
0.01693757611142947 -0.013952360918480466 0.0 -0.0037999683371608218 0.0 0.0
0.02165280232396054 -0.01836467217162771 0.0 -0.004481882932677577 0.0 0.0
0.0274593195150408 -0.023890772132887064 0.0 -0.005345757798219318 0.0 0.0
0.03449255909821449 -0.030688400838669028 0.0 -0.006457852848016631 0.0 0.0
0.04266221463780838 -0.03868244843674365 0.0 -0.007732222525223717 0.0 0.0
0.051586058501414574 -0.04750187107636987 0.0 -0.008848142675015769 0.0 0.0
0.060574533171130714 -0.05646377067918722 0.0 -0.009273486551699692 0.0 0.0
0.06862134321259324 -0.06456313942904285 0.0 -0.008473864249715617 0.0 0.0
0.07450931973144415 -0.07055577890408336 0.0 -0.0060103281527074314 0.0 0.0
0.0767546586807158 -0.07324828626504853 0.0 9.866673450487085e-15 0.0 0.0
0.07450931973143744 -0.0705557789040786 0.0 0.00601032815273137 0.0 0.0
0.06862134321258065 -0.06456313942902928 0.0 0.008473864249738634 0.0 0.0
0.06057453317111336 -0.05646377067916912 0.0 0.009273486551714321 0.0 0.0
0.05158605850139452 -0.047501871076353244 0.0 0.008848142675019119 0.0 0.0
0.04266221463778681 -0.03868244843672215 0.0 0.0077322225252222584 0.0 0.0
0.03449255909819252 -0.03068840083864869 0.0 0.006457852848015958 0.0 0.0
0.027459319515018513 -0.02389077213286535 0.0 0.005345757798217276 0.0 0.0
0.021652802323937934 -0.018364672171608722 0.0 0.004481882932674225 0.0 0.0
0.01693757611140751 -0.013952360918457451 0.0 0.003799968337155451 0.0 0.0
0.013084410790654456 -0.01039346174263047 0.0 0.0031838755306276938 0.0 0.0
0.009885786315852546 -0.0074741892811014295 0.0 0.002573319416765969 0.0 0.0
0.0072181764800237115 -0.005076602252722719 0.0 0.001977816636728737 0.0 0.0
0.005040619996198603 -0.0031744733255799577 0.0 0.0014341877430887242 0.0 0.0
0.003367415081260177 -0.0017762969743464758 0.0 0.0009463654065564268 0.0 0.0
0.0022659707317043676 -0.000986840462446437 0.0 0.0007222506037587404 0.0 0.0
0.001660274117325544 -0.000689704683813884 0.0 0.0007684622532783687 0.0 0.0
0.001233600428554201 -0.0005166103603144798 0.0 0.000694180259027185 0.0 0.0
0.0007433368306665535 -0.0001737462345301734 0.0 0.0006208876436231761 0.0 0.0
0.0019247175136407934 -0.000283152955002413 0.0 0.0035829258193259793 0.0 0.0
0.003379904752642333 -0.009665766902062136 0.0 0.0027175641360515203 0.0 0.0
0.002511471117749285 -0.007710996519646619 0.0 -0.002494013965484312 0.0 0.0
0.001407175304218775 -0.00029297549946918217 0.0 -0.003267388501852393 0.0 0.0
0.0005355223090462049 -9.568358425799226e-05 0.0 -0.0009841776141586676 0.0 0.0
0.0009906844931640048 -0.00038705832344349813 0.0 -0.0009458220638662387 0.0 0.0
0.0014109214319436819 -0.0005920010916045895 0.0 -0.001049004043249214 0.0 0.0
0.0019128087387989758 -0.0008120790674244681 0.0 -0.0010291723732108655 0.0 0.0
0.0027804255572977154 -0.0013491920756698607 0.0 -0.0011530656163062738 0.0 0.0
0.004187368680075226 -0.0024618363205179614 0.0 -0.0016637532144369404 0.0 0.0
0.006081421070809567 -0.004088135274064643 0.0 -0.002358567432292817 0.0 0.0
0.008390132201690655 -0.006136202618560633 0.0 -0.0030801848405450864 0.0 0.0
0.011139924975375996 -0.008624834190673093 0.0 -0.0038194612963141318 0.0 0.0
0.014425926813658532 -0.011640618674248801 0.0 -0.004561137965162425 0.0 0.0
0.01842819296713837 -0.015366126637043911 0.0 -0.005371613293228546 0.0 0.0
0.023367991059720435 -0.02004418673705502 0.0 -0.006373240528687424 0.0 0.0
0.029383946950433962 -0.025842682019265536 0.0 -0.007643181309759816 0.0 0.0
0.03643381987335759 -0.032729725534219094 0.0 -0.009088880824748308 0.0 0.0
0.04423905226612578 -0.04042420170842483 0.0 -0.010387342239417379 0.0 0.0
0.052229825845312924 -0.04837502062288261 0.0 -0.010978525046050154 0.0 0.0
0.05954144261901684 -0.05572442157205936 0.0 -0.010156483110155249 0.0 0.0
0.06508464877577139 -0.06137090022020632 0.0 -0.007224752841060587 0.0 0.0
0.06726759215940999 -0.06416921564418926 0.0 1.1837753000065732e-14 0.0 0.0
0.06508464877576525 -0.06137090022020057 0.0 0.007224752841088183 0.0 0.0
0.059541442619005375 -0.05572442157204853 0.0 0.010156483110180636 0.0 0.0
0.05222982584529809 -0.04837502062286582 0.0 0.010978525046066433 0.0 0.0
0.04423905226610854 -0.040424201708409976 0.0 0.010387342239421764 0.0 0.0
0.036433819873338956 -0.03272972553419851 0.0 0.009088880824745753 0.0 0.0
0.029383946950415123 -0.025842682019250145 0.0 0.007643181309758095 0.0 0.0
0.023367991059701304 -0.020044186737035848 0.0 0.006373240528685216 0.0 0.0
0.01842819296711914 -0.015366126637025385 0.0 0.005371613293224767 0.0 0.0
0.014425926813639939 -0.011640618674230057 0.0 0.00456113796515639 0.0 0.0
0.011139924975359138 -0.00862483419065845 0.0 0.00381946129630574 0.0 0.0
0.008390132201676427 -0.006136202618548557 0.0 0.0030801848405384667 0.0 0.0
0.006081421070798018 -0.004088135274053557 0.0 0.0023585674322881773 0.0 0.0
0.004187368680066804 -0.0024618363205116305 0.0 0.0016637532144333426 0.0 0.0
0.0027804255572927263 -0.0013491920756647916 0.0 0.0011530656163045547 0.0 0.0
0.0019128087387967085 -0.0008120790674247703 0.0 0.0010291723732105665 0.0 0.0
0.0014109214319426154 -0.0005920010916040437 0.0 0.0010490040432483629 0.0 0.0
0.0009906844931635893 -0.00038705832344324085 0.0 0.0009458220638641521 0.0 0.0
0.0005355223090462775 -9.568358425767518e-05 0.0 0.0009841776141563479 0.0 0.0
0.0014071753042154745 -0.00029297549946748035 0.0 0.003267388501844644 0.0 0.0
0.0025114711177426727 -0.007710996519632262 0.0 0.002494013965476426 0.0 0.0
0.0018582400501485899 -0.006104867790094346 0.0 -0.0021403751061344783 0.0 0.0
0.001030352608790003 -0.00031759004438948197 0.0 -0.002955546591872028 0.0 0.0
0.0003805102258372717 -5.7392944081092e-05 0.0 -0.001327682986336724 0.0 0.0
0.0007650284635679818 -0.00026978778615598174 0.0 -0.0012077369309285667 0.0 0.0
0.0011592518099583808 -0.00048224493257363 0.0 -0.0013050909660839724 0.0 0.0
0.0015848380113381666 -0.00067177152923081 0.0 -0.0013314016485593734 0.0 0.0
0.0022487041416336577 -0.001021005994896919 0.0 -0.0013978288524026132 0.0 0.0
0.003357545279172913 -0.0018088768250820349 0.0 -0.0017783050168594938 0.0 0.0
0.004938296441170723 -0.0031194221747559217 0.0 -0.0025187365991823202 0.0 0.0
0.006896917319974425 -0.004823817894436224 0.0 -0.0033518047608318753 0.0 0.0
0.00920355458418424 -0.006885088329738443 0.0 -0.004170985578899906 0.0 0.0
0.011934814999010213 -0.00936917063073823 0.0 -0.004992987309037129 0.0 0.0
0.015240004838272116 -0.012420972208193416 0.0 -0.005870509333819114 0.0 0.0
0.019314018188572202 -0.016258371846790104 0.0 -0.00692945584827289 0.0 0.0
0.024309757505758905 -0.021051540033067653 0.0 -0.008261550935618893 0.0 0.0
0.03022786529588844 -0.02681287720594683 0.0 -0.009774118467608587 0.0 0.0
0.03686668719007913 -0.033342376086131144 0.0 -0.011148753813975456 0.0 0.0
0.04381351295423226 -0.040230967785601604 0.0 -0.01186248938768419 0.0 0.0
0.05038703378639768 -0.046817799462343865 0.0 -0.011159719388469167 0.0 0.0
0.055627418532577744 -0.0521656980411855 0.0 -0.008097879399427658 0.0 0.0
0.05777878220951449 -0.05513903682401529 0.0 1.2134390714457766e-14 0.0 0.0
0.05562741853257204 -0.05216569804117795 0.0 0.00809787939945402 0.0 0.0
0.05038703378638756 -0.04681779946233525 0.0 0.011159719388495686 0.0 0.0
0.04381351295421958 -0.040230967785587254 0.0 0.011862489387701127 0.0 0.0
0.03686668719006431 -0.03334237608612139 0.0 0.011148753813979851 0.0 0.0
0.030227865295872472 -0.026812877205928315 0.0 0.009774118467605855 0.0 0.0
0.024309757505743223 -0.02105154003305456 0.0 0.008261550935616275 0.0 0.0
0.019314018188556395 -0.016258371846773388 0.0 0.00692945584826969 0.0 0.0
0.015240004838256018 -0.012420972208179754 0.0 0.00587050933381534 0.0 0.0
0.011934814998994688 -0.009369170630725107 0.0 0.004992987309030045 0.0 0.0
0.009203554584170357 -0.006885088329727271 0.0 0.004170985578892119 0.0 0.0
0.00689691731996266 -0.004823817894426337 0.0 0.003351804760825754 0.0 0.0
0.004938296441161141 -0.0031194221747487707 0.0 0.0025187365991768255 0.0 0.0
0.003357545279166163 -0.0018088768250763007 0.0 0.0017783050168565812 0.0 0.0
0.0022487041416299623 -0.0010210059948947204 0.0 0.001397828852401093 0.0 0.0
0.001584838011336517 -0.0006717715292302482 0.0 0.0013314016485579153 0.0 0.0
0.001159251809957651 -0.00048224493257342555 0.0 0.0013050909660825686 0.0 0.0
0.0007650284635676456 -0.0002697877861556737 0.0 0.0012077369309264072 0.0 0.0
0.0003805102258371369 -5.739294408092285e-05 0.0 0.0013276829863348091 0.0 0.0
0.0010303526087874937 -0.0003175900443881847 0.0 0.00295554659186516 0.0 0.0
0.0018582400501435566 -0.0061048677900825245 0.0 0.0021403751061288855 0.0 0.0
0.0013620621486256455 -0.004771377204574282 0.0 -0.0018114372850090445 0.0 0.0
0.0007470026867280573 -0.00034508521788199903 0.0 -0.002675523800399329 0.0 0.0
0.00025525998518719905 -3.637294996976651e-05 0.0 -0.0016147899018630145 0.0 0.0
0.0005562147527344506 -0.00016772434602350164 0.0 -0.0014586633745548793 0.0 0.0
0.0009044936126344923 -0.0003639676852111623 0.0 -0.0015336253692010478 0.0 0.0
0.0012645655425632984 -0.000542704451558751 0.0 -0.0016085553170063812 0.0 0.0
0.0017654562711100171 -0.0007671367491996236 0.0 -0.0016503800878211613 0.0 0.0
0.0025876500973449233 -0.0012738397120259915 0.0 -0.0018960128504758823 0.0 0.0
0.0038156733580025966 -0.0022104742223836866 0.0 -0.002491482627245508 0.0 0.0
0.005405228881515197 -0.003548102166337886 0.0 -0.0033460128699334775 0.0 0.0
0.00728106745205776 -0.005188760226701639 0.0 -0.00422120877417843 0.0 0.0
0.009468131605355562 -0.007149518400964514 0.0 -0.005079170389721615 0.0 0.0
0.012091195271070734 -0.009542719224831929 0.0 -0.005971008560329583 0.0 0.0
0.015317371863758058 -0.012553691273449049 0.0 -0.007017194877844802 0.0 0.0
0.01929056488392842 -0.016341056827708214 0.0 -0.008296228537731834 0.0 0.0
0.024055352420838196 -0.02096065212670295 0.0 -0.009768511400806252 0.0 0.0
0.029500177164298133 -0.026289635860697165 0.0 -0.011139450283558684 0.0 0.0
0.03534300551145276 -0.03205463431861137 0.0 -0.011925327944667838 0.0 0.0
0.04112066140959087 -0.037817391938164656 0.0 -0.011435398783777638 0.0 0.0
0.046063979048244004 -0.042866251584459565 0.0 -0.008604961141599091 0.0 0.0
0.04820584385668126 -0.04608224291141354 0.0 1.1083581968884815e-14 0.0 0.0
0.04606397904823894 -0.04286625158445161 0.0 0.008604961141623355 0.0 0.0
0.0411206614095825 -0.037817391938158494 0.0 0.011435398783803782 0.0 0.0
0.035343005511442115 -0.03205463431859927 0.0 0.01192532794468389 0.0 0.0
0.029500177164285976 -0.02628963586068921 0.0 0.01113945028356155 0.0 0.0
0.024055352420825134 -0.0209606521266864 0.0 0.009768511400803119 0.0 0.0
0.019290564883915652 -0.016341056827698045 0.0 0.008296228537728633 0.0 0.0
0.01531737186374581 -0.012553691273436966 0.0 0.007017194877843023 0.0 0.0
0.01209119527105817 -0.009542719224820988 0.0 0.005971008560325753 0.0 0.0
0.009468131605343134 -0.007149518400952763 0.0 0.0050791703897150745 0.0 0.0
0.007281067452046734 -0.005188760226691303 0.0 0.004221208774170662 0.0 0.0
0.005405228881505688 -0.0035481021663304815 0.0 0.0033460128699263217 0.0 0.0
0.0038156733579951087 -0.002210474222379328 0.0 0.0024914826272409733 0.0 0.0
0.0025876500973400474 -0.0012738397120219415 0.0 0.00189601285047367 0.0 0.0
0.0017654562711075122 -0.0007671367491996672 0.0 0.0016503800878193069 0.0 0.0
0.0012645655425622176 -0.0005427044515585465 0.0 0.0016085553170047734 0.0 0.0
0.000904493612633751 -0.0003639676852104291 0.0 0.0015336253691994736 0.0 0.0
0.000556214752734012 -0.00016772434602386257 0.0 0.001458663374552769 0.0 0.0
0.00025525998518690686 -3.637294996927906e-05 0.0 0.001614789901860954 0.0 0.0
0.0007470026867259832 -0.0003450852178814689 0.0 0.0026755238003939334 0.0 0.0
0.0013620621486219063 -0.004771377204565021 0.0 0.001811437285005616 0.0 0.0
0.0009821044388104532 -0.0036770972869591143 0.0 -0.0015753995066629311 0.0 0.0
0.0005281125389639678 -0.0003754714765477309 0.0 -0.0024318664366329056 0.0 0.0
0.00014602754512923 -1.7558610091807064e-05 0.0 -0.0018397198747409855 0.0 0.0
0.0003610658641012793 -7.878500183229899e-05 0.0 -0.001680187938533447 0.0 0.0
0.0006487134114278273 -0.0002442624805236686 0.0 -0.001732064453408205 0.0 0.0
0.0009464771016266793 -0.00040458864005903333 0.0 -0.0018355656873399215 0.0 0.0
0.001314252473785747 -0.0005627120066467089 0.0 -0.0019025699649628 0.0 0.0
0.0018829351171215712 -0.0008581265976060987 0.0 -0.0020361462636042994 0.0 0.0
0.002754227427412084 -0.001430677038450797 0.0 -0.002401885038336146 0.0 0.0
0.003936490982535853 -0.0023539703161746827 0.0 -0.0030859096313957408 0.0 0.0
0.005370285886618646 -0.0035568815114805086 0.0 -0.003937422066364406 0.0 0.0
0.007029132469266411 -0.005003712870762197 0.0 -0.0047846704136339235 0.0 0.0
0.00898914461808518 -0.006752903867465508 0.0 -0.005650816105371275 0.0 0.0
0.011384385380829698 -0.008955152975737159 0.0 -0.006617446582028504 0.0 0.0
0.014346803620840193 -0.011748028575457509 0.0 -0.0077666949357642345 0.0 0.0
0.017947724826207306 -0.015209026939464774 0.0 -0.009066290753156963 0.0 0.0
0.02215455950580044 -0.0193021683047052 0.0 -0.010336410606314921 0.0 0.0
0.026828080809709314 -0.023879882789454184 0.0 -0.011138129069809325 0.0 0.0
0.031722236383813225 -0.028712959103641994 0.0 -0.010921630846730191 0.0 0.0
0.03631932561114249 -0.03339725513930204 0.0 -0.008689709677379266 0.0 0.0
0.03845285521837228 -0.03692071615452896 0.0 9.014490542913478e-15 0.0 0.0
0.03631932561113857 -0.033397255139296686 0.0 0.008689709677402726 0.0 0.0
0.031722236383806585 -0.02871295910363813 0.0 0.010921630846754694 0.0 0.0
0.02682808080970078 -0.023879882789444553 0.0 0.011138129069822728 0.0 0.0
0.022154559505790886 -0.019302168304698594 0.0 0.010336410606316421 0.0 0.0
0.01794772482619709 -0.015209026939453089 0.0 0.009066290753153235 0.0 0.0
0.014346803620830668 -0.011748028575450568 0.0 0.0077666949357604355 0.0 0.0
0.011384385380820898 -0.008955152975729772 0.0 0.006617446582026497 0.0 0.0
0.008989144618075923 -0.0067529038674572625 0.0 0.00565081610536801 0.0 0.0
0.0070291324692571275 -0.005003712870752838 0.0 0.004784670413627286 0.0 0.0
0.00537028588661036 -0.0035568815114731703 0.0 0.003937422066356263 0.0 0.0
0.003936490982529084 -0.0023539703161705888 0.0 0.003085909631389114 0.0 0.0
0.002754227427407027 -0.0014306770384463485 0.0 0.0024018850383331894 0.0 0.0
0.001882935117118394 -0.0008581265976038322 0.0 0.002036146263602435 0.0 0.0
0.0013142524737841674 -0.0005627120066466455 0.0 0.0019025699649612808 0.0 0.0
0.0009464771016259668 -0.00040458864005818424 0.0 0.001835565687337639 0.0 0.0
0.0006487134114272967 -0.00024426248052348724 0.0 0.0017320644534062311 0.0 0.0
0.00036106586410093424 -7.878500183220088e-05 0.0 0.0016801879385316754 0.0 0.0
0.0001460275451289824 -1.755861009129794e-05 0.0 0.0018397198747386774 0.0 0.0
0.0005281125389623919 -0.0003754714765476586 0.0 0.0024318664366291052 0.0 0.0
0.0009821044388076657 -0.0036770972869523627 0.0 0.0015753995066614573 0.0 0.0
0.0007067029222333092 -0.0028322299458491715 0.0 -0.0014625725690805918 0.0 0.0
0.00035977839111381207 -0.00040292758447078647 0.0 -0.002240535764092108 0.0 0.0
4.2377307482535043e-05 5.36437498251279e-06 0.0 -0.0020040273817143344 0.0 0.0
0.00017753217366200434 -8.543966752799234e-08 0.0 -0.001860782512497384 0.0 0.0
0.00039486093107804227 -0.00012662934592857207 0.0 -0.001892975153924515 0.0 0.0
0.0006191401372017906 -0.0002556502679485748 0.0 -0.0020070988457306935 0.0 0.0
0.0008770782085059915 -0.00037717892821393674 0.0 -0.0021241915482316954 0.0 0.0
0.0012397751325815864 -0.0005401962198172705 0.0 -0.0022163063060557774 0.0 0.0
0.00177679402243661 -0.0008327121735369587 0.0 -0.002387856897809137 0.0 0.0
0.0025324506605318036 -0.0013350613998955084 0.0 -0.002736140159498238 0.0 0.0
0.003493794932344815 -0.002060026988181922 0.0 -0.0033606931822754474 0.0 0.0
0.004619541115896617 -0.0029840434220235134 0.0 -0.004083290134486294 0.0 0.0
0.005932894330509909 -0.004097622191317854 0.0 -0.004873028178212446 0.0 0.0
0.00752321760944554 -0.005511985189003588 0.0 -0.005729619531829804 0.0 0.0
0.00949302751885679 -0.007325516720057223 0.0 -0.006679795829105828 0.0 0.0
0.011924195603936278 -0.009622460742162268 0.0 -0.007739462852022339 0.0 0.0
0.014864133778606337 -0.012438260084050799 0.0 -0.008817827895640624 0.0 0.0
0.01829497370323329 -0.015769936620486875 0.0 -0.009595856803542486 0.0 0.0
0.022166900982194405 -0.01953892746613467 0.0 -0.009573555045093163 0.0 0.0
0.02630806110616537 -0.023687740109614986 0.0 -0.008188457894330883 0.0 0.0
0.02840690432127129 -0.027557248116738525 0.0 6.937592861300246e-15 0.0 0.0
0.026308061106162784 -0.02368774010961396 0.0 0.00818845789435097 0.0 0.0
0.02216690098218951 -0.019538927466130073 0.0 0.009573555045113908 0.0 0.0
0.018294973703227035 -0.01576993662048029 0.0 0.009595856803553592 0.0 0.0
0.014864133778599829 -0.012438260084047787 0.0 0.008817827895641174 0.0 0.0
0.011924195603929476 -0.00962246074215511 0.0 0.007739462852018143 0.0 0.0
0.0094930275188507 -0.00732551672005145 0.0 0.0066797958291037254 0.0 0.0
0.007523217609440358 -0.005511985188998561 0.0 0.005729619531829187 0.0 0.0
0.005932894330504181 -0.004097622191313535 0.0 0.004873028178209886 0.0 0.0
0.004619541115890776 -0.002984043422020345 0.0 0.004083290134480764 0.0 0.0
0.003493794932339516 -0.0020600269881777813 0.0 0.003360693182269902 0.0 0.0
0.0025324506605275384 -0.0013350613998932852 0.0 0.0027361401594946516 0.0 0.0
0.0017767940224336564 -0.0008327121735348641 0.0 0.0023878568978070885 0.0 0.0
0.0012397751325797543 -0.0005401962198157389 0.0 0.0022163063060542344 0.0 0.0
0.0008770782085052105 -0.0003771789282148224 0.0 0.002124191548230428 0.0 0.0
0.0006191401372015227 -0.00025565026794797756 0.0 0.0020070988457281695 0.0 0.0
0.00039486093107787146 -0.00012662934592898713 0.0 0.001892975153922347 0.0 0.0
0.00017753217366179157 -8.543966686584953e-08 0.0 0.0018607825124950486 0.0 0.0
4.237730748232863e-05 5.364374982522214e-06 0.0 0.002004027381711824 0.0 0.0
0.00035977839111301133 -0.00040292758447072266 0.0 0.0022405357640898132 0.0 0.0
0.0007067029222319344 -0.0028322299458445987 0.0 0.001462572569079638 0.0 0.0
0.000516994605655982 -0.002211211363506674 0.0 -0.0014119362862264864 0.0 0.0
0.00023550724182466642 -0.0004182238961112033 0.0 -0.0021065636546258844 0.0 0.0
-5.484176993498751e-05 3.1244045309335745e-05 0.0 -0.002109855258077017 0.0 0.0
3.4808204754491668e-06 7.124667253447053e-05 0.0 -0.00199397101079007 0.0 0.0
0.0001448030186825214 -1.1980488421483329e-05 0.0 -0.0020092464848687156 0.0 0.0
0.00028748416795085994 -0.0001028828927602804 0.0 -0.002120077543592407 0.0 0.0
0.0004337080433289038 -0.00018279221575817425 0.0 -0.0022626165442089633 0.0 0.0
0.0006178283625960122 -0.00026812578521686204 0.0 -0.0023856252632571823 0.0 0.0
0.0008813399202338768 -0.00038799042373089787 0.0 -0.0024675884345300627 0.0 0.0
0.0012374057879648852 -0.0005809572222300772 0.0 -0.0025774216640894764 0.0 0.0
0.0017003826929379141 -0.000875444340276832 0.0 -0.0028513153409853815 0.0 0.0
0.002264172233975398 -0.0012798136424549433 0.0 -0.0033024036739654184 0.0 0.0
0.002923652067593616 -0.0017737855773873983 0.0 -0.0038709742681557295 0.0 0.0
0.0037282677708866245 -0.002418563041812076 0.0 -0.004550074787279449 0.0 0.0
0.00472915647544214 -0.003261907522309618 0.0 -0.005342007431270582 0.0 0.0
0.0059949431442403835 -0.004374086105293946 0.0 -0.006264138554543763 0.0 0.0
0.0076335781614628225 -0.0058662145615179405 0.0 -0.0072562383651628105 0.0 0.0
0.009780611284119204 -0.007888940810013248 0.0 -0.008067391018586442 0.0 0.0
0.01250400739851093 -0.01051009298118451 0.0 -0.00815924077892506 0.0 0.0
0.015950935983169174 -0.013788089013431884 0.0 -0.00713557542214655 0.0 0.0
0.01789270697223366 -0.017913103566664923 0.0 5.9245143513297904e-15 0.0 0.0
0.015950935983168178 -0.013788089013431584 0.0 0.007135575422163866 0.0 0.0
0.012504007398508215 -0.010510092981179438 0.0 0.00815924077894161 0.0 0.0
0.009780611284115295 -0.007888940810008179 0.0 0.008067391018594721 0.0 0.0
0.007633578161459254 -0.005866214561515328 0.0 0.007256238365161986 0.0 0.0
0.005994943144237261 -0.004374086105290312 0.0 0.0062641385545394185 0.0 0.0
0.004729156475439668 -0.0032619075223053852 0.0 0.005342007431268965 0.0 0.0
0.003728267770884748 -0.002418563041812767 0.0 0.00455007478727863 0.0 0.0
0.002923652067591322 -0.0017737855773870357 0.0 0.0038709742681531144 0.0 0.0
0.002264172233972983 -0.0012798136424539142 0.0 0.0033024036739607585 0.0 0.0
0.0017003826929358698 -0.0008754443402744272 0.0 0.002851315340980689 0.0 0.0
0.0012374057879631882 -0.0005809572222288265 0.0 0.0025774216640873 0.0 0.0
0.0008813399202326913 -0.0003879904237301005 0.0 0.0024675884345292656 0.0 0.0
0.0006178283625953852 -0.00026812578521696775 0.0 0.002385625263256159 0.0 0.0
0.00043370804332872845 -0.00018279221575933055 0.0 0.002262616544206747 0.0 0.0
0.0002874841679507335 -0.00010288289276160594 0.0 0.0021200775435895247 0.0 0.0
0.00014480301868249039 -1.1980488421823823e-05 0.0 0.0020092464848665195 0.0 0.0
3.4808204755420846e-06 7.124667253511235e-05 0.0 0.0019939710107872858 0.0 0.0
-5.484176993497275e-05 3.1244045309377304e-05 0.0 0.0021098552580750213 0.0 0.0
0.00023550724182425727 -0.0004182238961112189 0.0 0.0021065636546238565 0.0 0.0
0.000516994605655139 -0.002211211363503759 0.0 0.0014119362862258789 0.0 0.0
0.00038488977686692915 -0.0017446940063647015 0.0 -0.0013550807436762892 0.0 0.0
0.00014263960567850557 -0.00041196640307746755 0.0 -0.00199502699771124 0.0 0.0
-0.00014467758117906853 5.645875161105643e-05 0.0 -0.0021628173537511786 0.0 0.0
-0.00016176163162373775 0.00013755454857063905 0.0 -0.0020759785791197366 0.0 0.0
-0.00010004420514151871 9.847973095364131e-05 0.0 -0.0020756060075264506 0.0 0.0
-4.5190084881875454e-05 5.0145543374392846e-05 0.0 -0.0021708019285187337 0.0 0.0
-1.4730161008300011e-05 1.534190615475524e-05 0.0 -0.0023144616197163896 0.0 0.0
-2.6190846555867634e-06 2.6981565630753706e-06 0.0 -0.0024500251948652405 0.0 0.0
6.427766930046689e-07 -8.840856971463468e-07 0.0 -0.002518788198222983 0.0 0.0
1.0072725696426638e-06 -7.231503641783429e-07 0.0 -0.0025940199959425627 0.0 0.0
6.096300031086486e-07 -4.0460208613603906e-07 0.0 -0.0026831152822938496 0.0 0.0
-6.806115500156249e-07 6.254541938991809e-07 0.0 -0.002962323201984292 0.0 0.0
-4.736638430816273e-06 3.783463261494203e-06 0.0 -0.00336387735550814 0.0 0.0
-1.0816866411290775e-05 9.041235607426117e-06 0.0 -0.003919773402546353 0.0 0.0
-3.0116930450724234e-06 7.82212881836214e-06 0.0 -0.004664336324937607 0.0 0.0
8.422249152180428e-05 -4.506567128082509e-05 0.0 -0.005603027121620105 0.0 0.0
0.0004194821071972668 -0.00029797333658665784 0.0 -0.006707174826943056 0.0 0.0
0.001278141827352568 -0.0009800276656540283 0.0 -0.007857997927943842 0.0 0.0
0.0028913429350830855 -0.0023746478630170082 0.0 -0.008786791114175494 0.0 0.0
0.005366682929063819 -0.004363225573774952 0.0 -0.00878927889225795 0.0 0.0
0.006828607576917535 -0.00867721688377429 0.0 6.566362037441209e-15 0.0 0.0
0.005366682929063714 -0.0043632255737744265 0.0 0.008789278892271143 0.0 0.0
0.0028913429350820746 -0.00237464786301521 0.0 0.008786791114184334 0.0 0.0
0.0012781418273518615 -0.000980027665652019 0.0 0.007857997927947105 0.0 0.0
0.0004194821071978757 -0.00029797333658581097 0.0 0.006707174826940582 0.0 0.0
8.422249152265776e-05 -4.5065671280258976e-05 0.0 0.005603027121616649 0.0 0.0
-3.011693044266861e-06 7.822128816867188e-06 0.0 0.004664336324936793 0.0 0.0
-1.08168664099861e-05 9.041235603456148e-06 0.0 0.003919773402544655 0.0 0.0
-4.7366384294070816e-06 3.783463261418729e-06 0.0 0.003363877355506712 0.0 0.0
-6.806115487021139e-07 6.254541916024477e-07 0.0 0.002962323201981272 0.0 0.0
6.09630004342552e-07 -4.046020845272592e-07 0.0 0.0026831152822910337 0.0 0.0
1.007272570651026e-06 -7.231503650937212e-07 0.0 0.002594019995940579 0.0 0.0
6.427766936635386e-07 -8.840856966844936e-07 0.0 0.0025187881982228965 0.0 0.0
-2.6190846552225392e-06 2.69815656148838e-06 0.0 0.0024500251948640674 0.0 0.0
-1.4730161007862692e-05 1.5341906153635584e-05 0.0 0.002314461619713743 0.0 0.0
-4.519008488143372e-05 5.0145543371763276e-05 0.0 0.0021708019285154832 0.0 0.0
-0.0001000442051412935 9.847973095379787e-05 0.0 0.002075606007524382 0.0 0.0
-0.00016176163162355477 0.00013755454857053136 0.0 0.0020759785791172763 0.0 0.0
-0.0001446775811791052 5.645875161154083e-05 0.0 0.0021628173537496928 0.0 0.0
0.0001426396056782773 -0.00041196640307734965 0.0 0.0019950269977089276 0.0 0.0
0.00038488977686676923 -0.0017446940063627274 0.0 0.0013550807436753121 0.0 0.0
0.0002888331837371488 -0.001366746765261651 0.0 -0.0012580448854660428 0.0 0.0
6.98630182091422e-05 -0.00038485701296837253 0.0 -0.001880291553153311 0.0 0.0
-0.0002280322968408842 8.102198160628407e-05 0.0 -0.002163914744064112 0.0 0.0
-0.00031858943517019814 0.00019954038324596706 0.0 -0.0021054211769251812 0.0 0.0
-0.0003382599285037602 0.00020374086874735676 0.0 -0.0020882621877284504 0.0 0.0
-0.0003739739872478946 0.00020075814102628987 0.0 -0.0021571952311261007 0.0 0.0
-0.0004621911835935424 0.0002130019532386202 0.0 -0.002278412590823029 0.0 0.0
-0.0006232194151270391 0.0002731666466959509 0.0 -0.0023891801004215962 0.0 0.0
-0.0008799468420671846 0.00038628073870747824 0.0 -0.0024679794996795745 0.0 0.0
-0.0012354255450564152 0.0005793572383928673 0.0 -0.002576383325575471 0.0 0.0
-0.0016991283509710442 0.0008746192173720571 0.0 -0.002850420945793241 0.0 0.0
-0.0022654014594394077 0.0012810640682876255 0.0 -0.003301479798426343 0.0 0.0
-0.002932759389464367 0.001781465350133185 0.0 -0.0038662807421745047 0.0 0.0
-0.0037502243146827676 0.002438899349127984 0.0 -0.004538332635904988 0.0 0.0
-0.004737081701283223 0.0032821519927446847 0.0 -0.005347877178118575 0.0 0.0
-0.0058365819190165195 0.004282515498399326 0.0 -0.006369744489634309 0.0 0.0
-0.006859574185297297 0.005271854335746989 0.0 -0.007665794620442918 0.0 0.0
-0.0074488121822471505 0.00592050639159304 0.0 -0.009281662853009336 0.0 0.0
-0.007126445794809085 0.005733070928314791 0.0 -0.011067228741706677 0.0 0.0
-0.00498284139024747 0.0041419638001339975 0.0 -0.01178087054822912 0.0 0.0
-0.003292407098128205 -0.0006894885501446591 0.0 7.128846124526689e-15 0.0 0.0
-0.00498284139024798 0.004141963800134012 0.0 0.011780870548243741 0.0 0.0
-0.0071264457948083115 0.005733070928312978 0.0 0.01106722874171824 0.0 0.0
-0.007448812182243856 0.005920506391588707 0.0 0.009281662853013482 0.0 0.0
-0.006859574185292637 0.005271854335743447 0.0 0.0076657946204394395 0.0 0.0
-0.005836581919011937 0.004282515498394116 0.0 0.0063697444896306365 0.0 0.0
-0.004737081701278756 0.0032821519927400105 0.0 0.005347877178115203 0.0 0.0
-0.003750224314678154 0.00243889934912335 0.0 0.004538332635902507 0.0 0.0
-0.0029327593894593255 0.0017814653501307485 0.0 0.0038662807421718046 0.0 0.0
-0.002265401459434318 0.0012810640682823934 0.0 0.0033014797984223937 0.0 0.0
-0.0016991283509666445 0.0008746192173690189 0.0 0.0028504209457896968 0.0 0.0
-0.0012354255450531461 0.0005793572383900129 0.0 0.002576383325573109 0.0 0.0
-0.0008799468420650504 0.00038628073870841136 0.0 0.002467979499679494 0.0 0.0
-0.0006232194151259701 0.00027316664669444504 0.0 0.0023891801004196052 0.0 0.0
-0.00046219118359273903 0.00021300195323767102 0.0 0.0022784125908207028 0.0 0.0
-0.0003739739872471113 0.00020075814102590126 0.0 0.002157195231123503 0.0 0.0
-0.00033825992850332434 0.0002037408687474591 0.0 0.002088262187726413 0.0 0.0
-0.00031858943516992335 0.00019954038324498867 0.0 0.002105421176922837 0.0 0.0
-0.00022803229684076543 8.102198160673635e-05 0.0 0.002163914744061563 0.0 0.0
6.986301820899329e-05 -0.00038485701296821033 0.0 0.0018802915531519605 0.0 0.0
0.0002888331837368932 -0.0013667467652601147 0.0 0.001258044885463892 0.0 0.0
0.0002073047879314557 -0.0010412381816591867 0.0 -0.0011270052505266068 0.0 0.0
5.758989489165176e-06 -0.00034181750977657134 0.0 -0.001749220581499501 0.0 0.0
-0.0003062173005781314 0.00010658552765374708 0.0 -0.002113104842565372 0.0 0.0
-0.0004674863688249297 0.0002573245100227006 0.0 -0.002081367589449893 0.0 0.0
-0.0005685437964518055 0.0003032572559573618 0.0 -0.002045225266686236 0.0 0.0
-0.0006962129940531116 0.0003454975958101588 0.0 -0.0020791074732670898 0.0 0.0
-0.0009023298074894806 0.0004057262310723128 0.0 -0.0021527776319910895 0.0 0.0
-0.0012439136865192858 0.0005446654569816059 0.0 -0.0022241163896398216 0.0 0.0
-0.0017754042673472819 0.000830563526702061 0.0 -0.0023874038081657892 0.0 0.0
-0.002530412869775015 0.001333043994325895 0.0 -0.002733376991219827 0.0 0.0
-0.0034928360744410246 0.0020594099908585652 0.0 -0.003359256751127795 0.0 0.0
-0.004620394254852774 0.002985202808858054 0.0 -0.004082779696201824 0.0 0.0
-0.0059396537009252974 0.004103639318763338 0.0 -0.004863389656291109 0.0 0.0
-0.0075435844924566925 0.005531655450896635 0.0 -0.0056984674778045915 0.0 0.0
-0.009509023293378549 0.007351459321600513 0.0 -0.0066598076269748716 0.0 0.0
-0.011801618805032783 0.009549778793948794 0.0 -0.007904404660384596 0.0 0.0
-0.01419165609773073 0.011912157036706271 0.0 -0.009618264400083294 0.0 0.0
-0.01621028323079454 0.013958332938364203 0.0 -0.011884101589300108 0.0 0.0
-0.016977852529047974 0.01484753292161644 0.0 -0.014233812830207172 0.0 0.0
-0.015059148126599538 0.013016842483358859 0.0 -0.01473451134226349 0.0 0.0
-0.013214862731990185 0.006600435906602187 0.0 7.267190321735839e-15 0.0 0.0
-0.01505914812659932 0.013016842483357173 0.0 0.014734511342281164 0.0 0.0
-0.016977852529045424 0.014847532921613213 0.0 0.014233812830223389 0.0 0.0
-0.01621028323078851 0.01395833293835666 0.0 0.01188410158930766 0.0 0.0
-0.014191656097722088 0.011912157036699088 0.0 0.009618264400081395 0.0 0.0
-0.011801618805024214 0.009549778793937909 0.0 0.007904404660380863 0.0 0.0
-0.009509023293370847 0.007351459321594351 0.0 0.006659807626970587 0.0 0.0
-0.007543584492448671 0.00553165545088942 0.0 0.005698467477801565 0.0 0.0
-0.005939653700916692 0.00410363931875507 0.0 0.004863389656287713 0.0 0.0
-0.00462039425484407 0.002985202808851193 0.0 0.004082779696195131 0.0 0.0
-0.0034928360744330943 0.0020594099908512234 0.0 0.0033592567511200704 0.0 0.0
-0.002530412869768844 0.0013330439943221256 0.0 0.0027333769912154583 0.0 0.0
-0.0017754042673433059 0.0008305635267006489 0.0 0.0023874038081643733 0.0 0.0
-0.001243913686516883 0.0005446654569810213 0.0 0.0022241163896381854 0.0 0.0
-0.0009023298074879904 0.0004057262310719443 0.0 0.0021527776319893235 0.0 0.0
-0.0006962129940521538 0.00034549759581054066 0.0 0.002079107473265088 0.0 0.0
-0.0005685437964510119 0.00030325725595681805 0.0 0.002045225266684389 0.0 0.0
-0.00046748636882435954 0.00025732451002245826 0.0 0.002081367589447818 0.0 0.0
-0.00030621730057774315 0.00010658552765381614 0.0 0.0021131048425634263 0.0 0.0
5.758989489195703e-06 -0.0003418175097765353 0.0 0.0017492205814979014 0.0 0.0
0.00020730478793119447 -0.0010412381816580166 0.0 0.0011270052505249967 0.0 0.0
0.0001340385680638347 -0.0007618975452264468 0.0 -0.0009855771386896152 0.0 0.0
-5.416056912404995e-05 -0.00028606434876635265 0.0 -0.001594735815841011 0.0 0.0
-0.00038120606414934966 0.0001342748155383932 0.0 -0.002011677900028178 0.0 0.0
-0.0006090439060003965 0.0003112918380368718 0.0 -0.0020036091141714643 0.0 0.0
-0.0007899608966291247 0.00039602997647447967 0.0 -0.0019473307645367145 0.0 0.0
-0.0010070557524685252 0.00048214949750878945 0.0 -0.0019339211769206165 0.0 0.0
-0.0013347879293336949 0.0005898178635857795 0.0 -0.001944853892167875 0.0 0.0
-0.001886453472643984 0.0008610578488982491 0.0 -0.002045942182091113 0.0 0.0
-0.0027522412853186184 0.0014277796709173361 0.0 -0.002399269476311612 0.0 0.0
-0.003934858107687674 0.00235188891725897 0.0 -0.003081753540849457 0.0 0.0
-0.005370070997996072 0.0035570591149228876 0.0 -0.003936568805850232 0.0 0.0
-0.007029325889025686 0.005004690309697825 0.0 -0.004784695442268075 0.0 0.0
-0.008990845273648048 0.006754533255710177 0.0 -0.005638724339719172 0.0 0.0
-0.011395567454842586 0.008964276058552566 0.0 -0.006565964381078658 0.0 0.0
-0.014364554225159754 0.01176898411410373 0.0 -0.007688533591118089 0.0 0.0
-0.017884159971544508 0.015181502312382682 0.0 -0.009197973276365618 0.0 0.0
-0.02168837770330315 0.018959492100271164 0.0 -0.011414949020303908 0.0 0.0
-0.02509868534154575 0.022452015144039595 0.0 -0.0144805952235345 0.0 0.0
-0.026806445180852335 0.02433930913944803 0.0 -0.017592277854182516 0.0 0.0
-0.02466602224662187 0.022509278951710916 0.0 -0.018624844575133557 0.0 0.0
-0.022307724878293484 0.013733392081956022 0.0 8.446368604531074e-15 0.0 0.0
-0.024666022246620754 0.02250927895170775 0.0 0.01862484457515384 0.0 0.0
-0.026806445180847904 0.02433930913944437 0.0 0.017592277854202757 0.0 0.0
-0.025098685341536708 0.022452015144031126 0.0 0.014480595223544137 0.0 0.0
-0.021688377703291455 0.018959492100257967 0.0 0.011414949020303732 0.0 0.0
-0.017884159971532792 0.015181502312371285 0.0 0.009197973276361585 0.0 0.0
-0.014364554225148634 0.01176898411409268 0.0 0.007688533591113121 0.0 0.0
-0.011395567454831201 0.008964276058540504 0.0 0.006565964381073959 0.0 0.0
-0.008990845273636179 0.006754533255699185 0.0 0.005638724339714058 0.0 0.0
-0.007029325889013678 0.00500469030968761 0.0 0.004784695442260662 0.0 0.0
-0.00537007099798498 0.003557059114913032 0.0 0.003936568805840269 0.0 0.0
-0.003934858107678762 0.0023518889172537303 0.0 0.0030817535408426177 0.0 0.0
-0.002752241285312257 0.0014277796709119743 0.0 0.0023992694763079283 0.0 0.0
-0.0018864534726401212 0.0008610578488960289 0.0 0.002045942182089769 0.0 0.0
-0.0013347879293315588 0.0005898178635862929 0.0 0.001944853892166071 0.0 0.0
-0.0010070557524670442 0.00048214949750703033 0.0 0.0019339211769190058 0.0 0.0
-0.0007899608966280267 0.00039602997647442015 0.0 0.0019473307645351276 0.0 0.0
-0.0006090439059996932 0.00031129183803678303 0.0 0.0020036091141694074 0.0 0.0
-0.00038120606414898727 0.0001342748155387409 0.0 0.002011677900026654 0.0 0.0
-5.4160569124117994e-05 -0.00028606434876652216 0.0 0.001594735815839289 0.0 0.0
0.00013403856806356695 -0.0007618975452255913 0.0 0.0009855771386885128 0.0 0.0
6.764099857049204e-05 -0.0005257525330310642 0.0 -0.0008399039957812868 0.0 0.0
-0.0001111981446373758 -0.00022208856634922634 0.0 -0.0014172721805791272 0.0 0.0
-0.00045424593980367025 0.00016497737367255177 0.0 -0.0018613914707855716 0.0 0.0
-0.0007441019028614007 0.0003615955771495564 0.0 -0.0018726391269754455 0.0 0.0
-0.0010007902178248997 0.0004820613707994738 0.0 -0.0017943207812045605 0.0 0.0
-0.0013060162578200111 0.0006052889712830606 0.0 -0.0017233921161209375 0.0 0.0
-0.00178008650797168 0.0007913795316067093 0.0 -0.0017001171351422877 0.0 0.0
-0.002588246124465659 0.0012745394914208696 0.0 -0.0019053405453617017 0.0 0.0
-0.003813853917821502 0.002207312145431393 0.0 -0.002486481593533221 0.0 0.0
-0.0054045337502999094 0.003546890816568513 0.0 -0.0033418536804028023 0.0 0.0
-0.0072817045650113415 0.005189855142345788 0.0 -0.0042207347036148524 0.0 0.0
-0.00946757519674683 0.007150392060568405 0.0 -0.005079622679029039 0.0 0.0
-0.012085899205936107 0.009538893610262332 0.0 -0.005959205184894448 0.0 0.0
-0.015310384741179104 0.012544293384685459 0.0 -0.006953647815625558 0.0 0.0
-0.019297239011118288 0.016341635513318412 0.0 -0.008162354340246376 0.0 0.0
-0.02406398652338779 0.020981049806790317 0.0 -0.009819055171124065 0.0 0.0
-0.029293887584219545 0.026189563486527824 0.0 -0.012296351679559546 0.0 0.0
-0.034058304179631724 0.03109307465794732 0.0 -0.015811224536221382 0.0 0.0
-0.0365594038510287 0.033897072888266086 0.0 -0.01965771071006446 0.0 0.0
-0.03391256005758144 0.03174598050707953 0.0 -0.0215217093515601 0.0 0.0
-0.03086723315432103 0.02062215880327207 0.0 9.965119007748768e-15 0.0 0.0
-0.033912560057578825 0.031745980507078185 0.0 0.021521709351583162 0.0 0.0
-0.03655940385102216 0.03389707288825735 0.0 0.019657710710089135 0.0 0.0
-0.034058304179620455 0.03109307465793685 0.0 0.015811224536233095 0.0 0.0
-0.029293887584205126 0.02618956348651416 0.0 0.012296351679560436 0.0 0.0
-0.02406398652337312 0.020981049806776737 0.0 0.009819055171121215 0.0 0.0
-0.019297239011103928 0.01634163551330587 0.0 0.008162354340241096 0.0 0.0
-0.015310384741164501 0.012544293384672455 0.0 0.006953647815620568 0.0 0.0
-0.012085899205920892 0.009538893610246634 0.0 0.005959205184889085 0.0 0.0
-0.009467575196731429 0.007150392060554294 0.0 0.005079622679021054 0.0 0.0
-0.007281704564997127 0.005189855142330321 0.0 0.004220734703605424 0.0 0.0
-0.0054045337502883085 0.0035468908165588757 0.0 0.0033418536803948816 0.0 0.0
-0.0038138539178127918 0.002207312145424824 0.0 0.002486481593528484 0.0 0.0
-0.0025882461244599777 0.0012745394914160497 0.0 0.001905340545358784 0.0 0.0
-0.0017800865079687297 0.0007913795316047406 0.0 0.0017001171351408426 0.0 0.0
-0.0013060162578182528 0.0006052889712838464 0.0 0.001723392116119776 0.0 0.0
-0.0010007902178236871 0.00048206137079884203 0.0 0.0017943207812030496 0.0 0.0
-0.0007441019028605697 0.0003615955771492166 0.0 0.0018726391269740096 0.0 0.0
-0.00045424593980323007 0.00016497737367278707 0.0 0.001861391470783881 0.0 0.0
-0.00011119814463721646 -0.0002220885663492713 0.0 0.00141727218057794 0.0 0.0
6.764099857061592e-05 -0.0005257525330305087 0.0 0.0008399039957807749 0.0 0.0
8.604279497241194e-06 -0.0003316408438692248 0.0 -0.0006912470725524436 0.0 0.0
-0.00016488673931640968 -0.000154285938123696 0.0 -0.0012185147329016102 0.0 0.0
-0.0005255337410799215 0.0001984917256325959 0.0 -0.0016642150776692297 0.0 0.0
-0.0008730444404467879 0.00040864012399342847 0.0 -0.0016887163771191931 0.0 0.0
-0.0012006671864724708 0.0005606396010275068 0.0 -0.001588022307701425 0.0 0.0
-0.0016027016830922152 0.0007208359153726867 0.0 -0.00146118989287203 0.0 0.0
-0.0022568804233048293 0.001039832200842031 0.0 -0.0014441958913219753 0.0 0.0
-0.0033571172705259026 0.0018076669479535905 0.0 -0.0017838652131404423 0.0 0.0
-0.0049370562142274825 0.0031171102526987614 0.0 -0.002512514860775946 0.0 0.0
-0.006897513857353816 0.004824019692989757 0.0 -0.0033482237920381156 0.0 0.0
-0.009204867386980927 0.006886772319320618 0.0 -0.004170564352394401 0.0 0.0
-0.011933508734916654 0.009369802161026005 0.0 -0.004993305715760714 0.0 0.0
-0.015227076541430393 0.012411515314723306 0.0 -0.005858935503247967 0.0 0.0
-0.01928369592273063 0.016227189391335627 0.0 -0.0068654594460274805 0.0 0.0
-0.024292897862752065 0.02101951400722529 0.0 -0.00810698057786856 0.0 0.0
-0.03029145357673775 0.026862740269302673 0.0 -0.00973263895628532 0.0 0.0
-0.03690713114616729 0.03346446379934752 0.0 -0.012121637073355732 0.0 0.0
-0.04298418308694074 0.0397452949085017 0.0 -0.015701504557767428 0.0 0.0
-0.04620235495144776 0.04340531033380298 0.0 -0.020121588917290358 0.0 0.0
-0.042989649645051614 0.040857870334832194 0.0 -0.023470980093425162 0.0 0.0
-0.039255183285995636 0.02745145198620174 0.0 1.0441300601904402e-14 0.0 0.0
-0.04298964964504809 0.040857870334831264 0.0 0.023470980093448942 0.0 0.0
-0.04620235495143906 0.0434053103337928 0.0 0.020121588917314796 0.0 0.0
-0.04298418308692727 0.03974529490848785 0.0 0.015701504557781347 0.0 0.0
-0.03690713114615063 0.03346446379933579 0.0 0.012121637073358256 0.0 0.0
-0.0302914535767203 0.026862740269286582 0.0 0.009732638956283091 0.0 0.0
-0.024292897862734454 0.02101951400720995 0.0 0.008106980577864893 0.0 0.0
-0.019283695922712465 0.016227189391319022 0.0 0.006865459446021186 0.0 0.0
-0.01522707654141189 0.012411515314705327 0.0 0.005858935503243259 0.0 0.0
-0.011933508734898322 0.009369802161009957 0.0 0.0049933057157539006 0.0 0.0
-0.009204867386964041 0.006886772319304586 0.0 0.004170564352385173 0.0 0.0
-0.006897513857339833 0.004824019692976897 0.0 0.0033482237920301845 0.0 0.0
-0.004937056214216465 0.003117110252690406 0.0 0.002512514860770868 0.0 0.0
-0.0033571172705180504 0.0018076669479473472 0.0 0.0017838652131358709 0.0 0.0
-0.002256880423300357 0.0010398322008385971 0.0 0.0014441958913205218 0.0 0.0
-0.001602701683089973 0.0007208359153746868 0.0 0.001461189892871374 0.0 0.0
-0.0012006671864710403 0.0005606396010261309 0.0 0.0015880223076998928 0.0 0.0
-0.0008730444404458582 0.0004086401239939147 0.0 0.0016887163771181135 0.0 0.0
-0.0005255337410793887 0.00019849172563216592 0.0 0.001664215077667716 0.0 0.0
-0.0001648867393161408 -0.0001542859381236583 0.0 0.0012185147329003027 0.0 0.0
8.604279497361688e-06 -0.0003316408438688783 0.0 0.0006912470725522703 0.0 0.0
-4.150252905668279e-05 -0.00017973268954830362 0.0 -0.0005406447726546935 0.0 0.0
-0.00021339435284172518 -8.671056289384116e-05 0.0 -0.0010003949272448626 0.0 0.0
-0.0005942537961524834 0.0002333256681685359 0.0 -0.0014215249556613174 0.0 0.0
-0.0009965066064433134 0.00045360994091586063 0.0 -0.001451689421978598 0.0 0.0
-0.0013930916376786414 0.0006293043811959851 0.0 -0.0013310872500039953 0.0 0.0
-0.0019070794559595565 0.0008456842698590103 0.0 -0.0011608018250658574 0.0 0.0
-0.002779670190542008 0.0013592699932575441 0.0 -0.0011916191586858176 0.0 0.0
-0.004186248209052982 0.0024603694304064032 0.0 -0.0016633629278345334 0.0 0.0
-0.0060823535222738374 0.004088240901454868 0.0 -0.002352985243239904 0.0 0.0
-0.008392039041272871 0.006137735486626654 0.0 -0.0030774743144745 0.0 0.0
-0.011141514028095153 0.008626812541335382 0.0 -0.0038195225301581167 0.0 0.0
-0.01442321004789415 0.011640238020379938 0.0 -0.004560674278125766 0.0 0.0
-0.018408222373506932 0.015351089624900175 0.0 -0.005358984921764972 0.0 0.0
-0.0233169223893311 0.019994786217499512 0.0 -0.006318929961870823 0.0 0.0
-0.029334571511985465 0.02577645807334035 0.0 -0.007515442885732056 0.0 0.0
-0.03650311878513414 0.03276570102570435 0.0 -0.008986566286406435 0.0 0.0
-0.044433903823569834 0.04066518002764399 0.0 -0.010964960369274097 0.0 0.0
-0.05177078594335626 0.048262895558091254 0.0 -0.014121088987118632 0.0 0.0
-0.05573586025110322 0.05282137327025163 0.0 -0.018938422472848274 0.0 0.0
-0.052092837607214636 0.05004933115775785 0.0 -0.02463202441755065 0.0 0.0
-0.04775590007812865 0.034482719200019676 0.0 1.0392728344577051e-14 0.0 0.0
-0.05209283760720975 0.05004933115775238 0.0 0.02463202441757399 0.0 0.0
-0.05573586025109256 0.05282137327024189 0.0 0.01893842247287072 0.0 0.0
-0.05177078594334039 0.048262895558077085 0.0 0.014121088987131693 0.0 0.0
-0.04443390382355071 0.04066518002762701 0.0 0.010964960369278439 0.0 0.0
-0.0365031187851138 0.03276570102568494 0.0 0.008986566286406702 0.0 0.0
-0.02933457151196492 0.025776458073319346 0.0 0.007515442885729534 0.0 0.0
-0.023316922389310043 0.019994786217479008 0.0 0.006318929961866526 0.0 0.0
-0.018408222373484988 0.015351089624881395 0.0 0.005358984921760348 0.0 0.0
-0.014423210047872594 0.011640238020358261 0.0 0.004560674278119889 0.0 0.0
-0.011141514028075587 0.00862681254131965 0.0 0.0038195225301491656 0.0 0.0
-0.008392039041256507 0.006137735486611785 0.0 0.0030774743144670854 0.0 0.0
-0.006082353522260612 0.004088240901444495 0.0 0.0023529852432341053 0.0 0.0
-0.004186248209043227 0.002460369430397522 0.0 0.001663362927829436 0.0 0.0
-0.002779670190536278 0.0013592699932557975 0.0 0.0011916191586834478 0.0 0.0
-0.0019070794559567852 0.0008456842698579745 0.0 0.0011608018250654165 0.0 0.0
-0.0013930916376772287 0.0006293043811945985 0.0 0.0013310872500031882 0.0 0.0
-0.0009965066064423704 0.0004536099409159953 0.0 0.001451689421977463 0.0 0.0
-0.000594253796151974 0.00023332566816836725 0.0 0.001421524955659921 0.0 0.0
-0.0002133943528415463 -8.671056289392687e-05 0.0 0.0010003949272431216 0.0 0.0
-4.1502529056590214e-05 -0.0001797326895481227 0.0 0.0005406447726541768 0.0 0.0
-7.994883871641347e-05 -7.101358606856811e-05 0.0 -0.0003915568807623201 0.0 0.0
-0.0002534746021733251 -2.3569467156387044e-05 0.0 -0.0007653739301461797 0.0 0.0
-0.0006583442617132906 0.00026698131972552536 0.0 -0.0011325382296127802 0.0 0.0
-0.0011155325789529472 0.0004972782374208511 0.0 -0.0011607099560645092 0.0 0.0
-0.001583278625077319 0.0006905951645233975 0.0 -0.0010245823254462674 0.0 0.0
-0.002235446204976973 0.000995962658966896 0.0 -0.000830454513118776 0.0 0.0
-0.003359006426410188 0.001776023818163734 0.0 -0.0009673576819557638 0.0 0.0
-0.005042126581976761 0.003176626790050802 0.0 -0.001431476671877971 0.0 0.0
-0.007222044706958867 0.00507979098427948 0.0 -0.0019738889084245865 0.0 0.0
-0.00988883000891649 0.007476754187825521 0.0 -0.0025715134319092984 0.0 0.0
-0.013085714075270982 0.0103953243201284 0.0 -0.0031842461278911464 0.0 0.0
-0.016932414856031773 0.013949762961895772 0.0 -0.003798477596055975 0.0 0.0
-0.021627068927068713 0.018344096466792425 0.0 -0.004468230101761637 0.0 0.0
-0.02739628682075093 0.02383141284457583 0.0 -0.0053067621914054 0.0 0.0
-0.034411608186329906 0.03059813416963611 0.0 -0.00638531912083282 0.0 0.0
-0.04266806495306532 0.03865834483612133 0.0 -0.00764049677104916 0.0 0.0
-0.051754966469330824 0.047675975106942006 0.0 -0.009000490567455032 0.0 0.0
-0.06028708289979856 0.05647399851667459 0.0 -0.011121536291878988 0.0 0.0
-0.06517995832068815 0.062116573666967045 0.0 -0.01599307650426803 0.0 0.0
-0.061423563138639725 0.05953750557815596 0.0 -0.02479561274699082 0.0 0.0
-0.056641716454151565 0.042012692530412864 0.0 9.885321727853835e-15 0.0 0.0
-0.061423563138633876 0.059537505578145966 0.0 0.024795612747012225 0.0 0.0
-0.06517995832067566 0.06211657366695364 0.0 0.015993076504289203 0.0 0.0
-0.06028708289978023 0.05647399851665723 0.0 0.011121536291891658 0.0 0.0
-0.05175496646930896 0.04767597510692005 0.0 0.009000490567457931 0.0 0.0
-0.042668064953042296 0.03865834483609989 0.0 0.00764049677104965 0.0 0.0
-0.03441160818630646 0.030598134169612344 0.0 0.006385319120830592 0.0 0.0
-0.02739628682072667 0.023831412844554374 0.0 0.005306762191401598 0.0 0.0
-0.02162706892704353 0.018344096466768073 0.0 0.0044682301017576745 0.0 0.0
-0.016932414856007254 0.01394976296186971 0.0 0.003798477596052165 0.0 0.0
-0.013085714075248701 0.010395324320105632 0.0 0.003184246127883821 0.0 0.0
-0.00988883000889778 0.007476754187806614 0.0 0.002571513431902595 0.0 0.0
-0.007222044706943832 0.005079790984267472 0.0 0.001973888908420151 0.0 0.0
-0.005042126581965296 0.003176626790039306 0.0 0.0014314766718741784 0.0 0.0
-0.0033590064264028196 0.001776023818159039 0.0 0.0009673576819530258 0.0 0.0
-0.00223544620497324 0.0009959626589654041 0.0 0.000830454513117886 0.0 0.0
-0.0015832786250755935 0.0006905951645225878 0.0 0.0010245823254461826 0.0 0.0
-0.0011155325789518591 0.0004972782374199999 0.0 0.0011607099560632776 0.0 0.0
-0.0006583442617127508 0.00026698131972570106 0.0 0.0011325382296118276 0.0 0.0
-0.0002534746021730941 -2.3569467156432255e-05 0.0 0.0007653739301449808 0.0 0.0
-7.99488387161648e-05 -7.101358606861362e-05 0.0 0.0003915568807617399 0.0 0.0
-0.000102297514252372 -6.613139977449374e-06 0.0 -0.000253072659076617 0.0 0.0
-0.00027973616263609247 2.9745377848437276e-05 0.0 -0.00051680602007761 0.0 0.0
-0.0007144777701334204 0.0002957353665612877 0.0 -0.0007922401357243647 0.0 0.0
-0.0012317051405465091 0.000540779585766413 0.0 -0.0008120763267182426 0.0 0.0
-0.0017805849990477486 0.0007521121310896017 0.0 -0.0006735168272966949 0.0 0.0
-0.0026062062742966087 0.0012068246494079129 0.0 -0.0005092903855724147 0.0 0.0
-0.0039737784137434855 0.0022699633183081245 0.0 -0.0007058509107881465 0.0 0.0
-0.005897720913873479 0.003906404119528796 0.0 -0.0010260838816208925 0.0 0.0
-0.00835787271773966 0.006086693272775367 0.0 -0.0014136225535698404 0.0 0.0
-0.011381692294053869 0.008829954469915748 0.0 -0.0018406348837393352 0.0 0.0
-0.015033400641515603 0.012182481776651991 0.0 -0.002277660098261702 0.0 0.0
-0.019456000958756138 0.016288234670497715 0.0 -0.0027111960748314153 0.0 0.0
-0.024870896467653256 0.02138072481109729 0.0 -0.003195546589534439 0.0 0.0
-0.03151674393678881 0.027722256895855737 0.0 -0.0038471353255606876 0.0 0.0
-0.039517502374315554 0.035465072006143315 0.0 -0.004700380260369824 0.0 0.0
-0.04876277226742546 0.044527603068266995 0.0 -0.00564992376721361 0.0 0.0
-0.05878118049827609 0.054455093265733986 0.0 -0.0064474942746836975 0.0 0.0
-0.06837450379700537 0.06416244177421343 0.0 -0.007284078743077803 0.0 0.0
-0.07448253892398904 0.07112981490559768 0.0 -0.01086750125798487 0.0 0.0
-0.07119359103512463 0.0695739939054501 0.0 -0.023153260815647513 0.0 0.0
-0.06627458243393224 0.05050218519563279 0.0 6.34561847512316e-15 0.0 0.0
-0.07119359103511731 0.06957399390544258 0.0 0.0231532608156625 0.0 0.0
-0.07448253892397416 0.07112981490558354 0.0 0.010867501258001944 0.0 0.0
-0.06837450379698432 0.06416244177419186 0.0 0.007284078743088151 0.0 0.0
-0.05878118049825142 0.054455093265710186 0.0 0.00644749427468666 0.0 0.0
-0.04876277226739965 0.044527603068244506 0.0 0.0056499237672140296 0.0 0.0
-0.03951750237428919 0.035465072006117926 0.0 0.00470038026036806 0.0 0.0
-0.03151674393676123 0.027722256895830612 0.0 0.0038471353255580282 0.0 0.0
-0.02487089646762456 0.021380724811068258 0.0 0.0031955465895315413 0.0 0.0
-0.01945600095872844 0.0162882346704712 0.0 0.0027111960748280764 0.0 0.0
-0.01503340064149085 0.012182481776626784 0.0 0.0022776600982565894 0.0 0.0
-0.011381692294032852 0.008829954469895257 0.0 0.001840634883735075 0.0 0.0
-0.008357872717722523 0.00608669327276096 0.0 0.0014136225535661222 0.0 0.0
-0.005897720913860331 0.0039064041195175266 0.0 0.001026083881617372 0.0 0.0
-0.0039737784137346506 0.002269963318300908 0.0 0.0007058509107868132 0.0 0.0
-0.0026062062742918434 0.0012068246494052442 0.0 0.0005092903855716639 0.0 0.0
-0.0017805849990457164 0.0007521121310892856 0.0 0.0006735168272963681 0.0 0.0
-0.0012317051405453905 0.0005407795857653358 0.0 0.0008120763267174127 0.0 0.0
-0.0007144777701327814 0.00029573536656109006 0.0 0.0007922401357234228 0.0 0.0
-0.0002797361626358291 2.9745377848427975e-05 0.0 0.0005168060200768307 0.0 0.0
-0.00010229751425212488 -6.613139977549244e-06 0.0 0.00025307265907603135 0.0 0.0
-0.00010088189363201715 1.3265211442731733e-05 0.0 -0.0001457165613058868 0.0 0.0
-0.000283256755112747 6.446592395227164e-05 0.0 -0.0002586761621439301 0.0 0.0
-0.0007574999190108848 0.00031484069450204587 0.0 -0.0003879264901580545 0.0 0.0
-0.0013495641115768143 0.0005853642958158527 0.0 -0.0003977842147673431 0.0 0.0
-0.002004278903176703 0.0008356383929704556 0.0 -0.00029206778813831304 0.0 0.0
-0.0030162650024103364 0.0014856619149433122 0.0 -0.0002025151827394398 0.0 0.0
-0.004603336684865125 0.002798644443717659 0.0 -0.00033273691108728 0.0 0.0
-0.006746203737152866 0.004644435258010521 0.0 -0.0004902971162138739 0.0 0.0
-0.009482878489168414 0.007098996821577235 0.0 -0.0006779058386508126 0.0 0.0
-0.01286532631094103 0.010186929120179142 0.0 -0.0008920464062436502 0.0 0.0
-0.01697797849609699 0.013979266401497041 0.0 -0.0011009426012759133 0.0 0.0
-0.021988967071351482 0.01865033346634749 0.0 -0.0013008116820629279 0.0 0.0
-0.02814056130171442 0.02445625783140558 0.0 -0.0015661414030436753 0.0 0.0
-0.0356550517772923 0.03164512070887189 0.0 -0.0019334347697035465 0.0 0.0
-0.044615594241340886 0.0403410132058681 0.0 -0.0024125141640561065 0.0 0.0
-0.05480587056764885 0.05036457646787613 0.0 -0.0029638330925207505 0.0 0.0
-0.0655628822127024 0.061068798908510455 0.0 -0.0033773800913356918 0.0 0.0
-0.07577960976889604 0.07128617734445403 0.0 -0.0034664762985089108 0.0 0.0
-0.08333809336942666 0.07916689138723648 0.0 -0.004607969104564009 0.0 0.0
-0.0816837377446017 0.08023642042108363 0.0 -0.015900994400282562 0.0 0.0
-0.07728061656532968 0.06131560585381653 0.0 4.571863720936875e-15 0.0 0.0
-0.0816837377445932 0.08023642042107623 0.0 0.015900994400290847 0.0 0.0
-0.08333809336940934 0.07916689138722037 0.0 0.004607969104573513 0.0 0.0
-0.07577960976887203 0.07128617734443006 0.0 0.0034664762985137706 0.0 0.0
-0.06556288221267469 0.06106879890848718 0.0 0.0033773800913379217 0.0 0.0
-0.05480587056762014 0.05036457646784995 0.0 0.00296383309252129 0.0 0.0
-0.044615594241311264 0.04034101320584137 0.0 0.0024125141640559183 0.0 0.0
-0.03565505177726155 0.03164512070884509 0.0 0.001933434769701898 0.0 0.0
-0.028140561301682732 0.02445625783137604 0.0 0.0015661414030420768 0.0 0.0
-0.021988967071320874 0.018650333466315963 0.0 0.001300811682060254 0.0 0.0
-0.016977978496069704 0.013979266401473366 0.0 0.0011009426012729465 0.0 0.0
-0.012865326310918036 0.01018692912015756 0.0 0.0008920464062414581 0.0 0.0
-0.009482878489149483 0.007098996821558949 0.0 0.0006779058386493671 0.0 0.0
-0.006746203737137977 0.004644435257997681 0.0 0.0004902971162125606 0.0 0.0
-0.004603336684855107 0.0027986444437088625 0.0 0.0003327369110871822 0.0 0.0
-0.003016265002404718 0.0014856619149390458 0.0 0.00020251518273973622 0.0 0.0
-0.0020042789031741613 0.0008356383929694412 0.0 0.0002920677881386879 0.0 0.0
-0.0013495641115758123 0.0005853642958149063 0.0 0.00039778421476696987 0.0 0.0
-0.0007574999190103789 0.0003148406945014961 0.0 0.0003879264901572564 0.0 0.0
-0.0002832567551123841 6.44659239522156e-05 0.0 0.0002586761621439502 0.0 0.0
-0.00010088189363172264 1.32652114427074e-05 0.0 0.00014571656130519685 0.0 0.0
-6.136770903638456e-05 1.214976201459595e-05 0.0 -9.34687843121445e-05 0.0 0.0
-0.0002487799406974825 7.577328299971701e-05 0.0 -0.00010748578258789744 0.0 0.0
-0.000780271516914784 0.0003213606008714792 0.0 -0.00013306889716884336 0.0 0.0
-0.0014796161536689953 0.0006079818323906081 0.0 -0.00013350068941703636 0.0 0.0
-0.0022681671145643157 0.0008872989749278325 0.0 -2.378598316524506e-05 0.0 0.0
-0.0034569024346485706 0.00163776235162269 0.0 0.00010273276109451057 0.0 0.0
-0.005233256503576611 0.0030671705291327863 0.0 0.00010667459615619701 0.0 0.0
-0.00758285122398419 0.00501509902100007 0.0 0.00010823833095381934 0.0 0.0
-0.010591261205043207 0.007604911632872403 0.0 0.00011796180920251411 0.0 0.0
-0.014332936048261368 0.010865354048927044 0.0 0.00011494003118844181 0.0 0.0
-0.018914640941014246 0.01487832288100784 0.0 0.00014925919504562863 0.0 0.0
-0.02453257945314089 0.01983750531845658 0.0 0.00021931742655910413 0.0 0.0
-0.03142003669491019 0.0260035823894109 0.0 0.0002415282348261871 0.0 0.0
-0.03978459416642242 0.033610079934574655 0.0 0.00025348551498575143 0.0 0.0
-0.049681203801472874 0.04277710919865354 0.0 0.00016658240623397373 0.0 0.0
-0.0607866926532272 0.053273575566116026 0.0 -4.747760563537408e-05 0.0 0.0
-0.07223915186803861 0.06434668380488426 0.0 -0.0003253495549783072 0.0 0.0
-0.08264876700883869 0.07472770405754692 0.0 -0.0005175501566827383 0.0 0.0
-0.09058793104917606 0.0828029977597551 0.0 -0.0007213464314177144 0.0 0.0
-0.09280239930475906 0.08570821022094946 0.0 -0.010740237975329022 0.0 0.0
-0.09181902767683799 0.06757101747762104 0.0 2.4424906541753444e-15 0.0 0.0
-0.09280239930474991 0.08570821022093926 0.0 0.010740237975331742 0.0 0.0
-0.09058793104915594 0.08280299775973637 0.0 0.000721346431420686 0.0 0.0
-0.08264876700881083 0.07472770405751916 0.0 0.0005175501566844765 0.0 0.0
-0.07223915186800736 0.06434668380486194 0.0 0.00032534955497902883 0.0 0.0
-0.06078669265319503 0.05327357556608732 0.0 4.747760563430289e-05 0.0 0.0
-0.04968120380143991 0.04277710919862534 0.0 -0.00016658240623424608 0.0 0.0
-0.03978459416638831 0.03361007993454747 0.0 -0.00025348551498793025 0.0 0.0
-0.03142003669487525 0.026003582389382086 0.0 -0.00024152823482654186 0.0 0.0
-0.024532579453107224 0.019837505318422134 0.0 -0.00021931742656065715 0.0 0.0
-0.018914640940984394 0.01487832288098425 0.0 -0.0001492591950460094 0.0 0.0
-0.014332936048236433 0.01086535404890394 0.0 -0.00011494003119036627 0.0 0.0
-0.01059126120502247 0.007604911632852105 0.0 -0.00011796180920316149 0.0 0.0
-0.007582851223967837 0.005015099020984365 0.0 -0.00010823833095313976 0.0 0.0
-0.00523325650356511 0.003067170529122288 0.0 -0.00010667459615523115 0.0 0.0
-0.00345690243464184 0.001637762351619151 0.0 -0.00010273276109282734 0.0 0.0
-0.002268167114561454 0.0008872989749261631 0.0 2.3785983166496475e-05 0.0 0.0
-0.0014796161536678272 0.0006079818323899529 0.0 0.00013350068941706423 0.0 0.0
-0.0007802715169141577 0.0003213606008708225 0.0 0.00013306889716884537 0.0 0.0
-0.00024877994069722067 7.57732829996238e-05 0.0 0.0001074857825890911 0.0 0.0
-6.13677090363164e-05 1.214976201461491e-05 0.0 9.346878431108684e-05 0.0 0.0
SCALARS Statev float 8
LOOKUP_TABLE default
0.0 0.012638897712780142 0.009917324625072452 -0.012115285185515082 0.0021979605604426395 -0.00042285516031876404 0.0 0.0
0.0 0.0036864820913743578 0.0025875322774991743 -0.0013938675562014497 -0.0011936647212977222 -0.004898151733676542 0.0 0.0
0.0 -4.061317424080497e-05 -7.357915784086738e-06 3.855315354417514e-06 3.502600429669028e-06 -6.974965971444884e-05 0.0 0.0
0.0 7.198230204153113e-05 -1.046769376451721e-05 7.948687705124596e-06 2.5190060593925295e-06 1.4145887477772124e-06 0.0 0.0
0.0 0.00043503593590367483 0.00013996548583583622 -9.936173539829247e-05 -4.0603750437544026e-05 4.946061081629214e-05 0.0 0.0
0.0 0.0009337427555193795 0.0010076321320843045 -0.0007677436424427535 -0.00023988848964155132 9.386864555231944e-05 0.0 0.0
0.0 0.002608919787411173 0.002425314701591214 -0.0019590250426551924 -0.00046628965893602027 0.00011918681901517868 0.0 0.0
0.0 0.004900525133775017 0.004521979679692644 -0.003825519106415791 -0.0006964605732768541 0.00013192137455547996 0.0 0.0
0.0 0.007996651670224675 0.007294449442475809 -0.006396270507525035 -0.0008981789349507759 0.0001463142424122616 0.0 0.0
0.0 0.011982891601943163 0.010776776428775649 -0.009687258925298228 -0.0010895175034774183 0.0001543898263513953 0.0 0.0
0.0 0.01696385032531555 0.01506859126906453 -0.013776221442665135 -0.0012923698263993945 0.00020056961646058982 0.0 0.0
0.0 0.022843671647879378 0.02037685397664793 -0.01886069042475962 -0.0015161635518883157 0.0002818644125807353 0.0 0.0
0.0 0.030253412258391378 0.026937402363416827 -0.025182029935991643 -0.0017553724274251654 0.0003076433874568546 0.0 0.0
0.0 0.03937834224003614 0.03496638813370874 -0.03296034088745806 -0.0020060472462506834 0.00032883771204789234 0.0 0.0
0.0 0.050345954176899556 0.04457120925773092 -0.04231636201061522 -0.0022548472471156868 0.00027828641278963763 0.0 0.0
0.0 0.06300119355523666 0.055580358770021966 -0.053092033309123515 -0.002488325460898502 0.00012732273017853355 0.0 0.0
0.0 0.07664453437955333 0.06742018536384475 -0.0647241129760295 -0.0026960723878152832 -0.00011098663094594023 0.0 0.0
0.0 0.09011833948617794 0.07909931051658863 -0.07623157975818717 -0.0028677307584013476 -0.0003488846125737784 0.0 0.0
0.0 0.10194265326879634 0.08934095350039924 -0.08634548246643606 -0.0029954710339631582 -0.00043330894889651896 0.0 0.0
0.0 0.11030427015054065 0.09675811207942746 -0.09369428893163641 -0.003063823147791249 -0.00045131851110174494 0.0 0.0
0.0 0.11347918873261403 0.09961017863799448 -0.09654981995958403 -0.0030603586784104775 1.005705935197554e-15 0.0 0.0
0.0 0.11030427015053296 0.09675811207942074 -0.0936942889316299 -0.003063823147790715 0.0004513185111059332 0.0 0.0
0.0 0.10194265326877819 0.08934095350038308 -0.08634548246642099 -0.002995471033962059 0.00043330894890114937 0.0 0.0
0.0 0.0901183394861496 0.07909931051656365 -0.07623157975816332 -0.0028677307584003033 0.0003488846125771 0.0 0.0
0.0 0.07664453437951942 0.0674201853638149 -0.06472411297600117 -0.0026960723878137983 0.0001109866309460944 0.0 0.0
0.0 0.06300119355520287 0.05558035876999226 -0.0530920333090945 -0.0024883254608977375 -0.00012732273017928165 0.0 0.0
0.0 0.05034595417686394 0.044571209257699695 -0.042316362010584876 -0.0022548472471147956 -0.00027828641279005906 0.0 0.0
0.0 0.03937834224000032 0.03496638813367739 -0.03296034088742763 -0.002006047246249754 -0.00032883771204857116 0.0 0.0
0.0 0.030253412258355927 0.026937402363385543 -0.02518202993596183 -0.0017553724274237054 -0.0003076433874577046 0.0 0.0
0.0 0.022843671647847882 0.02037685397661994 -0.018860690424732974 -0.001516163551886963 -0.00028186441258086037 0.0 0.0
0.0 0.016963850325286568 0.015068591269038761 -0.013776221442640684 -0.0012923698263980702 -0.00020056961646198454 0.0 0.0
0.0 0.011982891601918046 0.01077677642875366 -0.009687258925277133 -0.0010895175034765297 -0.0001543898263522341 0.0 0.0
0.0 0.007996651670207196 0.007294449442459819 -0.006396270507510265 -0.0008981789349495473 -0.00014631424241272177 0.0 0.0
0.0 0.004900525133760488 0.004521979679678975 -0.003825519106403222 -0.0006964605732757474 -0.0001319213745557155 0.0 0.0
0.0 0.0026089197874018927 0.002425314701581786 -0.001959025042647063 -0.0004662896589347228 -0.00011918681901528186 0.0 0.0
0.0 0.0009337427555148135 0.0010076321320791597 -0.0007677436424386584 -0.00023988848964050173 -9.38686455518993e-05 0.0 0.0
0.0 0.00043503593590184947 0.00013996548583519592 -9.936173539786507e-05 -4.0603750437330296e-05 -4.9460610815967004e-05 0.0 0.0
0.0 7.198230204091312e-05 -1.0467693764281566e-05 7.948687704950623e-06 2.5190060593314177e-06 -1.4145887477895443e-06 0.0 0.0
0.0 -4.061317424099873e-05 -7.357915784026429e-06 3.855315354399671e-06 3.502600429627263e-06 6.974965971397321e-05 0.0 0.0
0.0 0.0036864820913674705 0.002587532277495588 -0.0013938675561992846 -0.0011936647212963 0.004898151733668997 0.0 0.0
0.0 0.01263889771276426 0.009917324625061657 -0.012115285185499624 0.0021979605604379514 0.0004228551602946703 0.0 0.0
0.0 0.010055951299907898 0.0073071369762918266 -0.00976583995134367 0.002458702975051838 -2.3177421909904513e-05 0.0 0.0
0.0 0.0019728625937914966 0.0014001783294961489 -0.000697411284418733 -0.0007027670450774153 -0.0035003404755526 0.0 0.0
0.0 7.616771656722119e-06 -1.1082843145403339e-05 9.57170594674954e-06 1.5111371986538256e-06 -4.332463811641239e-06 0.0 0.0
0.0 9.934901639933842e-06 1.4108372919525753e-06 -1.1260198466280293e-06 -2.8481744532459666e-07 7.950552796142175e-07 0.0 0.0
0.0 0.00015905013792972763 6.0483428267482116e-05 -4.284008561600604e-05 -1.7643342651476183e-05 2.006085929847452e-05 0.0 0.0
0.0 0.0008628217219044718 0.0006607862536276782 -0.0005071303172012963 -0.0001536559364263827 4.365041267094002e-05 0.0 0.0
0.0 0.002123689024758427 0.001980247916925588 -0.0016153331052281255 -0.00036491481169746026 -7.163600282910077e-05 0.0 0.0
0.0 0.004251566605644158 0.003894175390168001 -0.0033304315713780317 -0.0005637438187899689 -0.00022045989862709128 0.0 0.0
0.0 0.007130978741426952 0.006438448726840364 -0.005714187681060829 -0.0007242610457795355 -0.0004096209900749752 0.0 0.0
0.0 0.010759858426962686 0.009625496238324508 -0.00876787091723822 -0.0008576253210862844 -0.0006246559581666475 0.0 0.0
0.0 0.015259055222293556 0.013533444104973709 -0.012552776723062289 -0.0009806673819114187 -0.0008378705168368087 0.0 0.0
0.0 0.020930406849647115 0.018336937829581332 -0.017236111932566137 -0.0011008258970151782 -0.0010454185316363768 0.0 0.0
0.0 0.027484687164502836 0.024294011649549502 -0.023075931764340203 -0.001218079885209291 -0.0013251449561084764 0.0 0.0
0.0 0.035915953240834395 0.03162342592320657 -0.030296202129890436 -0.0013272237933161333 -0.0017015109906885646 0.0 0.0
0.0 0.04605530130603813 0.04043816910938614 -0.03901978259622895 -0.0014183865131571936 -0.002167777374930192 0.0 0.0
0.0 0.05776537669629284 0.05058867946187652 -0.04910599307980419 -0.00148268638207233 -0.002711385954485973 0.0 0.0
0.0 0.07046324923966396 0.06154528426523089 -0.06002938767167497 -0.0015158965935558432 -0.0032093288293452674 0.0 0.0
0.0 0.08309193874081133 0.07239844722521092 -0.0708766445008887 -0.001521802724322223 -0.003411064752594258 0.0 0.0
0.0 0.09421492472447159 0.08195578092698884 -0.08044912627870117 -0.0015066546482876712 -0.0030640183109162515 0.0 0.0
0.0 0.1022342394790263 0.08880440974344617 -0.08734909081492168 -0.0014553189285245324 -0.002231108115152548 0.0 0.0
0.0 0.10542332413279286 0.09140735640287735 -0.09002945501145013 -0.0013779013914272213 3.45405128110432e-15 0.0 0.0
0.0 0.10223423947901893 0.08880440974343927 -0.08734909081491532 -0.0014553189285239844 0.0022311081151615213 0.0 0.0
0.0 0.09421492472445496 0.08195578092697423 -0.08044912627868689 -0.0015066546482872705 0.003064018310926771 0.0 0.0
0.0 0.0830919387407869 0.07239844722518952 -0.07087664450086775 -0.001521802724321729 0.003411064752600826 0.0 0.0
0.0 0.07046324923963371 0.06154528426520471 -0.06002938767164933 -0.0015158965935553675 0.0032093288293465324 0.0 0.0
0.0 0.057765376696263145 0.050588679461850514 -0.049105993079778726 -0.0014826863820717635 0.0027113859544846187 0.0 0.0
0.0 0.04605530130600593 0.04043816910935802 -0.03901978259620141 -0.0014183865131566617 0.002167777374929605 0.0 0.0
0.0 0.035915953240801206 0.031623425923177725 -0.030296202129861963 -0.0013272237933157388 0.0017015109906876355 0.0 0.0
0.0 0.027484687164470247 0.024294011649521108 -0.023075931764312482 -0.0012180798852086316 0.0013251449561064472 0.0 0.0
0.0 0.02093040684961732 0.01833693782955492 -0.01723611193254029 -0.0011008258970146153 0.0010454185316348709 0.0 0.0
0.0 0.01525905522226558 0.013533444104949189 -0.012552776723038521 -0.0009806673819106732 0.000837870516834217 0.0 0.0
0.0 0.010759858426940851 0.009625496238304724 -0.008767870917219167 -0.0008576253210855535 0.0006246559581645515 0.0 0.0
0.0 0.007130978741411197 0.006438448726825507 -0.005714187681046919 -0.0007242610457785874 0.00040962099007357746 0.0 0.0
0.0 0.004251566605631097 0.0038941753901556263 -0.0033304315713666354 -0.0005637438187889889 0.00022045989862578375 0.0 0.0
0.0 0.0021236890247504775 0.0019802479169177046 -0.001615333105221301 -0.0003649148116964034 7.163600282843535e-05 0.0 0.0
0.0 0.00086282172189965 0.0006607862536235926 -0.000507130317198039 -0.00015365593642555338 -4.365041267103515e-05 0.0 0.0
0.0 0.0001590501379285011 6.048342826719047e-05 -4.28400856158318e-05 -1.7643342651358886e-05 -2.0060859298162808e-05 0.0 0.0
0.0 9.934901639432587e-06 1.410837292151138e-06 -1.126019846776992e-06 -2.848174453739843e-07 -7.950552796454515e-07 0.0 0.0
0.0 7.61677165666378e-06 -1.1082843145295281e-05 9.571705946652562e-06 1.5111371986425963e-06 4.332463811573546e-06 0.0 0.0
0.0 0.001972862593785045 0.0014001783294925831 -0.00069741128441645 -0.0007027670450761325 0.0035003404755443637 0.0 0.0
0.0 0.010055951299891477 0.0073071369762794675 -0.00976583995132722 0.0024587029750477458 2.3177421892598858e-05 0.0 0.0
0.0 0.007184019587405737 0.00509802532085711 -0.007027796273851319 0.0019297709529942047 -0.0017897090084884413 0.0 0.0
0.0 0.0013503672389381862 0.0008309729477181862 -0.00036394413267298593 -0.0004670288150451997 -0.002540725332862403 0.0 0.0
0.0 1.2634912319597936e-08 -1.3678156687548327e-09 1.0394932843731892e-09 3.2832238438154863e-10 4.875689838480855e-10 0.0 0.0
0.0 2.2451304091123212e-06 6.067367624473251e-08 -5.439349766874615e-08 -6.280178576110661e-09 -2.7079477644334495e-07 0.0 0.0
0.0 3.9719552321731594e-05 7.134463214116041e-06 -4.191508511104703e-06 -2.9429547030115422e-06 7.526603446760904e-06 0.0 0.0
0.0 0.0005516257073399021 0.0003497584978993874 -0.00026202584884803964 -8.773264905134772e-05 1.3438858858715784e-05 0.0 0.0
0.0 0.0015041557632772872 0.0014587650193443995 -0.0011664612427067995 -0.000292303776637602 -0.00020704278288574343 0.0 0.0
0.0 0.003421299081976052 0.003137525821368054 -0.0026438941053506136 -0.0004936317160174402 -0.0005164133726720731 0.0 0.0
0.0 0.005948940992088328 0.0054036429030505095 -0.004739134465091458 -0.0006645084379590488 -0.0008997828596090454 0.0 0.0
0.0 0.009216995581697482 0.008235718153405973 -0.007433959448516832 -0.0008017587048891382 -0.0013282173385378902 0.0 0.0
0.0 0.01321623845802346 0.011690481760590368 -0.010767301349726031 -0.0009231804108643284 -0.0017717746727590336 0.0 0.0
0.0 0.01800586118863655 0.015917511934124298 -0.014878504538108973 -0.001039007396015325 -0.0022216163353917496 0.0 0.0
0.0 0.024197940509028612 0.021141343727383105 -0.019990727501434293 -0.0011506162259488201 -0.0027315984013219674 0.0 0.0
0.0 0.03138829431920054 0.02762129540179062 -0.026368391631118836 -0.001252903770671768 -0.0034084009881315235 0.0 0.0
0.0 0.040443563390345674 0.03546885799268724 -0.03413098273831166 -0.001337875254375608 -0.004270880911858722 0.0 0.0
0.0 0.05094178177885266 0.044561589837096995 -0.04316377250074299 -0.001397817336353976 -0.0052428466748764445 0.0 0.0
0.0 0.062379013946954213 0.05444752445352042 -0.053016064477657415 -0.0014314599758630038 -0.006101145973447552 0.0 0.0
0.0 0.07381841187864278 0.06432690462240259 -0.06288690702440483 -0.0014399975979977838 -0.006430843566700951 0.0 0.0
0.0 0.08399383050377494 0.07308746566762078 -0.07166675700424949 -0.0014207086633712777 -0.005830484335203006 0.0 0.0
0.0 0.09134834833345276 0.0793908924030387 -0.07800916662480196 -0.0013817257782366861 -0.0041916708178360625 0.0 0.0
0.0 0.09434926824115389 0.08184100642853084 -0.08055867148462172 -0.0012823349439091086 7.316846781235675e-15 0.0 0.0
0.0 0.09134834833344621 0.07939089240303221 -0.07800916662479601 -0.0013817257782362004 0.004191670817852899 0.0 0.0
0.0 0.08399383050375882 0.07308746566760664 -0.07166675700423548 -0.0014207086633712509 0.005830484335221233 0.0 0.0
0.0 0.0738184118786214 0.06432690462238375 -0.06288690702438648 -0.0014399975979972283 0.006430843566712073 0.0 0.0
0.0 0.062379013946929435 0.05444752445349893 -0.053016064477636585 -0.0014314599758623442 0.006101145973450148 0.0 0.0
0.0 0.050941781778826585 0.044561589837074006 -0.04316377250072076 -0.001397817336353249 0.005242846674875393 0.0 0.0
0.0 0.0404435633903171 0.0354688579926623 -0.03413098273828731 -0.00133787525437498 0.004270880911857818 0.0 0.0
0.0 0.03138829431917183 0.0276212954017655 -0.026368391631094345 -0.0012529037706711583 0.0034084009881300403 0.0 0.0
0.0 0.024197940509001575 0.021141343727359208 -0.019990727501411402 -0.0011506162259478068 0.0027315984013190422 0.0 0.0
0.0 0.01800586118860797 0.015917511934099484 -0.014878504538084585 -0.0010390073960148943 0.0022216163353876686 0.0 0.0
0.0 0.013216238457998545 0.011690481760567917 -0.01076730134970419 -0.0009231804108637226 0.001771774672754621 0.0 0.0
0.0 0.009216995581678952 0.008235718153388872 -0.007433959448500563 -0.0008017587048883068 0.0013282173385342618 0.0 0.0
0.0 0.005948940992073425 0.00540364290303672 -0.004739134465078588 -0.0006645084379581339 0.0008997828596063757 0.0 0.0
0.0 0.0034212990819641903 0.003137525821357168 -0.0026438941053408 -0.000493631716016366 0.0005164133726697677 0.0 0.0
0.0 0.0015041557632711345 0.001458765019338148 -0.0011664612427015587 -0.00029230377663658956 0.00020704278288460705 0.0 0.0
0.0 0.0005516257073365306 0.0003497584978968802 -0.000262025848846114 -8.773264905076597e-05 -1.3438858858923443e-05 0.0 0.0
0.0 3.971955232061283e-05 7.134463213858101e-06 -4.1915085109228815e-06 -2.9429547029352047e-06 -7.526603446685781e-06 0.0 0.0
0.0 2.245130408833747e-06 6.067367629149867e-08 -5.4393497703042474e-08 -6.280178588432075e-09 2.7079477645283177e-07 0.0 0.0
0.0 1.2634912310065045e-08 -1.367815667713223e-09 1.0394932835817643e-09 3.283223841315191e-10 -4.875689834762404e-10 0.0 0.0
0.0 0.0013503672389329501 0.000830972947715029 -0.00036394413267096823 -0.00046702881504406043 0.0025407253328536927 0.0 0.0
0.0 0.007184019587389397 0.0050980253208451985 -0.0070277962738353635 0.0019297709529901691 0.0017897090084765448 0.0 0.0
0.0 0.005236139357461555 0.0036003225939970117 -0.00507197931664281 0.001471656722645796 -0.0019998719210620867 0.0 0.0
0.0 0.0008677400736006205 0.0005006070703224665 -0.00020131992740480054 -0.0002992871429176662 -0.0017433001281248256 0.0 0.0
0.0 0.0 0.0 0.0 0.0 0.0 0.0 0.0
0.0 -1.0390837439607566e-06 1.1224192617575011e-07 -8.466471595657498e-08 -2.7577210219183563e-08 -7.31158042041032e-08 0.0 0.0
0.0 8.094839328524757e-06 -1.656102992687817e-05 1.2819975045285884e-05 3.741054881592524e-06 8.510353459918186e-06 0.0 0.0
0.0 0.00022187407724822512 0.0001478675115278919 -0.00010808545783700212 -3.978205369088938e-05 -4.917587187777201e-06 0.0 0.0
0.0 0.001133988049656341 0.0009329686118817778 -0.0007288848547462405 -0.0002040837571355365 -0.00020134603113176048 0.0 0.0
0.0 0.0026168161905455356 0.0023939850594092873 -0.0019825018492056774 -0.00041148321020361106 -0.000675881957596868 0.0 0.0
0.0 0.004838691491234025 0.004373448229943319 -0.003781268702558788 -0.0005921795273845301 -0.0012172557037001966 0.0 0.0
0.0 0.0076905367638789085 0.006851941587359686 -0.006115451459939291 -0.0007364901274203935 -0.0018184926303817309 0.0 0.0
0.0 0.0111197107182066 0.009861542853778653 -0.009003313232495874 -0.0008582296212827802 -0.0024432569330791747 0.0 0.0
0.0 0.015398238276353263 0.013517824425992583 -0.012547559304979888 -0.0009702651210126865 -0.003079631566410033 0.0 0.0
0.0 0.020466675208607427 0.01803540083193103 -0.016957918215003764 -0.0010774826169272647 -0.003785595468189174 0.0 0.0
0.0 0.027172428094839295 0.023643290687482527 -0.02247044960352851 -0.0011728410839540152 -0.004669119569565254 0.0 0.0
0.0 0.03498762254382234 0.030497276980079743 -0.029245882799713345 -0.0012513941803663762 -0.005798297293548882 0.0 0.0
0.0 0.04406911595430253 0.038510802988307065 -0.037201366518593626 -0.0013094364697134424 -0.007091740502320367 0.0 0.0
0.0 0.05432627398003965 0.04730594043424972 -0.04596186820100366 -0.0013440722332460596 -0.008237259735469116 0.0 0.0
0.0 0.06463552405801909 0.05620341365854992 -0.05484952076669074 -0.0013538928918591857 -0.008714734210629583 0.0 0.0
0.0 0.07388171984099824 0.06420156469814813 -0.06286345251911202 -0.0013381121790359948 -0.007998523208937054 0.0 0.0
0.0 0.08065501974252132 0.07007921770895714 -0.06877461764545922 -0.0013046000634979523 -0.005667902411490682 0.0 0.0
0.0 0.08359648936747434 0.07246701579375399 -0.07130313714136545 -0.0011638786523885344 9.867974493094067e-15 0.0 0.0
0.0 0.08065501974251571 0.07007921770895141 -0.06877461764545369 -0.0013046000634977309 0.005667902411513518 0.0 0.0
0.0 0.07388171984098386 0.06420156469813507 -0.06286345251909921 -0.00133811217903584 0.007998523208958656 0.0 0.0
0.0 0.06463552405799919 0.0562034136585323 -0.05484952076667332 -0.0013538928918589695 0.008714734210643185 0.0 0.0
0.0 0.054326273980018255 0.047305940434231086 -0.04596186820098591 -0.0013440722332452011 0.008237259735472213 0.0 0.0
0.0 0.044069115954278065 0.03851080298828563 -0.03720136651857263 -0.0013094364697130085 0.00709174050231849 0.0 0.0
0.0 0.03498762254379817 0.030497276980058524 -0.029245882799692854 -0.00125139418036569 0.005798297293547302 0.0 0.0
0.0 0.02717242809481448 0.023643290687460655 -0.02247044960350714 -0.0011728410839534937 0.004669119569563139 0.0 0.0
0.0 0.020466675208583595 0.018035400831910176 -0.016957918214983853 -0.0010774826169263156 0.003785595468185572 0.0 0.0
0.0 0.015398238276328424 0.01351782442597038 -0.012547559304958244 -0.0009702651210121357 0.0030796315664042098 0.0 0.0
0.0 0.01111971071818451 0.0098615428537589 -0.009003313232476695 -0.0008582296212821959 0.0024432569330731196 0.0 0.0
0.0 0.007690536763862105 0.006851941587344521 -0.0061154514599249645 -0.0007364901274195544 0.0018184926303766327 0.0 0.0
0.0 0.004838691491220344 0.004373448229930908 -0.0037812687025472885 -0.0005921795273836173 0.001217255703696444 0.0 0.0
0.0 0.0026168161905362375 0.002393985059400053 -0.0019825018491974773 -0.0004114832102025749 0.0006758819575938034 0.0 0.0
0.0 0.0011339880496496772 0.0009329686118763979 -0.0007288848547418899 -0.00020408375713450793 0.00020134603113017383 0.0 0.0
0.0 0.00022187407724651292 0.0001478675115271873 -0.00010808545783650866 -3.978205369067875e-05 4.917587188034745e-06 0.0 0.0
0.0 8.0948393276907e-06 -1.656102992670329e-05 1.2819975045152937e-05 3.741054881550326e-06 -8.510353459845465e-06 0.0 0.0
0.0 -1.0390837437358132e-06 1.1224192615061098e-07 -8.466471593745809e-08 -2.7577210213149207e-08 7.311580418800225e-08 0.0 0.0
0.0 0.0 0.0 0.0 0.0 0.0 0.0 0.0
0.0 0.000867740073595983 0.0005006070703198626 -0.00020131992740310544 -0.00029928714291675734 0.0017433001281173777 0.0 0.0
0.0 0.005236139357448443 0.003600322593986817 -0.005071979316628999 0.0014716567226421794 0.001999871921053293 0.0 0.0
0.0 0.0036248211429298826 0.002494483103481421 -0.0035666951577576827 0.0010722120542762624 -0.0017378053609046157 0.0 0.0
0.0 0.0007041469499836198 0.0002670171562559892 -8.363356371210837e-05 -0.00018338359254388106 -0.0010701500202421387 0.0 0.0
0.0 0.0 0.0 0.0 0.0 0.0 0.0 0.0
0.0 1.5028312787509444e-07 -1.5385716863678778e-08 1.1776366407597212e-08 3.6093504560833587e-09 1.561152117108147e-08 0.0 0.0
0.0 -5.571634833472788e-06 2.0743984847489647e-06 -1.631483434656027e-06 -4.429150500929405e-07 -2.4718136112587416e-06 0.0 0.0
0.0 7.604989775863798e-05 8.025228304907477e-06 -3.7331208322490117e-06 -4.292107472658328e-06 2.703287291903278e-05 0.0 0.0
0.0 0.0007624789365836379 0.0004966546045242578 -0.00037929676654655127 -0.00011735783797770675 -0.00015044242327713563 0.0 0.0
0.0 0.0018605337869713587 0.001675092243648588 -0.0013558518910551103 -0.0003192403525934773 -0.0006600616198306201 0.0 0.0
0.0 0.0037590342150674886 0.0033606033953551178 -0.0028558181100533367 -0.0005047852853017805 -0.0013547220268433084 0.0 0.0
0.0 0.00617194468820192 0.005484008352629081 -0.0048260197633975006 -0.0006579885892315804 -0.0020890783695942613 0.0 0.0
0.0 0.009134191495763657 0.008051327575163367 -0.007268519716907755 -0.0007828078582556087 -0.0028492782428708374 0.0 0.0
0.0 0.012747499166069376 0.011151649438301641 -0.010258407110227494 -0.000893242328074144 -0.0036195517977725667 0.0 0.0
0.0 0.017269572752078265 0.014963016708366556 -0.013967572623333646 -0.0009954440850328955 -0.0044596689505289845 0.0 0.0
0.0 0.02257305269197028 0.019719780035511548 -0.018633005111586894 -0.001086774923924632 -0.005487181818586184 0.0 0.0
0.0 0.02945781696583278 0.02556102744366437 -0.024400961946915656 -0.0011600654967487127 -0.0067787534592483635 0.0 0.0
0.0 0.0375553023443757 0.032457105154888914 -0.031243139636040387 -0.0012139655188485178 -0.008247652335695632 0.0 0.0
0.0 0.04630651833295236 0.040134016021390904 -0.038883173748189996 -0.0012508422732008962 -0.009581736667950242 0.0 0.0
0.0 0.05542811218094412 0.048028381925951796 -0.046763007256829914 -0.0012653746691218886 -0.010234826962150485 0.0 0.0
0.0 0.06379838008303865 0.05528351166853529 -0.05402882680385379 -0.0012546848646814977 -0.009520509089032682 0.0 0.0
0.0 0.07014620561399576 0.06081113679493387 -0.05958953197175012 -0.0012216048231836845 -0.006772300259027347 0.0 0.0
0.0 0.07311187377888348 0.06319384451841623 -0.06216463766337343 -0.0010292068550427956 1.1166848695731701e-14 0.0 0.0
0.0 0.07014620561399033 0.06081113679492806 -0.05958953197174423 -0.0012216048231838165 0.00677230025905288 0.0 0.0
0.0 0.06379838008302696 0.055283511668524174 -0.05402882680384303 -0.001254684864681142 0.009520509089056346 0.0 0.0
0.0 0.055428112180926616 0.048028381925936274 -0.04676300725681415 -0.001265374669122134 0.01023482696216524 0.0 0.0
0.0 0.04630651833293377 0.040134016021374674 -0.0388831737481745 -0.0012508422732001832 0.009581736667954019 0.0 0.0
0.0 0.03755530234435339 0.03245710515486958 -0.03124313963602109 -0.0012139655188484553 0.00824765233569264 0.0 0.0
0.0 0.02945781696581337 0.02556102744364712 -0.024400961946899353 -0.0011600654967477695 0.006778753459246173 0.0 0.0
0.0 0.022573052691948665 0.019719780035492646 -0.01863300511156824 -0.0010867749239244085 0.005487181818583513 0.0 0.0
0.0 0.017269572752057347 0.014963016708347944 -0.01396757262331548 -0.000995444085032464 0.004459668950524587 0.0 0.0
0.0 0.012747499166048618 0.011151649438283253 -0.010258407110209478 -0.0008932423280737758 0.003619551797766239 0.0 0.0
0.0 0.009134191495745911 0.008051327575147694 -0.007268519716892826 -0.0007828078582548697 0.0028492782428634245 0.0 0.0
0.0 0.0061719446881873235 0.005484008352616105 -0.004826019763385361 -0.0006579885892307467 0.0020890783695882965 0.0 0.0
0.0 0.0037590342150555633 0.0033606033953441704 -0.002855818110043316 -0.0005047852853008528 0.001354722026838696 0.0 0.0
0.0 0.0018605337869637912 0.0016750922436415598 -0.001355851891049101 -0.00031924035259245863 0.0006600616198274344 0.0 0.0
0.0 0.0007624789365779303 0.0004966546045201087 -0.0003792967665432706 -0.00011735783797683868 0.00015044242327540673 0.0 0.0
0.0 7.604989775736287e-05 8.025228304676419e-06 -3.7331208321070587e-06 -4.292107472568997e-06 -2.7032872918892468e-05 0.0 0.0
0.0 -5.5716348335684105e-06 2.074398484784058e-06 -1.6314834346820299e-06 -4.4291505010210854e-07 2.47181361128038e-06 0.0 0.0
0.0 1.5028312785351273e-07 -1.538571686135809e-08 1.1776366405820481e-08 3.6093504555372983e-09 -1.561152116871207e-08 0.0 0.0
0.0 0.0 0.0 0.0 0.0 0.0 0.0 0.0
0.0 0.000704146949979007 0.0002670171562540157 -8.363356371079559e-05 -0.0001833835925432193 0.0010701500202362007 0.0 0.0
0.0 0.003624821142919171 0.002494483103473099 -0.0035666951577461962 0.0010722120542730948 0.001737805360898218 0.0 0.0
0.0 0.002495576234615465 0.001638872882987665 -0.002368076543134381 0.0007292036601467166 -0.0013355056882621956 0.0 0.0
0.0 0.0003088647949895066 0.00012185860957804601 -1.5759949289506427e-05 -0.00010609866028853961 -0.0005930858247209153 0.0 0.0
0.0 0.0 0.0 0.0 0.0 0.0 0.0 0.0
0.0 0.0 0.0 0.0 0.0 0.0 0.0 0.0
0.0 -1.518086187438581e-06 -2.843047694401718e-07 2.299882931969629e-07 5.431647624321848e-08 2.064205987137572e-07 0.0 0.0
0.0 -1.361167282399032e-05 -1.4193286104011873e-05 1.1497235663323274e-05 2.696050440688502e-06 2.231754482481662e-05 0.0 0.0
0.0 0.00026536271623119794 0.00022311182356838183 -0.00016731107780969555 -5.580074575868625e-05 -0.00010425447927751889 0.0 0.0
0.0 0.0014205913507604722 0.000988267675152776 -0.0007808127918626532 -0.00020745488329012405 -0.0005034097773009903 0.0 0.0
0.0 0.0025988292442578735 0.002384093195199708 -0.0019815375969865594 -0.00040255559821314647 -0.0012845307675351208 0.0 0.0
0.0 0.004734810284207569 0.004139799012285687 -0.0035789798847407294 -0.0005608191275449548 -0.0021276180907947658 0.0 0.0
0.0 0.007178251436679365 0.006270649099933281 -0.005578477094400518 -0.0006921720055327647 -0.002976764884747537 0.0 0.0
0.0 0.010137757105999984 0.008826834426344965 -0.008023255547539907 -0.0008035788788050554 -0.0038363181424225013 0.0 0.0
0.0 0.013782775752642973 0.011953091446639422 -0.011049266474833593 -0.0009038249718058291 -0.004750595165193506 0.0 0.0
0.0 0.018419033616824225 0.015850235098013435 -0.014859986169789343 -0.0009902489282240807 -0.005838928303849932 0.0 0.0
0.0 0.02400857335989916 0.02068078776535167 -0.019620557998055593 -0.0010602297672960774 -0.007196281827252281 0.0 0.0
0.0 0.030605001349660155 0.02645100956613729 -0.02533826548195542 -0.0011127440841818684 -0.008737802643528433 0.0 0.0
0.0 0.038470368834808435 0.032957150350541066 -0.031807983243598924 -0.0011491671069421277 -0.010150140906095709 0.0 0.0
0.0 0.04630718641339723 0.03980099841529426 -0.03863107809712126 -0.0011699203181730021 -0.010932130047357866 0.0 0.0
0.0 0.05360815915005358 0.046307634266948255 -0.04513994045744977 -0.00116769380949848 -0.010357891375409219 0.0 0.0
0.0 0.05963525113468956 0.051526500041764206 -0.05039303196229842 -0.0011334680794657943 -0.007524646290935234 0.0 0.0
0.0 0.0627052633075867 0.053948687354853954 -0.05307009180547675 -0.0008785955493771846 1.1144297290544003e-14 0.0 0.0
0.0 0.059635251134683764 0.05152650004175793 -0.050393031962291786 -0.0011334680794661683 0.007524646290960184 0.0 0.0
0.0 0.053608159150044375 0.04630763426693897 -0.04513994045744071 -0.0011676938094982235 0.010357891375433782 0.0 0.0
0.0 0.046307186413382696 0.03980099841528109 -0.03863107809710811 -0.0011699203181729711 0.010932130047372424 0.0 0.0
0.0 0.03847036883479402 0.0329571503505284 -0.031807983243587246 -0.0011491671069411718 0.010150140906099198 0.0 0.0
0.0 0.030605001349640587 0.02645100956612043 -0.025338265481938575 -0.001112744084181851 0.008737802643524924 0.0 0.0
0.0 0.02400857335988284 0.02068078776533713 -0.019620557998041896 -0.0010602297672952317 0.007196281827249186 0.0 0.0
0.0 0.01841903361680628 0.01585023509799745 -0.014859986169773678 -0.0009902489282237767 0.005838928303846507 0.0 0.0
0.0 0.01378277575262603 0.01195309144662467 -0.011049266474819448 -0.0009038249718052184 0.004750595165189162 0.0 0.0
0.0 0.010137757105983676 0.008826834426330721 -0.008023255547526132 -0.0008035788788045925 0.003836318142416191 0.0 0.0
0.0 0.007178251436665014 0.00627064909992084 -0.005578477094389094 -0.000692172005531749 0.002976764884740015 0.0 0.0
0.0 0.004734810284195898 0.004139799012275141 -0.0035789798847309616 -0.0005608191275441761 0.0021276180907883447 0.0 0.0
0.0 0.002598829244249325 0.0023840931951914918 -0.0019815375969792206 -0.00040255559821227195 0.001284530767530369 0.0 0.0
0.0 0.0014205913507531597 0.000988267675147222 -0.000780812791858087 -0.0002074548832891351 0.0005034097772979678 0.0 0.0
0.0 0.00026536271622789085 0.00022311182356614826 -0.00016731107780798413 -5.5800745758163943e-05 0.0001042544792762937 0.0 0.0
0.0 -1.3611672824271982e-05 -1.419328610351881e-05 1.1497235662932747e-05 2.6960504405860415e-06 -2.2317544824156764e-05 0.0 0.0
0.0 -1.5180861876094452e-06 -2.8430476947422856e-07 2.2998829322447438e-07 5.431647624973941e-08 -2.0642059877733385e-07 0.0 0.0
0.0 0.0 0.0 0.0 0.0 0.0 0.0 0.0
0.0 0.0 0.0 0.0 0.0 0.0 0.0 0.0
0.0 0.00030886479498596416 0.00012185860957669653 -1.5759949288613214e-05 -0.00010609866028808305 0.0005930858247165792 0.0 0.0
0.0 0.0024955762346072206 0.0016388728829812638 -0.0023680765431253552 0.0007292036601440904 0.0013355056882574203 0.0 0.0
0.0 0.0014701068076949718 0.000998405073699064 -0.0014479369221391909 0.0004495318484401261 -0.000945446873054659 0.0 0.0
0.0 0.0001291866829690246 1.893163343768957e-05 3.882904910200626e-05 -5.7760682539695975e-05 -0.00023532332000866416 0.0 0.0
0.0 0.0 0.0 0.0 0.0 0.0 0.0 0.0
0.0 0.0 0.0 0.0 0.0 0.0 0.0 0.0
0.0 -2.2454726429677123e-06 1.600727995500307e-07 -1.2601189195074565e-07 -3.4060907599273894e-08 -4.054650795018673e-07 0.0 0.0
0.0 -6.225191850941301e-06 -7.925180864598678e-06 6.398741173919633e-06 1.5264396906791388e-06 1.4172426649862128e-05 0.0 0.0
0.0 7.311598350385912e-05 2.7176926244806303e-05 -1.9756109279874394e-05 -7.420816964932025e-06 -3.3839238833897315e-06 0.0 0.0
0.0 0.0006017348562975543 0.0004984415878741083 -0.00038565594023940884 -0.00011278564763469924 -0.0003585747412794674 0.0 0.0
0.0 0.0020169345090610574 0.0014260504154342617 -0.0011566844336664268 -0.0002693659817678342 -0.0009767356793187506 0.0 0.0
0.0 0.003220026554979393 0.0028433192533360865 -0.0024021440571016716 -0.00044117519623441715 -0.0019025993432255776 0.0 0.0
0.0 0.005299427782738741 0.004531051649665926 -0.003953571104703014 -0.0005774805449629107 -0.002808960295325115 0.0 0.0
0.0 0.0076562123674241605 0.006551452038165239 -0.005857951976461996 -0.0006935000617032459 -0.0037116743002446454 0.0 0.0
0.0 0.010515407920087799 0.009007245889147994 -0.008212373328054783 -0.0007948725610932103 -0.004647114617010459 0.0 0.0
0.0 0.014108993344710207 0.012068971991425455 -0.011188547967949974 -0.0008804240234754807 -0.005727452371177371 0.0 0.0
0.0 0.01855145710663365 0.015885699686440068 -0.01493715214022718 -0.0009485475462128794 -0.007036501268614972 0.0 0.0
0.0 0.024226146870104263 0.02050261141549522 -0.01950430711138066 -0.000998304304114552 -0.008536094138768423 0.0 0.0
0.0 0.030101406840837317 0.025821097364600126 -0.024783617793834884 -0.0010374795707652439 -0.00995177869803922 0.0 0.0
0.0 0.03696335451062767 0.031549030965431574 -0.030484161811506975 -0.001064869153924594 -0.010809669205922507 0.0 0.0
0.0 0.043662102207599696 0.03724262533120623 -0.03617035863908931 -0.0010722666921169019 -0.010458815037035307 0.0 0.0
0.0 0.049204283083645876 0.04215604785656907 -0.04111659718008445 -0.0010394506764846098 -0.00789314355049812 0.0 0.0
0.0 0.05247883295631959 0.044657468737018854 -0.043947248328245335 -0.0007102204087735411 9.79598346884103e-15 0.0 0.0
0.0 0.04920428308364046 0.042156047856562864 -0.04111659718007809 -0.0010394506764846946 0.007893143550520877 0.0 0.0
0.0 0.04366210220759327 0.03724262533119905 -0.036170358639082446 -0.001072266692116621 0.010458815037059182 0.0 0.0
0.0 0.036963354510615776 0.03154903096542057 -0.030484161811496054 -0.0010648691539244894 0.010809669205935603 0.0 0.0
0.0 0.03010140684082543 0.025821097364589846 -0.024783617793825458 -0.0010374795707643726 0.009951778698041133 0.0 0.0
0.0 0.024226146870087395 0.020502611415480904 -0.019504307111366234 -0.000998304304114667 0.008536094138763791 0.0 0.0
0.0 0.018551457106621164 0.015885699686428664 -0.014937152140216382 -0.0009485475462122768 0.007036501268611468 0.0 0.0
0.0 0.01410899334469675 0.012068971991413458 -0.011188547967938365 -0.0008804240234750899 0.005727452371174467 0.0 0.0
0.0 0.010515407920074308 0.009007245889136345 -0.00821237332804385 -0.0007948725610924915 0.004647114617006044 0.0 0.0
0.0 0.007656212367410297 0.006551452038153542 -0.005857951976450788 -0.0006935000617027574 0.0037116743002379377 0.0 0.0
0.0 0.0052994277827264355 0.004531051649655374 -0.003953571104693367 -0.0005774805449620033 0.0028089602953173124 0.0 0.0
0.0 0.0032200265549698335 0.0028433192533278214 -0.002402144057094153 -0.00044117519623366775 0.0019025993432193096 0.0 0.0
0.0 0.0020169345090532507 0.0014260504154285742 -0.0011566844336617047 -0.0002693659817668683 0.0009767356793149928 0.0 0.0
0.0 0.0006017348562928459 0.0004984415878705467 -0.000385655940236541 -0.00011278564763400498 0.0003585747412768947 0.0 0.0
0.0 7.311598350219522e-05 2.7176926244318073e-05 -1.97561092795236e-05 -7.420816964794527e-06 3.383923883150945e-06 0.0 0.0
0.0 -6.22519185185379e-06 -7.925180864536346e-06 6.3987411738735015e-06 1.5264396906627617e-06 -1.4172426649824542e-05 0.0 0.0
0.0 -2.2454726427852826e-06 1.6007279955587378e-07 -1.26011891955957e-07 -3.406090759991352e-08 4.054650795264231e-07 0.0 0.0
0.0 0.0 0.0 0.0 0.0 0.0 0.0 0.0
0.0 0.0 0.0 0.0 0.0 0.0 0.0 0.0
0.0 0.0001291866829665799 1.893163343692942e-05 3.8829049102485116e-05 -5.776068253941471e-05 0.000235323320005939 0.0 0.0
0.0 0.0014701068076890212 0.0009984050736944919 -0.0014479369221326143 0.00044953184843812247 0.0009454468730510785 0.0 0.0
0.0 0.00112170963988984 0.0004674824942726274 -0.000677457048423337 0.00020997455415070962 -0.0004965551983695997 0.0 0.0
0.0 -5.87017248679523e-05 -2.2167854489261296e-05 4.741955443224077e-05 -2.5251699942979488e-05 -3.521623908978608e-05 0.0 0.0
0.0 1.683476983325989e-07 -9.842474380911868e-10 1.1381256918532304e-09 -1.5387825376230337e-10 3.35101228491758e-08 0.0 0.0
0.0 0.0 0.0 0.0 0.0 0.0 0.0 0.0
0.0 -6.028755912535929e-07 2.2319327668526677e-08 -1.614478682497124e-08 -6.174540843549524e-09 -1.207745943321162e-07 0.0 0.0
0.0 -3.674370161446361e-06 -2.307519188019528e-06 1.8186043183904179e-06 4.889148696290662e-07 6.670279465644648e-06 0.0 0.0
0.0 -1.2098863802348316e-05 -1.7386950536540896e-05 1.3928596292035278e-05 3.458354244505529e-06 3.593015611876078e-05 0.0 0.0
0.0 0.0001787569809504467 0.0001456764256800183 -0.0001123897021425735 -3.328672353744473e-05 -0.00017853502972311726 0.0 0.0
0.0 0.0008830383548331231 0.0006786392835828539 -0.0005382127962219805 -0.00014042648736087323 -0.000645559258481787 0.0 0.0
0.0 0.0022514073187082013 0.0015980526359719955 -0.00131614727997537 -0.000281905355996625 -0.0013803845315619573 0.0 0.0
0.0 0.0035118501874730275 0.0028518514952891815 -0.002427064313332501 -0.00042478718195667925 -0.0023133404914758107 0.0 0.0
0.0 0.005214529397220937 0.004348611399889737 -0.0038007809180321257 -0.0005478304818576147 -0.0032166200354073666 0.0 0.0
0.0 0.0073685864579536645 0.006147938980396429 -0.005493574504382056 -0.0006543644760143688 -0.004128473965584389 0.0 0.0
0.0 0.010010332782793936 0.008391862762635566 -0.007648427570188853 -0.000743435192446714 -0.005133710938867798 0.0 0.0
0.0 0.013429014362026764 0.011205447545859653 -0.010391847928263743 -0.0008135996175959078 -0.006315893541122207 0.0 0.0
0.0 0.01749841920002053 0.014668555971175615 -0.013802804484206713 -0.0008657514869689064 -0.007645553084254025 0.0 0.0
0.0 0.02250082764305282 0.01874401554098884 -0.01783803559811857 -0.0009059799428702784 -0.008957166615556778 0.0 0.0
0.0 0.027774212788968813 0.02329764573711595 -0.022357845032380853 -0.0009398007047350818 -0.009838649400055148 0.0 0.0
0.0 0.03312359481545 0.028090626438660393 -0.027127416578353658 -0.0009632098603067501 -0.009766373346447131 0.0 0.0
0.0 0.03842429026535219 0.032638999518016805 -0.031700928884171455 -0.0009380706338453535 -0.007813068266587252 0.0 0.0
0.0 0.042029745159184395 0.03524814310818482 -0.03472878119020425 -0.0005193619179805522 8.140623591890161e-15 0.0 0.0
0.0 0.03842429026534953 0.03263899951801262 -0.03170092888416718 -0.0009380706338454386 0.007813068266607444 0.0 0.0
0.0 0.03312359481544604 0.028090626438655154 -0.027127416578348745 -0.0009632098603063838 0.009766373346468706 0.0 0.0
0.0 0.0277742127889593 0.02329764573710719 -0.022357845032372155 -0.000939800704735064 0.00983864940006601 0.0 0.0
0.0 0.022500827643043255 0.018744015540980603 -0.01783803559811108 -0.0009059799428695164 0.00895716661555697 0.0 0.0
0.0 0.0174984192000076 0.014668555971165013 -0.013802804484196147 -0.0008657514869688781 0.007645553084249208 0.0 0.0
0.0 0.01342901436201735 0.011205447545851384 -0.010391847928255867 -0.000813599617595514 0.006315893541118837 0.0 0.0
0.0 0.010010332782784837 0.008391862762627676 -0.007648427570181466 -0.0007434351924462105 0.0051337109388649976 0.0 0.0
0.0 0.007368586457943593 0.006147938980387923 -0.005493574504374117 -0.0006543644760138064 0.004128473965580112 0.0 0.0
0.0 0.005214529397210195 0.004348611399880636 -0.003800780918023465 -0.0005478304818571697 0.0032166200354005908 0.0 0.0
0.0 0.003511850187463557 0.0028518514952814698 -0.0024270643133256333 -0.0004247871819558354 0.0023133404914683995 0.0 0.0
0.0 0.002251407318701101 0.0015980526359666157 -0.0013161472799706891 -0.00028190535599592804 0.0013803845315569414 0.0 0.0
0.0 0.0008830383548278171 0.0006786392835788865 -0.0005382127962187663 -0.00014042648736011965 0.0006455592584785869 0.0 0.0
0.0 0.00017875698094783375 0.00014567642567835755 -0.00011238970214126972 -3.328672353708806e-05 0.00017853502972120297 0.0 0.0
0.0 -1.2098863802583026e-05 -1.738695053631717e-05 1.3928596291859395e-05 3.4583542444577034e-06 -3.5930156118422114e-05 0.0 0.0
0.0 -3.6743701617432007e-06 -2.307519187684311e-06 1.8186043181216789e-06 4.889148695626853e-07 -6.670279464675193e-06 0.0 0.0
0.0 -6.028755912113015e-07 2.2319327589241575e-08 -1.6144786761238497e-08 -6.174540828008186e-09 1.2077459409600793e-07 0.0 0.0
0.0 0.0 0.0 0.0 0.0 0.0 0.0 0.0
0.0 1.6834769789144244e-07 -9.84247435487633e-10 1.1381256888423935e-09 -1.5387825335482658e-10 -3.351012276057265e-08 0.0 0.0
0.0 -5.8701724868844676e-05 -2.2167854489424645e-05 4.741955443224181e-05 -2.525169994281736e-05 3.521623908872547e-05 0.0 0.0
0.0 0.0011217096398841084 0.0004674824942696608 -0.0006774570484190474 0.00020997455414938757 0.0004965551983668136 0.0 0.0
0.0 0.0003724062944362171 0.0001772585624856696 -0.0002584021097979293 8.114354731226043e-05 -0.00023270099145851513 0.0 0.0
0.0 -5.084797071196737e-05 -2.4377636894601224e-05 3.495913001060444e-05 -1.0581493116003294e-05 3.335227679631842e-05 0.0 0.0
0.0 2.535276324517265e-06 -4.831974744427683e-09 1.2168905422072356e-08 -7.336930677643471e-09 5.485514330232776e-07 0.0 0.0
0.0 0.0 0.0 0.0 0.0 0.0 0.0 0.0
0.0 -2.859128898207967e-07 9.242535231306326e-09 -7.084965890506323e-09 -2.157569340802201e-09 -5.122909250329696e-08 0.0 0.0
0.0 -7.148536156558743e-06 8.829491859714035e-07 -6.813472375765762e-07 -2.0160194839481966e-07 -3.341836752467687e-06 0.0 0.0
0.0 -7.71972281113454e-06 -1.1097692941703194e-05 8.827657549050879e-06 2.2700353926522975e-06 4.177829486830437e-05 0.0 0.0
0.0 5.4684396449272276e-05 -1.5299639591659837e-05 1.1636335274787303e-05 3.663304316872538e-06 1.1700768190261371e-05 0.0 0.0
0.0 0.0002655194723571476 0.0001448494954944242 -0.00011632921411761806 -2.8520281376806117e-05 -0.0002867112376463123 0.0 0.0
0.0 0.0009419018071825039 0.0005906747886185763 -0.00048162446986894713 -0.00010905031874962864 -0.0007852911186348037 0.0 0.0
0.0 0.0017461750456167894 0.0013247690059066698 -0.0011014474661361336 -0.0002233215397705361 -0.0015335524740794485 0.0 0.0
0.0 0.002942088628936252 0.0022615737270939994 -0.0019259713709413979 -0.00033560235615260004 -0.0023294661889809135 0.0 0.0
0.0 0.00435392471324004 0.003416352755291023 -0.002969990297454918 -0.00044636245783610394 -0.0031679526252797975 0.0 0.0
0.0 0.006105320766849513 0.0048647294059900315 -0.0043204877982303885 -0.0005442416077596369 -0.004060711360748121 0.0 0.0
0.0 0.008372911500774854 0.006697928703871005 -0.00607311645573808 -0.0006248122481329304 -0.0050442782857365405 0.0 0.0
0.0 0.011242706425491241 0.00899730567857446 -0.008311534972027338 -0.0006857707065471205 -0.006132609841920265 0.0 0.0
0.0 0.014702441393679315 0.011807522081806056 -0.011071342438056459 -0.0007361796437495846 -0.007248786142851875 0.0 0.0
0.0 0.01854225036903849 0.015117894795344235 -0.014341620381579587 -0.0007762744137646527 -0.008111092610163339 0.0 0.0
0.0 0.02286862442819068 0.01886384588655568 -0.018048445760890854 -0.000815400125664809 -0.008236531434272358 0.0 0.0
0.0 0.027733126815204054 0.022913479366092775 -0.022093707082639996 -0.0008197722834527582 -0.007108739721820639 0.0 0.0
0.0 0.031444247845077045 0.025648390796665192 -0.025345113917651103 -0.00030327687901410044 6.379879263773702e-15 0.0 0.0
0.0 0.0277331268152049 0.022913479366091342 -0.02209370708263842 -0.0008197722834529266 0.0071087397218375 0.0 0.0
0.0 0.0228686244281878 0.01886384588655136 -0.01804844576088702 -0.0008154001256643451 0.008236531434289162 0.0 0.0
0.0 0.018542250369031447 0.015117894795337945 -0.014341620381573557 -0.0007762744137643741 0.008111092610171648 0.0 0.0
0.0 0.014702441393673032 0.011807522081801079 -0.011071342438052207 -0.0007361796437488737 0.007248786142850849 0.0 0.0
0.0 0.0112427064254828 0.008997305678567701 -0.008311534972020933 -0.0006857707065467597 0.006132609841915378 0.0 0.0
0.0 0.008372911500768252 0.006697928703865361 -0.006073116455732798 -0.0006248122481325581 0.005044278285733974 0.0 0.0
0.0 0.006105320766843857 0.004864729405985317 -0.004320487798226011 -0.0005442416077593054 0.004060711360746091 0.0 0.0
0.0 0.004353924713234359 0.00341635275528605 -0.0029699902974504784 -0.00044636245783557073 0.0031679526252764443 0.0 0.0
0.0 0.002942088628929667 0.0022615737270893304 -0.0019259713709372766 -0.0003356023561520542 0.0023294661889761595 0.0 0.0
0.0 0.0017461750456114037 0.001324769005902387 -0.0011014474661324312 -0.00022332153976995615 0.0015335524740738267 0.0 0.0
0.0 0.0009419018071780126 0.0005906747886157207 -0.00048162446986660883 -0.00010905031874911131 0.0007852911186315531 0.0 0.0
0.0 0.00026551947235454066 0.00014484949549290396 -0.00011632921411637095 -2.852028137653312e-05 0.00028671123764428943 0.0 0.0
0.0 5.468439644817413e-05 -1.5299639591748755e-05 1.1636335274871852e-05 3.663304316876966e-06 -1.1700768190834084e-05 0.0 0.0
0.0 -7.719722812003293e-06 -1.1097692941508563e-05 8.82765754889557e-06 2.2700353926130773e-06 -4.1778294867640395e-05 0.0 0.0
0.0 -7.148536157195121e-06 8.829491859816412e-07 -6.813472375844672e-07 -2.0160194839721065e-07 3.341836752560347e-06 0.0 0.0
0.0 -2.8591288959316563e-07 9.24253522329496e-09 -7.084965884329158e-09 -2.15756933896141e-09 5.122909245679573e-08 0.0 0.0
0.0 0.0 0.0 0.0 0.0 0.0 0.0 0.0
0.0 2.5352763242583978e-06 -4.831974744202714e-09 1.2168905420848461e-08 -7.336930676644521e-09 -5.485514329585872e-07 0.0 0.0
0.0 -5.0847970711612135e-05 -2.4377636894131127e-05 3.4959130010024314e-05 -1.0581493115893178e-05 -3.335227679528856e-05 0.0 0.0
0.0 0.00037240629443259076 0.00017725856248413866 -0.00025840210979578084 8.114354731164207e-05 0.00023270099145644276 0.0 0.0
0.0 8.517525930634916e-05 6.199916232573658e-06 -1.0139693910615744e-05 3.939777678042213e-06 -3.303352829054069e-06 0.0 0.0
0.0 -6.704745311716878e-06 -1.2828635843917304e-06 1.879125229908118e-06 -5.96261645516386e-07 1.8885908640997757e-06 0.0 0.0
0.0 5.149974561989484e-07 8.315305539707942e-10 5.81062297663047e-10 -1.4125928516329942e-09 1.0360537900382677e-07 0.0 0.0
0.0 5.102853194010992e-07 6.51326980736861e-09 -5.92521034271967e-09 -5.880594646505873e-10 1.0424366580308873e-07 0.0 0.0
0.0 -8.593099250458052e-07 3.008918804294092e-08 -2.426669608445876e-08 -5.822491958475931e-09 -2.039176300560015e-07 0.0 0.0
0.0 2.458178503037488e-06 -4.3829788410832765e-08 2.4384897621552118e-08 1.944489078925508e-08 6.578666935939174e-07 0.0 0.0
0.0 -5.663862944042212e-06 -3.6618843217595694e-06 2.9082757037387095e-06 7.536086180208782e-07 2.929871643789772e-05 0.0 0.0
0.0 2.5611030624789064e-05 -7.147170837977267e-08 2.6222779899908197e-07 -1.90756090619324e-07 -1.8393710891351585e-05 0.0 0.0
0.0 9.688685832952266e-05 7.879265403478946e-06 -6.880132895772908e-06 -9.991325077059896e-07 -0.0001234802492443803 0.0 0.0
0.0 0.00020497419990744216 3.7939507553744805e-05 -3.3190841409780174e-05 -4.74866614396472e-06 -0.0003137203004639298 0.0 0.0
0.0 0.0006264979992690542 0.00019727384271923018 -0.00017429028697774543 -2.2983555741484895e-05 -0.0006647207924943425 0.0 0.0
0.0 0.000982121946610443 0.0004915946956755004 -0.00043792693977500027 -5.366775590049958e-05 -0.0012443703518964645 0.0 0.0
0.0 0.0016700787235667887 0.0009595692558930371 -0.0008508181083938106 -0.00010875114749922589 -0.0019121424722328667 0.0 0.0
0.0 0.002626858626577115 0.001614338507750422 -0.0014369895205810002 -0.00017734898716942262 -0.0026724257706574636 0.0 0.0
0.0 0.0038457758735154367 0.0025034014104594327 -0.0022496021573091456 -0.00025379925315028283 -0.0035143223106280036 0.0 0.0
0.0 0.005414092243513973 0.0036603954739622196 -0.003327617161917922 -0.000332778312044298 -0.004422182323449485 0.0 0.0
0.0 0.007466509993248352 0.00517466569631678 -0.004756053808414908 -0.0004186118879018736 -0.005412145918643468 0.0 0.0
0.0 0.010163388280689327 0.007190334466568766 -0.006694116193709752 -0.0004962182728590097 -0.006307965120995754 0.0 0.0
0.0 0.013284825415113551 0.009766362414621095 -0.009209113519745477 -0.0005572488948756282 -0.006576970548389251 0.0 0.0
0.0 0.016884336842104386 0.01303035746050144 -0.012400969370033307 -0.0006293880904681156 -0.005794820180263996 0.0 0.0
0.0 0.021512156620256663 0.015819974471984882 -0.01577901773323914 -4.095673874575111e-05 4.31122151867136e-15 0.0 0.0
0.0 0.01688433684210752 0.01303035746050143 -0.012400969370033287 -0.0006293880904681362 0.005794820180277759 0.0 0.0
0.0 0.013284825415111081 0.009766362414617827 -0.009209113519742403 -0.00055724889487542 0.0065769705484007325 0.0 0.0
0.0 0.01016338828068412 0.007190334466564614 -0.00669411619370569 -0.0004962182728589283 0.006307965121000271 0.0 0.0
0.0 0.007466509993242959 0.005174665696313696 -0.004756053808412329 -0.0004186118879013691 0.005412145918640723 0.0 0.0
0.0 0.00541409224350923 0.003660395473959092 -0.003327617161914734 -0.0003327783120443558 0.004422182323444889 0.0 0.0
0.0 0.003845775873511966 0.002503401410456387 -0.0022496021573062204 -0.0002537992531501675 0.003514322310626002 0.0 0.0
0.0 0.0026268586265751864 0.0016143385077495413 -0.001436989520580245 -0.00017734898716929647 0.0026724257706565043 0.0 0.0
0.0 0.0016700787235639609 0.0009595692558915474 -0.0008508181083924355 -0.00010875114749911126 0.001912142472229214 0.0 0.0
0.0 0.0009821219466072588 0.000491594695673972 -0.0004379269397737035 -5.366775590026866e-05 0.0012443703518924649 0.0 0.0
0.0 0.0006264979992658607 0.0001972738427180214 -0.0001742902869766499 -2.2983555741371227e-05 0.0006647207924903263 0.0 0.0
0.0 0.00020497419990629472 3.7939507553509506e-05 -3.319084140957541e-05 -4.748666143934104e-06 0.00031372030046288176 0.0 0.0
0.0 9.688685832919124e-05 7.879265403543784e-06 -6.880132895826261e-06 -9.991325077174684e-07 0.0001234802492441197 0.0 0.0
0.0 2.561103062412394e-05 -7.14717084544761e-08 2.622277990646928e-07 -1.9075609061023237e-07 1.8393710890790128e-05 0.0 0.0
0.0 -5.6638629444155725e-06 -3.661884321710127e-06 2.90827570369915e-06 7.536086180109797e-07 -2.9298716437472068e-05 0.0 0.0
0.0 2.458178502577447e-06 -4.382978840655297e-08 2.4384897618730833e-08 1.9444890787823373e-08 -6.57866693497551e-07 0.0 0.0
0.0 -8.593099251298585e-07 3.0089188041248155e-08 -2.4266696082362417e-08 -5.822491958886435e-09 2.039176300699479e-07 0.0 0.0
0.0 5.10285319165181e-07 6.513269804796147e-09 -5.925210340276538e-09 -5.880594645190752e-10 -1.0424366575315331e-07 0.0 0.0
0.0 5.149974558099532e-07 8.315305537905433e-10 5.810622967492264e-10 -1.4125928505440177e-09 -1.036053789230171e-07 0.0 0.0
0.0 -6.704745312385053e-06 -1.2828635843534091e-06 1.8791252298465225e-06 -5.962616454931082e-07 -1.8885908640198177e-06 0.0 0.0
0.0 8.517525930494135e-05 6.1999162323317525e-06 -1.0139693910245466e-05 3.939777677913621e-06 3.3033528287558448e-06 0.0 0.0
0.0 9.262138647014115e-07 1.4619812087671998e-06 -2.173517459189865e-06 7.115362504226144e-07 -2.529675092667303e-06 0.0 0.0
0.0 -1.4244498514059248e-06 -1.8193816561765909e-07 2.712607935542563e-07 -8.932262793658411e-08 7.08962535278889e-08 0.0 0.0
0.0 3.6187657992177032e-06 1.0195274959671077e-08 7.11349756412122e-09 -1.7308772523796264e-08 7.81723116672718e-07 0.0 0.0
0.0 1.2405663355666563e-06 2.296314495505155e-08 -1.9338392250235115e-08 -3.624752704813151e-09 2.542797602654144e-07 0.0 0.0
0.0 7.821947515459587e-08 1.9553413154148733e-08 -1.741372149231297e-08 -2.139691661835925e-09 -6.284691891100786e-09 0.0 0.0
0.0 1.1916742533223524e-06 -3.0316499243016825e-10 3.019658824793452e-09 -2.716493832360163e-09 4.717027863052787e-07 0.0 0.0
0.0 -2.47398078823068e-06 8.444211108340899e-08 -1.0495781039214333e-07 2.0515699308723223e-08 2.8479462937658337e-05 0.0 0.0
0.0 1.917712221923195e-05 -1.7076919742771467e-07 1.745972220459262e-07 -3.828024618199725e-09 -3.152262281168288e-05 0.0 0.0
0.0 0.00011014437936623678 -5.457934709684299e-09 9.490031610773456e-09 -4.0320969010732755e-09 -0.00010388007877612862 0.0 0.0
0.0 0.00017502002964067415 1.1128036439890723e-07 -9.989921899096672e-08 -1.1381145407940078e-08 -0.00028383091092249444 0.0 0.0
0.0 0.0003564301526300228 -2.897698416589256e-07 1.5368676994922888e-07 1.3608307170967362e-07 -0.0004500499426651577 0.0 0.0
0.0 0.0004572889990209324 2.776522298443535e-07 -2.3706225776873302e-07 -4.0589972075599834e-08 -0.0008012719032871533 0.0 0.0
0.0 0.0006471549854977418 1.2770041153029892e-06 -9.116538191000519e-07 -3.6535029620296946e-07 -0.001211997509064047 0.0 0.0
0.0 0.0008843768806160051 1.0468581111980959e-06 -1.612187545169767e-07 -8.856393566809599e-07 -0.0017904500765738574 0.0 0.0
0.0 0.0012452615464443458 -9.629357088264623e-06 9.650884189502313e-06 -2.15271012377779e-08 -0.0025813192662539073 0.0 0.0
0.0 0.0017877826809276037 1.583594994988247e-05 -2.715715241039996e-05 1.1321202460517612e-05 -0.003639666317677613 0.0 0.0
0.0 0.002673940457063129 0.00021294013737137014 -0.0002572613376278891 4.432120025651932e-05 -0.004838218993766103 0.0 0.0
0.0 0.003888674915366841 0.0006547138703555989 -0.0007529137375333988 9.819986717779947e-05 -0.00602665710730257 0.0 0.0
0.0 0.005639186109315563 0.0014570892817772534 -0.001614812464098427 0.00015772318232117486 -0.007007758570553009 0.0 0.0
0.0 0.008325671275485483 0.0033971647042445358 -0.0033089780382925364 -8.81866659519996e-05 -0.0070050857125378 0.0 0.0
0.0 0.01439654362800964 0.006600924923092446 -0.006934485102006555 0.0003335601789141103 6.179952383167375e-15 0.0 0.0
0.0 0.008325671275488167 0.003397164704243829 -0.003308978038291956 -8.818666595187296e-05 0.007005085712548489 0.0 0.0
0.0 0.005639186109314339 0.001457089281775951 -0.0016148124640970852 0.00015772318232113163 0.007007758570555444 0.0 0.0
0.0 0.003888674915362469 0.0006547138703543112 -0.0007529137375317197 9.819986717741046e-05 0.0060266571073005265 0.0 0.0
0.0 0.0026739404570590344 0.00021294013737113091 -0.00025726133762755596 4.4321200256425305e-05 0.004838218993761072 0.0 0.0
0.0 0.00178778268092635 1.58359499502289e-05 -2.71571524107356e-05 1.1321202460507082e-05 0.0036396663176747218 0.0 0.0
0.0 0.0012452615464436224 -9.629357088939132e-06 9.650884190254343e-06 -2.152710131546776e-08 0.002581319266252075 0.0 0.0
0.0 0.0008843768806153986 1.0468581113399773e-06 -1.612187547702802e-07 -8.856393565695751e-07 0.0017904500765717223 0.0 0.0
0.0 0.0006471549854959253 1.2770041152520656e-06 -9.116538190597704e-07 -3.653502961923155e-07 0.001211997509060734 0.0 0.0
0.0 0.000457288999019298 2.776522299679284e-07 -2.3706225785024703e-07 -4.058997211766444e-08 0.0008012719032837993 0.0 0.0
0.0 0.0003564301526279262 -2.8976984155384386e-07 1.5368676985807453e-07 1.3608307169580322e-07 0.00045004994266215396 0.0 0.0
0.0 0.00017502002964028953 1.1128036443258526e-07 -9.989921902292104e-08 -1.1381145409645579e-08 0.00028383091092205366 0.0 0.0
0.0 0.00011014437936576014 -5.457934705056958e-09 9.490031602912567e-09 -4.032096897862597e-09 0.00010388007877570593 0.0 0.0
0.0 1.9177122218553697e-05 -1.70769197429417e-07 1.7459722204895794e-07 -3.828024619526231e-09 3.1522622811204865e-05 0.0 0.0
0.0 -2.4739807886152226e-06 8.444211108049326e-08 -1.0495781038979778e-07 2.0515699309312818e-08 -2.8479462937246252e-05 0.0 0.0
0.0 1.1916742527360476e-06 -3.031649971008072e-10 3.019658829508173e-09 -2.7164938324137005e-09 -4.717027861863588e-07 0.0 0.0
0.0 7.821947466927294e-08 1.955341314824257e-08 -1.741372148698716e-08 -2.13969166125215e-09 6.284691988554587e-09 0.0 0.0
0.0 1.2405663350389034e-06 2.2963144945294832e-08 -1.9338392241929008e-08 -3.624752703366745e-09 -2.542797601527055e-07 0.0 0.0
0.0 3.618765798929172e-06 1.0195274960301875e-08 7.113497562151617e-09 -1.7308772522443827e-08 -7.817231166001966e-07 0.0 0.0
0.0 -1.424449851321629e-06 -1.819381656759524e-07 2.7126079363719263e-07 -8.932262796125759e-08 -7.089625362336745e-08 0.0 0.0
0.0 9.262138637513865e-07 1.461981209174528e-06 -2.1735174597966548e-06 7.115362506222313e-07 2.5296750934231593e-06 0.0 0.0
0.0 -1.1154274967154842e-06 6.94027292706571e-08 -1.0140536005932449e-07 3.200263078866925e-08 -1.5472886577778064e-07 0.0 0.0
0.0 1.563318351507121e-07 -8.962566343147133e-09 1.253236508218711e-08 -3.5697987390420057e-09 2.559376361966427e-08 0.0 0.0
0.0 -7.973792108451382e-07 -1.204917363749536e-08 8.854264138521895e-09 3.1949094989739415e-09 -1.7398262980274483e-07 0.0 0.0
0.0 1.490317100255079e-06 4.241911744592017e-08 -3.470315010590186e-08 -7.71596734001991e-09 3.1235457426870176e-07 0.0 0.0
0.0 -9.607804073067049e-07 -1.2296962677610805e-08 5.651758841994688e-09 6.645203835618198e-09 -1.682679009712111e-07 0.0 0.0
0.0 -1.3940733865437163e-06 -5.268682926645947e-07 4.1919337587440826e-07 1.0767491679021922e-07 -2.630221837789605e-06 0.0 0.0
0.0 5.072834181479224e-06 5.647770984221414e-06 -4.493930670098101e-06 -1.153840314123396e-06 4.005365836700441e-05 0.0 0.0
0.0 3.0053052794923884e-05 -3.854948632822261e-07 1.7805852902121463e-07 2.074363342610307e-07 -1.925110383044033e-05 0.0 0.0
0.0 9.716745467932375e-05 -8.012638440785249e-06 7.0095299434206495e-06 1.0031084973644467e-06 -0.0001240473686668729 0.0 0.0
0.0 0.00020383254961718508 -3.759402139510626e-05 3.287824408124189e-05 4.715777313864344e-06 -0.00031310579972783256 0.0 0.0
0.0 0.0006353626636416705 -0.0001951657529964585 0.00017273813644497847 2.242761655148033e-05 -0.0006632788424707601 0.0 0.0
0.0 0.0009902297129502605 -0.0004923001248999718 0.0004384317792353479 5.3868345664623945e-05 -0.0012421784569272907 0.0 0.0
0.0 0.0016796362262366357 -0.0009658733567972516 0.0008560335714023291 0.00010983978539492198 -0.0019129467787242698 0.0 0.0
0.0 0.002650441948135374 -0.001631852106499004 0.0014530167204174728 0.00017883538608153034 -0.002668500415500882 0.0 0.0
0.0 0.0038444208223712487 -0.0025090867418729353 0.0022594012684781623 0.0002496854733947725 -0.003517968306535562 0.0 0.0
0.0 0.005258181180233998 -0.0035139174913487057 0.003214852421992506 0.00029906506935619884 -0.004505568133171271 0.0 0.0
0.0 0.0066888174059635975 -0.004468468059224778 0.004157214545178383 0.0003112535140463956 -0.005721335009059682 0.0 0.0
0.0 0.007974523171674294 -0.005010828772611161 0.004747305849764291 0.0002635229228468667 -0.007199383559134923 0.0 0.0
0.0 0.008240925823507314 -0.004662661324746723 0.004508184777930039 0.00015447654681668816 -0.008939231436562023 0.0 0.0
0.0 0.007100205616603033 -0.0034108995152331203 0.0033386409609737753 7.225855425934465e-05 -0.010399729729639071 0.0 0.0
0.0 0.013580672863011917 -0.0019191314084929603 0.000706722805014779 0.0012124086034781799 8.795048023202412e-15 0.0 0.0
0.0 0.007100205616608037 -0.0034108995152340995 0.0033386409609749666 7.22585542591319e-05 0.01039972972964634 0.0 0.0
0.0 0.00824092582350678 -0.004662661324745626 0.004508184777929145 0.00015447654681648366 0.008939231436568261 0.0 0.0
0.0 0.007974523171669379 -0.005010828772607655 0.004747305849760951 0.00026352292284670316 0.00719938355913528 0.0 0.0
0.0 0.006688817405957663 -0.004468468059220377 0.004157214545174268 0.0003112535140461094 0.0057213350090560885 0.0 0.0
0.0 0.005258181180228029 -0.0035139174913443615 0.003214852421988218 0.00029906506935614073 0.004505568133166637 0.0 0.0
0.0 0.0038444208223665866 -0.002509086741868534 0.0022594012684742227 0.0002496854733943124 0.003517968306531654 0.0 0.0
0.0 0.002650441948130416 -0.0016318521064951556 0.0014530167204141226 0.00017883538608103256 0.002668500415498018 0.0 0.0
0.0 0.0016796362262311744 -0.0009658733567935473 0.0008560335713990229 0.00010983978539452431 0.0019129467787195218 0.0 0.0
0.0 0.0009902297129455292 -0.0004923001248971718 0.0004384317792328421 5.386834566432967e-05 0.0012421784569229648 0.0 0.0
0.0 0.0006353626636360069 -0.00019516575299425887 0.0001727381364430001 2.2427616551258548e-05 0.0006632788424658508 0.0 0.0
0.0 0.00020383254961592665 -3.759402139462761e-05 3.2878244080804544e-05 4.71577731382301e-06 0.00031310579972671 0.0 0.0
0.0 9.71674546786157e-05 -8.012638440765475e-06 7.009529943413393e-06 1.003108497352056e-06 0.00012404736866634882 0.0 0.0
0.0 3.005305279409451e-05 -3.8549486320258366e-07 1.7805852896369347e-07 2.0743633423888553e-07 1.9251103829722563e-05 0.0 0.0
0.0 5.07283418110499e-06 5.6477709841727136e-06 -4.493930670060478e-06 -1.153840314112222e-06 -4.005365836656541e-05 0.0 0.0
0.0 -1.3940733866983841e-06 -5.268682927873272e-07 4.1919337598120905e-07 1.0767491680612036e-07 2.6302218386649815e-06 0.0 0.0
0.0 -9.607804079459443e-07 -1.2296962661637766e-08 5.651758827806053e-09 6.645203833827768e-09 1.6826790087484055e-07 0.0 0.0
0.0 1.4903170996868914e-06 4.241911743258753e-08 -3.470315009501489e-08 -7.715967337572316e-09 -3.123545741501756e-07 0.0 0.0
0.0 -7.973792112328151e-07 -1.2049173637036891e-08 8.854264135792826e-09 3.194909501241335e-09 1.7398262987621965e-07 0.0 0.0
0.0 1.5633183536249753e-07 -8.96256633991177e-09 1.2532365079843436e-08 -3.5697987399297236e-09 -2.5593763663451428e-08 0.0 0.0
0.0 -1.1154274964526031e-06 6.940272925345171e-08 -1.0140536003419192e-07 3.2002630780733594e-08 1.5472886573936063e-07 0.0 0.0
0.0 0.0 0.0 0.0 0.0 0.0 0.0 0.0
0.0 2.1048115274896888e-08 1.779303116025321e-10 -7.692157692559785e-11 -1.0100873467691951e-10 4.212842558405787e-09 0.0 0.0
0.0 -6.96977332642471e-07 -2.1540156773917086e-08 1.7601164642050715e-08 3.938992131864946e-09 -1.437910681489006e-07 0.0 0.0
0.0 -9.073015980962664e-07 -5.68571413310864e-08 4.755545022616241e-08 9.301691104915119e-09 -2.3445117856962518e-07 0.0 0.0
0.0 7.111028679676994e-06 1.8414804306148036e-07 -1.598909556232248e-07 -2.425708743820676e-08 1.239618471207075e-06 0.0 0.0
0.0 1.1251722095402427e-05 2.8568214334835106e-06 -2.3064040992219173e-06 -5.5041733426158e-07 1.2874984028087967e-05 0.0 0.0
0.0 -5.27969163754419e-06 2.56823720916422e-06 -2.0679232449100176e-06 -5.003139642541178e-07 2.9073324711474894e-06 0.0 0.0
0.0 6.0926295406415515e-05 1.373276899549666e-05 -1.0299844359337846e-05 -3.4329246361589777e-06 7.574150603818493e-06 0.0 0.0
0.0 0.0002646648697315235 -0.00014463337260883744 0.00011611107990085456 2.8522292707983044e-05 -0.00028704076529717905 0.0 0.0
0.0 0.00093843977621551 -0.0005890558671877358 0.0004801926070687658 0.00010886326011896965 -0.0007829100090395695 0.0 0.0
0.0 0.0017444691228655383 -0.0013241219153604794 0.001100846069384059 0.0002232758459764193 -0.0015324510561009947 0.0 0.0
0.0 0.0029435458330459535 -0.002262424312669789 0.001926665750631861 0.00033575856203792723 -0.0023302252666550127 0.0 0.0
0.0 0.004360710206181476 -0.0034216819120990037 0.002974659925109294 0.0004470219869897083 -0.0031641238038391134 0.0 0.0
0.0 0.006122061585239771 -0.004881792167700802 0.004336838286806341 0.0005449538808944597 -0.004040088865423763 0.0 0.0
0.0 0.00838415990329767 -0.006713739883880238 0.006091852951412343 0.0006218869324678937 -0.005028309420816835 0.0 0.0
0.0 0.011124239228754617 -0.008894093648871016 0.008224041995977798 0.0006700516528932198 -0.006266806918142848 0.0 0.0
0.0 0.014059024405380647 -0.011209636685607956 0.010520557638661089 0.000689079046946854 -0.007925392140398214 0.0 0.0
0.0 0.016505011019927636 -0.013206317914166484 0.012520856565398766 0.0006854613487677193 -0.010078417092401122 0.0 0.0
0.0 0.018001012627375253 -0.014019064245806276 0.013368149834493427 0.0006509144113128532 -0.0123051916598883 0.0 0.0
0.0 0.016727873062606393 -0.012173463880176273 0.011558417658618857 0.000615046221557411 -0.012819022192171856 0.0 0.0
0.0 0.016999078336829863 -0.009535461096011425 0.007583332786343015 0.0019521283096684064 7.113667294111892e-15 0.0 0.0
0.0 0.01672787306261006 -0.01217346388017632 0.011558417658618847 0.0006150462215574796 0.01281902219218479 0.0 0.0
0.0 0.018001012627374892 -0.014019064245804078 0.013368149834491336 0.0006509144113127338 0.012305191659900619 0.0 0.0
0.0 0.016505011019920548 -0.013206317914160291 0.012520856565392808 0.000685461348767486 0.010078417092405026 0.0 0.0
0.0 0.01405902440537086 -0.011209636685600075 0.010520557638653569 0.0006890790469465033 0.007925392140395122 0.0 0.0
0.0 0.011124239228743794 -0.008894093648861947 0.008224041995968956 0.000670051652892986 0.006266806918137984 0.0 0.0
0.0 0.008384159903289256 -0.006713739883873271 0.006091852951406004 0.0006218869324672652 0.005028309420812245 0.0 0.0
0.0 0.006122061585232002 -0.004881792167693691 0.00433683828679958 0.0005449538808941063 0.0040400888654199005 0.0 0.0
0.0 0.0043607102061719435 -0.0034216819120911892 0.0029746599251021444 0.0004470219869890451 0.0031641238038339708 0.0 0.0
0.0 0.0029435458330363566 -0.002262424312662387 0.0019266657506252056 0.00033575856203717897 0.002330225266648196 0.0 0.0
0.0 0.0017444691228566283 -0.001324121915353393 0.0011008460693778465 0.00022327584597554663 0.0015324510560935645 0.0 0.0
0.0 0.0009384397762095664 -0.0005890558671837057 0.0004801926070654539 0.00010886326011825199 0.0007829100090357788 0.0 0.0
0.0 0.0002646648697285857 -0.00014463337260717935 0.00011611107989950405 2.8522292707675212e-05 0.00028704076529497563 0.0 0.0
0.0 6.0926295405544236e-05 1.3732768995545108e-05 -1.0299844359372386e-05 -3.432924636172761e-06 -7.5741506044543555e-06 0.0 0.0
0.0 -5.2796916388208325e-06 2.56823720888757e-06 -2.0679232446942275e-06 -5.003139641933624e-07 -2.9073324702567864e-06 0.0 0.0
0.0 1.1251722094878067e-05 2.8568214335373294e-06 -2.3064040992661502e-06 -5.504173342712583e-07 -1.2874984028328035e-05 0.0 0.0
0.0 7.111028679195537e-06 1.8414804302211345e-07 -1.598909555901752e-07 -2.4257087431940208e-08 -1.2396184709977998e-06 0.0 0.0
0.0 -9.073015986570772e-07 -5.6857141346010775e-08 4.755545023829637e-08 9.301691107725905e-09 2.3445117868003778e-07 0.0 0.0
0.0 -6.969773323641747e-07 -2.1540156766816746e-08 1.7601164636488607e-08 3.938992130327122e-09 1.4379106809095408e-07 0.0 0.0
0.0 2.104811525417068e-08 1.779303114248141e-10 -7.692157684864826e-11 -1.0100873457621018e-10 -4.2128425542012475e-09 0.0 0.0
0.0 0.0 0.0 0.0 0.0 0.0 0.0 0.0
0.0 0.0 0.0 0.0 0.0 0.0 0.0 0.0
0.0 0.0 0.0 0.0 0.0 0.0 0.0 0.0
0.0 -6.673786689358188e-07 -2.6521950268112564e-08 2.1499513791296284e-08 5.022436476819881e-09 -1.3134363579990852e-07 0.0 0.0
0.0 1.8682322036662964e-06 7.292438497842065e-08 -5.975073658410082e-08 -1.3173648394326133e-08 3.735910496881116e-07 0.0 0.0
0.0 9.71984208637032e-07 4.020333300204675e-07 -3.2192287011133665e-07 -8.011045990917419e-08 1.5070709124832652e-06 0.0 0.0
0.0 -1.2827406305236363e-05 -8.102979440501965e-07 6.081935072978191e-07 2.0210443675243693e-07 -2.5105926145379416e-06 0.0 0.0
0.0 1.8533188190938673e-05 2.5831082688283867e-05 -2.0470097681642474e-05 -5.360985006641588e-06 5.5095787689826356e-05 0.0 0.0
0.0 0.00019103792152733908 -0.0001486261245313021 0.00011499874216930518 3.362738236199713e-05 -0.00018420161043865196 0.0 0.0
0.0 0.0008806279503196855 -0.0006769079791066342 0.0005366837686150978 0.00014022421049153598 -0.0006437173888247666 0.0 0.0
0.0 0.0022491139237587826 -0.0015963379898848756 0.0013144626180886935 0.0002818753717961826 -0.0013769365228882696 0.0 0.0
0.0 0.0035070801550553966 -0.002852003766697654 0.0024271862360760463 0.0004248175306216076 -0.002313100475638766 0.0 0.0
0.0 0.0052157882560514455 -0.0043489969318516045 0.003801245915274868 0.0005477510165767364 -0.003217860655016734 0.0 0.0
0.0 0.007369912346951296 -0.006148923469811345 0.0054944387818774785 0.000654484687933866 -0.004122134054242616 0.0 0.0
0.0 0.010015198229086565 -0.008400176351273563 0.007655991243947391 0.0007441851073261723 -0.005095028932679867 0.0 0.0
0.0 0.01343193492712673 -0.01122130076197486 0.010408608013993247 0.0008126927479816102 -0.006247903576395586 0.0 0.0
0.0 0.017428319134469128 -0.014618100378729203 0.01376329971645287 0.0008548006622763323 -0.007751832482662054 0.0 0.0
0.0 0.02209589151615071 -0.01833638686073818 0.017468379353781913 0.0008680075069562756 -0.00991233410721124 0.0 0.0
0.0 0.026274636514332175 -0.021724936879396806 0.020878763230340033 0.0008461736490567709 -0.012873798653118586 0.0 0.0
0.0 0.02873082430594994 -0.02348090527822652 0.02268749733431468 0.0007934079439118323 -0.0158798947571558 0.0 0.0
0.0 0.02686431797490743 -0.02149700318545601 0.02078747508793513 0.0007095280975208721 -0.01685104194685012 0.0 0.0
0.0 0.02440952993694556 -0.017363622790358257 0.014721548532406736 0.0026420742579515194 7.819699748834452e-15 0.0 0.0
0.0 0.02686431797490947 -0.021497003185454517 0.02078747508793349 0.0007095280975210199 0.016851041946867054 0.0 0.0
0.0 0.028730824305948647 -0.023480905278222757 0.022687497334311225 0.000793407943911508 0.015879894757172976 0.0 0.0
0.0 0.026274636514323144 -0.021724936879388278 0.020878763230331724 0.0008461736490565344 0.012873798653125951 0.0 0.0
0.0 0.022095891516136303 -0.018336386860726077 0.017468379353770082 0.000868007506956 0.009912334107209346 0.0 0.0
0.0 0.01742831913445599 -0.014618100378717924 0.013763299716441855 0.000854800662276065 0.007751832482657409 0.0 0.0
0.0 0.013431934927113535 -0.011221300761963763 0.010408608013982796 0.0008126927479809565 0.006247903576389977 0.0 0.0
0.0 0.010015198229073246 -0.008400176351262235 0.007655991243936351 0.0007441851073258907 0.005095028932674666 0.0 0.0
0.0 0.007369912346938214 -0.006148923469800388 0.005494438781866981 0.0006544846879334086 0.004122134054236842 0.0 0.0
0.0 0.00521578825603812 -0.004348996931840769 0.003801245915264854 0.0005477510165759141 0.003217860655008824 0.0 0.0
0.0 0.003507080155042674 -0.0028520037666874085 0.002427186236066486 0.00042481753062092266 0.002313100475630112 0.0 0.0
0.0 0.0022491139237501147 -0.0015963379898781176 0.0013144626180828709 0.0002818753717952465 0.0013769365228826049 0.0 0.0
0.0 0.0008806279503129504 -0.0006769079791017735 0.0005366837686111669 0.0001402242104906062 0.0006437173888207456 0.0 0.0
0.0 0.00019103792152459737 -0.0001486261245294792 0.00011499874216788153 3.362738236159759e-05 0.00018420161043688484 0.0 0.0
0.0 1.853318819030183e-05 2.583108268800052e-05 -2.0470097681417058e-05 -5.3609850065833355e-06 -5.509578768945572e-05 0.0 0.0
0.0 -1.2827406306106674e-05 -8.102979444105294e-07 6.081935075858262e-07 2.021044368247176e-07 2.510592615575848e-06 0.0 0.0
0.0 9.719842081185034e-07 4.0203333006772274e-07 -3.2192287014890945e-07 -8.011045991880175e-08 -1.507070912591143e-06 0.0 0.0
0.0 1.8682322031391885e-06 7.292438495947189e-08 -5.975073656882235e-08 -1.3173648390657147e-08 -3.73591049577993e-07 0.0 0.0
0.0 -6.673786687448563e-07 -2.6521950260483167e-08 2.1499513785132376e-08 5.022436475351499e-09 1.3134363576041204e-07 0.0 0.0
0.0 0.0 0.0 0.0 0.0 0.0 0.0 0.0
0.0 0.0 0.0 0.0 0.0 0.0 0.0 0.0
0.0 0.0 0.0 0.0 0.0 0.0 0.0 0.0
0.0 0.0 0.0 0.0 0.0 0.0 0.0 0.0
0.0 -2.95889627028445e-07 -1.3592507698731995e-08 1.083743040721265e-08 2.7550772915178707e-09 -5.501979115714737e-08 0.0 0.0
0.0 -2.112291098398292e-06 -1.6324554829102846e-07 1.3285156833206997e-07 3.0393979958964755e-08 -4.379793777943576e-07 0.0 0.0
0.0 9.30690716718586e-06 5.651633020302208e-07 -4.5166611714871015e-07 -1.1349718488150631e-07 1.5921513932347056e-06 0.0 0.0
0.0 1.501402692563959e-05 1.804827088182444e-05 -1.4319040558118719e-05 -3.7292303237057934e-06 3.220802891200937e-05 0.0 0.0
0.0 8.590098109245988e-05 -5.0021414995430674e-05 3.7905601207320944e-05 1.2115813788109953e-05 -4.721902683285159e-05 0.0 0.0
0.0 0.0006102483154695859 -0.0004999561230906913 0.0003872458575227252 0.00011271026556796535 -0.0003636429480017204 0.0 0.0
0.0 0.002013753305658625 -0.00142392550185548 0.0011546123594301115 0.00026931314242536873 -0.000973065117074274 0.0 0.0
0.0 0.0032175112291266943 -0.0028424699985106798 0.0024011274148514846 0.00044134258365919547 -0.0018992281843493793 0.0 0.0
0.0 0.005300869431733276 -0.004531774195873878 0.003954301813005294 0.0005774723828685826 -0.002808672200316752 0.0 0.0
0.0 0.007656613410706309 -0.006551347137376935 0.005858179198067249 0.0006931679393096845 -0.0037132578570920026 0.0 0.0
0.0 0.010510438221973676 -0.00900213963998805 0.008207742095871221 0.0007943975441168337 -0.004640381512182176 0.0 0.0
0.0 0.014095182875816976 -0.012059903581912534 0.011178726450047492 0.0008811771318650405 -0.005676858867347201 0.0 0.0
0.0 0.018536081073039758 -0.015888077338695496 0.0149375056625393 0.0009505716761561947 -0.0069161893376642435 0.0 0.0
0.0 0.024213583926741652 -0.02051483156113206 0.019519763379807913 0.000995068181324149 -0.008568290660305325 0.0 0.0
0.0 0.029963952149531372 -0.02565983889753612 0.024654649026937144 0.0010051898705989296 -0.011003330301717091 0.0 0.0
0.0 0.035949430729261 -0.030407961526051172 0.029444259816512816 0.0009637017095383811 -0.014431637671060024 0.0 0.0
0.0 0.03956383835937179 -0.032988176549763444 0.032117166957686176 0.0008710095920772317 -0.01817345758153365 0.0 0.0
0.0 0.037198712216355234 -0.030556358756604434 0.02982996077290103 0.0007263979837034022 -0.01993909568830458 0.0 0.0
0.0 0.03238709667353669 -0.025066489213826416 0.021834468822570785 0.0032320203912556134 9.229162573065608e-15 0.0 0.0
0.0 0.03719871221635735 -0.030556358756602755 0.029829960772899726 0.000726397983703027 0.019939095688324998 0.0 0.0
0.0 0.03956383835936643 -0.03298817654975624 0.03211716695767936 0.0008710095920768908 0.018173457581553486 0.0 0.0
0.0 0.035949430729249485 -0.030407961526040223 0.029444259816502442 0.00096370170953777 0.014431637671069872 0.0 0.0
0.0 0.029963952149515694 -0.025659838897522328 0.024654649026923728 0.0010051898705986098 0.011003330301717285 0.0 0.0
0.0 0.024213583926725485 -0.020514831561118066 0.019519763379794216 0.0009950681813238492 0.008568290660301703 0.0 0.0
0.0 0.018536081073024388 -0.015888077338681934 0.014937505662526574 0.0009505716761553697 0.00691618933765896 0.0 0.0
0.0 0.014095182875801476 -0.012059903581898894 0.011178726450034501 0.0008811771318643813 0.005676858867342019 0.0 0.0
0.0 0.010510438221956016 -0.009002139639973011 0.008207742095856528 0.0007943975441164839 0.004640381512175941 0.0 0.0
0.0 0.007656613410689668 -0.006551347137362474 0.005858179198053605 0.0006931679393088693 0.0037132578570837 0.0 0.0
0.0 0.005300869431716754 -0.004531774195859658 0.003954301812991628 0.0005774723828680282 0.002808672200306926 0.0 0.0
0.0 0.003217511229115083 -0.0028424699985003916 0.0024011274148421314 0.000441342583658259 0.0018992281843423706 0.0 0.0
0.0 0.0020137533056490105 -0.0014239255018483703 0.0011546123594241766 0.0002693131424241939 0.00097306511706941 0.0 0.0
0.0 0.0006102483154638258 -0.0004999561230864489 0.0003872458575193653 0.00011271026556708362 0.00036364294799882485 0.0 0.0
0.0 8.59009810902567e-05 -5.002141499456137e-05 3.7905601206643995e-05 1.211581378791732e-05 4.721902683223745e-05 0.0 0.0
0.0 1.5014026924733756e-05 1.8048270881688066e-05 -1.4319040558007453e-05 -3.729230323680662e-06 -3.2208028911766245e-05 0.0 0.0
0.0 9.306907165866818e-06 5.651633019144226e-07 -4.5166611705728374e-07 -1.1349718485711884e-07 -1.5921513929691902e-06 0.0 0.0
0.0 -2.1122910987118115e-06 -1.6324554830016535e-07 1.3285156833938794e-07 3.039397996078572e-08 4.3797937784828425e-07 0.0 0.0
0.0 -2.9588962689353585e-07 -1.3592507692400482e-08 1.0837430402124616e-08 2.755077290274585e-09 5.50197911312241e-08 0.0 0.0
0.0 0.0 0.0 0.0 0.0 0.0 0.0 0.0
0.0 0.0 0.0 0.0 0.0 0.0 0.0 0.0
0.0 0.0 0.0 0.0 0.0 0.0 0.0 0.0
0.0 0.0 0.0 0.0 0.0 0.0 0.0 0.0
0.0 -1.336041538324973e-07 -7.0791082984345225e-09 5.607259907490537e-09 1.4718483909442396e-09 -2.3963176664436898e-08 0.0 0.0
0.0 -1.150862233485828e-06 -9.876059602605095e-08 7.855272765354809e-08 2.0207868372501855e-08 -2.0268686367933702e-07 0.0 0.0
0.0 -6.644088528628333e-06 -1.7526940948648517e-06 1.3808367889577882e-06 3.718573059070619e-07 -2.5227346136363865e-06 0.0 0.0
0.0 3.786385397046221e-05 2.2308933287815632e-05 -1.8092180000353665e-05 -4.216753287461745e-06 3.54177274482796e-05 0.0 0.0
0.0 0.00030014298686526224 -0.00023362880025182996 0.0001766598229074781 5.696897734435187e-05 -0.00011983644637836096 0.0 0.0
0.0 0.0014251448276937453 -0.0009883391188674619 0.0007810795579287386 0.00020725956093872304 -0.0005068872768817062 0.0 0.0
0.0 0.0025972147795393485 -0.002382407236751269 0.001979781270401692 0.0004026259663495778 -0.0012796370742439176 0.0 0.0
0.0 0.004734226516870179 -0.004140210773875638 0.00357916682050158 0.00056104395337406 -0.002124563913189346 0.0 0.0
0.0 0.007179530258578194 -0.00627205628720213 0.005579872466095583 0.0006921838211065432 -0.0029765950445687916 0.0 0.0
0.0 0.010137359527130466 -0.008826161506669105 0.008023110041703993 0.0008030514649651132 -0.0038378105296846743 0.0 0.0
0.0 0.013770259342011731 -0.011941323767402413 0.011038628948825072 0.0009026948185773367 -0.004743329834502266 0.0 0.0
0.0 0.01838128446473904 -0.01581928726109291 0.014828815022725785 0.0009904722383671277 -0.005785929152264577 0.0 0.0
0.0 0.02396581852085443 -0.020657701385231965 0.01959250308469673 0.0010651983005352107 -0.00705496316079672 0.0 0.0
0.0 0.030642961485674927 -0.026508803059897557 0.025390974538030586 0.0011178285218669671 -0.008686648045254954 0.0 0.0
0.0 0.038568437607338316 -0.033027983626413335 0.031903392555164 0.001124591071249335 -0.011046937559157016 0.0 0.0
0.0 0.04573905410624303 -0.039106715734767476 0.038045448567084944 0.0010612671676825153 -0.014560905375984236 0.0 0.0
0.0 0.04983936445088053 -0.042448139357302475 0.041525639220578836 0.0009225001367236707 -0.018877831906864182 0.0 0.0
0.0 0.04721712313913856 -0.039504531370470386 0.03878442475579644 0.0007201066146739548 -0.022071697373310623 0.0 0.0
0.0 0.04106035548406098 -0.03274232659032968 0.028966606718497722 0.00377571987183194 9.639858356003117e-15 0.0 0.0
0.0 0.04721712313913989 -0.039504531370468214 0.03878442475579461 0.0007201066146736027 0.022071697373332554 0.0 0.0
0.0 0.04983936445087278 -0.0424481393572935 0.041525639220569885 0.000922500136723612 0.01887783190688547 0.0 0.0
0.0 0.045739054106228444 -0.03910671573475395 0.038045448567071795 0.0010612671676821547 0.014560905375995933 0.0 0.0
0.0 0.03856843760732213 -0.03302798362639906 0.031903392555150206 0.001124591071248828 0.011046937559158993 0.0 0.0
0.0 0.03064296148565578 -0.026508803059880785 0.025390974538014324 0.00111782852186649 0.008686648045252324 0.0 0.0
0.0 0.02396581852083546 -0.020657701385215485 0.019592503084680822 0.0010651983005346673 0.007054963160792781 0.0 0.0
0.0 0.01838128446471948 -0.015819287261075354 0.014828815022709108 0.0009904722383662465 0.0057859291522589324 0.0 0.0
0.0 0.013770259341991543 -0.011941323767384725 0.01103862894880767 0.0009026948185770582 0.0047433298344969265 0.0 0.0
0.0 0.010137359527110966 -0.008826161506652002 0.008023110041687858 0.0008030514649641374 0.0038378105296772032 0.0 0.0
0.0 0.007179530258559707 -0.006272056287186105 0.005579872466080268 0.0006921838211058338 0.002976595044559712 0.0 0.0
0.0 0.004734226516855179 -0.004140210773862578 0.0035791668204894385 0.0005610439533731378 0.002124563913182134 0.0 0.0
0.0 0.002597214779529959 -0.0023824072367418327 0.001979781270393445 0.0004026259663483885 0.0012796370742387216 0.0 0.0
0.0 0.001425144827685076 -0.0009883391188609148 0.0007810795579233496 0.00020725956093756498 0.0005068872768780343 0.0 0.0
0.0 0.0003001429868614906 -0.0002336288002491829 0.0001766598229054834 5.696897734369988e-05 0.00011983644637684996 0.0 0.0
0.0 3.7863853969817955e-05 2.2308933287232683e-05 -1.8092179999896738e-05 -4.216753287336161e-06 -3.541772744757067e-05 0.0 0.0
0.0 -6.644088529570182e-06 -1.752694094946215e-06 1.3808367890214413e-06 3.718573059247465e-07 2.522734613776239e-06 0.0 0.0
0.0 -1.1508622335227065e-06 -9.876059602363591e-08 7.855272765149146e-08 2.02078683721454e-08 2.02686863685958e-07 0.0 0.0
0.0 -1.3360415377959937e-07 -7.079108295548217e-09 5.6072599052097004e-09 1.4718483903391005e-09 2.396317665472527e-08 0.0 0.0
0.0 0.0 0.0 0.0 0.0 0.0 0.0 0.0
0.0 0.0 0.0 0.0 0.0 0.0 0.0 0.0
0.0 0.0 0.0 0.0 0.0 0.0 0.0 0.0
0.0 0.0 0.0 0.0 0.0 0.0 0.0 0.0
0.0 0.0 0.0 0.0 0.0 0.0 0.0 0.0
0.0 -1.6427912562006257e-06 -1.4576765561260727e-07 1.1635194098500306e-07 2.9415714627583024e-08 -2.453416837903687e-07 0.0 0.0
0.0 1.0771081746138767e-05 6.436863498304647e-06 -5.108656915989365e-06 -1.328206582315232e-06 7.845617135869585e-06 0.0 0.0
0.0 4.7245337653550586e-05 -5.8800898662013104e-05 4.319743362557258e-05 1.5603465036440186e-05 -2.1436607921160253e-05 0.0 0.0
0.0 0.00079017635479761 -0.0004980891244886476 0.0003817803010843672 0.00011630882340428071 -0.0001623096539369436 0.0 0.0
0.0 0.001860592776852627 -0.0016743749899822754 0.001355394486053577 0.00031898050392869767 -0.000660646918355444 0.0 0.0
0.0 0.003759866401388055 -0.0033609966711308607 0.0028559957387271724 0.0005050009324036885 -0.001350236760329535 0.0 0.0
0.0 0.006173474897542407 -0.005485708375929407 0.0048274833296427086 0.000658225046286698 -0.002086589903971783 0.0 0.0
0.0 0.009136025434457205 -0.008053012041816911 0.007270237848898565 0.000782774192918337 -0.0028495693137613833 0.0 0.0
0.0 0.01274573219022069 -0.011149716894355875 0.010257157707594207 0.0008925591867616606 -0.0036203895816143863 0.0 0.0
0.0 0.017249543552053936 -0.014944897552714045 0.01395103893401306 0.0009938586187009826 -0.004450677088656904 0.0 0.0
0.0 0.022514329432406187 -0.01966969442714738 0.018583482216500847 0.001086212210646536 -0.005440416470757556 0.0 0.0
0.0 0.029384948374203624 -0.02550606184035669 0.024340386453657242 0.0011656753866994545 -0.006660681863488308 0.0 0.0
0.0 0.03759539610004337 -0.03251409706793588 0.03128865637030051 0.0012254406976353552 -0.008144210661339269 0.0 0.0
0.0 0.046535513973396454 -0.04034337011720478 0.03910589093593564 0.0012374791812691187 -0.010117601565512179 0.0 0.0
0.0 0.05516739102573437 -0.047694564508190165 0.04653956351962735 0.001155000988562844 -0.013230268763782176 0.0 0.0
0.0 0.06032759769979954 -0.051826932330320395 0.0508615696870469 0.0009653626432734959 -0.01793329007642281 0.0 0.0
0.0 0.05722969582233871 -0.04852297896386723 0.047830700763618665 0.0006922782002485485 -0.023397388392980282 0.0 0.0
0.0 0.04970271930689115 -0.040615353348788324 0.03632922858695168 0.004286124761836616 9.763891084535459e-15 0.0 0.0
0.0 0.057229695822336085 -0.048522978963862234 0.047830700763613704 0.0006922782002485323 0.023397388393001765 0.0 0.0
0.0 0.060327597699790084 -0.05182693233031038 0.050861569687036874 0.000965362643273498 0.01793329007644391 0.0 0.0
0.0 0.05516739102571787 -0.04769456450817524 0.04653956351961268 0.0011550009885625092 0.013230268763794325 0.0 0.0
0.0 0.046535513973376054 -0.04034337011718679 0.039105890935918076 0.0012374791812687373 0.010117601565515022 0.0 0.0
0.0 0.037595396100020884 -0.03251409706791596 0.031288656370281366 0.0012254406976345597 0.008144210661338108 0.0 0.0
0.0 0.029384948374179962 -0.025506061840336124 0.024340386453637078 0.001165675386699036 0.006660681863484789 0.0 0.0
0.0 0.02251432943238264 -0.019669694427126606 0.018583482216480957 0.0010862122106456483 0.005440416470753129 0.0 0.0
0.0 0.01724954355203134 -0.014944897552693969 0.013951038933993277 0.0009938586187006925 0.004450677088652136 0.0 0.0
0.0 0.012745732190196644 -0.011149716894334579 0.010257157707573666 0.0008925591867609113 0.003620389581607644 0.0 0.0
0.0 0.009136025434437362 -0.008053012041799378 0.0072702378488816825 0.0007827741929176935 0.0028495693137534257 0.0 0.0
0.0 0.00617347489752536 -0.005485708375914029 0.0048274833296282635 0.0006582250462857641 0.0020865899039651118 0.0 0.0
0.0 0.0037598664013756356 -0.003360996671119207 0.0028559957387165875 0.0005050009324026203 0.001350236760324584 0.0 0.0
0.0 0.0018605927768427831 -0.0016743749899733838 0.0013553944860459396 0.0003189805039274434 0.0006606469183515472 0.0 0.0
0.0 0.0007901763547925288 -0.0004980891244852725 0.00038178030108177265 0.00011630882340349907 0.00016230965393561607 0.0 0.0
0.0 4.724533765215096e-05 -5.8800898661662656e-05 4.319743362532208e-05 1.5603465036340273e-05 2.1436607921354454e-05 0.0 0.0
0.0 1.0771081745008783e-05 6.436863498186639e-06 -5.108656915897599e-06 -1.328206582288917e-06 -7.845617135741185e-06 0.0 0.0
0.0 -1.642791256056295e-06 -1.457676555988268e-07 1.1635194097405649e-07 2.9415714624769247e-08 2.4534168376624963e-07 0.0 0.0
0.0 0.0 0.0 0.0 0.0 0.0 0.0 0.0
0.0 0.0 0.0 0.0 0.0 0.0 0.0 0.0
0.0 0.0 0.0 0.0 0.0 0.0 0.0 0.0
0.0 0.0 0.0 0.0 0.0 0.0 0.0 0.0
0.0 0.0 0.0 0.0 0.0 0.0 0.0 0.0
0.0 0.0 0.0 0.0 0.0 0.0 0.0 0.0
0.0 -5.301947323951955e-07 -5.211120635768816e-08 4.136700228583785e-08 1.074420407185488e-08 -5.5764332291065365e-08 0.0 0.0
0.0 1.1894552005815235e-05 1.492477624520421e-05 -1.1594143676809985e-05 -3.3306325683940104e-06 9.379697886821098e-06 0.0 0.0
0.0 0.000234542298945123 -0.00014103090137505353 0.00010321078123688357 3.7820120138170124e-05 -8.880204429635432e-06 0.0 0.0
0.0 0.0011367476212715717 -0.0009313999475991158 0.0007282062891544367 0.00020319365844467894 -0.0002102152374438783 0.0 0.0
0.0 0.002620393019705718 -0.0023955680079104026 0.0019842117740887996 0.0004113562338216025 -0.0006750342686828441 0.0 0.0
0.0 0.00484287496550551 -0.0043767588747140205 0.003784283103491079 0.0005924757712229386 -0.001214072983888025 0.0 0.0
0.0 0.0076937200935570035 -0.006854722427217239 0.006117990323945092 0.0007367321032721493 -0.0018166822836770265 0.0 0.0
0.0 0.011121569630161211 -0.009863002104743524 0.009004896895174856 0.0008581052095686655 -0.002443858703313432 0.0 0.0
0.0 0.0153938299477276 -0.013513570653835938 0.012544091956920788 0.0009694786969151465 -0.0030795249052934432 0.0 0.0
0.0 0.02043988213125788 -0.018011747512558993 0.0169358985263702 0.001075848986188788 -0.0037748618500610376 0.0 0.0
0.0 0.02710184495601275 -0.02358233942500385 0.022410616819484495 0.0011717226055193636 -0.0046340971537526905 0.0 0.0
0.0 0.03488867482487705 -0.03041417179969267 0.029159465042248044 0.0012547067574445949 -0.0057304800761515794 0.0 0.0
0.0 0.04405331214601875 -0.03850641969728948 0.037186624646761875 0.0013197950505276584 -0.007003550007018146 0.0 0.0
0.0 0.05449673583039489 -0.04747474086189454 0.04613121456119841 0.0013435263006960898 -0.00837959624120221 0.0 0.0
0.0 0.06444184331464228 -0.05601845832950604 0.05475947130127592 0.0012589870282301385 -0.010485721303256156 0.0 0.0
0.0 0.0706265999309253 -0.06112522651994376 0.06010789344965022 0.001017333070293521 -0.015230699446520073 0.0 0.0
0.0 0.06763421684033616 -0.057805617879721695 0.05716631978914331 0.0006392980905784149 -0.023722269239931357 0.0 0.0
0.0 0.05931263462166233 -0.04893380173428496 0.044176657338000684 0.004757144396284318 9.264290723454138e-15 0.0 0.0
0.0 0.06763421684032979 -0.0578056178797141 0.05716631978913562 0.0006392980905784501 0.023722269239950248 0.0 0.0
0.0 0.07062659993091186 -0.06112522651993111 0.06010789344963742 0.0010173330702936568 0.015230699446539257 0.0 0.0
0.0 0.06444184331462209 -0.05601845832948812 0.054759471301258376 0.0012589870282297432 0.010485721303267654 0.0 0.0
0.0 0.054496735830369916 -0.04747474086187284 0.04613121456117673 0.0013435263006960426 0.008379596241204932 0.0 0.0
0.0 0.04405331214599337 -0.03850641969726719 0.03718662464674031 0.001319795050526875 0.00700355000701808 0.0 0.0
0.0 0.03488867482484997 -0.030414171799669137 0.029159465042225042 0.00125470675744409 0.005730480076148865 0.0 0.0
0.0 0.02710184495598682 -0.023582339424980957 0.02241061681946232 0.001171722605518639 0.004634097153749366 0.0 0.0
0.0 0.02043988213122974 -0.018011747512534627 0.016935898526346152 0.0010758489861884823 0.0037748618500565863 0.0 0.0
0.0 0.015393829947699928 -0.013513570653811157 0.012544091956896526 0.0009694786969146343 0.0030795249052877937 0.0 0.0
0.0 0.011121569630136167 -0.009863002104721363 0.009004896895153165 0.0008581052095681946 0.0024438587033063105 0.0 0.0
0.0 0.007693720093536272 -0.0068547224271988064 0.0061179903239274224 0.0007367321032713875 0.001816682283671056 0.0 0.0
0.0 0.004842874965491256 -0.004376758874700716 0.0037842831034788013 0.0005924757712219147 0.0012140729838840683 0.0 0.0
0.0 0.002620393019694254 -0.0023955680078993416 0.0019842117740789746 0.0004113562338203657 0.0006750342686791719 0.0 0.0
0.0 0.001136747621264727 -0.0009313999475934722 0.0007282062891498397 0.00020319365844363333 0.00021021523744211524 0.0 0.0
0.0 0.0002345422989423191 -0.00014103090137350578 0.00010321078123574737 3.782012013775865e-05 8.880204429436344e-06 0.0 0.0
0.0 1.1894552004938953e-05 1.492477624498717e-05 -1.159414367663939e-05 -3.3306325683479356e-06 -9.37969788664083e-06 0.0 0.0
0.0 -5.301947322418017e-07 -5.211120634290696e-08 4.136700227412343e-08 1.0744204068790724e-08 5.5764332271987006e-08 0.0 0.0
0.0 0.0 0.0 0.0 0.0 0.0 0.0 0.0
0.0 0.0 0.0 0.0 0.0 0.0 0.0 0.0
0.0 0.0 0.0 0.0 0.0 0.0 0.0 0.0
0.0 0.0 0.0 0.0 0.0 0.0 0.0 0.0
0.0 0.0 0.0 0.0 0.0 0.0 0.0 0.0
0.0 0.0 0.0 0.0 0.0 0.0 0.0 0.0
0.0 -4.4415617567854504e-07 -3.977585573648688e-08 3.053577525764105e-08 9.240080478838564e-09 -3.7641705372815976e-08 0.0 0.0
0.0 6.566854045547341e-06 -6.348606235472563e-06 3.7369589972440397e-06 2.611647238228513e-06 3.65258064694224e-06 0.0 0.0
0.0 0.0005204942160996587 -0.00032704930808818647 0.00024397670071505062 8.307260737313613e-05 8.628012343953738e-06 0.0 0.0
0.0 0.0014971066919014578 -0.0014525776117093095 0.0011614332087228015 0.0002911444029865064 -0.0002106495686622393 0.0 0.0
0.0 0.003437681693021005 -0.003143904758045155 0.0026505103103638405 0.0004933944476813169 -0.000516319321446981 0.0 0.0
0.0 0.005955332341249987 -0.005409927300708419 0.00474499601770874 0.0006649312829996763 -0.000898024162910305 0.0 0.0
0.0 0.009221537471501322 -0.008239263170958307 0.007437303098214971 0.000801960072743335 -0.0013270703747482757 0.0 0.0
0.0 0.013217512496840198 -0.01169120570641811 0.010768268026724186 0.0009229376796939248 -0.0017726149599657894 0.0 0.0
0.0 0.01799766406698002 -0.015909959663858348 0.014871770448707175 0.0010381892151511737 -0.00222076526842919 0.0 0.0
0.0 0.024165841653738283 -0.021113161551525164 0.019963862220528584 0.0011492993309965736 -0.002721090799743215 0.0 0.0
0.0 0.03131582790084353 -0.027558089513048806 0.026306466788625783 0.0012516227244230031 -0.0033869936347864353 0.0 0.0
0.0 0.04033056667570341 -0.03536931295989525 0.03403189632544201 0.0013374166344532828 -0.004251563045678209 0.0 0.0
0.0 0.050818318962758825 -0.04445303462317557 0.0430550764181139 0.0013979582050616043 -0.005216693263077668 0.0 0.0
0.0 0.062252416462874494 -0.05434707802103455 0.05291915906756365 0.001427918953470948 -0.006040822889593155 0.0 0.0
0.0 0.07327910389067362 -0.06389916504872449 0.0625068585753367 0.001392306473387802 -0.006895896661746875 0.0 0.0
0.0 0.08079128843169366 -0.07024948854385182 0.06913453551651025 0.001114953027341579 -0.010372382401107272 0.0 0.0
0.0 0.07855053233975785 -0.06757213278043608 0.06702323193513633 0.000548900845299649 -0.02225844390037391 0.0 0.0
0.0 0.06991607047818364 -0.058082569545813326 0.052924983439175934 0.005157586106637316 6.5242949931487715e-15 0.0 0.0
0.0 0.07855053233975104 -0.06757213278042852 0.06702323193512934 0.0005489008452992273 0.022258443900388513 0.0 0.0
0.0 0.08079128843167778 -0.07024948854383745 0.06913453551649594 0.001114953027341557 0.010372382401123004 0.0 0.0
0.0 0.07327910389064916 -0.06389916504870315 0.06250685857531582 0.0013923064733872852 0.006895896661755824 0.0 0.0
0.0 0.06225241646284674 -0.05434707802101042 0.05291915906753972 0.0014279189534707366 0.006040822889595817 0.0 0.0
0.0 0.050818318962731146 -0.044453034623151026 0.04305507641809063 0.0013979582050604315 0.005216693263077682 0.0 0.0
0.0 0.04033056667567374 -0.03536931295986945 0.0340318963254167 0.0013374166344527509 0.00425156304567683 0.0 0.0
0.0 0.03131582790081338 -0.027558089513022372 0.026306466788600234 0.0012516227244221269 0.0033869936347837417 0.0 0.0
0.0 0.024165841653705743 -0.021113161551496756 0.01996386222050032 0.0011492993309964402 0.0027210907997402716 0.0 0.0
0.0 0.017997664066949227 -0.015909959663831467 0.014871770448681026 0.001038189215150418 0.002220765268425616 0.0 0.0
0.0 0.013217512496812966 -0.011691205706393554 0.010768268026700155 0.0009229376796934018 0.0017726149599605993 0.0 0.0
0.0 0.009221537471479028 -0.00823926317093788 0.007437303098195378 0.0008019600727425039 0.0013270703747439872 0.0 0.0
0.0 0.005955332341233374 -0.005409927300692818 0.0047449960176941365 0.0006649312829986812 0.0008980241629072875 0.0 0.0
0.0 0.003437681693008542 -0.003143904758033184 0.0026505103103530905 0.0004933944476800927 0.000516319321444326 0.0 0.0
0.0 0.001497106691893807 -0.001452577611701815 0.0011614332087165101 0.0002911444029853049 0.0002106495686606791 0.0 0.0
0.0 0.0005204942160956052 -0.00032704930808510766 0.00024397670071267248 8.307260737243468e-05 -8.628012344243013e-06 0.0 0.0
0.0 6.566854044605189e-06 -6.3486062356324155e-06 3.7369589973802913e-06 2.611647238252029e-06 -3.6525806467486893e-06 0.0 0.0
0.0 -4.441561758582773e-07 -3.977585575627305e-08 3.0535775272028516e-08 9.24008048421734e-09 3.764170537361333e-08 0.0 0.0
0.0 0.0 0.0 0.0 0.0 0.0 0.0 0.0
0.0 0.0 0.0 0.0 0.0 0.0 0.0 0.0
0.0 0.0 0.0 0.0 0.0 0.0 0.0 0.0
0.0 0.0 0.0 0.0 0.0 0.0 0.0 0.0
0.0 0.0 0.0 0.0 0.0 0.0 0.0 0.0
0.0 0.0 0.0 0.0 0.0 0.0 0.0 0.0
0.0 -7.655897216814946e-07 8.816802736713009e-08 -6.776812267374766e-08 -2.0399904693381257e-08 -8.460665891121697e-09 0.0 0.0
0.0 0.00010427562512389204 -3.241105039197195e-05 2.1683678983151244e-05 1.0727371408820563e-05 1.5512085883251255e-05 0.0 0.0
0.0 0.0007683622703737414 -0.0006204697006129515 0.0004721989034719118 0.00014827079714103996 4.682352519320935e-05 0.0 0.0
0.0 0.0021125146087497704 -0.0019775944019957406 0.0016139384506609013 0.00036365595133483903 -7.147988903905139e-05 0.0 0.0
0.0 0.004254438226608615 -0.003907214959120631 0.003343130475163547 0.0005640844839570825 -0.00022175167921266274 0.0 0.0
0.0 0.007146673680063094 -0.006446794840042508 0.005722194017320284 0.0007246008227222222 -0.00040856280324925976 0.0 0.0
0.0 0.010765360878083927 -0.009629657341389639 0.008771879354687349 0.0008577779867022864 -0.0006244874849405505 0.0 0.0
0.0 0.015259076861610748 -0.013532965733934345 0.012552654746541329 0.000980310987393009 -0.0008388245999772309 0.0 0.0
0.0 0.020917904390408984 -0.018325595335621024 0.017225553624665383 0.0011000417109556257 -0.0010447740333389742 0.0 0.0
0.0 0.027448251333975937 -0.02426233344879953 0.023045065753471216 0.0012172676953283153 -0.0013180171728256161 0.0 0.0
0.0 0.03584688169669223 -0.03156292112079519 0.03023695414239776 0.0013259669783974083 -0.0016922793600348302 0.0 0.0
0.0 0.04593595617048743 -0.040330817794838845 0.03891693911323483 0.0014138786816040292 -0.002176428582068169 0.0 0.0
0.0 0.0575158996274613 -0.050365061318726666 0.04889588704348834 0.0014691742752383841 -0.002737168711679979 0.0 0.0
0.0 0.06984587979795008 -0.06101263277398225 0.059526290614910785 0.0014863421590714657 -0.0031709374849871576 0.0 0.0
0.0 0.08159383763765901 -0.07115157686596199 0.06966570823715562 0.0014858686288063948 -0.003290031143742797 0.0 0.0
0.0 0.09039749162818116 -0.0787652699016903 0.07738012241879719 0.0013851474828930925 -0.004396617836438736 0.0 0.0
0.0 0.09018901091615934 -0.07802908394860725 0.0775407304013519 0.000488353547255295 -0.015293089704167023 0.0 0.0
0.0 0.08246516785028542 -0.06892314759437433 0.0636763449995034 0.005246802594870908 4.2847669856627135e-15 0.0 0.0
0.0 0.09018901091615093 -0.07802908394859917 0.07754073040134411 0.000488353547255042 0.015293089704175679 0.0 0.0
0.0 0.09039749162816206 -0.07876526990167368 0.07738012241878053 0.0013851474828930027 0.004396617836447614 0.0 0.0
0.0 0.0815938376376314 -0.07115157686593802 0.069665708237132 0.0014858686288060107 0.003290031143747557 0.0 0.0
0.0 0.06984587979792084 -0.061012632773956584 0.05952629061488586 0.0014863421590707564 0.0031709374849889895 0.0 0.0
0.0 0.05751589962742985 -0.05036506131869907 0.0488958870434616 0.001469174275237471 0.0027371687116795633 0.0 0.0
0.0 0.045935956170455094 -0.040330817794810556 0.03891693911320728 0.0014138786816032898 0.0021764285820680593 0.0 0.0
0.0 0.03584688169665932 -0.03156292112076618 0.03023695414237001 0.0013259669783961471 0.001692279360033676 0.0 0.0
0.0 0.0274482513339411 -0.024262333448769224 0.023045065753441247 0.0012172676953279649 0.001318017172824221 0.0 0.0
0.0 0.02091790439037404 -0.018325595335590278 0.017225553624635202 0.001100041710955074 0.0010447740333367473 0.0 0.0
0.0 0.01525907686158198 -0.013532965733909113 0.01255265474651678 0.000980310987392326 0.0008388245999746285 0.0 0.0
0.0 0.010765360878059594 -0.009629657341367621 0.008771879354666227 0.000857777986701394 0.0006244874849383026 0.0 0.0
0.0 0.007146673680043431 -0.006446794840024201 0.005722194017302886 0.000724600822721312 0.0004085628032476173 0.0 0.0
0.0 0.0042544382265944005 -0.003907214959107025 0.003343130475151073 0.0005640844839559519 0.00022175167921140187 0.0 0.0
0.0 0.0021125146087406397 -0.0019775944019867022 0.0016139384506530434 0.000363655951333658 7.147988903822948e-05 0.0 0.0
0.0 0.000768362270368685 -0.0006204697006087091 0.0004721989034685726 0.00014827079714013617 -4.6823525193288045e-05 0.0 0.0
0.0 0.00010427562512238837 -3.24110503915413e-05 2.168367898286873e-05 1.072737140867264e-05 -1.5512085882992053e-05 0.0 0.0
0.0 -7.655897221902319e-07 8.816802736661134e-08 -6.776812267670714e-08 -2.039990468984549e-08 8.460665877659496e-09 0.0 0.0
0.0 0.0 0.0 0.0 0.0 0.0 0.0 0.0
0.0 0.0 0.0 0.0 0.0 0.0 0.0 0.0
0.0 0.0 0.0 0.0 0.0 0.0 0.0 0.0
0.0 0.0 0.0 0.0 0.0 0.0 0.0 0.0
0.0 0.0 0.0 0.0 0.0 0.0 0.0 0.0
0.0 0.0 0.0 0.0 0.0 0.0 0.0 0.0
0.0 1.693380846013909e-06 -1.6817018315779068e-08 7.100537010167194e-08 -5.4188351785768045e-08 -3.7003880980129424e-07 0.0 0.0
0.0 0.00025454923759310634 -0.00010136358062222457 7.002932363430221e-05 3.1334256987923165e-05 3.820443546194087e-05 0.0 0.0
0.0 0.0010861724451100112 -0.000893149426470544 0.0006740317263960099 0.0002191177000745325 0.00012072505682188115 0.0 0.0
0.0 0.002594831410891928 -0.002430178624971534 0.001964152875725816 0.00046602574924571783 0.00012194861604171943 0.0 0.0
0.0 0.004924253594538676 -0.004537530174431151 0.0038400343914380686 0.0006974957829930796 0.0001299498885048807 0.0 0.0
0.0 0.008010016863146362 -0.007304860601022327 0.006405984526220707 0.000898876074801622 0.000146723530247001 0.0 0.0
0.0 0.01198900612780486 -0.010781387101248234 0.009691646930868023 0.0010897401703802104 0.00015329934184553297 0.0 0.0
0.0 0.01696255091856248 -0.015066841195239909 0.013775155795565798 0.001291685399674105 0.0001985015948474645 0.0 0.0
0.0 0.022827671498159743 -0.020362490087308324 0.018847646118415353 0.0015148439688929941 0.00028005372423629306 0.0 0.0
0.0 0.030214563672735638 -0.02690342249743356 0.025149001879983295 0.0017544206174502322 0.00030975075910176595 0.0 0.0
0.0 0.039311899820930835 -0.03490808450829694 0.03290311319341598 0.002004971314880988 0.0003292162475995149 0.0 0.0
0.0 0.05021564363143536 -0.04445509580933246 0.04220941471174111 0.0022456810975912725 0.00024891351007296555 0.0 0.0
0.0 0.06264172789754442 -0.05525591051666459 0.05280918323561164 0.002446727281052952 3.756612350028655e-05 0.0 0.0
0.0 0.07561541194304894 -0.06649121505453275 0.06391888354041406 0.002572331514118638 -0.0002454830339569938 0.0 0.0
0.0 0.08758270011415505 -0.07681773061878522 0.07423495904140719 0.0025827715773779113 -0.00045683921302816424 0.0 0.0
0.0 0.09668707104886265 -0.08474875101561825 0.08220794820550288 0.002540802810115396 -0.0006592451111872618 0.0 0.0
0.0 0.09904005254299775 -0.08717045358867585 0.08487194517495888 0.00229850841371703 -0.010311270424799119 0.0 0.0
0.0 0.09510528928778392 -0.08057168091246415 0.07263569225192243 0.00793598866054164 2.0747292772682613e-15 0.0 0.0
0.0 0.09904005254298667 -0.08717045358866633 0.08487194517494917 0.002298508413717195 0.010311270424802215 0.0 0.0
0.0 0.09668707104884014 -0.08474875101559881 0.08220794820548366 0.002540802810115149 0.000659245111190249 0.0 0.0
0.0 0.08758270011412317 -0.07681773061875731 0.07423495904137994 0.002582771577377463 0.00045683921303047575 0.0 0.0
0.0 0.07561541194301817 -0.06649121505450542 0.06391888354038806 0.0025723315141172234 0.00024548303395793055 0.0 0.0
0.0 0.06264172789750955 -0.05525591051663396 0.05280918323558196 0.002446727281052062 -3.7566123501388965e-05 0.0 0.0
0.0 0.05021564363140029 -0.04445509580930131 0.0422094147117116 0.0022456810975897126 -0.0002489135100732058 0.0 0.0
0.0 0.03931189982089574 -0.03490808450826586 0.032903113193386575 0.002004971314879282 -0.0003292162476003675 0.0 0.0
0.0 0.030214563672699327 -0.026903422497401512 0.025149001879952438 0.001754420617449071 -0.0003097507591022855 0.0 0.0
0.0 0.022827671498121035 -0.020362490087274566 0.018847646118382324 0.0015148439688922194 -0.000280053724237755 0.0 0.0
0.0 0.016962550918532354 -0.015066841195213124 0.013775155795540244 0.0012916853996728928 -0.00019850159484789947 0.0 0.0
0.0 0.01198900612777759 -0.010781387101224376 0.009691646930845265 0.0010897401703791215 -0.00015329934184647384 0.0 0.0
0.0 0.00801001686312391 -0.007304860601002064 0.006405984526201594 0.0008988760748004695 -0.00014672353024725016 0.0 0.0
0.0 0.004924253594521959 -0.004537530174415422 0.00384003439142363 0.0006974957829917899 -0.0001299498885048776 0.0 0.0
0.0 0.0025948314108811287 -0.0024301786249609054 0.0019641528757165395 0.0004660257492443658 -0.0001219486160416878 0.0 0.0
0.0 0.001086172445105153 -0.0008931494264656618 0.0006740317263921905 0.00021911770007347153 -0.0001207250568214745 0.0 0.0
0.0 0.0002545492375908541 -0.00010136358062099867 7.002932363344291e-05 3.133425698755683e-05 -3.820443546160614e-05 0.0 0.0
0.0 1.693380845853254e-06 -1.681701837060264e-08 7.100537014233334e-08 -5.418835177174547e-08 3.7003880980686163e-07 0.0 0.0
0.0 0.0 0.0 0.0 0.0 0.0 0.0 0.0
0.0 0.0 0.0 0.0 0.0 0.0 0.0 0.0
0.0 0.0 0.0 0.0 0.0 0.0 0.0 0.0
SCALARS Wm float 4
LOOKUP_TABLE default
8.894722434488688 1.8908765089616693 3.3264666845486177 3.6773792409783956
3.7419321574177293 1.9156927623938518 0.7709073159411164 1.0553320790827634
0.4538672429884928 0.4641849123425934 -0.004831966831394867 -0.005485702522705755
0.4122062799611257 0.4154266150047999 -0.00046645345849772636 -0.002753881585176483
0.679655640486956 0.6113816620743383 0.024777317847580783 0.04349666056503674
1.2397035120258257 0.7803452165434217 0.14266272144340897 0.31669557403899407
2.274195795923216 1.0319113500283785 0.4694503968924577 0.7728340490023811
3.8063251475661626 1.3035270866097415 1.0366344597015564 1.4661636012548644
5.9258687278815 1.6173133646837312 1.9128479037844655 2.3957074594133037
8.743711171703772 2.002253731810713 3.1678758862566427 3.5735815536364237
12.41013169050898 2.499324781780856 4.881266900955304 5.029540007772826
17.07197991718965 3.143222709420942 7.096524804732896 6.832232403035825
23.094992473447817 3.9431322825175457 10.085977442291256 9.065882748639012
30.736143919882466 4.908568560747431 14.019009110173148 11.808566248961895
40.12489084524512 5.974549359411206 19.059903408507363 15.090438077326535
51.088067266898015 7.005197428761408 25.232527645447647 18.850342192688984
62.95717896942133 7.813151145858366 32.22665570434867 22.917372119214285
74.61854809342732 8.234549838044304 39.44802735319781 26.935970902185183
84.73641085997423 8.259081562953225 46.01251691403294 30.46481238298801
91.75588278565188 7.944935294153817 50.773214932090845 33.03773255940719
94.15695322771998 7.48463691355409 52.608383442256894 34.063932871909024
91.75588278564058 7.944935294148717 50.77321493208649 33.03773255940535
84.73641085995233 8.25908156294698 46.01251691402267 30.464812382982657
74.61854809340002 8.234549838041193 39.44802735318228 26.935970902176543
62.95717896938951 7.8131511458544916 32.22665570433087 22.91737211920412
51.08806726686848 7.005197428758914 25.2325276454307 18.85034219267886
40.12489084521971 5.974549359413412 19.059903408490474 15.090438077315817
30.73614391985563 4.908568560747233 14.019009110157217 11.808566248951177
23.094992473418174 3.94313228251333 10.085977442276478 9.065882748628361
17.071979917161254 3.143222709414323 7.096524804720632 6.832232403026305
12.41013169048681 2.4993247817779145 4.8812669009448175 5.029540007764078
8.743711171686021 2.002253731808693 3.1678758862483734 3.573581553628956
5.925868727867772 1.6173133646805895 1.912847903779233 2.39570745940795
3.8063251475564304 1.3035270866084283 1.036634459697697 1.4661636012503054
2.2741957959169197 1.0319113500272712 0.4694503968903263 0.7728340489993227
1.2397035120224364 0.7803452165425282 0.14266272144278197 0.316695574037126
0.6796556404856575 0.6113816620733492 0.024777317847463787 0.0434966605648448
0.41220627996084674 0.415426615004434 -0.00046645345847782117 -0.0027538815851094237
0.45386724298795766 0.4641849123419895 -0.004831966831364331 -0.005485702522667415
3.7419321574143325 1.9156927623942952 0.7709073159393801 1.0553320790806549
8.894722434468667 1.8908765089517048 3.3264666845433015 3.677379240973668
10.159978448923152 4.700359841819528 2.50338520717056 2.956233399933065
1.2632383810061434 0.30335165841763195 0.36639848208080505 0.5934882405077069
0.21418899413672218 0.21899920984587842 -0.0008769458616081307 -0.003933269847548134
0.33311639112768665 0.332537590512997 0.00012685420313438732 0.00045194641155527526
0.5282312145148953 0.5020390416415454 0.007222190363966749 0.018969982509383324
1.005595188186349 0.6991588178114893 0.09974249320898464 0.20669387716587556
1.877498211485776 0.8821258823338227 0.36214767354762745 0.633224655604326
3.2294231636839013 1.0949714012581304 0.8656829465521412 1.2687688158736299
5.099566035246713 1.3176397292410778 1.6550365688235005 2.126889737182135
7.545609616313154 1.565002104929123 2.7683632685677524 3.2122442428162796
10.688338239216638 1.8547416339527336 4.283700780557658 4.549895824706246
14.748428865443238 2.207349584341284 6.345084035319161 6.195995245782788
19.8248461819959 2.6327902238049696 8.949009563475332 8.243046394715599
26.392118785540774 3.1278734846211096 12.497807848912592 10.76643745200707
34.518887197585755 3.660435433812653 17.04692845837436 13.811523305398751
44.087246095701964 4.143076509883537 22.622454765006637 17.321714820811785
54.57098229793609 4.459947567788372 29.010613254120393 21.100421476027325
65.0294306359937 4.52699143544539 35.64901820481768 24.853420995730602
74.2019254454578 4.329681890610048 41.703296264215034 28.168947290632737
80.65453384776734 3.9233271451494836 46.18160193125361 30.549604771364187
83.00676866705712 3.529347435466458 47.987137800100605 31.49028343149008
80.65453384776042 3.923327145149004 46.181601931249446 30.549604771361967
74.20192544544268 4.329681890609112 41.703296264205804 28.168947290627766
65.02943063597083 4.526991435442996 35.64901820480453 24.853420995723308
54.570982297910064 4.459947567787078 29.01061325410482 21.100421476018173
44.08724609567475 4.143076509879777 22.622454764992074 17.3217148208029
34.51888719756126 3.6604354338127996 17.046928458359393 13.811523305389077
26.39211878551685 3.127873484621602 12.497807848898136 10.76643745199711
19.824846181971353 2.6327902238034944 8.949009563462061 8.243046394705795
14.748428865420596 2.207349584339095 6.345084035307785 6.195995245773716
10.688338239197662 1.8547416339520348 4.283700780547815 4.5498958246978125
7.545609616297462 1.565002104927241 2.7683632685606745 3.212244242809544
5.09956603523514 1.3176397292391522 1.655036568818869 2.1268897371771183
3.229423163675241 1.0949714012569525 0.8656829465487976 1.268768815869491
1.8774982114803076 0.8821258823326051 0.3621476735459592 0.6332246556017433
1.0055951881836362 0.6991588178108062 0.09974249320822047 0.20669387716460916
0.5282312145139096 0.5020390416406983 0.0072221903639102265 0.018969982509301025
0.3331163911274774 0.33253759051272114 0.00012685420314265166 0.0004519464116135033
0.21418899413675402 0.21899920984585566 -0.000876945861594082 -0.003933269847507557
1.2632383810027292 0.3033516584175971 0.366398482079287 0.5934882405058445
10.159978448903155 4.700359841809704 2.503385207165367 2.956233399928081
7.443616037651118 3.6643857918157723 1.6471121131628603 2.1321181326724847
0.7375915485531799 0.10282553141436879 0.22938897942834363 0.40537703771046785
0.1336049651519274 0.13360540160958576 -1.80369121587346e-08 -4.1842074621861334e-07
0.2526403783933589 0.25259576200615597 2.0714326908494075e-05 2.3902060294492722e-05
0.41636005646838103 0.41405773459142786 0.00013102449700756055 0.002171297379945852
0.7871178775901034 0.6277304883671653 0.05072616247785266 0.10866122674508548
1.5122809467855105 0.8062499717653779 0.24105438601249263 0.46497658900764033
2.6943287850784228 1.0155515050257118 0.6578487885106545 1.0209284915420576
4.330781576993022 1.2262420092657007 1.3198953018556736 1.7846442658716468
6.48271298968642 1.4532792916409956 2.2799102766198254 2.7495234214255997
9.219780328930963 1.712109183760183 3.5754618205481776 3.9322093246226038
12.673312420756671 2.017860321840048 5.271603607685593 5.383848491231033
17.181508861136894 2.392641963615863 7.611068171243741 7.177798726277296
22.806057218255486 2.8306043305052446 10.562148479253986 9.413304408496252
29.918345155610524 3.29947645644563 14.49495680200538 12.123911897159505
38.34649564836983 3.737221906958903 19.335833077435737 15.273440663975208
47.655637100358064 4.053504304330728 24.891863622072698 18.710269173954643
57.01592748557047 4.158648074215055 30.729192189907113 22.128087221448318
65.2764658498259 4.003432419227466 36.12051814258228 25.152515288016144
71.13063891981851 3.6796582239691777 40.12807114244494 27.322909553404426
73.22992110064081 3.2321014053414516 41.77796001638244 28.21985967891691
71.13063891981169 3.6796582239679982 40.12807114244133 27.322909553402347
65.27646584981518 4.003432419230263 36.1205181425736 25.152515288011315
57.01592748555311 4.158648074215191 30.72919218989609 22.12808722144183
47.655637100334836 4.05350430432734 24.89186362206027 18.71026917394722
38.346495648348046 3.7372219069573243 19.335833077423352 15.273440663967367
29.918345155589257 3.2994764564457215 14.494956801992561 12.12391189715097
22.806057218233462 2.830604330503948 10.562148479241898 9.413304408487617
17.181508861114626 2.3926419636124803 7.611068171233041 7.1777987262691045
12.67331242073723 2.017860321839655 5.271603607675122 5.383848491222452
9.219780328914547 1.7121091837600715 3.575461820539645 3.932209324614834
6.48271298967286 1.4532792916390378 2.279910276614043 2.749523421419778
4.33078157698283 1.2262420092643416 1.3198953018515185 1.7846442658669708
2.694328785071007 1.0155515050247554 0.6578487885078274 1.020928491538425
1.512280946781022 0.8062499717641443 0.24105438601136478 0.4649765890055134
0.7871178775877955 0.6277304883660697 0.050726162477427866 0.10866122674429773
0.41636005646775026 0.41405773459091005 0.000131024496978443 0.0021712973798617557
0.2526403783932154 0.2525957620059972 2.0714326910045392e-05 2.3902060308113422e-05
0.1336049651518712 0.13360540160952925 -1.8036912141597065e-08 -4.184207459031903e-07
0.737591548550528 0.10282553141458899 0.22938897942715752 0.40537703770878125
7.443616037633202 3.664385791807686 1.647112113158066 2.132118132667451
5.5077539168593015 2.842335378419434 1.1074425391402245 1.5579759992996451
0.46628638814905693 0.06839478313708422 0.1307028720333208 0.2671887329786514
0.0943679513045329 0.0943679513045329 0.0 0.0
0.18937051661939963 0.1893323745494987 2.762707400739038e-06 3.5379362500165364e-05
0.3313740125668634 0.3382268645913449 -0.001445121437875812 -0.005407730586605694
0.5958870430310973 0.5338116437950641 0.01611640785037046 0.045958991385662624
1.189053175717567 0.7427820530991565 0.14815004829570164 0.2981210743227092
2.1788149436996425 0.9302488986596376 0.4683380880323432 0.7802279570076618
3.595818601117605 1.1303646844108255 1.0165594937267675 1.4488944229800118
5.449593284679267 1.3386158959859868 1.8165247103104907 2.2944526783827905
7.777281484884286 1.56645448228328 2.884003709620207 3.326823292980802
10.747012837663474 1.8352912573381777 4.327388862201761 4.584332718123534
14.48756476942235 2.155854294260086 6.191269078394057 6.140441396768209
19.40972423143922 2.5351240111652062 8.801331449243982 8.073268771030035
25.479812637972 2.94906230804775 12.082613969161956 10.44813636076229
32.71894171930466 3.345476638848689 16.14066100071996 13.232804079736022
40.89658464678407 3.6584534144784584 20.9519399937821 16.286191238523504
49.20248277180304 3.8004384755455556 26.025868670722645 19.37617562553484
56.612541829390615 3.710699995938762 30.747341050650842 22.154500782801033
61.94500049997327 3.4483213553519567 34.30506886346397 24.191610281157317
63.865022872320715 2.917667279178943 35.89084550439942 25.056510088742332
61.94500049996767 3.4483213553509913 34.305068863461024 24.191610281155658
56.61254182937917 3.710699995939142 30.747341050643346 22.15450078279669
49.20248277178865 3.8004384755471503 26.025868670712597 19.3761756255289
40.89658464676637 3.658453414477518 20.951939993771795 16.286191238517066
32.71894171928634 3.3454766388489348 16.140661000708736 13.232804079728679
25.479812637951408 2.9490623080449083 12.082613969151492 10.448136360755003
19.40972423142172 2.535124011165305 8.801331449233897 8.07326877102252
14.487564769404916 2.1558542942588055 6.191269078385061 6.140441396761049
10.747012837646636 1.8352912573378959 4.327388862192924 4.584332718115819
7.77728148486995 1.5664544822830306 2.8840037096129874 3.3268232929739296
5.449593284667548 1.3386158959844563 1.8165247103054891 2.294452678377602
3.5958186011087276 1.1303646844097688 1.0165594937231746 1.4488944229757845
2.1788149436933253 0.9302488986585085 0.4683380880303164 0.7802279570045
1.1890531757137688 0.7427820530982036 0.14815004829457534 0.2981210743209896
0.5958870430294921 0.533811643793788 0.01611640785024752 0.045958991385456664
0.3313740125664299 0.33822686459084067 -0.0014451214378604206 -0.005407730586550429
0.18937051661917506 0.18933237454928267 2.762707400018399e-06 3.5379362492379505e-05
0.09436795130443437 0.09436795130443437 0.0 0.0
0.46628638814689377 0.06839478313726223 0.13070287203235836 0.26718873297727297
5.507753916845035 2.8423353784131122 1.1074425391366318 1.5579759992952913
4.004303939112356 2.1820583219669922 0.7100219418591661 1.112223675286198
0.34652312076337394 0.10843037657723611 0.08482062103628027 0.15327212314985786
0.08535945239520223 0.08535945239520223 0.0 0.0
0.14807207848526385 0.1480776211070092 -4.2444358086294644e-07 -5.118178164441581e-06
0.26580262905397933 0.2648933425959028 0.0001756365224369437 0.0007336499356397066
0.4540045066613891 0.4541903099081001 -0.0010031111773941227 0.0008173079306829445
0.8976314783233879 0.6576115308759807 0.08080270759240678 0.15921723985500078
1.6912929391962424 0.8402575302225884 0.3017758281854909 0.549259580788163
2.886013546690983 1.0275608626580175 0.7374211103604639 1.1210315736725014
4.445926082867921 1.2179702408324433 1.3791675079209038 1.8487883341145754
6.407486645921978 1.4213052587622754 2.2536255449421168 2.7325558422175864
8.870696747101324 1.6521913381086877 3.4168700279749413 3.8016353810176944
12.032422078832502 1.927878678555632 4.986699240537305 5.117844159739564
16.005407325281485 2.249757488755552 6.991141421722299 6.764508414803631
21.138335036360473 2.6028729775239223 9.74433528731688 8.79112677151968
27.34622081647258 2.9619459955680445 13.192618245668502 11.191656575236033
34.299993981176975 3.273323577262854 17.15616244225506 13.870507961659072
41.54720426297954 3.453387125623093 21.48164875911487 16.612168378241574
48.16245474472811 3.434747673481475 25.606365540782082 19.121341530464548
53.07418310608712 3.225120432897522 28.825498922543503 21.023563750646098
54.86729843836615 2.5988843016661867 30.355334404037006 21.91307973266297
53.074183106083574 3.2251204328984144 28.825498922540714 21.02356375064445
48.16245474471816 3.4347476734808984 25.6063655407762 19.121341530461066
41.54720426296776 3.4533871256250857 21.481648759106356 16.61216837823632
34.29999398116077 3.273323577260839 17.156162442246412 13.870507961653507
27.34622081645724 2.9619459955692147 13.19261824565867 11.191656575229349
21.138335036344653 2.6028729775219768 9.744335287308838 8.791126771513838
16.00540732526562 2.249757488754633 6.991141421713902 6.76450841479708
12.03242207881735 1.927878678554643 4.986699240529635 5.117844159733071
8.870696747087427 1.6521913381082802 3.4168700279679083 3.801635381011237
6.407486645908752 1.4213052587600954 2.253625544936598 2.7325558422120584
4.445926082858 1.2179702408310635 1.3791675079168269 1.8487883341101112
2.8860135466835657 1.027560862657304 0.7374211103575685 1.1210315736686927
1.6912929391911313 0.8402575302213842 0.3017758281839407 0.5492595807858062
0.8976314783205265 0.6576115308752896 0.0808027075915989 0.15921723985363812
0.45400450666039605 0.4541903099071851 -0.0010031111774095414 0.000817307930620496
0.2658026290535505 0.26489334259546216 0.00017563652243774813 0.000733649935650666
0.14807207848499415 0.1480776211067386 -4.244435807835282e-07 -5.118178163679836e-06
0.08535945239503934 0.08535945239503934 0.0 0.0
0.34652312076151104 0.10843037657722224 0.08482062103549973 0.15327212314878913
4.004303939101393 2.18205832196233 0.7100219418564562 1.1122236752826062
2.8530355306785253 1.6688175347624838 0.43603492771044616 0.7481830682055947
0.25005411052437254 0.143345982015572 0.028708168306859485 0.07799996020194097
0.09543997864710316 0.09543997864710316 0.0 0.0
0.12696197079383983 0.12696197079383983 0.0 0.0
0.21752260338275056 0.2176385157276708 -1.729331766683081e-05 -9.861902725335857e-05
0.35162472086010255 0.36005481693418967 -0.002533720677794949 -0.005896375396292224
0.6393345302097078 0.5441939240019934 0.02263409699290091 0.07250650921481339
1.269843356968284 0.7526277000041335 0.18831988956781717 0.3288957673963334
2.1911711712113737 0.9109585860657228 0.476417124130162 0.8037954610154887
3.4897454770100533 1.0917458518894625 0.9847132361225127 1.4132863889980776
5.087669065494748 1.2712132517352037 1.6657866502707401 2.150669163488805
7.072532254988909 1.468771838299153 2.5671799644452733 3.036580452244485
9.58845385736557 1.700426414913484 3.768011533097651 4.120015909354433
12.854119278945065 1.9699027881033222 5.409020476210508 5.475196014631235
16.969977377688856 2.2743882856569946 7.535337773261973 7.160251318769892
21.99410927543451 2.585588053889584 10.231960218065645 9.176561003479284
27.922183731347076 2.883398908728452 13.593500330132553 11.445284492486069
34.09113302091699 3.1088883161591445 17.14631075198366 13.835933952774184
39.866646337588065 3.166891993367222 20.608153915692583 16.091600428528256
44.42339403821733 3.0103300190999556 23.539416468574156 17.87364755054323
46.13751275373633 2.2806569300533406 25.064026312361953 18.79282951132104
44.42339403821498 3.0103300191022315 23.539416468571286 17.873647550541456
39.86664633757948 3.166891993365844 20.608153915688135 16.091600428525506
34.09113302090666 3.108888316159894 17.146310751976912 13.835933952769857
27.922183731332222 2.8833989087242697 13.593500330126185 11.445284492481765
21.994109275421255 2.585588053890429 10.231960218057452 9.176561003473386
16.969977377675693 2.274388285655187 7.535337773255529 7.1602513187649794
12.8541192789336 1.9699027881040516 5.409020476203853 5.475196014625692
9.588453857352992 1.7004264149118622 3.768011533091847 4.120015909349283
7.072532254977005 1.4687718382974848 2.567179964440077 3.0365804522394413
5.08766906548477 1.2712132517338155 1.6657866502665668 2.1506691634843884
3.4897454770022414 1.0917458518883982 0.9847132361194738 1.4132863889943688
2.191171171205044 0.9109585860642408 0.47641712412816417 0.8037954610126403
1.2698433569642453 0.7526277000032643 0.18831988956652582 0.3288957673944552
0.6393345302076019 0.5441939240009962 0.022634096992547443 0.0725065092140583
0.3516247208593747 0.360054816933219 -0.0025337206777420393 -0.005896375396102248
0.21752260338240736 0.21763851572734524 -1.7293317669274294e-05 -9.861902726859164e-05
0.12696197079355853 0.12696197079355853 0.0 0.0
0.09543997864690601 0.09543997864690601 0.0 0.0
0.2500541105228803 0.1433459820153646 0.028708168306355183 0.07799996020116055
2.853035530670264 1.668817534758903 0.43603492770855773 0.7481830682028033
1.955788636387257 1.2566635259659298 0.23308773363619475 0.46603737678513246
0.20273211942286812 0.17940770953578247 0.0032325841972635546 0.02009182568982218
0.11466037098005358 0.11466037098005358 0.0 0.0
0.12195419019534695 0.12195419019534695 0.0 0.0
0.1839362139039413 0.18384984397486703 7.84836713214506e-06 7.852156194213836e-05
0.2803442524950558 0.2847311102884868 -0.0008687291779994788 -0.0035181286154314603
0.46032247206136756 0.45339687603247425 -0.0008470872699338186 0.007772683298827155
0.8571124934091235 0.6171347052394666 0.06806034800127483 0.171917440168382
1.6049278168364571 0.8084784598999433 0.3022623508639157 0.49418700607259775
2.556628263955198 0.9499612581931377 0.6175767290177074 0.9890902767443528
3.831821091235705 1.1141106634524274 1.1343831716252022 1.5833272561580747
5.375290124152057 1.282501729095899 1.803536838050885 2.2892515570052723
7.304558257600555 1.4744096493720102 2.6837557516551267 3.1463928565734185
9.790224859508198 1.6960805515799806 3.877186292743878 4.216958015184338
12.970099007344633 1.9457354843707315 5.465816446444389 5.558547076529513
17.01121022300974 2.2231367526609587 7.605502040470889 7.182571429877887
21.57279371266625 2.4971807927776344 10.020320559158474 9.055292360730146
26.73359151284488 2.7458709173356204 12.942117466667307 11.045603128841954
31.83796780726625 2.892578327108354 15.926713404765806 13.018676075392088
36.0109868319541 2.8063074568728563 18.500216007497695 14.704463367583559
37.704517209615055 1.9698298403152295 20.053178587414134 15.681508781885702
36.01098683195158 2.806307456874422 18.50021600749514 14.704463367582006
31.83796780726054 2.892578327107541 15.926713404762854 13.018676075390152
26.73359151283716 2.7458709173366667 12.942117466662069 11.04560312883842
21.57279371265652 2.4971807927763647 10.020320559153532 9.055292360726614
17.011210222999587 2.2231367526625454 7.605502040464218 7.182571429872818
12.970099007334516 1.9457354843691324 5.465816446439754 5.558547076525627
9.790224859497943 1.6960805515785387 3.8771862927392027 4.216958015180201
7.304558257591555 1.474409649371442 2.6837557516507973 3.1463928565693147
5.375290124143549 1.282501729095696 1.803536838046784 2.2892515570010703
3.831821091227792 1.1141106634516844 1.1343831716218868 1.5833272561542198
2.556628263948877 0.9499612581920431 0.617576729015407 0.989090276741427
1.604927816831749 0.8084784598987218 0.30226235086240405 0.4941870060706225
0.8571124934063722 0.617134705238662 0.06806034800056594 0.1719174401671444
0.46032247206003835 0.45339687603138534 -0.0008470872700103281 0.007772683298663238
0.2803442524945632 0.28473111028796333 -0.0008687291779838813 -0.003518128615416241
0.18393621390361364 0.18384984397453386 7.848367132360752e-06 7.852156194744154e-05
0.12195419019502274 0.12195419019502274 0.0 0.0
0.11466037097979234 0.11466037097979234 0.0 0.0
0.20273211942183705 0.17940770953546503 0.0032325841970061806 0.02009182568936578
1.9557886363814492 1.2566635259633916 0.23308773363499485 0.46603737678306284
1.334170815393964 0.9882557892063166 0.12125203670290254 0.22466298948474495
0.16873557441931752 0.18560789834890537 -0.009690156423917374 -0.007182167505670521
0.13624556178429084 0.136251372199508 -2.3757776738740996e-07 -5.5728374497752275e-06
0.12800338692821875 0.12800338692821875 0.0 0.0
0.1643018374356272 0.16428027279617086 1.7427445357908968e-06 1.9821894920534026e-05
0.23133900035853386 0.2330584986105598 -0.00033812668721449913 -0.001381371564811429
0.33642064831340707 0.34828464216815447 -0.0036513080789116986 -0.008212685775835627
0.5611514573558016 0.4912647231620839 0.012867398465015062 0.057019335728702804
1.0101659519496768 0.6497882162344468 0.11091171389867652 0.24946602181655358
1.7480541844855615 0.8112652680800424 0.35679513941478286 0.5799937769907356
2.64176559222934 0.9427200630716385 0.6684772983177929 1.0305682308399091
3.7623169692483143 1.0826673554297679 1.1148180815263355 1.5648315322922097
5.159837793175829 1.2416723048973466 1.7167579277060334 2.2014075605724472
6.936171665480609 1.4187520365307422 2.5220910513977746 2.995328577552094
9.256612632391809 1.6239700348320065 3.637873458199482 3.9947691393603253
12.15452060132718 1.8555699335274534 5.070808427537259 5.228142240262464
15.71888959953135 2.109280953832749 6.939617647952977 6.6699909977456215
19.674823088242235 2.3678137667314076 9.02827253877269 8.27873678273813
23.809631038936953 2.5853792448004094 11.285382791133658 9.938869003002884
27.679774858876126 2.6005403296756677 13.584011071612636 11.495223457587814
29.42285732175434 1.6654203707019264 15.204984836453054 12.552452114599365
27.67977485887343 2.600540329674939 13.584011071611448 11.495223457587036
23.809631038933208 2.5853792447995914 11.285382791131923 9.938869003001708
19.674823088235378 2.3678137667313264 9.028272538768794 8.27873678273526
15.718889599522324 2.1092809538303556 6.939617647949238 6.669990997742729
12.154520601317474 1.8555699335262938 5.070808427532561 5.228142240258618
9.256612632383938 1.6239700348302104 3.637873458196266 3.9947691393574623
6.93617166547471 1.4187520365304471 2.5220910513949013 2.995328577549359
5.159837793168883 1.2416723048964353 1.7167579277030707 2.2014075605693773
3.7623169692411538 1.0826673554289399 1.114818081523408 1.5648315322888056
2.641765592223405 0.9427200630709406 0.6684772983155128 1.0305682308369506
1.7480541844809703 0.8112652680788914 0.3567951394132901 0.5799937769887888
1.0101659519468305 0.6497882162338845 0.11091171389781018 0.24946602181513605
0.5611514573541402 0.4912647231613403 0.012867398464744162 0.05701933572805564
0.3364206483126573 0.3482846421672801 -0.003651308078876265 -0.008212685775746527
0.23133900035809316 0.2330584986099001 -0.0003381266871922114 -0.001381371564614751
0.16430183743526627 0.16428027279586183 1.742744531333036e-06 1.982189487309601e-05
0.12800338692795954 0.12800338692795954 0.0 0.0
0.13624556178395836 0.13625137219916017 -2.3757776660358785e-07 -5.5728374351892456e-06
0.16873557441869608 0.1856078983484517 -0.009690156423945152 -0.0071821675058105685
1.3341708153901093 0.9882557892046849 0.12125203670203794 0.2246629894833865
0.8626491185511554 0.739036430445055 0.033691142753179096 0.08992154535292157
0.160181753140696 0.17762600907774034 -0.005002367614623823 -0.012441888322420635
0.1558710530039028 0.15596646676927878 -7.942672845307354e-06 -8.747109253071001e-05
0.14053640361589387 0.14053640361589387 0.0 0.0
0.1568592485110074 0.15685022017366207 2.5498622371285784e-07 8.773351121642145e-06
0.19842990224915488 0.19770564686820283 0.00012349189967788657 0.000600763481274194
0.2614280332826694 0.27205547839389255 -0.002663291876506438 -0.007964153234716682
0.37069592184239725 0.37722228863830926 -0.002308814928606137 -0.004217551867305841
0.5840448620053854 0.4923061896238121 0.020917519096272662 0.07082115328530038
0.9784711754337759 0.6193844467727488 0.11548861551952418 0.24359811314150312
1.5381866480954527 0.7336764307194822 0.28060357116683615 0.5239066462091346
2.265395429707454 0.8543090732804991 0.5373982841254381 0.8736880723015163
3.165372813875416 0.981658076430562 0.8850648216541859 1.298649915790667
4.3025754938129905 1.1192600973989488 1.3553255035157952 1.8279898928982468
5.787859922998648 1.2793555512484074 2.01189946984071 2.496604901909531
7.709115949324478 1.4686690638645958 2.906273525968389 3.3341733594914915
10.11780728933461 1.698994383427555 4.064367984899739 4.354444921007313
12.934240547222855 1.9374746188331544 5.456725873161847 5.540040055227855
16.15371025694711 2.205271666857409 7.096864903064307 6.851573687025389
19.642966376512668 2.3807818387309028 9.015388493865634 8.246796043916127
21.428995451347127 1.3875628546203769 10.57746797056145 9.463964626165296
19.642966376511367 2.3807818387290327 9.01538849386595 8.246796043916389
16.15371025694727 2.2052716668596166 7.0968649030631665 6.851573687024489
12.934240547218314 1.9374746188332614 5.456725873159246 5.540040055225803
10.117807289328745 1.6989943834258112 4.064367984897534 4.354444921005403
7.709115949319659 1.468669063865046 2.9062735259656414 3.334173359488972
5.787859922995065 1.2793555512487345 2.011899469838747 2.4966049019075798
4.302575493809103 1.1192600973983198 1.3553255035142084 1.8279898928965774
3.1653728138714206 0.9816580764299915 0.8850648216526765 1.298649915788753
2.265395429703015 0.854309073279426 0.5373982841239354 0.8736880722996542
1.5381866480917727 0.7336764307187532 0.28060357116566714 0.5239066462073526
0.9784711754312393 0.6193844467720163 0.11548861551882154 0.24359811314040145
0.5840448620038485 0.4923061896231826 0.020917519095991106 0.07082115328467466
0.370695921841504 0.37722228863755536 -0.0023088149286474837 -0.004217551867403822
0.2614280332822461 0.2720554783933018 -0.002663291876465248 -0.007964153234590422
0.19842990224869983 0.19770564686773384 0.0001234918996772433 0.0006007634812887295
0.15685924851068678 0.1568502201733498 2.549862230170516e-07 8.7733511139407e-06
0.14053640361554626 0.14053640361554626 0.0 0.0
0.15587105300351345 0.1559664667688781 -7.9426728438462e-06 -8.747109252077777e-05
0.16018175314043837 0.17762600907714338 -0.005002367614549811 -0.0124418883221552
0.8626491185486894 0.7390364304437484 0.033691142752796104 0.08992154535214503
0.5726726188481224 0.5679435464712117 0.0014726125720601027 0.0032564598048506034
0.15947961143632788 0.1604387099923798 -0.00023445132870239307 -0.0007246472273495322
0.17103303430489467 0.171050561762835 -9.038683591991786e-07 -1.6623589581121507e-05
0.15577150377862506 0.15578964952174118 -1.1251006770666433e-06 -1.7020642439032754e-05
0.1589554008594507 0.1589192537029859 4.197779080709848e-06 3.194937738412248e-05
0.18229156081652859 0.18241539070085383 -1.1393550276711288e-05 -0.00011243633404861098
0.21833485370854683 0.22501320099971572 -0.0015246592118804982 -0.005153688079288451
0.26677701119006025 0.26345546551787447 0.00015349137916501304 0.003168054293020814
0.33491612139281784 0.3084652938980221 0.0059145228114136465 0.02053630468338216
0.45061005749832106 0.3795298843135667 0.017922749635006986 0.05315742354974738
0.6766599905332971 0.4705983589443742 0.0689554082780689 0.13710622331085376
0.982920461475198 0.5573196923109881 0.14057496618308857 0.2850258029811214
1.409928902335035 0.645798962834406 0.2706726664435556 0.4934572730570732
1.9813474712848833 0.7376860589436354 0.4708936506063792 0.7727677617348692
2.7362593303324276 0.8376888464037261 0.757876576937505 1.1406939069911963
3.752588269387465 0.9743526032452207 1.1635985487605358 1.6146371173817078
5.124799939232474 1.1622032872888908 1.7387057961968835 2.2238908557466996
6.951973351804744 1.3953128180339793 2.5575302763830314 2.9991302573877343
9.120388155579302 1.625353722254534 3.5742119107210706 3.9208225226036975
11.867462224906888 1.9946572758278784 4.842305283637527 5.030499665441483
14.150025930236009 1.1557074664843505 6.572544460781202 6.421774002970456
11.867462224910383 1.9946572758293253 4.842305283638662 5.0304996654423935
9.120388155578084 1.6253537222548766 3.5742119107202175 3.9208225226029914
6.951973351802506 1.395312818034961 2.557530276381372 2.999130257386175
5.124799939230059 1.1622032872895713 1.7387057961953083 2.2238908557451795
3.7525882693837476 0.9743526032443189 1.1635985487592089 1.6146371173802192
2.736259330330453 0.8376888464037249 0.7578765769366723 1.140693906990056
1.9813474712830033 0.7376860589425935 0.47089365060597194 0.7727677617344374
1.4099289023328725 0.6457989628338425 0.2706726664428761 0.49345727305615383
0.9829204614733232 0.5573196923106047 0.14057496618252355 0.285025802980195
0.6766599905316694 0.470598358944127 0.06895540827752727 0.13710622331001499
0.45061005749752625 0.37952988431304213 0.017922749634934447 0.05315742354954956
0.33491612139246435 0.308465293897715 0.0059145228113939635 0.020536304683355433
0.2667770111896412 0.2634554655175978 0.0001534913791257364 0.003168054292917657
0.21833485370812772 0.22501320099920127 -0.0015246592118576107 -0.005153688079215997
0.18229156081602618 0.18241539070033486 -1.139355027510884e-05 -0.00011243633403364012
0.1589554008590938 0.15891925370262672 4.197779080708162e-06 3.194937738642501e-05
0.15577150377820514 0.15578964952131252 -1.125100676383091e-06 -1.702064243101171e-05
0.1710330343045805 0.17105056176250688 -9.038683582517383e-07 -1.6623589568169255e-05
0.15947961143609415 0.1604387099921189 -0.0002344513286976589 -0.0007246472273271876
0.5726726188468173 0.5679435464700763 0.0014726125720183729 0.0032564598047227383
0.3858900559629624 0.38500103995767304 0.00010966299453629834 0.0007793530107530939
0.15700998414779177 0.15708048087687967 -1.0704559710366145e-05 -5.979216937757879e-05
0.18082685606621388 0.18096274682316157 -1.1143274495061744e-05 -0.00012474748245261706
0.1707467265884183 0.17079133145967731 -3.0090264717618683e-06 -4.159584478721377e-05
0.16802447643956206 0.16802402014403547 1.2746668436716983e-06 -8.183713171120655e-07
0.18154262649426464 0.18163510461666024 -9.193504522995779e-06 -8.328461787254977e-05
0.20596854743104492 0.2121963845868892 -0.001362855567330126 -0.004864981588514127
0.23444779762134765 0.22839773088611803 0.0005786722287577475 0.005471394506471817
0.2584888488530633 0.23368272322600733 0.006621989131462801 0.018184136495593153
0.28527077484402225 0.21838318103081783 0.017774583759416564 0.049113010053787924
0.3244629875172326 0.2080285027213752 0.03826353571630613 0.07817094907955129
0.3855580343451114 0.1863858767970711 0.06274574634494502 0.13642641120309495
0.4808502018989911 0.18663160064501705 0.10054507239645247 0.19367352885752176
0.625928890435321 0.2043245117179316 0.1543854916260357 0.2672188870913535
0.8521084762593751 0.2520455206530316 0.23622610652781353 0.3638368490785302
1.1731672535496869 0.28436506802573513 0.35340188165923103 0.5354003038647205
1.6373540150897883 0.28464231036050125 0.5564797332738919 0.7962319714553946
2.313854334069718 0.2874777396831166 0.8657369882098841 1.1606396061767175
3.4187784497475264 0.4274574440227519 1.3295183714837742 1.6618026342410006
5.554715998634947 1.0805224002383438 2.00773915703682 2.466454441359783
9.094600030911744 0.9417701012089061 3.8761771214748184 4.276652808228022
5.554715998636357 1.0805224002380247 2.007739157037774 2.4664544413605607
3.4187784497455636 0.42745744402166364 1.3295183714833307 1.6618026342405696
2.313854334066746 0.2874777396820273 0.8657369882089704 1.1606396061757485
1.6373540150871853 0.2846423103598871 0.5564797332729711 0.7962319714543262
1.173167253549702 0.28436506802668815 0.353401881658854 0.5354003038641597
0.8521084762581241 0.2520455206518265 0.2362261065276563 0.3638368490786419
0.6259288904350474 0.20432451171807062 0.15438549162587734 0.2672188870910992
0.4808502018987576 0.18663160064567974 0.10054507239609188 0.19367352885698588
0.38555803434397595 0.18638587679680463 0.06274574634465042 0.1364264112025214
0.3244629875163746 0.20802850272135492 0.03826353571598597 0.07817094907903353
0.285270774843739 0.21838318103064136 0.017774583759384174 0.049113010053713435
0.2584888488529751 0.2336827232260295 0.0066219891314274896 0.018184136495518165
0.23444779762102375 0.2283977308859177 0.0005786722287194988 0.005471394506386533
0.20596854743051193 0.21219638458626608 -0.0013628555673086695 -0.004864981588445505
0.18154262649370068 0.18163510461607607 -9.193504521159252e-06 -8.32846178541847e-05
0.16802447643924645 0.1680240201437029 1.2746668447383521e-06 -8.183713012188865e-07
0.1707467265880022 0.1707913314592413 -3.009026470089872e-06 -4.1595844769073125e-05
0.1808268560659638 0.18096274682289876 -1.1143274493439908e-05 -0.00012474748244152296
0.15700998414750134 0.1570804808766215 -1.0704559713444163e-05 -5.979216940669946e-05
0.38589005596212944 0.3850010399565962 0.00010966299455661441 0.000779353010976581
0.25868793515969873 0.25864687721164115 3.1449235594818967e-06 3.791302449810016e-05
0.1483400737854602 0.1483464198045447 -7.4288778474509e-07 -5.603131299709842e-06
0.18432488565083952 0.18429427398249526 2.893602342382726e-06 2.7718066001837145e-05
0.18339505984994284 0.18345087627612947 -4.477284794431172e-06 -5.13391413922115e-05
0.18180763553306792 0.18177932635173025 5.091385448662644e-06 2.321779588900512e-05
0.19501825583328697 0.19445005217825706 0.00010420418443569279 0.0004639994705942724
0.2244542152194341 0.23346845786442944 -0.001973228262082461 -0.007041014382912946
0.26837741146624233 0.26467462501222344 0.0003300613974428772 0.0033727250565759254
0.33482335430819726 0.3081723910917565 0.006001251780496906 0.020649711435943817
0.4498753328106666 0.3790317665191287 0.017828354650153276 0.05301521164138468
0.675644655980685 0.47076493603240827 0.06822238744715894 0.13665733250111806
0.985458942629952 0.5584608236163375 0.14253958601986216 0.2844585329937527
1.415124253182805 0.6474038751764779 0.27210555808320935 0.49561481992311757
1.9926086631241893 0.7400313857860095 0.47495978792117455 0.777617489417005
2.733325952404699 0.8353790023413261 0.7580760714522712 1.1398708786111014
3.633050656655846 0.9452259050370426 1.124009688590129 1.5638150630286738
4.5840504189511995 1.059169429690924 1.5268836613043073 1.9979973279559677
5.390533493721704 1.1456423770769724 1.9178230068555804 2.3270681097891526
5.694911738861674 1.1855484888543961 2.0772102728725166 2.432152977134761
4.631962703783421 0.5921103244037762 1.903215693391386 2.1366366859882575
9.188200851841088 1.7165090514207735 3.472661766384778 3.9990300340355387
4.6319627037867335 0.5921103244039727 1.9032156933930016 2.1366366859897576
5.694911738860849 1.1855484888537176 2.0772102728724553 2.4321529771346766
5.390533493717411 1.1456423770757982 1.9178230068539885 2.3270681097876253
4.5840504189470215 1.0591694296904204 1.5268836613025258 1.9979973279540753
3.6330506566504344 0.9452259050351338 1.1240096885884632 1.5638150630268375
2.733325952402327 0.8353790023418903 0.7580760714510524 1.1398708786093839
1.9926086631217292 0.7400313857860101 0.47495978792010274 0.7776174894156165
1.4151242531788846 0.6474038751753016 0.2721055580820784 0.4956148199215046
0.9854589426273505 0.5584608236157926 0.14253958601906358 0.28445853299249413
0.6756446559777358 0.47076493603140473 0.06822238744640366 0.13665733249992773
0.4498753328094963 0.37903176651827886 0.017828354650083873 0.05301521164113372
0.3348233543077144 0.30817239109140326 0.006001251780449615 0.020649711435861525
0.26837741146565575 0.26467462501181466 0.0003300613973942141 0.0033727250564468316
0.22445421521891074 0.23346845786380316 -0.0019732282620541913 -0.007041014382838185
0.1950182558328758 0.194450052177671 0.00010420418445603445 0.00046399947074876043
0.18180763553268414 0.18177932635136917 5.091385444792859e-06 2.3217795870137525e-05
0.18339505984953014 0.18345087627569578 -4.477284792821856e-06 -5.1339141372841755e-05
0.18432488565040422 0.1842942739820475 2.8936023426262372e-06 2.7718066014138557e-05
0.14834007378527644 0.14834641980436805 -7.428877850261805e-07 -5.603131306556757e-06
0.25868793515904187 0.2586468772109945 3.1449235585162974e-06 3.791302448882746e-05
0.16646335655556496 0.16646335655556496 0.0 0.0
0.13392800052807646 0.13392873065030786 -3.4333122731160884e-08 -6.957891086760974e-07
0.18108650741943735 0.18106056910679583 2.016410127340017e-06 2.39219025141398e-05
0.1924131823056525 0.19236764866723544 6.741537791692081e-06 3.8792100625377955e-05
0.1986821649799716 0.19889843426184983 -1.740550396965082e-05 -0.0001988637779085941
0.2219467375263698 0.22476256740663553 -0.0004804856439659589 -0.0023353442362998144
0.2712916342222125 0.273142763757487 -0.0010403000423443627 -0.0008108294929301799
0.3735320442316255 0.37872268410080795 -0.0018501368858105896 -0.003340502983371701
0.583499823430815 0.49179297520750276 0.02089881739590044 0.07080803082741195
0.9770639351638789 0.6191695289121503 0.11496460794479338 0.24292979830693504
1.5374267819964764 0.7335272566698796 0.2802903294615138 0.5236091958650828
2.2661869967201413 0.8543585710292949 0.5377214358830813 0.874106989807766
3.1694935514005844 0.9823106942391122 0.8867438147301059 1.3004390424313659
4.312758245573962 1.1205897469070891 1.3598370687381107 1.832331429928762
5.78914378227805 1.275945825339051 2.0149580256799795 2.4982399312590178
7.604814568788567 1.440273379774208 2.867886126039001 3.29665506297536
9.612839081522553 1.6003481866611822 3.846104067884627 4.166386826976746
11.45758455955864 1.7571877993743201 4.735552865590924 4.964843894593403
12.504843027907352 1.8093899151110018 5.289938357911774 5.405514754884579
11.619983240029665 1.8332448809341508 4.869508880482005 4.917229478613509
13.842180421470097 3.8510456321102002 4.881489433835253 5.109645355524638
11.61998324003118 1.8332448809332345 4.869508880483374 4.9172294786145745
12.504843027908104 1.8093899151119832 5.289938357911629 5.4055147548844875
11.457584559555723 1.757187799376044 4.735552865588363 4.964843894591317
9.612839081515185 1.6003481866601086 3.846104067881238 4.166386826973836
7.604814568783068 1.4402733797754852 2.8678861260354904 3.2966550629720923
5.789143782272169 1.2759458253382698 2.014958025677429 2.49823993125647
4.312758245568526 1.1205897469063586 1.359837068735888 1.832331429926278
3.169493551394788 0.9823106942386602 0.8867438147276443 1.3004390424284828
2.2661869967141977 0.8543585710283912 0.5377214358808617 0.8741069898049453
1.5374267819912808 0.7335272566693033 0.28029032945965604 0.523609195862321
0.9770639351605009 0.6191695289111786 0.11496460794386604 0.24292979830545675
0.5834998234287274 0.49179297520641857 0.02089881739557794 0.07080803082673076
0.373532044230649 0.37872268409996435 -0.0018501368858478248 -0.0033405029834675587
0.27129163422159513 0.27314276375666313 -0.0010403000423071184 -0.0008108294927609977
0.2219467375258843 0.22476256740620149 -0.00048048564396957775 -0.002335344236347532
0.19868216497957325 0.19889843426141024 -1.7405503964530745e-05 -0.00019886377787242432
0.19241318230526785 0.19236764866683134 6.74153779291067e-06 3.879210064361902e-05
0.18108650741909266 0.18106056910646157 2.0164101265430307e-06 2.3921902504595976e-05
0.13392800052786097 0.13392873065009164 -3.433312268844444e-08 -6.957891079894279e-07
0.1664633565551706 0.1664633565551706 0.0 0.0
0.10237122043884346 0.10237122043884346 0.0 0.0
0.11496064441751491 0.11496064441751491 0.0 0.0
0.17161894740892264 0.17159468483743096 1.7498561801295798e-06 2.2512715311568723e-05
0.19740256077052812 0.19747209155472553 -5.218320297586886e-06 -6.431246389986003e-05
0.21791712909629163 0.21824757710522497 -4.7286706967689754e-05 -0.00028316130196569375
0.2595965119338501 0.25924183197802414 -7.377805692336698e-05 0.00042845801274933896
0.35070103047770335 0.36732955120097976 -0.004300045501813225 -0.012328475221463148
0.5646499114168478 0.4922643347389605 0.013919169495082625 0.05846640718280453
1.0090349081585215 0.649700508558678 0.11049597359173693 0.24883842600810624
1.7468690454295634 0.8112897672188502 0.3565421192580426 0.579037158952671
2.6407355984537118 0.9424838238538188 0.6669914806334487 1.031260293966445
3.762677426383022 1.0824345285935866 1.115136483150845 1.5651064146385907
5.160784719013024 1.2417834719056657 1.7171903802133748 2.2018108668939838
6.940363842020256 1.4200127272683745 2.5236728949054386 2.9966782198464443
9.256028963150271 1.622040560452762 3.6387792359491824 3.9952091667483276
12.081534939799205 1.830585322766995 5.04498394728131 5.2059656697508965
15.360246334060442 2.029374479423466 6.783395406073739 6.547476448563237
18.414420012624916 2.154769822468773 8.427102684708196 7.832547505447946
20.17324895806363 2.132450798656331 9.452874285612632 8.587923873794663
18.7267381616475 1.9367098963704579 8.739594780627085 8.050433484649956
21.005932641765728 6.01906292297422 7.696512751175996 7.290356967615525
18.726738161650935 1.9367098963723854 8.739594780627966 8.050433484650581
20.173248958062167 2.132450798655804 9.452874285612083 8.58792387379428
18.414420012618155 2.1547698224683653 8.427102684704547 7.832547505445241
15.360246334049238 2.029374479422097 6.783395406068176 6.54747644855896
12.081534939790261 1.8305853227668145 5.044983947276524 5.205965669746923
9.25602896314098 1.6220405604519283 3.6387792359446753 3.995209166744378
6.940363842011794 1.4200127272681116 2.5236728949012184 2.9966782198424626
5.160784719004666 1.2417834719050886 1.7171903802095345 2.2018108668900416
3.7626774263745073 1.0824345285926213 1.1151364831472743 1.565106414634611
2.6407355984458354 0.9424838238528079 0.6669914806303762 1.0312602939626512
1.746869045423872 0.8112897672173723 0.3565421192562286 0.579037158950271
1.0090349081548462 0.6497005085578377 0.11049597359065012 0.24883842600635891
0.5646499114149333 0.4922643347379999 0.013919169494801858 0.058466407182131246
0.35070103047678736 0.3673295511999122 -0.004300045501768161 -0.012328475221356681
0.2595965119332605 0.25924183197719286 -7.377805689044954e-05 0.00042845801295803444
0.2179171290958524 0.21824757710481582 -4.728670697261296e-05 -0.00028316130199083797
0.1974025607701149 0.19747209155429216 -5.218320295818337e-06 -6.431246388149186e-05
0.17161894740864356 0.17159468483715914 1.749856179479478e-06 2.2512715304933934e-05
0.11496064441731109 0.11496064441731109 0.0 0.0
0.10237122043863257 0.10237122043863257 0.0 0.0
0.05973926448534216 0.05973926448534216 0.0 0.0
0.09384911513073338 0.09384911513073338 0.0 0.0
0.15714944326595742 0.1571390024405085 6.169848764971448e-07 9.823840572470336e-06
0.19879383363774172 0.19870131277892128 1.1433964402413846e-05 8.108689441796222e-05
0.23899847513062736 0.23933608441951687 -2.626445018447947e-05 -0.00031134483870507996
0.3091700667494367 0.3190051471615434 -0.001964723810714618 -0.00787035660139222
0.4727816311461241 0.4520820409123511 0.0024212471544219375 0.018278343079350987
0.859656006253995 0.6177030589168482 0.06906964438068777 0.1728833029564594
1.6035757251259857 0.8086442562147869 0.3015997383355525 0.4933317305756467
2.5557192014133343 0.9501056735962801 0.6169454112434518 0.9886681165736031
3.8322089292775994 1.1140113044281097 1.1348388966591585 1.5833587281903296
5.374934295062525 1.2819074867705031 1.8036650991066803 2.289361709185342
7.300385537274885 1.4733516255969359 2.6822063028082272 3.144827608869723
9.781396004304769 1.6962710535985717 3.8724970560820733 4.212627894624124
12.961529122758506 1.9475111923925617 5.460157699520713 5.553860230845236
16.997991275320434 2.218007038242888 7.600635448530392 7.179348788547152
21.41267752225645 2.4362776921546594 9.962321415956337 9.014078414145459
25.743150492879362 2.5006974249718823 12.499841446656813 10.742611621250663
28.188800203845858 2.3145620146944648 14.091246206132666 11.782991983018707
26.196281124399345 2.0068958904373635 13.079500533379875 11.109884700582114
28.79311630747653 8.109982875529216 10.973816586732646 9.709316845214666
26.196281124401246 2.0068958904376553 13.079500533380859 11.109884700582734
28.188800203840376 2.314562014693021 14.091246206130243 11.78299198301712
25.743150492870857 2.5006974249718263 12.499841446651782 10.742611621247251
21.412677522247307 2.4362776921567857 9.962321415949814 9.014078414140705
16.99799127530846 2.21800703824216 7.600635448524002 7.179348788542305
12.96152912274816 1.9475111923926416 5.4601576995150225 5.553860230840487
9.781396004294644 1.6962710535984695 3.872497056076732 4.212627894619443
7.300385537263131 1.4733516255961787 2.6822063028025616 3.1448276088643894
5.374934295051263 1.2819074867693812 1.8036650991017202 2.289361709180162
3.8322089292673964 1.1140113044275628 1.1348388966546883 1.5833587281851458
2.5557192014054997 0.9501056735948755 0.6169454112406444 0.9886681165699798
1.6035757251204577 0.8086442562135914 0.3015997383336782 0.4933317305731877
0.8596560062507692 0.6177030589159355 0.0690696443798426 0.17288330295499169
0.47278163114459165 0.4520820409112558 0.002421247154287284 0.0182783430790486
0.30917006674884495 0.31900514716086875 -0.001964723810686677 -0.007870356601337029
0.23899847513011707 0.23933608441894558 -2.626445017781491e-05 -0.0003113448386506865
0.19879383363739694 0.19870131277856717 1.143396440262814e-05 8.108689442716989e-05
0.15714944326565405 0.15713900244021006 6.169848761276928e-07 9.823840567913113e-06
0.09384911513059323 0.09384911513059323 0.0 0.0
0.05973926448523264 0.05973926448523264 0.0 0.0
0.03283108936769247 0.03283108936769247 0.0 0.0
0.07284453076042503 0.07284453076042503 0.0 0.0
0.13944811331418078 0.13944339962905217 2.7264122338958563e-07 4.441043905202767e-06
0.19774398320410969 0.1976974881879567 5.023327296910349e-06 4.1471688856069486e-05
0.26211321112559705 0.261315786522865 0.0001476217435676638 0.0006498028591643284
0.3753717981652329 0.38772278379356884 -0.003259464816050117 -0.009091520812285692
0.6501361168676811 0.5475180526469112 0.02560258628403981 0.07701547793673016
1.2709859939460761 0.753044403767752 0.18868429664066388 0.32925729353766
2.1904331885943145 0.9113626139433835 0.4760508355502497 0.8030197391006813
3.4897351258018103 1.0919074521055456 0.9845770084560209 1.4132506652402452
5.088384631147117 1.2711223633248427 1.6661683613214846 2.1510939065007895
7.071337945876946 1.4677910511045058 2.5670669825196355 3.0364799122528026
9.577465949436899 1.6975290099188651 3.7637439774811834 4.116192962036853
12.82605345024442 1.9671171991272502 5.395172180610895 5.463764070506277
16.94846589719102 2.2820922574702287 7.5187874120863905 7.147586227634402
22.044024660629983 2.607881957230209 10.247712155323017 9.188430548076763
27.96313247890454 2.8512715978976697 13.636483842795931 11.475377038210928
33.37029893349045 2.824417546831421 16.881463547153736 13.664417839505282
36.203281867607124 2.417600328932351 18.81675124233141 14.968930296343373
33.80956389687516 2.080487337786632 17.60929265190442 14.119783907184111
37.294915446966996 10.308077705157801 14.755871549584429 12.23096619222477
33.80956389687416 2.0804873377845885 17.60929265190503 14.119783907184528
36.203281867604915 2.4176003289360786 18.81675124232777 14.96893029634106
33.370298933478544 2.824417546830682 16.88146354714697 13.6644178395009
27.963132478889296 2.851271597894409 13.636483842788769 11.475377038206126
22.04402466061518 2.6078819572291785 10.247712155315009 9.188430548070995
16.94846589717449 2.282092257466911 7.518787412078902 7.147586227628675
12.826053450228999 1.9671171991251202 5.395172180603621 5.463764070500261
9.577465949423786 1.697529009918887 3.7637439774742485 4.116192962030649
7.071337945863868 1.467791051103611 2.5670669825134316 3.036479912246826
5.088384631135648 1.2711223633244548 1.6661683613161005 2.1510939064950927
3.4897351257924454 1.0919074521046144 0.9845770084521301 1.4132506652357009
2.190433188587485 0.9113626139419816 0.47605083554806027 0.8030197390974425
1.2709859939411805 0.7530444037666074 0.18868429663912206 0.3292572935354508
0.6501361168654389 0.5475180526459766 0.02560258628362809 0.07701547793583435
0.37537179816431654 0.3877227837923689 -0.0032594648159843653 -0.009091520812068063
0.2621132111250039 0.26131578652223764 0.00014762174356957802 0.0006498028591968249
0.19774398320379452 0.1976974881876411 5.0233272966949e-06 4.147168885674738e-05
0.13944811331391835 0.13944339962879165 2.726412232514537e-07 4.441043903424872e-06
0.07284453076027085 0.07284453076027085 0.0 0.0
0.032831089367654824 0.032831089367654824 0.0 0.0
0.01695052982719704 0.01695052982719704 0.0 0.0
0.053738385609514175 0.053738385609514175 0.0 0.0
0.12060197565528842 0.12060197565528842 0.0 0.0
0.19604782242354352 0.19598499275166026 5.622717784786087e-06 5.720695409850619e-05
0.2900803894794028 0.2929879833609986 -0.0004999738751880714 -0.002407620006407735
0.4637662260650046 0.4421802986952982 0.0029825058521906382 0.01860342151751572
0.9028039529230767 0.6596429538394932 0.08270326884589113 0.16045773023769241
1.6916736611638346 0.840656127389998 0.30160146300256113 0.5494160707712755
2.8865596338995956 1.0279972401494404 0.7376855604212642 1.120876833328891
4.446945892003997 1.218140473625264 1.3795967970805134 1.8492086212982215
6.408490182593193 1.4211783019115574 2.2541993855060434 2.7331124951755923
8.86814393291406 1.6507771512472718 3.416281280595059 3.801085501071731
12.01430505547094 1.923085054693575 4.979438190979293 5.111781809798072
15.958592770412999 2.243297822252468 6.968450501064269 6.74684444709626
21.096353256135586 2.6125901336516475 9.71433311543672 8.769430007047227
27.4239200065834 3.0084797240689647 13.210786334656705 11.204653947857736
34.479519729055625 3.277107577605057 17.262338584305226 13.940073567145342
41.017158763494386 3.130558029594415 21.353116776778904 16.533483957121078
44.45122750079635 2.496142152504928 23.87587863304314 18.079206715248283
41.67365102785202 2.131972507318427 22.38117996409096 17.160498556442644
46.287788693474425 12.621739304917785 18.751735704306743 14.914313684249889
41.67365102784677 2.131972507315233 22.38117996408968 17.160498556441855
44.45122750078701 2.4961421525032055 23.8758786330384 18.079206715245405
41.01715876348319 3.13055802959607 21.353116776770914 16.53348395711621
34.479519729037136 3.277107577602208 17.26233858429573 13.940073567139207
27.423920006565073 3.008479724067323 13.210786334646771 11.204653947850975
21.096353256118316 2.612590133651312 9.714333115426907 8.769430007040093
15.958592770397287 2.2432978222529836 6.968450501055162 6.746844447089142
12.01430505545374 1.9230850546916154 4.979438190971025 5.111781809791095
8.868143932897315 1.6507771512461038 3.416281280586914 3.801085501064299
6.4084901825782605 1.42117830190895 2.2541993854998754 2.7331124951694354
4.446945891992501 1.2181404736238477 1.3795967970757246 1.8492086212929262
2.886559633890984 1.0279972401478903 0.7376855604182572 1.1208768333248365
1.691673661157698 0.8406561273888715 0.30160146300049956 0.5494160707683265
0.9028039529197783 0.6596429538379485 0.08270326884522229 0.16045773023660745
0.4637662260636771 0.4421802986941417 0.0029825058521239407 0.018603421517411584
0.290080389478868 0.29298798336041526 -0.0004999738751794274 -0.0024076200063678117
0.1960478224232048 0.1959849927513276 5.6227177840943e-06 5.7206954093084954e-05
0.12060197565505583 0.12060197565505583 0.0 0.0
0.05373838560935485 0.05373838560935485 0.0 0.0
0.01695052982716183 0.01695052982716183 0.0 0.0
0.008347068691273074 0.008347068691273074 0.0 0.0
0.03781727311588421 0.03781727311588421 0.0 0.0
0.102755320900373 0.102755320900373 0.0 0.0
0.1963362934941554 0.1963173100383582 1.300615864217136e-06 1.768283993303967e-05
0.32649596680157456 0.3327407931583372 -0.0013194248077656528 -0.004925401548996942
0.5916837135180004 0.5318726356511473 0.01582959183589159 0.04398148603096172
1.188186818630312 0.7417179883714189 0.1482218610290107 0.29824696922988225
2.180728080124686 0.9306526830144028 0.46922218465499754 0.7808532124552854
3.598261616738619 1.1307375984303234 1.0176210917903419 1.4499029265179548
5.451547433885681 1.3388080679396779 1.817444674313991 2.2952946916320127
7.778111033238159 1.5661764387079862 2.884600786316042 3.32733380821413
10.74214169936948 1.83334204527992 4.325828238652785 4.5829714154367736
14.463431446217815 2.1499108889125758 6.181140345579796 6.13238021172544
19.351189206881475 2.526320765327213 8.772714221303762 8.052154220250511
25.411845138935462 2.953111978995584 12.040060712555993 10.418672447383875
32.752793049581996 3.3907085142931916 16.13397267808434 13.228111857204478
41.06457616225411 3.6916969940425277 21.03522338047786 16.337655787733713
48.71345223537453 3.4693295240293436 25.926849918821755 19.317272792523454
52.82312337612286 2.5895516915259527 29.052532159438513 21.1810395251584
49.95523619487217 2.125541403783408 27.55690931940624 20.27278547168253
56.17693771859285 15.016623321908938 23.386012389526417 17.77430200715748
49.95523619486865 2.125541403784997 27.556909319402994 20.27278547168067
52.823123376111916 2.589551691525908 29.052532159431617 21.181039525154407
48.71345223535518 3.4693295240262003 25.926849918811545 19.31727279251741
41.06457616223503 3.6916969940430326 21.035223380465762 16.337655787726227
32.75279304956189 3.390708514292256 16.13397267807273 13.228111857196899
25.41184513891549 2.9531119789954348 12.040060712544305 10.418672447375743
19.351189206860763 2.5263207653248925 8.772714221293207 8.052154220242661
14.463431446197173 2.149910888911031 6.181140345569171 6.132380211716978
10.74214169935167 1.8333420452805678 4.325828238642945 4.582971415428154
7.778111033221477 1.5661764387072035 2.884600786307872 3.3273338082064003
5.451547433872413 1.3388080679389007 1.8174446743078396 2.295294691625672
3.598261616728742 1.1307375984287162 1.0176210917865613 1.4499029265134626
2.1807280801175546 0.9306526830135688 0.469222184652583 0.7808532124514027
1.1881868186258908 0.7417179883699796 0.1482218610278444 0.29824696922806676
0.5916837135161441 0.5318726356500124 0.015829591835654643 0.043981486030476934
0.3264959668009351 0.33274079315760224 -0.0013194248077443966 -0.004925401548922769
0.1963362934937614 0.1963173100379698 1.3006158637357774e-06 1.768283992781072e-05
0.10275532090019031 0.10275532090019031 0.0 0.0
0.037817273115783916 0.037817273115783916 0.0 0.0
0.008347068691249794 0.008347068691249794 0.0 0.0
0.0040982512131164895 0.0040982512131164895 0.0 0.0
0.025755948068061387 0.025755948068061387 0.0 0.0
0.08817327050509818 0.08817327050509818 0.0 0.0
0.2021021456413452 0.2020883512479487 6.182315017970352e-07 1.3176161894686026e-05
0.37821041901931873 0.37670467096197907 -0.00025526729928803836 0.001761015356627768
0.7663493197848921 0.6178290539201995 0.04704703799794813 0.10147322786674395
1.5087426130152466 0.805339790354366 0.23928147275397124 0.46412134990690934
2.700380755662569 1.0157675872008785 0.6617105797190652 1.022902588742626
4.335035001890937 1.2265705523821469 1.321748885012326 1.7867155644964616
6.485413399075041 1.4534669207486102 2.281264187030187 2.7506822912962425
9.219882097218363 1.711530216848895 3.575863862510253 3.932488017859216
12.665254569338238 2.0153391692065292 5.268584954993627 5.381330445138082
17.15309545905417 2.3866072250965287 7.598376852938201 7.168111381019434
22.744838113528957 2.821625692097491 10.531660535630088 9.391551885801377
29.82806178049708 3.2935476260822987 14.444476943879106 12.090037210535673
38.255393407660335 3.7410249040003967 19.27799662516875 15.236371878491184
47.549256353932066 4.047399260132905 24.833297959323136 18.66855913447603
56.31784797862016 3.9029797278779546 30.440197186687552 21.974671064054665
61.34634898876704 2.75754033290424 34.40202281713683 24.18678583872595
58.731807372275476 1.9914173711106031 33.23114787383343 23.50924212733144
67.02397671250513 17.35554358715856 28.703924451972686 20.96450867337387
58.731807372272165 1.9914173711130592 33.23114787382983 23.509242127329276
61.346348988754634 2.7575403329051746 34.40202281712835 24.186785838721107
56.31784797860222 3.9029797278799396 30.440197186674876 21.974671064047406
47.54925635391012 4.0473992601331545 24.833297959309277 18.66855913446768
38.25539340763612 3.7410249039976873 19.277996625155605 15.236371878482828
29.828061780474457 3.293547626081841 14.444476943865808 12.090037210526807
22.74483811350557 2.821625692095851 10.531660535617409 9.391551885792321
17.153095459031057 2.3866072250961308 7.598376852925348 7.168111381009576
12.665254569316343 2.015339169205178 5.268584954982345 5.381330445128824
9.21988209720052 1.7115302168488764 3.5758638625009254 3.9324880178507153
6.485413399060369 1.4534669207478756 2.2812641870232238 2.750682291289267
4.335035001879234 1.2265705523803723 1.321748885007697 1.7867155644911659
2.7003807556542987 1.0157675871996434 0.661710579716039 1.0229025887386156
1.5087426130102108 0.8053397903532805 0.23928147275265726 0.464121349904273
0.7663493197822648 0.6178290539190509 0.047047037997441164 0.10147322786577287
0.37821041901842795 0.37670467096103044 -0.00025526729927845705 0.0017610153566759079
0.20210214564097365 0.20208835124757135 6.182315019591493e-07 1.3176161900394232e-05
0.08817327050492493 0.08817327050492493 0.0 0.0
0.025755948068010442 0.025755948068010442 0.0 0.0
0.004098251213097619 0.004098251213097619 0.0 0.0
0.0019458090425481468 0.0019458090425481468 0.0 0.0
0.017442436105419963 0.017442436105419963 0.0 0.0
0.07976757628259296 0.07976757628259296 0.0 0.0
0.21893077177684206 0.2189642852885722 -4.311290435166159e-06 -2.9202221294967908e-05
0.4610510955623016 0.447436513301809 0.003537886553202527 0.010076695707290048
0.9710078162813935 0.6871640141575915 0.08998084703891004 0.19386295508489226
1.8731790734357152 0.8804636151955632 0.36015151268800993 0.6325639455521421
3.2346189022892515 1.0944724721883192 0.8668289912801126 1.2733174388208186
5.106979308135918 1.3181158168924 1.65911580068575 2.129747690557768
7.548844208689595 1.5651216761973286 2.7700725053183497 3.2136500271739137
10.687197392656236 1.8537538832837603 4.283667392649611 4.549776116722866
14.736735715300298 2.204309866025959 6.340278381867593 6.1921474674067465
19.793768038377486 2.6275031246344533 8.934158878852616 8.23210603489043
26.33365088436699 3.1201795301515878 12.467763042777358 10.745708311438054
34.41016910182657 3.6427247364340336 16.992058513441062 13.775385851951476
43.832894883035365 4.08470673068857 22.500638376783474 17.247549775563325
53.91240424846286 4.298837552554861 28.69192077507988 20.92164592082812
63.502001699314924 4.240039066557331 34.84944411839617 24.412518514361395
69.98604303320955 3.358005000704703 39.598335587773725 27.029702444731118
68.0330434789561 1.6156703693790808 39.48481709068844 26.932556018888583
78.72353980728646 18.725224351658877 35.31932698674902 24.67898846887857
68.03304347894431 1.615670369374467 39.48481709068377 26.932556018886068
69.98604303319198 3.358005000703293 39.598335587763295 27.029702444725416
63.50200169929159 4.240039066557016 34.84944411838142 24.412518514353145
53.91240424843648 4.29883755255234 28.691920775064887 20.92164592081928
43.83289488300718 4.084706730685202 22.50063837676807 17.24754977555391
34.41016910179943 3.642724736431581 16.992058513426077 13.77538585194178
26.333650884340457 3.1201795301492545 12.467763042763025 10.745708311428176
19.79376803835177 2.6275031246333556 8.93415887883842 8.232106034879989
14.736735715276014 2.2043098660256626 6.3402783818542385 6.192147467396114
10.687197392635104 1.8537538832813933 4.283667392639503 4.549776116714212
7.548844208672645 1.56512167619577 2.7700725053104525 3.2136500271664232
5.106979308122896 1.318115816891385 1.6591158006799658 2.1297476905515444
3.234618902279561 1.0944724721868142 0.8668289912764825 1.273317438816265
1.8731790734297598 0.8804636151944982 0.3601515126861079 0.6325639455491531
0.9710078162783662 0.6871640141566414 0.08998084703813623 0.19386295508358856
0.4610510955610902 0.4474365133008086 0.0035378865531213205 0.010076695707160506
0.21893077177650472 0.2189642852882377 -4.311290436576947e-06 -2.9202221296446712e-05
0.07976757628247608 0.07976757628247608 0.0 0.0
0.01744243610538629 0.01744243610538629 0.0 0.0
0.001945809042536701 0.001945809042536701 0.0 0.0
0.0004892046601279476 0.0004892046601279476 0.0 0.0
0.012354020917450168 0.012354020917450168 0.0 0.0
0.08154432232906084 0.08154432232906084 0.0 0.0
0.2568175440481075 0.25679142166973506 1.681651953566925e-05 9.305858836825638e-06
0.5862942794164818 0.5403818380122968 0.014572337652929458 0.03134010375125554
1.2239452717608483 0.8041940508356268 0.14102019985109826 0.2787310210741232
2.27105122605811 1.0293250780884304 0.466749308484197 0.7749768394854831
3.818438735364951 1.3044577263791481 1.042525295028967 1.4714557139568367
5.933939390274327 1.6179644860301285 1.9167373239141237 2.399237580330076
8.74716978869015 2.0022044127898675 3.1698166346561423 3.575148741244137
12.406873668717704 2.4971323330634916 4.880732326751259 5.0290090089029515
17.05581060706764 3.13813508072136 7.09027249322762 6.827403033118662
23.061426219397294 3.937454918486903 10.069749435970676 9.054221864939713
30.67773964570216 4.899677224466395 13.98944103865241 11.788621382583353
39.96985442621701 5.919405337006772 18.99732185160298 15.053127237607255
50.5615922887647 6.763492568984243 25.052638223478567 18.745461496301893
61.42178405827905 7.120968119541615 31.687196217811668 22.613619720925797
71.03820619418472 6.788730867391383 38.06664259166406 26.182832735129313
78.22362046627423 6.252007955454963 43.06972716105929 28.90188534975998
75.71639581625604 1.6582987945771257 44.37634881125197 29.681748210426935
113.5875327278397 43.078078674285386 42.174850977187766 28.334603076366562
75.71639581624854 1.6582987945791796 44.37634881124579 29.681748210423557
78.22362046625473 6.252007955454643 43.06972716104677 28.90188534975331
71.0382061941606 6.788730867394435 38.06664259164668 26.182832735119487
61.42178405824237 7.120968119530218 31.68719621779554 22.613619720916613
50.56159228873254 6.763492568979993 25.052638223461134 18.745461496291405
39.96985442618478 5.919405337001769 18.99732185158637 15.053127237596618
30.67773964566959 4.899677224459977 13.989441038636777 11.788621382572856
23.06142621936587 3.9374549184815857 10.069749435955504 9.054221864928776
17.05581060704114 3.138135080721503 7.090272493212563 6.827403033107075
12.4068736686927 2.4971323330584605 4.880732326740382 5.029009008893858
8.74716978867108 2.0022044127878944 3.169816634647151 3.5751487412360365
5.933939390259926 1.6179644860293094 1.9167373239073862 2.3992375803232315
3.8184387353542872 1.3044577263781743 1.0425252950245234 1.47145571395159
2.271051226051236 1.0293250780874186 0.4667493084818102 0.7749768394820072
1.2239452717569193 0.8041940508340646 0.14102019985035286 0.27873102107250186
0.5862942794150142 0.5403818380113894 0.014572337652744025 0.031340103750880574
0.2568175440477071 0.2567914216693163 1.6816519538030242e-05 9.305858852758368e-06
0.0815443223289458 0.0815443223289458 0.0 0.0
0.012354020917440737 0.012354020917440737 0.0 0.0
0.0004892046601241398 0.0004892046601241398 0.0 0.0
CELL_DATA 800
SCALARS Stress float 6
LOOKUP_TABLE default
136.63865464050943 -498.527130188793 -185.26969768387173 -103.7508427414341 0.0 0.0
392.4183615706106 1.0939093717407307 122.34857381501324 63.399129973996594 0.0 0.0
370.5465182908016 1.2782986170911537 111.35125906746308 -7.023941620001776 0.0 0.0
432.9282818228084 -4.150222170412377 128.79661610523726 -11.86044876965408 0.0 0.0
502.58093611964483 -10.104831391462515 162.75266561675875 -10.753456829841504 0.0 0.0
568.5259437092222 0.6581279181984971 223.16427406415556 -9.0220780129144 0.0 0.0
631.4889473945766 10.129102453542277 282.92315703004 -9.004915461200271 0.0 0.0
693.9275795445293 28.100652754527157 340.1285921297998 -9.77504580496877 0.0 0.0
756.7281205837111 51.91184611127663 393.07037878653955 -10.671731279681564 0.0 0.0
820.259887575164 79.92087567019036 443.5421713439622 -11.250947285842287 0.0 0.0
884.3396691424496 110.1810393484222 492.7665316981992 -11.486421924940192 0.0 0.0
949.0368012483543 142.86344959206616 542.322667135446 -11.423276673920437 0.0 0.0
1014.9160540755452 176.3005943402064 592.341702039947 -11.292607597982464 0.0 0.0
1082.5131706849224 211.23158121732257 643.7534841999542 -11.161775523660165 0.0 0.0
1152.5444539447117 249.24223723721394 697.8377134791822 -10.963780174261993 0.0 0.0
1224.4732803367474 290.8118648540028 754.635258972909 -10.514104869770366 0.0 0.0
1295.7713419523868 334.88804393796664 812.3692005261964 -9.628671416175335 0.0 0.0
1362.1590033097427 378.6415074179169 867.4454581721795 -8.162228117400865 0.0 0.0
1418.8577014011514 418.62448168319025 915.7175249428684 -6.537530969369737 0.0 0.0
1471.8000850873518 462.60257824405835 963.7342658005399 -6.634946683794944 0.0 0.0
1471.8000850867406 462.60257824345024 963.7342658001073 6.63494668381039 0.0 0.0
1418.8577014005166 418.624481682573 915.7175249423939 6.537530969384714 0.0 0.0
1362.1590033092793 378.6415074174946 867.4454581717628 8.16222811743329 0.0 0.0
1295.7713419519614 334.8880439376004 812.3692005257643 9.628671416191981 0.0 0.0
1224.4732803369156 290.8118648542462 754.6352589729726 10.514104869775004 0.0 0.0
1152.5444539448736 249.2422372374671 697.83771347925 10.963780174259057 0.0 0.0
1082.513170685001 211.23158121750737 643.7534841999184 11.16177552368942 0.0 0.0
1014.9160540749908 176.30059433978033 592.3417020394667 11.292607598009369 0.0 0.0
949.0368012475749 142.86344959143162 542.3226671348344 11.423276673936337 0.0 0.0
884.3396691418241 110.18103934797185 492.7665316977007 11.486421924937769 0.0 0.0
820.2598875745068 79.92087566971648 443.5421713434506 11.25094728576944 0.0 0.0
756.72812058339 51.91184611113654 393.0703787862638 10.67173127961934 0.0 0.0
693.9275795440819 28.100652754291282 340.12859212942465 9.77504580491534 0.0 0.0
631.4889473943639 10.12910245357871 282.92315702979494 9.004915461308686 0.0 0.0
568.5259437090785 0.658127918324471 223.16427406395928 9.022078012917927 0.0 0.0
502.5809361192501 -10.10483139163998 162.75266561650545 10.753456829837738 0.0 0.0
432.9282818226181 -4.1502221703297515 128.7966161052221 11.860448769640097 0.0 0.0
370.5465182906074 1.2782986169495771 111.3512590673655 7.0239416199989115 0.0 0.0
392.4183615705391 1.0939093717401844 122.34857381496388 -63.39912997393386 0.0 0.0
136.6386546410703 -498.527130188251 -185.26969768333538 103.75084274108607 0.0 0.0
45.08936198533323 -526.7961561960215 -235.69734722197023 -142.9632823123121 0.0 0.0
234.69546477832216 10.265042830599848 73.4881522826766 15.494848413493816 0.0 0.0
326.4156864567381 17.85121630483419 103.27958070214376 -10.157967774513903 0.0 0.0
389.1595636947227 -2.08830940542033 116.015751838337 -31.366040992795142 0.0 0.0
471.61403070907454 -11.758010438740982 144.16763361534322 -30.98379315745627 0.0 0.0
542.3093158136256 -1.3606506627839448 201.23985621558163 -27.192753526612073 0.0 0.0
610.1271281209539 7.8170729334014055 263.24585951267 -27.472085998829208 0.0 0.0
673.4902995547532 24.486094091495225 322.4371860507674 -28.55559266649282 0.0 0.0
734.9684011713375 46.41093346690179 375.9470283472818 -29.776070519114743 0.0 0.0
795.9426422169901 72.01578884499739 425.39542725732616 -30.387038032379767 0.0 0.0
856.7396132182218 99.64290771392254 472.53485718242894 -30.257816807462497 0.0 0.0
917.7513874526453 128.03561616517965 518.5698158391565 -29.625590278829126 0.0 0.0
979.052258292239 157.781916694512 564.6745299090875 -28.853569746923007 0.0 0.0
1042.1426420923108 188.88635614767952 612.0316402853907 -28.208074555111594 0.0 0.0
1107.471832985911 222.51342243908954 661.6480589661983 -27.512985380562217 0.0 0.0
1174.341697450624 259.29747306881706 713.569211352981 -26.304562582931677 0.0 0.0
1240.6567594088228 298.44981101243485 766.3713626978235 -24.191644398591354 0.0 0.0
1303.1892992427302 338.1687747332642 817.5115516395915 -21.008675364943098 0.0 0.0
1360.593190771459 378.6966409292644 866.3352484375629 -17.22458238976433 0.0 0.0
1400.142447818671 408.7288219742688 900.942105064463 -11.821534027379377 0.0 0.0
1400.1424478185368 408.72882197414145 900.9421050643322 11.821534027387614 0.0 0.0
1360.593190771171 378.69664092899905 866.335248437318 17.224582389826413 0.0 0.0
1303.1892992420942 338.1687747326681 817.5115516391035 21.008675364980455 0.0 0.0
1240.6567594082567 298.4498110119198 766.3713626973898 24.191644398641163 0.0 0.0
1174.3416974498325 259.2974730680885 713.5692113523594 26.304562582960408 0.0 0.0
1107.4718329855427 222.5134224388046 661.6480589658388 27.512985380597108 0.0 0.0
1042.1426420921264 188.88635614760796 612.0316402851756 28.20807455517442 0.0 0.0
979.052258292228 157.78191669463052 564.674529909016 28.853569746933452 0.0 0.0
917.7513874523637 128.03561616504703 518.5698158389232 29.625590278798164 0.0 0.0
856.7396132181271 99.6429077140073 472.5348571823367 30.257816807445504 0.0 0.0
795.9426422164772 72.01578884465908 425.39542725691473 30.387038032369198 0.0 0.0
734.9684011709679 46.410933466727094 375.94702834696045 29.776070519114505 0.0 0.0
673.4902995541236 24.48609409105169 322.43718605025197 28.555592666381777 0.0 0.0
610.1271281204621 7.817072933145898 263.2458595122394 27.47208599886483 0.0 0.0
542.3093158133188 -1.3606506628035966 201.2398562153149 27.192753526574577 0.0 0.0
471.61403070886433 -11.758010438626876 144.16763361524502 30.98379315734085 0.0 0.0
389.1595636946035 -2.088309405243594 116.01575183836252 31.366040992715448 0.0 0.0
326.41568645668474 17.85121630479447 103.27958070211625 10.157967774498744 0.0 0.0
234.69546477846146 10.265042830796794 73.48815228277746 -15.494848413564275 0.0 0.0
45.0893619856778 -526.7961561956262 -235.69734722156682 142.96328231207468 0.0 0.0
4.013489222484878 -524.2875317700041 -244.22189961144608 -156.73974896171532 0.0 0.0
137.4074799496244 2.685859365031582 42.0280017943968 -36.20340121290652 0.0 0.0
265.85064145342653 24.985966779567242 87.25098246989813 -29.130526358780354 0.0 0.0
344.2227428557698 2.502359128578577 104.00428460798827 -49.29435405563449 0.0 0.0
429.8179123440525 -8.577125479531377 128.02350304475655 -53.0018795410767 0.0 0.0
513.9544372860711 -6.894548652789766 175.97190366910405 -48.08627900192348 0.0 0.0
584.144318606237 6.575460665748654 240.66357978236613 -46.225074274040004 0.0 0.0
648.3452564017072 20.748587945181306 300.9410729621501 -47.32638458725719 0.0 0.0
709.4425249971899 40.90311454105748 355.7821192894947 -48.55530201229368 0.0 0.0
768.1617260641541 63.96958669905371 404.70774563941 -48.994040273358394 0.0 0.0
825.7058243105316 88.3888719302077 449.7761565490103 -48.489147616388486 0.0 0.0
882.521277767521 113.525453832794 492.7456614159401 -47.264685389435606 0.0 0.0
940.0999025685561 138.97650827720196 535.179261609836 -46.018622381336655 0.0 0.0
998.7149456244153 166.29139473234136 578.5863345289766 -44.90519101696613 0.0 0.0
1059.0587068268592 195.4377005247465 623.5611660186876 -43.75410088988339 0.0 0.0
1120.7377473165438 227.10693452635587 670.3832412268775 -41.92474151437488 0.0 0.0
1182.0752436518615 261.13584453130875 718.1528372228966 -38.85363707505881 0.0 0.0
1241.7571871831437 297.67285724978836 766.2734555473685 -34.23796125775568 0.0 0.0
1294.8203047904021 333.23368993738023 810.503283356554 -27.5679381798934 0.0 0.0
1329.8387097730201 357.78757989603116 840.172144937152 -16.62913122550423 0.0 0.0
1329.8387097728332 357.7875798958503 840.1721449370177 16.62913122550825 0.0 0.0
1294.8203047905015 333.2336899375085 810.5032833565907 27.567938179964123 0.0 0.0
1241.757187182942 297.6728572496376 766.2734555471637 34.23796125785222 0.0 0.0
1182.0752436514083 261.13584453091664 718.1528372224558 38.85363707512977 0.0 0.0
1120.7377473161625 227.10693452603306 670.3832412265032 41.92474151434844 0.0 0.0
1059.0587068265852 195.4377005245576 623.5611660184233 43.7541008899279 0.0 0.0
998.7149456243 166.29139473234653 578.5863345288051 44.905191017047855 0.0 0.0
940.0999025678364 138.97650827659874 535.1792616092158 46.018622381363926 0.0 0.0
882.5212777668597 113.52545383227533 492.74566141533563 47.2646853894344 0.0 0.0
825.7058243104773 88.38887193033452 449.77615654886193 48.48914761637003 0.0 0.0
768.1617260637764 63.969586698851096 404.70774563908844 48.994040273325034 0.0 0.0
709.4425249968668 40.90311454093448 355.78211928920445 48.55530201226439 0.0 0.0
648.3452564013672 20.748587945078278 300.9410729618134 47.326384587250644 0.0 0.0
584.144318605973 6.575460665757486 240.6635797820885 46.22507427403502 0.0 0.0
513.9544372854918 -6.894548653135544 175.97190366870197 48.08627900188873 0.0 0.0
429.81791234372093 -8.577125479519609 128.02350304464605 53.001879540990274 0.0 0.0
344.2227428556512 2.5023591286964795 104.0042846079907 49.294354055576655 0.0 0.0
265.85064145332706 24.985966779359877 87.25098246980605 29.130526358701356 0.0 0.0
137.4074799497596 2.685859365220662 42.02800179449407 36.20340121273145 0.0 0.0
4.013489222702233 -524.2875317696629 -244.22189961109714 156.73974896157205 0.0 0.0
-9.689199600643406 -505.14649738364807 -230.16655269588568 -159.57496406682776 0.0 0.0
80.76570720829993 -9.600469162003957 21.34957141388879 -80.01485494711315 0.0 0.0
207.3722238758824 26.09710850577528 70.0407997144973 -55.06220145992028 0.0 0.0
295.4538089099047 6.449952555858025 90.56574032801504 -68.30909409004666 0.0 0.0
379.3364544824706 -5.069566894421852 112.45229738107454 -75.71186637162153 0.0 0.0
471.4418853692067 -9.287239814438744 150.80853863934436 -71.31357261422934 0.0 0.0
550.2861576661825 3.1867716043973626 212.57912654462274 -66.00755944180568 0.0 0.0
618.1745721676624 17.66479755425212 275.702294695707 -66.36495023823652 0.0 0.0
679.0285662865249 35.18060475352563 331.5081969766321 -67.03980907972361 0.0 0.0
735.87749758728 55.56866046663026 380.43384973754013 -67.1274850246234 0.0 0.0
790.4681854469245 76.94015336627905 424.1062717916813 -66.19692685377721 0.0 0.0
843.9606608108694 98.60552174338284 464.6375707675945 -64.45899117772396 0.0 0.0
897.0607398349098 120.34420885214755 503.4907563134435 -62.73899618929656 0.0 0.0
951.7700846074697 143.55264322075573 543.1723791776215 -61.30516083367454 0.0 0.0
1007.4139182220022 168.02157450671226 583.6105084766943 -59.74475702491653 0.0 0.0
1063.2421913888152 194.51021928985864 624.9781875284697 -57.387244077857645 0.0 0.0
1119.8699671705817 223.5354893612756 667.910799656242 -53.672434746255156 0.0 0.0
1175.4140228750348 255.19340785849423 711.5524050936989 -47.69964920176979 0.0 0.0
1224.8385993666877 285.8760539179858 751.5763411421513 -38.00506529320829 0.0 0.0
1258.0587643935114 307.0320901681978 778.684713098789 -21.75277749629666 0.0 0.0
1258.0587643932654 307.03209016795995 778.6847130986029 21.75277749640108 0.0 0.0
1224.8385993664142 285.8760539177558 751.5763411419251 38.00506529333997 0.0 0.0
1175.4140228752337 255.19340785876625 711.5524050937973 47.6996492019248 0.0 0.0
1119.8699671704908 223.53548936125145 667.9107996561345 53.672434746338325 0.0 0.0
1063.242191388458 194.51021928956797 624.9781875281273 57.387244077871244 0.0 0.0
1007.4139182217165 168.02157450651833 583.610508476418 59.74475702495652 0.0 0.0
951.7700846072917 143.5526432206762 543.1723791774516 61.30516083369119 0.0 0.0
897.0607398349227 120.34420885229738 503.4907563134118 62.73899618934334 0.0 0.0
843.9606608108423 98.60552174352266 464.63757076753427 64.45899117777316 0.0 0.0
790.4681854469646 76.9401533664932 424.10627179165306 66.19692685374518 0.0 0.0
735.8774975871601 55.568660466687966 380.4338497373829 67.12748502455298 0.0 0.0
679.0285662861708 35.180604753369295 331.50819697630095 67.03980907970036 0.0 0.0
618.1745721672654 17.664797554116106 275.7022946953634 66.36495023827895 0.0 0.0
550.2861576658471 3.1867716043508914 212.5791265443175 66.00755944177227 0.0 0.0
471.44188536873 -9.287239814616445 150.80853863906202 71.3135726141511 0.0 0.0
379.3364544820924 -5.069566894560147 112.4522973809284 75.71186637156443 0.0 0.0
295.453808909705 6.449952555861009 90.56574032795683 68.30909408995562 0.0 0.0
207.3722238759039 26.097108505784497 70.04079971450652 55.062201459760146 0.0 0.0
80.76570720844164 -9.600469161726666 21.34957141401449 80.01485494688896 0.0 0.0
-9.689199600503244 -505.14649738328825 -230.16655269555602 159.5749640667351 0.0 0.0
-10.519217784129836 -476.4130757723176 -204.779706746984 -158.18098485008608 0.0 0.0
46.39441705644048 -21.321913565661582 7.521751047233668 -113.78744771714521 0.0 0.0
155.85375754735935 23.47404667531353 53.79834126680187 -81.98532576486616 0.0 0.0
244.20638440231446 9.633999037013687 76.15211503179843 -88.25036132459971 0.0 0.0
324.40068932700626 -1.3391901471117769 96.87192413378556 -96.99209536288916 0.0 0.0
417.83513754675346 -9.051662589657662 127.13819182602751 -96.49399488730145 0.0 0.0
508.2422957979494 -1.5879086017137016 180.74410511775784 -88.83910368822612 0.0 0.0
581.4466897300879 14.279161832347032 245.2332582713029 -85.44584360099076 0.0 0.0
642.5932448359071 29.46897664895593 302.2224240567375 -85.44397961718131 0.0 0.0
698.3138871080845 46.907261348753124 351.69349887615954 -84.8936090657361 0.0 0.0
750.4898677422611 65.17965549269066 394.68403676332446 -83.4779948876996 0.0 0.0
800.4616618520477 83.36267719373181 433.1270178006518 -81.21605949932932 0.0 0.0
850.0701126502926 101.59459456499312 469.35168317460045 -79.15635657510572 0.0 0.0
899.8696494938974 120.77151233002965 505.02048209707857 -77.348421678744 0.0 0.0
950.6372902348656 140.6669520806211 540.9601030705476 -75.46935311989014 0.0 0.0
1002.094446481863 161.9145978575516 577.6424530038942 -72.82185685343897 0.0 0.0
1052.9394363134322 185.3020655131984 614.9104713318396 -68.59411801962706 0.0 0.0
1103.5266476370632 211.15561806546197 653.2063139932716 -61.436427536209294 0.0 0.0
1149.8523933123065 236.82662058780647 689.2307010581869 -48.9288871122512 0.0 0.0
1182.9254310633917 255.39325716232088 715.004114180442 -27.582522682304763 0.0 0.0
1182.9254310633262 255.39325716227546 715.0041141803954 27.582522682423456 0.0 0.0
1149.8523933123788 236.82662058793144 689.2307010582663 48.9288871123923 0.0 0.0
1103.526647637032 211.15561806549675 653.2063139932659 61.43642753634569 0.0 0.0
1052.9394363132494 185.30206551309746 614.9104713316815 68.59411801974221 0.0 0.0
1002.0944464818267 161.91459785759088 577.6424530038422 72.8218568534621 0.0 0.0
950.637290234715 140.66695208056746 540.9601030703933 75.4693531199452 0.0 0.0
899.8696494935466 120.77151232979483 505.020482096779 77.34842167879944 0.0 0.0
850.0701126500323 101.59459456486502 469.3516831744147 79.156356575149 0.0 0.0
800.4616618518011 83.36267719364767 433.12701780042414 81.2160594993805 0.0 0.0
750.4898677412748 65.17965549178268 394.68403676259317 83.47799488757018 0.0 0.0
698.3138871076086 46.907261348438674 351.69349887575544 84.893609065693 0.0 0.0
642.5932448356532 29.468976648924208 302.2224240564791 85.44397961715788 0.0 0.0
581.4466897297841 14.279161832312859 245.23325827099904 85.44584360095263 0.0 0.0
508.24229579773146 -1.5879086015043065 180.74410511758632 88.8391036883261 0.0 0.0
417.8351375465199 -9.051662589425524 127.13819182597354 96.49399488724006 0.0 0.0
324.40068932674717 -1.3391901470562715 96.87192413373226 96.99209536279344 0.0 0.0
244.20638440216715 9.633999037011563 76.15211503175361 88.25036132447373 0.0 0.0
155.85375754740843 23.47404667545657 53.79834126685951 81.98532576471457 0.0 0.0
46.394417056547766 -21.32191356541125 7.521751047340953 113.78744771694879 0.0 0.0
-10.519217784039178 -476.41307577199984 -204.7797067466845 158.18098484998274 0.0 0.0
-5.911964253369746 -441.46811047124055 -174.63350054581565 -155.13309076579839 0.0 0.0
23.38199490214351 -31.18775350060976 -2.3417275795398735 -138.48286461986035 0.0 0.0
111.14398684911947 19.045705266652877 39.0569076347317 -106.61155923375763 0.0 0.0
192.68251982973064 12.322186572499923 61.501411920669156 -107.69554102702826 0.0 0.0
266.65465329464524 0.6878544364638073 80.16019414198823 -117.0003289614127 0.0 0.0
349.09461466031786 -6.6856462796950975 104.36139870260465 -120.53308340222367 0.0 0.0
446.76342902545326 -4.05692991851673 147.51785849658327 -114.74624831497336 0.0 0.0
531.5016716274961 8.720189395549312 207.15993720033947 -106.86582514679009 0.0 0.0
598.4068628695209 23.549501796728908 266.49220279696533 -103.9974132298293 0.0 0.0
653.8449705320965 38.13616423334581 316.8957197902735 -102.45129981967595 0.0 0.0
703.7688118502192 52.941732967364146 359.6125988707057 -100.3900407503979 0.0 0.0
751.0319894360696 67.86590095365493 397.11735789079125 -97.68667100630837 0.0 0.0
796.9375234127046 82.79371904343357 431.24127244605614 -95.2247164324781 0.0 0.0
842.731894318134 97.94038611750806 463.7488532421306 -93.20248987233008 0.0 0.0
888.7844186559994 113.24361314660814 495.47370871676037 -91.09112426663856 0.0 0.0
934.4218810226947 129.7221185150178 527.0545946530725 -88.09166568189903 0.0 0.0
980.2303994419514 146.9463938298006 558.8244654211875 -83.61776813551016 0.0 0.0
1025.2573850141532 165.7104863857248 590.8633898289111 -75.57386801798151 0.0 0.0
1068.1063877889942 185.7947610068306 622.4227202852262 -60.66231782867059 0.0 0.0
1102.3719478172711 202.02155101692057 647.6663749409296 -34.537264801383195 0.0 0.0
1102.3719478174653 202.02155101715607 647.6663749411003 34.53726480152946 0.0 0.0
1068.1063877889446 185.79476100683772 622.4227202852069 60.66231782883753 0.0 0.0
1025.2573850140745 165.71048638574996 590.8633898288233 75.57386801819568 0.0 0.0
980.230399441386 146.94639382934315 558.8244654207305 83.61776813567104 0.0 0.0
934.4218810222827 129.7221185146825 527.0545946527072 88.09166568194652 0.0 0.0
888.7844186559975 113.24361314672413 495.4737087166778 91.09112426669776 0.0 0.0
842.7318943181772 97.94038611766761 463.74885324210237 93.20248987237365 0.0 0.0
796.9375234125903 82.79371904345851 431.2412724459195 95.22471643253135 0.0 0.0
751.0319894353713 67.8659009530789 397.1173578902747 97.68667100628252 0.0 0.0
703.7688118498352 52.94173296714223 359.61259887035067 100.39004075039509 0.0 0.0
653.8449705318626 38.13616423333107 316.8957197900228 102.45129981969214 0.0 0.0
598.406862868766 23.54950179613277 266.49220279639417 103.997413229769 0.0 0.0
531.5016716270011 8.720189395314705 207.15993719994123 106.86582514676496 0.0 0.0
446.7634290249706 -4.056929918618433 147.5178584963107 114.74624831498488 0.0 0.0
349.0946146598852 -6.685646279867589 104.36139870241527 120.53308340200223 0.0 0.0
266.65465329439445 0.687854436363593 80.16019414188474 117.00032896130219 0.0 0.0
192.68251982955823 12.322186572389434 61.50141192058429 107.69554102688735 0.0 0.0
111.14398684909173 19.045705266701987 39.05690763473811 106.6115592335783 0.0 0.0
23.381994902158183 -31.187753500472315 -2.341727579494237 138.48286461964685 0.0 0.0
-5.91196425330687 -441.4681104709173 -174.633500545543 155.13309076570496 0.0 0.0
-0.32849156864587314 -401.35380184508585 -143.41814599135313 -151.09746269294791 0.0 0.0
5.35948175858754 -40.33143075508066 -10.491584698947936 -155.77845853501935 0.0 0.0
71.75829794594785 14.484439646967033 25.87282127787446 -127.44136188915063 0.0 0.0
142.19592038609437 14.341753468436377 46.961302156359224 -125.56870498872662 0.0 0.0
206.4744872998761 2.6002237956898924 62.7116320230191 -134.7605975786699 0.0 0.0
277.7775194803309 -4.16618763191363 82.29568635837197 -142.37223161269657 0.0 0.0
367.98704153237964 -3.9635812391713845 114.60054464098053 -140.84599167535038 0.0 0.0
461.4146075878821 3.683540379420984 163.9167889463862 -131.88815392961283 0.0 0.0
538.5526367084811 16.21001114459694 220.88218027514964 -124.1632089038714 0.0 0.0
598.7253566895895 29.20393887830886 273.3140961746353 -120.15130879503849 0.0 0.0
647.4747173175116 40.335338338396156 316.1637314635503 -117.18070813114126 0.0 0.0
692.6818292926915 52.100435087280005 353.75276929414207 -113.95592950992722 0.0 0.0
735.4622164178875 63.606812558170866 386.85411137807 -111.1631944547475 0.0 0.0
777.2026798279115 75.26190745180284 417.21297252595895 -108.86886726980306 0.0 0.0
818.0217672225311 85.99585561256437 444.99886260561306 -106.59827302681781 0.0 0.0
859.3538551970771 97.61140415861641 472.4669314737035 -103.5039217578436 0.0 0.0
899.2908472877534 109.00080866482281 498.59772921801664 -98.60790237763499 0.0 0.0
937.652272794177 119.80333495460533 523.4766625405249 -90.02873381639094 0.0 0.0
976.819051765492 132.12754619917158 549.42760643218 -73.61065668824283 0.0 0.0
1013.8445911758483 145.81996565461222 574.8596067714186 -43.26689724170727 0.0 0.0
1013.8445911761227 145.81996565493108 574.8596067716082 43.26689724183972 0.0 0.0
976.8190517659285 132.12754619971165 549.4276064324868 73.61065668847948 0.0 0.0
937.6522727937618 119.80333495427479 523.4766625402326 90.02873381657099 0.0 0.0
899.290847287658 109.00080866485203 498.5977292179413 98.60790237779037 0.0 0.0
859.353855197154 97.6114041587826 472.4669314737326 103.50392175790208 0.0 0.0
818.0217672224398 85.995855612573 444.99886260556565 106.59827302683294 0.0 0.0
777.2026798276213 75.26190745163414 417.2129725257476 108.86886726989064 0.0 0.0
735.462216417634 63.60681255803382 386.8541113778357 111.16319445478608 0.0 0.0
692.681829292665 52.100435087442854 353.7527692940424 113.95592950998243 0.0 0.0
647.4747173176099 40.33533833872294 316.1637314635617 117.180708131145 0.0 0.0
598.7253566892243 29.20393887804106 273.3140961742861 120.15130879488882 0.0 0.0
538.5526367081659 16.210011144538104 220.88218027486093 124.16320890384236 0.0 0.0
461.4146075873859 3.6835403792885657 163.91678894606463 131.88815392965225 0.0 0.0
367.9870415319464 -3.963581239185741 114.60054464080352 140.84599167531115 0.0 0.0
277.7775194800111 -4.166187632076684 82.2956863582268 142.37223161250677 0.0 0.0
206.47448729974803 2.6002237958020054 62.711632023021195 134.76059757851598 0.0 0.0
142.1959203859564 14.341753468438245 46.961302156318396 125.56870498857717 0.0 0.0
71.75829794591343 14.484439646982779 25.87282127786886 127.44136188898196 0.0 0.0
5.359481758522687 -40.3314307550505 -10.491584698958345 155.7784585348507 0.0 0.0
-0.32849156871486684 -401.35380184482835 -143.41814599118035 151.09746269286626 0.0 0.0
1.2251218856851658 -357.8088813891803 -116.3566957248857 -146.4768300902727 0.0 0.0
-11.261554042547647 -48.57839622821598 -17.951968588607556 -166.3058805061672 0.0 0.0
36.44099336236515 10.71226499636145 14.145977507617978 -144.3101720820965 0.0 0.0
93.18083828068323 15.534553574197698 32.61461755646428 -140.86843664031915 0.0 0.0
145.19577097649014 5.444823197554082 45.18545909973312 -149.36860315040386 0.0 0.0
199.8104177527643 -2.3997421474188605 59.323967660658994 -160.1829327318231 0.0 0.0
270.48236345714906 -2.5123102375976147 82.21436848802696 -164.33030217647394 0.0 0.0
363.86922042048934 1.6743787425898198 118.45964921162017 -159.15043187935942 0.0 0.0
451.89761834485745 8.227097157487263 164.94789337183946 -148.57845996550344 0.0 0.0
520.8349497654658 19.313361207528942 215.4720227007657 -139.2495931844436 0.0 0.0
574.602399141023 27.359043822325567 259.1950183716887 -134.77219794916286 0.0 0.0
618.221559525854 35.6288214952434 296.8476065075106 -130.3473867073828 0.0 0.0
658.8068439640979 44.34700387310572 330.54261876629096 -127.13877587296956 0.0 0.0
697.1799105411094 52.32933913659801 360.25450379193524 -124.58000346455704 0.0 0.0
734.1729467906887 59.356765146581445 386.4937785206531 -122.20446883896584 0.0 0.0
769.7522991460613 65.48044370440233 409.6685494698131 -119.03738372097745 0.0 0.0
805.5975082320567 71.55187479968254 431.71955673657635 -113.86957769719578 0.0 0.0
838.0159151501006 74.67321753272594 450.24419551433135 -104.57010932720618 0.0 0.0
869.4876881413238 75.73198557731169 467.03003508298207 -87.69812267785547 0.0 0.0
909.5063404806157 84.83279578474499 491.7657068929244 -54.627150842737876 0.0 0.0
909.5063404804637 84.83279578462074 491.7657068928728 54.627150842933396 0.0 0.0
869.4876881412796 75.73198557741767 467.03003508300435 87.6981226782014 0.0 0.0
838.0159151496721 74.67321753242643 450.24419551400797 104.57010932744278 0.0 0.0
805.5975082314138 71.55187479913498 431.7195567360803 113.86957769734573 0.0 0.0
769.7522991455724 65.48044370401166 409.66854946942385 119.03738372105363 0.0 0.0
734.1729467902805 59.35676514626243 386.493778520347 122.20446883898008 0.0 0.0
697.1799105409654 52.329339136543034 360.25450379179904 124.58000346460327 0.0 0.0
658.8068439639071 44.34700387310995 330.5426187661556 127.13877587310074 0.0 0.0
618.2215595255686 35.62882149513639 296.8476065072921 130.34738670741163 0.0 0.0
574.6023991405418 27.359043821930015 259.1950183712646 134.77219794910457 0.0 0.0
520.8349497651926 19.313361207531532 215.4720227005298 139.2495931844217 0.0 0.0
451.89761834451537 8.227097157442945 164.9478933716017 148.5784599654976 0.0 0.0
363.8692204200737 1.674378742662018 118.459649211464 159.15043187939017 0.0 0.0
270.4823634568482 -2.51231023760311 82.21436848792055 164.3303021763773 0.0 0.0
199.81041775268952 -2.399742147258144 59.32396766068407 160.18293273159188 0.0 0.0
145.1957709764401 5.444823197598003 45.18545909973233 149.36860315020778 0.0 0.0
93.18083828057782 15.534553574140315 32.61461755641544 140.86843664015692 0.0 0.0
36.44099336237395 10.712264996456724 14.145977507649203 144.31017208191716 0.0 0.0
-11.261554042602304 -48.57839622819332 -17.9519685886172 166.3058805060034 0.0 0.0
1.225121885623345 -357.808881388811 -116.35669572472953 146.47683009016623 0.0 0.0
-6.226545461516352 -312.3397088361716 -97.94583340063366 -139.14426496318202 0.0 0.0
-27.361818771691183 -55.352484578672986 -24.81332325957645 -172.99156491508415 0.0 0.0
4.2878799919390795 7.903172004931474 3.657315599061166 -156.94780807241372 0.0 0.0
45.81989115199123 16.18778418350422 18.602302600648635 -152.91716292999027 0.0 0.0
83.36192928991332 8.452668210043436 27.541308275145518 -160.30275416641962 0.0 0.0
119.92688339859505 0.5979256512672431 36.12495560593645 -173.0420851952598 0.0 0.0
164.48367457380496 -1.63962978660207 49.543420550164285 -182.02895853461678 0.0 0.0
226.4778543843167 0.9330621427851264 71.02904980115613 -182.20140072972464 0.0 0.0
310.21530697071194 4.642645306079561 101.86293701240864 -176.0246466613694 0.0 0.0
393.0521469406234 8.300121697430646 139.20196455163426 -164.07330754302666 0.0 0.0
458.2510415322202 14.821414726436334 179.14633852465485 -154.49186424914916 0.0 0.0
506.2477530793416 18.676864137905465 214.32759488007412 -148.4648145442628 0.0 0.0
547.4240169004053 24.546993369659635 248.03850001795774 -144.15437970425 0.0 0.0
584.2862273068372 29.422337150388437 278.81124579426603 -140.8120453442561 0.0 0.0
617.6919799723032 32.75203524851698 305.51681195833623 -137.96513653195902 0.0 0.0
648.5947328377048 34.039648229630046 327.66045391915003 -134.77523465235805 0.0 0.0
679.8277647941475 33.352598934863614 346.498416058649 -129.6309174917741 0.0 0.0
713.001339879467 31.7723912182213 364.5345757172175 -119.24995518259695 0.0 0.0
737.0538537666148 18.70578671336925 372.0060578768377 -102.29796559462173 0.0 0.0
776.4110308203115 14.688416199878091 390.14430493240127 -69.72134047310176 0.0 0.0
776.411030820246 14.688416199871341 390.1443049323725 69.7213404733453 0.0 0.0
737.0538537665352 18.70578671340465 372.0060578767788 102.2979655949184 0.0 0.0
713.0013398795506 31.77239121858244 364.53457571728427 119.2499551829653 0.0 0.0
679.8277647937526 33.35259893459916 346.4984160583563 129.63091749193995 0.0 0.0
648.5947328376842 34.03964822964129 327.66045391906096 134.7752346523453 0.0 0.0
617.6919799723994 32.75203524872056 305.51681195837597 137.96513653198937 0.0 0.0
584.2862273069384 29.422337150676775 278.8112457943274 140.812045344358 0.0 0.0
547.42401690038 24.54699336981598 248.03850001793134 144.1543797043547 0.0 0.0
506.2477530788069 18.67686413740491 214.32759487965222 148.46481454422232 0.0 0.0
458.2510415317578 14.821414726020304 179.1463385242912 154.49186424905812 0.0 0.0
393.0521469401929 8.300121697241973 139.2019645513721 164.07330754295612 0.0 0.0
310.21530697043954 4.642645306232918 101.8629370123333 176.02464666136342 0.0 0.0
226.47785438392148 0.9330621426228447 71.02904980097807 182.20140072970236 0.0 0.0
164.48367457354436 -1.6396297869135736 49.54342054998697 182.02895853450735 0.0 0.0
119.92688339842225 0.597925651001538 36.12495560580596 173.04208519508938 0.0 0.0
83.36192928982534 8.452668209922729 27.541308275083587 160.30275416623357 0.0 0.0
45.819891152022194 16.187784183590693 18.602302600683863 152.9171629298024 0.0 0.0
4.2878799919684365 7.9031720050355565 3.657315599101198 156.9478080721767 0.0 0.0
-27.361818771733432 -55.352484578699915 -24.813323259597475 172.99156491494017 0.0 0.0
-6.2265454616083815 -312.33970883588916 -97.9458334005581 139.14426496306226 0.0 0.0
-15.237496444702979 -266.9356266987036 -84.63694136414063 -129.38331958703648 0.0 0.0
-41.347513057775274 -59.14783329342535 -30.146189822030948 -175.99621868248832 0.0 0.0
-25.477889506221953 5.542635121587293 -5.980423690483576 -165.55989045148414 0.0 0.0
0.1526962644704195 16.54123044464059 5.007948306864298 -161.19201924642397 0.0 0.0
21.607988786025004 11.274241182884447 9.86279442023778 -167.14983036450812 0.0 0.0
38.3416713605354 4.308052779786947 12.789530300393533 -179.77217035887938 0.0 0.0
54.817519003040104 0.4910294357434788 16.800479458533555 -190.95802643884824 0.0 0.0
76.39826732109356 -0.0231026068256579 23.577657320436636 -196.86380794650634 0.0 0.0
106.69008893200336 1.5571167454275026 34.16550901445961 -193.0754708078186 0.0 0.0
142.94432942671267 2.089033552865361 46.7389501309939 -186.409707021045 0.0 0.0
188.31011940352658 5.032242307765397 63.86749869812653 -175.69932784710215 0.0 0.0
234.1673578158423 5.091663736600889 81.23399601947095 -169.133416409152 0.0 0.0
276.17130290298326 7.112324437328404 101.71862681454054 -163.6388391560789 0.0 0.0
316.77107745899394 8.987771111839294 124.76812747792198 -159.26348530905977 0.0 0.0
358.4236542315946 8.425915995740766 150.07510877868432 -155.31061512060262 0.0 0.0
399.31888477306865 3.800520054335607 174.70529876260557 -151.10549930230133 0.0 0.0
438.2975976272369 -4.604071125963159 196.16624032776681 -145.4640123993859 0.0 0.0
484.86317377131604 -14.343832221750091 220.7082730664398 -136.05764429758494 0.0 0.0
536.9462608517567 -27.171964884719856 246.44554848755388 -116.15526145752011 0.0 0.0
561.6320337604892 -76.96456605908371 238.7239509613384 -86.82348806117673 0.0 0.0
561.6320337608188 -76.96456605855279 238.72395096158297 86.82348806153757 0.0 0.0
536.9462608521151 -27.171964884130517 246.44554848782622 116.1552614579446 0.0 0.0
484.86317377156337 -14.343832221314884 220.7082730666521 136.05764429791765 0.0 0.0
438.2975976273251 -4.604071125769181 196.16624032785268 145.46401239954105 0.0 0.0
399.3188847731021 3.8005200544370012 174.7052987626371 151.10549930233574 0.0 0.0
358.42365423165904 8.425915995976737 150.07510877874483 155.3106151206488 0.0 0.0
316.77107745886326 8.987771111573373 124.76812747780517 159.2634853091178 0.0 0.0
276.1713029024762 7.112324436317142 101.71862681406726 163.63883915615054 0.0 0.0
234.16735781580604 5.091663736639735 81.23399601945451 169.13341640913075 0.0 0.0
188.31011940363152 5.032242308025715 63.86749869821933 175.69932784707353 0.0 0.0
142.94432942679848 2.0890335531345947 46.738950131089844 186.40970702095143 0.0 0.0
106.69008893202634 1.5571167455643469 34.165509014500955 193.07547080782538 0.0 0.0
76.39826732103923 -0.0231026068329383 23.577657320415 196.86380794652493 0.0 0.0
54.817519002965355 0.4910294355841218 16.800479458462345 190.95802643870272 0.0 0.0
38.34167136044231 4.308052779431389 12.789530300259326 179.77217035858126 0.0 0.0
21.60798878587846 11.274241182529101 9.862794420087413 167.14983036427031 0.0 0.0
0.152696264485221 16.541230444609745 5.007948306859526 161.19201924624468 0.0 0.0
-25.47788950613257 5.542635121764878 -5.980423690403596 165.5598904513232 0.0 0.0
-41.34751305779291 -59.14783329340182 -30.146189822029907 175.99621868234 0.0 0.0
-15.237496444729352 -266.9356266984354 -84.63694136407968 129.38331958688312 0.0 0.0
-21.46101132560608 -222.86568479591955 -73.29160831029995 -117.97701080018771 0.0 0.0
-52.75380278699069 -59.31643474901564 -33.61915211030632 -175.05643848795722 0.0 0.0
-53.12193863305153 3.4175431497159017 -14.910790831395865 -170.0834009966417 0.0 0.0
-43.8800375911386 16.600239608228687 -8.183361761154739 -165.4399843847914 0.0 0.0
-39.4715421897006 13.755459020367807 -7.710539617381363 -169.54665105463167 0.0 0.0
-43.43950641252262 7.941282439712745 -10.638064672091936 -180.87766395802146 0.0 0.0
-55.671429788365 3.047095178410018 -15.995634100620954 -191.13148383462368 0.0 0.0
-76.07873660517882 0.5666496717368297 -23.317338417425262 -196.92320954996563 0.0 0.0
-106.31186259702898 -1.6946509255941216 -34.086864674408965 -193.06063271424733 0.0 0.0
-142.6460634799213 -2.152577876431385 -46.663108481148825 -186.40002084315037 0.0 0.0
-188.27910795812863 -4.760481343581766 -63.69748356565441 -175.74197377242731 0.0 0.0
-234.45012491570063 -4.412932557952601 -81.08308714080744 -168.98986807447008 0.0 0.0
-277.9423996420753 -6.226606668039572 -102.05361200549062 -163.3013994929605 0.0 0.0
-320.62715439975926 -9.160807307056672 -126.46975684291897 -158.9414407886542 0.0 0.0
-361.18264374348956 -13.692977632314332 -153.482710114128 -155.99649462289017 0.0 0.0
-391.44410382088245 -22.485788883576603 -179.19932943314495 -155.24281165218838 0.0 0.0
-393.42710537079165 -31.688519659269744 -193.47553302533498 -156.53486229643502 0.0 0.0
-343.41971677097297 -43.73799307185047 -187.63540071419536 -160.06760749388715 0.0 0.0
-183.27022339626376 -38.31739843516691 -117.21747247977125 -159.0180571633119 0.0 0.0
35.87379179313989 -161.2269542398672 -53.880728004874804 -115.24870605113138 0.0 0.0
35.873791792895275 -161.2269542402817 -53.88072800511034 115.24870605148939 0.0 0.0
-183.2702233967406 -38.31739843595737 -117.21747248016239 159.01805716377072 0.0 0.0
-343.419716771016 -43.73799307184464 -187.6354007141715 160.06760749417003 0.0 0.0
-393.42710537036453 -31.688519658824106 -193.47553302500768 156.53486229652222 0.0 0.0
-391.4441038203956 -22.485788883093164 -179.19932943280423 155.24281165215095 0.0 0.0
-361.18264374324303 -13.692977632390374 -153.48271011400718 155.99649462291598 0.0 0.0
-320.62715439971123 -9.160807307554812 -126.46975684298945 158.9414407887433 0.0 0.0
-277.9423996417133 -6.226606668215666 -102.0536120053851 163.30139949316413 0.0 0.0
-234.4501249152487 -4.4129325580450285 -81.0830871406674 168.9898680744926 0.0 0.0
-188.2791079574679 -4.760481343374526 -63.69748356537051 175.74197377249976 0.0 0.0
-142.64606347946412 -2.1525778763772028 -46.66310848098014 186.40002084305408 0.0 0.0
-106.31186259677816 -1.6946509258098033 -34.08686467438861 193.06063271430665 0.0 0.0
-76.07873660506854 0.5666496715594489 -23.317338417441434 196.92320954991965 0.0 0.0
-55.671429788396466 3.0470951781133127 -15.995634100716064 191.13148383447077 0.0 0.0
-43.43950641255511 7.941282439233129 -10.638064672245967 180.87766395772317 0.0 0.0
-39.471542189752185 13.75545902001402 -7.710539617503336 169.54665105444056 0.0 0.0
-43.88003759110667 16.600239608191615 -8.183361761156542 165.43998438458487 0.0 0.0
-53.12193863297013 3.4175431497362077 -14.910790831365734 170.0834009964313 0.0 0.0
-52.75380278699575 -59.31643474893517 -33.61915211028459 175.05643848780215 0.0 0.0
-21.46101132554141 -222.86568479566608 -73.29160831020609 117.97701080003958 0.0 0.0
-23.155160244343012 -181.24357176722143 -61.31961960346932 -105.92028618343032 0.0 0.0
-62.21459556780613 -56.732476815094415 -35.683970926978226 -170.23954383014632 0.0 0.0
-78.78499936318279 1.7223773594093967 -23.1178296997259 -170.38467699360564 0.0 0.0
-86.3050132394666 16.275349978002332 -21.00316594799159 -165.54960807595526 0.0 0.0
-99.36002051628667 15.706305837161185 -25.08747199738456 -167.27184230522454 0.0 0.0
-124.13652101971056 10.936921009847019 -34.04227657820178 -175.45717589105334 0.0 0.0
-165.11149341274086 5.062603638570657 -48.70979702537392 -182.96955025716986 0.0 0.0
-226.1969182642993 -0.4706530443436625 -70.80215587583785 -182.30970152913244 0.0 0.0
-309.83847749940674 -4.772529346060672 -101.78136856427199 -175.99730850433204 0.0 0.0
-392.8749686759147 -8.35428046095629 -139.14437464556795 -164.02883191200908 0.0 0.0
-458.1309764305738 -14.660177456094459 -179.04810210429048 -154.4257631462287 0.0 0.0
-506.13576335428536 -18.085854268922134 -214.0884495043377 -148.1988082699482 0.0 0.0
-547.6279238104116 -23.61513922696517 -247.78560720538593 -143.48371428906208 0.0 0.0
-585.8361583034476 -29.715516446775815 -279.6562916914547 -140.12718009185457 0.0 0.0
-622.2350806610508 -38.13166125040712 -310.0490195946578 -138.78837170137118 0.0 0.0
-655.5720642552412 -49.946141244581966 -338.33989249348485 -140.5945040757901 0.0 0.0
-684.5153554597605 -67.14309992567284 -365.058966249457 -146.97501628501425 0.0 0.0
-704.4169420433303 -89.20491705704165 -388.1903109966386 -158.17046586292815 0.0 0.0
-737.3226106903683 -143.09393448539106 -429.5676474714284 -168.05858487247153 0.0 0.0
-704.1074768746518 -198.6370922251072 -434.5512532857771 -170.72342780190885 0.0 0.0
-704.1074768744897 -198.63709222508305 -434.5512532857204 170.72342780225975 0.0 0.0
-737.3226106905029 -143.09393448593482 -429.5676474715822 168.05858487293273 0.0 0.0
-704.4169420437479 -89.20491705782854 -388.1903109969387 158.17046586329127 0.0 0.0
-684.5153554597615 -67.14309992591168 -365.0589662494724 146.97501628513268 0.0 0.0
-655.5720642554661 -49.94614124487522 -338.33989249357865 140.5945040757941 0.0 0.0
-622.2350806611631 -38.13166125078572 -310.04901959472966 138.788371701466 0.0 0.0
-585.8361583031434 -29.71551644659494 -279.65629169120444 140.1271800918608 0.0 0.0
-547.6279238103269 -23.615139227212815 -247.78560720531328 143.48371428921544 0.0 0.0
-506.1357633540584 -18.085854269054707 -214.08844950415818 148.1988082699922 0.0 0.0
-458.13097643022104 -14.660177456243503 -179.04810210406043 154.42576314629486 0.0 0.0
-392.87496867538744 -8.354280460924507 -139.1443746452665 164.02883191193678 0.0 0.0
-309.83847749853726 -4.772529345607966 -101.78136856384215 175.997308504417 0.0 0.0
-226.19691826372917 -0.4706530439962524 -70.80215587554802 182.30970152906917 0.0 0.0
-165.1114934125343 5.062603638446197 -48.70979702534153 182.96955025705262 0.0 0.0
-124.13652101927616 10.936921010318544 -34.04227657793157 175.45717589084032 0.0 0.0
-99.3600205159934 15.706305837430047 -25.08747199721809 167.27184230506936 0.0 0.0
-86.30501323939995 16.27534997789344 -21.00316594800485 165.54960807579127 0.0 0.0
-78.78499936312201 1.7223773593596627 -23.117829699723067 170.3846769934206 0.0 0.0
-62.21459556777364 -56.732476815086756 -35.68397092696634 170.2395438299902 0.0 0.0
-23.155160244324595 -181.24357176703967 -61.31961960340927 105.92028618330009 0.0 0.0
-23.69031773579208 -142.80134548486942 -49.94749896619844 -93.69253069228277 0.0 0.0
-70.33705478249308 -51.774534168104125 -36.633476685179154 -161.54910242372563 0.0 0.0
-102.74499712870033 0.48050267646501865 -30.676398195052137 -166.45681279046624 0.0 0.0
-127.053153123967 15.581048811712527 -33.430859709471356 -161.39410205844183 0.0 0.0
-157.72043782327893 16.718789251027903 -42.307271664538575 -160.33326382536112 0.0 0.0
-203.0508501278314 12.836470999259246 -57.23216195662364 -164.26171115123336 0.0 0.0
-270.7681132490302 5.609924612183135 -81.40631337538383 -165.37098580380461 0.0 0.0
-363.5318274446002 -1.3551612556325665 -118.2598898395812 -159.36144381947636 0.0 0.0
-451.8059500077835 -8.353036796869814 -164.9121107457496 -148.49435714308382 0.0 0.0
-520.8422754967587 -19.363824486683708 -215.4807463149068 -139.1719803099912 0.0 0.0
-574.5676209515547 -27.26725374880019 -259.1677557017779 -134.71353294545463 0.0 0.0
-618.0765274000452 -35.179535829551625 -296.62244866577663 -130.0798287236146 0.0 0.0
-658.6599182175887 -43.45438736485136 -330.0560289926541 -126.37596830488937 0.0 0.0
-698.0743195516502 -52.259024719057635 -360.5352906106822 -123.5588874148739 0.0 0.0
-737.8413978694584 -63.281685993668745 -390.04936588440285 -122.48878592765242 0.0 0.0
-777.1405829893097 -78.25688964749553 -419.5589953273003 -124.57419709332395 0.0 0.0
-815.1247999510613 -98.72875011945197 -450.03360150572337 -131.28576342404858 0.0 0.0
-858.615929765698 -134.72134652820336 -490.10005556304895 -140.65716273091704 0.0 0.0
-905.287728234294 -188.78467651958485 -539.871285045213 -149.7743964334367 0.0 0.0
-960.5599199652119 -289.3968906247026 -611.5725321448815 -157.47656787593417 0.0 0.0
-960.5599199653554 -289.3968906249711 -611.5725321450946 157.4765678761367 0.0 0.0
-905.2877282343686 -188.78467651982558 -539.8712850453667 149.77439643365435 0.0 0.0
-858.6159297658476 -134.72134652849238 -490.1000555631842 140.65716273111522 0.0 0.0
-815.1247999506412 -98.72875011916497 -450.0336015054259 131.28576342419237 0.0 0.0
-777.1405829890515 -78.25688964735824 -419.55899532709054 124.57419709336536 0.0 0.0
-737.8413978694939 -63.281685993836916 -390.04936588443087 122.48878592771908 0.0 0.0
-698.0743195515054 -52.25902471900967 -360.5352906105567 123.55888741487331 0.0 0.0
-658.6599182173 -43.45438736474284 -330.0560289924342 126.37596830495258 0.0 0.0
-618.076527399766 -35.179535829546595 -296.62244866555517 130.07982872368578 0.0 0.0
-574.5676209510423 -27.267253748524624 -259.1677557013752 134.71353294541643 0.0 0.0
-520.8422754962492 -19.363824486375254 -215.48074631450007 139.17198030984386 0.0 0.0
-451.8059500073488 -8.353036796955845 -164.9121107454981 148.49435714317343 0.0 0.0
-363.5318274439494 -1.3551612554156307 -118.25988983925886 159.36144381947574 0.0 0.0
-270.76811324853117 5.609924612300157 -81.40631337518802 165.37098580368826 0.0 0.0
-203.05085012763374 12.836470999077317 -57.232161956618555 164.26171115103728 0.0 0.0
-157.7204378230234 16.718789250999308 -42.30727166447405 160.3332638251834 0.0 0.0
-127.05315312375328 15.581048811798501 -33.43085970938247 161.3941020582589 0.0 0.0
-102.74499712854325 0.4805026765647713 -30.6763981949759 166.45681279030904 0.0 0.0
-70.33705478242796 -51.77453416807317 -36.633476685150335 161.54910242358685 0.0 0.0
-23.690317735811625 -142.8013454847798 -49.94749896617743 93.69253069216535 0.0 0.0
-24.129122755546504 -108.013995823013 -39.64293557356784 -81.30837992098358 0.0 0.0
-77.82720993527094 -45.08477339841073 -36.873595000104494 -149.3453805477167 0.0 0.0
-125.22217528578616 -0.2242704697149689 -37.63114179421362 -158.3221504483227 0.0 0.0
-166.21269409397766 14.30224746713957 -45.561916954560125 -153.00678608530686 0.0 0.0
-214.1403589055809 17.042496085084974 -59.09514885974596 -148.85865917034874 0.0 0.0
-278.4917581190116 12.725250436652441 -80.38198018193582 -147.12760023713005 0.0 0.0
-367.631209499331 6.865545717598817 -113.6493555317133 -142.63628023085215 0.0 0.0
-461.2083770317048 -3.567744443394881 -163.77424064612754 -131.98135583396032 0.0 0.0
-538.6093019902411 -16.3317605036067 -220.9079232022628 -124.04080919451435 0.0 0.0
-598.7714718928175 -29.271810510675778 -273.37289559755277 -120.07222990163471 0.0 0.0
-647.4601078320245 -40.272020632286086 -316.154806154511 -117.14323390110391 0.0 0.0
-692.5953142363196 -51.83772817265839 -353.62300048573024 -113.72374327030357 0.0 0.0
-735.2325353528499 -62.88011642187212 -386.3877461035065 -110.38585688950535 0.0 0.0
-777.373843555142 -74.68629508537435 -416.9178222260698 -107.61931725861426 0.0 0.0
-820.001904344526 -87.93833470988218 -446.85279328704416 -106.44271962991174 0.0 0.0
-864.7563370471781 -106.15821079607919 -479.3857182878615 -108.35847046290863 0.0 0.0
-913.628865508688 -134.06462790907955 -518.0613367067834 -113.95730554990664 0.0 0.0
-970.5973989409949 -178.86118987400198 -569.0253804866463 -122.15727188070329 0.0 0.0
-1036.5484001412756 -247.1521416580012 -635.5516508100052 -129.88833993584927 0.0 0.0
-1110.2559811536519 -357.73884838123405 -723.5267216222702 -139.0279241896605 0.0 0.0
-1110.2559811535716 -357.7388483812658 -723.5267216222493 139.02792418986917 0.0 0.0
-1036.5484001411678 -247.15214165809033 -635.5516508099049 129.88833993618888 0.0 0.0
-970.5973989407642 -178.86118987394212 -569.0253804864602 122.15727188094979 0.0 0.0
-913.6288655088796 -134.06462790937002 -518.0613367068368 113.95730554996307 0.0 0.0
-864.7563370475734 -106.1582107966591 -479.38571828807386 108.35847046305648 0.0 0.0
-820.0019043446357 -87.93833471014898 -446.85279328704615 106.44271963000759 0.0 0.0
-777.3738435552575 -74.68629508563606 -416.9178222261034 107.6193172586585 0.0 0.0
-735.2325353527899 -62.88011642201215 -386.38774610345394 110.38585688958202 0.0 0.0
-692.5953142360106 -51.837728172540686 -353.62300048546587 113.723743270328 0.0 0.0
-647.460107831513 -40.27202063197315 -316.15480615410075 117.1432339010582 0.0 0.0
-598.7714718922928 -29.271810510334564 -273.3728955970968 120.0722299015144 0.0 0.0
-538.6093019896238 -16.33176050330343 -220.90792320178528 124.04080919451707 0.0 0.0
-461.2083770313211 -3.567744443503541 -163.77424064586822 131.9813558340106 0.0 0.0
-367.6312094987722 6.86554571771637 -113.64935553146677 142.63628023081822 0.0 0.0
-278.4917581185174 12.725250436855964 -80.38198018172807 147.12760023698678 0.0 0.0
-214.14035890531997 17.042496084905114 -59.09514885972635 148.8586591702473 0.0 0.0
-166.21269409373775 14.302247467236842 -45.56191695446012 153.00678608513698 0.0 0.0
-125.22217528560483 -0.224270469628852 -37.631141794134145 158.32215044818753 0.0 0.0
-77.82720993521677 -45.08477339836616 -36.87359500007487 149.3453805475694 0.0 0.0
-24.129122755532027 -108.01399582295075 -39.642935573544825 81.30837992089818 0.0 0.0
-24.747275001511582 -77.29371296962795 -30.612296391341857 -68.62922733043607 0.0 0.0
-85.02570231448573 -37.26124232986981 -36.68608339330665 -134.03188821321265 0.0 0.0
-146.48878205664667 -0.4727576975598744 -44.08722967024732 -146.1142485047761 0.0 0.0
-203.80415835843164 12.687272414232329 -57.31552019972452 -140.42984157151318 0.0 0.0
-268.4787992578559 15.703769283057053 -75.72780297937337 -133.05980917499568 0.0 0.0
-348.98024070937373 13.533646289086398 -102.5946261951345 -126.22899231199175 0.0 0.0
-445.50448151526734 6.079377909413132 -146.59708993344685 -115.96602374462157 0.0 0.0
-531.4128888114129 -8.68888049949409 -207.05682182591045 -106.87935743493145 0.0 0.0
-598.5871210812234 -23.717004173736438 -266.6133039595891 -103.84105681469067 0.0 0.0
-653.9180342151976 -38.17812979541411 -316.96651544113024 -102.40258294683827 0.0 0.0
-703.7776358926461 -52.910878294684494 -359.622870326328 -100.3562263472859 0.0 0.0
-751.0562283708967 -67.79763700610297 -397.11784444122856 -97.49068728972644 0.0 0.0
-796.7700383841529 -82.36599718804415 -430.959594422674 -94.5201409483751 0.0 0.0
-842.1123711446927 -96.88315988766787 -462.8889637179948 -91.94304355543035 0.0 0.0
-888.3707160817187 -112.66535791576497 -494.96638406244256 -90.61775964517383 0.0 0.0
-938.0533102286988 -134.6819574715772 -531.312966582616 -91.63750322999915 0.0 0.0
-997.0391659221548 -169.63280542046147 -578.2409881764231 -95.96121336539215 0.0 0.0
-1067.6836866113958 -225.26262814621688 -641.2474748276688 -102.8904881683701 0.0 0.0
-1147.7356462504488 -306.1495275528514 -721.3883210990671 -110.75956332062195 0.0 0.0
-1221.5342135398255 -416.4928059406078 -810.7253924208006 -125.37322017110617 0.0 0.0
-1221.5342135396136 -416.49280594048236 -810.7253924206555 125.37322017126081 0.0 0.0
-1147.7356462507714 -306.14952755330273 -721.3883210992958 110.75956332088427 0.0 0.0
-1067.6836866115389 -225.26262814653782 -641.2474748276911 102.8904881686498 0.0 0.0
-997.0391659214903 -169.63280541988564 -578.2409881758844 95.96121336547043 0.0 0.0
-938.0533102280116 -134.68195747096323 -531.3129665821344 91.63750323002998 0.0 0.0
-888.3707160809356 -112.66535791502702 -494.9663840619038 90.61775964512793 0.0 0.0
-842.1123711440116 -96.88315988704204 -462.8889637174744 91.94304355535637 0.0 0.0
-796.7700383837764 -82.36599718779831 -430.95959442230367 94.52014094839515 0.0 0.0
-751.0562283709567 -67.79763700641823 -397.11784444121344 97.49068728984821 0.0 0.0
-703.7776358928644 -52.91087829516404 -359.62287032641336 100.35622634730349 0.0 0.0
-653.9180342153678 -38.17812979588816 -316.9665154411664 102.40258294682835 0.0 0.0
-598.587121080926 -23.717004173744343 -266.6133039593021 103.84105681471436 0.0 0.0
-531.4128888110055 -8.688880499465679 -207.05682182555879 106.87935743493324 0.0 0.0
-445.5044815150058 6.079377909167738 -146.59708993329986 115.96602374460585 0.0 0.0
-348.9802407088939 13.533646289155682 -102.59462619495503 126.22899231191715 0.0 0.0
-268.47879925735987 15.70376928337298 -75.727802979134 133.0598091748941 0.0 0.0
-203.80415835821225 12.687272414184886 -57.31552019967442 140.42984157139665 0.0 0.0
-146.4887820564728 -0.47275769750647534 -44.0872296701797 146.1142485046738 0.0 0.0
-85.02570231440271 -37.26124232984339 -36.686083393273826 134.03188821308453 0.0 0.0
-24.747275001455066 -77.29371296955303 -30.612296391302422 68.62922733041685 0.0 0.0
-25.486022929248012 -51.03193822991522 -22.95538834774897 -55.51278344034153 0.0 0.0
-91.88426191767171 -28.84175607538452 -36.21780539791686 -115.9477816987301 0.0 0.0
-166.71989604773387 -0.31792675035240325 -50.11134683942587 -129.9741722874606 0.0 0.0
-239.9417534725876 10.308766777728486 -68.87957587486848 -123.66896429964287 0.0 0.0
-319.1721955345715 14.04503377983205 -91.65553009086742 -113.27340499984638 0.0 0.0
-413.5000206824566 13.835018949169458 -125.18597652572174 -102.25035286917351 0.0 0.0
-506.9261974617329 3.037636161538071 -179.87218634245946 -89.84369882082729 0.0 0.0
-581.6044061436887 -14.399018964147764 -245.28130513490936 -85.21005655902546 0.0 0.0
-642.8083492528898 -29.642171226404496 -302.3950900314877 -85.32170050859395 0.0 0.0
-698.3567163048571 -46.91893552477692 -351.73790313391396 -84.86894933898921 0.0 0.0
-750.5211888659913 -65.17558777515305 -394.7090416358038 -83.44068538480607 0.0 0.0
-800.5820656663975 -83.447314435928 -433.23708647808894 -81.04303082838413 0.0 0.0
-850.0105557403385 -101.48802695385493 -469.293851159921 -78.60491977170567 0.0 0.0
-898.6419665289977 -119.44666212423533 -503.7842484229691 -76.32145164911377 0.0 0.0
-948.1442181256264 -138.00012899333007 -538.4201097543712 -74.75574375901685 0.0 0.0
-1003.37970912421 -163.31159298701715 -578.9706070826326 -74.70089071099568 0.0 0.0
-1070.083137586642 -204.91254625162972 -632.9266749777089 -77.24956082269541 0.0 0.0
-1152.9193918039377 -271.3557692903678 -707.2419043430759 -83.33822051617494 0.0 0.0
-1243.0438100725323 -361.6905429571812 -797.3753440891959 -93.2132108771754 0.0 0.0
-1317.9748131514204 -473.12537653424454 -888.8611890070348 -115.19788862555805 0.0 0.0
-1317.9748131512274 -473.1253765341095 -888.8611890069312 115.19788862568524 0.0 0.0
-1243.0438100719705 -361.6905429566673 -797.3753440888298 93.21321087728093 0.0 0.0
-1152.9193918037308 -271.35576929023057 -707.2419043429621 83.33822051629741 0.0 0.0
-1070.0831375863668 -204.91254625144612 -632.9266749775107 77.24956082279897 0.0 0.0
-1003.3797091236953 -163.311592986593 -578.9706070821834 74.70089071107228 0.0 0.0
-948.1442181253817 -138.00012899319844 -538.4201097540985 74.7557437590905 0.0 0.0
-898.6419665293903 -119.44666212477415 -503.7842484231665 76.32145164916643 0.0 0.0
-850.0105557401911 -101.48802695384254 -469.29385115977846 78.60491977170904 0.0 0.0
-800.582065665715 -83.44731443541083 -433.2370864775755 81.0430308284161 0.0 0.0
-750.5211888647061 -65.17558777401425 -394.7090416348611 83.44068538476628 0.0 0.0
-698.356716304045 -46.918935524124166 -351.73790313326833 84.8689493388907 0.0 0.0
-642.8083492523879 -29.642171226140807 -302.3950900310528 85.32170050858514 0.0 0.0
-581.6044061431476 -14.39901896388248 -245.28130513444216 85.21005655897551 0.0 0.0
-506.9261974611577 3.0376361617942997 -179.87218634203163 89.84369882079748 0.0 0.0
-413.500020681801 13.835018949504803 -125.18597652538025 102.25035286909502 0.0 0.0
-319.17219553419545 14.045033779770542 -91.6555300907795 113.27340499973715 0.0 0.0
-239.94175347225553 10.308766777875379 -68.87957587472638 123.66896429954062 0.0 0.0
-166.7198960475337 -0.31792675024832207 -50.1113468393346 129.9741722873688 0.0 0.0
-91.88426191760738 -28.841756075408803 -36.217805397904854 115.94778169859346 0.0 0.0
-25.48602292919484 -51.03193822985163 -22.95538834771394 55.512783440286015 0.0 0.0
-26.03526237809318 -29.60756919679693 -16.69284947246703 -41.90368093263205 0.0 0.0
-97.96117476403234 -20.297473870687654 -35.47759459041599 -95.37998820044682 0.0 0.0
-185.97493737093842 0.13785728180160106 -55.75112402674104 -109.90019659927142 0.0 0.0
-275.1929366450087 7.0162448112889075 -80.44352238807407 -103.07619511041769 0.0 0.0
-368.27385426364043 13.042060640924818 -106.96579461023728 -90.6537812145884 0.0 0.0
-467.1594410769342 13.159527469461617 -148.35077096330411 -76.41112792131773 0.0 0.0
-549.6759688037807 -2.589150700985943 -212.08924203185518 -66.23990184340556 0.0 0.0
-618.522787891793 -17.885298655977532 -275.9373315722485 -66.06109155647685 0.0 0.0
-679.1964129890878 -35.28740520015239 -331.6510458329925 -66.96368195259785 0.0 0.0
-735.9134355369275 -55.57426513593091 -380.46703621639494 -67.12128021985757 0.0 0.0
-790.5194513684138 -76.96427343669947 -424.14762944787464 -66.14956795866854 0.0 0.0
-844.1133699834696 -98.7678357275404 -464.79789504979976 -64.30203937607064 0.0 0.0
-897.0167966186157 -120.4064685267165 -503.5320975751887 -62.3757638721862 0.0 0.0
-950.4120510753844 -142.3563459005253 -541.9646238248481 -60.65056095778983 0.0 0.0
-1004.0466874230374 -164.61620194850775 -580.2895974629226 -58.98143069276719 0.0 0.0
-1061.6024349469305 -192.4357112920751 -623.1409746991357 -57.57993840858132 0.0 0.0
-1134.2327263752782 -238.31990169909423 -682.1582947546814 -58.192089654693575 0.0 0.0
-1227.1200578844405 -313.356434800834 -765.6198899184267 -63.76356199081168 0.0 0.0
-1328.6109735820396 -414.36319779316375 -866.8329424599713 -76.78165211438699 0.0 0.0
-1409.3988876237436 -531.7329513690433 -965.0565775274948 -106.65945265570836 0.0 0.0
-1409.398887624167 -531.7329513695396 -965.0565775278133 106.6594526558547 0.0 0.0
-1328.61097358233 -414.36319779353965 -866.8329424601543 76.78165211456046 0.0 0.0
-1227.12005788423 -313.3564348007012 -765.6198899182237 63.76356199095208 0.0 0.0
-1134.2327263746843 -238.31990169855735 -682.1582947542132 58.192089654751804 0.0 0.0
-1061.6024349466313 -192.43571129186165 -623.1409746988437 57.57993840864741 0.0 0.0
-1004.0466874230502 -164.61620194863232 -580.2895974628644 58.98143069283549 0.0 0.0
-950.4120510750795 -142.35634590033524 -541.9646238245559 60.65056095781292 0.0 0.0
-897.0167966181641 -120.40646852640361 -503.532097574809 62.37576387221048 0.0 0.0
-844.113369983407 -98.76783572768043 -464.79789504972223 64.30203937615909 0.0 0.0
-790.5194513683597 -76.96427343687992 -424.1476294478023 66.14956795873594 0.0 0.0
-735.9134355366892 -55.5742651358675 -380.46703621615995 67.12128021973545 0.0 0.0
-679.1964129887851 -35.28740520007223 -331.65104583269283 66.96368195255593 0.0 0.0
-618.5227878913654 -17.885298655801634 -275.9373315718396 66.06109155639861 0.0 0.0
-549.6759688033376 -2.589150700841323 -212.08924203146952 66.2399018433625 0.0 0.0
-467.15944107639905 13.159527469628514 -148.3507709629876 76.41112792126313 0.0 0.0
-368.27385426336 13.042060640600152 -106.96579461025016 90.65378121456096 0.0 0.0
-275.19293664476163 7.016244811204496 -80.44352238802685 103.0761951103257 0.0 0.0
-185.9749373707504 0.1378572818150765 -55.751124026680586 109.90019659917536 0.0 0.0
-97.96117476396975 -20.29747387066083 -35.47759459038917 95.37998820029736 0.0 0.0
-26.035262378039736 -29.60756919676831 -16.69284947244241 41.903680932563724 0.0 0.0
-25.760552324669643 -13.378121329674723 -11.741602096303309 -27.94862512423856 0.0 0.0
-102.32268902314921 -12.041357297600712 -34.30921389622497 -72.49789989451403 0.0 0.0
-204.3152911049615 0.564035381564052 -61.12537671701922 -85.7285420421747 0.0 0.0
-309.9210517883806 3.3845451751545426 -91.95041551112641 -78.73049858249206 0.0 0.0
-415.24516708613623 13.536469316821936 -121.88790837496038 -65.54880298142871 0.0 0.0
-510.21463916020394 9.120919716317118 -173.57832140284305 -51.4331315123943 0.0 0.0
-584.3929026085854 -6.807734666109948 -240.83446165122234 -46.01923242127486 0.0 0.0
-648.6978676536639 -20.91575182878494 -301.22845410270224 -47.06298140977983 0.0 0.0
-709.5454803177114 -40.93748132869291 -355.8710363741676 -48.520533149312406 0.0 0.0
-768.2089020134911 -63.98658867275094 -404.744746931813 -48.9953488935601 0.0 0.0
-825.7751701554951 -88.44749822097026 -449.8395179506407 -48.4370480333862 0.0 0.0
-882.6200905806601 -113.67703690885766 -492.87723517071043 -47.13374705657977 0.0 0.0
-939.9569032204381 -139.01568609004516 -535.1625621683243 -45.82142901023523 0.0 0.0
-997.6069929654648 -165.46896707900873 -577.692325975868 -44.603412178505025 0.0 0.0
-1056.329286604051 -192.8704132956649 -620.9786259406063 -43.1693580412261 0.0 0.0
-1117.8802569921713 -223.98928433720963 -667.431529992956 -40.96498422206156 0.0 0.0
-1188.157953749147 -267.053343398565 -723.9594346766326 -39.263538670559065 0.0 0.0
-1288.0906988984277 -347.79987480216164 -813.5862553914503 -43.7487853420606 0.0 0.0
-1406.6039599755636 -464.0536716866459 -930.7942366583874 -60.276771766326725 0.0 0.0
-1504.3638783588763 -596.8277747297361 -1045.999731199674 -98.3547306150694 0.0 0.0
-1504.3638783590068 -596.8277747298866 -1045.9997311997367 98.35473061513625 0.0 0.0
-1406.603959975862 -464.05367168700457 -930.7942366585469 60.27677176645703 0.0 0.0
-1288.0906988987763 -347.79987480258035 -813.5862553916795 43.748785342211384 0.0 0.0
-1188.1579537494702 -267.053343398965 -723.9594346768574 39.26353867062829 0.0 0.0
-1117.8802569918455 -223.9892843369488 -667.4315299926875 40.96498422204738 0.0 0.0
-1056.3292866038116 -192.8704132955112 -620.9786259403453 43.16935804121919 0.0 0.0
-997.606992965196 -165.46896707884622 -577.6923259756163 44.60341217850136 0.0 0.0
-939.9569032201866 -139.01568608991295 -535.1625621681401 45.821429010174874 0.0 0.0
-882.6200905805282 -113.67703690890923 -492.87723517055133 47.133747056637475 0.0 0.0
-825.7751701556839 -88.44749822138107 -449.83951795071016 48.437048033436966 0.0 0.0
-768.2089020135547 -63.986588673038156 -404.744746931796 48.99534889352787 0.0 0.0
-709.5454803174908 -40.93748132869813 -355.8710363739465 48.52053314929411 0.0 0.0
-648.6978676532308 -20.91575182860978 -301.22845410230116 47.062981409764134 0.0 0.0
-584.3929026084694 -6.807734666334188 -240.8344616510172 46.01923242126573 0.0 0.0
-510.2146391597297 9.120919716461275 -173.57832140250179 51.43313151236737 0.0 0.0
-415.2451670854984 13.536469317145503 -121.88790837466603 65.54880298138018 0.0 0.0
-309.92105178813773 3.38454517505578 -91.95041551108486 78.73049858242896 0.0 0.0
-204.31529110477416 0.5640353815528436 -61.12537671696637 85.72854204208716 0.0 0.0
-102.32268902309049 -12.041357297584696 -34.30921389620255 72.4978998944393 0.0 0.0
-25.76055232460619 -13.378121329654775 -11.741602096278289 27.948625124206536 0.0 0.0
-23.45458034353572 -2.630070061995993 -7.825395121659515 -14.159573447465494 0.0 0.0
-103.36936411885851 -4.578150222650287 -32.38425430245263 -47.29563747416809 0.0 0.0
-221.8238463962642 0.6543457613549659 -66.35085019047277 -56.89481840696791 0.0 0.0
-345.32172003494384 0.16244808782889208 -103.50697388217279 -51.0854996953355 0.0 0.0
-456.3312596229048 15.535417306070373 -136.90389808331048 -39.72370780057684 0.0 0.0
-540.4054186947512 1.814792581739649 -199.64049037954587 -28.47024028802162 0.0 0.0
-610.948814196092 -8.52076622406775 -263.9644299191134 -27.157860360108668 0.0 0.0
-673.6405385264047 -24.55250004796407 -322.6494369427926 -28.41066283577762 0.0 0.0
-735.0325920548308 -46.39544889359676 -375.99516023432716 -29.755087953179917 0.0 0.0
-796.0095373452851 -72.05436696587171 -425.44711822070343 -30.389187618243486 0.0 0.0
-856.8139674247776 -99.72928763582303 -472.6138788034857 -30.215117791996633 0.0 0.0
-917.7367123830613 -128.1105824030594 -518.6129804380694 -29.538470028110197 0.0 0.0
-978.7598509540485 -157.6920413046994 -564.519306148848 -28.774735686871388 0.0 0.0
-1041.4168240096312 -188.45486450312194 -611.511606914618 -28.11853574484009 0.0 0.0
-1106.3384800164774 -221.70439877433625 -660.7288138671079 -27.148880912483435 0.0 0.0
-1173.0298766857923 -258.3371144546932 -712.4362426157261 -25.108708247808007 0.0 0.0
-1241.0594681824605 -299.5683207547763 -767.0863264779391 -21.84408458246402 0.0 0.0
-1321.0956489805365 -359.2124564858277 -836.2844896752192 -22.878958917616764 0.0 0.0
-1477.438024401953 -509.7154645569037 -988.8572421038075 -41.42546798254799 0.0 0.0
-1613.6653401749647 -677.3011918377701 -1141.6270049965926 -88.7682301234974 0.0 0.0
-1613.665340174694 -677.3011918374968 -1141.6270049963573 88.76823012346637 0.0 0.0
-1477.4380244013103 -509.71546455628214 -988.8572421033015 41.425467982600836 0.0 0.0
-1321.0956489799069 -359.2124564852394 -836.2844896746622 22.878958917663052 0.0 0.0
-1241.0594681819066 -299.56832075428315 -767.0863264774182 21.844084582518335 0.0 0.0
-1173.0298766852654 -258.3371144542385 -712.4362426151904 25.10870824783994 0.0 0.0
-1106.338480015995 -221.70439877394756 -660.7288138666569 27.148880912530405 0.0 0.0
-1041.4168240093245 -188.45486450291713 -611.5116069143116 28.1185357448349 0.0 0.0
-978.7598509537195 -157.69204130451485 -564.5193061485392 28.774735686926086 0.0 0.0
-917.7367123829067 -128.1105824030759 -518.6129804379198 29.538470028090757 0.0 0.0
-856.8139674242888 -99.72928763551856 -472.6138788030627 30.215117791998686 0.0 0.0
-796.0095373448509 -72.05436696563936 -425.44711822033537 30.38918761822442 0.0 0.0
-735.0325920543715 -46.39544889335691 -375.9951602339317 29.755087953200267 0.0 0.0
-673.6405385258555 -24.55250004764591 -322.6494369423219 28.410662835715762 0.0 0.0
-610.9488141955372 -8.520766223762251 -263.96442991861255 27.157860360073162 0.0 0.0
-540.4054186943933 1.814792581755082 -199.64049037923212 28.47024028804099 0.0 0.0
-456.3312596225593 15.53541730599405 -136.90389808316746 39.723707800567816 0.0 0.0
-345.3217200346605 0.16244808774815134 -103.50697388211692 51.08549969527566 0.0 0.0
-221.82384639614605 0.6543457612348043 -66.35085019047337 56.89481840689318 0.0 0.0
-103.36936411878592 -4.578150222658829 -32.38425430243342 47.29563747406347 0.0 0.0
-23.454580343466866 -2.6300700619714394 -7.82539512163149 14.159573447418524 0.0 0.0
-16.768809300684495 2.4752405210599813 -4.2880706338873535 -1.722565787947417 0.0 0.0
-98.48778598175795 1.4320350046401522 -29.11672529313534 -19.33684965480178 0.0 0.0
-239.00012077902875 -0.3030810743049379 -71.79096055600009 -22.317614311800476 0.0 0.0
-383.0460982057347 0.4232331179823685 -114.71729498060783 -20.633483593990654 0.0 0.0
-492.8471367851653 13.992781447246259 -154.94295999691383 -14.05432260255067 0.0 0.0
-569.1765184371916 -2.6774737943878293 -223.4338591365548 -8.764254442438531 0.0 0.0
-632.0645121464083 -10.575588965686059 -283.5680340187119 -8.926563746305673 0.0 0.0
-694.2063857618076 -28.15237085931781 -340.39053781536415 -9.714832680940361 0.0 0.0
-756.7781625319896 -51.87318923842804 -393.10011698095457 -10.6547018406724 0.0 0.0
-820.3303246921388 -79.96728139474139 -443.5964518293161 -11.249899988417736 0.0 0.0
-884.4066758088825 -110.2820053470959 -492.8506971332473 -11.469247208740791 0.0 0.0
-948.9000995564704 -142.84235132613506 -542.2624562417511 -11.395846328036596 0.0 0.0
-1014.4908749239711 -176.06779955946084 -592.0479087416056 -11.280559713668964 0.0 0.0
-1082.2048360659237 -211.18071748185014 -643.6179707804323 -11.124617449897652 0.0 0.0
-1153.0836770224166 -250.21744186659126 -698.6259036899608 -10.677425020914324 0.0 0.0
-1226.2017522841284 -293.5702808641796 -756.8465207683744 -9.572027827651269 0.0 0.0
-1297.178121653809 -338.68261461587565 -814.8759418262277 -7.179762300794306 0.0 0.0
-1361.0147688186512 -382.54553202207285 -868.6189899974617 -4.233590161077847 0.0 0.0
-1442.7001564278755 -453.88968945538306 -943.765623078335 -15.89491573978332 0.0 0.0
-1803.3927505744205 -835.8114176949513 -1315.8999676304657 -70.96957123605755 0.0 0.0
-1803.3927505748816 -835.8114176954286 -1315.8999676308135 70.96957123606958 0.0 0.0
-1442.7001564278826 -453.8896894554168 -943.7656230783804 15.89491573981738 0.0 0.0
-1361.014768818742 -382.54553202221143 -868.6189899975114 4.233590161032594 0.0 0.0
-1297.1781216530158 -338.6826146151395 -814.8759418256335 7.179762300832503 0.0 0.0
-1226.201752283309 -293.57028086342564 -756.8465207677756 9.572027827621392 0.0 0.0
-1153.0836770219269 -250.21744186618918 -698.6259036895531 10.677425020967933 0.0 0.0
-1082.2048360652595 -211.18071748128833 -643.6179707798769 11.124617449802475 0.0 0.0
-1014.4908749231716 -176.06779955878687 -592.0479087409791 11.280559713648282 0.0 0.0
-948.9000995559661 -142.84235132579764 -542.2624562413419 11.395846327994404 0.0 0.0
-884.4066758083588 -110.2820053467557 -492.8506971328436 11.469247208763868 0.0 0.0
-820.3303246916339 -79.96728139444005 -443.59645182891353 11.249899988332228 0.0 0.0
-756.7781625319609 -51.873189238629884 -393.1001169808485 10.65470184066909 0.0 0.0
-694.2063857617222 -28.152370859495143 -340.39053781520494 9.714832680942962 0.0 0.0
-632.0645121462579 -10.575588965827901 -283.5680340185005 8.926563746378303 0.0 0.0
-569.176518436851 -2.6774737943322204 -223.43385913623536 8.764254442540976 0.0 0.0
-492.8471367848071 13.992781447259285 -154.94295999670553 14.054322602635823 0.0 0.0
-383.04609820546597 0.4232331177698101 -114.71729498059933 20.63348359399302 0.0 0.0
-239.00012077889548 -0.3030810743698229 -71.79096055597957 22.31761431179834 0.0 0.0
-98.48778598166575 1.4320350046186672 -29.116725293114126 19.33684965483381 0.0 0.0
-16.76880930064026 2.475240521080464 -4.288070633867939 1.7225657879474174 0.0 0.0
SCALARS Strain float 6
LOOKUP_TABLE default
0.008077960130658788 -0.009172276477123098 0.0 -0.004897318949609625 0.0 0.0
0.001858442023677541 -0.0008267203341628115 0.0 0.0009215909965740454 0.0 0.0
0.0016790341798711755 -0.0007126820279204638 0.0 -9.074920784640783e-05 0.0 0.0
0.0019814880723515683 -0.0008663387208363016 0.0 -0.00015475105758588903 0.0 0.0
0.00264801261578669 -0.001337555075096808 0.0 -0.0001833179662418527 0.0 0.0
0.003967422789679082 -0.0023827260982959286 0.0 -0.0002382634381960791 0.0 0.0
0.005877880757288411 -0.004028798343532092 0.0 -0.0003393349595956774 0.0 0.0
0.008421688420083541 -0.006297374771225828 0.0 -0.0004763264770117903 0.0 0.0
0.011631577637312766 -0.009228156946349708 0.0 -0.0006488499612786747 0.0 0.0
0.01555728634004911 -0.012869840470870475 0.0 -0.0008451074301688843 0.0 0.0
0.020338667921075037 -0.017364093440696893 0.0 -0.00104499628484242 0.0 0.0
0.026211175099644303 -0.022942729263692563 0.0 -0.0012749796708335093 0.0 0.0
0.03341821815059125 -0.02985110144967984 0.0 -0.0015462529344249243 0.0 0.0
0.04214529892739864 -0.03827030245519425 0.0 -0.0018596276478363566 0.0 0.0
0.05239352216281214 -0.048194273353489914 0.0 -0.0022261452688326633 0.0 0.0
0.06381145607231559 -0.059271615263988275 0.0 -0.002587205948182597 0.0 0.0
0.07562275683423006 -0.07073669966139695 0.0 -0.002788889336497624 0.0 0.0
0.0866858255859142 -0.08146933364811448 0.0 -0.0026100031238260046 0.0 0.0
0.09566255500075077 -0.09015615558469636 0.0 -0.0020134536076353293 0.0 0.0
0.10105019711823417 -0.09525392325997029 0.0 -0.0015767807787442911 0.0 0.0
0.10105019711823049 -0.09525392325996984 0.0 0.0015767807787469557 0.0 0.0
0.09566255500073824 -0.09015615558468726 0.0 0.0020134536076447107 0.0 0.0
0.0866858255858927 -0.08146933364809561 0.0 0.0026100031238325827 0.0 0.0
0.07562275683420275 -0.07073669966137208 0.0 0.002788889336501621 0.0 0.0
0.06381145607228611 -0.059271615263957855 0.0 0.0025872059481783505 0.0 0.0
0.05239352216278313 -0.04819427335345994 0.0 0.0022261452688328576 0.0 0.0
0.042145298927369124 -0.03827030245516427 0.0 0.0018596276478363705 0.0 0.0
0.03341821815056012 -0.02985110144965164 0.0 0.0015462529344253406 0.0 0.0
0.026211175099612932 -0.02294272926366525 0.0 0.001274979670831733 0.0 0.0
0.020338667921046577 -0.01736409344067158 0.0 0.001044996284841504 0.0 0.0
0.015557286340024734 -0.01286984047084938 0.0 0.0008451074301648598 0.0 0.0
0.011631577637293528 -0.009228156946331945 0.0 0.0006488499612769816 0.0 0.0
0.008421688420067436 -0.006297374771211839 0.0 0.0004763264770098474 0.0 0.0
0.005877880757276577 -0.0040287983435211006 0.0 0.00033933495959645454 0.0 0.0
0.00396742278967166 -0.0023827260982889342 0.0 0.00023826343819546847 0.0 0.0
0.002648012615783152 -0.0013375550750949206 0.0 0.00018331796624149188 0.0 0.0
0.0019814880723508788 -0.0008663387208358575 0.0 0.0001547510575857225 0.0 0.0
0.001679034179870642 -0.0007126820279207968 0.0 9.074920784638008e-05 0.0 0.0
0.0018584420236767707 -0.0008267203341622842 0.0 -0.0009215909965724634 0.0 0.0
0.008077960130651207 -0.009172276477112244 0.0 0.00489731894958656 0.0 0.0
0.005521205863782193 -0.00695601414664751 0.0 -0.005768825110986753 0.0 0.0
0.0010478475312216962 -0.00041095021143849886 0.0 0.00020143302937541963 0.0 0.0
0.0014503720272580813 -0.000555279060330649 0.0 -0.0001320499418042409 0.0 0.0
0.001772685745417113 -0.0007665117331618343 0.0 -0.00040737973243618053 0.0 0.0
0.002307666319206536 -0.0010996190114351823 0.0 -0.000445147370745691 0.0 0.0
0.003437000542394701 -0.0019526234996618541 0.0 -0.0005865252803734788 0.0 0.0
0.005160559362949676 -0.0033981792418156243 0.0 -0.0008528595449660004 0.0 0.0
0.007464444566205996 -0.005423617406811965 0.0 -0.0011880761095177939 0.0 0.0
0.010360003356412916 -0.008045350630441872 0.0 -0.0015839178720650215 0.0 0.0
0.013878748216811482 -0.01129204050017285 0.0 -0.0020198536334923856 0.0 0.0
0.018133018263649672 -0.01527518350742052 0.0 -0.0024714267697747982 0.0 0.0
0.023332845299898854 -0.020204131660984892 0.0 -0.0029460263301630263 0.0 0.0
0.02974187443120482 -0.026338857021413142 0.0 -0.0035283800823858597 0.0 0.0
0.037558740107647884 -0.03387261883059711 0.0 -0.00425546523693221 0.0 0.0
0.04679016542965113 -0.04280689880086874 0.0 -0.0050905975831953 0.0 0.0
0.05712927802597664 -0.0528348612622318 0.0 -0.00591165921812789 0.0 0.0
0.06788712059777938 -0.06327616473154118 0.0 -0.00638114112305857 0.0 0.0
0.07803817389949953 -0.07312043464826834 0.0 -0.006078163685025201 0.0 0.0
0.08629690588754688 -0.08108565572727033 0.0 -0.004899220359999401 0.0 0.0
0.09118022929175798 -0.08576060254204321 0.0 -0.0028485591510657438 0.0 0.0
0.09118022929175433 -0.08576060254204032 0.0 0.0028485591510769015 0.0 0.0
0.08629690588753552 -0.08108565572726056 0.0 0.004899220360019052 0.0 0.0
0.07803817389948077 -0.07312043464825302 0.0 0.006078163685039217 0.0 0.0
0.06788712059775592 -0.06327616473152076 0.0 0.0063811411230667026 0.0 0.0
0.05712927802595083 -0.052834861262210264 0.0 0.005911659218125198 0.0 0.0
0.046790165429624914 -0.04280689880084454 0.0 0.005090597583195633 0.0 0.0
0.03755874010762142 -0.03387261883057158 0.0 0.004255465236932432 0.0 0.0
0.029741874431177137 -0.026338857021385387 0.0 0.0035283800823844302 0.0 0.0
0.023332845299871147 -0.02020413166095847 0.0 0.002946026330158502 0.0 0.0
0.01813301826362393 -0.015275183507394985 0.0 0.002471426769771745 0.0 0.0
0.013878748216789638 -0.011292040500153533 0.0 0.0020198536334873896 0.0 0.0
0.010360003356395309 -0.008045350630425996 0.0 0.0015839178720629121 0.0 0.0
0.007464444566191608 -0.0054236174068007514 0.0 0.001188076109514019 0.0 0.0
0.0051605593629391044 -0.0033981792418074086 0.0 0.0008528595449648624 0.0 0.0
0.0034370005423885186 -0.001952623499656858 0.0 0.0005865252803718413 0.0 0.0
0.0023076663192037605 -0.0010996190114327953 0.0 0.0004451473707436926 0.0 0.0
0.0017726857454163913 -0.0007665117331609461 0.0 0.0004073797324352091 0.0 0.0
0.0014503720272579235 -0.0005552790603307323 0.0 0.0001320499418040466 0.0 0.0
0.001047847531221946 -0.00041095021143787436 0.0 -0.00020143302937633556 0.0 0.0
0.005521205863773165 -0.006956014146636196 0.0 0.00576882511096774 0.0 0.0
0.003984235538205691 -0.005513227422523623 0.0 -0.005328661144102381 0.0 0.0
0.0006199666080089795 -0.0002557239257908739 0.0 -0.0004706442157677848 0.0 0.0
0.0011608977833929349 -0.0004047226019871508 0.0 -0.0003786968426641446 0.0 0.0
0.001561082156232265 -0.0006596233830475917 0.0 -0.0006406849599479292 0.0 0.0
0.002008947211417131 -0.0009104186315985752 0.0 -0.0007097161438379962 0.0 0.0
0.002915912803884913 -0.0015498492192801416 0.0 -0.0008656429511290642 0.0 0.0
0.004437015077020861 -0.002774248358912157 0.0 -0.0012421829486539138 0.0 0.0
0.006494866118151248 -0.004554796283533169 0.0 -0.001750093917558121 0.0 0.0
0.009074246860317672 -0.006861991342662188 0.0 -0.002327355880696963 0.0 0.0
0.012189405565816182 -0.009715727449010947 0.0 -0.002951728002222931 0.0 0.0
0.015927941412208393 -0.01320019970662889 0.0 -0.0036034290310686667 0.0 0.0
0.02047417463340874 -0.01749658984737623 0.0 -0.004288577130259236 0.0 0.0
0.026079602517704244 -0.022851091172793048 0.0 -0.005088684657474585 0.0 0.0
0.032962182502301575 -0.029474997152530102 0.0 -0.006116585862376067 0.0 0.0
0.04114971640895307 -0.03739360126221247 0.0 -0.007340775289476437 0.0 0.0
0.0503855420601115 -0.046349086213971935 0.0 -0.008521533492621636 0.0 0.0
0.06008658584676112 -0.05576385799594896 0.0 -0.009222373755025881 0.0 0.0
0.0693426940353857 -0.06473128703542508 0.0 -0.008907598109117343 0.0 0.0
0.0769377717909975 -0.0720606572348288 0.0 -0.007202605297992715 0.0 0.0
0.08153608775360101 -0.07648049088438857 0.0 -0.003840478353416721 0.0 0.0
0.08153608775359732 -0.07648049088438591 0.0 0.003840478353434429 0.0 0.0
0.07693777179098736 -0.07206065723481814 0.0 0.007202605298018638 0.0 0.0
0.06934269403536905 -0.06473128703540953 0.0 0.00890759810913655 0.0 0.0
0.06008658584674077 -0.0557638579959312 0.0 0.009222373755035707 0.0 0.0
0.05038554206008891 -0.04634908621395151 0.0 0.008521533492618638 0.0 0.0
0.041149716408929615 -0.03739360126219049 0.0 0.00734077528947652 0.0 0.0
0.03296218250227814 -0.029474997152507232 0.0 0.006116585862375679 0.0 0.0
0.026079602517679934 -0.02285109117277262 0.0 0.0050886846574732525 0.0 0.0
0.020474174633384523 -0.01749658984735558 0.0 0.004288577130254545 0.0 0.0
0.015927941412185592 -0.013200199706606242 0.0 0.003603429031063088 0.0 0.0
0.01218940556579684 -0.009715727448993405 0.0 0.0029517280022160475 0.0 0.0
0.009074246860301768 -0.006861991342647755 0.0 0.0023273558806927996 0.0 0.0
0.006494866118138473 -0.004554796283521956 0.0 0.0017500939175546237 0.0 0.0
0.004437015077011802 -0.0027742483589041633 0.0 0.001242182948651388 0.0 0.0
0.0029159128038797055 -0.0015498492192775881 0.0 0.0008656429511271491 0.0 0.0
0.002008947211415271 -0.000910418631597576 0.0 0.0007097161438366917 0.0 0.0
0.0015610821562315469 -0.0006596233830468701 0.0 0.0006406849599472075 0.0 0.0
0.0011608977833928863 -0.0004047226019879002 0.0 0.00037869684266311765 0.0 0.0
0.0006199666080092259 -0.00025572392579027714 0.0 0.00047064421576550886 0.0 0.0
0.003984235538197281 -0.005513227422513398 0.0 0.005328661144086921 0.0 0.0
0.0029456879351997325 -0.004435692434560087 0.0 -0.00452880787399515 0.0 0.0
0.0003862048826636724 -0.00020117526374330286 0.0 -0.001040193114312471 0.0 0.0
0.0008926542570490033 -0.0002856339928566931 0.0 -0.0007158086189789636 0.0 0.0
0.0013316306646696217 -0.000546691661082066 0.0 -0.0008879016971902187 0.0 0.0
0.0017395648846007042 -0.0007661265146624574 0.0 -0.0009874294544105766 0.0 0.0
0.0024392145859056524 -0.0012132882175174275 0.0 -0.001107410209104931 0.0 0.0
0.003708626052658759 -0.002176521941028353 0.0 -0.0015116973888493757 0.0 0.0
0.005519362623625238 -0.0036962792947899947 0.0 -0.0021560369552465486 0.0 0.0
0.007780234927221481 -0.005688800191188115 0.0 -0.0028731450070263453 0.0 0.0
0.010495683590338263 -0.00815192357475536 0.0 -0.0036422357659723625 0.0 0.0
0.013728652175711939 -0.011145622954502166 0.0 -0.004437685147879872 0.0 0.0
0.017634850749376048 -0.01482044324273235 0.0 -0.005274928166451198 0.0 0.0
0.02244614454172285 -0.01940435313172184 0.0 -0.006259230285214135 0.0 0.0
0.028381166033038384 -0.025104175819026686 0.0 -0.007477743537832732 0.0 0.0
0.03549534001561006 -0.03197724801319923 0.0 -0.008928363419823476 0.0 0.0
0.04360069449555592 -0.039835233299141626 0.0 -0.010385727667370004 0.0 0.0
0.052224416271984465 -0.04820178375960826 0.0 -0.011310168495551803 0.0 0.0
0.06057994274445913 -0.05629562307280467 0.0 -0.011037735280131883 0.0 0.0
0.06758284308715093 -0.06305826109829726 0.0 -0.008974544919823246 0.0 0.0
0.07201112542006459 -0.06732357428474356 0.0 -0.004665188442577517 0.0 0.0
0.0720111254200612 -0.06732357428474156 0.0 0.004665188442600998 0.0 0.0
0.06758284308714148 -0.06305826109828927 0.0 0.008974544919853888 0.0 0.0
0.06057994274444452 -0.0562956230727889 0.0 0.01103773528015417 0.0 0.0
0.05222441627196692 -0.048201783759591166 0.0 0.011310168495563044 0.0 0.0
0.04360069449553616 -0.03983523329912386 0.0 0.010385727667367395 0.0 0.0
0.03549534001558967 -0.03197724801318036 0.0 0.008928363419822005 0.0 0.0
0.028381166033017977 -0.025104175819007146 0.0 0.007477743537831372 0.0 0.0
0.022446144541701796 -0.019404353131700525 0.0 0.00625923028521197 0.0 0.0
0.01763485074935528 -0.014820443242711479 0.0 0.005274928166445925 0.0 0.0
0.013728652175692177 -0.01114562295448196 0.0 0.004437685147872628 0.0 0.0
0.010495683590321395 -0.008151923574738928 0.0 0.003642235765963564 0.0 0.0
0.0077802349272075855 -0.005688800191175902 0.0 0.002873145007021488 0.0 0.0
0.00551936262361416 -0.003696279294780669 0.0 0.0021560369552428016 0.0 0.0
0.0037086260526512788 -0.002176521941022247 0.0 0.001511697388846156 0.0 0.0
0.0024392145859016695 -0.0012132882175153181 0.0 0.0011074102091023774 0.0 0.0
0.0017395648845994344 -0.0007661265146625129 0.0 0.0009874294544099937 0.0 0.0
0.0013316306646687232 -0.0005466916610816774 0.0 0.000887901697189053 0.0 0.0
0.0008926542570490831 -0.0002856339928566931 0.0 0.000715808618976882 0.0 0.0
0.0003862048826637765 -0.00020117526374231753 0.0 0.0010401931143095566 0.0 0.0
0.0029456879351924953 -0.004435692434551192 0.0 0.0045288078739834925 0.0 0.0
0.0021848555839489234 -0.0035682795845557863 0.0 -0.0037255473597524735 0.0 0.0
0.00025267232905984427 -0.00018748381998381913 0.0 -0.0014792368203228878 0.0 0.0
0.0006633602058236238 -0.00019710791484467416 0.0 -0.0010658092349432602 0.0 0.0
0.0010923527509083542 -0.00043236775396610083 0.0 -0.0011472546972197961 0.0 0.0
0.0014778204909937226 -0.0006379536443663625 0.0 -0.0012598340027642208 0.0 0.0
0.0020198262591434313 -0.0009479829255771843 0.0 -0.0013583084537740486 0.0 0.0
0.003009303439787933 -0.0016345064551599453 0.0 -0.0016854060094497192 0.0 0.0
0.004535610519460186 -0.0028536922997927094 0.0 -0.0023644475920966135 0.0 0.0
0.00648410699252009 -0.004535537701436887 0.0 -0.0032124746232587154 0.0 0.0
0.008802942529144986 -0.006609113234478992 0.0 -0.004081949509258942 0.0 0.0
0.011540537030415264 -0.009119829910418709 0.0 -0.004976725422606604 0.0 0.0
0.014820204782253502 -0.01218630206856064 0.0 -0.005909249378492937 0.0 0.0
0.01884799302315699 -0.016005960242377215 0.0 -0.006986004619735725 0.0 0.0
0.02383401622513564 -0.020782692937293623 0.0 -0.008335204331216928 0.0 0.0
0.029859688231057203 -0.02659515954028513 0.0 -0.009920270458970426 0.0 0.0
0.0368019969381888 -0.033318693943502176 0.0 -0.011489732123404844 0.0 0.0
0.044303742518016116 -0.040597438571699174 0.0 -0.012579693999680314 0.0 0.0
0.05173959628152909 -0.04780381912213749 0.0 -0.012443328553993466 0.0 0.0
0.05818888012388545 -0.05403706069396885 0.0 -0.010252440574597732 0.0 0.0
0.0625231871844637 -0.05821654157965139 0.0 -0.005361280441394112 0.0 0.0
0.06252318718446077 -0.05821654157964873 0.0 0.005361280441418648 0.0 0.0
0.05818888012387646 -0.054037060693959305 0.0 0.010252440574629151 0.0 0.0
0.05173959628151645 -0.047803819122124835 0.0 0.01244332855401653 0.0 0.0
0.04430374251800123 -0.040597438571685185 0.0 0.012579693999691888 0.0 0.0
0.036801996938171586 -0.03331869394348508 0.0 0.011489732123402707 0.0 0.0
0.029859688231039835 -0.026595159540268476 0.0 0.009920270458968428 0.0 0.0
0.02383401622511855 -0.020782692937278302 0.0 0.008335204331215262 0.0 0.0
0.018847993023139192 -0.016005960242360562 0.0 0.006986004619733421 0.0 0.0
0.01482020478223596 -0.012186302068544208 0.0 0.005909249378487469 0.0 0.0
0.011540537030398687 -0.009119829910407384 0.0 0.004976725422597805 0.0 0.0
0.00880294252913083 -0.006609113234467223 0.0 0.004081949509249783 0.0 0.0
0.006484106992508232 -0.004535537701426118 0.0 0.003212474623253081 0.0 0.0
0.004535610519450908 -0.002853692299784716 0.0 0.0023644475920912844 0.0 0.0
0.003009303439782021 -0.0016345064551543942 0.0 0.0016854060094480539 0.0 0.0
0.0020198262591406557 -0.0009479829255745198 0.0 0.001358308453771967 0.0 0.0
0.0014778204909925985 -0.0006379536443657519 0.0 0.0012598340027631938 0.0 0.0
0.001092352750907688 -0.0004323677539658233 0.0 0.0011472546972181585 0.0 0.0
0.0006633602058235682 -0.00019710791484411905 0.0 0.0010658092349412895 0.0 0.0
0.00025267232905984427 -0.00018748381998288932 0.0 0.0014792368203203343 0.0 0.0
0.0021848555839431294 -0.003568279584548577 0.0 0.00372554735974312 0.0 0.0
0.0016101510993871138 -0.002854178249927966 0.0 -0.003038708711605831 0.0 0.0
0.000167204196130942 -0.00018749916848695425 0.0 -0.0018002772400581846 0.0 0.0
0.00046856601489352057 -0.00013007281539251236 0.0 -0.0013859502700388493 0.0 0.0
0.0008526772014088996 -0.0003196649647631 0.0 -0.0014000420333513675 0.0 0.0
0.0012110682211839627 -0.0005160628174377679 0.0 -0.0015192430028102277 0.0 0.0
0.0016383353327174902 -0.0007447945985510351 0.0 -0.0016268513863287593 0.0 0.0
0.002375825080026185 -0.0011953763648191451 0.0 -0.0018697138525725077 0.0 0.0
0.00356937029649166 -0.00207460670004489 0.0 -0.00243971118879438 0.0 0.0
0.005184599502681658 -0.0034077023677552276 0.0 -0.0033041946265754962 0.0 0.0
0.007117546698807972 -0.005099792989696539 0.0 -0.00425678241845312 0.0 0.0
0.009367075337434035 -0.007134429050057456 0.0 -0.005201728261963884 0.0 0.0
0.012035871266931716 -0.009603840770370686 0.0 -0.0061784683529907125 0.0 0.0
0.01529532884241113 -0.012673383812606742 0.0 -0.007294108862857945 0.0 0.0
0.019336061209919146 -0.016527218942563593 0.0 -0.008652944525923079 0.0 0.0
0.024264261179768182 -0.02126925769872945 0.0 -0.010260065608948238 0.0 0.0
0.030018956536958442 -0.02683655934857687 0.0 -0.011887800890533817 0.0 0.0
0.036347907817418805 -0.032975905300032915 0.0 -0.013044115770565856 0.0 0.0
0.042808610648266195 -0.03924494812580859 0.0 -0.013049088525994179 0.0 0.0
0.04869908454772236 -0.04494643680956023 0.0 -0.010996321448872637 0.0 0.0
0.052992313033099384 -0.04908819328554914 0.0 -0.005936358331227576 0.0 0.0
0.05299231303309636 -0.04908819328554492 0.0 0.005936358331251279 0.0 0.0
0.048699084547714655 -0.04494643680955268 0.0 0.010996321448903223 0.0 0.0
0.042808610648255446 -0.03924494812579815 0.0 0.013049088526017716 0.0 0.0
0.03634790781740631 -0.03297590530002337 0.0 0.013044115770576847 0.0 0.0
0.030018956536944016 -0.02683655934856466 0.0 0.011887800890531541 0.0 0.0
0.024264261179753596 -0.021269257698714794 0.0 0.010260065608944768 0.0 0.0
0.019336061209905275 -0.016527218942549382 0.0 0.008652944525921025 0.0 0.0
0.015295328842396913 -0.012673383812592975 0.0 0.0072941088628551976 0.0 0.0
0.012035871266917256 -0.009603840770359806 0.0 0.006178468352984301 0.0 0.0
0.009367075337420566 -0.0071344290500459095 0.0 0.005201728261956806 0.0 0.0
0.007117546698796537 -0.005099792989686103 0.0 0.004256782418444793 0.0 0.0
0.005184599502671819 -0.0034077023677492324 0.0 0.0033041946265695565 0.0 0.0
0.0035693702964844087 -0.0020746067000398938 0.0 0.002439711188789828 0.0 0.0
0.0023758250800218067 -0.0011953763648164806 0.0 0.0018697138525702872 0.0 0.0
0.001638335332715679 -0.0007447945985508131 0.0 0.0016268513863255674 0.0 0.0
0.0012110682211830537 -0.0005160628174377679 0.0 0.0015192430028088677 0.0 0.0
0.0008526772014083306 -0.00031966496476326656 0.0 0.0014000420333495356 0.0 0.0
0.0004685660148932985 -0.0001300728153922348 0.0 0.0013859502700365178 0.0 0.0
0.00016720419613074078 -0.0001874991684863575 0.0 0.001800277240055409 0.0 0.0
0.0016101510993826867 -0.0028541782499222216 0.0 0.0030387087115988087 0.0 0.0
0.0011720832937180611 -0.002262284172528231 0.0 -0.0024919955999991583 0.0 0.0
0.00010303193197398058 -0.00019395899936486272 0.0 -0.0020251199609552517 0.0 0.0
0.000298255598342477 -7.402448060089828e-05 0.0 -0.0016567377045589582 0.0 0.0
0.0006190250184932786 -0.0002120270664714985 0.0 -0.0016323931648534462 0.0 0.0
0.0009341820055690508 -0.0003906093193318805 0.0 -0.001751305506632883 0.0 0.0
0.0012768606386209316 -0.000565046602207353 0.0 -0.0018616016616214426 0.0 0.0
0.001802848106274818 -0.0008456000964064403 0.0 -0.00204685550136377 0.0 0.0
0.0026677371081916673 -0.001409707234364288 0.0 -0.0024636149180504163 0.0 0.0
0.003902163677223021 -0.0023508740209665646 0.0 -0.003183638103919445 0.0 0.0
0.00543955618682803 -0.003637069403342963 0.0 -0.0041201812669799665 0.0 0.0
0.007211797151848359 -0.005203849577609443 0.0 -0.005098329872216423 0.0 0.0
0.00928546692277362 -0.007088396855425394 0.0 -0.00607244359538181 0.0 0.0
0.011794872966382333 -0.009423026685674074 0.0 -0.007155491254573182 0.0 0.0
0.014906884278205426 -0.01236752915859407 0.0 -0.008453785926506557 0.0 0.0
0.018730484226563177 -0.016032451255681757 0.0 -0.009967239010746615 0.0 0.0
0.02327259302048232 -0.020413728638823514 0.0 -0.011512780279405443 0.0 0.0
0.028382143649616262 -0.025368364879275074 0.0 -0.012694529371284069 0.0 0.0
0.03378894267154582 -0.03062707813096721 0.0 -0.012876610952978873 0.0 0.0
0.039053955121858275 -0.03573720671306457 0.0 -0.011173579978424553 0.0 0.0
0.04332934953752823 -0.03986030121032447 0.0 -0.006380255592016937 0.0 0.0
0.04332934953752536 -0.039860301210320026 0.0 0.0063802555920377535 0.0 0.0
0.03905395512185218 -0.03573720671305591 0.0 0.011173579978454085 0.0 0.0
0.03378894267153687 -0.030627078130960328 0.0 0.012876610953000633 0.0 0.0
0.02838214364960598 -0.025368364879265082 0.0 0.01269452937129295 0.0 0.0
0.02327259302047087 -0.020413728638811524 0.0 0.01151278027940239 0.0 0.0
0.018730484226551367 -0.01603245125567021 0.0 0.009967239010741535 0.0 0.0
0.014906884278194976 -0.012367529158584967 0.0 0.008453785926504975 0.0 0.0
0.011794872966371758 -0.009423026685664748 0.0 0.007155491254571045 0.0 0.0
0.009285466922762373 -0.00708839685541407 0.0 0.006072443595375954 0.0 0.0
0.007211797151837909 -0.005203849577598119 0.0 0.005098329872208207 0.0 0.0
0.005439556186819183 -0.0036370694033360795 0.0 0.004120181266969725 0.0 0.0
0.0039021636772155893 -0.0023508740209604584 0.0 0.0031836381039138384 0.0 0.0
0.0026677371081865464 -0.0014097072343610684 0.0 0.0024636149180475575 0.0 0.0
0.0018028481062719037 -0.000845600096404775 0.0 0.0020468555013617162 0.0 0.0
0.0012768606386197867 -0.0005650466022074641 0.0 0.0018616016616189446 0.0 0.0
0.0009341820055684125 -0.00039060931933126986 0.0 0.0017513055066313843 0.0 0.0
0.0006190250184926471 -0.00021202706647122094 0.0 0.0016323931648515033 0.0 0.0
0.00029825559834228965 -7.40244806007595e-05 0.0 0.0016567377045567655 0.0 0.0
0.0001030319319736267 -0.00019395899936459904 0.0 0.002025119960953059 0.0 0.0
0.0011720832937148068 -0.0022622841725242543 0.0 0.002491995599994662 0.0 0.0
0.0008444036805218963 -0.001790284590978658 0.0 -0.0020951298912705862 0.0 0.0
4.348724955588468e-05 -0.00019907108727462708 0.0 -0.0021619584885594623 0.0 0.0
0.0001449176030558566 -2.231913132316743e-05 0.0 -0.0018760322370672544 0.0 0.0
0.00039368043470742325 -0.00011102041588473277 0.0 -0.0018312896763241493 0.0 0.0
0.0006498939077984461 -0.00025824180125089136 0.0 -0.0019412033048875066 0.0 0.0
0.0009157233310300161 -0.00040225404449800717 0.0 -0.002087942855592273 0.0 0.0
0.001275607351261733 -0.000575238507846576 0.0 -0.002251401373249584 0.0 0.0
0.0018471028984414356 -0.0008790964016920366 0.0 -0.002491224769674033 0.0 0.0
0.0026839185514072744 -0.0014337733336589054 0.0 -0.0029628835623035643 0.0 0.0
0.003785023091660386 -0.0022737824243128646 0.0 -0.0037105408968569897 0.0 0.0
0.00507905772730307 -0.003356744804632994 0.0 -0.004612507098427532 0.0 0.0
0.0065696158578599645 -0.004668219882802749 0.0 -0.005544579600070321 0.0 0.0
0.008352423090735119 -0.0062850301575281264 0.0 -0.006557690325512983 0.0 0.0
0.0105551798995401 -0.008335652392600812 0.0 -0.0077163667741317055 0.0 0.0
0.013284651240156868 -0.010924604259241022 0.0 -0.009036909905023371 0.0 0.0
0.016587269189986723 -0.014097466605346165 0.0 -0.010404093434550898 0.0 0.0
0.020431424094420073 -0.01781368621488344 0.0 -0.011486218081092014 0.0 0.0
0.024691630418522542 -0.02196576376212822 0.0 -0.011804869739077573 0.0 0.0
0.02919750694748506 -0.02637300752988181 0.0 -0.010692285198254936 0.0 0.0
0.03342987976982277 -0.030457670083506194 0.0 -0.006675196328241484 0.0 0.0
0.033429879769820786 -0.030457670083504862 0.0 0.0066751963282596916 0.0 0.0
0.02919750694748055 -0.026373007529877146 0.0 0.010692285198281748 0.0 0.0
0.024691630418515548 -0.021965763762123336 0.0 0.01180486973909678 0.0 0.0
0.02043142409441226 -0.017813686214879 0.0 0.011486218081098953 0.0 0.0
0.01658726918997841 -0.014097466605340392 0.0 0.010404093434548345 0.0 0.0
0.013284651240148146 -0.01092460425923436 0.0 0.009036909905018986 0.0 0.0
0.01055517989953321 -0.008335652392594595 0.0 0.00771636677413029 0.0 0.0
0.008352423090728034 -0.006285030157521687 0.0 0.006557690325512289 0.0 0.0
0.006569615857852082 -0.0046682198827960875 0.0 0.005544579600065325 0.0 0.0
0.005079057727295805 -0.003356744804628331 0.0 0.004612507098420482 0.0 0.0
0.003785023091654044 -0.0022737824243075355 0.0 0.003710540896850023 0.0 0.0
0.0026839185514025837 -0.0014337733336554637 0.0 0.0029628835622996785 0.0 0.0
0.001847102898438105 -0.0008790964016897052 0.0 0.002491224769672201 0.0 0.0
0.0012756073512600191 -0.0005752385078456879 0.0 0.002251401373247336 0.0 0.0
0.00091572333102935 -0.000402254044497119 0.0 0.0020879428555892476 0.0 0.0
0.0006498939077981547 -0.0002582418012506138 0.0 0.001941203304885064 0.0 0.0
0.0003936804347070555 -0.00011102041588478828 0.0 0.0018312896763220399 0.0 0.0
0.00014491760305571089 -2.2319131322751096e-05 0.0 0.001876032237064923 0.0 0.0
4.3487249555593244e-05 -0.0001990710872744189 0.0 0.0021619584885573806 0.0 0.0
0.0008444036805198285 -0.001790284590975663 0.0 0.0020951298912678107 0.0 0.0
0.0006118487639446418 -0.0014448729393412851 0.0 -0.0018527077502979161 0.0 0.0
-1.656313100614759e-05 -0.0001984921222137337 0.0 -0.002248536953824515 0.0 0.0
4.0986685537064416e-06 2.7598066638157004e-05 0.0 -0.002040321504941378 0.0 0.0
0.00017691432558372688 -1.569436971143867e-05 0.0 -0.0019879231180898738 0.0 0.0
0.000362749624176803 -0.0001240378126265984 0.0 -0.002083277728775368 0.0 0.0
0.0005438746809758449 -0.00023057515166424736 0.0 -0.002245420233345674 0.0 0.0
0.0007669115708590774 -0.00034213664018434287 0.0 -0.0024440345084265624 0.0 0.0
0.0010906919243185015 -0.0004938119916619854 0.0 -0.0026313797121622906 0.0 0.0
0.0015674420183519472 -0.0007340002397735468 0.0 -0.0028275796118613084 0.0 0.0
0.002202414430144739 -0.0011213059637653622 0.0 -0.003194909239147836 0.0 0.0
0.0029917631951380114 -0.0016873256055713881 0.0 -0.0038143232926399206 0.0 0.0
0.0038919501547340085 -0.0024134457305393653 0.0 -0.004576896492351212 0.0 0.0
0.004964596243369493 -0.0033245772227934456 0.0 -0.005477171176255624 0.0 0.0
0.006286889136962695 -0.0045018495164597105 0.0 -0.00647076802691493 0.0 0.0
0.00793529485733628 -0.006023373202977966 0.0 -0.007552544046295517 0.0 0.0
0.00998384389084038 -0.00796325422086741 0.0 -0.008672334355468492 0.0 0.0
0.012513868049228771 -0.010394510489653452 0.0 -0.009643947860443702 0.0 0.0
0.015561716938123735 -0.013343100324493928 0.0 -0.009996949346284645 0.0 0.0
0.019109191442581608 -0.01685366004586797 0.0 -0.009409552983178748 0.0 0.0
0.02314980564675291 -0.020787318142847733 0.0 -0.006706080426151506 0.0 0.0
0.023149805646752036 -0.020787318142847067 0.0 0.006706080426166328 0.0 0.0
0.01910919144257897 -0.016853660045865526 0.0 0.00940955298320173 0.0 0.0
0.015561716938118766 -0.013343100324487933 0.0 0.009996949346301687 0.0 0.0
0.01251386804922354 -0.010394510489650122 0.0 0.009643947860448088 0.0 0.0
0.009983843890835523 -0.007963254220862748 0.0 0.008672334355463829 0.0 0.0
0.007935294857331188 -0.006023373202972193 0.0 0.00755254404629091 0.0 0.0
0.006286889136959156 -0.00450184951645527 0.0 0.006470768026913987 0.0 0.0
0.004964596243365926 -0.003324577222789671 0.0 0.005477171176255624 0.0 0.0
0.00389195015472954 -0.002413445730537811 0.0 0.004576896492346605 0.0 0.0
0.002991763195134195 -0.0016873256055700558 0.0 0.0038143232926342585 0.0 0.0
0.0022024144301412 -0.0011213059637635858 0.0 0.003194909239142396 0.0 0.0
0.0015674420183495602 -0.0007340002397715484 0.0 0.002827579611858977 0.0 0.0
0.0010906919243168084 -0.0004938119916617634 0.0 0.0026313797121611804 0.0 0.0
0.0007669115708583557 -0.00034213664018512 0.0 0.0024440345084244253 0.0 0.0
0.0005438746809755951 -0.00023057515166513554 0.0 0.0022454202333435924 0.0 0.0
0.00036274962417665035 -0.000124037812626987 0.0 0.002083277728773064 0.0 0.0
0.00017691432558369913 -1.5694369711105605e-05 0.0 0.0019879231180874313 0.0 0.0
4.098668553637053e-06 2.7598066638573338e-05 0.0 0.0020403215049382972 0.0 0.0
-1.656313100628637e-05 -0.00019849212221377532 0.0 0.0022485369538227384 0.0 0.0
0.0006118487639435038 -0.0014448729393396155 0.0 0.001852707750296334 0.0 0.0
0.00045094219126144697 -0.0011845623202765415 0.0 -0.0016813969992843236 0.0 0.0
-7.279534375828622e-05 -0.00018848772858817697 0.0 -0.0022874920317324243 0.0 0.0
-0.0001267240073557635 7.489265120552702e-05 0.0 -0.002152109846704303 0.0 0.0
-3.155680379249293e-05 7.496055382444355e-05 0.0 -0.0020952833025495443 0.0 0.0
7.631561733352499e-05 9.174431444769482e-06 0.0 -0.0021717139697943477 0.0 0.0
0.00016597846573547514 -5.509995685404334e-05 0.0 -0.0023351813383573616 0.0 0.0
0.00025299941658514513 -0.00010878136079051082 0.0 -0.002555423831693826 0.0 0.0
0.0003622098613553226 -0.0001623042172859135 0.0 -0.002745404511757532 0.0 0.0
0.0005197728355715719 -0.00023494740618779097 0.0 -0.00290085211680452 0.0 0.0
0.0007186402249629298 -0.00033509559874178585 0.0 -0.003058976395290902 0.0 0.0
0.0009823520979780898 -0.0004679323771592525 0.0 -0.0033313042889273614 0.0 0.0
0.0012811395244472917 -0.0006401534893034633 0.0 -0.0037542140012432057 0.0 0.0
0.0016377759047155188 -0.0008677713964058142 0.0 -0.004368775839954431 0.0 0.0
0.00207967499975982 -0.0011786210476623094 0.0 -0.005188553639586646 0.0 0.0
0.0026464697826372174 -0.0016126204246251774 0.0 -0.006210726684880652 0.0 0.0
0.003432695853124973 -0.0022770464459449524 0.0 -0.0073513772344539485 0.0 0.0
0.004620364415535122 -0.0033606448818770396 0.0 -0.008389801935984542 0.0 0.0
0.006438388695936645 -0.005055933466704632 0.0 -0.008844838053105597 0.0 0.0
0.008956961637657412 -0.007444521948748228 0.0 -0.008220736174246845 0.0 0.0
0.01236065727457561 -0.010913874437250115 0.0 -0.006637529971903533 0.0 0.0
0.012360657274575595 -0.010913874437247895 0.0 0.0066375299719159675 0.0 0.0
0.008956961637656302 -0.007444521948744676 0.0 0.008220736174265386 0.0 0.0
0.006438388695933994 -0.005055933466700191 0.0 0.008844838053116588 0.0 0.0
0.004620364415533193 -0.003360644881874375 0.0 0.008389801935986485 0.0 0.0
0.0034326958531239737 -0.00227704644594362 0.0 0.007351377234450229 0.0 0.0
0.0026464697826359407 -0.001612620424623179 0.0 0.00621072668487771 0.0 0.0
0.0020796749997594594 -0.0011786210476629755 0.0 0.005188553639585591 0.0 0.0
0.0016377759047153106 -0.000867771396409589 0.0 0.00436877583995382 0.0 0.0
0.0012811395244465978 -0.0006401534893027971 0.0 0.0037542140012395975 0.0 0.0
0.0009823520979776734 -0.00046793237715792024 0.0 0.0033313042889233646 0.0 0.0
0.0007186402249624996 -0.0003350955987404536 0.0 0.0030589763952864613 0.0 0.0
0.0005197728355713083 -0.00023494740618712484 0.0 0.0029008521168034096 0.0 0.0
0.00036220986135504507 -0.00016230421728580247 0.0 0.0027454045117571158 0.0 0.0
0.0002529994165850896 -0.00010878136079106593 0.0 0.0025554238316915223 0.0 0.0
0.0001659784657357527 -5.509995685548663e-05 0.0 0.00233518133835367 0.0 0.0
7.631561733355274e-05 9.174431443437214e-06 0.0 0.002171713969791378 0.0 0.0
-3.155680379236803e-05 7.496055382427702e-05 0.0 0.002095283302547324 0.0 0.0
-0.000126724007355708 7.48926512061654e-05 0.0 0.0021521098467023048 0.0 0.0
-7.279534375841112e-05 -0.0001884877285880382 0.0 0.00228749203173062 0.0 0.0
0.00045094219126094737 -0.0011845623202754365 0.0 0.001681396999282575 0.0 0.0
0.0003368614803020281 -0.0009720980891656794 0.0 -0.0015335464115366626 0.0 0.0
-0.00012435885641438882 -0.00016701992287823653 0.0 -0.0022753528614272156 0.0 0.0
-0.0002483510216055862 0.00011912064897612318 0.0 -0.0022108786335021113 0.0 0.0
-0.00023200004518836304 0.0001610737257002337 0.0 -0.0021504361487804657 0.0 0.0
-0.00020630408845689896 0.00013945084288347065 0.0 -0.0022026556566693556 0.0 0.0
-0.00021285998367290282 0.00012058740638309917 0.0 -0.0023471789857755776 0.0 0.0
-0.000264061360928991 0.0001268214235078391 0.0 -0.0025579727801970376 0.0 0.0
-0.00036177713885361673 0.00016411828815188212 0.0 -0.002746299616307596 0.0 0.0
-0.0005175269265205035 0.00023334017012643926 0.0 -0.0029003813278351276 0.0 0.0
-0.0007168913459662529 0.00033396784629124987 0.0 -0.003058603412008587 0.0 0.0
-0.0009816273750016952 0.00046815322926696545 0.0 -0.0033306131008025153 0.0 0.0
-0.00128445469598773 0.0006445624067588085 0.0 -0.0037524628343764688 0.0 0.0
-0.0016530413319074538 0.0008805960952762426 0.0 -0.004365035912306137 0.0 0.0
-0.002107999849186637 0.0011954844120871666 0.0 -0.00518772417561536 0.0 0.0
-0.00263209354514167 0.0015753768821618053 0.0 -0.006230421753239013 0.0 0.0
-0.003120265882353021 0.0019340074380778116 0.0 -0.007461412300394099 0.0 0.0
-0.003319826195746986 0.0020826438796361924 0.0 -0.008866964620781181 0.0 0.0
-0.002850844159147589 0.0017012579380335513 0.0 -0.010398080416308075 0.0 0.0
-0.001384258700578414 0.0007066485119560095 0.0 -0.011542964981653803 0.0 0.0
0.0017681002393947765 -0.002126568020297981 0.0 -0.009602197239944932 0.0 0.0
0.0017681002393945405 -0.002126568020299535 0.0 0.00960219723995731 0.0 0.0
-0.0013842587005788443 0.000706648511953123 0.0 0.011542964981667347 0.0 0.0
-0.002850844159147395 0.0017012579380333293 0.0 0.010398080416313904 0.0 0.0
-0.003319826195744585 0.0020826438796361924 0.0 0.008866964620780071 0.0 0.0
-0.003120265882350176 0.0019340074380775896 0.0 0.007461412300388992 0.0 0.0
-0.0026320935451390887 0.0015753768821598069 0.0 0.006230421753235793 0.0 0.0
-0.002107999849183903 0.0011954844120833918 0.0 0.005187724175613639 0.0 0.0
-0.0016530413319042064 0.0008805960952735781 0.0 0.004365035912306192 0.0 0.0
-0.0012844546959845105 0.000644562406756588 0.0 0.003752462834373471 0.0 0.0
-0.0009816273749985033 0.0004681532292660773 0.0 0.0033306131008004614 0.0 0.0
-0.0007168913459637827 0.00033396784629013965 0.0 0.003058603412004257 0.0 0.0
-0.0005175269265187271 0.00023334017012477393 0.0 0.0029003813278345725 0.0 0.0
-0.00036177713885267304 0.0001641182881507719 0.0 0.002746299616306208 0.0 0.0
-0.0002640613609285053 0.00012682142350650683 0.0 0.0025579727801942898 0.0 0.0
-0.00021285998367212566 0.00012058740638098975 0.0 0.0023471789857718584 0.0 0.0
-0.00020630408845645487 0.00013945084288197185 0.0 0.002202655656667024 0.0 0.0
-0.00023200004518815487 0.00016107372570001166 0.0 0.0021504361487778845 0.0 0.0
-0.000248351021605267 0.00011912064897606767 0.0 0.0022108786334995023 0.0 0.0
-0.00012435885641456923 -0.00016701992287786183 0.0 0.0022753528614253282 0.0 0.0
0.0003368614803018477 -0.000972098089164675 0.0 0.0015335464115347752 0.0 0.0
0.000248068985834321 -0.0007795056890643887 0.0 -0.0013769637203845941 0.0 0.0
-0.00017244697813599552 -0.0001368151084837621 0.0 -0.002213082624706958 0.0 0.0
-0.00036180261928300816 0.00016144171587600953 0.0 -0.0022147696973170983 0.0 0.0
-0.00042427318471213726 0.0002422075262932255 0.0 -0.002151183212062535 0.0 0.0
-0.000482530540243456 0.00026504816689043587 0.0 -0.0021734711015994335 0.0 0.0
-0.0005876564410575574 0.0002931726878814267 0.0 -0.002288008213479048 0.0 0.0
-0.0007768645500254717 0.00035934717642638336 0.0 -0.002457532192832429 0.0 0.0
-0.0010902685516208793 0.0004953290972519175 0.0 -0.002632997442986562 0.0 0.0
-0.0015650825577936262 0.000732297806974147 0.0 -0.0028265597786754637 0.0 0.0
-0.0022007558570378005 0.0011200086094729222 0.0 -0.0031934535213937187 0.0 0.0
-0.0029912085683742456 0.001687530056392328 0.0 -0.003813546462188011 0.0 0.0
-0.0038945871459179493 0.002417967011662858 0.0 -0.004572994878123904 0.0 0.0
-0.004977825944471742 0.003339768603986215 0.0 -0.005461796018476794 0.0 0.0
-0.006315982862667699 0.0045255669297843415 0.0 -0.006453840538640621 0.0 0.0
-0.007930122131994025 0.00598929060898179 0.0 -0.007608746736183891 0.0 0.0
-0.009708078592055289 0.0076203623960686695 0.0 -0.009019423352326805 0.0 0.0
-0.011343151690972789 0.009109716847703009 0.0 -0.010722249847844978 0.0 0.0
-0.012315943722068928 0.009952319381874908 0.0 -0.012600455678942302 0.0 0.0
-0.01178835460178812 0.00916838621649374 0.0 -0.013430730177901473 0.0 0.0
-0.008253634915058872 0.005579043270287798 0.0 -0.011207178409880447 0.0 0.0
-0.008253634915059496 0.005579043270288908 0.0 0.011207178409895324 0.0 0.0
-0.011788354601787787 0.009168386216491742 0.0 0.013430730177922401 0.0 0.0
-0.012315943722065945 0.009952319381868913 0.0 0.012600455678955458 0.0 0.0
-0.011343151690966419 0.009109716847696125 0.0 0.010722249847844922 0.0 0.0
-0.009708078592048294 0.007620362396060454 0.0 0.009019423352321365 0.0 0.0
-0.007930122131987821 0.005989290608974462 0.0 0.007608746736180172 0.0 0.0
-0.006315982862661787 0.004525566929779901 0.0 0.006453840538636457 0.0 0.0
-0.004977825944465039 0.0033397686039793317 0.0 0.005461796018475185 0.0 0.0
-0.003894587145910962 0.002417967011656419 0.0 0.004572994878118519 0.0 0.0
-0.002991208568367383 0.0016875300563863327 0.0 0.0038135464621825987 0.0 0.0
-0.002200755857032305 0.0011200086094691475 0.0 0.0031934535213869186 0.0 0.0
-0.001565082557789678 0.000732297806973703 0.0 0.0028265597786745755 0.0 0.0
-0.0010902685516186866 0.0004953290972521396 0.0 0.0026329974429848413 0.0 0.0
-0.0007768645500241325 0.00035934717642527314 0.0 0.0024575321928301253 0.0 0.0
-0.0005876564410565374 0.00029317268788275896 0.0 0.0022880082134764945 0.0 0.0
-0.00048253054024272046 0.0002650481668911575 0.0 0.0021734711015979347 0.0 0.0
-0.00042427318471163766 0.00024220752629261488 0.0 0.002151183212060509 0.0 0.0
-0.00036180261928264734 0.00016144171587567646 0.0 0.0022147696973147946 0.0 0.0
-0.00017244697813586368 -0.00013681510848378986 0.0 0.0022130826247049595 0.0 0.0
0.0002480689858340504 -0.0007795056890635976 0.0 0.001376963720382901 0.0 0.0
0.00017067167799764138 -0.0006035500023713614 0.0 -0.001218002898999676 0.0 0.0
-0.00021907325763254049 -9.84168736390123e-05 0.0 -0.002100138331508433 0.0 0.0
-0.0004683501070949503 0.00020246832180037533 0.0 -0.002163456457220353 0.0 0.0
-0.0006081801677303988 0.0003183742396869471 0.0 -0.00209671394515773 0.0 0.0
-0.0007503245253505514 0.0003837066848769721 0.0 -0.0020844578651326717 0.0 0.0
-0.0009529442211710509 0.0004580511390006592 0.0 -0.0021489129096002035 0.0 0.0
-0.0012841735156520762 0.0005910445116276142 0.0 -0.002268037233084802 0.0 0.0
-0.0018461936435111848 0.0008798998864315566 0.0 -0.002494144831215739 0.0 0.0
-0.002681451909154725 0.0014313097140539188 0.0 -0.002959079938194442 0.0 0.0
-0.0037838190683079503 0.0022724453757112517 0.0 -0.0037078339514625136 0.0 0.0
-0.005079088004129179 0.003357082743324913 0.0 -0.004612178987231208 0.0 0.0
-0.006570632139749288 0.004670875115958539 0.0 -0.005539221835228314 0.0 0.0
-0.00835986683482405 0.006295526165673859 0.0 -0.00652781711507211 0.0 0.0
-0.010579285112475259 0.008357547842712476 0.0 -0.007656405839040814 0.0 0.0
-0.013294292406063044 0.010911947506567987 0.0 -0.009051040494915952 0.0 0.0
-0.01639148637051424 0.01384157343458603 0.0 -0.010890719540438243 0.0 0.0
-0.0194885474305196 0.016760773127367123 0.0 -0.013331155393789096 0.0 0.0
-0.021820421141820673 0.018853546478106775 0.0 -0.016006329453302603 0.0 0.0
-0.02196387656807966 0.018695989188481477 0.0 -0.01742532022790233 0.0 0.0
-0.01776129380514177 0.014038235119672171 0.0 -0.014470467029186418 0.0 0.0
-0.01776129380514191 0.01403823511967106 0.0 0.014470467029202239 0.0 0.0
-0.02196387656807816 0.018695989188479034 0.0 0.01742532022792387 0.0 0.0
-0.021820421141815163 0.018853546478100114 0.0 0.016006329453317036 0.0 0.0
-0.01948854743051004 0.016760773127359574 0.0 0.013331155393792538 0.0 0.0
-0.016391486370503486 0.013841573434576482 0.0 0.010890719540433996 0.0 0.0
-0.013294292406053523 0.010911947506557995 0.0 0.009051040494911816 0.0 0.0
-0.010579285112465961 0.008357547842703816 0.0 0.007656405839035402 0.0 0.0
-0.008359866834813934 0.0062955261656649775 0.0 0.0065278171150689734 0.0 0.0
-0.0065706321397389494 0.0046708751159492135 0.0 0.005539221835222596 0.0 0.0
-0.005079088004118805 0.0033570827433169192 0.0 0.004612178987222576 0.0 0.0
-0.0037838190682992837 0.0022724453757050345 0.0 0.0037078339514525493 0.0 0.0
-0.0026814519091483066 0.0014313097140487008 0.0 0.002959079938190917 0.0 0.0
-0.0018461936435072504 0.0008798998864300023 0.0 0.002494144831213324 0.0 0.0
-0.0012841735156497863 0.000591044511626948 0.0 0.0022680372330825815 0.0 0.0
-0.000952944221169788 0.00045805113899943795 0.0 0.0021489129095976223 0.0 0.0
-0.0007503245253494134 0.000383706684876417 0.0 0.0020844578651306733 0.0 0.0
-0.0006081801677296217 0.0003183742396869471 0.0 0.0020967139451554817 0.0 0.0
-0.0004683501070944507 0.00020246832180054186 0.0 0.002163456457218438 0.0 0.0
-0.00021907325763230456 -9.841687363899843e-05 0.0 0.002100138331506629 0.0 0.0
0.0001706716779973777 -0.0006035500023709155 0.0 0.0012180028989981495 0.0 0.0
0.00010083978331713872 -0.0004444118916213935 0.0 -0.0010570089389727866 0.0 0.0
-0.0002661984970785819 -5.337265958899051e-05 0.0 -0.0019414899471203173 0.0 0.0
-0.0005692535068744231 0.00024309833177499351 0.0 -0.0020578430566162154 0.0 0.0
-0.0007838923019873462 0.00038894757482454967 0.0 -0.001988172104310737 0.0 0.0
-0.0010068588124666766 0.0004944727891061929 0.0 -0.0019332195627100868 0.0 0.0
-0.0013062131978218705 0.0006139162220932803 0.0 -0.0019447583836615656 0.0 0.0
-0.0018086612394835333 0.0008598312008566422 0.0 -0.0020743516295128606 0.0 0.0
-0.0026660383576261326 0.0014089376333836778 0.0 -0.0024636002312549143 0.0 0.0
-0.003900056845513991 0.00234835887412177 0.0 -0.003178290940279188 0.0 0.0
-0.005439335012473623 0.0036365026564715297 0.0 -0.00411770133451389 0.0 0.0
-0.0072124405505338 0.005204666681296155 0.0 -0.005099025694845549 0.0 0.0
-0.009284460535238695 0.007088348449449278 0.0 -0.006067786299225886 0.0 0.0
-0.011792283944345436 0.009423283148588979 0.0 -0.007116856053123233 0.0 0.0
-0.014913668251676226 0.012375712329943056 0.0 -0.008348040759717013 0.0 0.0
-0.01874812498460182 0.01603853891991891 0.0 -0.009899338296619653 0.0 0.0
-0.023200021510330487 0.02029942097806825 0.0 -0.01203679098606586 0.0 0.0
-0.027782243777192184 0.024650734116943074 0.0 -0.014983746626823558 0.0 0.0
-0.03137474574398527 0.02793777780538198 0.0 -0.01834509485776431 0.0 0.0
-0.031991103287895756 0.028152598902677184 0.0 -0.02039088075163764 0.0 0.0
-0.02658747901630755 0.022204435913993237 0.0 -0.01773114648717472 0.0 0.0
-0.026587479016306967 0.022204435913992793 0.0 0.017731146487194982 0.0 0.0
-0.03199110328789262 0.028152598902674297 0.0 0.02039088075166573 0.0 0.0
-0.031374745743977445 0.027937777805375097 0.0 0.01834509485778435 0.0 0.0
-0.027782243777179708 0.02465073411692953 0.0 0.014983746626826777 0.0 0.0
-0.02320002151031688 0.020299420978052263 0.0 0.012036790986063112 0.0 0.0
-0.018748124984589033 0.016038538919905365 0.0 0.009899338296616572 0.0 0.0
-0.014913668251663507 0.012375712329929511 0.0 0.0083480407597111 0.0 0.0
-0.011792283944332169 0.009423283148575656 0.0 0.007116856053119125 0.0 0.0
-0.00928446053522488 0.007088348449436843 0.0 0.006067786299218725 0.0 0.0
-0.007212440550520227 0.005204666681285053 0.0 0.0050990256948358625 0.0 0.0
-0.005439335012461875 0.003636502656462426 0.0 0.004117701334503093 0.0 0.0
-0.0039000568455051995 0.0023483588741157746 0.0 0.003178290940273859 0.0 0.0
-0.002666038357619846 0.0014089376333784598 0.0 0.002463600231251112 0.0 0.0
-0.0018086612394802443 0.0008598312008551989 0.0 0.002074351629510779 0.0 0.0
-0.0013062131978200595 0.0006139162220932803 0.0 0.0019447583836597893 0.0 0.0
-0.0010068588124652542 0.0004944727891049716 0.0 0.0019332195627090876 0.0 0.0
-0.0007838923019864719 0.00038894757482454967 0.0 0.0019881721043086276 0.0 0.0
-0.0005692535068737847 0.00024309833177504903 0.0 0.00205784305661455 0.0 0.0
-0.0002661984970784223 -5.337265958889337e-05 0.0 0.0019414899471184022 0.0 0.0
0.00010083978331708321 -0.0004444118916211385 0.0 0.0010570089389716764 0.0 0.0
3.812263903389679e-05 -0.0003034292077588596 0.0 -0.0008921799552956688 0.0 0.0
-0.00031420752298766397 -3.7385330876604783e-06 0.0 -0.0017424145467717644 0.0 0.0
-0.0006655721578959495 0.00028347461904704163 0.0 -0.001899371292891222 0.0 0.0
-0.0009515741854122101 0.0004547093731243623 0.0 -0.0018242766059400617 0.0 0.0
-0.0012498832188851117 0.0005928775529767671 0.0 -0.001724824202438635 0.0 0.0
-0.0016588347220271166 0.0007827522807962728 0.0 -0.0017115469631124869 0.0 0.0
-0.0023781322092494006 0.0012060878221707982 0.0 -0.0018928542058709308 0.0 0.0
-0.0035672311857421757 0.00207291400346854 0.0 -0.0024380136110166706 0.0 0.0
-0.005183678946306794 0.0034058440878776963 0.0 -0.0032973614713717736 0.0 0.0
-0.007118368661346894 0.005100243302443408 0.0 -0.004254143309714131 0.0 0.0
-0.009368203290645319 0.007135580521618001 0.0 -0.005202191541752943 0.0 0.0
-0.012032880641018123 0.009600937221381667 0.0 -0.006174697910060978 0.0 0.0
-0.015280095106348368 0.012659903846358622 0.0 -0.007254036720601098 0.0 0.0
-0.019313985557561336 0.01651021656806062 0.0 -0.008521211419502461 0.0 0.0
-0.024276151316309016 0.021284146400189163 0.0 -0.010113887177896352 0.0 0.0
-0.030079288783816494 0.026871192315250703 0.0 -0.012299627026801818 0.0 0.0
-0.03612172994657033 0.032631904027532244 0.0 -0.015353768018763925 0.0 0.0
-0.04092075732000214 0.03705236974083159 0.0 -0.01910503476187292 0.0 0.0
-0.04184100148247427 0.03749045449266952 0.0 -0.021949563029594665 0.0 0.0
-0.03506120822015869 0.030163703396356212 0.0 -0.02085521820183056 0.0 0.0
-0.03506120822015793 0.030163703396356434 0.0 0.020855218201852266 0.0 0.0
-0.04184100148246894 0.037490454492662195 0.0 0.02194956302962242 0.0 0.0
-0.04092075731999225 0.03705236974082071 0.0 0.019105034761894596 0.0 0.0
-0.03612172994655546 0.03263190402752092 0.0 0.015353768018769393 0.0 0.0
-0.030079288783800277 0.026871192315238046 0.0 0.012299627026800236 0.0 0.0
-0.024276151316293126 0.021284146400177395 0.0 0.010113887177892827 0.0 0.0
-0.019313985557545245 0.016510216568048186 0.0 0.008521211419495633 0.0 0.0
-0.015280095106331722 0.012659903846343967 0.0 0.007254036720597157 0.0 0.0
-0.012032880641001081 0.009600937221363903 0.0 0.006174697910055454 0.0 0.0
-0.00936820329062868 0.007135580521599794 0.0 0.005202191541743034 0.0 0.0
-0.007118368661332489 0.005100243302427643 0.0 0.004254143309703834 0.0 0.0
-0.00518367894629565 0.0034058440878677043 0.0 0.003297361471365695 0.0 0.0
-0.003567231185733606 0.0020729140034615456 0.0 0.0024380136110117856 0.0 0.0
-0.0023781322092444115 0.0012060878221661353 0.0 0.0018928542058674336 0.0 0.0
-0.0016588347220246602 0.0007827522807952736 0.0 0.0017115469631107938 0.0 0.0
-0.0012498832188835643 0.0005928775529773223 0.0 0.0017248242024374971 0.0 0.0
-0.0009515741854111553 0.0004547093731237517 0.0 0.0018242766059386462 0.0 0.0
-0.0006655721578952764 0.00028347461904695836 0.0 0.0018993712928899453 0.0 0.0
-0.00031420752298733784 -3.7385330877021117e-06 0.0 0.001742414546770099 0.0 0.0
3.812263903400781e-05 -0.0003034292077586289 0.0 0.000892179955295419 0.0 0.0
-1.6449124779743807e-05 -0.00018249757423408064 0.0 -0.0007216661847244399 0.0 0.0
-0.0003618319673784065 4.7944320596460255e-05 0.0 -0.0015073211620834914 0.0 0.0
-0.0007579555698540019 0.00032365723057897755 0.0 -0.0016896642397369876 0.0 0.0
-0.0011115954770361258 0.0005145703518966704 0.0 -0.0016071852967626532 0.0 0.0
-0.001482163347115012 0.0006885979634237982 0.0 -0.00147587361416876 0.0 0.0
-0.0020276177919367477 0.00097791583541873 0.0 -0.00145366577244338 0.0 0.0
-0.0030089328219100736 0.0016414113266247643 0.0 -0.0017067468074081216 0.0 0.0
-0.004534432657668827 0.0028518631971833353 0.0 -0.002357543243014154 0.0 0.0
-0.006484977078832499 0.004535285857810933 0.0 -0.0032059046160435867 0.0 0.0
-0.0088045758197942 0.006610548709867103 0.0 -0.00407990596533675 0.0 0.0
-0.01154180559528191 0.009120993958728008 0.0 -0.004976820170108698 0.0 0.0
-0.014814913187528908 0.012180380254368073 0.0 -0.005904726809649319 0.0 0.0
-0.018820385727408392 0.01597880085970016 0.0 -0.006950449375789702 0.0 0.0
-0.023780232584653296 0.02073648683050089 0.0 -0.00821312258006801 0.0 0.0
-0.02984723679008419 0.02659810787633754 0.0 -0.009727132117313575 0.0 0.0
-0.036947335571787684 0.03345601175339996 0.0 -0.011660040269412586 0.0 0.0
-0.044393699397949446 0.04057785468031749 0.0 -0.014448520828417521 0.0 0.0
-0.05036126963234751 0.04609823550147274 0.0 -0.01829788728891618 0.0 0.0
-0.05157694557020345 0.04677272617596562 0.0 -0.022256496209649757 0.0 0.0
-0.04350554168206282 0.03814561892467738 0.0 -0.023981289468070488 0.0 0.0
-0.0435055416820615 0.03814561892467694 0.0 0.02398128946809286 0.0 0.0
-0.05157694557019635 0.0467727261759614 0.0 0.022256496209677068 0.0 0.0
-0.05036126963233528 0.046098235501461415 0.0 0.01829788728893722 0.0 0.0
-0.044393699397932376 0.04057785468030173 0.0 0.014448520828424516 0.0 0.0
-0.036947335571768936 0.033456011753383974 0.0 0.01166004026941303 0.0 0.0
-0.02984723679006513 0.026598107876319776 0.0 0.009727132117312826 0.0 0.0
-0.023780232584634235 0.020736486830479572 0.0 0.008213122580063181 0.0 0.0
-0.01882038572738825 0.01597880085968062 0.0 0.00695044937578454 0.0 0.0
-0.014814913187508605 0.012180380254351197 0.0 0.005904726809644101 0.0 0.0
-0.011541805595262293 0.009120993958715129 0.0 0.004976820170100121 0.0 0.0
-0.008804575819777324 0.006610548709854447 0.0 0.004079905965327174 0.0 0.0
-0.006484977078818996 0.004535285857799831 0.0 0.0032059046160376192 0.0 0.0
-0.004534432657658065 0.0028518631971751196 0.0 0.0023575432430086585 0.0 0.0
-0.003008932821903225 0.0016414113266204344 0.0 0.0017067468074042913 0.0 0.0
-0.002027617791933417 0.000977915835418064 0.0 0.0014536657724412982 0.0 0.0
-0.0014821633471133189 0.00068859796342291 0.0 0.0014758736141675388 0.0 0.0
-0.0011115954770349393 0.000514570351896726 0.0 0.0016071852967614042 0.0 0.0
-0.0007579555698532942 0.0003236572305790608 0.0 0.0016896642397357942 0.0 0.0
-0.0003618319673780665 4.794432059622433e-05 0.0 0.001507321162081715 0.0 0.0
-1.6449124779625846e-05 -0.00018249757423389502 0.0 0.0007216661847237182 0.0 0.0
-6.072568388656996e-05 -8.394567820814436e-05 0.0 -0.0005447478521242166 0.0 0.0
-0.00040614327112850623 9.86707846782342e-05 0.0 -0.0012399398466058087 0.0 0.0
-0.0008464547867372829 0.00036327837850552713 0.0 -0.0014287025557905286 0.0 0.0
-0.0012655843986590226 0.0005683439702154347 0.0 -0.0013396262969851414 0.0 0.0
-0.0017107858640969947 0.0007863906876310889 0.0 -0.0011891933970634982 0.0 0.0
-0.002431739796839555 0.0012270384276980018 0.0 -0.0011886400012534049 0.0 0.0
-0.0037069368201126246 0.002178228097039381 0.0 -0.0015210284823050368 0.0 0.0
-0.005521437970917087 0.0036967471346770475 0.0 -0.002147121647022271 0.0 0.0
-0.007782960258315624 0.0056906905302711586 0.0 -0.002867652748077071 0.0 0.0
-0.010497908791873747 0.00815399931809524 0.0 -0.0036408216148841044 0.0 0.0
-0.013729319311492377 0.011146056602986398 0.0 -0.004436862337817815 0.0 0.0
-0.017626305592433555 0.014810947390911933 0.0 -0.00526842642663089 0.0 0.0
-0.02240898570814212 0.01936707498270107 0.0 -0.006231740631691907 0.0 0.0
-0.028304223501939965 0.025034757460338453 0.0 -0.007394471879436815 0.0 0.0
-0.035441956196375426 0.03194405122270649 0.0 -0.0087480407429959 0.0 0.0
-0.04372922754182405 0.03997486929994776 0.0 -0.010266513720840698 0.0 0.0
-0.05245964275107662 0.04835022090541852 0.0 -0.012307595021151363 0.0 0.0
-0.059598226092078196 0.0549860333268708 0.0 -0.015835547336329026 0.0 0.0
-0.06131759247971312 0.05609797825204277 0.0 -0.021269157292944485 0.0 0.0
-0.052198808266141206 0.04638643143310062 0.0 -0.027102743289724562 0.0 0.0
-0.052198808266139 0.046386431433095954 0.0 0.027102743289746822 0.0 0.0
-0.061317592479704586 0.056097978252032554 0.0 0.021269157292970547 0.0 0.0
-0.059598226092063604 0.05498603332685725 0.0 0.015835547336348815 0.0 0.0
-0.05245964275105701 0.048350220905402086 0.0 0.012307595021158302 0.0 0.0
-0.04372922754180269 0.039974869299927995 0.0 0.010266513720841891 0.0 0.0
-0.035441956196353396 0.03194405122268429 0.0 0.008748040742995289 0.0 0.0
-0.028304223501917983 0.025034757460318025 0.0 0.00739447187943329 0.0 0.0
-0.022408985708118737 0.019367074982679977 0.0 0.006231740631688326 0.0 0.0
-0.017626305592409793 0.014810947390888174 0.0 0.005268426426626782 0.0 0.0
-0.013729319311470062 0.011146056602963972 0.0 0.0044368623378105015 0.0 0.0
-0.010497908791854246 0.00815399931807681 0.0 0.0036408216148744177 0.0 0.0
-0.00778296025830005 0.005690690530256948 0.0 0.0028676527480711034 0.0 0.0
-0.005521437970904403 0.0036967471346663894 0.0 0.0021471216470167476 0.0 0.0
-0.003706936820104128 0.0021782280970328305 0.0 0.0015210284823009845 0.0 0.0
-0.002431739796834965 0.0012270384276954482 0.0 0.0011886400012511011 0.0 0.0
-0.0017107858640950553 0.000786390687629035 0.0 0.0011891933970631097 0.0 0.0
-0.0012655843986577701 0.000568343970214602 0.0 0.0013396262969840034 0.0 0.0
-0.0008464547867364537 0.0003632783785052218 0.0 0.0014287025557892796 0.0 0.0
-0.0004061432711282738 9.86707846782342e-05 0.0 0.0012399398466038658 0.0 0.0
-6.072568388638261e-05 -8.394567820811834e-05 0.0 0.0005447478521233284 0.0 0.0
-9.112317648438117e-05 -1.0637375016914197e-05 0.0 -0.0003633321266151013 0.0 0.0
-0.0004420875883250075 0.00014474106789105767 0.0 -0.0009424726986286824 0.0 0.0
-0.0009307344435216247 0.0004009811786407913 0.0 -0.001114471046548271 0.0 0.0
-0.001416503275977754 0.000619529431729049 0.0 -0.0010232261417265631 0.0 0.0
-0.00194736034814727 0.0009001671358587204 0.0 -0.0008732581462581601 0.0 0.0
-0.002894292131126297 0.0015449480494328371 0.0 -0.0009236046154680322 0.0 0.0
-0.004438492709027381 0.002774422511175545 0.0 -0.0012426006492086694 0.0 0.0
-0.006501354786822872 0.004559670639652569 0.0 -0.0017419173442301816 0.0 0.0
-0.009078562637875681 0.0068658546418345345 0.0 -0.002323545997338694 0.0 0.0
-0.012191959665094676 0.009718079189858564 0.0 -0.002950598401930682 0.0 0.0
-0.015927155051691927 0.013199030679037715 0.0 -0.003601618073774848 0.0 0.0
-0.020461260763095984 0.017482912037775522 0.0 -0.004280733625151079 0.0 0.0
-0.026036704631625926 0.022808434328668303 0.0 -0.005070726060081465 0.0 0.0
-0.03287632612591378 0.02939478955387309 0.0 -0.006077976809479635 0.0 0.0
-0.041052784434731635 0.037312427783050994 0.0 -0.0072236033922469245 0.0 0.0
-0.0503780527857591 0.04635945064311442 0.0 -0.008221766054723523 0.0 0.0
-0.06015809418184774 0.055799752718199036 0.0 -0.009138354603043797 0.0 0.0
-0.06850349251495617 0.06360453885677209 0.0 -0.011739664746139078 0.0 0.0
-0.07115900472972105 0.06555610099307985 0.0 -0.018662615647394576 0.0 0.0
-0.06145814944404332 0.05516376667546674 0.0 -0.02998984734414567 0.0 0.0
-0.06145814944404045 0.05516376667546319 0.0 0.029989847344162934 0.0 0.0
-0.07115900472971069 0.06555610099306786 0.0 0.018662615647417197 0.0 0.0
-0.06850349251493909 0.06360453885675299 0.0 0.011739664746157341 0.0 0.0
-0.060158094181825425 0.05579975271817483 0.0 0.009138354603049764 0.0 0.0
-0.05037805278573494 0.04635945064309199 0.0 0.008221766054724189 0.0 0.0
-0.041052784434707015 0.03731242778302768 0.0 0.007223603392246425 0.0 0.0
-0.03287632612588865 0.029394789553849332 0.0 0.006077976809476429 0.0 0.0
-0.02603670463159925 0.022808434328642768 0.0 0.005070726060077038 0.0 0.0
-0.020461260763068853 0.017482912037748877 0.0 0.004280733625148081 0.0 0.0
-0.015927155051666846 0.013199030679011292 0.0 0.0036016180737690473 0.0 0.0
-0.012191959665072694 0.009718079189835915 0.0 0.002950598401923313 0.0 0.0
-0.009078562637857931 0.006865854641817659 0.0 0.002323545997334253 0.0 0.0
-0.006501354786808418 0.004559670639640134 0.0 0.0017419173442263514 0.0 0.0
-0.004438492709017194 0.002774422511165553 0.0 0.0012426006492053665 0.0 0.0
-0.0028942921311202706 0.0015449480494287293 0.0 0.0009236046154657285 0.0 0.0
-0.0019473603481448137 0.000900167135858776 0.0 0.000873258146257383 0.0 0.0
-0.0014165032759764946 0.0006195294317281608 0.0 0.001023226141725786 0.0 0.0
-0.0009307344435207504 0.00040098117864037497 0.0 0.001114471046547133 0.0 0.0
-0.0004420875883247716 0.00014474106789101604 0.0 0.000942472698627711 0.0 0.0
-9.112317648413137e-05 -1.0637375016947156e-05 0.0 0.00036333212661468495 0.0 0.0
-0.00010158970394219535 3.376961288781288e-05 0.0 -0.00018407445481705142 0.0 0.0
-0.0004614032138066382 0.00018073967651871525 0.0 -0.0006148432871641851 0.0 0.0
-0.0010105744753376444 0.0004355337736868803 0.0 -0.0007396326392905828 0.0 0.0
-0.001570694776785675 0.0006733622851270993 0.0 -0.0006635612906865651 0.0 0.0
-0.0022141691254387585 0.0010587696446384687 0.0 -0.0005582984226035204 0.0 0.0
-0.0034083021512681666 0.0019318399182830515 0.0 -0.0006137329893441401 0.0 0.0
-0.005168812947340451 0.003401944926661904 0.0 -0.0008485486251597063 0.0 0.0
-0.007475111703685894 0.005433426752651571 0.0 -0.001183457197705351 0.0 0.0
-0.010365639503222168 0.008050793100856657 0.0 -0.0015810538824322373 0.0 0.0
-0.013881379101772728 0.011294357056709003 0.0 -0.0020188766866250374 0.0 0.0
-0.01813000003583984 0.015271685768111665 0.0 -0.0024691551150395896 0.0 0.0
-0.023314967994267743 0.020186047443819355 0.0 -0.0029391063942122986 0.0 0.0
-0.029696489775099935 0.02629454737828474 0.0 -0.003520187517008333 0.0 0.0
-0.03747530593898117 0.03379253934812643 0.0 -0.0042485204078879235 0.0 0.0
-0.046657790676675276 0.04268024729135944 0.0 -0.005033008718854981 0.0 0.0
-0.05691085215839904 0.05262324569088661 0.0 -0.00560849554094861 0.0 0.0
-0.0674332105525794 0.06281778232174906 0.0 -0.0056020702534409494 0.0 0.0
-0.07672090301332199 0.07168771782303884 0.0 -0.006159114539545818 0.0 0.0
-0.08109972928009368 0.07514770781796831 0.0 -0.013424759342231585 0.0 0.0
-0.07177759949963262 0.06491241242561396 0.0 -0.032011463218368175 0.0 0.0
-0.07177759949962931 0.06491241242561219 0.0 0.032011463218379554 0.0 0.0
-0.08109972928008126 0.07514770781795943 0.0 0.013424759342248571 0.0 0.0
-0.07672090301330226 0.07168771782302263 0.0 0.0061591145395585856 0.0 0.0
-0.06743321055255408 0.06281778232172686 0.0 0.005602070253444863 0.0 0.0
-0.05691085215837201 0.05262324569086263 0.0 0.005608495540949859 0.0 0.0
-0.04665779067664776 0.04268024729133457 0.0 0.00503300871885555 0.0 0.0
-0.03747530593895268 0.03379253934809956 0.0 0.004248520407886661 0.0 0.0
-0.02969648977507009 0.02629454737825654 0.0 0.0035201875170065428 0.0 0.0
-0.023314967994237195 0.02018604744378938 0.0 0.0029391063942103 0.0 0.0
-0.0181300000358121 0.015271685768086352 0.0 0.0024691551150350793 0.0 0.0
-0.013881379101748447 0.011294357056686799 0.0 0.002018876686620291 0.0 0.0
-0.010365639503202437 0.008050793100839115 0.0 0.0015810538824300446 0.0 0.0
-0.007475111703669563 0.005433426752637915 0.0 0.0011834571977018538 0.0 0.0
-0.005168812947328736 0.003401944926652911 0.0 0.0008485486251572638 0.0 0.0
-0.0034083021512610195 0.0019318399182772783 0.0 0.0006137329893430576 0.0 0.0
-0.0022141691254355476 0.0010587696446360817 0.0 0.0005582984226028542 0.0 0.0
-0.0015706947767843253 0.0006733622851262666 0.0 0.0006635612906858435 0.0 0.0
-0.0010105744753368725 0.00043553377368610313 0.0 0.0007396326392896113 0.0 0.0
-0.00046140321380629123 0.00018073967651853484 0.0 0.0006148432871628251 0.0 0.0
-0.00010158970394192994 3.376961288779033e-05 0.0 0.0001840744548164408 0.0 0.0
-8.112480133418143e-05 4.396152250715768e-05 0.0 -2.2393355243316426e-05 0.0 0.0
-0.00045091189447604707 0.0001985669419355407 0.0 -0.0002513790455124232 0.0 0.0
-0.0010868595414496862 0.0004646712166310185 0.0 -0.0002901289860534062 0.0 0.0
-0.0017423207237961535 0.0007476404036594331 0.0 -0.0002678922977354947 0.0 0.0
-0.0025301252939448626 0.0012625306632751965 0.0 -0.00022346930248329233 0.0 0.0
-0.003943042143114056 0.0023524664403777873 0.0 -0.00023547893402081632 0.0 0.0
-0.005893551045327683 0.004041134775066069 0.0 -0.0003385386888141717 0.0 0.0
-0.008435503915809356 0.006310005326936374 0.0 -0.0004739132282508274 0.0 0.0
-0.01163863577840224 0.009235132840899496 0.0 -0.0006466750070029947 0.0 0.0
-0.015559626580800151 0.012871838464967755 0.0 -0.0008442994472498966 0.0 0.0
-0.0203329928563111 0.01735791409973264 0.0 -0.001043233791124698 0.0 0.0
-0.02618855366818132 0.022920543853932607 0.0 -0.001272055822021112 0.0 0.0
-0.03337204432844332 0.02980683116199323 0.0 -0.0015466445532529849 0.0 0.0
-0.04206760161527141 0.038193594566614975 0.0 -0.0018631582337572672 0.0 0.0
-0.05222919642754237 0.04802534238238443 0.0 -0.002185799625898155 0.0 0.0
-0.06336336679333371 0.05881012968550037 0.0 -0.0023420167947547643 0.0 0.0
-0.07443866728740736 0.06953719393121549 0.0 -0.002035574272059193 0.0 0.0
-0.08398970949032739 0.078765350908651 0.0 -0.0010329897286620593 0.0 0.0
-0.08993631492827538 0.08425560399035215 0.0 -0.0035785637208286536 0.0 0.0
-0.08454982212108543 0.07663961384928575 0.0 -0.029676912899965158 0.0 0.0
-0.08454982212108225 0.07663961384927997 0.0 0.02967691289997032 0.0 0.0
-0.08993631492826085 0.08425560399033749 0.0 0.0035785637208360366 0.0 0.0
-0.08398970949030443 0.07876535090862746 0.0 0.0010329897286670553 0.0 0.0
-0.07443866728737845 0.06953719393119084 0.0 0.0020355742720598313 0.0 0.0
-0.06336336679330362 0.05881012968547461 0.0 0.0023420167947542647 0.0 0.0
-0.052229196427511566 0.04802534238235623 0.0 0.002185799625898502 0.0 0.0
-0.04206760161523962 0.038193594566586775 0.0 0.0018631582337558933 0.0 0.0
-0.033372044328410254 0.029806831161964364 0.0 0.0015466445532511253 0.0 0.0
-0.02618855366814775 0.02292054385390152 0.0 0.0012720558220205291 0.0 0.0
-0.02033299285628036 0.01735791409970444 0.0 0.0010432337911221723 0.0 0.0
-0.015559626580773749 0.012871838464943774 0.0 0.000844299447246899 0.0 0.0
-0.011638635778380726 0.009235132840877847 0.0 0.0006466750070021898 0.0 0.0
-0.008435503915791235 0.006310005326918389 0.0 0.00047391322824985593 0.0 0.0
-0.005893551045314585 0.004041134775053412 0.0 0.00033853868881433824 0.0 0.0
-0.0039430421431056305 0.002352466440370793 0.0 0.00023547893402142694 0.0 0.0
-0.0025301252939409274 0.001262530663272421 0.0 0.000223469302484125 0.0 0.0
-0.001742320723794692 0.0007476404036581008 0.0 0.000267892297735578 0.0 0.0
-0.0010868595414489533 0.0004646712166304634 0.0 0.00029012898605337845 0.0 0.0
-0.00045091189447558563 0.00019856694193526314 0.0 0.0002513790455128395 0.0 0.0
-8.11248013340201e-05 4.396152250716462e-05 0.0 2.2393355243316426e-05 0.0 0.0
SCALARS Statev float 8
LOOKUP_TABLE default
0.0 0.008428587790683105 0.006369071615647245 -0.006752587390744176 0.000383515775096933 -0.0035485579939709814 0.0 0.0
0.0 0.00018472627916322215 8.151394060461887e-05 -6.003947794307956e-05 -2.147446266153925e-05 9.740230691208972e-05 0.0 0.0
0.0 3.342380937738801e-05 -4.754075056001044e-06 3.773145031477424e-06 9.809300245235895e-07 5.62033213615258e-07 0.0 0.0
0.0 7.301378253117055e-05 3.816254139763696e-06 -3.0002630921713847e-06 -8.159910475924087e-07 -5.652235803859823e-07 0.0 0.0
0.0 0.0005805730342418536 0.00036407968652640995 -0.0002890305155348901 -7.504917099152035e-05 -4.352302745391315e-05 0.0 0.0
0.0 0.0015763183421065577 0.0014605266741065013 -0.0011984814112268546 -0.0002620452628796467 -0.00012097642402819186 0.0 0.0
0.0 0.003453269538331521 0.0031600144095409012 -0.0027078256991628783 -0.000452188710378022 -0.00022227105860007384 0.0 0.0
0.0 0.006090862521554937 0.005504394389687385 -0.00488679377748697 -0.0006176006122004145 -0.0003492508815471963 0.0 0.0
0.0 0.009531701737770864 0.008515410371740934 -0.007763018427850717 -0.0007523919438902162 -0.0005101174546428143 0.0 0.0
0.0 0.013833528383051293 0.01224118147269452 -0.011373741760842737 -0.0008674397118517798 -0.0006988451154529346 0.0 0.0
0.0 0.019176772686008696 0.01682139093193272 -0.01584933933617803 -0.0009720515957546882 -0.0008956727998181975 0.0 0.0
0.0 0.02554673121359794 0.0224937702684938 -0.021420007309077196 -0.0010737629594165998 -0.0011264770740725435 0.0 0.0
0.0 0.033525098877325514 0.029496601324783746 -0.028321717787207632 -0.0011748835375761076 -0.0013994490356511523 0.0 0.0
0.0 0.04332305262122913 0.03801521067209994 -0.03673706037895355 -0.0012781502931464037 -0.0017145245660287742 0.0 0.0
0.0 0.05487896310132091 0.04805141981916317 -0.04666491128854014 -0.0013865085306230232 -0.002083616126567257 0.0 0.0
0.0 0.06782698867356152 0.05925726035637222 -0.05775701177929381 -0.0015002485770784198 -0.002450522584875582 0.0 0.0
0.0 0.0812484866896005 0.07086478599116436 -0.0692489290673689 -0.0016158569237954522 -0.002663716608087345 0.0 0.0
0.0 0.09382116648999002 0.08174416101775063 -0.08001813449298119 -0.0017260265247694081 -0.002503894158299794 0.0 0.0
0.0 0.1040138899726673 0.09056977950368411 -0.08874741515359628 -0.0018223643500878297 -0.0019284657050335232 0.0 0.0
0.0 0.10993081752788447 0.09583070195886431 -0.09391363462485874 -0.0019170673340055842 -0.0014905264718549568 0.0 0.0
0.0 0.10993081752788207 0.09583070195886212 -0.09391363462485683 -0.0019170673340052503 0.0014905264718574206 0.0 0.0
0.0 0.10401388997265486 0.0905697795036731 -0.08874741515358575 -0.0018223643500873358 0.0019284657050427094 0.0 0.0
0.0 0.09382116648996677 0.08174416101773019 -0.08001813449296152 -0.001726026524768653 0.00250389415830595 0.0 0.0
0.0 0.08124848668957056 0.07086478599113799 -0.06924892906734349 -0.001615856923794479 0.002663716608091125 0.0 0.0
0.0 0.06782698867352718 0.059257260356342364 -0.057757011779264254 -0.0015002485770781201 0.0024505225848712757 0.0 0.0
0.0 0.05487896310128716 0.04805141981913384 -0.04666491128851109 -0.001386508530622739 0.00208361612656749 0.0 0.0
0.0 0.043323052621195096 0.03801521067207026 -0.036737060378924435 -0.0012781502931458295 0.001714524566028408 0.0 0.0
0.0 0.03352509887729163 0.029496601324754033 -0.028321717787178853 -0.0011748835375751771 0.0013994490356512188 0.0 0.0
0.0 0.02554673121356458 0.022493770268464455 -0.0214200073090488 -0.001073762959415662 0.0011264770740705605 0.0 0.0
0.0 0.019176772685978623 0.016821390931905964 -0.015849339336152152 -0.0009720515957538098 0.000895672799817313 0.0 0.0
0.0 0.013833528383025635 0.01224118147267195 -0.011373741760821027 -0.0008674397118509182 0.000698845115449857 0.0 0.0
0.0 0.009531701737750696 0.008515410371722678 -0.0077630184278331465 -0.0007523919438895293 0.0005101174546419302 0.0 0.0
0.0 0.006090862521539165 0.0055043943896726 -0.004886793777473036 -0.0006176006121995634 0.000349250881545948 0.0 0.0
0.0 0.003453269538319977 0.0031600144095298172 -0.002707825699152756 -0.000452188710377061 0.0002222710585994416 0.0 0.0
0.0 0.0015763183420998371 0.0014605266740996925 -0.001198481411221 -0.00026204526287869215 0.00012097642402753542 0.0 0.0
0.0 0.0005805730342388117 0.0003640796865241995 -0.00028903051553308737 -7.504917099111223e-05 4.3523027453601265e-05 0.0 0.0
0.0 7.301378253050296e-05 3.8162541401263e-06 -3.0002630924484043e-06 -8.159910476779027e-07 5.652235804012333e-07 0.0 0.0
0.0 3.342380937687491e-05 -4.754075055922566e-06 3.7731450314146314e-06 9.80930024507978e-07 -5.620332136057866e-07 0.0 0.0
0.0 0.00018472627916197361 8.151394060413096e-05 -6.0039477942730625e-05 -2.147446266140053e-05 -9.740230691132319e-05 0.0 0.0
0.0 0.008428587790670117 0.006369071615638476 -0.006752587390734385 0.000383515775095906 0.003548557993952441 0.0 0.0
0.0 0.00586516803812245 0.0041520187987285385 -0.004607945343522359 0.0004559265447938192 -0.003910302440926695 0.0 0.0
0.0 0.0 0.0 0.0 0.0 0.0 0.0 0.0
0.0 9.430826945183483e-08 -1.020951514236367e-08 7.758883502814768e-09 2.450631639548195e-09 3.6392644398315674e-09 0.0 0.0
0.0 2.998408939603493e-05 -2.2209094071254864e-06 1.692787164856819e-06 5.281222422684337e-07 3.7880047015632913e-07 0.0 0.0
0.0 0.00032830196304126384 0.00014821060042606633 -0.00011715646275485066 -3.1054137671215686e-05 -4.2358059698759455e-05 0.0 0.0
0.0 0.0011046057032969305 0.0010252727716557695 -0.0008304964883041236 -0.00019477628335164574 -0.0002330194845275219 0.0 0.0
0.0 0.0027515592056287213 0.0025165181210140128 -0.0021272051250321956 -0.00038931299598181704 -0.0004957224269812207 0.0 0.0
0.0 0.005109911142808475 0.004617377988645624 -0.00405215664886116 -0.0005652213397844645 -0.0008168534048533871 0.0 0.0
0.0 0.008179013030552044 0.007318698293277504 -0.006611032153498453 -0.0007076661397790502 -0.00119682895531653 0.0 0.0
0.0 0.011996002138281328 0.010645151829880017 -0.009820112340186364 -0.00082503948969365 -0.0016248221390714485 0.0 0.0
0.0 0.016688893764840448 0.014707586844903092 -0.013779486340389158 -0.0009281005045139284 -0.002078075151277786 0.0 0.0
0.0 0.022539847488430177 0.01971399651064213 -0.01868982793687309 -0.001024168573769045 -0.0025608936565382477 0.0 0.0
0.0 0.029558703344299938 0.025930297809649026 -0.02481217642258371 -0.0011181213870653111 -0.0031532836756758605 0.0 0.0
0.0 0.03826550401781996 0.03354940389183594 -0.03233578918776896 -0.0012136147040669686 -0.0038887602677157595 0.0 0.0
0.0 0.048667789273620914 0.0425790484868295 -0.04126578607513602 -0.0013132624116934904 -0.004732928773247992 0.0 0.0
0.0 0.060344390840352986 0.05271686956535622 -0.05129948226437048 -0.0014173873009857435 -0.005569699904549779 0.0 0.0
0.0 0.07252103610213162 0.06328106856130064 -0.061757871603443384 -0.001523196957857231 -0.006066649745876882 0.0 0.0
0.0 0.08403194455532821 0.07325574789284517 -0.07163022724561117 -0.0016255206472339666 -0.0058050509052809405 0.0 0.0
0.0 0.0933729209246155 0.08136148776773981 -0.07963874627310312 -0.0017227414946367303 -0.004675300788932465 0.0 0.0
0.0 0.09886892068622877 0.08614402344322272 -0.08435261982258985 -0.0017914036206329058 -0.0026948792087098114 0.0 0.0
0.0 0.09886892068622512 0.08614402344321935 -0.08435261982258674 -0.0017914036206326447 0.0026948792087208625 0.0 0.0
0.0 0.09337292092460361 0.08136148776772914 -0.07963874627309284 -0.0017227414946363348 0.004675300788951309 0.0 0.0
0.0 0.08403194455530895 0.07325574789282796 -0.07163022724559456 -0.0016255206472333748 0.005805050905294472 0.0 0.0
0.0 0.07252103610210667 0.0632810685612786 -0.06175787160342189 -0.0015231969578566853 0.006066649745884368 0.0 0.0
0.0 0.06034439084032571 0.05271686956533234 -0.051299482264347426 -0.001417387300984916 0.005569699904546713 0.0 0.0
0.0 0.04866778927359206 0.04257904848680416 -0.04126578607511149 -0.0013132624116926727 0.004732928773247871 0.0 0.0
0.0 0.03826550401779029 0.033549403891809965 -0.032335789187743665 -0.001213614704066277 0.003888760267715164 0.0 0.0
0.0 0.02955870334426836 0.02593029780962147 -0.024812176422556675 -0.0011181213870647916 0.0031532836756742954 0.0 0.0
0.0 0.02253984748839958 0.019713996510615284 -0.018689827936846776 -0.0010241685737685 0.002560893656534126 0.0 0.0
0.0 0.01668889376481162 0.014707586844877808 -0.013779486340364326 -0.0009281005045134816 0.0020780751512749535 0.0 0.0
0.0 0.011996002138258533 0.010645151829859612 -0.009820112340166741 -0.0008250394896928692 0.00162482213906659 0.0 0.0
0.0 0.008179013030534215 0.007318698293261001 -0.006611032153482739 -0.0007076661397782601 0.0011968289553144235 0.0 0.0
0.0 0.00510991114279488 0.004617377988632945 -0.004052156648849447 -0.000565221339783497 0.0008168534048510559 0.0 0.0
0.0 0.00275155920561936 0.0025165181210048716 -0.0021272051250240858 -0.0003893129959807851 0.0004957224269796195 0.0 0.0
0.0 0.0011046057032914334 0.001025272771650691 -0.0008304964882998896 -0.00019477628335080166 0.00023301948452637177 0.0 0.0
0.0 0.000328301963038436 0.00014821060042436587 -0.00011715646275349691 -3.105413767086901e-05 4.235805969826159e-05 0.0 0.0
0.0 2.9984089395523552e-05 -2.2209094069477585e-06 1.692787164720768e-06 5.281222422271307e-07 -3.7880047009169025e-07 0.0 0.0
0.0 9.430826938068039e-08 -1.0209515134588993e-08 7.758883496907494e-09 2.4506316376819497e-09 -3.6392644370560787e-09 0.0 0.0
0.0 0.0 0.0 0.0 0.0 0.0 0.0 0.0
0.0 0.0058651680381079825 0.004152018798718987 -0.004607945343511898 0.0004559265447929116 0.003910302440910769 0.0 0.0
0.0 0.004227178955991305 0.0028114039450210914 -0.0032521023792570444 0.0004406984342359518 -0.003291044407600082 0.0 0.0
0.0 0.0 0.0 0.0 0.0 0.0 0.0 0.0
0.0 0.0 0.0 0.0 0.0 0.0 0.0 0.0
0.0 2.4307082921929654e-06 -2.7159244173351415e-07 2.053625051523891e-07 6.622993658110159e-08 1.4164277531911574e-07 0.0 0.0
0.0 0.0001236446182823955 3.9027216044705865e-05 -3.077088111770475e-05 -8.256334927001035e-06 -2.0691709803999088e-05 0.0 0.0
0.0 0.0008258704458347587 0.0005997566499790289 -0.00048048696458343013 -0.00011926968539559838 -0.0002405213241040589 0.0 0.0
0.0 0.002077102327660034 0.001887152044661848 -0.0015699138146579956 -0.0003172382300038523 -0.0006412569830913937 0.0 0.0
0.0 0.004146528303782966 0.0037356743275037086 -0.00323460972921329 -0.0005010645982904179 -0.0011348509179237775 0.0 0.0
0.0 0.006863807784195023 0.006122062086077551 -0.005468669948937448 -0.0006533921371401025 -0.0016961369545371449 0.0 0.0
0.0 0.010221079599667525 0.009051612934003106 -0.00827627117495087 -0.0007753417590522385 -0.002314805478669272 0.0 0.0
0.0 0.014344213472445248 0.012606659833374563 -0.011728921094990614 -0.0008777387383839426 -0.0029730701120556165 0.0 0.0
0.0 0.019355130996960276 0.01697097491744424 -0.016001316707765008 -0.0009696582096792284 -0.0036741362201965725 0.0 0.0
0.0 0.02570449107250093 0.02239033665969202 -0.02133305496791147 -0.0010572816917805428 -0.004490442566517208 0.0 0.0
0.0 0.03331078437970487 0.029085924368071475 -0.027940502205961722 -0.0011454221621097483 -0.0055328183791555074 0.0 0.0
0.0 0.042482240159410795 0.03708292117463392 -0.035846859955567884 -0.0012360612190660289 -0.006771971977907952 0.0 0.0
0.0 0.0529176699684314 0.046128088587158625 -0.04479793940378858 -0.0013301491833700384 -0.007976511852934763 0.0 0.0
0.0 0.06387104397263965 0.055645142651133114 -0.054219195097293366 -0.0014259475538397277 -0.008717276473050116 0.0 0.0
0.0 0.07428386343817232 0.06472982756866573 -0.06320760535757826 -0.0015222222110874446 -0.008462504612766519 0.0 0.0
0.0 0.08279490188436495 0.07217927572698639 -0.07056884030229527 -0.001610435424691097 -0.006844222101654101 0.0 0.0
0.0 0.08791096843398352 0.07668383379198568 -0.07501441250180348 -0.0016694212901821833 -0.003624299647485166 0.0 0.0
0.0 0.0879109684339802 0.07668383379198246 -0.07501441250180038 -0.0016694212901820636 0.0036242996475028214 0.0 0.0
0.0 0.0827949018843537 0.072179275726976 -0.07056884030228504 -0.001610435424690939 0.006844222101679105 0.0 0.0
0.0 0.0742838634381546 0.06472982756864953 -0.06320760535756256 -0.001522222211086949 0.008462504612784472 0.0 0.0
0.0 0.06387104397261822 0.055645142651113796 -0.05421919509727499 -0.001425947553838792 0.008717276473059019 0.0 0.0
0.0 0.05291766996840663 0.046128088587136906 -0.044797939403767674 -0.0013301491833692225 0.007976511852932109 0.0 0.0
0.0 0.04248224015938489 0.037082921174611164 -0.03584685995554576 -0.0012360612190654022 0.006771971977907457 0.0 0.0
0.0 0.033310784379678576 0.02908592436804837 -0.027940502205939306 -0.0011454221621090563 0.005532818379154056 0.0 0.0
0.0 0.025704491072475653 0.022390336659669476 -0.021333054967890036 -0.001057281691779427 0.004490442566515521 0.0 0.0
0.0 0.019355130996934797 0.016970974917421642 -0.016001316707743667 -0.0009696582096779761 0.003674136220191898 0.0 0.0
0.0 0.014344213472420113 0.012606659833352 -0.011728921094968906 -0.0008777387383830921 0.0029730701120502774 0.0 0.0
0.0 0.010221079599647312 0.009051612933984866 -0.008276271174933363 -0.0007753417590515009 0.002314805478662822 0.0 0.0
0.0 0.006863807784178636 0.0061220620860626416 -0.005468669948923321 -0.0006533921371393202 0.0016961369545333625 0.0 0.0
0.0 0.004146528303770405 0.003735674327491974 -0.003234609729202576 -0.0005010645982893989 0.0011348509179203653 0.0 0.0
0.0 0.0020771023276514684 0.0018871520446537059 -0.0015699138146508585 -0.0003172382300028468 0.0006412569830889327 0.0 0.0
0.0 0.0008258704458303119 0.0005997566499755959 -0.0004804869645806198 -0.00011926968539497556 0.00024052132410259562 0.0 0.0
0.0 0.0001236446182812211 3.9027216044356014e-05 -3.077088111742753e-05 -8.256334926928367e-06 2.0691709803818128e-05 0.0 0.0
0.0 2.430708291709614e-06 -2.715924416780426e-07 2.0536250511018518e-07 6.622993656783338e-08 -1.4164277528895462e-07 0.0 0.0
0.0 0.0 0.0 0.0 0.0 0.0 0.0 0.0
0.0 0.0 0.0 0.0 0.0 0.0 0.0 0.0
0.0 0.0042271789559789556 0.00281140394501263 -0.003252102379247675 0.00044069843423504484 0.003291044407586485 0.0 0.0
0.0 0.002995400083177651 0.001891164358083649 -0.0022697435760866405 0.00037857921800299124 -0.002454333341126389 0.0 0.0
0.0 0.0 0.0 0.0 0.0 0.0 0.0 0.0
0.0 0.0 0.0 0.0 0.0 0.0 0.0 0.0
0.0 1.1217285375004458e-06 -1.148405540922369e-07 8.789999552340031e-08 2.6940558568849977e-08 1.165259803878264e-07 0.0 0.0
0.0 4.011135154799139e-05 3.956707918330344e-06 -3.095552395030532e-06 -8.611555232997105e-07 -3.175191579496755e-06 0.0 0.0
0.0 0.00047136219853600807 0.00029428710729697736 -0.00023347638243240734 -6.081072486457009e-05 -0.0001803337651199495 0.0 0.0
0.0 0.001485963067798026 0.0012808441115513768 -0.0010481578727341322 -0.00023268623881724402 -0.0006535991161059017 0.0 0.0
0.0 0.003216645808684551 0.0028685404011618647 -0.0024437879822662013 -0.0004247524188956635 -0.001293292602149474 0.0 0.0
0.0 0.0055737257352070305 0.004935125298384092 -0.004348898070061008 -0.000586227228323085 -0.002001627488989938 0.0 0.0
0.0 0.008474114234441091 0.007470299867708119 -0.006755299856101281 -0.0007150000116068352 -0.0027695784606522585 0.0 0.0
0.0 0.012015375276822306 0.010527880886214258 -0.009708462035475653 -0.0008194188507386015 -0.003577125098780768 0.0 0.0
0.0 0.016356377274740857 0.014259912084088167 -0.01335057350408157 -0.0009093385800065948 -0.0044369612811407865 0.0 0.0
0.0 0.021736896447218424 0.018896593290296686 -0.01790524693176005 -0.0009913463585366317 -0.00544362333475328 0.0 0.0
0.0 0.02844508730925481 0.024652403143598598 -0.023579525339452827 -0.0010728778041457691 -0.006680776446994963 0.0 0.0
0.0 0.03650976718287227 0.031585718548975156 -0.030430819245684748 -0.0011548993032904006 -0.008151681578499562 0.0 0.0
0.0 0.04549513697310749 0.039513716148839334 -0.03827545382721499 -0.0012382623216243378 -0.009639693494357855 0.0 0.0
0.0 0.055225805815339306 0.04796223586965784 -0.04663779005617441 -0.0013244458134834243 -0.010612426843850485 0.0 0.0
0.0 0.06459237309144789 0.056152991349512245 -0.054741140470144035 -0.0014118508793682012 -0.010417639840508877 0.0 0.0
0.0 0.07236320931716618 0.0630148286829077 -0.061523018957123934 -0.0014918097257837467 -0.008480479071011538 0.0 0.0
0.0 0.07720635417738525 0.06734940680299752 -0.0658036195193461 -0.0015457872836513818 -0.00438240233512566 0.0 0.0
0.0 0.07720635417738253 0.06734940680299473 -0.06580361951934356 -0.0015457872836511768 0.004382402335147784 0.0 0.0
0.0 0.0723632093171574 0.06301482868289893 -0.06152301895711554 -0.0014918097257833715 0.008480479071040468 0.0 0.0
0.0 0.06459237309143168 0.056152991349497194 -0.054741140470129186 -0.001411850879367987 0.010417639840529149 0.0 0.0
0.0 0.0552258058153202 0.047962235869640546 -0.04663779005615748 -0.0013244458134830592 0.010612426843860646 0.0 0.0
0.0 0.04549513697308591 0.03951371614882042 -0.038275453827196826 -0.001238262321623598 0.009639693494355069 0.0 0.0
0.0 0.036509767182849845 0.03158571854895549 -0.03043081924566575 -0.001154899303289738 0.00815168157849757 0.0 0.0
0.0 0.02844508730923221 0.024652403143578708 -0.02357952533943341 -0.0010728778041453064 0.006680776446993386 0.0 0.0
0.0 0.021736896447194697 0.018896593290275748 -0.01790524693173951 -0.0009913463585362289 0.005443623334750507 0.0 0.0
0.0 0.016356377274717702 0.014259912084067652 -0.013350573504061528 -0.0009093385800061241 0.004436961281134874 0.0 0.0
0.0 0.012015375276800237 0.010527880886194574 -0.0097084620354565 -0.0008194188507380789 0.00357712509877394 0.0 0.0
0.0 0.008474114234422514 0.0074702998676917 -0.006755299856085554 -0.0007150000116061428 0.002769578460644375 0.0 0.0
0.0 0.005573725735192922 0.004935125298371238 -0.004348898070049042 -0.0005862272283221951 0.002001627488985383 0.0 0.0
0.0 0.003216645808673871 0.0028685404011520527 -0.002443787982257306 -0.00042475241889474493 0.0012932926021451754 0.0 0.0
0.0 0.001485963067790867 0.0012808441115450453 -0.0010481578727287546 -0.00023268623881629057 0.0006535991161031164 0.0 0.0
0.0 0.000471362198532169 0.00029428710729468785 -0.00023347638243054788 -6.081072486413998e-05 0.00018033376511841299 0.0 0.0
0.0 4.011135154719043e-05 3.956707918524666e-06 -3.0955523951810235e-06 -8.611555233437398e-07 3.1751915796561123e-06 0.0 0.0
0.0 1.1217285373393579e-06 -1.1484055407491507e-07 8.789999551013864e-08 2.6940558564774134e-08 -1.1652598037014098e-07 0.0 0.0
0.0 0.0 0.0 0.0 0.0 0.0 0.0 0.0
0.0 0.0 0.0 0.0 0.0 0.0 0.0 0.0
0.0 0.0029954000831669187 0.0018911643580767452 -0.002269743576078839 0.00037857921800209287 0.0024543333411159362 0.0 0.0
0.0 0.002022972212535901 0.0012156624990906203 -0.0015091625924908692 0.00029350009340024894 -0.0016691945567013549 0.0 0.0
0.0 0.0 0.0 0.0 0.0 0.0 0.0 0.0
0.0 0.0 0.0 0.0 0.0 0.0 0.0 0.0
0.0 0.0 0.0 0.0 0.0 0.0 0.0 0.0
0.0 1.4717118102492897e-05 -8.838546612978372e-07 6.512265603840124e-07 2.326281009138015e-07 1.0632369533383265e-06 0.0 0.0
0.0 0.00021151866916232581 0.00010778036526421814 -8.526461856972455e-05 -2.2515746694493766e-05 -0.00010388652023912969 0.0 0.0
0.0 0.0010361111810961209 0.0007368262555722523 -0.000593087310777816 -0.00014373894479443588 -0.0005304976615027795 0.0 0.0
0.0 0.0023711464775480026 0.0020176457009652205 -0.0016850681869523586 -0.000332577514012862 -0.0012536516252837338 0.0 0.0
0.0 0.004319096258307317 0.003768677869399095 -0.0032656590813426997 -0.0005030187880563932 -0.002101702888235358 0.0 0.0
0.0 0.0067763374977308334 0.005909274233941933 -0.005268638462246391 -0.0006406357716955417 -0.0029783325914043727 0.0 0.0
0.0 0.009760522817608383 0.00847788323008798 -0.007727967331123783 -0.0007499158989641948 -0.003891511489066509 0.0 0.0
0.0 0.013383286068258235 0.011592631015484838 -0.01075273243505025 -0.0008398985804345903 -0.004853440605001656 0.0 0.0
0.0 0.01794486788664489 0.015454061876514918 -0.01453480052146484 -0.000919261355050074 -0.00595697198425935 0.0 0.0
0.0 0.023489626819397855 0.020273355969306812 -0.019279215301557306 -0.000994140667749502 -0.007329674849393255 0.0 0.0
0.0 0.030332927187440933 0.02612894236260963 -0.025061098210730118 -0.0010678441518795078 -0.008939168868411854 0.0 0.0
0.0 0.038306358890917984 0.032900860282071655 -0.0317586615835613 -0.0011421986985103493 -0.010543047984310138 0.0 0.0
0.0 0.04662336591448136 0.04023936414171651 -0.03902217403779726 -0.0012171901039192523 -0.011687970465425161 0.0 0.0
0.0 0.054862787974812526 0.04751850594143187 -0.046224497770019295 -0.0012940081714125705 -0.011644654996022744 0.0 0.0
0.0 0.061951493311151816 0.053828704139792904 -0.05246256915535215 -0.0013661349844407652 -0.009616365042138466 0.0 0.0
0.0 0.06661395024762573 0.05806415608616089 -0.056646613547597244 -0.0014175425385636413 -0.0050027076465241505 0.0 0.0
0.0 0.06661395024762319 0.05806415608615815 -0.056646613547594524 -0.0014175425385635747 0.0050027076465471425 0.0 0.0
0.0 0.0619514933111429 0.05382870413978387 -0.052462569155342996 -0.0013661349844408665 0.009616365042168052 0.0 0.0
0.0 0.05486278797479971 0.04751850594141943 -0.04622449777000688 -0.0012940081714125369 0.011644654996044036 0.0 0.0
0.0 0.04662336591446587 0.04023936414170215 -0.03902217403778328 -0.001217190103918887 0.011687970465435238 0.0 0.0
0.0 0.03830635889089846 0.032900860282054606 -0.031758661583544526 -0.0011421986985100854 0.010543047984307701 0.0 0.0
0.0 0.0303329271874217 0.0261289423625927 -0.025061098210713652 -0.001067844151879043 0.008939168868409139 0.0 0.0
0.0 0.023489626819379637 0.020273355969290675 -0.019279215301541787 -0.0009941406677488832 0.00732967484939087 0.0 0.0
0.0 0.017944867886625894 0.01545406187649795 -0.014534800521448217 -0.0009192613550497277 0.005956971984256485 0.0 0.0
0.0 0.013383286068239363 0.011592631015468062 -0.010752732435034109 -0.000839898580433948 0.004853440604995522 0.0 0.0
0.0 0.009760522817592526 0.008477883230073875 -0.007727967331110496 -0.0007499158989633797 0.0038915114890593927 0.0 0.0
0.0 0.0067763374977158645 0.005909274233929078 -0.0052686384622343705 -0.0006406357716947066 0.0029783325913957737 0.0 0.0
0.0 0.004319096258295041 0.003768677869388071 -0.0032656590813325407 -0.0005030187880555297 0.0021017028882300286 0.0 0.0
0.0 0.0023711464775384166 0.002017645700956956 -0.0016850681869451055 -0.0003325775140118499 0.0012536516252789002 0.0 0.0
0.0 0.0010361111810899715 0.0007368262555674872 -0.0005930873107738962 -0.0001437389447935911 0.0005304976614998145 0.0 0.0
0.0 0.0002115186691597387 0.00010778036526287827 -8.526461856865214e-05 -2.251574669422615e-05 0.00010388652023784616 0.0 0.0
0.0 1.4717118101893453e-05 -8.838546611235298e-07 6.512265602486435e-07 2.3262810087495716e-07 -1.0632369531207513e-06 0.0 0.0
0.0 0.0 0.0 0.0 0.0 0.0 0.0 0.0
0.0 0.0 0.0 0.0 0.0 0.0 0.0 0.0
0.0 0.0 0.0 0.0 0.0 0.0 0.0 0.0
0.0 0.0020229722125271903 0.0012156624990852989 -0.0015091625924846632 0.0002935000933993642 0.0016691945566933443 0.0 0.0
0.0 0.0012380903604227223 0.0007155585041283782 -0.0009176558947705412 0.0002020973906421629 -0.0010219785316504517 0.0 0.0
0.0 0.0 0.0 0.0 0.0 0.0 0.0 0.0
0.0 0.0 0.0 0.0 0.0 0.0 0.0 0.0
0.0 0.0 0.0 0.0 0.0 0.0 0.0 0.0
0.0 1.0042081989473157e-05 -9.329724215854319e-07 7.201815348631364e-07 2.1279088672229382e-07 1.7612736881375419e-06 0.0 0.0
0.0 7.342839972111369e-05 3.937588805026492e-05 -3.1182347108175916e-05 -8.193540942088988e-06 -5.992130209985169e-05 0.0 0.0
0.0 0.0005381957170901923 0.00035719932776601864 -0.00028366978394350675 -7.352954382251167e-05 -0.0003780126244778541 0.0 0.0
0.0 0.0015970287048788826 0.0012356821282480126 -0.0010102152337808832 -0.00022546689446712934 -0.0010504554618861088 0.0 0.0
0.0 0.0031524819723036464 0.0026276277452245956 -0.0022281012782391432 -0.0003995264669854523 -0.0019522282545877154 0.0 0.0
0.0 0.005137700076767195 0.004380869672182919 -0.0038343627753797127 -0.0005465068968032043 -0.002924915520797333 0.0 0.0
0.0 0.007553145717310852 0.006467062775940043 -0.005804065598812889 -0.0006629971771271536 -0.0038966577322087107 0.0 0.0
0.0 0.010501227025767754 0.008978186208018038 -0.00822094625414867 -0.0007572399538693694 -0.004908541629908703 0.0 0.0
0.0 0.014154480417331524 0.012081693712581842 -0.011245084214035767 -0.0008366094985460739 -0.00605618754923573 0.0 0.0
0.0 0.018735298143440226 0.015964935597367932 -0.015057199751810735 -0.0009077358455571902 -0.007441312157582787 0.0 0.0
0.0 0.024395252073637574 0.020733415069283237 -0.019759088573403347 -0.0009743264958798905 -0.009075880993481937 0.0 0.0
0.0 0.03079208791157988 0.026332012201597102 -0.02529295522763831 -0.0010390569739587938 -0.01074260923666913 0.0 0.0
0.0 0.038027648393855126 0.03250541210908553 -0.03140205497188721 -0.0011033571371983101 -0.011957084784804223 0.0 0.0
0.0 0.0452486240228916 0.03881718453751738 -0.037649319395472614 -0.0011678651420447387 -0.01206662824176042 0.0 0.0
0.0 0.05148799785950542 0.04457087883071547 -0.04333961695248305 -0.0012312618782323943 -0.01020771131709992 0.0 0.0
0.0 0.0560221983482398 0.048754985182949795 -0.047473243556496444 -0.0012817416264533608 -0.005487373888809595 0.0 0.0
0.0 0.05602219834823648 0.048754985182946416 -0.04747324355649286 -0.0012817416264535699 0.005487373888831396 0.0 0.0
0.0 0.05148799785949878 0.044570878830708 -0.043339616952475644 -0.0012312618782323612 0.010207711317128335 0.0 0.0
0.0 0.045248624022881656 0.03881718453750693 -0.03764931939546255 -0.00116786514204438 0.01206662824178117 0.0 0.0
0.0 0.03802764839384372 0.03250541210907449 -0.03140205497187691 -0.0011033571371975588 0.011957084784813124 0.0 0.0
0.0 0.03079208791156455 0.02633201220158369 -0.025292955227625584 -0.0010390569739580884 0.010742609236666235 0.0 0.0
0.0 0.024395252073621032 0.02073341506926871 -0.0197590885733894 -0.0009743264958793067 0.009075880993477697 0.0 0.0
0.0 0.0187352981434247 0.015964935597354044 -0.015057199751797302 -0.0009077358455567447 0.007441312157580168 0.0 0.0
0.0 0.014154480417315951 0.01208169371256803 -0.011245084214022504 -0.0008366094985455244 0.00605618754923229 0.0 0.0
0.0 0.010501227025753212 0.00897818620800543 -0.008220946254136732 -0.0007572399538686984 0.004908541629902628 0.0 0.0
0.0 0.007553145717296589 0.0064670627759276286 -0.0058040655988013425 -0.0006629971771262874 0.00389665773220167 0.0 0.0
0.0 0.005137700076754797 0.004380869672172254 -0.00383436277536993 -0.0005465068968023236 0.0029249155207887955 0.0 0.0
0.0 0.0031524819722948284 0.0026276277452167785 -0.002228101278232156 -0.0003995264669846226 0.0019522282545825598 0.0 0.0
0.0 0.0015970287048718847 0.0012356821282422871 -0.001010215233776054 -0.0002254668944662325 0.0010504554618818835 0.0 0.0
0.0 0.0005381957170863964 0.00035719932776349207 -0.00028366978394146655 -7.352954382202536e-05 0.00037801262447548375 0.0 0.0
0.0 7.342839971989704e-05 3.937588805007436e-05 -3.118234710802443e-05 -8.193540942049969e-06 5.992130209953843e-05 0.0 0.0
0.0 1.0042081989081814e-05 -9.329724215460563e-07 7.201815348328094e-07 2.127908867132563e-07 -1.7612736880608109e-06 0.0 0.0
0.0 0.0 0.0 0.0 0.0 0.0 0.0 0.0
0.0 0.0 0.0 0.0 0.0 0.0 0.0 0.0
0.0 0.0 0.0 0.0 0.0 0.0 0.0 0.0
0.0 0.0012380903604160478 0.0007155585041245307 -0.0009176558947659097 0.00020209739064137882 0.0010219785316446443 0.0 0.0
0.0 0.0006725709998912436 0.00035656782980663206 -0.00047113511964280025 0.00011456728983616813 -0.0005277285849908355 0.0 0.0
0.0 0.0 0.0 0.0 0.0 0.0 0.0 0.0
0.0 0.0 0.0 0.0 0.0 0.0 0.0 0.0
0.0 0.0 0.0 0.0 0.0 0.0 0.0 0.0
0.0 3.16648760118532e-06 -2.2264720226634283e-07 1.6874067401284888e-07 5.390652825348966e-08 5.822618898257784e-07 0.0 0.0
0.0 4.2707310184846534e-05 5.167289308964475e-06 -4.105855289730564e-06 -1.0614340192339498e-06 -1.0762650656387389e-05 0.0 0.0
0.0 0.00023315111039628808 0.0001288683437156338 -0.00010190081095054327 -2.6967532765090502e-05 -0.00021585760958421534 0.0 0.0
0.0 0.0008910036680618758 0.0006120645642409676 -0.0004901278414599906 -0.00012193672278097646 -0.0007490689169654496 0.0 0.0
0.0 0.0020501412348338135 0.0015650387808102348 -0.0012927718512141032 -0.0002722669295961312 -0.0015695163881691168 0.0 0.0
0.0 0.0035698955181869725 0.0028997064559594986 -0.00247502991843817 -0.0004246765375213289 -0.002558214252644466 0.0 0.0
0.0 0.005432062417799155 0.004509172169963721 -0.003960068596129831 -0.0005491035738338898 -0.0035749806665115865 0.0 0.0
0.0 0.007697119498994361 0.006430837582882296 -0.005779247132981544 -0.0006515904499007533 -0.004591016511752756 0.0 0.0
0.0 0.010521694549360933 0.008793253270197258 -0.008057586256770992 -0.0007356670134262628 -0.005710369726661465 0.0 0.0
0.0 0.014024882469399194 0.011759583199032511 -0.01095221521732228 -0.0008073679817102237 -0.007038490651999118 0.0 0.0
0.0 0.018405051536181754 0.015436867467777787 -0.014567899589002361 -0.000868967878775422 -0.008581461461397983 0.0 0.0
0.0 0.023596353886730904 0.019830941247945412 -0.018904054479610424 -0.000926886768334977 -0.010167229296553478 0.0 0.0
0.0 0.029319506289119154 0.024797087220001755 -0.023816536057840534 -0.000980551162161219 -0.011412626640374816 0.0 0.0
0.0 0.035307959422904704 0.030065601303817635 -0.029034401402738184 -0.0010311999010794513 -0.011706237413365789 0.0 0.0
0.0 0.04106728431287718 0.03519219259197784 -0.03410847445676392 -0.0010837181352139052 -0.010216641441477395 0.0 0.0
0.0 0.04556165880959261 0.039341145940288036 -0.038206344741676626 -0.0011348011986114029 -0.005817785927874743 0.0 0.0
0.0 0.045561658809589255 0.03934114594028455 -0.03820634474167309 -0.001134801198611461 0.005817785927893837 0.0 0.0
0.0 0.04106728431287124 0.03519219259197084 -0.034108474456756854 -0.0010837181352139744 0.010216641441503851 0.0 0.0
0.0 0.03530795942289814 0.030065601303809822 -0.02903440140273071 -0.0010311999010791083 0.011706237413385211 0.0 0.0
0.0 0.029319506289109076 0.024797087219991878 -0.02381653605783094 -0.0009805511621609419 0.011412626640381677 0.0 0.0
0.0 0.0235963538867175 0.019830941247933873 -0.018904054479599107 -0.0009268867683347582 0.010167229296549663 0.0 0.0
0.0 0.01840505153616831 0.015436867467766374 -0.014567899588991068 -0.0008689678787753091 0.008581461461392707 0.0 0.0
0.0 0.014024882469388385 0.011759583199022941 -0.010952215217313084 -0.0008073679817098549 0.007038490651996397 0.0 0.0
0.0 0.010521694549349949 0.008793253270187394 -0.008057586256761713 -0.0007356670134256772 0.005710369726658826 0.0 0.0
0.0 0.007697119498981592 0.0064308375828712756 -0.005779247132971223 -0.0006515904499000504 0.004591016511746182 0.0 0.0
0.0 0.00543206241778653 0.004509172169953286 -0.003960068596119976 -0.0005491035738333094 0.0035749806665033223 0.0 0.0
0.0 0.003569895518177009 0.0028997064559515523 -0.0024750299184310193 -0.0004246765375205325 0.00255821425263617 0.0 0.0
0.0 0.002050141234825687 0.001565038780803859 -0.0012927718512086089 -0.000272266929595249 0.0015695163881638877 0.0 0.0
0.0 0.0008910036680571472 0.0006120645642376465 -0.0004901278414573356 -0.00012193672278031144 0.0007490689169620782 0.0 0.0
0.0 0.0002331511103941787 0.00012886834371459815 -0.00010190081094972134 -2.6967532764876657e-05 0.00021585760958267111 0.0 0.0
0.0 4.270731018387775e-05 5.16728930895641e-06 -4.1058552897238395e-06 -1.0614340192325016e-06 1.0762650656356748e-05 0.0 0.0
0.0 3.166487600942379e-06 -2.2264720209304626e-07 1.6874067387394082e-07 5.3906528219099103e-08 -5.822618893235191e-07 0.0 0.0
0.0 0.0 0.0 0.0 0.0 0.0 0.0 0.0
0.0 0.0 0.0 0.0 0.0 0.0 0.0 0.0
0.0 0.0 0.0 0.0 0.0 0.0 0.0 0.0
0.0 0.0006725709998867189 0.00035656782980436814 -0.0004711351196399551 0.00011456728983558696 0.0005277285849874006 0.0 0.0
0.0 0.0002954226825132581 0.00012702970542237144 -0.00017393754479155707 4.690783936918587e-05 -0.00019093110009704093 0.0 0.0
0.0 9.021725963171627e-08 -5.274566123778698e-10 6.099197200343717e-10 -8.24631076566411e-11 1.7958020711408732e-08 0.0 0.0
0.0 0.0 0.0 0.0 0.0 0.0 0.0 0.0
0.0 0.0 0.0 0.0 0.0 0.0 0.0 0.0
0.0 2.941446764786285e-06 -1.3952363807393717e-07 1.0592787567314353e-07 3.3595762400780106e-08 5.885360677433528e-07 0.0 0.0
0.0 2.340557078170495e-05 2.0575805360548493e-06 -1.553755640777964e-06 -5.03824895276886e-07 -5.564730078572965e-06 0.0 0.0
0.0 0.00011256554204261268 4.274862135163147e-05 -3.3631858740823876e-05 -9.116762610807615e-06 -0.00011510744495542321 0.0 0.0
0.0 0.00038651629247387227 0.0002079578382703037 -0.00016397499095682146 -4.3982847313482235e-05 -0.00042226915524236065 0.0 0.0
0.0 0.0010858617333355956 0.000684192945476977 -0.0005496405518712964 -0.00013455239360568027 -0.00103136358275202 0.0 0.0
0.0 0.002053858097559977 0.0015330264186954982 -0.001265888771651162 -0.0002671376470443364 -0.0019002961854592227 0.0 0.0
0.0 0.0034549459324226565 0.0026358768248889762 -0.002242843897475554 -0.0003930329274134208 -0.0028604685250884147 0.0 0.0
0.0 0.005019697972276343 0.003977222702234825 -0.0034737602412289186 -0.000503462461005907 -0.0038500635728743442 0.0 0.0
0.0 0.006983416382756637 0.005620723304873724 -0.005022740982798072 -0.0005979823220756495 -0.004904886239164378 0.0 0.0
0.0 0.00948716407734741 0.0076881561112273535 -0.007011147466784235 -0.000677008644443115 -0.006096826729092464 0.0 0.0
0.0 0.012672290222063166 0.010282562321704276 -0.009540387997006917 -0.0007421743246973603 -0.007448251810116815 0.0 0.0
0.0 0.016460569703984882 0.013451231184017738 -0.012655737550944365 -0.0007954936330733701 -0.00885660744617819 0.0 0.0
0.0 0.020864574885939895 0.017158343700564176 -0.016315469991428903 -0.0008428737091352729 -0.01000591357102847 0.0 0.0
0.0 0.025502899370806166 0.021288926962342625 -0.0204067396837952 -0.0008821872785474168 -0.010445458317823892 0.0 0.0
0.0 0.030259539790708265 0.02566421153776888 -0.024746890872931908 -0.0009173206648369571 -0.009552209603442816 0.0 0.0
0.0 0.034572690527922036 0.029747245821436195 -0.028779925991369613 -0.0009673198300665811 -0.0059650433672858915 0.0 0.0
0.0 0.034572690527921154 0.029747245821434707 -0.028779925991367965 -0.0009673198300667378 0.005965043367301557 0.0 0.0
0.0 0.030259539790705926 0.025664211537764783 -0.024746890872927807 -0.0009173206648369765 0.009552209603465131 0.0 0.0
0.0 0.02550289937080199 0.02128892696233684 -0.02040673968378995 -0.0008821872785468926 0.010445458317840023 0.0 0.0
0.0 0.02086457488593402 0.01715834370055801 -0.016315469991423432 -0.000842873709134578 0.010005913571033458 0.0 0.0
0.0 0.016460569703976594 0.013451231184010702 -0.012655737550937955 -0.0007954936330727433 0.008856607446174648 0.0 0.0
0.0 0.012672290222053989 0.010282562321696657 -0.009540387996999732 -0.0007421743246969208 0.007448251810112245 0.0 0.0
0.0 0.009487164077339997 0.007688156111220895 -0.0070111474667781636 -0.0006770086444427328 0.006096826729090447 0.0 0.0
0.0 0.006983416382749481 0.005620723304867397 -0.005022740982792143 -0.0005979823220752526 0.004904886239161979 0.0 0.0
0.0 0.005019697972267927 0.003977222702227882 -0.0034737602412224784 -0.0005034624610054032 0.0038500635728689735 0.0 0.0
0.0 0.00345494593241498 0.002635876824882888 -0.0022428438974702713 -0.00039303292741261537 0.0028604685250821224 0.0 0.0
0.0 0.002053858097552573 0.0015330264186901726 -0.0012658887716466096 -0.0002671376470435628 0.0019002961854525406 0.0 0.0
0.0 0.0010858617333307995 0.0006841929454735737 -0.0005496405518685028 -0.00013455239360507122 0.00103136358274821 0.0 0.0
0.0 0.0003865162924714568 0.00020795783826892534 -0.0001639749909557088 -4.398284731321644e-05 0.0004222691552401289 0.0 0.0
0.0 0.00011256554204110851 4.274862135125447e-05 -3.3631858740519304e-05 -9.116762610735207e-06 0.00011510744495443077 0.0 0.0
0.0 2.340557078118225e-05 2.057580536041249e-06 -1.553755640767908e-06 -5.038248952733171e-07 5.564730078553198e-06 0.0 0.0
0.0 2.9414467642801842e-06 -1.3952363805020315e-07 1.0592787565476392e-07 3.359576239544616e-08 -5.885360676368125e-07 0.0 0.0
0.0 0.0 0.0 0.0 0.0 0.0 0.0 0.0
0.0 0.0 0.0 0.0 0.0 0.0 0.0 0.0
0.0 9.021725939530122e-08 -5.274566109826295e-10 6.099197184208691e-10 -8.246310743827494e-11 -1.7958020663926448e-08 0.0 0.0
0.0 0.0002954226825105276 0.00012702970542140097 -0.00017393754479026692 4.690783936886618e-05 0.00019093110009564987 0.0 0.0
0.0 7.295951282378066e-05 2.7553177897015748e-05 -3.943296345365218e-05 1.1879785556636477e-05 -4.383230577654975e-05 0.0 0.0
0.0 1.6538167115190833e-06 -2.748905065804631e-09 7.58763272979475e-09 -4.838727663989611e-09 3.533900715791832e-07 0.0 0.0
0.0 0.0 0.0 0.0 0.0 0.0 0.0 0.0
0.0 0.0 0.0 0.0 0.0 0.0 0.0 0.0
0.0 3.0628381032312882e-06 -6.90575449801798e-08 5.370267077264668e-08 1.5354874207528902e-08 6.580753880870616e-07 0.0 0.0
0.0 1.669848219022137e-05 -6.754141313248215e-07 5.129785862136518e-07 1.624355451111653e-07 4.126874192703304e-06 0.0 0.0
0.0 7.77599163914357e-05 1.6348884135395796e-05 -1.2897848565378653e-05 -3.451035570017107e-06 -7.76580474765449e-05 0.0 0.0
0.0 0.00018122997479109044 6.624582031282987e-05 -5.2216946097701866e-05 -1.4028874215128003e-05 -0.00026276150267587047 0.0 0.0
0.0 0.0004329751515130264 0.00017612385697611993 -0.00013909610032926384 -3.702775664685609e-05 -0.0005392592052635065 0.0 0.0
0.0 0.0008711760067594483 0.00045840682481521923 -0.000364425405014129 -9.398141980109022e-05 -0.0010619562410884894 0.0 0.0
0.0 0.0015661143620044273 0.000991459617353547 -0.0008053366091182573 -0.00018612300823528957 -0.001805929057400982 0.0 0.0
0.0 0.0025536622645110497 0.0017102180778642694 -0.001425967029289769 -0.0002842510485745 -0.002646853903275796 0.0 0.0
0.0 0.003754391662461156 0.002636354398948892 -0.002254118414264199 -0.0003822359846846915 -0.0036031642401003735 0.0 0.0
0.0 0.005287188304919316 0.003827808374845491 -0.0033543149925599983 -0.0004734933822854919 -0.004640211437439602 0.0 0.0
0.0 0.007224039478323996 0.005354238228285044 -0.004802320191324592 -0.0005519180369604513 -0.0057589972713800505 0.0 0.0
0.0 0.009625098759413437 0.007283420379875026 -0.0066690696818802785 -0.0006143506979947481 -0.006920256304987837 0.0 0.0
0.0 0.012575261022235946 0.009684505747748302 -0.009021784213048575 -0.0006627215346997288 -0.00795874593305064 0.0 0.0
0.0 0.015950196952873776 0.012591170689129558 -0.011885658407190008 -0.0007055122819395553 -0.008446699928910884 0.0 0.0
0.0 0.019738716503355392 0.016009989940633844 -0.015283599111969637 -0.0007263908286642126 -0.008079679430448666 0.0 0.0
0.0 0.023724226352992237 0.019874999574349773 -0.019110927220218055 -0.0007640723541317223 -0.005799703000001184 0.0 0.0
0.0 0.02372422635299253 0.019874999574349173 -0.019110927220217497 -0.0007640723541316869 0.0057997030000128385 0.0 0.0
0.0 0.01973871650335545 0.016009989940631568 -0.01528359911196758 -0.0007263908286639846 0.008079679430467791 0.0 0.0
0.0 0.01595019695287063 0.012591170689124813 -0.011885658407185593 -0.0007055122819392222 0.008446699928923138 0.0 0.0
0.0 0.01257526102223196 0.00968450574774421 -0.009021784213044955 -0.0006627215346992539 0.007958745933052867 0.0 0.0
0.0 0.009625098759406914 0.007283420379870155 -0.006669069681875836 -0.0006143506979943164 0.00692025630498334 0.0 0.0
0.0 0.007224039478317031 0.005354238228279835 -0.0048023201913196326 -0.0005519180369602003 0.0057589972713750475 0.0 0.0
0.0 0.005287188304915072 0.0038278083748419698 -0.003354314992556755 -0.00047349338228521435 0.004640211437437333 0.0 0.0
0.0 0.003754391662457618 0.002636354398945647 -0.002254118414261284 -0.0003822359846843628 0.003603164240099013 0.0 0.0
0.0 0.0025536622645064818 0.0017102180778610912 -0.001425967029287147 -0.00028425104857394344 0.0026468539032717146 0.0 0.0
0.0 0.0015661143620001629 0.0009914596173508732 -0.0008053366091160841 -0.0001861230082347888 0.0018059290573965029 0.0 0.0
0.0 0.0008711760067554018 0.00045840682481315643 -0.00036442540501244826 -9.398141980070815e-05 0.0010619562410839668 0.0 0.0
0.0 0.0004329751515111268 0.00017612385697521178 -0.00013909610032855377 -3.702775664665789e-05 0.0005392592052612525 0.0 0.0
0.0 0.00018122997479025197 6.624582031260226e-05 -5.2216946097528306e-05 -1.402887421507393e-05 0.0002627615026750494 0.0 0.0
0.0 7.775991639065707e-05 1.6348884135243855e-05 -1.289784856525517e-05 -3.4510355699886516e-06 7.765804747582971e-05 0.0 0.0
0.0 1.6698482189740015e-05 -6.75414131304937e-07 5.129785861990805e-07 1.624355451058679e-07 -4.126874192569552e-06 0.0 0.0
0.0 3.062838102718457e-06 -6.905754496692381e-08 5.3702670762761436e-08 1.535487420416051e-08 -6.580753879724068e-07 0.0 0.0
0.0 0.0 0.0 0.0 0.0 0.0 0.0 0.0
0.0 0.0 0.0 0.0 0.0 0.0 0.0 0.0
0.0 1.65381671108306e-06 -2.7489050652915605e-09 7.587632727915323e-09 -4.8387276626236715e-09 -3.5339007148384286e-07 0.0 0.0
0.0 7.295951282250876e-05 2.75531778968748e-05 -3.9432963453419046e-05 1.187978555654423e-05 4.3832305776524614e-05 0.0 0.0
0.0 8.323879789235777e-06 -2.2917860930441155e-07 3.041565037111111e-07 -7.49778944066929e-08 5.861553471507813e-07 0.0 0.0
0.0 2.1979396482406107e-06 1.1868574056845524e-09 1.0883559240507842e-08 -1.207041664619258e-08 4.588111399241068e-07 0.0 0.0
0.0 8.28283976103979e-07 8.757322001854407e-09 -7.994197467743662e-09 -7.631245341108108e-10 1.6872916499049268e-07 0.0 0.0
0.0 1.0341171999299922e-06 3.4830124123105497e-09 -4.631541757330647e-09 1.1485293450206947e-09 2.129476539670559e-07 0.0 0.0
0.0 5.455561020512527e-06 -1.877319191668789e-08 9.400339741409076e-09 9.372852175272426e-09 1.2338249442580408e-06 0.0 0.0
0.0 1.3384233041883516e-05 -8.351644693116211e-08 5.658173841532376e-08 2.6934708515848523e-08 1.8568763080703526e-06 0.0 0.0
0.0 5.873569307836706e-05 4.849084911360143e-06 -3.8095102768677303e-06 -1.0395746344924134e-06 -7.296948798879893e-05 0.0 0.0
0.0 0.00015933467271530167 1.5550356820271316e-05 -1.2224817289489932e-05 -3.3255395307813534e-06 -0.00018617500845294983 0.0 0.0
0.0 0.00026601411286742804 3.99063295513858e-05 -3.144959299523407e-05 -8.456736556151742e-06 -0.00039087099630287785 0.0 0.0
0.0 0.0004616532333738913 7.716055335515536e-05 -6.101584716955285e-05 -1.614470618560248e-05 -0.0006356502040173172 0.0 0.0
0.0 0.0006315604625929325 0.0001441511124692946 -0.00011482716154559983 -2.9323950923694724e-05 -0.0010472130269150335 0.0 0.0
0.0 0.0009488596449915995 0.00023979122500218805 -0.0001925097772334978 -4.7281447768690124e-05 -0.00155547958792423 0.0 0.0
0.0 0.0014154701925349275 0.0004201658170784059 -0.00033649812401617056 -8.366769306223524e-05 -0.0022414709309254047 0.0 0.0
0.0 0.0020720863237154684 0.0006964534603494923 -0.0005612510958161322 -0.00013520236453336005 -0.0031181283305688687 0.0 0.0
0.0 0.002914152790093828 0.0010921030486408818 -0.000892001860088463 -0.0002001011885524185 -0.004191688688312817 0.0 0.0
0.0 0.004039403624114681 0.001703860157485041 -0.0014350127709131192 -0.00026884738657192146 -0.005387005743524031 0.0 0.0
0.0 0.005526591561226992 0.002716219681201643 -0.0023859287693147185 -0.00033029091188692346 -0.006498769774792527 0.0 0.0
0.0 0.007447853899434772 0.004323619488347099 -0.003925857135339247 -0.00039776235300784997 -0.0070760886772369925 0.0 0.0
0.0 0.009854721116757056 0.00660114070880288 -0.0061335744103156635 -0.00046756629848721426 -0.006710717775299084 0.0 0.0
0.0 0.013069670125115847 0.009795136183126545 -0.009328517629871955 -0.0004666185532545838 -0.005508824627108236 0.0 0.0
0.0 0.013069670125116074 0.009795136183126047 -0.009328517629871528 -0.000466618553254516 0.005508824627115979 0.0 0.0
0.0 0.009854721116757618 0.00660114070880127 -0.006133574410314112 -0.0004675662984871544 0.006710717775312106 0.0 0.0
0.0 0.007447853899432833 0.004323619488344183 -0.003925857135336293 -0.0003977623530078878 0.007076088677243658 0.0 0.0
0.0 0.005526591561224512 0.002716219681199692 -0.0023859287693127626 -0.0003302909118869294 0.006498769774792452 0.0 0.0
0.0 0.004039403624112136 0.0017038601574840741 -0.0014350127709121963 -0.00026884738657187706 0.005387005743519864 0.0 0.0
0.0 0.002914152790091217 0.001092103048639728 -0.0008920018600874569 -0.00020010118855227086 0.004191688688309275 0.0 0.0
0.0 0.002072086323714204 0.0006964534603492107 -0.0005612510958158398 -0.00013520236453337095 0.0031181283305670602 0.0 0.0
0.0 0.0014154701925342193 0.000420165817078506 -0.00033649812401635954 -8.366769306214627e-05 0.002241470930923863 0.0 0.0
0.0 0.0009488596449895483 0.0002397912250017088 -0.00019250977723310497 -4.7281447768603856e-05 0.0015554795879208975 0.0 0.0
0.0 0.0006315604625909903 0.0001441511124688834 -0.00011482716154527259 -2.932395092361083e-05 0.0010472130269114086 0.0 0.0
0.0 0.00046165323337169807 7.716055335484374e-05 -6.101584716929409e-05 -1.61447061855496e-05 0.0006356502040140927 0.0 0.0
0.0 0.00026601411286656594 3.990632955127439e-05 -3.144959299515562e-05 -8.456736556118734e-06 0.00039087099630167953 0.0 0.0
0.0 0.000159334672714753 1.555035682022205e-05 -1.2224817289456466e-05 -3.3255395307655837e-06 0.00018617500845229145 0.0 0.0
0.0 5.873569307778124e-05 4.849084911332518e-06 -3.809510276844996e-06 -1.0395746344875114e-06 7.296948798838679e-05 0.0 0.0
0.0 1.3384233041465471e-05 -8.351644692279883e-08 5.658173840887977e-08 2.693470851391483e-08 -1.8568763078863502e-06 0.0 0.0
0.0 5.4555610200182124e-06 -1.87731919147807e-08 9.400339740515117e-09 9.372852174262189e-09 -1.2338249441362645e-06 0.0 0.0
0.0 1.0341171994111593e-06 3.4830124097744975e-09 -4.63154175459075e-09 1.1485293448161685e-09 -2.1294765385734702e-07 0.0 0.0
0.0 8.282839756553083e-07 8.757321996808003e-09 -7.99419746324245e-09 -7.631245335657651e-10 -1.687291648967851e-07 0.0 0.0
0.0 2.1979396476663126e-06 1.1868574058352821e-09 1.0883559236708018e-08 -1.2070416642541689e-08 -4.588111397997392e-07 0.0 0.0
0.0 8.323879788784373e-06 -2.2917860917848824e-07 3.0415650352726844e-07 -7.497789434882935e-08 -5.861553469055411e-07 0.0 0.0
0.0 1.1154274967154838e-06 -6.940272927065707e-08 1.0140536005932445e-07 -3.2002630788669234e-08 1.5472886577778056e-07 0.0 0.0
0.0 1.7796170291698353e-06 6.777231581667589e-09 2.818520896233413e-09 -9.595752477896557e-09 3.8083891622846305e-07 0.0 0.0
0.0 1.006612653282911e-06 1.8800037151531995e-08 -1.6160969127413305e-08 -2.6390680241173787e-09 2.0557945423080885e-07 0.0 0.0
0.0 1.3830639415008088e-06 2.5459537940910303e-08 -2.257136934973081e-08 -2.8881685911793595e-09 2.8364822182210734e-07 0.0 0.0
0.0 6.329568723119171e-06 1.2100159608371412e-07 -9.95749289913299e-08 -2.1426667092374816e-08 1.450807040856032e-06 0.0 0.0
0.0 1.6603222805893222e-05 2.923750411414829e-07 -2.3536244238636934e-07 -5.701259875511966e-08 4.230645678701024e-06 0.0 0.0
0.0 6.031993815641257e-05 -5.127020370482405e-06 4.0853517823100815e-06 1.0416685881723107e-06 -7.326349034692967e-05 0.0 0.0
0.0 0.00015950311289790692 -1.5509488946255246e-05 1.2190927259291862e-05 3.3185616869633454e-06 -0.00018629789215804263 0.0 0.0
0.0 0.0002656484974962608 -3.9639886935363164e-05 3.1215333847252955e-05 8.424553088110192e-06 -0.0003905931025499121 0.0 0.0
0.0 0.0004613177097934095 -7.688455810301665e-05 6.0766977731801616e-05 1.611758037121509e-05 -0.0006354031410476321 0.0 0.0
0.0 0.0006395429049410045 -0.00014291878257490637 0.00011399074869919982 2.8928033875706512e-05 -0.0010459674417609604 0.0 0.0
0.0 0.0009493931472422342 -0.00024044810095736707 0.00019332725146380944 4.7120849493557464e-05 -0.0015555945494083576 0.0 0.0
0.0 0.0014193868145386704 -0.00042574966170737233 0.0003417351111450916 8.401455056228081e-05 -0.0022421177188976494 0.0 0.0
0.0 0.0020830157559524063 -0.0007083099234128042 0.0005706430817584327 0.00013766684165437105 -0.0031214854453628553 0.0 0.0
0.0 0.0029078025981452873 -0.0010769438580438854 0.0008718437395369505 0.00020510011850693424 -0.004202467323141441 0.0 0.0
0.0 0.0038975632820427816 -0.0014655730407236909 0.0011904712326146537 0.0002751018081090362 -0.00544325574891565 0.0 0.0
0.0 0.0048714869550831605 -0.001690436747919935 0.0013607325203383513 0.0003297042275815829 -0.006832011410927525 0.0 0.0
0.0 0.0056721688098245494 -0.0014808056659717929 0.0011233652271650514 0.0003574404388067417 -0.008317201518887542 0.0 0.0
0.0 0.005980564504470008 -0.0007012098899695023 0.0004475039603177916 0.0002537059296517102 -0.009475730238530747 0.0 0.0
0.0 0.005535834530938136 0.001266069757061964 -0.0013474436534162471 8.137389635428315e-05 -0.008103964061280224 0.0 0.0
0.0 0.005535834530941449 0.0012660697570619764 -0.001347443653416449 8.137389635447205e-05 0.008103964061287949 0.0 0.0
0.0 0.005980564504473165 -0.000701209889969321 0.0004475039603175554 0.000253705929651765 0.009475730238538328 0.0 0.0
0.0 0.005672168809824145 -0.0014808056659713388 0.0011233652271647712 0.0003574404388065665 0.008317201518889693 0.0 0.0
0.0 0.004871486955080474 -0.0016904367479185101 0.0013607325203372548 0.0003297042275812555 0.006832011410925282 0.0 0.0
0.0 0.0038975632820393586 -0.001465573040722044 0.0011904712326132557 0.00027510180810878804 0.00544325574891103 0.0 0.0
0.0 0.002907802598142179 -0.0010769438580424697 0.0008718437395358835 0.00020510011850658586 0.004202467323137885 0.0 0.0
0.0 0.0020830157559496324 -0.0007083099234111629 0.0005706430817571149 0.00013766684165404815 0.0031214854453599766 0.0 0.0
0.0 0.0014193868145363723 -0.0004257496617060413 0.00034173511114400895 8.40145505620322e-05 0.002242117718895058 0.0 0.0
0.0 0.0009493931472397174 -0.00024044810095633572 0.00019332725146293915 4.712084949339644e-05 0.0015555945494050674 0.0 0.0
0.0 0.0006395429049389137 -0.00014291878257428133 0.00011399074869869229 2.8928033875589008e-05 0.0010459674417579645 0.0 0.0
0.0 0.0004613177097912804 -7.688455810249813e-05 6.07669777313593e-05 1.6117580371138804e-05 0.0006354031410445542 0.0 0.0
0.0 0.00026564849749529274 -3.9639886935133916e-05 3.12153338470728e-05 8.424553088061108e-06 0.00039059310254858606 0.0 0.0
0.0 0.00015950311289713353 -1.550948894615325e-05 1.2190927259209693e-05 3.318561686943547e-06 0.00018629789215725273 0.0 0.0
0.0 6.0319938155620954e-05 -5.127020370427079e-06 4.085351782271472e-06 1.0416685881555994e-06 7.326349034616972e-05 0.0 0.0
0.0 1.6603222805341956e-05 2.923750411306663e-07 -2.3536244237751912e-07 -5.701259875313553e-08 -4.2306456785429164e-06 0.0 0.0
0.0 6.329568722502479e-06 1.210015960720766e-07 -9.957492898152986e-08 -2.142666709055061e-08 -1.4508070407032778e-06 0.0 0.0
0.0 1.38306394101384e-06 2.5459537931086613e-08 -2.257136934122153e-08 -2.8881685898646692e-09 -2.8364822171881803e-07 0.0 0.0
0.0 1.0066126526757192e-06 1.8800037139368483e-08 -1.616096911716342e-08 -2.639068022204588e-09 -2.0557945410441137e-07 0.0 0.0
0.0 1.7796170285604457e-06 6.777231579867834e-09 2.8185208935578717e-09 -9.595752473420792e-09 -3.808389160997736e-07 0.0 0.0
0.0 1.1154274964526031e-06 -6.940272925345171e-08 1.0140536003419192e-07 -3.2002630780733594e-08 -1.5472886573936063e-07 0.0 0.0
0.0 0.0 0.0 0.0 0.0 0.0 0.0 0.0
0.0 1.5710527121896345e-07 1.3280899262144232e-09 -5.741504665692977e-10 -7.539394596450155e-10 3.144508494451769e-08 0.0 0.0
0.0 1.1358547083526696e-06 2.9199022431040485e-08 -2.4414515400477513e-08 -4.784507030563987e-09 2.311035997749412e-07 0.0 0.0
0.0 4.433390297608247e-06 1.6015753021184142e-07 -1.3149237797340506e-07 -2.8665152238422848e-08 9.6169292488308e-07 0.0 0.0
0.0 5.705734389422274e-06 1.9781309764226555e-07 -1.546010658768896e-07 -4.32120317653681e-08 1.0628483684856696e-06 0.0 0.0
0.0 2.1864701602232243e-05 -1.631869311536787e-06 1.2198864353231198e-06 4.1198287621363046e-07 -7.064926895354586e-06 0.0 0.0
0.0 8.460118001112227e-05 -1.67778730419723e-05 1.330222257635795e-05 3.4756504656143422e-06 -7.892803948922058e-05 0.0 0.0
0.0 0.00018183002808056065 -6.619317367965504e-05 5.218375126343015e-05 1.4009422416224853e-05 -0.0002629713231078401 0.0 0.0
0.0 0.0004310116939940425 -0.0001757210171620914 0.0001387306846089324 3.69903325531589e-05 -0.0005385947681191472 0.0 0.0
0.0 0.0008691982143115085 -0.0004576289963180133 0.00036375099679547974 9.387799952253337e-05 -0.0010610787065376008 0.0 0.0
0.0 0.0015653645488990856 -0.0009911161055619541 0.0008050623258705037 0.00018605377969145012 -0.001806011541287038 0.0 0.0
0.0 0.002555153567825715 -0.001712169784806412 0.0014280599637195345 0.00028410982108687736 -0.0026464103706145773 0.0 0.0
0.0 0.003763285209348039 -0.00264678744506821 0.0022647240035973447 0.0003820634414708646 -0.0035965077327189876 0.0 0.0
0.0 0.005310411851734464 -0.0038508597833578065 0.003375905837025867 0.00047495394633193867 -0.004632187197446511 0.0 0.0
0.0 0.007228584019931053 -0.0053412177499563675 0.004781522764850263 0.0005596949851061021 -0.0058044979040660655 0.0 0.0
0.0 0.009420545796529907 -0.007012647321386183 0.0063792251671684905 0.0006334221542176897 -0.007191694799341535 0.0 0.0
0.0 0.011613386540594198 -0.008568878012936681 0.007871070864767547 0.0006978071481691353 -0.008811574636139793 0.0 0.0
0.0 0.01322365891095695 -0.009509951853932797 0.008759433087600164 0.0007505187663326354 -0.010544239622724235 0.0 0.0
0.0 0.01301169194768821 -0.008960733921271507 0.008133520501678 0.0008272134195935033 -0.011245968574559343 0.0 0.0
0.0 0.009520285236106629 -0.005682880048951939 0.0048642406361726915 0.0008186394127792469 -0.008987773848455631 0.0 0.0
0.0 0.009520285236111141 -0.0056828800489532524 0.004864240636174008 0.000818639412779243 0.008987773848465948 0.0 0.0
0.0 0.013011691947692082 -0.008960733921271547 0.008133520501678287 0.0008272134195932545 0.011245968574574276 0.0 0.0
0.0 0.01322365891095505 -0.009509951853929355 0.008759433087597026 0.0007505187663323289 0.010544239622732671 0.0 0.0
0.0 0.011613386540587235 -0.008568878012930686 0.007871070864761832 0.0006978071481688526 0.008811574636138197 0.0 0.0
0.0 0.00942054579652061 -0.0070126473213786445 0.006379225167161263 0.0006334221542173809 0.007191694799336042 0.0 0.0
0.0 0.007228584019923483 -0.005341217749950279 0.004781522764844552 0.0005596949851057251 0.005804497904061114 0.0 0.0
0.0 0.005310411851728014 -0.003850859783352769 0.0033759058370213535 0.0004749539463314149 0.004632187197442267 0.0 0.0
0.0 0.0037632852093411207 -0.002646787445062193 0.0022647240035919354 0.0003820634414702567 0.0035965077327153845 0.0 0.0
0.0 0.0025551535678176047 -0.0017121697848004888 0.0014280599637143676 0.00028410982108612135 0.0026464103706086203 0.0 0.0
0.0 0.0015653645488914764 -0.0009911161055567337 0.0008050623258661281 0.00018605377969060544 0.0018060115412807656 0.0 0.0
0.0 0.0008691982143057299 -0.0004576289963146542 0.0003637509967927892 9.387799952186487e-05 0.0010610787065317405 0.0 0.0
0.0 0.0004310116939921745 -0.00017572101716116663 0.0001387306846081737 3.699033255299297e-05 0.0005385947681171548 0.0 0.0
0.0 0.0001818300280796712 -6.619317367935709e-05 5.218375126320508e-05 1.4009422416152015e-05 0.0002629713231069419 0.0 0.0
0.0 8.46011800099257e-05 -1.6777873041804085e-05 1.3302222576228458e-05 3.4756504655755634e-06 7.892803948844135e-05 0.0 0.0
0.0 2.1864701601752067e-05 -1.6318693115761092e-06 1.2198864353546736e-06 4.1198287622143693e-07 7.064926895570524e-06 0.0 0.0
0.0 5.705734389123961e-06 1.9781309756451107e-07 -1.5460106580995233e-07 -4.321203175457563e-08 -1.062848367966998e-06 0.0 0.0
0.0 4.433390297146278e-06 1.6015753019507324e-07 -1.3149237795953612e-07 -2.8665152235533242e-08 -9.61692924777465e-07 0.0 0.0
0.0 1.1358547078605477e-06 2.919902241766033e-08 -2.441451538947173e-08 -4.7845070281886985e-09 -2.3110359967327132e-07 0.0 0.0
0.0 1.5710527106426096e-07 1.3280899248879184e-09 -5.741504659949382e-10 -7.53939458893311e-10 -3.144508491313459e-08 0.0 0.0
0.0 0.0 0.0 0.0 0.0 0.0 0.0 0.0
0.0 0.0 0.0 0.0 0.0 0.0 0.0 0.0
0.0 0.0 0.0 0.0 0.0 0.0 0.0 0.0
0.0 2.3595770756542535e-06 8.103527067074457e-08 -6.628456757845172e-08 -1.4750703092293867e-08 4.821090557083344e-07 0.0 0.0
0.0 6.5906872819304125e-06 3.108815427979235e-07 -2.5702362177301864e-07 -5.385792102489637e-08 1.4093816020137892e-06 0.0 0.0
0.0 8.79608995721515e-06 -1.0505985442276173e-07 7.117439010640058e-08 3.3885464316370834e-08 -1.254354029770993e-07 0.0 0.0
0.0 3.2664959864443304e-05 -4.283506967940491e-06 3.4442658776804148e-06 8.39241090260055e-07 -1.3510664634169843e-05 0.0 0.0
0.0 0.00012132325685851523 -4.402753255172612e-05 3.473324863007751e-05 9.2942839216486e-06 -0.00011821441763534183 0.0 0.0
0.0 0.00038751050245908864 -0.00020795708293100423 0.00016398811678344728 4.39689661475569e-05 -0.00042244606156254606 0.0 0.0
0.0 0.0010818418729956327 -0.0006823198804297367 0.0005479978069079683 0.00013432207352176816 -0.0010286532953343525 0.0 0.0
0.0 0.0020512394852726223 -0.0015318745470265427 0.0012647799654271722 0.00026709458159937055 -0.001898598207432628 0.0 0.0
0.0 0.0034547507157356785 -0.0026359024135472727 0.002242815947088915 0.0003930864664583576 -0.0028609030589402977 0.0 0.0
0.0 0.005020400728864298 -0.0039779524794920544 0.0034747243310075653 0.0005032281484844879 -0.003848184061821324 0.0 0.0
0.0 0.00698520296863185 -0.005626832868272365 0.0050297241816827515 0.0005971086865896103 -0.004884929527108548 0.0 0.0
0.0 0.00949778675519415 -0.007708104987711617 0.007030928551064265 0.0006771764366473492 -0.006050140302647454 0.0 0.0
0.0 0.012677365919584559 -0.010285081994532859 0.00953651979090554 0.0007485622036273235 -0.00745868627785647 0.0 0.0
0.0 0.016329269299458014 -0.013252507283029886 0.012437808515348592 0.0008146987676812937 -0.009271254978225032 0.0 0.0
0.0 0.02016784548246345 -0.016236066958202056 0.015356679275779207 0.0008793876824228473 -0.011624440469276463 0.0 0.0
0.0 0.023044431715087226 -0.01846457359612906 0.01750407923275467 0.0009604943633743932 -0.014177786337800683 0.0 0.0
0.0 0.023514538416079447 -0.018530421869255385 0.01747217405116014 0.001058247818095247 -0.015478253074267654 0.0 0.0
0.0 0.018352458945722745 -0.014309948339470087 0.013127020894630545 0.0011829274448395364 -0.012423271646799273 0.0 0.0
0.0 0.01835245894572559 -0.014309948339470229 0.013127020894630243 0.0011829274448399833 0.012423271646812463 0.0 0.0
0.0 0.023514538416081796 -0.018530421869254105 0.017472174051158557 0.0010582478180955423 0.015478253074286363 0.0 0.0
0.0 0.023044431715083274 -0.01846457359612344 0.017504079232749027 0.0009604943633744112 0.01417778633781254 0.0 0.0
0.0 0.020167845482454583 -0.01623606695819372 0.015356679275771298 0.0008793876824224206 0.011624440469278036 0.0 0.0
0.0 0.016329269299446246 -0.013252507283019903 0.01243780851533906 0.0008146987676808386 0.009271254978220247 0.0 0.0
0.0 0.012677365919573332 -0.010285081994523455 0.009536519790896293 0.0007485622036271582 0.007458686277851468 0.0 0.0
0.0 0.009497786755183582 -0.007708104987702784 0.007030928551055772 0.0006771764366470111 0.006050140302642048 0.0 0.0
0.0 0.006985202968621419 -0.0056268328682632 0.005029724181674091 0.000597108686589107 0.00488492952710459 0.0 0.0
0.0 0.00502040072885305 -0.003977952479482772 0.0034747243309989646 0.0005032281484838069 0.003848184061814681 0.0 0.0
0.0 0.0034547507157246327 -0.002635902413538443 0.0022428159470809163 0.00039308646645752583 0.0028609030589321627 0.0 0.0
0.0 0.0020512394852628558 -0.0015318745470193507 0.0012647799654207869 0.00026709458159856374 0.0018985982074245789 0.0 0.0
0.0 0.0010818418729896429 -0.0006823198804252434 0.0005479978069042097 0.00013432207352103356 0.0010286532953296625 0.0 0.0
0.0 0.00038751050245635493 -0.00020795708292951483 0.00016398811678226805 4.396896614724678e-05 0.0004224460615601396 0.0 0.0
0.0 0.00012132325685689439 -4.402753255146214e-05 3.473324862986848e-05 9.294283921593651e-06 0.00011821441763463406 0.0 0.0
0.0 3.266495986348879e-05 -4.283506967931219e-06 3.4442658776729685e-06 8.39241090258204e-07 1.351066463413765e-05 0.0 0.0
0.0 8.796089956876156e-06 -1.0505985450853726e-07 7.117439017434597e-08 3.388546433414808e-08 1.2543540328918625e-07 0.0 0.0
0.0 6.590687281374371e-06 3.1088154276881837e-07 -2.570236217490074e-07 -5.385792101982278e-08 -1.4093816018841068e-06 0.0 0.0
0.0 2.3595770750547986e-06 8.103527064889636e-08 -6.628456756069521e-08 -1.4750703088195763e-08 -4.821090555798598e-07 0.0 0.0
0.0 0.0 0.0 0.0 0.0 0.0 0.0 0.0
0.0 0.0 0.0 0.0 0.0 0.0 0.0 0.0
0.0 0.0 0.0 0.0 0.0 0.0 0.0 0.0
0.0 0.0 0.0 0.0 0.0 0.0 0.0 0.0
0.0 1.762862297087584e-06 7.425115861487428e-08 -6.029149643128876e-08 -1.3959662183589334e-08 3.448992119798501e-07 0.0 0.0
0.0 4.567888438468323e-06 2.816642514112822e-07 -2.2557908395482e-07 -5.6085167456466286e-08 9.161147982519621e-07 0.0 0.0
0.0 1.2168129934917707e-05 7.640028992363821e-07 -5.929529672222462e-07 -1.7104993201410427e-07 1.943006504447047e-06 0.0 0.0
0.0 5.2362366318009385e-05 -1.5239501844737418e-05 1.1979362458597033e-05 3.260139386140382e-06 -3.209958057887497e-05 0.0 0.0
0.0 0.0002488864651711424 -0.00013068090670804972 0.00010358262472208167 2.7098281985968183e-05 -0.00022007998651178278 0.0 0.0
0.0 0.0008909201062855861 -0.0006110094501018924 0.0004893024290839039 0.00012170702101798838 -0.0007478426054134301 0.0 0.0
0.0 0.002046023833392314 -0.00156286986112159 0.0012907418388510476 0.00027212802227054246 -0.0015657604207505013 0.0 0.0
0.0 0.0035662295853490307 -0.0028994447121718776 0.0024746451577893533 0.00042479955438252395 -0.002556762345792639 0.0 0.0
0.0 0.005432962601747849 -0.004509780251553873 0.003960604413477783 0.0005491758380760892 -0.0035761636541311983 0.0 0.0
0.0 0.00769572154271264 -0.00642967505704468 0.005778209618229495 0.0006514654388151845 -0.00458937763671194 0.0 0.0
0.0 0.010513069760872807 -0.008790023061369254 0.008055253308513805 0.0007347697528554498 -0.005681839913559663 0.0 0.0
0.0 0.014013733363480076 -0.011764205209867682 0.010957706306698109 0.0008064989031695746 -0.006948989635355027 0.0 0.0
0.0 0.018407480449483718 -0.015450302154874581 0.014577948547020967 0.0008723536078536088 -0.0085155829414308 0.0 0.0
0.0 0.02358559339336056 -0.019754555718720507 0.018813998949046087 0.0009405567696744217 -0.010628130870048047 0.0 0.0
0.0 0.028959075761537015 -0.024192288396572538 0.023173521953165264 0.0010187664434072661 -0.01350230165467477 0.0 0.0
0.0 0.033310930148351695 -0.027643588604821273 0.026522649585610528 0.001120939019210737 -0.01675705032331517 0.0 0.0
0.0 0.034175179377819206 -0.02813241697589139 0.02688020953454027 0.0012522074413511106 -0.018702332332471597 0.0 0.0
0.0 0.02764303345643336 -0.022658097465544546 0.021242456101735526 0.0014156413638090229 -0.015923783472709136 0.0 0.0
0.0 0.02764303345643652 -0.022658097465544383 0.021242456101735394 0.0014156413638089906 0.01592378347272668 0.0 0.0
0.0 0.03417517937782063 -0.028132416975888773 0.02688020953453814 0.0012522074413506374 0.018702332332495276 0.0 0.0
0.0 0.03331093014834674 -0.027643588604814227 0.02652264958560397 0.0011209390192102422 0.016757050323332003 0.0 0.0
0.0 0.02895907576152306 -0.024192288396559618 0.023173521953152806 0.0010187664434068097 0.013502301654677258 0.0 0.0
0.0 0.023585593393343936 -0.019754555718706112 0.018813998949032087 0.0009405567696740206 0.010628130870043377 0.0 0.0
0.0 0.018407480449468886 -0.015450302154861647 0.014577948547008588 0.0008723536078530539 0.008515582941426474 0.0 0.0
0.0 0.014013733363464943 -0.01176420520985483 0.01095770630668565 0.000806498903169177 0.00694898963534854 0.0 0.0
0.0 0.010513069760857878 -0.008790023061356417 0.008055253308501351 0.0007347697528550666 0.005681839913554559 0.0 0.0
0.0 0.0076957215426977366 -0.006429675057031836 0.005778209618217332 0.0006514654388145025 0.00458937763670446 0.0 0.0
0.0 0.005432962601733354 -0.004509780251541773 0.0039606044134664975 0.0005491758380752746 0.0035761636541221057 0.0 0.0
0.0 0.003566229585336372 -0.002899444712161558 0.0024746451577800145 0.00042479955438154307 0.002556762345783406 0.0 0.0
0.0 0.0020460238333835736 -0.0015628698611147135 0.0012907418388451782 0.0002721280222695356 0.0015657604207451369 0.0 0.0
0.0 0.0008909201062794472 -0.000611009450097298 0.0004893024290801935 0.00012170702101710424 0.000747842605408974 0.0 0.0
0.0 0.0002488864651687676 -0.000130680906707009 0.00010358262472125876 2.7098281985750265e-05 0.00022007998651014195 0.0 0.0
0.0 5.2362366316833364e-05 -1.5239501844780548e-05 1.1979362458632347e-05 3.260139386148247e-06 3.209958057896069e-05 0.0 0.0
0.0 1.2168129934346271e-05 7.640028991138662e-07 -5.929529671234338e-07 -1.7104993199047284e-07 -1.943006504127161e-06 0.0 0.0
0.0 4.567888437996252e-06 2.8166425138205025e-07 -2.255790839313278e-07 -5.6085167450732297e-08 -9.161147981532237e-07 0.0 0.0
0.0 1.7628622966370727e-06 7.425115859493936e-08 -6.029149641515662e-08 -1.3959662179784548e-08 -3.4489921188806817e-07 0.0 0.0
0.0 0.0 0.0 0.0 0.0 0.0 0.0 0.0
0.0 0.0 0.0 0.0 0.0 0.0 0.0 0.0
0.0 0.0 0.0 0.0 0.0 0.0 0.0 0.0
0.0 0.0 0.0 0.0 0.0 0.0 0.0 0.0
0.0 6.301117771691601e-07 3.177133557320747e-08 -2.5610055499987776e-08 -6.161280073216576e-09 1.139376708674144e-07 0.0 0.0
0.0 6.9346823109825144e-06 5.042347017098303e-07 -4.065067840334973e-07 -9.772791767633461e-08 1.3113344896096305e-06 0.0 0.0
0.0 2.5212619995950892e-05 2.4747268596932223e-06 -1.951196794361913e-06 -5.235300653313059e-07 4.953316836308696e-06 0.0 0.0
0.0 0.00010280850748319956 -4.7524988339320074e-05 3.772174899407855e-05 9.80323934524155e-06 -7.057006305659418e-05 0.0 0.0
0.0 0.0005539984787025586 -0.00036138636970911445 0.00028753857545066135 7.38477942584531e-05 -0.0003852958971908505 0.0 0.0
0.0 0.0015959605107541768 -0.0012337852951732175 0.0010086538400100255 0.0002251314551631918 -0.0010485819643625614 0.0 0.0
0.0 0.003149529851822674 -0.0026262388031006658 0.00222662847118516 0.00039961033191550593 -0.0019474277327807949 0.0 0.0
0.0 0.0051378232249963554 -0.004381495458125721 0.0038348071269359864 0.000546688331189734 -0.0029229097314052337 0.0 0.0
0.0 0.007554351477998356 -0.006468115734113606 0.005805034153762963 0.0006630815803506439 -0.0038975605992382267 0.0 0.0
0.0 0.010497486479532256 -0.008974972721334637 0.008217664297193995 0.0007573084241406436 -0.004907318975294534 0.0 0.0
0.0 0.014132798251174049 -0.01206623330184368 0.011230139383088603 0.0008360939187550744 -0.006025274888272221 0.0 0.0
0.0 0.018694901412056413 -0.015943081887246368 0.015037130365204928 0.0009059515220414334 -0.007325951853281867 0.0 0.0
0.0 0.024390102047166285 -0.020745745348867733 0.019772467539551745 0.0009732778093159874 -0.008935856302509091 0.0 0.0
0.0 0.030900123677960523 -0.02638801461875429 0.025340552687391618 0.0010474619313626662 -0.01110833948481183 0.0 0.0
0.0 0.038003518152985305 -0.03225834480735488 0.031117147823486686 0.0011411969838681915 -0.014106272245013826 0.0 0.0
0.0 0.04369705428872186 -0.03688210404140599 0.03561528613940408 0.0012668179020019258 -0.017767458415684105 0.0 0.0
0.0 0.044843614774335766 -0.0376436300241999 0.036217516179409506 0.0014261138447903853 -0.02050968870642658 0.0 0.0
0.0 0.03694269188994247 -0.030794364450001676 0.029197778017118314 0.0015965864328833532 -0.01922536633960618 0.0 0.0
0.0 0.03694269188994591 -0.030794364450001565 0.02919777801711844 0.0015965864328831337 0.019225366339625877 0.0 0.0
0.0 0.0448436147743327 -0.037643630024193984 0.03621751617940361 0.0014261138447903684 0.020509688706450924 0.0 0.0
0.0 0.043697054288713066 -0.0368821040413959 0.035615286139394554 0.0012668179020013405 0.017767458415702146 0.0 0.0
0.0 0.03800351815297133 -0.03225834480734166 0.031117147823474287 0.001141196983867358 0.014106272245018278 0.0 0.0
0.0 0.03090012367794421 -0.026388014618739866 0.025340552687377643 0.0010474619313622102 0.011108339484809847 0.0 0.0
0.0 0.024390102047150558 -0.020745745348853845 0.01977246753953827 0.0009732778093155751 0.008935856302506163 0.0 0.0
0.0 0.01869490141204 -0.01594308188723196 0.015037130365191168 0.0009059515220407918 0.007325951853276001 0.0 0.0
0.0 0.014132798251156523 -0.012066233301827992 0.01123013938307384 0.0008360939187541564 0.00602527488826802 0.0 0.0
0.0 0.010497486479512992 -0.008974972721317746 0.008217664297177739 0.0007573084241400052 0.004907318975287428 0.0 0.0
0.0 0.007554351477978562 -0.006468115734096724 0.005805034153746697 0.0006630815803500245 0.0038975605992280886 0.0 0.0
0.0 0.005137823224979632 -0.004381495458111231 0.003834807126922282 0.0005466883311889483 0.0029229097313950656 0.0 0.0
0.0 0.003149529851810942 -0.002626238803090589 0.002226628471176084 0.0003996103319145049 0.0019474277327744083 0.0 0.0
0.0 0.0015959605107455763 -0.0012337852951661153 0.0010086538400040277 0.0002251314551620875 0.0010485819643576532 0.0 0.0
0.0 0.0005539984786973789 -0.0003613863697055806 0.0002875385754478382 7.38477942577423e-05 0.00038529589718755755 0.0 0.0
0.0 0.00010280850748140904 -4.752498833888957e-05 3.772174899372178e-05 9.803239345167843e-06 7.057006305587065e-05 0.0 0.0
0.0 2.5212619994963567e-05 2.474726859593644e-06 -1.951196794283381e-06 -5.235300653103639e-07 -4.9533168361263605e-06 0.0 0.0
0.0 6.934682310505462e-06 5.042347016716486e-07 -4.0650678400268413e-07 -9.772791766897146e-08 -1.3113344895102354e-06 0.0 0.0
0.0 6.301117768796378e-07 3.177133555832444e-08 -2.5610055487985994e-08 -6.161280070339225e-09 -1.1393767081387647e-07 0.0 0.0
0.0 0.0 0.0 0.0 0.0 0.0 0.0 0.0
0.0 0.0 0.0 0.0 0.0 0.0 0.0 0.0
0.0 0.0 0.0 0.0 0.0 0.0 0.0 0.0
0.0 0.0 0.0 0.0 0.0 0.0 0.0 0.0
0.0 0.0 0.0 0.0 0.0 0.0 0.0 0.0
0.0 3.2006597007079794e-06 2.5707668110242285e-07 -2.054760131561159e-07 -5.160066794626825e-08 5.112391327039601e-07 0.0 0.0
0.0 2.941471299359268e-05 -2.7181139087076388e-06 2.1312060864796763e-06 5.869078222279793e-07 -3.3193491707571585e-06 0.0 0.0
0.0 0.0002349222747152914 -0.00012714412488929318 0.00010071174486061536 2.6432380028678042e-05 -0.0001244111851441243 0.0 0.0
0.0 0.0010464899868814137 -0.0007395536598727912 0.0005960255701107856 0.0001435280897620051 -0.0005387787227373671 0.0 0.0
0.0 0.002369477701598197 -0.002015931113098969 0.0016835297250861773 0.0003324013880127921 -0.0012498125077468232 0.0 0.0
0.0 0.004318551561173099 -0.003768991224454888 0.0032656915550163894 0.0005032996694384975 -0.0020967225094318653 0.0 0.0
0.0 0.006777702781118835 -0.00591077749625795 0.005270001458332832 0.0006407760379251188 -0.00297660962392989 0.0 0.0
0.0 0.00976180758472435 -0.008479026595068388 0.0077290265518510795 0.0007500000432173028 -0.003892091260106219 0.0 0.0
0.0 0.013376521079979328 -0.011587029460567947 0.010746888098330984 0.0008401413622369567 -0.004851167408880325 0.0 0.0
0.0 0.01791031808285993 -0.015426505765877363 0.014507284384119044 0.0009192213817583152 -0.005928585418757529 0.0 0.0
0.0 0.023419914420643284 -0.02022186911782911 0.019230080818694116 0.0009917882991349958 -0.007220943708629532 0.0 0.0
0.0 0.030306497784546957 -0.02612114605757761 0.025058262029484194 0.0010628840280934217 -0.008755307448446355 0.0 0.0
0.0 0.03847911714129193 -0.03304386032627111 0.03189904424402478 0.001144816082246322 -0.010688928690169642 0.0 0.0
0.0 0.04684665260305637 -0.040300042541860245 0.03904790269272911 0.0012521398491311367 -0.013444276537722483 0.0 0.0
0.0 0.05367495644987515 -0.04606456918377798 0.04466477240370406 0.0013997967800739215 -0.017214490422205908 0.0 0.0
0.0 0.055242099213756585 -0.047100325350410366 0.045520550159508934 0.0015797751909014095 -0.021044724468246477 0.0 0.0
0.0 0.04644151592529728 -0.038958647464617635 0.037200991804110926 0.0017576556605066772 -0.022483716915938232 0.0 0.0
0.0 0.046441515925299756 -0.03895864746461693 0.037200991804110246 0.0017576556605066506 0.022483716915958952 0.0 0.0
0.0 0.055242099213753545 -0.04710032535040474 0.045520550159503535 0.0015797751909011925 0.021044724468272415 0.0 0.0
0.0 0.05367495644986397 -0.04606456918376642 0.044664772403692536 0.0013997967800738692 0.01721449042222535 0.0 0.0
0.0 0.04684665260303844 -0.040300042541843974 0.039047902692713146 0.0012521398491308344 0.01344427653772813 0.0 0.0
0.0 0.03847911714127231 -0.03304386032625362 0.03189904424400812 0.0011448160822454846 0.01068892869016909 0.0 0.0
0.0 0.030306497784526258 -0.026121146057559164 0.025058262029466545 0.0010628840280926222 0.00875530744844465 0.0 0.0
0.0 0.02341991442062047 -0.020221869117809196 0.019230080818674607 0.000991788299134586 0.007220943708624018 0.0 0.0
0.0 0.017910318082837814 -0.015426505765857725 0.01450728438409988 0.0009192213817578423 0.005928585418752322 0.0 0.0
0.0 0.013376521079958723 -0.011587029460549509 0.010746888098313317 0.0008401413622361886 0.004851167408874692 0.0 0.0
0.0 0.009761807584705968 -0.008479026595052076 0.0077290265518358495 0.0007500000432162253 0.0038920912600981595 0.0 0.0
0.0 0.00677770278110211 -0.005910777496243188 0.005270001458319098 0.0006407760379240882 0.002976609623921595 0.0 0.0
0.0 0.004318551561159777 -0.0037689912244428464 0.0032656915550053744 0.0005032996694374711 0.0020967225094260123 0.0 0.0
0.0 0.002369477701587906 -0.002015931113089814 0.0016835297250781475 0.0003324013880116659 0.0012498125077419768 0.0 0.0
0.0 0.0010464899868749167 -0.000739553659867792 0.0005960255701066789 0.00014352808976111317 0.000538778722733924 0.0 0.0
0.0 0.00023492227471291714 -0.00012714412488822535 0.00010071174485976818 2.6432380028457027e-05 0.00012441118514306312 0.0 0.0
0.0 2.941471299265984e-05 -2.7181139088550793e-06 2.1312060865949283e-06 5.869078222601707e-07 3.3193491709558233e-06 0.0 0.0
0.0 3.200659700236418e-06 2.5707668106207243e-07 -2.0547601312382118e-07 -5.1600667938269986e-08 -5.112391326237518e-07 0.0 0.0
0.0 0.0 0.0 0.0 0.0 0.0 0.0 0.0
0.0 0.0 0.0 0.0 0.0 0.0 0.0 0.0
0.0 0.0 0.0 0.0 0.0 0.0 0.0 0.0
0.0 0.0 0.0 0.0 0.0 0.0 0.0 0.0
0.0 0.0 0.0 0.0 0.0 0.0 0.0 0.0
0.0 0.0 0.0 0.0 0.0 0.0 0.0 0.0
0.0 2.6184053184797525e-06 2.3936820084323267e-07 -1.9194239063393857e-07 -4.7425810209277095e-08 3.642394502886807e-07 0.0 0.0
0.0 5.1196505885450544e-05 -1.0302193732761198e-05 8.320911115648268e-06 1.981282617113078e-06 -1.0694241273848883e-05 0.0 0.0
0.0 0.000489331974112715 -0.0002987294566956477 0.0002379754722903363 6.075398440531179e-05 -0.0001952953382762744 0.0 0.0
0.0 0.0014882685173453858 -0.0012805745651929825 0.0010485260342908568 0.00023204853090212592 -0.0006599097583407645 0.0 0.0
0.0 0.003218416739653629 -0.002869557976800461 0.002444483448760873 0.0004250745280395871 -0.001288327456788072 0.0 0.0
0.0 0.0055761829067460765 -0.0049373858699199025 0.004350856368038801 0.0005865295018811026 -0.001997124882693299 0.0 0.0
0.0 0.008476470377250375 -0.007472403566217598 0.00675729993614491 0.0007151036300726871 -0.002768244972025956 0.0 0.0
0.0 0.012015930096670673 -0.01052838990897717 0.009708877348945464 0.0008195125600317036 -0.0035769179543551238 0.0 0.0
0.0 0.0163456717224754 -0.014251087338682217 0.01334141967199973 0.000909667666682484 -0.004432499914741972 0.0 0.0
0.0 0.021692708994954152 -0.0188598095742019 0.017868283984043946 0.0009915255901579451 -0.005420855701353486 0.0 0.0
0.0 0.028355453304780287 -0.024578644701151106 0.02350797417749073 0.0010706705236603767 -0.0066060145869855464 0.0 0.0
0.0 0.03644462101139251 -0.03153908145837739 0.030390627805120092 0.0011484536532572957 -0.007981282143989925 0.0 0.0
0.0 0.04563496605365944 -0.03964458039607621 0.03840993274193903 0.00123464765413717 -0.009517974521529141 0.0 0.0
0.0 0.05551233277659368 -0.04816919641388089 0.04681723388221905 0.0013519625316618488 -0.011551097855640347 0.0 0.0
0.0 0.06362912615028699 -0.05508109028973488 0.053563705579170666 0.0015173847105642217 -0.015006621030448473 0.0 0.0
0.0 0.06577548411730172 -0.05659633182218263 0.05487662836694557 0.0017197034552370522 -0.020270995815457455 0.0 0.0
0.0 0.05613666200311765 -0.0473969981213673 0.045483412992218974 0.001913585129148294 -0.025716170405200356 0.0 0.0
0.0 0.056136662003117205 -0.04739699812136419 0.045483412992215685 0.001913585129148506 0.02571617040522071 0.0 0.0
0.0 0.06577548411729375 -0.056596331822173475 0.054876628366936527 0.0017197034552369672 0.020270995815481262 0.0 0.0
0.0 0.06362912615027247 -0.055081090289720844 0.05356370557915708 0.0015173847105637225 0.015006621030466438 0.0 0.0
0.0 0.05551233277657357 -0.04816919641386274 0.04681723388220153 0.0013519625316612042 0.011551097855646529 0.0 0.0
0.0 0.04563496605363613 -0.03964458039605559 0.03840993274191909 0.0012346476541364798 0.009517974521529474 0.0 0.0
0.0 0.03644462101136742 -0.03153908145835539 0.030390627805098578 0.0011484536532567985 0.007981282143988428 0.0 0.0
0.0 0.028355453304756077 -0.02457864470112992 0.023507974177470248 0.0010706705236596579 0.006606014586981722 0.0 0.0
0.0 0.02169270899492906 -0.018859809574179737 0.017868283984022536 0.0009915255901571938 0.00542085570134959 0.0 0.0
0.0 0.016345671722449075 -0.014251087338658862 0.013341419671976882 0.0009096676666819805 0.004432499914736714 0.0 0.0
0.0 0.012015930096645996 -0.010528389908955287 0.009708877348924129 0.0008195125600311522 0.0035769179543469346 0.0 0.0
0.0 0.00847647037722932 -0.00747240356619884 0.0067572999361268735 0.0007151036300719649 0.002768244972017857 0.0 0.0
0.0 0.005576182906730108 -0.004937385869905272 0.0043508563680250915 0.0005865295018801786 0.001997124882687876 0.0 0.0
0.0 0.003218416739641346 -0.0028695579767890377 0.0024444834487505904 0.00042507452803844766 0.0012883274567835655 0.0 0.0
0.0 0.0014882685173373607 -0.0012805745651859064 0.0010485260342848266 0.0002320485309010795 0.0006599097583372721 0.0 0.0
0.0 0.0004893319741084397 -0.00029872945669300814 0.0002379754722882258 6.075398440478236e-05 0.00019529533827468052 0.0 0.0
0.0 5.1196505884202234e-05 -1.0302193732730132e-05 8.320911115619032e-06 1.981282617111013e-06 1.06942412738171e-05 0.0 0.0
0.0 2.618405318069889e-06 2.393682008043899e-07 -1.9194239060307888e-07 -4.7425810201298124e-08 -3.6423945023065724e-07 0.0 0.0
0.0 0.0 0.0 0.0 0.0 0.0 0.0 0.0
0.0 0.0 0.0 0.0 0.0 0.0 0.0 0.0
0.0 0.0 0.0 0.0 0.0 0.0 0.0 0.0
0.0 0.0 0.0 0.0 0.0 0.0 0.0 0.0
0.0 0.0 0.0 0.0 0.0 0.0 0.0 0.0
0.0 0.0 0.0 0.0 0.0 0.0 0.0 0.0
0.0 2.5053288124497985e-06 2.531774601912513e-07 -2.004950959842307e-07 -5.268236420702641e-08 2.7033984583380355e-07 0.0 0.0
0.0 0.0001120765958816308 -3.366167130379648e-05 2.678517608296591e-05 6.876495220830498e-06 -2.112370749958696e-05 0.0 0.0
0.0 0.0008169007581955583 -0.000589905037855066 0.00047365401000668114 0.000116251027848385 -0.0002549739058069064 0.0 0.0
0.0 0.0020779013363356547 -0.0018879914904604525 0.0015706201381163833 0.00031737135234406885 -0.0006443506277320963 0.0 0.0
0.0 0.00415379145676558 -0.0037410817574517834 0.0032393599161619443 0.0005017218412898385 -0.001130098585903044 0.0 0.0
0.0 0.006868596581601421 -0.006126048012841415 0.0054724172734401805 0.0006536307394012317 -0.0016927790663976326 0.0 0.0
0.0 0.01022408026218071 -0.009054012158434068 0.008278581659804362 0.0007754304986297025 -0.0023136588663144005 0.0 0.0
0.0 0.014343113906661558 -0.012605709725171867 0.011727846137983364 0.0008778635871885059 -0.0029719364493408277 0.0 0.0
0.0 0.01933962790048095 -0.016957991718312034 0.015988051233692756 0.000969940484619276 -0.0036679949134155415 0.0 0.0
0.0 0.025655168752749334 -0.022348187487911286 0.021290833561035387 0.0010573539268758968 -0.004475047482948407 0.0 0.0
0.0 0.0332147739226876 -0.029003033100668766 0.027859185410856135 0.0011438476898126305 -0.0054981324511590695 0.0 0.0
0.0 0.0423733862402141 -0.03699191156056579 0.03576081798071233 0.001231093579853458 -0.006662401737710985 0.0 0.0
0.0 0.05289596713435607 -0.04612578272229349 0.04480142938432278 0.0013243533379707088 -0.007689221259836723 0.0 0.0
0.0 0.06391287103952926 -0.055703823580214806 0.05426684335255319 0.0014369802276615955 -0.008627928600326528 0.0 0.0
0.0 0.07329161589055115 -0.06380511821575446 0.06219102279934808 0.0016140954164063682 -0.01117093053669229 0.0 0.0
0.0 0.07645173672391659 -0.06621825679236078 0.06437027205656215 0.0018479847357986234 -0.01787901761443233 0.0 0.0
0.0 0.0665892701772367 -0.05640057131114305 0.0543223601347776 0.002078211176365451 -0.02871123584614977 0.0 0.0
0.0 0.06658927017723543 -0.05640057131113985 0.05432236013477451 0.002078211176365344 0.02871123584616616 0.0 0.0
0.0 0.07645173672390553 -0.06621825679234972 0.06437027205655127 0.0018479847357984352 0.017879017614453256 0.0 0.0
0.0 0.07329161589053133 -0.0638051182157366 0.06219102279933021 0.001614095416406364 0.011170930536708593 0.0 0.0
0.0 0.06391287103950292 -0.05570382358019181 0.05426684335253017 0.0014369802276616352 0.008627928600331597 0.0 0.0
0.0 0.05289596713432945 -0.046125782722270164 0.04480142938429994 0.0013243533379702457 0.007689221259837573 0.0 0.0
0.0 0.04237338624018675 -0.03699191156054174 0.035760817980689 0.0012310935798527426 0.006662401737710575 0.0 0.0
0.0 0.03321477392265971 -0.029003033100644365 0.027859185410832345 0.001143847689812019 0.005498132451155911 0.0 0.0
0.0 0.025655168752719747 -0.022348187487885397 0.021290833561009845 0.0010573539268755514 0.004475047482944765 0.0 0.0
0.0 0.019339627900450563 -0.016957991718285405 0.015988051233666804 0.0009699404846186006 0.003667994913411794 0.0 0.0
0.0 0.014343113906633198 -0.012605709725146564 0.011727846137958605 0.0008778635871879535 0.0029719364493343667 0.0 0.0
0.0 0.010224080262156252 -0.009054012158412172 0.00827858165978308 0.0007754304986290908 0.0023136588663074504 0.0 0.0
0.0 0.006868596581582838 -0.006126048012824443 0.005472417273423994 0.0006536307394004488 0.0016927790663934298 0.0 0.0
0.0 0.004153791456751587 -0.0037410817574386303 0.0032393599161498854 0.0005017218412887453 0.0011300985858994177 0.0 0.0
0.0 0.002077901336325488 -0.0018879914904508742 0.001570620138107994 0.00031737135234288067 0.0006443506277289122 0.0 0.0
0.0 0.0008169007581900005 -0.0005899050378506828 0.00047365401000307584 0.0001162510278476064 0.0002549739058049526 0.0 0.0
0.0 0.00011207659588028914 -3.3661671303602606e-05 2.678517608280187e-05 6.876495220800865e-06 2.1123707499440585e-05 0.0 0.0
0.0 2.505328812068445e-06 2.5317746015048106e-07 -2.004950959519918e-07 -5.2682364198484455e-08 -2.703398457904753e-07 0.0 0.0
0.0 0.0 0.0 0.0 0.0 0.0 0.0 0.0
0.0 0.0 0.0 0.0 0.0 0.0 0.0 0.0
0.0 0.0 0.0 0.0 0.0 0.0 0.0 0.0
0.0 0.0 0.0 0.0 0.0 0.0 0.0 0.0
0.0 0.0 0.0 0.0 0.0 0.0 0.0 0.0
0.0 0.0 0.0 0.0 0.0 0.0 0.0 0.0
0.0 7.480929744594875e-06 8.970346975284954e-07 -6.929961877200582e-07 -2.0403850980840786e-07 5.50205352796341e-07 0.0 0.0
0.0 0.000259908178680368 -0.0001145655484900947 9.1239821548794e-05 2.332572694130092e-05 -4.189022119602149e-05 0.0 0.0
0.0 0.0010834527246195433 -0.0010030136044911196 0.0008126970917629076 0.0001903165127282121 -0.000243619865599859 0.0 0.0
0.0 0.0027572463652213107 -0.0025227966705747623 0.0021321788916094345 0.0003906177789653276 -0.0004954964404782937 0.0 0.0
0.0 0.005113929672237258 -0.004627711916540005 0.004061754289687596 0.0005659576268524101 -0.000814118580840242 0.0 0.0
0.0 0.008186008563614379 -0.0073240624566399005 0.006616228716890904 0.0007078337397489946 -0.0011942377390408983 0.0 0.0
0.0 0.011999217113462104 -0.010647583642826166 0.00982244390818938 0.000825139734636782 -0.0016238172475878721 0.0 0.0
0.0 0.016685299436460868 -0.014704444948374914 0.013776190436948384 0.0009282545114265279 -0.0020763585837436337 0.0 0.0
0.0 0.022519242614880808 -0.019696369776614132 0.01867207581660296 0.001024293960011166 -0.0025551062838468663 0.0 0.0
0.0 0.02950758079484619 -0.025886007541510013 0.024768088849153894 0.0011179186923561185 -0.003146115953079005 0.0 0.0
0.0 0.038172796705803584 -0.03346817152605962 0.03225542102425566 0.0012127505018039606 -0.0038829794432050026 0.0 0.0
0.0 0.048517273623545895 -0.04244974809555506 0.04113816834440575 0.001311579751149319 -0.004680073266992696 0.0 0.0
0.0 0.060080197297520024 -0.05250186281057571 0.051086732084207796 0.0014151307263679021 -0.005282082333727106 0.0 0.0
0.0 0.07194093404314524 -0.06282789518251618 0.061303405233532345 0.0015244899489838405 -0.005318097153868917 0.0 0.0
0.0 0.08239262110596592 -0.07190867018766087 0.07024770989748436 0.00166096029017655 -0.0058616880736168 0.0 0.0
0.0 0.08734734241257142 -0.07596039821807497 0.07399684224099419 0.0019635559770807528 -0.01288622825845846 0.0 0.0
0.0 0.07816275436475092 -0.06643766509400935 0.06416597986704548 0.0022716852269638608 -0.030857476226762708 0.0 0.0
0.0 0.07816275436474956 -0.06643766509400661 0.0641659798670431 0.0022716852269635 0.03085747622677449 0.0 0.0
0.0 0.08734734241255995 -0.07596039821806408 0.07399684224098392 0.001963555977080119 0.01288622825847476 0.0 0.0
0.0 0.08239262110594557 -0.07190867018764258 0.07024770989746698 0.0016609602901755923 0.005861688073628966 0.0 0.0
0.0 0.07194093404311809 -0.0628278951824921 0.06130340523350929 0.0015244899489828068 0.005318097153872125 0.0 0.0
0.0 0.060080197297490805 -0.05250186281054982 0.05108673208418314 0.0014151307263666963 0.00528208233372794 0.0 0.0
0.0 0.04851727362351593 -0.04244974809552869 0.04113816834438033 0.0013115797511483712 0.004680073266992655 0.0 0.0
0.0 0.0381727967057719 -0.0334681715260319 0.032255421024228695 0.0012127505018031954 0.003882979443203807 0.0 0.0
0.0 0.02950758079481318 -0.025886007541481074 0.024768088849125725 0.0011179186923553444 0.0031461159530765037 0.0 0.0
0.0 0.022519242614846835 -0.019696369776584153 0.01867207581657352 0.001024293960010625 0.0025551062838451207 0.0 0.0
0.0 0.016685299436431072 -0.014704444948348529 0.013776190436922919 0.0009282545114256027 0.0020763585837390965 0.0 0.0
0.0 0.01199921711343636 -0.010647583642803157 0.009822443908167217 0.0008251397346359418 0.0016238172475833738 0.0 0.0
0.0 0.008186008563594558 -0.007324062456621512 0.006616228716873444 0.000707833739748066 0.001194237739038441 0.0 0.0
0.0 0.005113929672221452 -0.004627711916525237 0.004061754289673879 0.0005659576268513579 0.0008141185808375488 0.0 0.0
0.0 0.0027572463652109046 -0.0025227966705646124 0.002132178891600498 0.00039061777896411376 0.0004954964404763128 0.0 0.0
0.0 0.0010834527246134501 -0.001003013604485268 0.0008126970917580647 0.00019031651272720314 0.00024361986559852476 0.0 0.0
0.0 0.0002599081786775299 -0.00011456554848851113 9.12398215475214e-05 2.332572694098956e-05 4.1890221195472644e-05 0.0 0.0
0.0 7.48092974373735e-06 8.970346974239649e-07 -6.929961876401887e-07 -2.040385097838224e-07 -5.502053527401145e-07 0.0 0.0
0.0 0.0 0.0 0.0 0.0 0.0 0.0 0.0
0.0 0.0 0.0 0.0 0.0 0.0 0.0 0.0
0.0 0.0 0.0 0.0 0.0 0.0 0.0 0.0
0.0 0.0 0.0 0.0 0.0 0.0 0.0 0.0
0.0 0.0 0.0 0.0 0.0 0.0 0.0 0.0
0.0 0.0 0.0 0.0 0.0 0.0 0.0 0.0
0.0 1.3567863103618772e-05 1.4686744385819373e-06 -1.1208517099924814e-06 -3.478227285893092e-07 3.4298898638383785e-07 0.0 0.0
0.0 0.0005233523262907334 -0.0002773148778435374 0.00022088161086584654 5.643326697769077e-05 -4.076310865013365e-05 0.0 0.0
0.0 0.0015501764810677203 -0.0014363265503245118 0.001176938242989107 0.0002593883073354049 -0.00012154362626911538 0.0 0.0
0.0 0.0034604188126015653 -0.0031744439190722375 0.0027205639006468185 0.0004538800184254178 -0.00022249336011219794 0.0 0.0
0.0 0.0061072854720630836 -0.005517286350012341 0.004898871795867206 0.000618414554145133 -0.0003476204033986027 0.0 0.0
0.0 0.00954070929043588 -0.008522204925071365 0.00776968136782222 0.0007525235572491464 -0.0005081638830742535 0.0 0.0
0.0 0.013836547701396673 -0.012243320557175544 0.01137578470715928 0.0008675358500162606 -0.0006980507474004659 0.0 0.0
0.0 0.019170232505250226 -0.016815658530987203 0.015843438067054925 0.0009722204639322693 -0.0008941335774110677 0.0 0.0
0.0 0.0255211161693946 -0.022471710381750797 0.021398011776865948 0.0010736986048848476 -0.0011239098197566362 0.0 0.0
0.0 0.033473659855660406 -0.02945176351627506 0.02827736198429217 0.0011744015319828808 -0.0013999972769752882 0.0 0.0
0.0 0.04323545385259786 -0.03793877546733522 0.03666076394375469 0.0012780115235805013 -0.0017185382069085978 0.0 0.0
0.0 0.05468505369513548 -0.04788704306076512 0.04649886522064882 0.0013881778401162918 -0.002046993100626269 0.0 0.0
0.0 0.06728351201810356 -0.0588079832343619 0.05730340868024251 0.0015045745541194104 -0.002217580432995298 0.0 0.0
0.0 0.07982581894479783 -0.06968311451380146 0.06806252590907481 0.0016205886047266117 -0.001942237362148867 0.0 0.0
0.0 0.09060191226250232 -0.07906138242926343 0.07733362793053719 0.0017277544987262228 -0.0009779530565680473 0.0 0.0
0.0 0.09731488656272293 -0.08481929711493658 0.08294535376836974 0.0018739433465667877 -0.00337192981621147 0.0 0.0
0.0 0.09191262734668511 -0.07876042544620145 0.07613973186045317 0.002620693585748271 -0.02875430847389641 0.0 0.0
0.0 0.09191262734668064 -0.07876042544619721 0.07613973186044858 0.0026206935857486027 0.028754308473901417 0.0 0.0
0.0 0.09731488656270623 -0.08481929711492214 0.08294535376835518 0.0018739433465669534 0.0033719298162184106 0.0 0.0
0.0 0.09060191226247563 -0.07906138242924032 0.07733362793051414 0.0017277544987261279 0.0009779530565736316 0.0 0.0
0.0 0.07982581894476706 -0.06968311451377454 0.06806252590904857 0.0016205886047259348 0.0019422373621490088 0.0 0.0
0.0 0.06728351201807162 -0.05880798323433389 0.057303408680215114 0.0015045745541187765 0.002217580432995187 0.0 0.0
0.0 0.05468505369510167 -0.047887043060735546 0.04649886522061995 0.001388177840115592 0.0020469931006259186 0.0 0.0
0.0 0.0432354538525635 -0.037938775467305064 0.03666076394372551 0.0012780115235795635 0.0017185382069084612 0.0 0.0
0.0 0.03347365985562504 -0.029451763516244046 0.028277361984262075 0.0011744015319819579 0.0013999972769736975 0.0 0.0
0.0 0.0255211161693579 -0.022471710381718628 0.02139801177683455 0.001073698604884064 0.0011239098197566018 0.0 0.0
0.0 0.019170232505217034 -0.016815658530957966 0.015843438067026417 0.0009722204639315467 0.000894133577408242 0.0 0.0
0.0 0.013836547701368246 -0.012243320557150609 0.011375784707135154 0.0008675358500154567 0.0006980507473985801 0.0 0.0
0.0 0.009540709290412376 -0.00852220492505014 0.007769681367801782 0.0007525235572483568 0.0005081638830734917 0.0 0.0
0.0 0.0061072854720441265 -0.005517286349994672 0.004898871795850474 0.0006184145541441987 0.0003476204033975974 0.0 0.0
0.0 0.0034604188125884356 -0.003174443919059788 0.0027205639006354144 0.0004538800184243737 0.00022249336011142032 0.0 0.0
0.0 0.0015501764810604993 -0.001436326550317227 0.0011769382429828246 0.00025938830733440206 0.00012154362626839427 0.0 0.0
0.0 0.0005233523262869132 -0.0002773148778410613 0.00022088161086385562 5.643326697720601e-05 4.0763108649859315e-05 0.0 0.0
0.0 1.3567863103059083e-05 1.4686744383936093e-06 -1.1208517098461459e-06 -3.478227285474741e-07 -3.4298898633129513e-07 0.0 0.0
0.0 0.0 0.0 0.0 0.0 0.0 0.0 0.0
0.0 0.0 0.0 0.0 0.0 0.0 0.0 0.0
0.0 0.0 0.0 0.0 0.0 0.0 0.0 0.0