# vtk DataFile Version 3.0
Some data
ASCII
DATASET UNSTRUCTURED_GRID
POINTS 861 float
0.0 0.0 0.0
0.4 0.0 0.0
0.8 0.0 0.0
1.2000000000000002 0.0 0.0
1.6 0.0 0.0
2.0 0.0 0.0
2.4000000000000004 0.0 0.0
2.8000000000000003 0.0 0.0
3.2 0.0 0.0
3.6 0.0 0.0
4.0 0.0 0.0
4.4 0.0 0.0
4.800000000000001 0.0 0.0
5.2 0.0 0.0
5.6000000000000005 0.0 0.0
6.0 0.0 0.0
6.4 0.0 0.0
6.800000000000001 0.0 0.0
7.2 0.0 0.0
7.6000000000000005 0.0 0.0
8.0 0.0 0.0
8.4 0.0 0.0
8.8 0.0 0.0
9.200000000000001 0.0 0.0
9.600000000000001 0.0 0.0
10.0 0.0 0.0
10.4 0.0 0.0
10.8 0.0 0.0
11.200000000000001 0.0 0.0
11.600000000000001 0.0 0.0
12.0 0.0 0.0
12.4 0.0 0.0
12.8 0.0 0.0
13.200000000000001 0.0 0.0
13.600000000000001 0.0 0.0
14.0 0.0 0.0
14.4 0.0 0.0
14.8 0.0 0.0
15.200000000000001 0.0 0.0
15.600000000000001 0.0 0.0
16.0 0.0 0.0
0.0 0.1 0.0
0.4 0.1 0.0
0.8 0.1 0.0
1.2000000000000002 0.1 0.0
1.6 0.1 0.0
2.0 0.1 0.0
2.4000000000000004 0.1 0.0
2.8000000000000003 0.1 0.0
3.2 0.1 0.0
3.6 0.1 0.0
4.0 0.1 0.0
4.4 0.1 0.0
4.800000000000001 0.1 0.0
5.2 0.1 0.0
5.6000000000000005 0.1 0.0
6.0 0.1 0.0
6.4 0.1 0.0
6.800000000000001 0.1 0.0
7.2 0.1 0.0
7.6000000000000005 0.1 0.0
8.0 0.1 0.0
8.4 0.1 0.0
8.8 0.1 0.0
9.200000000000001 0.1 0.0
9.600000000000001 0.1 0.0
10.0 0.1 0.0
10.4 0.1 0.0
10.8 0.1 0.0
11.200000000000001 0.1 0.0
11.600000000000001 0.1 0.0
12.0 0.1 0.0
12.4 0.1 0.0
12.8 0.1 0.0
13.200000000000001 0.1 0.0
13.600000000000001 0.1 0.0
14.0 0.1 0.0
14.4 0.1 0.0
14.8 0.1 0.0
15.200000000000001 0.1 0.0
15.600000000000001 0.1 0.0
16.0 0.1 0.0
0.0 0.2 0.0
0.4 0.2 0.0
0.8 0.2 0.0
1.2000000000000002 0.2 0.0
1.6 0.2 0.0
2.0 0.2 0.0
2.4000000000000004 0.2 0.0
2.8000000000000003 0.2 0.0
3.2 0.2 0.0
3.6 0.2 0.0
4.0 0.2 0.0
4.4 0.2 0.0
4.800000000000001 0.2 0.0
5.2 0.2 0.0
5.6000000000000005 0.2 0.0
6.0 0.2 0.0
6.4 0.2 0.0
6.800000000000001 0.2 0.0
7.2 0.2 0.0
7.6000000000000005 0.2 0.0
8.0 0.2 0.0
8.4 0.2 0.0
8.8 0.2 0.0
9.200000000000001 0.2 0.0
9.600000000000001 0.2 0.0
10.0 0.2 0.0
10.4 0.2 0.0
10.8 0.2 0.0
11.200000000000001 0.2 0.0
11.600000000000001 0.2 0.0
12.0 0.2 0.0
12.4 0.2 0.0
12.8 0.2 0.0
13.200000000000001 0.2 0.0
13.600000000000001 0.2 0.0
14.0 0.2 0.0
14.4 0.2 0.0
14.8 0.2 0.0
15.200000000000001 0.2 0.0
15.600000000000001 0.2 0.0
16.0 0.2 0.0
0.0 0.30000000000000004 0.0
0.4 0.30000000000000004 0.0
0.8 0.30000000000000004 0.0
1.2000000000000002 0.30000000000000004 0.0
1.6 0.30000000000000004 0.0
2.0 0.30000000000000004 0.0
2.4000000000000004 0.30000000000000004 0.0
2.8000000000000003 0.30000000000000004 0.0
3.2 0.30000000000000004 0.0
3.6 0.30000000000000004 0.0
4.0 0.30000000000000004 0.0
4.4 0.30000000000000004 0.0
4.800000000000001 0.30000000000000004 0.0
5.2 0.30000000000000004 0.0
5.6000000000000005 0.30000000000000004 0.0
6.0 0.30000000000000004 0.0
6.4 0.30000000000000004 0.0
6.800000000000001 0.30000000000000004 0.0
7.2 0.30000000000000004 0.0
7.6000000000000005 0.30000000000000004 0.0
8.0 0.30000000000000004 0.0
8.4 0.30000000000000004 0.0
8.8 0.30000000000000004 0.0
9.200000000000001 0.30000000000000004 0.0
9.600000000000001 0.30000000000000004 0.0
10.0 0.30000000000000004 0.0
10.4 0.30000000000000004 0.0
10.8 0.30000000000000004 0.0
11.200000000000001 0.30000000000000004 0.0
11.600000000000001 0.30000000000000004 0.0
12.0 0.30000000000000004 0.0
12.4 0.30000000000000004 0.0
12.8 0.30000000000000004 0.0
13.200000000000001 0.30000000000000004 0.0
13.600000000000001 0.30000000000000004 0.0
14.0 0.30000000000000004 0.0
14.4 0.30000000000000004 0.0
14.8 0.30000000000000004 0.0
15.200000000000001 0.30000000000000004 0.0
15.600000000000001 0.30000000000000004 0.0
16.0 0.30000000000000004 0.0
0.0 0.4 0.0
0.4 0.4 0.0
0.8 0.4 0.0
1.2000000000000002 0.4 0.0
1.6 0.4 0.0
2.0 0.4 0.0
2.4000000000000004 0.4 0.0
2.8000000000000003 0.4 0.0
3.2 0.4 0.0
3.6 0.4 0.0
4.0 0.4 0.0
4.4 0.4 0.0
4.800000000000001 0.4 0.0
5.2 0.4 0.0
5.6000000000000005 0.4 0.0
6.0 0.4 0.0
6.4 0.4 0.0
6.800000000000001 0.4 0.0
7.2 0.4 0.0
7.6000000000000005 0.4 0.0
8.0 0.4 0.0
8.4 0.4 0.0
8.8 0.4 0.0
9.200000000000001 0.4 0.0
9.600000000000001 0.4 0.0
10.0 0.4 0.0
10.4 0.4 0.0
10.8 0.4 0.0
11.200000000000001 0.4 0.0
11.600000000000001 0.4 0.0
12.0 0.4 0.0
12.4 0.4 0.0
12.8 0.4 0.0
13.200000000000001 0.4 0.0
13.600000000000001 0.4 0.0
14.0 0.4 0.0
14.4 0.4 0.0
14.8 0.4 0.0
15.200000000000001 0.4 0.0
15.600000000000001 0.4 0.0
16.0 0.4 0.0
0.0 0.5 0.0
0.4 0.5 0.0
0.8 0.5 0.0
1.2000000000000002 0.5 0.0
1.6 0.5 0.0
2.0 0.5 0.0
2.4000000000000004 0.5 0.0
2.8000000000000003 0.5 0.0
3.2 0.5 0.0
3.6 0.5 0.0
4.0 0.5 0.0
4.4 0.5 0.0
4.800000000000001 0.5 0.0
5.2 0.5 0.0
5.6000000000000005 0.5 0.0
6.0 0.5 0.0
6.4 0.5 0.0
6.800000000000001 0.5 0.0
7.2 0.5 0.0
7.6000000000000005 0.5 0.0
8.0 0.5 0.0
8.4 0.5 0.0
8.8 0.5 0.0
9.200000000000001 0.5 0.0
9.600000000000001 0.5 0.0
10.0 0.5 0.0
10.4 0.5 0.0
10.8 0.5 0.0
11.200000000000001 0.5 0.0
11.600000000000001 0.5 0.0
12.0 0.5 0.0
12.4 0.5 0.0
12.8 0.5 0.0
13.200000000000001 0.5 0.0
13.600000000000001 0.5 0.0
14.0 0.5 0.0
14.4 0.5 0.0
14.8 0.5 0.0
15.200000000000001 0.5 0.0
15.600000000000001 0.5 0.0
16.0 0.5 0.0
0.0 0.6000000000000001 0.0
0.4 0.6000000000000001 0.0
0.8 0.6000000000000001 0.0
1.2000000000000002 0.6000000000000001 0.0
1.6 0.6000000000000001 0.0
2.0 0.6000000000000001 0.0
2.4000000000000004 0.6000000000000001 0.0
2.8000000000000003 0.6000000000000001 0.0
3.2 0.6000000000000001 0.0
3.6 0.6000000000000001 0.0
4.0 0.6000000000000001 0.0
4.4 0.6000000000000001 0.0
4.800000000000001 0.6000000000000001 0.0
5.2 0.6000000000000001 0.0
5.6000000000000005 0.6000000000000001 0.0
6.0 0.6000000000000001 0.0
6.4 0.6000000000000001 0.0
6.800000000000001 0.6000000000000001 0.0
7.2 0.6000000000000001 0.0
7.6000000000000005 0.6000000000000001 0.0
8.0 0.6000000000000001 0.0
8.4 0.6000000000000001 0.0
8.8 0.6000000000000001 0.0
9.200000000000001 0.6000000000000001 0.0
9.600000000000001 0.6000000000000001 0.0
10.0 0.6000000000000001 0.0
10.4 0.6000000000000001 0.0
10.8 0.6000000000000001 0.0
11.200000000000001 0.6000000000000001 0.0
11.600000000000001 0.6000000000000001 0.0
12.0 0.6000000000000001 0.0
12.4 0.6000000000000001 0.0
12.8 0.6000000000000001 0.0
13.200000000000001 0.6000000000000001 0.0
13.600000000000001 0.6000000000000001 0.0
14.0 0.6000000000000001 0.0
14.4 0.6000000000000001 0.0
14.8 0.6000000000000001 0.0
15.200000000000001 0.6000000000000001 0.0
15.600000000000001 0.6000000000000001 0.0
16.0 0.6000000000000001 0.0
0.0 0.7000000000000001 0.0
0.4 0.7000000000000001 0.0
0.8 0.7000000000000001 0.0
1.2000000000000002 0.7000000000000001 0.0
1.6 0.7000000000000001 0.0
2.0 0.7000000000000001 0.0
2.4000000000000004 0.7000000000000001 0.0
2.8000000000000003 0.7000000000000001 0.0
3.2 0.7000000000000001 0.0
3.6 0.7000000000000001 0.0
4.0 0.7000000000000001 0.0
4.4 0.7000000000000001 0.0
4.800000000000001 0.7000000000000001 0.0
5.2 0.7000000000000001 0.0
5.6000000000000005 0.7000000000000001 0.0
6.0 0.7000000000000001 0.0
6.4 0.7000000000000001 0.0
6.800000000000001 0.7000000000000001 0.0
7.2 0.7000000000000001 0.0
7.6000000000000005 0.7000000000000001 0.0
8.0 0.7000000000000001 0.0
8.4 0.7000000000000001 0.0
8.8 0.7000000000000001 0.0
9.200000000000001 0.7000000000000001 0.0
9.600000000000001 0.7000000000000001 0.0
10.0 0.7000000000000001 0.0
10.4 0.7000000000000001 0.0
10.8 0.7000000000000001 0.0
11.200000000000001 0.7000000000000001 0.0
11.600000000000001 0.7000000000000001 0.0
12.0 0.7000000000000001 0.0
12.4 0.7000000000000001 0.0
12.8 0.7000000000000001 0.0
13.200000000000001 0.7000000000000001 0.0
13.600000000000001 0.7000000000000001 0.0
14.0 0.7000000000000001 0.0
14.4 0.7000000000000001 0.0
14.8 0.7000000000000001 0.0
15.200000000000001 0.7000000000000001 0.0
15.600000000000001 0.7000000000000001 0.0
16.0 0.7000000000000001 0.0
0.0 0.8 0.0
0.4 0.8 0.0
0.8 0.8 0.0
1.2000000000000002 0.8 0.0
1.6 0.8 0.0
2.0 0.8 0.0
2.4000000000000004 0.8 0.0
2.8000000000000003 0.8 0.0
3.2 0.8 0.0
3.6 0.8 0.0
4.0 0.8 0.0
4.4 0.8 0.0
4.800000000000001 0.8 0.0
5.2 0.8 0.0
5.6000000000000005 0.8 0.0
6.0 0.8 0.0
6.4 0.8 0.0
6.800000000000001 0.8 0.0
7.2 0.8 0.0
7.6000000000000005 0.8 0.0
8.0 0.8 0.0
8.4 0.8 0.0
8.8 0.8 0.0
9.200000000000001 0.8 0.0
9.600000000000001 0.8 0.0
10.0 0.8 0.0
10.4 0.8 0.0
10.8 0.8 0.0
11.200000000000001 0.8 0.0
11.600000000000001 0.8 0.0
12.0 0.8 0.0
12.4 0.8 0.0
12.8 0.8 0.0
13.200000000000001 0.8 0.0
13.600000000000001 0.8 0.0
14.0 0.8 0.0
14.4 0.8 0.0
14.8 0.8 0.0
15.200000000000001 0.8 0.0
15.600000000000001 0.8 0.0
16.0 0.8 0.0
0.0 0.9 0.0
0.4 0.9 0.0
0.8 0.9 0.0
1.2000000000000002 0.9 0.0
1.6 0.9 0.0
2.0 0.9 0.0
2.4000000000000004 0.9 0.0
2.8000000000000003 0.9 0.0
3.2 0.9 0.0
3.6 0.9 0.0
4.0 0.9 0.0
4.4 0.9 0.0
4.800000000000001 0.9 0.0
5.2 0.9 0.0
5.6000000000000005 0.9 0.0
6.0 0.9 0.0
6.4 0.9 0.0
6.800000000000001 0.9 0.0
7.2 0.9 0.0
7.6000000000000005 0.9 0.0
8.0 0.9 0.0
8.4 0.9 0.0
8.8 0.9 0.0
9.200000000000001 0.9 0.0
9.600000000000001 0.9 0.0
10.0 0.9 0.0
10.4 0.9 0.0
10.8 0.9 0.0
11.200000000000001 0.9 0.0
11.600000000000001 0.9 0.0
12.0 0.9 0.0
12.4 0.9 0.0
12.8 0.9 0.0
13.200000000000001 0.9 0.0
13.600000000000001 0.9 0.0
14.0 0.9 0.0
14.4 0.9 0.0
14.8 0.9 0.0
15.200000000000001 0.9 0.0
15.600000000000001 0.9 0.0
16.0 0.9 0.0
0.0 1.0 0.0
0.4 1.0 0.0
0.8 1.0 0.0
1.2000000000000002 1.0 0.0
1.6 1.0 0.0
2.0 1.0 0.0
2.4000000000000004 1.0 0.0
2.8000000000000003 1.0 0.0
3.2 1.0 0.0
3.6 1.0 0.0
4.0 1.0 0.0
4.4 1.0 0.0
4.800000000000001 1.0 0.0
5.2 1.0 0.0
5.6000000000000005 1.0 0.0
6.0 1.0 0.0
6.4 1.0 0.0
6.800000000000001 1.0 0.0
7.2 1.0 0.0
7.6000000000000005 1.0 0.0
8.0 1.0 0.0
8.4 1.0 0.0
8.8 1.0 0.0
9.200000000000001 1.0 0.0
9.600000000000001 1.0 0.0
10.0 1.0 0.0
10.4 1.0 0.0
10.8 1.0 0.0
11.200000000000001 1.0 0.0
11.600000000000001 1.0 0.0
12.0 1.0 0.0
12.4 1.0 0.0
12.8 1.0 0.0
13.200000000000001 1.0 0.0
13.600000000000001 1.0 0.0
14.0 1.0 0.0
14.4 1.0 0.0
14.8 1.0 0.0
15.200000000000001 1.0 0.0
15.600000000000001 1.0 0.0
16.0 1.0 0.0
0.0 1.1 0.0
0.4 1.1 0.0
0.8 1.1 0.0
1.2000000000000002 1.1 0.0
1.6 1.1 0.0
2.0 1.1 0.0
2.4000000000000004 1.1 0.0
2.8000000000000003 1.1 0.0
3.2 1.1 0.0
3.6 1.1 0.0
4.0 1.1 0.0
4.4 1.1 0.0
4.800000000000001 1.1 0.0
5.2 1.1 0.0
5.6000000000000005 1.1 0.0
6.0 1.1 0.0
6.4 1.1 0.0
6.800000000000001 1.1 0.0
7.2 1.1 0.0
7.6000000000000005 1.1 0.0
8.0 1.1 0.0
8.4 1.1 0.0
8.8 1.1 0.0
9.200000000000001 1.1 0.0
9.600000000000001 1.1 0.0
10.0 1.1 0.0
10.4 1.1 0.0
10.8 1.1 0.0
11.200000000000001 1.1 0.0
11.600000000000001 1.1 0.0
12.0 1.1 0.0
12.4 1.1 0.0
12.8 1.1 0.0
13.200000000000001 1.1 0.0
13.600000000000001 1.1 0.0
14.0 1.1 0.0
14.4 1.1 0.0
14.8 1.1 0.0
15.200000000000001 1.1 0.0
15.600000000000001 1.1 0.0
16.0 1.1 0.0
0.0 1.2000000000000002 0.0
0.4 1.2000000000000002 0.0
0.8 1.2000000000000002 0.0
1.2000000000000002 1.2000000000000002 0.0
1.6 1.2000000000000002 0.0
2.0 1.2000000000000002 0.0
2.4000000000000004 1.2000000000000002 0.0
2.8000000000000003 1.2000000000000002 0.0
3.2 1.2000000000000002 0.0
3.6 1.2000000000000002 0.0
4.0 1.2000000000000002 0.0
4.4 1.2000000000000002 0.0
4.800000000000001 1.2000000000000002 0.0
5.2 1.2000000000000002 0.0
5.6000000000000005 1.2000000000000002 0.0
6.0 1.2000000000000002 0.0
6.4 1.2000000000000002 0.0
6.800000000000001 1.2000000000000002 0.0
7.2 1.2000000000000002 0.0
7.6000000000000005 1.2000000000000002 0.0
8.0 1.2000000000000002 0.0
8.4 1.2000000000000002 0.0
8.8 1.2000000000000002 0.0
9.200000000000001 1.2000000000000002 0.0
9.600000000000001 1.2000000000000002 0.0
10.0 1.2000000000000002 0.0
10.4 1.2000000000000002 0.0
10.8 1.2000000000000002 0.0
11.200000000000001 1.2000000000000002 0.0
11.600000000000001 1.2000000000000002 0.0
12.0 1.2000000000000002 0.0
12.4 1.2000000000000002 0.0
12.8 1.2000000000000002 0.0
13.200000000000001 1.2000000000000002 0.0
13.600000000000001 1.2000000000000002 0.0
14.0 1.2000000000000002 0.0
14.4 1.2000000000000002 0.0
14.8 1.2000000000000002 0.0
15.200000000000001 1.2000000000000002 0.0
15.600000000000001 1.2000000000000002 0.0
16.0 1.2000000000000002 0.0
0.0 1.3 0.0
0.4 1.3 0.0
0.8 1.3 0.0
1.2000000000000002 1.3 0.0
1.6 1.3 0.0
2.0 1.3 0.0
2.4000000000000004 1.3 0.0
2.8000000000000003 1.3 0.0
3.2 1.3 0.0
3.6 1.3 0.0
4.0 1.3 0.0
4.4 1.3 0.0
4.800000000000001 1.3 0.0
5.2 1.3 0.0
5.6000000000000005 1.3 0.0
6.0 1.3 0.0
6.4 1.3 0.0
6.800000000000001 1.3 0.0
7.2 1.3 0.0
7.6000000000000005 1.3 0.0
8.0 1.3 0.0
8.4 1.3 0.0
8.8 1.3 0.0
9.200000000000001 1.3 0.0
9.600000000000001 1.3 0.0
10.0 1.3 0.0
10.4 1.3 0.0
10.8 1.3 0.0
11.200000000000001 1.3 0.0
11.600000000000001 1.3 0.0
12.0 1.3 0.0
12.4 1.3 0.0
12.8 1.3 0.0
13.200000000000001 1.3 0.0
13.600000000000001 1.3 0.0
14.0 1.3 0.0
14.4 1.3 0.0
14.8 1.3 0.0
15.200000000000001 1.3 0.0
15.600000000000001 1.3 0.0
16.0 1.3 0.0
0.0 1.4000000000000001 0.0
0.4 1.4000000000000001 0.0
0.8 1.4000000000000001 0.0
1.2000000000000002 1.4000000000000001 0.0
1.6 1.4000000000000001 0.0
2.0 1.4000000000000001 0.0
2.4000000000000004 1.4000000000000001 0.0
2.8000000000000003 1.4000000000000001 0.0
3.2 1.4000000000000001 0.0
3.6 1.4000000000000001 0.0
4.0 1.4000000000000001 0.0
4.4 1.4000000000000001 0.0
4.800000000000001 1.4000000000000001 0.0
5.2 1.4000000000000001 0.0
5.6000000000000005 1.4000000000000001 0.0
6.0 1.4000000000000001 0.0
6.4 1.4000000000000001 0.0
6.800000000000001 1.4000000000000001 0.0
7.2 1.4000000000000001 0.0
7.6000000000000005 1.4000000000000001 0.0
8.0 1.4000000000000001 0.0
8.4 1.4000000000000001 0.0
8.8 1.4000000000000001 0.0
9.200000000000001 1.4000000000000001 0.0
9.600000000000001 1.4000000000000001 0.0
10.0 1.4000000000000001 0.0
10.4 1.4000000000000001 0.0
10.8 1.4000000000000001 0.0
11.200000000000001 1.4000000000000001 0.0
11.600000000000001 1.4000000000000001 0.0
12.0 1.4000000000000001 0.0
12.4 1.4000000000000001 0.0
12.8 1.4000000000000001 0.0
13.200000000000001 1.4000000000000001 0.0
13.600000000000001 1.4000000000000001 0.0
14.0 1.4000000000000001 0.0
14.4 1.4000000000000001 0.0
14.8 1.4000000000000001 0.0
15.200000000000001 1.4000000000000001 0.0
15.600000000000001 1.4000000000000001 0.0
16.0 1.4000000000000001 0.0
0.0 1.5 0.0
0.4 1.5 0.0
0.8 1.5 0.0
1.2000000000000002 1.5 0.0
1.6 1.5 0.0
2.0 1.5 0.0
2.4000000000000004 1.5 0.0
2.8000000000000003 1.5 0.0
3.2 1.5 0.0
3.6 1.5 0.0
4.0 1.5 0.0
4.4 1.5 0.0
4.800000000000001 1.5 0.0
5.2 1.5 0.0
5.6000000000000005 1.5 0.0
6.0 1.5 0.0
6.4 1.5 0.0
6.800000000000001 1.5 0.0
7.2 1.5 0.0
7.6000000000000005 1.5 0.0
8.0 1.5 0.0
8.4 1.5 0.0
8.8 1.5 0.0
9.200000000000001 1.5 0.0
9.600000000000001 1.5 0.0
10.0 1.5 0.0
10.4 1.5 0.0
10.8 1.5 0.0
11.200000000000001 1.5 0.0
11.600000000000001 1.5 0.0
12.0 1.5 0.0
12.4 1.5 0.0
12.8 1.5 0.0
13.200000000000001 1.5 0.0
13.600000000000001 1.5 0.0
14.0 1.5 0.0
14.4 1.5 0.0
14.8 1.5 0.0
15.200000000000001 1.5 0.0
15.600000000000001 1.5 0.0
16.0 1.5 0.0
0.0 1.6 0.0
0.4 1.6 0.0
0.8 1.6 0.0
1.2000000000000002 1.6 0.0
1.6 1.6 0.0
2.0 1.6 0.0
2.4000000000000004 1.6 0.0
2.8000000000000003 1.6 0.0
3.2 1.6 0.0
3.6 1.6 0.0
4.0 1.6 0.0
4.4 1.6 0.0
4.800000000000001 1.6 0.0
5.2 1.6 0.0
5.6000000000000005 1.6 0.0
6.0 1.6 0.0
6.4 1.6 0.0
6.800000000000001 1.6 0.0
7.2 1.6 0.0
7.6000000000000005 1.6 0.0
8.0 1.6 0.0
8.4 1.6 0.0
8.8 1.6 0.0
9.200000000000001 1.6 0.0
9.600000000000001 1.6 0.0
10.0 1.6 0.0
10.4 1.6 0.0
10.8 1.6 0.0
11.200000000000001 1.6 0.0
11.600000000000001 1.6 0.0
12.0 1.6 0.0
12.4 1.6 0.0
12.8 1.6 0.0
13.200000000000001 1.6 0.0
13.600000000000001 1.6 0.0
14.0 1.6 0.0
14.4 1.6 0.0
14.8 1.6 0.0
15.200000000000001 1.6 0.0
15.600000000000001 1.6 0.0
16.0 1.6 0.0
0.0 1.7000000000000002 0.0
0.4 1.7000000000000002 0.0
0.8 1.7000000000000002 0.0
1.2000000000000002 1.7000000000000002 0.0
1.6 1.7000000000000002 0.0
2.0 1.7000000000000002 0.0
2.4000000000000004 1.7000000000000002 0.0
2.8000000000000003 1.7000000000000002 0.0
3.2 1.7000000000000002 0.0
3.6 1.7000000000000002 0.0
4.0 1.7000000000000002 0.0
4.4 1.7000000000000002 0.0
4.800000000000001 1.7000000000000002 0.0
5.2 1.7000000000000002 0.0
5.6000000000000005 1.7000000000000002 0.0
6.0 1.7000000000000002 0.0
6.4 1.7000000000000002 0.0
6.800000000000001 1.7000000000000002 0.0
7.2 1.7000000000000002 0.0
7.6000000000000005 1.7000000000000002 0.0
8.0 1.7000000000000002 0.0
8.4 1.7000000000000002 0.0
8.8 1.7000000000000002 0.0
9.200000000000001 1.7000000000000002 0.0
9.600000000000001 1.7000000000000002 0.0
10.0 1.7000000000000002 0.0
10.4 1.7000000000000002 0.0
10.8 1.7000000000000002 0.0
11.200000000000001 1.7000000000000002 0.0
11.600000000000001 1.7000000000000002 0.0
12.0 1.7000000000000002 0.0
12.4 1.7000000000000002 0.0
12.8 1.7000000000000002 0.0
13.200000000000001 1.7000000000000002 0.0
13.600000000000001 1.7000000000000002 0.0
14.0 1.7000000000000002 0.0
14.4 1.7000000000000002 0.0
14.8 1.7000000000000002 0.0
15.200000000000001 1.7000000000000002 0.0
15.600000000000001 1.7000000000000002 0.0
16.0 1.7000000000000002 0.0
0.0 1.8 0.0
0.4 1.8 0.0
0.8 1.8 0.0
1.2000000000000002 1.8 0.0
1.6 1.8 0.0
2.0 1.8 0.0
2.4000000000000004 1.8 0.0
2.8000000000000003 1.8 0.0
3.2 1.8 0.0
3.6 1.8 0.0
4.0 1.8 0.0
4.4 1.8 0.0
4.800000000000001 1.8 0.0
5.2 1.8 0.0
5.6000000000000005 1.8 0.0
6.0 1.8 0.0
6.4 1.8 0.0
6.800000000000001 1.8 0.0
7.2 1.8 0.0
7.6000000000000005 1.8 0.0
8.0 1.8 0.0
8.4 1.8 0.0
8.8 1.8 0.0
9.200000000000001 1.8 0.0
9.600000000000001 1.8 0.0
10.0 1.8 0.0
10.4 1.8 0.0
10.8 1.8 0.0
11.200000000000001 1.8 0.0
11.600000000000001 1.8 0.0
12.0 1.8 0.0
12.4 1.8 0.0
12.8 1.8 0.0
13.200000000000001 1.8 0.0
13.600000000000001 1.8 0.0
14.0 1.8 0.0
14.4 1.8 0.0
14.8 1.8 0.0
15.200000000000001 1.8 0.0
15.600000000000001 1.8 0.0
16.0 1.8 0.0
0.0 1.9000000000000001 0.0
0.4 1.9000000000000001 0.0
0.8 1.9000000000000001 0.0
1.2000000000000002 1.9000000000000001 0.0
1.6 1.9000000000000001 0.0
2.0 1.9000000000000001 0.0
2.4000000000000004 1.9000000000000001 0.0
2.8000000000000003 1.9000000000000001 0.0
3.2 1.9000000000000001 0.0
3.6 1.9000000000000001 0.0
4.0 1.9000000000000001 0.0
4.4 1.9000000000000001 0.0
4.800000000000001 1.9000000000000001 0.0
5.2 1.9000000000000001 0.0
5.6000000000000005 1.9000000000000001 0.0
6.0 1.9000000000000001 0.0
6.4 1.9000000000000001 0.0
6.800000000000001 1.9000000000000001 0.0
7.2 1.9000000000000001 0.0
7.6000000000000005 1.9000000000000001 0.0
8.0 1.9000000000000001 0.0
8.4 1.9000000000000001 0.0
8.8 1.9000000000000001 0.0
9.200000000000001 1.9000000000000001 0.0
9.600000000000001 1.9000000000000001 0.0
10.0 1.9000000000000001 0.0
10.4 1.9000000000000001 0.0
10.8 1.9000000000000001 0.0
11.200000000000001 1.9000000000000001 0.0
11.600000000000001 1.9000000000000001 0.0
12.0 1.9000000000000001 0.0
12.4 1.9000000000000001 0.0
12.8 1.9000000000000001 0.0
13.200000000000001 1.9000000000000001 0.0
13.600000000000001 1.9000000000000001 0.0
14.0 1.9000000000000001 0.0
14.4 1.9000000000000001 0.0
14.8 1.9000000000000001 0.0
15.200000000000001 1.9000000000000001 0.0
15.600000000000001 1.9000000000000001 0.0
16.0 1.9000000000000001 0.0
0.0 2.0 0.0
0.4 2.0 0.0
0.8 2.0 0.0
1.2000000000000002 2.0 0.0
1.6 2.0 0.0
2.0 2.0 0.0
2.4000000000000004 2.0 0.0
2.8000000000000003 2.0 0.0
3.2 2.0 0.0
3.6 2.0 0.0
4.0 2.0 0.0
4.4 2.0 0.0
4.800000000000001 2.0 0.0
5.2 2.0 0.0
5.6000000000000005 2.0 0.0
6.0 2.0 0.0
6.4 2.0 0.0
6.800000000000001 2.0 0.0
7.2 2.0 0.0
7.6000000000000005 2.0 0.0
8.0 2.0 0.0
8.4 2.0 0.0
8.8 2.0 0.0
9.200000000000001 2.0 0.0
9.600000000000001 2.0 0.0
10.0 2.0 0.0
10.4 2.0 0.0
10.8 2.0 0.0
11.200000000000001 2.0 0.0
11.600000000000001 2.0 0.0
12.0 2.0 0.0
12.4 2.0 0.0
12.8 2.0 0.0
13.200000000000001 2.0 0.0
13.600000000000001 2.0 0.0
14.0 2.0 0.0
14.4 2.0 0.0
14.8 2.0 0.0
15.200000000000001 2.0 0.0
15.600000000000001 2.0 0.0
16.0 2.0 0.0
CELLS 800 4000
4 0 1 42 41
4 1 2 43 42
4 2 3 44 43
4 3 4 45 44
4 4 5 46 45
4 5 6 47 46
4 6 7 48 47
4 7 8 49 48
4 8 9 50 49
4 9 10 51 50
4 10 11 52 51
4 11 12 53 52
4 12 13 54 53
4 13 14 55 54
4 14 15 56 55
4 15 16 57 56
4 16 17 58 57
4 17 18 59 58
4 18 19 60 59
4 19 20 61 60
4 20 21 62 61
4 21 22 63 62
4 22 23 64 63
4 23 24 65 64
4 24 25 66 65
4 25 26 67 66
4 26 27 68 67
4 27 28 69 68
4 28 29 70 69
4 29 30 71 70
4 30 31 72 71
4 31 32 73 72
4 32 33 74 73
4 33 34 75 74
4 34 35 76 75
4 35 36 77 76
4 36 37 78 77
4 37 38 79 78
4 38 39 80 79
4 39 40 81 80
4 41 42 83 82
4 42 43 84 83
4 43 44 85 84
4 44 45 86 85
4 45 46 87 86
4 46 47 88 87
4 47 48 89 88
4 48 49 90 89
4 49 50 91 90
4 50 51 92 91
4 51 52 93 92
4 52 53 94 93
4 53 54 95 94
4 54 55 96 95
4 55 56 97 96
4 56 57 98 97
4 57 58 99 98
4 58 59 100 99
4 59 60 101 100
4 60 61 102 101
4 61 62 103 102
4 62 63 104 103
4 63 64 105 104
4 64 65 106 105
4 65 66 107 106
4 66 67 108 107
4 67 68 109 108
4 68 69 110 109
4 69 70 111 110
4 70 71 112 111
4 71 72 113 112
4 72 73 114 113
4 73 74 115 114
4 74 75 116 115
4 75 76 117 116
4 76 77 118 117
4 77 78 119 118
4 78 79 120 119
4 79 80 121 120
4 80 81 122 121
4 82 83 124 123
4 83 84 125 124
4 84 85 126 125
4 85 86 127 126
4 86 87 128 127
4 87 88 129 128
4 88 89 130 129
4 89 90 131 130
4 90 91 132 131
4 91 92 133 132
4 92 93 134 133
4 93 94 135 134
4 94 95 136 135
4 95 96 137 136
4 96 97 138 137
4 97 98 139 138
4 98 99 140 139
4 99 100 141 140
4 100 101 142 141
4 101 102 143 142
4 102 103 144 143
4 103 104 145 144
4 104 105 146 145
4 105 106 147 146
4 106 107 148 147
4 107 108 149 148
4 108 109 150 149
4 109 110 151 150
4 110 111 152 151
4 111 112 153 152
4 112 113 154 153
4 113 114 155 154
4 114 115 156 155
4 115 116 157 156
4 116 117 158 157
4 117 118 159 158
4 118 119 160 159
4 119 120 161 160
4 120 121 162 161
4 121 122 163 162
4 123 124 165 164
4 124 125 166 165
4 125 126 167 166
4 126 127 168 167
4 127 128 169 168
4 128 129 170 169
4 129 130 171 170
4 130 131 172 171
4 131 132 173 172
4 132 133 174 173
4 133 134 175 174
4 134 135 176 175
4 135 136 177 176
4 136 137 178 177
4 137 138 179 178
4 138 139 180 179
4 139 140 181 180
4 140 141 182 181
4 141 142 183 182
4 142 143 184 183
4 143 144 185 184
4 144 145 186 185
4 145 146 187 186
4 146 147 188 187
4 147 148 189 188
4 148 149 190 189
4 149 150 191 190
4 150 151 192 191
4 151 152 193 192
4 152 153 194 193
4 153 154 195 194
4 154 155 196 195
4 155 156 197 196
4 156 157 198 197
4 157 158 199 198
4 158 159 200 199
4 159 160 201 200
4 160 161 202 201
4 161 162 203 202
4 162 163 204 203
4 164 165 206 205
4 165 166 207 206
4 166 167 208 207
4 167 168 209 208
4 168 169 210 209
4 169 170 211 210
4 170 171 212 211
4 171 172 213 212
4 172 173 214 213
4 173 174 215 214
4 174 175 216 215
4 175 176 217 216
4 176 177 218 217
4 177 178 219 218
4 178 179 220 219
4 179 180 221 220
4 180 181 222 221
4 181 182 223 222
4 182 183 224 223
4 183 184 225 224
4 184 185 226 225
4 185 186 227 226
4 186 187 228 227
4 187 188 229 228
4 188 189 230 229
4 189 190 231 230
4 190 191 232 231
4 191 192 233 232
4 192 193 234 233
4 193 194 235 234
4 194 195 236 235
4 195 196 237 236
4 196 197 238 237
4 197 198 239 238
4 198 199 240 239
4 199 200 241 240
4 200 201 242 241
4 201 202 243 242
4 202 203 244 243
4 203 204 245 244
4 205 206 247 246
4 206 207 248 247
4 207 208 249 248
4 208 209 250 249
4 209 210 251 250
4 210 211 252 251
4 211 212 253 252
4 212 213 254 253
4 213 214 255 254
4 214 215 256 255
4 215 216 257 256
4 216 217 258 257
4 217 218 259 258
4 218 219 260 259
4 219 220 261 260
4 220 221 262 261
4 221 222 263 262
4 222 223 264 263
4 223 224 265 264
4 224 225 266 265
4 225 226 267 266
4 226 227 268 267
4 227 228 269 268
4 228 229 270 269
4 229 230 271 270
4 230 231 272 271
4 231 232 273 272
4 232 233 274 273
4 233 234 275 274
4 234 235 276 275
4 235 236 277 276
4 236 237 278 277
4 237 238 279 278
4 238 239 280 279
4 239 240 281 280
4 240 241 282 281
4 241 242 283 282
4 242 243 284 283
4 243 244 285 284
4 244 245 286 285
4 246 247 288 287
4 247 248 289 288
4 248 249 290 289
4 249 250 291 290
4 250 251 292 291
4 251 252 293 292
4 252 253 294 293
4 253 254 295 294
4 254 255 296 295
4 255 256 297 296
4 256 257 298 297
4 257 258 299 298
4 258 259 300 299
4 259 260 301 300
4 260 261 302 301
4 261 262 303 302
4 262 263 304 303
4 263 264 305 304
4 264 265 306 305
4 265 266 307 306
4 266 267 308 307
4 267 268 309 308
4 268 269 310 309
4 269 270 311 310
4 270 271 312 311
4 271 272 313 312
4 272 273 314 313
4 273 274 315 314
4 274 275 316 315
4 275 276 317 316
4 276 277 318 317
4 277 278 319 318
4 278 279 320 319
4 279 280 321 320
4 280 281 322 321
4 281 282 323 322
4 282 283 324 323
4 283 284 325 324
4 284 285 326 325
4 285 286 327 326
4 287 288 329 328
4 288 289 330 329
4 289 290 331 330
4 290 291 332 331
4 291 292 333 332
4 292 293 334 333
4 293 294 335 334
4 294 295 336 335
4 295 296 337 336
4 296 297 338 337
4 297 298 339 338
4 298 299 340 339
4 299 300 341 340
4 300 301 342 341
4 301 302 343 342
4 302 303 344 343
4 303 304 345 344
4 304 305 346 345
4 305 306 347 346
4 306 307 348 347
4 307 308 349 348
4 308 309 350 349
4 309 310 351 350
4 310 311 352 351
4 311 312 353 352
4 312 313 354 353
4 313 314 355 354
4 314 315 356 355
4 315 316 357 356
4 316 317 358 357
4 317 318 359 358
4 318 319 360 359
4 319 320 361 360
4 320 321 362 361
4 321 322 363 362
4 322 323 364 363
4 323 324 365 364
4 324 325 366 365
4 325 326 367 366
4 326 327 368 367
4 328 329 370 369
4 329 330 371 370
4 330 331 372 371
4 331 332 373 372
4 332 333 374 373
4 333 334 375 374
4 334 335 376 375
4 335 336 377 376
4 336 337 378 377
4 337 338 379 378
4 338 339 380 379
4 339 340 381 380
4 340 341 382 381
4 341 342 383 382
4 342 343 384 383
4 343 344 385 384
4 344 345 386 385
4 345 346 387 386
4 346 347 388 387
4 347 348 389 388
4 348 349 390 389
4 349 350 391 390
4 350 351 392 391
4 351 352 393 392
4 352 353 394 393
4 353 354 395 394
4 354 355 396 395
4 355 356 397 396
4 356 357 398 397
4 357 358 399 398
4 358 359 400 399
4 359 360 401 400
4 360 361 402 401
4 361 362 403 402
4 362 363 404 403
4 363 364 405 404
4 364 365 406 405
4 365 366 407 406
4 366 367 408 407
4 367 368 409 408
4 369 370 411 410
4 370 371 412 411
4 371 372 413 412
4 372 373 414 413
4 373 374 415 414
4 374 375 416 415
4 375 376 417 416
4 376 377 418 417
4 377 378 419 418
4 378 379 420 419
4 379 380 421 420
4 380 381 422 421
4 381 382 423 422
4 382 383 424 423
4 383 384 425 424
4 384 385 426 425
4 385 386 427 426
4 386 387 428 427
4 387 388 429 428
4 388 389 430 429
4 389 390 431 430
4 390 391 432 431
4 391 392 433 432
4 392 393 434 433
4 393 394 435 434
4 394 395 436 435
4 395 396 437 436
4 396 397 438 437
4 397 398 439 438
4 398 399 440 439
4 399 400 441 440
4 400 401 442 441
4 401 402 443 442
4 402 403 444 443
4 403 404 445 444
4 404 405 446 445
4 405 406 447 446
4 406 407 448 447
4 407 408 449 448
4 408 409 450 449
4 410 411 452 451
4 411 412 453 452
4 412 413 454 453
4 413 414 455 454
4 414 415 456 455
4 415 416 457 456
4 416 417 458 457
4 417 418 459 458
4 418 419 460 459
4 419 420 461 460
4 420 421 462 461
4 421 422 463 462
4 422 423 464 463
4 423 424 465 464
4 424 425 466 465
4 425 426 467 466
4 426 427 468 467
4 427 428 469 468
4 428 429 470 469
4 429 430 471 470
4 430 431 472 471
4 431 432 473 472
4 432 433 474 473
4 433 434 475 474
4 434 435 476 475
4 435 436 477 476
4 436 437 478 477
4 437 438 479 478
4 438 439 480 479
4 439 440 481 480
4 440 441 482 481
4 441 442 483 482
4 442 443 484 483
4 443 444 485 484
4 444 445 486 485
4 445 446 487 486
4 446 447 488 487
4 447 448 489 488
4 448 449 490 489
4 449 450 491 490
4 451 452 493 492
4 452 453 494 493
4 453 454 495 494
4 454 455 496 495
4 455 456 497 496
4 456 457 498 497
4 457 458 499 498
4 458 459 500 499
4 459 460 501 500
4 460 461 502 501
4 461 462 503 502
4 462 463 504 503
4 463 464 505 504
4 464 465 506 505
4 465 466 507 506
4 466 467 508 507
4 467 468 509 508
4 468 469 510 509
4 469 470 511 510
4 470 471 512 511
4 471 472 513 512
4 472 473 514 513
4 473 474 515 514
4 474 475 516 515
4 475 476 517 516
4 476 477 518 517
4 477 478 519 518
4 478 479 520 519
4 479 480 521 520
4 480 481 522 521
4 481 482 523 522
4 482 483 524 523
4 483 484 525 524
4 484 485 526 525
4 485 486 527 526
4 486 487 528 527
4 487 488 529 528
4 488 489 530 529
4 489 490 531 530
4 490 491 532 531
4 492 493 534 533
4 493 494 535 534
4 494 495 536 535
4 495 496 537 536
4 496 497 538 537
4 497 498 539 538
4 498 499 540 539
4 499 500 541 540
4 500 501 542 541
4 501 502 543 542
4 502 503 544 543
4 503 504 545 544
4 504 505 546 545
4 505 506 547 546
4 506 507 548 547
4 507 508 549 548
4 508 509 550 549
4 509 510 551 550
4 510 511 552 551
4 511 512 553 552
4 512 513 554 553
4 513 514 555 554
4 514 515 556 555
4 515 516 557 556
4 516 517 558 557
4 517 518 559 558
4 518 519 560 559
4 519 520 561 560
4 520 521 562 561
4 521 522 563 562
4 522 523 564 563
4 523 524 565 564
4 524 525 566 565
4 525 526 567 566
4 526 527 568 567
4 527 528 569 568
4 528 529 570 569
4 529 530 571 570
4 530 531 572 571
4 531 532 573 572
4 533 534 575 574
4 534 535 576 575
4 535 536 577 576
4 536 537 578 577
4 537 538 579 578
4 538 539 580 579
4 539 540 581 580
4 540 541 582 581
4 541 542 583 582
4 542 543 584 583
4 543 544 585 584
4 544 545 586 585
4 545 546 587 586
4 546 547 588 587
4 547 548 589 588
4 548 549 590 589
4 549 550 591 590
4 550 551 592 591
4 551 552 593 592
4 552 553 594 593
4 553 554 595 594
4 554 555 596 595
4 555 556 597 596
4 556 557 598 597
4 557 558 599 598
4 558 559 600 599
4 559 560 601 600
4 560 561 602 601
4 561 562 603 602
4 562 563 604 603
4 563 564 605 604
4 564 565 606 605
4 565 566 607 606
4 566 567 608 607
4 567 568 609 608
4 568 569 610 609
4 569 570 611 610
4 570 571 612 611
4 571 572 613 612
4 572 573 614 613
4 574 575 616 615
4 575 576 617 616
4 576 577 618 617
4 577 578 619 618
4 578 579 620 619
4 579 580 621 620
4 580 581 622 621
4 581 582 623 622
4 582 583 624 623
4 583 584 625 624
4 584 585 626 625
4 585 586 627 626
4 586 587 628 627
4 587 588 629 628
4 588 589 630 629
4 589 590 631 630
4 590 591 632 631
4 591 592 633 632
4 592 593 634 633
4 593 594 635 634
4 594 595 636 635
4 595 596 637 636
4 596 597 638 637
4 597 598 639 638
4 598 599 640 639
4 599 600 641 640
4 600 601 642 641
4 601 602 643 642
4 602 603 644 643
4 603 604 645 644
4 604 605 646 645
4 605 606 647 646
4 606 607 648 647
4 607 608 649 648
4 608 609 650 649
4 609 610 651 650
4 610 611 652 651
4 611 612 653 652
4 612 613 654 653
4 613 614 655 654
4 615 616 657 656
4 616 617 658 657
4 617 618 659 658
4 618 619 660 659
4 619 620 661 660
4 620 621 662 661
4 621 622 663 662
4 622 623 664 663
4 623 624 665 664
4 624 625 666 665
4 625 626 667 666
4 626 627 668 667
4 627 628 669 668
4 628 629 670 669
4 629 630 671 670
4 630 631 672 671
4 631 632 673 672
4 632 633 674 673
4 633 634 675 674
4 634 635 676 675
4 635 636 677 676
4 636 637 678 677
4 637 638 679 678
4 638 639 680 679
4 639 640 681 680
4 640 641 682 681
4 641 642 683 682
4 642 643 684 683
4 643 644 685 684
4 644 645 686 685
4 645 646 687 686
4 646 647 688 687
4 647 648 689 688
4 648 649 690 689
4 649 650 691 690
4 650 651 692 691
4 651 652 693 692
4 652 653 694 693
4 653 654 695 694
4 654 655 696 695
4 656 657 698 697
4 657 658 699 698
4 658 659 700 699
4 659 660 701 700
4 660 661 702 701
4 661 662 703 702
4 662 663 704 703
4 663 664 705 704
4 664 665 706 705
4 665 666 707 706
4 666 667 708 707
4 667 668 709 708
4 668 669 710 709
4 669 670 711 710
4 670 671 712 711
4 671 672 713 712
4 672 673 714 713
4 673 674 715 714
4 674 675 716 715
4 675 676 717 716
4 676 677 718 717
4 677 678 719 718
4 678 679 720 719
4 679 680 721 720
4 680 681 722 721
4 681 682 723 722
4 682 683 724 723
4 683 684 725 724
4 684 685 726 725
4 685 686 727 726
4 686 687 728 727
4 687 688 729 728
4 688 689 730 729
4 689 690 731 730
4 690 691 732 731
4 691 692 733 732
4 692 693 734 733
4 693 694 735 734
4 694 695 736 735
4 695 696 737 736
4 697 698 739 738
4 698 699 740 739
4 699 700 741 740
4 700 701 742 741
4 701 702 743 742
4 702 703 744 743
4 703 704 745 744
4 704 705 746 745
4 705 706 747 746
4 706 707 748 747
4 707 708 749 748
4 708 709 750 749
4 709 710 751 750
4 710 711 752 751
4 711 712 753 752
4 712 713 754 753
4 713 714 755 754
4 714 715 756 755
4 715 716 757 756
4 716 717 758 757
4 717 718 759 758
4 718 719 760 759
4 719 720 761 760
4 720 721 762 761
4 721 722 763 762
4 722 723 764 763
4 723 724 765 764
4 724 725 766 765
4 725 726 767 766
4 726 727 768 767
4 727 728 769 768
4 728 729 770 769
4 729 730 771 770
4 730 731 772 771
4 731 732 773 772
4 732 733 774 773
4 733 734 775 774
4 734 735 776 775
4 735 736 777 776
4 736 737 778 777
4 738 739 780 779
4 739 740 781 780
4 740 741 782 781
4 741 742 783 782
4 742 743 784 783
4 743 744 785 784
4 744 745 786 785
4 745 746 787 786
4 746 747 788 787
4 747 748 789 788
4 748 749 790 789
4 749 750 791 790
4 750 751 792 791
4 751 752 793 792
4 752 753 794 793
4 753 754 795 794
4 754 755 796 795
4 755 756 797 796
4 756 757 798 797
4 757 758 799 798
4 758 759 800 799
4 759 760 801 800
4 760 761 802 801
4 761 762 803 802
4 762 763 804 803
4 763 764 805 804
4 764 765 806 805
4 765 766 807 806
4 766 767 808 807
4 767 768 809 808
4 768 769 810 809
4 769 770 811 810
4 770 771 812 811
4 771 772 813 812
4 772 773 814 813
4 773 774 815 814
4 774 775 816 815
4 775 776 817 816
4 776 777 818 817
4 777 778 819 818
4 779 780 821 820
4 780 781 822 821
4 781 782 823 822
4 782 783 824 823
4 783 784 825 824
4 784 785 826 825
4 785 786 827 826
4 786 787 828 827
4 787 788 829 828
4 788 789 830 829
4 789 790 831 830
4 790 791 832 831
4 791 792 833 832
4 792 793 834 833
4 793 794 835 834
4 794 795 836 835
4 795 796 837 836
4 796 797 838 837
4 797 798 839 838
4 798 799 840 839
4 799 800 841 840
4 800 801 842 841
4 801 802 843 842
4 802 803 844 843
4 803 804 845 844
4 804 805 846 845
4 805 806 847 846
4 806 807 848 847
4 807 808 849 848
4 808 809 850 849
4 809 810 851 850
4 810 811 852 851
4 811 812 853 852
4 812 813 854 853
4 813 814 855 854
4 814 815 856 855
4 815 816 857 856
4 816 817 858 857
4 817 818 859 858
4 818 819 860 859
CELL_TYPES 800
9
9
9
9
9
9
9
9
9
9
9
9
9
9
9
9
9
9
9
9
9
9
9
9
9
9
9
9
9
9
9
9
9
9
9
9
9
9
9
9
9
9
9
9
9
9
9
9
9
9
9
9
9
9
9
9
9
9
9
9
9
9
9
9
9
9
9
9
9
9
9
9
9
9
9
9
9
9
9
9
9
9
9
9
9
9
9
9
9
9
9
9
9
9
9
9
9
9
9
9
9
9
9
9
9
9
9
9
9
9
9
9
9
9
9
9
9
9
9
9
9
9
9
9
9
9
9
9
9
9
9
9
9
9
9
9
9
9
9
9
9
9
9
9
9
9
9
9
9
9
9
9
9
9
9
9
9
9
9
9
9
9
9
9
9
9
9
9
9
9
9
9
9
9
9
9
9
9
9
9
9
9
9
9
9
9
9
9
9
9
9
9
9
9
9
9
9
9
9
9
9
9
9
9
9
9
9
9
9
9
9
9
9
9
9
9
9
9
9
9
9
9
9
9
9
9
9
9
9
9
9
9
9
9
9
9
9
9
9
9
9
9
9
9
9
9
9
9
9
9
9
9
9
9
9
9
9
9
9
9
9
9
9
9
9
9
9
9
9
9
9
9
9
9
9
9
9
9
9
9
9
9
9
9
9
9
9
9
9
9
9
9
9
9
9
9
9
9
9
9
9
9
9
9
9
9
9
9
9
9
9
9
9
9
9
9
9
9
9
9
9
9
9
9
9
9
9
9
9
9
9
9
9
9
9
9
9
9
9
9
9
9
9
9
9
9
9
9
9
9
9
9
9
9
9
9
9
9
9
9
9
9
9
9
9
9
9
9
9
9
9
9
9
9
9
9
9
9
9
9
9
9
9
9
9
9
9
9
9
9
9
9
9
9
9
9
9
9
9
9
9
9
9
9
9
9
9
9
9
9
9
9
9
9
9
9
9
9
9
9
9
9
9
9
9
9
9
9
9
9
9
9
9
9
9
9
9
9
9
9
9
9
9
9
9
9
9
9
9
9
9
9
9
9
9
9
9
9
9
9
9
9
9
9
9
9
9
9
9
9
9
9
9
9
9
9
9
9
9
9
9
9
9
9
9
9
9
9
9
9
9
9
9
9
9
9
9
9
9
9
9
9
9
9
9
9
9
9
9
9
9
9
9
9
9
9
9
9
9
9
9
9
9
9
9
9
9
9
9
9
9
9
9
9
9
9
9
9
9
9
9
9
9
9
9
9
9
9
9
9
9
9
9
9
9
9
9
9
9
9
9
9
9
9
9
9
9
9
9
9
9
9
9
9
9
9
9
9
9
9
9
9
9
9
9
9
9
9
9
9
9
9
9
9
9
9
9
9
9
9
9
9
9
9
9
9
9
9
9
9
9
9
9
9
9
9
9
9
9
9
9
9
9
9
9
9
9
9
9
9
9
9
9
9
9
9
9
9
9
9
9
9
9
9
9
9
9
9
9
9
9
9
9
9
9
9
9
9
9
9
9
9
9
9
9
9
9
9
9
9
9
9
9
9
9
9
9
9
9
9
9
9
9
9
9
9
9
9
9
9
9
9
9
9
9
9
9
9
9
9
9
9
9
9
9
9
9
9
9
9
9
9
9
9
9
9
9
9
9
9
9
9
9
9
9
9
9
9
9
9
9
9
9
9
9
9
9
9
9
9
9
9
9
9
9
9
9
9
9
9
9
9
9
9
9
9
9
9
9
9
9
9
9
9
9
9
9
9
9
9
9
9
9
9
9
9
9
9
9
9
9
9
9
9
9
9
9
9
9
9
9
9
9
9
9
9
9
9
9
9
POINT_DATA 861
SCALARS Disp float 2
LOOKUP_TABLE default
0.0 0.0
0.0043820314471476555 -0.13780327280311683
0.005408620859634851 -0.2683669162566875
0.0061293194734948955 -0.3982277354140536
0.006996210778496356 -0.5277955662245466
0.008213135756351206 -0.6568354394290634
0.010107435727219375 -0.7850513569421155
0.013015261945564328 -0.9120999094760321
0.017313974766028396 -1.0375577233951905
0.02340678617602052 -1.1608802450180025
0.03171182788130922 -1.2813376421475478
0.04268522583092721 -1.397961516658105
0.056844225718370764 -1.5095300658772273
0.07475931324557068 -1.6146035462671664
0.09704949770384105 -1.7115595428850423
0.12430717161655333 -1.7986203797522469
0.15696223078018995 -1.8738860440252236
0.19511168302707904 -1.9353921420027111
0.2383653425901543 -1.981241813413486
0.28577079067854033 -2.009830175032407
0.33575669153791815 -2.0200622385961733
0.38574259239729425 -2.009830175032353
0.433148040485672 -1.9812418134133751
0.47640170004873394 -1.9353921420025517
0.5145511522956058 -1.8738860440250231
0.5472062114592244 -1.7986203797520193
0.5744638853719186 -1.711559542884792
0.5967540698301705 -1.6146035462669004
0.6146691573573514 -1.5095300658769537
0.6288281572447765 -1.397961516657833
0.6398015551943776 -1.281337642147284
0.6481065968996523 -1.1608802450177529
0.6541994083096336 -1.0375577233949589
0.6584981211300894 -0.912099909475822
0.6614059473484282 -0.7850513569419286
0.6633002473192924 -0.656835439428904
0.6645171722971456 -0.5277955662244145
0.6653840636021463 -0.39822773541395134
0.6661047622160062 -0.268366916256614
0.6671313516284925 -0.1378032728030741
0.6715133830756372 0.0
0.03438728601855809 -0.0019123062465057805
0.03734262062201021 -0.13794138628569044
0.037904647291216675 -0.2684298279624545
0.03855342972138261 -0.39830709261636216
0.0393281066535131 -0.5278999667013914
0.0403834434898042 -0.6570303620729409
0.04203267142620553 -0.785417151917553
0.04459717190438038 -0.9127229572234569
0.04843021265575201 -1.0385333075107799
0.05389569630409637 -1.1623040403446938
0.06136314902929528 -1.2833089753315088
0.07122679670797587 -1.4005919231064048
0.08393767939636634 -1.5129482727192096
0.10002103652292009 -1.6189536791767656
0.12004743458873336 -1.7169930281125476
0.1445722980716118 -1.805269695399973
0.1740052248198842 -1.8818257104322778
0.20845452049184054 -1.9445981806915527
0.2475911976000471 -1.9915614408249567
0.29054548240282335 -2.020968038928255
0.33575669153791166 -2.0315251499510274
0.3809679006729978 -2.0209680389282005
0.42392218547576654 -1.9915614408248437
0.46305886258396156 -1.9445981806913895
0.497508158255903 -1.8818257104320735
0.5269410850041595 -1.805269695399741
0.5514659484870216 -1.7169930281122932
0.5714923465528181 -1.6189536791764954
0.5875757036793549 -1.5129482727189318
0.6002865863677288 -1.4005919231061283
0.6101502340463942 -1.2833089753312414
0.6176176867715806 -1.1623040403444418
0.6230831704199149 -1.038533307510546
0.626916211171279 -0.912722957223245
0.6294807116494483 -0.7854171519173652
0.6311299395858463 -0.6570303620727809
0.632185276422136 -0.5278999667012593
0.632959953354266 -0.3983070926162599
0.6336087357844318 -0.268429827962381
0.6341707624536383 -0.13794138628564753
0.637126097057086 -0.0019123062465035414
0.06797772551807384 -0.0034051683722271585
0.07009652453053472 -0.13800461895513455
0.07042363165091517 -0.2684682962531332
0.07095446628540482 -0.3983790455349192
0.07164331509391998 -0.5279879387720079
0.07255439962760946 -0.6571858611229566
0.07395891706917312 -0.7857195739519673
0.07617935595142648 -0.9132541101222079
0.0795389225684801 -1.0393814104203534
0.08436584839930006 -1.163555059269324
0.090982969277439 -1.2850498111682296
0.0997290352028375 -1.4029183732646329
0.11099161736288303 -1.5159737954616699
0.12523384515589112 -1.6228109487729052
0.14298248482779058 -1.7218219313857486
0.16474912116116025 -1.8111945526430189
0.19092620308677805 -1.8889202811419874
0.2216491768861378 -1.9528487893671183
0.25665872020599756 -2.0008363203602415
0.295160813619158 -2.030983851451867
0.33575669153790544 -2.0418423704342015
0.37635256945665047 -2.0309838514518113
0.4148546628698043 -2.000836320360126
0.44986420618965395 -1.952848789366952
0.48058717998900086 -1.8889202811417798
0.5067642619146044 -1.8111945526427833
0.5285308982479595 -1.7218219313854901
0.5462795379198441 -1.6228109487726312
0.5605217657128372 -1.5159737954613886
0.571784347872868 -1.402918373264353
0.5805304137982531 -1.2850498111679591
0.5871475346763808 -1.1635550592690693
0.5919744605071917 -1.0393814104201176
0.5953340271242386 -0.9132541101219946
0.597554466006487 -0.7857195739517785
0.5989589834480479 -0.6571858611227962
0.5998700679817363 -0.5279879387718758
0.6005589167902511 -0.3983790455348169
0.6010897514247407 -0.26846829625305985
0.6014168585451213 -0.1380046189550914
0.603535657557578 -0.003405168372222637
0.10115310837399843 -0.0045951252103302006
0.10272306841623281 -0.1380471341161944
0.1029236251379415 -0.2684899866540576
0.10333885058712017 -0.39843867886240214
0.1039361115886274 -0.5280645110209469
0.10472192295690681 -0.6573076616479616
0.10589411538889906 -0.7859597685390933
0.1077698017630787 -0.9136945367708154
0.11065222268180536 -1.0401013114055242
0.11483325095923803 -1.1646319721546798
0.1205925625784013 -1.2865588458944806
0.12821562110166174 -1.4049414679215686
0.13803048217823302 -1.518608329426611
0.15043654046763227 -1.6261746769288572
0.1658984965817451 -1.7260434012223835
0.18489038308478217 -1.8163897235176687
0.207788877009228 -1.895163506110692
0.2347580156497567 -1.9601394945133725
0.2656139105799905 -2.0090631979599265
0.2996845061448792 -2.0398954159690827
0.3357566915378995 -2.0510546946748316
0.3718288769309173 -2.0398954159690255
0.4058994724958002 -2.00906319795981
0.43675536742602494 -1.9601394945132036
0.4637245060665425 -1.8951635061104815
0.48662299999097575 -1.8163897235174296
0.5056148864940001 -1.7260434012221217
0.5210768426080997 -1.6261746769285799
0.533482900897486 -1.5186083294263264
0.5432977619740444 -1.4049414679212855
0.5509208204972933 -1.2865588458942074
0.5566801321164465 -1.164631972154423
0.5608611603938713 -1.0401013114052866
0.5637435813125918 -0.9136945367706009
0.5656192676867673 -0.7859597685389038
0.5667914601187575 -0.657307661647801
0.5675772714870362 -0.5280645110208146
0.5681745324885431 -0.3984386788622998
0.5685897579377218 -0.2684899866539843
0.5687903146594305 -0.13804713411615094
0.5703602747016612 -0.004595125210323634
0.13408771453755822 -0.005548545333914824
0.1352584245371827 -0.13808390638593288
0.1353890476040401 -0.26850214775209164
0.13570469324420043 -0.3984848510724519
0.13620556564173925 -0.5281309426418065
0.1368764411160378 -0.6574049525082395
0.13784360968521697 -0.7861428915304196
0.13937688840612814 -0.9140456237146115
0.1417825126060614 -1.040694011665195
0.14531463579805062 -1.1655347141669328
0.1502124202554531 -1.2878365103040113
0.15671242249205802 -1.4066621861793214
0.16508252023464554 -1.5208541744025794
0.17565744522720853 -1.6290474906798817
0.18884198736274047 -1.7296572238363421
0.2050546019297788 -1.82085252226607
0.2246569099339761 -1.9005506903476554
0.24784472939093807 -1.9664636951731458
0.2745188814300723 -2.0162396836809666
0.3041603063023907 -2.0477147450833626
0.33575669153789367 -2.059185338745496
0.3673530767733943 -2.0477147450833044
0.39699450164570743 -2.016239683680848
0.4236686536848336 -1.9664636951729746
0.44685647314178595 -1.9005506903474423
0.4664587811459723 -1.8208525222658283
0.48267139571299955 -1.7296572238360777
0.4958559378485203 -1.6290474906796015
0.5064308628410722 -1.5208541744022916
0.5148009605836489 -1.4066621861790358
0.5213009628202439 -1.2878365103037357
0.5261987472776378 -1.165534714166674
0.5297308704696201 -1.040694011664956
0.5321364946695482 -0.9140456237143959
0.5336697733904558 -0.7861428915302296
0.5346369419596335 -0.6574049525080787
0.5353078174339315 -0.5281309426416743
0.53580868983147 -0.3984848510723496
0.5361243354716304 -0.2685021477520184
0.5362549585384878 -0.13808390638588916
0.5374256685381092 -0.005548545333906475
0.16686225095141086 -0.0063078553113347195
0.1677288767183203 -0.13811924603666084
0.16781766611270774 -0.2685097383608653
0.1680496773835896 -0.3985184761525005
0.16845213577971185 -0.5281867730353175
0.16901257030868572 -0.6574836532746258
0.16979810193862294 -0.7862792929899755
0.1710161980847986 -0.9143098565482257
0.17294294889022885 -1.0411616244946185
0.1758274137386052 -1.1662649456609102
0.17986436804724593 -1.2888841611275783
0.18524387748881924 -1.408083073376719
0.19217748908307772 -1.5227148266912696
0.20093459230076227 -1.6314331040416854
0.2118501958792294 -1.7326672125363616
0.2252953202645003 -1.8245840221193657
0.24160066077849268 -1.9050785322105162
0.2609803085268629 -1.971814587515037
0.2834362866361824 -2.0223609962048923
0.30862652706242216 -2.0544458469019937
0.33575669153788773 -2.066247035064618
0.36288685601335124 -2.0544458469019347
0.3880770964395862 -2.022360996204772
0.4105330745488989 -1.9718145875148636
0.429912722297261 -1.9050785322103008
0.44621806281124404 -1.8245840221191212
0.45966318719650545 -1.7326672125360947
0.47057879077496334 -1.631433104041403
0.47933589399263876 -1.5227148266909798
0.4862695055868882 -1.4080830733764311
0.49164901502845315 -1.288884161127301
0.49568596933708686 -1.16626494566065
0.49857043418545743 -1.041161624494378
0.5004971849908835 -0.9143098565480093
0.5017152811370565 -0.786279292989785
0.5025008127669927 -0.657483653274465
0.5030612472959661 -0.5281867730351852
0.5034637056920881 -0.3985184761523982
0.5036957169629699 -0.268509738360792
0.5037845063573574 -0.138119246036617
0.5046511321242644 -0.00630785531132491
0.19952058415300894 -0.006905986337263172
0.20015307848478192 -0.13815406328533647
0.20021305596780573 -0.26851532778023557
0.2003730705810769 -0.3985410559518316
0.20067833758299128 -0.5282310285681009
0.20112677761000655 -0.6575474868804608
0.20174678718642597 -0.7863800962551035
0.20268161919584515 -0.9144985736711319
0.20415309519619093 -1.0415072623571446
0.20639036065361033 -1.1668257966179951
0.20957181719346907 -1.2897050603614362
0.21383737769559805 -1.4092078450167678
0.2193455770407118 -1.5241953485010382
0.22630164189858049 -1.6333377786967427
0.23497250069983772 -1.7350786514456515
0.24566470836698545 -1.8275888189117597
0.25868048168218305 -1.9087478027738871
0.27424297368342504 -1.976186177406765
0.2924380406104086 -2.0274182713087354
0.3131234340296121 -2.0600840959932025
0.3357566915378816 -2.072243414645936
0.35838994904614946 -2.0600840959931426
0.3790753424653488 -2.027418271308614
0.3972704093923268 -1.97618617740659
0.412832901393562 -1.90874780277367
0.4258486747087519 -1.8275888189115133
0.4365408823758919 -1.7350786514453826
0.4452117411771418 -1.6333377786964585
0.4521678060350034 -1.5241953485007464
0.4576760053801099 -1.4092078450164782
0.4619415658822323 -1.289705060361157
0.4651230224220854 -1.1668257966177333
0.46736028787950024 -1.0415072623569033
0.4688317638798429 -0.9144985736709148
0.46976659588926023 -0.786380096254913
0.47038660546567884 -0.6575474868803
0.47083504549269384 -0.5282310285679686
0.471140312494608 -0.3985410559517293
0.4713003271078791 -0.26851532778016235
0.47136030459090283 -0.13815406328529253
0.47199279892267404 -0.006905986337252156
0.2320927858655122 -0.0073688921967289675
0.232544491086028 -0.13818940146148534
0.23258072392547038 -0.2685195205660391
0.23267595063433733 -0.3985540473471498
0.23288688622402154 -0.5282629710589427
0.2332189714458559 -0.6575976980107157
0.2336859696624499 -0.7864524323934228
0.2343640551701059 -0.914626014556348
0.23541697385712448 -1.0417419341243228
0.23702891071121748 -1.1672225122628532
0.239360608032671 -1.2903043018787732
0.24252140917712592 -1.410042078062933
0.24661926660341885 -1.525302660983948
0.25179687404565804 -1.6347699487112564
0.25825008439951064 -1.7369010050597624
0.2662198671825362 -1.8298741399719942
0.2759642453834441 -1.9115623001628173
0.2877044043054024 -1.9795758632245881
0.30159891036733705 -2.0313995366538373
0.31769765277114825 -2.0646152163707505
0.33575669153787535 -2.0771684498752743
0.3538157303046012 -2.06461521637069
0.36991447270840916 -2.0313995366537148
0.38380897877033926 -1.9795758632244118
0.39554913769229205 -1.9115623001625988
0.405293515893194 -1.829874139971746
0.4132632986762137 -1.7369010050594922
0.41971650903006097 -1.6347699487109701
0.4248941164722951 -1.5253026609836549
0.4289919738985827 -1.4100420780626417
0.4321527750430327 -1.2903043018784932
0.434484472364482 -1.1672225122625903
0.4360964092185719 -1.0417419341240808
0.4371493279055882 -0.9146260145561305
0.437827413413243 -0.786452432393232
0.4382944116298366 -0.6575976980105547
0.43862649685167066 -0.5282629710588105
0.4388374324413547 -0.3985540473470474
0.4389326591502216 -0.26851952056596584
0.4389688919896639 -0.13818940146144137
0.43942059721017845 -0.007368892196717021
0.2645955337410844 -0.007722228384981926
0.2649155143852121 -0.13822591673560183
0.2649254607825491 -0.26852178138527455
0.26496091802386945 -0.39855855723084377
0.26508081761288804 -0.5282825936255418
0.26529371502343363 -0.657632988430339
0.2656058090407699 -0.7865035639020457
0.2660546439105585 -0.9147058056547285
0.2667283947703846 -1.0418831857838933
0.26775544275838703 -1.1674684296437725
0.2692606493293591 -1.290690656723972
0.2713315762471947 -1.4105946272360717
0.274034912369675 -1.52604669675368
0.277459200320392 -1.635741434560579
0.2817296096860479 -1.7381471729912985
0.2870143765449183 -1.8314519975525618
0.2935152780677171 -1.913530680758842
0.3014475270185548 -1.981984665386428
0.3110059012537957 -2.034291749446936
0.3224051518707259 -2.068015328649768
0.33575669153786863 -2.081006045110798
0.3491082312050108 -2.068015328649707
0.36050748182193887 -2.0342917494468127
0.37006585605717635 -1.9819846653862507
0.37799810500801007 -1.9135306807586225
0.3844990065308048 -1.8314519975523125
0.3897837733896714 -1.738147172991027
0.3940541827553238 -1.6357414345602923
0.3974784707060378 -1.5260466967533861
0.40018180682851473 -1.4105946272357794
0.4022527337463473 -1.2906906567236907
0.40375794031731654 -1.167468429643509
0.40478498830531706 -1.041883185783651
0.40545873916514197 -0.9147058056545107
0.40590757403492983 -0.7865035639018549
0.40621966805226584 -0.657632988430178
0.4064325654628112 -0.5282825936254095
0.40655246505182974 -0.39855855723074135
0.40658792229315005 -0.2685217813852013
0.4065978686904869 -0.1382259167355579
0.40691784933461395 -0.007722228384969296
0.2970398235114458 -0.007993146906901396
0.29726907119058427 -0.13826435953882907
0.2972524003364103 -0.2685210844396119
0.29723146665806405 -0.3985554470255408
0.2972635379378997 -0.5282901317555595
0.29735651574813016 -0.6576522903109769
0.29750894930415206 -0.786534298718299
0.297734162162019 -0.9147517065658928
0.29806704684772417 -1.041954746815609
0.2985651003429478 -1.1675881863772024
0.2992901083410101 -1.2908845407113312
0.30030265157777275 -1.410882744465442
0.30163353561705886 -1.5264443158137342
0.3033284260996844 -1.6362707900857083
0.30545109474748716 -1.7388374250141019
0.308091169929789 -1.8323421697366158
0.31138298803577263 -1.9146682408220743
0.3155176825375167 -1.9834237097254785
0.32074362067531753 -2.036088862876772
0.32733264643771476 -2.070250812013637
0.3357566915378618 -2.0837252809434204
0.3441807366380087 -2.0702508120135756
0.350769762400405 -2.0360888628766483
0.3559957005382035 -1.9834237097253007
0.36013039503994526 -1.9146682408218545
0.363422213145927 -1.8323421697363655
0.3660622883282271 -1.7388374250138299
0.3681849569760285 -1.636270790085421
0.36987984745865293 -1.5264443158134395
0.37121073149793765 -1.4108827444651495
0.3722232747346991 -1.2908845407110496
0.37294828273276015 -1.1675881863769386
0.3734463362279832 -1.0419547468153665
0.3737792209136878 -0.9147517065656751
0.37400443377155446 -0.7865342987181084
0.3741568673275763 -0.657652290310816
0.3742498451378067 -0.5282901317554272
0.37428191641764236 -0.3985554470254384
0.37426098273929603 -0.26852108443953854
0.3742443118851221 -0.1382643595387851
0.37447355956426015 -0.007993146906888323
0.3294411605317757 -0.008202782292841453
0.3296065797142347 -0.13830409081444303
0.3295658617901347 -0.26851706016521176
0.3294916939567836 -0.39854524209692943
0.32943899147523087 -0.5282859025709001
0.32941275466320874 -0.6576553556149684
0.3294032673148202 -0.7865436990567422
0.3294011040816649 -0.9147669660678889
0.32940095965222166 -1.041977606842383
0.3294012712473831 -1.167623332776667
0.32940140099558946 -1.2909363744994966
0.3294019218360527 -1.4109576326270532
0.3294002836237223 -1.5265474591885215
0.3293950037370427 -1.636408592809573
0.32938643890456226 -1.739020260538207
0.3293902673884539 -1.8325901891078233
0.3294762447900304 -1.915015651442913
0.32981788712770427 -1.98392706945377
0.3307171647770821 -2.036823397837927
0.33253336202810857 -2.071303539431444
0.3357566915378548 -2.0852856216269866
0.33898002104760133 -2.071303539431383
0.34079621829862755 -2.036823397837803
0.34169549594800447 -1.983927069453592
0.3420371382856782 -1.9150156514426933
0.3421231156872551 -1.832590189107573
0.3421269441711471 -1.7390202605379346
0.34211837933866723 -1.6364085928092857
0.3421130994519885 -1.5265474591882269
0.3421114612396588 -1.410957632626761
0.34211198208012283 -1.290936374499215
0.3421121118283295 -1.167623332776403
0.34211242342349135 -1.0419776068421402
0.3421122789940483 -0.914766966067671
0.34211011576089306 -0.7865436990565514
0.34210062841250466 -0.6576553556148073
0.3420743916004826 -0.5282859025707678
0.34202168911893 -0.398545242096827
0.34194752128557887 -0.2685170601651383
0.34190680336147894 -0.13830409081439912
0.3420722225439377 -0.008202782292828118
0.3618111929147234 -0.008367570925353972
0.36193262660329434 -0.13834255552634372
0.3618698752637438 -0.2685100227195575
0.3617459595505475 -0.3985282778310174
0.36161152591179424 -0.5282703620446193
0.36146825087685885 -0.657642292805066
0.36129791508474646 -0.7865314642395012
0.36106786836994653 -0.914751214966551
0.36073487074466065 -1.0419548711398863
0.36023742885423704 -1.1675882247122829
0.3595133119099178 -1.2908849262448485
0.3585013362889084 -1.4108824699637117
0.3571671150646602 -1.526442939064731
0.35546176571962557 -1.636267951978254
0.3533215273615178 -1.7388348359147014
0.350689813486122 -1.8323559972513177
0.34756292115905063 -1.914748275887666
0.34405969503989126 -1.98367175467223
0.3404784686788799 -2.036653578289776
0.3373154169465869 -2.071282230908695
0.33575669153784793 -2.085801849066094
0.3341979661291087 -2.0712822309086336
0.33103491439681554 -2.0366535782896524
0.3274536880358055 -1.9836717546720517
0.32395046191664856 -1.9147482758874461
0.32082356958957997 -1.832355997251068
0.31819185571418657 -1.7388348359144292
0.31605161735608134 -1.636267951977967
0.3143462680110494 -1.5264429390644365
0.3130120467868042 -1.4108824699634197
0.3120000711657974 -1.2908849262445672
0.31127595422148036 -1.167588224712019
0.3107785123310581 -1.0419548711396438
0.310445514705773 -0.9147512149663332
0.31021546799097355 -0.7865314642393104
0.3100451321988615 -0.6576422928049049
0.3099018571639263 -0.528270362044487
0.3097674235251732 -0.39852827783091493
0.309643507811977 -0.26851002271948404
0.30958075647242655 -0.13834255552629984
0.3097021901609974 -0.008367570925340443
0.3941658297026199 -0.008494815092171572
0.39425208513148974 -0.1383780078913424
0.3941691250394544 -0.2685000630100295
0.3939986509881587 -0.3985049503381419
0.39378576066507154 -0.5282440999005888
0.39352859580892985 -0.6576134433798675
0.3931999758803541 -0.7864979536194752
0.3927472799269597 -0.9147048574153612
0.39207339524799456 -1.0418834183688161
0.3910474267308499 -1.1674686994890864
0.38954301578089673 -1.2906911088079682
0.3874720527383443 -1.4105940117208238
0.38476621575020914 -1.5260437576302224
0.3813330301517154 -1.6357348993955692
0.3770457417551812 -1.7381413490454467
0.37176434038306294 -1.8314796307915306
0.3654048647615941 -1.9136896083661912
0.3580326581025116 -1.9824751759158032
0.34995879327297397 -2.035421712955425
0.3419974959951043 -2.0702724670262374
0.3357566915378411 -2.085421913120905
0.3295158870805777 -2.0702724670261756
0.32155458980270857 -2.0354217129553014
0.3134807249731738 -1.9824751759156256
0.3061085183140957 -1.9136896083659722
0.2997490426926319 -1.831479630791282
0.29446764132051806 -1.7381413490451754
0.29018035292398814 -1.6357348993952832
0.28674716732549926 -1.5260437576299293
0.284041330337369 -1.4105940117205324
0.28197036729482117 -1.2906911088076878
0.28046595634487176 -1.167468699488823
0.2794399878277298 -1.041883418368574
0.27876610314876626 -0.9147048574151435
0.2783134071953727 -0.7864979536192843
0.2779847872667975 -0.6576134433797065
0.2777276224106561 -0.5282440999004566
0.27751473208756916 -0.3985049503380394
0.2773442580362737 -0.26850006300995605
0.2772612979442384 -0.13837800789129856
0.27734755337310824 -0.00849481509215788
0.42651558362805786 -0.008589847021767513
0.42657100445717844 -0.13840887950554875
0.4264685145951896 -0.2684871799849347
0.4262542901588995 -0.3984756918839017
0.4259664694158804 -0.5282076769056845
0.4255992138221387 -0.6575697382392666
0.425119100850425 -0.7864440303941327
0.42443729315285134 -0.9146246536137671
0.4233851638418312 -1.0417424367843393
0.42177446076413444 -1.1672230704691302
0.41944310406335056 -1.2903047059409123
0.4162818158069902 -1.4100411419630954
0.4121827250276908 -1.5252986247038702
0.40700066113010336 -1.6347605445873783
0.40053660213566517 -1.7368920564042956
0.3925650194367511 -1.829911219759746
0.38291153550376134 -1.9117839503929952
0.3715858231214755 -1.9802704786293117
0.3590006547500539 -2.0330720479765536
0.3462846221809376 -2.0681219952232115
0.3357566915378345 -2.0841528716626785
0.3252287608947312 -2.0681219952231498
0.3125127283256165 -2.0330720479764306
0.29992755995419906 -1.980270478629135
0.2886018475719194 -1.9117839503927778
0.27894836363893644 -1.8299112197594984
0.2709767809400287 -1.7368920564040249
0.2645127219455968 -1.6347605445870934
0.25933065804801625 -1.5252986247035785
0.25523156726872354 -1.4100411419628054
0.25207027901236956 -1.290304705940633
0.2497389223115912 -1.167223070468868
0.2481282192338985 -1.0417424367840975
0.2470760899228809 -0.9146246536135495
0.24639428222530863 -0.7864440303939421
0.2459141692535956 -0.6575697382391058
0.24554691365985434 -0.5282076769055521
0.24525909291683556 -0.3984756918837993
0.24504486848054574 -0.2684871799848612
0.24494237861855697 -0.1384088795055049
0.24499779944767752 -0.008589847021753706
0.4588674583216434 -0.00865746760628393
0.4588952114248456 -0.1384339699433412
0.4587730801736979 -0.2684712287007397
0.45851749533043734 -0.3984408930766873
0.4581580316685101 -0.5281619094116713
0.4576871251246101 -0.6575123940312523
0.45705637088383705 -0.7863689307723877
0.4561199551082475 -0.9144970705805604
0.45464976962153447 -1.0415081802509647
0.4524134670198036 -1.166826562296361
0.4492317003476364 -1.2897052693929274
0.4449653876262785 -1.4092066370321452
0.43945744498920947 -1.524191007917097
0.4325038995471923 -1.6333275978669681
0.42383487159120375 -1.7350682388025165
0.4131389983214928 -1.8276291440280512
0.40014402721935005 -1.9090040935007004
0.3848223612865112 -1.9770360929636146
0.36771377577673425 -2.0295906531689063
0.3503386053425301 -2.064868448512661
0.33575669153782806 -2.082034015906725
0.3211747777331262 -2.0648684485125997
0.3037996072989246 -2.0295906531687837
0.28669102178915296 -1.9770360929634394
0.2713693558563218 -1.9090040935004848
0.2583743847541875 -1.8276291440278056
0.24767851148448478 -1.7350682388022478
0.2390094835285044 -1.633327597866685
0.23205593808649602 -1.5241910079168073
0.22654799544943566 -1.4092066370318572
0.22228168272808582 -1.2897052693926496
0.21909991605592566 -1.1668265622960998
0.2168636134542002 -1.0415081802507236
0.21539342796749084 -0.9144970705803434
0.21445701219190344 -0.7863689307721973
0.2138262579511313 -0.6575123940310914
0.2133553514072318 -0.528161909411539
0.21299588774530503 -0.398440893076585
0.21274030290204468 -0.2684712287006662
0.21261817165089716 -0.13843396994329726
0.2126459247540993 -0.008657467606270055
0.4912265813913672 -0.008702219627224717
0.4912298121846256 -0.13845254317334993
0.49108790763308013 -0.2684519742384473
0.4907929450691765 -0.39840096150406323
0.4903655528364022 -0.5281075894141595
0.4897972259146706 -0.65744306495203
0.48900472779194537 -0.7862658173281136
0.48778618482836916 -0.9143085195881309
0.4858609627443169 -1.0411629708986065
0.4829766971244408 -1.1662657466305597
0.47893894698203 -1.2888840804893178
0.4735585234751617 -1.4080816591642424
0.46662683546216605 -1.5227111356611303
0.4578802607338469 -1.6314251188878626
0.44698329224378536 -1.7326586809573044
0.43353899247814864 -1.8246213597573322
0.4171935229087296 -1.9053395690555246
0.3978855249494946 -1.972764838127465
0.3762827770548609 -2.0249819128583124
0.3543271106440729 -2.0605383353767843
0.3357566915378215 -2.0790840452698935
0.31718627243157105 -2.060538335376723
0.2952306060207867 -2.024981912858191
0.27362785812615953 -1.9727648381272913
0.2543198601669336 -1.9053395690553112
0.23797439059752468 -1.8246213597570888
0.22453009083189773 -1.7326586809570377
0.21363312234184648 -1.6314251188875817
0.20488654761353792 -1.5227111356608427
0.19795485960055287 -1.4080816591639564
0.19257443609369426 -1.2888840804890422
0.18853668595129197 -1.1662657466303001
0.18565242033142254 -1.0411629708983667
0.183727198247375 -0.9143085195879143
0.18250865528380178 -0.7862658173279233
0.1817161571610779 -0.6574430649518692
0.18114783023934689 -0.5281075894140272
0.1807204380065731 -0.398400961503961
0.18042547544266968 -0.2684519742383738
0.1802835708911244 -0.13845254317330602
0.18028680168438277 -0.008702219627210782
0.5235967122786109 -0.008728564625436223
0.5235791234261082 -0.13846431212957339
0.5234180212260728 -0.2684292182041056
0.5230853686617513 -0.3983562409474419
0.5225937674244666 -0.5280458249301414
0.5219277489795526 -0.6573598339944673
0.5209596610162885 -0.7861277935711255
0.5194275581957792 -0.9140446913989275
0.5170223492450676 -1.0406955744747743
0.513489567676799 -1.1655353763417218
0.508590618673152 -1.287836088571221
0.5020899492196707 -1.4066607077094728
0.4937237646943402 -1.5208521052240276
0.48316640270722544 -1.6290446949663961
0.47001592511866475 -1.7296548378883403
0.45381974524595653 -1.820884678230578
0.43415331485911224 -1.9007935522653554
0.41091657550500144 -1.9674637625560227
0.38488929272967176 -2.0192561378890495
0.3583768935055087 -2.055134867766815
0.3357566915378152 -2.07529044664412
0.3131364895701232 -2.055134867766755
0.2866240903459647 -2.0192561378889295
0.26059680757064285 -1.9674637625558509
0.23736006821654237 -1.9007935522651445
0.21769363782970988 -1.8208846782303372
0.20149745795701338 -1.7296548378880765
0.18834698036846476 -1.629044694966118
0.1777896183813623 -1.520852105223743
0.16942343385604428 -1.4066607077091895
0.16292276440257422 -1.2878360885709481
0.1580238153989373 -1.1655353763414642
0.15449103383067628 -1.0406955744745356
0.15208582487997063 -0.9140446913987119
0.15055372205946524 -0.7861277935709355
0.14958563409620293 -0.6573598339943065
0.14891961565128972 -0.5280458249300092
0.14842801441400555 -0.39835624094733957
0.1480953618496843 -0.26842921820403215
0.147934259649649 -0.13846431212952948
0.14791667079714638 -0.008728564625422252
0.5559802837979855 -0.00874101361938221
0.5559466763590172 -0.13846941138131733
0.5557683629978659 -0.26840293742568894
0.5553999016686527 -0.3983069827189505
0.5548461112716246 -0.5279776257631097
0.5540784909544787 -0.6572599783628361
0.5529123156375282 -0.7859444182475023
0.5510371797463529 -0.9136937580848488
0.5481533913185521 -1.0401027529988727
0.5439708483792833 -1.1646323559890028
0.5382102209360313 -1.286558101027349
0.5305872207430321 -1.4049402090957295
0.5207786831198734 -1.5186087873576157
0.5083948815454733 -1.626179163136353
0.4929764437721123 -1.726051164747382
0.4740251210471824 -1.816421365541732
0.45109987753179825 -1.8953824155172938
0.4240656837244521 -1.961156642385537
0.3937163640447281 -2.0124232285340016
0.362608103926289 -2.048636891348381
0.33575669153780907 -2.070611745275208
0.3089052791493305 -2.048636891348322
0.2777970190308971 -2.0124232285338834
0.2474476993511824 -1.9611566423853677
0.22041350554384803 -1.8953824155170858
0.19748826202847722 -1.8164213655414942
0.17853693930356082 -1.7260511647471213
0.16311850153021365 -1.6261791631360776
0.15073469995582772 -1.5186087873573344
0.14092616233268332 -1.4049402090954488
0.1333031621396971 -1.2865581010270788
0.12754253469645627 -1.1646323559887473
0.12335999175719645 -1.0401027529986357
0.12047620332940245 -0.9136937580846344
0.11860106743823198 -0.7859444182473129
0.11743489212128393 -0.6572599783626758
0.11666727180413897 -0.5279776257629776
0.11611348140711128 -0.3983069827188482
0.11574502007789846 -0.2684029374256155
0.11556670671674742 -0.1384694113812734
0.11553309927777912 -0.008741013619368214
0.5883781400803048 -0.008744187507278773
0.5883351379913612 -0.13846845949751013
0.5881441496753227 -0.26837335442193694
0.5877417093561257 -0.39825351019562283
0.587125747050269 -0.5279026201710104
0.5862462614931456 -0.6571389531834464
0.5848522312897678 -0.7857047147513078
0.5826301873916323 -0.9132528589605199
0.5792671478331602 -1.0393823816268761
0.5744380581001494 -1.1635550679715667
0.5678196472757611 -1.2850488355428944
0.5590748227774331 -1.4029177641840072
0.5478211674957488 -1.5159775530763802
0.53360353548811 -1.6228236133514453
0.5159013066945501 -1.721842427035369
0.4941993384081134 -1.8112360453185112
0.46809043275550266 -1.8891358869902357
0.4374600166697772 -1.953886484986504
0.4029572594147191 -2.0044953766181783
0.3671791615614369 -2.040998196591572
0.33575669153780274 -2.064969725548405
0.30433422151417017 -2.0409981965915134
0.2685561236608947 -2.004495376618062
0.2340533664058474 -1.9538864849863373
0.20342295032013546 -1.889135886990031
0.1773140446675395 -1.8112360453182768
0.1556120763811181 -1.7218424270351116
0.13790984758757371 -1.6228236133511733
0.12369221557995114 -1.5159775530761024
0.11243856029828302 -1.40291776418373
0.10369373579996966 -1.2850488355426275
0.09707532497559358 -1.163555067971314
0.09224623524259291 -1.0393823816266412
0.08888319568412872 -0.913252858960307
0.08666115178599854 -0.7857047147511192
0.0852671215826239 -0.6571389531832862
0.0843876360255019 -0.5279026201708784
0.0837716737196456 -0.3982535101955206
0.08336923340044902 -0.2683733544218636
0.08317824508441068 -0.1384684594974662
0.08313524299546718 -0.008744187507264781
0.620788866731838 -0.008742800188879922
0.6207462446317635 -0.13846274335487913
0.6205513267733779 -0.2683411333346314
0.6201164659139915 -0.398195837528351
0.6194337142921413 -0.5278195522885026
0.6184217480329108 -0.6569873977967782
0.6167839066771126 -0.7854026930012733
0.6142143703152066 -0.9127204576758345
0.6103762280289494 -1.0385335209894038
0.6049080097303101 -1.1623036066262347
0.5974394495841621 -1.2833079244809058
0.587578488285872 -1.400592482283268
0.5748790035641619 -1.5129559342577736
0.558821036887924 -1.61897454435457
0.538840532423934 -1.7170273954574022
0.5144015718047028 -1.805333446008385
0.4851538718240339 -1.8820807648672875
0.45111936776454825 -1.945725120384128
0.41287552374701203 -1.9955128524511256
0.3723611271818278 -2.0321393766285474
0.33575669153779614 -2.058223554087881
0.29915225589376654 -2.03213937662849
0.2586378593285899 -1.9955128524510117
0.22039401531106617 -1.945725120383964
0.18635951125159597 -1.8820807648670865
0.15711181127094362 -1.8053334460081543
0.13267285065172943 -1.717027395457149
0.11269234618775688 -1.6189745443543022
0.09663437951153717 -1.5129559342574999
0.083934894789845 -1.4005924822829947
0.07407393349157107 -1.2833079244806422
0.0666053733454364 -1.1623036066259846
0.061137155046808445 -1.038533520989171
0.05729901276055979 -0.9127204576756232
0.054729476398660035 -0.7854026930010858
0.05309163504286548 -0.6569873977966183
0.05207966878363671 -0.5278195522883706
0.05139691716178709 -0.3981958375282489
0.0509620563024011 -0.26834113333455806
0.05076713844401565 -0.1384627433548352
0.05072451634394124 -0.008742800188865934
0.65320744426069 -0.00874149057014729
0.6531807964708296 -0.13845472337000123
0.6529975197155641 -0.26830746191597765
0.6525304920564018 -0.39813364329258233
0.6517680360000256 -0.5277242438000632
0.6506005575988653 -0.6567991979585368
0.6487134826579364 -0.785036007897782
0.6457979466193166 -0.9120957559155696
0.641492906218346 -1.0375569146352674
0.6353967557600235 -1.1608793192651614
0.627090957012196 -1.281336712640246
0.6161216347730878 -1.3979637502969808
0.6019760882156185 -1.5095420930839167
0.5840869627405783 -1.6146323517020504
0.5618431032447625 -1.7116086369689638
0.5346942564983331 -1.798718874328945
0.5023413288968844 -1.8742310056262401
0.46496957795706084 -1.9367308652536968
0.42342713060108844 -1.9856370743969112
0.37910753648661283 -2.0219891166594697
0.3357566915377893 -2.0500000000000007
0.292405846588968 -2.0219891166594137
0.24808625247450086 -1.9856370743968002
0.20654380511854314 -1.9367308652535369
0.16917205417873712 -1.8742310056260434
0.13681912657730677 -1.7987188743287186
0.10967027983089639 -1.711608636968715
0.0874264203350999 -1.6146323517017869
0.06953729486007988 -1.5095420930836476
0.05539174830263014 -1.397963750296712
0.044422426063539654 -1.2813367126399862
0.03611662731572645 -1.1608793192649143
0.030020476857416514 -1.0375569146350372
0.0257154364564555 -0.9120957559153601
0.022799900417842512 -0.7850360078975956
0.020912825476918 -0.6567991979583776
0.019745347075759607 -0.5277242437999313
0.018982891019384215 -0.39813364329248024
0.01851586336022218 -0.2683074619159044
0.018332586604956888 -0.1384547233699573
0.018305938815096533 -0.008741490570133304
SCALARS Stress float 6
LOOKUP_TABLE default
-996.9877897254746 -1777.8894625940534 -1309.114671274819 -8.213184311336008 0.0 0.0
1177.9827428151102 681.2830179803121 830.554863608265 -24.997745983623922 0.0 0.0
512.280712992179 84.7880712480539 180.4277033921487 -35.001216213651546 0.0 0.0
442.15347242901294 15.685638929347588 137.61857638713428 -3.8197298512955067 0.0 0.0
544.7434668206556 45.398542190405024 190.24078355057014 -0.3718669608380578 0.0 0.0
624.2377745455103 75.94251347841646 269.7220855408002 0.33256841388594616 0.0 0.0
717.3428621623481 98.69225048116903 356.31887842661035 -0.14007445199096447 0.0 0.0
807.513361783342 137.50593237382992 443.82886797547064 -0.8148510524809545 0.0 0.0
901.8808162307433 187.15119126260288 527.7500585951882 -1.7048097514484084 0.0 0.0
1008.2315700164374 253.00081657673138 618.4491770011438 -2.7488836801849894 0.0 0.0
1130.807184214702 337.97209579603634 723.5795845009548 -3.85364615980726 0.0 0.0
1269.0779289965437 441.88806856638854 844.7504091007606 -4.927045814243112 0.0 0.0
1419.1839839414974 558.4696082384164 977.6168320601216 -5.611378782415429 0.0 0.0
1576.5180600333779 683.1043158738391 1118.0080670165844 -6.195134478512452 0.0 0.0
1733.4002724756288 808.2205903670294 1258.3644814941335 -6.648611825000399 0.0 0.0
1881.7306913970901 926.2385173358173 1390.9107253551022 -6.949715329282708 0.0 0.0
2014.3324788927434 1031.0547701594437 1509.1003472562375 -6.932047080600322 0.0 0.0
2123.8926283948294 1116.5519705781344 1606.3068380478967 -6.395790040627108 0.0 0.0
2205.887572220935 1179.3647084563306 1678.552944132028 -5.275088466063583 0.0 0.0
2251.1937435371187 1211.6965230585479 1717.3833465150497 -4.709025388679551 0.0 0.0
2248.4179564733604 1205.9480991964454 1713.4532442806997 2.440536661652004e-11 0.0 0.0
2251.1937435367213 1211.6965230581739 1717.3833465146765 4.709025388634359 0.0 0.0
2205.887572220047 1179.364708455467 1678.5529441313608 5.275088466099188 0.0 0.0
2123.8926283944825 1116.5519705778695 1606.3068380474379 6.395790040654708 0.0 0.0
2014.332478891441 1031.0547701581945 1509.1003472551747 6.932047080644082 0.0 0.0
1881.7306913967816 926.2385173356183 1390.9107253547454 6.949715329196257 0.0 0.0
1733.4002724749962 808.2205903665196 1258.3644814934707 6.648611825074932 0.0 0.0
1576.5180600324115 683.1043158729974 1118.0080670157756 6.195134478488422 0.0 0.0
1419.1839839405507 558.469608237622 977.6168320593546 5.611378782377415 0.0 0.0
1269.0779289969055 441.88806856697096 844.750409100844 4.927045814180348 0.0 0.0
1130.807184214106 337.9720957956573 723.5795845004327 3.853646159810088 0.0 0.0
1008.2315700152376 253.00081657572485 618.4491770002179 2.748883680285534 0.0 0.0
901.880816230185 187.15119126226537 527.750058594662 1.7048097514052944 0.0 0.0
807.5133617829661 137.50593237370222 443.828867975093 0.8148510525401811 0.0 0.0
717.3428621618845 98.69225048095345 356.3188784261502 0.14007445199491286 0.0 0.0
624.2377745451315 75.9425134783311 269.72208554042453 -0.33256841380373103 0.0 0.0
544.7434668198367 45.39854218967455 190.240783550047 0.3718669607854501 0.0 0.0
442.15347242876527 15.685638929370466 137.61857638706215 3.819729851425076 0.0 0.0
512.2807129917715 84.78807124776388 180.42770339193675 35.001216213586645 0.0 0.0
1177.9827428147435 681.2830179799438 830.5548636077458 24.997745983672637 0.0 0.0
-996.987789722913 -1777.8894625915257 -1309.114671272302 8.213184310673027 0.0 0.0
-1270.541461391544 -2019.7616244867265 -1528.4495903744728 -6.6336491424211275 0.0 0.0
795.7122495453258 383.1601333171754 516.1130325047588 -37.90204246228762 0.0 0.0
353.23356129315016 34.58954554134388 115.48258915933233 -27.975041953929612 0.0 0.0
391.5558675531191 1.7670486500060651 118.06388306815195 -16.49677092106887 0.0 0.0
485.9078830972868 18.69392837123958 158.22542514181762 -15.001069257558413 0.0 0.0
570.3978276344623 24.936263518728328 218.9646570462488 -18.271717183917055 0.0 0.0
638.6935550903022 34.45011147722273 289.8940679129132 -20.539228179277227 0.0 0.0
707.2724525198652 49.54021913420585 356.14898137350565 -21.421062714830814 0.0 0.0
772.1125093913635 68.88990216931816 411.35777535460056 -21.60874973425164 0.0 0.0
838.3837582952829 94.84956245451774 462.8162844112148 -21.64082900763005 0.0 0.0
908.0555222343019 127.59165969721775 515.8680187886448 -21.452276282494253 0.0 0.0
980.5997947447837 164.95937449727018 571.3807938570928 -21.137394195264573 0.0 0.0
1053.3751254760407 205.5655769840935 628.135220773261 -20.578541927826404 0.0 0.0
1123.9585315245206 243.72543609590127 682.4067632621291 -19.961603642696677 0.0 0.0
1185.8663399887544 274.22252399021335 728.4783521873474 -19.416793934372894 0.0 0.0
1234.094217685497 292.4950112404605 761.5974386140316 -18.74861216817779 0.0 0.0
1265.4540347825312 296.2648736643856 779.0773122866392 -17.656083327048027 0.0 0.0
1280.422303172109 287.1751936759589 782.0170797364009 -15.848230148758214 0.0 0.0
1280.3162162956473 267.82719993398393 772.4404112457241 -13.282462799153288 0.0 0.0
1252.8405556382727 227.35166024044003 739.0504466351279 -10.78509339211686 0.0 0.0
1202.0607948885056 173.7562185894468 687.8648103106707 4.282529886268094e-11 0.0 0.0
1252.8405556384587 227.35166024065197 739.050446635261 10.78509339213089 0.0 0.0
1280.3162162956407 267.82719993401713 772.4404112457493 13.282462799246037 0.0 0.0
1280.4223031721076 287.1751936760237 782.0170797363538 15.84823014875308 0.0 0.0
1265.4540347819598 296.2648736638937 779.0773122861832 17.656083327116782 0.0 0.0
1234.094217685046 292.49501124009157 761.5974386136766 18.748612168122833 0.0 0.0
1185.8663399886636 274.2225239902491 728.4783521871746 19.416793934425215 0.0 0.0
1123.9585315239974 243.72543609551622 682.4067632617306 19.96160364270473 0.0 0.0
1053.375125475404 205.56557698361155 628.1352207727919 20.578541927869352 0.0 0.0
980.5997947447449 164.9593744974101 571.3807938570467 21.137394195206692 0.0 0.0
908.0555222338465 127.59165969696642 515.8680187882917 21.452276282504496 0.0 0.0
838.3837582947585 94.84956245421982 462.8162844108397 21.640829007717663 0.0 0.0
772.1125093911336 68.88990216929885 411.3577753543601 21.608749734258275 0.0 0.0
707.2724525195713 49.540219134165994 356.14898137322047 21.42106271482504 0.0 0.0
638.6935550899009 34.450111477066365 289.8940679125222 20.539228179255645 0.0 0.0
570.3978276344208 24.936263519047145 218.9646570461203 18.271717183914674 0.0 0.0
485.9078830966665 18.693928370781908 158.22542514147003 15.001069257414342 0.0 0.0
391.55586755296497 1.767048650115766 118.06388306814816 16.496770921071683 0.0 0.0
353.2335612928956 34.58954554100453 115.4825891591581 27.975041953840954 0.0 0.0
795.7122495448281 383.1601333167458 516.1130325041843 37.90204246229611 0.0 0.0
-1270.5414613896887 -2019.7616244847788 -1528.4495903724717 6.633649141855214 0.0 0.0
-1037.7785112084512 -1752.8104063797498 -1267.9597263967466 -46.10008402106217 0.0 0.0
597.647090560679 289.9694153988564 376.70525080640783 -102.10217351427497 0.0 0.0
254.0236712434365 42.75858525694912 89.03461128563879 -28.703421436592844 0.0 0.0
334.4889393562847 -1.1670126548402795 100.01461007683245 -36.312467451102016 0.0 0.0
438.8843724750461 12.396266386361848 137.31690112760256 -36.932684824450156 0.0 0.0
538.9017918970821 21.454347334497157 193.64615774962792 -36.26498675042736 0.0 0.0
610.4761129624999 32.792705744417304 265.7873298280501 -38.9561616486315 0.0 0.0
681.2873879271206 43.81065836002483 333.4565223835829 -40.51612134330903 0.0 0.0
745.233584509643 60.963467881321975 390.3509906686798 -41.10197859787369 0.0 0.0
808.7939169006293 83.4006602381267 440.50509099557456 -41.265446715342804 0.0 0.0
874.5244751045549 112.29176848979756 490.4991011872761 -40.949989569554084 0.0 0.0
942.4939070150004 146.53876267907887 542.5103457984047 -40.070000751607964 0.0 0.0
1012.0453488578189 182.7204219484816 595.5986813486154 -38.960516940612116 0.0 0.0
1077.993001531512 217.74370528416046 646.0610785221859 -37.77664743121868 0.0 0.0
1136.6635701283162 245.3631161610844 689.0880424139094 -36.671387061208414 0.0 0.0
1182.736454796206 261.8020170700689 720.2151457619096 -35.35417884914674 0.0 0.0
1214.2378278834658 265.87405084318806 737.9337533480015 -33.28083269633403 0.0 0.0
1230.1017056264677 257.64052749882285 741.7964118368387 -30.067793729182075 0.0 0.0
1226.6743063252673 234.77387394961585 728.9319404388868 -25.67445747231167 0.0 0.0
1208.8882636831709 203.9179450332397 704.9832716564046 -20.009390148778117 0.0 0.0
1144.1331598709173 136.57002010328756 640.2824089477826 -8.808953566585842e-12 0.0 0.0
1208.888263683838 203.91794503396534 704.9832716569135 20.009390148859403 0.0 0.0
1226.674306324335 234.7738739486856 728.9319404382067 25.674457472397194 0.0 0.0
1230.1017056264789 257.640527498902 741.7964118368732 30.06779372916214 0.0 0.0
1214.2378278832794 265.8740508430793 737.9337533478088 33.28083269641855 0.0 0.0
1182.7364547959878 261.80201706994535 720.2151457617181 35.354178849109516 0.0 0.0
1136.6635701282996 245.36311616118834 689.0880424137912 36.67138706126956 0.0 0.0
1077.9930015312075 217.74370528400004 646.0610785219072 37.77664743123555 0.0 0.0
1012.0453488571999 182.72042194802316 595.5986813481474 38.960516940657115 0.0 0.0
942.4939070146951 146.53876267895873 542.5103457981932 40.07000075159135 0.0 0.0
874.5244751038063 112.29176848921958 490.49910118673245 40.949989569540335 0.0 0.0
808.7939169005792 83.40066023830502 440.5050909955096 41.26544671534591 0.0 0.0
745.2335845094784 60.9634678813936 390.35099066848903 41.10197859791375 0.0 0.0
681.287387926803 43.81065835995796 333.456522383264 40.516121343242425 0.0 0.0
610.4761129620848 32.79270574425932 265.78732982764296 38.95616164851208 0.0 0.0
538.9017918968941 21.454347334658337 193.64615774944443 36.26498675040774 0.0 0.0
438.8843724745384 12.396266386165252 137.31690112738846 36.93268482440679 0.0 0.0
334.48893935619805 -1.1670126548420334 100.01461007680616 36.31246745103982 0.0 0.0
254.0236712433928 42.75858525674861 89.03461128556559 28.70342143650162 0.0 0.0
597.6470905602293 289.96941539863656 376.7052508059442 102.10217351417324 0.0 0.0
-1037.7785112066572 -1752.8104063778728 -1267.9597263947946 46.10008402073036 0.0 0.0
-835.6986042648037 -1519.556871531419 -1040.7368756299904 -60.16213008562114 0.0 0.0
446.6141744405812 196.14818993491548 265.5920360931548 -143.04699462046477 0.0 0.0
187.70467349564342 43.245410664604826 69.28502524807445 -50.95008977960474 0.0 0.0
279.69034860381225 3.6076160173383993 84.99222322591679 -55.15118149773939 0.0 0.0
385.3595942207606 5.0397978716726435 116.51116452752458 -60.51347133196312 0.0 0.0
492.3600334379473 17.15163332885751 166.5122451959517 -56.3444828417164 0.0 0.0
581.4222968813391 28.124556294274605 237.08345455143566 -58.90437818440169 0.0 0.0
650.1224726275159 38.39552071566851 306.51508371422386 -59.97595671069203 0.0 0.0
714.314328231673 53.0643464474299 365.7739608157055 -60.44824258614462 0.0 0.0
775.5256209969559 72.3647759831033 415.6847943707308 -60.454248904511644 0.0 0.0
837.0591563949995 97.3108525385117 462.8634906272142 -59.75182147567058 0.0 0.0
901.0004411169089 127.02880856944995 511.1382134873937 -58.39332494700163 0.0 0.0
965.9565759575615 160.38762704987485 560.7830484506565 -56.65823619874915 0.0 0.0
1028.3754959396526 190.59955083179904 607.1791879818084 -55.09283104531071 0.0 0.0
1083.2474423806789 215.29623238859799 646.8768344650211 -53.522311705576044 0.0 0.0
1128.0958366849131 231.28506975370234 677.1828031100061 -51.582366948902774 0.0 0.0
1160.1574249434543 235.7091427752165 695.3807712194335 -48.74856293314587 0.0 0.0
1176.3674270808895 227.51997374180186 699.4940658345791 -44.50032125348098 0.0 0.0
1175.300046103078 206.57313747388247 688.7750740622353 -38.31811223813877 0.0 0.0
1162.546625281776 180.052719423101 669.4046752493475 -28.61432865335119 0.0 0.0
1070.115186422337 84.94312394857698 577.7526526663619 5.834088767642243e-11 0.0 0.0
1162.5466252819663 180.05271942330626 669.4046752494622 28.61432865344089 0.0 0.0
1175.3000461023937 206.57313747326504 688.7750740617237 38.31811223823578 0.0 0.0
1176.3674270808683 227.51997374184776 699.4940658345635 44.50032125358024 0.0 0.0
1160.1574249431446 235.70914277498738 695.3807712191999 48.74856293323959 0.0 0.0
1128.0958366849638 231.28506975383925 677.1828031100426 51.582366948900265 0.0 0.0
1083.2474423803233 215.29623238835563 646.8768344647203 53.52231170559959 0.0 0.0
1028.3754959395278 190.59955083180677 607.1791879816949 55.09283104534124 0.0 0.0
965.9565759572564 160.3876270497448 560.7830484503974 56.65823619876309 0.0 0.0
901.0004411165388 127.02880856924484 511.1382134871348 58.393324947033406 0.0 0.0
837.0591563945334 97.31085253822376 462.8634906268611 59.751821475604636 0.0 0.0
775.525620996474 72.36477598283119 415.68479437035137 60.45424890451833 0.0 0.0
714.3143282316244 53.06434644764255 365.77396081559175 60.448242586155835 0.0 0.0
650.1224726271313 38.39552071555055 306.5150837138452 59.975956710681906 0.0 0.0
581.4222968807551 28.12455629389536 237.08345455094152 58.90437818427704 0.0 0.0
492.3600334375394 17.15163332874402 166.51224519570164 56.344482841619666 0.0 0.0
385.3595942203615 5.039797871603801 116.51116452740452 60.513471331936074 0.0 0.0
279.69034860369806 3.6076160172567784 84.9922232258555 55.15118149763951 0.0 0.0
187.70467349561397 43.245410664535505 69.28502524804483 50.950089779466126 0.0 0.0
446.61417444015524 196.1481899347994 265.5920360927755 143.04699462034193 0.0 0.0
-835.6986042632282 -1519.5568715297568 -1040.7368756282424 60.16213008538257 0.0 0.0
-661.6058892383978 -1314.8743335484576 -841.9575301938344 -61.610303267323886 0.0 0.0
336.2474453334427 115.44513698953457 181.3607830620872 -171.58074429828466 0.0 0.0
138.79136862654028 37.776842809547915 52.97046343082645 -79.30584494749523 0.0 0.0
228.74986817335315 10.34997256491359 71.7307075776719 -75.52578421630791 0.0 0.0
324.0904196396726 4.194449840956994 98.4025144909574 -82.3667538051016 0.0 0.0
440.4279909855296 5.779833849029838 137.59063567894847 -82.79128268514734 0.0 0.0
539.1749544171573 21.6453896128734 203.14808507165188 -79.0787554078195 0.0 0.0
613.1387245723809 34.68634150732811 275.6898159221435 -79.52857250701157 0.0 0.0
678.1089399675334 45.55494934052805 336.64550790797966 -79.67957937697739 0.0 0.0
737.4469631615359 61.601152977178174 387.2103991555831 -79.1801584473621 0.0 0.0
795.6415228763199 82.28326783977921 432.40381029394433 -77.95818898899431 0.0 0.0
855.0591271842173 107.60496885750867 477.1347530787506 -76.01350555218328 0.0 0.0
915.8161185568999 135.98007137714552 522.5998578893759 -73.87983918762814 0.0 0.0
973.7802457848562 163.95691382426168 565.8620133798055 -71.84993512955023 0.0 0.0
1025.7482313186995 185.39522297753268 602.551199864493 -69.8993947575789 0.0 0.0
1068.7442067241552 199.05399985528328 630.7818962005784 -67.54520739753481 0.0 0.0
1101.4982390637613 204.76120151750627 650.0049730830548 -64.1107830279177 0.0 0.0
1120.4099681764633 198.93234576516633 656.6573669573909 -59.07953644904046 0.0 0.0
1122.9344801642565 180.71170201793757 649.093775060869 -51.123849181565376 0.0 0.0
1112.0742399806306 154.61640431857896 630.8633408126595 -37.57689103258497 0.0 0.0
984.7927729968334 24.4680327203245 505.36976419383757 5.5132787224465574e-11 0.0 0.0
1112.074239980117 154.61640431810193 630.8633408123343 37.57689103272171 0.0 0.0
1122.9344801647667 180.7117020185202 649.0937750612474 51.123849181753314 0.0 0.0
1120.409968176676 198.93234576545706 656.6573669575228 59.079536449132874 0.0 0.0
1101.4982390631412 204.76120151695443 650.0049730825846 64.1107830279757 0.0 0.0
1068.7442067238508 199.05399985508268 630.781896200358 67.54520739755871 0.0 0.0
1025.7482313187188 185.3952229776754 602.5511998644499 69.89939475759566 0.0 0.0
973.7802457844517 163.95691382398064 565.862013379515 71.84993512955802 0.0 0.0
915.8161185561139 135.98007137646965 522.599857888819 73.87983918759619 0.0 0.0
855.0591271834875 107.6049688569562 477.1347530782468 76.0135055522029 0.0 0.0
795.641522875857 82.2832678394682 432.40381029356394 77.95818898894619 0.0 0.0
737.4469631609072 61.60115297677105 387.2103991551189 79.1801584473309 0.0 0.0
678.1089399674457 45.55494934069083 336.64550790782897 79.67957937695547 0.0 0.0
613.1387245719384 34.68634150716903 275.6898159217343 79.5285725069997 0.0 0.0
539.1749544164975 21.645389612492565 203.14808507115566 79.07875540779872 0.0 0.0
440.4279909849285 5.779833848634354 137.59063567861335 82.79128268499899 0.0 0.0
324.09041963937426 4.194449840797717 98.40251449082217 82.3667538050099 0.0 0.0
228.74986817332757 10.349972564965858 71.73070757767944 75.52578421611578 0.0 0.0
138.79136862654602 37.776842809456156 52.97046343080065 79.30584494727793 0.0 0.0
336.2474453330803 115.44513698943432 181.3607830617854 171.58074429813752 0.0 0.0
-661.6058892370562 -1314.8743335469744 -841.9575301923003 61.61030326713645 0.0 0.0
-509.61194124012206 -1133.2360886698245 -667.4722698241526 -63.04519048255048 0.0 0.0
249.52795986831617 53.89885702153535 118.31541041168185 -186.03217191997425 0.0 0.0
100.35789995955537 28.526981143234774 38.66546433083703 -106.07660199781213 0.0 0.0
181.09767460588435 15.849541270435626 59.084127551765256 -96.49291057741975 0.0 0.0
266.4868434116573 4.0044427769911675 81.10197626031045 -103.38565679965426 0.0 0.0
370.89785154869463 1.8955695275090532 112.09949769039274 -106.4550392484224 0.0 0.0
477.1020557343853 15.331306741958324 166.82218588446426 -101.49051085270095 0.0 0.0
569.6704025971122 26.586200854834892 236.89785000095338 -100.71297153118164 0.0 0.0
632.9055741143574 39.37335075205979 301.604128888989 -98.2105398021848 0.0 0.0
693.6880296094159 50.87441883757559 353.6183970333384 -97.55712188040253 0.0 0.0
748.7474129682287 67.32659233285285 397.84069501993724 -95.58643694434606 0.0 0.0
803.8450825632058 88.12414612581073 439.5843250905493 -92.98169071689227 0.0 0.0
859.9649120369495 112.38011530667652 481.41648397377503 -90.36635797958037 0.0 0.0
913.7891328617975 135.4253076445066 520.5072649368927 -88.07934624657757 0.0 0.0
962.5196735771307 154.71712478985336 554.6491556949129 -85.86721231240654 0.0 0.0
1003.8389433998697 167.67456044441627 581.7854439718665 -83.04447279011183 0.0 0.0
1037.031660286477 172.49623718111982 600.8087009308787 -79.28255069403609 0.0 0.0
1059.737327277592 170.2264454711992 611.09680425877 -73.72730141497044 0.0 0.0
1067.499918434591 156.5011810797634 608.4164157878557 -64.3133205115491 0.0 0.0
1057.6468687067788 129.12811414877092 590.1008061120702 -47.42679498611252 0.0 0.0
887.7599831296518 -43.75901825911425 423.5148783597751 5.654143819810997e-12 0.0 0.0
1057.6468687062443 129.12811414829787 590.1008061117607 47.42679498627975 0.0 0.0
1067.4999184343562 156.50118107956666 608.4164157877374 64.31332051167024 0.0 0.0
1059.7373272778605 170.2264454715545 611.0968042589583 73.72730141509669 0.0 0.0
1037.0316602857638 172.4962371804877 600.8087009303099 79.28255069409184 0.0 0.0
1003.8389433994103 167.67456044402826 581.7854439715414 83.04447279011023 0.0 0.0
962.5196735775394 154.71712479039206 554.6491556951125 85.8672123124528 0.0 0.0
913.789132861205 135.42530764406018 520.5072649364367 88.0793462465952 0.0 0.0
859.9649120364934 112.38011530639288 481.41648397348155 90.36635797966144 0.0 0.0
803.845082562451 88.12414612515046 439.58432509002455 92.9816907168056 0.0 0.0
748.7474129678934 67.32659233264604 397.8406950196007 95.5864369442251 0.0 0.0
693.688029609183 50.87441883757373 353.61839703312785 97.55712188032984 0.0 0.0
632.9055741140743 39.37335075197628 301.6041288886766 98.21053980212929 0.0 0.0
569.6704025967529 26.586200854795646 236.8978500006088 100.71297153112437 0.0 0.0
477.1020557338949 15.331306741751405 166.82218588411652 101.49051085264988 0.0 0.0
370.8978515481326 1.8955695272340154 112.09949769014709 106.45503924828347 0.0 0.0
266.4868434114594 4.004442776943968 81.10197626023752 103.38565679954394 0.0 0.0
181.09767460579786 15.849541270493399 59.08412755175671 96.49291057729162 0.0 0.0
100.35789995946467 28.526981143097814 38.66546433076874 106.07660199762086 0.0 0.0
249.52795986793518 53.89885702137411 118.3154104114028 186.03217191978405 0.0 0.0
-509.6119412390563 -1133.2360886685283 -667.4722698228619 63.0451904824662 0.0 0.0
-380.57404354629665 -965.4330978861303 -515.9671573369727 -65.59133166336723 0.0 0.0
181.72962515323752 4.619480088532537 71.05721694502598 -193.51244401940352 0.0 0.0
68.3922217297739 18.561276154752253 26.08604936535784 -128.34244379274523 0.0 0.0
136.06331588977352 19.223624777710505 46.5860822002452 -116.40459469946786 0.0 0.0
209.6586968583486 6.158899562332067 64.75423759709896 -121.82787342904805 0.0 0.0
296.371757333765 -1.4980941576195894 87.79549874576414 -129.53024860743292 0.0 0.0
405.7784830235388 4.279747537494452 128.8692519696469 -128.72565474719102 0.0 0.0
501.1645724266494 20.45353361362573 191.92937975692683 -121.28117936364667 0.0 0.0
582.2052730528154 28.33488320015351 256.6491805887253 -119.77035078270492 0.0 0.0
639.5993054836002 40.90331639157823 312.28212156701824 -115.06103661254613 0.0 0.0
694.6712219129626 52.39078361760621 356.97176772428327 -112.60186732552206 0.0 0.0
745.9221536454916 68.42301590722292 396.74301943946864 -109.40022170022321 0.0 0.0
797.2875868486625 88.0337840791495 435.2580242398125 -106.30354228776203 0.0 0.0
846.5189712735233 107.29183265636163 470.9048090964501 -103.68779948102498 0.0 0.0
891.6848998814281 123.60041010831824 502.1499242603808 -101.25129677123778 0.0 0.0
931.254428243292 133.7851836536519 527.1538704984403 -98.51998524870538 0.0 0.0
964.3086258576135 140.51912120804076 547.1681949569447 -94.0906514482029 0.0 0.0
992.0049734249086 141.6858916952901 561.5941911423018 -88.20815864102242 0.0 0.0
1006.6546389686622 132.6171738225879 564.6647812131091 -78.1628695219729 0.0 0.0
998.794539429797 104.70723018864139 547.2313881615507 -58.75200783626855 0.0 0.0
776.8736704992916 -119.94817301081412 331.1093612058914 3.3363534157615504e-11 0.0 0.0
998.7945394290164 104.70723018790778 547.2313881610153 58.752007836454126 0.0 0.0
1006.6546389686118 132.61717382261818 564.6647812131345 78.16286952211556 0.0 0.0
992.0049734249016 141.68589169540633 561.5941911423164 88.20815864123941 0.0 0.0
964.3086258569338 140.51912120738444 547.1681949564002 94.09065144821844 0.0 0.0
931.2544282430059 133.78518365344976 527.1538704982877 98.51998524867113 0.0 0.0
891.6848998815265 123.60041010854326 502.1499242604255 101.2512967712961 0.0 0.0
846.518971273796 107.29183265684581 470.904809096567 103.68779948112065 0.0 0.0
797.2875868485115 88.03378407915092 435.2580242396597 106.30354228780254 0.0 0.0
745.9221536450059 68.42301590687046 396.7430194391471 109.40022170014801 0.0 0.0
694.6712219126507 52.390783617439695 356.97176772396676 112.60186732550416 0.0 0.0
639.5993054832919 40.9033163914996 312.2821215667686 115.06103661248868 0.0 0.0
582.2052730527364 28.334883200428838 256.64918058856 119.77035078275435 0.0 0.0
501.16457242643924 20.453533613809945 191.92937975673306 121.28117936362682 0.0 0.0
405.77848302309576 4.279747537379969 128.86925196939876 128.72565474708938 0.0 0.0
296.3717573335686 -1.4980941572259892 87.79549874583826 129.53024860735204 0.0 0.0
209.65869685819402 6.158899562265209 64.75423759703204 121.82787342886652 0.0 0.0
136.0633158897461 19.223624777781474 46.58608220025825 116.40459469927193 0.0 0.0
68.39222172970626 18.561276154666114 26.086049365311705 128.34244379259508 0.0 0.0
181.72962515283342 4.619480088280433 71.05721694475456 193.51244401918558 0.0 0.0
-380.5740435454231 -965.4330978849462 -515.9671573358919 65.59133166337598 0.0 0.0
-266.6632584348764 -823.8802866187527 -385.4300485985089 -79.06854977828962 0.0 0.0
122.80874246841438 -31.800461879689557 34.31938122169946 -191.83394156795475 0.0 0.0
40.51809805655793 10.272809959616895 15.23729707969396 -145.67793743836037 0.0 0.0
92.93849719774265 20.598609774735568 34.06113209174346 -133.85199247435446 0.0 0.0
153.01494739017954 8.892059635846836 48.568356570622754 -137.8784679964605 0.0 0.0
220.4764160392388 -0.5467705751128493 65.74362885805546 -147.51979288037816 0.0 0.0
314.90519654542754 -1.7873881259426234 93.89040188155167 -154.3515502587819 0.0 0.0
414.3282666749352 8.357323812220335 141.11207219236556 -145.4382251621153 0.0 0.0
503.7236977667817 20.454750675586876 201.5476978802776 -138.71041884188483 0.0 0.0
574.14558035565 26.66031691147643 257.3828980058557 -134.88178229495134 0.0 0.0
627.8450893568114 36.55942615034013 304.4161193463449 -128.95232914107592 0.0 0.0
676.6277066260673 48.75580038031897 344.32255145191255 -124.94547576684204 0.0 0.0
724.2470657920037 63.61230185293857 380.9355435831835 -121.52677341923977 0.0 0.0
768.4269428215239 78.30358816548419 413.3909319788561 -118.61577637720677 0.0 0.0
810.0157106821822 91.08890562123409 441.96223012816773 -116.13605363116974 0.0 0.0
847.020306154808 100.56845586893621 465.81525092933015 -113.37937522114056 0.0 0.0
880.0277453909367 105.44362458712287 485.1693694259113 -108.98884623176625 0.0 0.0
911.6117843364054 110.46528105894267 503.36860038051026 -102.45473797848814 0.0 0.0
935.9337174134937 110.3975099330655 515.753718242384 -92.2912134621849 0.0 0.0
933.856862449016 84.25332106354264 502.4214066619669 -72.25606717974713 0.0 0.0
646.3617300036608 -204.4550746806275 225.3156409292961 2.0591528482327703e-11 0.0 0.0
933.8568624480347 84.25332106266045 502.4214066613493 72.25606717994016 0.0 0.0
935.9337174142751 110.39750993404418 515.7537182429627 92.29121346253024 0.0 0.0
911.6117843360727 110.46528105871349 503.3686003802992 102.45473797870119 0.0 0.0
880.0277453906577 105.44362458691198 485.16936942564297 108.98884623181353 0.0 0.0
847.0203061547445 100.56845586894465 465.8152509293093 113.37937522113049 0.0 0.0
810.0157106822255 91.08890562145245 441.9622301282028 116.13605363123006 0.0 0.0
768.4269428215415 78.3035881656285 413.390931978869 118.61577637729083 0.0 0.0
724.247065791358 63.61230185244929 380.93554358269824 121.52677341926861 0.0 0.0
676.6277066259673 48.75580038038455 344.32255145182626 124.94547576688166 0.0 0.0
627.8450893566477 36.559426150434675 304.41611934612007 128.9523291410943 0.0 0.0
574.145580355508 26.66031691156068 257.38289800567696 134.88178229488042 0.0 0.0
503.72369776647326 20.45475067559034 201.5476978800208 138.7104188418914 0.0 0.0
414.3282666748924 8.35732381278467 141.1120721923895 145.43822516218367 0.0 0.0
314.90519654504686 -1.7873881259718711 93.8904018814132 154.3515502586401 0.0 0.0
220.47641603901522 -0.5467705750086842 65.74362885803507 147.51979288010708 0.0 0.0
153.014947390046 8.892059635825357 48.56835657057341 137.878467996293 0.0 0.0
92.93849719768657 20.598609774779693 34.061132091739886 133.8519924741277 0.0 0.0
40.51809805654833 10.272809959687777 15.237297079712311 145.6779374381774 0.0 0.0
122.80874246806745 -31.80046187988389 34.319381221494744 191.83394156770777 0.0 0.0
-266.66325843421316 -823.8802866177391 -385.4300485976852 79.0685497783577 0.0 0.0
-188.17713835598337 -684.819519218025 -287.6643126974386 -90.15650833793339 0.0 0.0
71.92329670530411 -59.878420076118616 6.76433092689235 -184.13986965353863 0.0 0.0
14.378393310950774 4.441676656257361 5.64752026158484 -158.3010323298201 0.0 0.0
51.47579987994136 20.523434059804078 21.599589044604656 -147.96774833467802 0.0 0.0
96.33332044592255 11.43456868809261 32.32849405137048 -150.77191496396267 0.0 0.0
145.3186753497861 2.1210521785784056 44.19916424484737 -160.98471429111333 0.0 0.0
211.01164608434442 -2.191608747007054 62.09470492533169 -174.5542725664813 0.0 0.0
301.54299227377726 -4.300591820640673 90.14365669381885 -176.8016051448095 0.0 0.0
394.00545352117234 3.467400771465508 133.49469738476185 -163.08545168038074 0.0 0.0
473.019139185003 11.958947260747854 183.49572703965927 -152.36150676900684 0.0 0.0
534.1217206308572 19.64911589784603 230.71551258112174 -143.89633580342348 0.0 0.0
584.5289130220289 27.05466995728908 270.66481094628665 -139.0121102821992 0.0 0.0
629.6675393484124 38.41520269198307 307.5452292423532 -135.42180309578694 0.0 0.0
669.6559794165028 48.65375290333199 338.77265428245096 -132.52231380721636 0.0 0.0
706.9980692097764 58.0446740596068 365.8925112115396 -130.18419662035035 0.0 0.0
741.6083477412964 65.39187417926819 388.96810506838426 -127.842853253193 0.0 0.0
774.9111546333752 71.08052799144771 409.8757152545963 -123.73183978651589 0.0 0.0
807.1991520701412 75.86115571670808 428.96293128579805 -116.65281540708207 0.0 0.0
842.1001051774153 82.92831588960036 450.1715542024097 -106.36605910609077 0.0 0.0
857.9365128350917 69.56118476853543 452.7571227241481 -88.96570057386117 0.0 0.0
488.01919880031727 -294.52873425684527 103.8564490208496 7.807798851899861e-11 0.0 0.0
857.9365128351617 69.5611847688261 452.75712272429735 88.96570057412467 0.0 0.0
842.1001051780312 82.92831589040748 450.1715542028588 106.36605910652311 0.0 0.0
807.1991520696267 75.86115571631424 428.9629312854639 116.65281540726077 0.0 0.0
774.9111546332174 71.08052799132678 409.8757152544349 123.73183978661102 0.0 0.0
741.6083477413212 65.39187417943275 388.96810506837386 127.84285325320552 0.0 0.0
706.9980692095579 58.0446740594733 365.8925112113994 130.184196620401 0.0 0.0
669.6559794162434 48.65375290320648 338.77265428222574 132.52231380720897 0.0 0.0
629.6675393482974 38.41520269210356 307.545229242244 135.4218030958677 0.0 0.0
584.5289130214624 27.05466995682876 270.6648109458734 139.01211028221704 0.0 0.0
534.1217206309234 19.649115898210482 230.715512581135 143.89633580354842 0.0 0.0
473.019139185014 11.958947261064644 183.4957270395987 152.36150676895085 0.0 0.0
394.0054535209311 3.467400771620219 133.49469738462923 163.08545168037415 0.0 0.0
301.5429922734924 -4.30059182042529 90.14365669376798 176.80160514485522 0.0 0.0
211.01164608382194 -2.191608747274983 62.09470492511985 174.55427256621738 0.0 0.0
145.31867534949274 2.1210521782520306 44.199164244667394 160.98471429081286 0.0 0.0
96.33332044593956 11.434568688271874 32.328494051427974 150.7719149638353 0.0 0.0
51.47579987995305 20.523434059813678 21.59958904461111 147.96774833451394 0.0 0.0
14.37839331100589 4.441676656461768 5.647520261662402 158.3010323295931 0.0 0.0
71.92329670500405 -59.878420076174514 6.76433092676174 184.13986965327808 0.0 0.0
-188.1771383554998 -684.819519217146 -287.664312696862 90.15650833806997 0.0 0.0
-130.4329147169865 -569.6199024111637 -214.77235359754923 -106.41904036426837 0.0 0.0
27.763596932866 -76.41429906958521 -13.92397936341802 -170.75942502269845 0.0 0.0
-9.931605148476438 0.9315210206791285 -2.699698540400324 -166.3043874055484 0.0 0.0
11.428515064151313 19.531895277392948 9.288425375276995 -158.27003589911266 0.0 0.0
40.17040069975527 13.585037633065573 16.127879562388173 -160.01201655491397 0.0 0.0
69.83278349172592 5.172935804358869 22.458423038364526 -170.71436787564733 0.0 0.0
104.51677061304815 -0.028619540073055116 31.202970866312143 -185.37059383755812 0.0 0.0
152.37894496171074 -1.739329969631687 45.27031683962252 -191.4385091024825 0.0 0.0
222.88621198699298 -5.195934115782784 65.59343898476376 -189.27957592299555 0.0 0.0
299.6890694379346 -12.331995332406871 89.79852696225267 -178.86664101458558 0.0 0.0
372.5132559237332 -17.28294493044311 116.44477196004915 -169.86452772217314 0.0 0.0
426.70201423283817 -14.669350164428042 145.09590600846482 -158.03433547478946 0.0 0.0
468.9232840491427 -4.617646789728507 174.89735183083494 -151.11364422373987 0.0 0.0
506.0013526652705 8.195970490453654 203.8815108770331 -146.66876220417856 0.0 0.0
540.2468217120796 21.092045056709246 232.65715977571645 -144.68222307246896 0.0 0.0
572.8446474211491 29.359310591882434 259.7504590112017 -145.72459431226017 0.0 0.0
606.9671779432396 35.17237617700236 287.0041155311749 -144.24446083295712 0.0 0.0
643.1890497827387 38.409316091772205 312.7868654854539 -136.93844981143107 0.0 0.0
680.9917982117511 38.563261181904515 335.67640075202644 -124.2232503209126 0.0 0.0
735.8157477712856 53.440374543851505 373.3862125833342 -110.46794621049038 0.0 0.0
269.258823672413 -390.61438458204645 -47.5293543771153 1.1667111721180845e-10 0.0 0.0
735.8157477711349 53.440374543712615 373.38621258327106 110.46794621071416 0.0 0.0
680.9917982117038 38.563261181967846 335.67640075201086 124.22325032124876 0.0 0.0
643.1890497822321 38.40931609129656 312.7868654851728 136.93844981159333 0.0 0.0
606.9671779430209 35.17237617689633 287.0041155310074 144.24446083307575 0.0 0.0
572.844647421319 29.359310592117872 259.75045901131807 145.72459431233784 0.0 0.0
540.2468217117611 21.09204505646884 232.65715977552017 144.68222307240944 0.0 0.0
506.00135266533715 8.195970490825193 203.88151087712177 146.6687622043362 0.0 0.0
468.9232840493307 -4.61764678935009 174.89735183096872 151.11364422392694 0.0 0.0
426.7020142321399 -14.669350165244502 145.09590600797574 158.03433547474444 0.0 0.0
372.513255923551 -17.282944930369915 116.44477195996647 169.864527722185 0.0 0.0
299.6890694377966 -12.33199533206345 89.79852696229304 178.8666410144749 0.0 0.0
222.8862119872546 -5.195934114576907 65.5934389851976 189.27957592307388 0.0 0.0
152.37894496130278 -1.7393299700572973 45.270316839371844 191.43850910235116 0.0 0.0
104.51677061301307 -0.0286195399310194 31.20297086634622 185.37059383738253 0.0 0.0
69.83278349170514 5.172935804372734 22.458423038361317 170.71436787544513 0.0 0.0
40.17040069981479 13.585037633245653 16.127879562460592 160.01201655474384 0.0 0.0
11.428515064080958 19.531895277333312 9.28842537523791 158.27003589897757 0.0 0.0
-9.931605148392196 0.9315210209327778 -2.699698540299225 166.3043874053602 0.0 0.0
27.763596932690017 -76.41429906972975 -13.923979363522367 170.75942502251843 0.0 0.0
-130.4329147167517 -569.6199024104371 -214.77235359721016 106.41904036430346 0.0 0.0
-105.18978663552696 -455.51187776757365 -168.58440365452793 -107.01689893858061 0.0 0.0
-3.079189660316576 -87.38327073084906 -27.089221921074135 -159.65788631130127 0.0 0.0
-32.283324323843914 -1.6802087123142517 -10.185765234705764 -170.37169188395535 0.0 0.0
-27.025738082244374 18.278287730661155 -2.6235101549340034 -164.52637111182852 0.0 0.0
-15.16351416651905 15.230276418805659 0.02045661401834975 -165.20736487568954 0.0 0.0
-6.265436590986422 8.31585987023593 0.6157412411658552 -174.81831584468677 0.0 0.0
-2.264498421750684 2.1176826150094517 -0.048600663477003536 -189.69916465276816 0.0 0.0
-0.44510847077762605 0.2798605425743075 -0.048042841298167716 -196.17688717750787 0.0 0.0
-0.010819152501561291 -0.14776031834586334 -0.047752649368751676 -193.88189576209092 0.0 0.0
0.10425927550878811 0.02771495941340696 0.048027669149780294 -182.8233284315279 0.0 0.0
0.3595696140858635 -0.653175834418791 -0.26360965539836556 -176.4639004637632 0.0 0.0
-0.4610735308308591 0.39361596246288855 0.05535447648043501 -173.37590584779102 0.0 0.0
-1.8867182010758654 1.0944192812077596 -0.089640454320012 -172.31944480864823 0.0 0.0
-3.0895368582169453 1.690389226907488 -0.1585332069357719 -169.33483967303405 0.0 0.0
1.6215276466210753 1.095624840082131 0.7953781468731762 -163.30669900628408 0.0 0.0
14.04421935860482 4.784251466354341 2.731420837258497 -155.30428892023764 0.0 0.0
47.27732114587316 12.241679505897835 7.6556724007289745 -149.15914587789098 0.0 0.0
129.4975330322161 11.390027369399903 14.575064627556046 -143.84197680347177 0.0 0.0
301.91034872653444 -50.9996950175635 34.4726265335618 -139.79941030757837 0.0 0.0
454.37206662056985 -32.18051473304646 148.96543595101969 -151.52731511787792 0.0 0.0
-260.0721709723141 -560.7251792922217 -341.46106923642446 1.4708234630234074e-12 0.0 0.0
454.37206662046157 -32.18051473317925 148.9654359508583 151.52731511790338 0.0 0.0
301.9103487261539 -50.99969501829048 34.47262653320617 139.79941030820697 0.0 0.0
129.49753303193262 11.390027368981237 14.575064627418541 143.84197680400914 0.0 0.0
47.277321146108484 12.241679506219647 7.655672400923763 149.1591458780831 0.0 0.0
14.044219358671498 4.784251466183733 2.731420837239071 155.30428892030523 0.0 0.0
1.6215276468425799 1.095624840048842 0.7953781469425536 163.3066990062634 0.0 0.0
-3.089536857979155 1.6903892266668024 -0.1585332069376264 169.3348396731016 0.0 0.0
-1.8867182006171959 1.0944192812584355 -0.08964045417040722 172.31944480884266 0.0 0.0
-0.4610735304518627 0.3936159622823361 0.0553544765372429 173.37590584774253 0.0 0.0
0.35956961449569746 -0.6531758341655607 -0.26360965519113044 176.46390046375836 0.0 0.0
0.10425927566138071 0.02771495931816048 0.048027669167840514 182.8233284314433 0.0 0.0
-0.010819151960919982 -0.1477603174844515 -0.047752648946336684 193.8818957621201 0.0 0.0
-0.44510847072810833 0.2798605425100533 -0.04804284130140957 196.17688717740393 0.0 0.0
-2.264498421557759 2.117682615331491 -0.048600663322436066 189.69916465260184 0.0 0.0
-6.265436590868418 8.315859870369747 0.6157412412412477 174.81831584446235 0.0 0.0
-15.163514166382853 15.230276418972624 0.02045661410918309 165.20736487550246 0.0 0.0
-27.02573808214386 18.278287730772096 -2.6235101548708584 164.52637111163244 0.0 0.0
-32.283324323766166 -1.6802087121768596 -10.185765234641377 170.3716918837934 0.0 0.0
-3.079189660457951 -87.38327073104271 -27.089221921172147 159.65788631116916 0.0 0.0
-105.18978663550344 -455.51187776698686 -168.58440365436982 107.01689893849803 0.0 0.0
-86.73472284295643 -358.11023139291757 -133.4449333757491 -101.09690621497583 0.0 0.0
-22.89723733606497 -91.03736348734657 -34.18162328734396 -150.04072268499118 0.0 0.0
-53.01259180910198 -4.043776702708643 -17.117651499210357 -170.4342434427611 0.0 0.0
-63.70577400831398 16.982319244301024 -14.015493235735882 -166.61164261741118 0.0 0.0
-69.36799870427507 16.241681052171145 -15.934927624895256 -166.1328458159646 0.0 0.0
-81.34536673185094 11.16937742440817 -21.050189845350644 -172.99866711036276 0.0 0.0
-109.17483653595683 4.481176506961276 -31.181813623614545 -187.32565180428486 0.0 0.0
-153.3570827205785 2.170832949109812 -45.44483146318925 -191.65924274985096 0.0 0.0
-222.7703711656285 4.884061583442628 -65.66720381970583 -189.25082369884638 0.0 0.0
-299.46035970815365 12.299583365955005 -89.73027642015248 -178.82499920287663 0.0 0.0
-373.93356455089355 18.046599027592727 -116.00665898627147 -170.18171350050528 0.0 0.0
-426.4397016952612 14.457949990069771 -145.33901100731754 -157.94380052583344 0.0 0.0
-469.6228438317248 4.650181746471951 -175.50504796955903 -150.5696469806709 0.0 0.0
-506.96282583407316 -7.771408318488724 -204.52454530169945 -145.97311208439268 0.0 0.0
-538.6596763753112 -16.74814618794788 -229.78359147531717 -144.62243837109108 0.0 0.0
-560.8385955890268 -17.430982254207734 -244.46350796637432 -147.19527021419592 0.0 0.0
-570.6253354993141 -12.472810870685365 -245.61819071912146 -153.07175362728108 0.0 0.0
-568.1544683750533 -1.6579272362428554 -228.23655957827629 -164.21844160340908 0.0 0.0
-554.2901815114001 32.75284353275421 -189.42426408052523 -171.28337702286842 0.0 0.0
-336.9850311299838 51.77860681344613 -88.22327581189114 -114.62281320519804 0.0 0.0
-770.398215115647 -767.1049624435867 -751.6323181605062 -1.2140333183197072e-10 0.0 0.0
-336.98503112936237 51.77860681443413 -88.22327581133422 114.6228132056813 0.0 0.0
-554.2901815116916 32.75284353217933 -189.4242640807047 171.28337702307465 0.0 0.0
-568.1544683750009 -1.6579272363831592 -228.23655957828487 164.21844160368246 0.0 0.0
-570.6253354990089 -12.47281087038327 -245.61819071892512 153.07175362740418 0.0 0.0
-560.838595589382 -17.430982254899988 -244.46350796666292 147.1952702143014 0.0 0.0
-538.6596763753164 -16.7481461882153 -229.78359147531677 144.62243837118086 0.0 0.0
-506.96282583384846 -7.771408318466456 -204.52454530153437 145.9731120843787 0.0 0.0
-469.6228438316633 4.650181746277077 -175.50504796949895 150.56964698089342 0.0 0.0
-426.4397016948087 14.457949990183916 -145.3390110070376 157.943800525879 0.0 0.0
-373.9335645503759 18.046599027464225 -116.00665898608605 170.18171350054976 0.0 0.0
-299.46035970794776 12.299583365181405 -89.73027642029776 178.82499920288254 0.0 0.0
-222.77037116495714 4.884061583801071 -65.66720381939216 189.2508236988548 0.0 0.0
-153.3570827202302 2.1708329490811007 -45.44483146308838 191.65924274978374 0.0 0.0
-109.1748365355648 4.481176507253153 -31.18181362341272 187.32565180407215 0.0 0.0
-81.34536673173456 11.169377424298139 -21.05018984535144 172.99866711010358 0.0 0.0
-69.36799870419686 16.241681052103424 -15.934927624891964 166.13284581583306 0.0 0.0
-63.705774008174785 16.98231924442031 -14.01549323565883 166.61164261721484 0.0 0.0
-53.01259180904691 -4.043776702689907 -17.11765149918842 170.4342434426068 0.0 0.0
-22.897237336059302 -91.03736348735475 -34.18162328734424 150.0407226849045 0.0 0.0
-86.73472284278314 -358.11023139244816 -133.44493337556116 101.09690621487132 0.0 0.0
-70.17967080689489 -274.33644838265525 -103.35483575686503 -91.23295625040055 0.0 0.0
-37.15432705811617 -88.80728009663575 -37.7887553362461 -139.58629402534598 0.0 0.0
-72.11048592432562 -5.8047380151833385 -23.37427908542869 -166.5795368239476 0.0 0.0
-98.67006309801081 15.488520127492464 -24.956323229376487 -164.47374002005222 0.0 0.0
-122.0226645665415 16.585335333573003 -31.63431044814982 -162.4027203723653 0.0 0.0
-156.21469595698153 13.936203107964952 -42.45058310060973 -168.36378034881312 0.0 0.0
-213.28539690182527 5.630238425177355 -62.08265433349414 -173.7397728117916 0.0 0.0
-301.864730652107 4.450911665067367 -90.29569427785593 -177.0173854179362 0.0 0.0
-393.99811163763246 -3.7535696657361566 -133.5706773978548 -163.08148807749814 0.0 0.0
-473.01808248261386 -12.086371900278834 -183.49710467166864 -152.30051943240892 0.0 0.0
-533.9610368939493 -19.49356507324845 -230.60338350824074 -143.81122000653014 0.0 0.0
-584.5288628365768 -26.958732910962077 -270.69242189134025 -138.9164384662877 0.0 0.0
-630.0918084947529 -38.220918960317206 -307.7904870366193 -134.83895455842233 0.0 0.0
-670.1363329108265 -47.83706734704477 -338.8043694462213 -131.51994648452754 0.0 0.0
-705.1600893128863 -54.75776281756741 -363.5644772629377 -129.66147105322503 0.0 0.0
-730.2918540443823 -54.93952230537184 -378.3730157122406 -130.1906754837858 0.0 0.0
-742.1568952583066 -47.69643028136328 -381.6343631283484 -134.32345427109308 0.0 0.0
-739.3245001558278 -36.32039813230392 -374.95967480260947 -142.60607298253018 0.0 0.0
-710.5418302577717 -8.889221099427644 -348.71948271702865 -152.32549653433313 0.0 0.0
-672.3642808458638 15.818290975759421 -319.17838087958387 -154.13075270255487 0.0 0.0
-1460.6119825071432 -1026.1297240701808 -1191.8203564638238 1.2612133559741778e-12 0.0 0.0
-672.3642808455662 15.818290976046342 -319.1783808794496 154.13075270273188 0.0 0.0
-710.5418302571227 -8.889221098956241 -348.7194827165715 152.32549653458744 0.0 0.0
-739.3245001560524 -36.32039813279098 -374.95967480284213 142.606072982819 0.0 0.0
-742.1568952583341 -47.69643028147911 -381.63436312836546 134.32345427120976 0.0 0.0
-730.291854044427 -54.93952230559813 -378.37301571224504 130.1906754838007 0.0 0.0
-705.1600893122832 -54.75776281703706 -363.5644772624636 129.66147105320442 0.0 0.0
-670.1363329103049 -47.83706734668623 -338.80436944586114 131.5199464844969 0.0 0.0
-630.0918084947879 -38.220918960695066 -307.79048703662994 134.83895455858703 0.0 0.0
-584.5288628361039 -26.958732910732678 -270.69242189095525 138.91643846626633 0.0 0.0
-533.9610368937092 -19.493565073359573 -230.6033835080473 143.81122000652925 0.0 0.0
-473.01808248257043 -12.086371900813042 -183.49710467160241 152.30051943241384 0.0 0.0
-393.99811163691066 -3.7535696654062463 -133.57067739742857 163.08148807756618 0.0 0.0
-301.86473065164046 4.450911664973077 -90.29569427771234 177.01738541793964 0.0 0.0
-213.28539690138638 5.630238425284191 -62.08265433333833 173.7397728115833 0.0 0.0
-156.21469595695538 13.936203107511917 -42.450583100739664 168.36378034862355 0.0 0.0
-122.02266456640531 16.58533533360071 -31.634310448101715 162.4027203721774 0.0 0.0
-98.67006309792521 15.488520127459651 -24.956323229361196 164.47374001988308 0.0 0.0
-72.11048592424457 -5.8047380151586445 -23.3742790853975 166.5795368237864 0.0 0.0
-37.15432705813538 -88.80728009661472 -37.78875533624522 139.58629402524048 0.0 0.0
-70.17967080684501 -274.33644838235296 -103.35483575675936 91.23295625025159 0.0 0.0
-56.5355077721496 -202.9685298280005 -77.85121128004504 -79.95677802581162 0.0 0.0
-48.12644115330963 -82.12227179487556 -39.07456259153113 -127.38801983323123 0.0 0.0
-89.94690322606326 -6.868071608288286 -29.045688365400913 -158.73637896390443 0.0 0.0
-132.01328939952177 13.830318225280447 -35.452112257446 -158.21447441734844 0.0 0.0
-173.28538688274787 16.356958002290153 -47.01805930105206 -154.72403027658007 0.0 0.0
-226.87521266266367 13.815269967169952 -63.92203917596459 -153.83799293997959 0.0 0.0
-317.1010762327885 6.596097388292498 -93.1383217414007 -158.00886625952606 0.0 0.0
-414.56539347769814 -8.443323251603902 -141.2348266395091 -145.9073112185545 0.0 0.0
-503.7959259271068 -20.751627092243613 -201.62739530000107 -138.66651155675294 0.0 0.0
-574.2192518065546 -26.779213619665548 -257.4459143111252 -134.8350090303086 0.0 0.0
-627.6396464596851 -36.376618150790556 -304.2882960026353 -128.88350851945322 0.0 0.0
-676.5251667708577 -48.561426331693234 -344.21358248795116 -124.7986026926883 0.0 0.0
-724.4338849606753 -63.428581234717605 -380.9849240461315 -120.9265934714264 0.0 0.0
-769.0009029619509 -77.97021611801586 -413.60186693345025 -117.3671455824275 0.0 0.0
-809.3560578718153 -89.27141676455327 -440.87297638336884 -115.13551275472685 0.0 0.0
-838.778006894501 -92.66050278369741 -458.01122656275453 -115.55830036506146 0.0 0.0
-852.6871749651687 -84.28519471585214 -461.23816363996207 -120.00148649001578 0.0 0.0
-842.2810271814575 -59.73907571520576 -444.5729876979941 -127.74968298099965 0.0 0.0
-806.7349583648449 -20.177518882038314 -408.6886442937684 -135.25295000574914 0.0 0.0
-725.6098996040469 48.22180913182411 -340.0426332256527 -140.66925100750282 0.0 0.0
-1893.0989263434794 -1261.5180040716948 -1535.5533380135519 5.1748827445408097e-11 0.0 0.0
-725.6098996040147 48.22180913177145 -340.0426332256808 140.6692510077089 0.0 0.0
-806.734958363716 -20.17751888101337 -408.6886442929718 135.2529500059151 0.0 0.0
-842.2810271813106 -59.739075715200265 -444.57298769789367 127.74968298118515 0.0 0.0
-852.6871749653168 -84.28519471611355 -461.23816364004784 120.00148649008794 0.0 0.0
-838.7780068941687 -92.66050278344304 -458.0112265625663 115.55830036506977 0.0 0.0
-809.3560578713991 -89.27141676414938 -440.8729763830387 115.13551275470154 0.0 0.0
-769.0009029616973 -77.97021611793213 -413.6018669332881 117.36714558242608 0.0 0.0
-724.4338849604569 -63.42858123468662 -380.98492404597545 120.92659347146048 0.0 0.0
-676.52516677061 -48.561426331694115 -344.2135824877482 124.79860269272513 0.0 0.0
-627.6396464594408 -36.37661815076118 -304.28829600243836 128.88350851938202 0.0 0.0
-574.2192518057909 -26.779213619179767 -257.4459143105346 134.83500903023574 0.0 0.0
-503.7959259265538 -20.751627092103508 -201.62739529958063 138.66651155680643 0.0 0.0
-414.56539347729733 -8.44332325163112 -141.23482663926083 145.90731121855706 0.0 0.0
-317.10107623238844 6.596097388027457 -93.1383217413448 158.00886625942206 0.0 0.0
-226.87521266231442 13.815269967092087 -63.922039175896515 153.8379929397492 0.0 0.0
-173.2853868825073 16.356958002309938 -47.01805930097932 154.72403027635275 0.0 0.0
-132.01328939941564 13.830318225179342 -35.45211225744385 158.21447441724368 0.0 0.0
-89.94690322593114 -6.868071608187123 -29.045688365330527 158.73637896377886 0.0 0.0
-48.126441153218614 -82.12227179471896 -39.07456259145686 127.38801983309573 0.0 0.0
-56.53550777205783 -202.9685298277907 -77.85121127995454 79.95677802568387 0.0 0.0
-46.15037599306507 -143.26511219174577 -56.82464645544324 -68.1743866227764 0.0 0.0
-56.952454290025535 -72.39024722449646 -38.802810454356596 -113.32021006412948 0.0 0.0
-106.80289456651082 -7.087599103529396 -34.16769911647035 -147.04874672601602 0.0 0.0
-163.848502705617 11.869080653511222 -45.59994409414823 -147.66417707685454 0.0 0.0
-221.83152668180054 15.065367678023044 -61.99649082532065 -142.0072599634486 0.0 0.0
-301.78770499842585 14.911742931415462 -84.97881026188323 -139.6070267477832 0.0 0.0
-402.9343951120508 -2.5422660022319388 -128.47193406500978 -129.07116622490145 0.0 0.0
-501.13523968003807 -20.706328477787952 -191.94915669053228 -121.57720649638057 0.0 0.0
-582.4053334462011 -28.66859276170729 -256.81641473812397 -119.69353717494576 0.0 0.0
-639.656873321842 -40.97100340011823 -312.35582303789204 -115.021828614357 0.0 0.0
-694.4918888758955 -52.168206077454926 -356.8258970136234 -112.56820732476494 0.0 0.0
-745.6487854198738 -68.08465148138202 -396.4691649825397 -109.24827078606353 0.0 0.0
-797.0897640845865 -87.63201775480199 -434.9856607399677 -105.73533945498329 0.0 0.0
-847.0632301813008 -107.27115873454487 -471.209736048071 -102.39865188865241 0.0 0.0
-892.8246855398125 -123.88446172347369 -502.91550132057284 -100.00661960690216 0.0 0.0
-927.887015899747 -130.32561145718955 -523.9150990171827 -100.23221489526003 0.0 0.0
-940.7271791524724 -120.400701343832 -525.8169226907046 -103.72692021876317 0.0 0.0
-922.0965542909457 -83.74955148805584 -498.9597912389893 -110.37690858830386 0.0 0.0
-865.8190856315769 -20.325748978946052 -440.864834774729 -117.39014212667638 0.0 0.0
-754.1033899031456 80.08011758048221 -340.0047609261699 -123.81443737583446 0.0 0.0
-2229.1028952511333 -1497.2448051692381 -1828.978573495312 -1.1084466677857563e-11 0.0 0.0
-754.103389903049 80.08011758037814 -340.0047609260927 123.81443737613975 0.0 0.0
-865.8190856310115 -20.325748978475787 -440.8648347743183 117.39014212690904 0.0 0.0
-922.0965542903692 -83.74955148754773 -498.95979123854977 110.37690858841907 0.0 0.0
-940.7271791525925 -120.40070134409022 -525.8169226907872 103.72692021885412 0.0 0.0
-927.8870158994981 -130.3256114570736 -523.9150990169594 100.2322148953563 0.0 0.0
-892.8246855400473 -123.88446172384717 -502.915501320629 100.00661960690866 0.0 0.0
-847.06323018111 -107.2711587345422 -471.2097360479504 102.39865188873243 0.0 0.0
-797.0897640842809 -87.63201775465224 -434.98566073973296 105.73533945494484 0.0 0.0
-745.648785419759 -68.08465148156517 -396.4691649824399 109.24827078616337 0.0 0.0
-694.491888875832 -52.16820607761272 -356.82589701355863 112.5682073247592 0.0 0.0
-639.6568733213458 -40.97100339987141 -312.35582303750124 115.02182861429382 0.0 0.0
-582.405333445586 -28.668592761384097 -256.81641473758987 119.6935371749421 0.0 0.0
-501.13523967948345 -20.706328477611617 -191.9491566901009 121.57720649631037 0.0 0.0
-402.93439511140116 -2.5422660019750327 -128.47193406466187 129.07116622483488 0.0 0.0
-301.787704997924 14.911742931510698 -84.97881026172374 139.607026747677 0.0 0.0
-221.8315266816477 15.06536767777165 -61.996490825351735 142.0072599633175 0.0 0.0
-163.848502705501 11.869080653357374 -45.599944094160314 147.66417707676163 0.0 0.0
-106.80289456640115 -7.087599103475539 -34.16769911642106 147.04874672589602 0.0 0.0
-56.95245428994002 -72.39024722436989 -38.80281045429297 113.32021006403627 0.0 0.0
-46.15037599302003 -143.2651121916076 -56.82464645538827 68.17438662267271 0.0 0.0
-38.84293866397942 -94.77556618818744 -40.085551455650055 -56.11839080573502 0.0 0.0
-64.17416071131638 -60.84627352701987 -37.50613027150087 -97.51025059343131 0.0 0.0
-122.78467285518816 -6.457951145410556 -38.7730815698578 -131.59951448775365 0.0 0.0
-194.24694525364703 9.756716329671606 -55.35119588612437 -133.07284767608206 0.0 0.0
-267.8439041212834 12.433735630787277 -76.70309925082762 -124.72529859021778 0.0 0.0
-370.9374301865724 10.135172969944083 -108.31330360633305 -117.451551654055 0.0 0.0
-475.4733005164825 -12.839714389379514 -165.7446608774808 -103.59990820404745 0.0 0.0
-569.8391430333687 -27.040010099552507 -237.026047552773 -100.79776847672578 0.0 0.0
-633.0832494190694 -39.580933435779315 -301.7511916249631 -98.13373132812798 0.0 0.0
-693.7261899719006 -50.89466161967844 -353.6741132390234 -97.5399684812805 0.0 0.0
-748.5784830335913 -67.125995740552 -397.7019977590804 -95.55405517868162 0.0 0.0
-803.4219010232555 -87.65507213968216 -439.1694200707755 -92.82470229853989 0.0 0.0
-859.2924593126736 -111.63202136726325 -480.73299996760164 -89.85911247124177 0.0 0.0
-913.9720064046903 -135.38901014696384 -520.5962435066823 -86.95749324392203 0.0 0.0
-965.3872708190094 -157.129727541067 -557.2733760105357 -84.68101766654289 0.0 0.0
-1005.3783198281315 -168.8151272267069 -583.2478936724716 -84.02692861013121 0.0 0.0
-1018.4823750766905 -155.17771465397115 -583.4040273164081 -86.44095598176972 0.0 0.0
-988.2615093300976 -105.72948778850888 -544.3991425689694 -91.86543426862805 0.0 0.0
-908.0614001959692 -17.72741007573019 -461.93193097540495 -98.68644832851533 0.0 0.0
-770.361148347807 109.13966919275987 -333.6301043780149 -108.34829709003137 0.0 0.0
-2526.253619698445 -1728.968988855327 -2098.878117749507 6.16751094639767e-12 0.0 0.0
-770.3611483486252 109.13966919178745 -333.6301043785751 108.34829709029908 0.0 0.0
-908.0614001954516 -17.727410075312562 -461.9319309749859 98.68644832866461 0.0 0.0
-988.2615093297568 -105.72948778821674 -544.3991425687494 91.86543426871476 0.0 0.0
-1018.4823750763613 -155.17771465373846 -583.404027316169 86.44095598179268 0.0 0.0
-1005.3783198275614 -168.81512722627141 -583.2478936720099 84.0269286102242 0.0 0.0
-965.3872708190992 -157.12972754126437 -557.2733760105074 84.68101766656356 0.0 0.0
-913.9720064040159 -135.38901014645114 -520.5962435061566 86.95749324399108 0.0 0.0
-859.2924593124364 -111.63202136719714 -480.7329999674573 89.85911247124011 0.0 0.0
-803.4219010229101 -87.6550721395479 -439.16942007052626 92.82470229856068 0.0 0.0
-748.578483034089 -67.12599574134579 -397.70199775936925 95.55405517873372 0.0 0.0
-693.7261899721503 -50.89466162027052 -353.6741132391094 97.53996848132394 0.0 0.0
-633.0832494182472 -39.58093343516194 -301.75119162428786 98.13373132804092 0.0 0.0
-569.8391430327069 -27.04001009918811 -237.02604755222887 100.79776847670283 0.0 0.0
-475.47330051580906 -12.83971438896172 -165.74466087700114 103.59990820395367 0.0 0.0
-370.93743018598843 10.135172970055336 -108.31330360612223 117.45155165398285 0.0 0.0
-267.84390412098185 12.433735630779086 -76.7030992507431 124.72529859015573 0.0 0.0
-194.24694525340578 9.756716329741366 -55.351195886030794 133.07284767597653 0.0 0.0
-122.78467285508205 -6.4579511454175185 -38.77308156982795 131.5995144876227 0.0 0.0
-64.17416071128984 -60.846273527048986 -37.50613027150164 97.51025059335267 0.0 0.0
-38.842938663891545 -94.77556618803187 -40.08555145557702 56.11839080572388 0.0 0.0
-34.21980004463161 -57.29638920319628 -27.454856774348364 -43.91205594238552 0.0 0.0
-69.86807035461598 -48.47995099526383 -35.50440640496393 -80.11508472147842 0.0 0.0
-137.876999875 -5.203535376864204 -42.924160575559235 -112.51032295442423 0.0 0.0
-223.15206757286325 7.609160450280362 -64.668756099354 -114.28700104383405 0.0 0.0
-316.46467610791143 9.470772522448373 -91.60927016417386 -105.08046192443958 0.0 0.0
-425.96969494205325 -2.802288858398776 -134.8280483263694 -88.22863020972669 0.0 0.0
-537.6961795792301 -19.605792807401045 -201.81956594344405 -80.71585183548844 0.0 0.0
-613.22293589195 -34.951535208604966 -275.7416277076569 -79.41509962287451 0.0 0.0
-678.2655066643451 -45.660207504314386 -336.7736108594988 -79.61419295380932 0.0 0.0
-737.4845471067823 -61.610516651952125 -387.25993979583643 -79.18608854990629 0.0 0.0
-795.4711427668686 -82.08612643076496 -432.2556115851348 -77.92839437592788 0.0 0.0
-854.5155131625511 -107.03452388809964 -476.60852842407564 -75.84760324420928 0.0 0.0
-914.7805969656249 -134.96296160786218 -521.6022529175676 -73.45183843830014 0.0 0.0
-973.3815617159039 -163.6230149020667 -565.5057794049499 -71.0478030460171 0.0 0.0
-1028.842855831331 -188.4393345365192 -605.5881981194605 -69.02074095469241 0.0 0.0
-1074.1180331015485 -204.0167092291077 -636.0111308895326 -67.75098974747307 0.0 0.0
-1089.8782912497463 -192.94925794384474 -638.7696933273282 -68.24477251002575 0.0 0.0
-1049.478857024469 -131.36255522975677 -588.6830638258859 -72.2999885363976 0.0 0.0
-944.061358954109 -16.53282449616421 -479.99625545687127 -80.2996451440236 0.0 0.0
-775.2108351379529 140.7045155592856 -319.75935432236133 -94.74889702184873 0.0 0.0
-2795.449311487663 -1950.3544800210152 -2348.698681393664 9.167422376776813e-11 0.0 0.0
-775.2108351385859 140.70451555851588 -319.75935432281653 94.74889702206157 0.0 0.0
-944.0613589533077 -16.532824495411802 -479.9962554562982 80.29964514415245 0.0 0.0
-1049.4788570245573 -131.36255522991044 -588.6830638259798 72.29998853650066 0.0 0.0
-1089.8782912494723 -192.94925794363934 -638.7696933271174 68.24477251002273 0.0 0.0
-1074.1180331012488 -204.01670922892322 -636.0111308892562 67.750989747534 0.0 0.0
-1028.842855831272 -188.439334536587 -605.5881981193627 69.0207409547184 0.0 0.0
-973.3815617152428 -163.62301490156668 -565.5057794044195 71.04780304604827 0.0 0.0
-914.7805969655778 -134.9629616079918 -521.6022529175576 73.45183843835176 0.0 0.0
-854.5155131620451 -107.03452388777974 -476.6085284236941 75.84760324419418 0.0 0.0
-795.4711427671004 -82.08612643128006 -432.25561158524687 77.92839437594169 0.0 0.0
-737.4845471064866 -61.6105166519499 -387.2599397955895 79.18608854996877 0.0 0.0
-678.2655066637544 -45.660207503951575 -336.77361085900145 79.61419295378822 0.0 0.0
-613.222935891371 -34.95153520830853 -275.7416277071356 79.41509962277516 0.0 0.0
-537.6961795787362 -19.605792807261352 -201.81956594303114 80.71585183544734 0.0 0.0
-425.9696949415928 -2.802288858440304 -134.82804832619084 88.22863020970651 0.0 0.0
-316.46467610750346 9.470772522449364 -91.60927016405657 105.08046192442444 0.0 0.0
-223.152067572557 7.609160450394866 -64.6687560992284 114.2870010437106 0.0 0.0
-137.87699987484498 -5.203535376850039 -42.9241605755085 112.5103229543098 0.0 0.0
-69.86807035451316 -48.47995099519505 -35.504406404912466 80.11508472141308 0.0 0.0
-34.219800044515935 -57.29638920306965 -27.45485677427567 43.912055942419215 0.0 0.0
-31.633592676286085 -30.72525602889944 -18.707654611555654 -31.83503048985523 0.0 0.0
-73.7122123114299 -36.148495316720194 -32.958212288445026 -61.33322550915165 0.0 0.0
-151.78160800610135 -3.6604889601563277 -46.632629089877284 -89.71707121482218 0.0 0.0
-251.0963035083708 5.267245174335699 -73.75139101914979 -91.27769495005748 0.0 0.0
-364.98711661929434 4.5009986556907045 -107.38368056741169 -80.4531669698741 0.0 0.0
-484.065246422486 -10.692094112697479 -161.66290322314433 -63.68298702291063 0.0 0.0
-579.724808792049 -27.303106395391254 -236.09454034712468 -59.58156585152772 0.0 0.0
-650.0605135672123 -38.26731236611616 -306.4187774077438 -59.808795962240225 0.0 0.0
-714.4610746405522 -53.123867349238694 -365.8900426834066 -60.40217765402085 0.0 0.0
-775.5804563703857 -72.38642355142873 -415.74368376587 -60.4757923879665 0.0 0.0
-836.8598518072588 -97.09289789491362 -462.6819521383089 -59.721671794284774 0.0 0.0
-900.3857901559938 -126.41489611475542 -510.5516351638235 -58.22687065994351 0.0 0.0
-964.803712473233 -159.32412142698792 -559.7037954547965 -56.328181295674945 0.0 0.0
-1027.4344490429626 -189.88640904888734 -606.374696881066 -54.63485524614122 0.0 0.0
-1084.673485272033 -216.97068510633287 -648.4290086261558 -53.052746392852264 0.0 0.0
-1133.043132069046 -236.12570248228442 -682.1027854778422 -51.337790706868056 0.0 0.0
-1156.7405844842012 -231.7306426699477 -692.0139117530807 -49.955580138114314 0.0 0.0
-1114.761221952836 -167.08528466722834 -639.6554990020775 -52.01967093462944 0.0 0.0
-982.263157652812 -23.71635927030036 -503.10467975196804 -61.73071025245111 0.0 0.0
-767.5417362759712 180.03060390264986 -295.60624634320334 -81.83567989145286 0.0 0.0
-3036.824111488685 -2151.6327866363613 -2574.0058481865035 2.021138811869605e-11 0.0 0.0
-767.5417362752605 180.03060390333656 -295.60624634266344 81.83567989144034 0.0 0.0
-982.2631576521543 -23.716359269697662 -503.10467975150425 61.73071025253582 0.0 0.0
-1114.7612219530185 -167.08528466748456 -639.6554990021752 52.01967093475189 0.0 0.0
-1156.7405844838731 -231.73064266970323 -692.013911752797 49.95558013811716 0.0 0.0
-1133.043132069194 -236.12570248255636 -682.1027854778808 51.33779070692719 0.0 0.0
-1084.6734852712248 -216.97068510561823 -648.429008625577 53.05274639284602 0.0 0.0
-1027.4344490423184 -189.8864090483704 -606.3746968805838 54.6348552461101 0.0 0.0
-964.8037124731004 -159.32412142704803 -559.7037954547056 56.328181295716455 0.0 0.0
-900.3857901552789 -126.4148961142333 -510.5516351633258 58.22687065996177 0.0 0.0
-836.8598518070387 -97.0928978949345 -462.6819521381569 59.72167179433057 0.0 0.0
-775.5804563703183 -72.3864235516012 -415.7436837657908 60.475792387943926 0.0 0.0
-714.4610746401664 -53.12386734913014 -365.89004268306326 60.4021776540704 0.0 0.0
-650.060513566846 -38.26731236603436 -306.4187774073635 59.80879596217587 0.0 0.0
-579.7248087915 -27.30310639515256 -236.09454034663588 59.581565851448794 0.0 0.0
-484.0652464219714 -10.692094112594399 -161.66290322283604 63.6829870228867 0.0 0.0
-364.98711661894407 4.500998655484895 -107.38368056738594 80.4531669698442 0.0 0.0
-251.09630350826168 5.267245174227696 -73.75139101914662 91.2776949499261 0.0 0.0
-151.78160800599733 -3.6604889602422497 -46.63262908987187 89.71707121472072 0.0 0.0
-73.71221231133539 -36.14849531661811 -32.95821228838605 61.3332255090827 0.0 0.0
-31.633592676281836 -30.72525602888044 -18.707654611548676 31.83503048987528 0.0 0.0
-29.974426883795683 -14.809446134502533 -13.435161905489462 -20.59733125501206 0.0 0.0
-74.89983257771205 -24.772426667148594 -29.90167777345819 -41.43209843009775 0.0 0.0
-164.05535355563006 -2.392853658358674 -49.9344621641966 -62.807268852434326 0.0 0.0
-278.6224478326278 2.743034700661414 -82.75925102802894 -63.75481646349542 0.0 0.0
-408.06858003401425 -5.598469011056702 -125.80417879975033 -51.815707255361744 0.0 0.0
-531.3880310227339 -18.584656953221334 -189.52324719239192 -40.517642479209165 0.0 0.0
-608.9730745336061 -31.927153925704232 -264.8329694142953 -39.140903038444534 0.0 0.0
-681.0326051951679 -43.265796592466856 -333.1277360567499 -40.381749788458606 0.0 0.0
-745.4244892493452 -61.06352964637987 -390.51276460869093 -41.07585960534005 0.0 0.0
-808.8470209571806 -83.4142925105539 -440.55312798618723 -41.288777915987765 0.0 0.0
-874.2766132023431 -112.0360994695405 -490.26799791756883 -40.92152123650745 0.0 0.0
-941.8651426807146 -145.94563410507806 -541.9220545687941 -39.927393214823226 0.0 0.0
-1010.9868951122507 -181.7972471912118 -594.6376639177322 -38.74219888821354 0.0 0.0
-1076.6934339768784 -216.72808406966897 -644.9445282447546 -37.58725304431311 0.0 0.0
-1135.4783076589592 -244.56722056633942 -688.1544218236824 -36.53294712846009 0.0 0.0
-1181.6212858988588 -261.02891410655303 -719.3471785311779 -35.05243369682166 0.0 0.0
-1210.7545852569012 -262.5218916361798 -734.6729845505752 -32.66423867973884 0.0 0.0
-1196.0516546000003 -224.39277987137115 -708.9838999956776 -31.799155074918836 0.0 0.0
-1042.2899693836528 -57.20772489856506 -550.0965412408501 -41.19742696762407 0.0 0.0
-739.9143476976762 236.41457115978977 -253.06834695079 -68.28268352181746 0.0 0.0
-3235.189704342817 -2314.2688979442983 -2758.150958937725 8.338219004144776e-12 0.0 0.0
-739.9143476970876 236.41457116034897 -253.0683469503931 68.28268352187698 0.0 0.0
-1042.2899693835145 -57.207724898480976 -550.0965412407222 41.19742696770971 0.0 0.0
-1196.0516545997784 -224.3927798712142 -708.9838999954906 31.79915507498987 0.0 0.0
-1210.7545852566866 -262.52189163604476 -734.6729845504054 32.664238679781604 0.0 0.0
-1181.621285898941 -261.0289141067468 -719.3471785311824 35.0524336968583 0.0 0.0
-1135.4783076586318 -244.5672205661192 -688.1544218234144 36.53294712845903 0.0 0.0
-1076.693433976569 -216.72808406949554 -644.9445282444855 37.587253044296546 0.0 0.0
-1010.9868951119587 -181.79724719110595 -594.637663917569 38.742198888262294 0.0 0.0
-941.865142679975 -145.94563410452642 -541.9220545683262 39.92739321481858 0.0 0.0
-874.2766132023772 -112.0360994698054 -490.26799791755036 40.92152123652911 0.0 0.0
-808.8470209572381 -83.41429251088441 -440.5531279861442 41.28877791605177 0.0 0.0
-745.4244892489 -61.06352964618082 -390.5127646083099 41.075859605377254 0.0 0.0
-681.0326051948172 -43.26579659240923 -333.12773605638813 40.3817497884507 0.0 0.0
-608.9730745331808 -31.92715392561431 -264.8329694138768 39.14090303845555 0.0 0.0
-531.3880310220335 -18.584656952784997 -189.5232471918927 40.51764247913963 0.0 0.0
-408.0685800335033 -5.5984690108929325 -125.8041787995381 51.81570725538404 0.0 0.0
-278.6224478325002 2.743034700521729 -82.7592510280351 63.75481646343533 0.0 0.0
-164.05535355552323 -2.3928536584585887 -49.934462164194564 62.807268852337025 0.0 0.0
-74.89983257761045 -24.772426667089764 -29.90167777341006 41.432098430015486 0.0 0.0
-29.97442688373202 -14.809446134478343 -13.43516190546311 20.597331255036707 0.0 0.0
-27.132026705048172 -8.664344267584198 -10.73891129178971 -11.79515485162127 0.0 0.0
-72.01664322660545 -15.769630054324622 -26.335881984279016 -20.740310372843613 0.0 0.0
-173.92985350442808 -2.1320185795294817 -52.818561625187264 -30.732116587121336 0.0 0.0
-307.0628226956451 0.2458702642348478 -92.02359074046359 -31.109621974721765 0.0 0.0
-455.3444847547886 -12.719730398175408 -145.19353315443186 -23.191856750295855 0.0 0.0
-564.7287499804661 -25.554861773807367 -216.4580853646362 -19.758025749136404 0.0 0.0
-636.6665433673693 -32.725355919207594 -288.45204046447543 -20.66727036821572 0.0 0.0
-706.9729065527144 -49.13784572063159 -355.93079045303995 -21.36583623202491 0.0 0.0
-772.350829070899 -68.94923676543895 -411.50782070199466 -21.595259024649756 0.0 0.0
-838.4238067270954 -94.84576738116397 -462.8451878703697 -21.652813844266266 0.0 0.0
-907.7576792400199 -127.29783488459574 -515.5881320275527 -21.431190423375984 0.0 0.0
-979.9945531690727 -164.421762108231 -570.8277296571308 -21.05040476710389 0.0 0.0
-1052.5097401991259 -204.86357731262007 -627.3838250465558 -20.475286584511895 0.0 0.0
-1122.399255714437 -242.44424401004846 -681.0468394304952 -19.928440496698293 0.0 0.0
-1181.9937103821858 -270.776151159352 -724.9206494583995 -19.424889014650788 0.0 0.0
-1224.696240543555 -283.8166439828317 -752.7225164952024 -18.517636080368234 0.0 0.0
-1247.508077795887 -279.6702994343871 -761.9957378768869 -16.660639764470375 0.0 0.0
-1257.4984845682188 -266.7524404236677 -760.6672911280706 -14.177563374420815 0.0 0.0
-1196.0964135598138 -189.45860674103523 -692.5897907321647 -18.244666689182562 0.0 0.0
-727.2907157617341 276.8620513236227 -226.14163606525287 -47.94520037328665 0.0 0.0
-3259.2392204187418 -2303.1212711814433 -2768.870192428402 2.4790836050669895e-11 0.0 0.0
-727.2907157618472 276.86205132348414 -226.14163606529533 47.94520037335979 0.0 0.0
-1196.0964135599368 -189.45860674121994 -692.5897907322238 18.244666689246326 0.0 0.0
-1257.4984845680785 -266.7524404235698 -760.667291127938 14.177563374428964 0.0 0.0
-1247.5080777958315 -279.67029943442856 -761.9957378768651 16.66063976448914 0.0 0.0
-1224.6962405435415 -283.8166439829243 -752.7225164951236 18.51763608039669 0.0 0.0
-1181.9937103819025 -270.7761511591971 -724.9206494580968 19.424889014726475 0.0 0.0
-1122.399255714005 -242.4442440097605 -681.0468394301417 19.928440496663807 0.0 0.0
-1052.5097401989628 -204.86357731264016 -627.3838250464466 20.47528658458733 0.0 0.0
-979.9945531686928 -164.4217621080307 -570.8277296568747 21.050404767119574 0.0 0.0
-907.757679240076 -127.29783488488619 -515.5881320275597 21.43119042330591 0.0 0.0
-838.4238067263926 -94.8457673806794 -462.84518786985757 21.652813844248804 0.0 0.0
-772.3508290707268 -68.94923676551487 -411.507820701794 21.595259024655377 0.0 0.0
-706.9729065524383 -49.13784572064405 -355.93079045274317 21.36583623203166 0.0 0.0
-636.6665433668551 -32.72535591899084 -288.4520404640049 20.667270368237837 0.0 0.0
-564.7287499800154 -25.554861773689137 -216.45808536426068 19.758025749181442 0.0 0.0
-455.3444847542269 -12.719730398008675 -145.19353315416458 23.191856750305355 0.0 0.0
-307.06282269526577 0.2458702642705024 -92.0235907403584 31.109621974738012 0.0 0.0
-173.929853504325 -2.1320185796770783 -52.8185616252006 30.732116587028358 0.0 0.0
-72.01664322652812 -15.769630054301137 -26.33588198424877 20.74031037278237 0.0 0.0
-27.132026704996196 -8.664344267553707 -10.738911291764966 11.795154851584458 0.0 0.0
-16.424913868325817 -4.160965871860423 -6.17576392205587 -7.48513162413973 0.0 0.0
-61.39385475052986 -8.685311644922376 -21.023749918635666 -8.611214740453788 0.0 0.0
-180.00081025499244 -3.1400864745942627 -54.94226901887602 -10.516960104856178 0.0 0.0
-342.0749856487771 -9.840296313255266 -105.54086140629704 -10.031544057791832 0.0 0.0
-513.9632020388003 -39.51016111106518 -176.19323061307955 -3.666539962369807 0.0 0.0
-629.3545839970993 -72.15317974246861 -266.588883859647 -0.5185880884965535 0.0 0.0
-715.7318831593416 -97.22615639755298 -355.24830520528053 -0.1236270519239504 0.0 0.0
-807.8216137208667 -137.47099248295663 -444.0588672154567 -0.7966980928991205 0.0 0.0
-902.2529216934839 -187.3955209040534 -528.0640737784254 -1.7072870413213757 0.0 0.0
-1008.2827890953515 -253.00648250656025 -618.4921768750864 -2.7591790183581413 0.0 0.0
-1130.3056188113155 -337.4828230724746 -723.1029716514167 -3.8490317513525696 0.0 0.0
-1268.168141753293 -441.06397214450874 -843.9009525264295 -4.891427779822571 0.0 0.0
-1418.1532892476214 -557.6074536115301 -976.7034081741274 -5.588156995355508 0.0 0.0
-1574.533498476997 -681.3779104723396 -1116.2409352374552 -6.25945293968039 0.0 0.0
-1725.327836176622 -800.5900232088964 -1250.7310998250373 -6.781155162375285 0.0 0.0
-1853.3869057964741 -898.8511852667831 -1363.5124791598369 -6.935757843600442 0.0 0.0
-1937.8164822297535 -956.7318554153966 -1434.5795454137158 -6.391932690823154 0.0 0.0
-1955.616804632995 -952.702951605534 -1441.7785264770314 -4.525483088140685 0.0 0.0
-1941.9920919388942 -922.8537838141415 -1420.039772205862 -5.742383000156501 0.0 0.0
-1864.276303212054 -841.4456178428411 -1337.0026481170416 -35.18534350618306 0.0 0.0
-4858.942618279295 -3874.496834516391 -4337.346293832687 -2.0548895918182097e-11 0.0 0.0
-1864.276303211957 -841.4456178427822 -1337.0026481167858 35.18534350620473 0.0 0.0
-1941.9920919385074 -922.853783813802 -1420.0397722055047 5.7423830002103 0.0 0.0
-1955.6168046328596 -952.7029516054637 -1441.77852647676 4.525483088097918 0.0 0.0
-1937.81648222901 -956.7318554147458 -1434.579545413103 6.39193269084933 0.0 0.0
-1853.3869057963152 -898.8511852667233 -1363.5124791595704 6.935757843567831 0.0 0.0
-1725.32783617526 -800.5900232076551 -1250.7310998238074 6.781155162458859 0.0 0.0
-1574.5334984758374 -681.3779104713207 -1116.2409352364875 6.259452939620903 0.0 0.0
-1418.153289247205 -557.6074536112932 -976.7034081736906 5.5881569954161385 0.0 0.0
-1268.168141753227 -441.06397214464886 -843.9009525261966 4.891427779866156 0.0 0.0
-1130.3056188109963 -337.4828230723887 -723.1029716511209 3.8490317512614105 0.0 0.0
-1008.2827890944947 -253.00648250592027 -618.4921768744157 2.7591790182314675 0.0 0.0
-902.2529216932353 -187.39552090407778 -528.0640737781421 1.7072870413333447 0.0 0.0
-807.8216137205075 -137.4709924828939 -444.05886721506687 0.7966980929611829 0.0 0.0
-715.7318831585151 -97.22615639699399 -355.24830520459363 0.1236270518908178 0.0 0.0
-629.354583996592 -72.15317974226016 -266.5888838591706 0.518588088651093 0.0 0.0
-513.9632020384043 -39.510161111088195 -176.19323061286923 3.6665399624263983 0.0 0.0
-342.0749856484252 -9.840296313008132 -105.54086140611213 10.031544057832306 0.0 0.0
-180.00081025500174 -3.1400864749258943 -54.942269018978294 10.516960104796494 0.0 0.0
-61.393854750463206 -8.685311644899407 -21.02374991860878 8.611214740434058 0.0 0.0
-16.42491386835424 -4.160965871860858 -6.175763922064528 7.485131624076404 0.0 0.0
SCALARS Strain float 6
LOOKUP_TABLE default
0.010955078617869145 -0.019123062465057836 0.0 -0.0006353218222112235 0.0 0.0
0.0067607760745435706 -0.0013811348257361917 0.0 -0.00585275357223386 0.0 0.0
0.0021841100329340526 -0.0006291170576692892 0.0 -0.0005703139478525595 0.0 0.0
0.001984487398576877 -0.0007935720230858871 0.0 -4.470998094660969e-05 0.0 0.0
0.0026047703535703845 -0.0010440047684471226 0.0 5.9328731405160665e-05 0.0 0.0
0.0038890311859037727 -0.0019492264387743182 0.0 0.00013333893756918862 0.0 0.0
0.006002657736516412 -0.0036579497543761516 0.0 0.00017176943115076817 0.0 0.0
0.00900817379851129 -0.006230477474246005 0.0 0.00018614152181681897 0.0 0.0
0.012989405288070247 -0.009755841155893183 0.0 0.00018695946977335202 0.0 0.0
0.017997316394101046 -0.014237953266912413 0.0 0.00016420284031187668 0.0 0.0
0.02409804956863338 -0.019713331839609976 0.0 0.00016162192973241614 0.0 0.0
0.03141549729632694 -0.026304064482999566 0.0 0.0001751791083873163 0.0 0.0
0.04009260926830437 -0.03418206841982428 0.0 0.0001319997686289316 0.0 0.0
0.050256589981837935 -0.04350132909599035 0.0 8.038651372486983e-05 0.0 0.0
0.06193482296372846 -0.05433485227505486 0.0 -4.167300742773062e-05 0.0 0.0
0.07489091634543615 -0.06649315647726009 0.0 -0.0002568618746419146 0.0 0.0
0.08850563926315708 -0.0793966640705403 0.0 -0.0005347624161373629 0.0 0.0
0.10175388976245542 -0.09206038688841361 0.0 -0.0007663370877124677 0.0 0.0
0.11332388456432665 -0.10319627411470814 0.0 -0.0007889911881916287 0.0 0.0
0.12173918618470508 -0.11137863895848368 0.0 -0.0007786142355291855 0.0 0.0
0.12496475214844269 -0.11462911354854166 0.0 2.278559285695536e-15 0.0 0.0
0.12173918618469232 -0.11137863895847305 0.0 0.0007786142355326632 0.0 0.0
0.11332388456429973 -0.10319627411468593 0.0 0.0007889911881967084 0.0 0.0
0.10175388976241734 -0.09206038688837768 0.0 0.0007663370877166349 0.0 0.0
0.08850563926311322 -0.07939666407050364 0.0 0.0005347624161387557 0.0 0.0
0.07489091634539115 -0.06649315647721679 0.0 0.000256861874639257 0.0 0.0
0.06193482296368273 -0.05433485227501274 0.0 4.167300742856546e-05 0.0 0.0
0.05025658998179114 -0.04350132909594873 0.0 -8.038651372661203e-05 0.0 0.0
0.04009260926825751 -0.03418206841978243 0.0 -0.00013199976863008823 0.0 0.0
0.031415497296282936 -0.026304064482953526 0.0 -0.00017517910838976648 0.0 0.0
0.02409804956859484 -0.01971333183957444 0.0 -0.00016162192973342797 0.0 0.0
0.017997316394069957 -0.01423795326688761 0.0 -0.0001642028403110032 0.0 0.0
0.012989405288046393 -0.009755841155872157 0.0 -0.00018695946977444428 0.0 0.0
0.009008173798493228 -0.006230477474229702 0.0 -0.00018614152181600403 0.0 0.0
0.006002657736503762 -0.003657949754365785 0.0 -0.00017176943115079698 0.0 0.0
0.003889031185896681 -0.0019492264387689076 0.0 -0.00013333893756754784 0.0 0.0
0.002604770353567245 -0.0010440047684481275 0.0 -5.9328731405506505e-05 0.0 0.0
0.001984487398575631 -0.0007935720230852344 0.0 4.470998094832755e-05 0.0 0.0
0.0021841100329326956 -0.0006291170576697511 0.0 0.0005703139478510377 0.0 0.0
0.006760776074538876 -0.0013811348257339983 0.0 0.005852753572226293 0.0 0.0
0.010955078617861984 -0.01912306246503549 0.0 0.0006353218221739141 0.0 0.0
0.0073883365086303 -0.017025841861135798 0.0 -0.00018407250759242813 0.0 0.0
0.004396701590823227 -0.0010067307600887037 0.0 -0.004574436728000574 0.0 0.0
0.001513511374215492 -0.000506899982227839 0.0 -0.0003820789569379196 0.0 0.0
0.0017793242028705304 -0.000756550604327976 0.0 -0.00021193936412144157 0.0 0.0
0.0022875172105269992 -0.000961862737306311 0.0 -0.0001685652436053227 0.0 0.0
0.0033807059658655363 -0.00175210846946666 0.0 -0.0001901621639108207 0.0 0.0
0.005267160518220211 -0.0033410850492593333 0.0 -0.00035833722837612673 0.0 0.0
0.007996926536933093 -0.005771003230877939 0.0 -0.0005747244622227715 0.0 0.0
0.01162315549964499 -0.009118435125814424 0.0 -0.000851614889287764 0.0 0.0
0.016166170466929093 -0.013374071256607055 0.0 -0.0011742736595132994 0.0 0.0
0.021663875504849366 -0.018560845103409045 0.0 -0.0015041464714896226 0.0 0.0
0.028218162958838836 -0.024784283032640513 0.0 -0.0018300748750745557 0.0 0.0
0.03599279976868026 -0.032218647922213454 0.0 -0.002215236865389619 0.0 0.0
0.045137193990458804 -0.04103701252869369 0.0 -0.002683284690070574 0.0 0.0
0.055689076935864716 -0.05131194250353208 0.0 -0.0032300846592621794 0.0 0.0
0.06744723778893859 -0.06287086445385864 0.0 -0.003831105176628164 0.0 0.0
0.07985277802528583 -0.07517118558381868 0.0 -0.004340745081533995 0.0 0.0
0.09198246597520354 -0.08728323682203465 0.0 -0.004482193695555284 0.0 0.0
0.10261370238872845 -0.09797253473377769 0.0 -0.003995434716662063 0.0 0.0
0.1102068674223309 -0.10576838209730322 0.0 -0.003004521704499602 0.0 0.0
0.1130280228377182 -0.10890065919014098 0.0 4.9530692047827785e-15 0.0 0.0
0.1102068674223185 -0.10576838209728978 0.0 0.0030045217045104934 0.0 0.0
0.1026137023887048 -0.0979725347337539 0.0 0.003995434716675822 0.0 0.0
0.09198246597517062 -0.08728323682200165 0.0 0.004482193695562893 0.0 0.0
0.07985277802524736 -0.07517118558378329 0.0 0.004340745081536692 0.0 0.0
0.0674472377888981 -0.06287086445382038 0.0 0.003831105176625291 0.0 0.0
0.055689076935823215 -0.051311942503491074 0.0 0.003230084659261873 0.0 0.0
0.04513719399041673 -0.041037012528654215 0.0 0.0026832846900694375 0.0 0.0
0.03599279976863848 -0.03221864792217487 0.0 0.00221523686538826 0.0 0.0
0.028218162958799163 -0.02478428303260072 0.0 0.0018300748750703897 0.0 0.0
0.021663875504814658 -0.018560845103376463 0.0 0.0015041464714861722 0.0 0.0
0.016166170466900817 -0.013374071256581166 0.0 0.0011742736595116913 0.0 0.0
0.011623155499623124 -0.009118435125793542 0.0 0.0008516148892858724 0.0 0.0
0.007996926536916799 -0.005771003230862882 0.0 0.0005747244622210288 0.0 0.0
0.005267160518209052 -0.003341085049250069 0.0 0.00035833722837490945 0.0 0.0
0.0033807059658595966 -0.0017521084694604192 0.0 0.00019016216391068227 0.0 0.0
0.002287517210524858 -0.0009618627373070207 0.0 0.00016856524360380366 0.0 0.0
0.0017793242028697918 -0.0007565506043273332 0.0 0.00021193936412145696 0.0 0.0
0.001513511374215163 -0.0005068999822290464 0.0 0.00038207895693662315 0.0 0.0
0.004396701590817789 -0.0010067307600862717 0.0 0.004574436727991152 0.0 0.0
0.007388336508619317 -0.017025841861113205 0.0 0.00018407250756437906 0.0 0.0
0.005296997531152202 -0.013414094819122098 0.0 -0.002669514680066926 0.0 0.0
0.003057382666051666 -0.0005287391525197792 0.0 -0.004426670880019548 0.0 0.0
0.0010724271935876317 -0.00030079345801558275 0.0 -0.0003731439911067232 0.0 0.0
0.0015246043037560359 -0.0006579312301994821 0.0 -0.0004724488199056861 0.0 0.0
0.0019999166777558285 -0.0008227215977778069 0.0 -0.0004684948094753965 0.0 0.0
0.002894502469066438 -0.001386497875104022 0.0 -0.00047214663943599797 0.0 0.0
0.004531195404771264 -0.0027130831077013316 0.0 -0.0007780914355963659 0.0 0.0
0.006975006874133712 -0.004857897736792253 0.0 -0.0012141462919912488 0.0 0.0
0.010233115559841969 -0.007840019473722678 0.0 -0.001766136303628501 0.0 0.0
0.014305058386198631 -0.011639659049929972 0.0 -0.0023977276591371013 0.0 0.0
0.019203983504421807 -0.016249352814858543 0.0 -0.003057074748606233 0.0 0.0
0.025010810106805035 -0.02174772407582007 0.0 -0.0037108583983710844 0.0 0.0
0.031881012441317025 -0.028300283537007226 0.0 -0.004401705476007159 0.0 0.0
0.039988584331134475 -0.036104988760458756 0.0 -0.005232650181537739 0.0 0.0
0.04939409500658644 -0.04525186554917985 0.0 -0.006224194872583575 0.0 0.0
0.0599296478237343 -0.05560014058847788 0.0 -0.007282512129446457 0.0 0.0
0.07112506965622183 -0.0666889783920725 0.0 -0.008149534958405084 0.0 0.0
0.08216564639902431 -0.07770656910910005 0.0 -0.008377573233236905 0.0 0.0
0.09188954591627518 -0.08750878567484763 0.0 -0.007555262706219339 0.0 0.0
0.09887246416488485 -0.09463688520413913 0.0 -0.00556244388217061 0.0 0.0
0.10148969479686563 -0.09764772361902158 0.0 8.411240454142543e-15 0.0 0.0
0.09887246416487351 -0.0946368852041241 0.0 0.005562443882191542 0.0 0.0
0.0918895459162543 -0.08750878567483192 0.0 0.0075552627062427285 0.0 0.0
0.08216564639899573 -0.07770656910907117 0.0 0.008377573233249174 0.0 0.0
0.07112506965618824 -0.06668897839203997 0.0 0.008149534958408628 0.0 0.0
0.05992964782369839 -0.055600140588443085 0.0 0.007282512129443601 0.0 0.0
0.04939409500654945 -0.04525186554914292 0.0 0.006224194872582838 0.0 0.0
0.03998858433109699 -0.03610498876042276 0.0 0.005232650181535655 0.0 0.0
0.03188101244127987 -0.028300283536973107 0.0 0.004401705476003734 0.0 0.0
0.025010810106769872 -0.021747724075786175 0.0 0.0037108583983650086 0.0 0.0
0.0192039835043911 -0.016249352814831572 0.0 0.0030570747486001627 0.0 0.0
0.014305058386173363 -0.011639659049904572 0.0 0.0023977276591316335 0.0 0.0
0.010233115559822193 -0.007840019473703467 0.0 0.001766136303625343 0.0 0.0
0.006975006874119125 -0.004857897736779073 0.0 0.0012141462919872735 0.0 0.0
0.004531195404761602 -0.0027130831076936273 0.0 0.0007780914355931213 0.0 0.0
0.002894502469061484 -0.0013864978750994885 0.0 0.0004721466394353428 0.0 0.0
0.0019999166777539767 -0.0008227215977777922 0.0 0.0004684948094751017 0.0 0.0
0.001524604303755645 -0.0006579312301993205 0.0 0.0004724488199048595 0.0 0.0
0.001072427193587825 -0.000300793458016411 0.0 0.0003731439911055375 0.0 0.0
0.003057382666046607 -0.0005287391525169848 0.0 0.004426670880008002 0.0 0.0
0.005296997531141812 -0.013414094819100462 0.0 0.0026695146800486203 0.0 0.0
0.003924900105585932 -0.010716884808438363 0.0 -0.0030800771672386176 0.0 0.0
0.002213145954928812 -0.0003964371539915082 0.0 -0.004059076771419305 0.0 0.0
0.000769727713609198 -0.0001692574947925526 0.0 -0.0006623511671348617 0.0 0.0
0.0012656080633573696 -0.0005290276876632347 0.0 -0.0007170206646334691 0.0 0.0
0.0017288404622332666 -0.0007150193489933506 0.0 -0.000774975742853043 0.0 0.0
0.002447504750339543 -0.0010954569264140293 0.0 -0.000758864455541354 0.0 0.0
0.003809848507714839 -0.0021165878922607376 0.0 -0.001060130823348008 0.0 0.0
0.005947634116132858 -0.003957567962018042 0.0 -0.0016892663095302918 0.0 0.0
0.008829311495199166 -0.00656300622420955 0.0 -0.0024538440419238933 0.0 0.0
0.012425424870744923 -0.009898274488043339 0.0 -0.003327981117442541 0.0 0.0
0.016727962678029604 -0.013933495678908149 0.0 -0.004239614818540546 0.0 0.0
0.021797399499789642 -0.01871906457344212 0.0 -0.005144917969060324 0.0 0.0
0.02777614920746316 -0.024401894704546977 0.0 -0.006086996900298339 0.0 0.0
0.03483501800439013 -0.0311827095348836 0.0 -0.007175839388128442 0.0 0.0
0.04306730327143744 -0.03917646225296883 0.0 -0.008471295561265031 0.0 0.0
0.052362975534353644 -0.0482898481152564 0.0 -0.009872727267292958 0.0 0.0
0.06233454070621811 -0.05815204602834187 0.0 -0.011033679508639056 0.0 0.0
0.07228129196345308 -0.06807452903013857 0.0 -0.011396852287541549 0.0 0.0
0.0811581131189031 -0.07701681660362457 0.0 -0.010394095699264536 0.0 0.0
0.0876784761973864 -0.08365446815747807 0.0 -0.007491907477467642 0.0 0.0
0.09018046348254778 -0.08671484155647326 0.0 1.240630861931713e-14 0.0 0.0
0.08767847619737586 -0.08365446815746637 0.0 0.007491907477495734 0.0 0.0
0.0811581131188846 -0.07701681660360978 0.0 0.010394095699292824 0.0 0.0
0.07228129196342785 -0.06807452903011328 0.0 0.011396852287559264 0.0 0.0
0.06233454070618849 -0.05815204602831382 0.0 0.011033679508643373 0.0 0.0
0.0523629755343221 -0.04828984811522439 0.0 0.00987272726728949 0.0 0.0
0.043067303271404955 -0.03917646225293817 0.0 0.008471295561262299 0.0 0.0
0.03483501800435745 -0.031182709534851374 0.0 0.007175839388125771 0.0 0.0
0.027776149207430982 -0.024401894704516182 0.0 0.006086996900293113 0.0 0.0
0.021797399499759246 -0.01871906457341342 0.0 0.005144917969053642 0.0 0.0
0.016727962678002736 -0.013933495678883493 0.0 0.004239614818531974 0.0 0.0
0.012425424870722623 -0.009898274488023308 0.0 0.0033279811174354084 0.0 0.0
0.008829311495181577 -0.0065630062241918575 0.0 0.0024538440419187 0.0 0.0
0.005947634116119716 -0.003957567962006661 0.0 0.0016892663095262961 0.0 0.0
0.0038098485077070546 -0.0021165878922558704 0.0 0.0010601308233445905 0.0 0.0
0.0024475047503361995 -0.0010954569264122287 0.0 0.0007588644555398744 0.0 0.0
0.0017288404622320102 -0.0007150193489932705 0.0 0.000774975742853017 0.0 0.0
0.0012656080633569535 -0.0005290276876633328 0.0 0.0007170206646321258 0.0 0.0
0.0007697277136091994 -0.00016925749479281072 0.0 0.0006623511671330595 0.0 0.0
0.002213145954924238 -0.0003964371539887783 0.0 0.004059076771408885 0.0 0.0
0.003924900105576757 -0.010716884808419208 0.0 0.0030800771672251487 0.0 0.0
0.0029267749990612235 -0.008563650505022603 0.0 -0.0027926897429829995 0.0 0.0
0.001626666333102375 -0.0003605596023322456 0.0 -0.0036629615122836198 0.0 0.0
0.00055783588377214 -9.875853403831051e-05 0.0 -0.0010309759843174387 0.0 0.0
0.0010206475471239151 -0.0003989864504920377 0.0 -0.0009818596297963402 0.0 0.0
0.0014646848397967315 -0.0006113100718535571 0.0 -0.0010700058393124138 0.0 0.0
0.002047555054347137 -0.0008799581333201205 0.0 -0.001061699351871916 0.0 0.0
0.0031255591126129003 -0.0015976222544095348 0.0 -0.0012809062593456214 0.0 0.0
0.004923628651055536 -0.0030765988870518303 0.0 -0.0019569185598699093 0.0 0.0
0.0074221842399031426 -0.005301565445471057 0.0 -0.0029077320232838845 0.0 0.0
0.01053738456173967 -0.008164867531151077 0.0 -0.003957309401684365 0.0 0.0
0.01424723336750925 -0.011626576165489162 0.0 -0.0050503126712622415 0.0 0.0
0.01858762497399051 -0.015708027275749555 0.0 -0.006130798187422385 0.0 0.0
0.023681278418938127 -0.020532486323291264 0.0 -0.0072465961014772755 0.0 0.0
0.02969933391011871 -0.026292135564140853 0.0 -0.008513552626553608 0.0 0.0
0.03674644587821292 -0.03311905656989146 0.0 -0.009997792995313984 0.0 0.0
0.044768653214044545 -0.040971493008484496 0.0 -0.011592147240551192 0.0 0.0
0.05348765932644902 -0.04957513049912036 0.0 -0.012955047287520706 0.0 0.0
0.0623274643701202 -0.058375465008322164 0.0 -0.013499777281107853 0.0 0.0
0.07039447113931575 -0.06648899122482965 0.0 -0.012451932106811642 0.0 0.0
0.07654726263477682 -0.07275215466455301 0.0 -0.008971964242946618 0.0 0.0
0.07899096308875458 -0.07596170194893258 0.0 1.3552093475199811e-14 0.0 0.0
0.07654726263476715 -0.07275215466454596 0.0 0.008971964242979715 0.0 0.0
0.07039447113929903 -0.06648899122480996 0.0 0.012451932106842832 0.0 0.0
0.06232746437009819 -0.05837546500829886 0.0 0.01349977728112733 0.0 0.0
0.05348765932642337 -0.04957513049909804 0.0 0.01295504728752539 0.0 0.0
0.04476865321401698 -0.040971493008458364 0.0 0.011592147240547607 0.0 0.0
0.036746445878185 -0.03311905656986328 0.0 0.009997792995310013 0.0 0.0
0.029699333910090782 -0.02629213556411487 0.0 0.008513552626549844 0.0 0.0
0.02368127841891072 -0.0205324863232679 0.0 0.00724659610147076 0.0 0.0
0.01858762497396467 -0.015708027275727295 0.0 0.006130798187414193 0.0 0.0
0.014247233367486265 -0.01162657616546849 0.0 0.005050312671251466 0.0 0.0
0.01053738456172016 -0.008164867531134566 0.0 0.003957309401675783 0.0 0.0
0.007422184239887839 -0.005301565445455905 0.0 0.002907732023277204 0.0 0.0
0.004923628651044719 -0.003076598887043034 0.0 0.001956918559865412 0.0 0.0
0.003125559112606578 -0.001597622254406287 0.0 0.00128090625934384 0.0 0.0
0.0020475550543445622 -0.0008799581333202085 0.0 0.001061699351869952 0.0 0.0
0.0014646848397957346 -0.0006113100718537467 0.0 0.001070005839311299 0.0 0.0
0.0010206475471236868 -0.00039898645049174107 0.0 0.0009818596297938276 0.0 0.0
0.000557835883772345 -9.87585340387392e-05 0.0 0.0010309759843146133 0.0 0.0
0.0016266663330986738 -0.0003605596023300729 0.0 0.003662961512274513 0.0 0.0
0.002926774999053735 -0.008563650505006404 0.0 0.0027926897429732694 0.0 0.0
0.002166564417273548 -0.006787205016741746 0.0 -0.002364128736061924 0.0 0.0
0.0011942689516210867 -0.0003507844970180202 0.0 -0.0032790840739173877 0.0 0.0
0.0004010008315866692 -6.590014071941472e-05 0.0 -0.0013789958259715577 0.0 0.0
0.0007930870837551334 -0.0002810243968989629 0.0 -0.0012544066586828485 0.0 0.0
0.001203616156370095 -0.0005004296314721769 0.0 -0.0013426116963965338 0.0 0.0
0.0016824576986388465 -0.0007126718611056534 0.0 -0.0013639674734785283 0.0 0.0
0.0025045347201410897 -0.001186023623419474 0.0 -0.0015168665859551787 0.0 0.0
0.003931058689507403 -0.0022647497826016024 0.0 -0.002079260432219403 0.0 0.0
0.006014019567258255 -0.0040662534597474395 0.0 -0.003090948440208249 0.0 0.0
0.008651773946271339 -0.006455412255310675 0.0 -0.004274546513401663 0.0 0.0
0.011770579687767561 -0.009342750287125527 0.0 -0.005475674954681342 0.0 0.0
0.015391401294789768 -0.012728294187230635 0.0 -0.006663555936914446 0.0 0.0
0.019613393514928808 -0.01670587049229401 0.0 -0.007872254300876982 0.0 0.0
0.0245908834951896 -0.02145144008430322 0.0 -0.009219498949505616 0.0 0.0
0.030450909954672596 -0.027107138046548813 0.0 -0.010786080911614503 0.0 0.0
0.03718808112407912 -0.0336814832284468 0.0 -0.012463617406660328 0.0 0.0
0.044606235327953124 -0.040985562131156165 0.0 -0.013920348003554538 0.0 0.0
0.05229453232211215 -0.04861241116809703 0.0 -0.014611858530535383 0.0 0.0
0.05955777316944906 -0.05589293813884462 0.0 -0.013693278332014494 0.0 0.0
0.0654005061271317 -0.06184675454919643 0.0 -0.010041909938550114 0.0 0.0
0.06782541118866148 -0.06529037950220083 0.0 1.2954481237725801e-14 0.0 0.0
0.06540050612712303 -0.061846754549190475 0.0 0.01004190993858332 0.0 0.0
0.05955777316943463 -0.05589293813883129 0.0 0.01369327833204569 0.0 0.0
0.05229453232209357 -0.048612411168076804 0.0 0.014611858530554779 0.0 0.0
0.044606235327931516 -0.04098556213113838 0.0 0.01392034800355833 0.0 0.0
0.03718808112405561 -0.03368148322842566 0.0 0.012463617406655771 0.0 0.0
0.030450909954649094 -0.027107138046523004 0.0 0.010786080911609354 0.0 0.0
0.02459088349516668 -0.021451440084283287 0.0 0.009219498949501479 0.0 0.0
0.01961339351490612 -0.016705870492273376 0.0 0.007872254300872131 0.0 0.0
0.015391401294767987 -0.012728294187212722 0.0 0.006663555936904406 0.0 0.0
0.011770579687748283 -0.009342750287108003 0.0 0.005475674954668792 0.0 0.0
0.008651773946255338 -0.006455412255295563 0.0 0.0042745465133913986 0.0 0.0
0.006014019567245748 -0.004066253459736296 0.0 0.0030909484402008736 0.0 0.0
0.003931058689498911 -0.002264749782594597 0.0 0.002079260432214609 0.0 0.0
0.0025045347201365234 -0.001186023623416998 0.0 0.0015168665859529213 0.0 0.0
0.0016824576986370317 -0.000712671861106004 0.0 0.0013639674734772006 0.0 0.0
0.0012036161563692871 -0.000500429631472005 0.0 0.0013426116963950767 0.0 0.0
0.000793087083754629 -0.00028102439689853286 0.0 0.0012544066586811858 0.0 0.0
0.00040100083158652337 -6.5900140719861e-05 0.0 0.001378995825969071 0.0 0.0
0.0011942689516180576 -0.0003507844970166329 0.0 0.0032790840739094157 0.0 0.0
0.002166564417267494 -0.006787205016728392 0.0 0.0023641287360555217 0.0 0.0
0.0015812358294324958 -0.005305184426971296 0.0 -0.0019675177996765075 0.0 0.0
0.0008655897684959925 -0.00035077712412240027 0.0 -0.0029336049651771654 0.0 0.0
0.00027499012036870434 -4.8911025868936353e-05 0.0 -0.001668451769305688 0.0 0.0
0.000581602018981934 -0.00017785597324647555 0.0 -0.0015132597310930824 0.0 0.0
0.0009421337861620707 -0.0003809901181265113 0.0 -0.0015842864392383545 0.0 0.0
0.0013355620042933471 -0.0005702236804495277 0.0 -0.0016543289229025444 0.0 0.0
0.001943551982298221 -0.0008656970172368605 0.0 -0.0017495198692040546 0.0 0.0
0.0030078850122062027 -0.001580790040611798 0.0 -0.0021696722010150437 0.0 0.0
0.004635926822206482 -0.002901548148523093 0.0 -0.003038903849100888 0.0 0.0
0.00677340249659768 -0.004787833009713291 0.0 -0.004239762642302827 0.0 0.0
0.009308771302484645 -0.007100703755974939 0.0 -0.005496360571340252 0.0 0.0
0.012217199809053423 -0.009795023431069054 0.0 -0.006725201732969133 0.0 0.0
0.015580330253728038 -0.012939171463392794 0.0 -0.00795352949826328 0.0 0.0
0.019533654573907402 -0.016684223347854722 0.0 -0.009292719956287948 0.0 0.0
0.024203833085506235 -0.021168962617005974 0.0 -0.010814357667365361 0.0 0.0
0.02963497622793166 -0.026450589263140895 0.0 -0.01246370457011503 0.0 0.0
0.03572283164554941 -0.032418839761504205 0.0 -0.013928775093999285 0.0 0.0
0.04219694866028186 -0.038806378547756815 0.0 -0.014717606775862894 0.0 0.0
0.04860057543273385 -0.04519270224472512 0.0 -0.014059279577274047 0.0 0.0
0.05414831365934143 -0.05084684734378143 0.0 -0.010675800627870104 0.0 0.0
0.05658314377067179 -0.05460707405328308 0.0 1.2916751002123306e-14 0.0 0.0
0.054148313659333966 -0.05084684734377803 0.0 0.01067580062790192 0.0 0.0
0.04860057543272173 -0.04519270224471302 0.0 0.014059279577305142 0.0 0.0
0.04219694866026649 -0.038806378547741216 0.0 0.014717606775882557 0.0 0.0
0.035722831645531285 -0.032418839761489834 0.0 0.01392877509400103 0.0 0.0
0.029634976227912377 -0.026450589263122885 0.0 0.012463704570109223 0.0 0.0
0.024203833085487476 -0.021168962616986458 0.0 0.01081435766735986 0.0 0.0
0.019533654573889482 -0.016684223347835068 0.0 0.00929271995628397 0.0 0.0
0.015580330253710108 -0.012939171463375457 0.0 0.007953529498257197 0.0 0.0
0.012217199809036065 -0.009795023431054027 0.0 0.006725201732959308 0.0 0.0
0.009308771302469473 -0.0071007037559613516 0.0 0.005496360571329331 0.0 0.0
0.006773402496584905 -0.004787833009701784 0.0 0.00423976264229303 0.0 0.0
0.0046359268221967875 -0.002901548148513336 0.0 0.003038903849095334 0.0 0.0
0.0030078850121999794 -0.0015807900406060137 0.0 0.002169672201011079 0.0 0.0
0.0019435519822949472 -0.0008656970172351981 0.0 0.0017495198692014193 0.0 0.0
0.001335562004291995 -0.0005702236804476334 0.0 0.001654328922901892 0.0 0.0
0.0009421337861614928 -0.00038099011812651 0.0 0.001584286439236002 0.0 0.0
0.000581602018981671 -0.00017785597324609912 0.0 0.0015132597310905352 0.0 0.0
0.0002749901203685646 -4.89110258691964e-05 0.0 0.0016684517693037362 0.0 0.0
0.0008655897684936608 -0.0003507771241219238 0.0 0.0029336049651705995 0.0 0.0
0.0015812358294279524 -0.005305184426960475 0.0 0.001967517799672646 0.0 0.0
0.0011292630512894947 -0.0040812102385937715 0.0 -0.0016765252215131896 0.0 0.0
0.0006099225749477161 -0.0003592672513268678 0.0 -0.0026261059594869687 0.0 0.0
0.00016432443538667778 -3.2268025194940206e-05 0.0 -0.0018937832833638402 0.0 0.0
0.00038270287318899464 -8.750639506055125e-05 0.0 -0.001740075902166608 0.0 0.0
0.0006787760143982252 -0.0002578252872049267 0.0 -0.0017921631799737462 0.0 0.0
0.0009988542980353986 -0.00042750774939103543 0.0 -0.001902139600964809 0.0 0.0
0.0014313546553124598 -0.0006173382347103869 0.0 -0.001990286410320516 0.0 0.0
0.0021637552433432495 -0.0010361599179842063 0.0 -0.0022467535900582538 0.0 0.0
0.003331069426389484 -0.0018796171337441899 0.0 -0.0028691242621630784 0.0 0.0
0.004929542719433143 -0.003213165128887176 0.0 -0.003877549169179704 0.0 0.0
0.0068656230823855415 -0.004927981812678545 0.0 -0.005080296570649581 0.0 0.0
0.009073323213434778 -0.006933911096518186 0.0 -0.006276956123485775 0.0 0.0
0.011594331085665134 -0.009256741263208877 0.0 -0.007463161665588506 0.0 0.0
0.014538522245114725 -0.012018279319183001 0.0 -0.008710137985710582 0.0 0.0
0.018028741421097696 -0.01534260772823453 0.0 -0.010094694144872114 0.0 0.0
0.0221427012299168 -0.01931589320401064 0.0 -0.011578277989154626 0.0 0.0
0.0268556714035827 -0.023914389924774754 0.0 -0.012953172138072462 0.0 0.0
0.032043331229866225 -0.0289924398983145 0.0 -0.013773778938126174 0.0 0.0
0.03749156058218239 -0.03436739069100453 0.0 -0.01345988821576724 0.0 0.0
0.04269722646317298 -0.03965616328282394 0.0 -0.01080255232122713 0.0 0.0
0.04514759691681625 -0.043813152324311565 0.0 1.0379284237638231e-14 0.0 0.0
0.04269722646316722 -0.03965616328282311 0.0 0.010802552321255831 0.0 0.0
0.03749156058217258 -0.03436739069099001 0.0 0.013459888215798448 0.0 0.0
0.03204333122985364 -0.02899243989830349 0.0 0.013773778938143463 0.0 0.0
0.02685567140356846 -0.02391438992476204 0.0 0.012953172138072764 0.0 0.0
0.022142701229902098 -0.019315893203996112 0.0 0.011578277989148206 0.0 0.0
0.018028741421083672 -0.01534260772821991 0.0 0.010094694144867414 0.0 0.0
0.014538522245101639 -0.012018279319169562 0.0 0.00871013798570694 0.0 0.0
0.011594331085652124 -0.009256741263199114 0.0 0.007463161665583416 0.0 0.0
0.00907332321342202 -0.006933911096505659 0.0 0.006276956123477358 0.0 0.0
0.006865623082374142 -0.004927981812667735 0.0 0.005080296570640032 0.0 0.0
0.004929542719423996 -0.0032131651288785064 0.0 0.0038775491691709595 0.0 0.0
0.003331069426382719 -0.0018796171337385494 0.0 0.0028691242621584024 0.0 0.0
0.0021637552433388706 -0.0010361599179787376 0.0 0.0022467535900557506 0.0 0.0
0.0014313546553104777 -0.0006173382347095014 0.0 0.001990286410318228 0.0 0.0
0.000998854298034538 -0.0004275077493904545 0.0 0.0019021396009623495 0.0 0.0
0.0006787760143975913 -0.00025782528720470185 0.0 0.001792163179971355 0.0 0.0
0.00038270287318865377 -8.750639506024122e-05 0.0 0.0017400759021636608 0.0 0.0
0.00016432443538649794 -3.226802519460104e-05 0.0 0.0018937832833615244 0.0 0.0
0.0006099225749461105 -0.00035926725132675403 0.0 0.0026261059594817407 0.0 0.0
0.0011292630512864566 -0.004081210238585731 0.0 0.0016765252215111203 0.0 0.0
0.0007999516103192299 -0.003121273550862124 0.0 -0.00152403264688146 0.0 0.0
0.0004124088018308662 -0.00037479038671871045 0.0 -0.0023765407275847684 0.0 0.0
5.675454832166749e-05 -7.81936786408154e-06 0.0 -0.0020574185643531515 0.0 0.0
0.00019419603792363856 -6.9983919549383245e-06 0.0 -0.0019234351817002814 0.0 0.0
0.00041599624945521 -0.00013580348308443851 0.0 -0.0019597804299781242 0.0 0.0
0.0006562392848523038 -0.00027296150130588 0.0 -0.002088491334258841 0.0 0.0
0.0009511611089060737 -0.00040933162438073524 0.0 -0.002226123321976001 0.0 0.0
0.0014032321620184205 -0.0006284600477245091 0.0 -0.00237399239274418 0.0 0.0
0.002125998559785631 -0.0010640634564308316 0.0 -0.002702915033306945 0.0 0.0
0.003165318198718035 -0.0018283705717472148 0.0 -0.0033283905164467054 0.0 0.0
0.004470166861009533 -0.002901194162789883 0.0 -0.0042602454486780185 0.0 0.0
0.005967828800394902 -0.0042033320125436915 0.0 -0.0052888380339010796 0.0 0.0
0.007659530091496745 -0.0057082741489312425 0.0 -0.006362164087434297 0.0 0.0
0.009618371645466141 -0.007504206872261556 0.0 -0.007467835026891397 0.0 0.0
0.011943970280657858 -0.00968209977169602 0.0 -0.008633152000096274 0.0 0.0
0.01473208547708654 -0.012340148823108644 0.0 -0.009872870973165278 0.0 0.0
0.01804143809204562 -0.015529703296286768 0.0 -0.011072121530689979 0.0 0.0
0.0218632789825982 -0.019239232504452926 0.0 -0.011884944699546056 0.0 0.0
0.026197031065213816 -0.023446631114674946 0.0 -0.011814777539272377 0.0 0.0
0.030938487855091255 -0.028177978214435687 0.0 -0.01021790124699442 0.0 0.0
0.03337884916785615 -0.03278415534072755 0.0 9.104696163664272e-15 0.0 0.0
0.03093848785508775 -0.028177978214431184 0.0 0.010217901247019684 0.0 0.0
0.026197031065207026 -0.023446631114664405 0.0 0.01181477753929941 0.0 0.0
0.02186327898258901 -0.019239232504446188 0.0 0.011884944699559048 0.0 0.0
0.018041438092035636 -0.015529703296277675 0.0 0.011072121530688997 0.0 0.0
0.014732085477076738 -0.012340148823098467 0.0 0.009872870973158962 0.0 0.0
0.01194397028064871 -0.009682099771687845 0.0 0.008633152000092468 0.0 0.0
0.009618371645458075 -0.007504206872254724 0.0 0.007467835026888298 0.0 0.0
0.0076595300914887 -0.005708274148923409 0.0 0.006362164087430266 0.0 0.0
0.005967828800386839 -0.00420333201253851 0.0 0.005288838033895003 0.0 0.0
0.004470166861002355 -0.002901194162781816 0.0 0.0042602454486710285 0.0 0.0
0.0031653181987122718 -0.0018283705717409165 0.0 0.0033283905164400406 0.0 0.0
0.002125998559781757 -0.0010640634564273953 0.0 0.002702915033303916 0.0 0.0
0.0014032321620158763 -0.0006284600477222059 0.0 0.0023739923927427577 0.0 0.0
0.0009511611089047828 -0.00040933162438144897 0.0 0.0022261233219740095 0.0 0.0
0.000656239284851705 -0.0002729615013068806 0.0 0.002088491334255745 0.0 0.0
0.00041599624945491036 -0.0001358034830836314 0.0 0.001959780429976304 0.0 0.0
0.00019419603792367247 -6.998391954916739e-06 0.0 0.0019234351816981932 0.0 0.0
5.6754548321521765e-05 -7.819367863261634e-06 0.0 0.0020574185643503313 0.0 0.0
0.0004124088018298387 -0.0003747903867186562 0.0 0.002376540727581513 0.0 0.0
0.0007999516103175332 -0.003121273550856549 0.0 0.0015240326468810756 0.0 0.0
0.0005731191978462378 -0.0024027695392976373 0.0 -0.001449897626362794 0.0 0.0
0.00026572103120559536 -0.00039087039420586996 0.0 -0.0022045952707754083 0.0 0.0
-4.700566565027458e-05 2.3606100313879332e-05 0.0 -0.0021618543204615084 0.0 0.0
1.3922001861864385e-05 6.657566957177817e-05 0.0 -0.002057429480363586 0.0 0.0
0.00015631136258268337 -1.6544726792265324e-05 0.0 -0.0020801847950809374 0.0 0.0
0.0003067642078154546 -0.00011183592314655596 0.0 -0.0022100105045487492 0.0 0.0
0.000472058017361011 -0.0002006757734824365 0.0 -0.0023869789483927403 0.0 0.0
0.0006976219294651134 -0.00030580206580171036 0.0 -0.0025432592661054285 0.0 0.0
0.0010386727261610875 -0.00047210529244913935 0.0 -0.002682775354952016 0.0 0.0
0.0015288268666075158 -0.0007745156644719552 0.0 -0.0029330999246723736 0.0 0.0
0.0021719390435312883 -0.001228588877624609 0.0 -0.00341443927914819 0.0 0.0
0.0029292840950609976 -0.0018150269549072468 0.0 -0.004097990933713537 0.0 0.0
0.003782218152389556 -0.0025038121742090554 0.0 -0.0049082007550963445 0.0 0.0
0.004771948913035381 -0.0033357912449698685 0.0 -0.005812369417206014 0.0 0.0
0.005953429787630796 -0.0043654377345417805 0.0 -0.006805078471062846 0.0 0.0
0.007414866610356847 -0.0056909577763083795 0.0 -0.007909065542287782 0.0 0.0
0.009283140759659622 -0.00742485342035679 0.0 -0.00904709137451149 0.0 0.0
0.011700790799431086 -0.009712020336711154 0.0 -0.009923977022624673 0.0 0.0
0.01476870487524748 -0.012658241954956122 0.0 -0.009977560243766767 0.0 0.0
0.018766338578180386 -0.01644105390838343 0.0 -0.00890447179639704 0.0 0.0
0.021060112750367472 -0.02139788258094099 0.0 7.968885967768458e-15 0.0 0.0
0.018766338578179022 -0.016441053908382786 0.0 0.008904471796417616 0.0 0.0
0.014768704875243586 -0.012658241954952222 0.0 0.00997756024378652 0.0 0.0
0.01170079079942532 -0.009712020336707925 0.0 0.00992397702263231 0.0 0.0
0.009283140759654349 -0.007424853420352501 0.0 0.009047091374509764 0.0 0.0
0.007414866610352436 -0.0056909577763029255 0.0 0.007909065542282398 0.0 0.0
0.005953429787626922 -0.004365437734539423 0.0 0.0068050784710589375 0.0 0.0
0.004771948913032197 -0.0033357912449656284 0.0 0.00581236941720563 0.0 0.0
0.0037822181523864706 -0.002503812174204571 0.0 0.004908200755093436 0.0 0.0
0.002929284095057754 -0.0018150269549080114 0.0 0.004097990933708626 0.0 0.0
0.002171939043528067 -0.001228588877621771 0.0 0.003414439279141781 0.0 0.0
0.0015288268666050725 -0.00077451566446902 0.0 0.0029330999246685897 0.0 0.0
0.001038672726159585 -0.00047210529244383424 0.0 0.0026827753549511675 0.0 0.0
0.000697621929464076 -0.00030580206580284124 0.0 0.002543259266103101 0.0 0.0
0.00047205801736062 -0.00020067577348176351 0.0 0.0023869789483908564 0.0 0.0
0.00030676420781531406 -0.00011183592314643552 0.0 0.002210010504546068 0.0 0.0
0.0001563113625826101 -1.654472679156797e-05 0.0 0.0020801847950788622 0.0 0.0
1.3922001861656323e-05 6.657566957164808e-05 0.0 0.0020574294803619255 0.0 0.0
-4.700566565038512e-05 2.3606100314867833e-05 0.0 0.002161854320459131 0.0 0.0
0.0002657210312052099 -0.000390870394206334 0.0 0.002204595270773312 0.0 0.0
0.0005731191978452754 -0.002402769539294074 0.0 0.0014498976263625414 0.0 0.0
0.00041354795614760565 -0.0018721200922628628 0.0 -0.001396424287616104 0.0 0.0
0.00015587657294879265 -0.00039097993757327223 0.0 -0.0020750702769125494 0.0 0.0
-0.00014360719681387522 5.530860027214733e-05 0.0 -0.002214064466440594 0.0 0.0
-0.00015858789362985758 0.00013584597261682315 0.0 -0.002138588544693505 0.0 0.0
-9.86741169686771e-05 9.884855470128706e-05 0.0 -0.002147702028075855 0.0 0.0
-4.465520051335934e-05 4.998752955419014e-05 0.0 -0.002263569963658996 0.0 0.0
-1.4563226929792126e-05 1.4172393989355591e-05 0.0 -0.002444684163178242 0.0 0.0
-2.884578248221192e-06 2.4579967092182353e-06 0.0 -0.002623853692413354 0.0 0.0
2.089571476703619e-07 -6.216213881027428e-07 0.0 -0.002731338901289847 0.0 0.0
5.516792096866782e-07 -1.916754015428247e-07 0.0 -0.002836817014946263 0.0 0.0
8.132358368965684e-07 -1.9276675883590614e-06 0.0 -0.003051856968444529 0.0 0.0
-1.3967148339915042e-06 1.3725086502163473e-06 0.0 -0.003520432305602097 0.0 0.0
-8.647623762497844e-06 6.883745014121828e-06 0.0 -0.004145802990143194 0.0 0.0
-1.7305898950117048e-05 1.4190537273626764e-05 0.0 -0.0049243035874016435 0.0 0.0
-5.9204357360684e-06 1.2945497003220635e-05 0.0 -0.005874832302660176 0.0 0.0
0.00011225735683512226 -6.913757351068663e-05 0.0 -0.007001020849217865 0.0 0.0
0.0005345246740629135 -0.0004001753279579126 0.0 -0.0082714348160431 0.0 0.0
0.0015511499838145124 -0.0012402247337561694 0.0 -0.00954962048189474 0.0 0.0
0.0033943436255053855 -0.0028235770650203193 0.0 -0.010546347454279808 0.0 0.0
0.006299408450965969 -0.0051570944752888795 0.0 -0.010663927191963327 0.0 0.0
0.008058323774365984 -0.0103828406133679 0.0 7.116269379325857e-15 0.0 0.0
0.006299408450965968 -0.005157094475289686 0.0 0.010663927191979002 0.0 0.0
0.003394343625503873 -0.002823577065021733 0.0 0.010546347454291179 0.0 0.0
0.0015511499838133007 -0.0012402247337566356 0.0 0.009549620481897331 0.0 0.0
0.0005345246740632734 -0.00040017532795677015 0.0 0.008271434816040332 0.0 0.0
0.00011225735683604817 -6.913757351185941e-05 0.0 0.007001020849213403 0.0 0.0
-5.920435734878596e-06 1.2945497002546396e-05 0.0 0.005874832302655855 0.0 0.0
-1.7305898948309574e-05 1.4190537271809668e-05 0.0 0.004924303587399456 0.0 0.0
-8.647623760495377e-06 6.883745013436937e-06 0.0 0.004145802990139011 0.0 0.0
-1.3967148319347727e-06 1.372508648670126e-06 0.0 0.003520432305597945 0.0 0.0
8.132358384340755e-07 -1.927667588155977e-06 0.0 0.003051856968439641 0.0 0.0
5.516792106285517e-07 -1.9167540233381794e-07 0.0 0.0028368170149442157 0.0 0.0
2.08957148467508e-07 -6.216213852510166e-07 0.0 0.0027313389012891738 0.0 0.0
-2.884578247880522e-06 2.457996708841587e-06 0.0 0.0026238536924111737 0.0 0.0
-1.4563226929544386e-05 1.417239399044698e-05 0.0 0.00244468416317653 0.0 0.0
-4.46552005130881e-05 4.9987529554573255e-05 0.0 0.00226356996365623 0.0 0.0
-9.867411696838873e-05 9.884855470178662e-05 0.0 0.0021477020280735205 0.0 0.0
-0.00015858789362962583 0.00013584597261714058 0.0 0.002138588544691069 0.0 0.0
-0.00014360719681378876 5.530860027261991e-05 0.0 0.002214064466438551 0.0 0.0
0.00015587657294848534 -0.000390979937573831 0.0 0.0020750702769108077 0.0 0.0
0.00041354795614686595 -0.0018721200922605862 0.0 0.0013964242876155339 0.0 0.0
0.00030358422142730284 -0.001460163996650549 0.0 -0.0013141156482537884 0.0 0.0
7.3352936275529e-05 -0.0003695853844970401 0.0 -0.0019505376564788392 0.0 0.0
-0.00023333381593348696 8.498577591144497e-05 0.0 -0.002215836634243887 0.0 0.0
-0.0003229366899369717 0.00020145879393747393 0.0 -0.0021656389994520768 0.0 0.0
-0.00034713584211082176 0.00020901335155682334 0.0 -0.002158672768356984 0.0 0.0
-0.00039201353380971516 0.0002095611755041283 0.0 -0.0022471720149972443 0.0 0.0
-0.0005004781336404951 0.00022872718633527465 0.0 -0.0024026098741867447 0.0 0.0
-0.0007038054251072901 0.0003105432626379744 0.0 -0.002548379399007744 0.0 0.0
-0.0010380493946367346 0.00047094236783295086 0.0 -0.002684084203300096 0.0 0.0
-0.0015269485434285207 0.0007731664379038184 0.0 -0.0029317914638688288 0.0 0.0
-0.002170115706660767 0.0012263284576416221 0.0 -0.0034097326377496343 0.0 0.0
-0.0029327460565719207 0.001818104531146903 0.0 -0.004096861513395225 0.0 0.0
-0.003799463211603539 0.002518507791493914 0.0 -0.004902191885743493 0.0 0.0
-0.004806984628928072 0.0033684670700195466 0.0 -0.005799738989100223 0.0 0.0
-0.00596494029187947 0.004394557463802319 0.0 -0.006813542338235626 0.0 0.0
-0.007198257753083864 0.005552791581464643 0.0 -0.008021434993160333 0.0 0.0
-0.008287648057788394 0.006630215383610154 0.0 -0.009501596918321446 0.0 0.0
-0.008855565600213486 0.007259467689834332 0.0 -0.011307773128600405 0.0 0.0
-0.008430347616630493 0.007008424412512157 0.0 -0.013304952816121313 0.0 0.0
-0.005902221426289994 0.005155362026033135 0.0 -0.014114668635418036 0.0 0.0
-0.003896813521847798 -0.0006814574695916814 0.0 8.530502693115949e-15 0.0 0.0
-0.005902221426290476 0.005155362026037948 0.0 0.014114668635433012 0.0 0.0
-0.008430347616628944 0.007008424412508516 0.0 0.013304952816132382 0.0 0.0
-0.008855565600208665 0.007259467689829324 0.0 0.011307773128604964 0.0 0.0
-0.008287648057781864 0.006630215383605229 0.0 0.009501596918317394 0.0 0.0
-0.007198257753077478 0.005552791581455586 0.0 0.00802143499315505 0.0 0.0
-0.005964940291873294 0.004394557463795599 0.0 0.0068135423382308 0.0 0.0
-0.004806984628921406 0.0033684670700137058 0.0 0.005799738989095957 0.0 0.0
-0.0037994632115964065 0.002518507791486634 0.0 0.004902191885738976 0.0 0.0
-0.0029327460565650217 0.0018181045311416958 0.0 0.004096861513388672 0.0 0.0
-0.0021701157066548555 0.0012263284576368588 0.0 0.003409732637743336 0.0 0.0
-0.0015269485434242487 0.0007731664378981206 0.0 0.00293179146386577 0.0 0.0
-0.0010380493946342403 0.0004709423678331434 0.0 0.002684084203299127 0.0 0.0
-0.000703805425105606 0.00031054326263713083 0.0 0.002548379399005936 0.0 0.0
-0.0005004781336393503 0.00022872718633590148 0.0 0.0024026098741844167 0.0 0.0
-0.00039201353380906225 0.00020956117550348645 0.0 0.0022471720149945806 0.0 0.0
-0.000347135842110327 0.0002090133515563562 0.0 0.0021586727683552383 0.0 0.0
-0.00032293668993658357 0.000201458793937757 0.0 0.002165638999449643 0.0 0.0
-0.00023333381593327115 8.49857759114206e-05 0.0 0.002215836634241925 0.0 0.0
7.335293627556405e-05 -0.0003695853844970807 0.0 0.0019505376564776986 0.0 0.0
0.000303584221427229 -0.001460163996648814 0.0 0.0013141156482525216 0.0 0.0
0.00021563857217480595 -0.0011113804820676366 0.0 -0.0011860284312552073 0.0 0.0
4.11917104322151e-06 -0.0003316198960252176 0.0 -0.0018146706279018212 0.0 0.0
-0.000316792679163794 0.00011421367311391874 0.0 -0.0021654814012705696 0.0 0.0
-0.00047920546797855913 0.00026292973557876946 0.0 -0.0021383930714392483 0.0 0.0
-0.0005875689740360464 0.0003134256946738098 0.0 -0.0021108987817261304 0.0 0.0
-0.0007322309808967315 0.0003627728289974787 0.0 -0.0021625024222084485 0.0 0.0
-0.0009766448524626274 0.0004371692268423429 0.0 -0.0022583387159746744 0.0 0.0
-0.0014082257904494244 0.0006328067639196324 0.0 -0.002384707022152366 0.0 0.0
-0.0021248164951372227 0.0010621717777347759 0.0 -0.002703337106303322 0.0 0.0
-0.0031629743338722873 0.0018257712157631633 0.0 -0.003324453499453345 0.0 0.0
-0.004469217490632103 0.002901101519681224 0.0 -0.0042576795225076165 0.0 0.0
-0.005971000038359517 0.00420664000308176 0.0 -0.00528841343740874 0.0 0.0
-0.007673778233286105 0.005721571804302722 0.0 -0.006348059778278461 0.0 0.0
-0.009650592493784927 0.007537036954376743 0.0 -0.007427512216641478 0.0 0.0
-0.01196086221081558 0.009713897552028799 0.0 -0.008605540374215442 0.0 0.0
-0.01455109624198389 0.012223887457859902 0.0 -0.010059294397784947 0.0 0.0
-0.017164602850689162 0.014821627473353114 0.0 -0.01200135968178702 0.0 0.0
-0.019307589360775212 0.017006380214593744 0.0 -0.014534490328620572 0.0 0.0
-0.02004395263425918 0.017907651566110724 0.0 -0.017135683532172492 0.0 0.0
-0.017752627168916124 0.015801178427416743 0.0 -0.017654224035095967 0.0 0.0
-0.015602011143158272 0.00824488701707598 0.0 9.841086279216427e-15 0.0 0.0
-0.017752627168915732 0.015801178427417795 0.0 0.017654224035116538 0.0 0.0
-0.020043952634254986 0.017907651566109677 0.0 0.01713568353219269 0.0 0.0
-0.019307589360766146 0.017006380214582773 0.0 0.014534490328629288 0.0 0.0
-0.017164602850677325 0.01482162747334096 0.0 0.01200135968178425 0.0 0.0
-0.014551096241972063 0.012223887457847525 0.0 0.010059294397778518 0.0 0.0
-0.011960862210804762 0.009713897552021193 0.0 0.008605540374209155 0.0 0.0
-0.009650592493773567 0.0075370369543678525 0.0 0.00742751221663519 0.0 0.0
-0.007673778233274005 0.005721571804289778 0.0 0.006348059778273071 0.0 0.0
-0.005971000038347639 0.004206640003072053 0.0 0.005288413437398819 0.0 0.0
-0.004469217490621524 0.002901101519671291 0.0 0.004257679522497613 0.0 0.0
-0.0031629743338641996 0.0018257712157542278 0.0 0.0033244534994463313 0.0 0.0
-0.0021248164951319258 0.001062171777732434 0.0 0.002703337106301064 0.0 0.0
-0.0014082257904464088 0.0006328067639176489 0.0 0.0023847070221506956 0.0 0.0
-0.0009766448524609996 0.0004371692268421183 0.0 0.002258338715972307 0.0 0.0
-0.0007322309808957733 0.0003627728289954071 0.0 0.0021625024222061175 0.0 0.0
-0.0005875689740355132 0.0003134256946737003 0.0 0.002110898781723868 0.0 0.0
-0.0004792054679781196 0.00026292973557846616 0.0 0.0021383930714371606 0.0 0.0
-0.00031679267916347485 0.0001142136731138734 0.0 0.0021654814012685643 0.0 0.0
4.119171043095109e-06 -0.00033161989602508595 0.0 0.001814670627900404 0.0 0.0
0.00021563857217444328 -0.0011113804820663579 0.0 0.0011860284312532705 0.0 0.0
0.00013855207280132027 -0.0008132625705617107 0.0 -0.0010394381143355512 0.0 0.0
-5.8836291085404584e-05 -0.0002798102599940282 0.0 -0.001656034737180085 0.0 0.0
-0.00039589287284866445 0.00014417154644915948 0.0 -0.002063739801723251 0.0 0.0
-0.000627556474136473 0.00032028630727309816 0.0 -0.0020563994395437915 0.0 0.0
-0.0008188454209509486 0.00041095244458792894 0.0 -0.0020062029270135084 0.0 0.0
-0.001059210706819242 0.0005052467430763253 0.0 -0.002002795282158704 0.0 0.0
-0.001452400836609219 0.0006451142354374252 0.0 -0.0020366692007109627 0.0 0.0
-0.0021674212607421775 0.0010389341740045545 0.0 -0.0022596320813195 0.0 0.0
-0.0033285404858960765 0.0018761905892573719 0.0 -0.0028661492015039296 0.0 0.0
-0.004927574723100792 0.003210685963626101 0.0 -0.0038726350009478817 0.0 0.0
-0.006865806196430232 0.004929197075204013 0.0 -0.005079166533758062 0.0 0.0
-0.009075473794574572 0.006936873443393566 0.0 -0.006275724014025801 0.0 0.0
-0.011601443346108508 0.009263748565625455 0.0 -0.007443107085351966 0.0 0.0
-0.014557653615032126 0.01203650764300529 0.0 -0.00863744264814676 0.0 0.0
-0.0180445521166904 0.015365551214650927 0.0 -0.00999269478534717 0.0 0.0
-0.02203133328987977 0.01925243381739787 0.0 -0.011741577793725472 0.0 0.0
-0.026223995394094483 0.02342757432745252 0.0 -0.014253261298177085 0.0 0.0
-0.029888600942134295 0.027195414760944996 0.0 -0.01766160605945017 0.0 0.0
-0.03162650117567236 0.02915529893259105 0.0 -0.021039483223573498 0.0 0.0
-0.029054954015274227 0.027020092567878466 0.0 -0.022145482870527054 0.0 0.0
-0.026319826607757987 0.01693948607090053 0.0 1.1532441668293814e-14 0.0 0.0
-0.029054954015272416 0.02702009256787656 0.0 0.02214548287055231 0.0 0.0
-0.031626501175665046 0.029155298932589606 0.0 0.0210394832235989 0.0 0.0
-0.029888600942121327 0.027195414760932516 0.0 0.017661606059461658 0.0 0.0
-0.02622399539407836 0.02342757432743542 0.0 0.014253261298175973 0.0 0.0
-0.02203133328986348 0.019252433817383112 0.0 0.011741577793718792 0.0 0.0
-0.018044552116674606 0.01536555121463742 0.0 0.009992694785339281 0.0 0.0
-0.014557653615015601 0.012036507642989767 0.0 0.008637442648139378 0.0 0.0
-0.011601443346091542 0.009263748565609308 0.0 0.007443107085343978 0.0 0.0
-0.009075473794558305 0.006936873443378195 0.0 0.006275724014015379 0.0 0.0
-0.006865806196415371 0.004929197075190089 0.0 0.005079166533745278 0.0 0.0
-0.0049275747230888185 0.003210685963617806 0.0 0.003872635000938651 0.0 0.0
-0.003328540485887848 0.001876190589251371 0.0 0.0028661492014995776 0.0 0.0
-0.0021674212607372956 0.0010389341740009166 0.0 0.002259632081316192 0.0 0.0
-0.0014524008366065867 0.0006451142354351752 0.0 0.0020366692007090857 0.0 0.0
-0.0010592107068178173 0.0005052467430755794 0.0 0.002002795282156637 0.0 0.0
-0.0008188454209500457 0.000410952444587692 0.0 0.0020062029270111158 0.0 0.0
-0.0006275564741357714 0.00032028630727241105 0.0 0.002056399439542396 0.0 0.0
-0.0003958928728482521 0.00014417154644935445 0.0 0.002063739801721557 0.0 0.0
-5.883629108529627e-05 -0.0002798102599934927 0.0 0.0016560347371783286 0.0 0.0
0.0001385520728013287 -0.0008132625705609349 0.0 0.0010394381143338902 0.0 0.0
6.938275800545812e-05 -0.0005618630272859664 0.0 -0.0008862670260960932 0.0 0.0
-0.00011797268493184815 -0.00021831833900590915 0.0 -0.001473162730833683 0.0 0.0
-0.00047214511801025325 0.00017602873243723202 0.0 -0.0019116887272293656 0.0 0.0
-0.0007688106314847101 0.0003736518991922019 0.0 -0.0019200763372788279 0.0 0.0
-0.0010379627572839937 0.0005004374576257976 0.0 -0.0018439590905970542 0.0 0.0
-0.0013770759808412005 0.000633366436183413 0.0 -0.001768716238235012 0.0 0.0
-0.001958962520453216 0.0008910653300946306 0.0 -0.0018027109790328942 0.0 0.0
-0.003008251577878251 0.0015806701281815326 0.0 -0.0021796034706315797 0.0 0.0
-0.004633110110554846 0.002897329428662779 0.0 -0.00303287013232175 0.0 0.0
-0.00677258659237258 0.004786619192852877 0.0 -0.004235179625921293 0.0 0.0
-0.009310099241906357 0.007103127257972406 0.0 -0.005495878826332702 0.0 0.0
-0.01221781919803361 0.009797413994266015 0.0 -0.006723634814353387 0.0 0.0
-0.015576860098857725 0.012937445213699012 0.0 -0.00793064887115233 0.0 0.0
-0.019528216747507106 0.016677128497579276 0.0 -0.009198540588055953 0.0 0.0
-0.02420612653212435 0.021166877234956638 0.0 -0.010643482160753434 0.0 0.0
-0.029613555464817087 0.026449300012068824 0.0 -0.012549953165742497 0.0 0.0
-0.0353957962937269 0.032221906687352815 0.0 -0.01534874914461275 0.0 0.0
-0.04053781430326973 0.03752820250923376 0.0 -0.019234690445161358 0.0 0.0
-0.04310469492997641 0.040450675591205874 0.0 -0.023379832912272195 0.0 0.0
-0.039946355298632844 0.037918299232135175 0.0 -0.025341761106595986 0.0 0.0
-0.036454784511754976 0.02534413196392358 0.0 1.140927630149946e-14 0.0 0.0
-0.039946355298629284 0.03791829923213177 0.0 0.025341761106625418 0.0 0.0
-0.04310469492996655 0.04045067559119894 0.0 0.023379832912300846 0.0 0.0
-0.04053781430325351 0.037528202509220544 0.0 0.01923469044517602 0.0 0.0
-0.035395796293706844 0.032221906687331915 0.0 0.015348749144613219 0.0 0.0
-0.029613555464796264 0.0264493000120492 0.0 0.012549953165737524 0.0 0.0
-0.02420612653210379 0.021166877234934742 0.0 0.01064348216074528 0.0 0.0
-0.01952821674748593 0.016677128497558702 0.0 0.009198540588049552 0.0 0.0
-0.015576860098835965 0.012937445213678624 0.0 0.007930648871142922 0.0 0.0
-0.012217819198012798 0.009797413994245273 0.0 0.006723634814343732 0.0 0.0
-0.009310099241887537 0.007103127257953526 0.0 0.005495878826319773 0.0 0.0
-0.006772586592357054 0.004786619192839614 0.0 0.004235179625910679 0.0 0.0
-0.004633110110543513 0.0028973294286543925 0.0 0.0030328701323151393 0.0 0.0
-0.003008251577870914 0.001580670128176522 0.0 0.002179603470626973 0.0 0.0
-0.0019589625204494174 0.0008910653300933402 0.0 0.0018027109790310328 0.0 0.0
-0.001377075980839548 0.0006333664361832733 0.0 0.001768716238234414 0.0 0.0
-0.0010379627572828288 0.000500437457624373 0.0 0.0018439590905953611 0.0 0.0
-0.0007688106314839014 0.0003736518991912933 0.0 0.001920076337277712 0.0 0.0
-0.0004721451180098532 0.00017602873243725774 0.0 0.0019116887272277788 0.0 0.0
-0.00011797268493170582 -0.00021831833900550006 0.0 0.0014731627308324717 0.0 0.0
6.938275800539361e-05 -0.0005618630272854256 0.0 0.0008862670260947449 0.0 0.0
8.076983145859113e-06 -0.00035548509576149303 0.0 -0.0007295390804745554 0.0 0.0
-0.00017334219785880074 -0.0001517109311608736 0.0 -0.0012676332577146072 0.0 0.0
-0.0005460838943113367 0.0002100524831704236 0.0 -0.0017108176515174614 0.0 0.0
-0.000902943495847487 0.0004232606462272873 0.0 -0.0017301523130703175 0.0 0.0
-0.0012446489431323328 0.000580422407649685 0.0 -0.0016239505301757213 0.0 0.0
-0.0017010313055710082 0.0007628001839250861 0.0 -0.0014946656177293202 0.0 0.0
-0.0025138013578768 0.0012056860063101153 0.0 -0.001565367632869051 0.0 0.0
-0.003929706309535556 0.0022618959081641653 0.0 -0.002083426525457293 0.0 0.0
-0.006011859629910449 0.004063028880950827 0.0 -0.0030836356853697062 0.0 0.0
-0.008652519702858638 0.006455929773197438 0.0 -0.004270883703411952 0.0 0.0
-0.011772717061598926 0.009345904108532477 0.0 -0.005475299039525409 0.0 0.0
-0.015390139399830017 0.012729646613362592 0.0 -0.006661010997804403 0.0 0.0
-0.019597828426643434 0.016694513465348334 0.0 -0.007847726128871472 0.0 0.0
-0.02455442902297586 0.0214145145028592 0.0 -0.009121915820051658 0.0 0.0
-0.03042658531962294 0.02706700457088169 0.0 -0.010590033449533172 0.0 0.0
-0.037237211668819825 0.03372232898736519 0.0 -0.012447375500457138 0.0 0.0
-0.044566834410817574 0.041052706176723484 0.0 -0.015132909763854403 0.0 0.0
-0.05113843231733579 0.0478616520379606 0.0 -0.019081858661033776 0.0 0.0
-0.054448017881777104 0.05167257639928293 0.0 -0.02383928679696195 0.0 0.0
-0.05065760689629931 0.04866790372923318 0.0 -0.027436224699583345 0.0 0.0
-0.04642604776562738 0.03371784631302083 0.0 1.1332081106818492e-14 0.0 0.0
-0.0506576068962935 0.048667903729222646 0.0 0.027436224699612856 0.0 0.0
-0.05444801788176445 0.051672576399272974 0.0 0.02383928679699001 0.0 0.0
-0.051138432317316414 0.047861652037942966 0.0 0.01908185866104968 0.0 0.0
-0.04456683441079353 0.041052706176700926 0.0 0.015132909763855895 0.0 0.0
-0.037237211668794824 0.03372232898734317 0.0 0.012447375500453807 0.0 0.0
-0.030426585319597764 0.02706700457085602 0.0 0.010590033449526802 0.0 0.0
-0.02455442902294981 0.02141451450283657 0.0 0.009121915820046003 0.0 0.0
-0.019597828426617052 0.016694513465322868 0.0 0.007847726128863183 0.0 0.0
-0.0153901393998046 0.01272964661333861 0.0 0.006661010997794545 0.0 0.0
-0.01177271706157614 0.00934590410850653 0.0 0.00547529903951269 0.0 0.0
-0.008652519702839657 0.006455929773176599 0.0 0.004270883703401866 0.0 0.0
-0.006011859629896232 0.004063028880940835 0.0 0.0030836356853621897 0.0 0.0
-0.003929706309525966 0.002261895908157717 0.0 0.002083426525452828 0.0 0.0
-0.0025138013578714044 0.001205686006307861 0.0 0.0015653676328659827 0.0 0.0
-0.0017010313055686175 0.0007628001839245066 0.0 0.0014946656177286931 0.0 0.0
-0.001244648943131019 0.000580422407649127 0.0 0.001623950530175056 0.0 0.0
-0.0009029434958465195 0.00042326064622712884 0.0 0.0017301523130689462 0.0 0.0
-0.0005460838943108379 0.00021005248317018262 0.0 0.00171081765151575 0.0 0.0
-0.00017334219785862325 -0.0001517109311610577 0.0 0.0012676332577135842 0.0 0.0
8.076983145955572e-06 -0.0003554850957609565 0.0 0.0007295390804744104 0.0 0.0
-4.397213125684112e-05 -0.00019396996078751143 0.0 -0.0005708567272510118 0.0 0.0
-0.0002233638156727383 -8.43410398369493e-05 0.0 -0.0010414961013792195 0.0 0.0
-0.0006171934554463647 0.00024518406379151777 0.0 -0.0014626341984075148 0.0 0.0
-0.001030317252007923 0.0004698939255640491 0.0 -0.0014859754101641757 0.0 0.0
-0.0014470246027484656 0.0006498182552491916 0.0 -0.0013516991326699937 0.0 0.0
-0.002042633010222583 0.0009154329459689393 0.0 -0.0011961356021901008 0.0 0.0
-0.003125238479716592 0.0016069954030564415 0.0 -0.0013181325276616195 0.0 0.0
-0.004921639714026186 0.0030738075164097605 0.0 -0.001954751539643133 0.0 0.0
-0.007422488148725403 0.00530108949866909 0.0 -0.0029012133073168674 0.0 0.0
-0.010539663214894546 0.008166953207785401 0.0 -0.0039548863463457545 0.0 0.0
-0.014249523071410374 0.011629897309844829 0.0 -0.0050502944396829536 0.0 0.0
-0.01858356747351471 0.01570725034256526 0.0 -0.006126534476656037 0.0 0.0
-0.023654433140556576 0.02051174151757447 0.0 -0.007220745782617501 0.0 0.0
-0.029634799469594436 0.026229778757548592 0.0 -0.008430311772259195 0.0 0.0
-0.036683321826586145 0.033037581049611534 0.0 -0.00983422143859394 0.0 0.0
-0.04482826282444055 0.04099997107800014 0.0 -0.011492750126100423 0.0 0.0
-0.053628962176193756 0.04978576769115188 0.0 -0.013692082291462184 0.0 0.0
-0.06158002766180053 0.058040978709640326 0.0 -0.017177438154830756 0.0 0.0
-0.06567460249936585 0.06279342162155152 0.0 -0.022420946564154734 0.0 0.0
-0.06141575148982088 0.05950722014201881 0.0 -0.028637919532757346 0.0 0.0
-0.05655050491923201 0.042361499973427315 0.0 1.223500467606442e-14 0.0 0.0
-0.06141575148981304 0.05950722014200725 0.0 0.02863791953278609 0.0 0.0
-0.06567460249935049 0.06279342162154036 0.0 0.022420946564182143 0.0 0.0
-0.06158002766177795 0.058040978709617025 0.0 0.017177438154846587 0.0 0.0
-0.05362896217616632 0.049785767691125894 0.0 0.013692082291464864 0.0 0.0
-0.04482826282441131 0.04099997107797242 0.0 0.011492750126098164 0.0 0.0
-0.036683321826556405 0.03303758104958193 0.0 0.009834221438589507 0.0 0.0
-0.029634799469563912 0.026229778757521447 0.0 0.008430311772253474 0.0 0.0
-0.02365443314052567 0.02051174151754341 0.0 0.007220745782610135 0.0 0.0
-0.01858356747348511 0.01570725034253807 0.0 0.006126534476646535 0.0 0.0
-0.014249523071383687 0.011629897309816433 0.0 0.005050294439671522 0.0 0.0
-0.01053966321487239 0.008166953207764336 0.0 0.00395488634633749 0.0 0.0
-0.007422488148708316 0.005301089498654901 0.0 0.0029012133073100946 0.0 0.0
-0.004921639714013778 0.003073807516400147 0.0 0.0019547515396371026 0.0 0.0
-0.003125238479709601 0.0016069954030515428 0.0 0.0013181325276590146 0.0 0.0
-0.0020426330102194 0.0009154329459669516 0.0 0.0011961356021896216 0.0 0.0
-0.0014470246027467322 0.0006498182552485105 0.0 0.0013516991326699061 0.0 0.0
-0.0010303172520067655 0.00046989392556398416 0.0 0.0014859754101625875 0.0 0.0
-0.0006171934554456874 0.00024518406379128005 0.0 0.0014626341984060275 0.0 0.0
-0.00022336381567240462 -8.434103983683684e-05 0.0 0.0010414961013783704 0.0 0.0
-4.397213125656167e-05 -0.00019396996078716082 0.0 0.0005708567272514498 0.0 0.0
-8.40185974207478e-05 -7.81144092127346e-05 0.0 -0.0004138553963681181 0.0 0.0
-0.0002649010001494017 -2.0736839683788598e-05 0.0 -0.0007973319316189714 0.0 0.0
-0.0006834683629554562 0.0002793189108431862 0.0 -0.0011663219257926883 0.0 0.0
-0.001152814657801423 0.0005136537590950532 0.0 -0.0011866569499045317 0.0 0.0
-0.0016517633927173813 0.0007160237956553509 0.0 -0.001031346425845493 0.0 0.0
-0.0024172445426206774 0.0011044040551040216 0.0 -0.0008659280375259266 0.0 0.0
-0.0038016390101572994 0.002115394099088168 0.0 -0.0010793732851191835 0.0 0.0
-0.005948655398720114 0.003959162192037967 0.0 -0.0016847724599487607 0.0 0.0
-0.008832914208837157 0.006565964239490761 0.0 -0.002449254439729282 0.0 0.0
-0.01242896297815115 0.009901541850775786 0.0 -0.0033267329188439304 0.0 0.0
-0.016729534545314194 0.013936265141633219 0.0 -0.004239673370363661 0.0 0.0
-0.021789422270197506 0.01871471762732835 0.0 -0.005138990124021151 0.0 0.0
-0.027740423996948614 0.024372760738238554 0.0 -0.006061678543736165 0.0 0.0
-0.0347527991847015 0.031105408074755682 0.0 -0.007117307832784803 0.0 0.0
-0.04296220062286367 0.03906205426485456 0.0 -0.008375845127297856 0.0 0.0
-0.05234570780039256 0.04824316456033427 0.0 -0.00976609765160502 0.0 0.0
-0.06244929665341288 0.05828832637559836 0.0 -0.01123350657280417 0.0 0.0
-0.07172939185883767 0.06788638784759339 0.0 -0.013583810447005715 0.0 0.0
-0.0768219747477038 0.0738038063543537 0.0 -0.019010477778318175 0.0 0.0
-0.07244959063364885 0.07068335587621587 0.0 -0.028724305646867815 0.0 0.0
-0.06712853097119821 0.0516036054785751 0.0 1.1221926166093965e-14 0.0 0.0
-0.07244959063363993 0.07068335587621075 0.0 0.028724305646890498 0.0 0.0
-0.07682197474768514 0.0738038063543384 0.0 0.019010477778342433 0.0 0.0
-0.0717293918588113 0.06788638784756593 0.0 0.013583810447020152 0.0 0.0
-0.0624492966533814 0.05828832637556862 0.0 0.011233506572807457 0.0 0.0
-0.05234570780035899 0.04824316456029972 0.0 0.00976609765160435 0.0 0.0
-0.0429622006228294 0.03906205426482455 0.0 0.008375845127294395 0.0 0.0
-0.03475279918466638 0.031105408074723825 0.0 0.007117307832778745 0.0 0.0
-0.027740423996912945 0.02437276073820325 0.0 0.00606167854373056 0.0 0.0
-0.021789422270163318 0.018714717627297643 0.0 0.005138990124014015 0.0 0.0
-0.016729534545283847 0.013936265141603583 0.0 0.004239673370354909 0.0 0.0
-0.01242896297812578 0.00990154185075036 0.0 0.0033267329188353336 0.0 0.0
-0.008832914208817266 0.00656596423947254 0.0 0.002449254439724394 0.0 0.0
-0.005948655398705589 0.003959162192025102 0.0 0.0016847724599435999 0.0 0.0
-0.0038016390101481756 0.0021153940990815984 0.0 0.001079373285115838 0.0 0.0
-0.0024172445426162733 0.0011044040551014692 0.0 0.000865928037525101 0.0 0.0
-0.001651763392715811 0.0007160237956541203 0.0 0.0010313464258456737 0.0 0.0
-0.0011528146578006502 0.0005136537590942886 0.0 0.0011866569499027256 0.0 0.0
-0.0006834683629548156 0.0002793189108425925 0.0 0.001166321925791369 0.0 0.0
-0.0002649010001491708 -2.073683968350837e-05 0.0 0.0007973319316180749 0.0 0.0
-8.401859742076548e-05 -7.811440921265647e-05 0.0 0.0004138553963683788 0.0 0.0
-0.00010750522235899041 -8.932847488584973e-06 0.0 -0.0002677653063151569 0.0 0.0
-0.0002924880062276501 3.3340132191012317e-05 0.0 -0.0005386172795912707 0.0 0.0
-0.0007417857940443174 0.00030902045528794663 0.0 -0.000816494495081646 0.0 0.0
-0.0012730032813168968 0.0005557259529969058 0.0 -0.0008287609596480755 0.0 0.0
-0.0018693098287249671 0.000790367373035324 0.0 -0.0006687886321954699 0.0 0.0
-0.0028418947006264767 0.0013629028302897814 0.0 -0.000536332833211117 0.0 0.0
-0.004520092626891779 0.0027086262311445666 0.0 -0.000784427023418919 0.0 0.0
-0.006981354320759504 0.0048665020450707405 0.0 -0.0012111307501920165 0.0 0.0
-0.010240161614353548 0.007846160047344711 0.0 -0.0017635777118225014 0.0 0.0
-0.014309375696748824 0.011643746813840982 0.0 -0.0023972606398883797 0.0 0.0
-0.01920404415339525 0.016250882732216327 0.0 -0.0030572270248973355 0.0 0.0
-0.02499809972501527 0.021738634062306087 0.0 -0.003704559202657519 0.0 0.0
-0.03183910911165384 0.02826426549921146 0.0 -0.004380709237855005 0.0 0.0
-0.039899826001498453 0.03602309390891582 0.0 -0.005200315736483017 0.0 0.0
-0.04925524634999584 0.045118846449897936 0.0 -0.006195096699724113 0.0 0.0
-0.059763592423809464 0.05543959766673624 0.0 -0.007234571155981373 0.0 0.0
-0.07092415217292021 0.066508253250033 0.0 -0.008043078123812721 0.0 0.0
-0.08141646667597939 0.0771576100070453 0.0 -0.008930941834447016 0.0 0.0
-0.08785106888542542 0.08455188041437928 0.0 -0.013093840994914924 0.0 0.0
-0.0840007098461455 0.08248757359916802 0.0 -0.026827819885089386 0.0 0.0
-0.07855617505908337 0.06194095593663361 0.0 8.723924360687363e-15 0.0 0.0
-0.08400070984613492 0.08248757359916067 0.0 0.026827819885108656 0.0 0.0
-0.08785106888540349 0.08455188041435811 0.0 0.013093840994934658 0.0 0.0
-0.08141646667594912 0.07715761000701617 0.0 0.008930941834457662 0.0 0.0
-0.07092415217288495 0.06650825324999869 0.0 0.008043078123815666 0.0 0.0
-0.059763592423771786 0.055439597666698065 0.0 0.007234571155981476 0.0 0.0
-0.0492552463499572 0.045118846449860875 0.0 0.0061950966997223016 0.0 0.0
-0.039899826001458735 0.03602309390887762 0.0 0.005200315736478163 0.0 0.0
-0.03183910911161342 0.028264265499172138 0.0 0.004380709237851957 0.0 0.0
-0.024998099724976894 0.021738634062271188 0.0 0.003704559202652458 0.0 0.0
-0.019204044153361837 0.01625088273218238 0.0 0.0030572270248901186 0.0 0.0
-0.01430937569672092 0.011643746813812389 0.0 0.0023972606398833672 0.0 0.0
-0.010240161614331063 0.007846160047324285 0.0 0.0017635777118188765 0.0 0.0
-0.006981354320742958 0.004866502045055727 0.0 0.0012111307501886564 0.0 0.0
-0.004520092626881035 0.0027086262311356883 0.0 0.0007844270234171525 0.0 0.0
-0.002841894700620815 0.0013629028302873918 0.0 0.0005363328332098065 0.0 0.0
-0.0018693098287228872 0.0007903673730350182 0.0 0.0006687886321959289 0.0 0.0
-0.0012730032813160874 0.0005557259529960601 0.0 0.000828760959647315 0.0 0.0
-0.0007417857940436368 0.0003090204552872838 0.0 0.0008164944950803814 0.0 0.0
-0.00029248800622730256 3.3340132191081916e-05 0.0 0.0005386172795902014 0.0 0.0
-0.00010750522235874793 -8.932847488599032e-06 0.0 0.0002677653063154772 0.0 0.0
-0.00010655525018618 1.3484685657335823e-05 0.0 -0.00015333701307107653 0.0 0.0
-0.0002969249480751218 6.868063754470361e-05 0.0 -0.00026962403484696694 0.0 0.0
-0.0007872233972150655 0.00032946252979677566 0.0 -0.0003995175156325775 0.0 0.0
-0.0013970156015458226 0.0005993345152020747 0.0 -0.00040411019095791556 0.0 0.0
-0.0021183973513509186 0.000891881854736126 0.0 -0.0002780055867497066 0.0 0.0
-0.003312259518785873 0.0016987761245480537 0.0 -0.00020744536236442672 0.0 0.0
-0.005259222147130169 0.0033435342676280655 0.0 -0.00036006800797714386 0.0 0.0
-0.008009598310203902 0.005785515224751127 0.0 -0.0005747388467409152 0.0 0.0
-0.011632950731120672 0.00912733495804401 0.0 -0.0008501442620711138 0.0 0.0
-0.016170973055984254 0.013378743532026985 0.0 -0.001174516065005768 0.0 0.0
-0.021661901805547543 0.018560614513243198 0.0 -0.0015045458891179365 0.0 0.0
-0.028200557525000072 0.024770069435131197 0.0 -0.0018259522428105092 0.0 0.0
-0.035946814247435004 0.0321772999623184 0.0 -0.0022029739897790673 0.0 0.0
-0.04504808892528484 0.04095630824697487 0.0 -0.0026721902371945137 0.0 0.0
-0.05552433135402644 0.0511689503320266 0.0 -0.003239644316206023 0.0 0.0
-0.06710832574987517 0.06258585494783205 0.0 -0.0038421213112577544 0.0 0.0
-0.07910275505019325 0.07452440681997886 0.0 -0.004235112262769115 0.0 0.0
-0.0903479350962774 0.08577809866403756 0.0 -0.0042423030433795025 0.0 0.0
-0.09844780072840059 0.09429151110633445 0.0 -0.00566846437367705 0.0 0.0
-0.09639854026152005 0.09504539966051334 0.0 -0.018746502420064048 0.0 0.0
-0.09151108911007676 0.07484862774201953 0.0 4.584006785268713e-15 0.0 0.0
-0.09639854026150772 0.09504539966050038 0.0 0.01874650242007558 0.0 0.0
-0.09844780072837553 0.09429151110630857 0.0 0.005668464373688709 0.0 0.0
-0.09034793509624248 0.08577809866400331 0.0 0.004242303043385196 0.0 0.0
-0.07910275505015318 0.074524406819939 0.0 0.004235112262770454 0.0 0.0
-0.06710832574983319 0.06258585494778997 0.0 0.0038421213112579504 0.0 0.0
-0.05552433135398338 0.051168950331984986 0.0 0.0032396443162063682 0.0 0.0
-0.04504808892524041 0.04095630824693255 0.0 0.0026721902371922195 0.0 0.0
-0.035946814247389915 0.0321772999622738 0.0 0.002202973989778317 0.0 0.0
-0.02820055752495765 0.024770069435090452 0.0 0.0018259522428078845 0.0 0.0
-0.02166190180551079 0.01856061451320574 0.0 0.0015045458891127825 0.0 0.0
-0.01617097305595327 0.013378743531999403 0.0 0.0011745160650026912 0.0 0.0
-0.011632950731095737 0.009127334958019664 0.0 0.0008501442620688806 0.0 0.0
-0.00800959831018549 0.005785515224733838 0.0 0.000574738846739272 0.0 0.0
-0.0052592221471178925 0.003343534267618191 0.0 0.0003600680079764117 0.0 0.0
-0.0033122595187791673 0.0016987761245432352 0.0 0.0002074453623649029 0.0 0.0
-0.002118397351347972 0.0008918818547351715 0.0 0.0002780055867501421 0.0 0.0
-0.001397015601544511 0.0005993345152018034 0.0 0.0004041101909581396 0.0 0.0
-0.0007872233972143083 0.0003294625297959029 0.0 0.0003995175156313687 0.0 0.0
-0.00029692494807481565 6.86806375446596e-05 0.0 0.0002696240348461708 0.0 0.0
-0.00010655525018600292 1.3484685657373196e-05 0.0 0.00015333701307059796 0.0 0.0
-6.661947465075467e-05 1.309618732627042e-05 0.0 -9.73067111138165e-05 0.0 0.0
-0.00026240568140731225 8.019984877913638e-05 0.0 -0.00011194579162589926 0.0 0.0
-0.000812880518034757 0.00033671418653783135 0.0 -0.00013672048136313027 0.0 0.0
-0.0015368546444229957 0.0006219423576863366 0.0 -0.0001307159310030565 0.0 0.0
-0.0024124180719205857 0.0009530848843946959 0.0 1.1273746401556134e-05 0.0 0.0
-0.003818191677611604 0.0018819983824131727 0.0 0.0001483905373975609 0.0 0.0
-0.006003263724436106 0.0036668510349117554 0.0 0.0001750623619471562 0.0 0.0
-0.009025720549488143 0.00624701760264958 0.0 0.0001846296192437206 0.0 0.0
-0.013001488574116257 0.00976606354136433 0.0 0.0001873277069779286 0.0 0.0
-0.018002436507687587 0.014242873610733585 0.0 0.0001627127909121066 0.0 0.0
-0.024093901233669848 0.01971211840659943 0.0 0.00015953549056481092 0.0 0.0
-0.03139358599572186 0.02628731986287339 0.0 0.0001747393175710434 0.0 0.0
-0.040043340040636886 0.03413841173857029 0.0 0.00013509475822986484 0.0 0.0
-0.050166231213570014 0.04342192652519639 0.0 7.607867023480628e-05 0.0 0.0
-0.0617408828028064 0.05418758488438523 0.0 -8.244507533241869e-05 0.0 0.0
-0.07437721793484753 0.06614571679440132 0.0 -0.0003511138852922745 0.0 0.0
-0.08715584817659014 0.07849759241047233 0.0 -0.0006404179274331172 0.0 0.0
-0.09864274786974472 0.08994255130431343 0.0 -0.000755484038212656 0.0 0.0
-0.10732755183805985 0.09875778054214211 0.0 -0.0010567457164513145 0.0 0.0
-0.109588048829124 0.10150259969078015 0.0 -0.012989563956011455 0.0 0.0
-0.10837711237205613 0.0822355408787994 0.0 1.4641066137244252e-15 0.0 0.0
-0.10958804882911045 0.10150259969076733 0.0 0.012989563956015164 0.0 0.0
-0.10732755183803103 0.09875778054211547 0.0 0.0010567457164553547 0.0 0.0
-0.09864274786970466 0.08994255130427453 0.0 0.0007554840382143577 0.0 0.0
-0.08715584817654547 0.0784975924104315 0.0 0.0006404179274335179 0.0 0.0
-0.07437721793480093 0.06614571679435577 0.0 0.0003511138852914774 0.0 0.0
-0.06174088280275851 0.054187584884345066 0.0 8.244507533346646e-05 0.0 0.0
-0.05016623121352063 0.04342192652515334 0.0 -7.607867023618538e-05 0.0 0.0
-0.040043340040587225 0.03413841173852285 0.0 -0.00013509475822960897 0.0 0.0
-0.0313935859956753 0.026287319862827146 0.0 -0.00017473931757243594 0.0 0.0
-0.024093901233629644 0.019712118406560626 0.0 -0.00015953549056775757 0.0 0.0
-0.01800243650765391 0.014242873610704261 0.0 -0.00016271279091462825 0.0 0.0
-0.013001488574088674 0.009766063541337772 0.0 -0.00018732770697807433 0.0 0.0
-0.009025720549467481 0.006247017602630546 0.0 -0.00018462961924283427 0.0 0.0
-0.006003263724421883 0.0036668510349016775 0.0 -0.00017506236194760343 0.0 0.0
-0.0038181916776036475 0.0018819983824076027 0.0 -0.00014839053739494645 0.0 0.0
-0.002412418071917234 0.0009530848843925109 0.0 -1.1273746400365789e-05 0.0 0.0
-0.0015368546444217842 0.000621942357686693 0.0 0.00013071593100358813 0.0 0.0
-0.0008128805180341524 0.00033671418653634063 0.0 0.00013672048136235441 0.0 0.0
-0.0002624056814070538 8.019984877911092e-05 0.0 0.00011194579162564274 0.0 0.0
-6.661947465088311e-05 1.3096187326323857e-05 0.0 9.730671111299324e-05 0.0 0.0
SCALARS Statev float 8
LOOKUP_TABLE default
0.0 0.014292994930852537 0.01130951136569321 -0.01369276884358801 0.0023832574778948033 -0.0005285504261638552 0.0 0.0
0.0 0.00439640379452096 0.003138619182850886 -0.0017747435060026897 -0.0013638756768481928 -0.005527782874446749 0.0 0.0
0.0 -1.697156287055846e-05 2.0530129933461155e-05 -1.3994789333067135e-05 -6.53534060039421e-06 -0.00011529813707508921 0.0 0.0
0.0 8.654620403632395e-05 3.6763594065351236e-06 -2.3421445084043685e-06 -1.3342148981308436e-06 4.9465071202317825e-06 0.0 0.0
0.0 0.0005331444238863786 0.00023451200807856804 -0.00016852110384230903 -6.599090423625934e-05 6.416300189605536e-05 0.0 0.0
0.0 0.0012287248620686726 0.001286339211705045 -0.0009879992160369347 -0.000298339995668111 0.00012901554818867136 0.0 0.0
0.0 0.003341169251457886 0.0030984601190663383 -0.0025409183958985584 -0.000557541723167776 0.0001735903990266507 0.0 0.0
0.0 0.006371463178305034 0.005842609190118527 -0.005040993791476934 -0.0008016153986415962 0.00019673458549907132 0.0 0.0
0.0 0.010548531735809222 0.009552353081703217 -0.0085471507999673 -0.0010052022817359223 0.00020912199654218115 0.0 0.0
0.0 0.015952316528153897 0.01426333353438567 -0.0130629362292697 -0.0012003973051159654 0.00019993832815428132 0.0 0.0
0.0 0.02263903559934978 0.02003634116800534 -0.01862161216551667 -0.0014147290024886668 0.00021171932980991063 0.0 0.0
0.0 0.030422447983930623 0.02700006536784495 -0.02534276231868554 -0.0016573030491594065 0.00023923070397247683 0.0 0.0
0.0 0.0398304772283936 0.03530081900904471 -0.03337921523701394 -0.0019216037720307384 0.00020494769280033232 0.0 0.0
0.0 0.05095868381833162 0.045075668256006694 -0.04287506148478459 -0.0022006067712220974 0.00016092326194553123 0.0 0.0
0.0 0.06386123109066336 0.05636769920914203 -0.05388830809593535 -0.00247939111320668 4.475894629727599e-05 0.0 0.0
0.0 0.07832928640155115 0.06895798675248709 -0.06621538693881089 -0.002742599813676149 -0.00016651557536124053 0.0 0.0
0.0 0.09363120213882789 0.08224420954481686 -0.07926678868211405 -0.0029774208627029097 -0.000444645804089558 0.0 0.0
0.0 0.10859157211622263 0.09521871483342036 -0.0920478475416402 -0.003170867291780038 -0.0006831918171843151 0.0 0.0
0.0 0.12170266874845383 0.10658132318210452 -0.10326643688246036 -0.0033148862996442425 -0.0007204150381328008 0.0 0.0
0.0 0.13107108324616087 0.11487683727137989 -0.11148425593869818 -0.0033925813326817493 -0.0007173969054763509 0.0 0.0
0.0 0.1347129368029394 0.11810176438129164 -0.11471604724339284 -0.003385717137898792 1.9606712087227862e-15 0.0 0.0
0.0 0.1310710832461474 0.11487683727136798 -0.11148425593868681 -0.0033925813326810424 0.0007173969054804184 0.0 0.0
0.0 0.12170266874842525 0.10658132318207969 -0.10326643688243616 -0.0033148862996435356 0.0007204150381374189 0.0 0.0
0.0 0.10859157211618008 0.09521871483338287 -0.09204784754160414 -0.0031708672917786624 0.0006831918171881254 0.0 0.0
0.0 0.09363120213878118 0.08224420954477604 -0.07926678868207471 -0.0029774208627014226 0.00044464580409038414 0.0 0.0
0.0 0.0783292864015008 0.06895798675244277 -0.0662153869387676 -0.002742599813675127 0.00016651557535970552 0.0 0.0
0.0 0.06386123109061298 0.05636769920909773 -0.05388830809589264 -0.002479391113205082 -4.4758946297409567e-05 0.0 0.0
0.0 0.05095868381828089 0.04507566825596223 -0.04287506148474144 -0.0022006067712207643 -0.00016092326194696097 0.0 0.0
0.0 0.03983047722834274 0.035300819009000214 -0.03337921523697069 -0.0019216037720295159 -0.00020494769280099499 0.0 0.0
0.0 0.030422447983879525 0.02700006536780013 -0.025342762318641757 -0.001657303049158406 -0.00023923070397411077 0.0 0.0
0.0 0.02263903559930787 0.020036341167968444 -0.01862161216548092 -0.0014147290024875182 -0.00021171932981095944 0.0 0.0
0.0 0.015952316528122096 0.014263333534357681 -0.013062936229243054 -0.0012003973051146468 -0.00019993832815471497 0.0 0.0
0.0 0.010548531735784412 0.009552353081680861 -0.008547150799946213 -0.0010052022817346343 -0.00020912199654271322 0.0 0.0
0.0 0.006371463178286734 0.00584260919010159 -0.005040993791461125 -0.0008016153986404628 -0.00019673458549902622 0.0 0.0
0.0 0.0033411692514464086 0.003098460119054996 -0.0025409183958885005 -0.0005575417231664947 -0.00017359039902673092 0.0 0.0
0.0 0.0012287248620633153 0.0012863392116991576 -0.000987999216032229 -0.00029833999566692885 -0.00012901554818809936 0.0 0.0
0.0 0.0005331444238842558 0.00023451200807764379 -0.00016852110384167485 -6.599090423596823e-05 -6.416300189571731e-05 0.0 0.0
0.0 8.654620403537767e-05 3.6763594064533117e-06 -2.342144508345568e-06 -1.3342148981072461e-06 -4.946507120198415e-06 0.0 0.0
0.0 -1.6971562870865816e-05 2.0530129933389072e-05 -1.3994789333007981e-05 -6.535340600380591e-06 0.00011529813707441113 0.0 0.0
0.0 0.004396403794512908 0.003138619182846688 -0.0017747435059999816 -0.0013638756768466988 0.0055277828744385495 0.0 0.0
0.0 0.014292994930834427 0.011309511365680806 -0.01369276884357068 0.0023832574778898524 0.0005285504261351639 0.0 0.0
0.0 0.011453986336066094 0.008418726993296221 -0.011125520316351188 0.0027067933230549585 -9.783506874095314e-05 0.0 0.0
0.0 0.0024805542635202337 0.0017670500918294987 -0.0009547935035994544 -0.0008122565882300418 -0.0040817101759908336 0.0 0.0
0.0 -1.3710059739793139e-05 -2.7548230199244413e-05 2.3226515744165247e-05 4.321714455079211e-06 -1.840341153683458e-05 0.0 0.0
0.0 9.693207001765403e-06 1.2912626821717111e-06 -9.562216460996464e-07 -3.3504103607211624e-07 2.5186578524536354e-06 0.0 0.0
0.0 0.00022393837737985845 0.0001233568253101513 -8.913241680385247e-05 -3.422440850629881e-05 2.6448656742936606e-05 0.0 0.0
0.0 0.0011101138438432288 0.000894568208540692 -0.000692746060039235 -0.00020182214850145857 4.737015948010086e-05 0.0 0.0
0.0 0.0027563283607662243 0.002560209011853904 -0.0021204541721406237 -0.00043975483971327894 -9.132726204552275e-05 0.0 0.0
0.0 0.005567566946826517 0.005069098075095335 -0.0044235721757089124 -0.0006455258993864221 -0.0002962506469299711 0.0 0.0
0.0 0.009458876343583002 0.008482964468974053 -0.007687679209542069 -0.0007952852594319804 -0.0005707011427424928 0.0 0.0
0.0 0.01441645748185898 0.012810750445751277 -0.011896519004819892 -0.0009142314409313733 -0.0008929428824141094 0.0 0.0
0.0 0.02050862813522503 0.018088787411406654 -0.01706291809036072 -0.0010258693210459444 -0.0012252668798171966 0.0 0.0
0.0 0.02795300462411278 0.024419674237646453 -0.023281109022224047 -0.0011385652154223842 -0.0015552887505361178 0.0 0.0
0.0 0.03636150341527738 0.031976475337936086 -0.03072421028775997 -0.001252265050176104 -0.0019477158203278755 0.0 0.0
0.0 0.04664648912690797 0.04090659963187322 -0.03954609176699323 -0.0013605078648800133 -0.0024237838427155155 0.0 0.0
0.0 0.058571506773037865 0.0512637965501873 -0.049811538085219 -0.0014522584649682858 -0.0029776663381153316 0.0 0.0
0.0 0.07195243177172375 0.06285790537529284 -0.06133980202561164 -0.0015181033496812224 -0.003587373218441855 0.0 0.0
0.0 0.0861822696203777 0.07513852113029974 -0.07358571293153685 -0.0015528081987628219 -0.004111215998282374 0.0 0.0
0.0 0.10019041323111821 0.08718414286946155 -0.08562545371605171 -0.0015586891534099018 -0.004276166703621432 0.0 0.0
0.0 0.11250649493210986 0.0977725227240198 -0.09623253579213555 -0.0015399869318841748 -0.0038227627002730717 0.0 0.0
0.0 0.12142423652845602 0.10539226780445288 -0.10391730389509533 -0.0014749639093575703 -0.0028643154904020814 0.0 0.0
0.0 0.12502890841544864 0.10831015040662584 -0.10693455187528947 -0.001375598531336426 4.3944882455182466e-15 0.0 0.0
0.0 0.1214242365284416 0.1053922678044401 -0.10391730389508246 -0.0014749639093576392 0.002864315490412794 0.0 0.0
0.0 0.11250649493208259 0.09777252272399628 -0.09623253579211193 -0.001539986931884259 0.0038227627002856233 0.0 0.0
0.0 0.10019041323108038 0.08718414286942867 -0.08562545371601908 -0.0015586891534095737 0.004276166703629101 0.0 0.0
0.0 0.08618226962033493 0.07513852113026269 -0.07358571293150054 -0.0015528081987621345 0.004111215998284174 0.0 0.0
0.0 0.0719524317716786 0.06285790537525353 -0.06133980202557275 -0.0015181033496806779 0.003587373218439694 0.0 0.0
0.0 0.058571506772990604 0.051263796550146026 -0.04981153808517857 -0.0014522584649675047 0.002977666338114346 0.0 0.0
0.0 0.04664648912686124 0.04090659963183261 -0.039546091766953194 -0.0013605078648793825 0.0024237838427142765 0.0 0.0
0.0 0.036361503415231304 0.03197647533789605 -0.030724210287720634 -0.0012522650501754352 0.0019477158203259582 0.0 0.0
0.0 0.027953004624067856 0.02441967423760713 -0.023281109022185085 -0.0011385652154220006 0.0015552887505327028 0.0 0.0
0.0 0.020508628135186797 0.018088787411373312 -0.017062918090328078 -0.0010258693210452403 0.0012252668798136135 0.0 0.0
0.0 0.01441645748182916 0.012810750445724607 -0.011896519004793868 -0.0009142314409307309 0.0008929428824113615 0.0 0.0
0.0 0.009458876343559932 0.008482964468952947 -0.007687679209521796 -0.0007952852594311518 0.000570701142740515 0.0 0.0
0.0 0.005567566946810036 0.005069098075080025 -0.004423572175694523 -0.000645525899385497 0.00029625064692830315 0.0 0.0
0.0 0.0027563283607558832 0.002560209011843928 -0.0021204541721317667 -0.00043975483971216026 9.132726204458605e-05 0.0 0.0
0.0 0.0011101138438369509 0.000894568208535243 -0.0006927460600348434 -0.00020182214850039942 -4.737015948020849e-05 0.0 0.0
0.0 0.0002239383773786812 0.00012335682530990283 -8.91324168037255e-05 -3.4224408506177645e-05 -2.6448656742582885e-05 0.0 0.0
0.0 9.693207001256768e-06 1.2912626823622779e-06 -9.56221646242417e-07 -3.3504103611970753e-07 -2.518657852474922e-06 0.0 0.0
0.0 -1.3710059739756486e-05 -2.7548230199071117e-05 2.3226515744011484e-05 4.321714455059515e-06 1.8403411536690806e-05 0.0 0.0
0.0 0.0024805542635122817 0.0017670500918250426 -0.0009547935035964822 -0.0008122565882285603 0.004081710175981303 0.0 0.0
0.0 0.01145398633604727 0.008418726993281883 -0.011125520316332554 0.0027067933230506573 9.78350687202619e-05 0.0 0.0
0.0 0.008289093053683439 0.005954734888029714 -0.008108650143631147 0.002153915255601433 -0.0020702135877931193 0.0 0.0
0.0 0.0017158973651105083 0.0010691592125561672 -0.0005170577174634308 -0.0005521014950927358 -0.003099342624333974 0.0 0.0
0.0 1.2634912319597936e-08 -1.3678156687548327e-09 1.0394932843731892e-09 3.2832238438154863e-10 4.875689838480855e-10 0.0 0.0
0.0 2.4401433062374258e-06 4.3100310760056164e-07 -3.408427756051191e-07 -9.016033199556808e-08 -3.867430413598814e-07 0.0 0.0
0.0 6.263126585331459e-05 3.006456665154429e-05 -2.0401019305643408e-05 -9.663547345901122e-06 1.1630093242455912e-05 0.0 0.0
0.0 0.0007330944610276171 0.0005226442672072132 -0.0003949476873064425 -0.00012769657990077026 -7.018116804423839e-07 0.0 0.0
0.0 0.002011376219000992 0.001926684893317467 -0.001562651472237593 -0.00036403342107987506 -0.0002716613341641565 0.0 0.0
0.0 0.0045341499287988 0.00413447070561352 -0.003554835163126322 -0.0005796355424871967 -0.0006874367145282315 0.0 0.0
0.0 0.007975980307319205 0.007183919325118757 -0.0064414599503618 -0.0007424593747569518 -0.001231810581856143 0.0 0.0
0.0 0.012450949149754283 0.011046947428546037 -0.010182713839276297 -0.0008642335892697386 -0.001861276851837645 0.0 0.0
0.0 0.017891637900140367 0.01573554743341465 -0.01476327629286978 -0.0009722711405448524 -0.0025247248842020296 0.0 0.0
0.0 0.02427679626303579 0.02133191423444627 -0.020252911509995357 -0.001079002724450905 -0.0031899483886001813 0.0 0.0
0.0 0.03213381940607014 0.027988264351973588 -0.02680241960143998 -0.0011858447505336265 -0.0038952187557792016 0.0 0.0
0.0 0.04097882322043768 0.03589432649918644 -0.03460762616679901 -0.0012867003323874208 -0.0047415537649318955 0.0 0.0
0.0 0.051622877406878855 0.04511245389380736 -0.04374005371117193 -0.0013724001826354467 -0.005747466840787865 0.0 0.0
0.0 0.06360807441344099 0.055488991294001234 -0.05405472327299106 -0.001434268021010136 -0.006822907804407547 0.0 0.0
0.0 0.07641574980213109 0.06655959222309127 -0.06509009127444124 -0.0014695009486500265 -0.007716884133352746 0.0 0.0
0.0 0.08909737450696857 0.07751429327989545 -0.07603692457039923 -0.001477368709496259 -0.00798669191475754 0.0 0.0
0.0 0.10034395872694332 0.08720173310623161 -0.0857492456744495 -0.0014524874317821087 -0.007221494759079286 0.0 0.0
0.0 0.10849436358300053 0.09419137467150349 -0.09278566762629599 -0.0014057070452074068 -0.005302321810236496 0.0 0.0
0.0 0.11189031298367445 0.09693430764108768 -0.09565395036630997 -0.0012803572747776054 8.522696437474053e-15 0.0 0.0
0.0 0.10849436358298647 0.09419137467149065 -0.09278566762628282 -0.0014057070452078628 0.005302321810256368 0.0 0.0
0.0 0.10034395872692235 0.08720173310621296 -0.08574924567443154 -0.0014524874317815015 0.0072214947591015665 0.0 0.0
0.0 0.08909737450693574 0.07751429327986702 -0.07603692457037066 -0.0014773687094962954 0.007986691914770066 0.0 0.0
0.0 0.07641574980209284 0.06655959222305821 -0.06509009127440873 -0.0014695009486495052 0.007716884133355184 0.0 0.0
0.0 0.06360807441340054 0.05548899129396595 -0.054054723272956254 -0.0014342680210096908 0.006822907804405176 0.0 0.0
0.0 0.051622877406836506 0.04511245389377043 -0.04374005371113573 -0.001372400182634725 0.0057474668407863335 0.0 0.0
0.0 0.040978823220395706 0.03589432649914981 -0.034607626166763085 -0.0012867003323867258 0.004741553764929593 0.0 0.0
0.0 0.03213381940602951 0.027988264351938123 -0.0268024196014052 -0.001185844750532902 0.0038952187557751913 0.0 0.0
0.0 0.02427679626299637 0.02133191423441213 -0.020252911509961644 -0.0010790027244504852 0.0031899483885943214 0.0 0.0
0.0 0.01789163790010826 0.015735547433385996 -0.01476327629284186 -0.0009722711405441243 0.0025247248841961394 0.0 0.0
0.0 0.012450949149726566 0.011046947428521187 -0.010182713839251966 -0.000864233589269222 0.0018612768518321368 0.0 0.0
0.0 0.007975980307298024 0.007183919325099624 -0.006441459950343485 -0.0007424593747561375 0.0012318105818524638 0.0 0.0
0.0 0.0045341499287837855 0.004134470705599941 -0.003554835163113762 -0.0005796355424861782 0.0006874367145251218 0.0 0.0
0.0 0.0020113762189923746 0.0019266848933090321 -0.0015626514722303323 -0.00036403342107869865 0.00027166133416246444 0.0 0.0
0.0 0.0007330944610226025 0.0005226442672031671 -0.000394947687303273 -0.00012769657989989355 7.018116800422269e-07 0.0 0.0
0.0 6.263126585255673e-05 3.0064566651615406e-05 -2.0401019305728457e-05 -9.663547345886948e-06 -1.1630093242186508e-05 0.0 0.0
0.0 2.4401433059307736e-06 4.310031076008003e-07 -3.408427756039485e-07 -9.01603319968299e-08 3.867430413418236e-07 0.0 0.0
0.0 1.2634912310065045e-08 -1.367815667713223e-09 1.0394932835817643e-09 3.283223841315191e-10 -4.875689834762404e-10 0.0 0.0
0.0 0.0017158973651041456 0.0010691592125523306 -0.0005170577174609077 -0.000552101495091422 0.0030993426243237504 0.0 0.0
0.0 0.00828909305366492 0.005954734888016098 -0.008108650143613273 0.002153915255597178 0.0020702135877791257 0.0 0.0
0.0 0.0061146399987919015 0.004262952506167837 -0.005933753670623459 0.00167080116445562 -0.002297969476125542 0.0 0.0
0.0 0.0011523951095887479 0.0006726854217680103 -0.0003088687878654815 -0.00036381663390252925 -0.0021994658413532625 0.0 0.0
0.0 0.0 0.0 0.0 0.0 0.0 0.0 0.0
0.0 -2.654804320233273e-07 5.607920319116515e-08 -4.1910005333151393e-08 -1.4169197858017336e-08 -5.530516285700885e-08 0.0 0.0
0.0 7.750851516805806e-06 -1.5631065271740402e-05 1.2587799770713827e-05 3.043265501026821e-06 1.1699384462477482e-05 0.0 0.0
0.0 0.0003403597247288205 0.00026120040093701976 -0.0001929066751074683 -6.829372582955095e-05 -2.638617859904063e-05 0.0 0.0
0.0 0.0015313993786641026 0.0013005490395767085 -0.0010294520465829484 -0.00027109699299375826 -0.0002943739069507861 0.0 0.0
0.0 0.003531681487136719 0.003214387659640116 -0.0027145892310837744 -0.0004997984285563428 -0.0009095788722912952 0.0 0.0
0.0 0.006564407583185835 0.005885997314935503 -0.005208195522875629 -0.0006778017920598732 -0.001668016888304012 0.0 0.0
0.0 0.010495783737469126 0.009279871121290896 -0.008473282744907325 -0.0008065883763835651 -0.002542075881683889 0.0 0.0
0.0 0.015211797144947026 0.0133829284108032 -0.012470165971067386 -0.0009127624397358054 -0.003462841139356828 0.0 0.0
0.0 0.020908898409152363 0.018249647827290362 -0.017236000634382916 -0.00101364719290743 -0.004385804744749304 0.0 0.0
0.0 0.02744918816388608 0.024028122340926158 -0.022913723403184025 -0.001114398937742129 -0.005350439829714601 0.0 0.0
0.0 0.0356142904224301 0.03088980863291227 -0.029682375263160407 -0.0012074333697518638 -0.006459632584539404 0.0 0.0
0.0 0.044824129231446665 0.03894432565981447 -0.03765775699964327 -0.0012865686601711897 -0.007775505509092541 0.0 0.0
0.0 0.05521262728525356 0.04808519816022464 -0.04673835550433253 -0.0013468426558921071 -0.009202156496957221 0.0 0.0
0.0 0.06668392241486477 0.05793038845249281 -0.05654728444797362 -0.0013831040045191613 -0.010399948190508157 0.0 0.0
0.0 0.07810253718219835 0.06778997588741321 -0.06639833665947438 -0.0013916392279388586 -0.010818348111246292 0.0 0.0
0.0 0.08831127492449581 0.07662463520569189 -0.07525356961074604 -0.0013710655949457351 -0.009895960240168736 0.0 0.0
0.0 0.0958159261397952 0.08313992916298618 -0.08180680480379687 -0.001333124359189423 -0.00711992120497408 0.0 0.0
0.0 0.09916376102964057 0.08582393121535849 -0.08466775541758308 -0.0011561757977754388 1.1646933417708283e-14 0.0 0.0
0.0 0.09581592613978357 0.08313992916297516 -0.08180680480378576 -0.0013331243591894032 0.007119921205001005 0.0 0.0
0.0 0.08831127492447764 0.07662463520567511 -0.07525356961072993 -0.0013710655949451304 0.009895960240195754 0.0 0.0
0.0 0.07810253718216982 0.06778997588738812 -0.06639833665944939 -0.0013916392279387435 0.01081834811126272 0.0 0.0
0.0 0.0666839224148313 0.057930388452464045 -0.05654728444794525 -0.0013831040045188025 0.01039994819051126 0.0 0.0
0.0 0.055212627285217135 0.04808519816019309 -0.046738355504301075 -0.001346842655892008 0.009202156496953787 0.0 0.0
0.0 0.04482412923141054 0.038944325659782966 -0.03765775699961239 -0.0012865686601705834 0.0077755055090895 0.0 0.0
0.0 0.0356142904223933 0.030889808632880062 -0.02968237526312858 -0.0012074333697514727 0.0064596325845363315 0.0 0.0
0.0 0.0274491881638499 0.024028122340894912 -0.022913723403153424 -0.0011143989377414853 0.005350439829709193 0.0 0.0
0.0 0.020908898409119296 0.018249647827261125 -0.017236000634354133 -0.0010136471929069993 0.004385804744742208 0.0 0.0
0.0 0.015211797144918176 0.013382928410777694 -0.012470165971042519 -0.0009127624397351698 0.0034628411393491125 0.0 0.0
0.0 0.010495783737445597 0.009279871121270027 -0.008473282744887225 -0.0008065883763827995 0.00254207588167667 0.0 0.0
0.0 0.006564407583166486 0.005885997314918307 -0.005208195522859244 -0.0006778017920590587 0.0016680168882986749 0.0 0.0
0.0 0.0035316814871242976 0.003214387659628154 -0.002714589231072951 -0.0004997984285552035 0.0009095788722874312 0.0 0.0
0.0 0.001531399378656517 0.0013005490395705342 -0.0010294520465778023 -0.0002710969929927319 0.000294373906948989 0.0 0.0
0.0 0.0003403597247258629 0.0002612004009351703 -0.00019290667510608718 -6.829372582908294e-05 2.6386178598818712e-05 0.0 0.0
0.0 7.750851516390155e-06 -1.5631065271284603e-05 1.2587799770359275e-05 3.0432655009252953e-06 -1.169938446215228e-05 0.0 0.0
0.0 -2.654804319427865e-07 5.607920313198635e-08 -4.191000528666113e-08 -1.4169197845312733e-08 5.5305162812033635e-08 0.0 0.0
0.0 0.0 0.0 0.0 0.0 0.0 0.0 0.0
0.0 0.001152395109583146 0.0006726854217648238 -0.00030886878786337926 -0.00036381663390144575 0.0021994658413444393 0.0 0.0
0.0 0.00611463999877655 0.0042629525061559 -0.005933753670607628 0.0016708011644517345 0.0022979694761151763 0.0 0.0
0.0 0.00431165279208002 0.002999556649639774 -0.004244623966428661 0.0012450673167888893 -0.001991755800507789 0.0 0.0
0.0 0.0009222763040456259 0.00039063798651259323 -0.00016137294468662354 -0.0002292650418259697 -0.0014324118364059193 0.0 0.0
0.0 0.0 0.0 0.0 0.0 0.0 0.0 0.0
0.0 -2.1175026786527247e-07 1.9226471027512064e-08 -1.544969006812908e-08 -3.77678095938152e-09 -2.443498433731356e-08 0.0 0.0
0.0 -8.651801181940561e-06 -1.8718119037602386e-06 1.457080137602919e-06 4.1473176615731817e-07 7.619601539066144e-07 0.0 0.0
0.0 0.00012982404045712464 6.0470803711456093e-05 -4.182936256855266e-05 -1.864144114290325e-05 1.458732303499944e-05 0.0 0.0
0.0 0.0010554818661458816 0.000766874552553902 -0.0005923646432406883 -0.00017450990931321372 -0.00025288243904396775 0.0 0.0
0.0 0.002585540196467412 0.0023234992643378395 -0.0019167877838466836 -0.0004067114804911544 -0.0009230471172787587 0.0 0.0
0.0 0.005185048044682089 0.004604940225938235 -0.004007208520360429 -0.0005977317055778058 -0.0018718974913831783 0.0 0.0
0.0 0.00854419743966826 0.007523367074131134 -0.006785887252561289 -0.000737479821569845 -0.002927967341868657 0.0 0.0
0.0 0.012635946260039832 0.011041056370328236 -0.01019592450493266 -0.000845131865395574 -0.0040368562144053165 0.0 0.0
0.0 0.017487917662835254 0.015189438920973807 -0.014247761299642647 -0.0009416776213311633 -0.005142622615244001 0.0 0.0
0.0 0.02328969084869241 0.02009006772005341 -0.019054762715507583 -0.0010353050045458112 -0.006286158192038111 0.0 0.0
0.0 0.029854722435642484 0.025925161072000522 -0.024802456744515165 -0.0011227043274853491 -0.007579503469869454 0.0 0.0
0.0 0.03794392354680112 0.032799624355882455 -0.03160358353800434 -0.0011960408178781157 -0.00908910086346546 0.0 0.0
0.0 0.047172399854465884 0.04066968602450755 -0.03941747385337381 -0.0012522121711337356 -0.010714059544383234 0.0 0.0
0.0 0.056982403211056146 0.04926231739303103 -0.04797168168848765 -0.001290635704543373 -0.012121607108157776 0.0 0.0
0.0 0.0670844073215173 0.058008799098321726 -0.05670452573444721 -0.0013042733638745103 -0.01273174330727033 0.0 0.0
0.0 0.07632420789217037 0.06602450695411269 -0.06473450735208168 -0.001289999602031054 -0.011787322067451289 0.0 0.0
0.0 0.08336478115916485 0.07216511105257048 -0.07091083031495597 -0.0012542807376144825 -0.008483464659523016 0.0 0.0
0.0 0.08676791318533952 0.0748617559191417 -0.0738487983067482 -0.0010129576123934516 1.283565267962139e-14 0.0 0.0
0.0 0.08336478115915703 0.07216511105256222 -0.07091083031494778 -0.0012542807376143428 0.008483464659554327 0.0 0.0
0.0 0.07632420789215082 0.06602450695409487 -0.06473450735206356 -0.0012899996020313063 0.011787322067480035 0.0 0.0
0.0 0.06708440732149218 0.05800879909829926 -0.05670452573442486 -0.0013042733638744144 0.012731743307288605 0.0 0.0
0.0 0.056982403211028335 0.049262317393006995 -0.04797168168846422 -0.0012906357045427805 0.012121607108161705 0.0 0.0
0.0 0.04717239985443524 0.04066968602448088 -0.03941747385334746 -0.0012522121711333902 0.010714059544379345 0.0 0.0
0.0 0.03794392354676909 0.03279962435585459 -0.03160358353797691 -0.001196040817877659 0.009089100863461272 0.0 0.0
0.0 0.02985472243561183 0.025925161071973766 -0.02480245674448883 -0.0011227043274849265 0.0075795034698655905 0.0 0.0
0.0 0.023289690848663655 0.020090067720028085 -0.01905476271548285 -0.0010353050045452195 0.006286158192032011 0.0 0.0
0.0 0.017487917662808283 0.015189438920950036 -0.014247761299619481 -0.000941677621330568 0.0051426226152355555 0.0 0.0
0.0 0.012635946260014873 0.011041056370306532 -0.0101959245049117 -0.0008451318653948315 0.004036856214395167 0.0 0.0
0.0 0.00854419743964809 0.0075233670741134615 -0.006785887252544383 -0.000737479821569078 0.002927967341860481 0.0 0.0
0.0 0.005185048044665485 0.004604940225923391 -0.004007208520346447 -0.0005977317055769401 0.0018718974913767834 0.0 0.0
0.0 0.002585540196457024 0.0023234992643283814 -0.001916787783838371 -0.0004067114804900101 0.0009230471172744164 0.0 0.0
0.0 0.0010554818661400176 0.0007668745525495631 -0.0005923646432372703 -0.00017450990931229356 0.0002528824390424564 0.0 0.0
0.0 0.00012982404045537983 6.047080371079061e-05 -4.1829362568067666e-05 -1.8641441142722534e-05 -1.4587323035035019e-05 0.0 0.0
0.0 -8.65180118259231e-06 -1.871811903706312e-06 1.4570801375592849e-06 4.1473176614696086e-07 -7.619601538301493e-07 0.0 0.0
0.0 -2.117502677458955e-07 1.9226471016883667e-08 -1.5449690059872236e-08 -3.776780957015529e-09 2.4434984322558555e-08 0.0 0.0
0.0 0.0 0.0 0.0 0.0 0.0 0.0 0.0
0.0 0.0009222763040401507 0.000390637986510102 -0.00016137294468494598 -0.00022926504182515525 0.0014324118363987254 0.0 0.0
0.0 0.004311652792067611 0.0029995566496301062 -0.004244623966415565 0.001245067316785455 0.0019917558005004958 0.0 0.0
0.0 0.0030202734070942554 0.002013561585733193 -0.002886650889989036 0.0008730893042558431 -0.0015445412597887677 0.0 0.0
0.0 0.00046458034815648923 0.00020495055342933173 -6.851372670569971e-05 -0.00013643682672363224 -0.0008606658389577222 0.0 0.0
0.0 0.0 0.0 0.0 0.0 0.0 0.0 0.0
0.0 9.284367499638105e-09 -7.860409871244372e-10 5.99985333389106e-10 1.8605565373520125e-10 1.1788236078775784e-09 0.0 0.0
0.0 -2.0543477166921096e-06 -1.158432132238978e-06 9.313841508186817e-07 2.2704798142031016e-07 1.401841998971108e-06 0.0 0.0
0.0 -1.2135824090563475e-06 -1.0389582777741766e-06 2.346315115432403e-06 -1.3073568376583242e-06 1.9948036750962997e-05 0.0 0.0
0.0 0.0004519839372729769 0.00039225468040879693 -0.0002967937947009913 -9.546088570780575e-05 -0.00019748994487006562 0.0 0.0
0.0 0.001973016347862113 0.0014779327528055238 -0.0011878284079786783 -0.0002901043448268465 -0.000769991802314042 0.0 0.0
0.0 0.003727565306055295 0.003360957916148041 -0.0028613556590027186 -0.0004996022571453193 -0.0018142114227798457 0.0 0.0
0.0 0.0066727382812324645 0.005790073022030628 -0.00513882470953442 -0.0006512483124962048 -0.00300630392895643 0.0 0.0
0.0 0.010083407950856542 0.008724593553955603 -0.007959501086807541 -0.0007650924671480639 -0.004233051274404842 0.0 0.0
0.0 0.014098554594049365 0.012163738588798278 -0.011303770806379057 -0.000859967782419222 -0.005454793957594846 0.0 0.0
0.0 0.018828171662163648 0.01620426385366474 -0.015255698974811303 -0.0009485648788534361 -0.006697491647142434 0.0 0.0
0.0 0.024530915700051305 0.021005836689752717 -0.01997712202582772 -0.001028714663925007 -0.008074467448300109 0.0 0.0
0.0 0.03113585628663486 0.026702361007514087 -0.02560497042659001 -0.0010973905809240883 -0.009669807151553215 0.0 0.0
0.0 0.0386882296500391 0.0332930764137042 -0.03214141944961128 -0.0011516569640929045 -0.011384039260388874 0.0 0.0
0.0 0.04745830202048343 0.04058103443368874 -0.039391282775235736 -0.001189751658452998 -0.012889674844532063 0.0 0.0
0.0 0.05614837945082006 0.04816783056031913 -0.04695729219814848 -0.0012105383621706625 -0.013653403612140767 0.0 0.0
0.0 0.06423667876567946 0.05536764997257753 -0.05416156954290976 -0.0012060804296677467 -0.012857205165364365 0.0 0.0
0.0 0.07093712291216278 0.061191115163989056 -0.060020773607712005 -0.0011703415562770267 -0.009425361603730645 0.0 0.0
0.0 0.07449459973576392 0.0639562450631642 -0.0631046721186711 -0.000851572944493069 1.2883357575210752e-14 0.0 0.0
0.0 0.0709371229121567 0.0611911151639819 -0.06002077360770497 -0.0011703415562769907 0.009425361603761683 0.0 0.0
0.0 0.06423667876566533 0.055367649972563805 -0.054161569542895985 -0.0012060804296678024 0.012857205165393978 0.0 0.0
0.0 0.05614837945079881 0.04816783056030004 -0.046957292198129344 -0.001210538362170669 0.01365340361215852 0.0 0.0
0.0 0.04745830202046053 0.040581034433668894 -0.03939128277521671 -0.0011897516584521727 0.012889674844535137 0.0 0.0
0.0 0.03868822965001344 0.03329307641368191 -0.03214141944958937 -0.0011516569640925504 0.011384039260384338 0.0 0.0
0.0 0.031135856286606724 0.026702361007489656 -0.02560497042656599 -0.001097390580923665 0.00966980715154747 0.0 0.0
0.0 0.024530915700027425 0.021005836689731404 -0.019977122025807127 -0.001028714663924286 0.008074467448295743 0.0 0.0
0.0 0.018828171662138946 0.016204263853643472 -0.015255698974790378 -0.0009485648788530777 0.006697491647136528 0.0 0.0
0.0 0.014098554594026407 0.012163738588778493 -0.01130377080635976 -0.0008599677824187205 0.005454793957585934 0.0 0.0
0.0 0.010083407950834863 0.008724593553937187 -0.007959501086789993 -0.0007650924671471948 0.004233051274393866 0.0 0.0
0.0 0.006672738281215186 0.005790073022015474 -0.005138824709519968 -0.0006512483124955041 0.003006303928947112 0.0 0.0
0.0 0.003727565306042644 0.0033609579161363564 -0.002861355658992052 -0.0004996022571443074 0.0018142114227731924 0.0 0.0
0.0 0.0019730163478527906 0.0014779327527982538 -0.0011878284079725326 -0.0002901043448257214 0.000769991802309992 0.0 0.0
0.0 0.00045198393726888136 0.0003922546804058515 -0.000296793794698738 -9.546088570711336e-05 0.00019748994486847282 0.0 0.0
0.0 -1.2135824095334624e-06 -1.0389582775597792e-06 2.3463151152452078e-06 -1.3073568376854432e-06 -1.9948036750484725e-05 0.0 0.0
0.0 -2.054347717136139e-06 -1.158432132237919e-06 9.313841508204533e-07 2.2704798141745168e-07 -1.4018419989951934e-06 0.0 0.0
0.0 9.284367478450311e-09 -7.860409853173938e-10 5.99985332009828e-10 1.8605565330757216e-10 -1.1788236051675036e-09 0.0 0.0
0.0 0.0 0.0 0.0 0.0 0.0 0.0 0.0
0.0 0.000464580348152184 0.00020495055342754714 -6.851372670449644e-05 -0.0001364368267230501 0.0008606658389522233 0.0 0.0
0.0 0.003020273407084622 0.0020135615857256916 -0.0028866508899786265 0.0008730893042529325 0.0015445412597834608 0.0 0.0
0.0 0.001851726442077885 0.0012620056643293256 -0.0018228307388655496 0.0005608250745362232 -0.0011148304880527339 0.0 0.0
0.0 0.00023230234349749291 7.045668828014268e-05 5.305738582332308e-06 -7.576242686247492e-05 -0.00041794319292492 0.0 0.0
0.0 0.0 0.0 0.0 0.0 0.0 0.0 0.0
0.0 0.0 0.0 0.0 0.0 0.0 0.0 0.0
0.0 -2.3338298102282435e-06 2.1000760947394828e-07 -1.6521425500021031e-07 -4.479335447372785e-08 -5.240846607297962e-07 0.0 0.0
0.0 -1.922780973120989e-05 -1.6850675493261e-05 1.351767445786378e-05 3.3330010353973124e-06 2.9564308994083365e-05 0.0 0.0
0.0 0.00017424445170389905 0.00011438306644123884 -8.512415243455415e-05 -2.9258914006684842e-05 -7.608635749057175e-05 0.0 0.0
0.0 0.0009746650911947102 0.0008206365201287841 -0.0006434167804045625 -0.00017721973972422165 -0.0005930168692876367 0.0 0.0
0.0 0.002869949387328593 0.002152376552625723 -0.0017849408840615495 -0.0003674356685641736 -0.0014818892889257244 0.0 0.0
0.0 0.004722844621786047 0.004105184126117576 -0.0035645274510952532 -0.0005406566750223242 -0.0027439691663397265 0.0 0.0
0.0 0.007603269246266986 0.006449459019932664 -0.0057851931896071 -0.0006642658303255636 -0.004032536296108464 0.0 0.0
0.0 0.010829098627254225 0.009185338093846002 -0.008423140750977727 -0.0007621973428682717 -0.005302998850866232 0.0 0.0
0.0 0.014576343254162929 0.012378830031963167 -0.011530521967155828 -0.0008483080648073445 -0.006571583448522373 0.0 0.0
0.0 0.019039165975744947 0.016168354680169 -0.015244546840581567 -0.0009238078395874233 -0.007944778563034622 0.0 0.0
0.0 0.024309740586836694 0.020684034087652143 -0.019696212431334847 -0.0009878216563172846 -0.009498090809339272 0.0 0.0
0.0 0.03076965841686917 0.02597011266794334 -0.024931902733296554 -0.0010382099346467862 -0.011182944761881862 0.0 0.0
0.0 0.03739269736410733 0.03193281949050881 -0.030854220136322573 -0.0010785993541862424 -0.01270559662517265 0.0 0.0
0.0 0.0449785331300578 0.038291843917413707 -0.03718440925938246 -0.0011074346580312114 -0.013570900713529599 0.0 0.0
0.0 0.05238756478213066 0.04461322517044408 -0.04349880898356541 -0.001114416186878671 -0.013043162273488403 0.0 0.0
0.0 0.058597857447141244 0.05013224888971773 -0.04905134460333762 -0.0010809042863800951 -0.009912024525998611 0.0 0.0
0.0 0.06243197482994768 0.053015517200467946 -0.052345358640671226 -0.0006701585597967406 1.248480485660508e-14 0.0 0.0
0.0 0.05859785744713762 0.05013224888971227 -0.04905134460333252 -0.001080904286379691 0.009912024526028018 0.0 0.0
0.0 0.05238756478211918 0.0446132251704323 -0.04349880898355348 -0.0011144161868788278 0.013043162273517641 0.0 0.0
0.0 0.044978533130041465 0.03829184391739856 -0.037184409259367425 -0.0011074346580311203 0.013570900713546443 0.0 0.0
0.0 0.03739269736408801 0.031932819490492294 -0.03085422013630675 -0.0010785993541855229 0.012705596625174188 0.0 0.0
0.0 0.030769658416847652 0.025970112667924955 -0.024931902733278194 -0.0010382099346467567 0.011182944761876498 0.0 0.0
0.0 0.02430974058681518 0.020684034087633297 -0.019696212431316248 -0.000987821656317023 0.009498090809333013 0.0 0.0
0.0 0.01903916597572408 0.01616835468015062 -0.015244546840563752 -0.0009238078395868729 0.007944778563029402 0.0 0.0
0.0 0.014576343254142433 0.012378830031945766 -0.011530521967138952 -0.0008483080648068051 0.006571583448515764 0.0 0.0
0.0 0.010829098627235162 0.009185338093830063 -0.00842314075096215 -0.0007621973428679213 0.005302998850857383 0.0 0.0
0.0 0.007603269246249884 0.006449459019918328 -0.005785193189593626 -0.0006642658303246985 0.004032536296097778 0.0 0.0
0.0 0.0047228446217721706 0.0041051841261058476 -0.003564527451084192 -0.0005406566750216563 0.0027439691663306773 0.0 0.0
0.0 0.0028699493873166125 0.0021523765526165906 -0.0017849408840535366 -0.00036743566856305317 0.0014818892889195277 0.0 0.0
0.0 0.0009746650911880972 0.0008206365201235979 -0.0006434167804003053 -0.00017721973972329154 0.0005930168692839311 0.0 0.0
0.0 0.00017424445170088844 0.0001143830664396365 -8.512415243335624e-05 -2.925891400628038e-05 7.608635748925774e-05 0.0 0.0
0.0 -1.9227809731794342e-05 -1.6850675492929403e-05 1.351767445760681e-05 3.3330010353225105e-06 -2.956430899368377e-05 0.0 0.0
0.0 -2.333829809953058e-06 2.10007609468397e-07 -1.6521425499695022e-07 -4.479335447144367e-08 5.240846607376119e-07 0.0 0.0
0.0 0.0 0.0 0.0 0.0 0.0 0.0 0.0
0.0 0.0 0.0 0.0 0.0 0.0 0.0 0.0
0.0 0.00023230234349441714 7.04566882790457e-05 5.305738583056145e-06 -7.576242686210198e-05 0.00041794319292118645 0.0 0.0
0.0 0.0018517264420707088 0.001262005664323811 -0.0018228307388577169 0.000560825074533906 0.0011148304880487581 0.0 0.0
0.0 0.0013971064233830493 0.0006486138406379844 -0.0009399487660500851 0.00029133492541210076 -0.0006486340743954242 0.0 0.0
0.0 -8.971382469135802e-06 -3.4275838134062417e-07 3.5427243606750615e-05 -3.508448522541003e-05 -0.00013226471910355675 0.0 0.0
0.0 1.501239477888374e-07 -8.943371455963241e-10 1.017711353153143e-09 -1.233742075570957e-10 2.99033348444305e-08 0.0 0.0
0.0 0.0 0.0 0.0 0.0 0.0 0.0 0.0
0.0 -8.611818358013544e-07 -1.0809824296835289e-07 8.937055704260866e-08 1.872768592575014e-08 2.5690398023982003e-07 0.0 0.0
0.0 -9.213788588177006e-06 -5.732494736381954e-06 4.55617083047024e-06 1.1763239059116811e-06 1.5617706480107752e-05 0.0 0.0
0.0 5.416245609329203e-06 -5.016806781264152e-06 4.792103559795076e-06 2.2470322146894672e-07 1.6283743043648677e-05 0.0 0.0
0.0 0.00038946338131630795 0.0003163180039754513 -0.00024478602874435665 -7.153197523109467e-05 -0.0003560566629507544 0.0 0.0
0.0 0.0014517946455246335 0.0011454546103893716 -0.0009239837936515353 -0.0002214708167378352 -0.0010658888172185748 0.0 0.0
0.0 0.003335455001060333 0.002484879640030889 -0.0020991739959023 -0.00038570564412858914 -0.0021240859993453373 0.0 0.0
0.0 0.005212698396554386 0.004237860953846512 -0.003712387130375511 -0.0005254738234709971 -0.003403916291815596 0.0 0.0
0.0 0.007590958504333013 0.006279802208052791 -0.0056462647113028125 -0.0006335374967499838 -0.004652664938516828 0.0 0.0
0.0 0.010435214989514935 0.008639917524859299 -0.00791702885841079 -0.0007228886664485045 -0.0058833136111383875 0.0 0.0
0.0 0.013748870457107586 0.011433929311223619 -0.01063707044780985 -0.0007968588634137688 -0.007168132892806893 0.0 0.0
0.0 0.017808488536428347 0.014778239571310893 -0.013920085345125177 -0.0008581542261857142 -0.008584925447666907 0.0 0.0
0.0 0.022493158660312828 0.018757175259340158 -0.017849482147729114 -0.0009076931116110344 -0.010104346111279798 0.0 0.0
0.0 0.028092218856773606 0.023341452167647568 -0.022393812375485093 -0.0009476397921624682 -0.011536317137059507 0.0 0.0
0.0 0.033951426517426386 0.028406023130343384 -0.027422295726533836 -0.00098372740380953 -0.012441867344405826 0.0 0.0
0.0 0.03992524294589822 0.0337511188373781 -0.03274184708718604 -0.0010092717501920814 -0.012260102440758836 0.0 0.0
0.0 0.04589811064869424 0.03890795424251617 -0.03792301248447517 -0.0009849417580409978 -0.009863223447890417 0.0 0.0
0.0 0.05016611471899349 0.041947079116170946 -0.04148336089450899 -0.00046371822166193084 1.0110402098861826e-14 0.0 0.0
0.0 0.045898110648693896 0.03890795424251306 -0.03792301248447236 -0.0009849417580407042 0.009863223447916611 0.0 0.0
0.0 0.03992524294588754 0.03375111883736671 -0.032741847087174376 -0.0010092717501923353 0.012260102440785552 0.0 0.0
0.0 0.03395142651741396 0.028406023130331796 -0.0274222957265225 -0.0009837274038093167 0.012441867344420345 0.0 0.0
0.0 0.028092218856757646 0.02334145216763401 -0.022393812375472145 -0.0009476397921618604 0.011536317137059188 0.0 0.0
0.0 0.022493158660295318 0.018757175259325756 -0.017849482147714753 -0.0009076931116110133 0.01010434611127351 0.0 0.0
0.0 0.017808488536412308 0.014778239571297027 -0.013920085345111534 -0.0008581542261854972 0.008584925447661422 0.0 0.0
0.0 0.01374887045709231 0.011433929311210676 -0.010637070447797086 -0.00079685886341359 0.007168132892802159 0.0 0.0
0.0 0.010435214989501597 0.008639917524848056 -0.007917028858400276 -0.0007228886664477805 0.005883313611132923 0.0 0.0
0.0 0.00759095850431823 0.006279802208040498 -0.005646264711290892 -0.0006335374967496035 0.004652664938507896 0.0 0.0
0.0 0.00521269839654113 0.004237860953835736 -0.0037123871303657574 -0.0005254738234699775 0.003403916291805807 0.0 0.0
0.0 0.003335455001049238 0.002484879640022314 -0.002099173995894532 -0.00038570564412778157 0.0021240859993375133 0.0 0.0
0.0 0.0014517946455172123 0.0011454546103837693 -0.0009239837936467605 -0.00022147081673700838 0.0010658888172138138 0.0 0.0
0.0 0.0003894633813117326 0.0003163180039721699 -0.0002447860287417382 -7.153197523043195e-05 0.0003560566629473625 0.0 0.0
0.0 5.416245608478248e-06 -5.0168067815939555e-06 4.792103560047646e-06 2.247032215462452e-07 -1.6283743044093187e-05 0.0 0.0
0.0 -9.213788588892505e-06 -5.732494735998717e-06 4.55617083016429e-06 1.1763239058344724e-06 -1.5617706479042842e-05 0.0 0.0
0.0 -8.61181835744275e-07 -1.0809824304019948e-07 8.93705571003181e-08 1.8727685939876215e-08 -2.5690398045426463e-07 0.0 0.0
0.0 0.0 0.0 0.0 0.0 0.0 0.0 0.0
0.0 1.5012394747879627e-07 -8.94337143643398e-10 1.0177113510135556e-09 -1.2337420737023362e-10 -2.990333478189685e-08 0.0 0.0
0.0 -8.97138247067474e-06 -3.427583818104344e-07 3.54272436070087e-05 -3.5084485225198385e-05 0.00013226471910153975 0.0 0.0
0.0 0.0013971064233764827 0.0006486138406343862 -0.0009399487660448828 0.00029133492541049766 0.0006486340743924698 0.0 0.0
0.0 0.0005418299508838725 0.0002821115542259515 -0.00041093813135213177 0.00012882657712618085 -0.00035199803848832604 0.0 0.0
0.0 -4.999343402261919e-05 -2.6878815419493676e-05 4.263315511017713e-05 -1.57543396906835e-05 1.7277577911233456e-05 0.0 0.0
0.0 2.2756234019458266e-06 -3.622856323065417e-09 1.1119213435067454e-08 -7.496357112000574e-09 4.94855934509731e-07 0.0 0.0
0.0 7.008288629186086e-07 1.57318054483748e-09 -2.4788671397122456e-09 9.056865948736081e-10 1.455466505324995e-07 0.0 0.0
0.0 5.522155306975149e-07 -2.575866520837438e-08 1.639522103802042e-08 9.363444170353976e-09 2.544645533905157e-07 0.0 0.0
0.0 -1.2135603336543084e-05 -8.737672614880381e-07 7.099971931781957e-07 1.637700683098471e-07 4.309951525632866e-06 0.0 0.0
0.0 -7.222816129075152e-06 -1.404247724816164e-05 1.1285945868814131e-05 2.7565313793474785e-06 4.308222138825521e-05 0.0 0.0
0.0 0.00011994975872828082 2.4281797959301117e-05 -1.9427115169911587e-05 -4.85468278938947e-06 -7.557152586165606e-05 0.0 0.0
0.0 0.0005622361789034854 0.00036141443941411046 -0.00029015023392925794 -7.126420548485243e-05 -0.0005828041614619953 0.0 0.0
0.0 0.0015983767921214796 0.0010934045142436302 -0.0009033930087139607 -0.0001900115055296701 -0.0013476909284496155 0.0 0.0
0.0 0.002840722895418445 0.0021751052005736992 -0.0018521838924611444 -0.0003229213081125544 -0.0023895930832335127 0.0 0.0
0.0 0.004518556227353983 0.003491763456640122 -0.0030558147763776636 -0.0004359486802624564 -0.003481680600232489 0.0 0.0
0.0 0.006419979859712631 0.005030133042656187 -0.004494531009505009 -0.000535602033151173 -0.0046016806471890674 0.0 0.0
0.0 0.008646318125767603 0.006851231359162299 -0.006234832686229786 -0.0006163986729325027 -0.0057450449473975835 0.0 0.0
0.0 0.011368089490417572 0.009044885712515697 -0.008362987271362077 -0.0006818984411536234 -0.006940757444031718 0.0 0.0
0.0 0.014685434316056567 0.011705583707251534 -0.010971243514790464 -0.000734340192461075 -0.008210913880873768 0.0 0.0
0.0 0.018595838037553145 0.014888316683747814 -0.01410792563141205 -0.0007803910523357474 -0.009463607613465272 0.0 0.0
0.0 0.02288288176048626 0.018584519352751253 -0.017764295158002555 -0.000820224194748716 -0.010368458099253988 0.0 0.0
0.0 0.02772267418484577 0.022786180344464762 -0.02192286520505321 -0.0008633151394115249 -0.010432018770893194 0.0 0.0
0.0 0.03325456760441886 0.02743228275215482 -0.026559743684939498 -0.0008725390672153008 -0.009061347139534225 0.0 0.0
0.0 0.03778075831739294 0.03065274474600057 -0.03042369819771156 -0.00022904654828903996 8.08988293021784e-15 0.0 0.0
0.0 0.0332545676044186 0.027432282752151628 -0.026559743684936125 -0.0008725390672155054 0.009061347139556064 0.0 0.0
0.0 0.027722674184838786 0.022786180344456758 -0.021922865205045102 -0.0008633151394116363 0.010432018770914608 0.0 0.0
0.0 0.02288288176047771 0.01858451935274354 -0.017764295157995127 -0.0008202241947484075 0.010368458099264653 0.0 0.0
0.0 0.01859583803754096 0.014888316683738191 -0.014107925631402833 -0.0007803910523353592 0.009463607613463054 0.0 0.0
0.0 0.01468543431604442 0.011705583707241842 -0.010971243514781088 -0.0007343401924607385 0.008210913880867289 0.0 0.0
0.0 0.011368089490407388 0.009044885712507228 -0.008362987271353773 -0.0006818984411534497 0.006940757444027253 0.0 0.0
0.0 0.008646318125758924 0.006851231359155008 -0.006234832686223054 -0.0006163986729319544 0.005745044947394582 0.0 0.0
0.0 0.006419979859703715 0.0050301330426487335 -0.0044945310094981145 -0.0005356020331506187 0.004601680647183986 0.0 0.0
0.0 0.004518556227344934 0.0034917634566335805 -0.00305581477637165 -0.0004359486802619309 0.0034816806002261826 0.0 0.0
0.0 0.0028407228954093876 0.002175105200566756 -0.0018521838924547812 -0.0003229213081119743 0.002389593083224898 0.0 0.0
0.0 0.0015983767921136974 0.0010934045142381964 -0.0009033930087093206 -0.00019001150552887578 0.001347690928443679 0.0 0.0
0.0 0.0005622361788995357 0.00036141443941147585 -0.0002901502339271561 -7.126420548431953e-05 0.0005828041614590518 0.0 0.0
0.0 0.00011994975872621648 2.4281797958428256e-05 -1.942711516918891e-05 -4.854682789239254e-06 7.557152585964017e-05 0.0 0.0
0.0 -7.222816129898562e-06 -1.4042477247559767e-05 1.128594586833864e-05 2.756531379221177e-06 -4.308222138681676e-05 0.0 0.0
0.0 -1.2135603336622546e-05 -8.737672613796315e-07 7.099971930993697e-07 1.637700682802274e-07 -4.309951524822419e-06 0.0 0.0
0.0 5.522155304673305e-07 -2.575866523779492e-08 1.6395221060522913e-08 9.363444177282486e-09 -2.544645535550562e-07 0.0 0.0
0.0 7.008288627170988e-07 1.5731805444119602e-09 -2.4788671389033304e-09 9.05686594490751e-10 -1.455466504885613e-07 0.0 0.0
0.0 2.2756234013447927e-06 -3.6228563214464765e-09 1.1119213431972399e-08 -7.496357110524799e-09 -4.948559343785076e-07 0.0 0.0
0.0 -4.999343402298684e-05 -2.687881541930081e-05 4.2633155109865276e-05 -1.575433969056444e-05 -1.7277577911101255e-05 0.0 0.0
0.0 0.0005418299508797074 0.0002821115542240206 -0.0004109381313493626 0.00012882657712534184 0.0003519980384861665 0.0 0.0
0.0 0.00015896191474342806 4.869538741810071e-05 -7.247792971362169e-05 2.3782542295521108e-05 -6.645010162730454e-05 0.0 0.0
0.0 -2.019608741482548e-05 -8.604371108239297e-06 1.196052749622798e-05 -3.3561563879886827e-06 1.527725451967133e-05 0.0 0.0
0.0 5.096525743868014e-07 9.381252579871773e-11 1.5396771685514519e-09 -1.6334896943491657e-09 1.0271581062143611e-07 0.0 0.0
0.0 4.096640072979324e-07 9.90752011270457e-09 -8.396156044114786e-09 -1.5113640685919163e-09 8.098632487915903e-08 0.0 0.0
0.0 1.550069569893721e-07 2.8734877087667178e-08 -2.2494564378033882e-08 -6.240312709624929e-09 -2.8579867055770478e-08 0.0 0.0
0.0 -2.6018175331577893e-06 -9.526713790898949e-07 7.362076267853547e-07 2.1646375230451446e-07 9.276277834666407e-06 0.0 0.0
0.0 -2.740447454565911e-06 -3.764308714871067e-06 3.0469364369691938e-06 7.173722779018949e-07 2.2838771495514643e-05 0.0 0.0
0.0 5.1124472471635634e-05 1.0236849615459348e-06 -6.315232515519202e-07 -3.921617099940179e-07 -5.4558647773155274e-05 0.0 0.0
0.0 0.00014890176130904895 1.4837923529593986e-05 -1.3406145412590394e-05 -1.431778117003593e-06 -0.00022214086795307298 0.0 0.0
0.0 0.0004298835085841653 0.00014658131686261165 -0.00012862429320964 -1.7957023652971838e-05 -0.0006078335914827611 0.0 0.0
0.0 0.001077439081494238 0.00045811550445703055 -0.00040873711114672003 -4.937839331031053e-05 -0.0012062004187599383 0.0 0.0
0.0 0.0017563668572048137 0.0009914138576628615 -0.0008839833237231525 -0.00010743053393970895 -0.002043544572541274 0.0 0.0
0.0 0.0027662922735026694 0.001693021289705501 -0.0015149929864404464 -0.00017802830326505334 -0.0029437233801877264 0.0 0.0
0.0 0.004018514732662285 0.002560058371760258 -0.002311946802108682 -0.0002481115696515793 -0.0039056755085516925 0.0 0.0
0.0 0.0055084632519211 0.003632819486319037 -0.003311541987593633 -0.0003212774987253991 -0.0049242095711207485 0.0 0.0
0.0 0.007350760512207216 0.004984308027655728 -0.004588861669619266 -0.0003954463580364616 -0.006014645816228399 0.0 0.0
0.0 0.009717283922900275 0.00673156960750569 -0.00625975836103018 -0.0004718112464755117 -0.007171913383683045 0.0 0.0
0.0 0.012737821622685103 0.00901163982288323 -0.008470103044267725 -0.0005415367786155025 -0.008143777175076068 0.0 0.0
0.0 0.016232758168936618 0.011925105377089618 -0.011326055962419979 -0.0005990494146696495 -0.008362657989594903 0.0 0.0
0.0 0.020423823497511238 0.015727499720014734 -0.015044452840570759 -0.000683046879443965 -0.007468388495660668 0.0 0.0
0.0 0.026101484087332094 0.01905660302356667 -0.019112216454087807 5.5613430521126627e-05 6.452737649764728e-15 0.0 0.0
0.0 0.02042382349751415 0.01572749972001383 -0.01504445284056974 -0.000683046879444084 0.007468388495678335 0.0 0.0
0.0 0.016232758168934113 0.011925105377086036 -0.01132605596241649 -0.0005990494146695472 0.008362657989610283 0.0 0.0
0.0 0.012737821622679207 0.009011639822878862 -0.0084701030442633 -0.0005415367786155716 0.008143777175081593 0.0 0.0
0.0 0.009717283922892476 0.0067315696075010995 -0.006259758361025941 -0.0004718112464751608 0.007171913383679778 0.0 0.0
0.0 0.007350760512200118 0.004984308027650995 -0.00458886166961456 -0.00039544635803643436 0.006014645816222006 0.0 0.0
0.0 0.005508463251917388 0.0036328194863161 -0.003311541987590846 -0.00032127749872525626 0.004924209571117616 0.0 0.0
0.0 0.004018514732657695 0.002560058371757432 -0.002311946802106066 -0.0002481115696513656 0.003905675508549259 0.0 0.0
0.0 0.0027662922734972123 0.001693021289702245 -0.0015149929864373714 -0.00017802830326487298 0.0029437233801823865 0.0 0.0
0.0 0.0017563668572012476 0.0009914138576611507 -0.0008839833237216151 -0.00010743053393953558 0.0020435445725369493 0.0 0.0
0.0 0.0010774390814891517 0.00045811550445470656 -0.00040873711114464525 -4.937839331006085e-05 0.001206200418753376 0.0 0.0
0.0 0.00042988350858116686 0.0001465813168614341 -0.00012862429320856838 -1.795702365286561e-05 0.0006078335914804155 0.0 0.0
0.0 0.00014890176130777813 1.4837923529242862e-05 -1.3406145412271413e-05 -1.4317781169714375e-06 0.00022214086795120717 0.0 0.0
0.0 5.1124472470555633e-05 1.0236849615337703e-06 -6.315232515428274e-07 -3.921617099909749e-07 5.4558647772535835e-05 0.0 0.0
0.0 -2.740447454812559e-06 -3.7643087148224814e-06 3.0469364369305437e-06 7.173722778919529e-07 -2.28387714951162e-05 0.0 0.0
0.0 -2.601817533707309e-06 -9.526713791106716e-07 7.362076268004721e-07 2.1646375231020003e-07 -9.276277834718726e-06 0.0 0.0
0.0 1.550069566081278e-07 2.873487709549779e-08 -2.249456438319264e-08 -6.240312712308342e-09 2.857986719194809e-08 0.0 0.0
0.0 4.096640068308793e-07 9.90752010832275e-09 -8.39615604017302e-09 -1.5113640681489081e-09 -8.098632478345155e-08 0.0 0.0
0.0 5.096525740515149e-07 9.381252618957887e-11 1.539677166806176e-09 -1.6334896929998106e-09 -1.0271581055161462e-07 0.0 0.0
0.0 -2.019608741521586e-05 -8.60437110811841e-06 1.1960527496066171e-05 -3.3561563879477566e-06 -1.5277254519427994e-05 0.0 0.0
0.0 0.0001589619147415201 4.869538741756292e-05 -7.247792971283041e-05 2.3782542295267408e-05 6.645010162659641e-05 0.0 0.0
0.0 3.6273938944872556e-06 3.3524671920882537e-06 -5.2219888600771435e-06 1.8695216679888415e-06 -5.204601414556026e-06 0.0 0.0
0.0 -1.5194482265931433e-06 -4.362177275092902e-07 6.837987088870531e-07 -2.475809813777476e-07 4.822451343674829e-07 0.0 0.0
0.0 3.5472525368399235e-06 1.0463884814333531e-08 6.009495894079549e-09 -1.6473380708417766e-08 7.675280508256148e-07 0.0 0.0
0.0 1.2405663355666563e-06 2.296314495505155e-08 -1.9338392250235115e-08 -3.624752704813151e-09 2.542797602654144e-07 0.0 0.0
0.0 7.821947515459587e-08 1.9553413154148733e-08 -1.741372149231297e-08 -2.139691661835925e-09 -6.284691891100786e-09 0.0 0.0
0.0 -3.764539462678918e-06 6.938410867539798e-08 -6.631282172037178e-08 -3.0712869550231034e-09 9.068142321932195e-06 0.0 0.0
0.0 1.615218038746412e-06 -1.37111893740019e-07 1.143322864668417e-07 2.2779607273166855e-08 2.1404977307743983e-05 0.0 0.0
0.0 4.3423619140224875e-05 -3.113093424188363e-07 3.189670282329913e-07 -7.65768581414771e-09 -7.355415910575171e-05 0.0 0.0
0.0 0.0001718114517313919 -3.0216541393637295e-08 2.932250082109994e-08 8.940405725686967e-10 -0.00021087425638266453 0.0 0.0
0.0 0.00027284635898467075 1.4399677498761007e-07 -1.018197816219967e-07 -4.21769933656122e-08 -0.0004601137453363994 0.0 0.0
0.0 0.0005301115283748112 -2.359790468258623e-06 1.4821515217661466e-06 8.776389464923993e-07 -0.0007578262624156069 0.0 0.0
0.0 0.0006769610942683456 1.5821084785776723e-06 -1.2041497436234465e-06 -3.7795873495411744e-07 -0.0012665455295808134 0.0 0.0
0.0 0.0009545410865864579 2.2931354832129053e-06 -1.5528893750107794e-06 -7.402461082020412e-07 -0.0019056502076307661 0.0 0.0
0.0 0.0013179038278289144 4.395693709255432e-07 8.66486041359871e-07 -1.3060554122852448e-06 -0.002722950671652201 0.0 0.0
0.0 0.0018916724298928711 -1.119156948874053e-05 1.1092731493051442e-05 9.883799568878907e-08 -0.003751845215578483 0.0 0.0
0.0 0.0026904322144791003 5.3309768497516574e-05 -6.789537054866353e-05 1.458560205114617e-05 -0.004982065093254776 0.0 0.0
0.0 0.003723327067299024 0.0003279840961934879 -0.00037898423516749845 5.100013897401133e-05 -0.006332365919630519 0.0 0.0
0.0 0.0049997569310986575 0.0009426099566488663 -0.001081065974113511 0.00013845601746464382 -0.007679674783449609 0.0 0.0
0.0 0.006956102309461683 0.0018600012791467114 -0.002064004127042358 0.0002040028478956472 -0.00872895512028129 0.0 0.0
0.0 0.010237028922694298 0.004202725499690078 -0.004091185647766263 -0.00011153985192381303 -0.008694072095430912 0.0 0.0
0.0 0.01772867131486186 0.008005405256434586 -0.0084815145772199 0.0004761093207853183 7.099789506304077e-15 0.0 0.0
0.0 0.010237028922699487 0.004202725499690179 -0.0040911856477668105 -0.00011153985192336852 0.008694072095446261 0.0 0.0
0.0 0.006956102309460364 0.001860001279145478 -0.0020640041270412416 0.0002040028478957643 0.00872895512028449 0.0 0.0
0.0 0.004999756931094048 0.0009426099566482367 -0.0010810659741125152 0.00013845601746427812 0.007679674783445212 0.0 0.0
0.0 0.003723327067294467 0.000327984096193446 -0.00037898423516731955 5.100013897387347e-05 0.006332365919625252 0.0 0.0
0.0 0.0026904322144763286 5.330976849782514e-05 -6.789537054891214e-05 1.4585602051087474e-05 0.004982065093249433 0.0 0.0
0.0 0.0018916724298898564 -1.1191569488604516e-05 1.1092731492980237e-05 9.883799562427904e-08 0.0037518452155744326 0.0 0.0
0.0 0.001317903827827413 4.395693711801139e-07 8.66486041100191e-07 -1.3060554122803591e-06 0.0027229506716491348 0.0 0.0
0.0 0.0009545410865831226 2.2931354832229477e-06 -1.5528893750368477e-06 -7.402461081861068e-07 0.0019056502076240565 0.0 0.0
0.0 0.0006769610942668167 1.5821084785538978e-06 -1.2041497436134075e-06 -3.7795873494052086e-07 0.0012665455295772922 0.0 0.0
0.0 0.0005301115283716588 -2.359790468079551e-06 1.482151521628649e-06 8.77638946450909e-07 0.0007578262624107811 0.0 0.0
0.0 0.00027284635898450107 1.4399677505073184e-07 -1.0181978168079944e-07 -4.2176993369916304e-08 0.00046011374533545303 0.0 0.0
0.0 0.0001718114517305525 -3.02165413740666e-08 2.9322500810432405e-08 8.940405636269934e-10 0.00021087425638161234 0.0 0.0
0.0 4.3423619139344544e-05 -3.113093424270004e-07 3.189670282470597e-07 -7.657685820044436e-09 7.355415910492212e-05 0.0 0.0
0.0 1.6152180383837642e-06 -1.3711189374199353e-07 1.1433228646921684e-07 2.2779607272784208e-08 -2.140497730729411e-05 0.0 0.0
0.0 -3.764539463246501e-06 6.938410867048499e-08 -6.631282171625342e-08 -3.071286954237889e-09 -9.06814232178065e-06 0.0 0.0
0.0 7.821947466927294e-08 1.955341314824257e-08 -1.741372148698716e-08 -2.13969166125215e-09 6.284691988554587e-09 0.0 0.0
0.0 1.2405663350389034e-06 2.2963144945294832e-08 -1.9338392241929008e-08 -3.624752703366745e-09 -2.542797601527055e-07 0.0 0.0
0.0 3.5472525366014176e-06 1.0463884814775816e-08 6.009495892889096e-09 -1.6473380707655714e-08 -7.675280507631476e-07 0.0 0.0
0.0 -1.5194482266995146e-06 -4.362177275471213e-07 6.837987089373112e-07 -2.475809813902056e-07 -4.822451343916009e-07 0.0 0.0
0.0 3.6273938935668586e-06 3.3524671923481e-06 -5.221988860461721e-06 1.8695216681137268e-06 5.204601415059314e-06 0.0 0.0
0.0 1.2392568618169737e-06 -7.491151091484791e-08 1.1767598598030642e-07 -4.2764475065472074e-08 1.441325408975938e-07 0.0 0.0
0.0 -1.2804676808165333e-07 1.0642793818054779e-08 -1.6857995420580048e-08 6.215201602525346e-09 -8.261573953885582e-09 0.0 0.0
0.0 -8.848579253147267e-07 -1.2999190855600736e-08 9.294462519730756e-09 3.7047283358701572e-09 -1.9146948799262698e-07 0.0 0.0
0.0 1.490317100255079e-06 4.241911744592017e-08 -3.470315010590186e-08 -7.71596734001991e-09 3.1235457426870176e-07 0.0 0.0
0.0 -1.6924192894210858e-06 1.6428155146742748e-07 -1.4944319778782952e-07 -1.4838353679595928e-08 1.0542272505567166e-06 0.0 0.0
0.0 -3.979550731859777e-06 -1.0791878187405923e-07 1.2095351628502725e-07 -1.3034734410934856e-08 1.8106574374724754e-06 0.0 0.0
0.0 1.1470376202416228e-05 5.345093364309487e-06 -4.2136714388888916e-06 -1.1314219254206513e-06 3.262359926895854e-05 0.0 0.0
0.0 5.61810148474987e-05 -1.931009275516933e-06 1.486226616773611e-06 4.447826587433296e-07 -5.680924325968168e-05 0.0 0.0
0.0 0.00014985720855669151 -1.5372252162986826e-05 1.386569743773624e-05 1.5065547252503907e-06 -0.0002238234952150933 0.0 0.0
0.0 0.0004278209249988606 -0.00014579278446904837 0.00012788256688158405 1.791021758746439e-05 -0.0006070664742314318 0.0 0.0
0.0 0.0010765029458744194 -0.0004473879738443174 0.0004011851271979111 4.620284664640629e-05 -0.0011973703622430666 0.0 0.0
0.0 0.0017698850190388743 -0.000996869139621488 0.0008881467121426869 0.00010872242747880076 -0.00204359210655939 0.0 0.0
0.0 0.002784532178484059 -0.0017076312917795459 0.0015275650450596284 0.00018006624671991622 -0.0029447864749947692 0.0 0.0
0.0 0.004057023026478416 -0.0025906144301879866 0.002340093054908331 0.0002505213752796542 -0.0039020885320031197 0.0 0.0
0.0 0.005507100227401779 -0.003641439516497814 0.0033256332929661164 0.0003158062235316979 -0.004933450639411441 0.0 0.0
0.0 0.007133978652960946 -0.004786906510469602 0.00443199333740258 0.00035491317306702013 -0.006107896480375785 0.0 0.0
0.0 0.008713767579687207 -0.005821657882676532 0.005468214148635924 0.0003534437340406083 -0.00751166412116679 0.0 0.0
0.0 0.01007257195959651 -0.006359634988559997 0.006073170784085553 0.00028646420447443765 -0.009172933387756085 0.0 0.0
0.0 0.010304373713544158 -0.005893903839895149 0.005729088526460498 0.00016481531343465807 -0.011078268914824023 0.0 0.0
0.0 0.008695324819665154 -0.0042719632741377404 0.00425865653155309 1.3306742584649056e-05 -0.012624572063750464 0.0 0.0
0.0 0.016817900131868145 -0.0023229283671757027 0.0008710215427120225 0.0014519068244636811 1.0110402098861826e-14 0.0 0.0
0.0 0.008695324819671061 -0.004271963274139014 0.0042586565315547355 1.3306742584278449e-05 0.012624572063759151 0.0 0.0
0.0 0.010304373713543095 -0.0058939038398932745 0.005729088526459026 0.0001648153134342551 0.01107826891483241 0.0 0.0
0.0 0.010072571959590246 -0.00635963498855566 0.0060731707840813096 0.00028646420447434837 0.009172933387757088 0.0 0.0
0.0 0.008713767579678984 -0.005821657882670779 0.005468214148630244 0.0003534437340405375 0.007511664121161136 0.0 0.0
0.0 0.007133978652951905 -0.004786906510462912 0.004431993337396019 0.00035491317306689154 0.0061078964803691314 0.0 0.0
0.0 0.005507100227394811 -0.003641439516492007 0.003325633292960725 0.000315806223531287 0.004933450639405449 0.0 0.0
0.0 0.004057023026471366 -0.0025906144301821635 0.002340093054902964 0.0002505213752791996 0.003902088531999033 0.0 0.0
0.0 0.002784532178474559 -0.0017076312917729223 0.0015275650450535063 0.00018006624671941567 0.002944786474987363 0.0 0.0
0.0 0.0017698850190307623 -0.0009968691396162585 0.000888146712138007 0.00010872242747825094 0.0020435921065522443 0.0 0.0
0.0 0.0010765029458672999 -0.00044738797384090835 0.000401185127194845 4.620284664606272e-05 0.0011973703622361897 0.0 0.0
0.0 0.0004278209249941401 -0.0001457927844671845 0.00012788256687984526 1.79102175873392e-05 0.0006070664742282975 0.0 0.0
0.0 0.00014985720855570898 -1.537225216284099e-05 1.3865697437614172e-05 1.5065547252267813e-06 0.00022382349521401514 0.0 0.0
0.0 5.618101484649137e-05 -1.931009275465535e-06 1.4862266167473281e-06 4.4478265871820384e-07 5.680924325874684e-05 0.0 0.0
0.0 1.1470376201591489e-05 5.345093364234382e-06 -4.213671438830527e-06 -1.1314219254038379e-06 -3.262359926852115e-05 0.0 0.0
0.0 -3.979550732116356e-06 -1.0791878196931192e-07 1.2095351636674708e-07 -1.3034734397432354e-08 -1.810657436765817e-06 0.0 0.0
0.0 -1.6924192900235712e-06 1.642815514744638e-07 -1.4944319779413118e-07 -1.4838353680336602e-08 -1.0542272505917118e-06 0.0 0.0
0.0 1.4903170996868914e-06 4.241911743258753e-08 -3.470315009501489e-08 -7.715967337572316e-09 -3.123545741501756e-07 0.0 0.0
0.0 -8.848579255573359e-07 -1.299919085404969e-08 9.294462517139446e-09 3.7047283369072572e-09 1.91469488037071e-07 0.0 0.0
0.0 -1.2804676798055457e-07 1.0642793812113905e-08 -1.685799541225912e-08 6.215201600149092e-09 8.261573940558166e-09 0.0 0.0
0.0 1.2392568610875138e-06 -7.491151086901853e-08 1.1767598590977797e-07 -4.276447504077999e-08 -1.441325408055337e-07 0.0 0.0
0.0 0.0 0.0 0.0 0.0 0.0 0.0 0.0
0.0 -2.421719605901748e-07 -3.2468155202972983e-09 1.8808664176063756e-09 1.3659491026902043e-09 -4.880557232414907e-08 0.0 0.0
0.0 2.777239320380311e-07 -8.775193084063511e-09 1.0215675204000533e-08 -1.44048211993567e-09 5.257744074949842e-08 0.0 0.0
0.0 -9.073015980962664e-07 -5.68571413310864e-08 4.755545022616241e-08 9.301691104915119e-09 -2.3445117856962518e-07 0.0 0.0
0.0 7.68272628295065e-06 -2.911387520414455e-08 1.3555483907788473e-08 1.5558391296404928e-08 3.3658311461912257e-07 0.0 0.0
0.0 3.697748995325005e-06 6.070928899209091e-06 -4.906105128732827e-06 -1.1648237704762452e-06 2.6226722326121702e-05 0.0 0.0
0.0 -6.185878880502911e-06 5.103508184024469e-06 -4.03404213652313e-06 -1.0694660475012606e-06 2.783305786163085e-07 0.0 0.0
0.0 0.00012986139490881376 -2.7669311108071476e-05 2.2311568199351184e-05 5.3577429087201455e-06 -8.348101171919568e-05 0.0 0.0
0.0 0.0005611652655737004 -0.000360812307544447 0.00028958644251022593 7.122586503422105e-05 -0.0005832777612958467 0.0 0.0
0.0 0.0015941969748475447 -0.0010912591363171392 0.0009014302945331344 0.00018982884178400436 -0.0013445467468320288 0.0 0.0
0.0 0.002839126591518774 -0.002174557729034589 0.001851722714444181 0.00032283501459040744 -0.002388133662422724 0.0 0.0
0.0 0.004522576419923575 -0.0034948324563800863 0.003058601740544695 0.0004362307158353936 -0.003482499737347 0.0 0.0
0.0 0.006433848952040003 -0.005042336299807744 0.0045058529558072505 0.0005364833440004913 -0.00459515336901897 0.0 0.0
0.0 0.008673917360314897 -0.0068798729844206956 0.006262811237576394 0.0006170617468442995 -0.005717752912342619 0.0 0.0
0.0 0.01137728436076825 -0.009062545124371905 0.0083845995162529 0.0006779456081190087 -0.006919941250523514 0.0 0.0
0.0 0.014505131106477203 -0.011549605778788396 0.010835587764751825 0.000714018014036572 -0.008366815616495734 0.0 0.0
0.0 0.01774763731703478 -0.014097814564512198 0.01337442273717995 0.0007233918273322376 -0.010255154776262808 0.0 0.0
0.0 0.020404547414890464 -0.016227886969398444 0.015516555942817603 0.0007113310265808496 -0.012680611379847682 0.0 0.0
0.0 0.021957271703441385 -0.017027656538695007 0.01636320570214566 0.0006644508365493441 -0.015155452077226158 0.0 0.0
0.0 0.020334900238894883 -0.014845845899542538 0.014234772979949779 0.0006110729195927622 -0.015650524249962758 0.0 0.0
0.0 0.020900846063109345 -0.011625876351423566 0.009396887128970433 0.0022289892224531347 9.824172725325653e-15 0.0 0.0
0.0 0.020334900238900076 -0.014845845899543008 0.014234772979950044 0.000611072919592968 0.01565052424998102 0.0 0.0
0.0 0.021957271703442104 -0.017027656538692662 0.01636320570214391 0.000664450836548739 0.01515545207724305 0.0 0.0
0.0 0.020404547414879827 -0.01622788696938933 0.015516555942808388 0.0007113310265809457 0.012680611379852639 0.0 0.0
0.0 0.01774763731702016 -0.014097814564500422 0.013374422737168308 0.0007233918273321076 0.010255154776258523 0.0 0.0
0.0 0.014505131106463105 -0.011549605778776695 0.010835587764740503 0.0007140180140361877 0.008366815616489106 0.0 0.0
0.0 0.011377284360756962 -0.009062545124362597 0.008384599516244255 0.0006779456081183375 0.006919941250517497 0.0 0.0
0.0 0.008673917360303858 -0.00687987298441086 0.006262811237567034 0.0006170617468438196 0.005717752912336728 0.0 0.0
0.0 0.0064338489520255875 -0.005042336299796051 0.0045058529557961274 0.0005364833439999259 0.004595153369011437 0.0 0.0
0.0 0.004522576419910042 -0.003494832456369651 0.003058601740535127 0.0004362307158345214 0.0034824997373373565 0.0 0.0
0.0 0.0028391265915066162 -0.002174557729025087 0.001851722714435454 0.0003228350145896331 0.0023881336624127334 0.0 0.0
0.0 0.0015941969748375754 -0.001091259136309971 0.0009014302945270336 0.00018982884178293742 0.0013445467468249518 0.0 0.0
0.0 0.0005611652655693825 -0.00036081230754162375 0.0002895864425079563 7.12258650336673e-05 0.0005832777612927038 0.0 0.0
0.0 0.0001298613949069742 -2.7669311107315093e-05 2.23115681987543e-05 5.357742908560732e-06 8.348101171747997e-05 0.0 0.0
0.0 -6.185878881839809e-06 5.1035081838511725e-06 -4.0340421363896184e-06 -1.0694660474615706e-06 -2.7833057827659364e-07 0.0 0.0
0.0 3.6977489944945557e-06 6.070928899161811e-06 -4.906105128695007e-06 -1.164823770466887e-06 -2.6226722325988024e-05 0.0 0.0
0.0 7.682726282451826e-06 -2.9113875237769098e-08 1.3555483936090822e-08 1.55583913016764e-08 -3.365831144377987e-07 0.0 0.0
0.0 -9.073015986570772e-07 -5.6857141346010775e-08 4.755545023829637e-08 9.301691107725905e-09 2.3445117868003778e-07 0.0 0.0
0.0 2.777239315912247e-07 -8.775193086214722e-09 1.0215675203489026e-08 -1.4404821172741064e-09 -5.2577440658824605e-08 0.0 0.0
0.0 -2.421719603617441e-07 -3.246815517878595e-09 1.8808664168966315e-09 1.3659491009815945e-09 4.8805572277769595e-08 0.0 0.0
0.0 0.0 0.0 0.0 0.0 0.0 0.0 0.0
0.0 0.0 0.0 0.0 0.0 0.0 0.0 0.0
0.0 4.708975586266584e-08 6.631015335524161e-10 -4.066369113317879e-10 -2.56464622220512e-10 9.52065192162231e-09 0.0 0.0
0.0 -8.431200303313022e-07 -2.8996678881907022e-08 2.3017103404619397e-08 5.97957547729079e-09 -1.6687519249258124e-07 0.0 0.0
0.0 1.8583230275895036e-06 7.728181288759578e-08 -6.338633875561852e-08 -1.3895474131983538e-08 3.887278817381041e-07 0.0 0.0
0.0 -3.9408788930586664e-07 1.5898615146478506e-06 -1.2875146992217054e-06 -3.0234681542618806e-07 5.209466582033076e-06 0.0 0.0
0.0 -1.3628784577811828e-05 5.202680884755719e-09 -2.5484517466967372e-08 2.028183658226751e-08 -2.9013739389696143e-06 0.0 0.0
0.0 5.144176868764481e-05 3.2912080250613113e-06 -3.225348465321084e-06 -6.585955974047792e-08 1.7446060662876136e-05 0.0 0.0
0.0 0.0004020690459027132 -0.0003191115181903558 0.0002474504600867633 7.166105810359276e-05 -0.0003628370354782909 0.0 0.0
0.0 0.00144868572329334 -0.001143129389848909 0.0009218137428779284 0.00022131564697097997 -0.0010634845512661403 0.0 0.0
0.0 0.003332596667556818 -0.002482816155964204 0.002097084282547908 0.0003857318734162962 -0.0021197798835538707 0.0 0.0
0.0 0.005208656525451275 -0.004238605335361948 0.0037131882522644837 0.0005254170830974631 -0.003403680923005168 0.0 0.0
0.0 0.007594324198579495 -0.0062820104739497494 0.005648572451163821 0.0006334380227859299 -0.004653342179020854 0.0 0.0
0.0 0.01044135472306458 -0.008645894179226404 0.007922763258288836 0.0007231309209375681 -0.005871061370223424 0.0 0.0
0.0 0.0137592556828495 -0.011450007224799566 0.010652454568752268 0.0007975526560473014 -0.007111669755575202 0.0 0.0
0.0 0.01780411468623347 -0.014792988417053201 0.013936564747090914 0.0008564236699622913 -0.00849593311953572 0.0 0.0
0.0 0.02237181850020237 -0.01866345084942694 0.017770552481130474 0.0008928983682964756 -0.010239319888979675 0.0 0.0
0.0 0.02753268405634898 -0.02277884455680236 0.021878112293124082 0.0009007322636782791 -0.01269324197380688 0.0 0.0
0.0 0.032073208352611154 -0.026433663901346816 0.025563829117201838 0.0008698347841449759 -0.01600086018069718 0.0 0.0
0.0 0.03464298948253341 -0.028236125628611837 0.02743305112301333 0.0008030745055985172 -0.019281194873498757 0.0 0.0
0.0 0.032379781320471014 -0.025864635753394732 0.02518050472297479 0.0006841310304199299 -0.02031678260742953 0.0 0.0
0.0 0.029723242035881996 -0.021049938989168456 0.018104097694723462 0.0029458412944449977 1.0860670002221795e-14 0.0 0.0
0.0 0.03237978132047423 -0.025864635753393213 0.025180504722973167 0.0006841310304200396 0.020316782607452094 0.0 0.0
0.0 0.0346429894825326 -0.028236125628607434 0.027433051123009644 0.0008030745055977656 0.019281194873522003 0.0 0.0
0.0 0.032073208352597894 -0.02643366390133442 0.025563829117189706 0.0008698347841447024 0.016000860180706244 0.0 0.0
0.0 0.027532684056329606 -0.02277884455678602 0.02187811229310794 0.0009007322636780942 0.01269324197380483 0.0 0.0
0.0 0.02237181850018425 -0.018663450849411647 0.017770552481115226 0.0008928983682964144 0.010239319888972885 0.0 0.0
0.0 0.017804114686215608 -0.01479298841703839 0.013936564747076512 0.0008564236699618703 0.008495933119528157 0.0 0.0
0.0 0.013759255682831057 -0.011450007224783948 0.010652454568736949 0.0007975526560469969 0.00711166975556784 0.0 0.0
0.0 0.01044135472304518 -0.008645894179210254 0.007922763258273091 0.0007231309209371622 0.005871061370214991 0.0 0.0
0.0 0.007594324198560497 -0.006282010473934414 0.005648572451149129 0.0006334380227852849 0.004653342179009953 0.0 0.0
0.0 0.005208656525433752 -0.004238605335347964 0.0037131882522510764 0.0005254170830968889 0.0034036809229933134 0.0 0.0
0.0 0.003332596667544448 -0.002482816155954435 0.002097084282539217 0.00038573187341521726 0.0021197798835455857 0.0 0.0
0.0 0.0014486857232848763 -0.0011431293898426051 0.0009218137428726871 0.00022131564696991731 0.0010634845512610927 0.0 0.0
0.0 0.0004020690458981817 -0.0003191115181871467 0.00024745046008423495 7.166105810291173e-05 0.00036283703547495037 0.0 0.0
0.0 5.144176868613625e-05 3.291208025379335e-06 -3.2253484655619176e-06 -6.585955981726823e-08 -1.7446060663401526e-05 0.0 0.0
0.0 -1.3628784578484652e-05 5.20268054839613e-09 -2.5484517197509106e-08 2.0281836649127693e-08 2.901373939897764e-06 0.0 0.0
0.0 -3.940878898146676e-07 1.5898615144871921e-06 -1.2875146990876772e-06 -3.0234681539951123e-07 -5.209466581469289e-06 0.0 0.0
0.0 1.858323026968145e-06 7.72818129100932e-08 -6.33863387749192e-08 -1.389547413518162e-08 -3.887278817719654e-07 0.0 0.0
0.0 -8.431200300362501e-07 -2.8996678872773777e-08 2.301710339753103e-08 5.979575475243381e-09 1.6687519243153147e-07 0.0 0.0
0.0 4.708975583477513e-08 6.631015331494612e-10 -4.066369110840808e-10 -2.5646462206536185e-10 -9.520651915847124e-09 0.0 0.0
0.0 0.0 0.0 0.0 0.0 0.0 0.0 0.0
0.0 0.0 0.0 0.0 0.0 0.0 0.0 0.0
0.0 0.0 0.0 0.0 0.0 0.0 0.0 0.0
0.0 -2.95889627028445e-07 -1.3592507698731995e-08 1.083743040721265e-08 2.7550772915178707e-09 -5.501979115714737e-08 0.0 0.0
0.0 -2.1096359426708575e-06 -1.6441311758036877e-07 1.3382572499792898e-07 3.058739258244606e-08 -4.420352797181186e-07 0.0 0.0
0.0 8.610077266716378e-06 7.981914040623743e-07 -6.314070249994202e-07 -1.6678437906294984e-07 2.1352889277774016e-06 0.0 0.0
0.0 2.7570900751948285e-06 2.6761943155227478e-05 -2.1342051364128035e-05 -5.419891791099516e-06 4.617510948617007e-05 0.0 0.0
0.0 0.00019184567426791394 -0.0001408118449938239 0.00010666716634019929 3.4144678653624844e-05 -0.0001247858181091757 0.0 0.0
0.0 0.0009829949619800625 -0.0008215586072305407 0.0006445751760146171 0.00017698343121592277 -0.0005990997861786323 0.0 0.0
0.0 0.0028655088942219163 -0.0021493109545735866 0.0017818397701948288 0.0003674711843787572 -0.001476854149047455 0.0 0.0
0.0 0.0047201376379538 -0.004104292465420384 0.0035634551653138673 0.0005408373001065195 -0.0027398958539346504 0.0 0.0
0.0 0.007605894246041354 -0.006451130952163492 0.0057869916095254 0.0006641393426380912 -0.004032492131110757 0.0 0.0
0.0 0.01083086410608025 -0.009186405995630127 0.008424660326069307 0.0007617456695608148 -0.005303407294134563 0.0 0.0
0.0 0.014572314575648313 -0.012375337796176944 0.011527492165236191 0.000847845630940756 -0.006556089458237545 0.0 0.0
0.0 0.01902316611758002 -0.016160621938774527 0.015236074841907936 0.0009245470968665877 -0.007867358113503472 0.0 0.0
0.0 0.024282659444523097 -0.02068220304899137 0.019692689263283422 0.000989513785707935 -0.009343396105863705 0.0 0.0
0.0 0.030724322368084284 -0.0259554814510299 0.02492322489697938 0.001032256554050509 -0.011246934372104117 0.0 0.0
0.0 0.037151636042473846 -0.03166148683401634 0.03062409404130721 0.0010373927927090664 -0.014000299181768823 0.0 0.0
0.0 0.043635706703716304 -0.036801395545905564 0.03581536574837913 0.0009860297975264453 -0.0177997906335134 0.0 0.0
0.0 0.04740476540177667 -0.039467385377449024 0.03859227845549113 0.0008751069219578608 -0.02185376106462539 0.0 0.0
0.0 0.04454485774617942 -0.03656572531413565 0.03587673641798879 0.000688988896146854 -0.023732173420710136 0.0 0.0
0.0 0.0392772258913135 -0.030298605103496114 0.026743233786650097 0.003555371316846004 1.1552390988267547e-14 0.0 0.0
0.0 0.044544857746180874 -0.03656572531413261 0.035876736417986166 0.0006889888961464576 0.023732173420735594 0.0 0.0
0.0 0.04740476540177097 -0.03946738537744068 0.03859227845548332 0.0008751069219573603 0.021853761064651027 0.0 0.0
0.0 0.043635706703700816 -0.036801395545890826 0.03581536574836491 0.0009860297975258737 0.017799790633526578 0.0 0.0
0.0 0.03715163604245055 -0.0316614868339962 0.0306240940412873 0.0010373927927089124 0.014000299181768113 0.0 0.0
0.0 0.03072432236806106 -0.02595548145100983 0.0249232248969599 0.0010322565540499386 0.01124693437209789 0.0 0.0
0.0 0.024282659444498693 -0.020682203048970265 0.019692689263262963 0.0009895137857073044 0.009343396105855465 0.0 0.0
0.0 0.01902316611755635 -0.016160621938754116 0.015236074841887822 0.0009245470968662733 0.007867358113496032 0.0 0.0
0.0 0.014572314575623822 -0.012375337796156138 0.011527492165215866 0.0008478456309402656 0.006556089458228639 0.0 0.0
0.0 0.01083086410605676 -0.00918640599561001 0.008424660326049802 0.0007617456695602136 0.005303407294123608 0.0 0.0
0.0 0.007605894246019609 -0.006451130952145132 0.005786991609507504 0.0006641393426376261 0.004032492131097904 0.0 0.0
0.0 0.004720137637937606 -0.004104292465406383 0.003563455165300701 0.0005408373001056807 0.002739895853924858 0.0 0.0
0.0 0.0028655088942093477 -0.002149310954564043 0.0017818397701865496 0.000367471184377494 0.0014768541490408917 0.0 0.0
0.0 0.0009829949619728608 -0.0008215586072250658 0.0006445751760102038 0.00017698343121486188 0.000599099786174938 0.0 0.0
0.0 0.00019184567426507347 -0.00014081184499236673 0.00010666716633912124 3.414467865324536e-05 0.00012478581810817875 0.0 0.0
0.0 2.757090074739518e-06 2.676194315475271e-05 -2.1342051363751577e-05 -5.419891791001173e-06 -4.617510948538754e-05 0.0 0.0
0.0 8.610077265336006e-06 7.981914040394935e-07 -6.314070249841943e-07 -1.6678437905527686e-07 -2.135288927767294e-06 0.0 0.0
0.0 -2.1096359429591228e-06 -1.644131176006112e-07 1.338257250145124e-07 3.058739258610704e-08 4.4203527981062454e-07 0.0 0.0
0.0 -2.9588962689353585e-07 -1.3592507692400482e-08 1.0837430402124616e-08 2.755077290274585e-09 5.50197911312241e-08 0.0 0.0
0.0 0.0 0.0 0.0 0.0 0.0 0.0 0.0
0.0 0.0 0.0 0.0 0.0 0.0 0.0 0.0
0.0 0.0 0.0 0.0 0.0 0.0 0.0 0.0
0.0 0.0 0.0 0.0 0.0 0.0 0.0 0.0
0.0 -1.336041538324973e-07 -7.0791082984345225e-09 5.607259907490537e-09 1.4718483909442396e-09 -2.3963176664436898e-08 0.0 0.0
0.0 -1.1713468595143503e-06 -1.004889139308608e-07 7.985286927217374e-08 2.063604465868639e-08 -2.052932812506688e-07 0.0 0.0
0.0 -6.57528443228078e-06 -1.8334679559759645e-06 1.4332244375820913e-06 4.0024351839387137e-07 -2.52164850289026e-06 0.0 0.0
0.0 5.316396132359022e-05 6.388649407269649e-06 -6.751781613992432e-06 3.631322067229817e-07 3.2204553773394645e-05 0.0 0.0
0.0 0.0004898767867380277 -0.00040431141819467927 0.0003080576361660682 9.625378202861125e-05 -0.00021856882621643415 0.0 0.0
0.0 0.0019762022731383503 -0.0014766096808471979 0.0011867981727827152 0.0002898115080644831 -0.0007730555352598581 0.0 0.0
0.0 0.0037247992247717698 -0.0033584415704062164 0.0028586818865636737 0.0004997596838425425 -0.0018078971781040432 0.0 0.0
0.0 0.006672372487874015 -0.005790741915287189 0.005139302626479443 0.0006514392888077495 -0.0030028641131553046 0.0 0.0
0.0 0.010086022550055106 -0.008727066636680419 0.007962113366046228 0.0007649532706341874 -0.004233096322202547 0.0 0.0
0.0 0.014098384166253496 -0.01216326663302943 0.011304034992419953 0.0008592316406094717 -0.005454289867923385 0.0 0.0
0.0 0.01881188817941001 -0.01618991366208236 0.015242635383264237 0.0009472782788181039 -0.006679557666745326 0.0 0.0
0.0 0.02448268773579488 -0.020968546871432882 0.019939607178726962 0.0010289396927059297 -0.00799146840788067 0.0 0.0
0.0 0.031077828481127202 -0.026671253620855293 0.025568662238342702 0.001102591382512565 -0.009489180219868113 0.0 0.0
0.0 0.03870917745633969 -0.03333841460102793 0.03218346530324783 0.0011549492977801015 -0.011355025428525433 0.0 0.0
0.0 0.04749196737298429 -0.04058229514838971 0.03942576514640369 0.0011565300019860491 -0.014009177336091395 0.0 0.0
0.0 0.05528961735533702 -0.04717231771622151 0.04609130849905454 0.0010810092171669376 -0.017887608015541605 0.0 0.0
0.0 0.05957056616133356 -0.050627199892373964 0.04970622345290452 0.0009209764394694758 -0.022556362968691245 0.0 0.0
0.0 0.05637881415764972 -0.047142536807338174 0.04646621850418063 0.0006763183031575032 -0.026027696837412934 0.0 0.0
0.0 0.04963485811245033 -0.039536550327042404 0.03542499365112552 0.004111556675916875 1.1245344933019652e-14 0.0 0.0
0.0 0.05637881415764527 -0.04714253680733056 0.046466218504172915 0.0006763183031576197 0.026027696837438965 0.0 0.0
0.0 0.05957056616132402 -0.05062719989236265 0.049706223452893876 0.0009209764394687847 0.022556362968717367 0.0 0.0
0.0 0.055289617355317025 -0.04717231771620307 0.046091308499036296 0.0010810092171667863 0.01788760801555638 0.0 0.0
0.0 0.04749196737295771 -0.04058229514836659 0.039425765146380826 0.0011565300019856955 0.014009177336092592 0.0 0.0
0.0 0.03870917745631281 -0.03333841460100443 0.03218346530322516 0.0011549492977793005 0.011355025428520892 0.0 0.0
0.0 0.03107782848109784 -0.02667125362082992 0.025568662238317937 0.0011025913825119915 0.009489180219861474 0.0 0.0
0.0 0.024482687735767616 -0.020968546871408637 0.01993960717870356 0.0010289396927050832 0.007991468407874116 0.0 0.0
0.0 0.01881188817938055 -0.016189913662056854 0.015242635383239011 0.0009472782788178364 0.006679557666737061 0.0 0.0
0.0 0.014098384166225273 -0.012163266633005161 0.011304034992396194 0.0008592316406089448 0.005454289867913257 0.0 0.0
0.0 0.010086022550027272 -0.008727066636656768 0.007962113366023073 0.0007649532706336937 0.004233096322189152 0.0 0.0
0.0 0.00667237248785159 -0.005790741915267974 0.005139302626461062 0.0006514392888069159 0.0030028641131446547 0.0 0.0
0.0 0.003724799224759317 -0.003358441570394169 0.002858681886552841 0.0004997596838413255 0.001807897178097658 0.0 0.0
0.0 0.0019762022731283965 -0.0014766096808395564 0.0011867981727762536 0.0002898115080633021 0.0007730555352556915 0.0 0.0
0.0 0.0004898767867334375 -0.0004043114181913037 0.0003080576361634546 9.62537820278497e-05 0.00021856882621458477 0.0 0.0
0.0 5.316396132234077e-05 6.388649407224571e-06 -6.7517816139362175e-06 3.63132206711447e-07 -3.2204553773083865e-05 0.0 0.0
0.0 -6.575284433237143e-06 -1.833467956055436e-06 1.4332244376441536e-06 4.002435184112553e-07 2.5216485030316464e-06 0.0 0.0
0.0 -1.1713468595057117e-06 -1.0048891392458618e-07 7.985286926721422e-08 2.0636044657372375e-08 2.0529328125146915e-07 0.0 0.0
0.0 -1.3360415377959937e-07 -7.079108295548217e-09 5.6072599052097004e-09 1.4718483903391005e-09 2.396317665472527e-08 0.0 0.0
0.0 0.0 0.0 0.0 0.0 0.0 0.0 0.0
0.0 0.0 0.0 0.0 0.0 0.0 0.0 0.0
0.0 0.0 0.0 0.0 0.0 0.0 0.0 0.0
0.0 0.0 0.0 0.0 0.0 0.0 0.0 0.0
0.0 0.0 0.0 0.0 0.0 0.0 0.0 0.0
0.0 -1.5916691814240904e-06 -1.4630761721713475e-07 1.1688780432143075e-07 2.941981289568098e-08 -2.4439659433297074e-07 0.0 0.0
0.0 3.6616234220794266e-06 1.2091031328502977e-05 -9.646526771178026e-06 -2.444504557324898e-06 1.4346872347720838e-05 0.0 0.0
0.0 0.0001124156914582735 -0.00011923004128946814 8.824777535829906e-05 3.0982265931168744e-05 -4.916340946365401e-05 0.0 0.0
0.0 0.0010848603320645631 -0.0007688956199467093 0.0005957507488094356 0.0001731448711372737 -0.0002688264538002701 0.0 0.0
0.0 0.0025842748977931646 -0.0023215647789408284 0.0019151183470533747 0.0004064464318874525 -0.000922355244545764 0.0 0.0
0.0 0.00518510434134566 -0.004604811342949399 0.004006831859904897 0.0005979794830445047 -0.001866228798917346 0.0 0.0
0.0 0.008546273243764628 -0.007525546164032316 0.006787889060691234 0.0007376571033410808 -0.002925467195196972 0.0 0.0
0.0 0.012638974224287074 -0.01104367996459988 0.010198737810470648 0.0008449421541292238 -0.00403722531279589 0.0 0.0
0.0 0.017484909563685532 -0.015186454486170214 0.014245736899625813 0.0009407175865444023 -0.005140515634481315 0.0 0.0
0.0 0.023261491842111667 -0.020065377977516598 0.019031982050788997 0.0010333959267276082 -0.006265871882919601 0.0 0.0
0.0 0.029778454026226964 -0.025861584852475437 0.02473956282037765 0.001122022032097793 -0.00750669033266097 0.0 0.0
0.0 0.03785043986278141 -0.032730148846413454 0.03152813114136794 0.0012020177050455268 -0.008936951806182937 0.0 0.0
0.0 0.04719883050322351 -0.04071771441911077 0.03945486087815907 0.0012628535409516797 -0.010611987259383275 0.0 0.0
0.0 0.057166192447693415 -0.049427149146851784 0.0481575420040055 0.0012696071428462542 -0.01280490024883185 0.0 0.0
0.0 0.06655588241274368 -0.057412701805261625 0.05624054860451358 0.0011721532007480907 -0.016237538303857577 0.0 0.0
0.0 0.07193904769549742 -0.06169908932452488 0.06073999932241588 0.0009590900021089472 -0.021377051177282422 0.0 0.0
0.0 0.06823190676982104 -0.05780827957227574 0.057161242280031895 0.0006470372922438054 -0.027406183871473318 0.0 0.0
0.0 0.06006348805871811 -0.0490218381039157 0.04439705038421039 0.004624787719705302 1.1044117009806342e-14 0.0 0.0
0.0 0.06823190676981424 -0.057808279572266544 0.05716124228002258 0.0006470372922439771 0.02740618387149929 0.0 0.0
0.0 0.07193904769548477 -0.061699089324511514 0.06073999932240301 0.0009590900021084119 0.021377051177308162 0.0 0.0
0.0 0.06655588241271818 -0.05741270180523902 0.056240548604490785 0.0011721532007481987 0.016237538303872076 0.0 0.0
0.0 0.05716619244766302 -0.04942714914682508 0.048157542003979203 0.0012696071428459198 0.012804900248834567 0.0 0.0
0.0 0.04719883050319105 -0.04071771441908234 0.03945486087813128 0.0012628535409510233 0.010611987259380222 0.0 0.0
0.0 0.03785043986274747 -0.032730148846383963 0.031528131141338914 0.0012020177050450253 0.008936951806178166 0.0 0.0
0.0 0.029778454026194053 -0.025861584852446676 0.024739562820349788 0.0011220220320968834 0.007506690332654845 0.0 0.0
0.0 0.023261491842076803 -0.020065377977486105 0.019031982050758678 0.0010333959267274347 0.006265871882911561 0.0 0.0
0.0 0.017484909563653356 -0.015186454486142092 0.014245736899598361 0.0009407175865437335 0.005140515634472009 0.0 0.0
0.0 0.01263897422425613 -0.011043679964572974 0.010198737810444312 0.0008449421541286639 0.00403722531278428 0.0 0.0
0.0 0.008546273243740812 -0.007525546164011266 0.006787889060670972 0.0007376571033402932 0.0029254671951878964 0.0 0.0
0.0 0.005185104341328775 -0.004604811342933973 0.004006831859890525 0.0005979794830434486 0.0018662287989108465 0.0 0.0
0.0 0.002584274897781153 -0.002321564778930089 0.0019151183470439306 0.0004064464318861592 0.000922355244541025 0.0 0.0
0.0 0.0010848603320573079 -0.0007688956199413593 0.000595750748805199 0.00017314487113615962 0.0002688264537981993 0.0 0.0
0.0 0.00011241569145605729 -0.0001192300412883829 8.824777535747798e-05 3.098226593090457e-05 4.916340946343688e-05 0.0 0.0
0.0 3.661623420980327e-06 1.2091031328374858e-05 -9.646526771076322e-06 -2.444504557298407e-06 -1.4346872347611471e-05 0.0 0.0
0.0 -1.5916691813423759e-06 -1.4630761723045337e-07 1.1688780433163345e-07 2.9419812898820946e-08 2.443965943501747e-07 0.0 0.0
0.0 0.0 0.0 0.0 0.0 0.0 0.0 0.0
0.0 0.0 0.0 0.0 0.0 0.0 0.0 0.0
0.0 0.0 0.0 0.0 0.0 0.0 0.0 0.0
0.0 0.0 0.0 0.0 0.0 0.0 0.0 0.0
0.0 0.0 0.0 0.0 0.0 0.0 0.0 0.0
0.0 0.0 0.0 0.0 0.0 0.0 0.0 0.0
0.0 -7.472634036934895e-07 -5.93590267898142e-08 4.599143209370992e-08 1.3367594696113226e-08 -4.69155537841959e-08 0.0 0.0
0.0 6.8890690129344845e-06 1.8848167511508645e-05 -1.5037393403161432e-05 -3.810774108347002e-06 1.454474476286966e-05 0.0 0.0
0.0 0.0003553091750662054 -0.00025545080651201034 0.00018927230119906356 6.617850531294695e-05 -3.804920622808858e-05 0.0 0.0
0.0 0.0015338592172718382 -0.0012981114363108284 0.0010281806073563632 0.0002699308289544634 -0.0003048129290493231 0.0 0.0
0.0 0.00353459779770991 -0.0032153819655448422 0.002715779817406113 0.0004996021481387266 -0.0009072581124396379 0.0 0.0
0.0 0.006568283353968301 -0.005889129700683367 0.005211056900251015 0.0006780728004323471 -0.001664026130227011 0.0 0.0
0.0 0.01049969632421286 -0.009283255857275173 0.008476487758328547 0.0008067680989466287 -0.0025405476178003666 0.0 0.0
0.0 0.015214350611861573 -0.013384897561327729 0.012472416925189434 0.0009124806361382861 -0.0034632916370379587 0.0 0.0
0.0 0.02090163653550944 -0.0182429431163354 0.0172303859699224 0.001012557146412994 -0.0043820408054418844 0.0 0.0
0.0 0.027411080380660834 -0.023994947309905125 0.022882620083481457 0.001112327226423652 -0.005329412186892391 0.0 0.0
0.0 0.035521228781845555 -0.03081001859838161 0.029604126401114067 0.0012058921972675565 -0.006407054714584968 0.0 0.0
0.0 0.04469573780396501 -0.03883693273710223 0.037547253949538936 0.0012896787875632306 -0.007686159424190776 0.0 0.0
0.0 0.05516783312286163 -0.04805783487198752 0.04670107419642537 0.0013567606755622158 -0.009098706372415737 0.0 0.0
0.0 0.06679751220020226 -0.05805121056262643 0.05667384784459216 0.0013773627180341808 -0.010584084031008686 0.0 0.0
0.0 0.07764565874874324 -0.06736569692457745 0.06609018918949718 0.0012755077350802913 -0.012907554724855533 0.0 0.0
0.0 0.08413353040538123 -0.07270089051797314 0.071694336394598 0.0010065541233751723 -0.018207978545036304 0.0 0.0
0.0 0.08053100753285372 -0.06878524541592981 0.06818848088277386 0.0005967645331560337 -0.027660441808278934 0.0 0.0
0.0 0.0715756392292367 -0.059032868365989075 0.053945524472244134 0.005087343893744952 1.0970391262077328e-14 0.0 0.0
0.0 0.08053100753284857 -0.06878524541592262 0.06818848088276719 0.0005967645331554315 0.02766044180830177 0.0 0.0
0.0 0.0841335304053634 -0.07270089051795617 0.07169433639458142 0.0010065541233747438 0.01820797854505947 0.0 0.0
0.0 0.07764565874871276 -0.0673656969245507 0.06609018918947057 0.0012755077350801215 0.012907554724868379 0.0 0.0
0.0 0.0667975122001673 -0.058051210562595795 0.056673847844562135 0.001377362718033621 0.010584084031011931 0.0 0.0
0.0 0.05516783312282269 -0.048057834871953684 0.0467010741963919 0.0013567606755617787 0.009098706372414299 0.0 0.0
0.0 0.04469573780392805 -0.038836932737070076 0.03754725394950743 0.0012896787875626204 0.0076861594241873984 0.0 0.0
0.0 0.03552122878180731 -0.030810018598348227 0.029604126401081315 0.001205892197266886 0.006407054714579314 0.0 0.0
0.0 0.027411080380620356 -0.023994947309870066 0.022882620083446773 0.001112327226423306 0.005329412186886245 0.0 0.0
0.0 0.02090163653547317 -0.01824294311630327 0.017230385969890905 0.001012557146412362 0.004382040805434512 0.0 0.0
0.0 0.015214350611828025 -0.013384897561298292 0.012472416925160464 0.000912480636137825 0.0034632916370286124 0.0 0.0
0.0 0.01049969632418443 -0.009283255857250278 0.008476487758304202 0.0008067680989460747 0.002540547617792062 0.0 0.0
0.0 0.006568283353947772 -0.005889129700664722 0.005211056900233345 0.0006780728004313714 0.0016640261302214787 0.0 0.0
0.0 0.0035345977976957437 -0.0032153819655314575 0.0027157798173939596 0.0004996021481374973 0.0009072581124353133 0.0 0.0
0.0 0.0015338592172629618 -0.0012981114363033578 0.0010281806073501574 0.0002699308289532008 0.0003048129290470037 0.0 0.0
0.0 0.0003553091750624317 -0.0002554508065095614 0.0001892723011972304 6.617850531233133e-05 3.804920622757372e-05 0.0 0.0
0.0 6.889069012454382e-06 1.8848167511057806e-05 -1.5037393402799147e-05 -3.8107741082588017e-06 -1.4544744762301231e-05 0.0 0.0
0.0 -7.472634038729379e-07 -5.9359026720178776e-08 4.599143203795269e-08 1.3367594682231021e-08 4.691555368662626e-08 0.0 0.0
0.0 0.0 0.0 0.0 0.0 0.0 0.0 0.0
0.0 0.0 0.0 0.0 0.0 0.0 0.0 0.0
0.0 0.0 0.0 0.0 0.0 0.0 0.0 0.0
0.0 0.0 0.0 0.0 0.0 0.0 0.0 0.0
0.0 0.0 0.0 0.0 0.0 0.0 0.0 0.0
0.0 0.0 0.0 0.0 0.0 0.0 0.0 0.0
0.0 7.187229598705419e-07 8.463335519122874e-08 -6.176879738647556e-08 -2.286455780476825e-08 5.165437736512387e-08 0.0 0.0
0.0 2.5825817198305997e-05 -2.6070900271106042e-05 1.755057983996079e-05 8.520320431145273e-06 4.815562124232715e-06 0.0 0.0
0.0 0.0006993964914048009 -0.0004971164017312268 0.00037445919773319934 0.00012265720399802727 -9.603480981397935e-06 0.0 0.0
0.0 0.002004537102911105 -0.0019203674392337471 0.0015575529348512357 0.00036281450438251117 -0.00027559528391914 0.0 0.0
0.0 0.004550531603226376 -0.004140781593757492 0.003561590516155198 0.0005791910776022976 -0.0006861680029420546 0.0 0.0
0.0 0.007982563888450362 -0.007190403609489428 0.006447571814789554 0.0007428317946998669 -0.0012295915369530807 0.0 0.0
0.0 0.012456222779582747 -0.011051091722708031 0.010186718052978706 0.0008643736697293345 -0.0018605065269805383 0.0 0.0
0.0 0.0178928341449587 -0.015736117233464193 0.014764246312884165 0.0009718709205800183 -0.002525247248822738 0.0 0.0
0.0 0.024264252361003314 -0.021320575544622498 0.020242681436957215 0.0010778941076652828 -0.0031855030908648167 0.0 0.0
0.0 0.032088702252872296 -0.027948827002756006 0.02676481489662254 0.0011840121061334674 -0.0038770606523082294 0.0 0.0
0.0 0.040880841500015544 -0.035808867750085696 0.0345242773859317 0.0012845903641539515 -0.004711681446906947 0.0 0.0
0.0 0.05146876215890754 -0.044976937275286094 0.04360623345850567 0.0013707038167804638 -0.0057201683870541295 0.0 0.0
0.0 0.0634216033255799 -0.055326050133271756 0.05389328954062396 0.0014327605926477702 -0.0067788895179226915 0.0 0.0
0.0 0.07617835957717879 -0.06636617156091583 0.06490272135350267 0.0014634502074132552 -0.007618443020976119 0.0 0.0
0.0 0.08826644424358075 -0.07683627342277996 0.07542202057450863 0.0014142528482713316 -0.008517552818473075 0.0 0.0
0.0 0.09622461171223151 -0.08355057543771627 0.08244933927293535 0.0011012361647809235 -0.01255827444433581 0.0 0.0
0.0 0.09342993935394728 -0.08032611877134362 0.07981602670139636 0.0005100920699471205 -0.02594014499930576 0.0 0.0
0.0 0.08422440553503527 -0.06998885632269232 0.06452228943143426 0.0054665668912579546 8.619840952128754e-15 0.0 0.0
0.0 0.09342993935393885 -0.08032611877133453 0.07981602670138771 0.000510092069946857 0.025940144999324254 0.0 0.0
0.0 0.09622461171220759 -0.08355057543769474 0.08244933927291419 0.0011012361647806178 0.012558274444354433 0.0 0.0
0.0 0.08826644424354654 -0.0768362734227503 0.07542202057447932 0.0014142528482709625 0.008517552818482795 0.0 0.0
0.0 0.07617835957713895 -0.0663661715608812 0.06490272135346828 0.0014634502074129308 0.0076184430209785044 0.0 0.0
0.0 0.06342160332553644 -0.05532605013323397 0.05389328954058663 0.001432760592647379 0.006778889517922318 0.0 0.0
0.0 0.05146876215886405 -0.04497693727524833 0.04360623345846841 0.0013707038167799458 0.005720168387052334 0.0 0.0
0.0 0.040880841499970816 -0.03580886775004686 0.034524277385893504 0.0012845903641533307 0.004711681446902309 0.0 0.0
0.0 0.0320887022528271 -0.02794882700271663 0.026764814896583382 0.0011840121061332473 0.003877060652304549 0.0 0.0
0.0 0.024264252360961427 -0.02132057554458629 0.020242681436921373 0.001077894107664879 0.003185503090859816 0.0 0.0
0.0 0.017892834144921436 -0.015736117233430987 0.014764246312851514 0.0009718709205794788 0.0025252472488152397 0.0 0.0
0.0 0.012456222779551909 -0.01105109172268028 0.01018671805295174 0.0008643736697285375 0.001860506526974694 0.0 0.0
0.0 0.007982563888427295 -0.0071904036094682985 0.006447571814769374 0.0007428317946989285 0.001229591536948972 0.0 0.0
0.0 0.004550531603209896 -0.004140781593742067 0.0035615905161409636 0.0005791910776011014 0.0006861680029387974 0.0 0.0
0.0 0.00200453710290133 -0.0019203674392243668 0.0015575529348431736 0.0003628145043811914 0.0002755952839172303 0.0 0.0
0.0 0.0006993964914002248 -0.0004971164017276638 0.00037445919773042746 0.00012265720399723577 9.603480980991275e-06 0.0 0.0
0.0 2.5825817197186203e-05 -2.60709002710174e-05 1.7550579839920893e-05 8.52032043109639e-06 -4.815562124064032e-06 0.0 0.0
0.0 7.187229594391122e-07 8.463335514353968e-08 -6.176879735139436e-08 -2.2864557792165992e-08 -5.165437734438602e-08 0.0 0.0
0.0 0.0 0.0 0.0 0.0 0.0 0.0 0.0
0.0 0.0 0.0 0.0 0.0 0.0 0.0 0.0
0.0 0.0 0.0 0.0 0.0 0.0 0.0 0.0
0.0 0.0 0.0 0.0 0.0 0.0 0.0 0.0
0.0 0.0 0.0 0.0 0.0 0.0 0.0 0.0
0.0 0.0 0.0 0.0 0.0 0.0 0.0 0.0
0.0 -1.368045713739806e-06 6.319312180598503e-07 -5.244562732625649e-07 -1.0747494479728421e-07 3.14894713467331e-07 0.0 0.0
0.0 0.00015114845746356078 -7.854482290588506e-05 5.467347986317191e-05 2.3871343042713002e-05 2.3488551004139525e-05 0.0 0.0
0.0 0.001012766829866648 -0.0008516351895912088 0.0006547701803994377 0.0001968650091917713 4.940897237434647e-05 0.0 0.0
0.0 0.002745571072638589 -0.0025576555248688474 0.0021194831714763354 0.00043817235339251194 -9.139349319033953e-05 0.0 0.0
0.0 0.005570862335939827 -0.005082336731700839 0.004436848907845653 0.0006454878238551807 -0.00029698297572459145 0.0 0.0
0.0 0.00947522827718071 -0.008491882171967328 0.007696293167211864 0.0007955890047554668 -0.0005694058947506669 0.0 0.0
0.0 0.014422544014778547 -0.012815390455226078 0.011901068877036604 0.0009143215781894588 -0.0008930294850303065 0.0 0.0
0.0 0.02050774069189118 -0.018087442359715655 0.017062084970764814 0.0010253573889508396 -0.001225940413614049 0.0 0.0
0.0 0.027934974767656523 -0.02440345899680275 0.02326594482143305 0.0011375141753697004 -0.0015522969808381597 0.0 0.0
0.0 0.036311264790033694 -0.031932636649978134 0.030681777501012968 0.0012508591489651603 -0.0019367952641804124 0.0 0.0
0.0 0.04654953712563581 -0.04082132927187346 0.03946336032430772 0.0013579689475657476 -0.0024131205107374354 0.0 0.0
0.0 0.05839747651243585 -0.05110790800304214 0.04966245954806246 0.0014454484549796909 -0.0029871207590155624 0.0 0.0
0.0 0.07159543878746608 -0.06253965328787445 0.06103881003218807 0.0015008432556864327 -0.003601392042212967 0.0 0.0
0.0 0.08535921922833128 -0.0744277137171807 0.07290850259364162 0.0015192111235390235 -0.004018523945831001 0.0 0.0
0.0 0.09829806032418878 -0.0856015722707639 0.08408461220261146 0.0015169600681525235 -0.00405799471951203 0.0 0.0
0.0 0.10776953010021018 -0.09379039125681131 0.09240577483360164 0.0013846164232095507 -0.0054312837067176795 0.0 0.0
0.0 0.10717816253748547 -0.09268600605982383 0.09223094087615474 0.0004550651836690971 -0.018123214815211324 0.0 0.0
0.0 0.09903768037380271 -0.08282288020339786 0.07732206997865604 0.005500810224741733 4.269154474378922e-15 0.0 0.0
0.0 0.107178162537472 -0.09268600605981123 0.09223094087614225 0.0004550651836689324 0.018123214815221902 0.0 0.0
0.0 0.10776953010018117 -0.093790391256786 0.09240577483357644 0.0013846164232093846 0.005431283706728506 0.0 0.0
0.0 0.09829806032414878 -0.08560157227072933 0.08408461220257714 0.0015169600681522177 0.004057994719517619 0.0 0.0
0.0 0.08535921922828552 -0.07442771371714096 0.0729085025936021 0.0015192111235389353 0.004018523945832093 0.0 0.0
0.0 0.07159543878741785 -0.06253965328783255 0.06103881003214662 0.0015008432556859203 0.0036013920422127933 0.0 0.0
0.0 0.05839747651238733 -0.051107908002999816 0.04966245954802098 0.001445448454978835 0.002987120759014925 0.0 0.0
0.0 0.04654953712558608 -0.04082132927183025 0.03946336032426514 0.0013579689475650616 0.0024131205107355905 0.0 0.0
0.0 0.03631126478998256 -0.031932636649933725 0.03068177750096889 0.0012508591489648292 0.001936795264178681 0.0 0.0
0.0 0.027934974767609356 -0.024403458996761544 0.023265944821392253 0.001137514175369289 0.00155229698083533 0.0 0.0
0.0 0.020507740691849134 -0.01808744235967909 0.01706208497072872 0.0010253573889503556 0.0012259404136098055 0.0 0.0
0.0 0.014422544014746115 -0.012815390455197112 0.011901068877008428 0.0009143215781886802 0.0008930294850274568 0.0 0.0
0.0 0.009475228277154118 -0.008491882171943067 0.0076962931671884565 0.0007955890047546077 0.0005694058947483603 0.0 0.0
0.0 0.005570862335921131 -0.005082336731683381 0.004436848907829285 0.0006454878238540924 0.00029698297572286047 0.0 0.0
0.0 0.002745571072627545 -0.0025576555248581104 0.002119483171466855 0.0004381723533912555 9.139349318931987e-05 0.0 0.0
0.0 0.0010127668298605527 -0.0008516351895860138 0.0006547701803952667 0.00019686500919074675 -4.9408972374455835e-05 0.0 0.0
0.0 0.0001511484574616907 -7.85448229050974e-05 5.4673479862627807e-05 2.3871343042469684e-05 -2.3488551003827566e-05 0.0 0.0
0.0 -1.368045713859873e-06 6.31931217686634e-07 -5.244562729856186e-07 -1.0747494470095688e-07 -3.148947134545995e-07 0.0 0.0
0.0 0.0 0.0 0.0 0.0 0.0 0.0 0.0
0.0 0.0 0.0 0.0 0.0 0.0 0.0 0.0
0.0 0.0 0.0 0.0 0.0 0.0 0.0 0.0
0.0 0.0 0.0 0.0 0.0 0.0 0.0 0.0
0.0 0.0 0.0 0.0 0.0 0.0 0.0 0.0
0.0 0.0 0.0 0.0 0.0 0.0 0.0 0.0
0.0 1.2072575746163993e-06 4.485472415614478e-07 -2.7993132999817263e-07 -1.686159115631502e-07 -3.0585825176266663e-07 0.0 0.0
0.0 0.0003208166265903285 -0.00016615714931280133 0.00011540104097220225 5.075610834059969e-05 5.893876591236361e-05 0.0 0.0
0.0 0.0013889682734183487 -0.001179531853029281 0.0008988490793403968 0.00028068277368888345 0.000155132182548016 0.0 0.0
0.0 0.0033272413657897447 -0.003103316001043648 0.002546511534352587 0.0005568044666910614 0.0001766695136221675 0.0 0.0
0.0 0.006396211699642612 -0.005858907270431432 0.005056551843659881 0.0008023554267715488 0.0001949866944514091 0.0 0.0
0.0 0.01056267162683219 -0.009563413357672553 0.008557565652676733 0.0010058477049958207 0.00020952243851510657 0.0 0.0
0.0 0.015958848297089955 -0.0142682705512833 0.013067743574310732 0.0012005269769725653 0.00019858211815076228 0.0 0.0
0.0 0.022636306341398994 -0.020033251831699107 0.0186194196362677 0.0014138321954313988 0.00020957290333239445 0.0 0.0
0.0 0.03040026178855796 -0.026980192673961796 0.025324536082176354 0.0016556565917854441 0.00023832787870873683 0.0 0.0
0.0 0.039777250958630384 -0.03525403988707727 0.033334163960495315 0.0019198759265819099 0.00020774079916948676 0.0 0.0
0.0 0.05086182979590138 -0.04498999198974971 0.04279265442698642 0.0021973375627632715 0.00015745155845065147 0.0 0.0
0.0 0.06366422042279851 -0.05619122530647419 0.05372644659642722 0.0024647787100469097 5.709941778460348e-06 0.0 0.0
0.0 0.07782632316020124 -0.06850382890250507 0.06581462364330075 0.0026892052592042987 -0.000260949033325469 0.0 0.0
0.0 0.09231184142893996 -0.08105373286668505 0.07822265764608412 0.0028310752206008555 -0.0005573228024524169 0.0 0.0
0.0 0.10551794548759247 -0.09245638606370363 0.08960997306567609 0.002846412998027362 -0.0006966527580668288 0.0 0.0
0.0 0.11546064255119623 -0.1011319317123954 0.0983290016649957 0.002802930047399755 -0.0009820947374492807 0.0 0.0
0.0 0.11774068594226401 -0.10353433971200357 0.10090790935300072 0.0026264303590028664 -0.012532154490431076 0.0 0.0
0.0 0.11363385774033302 -0.0964001639731833 0.08781359168321339 0.008586572289969906 1.734723475976807e-15 0.0 0.0
0.0 0.11774068594224901 -0.10353433971199003 0.1009079093529881 0.0026264303590018217 0.012532154490434506 0.0 0.0
0.0 0.11546064255116413 -0.10113193171236746 0.09832900166496847 0.002802930047399061 0.0009820947374526209 0.0 0.0
0.0 0.10551794548754695 -0.09245638606366369 0.08960997306563742 0.002846412998026315 0.0006966527580690857 0.0 0.0
0.0 0.09231184142889104 -0.08105373286664219 0.07822265764604205 0.002831075220599881 0.0005573228024524784 0.0 0.0
0.0 0.07782632316014831 -0.06850382890245879 0.06581462364325555 0.0026892052592032943 0.0002609490333250978 0.0 0.0
0.0 0.06366422042274808 -0.05619122530642941 0.053726446596384744 0.0024647787100446636 -5.709941778498512e-06 0.0 0.0
0.0 0.05086182979584839 -0.04498999198970316 0.042792654426941454 0.002197337562761702 -0.00015745155845125515 0.0 0.0
0.0 0.03977725095857494 -0.03525403988702867 0.03333416396044797 0.0019198759265807068 -0.00020774079917001888 0.0 0.0
0.0 0.030400261788504968 -0.02698019267391543 0.025324536082131255 0.0016556565917841696 -0.0002383278787106962 0.0 0.0
0.0 0.02263630634135435 -0.020033251831659927 0.018619419636229397 0.0014138321954305266 -0.00020957290333415606 0.0 0.0
0.0 0.015958848297054018 -0.01426827055125194 0.013067743574280496 0.001200526976971456 -0.00019858211815163744 0.0 0.0
0.0 0.010562671626802233 -0.009563413357645831 0.008557565652651096 0.0010058477049947412 -0.00020952243851540798 0.0 0.0
0.0 0.006396211699621514 -0.005858907270411885 0.005056551843641654 0.0008023554267702327 -0.00019498669445132963 0.0 0.0
0.0 0.0033272413657774204 -0.003103316001031688 0.0025465115343419834 0.0005568044666897047 -0.00017666951362218402 0.0 0.0
0.0 0.0013889682734118049 -0.0011795318530228344 0.0008988490793352602 0.00028068277368757514 -0.00015513218254741064 0.0 0.0
0.0 0.0003208166265876355 -0.0001661571493111473 0.00011540104097104126 5.075610834010721e-05 -5.893876591190878e-05 0.0 0.0
0.0 1.2072575742953044e-06 4.4854724166161487e-07 -2.799313300721936e-07 -1.6861591158943586e-07 3.0585825176809654e-07 0.0 0.0
0.0 0.0 0.0 0.0 0.0 0.0 0.0 0.0
0.0 0.0 0.0 0.0 0.0 0.0 0.0 0.0
0.0 0.0 0.0 0.0 0.0 0.0 0.0 0.0
SCALARS Wm float 4
LOOKUP_TABLE default
9.979882772065718 1.9178446518709138 3.88842984855419 4.173608271640605
4.460112585611639 2.229931764060454 0.9618743456321526 1.268306475919035
0.5101163341554705 0.5131079737821362 -0.004598699392006388 0.0016070597653406635
0.4373729579216967 0.43488992852195163 0.0008677393379266661 0.0016152900618186293
0.7588945963303299 0.6461383057964549 0.03982708377186924 0.07292920676200537
1.453912333473878 0.8518621373115702 0.19686006363544004 0.4051901325268676
2.7830374758887118 1.1494964932920062 0.6410326260880035 0.9925083565087041
4.83018060436385 1.4825294227362862 1.4402072312333014 1.9074439503942595
7.738160861103256 1.8718650084346191 2.7050253267939155 3.161270525874721
11.646884063023268 2.3500115192583917 4.532464074145389 4.764408469619497
16.702141511617985 2.9604961454024177 7.009550070902852 6.732095295312719
22.99979870065463 3.7371878680859703 10.156745694588057 9.105865137980622
30.85198164676075 4.685482163632925 14.227497368361497 11.93900211476633
40.44821039271207 5.810587603684832 19.354954189173682 15.282668599853553
51.84266748075166 7.034079221638697 25.663567252751726 19.145021006361237
64.78240038421619 8.201551871039918 33.1320786463361 23.448769866840212
78.51970259070623 9.107509569514178 41.39882077184102 28.013372249351026
91.86703023726231 9.573158989555221 49.81593074941843 32.47794049828863
103.41726201475514 9.588861334084784 57.435583848609404 36.39281683206093
111.4634288349963 9.186061603505411 63.00959110360654 39.267776127884325
114.19560180374968 8.554301133851707 65.20724392020252 40.434056749695486
111.46342883498346 9.186061603504323 63.00959110359856 39.26777612788064
103.41726201472459 9.588861334079503 57.43558384859253 36.39281683205253
91.86703023722471 9.573158989555012 49.815930749394035 32.4779404982757
78.51970259065712 9.107509569504739 41.398820771815195 28.013372249337145
64.78240038417063 8.201551871036155 33.13207864630944 23.44876986682506
51.842667480709714 7.034079221637186 25.663567252726438 19.145021006346077
40.44821039266684 5.810587603678866 19.354954189149595 15.282668599838345
30.851981646717334 4.685482163627563 14.227497368338751 11.939002114751037
22.999798700618634 3.7371878680867407 10.156745694566682 9.105865137965207
16.702141511586515 2.9604961453998553 7.009550070886577 6.73209529530007
11.646884062997563 2.3500115192534428 4.53246407413411 4.764408469610019
7.738160861085008 1.8718650084318897 2.705025326785945 3.1612705258671756
4.83018060435162 1.4825294227349353 1.440207231228114 1.9074439503885716
2.783037475880479 1.1494964932902807 0.6410326260852125 0.992508356504986
1.453912333469765 0.8518621373103956 0.19686006363460817 0.40519013252476177
0.7588945963285065 0.6461383057950879 0.03982708377169454 0.07292920676172424
0.437372957921124 0.43488992852142644 0.0008677393379104223 0.0016152900617872126
0.5101163341548127 0.5131079737814499 -0.004598699391982141 0.0016070597653449969
4.460112585607514 2.2299317640608938 0.9618743456300413 1.268306475916578
9.979882772042734 1.9178446518595988 3.888429848547936 4.173608271635207
11.567744601869189 5.239812093653074 2.9522899175942054 3.3756425906219123
1.5947650603337657 0.36032637321956795 0.4886435360098161 0.7457951511043809
0.2263393048162858 0.23989698493281827 -0.0032264639900726425 -0.010331216126459937
0.35040004392498525 0.3500099165391482 1.0688789442347464e-05 0.00037943859639474734
0.5851577383712213 0.5317535667325887 0.014967708677752274 0.038436462960880546
1.1739855280678393 0.7494858587613189 0.14361820480884224 0.2808814644976782
2.2918192295240156 0.9657894030724274 0.5030138861143968 0.8230159403371915
4.095240594315946 1.2174619004243825 1.2142110125621262 1.6635676813294382
6.666141904800258 1.4833509303338646 2.3575332099443713 2.825257764522023
10.079227650970477 1.7773193730772125 3.9926851314061764 4.309223146487089
14.442935095980449 2.1157354689423693 6.20243238355685 6.124767243481227
19.942352095213263 2.519330100688673 9.120247701870396 8.302774292654188
26.60569542230945 3.0005909417795564 12.699013447095245 10.906091033434658
34.868848053330076 3.5512085826773707 17.332041496384072 13.985597974268627
44.73159136384653 4.135219182529 23.029987481312446 17.5663847000051
56.015619220061026 4.6586300773548555 29.779158030497644 21.57783111220851
68.13805730066589 4.998375805007749 37.32355411219399 25.816127383464156
80.1003964573333 5.063368372605319 45.054064931262985 29.98296315346499
90.55444003863224 4.8257175716205865 52.07230433062259 33.656418136389036
97.91979679868767 4.33673992288667 57.276453496548974 36.30660337925197
100.61726776196596 3.8378331928227167 59.407476464990154 37.37195810415312
97.91979679867991 4.336739922891734 57.276453496540505 36.306603379247655
90.55444003861228 4.825717571624647 52.0723043306068 33.65641813638086
80.10039645730161 5.0633683726062655 45.05406493124166 29.9829631534537
68.13805730062909 4.998375805007031 37.32355411217086 25.81612738345119
56.015619220019126 4.658630077349871 29.779158030474225 21.57783111219502
44.73159136381073 4.13521918253065 23.029987481289158 17.56638469999092
34.868848053292 3.5512085826749984 17.332041496362358 13.98559797425464
26.605695422272113 3.000590941776206 12.699013447075114 10.906091033420793
19.942352095178915 2.5193301006863478 9.120247701851975 8.302774292640589
14.44293509595182 2.1157354689397296 6.202432383542382 6.124767243469714
10.079227650949326 1.7773193730755654 3.992685131395796 4.309223146477959
6.666141904784261 1.4833509303323231 2.3575332099371216 2.8252577645148143
4.095240594305157 1.2174619004232594 1.2142110125576218 1.663567681324276
2.2918192295169684 0.9657894030710096 0.5030138861120668 0.8230159403338915
1.1739855280644889 0.7494858587607529 0.14361820480776144 0.28088146449597445
0.5851577383700778 0.5317535667315678 0.014967708677696746 0.038436462960813385
0.3504000439247076 0.3500099165388063 1.0688789450596795e-05 0.0003794385964507085
0.22633930481618575 0.23989698493261946 -0.0032264639900428374 -0.010331216126390893
1.5947650603290153 0.3603263732191106 0.4886435360078385 0.7457951511020666
11.567744601847277 5.239812093643013 2.9522899175880535 3.3756425906162058
8.531731190438041 4.094092402008003 1.9739996918514824 2.463639096578557
0.9561716363527648 0.12621560258409398 0.31491997045160386 0.5150360633170675
0.14223859523408414 0.1422390316917425 -1.80369121587346e-08 -4.1842074621861334e-07
0.26531381259803477 0.26511964580924186 5.299458191863675e-05 0.00014117220687420013
0.4559463099782761 0.4448132024496028 0.0021038639131418387 0.009029243615531625
0.9160278600363181 0.6732208563905732 0.07970522000779698 0.16310178363794858
1.8460106951303168 0.8837605776213949 0.3451077748804524 0.6171423426284692
3.4206823198068603 1.1286322531036286 0.9372675926150104 1.3547824740882206
5.6762847746979 1.378467849837298 1.9050624610432596 2.392754463817342
8.687329896828366 1.6451902015236637 3.3224313848138154 3.719708310490888
12.504799758279852 1.9447576112608487 5.225213680523807 5.334828466495193
17.219501693774323 2.2935265504977096 7.660846538026003 7.2651286052506165
23.132922097056344 2.714673114198881 10.859686908645383 9.558562074212082
30.23548686835193 3.202873630741689 14.742150480025181 12.29046275758505
38.86779152420614 3.719873518836432 19.670212210130742 15.47770579523895
48.80284458998364 4.200230992455132 25.529285405665096 19.07332819186341
59.56100681511426 4.54618555526391 32.0935315536439 22.921289706206455
70.25726454485832 4.656295882044636 38.889192867575055 26.711775795238626
79.65083320044684 4.466288457016025 45.126991279409566 30.05755346402123
86.31456818335039 4.081875149547976 49.765979660060204 32.466713373742216
88.70454407406251 3.506357541264582 51.7160140923294 33.4821724404685
86.31456818334163 4.081875149551713 49.76597966005211 32.4667133737378
79.65083320041909 4.466288457006435 45.12699127939771 30.05755346401491
70.25726454483245 4.656295882046532 38.88919286755725 26.711775795228696
59.56100681508309 4.546185555264451 32.09353155362372 22.92128970619492
48.80284458995209 4.2002309924559995 25.529285405644796 19.07332819185128
38.86779152417317 3.7198735188363696 19.67021221011055 15.477705795226258
30.235486868319597 3.2028736307408767 14.74215048000628 12.290462757572438
23.132922097024572 2.7146731141965668 10.859686908628161 9.558562074199841
17.219501693745883 2.293526550496666 7.6608465380104525 7.265128605238773
12.504799758254887 1.9447576112576213 5.225213680511989 5.3348284664852805
8.687329896809379 1.6451902015225541 3.322431384804511 3.7197083104823117
5.676284774683777 1.3784678498360732 1.9050624610369218 2.392754463810783
3.4206823197972094 1.1286322531024076 0.9372675926111615 1.354782474083641
1.8460106951244102 0.883760577620095 0.345107774878712 0.617142342625603
0.916027860033499 0.673220856389767 0.07970522000706387 0.16310178363666772
0.455946309977411 0.4448132024487148 0.0021038639131382678 0.009029243615557594
0.2653138125978553 0.26511964580906555 5.299458191728513e-05 0.0001411722068725251
0.14223859523408522 0.14223903169174323 -1.8036912141597065e-08 -4.184207459031903e-07
0.9561716363493822 0.1262156025842675 0.31491997045007025 0.5150360633150443
8.531731190417597 4.094092401998878 1.9739996918458533 2.46363909657287
6.345633867228552 3.1761523895900208 1.3479561619765332 1.821525315661999
0.617746527800277 0.07439022013387697 0.19077107915022343 0.3525852285161766
0.10057110135522268 0.10057110135522268 0.0 0.0
0.2001078935446638 0.20008605042575486 2.9167827818414187e-06 1.8926336127098795e-05
0.35839005183184275 0.3655148995978116 -0.0017808490828946045 -0.005343998683074255
0.6883597469410454 0.5755114590165735 0.03134329578107893 0.0815049921433927
1.4519212570145188 0.8108642901000462 0.2237127502259947 0.4173442166884777
2.771876964534814 1.0337706683132943 0.6834199510344077 1.054686345187112
4.72584960044512 1.2691717775320528 1.4900705268392698 1.9666072960737946
7.329228736546222 1.5115969929410351 2.681606652216774 3.1360250913884142
10.5960760702421 1.7732386054823106 4.268389278234562 4.554448186525228
14.662929862732126 2.077539503765015 6.347860183851629 6.237530175115482
19.608498602134368 2.437669081707711 8.93563464176835 8.235194878658309
25.81676385843635 2.859208065956513 12.351728708624181 10.605827083855658
33.193867526270154 3.318956461746789 16.47582305050362 13.399088014019744
41.73359430188648 3.7601974397548603 21.397539668442374 16.57585719368927
51.17968091946642 4.108179562617274 27.078015832896508 19.993485523952632
60.663588660002915 4.263357479158301 32.983951863005565 23.416279317839052
69.08110289790181 4.1523804453026605 38.44535550770506 26.483366944894115
75.14934666210345 3.8433003759699735 42.566165035545424 28.73988125058807
77.33225351612347 3.1574397059040242 44.448122941856106 29.726690868363335
75.14934666209365 3.8433003759699904 42.566165035538965 28.739881250584677
69.08110289789253 4.152380445308794 38.44535550769516 26.48336694488862
60.66358865997891 4.263357479157896 32.98395186299045 23.416279317830558
51.179680919437835 4.1081795626157405 27.078015832879537 19.993485523942564
41.733594301855966 3.7601974397529427 21.39753966842469 16.575857193678342
33.19386752624062 3.318956461744724 16.475823050487 13.399088014008893
25.816763858408056 2.859208065955371 12.351728708608162 10.605827083844526
19.6084986021078 2.4376690817067117 8.935634641753648 8.235194878647441
14.662929862706818 2.0775395037625395 6.347860183838975 6.237530175105307
10.596076070221574 1.7732386054808635 4.268389278224393 4.554448186516321
7.329228736529082 1.5115969929386635 2.6816066522092057 3.1360250913812107
4.725849600433155 1.2691717775315 1.4900705268337842 1.96660729606787
2.771876964526483 1.0337706683120111 0.6834199510314588 1.0546863451830122
1.4519212570095164 0.8108642900984553 0.22371275022457912 0.4173442166864815
0.6883597469392134 0.5755114590156342 0.03134329578076612 0.08150499214281348
0.3583900518313263 0.36551489959711253 -0.001780849082865474 -0.005343998682920726
0.20010789354443734 0.2000860504255502 2.9167827799801324e-06 1.8926336107187144e-05
0.10057110135509977 0.10057110135509977 0.0 0.0
0.6177465277975183 0.07439022013402788 0.19077107914898123 0.35258522851450924
6.345633867211937 3.1761523895827932 1.347956161972177 1.8215253156569684
4.641795188040838 2.4417168806175717 0.8818057434595081 1.3182725639637562
0.45394866976955106 0.1070403440801296 0.12819742979891904 0.2187108958905029
0.09126761258125117 0.09126761258125117 0.0 0.0
0.15815419860374338 0.15814676978522513 4.1024249203392503e-07 7.018576026238409e-06
0.2849173191664202 0.28575041593072087 -0.00019226293069591878 -0.0006408338336046874
0.5168752149125391 0.4957844445637831 0.004141748113700298 0.016949022235055674
1.0953290657786057 0.7167318260274875 0.13147923880040838 0.24711800095071032
2.159321584608892 0.9340130354588054 0.45854807126535474 0.7667604778847316
3.807330055435078 1.1532868120942044 1.105209743541104 1.5488334997997701
6.00645518651506 1.3735223216142796 2.072471002173544 2.560461862727237
8.770363532400173 1.6046248468759077 3.382657973673115 3.783080711851152
12.164580575212325 1.8642874611655214 5.0765330476069455 5.223760066439862
16.351987656780274 2.1725077290316515 7.25560086221643 6.9238790655321925
21.39879216550508 2.531818555437939 9.917964698010017 8.949008912057122
27.640084218738437 2.9260402981289 13.377085557269371 11.33695836334017
34.9595563136075 3.3301072709659962 17.5526635213817 14.076785521259797
42.99799716289073 3.682033339686269 22.242690670546907 17.07327315265755
51.27381881765025 3.886687126420607 27.278075053170127 20.109056638059506
58.789465941456065 3.8618022513808286 32.048574245056614 22.87908944501861
64.38726647170301 3.6166455782656732 35.781485642024194 24.989135251413117
66.43056719041816 2.805541562696743 37.615134852098265 26.009890775623145
64.38726647169283 3.6166455782620397 35.78148564202001 24.98913525141076
58.78946594143881 3.8618022513796997 32.048574245046325 22.879089445012774
51.27381881763346 3.8866871264241576 27.278075053157337 20.10905663805196
42.997997162865616 3.6820333396830867 22.24269067053332 17.073273152649193
34.959556313582276 3.330107270964221 17.552663521367407 14.076785521250635
27.640084218715923 2.926040298130136 13.377085557255251 11.336958363330538
21.398792165480607 2.53181855543546 9.917964697997261 8.94900891204788
16.35198765675678 2.172507729028325 7.255600862205112 6.923879065523345
12.164580575191891 1.8642874611632707 5.076533047597081 5.223760066431539
8.77036353238161 1.6046248468734434 3.382657973664711 3.783080711843458
6.006455186501192 1.373522321612661 2.0724710021674304 2.5604618627211018
3.8073300554243867 1.1532868120931254 1.1052097435367014 1.5488334997945588
2.1593215846020586 0.9340130354574889 0.4585480712630398 0.7667604778815282
1.0953290657749564 0.7167318260261687 0.13147923879948742 0.2471180009493005
0.5168752149110799 0.4957844445626226 0.004141748113605116 0.016949022234852028
0.2849173191660051 0.28575041593028333 -0.0001922629306932241 -0.0006408338335850204
0.15815419860346516 0.15814676978495104 4.1024249179030226e-07 7.018576022264267e-06
0.09126761258106275 0.09126761258106275 0.0 0.0
0.4539486697672277 0.10704034408015571 0.12819742979789722 0.21871089588917483
4.6417951880278565 2.4417168806119527 0.8818057434562454 1.3182725639596578
3.32771445566567 1.866233684133601 0.5558889134659778 0.9055918580660927
0.3223800350338567 0.14315246071727605 0.05451298731221636 0.12471458700436396
0.1021077270199111 0.1021077270199111 0.0 0.0
0.13682463347642734 0.13682495293910762 -1.2239768657509634e-08 -3.072229116306911e-07
0.23331914550903288 0.23384020526658422 -7.713596560585923e-05 -0.00044392379194553
0.39142991019944506 0.3962808116217117 -0.0027265785484864176 -0.0021243228737802345
0.7746197299579554 0.5984769383026829 0.047649944755250695 0.1284928469000217
1.626425758220933 0.8319939960662444 0.2998092295673161 0.4946225325873728
2.9106932923654454 1.0252753212249928 0.7430039240678046 1.1424140470726478
4.741039930114701 1.2308869839005872 1.5154911427904543 1.994661803423658
7.004577274762017 1.4333865268172237 2.5489769808935288 3.022213767051262
9.757972165313529 1.6545637867520158 3.8785900465644465 4.224818331997066
13.114301017510265 1.9127870618564584 5.567880010175354 5.633633945478454
17.267622487759823 2.213334381808399 7.7455279551242215 7.3087601508272
22.290725178747614 2.555930974037128 10.436358405151639 9.298435799558852
28.228167844783904 2.9103206859334887 13.716317992540903 11.601529166309518
35.075709460742786 3.2512984638339506 17.682746864820103 14.141664132088733
42.12874689193083 3.514739263556784 21.82571610190933 16.788291526464715
48.706833752652756 3.5839834666520582 25.842694471831177 19.280155814169518
53.91776207440113 3.4027409498997923 29.250813465626372 21.26420765887498
55.882835941239705 2.4569968843492824 31.096209442760006 22.32962961413043
53.91776207439665 3.4027409499003 29.250813465623217 21.264207658873094
48.70683375263907 3.583983466649745 25.842694471824046 19.280155814165305
42.128746891914 3.5147392635566406 21.825716101898962 16.78829152645839
35.0757094607225 3.2512984638311386 17.682746864809445 14.141664132081925
28.22816784476185 2.910320685930583 13.7163179925295 11.60152916630178
22.2907251787273 2.555930974037085 10.436358405139801 9.298435799550411
17.26762248774087 2.213334381806256 7.745527955114735 7.3087601508198805
13.114301017493547 1.9127870618563587 5.567880010166216 5.633633945470974
9.757972165295847 1.6545637867492975 3.8785900465565195 4.224818331990033
7.004577274747621 1.4333865268163144 2.548976980886662 3.022213767044647
4.741039930103301 1.2308869838994942 1.5154911427855378 1.9946618034182673
2.9106932923572026 1.0252753212240209 0.7430039240646162 1.1424140470685662
1.6264257582155046 0.8319939960651259 0.2998092295654857 0.4946225325848925
0.7746197299553099 0.5984769383015531 0.0476499447547269 0.12849284689902998
0.3914299101986336 0.3962808116207744 -0.0027265785484596075 -0.0021243228736811527
0.23331914550865446 0.23384020526620958 -7.713596560652413e-05 -0.00044392379194866906
0.13682463347616422 0.13682495293884375 -1.2239768622387086e-08 -3.0722291093115194e-07
0.10210772701963894 0.10210772701963894 0.0 0.0
0.32238003503194784 0.1431524607170731 0.05451298731152046 0.1247145870033543
3.327714455656207 1.8662336841296492 0.5558889134636723 0.9055918580628859
2.2949777108055684 1.4045987981772465 0.309855843632888 0.5805230689954344
0.250580471703061 0.18224229175991996 0.0173116972713954 0.05102648267174572
0.12227759587765605 0.12227759587765605 0.0 0.0
0.13176208285129498 0.13176208285129498 0.0 0.0
0.19807977895399534 0.19796462511894972 1.0638439906407724e-05 0.00010451539513918988
0.3069166405272807 0.3166440434384671 -0.0022944215762760816 -0.0074329813349102184
0.5465116534205786 0.49964112607966293 0.008759312817153005 0.038111214523762524
1.10168236334337 0.6886000911315965 0.12928606543512697 0.28379620677664685
2.1449587737328732 0.9043668284542923 0.4905024155264204 0.7500895297521597
3.507696573081293 1.0748690326713755 0.9928952526711115 1.4399322877388059
5.316435613600589 1.2571542326862581 1.7848051274774752 2.274476253436856
7.470728790244406 1.4450940829973833 2.7845195785722594 3.241115128674763
10.063079439733315 1.6585610968719462 4.039846126262263 4.364672216599107
13.245262117751503 1.906117360450779 5.643135614428918 5.696009142871805
17.141494095069675 2.1893869489059017 7.666075469640458 7.286031676523311
21.9201202152614 2.5071254956935616 10.267370185776633 9.145624533791194
27.21104498498881 2.825472300270461 13.142893546391518 11.24267913832684
33.11923401152731 3.123151850985508 16.545925872790693 13.450156287751103
38.94711505544135 3.301279033875437 20.009521760029013 15.636314261536876
43.752192823489125 3.2047192817775763 23.024939630689104 17.52253391102245
45.712511588154854 2.120189869970877 24.924871196688095 18.667450521495894
43.75219282348134 3.204719281772666 23.024939630687292 17.522533911021377
38.94711505543479 3.3012790338778495 20.009521760023492 15.636314261533439
33.11923401151547 3.1231518509861167 16.54592587278314 13.45015628774621
27.211044984972418 2.825472300268321 13.14289354638302 11.242679138321083
21.920120215246275 2.5071254956939315 10.267370185767597 9.145624533784739
17.14149409505369 2.1893869489050224 7.666075469631931 7.286031676516732
13.24526211773899 1.9061173604523856 5.643135614421165 5.696009142865442
10.063079439718173 1.6585610968701323 4.03984612625513 4.364672216592911
7.470728790231675 1.4450940829965626 2.784519578566117 3.2411151286689974
5.316435613588576 1.2571542326845948 1.78480512747242 2.2744762534315606
3.5076965730723138 1.0748690326702839 0.9928952526674455 1.4399322877345848
2.1449587737265676 0.9043668284538486 0.4905024155237867 0.7500895297489323
1.1016823633396744 0.6886000911308423 0.12928606543399396 0.2837962067748381
0.546511653418771 0.4996411260786858 0.00875931281689042 0.03811121452319452
0.3069166405268063 0.31664404343782204 -0.0022944215762275076 -0.007432981334788288
0.198079778953553 0.1979646251185067 1.0638439906200316e-05 0.00010451539514006463
0.13176208285095523 0.13176208285095523 0.0 0.0
0.12227759587741548 0.12227759587741548 0.0 0.0
0.2505804717017194 0.18224229175961942 0.017311697270999942 0.051026482671099854
2.2949777107986504 1.4045987981742913 0.30985584363136426 0.5805230689929967
1.5706544938233287 1.0904293168665893 0.1729433168470152 0.307281860109724
0.19579602237533295 0.19439402830655012 -0.006333294498343655 0.007735288567126485
0.14457018218761064 0.1445753676334636 -2.1719582759986377e-07 -4.968250025342334e-06
0.13782022001253658 0.13782022001253658 0.0 0.0
0.17708526671694483 0.1771504510366814 -7.514357013150206e-06 -5.766996272337634e-05
0.2522431557812927 0.2564558845109398 -0.0009405544816084601 -0.0032721742480387003
0.38626809515723665 0.39327590006136137 -0.004110562124642604 -0.0028972427794821307
0.7102155730268865 0.5515733455761769 0.03841097405723685 0.12023125339347303
1.367843125175349 0.7338350438612194 0.21391618615921754 0.42009189515491174
2.424967963444116 0.9160175716062744 0.6037455264411171 0.905204865396723
3.7113110257342004 1.0674176910741442 1.1030750475570235 1.540818287103032
5.2872773454274595 1.225155647395626 1.7843652084890214 2.2777564895428117
7.17889947739719 1.4015129804905528 2.655992771191919 3.121393725714716
9.470278469437297 1.5996467156990817 3.753743104355045 4.116888649383172
12.325723224501893 1.8334658421090642 5.183646631457991 5.308610750934839
15.775875879566318 2.1025902703911936 6.946721977382837 6.726563631792292
19.912382804971745 2.397416024307806 9.167558900692017 8.347407879971927
24.458726218365424 2.7114741311643247 11.61535175447424 10.131900332726858
29.22038498462117 2.9839275675292005 14.257094668453984 11.979362748637985
33.71800767603519 3.0113763531423725 16.969263955417897 13.737367367474917
35.764067393743645 1.7969501894864914 18.97375491490745 14.993362289349715
33.7180076760341 3.011376353141495 16.969263955417716 13.737367367474882
29.220384984618093 2.9839275675341876 14.25709466844914 11.979362748634772
24.458726218353817 2.7114741311618165 11.615351754468886 10.131900332723118
19.912382804960465 2.397416024307919 9.167558900685453 8.347407879967099
15.775875879552844 2.1025902703897135 6.946721977376064 6.7265636317870685
12.325723224491021 1.8334658421089345 5.183646631452106 5.308610750929985
9.470278469424812 1.5996467156964451 3.753743104349792 4.116888649378574
7.1788994773873345 1.4015129804890096 2.6559927711876536 3.12139372571067
5.287277345417683 1.225155647394869 1.784365208484618 2.2777564895381963
3.7113110257267197 1.0674176910742852 1.1030750475534945 1.5408182870989386
2.424967963437756 0.9160175716056673 0.6037455264385109 0.905204865393578
1.3678431251709209 0.7338350438602541 0.213916186157807 0.42009189515285966
0.7102155730246016 0.5515733455757429 0.0384109740566211 0.1202312533922372
0.3862680951561506 0.393275900060426 -0.00411056212465819 -0.0028972427796173494
0.2522431557806919 0.2564558845100908 -0.0009405544815782317 -0.003272174247820846
0.17708526671651753 0.17715045103630087 -7.514357016931436e-06 -5.766996276637631e-05
0.13782022001210373 0.13782022001210373 0.0 0.0
0.14457018218728301 0.14457536763312512 -2.171958270000216e-07 -4.968250015090288e-06
0.19579602237445312 0.19439402830611924 -0.006333294498470473 0.007735288566804355
1.5706544938184999 1.090429316864461 0.17294331684592398 0.3072818601081151
1.0106968671092367 0.8121514260997982 0.057796929154113275 0.14074851185532516
0.17319272359585175 0.19233615884601993 -0.006871247741994206 -0.012272187508173969
0.16456517984215896 0.1646512488987606 -7.296353753386552e-06 -7.877270284823133e-05
0.15034621391890615 0.15037135628525816 -1.658215759124957e-06 -2.3484150592871378e-05
0.1686787895787119 0.16872693243887538 -5.05686437436115e-06 -4.308599578912774e-05
0.2162089450973868 0.21735015420999818 -0.0003075136409189322 -0.0008336954716924114
0.2935191959204089 0.3057543679247361 -0.0036277104505020525 -0.008607461553825097
0.44754580449801457 0.42922439563554204 0.0023231315270891132 0.015998277335383428
0.7794066167293185 0.5598190439115132 0.05986654560919376 0.15972102720861167
1.3835550606708311 0.7064675188051798 0.2365490440358985 0.4405384978297534
2.2094935898350285 0.8394494963779027 0.5177770109856714 0.8522670824714547
3.2465577943433375 0.9752028491027921 0.9247313075351306 1.3466236377054135
4.479440784629338 1.1181798558596157 1.4427986613170898 1.9184622674526304
5.962074336155288 1.2734112134430022 2.0983767332560723 2.59028638945621
7.807162884889002 1.457321088848547 2.954684883834458 3.3951569122059975
10.113673873352923 1.67989146394036 4.066791474498728 4.366990934913836
12.934095697380213 1.9498985706190484 5.461733925994832 5.522463200766331
16.183567276428203 2.239092745245086 7.1022458951965435 6.842228635986579
19.917352425168858 2.5782563517814894 9.03130828942397 8.307787783963393
24.03392119635268 2.8096834194821247 11.321012298761246 9.903225478109304
26.187220521638977 1.513454600595366 13.308848455876179 11.36491746516743
24.03392119635583 2.8096834194854825 11.321012298761126 9.903225478109231
19.917352425161997 2.578256351779663 9.031308289421068 8.30778778396127
16.1835672764213 2.2390927452439997 7.102245895193222 6.842228635984074
12.934095697370024 1.9498985706170744 5.461733925990303 5.522463200762647
10.113673873345693 1.679891463940986 4.066791474494503 4.366990934910203
7.807162884880744 1.4573210888466293 2.9546848838311384 3.3951569122029754
5.962074336150629 1.2734112134435494 2.0983767332534495 2.5902863894536323
4.479440784623982 1.118179855859721 1.4427986613145183 1.9184622674497442
3.2465577943366806 0.9752028491010625 0.9247313075328063 1.3466236377028127
2.2094935898292536 0.8394494963771931 0.5177770109834894 0.8522670824685712
1.3835550606669549 0.7064675188048669 0.2365490440344235 0.44053849782766435
0.7794066167274264 0.5598190439111753 0.05986654560865942 0.15972102720759143
0.4475458044966675 0.42922439563483594 0.002323131526907996 0.015998277334923375
0.2935191959197675 0.30575436792371175 -0.0036277104504292886 -0.008607461553514897
0.21620894509681718 0.2173501542092661 -0.0003075136408983691 -0.0008336954715505334
0.16867878957841334 0.16872693243861137 -5.056864378834541e-06 -4.3085995819184645e-05
0.15034621391859598 0.15037135628494036 -1.6582157584634692e-06 -2.3484150585914405e-05
0.16456517984171767 0.16465124889829644 -7.2963537516321735e-06 -7.877270282710897e-05
0.17319272359540663 0.1923361588454541 -0.00687124774196366 -0.012272187508083864
1.0106968671062417 0.8121514260982714 0.05779692915358407 0.14074851185438644
0.6583552503213427 0.6242617071385048 0.008701955862157126 0.0253915873206806
0.1661095408696929 0.17228043152128125 -0.0014476305552537773 -0.004723260096334495
0.17976998090623056 0.1797873749418961 -9.224449329999089e-07 -1.6471590732581265e-05
0.16560334120373085 0.16561742465486384 -6.269657850398564e-07 -1.3456485347957748e-05
0.1703981104812557 0.1703913630248443 2.5582695279882404e-06 4.189186883372362e-06
0.19791401823491142 0.19994921875315655 -0.00040474241965762867 -0.0016304580985874973
0.24371031175934035 0.2495451887475961 -0.0017659160675105906 -0.004068960920745172
0.30723471001059477 0.29640004305331663 0.0016678601493280087 0.009166806807950005
0.4094130361745307 0.36191713582859303 0.010927942609790324 0.03656795773614735
0.6105552544627649 0.44659289864412316 0.04550893792950303 0.11845341788913857
0.9797713401737588 0.5595254787120073 0.14727609955965698 0.27296976190209443
1.4544081670678275 0.6503951328833132 0.2867176429587532 0.5172953912257616
2.068776847651468 0.7411335557722285 0.5053261773515185 0.8223171145277213
2.8390673365036987 0.8442221597702114 0.8031767473976037 1.1916684293358841
3.8019109835736753 0.9702713694301559 1.1925165924703565 1.6391230216731627
5.046466185696701 1.137762938842951 1.7130677196622506 2.195635527191499
6.689093900340218 1.3643535390619974 2.425618977475119 2.8991213838030996
8.816661003929827 1.6443696926045779 3.4008329014299767 3.7714584098952746
11.333374258857548 1.9271358173181874 4.601037481606271 4.805200959933092
14.65847802384492 2.4180759409257315 6.148059784122653 6.092342298796532
17.476573718051682 1.306569552745446 8.371431555041067 7.798572610265168
14.65847802384137 2.4180759409202657 6.148059784123724 6.092342298797379
11.333374258855606 1.9271358173178692 4.601037481605364 4.805200959932369
8.816661003924054 1.6443696926025915 3.400832901427954 3.771458409893511
6.689093900335461 1.36435353906192 2.4256189774726784 2.89912138380086
5.046466185691279 1.1377629388418304 1.7130677196601434 2.1956355271893053
3.8019109835712435 0.9702713694299553 1.1925165924693442 1.6391230216719441
2.8390673365006336 0.8442221597694679 0.8031767473964954 1.1916684293346702
2.068776847648219 0.741133555772025 0.5053261773501805 0.8223171145260132
1.4544081670652227 0.6503951328824915 0.2867176429580095 0.5172953912247215
0.9797713401711469 0.5595254787118202 0.14727609955868282 0.2729697619006439
0.6105552544612206 0.44659289864347845 0.045508937929203734 0.11845341788853865
0.4094130361739467 0.361917135828489 0.010927942609648567 0.036567957735809134
0.30723471000994873 0.29640004305282336 0.001667860149280958 0.009166806807844426
0.24371031175897523 0.24954518874714282 -0.001765916067490405 -0.004068960920677182
0.19791401823446647 0.19994921875272223 -0.00040474241965642174 -0.0016304580985993338
0.17039811048092987 0.1703913630244934 2.5582695303371093e-06 4.189186906130186e-06
0.16560334120347298 0.16561742465458937 -6.269657839693201e-07 -1.3456485332418166e-05
0.1797699809058239 0.17978737494147753 -9.224449321673981e-07 -1.6471590721401528e-05
0.16610954086950575 0.17228043152100397 -0.0014476305552298572 -0.004723260096268319
0.6583552503196863 0.6242617071372499 0.008701955862033563 0.02539158732040282
0.43452728663078716 0.4326027251708561 0.00012422413725955714 0.0018003373226714917
0.163016240186714 0.16323473610167902 -1.3080108397680809e-05 -0.00020541580656733798
0.18962749810970958 0.1897609070135941 -1.102946964822861e-05 -0.00012237943423629977
0.18070168725474933 0.1807462921260083 -3.0090264717618683e-06 -4.159584478721377e-05
0.1795576059103891 0.17955714961486258 1.2746668436716983e-06 -8.183713171120655e-07
0.19660696200490055 0.1985744745554954 -0.0003973640982549607 -0.0015701484523398992
0.22861821187172562 0.2337476246444776 -0.0014911898702166424 -0.0036382229025352
0.2661602540151265 0.25103902580229354 0.002375884569320424 0.01274534364351259
0.2996148256550868 0.24866546444384033 0.014265101881520349 0.03668425932972616
0.33308624461556346 0.22164289944967758 0.031857321623039635 0.07958602354284645
0.39997107685828026 0.2018414037990951 0.06815494995464547 0.12997472310453995
0.5058779281075552 0.19620121015192085 0.10734823405853333 0.20232848389710076
0.6713016696659269 0.21686063216313833 0.16855149567086514 0.2858895418319237
0.9011540469909004 0.26102816813301727 0.2512928833220382 0.3888329955358446
1.2268357612794225 0.2868530002435503 0.3799672637736523 0.5600154972622203
1.6591878588887419 0.2921718098675259 0.5608199441233246 0.8061961048978915
2.2417734596310783 0.30652266425536706 0.8242039696566608 1.1110468257190502
3.0252651210065347 0.3419247600247895 1.1893807085602284 1.4939596524215164
4.299744699934361 0.5053714290140566 1.7374960316977883 2.056877239222517
6.951247811209436 1.3169956406780325 2.59439552016699 3.039856650364414
11.449066137348446 1.1365265977542034 5.03624667968631 5.276292859907934
6.951247811218 1.3169956406831906 2.594395520168864 3.0398566503659477
4.299744699930488 0.5053714290111311 1.7374960316973078 2.0568772392220516
3.0252651210044763 0.34192476002500816 1.1893807085589874 1.4939596524204806
2.241773459628964 0.30652266425560837 0.8242039696555097 1.1110468257178439
1.6591878588870732 0.29217180986766905 0.5608199441225267 0.8061961048968771
1.226835761278204 0.28685300024360916 0.37996726377301115 0.5600154972615841
0.9011540469900702 0.26102816813271523 0.25129288332180905 0.38883299553554634
0.6713016696640925 0.21686063216305548 0.16855149567010425 0.2858895418309326
0.5058779281071026 0.19620121015230907 0.10734823405823507 0.20232848389655905
0.3999710768567799 0.20184140379894216 0.06815494995408942 0.1299747231037481
0.3330862446152411 0.221642899449596 0.03185732162296632 0.07958602354267885
0.29961482565475467 0.24866546444378398 0.014265101881428521 0.03668425932954222
0.2661602540146539 0.25103902580203463 0.002375884569252529 0.012745343643366713
0.22861821187136144 0.233747624644017 -0.001491189870195629 -0.0036382229024599574
0.19660696200439917 0.19857447455496424 -0.0003973640982491761 -0.0015701484523159307
0.179557605910005 0.1795571496144615 1.2746668447383521e-06 -8.183713012188865e-07
0.18070168725435734 0.18074629212559654 -3.009026470089872e-06 -4.1595844769073125e-05
0.1896274981093481 0.18976090701322162 -1.102946964670729e-05 -0.00012237943422686477
0.16301624018657088 0.1632347361015489 -1.308010839852266e-05 -0.000205415806579546
0.4345272866299362 0.4326027251698552 0.0001242241372659824 0.0018003373228149561
0.29057728279741474 0.29062071150581 -2.4699665670363174e-06 -4.095874182818501e-05
0.15467489133573412 0.15467099360650802 -3.4131865495895853e-08 3.931861091567636e-06
0.19343010745660563 0.19339645685820478 3.0371884760397377e-06 3.061340992484827e-05
0.19355290077573337 0.19360871720191994 -4.477284794431172e-06 -5.13391413922115e-05
0.1938634518048109 0.19409147786757674 -3.1752194652713046e-05 -0.00019627386811309325
0.21110722017403777 0.21163918872048143 -0.00022055615746282686 -0.00031141238898080227
0.250342765346684 0.25811046122845527 -0.0020040246990624994 -0.005763671182708832
0.30934337353289487 0.2976970793515897 0.002008564705254668 0.00963772947605049
0.4096376337532801 0.36159504217563876 0.01112074691407555 0.036921844663565725
0.6096072398273378 0.44608881844618115 0.04532845045534393 0.11818997092581261
0.9784409866417199 0.5631008486683596 0.14580315521965573 0.26953698275370463
1.4586689411530254 0.6507833872611788 0.2895337563790195 0.5183517975128273
2.078922508953413 0.743057889820969 0.5087853631269769 0.8270792560054666
2.858847700589418 0.8474134342461508 0.8109902415947128 1.2004440247485555
3.798047906442054 0.9664622506719759 1.1931422708207602 1.638443384949317
4.878972519686245 1.099047163263848 1.6533725761532905 2.126552780269102
5.973721294947378 1.2362934785880186 2.131946348664192 2.605481467695167
6.890940013237518 1.3641402548577743 2.5703165415714953 2.9564832168082518
7.21979984104693 1.4342218417957147 2.7343912695811183 3.051186729670099
5.798056649592775 0.7323241226265735 2.4505636375554576 2.615168889410744
11.581946379972266 2.064094417031157 4.547655079202738 4.970196883738371
5.798056649595653 0.7323241226256884 2.45056363755745 2.61516888941251
7.219799841049163 1.4342218417983983 2.734391269580909 3.0511867296698574
6.890940013232189 1.364140254856486 2.570316541569383 2.956483216806317
5.973721294940131 1.2362934785860031 2.1319463486615398 2.6054814676925915
4.878972519679351 1.099047163262374 1.6533725761506313 2.126552780266344
3.79804790643663 0.966462250670978 1.193142270818726 1.6384433849469264
2.8588477005851014 0.8474134342457107 0.810990241592928 1.2004440247464634
2.0789225089475165 0.7430578898201005 0.5087853631247747 0.8270792560026421
1.4586689411479306 0.6507833872599701 0.2895337563774054 0.5183517975105539
0.978440986637656 0.5631008486672588 0.14580315521843545 0.2695369827519621
0.60960723982517 0.44608881844529025 0.04532845045492176 0.11818997092495834
0.40963763375243833 0.3615950421750592 0.011120746913993894 0.03692184466338517
0.3093433735321725 0.29769707935109746 0.002008564705183437 0.00963772947589158
0.25034276534613426 0.25811046122780607 -0.002004024699038742 -0.0057636711826330456
0.21110722017348263 0.2116391887197848 -0.00022055615744528812 -0.0003114123888569109
0.19386345180447398 0.19409147786724928 -3.175219465433771e-05 -0.00019627386812093366
0.19355290077529455 0.19360871720146017 -4.477284792821856e-06 -5.1339141372841755e-05
0.19343010745626082 0.19339645685785245 3.0371884760535384e-06 3.061340993232721e-05
0.1546748913356132 0.15467099360639086 -3.413186595497461e-08 3.93186108829185e-06
0.290577282796752 0.2906207115051205 -2.4699665649585164e-06 -4.095874180351584e-05
0.18732083659727558 0.18732083659727558 0.0 0.0
0.14081333722756978 0.14080482977643566 4.6505239045753023e-07 8.042398743661904e-06
0.1904348092650203 0.1904430850069988 1.5770094924408603e-07 -8.433442927753298e-06
0.2029101005071227 0.2028645668687056 6.741537791692081e-06 3.8792100625377955e-05
0.21159048431760777 0.2116013998134321 1.643900647227819e-05 -2.735450229664679e-05
0.24113684912442507 0.24714323751403727 -0.0011410279788908212 -0.00486536041072144
0.30427308082240667 0.30698553202869283 -0.0018723959160294769 -0.0008400552902566857
0.45129772618253844 0.4303075781231984 0.003228550939385461 0.01776159711995471
0.778977577165988 0.5595457097404165 0.05979903989524696 0.1596328275303247
1.3817009562107283 0.706262089041881 0.23578409979590897 0.43965476737293785
2.208658607780338 0.8392163519036995 0.5174397551129575 0.8520025007636804
3.2490713055123326 0.9755178654454479 0.9257419950562472 1.3478114450106367
4.488333881524449 1.1193221613093807 1.4466353234284093 1.9223763967866598
5.979202396782814 1.274690961050215 2.10662611433561 2.597885321396985
7.804531505812386 1.4508865692363315 2.9574691879700667 3.3961757486059843
9.954944949399527 1.6392262313803099 4.004796872754493 4.310921845264725
12.259048652697816 1.8297716276909597 5.156306681667477 5.27297034333938
14.339203524882569 2.0291757730697038 6.175323325830279 6.13470442598259
15.466650314121733 2.090725540349247 6.783532363048189 6.5923924107242975
14.312389170699543 2.0967009046881047 6.216353896424672 5.999334369586765
17.20164267846904 4.598607647140068 6.322861748015196 6.280173283313763
14.31238917069858 2.0967009046835936 6.216353896426689 5.999334369588295
15.466650314122948 2.090725540349946 6.783532363048466 6.5923924107245355
14.339203524875131 2.0291757730694977 6.175323325826195 6.134704425979434
12.259048652687222 1.8297716276900944 5.156306681662115 5.272970343335014
9.954944949392608 1.63922623138251 4.004796872749623 4.310921845260474
7.804531505806308 1.4508865692373285 2.9574691879664057 3.396175748602574
5.979202396774998 1.2746909610492807 2.1066261143321947 2.5978853213935236
4.48833388151612 1.1193221613094877 1.4466353234243203 1.9223763967823109
3.24907130550414 0.9755178654447376 0.9257419950527674 1.3478114450066354
2.208658607772752 0.8392163519027039 0.5174397551101031 0.8520025007599442
1.381700956205786 0.7062620890415121 0.2357840997940224 0.43965476737025266
0.7789775771631847 0.5595457097392936 0.05979903989465708 0.15963282752923358
0.451297726181191 0.4303075781223952 0.0032285509392339356 0.017761597119562128
0.3042730808215404 0.3069855320277436 -0.0018723959160171413 -0.00084005529018599
0.24113684912385125 0.2471432375134241 -0.0011410279788751946 -0.004865360410697599
0.21159048431719768 0.21160139981298726 1.6439006476111737e-05 -2.735450226568794e-05
0.20291010050672037 0.20286456686828386 6.74153779291067e-06 3.879210064361902e-05
0.19043480926466447 0.19044308500662738 1.5770095013821888e-07 -8.433442913072214e-06
0.1408133372273662 0.14080482977624015 4.6505239000204435e-07 8.042398736028437e-06
0.18732083659680063 0.18732083659680063 0.0 0.0
0.11526871799682714 0.11526871799682714 0.0 0.0
0.12188536890901606 0.12188702983048484 -9.533615641300818e-08 -1.565585312364224e-06
0.18101690945306528 0.18098644823826474 2.1056555596612594e-06 2.83555592408956e-05
0.20827209262765647 0.20834499645691829 -5.623631040718683e-06 -6.728019822112986e-05
0.23220008573654602 0.23342364704642943 -0.00019649197526430264 -0.0010270693346191256
0.28185745566408515 0.2819976645721767 -0.0004885067960671791 0.0003482978879757328
0.40253071542234675 0.40796833213101297 -0.002962437149557278 -0.0024751795591088184
0.7143747821311096 0.5527574369565 0.03984165603731727 0.12177568913729228
1.366321766116414 0.733762524069475 0.21330449792134226 0.4192547441255969
2.42349126019637 0.9161074251496717 0.6033050754494386 0.9040787595972604
3.710461198565344 1.0670690038175286 1.1016633962688296 1.5417287984789887
5.289057405035573 1.2250542436856846 1.785339739392089 2.2786634219577993
7.183175731605437 1.401926705758215 2.658007877248959 3.1232411485982645
9.477618615170801 1.600356860669943 3.7573675895035032 4.119894164997355
12.316603625567053 1.8277340314741257 5.1820071997777175 5.306862394315211
15.65482181368646 2.066242746736351 6.899564069655181 6.689014997294926
19.419181359466478 2.3007955690131534 8.93987191560309 8.17851387485023
22.84634451433059 2.450894596253187 10.823331219521688 9.572118698555705
24.74180655079068 2.4303621011918195 11.949871131372271 10.361573318226588
22.912071122670355 2.1702369714341785 11.036762777403776 9.705071373832393
25.735673867552546 7.001540571871541 9.84966699401626 8.884466301664753
22.912071122674064 2.1702369714354997 11.036762777405189 9.705071373833372
24.74180655078694 2.4303621011886825 11.949871131371893 10.361573318226359
22.846344514322652 2.4508945962548485 10.823331219516067 9.572118698551733
19.4191813594532 2.300795569013508 8.939871915595207 8.178513874844478
15.654821813670866 2.066242746733243 6.899564069648157 6.689014997289466
12.316603625550501 1.8277340314694854 5.182007199771157 5.306862394309858
9.477618615156826 1.600356860667822 3.7573675894971683 4.119894164991836
7.1831757315925895 1.4019267057574138 2.6580078772427456 3.1232411485924283
5.289057405022573 1.2250542436839706 1.78533973938648 2.27866342195212
3.710461198554622 1.0670690038167197 1.1016633962641502 1.5417287984737535
2.4234912601885763 0.9161074251482695 0.6033050754465569 0.9040787595937494
1.3663217661113018 0.7337625240682026 0.21330449791976858 0.41925474412333097
0.7143747821283366 0.5527574369555361 0.03984165603671792 0.12177568913608222
0.40253071542112717 0.40796833212997485 -0.0029624371495963033 -0.002475179559251593
0.28185745566345843 0.2819976645713261 -0.0004885067960325929 0.00034829788816491305
0.23220008573598305 0.2334236470457435 -0.00019649197524942413 -0.0010270693345110567
0.20827209262733676 0.20834499645661053 -5.623631042785489e-06 -6.728019823100504e-05
0.1810169094527554 0.18098644823796592 2.1056555587426653e-06 2.835555923076314e-05
0.12188536890873297 0.12188702983020072 -9.533615634106578e-08 -1.565585311427026e-06
0.11526871799653313 0.11526871799653313 0.0 0.0
0.0672857340012101 0.0672857340012101 0.0 0.0
0.10016808503617528 0.10016808503617528 0.0 0.0
0.16629366847035065 0.16628322764490172 6.169848764971448e-07 9.823840572470336e-06
0.21003913307374322 0.20994570841022175 1.1542567088719669e-05 8.188209643269661e-05
0.25469231119121066 0.2551863495869307 -6.320909258174392e-05 -0.00043082930313821026
0.33717921348094426 0.35211013997037566 -0.0033588119003665545 -0.011572114589064975
0.5598749788576652 0.4968532859255456 0.012959819927484283 0.05006187300463509
1.1042182995476524 0.6890986587998584 0.1304126369366001 0.28470700381119385
2.142935564523998 0.9045966459144222 0.4894824554959724 0.7488564631136034
3.5066773507072 1.0750734807533602 0.9921512447730835 1.439452625180757
5.317370341288634 1.25686192377631 1.7856456838586037 2.2748627336537197
7.4711310256154935 1.4443901886366786 2.7851062208692987 3.2416346161095153
10.059195058516146 1.6572939399637692 4.03851185162868 4.363389266923699
13.233522440127548 1.9052001945514103 5.63730004164188 5.691022203934257
17.121582740484946 2.188333447458354 7.655416009935903 7.2778332830906916
21.87679532507073 2.4957577423861164 10.248467700107659 9.13256988257696
26.95282481014281 2.7460916862615816 13.03634996380383 11.17038316007741
31.798574508582945 2.818541804798678 15.931538783242406 13.048493920541855
34.41072176471399 2.602550446109865 17.67290135357089 14.135269965033245
31.94101824368965 2.2389462289396946 16.388344013646567 13.31372800110339
35.05565383521501 9.309022271553236 13.970282401433376 11.77634916222839
31.941018243687672 2.2389462289365865 16.38834401364728 13.31372800110381
34.41072176470532 2.6025504461056115 17.672901353568164 14.135269965031545
31.79857450856953 2.8185418047969875 15.931538783235284 13.048493920537258
26.952824810125595 2.7460916862616624 13.036349963793587 11.170383160070347
21.876795325053344 2.495757742385429 10.24846770009793 9.132569882569983
17.1215827404696 2.188333447460115 7.655416009926239 7.277833283083241
13.233522440112289 1.9052001945520791 5.63730004163309 5.691022203927123
10.059195058499121 1.6572939399626385 4.038511851620165 4.363389266916317
7.471131025600475 1.4443901886365034 2.78510622086169 3.2416346161022784
5.317370341274602 1.25686192377546 1.7856456838521737 2.2748627336469682
3.506677350695921 1.0750734807513693 0.992151244768791 1.4394526251757616
2.1429355645162484 0.9045966459127556 0.48948245549323516 0.7488564631102573
1.1042182995433414 0.6890986587986543 0.13041263693539407 0.28470700380929354
0.55987497885577 0.4968532859243916 0.01295981992723692 0.05006187300414133
0.33717921348030055 0.35211013996946233 -0.0033588119002965354 -0.01157211458886534
0.2546923111906607 0.25518634958638237 -6.320909258449753e-05 -0.0004308293031371078
0.210039133073443 0.20994570840990354 1.1542567089961645e-05 8.188209644947204e-05
0.16629366847008042 0.16628322764463643 6.169848761276928e-07 9.823840567913113e-06
0.10016808503598539 0.10016808503598539 0.0 0.0
0.06728573400104283 0.06728573400104283 0.0 0.0
0.036986489273592354 0.036986489273592354 0.0 0.0
0.07814442687755146 0.07814442687755146 0.0 0.0
0.14802105826841444 0.14801634458328583 2.7264122338958563e-07 4.441043905202767e-06
0.20937692559006724 0.2093297278288065 5.046930881792163e-06 4.21508303789271e-05
0.2787471688206388 0.27792784321361436 0.00015050888257770888 0.0006688167244467805
0.41684842864602817 0.4241188208971473 -0.0027682893302797312 -0.004502102920839483
0.7865353877744137 0.600941788277354 0.051658042257417824 0.13393555723964187
1.6269892780678559 0.8324600135375936 0.29995546581699983 0.4945737987132626
2.9093798526706873 1.025769528167223 0.7423174918110532 1.141292832692411
4.741171501169606 1.2310773367477084 1.5154026936377079 1.9946914707841912
7.005933300575825 1.4330780036181365 2.5498160497328195 3.0230392472248706
9.75646163479981 1.6531220044317971 3.878553685912512 4.224785944455501
13.099354076799695 1.9087782049169273 5.56189498158964 5.628680890293131
17.229559768196193 2.2088344917421083 7.7265406763353175 7.294184600118763
22.256907098677278 2.5634383221334294 10.412279946025937 9.281188830517912
28.26521833397256 2.9314936682618162 13.72542974253396 11.608294923176782
35.049778685409706 3.199373193117335 17.697969993727856 14.1524354985645
41.09093718631048 3.154129626958307 21.40722144362353 16.529586115728645
44.10062335192125 2.689327642893751 23.52300511399209 17.88829059503539
41.18471395805184 2.332622243335749 21.983800918538268 16.86829079617781
45.22242131060142 11.707545633040406 18.711568577111443 14.803307100449585
41.18471395804727 2.3326222433346846 21.98380091853609 16.8682907961765
44.100623351913846 2.689327642893944 23.52300511398739 17.888290595032494
41.09093718629292 3.154129626956488 21.407221443613803 16.529586115722633
35.04977868539083 3.1993731931187503 17.69796999371543 14.152435498556649
28.265218333949043 2.9314936682583688 13.725429742522017 11.608294923168664
22.256907098655095 2.563438322132452 10.412279946013584 9.281188830509063
17.2295597681748 2.2088344917398803 7.726540676324474 7.2941846001104444
13.099354076778454 1.9087782049156083 5.561894981578703 5.628680890284138
9.75646163477955 1.6531220044298875 3.8785536859027574 4.224785944446905
7.005933300558701 1.433078003618358 2.549816049723973 3.0230392472163694
4.741171501156419 1.23107733674765 1.5154026936313514 1.9946914707774197
2.909379852661353 1.0257695281651793 0.7423174918079186 1.1412928326882545
1.6269892780617023 0.8324600135359936 0.2999554658150415 0.494573798710667
0.7865353877712441 0.6009417882759366 0.05165804225680638 0.13393555723850115
0.41684842864502614 0.4241188208961015 -0.002768289330272034 -0.004502102920803342
0.27874716882017253 0.27792784321311426 0.00015050888257924253 0.000668816724478952
0.20937692558969587 0.20932972782843629 5.046930881510891e-06 4.215083037810097e-05
0.14802105826811615 0.14801634458298948 2.726412232514537e-07 4.441043903424872e-06
0.07814442687745868 0.07814442687745868 0.0 0.0
0.036986489273535116 0.036986489273535116 0.0 0.0
0.01909272333207628 0.01909272333207628 0.0 0.0
0.057865396927549106 0.057865396927549106 0.0 0.0
0.1284255267027767 0.1284255267027767 0.0 0.0
0.20788789162882626 0.207824801100697 5.784596149041119e-06 5.7305931980222984e-05
0.3097304109842901 0.3153685859367687 -0.0011017856902681541 -0.00453638926221033
0.5263879958664541 0.47939293993213694 0.008840407973339588 0.03815464796097729
1.100938504240714 0.7180768917452365 0.1339988014361116 0.24886281105936575
2.159155849414669 0.9345640505433424 0.4580721160788735 0.7665196827924534
3.8075066547018093 1.1537778826435456 1.1052827828339427 1.548445989224323
6.007852651894191 1.3737041428168466 2.0731026799082155 2.5610458291691307
8.771892022329743 1.604214477386674 3.383681970488123 3.7839955744549485
12.16028949797095 1.8619994727436624 5.075452166898491 5.222837858328795
16.325571791341837 2.1656020491184806 7.244603945297426 6.91536579692593
21.33540523586437 2.522955257202064 9.886368529367981 8.926081449294323
27.582361066524165 2.937239119020641 13.33604484564685 11.309077101856674
35.03115143790408 3.3799909752103465 17.565476569082456 14.085683893611286
43.12666301472255 3.665033770812749 22.332352564682086 17.129276679227722
50.42475893297641 3.4672988804705716 27.00742954133206 19.950030511173775
54.07870628900082 2.752591323101827 29.76347367088473 21.562641295014274
50.76966648463942 2.4187959014906775 27.889709866264333 20.461160716884415
55.979818130539314 14.192020253423781 23.76526866806688 18.022529209048646
50.76966648463918 2.4187959014959994 27.88970986626084 20.461160716882333
54.07870628898655 2.752591323097965 29.763473670878135 21.56264129501047
50.42475893295491 3.467298880469578 27.007429541319105 19.950030511166204
43.12666301469754 3.6650337708118332 22.33235256466718 17.12927667921852
35.03115143787543 3.379990975206609 17.565476569067293 14.085683893601534
27.582361066500496 2.937239119022159 13.336044845631875 11.309077101846457
21.335405235838557 2.5229552571998406 9.886368529354309 8.92608144928441
16.325571791316847 2.165602049117838 7.244603945283727 6.915365796915279
12.160289497947836 1.8619994727421605 5.075452166886743 5.222837858318934
8.771892022310427 1.6042144773872482 3.3836819704777183 3.7839955744454574
6.007852651878686 1.373704142815909 2.0731026799009715 2.5610458291618032
3.80750665469 1.1537778826415874 1.1052827828294822 1.5484459892189302
2.159155849406557 0.9345640505415573 0.45807211607614423 0.7665196827888545
1.1009385042365807 0.718076891743988 0.1339988014349637 0.24886281105762856
0.5263879958648809 0.47939293993109394 0.008840407973158885 0.038154647960628375
0.3097304109837078 0.31536858593612804 -0.0011017856902510632 -0.004536389262169146
0.20788789162836263 0.20782480110022736 5.784596149501822e-06 5.730593198581051e-05
0.12842552670251056 0.12842552670251056 0.0 0.0
0.057865396927447625 0.057865396927447625 0.0 0.0
0.019092723332068684 0.019092723332068684 0.0 0.0
0.009386394376261839 0.009386394376261839 0.0 0.0
0.0408388574893524 0.0408388574893524 0.0 0.0
0.10977107683819437 0.10977107683819437 0.0 0.0
0.20844117853682737 0.2084217686842872 1.1081116056350592e-06 1.8301740934474578e-05
0.35285059444024314 0.36135366732299556 -0.0020580005402529044 -0.006445072342499412
0.684240532037488 0.5726078060008313 0.031421070951928295 0.0802116550847286
1.4511832302183016 0.810047409935389 0.2237556221412239 0.41738019814168914
2.773511966875182 1.034193388397368 0.6842051319406051 1.055113446537209
4.728233250888481 1.2695766464275613 1.4911331129359726 1.9675234915249469
7.331676311879373 1.5117534172932925 2.6828370137135513 3.137085880872528
10.597015432206623 1.7725670822869826 4.269281280679417 4.555167069240227
14.654727267579212 2.074318407165581 6.345096042754782 6.235312817658846
19.572803524506128 2.4289240036323303 8.920140217575323 8.223739303298478
25.73643504774197 2.8470992909354633 12.311366730059108 10.577969026747402
33.100825389995656 3.323006900141097 16.417027462274454 13.360791027580097
41.74769728554797 3.8088287983947886 21.376400653687288 16.562467833465902
51.28607768344172 4.121511752498133 27.136677571339103 20.027888359604475
59.8364641468621 3.8168458902369675 32.74120165713678 23.278416599488377
64.23802230556397 2.829882700628543 36.17502179174136 25.233117813194067
60.885410300988624 2.457100559601023 34.28648927761875 24.14182046376886
67.75511879726942 16.714869894130054 29.587067398342327 21.453181504797037
60.88541030098589 2.4571005596024675 34.286489277616035 24.141820463767385
64.23802230554642 2.829882700625938 36.175021791731766 25.233117813188745
59.83646414683774 3.816845890237799 32.74120165712067 23.278416599479275
51.286077683414426 4.1215117524991145 27.136677571321336 20.02788835959399
41.74769728551587 3.8088287983931908 21.37640065366842 16.56246783345425
33.10082538996593 3.323006900139477 16.417027462257465 13.360791027568979
25.73643504771062 2.847099290932271 12.311366730042463 10.577969026735882
19.57280352447707 2.4289240036318955 8.920140217558876 8.223739303286294
14.654727267550832 2.074318407162285 6.345096042740895 6.235312817647652
10.597015432183271 1.7725670822857378 4.269281280667592 4.555167069229941
7.331676311859891 1.5117534172915832 2.6828370137044297 3.1370858808638786
4.728233250874901 1.2695766464262213 1.491133112930107 1.967523491518571
2.773511966865879 1.0341933883960421 0.6842051319373216 1.055113446532515
1.4511832302127154 0.8100474099339 0.2237556221395523 0.4173801981392636
0.6842405320352125 0.5726078059997395 0.03142107095152012 0.08021165508395288
0.3528505944396193 0.36135366732216223 -0.0020580005402157865 -0.006445072342326992
0.20844117853645402 0.2084217686839456 1.1081116015632844e-06 1.8301740906798254e-05
0.10977107683797475 0.10977107683797475 0.0 0.0
0.04083885748925331 0.04083885748925331 0.0 0.0
0.009386394376266042 0.009386394376266042 0.0 0.0
0.004588899917525747 0.004588899917525747 0.0 0.0
0.027893995504230967 0.027893995504230967 0.0 0.0
0.09450044254374779 0.09450044254374779 0.0 0.0
0.21502646275777892 0.21505442218377052 -2.1449399111980753e-06 -2.5814486080462045e-05
0.41524696538768546 0.4065249279439416 0.0010793154350663262 0.0076427220086775684
0.8948205386728898 0.6644424888122509 0.07523417559914994 0.15514387426148885
1.8427676882877344 0.8831493281568328 0.34326827096993107 0.6163500891609706
3.4269642944384398 1.1287835736249365 0.9414244173500125 1.3567563034634909
5.680743081308762 1.3787463812169716 1.9071132671797613 2.3948834329120285
8.690511133056429 1.645284251028333 3.324140180623349 3.72108670140475
12.504327485686277 1.9436218251121373 5.225621839012573 5.33508382156157
17.206622620765152 2.289435331909666 7.65588075761468 7.261306531240802
23.091069609424487 2.7055424485853616 10.840557906693492 9.54496925414563
30.14875032945386 3.1896008178001956 14.698093837002727 12.26105567465094
38.73776878920268 3.7092957105447804 19.59697749302993 15.431495585627959
48.6510204499142 4.19715002898516 25.43651349113633 19.017356929792697
59.33806423214523 4.518235044637249 31.97348739493318 22.846341792574815
69.18108615025191 4.282662695685325 38.42755071035032 26.470872744216265
74.60532731595903 2.970524977734118 42.81802098539045 28.816781352834475
71.63538100726697 2.3735190813228586 41.28880070646299 27.973061219481107
80.6274554123176 19.12920088087199 36.2412739520694 25.256980579376215
71.63538100725084 2.3735190813139297 41.28880070645834 27.973061219478577
74.60532731593682 2.9705249777324743 42.81802098537709 28.81678135282726
69.18108615022352 4.282662695685767 38.427550710331715 26.470872744206012
59.3380642321097 4.518235044634567 31.97348739491223 22.846341792562914
48.651020449879596 4.197150028985413 25.436513491114535 19.017356929779645
38.73776878916549 3.7092957105413524 19.5969774930092 15.431495585614929
30.1487503294186 3.1896008177984956 14.698093836982615 12.261055674637497
23.091069609390477 2.7055424485841275 10.840557906674347 9.544969254131995
17.206622620733445 2.2894353319070633 7.655880757598159 7.2613065312282234
12.504327485659745 1.9436218251108643 5.225621838998839 5.335083821550043
8.690511133036553 1.6452842510283423 3.3241401806130013 3.7210867013952096
5.680743081292963 1.3787463812153218 1.9071132671728475 2.3948834329047957
3.42696429442768 1.128783573623692 0.9414244173457121 1.3567563034582761
1.8427676882812718 0.8831493281555223 0.3432682709680509 0.6163500891576978
0.8948205386696524 0.6644424888107763 0.07523417559851549 0.15514387426036064
0.41524696538674116 0.40652492794304496 0.0010793154350461115 0.007642722008649992
0.2150264627574973 0.21505442218347368 -2.1449399102669095e-06 -2.581448606613111e-05
0.09450044254355601 0.09450044254355601 0.0 0.0
0.027893995504165228 0.027893995504165228 0.0 0.0
0.004588899917526886 0.004588899917526886 0.0 0.0
0.0021781675877268784 0.0021781675877268784 0.0 0.0
0.018987469354783813 0.018987469354783813 0.0 0.0
0.08581484431147954 0.08581484431147954 0.0 0.0
0.2340843350301544 0.23433905828314494 -4.47574095140257e-05 -0.00020996584347643255
0.5142965395336442 0.4812124050347977 0.008945531334070781 0.024138603164775438
1.1389673728289853 0.7394701539446168 0.1323129561000453 0.26718426278432306
2.2879158696569064 0.9644999648087511 0.500935521903086 0.82248038294507
4.100587237748414 1.2168466214617242 1.2154971671280737 1.6682434491586156
6.674123234457488 1.4836707329456285 2.3621396850374374 2.828312816474422
10.082804067022135 1.777268647067157 3.994731265397209 4.3108041545577676
14.440427146877816 2.113998015591938 6.202054321594572 6.124374809691312
19.924621561948854 2.514529694696186 9.112823570125155 8.297268297127513
26.560218859027163 2.9921490430442272 12.677059972877277 10.891009843105662
34.78151649876172 3.537999381369496 17.28701240257537 13.956504714816843
44.56522560354799 4.10657634343533 22.944807522843185 17.513841737269463
55.64156641418019 4.57533810208295 29.59481699250236 21.471411319594903
67.24238923794314 4.789525151681381 36.87721656682227 25.575647519439496
78.09671167161318 4.678071573821899 43.99485488635439 29.42378521143689
85.13169967348647 3.5479382317204298 49.34244827172938 32.24131317003664
83.05948968809314 2.024066210695942 49.00612517702816 32.029298300369064
94.5359057198459 20.471570241977698 44.41362440292083 29.65071107494735
83.05948968807981 2.0240662106944303 49.006125177020394 32.029298300364964
85.13169967346441 3.5479382317237054 49.34244827171279 32.24131317002792
78.09671167157708 4.678071573820087 43.99485488633201 29.42378521142499
67.24238923790519 4.789525151682075 36.877216566797536 25.575647519425587
55.64156641413909 4.575338102081233 29.594816992477398 21.47141131958046
44.56522560351004 4.106576343435761 22.944807522819325 17.513841737254953
34.781516498723335 3.5379993813691404 17.287012402552257 13.956504714801937
26.560218858988154 2.9921490430428905 12.677059972854934 10.891009843090329
19.92462156191221 2.5145296946931746 9.112823570105816 8.297268297113217
14.440427146848364 2.1139980155910254 6.202054321578661 6.124374809678678
10.082804066998422 1.7772686470646555 3.994731265385925 4.310804154547843
6.674123234439241 1.4836707329440533 2.3621396850290663 2.82831281646612
4.100587237736148 1.2168466214604552 1.2154971671229766 1.6682434491527183
2.287915869649335 0.9644999648072083 0.5009355219006204 0.822480382941506
1.1389673728251593 0.7394701539434273 0.13231295609902413 0.2671842627827078
0.5142965395321606 0.4812124050336827 0.00894553133394203 0.024138603164535866
0.23408433502973902 0.2343390582826041 -4.475740950372203e-05 -0.00020996584336142372
0.0858148443112826 0.0858148443112826 0.0 0.0
0.018987469354746947 0.018987469354746947 0.0 0.0
0.0021781675877190153 0.0021781675877190153 0.0 0.0
0.0005818509910746215 0.0005818509910746215 0.0 0.0
0.01356310627435445 0.01356310627435445 0.0 0.0
0.08819003526980954 0.08819003526980954 0.0 0.0
0.2769821844423722 0.277143844271937 -2.5238864706571244e-05 -0.00013642096485815664
0.6616879028607077 0.5860753849242202 0.024392588329653908 0.051219929606833664
1.4415119345528904 0.8738134558732374 0.19812880175763475 0.36956967692201825
2.7802327848443107 1.1473753184362716 0.6381581620458349 0.9946993043622048
4.842973882688921 1.4831315003237886 1.4468002926223031 1.913042089742829
7.746802561688305 1.872321527276589 2.7094479753766927 3.1650330590350277
11.6503461487485 2.3495433775973087 4.534701941879229 4.766100829271961
16.696566524912278 2.957008717526362 7.00842246795544 6.731135339430473
22.976160058389425 3.7295364363692034 10.147443668626828 9.099179953393397
30.801880681712152 4.675165404367265 14.20368735026453 11.923027927080353
40.35188539310401 5.789331429945704 19.308953704804733 15.253600258353584
51.59401981785521 6.942654593990827 25.563665080112838 19.087700143751533
64.03616640541742 7.869060986499933 32.86626549760517 23.30083992131231
76.51966509385952 8.22568565587584 40.67143106388021 27.62254837410348
87.43187024910148 7.807551612089367 48.060912476383756 31.563406160628418
95.4348933923067 7.120709966924404 53.780226361282445 34.53395706409986
92.43104657075665 2.0360028721296177 55.10310777032535 35.291935928301655
136.1174105593962 49.52221478418794 52.70205396503951 33.89314181016877
92.43104657074377 2.0360028721299708 55.10310777031655 35.291935928297235
95.43489339227999 7.120709966925888 53.780226361263814 34.53395706409029
87.43187024906194 7.807551612089734 48.0609124763578 31.56340616061445
76.51966509381346 8.225685655871294 40.67143106385321 27.62254837408892
64.0361664053734 7.86906098649975 32.866265497577245 23.300839921296376
51.59401981780594 6.942654593982158 25.56366508008749 19.087700143736292
40.35188539305725 5.789331429940072 19.308953704779526 15.25360025833768
30.801880681667612 4.675165404364204 14.203687350239756 11.923027927063648
22.97616005835004 3.7295364363678525 10.14744366860469 9.09917995337749
16.696566524879298 2.9570087175241597 7.008422467938116 6.731135339417021
11.650346148721807 2.3495433775940393 4.534701941866505 4.766100829261261
7.746802561667623 1.8723215272746219 2.709447975367074 3.16503305902593
4.842973882674592 1.4831315003219854 1.4468002926163428 1.913042089736261
2.780232784835068 1.1473753184338678 0.638158162042928 0.9946993043582715
1.4415119345481604 0.8738134558717698 0.19812880175649933 0.3695696769198916
0.6616879028589313 0.5860753849232204 0.024392588329384738 0.051219929606325744
0.27698218444189315 0.27714384427148997 -2.523886470642443e-05 -0.00013642096489030074
0.08819003526970275 0.08819003526970275 0.0 0.0
0.013563106274319392 0.013563106274319392 0.0 0.0
0.0005818509910732262 0.0005818509910732262 0.0 0.0
CELL_DATA 800
SCALARS Stress float 6
LOOKUP_TABLE default
146.91261798692963 -503.28905411637106 -183.8191049441578 -105.71461425180547 0.0 0.0
393.6079239968179 -22.049237997906403 118.76339420824232 60.498765189598316 0.0 0.0
379.53622362762405 5.424982781833542 115.29217591793254 -5.575646150607053 0.0 0.0
441.2014650122964 -6.5384020454261025 131.92288735739055 -12.789856760190432 0.0 0.0
512.8061393710835 -11.78849455668287 170.83818722136326 -11.002528543233694 0.0 0.0
580.6068228097063 -3.0487557136258214 235.35282665974307 -9.345357463732029 0.0 0.0
645.8035048588588 5.433156998338873 296.8607163122489 -9.330700621743825 0.0 0.0
710.762143762411 22.177327380043238 352.8268537197753 -10.195770112960181 0.0 0.0
776.3832179486133 45.080700859625345 404.0218869509721 -11.29609463827397 0.0 0.0
843.0457540942313 72.95220416039166 453.98978416952025 -12.100122535003152 0.0 0.0
910.4333899280998 104.10922874807112 504.2618183579766 -12.474037091774594 0.0 0.0
978.1997800281412 138.27936604760242 555.6642381147648 -12.414504774572778 0.0 0.0
1046.5819720338175 173.77112277800234 607.8254348301602 -12.22404813614109 0.0 0.0
1116.2029834015455 211.16286922648922 661.4528821634998 -12.010434894742012 0.0 0.0
1187.7899626574679 251.70281031421436 717.5909111936173 -11.708137702494668 0.0 0.0
1260.8360372609466 295.5895707711601 776.1104499608338 -11.15720437986403 0.0 0.0
1333.012028262264 341.6661757353701 835.2765055420441 -10.159164802899262 0.0 0.0
1400.5231177963456 387.37963452697386 891.8924164474961 -8.608027064232143 0.0 0.0
1459.1077560934273 429.71205103201703 942.2849815531605 -7.043995176874947 0.0 0.0
1518.7283152886218 480.5218454459321 997.0054590507956 -7.989935068627842 0.0 0.0
1518.7283152886116 480.5218454459348 997.0054590507567 7.989935068636549 0.0 0.0
1459.1077560927474 429.7120510313619 942.2849815526465 7.0439951769397995 0.0 0.0
1400.5231177959065 387.3796345265838 891.8924164470862 8.60802706421251 0.0 0.0
1333.012028261744 341.6661757349226 835.2765055416023 10.159164802981778 0.0 0.0
1260.8360372603638 295.5895707706642 776.1104499603163 11.157204379796429 0.0 0.0
1187.7899626576605 251.70281031451364 717.5909111937156 11.708137702509733 0.0 0.0
1116.2029834008208 211.16286922588955 661.452882162932 12.010434894777083 0.0 0.0
1046.581972033344 173.77112277767674 607.8254348297947 12.224048136127628 0.0 0.0
978.1997800281068 138.27936604775203 555.6642381146808 12.414504774486277 0.0 0.0
910.4333899281743 104.10922874834876 504.261818357991 12.474037091766785 0.0 0.0
843.0457540936472 72.95220416001139 453.9897841690783 12.100122535053005 0.0 0.0
776.3832179479214 45.08070085914949 404.0218869504446 11.296094638304135 0.0 0.0
710.7621437622734 22.1773273801334 352.8268537196071 10.195770112956335 0.0 0.0
645.8035048583735 5.433156998094461 296.8607163118563 9.330700621779974 0.0 0.0
580.6068228094547 -3.048755713611566 235.35282665947636 9.345357463740115 0.0 0.0
512.8061393706972 -11.788494556848345 170.83818722110476 11.002528543251326 0.0 0.0
441.2014650119021 -6.538402045593936 131.92288735722835 12.7898567601603 0.0 0.0
379.5362236274709 5.424982781819367 115.29217591788549 5.575646150649023 0.0 0.0
393.60792399674676 -22.049237997898537 118.7633942081886 -60.49876518953124 0.0 0.0
146.9126179874466 -503.28905411586754 -183.8191049436445 105.71461425141723 0.0 0.0
52.1726415539309 -532.7054936157053 -238.37062590637294 -146.80356588285105 0.0 0.0
240.55408680939408 -8.664688205592132 69.56681958114059 13.407124820130194 0.0 0.0
333.2835390485287 21.49194744906489 106.43215582295016 -10.378187713676432 0.0 0.0
400.01948851577674 -4.0025845028368385 118.87421095663208 -32.28701033291904 0.0 0.0
482.45471769110253 -13.255600785312172 151.13643775121696 -31.518688075667345 0.0 0.0
555.2411018860192 -4.676130432584509 213.2231786994289 -27.872277929767222 0.0 0.0
624.9113841449137 3.516833188050999 278.2215500212592 -28.17414633488176 0.0 0.0
690.8705289402515 19.242802420604864 337.12675309334315 -29.4926899005992 0.0 0.0
755.3451251675915 40.54270069780261 389.06351310319815 -31.108796556776753 0.0 0.0
819.455582014961 66.08998472277341 437.6760319709276 -32.114654071607845 0.0 0.0
883.275314553094 94.35039892958491 485.2303016943249 -32.19591760875369 0.0 0.0
946.8956710895746 124.03959651393228 532.5480109480393 -31.585637323912543 0.0 0.0
1010.4735136367647 155.5990177479064 580.4371968418417 -30.72750147943862 0.0 0.0
1075.3295432270368 188.9304203581835 629.7064491338953 -29.905529355358127 0.0 0.0
1141.8984769216909 224.83298320406942 681.0546344121346 -28.970949380141175 0.0 0.0
1209.5991184243676 263.6767395395613 734.4096813291743 -27.51461256526311 0.0 0.0
1276.6012765669138 304.65984743658896 788.4588323809649 -25.177895314270305 0.0 0.0
1340.2203096781736 346.3389662847806 841.1079644524104 -21.921264853286544 0.0 0.0
1400.392246250643 390.1714054745216 892.9425859929194 -18.388264421801022 0.0 0.0
1442.8920555960776 423.36622254236687 930.5886135430818 -13.684375104164427 0.0 0.0
1442.8920555964605 423.36622254276483 930.5886135434265 13.684375104178304 0.0 0.0
1400.392246251201 390.1714054751189 892.9425859933812 18.38826442192162 0.0 0.0
1340.2203096782932 346.3389662849588 841.1079644524061 21.921264853297828 0.0 0.0
1276.6012765665066 304.65984743625404 788.4588323805566 25.177895314347275 0.0 0.0
1209.599118423592 263.6767395388714 734.4096813285164 27.51461256527905 0.0 0.0
1141.8984769214842 224.83298320396023 681.0546344119023 28.970949380135337 0.0 0.0
1075.3295432265259 188.93042035779615 629.7064491334725 29.90552935537628 0.0 0.0
1010.4735136358958 155.59901774718395 580.4371968411461 30.72750147950407 0.0 0.0
946.8956710886149 124.03959651314378 532.548010947316 31.58563732394217 0.0 0.0
883.275314552304 94.3503989289775 485.23030169373123 32.195917608762855 0.0 0.0
819.4555820147776 66.08998472280194 437.67603197076494 32.114654071609834 0.0 0.0
755.3451251673922 40.54270069783878 389.06351310305394 31.108796556848098 0.0 0.0
690.8705289400797 19.242802420671772 337.126753093155 29.49268990058025 0.0 0.0
624.911384144598 3.5168331880008097 278.2215500209378 28.174146334895667 0.0 0.0
555.2411018858743 -4.676130432400694 213.2231786992371 27.872277929741625 0.0 0.0
482.4547176908826 -13.255600785230707 151.13643775109867 31.518688075581224 0.0 0.0
400.0194885156257 -4.002584502695819 118.87421095663501 32.28701033279411 0.0 0.0
333.2835390483649 21.491947448837482 106.43215582283317 10.378187713627113 0.0 0.0
240.5540868094738 -8.66468820549699 69.56681958119303 -13.407124820290324 0.0 0.0
52.17264155425735 -532.7054936153743 -238.3706259060103 146.80356588257933 0.0 0.0
8.285068049216989 -532.9595737399422 -251.03108303194398 -160.6372536217146 0.0 0.0
140.5375072505806 -10.325202369883812 39.063691464209036 -38.49811009272132 0.0 0.0
271.4680694610663 26.97672382689062 89.53343798638706 -30.954839919603657 0.0 0.0
354.23503859748206 2.1515116391247355 106.91813997271626 -50.56938701395932 0.0 0.0
442.15311266534957 -10.873456255356755 133.34834746075387 -53.997593191921744 0.0 0.0
527.2200430438218 -9.243598148366623 187.47944574959743 -48.87572392539745 0.0 0.0
599.5784584115279 2.583727476411191 256.36301004883336 -47.314739914313556 0.0 0.0
666.4513683801034 16.269041761486996 317.7027152750233 -48.775980302751094 0.0 0.0
730.5398984074443 36.05401781265136 371.3427251207059 -50.56729110789169 0.0 0.0
792.2667159102344 59.0941496047081 419.04041628238525 -51.53275441677903 0.0 0.0
852.5419013578448 83.97195610600302 463.86546498122937 -51.27577685964398 0.0 0.0
911.7124588377372 110.10276663595184 507.5152427192163 -50.09047466100048 0.0 0.0
971.1224283388085 137.17006768584815 551.2310032467991 -48.74695179029299 0.0 0.0
1031.156529014413 166.36241653070638 596.1084392452299 -47.388213445784054 0.0 0.0
1092.467722602282 197.50994406231672 642.49732787711 -45.864672498173135 0.0 0.0
1154.7333389595929 231.01446542913425 690.4974935145021 -43.64810504542967 0.0 0.0
1216.616882153995 266.7482751860158 739.3798301922936 -40.26431072622001 0.0 0.0
1277.470578500875 305.3699192451846 789.1015437143033 -35.62053224656829 0.0 0.0
1332.5986013574638 343.57513759971613 835.651580072595 -29.24094141230232 0.0 0.0
1369.7805108992984 370.4837824703466 867.5533818711687 -18.877721387161273 0.0 0.0
1369.7805108990249 370.48378247008395 867.553381870955 18.87772138721173 0.0 0.0
1332.5986013564257 343.5751375987141 835.6515800718036 29.240941412437426 0.0 0.0
1277.470578499745 305.36991924409097 789.1015437134414 35.62053224658375 0.0 0.0
1216.6168821537015 266.7482751857981 739.3798301920694 40.26431072631796 0.0 0.0
1154.7333389595412 231.01446542917586 690.4974935143999 43.648105045438754 0.0 0.0
1092.4677226023678 197.50994406251064 642.4973278770796 45.86467249820714 0.0 0.0
1031.1565290142196 166.36241653065267 596.1084392450387 47.38821344584791 0.0 0.0
971.1224283385682 137.17006768575936 551.2310032465825 48.74695179032068 0.0 0.0
911.7124588375905 110.10276663598749 507.51524271908175 50.09047466101288 0.0 0.0
852.541901357426 83.9719561057637 463.8654649809148 51.27577685961131 0.0 0.0
792.266715909575 59.09414960421785 419.04041628190697 51.53275441666996 0.0 0.0
730.5398984073626 36.05401781279768 371.3427251205759 50.567291107896395 0.0 0.0
666.4513683798772 16.26904176151143 317.70271527477524 48.775980302708916 0.0 0.0
599.5784584111439 2.5837274762889635 256.3630100484719 47.31473991422457 0.0 0.0
527.2200430435909 -9.243598148316849 187.4794457493744 48.875723925305394 0.0 0.0
442.153112664962 -10.873456255458546 133.34834746057876 53.99759319193548 0.0 0.0
354.23503859721905 2.151511639064359 106.91813997263202 50.569387013932015 0.0 0.0
271.4680694610652 26.976723826902365 89.53343798639025 30.95483991955882 0.0 0.0
140.53750725079092 -10.325202369464273 39.06369146439799 38.49811009258468 0.0 0.0
8.285068049462112 -532.9595737395537 -251.03108303158206 160.63725362156947 0.0 0.0
-7.222211140593899 -515.6258591101474 -239.71413689522646 -163.27935006689188 0.0 0.0
83.22394743714881 -18.105525573636 19.53552655905384 -82.49803421421616 0.0 0.0
212.31240040229198 26.888492388049407 71.7602678371024 -58.301445768182965 0.0 0.0
304.62779112966814 6.781333444765679 93.41467255571129 -70.27760992659627 0.0 0.0
392.2519180786235 -7.530355544290382 116.40151123315107 -77.53446711854166 0.0 0.0
486.17150431072685 -11.164401161016206 161.05889357229782 -72.09767114791725 0.0 0.0
566.7003270029319 -0.2006864905546717 228.5787061137368 -67.44465571824529 0.0 0.0
637.2131826364533 13.944824270544146 294.40218358763445 -68.26392134202761 0.0 0.0
700.9457205667757 31.386645279662336 349.7816227330464 -69.67357511019982 0.0 0.0
760.6166661268288 51.809701803086284 397.2426254643769 -70.38288014471695 0.0 0.0
817.6030726712243 73.43212530711591 439.9211087291475 -69.71790335599606 0.0 0.0
873.0196773905687 95.82018558238045 480.35131469945895 -68.0421107120886 0.0 0.0
927.6658432246253 118.87875200165027 519.9231385178559 -66.21588096049962 0.0 0.0
983.3107349765864 143.63459118534516 560.5251674076537 -64.47623053820597 0.0 0.0
1039.5373687642264 169.77597316766293 601.9464209644375 -62.45282251081829 0.0 0.0
1095.8471302336811 197.8894349512503 644.307176804676 -59.58239506079869 0.0 0.0
1152.8949366980285 228.50714690233065 688.2344854894286 -55.46070894611444 0.0 0.0
1209.325845130126 262.02042564968974 733.2171330412348 -49.49142658616158 0.0 0.0
1260.3886384805242 294.9554476489509 775.1315988249862 -40.1298449545223 0.0 0.0
1295.5426379939856 318.1851624603333 804.1958800119735 -24.413143669988255 0.0 0.0
1295.5426379934643 318.18516245983614 804.1958800115984 24.41314367012448 0.0 0.0
1260.38863848066 294.95544764913086 775.131598825041 40.129844954643076 0.0 0.0
1209.3258451305728 262.0204256502263 733.2171330415403 49.491426586326384 0.0 0.0
1152.8949366978402 228.50714690222122 688.2344854892301 55.46070894618734 0.0 0.0
1095.8471302330918 197.88943495074196 644.3071768042312 59.582395060807904 0.0 0.0
1039.5373687637762 169.77597316730535 601.9464209641051 62.452822510804964 0.0 0.0
983.3107349762596 143.63459118512043 560.5251674074583 64.47623053816848 0.0 0.0
927.6658432244667 118.87875200163052 519.9231385176885 66.21588096048882 0.0 0.0
873.0196773898163 95.82018558179338 480.35131469887966 68.04211071212816 0.0 0.0
817.6030726705548 73.43212530662656 439.92110872863117 69.71790335599673 0.0 0.0
760.6166661264957 51.809701802955225 397.2426254640918 70.3828801447016 0.0 0.0
700.9457205664013 31.38664527953128 349.7816227327252 69.67357511021729 0.0 0.0
637.2131826362377 13.944824270598431 294.40218358740594 68.26392134203118 0.0 0.0
566.7003270023328 -0.20068649088037915 228.57870611326672 67.4446557182426 0.0 0.0
486.17150431008827 -11.164401161421955 161.05889357189204 72.09767114782815 0.0 0.0
392.2519180783348 -7.530355544226578 116.4015112330846 77.53446711840903 0.0 0.0
304.6277911294228 6.781333444641662 93.41467255560183 70.27760992643798 0.0 0.0
212.31240040225916 26.888492387876727 71.76026783704076 58.30144576796092 0.0 0.0
83.22394743727585 -18.10552557336805 19.53552655917234 82.49803421401333 0.0 0.0
-7.222211140365957 -515.6258591097506 -239.7141368948624 163.27935006674818 0.0 0.0
-9.326448131297497 -488.11904368578087 -215.84372446889247 -161.71271638479908 0.0 0.0
49.07327474494304 -26.144705880293166 6.878570659394963 -116.58182030215548 0.0 0.0
160.52933228018233 23.50631952415104 55.210695541300005 -86.25293459309128 0.0 0.0
252.39753113457675 9.866576470612749 78.67895453389573 -91.17099825113489 0.0 0.0
336.3176430694783 -3.142647236811305 100.06585646949713 -99.7135465913374 0.0 0.0
433.70064309442284 -11.267208398503266 135.24862489695641 -97.89445853751396 0.0 0.0
525.7770926515391 -4.031808073623266 196.27827442636948 -90.25436204717634 0.0 0.0
601.4687695312663 11.239538264388813 265.41191296280095 -87.87029213723623 0.0 0.0
665.6035259166428 26.76578638117408 323.38740442883875 -88.57090885048142 0.0 0.0
723.7770814422689 44.28314056517649 371.4457129088748 -88.73933023570935 0.0 0.0
777.9515390389 62.647192281782935 412.7510151295836 -87.59152777637989 0.0 0.0
829.453278425624 81.29616738964533 450.2201744947487 -85.42032118917041 0.0 0.0
880.0783675577079 100.48126201045805 486.2938756025044 -83.2589329959221 0.0 0.0
930.4743135671381 120.82783819138257 522.283764933385 -81.11549098627366 0.0 0.0
981.5018195507377 142.08860742453425 558.7750349304765 -78.70001157324826 0.0 0.0
1033.0870406604377 164.73180616121692 596.1071866571651 -75.43291568886842 0.0 0.0
1084.1922266456388 189.47122204961852 634.1680427584381 -70.69594526779404 0.0 0.0
1135.3688234696203 216.92087581102436 673.5294789603715 -63.58064844452365 0.0 0.0
1183.0313409927553 244.58687280964384 711.136741405291 -51.49928542149431 0.0 0.0
1218.0754069328964 265.19446143272967 738.8283566075883 -30.72777337388215 0.0 0.0
1218.0754069324578 265.19446143230755 738.8283566073162 30.727773373983716 0.0 0.0
1183.0313409924609 244.5868728094109 711.1367414050949 51.49928542167724 0.0 0.0
1135.3688234700942 216.92087581158208 673.529478960717 63.58064844465882 0.0 0.0
1084.1922266450722 189.47122204913967 634.1680427580277 70.69594526790878 0.0 0.0
1033.0870406600698 164.73180616094618 596.1071866568575 75.43291568891289 0.0 0.0
981.5018195509505 142.08860742487917 558.7750349305564 78.70001157331396 0.0 0.0
930.4743135668177 120.82783819119777 522.283764933101 81.11549098632497 0.0 0.0
880.0783675569687 100.48126200986506 486.29387560200416 83.2589329959907 0.0 0.0
829.4532784245991 81.29616738874579 450.2201744940146 85.4203211891378 0.0 0.0
777.95153903812 62.64719228115108 412.751015129009 87.59152777631786 0.0 0.0
723.777081441701 44.283140564712475 371.44571290842373 88.73933023550802 0.0 0.0
665.6035259162716 26.76578638103676 323.3874044285281 88.57090885046456 0.0 0.0
601.4687695308896 11.23953826425101 265.41191296243414 87.87029213716693 0.0 0.0
525.7770926511673 -4.0318080736460225 196.27827442605644 90.25436204719648 0.0 0.0
433.70064309392274 -11.267208398714526 135.24862489668243 97.89445853742264 0.0 0.0
336.31764306909247 -3.1426472370860647 100.0658564693077 99.71354659120324 0.0 0.0
252.3975311343337 9.866576470425654 78.67895453376732 91.17099825101164 0.0 0.0
160.52933228022903 23.50631952425646 55.21069554134564 86.25293459289912 0.0 0.0
49.07327474505993 -26.144705880041766 6.878570659505451 116.58182030192916 0.0 0.0
-9.326448131214647 -488.1190436855104 -215.84372446861238 161.71271638466914 0.0 0.0
-5.545302371305681 -453.933094771949 -185.9422276904098 -158.67059166408143 0.0 0.0
26.754236794633677 -32.93683043512075 -1.8547780921461203 -141.67214739089516 0.0 0.0
115.68031560837883 18.6220927316967 40.29072250202266 -111.47439931636873 0.0 0.0
199.6179711962825 12.10513917811262 63.516933112318526 -111.52783615573028 0.0 0.0
277.31411890509725 -0.10801652768347214 83.1176485697509 -120.49413708436373 0.0 0.0
365.6806239011053 -9.097228606640204 110.2876812704842 -123.50849649070483 0.0 0.0
466.7727874138307 -6.118103098101498 161.1244428455306 -116.31844215321934 0.0 0.0
553.3763209250542 6.673926606102983 227.9540424982792 -109.41199303302527 0.0 0.0
622.7224920160202 21.835548077389653 290.3013520012174 -107.54002082058247 0.0 0.0
680.3541999980819 36.67199172804328 340.10511122922156 -106.69460685947712 0.0 0.0
731.8095702135461 51.457786020210165 380.72417381310413 -104.92715127789094 0.0 0.0
780.0363222530466 66.59512423198488 416.2667660783786 -102.3420276093978 0.0 0.0
826.4532714671743 82.09396523874072 449.1916484500057 -99.7933400023173 0.0 0.0
872.2178883948952 97.97025356937712 481.06693449513955 -97.43753838739808 0.0 0.0
918.151874127543 114.323503211134 512.7679012134563 -94.77322563388606 0.0 0.0
963.8541291715995 131.9366867277217 544.7369379325983 -91.05317795552168 0.0 0.0
1009.5350056740682 150.21470426404053 576.9364958217071 -85.9358229372905 0.0 0.0
1054.7493514196756 170.293185812388 609.6981215291503 -78.02166016529927 0.0 0.0
1098.7156613818372 192.15578410811673 642.5892202824211 -63.706075762600335 0.0 0.0
1135.1662029443194 210.5478021036797 669.8530534694493 -38.2868466114854 0.0 0.0
1135.1662029444435 210.54780210382017 669.8530534695703 38.28684661159153 0.0 0.0
1098.7156613812224 192.1557841075668 642.5892202820424 63.70607576276868 0.0 0.0
1054.7493514191883 170.29318581195386 609.698121528801 78.02166016539428 0.0 0.0
1009.5350056737525 150.21470426383095 576.9364958214211 85.93582293739875 0.0 0.0
963.8541291709788 131.9366867271675 544.7369379321235 91.05317795549735 0.0 0.0
918.151874127038 114.32350321069804 512.7679012130357 94.77322563386994 0.0 0.0
872.2178883947741 97.97025356938235 481.06693449500955 97.43753838742185 0.0 0.0
826.4532714670388 82.093965238784 449.1916484498794 99.79334000241477 0.0 0.0
780.0363222528478 66.59512423196124 416.2667660782395 102.3420276093839 0.0 0.0
731.8095702132765 51.45778602008594 380.72417381284066 104.9271512778301 0.0 0.0
680.354199998012 36.67199172815452 340.10511122906524 106.69460685939175 0.0 0.0
622.7224920159017 21.835548077591525 290.3013520010541 107.54002082064348 0.0 0.0
553.3763209245774 6.673926605840741 227.95404249785554 109.41199303292453 0.0 0.0
466.77278741337267 -6.118103098165125 161.124442845244 116.31844215324567 0.0 0.0
365.6806239006559 -9.097228606740305 110.28768127029821 123.50849649055388 0.0 0.0
277.3141189049685 -0.10801652753283619 83.11764856976029 120.49413708425365 0.0 0.0
199.61797119616693 12.105139178124102 63.516933112287305 111.52783615555093 0.0 0.0
115.68031560831346 18.622092731668673 40.29072250199463 111.47439931621714 0.0 0.0
26.75423679463581 -32.936830435101534 -1.854778092139715 141.67214739072222 0.0 0.0
-5.545302371265812 -453.93309477168674 -185.9422276901545 158.67059166397573 0.0 0.0
0.09951462958469648 -414.3223583848927 -153.76252510081798 -155.04865339446735 0.0 0.0
9.572149703580624 -39.33826765714045 -8.929835386067946 -159.14051575094612 0.0 0.0
75.98457122624241 13.681100721406796 26.899701584294757 -132.5060489429119 0.0 0.0
147.7986301571943 13.964373188195463 48.52890100361692 -130.1136106634152 0.0 0.0
215.2745715087007 1.990850186650092 65.17880609366225 -139.23816157759856 0.0 0.0
291.8650494678293 -5.603618941952821 86.75026867199966 -146.7506387247942 0.0 0.0
389.88594834502214 -6.273298362953762 125.01823935125671 -143.9757855028701 0.0 0.0
486.62768238506845 2.4424380289239505 183.39492820228202 -134.30991687285479 0.0 0.0
565.3519129233932 15.53073094948136 246.40027073156074 -127.76573438794047 0.0 0.0
626.9211257286395 28.817110350088676 300.09002175458727 -124.58338139098197 0.0 0.0
676.6295784367197 39.92552485417471 341.23451706885885 -121.86639695921286 0.0 0.0
722.0758635070792 51.72864016982543 376.11715576501024 -118.84155080278263 0.0 0.0
764.6291700809966 63.448600933799895 406.7611729936227 -115.98405441206988 0.0 0.0
805.6707732585483 75.35122488137657 435.21215224201325 -113.4007951641911 0.0 0.0
845.8545242921925 86.68525796324597 462.01756323968795 -110.6415989652431 0.0 0.0
886.9732193109121 99.2044150062408 489.3709403372917 -106.74230847684412 0.0 0.0
926.6586185284286 111.39123862767414 515.6489529617007 -101.04030604797244 0.0 0.0
964.7062657132979 123.12405574060921 540.7748893074967 -92.70490114702667 0.0 0.0
1004.5075348031484 136.96291781445638 567.65013014229 -77.15921728815835 0.0 0.0
1044.0135460754436 153.0329387791966 595.2496698033457 -47.80007459667898 0.0 0.0
1044.0135460744543 153.0329387782339 595.2496698026684 47.80007459683669 0.0 0.0
1004.5075348030277 136.96291781444043 567.6501301422327 77.15921728841212 0.0 0.0
964.7062657133445 123.12405574079366 540.7748893075795 92.70490114727514 0.0 0.0
926.6586185278469 111.39123862719487 515.6489529613145 101.04030604807795 0.0 0.0
886.9732193107208 99.20441500609593 489.37094033712566 106.74230847680786 0.0 0.0
845.8545242921349 86.6852579632942 462.01756323965935 110.6415989652605 0.0 0.0
805.6707732587375 75.3512248816974 435.212152242124 113.40079516423503 0.0 0.0
764.629170081328 63.448600934364705 406.7611729938031 115.98405441217746 0.0 0.0
722.0758635067855 51.72864016971484 376.1171557647551 118.84155080282362 0.0 0.0
676.629578436318 39.92552485394106 341.234517068542 121.8663969591872 0.0 0.0
626.9211257279753 28.817110349506258 300.0900217540434 124.58338139082996 0.0 0.0
565.3519129232332 15.53073094963819 246.40027073138685 127.76573438797844 0.0 0.0
486.6276823850196 2.4424380293812966 183.39492820222085 134.30991687291026 0.0 0.0
389.88594834478533 -6.273298362674545 125.01823935117947 143.97578550280804 0.0 0.0
291.8650494677523 -5.603618941523819 86.75026867209507 146.7506387246574 0.0 0.0
215.27457150855113 1.99085018678677 65.1788060936647 139.23816157744585 0.0 0.0
147.7986301570694 13.96437318811754 48.52890100355608 130.11361066318676 0.0 0.0
75.98457122628004 13.681100721569328 26.89970158435481 132.50604894267275 0.0 0.0
9.572149703567815 -39.338267657084934 -8.929835386055133 159.140515750754 0.0 0.0
0.09951462956817636 -414.32235838464675 -153.76252510061641 155.048653394365 0.0 0.0
3.017485959847889 -370.90518166858067 -124.43729481275379 -151.3242747345089 0.0 0.0
-6.8296249750359825 -45.538251245731686 -15.710334171990285 -169.51569869738432 0.0 0.0
40.074000776812355 9.734238871975105 14.942471894636236 -149.27746540736115 0.0 0.0
97.41619458668998 15.23062153380534 33.79404483614859 -145.9004800862038 0.0 0.0
151.74851286702147 4.665640082385858 46.91752673234205 -154.89353073533826 0.0 0.0
210.93151556524444 -2.86916575091787 62.81547577674382 -165.79061701390538 0.0 0.0
291.3532880115166 -3.8910889904960304 89.55651937318433 -169.8086405002314 0.0 0.0
392.6673257621358 0.14928224764409848 133.74496389093594 -162.68852084831886 0.0 0.0
483.3568934962733 8.554252560564976 189.5317790277511 -151.62711521584785 0.0 0.0
552.8255957049657 19.89967548215589 244.65909628339483 -143.45855162730857 0.0 0.0
606.026435943048 27.97971951847687 288.5638376265286 -139.10121813954595 0.0 0.0
649.090320654515 36.28669809930898 323.9065920525457 -135.10509775894957 0.0 0.0
688.3818182447138 44.83606096402612 354.1626937519149 -131.88658372935524 0.0 0.0
725.0259681258037 52.68050851090513 380.4213959097764 -129.1393883790483 0.0 0.0
760.3640517578401 59.679505110347144 403.9861890571147 -126.43271134178522 0.0 0.0
795.3661319224584 66.3113718648184 426.02688204760733 -122.50852616131375 0.0 0.0
831.0933808905863 73.24627887610043 447.9583660690504 -116.30112421381789 0.0 0.0
862.5958480472616 76.87681311950588 466.04013722105117 -107.34836164957139 0.0 0.0
893.8102719050548 78.7390157402943 482.88367002760015 -91.77345755335242 0.0 0.0
936.7539213477655 90.56648033344065 510.0223331349744 -60.21870055591408 0.0 0.0
936.7539213476754 90.56648033336847 510.0223331349613 60.21870055603314 0.0 0.0
893.8102719053937 78.73901574077729 482.8836700278998 91.77345755369659 0.0 0.0
862.5958480470802 76.87681311953645 466.0401372209317 107.3483616498626 0.0 0.0
831.0933808905666 73.24627887625547 447.9583660689929 116.3011242139934 0.0 0.0
795.3661319223628 66.31137186482795 426.0268820474972 122.50852616133187 0.0 0.0
760.3640517576799 59.67950511027662 403.9861890569479 126.43271134180716 0.0 0.0
725.0259681254278 52.68050851066879 380.42139590954645 129.13938837909396 0.0 0.0
688.381818243914 44.83606096323156 354.1626937513531 131.88658372931286 0.0 0.0
649.0903206542599 36.2866980992779 323.9065920523401 135.1050977590346 0.0 0.0
606.0264359432334 27.97971951896298 288.5638376265579 139.10121813964156 0.0 0.0
552.825595705164 19.89967548276305 244.6590962834494 143.45855162733773 0.0 0.0
483.3568934959794 8.554252560548694 189.53177902750627 151.6271152158108 0.0 0.0
392.66732576167976 0.14928224762793363 133.74496389069344 162.68852084835237 0.0 0.0
291.3532880112385 -3.891088990138118 89.55651937318791 169.8086405001452 0.0 0.0
210.93151556492086 -2.86916575127254 62.8154757765408 165.79061701368335 0.0 0.0
151.74851286676324 4.665640082157559 46.91752673219714 154.89353073511228 0.0 0.0
97.41619458667664 15.23062153390942 33.794044836175814 145.90048008599456 0.0 0.0
40.074000776870534 9.734238872146442 14.94247189470509 149.27746540713486 0.0 0.0
-6.829624975101515 -45.538251245740774 -15.710334172012804 169.51569869719947 0.0 0.0
3.0174859598291306 -370.9051816682392 -124.4372948125743 151.32427473440063 0.0 0.0
-2.5250592092692017 -324.73150433304284 -102.87904728310403 -145.06538309598525 0.0 0.0
-24.03885200107552 -51.7832016328506 -22.74537580065977 -176.0490815007082 0.0 0.0
7.084320477827924 7.219833456626488 4.290950338479344 -161.66529750806217 0.0 0.0
48.592116987365515 15.956417605177148 19.363446654262365 -158.25729983183638 0.0 0.0
87.45937514742629 7.981507080283767 28.63110411813163 -166.42355616468683 0.0 0.0
126.93417249258718 0.06318450861126035 38.24063411945791 -180.08674970817037 0.0 0.0
177.7687792300549 -2.0859405244834712 54.00767253532301 -189.43490036570904 0.0 0.0
253.57726255585175 0.8923296725444283 81.02276652856507 -189.0677238597231 0.0 0.0
350.0996555028139 4.507892018118499 120.28646663127813 -180.52706274292441 0.0 0.0
434.1744895002066 9.584324260307824 166.02348991289446 -166.99513292725078 0.0 0.0
496.12045325420456 16.178085579306156 209.8672659666981 -157.70348301683381 0.0 0.0
541.317091954093 20.269527574637618 245.46025801437537 -152.20378241369565 0.0 0.0
579.4571739989034 25.749203345780835 276.84368053520535 -148.0995925890753 0.0 0.0
612.8466060718217 30.218575002379175 303.58970750576987 -144.8505956640086 0.0 0.0
643.0861643697879 32.94922626075293 325.9303679588111 -141.9954937747685 0.0 0.0
672.3029473624765 33.95272211140649 344.8634802992171 -138.37313616477138 0.0 0.0
703.5680002016404 34.20450923307648 362.5561427201202 -132.08946775553994 0.0 0.0
736.1271025225719 33.834476099728136 379.8392323114797 -121.84656178158166 0.0 0.0
757.0815871603609 19.4858182809879 384.6133473738292 -106.73057665232248 0.0 0.0
799.5833413577401 18.359569193459237 404.99957777612417 -76.84964811550077 0.0 0.0
799.5833413579705 18.359569193803566 404.99957777629436 76.8496481157517 0.0 0.0
757.081587160647 19.485818281515122 384.61334737406 106.7305766527543 0.0 0.0
736.1271025224097 33.83447609978191 379.83923231139204 121.84656178184784 0.0 0.0
703.5680002013389 34.204509232907355 362.5561427199486 132.08946775568097 0.0 0.0
672.3029473623752 33.95272211137845 344.8634802991223 138.3731361648139 0.0 0.0
643.0861643696857 32.94922626080647 325.93036795873996 141.99549377482322 0.0 0.0
612.8466060717204 30.218575002391816 303.5897075056713 144.85059566407625 0.0 0.0
579.457173999302 25.749203346548384 276.8436805354766 148.09959258928387 0.0 0.0
541.3170919538114 20.26952757459628 245.4602580141574 152.20378241377222 0.0 0.0
496.12045325363465 16.17808557879611 209.86726596626545 157.70348301680036 0.0 0.0
434.17448949999624 9.584324260358212 166.0234899127142 166.99513292715716 0.0 0.0
350.0996555028073 4.507892018703087 120.2864666313732 180.52706274298384 0.0 0.0
253.57726255554184 0.8923296726868752 81.02276652848968 189.06772385972334 0.0 0.0
177.76877922961756 -2.0859405249572305 54.00767253504064 189.43490036554624 0.0 0.0
126.93417249245209 0.06318450847940316 38.24063411937793 180.08674970794397 0.0 0.0
87.45937514732218 7.981507080251559 28.63110411809447 166.42355616447992 0.0 0.0
48.59211698737734 15.956417605207706 19.363446654275492 158.25729983169373 0.0 0.0
7.08432047783058 7.219833456725153 4.290950338509861 161.6652975078863 0.0 0.0
-24.0388520010331 -51.783201632721806 -22.745375800608933 176.04908150057705 0.0 0.0
-2.525059209294131 -324.73150433266153 -102.87904728296343 145.0653830958622 0.0 0.0
-11.787779911586654 -277.683457798847 -87.27862767612297 -135.6084911014713 0.0 0.0
-39.91382410212271 -56.34635874079014 -28.87530661281846 -179.4427022182118 0.0 0.0
-23.797508133355812 5.439362051034251 -5.507291199789645 -169.99273953869357 0.0 0.0
1.383644307151672 16.45559554622994 5.35154225014548 -166.61463633745888 0.0 0.0
23.13527065807911 11.191421742360392 10.296133149696793 -173.63738940402527 0.0 0.0
40.741495721860346 3.9712979266251054 13.464480035887838 -187.5204385319068 0.0 0.0
59.351940566204014 0.14982705533770302 18.254646725367486 -200.092400292959 0.0 0.0
85.67212277301533 0.09799144424005757 26.89372402083356 -206.40756665994002 0.0 0.0
124.02915696924966 1.928804482419336 40.504154442547986 -201.61042639516867 0.0 0.0
173.67870885915602 3.649576966142668 58.43233651720673 -192.09394086464877 0.0 0.0
229.8947554967373 6.007830446756884 80.45758788049035 -179.86336660157556 0.0 0.0
276.8556061236058 6.431698423260414 102.41249630303024 -171.54620288979058 0.0 0.0
318.3442189434751 8.865349333515475 126.43180755927887 -165.9921192328092 0.0 0.0
358.9586891875774 9.430638288584476 151.32993717617452 -161.92750472206185 0.0 0.0
393.81817841099 7.31745575305564 174.16691892470936 -157.71124279597632 0.0 0.0
425.8037638447423 2.3395082092315818 194.4039400547386 -153.72159522024606 0.0 0.0
462.20077786119754 -5.206328647173748 213.79020259638696 -147.99684948201445 0.0 0.0
508.1913678355499 -12.003827706604028 237.33560324136914 -138.1981889715518 0.0 0.0
553.8127315274985 -26.552225016838776 257.84792947451075 -119.83778695221648 0.0 0.0
577.8429947254511 -77.70241398871744 246.79829701297288 -95.95782352800285 0.0 0.0
577.8429947252687 -77.70241398882175 246.79829701287844 95.9578235283347 0.0 0.0
553.812731526799 -26.552225017699357 257.84792947398074 119.83778695254767 0.0 0.0
508.1913678348858 -12.00382770725713 237.33560324096368 138.19818897182762 0.0 0.0
462.2007778610337 -5.206328647312091 213.79020259625915 147.99684948213175 0.0 0.0
425.80376384469565 2.3395082092662136 194.40394005472305 153.72159522028767 0.0 0.0
393.81817841090515 7.317455752946302 174.1669189246187 157.71124279594025 0.0 0.0
358.9586891875581 9.43063828857958 151.32993717613647 161.92750472217318 0.0 0.0
318.34421894343694 8.865349333444591 126.43180755922113 165.99211923299467 0.0 0.0
276.85560612357114 6.431698423192735 102.41249630297989 171.54620288979223 0.0 0.0
229.89475549668887 6.007830446562576 80.4575878803931 179.86336660154922 0.0 0.0
173.6787088591714 3.649576966529116 58.432336517318305 192.0939408645407 0.0 0.0
124.0291569695874 1.9288044832589275 40.5041544428902 201.61042639519394 0.0 0.0
85.67212277319364 0.09799144482802369 26.893724021059594 206.4075666598994 0.0 0.0
59.35194056619759 0.14982705542046215 18.254646725388287 200.0924002928331 0.0 0.0
40.74149572199799 3.9712979269035786 13.46448003601295 187.52043853171077 0.0 0.0
23.135270658172225 11.191421742571364 10.296133149788222 173.63738940380242 0.0 0.0
1.3836443072721556 16.45559554640299 5.351542250233581 166.6146363372732 0.0 0.0
-23.79750813334756 5.4393620511221625 -5.507291199760905 169.9927395385412 0.0 0.0
-39.91382410210838 -56.34635874081973 -28.87530661282401 179.44270221808964 0.0 0.0
-11.787779911717518 -277.6834577986816 -87.2786276761184 135.60849110129388 0.0 0.0
-20.70789454739612 -232.26189308534265 -75.88052900653707 -124.2465270569767 0.0 0.0
-52.95354459863151 -57.229820438370055 -33.053090360604884 -178.89420811930535 0.0 0.0
-52.818483036319606 3.7427403516477726 -14.722194991796727 -174.37358050474535 0.0 0.0
-44.2296541514061 16.769136964631723 -8.237577522314076 -170.74725815781835 0.0 0.0
-40.56394709675888 14.070986155185107 -7.9436029490536555 -176.0021008936431 0.0 0.0
-45.71461495027546 7.947157096293747 -11.377937100816734 -188.49494057095504 0.0 0.0
-60.430984104061594 2.9245369551076976 -17.65997387587371 -200.19156920968942 0.0 0.0
-85.59684181927125 0.3400484175335752 -26.739981217897686 -206.50304818602396 0.0 0.0
-123.75489362574618 -1.9284073554533272 -40.41371635578348 -201.6091005499343 0.0 0.0
-173.62610838258905 -3.9712731426693875 -58.5038184653514 -192.051574333779 0.0 0.0
-230.28929967705034 -5.3405337881130315 -80.00210940283921 -179.93098759093638 0.0 0.0
-277.6828266160219 -5.604463687673629 -102.41788972832849 -171.2804352676251 0.0 0.0
-321.1905218076263 -7.8409460201708185 -127.20941421961349 -165.56286146376826 0.0 0.0
-364.32501320633656 -9.731502097750798 -153.78184175112688 -161.55706362932577 0.0 0.0
-398.4052278031829 -15.433855318656072 -179.5480865400013 -158.68029482618303 0.0 0.0
-419.39353369725654 -25.328533118965268 -201.9312322357795 -158.318531098037 0.0 0.0
-417.0993618029039 -37.2660129455201 -214.89864671124545 -160.13199656031765 0.0 0.0
-364.53390635836854 -41.39075145907168 -207.4574627258595 -162.34126499466325 0.0 0.0
-193.86635815428812 -36.07756033837309 -134.01995504780942 -163.3147811163372 0.0 0.0
28.904649718137463 -166.58989056323213 -59.234486920777044 -125.19935474381086 0.0 0.0
28.90464971834956 -166.58989056287527 -59.23448692063127 125.19935474414542 0.0 0.0
-193.86635815469742 -36.07756033889973 -134.01995504806678 163.31478111673766 0.0 0.0
-364.53390635837025 -41.390751459195855 -207.45746272583747 162.34126499502105 0.0 0.0
-417.0993618025654 -37.26601294529274 -214.89864671101384 160.1319965604759 0.0 0.0
-419.39353369681015 -25.32853311852351 -201.93123223546792 158.31853109803825 0.0 0.0
-398.4052278030216 -15.43385531886419 -179.54808653994073 158.68029482620705 0.0 0.0
-364.32501320615535 -9.731502098182617 -153.78184175109848 161.55706362941032 0.0 0.0
-321.19052180716653 -7.840946020255224 -127.20941421941299 165.56286146395482 0.0 0.0
-277.682826615315 -5.604463687340861 -102.41788972793876 171.28043526762576 0.0 0.0
-230.2892996762708 -5.3405337878952714 -80.00210940249038 179.93098759094372 0.0 0.0
-173.6261083820532 -3.9712731426181964 -58.503818465154325 192.05157433371434 0.0 0.0
-123.7548936254464 -1.9284073556449624 -40.41371635573894 201.6091005499876 0.0 0.0
-85.59684181904979 0.34004841751574144 -26.73998121783071 206.50304818597579 0.0 0.0
-60.430984103759 2.924536955446196 -17.659973875675185 200.1915692095434 0.0 0.0
-45.71461495010552 7.9471570963902725 -11.377937100736268 188.49494057075225 0.0 0.0
-40.5639470966418 14.070986155281812 -7.943602948989884 176.0021008934221 0.0 0.0
-44.229654151237526 16.769136964799614 -8.237577522213398 170.74725815760334 0.0 0.0
-52.81848303621632 3.742740351811662 -14.722194991716956 174.3735805045413 0.0 0.0
-52.95354459859121 -57.22982043834029 -33.05309036058476 178.89420811918015 0.0 0.0
-20.707894547424576 -232.26189308517547 -75.8805290064988 124.24652705688351 0.0 0.0
-23.96800767834807 -189.0594008910537 -63.908222570820534 -111.71116690317655 0.0 0.0
-63.74529888208447 -55.33288429741077 -35.72310023842188 -174.4944453190207 0.0 0.0
-79.87381535929646 2.353389436150047 -23.25517087553781 -174.57331434277376 0.0 0.0
-88.30310548596267 16.680707858441085 -21.48098625780879 -170.6056121956268 0.0 0.0
-102.94438972176751 16.40896061876536 -25.960579747553655 -173.25478699852272 0.0 0.0
-130.94368789820936 11.192462954141059 -36.19598742467578 -182.4399752426725 0.0 0.0
-178.6822093196204 5.050456874613831 -53.41198713693389 -190.34793843434275 0.0 0.0
-253.42552318062891 -0.4865771567660193 -80.8635341698944 -189.24473789978117 0.0 0.0
-349.84164943396235 -4.619361063930183 -120.2255085655196 -180.5213040197335 0.0 0.0
-433.99900538270083 -9.553771487696952 -165.9205068576353 -166.944770647064 0.0 0.0
-495.79574266088605 -15.752309582831646 -209.59941306156762 -157.5834378944953 0.0 0.0
-541.264512914215 -19.50109797341986 -245.17157836105065 -151.8480526427429 0.0 0.0
-579.7947511488103 -24.621230748051744 -276.5833148249232 -147.26070172053056 0.0 0.0
-615.0464328460993 -30.892816714916854 -304.9163422416743 -144.02084789459684 0.0 0.0
-648.9674003089447 -40.18695085070067 -331.90935593157513 -143.0530030348047 0.0 0.0
-680.4296277597598 -53.27892603621157 -357.6864608866248 -145.13473866903482 0.0 0.0
-706.7213295683453 -70.4248891428289 -381.88357293664217 -151.32603433424086 0.0 0.0
-722.6259703572541 -89.20499661690408 -401.49080017414906 -161.55139291718427 0.0 0.0
-758.5624097680968 -144.00832515771987 -446.07435440413667 -171.11885591614242 0.0 0.0
-731.5795823188328 -207.60221260875502 -461.2748022073238 -180.14246803292048 0.0 0.0
-731.579582318534 -207.6022126085724 -461.274802207188 180.14246803323914 0.0 0.0
-758.5624097676935 -144.0083251572985 -446.07435440387104 171.11885591634535 0.0 0.0
-722.6259703570291 -89.2049966168432 -401.49080017402287 161.5513929174341 0.0 0.0
-706.7213295681453 -70.4248891428415 -381.88357293652393 151.32603433439422 0.0 0.0
-680.4296277602591 -53.27892603688693 -357.68646088689474 145.1347386690851 0.0 0.0
-648.9674003094397 -40.186950851527854 -331.90935593191927 143.05300303496134 0.0 0.0
-615.046432846062 -30.892816715136206 -304.91634224165165 144.02084789462555 0.0 0.0
-579.7947511490406 -24.62123074864312 -276.58331482507265 147.26070172071033 0.0 0.0
-541.2645129141131 -19.50109797369292 -245.17157836095566 151.84805264278154 0.0 0.0
-495.79574266062684 -15.752309583080446 -209.59941306138387 157.5834378945658 0.0 0.0
-433.9990053826085 -9.553771488306207 -165.92050685759028 166.94477064710824 0.0 0.0
-349.84164943338953 -4.619361063970429 -120.22550856528187 180.52130401982373 0.0 0.0
-253.4255231801814 -0.48657715690451475 -80.86353416977325 189.24473789979703 0.0 0.0
-178.6822093192289 5.050456874748862 -53.4119871367665 190.3479384342141 0.0 0.0
-130.94368789792412 11.19246295429249 -36.19598742454349 182.4399752424577 0.0 0.0
-102.94438972178979 16.408960618377986 -25.96057974767829 173.25478699829586 0.0 0.0
-88.3031054858966 16.68070785838077 -21.480986257807636 170.60561219547992 0.0 0.0
-79.87381535919619 2.353389436178244 -23.255170875499743 174.57331434260158 0.0 0.0
-63.74529888204977 -55.33288429740228 -35.72310023840957 174.49444531891777 0.0 0.0
-23.968007678308503 -189.05940089084044 -63.90822257074468 111.71116690306553 0.0 0.0
-24.957149985301 -149.05146406214652 -52.20258421423425 -98.80118061975512 0.0 0.0
-72.78983585438053 -50.96253099146544 -37.1253271981536 -166.0747041219663 0.0 0.0
-105.1659122089638 1.2537533288099043 -31.170697523427712 -170.5451931173221 0.0 0.0
-130.66321605512837 16.23893525564046 -34.3165126556414 -166.04523108779608 0.0 0.0
-163.70700223389937 17.6417550121762 -43.87719519220023 -165.63087717105572 0.0 0.0
-213.7552967589694 13.10111999548542 -60.73297105891104 -169.755795161715 0.0 0.0
-291.485550397051 6.646588790652009 -88.90825290707804 -170.85401473451103 0.0 0.0
-392.30642228403497 0.08557247641213195 -133.5744287557255 -162.97866477362396 0.0 0.0
-483.27174734239134 -8.636775731935568 -189.48471261901494 -151.5715827786696 0.0 0.0
-552.7687478064117 -19.880853316723478 -244.62546305749652 -143.40327391263065 0.0 0.0
-605.8629685160158 -27.69768775017887 -288.4148435939161 -138.98840240531172 0.0 0.0
-648.8866911404018 -35.629832281519995 -323.556621023497 -134.72245438039286 0.0 0.0
-688.3492326392009 -43.8001932019025 -353.6621728529333 -130.91359662234544 0.0 0.0
-726.4510751376085 -52.902069135751084 -381.1203517297211 -127.86637153578 0.0 0.0
-765.1433680853701 -65.01179920511805 -408.70069476565743 -126.86791734997219 0.0 0.0
-803.7734220023924 -81.66318862511947 -437.49059845804373 -129.23761866770224 0.0 0.0
-840.3578057339121 -102.79229470992864 -467.1611511911724 -135.99018102883414 0.0 0.0
-882.1919501462943 -137.6507394556654 -506.147397590444 -144.27929881060274 0.0 0.0
-927.6686645396519 -189.9225461019316 -555.397988983019 -152.40327164864092 0.0 0.0
-992.2224524487503 -300.49500393703335 -638.9588282134802 -162.79844403032985 0.0 0.0
-992.2224524486016 -300.49500393694046 -638.9588282135231 162.79844403046508 0.0 0.0
-927.6686645394395 -189.92254610177773 -555.3979889829133 152.40327164879255 0.0 0.0
-882.1919501458199 -137.65073945536426 -506.1473975901349 144.27929881084066 0.0 0.0
-840.3578057342618 -102.79229471050597 -467.16115119139965 135.99018102902994 0.0 0.0
-803.7734220016453 -81.663188624429 -437.49059845755846 129.23761866766128 0.0 0.0
-765.143368084422 -65.01179920416436 -408.7006947650515 126.86791734988695 0.0 0.0
-726.4510751365179 -52.9020691345781 -381.1203517289306 127.86637153560594 0.0 0.0
-688.349232638521 -43.80019320138121 -353.66217285244113 130.91359662240018 0.0 0.0
-648.8866911399242 -35.629832281281566 -323.5566210231433 134.7224543804171 0.0 0.0
-605.8629685154127 -27.697687749738925 -288.41484359343826 138.9884024052277 0.0 0.0
-552.7687478060903 -19.880853316690136 -244.6254630572135 143.40327391254732 0.0 0.0
-483.2717473420788 -8.636775732156014 -189.48471261880903 151.57158277877727 0.0 0.0
-392.3064222834094 0.08557247657274392 -133.57442875538072 162.97866477363834 0.0 0.0
-291.48555039666525 6.646588790458873 -88.90825290699303 170.85401473441226 0.0 0.0
-213.75529675882024 13.101119995113077 -60.732971058972296 169.7557951615198 0.0 0.0
-163.70700223374803 17.641755012058827 -43.877195192192545 165.63087717086108 0.0 0.0
-130.6632160549275 16.23893525578195 -34.31651265553969 166.0452310876025 0.0 0.0
-105.1659122088318 1.2537533288013054 -31.170697523391507 170.54519311713074 0.0 0.0
-72.78983585432934 -50.962530991425695 -37.125327198126556 166.07470412177295 0.0 0.0
-24.957149985276047 -149.05146406201 -52.20258421418582 98.80118061961633 0.0 0.0
-25.49590103112935 -112.80705902309091 -41.49088801626608 -85.6930938296 0.0 0.0
-80.86623245792144 -44.699982698930306 -37.66986454705552 -153.89125500792292 0.0 0.0
-128.84141652155535 0.5657525770220699 -38.47990725092326 -162.2470378941182 0.0 0.0
-171.39753163264388 15.129894459056668 -46.86936284887993 -157.17695509650736 0.0 0.0
-222.383585102016 17.74545146914177 -61.43394732399803 -153.05615825736515 0.0 0.0
-292.4178634442404 14.074128214613793 -84.83869817604237 -151.4147965929645 0.0 0.0
-389.210562886157 8.725844994851768 -124.1983154562544 -145.52944534933096 0.0 0.0
-486.3347421235812 -2.3074046751182493 -183.2056853312866 -134.45924916673872 0.0 0.0
-565.3984448448667 -15.642930325522077 -246.4254091127627 -127.66817758329573 0.0 0.0
-626.9073363831089 -28.825942714284086 -300.1070271116638 -124.5361539371143 0.0 0.0
-676.5301573155925 -39.73101180257656 -341.13574461741905 -121.7770679818515 0.0 0.0
-721.9306323030189 -51.28907411962839 -375.87188449944574 -118.47787630251453 0.0 0.0
-764.481476898413 -62.59499577971488 -406.270596616056 -114.95817070205608 0.0 0.0
-806.1799153936599 -74.91160846008563 -435.1770146892027 -111.84938913610326 0.0 0.0
-848.4550844962315 -89.4368791689009 -464.53468303988893 -110.60592117873921 0.0 0.0
-893.2335723662352 -109.71963165535546 -497.49963296269533 -112.8251829809941 0.0 0.0
-942.2166064001611 -139.6462465515251 -537.1421990226405 -118.67713389635352 0.0 0.0
-997.8116504001525 -183.880158210883 -587.4531837774366 -125.92393229231004 0.0 0.0
-1063.7989438535 -251.5496217028755 -654.299516025577 -131.84173851725296 0.0 0.0
-1143.9526992515816 -368.26777987307236 -750.4261344941259 -141.60103633675436 0.0 0.0
-1143.9526992516835 -368.26777987333355 -750.4261344941694 141.6010363370299 0.0 0.0
-1063.7989438525356 -251.54962170205073 -654.2995160249253 131.84173851749463 0.0 0.0
-997.8116503994747 -183.88015821029805 -587.4531837769945 125.92393229245518 0.0 0.0
-942.2166063996426 -139.64624655108338 -537.1421990222516 118.67713389638837 0.0 0.0
-893.233572366204 -109.7196316554791 -497.49963296260086 112.82518298110372 0.0 0.0
-848.455084496881 -89.43687916973616 -464.5346830402872 110.60592117884902 0.0 0.0
-806.1799153941599 -74.91160846077305 -435.1770146895128 111.84938913616398 0.0 0.0
-764.4814768985161 -62.59499578004339 -406.2705966161511 114.95817070211757 0.0 0.0
-721.9306323029106 -51.28907411972766 -375.871884499332 118.47787630254476 0.0 0.0
-676.5301573155101 -39.73101180282238 -341.1357446173468 121.77706798191181 0.0 0.0
-626.9073363823303 -28.82594271368342 -300.107027111069 124.53615393700642 0.0 0.0
-565.3984448438468 -15.642930324726134 -246.42540911200695 127.66817758325726 0.0 0.0
-486.33474212313666 -2.3074046750687827 -183.20568533093046 134.4592491667222 0.0 0.0
-389.2105628858261 8.72584499456471 -124.19831545614207 145.52944534932448 0.0 0.0
-292.4178634438951 14.07412821450566 -84.83869817596387 151.41479659287836 0.0 0.0
-222.38358510171383 17.745451469217954 -61.43394732389058 153.05615825721378 0.0 0.0
-171.39753163245396 15.12989445895781 -46.86936284885651 157.17695509633884 0.0 0.0
-128.8414165214869 0.5657525768767995 -38.47990725094708 162.24703789405993 0.0 0.0
-80.8662324577704 -44.69998269871306 -37.66986454694503 153.89125500779483 0.0 0.0
-25.495901031047612 -112.80705902288241 -41.490888016179 85.69309382950179 0.0 0.0
-26.106525777421687 -80.77669890406317 -32.064967404445454 -72.30101588141481 0.0 0.0
-88.46518420418411 -37.165043468062805 -37.68906830167407 -138.3631678698743 0.0 0.0
-151.13947593393164 0.27157251663816684 -45.25913876917339 -149.77249992443296 0.0 0.0
-210.50894097718026 13.45082218316921 -59.09789005466805 -143.9240082833362 0.0 0.0
-278.74864591878435 16.83114710792134 -78.48072537334156 -136.4494708233168 0.0 0.0
-365.23089812560835 15.484574501216748 -108.68009482123155 -128.7749571720579 0.0 0.0
-465.4290372934071 7.946761431650625 -160.20584435815195 -117.4671146444002 0.0 0.0
-553.2615474003899 -6.642946015506432 -227.82437634349418 -109.40239737489897 0.0 0.0
-622.8766861094226 -21.99469301866515 -290.42121397777225 -107.42241002490184 0.0 0.0
-680.3763250809694 -36.67233666041477 -340.1379238428638 -106.67346170476405 0.0 0.0
-731.7712503159376 -51.34515651705427 -380.67680702732355 -104.84635414749661 0.0 0.0
-780.0345242772651 -66.41256189046348 -416.19676044853486 -102.00875460471477 0.0 0.0
-826.3087868290536 -81.5360027596679 -448.8522291908747 -98.83292258677969 0.0 0.0
-871.6447663467733 -96.81194698457608 -480.19900465588205 -95.88744102766205 0.0 0.0
-917.8679578698479 -113.97193775534282 -512.4129616393565 -94.37388515028802 0.0 0.0
-968.3756344129528 -138.53935176656552 -550.0886438100215 -95.67234933404868 0.0 0.0
-1028.4468239270664 -176.55429391134487 -599.0906113935114 -100.47633442474782 0.0 0.0
-1098.9017361470026 -233.0190426551206 -662.6747320948011 -106.6520971680372 0.0 0.0
-1178.734596834059 -313.18649598283093 -742.7183191260567 -112.2514446787896 0.0 0.0
-1256.7111916778426 -426.2817254366879 -837.0057204612876 -125.75753392638532 0.0 0.0
-1256.7111916779713 -426.2817254368007 -837.0057204613753 125.75753392643506 0.0 0.0
-1178.734596834282 -313.18649598322327 -742.7183191262184 112.25144467907963 0.0 0.0
-1098.9017361467145 -233.0190426549831 -662.6747320945383 106.65209716827087 0.0 0.0
-1028.4468239268233 -176.55429391118622 -599.0906113932363 100.47633442480401 0.0 0.0
-968.3756344122899 -138.53935176602278 -550.0886438094914 95.67234933413359 0.0 0.0
-917.8679578696062 -113.9719377552211 -512.4129616390983 94.37388515031145 0.0 0.0
-871.6447663463248 -96.81194698422088 -480.19900465554497 95.88744102764102 0.0 0.0
-826.3087868283358 -81.53600275909794 -448.85222919034254 98.8329225867704 0.0 0.0
-780.0345242768233 -66.41256189021078 -416.1967604481891 102.00875460472281 0.0 0.0
-731.7712503158189 -51.345156517192606 -380.67680702720713 104.84635414753761 0.0 0.0
-680.3763250808763 -36.672336660586936 -340.1379238427337 106.67346170472264 0.0 0.0
-622.8766861090834 -21.994693018641108 -290.42121397747616 107.42241002492068 0.0 0.0
-553.2615473999527 -6.64294601538188 -227.82437634310213 109.40239737486401 0.0 0.0
-465.4290372924298 7.946761432405787 -160.2058443574939 117.46711464429767 0.0 0.0
-365.2308981250159 15.484574501444616 -108.68009482096593 128.77495717197024 0.0 0.0
-278.74864591856243 16.83114710766961 -78.48072537335682 136.4494708232406 0.0 0.0
-210.50894097702042 13.450822182901067 -59.097890054702006 143.924008283162 0.0 0.0
-151.1394759338218 0.2715725165848113 -45.25913876915703 149.7724999243349 0.0 0.0
-88.46518420411233 -37.16504346806253 -37.689068301652455 138.3631678697334 0.0 0.0
-26.106525777395333 -80.7766989040088 -32.06496740442123 72.30101588133155 0.0 0.0
-26.820859035121924 -53.37812028425079 -24.05969379581181 -58.49062839968777 0.0 0.0
-95.63472709843849 -28.91259939580601 -37.36419794827334 -119.86901939697016 0.0 0.0
-172.28782721248504 0.3124597255409487 -51.592610246083225 -133.25589102719528 0.0 0.0
-247.88305333429082 10.830123647907088 -71.10538750181138 -126.3531088281977 0.0 0.0
-330.3949751952217 16.079057975767952 -94.66133298234084 -115.88765454538719 0.0 0.0
-429.4289841796126 15.627587920964732 -133.4281211075539 -103.2793054131349 0.0 0.0
-524.5205053751033 5.372455062159634 -195.37569926182786 -91.05357502821019 0.0 0.0
-601.6168233611123 -11.376268590966944 -265.46477218663904 -87.64382340925891 0.0 0.0
-665.7770285460413 -26.91765766060069 -323.54302470828384 -88.4861601153489 0.0 0.0
-723.7934121611421 -44.27326422765246 -371.4647725599442 -88.7351321482875 0.0 0.0
-777.9692261799223 -62.604425862701945 -412.7510160093626 -87.50880764469572 0.0 0.0
-829.5791279510175 -81.32991536064658 -450.3065634610049 -85.11843242392418 0.0 0.0
-879.9650342678328 -100.22906052480326 -486.1304559307097 -82.48387506318063 0.0 0.0
-929.0210568119421 -119.18473124706237 -520.7805350031965 -79.84497916543728 0.0 0.0
-978.7725407556331 -139.21354173925192 -556.0022021748166 -77.98343841044812 0.0 0.0
-1035.1053265643088 -167.32539256974567 -598.2609612234095 -78.10884414019026 0.0 0.0
-1104.1662615437995 -213.09393698068908 -655.4697182884861 -81.33347530949607 0.0 0.0
-1188.0867625215155 -281.83314701936087 -731.7229074234854 -87.04374785748303 0.0 0.0
-1277.311565526674 -371.06253804530587 -821.06047019168 -94.55172690048629 0.0 0.0
-1354.4226495527923 -482.34319086433186 -914.7067414414776 -113.65387681868278 0.0 0.0
-1354.422649553581 -482.34319086522595 -914.706741442073 113.65387681888184 0.0 0.0
-1277.3115655271804 -371.0625380459629 -821.0604701920475 94.55172690074984 0.0 0.0
-1188.086762520897 -281.83314701882034 -731.7229074230481 87.04374785759502 0.0 0.0
-1104.1662615434236 -213.09393698037422 -655.4697182882255 81.33347530949264 0.0 0.0
-1035.1053265633395 -167.32539256885275 -598.2609612226918 78.10884414019894 0.0 0.0
-978.7725407557364 -139.21354173949226 -556.0022021748225 77.98343841053138 0.0 0.0
-929.0210568118147 -119.18473124709682 -520.7805350030065 79.84497916551638 0.0 0.0
-879.9650342675004 -100.2290605246698 -486.1304559304479 82.48387506328129 0.0 0.0
-829.5791279507517 -81.32991536057682 -450.3065634608238 85.1184324239326 0.0 0.0
-777.9692261802659 -62.60442586329166 -412.7510160095054 87.50880764469089 0.0 0.0
-723.7934121615633 -44.27326422840475 -371.4647725601424 88.73513214838088 0.0 0.0
-665.777028545635 -26.91765766049091 -323.5430247079433 88.48616011538131 0.0 0.0
-601.6168233603041 -11.376268590372197 -265.4647721859874 87.64382340915826 0.0 0.0
-524.5205053747193 5.372455062138089 -195.3756992614897 91.05357502821937 0.0 0.0
-429.42898417908884 15.627587921127656 -133.42812110727584 103.27930541307622 0.0 0.0
-330.394975194704 16.07905797601738 -94.66133298211575 115.88765454533026 0.0 0.0
-247.88305333387055 10.830123648248978 -71.10538750158472 126.35310882812871 0.0 0.0
-172.28782721230678 0.312459725544151 -51.592610246028784 133.25589102711413 0.0 0.0
-95.6347270983451 -28.91259939576598 -37.36419794823331 119.86901939687408 0.0 0.0
-26.82085903503979 -53.378120284169455 -24.059693795762776 58.49062839966001 0.0 0.0
-27.353509066160207 -31.006718929352033 -17.50806839865367 -44.19687085945568 0.0 0.0
-102.00627924205959 -20.44057388101939 -36.73405593692369 -98.73589424005104 0.0 0.0
-192.37159480034563 0.5649285009736822 -57.541999889811585 -112.65085786735239 0.0 0.0
-284.08363342907626 7.364582090637626 -83.00723129897945 -105.09447366380866 0.0 0.0
-380.86678632193014 15.71393439912169 -110.73437770762547 -92.2866870684882 0.0 0.0
-482.0673388585918 14.857287593308607 -158.6271107331633 -76.70124202266204 0.0 0.0
-566.2470183764054 0.6432594495716586 -228.1488416210639 -67.5237576996664 0.0 0.0
-637.4953857284268 -14.132611733384557 -294.60838915764964 -67.99413166104068 0.0 0.0
-701.0839892007939 -31.483248962001745 -349.90600749658574 -69.6262706820454 0.0 0.0
-760.6436647730297 -51.80804265855259 -397.2638304031119 -70.38863051725626 0.0 0.0
-817.6644950525027 -73.45016477932313 -439.96347517977165 -69.62675592176426 0.0 0.0
-873.184305195585 -95.96730871353196 -480.50852850804523 -67.77822796506574 0.0 0.0
-927.5026160254179 -118.78240432840695 -519.8179644549882 -65.68673932365984 0.0 0.0
-981.5942333358043 -142.03867132342694 -558.926769038294 -63.64127965914413 0.0 0.0
-1035.6888080900114 -165.89320699895427 -598.1425339243856 -61.61791430276679 0.0 0.0
-1094.5088224002652 -196.36342152130712 -642.8003527029867 -60.20917762107557 0.0 0.0
-1170.4423560849036 -247.31526931429207 -705.9333041423312 -61.60510838514498 0.0 0.0
-1265.9451700522245 -326.38483776903774 -792.9727127537369 -67.3763788622194 0.0 0.0
-1366.2165935212747 -426.29410424804536 -893.1869576518621 -78.21742264215924 0.0 0.0
-1446.9523668851061 -540.49722620947 -990.6149111482696 -103.45322015856921 0.0 0.0
-1446.9523668850716 -540.4972262094891 -990.6149111482897 103.45322015864934 0.0 0.0
-1366.2165935211751 -426.2941042480152 -893.1869576518263 78.21742264229337 0.0 0.0
-1265.945170052037 -326.3848377689254 -792.9727127535778 67.37637886235954 0.0 0.0
-1170.4423560852956 -247.31526931477043 -705.9333041425001 61.605108385187094 0.0 0.0
-1094.5088223997745 -196.36342152090893 -642.8003527025397 60.209177621098576 0.0 0.0
-1035.6888080900187 -165.89320699909624 -598.1425339243366 61.61791430285598 0.0 0.0
-981.594233335084 -142.03867132281155 -558.9267690378009 63.64127965909033 0.0 0.0
-927.5026160249527 -118.78240432809821 -519.8179644546157 65.68673932368478 0.0 0.0
-873.1843051949821 -95.96730871311722 -480.50852850756985 67.7782279650867 0.0 0.0
-817.664495051912 -73.45016477894028 -439.96347517934316 69.6267559217621 0.0 0.0
-760.6436647721538 -51.80804265789061 -397.26383040253427 70.38863051721924 0.0 0.0
-701.0839892003645 -31.483248961825744 -349.90600749623417 69.62627068206322 0.0 0.0
-637.4953857280931 -14.132611733336999 -294.60838915731 67.99413166097607 0.0 0.0
-566.2470183758517 0.6432594498239421 -228.14884162058252 67.52375769959586 0.0 0.0
-482.06733885830135 14.857287593138523 -158.6271107329801 76.70124202267424 0.0 0.0
-380.8667863216808 15.71393439870512 -110.73437770766441 92.28668706848559 0.0 0.0
-284.08363342893927 7.364582090340622 -83.00723129903628 105.0944736637036 0.0 0.0
-192.37159480013213 0.5649285010163831 -57.54199988973471 112.6508578671752 0.0 0.0
-102.00627924190239 -20.440573880891023 -36.734055936838026 98.73589423992934 0.0 0.0
-27.353509066106895 -31.006718929289917 -17.50806839861904 44.19687085946208 0.0 0.0
-27.063978098838277 -14.040610492234105 -12.331376577321713 -29.557508991618654 0.0 0.0
-106.66793700086836 -12.16000864963052 -35.64838369514966 -75.13728169187998 0.0 0.0
-211.521404515153 0.6177794711135016 -63.27108751321184 -87.86765454121613 0.0 0.0
-319.59399274839853 4.2754326151805495 -94.58159060236343 -80.2147797937823 0.0 0.0
-428.26238135802316 16.01028729795175 -127.11214863584783 -66.13254108053654 0.0 0.0
-524.0845467313458 11.090584775962913 -185.31279928954103 -51.66469931831498 0.0 0.0
-599.8506701026645 -2.8262983537007997 -256.55384855451234 -47.06037949988921 0.0 0.0
-666.7379032840674 -16.409800830954346 -317.94354649191104 -48.55057847026241 0.0 0.0
-730.6243985675926 -36.0846273930876 -371.4129206320581 -50.54733480219125 0.0 0.0
-792.3184689991297 -59.11699649714328 -419.0796970522551 -51.54062209096832 0.0 0.0
-852.6298749896256 -84.04183161008348 -463.9427350374421 -51.18414071420794 0.0 0.0
-911.8019166278275 -110.23905855224106 -507.63160795178396 -49.88279631024665 0.0 0.0
-970.8291094237737 -137.05512525164386 -551.051588740578 -48.44615119919152 0.0 0.0
-1029.6867056556853 -165.18009137058073 -594.83106499776 -46.96857663659828 0.0 0.0
-1089.249789187731 -194.48322951570725 -639.4290253155552 -45.19140228295429 0.0 0.0
-1151.6260961987055 -227.77152109208475 -687.3237370088544 -42.76140273185838 0.0 0.0
-1225.199923922939 -275.6835227560908 -747.7829212635221 -41.73700678909301 0.0 0.0
-1330.5036292498899 -363.29195338971965 -843.7292144594128 -47.12579983435599 0.0 0.0
-1448.0375545331856 -479.0849086290027 -960.4845875829994 -62.05387017043612 0.0 0.0
-1542.7523370635272 -605.2975576182245 -1071.3404038603894 -93.89997610039134 0.0 0.0
-1542.7523370625804 -605.2975576172685 -1071.3404038596354 93.89997610037238 0.0 0.0
-1448.0375545324396 -479.08490862829206 -960.4845875824356 62.053870170512084 0.0 0.0
-1330.5036292492057 -363.29195338910233 -843.7292144588741 47.12579983448443 0.0 0.0
-1225.1999239225722 -275.6835227557988 -747.7829212631677 41.737006789115235 0.0 0.0
-1151.6260961983635 -227.77152109182927 -687.3237370085687 42.76140273184314 0.0 0.0
-1089.2497891874598 -194.48322951555028 -639.4290253153669 45.19140228300408 0.0 0.0
-1029.6867056548986 -165.18009136990497 -594.8310649971579 46.968576636562986 0.0 0.0
-970.8291094233978 -137.05512525141845 -551.0515887402784 48.44615119918012 0.0 0.0
-911.8019166272558 -110.23905855186209 -507.63160795138754 49.882796310267906 0.0 0.0
-852.6298749895034 -84.04183161017579 -463.9427350373355 51.184140714204226 0.0 0.0
-792.3184689994455 -59.1169964977284 -419.07969705239987 51.540622091016374 0.0 0.0
-730.6243985676591 -36.08462739343332 -371.4129206320464 50.547334802262206 0.0 0.0
-666.7379032837423 -16.409800830908605 -317.9435464916076 48.55057847024949 0.0 0.0
-599.8506701022977 -2.82629835365827 -256.5538485541518 47.06037949989105 0.0 0.0
-524.0845467306834 11.09058477635402 -185.31279928905883 51.66469931827115 0.0 0.0
-428.2623813574545 16.01028729813739 -127.11214863559435 66.1325410805094 0.0 0.0
-319.5939927482683 4.275432615030833 -94.58159060237173 80.2147797937397 0.0 0.0
-211.52140451501913 0.6177794709756648 -63.27108751321303 87.86765454112219 0.0 0.0
-106.6679370007899 -12.160008649682293 -35.64838369514165 75.13728169179672 0.0 0.0
-27.06397809880532 -14.040610492212354 -12.331376577305301 29.55750899160798 0.0 0.0
-24.717682248470275 -2.787291260485634 -8.251492052686773 -15.084806585455087 0.0 0.0
-107.9854068139197 -4.590196396524929 -33.77268096313338 -49.05287984127064 0.0 0.0
-229.9222689978709 0.24623040457226963 -68.90281157798958 -58.37743689632516 0.0 0.0
-356.00872152039733 2.25053838988371 -106.08664723719238 -52.15093277583313 0.0 0.0
-468.6241320371451 17.0186642534363 -143.99374449733347 -39.52272118756987 0.0 0.0
-553.8783511310874 4.832908597551931 -211.93144019482332 -28.855756516977326 0.0 0.0
-625.6462897242686 -4.13707383586361 -278.8967121666482 -27.893890033876655 0.0 0.0
-690.9957207932046 -19.301440509924838 -337.28668625861803 -29.35652404009403 0.0 0.0
-755.3946833187554 -40.52502748677331 -389.09285196459143 -31.09816167692391 0.0 0.0
-819.5374321667737 -66.14596552900673 -437.74244058759274 -32.118572298609216 0.0 0.0
-883.3621979114515 -94.4497652705504 -485.32175288552963 -32.123979780702065 0.0 0.0
-946.8377557634299 -124.07702386467568 -532.5459241291629 -31.45352662267971 0.0 0.0
-1010.0309843905023 -155.37400029347396 -580.1246540340697 -30.597564084542075 0.0 0.0
-1074.3183521079504 -188.2476608691786 -628.8908358863408 -29.74614236794767 0.0 0.0
-1140.4298898404968 -223.7624420318075 -679.811013937117 -28.537938459708663 0.0 0.0
-1207.9914217914525 -262.5398681916057 -733.0436481300607 -26.20500454651503 0.0 0.0
-1277.7015983004706 -306.74346851336446 -789.9132106315573 -23.114649595181984 0.0 0.0
-1364.9464406028196 -374.9665634403073 -866.9908677563469 -25.594393012125014 0.0 0.0
-1525.016070397729 -530.1496185511269 -1024.282997399433 -43.79665619964416 0.0 0.0
-1652.3422827532945 -685.4322550600854 -1166.5629456061754 -83.86767959265862 0.0 0.0
-1652.3422827536767 -685.4322550604943 -1166.5629456064878 83.86767959272373 0.0 0.0
-1525.01607039777 -530.1496185512062 -1024.2829973994349 43.79665619966582 0.0 0.0
-1364.9464406023928 -374.96656343994147 -866.9908677559681 25.594393012222575 0.0 0.0
-1277.7015983001238 -306.7434685130859 -789.91321063126 23.114649595158557 0.0 0.0
-1207.9914217912437 -262.53986819149566 -733.0436481298091 26.20500454656754 0.0 0.0
-1140.429889840653 -223.76244203208694 -679.8110139371452 28.537938459761797 0.0 0.0
-1074.3183521081974 -188.24766086956873 -628.8908358864646 29.746142367999347 0.0 0.0
-1010.0309843901383 -155.37400029327029 -580.1246540338058 30.597564084583297 0.0 0.0
-946.837755762699 -124.07702386413295 -532.5459241286907 31.453526622712914 0.0 0.0
-883.3621979107588 -94.44976527006067 -485.3217528850131 32.123979780652576 0.0 0.0
-819.5374321664221 -66.14596552889077 -437.7424405872804 32.11857229871097 0.0 0.0
-755.3946833183272 -40.525027486601175 -389.09285196425037 31.098161676961656 0.0 0.0
-690.9957207928758 -19.301440509852704 -337.28668625829573 29.356524040018428 0.0 0.0
-625.6462897237491 -4.137073835630151 -278.89671216617796 27.893890033899165 0.0 0.0
-553.8783511306461 4.832908597664115 -211.93144019444784 28.85575651701271 0.0 0.0
-468.62413203658724 17.01866425367176 -143.99374449702577 39.522721187555454 0.0 0.0
-356.00872152016103 2.2505383898193814 -106.08664723714571 52.150932775788235 0.0 0.0
-229.92226899765936 0.24623040454090805 -68.90281157793554 58.37743689624189 0.0 0.0
-107.98540681384355 -4.590196396535003 -33.772680963113565 49.05287984119377 0.0 0.0
-24.71768224840436 -2.787291260442132 -8.251492052653946 15.084806585378224 0.0 0.0
-17.92951856811459 2.5682322736072023 -4.608385888352216 -1.9863936711392518 0.0 0.0
-103.22430063358111 1.5757431698530446 -30.494567239118414 -20.01436545370772 0.0 0.0
-248.21306619091524 -1.03015537582559 -74.77296647002224 -23.077810763195448 0.0 0.0
-395.2472090790404 3.3715284428078824 -117.62230773496941 -21.190440933185794 0.0 0.0
-504.4996368816368 14.823564158285409 -163.70602331914964 -13.728912521242766 0.0 0.0
-581.3365439200303 1.2345200314252196 -235.7583072343726 -9.145456246538192 0.0 0.0
-646.3602088693435 -5.88055554294899 -297.46232652582086 -9.258327334928683 0.0 0.0
-710.9866085051315 -22.21090496631419 -353.0213800425657 -10.135719804135533 0.0 0.0
-776.4209184229339 -45.04168296488493 -404.0335836891421 -11.282548109751652 0.0 0.0
-843.1367744759027 -73.0233100559191 -454.0662198696558 -12.09907176668939 0.0 0.0
-910.5016426292511 -104.21649336853652 -504.3495075076779 -12.443895571678809 0.0 0.0
-977.9894312890859 -138.193883932672 -555.5283339045852 -12.371371969725928 0.0 0.0
-1046.0253343676495 -173.4299478516568 -607.3927463880818 -12.196974037557109 0.0 0.0
-1115.7176495415606 -210.9929989317626 -661.1389740094902 -11.936268103806999 0.0 0.0
-1188.1723078138057 -252.63436930423785 -718.2475067233531 -11.362408888297207 0.0 0.0
-1262.5923057254688 -298.5406480571122 -778.4319838226279 -10.08774550556197 0.0 0.0
-1334.7190584472648 -345.9611112958261 -838.1932761285316 -7.47084072638732 0.0 0.0
-1401.7769510296093 -394.0516328093104 -895.5205629901836 -5.334762249742559 0.0 0.0
-1494.9663145171837 -478.05360574780656 -983.1291962912579 -18.817128813567983 0.0 0.0
-1845.6070214022504 -847.6227142547756 -1344.285492482895 -67.41607061699118 0.0 0.0
-1845.6070214022486 -847.6227142547887 -1344.285492482848 67.41607061701744 0.0 0.0
-1494.9663145175775 -478.0536057482409 -983.1291962914909 18.817128813619377 0.0 0.0
-1401.7769510291052 -394.05163280886745 -895.5205629897569 5.334762249822156 0.0 0.0
-1334.7190584470852 -345.9611112957195 -838.1932761283235 7.4708407263367125 0.0 0.0
-1262.5923057252885 -298.54064805702785 -778.4319838224602 10.087745505591307 0.0 0.0
-1188.1723078134162 -252.6343693039538 -718.2475067229959 11.362408888313535 0.0 0.0
-1115.7176495409583 -210.99299893129682 -661.1389740089588 11.936268103834216 0.0 0.0
-1046.0253343669926 -173.42994785115823 -607.39274638756 12.196974037582144 0.0 0.0
-977.989431288973 -138.19388393275833 -555.5283339044086 12.371371969799913 0.0 0.0
-910.5016426292739 -104.21649336877546 -504.3495075076387 12.443895571569598 0.0 0.0
-843.1367744757296 -73.02331005596857 -454.06621986951654 12.09907176665298 0.0 0.0
-776.4209184224164 -45.041682964601115 -404.0335836887696 11.282548109665086 0.0 0.0
-710.9866085049989 -22.210904966446922 -353.02138004241027 10.13571980413765 0.0 0.0
-646.3602088690019 -5.880555542894577 -297.46232652551134 9.258327334966864 0.0 0.0
-581.3365439196594 1.234520031507902 -235.75830723402058 9.145456246626521 0.0 0.0
-504.49963688131834 14.82356415824401 -163.7060233189449 13.728912521355873 0.0 0.0
-395.2472090786071 3.371528442809022 -117.622307734853 21.190440933179296 0.0 0.0
-248.2130661908094 -1.0301553759754416 -74.77296647003546 23.077810763189042 0.0 0.0
-103.22430063348918 1.5757431697704423 -30.494567239115614 20.014365453665015 0.0 0.0
-17.92951856812377 2.5682322735800134 -4.608385888363125 1.986393671094416 0.0 0.0
SCALARS Strain float 6
LOOKUP_TABLE default
0.009171707563249719 -0.010252098645396918 0.0 -0.005551065085773632 0.0 0.0
0.0019857701021170748 -0.001005125941702767 0.0 0.0009679716193034538 0.0 0.0
0.0017118513050324701 -0.0007113445403776897 0.0 -7.19213667442764e-05 0.0 0.0
0.002051960296414945 -0.0009187883957664233 0.0 -0.00017085050488058195 0.0 0.0
0.002840327267682446 -0.001496615603610918 0.0 -0.00020181767773416737 0.0 0.0
0.004429409884086863 -0.002803588096575216 0.0 -0.0002756670348842416 0.0 0.0
0.00684040837064975 -0.004944213614310855 0.0 -0.00040721901076454237 0.0 0.0
0.010164691964794624 -0.007993159315070164 0.0 -0.000594466015403361 0.0 0.0
0.014447868822920606 -0.01199689721140218 0.0 -0.000840827981910014 0.0 0.0
0.019715618038109516 -0.016975642553261228 0.0 -0.0011267587651407063 0.0 0.0
0.026046307035373206 -0.023008698161304908 0.0 -0.0014190677316428535 0.0 0.0
0.033587353219792546 -0.030243066451411504 0.0 -0.001731000764687629 0.0 0.0
0.042498055817192085 -0.038841698757908105 0.0 -0.0020727237826440037 0.0 0.0
0.05289572815510463 -0.048918090685521554 0.0 -0.0024458811308644968 0.0 0.0
0.06472817174448847 -0.06041400437615785 0.0 -0.002856563493533637 0.0 0.0
0.07760998238988623 -0.07294491027390038 0.0 -0.003236496657838206 0.0 0.0
0.09074843489855663 -0.08572852547947729 0.0 -0.003419052773673964 0.0 0.0
0.10298792083910227 -0.09762833050156061 0.0 -0.0031727020569521924 0.0 0.0
0.11294966611395278 -0.10728745653659555 0.0 -0.002490965981895077 0.0 0.0
0.11899638749308308 -0.11300387625351238 0.0 -0.002113009611790728 0.0 0.0
0.11899638749307768 -0.11300387625350705 0.0 0.0021130096117942254 0.0 0.0
0.11294966611393309 -0.10728745653657956 0.0 0.002490965981908344 0.0 0.0
0.10298792083907136 -0.09762833050153219 0.0 0.0031727020569584097 0.0 0.0
0.09074843489851656 -0.08572852547943999 0.0 0.0034190527736802645 0.0 0.0
0.07760998238984398 -0.0729449102738613 0.0 0.003236496657832433 0.0 0.0
0.06472817174444523 -0.06041400437611344 0.0 0.0028565634935338036 0.0 0.0
0.05289572815506066 -0.048918090685481364 0.0 0.0024458811308644135 0.0 0.0
0.04249805581714711 -0.03884169875786547 0.0 0.002072723782643726 0.0 0.0
0.033587353219748844 -0.03024306645136776 0.0 0.0017310007646831882 0.0 0.0
0.02604630703533331 -0.023008698161264274 0.0 0.001419067731640855 0.0 0.0
0.019715618038076282 -0.016975642553230808 0.0 0.0011267587651374589 0.0 0.0
0.01444786882289456 -0.011996897211379531 0.0 0.0008408279819094311 0.0 0.0
0.010164691964774986 -0.007993159315050957 0.0 0.0005944660154018067 0.0 0.0
0.0068404083706350705 -0.0049442136142984205 0.0 0.0004072190107642648 0.0 0.0
0.004429409884077751 -0.002803588096567111 0.0 0.0002756670348835477 0.0 0.0
0.002840327267678494 -0.0014966156036085865 0.0 0.00020181767773405634 0.0 0.0
0.0020519602964136074 -0.0009187883957665344 0.0 0.00017085050488019338 0.0 0.0
0.001711851305031875 -0.0007113445403775231 0.0 7.192136674483152e-05 0.0 0.0
0.001985770102116008 -0.0010051259417019343 0.0 -0.0009679716193014276 0.0 0.0
0.00917170756324065 -0.010252098645384785 0.0 0.005551065085746709 0.0 0.0
0.006342667019891245 -0.00778047397582754 0.0 -0.0065639462374137425 0.0 0.0
0.001111417236983648 -0.0005085048006137627 0.0 0.00017429262266169254 0.0 0.0
0.001474521330819479 -0.0005521060461783911 0.0 -0.0001349128010133538 0.0 0.0
0.0018294071758070823 -0.0007996249458679383 0.0 -0.0004209841305019557 0.0 0.0
0.0024580267124757332 -0.0012173556031617183 0.0 -0.00047957426206207687 0.0 0.0
0.0038171817224562365 -0.002289605422150509 0.0 -0.0006646194381640658 0.0 0.0
0.005981174200535247 -0.0041678746658267984 0.0 -0.0010082783951120278 0.0 0.0
0.008990759210531555 -0.0068962790416231545 0.0 -0.001467593432964709 0.0 0.0
0.012865511848955402 -0.010495609171018216 0.0 -0.002036167063946742 0.0 0.0
0.017605717004172322 -0.014959273806754991 0.0 -0.0026747468904138316 0.0 0.0
0.023262142005098848 -0.02033642997474483 0.0 -0.0033290936240972513 0.0 0.0
0.029966831060545013 -0.02675986450344192 0.0 -0.003983832455410646 0.0 0.0
0.03790698114945229 -0.03441396169299926 0.0 -0.004719466713550585 0.0 0.0
0.04721879717214099 -0.043430864346702736 0.0 -0.005573620075641106 0.0 0.0
0.05786437477031017 -0.0537688025812344 0.0 -0.0065022440378413315 0.0 0.0
0.06951251084236271 -0.06509713976377651 0.0 -0.007363172631879827 0.0 0.0
0.08146533683914495 -0.07672589692637599 0.0 -0.007798049799551704 0.0 0.0
0.09268277553508289 -0.08762744105425213 0.0 -0.007377593906920832 0.0 0.0
0.10182047276992078 -0.09645346029448465 0.0 -0.00602839238222963 0.0 0.0
0.10725885881729498 -0.10166516503393197 0.0 -0.003692881424740835 0.0 0.0
0.10725885881728886 -0.10166516503392353 0.0 0.0036928814247531028 0.0 0.0
0.10182047276990316 -0.09645346029446378 0.0 0.006028392382254832 0.0 0.0
0.09268277553505593 -0.0876274410542246 0.0 0.007377593906936264 0.0 0.0
0.08146533683911046 -0.0767258969263438 0.0 0.00779804979956128 0.0 0.0
0.06951251084232518 -0.0650971397637432 0.0 0.007363172631876025 0.0 0.0
0.05786437477027134 -0.05376880258119665 0.0 0.006502244037840332 0.0 0.0
0.047218797172101284 -0.043430864346665654 0.0 0.005573620075640551 0.0 0.0
0.037906981149412405 -0.03441396169296396 0.0 0.004719466713550224 0.0 0.0
0.029966831060505877 -0.026759864503407726 0.0 0.003983832455405956 0.0 0.0
0.023262142005063102 -0.020336429974713077 0.0 0.0033290936240926716 0.0 0.0
0.017605717004142596 -0.014959273806725903 0.0 0.0026747468904069205 0.0 0.0
0.012865511848931477 -0.010495609170994902 0.0 0.002036167063944605 0.0 0.0
0.00899075921051376 -0.006896279041605946 0.0 0.0014675934329609341 0.0 0.0
0.005981174200522105 -0.00416787466581503 0.0 0.0010082783951100849 0.0 0.0
0.0038171817224484927 -0.0022896054221430706 0.0 0.0006646194381622061 0.0 0.0
0.0024580267124725552 -0.0012173556031590538 0.0 0.000479574262060245 0.0 0.0
0.0018294071758062358 -0.0007996249458671056 0.0 0.00042098413050037364 0.0 0.0
0.001474521330819184 -0.0005521060461791127 0.0 0.0001349128010127154 0.0 0.0
0.0011114172369838249 -0.0005085048006134851 0.0 -0.0001742926226637742 0.0 0.0
0.006342667019880538 -0.007780473975814791 0.0 0.006563946237391205 0.0 0.0
0.0046109488183690706 -0.006162359995814409 0.0 -0.006054690652851219 0.0 0.0
0.0006595798026114152 -0.0003210278099216035 0.0 -0.0005004754312053772 0.0 0.0
0.001182575104585415 -0.0004066186420367268 0.0 -0.00040241291895484754 0.0 0.0
0.001607637262527977 -0.0006810278821093307 0.0 -0.0006575027624281526 0.0 0.0
0.002121119877461105 -0.0009918638697196114 0.0 -0.0007497421024306727 0.0 0.0
0.0032208873419448704 -0.001809975560654764 0.0 -0.0009686664050614635 0.0 0.0
0.005120156570541226 -0.003403106178667681 0.0 -0.0014584098455627248 0.0 0.0
0.00780248441972535 -0.00580163816889212 0.0 -0.002148864041180726 0.0 0.0
0.011259942635315788 -0.008984069352634183 0.0 -0.0029768736313415256 0.0 0.0
0.015470540621627758 -0.012929738058033102 0.0 -0.0038920527438819352 0.0 0.0
0.020461405560823653 -0.017660646915933498 0.0 -0.0048330841554313775 0.0 0.0
0.02634680404577102 -0.023288143109385206 0.0 -0.005775601056728474 0.0 0.0
0.03331035760300917 -0.029991310604466248 0.0 -0.006796575381396303 0.0 0.0
0.041513244732515435 -0.037925989962934725 0.0 -0.008006098304483983 0.0 0.0
0.05094815354550847 -0.047083203556425035 0.0 -0.009362311052812267 0.0 0.0
0.06134446981257946 -0.05719197921677299 0.0 -0.010604709634630227 0.0 0.0
0.07211514054986043 -0.06766965057479579 0.0 -0.011273057354419719 0.0 0.0
0.08233179781261696 -0.0775879137296962 0.0 -0.01081889736153746 0.0 0.0
0.09071586122256133 -0.08569221058450172 0.0 -0.008830271877407037 0.0 0.0
0.09583507913970993 -0.09061944378922826 0.0 -0.00490378448152784 0.0 0.0
0.09583507913970352 -0.09061944378922338 0.0 0.004903784481549489 0.0 0.0
0.09071586122254585 -0.08569221058449195 0.0 0.00883027187743951 0.0 0.0
0.08233179781259305 -0.07758791372967844 0.0 0.01081889736156011 0.0 0.0
0.07211514054983051 -0.06766965057476737 0.0 0.011273057354431126 0.0 0.0
0.061344469812546154 -0.05719197921673991 0.0 0.010604709634626286 0.0 0.0
0.0509481535454743 -0.047083203556390396 0.0 0.009362311052810768 0.0 0.0
0.04151324473248014 -0.03792598996290031 0.0 0.0080060983044824 0.0 0.0
0.03331035760297432 -0.029991310604432497 0.0 0.006796575381393777 0.0 0.0
0.026346804045736555 -0.023288143109351234 0.0 0.005775601056721147 0.0 0.0
0.020461405560792623 -0.01766064691590441 0.0 0.00483308415542405 0.0 0.0
0.015470540621601192 -0.012929738058009788 0.0 0.0038920527438716657 0.0 0.0
0.011259942635294784 -0.00898406935261331 0.0 0.0029768736313360855 0.0 0.0
0.007802484419709016 -0.005801638168876688 0.0 0.0021488640411754523 0.0 0.0
0.005120156570529832 -0.003403106178658022 0.0 0.0014584098455585337 0.0 0.0
0.003220887341938844 -0.001809975560649546 0.0 0.0009686664050581606 0.0 0.0
0.002121119877458888 -0.0009918638697187232 0.0 0.0007497421024304785 0.0 0.0
0.0016076372625271618 -0.0006810278821093307 0.0 0.0006575027624279861 0.0 0.0
0.0011825751045853872 -0.0004066186420366713 0.0 0.0004024129189542647 0.0 0.0
0.000659579802611554 -0.0003210278099201047 0.0 0.0005004754312036008 0.0 0.0
0.004610948818359301 -0.006162359995802648 0.0 0.006054690652833539 0.0 0.0
0.003425837552323577 -0.004950961966615514 0.0 -0.005134401024804253 0.0 0.0
0.00041397473570761734 -0.00024466683886248397 0.0 -0.00107247444478481 0.0 0.0
0.0009135888616737323 -0.00029166654041884454 0.0 -0.0007579187949863786 0.0 0.0
0.0013726667488075522 -0.0005630191545472618 0.0 -0.0009134211089135424 0.0 0.0
0.0018208585532224486 -0.00081861240568748 0.0 -0.0010265895555955362 0.0 0.0
0.0026742012514642394 -0.001402069258020222 0.0 -0.0012174951143951729 0.0 0.0
0.004261206368863499 -0.00267104967561127 0.0 -0.0017639708230557105 0.0 0.0
0.006610056398324904 -0.00471893601733564 0.0 -0.0026320703950879487 0.0 0.0
0.0096414393367774 -0.00747721135961843 0.0 -0.0036558302482732064 0.0 0.0
0.013321370095707191 -0.010902032108918602 0.0 -0.004779624766777346 0.0 0.0
0.017653825949831677 -0.014991913336416696 0.0 -0.005927077040756762 0.0 0.0
0.022731198523948483 -0.019832816168603662 0.0 -0.007079364926331655 0.0 0.0
0.02872622910245281 -0.025593293634964542 0.0 -0.008334865644491901 0.0 0.0
0.03580812281205601 -0.032433181824916835 0.0 -0.00977609410962535 0.0 0.0
0.044005626337594334 -0.04038310681180168 0.0 -0.011388477776306749 0.0 0.0
0.05312600241080384 -0.04924991492682462 0.0 -0.012928679494536993 0.0 0.0
0.06269619762186324 -0.05855692448368366 0.0 -0.013837508205565674 0.0 0.0
0.07191255871171005 -0.06750343190406793 0.0 -0.013416191986652892 0.0 0.0
0.0796400255465088 -0.07497907417659988 0.0 -0.010980244226473423 0.0 0.0
0.08458571328565438 -0.07974986592472177 0.0 -0.005908339672324681 0.0 0.0
0.08458571328564801 -0.07974986592471822 0.0 0.005908339672352936 0.0 0.0
0.07964002554649492 -0.07497907417658523 0.0 0.010980244226510505 0.0 0.0
0.07191255871168865 -0.06750343190404395 0.0 0.01341619198667987 0.0 0.0
0.06269619762183737 -0.05855692448365879 0.0 0.01383750820557833 0.0 0.0
0.05312600241077456 -0.04924991492679842 0.0 0.01292867949453308 0.0 0.0
0.04400562633756454 -0.04038310681177415 0.0 0.01138847777630314 0.0 0.0
0.03580812281202542 -0.03243318182488775 0.0 0.009776094109621769 0.0 0.0
0.028726229102422812 -0.025593293634935232 0.0 0.008334865644487932 0.0 0.0
0.02273119852391889 -0.019832816168577905 0.0 0.007079364926323606 0.0 0.0
0.017653825949804997 -0.014991913336393381 0.0 0.0059270770407487405 0.0 0.0
0.013321370095683932 -0.010902032108896842 0.0 0.0047796247667664105 0.0 0.0
0.009641439336758872 -0.007477211359601554 0.0 0.0036558302482673777 0.0 0.0
0.006610056398310582 -0.004718936017322095 0.0 0.0026320703950820368 0.0 0.0
0.004261206368853826 -0.0026710496756043867 0.0 0.0017639708230520745 0.0 0.0
0.0026742012514597846 -0.0014020692580186678 0.0 0.001217495114392536 0.0 0.0
0.0018208585532209776 -0.0008186124056865918 0.0 0.001026589555593732 0.0 0.0
0.0013726667488067057 -0.0005630191545473728 0.0 0.0009134211089115163 0.0 0.0
0.0009135888616739196 -0.0002916665404195662 0.0 0.000757918794983492 0.0 0.0
0.00041397473570767285 -0.0002446668388615125 0.0 0.0010724744447821732 0.0 0.0
0.003425837552315264 -0.004950961966605223 0.0 0.005134401024789903 0.0 0.0
0.0025466697081673803 -0.003973248140739322 0.0 -0.004208496746729129 0.0 0.0
0.00027426557655606254 -0.00021465129750797285 0.0 -0.0015155636639280212 0.0 0.0
0.0006845711388027351 -0.00020607844411146825 0.0 -0.0011212881497101868 0.0 0.0
0.0011291634920763197 -0.00044727736779814897 0.0 -0.001185214178405558 0.0 0.0
0.0015391375040904945 -0.0006726557994861659 0.0 -0.0013001159790740624 0.0 0.0
0.0021908752488954686 -0.0010755111297097164 0.0 -0.001463866191642682 0.0 0.0
0.003439218583858511 -0.00200317146584994 0.0 -0.001947610017670881 0.0 0.0
0.005415468756704414 -0.0036592283151875016 0.0 -0.002876465057031208 0.0 0.0
0.008020735050456973 -0.005989221617003659 0.0 -0.00406395846142657 0.0 0.0
0.011168423457554026 -0.008889411587721385 0.0 -0.005327635842946349 0.0 0.0
0.014849389597722785 -0.012342690104822251 0.0 -0.0066137212127928 0.0 0.0
0.0191296366710575 -0.016407697430437462 0.0 -0.007897557696294022 0.0 0.0
0.024165035262809435 -0.021231328252468096 0.0 -0.009278912424718205 0.0 0.0
0.030125182142498874 -0.026978010309115064 0.0 -0.010878024113707363 0.0 0.0
0.03707217369038662 -0.03370744276657511 0.0 -0.012645500759863287 0.0 0.0
0.044884560647737035 -0.041296708580779384 0.0 -0.014318501819729434 0.0 0.0
0.053209334006665096 -0.04939367102375769 0.0 -0.01541467526030671 0.0 0.0
0.06141266268556722 -0.057361024329085186 0.0 -0.015138074786920419 0.0 0.0
0.06853958162319758 -0.0642620717127822 0.0 -0.01253176029366354 0.0 0.0
0.07340818713871092 -0.06896399068876446 0.0 -0.006758623480820458 0.0 0.0
0.07340818713870513 -0.06896399068876091 0.0 0.006758623480848991 0.0 0.0
0.06853958162318505 -0.0642620717127711 0.0 0.01253176029370251 0.0 0.0
0.06141266268554868 -0.05736102432906387 0.0 0.015138074786948008 0.0 0.0
0.05320933400664306 -0.049393671023738595 0.0 0.015414675260320643 0.0 0.0
0.044884560647711805 -0.04129670858075607 0.0 0.014318501819726381 0.0 0.0
0.03707217369036081 -0.033707442766548024 0.0 0.012645500759859707 0.0 0.0
0.03012518214247331 -0.026978010309091083 0.0 0.010878024113703977 0.0 0.0
0.02416503526278424 -0.021231328252446557 0.0 0.00927891242471518 0.0 0.0
0.01912963667103265 -0.016407697430417922 0.0 0.007897557696285307 0.0 0.0
0.014849389597699936 -0.012342690104803378 0.0 0.006613721212781698 0.0 0.0
0.011168423457534632 -0.008889411587704954 0.0 0.005327635842931666 0.0 0.0
0.008020735050440903 -0.0059892216169892265 0.0 0.004063958461418882 0.0 0.0
0.00541546875669266 -0.0036592283151775096 0.0 0.0028764650570239636 0.0 0.0
0.0034392185838509892 -0.0020031714658438338 0.0 0.0019476100176673283 0.0 0.0
0.0021908752488921657 -0.0010755111297083841 0.0 0.0014638661916400453 0.0 0.0
0.0015391375040894606 -0.0006726557994868321 0.0 0.0013001159790725636 0.0 0.0
0.001129163492075591 -0.00044727736779853755 0.0 0.001185214178403976 0.0 0.0
0.000684571138802742 -0.00020607844411107967 0.0 0.0011212881497076888 0.0 0.0
0.0002742655765561042 -0.00021465129750705692 0.0 0.0015155636639250791 0.0 0.0
0.002546669708160587 -0.003973248140731263 0.0 0.004208496746717916 0.0 0.0
0.001873900123353034 -0.0031647413730203633 0.0 -0.0034116597514511626 0.0 0.0
0.00018595859676406867 -0.00020203334022933506 0.0 -0.0018417379160816372 0.0 0.0
0.0004900323551913152 -0.00014084609350711874 0.0 -0.0014491671911127935 0.0 0.0
0.0008846567475457659 -0.0003341766605723384 0.0 -0.0014498618700244936 0.0 0.0
0.0012610931949864138 -0.0005404456930920842 0.0 -0.0015646276665842451 0.0 0.0
0.0017569265079457747 -0.0008231843548158757 0.0 -0.001720848616871301 0.0 0.0
0.0026911601944935373 -0.0014476019401710172 0.0 -0.0021157694236006164 0.0 0.0
0.0042477835072200695 -0.002671774927161197 0.0 -0.002947733705464306 0.0 0.0
0.006402162882244676 -0.0045324440980554215 0.0 -0.0041618531790916236 0.0 0.0
0.009023013560624356 -0.0069087509547136605 0.0 -0.005521118706495409 0.0 0.0
0.01205633742962784 -0.00972835436953412 0.0 -0.0068723743655805525 0.0 0.0
0.015552263674215333 -0.013026467249088514 0.0 -0.008216130176462416 0.0 0.0
0.01964146009444151 -0.016925982324129674 0.0 -0.009650196655389104 0.0 0.0
0.0244830779746555 -0.021580567821736674 0.0 -0.011271954462349187 0.0 0.0
0.03017166506552333 -0.027081178508419068 0.0 -0.013075256695923576 0.0 0.0
0.03665139228648745 -0.03337033677882362 0.0 -0.014820822410719692 0.0 0.0
0.04367767468701508 -0.04020430227549543 0.0 -0.016005607120485932 0.0 0.0
0.05081380629537893 -0.04714432497785648 0.0 -0.015901032585840857 0.0 0.0
0.05734454230680398 -0.05347762097525921 0.0 -0.013445039519879576 0.0 0.0
0.06220427747966914 -0.05817314336263424 0.0 -0.007466098683278466 0.0 0.0
0.062204277479664116 -0.058173143362628466 0.0 0.007466098683306555 0.0 0.0
0.05734454230679288 -0.05347762097525122 0.0 0.01344503951991749 0.0 0.0
0.05081380629536347 -0.0471443249778436 0.0 0.015901032585868058 0.0 0.0
0.043677674686996584 -0.040204302275478554 0.0 0.016005607120497756 0.0 0.0
0.03665139228646619 -0.03337033677880563 0.0 0.014820822410714862 0.0 0.0
0.030171665065501743 -0.027081178508400194 0.0 0.013075256695917914 0.0 0.0
0.024483077974634795 -0.021580567821716468 0.0 0.011271954462344635 0.0 0.0
0.019641460094421317 -0.01692598232410991 0.0 0.009650196655385912 0.0 0.0
0.01555226367419485 -0.013026467249068752 0.0 0.008216130176452896 0.0 0.0
0.01205633742960921 -0.0097283543695168 0.0 0.0068723743655695335 0.0 0.0
0.009023013560608584 -0.006908750954698117 0.0 0.00552111870648192 0.0 0.0
0.006402162882231638 -0.004532444098042543 0.0 0.004161853179084407 0.0 0.0
0.004247783507210862 -0.0026717749271543134 0.0 0.002947733705457145 0.0 0.0
0.002691160194488035 -0.0014476019401671314 0.0 0.0021157694235976188 0.0 0.0
0.0017569265079434154 -0.0008231843548149875 0.0 0.0017208486168685255 0.0 0.0
0.001261093194985588 -0.0005404456930911961 0.0 0.0015646276665829129 0.0 0.0
0.0008846567475452177 -0.00033417666057206086 0.0 0.0014498618700221622 0.0 0.0
0.0004900323551910724 -0.00014084609350711874 0.0 0.0014491671911108228 0.0 0.0
0.00018595859676404092 -0.0002020333402292518 0.0 0.001841737916079389 0.0 0.0
0.0018739001233477326 -0.0031647413730139465 0.0 0.003411659751442697 0.0 0.0
0.0013552494403609866 -0.002491220178073239 0.0 -0.0027676611972902165 0.0 0.0
0.0001202629030827157 -0.00019765480976197125 0.0 -0.0020688267047623 0.0 0.0
0.0003190516526726597 -8.592090560877175e-05 0.0 -0.0017225786362578543 0.0 0.0
0.000645253239498253 -0.0002246694308002395 0.0 -0.0016914769386243977 0.0 0.0
0.0009756565610620424 -0.0004107681054840162 0.0 -0.0018102691957680994 0.0 0.0
0.0013587597412667088 -0.0006127363428709565 0.0 -0.001952298137320757 0.0 0.0
0.0020161468963439677 -0.0009988851176773172 0.0 -0.002256982222268722 0.0 0.0
0.00315549335920548 -0.0018105632619729306 0.0 -0.0029241871415131016 0.0 0.0
0.00481150288939048 -0.0031569370601816082 0.0 -0.003986746906522398 0.0 0.0
0.0068914423266403235 -0.0049797858109736914 0.0 -0.005314612215155778 0.0 0.0
0.009282952058229849 -0.007167372817510342 0.0 -0.0066865894457152075 0.0 0.0
0.012007570964258363 -0.009707727645374531 0.0 -0.0080215027854324 0.0 0.0
0.01516709037513482 -0.012697412487117976 0.0 -0.009417538854843366 0.0 0.0
0.018905086443887303 -0.01627261814312342 0.0 -0.010975832138016506 0.0 0.0
0.02332748806271663 -0.02053837337172637 0.0 -0.01269041539680682 0.0 0.0
0.028450189395131817 -0.02549909224582292 0.0 -0.014364317482129185 0.0 0.0
0.03412831365400028 -0.031020916033764667 0.0 -0.015588950502118837 0.0 0.0
0.04011196623614785 -0.03685475581462505 0.0 -0.01570820726949551 0.0 0.0
0.0459801697787684 -0.04256192861324859 0.0 -0.013676438009402325 0.0 0.0
0.050865370343745955 -0.04728077803442998 0.0 -0.008019596488922587 0.0 0.0
0.05086537034374204 -0.047280778034431314 0.0 0.008019596488949232 0.0 0.0
0.045980169778759114 -0.04256192861323971 0.0 0.013676438009440017 0.0 0.0
0.040111966236135166 -0.03685475581461173 0.0 0.0157082072695236 0.0 0.0
0.03412831365398494 -0.031020916033752233 0.0 0.015588950502129217 0.0 0.0
0.02845018939511483 -0.02549909224580693 0.0 0.014364317482123301 0.0 0.0
0.023327488062699672 -0.020538373371709495 0.0 0.012690415396800048 0.0 0.0
0.01890508644387144 -0.01627261814310632 0.0 0.010975832138012065 0.0 0.0
0.015167090375119652 -0.012697412487100657 0.0 0.009417538854839203 0.0 0.0
0.012007570964242611 -0.009707727645360098 0.0 0.008021502785424073 0.0 0.0
0.009282952058215513 -0.007167372817497908 0.0 0.006686589445704383 0.0 0.0
0.006891442326628083 -0.004979785810965032 0.0 0.005314612215142955 0.0 0.0
0.0048115028893808 -0.0031569370601722824 0.0 0.003986746906515681 0.0 0.0
0.0031554933591987355 -0.0018105632619654921 0.0 0.002924187141507939 0.0 0.0
0.0020161468963401236 -0.0009988851176735425 0.0 0.002256982222264725 0.0 0.0
0.0013587597412652724 -0.000612736342868625 0.0 0.0019522981373183979 0.0 0.0
0.0009756565610612444 -0.00041076810548323905 0.0 0.0018102691957665729 0.0 0.0
0.0006452532394978366 -0.0002246694308003505 0.0 0.001691476938621428 0.0 0.0
0.000319051652672514 -8.592090560810561e-05 0.0 0.0017225786362547457 0.0 0.0
0.00012026290308254917 -0.0001976548097616937 0.0 0.002068826704759802 0.0 0.0
0.0013552494403572257 -0.002491220178068616 0.0 0.002767661197284277 0.0 0.0
0.0009646073308043623 -0.0019492573118473355 0.0 -0.0022863911454387986 0.0 0.0
5.772404597420566e-05 -0.0001938804667597216 0.0 -0.0022036789114692756 0.0 0.0
0.00016335493773414478 -3.3853514647297356e-05 0.0 -0.0019406070502956951 0.0 0.0
0.000413543973378519 -0.00012066225146523113 0.0 -0.0018967062411206492 0.0 0.0
0.0006812282904749417 -0.00027456493111144287 0.0 -0.002013027363491654 0.0 0.0
0.0009738652924127789 -0.000432109641230638 0.0 -0.00218372253852836 0.0 0.0
0.0014086504718057585 -0.0006546130350173485 0.0 -0.0024176393006470065 0.0 0.0
0.00215833693355591 -0.0011052137897544778 0.0 -0.0028565763528606847 0.0 0.0
0.0032987310526192276 -0.0019358452024500483 0.0 -0.0036425126958636866 0.0 0.0
0.0047961298655319895 -0.003161361130590956 0.0 -0.004747154150860855 0.0 0.0
0.006539660077863135 -0.004694520091687027 0.0 -0.006001141536540078 0.0 0.0
0.008501491935966596 -0.006482924714353855 0.0 -0.007261751366655134 0.0 0.0
0.010752369241195284 -0.00857760809527397 0.0 -0.0085626717128085 0.0 0.0
0.013404524649385574 -0.011088268904292597 0.0 -0.009961735667676108 0.0 0.0
0.016568187052369995 -0.014120127560519391 0.0 -0.011477276097272948 0.0 0.0
0.02030659965463337 -0.0177311908829636 0.0 -0.012980844013103454 0.0 0.0
0.02459050984099495 -0.021885913789323475 0.0 -0.014113657624568787 0.0 0.0
0.029316100371469422 -0.02650507477469377 0.0 -0.014412878864141276 0.0 0.0
0.034372491275926745 -0.031461625360580836 0.0 -0.013101623719499356 0.0 0.0
0.039263223042337494 -0.036188537572705126 0.0 -0.008392441959087504 0.0 0.0
0.03926322304233493 -0.036188537572702906 0.0 0.00839244195910871 0.0 0.0
0.0343724912759201 -0.031461625360571954 0.0 0.013101623719533606 0.0 0.0
0.02931610037145954 -0.026505074774684445 0.0 0.01441287886416548 0.0 0.0
0.024590509840983113 -0.021885913789311484 0.0 0.014113657624576892 0.0 0.0
0.02030659965462099 -0.01773119088295161 0.0 0.012980844013097903 0.0 0.0
0.01656818705235788 -0.014120127560508067 0.0 0.01147727609726662 0.0 0.0
0.013404524649374555 -0.011088268904283272 0.0 0.00996173566767311 0.0 0.0
0.010752369241185195 -0.008577608095268197 0.0 0.008562671712805336 0.0 0.0
0.008501491935955618 -0.006482924714343863 0.0 0.007261751366648694 0.0 0.0
0.006539660077853213 -0.004694520091675702 0.0 0.006001141536531807 0.0 0.0
0.004796129865523274 -0.00316136113058052 0.0 0.0047471541508509185 0.0 0.0
0.0032987310526130104 -0.0019358452024449413 0.0 0.003642512695857414 0.0 0.0
0.002158336933551483 -0.0011052137897514802 0.0 0.0028565763528576316 0.0 0.0
0.0014086504718032605 -0.0006546130350146839 0.0 0.0024176393006443975 0.0 0.0
0.0009738652924120156 -0.0004321096412316372 0.0 0.0021837225385255288 0.0 0.0
0.0006812282904742339 -0.000274564931111998 0.0 0.002013027363488823 0.0 0.0
0.0004135439733782553 -0.00012066225146473153 0.0 0.0018967062411179292 0.0 0.0
0.0001633549377340754 -3.385351464663122e-05 0.0 0.001940607050292753 0.0 0.0
5.7724045973928106e-05 -0.00019388046675963833 0.0 0.002203678911466972 0.0 0.0
0.0009646073308019754 -0.0019492573118439441 0.0 0.002286391145435024 0.0 0.0
0.0006865354040827554 -0.0015468066257335877 0.0 -0.001979393349516856 0.0 0.0
-8.405571046296578e-06 -0.00018872928782287524 0.0 -0.0022882551419029507 0.0 0.0
1.8154453717666996e-05 1.9035754828200524e-05 0.0 -0.002101482099093721 0.0 0.0
0.00018996358606783448 -2.2139623574224387e-05 0.0 -0.002057056609864466 0.0 0.0
0.00038234402597003836 -0.00013420005327835494 0.0 -0.0021630864517275805 0.0 0.0
0.0005806594666976916 -0.00025018348445637884 0.0 -0.0023610249083925172 0.0 0.0
0.000842559659569378 -0.0003831786370875889 0.0 -0.0026112694261327396 0.0 0.0
0.0012582944319141642 -0.0005873097144002415 0.0 -0.002884673829601614 0.0 0.0
0.0019063768540325543 -0.000956588825728133 0.0 -0.0032818059673394573 0.0 0.0
0.002787768211292979 -0.001568203603946161 0.0 -0.003952643786851673 0.0 0.0
0.0038543376932478057 -0.002410006083647387 0.0 -0.004875046121617654 0.0 0.0
0.005042775202208041 -0.0034286814471218285 0.0 -0.0059185581925663144 0.0 0.0
0.006398973041678246 -0.004634872925918465 0.0 -0.007062269965210088 0.0 0.0
0.007991347516823274 -0.006098037739663331 0.0 -0.008261912495233392 0.0 0.0
0.009906052551465372 -0.007902121034286669 0.0 -0.00952056937317225 0.0 0.0
0.012240899535978012 -0.010138661236431812 0.0 -0.010783426100041849 0.0 0.0
0.015083679315727225 -0.012883022011417555 0.0 -0.011822489478650056 0.0 0.0
0.01848039046630208 -0.016180788844434524 0.0 -0.012175921812334234 0.0 0.0
0.022485345474159243 -0.02016298396852889 0.0 -0.011530840482067095 0.0 0.0
0.027219480959112405 -0.024773595982457763 0.0 -0.008444008903606415 0.0 0.0
0.027219480959111225 -0.0247735959824551 0.0 0.008444008903625566 0.0 0.0
0.022485345474155566 -0.020162983968523118 0.0 0.011530840482096905 0.0 0.0
0.01848039046629503 -0.016180788844427862 0.0 0.012175921812353607 0.0 0.0
0.015083679315719287 -0.012883022011410894 0.0 0.011822489478654552 0.0 0.0
0.012240899535970684 -0.010138661236424928 0.0 0.010783426100036242 0.0 0.0
0.009906052551458475 -0.007902121034280007 0.0 0.009520569373166199 0.0 0.0
0.007991347516817127 -0.006098037739657558 0.0 0.008261912495231227 0.0 0.0
0.0063989730416731255 -0.0046348729259104715 0.0 0.007062269965209866 0.0 0.0
0.005042775202202074 -0.0034286814471169436 0.0 0.005918558192560874 0.0 0.0
0.00385433769324256 -0.0024100060836451664 0.0 0.004875046121611382 0.0 0.0
0.0027877682112878582 -0.0015682036039417202 0.0 0.003952643786842902 0.0 0.0
0.0019063768540294596 -0.0009565888257236921 0.0 0.0032818059673362376 0.0 0.0
0.0012582944319119022 -0.0005873097143984651 0.0 0.0028846738295995877 0.0 0.0
0.0008425596595681012 -0.00038317863708869915 0.0 0.0026112694261295477 0.0 0.0
0.0005806594666973308 -0.0002501834844567119 0.0 0.002361024908389575 0.0 0.0
0.0003823440259696914 -0.00013420005327835494 0.0 0.002163086451725388 0.0 0.0
0.00018996358606783448 -2.2139623574113365e-05 0.0 0.0020570566098627174 0.0 0.0
1.8154453717486585e-05 1.9035754828644613e-05 0.0 0.0021014820990915284 0.0 0.0
-8.40557104635209e-06 -0.00018872928782237564 0.0 0.0022882551419013686 0.0 0.0
0.000686535404081437 -0.0015468066257312754 0.0 0.0019793933495147187 0.0 0.0
0.0004933335769968933 -0.0012468333077700067 0.0 -0.0017714237220101403 0.0 0.0
-7.173597284250433e-05 -0.00017853500606895834 0.0 -0.002332267927565135 0.0 0.0
-0.00011887688962164411 7.114601505742169e-05 0.0 -0.002209736884838026 0.0 0.0
-2.578900214639246e-05 7.217056635344665e-05 0.0 -0.002165777324732998 0.0 0.0
8.342624776039309e-05 5.819403339879514e-06 0.0 -0.0022560522373080705 0.0 0.0
0.0001786827595417484 -6.232821217300177e-05 0.0 -0.002460155182635204 0.0 0.0
0.0002788120308894887 -0.00012329920219567025 0.0 -0.0027445439218548584 0.0 0.0
0.00041592532032738716 -0.00019059764385120914 0.0 -0.0030128276595456083 0.0 0.0
0.000622956362981375 -0.000290032131192941 0.0 -0.0032485383251827926 0.0 0.0
0.000906422182835806 -0.0004349009381507951 0.0 -0.003524427276124842 0.0 0.0
0.0012663300965323476 -0.0006336097488843784 0.0 -0.003971512787787068 0.0 0.0
0.0016615572836946452 -0.000890157681994852 0.0 -0.0046091560624832995 0.0 0.0
0.0021120132449324036 -0.0012047304932598646 0.0 -0.0054428816461732366 0.0 0.0
0.002642629769152874 -0.0016031912398482007 0.0 -0.006463269349117395 0.0 0.0
0.0033048795827418653 -0.002154274476564355 0.0 -0.007671133536463315 0.0 0.0
0.004222244384450111 -0.0029771499602326834 0.0 -0.008977645711071736 0.0 0.0
0.00559542104927245 -0.004253851745651627 0.0 -0.01011630192059948 0.0 0.0
0.0076565197339731605 -0.00618947344723253 0.0 -0.010583108459552792 0.0 0.0
0.01050652876677971 -0.008936311894809368 0.0 -0.009931314952185022 0.0 0.0
0.014559218262366669 -0.013065340506867251 0.0 -0.008317110954723317 0.0 0.0
0.014559218262366794 -0.01306534050686814 0.0 0.008317110954738915 0.0 0.0
0.010506528766778198 -0.008936311894812032 0.0 0.009931314952209003 0.0 0.0
0.007656519733969275 -0.006189473447232086 0.0 0.010583108459565838 0.0 0.0
0.0055954210492693696 -0.004253851745649406 0.0 0.010116301920600201 0.0 0.0
0.004222244384448279 -0.002977149960230907 0.0 0.00897764571106685 0.0 0.0
0.003304879582740186 -0.002154274476563245 0.0 0.007671133536457542 0.0 0.0
0.0026426297691518608 -0.0016031912398473125 0.0 0.006463269349115175 0.0 0.0
0.0021120132449320705 -0.0012047304932598646 0.0 0.0054428816461731255 0.0 0.0
0.0016615572836938958 -0.0008901576819944079 0.0 0.004609156062477915 0.0 0.0
0.0012663300965318897 -0.0006336097488846004 0.0 0.003971512787782405 0.0 0.0
0.0009064221828346125 -0.00043490093814857467 0.0 0.0035244272761186246 0.0 0.0
0.0006229563629810836 -0.00029003213118961035 0.0 0.0032485383251809608 0.0 0.0
0.0004159253203269292 -0.00019059764384876665 0.0 0.0030128276595436654 0.0 0.0
0.0002788120308892389 -0.00012329920219522617 0.0 0.002744543921852277 0.0 0.0
0.00017868275954183166 -6.232821217200257e-05 0.0 0.0024601551826326784 0.0 0.0
8.342624776040697e-05 5.81940334065667e-06 0.0 0.002256052237305295 0.0 0.0
-2.5789002146184292e-05 7.217056635400176e-05 0.0 0.0021657773247306944 0.0 0.0
-0.00011887688962178289 7.114601505781026e-05 0.0 0.0022097368848361387 0.0 0.0
-7.173597284237943e-05 -0.00017853500606912487 0.0 0.0023322679275636915 0.0 0.0
0.0004933335769960467 -0.001246833307769082 0.0 0.0017714237220079754 0.0 0.0
0.0003585660887874542 -0.001016266722066006 0.0 -0.0016149700432023517 0.0 0.0
-0.0001293365795631135 -0.00015713633123209947 0.0 -0.002325243866634741 0.0 0.0
-0.0002476044331842231 0.00012000855783128594 0.0 -0.0022666509671074586 0.0 0.0
-0.00023392015038256608 0.00016252396096438915 0.0 -0.002219430707829817 0.0 0.0
-0.00021188980869690788 0.000143016680915653 0.0 -0.002286576504576504 0.0 0.0
-0.00022477892562618174 0.0001264881357165848 0.0 -0.0024711736773794513 0.0 0.0
-0.0002902624349440941 0.00013992959289443885 0.0 -0.002746711881706443 0.0 0.0
-0.0004164275684113983 0.00019243401917212744 0.0 -0.003014494281183666 0.0 0.0
-0.0006214128690776588 0.0002892188344036928 0.0 -0.0032485058868862438 0.0 0.0
-0.0009049839951411343 0.00043278159515991454 0.0 -0.003521836463333261 0.0 0.0
-0.0012643184756826742 0.0006330545899466689 0.0 -0.0039668754721044475 0.0 0.0
-0.0016698242957231962 0.0008984139356591481 0.0 -0.004606640109141524 0.0 0.0
-0.0021382865396428336 0.0012258047755480117 0.0 -0.005439716050614607 0.0 0.0
-0.002686003988235361 0.001630327274124932 0.0 -0.0064639373836608005 0.0 0.0
-0.003284856739380171 0.002098082400056489 0.0 -0.007690689609673118 0.0 0.0
-0.0038011436568685664 0.0025078370587645615 0.0 -0.009091063880855732 0.0 0.0
-0.003951979726856902 0.002613451683937562 0.0 -0.010651199588239568 0.0 0.0
-0.003352435889542052 0.0021256716484554516 0.0 -0.012332130932204477 0.0 0.0
-0.0016835681015830717 0.0009556403545021297 0.0 -0.013669198664163662 0.0 0.0
0.0020807551262590346 -0.002474594581790779 0.0 -0.01171685084881996 0.0 0.0
0.0020807551262591317 -0.0024745945817894466 0.0 0.011716850848832727 0.0 0.0
-0.0016835681015836823 0.0009556403545003533 0.0 0.013669198664176985 0.0 0.0
-0.003352435889541372 0.0021256716484545635 0.0 0.012332130932210472 0.0 0.0
-0.003951979726853974 0.00261345168393623 0.0 0.010651199588237459 0.0 0.0
-0.003801143656864611 0.0025078370587630072 0.0 0.00909106388084957 0.0 0.0
-0.0032848567393768124 0.0020980824000531584 0.0 0.0076906896096678445 0.0 0.0
-0.002686003988231364 0.001630327274120491 0.0 0.00646393738365697 0.0 0.0
-0.002138286539638351 0.001225804775544681 0.0 0.005439716050613552 0.0 0.0
-0.001669824295718561 0.0008984139356573717 0.0 0.004606640109135474 0.0 0.0
-0.0012643184756784276 0.0006330545899451145 0.0 0.0039668754720998955 0.0 0.0
-0.0009049839951380118 0.00043278159515836023 0.0 0.003521836463327599 0.0 0.0
-0.0006214128690755771 0.0002892188344019164 0.0 0.0032485058868851335 0.0 0.0
-0.0004164275684101909 0.0001924340191714613 0.0 0.0030144942811817232 0.0 0.0
-0.00029026243494330306 0.00013992959289532703 0.0 0.0027467118817034175 0.0 0.0
-0.00022477892562559887 0.00012648813571669582 0.0 0.0024711736773768422 0.0 0.0
-0.0002118898086965748 0.00014301668091587505 0.0 0.002286576504573784 0.0 0.0
-0.00023392015038213587 0.00016252396096483324 0.0 0.0022194307078271247 0.0 0.0
-0.0002476044331840843 0.00012000855783184106 0.0 0.002266650967104933 0.0 0.0
-0.0001293365795629886 -0.00015713633123204396 0.0 0.002325243866633242 0.0 0.0
0.0003585660887870379 -0.0010162667220652358 0.0 0.0016149700432012137 0.0 0.0
0.00025961139680107104 -0.0008134826590815158 0.0 -0.0014522451697412952 0.0 0.0
-0.00018213928948231095 -0.00012746327735352336 0.0 -0.002268361370345945 0.0 0.0
-0.00036798720561496967 0.00016643601201760116 0.0 -0.0022692219828562843 0.0 0.0
-0.00043415495230055 0.0002479481845298892 0.0 -0.0022169112656182655 0.0 0.0
-0.000500549863846303 0.0002755578461451913 0.0 -0.002253694372915366 0.0 0.0
-0.0006236946508601376 0.00031180022612264935 0.0 -0.0024050734541602725 0.0 0.0
-0.0008534283352429478 0.0003993408560790668 0.0 -0.0026259563905659256 0.0 0.0
-0.0012586028803137639 0.000589051611299185 0.0 -0.0028880911067523385 0.0 0.0
-0.0019042630094602414 0.0009548899713334169 0.0 -0.003280681466099278 0.0 0.0
-0.002785659867840559 0.0015667133003844924 0.0 -0.003950379826350436 0.0 0.0
-0.0038536733294523284 0.002411378398841757 0.0 -0.004873456687573885 0.0 0.0
-0.005050072765479155 0.0034381983869817834 0.0 -0.005913683088098587 0.0 0.0
-0.006423168679410465 0.0046611700859668925 0.0 -0.007043367760393104 0.0 0.0
-0.008034408443302499 0.006132697259697117 0.0 -0.008239272854140833 0.0 0.0
-0.009891394059392572 0.007849266645210129 0.0 -0.009580597400353497 0.0 0.0
-0.011857959935675205 0.00967516990631001 0.0 -0.011170467766338898 0.0 0.0
-0.013594290972802361 0.01127623138950673 0.0 -0.01306177459190061 0.0 0.0
-0.014568863988186298 0.012142220453889685 0.0 -0.01514401253788722 0.0 0.0
-0.013905436262703325 0.011208146084043413 0.0 -0.016037240149106236 0.0 0.0
-0.009749412332502747 0.006948499138232922 0.0 -0.013675935072529177 0.0 0.0
-0.009749412332503288 0.006948499138234698 0.0 0.013675935072547829 0.0 0.0
-0.013905436262702922 0.01120814608404519 0.0 0.01603724014912944 0.0 0.0
-0.014568863988181038 0.012142220453885244 0.0 0.015144012537902707 0.0 0.0
-0.013594290972793757 0.011276231389498736 0.0 0.013061774591901276 0.0 0.0
-0.011857959935665435 0.009675169906297354 0.0 0.011170467766331349 0.0 0.0
-0.009891394059384134 0.00784926664519836 0.0 0.009580597400348556 0.0 0.0
-0.008034408443293936 0.006132697259688236 0.0 0.008239272854134227 0.0 0.0
-0.006423168679401084 0.004661170085955568 0.0 0.007043367760389829 0.0 0.0
-0.005050072765469316 0.0034381983869717914 0.0 0.005913683088090038 0.0 0.0
-0.00385367332944328 0.0024113783988330972 0.0 0.004873456687565281 0.0 0.0
-0.002785659867833065 0.0015667133003760547 0.0 0.003950379826341943 0.0 0.0
-0.0019042630094553703 0.0009548899713300862 0.0 0.003280681466096058 0.0 0.0
-0.001258602880310794 0.0005890516112970756 0.0 0.0028880911067506454 0.0 0.0
-0.000853428335241227 0.0003993408560787337 0.0 0.0026259563905632888 0.0 0.0
-0.0006236946508591107 0.00031180022612276037 0.0 0.002405073454157358 0.0 0.0
-0.0005005498638457062 0.00027555784614352596 0.0 0.0022536943729128123 0.0 0.0
-0.00043415495230014756 0.0002479481845295006 0.0 0.0022169112656164613 0.0 0.0
-0.0003679872056145811 0.00016643601201754565 0.0 0.002269221982854147 0.0 0.0
-0.00018213928948217217 -0.00012746327735355112 0.0 0.002268361370344696 0.0 0.0
0.0002596113968008351 -0.0008134826590806225 0.0 0.001452245169739852 0.0 0.0
0.00017709532248806614 -0.0006295177190114298 0.0 -0.0012844153480568166 0.0 0.0
-0.00023181244253024647 -8.994294555775273e-05 0.0 -0.0021589000904721767 0.0 0.0
-0.0004808731094822216 0.00021070739667505833 0.0 -0.002216605401469479 0.0 0.0
-0.0006258888326328427 0.00032840724572258395 0.0 -0.0021571786225393352 0.0 0.0
-0.0007805255623541674 0.0004006406775263205 0.0 -0.00215762219598728 0.0 0.0
-0.0010109161253618049 0.0004881418297170148 0.0 -0.002249788076693293 0.0 0.0
-0.0014181295637100827 0.0006706351346831285 0.0 -0.0024387177895883183 0.0 0.0
-0.002157517487481525 0.001105926930354828 0.0 -0.002861521056392674 0.0 0.0
-0.00329583949355175 0.0019330530221650655 0.0 -0.003638380370720673 0.0 0.0
-0.004794709563421359 0.0031601594350600948 0.0 -0.004744444409638504 0.0 0.0
-0.006540314123640964 0.004696363123920744 0.0 -0.0059999169132991526 0.0 0.0
-0.008506159709293068 0.00649001342040223 0.0 -0.007252674082078747 0.0 0.0
-0.010769061870101529 0.008597438672713453 0.0 -0.00852062578171997 0.0 0.0
-0.013439184238715512 0.01111823724670935 0.0 -0.009879995039134337 0.0 0.0
-0.016566230088790462 0.014088518364678171 0.0 -0.011489109206057835 0.0 0.0
-0.0200161994430732 0.01737034502490209 0.0 -0.01356663628061 0.0 0.0
-0.023372398801710437 0.020551776298440405 0.0 -0.016290940926755038 0.0 0.0
-0.02582379150119908 0.022771811326814273 0.0 -0.01921000050336019 0.0 0.0
-0.025846662308732435 0.022500683909483232 0.0 -0.020730938332272186 0.0 0.0
-0.020960918875457896 0.01709756630625936 0.0 -0.017539772238534646 0.0 0.0
-0.02096091887545838 0.017097566306260248 0.0 0.017539772238556017 0.0 0.0
-0.02584666230872973 0.022500683909481456 0.0 0.02073093833229861 0.0 0.0
-0.025823791501190255 0.02277181132680761 0.0 0.019210000503380176 0.0 0.0
-0.023372398801697197 0.020551776298424862 0.0 0.01629094092675798 0.0 0.0
-0.020016199443058477 0.01737034502489121 0.0 0.01356663628060334 0.0 0.0
-0.016566230088777015 0.014088518364669733 0.0 0.011489109206050674 0.0 0.0
-0.0134391842387023 0.011118237246702245 0.0 0.009879995039125677 0.0 0.0
-0.010769061870086818 0.008597438672702129 0.0 0.008520625781715085 0.0 0.0
-0.008506159709278718 0.006490013420390017 0.0 0.007252674082069754 0.0 0.0
-0.006540314123627267 0.004696363123910086 0.0 0.005999916913287051 0.0 0.0
-0.0047947095634096465 0.0031601594350496587 0.0 0.004744444409625959 0.0 0.0
-0.0032958394935433816 0.001933053022157294 0.0 0.0036383803707149553 0.0 0.0
-0.0021575174874763764 0.0011059269303519415 0.0 0.0028615210563889826 0.0 0.0
-0.0014181295637073071 0.0006706351346809081 0.0 0.002438717789585376 0.0 0.0
-0.0010109161253602644 0.0004881418297149054 0.0 0.0022497880766902956 0.0 0.0
-0.0007805255623533069 0.00040064067752554333 0.0 0.002157622195984976 0.0 0.0
-0.000625888832632232 0.0003284072457228615 0.0 0.0021571786225369483 0.0 0.0
-0.00048087310948162487 0.00021070739667478078 0.0 0.00221660540146712 0.0 0.0
-0.0002318124425300938 -8.994294555766946e-05 0.0 0.0021589000904697064 0.0 0.0
0.0001770953224879135 -0.0006295177190108574 0.0 0.0012844153480550125 0.0 0.0
0.00010396741540338872 -0.00046355511154436146 0.0 -0.0011140102197848 0.0 0.0
-0.0002807763914206285 -4.569576798718611e-05 0.0 -0.002000586315102998 0.0 0.0
-0.0005872615994383101 0.00025375045704739696 0.0 -0.002108866593411557 0.0 0.0
-0.0008091055061828917 0.00040283150613795726 0.0 -0.0020424145751204437 0.0 0.0
-0.0010477026720520366 0.000515558510138292 0.0 -0.0019933146659482925 0.0 0.0
-0.0013885840156083878 0.0006622191487970497 0.0 -0.002037629440583777 0.0 0.0
-0.00202277934145402 0.0010134132747589009 0.0 -0.0022862938407174904 0.0 0.0
-0.003152893497166423 0.0018091978329064506 0.0 -0.0029247773757236084 0.0 0.0
-0.00480875709928455 0.003153823530718247 0.0 -0.003980709485871148 0.0 0.0
-0.006891404216188862 0.004979723603770747 0.0 -0.005312415510660196 0.0 0.0
-0.009284501222147773 0.007169707394676594 0.0 -0.006686414058879375 0.0 0.0
-0.012008791770460464 0.009710608588616276 0.0 -0.008010858128123188 0.0 0.0
-0.015169511674505767 0.012702817535917399 0.0 -0.009358345398685797 0.0 0.0
-0.018916358688033444 0.016283821610947546 0.0 -0.010832651577444341 0.0 0.0
-0.023334319960781266 0.02052946666737121 0.0 -0.012613844024830179 0.0 0.0
-0.028310568793915553 0.02530966311994698 0.0 -0.0150272471307204 0.0 0.0
-0.03330922289390584 0.03007121278995717 0.0 -0.01830301022091574 0.0 0.0
-0.037117192351498185 0.03357890236672123 0.0 -0.021946865982086283 0.0 0.0
-0.037614003754150596 0.033674707590986674 0.0 -0.024074157296650855 0.0 0.0
-0.03138730555975651 0.026862012332518947 0.0 -0.021225638983983552 0.0 0.0
-0.03138730555975644 0.02686201233251806 0.0 0.02122563898401003 0.0 0.0
-0.03761400375414525 0.03367470759098623 0.0 0.024074157296684273 0.0 0.0
-0.03711719235148635 0.03357890236671279 0.0 0.021946865982109875 0.0 0.0
-0.03330922289388848 0.030071212789942514 0.0 0.01830301022092079 0.0 0.0
-0.02831056879389668 0.025309663119928105 0.0 0.015027247130715682 0.0 0.0
-0.023334319960763045 0.020529466667349228 0.0 0.012613844024824294 0.0 0.0
-0.018916358688015347 0.016283821610926452 0.0 0.010832651577435626 0.0 0.0
-0.015169511674486172 0.012702817535896749 0.0 0.009358345398678525 0.0 0.0
-0.012008791770441347 0.009710608588597403 0.0 0.008010858128113002 0.0 0.0
-0.009284501222129746 0.007169707394658387 0.0 0.006686414058867274 0.0 0.0
-0.006891404216173146 0.004979723603758979 0.0 0.0053124155106463455 0.0 0.0
-0.004808757099272747 0.003153823530711586 0.0 0.003980709485863737 0.0 0.0
-0.0031528934971586167 0.0018091978329003444 0.0 0.0029247773757175854 0.0 0.0
-0.0020227793414496 0.001013413274754793 0.0 0.0022862938407139377 0.0 0.0
-0.0013885840156064241 0.0006622191487957174 0.0 0.0020376294405822504 0.0 0.0
-0.0010477026720509541 0.000515558510138181 0.0 0.0019933146659467105 0.0 0.0
-0.000809105506181941 0.0004028315061372356 0.0 0.0020424145751186396 0.0 0.0
-0.0005872615994377342 0.0002537504570466198 0.0 0.0021088665934108908 0.0 0.0
-0.0002807763914203648 -4.569576798649222e-05 0.0 0.0020005863151013326 0.0 0.0
0.00010396741540335402 -0.00046355511154357217 0.0 0.0011140102197835233 0.0 0.0
3.872987057565447e-05 -0.00031662625474751516 0.0 -0.0009399132064583926 0.0 0.0
-0.00033004475336631534 3.4061614184732747e-06 0.0 -0.001798721182308366 0.0 0.0
-0.0006881842589552822 0.0002959301745823484 0.0 -0.0019469285613467613 0.0 0.0
-0.0009835698683769434 0.00047125785067958503 0.0 -0.001869700773193761 0.0 0.0
-0.0012990418320394659 0.0006182453836710566 0.0 -0.0017693404070507623 0.0 0.0
-0.0017790654543727857 0.0008622126174815392 0.0 -0.0018068229056784069 0.0 0.0
-0.002693698423957197 0.0014583221835173799 0.0 -0.002140619444087055 0.0 0.0
-0.004244259463456579 0.002668801723937797 0.0 -0.0029448370115790767 0.0 0.0
-0.006400710277008698 0.004530125090796977 0.0 -0.004154331084588181 0.0 0.0
-0.009024396018222497 0.006910022847053998 0.0 -0.00551891749900163 0.0 0.0
-0.012058420285282756 0.009730833857562127 0.0 -0.006871770476293282 0.0 0.0
-0.015549538312580838 0.01302425061934831 0.0 -0.008204677618100176 0.0 0.0
-0.019625150212920314 0.016911756175361115 0.0 -0.009584458172697985 0.0 0.0
-0.024457495557562686 0.02156018412158822 0.0 -0.011093844560056965 0.0 0.0
-0.030175216294184598 0.027086710579655504 0.0 -0.012912405985766762 0.0 0.0
-0.03667555083945227 0.033361543579473185 0.0 -0.015368999233374758 0.0 0.0
-0.04328707986509221 0.03967889640662836 0.0 -0.018758288906753462 0.0 0.0
-0.0483891667555133 0.044399975733719454 0.0 -0.022803718964623687 0.0 0.0
-0.04916354605624017 0.04469426723235426 0.0 -0.025755239429435417 0.0 0.0
-0.04144041613869193 0.036400418863540285 0.0 -0.024696570101285287 0.0 0.0
-0.04144041613869037 0.036400418863538064 0.0 0.024696570101310766 0.0 0.0
-0.04916354605623238 0.04469426723234493 0.0 0.02575523942946928 0.0 0.0
-0.048389166755498605 0.04439997573370613 0.0 0.022803718964648945 0.0 0.0
-0.04328707986507134 0.03967889640660882 0.0 0.018758288906759957 0.0 0.0
-0.03667555083942904 0.03336154357945342 0.0 0.015368999233371927 0.0 0.0
-0.030175216294162033 0.027086710579634188 0.0 0.012912405985761433 0.0 0.0
-0.02445749555753953 0.02156018412156735 0.0 0.011093844560048194 0.0 0.0
-0.019625150212896236 0.016911756175340686 0.0 0.009584458172691268 0.0 0.0
-0.015549538312556774 0.013024250619326327 0.0 0.008204677618090517 0.0 0.0
-0.012058420285260586 0.009730833857540144 0.0 0.006871770476281069 0.0 0.0
-0.009024396018203075 0.00691002284703468 0.0 0.005518917498987502 0.0 0.0
-0.0064007102769936125 0.00453012509078321 0.0 0.004154331084579521 0.0 0.0
-0.004244259463446122 0.0026688017239292483 0.0 0.0029448370115724154 0.0 0.0
-0.002693698423950751 0.0014583221835157145 0.0 0.0021406194440823645 0.0 0.0
-0.0017790654543700588 0.0008622126174809841 0.0 0.0018068229056765472 0.0 0.0
-0.0012990418320381128 0.0006182453836696133 0.0 0.0017693404070500685 0.0 0.0
-0.000983569868375729 0.00047125785067808623 0.0 0.001869700773191596 0.0 0.0
-0.0006881842589546924 0.0002959301745819043 0.0 0.00194692856134554 0.0 0.0
-0.0003300447533659892 3.406161418334497e-06 0.0 0.001798721182306534 0.0 0.0
3.8729870575668346e-05 -0.00031662625474731913 0.0 0.0009399132064573101 0.0 0.0
-1.7947574055515725e-05 -0.00019056977217485338 0.0 -0.000760378169195941 0.0 0.0
-0.00037875843947607346 5.493539059103769e-05 0.0 -0.001558297252160612 0.0 0.0
-0.0007845189102816119 0.00033738295481555713 0.0 -0.0017323265833535384 0.0 0.0
-0.0011487418375736858 0.0005324252031972954 0.0 -0.0016420739627987235 0.0 0.0
-0.0015429317083070215 0.0007249772079034322 0.0 -0.0015181674880135887 0.0 0.0
-0.002200732607486572 0.0011062735727541684 0.0 -0.0015611084948016496 0.0 0.0
-0.0034383072301068796 0.0020092597309573357 0.0 -0.001967967151008554 0.0 0.0
-0.005413038793454922 0.0036561230651774856 0.0 -0.002867868642099619 0.0 0.0
-0.00802130898518097 0.005988833563351115 0.0 -0.004056936733080718 0.0 0.0
-0.011170873932572212 0.008891811034674735 0.0 -0.005326096392921087 0.0 0.0
-0.014851366200437116 0.012344716864333138 0.0 -0.006612260088315558 0.0 0.0
-0.01912234067290766 0.016399909459362316 0.0 -0.00788431763088776 0.0 0.0
-0.02412992089429239 0.021197271792845696 0.0 -0.009217860183612592 0.0 0.0
-0.03005930759827795 0.02692133495215354 0.0 -0.010710756997943383 0.0 0.0
-0.03705059954793112 0.03370262297859172 0.0 -0.012423720714396624 0.0 0.0
-0.0450148749453292 0.04141349158461427 0.0 -0.014581130575259393 0.0 0.0
-0.053180921641682116 0.04923546180805616 0.0 -0.017665136673811865 0.0 0.0
-0.05953753833745418 0.055134252703525455 0.0 -0.021823981428254757 0.0 0.0
-0.06058508204368879 0.05564621289616145 0.0 -0.026012447814063477 0.0 0.0
-0.0514882763424314 0.04598533117871417 0.0 -0.02812769665587067 0.0 0.0
-0.051488276342427974 0.04598533117870618 0.0 0.02812769665589787 0.0 0.0
-0.06058508204367852 0.05564621289614813 0.0 0.02601244781409784 0.0 0.0
-0.05953753833743636 0.0551342527035108 0.0 0.02182398142827985 0.0 0.0
-0.053180921641658 0.04923546180803395 0.0 0.017665136673818915 0.0 0.0
-0.04501487494530185 0.041413491584592066 0.0 0.014581130575257756 0.0 0.0
-0.03705059954790429 0.03370262297856419 0.0 0.012423720714394043 0.0 0.0
-0.03005930759824984 0.026921334952126008 0.0 0.010710756997937748 0.0 0.0
-0.024129920894263857 0.021197271792818606 0.0 0.009217860183606957 0.0 0.0
-0.019122340672878872 0.01639990945933456 0.0 0.007884317630878879 0.0 0.0
-0.014851366200410845 0.012344716864304717 0.0 0.006612260088302735 0.0 0.0
-0.01117087393254898 0.008891811034648756 0.0 0.005326096392909041 0.0 0.0
-0.008021308985163046 0.0059888335633349055 0.0 0.004056936733072808 0.0 0.0
-0.005413038793441488 0.0036561230651681598 0.0 0.002867868642092347 0.0 0.0
-0.0034383072300982614 0.0020092597309501192 0.0 0.0019679671510040297 0.0 0.0
-0.0022007326074827555 0.001106273572752281 0.0 0.0015611084947991516 0.0 0.0
-0.001542931708305259 0.0007249772079036543 0.0 0.0015181674880130058 0.0 0.0
-0.0011487418375724853 0.0005324252031980725 0.0 0.0016420739627979186 0.0 0.0
-0.000784518910280807 0.00033738295481522407 0.0 0.0017323265833524837 0.0 0.0
-0.0003787584394757265 5.493539059103769e-05 0.0 0.001558297252159363 0.0 0.0
-1.794757405530062e-05 -0.00019056977217464348 0.0 0.0007603781691955802 0.0 0.0
-6.399536433879249e-05 -8.774122844953935e-05 0.0 -0.0005745593211729239 0.0 0.0
-0.00042426945148338335 0.00010590763336337794 0.0 -0.0012835666251206634 0.0 0.0
-0.0008763923669184714 0.0003776950345401042 0.0 -0.0014644611522755813 0.0 0.0
-0.0013067395428908446 0.0005872869776160083 0.0 -0.0013658995132764806 0.0 0.0
-0.001792048452574968 0.0008402739933141001 0.0 -0.001230022969645611 0.0 0.0
-0.002667829100268332 0.0014161547762714388 0.0 -0.0012985163458269222 0.0 0.0
-0.004259048389605613 0.0026715431885098173 0.0 -0.0017714162223698426 0.0 0.0
-0.006611246723140646 0.004718773949901722 0.0 -0.0026215293670483752 0.0 0.0
-0.009644155634421836 0.007479209143103072 0.0 -0.003650142191503114 0.0 0.0
-0.013324470558623791 0.010905039482954404 0.0 -0.004778656757989663 0.0 0.0
-0.017654587058100746 0.014992430788077549 0.0 -0.005924040077086357 0.0 0.0
-0.022718402685611455 0.01981908240077712 0.0 -0.007064019976078695 0.0 0.0
-0.028676454451893735 0.0255442484822761 0.0 -0.008286720582476648 0.0 0.0
-0.035711144202402206 0.03234602485500715 0.0 -0.00965769320774057 0.0 0.0
-0.04393437824704763 0.040334929149020926 0.0 -0.011170579147368298 0.0 0.0
-0.05323959237778551 0.049372247184536366 0.0 -0.012827712643364186 0.0 0.0
-0.06283866645182114 0.0585912845927381 0.0 -0.015077191987955263 0.0 0.0
-0.07047075306881706 0.06570014762766707 0.0 -0.018942804179329642 0.0 0.0
-0.07202582417825261 0.06665442886741024 0.0 -0.024824082185997798 0.0 0.0
-0.06183951794521711 0.05588338893673139 0.0 -0.03150698890129522 0.0 0.0
-0.0618395179452131 0.055883388936727396 0.0 0.0315069889013207 0.0 0.0
-0.07202582417823984 0.06665442886739781 0.0 0.024824082186028773 0.0 0.0
-0.07047075306879579 0.06570014762764664 0.0 0.0189428041793529 0.0 0.0
-0.06283866645179348 0.05859128459270835 0.0 0.015077191987962035 0.0 0.0
-0.05323959237775421 0.04937224718450772 0.0 0.012827712643364297 0.0 0.0
-0.043934378247016084 0.040334929148989174 0.0 0.011170579147366522 0.0 0.0
-0.035711144202369705 0.032346024854978284 0.0 0.009657693207734602 0.0 0.0
-0.028676454451860567 0.025544248482245235 0.0 0.008286720582470514 0.0 0.0
-0.02271840268557803 0.0198190824007467 0.0 0.007064019976071312 0.0 0.0
-0.017654587058070416 0.014992430788050015 0.0 0.00592404007707556 0.0 0.0
-0.013324470558597139 0.010905039482931977 0.0 0.004778656757978783 0.0 0.0
-0.009644155634401047 0.007479209143084198 0.0 0.0036501421914962306 0.0 0.0
-0.0066112467231245475 0.004718773949887067 0.0 0.0026215293670415196 0.0 0.0
-0.004259048389594823 0.0026715431885016017 0.0 0.0017714162223647079 0.0 0.0
-0.0026678291002629508 0.0014161547762666649 0.0 0.0012985163458248128 0.0 0.0
-0.0017920484525727164 0.0008402739933114356 0.0 0.001230022969645278 0.0 0.0
-0.001306739542889835 0.000587286977614565 0.0 0.0013658995132753982 0.0 0.0
-0.0008763923669175833 0.0003776950345398822 0.0 0.0014644611522732776 0.0 0.0
-0.00042426945148291845 0.0001059076333636555 0.0 0.0012835666251190814 0.0 0.0
-6.399536433867106e-05 -8.774122844936068e-05 0.0 0.0005745593211730071 0.0 0.0
-9.576190988985767e-05 -1.1110020446930546e-05 0.0 -0.0003842476168910425 0.0 0.0
-0.0004616270964871716 0.00015267443779587442 0.0 -0.0009767846619944398 0.0 0.0
-0.0009636270605126174 0.0004152776353981147 0.0 -0.0011422795090358095 0.0 0.0
-0.001462190878605829 0.0006423905771346661 0.0 -0.0010424739438468222 0.0 0.0
-0.0020588823428366043 0.0009801538574447655 0.0 -0.0009113254286468031 0.0 0.0
-0.003200256900410453 0.0018036433779206051 0.0 -0.0010243208611256382 0.0 0.0
-0.0051214747366385704 0.0034030131026168142 0.0 -0.001457238570603342 0.0 0.0
-0.007808534982841064 0.005806352481627197 0.0 -0.002139326176037959 0.0 0.0
-0.011264540840349668 0.008988296947164187 0.0 -0.00297303049115466 0.0 0.0
-0.015473797834550329 0.012932767509453269 0.0 -0.00389121045911367 0.0 0.0
-0.020459780864159033 0.01765855198088473 0.0 -0.004828654016212464 0.0 0.0
-0.026327741131053628 0.023268395964789912 0.0 -0.0057600268914421715 0.0 0.0
-0.03325179197754874 0.029933920330716735 0.0 -0.0067648534746920785 0.0 0.0
-0.04140083320865115 0.03782143748460309 0.0 -0.007945934793318454 0.0 0.0
-0.05081661376420832 0.04697028967617034 0.0 -0.009209372430020957 0.0 0.0
-0.06129268645999365 0.05715924375139436 0.0 -0.010252251635930687 0.0 0.0
-0.0720807623663394 0.06758342963045427 0.0 -0.011231590235491529 0.0 0.0
-0.08106509616847761 0.07599004657427955 0.0 -0.014168205648592613 0.0 0.0
-0.08360794746465156 0.07783273336316121 0.0 -0.02183583845902204 0.0 0.0
-0.0728423530151428 0.0664035724180585 0.0 -0.03457769042886816 0.0 0.0
-0.07284235301513879 0.06640357241805983 0.0 0.03457769042888881 0.0 0.0
-0.08360794746463601 0.07783273336314966 0.0 0.021835838459048795 0.0 0.0
-0.08106509616845264 0.07599004657425823 0.0 0.01416820564861379 0.0 0.0
-0.07208076236630781 0.06758342963042474 0.0 0.011231590235497385 0.0 0.0
-0.06129268645995856 0.057159243751361055 0.0 0.010252251635930743 0.0 0.0
-0.05081661376417223 0.04697028967613548 0.0 0.009209372430020457 0.0 0.0
-0.041400833208614395 0.03782143748457045 0.0 0.007945934793313958 0.0 0.0
-0.03325179197751073 0.02993392033068054 0.0 0.0067648534746858335 0.0 0.0
-0.026327741131015624 0.023268395964754607 0.0 0.005760026891437675 0.0 0.0
-0.020459780864124567 0.017658551980850534 0.0 0.004828654016203082 0.0 0.0
-0.01547379783452111 0.01293276750942196 0.0 0.0038912104591052044 0.0 0.0
-0.011264540840325597 0.008988296947139318 0.0 0.002973030491149331 0.0 0.0
-0.007808534982822728 0.005806352481610211 0.0 0.0021393261760329074 0.0 0.0
-0.005121474736625817 0.003403013102605601 0.0 0.001457238570599595 0.0 0.0
-0.003200256900403386 0.0018036433779166083 0.0 0.0010243208611228627 0.0 0.0
-0.0020588823428337004 0.0009801538574438773 0.0 0.000911325428646026 0.0 0.0
-0.0014621908786049964 0.0006423905771337779 0.0 0.0010424739438463226 0.0 0.0
-0.0009636270605117396 0.0004152776353972265 0.0 0.0011422795090345883 0.0 0.0
-0.00046162709648671363 0.00015267443779548584 0.0 0.0009767846619933573 0.0 0.0
-9.576190988975011e-05 -1.1110020446895852e-05 0.0 0.0003842476168909037 0.0 0.0
-0.00010703023627259278 3.55173051493074e-05 0.0 -0.00019610248561091614 0.0 0.0
-0.000482382718030111 0.00018968614968295494 0.0 -0.0006376874379365183 0.0 0.0
-0.0010466264732292285 0.000449468772886652 0.0 -0.000758906679652227 0.0 0.0
-0.001623392409633495 0.0007037027488980829 0.0 -0.0006774119207330342 0.0 0.0
-0.0023643147704423273 0.001173116345880243 0.0 -0.0005879542427015827 0.0 0.0
-0.003789839448970045 0.0022678856835133265 0.0 -0.000690511329895116 0.0 0.0
-0.005989475325051952 0.00417211517359839 0.0 -0.00100309455012082 0.0 0.0
-0.00900147730591147 0.006906309610787975 0.0 -0.0014619168780899972 0.0 0.0
-0.012871635039562734 0.010501609914022492 0.0 -0.0020333058471527776 0.0 0.0
-0.01760871371317041 0.014961862036603657 0.0 -0.0026738370896898234 0.0 0.0
-0.023257232245772447 0.020330964813637387 0.0 -0.0033245189701442412 0.0 0.0
-0.029941425004242905 0.026734503596728354 0.0 -0.003971543199339123 0.0 0.0
-0.037844498354845935 0.03435343907740984 0.0 -0.0047041506236921715 0.0 0.0
-0.04710341657193726 0.0433205028742103 0.0 -0.005555945337455626 0.0 0.0
-0.057676161132084985 0.05358815444046616 0.0 -0.006417290412789711 0.0 0.0
-0.06919575704159964 0.06478860716537338 0.0 -0.0069805883376806155 0.0 0.0
-0.0808311501815138 0.07608243362662304 0.0 -0.006879741074874268 0.0 0.0
-0.09093325159074295 0.08571944384714403 0.0 -0.00760770248801973 0.0 0.0
-0.095365618023083 0.08920672065038637 0.0 -0.015910530425099823 0.0 0.0
-0.0850336320845825 0.07802495711774338 0.0 -0.036659804918286576 0.0 0.0
-0.08503363208457762 0.07802495711773627 0.0 0.036659804918301786 0.0 0.0
-0.09536561802306504 0.08920672065036817 0.0 0.01591053042512003 0.0 0.0
-0.09093325159071397 0.08571944384711738 0.0 0.007607702488035661 0.0 0.0
-0.0808311501814776 0.07608243362658862 0.0 0.006879741074876405 0.0 0.0
-0.0691957570415605 0.06478860716533541 0.0 0.006980588337681587 0.0 0.0
-0.0576761611320444 0.05358815444042464 0.0 0.00641729041279035 0.0 0.0
-0.047103416571896144 0.043320502874167666 0.0 0.005555945337454127 0.0 0.0
-0.03784449835480298 0.03435343907736854 0.0 0.004704150623688785 0.0 0.0
-0.029941425004200328 0.026734503596689274 0.0 0.003971543199337069 0.0 0.0
-0.0232572322457342 0.020330964813602526 0.0 0.003324518970137136 0.0 0.0
-0.01760871371313842 0.014961862036573237 0.0 0.002673837089684994 0.0 0.0
-0.01287163503953576 0.0105016099139974 0.0 0.002033305847149669 0.0 0.0
-0.009001477305891039 0.00690630961076899 0.0 0.001461916878085473 0.0 0.0
-0.005989475325037404 0.004172115173586288 0.0 0.0010030945501184885 0.0 0.0
-0.0037898394489615257 0.002267885683506665 0.0 0.0006905113298939225 0.0 0.0
-0.0023643147704384606 0.0011731163458785776 0.0 0.00058795424270075 0.0 0.0
-0.0016233924096323918 0.0007037027488974168 0.0 0.0006774119207325069 0.0 0.0
-0.001046626473228205 0.0004494687728860969 0.0 0.0007589066796511446 0.0 0.0
-0.000482382718029745 0.00018968614968276065 0.0 0.0006376874379355191 0.0 0.0
-0.00010703023627237768 3.551730514937679e-05 0.0 0.00019610248560991694 0.0 0.0
-8.658736241845544e-05 4.664801805273622e-05 0.0 -2.5823117724810274e-05 0.0 0.0
-0.0004727432670640075 0.00020845701765831448 0.0 -0.0002601867508982003 0.0 0.0
-0.0011273606481858045 0.00047932827211227824 0.0 -0.00030001153992154084 0.0 0.0
-0.0018065095977829737 0.0007875136210405698 0.0 -0.00027615483306631106 0.0 0.0
-0.0027243058254885766 0.001417541633403574 0.0 -0.00023784321424141774 0.0 0.0
-0.004406145370908915 0.002774424708662959 0.0 -0.00027320369578284764 0.0 0.0
-0.00685634050065731 0.004956934318781081 0.0 -0.0004061294407666505 0.0 0.0
-0.010178978359034696 0.00800654057200667 0.0 -0.0005915050740501471 0.0 0.0
-0.014455460946202231 0.01200446857604831 0.0 -0.0008384917378548296 0.0 0.0
-0.01971794861746956 0.016977496008666604 0.0 -0.0011258717484572411 0.0 0.0
-0.026037854421747803 0.022999719134736862 0.0 -0.0014162247476220413 0.0 0.0
-0.03355628909897415 0.030212865800721467 0.0 -0.001726087758439021 0.0 0.0
-0.04243386518909778 0.03878016913188298 0.0 -0.002071033373106712 0.0 0.0
-0.05278045494975714 0.04880475570479148 0.0 -0.0024439370947672567 0.0 0.0
-0.06448475920707578 0.06016665083939299 0.0 -0.0027940823164104844 0.0 0.0
-0.07700078447764697 0.07232165460243656 0.0 -0.002923603862842128 0.0 0.0
-0.08925781874913641 0.08422007185739311 0.0 -0.0024919326035548472 0.0 0.0
-0.09973286421688578 0.09435016592322754 0.0 -0.001358341279819708 0.0 0.0
-0.10604248834957473 0.10013019011646218 0.0 -0.004733127255667491 0.0 0.0
-0.09994410074106935 0.09186907028478952 0.0 -0.033886779475939655 0.0 0.0
-0.09994410074106358 0.09186907028478375 0.0 0.03388677947594537 0.0 0.0
-0.10604248834955463 0.10013019011643998 0.0 0.004733127255676872 0.0 0.0
-0.09973286421685197 0.09435016592319645 0.0 0.0013583412798280625 0.0 0.0
-0.08925781874909522 0.08422007185735292 0.0 0.0024919326035535427 0.0 0.0
-0.0770007844776035 0.07232165460239393 0.0 0.00292360386284235 0.0 0.0
-0.06448475920703065 0.06016665083934991 0.0 0.002794082316410873 0.0 0.0
-0.05278045494971127 0.04880475570474885 0.0 0.002443937094767562 0.0 0.0
-0.0424338651890498 0.03878016913183835 0.0 0.002071033373105713 0.0 0.0
-0.033556289098927355 0.03021286580067506 0.0 0.0017260877584393264 0.0 0.0
-0.026037854421705607 0.02299971913469423 0.0 0.0014162247476163514 0.0 0.0
-0.01971794861743484 0.01697749600863241 0.0 0.0011258717484539105 0.0 0.0
-0.014455460946172354 0.012004468576020777 0.0 0.0008384917378524426 0.0 0.0
-0.010178978359012065 0.008006540571984355 0.0 0.0005915050740487315 0.0 0.0
-0.006856340500640907 0.004956934318766093 0.0 0.00040612944076603985 0.0 0.0
-0.0044061453708988665 0.0027744247086545215 0.0 0.0002732036957832362 0.0 0.0
-0.0027243058254839483 0.0014175416333999102 0.0 0.00023784321424255572 0.0 0.0
-0.0018065095977812615 0.0007875136210399591 0.0 0.00027615483306625555 0.0 0.0
-0.0011273606481850308 0.00047932827211139006 0.0 0.00030001153992145757 0.0 0.0
-0.0004727432670634281 0.00020845701765775937 0.0 0.0002601867508976452 0.0 0.0
-8.658736241844416e-05 4.66480180526304e-05 0.0 2.5823117724227407e-05 0.0 0.0
SCALARS Statev float 8
LOOKUP_TABLE default
0.0 0.009725110790855186 0.007406482234724277 -0.007791013105250905 0.000384530870526627 -0.004176775100500161 0.0 0.0
0.0 0.00028799753951683796 0.00016280171644848917 -0.00012632277440564465 -3.647894204284452e-05 0.00018148767183867565 0.0 0.0
0.0 3.342380937738801e-05 -4.754075056001044e-06 3.773145031477424e-06 9.809300245235895e-07 5.62033213615258e-07 0.0 0.0
0.0 0.0001049119021892274 3.402969932140976e-05 -2.6409856984762526e-05 -7.619842336647329e-06 -4.582366998106348e-06 0.0 0.0
0.0 0.0007424264194258882 0.0005148711098240487 -0.00041220664093883345 -0.00010266446888521552 -5.878480667212932e-05 0.0 0.0
0.0 0.0020327134875987945 0.001874831876457508 -0.0015644048438029129 -0.00031042703265459496 -0.00015417738785572526 0.0 0.0
0.0 0.0044733522839618565 0.004064831656321337 -0.003557383067545888 -0.0005074485887754481 -0.00028591990268187265 0.0 0.0
0.0 0.00799924023265033 0.007173387517632297 -0.006508662455747101 -0.0006647250618851952 -0.0004619210039348787 0.0 0.0
0.0 0.012667080740383158 0.011239606614893436 -0.010451693058350928 -0.0007879135565425027 -0.0006939787516124524 0.0 0.0
0.0 0.018506019139895684 0.016290802250133227 -0.01539485026666756 -0.0008959519834656675 -0.0009694571721856653 0.0 0.0
0.0 0.02562630472783465 0.022406696656391778 -0.02140720149261615 -0.0009994951637756263 -0.0012569052494497837 0.0 0.0
0.0 0.033912916889894305 0.02973726972589539 -0.02863366725443516 -0.0011036024714602087 -0.0015696122026181833 0.0 0.0
0.0 0.04385259363351314 0.03843754079343523 -0.037228943261502154 -0.0012085975319330716 -0.0019138111568741698 0.0 0.0
0.0 0.05557711914022384 0.04862363686518188 -0.04730742123330643 -0.0013162156318754473 -0.0022897454772328506 0.0 0.0
0.0 0.06896246953882205 0.06024316251346288 -0.058814447116952294 -0.0014287153965105636 -0.0027043577034012063 0.0 0.0
0.0 0.08360242864522269 0.07291335223467948 -0.07136743839692351 -0.0015459138377560085 -0.003091453000899973 0.0 0.0
0.0 0.0985577050127775 0.08584878877916144 -0.08418442355744768 -0.0016643652217137699 -0.0032869836312362736 0.0 0.0
0.0 0.11248765284838852 0.09790421332658225 -0.09612660537282972 -0.0017776079537525024 -0.0030607977051171744 0.0 0.0
0.0 0.123813487162829 0.10771212288236343 -0.10583392768528574 -0.0018781951970776372 -0.0023993940445957026 0.0 0.0
0.0 0.13047384040381618 0.11361903687338507 -0.11163288481923292 -0.0019861520541521473 -0.0020091404558985667 0.0 0.0
0.0 0.13047384040381002 0.11361903687337965 -0.11163288481922767 -0.0019861520541519647 0.0020091404559019503 0.0 0.0
0.0 0.12381348716280846 0.10771212288234536 -0.10583392768526828 -0.0018781951970770687 0.0023993940446081267 0.0 0.0
0.0 0.11248765284835427 0.09790421332655234 -0.09612660537280063 -0.0017776079537516966 0.003060797705123647 0.0 0.0
0.0 0.09855770501273305 0.08584878877912262 -0.08418442355740957 -0.0016643652217130118 0.003286983631241501 0.0 0.0
0.0 0.08360242864517603 0.07291335223463864 -0.0713674383968836 -0.0015459138377550401 0.0030914530008950792 0.0 0.0
0.0 0.06896246953877179 0.06024316251341927 -0.05881444711690895 -0.0014287153965103169 0.002704357703401177 0.0 0.0
0.0 0.055577119140175615 0.04862363686513979 -0.04730742123326518 -0.001316215631874595 0.0022897454772323115 0.0 0.0
0.0 0.04385259363346298 0.038437540793391595 -0.037228943261459146 -0.0012085975319324426 0.001913811156874067 0.0 0.0
0.0 0.033912916889844456 0.02973726972585196 -0.02863366725439234 -0.0011036024714596157 0.0015696122026148665 0.0 0.0
0.0 0.02562630472778918 0.02240669665635195 -0.021407201492576772 -0.000999495163775171 0.0012569052494478868 0.0 0.0
0.0 0.018506019139859574 0.01629080225010168 -0.015394850266636777 -0.0008959519834649036 0.0009694571721817698 0.0 0.0
0.0 0.01266708074035637 0.011239606614869344 -0.01045169305832773 -0.0007879135565416164 0.0006939787516114773 0.0 0.0
0.0 0.007999240232629554 0.00717338751761323 -0.006508662455728804 -0.0006647250618844254 0.0004619210039333743 0.0 0.0
0.0 0.00447335228394781 0.004064831656308129 -0.0035573830675335485 -0.0005074485887745797 0.00028591990268112514 0.0 0.0
0.0 0.0020327134875904353 0.0018748318764492738 -0.0015644048437956568 -0.0003104270326536173 0.00015417738785492623 0.0 0.0
0.0 0.0007424264194223562 0.0005148711098213925 -0.00041220664093664184 -0.00010266446888475064 5.878480667178906e-05 0.0 0.0
0.0 0.0001049119021883256 3.402969932154881e-05 -2.640985698486912e-05 -7.619842336679697e-06 4.582366998109468e-06 0.0 0.0
0.0 3.342380937687491e-05 -4.754075055922566e-06 3.7731450314146314e-06 9.80930024507978e-07 -5.620332136057866e-07 0.0 0.0
0.0 0.00028799753951517745 0.0001628017164477092 -0.00012632277440503863 -3.6478942042670785e-05 -0.00018148767183752144 0.0 0.0
0.0 0.0097251107908402 0.007406482234714149 -0.007791013105239743 0.00038453087052559096 0.004176775100478285 0.0 0.0
0.0 0.006900061949176717 0.0049251896328384726 -0.0053962434842776755 0.0004710538514392031 -0.00465549988093668 0.0 0.0
0.0 0.0 0.0 0.0 0.0 0.0 0.0 0.0
0.0 9.430826945183483e-08 -1.020951514236367e-08 7.758883502814768e-09 2.450631639548195e-09 3.6392644398315674e-09 0.0 0.0
0.0 3.411629694557929e-05 1.6171729088913064e-06 -1.2714741451408812e-06 -3.4569876375065944e-07 -1.252996174008207e-06 0.0 0.0
0.0 0.00044056613728394846 0.00025257437946907756 -0.00020069086607167825 -5.188351339739931e-05 -6.983131707840137e-05 0.0 0.0
0.0 0.001465566733845218 0.0013537967854264066 -0.0011135283491094143 -0.00024026843631699238 -0.0003022798250770919 0.0 0.0
0.0 0.003609340801212743 0.0032792248546246443 -0.0028307594305177946 -0.00044846542410684914 -0.0006420144927585649 0.0 0.0
0.0 0.0067715854698651694 0.006070960899101221 -0.0054504971306757865 -0.0006204637684254317 -0.0010841884642569194 0.0 0.0
0.0 0.010962237404248195 0.009733195543818945 -0.008981709717101046 -0.0007514858267178997 -0.0016317527087086443 0.0 0.0
0.0 0.016181630895042758 0.014264088119138069 -0.013404026309390025 -0.0008600618097480369 -0.00225725638748293 0.0 0.0
0.0 0.022486607487216415 0.019715136483269242 -0.018755423545021625 -0.0009597129382476063 -0.0029105466951834537 0.0 0.0
0.0 0.030070272465784243 0.026217234116290095 -0.025160896962955162 -0.0010563371533349368 -0.0035732191701997834 0.0 0.0
0.0 0.03885387552695497 0.03395866790315309 -0.032805590716020884 -0.0011530771871322018 -0.004320009194317883 0.0 0.0
0.0 0.049286730888203 0.04307010476024392 -0.04181796245995226 -0.001252142300291646 -0.00518484819402145 0.0 0.0
0.0 0.06132379567948433 0.053513713812126024 -0.05215853783025401 -0.001355175981872033 -0.006125621695899496 0.0 0.0
0.0 0.07451368873975521 0.06496164488154398 -0.063499510261844 -0.001462134619699978 -0.007005482668531407 0.0 0.0
0.0 0.08806968157315653 0.07672200847603669 -0.07515160600013712 -0.0015704024758995696 -0.00747073716046619 0.0 0.0
0.0 0.10080743007816814 0.0877628443827978 -0.08608714347448015 -0.0016757009083176206 -0.007092617463828106 0.0 0.0
0.0 0.111152530183773 0.09674318252586872 -0.09496431507349193 -0.0017788674523768501 -0.005789344944746217 0.0 0.0
0.0 0.11727523268439914 0.10207533079344276 -0.10022177514293507 -0.0018535556505077432 -0.003514984548386697 0.0 0.0
0.0 0.11727523268439094 0.10207533079343584 -0.10022177514292752 -0.0018535556505082946 0.003514984548398785 0.0 0.0
0.0 0.11115253018375125 0.09674318252584992 -0.0949643150734725 -0.0017788674523774265 0.005789344944769852 0.0 0.0
0.0 0.10080743007813718 0.08776284438277052 -0.08608714347445334 -0.0016757009083171533 0.0070926174638433915 0.0 0.0
0.0 0.08806968157311854 0.07672200847600315 -0.07515160600010447 -0.0015704024758986424 0.007470737160474765 0.0 0.0
0.0 0.07451368873971444 0.0649616448815083 -0.0634995102618094 -0.0014621346196988867 0.007005482668527397 0.0 0.0
0.0 0.06132379567944042 0.053513713812087714 -0.05215853783021637 -0.0013551759818713452 0.006125621695898573 0.0 0.0
0.0 0.04928673088815905 0.043070104760205556 -0.041817962459914634 -0.0012521423002908798 0.0051848481940206595 0.0 0.0
0.0 0.03885387552691206 0.03395866790311542 -0.03280559071598431 -0.0011530771871311116 0.004320009194316672 0.0 0.0
0.0 0.03007027246574262 0.026217234116253492 -0.02516089696291955 -0.0010563371533339422 0.0035732191701947076 0.0 0.0
0.0 0.02248660748717814 0.019715136483235644 -0.018755423544988912 -0.0009597129382467339 0.0029105466951787544 0.0 0.0
0.0 0.016181630895009836 0.014264088119109059 -0.0134040263093616 -0.0008600618097474558 0.0022572563874759927 0.0 0.0
0.0 0.010962237404222546 0.009733195543795856 -0.008981709717078427 -0.0007514858267174234 0.0016317527087055797 0.0 0.0
0.0 0.006771585469846309 0.006070960899084102 -0.005450497130659453 -0.0006204637684246482 0.0010841884642533908 0.0 0.0
0.0 0.003609340801199931 0.003279224854612524 -0.0028307594305067305 -0.0004484654241057914 0.0006420144927564412 0.0 0.0
0.0 0.0014655667338375335 0.0013537967854193758 -0.0011135283491034002 -0.00024026843631597532 0.0003022798250755651 0.0 0.0
0.0 0.0004405661372806264 0.00025257437946694396 -0.00020069086606992834 -5.1883513397015673e-05 6.983131707768906e-05 0.0 0.0
0.0 3.411629694501064e-05 1.6171729090159008e-06 -1.2714741452355532e-06 -3.456987637802071e-07 1.2529961740502456e-06 0.0 0.0
0.0 9.430826938068039e-08 -1.0209515134588993e-08 7.758883496907494e-09 2.4506316376819497e-09 -3.6392644370560787e-09 0.0 0.0
0.0 0.0 0.0 0.0 0.0 0.0 0.0 0.0
0.0 0.006900061949159696 0.004925189632827173 -0.00539624348426555 0.00047105385143837616 0.004655499880917674 0.0 0.0
0.0 0.005047639684771205 0.003393537492965156 -0.003861681149588788 0.000468143656623632 -0.003966406355768929 0.0 0.0
0.0 0.0 0.0 0.0 0.0 0.0 0.0 0.0
0.0 0.0 0.0 0.0 0.0 0.0 0.0 0.0
0.0 3.2051327376130482e-06 6.654695832798047e-08 -5.567244965690756e-08 -1.087450867109388e-08 -1.0073124668150066e-07 0.0 0.0
0.0 0.00018404241317709314 9.40666509424532e-05 -7.424439825367264e-05 -1.9822252688780457e-05 -4.777339093569011e-05 0.0 0.0
0.0 0.001104209203921294 0.0008521408981276074 -0.0006917083367228023 -0.00016043256140480438 -0.0003332819940312966 0.0 0.0
0.0 0.002779182398418144 0.0025106843847714526 -0.002132112613359195 -0.0003785717714122582 -0.0008433182266766485 0.0 0.0
0.0 0.005562488692853667 0.004971185213379598 -0.004406752252216865 -0.0005644329611627311 -0.0015147762972449615 0.0 0.0
0.0 0.009290444498681922 0.008218338257678603 -0.0075115155064052145 -0.0007068227512733861 -0.002319498846938934 0.0 0.0
0.0 0.013911874404109917 0.012226408890907224 -0.011408248107767712 -0.0008181607831395125 -0.003222126936463808 0.0 0.0
0.0 0.01948122002058091 0.017020452185665277 -0.0161058956469549 -0.0009145565387103752 -0.004166499056256006 0.0 0.0
0.0 0.026038638817524593 0.022714668765615086 -0.021709815390229537 -0.0010048533753855482 -0.005124424886135469 0.0 0.0
0.0 0.03395813855827866 0.029487347067714095 -0.02839363079551708 -0.0010937162721970108 -0.006162865008122493 0.0 0.0
0.0 0.04309194073500992 0.03750116837110727 -0.03631690459319879 -0.0011842637779084701 -0.007390051529688789 0.0 0.0
0.0 0.05370722261612745 0.0467458258404062 -0.04546830570101753 -0.001277520139388652 -0.008766070310336015 0.0 0.0
0.0 0.06548421505771024 0.05695307105619695 -0.05557920529520752 -0.0013738657609894207 -0.01003728426903964 0.0 0.0
0.0 0.07766955962058283 0.06754124829715792 -0.06606939688220644 -0.0014718514149514516 -0.010749621314978858 0.0 0.0
0.0 0.08918180704685436 0.0775861521145518 -0.07601490514259934 -0.0015712469719524275 -0.010355830442332074 0.0 0.0
0.0 0.0985865345073443 0.08582170829228247 -0.08415771100035521 -0.001663997291927205 -0.008450139639047108 0.0 0.0
0.0 0.10428017812068362 0.09084323233172571 -0.08911586186242429 -0.0017273704693013764 -0.004658374103494743 0.0 0.0
0.0 0.10428017812067752 0.09084323233171994 -0.08911586186241884 -0.0017273704693011127 0.004658374103515737 0.0 0.0
0.0 0.09858653450733071 0.0858217082922695 -0.08415771100034317 -0.0016639972919263086 0.008450139639077824 0.0 0.0
0.0 0.0891818070468313 0.07758615211453061 -0.07601490514257911 -0.0015712469719514537 0.010355830442354521 0.0 0.0
0.0 0.07766955962054985 0.0675412482971288 -0.06606939688217771 -0.0014718514149510984 0.010749621314988994 0.0 0.0
0.0 0.06548421505767206 0.05695307105616381 -0.05557920529517488 -0.0013738657609889242 0.010037284269035582 0.0 0.0
0.0 0.05370722261608809 0.046745825840371846 -0.04546830570098377 -0.00127752013938808 0.008766070310334075 0.0 0.0
0.0 0.04309194073497019 0.03750116837107258 -0.03631690459316468 -0.0011842637779078849 0.007390051529686378 0.0 0.0
0.0 0.03395813855823972 0.029487347067679994 -0.028393630795483567 -0.0010937162721964219 0.006162865008119608 0.0 0.0
0.0 0.02603863881748552 0.022714668765581203 -0.02170981539019616 -0.0010048533753850425 0.005124424886127979 0.0 0.0
0.0 0.019481220020547228 0.01702045218563551 -0.016105895646925716 -0.0009145565387097895 0.004166499056249103 0.0 0.0
0.0 0.013911874404082048 0.012226408890882504 -0.011408248107743654 -0.0008181607831388457 0.003222126936454956 0.0 0.0
0.0 0.009290444498658882 0.00821833825765803 -0.007511515506385392 -0.0007068227512726391 0.0023194988469334324 0.0 0.0
0.0 0.005562488692836603 0.00497118521336406 -0.004406752252202268 -0.0005644329611617932 0.0015147762972402361 0.0 0.0
0.0 0.0027791823984071977 0.0025106843847612545 -0.0021321126133500433 -0.00037857177141121026 0.0008433182266736144 0.0 0.0
0.0 0.001104209203914945 0.000852140898122476 -0.0006917083367185138 -0.0001604325614039613 0.0003332819940291904 0.0 0.0
0.0 0.0001840424131755352 9.406665094175837e-05 -7.424439825311948e-05 -1.982225268863878e-05 4.777339093531727e-05 0.0 0.0
0.0 3.205132737339316e-06 6.654695861090099e-08 -5.567244987595462e-08 -1.0874508734966096e-08 1.0073124686993601e-07 0.0 0.0
0.0 0.0 0.0 0.0 0.0 0.0 0.0 0.0
0.0 0.0 0.0 0.0 0.0 0.0 0.0 0.0
0.0 0.00504763968475682 0.0033935374929552867 -0.0038616811495780583 0.00046814365662277305 0.003966406355753135 0.0 0.0
0.0 0.003637366456000996 0.002328938614018486 -0.0027432371931185072 0.00041429857910002033 -0.0030117694739346577 0.0 0.0
0.0 0.0 0.0 0.0 0.0 0.0 0.0 0.0
0.0 0.0 0.0 0.0 0.0 0.0 0.0 0.0
0.0 1.7764958665315978e-06 -1.7819784007305854e-07 1.3787375697884427e-07 4.03240830942293e-08 1.8782013220909485e-07 0.0 0.0
0.0 6.20375280635125e-05 2.290569636262223e-05 -1.7980483998366264e-05 -4.925212364255856e-06 -1.8641483054494665e-05 0.0 0.0
0.0 0.0006667829945984403 0.0004681854685275273 -0.00037540165539060407 -9.27838131369232e-05 -0.0002802253894722484 0.0 0.0
0.0 0.0020412076255786815 0.0017702717632836122 -0.0014771276934834937 -0.0002931440698001183 -0.0008871902987185218 0.0 0.0
0.0 0.004390608832873987 0.0038865109969299042 -0.0033912370893522292 -0.0004952739075776758 -0.0017446394176415896 0.0 0.0
0.0 0.007641399793797088 0.0067084631359625845 -0.006058053571067009 -0.0006504095648955752 -0.0027500737718406084 0.0 0.0
0.0 0.01166336242685444 0.010191865255974241 -0.009424291680547226 -0.000767573575427012 -0.003864647324896026 0.0 0.0
0.0 0.0164828026929596 0.01433584043752995 -0.013472787690851718 -0.0008630527466782276 -0.0050207442971288135 0.0 0.0
0.0 0.022183651182536637 0.0192303573874184 -0.018281860608380524 -0.0009484967790378713 -0.006194817487074503 0.0 0.0
0.0 0.028937919116849942 0.025046102722108943 -0.024016303922359074 -0.0010297987997498668 -0.007474059192005407 0.0 0.0
0.0 0.03697798429907593 0.03194780877506258 -0.030835600927267198 -0.0011122078477953713 -0.00893790311262867 0.0 0.0
0.0 0.04629948668792083 0.03996552308497135 -0.038769760993047006 -0.0011957620919243537 -0.010576591083666112 0.0 0.0
0.0 0.05645786466964347 0.04891006167726933 -0.047629130641023344 -0.001280931036245984 -0.012154108358746609 0.0 0.0
0.0 0.06727616557873062 0.05830683538696074 -0.056937766084914125 -0.0013690693020466055 -0.013116518989266185 0.0 0.0
0.0 0.07762192587865986 0.06735878582409581 -0.06589971956505934 -0.001459066259036451 -0.012772803441032791 0.0 0.0
0.0 0.08620173333530237 0.07494321292381709 -0.07340057105888637 -0.001542641864930719 -0.010458556242064633 0.0 0.0
0.0 0.09160392491627167 0.07979157165939291 -0.07819118396001451 -0.0016003876993783892 -0.005590968804614833 0.0 0.0
0.0 0.09160392491626651 0.07979157165938784 -0.07819118396000982 -0.0016003876993780416 0.005590968804641317 0.0 0.0
0.0 0.08620173333528752 0.07494321292380289 -0.07340057105887232 -0.0015426418649305195 0.010458556242100146 0.0 0.0
0.0 0.07762192587863537 0.06735878582407344 -0.06589971956503692 -0.001459066259036503 0.012772803441057627 0.0 0.0
0.0 0.06727616557870243 0.05830683538693534 -0.05693776608488929 -0.0013690693020460586 0.013116518989277896 0.0 0.0
0.0 0.05645786466961152 0.04891006167724156 -0.04762913064099615 -0.0012809310362454055 0.012154108358742578 0.0 0.0
0.0 0.04629948668788793 0.03996552308494277 -0.038769760993018855 -0.0011957620919239036 0.010576591083662677 0.0 0.0
0.0 0.0369779842990419 0.03194780877503298 -0.030835600927237774 -0.0011122078477952217 0.00893790311262558 0.0 0.0
0.0 0.028937919116816424 0.02504610272207946 -0.024016303922330152 -0.0010297987997492965 0.007474059192001578 0.0 0.0
0.0 0.022183651182505378 0.019230357387390817 -0.018281860608353826 -0.0009484967790369842 0.00619481748706594 0.0 0.0
0.0 0.016482802692931703 0.01433584043750511 -0.013472787690827735 -0.000863052746677384 0.0050207442971207834 0.0 0.0
0.0 0.011663362426828977 0.010191865255952023 -0.009424291680525736 -0.0007675735754262827 0.0038646473248852894 0.0 0.0
0.0 0.007641399793777717 0.006708463135945251 -0.006058053571050522 -0.0006504095648947276 0.002750073771834553 0.0 0.0
0.0 0.004390608832858914 0.0038865109969164 -0.003391237089339622 -0.0004952739075767758 0.0017446394176356315 0.0 0.0
0.0 0.0020412076255696865 0.0017702717632757416 -0.0014771276934765856 -0.00029314406979915524 0.0008871902987149208 0.0 0.0
0.0 0.0006667829945944114 0.00046818546852504843 -0.0003754016553885876 -9.278381313646083e-05 0.00028022538947077003 0.0 0.0
0.0 6.203752806243559e-05 2.2905696362590372e-05 -1.7980483998329764e-05 -4.925212364260696e-06 1.864148305441477e-05 0.0 0.0
0.0 1.7764958662467406e-06 -1.7819784004332652e-07 1.3787375695581053e-07 4.032408308752122e-08 -1.8782013217738892e-07 0.0 0.0
0.0 0.0 0.0 0.0 0.0 0.0 0.0 0.0
0.0 0.0 0.0 0.0 0.0 0.0 0.0 0.0
0.0 0.0036373664559882397 0.0023289386140101748 -0.0027432371931093128 0.00041429857909913747 0.0030117694739221768 0.0 0.0
0.0 0.002512033610401446 0.001537357796591858 -0.0018704081812107023 0.0003330503846188449 -0.0021062314337267412 0.0 0.0
0.0 0.0 0.0 0.0 0.0 0.0 0.0 0.0
0.0 0.0 0.0 0.0 0.0 0.0 0.0 0.0
0.0 6.929946244958124e-08 -5.867089801559984e-09 4.478351496008589e-09 1.388738305550426e-09 8.798859195521545e-09 0.0 0.0
0.0 1.9641192071170726e-05 2.9341025921313825e-06 -2.367313993646227e-06 -5.667885984851783e-07 -3.839873386676169e-06 0.0 0.0
0.0 0.00033012263762975365 0.00020834415817103392 -0.0001657511857301312 -4.2592972440902876e-05 -0.0001912382306550006 0.0 0.0
0.0 0.0014547777368820504 0.0010987028201299347 -0.0008999293748649607 -0.0001987734452649737 -0.0007743033110575885 0.0 0.0
0.0 0.0033110872507982033 0.0028231020858888673 -0.002415104982768345 -0.00040799710312052243 -0.001734151259247137 0.0 0.0
0.0 0.006027743999737506 0.005217947207088778 -0.004639564153391307 -0.0005783830536974686 -0.0029125366463703117 0.0 0.0
0.0 0.009459382898401937 0.008173131330553758 -0.007467993099020553 -0.0007051382315332062 -0.004174024549882127 0.0 0.0
0.0 0.013550722363895613 0.011672729213645334 -0.01086987223497844 -0.0008028569786668936 -0.005475031351699861 0.0 0.0
0.0 0.01834408689469061 0.01577964479175597 -0.01489466808800513 -0.0008849767037508394 -0.006787093520834807 0.0 0.0
0.0 0.02408314413452536 0.020644806131440336 -0.019684176197780068 -0.0009606299336602734 -0.008196546295771219 0.0 0.0
0.0 0.030764692241880585 0.026437477979350334 -0.025403012382321195 -0.0010344655970291438 -0.009823522730885804 0.0 0.0
0.0 0.0386804751540741 0.03321596005616545 -0.03210747052197596 -0.0011084895341894746 -0.011622400609411061 0.0 0.0
0.0 0.04766120073766053 0.04086038393366242 -0.03967657627060907 -0.0011838076630533443 -0.013337873915774144 0.0 0.0
0.0 0.05692195309986942 0.049023831770648986 -0.047763486729899676 -0.0012603450407493045 -0.014495627971825386 0.0 0.0
0.0 0.0660280801604952 0.05707149410037621 -0.055732281254495315 -0.0013392128458808914 -0.014311526357141611 0.0 0.0
0.0 0.07385996687211688 0.06405801033955622 -0.06264375395323335 -0.001414256386322857 -0.011862269583184114 0.0 0.0
0.0 0.07908343981364353 0.06882384433110691 -0.06735460735061738 -0.0014692369804895024 -0.00635916242695999 0.0 0.0
0.0 0.07908343981363894 0.06882384433110228 -0.06735460735061279 -0.0014692369804894332 0.006359162426987202 0.0 0.0
0.0 0.0738599668721055 0.0640580103395445 -0.06264375395322182 -0.0014142563863226677 0.011862269583220706 0.0 0.0
0.0 0.06602808016047444 0.057071494100356654 -0.05573228125447557 -0.0013392128458810707 0.014311526357167443 0.0 0.0
0.0 0.05692195309984714 0.049023831770628454 -0.047763486729879644 -0.0012603450407488212 0.014495627971837828 0.0 0.0
0.0 0.04766120073763282 0.04086038393363817 -0.03967657627058541 -0.0011838076630527642 0.013337873915770515 0.0 0.0
0.0 0.03868047515404404 0.03321596005613921 -0.032107470521950156 -0.0011084895341890383 0.011622400609406624 0.0 0.0
0.0 0.030764692241852507 0.02643747797932567 -0.025403012382297193 -0.001034465597028482 0.009823522730881752 0.0 0.0
0.0 0.024083144134499315 0.0206448061314172 -0.019684176197757426 -0.0009606299336597703 0.0081965462957673 0.0 0.0
0.0 0.018344086894665435 0.015779644791733796 -0.014894668087983731 -0.0008849767037500557 0.006787093520826516 0.0 0.0
0.0 0.01355072236387179 0.011672729213624576 -0.01086987223495844 -0.0008028569786661385 0.005475031351689566 0.0 0.0
0.0 0.009459382898380704 0.008173131330535831 -0.00746799309900333 -0.0007051382315324988 0.004174024549870062 0.0 0.0
0.0 0.006027743999720551 0.005217947207073892 -0.004639564153377211 -0.000578383053696678 0.0029125366463628424 0.0 0.0
0.0 0.0033110872507857623 0.0028231020858782395 -0.002415104982758779 -0.0004079971031194599 0.0017341512592407935 0.0 0.0
0.0 0.001454777736874261 0.0010987028201237684 -0.0008999293748597683 -0.00019877344526400055 0.0007743033110537739 0.0 0.0
0.0 0.00033012263762693955 0.00020834415816950368 -0.00016575118572890386 -4.259297244059984e-05 0.000191238230653551 0.0 0.0
0.0 1.9641192070602123e-05 2.934102592330633e-06 -2.367313993801568e-06 -5.667885985289943e-07 3.839873386921299e-06 0.0 0.0
0.0 6.92994622914334e-08 -5.86708978807203e-09 4.478351485713519e-09 1.3887383023585593e-09 -8.798859175293273e-09 0.0 0.0
0.0 0.0 0.0 0.0 0.0 0.0 0.0 0.0
0.0 0.0 0.0 0.0 0.0 0.0 0.0 0.0
0.0 0.002512033610391197 0.0015373577965854764 -0.0018704081812034512 0.00033305038461797423 0.0021062314337172167 0.0 0.0
0.0 0.0015948375592768317 0.0009418136515160242 -0.0011823071942531913 0.00024049354273716688 -0.0013489420598181037 0.0 0.0
0.0 0.0 0.0 0.0 0.0 0.0 0.0 0.0
0.0 0.0 0.0 0.0 0.0 0.0 0.0 0.0
0.0 0.0 0.0 0.0 0.0 0.0 0.0 0.0
0.0 1.0357222223247195e-05 -9.629514759713054e-07 7.42040758605245e-07 2.2091071736606066e-07 1.7961155124832236e-06 0.0 0.0
0.0 0.00012744974789693995 8.030906743601389e-05 -6.374575402529043e-05 -1.656331341072341e-05 -0.00011523816249213833 0.0 0.0
0.0 0.0008213821401059588 0.0005898057670455278 -0.0004751655792914679 -0.00011464018775405959 -0.0006036296756087647 0.0 0.0
0.0 0.002311154987103639 0.001832843856251372 -0.0015331490150567117 -0.00029969484119466024 -0.0015253777960349776 0.0 0.0
0.0 0.004506880942508489 0.0037567557722824854 -0.0032720860724165133 -0.0004846696998659726 -0.002763832908424051 0.0 0.0
0.0 0.007311597823986271 0.006186408215069843 -0.005561421946512922 -0.0006249862685569201 -0.004134088817322207 0.0 0.0
0.0 0.010658939297129955 0.009045562518310082 -0.008316842683595196 -0.0007287198347148864 -0.00550832139896797 0.0 0.0
0.0 0.014586312033054116 0.012376374898415645 -0.0115649882377513 -0.0008113866606643465 -0.006885683817540245 0.0 0.0
0.0 0.019218968147454815 0.016306122157638755 -0.015422984770447606 -0.0008831373871911563 -0.008352883235358979 0.0 0.0
0.0 0.024743294229543196 0.020990544314777797 -0.020040491855248508 -0.0009500524595292892 -0.010005266463313012 0.0 0.0
0.0 0.031294019901204694 0.026521542801522503 -0.02550641636146324 -0.0010151264400592658 -0.011843204762683059 0.0 0.0
0.0 0.03853151068683083 0.03284713207761993 -0.03176713361180593 -0.0010799984658140097 -0.01363713109729791 0.0 0.0
0.0 0.04656689655959337 0.039720726458773364 -0.038575668544571964 -0.0011450579142013733 -0.014888441422301155 0.0 0.0
0.0 0.05454621503572854 0.04671004649929286 -0.045499119697495184 -0.0012109268017976569 -0.014886751003691967 0.0 0.0
0.0 0.06147516885760868 0.053103081506480604 -0.051826442573303405 -0.0012766389331771747 -0.012616860534965772 0.0 0.0
0.0 0.06658837029732123 0.057849047748307236 -0.056518353488531986 -0.0013306942597752483 -0.006968369677329157 0.0 0.0
0.0 0.06658837029731599 0.057849047748301984 -0.056518353488526546 -0.0013306942597754556 0.006968369677355864 0.0 0.0
0.0 0.061475168857600446 0.05310308150647118 -0.051826442573294156 -0.0012766389331770288 0.012616860535001499 0.0 0.0
0.0 0.05454621503571483 0.046710046499278665 -0.04549911969748138 -0.0012109268017972924 0.014886751003717932 0.0 0.0
0.0 0.046566896559574536 0.0397207264587557 -0.03857566854455495 -0.001145057914200731 0.014888441422311572 0.0 0.0
0.0 0.03853151068680811 0.03284713207760023 -0.03176713361178682 -0.0010799984658133983 0.013637131097293396 0.0 0.0
0.0 0.03129401990118145 0.02652154280150215 -0.025506416361443573 -0.001015126440058574 0.011843204762677605 0.0 0.0
0.0 0.02474329422952016 0.02099054431475751 -0.020040491855228704 -0.0009500524595288133 0.010005266463308151 0.0 0.0
0.0 0.019218968147432475 0.01630612215761912 -0.015422984770428454 -0.0008831373871906627 0.008352883235354519 0.0 0.0
0.0 0.014586312033030926 0.012376374898395912 -0.011564988237731926 -0.0008113866606639846 0.006885683817530906 0.0 0.0
0.0 0.010658939297109028 0.009045562518292216 -0.008316842683578055 -0.0007287198347141597 0.005508321398957742 0.0 0.0
0.0 0.00731159782396784 0.006186408215054354 -0.005561421946498275 -0.0006249862685560766 0.004134088817309827 0.0 0.0
0.0 0.004506880942494169 0.003756755772270098 -0.0032720860724050668 -0.0004846696998650307 0.002763832908416042 0.0 0.0
0.0 0.0023111549870940525 0.0018328438562435188 -0.0015331490150498677 -0.00029969484119365063 0.0015253777960291264 0.0 0.0
0.0 0.0008213821401007232 0.0005898057670417895 -0.00047516557928838077 -0.00011464018775340874 0.000603629675605425 0.0 0.0
0.0 0.00012744974789524928 8.030906743547239e-05 -6.374575402485484e-05 -1.6563313410617595e-05 0.00011523816249132504 0.0 0.0
0.0 1.035722222266242e-05 -9.62951475913127e-07 7.420407585612027e-07 2.2091071735193387e-07 -1.7961155123846205e-06 0.0 0.0
0.0 0.0 0.0 0.0 0.0 0.0 0.0 0.0
0.0 0.0 0.0 0.0 0.0 0.0 0.0 0.0
0.0 0.0 0.0 0.0 0.0 0.0 0.0 0.0
0.0 0.0015948375592688365 0.0009418136515112999 -0.0011823071942476436 0.000240493542736344 0.0013489420598110128 0.0 0.0
0.0 0.0009117322435900693 0.0005026245419844971 -0.0006501029018556254 0.0001474783598711281 -0.000752028703162141 0.0 0.0
0.0 0.0 0.0 0.0 0.0 0.0 0.0 0.0
0.0 0.0 0.0 0.0 0.0 0.0 0.0 0.0
0.0 0.0 0.0 0.0 0.0 0.0 0.0 0.0
0.0 3.6831000902808427e-06 3.818793900741608e-08 -4.2290013722310745e-08 4.1020747148903776e-09 -1.730952593180933e-07 0.0 0.0
0.0 6.85155044299013e-05 2.11544685226327e-05 -1.6795270951449002e-05 -4.359197571183738e-06 -4.453983389843272e-05 0.0 0.0
0.0 0.0003916832830429305 0.0002448345661013114 -0.00019516234431813027 -4.9672221783181096e-05 -0.0003852970107314104 0.0 0.0
0.0 0.0013837705416847776 0.0010011109966269465 -0.0008177415362365248 -0.0001833694603904216 -0.001178158222165989 0.0 0.0
0.0 0.003056501334448579 0.0023776398272950775 -0.0020169624394465843 -0.00036067738784849204 -0.0023257923594791723 0.0 0.0
0.0 0.0052352866556758864 0.00425019739615414 -0.003733354641499295 -0.0005168427546548443 -0.0036950282570730126 0.0 0.0
0.0 0.007847405702384635 0.006471544228930801 -0.005840204298522849 -0.0006313399304079527 -0.00510232628524544 0.0 0.0
0.0 0.01089756006829378 0.00903896034062522 -0.008319081317315524 -0.0007198790233096943 -0.006476562624996225 0.0 0.0
0.0 0.01450307807478752 0.01204925918562097 -0.011257569977175048 -0.0007916892084459192 -0.007909746147486458 0.0 0.0
0.0 0.0187554562206535 0.015642577643279646 -0.01478804987927946 -0.0008545277640001792 -0.009501621800882022 0.0 0.0
0.0 0.023846140374205876 0.019921269673060068 -0.01900999153024478 -0.000911278142815282 -0.01125207461025866 0.0 0.0
0.0 0.02971503049485389 0.024898186331592555 -0.023930598081381815 -0.0009675882502107294 -0.012976667471930211 0.0 0.0
0.0 0.036090090599429116 0.0304355808487422 -0.029414410869667847 -0.0010211699790743493 -0.014275426523495196 0.0 0.0
0.0 0.04272506285691072 0.036284283325153516 -0.0352121543607969 -0.0010721289643566233 -0.014503043554584165 0.0 0.0
0.0 0.049126841274440794 0.04201455167668777 -0.04088850670490272 -0.0011260449717850434 -0.012673368184656267 0.0 0.0
0.0 0.054231310423089873 0.04676772652624255 -0.04558704790450778 -0.0011806786217347682 -0.0073981955191657605 0.0 0.0
0.0 0.054231310423089485 0.04676772652624112 -0.045587047904506794 -0.0011806786217343104 0.007398195519190355 0.0 0.0
0.0 0.04912684127443367 0.04201455167667899 -0.040888506704894016 -0.0011260449717849608 0.01267336818469066 0.0 0.0
0.0 0.04272506285689925 0.036284283325141005 -0.03521215436078431 -0.0010721289643566903 0.014503043554609022 0.0 0.0
0.0 0.036090090599415 0.030435580848728473 -0.02941441086965446 -0.0010211699790740104 0.014275426523504206 0.0 0.0
0.0 0.029715030494834704 0.024898186331576058 -0.02393059808136564 -0.0009675882502104041 0.012976667471924799 0.0 0.0
0.0 0.02384614037418628 0.01992126967304343 -0.019009991530228275 -0.0009112781428151532 0.01125207461025166 0.0 0.0
0.0 0.018755456220634847 0.015642577643263485 -0.014788049879263515 -0.0008545277639999677 0.00950162180087701 0.0 0.0
0.0 0.01450307807476945 0.012049259185605263 -0.011257569977159784 -0.0007916892084454771 0.007909746147480896 0.0 0.0
0.0 0.010897560068276347 0.00903896034061039 -0.008319081317301361 -0.000719879023309025 0.006476562624987366 0.0 0.0
0.0 0.00784740570236861 0.006471544228917647 -0.005840204298510323 -0.0006313399304073214 0.005102326285234949 0.0 0.0
0.0 0.005235286655662522 0.00425019739614353 -0.0037333546414895355 -0.0005168427546539948 0.003695028257062166 0.0 0.0
0.0 0.0030565013344372987 0.002377639827286172 -0.0020169624394385435 -0.00036067738784762744 0.0023257923594719614 0.0 0.0
0.0 0.001383770541676813 0.0010011109966210404 -0.000817741536231538 -0.00018336946038950298 0.0011781582221601057 0.0 0.0
0.0 0.00039168328303910386 0.000244834566098954 -0.00019516234431622253 -4.96722217827312e-05 0.00038529701072822077 0.0 0.0
0.0 6.851550442851352e-05 2.115446852236755e-05 -1.679527095123486e-05 -4.3591975711326186e-06 4.453983389785178e-05 0.0 0.0
0.0 3.6831000900083255e-06 3.818793916583575e-08 -4.22900138491723e-08 4.102074683330314e-09 1.7309525977702572e-07 0.0 0.0
0.0 0.0 0.0 0.0 0.0 0.0 0.0 0.0
0.0 0.0 0.0 0.0 0.0 0.0 0.0 0.0
0.0 0.0 0.0 0.0 0.0 0.0 0.0 0.0
0.0 0.0009117322435843613 0.0005026245419814901 -0.0006501029018519545 0.0001474783598704644 0.0007520287031575316 0.0 0.0
0.0 0.0004302620085130628 0.00020650618628312114 -0.00027686111678379064 7.03549305006698e-05 -0.0003191755738901828 0.0 0.0
0.0 1.266647607192392e-07 -7.072771973675951e-10 8.507483974345466e-10 -1.4347120006705642e-10 2.5171596720899338e-08 0.0 0.0
0.0 0.0 0.0 0.0 0.0 0.0 0.0 0.0
0.0 0.0 0.0 0.0 0.0 0.0 0.0 0.0
0.0 2.941446764786285e-06 -1.3952363807393717e-07 1.0592787567314353e-07 3.3595762400780106e-08 5.885360677433528e-07 0.0 0.0
0.0 3.899688680865155e-05 9.127179625295621e-06 -7.14332546306631e-06 -1.983854162229306e-06 -2.8444517347590214e-05 0.0 0.0
0.0 0.0001805821560876169 8.038217732220784e-05 -6.379287898781694e-05 -1.6589298334390893e-05 -0.0002101269741439981 0.0 0.0
0.0 0.000662106564554903 0.00039584167395310065 -0.0003163417665130907 -7.949990744000979e-05 -0.0007416255818325395 0.0 0.0
0.0 0.0017477257748436837 0.001179075632520335 -0.0009692834564668367 -0.00020979217605349816 -0.0016713601980576644 0.0 0.0
0.0 0.0032121837225626325 0.002428840044655487 -0.002064632470019195 -0.00036420757463629196 -0.002882192979705844 0.0 0.0
0.0 0.005177334684782317 0.003984343233865403 -0.003492533278925046 -0.000491809954940356 -0.0041928257007259806 0.0 0.0
0.0 0.007327930074669404 0.0057963302679218025 -0.005204862835789808 -0.0005914674321319927 -0.005505385095788789 0.0 0.0
0.0 0.009872765975294179 0.007908958282045625 -0.007237971632099157 -0.000670986649946465 -0.006848146124326882 0.0 0.0
0.0 0.012932332802929545 0.010429047665387579 -0.009693500400793753 -0.0007355472645938192 -0.008282923618748479 0.0 0.0
0.0 0.01664877815709471 0.013461865334831987 -0.012671999724848695 -0.0007898656099832923 -0.00983365084982974 0.0 0.0
0.0 0.02095447191847686 0.017068276375889715 -0.016230658221332593 -0.0008376181545571218 -0.011388233173006376 0.0 0.0
0.0 0.025862869411558 0.021216849903959743 -0.02033356756326452 -0.0008832823406952219 -0.012601743009789154 0.0 0.0
0.0 0.031024207546471252 0.025817496556743952 -0.024896504862388827 -0.0009209916943551054 -0.013017350162696848 0.0 0.0
0.0 0.03636859454643489 0.03074587394505331 -0.02979027952638333 -0.0009555944186699773 -0.011908568771305774 0.0 0.0
0.0 0.04133232579704143 0.03548033665580129 -0.03447120559264822 -0.001009131063153063 -0.007609598851860621 0.0 0.0
0.0 0.04133232579703994 0.03548033665579904 -0.03447120559264579 -0.0010091310631532408 0.0076095988518802785 0.0 0.0
0.0 0.03636859454642982 0.030745873945046142 -0.029790279526375904 -0.0009555944186702427 0.011908568771335549 0.0 0.0
0.0 0.031024207546463907 0.025817496556734845 -0.02489650486238011 -0.0009209916943547336 0.013017350162717264 0.0 0.0
0.0 0.025862869411546037 0.021216849903948152 -0.02033356756325342 -0.000883282340694732 0.012601743009794978 0.0 0.0
0.0 0.020954471918462468 0.017068276375877663 -0.016230658221320957 -0.0008376181545567002 0.011388233173000589 0.0 0.0
0.0 0.016648778157080633 0.013461865334820317 -0.012671999724837507 -0.0007898656099828048 0.009833650849823128 0.0 0.0
0.0 0.012932332802918 0.010429047665377738 -0.009693500400784153 -0.0007355472645935874 0.00828292361874489 0.0 0.0
0.0 0.009872765975284989 0.0079089582820375 -0.007237971632091454 -0.0006709866499460472 0.006848146124324269 0.0 0.0
0.0 0.007327930074657139 0.0057963302679117455 -0.005204862835780352 -0.0005914674321313939 0.005505385095781245 0.0 0.0
0.0 0.005177334684769623 0.003984343233855327 -0.0034925332789158305 -0.0004918099549394952 0.0041928257007164665 0.0 0.0
0.0 0.0032121837225508104 0.0024288400446467726 -0.0020646324700114155 -0.0003642075746353566 0.0028821929796955283 0.0 0.0
0.0 0.0017477257748365988 0.0011790756325151955 -0.0009692834564624562 -0.00020979217605273938 0.0016713601980518737 0.0 0.0
0.0 0.0006621065645510554 0.0003958416739505659 -0.0003163417665110601 -7.949990743950575e-05 0.0007416255818290507 0.0 0.0
0.0 0.00018058215608576176 8.038217732164301e-05 -6.379287898735387e-05 -1.6589298334289164e-05 0.0002101269741425097 0.0 0.0
0.0 3.8996886807919474e-05 9.127179625313685e-06 -7.143325463082084e-06 -1.983854162231579e-06 2.844451734764538e-05 0.0 0.0
0.0 2.9414467642801842e-06 -1.3952363805020315e-07 1.0592787565476392e-07 3.359576239544616e-08 -5.885360676368125e-07 0.0 0.0
0.0 0.0 0.0 0.0 0.0 0.0 0.0 0.0
0.0 0.0 0.0 0.0 0.0 0.0 0.0 0.0
0.0 1.2666476022059354e-07 -7.072771946710994e-10 8.50748394078545e-10 -1.4347119940746084e-10 -2.5171596621278046e-08 0.0 0.0
0.0 0.00043026200850940726 0.0002065061862816095 -0.00027686111678186574 7.035493050025642e-05 0.0003191755738878156 0.0 0.0
0.0 0.00012557088657354137 5.7744872704881134e-05 -8.125526380693323e-05 2.351039110205212e-05 -9.354336926904719e-05 0.0 0.0
0.0 1.8030073051673429e-06 -4.177191184509683e-09 1.0378638774830307e-08 -6.201447590320216e-09 3.8291760625588695e-07 0.0 0.0
0.0 8.129603515550081e-07 -9.729788138728575e-10 -5.062304710215263e-10 1.479209284894036e-09 1.6676851108718092e-07 0.0 0.0
0.0 1.3942118126280809e-06 -1.7202479833820512e-08 1.1633862331670308e-08 5.568617502153395e-09 2.882879494068393e-07 0.0 0.0
0.0 3.205132739653553e-06 -3.393296947001212e-08 2.81302185630958e-08 5.802750906912125e-09 4.197784133482647e-07 0.0 0.0
0.0 3.124670119340136e-05 3.4443321768593908e-06 -2.737197081367506e-06 -7.071350954918882e-07 -1.989716218630216e-05 0.0 0.0
0.0 0.00012323839275965852 3.159836143536272e-05 -2.5084256817104752e-05 -6.514104618257931e-06 -0.00014861572137852202 0.0 0.0
0.0 0.00029164423673782105 0.00011328076343656959 -8.987131913633843e-05 -2.3409444300231127e-05 -0.00042679341942521365 0.0 0.0
0.0 0.0007279087946225213 0.0003430701144925797 -0.0002735491026175875 -6.95210118749921e-05 -0.0009349541516814399 0.0 0.0
0.0 0.0015073068239932607 0.0008803074850517494 -0.0007158282561280487 -0.00016447922892370072 -0.0017817070587974127 0.0 0.0
0.0 0.0025876343923340248 0.0017128034542957889 -0.0014319149327125637 -0.00028088852158322455 -0.0028249008423988147 0.0 0.0
0.0 0.0039689399685796595 0.0027347844208210955 -0.002349863060042314 -0.000384921360778781 -0.003939909021188271 0.0 0.0
0.0 0.005553120109898963 0.003955576497505209 -0.0034791676608462063 -0.0004764088366590007 -0.005136975261552109 0.0 0.0
0.0 0.007451019829106523 0.00542782691022639 -0.00487447614430884 -0.000553350765917548 -0.006378854751601281 0.0 0.0
0.0 0.009741797192444572 0.007228941120945779 -0.006613342367097535 -0.0006155987538482446 -0.007674627954100259 0.0 0.0
0.0 0.012503581717887503 0.009447609102781564 -0.008782675205496304 -0.0006649338972852614 -0.00898457532989982 0.0 0.0
0.0 0.015817417388338036 0.012160980292648818 -0.011454858343200296 -0.0007061219494485259 -0.010105326397828036 0.0 0.0
0.0 0.019580119776700218 0.015420265516306032 -0.014676011722682089 -0.0007442537936239479 -0.010591916509173672 0.0 0.0
0.0 0.023871975304344283 0.019306086286839663 -0.018547870658132546 -0.0007582156287071231 -0.010143342985586903 0.0 0.0
0.0 0.02854398997065537 0.023856602972778078 -0.023058519449724264 -0.0007980835230538225 -0.0074449634781049035 0.0 0.0
0.0 0.028543989970654972 0.023856602972776517 -0.023058519449722717 -0.000798083523053811 0.007444963478120794 0.0 0.0
0.0 0.023871975304343006 0.019306086286835694 -0.018547870658128636 -0.0007582156287070569 0.0101433429856111 0.0 0.0
0.0 0.019580119776695968 0.015420265516299742 -0.01467601172267607 -0.0007442537936236729 0.010591916509189584 0.0 0.0
0.0 0.015817417388330757 0.012160980292641876 -0.011454858343193498 -0.0007061219494483735 0.0101053263978307 0.0 0.0
0.0 0.012503581717878118 0.009447609102774559 -0.008782675205489575 -0.000664933897284981 0.00898457532989366 0.0 0.0
0.0 0.009741797192435812 0.007228941120939365 -0.006613342367091402 -0.0006155987538479618 0.007674627954093497 0.0 0.0
0.0 0.007451019829099594 0.005427826910220619 -0.004874476144303429 -0.0005533507659171882 0.006378854751598236 0.0 0.0
0.0 0.005553120109892443 0.003955576497499653 -0.0034791676608410455 -0.00047640883665860773 0.005136975261549177 0.0 0.0
0.0 0.003968939968572543 0.002734784420816147 -0.0023498630600379718 -0.00038492136077817565 0.003939909021181836 0.0 0.0
0.0 0.0025876343923281744 0.0017128034542919792 -0.001431914932709297 -0.00028088852158268126 0.002824900842392977 0.0 0.0
0.0 0.0015073068239861358 0.0008803074850474855 -0.0007158282561244455 -0.0001644792289230395 0.0017817070587898586 0.0 0.0
0.0 0.000727908794619008 0.0003430701144905374 -0.00027354910261593685 -6.952101187460047e-05 0.0009349541516774474 0.0 0.0
0.0 0.0002916442367359673 0.00011328076343595757 -8.987131913585219e-05 -2.340944430010537e-05 0.00042679341942318386 0.0 0.0
0.0 0.0001232383927583714 3.159836143513853e-05 -2.5084256816925747e-05 -6.514104618212765e-06 0.00014861572137744657 0.0 0.0
0.0 3.12467011928396e-05 3.444332176856298e-06 -2.737197081363885e-06 -7.071350954924007e-07 1.989716218630343e-05 0.0 0.0
0.0 3.2051327393690517e-06 -3.393296940047012e-08 2.8130218512229752e-08 5.802750888238523e-09 -4.1977841285121245e-07 0.0 0.0
0.0 1.3942118121365584e-06 -1.7202479827439693e-08 1.1633862327329383e-08 5.568617500112952e-09 -2.8828794930130727e-07 0.0 0.0
0.0 8.12960351106587e-07 -9.729788137991681e-10 -5.062304704954294e-10 1.479209284295063e-09 -1.667685109932312e-07 0.0 0.0
0.0 1.8030073045943297e-06 -4.1771911826671024e-09 1.0378638770354691e-08 -6.201447587687759e-09 -3.8291760613307903e-07 0.0 0.0
0.0 0.00012557088657178471 5.7744872704470296e-05 -8.125526380635412e-05 2.3510391101883765e-05 9.354336926851024e-05 0.0 0.0
0.0 1.7481175892370467e-05 4.829348342371707e-06 -7.015630157336073e-06 2.1862818149643733e-06 -8.513337691013585e-06 0.0 0.0
0.0 2.3409661729961703e-06 6.496376963596438e-10 1.3091562580591183e-08 -1.3741200276949575e-08 4.872012716183131e-07 0.0 0.0
0.0 8.28283976103979e-07 8.757322001854407e-09 -7.994197467743662e-09 -7.631245341108108e-10 1.6872916499049268e-07 0.0 0.0
0.0 1.0341171999299922e-06 3.4830124123105497e-09 -4.631541757330647e-09 1.1485293450206947e-09 2.129476539670559e-07 0.0 0.0
0.0 5.455561020512527e-06 -1.877319191668789e-08 9.400339741409076e-09 9.372852175272426e-09 1.2338249442580408e-06 0.0 0.0
0.0 2.745500166096781e-05 1.1289478762160638e-06 -8.757381695050328e-07 -2.5320970671102055e-07 -2.2389481720415597e-05 0.0 0.0
0.0 9.974357169404712e-05 9.659038729526375e-06 -7.638456535001518e-06 -2.0205821945248574e-06 -0.0001433427180463912 0.0 0.0
0.0 0.00024334438333345387 2.805227965992081e-05 -2.2238830881636073e-05 -5.813448778284705e-06 -0.000329529292966388 0.0 0.0
0.0 0.0004060729832512308 6.646001652257771e-05 -5.2876186487341276e-05 -1.3583830035236475e-05 -0.0006276027820455998 0.0 0.0
0.0 0.0006999808656356849 0.00013115150876505006 -0.0001049822549169644 -2.6169253848085635e-05 -0.0010272060448844077 0.0 0.0
0.0 0.0009926340167000993 0.0002465544465395317 -0.00019812038605232133 -4.843406048721044e-05 -0.0016332890219665857 0.0 0.0
0.0 0.0015002750535126974 0.0004405455451660522 -0.0003534140204712001 -8.713152469485194e-05 -0.0023790554249160222 0.0 0.0
0.0 0.002160040806561499 0.0007232378855542197 -0.0005818932001733111 -0.00014134468538090875 -0.0032849840961467177 0.0 0.0
0.0 0.0030018548177969465 0.0010889771864121252 -0.0008849114917454953 -0.0002040656946666298 -0.0043582117877305915 0.0 0.0
0.0 0.004047828589447994 0.0016080152527035627 -0.0013388841093260842 -0.00026913114337747855 -0.005620887380115623 0.0 0.0
0.0 0.0054219325902691105 0.002388340737622354 -0.00205853594542962 -0.0003298047921927322 -0.006979264973208537 0.0 0.0
0.0 0.007148786810967211 0.0035972929708902824 -0.0032138336317293816 -0.0003834593391608991 -0.008192342877333293 0.0 0.0
0.0 0.009321566215950362 0.005453560558097558 -0.0050111638520841315 -0.0004423967060134269 -0.00878653200292262 0.0 0.0
0.0 0.01207811692661577 0.008084408665828725 -0.0075860597782221595 -0.0004983488876065642 -0.008373423721806208 0.0 0.0
0.0 0.015944183278601663 0.011923647113275796 -0.011439866499316028 -0.0004837806139597639 -0.007069659248859279 0.0 0.0
0.0 0.01594418327860382 0.011923647113276535 -0.01143986649931681 -0.0004837806139597219 0.007069659248870565 0.0 0.0
0.0 0.012078116926619501 0.008084408665828624 -0.007586059778222366 -0.0004983488876062545 0.008373423721825883 0.0 0.0
0.0 0.009321566215949977 0.0054535605580954055 -0.005011163852082026 -0.00044239670601337543 0.008786532002932078 0.0 0.0
0.0 0.007148786810963435 0.003597292970887622 -0.0032138336317269066 -0.00038345933916071346 0.00819234287733249 0.0 0.0
0.0 0.005421932590265281 0.002388340737620784 -0.00205853594542811 -0.00032980479219267263 0.006979264973203111 0.0 0.0
0.0 0.004047828589444167 0.0016080152527020077 -0.0013388841093246908 -0.0002691311433773162 0.005620887380110318 0.0 0.0
0.0 0.0030018548177941765 0.0010889771864111442 -0.0008849114917446687 -0.00020406569466647567 0.0043582117877269235 0.0 0.0
0.0 0.00216004080655982 0.0007232378855538844 -0.0005818932001731005 -0.0001413446853807834 0.0032849840961441945 0.0 0.0
0.0 0.0015002750535093759 0.00044054554516529906 -0.00035341402047054516 -8.713152469475373e-05 0.002379055424910616 0.0 0.0
0.0 0.0009926340166976117 0.00024655444653887886 -0.0001981203860517904 -4.8434060487088466e-05 0.0016332890219622653 0.0 0.0
0.0 0.0006999808656322664 0.00013115150876452655 -0.0001049822549164857 -2.6169253848040817e-05 0.0010272060448795952 0.0 0.0
0.0 0.00040607298324980097 6.64600165223702e-05 -5.287618648718862e-05 -1.3583830035181507e-05 0.0006276027820434391 0.0 0.0
0.0 0.00024334438333245857 2.805227965979247e-05 -2.2238830881526938e-05 -5.813448778265523e-06 0.00032952929296497325 0.0 0.0
0.0 9.974357169315133e-05 9.659038729464041e-06 -7.638456534949683e-06 -2.020582194514349e-06 0.00014334271804544694 0.0 0.0
0.0 2.745500166045621e-05 1.1289478762164456e-06 -8.7573816950405e-07 -2.532097067123999e-07 2.238948172043854e-05 0.0 0.0
0.0 5.4555610200182124e-06 -1.87731919147807e-08 9.400339740515117e-09 9.372852174262189e-09 -1.2338249441362645e-06 0.0 0.0
0.0 1.0341171994111593e-06 3.4830124097744975e-09 -4.63154175459075e-09 1.1485293448161685e-09 -2.1294765385734702e-07 0.0 0.0
0.0 8.282839756553083e-07 8.757321996808003e-09 -7.99419746324245e-09 -7.631245335657651e-10 -1.687291648967851e-07 0.0 0.0
0.0 2.340966172321822e-06 6.496376968874008e-10 1.3091562575233056e-08 -1.3741200272117913e-08 -4.87201271473837e-07 0.0 0.0
0.0 1.7481175891807437e-05 4.829348342434351e-06 -7.0156301574278256e-06 2.1862818149934257e-06 8.51333769115469e-06 0.0 0.0
0.0 1.746363269014452e-06 -1.080716133846742e-07 1.601080298073669e-07 -5.203641642269867e-08 2.3480853834527648e-07 0.0 0.0
0.0 1.7796170291698353e-06 6.777231581667589e-09 2.818520896233413e-09 -9.595752477896557e-09 3.8083891622846305e-07 0.0 0.0
0.0 1.006612653282911e-06 1.8800037151531995e-08 -1.6160969127413305e-08 -2.6390680241173787e-09 2.0557945423080885e-07 0.0 0.0
0.0 1.3830639415008088e-06 2.5459537940910303e-08 -2.257136934973081e-08 -2.8881685911793595e-09 2.8364822182210734e-07 0.0 0.0
0.0 6.329568723119171e-06 1.2100159608371412e-07 -9.95749289913299e-08 -2.1426667092374816e-08 1.450807040856032e-06 0.0 0.0
0.0 3.114052023331402e-05 -1.3520208815888742e-06 1.1135221584777667e-06 2.3849872311110145e-07 -2.0739449957035646e-05 0.0 0.0
0.0 0.00010170175055164383 -1.021066980493517e-05 8.170471148997422e-06 2.040198655937732e-06 -0.00014422148198048052 0.0 0.0
0.0 0.00024369046380796238 -2.8043258515588157e-05 2.2228542528706165e-05 5.814715986881939e-06 -0.0003299546547653543 0.0 0.0
0.0 0.00040584779047205715 -6.615158651578312e-05 5.260795620866496e-05 1.354363030711815e-05 -0.0006275875797370974 0.0 0.0
0.0 0.0006982788332828729 -0.00013056609064022014 0.00010444307060135083 2.6123020038869358e-05 -0.0010251659969941341 0.0 0.0
0.0 0.0009951974598560514 -0.00024088594208385093 0.0001943201452673998 4.656579681645111e-05 -0.0016277726334222745 0.0 0.0
0.0 0.001502609983946845 -0.00044344369276708997 0.0003562851795809907 8.715851318609924e-05 -0.002379994450662398 0.0 0.0
0.0 0.0021688887575022713 -0.0007349094709643781 0.000592409601608006 0.00014249986935637175 -0.0032873988515856197 0.0 0.0
0.0 0.0030162274028417155 -0.0011096489379769942 0.0009018245021774909 0.00020782443579950332 -0.0043636955564795655 0.0 0.0
0.0 0.004032664412991846 -0.0015853035131522422 0.0013083217051349932 0.0002769818080172481 -0.005627845776932739 0.0 0.0
0.0 0.005189222021114172 -0.0020450656364144003 0.0017024925754598335 0.00034257306095456495 -0.00703292297658125 0.0 0.0
0.0 0.006240829235609241 -0.0022447299073275317 0.001851784735893939 0.0003929451714335913 -0.008569483632955439 0.0 0.0
0.0 0.007020990393105063 -0.0019030386790276055 0.0014746383521244682 0.0004284003269031371 -0.010221694487273855 0.0 0.0
0.0 0.007354615860868296 -0.000969382583890905 0.0006441986863908487 0.00032518389750005566 -0.011546106509651278 0.0 0.0
0.0 0.006890804272800125 0.0015974953114423337 -0.0016871398847785777 8.964457333624333e-05 -0.010089259237150419 0.0 0.0
0.0 0.006890804272803417 0.0015974953114421243 -0.0016871398847784927 8.964457333636775e-05 0.010089259237158837 0.0 0.0
0.0 0.007354615860871234 -0.0009693825838906448 0.0006441986863907058 0.000325183897499938 0.011546106509659395 0.0 0.0
0.0 0.007020990393104146 -0.0019030386790270704 0.0014746383521242314 0.00042840032690283814 0.0102216944872752 0.0 0.0
0.0 0.006240829235605143 -0.002244729907325607 0.0018517847358923245 0.0003929451714332822 0.00856948363295127 0.0 0.0
0.0 0.005189222021108978 -0.0020450656364115476 0.0017024925754572076 0.0003425730609543393 0.007032922976575073 0.0 0.0
0.0 0.00403266441298694 -0.0015853035131499116 0.0013083217051330356 0.0002769818080168751 0.005627845776927152 0.0 0.0
0.0 0.0030162274028367343 -0.001109648937974509 0.0009018245021755235 0.0002078244357989855 0.004363695556474635 0.0 0.0
0.0 0.0021688887574986817 -0.0007349094709620205 0.000592409601606088 0.00014249986935593235 0.0032873988515821394 0.0 0.0
0.0 0.0015026099839421398 -0.0004434436927649055 0.00035628517957919545 8.715851318571004e-05 0.0023799944506563385 0.0 0.0
0.0 0.0009951974598527951 -0.00024088594208265205 0.00019432014526644918 4.656579681620283e-05 0.0016277726334176274 0.0 0.0
0.0 0.0006982788332789145 -0.00013056609063940457 0.00010444307060063997 2.612302003876458e-05 0.001025165996989313 0.0 0.0
0.0 0.0004058477904707875 -6.615158651542096e-05 5.260795620836324e-05 1.3543630307057711e-05 0.0006275875797352949 0.0 0.0
0.0 0.00024369046380687558 -2.8043258515414366e-05 2.222854252856188e-05 5.814715986852476e-06 0.0003299546547640377 0.0 0.0
0.0 0.00010170175055063807 -1.0210669804851524e-05 8.170471148944782e-06 2.0401986559067317e-06 0.00014422148197935317 0.0 0.0
0.0 3.1140520232686645e-05 -1.3520208815902322e-06 1.1135221584817768e-06 2.384987231084669e-07 2.073944995706315e-05 0.0 0.0
0.0 6.329568722502479e-06 1.210015960720766e-07 -9.957492898152986e-08 -2.142666709055061e-08 -1.4508070407032778e-06 0.0 0.0
0.0 1.38306394101384e-06 2.5459537931086613e-08 -2.257136934122153e-08 -2.8881685898646692e-09 -2.8364822171881803e-07 0.0 0.0
0.0 1.0066126526757192e-06 1.8800037139368483e-08 -1.616096911716342e-08 -2.639068022204588e-09 -2.0557945410441137e-07 0.0 0.0
0.0 1.7796170285604457e-06 6.777231579867834e-09 2.8185208935578717e-09 -9.595752473420792e-09 -3.808389160997736e-07 0.0 0.0
0.0 1.7463632684856744e-06 -1.0807161335057875e-07 1.601080297566021e-07 -5.2036416406020456e-08 -2.3480853827189452e-07 0.0 0.0
0.0 0.0 0.0 0.0 0.0 0.0 0.0 0.0
0.0 3.3206270015814023e-07 3.228124362425176e-09 -1.4545472289870203e-09 -1.773577133437446e-09 6.641880132428198e-08 0.0 0.0
0.0 1.1358547083526696e-06 2.9199022431040485e-08 -2.4414515400477513e-08 -4.784507030563987e-09 2.311035997749412e-07 0.0 0.0
0.0 4.433390297608247e-06 1.6015753021184142e-07 -1.3149237797340506e-07 -2.8665152238422848e-08 9.6169292488308e-07 0.0 0.0
0.0 7.169012153651037e-06 -1.5534393064781125e-07 1.5558884738275892e-07 -2.449167349398359e-10 -1.3821419345701872e-06 0.0 0.0
0.0 3.790426983820422e-05 -6.48149807489283e-06 5.128398367616349e-06 1.3530997072764424e-06 -3.3353776005530116e-05 0.0 0.0
0.0 0.00013088387574602565 -3.255958403832572e-05 2.5947277021166173e-05 6.61230701715955e-06 -0.00015143319091946998 0.0 0.0
0.0 0.0002931140606129518 -0.00011350043140060982 9.005091105723017e-05 2.344952034337963e-05 -0.0004279095140551834 0.0 0.0
0.0 0.0007255225354930696 -0.00034232206673460427 0.00027288603965384495 6.943602708075934e-05 -0.0009339045138427424 0.0 0.0
0.0 0.0015045148939893714 -0.0008788762584450531 0.000714602889462473 0.00016427336898257997 -0.0017800978079386045 0.0 0.0
0.0 0.002587159701195375 -0.0017127222001144967 0.0014320472131722347 0.0002806749869422615 -0.002824871994945446 0.0 0.0
0.0 0.003974324364726141 -0.002740759215409786 0.0023560497399359847 0.0003847094754738012 -0.003939658403742929 0.0 0.0
0.0 0.005571447017272531 -0.003976001742025876 0.0034997091407465513 0.0004762926012793231 -0.005128978638026207 0.0 0.0
0.0 0.00748487304371354 -0.005462890017506889 0.004907217180640041 0.0005556728368668472 -0.006367001831511075 0.0 0.0
0.0 0.009733926592645877 -0.007204701518021261 0.006578886265102852 0.0006258152529184076 -0.007720908360901036 0.0 0.0
0.0 0.0121982360570628 -0.009072259877260661 0.008384390403521493 0.0006878694737391671 -0.009283716163641445 0.0 0.0
0.0 0.014579515979375927 -0.01073914701807984 0.009995448481463394 0.0007436985366164495 -0.01109453614555548 0.0 0.0
0.0 0.016285096683963905 -0.011691777831586606 0.010902070281177099 0.0007897075504095081 -0.013043844429963824 0.0 0.0
0.0 0.015961109195876913 -0.010997748233205625 0.010121232563573663 0.0008765156696319584 -0.013812695022196383 0.0 0.0
0.0 0.011878824891375232 -0.007094829943132701 0.0061972286244874625 0.0008976013186452375 -0.01133408298810121 0.0 0.0
0.0 0.011878824891381156 -0.007094829943134259 0.006197228624488977 0.0008976013186452806 0.01133408298811572 0.0 0.0
0.0 0.015961109195882665 -0.01099774823320621 0.010121232563574336 0.0008765156696318676 0.01381269502221695 0.0 0.0
0.0 0.01628509668396176 -0.011691777831582192 0.010902070281172882 0.0007897075504093062 0.013043844429976064 0.0 0.0
0.0 0.014579515979367082 -0.01073914701807208 0.00999544848145594 0.0007436985366161396 0.01109453614555415 0.0 0.0
0.0 0.012198236057049259 -0.009072259877249812 0.008384390403511058 0.0006878694737387547 0.009283716163633243 0.0 0.0
0.0 0.009733926592634353 -0.007204701518012106 0.0065788862650939615 0.000625815252918145 0.007720908360894058 0.0 0.0
0.0 0.007484873043703083 -0.005462890017498808 0.004907217180632346 0.0005556728368664613 0.006367001831504095 0.0 0.0
0.0 0.005571447017261389 -0.003976001742016454 0.0034997091407376144 0.00047629260127883793 0.005128978638020595 0.0 0.0
0.0 0.003974324364713898 -0.002740759215400723 0.002356049739927653 0.00038470947547306956 0.003939658403733878 0.0 0.0
0.0 0.0025871597011843314 -0.0017127222001068422 0.0014320472131654834 0.00028067498694135846 0.002824871994935925 0.0 0.0
0.0 0.0015045148939799168 -0.0008788762584388671 0.0007146028894572876 0.00016427336898157938 0.001780097807929536 0.0 0.0
0.0 0.0007255225354891393 -0.0003423220667323008 0.00027288603965193133 6.943602708036939e-05 0.0009339045138383496 0.0 0.0
0.0 0.0002931140606112288 -0.00011350043139990368 9.005091105666626e-05 2.344952034323743e-05 0.00042790951405328374 0.0 0.0
0.0 0.000130883875744465 -3.255958403810885e-05 2.5947277020996312e-05 6.612307017112473e-06 0.000151433190918506 0.0 0.0
0.0 3.790426983751688e-05 -6.48149807486659e-06 5.128398367596548e-06 1.3530997072700444e-06 3.3353776005408075e-05 0.0 0.0
0.0 7.169012153279214e-06 -1.5534393070769166e-07 1.5558884743392183e-07 -2.449167262469419e-10 1.3821419349661026e-06 0.0 0.0
0.0 4.433390297146278e-06 1.6015753019507324e-07 -1.3149237795953612e-07 -2.8665152235533242e-08 -9.61692924777465e-07 0.0 0.0
0.0 1.1358547078605477e-06 2.919902241766033e-08 -2.441451538947173e-08 -4.7845070281886985e-09 -2.3110359967327132e-07 0.0 0.0
0.0 3.3206269971330245e-07 3.2281243589135146e-09 -1.4545472286881782e-09 -1.7735771302251563e-09 -6.64188012348373e-08 0.0 0.0
0.0 0.0 0.0 0.0 0.0 0.0 0.0 0.0
0.0 0.0 0.0 0.0 0.0 0.0 0.0 0.0
0.0 3.514827227909665e-07 4.949457227588909e-09 -3.035179226646225e-09 -1.914278000941817e-09 7.106311338534543e-08 0.0 0.0
0.0 2.3595770756542535e-06 8.103527067074457e-08 -6.628456757845172e-08 -1.4750703092293867e-08 4.821090557083344e-07 0.0 0.0
0.0 6.5906872819304125e-06 3.108815427979235e-07 -2.5702362177301864e-07 -5.385792102489637e-08 1.4093816020137892e-06 0.0 0.0
0.0 1.1600021196951635e-05 -1.3437114547065093e-06 1.0556063262900787e-06 2.881051284164401e-07 -4.4207927635558656e-06 0.0 0.0
0.0 5.280445399384989e-05 -1.3587418162096447e-05 1.0903828012767121e-05 2.6835901493293054e-06 -4.296273959099789e-05 0.0 0.0
0.0 0.00019297297669381423 -8.409430789946679e-05 6.681148577367497e-05 1.728282212579181e-05 -0.00021761559803967512 0.0 0.0
0.0 0.000663782630494665 -0.00039621866048032 0.0003166777914131267 7.954086906719326e-05 -0.0007427984143355628 0.0 0.0
0.0 0.001742977096752481 -0.0011766629893662187 0.0009671022108826339 0.00020956077848358447 -0.001667949794597968 0.0 0.0
0.0 0.0032094586941798222 -0.002427625298950631 0.0020634723853478498 0.0003641529136027799 -0.0028802018487743054 0.0 0.0
0.0 0.005177980174667295 -0.003985168078077027 0.0034934348445067403 0.0004917332335702887 -0.0041930676820301 0.0 0.0
0.0 0.007331692891031999 -0.005800505933548585 0.005209497613563981 0.0005910083199846025 -0.00550128217513364 0.0 0.0
0.0 0.009881104974664597 -0.007923509255987778 0.0072534225304847644 0.0006700867255030118 -0.00681874902562948 0.0 0.0
0.0 0.012947878865083032 -0.010457962494325679 0.00972139045208711 0.0007365720422385664 -0.008217732209169198 0.0 0.0
0.0 0.016637883940895395 -0.013451081989319776 0.012652811266427219 0.0007982707228925553 -0.009839826280508196 0.0 0.0
0.0 0.020739924992227196 -0.016776063013685984 0.015916764937337034 0.0008592980763489511 -0.011886547237929871 0.0 0.0
0.0 0.024938742342215492 -0.020025539941892528 0.019104459336602424 0.0009210806052901008 -0.014523068573380194 0.0 0.0
0.0 0.028013869904861963 -0.022378528956036772 0.021377556002487492 0.0010009729535492805 -0.017334369618822357 0.0 0.0
0.0 0.028392577100299035 -0.022326299788661602 0.021225696659708887 0.00110060312895272 -0.018749695800839853 0.0 0.0
0.0 0.022439014024364545 -0.017408987361439913 0.01615326940495118 0.0012557179564887258 -0.015423392466140358 0.0 0.0
0.0 0.022439014024369864 -0.01740898736144107 0.016153269404951764 0.001255717956489303 0.015423392466159973 0.0 0.0
0.0 0.028392577100301915 -0.02232629978865957 0.021225696659706816 0.0011006031289527403 0.018749695800864306 0.0 0.0
0.0 0.02801386990485724 -0.022378528956029403 0.0213775560024805 0.0010009729535488988 0.017334369618839246 0.0 0.0
0.0 0.024938742342200275 -0.020025539941878747 0.0191044593365889 0.000921080605289847 0.01452306857338059 0.0 0.0
0.0 0.020739924992212055 -0.01677606301367323 0.01591676493732455 0.0008592980763486809 0.011886547237923744 0.0 0.0
0.0 0.01663788394088214 -0.013451081989308729 0.012652811266416346 0.0007982707228923782 0.009839826280502144 0.0 0.0
0.0 0.01294787886507029 -0.010457962494314974 0.009721390452076963 0.0007365720422380095 0.0082177322091628 0.0 0.0
0.0 0.00988110497464988 -0.007923509255974948 0.007253422530472592 0.0006700867255023527 0.006818749025623884 0.0 0.0
0.0 0.007331692891016329 -0.005800505933535735 0.005209497613551824 0.000591008319983908 0.005501282175124331 0.0 0.0
0.0 0.005177980174652125 -0.003985168078064968 0.003493434844495504 0.0004917332335694642 0.0041930676820190905 0.0 0.0
0.0 0.0032094586941656842 -0.0024276252989400503 0.002063472385338154 0.00036415291360189695 0.0028802018487628436 0.0 0.0
0.0 0.001742977096743538 -0.0011766629893594348 0.0009671022108767423 0.000209560778482693 0.001667949794590851 0.0 0.0
0.0 0.0006637826304903069 -0.0003962186604775411 0.00031667779141089257 7.954086906664852e-05 0.0007427984143316841 0.0 0.0
0.0 0.00019297297669148278 -8.409430789878199e-05 6.68114857731263e-05 1.7282822125655674e-05 0.00021761559803801662 0.0 0.0
0.0 5.280445399231519e-05 -1.3587418161952046e-05 1.0903828012651222e-05 2.683590149300776e-06 4.296273959053759e-05 0.0 0.0
0.0 1.1600021196556521e-05 -1.3437114547672892e-06 1.0556063263383583e-06 2.881051284288879e-07 4.42079276378205e-06 0.0 0.0
0.0 6.590687281374371e-06 3.1088154276881837e-07 -2.570236217490074e-07 -5.385792101982278e-08 -1.4093816018841068e-06 0.0 0.0
0.0 2.3595770750547986e-06 8.103527064889636e-08 -6.628456756069521e-08 -1.4750703088195763e-08 -4.821090555798598e-07 0.0 0.0
0.0 3.5148272258278746e-07 4.949457224581214e-09 -3.0351792247973143e-09 -1.914277999783761e-09 -7.106311334223886e-08 0.0 0.0
0.0 0.0 0.0 0.0 0.0 0.0 0.0 0.0
0.0 0.0 0.0 0.0 0.0 0.0 0.0 0.0
0.0 0.0 0.0 0.0 0.0 0.0 0.0 0.0
0.0 1.762862297087584e-06 7.425115861487428e-08 -6.029149643128876e-08 -1.3959662183589334e-08 3.448992119798501e-07 0.0 0.0
0.0 4.58770679062191e-06 2.7294939559293195e-07 -2.183078796117846e-07 -5.464151598115147e-08 8.858411341519771e-07 0.0 0.0
0.0 1.6654998525904797e-05 -1.317490324240975e-06 1.1049541535621788e-06 2.1253617067882798e-07 -3.584608602545537e-06 0.0 0.0
0.0 8.065789013531291e-05 -3.2641553329328545e-05 2.596366529355654e-05 6.677888035772004e-06 -6.923708487523839e-05 0.0 0.0
0.0 0.00041196779727767 -0.00024993523271533914 0.000199670732271025 5.0264500444314344e-05 -0.00039441105117618807 0.0 0.0
0.0 0.0013831010710864543 -0.0009994894215581245 0.0008164242150997405 0.00018306520645838416 -0.001176807136556005 0.0 0.0
0.0 0.0030515183590301897 -0.0023748673842176435 0.0020143024014094135 0.0003605649828082306 -0.0023210231772883027 0.0 0.0
0.0 0.005231986068334144 -0.004250266989012239 0.003733331772100009 0.0005169352169122297 -0.0036934455094777096 0.0 0.0
0.0 0.007849397957829272 -0.006473150570199804 0.0058418636007899595 0.0006312869694098416 -0.0051033121751153055 0.0 0.0
0.0 0.01089757450466744 -0.00903988004687398 0.00832035018401072 0.0007195298628632578 -0.0064706457361905 0.0 0.0
0.0 0.014495700171424656 -0.01205040267860736 0.011259664404544269 0.0007907382740630884 -0.007863889179559068 0.0 0.0
0.0 0.01874147792073685 -0.01565059204578908 0.01479634425812368 0.0008542477876653954 -0.009378609518674998 0.0 0.0
0.0 0.023833725568689054 -0.019923001881613292 0.019007166411911535 0.0009158354697017465 -0.01117596704950657 0.0 0.0
0.0 0.02965184976401425 -0.024755229829011453 0.023772161470230358 0.000983068358781091 -0.013560519751967476 0.0 0.0
0.0 0.03555270035384455 -0.029613322530266283 0.02855040581458059 0.001062916715685674 -0.01676020748026314 0.0 0.0
0.0 0.040205124197525866 -0.0332851341124799 0.03212040590650926 0.001164728205970631 -0.020309854862286255 0.0 0.0
0.0 0.04095770123886029 -0.03365378274147578 0.032355308009682435 0.0012984747317933212 -0.022360214695926566 0.0 0.0
0.0 0.033477985520944845 -0.0273455829350494 0.02586178298126575 0.0014837999537836491 -0.019384825511605745 0.0 0.0
0.0 0.033477985520949244 -0.027345582935049278 0.025861782981265947 0.001483799953783322 0.019384825511628644 0.0 0.0
0.0 0.040957701238862734 -0.033653782741473036 0.03235530800968029 0.0012984747317927475 0.022360214695956844 0.0 0.0
0.0 0.040205124197518365 -0.033285134112469916 0.03212040590649958 0.001164728205970314 0.020309854862307956 0.0 0.0
0.0 0.03555270035382748 -0.029613322530250265 0.02855040581456509 0.0010629167156851695 0.01676020748026774 0.0 0.0
0.0 0.0296518497639927 -0.024755229828992777 0.023772161470212293 0.0009830683587804799 0.013560519751961334 0.0 0.0
0.0 0.02383372556866609 -0.019923001881593676 0.019007166411892155 0.0009158354697015107 0.011175967049499257 0.0 0.0
0.0 0.018741477920714136 -0.015650592045769976 0.01479634425810481 0.0008542477876651648 0.009378609518665496 0.0 0.0
0.0 0.01449570017140173 -0.012050402678587884 0.011259664404524965 0.0007907382740629168 0.007863889179550998 0.0 0.0
0.0 0.010897574504645551 -0.009039880046855384 0.008320350183992678 0.0007195298628627026 0.00647064573617992 0.0 0.0
0.0 0.0078493979578082 -0.0064731505701824486 0.005841863600773213 0.0006312869694092352 0.00510331217510242 0.0 0.0
0.0 0.005231986068317217 -0.0042502669889986225 0.003733331772087297 0.0005169352169113247 0.0036934455094652626 0.0 0.0
0.0 0.0030515183590188247 -0.0023748673842086117 0.002014302401401436 0.00036056498280717523 0.0023210231772813924 0.0 0.0
0.0 0.0013831010710783722 -0.000999489421551932 0.0008164242150945876 0.00018306520645734433 0.0011768071365501967 0.0 0.0
0.0 0.0004119677972733998 -0.00024993523271283583 0.00019967073226901739 5.0264500443818416e-05 0.0003944110511727195 0.0 0.0
0.0 8.065789013375786e-05 -3.2641553329135815e-05 2.5963665293400654e-05 6.677888035735204e-06 6.923708487483175e-05 0.0 0.0
0.0 1.665499852514788e-05 -1.3174903243938461e-06 1.1049541536846326e-06 2.1253617070916825e-07 3.5846086029310404e-06 0.0 0.0
0.0 4.587706790338339e-06 2.7294939548080766e-07 -2.1830787951913414e-07 -5.464151596168335e-08 -8.858411337652789e-07 0.0 0.0
0.0 1.7628622966370727e-06 7.425115859493936e-08 -6.029149641515662e-08 -1.3959662179784548e-08 -3.4489921188806817e-07 0.0 0.0
0.0 0.0 0.0 0.0 0.0 0.0 0.0 0.0
0.0 0.0 0.0 0.0 0.0 0.0 0.0 0.0
0.0 0.0 0.0 0.0 0.0 0.0 0.0 0.0
0.0 0.0 0.0 0.0 0.0 0.0 0.0 0.0
0.0 6.301117771691601e-07 3.177133557320747e-08 -2.5610055499987776e-08 -6.161280073216576e-09 1.139376708674144e-07 0.0 0.0
0.0 6.9346823109825144e-06 5.042347017098303e-07 -4.065067840334973e-07 -9.772791767633461e-08 1.3113344896096305e-06 0.0 0.0
0.0 2.5581615434056e-05 2.2270301563254857e-06 -1.7544088067388495e-06 -4.726213495866328e-07 4.502713652355945e-06 0.0 0.0
0.0 0.0001628830058145464 -9.270424422476613e-05 7.392325555519574e-05 1.878098866957042e-05 -0.00013274846244165438 0.0 0.0
0.0 0.0008388650570975516 -0.0005949418618799138 0.0004801360538817884 0.00011480580799812524 -0.0006135469537098525 0.0 0.0
0.0 0.0023085459812801174 -0.0018296527099931304 0.001530387568399503 0.0002992651415936266 -0.00152260584570539 0.0 0.0
0.0 0.004503256704616409 -0.00375495070695624 0.0032701517057595105 0.00048479900119672957 -0.002757839754264457 0.0 0.0
0.0 0.007312539348600515 -0.006187729783572567 0.005562613156970322 0.000625116626602243 -0.004132162496839697 0.0 0.0
0.0 0.010661187603967346 -0.009047596979019634 0.008318887554132508 0.0007287094248871302 -0.005508767872375826 0.0 0.0
0.0 0.01458172055308822 -0.01237327967470301 0.011561966501711925 0.0008113131729910816 -0.006878563808238883 0.0 0.0
0.0 0.019191983227834178 -0.01628918862670086 0.015406694665129563 0.0008824939615712917 -0.00829963017906985 0.0 0.0
0.0 0.02469202078528214 -0.020964788153289504 0.02001647820000712 0.0009483099532823864 -0.009847307826697358 0.0 0.0
0.0 0.03127718994487 -0.02652545385392741 0.025511148889168413 0.0010143049647589968 -0.011685545478813016 0.0 0.0
0.0 0.03861511499531728 -0.032866614660752386 0.03177654392097155 0.0010900707397808308 -0.014125258692032126 0.0 0.0
0.0 0.04640927242182516 -0.039308313103414164 0.038120361723204224 0.0011879513802099402 -0.017452096559231738 0.0 0.0
0.0 0.052491586082871314 -0.04423819873690317 0.04292270624463235 0.001315492492270821 -0.021417241701439202 0.0 0.0
0.0 0.05349552542816016 -0.044853730294733204 0.043378020338328244 0.0014757099564049491 -0.02429597064861115 0.0 0.0
0.0 0.04454535243693763 -0.037051791349149675 0.03539125212251503 0.0016605392266346435 -0.023061722160242278 0.0 0.0
0.0 0.04454535243693974 -0.037051791349147774 0.035391252122513046 0.0016605392266347187 0.023061722160267112 0.0 0.0
0.0 0.05349552542815557 -0.044853730294725135 0.04337802033832029 0.0014757099564048346 0.024295970648641245 0.0 0.0
0.0 0.05249158608285888 -0.04423819873688931 0.04292270624461917 0.0013154924922701454 0.02141724170146142 0.0 0.0
0.0 0.04640927242180329 -0.03930831310339386 0.03812036172318466 0.0011879513802091671 0.017452096559237504 0.0 0.0
0.0 0.03861511499529289 -0.03286661466073086 0.03177654392095086 0.001090070739779988 0.01412525869202819 0.0 0.0
0.0 0.031277189944845005 -0.02652545385390548 0.025511148889147236 0.0010143049647582509 0.011685545478807385 0.0 0.0
0.0 0.02469202078525673 -0.020964788153267556 0.02001647819998565 0.0009483099532819065 0.00984730782668886 0.0 0.0
0.0 0.019191983227808976 -0.01628918862667872 0.015406694665108158 0.0008824939615705624 0.008299630179063253 0.0 0.0
0.0 0.014581720553062009 -0.012373279674680257 0.011561966501689863 0.0008113131729903945 0.006878563808229121 0.0 0.0
0.0 0.010661187603941948 -0.00904759697899809 0.008318887554111568 0.0007287094248865187 0.0055087678723630806 0.0 0.0
0.0 0.00731253934857831 -0.0061877297835536745 0.0055626131569522005 0.0006251166266014738 0.004132162496826108 0.0 0.0
0.0 0.0045032567046000265 -0.0037549507069423714 0.003270151705746577 0.00048479900119579396 0.0027578397542555523 0.0 0.0
0.0 0.0023085459812691527 -0.0018296527099840843 0.0015303875683915756 0.0002992651415925087 0.0015226058456991832 0.0 0.0
0.0 0.000838865057092196 -0.0005949418618762338 0.0004801360538788001 0.00011480580799743366 0.0006135469537064948 0.0 0.0
0.0 0.00016288300581269278 -9.270424422426097e-05 7.392325555478827e-05 1.878098866947274e-05 0.0001327484624409341 0.0 0.0
0.0 2.55816154331584e-05 2.2270301561684877e-06 -1.7544088066134946e-06 -4.726213495550939e-07 -4.502713652059699e-06 0.0 0.0
0.0 6.934682310505462e-06 5.042347016716486e-07 -4.0650678400268413e-07 -9.772791766897146e-08 -1.3113344895102354e-06 0.0 0.0
0.0 6.301117768796378e-07 3.177133555832444e-08 -2.5610055487985994e-08 -6.161280070339225e-09 -1.1393767081387647e-07 0.0 0.0
0.0 0.0 0.0 0.0 0.0 0.0 0.0 0.0
0.0 0.0 0.0 0.0 0.0 0.0 0.0 0.0
0.0 0.0 0.0 0.0 0.0 0.0 0.0 0.0
0.0 0.0 0.0 0.0 0.0 0.0 0.0 0.0
0.0 0.0 0.0 0.0 0.0 0.0 0.0 0.0
0.0 3.241628952765024e-06 2.6053331691204254e-07 -2.0807629639336721e-07 -5.2457020518637325e-08 5.164519678466237e-07 0.0 0.0
0.0 3.746174165134819e-05 -8.830244840772253e-06 6.997455758248687e-06 1.8327890825235782e-06 -1.1627978923555036e-05 0.0 0.0
0.0 0.00035779467789515796 -0.0002302884863683926 0.00018384997521859507 4.6438511149797813e-05 -0.0002184775244308958 0.0 0.0
0.0 0.0014647962966765674 -0.0011007095695308655 0.000902553148691141 0.00019815642083972397 -0.0007842706756418214 0.0 0.0
0.0 0.003307864306235632 -0.0028202162378157683 0.0024123820148106933 0.00040783422300507636 -0.0017284989377792533 0.0 0.0
0.0 0.006026913495586634 -0.005218114866004089 0.004639441771772631 0.0005786730942314564 -0.0029066166515811826 0.0 0.0
0.0 0.009461798100293996 -0.008175513926947896 0.007470290078731368 0.0007052238482165294 -0.00417253967499335 0.0 0.0
0.0 0.013552638175637925 -0.011674553232345602 0.01087165863036272 0.0008028946019828767 -0.005474645588934513 0.0 0.0
0.0 0.018333933340830534 -0.01577189975138505 0.014886730499047516 0.0008851692523375287 -0.006777778009376746 0.0 0.0
0.0 0.024037128355613883 -0.020609634997636496 0.019649273860171897 0.0009603611374645947 -0.008145569807791244 0.0 0.0
0.0 0.030676705789050712 -0.026374150213593624 0.025342556220666147 0.0010315939929274765 -0.009672772268792698 0.0 0.0
0.0 0.03864131383936802 -0.033199560460024057 0.03209652857289231 0.0011030318871317556 -0.011409936015060799 0.0 0.0
0.0 0.04782442602294194 -0.04098772784319739 0.03980006911578142 0.0011876587274159663 -0.01356571560143692 0.0 0.0
0.0 0.05704063584967998 -0.04896293581686688 0.047661477523211176 0.001301458293655698 -0.016607801494788417 0.0 0.0
0.0 0.06434699882863257 -0.05511743860651087 0.05366370393370476 0.001453734672806112 -0.020692412706107482 0.0 0.0
0.0 0.06575829298915888 -0.0559867087284109 0.05435396753281045 0.0016327411956004304 -0.02478327536435716 0.0 0.0
0.0 0.05585805609254988 -0.04681173799312616 0.04499335304654443 0.001818384946581702 -0.026650196257227796 0.0 0.0
0.0 0.05585805609254765 -0.04681173799312102 0.04499335304653883 0.001818384946582155 0.026650196257252408 0.0 0.0
0.0 0.06575829298914986 -0.05598670872839963 0.0543539675327991 0.0016327411956005226 0.02478327536438809 0.0 0.0
0.0 0.06434699882861675 -0.05511743860649468 0.05366370393368898 0.0014537346728056653 0.020692412706131112 0.0 0.0
0.0 0.05704063584965442 -0.04896293581684377 0.047661477523188354 0.0013014582936554313 0.01660780149479551 0.0 0.0
0.0 0.047824426022913695 -0.040987727843172464 0.039800069115757286 0.0011876587274151711 0.013565715601435168 0.0 0.0
0.0 0.03864131383933721 -0.033199560459997085 0.032096528572865816 0.0011030318871312695 0.011409936015057135 0.0 0.0
0.0 0.030676705789019133 -0.02637415021356592 0.02534255622063926 0.001031593992926666 0.009672772268786035 0.0 0.0
0.0 0.024037128355582756 -0.02060963499760903 0.019649273860145033 0.0009603611374639844 0.0081455698077843 0.0 0.0
0.0 0.018333933340798664 -0.015771899751357215 0.014886730499020083 0.0008851692523371263 0.006777778009367755 0.0 0.0
0.0 0.013552638175606774 -0.01167455323231871 0.010871658630336518 0.0008028946019821909 0.005474645588921754 0.0 0.0
0.0 0.009461798100266148 -0.008175513926923984 0.0074702900787082215 0.0007052238482157602 0.0041725396749800895 0.0 0.0
0.0 0.006026913495567826 -0.005218114865987522 0.004639441771756993 0.0005786730942305278 0.002906616651572851 0.0 0.0
0.0 0.003307864306222835 -0.0028202162378045065 0.0024123820148005833 0.00040783422300392255 0.0017284989377732898 0.0 0.0
0.0 0.0014647962966675733 -0.0011007095695236924 0.0009025531486851154 0.00019815642083857683 0.0007842706756371778 0.0 0.0
0.0 0.0003577946778918462 -0.00023028848636653333 0.00018384997521709567 4.643851114943747e-05 0.00021847752442916068 0.0 0.0
0.0 3.7461741650373255e-05 -8.830244840886801e-06 6.997455758337879e-06 1.832789082548939e-06 1.1627978923712242e-05 0.0 0.0
0.0 3.2416289522024286e-06 2.6053331686397295e-07 -2.080762963552667e-07 -5.245702050872393e-08 -5.164519677547741e-07 0.0 0.0
0.0 0.0 0.0 0.0 0.0 0.0 0.0 0.0
0.0 0.0 0.0 0.0 0.0 0.0 0.0 0.0
0.0 0.0 0.0 0.0 0.0 0.0 0.0 0.0
0.0 0.0 0.0 0.0 0.0 0.0 0.0 0.0
0.0 0.0 0.0 0.0 0.0 0.0 0.0 0.0
0.0 0.0 0.0 0.0 0.0 0.0 0.0 0.0
0.0 2.7200993774250837e-06 2.1465044202379148e-07 -1.7222992926318884e-07 -4.242051276058444e-08 3.2864435303194926e-07 0.0 0.0
0.0 7.518115508983533e-05 -3.0245185928072976e-05 2.430257527415834e-05 5.942610653914785e-06 -3.0296037755264453e-05 0.0 0.0
0.0 0.0006864223615710829 -0.0004731471406851545 0.0003808266639172631 9.23204767678918e-05 -0.00030140019953231554 0.0 0.0
0.0 0.002042572350292921 -0.001769071670980824 0.0014767331012657552 0.0002923385697150689 -0.0008936073722741795 0.0 0.0
0.0 0.004391444399449214 -0.0038868812958350626 0.003391281346239531 0.0004955999495955311 -0.0017376056554548464 0.0 0.0
0.0 0.007643933242020652 -0.0067108195731057484 0.006060140392867011 0.0006506791802387353 -0.0027450006726365238 0.0 0.0
0.0 0.01166677249327568 -0.010194860044351137 0.009427218453482955 0.0007676415908681863 -0.003863604561265332 0.0 0.0
0.0 0.016483186663691245 -0.014336385042776874 0.013473239656625753 0.0008631453861511196 -0.005018892250103421 0.0 0.0
0.0 0.022167200636980848 -0.019217194915465894 0.018268379693789336 0.0009488152216765508 -0.00618290301253284 0.0 0.0
0.0 0.02887783783470503 -0.024996841924941737 0.023967179633197527 0.001029662291744204 -0.007432792971269069 0.0 0.0
0.0 0.03686348685064372 -0.03185462119626577 0.030745436708063137 0.001109184488202623 -0.008830356572171696 0.0 0.0
0.0 0.04621193015674255 -0.03990198781798258 0.038713648170994104 0.0011883396469884793 -0.01036954626143233 0.0 0.0
0.0 0.05658033071253124 -0.04902579392712063 0.047748100529488025 0.0012776933976325756 -0.012044993334290204 0.0 0.0
0.0 0.06746413305525359 -0.058416327531581554 0.057013297448968714 0.0014030300826128627 -0.01427632557894838 0.0 0.0
0.0 0.07617075935740905 -0.0658200635443401 0.06424369499230331 0.001576368552036792 -0.01806691125412079 0.0 0.0
0.0 0.07817976056165024 -0.0671739628034961 0.06539679406189076 0.0017771687416053307 -0.02380725569164973 0.0 0.0
0.0 0.0674368890483 -0.05690142431682818 0.05492952415072868 0.001971900166099484 -0.030162097039233816 0.0 0.0
0.0 0.06743688904829936 -0.056901424316824406 0.0549295241507248 0.001971900166099608 0.030162097039258255 0.0 0.0
0.0 0.07817976056163904 -0.06717396280348373 0.06539679406187839 0.0017771687416053466 0.023807255691678957 0.0 0.0
0.0 0.07617075935738699 -0.06582006354431935 0.06424369499228284 0.0015763685520364457 0.018066911254142226 0.0 0.0
0.0 0.06746413305522131 -0.0584163275315529 0.0570132974489405 0.0014030300826124013 0.014276325578954602 0.0 0.0
0.0 0.05658033071249713 -0.04902579392709051 0.0477481005294588 0.0012776933976316738 0.012044993334290016 0.0 0.0
0.0 0.0462119301567065 -0.03990198781795114 0.03871364817096312 0.0011883396469880105 0.010369546261429394 0.0 0.0
0.0 0.036863486850608494 -0.0318546211962352 0.030745436708033015 0.001109184488202162 0.008830356572166428 0.0 0.0
0.0 0.028877837834668556 -0.024996841924909877 0.02396717963316637 0.001029662291743502 0.007432792971262611 0.0 0.0
0.0 0.02216720063694492 -0.019217194915434152 0.018268379693758458 0.0009488152216757004 0.006182903012525184 0.0 0.0
0.0 0.01648318666365872 -0.01433638504274828 0.013473239656597835 0.0008631453861504376 0.005018892250092652 0.0 0.0
0.0 0.011666772493248205 -0.010194860044327007 0.0094272184534594 0.0007676415908676047 0.003863604561254933 0.0 0.0
0.0 0.007643933241999001 -0.0067108195730863135 0.006060140392848429 0.0006506791802378855 0.002745000672629409 0.0 0.0
0.0 0.004391444399432685 -0.0038868812958200525 0.0033912813462256474 0.0004955999495944051 0.0017376056554488308 0.0 0.0
0.0 0.0020425723502825646 -0.0017690716709717023 0.0014767331012578307 0.00029233856971387103 0.0008936073722699616 0.0 0.0
0.0 0.0006864223615653369 -0.0004731471406812063 0.00038082666391405016 9.232047676715631e-05 0.0003014001995300476 0.0 0.0
0.0 7.518115508824015e-05 -3.024518592775064e-05 2.430257527389204e-05 5.942610653858497e-06 3.0296037754965308e-05 0.0 0.0
0.0 2.7200993770546177e-06 2.1465044181782232e-07 -1.722299291013015e-07 -4.2420512716508204e-08 -3.286443527486529e-07 0.0 0.0
0.0 0.0 0.0 0.0 0.0 0.0 0.0 0.0
0.0 0.0 0.0 0.0 0.0 0.0 0.0 0.0
0.0 0.0 0.0 0.0 0.0 0.0 0.0 0.0
0.0 0.0 0.0 0.0 0.0 0.0 0.0 0.0
0.0 0.0 0.0 0.0 0.0 0.0 0.0 0.0
0.0 0.0 0.0 0.0 0.0 0.0 0.0 0.0
0.0 3.1285138629805582e-06 3.198481553894005e-07 -2.499609673796126e-07 -6.988718800979791e-08 3.1819347234759094e-07 0.0 0.0
0.0 0.00016853651561203766 -8.422322805333254e-05 6.704062596420032e-05 1.7182602089132118e-05 -5.1602394599828045e-05 0.0 0.0
0.0 0.0010945882004034437 -0.0008411674885240915 0.0006840944350094605 0.00015707305351463118 -0.00035267976998754345 0.0 0.0
0.0 0.0027796598953063003 -0.0025112916064875673 0.002132537816399553 0.0003787537900880139 -0.0008454536371047823 0.0 0.0
0.0 0.005569436217695356 -0.004976375487405026 0.004411379311118001 0.0005649961762870229 -0.0015081686559245478 0.0 0.0
0.0 0.009295645142676091 -0.008222665169549424 0.007515664105330149 0.0007070010642192706 -0.0023159151387261738 0.0 0.0
0.0 0.013915670548984337 -0.012229500529878779 0.01141125524286191 0.0008182452870168664 -0.0032211823719310814 0.0 0.0
0.0 0.0194788801837476 -0.017018608339182194 0.016103902223894545 0.0009147061152876472 -0.00416326018692776 0.0 0.0
0.0 0.026015582160625057 -0.02269553754767053 0.0216904409706817 0.001005096576988817 -0.005111550539408965 0.0 0.0
0.0 0.0338905066251937 -0.029429806501418205 0.02833637490972843 0.0010934315916897642 -0.006135053509102589 0.0 0.0
0.0 0.042965289479400245 -0.03739241641492524 0.036210561285475826 0.001181855129449401 -0.007335343297042677 0.0 0.0
0.0 0.05355748893903104 -0.04662123320051656 0.04534968760199395 0.0012715455985226193 -0.008621884200342551 0.0 0.0
0.0 0.06540779521194666 -0.05690719886615153 0.055539676607043446 0.0013675222591080873 -0.009696353400416528 0.0 0.0
0.0 0.07758183510007172 -0.06748996241275412 0.06600237297645503 0.0014875894362990662 -0.010689009147233319 0.0 0.0
0.0 0.08770329491384332 -0.07622310977400186 0.0745451570756642 0.0016779526983376502 -0.013555570250745986 0.0 0.0
0.0 0.09079359908345203 -0.07852711393630363 0.07661537469313194 0.0019117392431717154 -0.02102913814680637 0.0 0.0
0.0 0.07987264545384967 -0.06764354827204308 0.06550892109476375 0.0021346271772793206 -0.03335699073956307 0.0 0.0
0.0 0.07987264545385098 -0.06764354827204125 0.06550892109476286 0.0021346271772784047 0.03335699073958397 0.0 0.0
0.0 0.09079359908343848 -0.0785271139362899 0.07661537469311881 0.0019117392431710813 0.02102913814683214 0.0 0.0
0.0 0.08770329491381784 -0.07622310977397859 0.07454515707564163 0.0016779526983369086 0.013555570250765493 0.0 0.0
0.0 0.07758183510003691 -0.06748996241272341 0.06600237297642511 0.0014875894362982819 0.010689009147238887 0.0 0.0
0.0 0.06540779521190754 -0.056907198866117344 0.05553967660700981 0.0013675222591075552 0.009696353400416781 0.0 0.0
0.0 0.05355748893899049 -0.04662123320048131 0.04534968760195899 0.0012715455985223192 0.008621884200341405 0.0 0.0
0.0 0.04296528947936052 -0.037392416414890495 0.036210561285441895 0.0011818551294485837 0.00733534329703864 0.0 0.0
0.0 0.0338905066251514 -0.029429806501381287 0.028336374909692118 0.0010934315916891677 0.006135053509096492 0.0 0.0
0.0 0.026015582160583417 -0.022695537547634217 0.02169044097064595 0.001005096576988261 0.005111550539404193 0.0 0.0
0.0 0.019478880183709166 -0.017018608339148318 0.016103902223861155 0.0009147061152871589 0.004163260186918427 0.0 0.0
0.0 0.013915670548950772 -0.012229500529849073 0.011411255242832836 0.0008182452870162387 0.003221182371921991 0.0 0.0
0.0 0.009295645142649345 -0.008222665169525521 0.007515664105306927 0.0007070010642185935 0.0023159151387199223 0.0 0.0
0.0 0.005569436217676514 -0.004976375487387791 0.004411379311101729 0.0005649961762860616 0.001508168655919664 0.0 0.0
0.0 0.002779659895293858 -0.002511291606476043 0.002132537816389218 0.0003787537900868251 0.0008454536371010113 0.0 0.0
0.0 0.0010945882003971054 -0.0008411674885190259 0.000684094435005225 0.0001570730535138002 0.00035267976998533764 0.0 0.0
0.0 0.00016853651561011455 -8.42232280526132e-05 6.704062596361712e-05 1.7182602088996192e-05 5.1602394599403674e-05 0.0 0.0
0.0 3.12851386246432e-06 3.1984815533367717e-07 -2.4996096733628395e-07 -6.988718799738491e-08 -3.181934722935766e-07 0.0 0.0
0.0 0.0 0.0 0.0 0.0 0.0 0.0 0.0
0.0 0.0 0.0 0.0 0.0 0.0 0.0 0.0
0.0 0.0 0.0 0.0 0.0 0.0 0.0 0.0
0.0 0.0 0.0 0.0 0.0 0.0 0.0 0.0
0.0 0.0 0.0 0.0 0.0 0.0 0.0 0.0
0.0 0.0 0.0 0.0 0.0 0.0 0.0 0.0
0.0 7.480929744594875e-06 8.970346975284954e-07 -6.929961877200582e-07 -2.0403850980840786e-07 5.50205352796341e-07 0.0 0.0
0.0 0.00036494463573281683 -0.0002116567306224476 0.00016909620981134368 4.2560520811104176e-05 -7.415886726317432e-05 0.0 0.0
0.0 0.0014439672604265711 -0.0013310954907105148 0.001095006453536701 0.00023608903717381338 -0.0003153864951744107 0.0 0.0
0.0 0.0036153405169197647 -0.0032857945554343763 0.0028359860399413328 0.00044980851549304273 -0.0006404739796804235 0.0 0.0
0.0 0.006775773705554203 -0.006081380892098262 0.005460393202759865 0.0006209876893383962 -0.0010802820655687747 0.0 0.0
0.0 0.010969874204082183 -0.009739088442146004 0.008987503748531338 0.0007515846936146644 -0.0016290297453527666 0.0 0.0
0.0 0.016185206818397517 -0.01426685916151144 0.01340667205511714 0.0008601871063942932 -0.0022562956498079034 0.0 0.0
0.0 0.022480665526051283 -0.01971007853344931 0.018750187713794667 0.0009598908196546458 -0.0029069072329951143 0.0 0.0
0.0 0.0300409273763639 -0.026192170647416513 0.025135813196212844 0.0010563574512036569 -0.0035626473532442866 0.0 0.0
0.0 0.0387833669843655 -0.03389759141438473 0.03274507562124035 0.0011525157931443846 -0.004306382290593125 0.0 0.0
0.0 0.049157780082147544 -0.042957532556530786 0.04170692739656475 0.0012506051599660108 -0.005169245486672306 0.0 0.0
0.0 0.06110846414444445 -0.05332937186683589 0.051976605294958775 0.0013527665718771284 -0.0060462972128134986 0.0 0.0
0.0 0.0741323979929647 -0.06464917520712488 0.06318975390144914 0.0014594213056757165 -0.00663992327857592 0.0 0.0
0.0 0.0872714593741075 -0.07608762720872883 0.07451472875579182 0.001572898452937034 -0.006579250630136903 0.0 0.0
0.0 0.09864994082135853 -0.08597145553452383 0.08424637070180682 0.0017250848327170446 -0.0072749753788621035 0.0 0.0
0.0 0.10370870634864314 -0.09007218659502018 0.08803352014144626 0.0020386664535738818 -0.01534117389450445 0.0 0.0
0.0 0.0935740213829552 -0.07954991347181542 0.07722376055050459 0.0023261529213108073 -0.035569525083582014 0.0 0.0
0.0 0.09357402138295022 -0.07954991347180972 0.0772237605504985 0.0023261529213111825 0.03556952508359638 0.0 0.0
0.0 0.10370870634862338 -0.09007218659500214 0.0880335201414284 0.0020386664535737096 0.015341173894524374 0.0 0.0
0.0 0.09864994082132697 -0.08597145553449587 0.08424637070177955 0.0017250848327163392 0.007274975378876768 0.0 0.0
0.0 0.08727145937406704 -0.0760876272086935 0.07451472875575697 0.0015728984529364857 0.0065792506301393435 0.0 0.0
0.0 0.07413239799292047 -0.06464917520708624 0.06318975390141131 0.0014594213056749366 0.00663992327857621 0.0 0.0
0.0 0.061108464144397454 -0.05332937186679498 0.05197660529491838 0.0013527665718766162 0.0060462972128134465 0.0 0.0
0.0 0.0491577800820996 -0.04295753255648921 0.04170692739652351 0.0012506051599656745 0.005169245486670135 0.0 0.0
0.0 0.038783366984317356 -0.0338975914143429 0.03274507562119898 0.001152515793143916 0.004306382290589203 0.0 0.0
0.0 0.030040927376317784 -0.02619217064737607 0.025135813196172856 0.001056357451203206 0.0035626473532418008 0.0 0.0
0.0 0.022480665526009913 -0.019710078533413018 0.01875018771375917 0.0009598908196538365 0.0029069072329886525 0.0 0.0
0.0 0.016185206818362642 -0.014266859161480567 0.013406672055087138 0.0008601871063934327 0.002256295649801751 0.0 0.0
0.0 0.01096987420405392 -0.009739088442120401 0.00898750374850654 0.0007515846936138591 0.0016290297453491675 0.0 0.0
0.0 0.006775773705533015 -0.006081380892078882 0.005460393202741496 0.0006209876893373861 0.0010802820655652335 0.0 0.0
0.0 0.0036153405169060395 -0.003285794555421371 0.002835986039929549 0.0004498085154918212 0.0006404739796777993 0.0 0.0
0.0 0.001443967260419108 -0.0013310954907034705 0.001095006453530704 0.0002360890371727663 0.00031538649517275725 0.0 0.0
0.0 0.00036494463572963416 -0.0002116567306205553 0.00016909620980979934 4.256052081075575e-05 7.415886726252913e-05 0.0 0.0
0.0 7.48092974373735e-06 8.970346974239649e-07 -6.929961876401887e-07 -2.040385097838224e-07 -5.502053527401145e-07 0.0 0.0
0.0 0.0 0.0 0.0 0.0 0.0 0.0 0.0
0.0 0.0 0.0 0.0 0.0 0.0 0.0 0.0
0.0 0.0 0.0 0.0 0.0 0.0 0.0 0.0
0.0 0.0 0.0 0.0 0.0 0.0 0.0 0.0
0.0 0.0 0.0 0.0 0.0 0.0 0.0 0.0
0.0 0.0 0.0 0.0 0.0 0.0 0.0 0.0
0.0 1.691534854107133e-05 -1.6497213260139838e-06 1.351703605515721e-06 2.9801772049840933e-07 -6.791009348957465e-07 0.0 0.0
0.0 0.0006819302764110395 -0.0004251313298216887 0.0003411153223109674 8.401600751072123e-05 -5.936735146526182e-05 0.0 0.0
0.0 0.002007023396282938 -0.0018512483321131844 0.0015426098317742288 0.0003086385003389557 -0.00015431276457785115 0.0 0.0
0.0 0.004480957508694263 -0.004079553779413747 0.00357060329340308 0.0005089504860106657 -0.00028577118541257753 0.0 0.0
0.0 0.008016489948847114 -0.007186893744022358 0.006521583114016696 0.0006653106300056598 -0.00045974071659638514 0.0 0.0
0.0 0.01267677570631818 -0.0112469692540686 0.010458995237704622 0.0007879740163639821 -0.000691818612428058 0.0 0.0
0.0 0.01850894783580636 -0.01629289903997841 0.015396808067427862 0.0008960909725505466 -0.0009685838154902791 0.0 0.0
0.0 0.02561652384103389 -0.02239819520991587 0.021398524876374152 0.000999670333541708 -0.001254454105190217 0.0 0.0
0.0 0.033877794532277974 -0.029706925269284607 0.02860355857259432 0.0011033666966902894 -0.001565259922832584 0.0 0.0
0.0 0.04378084161495898 -0.038374972558619144 0.03716719175000767 0.00120778080861145 -0.0019124727106184698 0.0 0.0
0.0 0.0554466488381935 -0.04851006466146122 0.047194435764123716 0.0013156288973374666 -0.0022887656094177657 0.0 0.0
0.0 0.06867694404005462 -0.06000022048204814 0.05857019296410844 0.001430027517939701 -0.0026463710008626205 0.0 0.0
0.0 0.08287018336802057 -0.07230328189683924 0.07075282140839997 0.0015504604884392687 -0.0027924631712698223 0.0 0.0
0.0 0.09677384378769549 -0.08436045503803662 0.08269050891200855 0.0016699461260280216 -0.0023948116741118125 0.0 0.0
0.0 0.10860626192651933 -0.09465833775543697 0.0928744778162444 0.001783859939192539 -0.0012889893705730548 0.0 0.0
0.0 0.11572441553989107 -0.10075943098004742 0.09880331487898855 0.0019561161010588045 -0.004488504581091107 0.0 0.0
0.0 0.10972162306307548 -0.0940039279441646 0.09132234508523568 0.0026815828589289367 -0.03301037055791877 0.0 0.0
0.0 0.10972162306306951 -0.0940039279441588 0.09132234508523006 0.0026815828589286848 0.03301037055792414 0.0 0.0
0.0 0.11572441553986686 -0.10075943098002633 0.09880331487896758 0.0019561161010587264 0.00448850458109982 0.0 0.0
0.0 0.10860626192648204 -0.09465833775540437 0.0928744778162125 0.0017838599391918248 0.0012889893705803745 0.0 0.0
0.0 0.09677384378764874 -0.08436045503799586 0.0826905089119684 0.0016699461260274114 0.0023948116741111655 0.0 0.0
0.0 0.08287018336797121 -0.07230328189679629 0.07075282140835744 0.0015504604884388272 0.0027924631712696628 0.0 0.0
0.0 0.06867694404000399 -0.06000022048200399 0.05857019296406506 0.0014300275179389254 0.002646371000862797 0.0 0.0
0.0 0.0554466488381428 -0.048510064661416864 0.04719443576408045 0.0013156288973364117 0.0022887656094177176 0.0 0.0
0.0 0.04378084161490601 -0.03837497255857292 0.03716719174996231 0.0012077808086105742 0.0019124727106171451 0.0 0.0
0.0 0.03387779453222488 -0.029706925269238238 0.02860355857254878 0.0011033666966894459 0.0015652599228319275 0.0 0.0
0.0 0.025616523840985853 -0.02239819520987386 0.021398524876332738 0.00099967033354112 0.0012544541051859467 0.0 0.0
0.0 0.018508947835767266 -0.016292899039944415 0.015396808067394383 0.0008960909725500355 0.0009685838154874218 0.0 0.0
0.0 0.012676775706286445 -0.011246969254040328 0.010458995237677004 0.0007879740163633221 0.0006918186124267964 0.0 0.0
0.0 0.008016489948823053 -0.007186893744000357 0.0065215831139954755 0.0006653106300048828 0.00045974071659494206 0.0 0.0
0.0 0.0044809575086778575 -0.0040795537793985055 0.003570603293388796 0.000508950486009712 0.0002857711854114706 0.0 0.0
0.0 0.0020070233962739452 -0.0018512483321043377 0.001542609831766462 0.00030863850033787554 0.00015431276457709143 0.0 0.0
0.0 0.0006819302764063448 -0.0004251313298184079 0.0003411153223082954 8.401600751011299e-05 5.936735146492935e-05 0.0 0.0
0.0 1.6915348540601345e-05 -1.6497213262918695e-06 1.3517036057239713e-06 2.980177205678878e-07 6.7910093492464e-07 0.0 0.0
0.0 0.0 0.0 0.0 0.0 0.0 0.0 0.0
0.0 0.0 0.0 0.0 0.0 0.0 0.0 0.0
0.0 0.0 0.0 0.0 0.0 0.0 0.0 0.0