# vtk DataFile Version 3.0
Some data
ASCII
DATASET UNSTRUCTURED_GRID
POINTS 861 float
0.0 0.0 0.0
0.4 0.0 0.0
0.8 0.0 0.0
1.2000000000000002 0.0 0.0
1.6 0.0 0.0
2.0 0.0 0.0
2.4000000000000004 0.0 0.0
2.8000000000000003 0.0 0.0
3.2 0.0 0.0
3.6 0.0 0.0
4.0 0.0 0.0
4.4 0.0 0.0
4.800000000000001 0.0 0.0
5.2 0.0 0.0
5.6000000000000005 0.0 0.0
6.0 0.0 0.0
6.4 0.0 0.0
6.800000000000001 0.0 0.0
7.2 0.0 0.0
7.6000000000000005 0.0 0.0
8.0 0.0 0.0
8.4 0.0 0.0
8.8 0.0 0.0
9.200000000000001 0.0 0.0
9.600000000000001 0.0 0.0
10.0 0.0 0.0
10.4 0.0 0.0
10.8 0.0 0.0
11.200000000000001 0.0 0.0
11.600000000000001 0.0 0.0
12.0 0.0 0.0
12.4 0.0 0.0
12.8 0.0 0.0
13.200000000000001 0.0 0.0
13.600000000000001 0.0 0.0
14.0 0.0 0.0
14.4 0.0 0.0
14.8 0.0 0.0
15.200000000000001 0.0 0.0
15.600000000000001 0.0 0.0
16.0 0.0 0.0
0.0 0.1 0.0
0.4 0.1 0.0
0.8 0.1 0.0
1.2000000000000002 0.1 0.0
1.6 0.1 0.0
2.0 0.1 0.0
2.4000000000000004 0.1 0.0
2.8000000000000003 0.1 0.0
3.2 0.1 0.0
3.6 0.1 0.0
4.0 0.1 0.0
4.4 0.1 0.0
4.800000000000001 0.1 0.0
5.2 0.1 0.0
5.6000000000000005 0.1 0.0
6.0 0.1 0.0
6.4 0.1 0.0
6.800000000000001 0.1 0.0
7.2 0.1 0.0
7.6000000000000005 0.1 0.0
8.0 0.1 0.0
8.4 0.1 0.0
8.8 0.1 0.0
9.200000000000001 0.1 0.0
9.600000000000001 0.1 0.0
10.0 0.1 0.0
10.4 0.1 0.0
10.8 0.1 0.0
11.200000000000001 0.1 0.0
11.600000000000001 0.1 0.0
12.0 0.1 0.0
12.4 0.1 0.0
12.8 0.1 0.0
13.200000000000001 0.1 0.0
13.600000000000001 0.1 0.0
14.0 0.1 0.0
14.4 0.1 0.0
14.8 0.1 0.0
15.200000000000001 0.1 0.0
15.600000000000001 0.1 0.0
16.0 0.1 0.0
0.0 0.2 0.0
0.4 0.2 0.0
0.8 0.2 0.0
1.2000000000000002 0.2 0.0
1.6 0.2 0.0
2.0 0.2 0.0
2.4000000000000004 0.2 0.0
2.8000000000000003 0.2 0.0
3.2 0.2 0.0
3.6 0.2 0.0
4.0 0.2 0.0
4.4 0.2 0.0
4.800000000000001 0.2 0.0
5.2 0.2 0.0
5.6000000000000005 0.2 0.0
6.0 0.2 0.0
6.4 0.2 0.0
6.800000000000001 0.2 0.0
7.2 0.2 0.0
7.6000000000000005 0.2 0.0
8.0 0.2 0.0
8.4 0.2 0.0
8.8 0.2 0.0
9.200000000000001 0.2 0.0
9.600000000000001 0.2 0.0
10.0 0.2 0.0
10.4 0.2 0.0
10.8 0.2 0.0
11.200000000000001 0.2 0.0
11.600000000000001 0.2 0.0
12.0 0.2 0.0
12.4 0.2 0.0
12.8 0.2 0.0
13.200000000000001 0.2 0.0
13.600000000000001 0.2 0.0
14.0 0.2 0.0
14.4 0.2 0.0
14.8 0.2 0.0
15.200000000000001 0.2 0.0
15.600000000000001 0.2 0.0
16.0 0.2 0.0
0.0 0.30000000000000004 0.0
0.4 0.30000000000000004 0.0
0.8 0.30000000000000004 0.0
1.2000000000000002 0.30000000000000004 0.0
1.6 0.30000000000000004 0.0
2.0 0.30000000000000004 0.0
2.4000000000000004 0.30000000000000004 0.0
2.8000000000000003 0.30000000000000004 0.0
3.2 0.30000000000000004 0.0
3.6 0.30000000000000004 0.0
4.0 0.30000000000000004 0.0
4.4 0.30000000000000004 0.0
4.800000000000001 0.30000000000000004 0.0
5.2 0.30000000000000004 0.0
5.6000000000000005 0.30000000000000004 0.0
6.0 0.30000000000000004 0.0
6.4 0.30000000000000004 0.0
6.800000000000001 0.30000000000000004 0.0
7.2 0.30000000000000004 0.0
7.6000000000000005 0.30000000000000004 0.0
8.0 0.30000000000000004 0.0
8.4 0.30000000000000004 0.0
8.8 0.30000000000000004 0.0
9.200000000000001 0.30000000000000004 0.0
9.600000000000001 0.30000000000000004 0.0
10.0 0.30000000000000004 0.0
10.4 0.30000000000000004 0.0
10.8 0.30000000000000004 0.0
11.200000000000001 0.30000000000000004 0.0
11.600000000000001 0.30000000000000004 0.0
12.0 0.30000000000000004 0.0
12.4 0.30000000000000004 0.0
12.8 0.30000000000000004 0.0
13.200000000000001 0.30000000000000004 0.0
13.600000000000001 0.30000000000000004 0.0
14.0 0.30000000000000004 0.0
14.4 0.30000000000000004 0.0
14.8 0.30000000000000004 0.0
15.200000000000001 0.30000000000000004 0.0
15.600000000000001 0.30000000000000004 0.0
16.0 0.30000000000000004 0.0
0.0 0.4 0.0
0.4 0.4 0.0
0.8 0.4 0.0
1.2000000000000002 0.4 0.0
1.6 0.4 0.0
2.0 0.4 0.0
2.4000000000000004 0.4 0.0
2.8000000000000003 0.4 0.0
3.2 0.4 0.0
3.6 0.4 0.0
4.0 0.4 0.0
4.4 0.4 0.0
4.800000000000001 0.4 0.0
5.2 0.4 0.0
5.6000000000000005 0.4 0.0
6.0 0.4 0.0
6.4 0.4 0.0
6.800000000000001 0.4 0.0
7.2 0.4 0.0
7.6000000000000005 0.4 0.0
8.0 0.4 0.0
8.4 0.4 0.0
8.8 0.4 0.0
9.200000000000001 0.4 0.0
9.600000000000001 0.4 0.0
10.0 0.4 0.0
10.4 0.4 0.0
10.8 0.4 0.0
11.200000000000001 0.4 0.0
11.600000000000001 0.4 0.0
12.0 0.4 0.0
12.4 0.4 0.0
12.8 0.4 0.0
13.200000000000001 0.4 0.0
13.600000000000001 0.4 0.0
14.0 0.4 0.0
14.4 0.4 0.0
14.8 0.4 0.0
15.200000000000001 0.4 0.0
15.600000000000001 0.4 0.0
16.0 0.4 0.0
0.0 0.5 0.0
0.4 0.5 0.0
0.8 0.5 0.0
1.2000000000000002 0.5 0.0
1.6 0.5 0.0
2.0 0.5 0.0
2.4000000000000004 0.5 0.0
2.8000000000000003 0.5 0.0
3.2 0.5 0.0
3.6 0.5 0.0
4.0 0.5 0.0
4.4 0.5 0.0
4.800000000000001 0.5 0.0
5.2 0.5 0.0
5.6000000000000005 0.5 0.0
6.0 0.5 0.0
6.4 0.5 0.0
6.800000000000001 0.5 0.0
7.2 0.5 0.0
7.6000000000000005 0.5 0.0
8.0 0.5 0.0
8.4 0.5 0.0
8.8 0.5 0.0
9.200000000000001 0.5 0.0
9.600000000000001 0.5 0.0
10.0 0.5 0.0
10.4 0.5 0.0
10.8 0.5 0.0
11.200000000000001 0.5 0.0
11.600000000000001 0.5 0.0
12.0 0.5 0.0
12.4 0.5 0.0
12.8 0.5 0.0
13.200000000000001 0.5 0.0
13.600000000000001 0.5 0.0
14.0 0.5 0.0
14.4 0.5 0.0
14.8 0.5 0.0
15.200000000000001 0.5 0.0
15.600000000000001 0.5 0.0
16.0 0.5 0.0
0.0 0.6000000000000001 0.0
0.4 0.6000000000000001 0.0
0.8 0.6000000000000001 0.0
1.2000000000000002 0.6000000000000001 0.0
1.6 0.6000000000000001 0.0
2.0 0.6000000000000001 0.0
2.4000000000000004 0.6000000000000001 0.0
2.8000000000000003 0.6000000000000001 0.0
3.2 0.6000000000000001 0.0
3.6 0.6000000000000001 0.0
4.0 0.6000000000000001 0.0
4.4 0.6000000000000001 0.0
4.800000000000001 0.6000000000000001 0.0
5.2 0.6000000000000001 0.0
5.6000000000000005 0.6000000000000001 0.0
6.0 0.6000000000000001 0.0
6.4 0.6000000000000001 0.0
6.800000000000001 0.6000000000000001 0.0
7.2 0.6000000000000001 0.0
7.6000000000000005 0.6000000000000001 0.0
8.0 0.6000000000000001 0.0
8.4 0.6000000000000001 0.0
8.8 0.6000000000000001 0.0
9.200000000000001 0.6000000000000001 0.0
9.600000000000001 0.6000000000000001 0.0
10.0 0.6000000000000001 0.0
10.4 0.6000000000000001 0.0
10.8 0.6000000000000001 0.0
11.200000000000001 0.6000000000000001 0.0
11.600000000000001 0.6000000000000001 0.0
12.0 0.6000000000000001 0.0
12.4 0.6000000000000001 0.0
12.8 0.6000000000000001 0.0
13.200000000000001 0.6000000000000001 0.0
13.600000000000001 0.6000000000000001 0.0
14.0 0.6000000000000001 0.0
14.4 0.6000000000000001 0.0
14.8 0.6000000000000001 0.0
15.200000000000001 0.6000000000000001 0.0
15.600000000000001 0.6000000000000001 0.0
16.0 0.6000000000000001 0.0
0.0 0.7000000000000001 0.0
0.4 0.7000000000000001 0.0
0.8 0.7000000000000001 0.0
1.2000000000000002 0.7000000000000001 0.0
1.6 0.7000000000000001 0.0
2.0 0.7000000000000001 0.0
2.4000000000000004 0.7000000000000001 0.0
2.8000000000000003 0.7000000000000001 0.0
3.2 0.7000000000000001 0.0
3.6 0.7000000000000001 0.0
4.0 0.7000000000000001 0.0
4.4 0.7000000000000001 0.0
4.800000000000001 0.7000000000000001 0.0
5.2 0.7000000000000001 0.0
5.6000000000000005 0.7000000000000001 0.0
6.0 0.7000000000000001 0.0
6.4 0.7000000000000001 0.0
6.800000000000001 0.7000000000000001 0.0
7.2 0.7000000000000001 0.0
7.6000000000000005 0.7000000000000001 0.0
8.0 0.7000000000000001 0.0
8.4 0.7000000000000001 0.0
8.8 0.7000000000000001 0.0
9.200000000000001 0.7000000000000001 0.0
9.600000000000001 0.7000000000000001 0.0
10.0 0.7000000000000001 0.0
10.4 0.7000000000000001 0.0
10.8 0.7000000000000001 0.0
11.200000000000001 0.7000000000000001 0.0
11.600000000000001 0.7000000000000001 0.0
12.0 0.7000000000000001 0.0
12.4 0.7000000000000001 0.0
12.8 0.7000000000000001 0.0
13.200000000000001 0.7000000000000001 0.0
13.600000000000001 0.7000000000000001 0.0
14.0 0.7000000000000001 0.0
14.4 0.7000000000000001 0.0
14.8 0.7000000000000001 0.0
15.200000000000001 0.7000000000000001 0.0
15.600000000000001 0.7000000000000001 0.0
16.0 0.7000000000000001 0.0
0.0 0.8 0.0
0.4 0.8 0.0
0.8 0.8 0.0
1.2000000000000002 0.8 0.0
1.6 0.8 0.0
2.0 0.8 0.0
2.4000000000000004 0.8 0.0
2.8000000000000003 0.8 0.0
3.2 0.8 0.0
3.6 0.8 0.0
4.0 0.8 0.0
4.4 0.8 0.0
4.800000000000001 0.8 0.0
5.2 0.8 0.0
5.6000000000000005 0.8 0.0
6.0 0.8 0.0
6.4 0.8 0.0
6.800000000000001 0.8 0.0
7.2 0.8 0.0
7.6000000000000005 0.8 0.0
8.0 0.8 0.0
8.4 0.8 0.0
8.8 0.8 0.0
9.200000000000001 0.8 0.0
9.600000000000001 0.8 0.0
10.0 0.8 0.0
10.4 0.8 0.0
10.8 0.8 0.0
11.200000000000001 0.8 0.0
11.600000000000001 0.8 0.0
12.0 0.8 0.0
12.4 0.8 0.0
12.8 0.8 0.0
13.200000000000001 0.8 0.0
13.600000000000001 0.8 0.0
14.0 0.8 0.0
14.4 0.8 0.0
14.8 0.8 0.0
15.200000000000001 0.8 0.0
15.600000000000001 0.8 0.0
16.0 0.8 0.0
0.0 0.9 0.0
0.4 0.9 0.0
0.8 0.9 0.0
1.2000000000000002 0.9 0.0
1.6 0.9 0.0
2.0 0.9 0.0
2.4000000000000004 0.9 0.0
2.8000000000000003 0.9 0.0
3.2 0.9 0.0
3.6 0.9 0.0
4.0 0.9 0.0
4.4 0.9 0.0
4.800000000000001 0.9 0.0
5.2 0.9 0.0
5.6000000000000005 0.9 0.0
6.0 0.9 0.0
6.4 0.9 0.0
6.800000000000001 0.9 0.0
7.2 0.9 0.0
7.6000000000000005 0.9 0.0
8.0 0.9 0.0
8.4 0.9 0.0
8.8 0.9 0.0
9.200000000000001 0.9 0.0
9.600000000000001 0.9 0.0
10.0 0.9 0.0
10.4 0.9 0.0
10.8 0.9 0.0
11.200000000000001 0.9 0.0
11.600000000000001 0.9 0.0
12.0 0.9 0.0
12.4 0.9 0.0
12.8 0.9 0.0
13.200000000000001 0.9 0.0
13.600000000000001 0.9 0.0
14.0 0.9 0.0
14.4 0.9 0.0
14.8 0.9 0.0
15.200000000000001 0.9 0.0
15.600000000000001 0.9 0.0
16.0 0.9 0.0
0.0 1.0 0.0
0.4 1.0 0.0
0.8 1.0 0.0
1.2000000000000002 1.0 0.0
1.6 1.0 0.0
2.0 1.0 0.0
2.4000000000000004 1.0 0.0
2.8000000000000003 1.0 0.0
3.2 1.0 0.0
3.6 1.0 0.0
4.0 1.0 0.0
4.4 1.0 0.0
4.800000000000001 1.0 0.0
5.2 1.0 0.0
5.6000000000000005 1.0 0.0
6.0 1.0 0.0
6.4 1.0 0.0
6.800000000000001 1.0 0.0
7.2 1.0 0.0
7.6000000000000005 1.0 0.0
8.0 1.0 0.0
8.4 1.0 0.0
8.8 1.0 0.0
9.200000000000001 1.0 0.0
9.600000000000001 1.0 0.0
10.0 1.0 0.0
10.4 1.0 0.0
10.8 1.0 0.0
11.200000000000001 1.0 0.0
11.600000000000001 1.0 0.0
12.0 1.0 0.0
12.4 1.0 0.0
12.8 1.0 0.0
13.200000000000001 1.0 0.0
13.600000000000001 1.0 0.0
14.0 1.0 0.0
14.4 1.0 0.0
14.8 1.0 0.0
15.200000000000001 1.0 0.0
15.600000000000001 1.0 0.0
16.0 1.0 0.0
0.0 1.1 0.0
0.4 1.1 0.0
0.8 1.1 0.0
1.2000000000000002 1.1 0.0
1.6 1.1 0.0
2.0 1.1 0.0
2.4000000000000004 1.1 0.0
2.8000000000000003 1.1 0.0
3.2 1.1 0.0
3.6 1.1 0.0
4.0 1.1 0.0
4.4 1.1 0.0
4.800000000000001 1.1 0.0
5.2 1.1 0.0
5.6000000000000005 1.1 0.0
6.0 1.1 0.0
6.4 1.1 0.0
6.800000000000001 1.1 0.0
7.2 1.1 0.0
7.6000000000000005 1.1 0.0
8.0 1.1 0.0
8.4 1.1 0.0
8.8 1.1 0.0
9.200000000000001 1.1 0.0
9.600000000000001 1.1 0.0
10.0 1.1 0.0
10.4 1.1 0.0
10.8 1.1 0.0
11.200000000000001 1.1 0.0
11.600000000000001 1.1 0.0
12.0 1.1 0.0
12.4 1.1 0.0
12.8 1.1 0.0
13.200000000000001 1.1 0.0
13.600000000000001 1.1 0.0
14.0 1.1 0.0
14.4 1.1 0.0
14.8 1.1 0.0
15.200000000000001 1.1 0.0
15.600000000000001 1.1 0.0
16.0 1.1 0.0
0.0 1.2000000000000002 0.0
0.4 1.2000000000000002 0.0
0.8 1.2000000000000002 0.0
1.2000000000000002 1.2000000000000002 0.0
1.6 1.2000000000000002 0.0
2.0 1.2000000000000002 0.0
2.4000000000000004 1.2000000000000002 0.0
2.8000000000000003 1.2000000000000002 0.0
3.2 1.2000000000000002 0.0
3.6 1.2000000000000002 0.0
4.0 1.2000000000000002 0.0
4.4 1.2000000000000002 0.0
4.800000000000001 1.2000000000000002 0.0
5.2 1.2000000000000002 0.0
5.6000000000000005 1.2000000000000002 0.0
6.0 1.2000000000000002 0.0
6.4 1.2000000000000002 0.0
6.800000000000001 1.2000000000000002 0.0
7.2 1.2000000000000002 0.0
7.6000000000000005 1.2000000000000002 0.0
8.0 1.2000000000000002 0.0
8.4 1.2000000000000002 0.0
8.8 1.2000000000000002 0.0
9.200000000000001 1.2000000000000002 0.0
9.600000000000001 1.2000000000000002 0.0
10.0 1.2000000000000002 0.0
10.4 1.2000000000000002 0.0
10.8 1.2000000000000002 0.0
11.200000000000001 1.2000000000000002 0.0
11.600000000000001 1.2000000000000002 0.0
12.0 1.2000000000000002 0.0
12.4 1.2000000000000002 0.0
12.8 1.2000000000000002 0.0
13.200000000000001 1.2000000000000002 0.0
13.600000000000001 1.2000000000000002 0.0
14.0 1.2000000000000002 0.0
14.4 1.2000000000000002 0.0
14.8 1.2000000000000002 0.0
15.200000000000001 1.2000000000000002 0.0
15.600000000000001 1.2000000000000002 0.0
16.0 1.2000000000000002 0.0
0.0 1.3 0.0
0.4 1.3 0.0
0.8 1.3 0.0
1.2000000000000002 1.3 0.0
1.6 1.3 0.0
2.0 1.3 0.0
2.4000000000000004 1.3 0.0
2.8000000000000003 1.3 0.0
3.2 1.3 0.0
3.6 1.3 0.0
4.0 1.3 0.0
4.4 1.3 0.0
4.800000000000001 1.3 0.0
5.2 1.3 0.0
5.6000000000000005 1.3 0.0
6.0 1.3 0.0
6.4 1.3 0.0
6.800000000000001 1.3 0.0
7.2 1.3 0.0
7.6000000000000005 1.3 0.0
8.0 1.3 0.0
8.4 1.3 0.0
8.8 1.3 0.0
9.200000000000001 1.3 0.0
9.600000000000001 1.3 0.0
10.0 1.3 0.0
10.4 1.3 0.0
10.8 1.3 0.0
11.200000000000001 1.3 0.0
11.600000000000001 1.3 0.0
12.0 1.3 0.0
12.4 1.3 0.0
12.8 1.3 0.0
13.200000000000001 1.3 0.0
13.600000000000001 1.3 0.0
14.0 1.3 0.0
14.4 1.3 0.0
14.8 1.3 0.0
15.200000000000001 1.3 0.0
15.600000000000001 1.3 0.0
16.0 1.3 0.0
0.0 1.4000000000000001 0.0
0.4 1.4000000000000001 0.0
0.8 1.4000000000000001 0.0
1.2000000000000002 1.4000000000000001 0.0
1.6 1.4000000000000001 0.0
2.0 1.4000000000000001 0.0
2.4000000000000004 1.4000000000000001 0.0
2.8000000000000003 1.4000000000000001 0.0
3.2 1.4000000000000001 0.0
3.6 1.4000000000000001 0.0
4.0 1.4000000000000001 0.0
4.4 1.4000000000000001 0.0
4.800000000000001 1.4000000000000001 0.0
5.2 1.4000000000000001 0.0
5.6000000000000005 1.4000000000000001 0.0
6.0 1.4000000000000001 0.0
6.4 1.4000000000000001 0.0
6.800000000000001 1.4000000000000001 0.0
7.2 1.4000000000000001 0.0
7.6000000000000005 1.4000000000000001 0.0
8.0 1.4000000000000001 0.0
8.4 1.4000000000000001 0.0
8.8 1.4000000000000001 0.0
9.200000000000001 1.4000000000000001 0.0
9.600000000000001 1.4000000000000001 0.0
10.0 1.4000000000000001 0.0
10.4 1.4000000000000001 0.0
10.8 1.4000000000000001 0.0
11.200000000000001 1.4000000000000001 0.0
11.600000000000001 1.4000000000000001 0.0
12.0 1.4000000000000001 0.0
12.4 1.4000000000000001 0.0
12.8 1.4000000000000001 0.0
13.200000000000001 1.4000000000000001 0.0
13.600000000000001 1.4000000000000001 0.0
14.0 1.4000000000000001 0.0
14.4 1.4000000000000001 0.0
14.8 1.4000000000000001 0.0
15.200000000000001 1.4000000000000001 0.0
15.600000000000001 1.4000000000000001 0.0
16.0 1.4000000000000001 0.0
0.0 1.5 0.0
0.4 1.5 0.0
0.8 1.5 0.0
1.2000000000000002 1.5 0.0
1.6 1.5 0.0
2.0 1.5 0.0
2.4000000000000004 1.5 0.0
2.8000000000000003 1.5 0.0
3.2 1.5 0.0
3.6 1.5 0.0
4.0 1.5 0.0
4.4 1.5 0.0
4.800000000000001 1.5 0.0
5.2 1.5 0.0
5.6000000000000005 1.5 0.0
6.0 1.5 0.0
6.4 1.5 0.0
6.800000000000001 1.5 0.0
7.2 1.5 0.0
7.6000000000000005 1.5 0.0
8.0 1.5 0.0
8.4 1.5 0.0
8.8 1.5 0.0
9.200000000000001 1.5 0.0
9.600000000000001 1.5 0.0
10.0 1.5 0.0
10.4 1.5 0.0
10.8 1.5 0.0
11.200000000000001 1.5 0.0
11.600000000000001 1.5 0.0
12.0 1.5 0.0
12.4 1.5 0.0
12.8 1.5 0.0
13.200000000000001 1.5 0.0
13.600000000000001 1.5 0.0
14.0 1.5 0.0
14.4 1.5 0.0
14.8 1.5 0.0
15.200000000000001 1.5 0.0
15.600000000000001 1.5 0.0
16.0 1.5 0.0
0.0 1.6 0.0
0.4 1.6 0.0
0.8 1.6 0.0
1.2000000000000002 1.6 0.0
1.6 1.6 0.0
2.0 1.6 0.0
2.4000000000000004 1.6 0.0
2.8000000000000003 1.6 0.0
3.2 1.6 0.0
3.6 1.6 0.0
4.0 1.6 0.0
4.4 1.6 0.0
4.800000000000001 1.6 0.0
5.2 1.6 0.0
5.6000000000000005 1.6 0.0
6.0 1.6 0.0
6.4 1.6 0.0
6.800000000000001 1.6 0.0
7.2 1.6 0.0
7.6000000000000005 1.6 0.0
8.0 1.6 0.0
8.4 1.6 0.0
8.8 1.6 0.0
9.200000000000001 1.6 0.0
9.600000000000001 1.6 0.0
10.0 1.6 0.0
10.4 1.6 0.0
10.8 1.6 0.0
11.200000000000001 1.6 0.0
11.600000000000001 1.6 0.0
12.0 1.6 0.0
12.4 1.6 0.0
12.8 1.6 0.0
13.200000000000001 1.6 0.0
13.600000000000001 1.6 0.0
14.0 1.6 0.0
14.4 1.6 0.0
14.8 1.6 0.0
15.200000000000001 1.6 0.0
15.600000000000001 1.6 0.0
16.0 1.6 0.0
0.0 1.7000000000000002 0.0
0.4 1.7000000000000002 0.0
0.8 1.7000000000000002 0.0
1.2000000000000002 1.7000000000000002 0.0
1.6 1.7000000000000002 0.0
2.0 1.7000000000000002 0.0
2.4000000000000004 1.7000000000000002 0.0
2.8000000000000003 1.7000000000000002 0.0
3.2 1.7000000000000002 0.0
3.6 1.7000000000000002 0.0
4.0 1.7000000000000002 0.0
4.4 1.7000000000000002 0.0
4.800000000000001 1.7000000000000002 0.0
5.2 1.7000000000000002 0.0
5.6000000000000005 1.7000000000000002 0.0
6.0 1.7000000000000002 0.0
6.4 1.7000000000000002 0.0
6.800000000000001 1.7000000000000002 0.0
7.2 1.7000000000000002 0.0
7.6000000000000005 1.7000000000000002 0.0
8.0 1.7000000000000002 0.0
8.4 1.7000000000000002 0.0
8.8 1.7000000000000002 0.0
9.200000000000001 1.7000000000000002 0.0
9.600000000000001 1.7000000000000002 0.0
10.0 1.7000000000000002 0.0
10.4 1.7000000000000002 0.0
10.8 1.7000000000000002 0.0
11.200000000000001 1.7000000000000002 0.0
11.600000000000001 1.7000000000000002 0.0
12.0 1.7000000000000002 0.0
12.4 1.7000000000000002 0.0
12.8 1.7000000000000002 0.0
13.200000000000001 1.7000000000000002 0.0
13.600000000000001 1.7000000000000002 0.0
14.0 1.7000000000000002 0.0
14.4 1.7000000000000002 0.0
14.8 1.7000000000000002 0.0
15.200000000000001 1.7000000000000002 0.0
15.600000000000001 1.7000000000000002 0.0
16.0 1.7000000000000002 0.0
0.0 1.8 0.0
0.4 1.8 0.0
0.8 1.8 0.0
1.2000000000000002 1.8 0.0
1.6 1.8 0.0
2.0 1.8 0.0
2.4000000000000004 1.8 0.0
2.8000000000000003 1.8 0.0
3.2 1.8 0.0
3.6 1.8 0.0
4.0 1.8 0.0
4.4 1.8 0.0
4.800000000000001 1.8 0.0
5.2 1.8 0.0
5.6000000000000005 1.8 0.0
6.0 1.8 0.0
6.4 1.8 0.0
6.800000000000001 1.8 0.0
7.2 1.8 0.0
7.6000000000000005 1.8 0.0
8.0 1.8 0.0
8.4 1.8 0.0
8.8 1.8 0.0
9.200000000000001 1.8 0.0
9.600000000000001 1.8 0.0
10.0 1.8 0.0
10.4 1.8 0.0
10.8 1.8 0.0
11.200000000000001 1.8 0.0
11.600000000000001 1.8 0.0
12.0 1.8 0.0
12.4 1.8 0.0
12.8 1.8 0.0
13.200000000000001 1.8 0.0
13.600000000000001 1.8 0.0
14.0 1.8 0.0
14.4 1.8 0.0
14.8 1.8 0.0
15.200000000000001 1.8 0.0
15.600000000000001 1.8 0.0
16.0 1.8 0.0
0.0 1.9000000000000001 0.0
0.4 1.9000000000000001 0.0
0.8 1.9000000000000001 0.0
1.2000000000000002 1.9000000000000001 0.0
1.6 1.9000000000000001 0.0
2.0 1.9000000000000001 0.0
2.4000000000000004 1.9000000000000001 0.0
2.8000000000000003 1.9000000000000001 0.0
3.2 1.9000000000000001 0.0
3.6 1.9000000000000001 0.0
4.0 1.9000000000000001 0.0
4.4 1.9000000000000001 0.0
4.800000000000001 1.9000000000000001 0.0
5.2 1.9000000000000001 0.0
5.6000000000000005 1.9000000000000001 0.0
6.0 1.9000000000000001 0.0
6.4 1.9000000000000001 0.0
6.800000000000001 1.9000000000000001 0.0
7.2 1.9000000000000001 0.0
7.6000000000000005 1.9000000000000001 0.0
8.0 1.9000000000000001 0.0
8.4 1.9000000000000001 0.0
8.8 1.9000000000000001 0.0
9.200000000000001 1.9000000000000001 0.0
9.600000000000001 1.9000000000000001 0.0
10.0 1.9000000000000001 0.0
10.4 1.9000000000000001 0.0
10.8 1.9000000000000001 0.0
11.200000000000001 1.9000000000000001 0.0
11.600000000000001 1.9000000000000001 0.0
12.0 1.9000000000000001 0.0
12.4 1.9000000000000001 0.0
12.8 1.9000000000000001 0.0
13.200000000000001 1.9000000000000001 0.0
13.600000000000001 1.9000000000000001 0.0
14.0 1.9000000000000001 0.0
14.4 1.9000000000000001 0.0
14.8 1.9000000000000001 0.0
15.200000000000001 1.9000000000000001 0.0
15.600000000000001 1.9000000000000001 0.0
16.0 1.9000000000000001 0.0
0.0 2.0 0.0
0.4 2.0 0.0
0.8 2.0 0.0
1.2000000000000002 2.0 0.0
1.6 2.0 0.0
2.0 2.0 0.0
2.4000000000000004 2.0 0.0
2.8000000000000003 2.0 0.0
3.2 2.0 0.0
3.6 2.0 0.0
4.0 2.0 0.0
4.4 2.0 0.0
4.800000000000001 2.0 0.0
5.2 2.0 0.0
5.6000000000000005 2.0 0.0
6.0 2.0 0.0
6.4 2.0 0.0
6.800000000000001 2.0 0.0
7.2 2.0 0.0
7.6000000000000005 2.0 0.0
8.0 2.0 0.0
8.4 2.0 0.0
8.8 2.0 0.0
9.200000000000001 2.0 0.0
9.600000000000001 2.0 0.0
10.0 2.0 0.0
10.4 2.0 0.0
10.8 2.0 0.0
11.200000000000001 2.0 0.0
11.600000000000001 2.0 0.0
12.0 2.0 0.0
12.4 2.0 0.0
12.8 2.0 0.0
13.200000000000001 2.0 0.0
13.600000000000001 2.0 0.0
14.0 2.0 0.0
14.4 2.0 0.0
14.8 2.0 0.0
15.200000000000001 2.0 0.0
15.600000000000001 2.0 0.0
16.0 2.0 0.0
CELLS 800 4000
4 0 1 42 41
4 1 2 43 42
4 2 3 44 43
4 3 4 45 44
4 4 5 46 45
4 5 6 47 46
4 6 7 48 47
4 7 8 49 48
4 8 9 50 49
4 9 10 51 50
4 10 11 52 51
4 11 12 53 52
4 12 13 54 53
4 13 14 55 54
4 14 15 56 55
4 15 16 57 56
4 16 17 58 57
4 17 18 59 58
4 18 19 60 59
4 19 20 61 60
4 20 21 62 61
4 21 22 63 62
4 22 23 64 63
4 23 24 65 64
4 24 25 66 65
4 25 26 67 66
4 26 27 68 67
4 27 28 69 68
4 28 29 70 69
4 29 30 71 70
4 30 31 72 71
4 31 32 73 72
4 32 33 74 73
4 33 34 75 74
4 34 35 76 75
4 35 36 77 76
4 36 37 78 77
4 37 38 79 78
4 38 39 80 79
4 39 40 81 80
4 41 42 83 82
4 42 43 84 83
4 43 44 85 84
4 44 45 86 85
4 45 46 87 86
4 46 47 88 87
4 47 48 89 88
4 48 49 90 89
4 49 50 91 90
4 50 51 92 91
4 51 52 93 92
4 52 53 94 93
4 53 54 95 94
4 54 55 96 95
4 55 56 97 96
4 56 57 98 97
4 57 58 99 98
4 58 59 100 99
4 59 60 101 100
4 60 61 102 101
4 61 62 103 102
4 62 63 104 103
4 63 64 105 104
4 64 65 106 105
4 65 66 107 106
4 66 67 108 107
4 67 68 109 108
4 68 69 110 109
4 69 70 111 110
4 70 71 112 111
4 71 72 113 112
4 72 73 114 113
4 73 74 115 114
4 74 75 116 115
4 75 76 117 116
4 76 77 118 117
4 77 78 119 118
4 78 79 120 119
4 79 80 121 120
4 80 81 122 121
4 82 83 124 123
4 83 84 125 124
4 84 85 126 125
4 85 86 127 126
4 86 87 128 127
4 87 88 129 128
4 88 89 130 129
4 89 90 131 130
4 90 91 132 131
4 91 92 133 132
4 92 93 134 133
4 93 94 135 134
4 94 95 136 135
4 95 96 137 136
4 96 97 138 137
4 97 98 139 138
4 98 99 140 139
4 99 100 141 140
4 100 101 142 141
4 101 102 143 142
4 102 103 144 143
4 103 104 145 144
4 104 105 146 145
4 105 106 147 146
4 106 107 148 147
4 107 108 149 148
4 108 109 150 149
4 109 110 151 150
4 110 111 152 151
4 111 112 153 152
4 112 113 154 153
4 113 114 155 154
4 114 115 156 155
4 115 116 157 156
4 116 117 158 157
4 117 118 159 158
4 118 119 160 159
4 119 120 161 160
4 120 121 162 161
4 121 122 163 162
4 123 124 165 164
4 124 125 166 165
4 125 126 167 166
4 126 127 168 167
4 127 128 169 168
4 128 129 170 169
4 129 130 171 170
4 130 131 172 171
4 131 132 173 172
4 132 133 174 173
4 133 134 175 174
4 134 135 176 175
4 135 136 177 176
4 136 137 178 177
4 137 138 179 178
4 138 139 180 179
4 139 140 181 180
4 140 141 182 181
4 141 142 183 182
4 142 143 184 183
4 143 144 185 184
4 144 145 186 185
4 145 146 187 186
4 146 147 188 187
4 147 148 189 188
4 148 149 190 189
4 149 150 191 190
4 150 151 192 191
4 151 152 193 192
4 152 153 194 193
4 153 154 195 194
4 154 155 196 195
4 155 156 197 196
4 156 157 198 197
4 157 158 199 198
4 158 159 200 199
4 159 160 201 200
4 160 161 202 201
4 161 162 203 202
4 162 163 204 203
4 164 165 206 205
4 165 166 207 206
4 166 167 208 207
4 167 168 209 208
4 168 169 210 209
4 169 170 211 210
4 170 171 212 211
4 171 172 213 212
4 172 173 214 213
4 173 174 215 214
4 174 175 216 215
4 175 176 217 216
4 176 177 218 217
4 177 178 219 218
4 178 179 220 219
4 179 180 221 220
4 180 181 222 221
4 181 182 223 222
4 182 183 224 223
4 183 184 225 224
4 184 185 226 225
4 185 186 227 226
4 186 187 228 227
4 187 188 229 228
4 188 189 230 229
4 189 190 231 230
4 190 191 232 231
4 191 192 233 232
4 192 193 234 233
4 193 194 235 234
4 194 195 236 235
4 195 196 237 236
4 196 197 238 237
4 197 198 239 238
4 198 199 240 239
4 199 200 241 240
4 200 201 242 241
4 201 202 243 242
4 202 203 244 243
4 203 204 245 244
4 205 206 247 246
4 206 207 248 247
4 207 208 249 248
4 208 209 250 249
4 209 210 251 250
4 210 211 252 251
4 211 212 253 252
4 212 213 254 253
4 213 214 255 254
4 214 215 256 255
4 215 216 257 256
4 216 217 258 257
4 217 218 259 258
4 218 219 260 259
4 219 220 261 260
4 220 221 262 261
4 221 222 263 262
4 222 223 264 263
4 223 224 265 264
4 224 225 266 265
4 225 226 267 266
4 226 227 268 267
4 227 228 269 268
4 228 229 270 269
4 229 230 271 270
4 230 231 272 271
4 231 232 273 272
4 232 233 274 273
4 233 234 275 274
4 234 235 276 275
4 235 236 277 276
4 236 237 278 277
4 237 238 279 278
4 238 239 280 279
4 239 240 281 280
4 240 241 282 281
4 241 242 283 282
4 242 243 284 283
4 243 244 285 284
4 244 245 286 285
4 246 247 288 287
4 247 248 289 288
4 248 249 290 289
4 249 250 291 290
4 250 251 292 291
4 251 252 293 292
4 252 253 294 293
4 253 254 295 294
4 254 255 296 295
4 255 256 297 296
4 256 257 298 297
4 257 258 299 298
4 258 259 300 299
4 259 260 301 300
4 260 261 302 301
4 261 262 303 302
4 262 263 304 303
4 263 264 305 304
4 264 265 306 305
4 265 266 307 306
4 266 267 308 307
4 267 268 309 308
4 268 269 310 309
4 269 270 311 310
4 270 271 312 311
4 271 272 313 312
4 272 273 314 313
4 273 274 315 314
4 274 275 316 315
4 275 276 317 316
4 276 277 318 317
4 277 278 319 318
4 278 279 320 319
4 279 280 321 320
4 280 281 322 321
4 281 282 323 322
4 282 283 324 323
4 283 284 325 324
4 284 285 326 325
4 285 286 327 326
4 287 288 329 328
4 288 289 330 329
4 289 290 331 330
4 290 291 332 331
4 291 292 333 332
4 292 293 334 333
4 293 294 335 334
4 294 295 336 335
4 295 296 337 336
4 296 297 338 337
4 297 298 339 338
4 298 299 340 339
4 299 300 341 340
4 300 301 342 341
4 301 302 343 342
4 302 303 344 343
4 303 304 345 344
4 304 305 346 345
4 305 306 347 346
4 306 307 348 347
4 307 308 349 348
4 308 309 350 349
4 309 310 351 350
4 310 311 352 351
4 311 312 353 352
4 312 313 354 353
4 313 314 355 354
4 314 315 356 355
4 315 316 357 356
4 316 317 358 357
4 317 318 359 358
4 318 319 360 359
4 319 320 361 360
4 320 321 362 361
4 321 322 363 362
4 322 323 364 363
4 323 324 365 364
4 324 325 366 365
4 325 326 367 366
4 326 327 368 367
4 328 329 370 369
4 329 330 371 370
4 330 331 372 371
4 331 332 373 372
4 332 333 374 373
4 333 334 375 374
4 334 335 376 375
4 335 336 377 376
4 336 337 378 377
4 337 338 379 378
4 338 339 380 379
4 339 340 381 380
4 340 341 382 381
4 341 342 383 382
4 342 343 384 383
4 343 344 385 384
4 344 345 386 385
4 345 346 387 386
4 346 347 388 387
4 347 348 389 388
4 348 349 390 389
4 349 350 391 390
4 350 351 392 391
4 351 352 393 392
4 352 353 394 393
4 353 354 395 394
4 354 355 396 395
4 355 356 397 396
4 356 357 398 397
4 357 358 399 398
4 358 359 400 399
4 359 360 401 400
4 360 361 402 401
4 361 362 403 402
4 362 363 404 403
4 363 364 405 404
4 364 365 406 405
4 365 366 407 406
4 366 367 408 407
4 367 368 409 408
4 369 370 411 410
4 370 371 412 411
4 371 372 413 412
4 372 373 414 413
4 373 374 415 414
4 374 375 416 415
4 375 376 417 416
4 376 377 418 417
4 377 378 419 418
4 378 379 420 419
4 379 380 421 420
4 380 381 422 421
4 381 382 423 422
4 382 383 424 423
4 383 384 425 424
4 384 385 426 425
4 385 386 427 426
4 386 387 428 427
4 387 388 429 428
4 388 389 430 429
4 389 390 431 430
4 390 391 432 431
4 391 392 433 432
4 392 393 434 433
4 393 394 435 434
4 394 395 436 435
4 395 396 437 436
4 396 397 438 437
4 397 398 439 438
4 398 399 440 439
4 399 400 441 440
4 400 401 442 441
4 401 402 443 442
4 402 403 444 443
4 403 404 445 444
4 404 405 446 445
4 405 406 447 446
4 406 407 448 447
4 407 408 449 448
4 408 409 450 449
4 410 411 452 451
4 411 412 453 452
4 412 413 454 453
4 413 414 455 454
4 414 415 456 455
4 415 416 457 456
4 416 417 458 457
4 417 418 459 458
4 418 419 460 459
4 419 420 461 460
4 420 421 462 461
4 421 422 463 462
4 422 423 464 463
4 423 424 465 464
4 424 425 466 465
4 425 426 467 466
4 426 427 468 467
4 427 428 469 468
4 428 429 470 469
4 429 430 471 470
4 430 431 472 471
4 431 432 473 472
4 432 433 474 473
4 433 434 475 474
4 434 435 476 475
4 435 436 477 476
4 436 437 478 477
4 437 438 479 478
4 438 439 480 479
4 439 440 481 480
4 440 441 482 481
4 441 442 483 482
4 442 443 484 483
4 443 444 485 484
4 444 445 486 485
4 445 446 487 486
4 446 447 488 487
4 447 448 489 488
4 448 449 490 489
4 449 450 491 490
4 451 452 493 492
4 452 453 494 493
4 453 454 495 494
4 454 455 496 495
4 455 456 497 496
4 456 457 498 497
4 457 458 499 498
4 458 459 500 499
4 459 460 501 500
4 460 461 502 501
4 461 462 503 502
4 462 463 504 503
4 463 464 505 504
4 464 465 506 505
4 465 466 507 506
4 466 467 508 507
4 467 468 509 508
4 468 469 510 509
4 469 470 511 510
4 470 471 512 511
4 471 472 513 512
4 472 473 514 513
4 473 474 515 514
4 474 475 516 515
4 475 476 517 516
4 476 477 518 517
4 477 478 519 518
4 478 479 520 519
4 479 480 521 520
4 480 481 522 521
4 481 482 523 522
4 482 483 524 523
4 483 484 525 524
4 484 485 526 525
4 485 486 527 526
4 486 487 528 527
4 487 488 529 528
4 488 489 530 529
4 489 490 531 530
4 490 491 532 531
4 492 493 534 533
4 493 494 535 534
4 494 495 536 535
4 495 496 537 536
4 496 497 538 537
4 497 498 539 538
4 498 499 540 539
4 499 500 541 540
4 500 501 542 541
4 501 502 543 542
4 502 503 544 543
4 503 504 545 544
4 504 505 546 545
4 505 506 547 546
4 506 507 548 547
4 507 508 549 548
4 508 509 550 549
4 509 510 551 550
4 510 511 552 551
4 511 512 553 552
4 512 513 554 553
4 513 514 555 554
4 514 515 556 555
4 515 516 557 556
4 516 517 558 557
4 517 518 559 558
4 518 519 560 559
4 519 520 561 560
4 520 521 562 561
4 521 522 563 562
4 522 523 564 563
4 523 524 565 564
4 524 525 566 565
4 525 526 567 566
4 526 527 568 567
4 527 528 569 568
4 528 529 570 569
4 529 530 571 570
4 530 531 572 571
4 531 532 573 572
4 533 534 575 574
4 534 535 576 575
4 535 536 577 576
4 536 537 578 577
4 537 538 579 578
4 538 539 580 579
4 539 540 581 580
4 540 541 582 581
4 541 542 583 582
4 542 543 584 583
4 543 544 585 584
4 544 545 586 585
4 545 546 587 586
4 546 547 588 587
4 547 548 589 588
4 548 549 590 589
4 549 550 591 590
4 550 551 592 591
4 551 552 593 592
4 552 553 594 593
4 553 554 595 594
4 554 555 596 595
4 555 556 597 596
4 556 557 598 597
4 557 558 599 598
4 558 559 600 599
4 559 560 601 600
4 560 561 602 601
4 561 562 603 602
4 562 563 604 603
4 563 564 605 604
4 564 565 606 605
4 565 566 607 606
4 566 567 608 607
4 567 568 609 608
4 568 569 610 609
4 569 570 611 610
4 570 571 612 611
4 571 572 613 612
4 572 573 614 613
4 574 575 616 615
4 575 576 617 616
4 576 577 618 617
4 577 578 619 618
4 578 579 620 619
4 579 580 621 620
4 580 581 622 621
4 581 582 623 622
4 582 583 624 623
4 583 584 625 624
4 584 585 626 625
4 585 586 627 626
4 586 587 628 627
4 587 588 629 628
4 588 589 630 629
4 589 590 631 630
4 590 591 632 631
4 591 592 633 632
4 592 593 634 633
4 593 594 635 634
4 594 595 636 635
4 595 596 637 636
4 596 597 638 637
4 597 598 639 638
4 598 599 640 639
4 599 600 641 640
4 600 601 642 641
4 601 602 643 642
4 602 603 644 643
4 603 604 645 644
4 604 605 646 645
4 605 606 647 646
4 606 607 648 647
4 607 608 649 648
4 608 609 650 649
4 609 610 651 650
4 610 611 652 651
4 611 612 653 652
4 612 613 654 653
4 613 614 655 654
4 615 616 657 656
4 616 617 658 657
4 617 618 659 658
4 618 619 660 659
4 619 620 661 660
4 620 621 662 661
4 621 622 663 662
4 622 623 664 663
4 623 624 665 664
4 624 625 666 665
4 625 626 667 666
4 626 627 668 667
4 627 628 669 668
4 628 629 670 669
4 629 630 671 670
4 630 631 672 671
4 631 632 673 672
4 632 633 674 673
4 633 634 675 674
4 634 635 676 675
4 635 636 677 676
4 636 637 678 677
4 637 638 679 678
4 638 639 680 679
4 639 640 681 680
4 640 641 682 681
4 641 642 683 682
4 642 643 684 683
4 643 644 685 684
4 644 645 686 685
4 645 646 687 686
4 646 647 688 687
4 647 648 689 688
4 648 649 690 689
4 649 650 691 690
4 650 651 692 691
4 651 652 693 692
4 652 653 694 693
4 653 654 695 694
4 654 655 696 695
4 656 657 698 697
4 657 658 699 698
4 658 659 700 699
4 659 660 701 700
4 660 661 702 701
4 661 662 703 702
4 662 663 704 703
4 663 664 705 704
4 664 665 706 705
4 665 666 707 706
4 666 667 708 707
4 667 668 709 708
4 668 669 710 709
4 669 670 711 710
4 670 671 712 711
4 671 672 713 712
4 672 673 714 713
4 673 674 715 714
4 674 675 716 715
4 675 676 717 716
4 676 677 718 717
4 677 678 719 718
4 678 679 720 719
4 679 680 721 720
4 680 681 722 721
4 681 682 723 722
4 682 683 724 723
4 683 684 725 724
4 684 685 726 725
4 685 686 727 726
4 686 687 728 727
4 687 688 729 728
4 688 689 730 729
4 689 690 731 730
4 690 691 732 731
4 691 692 733 732
4 692 693 734 733
4 693 694 735 734
4 694 695 736 735
4 695 696 737 736
4 697 698 739 738
4 698 699 740 739
4 699 700 741 740
4 700 701 742 741
4 701 702 743 742
4 702 703 744 743
4 703 704 745 744
4 704 705 746 745
4 705 706 747 746
4 706 707 748 747
4 707 708 749 748
4 708 709 750 749
4 709 710 751 750
4 710 711 752 751
4 711 712 753 752
4 712 713 754 753
4 713 714 755 754
4 714 715 756 755
4 715 716 757 756
4 716 717 758 757
4 717 718 759 758
4 718 719 760 759
4 719 720 761 760
4 720 721 762 761
4 721 722 763 762
4 722 723 764 763
4 723 724 765 764
4 724 725 766 765
4 725 726 767 766
4 726 727 768 767
4 727 728 769 768
4 728 729 770 769
4 729 730 771 770
4 730 731 772 771
4 731 732 773 772
4 732 733 774 773
4 733 734 775 774
4 734 735 776 775
4 735 736 777 776
4 736 737 778 777
4 738 739 780 779
4 739 740 781 780
4 740 741 782 781
4 741 742 783 782
4 742 743 784 783
4 743 744 785 784
4 744 745 786 785
4 745 746 787 786
4 746 747 788 787
4 747 748 789 788
4 748 749 790 789
4 749 750 791 790
4 750 751 792 791
4 751 752 793 792
4 752 753 794 793
4 753 754 795 794
4 754 755 796 795
4 755 756 797 796
4 756 757 798 797
4 757 758 799 798
4 758 759 800 799
4 759 760 801 800
4 760 761 802 801
4 761 762 803 802
4 762 763 804 803
4 763 764 805 804
4 764 765 806 805
4 765 766 807 806
4 766 767 808 807
4 767 768 809 808
4 768 769 810 809
4 769 770 811 810
4 770 771 812 811
4 771 772 813 812
4 772 773 814 813
4 773 774 815 814
4 774 775 816 815
4 775 776 817 816
4 776 777 818 817
4 777 778 819 818
4 779 780 821 820
4 780 781 822 821
4 781 782 823 822
4 782 783 824 823
4 783 784 825 824
4 784 785 826 825
4 785 786 827 826
4 786 787 828 827
4 787 788 829 828
4 788 789 830 829
4 789 790 831 830
4 790 791 832 831
4 791 792 833 832
4 792 793 834 833
4 793 794 835 834
4 794 795 836 835
4 795 796 837 836
4 796 797 838 837
4 797 798 839 838
4 798 799 840 839
4 799 800 841 840
4 800 801 842 841
4 801 802 843 842
4 802 803 844 843
4 803 804 845 844
4 804 805 846 845
4 805 806 847 846
4 806 807 848 847
4 807 808 849 848
4 808 809 850 849
4 809 810 851 850
4 810 811 852 851
4 811 812 853 852
4 812 813 854 853
4 813 814 855 854
4 814 815 856 855
4 815 816 857 856
4 816 817 858 857
4 817 818 859 858
4 818 819 860 859
CELL_TYPES 800
9
9
9
9
9
9
9
9
9
9
9
9
9
9
9
9
9
9
9
9
9
9
9
9
9
9
9
9
9
9
9
9
9
9
9
9
9
9
9
9
9
9
9
9
9
9
9
9
9
9
9
9
9
9
9
9
9
9
9
9
9
9
9
9
9
9
9
9
9
9
9
9
9
9
9
9
9
9
9
9
9
9
9
9
9
9
9
9
9
9
9
9
9
9
9
9
9
9
9
9
9
9
9
9
9
9
9
9
9
9
9
9
9
9
9
9
9
9
9
9
9
9
9
9
9
9
9
9
9
9
9
9
9
9
9
9
9
9
9
9
9
9
9
9
9
9
9
9
9
9
9
9
9
9
9
9
9
9
9
9
9
9
9
9
9
9
9
9
9
9
9
9
9
9
9
9
9
9
9
9
9
9
9
9
9
9
9
9
9
9
9
9
9
9
9
9
9
9
9
9
9
9
9
9
9
9
9
9
9
9
9
9
9
9
9
9
9
9
9
9
9
9
9
9
9
9
9
9
9
9
9
9
9
9
9
9
9
9
9
9
9
9
9
9
9
9
9
9
9
9
9
9
9
9
9
9
9
9
9
9
9
9
9
9
9
9
9
9
9
9
9
9
9
9
9
9
9
9
9
9
9
9
9
9
9
9
9
9
9
9
9
9
9
9
9
9
9
9
9
9
9
9
9
9
9
9
9
9
9
9
9
9
9
9
9
9
9
9
9
9
9
9
9
9
9
9
9
9
9
9
9
9
9
9
9
9
9
9
9
9
9
9
9
9
9
9
9
9
9
9
9
9
9
9
9
9
9
9
9
9
9
9
9
9
9
9
9
9
9
9
9
9
9
9
9
9
9
9
9
9
9
9
9
9
9
9
9
9
9
9
9
9
9
9
9
9
9
9
9
9
9
9
9
9
9
9
9
9
9
9
9
9
9
9
9
9
9
9
9
9
9
9
9
9
9
9
9
9
9
9
9
9
9
9
9
9
9
9
9
9
9
9
9
9
9
9
9
9
9
9
9
9
9
9
9
9
9
9
9
9
9
9
9
9
9
9
9
9
9
9
9
9
9
9
9
9
9
9
9
9
9
9
9
9
9
9
9
9
9
9
9
9
9
9
9
9
9
9
9
9
9
9
9
9
9
9
9
9
9
9
9
9
9
9
9
9
9
9
9
9
9
9
9
9
9
9
9
9
9
9
9
9
9
9
9
9
9
9
9
9
9
9
9
9
9
9
9
9
9
9
9
9
9
9
9
9
9
9
9
9
9
9
9
9
9
9
9
9
9
9
9
9
9
9
9
9
9
9
9
9
9
9
9
9
9
9
9
9
9
9
9
9
9
9
9
9
9
9
9
9
9
9
9
9
9
9
9
9
9
9
9
9
9
9
9
9
9
9
9
9
9
9
9
9
9
9
9
9
9
9
9
9
9
9
9
9
9
9
9
9
9
9
9
9
9
9
9
9
9
9
9
9
9
9
9
9
9
9
9
9
9
9
9
9
9
9
9
9
9
9
9
9
9
9
9
9
9
9
9
9
9
9
9
9
9
9
9
9
9
9
9
9
9
9
9
9
9
9
9
9
9
9
9
9
9
9
9
9
9
9
9
9
9
9
9
9
9
9
9
9
9
9
9
9
9
9
9
9
9
9
9
9
9
9
9
9
9
9
9
9
9
9
9
9
9
9
9
9
9
9
9
9
9
9
9
9
9
9
9
9
9
9
9
9
9
9
9
9
9
9
9
9
9
9
9
9
9
9
9
9
9
9
9
9
9
9
9
9
9
9
9
9
9
9
9
9
9
9
9
9
POINT_DATA 861
SCALARS Disp float 2
LOOKUP_TABLE default
0.0 0.0
0.005378338125856622 -0.2099831625996846
0.0066024362888080146 -0.4113592260955716
0.007366480236080119 -0.6117987035147073
0.008326920905469834 -0.8119027574010412
0.00981028151693468 -1.0113231331686932
0.012329736913851587 -1.209603605796564
0.01649311749010283 -1.4061753629879423
0.02300988857674831 -1.60033156553169
0.03265143868129576 -1.7911602886321847
0.046194719273862886 -1.9774365895627075
0.06439290580929614 -2.15754736231494
0.08796328310037829 -2.329498678892019
0.11757929738032273 -2.4910035454301283
0.15387094624635092 -2.6395530377568175
0.19735907417447887 -2.7724693831029534
0.2483313381713625 -2.8869686101789456
0.3066873649682271 -2.9802646627874703
0.37180022401234797 -3.049756518461732
0.442450574211422 -3.0932687543250186
0.5166780014505264 -3.109305352773234
0.5909054286896273 -3.0932687543249235
0.6615557788886877 -3.049756518461538
0.7266686379327841 -2.9802646627871896
0.785024664729617 -2.8869686101785925
0.8359969287264657 -2.7724693831025506
0.8794850566545593 -2.6395530377563765
0.9157767055205537 -2.491003545429661
0.9453927198004632 -2.329498678891541
0.9689630970915124 -2.157547362314465
0.9871612836269164 -1.977436589562249
1.0007045642194592 -1.791160288631753
1.0103461143239878 -1.6003315655312906
1.0168628854106192 -1.4061753629875822
1.021026265986861 -1.2096036057962456
1.023545721383772 -1.011323133168423
1.0250290819952341 -0.8119027574008193
1.0259895226646232 -0.6117987035145367
1.0267535666118948 -0.4113592260954512
1.0279776647748449 -0.20998316259961722
1.033356002900698 0.0
0.052381017774926056 -0.0022650704586683786
0.056104895022284544 -0.21020727347708618
0.056752835169268226 -0.4114203966958077
0.057433187648080176 -0.6118849192866105
0.05828132490930606 -0.8120322863993226
0.05954986785729001 -1.011596558774595
0.061722331810946086 -1.2101587008571275
0.06537362011525362 -1.4071750263942295
0.07117072154623907 -1.60195724747434
0.07981827087483835 -1.7935962880563134
0.09200924271747189 -1.9808615210017457
0.10840057837303384 -2.162132014856912
0.12962131509738806 -2.3354070126375044
0.15628527664272102 -2.4983924372533406
0.18896958494163887 -2.648565566172456
0.22816087417605813 -2.783211600842251
0.2741407015016801 -2.899474563617412
0.32684699235694475 -2.9944598540862133
0.3857467325874103 -3.065428637654486
0.4497020518286198 -3.110046007272498
0.5166780014505148 -3.1265348896551513
0.583653951072406 -3.1100460072724005
0.6476092703136027 -3.065428637654287
0.7065090105440469 -2.9944598540859255
0.759215301399284 -2.8994745636170514
0.8051951287248752 -2.783211600841841
0.8443864179592634 -2.6485655661720076
0.8770707262581505 -2.4983924372528654
0.9037346878034523 -2.335407012637018
0.9249554245277769 -2.16213201485643
0.9413467601833123 -1.980861521001281
0.953537732025924 -1.7935962880558767
0.962185281354506 -1.6019572474739368
0.9679823827854787 -1.4071750263938665
0.9716336710897777 -1.2101587008568073
0.9738061350434287 -1.0115965587743239
0.9750746779914106 -0.8120322863991004
0.9759228152526358 -0.61188491928644
0.9766031677314475 -0.4114203966956875
0.9772511078784312 -0.21020727347701845
0.9809749851257843 -0.0022650704586659087
0.10383576404522628 -0.004053868421055557
0.10654973992934225 -0.210316991744891
0.10692338430006362 -0.41145496858507036
0.1074792880218129 -0.6119611947071912
0.1082236217565211 -0.812137265704979
0.10929938451475216 -1.0118131061775524
0.11113157661348887 -1.210617418597135
0.11427288607823333 -1.4080301560464088
0.11933839143273697 -1.6033777548655535
0.12696886176305375 -1.7957488714937435
0.1377769401380044 -1.983903294126326
0.15233235059561911 -2.1662109137260144
0.171178566656127 -2.340667525631554
0.19485598758375539 -2.5049775638582537
0.22389309050057885 -2.656607041257579
0.2587405042265105 -2.792809977354134
0.29968141354831007 -2.9106688009783017
0.34670883977971145 -3.007193258614228
0.3993828112058682 -3.079515358141578
0.4566388752858507 -3.1251164070139454
0.5166780014505036 -3.142017429670345
0.5767171276151526 -3.125116407013846
0.6339731916951235 -3.0795153581413754
0.6866471631212613 -3.0071932586139343
0.7336745893526386 -2.9106688009779345
0.7746154986744112 -2.792809977353717
0.8094629124003152 -2.656607041257123
0.8385000153171109 -2.504977563857772
0.862177436244712 -2.3406675256310607
0.8810236523051937 -2.166210913725526
0.8955790627627845 -1.9839032941258554
0.9063871411377158 -1.7957488714933023
0.9140176114680171 -1.6033777548651469
0.9190831168225091 -1.408030156046043
0.922224426287246 -1.2106174185968135
0.9240566183859786 -1.0118131061772806
0.925132381144208 -0.8121372657047568
0.9258767148789158 -0.6119611947070207
0.9264326186006651 -0.4114549685849502
0.9268062629713865 -0.21031699174482293
0.9295202388554973 -0.004053868421050458
0.15480430926649824 -0.0054876736552277915
0.15684382634282143 -0.21039141948814882
0.1570724394412055 -0.41147432283597507
0.1575076979829222 -0.6120236533959932
0.158148473634566 -0.8122247470114009
0.15905523947914146 -1.0119799244265204
0.16056660658433775 -1.2109829300745611
0.16320287884866608 -1.4087420114844464
0.1675327108781187 -1.6045907756316102
0.1741322837856053 -1.797613558991738
0.18353818270182015 -1.986556481225153
0.19623677988255736 -2.169779632925738
0.2126904002433938 -2.345276126573092
0.2333645315491766 -2.5107525080119544
0.25872520135463384 -2.6636691502678924
0.28919398392077444 -2.8012551395245326
0.32505917909191695 -2.920542724657069
0.3663690364392174 -3.0184592480935133
0.4127825097777149 -3.092011672398917
0.46339633032132377 -3.138514788939613
0.5166780014504926 -3.1558312298611733
0.569959672579658 -3.1385147889395113
0.6205734931232562 -3.0920116723987108
0.6669869664617368 -3.018459248093214
0.7082968238090164 -2.9205427246566966
0.7441620189801356 -2.8012551395241085
0.7746308015462516 -2.6636691502674306
0.7999914713516846 -2.510752508011466
0.8206656026574434 -2.3452761265725925
0.8371192230182571 -2.169779632925244
0.8498178201989737 -1.9865564812246777
0.8592237191151713 -1.7976135589912925
0.8658232920226441 -1.6045907756312008
0.8701531240520864 -1.4087420114840787
0.8727893963164085 -1.2109829300742385
0.8743007634216015 -1.0119799244262484
0.8752075292661758 -0.8122247470111784
0.8758483049178193 -0.6120236533958225
0.8762835634595361 -0.41147432283585506
0.8765121765579201 -0.21039141948808046
0.8785516936342387 -0.005487673655220282
0.2054941251002301 -0.0066432247292185845
0.20703308766729295 -0.21045021475850353
0.2071824708866691 -0.4114854553770168
0.2075153995512205 -0.612072237771528
0.20805278587429665 -0.8122976546247875
0.208809168397988 -1.0121078811552684
0.2100334979667693 -1.2112623417170767
0.21217507697079865 -1.4093131529840874
0.2157737072209392 -1.6055967873793997
0.2213379812922937 -1.7991885095125286
0.22933216708036397 -1.9888186823726801
0.2401642070259224 -2.172835643764828
0.2542149197407057 -2.3492307688047402
0.27187526071925183 -2.51571508710937
0.29355208706168356 -2.669747479577077
0.31962323923567915 -2.8085407107613514
0.3503804028936874 -2.9290882693304683
0.3859290299512272 -3.0282479713955293
0.4260500315240112 -3.1029173972904864
0.47004962835196445 -3.150266860434981
0.5166780014504819 -3.168020166387185
0.5633063745489961 -3.1502668604348774
0.6073059713769394 -3.102917397290277
0.6474269729497089 -3.028247971395226
0.6829756000072307 -2.9290882693300913
0.7137327636652187 -2.8085407107609224
0.7398039158391932 -2.669747479576609
0.7614807421816039 -2.5157150871088767
0.7791410831601298 -2.3492307688042353
0.7931917958748934 -2.172835643764329
0.8040238358204346 -1.9888186823722
0.8120180216084898 -1.7991885095120796
0.8175822956798324 -1.6055967873789876
0.8211809259299642 -1.409313152983718
0.8233225049339884 -1.211262341716753
0.8245468345027671 -1.012107881154996
0.8253032170264577 -0.8122976546245652
0.8258406033495337 -0.6120722377713572
0.8261735320140852 -0.4114854553768968
0.8263229152334612 -0.21045021475843487
0.8278618778005202 -0.00664322472920894
0.25599939316545983 -0.007568944753218682
0.25714874036808494 -0.21049997351713448
0.2572517222024054 -0.4114931498748457
0.25749971534156463 -0.6121081138331366
0.25793396173473077 -0.8123579185210318
0.25855511477230053 -1.0122059022962306
0.25952424143779024 -1.2114679680508482
0.2612076495752847 -1.409748579677167
0.2640816913766398 -1.6063984946475707
0.26861577656620494 -1.8004748436000373
0.27519871987467287 -1.9906899386105206
0.2841631274607482 -2.175379285841768
0.29581225904495645 -2.3525319785115713
0.310461436231219 -2.519865694907496
0.32845202308237414 -2.674842420283023
0.3501255524059702 -2.8146645680545737
0.3757598285460598 -2.9362983165880383
0.4055048607867977 -3.0365492844165254
0.4392878619006391 -3.112228813829696
0.47666138661488955 -3.160384817648951
0.516678001450471 -3.178610020860934
0.5566946162860495 -3.160384817648846
0.5940681410002912 -3.1122288138294834
0.6278511421141203 -3.0365492844162185
0.657596174354843 -2.9362983165876573
0.6832304504949154 -2.8146645680541402
0.7049039798184937 -2.6748424202825505
0.7228945666696314 -2.5198656949069975
0.7375437438558772 -2.3525319785110623
0.7491928754400691 -2.175379285841265
0.75815728302613 -1.9906899386100372
0.7647402263345855 -1.8004748435995852
0.7692743115241406 -1.6063984946471561
0.7721483533254887 -1.4097485796767957
0.773831761462979 -1.2114679680505236
0.774800888128467 -1.012205902295958
0.7754220411660362 -0.8123579185208093
0.7758562875592022 -0.612108113832966
0.7761042806983615 -0.4114931498747257
0.7762072625326819 -0.21049997351706562
0.777356609735304 -0.007568944753207234
0.30637017450854476 -0.008301973325017803
0.30721247356768905 -0.2105430332173735
0.3072849117103397 -0.4114998429937526
0.30746030272919345 -0.6121326949124503
0.30779233877105827 -0.8124061058376201
0.30828688633485857 -1.0122808424319598
0.3090292398976006 -1.2116140863863463
0.3102968169889755 -1.4100618142344392
0.31248180542436327 -1.6070013248713513
0.3159965591506255 -1.801476401999638
0.3211789363228213 -1.9921733830756136
0.3282847106581577 -2.1774135523799583
0.3375425115467863 -2.3551833882527307
0.34919386608604497 -2.5232084141931135
0.3635147814020524 -2.678957138181811
0.3807975154368587 -2.8196287608820256
0.4013066914066536 -2.942170158978374
0.42522374420196807 -3.043353416834739
0.45260949856728344 -3.119935274329172
0.4832953601392389 -3.168866834765329
0.5166780014504602 -3.1876113612958488
0.5500606427616783 -3.1688668347652222
0.5807465043336263 -3.1199352743289572
0.6081322586989318 -3.0433534168344285
0.6320493114942338 -2.942170158977989
0.6525584874640146 -2.8196287608815886
0.6698412214988063 -2.6789571381813344
0.6841621368148 -2.5232084141926117
0.6958134913540455 -2.355183388252218
0.7050712922426613 -2.1774135523794516
0.7121770665779861 -1.9921733830751276
0.7173594437501719 -1.8014764019991836
0.7208741974764262 -1.607001324870935
0.7230591859118086 -1.410061814234067
0.7243267630031806 -1.2116140863860214
0.7250691165659214 -1.012280842431687
0.7255636641297214 -0.8124061058373976
0.725895700171586 -0.6121326949122797
0.7260710911904398 -0.4114998429936325
0.7261435293330903 -0.2105430332173045
0.7269858283922322 -0.008301973325004902
0.3566402809211538 -0.008871987235392934
0.35724051069324897 -0.21058126589536397
0.3572888938417933 -0.41150605911119165
0.35739875252615627 -0.6121473432263141
0.35763037312295665 -0.8124416097885427
0.35799890118405575 -1.0123376908715296
0.3585433679454792 -1.2117130142119734
0.3594363744224993 -1.4102707529324265
0.36098345752105093 -1.6074191851973427
0.3635160013490263 -1.8022007646325324
0.3673164077564468 -1.9932752009746735
0.37258082249105595 -2.178944570183423
0.37946848033586167 -2.3571920191872118
0.3881475557597205 -2.525751090878795
0.39882467181306575 -2.682099476471761
0.4117410839091207 -2.82343898439092
0.42713847194251015 -2.94670556429125
0.4452129748354811 -3.0486534469990003
0.46613705246446757 -3.1260194398864956
0.4900243185238733 -3.175695591599307
0.5166780014504486 -3.195019055651722
0.5433316843770217 -3.1756955915991996
0.5672189504364218 -3.126019439886279
0.5881430280654006 -3.048653446998688
0.6062175309583617 -2.9467055642908617
0.6216149189917403 -2.8234389843904797
0.6345313310877838 -2.682099476471282
0.645208447141119 -2.52575109087829
0.6538875225649684 -2.3571920191866966
0.6607751804097647 -2.1789445701829138
0.666039595144365 -1.9932752009741848
0.6698400015517783 -1.8022007646320761
0.6723725453797479 -1.607419185196925
0.6739196284782958 -1.4102707529320535
0.674812634955314 -1.2117130142116483
0.6753571017167368 -1.0123376908712567
0.6757256297778356 -0.8124416097883203
0.6759572503746358 -0.6121473432261435
0.6760671090589988 -0.41150605911107146
0.676115492207543 -0.21058126589529488
0.6767157219796366 -0.008871987235378851
0.40682981553270336 -0.009307266134014296
0.4072480895533485 -0.2106162627305441
0.4072699030190726 -0.4115110235503862
0.4073180158156249 -0.6121531309449869
0.4074521637344957 -0.8124638247977234
0.40769043468881266 -1.0123780664825697
0.4080525112375193 -1.2117775209737311
0.4086195307430554 -1.410395489006775
0.4095868398502127 -1.6076741225313376
0.4111965015968992 -1.802664538479448
0.413657101478606 -1.9940066828062613
0.4171107721382757 -2.179982817975411
0.42165673092794076 -2.3585691060004654
0.4273987262452948 -2.5275063143885705
0.4344726086725448 -2.6842819667175366
0.4430577676452474 -2.8261059814411693
0.4533672818200203 -2.9499126227705728
0.46561376085556644 -3.052447608333254
0.4800177552566747 -3.130459356620494
0.4969386879454973 -3.180836675057868
0.5166780014504367 -3.200810601956684
0.5364173149553749 -3.1808366750577597
0.5533382476441937 -3.1304593566202756
0.5677422420452963 -3.0524476083329395
0.5799887210808355 -2.949912622770183
0.5902982352556008 -2.8261059814407266
0.5988833942282958 -2.684281966717055
0.6059572766555396 -2.5275063143880634
0.611699271972888 -2.3585691059999485
0.6162452307625469 -2.1799828179748997
0.6196989014222106 -1.9940066828057712
0.6221595013039128 -1.8026645384789906
0.6237691630505959 -1.6076741225309192
0.6247364721577509 -1.4103954890064017
0.625303491663286 -1.2117775209734059
0.6256655682119923 -1.0123780664822968
0.6259038391663092 -0.8124638247975009
0.6260379870851799 -0.6121531309448163
0.626086099881732 -0.4115110235502661
0.6261079133474561 -0.210616262730475
0.6265261873681001 -0.009307266133999355
0.45695238447161785 -0.009636774166064222
0.45724272782956954 -0.21065014047547845
0.4572337051996036 -0.41151308881326665
0.4572220322140909 -0.6121508408350207
0.45726167375986687 -0.8124727854660844
0.45736736702268016 -1.0124007729898679
0.457545759367628 -1.2118154742811833
0.45782627309202795 -1.4104593378429697
0.458283043555153 -1.607797201202974
0.4590473694255602 -1.8028973654140583
0.46023589814048105 -1.9943917540290352
0.4619309277505977 -2.180548170897774
0.46417587198425525 -2.359333478945708
0.46702149803978504 -2.5284942498114176
0.47053955515952706 -2.6855254244125883
0.474838667706069 -2.8276480620611903
0.4800873650068836 -2.9518057980142123
0.4865181266995108 -3.0547476468216797
0.49440874151221154 -3.1332398118593323
0.5041777912634642 -3.184236410601705
0.5166780014504245 -3.204938466029995
0.5291782116373843 -3.1842364106015957
0.5389472613886352 -3.133239811859113
0.5468378762013324 -3.054747646821364
0.5532686378939555 -2.9518057980138215
0.5585173351947663 -2.8276480620607463
0.562816447741305 -2.685525424412106
0.5663345048610445 -2.5284942498109095
0.5691801309165722 -2.35933347894519
0.5714250751502269 -2.1805481708972616
0.573120104760341 -1.994391754028544
0.5743086334752598 -1.8028973654136002
0.5750729593456658 -1.6077972012025554
0.5755297298087899 -1.410459337842596
0.5758102435331894 -1.2118154742808582
0.5759886358781372 -1.012400772989595
0.5760943291409505 -0.8124727854658618
0.5761339706867263 -0.61215084083485
0.5761222977012136 -0.4115130888131464
0.5761132750712477 -0.2106501404754094
0.5764036184291987 -0.00963677416604868
0.5070242676790491 -0.009885088768410603
0.5072246239089307 -0.21068502806392236
0.5071852161582618 -0.411510816363131
0.5071153307395353 -0.6121409900288559
0.5070631672713586 -0.8124687176593943
0.5070368358416257 -1.0124051252469697
0.5070269377070168 -1.2118274531138586
0.5070240806331197 -1.410479653017841
0.507023422655042 -1.607831741904906
0.5070235710420067 -1.802957229048547
0.5070238102591565 -1.9944900683119904
0.507023458631905 -2.180694161086215
0.507018333643044 -2.359535573436384
0.5070050383894354 -2.528763159811243
0.5069893813814536 -2.6858766839937176
0.5070145054698626 -2.828108134901748
0.5072039214900891 -2.9524213177360834
0.5078137757106006 -3.0555891191202478
0.5092260446456263 -3.1343932546596847
0.5118686115314495 -3.1858501600528206
0.5166780014504119 -3.20732721158634
0.5214873913693749 -3.185850160052711
0.5241299582551976 -3.1343932546594644
0.525542227190222 -3.0555891191199316
0.5261520814107332 -2.952421317735692
0.5263414974309605 -2.8281081349013033
0.52636662151937 -2.6858766839932344
0.5263509645113891 -2.5287631598107354
0.526337669257782 -2.359535573435866
0.5263325442689221 -2.180694161085702
0.5263321926416715 -1.9944900683114992
0.5263324318588221 -1.8029572290480889
0.5263325802457873 -1.6078317419044872
0.5263319222677099 -1.410479653017467
0.5263290651938128 -1.2118274531135333
0.526319167059204 -1.0124051252466966
0.5262928356294713 -0.8124687176591718
0.5262406721612948 -0.6121409900286852
0.5261707867425681 -0.41151081636301073
0.5261313789918992 -0.2106850280638534
0.5263317352217806 -0.00988508876839467
0.5570565226029226 -0.010075176564834015
0.5571951368064776 -0.21071984445035058
0.5571283342092472 -0.4115041434990454
0.5570026314524407 -0.612123765306551
0.5568614204621744 -0.8124520626394526
0.5567052516979286 -1.0123910677204193
0.556507960443716 -1.2118128896750415
0.5562215270072913 -1.410458777567585
0.5557635771231628 -1.6077971762944179
0.5549997306599069 -1.802897408779922
0.5538121107179323 -1.9943918714030184
0.5521154886781149 -2.180546933674545
0.5498596578392864 -2.3593293204949797
0.5469875174086839 -2.5284867788307244
0.5434404678453464 -2.68552383701658
0.5391951602416593 -2.8276869813924157
0.5343187562572037 -2.9519669957283687
0.5290378853579678 -3.0551766329691845
0.5237550985150412 -3.1341086263323494
0.5190651157360987 -3.18579201735059
0.5166780014503993 -3.2080862534230574
0.5142908871646995 -3.1857920173504803
0.509600904385757 -3.1341086263321296
0.504318117542833 -3.0551766329688683
0.49903724664360155 -2.9519669957279784
0.4941608426591512 -2.827686981391972
0.48991553505546853 -2.6855238370160976
0.4863684854921354 -2.5284867788302177
0.4834963450615381 -2.359329320494462
0.4812405142227146 -2.180546933674033
0.47954389218290144 -1.994391871402528
0.4783562722409306 -1.8028974087794643
0.47759242577767685 -1.607797176293999
0.4771344758935497 -1.410458777567211
0.4768480424571259 -1.2118128896747162
0.4766507512029137 -1.0123910677201464
0.47649458243866816 -0.8124520626392302
0.476353371448402 -0.6121237653063804
0.47622766869159544 -0.41150414349892517
0.47616086609436514 -0.21071984445028163
0.47629948029791996 -0.010075176564817854
0.6070631620773222 -0.010221269882359824
0.6071585916301951 -0.21075257438500203
0.6070671608805951 -0.41149345708238283
0.6068888337406666 -0.6120994231976956
0.6066620696029061 -0.8124234307124873
0.6063791145470225 -1.0123589692281796
0.605999548806555 -1.2117723564130898
0.6054271506971282 -1.4103943027166808
0.6044592705275902 -1.6076741092189204
0.6028509156755194 -1.802664808279871
0.6003908739584892 -1.994006665649116
0.5969348631498984 -2.1799801095492417
0.5923791266621901 -2.358560430064021
0.58661441699386 -2.5274912216182246
0.5795165344605674 -2.68427922671112
0.5709841952051256 -2.8261854105326982
0.5610211525303472 -2.9502343404561
0.5498172579507552 -3.053287232408284
0.5378220004721076 -3.132192544484354
0.5260695600014779 -3.184166224109615
0.516678001450387 -3.2073827296315356
0.507286442899296 -3.1841662241095054
0.49553400242866774 -3.1321925444841345
0.48353874495002525 -3.0532872324079694
0.47233485037044126 -2.950234340455711
0.4623718076956722 -2.8261854105322564
0.45383946844023876 -2.684279226710639
0.4467415859069542 -2.527491221617719
0.4409768762386324 -2.358560430063505
0.43642113975093255 -2.179980109548731
0.4329651289423496 -1.9940066656486266
0.430505087225326 -1.8026648082794139
0.42889673237325954 -1.607674109218502
0.42792885220372445 -1.4103943027163068
0.427356454094299 -1.2117723564127645
0.42697688835383224 -1.0123589692279065
0.426693933297949 -0.812423430712265
0.42646716916018884 -0.612099423197525
0.4262888420202603 -0.41149345708226265
0.42619741127066046 -0.2107525743849331
0.4262928408235332 -0.010221269882343474
0.6570600257390353 -0.010330328576370895
0.6571203156884482 -0.21078163562356111
0.6570065100619447 -0.41147905043263544
0.6567790381154941 -0.6120683785535
0.6564703375510712 -0.8123835224652941
0.6560659007175799 -1.0123099756752214
0.6555059860190938 -1.2117049351609934
0.6546084907528114 -1.4102690112025857
0.6530628848254967 -1.6074194955540921
0.650531869713708 -1.8022012751220904
0.6467311773304332 -1.9932748314807198
0.6414639987018209 -2.1789404732927955
0.6345699106345154 -2.357179904748893
0.6258784699652126 -2.5257304781653382
0.615190478804197 -2.682096784629989
0.602319632983345 -2.8235534546611114
0.587187329615613 -2.94716391504662
0.5699536959488284 -3.0498536714405615
0.551240829638362 -3.128598130710983
0.5324791197274615 -3.180836506169023
0.516678001450375 -3.2052488785473736
0.500876883173289 -3.1808365061689132
0.4821151732623917 -3.128598130710765
0.4634023069519326 -3.0498536714402484
0.44616867328515897 -2.947163915046234
0.4310363699174397 -2.8235534546606718
0.4181655240966 -2.6820967846295103
0.4074775329355958 -2.5257304781648355
0.39878609226630507 -2.3571799047483797
0.3918920041990114 -2.178940473292287
0.38662482557041034 -1.9932748314802329
0.3828241331871448 -1.802201275121635
0.38029311807536276 -1.6074194955536747
0.3787475121480525 -1.4102690112022123
0.37785001688177255 -1.211704935160668
0.3772901021832874 -1.0123099756749485
0.3768856653497965 -0.8123835224650716
0.37657696478537395 -0.6120683785533295
0.3763494928389236 -0.41147905043251526
0.3762356872124201 -0.21078163562349223
0.37629597716183294 -0.010330328576354414
0.7070569075983351 -0.010408049541779728
0.7070866132040208 -0.21080560445222646
0.706951330286262 -0.411461066956293
0.7066776958210473 -0.6120311200718427
0.706290867495795 -0.8123332610996771
0.7057718155383592 -1.0122450999130888
0.7050160576260015 -1.211602921649445
0.7037477934910497 -1.4100601571854436
0.7015653557077883 -1.6070022085107942
0.6980516241710668 -1.8014769770943766
0.6928678866314087 -1.9921724299194499
0.6857594474794666 -2.1774084075302422
0.6765004824581355 -2.355169949241944
0.6648531623351636 -2.523186655205067
0.650543711977419 -2.678957136904745
0.6332950894180701 -2.819766820580512
0.6129358114124187 -2.942723823354531
0.5896282020368093 -3.044853845001466
0.5641962251365324 -3.1233154967165833
0.5385991371029537 -3.1758660081964516
0.5166780014503631 -3.201755149181833
0.494756865797774 -3.175866008196342
0.46915977776420026 -3.1233154967163665
0.44372780086393293 -3.044853845001155
0.42042019148833754 -2.942723823354149
0.4000609134827017 -2.819766820580076
0.3828122909233686 -2.6789571369042693
0.3685028405656392 -2.523186655204567
0.3568555204426826 -2.3551699492414335
0.34759655542136697 -2.177408407529737
0.340488116269439 -1.9921724299189656
0.3353043787297929 -1.8014769770939232
0.3317906471930802 -1.6070022085103783
0.3296082094098251 -1.4100601571850713
0.3283399452748767 -1.2116029216491198
0.3275841873625205 -1.0122450999128159
0.3270651354050854 -0.8123332610994546
0.3266783070798335 -0.6120311200716722
0.326404672614619 -0.41146106695617274
0.32626938969686037 -0.2108056044521576
0.32629909530254597 -0.010408049541763135
0.7570604109195135 -0.010459709944159705
0.7570633158865091 -0.21082345469252348
0.7569068408699414 -0.411439495754863
0.7565897382011797 -0.611988113282677
0.7561300134538167 -0.8122740265737973
0.7554969589065678 -1.0121632115702677
0.754519980889622 -1.2114545313088674
0.7528378973250525 -1.4097476394430148
0.7499665523119992 -1.606399910511875
0.7454324350164382 -1.8004752244105606
0.7388473219425139 -1.9906882581990046
0.7298809588757149 -2.1753736538704125
0.7182371802643529 -2.352519993447518
0.703611283098177 -2.5198488045035408
0.6856600603023464 -2.6748493273609637
0.6640158603101072 -2.814813184831886
0.6384283114234545 -2.9369033719418125
0.6090652383851802 -3.0382821201771177
0.5769757937420382 -3.116360193524282
0.5446618683488896 -3.1692946128172257
0.5166780014503516 -3.1969191356200732
0.4886941345518155 -3.1692946128171173
0.45638020915867383 -3.1163601935240677
0.42429076451554376 -3.038282120176811
0.3949276914772861 -2.9369033719414337
0.36934014259065195 -2.814813184831454
0.34769594259843195 -2.6748493273604925
0.3297447198026202 -2.5198488045030447
0.3151188226364629 -2.352519993447012
0.3034750440251198 -2.175373653869911
0.294508680958338 -1.9906882581985241
0.2879235678844282 -1.80047522441011
0.2833894505888783 -1.606399910511461
0.2805181055758328 -1.4097476394426434
0.27883602201126806 -1.2114545313085425
0.27785904399432454 -1.012163211569995
0.2772259894470764 -0.812274026573575
0.2767662646997138 -0.6119881132825065
0.27644916203095227 -0.41143949575474287
0.2762926870143847 -0.2108234546924546
0.2762955919813802 -0.010459709944143018
0.8070752057760502 -0.010490415129571492
0.8070553984672034 -0.2108346460733096
0.8068783643070759 -0.4114142398857353
0.806520128886586 -0.611939958370699
0.8059910486039942 -0.81220649159517
0.8052367610728498 -1.0120598448024722
0.8040117460927889 -1.211247818985036
0.8018727541453636 -1.4093130920925816
0.7982754128027044 -1.6055984629633016
0.7927099406536467 -1.7991884501037363
0.784713174218694 -1.9888162737287174
0.7738809027199294 -2.1728303227912207
0.7598425945966439 -2.3492231454157375
0.7422227647999546 -2.515709215550997
0.7206131576922858 -2.669767239364433
0.6945888471440503 -2.808693018367669
0.6638276639738226 -2.929709476248326
0.6284925470706567 -3.030151012466986
0.589836498144469 -3.1077496446449575
0.5508293908343904 -3.1611263073110107
0.5166780014503402 -3.1907155230268214
0.4825266120662925 -3.161126307310904
0.4435195047562227 -3.107749644644746
0.4048634558300494 -3.0301510124666824
0.3695283389269026 -2.9297094762479525
0.3387671557566963 -2.808693018367242
0.3127428452084835 -2.6697672393639666
0.29113323810083697 -2.515709215550506
0.27351340830416976 -2.349223145415237
0.25947510018090625 -2.172830322790724
0.24864282868216178 -1.988816273728241
0.2406460622472262 -1.7991884501032895
0.23508059009818158 -1.6055984629628899
0.23148324875553203 -1.4093130920922117
0.2293442568081127 -1.211247818984712
0.22811924182805499 -1.0120598448022
0.2273649542969117 -0.8122064915949477
0.22683587401432015 -0.6119399583705286
0.22647763859383047 -0.41141423988561515
0.22630060443370315 -0.21083464607324076
0.22628079712485644 -0.01049041512955476
0.857104317860055 -0.01050526462868465
0.8570669490756521 -0.21083912469150337
0.8568712441651086 -0.4113852870959371
0.8564740625324874 -0.6118871822591865
0.8558770045362156 -0.8121307961032729
0.8549881091423881 -1.0119294240673056
0.8534826546476687 -1.2109686091675775
0.8508476952896589 -1.408742389624827
0.8465169762997893 -1.6045923147631287
0.8399150523314796 -1.7976128790752346
0.8305067889943878 -1.9865535459929007
0.8178107046975828 -2.1697756609898393
0.8013763281252632 -2.345275396615146
0.7807546857338066 -2.5107623915806623
0.7554835199086224 -2.6637090960033674
0.7251050537785759 -2.8014165218944154
0.6892795598465045 -2.9211675204266307
0.6481399251584768 -3.0204900677400635
0.6030244853055062 -3.0974936744890202
0.5572515544541848 -3.1513312586439284
0.5166780014503288 -3.183083056736383
0.47610444844647587 -3.1513312586438236
0.4303315175951649 -3.097493674488812
0.3852160777422112 -3.0204900677397646
0.34407644305420576 -2.9211675204262626
0.3082509491221588 -2.801416521893994
0.2778724829921381 -2.663709096002907
0.25260131716697964 -2.5107623915801773
0.23197967477554854 -2.3452753966146513
0.21554529820325416 -2.1697756609893486
0.20284921390647193 -1.9865535459924293
0.1934409505693999 -1.7976128790747916
0.1868390266011051 -1.60459231476272
0.18250830761124692 -1.408742389624459
0.17987334825324452 -1.2109686091672547
0.17836789375852902 -1.0119294240670336
0.177478998364703 -0.8121307961030507
0.17688194036843147 -0.6118871822590162
0.1764847587358105 -0.41138528709581695
0.17628905382526733 -0.21083912469143457
0.17625168504086422 -0.010505264628667896
0.907148956851127 -0.010509436380169355
0.9071010919739312 -0.2108373966252328
0.9068911830905685 -0.4113528030279363
0.9064568529730967 -0.6118303497778369
0.9057890302248478 -0.8120451340209384
0.9047458890939064 -1.0117639652248005
0.9029231342686065 -1.2106036551219659
0.8997804596066193 -1.4080302113040368
0.8947114562228443 -1.603378718716395
0.8870777746323689 -1.795747490475791
0.8762681383165648 -1.9839002374685824
0.8617186906557756 -2.166209470918308
0.842897698030178 -2.3406755966078494
0.8192796371843518 -2.505005988198044
0.7903466360386447 -2.6566743228293443
0.7556471353585738 -2.792998947084762
0.7148952517016901 -2.9113221550265416
0.6682149381906818 -3.0093490077916596
0.6167998912424196 -3.085597558098618
0.5641221087461256 -3.1398458541106504
0.5166780014503172 -3.1739161476653397
0.4692338941545126 -3.1398458541105474
0.41655611165823075 -3.0855975580984127
0.3651410647099883 -3.0093490077913656
0.31846075119900497 -2.9113221550261796
0.2777088675421493 -2.7929989470843473
0.24300936686210742 -2.656674322828891
0.2140763657164292 -2.5050059881975657
0.19045830487063195 -2.340675596607362
0.17163731224506298 -2.1662094709178237
0.1570878645842991 -1.9839002374681163
0.14627822826851697 -1.7957474904753528
0.1386445466780586 -1.6033787187159898
0.1335755432942966 -1.4080302113036713
0.13043286863231796 -1.2106036551216441
0.12861011380702297 -1.011763965224529
0.12756697267608338 -0.8120451340207162
0.12689914992783483 -0.6118303497776666
0.1264648198103635 -0.4113528030278162
0.12625491092700084 -0.210837396625164
0.1262070460498052 -0.010509436380152597
0.957207868309553 -0.01050818517121125
0.9571599053689005 -0.21083071908859388
0.9569447660573911 -0.41131738537858364
0.9564742212380278 -0.6117694571030187
0.9557262714028505 -0.8119466819447655
0.9545009799784293 -1.0115517564817804
0.9523384505649519 -1.2101451136762131
0.9486818850310047 -1.4071738674753262
0.9428790911777866 -1.6019572479099875
0.9342277687075248 -1.7935942201568744
0.9220364097194063 -1.9808588814158163
0.9056546374042838 -2.1621342770566128
0.8844640375599508 -2.335425211793288
0.8578633750838611 -2.4984407982833003
0.8252939192616985 -2.648666309175631
0.7863103041993851 -2.783454202040362
0.740727188183003 -2.9002198440997202
0.6888025628945882 -2.9968157378814264
0.6315369911885993 -3.072089978183298
0.5717611249421939 -3.1265598211020214
0.5166780014503054 -3.1630378633408416
0.4615948779584214 -3.1265598211019205
0.4018190117120297 -3.0720899781830973
0.34455344000606347 -2.996815737881138
0.29262881471767693 -2.900219844099365
0.24704569870132642 -2.7834542020399544
0.20806208363904555 -2.648666309175185
0.17549262781691502 -2.4984407982828296
0.14889196534085775 -2.335425211792808
0.12770136549655636 -2.162134277056135
0.11131959318146231 -1.980858881415356
0.09912823419336775 -1.7935942201564405
0.09047691172312475 -1.6019572479095863
0.08467411786992114 -1.4071738674749632
0.08101755233598373 -1.2101451136758932
0.07885502292251206 -1.0115517564815095
0.07762973149809337 -0.8119466819445434
0.07688178166291658 -0.6117694571028484
0.0764112368435536 -0.4113173853784637
0.07619609753204436 -0.21083071908852505
0.07614813459139202 -0.010508185171194524
1.007275994316302 -0.010506666547521738
1.0072443441580499 -0.21082162312909788
1.0070405985965363 -0.4112802661308136
1.0065319282903415 -0.6117033103815647
1.005684070623129 -0.8118289915147925
1.0042496815448714 -1.011284554087803
1.001735992558059 -1.20958898769497
0.997563987944989 -1.4061723602548037
0.9910399427503942 -1.6003302955049554
0.9813942469696255 -1.7911576047534687
0.9678518625958571 -1.9774349287191626
0.949666369309246 -2.1575543668712074
0.9261301937455688 -2.3295280063247827
0.8965815073331947 -2.491072933387899
0.8604179217449579 -2.6396933929661763
0.8172005001837317 -2.7727934260908755
0.7668382317165389 -2.8878880592093172
0.7098110310944666 -2.9829807439387275
0.6473271776981264 -3.0571413208479905
0.5813320611891969 -3.1113521641077337
0.5166780014502933 -3.149999999999997
0.45202394171139454 -3.111352164107635
0.3860288252024805 -3.0571413208477947
0.323544971806166 -2.982980743938447
0.26651777118412606 -2.8878880592089695
0.2161555027169686 -2.7727934260904763
0.17293808115577816 -2.6396933929657385
0.13677449556757687 -2.491072933387437
0.1072258091552388 -2.329528006324311
0.083689633591596 -2.157554366870737
0.06550414030501647 -1.9774349287187087
0.051961755931273855 -1.7911576047530404
0.04231606015052556 -1.6003302955045584
0.03579201495594687 -1.4061723602544438
0.0316200103428878 -1.209588987694652
0.029106321356082057 -1.011284554087533
0.027671932277827407 -0.8118289915145707
0.02682407461061571 -0.6117033103813944
0.026315404304421273 -0.41128026613069363
0.026111658742907884 -0.21082162312902905
0.026080008584655638 -0.010506666547505022
SCALARS Stress float 6
LOOKUP_TABLE default
-1162.1790510094224 -1957.1986611628136 -1483.0519238488905 -20.829302017494783 0.0 0.0
1296.9344415264752 756.7073686721599 952.3264832985698 -22.81109591324438 0.0 0.0
577.3265605525442 135.25265982406324 224.15659733215008 -39.119385341720964 0.0 0.0
472.6957943614468 22.467114516521065 151.56111702038868 -2.348759461780263 0.0 0.0
588.5039340272765 65.34739981177955 225.87947528793143 1.5674700412819913 0.0 0.0
693.1767703912838 107.45458751808313 334.0006178200075 1.6306973172631358 0.0 0.0
808.1332270412365 148.94638095948827 444.21757241162595 0.7525127381713226 0.0 0.0
923.3376113499918 206.24876616362806 547.1913803600003 -0.48172264506831697 0.0 0.0
1045.5463547848951 276.4103859205535 648.5842905409174 -1.9327280803998654 0.0 0.0
1182.2672173085793 365.51817843509787 762.7366693101852 -3.495137188841146 0.0 0.0
1338.5158699423237 478.0205736666547 897.2233162001414 -5.023918074571201 0.0 0.0
1514.4753784636055 614.4709891582996 1053.1433140898928 -6.303798534503869 0.0 0.0
1705.664343230731 768.7417595782551 1225.419901656635 -7.109646921374534 0.0 0.0
1905.7321894165484 934.3174385207562 1407.7807222332822 -7.747322964851591 0.0 0.0
2105.950944864087 1102.3356046903875 1591.4318686016509 -8.176257362060504 0.0 0.0
2296.6301596981593 1263.247409748041 1766.7786871971457 -8.36001192844868 0.0 0.0
2468.0580652670524 1407.9066096008628 1924.44987889203 -8.148990512791986 0.0 0.0
2610.2290021396143 1527.0240695821815 2054.8440851785563 -7.427590787634784 0.0 0.0
2719.3490955143825 1617.5811044691322 2154.479613245063 -6.29405478945613 0.0 0.0
2782.9126727005882 1668.0576367509289 2211.3758520127844 -7.077850110321635 0.0 0.0
2775.168244030051 1658.4462302908023 2202.9851649697557 7.134559609767166e-11 0.0 0.0
2782.9126727015805 1668.0576367519623 2211.375852013375 7.077850110309901 0.0 0.0
2719.349095514526 1617.5811044693517 2154.4796132449846 6.294054789454501 0.0 0.0
2610.229002140161 1527.0240695828304 2054.844085178871 7.427590787615207 0.0 0.0
2468.0580652658155 1407.906609599729 1924.449878890937 8.148990512779987 0.0 0.0
2296.630159695742 1263.247409745719 1766.778687195189 8.360011928451362 0.0 0.0
2105.9509448616664 1102.3356046881274 1591.4318685996964 8.176257362140111 0.0 0.0
1905.7321894161014 934.317438520465 1407.7807222327717 7.747322964963281 0.0 0.0
1705.6643432293408 768.7417595770819 1225.4199016554724 7.10964692137714 0.0 0.0
1514.475378463292 614.4709891582071 1053.1433140894674 6.303798534547967 0.0 0.0
1338.51586994097 478.0205736655321 897.2233161990008 5.023918074488952 0.0 0.0
1182.2672173081933 365.51817843498895 762.7366693097183 3.495137188911709 0.0 0.0
1045.5463547842132 276.4103859200931 648.5842905403407 1.9327280804156697 0.0 0.0
923.3376113497997 206.248766163756 547.1913803597114 0.48172264502541573 0.0 0.0
808.133227041402 148.94638095996243 444.21757241150533 -0.7525127381716352 0.0 0.0
693.1767703908746 107.45458751797202 334.00061781955054 -1.630697317247268 0.0 0.0
588.503934027056 65.34739981184795 225.87947528770377 -1.5674700411752696 0.0 0.0
472.69579436067374 22.467114515676084 151.5611170199125 2.3487594616438887 0.0 0.0
577.3265605519738 135.25265982373998 224.15659733185302 39.119385341790235 0.0 0.0
1296.9344415260884 756.7073686717533 952.3264832980389 22.811095913366486 0.0 0.0
-1162.1790510067751 -1957.1986611601492 -1483.0519238462357 20.82930201712759 0.0 0.0
-1480.4771194953419 -2246.0276020407687 -1753.3197719046525 -21.405765758165867 0.0 0.0
882.7267486262914 419.5631064435089 595.5231533780625 -31.77189087538357 0.0 0.0
401.78860468927485 53.91577357975589 135.12228910614624 -32.96894886211534 0.0 0.0
418.0792190112803 3.5728903329044432 127.42599696999451 -16.102015841450395 0.0 0.0
523.8776537545091 28.69316701419536 184.08355014301003 -15.708620162669144 0.0 0.0
619.1584445530366 40.204791917676545 266.3335549063074 -20.462479737416494 0.0 0.0
699.6896472891633 55.22127012679166 350.40224238338476 -22.55696328682382 0.0 0.0
777.602551210776 73.52170390087987 417.13668327990763 -23.1523773068973 0.0 0.0
850.1277949801596 93.29868154771684 469.00691355447606 -23.56322179356061 0.0 0.0
920.0947178140376 115.83483486054186 516.6890254493587 -24.088375611181373 0.0 0.0
989.7049717687783 142.34285393240836 565.1329516244671 -24.331954849636606 0.0 0.0
1060.0755519621212 172.8922367091854 615.698921090851 -24.224193507639274 0.0 0.0
1130.3596246029301 207.3766454225187 668.083299691036 -23.765593079505013 0.0 0.0
1198.015695672016 240.94242768699954 718.6644589844814 -23.163790210922183 0.0 0.0
1257.1141398257969 268.2751412722365 761.8504253351268 -22.459370803615613 0.0 0.0
1302.880170707442 284.67627400383185 792.9057773617747 -21.456836484126796 0.0 0.0
1332.1170355024128 287.3764663441723 808.8533628168766 -19.910874763492313 0.0 0.0
1344.9433956431862 277.17857613328323 810.1578899108829 -17.72776083605434 0.0 0.0
1339.2095325065704 252.87042259363218 795.233015083148 -15.253582860770173 0.0 0.0
1287.2562600065787 188.1115849614667 737.543472154199 -14.386470096665175 0.0 0.0
1196.4782655573902 96.01560070451207 647.2509183268367 7.324452155899053e-11 0.0 0.0
1287.2562600071851 188.11158496210862 737.5434721545764 14.386470096708226 0.0 0.0
1339.209532506361 252.87042259347078 795.2330150829337 15.253582860832898 0.0 0.0
1344.943395643922 277.1785761341123 810.1578899114493 17.72776083608227 0.0 0.0
1332.1170355022955 287.376466344141 808.8533628168037 19.91087476341371 0.0 0.0
1302.880170706163 284.67627400267156 792.9057773608514 21.456836484140542 0.0 0.0
1257.1141398244188 268.27514127103774 761.8504253340453 22.45937080375135 0.0 0.0
1198.0156956713295 240.94242768645682 718.6644589839897 23.163790211022018 0.0 0.0
1130.3596246025475 207.37664542235137 668.0832996908116 23.765593079544132 0.0 0.0
1060.0755519617674 172.89223670904437 615.6989210906509 24.224193507738704 0.0 0.0
989.7049717686505 142.34285393252986 565.1329516243387 24.33195484962542 0.0 0.0
920.0947178137912 115.83483486055256 516.6890254491685 24.088375611258634 0.0 0.0
850.1277949797131 93.29868154751216 469.0069135541456 23.563221793593527 0.0 0.0
777.6025512109366 73.52170390132343 417.1366832799258 23.152377306861673 0.0 0.0
699.6896472893046 55.22127012721951 350.4022423833155 22.556963286658416 0.0 0.0
619.158444552744 40.204791917706864 266.3335549059814 20.46247973736517 0.0 0.0
523.8776537542162 28.693167014194177 184.0835501428099 15.708620162665778 0.0 0.0
418.0792190108424 3.572890332475929 127.42599696974182 16.10201584136821 0.0 0.0
401.78860468909915 53.91577357968121 135.12228910607422 32.9689488621454 0.0 0.0
882.7267486257133 419.56310644305813 595.5231533774328 31.77189087541312 0.0 0.0
-1480.4771194933332 -2246.0276020387446 -1753.319771902561 21.405765757697157 0.0 0.0
-1229.0625592754586 -1960.1490011674175 -1474.82657581066 -59.78052825025192 0.0 0.0
689.0022138434932 328.9498403872352 451.44557738594165 -99.51959411560847 0.0 0.0
281.70315381517287 61.48882702605731 102.96022653444975 -35.17670503923537 0.0 0.0
358.31250716148776 0.1686027295835879 107.33202693806936 -37.16393935804156 0.0 0.0
478.6378472476901 19.75473481985081 158.0161958238411 -38.01233927189491 0.0 0.0
586.4654550806683 35.62324040835584 236.96896030262263 -39.64914978535516 0.0 0.0
670.7089674296061 51.48133751831005 325.67512864355984 -42.23575095663203 0.0 0.0
749.7072134196081 66.28077891732232 395.80854415065676 -43.37857243432164 0.0 0.0
820.1938189240091 83.15798184293774 447.8126090699303 -44.36694588817963 0.0 0.0
886.6267796891681 101.81665986119498 492.4721626804478 -45.24285511244033 0.0 0.0
952.4594449215435 124.88172006857408 537.4387968443014 -45.40513120988899 0.0 0.0
1019.1065893492291 152.9454924725178 584.9193199400279 -44.77387804521843 0.0 0.0
1086.4286945856807 183.95858960567742 634.1009944238541 -43.79346217572156 0.0 0.0
1150.1480086862261 214.84897232458658 681.4035252371942 -42.6105923509264 0.0 0.0
1206.6272406365129 240.02619008942693 722.2092324059952 -41.214171664413634 0.0 0.0
1251.138129582122 255.5352429906461 752.1818265547639 -39.3379230213342 0.0 0.0
1281.3169625672147 259.33994208379784 769.1502169575277 -36.60582658242039 0.0 0.0
1294.5295060776257 249.4862302596518 770.8727813868172 -32.98406856674436 0.0 0.0
1281.7048147414343 218.00476868342835 748.9757468349922 -29.00117039648922 0.0 0.0
1250.8725012576542 174.49934469455422 712.1678891555698 -25.23948157982771 0.0 0.0
1140.9831835667835 63.78007472355875 603.2939324700865 4.432010314303625e-11 0.0 0.0
1250.872501258527 174.49934469546943 712.1678891561869 25.239481579893106 0.0 0.0
1281.7048147411751 218.00476868323912 748.9757468348344 29.001170396584847 0.0 0.0
1294.5295060783205 249.48623026043217 770.872781387278 32.98406856679048 0.0 0.0
1281.316962566446 259.33994208307615 769.1502169569768 36.605826582262196 0.0 0.0
1251.1381295823574 255.53524299103375 752.1818265549492 39.33792302136616 0.0 0.0
1206.6272406351509 240.02619008820773 722.2092324048976 41.214171664435526 0.0 0.0
1150.1480086860574 214.8489723246057 681.4035252370892 42.61059235101509 0.0 0.0
1086.4286945859303 183.95858960610445 634.1009944240027 43.793462175704065 0.0 0.0
1019.1065893482768 152.94549247179776 584.9193199394365 44.77387804523797 0.0 0.0
952.4594449219946 124.88172006924356 537.4387968446234 45.40513120990046 0.0 0.0
886.6267796891123 101.81665986141381 492.47216268039074 45.24285511241437 0.0 0.0
820.1938189235177 83.15798184269946 447.8126090695732 44.366945888201286 0.0 0.0
749.7072134193531 66.28077891733145 395.8085441504262 43.37857243425453 0.0 0.0
670.7089674292151 51.481337518174826 325.6751286431478 42.23575095648245 0.0 0.0
586.4654550800435 35.62324040798272 236.96896030211417 39.64914978530374 0.0 0.0
478.637847247365 19.754734819883907 158.01619582368068 38.01233927190361 0.0 0.0
358.3125071613809 0.16860272979341984 107.33202693811536 37.16393935802753 0.0 0.0
281.7031538150425 61.48882702575498 102.96022653432033 35.176705039241895 0.0 0.0
689.0022138428625 328.94984038689057 451.445577385331 99.51959411547926 0.0 0.0
-1229.062559273479 -1960.1490011654278 -1474.8265758085672 59.780528249816996 0.0 0.0
-1000.0912455039345 -1700.5769258983096 -1223.3262536013378 -73.25361988806708 0.0 0.0
523.207423399258 233.29160554236742 328.0247962190592 -144.8885079327603 0.0 0.0
205.82980660324563 54.71080508657815 78.16218350694712 -57.29688090600864 0.0 0.0
298.1621862058312 5.6366431721292 91.11488063054423 -58.304277784879666 0.0 0.0
423.678610956946 10.274838359121139 132.287686299587 -62.4751288009104 0.0 0.0
540.6051623422023 29.716315269686046 204.07417170569417 -60.39221984232282 0.0 0.0
639.0779077509529 45.54779938854251 295.3410989587953 -63.29798927341923 0.0 0.0
716.8490466505707 59.22382321661654 370.2499695496945 -63.90005510060635 0.0 0.0
786.2219044560344 73.18761326234542 423.88728325226566 -64.92235539708777 0.0 0.0
849.5089398782474 88.36978055964487 466.44612241228435 -65.76092861917574 0.0 0.0
911.2661273376309 107.76429715694233 507.80902021548326 -65.61113201056148 0.0 0.0
974.3531416588454 132.20980564449692 551.7479191455851 -64.54532273329254 0.0 0.0
1037.919113041387 160.89936623733362 597.9183793922388 -63.02842568721975 0.0 0.0
1098.3624993628423 187.9131279582046 641.6669394132662 -61.42196507370377 0.0 0.0
1151.76319935345 210.7663908281014 679.7823433219526 -59.41887720997482 0.0 0.0
1195.8349515539462 226.44388950012322 709.6237267046042 -56.72964180235317 0.0 0.0
1227.0447232720553 231.13416791267713 727.5580524276847 -53.12115383791686 0.0 0.0
1240.1884634567773 220.96705132885637 729.1442105843904 -48.52510034244386 0.0 0.0
1231.8300096286384 193.61283257375985 711.5179618428177 -42.86890909343812 0.0 0.0
1212.2969401363277 160.73210362160302 685.5196991390487 -34.921305443651974 0.0 0.0
1057.4363101465378 5.24255343058276 532.5682557816708 6.331291046990373e-11 0.0 0.0
1212.296940137203 160.73210362249054 685.5196991397838 34.92130544372363 0.0 0.0
1231.8300096293362 193.61283257456353 711.5179618434121 42.868909093525446 0.0 0.0
1240.1884634572004 220.96705132933917 729.1442105847209 48.52510034251307 0.0 0.0
1227.0447232701176 231.13416791082503 727.5580524263273 53.12115383790845 0.0 0.0
1195.8349515539437 226.44388950022108 709.6237267046823 56.729641802429626 0.0 0.0
1151.7631993528028 210.76639082759266 679.7823433213837 59.418877209886645 0.0 0.0
1098.3624993621402 187.91312795764844 641.6669394128971 61.42196507376292 0.0 0.0
1037.9191130419733 160.8993662381618 597.9183793926063 63.028425687343294 0.0 0.0
974.3531416579856 132.20980564383774 551.7479191449484 64.54532273329626 0.0 0.0
911.266127337487 107.76429715703885 507.8090202153933 65.61113201062076 0.0 0.0
849.5089398786561 88.36978056032626 466.44612241248404 65.76092861919744 0.0 0.0
786.2219044556185 73.1876132621739 423.8872832519839 64.92235539700565 0.0 0.0
716.8490466498328 59.22382321609684 370.2499695491215 63.90005510052689 0.0 0.0
639.0779077508735 45.54779938880244 295.34109895856545 63.29798927332824 0.0 0.0
540.6051623415673 29.716315269314137 204.07417170522214 60.39221984218286 0.0 0.0
423.6786109565895 10.274838359192998 132.28768629949204 62.47512880090305 0.0 0.0
298.1621862059517 5.636643172489601 91.11488063068346 58.304277784872305 0.0 0.0
205.8298066032102 54.71080508639018 78.1621835068801 57.296880905949976 0.0 0.0
523.2074233986549 233.29160554207084 328.02479621851353 144.88850793259243 0.0 0.0
-1000.0912455022029 -1700.5769258964824 -1223.326253599436 73.25361988782385 0.0 0.0
-801.8450062547278 -1474.95546348008 -1002.6740664138754 -72.56979259637403 0.0 0.0
400.8752074296736 150.38158389764965 232.5742527329301 -175.84267827376152 0.0 0.0
151.45474620408848 44.22012324060069 58.70246083340673 -87.0088430985371 0.0 0.0
244.16162960879308 11.833749216444545 76.8003955836135 -81.16448232503137 0.0 0.0
359.80157598164726 6.215515361700452 109.65966380892294 -87.03986349600294 0.0 0.0
486.931992456017 17.704679055833086 168.36371200786238 -86.08018941421255 0.0 0.0
595.2498485273298 38.1522706076031 257.6957981536513 -84.53862214328306 0.0 0.0
678.1443241798574 53.10808184018972 339.9578960355836 -84.80248722610496 0.0 0.0
747.368245624986 63.74233682910375 396.40707857936786 -85.21409588598853 0.0 0.0
807.7759727590625 75.27862542218459 437.7712932103366 -85.6020025471275 0.0 0.0
866.0058265214343 90.78008116446414 475.9617124141531 -84.99813528364436 0.0 0.0
924.9898524094224 111.48479470573409 516.1134755233226 -83.44663080924029 0.0 0.0
984.909178877177 136.31155145571427 558.5579818002644 -81.5844048881147 0.0 0.0
1041.7398557870579 161.42452569656203 599.5979552743743 -79.53197930587265 0.0 0.0
1092.569703581458 181.61354250203567 635.1282888561682 -77.00172501915571 0.0 0.0
1135.1995200394333 195.55103830588104 663.3755115535887 -73.7092918797548 0.0 0.0
1167.602186051953 201.82890528721347 682.7082784568082 -69.47654517981613 0.0 0.0
1184.8047752538685 195.42339582114795 688.1989153465142 -64.17377152485227 0.0 0.0
1182.6714269326985 173.48565044655513 676.3633461334366 -56.73803230285908 0.0 0.0
1168.335231429143 144.3103411675437 654.7638581036554 -44.90239036632289 0.0 0.0
957.7847571124406 -66.64296706479993 447.3470836953377 7.757172681976954e-11 0.0 0.0
1168.3352314286224 144.31034116704527 654.7638581034001 44.90239036641587 0.0 0.0
1182.6714269337454 173.48565044772064 676.363346134149 56.738032303047326 0.0 0.0
1184.804775253372 195.42339582072748 688.1989153462492 64.17377152496796 0.0 0.0
1167.60218604995 201.82890528532695 682.708278455336 69.47654517992311 0.0 0.0
1135.1995200386748 195.55103830518274 663.3755115531483 73.7092918797217 0.0 0.0
1092.5697035818405 181.61354250258773 635.1282888563433 77.00172501916987 0.0 0.0
1041.7398557855608 161.42452569524846 599.5979552734515 79.53197930589292 0.0 0.0
984.9091788765836 136.3115514552926 558.5579817998923 81.58440488823366 0.0 0.0
924.9898524087611 111.48479470523972 516.1134755227746 83.44663080915973 0.0 0.0
866.0058265210631 90.78008116429572 475.9617124138573 84.99813528360951 0.0 0.0
807.7759727593427 75.27862542277393 437.77129321053826 85.60200254721609 0.0 0.0
747.3682456246191 63.74233682899955 396.40707857908836 85.2140958859544 0.0 0.0
678.1443241794468 53.108081840123546 339.957896035201 84.80248722616176 0.0 0.0
595.2498485276226 38.15227060831228 257.6957981536637 84.53862214323152 0.0 0.0
486.9319924556695 17.704679055835783 168.36371200762636 86.08018941415773 0.0 0.0
359.80157598139084 6.215515361767107 109.65966380887781 87.03986349589128 0.0 0.0
244.1616296087427 11.833749216354045 76.80039558356805 81.16448232498037 0.0 0.0
151.45474620413916 44.220123240676266 58.702460833444626 87.0088430983955 0.0 0.0
400.8752074292095 150.38158389742645 232.57425273250666 175.84267827357556 0.0 0.0
-801.8450062531366 -1474.9554634782776 -1002.6740664121136 72.56979259629821 0.0 0.0
-627.922237835462 -1275.2913758500708 -806.9738725311557 -70.10953173498237 0.0 0.0
304.67389538740895 86.26770059296645 159.71790493569827 -193.42979651416113 0.0 0.0
109.81602949657567 31.253444799884143 42.320842288937946 -115.22855974227308 0.0 0.0
194.71521811110486 17.01952564486322 63.52211164158131 -104.33645266949168 0.0 0.0
294.21516776472777 4.952320606179842 89.3291237575078 -110.70024570517819 0.0 0.0
418.15292376149625 8.80151745951064 134.5671814624653 -111.99693851433248 0.0 0.0
534.0207667328972 30.095407627262585 214.35640433109057 -107.34225783072988 0.0 0.0
632.0130266325164 43.99958292845853 300.74047634061014 -106.90838341977886 0.0 0.0
700.4889462051701 54.9578251934773 363.2888680485238 -105.10273919361398 0.0 0.0
760.6319806053353 62.35235484462976 405.4272580466809 -104.80350379874892 0.0 0.0
815.3805473652975 73.92756126220084 441.03444312858824 -103.55662948376384 0.0 0.0
870.3349949649354 90.80588077723463 477.54956785784447 -101.46272759647107 0.0 0.0
926.2186616211408 112.29478756544698 516.3809123842365 -99.22465906837863 0.0 0.0
979.357444137404 133.50038886353218 553.6769810260953 -96.93677804339538 0.0 0.0
1027.3522426656 151.72068122849095 586.853173489827 -94.02558184308978 0.0 0.0
1068.4680245349327 164.8161858100777 613.9689027726112 -90.11560274756991 0.0 0.0
1102.042443797024 171.326742808896 633.9744316480171 -85.50296261707392 0.0 0.0
1125.3133052262665 170.7418298199016 645.3521135415155 -79.785115108596 0.0 0.0
1131.145765751722 155.9322108645237 641.0580692273674 -70.98176403703106 0.0 0.0
1119.9245409142964 127.54960627475776 621.4272455860228 -55.86471516521249 0.0 0.0
842.8640201530285 -149.39513057604856 349.31238324006 1.1622702800195839e-10 0.0 0.0
1119.9245409141506 127.54960627466374 621.4272455859557 55.86471516530487 0.0 0.0
1131.1457657519286 155.93221086478846 641.0580692275494 70.98176403716019 0.0 0.0
1125.313305225712 170.7418298194205 645.3521135411806 79.7851151086348 0.0 0.0
1102.0424437963006 171.32674280828365 633.9744316474405 85.50296261713429 0.0 0.0
1068.4680245342297 164.81618580945008 613.9689027722206 90.11560274752998 0.0 0.0
1027.3522426656398 151.72068122865298 586.8531734897504 94.02558184311309 0.0 0.0
979.3574441375463 133.50038886386437 553.6769810261446 96.93677804339403 0.0 0.0
926.2186616191319 112.29478756347442 516.3809123828556 99.22465906821574 0.0 0.0
870.3349949652775 90.80588077784523 477.5495678580615 101.46272759654406 0.0 0.0
815.3805473647435 73.92756126183829 441.03444312818533 103.55662948374287 0.0 0.0
760.6319806054302 62.352354844995226 405.42725804675774 104.8035037987503 0.0 0.0
700.4889462046399 54.95782519320717 363.2888680480985 105.1027391935863 0.0 0.0
632.0130266320111 43.999582928294615 300.7404763401972 106.90838341982857 0.0 0.0
534.0207667326216 30.095407627262965 214.3564043307835 107.34225783062162 0.0 0.0
418.1529237612634 8.801517459767517 134.5671814624008 111.99693851429713 0.0 0.0
294.2151677644606 4.952320606134724 89.32912375742687 110.70024570505218 0.0 0.0
194.71521811099248 17.01952564470145 63.522111641499265 104.3364526693172 0.0 0.0
109.81602949654841 31.253444799888985 42.32084228893122 115.22855974211652 0.0 0.0
304.67389538694914 86.26770059273674 159.71790493532768 193.42979651397974 0.0 0.0
-627.9222378341269 -1275.291375848565 -806.9738725296434 70.10953173487819 0.0 0.0
-478.26103029078433 -1092.4730871288857 -633.9982640855775 -68.38101345073984 0.0 0.0
228.78619396105884 35.42002276014182 104.27358882693487 -203.90584950095 0.0 0.0
75.9571406979359 18.366113386491204 28.296880990888805 -138.5607775417149 0.0 0.0
148.13284000639305 20.380514492857316 50.55507550573803 -125.96703726125631 0.0 0.0
230.35355393653708 6.192616826751261 70.84041400000709 -131.51564301790393 0.0 0.0
340.0313194052453 0.7417335098671758 102.81871292656076 -139.4007394028773 0.0 0.0
460.0771596784929 17.00869460846196 166.50540172281248 -134.0530764587328 0.0 0.0
565.1586537785969 35.96139836354944 251.3002639353284 -128.66149139331202 0.0 0.0
646.9396075422743 42.87691443040334 320.79595462942086 -126.84603941441239 0.0 0.0
704.4109117133895 49.74752328737753 366.74579529739935 -123.19210777435146 0.0 0.0
757.9636684699884 57.26589729065236 401.70921606507284 -121.21408749674379 0.0 0.0
808.9841880414774 70.08328823412934 434.9561845638616 -118.59039951664909 0.0 0.0
860.474822403637 87.74362680881495 469.9020041172908 -115.99566732014002 0.0 0.0
909.5754478779922 105.8632632946811 503.74002012039216 -113.46820492560362 0.0 0.0
954.2433292203427 121.39850452535873 533.9985386677065 -110.37304023020488 0.0 0.0
993.3318877269547 131.7771385963159 558.7938856879659 -106.27901779004645 0.0 0.0
1027.669578433885 140.38046507367577 580.2236766574617 -100.95201106766096 0.0 0.0
1058.733621958592 146.41573394371574 598.6986633039975 -95.0869487146278 0.0 0.0
1074.7609454144263 139.85040542121618 603.5834679595431 -85.93608352519283 0.0 0.0
1067.1773366705188 112.36831859927474 586.3337708250997 -68.54276959745191 0.0 0.0
710.6648271299889 -242.6675893834456 237.717424308733 1.0971490382871707e-10 0.0 0.0
1067.1773366702555 112.36831859900859 586.333770824965 68.54276959752 0.0 0.0
1074.7609454143862 139.8504054213289 603.5834679596708 85.93608352533658 0.0 0.0
1058.7336219581505 146.41573394340296 598.6986633036654 95.08694871490906 0.0 0.0
1027.6695784341332 140.38046507406102 580.2236766575368 100.95201106778566 0.0 0.0
993.3318877263158 131.77713859582707 558.7938856876439 106.27901779010139 0.0 0.0
954.2433292196378 121.3985045247122 533.9985386671882 110.37304023018777 0.0 0.0
909.5754478787142 105.86326329566356 503.7400201208634 113.46820492570824 0.0 0.0
860.4748224022811 87.74362680766538 469.90200411638386 115.99566732022622 0.0 0.0
808.9841880417547 70.08328823457023 434.9561845640767 118.59039951670196 0.0 0.0
757.9636684699115 57.26589729085404 401.7092160649783 121.21408749674374 0.0 0.0
704.4109117132256 49.74752328740289 366.7457952972774 123.19210777427728 0.0 0.0
646.9396075415996 42.87691442996369 320.79595462887704 126.84603941436221 0.0 0.0
565.158653777924 35.96139836319226 251.30026393479199 128.66149139328587 0.0 0.0
460.0771596781113 17.008694608514848 166.5054017225375 134.05307645871304 0.0 0.0
340.03131940476163 0.7417335098044635 102.81871292638782 139.40073940276824 0.0 0.0
230.3535539362578 6.192616826559749 70.840413999868 131.51564301774812 0.0 0.0
148.13284000645265 20.380514493118405 50.55507550583384 125.9670372610691 0.0 0.0
75.95714069803374 18.366113386719963 28.296880990986903 138.560777541551 0.0 0.0
228.78619396064454 35.42002275996741 104.27358882664305 203.9058495007759 0.0 0.0
-478.261030289754 -1092.4730871276258 -633.9982640843274 68.38101345063586 0.0 0.0
-346.49024605578313 -934.2825679368135 -482.1719933796775 -75.71539149536851 0.0 0.0
164.06868021416818 -2.9591153812907027 61.199727640305746 -205.81590274991788 0.0 0.0
46.80406348033881 7.772807750894115 16.372882751694654 -156.35813257462172 0.0 0.0
103.12707984148898 21.744706266509027 37.462683277033804 -144.67100169121005 0.0 0.0
168.95802336378486 8.636642949014655 53.20084461621392 -149.6263337080925 0.0 0.0
253.7192212579057 -1.2855013159251887 75.12791760991571 -162.19748703256212 0.0 0.0
366.52358980359713 4.426097071941527 118.8846186895193 -162.4993080514228 0.0 0.0
478.0878486722081 22.24643172555593 190.53477349546085 -152.4913650781245 0.0 0.0
570.6321523987009 32.83742880832984 264.3030979063451 -146.9094334458467 0.0 0.0
637.281069895081 34.17607226275006 316.2955554400025 -142.6093244427979 0.0 0.0
688.9854346749438 39.826614738832255 353.45183773532085 -137.89825364367158 0.0 0.0
736.9899344364991 49.48980044254644 385.40163862464016 -134.58533322597614 0.0 0.0
784.5111655711013 63.306796364101096 417.0959616429848 -131.65942592052596 0.0 0.0
828.6485823496114 77.45470151898296 446.765900741029 -128.95749426415244 0.0 0.0
869.8605359632149 90.06544250909198 473.9577755900869 -125.95553466702981 0.0 0.0
906.5039436998227 99.40958306729459 497.16015627714256 -121.85109919320801 0.0 0.0
940.3100318052074 106.01550320202759 517.4468134702694 -116.16680949373655 0.0 0.0
978.008162969925 118.40900044902227 542.2169165178876 -109.77517371018855 0.0 0.0
1009.0777905649069 126.14594698213594 561.6603393914563 -101.33424433077838 0.0 0.0
1009.7063334064285 102.87599799481012 550.91005348924 -83.83780138996727 0.0 0.0
555.4416904364118 -346.3692668567062 109.9295825510246 -2.488320660631871e-11 0.0 0.0
1009.7063334055725 102.87599799409986 550.9100534887168 83.83780139014185 0.0 0.0
1009.0777905658958 126.14594698335503 561.6603393921669 101.33424433114725 0.0 0.0
978.0081629693509 118.40900044857042 542.2169165174676 109.7751737103949 0.0 0.0
940.3100318049534 106.01550320179891 517.4468134699839 116.1668094938691 0.0 0.0
906.5039436998803 99.4095830674812 497.16015627724994 121.85109919312836 0.0 0.0
869.8605359621203 90.06544250802305 473.9577755893446 125.95553466694624 0.0 0.0
828.6485823503657 77.45470151992441 446.765900741522 128.95749426420397 0.0 0.0
784.5111655706545 63.30679636396822 417.0959616427191 131.65942592066932 0.0 0.0
736.9899344358686 49.489800442057366 385.40163862422384 134.58533322598456 0.0 0.0
688.985434675084 39.82661473913294 353.45183773537326 137.8982536436575 0.0 0.0
637.2810698945744 34.17607226231247 316.2955554396389 142.60932444255525 0.0 0.0
570.6321523981709 32.8374288081414 264.30309790592577 146.90943344586043 0.0 0.0
478.0878486716488 22.246431725304582 190.53477349504718 152.49136507815393 0.0 0.0
366.5235898033551 4.426097071943688 118.88461868936376 162.49930805138655 0.0 0.0
253.71922125746596 -1.2855013161209494 75.12791760975978 162.19748703231028 0.0 0.0
168.95802336363067 8.636642948804964 53.20084461610209 149.6263337079992 0.0 0.0
103.12707984159768 21.74470626678121 37.462683277148706 144.67100169102008 0.0 0.0
46.80406348038661 7.772807751092435 16.372882751768145 156.3581325743567 0.0 0.0
164.0686802138027 -2.959115381519659 61.19972764005855 205.81590274977836 0.0 0.0
-346.49024605485255 -934.2825679356185 -482.17199337861535 75.71539149534112 0.0 0.0
-247.27036328712737 -781.3272233479686 -360.5272142367439 -83.4881527780953 0.0 0.0
108.46846224943383 -34.027299053800974 28.427065498951166 -201.39820837382598 0.0 0.0
19.477480725328853 0.620979391019353 6.031198619084436 -169.03687712584795 0.0 0.0
59.321838338819276 21.578057273681083 24.26902976007846 -159.61322517383243 0.0 0.0
107.52024873814182 11.613264097895636 35.68908905224799 -163.94781025850892 0.0 0.0
166.60324668021184 0.884265524500093 50.024381339268395 -178.3418020140717 0.0 0.0
252.69903893345847 -3.411781115811329 75.24760305953725 -190.80503307478125 0.0 0.0
361.91640853164046 3.4297535116740754 122.14694453261141 -182.98424654604838 0.0 0.0
463.8085665234899 15.357770109485289 186.4004329404587 -168.13550222350688 0.0 0.0
540.7510051154258 18.48731241934778 243.1732463965452 -159.46297825090187 0.0 0.0
597.3168666002698 21.711152410563933 286.0084334441799 -152.8586245301961 0.0 0.0
644.2615769275095 27.51827726679133 318.9867657631545 -148.9275338859435 0.0 0.0
688.2656702243199 38.457714775935465 349.598535645695 -145.80430959275623 0.0 0.0
727.4254354319966 48.682566867809626 375.9182565198742 -142.9908088856957 0.0 0.0
763.9953023162834 58.22169728783152 399.81402329908013 -140.32523518534128 0.0 0.0
798.5786370687903 66.23860665965121 421.65929776653707 -136.8663791232963 0.0 0.0
832.0432811303185 72.68838471333987 442.17978319869786 -131.28466816927204 0.0 0.0
870.1706727030723 84.00048185381918 466.87518665576414 -123.80124050858328 0.0 0.0
918.8282383452515 106.38095674127106 501.940304026988 -116.41881172125574 0.0 0.0
943.9499674823421 102.81565282081027 513.8407448027407 -103.18750679260718 0.0 0.0
368.46884107853424 -456.7500602443607 -36.10284534046329 -1.5798917729625828e-11 0.0 0.0
943.9499674826989 102.81565282142358 513.8407448031127 103.1875067928369 0.0 0.0
918.8282383460929 106.38095674230347 501.94030402758267 116.41881172168688 0.0 0.0
870.1706727022208 84.00048185288844 466.8751866551768 123.80124050856915 0.0 0.0
832.0432811298315 72.68838471289439 442.17978319830485 131.28466816934468 0.0 0.0
798.5786370688309 66.23860665974247 421.6592977666313 136.86637912316593 0.0 0.0
763.9953023151645 58.22169728674574 399.81402329832156 140.3252351853238 0.0 0.0
727.4254354329486 48.682566869085285 375.9182565204544 142.9908088858591 0.0 0.0
688.265670224092 38.45771477596311 349.5985356455473 145.80430959283083 0.0 0.0
644.261576926852 27.51827726621932 318.9867657626797 148.92753388588483 0.0 0.0
597.3168666003271 21.711152410861178 286.0084334441556 152.85862453022324 0.0 0.0
540.7510051148817 18.4873124189043 243.17324639611581 159.46297825072128 0.0 0.0
463.80856652319125 15.357770109531437 186.400432940219 168.13550222353797 0.0 0.0
361.9164085311638 3.4297535115512554 122.146944532332 182.98424654606015 0.0 0.0
252.69903893288972 -3.41178111620821 75.24760305925015 190.8050330745671 0.0 0.0
166.6032466801044 0.8842655245890564 50.02438133927169 178.3418020137884 0.0 0.0
107.52024873806458 11.61326409786283 35.6890890522189 163.94781025834982 0.0 0.0
59.321838338840415 21.57805727392511 24.269029760156776 159.61322517369388 0.0 0.0
19.47748072529609 0.6209793910036736 6.031198619069816 169.03687712560836 0.0 0.0
108.46846224908387 -34.02729905404397 28.42706549873224 201.39820837359525 0.0 0.0
-247.270363286572 -781.3272233470105 -360.5272142360053 83.4881527781384 0.0 0.0
-169.21958091139862 -648.2090252778207 -264.19878236191516 -98.91217549458725 0.0 0.0
58.33778678014277 -57.130841061358296 2.70517582652177 -190.96349943292802 0.0 0.0
-6.845320996410437 -2.7060606553223754 -2.865409884202668 -176.87487580268512 0.0 0.0
16.415874297476577 20.378962725720925 11.037803468886656 -170.26109520299332 0.0 0.0
46.141484204620795 14.333806391359275 18.12681059485968 -174.04171576750386 0.0 0.0
80.49939880643292 4.136498213842275 25.270696830414355 -189.86134428056374 0.0 0.0
126.03153470311712 -1.3801800479284765 37.33458836834784 -206.06429886278738 0.0 0.0
197.1082303471301 -4.872162044798584 58.15652123548159 -211.19811601848014 0.0 0.0
291.47994319796004 -11.063179260635422 88.72001059931644 -200.66089301284745 0.0 0.0
381.8137970759257 -17.425288197808563 124.41918420474859 -182.17725190750124 0.0 0.0
445.38500763159334 -13.23431087039695 161.60949206408839 -167.9931974729851 0.0 0.0
490.80026974203014 -1.70305100073643 195.0286566086377 -160.17898046712142 0.0 0.0
530.6413239391793 9.400002279921061 225.39651472711714 -157.7753810211123 0.0 0.0
565.307799872664 18.127432091019365 251.7531958985404 -156.52069590897315 0.0 0.0
596.9314324032656 26.10608191606986 275.9003366550766 -155.779196078485 0.0 0.0
628.7598567908801 33.58802926625194 299.6496170945236 -154.8884310335599 0.0 0.0
663.4157015196433 40.06943656882417 324.4393190353984 -150.88244189989626 0.0 0.0
701.6745731701083 45.34383149939099 350.0649436766798 -142.55317133460116 0.0 0.0
754.5442138839061 62.40893435780107 385.59210625201433 -133.18586686306986 0.0 0.0
833.772823539797 102.97352055402425 447.8286299063868 -128.58963073105787 0.0 0.0
116.63558195249661 -570.0369890626356 -212.85993332702662 4.306599521441967e-11 0.0 0.0
833.7728235411907 102.97352055591006 447.82862990743297 128.58963073149064 0.0 0.0
754.5442138840506 62.408934358117655 385.5921062521371 133.18586686341018 0.0 0.0
701.6745731694735 45.34383149858421 350.06494367620064 142.5531713346817 0.0 0.0
663.4157015197749 40.069436569137814 324.439319035426 150.88244189996112 0.0 0.0
628.7598567903588 33.58802926563226 299.64961709419515 154.8884310335088 0.0 0.0
596.931432403429 26.10608191658157 275.9003366551865 155.77919607849358 0.0 0.0
565.3077998728636 18.127432091142005 251.75319589865327 156.52069590903133 0.0 0.0
530.641323938494 9.400002279194798 225.39651472672756 157.77538102107584 0.0 0.0
490.8002697416063 -1.7030510011862425 195.0286566083072 160.17898046713492 0.0 0.0
445.3850076318019 -13.23431086995121 161.60949206423498 167.99319747309332 0.0 0.0
381.8137970753835 -17.42528819833909 124.41918420439461 182.17725190734092 0.0 0.0
291.47994319785556 -11.063179260144057 88.72001059940571 200.66089301292064 0.0 0.0
197.10823034701704 -4.872162044185991 58.156521235626705 211.1981160185816 0.0 0.0
126.03153470304824 -1.3801800477033148 37.33458836839711 206.06429886262816 0.0 0.0
80.49939880659231 4.136498214286044 25.270696830598467 189.86134428033614 0.0 0.0
46.141484204631624 14.333806391431342 18.12681059488617 174.0417157673191 0.0 0.0
16.41587429748182 20.378962725854908 11.037803468928606 170.26109520288583 0.0 0.0
-6.845320996402062 -2.7060606552704063 -2.8654098841849134 176.8748758025222 0.0 0.0
58.337786779909486 -57.13084106145698 2.7051758264033823 190.96349943264525 0.0 0.0
-169.21958091098256 -648.2090252769948 -264.1987823614076 98.91217549469408 0.0 0.0
-123.08360358378782 -524.7713803787594 -197.70572560980193 -109.74245226217474 0.0 0.0
14.81693928781175 -71.84344985656172 -16.640627103699607 -175.47330360543054 0.0 0.0
-31.62670705174593 -3.719130564725277 -10.59910770248802 -180.62946814237742 0.0 0.0
-25.457877979629412 18.848809331864366 -1.9826644920799616 -176.53151833314521 0.0 0.0
-14.464199610297701 16.577095274239156 0.6348597220497811 -179.59866152420767 0.0 0.0
-6.522603824693313 7.764722317542578 0.3775774150316944 -194.08506796810644 0.0 0.0
-2.6468013018561223 1.4882055752178012 -0.35189423493802696 -211.38481032462698 0.0 0.0
-0.7354670660078853 0.12723439034066608 -0.1879863475039958 -215.89615449233696 0.0 0.0
-0.1417864301944718 -0.05420365955657047 -0.06023296556179503 -208.09966150658877 0.0 0.0
0.09346909388071367 0.003328033936533359 0.03704078435452374 -199.38367176453073 0.0 0.0
-0.11733170028699647 -0.11496448050924712 -0.13139509142312278 -198.04754934430565 0.0 0.0
-0.6773890264663152 0.19759785462326107 0.14996417599737555 -193.67752195978565 0.0 0.0
-2.0004963217304095 0.6784052698651379 0.20556632927652885 -184.53582686261143 0.0 0.0
-1.5585058855627665 1.5099485094833511 0.6308456140695426 -176.6472839804231 0.0 0.0
3.959770124409687 4.318580791734469 1.6070643720019575 -171.06689876952183 0.0 0.0
22.203816433664144 10.086955604094982 4.49846779633117 -166.2394856536559 0.0 0.0
64.02763141700666 20.91043823061176 11.611545422165023 -161.05163801269518 0.0 0.0
147.47655634494566 28.161425756330296 15.72362134723302 -152.43209572866982 0.0 0.0
356.0568458439549 -22.99447531929347 29.173834962457306 -145.83101403276882 0.0 0.0
552.0483283415393 7.875449359542806 208.5323530760539 -184.46911230558823 0.0 0.0
-501.61735751760494 -787.9229360357922 -568.190790400584 1.5198509117908543e-11 0.0 0.0
552.0483283424907 7.875449361051082 208.53235307690957 184.46911230585073 0.0 0.0
356.05684584392907 -22.99447531962558 29.17383496233336 145.83101403351696 0.0 0.0
147.47655634515445 28.161425756759016 15.7236213474703 152.4320957290588 0.0 0.0
64.02763141697037 20.910438230414655 11.611545422075409 161.0516380129284 0.0 0.0
22.203816433576563 10.086955603722018 4.498467796161236 166.2394856535684 0.0 0.0
3.9597701251717012 4.318580792469206 1.6070643725686864 171.06689876959882 0.0 0.0
-1.558505886019887 1.5099485084868363 0.6308456135478195 176.64728398037465 0.0 0.0
-2.0004963211458318 0.6784052703514476 0.205566329572747 184.53582686268348 0.0 0.0
-0.677389026372488 0.19759785371036642 0.14996417573342313 193.67752195996349 0.0 0.0
-0.11733170002693072 -0.11496448104713508 -0.13139509152577133 198.04754934409004 0.0 0.0
0.09346909400434811 0.0033280333643173066 0.037040784207931665 199.38367176433889 0.0 0.0
-0.14178642971726418 -0.05420365888480472 -0.0602329652151532 208.09966150670752 0.0 0.0
-0.7354670656891376 0.12723439091914512 -0.18798634722919605 215.89615449231675 0.0 0.0
-2.646801301665116 1.488205575548133 -0.35189423478147575 211.38481032445088 0.0 0.0
-6.522603824646589 7.764722317505986 0.377577415034541 194.0850679679016 0.0 0.0
-14.464199610295118 16.577095274028586 0.6348597219866459 179.59866152397888 0.0 0.0
-25.457877979746268 18.848809331508008 -1.982664492223678 176.53151833306032 0.0 0.0
-31.626707051807887 -3.719130564773332 -10.599107702520142 180.62946814230318 0.0 0.0
14.81693928763392 -71.84344985674531 -16.640627103810672 175.47330360532067 0.0 0.0
-123.08360358364426 -524.7713803780478 -197.70572560953877 109.74245226205694 0.0 0.0
-100.4013309796885 -412.9303882571819 -153.85331119249653 -109.28282535180571 0.0 0.0
-14.83821805914376 -80.5193807759463 -28.625949911267774 -162.78532154176645 0.0 0.0
-54.77606980631541 -4.389225125506132 -17.752349470671 -180.36577759503209 0.0 0.0
-65.85910725348809 17.470292494357064 -14.515199260568393 -178.263415588356 0.0 0.0
-73.94137349597509 18.062455437426024 -16.766061244271647 -179.93050332162926 0.0 0.0
-92.38747105632461 11.176638905036816 -24.311632409902217 -191.77048893382133 0.0 0.0
-131.25264456679255 4.564875753462042 -37.898410912500836 -207.57637950334745 0.0 0.0
-198.35303506559245 5.0265849584311315 -58.53737233901968 -211.44240131430533 0.0 0.0
-291.5461166617131 10.847972125391863 -88.84285761504923 -200.6663171428122 0.0 0.0
-381.69016416663624 17.43409991799176 -124.35851733096437 -182.14952629464966 0.0 0.0
-445.87612915328793 13.340781155579421 -161.6092334363667 -168.06308837276228 0.0 0.0
-491.2004802596621 1.6813814940265885 -195.6351079547769 -160.08830231811584 0.0 0.0
-531.7941145515651 -8.863084750494728 -226.46641318550877 -157.24679245124707 0.0 0.0
-565.6754510792787 -15.135827723513842 -251.33698486416233 -155.73393505845277 0.0 0.0
-590.8012955604738 -17.581499746092476 -268.1972275902328 -155.595668012539 0.0 0.0
-605.1107537563612 -15.0508040051201 -274.09726220406696 -157.84767085009292 0.0 0.0
-606.5421975450006 -7.538750908724097 -266.7726538937675 -162.65957703127646 0.0 0.0
-600.8506869714679 -0.5776516525315714 -246.1409703173287 -172.70565697120264 0.0 0.0
-583.6150503949971 43.975724459505784 -191.56624940578632 -186.04597019465672 0.0 0.0
-324.730707519279 124.86761926825646 -13.482719136849568 -138.47681471736274 0.0 0.0
-1046.733714425264 -1027.9674094463387 -1047.9868462429563 -1.5215562143566785e-10 0.0 0.0
-324.7307075191684 124.86761926830366 -13.482719136963368 138.47681471809005 0.0 0.0
-583.6150503951754 43.97572445903542 -191.5662494059292 186.04597019488085 0.0 0.0
-600.8506869715593 -0.5776516526054678 -246.14097031732845 172.70565697143005 0.0 0.0
-606.5421975453057 -7.538750909393443 -266.77265389402055 162.65957703134123 0.0 0.0
-605.1107537568238 -15.050804005778282 -274.09726220443997 157.84767085013615 0.0 0.0
-590.8012955597878 -17.581499745522386 -268.1972275896536 155.59566801255886 0.0 0.0
-565.6754510796392 -15.135827724312477 -251.33698486439403 155.7339350584738 0.0 0.0
-531.7941145505408 -8.863084749263177 -226.46641318486058 157.24679245125702 0.0 0.0
-491.20048025955464 1.6813814938080185 -195.63510795461457 160.08830231819124 0.0 0.0
-445.8761291531874 13.340781155371518 -161.6092334362291 168.0630883727714 0.0 0.0
-381.6901641660601 17.434099918130528 -124.35851733064561 182.14952629456434 0.0 0.0
-291.5461166608915 10.847972125789468 -88.84285761465053 200.66631714287544 0.0 0.0
-198.35303506454537 5.0265849594493766 -58.53737233838895 211.44240131423174 0.0 0.0
-131.25264456649506 4.564875753198217 -37.898410912499145 207.5763795031401 0.0 0.0
-92.38747105607186 11.17663890511866 -24.31163240980591 191.77048893355456 0.0 0.0
-73.94137349581442 18.062455437421708 -16.76606124422793 179.93050332148312 0.0 0.0
-65.85910725352831 17.47029249414878 -14.51519926064638 178.26341558823015 0.0 0.0
-54.77606980638722 -4.389225125654528 -17.752349470740377 180.36577759483538 0.0 0.0
-14.838218059215874 -80.51938077611067 -28.625949911335564 162.78532154169156 0.0 0.0
-100.40133097962737 -412.93038825654725 -153.8533111923398 109.28282535161136 0.0 0.0
-82.97670784211832 -315.9386230295021 -119.67775687945446 -100.82017914833699 0.0 0.0
-34.303096932532654 -82.60659174750124 -35.06899230084767 -151.12057775496766 0.0 0.0
-76.32754233450486 -5.112223867769114 -24.426248728309112 -176.44228652046561 0.0 0.0
-104.3112838494278 16.081469577540666 -26.485351656436293 -175.193305740811 0.0 0.0
-132.38477735832174 19.069617057077277 -33.90890033012899 -176.29771707333535 0.0 0.0
-177.21659123544006 14.422113615126925 -48.550907104489184 -184.81852544384364 0.0 0.0
-254.91425357023726 5.578523443634913 -75.7553909370194 -190.139887697727 0.0 0.0
-362.1709756460311 -3.6301942780480925 -122.45684193151243 -183.3439939882716 0.0 0.0
-463.85108353481667 -15.593689564614653 -186.50026459156982 -168.20998833518362 0.0 0.0
-540.7008822281725 -18.541308604989666 -243.17152027600096 -159.42871766291074 0.0 0.0
-597.2765260876752 -21.656500163249426 -285.99999651499843 -152.80709461508812 0.0 0.0
-644.5576040011111 -27.454721424787294 -319.1787803882872 -148.60937553024766 0.0 0.0
-688.9022491243678 -37.99384434504472 -349.843388837724 -144.88271518778683 0.0 0.0
-727.0407311839249 -46.4333609839984 -374.8943703819741 -141.67110262002686 0.0 0.0
-757.5003067660915 -50.59981635560368 -393.1575283597307 -140.14437646666735 0.0 0.0
-776.4512408758624 -47.72872555068099 -401.6169117007113 -141.16433976429104 0.0 0.0
-782.9114746624414 -38.60366288721785 -400.11894205910664 -145.15416811562432 0.0 0.0
-776.5020585200624 -25.650796924385105 -389.9133593982981 -152.16649760601837 0.0 0.0
-733.1041859764856 15.543470199495943 -348.5114491049646 -160.5160239490366 0.0 0.0
-644.5229549369976 89.26218144939276 -270.960661170569 -167.39710840280895 0.0 0.0
-1805.5621318862354 -1317.9383827802433 -1522.5104849873514 4.786926410815795e-11 0.0 0.0
-644.5229549369346 89.26218144930709 -270.9606611705399 167.39710840311366 0.0 0.0
-733.1041859766497 15.54347019921856 -348.51144910506423 160.51602394930714 0.0 0.0
-776.5020585201752 -25.65079692474808 -389.91335939835915 152.1664976061777 0.0 0.0
-782.9114746625879 -38.60366288753015 -400.1189420593126 145.15416811569824 0.0 0.0
-776.4512408756636 -47.728725550727205 -401.61691170054485 141.16433976436312 0.0 0.0
-757.5003067657982 -50.599816355462295 -393.157528359519 140.1443764668065 0.0 0.0
-727.0407311835079 -46.43336098379273 -374.8943703817257 141.67110262000625 0.0 0.0
-688.9022491248278 -37.99384434571842 -349.84338883802656 144.88271518788054 0.0 0.0
-644.5576040004271 -27.45472142428576 -319.178780387772 148.60937553015575 0.0 0.0
-597.2765260877094 -21.65650016371395 -285.9999965150707 152.80709461514147 0.0 0.0
-540.7008822279303 -18.541308605118786 -243.17152027577964 159.42871766287288 0.0 0.0
-463.85108353405053 -15.593689564324945 -186.50026459105646 168.20998833527253 0.0 0.0
-362.17097564509015 -3.6301942773110754 -122.45684193089745 183.3439939883183 0.0 0.0
-254.91425356947965 5.578523444021068 -75.75539093666849 190.13988769755895 0.0 0.0
-177.21659123497375 14.422113615299434 -48.55090710430671 184.81852544355738 0.0 0.0
-132.38477735787484 19.06961705741549 -33.90890032990137 176.29771707311193 0.0 0.0
-104.31128384930393 16.08146957753299 -26.48535165640273 175.19330574070358 0.0 0.0
-76.32754233437798 -5.112223867682054 -24.42624872824529 176.44228652047934 0.0 0.0
-34.30309693250116 -82.60659174755294 -35.06899230085401 151.1205777548393 0.0 0.0
-82.97670784199971 -315.9386230290899 -119.67775687929323 100.8201791482604 0.0 0.0
-67.17772217591275 -234.0428253500024 -90.36616425777453 -89.1953856085528 0.0 0.0
-48.60329884990566 -79.10568035720642 -38.313487035625364 -138.1308525238918 0.0 0.0
-96.18249832861488 -5.608927919524819 -30.531741623543937 -168.32843589182926 0.0 0.0
-141.17629636851998 14.729797077873174 -37.90350537300455 -168.41108464989154 0.0 0.0
-188.2972343495771 18.77892558418227 -50.768532905139004 -166.31579653409383 0.0 0.0
-258.27345416705924 13.779225206582794 -73.55219079813843 -167.05301286001105 0.0 0.0
-367.1399975940099 -1.5487642486227529 -118.60555702621258 -165.24311591414448 0.0 0.0
-478.27759898689067 -22.58845895211314 -190.7083599663962 -153.09972430502077 0.0 0.0
-570.642909740349 -33.09635353591735 -264.3971158469816 -146.93687937155923 0.0 0.0
-637.2433096878485 -34.18575603317636 -316.3101549573229 -142.6013730370223 0.0 0.0
-688.8341394222821 -39.66633925975685 -353.32957958199603 -137.84233027265316 0.0 0.0
-736.989749226454 -49.23650447070841 -385.31038375363363 -134.23390550546011 0.0 0.0
-784.8125364647925 -62.85410439541661 -417.08676432622036 -130.58581380737104 0.0 0.0
-828.5571913606802 -76.01581564529789 -446.1558540502083 -127.25295660203963 0.0 0.0
-865.281884927909 -84.56436380332298 -469.2023489974418 -125.37923744475303 0.0 0.0
-889.3309266288202 -84.65745524906595 -481.50498052256876 -126.47506195423699 0.0 0.0
-897.880961189791 -73.99219493883561 -480.5447365225409 -131.1582025159937 0.0 0.0
-880.7144821390915 -44.83071214011761 -457.54877445796893 -137.72739136268564 0.0 0.0
-830.6250212921414 8.427060795826605 -406.79275843118285 -143.34201657285053 0.0 0.0
-697.2257622110856 129.99085316812102 -283.99292554023066 -147.28269540982353 0.0 0.0
-2250.766786395995 -1557.2443313764793 -1874.4356043286405 5.239542133494979e-11 0.0 0.0
-697.2257622110469 129.99085316802177 -283.99292554019655 147.28269541003078 0.0 0.0
-830.6250212919562 8.427060795779582 -406.79275843102846 143.34201657311633 0.0 0.0
-880.7144821382392 -44.83071213939762 -457.54877445740266 137.7273913628929 0.0 0.0
-897.8809611901345 -73.99219493934775 -480.54473652280615 131.15820251614565 0.0 0.0
-889.3309266277761 -84.65745524811359 -481.5049805219056 126.47506195422802 0.0 0.0
-865.2818849283237 -84.56436380394784 -469.20234899767485 125.37923744478418 0.0 0.0
-828.5571913592182 -76.01581564389582 -446.1558540492572 127.25295660194524 0.0 0.0
-784.8125364648877 -62.854104395766775 -417.08676432633274 130.58581380743084 0.0 0.0
-736.9897492259437 -49.23650447046478 -385.3103837532869 134.23390550554572 0.0 0.0
-688.8341394223487 -39.66633926012033 -353.32957958205753 137.842330272608 0.0 0.0
-637.2433096876687 -34.18575603341419 -316.3101549571531 142.60137303706372 0.0 0.0
-570.6429097401411 -33.096353536154034 -264.39711584675354 146.93687937158498 0.0 0.0
-478.2775989866874 -22.588458952638042 -190.70835996623157 153.099724305173 0.0 0.0
-367.1399975928119 -1.5487642473370227 -118.6055570254008 165.24311591400556 0.0 0.0
-258.2734541667267 13.77922520636586 -73.55219079811602 167.05301285976353 0.0 0.0
-188.29723434929292 18.778925584196006 -50.76853290505835 166.31579653390796 0.0 0.0
-141.1762963682758 14.729797077999855 -37.90350537289747 168.4110846497292 0.0 0.0
-96.18249832848944 -5.6089279193732295 -30.531741623460846 168.32843589181567 0.0 0.0
-48.60329884992011 -79.1056803571958 -38.31348703562634 138.13085252373446 0.0 0.0
-67.17772217579247 -234.0428253496759 -90.36616425764049 89.19538560846986 0.0 0.0
-54.64893912815667 -165.59830115250287 -66.07417208419784 -76.30472105576868 0.0 0.0
-59.657259292489044 -71.52236448641582 -39.35386867269415 -123.17490687352473 0.0 0.0
-114.7944848102857 -5.733313405824401 -36.15887171132608 -156.16777765231777 0.0 0.0
-175.97013230068023 12.79399382638099 -48.94992850983538 -156.6845314507786 0.0 0.0
-242.94057022052093 17.75366228014653 -67.24853999780848 -152.78574468479368 0.0 0.0
-340.0245599102936 10.610886654475935 -100.43223298033328 -146.89923723651353 0.0 0.0
-457.48934391752283 -15.604008206711056 -165.91079712954286 -134.8859883618803 0.0 0.0
-565.2738406823753 -36.54505025570085 -251.44040901812215 -128.98470836361747 0.0 0.0
-647.0367154113314 -43.136903534244745 -320.96960050063274 -126.85564986675878 0.0 0.0
-704.3535714543798 -49.70293609685218 -366.73488636035734 -123.19056439752492 0.0 0.0
-757.7261555216141 -56.97417406861629 -401.4768983717781 -121.17028781501466 0.0 0.0
-808.5764786068338 -69.50573706926573 -434.49683666251 -118.23971904279367 0.0 0.0
-860.2068416196959 -87.00759685222275 -469.4355232791777 -114.92065112726081 0.0 0.0
-909.8685591664043 -105.27475487662372 -503.65408191167774 -111.65648990950768 0.0 0.0
-953.0591209159666 -119.49656644373812 -532.596713259892 -109.49451220351304 0.0 0.0
-982.6643883378756 -122.49299648762599 -549.1058952361748 -110.37785096270838 0.0 0.0
-988.2022478257062 -107.58674466250002 -544.6578587801235 -114.51945191883539 0.0 0.0
-960.0778750481609 -64.10589833165616 -509.1794904391162 -120.38362916538019 0.0 0.0
-884.4497245973752 17.699936060808156 -431.5728283699784 -124.57971881564612 0.0 0.0
-727.2354012344263 165.26902944455404 -282.19005257294816 -126.41458361675294 0.0 0.0
-2600.1862696448793 -1799.8977148447602 -2176.978262996416 1.3984902125230292e-10 0.0 0.0
-727.235401234381 165.26902944453445 -282.1900525729146 126.41458361693645 0.0 0.0
-884.4497245973866 17.69993606065904 -431.57282836996006 124.57971881582496 0.0 0.0
-960.0778750485576 -64.10589833211658 -509.17949043939427 120.38362916550274 0.0 0.0
-988.2022478255157 -107.58674466249508 -544.6578587800597 114.51945191886342 0.0 0.0
-982.6643883373887 -122.49299648732111 -549.1058952359278 110.37785096283558 0.0 0.0
-953.0591209161327 -119.49656644404767 -532.5967132599593 109.49451220352563 0.0 0.0
-909.8685591646584 -105.27475487496032 -503.65408191049426 111.6564899094418 0.0 0.0
-860.2068416197244 -87.00759685241476 -469.4355232792953 114.92065112720455 0.0 0.0
-808.5764786064312 -69.50573706915746 -434.49683666224144 118.23971904290033 0.0 0.0
-757.7261555217034 -56.97417406898255 -401.4768983718872 121.170287814993 0.0 0.0
-704.3535714542145 -49.70293609699454 -366.73488636022296 123.190564397541 0.0 0.0
-647.0367154109921 -43.136903534302384 -320.96960050031896 126.85564986675512 0.0 0.0
-565.2738406817589 -36.545050255524785 -251.44040901758873 128.9847083636123 0.0 0.0
-457.4893439167267 -15.604008206185636 -165.91079712897744 134.885988361791 0.0 0.0
-340.02455990983924 10.61088665443238 -100.43223298018111 146.89923723642576 0.0 0.0
-242.94057022019334 17.75366227989466 -67.24853999780747 152.7857446846621 0.0 0.0
-175.97013230038658 12.79399382653617 -48.94992850970591 156.68453145068 0.0 0.0
-114.79448481015022 -5.733313405787845 -36.158871711273086 156.16777765220579 0.0 0.0
-59.6572592924062 -71.52236448635654 -39.353868672651544 123.17490687337776 0.0 0.0
-54.64893912810633 -165.59830115227416 -66.07417208411412 76.30472105564725 0.0 0.0
-45.563342094335965 -110.03878154784654 -46.680637092654734 -62.91315248718283 0.0 0.0
-68.43700961548045 -61.24401630018868 -38.90430777470075 -106.21584211272805 0.0 0.0
-132.3588889207022 -5.270135425846078 -41.28935259025171 -140.04615759007754 0.0 0.0
-208.94834348890708 10.76332160671656 -59.427860336408095 -140.9708506268415 0.0 0.0
-294.9751923106482 13.381127861574429 -84.46923341584515 -132.55759184303162 0.0 0.0
-413.8328415039404 1.5894932556984758 -130.8892278318111 -120.89609735059177 0.0 0.0
-532.4675595405679 -28.474600185925407 -213.21466769783305 -108.85961508851365 0.0 0.0
-632.4102421674061 -44.738186517638894 -301.08170017432724 -107.0248869473836 0.0 0.0
-700.553894946792 -55.08162801455758 -363.4145511915338 -105.10887767539911 0.0 0.0
-760.5548681091141 -62.26462808381113 -405.38200813348976 -104.81332070797332 0.0 0.0
-815.0408377350877 -73.5379475665755 -440.70332581891154 -103.49970669905892 0.0 0.0
-869.5210626532512 -89.88590095146007 -476.71973769196995 -101.11370445584673 0.0 0.0
-925.1963532975938 -111.06405858573417 -515.2773835605221 -98.26616030902707 0.0 0.0
-979.7378019987175 -133.50240797093917 -553.8606311100812 -95.35176902471825 0.0 0.0
-1029.697238786673 -153.661718650707 -589.0364343252807 -93.04474993289743 0.0 0.0
-1064.1676339782575 -160.9901468023723 -610.1797364208022 -92.94853575414024 0.0 0.0
-1066.9947915640632 -139.90718655771101 -601.3689594426717 -96.31837429450843 0.0 0.0
-1022.6536184788965 -78.91680206281379 -549.1717941449654 -101.40455455742782 0.0 0.0
-921.3393097493 29.245951121917088 -445.3827349892707 -105.0707818960864 0.0 0.0
-749.2454289649651 192.03764937671923 -279.6601891144348 -108.85564698220291 0.0 0.0
-2901.5053227455887 -2031.3679332605157 -2447.8949796371835 1.3155698752598255e-10 0.0 0.0
-749.2454289651253 192.0376493765034 -279.6601891145151 108.85564698236897 0.0 0.0
-921.3393097501612 29.245951120898894 -445.38273498982466 105.0707818962851 0.0 0.0
-1022.6536184786278 -78.91680206269297 -549.1717941448178 101.40455455759266 0.0 0.0
-1066.9947915642476 -139.90718655793597 -601.3689594429345 96.31837429453282 0.0 0.0
-1064.1676339773633 -160.9901468015373 -610.1797364201669 92.94853575400526 0.0 0.0
-1029.6972387865185 -153.6617186507549 -589.0364343252131 93.04474993287843 0.0 0.0
-979.7378019974783 -133.50240796983604 -553.8606311091149 95.35176902477144 0.0 0.0
-925.19635329875 -111.06405858711604 -515.277383561421 98.26616030906445 0.0 0.0
-869.5210626529 -89.88590095129976 -476.7197376917332 101.11370445579057 0.0 0.0
-815.0408377352178 -73.53794756699052 -440.7033258190466 103.49970669901683 0.0 0.0
-760.5548681095986 -62.264628084614785 -405.38200813376613 104.81332070799758 0.0 0.0
-700.5538949458193 -55.08162801383393 -363.4145511908214 105.10887767531327 0.0 0.0
-632.4102421666211 -44.738186517153295 -301.0817001736953 107.02488694734953 0.0 0.0
-532.4675595403298 -28.474600186144738 -213.2146676975415 108.85961508849265 0.0 0.0
-413.8328415036937 1.5894932552614685 -130.88922783176878 120.89609735061492 0.0 0.0
-294.9751923102095 13.38112786154587 -84.46923341574912 132.5575918429053 0.0 0.0
-208.94834348883134 10.763321606623844 -59.42786033641087 140.9708506267224 0.0 0.0
-132.35888892059882 -5.270135425759579 -41.28935259019434 140.04615758995214 0.0 0.0
-68.43700961553455 -61.24401630026639 -38.90430777474027 106.21584211263195 0.0 0.0
-45.56334209437657 -110.03878154773294 -46.68063709263284 62.91315248712656 0.0 0.0
-39.613391257406334 -67.03726056628145 -31.99519554710633 -49.3109735875593 0.0 0.0
-75.28510916248955 -49.48482588274384 -37.430980513570006 -87.4319230376794 0.0 0.0
-148.8629143759704 -4.230463279057965 -45.928462916190526 -119.96889381280552 0.0 0.0
-240.4461313755269 7.938047677947274 -69.7366720025309 -120.73170808773868 0.0 0.0
-349.9780062149381 8.487745683909756 -102.53844674313761 -109.94573330268892 0.0 0.0
-474.1679024623113 -13.50338513183119 -164.9240245036649 -90.95466175065363 0.0 0.0
-594.1365023610641 -37.02072372775535 -256.54175036493484 -85.46856467301978 0.0 0.0
-678.3956316715114 -53.51367130699822 -340.1744578544274 -84.76137835524588 0.0 0.0
-747.4443788561761 -63.8115765279756 -396.5131050734207 -85.2177864366069 0.0 0.0
-807.6798872715103 -75.15903713622238 -437.69685228381024 -85.62440025683324 0.0 0.0
-865.5570133058019 -90.28711001381468 -475.5240699936155 -84.9238496746864 0.0 0.0
-923.8481994460635 -110.29610837662999 -514.9857545248288 -83.10492617801461 0.0 0.0
-983.2572075861558 -134.66209914344748 -556.9248123238667 -80.82439336568706 0.0 0.0
-1041.5879825183536 -161.33284750505592 -599.4449280035167 -78.4152767810433 0.0 0.0
-1096.356155840837 -185.3775455589581 -638.8864395495386 -76.128579702223 0.0 0.0
-1136.8518560233672 -197.1919043376426 -665.2324700030376 -74.9744513231823 0.0 0.0
-1139.46643103835 -175.1499558457303 -655.9423710316594 -76.67635579871207 0.0 0.0
-1079.7332955701736 -97.03799253964573 -587.5762626003122 -81.14120975852539 0.0 0.0
-953.0462925914546 37.5242331159437 -457.65300003758387 -86.2478350234584 0.0 0.0
-761.9212858575899 218.63435689340253 -272.38807162352947 -93.99553511758174 0.0 0.0
-3165.4399956942093 -2243.9874244305383 -2689.612100710861 8.288481012641569e-12 0.0 0.0
-761.9212858583685 218.6343568925423 -272.38807162403094 93.99553511775056 0.0 0.0
-953.0462925911008 37.524233116147144 -457.65300003734654 86.24783502367146 0.0 0.0
-1079.733295569967 -97.037992539516 -587.5762626001866 81.14120975868835 0.0 0.0
-1139.4664310388425 -175.14995584638223 -655.9423710320489 76.67635579880834 0.0 0.0
-1136.8518560226262 -197.19190433700697 -665.2324700024986 74.97445132320406 0.0 0.0
-1096.3561558401236 -185.37754555839584 -638.886439549033 76.12857970223781 0.0 0.0
-1041.587982518558 -161.33284750544007 -599.4449280035521 78.41527678108454 0.0 0.0
-983.2572075869549 -134.6620991445095 -556.9248123244245 80.82439336578035 0.0 0.0
-923.8481994463964 -110.29610837717512 -514.9857545250198 83.1049261779794 0.0 0.0
-865.5570133054663 -90.28711001368777 -475.5240699934298 84.92384967452638 0.0 0.0
-807.679887271456 -75.15903713651835 -437.6968522837486 85.62440025691184 0.0 0.0
-747.4443788554638 -63.81157652750629 -396.51310507291566 85.2177864365518 0.0 0.0
-678.3956316713532 -53.51367130723088 -340.1744578542097 84.76137835529661 0.0 0.0
-594.1365023610119 -37.02072372817739 -256.5417503647068 85.46856467301949 0.0 0.0
-474.16790246183814 -13.503385131894904 -164.92402450338435 90.95466175062113 0.0 0.0
-349.97800621445384 8.487745683919659 -102.53844674301037 109.94573330270035 0.0 0.0
-240.4461313754294 7.938047677835476 -69.73667200253622 120.73170808758272 0.0 0.0
-148.86291437573098 -4.2304632788140335 -45.928462916045476 119.96889381271316 0.0 0.0
-75.28510916242392 -49.48482588280974 -37.43098051357009 87.43192303769933 0.0 0.0
-39.6133912573344 -67.03726056619163 -31.99519554705781 49.310973587484625 0.0 0.0
-36.12586484687625 -36.384986690264306 -21.75325546114216 -35.83806012794758 0.0 0.0
-80.02511960107374 -37.31906436001051 -35.20325518832528 -67.04311926357026 0.0 0.0
-164.08478406567394 -2.809019765626162 -50.068141149390044 -95.84446478012828 0.0 0.0
-271.563284897791 4.309745759249857 -80.12474676431367 -96.15495904099697 0.0 0.0
-402.2744094088965 -0.19658338798996233 -122.85594043635558 -81.903106244137 0.0 0.0
-532.9967879245132 -24.328028235277344 -199.44492000250875 -65.813633431881 0.0 0.0
-637.8820480786991 -44.983523246963465 -294.483428954762 -63.57620497171357 0.0 0.0
-716.8901734708157 -59.21902711848371 -370.23779547289223 -63.79002634307648 0.0 0.0
-786.3176727073296 -73.23750305572395 -423.9860558325724 -64.92809634229624 0.0 0.0
-849.3953195472267 -88.22565056864478 -466.3470258970905 -65.7903735202955 0.0 0.0
-910.6986733108507 -107.16947742674841 -507.25847011023154 -65.52177135442385 0.0 0.0
-973.0334770730528 -130.90632759530405 -550.4685562521962 -64.23558729615196 0.0 0.0
-1035.971526177178 -159.10491734682913 -596.0633891168005 -62.50249119462633 0.0 0.0
-1097.1991835706913 -187.08264849785937 -640.6549209485224 -60.803254850366734 0.0 0.0
-1153.7359716253472 -213.0844803071413 -681.9081823644432 -58.85190006131199 0.0 0.0
-1199.2243465535912 -229.9037341672164 -713.1687508364341 -56.75620662053166 0.0 0.0
-1209.7202650073618 -214.20194139914656 -710.9801266942816 -56.28541202515754 0.0 0.0
-1142.6064486745463 -127.22534540346635 -634.5781057276076 -59.90242635815805 0.0 0.0
-987.0196709714987 37.15724372699714 -475.1528970912551 -67.63645280452518 0.0 0.0
-762.2479340183537 252.2928576853966 -255.4643322520871 -80.44288308706489 0.0 0.0
-3392.2454553535936 -2428.3194244327447 -2897.937971326569 -3.644728963081434e-11 0.0 0.0
-762.2479340193726 252.29285768431043 -255.46433225277246 80.44288308714606 0.0 0.0
-987.01967096951 37.157243728911126 -475.1528970899237 67.63645280457092 0.0 0.0
-1142.6064486753176 -127.22534540436614 -634.5781057282358 59.90242635840744 0.0 0.0
-1209.7202650073123 -214.20194139923893 -710.9801266942802 56.28541202522361 0.0 0.0
-1199.224346552889 -229.9037341666063 -713.1687508358899 56.7562066205797 0.0 0.0
-1153.7359716255921 -213.08448030755122 -681.9081823645138 58.85190006134213 0.0 0.0
-1097.1991835710646 -187.08264849846145 -640.6549209487453 60.803254850471845 0.0 0.0
-1035.9715261768945 -159.1049173467273 -596.0633891166118 62.50249119463886 0.0 0.0
-973.0334770736172 -130.90632759615164 -550.4685562525256 64.23558729623585 0.0 0.0
-910.6986733102916 -107.16947742637431 -507.25847010989696 65.52177135423645 0.0 0.0
-849.3953195470542 -88.22565056878274 -466.34702589698065 65.79037352034683 0.0 0.0
-786.3176727070396 -73.23750305575271 -423.9860558323763 64.92809634233905 0.0 0.0
-716.8901734706119 -59.219027118636646 -370.237795472656 63.79002634312813 0.0 0.0
-637.8820480780106 -44.983523246617345 -294.4834289541409 63.576204971690814 0.0 0.0
-532.9967879239309 -24.328028235101932 -199.4449200020746 65.81363343185976 0.0 0.0
-402.2744094082064 -0.1965833874843783 -122.85594043598734 81.90310624406897 0.0 0.0
-271.56328489763325 4.309745759045714 -80.12474676435646 96.15495904086636 0.0 0.0
-164.08478406537688 -2.8090197652828923 -50.0681411491979 95.84446478007422 0.0 0.0
-80.02511960110283 -37.31906436008664 -35.203255188356835 67.04311926353965 0.0 0.0
-36.12586484700785 -36.38498669028875 -21.753255461188974 35.838060127893215 0.0 0.0
-33.90167264707882 -17.73867566917949 -15.492104494877497 -23.242181936169253 0.0 0.0
-81.9013985093578 -25.863673086982445 -32.329521478902066 -45.34052642045197 0.0 0.0
-177.6371345000657 -1.5129286832221287 -53.74501895498635 -67.19861379564857 0.0 0.0
-303.4828117460613 -0.10088991178579265 -90.94894899809985 -66.7083808518608 0.0 0.0
-450.51253875320674 -12.335806219005423 -146.21868325355112 -51.74090404463128 0.0 0.0
-580.374339644773 -33.27463974200094 -233.36702945100058 -42.704330143687685 0.0 0.0
-669.4194551111584 -50.53582407729187 -324.6994219546066 -42.227392907051524 0.0 0.0
-749.541965653062 -65.91719001190145 -395.5342491837831 -43.262440301755696 0.0 0.0
-820.3337927346047 -83.23422325556157 -447.9429600634316 -44.380110445261224 0.0 0.0
-886.4728827957804 -101.62754119180343 -492.3259715365434 -45.26754382108917 0.0 0.0
-951.780121856541 -124.20110749116442 -536.7848133132748 -45.316914003447415 0.0 0.0
-1017.7568785094116 -151.67464341881453 -583.6338239973084 -44.53377573594888 0.0 0.0
-1084.4556844859164 -182.22497387809437 -632.2657066310838 -43.48825545956411 0.0 0.0
-1147.929573753593 -213.07810390819105 -679.4228236410361 -42.36168172737305 0.0 0.0
-1204.4827235603682 -238.47452003082577 -720.3893281775792 -40.97577555058087 0.0 0.0
-1248.3115144680173 -253.27470113451758 -749.7293598625453 -38.8555399994178 0.0 0.0
-1269.591869897093 -248.26200087098536 -758.0785418869303 -36.52511420453003 0.0 0.0
-1229.235345814027 -186.7650337102954 -707.7752609267784 -37.71296602756367 0.0 0.0
-1042.7560707125813 10.552000420140416 -516.5735682502476 -47.56148788750496 0.0 0.0
-738.3500524076848 306.89740080276755 -216.13461369204165 -67.0446573444031 0.0 0.0
-3568.0187084707236 -2566.7816942475806 -3057.3502281867104 6.785683126508957e-11 0.0 0.0
-738.350052407766 306.8974008026434 -216.13461369206505 67.04465734446637 0.0 0.0
-1042.7560707114444 10.552000421258953 -516.5735682494787 47.56148788745176 0.0 0.0
-1229.2353458135567 -186.7650337099056 -707.7752609264687 37.712966027614556 0.0 0.0
-1269.5918698973385 -248.26200087132418 -758.0785418870869 36.525114204407544 0.0 0.0
-1248.3115144667725 -253.27470113339103 -749.7293598615455 38.85553999933837 0.0 0.0
-1204.4827235609541 -238.47452003159805 -720.3893281779318 40.97577555068531 0.0 0.0
-1147.9295737537902 -213.0781039085735 -679.4228236411498 42.36168172740155 0.0 0.0
-1084.4556844856054 -182.2249738779766 -632.2657066308773 43.48825545953093 0.0 0.0
-1017.7568785089989 -151.67464341865337 -583.6338239969919 44.5337757359803 0.0 0.0
-951.7801218553116 -124.20110749016476 -536.7848133124616 45.31691400341124 0.0 0.0
-886.4728827953599 -101.62754119167656 -492.3259715362672 45.26754382112402 0.0 0.0
-820.3337927345656 -83.23422325582072 -447.94296006335475 44.3801104453053 0.0 0.0
-749.5419656526523 -65.91719001181562 -395.5342491834274 43.26244030176301 0.0 0.0
-669.4194551104986 -50.535824076874505 -324.6994219540088 42.2273929069318 0.0 0.0
-580.3743396443743 -33.27463974200681 -233.367029450611 42.70433014364784 0.0 0.0
-450.512538752452 -12.335806218524993 -146.2186832531519 51.74090404456012 0.0 0.0
-303.4828117457312 -0.10088991159241734 -90.94894899795175 66.70838085190302 0.0 0.0
-177.63713449989768 -1.5129286831071327 -53.74501895490145 67.1986137955652 0.0 0.0
-81.90139850931644 -25.86367308694205 -32.32952147887753 45.34052642042995 0.0 0.0
-33.901672647032804 -17.73867566919659 -15.492104494868816 23.242181936117174 0.0 0.0
-30.68476814246293 -10.106842777957176 -12.23748327612603 -13.165189814018547 0.0 0.0
-79.44393324587706 -16.71388772634294 -28.847346291666 -22.710718355398985 0.0 0.0
-188.91087262674785 -1.250926595338015 -57.04853976662576 -32.795768322427186 0.0 0.0
-337.3625032833464 -4.21888409837092 -102.3792810256181 -31.8847839706903 0.0 0.0
-499.5848666404813 -22.065719631726154 -171.26893561211963 -23.12629708984022 0.0 0.0
-614.6189074879869 -40.044933064512435 -264.19634064053537 -21.591106664156456 0.0 0.0
-697.8552785513132 -53.53568632736602 -348.87480977117104 -22.52061108627977 0.0 0.0
-777.3702287451349 -73.21428617366132 -416.8874789760856 -23.09850932449646 0.0 0.0
-850.3023763080282 -93.33813100911756 -469.12416625953784 -23.577255577178143 0.0 0.0
-919.8861683105076 -115.59062390885254 -516.4848134628169 -24.09790786516113 0.0 0.0
-988.9361264412975 -141.6006628225149 -564.3984017134405 -24.270787739772487 0.0 0.0
-1058.7739762894007 -171.7187281945873 -614.479777423357 -24.086804520082026 0.0 0.0
-1128.459446009629 -205.75737776290092 -666.3464188251654 -23.63596489223653 0.0 0.0
-1194.7871629474646 -238.1857755861678 -715.7139725116156 -23.10961635451914 0.0 0.0
-1250.4286363576593 -262.3096103135695 -755.6063982060107 -22.378879045909407 0.0 0.0
-1288.9211870802478 -271.8323449331403 -779.6509074555236 -20.961817697236246 0.0 0.0
-1307.3739677665624 -264.47781074004865 -785.2469939292835 -18.521146700896264 0.0 0.0
-1306.7208783726674 -242.4289467351382 -774.0636640646962 -16.830641299283876 0.0 0.0
-1209.0041358190874 -131.0262593937375 -670.2751984650988 -23.75357502600146 0.0 0.0
-721.2868262753572 353.2719813703934 -184.62873423767883 -49.614680094504294 0.0 0.0
-3542.1539070306353 -2505.274291380486 -3016.1070030906153 2.063238468963391e-11 0.0 0.0
-721.2868262745252 353.27198137118904 -184.6287342370613 49.61468009450078 0.0 0.0
-1209.0041358188012 -131.02625939351825 -670.2751984648609 23.75357502610465 0.0 0.0
-1306.7208783729325 -242.42894673547008 -774.0636640648556 16.83064129926281 0.0 0.0
-1307.3739677660922 -264.4778107397039 -785.2469939290174 18.521146700823326 0.0 0.0
-1288.9211870790934 -271.83234493209875 -779.6509074546827 20.961817697205234 0.0 0.0
-1250.4286363574624 -262.3096103135486 -755.6063982058544 22.378879046023183 0.0 0.0
-1194.7871629472947 -238.18577558617812 -715.7139725113998 23.109616354509026 0.0 0.0
-1128.4594460095266 -205.75737776302293 -666.3464188251264 23.63596489228334 0.0 0.0
-1058.7739762885897 -171.71872819398473 -614.4797774227977 24.086804520038466 0.0 0.0
-988.936126439851 -141.60066282131976 -564.3984017124664 24.270787739815486 0.0 0.0
-919.8861683094672 -115.59062390804166 -516.4848134621051 24.09790786511116 0.0 0.0
-850.3023763077176 -93.33813100911092 -469.1241662593192 23.577255577148318 0.0 0.0
-777.3702287447486 -73.21428617356503 -416.8874789757716 23.098509324531843 0.0 0.0
-697.8552785510964 -53.53568632746928 -348.8748097708819 22.52061108615616 0.0 0.0
-614.6189074875978 -40.04493306450763 -264.19634064012536 21.59110666414853 0.0 0.0
-499.5848666399584 -22.06571963158348 -171.26893561181222 23.12629708978563 0.0 0.0
-337.3625032829475 -4.218884098143749 -102.37928102545563 31.884783970756587 0.0 0.0
-188.91087262671613 -1.2509265955183122 -57.04853976667033 32.795768322369746 0.0 0.0
-79.44393324576846 -16.713887726287396 -28.847346291616745 22.710718355513052 0.0 0.0
-30.68476814239841 -10.106842777983802 -12.237483276114661 13.165189813810317 0.0 0.0
-19.550733028081993 -5.0412511010353285 -7.377595238735197 -8.163952803717441 0.0 0.0
-68.7243755027179 -9.46218401540908 -23.455967855438093 -9.431660585996509 0.0 0.0
-196.92543882092656 -2.815852307656023 -59.922387338574744 -11.060282625413219 0.0 0.0
-378.8250055493403 -18.400696593751412 -119.8706739665512 -8.815373411872372 0.0 0.0
-564.232585426839 -60.71689162361488 -213.00258900338048 -1.1053528860048552 0.0 0.0
-696.1882687969843 -103.81709803893203 -331.53145394612716 1.0207379785280715 0.0 0.0
-806.8890276677754 -147.8250255316409 -443.2145405106878 0.8134869581894151 0.0 0.0
-923.701980697269 -206.3632511871329 -547.4297952928343 -0.46780374454381857 0.0 0.0
-1045.8565058234055 -276.61485765177304 -648.8547209680362 -1.9511456758819392 0.0 0.0
-1181.9226815105426 -365.139580168139 -762.4108178797144 -3.5128119764014123 0.0 0.0
-1337.2833613846115 -476.8315388390888 -896.0451542452051 -5.010538135607717 0.0 0.0
-1512.52562159333 -612.6738519080147 -1051.2926309005195 -6.258690520792573 0.0 0.0
-1702.9041381046368 -766.2712961250088 -1222.8359582763142 -7.100735431002105 0.0 0.0
-1899.8028436003397 -928.8581138770218 -1402.1845658990173 -7.828207888928125 0.0 0.0
-2088.4103344962114 -1085.586065081713 -1574.5520215636875 -8.263113053708128 0.0 0.0
-2247.9630800912596 -1216.0486109571668 -1719.4148292807718 -8.151857355177935 0.0 0.0
-2352.6665488098715 -1295.3436079333587 -1811.483572031281 -7.035160411908318 0.0 0.0
-2383.038659786521 -1304.974084698802 -1831.4263035277902 -5.066983920537041 0.0 0.0
-2403.085528328995 -1310.1207051245412 -1842.8632808032348 -9.83232416380743 0.0 0.0
-2425.404067814085 -1330.6695364951963 -1861.3765791486578 -38.719367410625836 0.0 0.0
-5750.183905180635 -4685.41058317446 -5192.66348104789 -2.3447910280083306e-12 0.0 0.0
-2425.4040678123088 -1330.6695364934333 -1861.376579147358 38.7193674106001 0.0 0.0
-2403.0855283278934 -1310.1207051234892 -1842.8632808022576 9.832324163862488 0.0 0.0
-2383.03865978719 -1304.9740846995899 -1831.42630352803 5.066983920409783 0.0 0.0
-2352.6665488080484 -1295.3436079316434 -1811.4835720299302 7.035160411863558 0.0 0.0
-2247.9630800897826 -1216.0486109558167 -1719.414829279674 8.151857355245312 0.0 0.0
-2088.4103344951372 -1085.5860650807756 -1574.5520215626752 8.263113053858863 0.0 0.0
-1899.8028435986944 -928.8581138755724 -1402.184565897408 7.828207888876548 0.0 0.0
-1702.904138104218 -766.271296124812 -1222.8359582759524 7.100735431066276 0.0 0.0
-1512.5256215923528 -612.6738519072792 -1051.2926308996612 6.258690520812753 0.0 0.0
-1337.2833613829453 -476.8315388376436 -896.0451542439356 5.010538135612457 0.0 0.0
-1181.9226815091765 -365.13958016702304 -762.4108178786428 3.5128119763788774 0.0 0.0
-1045.856505822021 -276.6148576506564 -648.8547209670763 1.9511456758150985 0.0 0.0
-923.7019806967894 -206.36325118697442 -547.429795292371 0.4678037446509684 0.0 0.0
-806.8890276673003 -147.82502553149217 -443.21454051021317 -0.8134869582925894 0.0 0.0
-696.1882687965451 -103.81709803886899 -331.5314539456191 -1.0207379785074266 0.0 0.0
-564.2325854261611 -60.716891623242816 -213.0025890029042 1.105352885943887 0.0 0.0
-378.82500554890794 -18.400696593497994 -119.87067396634117 8.815373411988926 0.0 0.0
-196.9254388208912 -2.8158523078352005 -59.92238733861791 11.06028262538852 0.0 0.0
-68.72437550269126 -9.462184015489091 -23.4559678554541 9.431660586147444 0.0 0.0
-19.550733028044938 -5.041251101021557 -7.377595238719947 8.163952803557851 0.0 0.0
SCALARS Strain float 6
LOOKUP_TABLE default
0.013445845314641568 -0.02265070458668382 0.0 -0.001147728749950971 0.0 0.0
0.008253045361010023 -0.002241108774015614 0.0 -0.006933463655185204 0.0 0.0
0.0024851776377793717 -0.0006117060023618566 0.0 -0.0007654373391761701 0.0 0.0
0.0021556057708272745 -0.0008621577190305609 0.0 -1.2340011836556736e-05 0.0 0.0
0.0030547516010681975 -0.001295289982814223 0.0 0.00013850297087989626 0.0 0.0
0.005003520010477185 -0.0027342560590184377 0.0 0.0002698029091501568 0.0 0.0
0.008353544966460189 -0.00555095060563548 0.0 0.00036066169688394006 0.0 0.0
0.01335018957862091 -0.009996634062873678 0.0 0.00039507658260029435 0.0 0.0
0.020197901488991164 -0.016256819426498422 0.0 0.0003771726396049182 0.0 0.0
0.02898103837139325 -0.024359994241285557 0.0 0.0002870418966540597 0.0 0.0
0.03967683391000051 -0.03424931439038221 0.0 0.00016139233264571707 0.0 0.0
0.052210704783144296 -0.045846525419720646 0.0 -8.860242622336792e-07 0.0 0.0
0.06648298946378328 -0.05908333745485202 0.0 -0.00023990892388759137 0.0 0.0
0.08238457893246592 -0.07388891823212461 0.0 -0.0005081559570159278 0.0 0.0
0.09972472099269533 -0.09012528415638305 0.0 -0.0008459101381525023 0.0 0.0
0.11807548990626449 -0.10742217739297785 0.0 -0.0012514655118677463 0.0 0.0
0.13666036349218522 -0.1250595343846653 0.0 -0.0016504663024694151 0.0 0.0
0.15433610730123182 -0.14195191298743098 0.0 -0.0018886114663063949 0.0 0.0
0.16970401155399356 -0.15672119192753625 0.0 -0.0017900286713107218 0.0 0.0
0.1810972217977234 -0.16777252947479493 0.0 -0.0019212667173998592 0.0 0.0
0.1855685680977569 -0.17229536881917568 0.0 3.784299262843405e-15 0.0 0.0
0.18109722179770144 -0.16777252947476756 0.0 0.00192126671740692 0.0 0.0
0.16970401155394613 -0.15672119192748848 0.0 0.0017900286713174078 0.0 0.0
0.15433610730116162 -0.141951912987358 0.0 0.001888611466309766 0.0 0.0
0.136660363492102 -0.1250595343845891 0.0 0.0016504663024690114 0.0 0.0
0.11807548990617817 -0.10742217739290508 0.0 0.0012514655118643723 0.0 0.0
0.09972472099260991 -0.09012528415631077 0.0 0.0008459101381527992 0.0 0.0
0.08238457893237995 -0.07388891823204138 0.0 0.0005081559570146808 0.0 0.0
0.06648298946369849 -0.059083337454774634 0.0 0.00023990892388609875 0.0 0.0
0.0522107047830664 -0.04584652541964443 0.0 8.860242614911092e-07 0.0 0.0
0.03967683390993353 -0.03424931439032249 0.0 -0.00016139233264899407 0.0 0.0
0.02898103837133932 -0.02435999424123354 0.0 -0.0002870418966547275 0.0 0.0
0.02019790148895012 -0.016256819426460793 0.0 -0.00037717263960488506 0.0 0.0
0.01335018957859151 -0.009996634062844973 0.0 -0.0003950765826005902 0.0 0.0
0.00835354496644122 -0.005550950605615473 0.0 -0.00036066169688357816 0.0 0.0
0.005003520010466629 -0.0027342560590098326 0.0 -0.0002698029091490717 0.0 0.0
0.0030547516010639457 -0.0012952899828107295 0.0 -0.00013850297087769625 0.0 0.0
0.00215560577082564 -0.0008621577190331146 0.0 1.234001183484248e-05 0.0 0.0
0.0024851776377770845 -0.0006117060023619499 0.0 0.000765437339175972 0.0 0.0
0.008253045361004152 -0.002241108774012386 0.0 0.006933463655177694 0.0 0.0
0.013445845314632809 -0.022650704586659125 0.0 0.00114772874990891 0.0 0.0
0.009309693118396217 -0.02026934210527776 0.0 -0.0006766873199130807 0.0 0.0
0.005464771742927713 -0.001669145726031984 0.0 -0.0055871487789960084 0.0 0.0
0.0016603657822445528 -0.00047871244749419833 0.0 -0.0004923172056272416 0.0 0.0
0.0019106121750473103 -0.0008124559624189524 0.0 -0.000200823200729493 0.0 0.0
0.002645850261512293 -0.0011725415196888627 0.0 -0.00015604510472423298 0.0 0.0
0.004301258627050019 -0.0024498650442959786 0.0 -0.00021250308316855793 0.0 0.0
0.007279690322454515 -0.005069064002855829 0.0 -0.0004638860263569001 0.0 0.0
0.01181048716911624 -0.009273965292333118 0.0 -0.0008493403308633336 0.0 0.0
0.018055813449480918 -0.015230946669316209 0.0 -0.0013840627976614585 0.0 0.0
0.026048151464041033 -0.022942914307793147 0.0 -0.0020432265004672236 0.0 0.0
0.03572788437274434 -0.03233352281809306 0.0 -0.002758554180040504 0.0 0.0
0.047015090474895146 -0.04331775705537081 0.0 -0.00348464061308358 0.0 0.0
0.059855872837109 -0.05584423369767595 0.0 -0.004249110216791997 0.0 0.0
0.07418533730531358 -0.0698700921406266 0.0 -0.00506474090152638 0.0 0.0
0.08984449691667151 -0.08527001750380508 0.0 -0.005913233214999194 0.0 0.0
0.10646389570005156 -0.10170297125590552 0.0 -0.00672909654603669 0.0 0.0
0.12335764772610813 -0.11850095399678107 0.0 -0.007309939670214213 0.0 0.0
0.13950753885716274 -0.13464297913378814 0.0 -0.007335218488920437 0.0 0.0
0.15356882433959382 -0.1487941983992271 0.0 -0.006569755515254115 0.0 0.0
0.16366408607888083 -0.15923826344463632 0.0 -0.005441309628688254 0.0 0.0
0.16743987405473307 -0.16356038448555563 0.0 7.999243628598052e-15 0.0 0.0
0.16366408607885977 -0.15923826344461198 0.0 0.005441309628706321 0.0 0.0
0.15356882433955102 -0.14879419839918537 0.0 0.006569755515273448 0.0 0.0
0.13950753885710152 -0.1346429791337225 0.0 0.007335218488930507 0.0 0.0
0.12335764772603547 -0.11850095399670901 0.0 0.00730993967021419 0.0 0.0
0.10646389569997439 -0.10170297125583476 0.0 0.006729096546032129 0.0 0.0
0.08984449691659412 -0.08527001750373521 0.0 0.00591323321499942 0.0 0.0
0.07418533730523635 -0.06987009214055268 0.0 0.00506474090152435 0.0 0.0
0.05985587283703318 -0.0558442336976018 0.0 0.004249110216788863 0.0 0.0
0.04701509047482502 -0.04331775705530209 0.0 0.003484640613079983 0.0 0.0
0.03572788437268371 -0.032333522818032694 0.0 0.0027585541800330977 0.0 0.0
0.026048151463991996 -0.022942914307744963 0.0 0.0020432265004633327 0.0 0.0
0.018055813449443386 -0.01523094666928065 0.0 0.0013840627976587773 0.0 0.0
0.01181048716908967 -0.00927396529230531 0.0 0.0008493403308599496 0.0 0.0
0.007279690322437681 -0.005069064002837996 0.0 0.0004638860263530349 0.0 0.0
0.004301258627041227 -0.0024498650442883615 0.0 0.00021250308316774828 0.0 0.0
0.002645850261508989 -0.0011725415196865482 0.0 0.0001560451047245819 0.0 0.0
0.001910612175046335 -0.0008124559624202143 0.0 0.00020082320072845446 0.0 0.0
0.001660365782244168 -0.00047871244749445854 0.0 0.0004923172056273108 0.0 0.0
0.005464771742920981 -0.0016691457260285727 0.0 0.005587148778985705 0.0 0.0
0.009309693118383018 -0.020269342105252306 0.0 0.0006766873198791541 0.0 0.0
0.006784939710289931 -0.01611301598279701 0.0 -0.0035413508517276905 0.0 0.0
0.0038595253185466794 -0.0009207300553133388 0.0 -0.00555671860233402 0.0 0.0
0.0011619351155883091 -0.00026963070083694895 0.0 -0.00045723234318896695 0.0 0.0
0.0016252968205718343 -0.0006936705469135527 0.0 -0.0004803197256757095 0.0 0.0
0.0022751206161740582 -0.0009623030603912943 0.0 -0.0004791457116518705 0.0 0.0
0.0036349435712097157 -0.0019168282596264217 0.0 -0.0005733330059374901 0.0 0.0
0.006216876954351461 -0.0041211460871685085 0.0 -0.0010499384691119715 0.0 0.0
0.010258518524060118 -0.007834925451084938 0.0 -0.0018041266684610422 0.0 0.0
0.01586996960602553 -0.013167640786351778 0.0 -0.0028384476497701713 0.0 0.0
0.023048185881584273 -0.020086354677122657 0.0 -0.004086859522131322 0.0 0.0
0.03170436104070668 -0.028474801117037818 0.0 -0.005432852868597274 0.0 0.0
0.041752033147653266 -0.038238090344129685 0.0 -0.006774281833917588 0.0 0.0
0.053154546235170366 -0.04934556967793994 0.0 -0.008112886935270422 0.0 0.0
0.06589315480556486 -0.061800353793068766 0.0 -0.009528120000253118 0.0 0.0
0.079855645803444 -0.07551792047718026 0.0 -0.011012434804876117 0.0 0.0
0.094735403809664 -0.09021769341140878 0.0 -0.01241165092732204 0.0 0.0
0.10996041944150103 -0.10534080519828401 0.0 -0.013386713623933611 0.0 0.0
0.12462674707194758 -0.1199969700364994 0.0 -0.013447976042731678 0.0 0.0
0.13741254438267395 -0.13291517372215414 0.0 -0.012225049548123779 0.0 0.0
0.14661898780579433 -0.1423439083355786 0.0 -0.009656196947439088 0.0 0.0
0.15009781541162756 -0.14648170103010677 0.0 1.3315303720728977e-14 0.0 0.0
0.1466189878057748 -0.14234390833555438 0.0 0.009656196947471073 0.0 0.0
0.1374125443826359 -0.13291517372211756 0.0 0.012225049548156803 0.0 0.0
0.12462674707189397 -0.11999697003644177 0.0 0.013447976042751292 0.0 0.0
0.10996041944143736 -0.10534080519822432 0.0 0.013386713623933389 0.0 0.0
0.0947354038095957 -0.09021769341133909 0.0 0.012411650927315769 0.0 0.0
0.07985564580337466 -0.07551792047711818 0.0 0.01101243480487293 0.0 0.0
0.06589315480549596 -0.061800353793000404 0.0 0.009528120000249588 0.0 0.0
0.05315454623510345 -0.04934556967787135 0.0 0.008112886935262902 0.0 0.0
0.04175203314759082 -0.038238090344071746 0.0 0.0067742818339086505 0.0 0.0
0.031704361040652704 -0.028474801116980995 0.0 0.005432852868585769 0.0 0.0
0.0230481858815407 -0.02008635467707886 0.0 0.004086859522121685 0.0 0.0
0.015869969605991557 -0.013167640786319983 0.0 0.0028384476497641726 0.0 0.0
0.010258518524036026 -0.007834925451061795 0.0 0.0018041266684548874 0.0 0.0
0.006216876954336917 -0.004121146087155843 0.0 0.0010499384691071642 0.0 0.0
0.003634943571202474 -0.001916828259622192 0.0 0.0005733330059361651 0.0 0.0
0.002275120616171339 -0.0009623030603894789 0.0 0.0004791457116521076 0.0 0.0
0.0016252968205712098 -0.0006936705469126307 0.0 0.0004803197256756113 0.0 0.0
0.0011619351155883156 -0.00026963070083807977 0.0 0.00045723234318904523 0.0 0.0
0.0038595253185402176 -0.0009207300553100468 0.0 0.00555671860232007 0.0 0.0
0.006784939710276914 -0.016113015982771872 0.0 0.003541350851703397 0.0 0.0
0.005098792690807962 -0.01294678154081514 0.0 -0.003967559307283568 0.0 0.0
0.0028351627183840693 -0.000666115068062698 0.0 -0.005066572786180629 0.0 0.0
0.0008298395501259402 -0.00015243395973239834 0.0 -0.0007448594517781122 0.0 0.0
0.0013450427417006066 -0.000555215321683597 0.0 -0.000757472572244343 0.0 0.0
0.0019344268702741062 -0.0008019445990427971 0.0 -0.0007995181992813379 0.0 0.0
0.0030226661872147036 -0.0014738748885795372 0.0 -0.0008988094127711289 0.0 0.0
0.005184549211905807 -0.0032246155997092255 0.0 -0.0014430020560053471 0.0 0.0
0.008707630367226193 -0.006414984688392428 0.0 -0.002498852483484945 0.0 0.0
0.013661756171173971 -0.011095162569232674 0.0 -0.003912855443103164 0.0 0.0
0.020006839779626813 -0.01719819009392646 0.0 -0.005611534345729046 0.0 0.0
0.027630620121190084 -0.02457694123176994 0.0 -0.007431457705702369 0.0 0.0
0.03644027192696705 -0.033123650194069154 0.0 -0.009240274533407162 0.0 0.0
0.046409689583274065 -0.04281621586593221 0.0 -0.011034328434876476 0.0 0.0
0.05754350138905012 -0.05368761625558148 0.0 -0.012894913941018733 0.0 0.0
0.06978681546449741 -0.06570219159749033 0.0 -0.014833306585199657 0.0 0.0
0.08291747217160397 -0.07865366703608664 0.0 -0.016678292940627323 0.0 0.0
0.09646881564805367 -0.09209734176082882 0.0 -0.01801018898433909 0.0 0.0
0.1096541633572474 -0.10527356390650729 0.0 -0.01823523381972996 0.0 0.0
0.12128411735263292 -0.11701019574454247 0.0 -0.01673332446691027 0.0 0.0
0.12986936459097237 -0.1257522671051786 0.0 -0.012720681497252138 0.0 0.0
0.13320417782291796 -0.13001368358420026 0.0 1.9025579722775632e-14 0.0 0.0
0.12986936459095436 -0.1257522671051554 0.0 0.012720681497295262 0.0 0.0
0.12128411735259867 -0.11701019574450403 0.0 0.01673332446695106 0.0 0.0
0.10965416335720032 -0.10527356390645781 0.0 0.01823523381975527 0.0 0.0
0.09646881564799853 -0.09209734176078396 0.0 0.01801018898434289 0.0 0.0
0.08291747217154422 -0.0786536670360265 0.0 0.016678292940621224 0.0 0.0
0.06978681546443617 -0.06570219159743265 0.0 0.014833306585192295 0.0 0.0
0.057543501388989754 -0.0536876162555244 0.0 0.01289491394101341 0.0 0.0
0.046409689583215806 -0.04281621586587031 0.0 0.011034328434867555 0.0 0.0
0.03644027192691272 -0.033123650194019215 0.0 0.009240274533393666 0.0 0.0
0.02763062012114248 -0.024576941231722615 0.0 0.007431457705689303 0.0 0.0
0.020006839779588025 -0.01719819009388509 0.0 0.005611534345715474 0.0 0.0
0.013661756171144054 -0.011095162569204495 0.0 0.003912855443093321 0.0 0.0
0.008707630367205572 -0.0064149846883754654 0.0 0.0024988524834774826 0.0 0.0
0.005184549211893857 -0.0032246155996973726 0.0 0.0014430020560002085 0.0 0.0
0.003022666187209201 -0.0014738748885769946 0.0 0.000898809412768571 0.0 0.0
0.0019344268702722787 -0.0008019445990417291 0.0 0.0007995181992816235 0.0 0.0
0.0013450427417003477 -0.0005552153216820983 0.0 0.0007574725722441705 0.0 0.0
0.0008298395501261455 -0.00015243395973318458 0.0 0.0007448594517773497 0.0 0.0
0.0028351627183781803 -0.0006661150680597034 0.0 0.005066572786167429 0.0 0.0
0.0050987926907961655 -0.012946781540792408 0.0 0.003967559307266963 0.0 0.0
0.0038474064176571253 -0.01040635548995449 0.0 -0.003542055578404248 0.0 0.0
0.002110432233048772 -0.0005427701449282648 0.0 -0.004528218183430265 0.0 0.0
0.0006028898549094313 -9.413519435323933e-05 0.0 -0.0011311149602809827 0.0 0.0
0.0010878937345344252 -0.0004223021857167229 0.0 -0.0010551622665008165 0.0 0.0
0.0016172110584593536 -0.0006658575481548123 0.0 -0.0011171137288516638 0.0 0.0
0.0024758901155907424 -0.001129889348551317 0.0 -0.0012064823995656937 0.0 0.0
0.004207385716013301 -0.00242518988143613 0.0 -0.0017184155187607824 0.0 0.0
0.007175261567712386 -0.0050328409636011305 0.0 -0.0028942034448106017 0.0 0.0
0.011453630401868852 -0.009038595079801938 0.0 -0.004599293167945481 0.0 0.0
0.016948074824280984 -0.014306423041497814 0.0 -0.00660990483860209 0.0 0.0
0.023532782167035853 -0.020667286926835757 0.0 -0.008756231951110983 0.0 0.0
0.031103440825427153 -0.0279982645801502 0.0 -0.010883370149121205 0.0 0.0
0.03963881711666182 -0.03627925969239545 0.0 -0.012990010172863749 0.0 0.0
0.04917145915122234 -0.04556593447770635 0.0 -0.015161365055208414 0.0 0.0
0.059684973145534226 -0.055866350075654894 0.0 -0.01739792092627533 0.0 0.0
0.07103539479000484 -0.06704714265020702 0.0 -0.019518144765760036 0.0 0.0
0.08288223839443491 -0.078777959654843 0.0 -0.021130828522007088 0.0 0.0
0.09458703578790467 -0.09045018161506169 0.0 -0.021607288212121017 0.0 0.0
0.10515074800092152 -0.10108570715389602 0.0 -0.01999685068469371 0.0 0.0
0.1132849624080885 -0.10935014354668772 0.0 -0.015053179903044722 0.0 0.0
0.1165709327462896 -0.11389395499880364 0.0 2.2602579530239808e-14 0.0 0.0
0.11328496240807182 -0.10935014354667362 0.0 0.015053179903093714 0.0 0.0
0.10515074800089108 -0.10108570715385977 0.0 0.019996850684740632 0.0 0.0
0.09458703578786405 -0.09045018161502338 0.0 0.021607288212149807 0.0 0.0
0.08288223839438724 -0.07877795965480605 0.0 0.02113082852201386 0.0 0.0
0.07103539478995337 -0.0670471426501593 0.0 0.019518144765751862 0.0 0.0
0.059684973145481574 -0.0558663500756 0.0 0.017397920926266807 0.0 0.0
0.04917145915117063 -0.04556593447766208 0.0 0.015161365055202537 0.0 0.0
0.03963881711661182 -0.03627925969234825 0.0 0.012990010172854321 0.0 0.0
0.031103440825381024 -0.027998264580107464 0.0 0.010883370149104865 0.0 0.0
0.023532782166995697 -0.020667286926797264 0.0 0.008756231951093502 0.0 0.0
0.016948074824247324 -0.014306423041462013 0.0 0.006609904838587016 0.0 0.0
0.011453630401843004 -0.009038595079777587 0.0 0.004599293167934487 0.0 0.0
0.007175261567695071 -0.00503284096358553 0.0 0.0028942034448041095 0.0 0.0
0.004207385716003685 -0.0024251898814244884 0.0 0.001718415518755481 0.0 0.0
0.0024758901155867603 -0.0011298893485484956 0.0 0.0012064823995640522 0.0 0.0
0.00161721105845835 -0.0006658575481542789 0.0 0.0011171137288507108 0.0 0.0
0.0010878937345343126 -0.0004223021857169828 0.0 0.0010551622665000645 0.0 0.0
0.0006028898549095146 -9.413519435299433e-05 0.0 0.0011311149602791413 0.0 0.0
0.002110432233044071 -0.0005427701449257835 0.0 0.00452821818341866 0.0 0.0
0.0038474064176477005 -0.010406355489934767 0.0 0.0035420555783941183 0.0 0.0
0.0028733680065627532 -0.008293742978996134 0.0 -0.0029473248682164626 0.0 0.0
0.0015654112961819115 -0.0004640922943497638 0.0 -0.0040083269000535425 0.0 0.0
0.00043871871684964523 -7.193808367884966e-05 0.0 -0.0014979712766495501 0.0 0.0
0.000852799415406754 -0.00030228570461165517 0.0 -0.0013564449178679085 0.0 0.0
0.0013192492884198414 -0.0005422560641630103 0.0 -0.001424471095059256 0.0 0.0
0.001987849628824277 -0.0008648063834573322 0.0 -0.0014989722279177403 0.0 0.0
0.003315668503730155 -0.0017587233463476552 0.0 -0.0019496370720136335 0.0 0.0
0.005696812423561942 -0.0037433062517587675 0.0 -0.0030544581550187287 0.0 0.0
0.009260158738650286 -0.007022687459755943 0.0 -0.004867338886467989 0.0 0.0
0.01389628562254134 -0.011439462435548046 0.0 -0.007071415662028576 0.0 0.0
0.019434188618179048 -0.01677350351466687 0.0 -0.009396706589876595 0.0 0.0
0.025766923962854495 -0.022889543075654446 0.0 -0.011700031715137376 0.0 0.0
0.03287288596308858 -0.029763097239946953 0.0 -0.013970052301757149 0.0 0.0
0.04079970504677215 -0.03746663541871811 0.0 -0.016295025380349614 0.0 0.0
0.049580145218438974 -0.046048293023671145 0.0 -0.018685119732003822 0.0 0.0
0.05913475682960709 -0.05544025060337183 0.0 -0.020948489375371616 0.0 0.0
0.06922413547603434 -0.06540944823952642 0.0 -0.022724452887608784 0.0 0.0
0.0794100416932241 -0.07552722719604879 0.0 -0.023439550298367518 0.0 0.0
0.0889456572851148 -0.08508938519342764 0.0 -0.021997081324170442 0.0 0.0
0.0967376744372901 -0.0929998716517399 0.0 -0.016747849852675068 0.0 0.0
0.10004153708895037 -0.09795597454331625 0.0 2.3352847433599777e-14 0.0 0.0
0.09673767443727507 -0.0929998716517256 0.0 0.016747849852723196 0.0 0.0
0.08894565728508827 -0.08508938519339984 0.0 0.021997081324218463 0.0 0.0
0.07941004169318966 -0.07552722719601693 0.0 0.023439550298396214 0.0 0.0
0.06922413547599364 -0.06540944823948955 0.0 0.022724452887614075 0.0 0.0
0.05913475682956329 -0.05544025060333148 0.0 0.020948489375362832 0.0 0.0
0.04958014521839491 -0.04604829302362682 0.0 0.01868511973199345 0.0 0.0
0.040799705046729286 -0.03746663541867419 0.0 0.01629502538034094 0.0 0.0
0.032872885963047216 -0.02976309723991627 0.0 0.013970052301744841 0.0 0.0
0.02576692396281618 -0.022889543075613812 0.0 0.011700031715121623 0.0 0.0
0.019434188618145595 -0.01677350351463606 0.0 0.009396706589857657 0.0 0.0
0.013896285622513247 -0.011439462435518868 0.0 0.007071415662011197 0.0 0.0
0.009260158738628949 -0.007022687459737061 0.0 0.0048673388864562215 0.0 0.0
0.005696812423548028 -0.003743306251747021 0.0 0.00305445815501223 0.0 0.0
0.0033156685037230692 -0.0017587233463417335 0.0 0.0019496370720083899 0.0 0.0
0.0019878496288215476 -0.000864806383454684 0.0 0.0014989722279166852 0.0 0.0
0.00131924928841898 -0.0005422560641629357 0.0 0.0014244710950579197 0.0 0.0
0.0008527994154065614 -0.00030228570461217504 0.0 0.0013564449178656399 0.0 0.0
0.00043871871684951177 -7.193808367877455e-05 0.0 0.0014979712766475149 0.0 0.0
0.0015654112961780667 -0.00046409229434803877 0.0 0.0040083269000439955 0.0 0.0
0.002873368006555145 -0.008293742978979819 0.0 0.0029473248682083636 0.0 0.0
0.0021057476478607267 -0.006515212410871225 0.0 -0.0023982109524197845 0.0 0.0
0.0011434215022437585 -0.0004064618911474868 0.0 -0.003538485460098224 0.0 0.0
0.00030978645188054166 -6.454618172990973e-05 0.0 -0.0018012189219063883 0.0 0.0
0.0006342838258981957 -0.00019614696588821868 0.0 -0.0016376426318760674 0.0 0.0
0.0010332295070814303 -0.00041845633755483965 0.0 -0.0017031274582576619 0.0 0.0
0.0015461264081780255 -0.0006589428764946788 0.0 -0.0017910436271318265 0.0 0.0
0.0025124133176462307 -0.001225230805626696 0.0 -0.0021305822146540604 0.0 0.0
0.004315706908453302 -0.0026108662762983504 0.0 -0.0030904238701833487 0.0 0.0
0.007124677702062574 -0.005103452748858371 0.0 -0.004759403984443283 0.0 0.0
0.01087141362307259 -0.00862960516247626 0.0 -0.006963948841222059 0.0 0.0
0.015360189384415177 -0.012926311820763751 0.0 -0.00933299856653023 0.0 0.0
0.020454469029956186 -0.017826421708277255 0.0 -0.011674031319857149 0.0 0.0
0.026136444284859117 -0.023300203378199616 0.0 -0.013962470811917696 0.0 0.0
0.03246533731908268 -0.029426979856496567 0.0 -0.016286589768843326 0.0 0.0
0.039504561688517216 -0.03628528094369037 0.0 -0.01866218970768267 0.0 0.0
0.04723988750575144 -0.04387208168172901 0.0 -0.02093861847995095 0.0 0.0
0.055532785956386554 -0.05203623851605654 0.0 -0.02276260295863999 0.0 0.0
0.06412850895078726 -0.060520812912374586 0.0 -0.02366582394508018 0.0 0.0
0.07258951992158852 -0.0689531302839982 0.0 -0.022645819594095878 0.0 0.0
0.08008562860397102 -0.07655386975178122 0.0 -0.01778044916342781 0.0 0.0
0.08345660327804924 -0.08204517395393873 0.0 2.233543211493938e-14 0.0 0.0
0.08008562860395756 -0.07655386975176907 0.0 0.01778044916347514 0.0 0.0
0.0725895199215669 -0.06895313028397612 0.0 0.022645819594145813 0.0 0.0
0.06412850895075944 -0.06052081291234902 0.0 0.023665823945112022 0.0 0.0
0.05553278595635353 -0.052036238516022036 0.0 0.022762602958644334 0.0 0.0
0.047239887505715616 -0.04387208168169609 0.0 0.02093861847994217 0.0 0.0
0.0395045616884817 -0.0362852809436586 0.0 0.01866218970767188 0.0 0.0
0.032465337319048965 -0.02942697985645846 0.0 0.01628658976883461 0.0 0.0
0.02613644428482658 -0.023300203378173914 0.0 0.013962470811908694 0.0 0.0
0.020454469029925596 -0.017826421708244805 0.0 0.01167403131984134 0.0 0.0
0.01536018938438814 -0.012926311820736648 0.0 0.009332998566510488 0.0 0.0
0.01087141362305019 -0.008629605162454382 0.0 0.00696394884120434 0.0 0.0
0.007124677702045996 -0.005103452748845111 0.0 0.0047594039844321276 0.0 0.0
0.004315706908442885 -0.002610866276291067 0.0 0.0030904238701772524 0.0 0.0
0.0025124133176408453 -0.0012252308056225174 0.0 0.0021305822146506187 0.0 0.0
0.0015461264081758365 -0.0006589428764939287 0.0 0.0017910436271306464 0.0 0.0
0.0010332295070805805 -0.00041845633755520936 0.0 0.0017031274582557498 0.0 0.0
0.0006342838258979494 -0.00019614696588713946 0.0 0.001637642631873607 0.0 0.0
0.0003097864518805462 -6.454618172906492e-05 0.0 0.0018012189219043413 0.0 0.0
0.0011434215022406555 -0.0004064618911461453 0.0 0.00353848546009038 0.0 0.0
0.0021057476478546777 -0.00651521241085809 0.0 0.0023982109524135512 0.0 0.0
0.0015005744302379119 -0.005026464044982462 0.0 -0.0019749915291344495 0.0 0.0
0.0008107661507993166 -0.0003661475658529499 0.0 -0.0031145099164508524 0.0 0.0
0.0001978022911340721 -5.590278316821689e-05 0.0 -0.002032640120022973 0.0 0.0
0.0004268491014541416 -0.00010218016268407784 0.0 -0.0018808729145316635 0.0 0.0
0.0007501858223743188 -0.0002885948005162918 0.0 -0.0019388097393320146 0.0 0.0
0.0011412435281531212 -0.0004861202530493284 0.0 -0.0020715137595175696 0.0 0.0
0.0017968415480543102 -0.0008171729369241943 0.0 -0.0022999708765271644 0.0 0.0
0.0030501119694646256 -0.0016683738616781753 0.0 -0.0030191449613115495 0.0 0.0
0.005099533658158742 -0.0033639882999319877 0.0 -0.004387342495884553 0.0 0.0
0.007916187794244843 -0.00594068239904917 0.0 -0.006320307490295744 0.0 0.0
0.011331026427537067 -0.009166498653238868 0.0 -0.008538931159689546 0.0 0.0
0.015190090724268628 -0.012846327977261275 0.0 -0.010765715365082501 0.0 0.0
0.019458416585830706 -0.016928588738674307 0.0 -0.012937053963442321 0.0 0.0
0.024195239346505085 -0.021489500977285823 0.0 -0.015110020809438011 0.0 0.0
0.029491910186750278 -0.026624142678625475 0.0 -0.017320730537694912 0.0 0.0
0.0353922501618055 -0.03238610279571693 0.0 -0.019456348732417625 0.0 0.0
0.04183986365795049 -0.03871231896099548 0.0 -0.02121512619326756 0.0 0.0
0.04874822565244674 -0.045470957492573044 0.0 -0.02219226122606481 0.0 0.0
0.056014179610490246 -0.05262041145661325 0.0 -0.02176139730342641 0.0 0.0
0.06317618623247642 -0.05984920146269551 0.0 -0.018032880675240965 0.0 0.0
0.06663420731643564 -0.06599620330417422 0.0 1.7072281088825747e-14 0.0 0.0
0.06317618623246637 -0.059849201462689516 0.0 0.018032880675287258 0.0 0.0
0.05601417961047345 -0.05262041145659069 0.0 0.021761397303476145 0.0 0.0
0.04874822565242484 -0.045470957492554094 0.0 0.02219226122609311 0.0 0.0
0.04183986365792457 -0.03871231896097107 0.0 0.021215126193269956 0.0 0.0
0.0353922501617777 -0.03238610279568851 0.0 0.019456348732404857 0.0 0.0
0.02949191018672339 -0.0266241426786044 0.0 0.017320730537684605 0.0 0.0
0.02419523934648058 -0.021489500977256982 0.0 0.015110020809429466 0.0 0.0
0.019458416585807038 -0.01692858873865235 0.0 0.012937053963433337 0.0 0.0
0.015190090724245722 -0.012846327977241414 0.0 0.010765715365068564 0.0 0.0
0.011331026427517023 -0.009166498653217836 0.0 0.00853893115967026 0.0 0.0
0.007916187794228802 -0.00594068239903575 0.0 0.006320307490278556 0.0 0.0
0.005099533658146957 -0.00336398829992248 0.0 0.0043873424958764135 0.0 0.0
0.0030501119694575874 -0.0016683738616735855 0.0 0.003019144961307194 0.0 0.0
0.00179684154805141 -0.0008171729369220847 0.0 0.002299970876524291 0.0 0.0
0.0011412435281522209 -0.0004861202530500109 0.0 0.0020715137595160504 0.0 0.0
0.0007501858223739631 -0.0002885948005168875 0.0 0.0019388097393305118 0.0 0.0
0.00042684910145411473 -0.0001021801626830596 0.0 0.0018808729145293268 0.0 0.0
0.00019780229113393888 -5.590278316744445e-05 0.0 0.0020326401200203514 0.0 0.0
0.0008107661507972697 -0.0003661475658525862 0.0 0.0031145099164453086 0.0 0.0
0.0015005744302340846 -0.005026464044972259 0.0 0.00197499152913045 0.0 0.0
0.001045685051612839 -0.0038239346533565192 0.0 -0.001711973739004129 0.0 0.0
0.0005501093579615857 -0.0003443729005724177 0.0 -0.002743611088862493 0.0 0.0
8.740782784543147e-05 -3.5148510374566167e-05 0.0 -0.0021970284790020366 0.0 0.0
0.00022782589427887743 -1.7488043533719743e-05 0.0 -0.002074603119498196 0.0 0.0
0.0004655235914847555 -0.00015587838770818446 0.0 -0.0021246662374264924 0.0 0.0
0.0007504343787794634 -0.0003154105916915027 0.0 -0.002299791026887822 0.0 0.0
0.0011613700678035146 -0.0005123003460491456 0.0 -0.0025098210445130757 0.0 0.0
0.0019179107658668084 -0.0009429245527149564 0.0 -0.0029212585993645744 0.0 0.0
0.003221213567304656 -0.0018900800281577883 0.0 -0.0038383816703311388 0.0 0.0
0.005087827035491584 -0.003483003907628948 0.0 -0.005258859960985332 0.0 0.0
0.0073928381767206335 -0.005582765271810603 0.0 -0.007050397449782419 0.0 0.0
0.009999536811668435 -0.00801800357175352 0.0 -0.008952502695046228 0.0 0.0
0.012859942633773857 -0.010707298792481956 0.0 -0.01086741227448231 0.0 0.0
0.01601984718075499 -0.013715794663115627 0.0 -0.012771364496017318 0.0 0.0
0.019573801749940733 -0.017129739704134356 0.0 -0.014675167083442988 0.0 0.0
0.023618341434344346 -0.02104538835135438 0.0 -0.016550401081553597 0.0 0.0
0.028194991512898785 -0.025501168614814045 0.0 -0.018182568293237847 0.0 0.0
0.03331309179581803 -0.03047099911339276 0.0 -0.019157657992253357 0.0 0.0
0.03915615886241354 -0.03610185986418648 0.0 -0.01912788816704761 0.0 0.0
0.04582530774220263 -0.042704095011990836 0.0 -0.017171692972283402 0.0 0.0
0.049348283762347143 -0.04959705189135977 0.0 1.3509159069169385e-14 0.0 0.0
0.04582530774219623 -0.04270409501198175 0.0 0.01717169297232357 0.0 0.0
0.03915615886240185 -0.03610185986416985 0.0 0.01912788816709257 0.0 0.0
0.03331309179580245 -0.030470999113381837 0.0 0.019157657992274018 0.0 0.0
0.02819499151288071 -0.025501168614798644 0.0 0.0181825682932358 0.0 0.0
0.023618341434325382 -0.021045388351334956 0.0 0.016550401081539923 0.0 0.0
0.019573801749923528 -0.017129739704123067 0.0 0.01467516708343529 0.0 0.0
0.01601984718074028 -0.013715794663095304 0.0 0.012771364496012218 0.0 0.0
0.01285994263375905 -0.010707298792467849 0.0 0.010867412274474294 0.0 0.0
0.009999536811653182 -0.008018003571741676 0.0 0.008952502695032961 0.0 0.0
0.0073928381767074496 -0.005582765271796759 0.0 0.00705039744976798 0.0 0.0
0.005087827035481602 -0.0034830039076217964 0.0 0.0052588599609733645 0.0 0.0
0.0032212135672974934 -0.0018900800281516088 0.0 0.003838381670324586 0.0 0.0
0.001917910765862649 -0.0009429245527125545 0.0 0.002921258599361276 0.0 0.0
0.0011613700678017706 -0.0005123003460499068 0.0 0.0025098210445100868 0.0 0.0
0.0007504343787790024 -0.0003154105916910721 0.0 0.0022997910268853163 0.0 0.0
0.000465523591484553 -0.00015587838770826033 0.0 0.0021246662374252087 0.0 0.0
0.0002278258942784676 -1.7488043532622933e-05 0.0 0.00207460311949625 0.0 0.0
8.740782784530333e-05 -3.514851037456416e-05 0.0 0.002197028478998811 0.0 0.0
0.0005501093579601462 -0.00034437290057260186 0.0 0.002743611088857745 0.0 0.0
0.0010456850516099392 -0.0038239346533491167 0.0 0.0017119737390021634 0.0 0.0
0.0007258583948792491 -0.002889113171981518 0.0 -0.001561155041807045 0.0 0.0
0.00035165090998220657 -0.0003438266668915942 0.0 -0.0024627215310920616 0.0 0.0
-2.5869519348204778e-05 1.0359362763338288e-06 0.0 -0.002299309753481764 0.0 0.0
3.496070032913309e-05 6.0704580655035264e-05 0.0 -0.002213046196469733 0.0 0.0
0.00018166851073655275 -2.4464308354873236e-05 0.0 -0.0022573975092437825 0.0 0.0
0.00035510700970138706 -0.00013529382200000792 0.0 -0.002446355254808082 0.0 0.0
0.0005736325866847314 -0.0002496607006376582 0.0 -0.002701073718889651 0.0 0.0
0.0009216052344063184 -0.000420820055330692 0.0 -0.0029544092019166543 0.0 0.0
0.0015263704169153603 -0.0007880968678420776 0.0 -0.00336462043971431 0.0 0.0
0.0024410682316601626 -0.0014634528454944317 0.0 -0.0041078438070390935 0.0 0.0
0.00360444790629695 -0.0024169275286463785 0.0 -0.00522996295189189 0.0 0.0
0.004924967304717797 -0.003556715554017936 0.0 -0.006613723677693829 0.0 0.0
0.006363212861484185 -0.004832337179591747 0.0 -0.008124585066537838 0.0 0.0
0.007954603969089698 -0.006284227113365245 0.0 -0.009708371112897329 0.0 0.0
0.00977146208285494 -0.007973586380906113 0.0 -0.01135840176767205 0.0 0.0
0.01193476230919566 -0.010010767302892349 0.0 -0.013066777878953792 0.0 0.0
0.014599323741802226 -0.012543474827554487 0.0 -0.01469128260026713 0.0 0.0
0.01790172063165997 -0.015707553934967613 0.0 -0.015792443031229345 0.0 0.0
0.022074580704941706 -0.01966949019595428 0.0 -0.015819507780273773 0.0 0.0
0.027836574922766106 -0.025067424974765665 0.0 -0.014973699783567277 0.0 0.0
0.031250525467400085 -0.03258304814827443 0.0 1.1404939492809518e-14 0.0 0.0
0.027836574922763375 -0.025067424974754324 0.0 0.014973699783602513 0.0 0.0
0.022074580704935065 -0.019669490195946465 0.0 0.01581950778030857 0.0 0.0
0.01790172063165022 -0.015707553934961708 0.0 0.01579244303124155 0.0 0.0
0.014599323741792387 -0.01254347482754372 0.0 0.014691282600260713 0.0 0.0
0.011934762309186789 -0.01001076730288642 0.0 0.013066777878943565 0.0 0.0
0.009771462082847645 -0.007973586380897249 0.0 0.011358401767665635 0.0 0.0
0.007954603969084014 -0.006284227113358703 0.0 0.009708371112891745 0.0 0.0
0.006363212861478002 -0.004832337179589169 0.0 0.008124585066530658 0.0 0.0
0.004924967304711134 -0.0035567155540136798 0.0 0.006613723677684051 0.0 0.0
0.0036044479062911977 -0.0024169275286390238 0.0 0.005229962951881356 0.0 0.0
0.0024410682316560127 -0.0014634528454931352 0.0 0.004107843807032367 0.0 0.0
0.0015263704169125646 -0.0007880968678383297 0.0 0.0033646204397116313 0.0 0.0
0.0009216052344044068 -0.0004208200553274913 0.0 0.002954409201916113 0.0 0.0
0.000573632586684035 -0.00024966070063655086 0.0 0.002701073718887643 0.0 0.0
0.000355107009701315 -0.00013529382199836142 0.0 0.0024463552548058915 0.0 0.0
0.00018166851073646423 -2.4464308354565936e-05 0.0 0.0022573975092417486 0.0 0.0
3.4960700328879365e-05 6.070458065565132e-05 0.0 0.0022130461964688405 0.0 0.0
-2.5869519348265198e-05 1.0359362765504261e-06 0.0 0.0022993097534795676 0.0 0.0
0.00035165090998155984 -0.00034382666689184794 0.0 0.0024627215310886745 0.0 0.0
0.0007258583948778035 -0.0028891131719765745 0.0 0.0015611550418065266 0.0 0.0
0.0005008905747041996 -0.002192011993848899 0.0 -0.001479157582255963 0.0 0.0
0.0002011855990159122 -0.00034851987436081144 0.0 -0.002270114608860343 0.0 0.0
-0.00013661646174435268 4.47265711064342e-05 0.0 -0.002346807407948673 0.0 0.0
-0.00015256110862901128 0.0001353776423493213 0.0 -0.002294380428579872 0.0 0.0
-9.811862238687526e-05 0.00010361413315885775 0.0 -0.0023314355111047807 0.0 0.0
-4.528695542720374e-05 4.852634724296568e-05 0.0 -0.002508995941837771 0.0 0.0
-1.5944010632606688e-05 1.2923030709453916e-05 0.0 -0.00278215433314885 0.0 0.0
-4.393814968529344e-06 2.8013769221868986e-06 0.0 -0.0030290914124928635 0.0 0.0
-6.369888911925505e-07 1.245427805668785e-07 0.0 -0.0031943021983328384 0.0 0.0
4.84505143167344e-07 -2.1682931882398098e-07 0.0 -0.0035611018371216937 0.0 0.0
-1.405126271711082e-07 -5.868699172670842e-07 0.0 -0.004290102159828851 0.0 0.0
-6.845770140601146e-06 6.186116148910271e-06 0.0 -0.005384076767906883 0.0 0.0
-2.3025303086973464e-05 2.0792253641796477e-05 0.0 -0.00666731913112874 0.0 0.0
-3.619032698814659e-05 3.735490346412732e-05 0.0 -0.008096291352173123 0.0 0.0
1.183385053393749e-05 7.93698004235505e-06 0.0 -0.009676655434034799 0.0 0.0
0.0002681751357944116 -0.00019459665612622855 0.0 -0.01139832950000668 0.0 0.0
0.0009990878009224567 -0.00080598857078289 0.0 -0.013194274021524493 0.0 0.0
0.002527653944421291 -0.002144930737524277 0.0 -0.014866127862215809 0.0 0.0
0.005068544776061003 -0.004344072365086766 0.0 -0.016094516151568303 0.0 0.0
0.009314946005981994 -0.007778033744427716 0.0 -0.01673082379514581 0.0 0.0
0.012023474797406796 -0.01573893696531477 0.0 1.1212385186976093e-14 0.0 0.0
0.009314946005982162 -0.007778033744421249 0.0 0.016730823795170362 0.0 0.0
0.005068544776058871 -0.0043440723650856015 0.0 0.01609451615158353 0.0 0.0
0.002527653944419508 -0.00214493073752074 0.0 0.014866127862216836 0.0 0.0
0.0009990878009230476 -0.0008059885707841247 0.0 0.013194274021515351 0.0 0.0
0.0002681751357960212 -0.00019459665612910006 0.0 0.011398329499997147 0.0 0.0
1.1833850535891114e-05 7.936980044528008e-06 0.0 0.009676655434027893 0.0 0.0
-3.619032698483869e-05 3.7354903456869126e-05 0.0 0.008096291352164907 0.0 0.0
-2.302530308374276e-05 2.0792253641298828e-05 0.0 0.006667319131122087 0.0 0.0
-6.8457701382016985e-06 6.186116144344479e-06 0.0 0.005384076767898829 0.0 0.0
-1.4051262505669713e-07 -5.868699201429847e-07 0.0 0.004290102159818633 0.0 0.0
4.845051447558628e-07 -2.168293216023439e-07 0.0 0.003561101837118436 0.0 0.0
-6.369888902650698e-07 1.2454278263052858e-07 0.0 0.003194302198332048 0.0 0.0
-4.393814968205425e-06 2.8013769242070315e-06 0.0 0.003029091412490529 0.0 0.0
-1.594401063242057e-05 1.2923030710623634e-05 0.0 0.0027821543331475727 0.0 0.0
-4.528695542693404e-05 4.852634724272187e-05 0.0 0.0025089959418357548 0.0 0.0
-9.811862238649413e-05 0.00010361413315793436 0.0 0.002331435511102815 0.0 0.0
-0.00015256110862891145 0.0001353776423479876 0.0 0.0022943804285797047 0.0 0.0
-0.00013661646174452054 4.472657110631783e-05 0.0 0.002346807407947364 0.0 0.0
0.00020118559901549968 -0.00034851987436134373 0.0 0.0022701146088590874 0.0 0.0
0.000500890574703415 -0.0021920119938458773 0.0 0.0014791575822545667 0.0 0.0
0.00034653550888731773 -0.0016809055697460519 0.0 -0.0014171977224254832 0.0 0.0
8.976450790567836e-05 -0.00033773160539839414 0.0 -0.0021163700614425175 0.0 0.0
-0.00024063169254611518 8.679640374112997e-05 0.0 -0.0023451774585845743 0.0 0.0
-0.00033364218384113057 0.00020783415580173173 0.0 -0.0023173839198524114 0.0 0.0
-0.00037172469314025226 0.00022643473453461095 0.0 -0.002339616359598102 0.0 0.0
-0.0004418250230730327 0.00023078009395065258 0.0 -0.0024896402675022235 0.0 0.0
-0.000604655863296657 0.00027548350384499424 0.0 -0.0027215818112654956 0.0 0.0
-0.0009304791506915041 0.000426751505799142 0.0 -0.002965007954178027 0.0 0.0
-0.0015272454342303656 0.0007881634299276248 0.0 -0.0033690496526803063 0.0 0.0
-0.0024393330065378767 0.0014621038433786603 0.0 -0.004106645718187307 0.0 0.0
-0.003605302477240049 0.0024170133143718974 0.0 -0.005226587621615214 0.0 0.0
-0.004940566098307534 0.003570257684866708 0.0 -0.00661478877498433 0.0 0.0
-0.006409964086788615 0.004875716861813477 0.0 -0.00812084134949383 0.0 0.0
-0.008023987492424915 0.006359690965091003 0.0 -0.009696252629878685 0.0 0.0
-0.009740446458780852 0.007987286412987253 0.0 -0.01136448780654536 0.0 0.0
-0.011402139485178327 0.00961362184524723 0.0 -0.013205499713421713 0.0 0.0
-0.01269659360461435 0.010934886399919366 0.0 -0.015275909269669836 0.0 0.0
-0.01320457217770325 0.01150943355982059 0.0 -0.017659627054202747 0.0 0.0
-0.01246596202733637 0.01100355087665382 0.0 -0.020289451344350926 0.0 0.0
-0.008846371330802249 0.008419679716026512 0.0 -0.021467291513242844 0.0 0.0
-0.0059677857142491145 -0.0002775902259800065 0.0 1.3290583911196308e-14 0.0 0.0
-0.008846371330803002 0.008419679716027344 0.0 0.02146729151326534 0.0 0.0
-0.012465962027333133 0.011003550876648994 0.0 0.020289451344366476 0.0 0.0
-0.013204572177694315 0.011509433559811325 0.0 0.017659627054205113 0.0 0.0
-0.012696593604602164 0.01093488639990473 0.0 0.015275909269660853 0.0 0.0
-0.011402139485166236 0.00961362184523215 0.0 0.013205499713409705 0.0 0.0
-0.009740446458769784 0.007987286412979857 0.0 0.011364487806537059 0.0 0.0
-0.00802398749241311 0.006359690965076416 0.0 0.009696252629870058 0.0 0.0
-0.006409964086776117 0.0048757168618067835 0.0 0.008120841349483713 0.0 0.0
-0.004940566098295901 0.003570257684855177 0.0 0.006614788774971273 0.0 0.0
-0.0036053024772299738 0.002417013314361883 0.0 0.0052265876216018555 0.0 0.0
-0.0024393330065306733 0.0014621038433735231 0.0 0.00410664571817992 0.0 0.0
-0.0015272454342261017 0.0007881634299265958 0.0 0.003369049652677757 0.0 0.0
-0.0009304791506886418 0.00042675150580167166 0.0 0.0029650079541755957 0.0 0.0
-0.0006046558632948744 0.0002754835038432825 0.0 0.0027215818112627144 0.0 0.0
-0.00044182502307213564 0.0002307800939506174 0.0 0.0024896402674994857 0.0 0.0
-0.00037172469313962613 0.00022643473453438483 0.0 0.0023396163595972297 0.0 0.0
-0.00033364218384100095 0.0002078341558009491 0.0 0.0023173839198517123 0.0 0.0
-0.00024063169254616955 8.679640374060532e-05 0.0 0.0023451774585828184 0.0 0.0
8.976450790560022e-05 -0.0003377316053989245 0.0 0.002116370061441524 0.0 0.0
0.0003465355088869419 -0.001680905569743971 0.0 0.0014171977224239748 0.0 0.0
0.00023857388218223585 -0.0012757600576843858 0.0 -0.00131074557604162 0.0 0.0
4.998504090950495e-06 -0.0003089558660527137 0.0 -0.001964339590175983 0.0 0.0
-0.000337197361910843 0.00012546533204967682 0.0 -0.0022926817523793042 0.0 0.0
-0.0005063640971114102 0.00027693376525476314 0.0 -0.0022804337223635545 0.0 0.0
-0.0006371489920553392 0.00034270087079259226 0.0 -0.002279847093620903 0.0 0.0
-0.0008281509954390122 0.0004054602259894076 0.0 -0.0023829120274965246 0.0 0.0
-0.0011899548123680023 0.0005397725702407587 0.0 -0.0025540389837372494 0.0 0.0
-0.001925347848706092 0.0009488318249949088 0.0 -0.0029423722796885943 0.0 0.0
-0.0032202937770110093 0.001888403701629007 0.0 -0.0038415934423185194 0.0 0.0
-0.005085495711376324 0.0034806682891579954 0.0 -0.005255000268738386 0.0 0.0
-0.007395065657026304 0.005585199611494461 0.0 -0.00704879352420909 0.0 0.0
-0.01001468412037396 0.008032301908745591 0.0 -0.008949655400100074 0.0 0.0
-0.01290055769504808 0.010747078730433797 0.0 -0.010837626110083425 0.0 0.0
-0.016078240252028482 0.01378150332692869 0.0 -0.012693733026231223 0.0 0.0
-0.019537777235918135 0.017135261932955267 0.0 -0.01461768134883913 0.0 0.0
-0.02311922741277518 0.02066763365652066 0.0 -0.016821528472795583 0.0 0.0
-0.02645867156796282 0.024015403408745296 0.0 -0.019534410552434812 0.0 0.0
-0.02899894007279935 0.02661480764311386 0.0 -0.02286870208101498 0.0 0.0
-0.02968462243659664 0.027552478106832735 0.0 -0.02617008401006104 0.0 0.0
-0.026429998777150906 0.02477755590783454 0.0 -0.02691771147716258 0.0 0.0
-0.023478896377727383 0.014186874378419707 0.0 1.6047926876261442e-14 0.0 0.0
-0.026429998777149 0.024777555907832663 0.0 0.026917711477198854 0.0 0.0
-0.029684622436588454 0.027552478106823458 0.0 0.026170084010093464 0.0 0.0
-0.028998940072783162 0.026614807643096577 0.0 0.022868702081026895 0.0 0.0
-0.02645867156794138 0.024015403408722522 0.0 0.019534410552428712 0.0 0.0
-0.023119227412753133 0.02066763365649926 0.0 0.01682152847278391 0.0 0.0
-0.01953777723589754 0.017135261932935974 0.0 0.014617681348828487 0.0 0.0
-0.01607824025200802 0.013781503326909965 0.0 0.012693733026220212 0.0 0.0
-0.012900557695027081 0.010747078730409932 0.0 0.010837626110070381 0.0 0.0
-0.010014684120353444 0.008032301908728475 0.0 0.008949655400082279 0.0 0.0
-0.007395065657008204 0.00558519961147522 0.0 0.007048793524191504 0.0 0.0
-0.005085495711362664 0.003480668289145006 0.0 0.005255000268726332 0.0 0.0
-0.003220293777001927 0.0018884037016230633 0.0 0.0038415934423130828 0.0 0.0
-0.0019253478487006623 0.0009488318249940642 0.0 0.0029423722796849644 0.0 0.0
-0.0011899548123652758 0.0005397725702410214 0.0 0.002554038983734783 0.0 0.0
-0.0008281509954374291 0.00040546022598946706 0.0 0.0023829120274932694 0.0 0.0
-0.0006371489920541831 0.00034270087079346157 0.0 0.002279847093619121 0.0 0.0
-0.0005063640971108574 0.00027693376525450987 0.0 0.0022804337223624152 0.0 0.0
-0.0003371973619104358 0.0001254653320498251 0.0 0.002292681752379463 0.0 0.0
4.998504091196992e-06 -0.00030895586605301335 0.0 0.001964339590174313 0.0 0.0
0.00023857388218194802 -0.0012757600576827138 0.0 0.0013107455760405721 0.0 0.0
0.0001507248735321016 -0.0009338982970994814 0.0 -0.0011595400129111861 0.0 0.0
-6.689459636323694e-05 -0.00026515033612223814 0.0 -0.0017957944512028367 0.0 0.0
-0.00042659696619255425 0.00016195063044918692 0.0 -0.002187581634088545 0.0 0.0
-0.0006702156385918983 0.0003415156292645954 0.0 -0.0021862796389194323 0.0 0.0
-0.0008914217473927749 0.0004508480640517072 0.0 -0.0021580069377070974 0.0 0.0
-0.0012054394149716883 0.0005693465754544583 0.0 -0.0021882609129398674 0.0 0.0
-0.001821762455960644 0.0008471738182229539 0.0 -0.0023662503119725982 0.0 0.0
-0.003053876491996449 0.0016707276561856474 0.0 -0.003039986521764915 0.0 0.0
-0.005095776298879113 0.0033595035406326157 0.0 -0.004384903998390783 0.0 0.0
-0.007914634368829332 0.005939155927472637 0.0 -0.0063156274305465315 0.0 0.0
-0.011334838764858877 0.009171178648330797 0.0 -0.008538934348783314 0.0 0.0
-0.015201583369897277 0.012858510094995676 0.0 -0.01075841993737478 0.0 0.0
-0.019481910920760504 0.01695240411038766 0.0 -0.012880727110950724 0.0 0.0
-0.024224289787897996 0.02152283206578559 0.0 -0.014952373144851878 0.0 0.0
-0.029448546227334553 0.026610449031877224 0.0 -0.017142833035458976 0.0 0.0
-0.03500393648572994 0.032092949760929 0.0 -0.019779441956065107 0.0 0.0
-0.040457421293145744 0.03755258550784341 0.0 -0.023301976563953955 0.0 0.0
-0.04493312497156394 0.042166937034089545 0.0 -0.027738049150182492 0.0 0.0
-0.046843220276708564 0.04438523883885353 0.0 -0.03185742008845199 0.0 0.0
-0.04320353523498369 0.0415010795658173 0.0 -0.0331655492881092 0.0 0.0
-0.03950279569271567 0.02813790224851344 0.0 1.7637800941994186e-14 0.0 0.0
-0.043203535234979155 0.041501079565812726 0.0 0.03316554928815038 0.0 0.0
-0.04684322027669566 0.0443852388388412 0.0 0.03185742008849342 0.0 0.0
-0.044933124971540964 0.04216693703407089 0.0 0.027738049150202358 0.0 0.0
-0.040457421293116094 0.03755258550781155 0.0 0.023301976563951537 0.0 0.0
-0.03500393648569878 0.03209294976090315 0.0 0.019779441956051795 0.0 0.0
-0.02944854622730484 0.026610449031844976 0.0 0.017142833035444054 0.0 0.0
-0.024224289787868614 0.02152283206576386 0.0 0.014952373144839548 0.0 0.0
-0.019481910920730514 0.01695240411035653 0.0 0.012880727110937037 0.0 0.0
-0.015201583369868425 0.012858510094969034 0.0 0.010758419937356534 0.0 0.0
-0.011334838764833221 0.00917117864830416 0.0 0.008538934348761955 0.0 0.0
-0.007914634368809426 0.005939155927452957 0.0 0.0063156274305316285 0.0 0.0
-0.005095776298865365 0.003359503540619263 0.0 0.004384903998380639 0.0 0.0
-0.003053876491987772 0.0016707276561766591 0.0 0.003039986521760239 0.0 0.0
-0.0018217624559563965 0.000847173818225297 0.0 0.0023662503119692884 0.0 0.0
-0.001205439414970001 0.0005693465754530472 0.0 0.0021882609129371656 0.0 0.0
-0.0008914217473917345 0.000450848064051424 0.0 0.0021580069377055157 0.0 0.0
-0.0006702156385911291 0.00034151562926478234 0.0 0.0021862796389179166 0.0 0.0
-0.0004265969661922687 0.0001619506304496215 0.0 0.0021875816340883127 0.0 0.0
-6.68945963633219e-05 -0.0002651503361221626 0.0 0.0017957944512007706 0.0 0.0
0.00015072487353201224 -0.0009338982970982302 0.0 0.0011595400129101082 0.0 0.0
7.426401421426774e-05 -0.0006469068389439827 0.0 -0.000991961373724993 0.0 0.0
-0.00013197164009144717 -0.000209095344811751 0.0 -0.001601270777836713 0.0 0.0
-0.0005111467287169478 0.00019777338886207532 0.0 -0.0020302404845358585 0.0 0.0
-0.0008255784880839516 0.0004013263541156824 0.0 -0.002036742250801284 0.0 0.0
-0.0011323503533602576 0.0005474794574838919 0.0 -0.0019690952878291183 0.0 0.0
-0.001593512337241896 0.0007338205247695939 0.0 -0.001931784742269448 0.0 0.0
-0.002530027559137076 0.0012520192606295224 0.0 -0.002198847237801938 0.0 0.0
-0.004313377397766565 0.002606858797854168 0.0 -0.003102075715480189 0.0 0.0
-0.007120211649978668 0.00509792521108625 0.0 -0.004752687453653489 0.0 0.0
-0.010871836345474553 0.008630253557651379 0.0 -0.006959950247167666 0.0 0.0
-0.015365220864500099 0.012932866408576079 0.0 -0.009333564984428087 0.0 0.0
-0.020459255216591404 0.01783409711191418 0.0 -0.011662098283645908 0.0 0.0
-0.026132856430378826 0.02329955650687665 0.0 -0.013886461444343016 0.0 0.0
-0.03244596310089563 0.029408368308986202 0.0 -0.0160699189136795 0.0 0.0
-0.039447591146366784 0.036237286345127545 0.0 -0.01837729922855969 0.0 0.0
-0.04700987570625025 0.043701349146126924 0.0 -0.021227221428420637 0.0 0.0
-0.05458360922657582 0.051302715524039054 0.0 -0.025153871486984357 0.0 0.0
-0.06092448284485777 0.05785775631721994 0.0 -0.030181879520805664 0.0 0.0
-0.06378633116731958 0.061189685933506446 0.0 -0.03509038347535069 0.0 0.0
-0.059397779607711754 0.05770946675898611 0.0 -0.037135822474421494 0.0 0.0
-0.05480283913147467 0.04164871463650251 0.0 1.968390728190883e-14 0.0 0.0
-0.05939777960770348 0.05770946675897795 0.0 0.03713582247446519 0.0 0.0
-0.06378633116730135 0.06118968593348795 0.0 0.03509038347539458 0.0 0.0
-0.060924482844828445 0.057857756317188244 0.0 0.03018187952082773 0.0 0.0
-0.05458360922653918 0.051302715524003034 0.0 0.025153871486983684 0.0 0.0
-0.04700987570621126 0.043701349146089974 0.0 0.021227221428410468 0.0 0.0
-0.039447591146328065 0.036237286345087785 0.0 0.018377299228545297 0.0 0.0
-0.03244596310085758 0.02940836830895733 0.0 0.016069918913667255 0.0 0.0
-0.02613285643034037 0.0232995565068375 0.0 0.01388646144432663 0.0 0.0
-0.02045925521655454 0.017834097111878878 0.0 0.01166209828362709 0.0 0.0
-0.015365220864467646 0.012932866408542503 0.0 0.009333564984405397 0.0 0.0
-0.010871836345448431 0.00863025355762557 0.0 0.006959950247149901 0.0 0.0
-0.007120211649959697 0.005097925211068477 0.0 0.00475268745364147 0.0 0.0
-0.004313377397754347 0.002606858797844601 0.0 0.003102075715473068 0.0 0.0
-0.002530027559130773 0.0012520192606269931 0.0 0.002198847237797478 0.0 0.0
-0.0015935123372392264 0.0007338205247680506 0.0 0.0019317847422678038 0.0 0.0
-0.0011323503533587965 0.000547479457482584 0.0 0.001969095287828578 0.0 0.0
-0.0008255784880830334 0.0004013263541159208 0.0 0.002036742250800578 0.0 0.0
-0.0005111467287163663 0.00019777338886194397 0.0 0.0020302404845342296 0.0 0.0
-0.00013197164009118607 -0.0002090953448116425 0.0 0.001601270777834805 0.0 0.0
7.426401421405075e-05 -0.0006469068389430403 0.0 0.0009919613737234142 0.0 0.0
7.262417489072079e-06 -0.00041182793895874666 0.0 -0.0008178709823333766 0.0 0.0
-0.00019196256196506818 -0.00014520810541567166 0.0 -0.0013808059474654647 0.0 0.0
-0.0005919721066617654 0.00023413535278816533 0.0 -0.0018206531336220659 0.0 0.0
-0.000971034270155777 0.0004558085057185799 0.0 -0.0018309981959742719 0.0 0.0
-0.001365974118264774 0.000633847522534936 0.0 -0.001717967318492556 0.0 0.0
-0.0020125407052434077 0.0009262755530833012 0.0 -0.0016509032463844742 0.0 0.0
-0.0033238269768942905 0.001775513322045637 0.0 -0.0020020925069966686 0.0 0.0
-0.005691785722028594 0.0037353254643098487 0.0 -0.0030569207321898633 0.0 0.0
-0.009256827885767798 0.007018727737462031 0.0 -0.004859195734852312 0.0 0.0
-0.013899037961856573 0.011442634953203749 0.0 -0.007068852196012396 0.0 0.0
-0.01943934517590404 0.016780780953662883 0.0 -0.009396598888388298 0.0 0.0
-0.02576267709770128 0.022890423695107933 0.0 -0.011682392858326831 0.0 0.0
-0.03283709472192243 0.029734019131034704 0.0 -0.013883377598868962 0.0 0.0
-0.040721399952508223 0.037387198270348775 0.0 -0.01606365506785162 0.0 0.0
-0.04949427848508749 0.04594948770156211 0.0 -0.018358246836097356 0.0 0.0
-0.05903968609861503 0.05536901106421217 0.0 -0.021098767096161087 0.0 0.0
-0.06868827740615856 0.06507173553102963 0.0 -0.0248769063745204 0.0 0.0
-0.07681564710177012 0.07351416267239669 0.0 -0.029999301808850014 0.0 0.0
-0.08050421254536323 0.0778292603581299 0.0 -0.035564250760452096 0.0 0.0
-0.0753722403646084 0.073698504427203 0.0 -0.039547408962555125 0.0 0.0
-0.06995966724634281 0.055198130775056226 0.0 2.0342234841042028e-14 0.0 0.0
-0.07537224036459726 0.07369850442719103 0.0 0.03954740896259941 0.0 0.0
-0.08050421254533971 0.07782926035810152 0.0 0.035564250760495714 0.0 0.0
-0.07681564710173462 0.07351416267236233 0.0 0.02999930180887498 0.0 0.0
-0.06868827740611466 0.06507173553098433 0.0 0.024876906374520637 0.0 0.0
-0.05903968609856769 0.055369011064169596 0.0 0.021098767096149006 0.0 0.0
-0.04949427848503967 0.045949487701514746 0.0 0.01835824683608537 0.0 0.0
-0.040721399952461365 0.03738719827030848 0.0 0.016063655067839615 0.0 0.0
-0.03283709472187547 0.02973401913098086 0.0 0.013883377598853032 0.0 0.0
-0.02576267709765609 0.022890423695064197 0.0 0.011682392858306355 0.0 0.0
-0.01943934517586452 0.016780780953622006 0.0 0.009396598888365457 0.0 0.0
-0.013899037961824571 0.011442634953168617 0.0 0.0070688521959941745 0.0 0.0
-0.009256827885744274 0.007018727737443324 0.0 0.004859195734840031 0.0 0.0
-0.005691785722012882 0.0037353254642979433 0.0 0.0030569207321817587 0.0 0.0
-0.0033238269768854018 0.0017755133220373693 0.0 0.002002092506991369 0.0 0.0
-0.0020125407052395553 0.0009262755530791528 0.0 0.0016509032463833577 0.0 0.0
-0.0013659741182633664 0.0006338475225345407 0.0 0.0017179673184920408 0.0 0.0
-0.0009710342701552009 0.00045580850571796385 0.0 0.001830998195972666 0.0 0.0
-0.0005919721066614537 0.00023413535278834818 0.0 0.0018206531336204044 0.0 0.0
-0.0001919625619651628 -0.00014520810541591967 0.0 0.001380805947464215 0.0 0.0
7.2624174886658476e-06 -0.0004118279389581506 0.0 0.0008178709823326452 0.0 0.0
-4.9518272116950035e-05 -0.0002277734226246382 0.0 -0.0006410426566382711 0.0 0.0
-0.00024605183621797703 -7.83499948996299e-05 0.0 -0.0011366149994898322 0.0 0.0
-0.0006690869757718784 0.00027104329462944053 0.0 -0.001559623895901285 0.0 0.0
-0.0011091446288522052 0.000504655117451984 0.0 -0.0015686929802562262 0.0 0.0
-0.001604209767170209 0.000716152352621877 0.0 -0.0014149026277223656 0.0 0.0
-0.002474128139006463 0.0011689375148108481 0.0 -0.0013459080582313868 0.0 0.0
-0.004205008659357651 0.002429610706450142 0.0 -0.0017531903224037753 0.0 0.0
-0.007170416612605578 0.005026249090939703 0.0 -0.0028893151498006493 0.0 0.0
-0.01145351686464615 0.009037978743731006 0.0 -0.004592077574993477 0.0 0.0
-0.016952798230013014 0.014311726676629936 0.0 -0.00660917688156321 0.0 0.0
-0.02353629741714674 0.020673561030520256 0.0 -0.008755005599986586 0.0 0.0
-0.031088224527562547 0.027989964402867475 0.0 -0.01085986049943628 0.0 0.0
-0.03957267239996832 0.03622298416186136 0.0 -0.012902876645170255 0.0 0.0
-0.049036796130447646 0.045432064614393794 0.0 -0.014963104257722726 0.0 0.0
-0.05954239706988046 0.05570115678798179 0.0 -0.01711245548946109 0.0 0.0
-0.07098186714807893 0.06698331468735075 0.0 -0.019481828762523065 0.0 0.0
-0.08262037509174187 0.07867925757591035 0.0 -0.02256625050889657 0.0 0.0
-0.09248895728669199 0.08896026218527174 0.0 -0.02717677662930641 0.0 0.0
-0.09707894529533288 0.09433259517630657 0.0 -0.033475660737690364 0.0 0.0
-0.0914481208676613 0.08981677086648587 0.0 -0.04075891745085382 0.0 0.0
-0.08537847346012248 0.06918039441845132 0.0 1.8627460685038955e-14 0.0 0.0
-0.09144812086764663 0.08981677086646686 0.0 0.040758917450896284 0.0 0.0
-0.09707894529530388 0.09433259517627914 0.0 0.03347566073773252 0.0 0.0
-0.0924889572866501 0.08896026218523075 0.0 0.02717677662932981 0.0 0.0
-0.08262037509169137 0.07867925757585682 0.0 0.022566250508899426 0.0 0.0
-0.0709818671480239 0.06698331468729955 0.0 0.01948182876251736 0.0 0.0
-0.05954239706982412 0.055701156787928974 0.0 0.017112455489451762 0.0 0.0
-0.04903679613039227 0.04543206461433716 0.0 0.014963104257710604 0.0 0.0
-0.039572672399913494 0.03622298416180175 0.0 0.012902876645156757 0.0 0.0
-0.031088224527510012 0.027989964402812824 0.0 0.010859860499417322 0.0 0.0
-0.023536297417100064 0.020673561030474904 0.0 0.008755005599964156 0.0 0.0
-0.016952798229975224 0.014311726676591752 0.0 0.006609176881547957 0.0 0.0
-0.01145351686461769 0.009037978743705911 0.0 0.004592077574981644 0.0 0.0
-0.007170416612586061 0.005026249090920473 0.0 0.0028893151497929107 0.0 0.0
-0.004205008659346308 0.002429610706438514 0.0 0.0017531903223987383 0.0 0.0
-0.0024741281390012766 0.0011689375148070408 0.0 0.0013459080582297314 0.0 0.0
-0.0016042097671685501 0.0007161523526214615 0.0 0.0014149026277232915 0.0 0.0
-0.0011091446288515499 0.0005046551174512893 0.0 0.0015686929802542207 0.0 0.0
-0.0006690869757712642 0.0002710432946300831 0.0 0.001559623895900084 0.0 0.0
-0.0002460518362175499 -7.834999490005765e-05 0.0 0.0011366149994900914 0.0 0.0
-4.9518272116797814e-05 -0.00022777342262436998 0.0 0.0006410426566373 0.0 0.0
-9.342196100727151e-05 -9.510625298929395e-05 0.0 -0.0004658947816633187 0.0 0.0
-0.0002913421186828651 -1.3752759615954064e-05 0.0 -0.0008715605504264132 0.0 0.0
-0.0007411081789558457 0.0003071842889944652 0.0 -0.0012459780421416676 0.0 0.0
-0.0012427995361162258 0.0005480429643105158 0.0 -0.001248265826616748 0.0 0.0
-0.0018574417376240548 0.0008067878711575706 0.0 -0.001062894155881488 0.0 0.0
-0.002992937360683641 0.0014793978883590418 0.0 -0.0010016262250982272 0.0 0.0
-0.0051755173159114785 0.0032208193153506278 0.0 -0.0014592660678139626 0.0 0.0
-0.008707097934849358 0.006414403942724977 0.0 -0.0024911046881614697 0.0 0.0
-0.013665803697724174 0.011098721234532911 0.0 -0.003907894712310283 0.0 0.0
-0.020012734131751822 0.0172047981397259 0.0 -0.005612369143603666 0.0 0.0
-0.027630434542370935 0.02458018130067526 0.0 -0.0074286569039032834 0.0 0.0
-0.03641307608640576 0.03310425936456465 0.0 -0.00921337359857565 0.0 0.0
-0.04632002370472031 0.04273774403943873 0.0 -0.010957896070859008 0.0 0.0
-0.05736601027080107 0.05351613676476684 0.0 -0.012757762313290708 0.0 0.0
-0.06956203994403833 0.06546458267544447 0.0 -0.01465027116039796 0.0 0.0
-0.08275495007764738 0.07847035641453304 0.0 -0.016531589456462808 0.0 0.0
-0.09620641077512365 0.09193660610892207 0.0 -0.01850399366772217 0.0 0.0
-0.10781884317624757 0.10401002337663626 0.0 -0.0217957369778604 0.0 0.0
-0.11361046338036507 0.1107604327316935 0.0 -0.028734523140078 0.0 0.0
-0.10793310481897186 0.10640226600180197 0.0 -0.04052313825052845 0.0 0.0
-0.10143388250963639 0.08399687680741051 0.0 1.561424600726724e-14 0.0 0.0
-0.10793310481895495 0.10640226600177932 0.0 0.04052313825056455 0.0 0.0
-0.11361046338033087 0.11076043273166977 0.0 0.028734523140114987 0.0 0.0
-0.10781884317619897 0.10401002337658306 0.0 0.021795736977882275 0.0 0.0
-0.09620641077506555 0.09193660610886384 0.0 0.01850399366772524 0.0 0.0
-0.08275495007758457 0.07847035641447382 0.0 0.01653158945645975 0.0 0.0
-0.06956203994397384 0.06546458267537854 0.0 0.014650271160390454 0.0 0.0
-0.05736601027073705 0.053516136764700475 0.0 0.012757762313282349 0.0 0.0
-0.04632002370465697 0.04273774403937653 0.0 0.010957896070848724 0.0 0.0
-0.0364130760863458 0.033104259364501246 0.0 0.00921337359856214 0.0 0.0
-0.027630434542317873 0.02458018130062474 0.0 0.007428656903883626 0.0 0.0
-0.020012734131708513 0.017204798139682877 0.0 0.005612369143590141 0.0 0.0
-0.013665803697691211 0.011098721234500878 0.0 0.003907894712301001 0.0 0.0
-0.008707097934825688 0.006414403942701882 0.0 0.002491104688154375 0.0 0.0
-0.00517551731589734 0.003220819315339802 0.0 0.0014592660678097876 0.0 0.0
-0.0029929373606769442 0.001479397888354728 0.0 0.0010016262250966263 0.0 0.0
-0.0018574417376219675 0.000806787871158611 0.0 0.0010628941558810414 0.0 0.0
-0.0012427995361156319 0.0005480429643097439 0.0 0.0012482658266155054 0.0 0.0
-0.0007411081789551631 0.00030718428899544764 0.0 0.001245978042140965 0.0 0.0
-0.0002913421186828489 -1.3752759616243706e-05 0.0 0.0008715605504260154 0.0 0.0
-9.342196100782262e-05 -9.510625298914856e-05 0.0 0.00046589478166261165 0.0 0.0
-0.0001196621929893087 -1.4602712632962974e-05 0.0 -0.0003021483651702003 0.0 0.0
-0.0003222172006979623 4.202801454747756e-05 0.0 -0.0005894268434658757 0.0 0.0
-0.0008052987510430156 0.00033950858676646737 0.0 -0.0008735819793434316 0.0 0.0
-0.001377691082150829 0.0005886257808389349 0.0 -0.0008646202135497734 0.0 0.0
-0.0021387048489879194 0.0009205707925363923 0.0 -0.0006706849755306172 0.0 0.0
-0.0035823699453015855 0.001888337927626035 0.0 -0.0006337971960779903 0.0 0.0
-0.0062067868591087665 0.0041174774568226566 0.0 -0.0010538280126303463 0.0 0.0
-0.010264597557202776 0.007842610747505292 0.0 -0.0017978807863078346 0.0 0.0
-0.015878356217813184 0.01317533426570598 0.0 -0.0028360245747065258 0.0 0.0
-0.023054147382849464 0.02009329459180121 0.0 -0.004088316560007503 0.0 0.0
-0.031698854970741576 0.028473322885419594 0.0 -0.005429371928054516 0.0 0.0
-0.04171305035798354 0.03820691966613247 0.0 -0.006749535390578085 0.0 0.0
-0.05304881683927975 0.04925092410928955 0.0 -0.008057099426232374 0.0 0.0
-0.06568882748941669 0.061607966486811036 0.0 -0.009454961026596409 0.0 0.0
-0.07954062728222276 0.07521393413868524 0.0 -0.010939201843017034 0.0 0.0
-0.09431423042119323 0.08981159927026301 0.0 -0.012283538142452496 0.0 0.0
-0.10929024645986471 0.10473838163455478 0.0 -0.013199434201129569 0.0 0.0
-0.12261920057408807 0.11837164929318589 0.0 -0.014531065159538857 0.0 0.0
-0.13011603680569542 0.12701848152861 0.0 -0.02055852848327335 0.0 0.0
-0.12515236224012827 0.12385718770953419 0.0 -0.037850384518357316 0.0 0.0
-0.11861026823951627 0.10022596697770612 0.0 1.2498682644412895e-14 0.0 0.0
-0.12515236224010795 0.12385718770951362 0.0 0.0378503845183859 0.0 0.0
-0.1301160368056555 0.12701848152857625 0.0 0.020558528483300424 0.0 0.0
-0.12261920057403229 0.11837164929313235 0.0 0.014531065159552548 0.0 0.0
-0.10929024645979882 0.1047383816344875 0.0 0.013199434201128964 0.0 0.0
-0.09431423042112198 0.08981159927019859 0.0 0.01228353814244917 0.0 0.0
-0.07954062728215003 0.07521393413860908 0.0 0.010939201843014492 0.0 0.0
-0.0656888274893444 0.06160796648673743 0.0 0.009454961026589005 0.0 0.0
-0.05304881683920783 0.04925092410921889 0.0 0.008057099426224255 0.0 0.0
-0.0417130503579161 0.03820691966606677 0.0 0.0067495353905686305 0.0 0.0
-0.031698854970682554 0.0284733228853667 0.0 0.005429371928041673 0.0 0.0
-0.023054147382800604 0.020093294591754 0.0 0.004088316559997156 0.0 0.0
-0.015878356217775443 0.013175334265667964 0.0 0.00283602457469962 0.0 0.0
-0.010264597557175773 0.007842610747479977 0.0 0.0017978807863022542 0.0 0.0
-0.006206786859092068 0.004117477456809306 0.0 0.0010538280126254152 0.0 0.0
-0.003582369945293243 0.0018883379276192574 0.0 0.0006337971960763951 0.0 0.0
-0.0021387048489851907 0.0009205707925369327 0.0 0.0006706849755302407 0.0 0.0
-0.0013776910821498593 0.0005886257808393087 0.0 0.0008646202135503179 0.0 0.0
-0.0008052987510424758 0.00033950858676666296 0.0 0.0008735819793423474 0.0 0.0
-0.0003222172006978528 4.2028014547580654e-05 0.0 0.0005894268434655894 0.0 0.0
-0.00011966219298906592 -1.4602712633130505e-05 0.0 0.00030214836516952317 0.0 0.0
-0.00011990735163118984 1.3849163238097536e-05 0.0 -0.00017114746758224112 0.0 0.0
-0.00032887781520237207 7.886748067459987e-05 0.0 -0.00029523933862018683 0.0 0.0
-0.0008571051635907938 0.00036268448561337037 0.0 -0.00042634498819155365 0.0 0.0
-0.001523118318175625 0.0006351969813609536 0.0 -0.0004112441215021239 0.0 0.0
-0.00246655157449811 0.0010807125307294562 0.0 -0.0002526722320463122 0.0 0.0
-0.004234776047373304 0.002397055684987234 0.0 -0.00022907740948363973 0.0 0.0
-0.007273868684280749 0.005073337134981048 0.0 -0.0004633472946705796 0.0 0.0
-0.011824199233956572 0.009289255246166804 0.0 -0.0008475261003685136 0.0 0.0
-0.0180676454043498 0.015242116057196442 0.0 -0.0013830082141850187 0.0 0.0
-0.02605335182297527 0.022949428611610905 0.0 -0.0020446801960018767 0.0 0.0
-0.035716414129051244 0.03232654374709676 0.0 -0.002756449728210751 0.0 0.0
-0.046965465199319274 0.04327552023550458 0.0 -0.0034695197044862787 0.0 0.0
-0.059739077900528265 0.05573795141533279 0.0 -0.00422067295640572 0.0 0.0
-0.0739626478728154 0.06966527405072484 0.0 -0.005042020983713867 0.0 0.0
-0.0894413386055952 0.08490464931584073 0.0 -0.005910326164759901 0.0 0.0
-0.10570841384836939 0.1010276049694315 0.0 -0.006675094529322319 0.0 0.0
-0.12188467663099584 0.11717047908612405 0.0 -0.006987019727085712 0.0 0.0
-0.13648774624300447 0.13184131926465958 0.0 -0.006857203085547419 0.0 0.0
-0.146301797440493 0.14228118625313693 0.0 -0.009543671747209184 0.0 0.0
-0.1435737371728677 0.1424684500145824 0.0 -0.0276350942315734 0.0 0.0
-0.13770780872971586 0.11958073832671234 0.0 6.565928356572215e-15 0.0 0.0
-0.14357373717284452 0.14246845001456357 0.0 0.02763509423158978 0.0 0.0
-0.14630179744044744 0.14228118625309288 0.0 0.00954367174722679 0.0 0.0
-0.13648774624294102 0.13184131926459447 0.0 0.006857203085553572 0.0 0.0
-0.12188467663092138 0.11717047908605174 0.0 0.006987019727085399 0.0 0.0
-0.10570841384828931 0.10102760496935748 0.0 0.0066750945293208835 0.0 0.0
-0.08944133860551418 0.08490464931576053 0.0 0.0059103261647588425 0.0 0.0
-0.07396264787273485 0.069665274050645 0.0 0.005042020983710136 0.0 0.0
-0.05973907790044841 0.055737951415253034 0.0 0.004220672956402596 0.0 0.0
-0.04696546519924437 0.043275520235433615 0.0 0.0034695197044793897 0.0 0.0
-0.03571641412898585 0.032326543747038555 0.0 0.002756449728204592 0.0 0.0
-0.02605335182292194 0.022949428611562718 0.0 0.0020446801959955775 0.0 0.0
-0.01806764540430824 0.015242116057155936 0.0 0.001383008214180862 0.0 0.0
-0.011824199233926235 0.00928925524613806 0.0 0.0008475261003662302 0.0 0.0
-0.007273868684261355 0.005073337134962455 0.0 0.00046334729466690776 0.0 0.0
-0.004234776047362988 0.0023970556849785252 0.0 0.0002290774094832659 0.0 0.0
-0.002466551574494356 0.0010807125307276475 0.0 0.0002526722320460724 0.0 0.0
-0.0015231183181747194 0.0006351969813616255 0.0 0.0004112441215030803 0.0 0.0
-0.0008571051635902978 0.00036268448561248815 0.0 0.00042634498819080674 0.0 0.0
-0.00032887781520198604 7.886748067464081e-05 0.0 0.0002952393386216697 0.0 0.0
-0.00011990735163084436 1.384916323785059e-05 0.0 0.00017114746757953408 0.0 0.0
-7.912539563075422e-05 1.518623689504915e-05 0.0 -0.00010613138644832671 0.0 0.0
-0.0002942446497073187 9.095959496018855e-05 0.0 -0.00012261158761795466 0.0 0.0
-0.0008905198346352867 0.0003711924777009718 0.0 -0.00014378367413037183 0.0 0.0
-0.001695659966759161 0.0006614672145398752 0.0 -0.00010883620683397368 0.0 0.0
-0.002852808431837821 0.0011769042997301512 0.0 0.00010143756998781488 0.0 0.0
-0.0049350975813376675 0.002672023939773579 0.0 0.0002870204392001433 0.0 0.0
-0.008357116999852969 0.005561259812432762 0.0 0.0003656622223196709 0.0 0.0
-0.013370062259580862 0.010015072205226383 0.0 0.0003943943773640874 0.0 0.0
-0.020212176219204434 0.016269524050317986 0.0 0.0003769601027467347 0.0 0.0
-0.028985100193171475 0.024366154034054677 0.0 0.0002839911032514893 0.0 0.0
-0.039659847075474534 0.0342395269665367 0.0 0.00015857611733593189 0.0 0.0
-0.052152086062860245 0.04579910185405651 0.0 9.720425979374558e-07 0.0 0.0
-0.06635607747006392 0.05897205468505194 0.0 -0.00023664628968418384 0.0 0.0
-0.08214034000076376 0.07367864895401109 0.0 -0.0005254108084036769 0.0 0.0
-0.09922625893682888 0.08972916209454547 0.0 -0.0009105910461238778 0.0 0.0
-0.11697461253552359 0.10660775949486517 0.0 -0.0013413729604579549 0.0 0.0
-0.13423683636158087 0.1233178489040317 0.0 -0.0016237119744548206 0.0 0.0
-0.1493888175230153 0.138349939426989 0.0 -0.0014818950495567359 0.0 0.0
-0.16059871238158704 0.14948657335307367 0.0 -0.002562410115985273 0.0 0.0
-0.1633114703097916 0.15207656994287572 0.0 -0.020363986469977828 0.0 0.0
-0.16163514934725312 0.13037863340844688 0.0 1.6792123247455493e-15 0.0 0.0
-0.16331147030976584 0.1520765699428596 0.0 0.02036398646998379 0.0 0.0
-0.1605987123815357 0.14948657335302845 0.0 0.0025624101159921232 0.0 0.0
-0.14938881752294297 0.1383499394269135 0.0 0.0014818950495550012 0.0 0.0
-0.13423683636149672 0.12331784890395729 0.0 0.001623711974454144 0.0 0.0
-0.11697461253543494 0.1066077594947843 0.0 0.001341372960460191 0.0 0.0
-0.0992262589367395 0.08972916209446219 0.0 0.000910591046124079 0.0 0.0
-0.08214034000067423 0.07367864895393084 0.0 0.0005254108084015597 0.0 0.0
-0.06635607746997615 0.05897205468496623 0.0 0.00023664628968436685 0.0 0.0
-0.05215208606277792 0.045799101853979264 0.0 -9.720426011640415e-07 0.0 0.0
-0.0396598470754027 0.03423952696647366 0.0 -0.000158576117338282 0.0 0.0
-0.028985100193113594 0.02436615403400393 0.0 -0.00028399110325335025 0.0 0.0
-0.020212176219158714 0.016269524050279215 0.0 -0.00037696010274843386 0.0 0.0
-0.013370062259547177 0.010015072205194889 0.0 -0.000394394377362292 0.0 0.0
-0.008357116999831018 0.005561259812413 0.0 -0.00036566222232089964 0.0 0.0
-0.004935097581325513 0.0026720239397634467 0.0 -0.00028702043919870694 0.0 0.0
-0.002852808431832934 0.0011769042997283187 0.0 -0.00010143756998790866 0.0 0.0
-0.0016956599667576648 0.0006614672145401705 0.0 0.00010883620683555819 0.0 0.0
-0.0008905198346347764 0.0003711924777000876 0.0 0.00014378367413005075 0.0 0.0
-0.00029424464970704157 9.095959495977256e-05 0.0 0.00012261158761991676 0.0 0.0
-7.912539563061243e-05 1.5186236895039548e-05 0.0 0.00010613138644625208 0.0 0.0
SCALARS Statev float 8
LOOKUP_TABLE default
0.0 0.017616885347178868 0.014096364692171123 -0.016832557743157218 0.0027361930509860973 -0.00087694782372354 0.0 0.0
0.0 0.005913134804064923 0.004331923931333742 -0.0026507542301388463 -0.0016811697011948957 -0.006636919408313029 0.0 0.0
0.0 9.039712300511099e-05 0.00013765872075097009 -8.574456465513142e-05 -5.19141560958388e-05 -0.00025688532973379777 0.0 0.0
0.0 0.00013740918554004918 5.316914632540414e-05 -3.810792454041286e-05 -1.5061221784991423e-05 1.8193861166586633e-05 0.0 0.0
0.0 0.0008602567905019564 0.0005490722435813813 -0.0004004518679003086 -0.00014862037568107286 0.0001181258603432306 0.0 0.0
0.0 0.00220386254571474 0.002199818966527902 -0.0017307629142919163 -0.0004690560522359874 0.00024860384402573593 0.0 0.0
0.0 0.0056575832778384405 0.005202624761310679 -0.004417156311253628 -0.0007854684500570432 0.0003508790312877128 0.0 0.0
0.0 0.010892832436206947 0.009863661741656399 -0.00882208440612683 -0.0010415773355295739 0.0004013389769861826 0.0 0.0
0.0 0.01827783581989191 0.016357661729758898 -0.015097675388112467 -0.0012599863416464145 0.00040229810465011696 0.0 0.0
0.0 0.02792943813006836 0.024762084556468274 -0.0232700793035329 -0.0014920052529354111 0.0003324786801089946 0.0 0.0
0.0 0.039801347144000444 0.03504712039508907 -0.03328580847950177 -0.001761311915587239 0.00022670326761514259 0.0 0.0
0.0 0.05347703504181128 0.04713974934569853 -0.04506745232668191 -0.002072297019016607 8.106335668631669e-05 0.0 0.0
0.0 0.06920726673767756 0.06094591023948197 -0.058530419885412244 -0.0024154903540696943 -0.00014748351390972208 0.0 0.0
0.0 0.08682032910269877 0.0763690652265142 -0.07359023605725362 -0.002778829169260454 -0.0004074407584728566 0.0 0.0
0.0 0.10612179027388575 0.09323561747831297 -0.09009088795963635 -0.0031447295186765463 -0.0007396187924457148 0.0 0.0
0.0 0.12668627351167874 0.1111373782531915 -0.10764330117137513 -0.0034940770818164286 -0.0011427853567979145 0.0 0.0
0.0 0.14760727020942171 0.12931860789858926 -0.125510305516431 -0.003808302382158282 -0.0015445294258031187 0.0 0.0
0.0 0.16757915855994157 0.14665776452267484 -0.14258942370436467 -0.004068340818310093 -0.001792052786067142 0.0 0.0
0.0 0.18498716983966293 0.1617653571529929 -0.15749835438674273 -0.004267002766250041 -0.001708205959047793 0.0 0.0
0.0 0.19771759740007722 0.17300180866736597 -0.1686213848714795 -0.004380423795886646 -0.0018292546659656778 0.0 0.0
0.0 0.20297865602516837 0.1774848739704975 -0.17312036985713 -0.004364504113367497 2.8622937353617317e-15 0.0 0.0
0.0 0.1977175974000489 0.17300180866734158 -0.16862138487145487 -0.004380423795886562 0.001829254665972892 0.0 0.0
0.0 0.1849871698396084 0.16176535715294502 -0.15749835438669593 -0.004267002766249105 0.0017082059590545007 0.0 0.0
0.0 0.16757915855985922 0.14665776452260335 -0.14258942370429356 -0.004068340818309868 0.001792052786070769 0.0 0.0
0.0 0.14760727020932946 0.12931860789850896 -0.1255103055163526 -0.0038083023821563694 0.0015445294258028767 0.0 0.0
0.0 0.1266862735115875 0.11113737825311082 -0.10764330117129728 -0.0034940770818137528 0.0011427853567945049 0.0 0.0
0.0 0.10612179027379502 0.0932356174782333 -0.09009088795955934 -0.0031447295186737925 0.0007396187924449782 0.0 0.0
0.0 0.08682032910260132 0.07636906522642928 -0.07359023605717038 -0.002778829169259009 0.00040744075847015844 0.0 0.0
0.0 0.06920726673758439 0.06094591023940062 -0.05853041988533285 -0.002415490354067727 0.00014748351390819585 0.0 0.0
0.0 0.053477035041723214 0.04713974934562146 -0.04506745232660632 -0.00207229701901509 -8.106335668763183e-05 0.0 0.0
0.0 0.03980134714392807 0.03504712039502548 -0.033285808479440196 -0.0017613119155852506 -0.00022670326761735013 0.0 0.0
0.0 0.027929438130007984 0.02476208455641541 -0.02327007930348161 -0.0014920052529338182 -0.0003324786801105795 0.0 0.0
0.0 0.01827783581984755 0.016357661729719704 -0.015097675388074435 -0.0012599863416452447 -0.0004022981046502889 0.0 0.0
0.0 0.010892832436175242 0.009863661741627713 -0.008822084406099485 -0.0010415773355282236 -0.0004013389769859208 0.0 0.0
0.0 0.005657583277817957 0.0052026247612914096 -0.004417156311235926 -0.0007854684500554803 -0.0003508790312873469 0.0 0.0
0.0 0.0022038625457055467 0.0021998189665185393 -0.0017307629142840554 -0.00046905605223448326 -0.0002486038440248573 0.0 0.0
0.0 0.0008602567904972598 0.0005490722435779943 -0.0004004518678978296 -0.00014862037568016333 -0.00011812586034241767 0.0 0.0
0.0 0.0001374091855394526 5.31691463256537e-05 -3.8107924540615635e-05 -1.5061221785037477e-05 -1.8193861166528153e-05 0.0 0.0
0.0 9.039712300454067e-05 0.00013765872075060506 -8.574456465491e-05 -5.1914156095694636e-05 0.00025688532973269904 0.0 0.0
0.0 0.0059131348040547625 0.004331923931328394 -0.0026507542301349657 -0.0016811697011934307 0.006636919408303932 0.0 0.0
0.0 0.017616885347158134 0.014096364692157106 -0.016832557743137896 0.002736193050980794 0.0008769478236862512 0.0 0.0
0.0 0.014328326186501754 0.010713057654954797 -0.013889899432173908 0.003176841777219098 -0.0003984123650569234 0.0 0.0
0.0 0.0035911489900572824 0.002573767389528613 -0.0015495864052429975 -0.0010241809842856115 -0.005174114197616023 0.0 0.0
0.0 -6.609288506241815e-05 -6.502014717296836e-05 5.707502530015364e-05 7.945121872814733e-06 -6.372087041974224e-05 0.0 0.0
0.0 2.522085234670703e-05 1.6714410945257935e-05 -1.2062590111562297e-05 -4.651820833695674e-06 8.503005209362225e-06 0.0 0.0
0.0 0.0004536953300222821 0.0003456270684755556 -0.0002540655489135612 -9.156151956199393e-05 4.8166957390465984e-05 0.0 0.0
0.0 0.00193237774001091 0.001665273924520811 -0.001322651004695345 -0.00034262291982546726 5.350915341785648e-05 0.0 0.0
0.0 0.004779621231222608 0.004389677354773963 -0.003770032518980966 -0.0006196448357929921 -0.0001706455036281904 0.0 0.0
0.0 0.009635230348627934 0.00865846199383354 -0.00784946496010149 -0.0008089970337320541 -0.0005483594258736686 0.0 0.0
0.0 0.016524857075860745 0.014648632867233412 -0.013718738014252836 -0.0009298948529805662 -0.00107774091434517 0.0 0.0
0.0 0.025453331571473052 0.022396463665435698 -0.02136691286720076 -0.001029550798234924 -0.0017300776175218657 0.0 0.0
0.0 0.03637801307637961 0.031840573222235755 -0.03071298020266523 -0.0011275930195705562 -0.002442238766995229 0.0 0.0
0.0 0.04930248666216157 0.042897599451784604 -0.04166855652933729 -0.001229042922447296 -0.003169726097484266 0.0 0.0
0.0 0.06357844301611268 0.055517264631764665 -0.05418345253834759 -0.001333812093417007 -0.003940157506758434 0.0 0.0
0.0 0.07987316071076277 0.06963466915696076 -0.06819978404707684 -0.001434885109883884 -0.0047636116287843935 0.0 0.0
0.0 0.09772015401813541 0.08510411456745359 -0.08358294636242489 -0.0015211682050285844 -0.0056212613945521885 0.0 0.0
0.0 0.11673898132256941 0.10156586792356276 -0.09998267370382088 -0.0015831942197419623 -0.0064501576717430386 0.0 0.0
0.0 0.1361731530798564 0.11834140729233765 -0.11672638073102301 -0.0016150265613145056 -0.007051098298288811 0.0 0.0
0.0 0.15483984861251593 0.134413826578013 -0.1327962200861234 -0.00161760649188971 -0.00710475759805173 0.0 0.0
0.0 0.17113716640457097 0.14844493183357613 -0.1468568866908107 -0.0015880451427654355 -0.006371458938064105 0.0 0.0
0.0 0.18302557782405074 0.15861628736452146 -0.1571416217712025 -0.0014746655933189268 -0.005254285517431609 0.0 0.0
0.0 0.1880553471847376 0.16257238250549316 -0.1612748687132519 -0.0012975137922413315 7.0464467594177904e-15 0.0 0.0
0.0 0.18302557782402512 0.15861628736449893 -0.15714162177117988 -0.0014746655933189432 0.0052542855174491105 0.0 0.0
0.0 0.17113716640452234 0.14844493183353386 -0.1468568866907688 -0.0015880451427649205 0.006371458938082615 0.0 0.0
0.0 0.1548398486124428 0.13441382657795026 -0.13279622008605996 -0.001617606491890195 0.007104757598061434 0.0 0.0
0.0 0.13617315307977257 0.11834140729226546 -0.1167263807309511 -0.0016150265613143638 0.007051098298289815 0.0 0.0
0.0 0.1167389813224844 0.10156586792348886 -0.0999826737037476 -0.001583194219741004 0.006450157671738299 0.0 0.0
0.0 0.09772015401805109 0.08510411456737964 -0.08358294636235271 -0.001521168205027043 0.00562126139455065 0.0 0.0
0.0 0.0798731607106758 0.06963466915688533 -0.06819978404700201 -0.00143488510988327 0.004763611628781063 0.0 0.0
0.0 0.06357844301602655 0.05551726463169018 -0.05418345253827353 -0.001333812093416711 0.003940157506754788 0.0 0.0
0.0 0.04930248666208241 0.04289759945171573 -0.04166855652926871 -0.0012290429224470361 0.0031697260974793786 0.0 0.0
0.0 0.03637801307631039 0.03184057322217576 -0.030712980202605863 -0.0011275930195699248 0.0024422387669879664 0.0 0.0
0.0 0.025453331571418443 0.022396463665387625 -0.02136691286715329 -0.001029550798234327 0.00173007761751697 0.0 0.0
0.0 0.016524857075820226 0.01464863286719731 -0.013718738014217422 -0.0009298948529798905 0.0010777409143420615 0.0 0.0
0.0 0.009635230348598247 0.008658461993806859 -0.007849464960075634 -0.0008089970337312391 0.0005483594258707482 0.0 0.0
0.0 0.00477962123120418 0.004389677354756958 -0.003770032518965162 -0.000619644835791792 0.00017064550362647543 0.0 0.0
0.0 0.0019323777400020521 0.0016652739245130396 -0.0013226510046888081 -0.00034262291982423067 -5.35091534179988e-05 0.0 0.0
0.0 0.00045369533001912504 0.00034562706847341356 -0.00025406554891197966 -9.156151956143398e-05 -4.8166957390073225e-05 0.0 0.0
0.0 2.522085234620596e-05 1.671441094544961e-05 -1.206259011171778e-05 -4.651820833731648e-06 -8.503005209332262e-06 0.0 0.0
0.0 -6.609288506215387e-05 -6.502014717269501e-05 5.7075025299895505e-05 7.945121872799376e-06 6.372087041942048e-05 0.0 0.0
0.0 0.003591148990047156 0.002573767389523149 -0.0015495864052391438 -0.0010241809842840063 0.0051741141976053345 0.0 0.0
0.0 0.01432832618647946 0.01071305765493773 -0.013889899432152424 0.003176841777214689 0.00039841236502909143 0.0 0.0
0.0 0.010629930809998795 0.007777789141200107 -0.010368104679589096 0.002590315538388987 -0.0027642039844744145 0.0 0.0
0.0 0.002497054073036873 0.001585107375988976 -0.0008548075704053621 -0.0007302998055836157 -0.00426296387883111 0.0 0.0
0.0 1.3572439886453042e-07 9.29268532050117e-08 -7.976544280157771e-08 -1.3161410403434096e-08 6.482232109277628e-08 0.0 0.0
0.0 -3.6001404192107433e-06 -5.014770734125336e-06 3.953240587865057e-06 1.0615301462601518e-06 2.811485978830732e-06 0.0 0.0
0.0 0.000183267042473836 0.00014858777590114563 -0.00010609566988325163 -4.249210601789435e-05 1.5014698882763475e-05 0.0 0.0
0.0 0.0013560747996585153 0.0011115045968728419 -0.0008597928385932641 -0.00025171175827957683 -5.7894058727872864e-05 0.0 0.0
0.0 0.003663376436089636 0.003429066816446234 -0.0028839766306503097 -0.0005450901857959248 -0.0005008737066757553 0.0 0.0
0.0 0.008007434753432059 0.0072031164415640465 -0.006448055709316153 -0.0007550607322478887 -0.0012402052268148606 0.0 0.0
0.0 0.01415674915493611 0.012565456397774783 -0.011681421053575551 -0.0008840353441992314 -0.002261677353223835 0.0 0.0
0.0 0.02222545100153711 0.019506485216950895 -0.018526789562874207 -0.0009796956540766945 -0.003498702405669597 0.0 0.0
0.0 0.032023729859761506 0.02793554459146828 -0.02686436235473192 -0.0010711822367363312 -0.004842586162868716 0.0 0.0
0.0 0.04333092270884618 0.037763297419525936 -0.03659677894255838 -0.0011665184769675185 -0.006192221419329749 0.0 0.0
0.0 0.056450347534411985 0.048949492138286255 -0.04768456809245402 -0.0012649240458322336 -0.007543571926986041 0.0 0.0
0.0 0.07067088112101895 0.061486793508476384 -0.060127271353806556 -0.0013595221546697524 -0.008974182299691073 0.0 0.0
0.0 0.0866056596946644 0.0752658627340046 -0.0738247967180636 -0.001441066015941067 -0.01047665057323874 0.0 0.0
0.0 0.10363146503740271 0.08999128876607149 -0.08849038969215668 -0.001500899073914667 -0.011900257928044698 0.0 0.0
0.0 0.1211088600315672 0.1050965698672269 -0.10356180413941589 -0.0015347657278111204 -0.01291083787836215 0.0 0.0
0.0 0.1379876231523402 0.1196846380590292 -0.11814629775660097 -0.0015383403024281698 -0.013019183151364008 0.0 0.0
0.0 0.15279615232594573 0.1324544910822444 -0.13095917672320664 -0.001495314359037668 -0.01184803433296942 0.0 0.0
0.0 0.16355666189779497 0.14169462615028125 -0.14027184447343152 -0.001422781676849536 -0.00932808368690133 0.0 0.0
0.0 0.1683014294855647 0.14539351050458416 -0.1441841857296693 -0.001209324774914921 1.2741110250180654e-14 0.0 0.0
0.0 0.16355666189777124 0.14169462615025963 -0.14027184447340968 -0.0014227816768499393 0.009328083686932463 0.0 0.0
0.0 0.15279615232590327 0.1324544910822071 -0.13095917672316973 -0.0014953143590375514 0.011848034333001196 0.0 0.0
0.0 0.1379876231522765 0.11968463805897392 -0.11814629775654556 -0.0015383403024282626 0.01301918315138302 0.0 0.0
0.0 0.12110886003149526 0.1050965698671652 -0.10356180413935458 -0.0015347657278106017 0.012910837878363977 0.0 0.0
0.0 0.10363146503732361 0.0899912887660029 -0.08849038969208829 -0.0015008990739146595 0.011900257928038008 0.0 0.0
0.0 0.08660565969458885 0.07526586273393857 -0.07382479671799914 -0.00144106601593945 0.010476650573235267 0.0 0.0
0.0 0.07067088112094037 0.061486793508408195 -0.060127271353738736 -0.0013595221546694512 0.008974182299686393 0.0 0.0
0.0 0.05645034753433406 0.04894949213821896 -0.047684568092386984 -0.0012649240458319606 0.007543571926978747 0.0 0.0
0.0 0.043330922708777156 0.037763297419466296 -0.03659677894249915 -0.0011665184769670714 0.006192221419320557 0.0 0.0
0.0 0.03202372985969859 0.027935544591413536 -0.026864362354677283 -0.0010711822367362595 0.004842586162857062 0.0 0.0
0.0 0.022225451001488265 0.01950648521690785 -0.018526789562831672 -0.0009796956540761655 0.003498702405660299 0.0 0.0
0.0 0.014156749154899437 0.012565456397742373 -0.011681421053543844 -0.0008840353441985407 0.002261677353217556 0.0 0.0
0.0 0.008007434753405767 0.007203116441540898 -0.0064480557092937854 -0.0007550607322471047 0.0012402052268095786 0.0 0.0
0.0 0.003663376436075293 0.003429066816432826 -0.0028839766306381744 -0.0005450901857946541 0.0005008737066728925 0.0 0.0
0.0 0.0013560747996519723 0.0011115045968674007 -0.0008597928385888689 -0.0002517117582785311 5.789405872721645e-05 0.0 0.0
0.0 0.00018326704247166982 0.0001485877758998603 -0.00010609566988232992 -4.249210601753046e-05 -1.501469888263932e-05 0.0 0.0
0.0 -3.600140419205356e-06 -5.014770733831058e-06 3.953240587646618e-06 1.0615301461844628e-06 -2.8114859787465302e-06 0.0 0.0
0.0 1.357243988514106e-07 9.292685321573681e-08 -7.976544281041078e-08 -1.3161410405325764e-08 -6.48223210994416e-08 0.0 0.0
0.0 0.002497054073029018 0.001585107375984238 -0.0008548075704022093 -0.0007302998055820262 0.00426296387881884 0.0 0.0
0.0 0.01062993080997614 0.007777789141183317 -0.010368104679567799 0.002590315538384478 0.0027642039844557754 0.0 0.0
0.0 0.0080217385898699 0.005713394149078161 -0.0077790231599815015 0.0020656290109033245 -0.0030152622487386966 0.0 0.0
0.0 0.0017826819868985333 0.0010611002040299194 -0.0005557247663470594 -0.0005053754376828579 -0.0031830221830547456 0.0 0.0
0.0 0.0 0.0 0.0 0.0 0.0 0.0 0.0
0.0 -1.9730992015563138e-07 -6.409036245392292e-07 5.17062710319907e-07 1.2384091421931892e-07 4.830389590926522e-07 0.0 0.0
0.0 5.2288894119757e-05 2.9877602477438048e-05 -1.936934495360348e-05 -1.0508257523834282e-05 1.2658475130497368e-05 0.0 0.0
0.0 0.0007715602539347701 0.0006703261059667619 -0.0005054374638561226 -0.00016488864211063856 -0.00011371055482093233 0.0 0.0
0.0 0.002847066487902595 0.0025004930206720486 -0.0020507260865873156 -0.00044976693408473365 -0.0006201281954508975 0.0 0.0
0.0 0.006424418661824565 0.005767595823122804 -0.0050804552801751125 -0.0006871405429476916 -0.0016681517671770624 0.0 0.0
0.0 0.01186126723607858 0.010476258993665714 -0.00964593685398195 -0.0008303221396837594 -0.003068864822941023 0.0 0.0
0.0 0.018997457298090884 0.016591518934693475 -0.015666106403288887 -0.0009254125314045838 -0.0047566422736797604 0.0 0.0
0.0 0.027587853289344277 0.023997649460560568 -0.022987149996224983 -0.001010499464335557 -0.006578512989565067 0.0 0.0
0.0 0.03764574311638462 0.03259444280585795 -0.03149554763108501 -0.0010988951747729124 -0.008401185337874357 0.0 0.0
0.0 0.048833761629224495 0.0423583206365115 -0.04116695645846844 -0.0011913641780431136 -0.010214958900942619 0.0 0.0
0.0 0.06174445626190493 0.05329605899329311 -0.05201713773720835 -0.0012789212560847612 -0.012096428395060584 0.0 0.0
0.0 0.07561987459304235 0.06536382256895526 -0.06400870523761776 -0.0013551173313374354 -0.014060861181469984 0.0 0.0
0.0 0.09046085429755434 0.07834239883814134 -0.07692769846619943 -0.0014147003719419174 -0.01594080759719673 0.0 0.0
0.0 0.10607807521858198 0.09177163036220395 -0.09032110843684261 -0.0014505219253613262 -0.017319613984446175 0.0 0.0
0.0 0.12124127774708289 0.10487838793283338 -0.10342440015208984 -0.001453987780743503 -0.017604407515278194 0.0 0.0
0.0 0.13463887303495742 0.11648266349611458 -0.11506323795020411 -0.0014194255459104906 -0.01617602864869558 0.0 0.0
0.0 0.1445294162172879 0.12507725759443172 -0.12370920266437357 -0.0013680549300583479 -0.01226670452648466 0.0 0.0
0.0 0.14926349713089113 0.12872371248600362 -0.12765488950246093 -0.0010688229835426736 1.819855030560369e-14 0.0 0.0
0.0 0.1445294162172662 0.12507725759441174 -0.12370920266435236 -0.0013680549300593783 0.012266704526526857 0.0 0.0
0.0 0.1346388730349171 0.11648266349607897 -0.11506323795016775 -0.0014194255459112108 0.01617602864873522 0.0 0.0
0.0 0.12124127774702795 0.10487838793278542 -0.10342440015204162 -0.001453987780743795 0.0176044075153026 0.0 0.0
0.0 0.10607807521852401 0.09177163036215369 -0.09032110843679346 -0.001450521925360223 0.01731961398445008 0.0 0.0
0.0 0.09046085429748525 0.07834239883808189 -0.07692769846613967 -0.0014147003719421653 0.015940807597189643 0.0 0.0
0.0 0.0756198745929742 0.06536382256889564 -0.06400870523755933 -0.0013551173313363263 0.014060861181463767 0.0 0.0
0.0 0.06174445626183768 0.05329605899323486 -0.05201713773715008 -0.0012789212560848028 0.012096428395054492 0.0 0.0
0.0 0.048833761629155245 0.042358320636452076 -0.041166956458409246 -0.0011913641780428288 0.010214958900932092 0.0 0.0
0.0 0.03764574311632519 0.03259444280580598 -0.031495547631034 -0.0010988951747720069 0.008401185337860812 0.0 0.0
0.0 0.02758785328929018 0.023997649460513686 -0.02298714999617849 -0.0010104994643351773 0.0065785129895512325 0.0 0.0
0.0 0.018997457298045427 0.01659151893465396 -0.015666106403250002 -0.0009254125314039468 0.004756642273665905 0.0 0.0
0.0 0.011861267236045792 0.0104762589936372 -0.00964593685395396 -0.0008303221396832312 0.0030688648229322477 0.0 0.0
0.0 0.006424418661804292 0.005767595823104236 -0.005080455280157518 -0.0006871405429467135 0.0016681517671706325 0.0 0.0
0.0 0.002847066487888895 0.0025004930206605396 -0.002050726086577227 -0.00044976693408331297 0.0006201281954469414 0.0 0.0
0.0 0.0007715602539299482 0.0006703261059631699 -0.0005054374638533818 -0.0001648886421097886 0.00011371055482019377 0.0 0.0
0.0 5.228889411896058e-05 2.9877602477358484e-05 -1.936934495357192e-05 -1.0508257523786563e-05 -1.2658475130116235e-05 0.0 0.0
0.0 -1.9730992065122274e-07 -6.409036246510477e-07 5.170627104064131e-07 1.2384091424465595e-07 -4.830389591696176e-07 0.0 0.0
0.0 0.0 0.0 0.0 0.0 0.0 0.0 0.0
0.0 0.0017826819868913565 0.001061100204025782 -0.0005557247663443046 -0.0005053754376814792 0.0031830221830437266 0.0 0.0
0.0 0.008021738589850837 0.0057133941490633035 -0.007779023159962457 0.002065629010899154 0.003015262248725253 0.0 0.0
0.0 0.005842509060613655 0.00414018715408983 -0.005738356781556993 0.0015981696274671663 -0.0025986482746513857 0.0 0.0
0.0 0.0014217771906777903 0.000680489950846273 -0.00034450387417260726 -0.0003359860766736652 -0.0022422633658713636 0.0 0.0
0.0 0.0 0.0 0.0 0.0 0.0 0.0 0.0
0.0 -3.928661842962275e-07 3.680369054692991e-08 -2.789401033587698e-08 -8.909680211051584e-09 -2.399627540859741e-08 0.0 0.0
0.0 -1.8256257448662265e-05 -7.984052692947596e-06 7.256734722540796e-06 7.273179704068137e-07 1.4404496596374678e-05 0.0 0.0
0.0 0.0004067532508827615 0.00032033273990620054 -0.00023546918713466348 -8.486355277153702e-05 -8.743993718093014e-05 0.0 0.0
0.0 0.002053865348409187 0.0016749085765185336 -0.0013365327644526736 -0.0003383758120658574 -0.0006194134308981028 0.0 0.0
0.0 0.0049187827070405615 0.00437413891362676 -0.0037712280424789177 -0.0006029108711478471 -0.0017917711108712375 0.0 0.0
0.0 0.009605160461420811 0.00840701329685663 -0.0076416437776409265 -0.0007653695192157051 -0.003491509921427629 0.0 0.0
0.0 0.015768384355048706 0.013678769838434456 -0.012814495269654634 -0.0008642745687798117 -0.005497078805489433 0.0 0.0
0.0 0.023243130790956714 0.020052865724796604 -0.019108236024254696 -0.0009446297005419181 -0.007651256192423607 0.0 0.0
0.0 0.03188582323525202 0.027419888968723626 -0.026394033561779752 -0.0010258554069438772 -0.009798563948601083 0.0 0.0
0.0 0.041717450952894405 0.03575657552215991 -0.03464561670865786 -0.0011109588135019847 -0.01192941290931826 0.0 0.0
0.0 0.05239137268568439 0.04510429359374346 -0.043911050389597014 -0.0011932432041464429 -0.014127449324232065 0.0 0.0
0.0 0.06452678663901884 0.055447237374664234 -0.054182870799508634 -0.0012643665751555996 -0.016396898501026307 0.0 0.0
0.0 0.07762572644597854 0.06664778701459688 -0.06532703529434687 -0.001320751720249972 -0.018559923971323222 0.0 0.0
0.0 0.09105708560766561 0.0783710332397912 -0.07701163848451592 -0.0013593947552752931 -0.020227633434669476 0.0 0.0
0.0 0.10446365571861362 0.08998844537838682 -0.08861779305826688 -0.0013706523201200461 -0.02077302918229794 0.0 0.0
0.0 0.11657499180501704 0.10051216436112802 -0.09916458324652962 -0.0013475811145983035 -0.01925925626475654 0.0 0.0
0.0 0.12586577534152454 0.10864189754984961 -0.10733704661822627 -0.0013048509316232462 -0.014469448828282524 0.0 0.0
0.0 0.13075770682277826 0.11235306513567322 -0.111453042402268 -0.0009000227334052272 2.1592536786352312e-14 0.0 0.0
0.0 0.1258657753415094 0.10864189754983436 -0.10733704661821081 -0.0013048509316235001 0.014469448828330306 0.0 0.0
0.0 0.11657499180498096 0.10051216436109514 -0.09916458324649655 -0.0013475811145985464 0.019259256264801017 0.0 0.0
0.0 0.10446365571856955 0.08998844537834766 -0.08861779305822763 -0.0013706523201200975 0.020773029182325226 0.0 0.0
0.0 0.09105708560761672 0.0783710332397485 -0.07701163848447473 -0.001359394755273764 0.02022763343467486 0.0 0.0
0.0 0.07762572644592135 0.06664778701454749 -0.06532703529429748 -0.0013207517202499545 0.01855992397131548 0.0 0.0
0.0 0.06452678663895722 0.05544723737461078 -0.05418287079945567 -0.0012643665751550738 0.016396898501017595 0.0 0.0
0.0 0.05239137268562969 0.04510429359369589 -0.043911050389549816 -0.0011932432041460446 0.014127449324225931 0.0 0.0
0.0 0.0417174509528387 0.03575657552211169 -0.03464561670861 -0.0011109588135016471 0.011929412909307284 0.0 0.0
0.0 0.03188582323520103 0.027419888968679248 -0.026394033561736356 -0.0010258554069428713 0.009798563948585788 0.0 0.0
0.0 0.023243130790911157 0.02005286572475761 -0.01910823602421636 -0.0009446297005412492 0.007651256192406582 0.0 0.0
0.0 0.015768384355008987 0.013678769838400582 -0.012814495269621065 -0.0008642745687795163 0.005497078805473208 0.0 0.0
0.0 0.009605160461392552 0.008407013296832043 -0.00764164377761702 -0.0007653695192150149 0.003491509921417079 0.0 0.0
0.0 0.004918782707022555 0.004374138913610824 -0.003771228042464177 -0.0006029108711466489 0.001791771110864007 0.0 0.0
0.0 0.00205386534839674 0.0016749085765085353 -0.0013365327644441203 -0.00033837581206441644 0.0006194134308934707 0.0 0.0
0.0 0.00040675325087893084 0.00032033273990360523 -0.00023546918713273087 -8.48635527708737e-05 8.743993718000191e-05 0.0 0.0
0.0 -1.8256257448911154e-05 -7.984052692636697e-06 7.256734722288632e-06 7.273179703480166e-07 -1.4404496595876214e-05 0.0 0.0
0.0 -3.9286618413137706e-07 3.680369048238256e-08 -2.7894010287128696e-08 -8.909680195260324e-09 2.3996275319742676e-08 0.0 0.0
0.0 0.0 0.0 0.0 0.0 0.0 0.0 0.0
0.0 0.0014217771906709195 0.0006804899508429229 -0.0003445038741703418 -0.0003359860766725796 0.0022422633658621778 0.0 0.0
0.0 0.005842509060598328 0.004140187154077798 -0.0057383567815412545 0.0015981696274634473 0.0025986482746422415 0.0 0.0
0.0 0.004224349133299042 0.002889581323168224 -0.004069630265295703 0.001180048942127479 -0.002035900955661691 0.0 0.0
0.0 0.0008412221496240104 0.0004110202275378637 -0.00019884309682993527 -0.0002121771307079284 -0.0014937395453694475 0.0 0.0
0.0 0.0 0.0 0.0 0.0 0.0 0.0 0.0
0.0 -4.2389029266421096e-07 3.578078089651338e-08 -2.7338206941992093e-08 -8.442573954521325e-09 -7.103316451673736e-08 0.0 0.0
0.0 -1.2977340599799478e-05 -1.040438385826644e-05 8.29877008944398e-06 2.105613768822474e-06 1.463209910806037e-05 0.0 0.0
0.0 0.0001206820177019743 0.00011213805839975917 -7.973381291894309e-05 -3.240424548081615e-05 -4.30120272314174e-05 0.0 0.0
0.0 0.0011448152298432497 0.0010122423880031995 -0.0007866346278879868 -0.00022560776011521373 -0.0005541877202141448 0.0 0.0
0.0 0.003783396898345649 0.0030538573793029637 -0.002564173911941371 -0.0004896834673615885 -0.0016646491705616033 0.0 0.0
0.0 0.007282621781012756 0.006385084047487438 -0.005701809864342789 -0.0006832741831446482 -0.0035010032769510063 0.0 0.0
0.0 0.012621474932784899 0.010794795138851628 -0.010002135351793172 -0.0007926597870584567 -0.0057089701126448395 0.0 0.0
0.0 0.018913065429862246 0.016129728887938743 -0.015258518835237047 -0.0008712100527016944 -0.008050470406587667 0.0 0.0
0.0 0.026140154940097134 0.02226778216098243 -0.02132174563530645 -0.0009460365256759678 -0.010381016256383251 0.0 0.0
0.0 0.03427175518923119 0.029184806204907404 -0.028160671816766125 -0.0010241343881413022 -0.012680131733868224 0.0 0.0
0.0 0.04344646432023556 0.036933683880919575 -0.03583458572529051 -0.001099098155629073 -0.01503484726578547 0.0 0.0
0.0 0.05347821017429526 0.04555124478718845 -0.04438558830558047 -0.0011656564816080002 -0.01746278716804365 0.0 0.0
0.0 0.06431715935438424 0.05496059433980645 -0.0537406761414609 -0.0012199181983455405 -0.019776986539653204 0.0 0.0
0.0 0.0761819289525185 0.06492187501873459 -0.06366205664040334 -0.001259818378331208 -0.021612914373586818 0.0 0.0
0.0 0.0877442731902832 0.0750076160821349 -0.07372493821699663 -0.0012826778651383256 -0.02240234380195576 0.0 0.0
0.0 0.09842701458826683 0.08448541387649405 -0.08321074049528163 -0.0012746733812124687 -0.021074318391689034 0.0 0.0
0.0 0.10730592031750466 0.09226151701050982 -0.09102559200336323 -0.0012359250071465337 -0.0160216085555273 0.0 0.0
0.0 0.11251572308693054 0.09612709286718124 -0.09542073428534638 -0.0007063585818348299 2.1842770647761967e-14 0.0 0.0
0.0 0.10730592031749149 0.09226151701049523 -0.09102559200334875 -0.0012359250071465582 0.016021608555574232 0.0 0.0
0.0 0.0984270145882388 0.08448541387646719 -0.08321074049525456 -0.001274673381212673 0.021074318391735382 0.0 0.0
0.0 0.08774427319024675 0.075007616082102 -0.07372493821696369 -0.0012826778651382053 0.022402343801983964 0.0 0.0
0.0 0.07618192895247361 0.0649218750186957 -0.06366205664036537 -0.001259818378330325 0.02161291437359133 0.0 0.0
0.0 0.06431715935433563 0.05496059433976465 -0.05374067614141905 -0.0012199181983455838 0.019776986539644943 0.0 0.0
0.0 0.053478210174244256 0.045551244787144306 -0.044385588305537 -0.0011656564816073117 0.017462787168032984 0.0 0.0
0.0 0.043446464320186354 0.036933683880876575 -0.03583458572524798 -0.0010990981556286067 0.015034847265776814 0.0 0.0
0.0 0.034271755189188916 0.029184806204871048 -0.028160671816730667 -0.0010241343881403693 0.012680131733858038 0.0 0.0
0.0 0.026140154940051633 0.02226778216094366 -0.021321745635268036 -0.000946036525675623 0.01038101625636655 0.0 0.0
0.0 0.018913065429824082 0.016129728887906907 -0.015258518835205861 -0.0008712100527010543 0.008050470406569 0.0 0.0
0.0 0.012621474932751998 0.010794795138823726 -0.010002135351765563 -0.0007926597870581511 0.005708970112627443 0.0 0.0
0.0 0.007282621780990307 0.006385084047467708 -0.005701809864323991 -0.0006832741831437218 0.0035010032769396005 0.0 0.0
0.0 0.003783396898330268 0.003053857379290711 -0.002564173911930182 -0.0004896834673605271 0.0016646491705544584 0.0 0.0
0.0 0.0011448152298353552 0.0010122423879970319 -0.0007866346278829412 -0.00022560776011409104 0.0005541877202103092 0.0 0.0
0.0 0.00012068201769978872 0.00011213805839848322 -7.973381291802542e-05 -3.2404245480457695e-05 4.3012027230822185e-05 0.0 0.0
0.0 -1.2977340600468471e-05 -1.0404383857980264e-05 8.298770089221748e-06 2.1056137687584915e-06 -1.4632099107759004e-05 0.0 0.0
0.0 -4.238902924974058e-07 3.578078090016695e-08 -2.733820694471357e-08 -8.44257395545026e-09 7.103316451598948e-08 0.0 0.0
0.0 0.0 0.0 0.0 0.0 0.0 0.0 0.0
0.0 0.0008412221496185961 0.0004110202275354171 -0.00019884309682830707 -0.00021217713070710958 0.0014937395453622593 0.0 0.0
0.0 0.004224349133286566 0.002889581323158468 -0.00406963026528265 0.0011800489421241796 0.002035900955654947 0.0 0.0
0.0 0.002764435612642907 0.0019073457724929537 -0.002721235916791339 0.0008138901442983828 -0.0015092577775601664 0.0 0.0
0.0 0.000502951442255032 0.00020903094981907923 -8.397233076620525e-05 -0.00012505861905287344 -0.0008877094165858737 0.0 0.0
0.0 3.547722962352453e-07 -4.760043067899587e-09 4.283870871274896e-09 4.761721966247399e-10 7.118613590585807e-08 0.0 0.0
0.0 -3.9933846218285653e-07 2.3010864123224606e-08 -1.7665084308602554e-08 -5.345779814626124e-09 -7.114747973550936e-08 0.0 0.0
0.0 -3.8050073375957134e-06 -2.9887163611172673e-06 2.3715302162201985e-06 6.171861448971127e-07 6.575900975088748e-06 0.0 0.0
0.0 -1.932110311183972e-06 1.3104808064408131e-06 1.6235044536944734e-06 -2.933985260135245e-06 2.1165985105578617e-05 0.0 0.0
0.0 0.0006094851768882983 0.0004872986637506777 -0.00037040043656704765 -0.00011689822718362999 -0.00038789222069053375 0.0 0.0
0.0 0.002268760296792973 0.0019208061330086318 -0.0015659848915452101 -0.00035482124146342283 -0.0014178244820702928 0.0 0.0
0.0 0.005601456216280388 0.004435488967940936 -0.003866233977752846 -0.0005692549901880878 -0.003110405472055922 0.0 0.0
0.0 0.009402262092681135 0.007974099042382807 -0.007271607718396963 -0.0007024913239858467 -0.005362451440155489 0.0 0.0
0.0 0.014651514973247739 0.012258833712098821 -0.011473131980414423 -0.000785701731684403 -0.007757215429072563 0.0 0.0
0.0 0.020502554070174712 0.017167107298945782 -0.01631092759053989 -0.000856179708405898 -0.010132356126140711 0.0 0.0
0.0 0.027016836720178714 0.022670538619230088 -0.021743356272462305 -0.0009271823467677761 -0.01245452713675587 0.0 0.0
0.0 0.03430427470376531 0.02883186500481533 -0.027836322970972403 -0.0009955420338429515 -0.014811503104810476 0.0 0.0
0.0 0.04238079256855528 0.0357164406072051 -0.034659910664485094 -0.0010565299427199811 -0.017227340184690004 0.0 0.0
0.0 0.05154884544500381 0.043309084603543095 -0.04220277871458821 -0.001106305888954925 -0.019556991248680343 0.0 0.0
0.0 0.060728782278147396 0.05147534427681383 -0.0503263009587879 -0.0011490433180259675 -0.021450226814760397 0.0 0.0
0.0 0.07074693840435292 0.059952512436865876 -0.058766743154199254 -0.001185769282666525 -0.022429693611790015 0.0 0.0
0.0 0.0804938475832947 0.06833086600458756 -0.06713486569104331 -0.0011960003135442537 -0.021528650508268368 0.0 0.0
0.0 0.08885940758904408 0.07579779505475497 -0.07463544468353417 -0.001162350371220808 -0.016889393158660938 0.0 0.0
0.0 0.0945810255427773 0.07989585389478723 -0.07940926262986339 -0.0004865912649238496 2.0907754694210468e-14 0.0 0.0
0.0 0.08885940758903356 0.07579779505474223 -0.07463544468352129 -0.0011623503712209298 0.01688939315870738 0.0 0.0
0.0 0.08049384758327403 0.06833086600456648 -0.06713486569102169 -0.0011960003135447813 0.02152865050831643 0.0 0.0
0.0 0.07074693840432456 0.059952512436839314 -0.05876674315417332 -0.0011857692826659984 0.022429693611818197 0.0 0.0
0.0 0.06072878227810808 0.051475344276780265 -0.050326300958754844 -0.0011490433180253931 0.02145022681476312 0.0 0.0
0.0 0.0515488454449641 0.04330908460350926 -0.04220277871455427 -0.0011063058889550065 0.019556991248670857 0.0 0.0
0.0 0.04238079256851661 0.035716440607171364 -0.034659910664451926 -0.0010565299427194163 0.01722734018467944 0.0 0.0
0.0 0.034304274703724574 0.028831865004780185 -0.02783632297093742 -0.00099554203384275 0.014811503104800401 0.0 0.0
0.0 0.027016836720144866 0.02267053861920124 -0.02174335627243425 -0.0009271823467669998 0.012454527136745757 0.0 0.0
0.0 0.02050255407013728 0.017167107298914797 -0.016310927590508912 -0.0008561797084058956 0.010132356126124216 0.0 0.0
0.0 0.014651514973215301 0.012258833712072332 -0.011473131980388584 -0.0007857017316837433 0.007757215429052822 0.0 0.0
0.0 0.009402262092654774 0.007974099042361085 -0.007271607718375643 -0.0007024913239854449 0.005362451440138736 0.0 0.0
0.0 0.005601456216261464 0.0044354889679262596 -0.0038662339777392153 -0.0005692549901870409 0.0031104054720454202 0.0 0.0
0.0 0.0022687602967825637 0.001920806133000242 -0.0015659848915379542 -0.00035482124146228567 0.0014178244820645365 0.0 0.0
0.0 0.0006094851768826557 0.0004872986637468672 -0.0003704004365641189 -0.00011689822718274824 0.0003878922206873489 0.0 0.0
0.0 -1.9321103120358594e-06 1.310480806316898e-06 1.6235044537731333e-06 -2.9339852600901684e-06 -2.1165985105339686e-05 0.0 0.0
0.0 -3.8050073384431225e-06 -2.988716361066475e-06 2.3715302161804036e-06 6.17186144886073e-07 -6.575900974976553e-06 0.0 0.0
0.0 -3.9933846203843063e-07 2.3010864114477826e-08 -1.766508430182229e-08 -5.345779812654833e-09 7.114747970917023e-08 0.0 0.0
0.0 3.5477229582550476e-07 -4.760043062279326e-09 4.283870866217358e-09 4.761721960621147e-10 -7.118613582206866e-08 0.0 0.0
0.0 0.000502951442250915 0.00020903094981734822 -8.3972330765051e-05 -0.00012505861905229735 0.0008877094165802928 0.0 0.0
0.0 0.0027644356126333 0.0019073457724855187 -0.0027212359167810823 0.0008138901442955676 0.001509257777555285 0.0 0.0
0.0 0.0020753497600260423 0.0011083438185420914 -0.0015980445644515845 0.0004897007459094926 -0.0009906914396946589 0.0 0.0
0.0 0.00015981061665743055 7.778366811699811e-05 -1.344937716478546e-05 -6.433429095221254e-05 -0.00043890318070191993 0.0 0.0
0.0 2.3224478333352828e-07 5.094862611620144e-10 -1.4025746372765604e-09 8.930883761152076e-10 1.560344710895617e-08 0.0 0.0
0.0 -7.386418928277071e-07 2.4786562010901815e-08 -1.9049338838866563e-08 -5.737223172035542e-09 -1.4989254593365818e-07 0.0 0.0
0.0 -2.4638626796295734e-06 -1.8480630967627797e-06 1.4602867086331365e-06 3.877763881296486e-07 6.332598873187683e-06 0.0 0.0
0.0 -2.6592675637319182e-05 -1.6588953695421576e-05 1.3577961832029483e-05 3.0109918633920817e-06 3.705357190573743e-05 0.0 0.0
0.0 0.0002079725193041505 0.00014918967267851552 -0.00011119110954422722 -3.799856313428832e-05 -0.00018747987185866797 0.0 0.0
0.0 0.0012121850815310375 0.0009788445339351092 -0.0007766720870544511 -0.00020217244688065837 -0.0010367572152959318 0.0 0.0
0.0 0.0033656677361165706 0.00269208368623725 -0.002275772568516068 -0.00041631111772117953 -0.0024775198610885447 0.0 0.0
0.0 0.006777529248421387 0.005255489886323566 -0.004681197822360294 -0.0005742920639632656 -0.0044663862725393706 0.0 0.0
0.0 0.010483022108479175 0.008476016932873578 -0.00780197581831763 -0.0006740411145559405 -0.006746253862321814 0.0 0.0
0.0 0.014888597832306219 0.012157478210686915 -0.011410189619882298 -0.0007472885908046326 -0.009016106033144811 0.0 0.0
0.0 0.019859920691327058 0.01625646489498583 -0.015442712029673686 -0.0008137528653121207 -0.011225481426475482 0.0 0.0
0.0 0.025344032741860357 0.020838327338147042 -0.01996365276024478 -0.0008746745779022541 -0.013433573384004034 0.0 0.0
0.0 0.03157968189941957 0.025988642334082972 -0.025058742423840985 -0.0009298999102419745 -0.01568330858702352 0.0 0.0
0.0 0.03839469042643525 0.03175458505232304 -0.030777654561087962 -0.0009769304912350368 -0.017872284442905922 0.0 0.0
0.0 0.04602284960909972 0.0380735069739329 -0.03705576120909242 -0.001017745764840494 -0.019704957669848977 0.0 0.0
0.0 0.05384369914005221 0.044849123713047466 -0.043782664875586436 -0.0010664588374610174 -0.020765183967832355 0.0 0.0
0.0 0.06187466581761407 0.05200050008722609 -0.050895033996589394 -0.0011054660906367171 -0.020444052127126286 0.0 0.0
0.0 0.07001409898908083 0.05910833364267035 -0.05802265687232603 -0.0010856767703443433 -0.01694298925717138 0.0 0.0
0.0 0.07650781783260946 0.06350233933779507 -0.06326630006040954 -0.00023603927738556434 1.7394939655357433e-14 0.0 0.0
0.0 0.07001409898907747 0.059108333642662735 -0.05802265687231856 -0.0010856767703440755 0.016942989257215414 0.0 0.0
0.0 0.06187466581759667 0.05200050008720726 -0.05089503399657036 -0.001105466090636957 0.02044405212717123 0.0 0.0
0.0 0.05384369914003118 0.04484912371302715 -0.04378266487556673 -0.001066458837460457 0.020765183967857977 0.0 0.0
0.0 0.04602284960906964 0.03807350697390749 -0.03705576120906766 -0.0010177457648397913 0.019704957669849664 0.0 0.0
0.0 0.03839469042640198 0.031754585052295406 -0.030777654561060214 -0.0009769304912352079 0.017872284442894185 0.0 0.0
0.0 0.03157968189939154 0.025988642334058832 -0.025058742423817313 -0.000929899910241508 0.0156833085870143 0.0 0.0
0.0 0.02534403274182938 0.020838327338120924 -0.01996365276021877 -0.0008746745779021747 0.013433573383994816 0.0 0.0
0.0 0.01985992069130041 0.0162564648949638 -0.01544271202965213 -0.0008137528653116617 0.011225481426464633 0.0 0.0
0.0 0.014888597832280632 0.0121574782106658 -0.011410189619861564 -0.0007472885908042301 0.009016106033130765 0.0 0.0
0.0 0.010483022108453106 0.008476016932853365 -0.007801975818297817 -0.0006740411145555417 0.006746253862302712 0.0 0.0
0.0 0.006777529248402244 0.005255489886308859 -0.0046811978223459914 -0.0005742920639628647 0.004466386272525338 0.0 0.0
0.0 0.0033656677361036617 0.0026920836862272027 -0.0022757725685070436 -0.00041631111772016065 0.002477519861080228 0.0 0.0
0.0 0.001212185081524134 0.000978844533929871 -0.0007766720870500648 -0.00020217244687980603 0.001036757215291193 0.0 0.0
0.0 0.00020797251930121304 0.00014918967267659572 -0.00011119110954272507 -3.799856313387061e-05 0.00018747987185626562 0.0 0.0
0.0 -2.659267563737388e-05 -1.6588953694651037e-05 1.3577961831432407e-05 3.0109918632186635e-06 -3.705357190398241e-05 0.0 0.0
0.0 -2.4638626802241444e-06 -1.8480630968298643e-06 1.4602867086868557e-06 3.8777638814300025e-07 -6.332598873478369e-06 0.0 0.0
0.0 -7.386418931577517e-07 2.478656202139034e-08 -1.9049338846107712e-08 -5.737223175282529e-09 1.4989254606605335e-07 0.0 0.0
0.0 2.32244783304108e-07 5.094862966808675e-10 -1.4025746745121763e-09 8.930883778317125e-10 -1.5603446285819073e-08 0.0 0.0
0.0 0.00015981061665489759 7.778366811606431e-05 -1.3449377164196074e-05 -6.433429095186817e-05 0.0004389031806981904 0.0 0.0
0.0 0.0020753497600175023 0.001108343818536997 -0.0015980445644443683 0.0004897007459073706 0.0009906914396910155 0.0 0.0
0.0 0.0009875590484325224 0.0005692552116714077 -0.0008289949029024828 0.00025973969123107557 -0.0006266277528888902 0.0 0.0
0.0 1.908533384790878e-05 -6.333036178582136e-07 3.110688631916473e-05 -3.0473582701306604e-05 -0.00012543438000275626 0.0 0.0
0.0 2.0207520638458734e-06 -1.308766057115771e-09 9.611686956989536e-09 -8.302920899872852e-09 4.50923633986243e-07 0.0 0.0
0.0 1.74667023045731e-06 -1.2666864579642624e-08 7.972246221423348e-09 4.694618358219131e-09 3.688077616258563e-07 0.0 0.0
0.0 -3.6751250161856327e-06 -1.1241224807382373e-06 8.692984879220382e-07 2.548239928161983e-07 6.655295934123385e-06 0.0 0.0
0.0 -1.9507229616324985e-05 -6.218884325942826e-06 5.109522715217072e-06 1.1093616107257535e-06 1.8652399295109608e-05 0.0 0.0
0.0 3.9259677041404356e-05 5.628606051810941e-06 -3.3214774805954645e-06 -2.3071285712155338e-06 -2.9355614540918224e-05 0.0 0.0
0.0 0.0005248967235519246 0.0002966937702750343 -0.0002339782906769492 -6.271547959808534e-05 -0.0005424633942659456 0.0 0.0
0.0 0.0016971734685025774 0.001204808039262123 -0.0009915553795092915 -0.0002132526597528309 -0.0016526201414255501 0.0 0.0
0.0 0.003808829620800984 0.0027765628481382946 -0.0023995540924577298 -0.000377008755680566 -0.0031858412437236077 0.0 0.0
0.0 0.006342253457770119 0.0048678332225014 -0.004366333083796746 -0.0005015001387046492 -0.005063235330889868 0.0 0.0
0.0 0.009447173308341016 0.007297986491575806 -0.00671072244405148 -0.0005872640475243213 -0.007016444754528964 0.0 0.0
0.0 0.012832726529899561 0.010000698658284709 -0.009342791057556612 -0.0006579076007280921 -0.00897195624977648 0.0 0.0
0.0 0.01657365670496481 0.013019621238676532 -0.012304191959526868 -0.0007154292791496617 -0.010912483980503275 0.0 0.0
0.0 0.020832389363824814 0.016440878819239682 -0.015675134202150467 -0.0007657446170892284 -0.012850939026033546 0.0 0.0
0.0 0.025699496647579433 0.02035729510563968 -0.019546224482399645 -0.0008110706232400239 -0.014771138152950742 0.0 0.0
0.0 0.031133122600521836 0.024807077359115248 -0.023953275941887217 -0.000853801417228002 -0.016475867607037308 0.0 0.0
0.0 0.036898831697524365 0.029788551935067055 -0.02888543273362359 -0.0009031192014434837 -0.017548241865641773 0.0 0.0
0.0 0.043422155048323766 0.035474499561839665 -0.03450261183433447 -0.0009718877275051564 -0.017614443614671283 0.0 0.0
0.0 0.05111389143357529 0.04203054250122623 -0.04103148720766726 -0.0009990552935589753 -0.015830255383979513 0.0 0.0
0.0 0.05837911812859178 0.04676666019857723 -0.04681475259653087 4.809239795357652e-05 1.3714723801072637e-14 0.0 0.0
0.0 0.05111389143357372 0.04203054250121955 -0.04103148720766015 -0.0009990552935593797 0.01583025538401669 0.0 0.0
0.0 0.04342215504831276 0.035474499561826224 -0.03450261183432085 -0.0009718877275053182 0.017614443614710644 0.0 0.0
0.0 0.03689883169750968 0.029788551935053437 -0.028885432733610186 -0.0009031192014432201 0.017548241865662614 0.0 0.0
0.0 0.03113312260050027 0.024807077359098352 -0.023953275941870918 -0.0008538014172274359 0.01647586760703432 0.0 0.0
0.0 0.025699496647555702 0.020357295105620784 -0.019546224482380473 -0.0008110706232402966 0.014771138152938764 0.0 0.0
0.0 0.02083238936380751 0.016440878819225305 -0.015675134202136565 -0.0007657446170887425 0.012850939026026076 0.0 0.0
0.0 0.0165736567049447 0.013019621238659844 -0.012304191959510625 -0.0007154292791492212 0.010912483980496051 0.0 0.0
0.0 0.012832726529882332 0.010000698658270855 -0.009342791057543206 -0.000657907600727654 0.008971956249767495 0.0 0.0
0.0 0.009447173308322725 0.007297986491562272 -0.006710722444038475 -0.0005872640475237919 0.007016444754516459 0.0 0.0
0.0 0.006342253457752812 0.00486783322248834 -0.004366333083784341 -0.0005015001387039958 0.005063235330875077 0.0 0.0
0.0 0.003808829620788918 0.0027765628481297225 -0.002399554092449822 -0.0003770087556799006 0.0031858412437139882 0.0 0.0
0.0 0.001697173468494097 0.001204808039256163 -0.0009915553795041504 -0.00021325265975201085 0.0016526201414185932 0.0 0.0
0.0 0.00052489672354806 0.0002966937702726547 -0.00023397829067506724 -6.271547959758736e-05 0.0005424633942624944 0.0 0.0
0.0 3.9259677039694454e-05 5.628606051884729e-06 -3.3214774806560083e-06 -2.3071285712286852e-06 2.9355614540714926e-05 0.0 0.0
0.0 -1.9507229616883414e-05 -6.2188843257285e-06 5.1095227150468e-06 1.1093616106816705e-06 -1.8652399293932828e-05 0.0 0.0
0.0 -3.67512501629673e-06 -1.124122480647322e-06 8.692984878507685e-07 2.548239927965643e-07 -6.65529593333965e-06 0.0 0.0
0.0 1.7466702299397907e-06 -1.2666864611774425e-08 7.972246247334533e-09 4.6946183644407594e-09 -3.6880776177126104e-07 0.0 0.0
0.0 2.0207520633596155e-06 -1.3087660668881458e-09 9.611686966321738e-09 -8.3029208994332e-09 -4.50923634098095e-07 0.0 0.0
0.0 1.9085333845734095e-05 -6.333036182406841e-07 3.1106886319342196e-05 -3.047358270110139e-05 0.00012543438000100555 0.0 0.0
0.0 0.0009875590484267488 0.0005692552116682756 -0.0008289949028979295 0.00025973969122965326 0.0006266277528863639 0.0 0.0
0.0 0.00041931613618100547 0.00020334458797663867 -0.0002981955905023854 9.485100252574673e-05 -0.0002752967603774106 0.0 0.0
0.0 -3.83234281739383e-05 -2.167652177076199e-05 3.339198232519416e-05 -1.1715460554432158e-05 1.980396153600308e-05 0.0 0.0
0.0 3.823766446100623e-07 -1.2017544016833037e-10 1.4323202603003193e-10 -2.3056585860604017e-11 6.363195314258154e-08 0.0 0.0
0.0 2.553159689503003e-07 6.478133661536321e-09 -9.716324024500064e-09 3.2381903629616076e-09 3.480411691798428e-07 0.0 0.0
0.0 -2.8524318812623226e-06 -3.4798480722275944e-07 2.6910188755107896e-07 7.888291967168879e-08 5.1447957337673915e-06 0.0 0.0
0.0 -1.0241565668609983e-05 -3.2791917643926888e-06 2.6788303860516415e-06 6.003613783410204e-07 2.1842220839247163e-05 0.0 0.0
0.0 2.532693029722814e-05 -2.5934743502253965e-06 2.2893842091816448e-06 3.040901410437762e-07 -2.2237833673415546e-05 0.0 0.0
0.0 0.00014117374294230186 1.5990621456692335e-05 -1.3562117732781633e-05 -2.4285037239107694e-06 -0.00020883369367641181 0.0 0.0
0.0 0.0005222717283801895 0.00018545594793358143 -0.0001624810408429857 -2.297490709059543e-05 -0.0007560288305472931 0.0 0.0
0.0 0.001371984826957512 0.000692490090290944 -0.0006169769325843775 -7.55131577065673e-05 -0.0017395395322415763 0.0 0.0
0.0 0.0028503553090208247 0.001600085639929519 -0.001440264224750871 -0.00015982141517864728 -0.0030460513847430835 0.0 0.0
0.0 0.004402180579640264 0.0027609543644194984 -0.0025194569094882527 -0.0002414974549312481 -0.00453139693162125 0.0 0.0
0.0 0.00627654900720005 0.004062201017298845 -0.003745280432991907 -0.0003169205843069352 -0.006073505113263376 0.0 0.0
0.0 0.008406975754651574 0.005532885911710718 -0.005149272780163535 -0.0003836131315471771 -0.007673602066080679 0.0 0.0
0.0 0.010810363414362721 0.00723981454869533 -0.00679486913689895 -0.0004449454117963792 -0.009333272218651744 0.0 0.0
0.0 0.013629531703405364 0.009290819494782422 -0.008786093238395501 -0.00050472625638692 -0.011053228275517515 0.0 0.0
0.0 0.01703977273386828 0.01182900836761034 -0.011262039479566046 -0.0005669688880442903 -0.012729810855568475 0.0 0.0
0.0 0.02110872021437757 0.014986460928573538 -0.014356663817194385 -0.00062979711137915 -0.013939251803879529 0.0 0.0
0.0 0.025779918219394807 0.0189738611964369 -0.0182713303875394 -0.000702530808897511 -0.014088091511053868 0.0 0.0
0.0 0.03190094655609777 0.024493914030757735 -0.023659890397366507 -0.0008340236333912033 -0.013302034584063522 0.0 0.0
0.0 0.041148056983910615 0.02949300217405311 -0.029877199730023042 0.000384197555969925 1.084462381006901e-14 0.0 0.0
0.0 0.03190094655609835 0.024493914030752437 -0.023659890397360942 -0.0008340236333915136 0.013302034584093132 0.0 0.0
0.0 0.025779918219390657 0.018973861196430193 -0.018271330387532772 -0.0007025308088974334 0.014088091511084238 0.0 0.0
0.0 0.02110872021436646 0.014986460928565034 -0.014356663817186116 -0.0006297971113789164 0.01393925180389069 0.0 0.0
0.0 0.01703977273385204 0.011829008367600355 -0.01126203947955661 -0.0005669688880437613 0.012729810855561217 0.0 0.0
0.0 0.013629531703393804 0.009290819494774734 -0.008786093238387747 -0.0005047262563869892 0.011053228275507952 0.0 0.0
0.0 0.010810363414353432 0.007239814548688153 -0.006794869136892233 -0.0004449454117959171 0.009333272218645217 0.0 0.0
0.0 0.008406975754641463 0.00553288591170439 -0.005149272780157139 -0.00038361313154725826 0.007673602066074336 0.0 0.0
0.0 0.0062765490071920275 0.004062201017294415 -0.0037452804329873106 -0.00031692058430710443 0.0060735051132566695 0.0 0.0
0.0 0.004402180579630443 0.0027609543644137834 -0.0025194569094828777 -0.00024149745493090582 0.004531396931611297 0.0 0.0
0.0 0.002850355309010348 0.0016000856399236139 -0.0014402642247452124 -0.00015982141517839932 0.003046051384731143 0.0 0.0
0.0 0.0013719848269521647 0.0006924900902881792 -0.0006169769325817727 -7.551315770640666e-05 0.0017395395322369355 0.0 0.0
0.0 0.000522271728377438 0.00018545594793217905 -0.0001624810408417174 -2.297490709046133e-05 0.0007560288305436631 0.0 0.0
0.0 0.00014117374294078832 1.5990621456482626e-05 -1.3562117732595679e-05 -2.4285037238870482e-06 0.00020883369367455227 0.0 0.0
0.0 2.5326930296294993e-05 -2.593474350165449e-06 2.2893842091336714e-06 3.040901410317922e-07 2.223783367347706e-05 0.0 0.0
0.0 -1.0241565669468527e-05 -3.27919176431971e-06 2.6788303859945235e-06 6.003613783251849e-07 -2.184222083847912e-05 0.0 0.0
0.0 -2.8524318815115316e-06 -3.47984807217633e-07 2.691018875540563e-07 7.888291966357334e-08 -5.144795733400021e-06 0.0 0.0
0.0 2.553159687198014e-07 6.478133645557717e-09 -9.716324007579282e-09 3.238190362022381e-09 -3.4804116867477497e-07 0.0 0.0
0.0 3.823766442622425e-07 -1.201754378605981e-10 1.4323202198987575e-10 -2.3056584133260827e-11 -6.363195322125095e-08 0.0 0.0
0.0 -3.8323428174362406e-05 -2.167652177056808e-05 3.339198232490626e-05 -1.1715460554338138e-05 -1.980396153571294e-05 0.0 0.0
0.0 0.0004193161361774348 0.00020334458797511315 -0.00029819559050018555 9.485100252507203e-05 0.00027529676037550335 0.0 0.0
0.0 5.533774479607865e-05 3.259293364029676e-05 -4.9339085745485774e-05 1.6746152105189e-05 -5.250570284769131e-05 0.0 0.0
0.0 -9.519141618029854e-06 -5.625212863538505e-06 7.961843198165452e-06 -2.3366303346269394e-06 1.10383380102544e-05 0.0 0.0
0.0 3.869242348669386e-06 3.9716113557010854e-08 -1.6498201290311312e-08 -2.321791226670495e-08 1.3756779022337096e-06 0.0 0.0
0.0 9.058943632349528e-07 2.7498528812343215e-08 -2.7218017564597793e-08 -2.8051124774199895e-10 5.293097510158417e-07 0.0 0.0
0.0 -1.8516251048847515e-06 2.03081590466889e-08 -1.535304470996227e-08 -4.955114336726596e-09 3.347088709919556e-06 0.0 0.0
0.0 -3.5367089793818463e-06 -4.6048670487580965e-07 4.851960407603855e-07 -2.4709335884574844e-08 1.4109941747612671e-05 0.0 0.0
0.0 3.351759557082948e-05 -1.0055371129063656e-06 9.839595281736957e-07 2.157758473265577e-08 -3.415179892869925e-05 0.0 0.0
0.0 0.00013061569032893212 -8.076075742348744e-07 7.800248502157581e-07 2.758272401914423e-08 -0.00022244140409248293 0.0 0.0
0.0 0.00032998456166371284 -9.971167789770837e-08 9.253198471525341e-08 7.179693182445643e-09 -0.0004890065987471843 0.0 0.0
0.0 0.000538491836589056 7.771290120040992e-08 -3.770467115373413e-08 -4.000823004676134e-08 -0.0009691141041827934 0.0 0.0
0.0 0.0009645162052001354 7.660651636504892e-08 -3.851377022861486e-07 3.0853118592124196e-07 -0.0017154840183528752 0.0 0.0
0.0 0.001394601282480056 -2.9374819623389104e-06 4.406989600090714e-06 -1.4695076377514374e-06 -0.0028662689824296705 0.0 0.0
0.0 0.002211422478318284 -1.1696864079608705e-05 1.4707832303789779e-05 -3.010968224180288e-06 -0.004268353381914791 0.0 0.0
0.0 0.0032326189835281 -2.5186606375003715e-05 2.8413670509471053e-05 -3.2270641344668495e-06 -0.005799876660427623 0.0 0.0
0.0 0.004414800757553126 9.234676574938977e-07 -5.305672171700181e-06 4.382204514206419e-06 -0.007452785750031014 0.0 0.0
0.0 0.0057236128145270095 0.0001790341887267299 -0.0002049780078017106 2.5943819074982893e-05 -0.009237216186509155 0.0 0.0
0.0 0.007217813296600557 0.0007277326193165877 -0.0007970819966771909 6.934937736060253e-05 -0.011100602727359455 0.0 0.0
0.0 0.00884145918821647 0.0018560987333519079 -0.0020409375997676605 0.00018483886641574904 -0.0128845106177431 0.0 0.0
0.0 0.011162737475953989 0.0032975295863059747 -0.0036512539672806806 0.0003537243809747059 -0.014198712969142307 0.0 0.0
0.0 0.01635905632749063 0.006879316067927694 -0.006676539969099039 -0.00020277609882864657 -0.014332725335173163 0.0 0.0
0.0 0.028769078617938225 0.012497390995340255 -0.01340403450701309 0.000906643511672824 1.1012024625500771e-14 0.0 0.0
0.0 0.01635905632749522 0.0068793160679266495 -0.006676539969097403 -0.0002027760988292352 0.0143327253351943 0.0 0.0
0.0 0.011162737475948857 0.0032975295863032885 -0.0036512539672780803 0.00035372438097478853 0.014198712969147808 0.0 0.0
0.0 0.0088414591882065 0.00185609873335008 -0.002040937599765598 0.00018483886641551856 0.01288451061773907 0.0 0.0
0.0 0.007217813296588531 0.0007277326193169303 -0.0007970819966776296 6.934937736070038e-05 0.01110060272734728 0.0 0.0
0.0 0.0057236128145225175 0.00017903418872796306 -0.00020497800780310286 2.594381907514181e-05 0.009237216186500755 0.0 0.0
0.0 0.004414800757545109 9.234676575889823e-07 -5.305672171206977e-06 4.382204513617805e-06 0.007452785750023109 0.0 0.0
0.0 0.0032326189835222494 -2.5186606371687466e-05 2.8413670505727194e-05 -3.2270641340384812e-06 0.005799876660420039 0.0 0.0
0.0 0.002211422478314541 -1.1696864078127197e-05 1.470783230218215e-05 -3.010968224055171e-06 0.004268353381907202 0.0 0.0
0.0 0.0013946012824736435 -2.9374819621735425e-06 4.406989599833731e-06 -1.4695076376602966e-06 0.002866268982419304 0.0 0.0
0.0 0.000964516205194403 7.660651621855966e-08 -3.851377022364718e-07 3.0853118601779694e-07 0.0017154840183454616 0.0 0.0
0.0 0.0005384918365893149 7.771290109218282e-08 -3.7704671105571834e-08 -4.000822998651273e-08 0.0009691141041820318 0.0 0.0
0.0 0.0003299845616620956 -9.971167782871923e-08 9.253198465596809e-08 7.179693172673212e-09 0.0004890065987448505 0.0 0.0
0.0 0.00013061569032775307 -8.076075742247461e-07 7.800248502337966e-07 2.7582723990951115e-08 0.0002224414040904112 0.0 0.0
0.0 3.351759557044006e-05 -1.0055371129450066e-06 9.839595282131164e-07 2.1577584731908712e-08 3.415179892971114e-05 0.0 0.0
0.0 -3.536708980298387e-06 -4.6048670489024775e-07 4.851960407738667e-07 -2.470933588362625e-08 -1.4109941746965709e-05 0.0 0.0
0.0 -1.8516251048425369e-06 2.0308159004319253e-08 -1.5353044671291312e-08 -4.955114333024516e-09 -3.3470887089104086e-06 0.0 0.0
0.0 9.058943632530897e-07 2.7498528746387694e-08 -2.7218017507384218e-08 -2.8051123900456593e-10 -5.293097500797299e-07 0.0 0.0
0.0 3.869242347918915e-06 3.971611357868843e-08 -1.6498201307564937e-08 -2.321791227111356e-08 -1.3756779025777753e-06 0.0 0.0
0.0 -9.519141618780713e-06 -5.625212863503854e-06 7.961843198117455e-06 -2.3366303346136202e-06 -1.1038338010080783e-05 0.0 0.0
0.0 5.533774479513507e-05 3.259293364025631e-05 -4.933908574541155e-05 1.6746152105155384e-05 5.250570284782638e-05 0.0 0.0
0.0 7.25740402089493e-07 -1.6333853887573735e-06 2.3644082815801155e-06 -7.310228928227591e-07 3.4790071479906523e-06 0.0 0.0
0.0 -3.4580177768319827e-07 2.3760217057604084e-07 -3.3095347427981287e-07 9.33513037037748e-08 -1.6088139955353856e-07 0.0 0.0
0.0 2.107932897065085e-07 3.629459119627784e-08 -5.009954681899855e-08 1.3804955622720361e-08 -4.223498491565258e-07 0.0 0.0
0.0 1.2626921645544135e-06 8.599227699278903e-08 -7.876644113826819e-08 -7.225835854522449e-09 4.048279621649816e-08 0.0 0.0
0.0 -1.0277704057912919e-06 -7.32343706452826e-08 6.13052371106401e-08 1.1929133534644013e-08 -5.198164169209082e-07 0.0 0.0
0.0 -4.398243187087489e-06 4.0984195129234385e-07 -1.5175577387175844e-07 -2.5808617742054747e-07 3.376088637453341e-06 0.0 0.0
0.0 4.536294703419617e-05 1.607056798747424e-06 -1.0674581412559772e-06 -5.395986574914976e-07 -2.308887772197919e-05 0.0 0.0
0.0 0.0001513000839927224 -1.89801564344247e-05 1.628296990006818e-05 2.6971865343564593e-06 -0.000216256737092057 0.0 0.0
0.0 0.0005241233371627702 -0.00018650717915628652 0.0001633401078855219 2.3167071270764386e-05 -0.0007603875298237483 0.0 0.0
0.0 0.0013696668321515146 -0.0006912688118241546 0.0006158603215423008 7.54084902818553e-05 -0.0017387018763568621 0.0 0.0
0.0 0.002859237634880437 -0.0015983245098947893 0.0014390813647095174 0.00015924314518527086 -0.003041767472769305 0.0 0.0
0.0 0.004428629509366739 -0.0027754942867003474 0.0025315973950749155 0.00024389689162543132 -0.004533640844848824 0.0 0.0
0.0 0.006324439297144366 -0.004103987760934793 0.003782641493960338 0.0003213462669744544 -0.006076633047627618 0.0 0.0
0.0 0.008473761009028274 -0.005595319455910033 0.005209851449793409 0.00038546800611662297 -0.007671711474118797 0.0 0.0
0.0 0.0107568354458615 -0.00721510807198297 0.006786696126991653 0.000428411944991315 -0.009341744122382353 0.0 0.0
0.0 0.013083701166427984 -0.008810307815710303 0.008370063841332188 0.0004402439743781135 -0.011153479992370504 0.0 0.0
0.0 0.015120180710734477 -0.010075349724093085 0.009662607877304837 0.00041274184678825 -0.013161334768263241 0.0 0.0
0.0 0.01666512729642347 -0.010570396675800698 0.010241834332150056 0.0003285623436506446 -0.015414453513577111 0.0 0.0
0.0 0.016829402090081023 -0.009769272562780805 0.009620900304655115 0.00014837225812569472 -0.01787085373182039 0.0 0.0
0.0 0.013773935078352655 -0.0070556404430087444 0.007288021479701038 -0.0002323810366922864 -0.019667092921917134 0.0 0.0
0.0 0.02761815995145519 -0.003848048525656736 0.0017201659802493574 0.0021278825454073788 1.526643395033389e-14 0.0 0.0
0.0 0.013773935078359008 -0.007055640443010147 0.007288021479701631 -0.00023238103669147964 0.01966709292193017 0.0 0.0
0.0 0.016829402090078657 -0.009769272562777594 0.009620900304652158 0.0001483722581254362 0.017870853731833024 0.0 0.0
0.0 0.016665127296410377 -0.010570396675791422 0.01024183433214102 0.00032856234365039543 0.015414453513576523 0.0 0.0
0.0 0.015120180710717286 -0.010075349724080761 0.009662607877292707 0.0004127418467880533 0.013161334768253416 0.0 0.0
0.0 0.013083701166410305 -0.008810307815697442 0.008370063841319143 0.0004402439743782969 0.011153479992357936 0.0 0.0
0.0 0.010756835445850245 -0.007215108071973607 0.006786696126983304 0.00042841194499030326 0.009341744122373794 0.0 0.0
0.0 0.008473761009013142 -0.005595319455897973 0.005209851449781928 0.0003854680061160424 0.0076717114741098975 0.0 0.0
0.0 0.006324439297130007 -0.004103987760924596 0.0037826414939499987 0.000321346266974597 0.006076633047617371 0.0 0.0
0.0 0.0044286295093507845 -0.002775494286689339 0.0025315973950648823 0.0002438968916244532 0.004533640844834786 0.0 0.0
0.0 0.0028592376348655015 -0.0015983245098853227 0.0014390813647009006 0.0001592431451844216 0.003041767472755828 0.0 0.0
0.0 0.0013696668321429315 -0.0006912688118191449 0.0006158603215378123 7.540849028133389e-05 0.0017387018763505846 0.0 0.0
0.0 0.0005241233371596871 -0.00018650717915493504 0.00016334010788433538 2.316707127059948e-05 0.000760387529820377 0.0 0.0
0.0 0.0001513000839912392 -1.8980156434324033e-05 1.628296990002321e-05 2.697186534300889e-06 0.00021625673709058338 0.0 0.0
0.0 4.536294703288689e-05 1.6070567986493672e-06 -1.067458141199921e-06 -5.395986574494467e-07 2.3088877721893335e-05 0.0 0.0
0.0 -4.398243188134335e-06 4.0984195119274564e-07 -1.5175577379253818e-07 -2.580861774002096e-07 -3.376088636723503e-06 0.0 0.0
0.0 -1.02777040569391e-06 -7.323437076339335e-08 6.130523721277954e-08 1.192913355060882e-08 5.198164179492653e-07 0.0 0.0
0.0 1.2626921646727616e-06 8.599227689418117e-08 -7.876644105678104e-08 -7.225835837399187e-09 -4.048279527921089e-08 0.0 0.0
0.0 2.1079328940859953e-07 3.629459117415848e-08 -5.009954681342949e-08 1.3804955639266435e-08 4.2234984995849227e-07 0.0 0.0
0.0 -3.458017775622894e-07 2.3760217051021143e-07 -3.309534741982055e-07 9.335130368799309e-08 1.6088139953404531e-07 0.0 0.0
0.0 7.25740400707669e-07 -1.633385388251567e-06 2.364408280814364e-06 -7.31022892562784e-07 -3.4790071469727076e-06 0.0 0.0
0.0 -5.791226492451871e-07 3.285152939261595e-08 -4.863961923435168e-08 1.5788089841737027e-08 -8.324711323925468e-08 0.0 0.0
0.0 1.3153316296378584e-06 6.126810903685004e-10 1.895883472206849e-08 -1.9571515812443026e-08 2.2792063859682895e-07 0.0 0.0
0.0 1.4809588391304525e-08 1.3264086756389164e-07 -1.0423520569856465e-07 -2.8405661865335722e-08 1.0679723867488732e-06 0.0 0.0
0.0 1.2439012633333525e-06 -4.1350098261431605e-07 3.3146410826359586e-07 8.203687435070826e-08 -2.9207477330104965e-06 0.0 0.0
0.0 1.918143366696158e-06 2.5159698266920197e-06 -2.0877310254702724e-06 -4.282388012216889e-07 1.2023228332456915e-05 0.0 0.0
0.0 7.825322885573486e-06 6.7387705041447235e-06 -5.301589596120993e-06 -1.437180908023724e-06 1.972880327344301e-05 0.0 0.0
0.0 4.900043149568722e-05 -2.0648845756892732e-05 1.5875486261699278e-05 4.773359495193512e-06 -8.222044366679773e-05 0.0 0.0
0.0 0.0005410185432968906 -0.000303623524790278 0.00024004107001883424 6.358245477144358e-05 -0.0005589003578410639 0.0 0.0
0.0 0.0016967090554407323 -0.0012041792905712017 0.0009908451272624998 0.00021333416330870182 -0.0016548635939611326 0.0 0.0
0.0 0.003804840366772276 -0.0027745605435569465 0.002397566228426683 0.00037699431513026126 -0.003182426939120545 0.0 0.0
0.0 0.006344146706193835 -0.0048701677716052995 0.004368567328406698 0.0005016004431986055 -0.005062301294212944 0.0 0.0
0.0 0.009463680120462966 -0.007311846353088016 0.006723970939285429 0.0005878754138025891 -0.007017733518206854 0.0 0.0
0.0 0.012872032086098975 -0.01003780229920039 0.009378929495215887 0.0006588728039845012 -0.008954150812642198 0.0 0.0
0.0 0.016621131027572743 -0.013075028193157815 0.012360767479499834 0.0007142607136579858 -0.010852008692170874 0.0 0.0
0.0 0.02077690072004904 -0.016415911719160674 0.015662274262044553 0.000753637457116111 -0.012795804454772453 0.0 0.0
0.0 0.025187070406947728 -0.01991098966427296 0.019139175055409203 0.0007718146088637417 -0.014986392055859795 0.0 0.0
0.0 0.029423220062305827 -0.023202198102070103 0.022433876098099062 0.0007683220039710448 -0.01764740636693169 0.0 0.0
0.0 0.03272635127520431 -0.025739776014683066 0.024993438500858257 0.0007463375138248201 -0.02089053761213673 0.0 0.0
0.0 0.03445937075691845 -0.02651855347507242 0.025852337303213083 0.0006662161718593382 -0.024083375698723562 0.0 0.0
0.0 0.03197324527735639 -0.023479931722047678 0.022958019576426226 0.0005219121456214383 -0.024741549067926066 0.0 0.0
0.0 0.033961786690740604 -0.018711759019947604 0.01578445736701055 0.002927301652937039 1.542516114838577e-14 0.0 0.0
0.0 0.031973245277363345 -0.023479931722046182 0.022958019576424918 0.0005219121456212586 0.02474154906795837 0.0 0.0
0.0 0.03445937075691426 -0.026518553475063968 0.025852337303204784 0.0006662161718591756 0.024083375698752466 0.0 0.0
0.0 0.03272635127518636 -0.02573977601466694 0.024993438500842523 0.0007463375138244104 0.020890537612146574 0.0 0.0
0.0 0.029423220062279105 -0.02320219810204871 0.02243387609807733 0.0007683220039713867 0.017647406366924634 0.0 0.0
0.0 0.02518707040692198 -0.019910989664251717 0.01913917505538858 0.0007718146088631379 0.014986392055847184 0.0 0.0
0.0 0.02077690072002466 -0.01641591171914102 0.015662274262025305 0.0007536374571157046 0.012795804454760005 0.0 0.0
0.0 0.016621131027550636 -0.013075028193138757 0.012360767479481078 0.0007142607136576781 0.010852008692160131 0.0 0.0
0.0 0.012872032086071628 -0.01003780229917856 0.009378929495194244 0.0006588728039843139 0.008954150812627931 0.0 0.0
0.0 0.009463680120438762 -0.007311846353069395 0.006723970939267608 0.0005878754138017905 0.0070177335181902546 0.0 0.0
0.0 0.006344146706170925 -0.004870167771587836 0.004368567328389619 0.0005016004431982183 0.005062301294194665 0.0 0.0
0.0 0.003804840366755576 -0.0027745605435443607 0.0023975662284150346 0.00037699431512932483 0.0031824269391089845 0.0 0.0
0.0 0.0016967090554318312 -0.001204179290564746 0.0009908451272570271 0.00021333416330771924 0.001654863593954541 0.0 0.0
0.0 0.0005410185432924105 -0.00030362352478752365 0.00024004107001663808 6.358245477088549e-05 0.0005589003578368263 0.0 0.0
0.0 4.900043149405935e-05 -2.0648845756848412e-05 1.5875486261693803e-05 4.773359495154604e-06 8.222044366651648e-05 0.0 0.0
0.0 7.825322884743845e-06 6.7387705039286115e-06 -5.301589595950782e-06 -1.437180907977924e-06 -1.9728803272976487e-05 0.0 0.0
0.0 1.9181433659476892e-06 2.5159698264622396e-06 -2.087731025280135e-06 -4.282388011820958e-07 -1.2023228331333175e-05 0.0 0.0
0.0 1.2439012625566067e-06 -4.1350098264207083e-07 3.314641082848666e-07 8.203687435721021e-08 2.9207477332690584e-06 0.0 0.0
0.0 1.4809587525319983e-08 1.326408675631906e-07 -1.0423520569956451e-07 -2.8405661863621367e-08 -1.0679723867690432e-06 0.0 0.0
0.0 1.3153316292655757e-06 6.126810923773689e-10 1.8958834718682552e-08 -1.957151581106135e-08 -2.279206385976032e-07 0.0 0.0
0.0 -5.791226488939735e-07 3.285152937202806e-08 -4.863961920387383e-08 1.57880898318369e-08 8.324711318699175e-08 0.0 0.0
0.0 0.0 0.0 0.0 0.0 0.0 0.0 0.0
0.0 -4.597287996738521e-07 -6.853202956288844e-09 2.886835497529438e-09 3.966367458759904e-09 -9.336839224249032e-08 0.0 0.0
0.0 1.3987198912239795e-06 1.045211359170371e-07 -7.608988142723204e-08 -2.8431254489799826e-08 6.880325052346987e-07 0.0 0.0
0.0 1.038261630803261e-06 9.05280808004653e-07 -7.530587370572021e-07 -1.5222207094745118e-07 3.0644615291586194e-06 0.0 0.0
0.0 1.2043095184164747e-06 2.0800133736754864e-06 -1.645214751278328e-06 -4.347986223971961e-07 4.098417236122536e-06 0.0 0.0
0.0 -5.203665089626543e-06 -3.7315925237253754e-06 2.7119819737478854e-06 1.019610549977543e-06 -1.6571745759723473e-05 0.0 0.0
0.0 0.00027888752492466424 -0.00016629394990284822 0.00012629930753573396 3.9994642367114216e-05 -0.0002180898050887196 0.0 0.0
0.0 0.0012275374386437664 -0.0009824337254397593 0.0007801910125162825 0.00020224271292347546 -0.0010496901057996453 0.0 0.0
0.0 0.0033616165444899137 -0.0026888019542517165 0.0022724252699312065 0.0004163766843205088 -0.002474724566560513 0.0 0.0
0.0 0.00677547717850989 -0.005254161686875838 0.004679754510670761 0.0005744071762050774 -0.0044618095810652425 0.0 0.0
0.0 0.010483204552621214 -0.008480161946010098 0.007806264766123165 0.0006738971798869221 -0.006746984055238822 0.0 0.0
0.0 0.014901900397060588 -0.012168454956101518 0.01142124241787909 0.0007472125382224251 -0.009013379165803796 0.0 0.0
0.0 0.01987898798010192 -0.016277759541518992 0.01546382568117823 0.0008139338603407877 -0.011183111531454902 0.0 0.0
0.0 0.025351198884945757 -0.020864761335637846 0.01999084157589575 0.0008739197597420744 -0.013298084709025364 0.0 0.0
0.0 0.03149573816705182 -0.025952786871896154 0.025031544500005824 0.0009212423718903613 -0.015512902948677179 0.0 0.0
0.0 0.03798495571663042 -0.031406525506243295 0.030459983176447242 0.0009465423297960147 -0.018135266150660027 0.0 0.0
0.0 0.044747223926492365 -0.036799821884388836 0.0358549079359691 0.0009449139484197643 -0.021596919931246038 0.0 0.0
0.0 0.050411335654510364 -0.041283121790765626 0.04038369570989454 0.0008994260808710321 -0.025947593062467585 0.0 0.0
0.0 0.05338105592711061 -0.04328764371670089 0.04248697686528942 0.000800666851411442 -0.029993973873004936 0.0 0.0
0.0 0.05013244902609444 -0.039948409532486434 0.039379297268349725 0.0005691122641367074 -0.031250874247781474 0.0 0.0
0.0 0.04743971143482842 -0.033396481664293376 0.029736320319308868 0.0036601613449844935 1.696125878636323e-14 0.0 0.0
0.0 0.05013244902609804 -0.039948409532482174 0.039379297268345735 0.000569112264136445 0.03125087424781998 0.0 0.0
0.0 0.05338105592710356 -0.04328764371668875 0.042486976865277824 0.0008006668514108763 0.029993973873042902 0.0 0.0
0.0 0.05041133565448875 -0.04128312179074497 0.04038369570987441 0.0008994260808705575 0.025947593062484748 0.0 0.0
0.0 0.044747223926456706 -0.03679982188435865 0.03585490793593887 0.0009449139484198083 0.021596919931241645 0.0 0.0
0.0 0.03798495571659642 -0.03140652550621493 0.030459983176419195 0.0009465423297956938 0.018135266150646832 0.0 0.0
0.0 0.0314957381670151 -0.025952786871865655 0.02503154449997572 0.0009212423718899675 0.01551290294866186 0.0 0.0
0.0 0.02535119888491584 -0.020864761335612252 0.019990841575870624 0.0008739197597416148 0.013298084709014255 0.0 0.0
0.0 0.01987898798006592 -0.016277759541489224 0.015463825681148525 0.0008139338603406821 0.01118311153144044 0.0 0.0
0.0 0.014901900397026734 -0.012168454956074336 0.01142124241785251 0.0007472125382218221 0.00901337916578444 0.0 0.0
0.0 0.010483204552589335 -0.008480161945984744 0.007806264766098152 0.0006738971798865846 0.0067469840552180525 0.0 0.0
0.0 0.006775477178486143 -0.005254161686856934 0.004679754510652794 0.0005744071762041417 0.004461809581049801 0.0 0.0
0.0 0.0033616165444733752 -0.0026888019542390218 0.002272425269919692 0.00041637668431932553 0.002474724566550034 0.0 0.0
0.0 0.0012275374386345064 -0.0009824337254326402 0.0007801910125104711 0.00020224271292216989 0.0010496901057929899 0.0 0.0
0.0 0.00027888752492189037 -0.0001662939499014439 0.00012629930753466317 3.9994642366780696e-05 0.00021808980508721668 0.0 0.0
0.0 -5.203665090479292e-06 -3.7315925239926566e-06 2.7119819739538364e-06 1.0196105500388537e-06 1.6571745760239892e-05 0.0 0.0
0.0 1.2043095180657692e-06 2.0800133734362043e-06 -1.645214751082663e-06 -4.3479862235354587e-07 -4.098417235287861e-06 0.0 0.0
0.0 1.0382616299903587e-06 9.052808079035932e-07 -7.530587369769271e-07 -1.5222207092666285e-07 -3.064461528562456e-06 0.0 0.0
0.0 1.398719890659874e-06 1.0452113592749499e-07 -7.608988143774203e-08 -2.8431254489758814e-08 -6.88032505290815e-07 0.0 0.0
0.0 -4.59728799576089e-07 -6.853202954632321e-09 2.8868354967489913e-09 3.9663674578853385e-09 9.336839222251318e-08 0.0 0.0
0.0 0.0 0.0 0.0 0.0 0.0 0.0 0.0
0.0 0.0 0.0 0.0 0.0 0.0 0.0 0.0
0.0 1.5308091780677812e-08 3.0663233307284843e-10 -2.1432744662428963e-10 -9.23048864485231e-11 3.0115191088803258e-09 0.0 0.0
0.0 -3.9897023100245907e-07 -1.2582341245029727e-08 9.921108779685232e-09 2.661232465342749e-09 -5.93750557269169e-08 0.0 0.0
0.0 -1.8482494823624086e-06 3.827139426764069e-08 -2.3706231995819103e-08 -1.4565162271811474e-08 1.566580588379244e-07 0.0 0.0
0.0 -3.202756696080273e-06 8.110181165854012e-06 -6.572519244334879e-06 -1.537661921519126e-06 1.7119393073199993e-05 0.0 0.0
0.0 7.328635847470968e-05 -2.812155717921419e-05 2.0080902161274018e-05 8.040655017940093e-06 -2.2094658194772227e-05 0.0 0.0
0.0 0.0006312351874972011 -0.0005148530475538431 0.00039493909009247923 0.0001199139574613638 -0.0004453293890974944 0.0 0.0
0.0 0.0022749005035322353 -0.0019189863832654223 0.0015645126745819258 0.00035447370868349655 -0.001425274506753162 0.0 0.0
0.0 0.005595383439824733 -0.004431187828974326 0.0038616002548895276 0.0005695875740847993 -0.0031035640053856247 0.0 0.0
0.0 0.009401306672134369 -0.007974725221888468 0.007272135551413534 0.0007025896704749392 -0.005358472909999841 0.0 0.0
0.0 0.01465888436791882 -0.012264266695552622 0.011478932698079073 0.0007853339974735444 -0.007758351242832895 0.0 0.0
0.0 0.02050884909882464 -0.017172376684154902 0.016317015824356497 0.0008553608597984012 -0.01012498193608959 0.0 0.0
0.0 0.027006885116132622 -0.02266648690247745 0.021740130943789453 0.0009263559586880093 -0.012392492979688623 0.0 0.0
0.0 0.0342552429062178 -0.028810013560246067 0.027814458121752192 0.0009955554384938469 -0.014618384544855898 0.0 0.0
0.0 0.042267237275186234 -0.035660435461342406 0.03460628542608245 0.0010541500352599029 -0.01695387056991403 0.0 0.0
0.0 0.05128845314893326 -0.043103952102146584 0.04201615870320398 0.0010877933989426214 -0.019792309365905425 0.0 0.0
0.0 0.059917433803503735 -0.05062096489261122 0.0495413590874428 0.0010796058051683098 -0.023665118612039494 0.0 0.0
0.0 0.06796209584738375 -0.05698402155277313 0.05597439976064732 0.0010096217921258554 -0.028616892341655716 0.0 0.0
0.0 0.07226456738697637 -0.05998489188279645 0.05912715242375137 0.000857739459045042 -0.03347084713074729 0.0 0.0
0.0 0.06816748147511874 -0.05593698413623222 0.055368983431052274 0.0005680007051799325 -0.03549243288740371 0.0 0.0
0.0 0.06218969953608547 -0.04776722175001204 0.04348245641176438 0.0042847653382476186 1.7876325419940997e-14 0.0 0.0
0.0 0.06816748147511716 -0.05593698413622415 0.055368983431044336 0.000568000705179804 0.03549243288744501 0.0 0.0
0.0 0.07226456738696188 -0.05998489188277837 0.05912715242373362 0.0008577394590447089 0.03347084713078887 0.0 0.0
0.0 0.0679620958473509 -0.056984021552742924 0.05597439976061689 0.0010096217921259606 0.0286168923416762 0.0 0.0
0.0 0.0599174338034624 -0.050620964892575435 0.04954135908740715 0.0010796058051682827 0.02366511861203846 0.0 0.0
0.0 0.05128845314888931 -0.043103952102109204 0.0420161587031666 0.0010877933989425744 0.019792309365893608 0.0 0.0
0.0 0.04226723727514051 -0.03566043546130341 0.034606285426043874 0.0010541500352595256 0.01695387056989946 0.0 0.0
0.0 0.034255242906179165 -0.028810013560212462 0.027814458121719413 0.0009955554384930426 0.01461838454484451 0.0 0.0
0.0 0.02700688511608708 -0.02266648690243931 0.02174013094375104 0.0009263559586882676 0.012392492979672971 0.0 0.0
0.0 0.020508849098782325 -0.017172376684119486 0.01631701582432166 0.000855360859797824 0.010124981936069389 0.0 0.0
0.0 0.014658884367879895 -0.012264266695520429 0.011478932698047034 0.0007853339974734073 0.007758351242810487 0.0 0.0
0.0 0.009401306672104195 -0.007974725221863183 0.007272135551388888 0.0007025896704743016 0.005358472909981867 0.0 0.0
0.0 0.005595383439802205 -0.004431187828956669 0.003861600254873021 0.0005695875740836533 0.0031035640053736534 0.0 0.0
0.0 0.0022749005035193697 -0.001918986383255222 0.001564512674573203 0.0003544737086820188 0.0014252745067461086 0.0 0.0
0.0 0.0006312351874913034 -0.0005148530475498841 0.0003949390900893653 0.00011991395746051871 0.0004453293890941954 0.0 0.0
0.0 7.328635847292822e-05 -2.8121557178653456e-05 2.008090216085814e-05 8.040655017795277e-06 2.2094658194269177e-05 0.0 0.0
0.0 -3.2027566964684762e-06 8.110181165301357e-06 -6.572519243890631e-06 -1.5376619214107036e-06 -1.711939307202952e-05 0.0 0.0
0.0 -1.8482494827066094e-06 3.827139414462382e-08 -2.3706231898661953e-08 -1.4565162245945486e-08 -1.5665805826163167e-07 0.0 0.0
0.0 -3.989702310807584e-07 -1.2582341206640916e-08 9.921108748277844e-09 2.661232458363337e-09 5.9375055554838544e-08 0.0 0.0
0.0 1.5308091766584117e-08 3.0663233278746693e-10 -2.1432744642515877e-10 -9.23048863622756e-11 -3.0115191060776662e-09 0.0 0.0
0.0 0.0 0.0 0.0 0.0 0.0 0.0 0.0
0.0 0.0 0.0 0.0 0.0 0.0 0.0 0.0
0.0 0.0 0.0 0.0 0.0 0.0 0.0 0.0
0.0 -3.008317283811859e-07 -1.6894082401111415e-08 1.3667650964936457e-08 3.226431436173586e-09 -5.3084951058647605e-08 0.0 0.0
0.0 -2.6230777640851965e-07 7.106391942208782e-07 -5.72408052975543e-07 -1.3823114124531032e-07 1.6228621746676345e-06 0.0 0.0
0.0 -1.3210436927452539e-05 2.2696849570608517e-06 -2.22475536267609e-06 -4.492959438477507e-08 5.28137546685516e-06 0.0 0.0
0.0 0.0002177371357956573 -0.00013732609958787422 0.00010124498280118154 3.6081116786692766e-05 -7.925398082678104e-05 0.0 0.0
0.0 0.001186056138372199 -0.001024023081017089 0.0007993629821176626 0.00022466009889942547 -0.0005869175108459906 0.0 0.0
0.0 0.003782065766820046 -0.0030484643412295137 0.002558778483385444 0.0004896858578440698 -0.001665597201873876 0.0 0.0
0.0 0.0072786710462894024 -0.006381802679842976 0.005698183208327329 0.000683619471515645 -0.0034927803250721237 0.0 0.0
0.0 0.012623847685857269 -0.010797733575636957 0.010005052779258903 0.0007926807963780612 -0.005706279026808742 0.0 0.0
0.0 0.01891992320523893 -0.016135502897306826 0.01526485444616476 0.0008706484511420622 -0.00805110270130053 0.0 0.0
0.0 0.026136855620051733 -0.02226498024240017 0.021320491999347404 0.0009444882430527832 -0.010367914700400825 0.0 0.0
0.0 0.034227794588107416 -0.029150625118653854 0.028128628818676192 0.0010219962999776185 -0.012605917514851609 0.0 0.0
0.0 0.04333447027871512 -0.03685375550113616 0.03575431266054028 0.0010994428405959212 -0.01482408207053028 0.0 0.0
0.0 0.053328932496814835 -0.0454598395206181 0.044289695785147715 0.0011701437354703337 -0.017148665086969685 0.0 0.0
0.0 0.06418673895554472 -0.05487560275355848 0.05366244074262544 0.0012131620109330664 -0.01989043613135726 0.0 0.0
0.0 0.07576289721046076 -0.06446521766733881 0.06326872583730807 0.0011964918300306972 -0.023624767508691788 0.0 0.0
0.0 0.08552082847724274 -0.07264451190368734 0.07155100856377494 0.0010935033399122615 -0.02868104259960346 0.0 0.0
0.0 0.09041400562563931 -0.07652172117241773 0.07563294753541247 0.0008887736370052793 -0.03419833059580296 0.0 0.0
0.0 0.0858335745678983 -0.07175744702939016 0.0711949577532003 0.0005624892761898055 -0.03813228555178649 0.0 0.0
0.0 0.07808115358432118 -0.06217103500196143 0.05733086998778461 0.004840165014176764 1.8638736387632804e-14 0.0 0.0
0.0 0.085833574567892 -0.07175744702937865 0.07119495775318903 0.0005624892761896421 0.038132285551828626 0.0 0.0
0.0 0.09041400562561507 -0.07652172117239231 0.07563294753538705 0.0008887736370052296 0.034198330595844005 0.0 0.0
0.0 0.08552082847720496 -0.07264451190365276 0.0715510085637406 0.0010935033399121085 0.028681042599626273 0.0 0.0
0.0 0.07576289721040944 -0.06446521766729474 0.06326872583726324 0.0011964918300313972 0.02362476750869171 0.0 0.0
0.0 0.06418673895549244 -0.05487560275351342 0.053662440742580995 0.0012131620109324848 0.019890436131346938 0.0 0.0
0.0 0.05332893249676006 -0.04545983952057103 0.04428969578510091 0.0011701437354701544 0.017148665086957955 0.0 0.0
0.0 0.04333447027866509 -0.03685375550109239 0.035754312660497764 0.0010994428405946039 0.014824082070517587 0.0 0.0
0.0 0.03422779458804938 -0.02915062511860452 0.028128628818626187 0.0010219962999783053 0.012605917514835195 0.0 0.0
0.0 0.02613685561999964 -0.022264980242356132 0.021320491999303744 0.0009444882430523665 0.010367914700381077 0.0 0.0
0.0 0.018919923205192 -0.016135502897267492 0.015264854446125558 0.0008706484511419207 0.008051102701278238 0.0 0.0
0.0 0.012623847685818363 -0.010797733575604151 0.010005052779226645 0.0007926807963775111 0.005706279026790204 0.0 0.0
0.0 0.0072786710462663185 -0.006381802679822159 0.0056981832083075334 0.0006836194715146265 0.0034927803250609586 0.0 0.0
0.0 0.003782065766803067 -0.00304846434121605 0.002558778483373234 0.0004896858578428157 0.0016655972018662151 0.0 0.0
0.0 0.0011860561383624053 -0.001024023081009282 0.0007993629821112865 0.00022466009889799557 0.0005869175108409647 0.0 0.0
0.0 0.0002177371357919936 -0.00013732609958584763 0.00010124498279965173 3.608111678619567e-05 7.92539808253636e-05 0.0 0.0
0.0 -1.3210436927477238e-05 2.2696849563761713e-06 -2.224755362126357e-06 -4.492959424984854e-08 -5.2813754657283325e-06 0.0 0.0
0.0 -2.6230777723549396e-07 7.106391942754259e-07 -5.724080530186147e-07 -1.3823114125680662e-07 -1.6228621747251483e-06 0.0 0.0
0.0 -3.0083172820327663e-07 -1.6894082390560128e-08 1.3667650956397697e-08 3.226431434162971e-09 5.3084951026648725e-08 0.0 0.0
0.0 0.0 0.0 0.0 0.0 0.0 0.0 0.0
0.0 0.0 0.0 0.0 0.0 0.0 0.0 0.0
0.0 0.0 0.0 0.0 0.0 0.0 0.0 0.0
0.0 0.0 0.0 0.0 0.0 0.0 0.0 0.0
0.0 -1.680433764396781e-07 -1.0793184899027673e-08 8.54508648894806e-09 2.2480984100807976e-09 -2.827633481288059e-08 0.0 0.0
0.0 -1.7675719930696788e-06 3.8809153855401365e-07 -3.093260048391015e-07 -7.876553371494096e-08 8.192248843765861e-07 0.0 0.0
0.0 1.0318961213637427e-05 4.604212315639721e-06 -5.061055234785296e-06 4.568429191456532e-07 1.4391905212590183e-05 0.0 0.0
0.0 0.00038432485225197176 -0.00037092974114815005 0.0002778165500210393 9.311319112711061e-05 -0.00016349745547288895 0.0 0.0
0.0 0.002083108745497615 -0.001674669858691366 0.0013386969459999202 0.0003359729126914457 -0.0006420989816545179 0.0 0.0
0.0 0.0049135990534330915 -0.004368970647990158 0.003765962313185785 0.0006030083348043718 -0.0017874172311824527 0.0 0.0
0.0 0.00960480618813776 -0.008406781992767363 0.007641100400476491 0.0007656815922908763 -0.003484246351317586 0.0 0.0
0.0 0.015773862530099485 -0.013683682627785505 0.012819456752978062 0.0008642258748074519 -0.005496059678224377 0.0 0.0
0.0 0.02324858678397672 -0.020057229120628867 0.0191133749556402 0.0009438541649886535 -0.007650995554215663 0.0 0.0
0.0 0.03187079412136749 -0.027406906324684416 0.026383194013794284 0.0010237123108901031 -0.009779496459122088 0.0 0.0
0.0 0.041641685350926126 -0.0356937667292385 0.034586021627713556 0.0011077451015249283 -0.011852159531416322 0.0 0.0
0.0 0.052223928109108864 -0.04497002288111872 0.04377717948613629 0.001192843394982469 -0.013943705659569162 0.0 0.0
0.0 0.06432476362056072 -0.05529701226833901 0.05402518062269102 0.0012718316456480005 -0.016122783953332182 0.0 0.0
0.0 0.07752316951914749 -0.0665912444294731 0.06526614771999936 0.0013250967094736734 -0.0185071608953217 0.0 0.0
0.0 0.09085673922312436 -0.07816968142686617 0.076861894152034 0.0013077872748321763 -0.021569457883513315 0.0 0.0
0.0 0.10260761737268845 -0.08811721219155105 0.08694448781071423 0.0011727243808368334 -0.026121940902445576 0.0 0.0
0.0 0.10873006429494095 -0.09294390698275806 0.09202892507178331 0.0009149819109746534 -0.03235443888238541 0.0 0.0
0.0 0.10360128382556469 -0.08771914501046855 0.08717213504579718 0.0005470099646713659 -0.039536975494325256 0.0 0.0
0.0 0.0943355615225882 -0.07695167276936356 0.0716177533959964 0.005333919373367185 1.851643838257644e-14 0.0 0.0
0.0 0.10360128382555127 -0.08771914501045203 0.08717213504578059 0.0005470099646714149 0.03953697549436552 0.0 0.0
0.0 0.10873006429491297 -0.09294390698273017 0.09202892507175575 0.000914981910974303 0.03235443888242479 0.0 0.0
0.0 0.10260761737264193 -0.08811721219150986 0.08694448781067311 0.0011727243808367098 0.026121940902466858 0.0 0.0
0.0 0.09085673922306506 -0.0781696814268148 0.0768618941519824 0.0013077872748324076 0.021569457883514918 0.0 0.0
0.0 0.07752316951908647 -0.06659124442942 0.06526614771994689 0.0013250967094730443 0.01850716089531571 0.0 0.0
0.0 0.06432476362049785 -0.055297012268284644 0.05402518062263723 0.0012718316456473853 0.01612278395332267 0.0 0.0
0.0 0.0522239281090443 -0.04497002288106297 0.0437771794860812 0.001192843394981763 0.013943705659556504 0.0 0.0
0.0 0.04164168535086099 -0.03569376672918211 0.034586021627657226 0.0011077451015249254 0.011852159531401611 0.0 0.0
0.0 0.03187079412130558 -0.027406906324631324 0.026383194013741576 0.0010237123108897414 0.009779496459103592 0.0 0.0
0.0 0.023248586783923504 -0.020057229120583404 0.019113374955594994 0.0009438541649884189 0.0076509955541953145 0.0 0.0
0.0 0.01577386253005655 -0.013683682627748339 0.012819456752941542 0.0008642258748067819 0.005496059678208101 0.0 0.0
0.0 0.009604806188107742 -0.008406781992740999 0.007641100400450875 0.000765681592290123 0.00348424635130647 0.0 0.0
0.0 0.004913599053411573 -0.004368970647971455 0.003765962313168283 0.0006030083348031723 0.0017874172311740538 0.0 0.0
0.0 0.0020831087454840705 -0.001674669858680575 0.0013386969459908233 0.0003359729126897501 0.0006420989816494846 0.0 0.0
0.0 0.00038432485224751357 -0.0003709297411450043 0.0002778165500186816 9.311319112632229e-05 0.00016349745547165673 0.0 0.0
0.0 1.0318961213196272e-05 4.604212315082507e-06 -5.0610552343330954e-06 4.568429192507154e-07 -1.4391905211812844e-05 0.0 0.0
0.0 -1.7675719932498442e-06 3.880915385461441e-07 -3.093260048363358e-07 -7.876553370980688e-08 -8.192248843542872e-07 0.0 0.0
0.0 -1.6804337643450485e-07 -1.0793184898566844e-08 8.545086488621468e-09 2.248098409945835e-09 2.8276334812116163e-08 0.0 0.0
0.0 0.0 0.0 0.0 0.0 0.0 0.0 0.0
0.0 0.0 0.0 0.0 0.0 0.0 0.0 0.0
0.0 0.0 0.0 0.0 0.0 0.0 0.0 0.0
0.0 0.0 0.0 0.0 0.0 0.0 0.0 0.0
0.0 0.0 0.0 0.0 0.0 0.0 0.0 0.0
0.0 -2.5003995572246444e-06 1.2943868651336075e-06 -1.0378119788903895e-06 -2.565748862432102e-07 1.748640916213094e-06 0.0 0.0
0.0 5.7573288322020724e-05 -3.0648476316090515e-05 2.007526332964239e-05 1.0573212986448394e-05 1.8462252922935309e-06 0.0 0.0
0.0 0.0007891257975138571 -0.0006636128434177539 0.0005023754676448955 0.00016123737577285795 -0.0001460489904837738 0.0 0.0
0.0 0.00284794746849989 -0.002495307503820572 0.0020471887160352534 0.0004481187877853163 -0.000632775403181686 0.0 0.0
0.0 0.006425050582841986 -0.005766832301382345 0.005079807124901834 0.000687025176480513 -0.001661834345701475 0.0 0.0
0.0 0.01186570700754642 -0.01048005067251997 0.009649453157001676 0.000830597515518282 -0.003063829459860432 0.0 0.0
0.0 0.019004817433581078 -0.016597616548714292 0.015672312874402648 0.0009253036743116455 -0.004757094287839825 0.0 0.0
0.0 0.027589614440839468 -0.02399858309712215 0.02298909297267738 0.0010094901244447599 -0.0065768738762957725 0.0 0.0
0.0 0.03761764059276961 -0.032569971026811737 0.031473537952553296 0.0010964330742584455 -0.008378310963725672 0.0 0.0
0.0 0.048733384600144584 -0.04227291853352988 0.041085216253231895 0.0011877022802979915 -0.010145363685328866 0.0 0.0
0.0 0.06153782103702568 -0.05312162070711719 0.05184476885047731 0.0012768518566397867 -0.011967320000235942 0.0 0.0
0.0 0.07534489112063199 -0.06513584907991896 0.06377653884599548 0.0013593102339234833 -0.013885196459600898 0.0 0.0
0.0 0.09024249129929723 -0.07817343707238489 0.0767512854392841 0.001422151633100958 -0.015793758770395894 0.0 0.0
0.0 0.10579590379755374 -0.09154558255222699 0.09012656522836535 0.0014190173238616461 -0.017772283311395118 0.0 0.0
0.0 0.11946325099823188 -0.10324851610957143 0.1019803732720504 0.0012681428375210199 -0.02101700543520435 0.0 0.0
0.0 0.12692436737840382 -0.10933235850555394 0.10838138766096436 0.0009509708445895234 -0.02785524925361918 0.0 0.0
0.0 0.12198235075307323 -0.10412662236073013 0.10361423331396934 0.000512389046761 -0.039477380770396614 0.0 0.0
0.0 0.11198558811176489 -0.09246204132650737 0.086703198789554 0.005758842536953337 1.608262134578098e-14 0.0 0.0
0.0 0.1219823507530549 -0.10412662236071075 0.10361423331394952 0.0005123890467612698 0.03947738077043164 0.0 0.0
0.0 0.1269243673783734 -0.10933235850552483 0.1083813876609361 0.00095097084458872 0.027855249253655564 0.0 0.0
0.0 0.11946325099817388 -0.10324851610952127 0.10198037327199957 0.0012681428375216541 0.021017005435222974 0.0 0.0
0.0 0.10579590379748709 -0.09154558255216926 0.09012656522830768 0.0014190173238615752 0.017772283311397328 0.0 0.0
0.0 0.09024249129922704 -0.07817343707232388 0.07675128543922367 0.0014221516331002074 0.01579375877039221 0.0 0.0
0.0 0.07534489112055699 -0.06513584907985398 0.06377653884593115 0.0013593102339228534 0.013885196459593008 0.0 0.0
0.0 0.061537821036951046 -0.05312162070705253 0.051844768850413066 0.0012768518566394374 0.011967320000226215 0.0 0.0
0.0 0.04873338460007237 -0.042272918533467506 0.0410852162531699 0.001187702280297626 0.01014536368531842 0.0 0.0
0.0 0.03761764059269948 -0.03256997102675072 0.031473537952492775 0.0010964330742579747 0.008378310963711071 0.0 0.0
0.0 0.02758961444078006 -0.02399858309707082 0.022989092972626333 0.0010094901244444858 0.006576873876278552 0.0 0.0
0.0 0.01900481743353211 -0.01659761654867188 0.015672312874360737 0.0009253036743111471 0.004757094287825633 0.0 0.0
0.0 0.011865707007510292 -0.010480050672488209 0.009649453156970517 0.0008305975155176935 0.0030638294598505926 0.0 0.0
0.0 0.006425050582816711 -0.005766832301359568 0.005079807124880161 0.0006870251764794081 0.0016618343456937087 0.0 0.0
0.0 0.002847947468485689 -0.0024953075038084234 0.0020471887160246616 0.0004481187877837626 0.0006327754031778068 0.0 0.0
0.0 0.0007891257975076232 -0.0006636128434130548 0.0005023754676412299 0.00016123737577182425 0.00014604899048244955 0.0 0.0
0.0 5.7573288321241095e-05 -3.064847631614301e-05 2.0075263329742353e-05 1.0573212986400587e-05 -1.8462252918552946e-06 0.0 0.0
0.0 -2.500399557075926e-06 1.2943868645681468e-06 -1.0378119784692311e-06 -2.5657488609891017e-07 -1.7486409157571602e-06 0.0 0.0
0.0 0.0 0.0 0.0 0.0 0.0 0.0 0.0
0.0 0.0 0.0 0.0 0.0 0.0 0.0 0.0
0.0 0.0 0.0 0.0 0.0 0.0 0.0 0.0
0.0 0.0 0.0 0.0 0.0 0.0 0.0 0.0
0.0 0.0 0.0 0.0 0.0 0.0 0.0 0.0
0.0 0.0 0.0 0.0 0.0 0.0 0.0 0.0
0.0 -2.861116292544202e-06 3.1482182146489e-06 -2.51741071837778e-06 -6.308074962711354e-07 2.588737524417153e-06 0.0 0.0
0.0 0.00012499702635788913 -0.00012397388943072025 8.715299062128274e-05 3.682089880943736e-05 1.946777049589446e-06 0.0 0.0
0.0 0.0013178965929354265 -0.0010804607508672218 0.0008340990726923796 0.0002463616781748417 -7.864090421005052e-05 0.0 0.0
0.0 0.003657171863066252 -0.0034225424526008225 0.0028789782616104676 0.0005435641909903576 -0.0005048719048386765 0.0 0.0
0.0 0.008023299927626968 -0.007209064887730991 0.00645458237530953 0.0007544825124214702 -0.00123546906238501 0.0 0.0
0.0 0.01416499542570606 -0.01257345302911865 0.01168909025278673 0.0008843627763319088 -0.0022590831389181294 0.0 0.0
0.0 0.02223343488331493 -0.019512713237963084 0.018533234016261738 0.0009794792217013414 -0.0034998384903333433 0.0 0.0
0.0 0.03201994686325133 -0.027931433242665532 0.02686148102012069 0.001069952222544815 -0.004840252046009699 0.0 0.0
0.0 0.04328985871910881 -0.03772722866656068 0.03656320682946647 0.0011640218370942035 -0.006170596306010749 0.0 0.0
0.0 0.05633345974070866 -0.04884827443761392 0.04758696689200451 0.0012613075456094033 -0.007491752105258038 0.0 0.0
0.0 0.07044143590718582 -0.06128793101197258 0.059932328410260034 0.001355602601712505 -0.008904259164140556 0.0 0.0
0.0 0.08624996728364807 -0.07495650943673354 0.07351899866123246 0.0014375107755011055 -0.010406516760859484 0.0 0.0
0.0 0.1031503398602959 -0.08957717894034875 0.08808091146443972 0.001496267475908925 -0.011778416122460068 0.0 0.0
0.0 0.12033954907486027 -0.10445179792451614 0.10293818602123368 0.0015136119032825347 -0.012724607716470682 0.0 0.0
0.0 0.13579034511659618 -0.11781483428697354 0.11639995855162616 0.0014148757353474087 -0.014040796601180525 0.0 0.0
0.0 0.14513673730510473 -0.12566128880387772 0.12462672706806505 0.0010345617358125767 -0.01994022914073579 0.0 0.0
0.0 0.14122736653707782 -0.12132446779742376 0.12089097370637077 0.00043349409105283246 -0.03697880397288007 0.0 0.0
0.0 0.13114501031658224 -0.1092063725808141 0.10312182204395794 0.006084550536856095 1.1619177842092654e-14 0.0 0.0
0.0 0.141227366537057 -0.12132446779740326 0.12089097370635066 0.000433494091052641 0.03697880397290783 0.0 0.0
0.0 0.14513673730506343 -0.1256612888038406 0.12462672706802863 0.0010345617358121163 0.019940229140763543 0.0 0.0
0.0 0.1357903451165332 -0.11781483428691904 0.11639995855157191 0.0014148757353471498 0.01404079660119356 0.0 0.0
0.0 0.12033954907478366 -0.10445179792444975 0.10293818602116746 0.0015136119032824412 0.012724607716471664 0.0 0.0
0.0 0.10315033986021777 -0.08957717894028051 0.08808091146437308 0.0014962674759074828 0.01177841612245777 0.0 0.0
0.0 0.08624996728356253 -0.07495650943665957 0.07351899866115874 0.001437510775500832 0.010406516760855583 0.0 0.0
0.0 0.0704414359071018 -0.06128793101190001 0.05993232841018788 0.0013556026017122042 0.008904259164132785 0.0 0.0
0.0 0.05633345974062703 -0.04884827443754309 0.04758696689193405 0.0012613075456090134 0.00749175210525035 0.0 0.0
0.0 0.04328985871903238 -0.03772722866649458 0.03656320682940105 0.0011640218370934806 0.006170596306000888 0.0 0.0
0.0 0.0320199468631881 -0.027931433242609938 0.026861481020065858 0.0010699522225440935 0.004840252045997326 0.0 0.0
0.0 0.022233434883261138 -0.01951271323791572 0.018533234016214935 0.0009794792217007822 0.003499838490322545 0.0 0.0
0.0 0.014164995425664099 -0.012573453029081376 0.011689090252750188 0.0008843627763311942 0.0022590831389106506 0.0 0.0
0.0 0.008023299927598511 -0.007209064887705381 0.006454582375284937 0.0007544825124204356 0.001235469062379335 0.0 0.0
0.0 0.003657171863050064 -0.003422542452585899 0.0028789782615969177 0.0005435641909889842 0.0005048719048353017 0.0 0.0
0.0 0.0013178965929272082 -0.0010804607508602987 0.0008340990726868139 0.0002463616781734836 7.864090420897329e-05 0.0 0.0
0.0 0.00012499702635661728 -0.00012397388943044597 8.715299062115202e-05 3.6820898809293855e-05 -1.9467770490407514e-06 0.0 0.0
0.0 -2.8611162927351753e-06 3.148218214480337e-06 -2.517410718253635e-06 -6.308074962267216e-07 -2.5887375244215014e-06 0.0 0.0
0.0 0.0 0.0 0.0 0.0 0.0 0.0 0.0
0.0 0.0 0.0 0.0 0.0 0.0 0.0 0.0
0.0 0.0 0.0 0.0 0.0 0.0 0.0 0.0
0.0 0.0 0.0 0.0 0.0 0.0 0.0 0.0
0.0 0.0 0.0 0.0 0.0 0.0 0.0 0.0
0.0 0.0 0.0 0.0 0.0 0.0 0.0 0.0
0.0 -5.069496636049131e-06 3.7969505551240002e-06 -3.3212746106384806e-06 -4.756759444855207e-07 3.2580701168500537e-06 0.0 0.0
0.0 0.0003351935453377074 -0.00025862922416147234 0.00018476042550918535 7.386879865228725e-05 4.796963012161072e-05 0.0 0.0
0.0 0.0018303892726097253 -0.0016180434204909402 0.001279057478117012 0.0003389859423739278 5.160697715039415e-05 0.0 0.0
0.0 0.004770779904906265 -0.004388208035671989 0.003770920434134152 0.0006172876015378367 -0.0001705793505489427 0.0 0.0
0.0 0.009639658696423718 -0.008672500737955518 0.007863940115453277 0.000808560622502234 -0.0005472454791500595 0.0 0.0
0.0 0.01654381090507783 -0.014659826968712635 0.013729666898390678 0.0009301600703219708 -0.0010765038916817032 0.0 0.0
0.0 0.0254607521645382 -0.022402034137480233 0.02137282525849517 0.001029208878985045 -0.0017314073937547817 0.0 0.0
0.0 0.036367783818525234 -0.03183073209364869 0.03070454526897723 0.0011261868246714834 -0.0024409294875937094 0.0 0.0
0.0 0.04924969159421437 -0.04285089307629918 0.04162423324590839 0.001226659830390803 -0.003156391245725213 0.0 0.0
0.0 0.06344980735837645 -0.05540493636536223 0.05407452950689512 0.0013304068584670337 -0.0039134054128066465 0.0 0.0
0.0 0.07962790266846881 -0.06941956168022473 0.06799045122546707 0.0014291104547576295 -0.004741595971105118 0.0 0.0
0.0 0.0972808510495406 -0.08471606943658623 0.08320714481556307 0.0015089246210232107 -0.005619400737163079 0.0 0.0
0.0 0.11591498240204012 -0.10084103279155116 0.09928390855229353 0.0015571242392575359 -0.006402590899258249 0.0 0.0
0.0 0.13452821111155733 -0.11692239399916698 0.11535393669728053 0.0015684573018865014 -0.00674624481997406 0.0 0.0
0.0 0.15136868231508238 -0.13147888076734088 0.1299322871846792 0.0015465935826617725 -0.006638404748656733 0.0 0.0
0.0 0.1629270162172312 -0.14145872894818576 0.14011739854867936 0.0013413303995062575 -0.00923487527187116 0.0 0.0
0.0 0.16171648036845465 -0.13971433817079176 0.13934321676696082 0.00037112140383094836 -0.026990103390344845 0.0 0.0
0.0 0.15300815761489475 -0.12827911113626936 0.12226971841843287 0.0060093927178363985 6.291842047367879e-15 0.0 0.0
0.0 0.16171648036843206 -0.1397143381707707 0.13934321676694028 0.00037112140383030185 0.026990103390361266 0.0 0.0
0.0 0.1629270162171801 -0.14145872894814102 0.14011739854863497 0.0013413303995058249 0.00923487527188743 0.0 0.0
0.0 0.151368682315008 -0.13147888076727687 0.12993228718461516 0.0015465935826616756 0.006638404748663157 0.0 0.0
0.0 0.13452821111147284 -0.11692239399909399 0.11535393669720759 0.0015684573018863916 0.0067462448199746925 0.0 0.0
0.0 0.11591498240195153 -0.10084103279147401 0.09928390855221735 0.0015571242392566267 0.006402590899257216 0.0 0.0
0.0 0.09728085104944796 -0.08471606943650595 0.08320714481548327 0.0015089246210227554 0.005619400737160539 0.0 0.0
0.0 0.07962790266837662 -0.06941956168014474 0.06799045122538784 0.0014291104547567903 0.004741595971101517 0.0 0.0
0.0 0.06344980735828504 -0.055404936365283014 0.05407452950681617 0.0013304068584668095 0.003913405412802913 0.0 0.0
0.0 0.04924969159413089 -0.042850893076226595 0.041624233245836466 0.0012266598303901275 0.0031563912457188903 0.0 0.0
0.0 0.036367783818454597 -0.03183073209358727 0.03070454526891669 0.0011261868246705755 0.0024409294875869904 0.0 0.0
0.0 0.025460752164481005 -0.022402034137429833 0.021372825258445565 0.001029208878984263 0.0017314073937491317 0.0 0.0
0.0 0.01654381090503247 -0.014659826968672298 0.013729666898350933 0.0009301600703213531 0.0010765038916779337 0.0 0.0
0.0 0.00963965869639151 -0.008672500737926496 0.007863940115425103 0.0008085606225013875 0.000547245479147316 0.0 0.0
0.0 0.004770779904886129 -0.004388208035653397 0.0037709204341168346 0.0006172876015365611 0.00017057935054687773 0.0 0.0
0.0 0.001830389272599481 -0.001618043420481947 0.0012790574781094786 0.00033898594237246867 -5.160697715066498e-05 0.0 0.0
0.0 0.00033519354533479096 -0.0002586292241596577 0.0001847604255079093 7.386879865174857e-05 -4.796963012114077e-05 0.0 0.0
0.0 -5.069496636026468e-06 3.796950554619313e-06 -3.3212746102605955e-06 -4.756759443586632e-07 -3.2580701167552406e-06 0.0 0.0
0.0 0.0 0.0 0.0 0.0 0.0 0.0 0.0
0.0 0.0 0.0 0.0 0.0 0.0 0.0 0.0
0.0 0.0 0.0 0.0 0.0 0.0 0.0 0.0
0.0 0.0 0.0 0.0 0.0 0.0 0.0 0.0
0.0 0.0 0.0 0.0 0.0 0.0 0.0 0.0
0.0 0.0 0.0 0.0 0.0 0.0 0.0 0.0
0.0 1.026292987446131e-05 -8.941994852913443e-06 5.4271782347949454e-06 3.5148166181186106e-06 5.7636475203671555e-06 0.0 0.0
0.0 0.0006063685965149362 -0.00044222472564411783 0.0003146359962028965 0.00012758872944122133 0.00011580715750587797 0.0 0.0
0.0 0.0023781966966810566 -0.002107179065330335 0.0016495298458535726 0.0004576492194767617 0.0002737508454792784 0.0 0.0
0.0 0.005645981176585855 -0.005209231210577586 0.004425229587823273 0.0007840016227543146 0.0003550868918632086 0.0 0.0
0.0 0.010920390661115442 -0.009882241925814467 0.008840190797176892 0.0010420511286375693 0.0004004758260431569 0.0 0.0
0.0 0.01829472411121965 -0.016371098058017123 0.015110531498389692 0.0012605665596274144 0.00040232499653320005 0.0 0.0
0.0 0.027936054189407748 -0.02476681238269054 0.023275351685809985 0.0014914606968805496 0.00032965765894470817 0.0 0.0
0.0 0.03978629706778787 -0.03503274530817792 0.03327369188728742 0.0017590534208904766 0.00022371311309883277 0.0 0.0
0.0 0.053416040710554245 -0.0470854076791064 0.045016743734855806 0.0020686639442505806 8.233501936824247e-05 0.0 0.0
0.0 0.06907040235619386 -0.06082521766114272 0.05841480102110558 0.0024104166400371035 -0.00014433672908115668 0.0 0.0
0.0 0.08655961522453717 -0.07613788980242611 0.07336995840914716 0.0027679313932790464 -0.0004236441058476127 0.0 0.0
0.0 0.10560596746429549 -0.09277441439431591 0.08966264888586419 0.0031117655084515524 -0.00080317057642567 0.0 0.0
0.0 0.12557445290985358 -0.11013799229542419 0.10673693568559298 0.003401056609831218 -0.0012353988148406398 0.0 0.0
0.0 0.14517763023625754 -0.1271337443874785 0.12354834176243676 0.0035854026250415616 -0.0015322548891000126 0.0 0.0
0.0 0.16256752510216643 -0.1421782248064226 0.1385531124055115 0.0036251124009109696 -0.0014160242585897556 0.0 0.0
0.0 0.1752536769214693 -0.15331276071883373 0.14966825366499806 0.003644507053835869 -0.002434589901855775 0.0 0.0
0.0 0.17773703947309794 -0.15597251914418694 0.15229974665490761 0.0036727724892793683 -0.019860634693639693 0.0 0.0
0.0 0.1735242576019119 -0.14770134091768347 0.1373914152449764 0.010309925672706808 1.7208456881689926e-15 0.0 0.0
0.0 0.17773703947307404 -0.15597251914416546 0.15229974665488727 0.0036727724892781782 0.01986063469364599 0.0 0.0
0.0 0.1752536769214133 -0.15331276071878486 0.14966825366495065 0.0036445070538342135 0.0024345899018619107 0.0 0.0
0.0 0.16256752510208108 -0.14217822480634845 0.13855311240543863 0.00362511240090998 0.0014160242585896723 0.0 0.0
0.0 0.14517763023616642 -0.12713374438739886 0.12354834176235854 0.003585402625040114 0.0015322548890999224 0.0 0.0
0.0 0.12557445290975605 -0.11013799229533924 0.10673693568550918 0.0034010566098299708 0.0012353988148420033 0.0 0.0
0.0 0.10560596746419632 -0.09277441439422901 0.08966264888577935 0.003111765508449508 0.0008031705764239127 0.0 0.0
0.0 0.08655961522443974 -0.07613788980234022 0.07336995840906455 0.00276793139327564 0.00042364410584616596 0.0 0.0
0.0 0.06907040235609443 -0.06082521766105621 0.058414801021020035 0.0024104166400362175 0.0001443367290805079 0.0 0.0
0.0 0.053416040710462784 -0.04708540767902657 0.04501674373477765 0.0020686639442488576 -8.233501937173014e-05 0.0 0.0
0.0 0.03978629706771082 -0.035032745308110354 0.03327369188722156 0.0017590534208887956 -0.00022371311310124403 0.0 0.0
0.0 0.027936054189345638 -0.024766812382636203 0.02327535168575732 0.0014914606968789142 -0.0003296576589462753 0.0 0.0
0.0 0.01829472411117207 -0.01637109805797521 0.015110531498348855 0.0012605665596263653 -0.0004023249965340301 0.0 0.0
0.0 0.01092039066107975 -0.009882241925782246 0.008840190797146022 0.0010420511286362089 -0.00040047582604275434 0.0 0.0
0.0 0.005645981176563709 -0.005209231210557075 0.004425229587804192 0.0007840016227528771 -0.0003550868918630961 0.0 0.0
0.0 0.0023781966966697253 -0.002107179065319518 0.001649529845844545 0.0004576492194749746 -0.00027375084547811066 0.0 0.0
0.0 0.0006063685965110835 -0.00044222472564134927 0.00031463599620093474 0.00012758872944041515 -0.00011580715750517914 0.0 0.0
0.0 1.0262929874219729e-05 -8.941994852884028e-06 5.427178234786858e-06 3.5148166180971586e-06 -5.76364752029782e-06 0.0 0.0
0.0 0.0 0.0 0.0 0.0 0.0 0.0 0.0
0.0 0.0 0.0 0.0 0.0 0.0 0.0 0.0
0.0 0.0 0.0 0.0 0.0 0.0 0.0 0.0
SCALARS Wm float 4
LOOKUP_TABLE default
12.233954244623597 1.9969499681389826 5.066228977049658 5.170775299434959
6.016046885584078 2.906295249799455 1.3864272740491193 1.7233243617355058
0.6721261912051766 0.6344195844651105 0.003888706505464587 0.03381790023460141
0.5151841469897732 0.49201821474219454 0.006291744918858207 0.016874187328720612
1.0146829693035184 0.749315204513211 0.09430485163611135 0.17106291315419614
2.1600700042019643 1.065517060828656 0.3968217434057745 0.6977311999675324
4.439694760415134 1.5106688308063043 1.2415941662868215 1.6874317633220108
8.136850574996108 2.0553548287032157 2.8176417343825615 3.263854011910331
13.597236682982025 2.7376474258940733 5.379527782929492 5.480061474158461
21.08394933603876 3.5924503041611535 9.133954162597886 8.357544869279725
30.739341518290423 4.6495973385981975 14.208955473229164 11.88078870646306
42.51169646785642 5.922070249748277 20.5673850225811 16.022241195527062
56.54015716204091 7.396735992266606 28.39138226922757 20.752038900546747
72.79010053135697 9.060287430503593 37.68865098961529 26.041162111238066
91.05072039067588 10.790749233635198 48.436782477338376 31.823188679702266
110.77250920224213 12.37171121097686 60.44493207652838 37.95586591473689
130.90042157640602 13.538049848034738 73.15617913909571 44.20619258927557
149.97611347755424 14.081785932798738 85.720111206898 50.17421633785738
166.39424960930657 14.034452832329114 96.98162977969376 55.378166997283756
177.91985318824518 13.269122662887298 105.38900087505309 59.26172965030469
181.6975143116807 11.876619231167117 108.90712459452276 60.91377048599077
177.9198531882352 13.269122662904085 105.38900087503423 59.26172965029693
166.39424960926414 14.034452832339523 96.98162977965774 55.378166997266845
149.97611347749523 14.08178593281751 85.72011120684526 50.17421633783243
130.90042157631746 13.538049848030843 73.15617913903861 44.20619258924795
110.77250920213622 12.37171121095312 60.44493207647392 37.955865914709214
91.05072039057734 10.790749233615747 48.43678247728666 31.823188679674924
72.79010053127234 9.060287430501264 37.688650989562426 26.041162111208624
56.540157161956486 7.396735992257948 28.391382269179793 20.7520389005188
42.51169646778263 5.922070249743346 20.5673850225387 16.022241195500623
30.73934151822814 4.649597338590033 14.208955473196792 11.880788706441308
21.083949335991658 3.5924503041567504 9.133954162573229 8.35754486926168
13.597236682948203 2.7376474258900116 5.379527782913161 5.480061474145029
8.136850574973808 2.055354828700905 2.8176417343722884 3.2638540119006167
4.4396947604026975 1.5106688308059593 1.2415941662811476 1.68743176331559
2.160070004195485 1.0655170608272693 0.39682174340394105 0.6977311999642751
1.014682969301052 0.7493152045124722 0.09430485163543602 0.17106291315314381
0.5151841469889531 0.4920182147412864 0.006291744918872518 0.01687418732879445
0.6721261912040017 0.6344195844640137 0.0038887065054603633 0.033817900234527146
6.0160468855787315 2.906295249800057 1.3864272740462535 1.7233243617324172
12.2339542445966 1.9969499681257659 5.0662289770420985 5.170775299428746
14.532298335055915 6.376976643463392 3.9173779722390543 4.2379437193534635
2.369645280817303 0.5189786458958077 0.771754007514727 1.0789126274067689
0.26068551865141215 0.29844709327824176 -0.011731661424152677 -0.02602991320267691
0.40350714223124157 0.3974663468306385 0.0010031709002902556 0.005037624500312766
0.768872134058785 0.6150303241091027 0.04647819982691006 0.10736361012277269
1.7286817703124433 0.8951579382054334 0.30596341531838045 0.5275604167886291
3.6435460405346367 1.209509813389256 1.0040332858881733 1.4300029412572068
6.886737576837887 1.5892851755948292 2.413586596556812 2.8838658046862453
11.70575826534223 2.0220417526481906 4.738664929429875 4.945051583264164
18.26331121389153 2.5122334911775077 8.130792484141967 7.620285238572051
26.64931569062876 3.0593294885668962 12.704403557289746 10.885582644772112
36.948211471570964 3.6776272988763785 18.562965360593836 14.707618812100751
48.98746769503096 4.378957483035123 25.5373374180094 19.07117279398643
63.052504274762995 5.139510815131601 33.959394160519125 23.953599299112277
78.90556968284135 5.907010306420638 43.68758066396844 29.310978712452275
96.1335160866471 6.563356943725039 54.556363306333374 35.01379583658867
113.92087888619918 6.963446467434432 66.14404010067317 40.81339231809153
131.04495313347485 7.003206793215938 77.663952676506 46.37779366375291
145.86251399551108 6.612647428309245 88.00424721115397 51.24561935604784
156.33236084757118 5.839890835707551 95.70546534570305 54.78700466616052
160.2543055971414 4.972333538465774 99.00208460246897 56.27988745620673
156.33236084754824 5.839890835708769 95.70546534568639 54.787004666153045
145.8625139954624 6.612647428306664 88.0042472111226 51.24561935603319
131.0449531334097 7.003206793218469 77.66395267646014 46.37779366373111
113.92087888612753 6.963446467438915 66.14404010062232 40.81339231806628
96.13351608656694 6.56335694371996 54.55636330628366 35.01379583656331
78.90556968276191 5.90701030641387 43.6875806639212 29.310978712426824
63.052504274683116 5.139510815123967 33.95939416047283 23.953599299086303
48.98746769495896 4.378957483032336 25.53733741796614 19.07117279396047
36.94821147150448 3.6776272988711542 18.56296536055648 14.707618812076836
26.649315690575804 3.059329488564964 12.704403557259528 10.88558264475132
18.263311213849967 2.5122334911743547 8.130792484120107 7.6202852385555
11.705758265312355 2.022041752645372 4.738664929415278 4.945051583251704
6.88673757681805 1.5892851755934365 2.4135865965475003 2.8838658046771153
3.6435460405235602 1.2095098133887143 1.0040332858833634 1.430002941251482
1.7286817703070598 0.8951579382043289 0.30596341531657845 0.527560416786152
0.7688721340569807 0.6150303241083486 0.046478199826521155 0.1073636101221111
0.403507142230833 0.39746634683016435 0.001003170900297176 0.005037624500371417
0.26068551865144257 0.29844709327808017 -0.011731661424081536 -0.026029913202556015
2.3696452808105906 0.5189786458947014 0.7717540075120285 1.0789126274038616
14.532298335030113 6.376976643452031 3.9173779722313573 4.237943719346716
10.916013871112309 5.048528114309374 2.7015961237243324 3.165889633078601
1.4640848009016036 0.20209983745243046 0.5125856282194321 0.7493993352297429
0.1639362225396983 0.1639000504300594 4.008405793667811e-06 3.2163703845243424e-05
0.3011977800573486 0.30334783430687057 -0.00047917427408674155 -0.0016708799754352281
0.5852640965831979 0.5252276739529035 0.014816503735111747 0.04521991889518282
1.3443425786534782 0.8027220700044712 0.1916247344445584 0.349995774204449
2.9442517755120865 1.1056354337363814 0.7258747231257875 1.1127416186499175
5.772232093286476 1.462989421815763 1.912475883362394 2.3967667881083172
10.007175590830467 1.85544942321515 3.904741681688103 4.246984485927218
15.796837746604645 2.2848092673569402 6.859969846022334 6.652058633225369
23.15951164551127 2.7578401563504977 10.82721554278508 9.574455946375695
32.079022886656304 3.2883257447172793 15.809330697460705 12.981366444478306
42.73981540761272 3.8992767811101703 21.987018235698084 16.85352039080447
54.919438400767135 4.5805263256882744 29.14083210872998 21.198079966348867
68.81631551459279 5.274851771950563 37.568923425998705 25.97254031664349
83.99311499045176 5.90170907439081 47.01106066392688 31.08034525213407
99.77734079184725 6.34179533089884 57.10632277126942 36.32922268967903
115.06365940934153 6.458014792750428 67.22679434076353 41.378850275827546
128.30377454715162 6.1404395668346154 76.37012377328224 45.79321120703479
137.69782768983646 5.549700677859576 83.162725752848 48.98540125912885
141.0896378403323 4.499394668945858 86.18473827618482 50.40550489520167
137.6978276898245 5.549700677870051 83.16272575283291 48.98540125912143
128.30377454711623 6.1404395668386 76.37012377325566 45.79321120702198
115.0636594092924 6.458014792759375 67.22679434072477 41.378850275808226
99.77734079177928 6.341795330895003 57.10632277122692 36.329222689657385
83.99311499038626 5.901709074393913 47.01106066388197 31.08034525211039
68.81631551452035 5.2748517719416315 37.56892342595778 25.972540316620936
54.91943840070653 4.580526325691882 29.140832108689423 21.1980799663252
42.73981540755207 3.899276781110924 21.987018235660102 16.853520390781057
32.079022886600036 3.288325744713205 15.809330697429232 12.981366444457612
23.15951164546278 2.757840156347878 10.827215542758381 9.57445594635652
15.7968377465696 2.2848092673556946 6.859969846003448 6.652058633210465
10.007175590804316 1.8554494232128624 3.9047416816754446 4.24698448591601
5.772232093268233 1.4629894218133104 1.9124758833545714 2.3967667881003525
2.9442517755023365 1.10563543373466 0.7258747231223407 1.1127416186453352
1.344342578649012 0.8027220700029093 0.19162473444339342 0.3499957742027096
0.5852640965818557 0.5252276739521581 0.014816503734911515 0.04521991889478616
0.3011977800571406 0.3033478343065542 -0.00047917427407025864 -0.0016708799753434287
0.16393622253965776 0.16390005043001502 4.008405793879008e-06 3.21637038488856e-05
1.4640848008965217 0.20209983745191012 0.5125856282173531 0.7493993352272575
10.916013871087806 5.048528114299122 2.701596123717014 3.1658896330716724
8.219834247752171 3.927081136793699 1.899098931179631 2.3936541797788413
0.9765058526969016 0.09840580197029235 0.3364287288581059 0.5416713218685025
0.1152426030988003 0.1152426030988003 0.0 0.0
0.226541359425339 0.22678276842486797 -2.1180751380688758e-05 -0.00022022824814824888
0.44570541394321206 0.436247390463671 0.0013710197330817626 0.008087003746459445
1.001455712778116 0.6934212880323447 0.09716930354596867 0.2108651211998031
2.323760939215295 1.00499045750052 0.5067268014422712 0.8120436802725033
4.70317334423977 1.331644256052926 1.4490229251995974 1.9225061629872446
8.368259370687053 1.6869985361408157 3.125596617352562 3.5556642171936756
13.383519676567234 2.062366461974101 5.634626465108265 5.6865267494848695
19.720416299474767 2.466198069488038 8.986953361644414 8.267264868342316
27.431726621480934 2.9228899933289254 13.25025314288272 11.258583485269286
36.458111711760104 3.448176311704519 18.359368600765585 14.650566799290013
47.081038727621326 4.041991014136713 24.59417103724462 18.44487667623998
59.009721609524 4.6755186545178145 31.69639148685254 22.637811468153647
72.09903574999414 5.276592112347001 39.67211844622698 27.15032519142015
85.95568538293172 5.7467783881417445 48.39717570583257 31.811731288957418
99.48886971812637 5.9458911140344854 57.18507724319798 36.35790136089387
111.31981375739755 5.761013274189278 65.17715452226422 40.38164596094403
119.85474998265629 5.290183732522397 71.2106398155117 43.35392643462221
122.94292293133759 4.03317406723276 74.15313987478207 44.75660898932273
119.85474998263702 5.290183732522878 71.21063981549831 43.3539264346158
111.31981375736838 5.76101327419676 65.17715452223973 40.381645960931905
99.48886971807676 5.9458911140337385 57.18507724316553 36.35790136087748
85.95568538287121 5.7467783881317915 48.397175705799526 31.811731288939896
72.09903574992664 5.276592112338176 39.672118446189074 27.15032519139943
59.00972160946843 4.6755186545185685 31.696391486816765 22.637811468133084
47.081038727556425 4.041991014125723 24.59417103721103 18.444876676219675
36.4581117117076 3.4481763117052964 18.359368600733042 14.650566799269257
27.431726621432805 2.9228899933251262 13.250253142856485 11.258583485251194
19.720416299432603 2.4661980694844505 8.986953361622318 8.267264868325837
13.383519676536274 2.06236646197382 5.634626465091366 5.686526749471083
8.368259370664422 1.6869985361389332 3.1255966173417744 3.555664217183714
4.703173344224918 1.3316442560501938 1.4490229251939302 1.9225061629807934
2.323760939207515 1.0049904574996247 0.5067268014392148 0.8120436802686757
1.0014557127748596 0.693421288030929 0.09716930354526611 0.21086512119866455
0.4457054139423839 0.43624739046288497 0.0013710197330408565 0.008087003746458016
0.22654135942522372 0.22678276842479747 -2.1180751386410703e-05 -0.00022022824818734803
0.11524260309880399 0.11524260309880399 0.0 0.0
0.9765058526927064 0.09840580197000011 0.336428728856341 0.5416713218663656
8.219834247732033 3.927081136785489 1.899098931173861 2.393654179772683
6.09868108418639 3.0323424780159054 1.288809691588116 1.7775289145823692
0.7146216287123495 0.10903604644602255 0.23702442097725673 0.36856116128907046
0.10493139648727656 0.10493139648727656 0.0 0.0
0.1812961893068565 0.1812838712631335 9.197513943011001e-07 1.139829232870362e-05
0.3421990144044652 0.34783021779556544 -0.00213072886015864 -0.003500474530941515
0.7351744472128637 0.5968354423144462 0.03831117011654577 0.10002783478187144
1.758884799367888 0.8838263374373893 0.328425841379325 0.5466326205511748
3.6961078407027914 1.1967249955273287 1.0326510562202098 1.4667317889552531
6.786192452926992 1.5158385364704372 2.395488115429745 2.874865801026812
11.032006893849987 1.8428176118183501 4.461472069971699 4.7277172120599396
16.40374707413166 2.1884640886197944 7.250047196366 6.965235789145866
22.880898861075558 2.57391521231496 10.763852042458963 9.543131606301637
30.532546067377456 3.024783215589903 15.05555587170433 12.452206980083231
39.28999164334697 3.542246057620534 20.037741743470196 15.710003842256242
49.40527619128743 4.100846386849911 25.99261264742391 19.3118171570136
60.62490511806247 4.671843784925636 32.74027792252741 23.212783410609447
72.45239256424237 5.173991467026564 39.98272329930231 27.2956777979135
84.26880002132162 5.472124152721323 47.47384484751923 31.322831021081075
94.83213670596862 5.430465013148345 54.447347531391884 34.95432416142842
102.72210806054898 5.061535222118545 59.92114134491425 37.739431493516115
105.63086320381593 3.578756751717513 62.84528052318661 39.20682592891184
102.72210806052868 5.061535222111746 59.92114134490534 37.73943149351156
94.83213670593999 5.430465013151748 54.447347531370774 34.954324161417475
84.26880002128324 5.472124152721326 47.473844847494156 31.322831021067763
72.45239256419613 5.173991467021783 39.98272329927539 27.29567779789896
60.62490511801181 4.671843784922405 32.74027792249716 23.212783410592245
49.40527619123863 4.1008463868506295 25.992612647392875 19.311817156995136
39.289991643302585 3.5422460576187524 20.037741743444013 15.71000384223982
30.532546067330042 3.0247832155846863 15.055555871679044 12.452206980066302
22.880898861035654 2.5739152123121785 10.763852042437353 9.543131606286119
16.403747074096927 2.1884640886167412 7.2500471963481825 6.965235789131995
11.032006893822867 1.8428176118172805 4.461472069957651 4.72771721204794
6.786192452907734 1.5158385364686537 2.3954881154209735 2.874865801018106
3.696107840691023 1.1967249955257968 1.0326510562154614 1.4667317889497657
1.7588847993615033 0.8838263374369038 0.3284258413768116 0.546632620547788
0.7351744472106463 0.5968354423134886 0.03831117011611507 0.10002783478104225
0.34219901440407896 0.3478302177950234 -0.0021307288601307723 -0.003500474530813706
0.18129618930668706 0.18128387126299067 9.197513928445193e-07 1.139829230359575e-05
0.10493139648714353 0.10493139648714353 0.0 0.0
0.7146216287091175 0.10903604644601268 0.23702442097578352 0.3685611612873219
6.098681084169836 3.032342478008641 1.2888096915837952 1.7775289145773974
4.4395758407372234 2.3226531753803004 0.8501084233553595 1.266814242001564
0.5058347248844792 0.14270596235910968 0.12542165345581838 0.2377071090695507
0.11810025305685797 0.11810025305685797 0.0 0.0
0.1596535535137441 0.15963674177074827 1.129460470085056e-06 1.5682282525750767e-05
0.2750207171694711 0.28026019046984607 -0.0010564980771704331 -0.004182975223204616
0.531666281407933 0.4907443260803189 0.006499799703853094 0.03442215562376108
1.2433658037206747 0.7452088338643105 0.1618149058104114 0.3363420640459527
2.806485492245124 1.0528297552628323 0.7159203737981459 1.0377353631841457
5.25356463448115 1.339378795366494 1.705256729919027 2.2089291091956316
8.775648172457055 1.626418290701046 3.369948356115736 3.77928152564027
13.189464908788377 1.9195548173344354 5.598799635869087 5.6711104555848495
18.476580276180727 2.244065559322856 8.39521650882448 7.837298208033394
24.67051474318352 2.624616076243082 11.779189795969561 10.266708870970879
31.89303185305331 3.0680392701811514 15.841567978191666 12.983424604680497
40.11137225238405 3.5692427166120764 20.540987682558114 16.001141853213838
49.27663687808495 4.08990731932145 25.896521561090037 19.29020799767347
59.336847496711854 4.601543389890066 31.976551978565855 22.758752128255935
69.44183406578273 5.013773995987093 38.16100056906365 26.267059500731975
78.74350902530139 5.132349268278839 44.073903692560265 29.537256064462262
86.13583807855775 4.865511024258125 49.095482376488896 32.17484467781073
88.97456479708512 3.1447345335760555 52.09386682579782 33.73596343771126
86.13583807855538 4.8655110242674215 49.09548237648129 32.1748446778066
78.7435090252736 5.1323492682753225 44.07390369254451 29.53725606445378
69.44183406575073 5.013773995985732 38.16100056904376 26.267059500721224
59.336847496678 4.601543389893195 31.97655197854226 22.75875212824255
49.276636878040314 4.089907319315892 25.896521561065573 19.290207997658865
40.11137225234023 3.569242716608114 20.54098768253356 16.001141853198558
31.89303185301583 3.06803927018109 15.84156797816918 12.983424604665554
24.670514743146157 2.6246160762366735 11.779189795951359 10.26670887095813
18.47658027614934 2.2440655593235923 8.395216508806165 7.837298208019587
13.189464908759831 1.919554817331617 5.598799635854938 5.671110455573279
8.775648172434979 1.6264182907000264 3.3699483561047483 3.7792815256302004
5.253564634465172 1.3393787953641396 1.7052567299124242 2.20892910918861
2.8064854922349256 1.0528297552606152 0.7159203737944622 1.0377353631798472
1.2433658037158408 0.7452088338629924 0.1618149058090278 0.33634206404382044
0.531666281406662 0.4907443260796254 0.006499799703679283 0.03442215562335723
0.27502071716903964 0.2802601904692851 -0.001056498077144179 -0.004182975223101289
0.15965355351345317 0.15963674177045617 1.1294604701027725e-06 1.5682282526920712e-05
0.11810025305661569 0.11810025305661569 0.0 0.0
0.5058347248819557 0.14270596235896374 0.12542165345478462 0.23770710906820763
4.439575840724604 2.322653175374954 0.850108423352141 1.2668142419975101
3.1154801738282005 1.75214018851354 0.5090043455488265 0.8543356397658355
0.37991455055823237 0.1863649000770303 0.06129679425959124 0.13225285622161082
0.14158737618364198 0.14159980461214494 -6.591917487488861e-07 -1.1769236754219564e-05
0.155191017274137 0.15517673125801992 9.176681420014073e-07 1.3368347975063384e-05
0.23355876410112594 0.235377452512028 -0.0003362820534560647 -0.0014824063574459538
0.39412475361230037 0.40031403486442185 -0.004118590546634321 -0.002070690705487094
0.8553323974863594 0.6197761906274672 0.06687279714344997 0.16868340971544202
1.9349046808445756 0.8783648867756906 0.3845158276073286 0.6720239664615568
3.913554711522488 1.1628953508687445 1.1811200513962092 1.569539309257532
6.590564569176967 1.4071097242326431 2.339699364887395 2.8437554800569296
10.107481690547681 1.6579111202068555 4.060621757332471 4.388948813008358
14.262407062809952 1.9292551853263435 6.190000628166666 6.1431512493169445
19.08803159664084 2.2471526204536745 8.744058946900163 8.096820029287016
24.688636623007405 2.6234782452298733 11.789616762959126 10.2755416148184
31.129251756579976 3.0576555545429844 15.364249043457491 12.707347158579497
38.5204110229393 3.5386526093506703 19.602377865110153 15.37938054847847
46.383320194418665 4.03832722555801 24.101488476703373 18.2435044921573
54.87488415918814 4.533527759679357 29.160678706726138 21.180677692782634
63.16466786971441 4.839983201012239 34.25648613065944 24.068198538042722
70.0814396922691 4.708752443439121 38.771690778421984 26.600996470407996
72.97542479762691 2.743966720416606 41.91929576754993 28.312162309660412
70.0814396922514 4.7087524434303285 38.7716907784162 26.60099647040483
63.164667869699514 4.839983201014533 34.25648613064838 24.06819853803661
54.874884159161745 4.533527759676279 29.16067870671143 21.18067769277403
46.383320194387906 4.038327225558499 24.10148847668387 18.24350449214554
38.520411022907865 3.5386526093500135 19.602377865091206 15.379380548466617
31.129251756545635 3.057655554537991 15.364249043439884 12.70734715856775
24.68863662297905 2.623478245231374 11.789616762941593 10.275541614806086
19.08803159661527 2.2471526204520167 8.744058946886451 8.096820029276804
14.262407062782067 1.9292551853239288 6.190000628152473 6.143151249305668
10.107481690526585 1.6579111202069003 4.060621757321218 4.3889488129984695
6.590564569159368 1.407109724231229 2.339699364879176 2.8437554800489617
3.91355471150996 1.162895350866541 1.181120051391199 1.56953930925222
1.9349046808379362 0.8783648867742162 0.38451582760511016 0.6720239664586102
0.8553323974833171 0.6197761906265845 0.06687279714264872 0.16868340971408413
0.3941247536112849 0.4003140348634051 -0.004118590546626141 -0.002070690705493844
0.23355876410068988 0.23537745251156528 -0.00033628205345325065 -0.0014824063574221766
0.15519101727378704 0.15517673125767528 9.176681415783688e-07 1.336834797013782e-05
0.14158737618338554 0.1415998046118739 -6.591917477816558e-07 -1.1769236740542314e-05
0.37991455055629714 0.18636490007678141 0.06129679425889918 0.13225285622061642
3.115480173819026 1.7521401885097707 0.5090043455465898 0.8543356397626664
2.1619483200358007 1.3401866716345991 0.3110069145685277 0.5107547338326734
0.28090274905250073 0.20957271390321563 0.013184731119226521 0.05814530403005867
0.1664831610188568 0.16648539044666175 1.2067612161522883e-07 -2.3501039265433494e-06
0.16208481368517763 0.162057470502371 2.0116697607554447e-06 2.5331513045892796e-05
0.20984715200906845 0.2113244964614589 -0.0002376288879998832 -0.001239715564390541
0.31186954147400814 0.32398988860972633 -0.0037892027388636614 -0.008331144396854529
0.5659873427605941 0.49549955326468426 0.012666190566296203 0.057821598929613686
1.2441765148283384 0.7054042613883019 0.1717248665900405 0.36704738684999594
2.5734870583762097 0.9487010519801998 0.6305339522688281 0.9942520541271814
4.633738793634865 1.1836371628585813 1.5122774662164205 1.9378241645598635
7.175750505283602 1.394247310907484 2.6595900693541705 3.1219131250219463
10.23344281137444 1.6205000259029305 4.1458957711146995 4.467047014356807
13.778781343091808 1.8843457079933896 5.945630799417365 5.9488048356810594
17.862251779297672 2.1957948538954826 8.07101987361121 7.595437051790977
22.63496263745045 2.5713439779593483 10.623650073619583 9.439968585871515
28.07006444433071 3.0034248522848865 13.569616580432056 11.497023011613784
34.21658971902892 3.4736364162781395 17.01635640960608 13.726596893144691
40.81547188300042 4.013718743043521 20.702171281672467 16.099581858284445
47.740548695819456 4.5118064419696955 24.66455333862431 18.564188915225436
54.3430239151178 4.587079389361806 28.783783597097724 20.97216092865826
57.451380964026846 2.386723913316919 32.168787435624964 22.895869615084948
54.34302391511686 4.587079389363462 28.78378359709596 20.972160928657452
47.74054869581255 4.511806441976873 24.664553338615548 18.56418891522015
40.81547188298187 4.013718743041463 20.70217128166231 16.0995818582781
34.21658971899998 3.4736364162723254 17.01635640959205 13.726596893135609
28.070064444307 3.0034248522858475 13.569616580417351 11.497023011603797
22.634962637425563 2.5713439779547915 10.62365007360773 9.439968585863046
17.86225177927606 2.1957948538955487 8.071019873598837 7.595437051781671
13.77878134307123 1.8843457079908488 5.945630799407363 5.948804835673013
10.233442811355424 1.6205000259007374 4.14589577110573 4.467047014348956
7.175750505265209 1.394247310905354 2.659590069345846 3.121913125014008
4.633738793622167 1.183637162856862 1.5122774662110063 1.9378241645542986
2.573487058368104 0.9487010519788344 0.6305339522657856 0.9942520541234843
1.2441765148238513 0.7054042613870061 0.171724866588782 0.36704738684806254
0.5659873427587733 0.4954995532639333 0.012666190565979186 0.05782159892886074
0.31186954147355667 0.3239898886088169 -0.0037892027387947586 -0.008331144396465658
0.20984715200874005 0.2113244964611891 -0.00023762888800154126 -0.0012397155644474492
0.16208481368484706 0.16205747050201666 2.011669761745899e-06 2.5331513068699273e-05
0.16648316101843638 0.16648539044608773 1.2067613293525018e-07 -2.3501037842682256e-06
0.280902749051416 0.2095727139030895 0.013184731118897987 0.05814530402942826
2.1619483200288783 1.3401866716315192 0.31100691456688734 0.5107547338304723
1.3988344435464415 0.9931148198763541 0.1312525178941883 0.27446710577589895
0.22388697739476188 0.21873569375880217 -0.0033100874893262086 0.008461371125285997
0.18792628462004093 0.18800481355426837 -6.850714055464257e-06 -7.167822017199336e-05
0.17542915525702385 0.17549344975545839 -4.249998901486818e-06 -6.004449953297505e-05
0.19934383417434134 0.20078327278446853 -0.00023484250171239643 -0.0012045961084147907
0.26560870899305633 0.2713958742235504 -0.0020158695133988525 -0.003771295717095224
0.39364343255688516 0.39154339976238717 -0.003442403955554716 0.0055424367500526315
0.7309420792961229 0.5437151200662239 0.04974748337930249 0.13747947585059675
1.4836718900435075 0.7236703720813159 0.25980051559188644 0.5002010023703046
2.7523893114969913 0.9173265054720574 0.731391132136552 1.1036716738883827
4.421816578065513 1.1002222425411952 1.4188714315122035 1.9027229040121147
6.455335924751037 1.29213088901852 2.3379990395734875 2.8252059961590295
8.792215870847421 1.5105935563825168 3.439337825680696 3.842284488784209
11.474155477289328 1.7632948793731686 4.742373566684084 4.968487031232075
14.622595834576703 2.074656197251869 6.313493265691822 6.23444637163301
18.336908144483846 2.459203112953865 8.206495759471832 7.671209272058154
22.616156179137192 2.904120107142983 10.428387916479709 9.283648155514493
27.36064076890585 3.39534475950626 12.918282920516361 11.047013088883231
32.89875353737222 4.04469960085492 15.836422805782766 13.017631130734538
39.15492588381177 4.494125476064165 19.399781617585493 15.261018790162101
42.59813724313875 2.11770949208882 22.936005866495897 17.544421884554037
39.15492588381642 4.494125476070083 19.399781617584715 15.261018790161602
32.898753537359546 4.044699600850658 15.836422805777664 13.017631130731225
27.360640768889905 3.3953447595010497 12.918282920509908 11.04701308887894
22.616156179120587 2.9041201071419547 10.428387916470616 9.283648155508011
18.336908144463905 2.4592031129505716 8.206495759462296 7.6712092720510405
14.622595834560864 2.074656197247726 6.313493265685266 6.234446371627864
11.474155477278371 1.7632948793754477 4.74237356667687 4.968487031226059
8.792215870835657 1.5105935563819783 3.439337825674844 3.8422844887788323
6.455335924738263 1.2921308890167924 2.3379990395678183 2.825205996153655
4.421816578055374 1.1002222425413404 1.4188714315072748 1.9027229040067581
2.7523893114896087 0.9173265054709503 0.731391132133649 1.1036716738850092
1.4836718900388022 0.723670372080657 0.25980051559022166 0.5002010023679242
0.7309420792939294 0.5437151200655266 0.04974748337880206 0.13747947584960069
0.3936434325557644 0.3915433997613549 -0.0034424039556166363 0.005542436750026146
0.2656087089925431 0.2713958742227863 -0.0020158695133577808 -0.0037712957168854083
0.19934383417416182 0.2007832727841403 -0.00023484250170185972 -0.0012045961082766162
0.17542915525668795 0.17549344975515183 -4.249998902782952e-06 -6.004449956101459e-05
0.18792628461949154 0.1880048135537413 -6.850714057073585e-06 -7.167822019265197e-05
0.22388697739391344 0.21873569375835394 -0.0033100874894639565 0.008461371125023317
1.3988344435421887 0.9931148198744576 0.13125251789325407 0.27446710577447714
0.8937238243762412 0.7494189187209774 0.040872293921764044 0.10343261173349991
0.19236950440677542 0.20771902112610202 -0.005142573763747444 -0.010206942955579128
0.20355195062989556 0.20356228595339834 -4.5104580360235533e-07 -9.884277699234958e-06
0.19124014944646267 0.19130700495976222 -7.088543995742591e-06 -5.976696930380651e-05
0.2004380301142426 0.20154410798148675 -0.00020805320745074507 -0.0008980246597934942
0.24224345797932337 0.24775824987356532 -0.001616968748466982 -0.003897823145774887
0.3144963280815064 0.31186216444004194 -0.000927110012193763 0.0035612736536579574
0.42725540387460775 0.38312981508966315 0.008436281840530978 0.035689306944413544
0.6843681917057598 0.479423501939562 0.05631298764078661 0.14863170212541096
1.2104440773122922 0.6062778102128019 0.20304932935446693 0.40111693774502366
2.0487931873791814 0.7353285514757235 0.5083094698998184 0.8051551660036396
3.072214718340952 0.8635399372428423 0.8971522420082246 1.3115225390898848
4.302783195192557 1.020331975691623 1.406673272138699 1.875777947362235
5.749242801450755 1.2102563309414525 2.030923888462413 2.508062582046891
7.463058465852634 1.4482317059379157 2.785135922977751 3.22969083693697
9.567512395812109 1.7659583448792622 3.7222886542743554 4.079265396658488
12.188675907682327 2.176981219891988 4.915828115431152 5.095866572359185
15.328731670930702 2.62681324134934 6.419192161576228 6.282726268005134
19.05564882728166 3.1572599009827345 8.229041441647873 7.669347484651061
24.442154020861135 4.156044756908289 10.75063531860726 9.535473945345586
29.146700532763333 2.0432710271506855 14.79088764650745 12.312541859105194
24.442154020867584 4.156044756914383 10.750635318607484 9.535473945345714
19.055648827279686 3.157259900983625 8.229041441646203 7.669347484649853
15.328731670924983 2.6268132413512295 6.419192161571955 6.282726268001798
12.188675907672769 2.17698121989312 4.9158281154252546 5.095866572354399
9.567512395800543 1.7659583448752119 3.722288654270373 4.07926539665496
7.463058465851427 1.44823170594254 2.785135922974805 3.229690836934082
5.749242801439932 1.2102563309365673 2.0309238884593515 2.5080625820440132
4.302783195184311 1.0203319756881708 1.4066732721363415 1.8757779473597969
3.0722147183346302 0.8635399372420278 0.8971522420056605 1.3115225390869414
2.04879318737286 0.7353285514750341 0.5083094698973185 0.8051551660005076
1.2104440773090266 0.6062778102117228 0.20304932935357284 0.4011169377437308
0.6843681917043954 0.47942350193943495 0.056312987640366005 0.14863170212459434
0.42725540387395133 0.38312981508948335 0.008436281840378725 0.035689306944089436
0.3144963280810052 0.3118621644395416 -0.0009271100122056331 0.0035612736536690896
0.24224345797892638 0.24775824987300682 -0.0016169687484379907 -0.00389782314564236
0.20043803011388492 0.20154410798105776 -0.00020805320744151563 -0.0008980246597313304
0.1912401494463127 0.19130700495951547 -7.088543985573882e-06 -5.976696921720924e-05
0.20355195062950626 0.20356228595302595 -4.5104580598076974e-07 -9.884277713675114e-06
0.19236950440632672 0.2077190211255124 -0.005142573763709707 -0.010206942955475924
0.893723824373738 0.7494189187196305 0.04087229392136616 0.1034326117327412
0.5654497292977396 0.544268813459346 0.0035467256585867005 0.017634190179806827
0.18019406473856042 0.1840158017277752 -0.0006381944853291305 -0.003183542503885685
0.2130837643236669 0.21333338889484088 -2.276845586126081e-05 -0.0002268561153127338
0.20689647549055143 0.20699848335252852 -1.2410095058795001e-05 -8.959776691831282e-05
0.21060310078654285 0.2113759205739614 -0.00019303101223492938 -0.0005797887751835917
0.23957503243677397 0.24328286269758395 -0.0012816941676204276 -0.0024261360931894867
0.29301829283064723 0.28671201049882605 0.0003235566191635395 0.005982725712657682
0.34521869580608 0.2954619822372931 0.01124080790327783 0.038515905665509095
0.3859943982808645 0.2647896583005479 0.03690216888775625 0.08430257109256065
0.46528717762920263 0.228147317715389 0.077871939328906 0.15926792058490752
0.6646294170160623 0.24515646303482963 0.16160392499651802 0.25786902898471475
0.9745925728981809 0.29018087511376905 0.2683710064492353 0.4160406913351767
1.4101623282857707 0.3017981794034637 0.44728327637747695 0.6610808725048306
1.9625465446275001 0.3066782688994087 0.6919747651958623 0.9638935105322294
2.6495008773888027 0.3281701814486648 1.0043741477167887 1.316956548223348
3.474908276808538 0.38583472665460905 1.3729246322164135 1.7161489179375153
4.491630759693905 0.5010050407075937 1.8312345347803847 2.159391184205927
5.7038892715363625 0.6718731589744202 2.3855472910507483 2.6464688215111956
7.484343704461448 1.0020444768940142 3.1640688497579927 3.31823037780944
11.935833853584386 2.4127117273387855 4.646290498218929 4.876831628026675
19.927247444739983 2.0928665963233186 9.246074904891138 8.588305943525535
11.935833853582348 2.412711727333964 4.6462904982205675 4.876831628027819
7.4843437044551235 1.002044476890457 3.1640688497565046 3.318230377808161
5.70388927153173 0.671873158975478 2.3855472910477014 2.6464688215085492
4.491630759681879 0.5010050407026241 1.8312345347767702 2.1593911842024833
3.4749082768076356 0.3858347266566915 1.3729246322149669 1.7161489179359777
2.6495008773813655 0.32817018144531973 1.0043741477148327 1.3169565482212122
1.9625465446250308 0.3066782688999819 0.6919747651945154 0.9638935105305342
1.4101623282874496 0.3017981794072172 0.44728327637639664 0.6610808725038355
0.9745925728941968 0.2901808751124484 0.2683710064479117 0.41604069133383725
0.6646294170130516 0.24515646303363942 0.1616039249956551 0.257869028983757
0.46528717762918353 0.2281473177153991 0.07787193932891495 0.15926792058486966
0.38599439828056004 0.2647896583008797 0.036902168887522124 0.08430257109215814
0.34521869580547004 0.2954619822372151 0.01124080790310527 0.03851590566514977
0.2930182928303655 0.28671201049835393 0.00032355661918083986 0.005982725712830783
0.2395750324362873 0.24328286269697502 -0.00128169416760575 -0.0024261360930821225
0.2106031007862093 0.21137592057343085 -0.00019303101221222562 -0.0005797887750092971
0.20689647549049162 0.20699848335228535 -1.2410095037464972e-05 -8.959776675627322e-05
0.21308376432342369 0.21333338889466624 -2.276845586780556e-05 -0.0002268561153747262
0.18019406473851765 0.18401580172768417 -0.0006381944853163601 -0.003183542503850242
0.5654497292962877 0.5442688134579646 0.003546725658524639 0.017634190179798594
0.3693044157280199 0.3704054898028813 -0.00016455661450608518 -0.0009365174603553025
0.1707842118079141 0.17069490744971544 1.6338903654519636e-05 7.296545454416196e-05
0.21671472907995562 0.2166435274489494 1.1881102378515907e-06 7.001352076838342e-05
0.2203782005449732 0.22040093139630654 -1.3649728547286252e-05 -9.081122786092556e-06
0.22656864506929458 0.22659060260754282 -0.00011041731148654768 8.845977323837992e-05
0.25812145338461673 0.2598055519868112 -0.001076885190754121 -0.0006072134114404874
0.3236752400394113 0.3198805103966027 -2.534141998120781e-05 0.0038200710627897616
0.43139102172783955 0.38475122696678277 0.00940086160873144 0.03723893315232533
0.6854568165053232 0.47922604856930456 0.05677976138967483 0.14945100654634313
1.2092881755880085 0.605818994959712 0.20271651046743866 0.400752670160858
2.050383179446558 0.7370528514309831 0.5086393212444182 0.804691006771157
3.0852102167083046 0.8656716403652018 0.9036297723611062 1.3159088039819968
4.3334762387437475 1.025017212357202 1.4192948700563104 1.8891641563302357
5.788919023978466 1.2134430832683483 2.050043788112735 2.525432152597384
7.413873347264692 1.429772981860197 2.7707385213548696 3.213361844049624
9.135972777525849 1.6776317773675453 3.546872448087387 3.911468552070917
10.733866882266202 1.9415688897866996 4.264893218271747 4.527404774207755
12.021655140878153 2.246140334970326 4.84126566516794 4.934249140739887
12.47707795460297 2.4543941512397165 5.013818504885606 5.008865298477656
9.99250196798654 1.510328290778527 4.344231642413522 4.137942034794487
20.179090286164097 3.48103536071575 8.487375924568918 8.21067900087944
9.992501967989751 1.5103282907766067 4.344231642416243 4.137942034796893
12.477077954602102 2.454394151240514 5.013818504884656 5.008865298476938
12.021655140860227 2.246140334961372 4.841265665162952 4.934249140735904
10.73386688225528 1.9415688897872396 4.264893218265549 4.527404774202492
9.135972777508949 1.677631777362029 3.546872448081357 3.9114685520655614
7.413873347258361 1.429772981861249 2.7707385213511624 3.2133618440459513
5.7889190239689405 1.2134430832679262 2.050043788108115 2.525432152592899
4.333476238729441 1.025017212351455 1.4192948700521046 1.8891641563258812
3.0852102166997546 0.8656716403655623 0.9036297723569722 1.3159088039772198
2.0503831794386875 0.7370528514306461 0.5086393212410689 0.8046910067669717
1.2092881755835734 0.6058189949586434 0.20271651046610367 0.40075267015882654
0.6854568165032136 0.4792260485683963 0.05677976138923581 0.14945100654558147
0.43139102172682386 0.38475122696614 0.009400861608608346 0.037238933152075576
0.323675240038511 0.31988051039573634 -2.5341420007034265e-05 0.003820071062781682
0.25812145338407216 0.25980555198612315 -0.0010768851907369795 -0.000607213411313945
0.22656864506912036 0.2265906026071635 -0.00011041731146204727 8.845977341899283e-05
0.22037820054482768 0.22040093139597752 -1.364972852801459e-05 -9.081122621831963e-06
0.2167147290796383 0.21664352744848547 1.1881102469138448e-06 7.001352090589331e-05
0.17078421180787287 0.17069490744969903 1.6338903648123453e-05 7.296545452580065e-05
0.36930441572717415 0.3704054898017116 -0.00016455661446954786 -0.0009365174600678869
0.23923290845129358 0.23921216932117134 1.3476233019465938e-06 1.9391506820260498e-05
0.15714888023723914 0.15718888441527593 -2.1196757163176986e-06 -3.788450232046253e-05
0.2137968725713471 0.21400871046156003 -2.259142283862971e-05 -0.00018924646737434678
0.2300053924890761 0.22942086134207515 6.5846381952462e-05 0.0005186847650486017
0.24663551923197946 0.2494028708699918 -0.0005607748673556654 -0.002206576770656645
0.295925317091625 0.3013716136308292 -0.001518872435626294 -0.003927424103577991
0.4081819746439207 0.3931654614263533 -0.0008162785961905884 0.0158327918137579
0.7376765931147983 0.5444975258074657 0.052070220198127806 0.14110884710920485
1.483570147978187 0.7234675805240393 0.259807806412202 0.5002947610419456
2.7504823289416844 0.9171756969505096 0.7304615266326707 1.1028451053585033
4.423513004812917 1.1005946252777967 1.4194131855007175 1.903505194034401
6.467018336394755 1.2938049157799212 2.3430736555211014 2.8301397650937323
8.819488837222266 1.513212124606441 3.452447208648574 3.8538295039672543
11.502725853462552 1.7612995310809039 4.759377898395353 4.982048423986291
14.555392541021297 2.0463184691728338 6.29301392767646 6.216060144171999
17.880366675693622 2.3599154052156885 8.004947888129385 7.515503382348539
21.202924151398022 2.7004988136738657 9.726780364118788 8.775644973605367
24.07444063186083 3.0909105006006916 11.152284776948415 9.831245354311719
25.50491745621939 3.240936519037958 11.920959037708082 10.343021899473339
23.604627827170347 3.1751003460367877 10.93868957646366 9.490837904669899
28.922640061349085 7.116441208978371 11.607748694811043 10.198450157559655
23.604627827172656 3.175100346033955 10.938689576466755 9.490837904671949
25.50491745621479 3.240936519036439 11.920959037706258 10.343021899472099
24.074440631854284 3.090910500607173 11.15228477694071 9.83124535430639
21.202924151377903 2.700498813672887 9.72678036410766 8.775644973597357
17.88036667568194 2.359915405221937 8.004947888119192 7.515503382340809
14.555392540997321 2.0463184691655356 6.293013927667136 6.216060144164652
11.502725853449174 1.761299531082269 4.75937789838739 4.982048423979515
8.819488837204396 1.51321212460604 3.4524472086393327 3.8538295039590245
6.4670183363781 1.2938049157779967 2.343073655513578 2.830139765086525
4.423513004797667 1.100594625276036 1.4194131854941898 1.9035051940274406
2.750482328931585 0.9171756969491602 0.7304615266286264 1.1028451053537995
1.4835701479726384 0.7234675805226957 0.25980780641046386 0.5002947610394782
0.7376765931115946 0.5444975258060731 0.05207022019750185 0.14110884710802013
0.40818197464282413 0.3931654614253626 -0.000816278596239573 0.015832791813701286
0.2959253170906424 0.30137161362972864 -0.0015188724356085788 -0.003927424103477602
0.24663551923157556 0.24940287086933954 -0.0005607748673112487 -0.0022065767704527407
0.23000539248878427 0.22942086134174458 6.584638194762197e-05 0.0005186847650920155
0.21379687257136332 0.21400871046158185 -2.2591422839045757e-05 -0.0001892464673794326
0.15714888023702775 0.15718888441506426 -2.119675715394042e-06 -3.788450232109695e-05
0.23923290845076506 0.23921216932065592 1.3476233008971399e-06 1.9391506808273514e-05
0.1477871866038196 0.1477871866038196 0.0 0.0
0.13827050067803515 0.13825414755107301 9.89853957466213e-07 1.5363273004669434e-05
0.2040764651947469 0.20421070252758708 -1.333140369310952e-05 -0.00012090592914705863
0.23582708727387516 0.23653611865390511 -0.00011203075767795148 -0.0005970006223520965
0.27055107971796366 0.2718460513730113 -0.00037052563286147744 -0.0009244460221861665
0.3478664819492215 0.34680048838329014 -0.001938062792694082 0.0030040563586256033
0.5892440700909743 0.5046252782855678 0.01886013429871384 0.06575865750669246
1.2498154299280673 0.706188961584285 0.17421065398337332 0.3694158143604089
2.5713257442057107 0.9486570976171429 0.6295364276592209 0.9931322189293451
4.63270776195711 1.1838378209681708 1.5119300114014602 1.9369399295874792
7.177877776594447 1.3944678670682737 2.659318967336224 3.1240909421899508
10.24269958295873 1.6212199536075698 4.150544626147703 4.47093500320346
13.792383751636182 1.8849330130090052 5.952920236007333 5.954530502619837
17.862179402832965 2.190599307677087 8.07410327130273 7.597476823853143
22.54233887203585 2.5394411637626675 10.588548467947229 9.414349240325944
27.676226704799344 2.9141622964113045 13.389108451396298 11.372955956991749
33.07979651859566 3.3060934460699136 16.43082749519106 13.342875577334677
37.741638829431295 3.5910921397991613 19.076989975265057 15.073556714367085
40.141015460156915 3.627056148520993 20.530966210195103 15.982993101440812
37.271708518458595 3.186660040476021 19.05417666201437 15.030871815968208
41.85666824544524 9.974085294958037 17.683182697448274 14.199400253038927
37.27170851846142 3.1866600404759775 19.054176662016143 15.03087181596929
40.14101546015377 3.627056148523365 20.53096621019167 15.982993101438737
37.74163882941025 3.5910921397949256 19.076989975254754 15.073556714360565
33.07979651856712 3.306093446068484 16.430827495174622 13.342875577324012
27.676226704764645 2.9141622964018725 13.389108451381247 11.372955956981516
22.54233887201124 2.539441163764512 10.588548467931787 9.414349240314937
17.86217940280811 2.190599307673125 8.0741032712908 7.597476823844181
13.79238375161304 1.8849330130101953 5.952920235993807 5.954530502609038
10.242699582934057 1.6212199536048704 4.1505446261358685 4.470935003193316
7.177877776574477 1.3944678670680115 2.6593189673260578 3.124090942180408
4.632707761942716 1.1838378209674163 1.511930011394741 1.9369399295805576
2.571325744195692 0.9486570976157231 0.6295364276553119 0.9931322189246572
1.249815429922853 0.7061889615833713 0.17421065398170196 0.36941581435777987
0.5892440700886423 0.5046252782839987 0.018860134298473528 0.06575865750616981
0.3478664819482858 0.3468004883822423 -0.0019380627927017336 0.0030040563587450846
0.27055107971747205 0.2718460513723319 -0.0003705256328347642 -0.0009244460220250517
0.23582708727352475 0.23653611865343538 -0.0001120307576637013 -0.0005970006222469629
0.204076465194668 0.20421070252752208 -1.3331403695841246e-05 -0.0001209059291582216
0.1382705006777816 0.13825414755082296 9.898539572355688e-07 1.5363273001379168e-05
0.1477871866034783 0.1477871866034783 0.0 0.0
0.08645725607131716 0.08645725607131716 0.0 0.0
0.11529013441517807 0.11529066411085159 -2.2971052855553653e-08 -5.067246206468004e-07
0.18859265963177668 0.188581970601224 4.692794996099248e-07 1.021975105301341e-05
0.2382852742681789 0.2383418206368473 -1.8378718134523716e-05 -3.8167650533910786e-05
0.2962627509873745 0.30129147969987913 -0.001106267785888702 -0.003922460926615955
0.4339571964042149 0.42389622953650824 0.00047433646419105377 0.009586630403515635
0.8715863248490692 0.6168171904539977 0.07289044267212887 0.18187869172294233
1.936519574423002 0.8787816400600462 0.3854600551515013 0.6722778792114553
3.910592583981072 1.163324086039096 1.1794519520711013 1.5678165458708737
6.590663058332586 1.4075007829050563 2.3393609907544963 2.843801284673033
10.111870876792974 1.6578570333153013 4.063255224467901 4.390758619009771
14.265506008314148 1.9280282122085568 6.1924481949656345 6.1450296011399566
19.077212139944876 2.2432369818287032 8.740214955351734 8.093760202764448
24.643834735576792 2.61439682274753 11.768792808268438 10.26064510456081
31.02273162579862 3.036629094778753 15.312896047864754 12.673206483155104
38.27062333728982 3.4901974460321266 19.47861703267572 15.301808858581978
45.57080330377981 3.8710351159087635 23.69964613032044 18.000122057550634
52.10442264248222 4.021287920733574 27.736724380630392 20.346410341118233
55.29790293042532 3.7468415285781362 29.957850988363674 21.59321041348351
51.56908508968736 3.2678003993729505 27.900770775768944 20.400513914545467
56.20668107127129 12.730765309619066 24.825834407867923 18.650081353784294
51.56908508968147 3.2678003993682876 27.900770775768173 20.400513914545
55.29790293040741 3.7468415285721175 29.957850988356093 21.593210413479202
52.10442264244841 4.021287920726433 27.736724380613484 20.346410341108488
45.5708033037494 3.871035115911286 23.69964613030001 18.0001220575381
38.27062333725325 3.4901974460296317 19.478617032654814 15.301808858568803
31.022731625762383 3.0366290947771555 15.312896047843989 12.673206483141245
24.6438347355432 2.6143968227422354 11.768792808251787 10.260645104549178
19.077212139911225 2.2432369818272235 8.740214955333252 8.093760202750746
14.265506008283023 1.9280282122063392 6.192448194949598 6.145029601127086
10.111870876765881 1.657857033313656 4.063255224454362 4.3907586189978645
6.590663058312141 1.4075007829032369 2.339360990745062 2.8438012846638414
3.9105925839676225 1.1633240860379528 1.1794519520651308 1.5678165458645386
1.9365195744152865 0.8787816400586486 0.38546005514878207 0.6722778792078565
0.8715863248450922 0.6168171904522729 0.07289044267128725 0.1818786917215313
0.43395719640294156 0.42389622953549844 0.0004743364641256536 0.009586630403317515
0.29626275098693455 0.30129147969911607 -0.0011062677858321554 -0.0039224609263494945
0.23828527426788218 0.23834182063643472 -1.837871812453247e-05 -3.8167650428122903e-05
0.18859265963145613 0.18858197060093995 4.6927949510588383e-07 1.0219751021034426e-05
0.11529013441491735 0.11529066411059034 -2.297105282889122e-08 -5.067246201801207e-07
0.08645725607106808 0.08645725607106808 0.0 0.0
0.047598772951169474 0.047598772951169474 0.0 0.0
0.09096496139284792 0.09096496139284792 0.0 0.0
0.16896650362554566 0.16895584503125127 6.366593226293898e-07 1.002193497175889e-05
0.2380024211810268 0.23843130571426246 -6.648965866417297e-05 -0.00036239487457147995
0.3265922673377766 0.3290513169465978 -0.001262976626928113 -0.0011960729818930387
0.5651869704864428 0.5070450466937412 0.013272060863855786 0.04486986292884573
1.2562148445268337 0.7456912781793719 0.16773435508090367 0.3427892112665586
2.8050823471680943 1.053705274102176 0.7150455572515508 1.0363315158143669
5.25169603891157 1.3401512617058688 1.7040922906147826 2.207452486590921
8.777708117363222 1.6268166401518798 3.3707587181308223 3.780132759080519
13.193558672956266 1.9189833814294408 5.601366398994184 5.6732088925326405
18.470202346378773 2.2399091674458615 8.393966023210503 7.836327155722411
24.627428948530987 2.613529107500309 11.760447143908682 10.253452697121991
31.794982918845115 3.0545529445744197 15.790710717588027 12.949719256682664
39.996433740268145 3.5703177534476507 20.46959609725316 15.956519889567321
49.16990255835964 4.08774972642478 25.830589733974378 19.251563097960485
58.83361136925046 4.443704409613141 31.756193110589976 22.63371384904733
66.9290015018052 4.37482306784671 36.95522956117973 25.598948872778756
70.55834604927712 3.7711349030532704 39.64588889527546 27.141322250948402
66.33162727265918 3.440314165108425 37.18659690512351 25.70471620242724
71.85120803599531 15.524573397994107 32.98945313043623 23.33718150756497
66.33162727265176 3.44031416510633 37.18659690512015 25.704716202425306
70.5583460492571 3.771134903053822 39.645888895262146 27.141322250941098
66.92900150178502 4.374823067858374 36.9552295611593 25.59894887276736
58.83361136920154 4.443704409606571 31.75619311056296 22.633713849032006
49.169902558313694 4.087749726420839 25.830589733948088 19.251563097944782
39.9964337402257 3.570317753448117 20.46959609722681 15.956519889550751
31.794982918799164 3.0545529445664816 15.790710717565137 12.949719256667551
24.62742894848801 2.613529107499887 11.760447143883674 10.253452697104455
18.470202346338993 2.239909167442775 8.39396602318956 7.836327155706655
13.193558672924354 1.9189833814291686 5.60136639897677 5.673208892518414
8.777708117338063 1.6268166401514252 3.370758718117841 3.7801327590687963
5.251696038894598 1.3401512617030285 1.7040922906079965 2.2074524865835725
2.8050823471565853 1.0537052740994426 0.715045557247479 1.0363315158096633
1.256214844521113 0.7456912781781011 0.16773435507915663 0.3427892112638562
0.5651869704845229 0.5070450466928241 0.013272060863541407 0.04486986292815722
0.3265922673372615 0.3290513169457366 -0.0012629766268734486 -0.001196072981601487
0.23800242118066037 0.2384313057139203 -6.64896586680636e-05 -0.0003623948745918996
0.16896650362527324 0.16895584503098532 6.366593221431451e-07 1.0021934965748754e-05
0.09096496139272543 0.09096496139272543 0.0 0.0
0.04759877295107714 0.04759877295107714 0.0 0.0
0.024584253535411542 0.024584253535411542 0.0 0.0
0.06794660861539714 0.06794660861539714 0.0 0.0
0.14755107251238975 0.1475450983693461 3.662909033654852e-07 5.6078521402870744e-06
0.2371142826881569 0.23734710162962436 -4.16546457817116e-05 -0.0001911642956857298
0.37206061030130977 0.3761985920584642 -0.0015951145380415374 -0.002542867219112837
0.7441156974366201 0.582482194283354 0.04190609698108451 0.1197274061721815
1.764209259317509 0.884129240706168 0.33174308695181265 0.5483369316595275
3.694227719688049 1.1978352897442952 1.0310769496531909 1.4653154802905624
6.786457758518599 1.5166703938614112 2.395432249115946 2.8743551155412415
11.035863851647767 1.8431256896558816 4.463416270632031 4.729321891359857
16.406026662385738 2.1869458047944574 7.252201794905662 6.9668790626856145
22.862458891735265 2.566296522329484 10.757559269232452 9.53860310017333
30.4571638504308 3.006310907409331 15.021429188463465 12.429423754558009
39.1407878501814 3.523167526417066 19.957896767677067 15.659723556087272
49.258145908270535 4.115616554607863 25.891155272227895 19.251374081434786
60.58257816071115 4.712981779385331 32.686611011365216 23.182985369960605
72.1366481827998 5.027766288037496 39.872441809977836 27.236440084784498
81.87098726999366 4.685566790446034 46.41987039430061 30.76555008524703
86.29899304238963 3.7896449382035486 49.90940211770422 32.5999459864819
81.73685781911632 3.642082335174993 47.022805782479665 31.071969701461672
88.4375440418543 18.3297885584123 41.803623409856634 28.30413207358537
81.73685781909685 3.642082335167033 47.022805782472055 31.071969701457725
86.29899304237274 3.7896449382112345 49.90940211768807 32.59994598647345
81.87098726994049 4.685566790433169 46.41987039427422 30.765550085233098
72.13664818275716 5.02776628804516 39.87244180994527 27.236440084766716
60.582578160656034 4.712981779380802 32.686611011332936 23.18298536994227
49.258145908214786 4.1156165546026475 25.891155272196254 19.2513740814159
39.14078785012765 3.5231675264135984 19.957896767646183 15.65972355606786
30.4571638503857 3.0063109074134937 15.021429188433983 12.429423754538217
22.86245889168976 2.5662965223289502 10.757559269206249 9.538603100154555
16.406026662346747 2.1869458047924657 7.252201794884861 6.966879062669414
11.035863851618469 1.8431256896548343 4.463416270616821 4.729321891346819
6.786457758496902 1.5166703938583814 2.395432249106615 2.8743551155319036
3.694227719674067 1.1978352897424767 1.031076949647477 1.465315480284114
1.764209259310238 0.8841292407052197 0.33174308694911214 0.5483369316559044
0.7441156974338763 0.5824821942821837 0.041906096980532444 0.11972740617116041
0.3720606103007471 0.3761985920576266 -0.0015951145379871196 -0.0025428672188924375
0.23711428268774642 0.23734710162921363 -4.1654645785171206e-05 -0.00019116429568193406
0.14755107251215077 0.14754509836910729 3.662909033509835e-07 5.607852140109466e-06
0.06794660861538014 0.06794660861538014 0.0 0.0
0.02458425353534782 0.02458425353534782 0.0 0.0
0.01205553218457703 0.01205553218457703 0.0 0.0
0.04828368344676631 0.04828368344676631 0.0 0.0
0.126968926868453 0.126968926868453 0.0 0.0
0.23908775330990864 0.239692053228647 -9.219905628424371e-05 -0.0005121008624541743
0.4393278313533244 0.42907601727073863 0.001490418939999555 0.008761395142586474
0.9976516469164467 0.6893095074544702 0.09798552748306369 0.21035661197891303
2.3227139080017163 1.0046476056447422 0.506460285945716 0.8116060164112582
4.703964275570742 1.3324419248953976 1.4492744051130755 1.9222479455622683
8.371555898559292 1.6877824340153915 3.1270238520459115 3.5567496124979874
13.388292069736892 2.0623292029280123 5.637341063056016 5.6886218037528575
19.718700539344713 2.463275565039237 8.987678915155914 8.267746059149571
27.399999501224627 2.911985644192055 13.237899915886576 11.250113941145996
36.35756566856497 3.4248751332459086 18.312260068290737 14.620430467028342
46.890202509020206 4.015900912800413 24.491355033662092 18.382946562557706
58.787619843714346 4.679427727228247 31.55265524174662 22.55553687473948
71.95906644084573 5.3211373628423235 39.5530639515778 27.084865126425594
85.57916693968784 5.614748777208404 48.237012751257076 31.727405411222378
96.99698238308211 5.036773375999981 56.13651595689433 35.82369305018782
102.43642460971404 3.832364236030965 60.5336920919449 38.07036828173816
98.03983801119664 3.817268166767751 57.645351548144106 36.5772182962848
106.4681223469255 21.095219263429883 51.796760865444554 33.57614221805106
98.03983801118575 3.8172681667730126 57.645351548133355 36.5772182962794
102.43642460968107 3.832364236025349 60.53369209192672 38.07036828172897
96.99698238303972 5.036773376008846 56.13651595686025 35.82369305017061
85.57916693962737 5.614748777205941 48.23701275121914 31.727405411202287
71.95906644078379 5.321137362839797 39.55306395153933 27.084865126404637
58.787619843646844 4.679427727222639 31.552655241707267 22.55553687471694
46.890202508962744 4.015900912802589 24.49135503362488 18.38294656253528
36.35756566850628 3.4248751332427987 18.31226006825683 14.620430467006653
27.399999501172694 2.911985644192506 13.237899915855595 11.250113941124603
19.718700539299846 2.4632755650366307 8.987678915131687 8.267746059131525
13.38829206970017 2.0623292029242912 5.637341063037823 5.688621803738055
8.371555898534808 1.687782434013916 3.127023852033973 3.5567496124869233
4.7039642755539885 1.3324419248936425 1.449274405106107 1.9222479455542385
2.3227139079925188 1.0046476056427405 0.5064602859425448 0.8116060164072344
0.9976516469124566 0.6893095074529176 0.09798552748214001 0.21035661197739913
0.43932783135236186 0.42907601726972266 0.0014904189400028454 0.008761395142636018
0.23908775330963616 0.23969205322817144 -9.219905627371448e-05 -0.0005121008622615054
0.12696892686826378 0.12696892686826378 0.0 0.0
0.04828368344672778 0.04828368344672778 0.0 0.0
0.012055532184553004 0.012055532184553004 0.0 0.0
0.005847619983607165 0.005847619983607165 0.0 0.0
0.0332016965298364 0.0332016965298364 0.0 0.0
0.11012644434952987 0.11012644434952987 0.0 0.0
0.2494484742739551 0.25075302193852694 -0.00020911800598011194 -0.0010954296585916643
0.5372338756294245 0.48936166884879695 0.010479333479227956 0.03739287330139955
1.322402360090547 0.7963926770799584 0.18531588748459496 0.34069379552599355
2.9415830838878927 1.1055074317838387 0.7239359230889058 1.112139729015147
5.779157556091997 1.4634297588576672 1.917142121755076 2.3985856754792527
10.013211985321565 1.8559193724350025 3.907680351818829 4.24961226106773
15.801434582372021 2.284182595038515 6.863001888084225 6.654250099249284
23.15196806846536 2.753160312586675 10.825590223426751 9.573217532451926
32.03451973323233 3.274940127734415 15.79059125367351 12.968988351824397
42.62257925288601 3.874138750596947 21.93004411490282 16.818396387386247
54.69961055421459 4.547739877266337 29.02263683165202 21.12923384529623
68.48555157318887 5.243332130431934 37.376362465739774 25.865856977017167
83.53811842460965 5.862899966642978 46.73924069011157 30.935977767855107
98.91871086689655 6.166376552730493 56.65763584147003 36.094698472695995
112.16433103571728 5.5544835538552535 65.88180541651343 40.72804206534861
119.00519822060305 3.9048038283279 71.60997693007644 43.49041746219869
115.4367211493202 3.893086235594784 69.23135070619492 42.312284207530496
126.10288404451694 23.68853508467788 63.08121450622828 39.333134453610754
115.43672114929912 3.8930862355926026 69.23135070618218 42.31228420752427
119.0051982205527 3.904803828315596 71.60997693005085 43.490417462186265
112.16433103566129 5.554483553856311 65.88180541647525 40.728042065329674
98.91871086683183 6.1663765527341 56.65763584142483 36.09469847267296
83.5381184245372 5.862899966638237 46.73924069006732 30.93597776783162
68.48555157311867 5.243332130433643 37.37636246569342 25.86585697699161
54.69961055414548 4.547739877265773 29.022636831608732 21.12923384527097
42.62257925282042 3.874138750595673 21.93004411486309 16.81839638736167
32.034519733172026 3.2749401277319223 15.790591253638667 12.968988351801446
23.151968068415187 2.753160312582672 10.825590223399917 9.573217532432592
15.801434582331824 2.2841825950355807 6.863001888063394 6.654250099232854
10.013211985292134 1.8559193724329786 3.907680351804333 4.249612261054824
5.779157556072524 1.4634297588555087 1.9171421217465596 2.3985856754704553
2.941583083876294 1.1055074317812168 0.7239359230851271 1.1121397290099493
1.3224023600854236 0.7963926770785004 0.1853158874831508 0.34069379552377316
0.5372338756279849 0.4893616688474996 0.01047933347914931 0.037392873301336046
0.24944847427371802 0.25075302193823473 -0.00020911800597423578 -0.0010954296585424614
0.11012644434930692 0.11012644434930692 0.0 0.0
0.033201696529802836 0.033201696529802836 0.0 0.0
0.00584761998359739 0.00584761998359739 0.0 0.0
0.002775024267672329 0.002775024267672329 0.0 0.0
0.022853472037233435 0.022853472037233435 0.0 0.0
0.10089903875380371 0.10089903875380371 0.0 0.0
0.27707413643926165 0.2788904699872583 -0.0004959538239014224 -0.0013203797240952924
0.6880582615928832 0.5757314286635369 0.03297477704236918 0.07935205588697725
1.6926441306456075 0.8890583960695704 0.2911149712655162 0.5124707633105213
3.641039179220898 1.2089387834761591 1.0020582100477018 1.4300421856970371
6.893007491924917 1.5888128361692995 2.415313184934824 2.888881470820792
11.716036442493774 2.0222016928149666 4.744947547246748 4.94888720243206
18.266782748566833 2.510824397705157 8.133691886660767 7.622266464200912
26.6350444772549 3.052769037895708 12.699887769934541 10.882387669424649
36.8923218452907 3.6626095211437226 18.538029065939146 14.691683258207838
48.85899011596864 4.353684305413757 25.4727333132748 19.032572497280107
62.80854638092449 5.099457569930235 33.829074577253486 23.88001423374077
78.44875116373026 5.827376333551662 43.4425208695035 29.178853960675106
95.21519548939526 6.37228265335211 54.075638539364604 34.76727429667853
112.01467017547618 6.542849326617387 65.14547584003333 40.32634500882551
126.98126753663274 6.140917584331701 75.49537827674544 45.3449716755556
135.86520149818602 4.322475197273343 82.75416902657378 48.78855727433888
134.05997248351412 3.6776837785781673 81.99149884278299 48.39078986215303
147.5180549578901 25.150491132023326 76.52573738051859 45.841826445348175
134.05997248349271 3.6776837785778316 81.9914988427686 48.39078986214625
135.86520149814027 4.3224751972757325 82.75416902654129 48.78855727432329
126.9812675365614 6.140917584328998 75.49537827669903 45.34497167553336
112.01467017540358 6.542849326621086 65.14547583998217 40.32634500880023
95.21519548930877 6.372282653344004 54.07563853931285 34.76727429665191
78.44875116364634 5.827376333547271 43.442520869451755 29.178853960647306
62.80854638084939 5.09945756993173 33.82907457720452 23.880014233713133
48.85899011589358 4.353684305412054 25.472733313228844 19.03257249725267
36.89232184521868 3.662609521136191 18.53802906589985 14.691683258182644
26.635044477195382 3.0527690378882077 12.699887769903716 10.882387669403462
18.266782748520345 2.510824397698938 8.13369188663785 7.62226646418355
11.716036442461524 2.02220169281298 4.7449475472304155 4.948887202418124
6.8930074919026865 1.5888128361671265 2.415313184924722 2.8888814708108415
3.6410391792076493 1.2089387834744276 1.0020582100424746 1.430042185690747
1.6926441306392241 0.8890583960680952 0.29111497126346886 0.51247076330766
0.6880582615908174 0.5757314286623373 0.032974777042056744 0.07935205588642365
0.2770741364389744 0.27889046998679123 -0.0004959538238792948 -0.0013203797239376423
0.1008990387536628 0.1008990387536628 0.0 0.0
0.022853472037223835 0.022853472037223835 0.0 0.0
0.0027750242676312284 0.0027750242676312284 0.0 0.0
0.000829412439029099 0.000829412439029099 0.0 0.0
0.016612101420813534 0.016612101420813534 0.0 0.0
0.10511131436365187 0.10511131436365187 0.0 0.0
0.3380734240416366 0.3353283474601572 0.00016491656357201737 0.0025801600179073177
0.905824904111077 0.7015425127353354 0.06739683505247543 0.1368855563232662
2.1554322619340396 1.0841462922458347 0.4049480490162074 0.6663379206719973
4.438914045329986 1.5097289386609898 1.2388646484792565 1.6903204581897393
8.152074843740335 2.0556569071762136 2.826122864526563 3.270295072037562
13.607759995862066 2.737486186658497 5.385625282564675 5.484648526638897
21.084662986284002 3.588834461099829 9.136566009834535 8.35926251534963
30.715831768963163 4.637553751366074 14.202145511214013 11.876132506383072
42.440707280753905 5.89879613492339 20.53799757412448 16.003913571706054
56.39053835458126 7.35843751928866 28.32112755732856 20.71097327796403
72.48286556615312 8.972811211708354 37.54711854081036 25.96293581363438
90.34078174413033 10.52900809995197 48.14154945716576 31.6702241870126
109.06041755138254 11.652794408690246 59.782344355651496 37.62527878704081
127.04958614777426 11.91273732212274 71.65456388618918 43.48228493946236
142.39076119188073 11.183392195587416 82.52908870290683 48.67828029338647
153.18977078530713 10.070008849324417 90.64789581882974 52.47186611715299
149.27336514912386 3.734757619767242 92.24776709144868 53.29084043790792
210.23373254761242 68.86047010638892 89.51302771702674 51.86023472419679
149.27336514908416 3.734757619750024 92.24776709143326 53.29084043790087
153.18977078524873 10.070008849318553 90.64789581879356 52.47186611713656
142.39076119181595 11.183392195602572 82.52908870285276 48.67828029336074
127.04958614768141 11.912737322113692 71.65456388613296 43.48228493943481
109.06041755128464 11.652794408679696 59.78234435559343 37.62527878701143
90.34078174403325 10.529008099941437 48.14154945710915 31.670224186982693
72.4828655660596 8.97281121169683 37.54711854075745 25.962935813605334
56.39053835449979 7.358437519288043 28.321127557277613 20.71097327793418
42.440707280675554 5.898796134916408 20.537997574080517 16.003913571678616
30.715831768893217 4.637553751353711 14.20214551117962 11.8761325063599
21.084662986231145 3.588834461090882 9.136566009809206 8.359262515331055
13.607759995823454 2.7374861866517772 5.3856252825471636 5.484648526624517
8.152074843714978 2.0556569071733746 2.8261228645149807 3.2702950720266224
4.438914045314688 1.5097289386585921 1.2388646484732297 1.690320458182867
2.155432261926337 1.084146292244065 0.4049480490138369 0.6663379206684346
0.9058249041081678 0.7015425127337799 0.06739683505197742 0.13688555632241045
0.3380734240410237 0.33532834745954926 0.00016491656357493518 0.002580160017899474
0.10511131436353026 0.10511131436353026 0.0 0.0
0.01661210142081432 0.01661210142081432 0.0 0.0
0.0008294124390197305 0.0008294124390197305 0.0 0.0
CELL_DATA 800
SCALARS Stress float 6
LOOKUP_TABLE default
162.30730728819523 -514.3272261574141 -182.04881304621446 -108.750793441525 0.0 0.0
400.1176161442625 -59.53335301663943 116.23598648752234 56.68357609676363 0.0 0.0
401.7957479373259 9.341192031342267 123.14489598569574 -3.4638910257927242 0.0 0.0
461.49569116802144 -11.776840754391445 141.28043076017718 -14.480589363195746 0.0 0.0
537.0820503317213 -17.006393326517763 192.4775571920024 -11.528916796057882 0.0 0.0
609.1345637420366 -11.537660603565108 263.5510248061008 -9.998169194698296 0.0 0.0
678.98229336847 -4.608429826712161 322.89801968025085 -10.295524622702999 0.0 0.0
749.1504570325121 10.100033178679226 373.5564609651626 -11.681595173610805 0.0 0.0
821.2482542490986 32.17823812424105 423.0572363969634 -13.224360245637303 0.0 0.0
895.42999225841 60.849384298076274 475.3012375270665 -14.31005591607747 0.0 0.0
970.4672380579666 94.12130199636967 529.9028767920354 -14.799091387104326 0.0 0.0
1045.1540629189235 130.87641121634545 585.9500668696405 -14.734367474542703 0.0 0.0
1119.4629020972377 169.70742164502457 642.7506453118513 -14.508755564723923 0.0 0.0
1194.2121883645332 211.1921149639777 701.0183276361129 -14.222592661253524 0.0 0.0
1270.088967920648 256.14386158047046 761.5375097503259 -13.758662122102987 0.0 0.0
1346.5016499045732 304.24992653293464 823.8775557178951 -12.924994785101594 0.0 0.0
1421.1405645717327 353.8699380429685 886.07618694201 -11.554634516152952 0.0 0.0
1491.0815456092923 402.9063978309323 945.6103744346939 -9.782243974707972 0.0 0.0
1554.1582497403522 450.19430459335024 1000.7604952603747 -8.703578392831622 0.0 0.0
1635.3494812298663 522.7085840035336 1077.0778993985675 -12.694885232512618 0.0 0.0
1635.3494812308722 522.7085840045658 1077.0778993992956 12.694885232548582 0.0 0.0
1554.1582497412444 450.1943045942928 1000.7604952609267 8.703578392889202 0.0 0.0
1491.081545609949 402.90639783166785 945.6103744350966 9.78224397469873 0.0 0.0
1421.1405645716115 353.8699380429456 886.0761869418928 11.5546345162155 0.0 0.0
1346.5016499030116 304.2499265314749 823.8775557167562 12.924994785098109 0.0 0.0
1270.0889679192837 256.1438615792312 761.5375097492797 13.758662122045694 0.0 0.0
1194.2121883637499 211.19211496336152 701.0183276354896 14.222592661461388 0.0 0.0
1119.462902096827 169.70742164480265 642.7506453115509 14.508755564703316 0.0 0.0
1045.1540629184144 130.87641121605898 585.9500668692547 14.73436747464462 0.0 0.0
970.4672380577585 94.12130199639489 529.9028767918186 14.799091387089575 0.0 0.0
895.4299922579803 60.84938429789585 475.3012375267069 14.310055916101252 0.0 0.0
821.2482542489483 32.178238124350315 423.0572363968275 13.224360245755127 0.0 0.0
749.150457032379 10.100033178812865 373.5564609650418 11.681595173430816 0.0 0.0
678.9822933688364 -4.608429826033571 322.89801968040547 10.295524622772101 0.0 0.0
609.1345637420883 -11.537660603219294 263.55102480602477 9.998169194674949 0.0 0.0
537.0820503316473 -17.00639332628599 192.47755719188615 11.528916796106268 0.0 0.0
461.49569116764735 -11.776840754581734 141.28043076000006 14.48058936312919 0.0 0.0
401.7957479368947 9.341192030891673 123.14489598543432 3.463891025804804 0.0 0.0
400.11761614415593 -59.53335301672027 116.23598648743148 -56.68357609660565 0.0 0.0
162.30730728868716 -514.3272261568759 -182.04881304570108 108.75079344129372 0.0 0.0
62.734908210063196 -543.304561584075 -242.06271493444285 -155.03786444880492 0.0 0.0
260.4498797671689 -46.80003888274532 64.11509001258493 10.585762654793959 0.0 0.0
352.0989594354189 29.08745661741706 114.35543468952287 -10.014769829083031 0.0 0.0
425.1210889695848 -9.441131308349343 126.47759920473257 -34.376095342821365 0.0 0.0
508.42175623035575 -17.680902334728422 170.6334409544501 -32.736292564432794 0.0 0.0
585.120249512631 -12.619383454810063 242.24630927542415 -29.56087938147277 0.0 0.0
658.7808737229877 -5.606753223414245 307.5810046905706 -30.21731407753198 0.0 0.0
729.9545127716011 8.649341194666363 361.43277848258634 -32.313991234852054 0.0 0.0
800.8850264537144 29.37559797494822 410.7745907847889 -34.6824360490734 0.0 0.0
872.2187131166359 55.58434790231702 460.7119199451229 -36.07378100056367 0.0 0.0
943.0500035951923 85.37768774004645 511.6086451939234 -36.251614290494295 0.0 0.0
1012.946753940327 117.41344918158627 562.9556295371943 -35.622803572371254 0.0 0.0
1082.1544020974407 152.00129134717778 615.1093547494719 -34.726510552245244 0.0 0.0
1151.7331761759633 189.0462668137789 668.5983417592789 -33.75235140407226 0.0 0.0
1221.9810396535502 228.83223334891255 723.7470847011662 -32.47653120031385 0.0 0.0
1292.3892646935303 271.2660739449535 780.2703840680115 -30.488432201352015 0.0 0.0
1361.672570670864 315.6321670838248 837.163719151027 -27.57274932078758 0.0 0.0
1428.4100381720252 361.4130086838962 893.4342007670793 -24.242942797137342 0.0 0.0
1496.6434445279294 413.9881414078696 953.6824184596846 -21.792867479844848 0.0 0.0
1547.1083715822288 455.46825116031005 999.4963522472628 -19.79755441758344 0.0 0.0
1547.1083715821367 455.46825116023825 999.496352247208 19.797554417628444 0.0 0.0
1496.6434445276661 413.98814140764404 953.6824184593993 21.792867479870168 0.0 0.0
1428.4100381716175 361.4130086835633 893.434200766641 24.24294279722281 0.0 0.0
1361.6725706707393 315.6321670838046 837.1637191508581 27.57274932082315 0.0 0.0
1292.389264692391 271.2660739438986 780.2703840671318 30.48843220123192 0.0 0.0
1221.9810396525122 228.83223334800715 723.7470847003194 32.476531200348845 0.0 0.0
1151.7331761747903 189.04626681277924 668.5983417583805 33.75235140425262 0.0 0.0
1082.1544020963831 152.00129134629353 615.1093547486562 34.72651055224275 0.0 0.0
1012.9467539396708 117.41344918113319 562.9556295367441 35.62280357241323 0.0 0.0
943.0500035946209 85.37768773971598 511.6086451935564 36.25161429051775 0.0 0.0
872.2187131166863 55.58434790260014 460.711919945154 36.073781000517116 0.0 0.0
800.8850264533876 29.375597974893992 410.7745907845625 34.68243604918952 0.0 0.0
729.9545127713199 8.649341194661275 361.43277848235107 32.31399123483771 0.0 0.0
658.7808737232652 -5.606753222835849 307.5810046906707 30.2173140774209 0.0 0.0
585.1202495124801 -12.619383454684595 242.24630927522082 29.560879381309086 0.0 0.0
508.42175623013765 -17.680902334631593 170.63344095429747 32.73629256442443 0.0 0.0
425.12108896932494 -9.44113130833964 126.47759920465288 34.37609534273192 0.0 0.0
352.09895943529955 29.087456617318548 114.35543468945788 10.01476982909136 0.0 0.0
260.44987976731227 -46.80003888236485 64.11509001274455 -10.58576265490948 0.0 0.0
62.73490821033113 -543.3045615838196 -242.06271493414107 155.03786444850348 0.0 0.0
12.685685110398907 -549.4437783616643 -262.8912500494344 -169.51336641511557 0.0 0.0
148.57780547054324 -39.38093409786309 32.75906141180404 -43.10711245399433 0.0 0.0
286.3644503741124 32.82329224090259 95.75632278450448 -33.240026262921944 0.0 0.0
378.3135873817373 -1.0331270338289769 113.56291806243749 -53.78441708750007 0.0 0.0
470.4719806644541 -16.33999457133397 149.19950218634034 -56.107043802018126 0.0 0.0
557.7714998364992 -15.48448538201289 216.61317201844383 -51.04570141138225 0.0 0.0
634.4151708327856 -5.751713734677761 288.90783491271986 -50.46036278616974 0.0 0.0
706.3791654954049 7.261705310403698 346.2544839301011 -52.88152351951182 0.0 0.0
776.5793595807702 26.663969083436555 396.2630348348292 -55.687400290950244 0.0 0.0
845.0167341543282 50.11007746459653 443.92250330483455 -57.11338853754536 0.0 0.0
911.7540311215034 76.15607787943823 491.07891859150345 -56.928883224632195 0.0 0.0
976.8146002161466 104.19686173539357 538.0859482345487 -55.73838897632207 0.0 0.0
1041.2581485435544 134.06366203064533 585.5355972106931 -54.345955492409864 0.0 0.0
1105.4946561690972 166.43119413307625 634.0491910871103 -52.74965973649701 0.0 0.0
1169.9211439069488 200.87455311724952 683.6490337417774 -50.69398405639224 0.0 0.0
1234.3598048138754 237.45761820154587 734.2832621601742 -47.74991690134191 0.0 0.0
1298.4866072893321 276.5684144523764 785.9643198153125 -43.72501998690083 0.0 0.0
1363.3650376985322 320.29332380802487 840.2352748410115 -39.15043384968217 0.0 0.0
1424.1327840566387 364.94553201105305 892.859116160033 -33.86390315015675 0.0 0.0
1466.8463823540221 397.70475042936846 930.4918846160009 -25.955375941082334 0.0 0.0
1466.8463823544978 397.70475042986976 930.4918846163033 25.955375941191452 0.0 0.0
1424.1327840572505 364.9455320117213 892.8591161604414 33.863903150249044 0.0 0.0
1363.3650376993717 320.2933238089614 840.2352748415959 39.15043384982168 0.0 0.0
1298.4866072892014 276.568414452331 785.9643198152089 43.725019986902424 0.0 0.0
1234.3598048130355 237.45761820079605 734.283262159528 47.749916901307586 0.0 0.0
1169.9211439066523 200.87455311708896 683.6490337415411 50.69398405637243 0.0 0.0
1105.4946561694212 166.43119413356445 634.0491910872663 52.749659736557305 0.0 0.0
1041.258148544225 134.06366203152677 585.5355972110665 54.34595549249974 0.0 0.0
976.8146002158716 104.19686173531713 538.085948234324 55.73838897632072 0.0 0.0
911.7540311209539 76.156077879132 491.0789185911681 56.92888322470998 0.0 0.0
845.0167341545849 50.11007746509971 443.9225033049764 57.11338853750705 0.0 0.0
776.5793595807601 26.663969083674488 396.26303483481036 55.68740029090061 0.0 0.0
706.3791654948367 7.261705310076266 346.2544839297235 52.88152351940333 0.0 0.0
634.4151708322444 -5.751713734972469 288.9078349122895 50.46036278609907 0.0 0.0
557.7714998358739 -15.484485382397615 216.6131720179656 51.04570141132833 0.0 0.0
470.4719806641234 -16.33999457133813 149.1995021861581 56.10704380204893 0.0 0.0
378.3135873816422 -1.0331270334318132 113.5629180625414 53.78441708750822 0.0 0.0
286.36445037413796 32.823292240876974 95.75632278450449 33.240026262930485 0.0 0.0
148.5778054706273 -39.380934097698955 32.759061411878506 43.10711245386195 0.0 0.0
12.685685110513276 -549.4437783614535 -262.89125004918964 169.51336641493805 0.0 0.0
-5.993097527480188 -536.0614044567283 -257.26158176326607 -171.72259268806124 0.0 0.0
86.86733113289363 -39.614892587499426 14.175731563618257 -88.55508524990414 0.0 0.0
224.0724733153437 30.408074743447713 76.34416441763742 -63.95970187320291 0.0 0.0
326.4291038780108 6.362190455050177 99.82996756331619 -74.86252327293617 0.0 0.0
422.8292654402734 -13.822857089667203 128.30046647942623 -81.50626293913614 0.0 0.0
519.4859525317488 -16.444676869951813 188.3482174149949 -74.54606020597758 0.0 0.0
603.1420389023218 -7.275721663436464 263.9078700937788 -71.49873296140531 0.0 0.0
678.2030126714233 6.490480949728145 327.7123125485223 -73.50648334270609 0.0 0.0
747.4730716640413 23.809868483757654 378.7157501769044 -76.21094264371877 0.0 0.0
813.239417641886 44.40775925201802 424.5265924898564 -77.43504168383306 0.0 0.0
876.0910471317738 66.80846421906257 468.2187260416658 -76.83792266553364 0.0 0.0
936.7696658447935 90.7239027570331 511.08192681477976 -75.17078017003367 0.0 0.0
996.0452210750151 116.16005458243004 553.7865793890899 -73.28544101029483 0.0 0.0
1055.2114531273576 143.60442779875046 597.3481950040336 -71.1933995005796 0.0 0.0
1113.913897085009 172.4619747877791 641.331975702836 -68.47337221043651 0.0 0.0
1172.0821118113086 203.1799658355945 685.9224150286894 -64.7540191682265 0.0 0.0
1231.2483834937368 237.10468940212618 732.5297415924979 -59.98216679030768 0.0 0.0
1291.1430856362333 275.25275421544734 781.5304957346948 -54.09128499642777 0.0 0.0
1346.7751695474058 313.6421742041655 828.477546131536 -45.75781659215155 0.0 0.0
1386.7552558576836 341.964584548922 862.5377484476683 -32.469350341254014 0.0 0.0
1386.7552558577881 341.96458454906167 862.537748447803 32.46935034141451 0.0 0.0
1346.775169547782 313.64217420458783 828.4775461319105 45.75781659217807 0.0 0.0
1291.1430856364827 275.25275421580375 781.5304957349169 54.09128499665563 0.0 0.0
1231.2483834921104 237.10468940058655 732.5297415913543 59.98216679037311 0.0 0.0
1172.0821118095266 203.17996583392215 685.9224150274413 64.75401916828244 0.0 0.0
1113.9138970846097 172.46197478746996 641.3319757025363 68.47337221030764 0.0 0.0
1055.211453125907 143.60442779743397 597.3481950030471 71.19339950059279 0.0 0.0
996.0452210739948 116.16005458159603 553.786579388408 73.28544101038798 0.0 0.0
936.7696658443904 90.72390275686135 511.08192681440005 75.17078017008926 0.0 0.0
876.091047131106 66.80846421860576 468.2187260410932 76.83792266554536 0.0 0.0
813.2394176419089 44.407759252302725 424.52659248981183 77.43504168386357 0.0 0.0
747.4730716639167 23.809868483925413 378.7157501767839 76.21094264376988 0.0 0.0
678.2030126708895 6.490480949462068 327.7123125481338 73.50648334268658 0.0 0.0
603.1420389021179 -7.275721663326415 263.9078700935316 71.49873296136002 0.0 0.0
519.485952531768 -16.44467686955695 188.34821741493795 74.546060205878 0.0 0.0
422.8292654401674 -13.822857089390892 128.30046647943288 81.50626293898797 0.0 0.0
326.4291038778107 6.362190454995809 99.82996756324798 74.86252327293025 0.0 0.0
224.0724733154566 30.40807474359369 76.34416441771508 63.95970187309189 0.0 0.0
86.86733113311567 -39.61489258699555 14.175731563836031 88.55508524971198 0.0 0.0
-5.993097527278351 -536.0614044563943 -257.2615817629576 171.72259268792058 0.0 0.0
-9.92563055603776 -511.3886218915899 -237.18909807505355 -169.50384545116708 0.0 0.0
51.78443742106861 -40.94211633584801 3.2526963255661805 -123.92316443380432 0.0 0.0
170.36566888099574 25.134122446262886 58.649937398177585 -94.94980081539492 0.0 0.0
271.5267063585542 10.719857460286583 84.67398920046983 -97.428888128509 0.0 0.0
365.42429277697937 -8.94661098969258 108.76945098425881 -106.40245676851106 0.0 0.0
469.9320888282061 -16.585631098662382 158.44500185548642 -101.22691921586554 0.0 0.0
564.2988913110502 -9.320668526895968 233.0061735407963 -94.46090425780747 0.0 0.0
643.6873522645855 5.25957447844721 303.63820231589574 -94.21317152134763 0.0 0.0
712.8807864208767 21.05593616547482 357.4344262895675 -96.29900225305977 0.0 0.0
776.2161057494982 38.49984606972776 402.01392014400204 -97.09022437516293 0.0 0.0
835.5474177499051 57.3130633629923 442.67343920831377 -96.01527491941172 0.0 0.0
891.7325238920216 77.11727505181881 481.4234284995438 -93.86838381777255 0.0 0.0
946.1950858452323 98.1093944224374 519.6006103455591 -91.64320475130108 0.0 0.0
999.7163063299539 120.6205069649488 557.9251725167206 -89.05725150088871 0.0 0.0
1052.8113174119019 144.14247765373773 596.4771430075175 -85.76292379814808 0.0 0.0
1105.5433699038063 168.92354029424538 635.4215866325518 -81.54791221929875 0.0 0.0
1158.219000004909 196.35154291707207 675.5658220856683 -76.18904280080676 0.0 0.0
1212.1668827917213 227.76831309213622 718.2425827421999 -69.1541591425441 0.0 0.0
1263.9122071509235 260.45778046771363 760.3965933099047 -58.09188513051794 0.0 0.0
1304.0071717249114 286.3181527916024 793.2629149991712 -39.89293200841637 0.0 0.0
1304.0071717245319 286.318152791251 793.2629149988541 39.892932008536675 0.0 0.0
1263.9122071506383 260.4577804674791 760.3965933095977 58.09188513062944 0.0 0.0
1212.166882791579 227.76831309210044 718.242582742036 69.15415914269668 0.0 0.0
1158.2190000039411 196.35154291619318 675.5658220849557 76.18904280088606 0.0 0.0
1105.5433699026044 168.92354029315845 635.4215866316815 81.54791221935426 0.0 0.0
1052.811317411563 144.14247765348836 596.4771430072286 85.76292379808636 0.0 0.0
999.716306330085 120.62050696524386 557.9251725168043 89.05725150090322 0.0 0.0
946.1950858448122 98.10939442220021 519.6006103452787 91.64320475136572 0.0 0.0
891.7325238906185 77.11727505052693 481.4234284985672 93.86838381764782 0.0 0.0
835.5474177490546 57.31306336230659 442.67343920769616 96.015274919337 0.0 0.0
776.2161057492357 38.499846069670525 402.0139201438165 97.09022437510275 0.0 0.0
712.8807864209084 21.05593616579432 357.43442628957536 96.29900225306267 0.0 0.0
643.6873522645008 5.259574478682211 303.6382023157659 94.21317152133824 0.0 0.0
564.2988913112828 -9.32066852620607 233.00617354084528 94.46090425785269 0.0 0.0
469.93208882809586 -16.585631098386706 158.44500185539712 101.22691921582793 0.0 0.0
365.4242927768372 -8.946610989271045 108.76945098434024 106.40245676843158 0.0 0.0
271.52670635838064 10.719857460140187 84.67398920038035 97.42888812840324 0.0 0.0
170.36566888089433 25.13412244601202 58.649937398071906 94.94980081522839 0.0 0.0
51.784437421174296 -40.942116335558715 3.252696325684673 123.92316443363352 0.0 0.0
-9.925630555898962 -511.38862189123006 -237.18909807474935 169.5038454511056 0.0 0.0
-7.213185996959382 -479.17199925543446 -209.05658123707974 -166.03031584765307 0.0 0.0
30.332019665733156 -41.67399063325553 -3.402591290256712 -150.22070230161864 0.0 0.0
124.44224651173701 18.965140570330533 43.02221612462026 -122.37579757076094 0.0 0.0
215.91514673124783 12.553706036435553 68.53667937172146 -119.95397830384834 0.0 0.0
302.5555890958943 -3.335871907889345 90.274527874629 -129.3131465243021 0.0 0.0
404.40371714988373 -15.221474005923298 127.8467214324053 -129.82360284465634 0.0 0.0
510.12222395827325 -10.231469135066463 196.09278129407267 -120.37760347381527 0.0 0.0
598.4667569988164 2.6157743824499224 270.6494139512545 -116.06595506866982 0.0 0.0
671.1188741033224 17.950076432467565 330.48381340347595 -116.22025331669496 0.0 0.0
732.8158027436334 32.562726692724056 375.4396092439606 -116.09312146769169 0.0 0.0
788.5876089255572 47.5666891548764 413.431894592145 -114.48452129362146 0.0 0.0
840.6617574401253 63.43534720065338 448.5449925087423 -111.89451441009805 0.0 0.0
890.13995685754 80.12091562367382 482.24888902705345 -109.30076096836557 0.0 0.0
938.2121944391263 97.50235460054772 515.381344423804 -106.45225168167322 0.0 0.0
985.9260358519083 115.79163987510755 548.6701076749641 -102.73534519296791 0.0 0.0
1032.6019226830672 135.08017095412498 581.8874305717195 -97.93229681204072 0.0 0.0
1078.6496929101415 155.12202561709597 615.0944076332744 -92.21388714328923 0.0 0.0
1125.5752140158363 178.25968537041194 650.1549808629077 -84.50778457014599 0.0 0.0
1173.53164669465 204.9820524994375 687.4086900498235 -71.3482912551507 0.0 0.0
1215.958198566159 229.48184079118454 720.7011741633228 -48.81669723602094 0.0 0.0
1215.9581985659413 229.48184079103282 720.7011741632194 48.81669723620043 0.0 0.0
1173.5316466943643 204.9820524992101 687.4086900497118 71.34829125523136 0.0 0.0
1125.5752140155776 178.25968537025577 650.1549808628054 84.50778457032388 0.0 0.0
1078.6496929101017 155.12202561717953 615.0944076332655 92.2138871434046 0.0 0.0
1032.601922682437 135.08017095360836 581.8874305712624 97.9322968120677 0.0 0.0
985.9260358512223 115.79163987451946 548.6701076744288 102.73534519294282 0.0 0.0
938.2121944386959 97.502354600216 515.3813444233796 106.45225168162008 0.0 0.0
890.1399568570313 80.12091562338998 482.2488890266622 109.3007609684706 0.0 0.0
840.6617574393324 63.43534720000693 448.5449925081581 111.89451441008609 0.0 0.0
788.5876089257907 47.56668915538127 413.4318945922716 114.48452129370065 0.0 0.0
732.8158027432671 32.56272669261445 375.4396092436727 116.09312146770151 0.0 0.0
671.1188741027328 17.950076432094463 330.4838134030364 116.22025331664163 0.0 0.0
598.4667569979346 2.6157743817909775 270.64941395060197 116.06595506862712 0.0 0.0
510.1222239574462 -10.231469135630597 196.0927812934862 120.37760347379324 0.0 0.0
404.4037171497006 -15.221474005618735 127.84672143235338 129.82360284458773 0.0 0.0
302.55558909566133 -3.3358719078002013 90.27452787458544 129.31314652417484 0.0 0.0
215.91514673107437 12.553706036245012 68.53667937161367 119.95397830371452 0.0 0.0
124.44224651174716 18.965140570347078 43.022216124628265 122.37579757054316 0.0 0.0
30.332019665819626 -41.673990633011066 -3.4025912901574316 150.2207023013923 0.0 0.0
-7.213185996879204 -479.17199925519293 -209.05658123681528 166.03031584748823 0.0 0.0
-1.6024018631170378 -440.938057107339 -176.49549241894533 -162.5819041842749 0.0 0.0
15.018308686431745 -42.40955868171969 -8.21743158181184 -168.61492497760906 0.0 0.0
83.96032436926691 13.05504967144116 29.10461221221242 -144.65464616865324 0.0 0.0
160.76851671332986 13.775991576704161 52.36022890932303 -140.57129208837338 0.0 0.0
236.20980111877537 0.9261793044245472 71.40530890790316 -149.75803322674645 0.0 0.0
326.9435830131737 -11.059151508836457 98.9376081064726 -157.3519271294243 0.0 0.0
437.3322724029356 -10.751349710122867 154.11749851750824 -149.78188849067067 0.0 0.0
537.5983440890959 0.22879521792944146 227.72000945816728 -140.3476420854189 0.0 0.0
616.985850145548 13.653201871567946 293.3645221670962 -136.65998819363793 0.0 0.0
680.1853932712637 26.406086152471918 342.1969279510532 -134.684774645294 0.0 0.0
732.8947471765287 37.595318352540986 378.78884687664595 -132.2840642120542 0.0 0.0
781.0832113073699 49.73745070680096 410.9692015171047 -129.25306996648757 0.0 0.0
825.6882363787031 62.09859809964383 440.4628420635761 -126.35016276650519 0.0 0.0
868.0640054885025 74.62824003174616 468.53992124607055 -123.29548809179363 0.0 0.0
909.6437225459316 87.35650980481861 496.06160232762915 -119.39884075737912 0.0 0.0
951.6346554822373 101.49215462310076 524.4036374599837 -114.15386610337568 0.0 0.0
990.808580344237 114.53760939724023 550.7874225932377 -107.83060661160971 0.0 0.0
1028.8458280356042 127.76913426932093 576.5407301713287 -100.00456278891683 0.0 0.0
1072.2120108964568 146.316775728932 607.370004721126 -86.01926426552292 0.0 0.0
1119.1946050101203 169.98064782514425 642.399421160004 -60.12085378736202 0.0 0.0
1119.1946050090667 169.98064782409446 642.3994211592999 60.1208537873978 0.0 0.0
1072.2120108958177 146.31677572836801 607.3700047207246 86.01926426570677 0.0 0.0
1028.8458280352165 127.76913426910986 576.5407301709886 100.00456278926762 0.0 0.0
990.8085803440653 114.53760939724748 550.7874225930518 107.83060661183532 0.0 0.0
951.6346554821906 101.4921546231846 524.4036374599106 114.15386610342779 0.0 0.0
909.6437225452394 87.35650980434548 496.0616023272011 119.39884075753307 0.0 0.0
868.0640054885265 74.6282400318587 468.53992124610545 123.29548809173939 0.0 0.0
825.6882363785494 62.098598099676025 440.46284206354505 126.35016276660012 0.0 0.0
781.0832113074107 49.7374507071723 410.9692015171826 129.25306996666106 0.0 0.0
732.8947471761307 37.59531835224834 378.7888468763406 132.28406421193554 0.0 0.0
680.1853932714865 26.406086152912906 342.19692795117254 134.6847746452089 0.0 0.0
616.9858501449742 13.653201871169173 293.3645221666751 136.65998819354576 0.0 0.0
537.5983440888754 0.2287952181044801 227.72000945794176 140.34764208544843 0.0 0.0
437.33227240288386 -10.751349709624426 154.11749851747751 149.78188849069147 0.0 0.0
326.94358301286087 -11.05915150876221 98.93760810637792 157.3519271293331 0.0 0.0
236.2098011184896 0.9261793042616473 71.40530890777596 149.7580332265561 0.0 0.0
160.76851671329564 13.775991576791 52.3602289093398 140.57129208817088 0.0 0.0
83.96032436948684 13.055049671925815 29.10461221242379 144.65464616851233 0.0 0.0
15.018308686522008 -42.409558681399005 -8.21743158168849 168.61492497743015 0.0 0.0
-1.6024018630100443 -440.9380571069704 -176.49549241865503 162.5819041841909 0.0 0.0
3.183868682739096 -398.171788578225 -144.1365441454882 -159.88931369525446 0.0 0.0
0.5705989528487212 -43.67141673467465 -12.929484237040885 -179.3566495819424 0.0 0.0
46.96140190635556 8.309508843417712 16.58087015368444 -161.76967695772595 0.0 0.0
106.94403098505047 15.056025434306438 36.59844624151023 -157.77610211808164 0.0 0.0
167.52792414390217 3.713561644748617 51.531348294980745 -167.77691703302833 0.0 0.0
237.99593402809796 -5.184621167214823 71.57232397608024 -179.28166774491314 0.0 0.0
338.35183994315605 -8.741475056056512 109.79878394561909 -180.87850513164017 0.0 0.0
450.8638733366222 -1.8247823091596573 173.27251668247567 -169.09221980380806 0.0 0.0
542.4372391858483 8.72903323432297 240.93425946693515 -159.24007130460896 0.0 0.0
610.2533235433402 19.354333117807037 295.38207778472486 -153.43606404208458 0.0 0.0
662.9658764554264 27.318783260125947 334.1946527692589 -149.75892688127013 0.0 0.0
707.209616064403 35.76346480352822 364.7008025734109 -146.0303756061806 0.0 0.0
747.0679732179692 44.31137309227905 391.01405937446174 -142.76407794850843 0.0 0.0
783.6979511758594 52.00519209140465 414.3865182281212 -139.5904200506752 0.0 0.0
819.1139909944548 59.25509085013731 436.3945960671298 -135.825625730195 0.0 0.0
855.2623970464584 67.48838651851578 458.9242726053875 -130.36123681839558 0.0 0.0
890.7957483753271 75.64702406457081 481.12139894252374 -123.16466642658767 0.0 0.0
919.3950234487243 78.31411520671732 497.14070952358986 -115.16766121551244 0.0 0.0
952.7297772787105 83.5909623620766 516.3029966024801 -102.13488117781263 0.0 0.0
1005.551346964628 105.43475968928357 553.0622542355112 -75.05501093496183 0.0 0.0
1005.5513469642567 105.43475968894035 553.0622542352829 75.05501093510044 0.0 0.0
952.7297772792502 83.59096236283062 516.3029966028336 102.13488117821981 0.0 0.0
919.3950234491931 78.31411520743384 497.14070952388334 115.16766121579633 0.0 0.0
890.7957483745374 75.64702406387278 481.1213989419729 123.16466642670596 0.0 0.0
855.2623970463935 67.48838651846467 458.92427260530025 130.36123681823454 0.0 0.0
819.1139909941386 59.25509084990526 436.39459606693543 135.82562573016867 0.0 0.0
783.6979511757128 52.00519209128902 414.3865182279542 139.5904200506219 0.0 0.0
747.067973217577 44.311373092047305 391.0140593741317 142.76407794855155 0.0 0.0
707.209616063672 35.76346480308547 364.7008025729407 146.030375606316 0.0 0.0
662.9658764548792 27.318783259803453 334.19465276887723 149.75892688127897 0.0 0.0
610.2533235429594 19.354333117461884 295.3820777843757 153.4360640418513 0.0 0.0
542.4372391853611 8.729033234082507 240.93425946655333 159.24007130459728 0.0 0.0
450.86387333588675 -1.8247823096248688 173.27251668196902 169.0922198037814 0.0 0.0
338.35183994242647 -8.741475056595238 109.7987839451874 180.87850513156062 0.0 0.0
237.99593402775983 -5.184621167429459 71.57232397591136 179.28166774467155 0.0 0.0
167.5279241435785 3.7135616441930672 51.53134829472198 167.77691703286882 0.0 0.0
106.94403098493574 15.056025434247724 36.59844624146164 157.77610211792677 0.0 0.0
46.9614019063143 8.309508843389192 16.580870153664016 161.76967695749033 0.0 0.0
0.5705989527698636 -43.6714167347873 -12.929484237099178 179.35664958173885 0.0 0.0
3.1838686827188596 -398.171788577982 -144.13654414530163 159.8893136951303 0.0 0.0
2.6427228123936075 -351.649331585442 -116.57197206464318 -155.9726496321954 0.0 0.0
-16.43079388169822 -46.54226176653461 -18.890191539899686 -185.0285345500427 0.0 0.0
12.393267107612441 5.5584986277540365 5.385233878752964 -173.9152418438154 0.0 0.0
54.6410865252839 16.08440050611074 21.216532385917958 -171.03494411639383 0.0 0.0
97.13872199162742 7.2493152429248155 31.42165932373857 -181.0321792480226 0.0 0.0
143.74901647160567 -1.195579382311417 43.590084568436325 -196.1717596639791 0.0 0.0
212.4362988225575 -3.501586649249991 66.2681974191168 -205.6884580908902 0.0 0.0
315.8961361530625 -1.2898648123577896 108.12469050805153 -201.602701386775 0.0 0.0
423.5237516328307 4.568882748151449 165.88561068563266 -187.35083846649525 0.0 0.0
503.48436308287415 10.983896211795564 221.49172013672097 -174.5774544969095 0.0 0.0
559.551034967125 17.09422764059694 265.2320431660697 -167.40867415213467 0.0 0.0
601.7000815288208 21.366218137598594 296.93342089530495 -162.60232534746507 0.0 0.0
637.4074498351061 26.440046274138787 322.6449417176158 -158.74424569807485 0.0 0.0
668.3190333069131 29.93058925508744 343.22979955974114 -155.2781502193786 0.0 0.0
696.7593975855791 31.722256192181305 360.3422580665825 -151.64903890127175 0.0 0.0
725.9542150692461 33.15180148167029 376.63649653897227 -146.71440962043644 0.0 0.0
759.053484514097 36.13420227666748 395.0534381543995 -138.8523240609447 0.0 0.0
788.0681931285915 35.09258665785049 409.73566068392944 -129.22799509938278 0.0 0.0
803.5702457394164 17.890184412549218 409.30163820778233 -118.58854963116669 0.0 0.0
858.8991350473749 30.075066927290223 441.7290625947535 -95.64767179446748 0.0 0.0
858.8991350476621 30.07506692758983 441.72906259497256 95.64767179453582 0.0 0.0
803.5702457396326 17.890184412922224 409.3016382080133 118.58854963149696 0.0 0.0
788.0681931279976 35.09258665742905 409.73566068357604 129.22799509960265 0.0 0.0
759.0534845135678 36.134202276081936 395.05343815396395 138.85232406090944 0.0 0.0
725.9542150685899 33.15180148099108 376.63649653851496 146.7144096203024 0.0 0.0
696.759397585002 31.72225619162421 360.34225806621095 151.6490389012448 0.0 0.0
668.3190333070897 29.93058925542033 343.2297995598266 155.278150219483 0.0 0.0
637.4074498356091 26.440046274940173 322.6449417179793 158.74424569816722 0.0 0.0
601.7000815290482 21.366218138186227 296.9334208954494 162.60232534757026 0.0 0.0
559.551034966881 17.094227640479794 265.2320431658278 167.4086741521416 0.0 0.0
503.4843630829804 10.983896212184924 221.4917201367248 174.5774544968325 0.0 0.0
423.5237516325118 4.568882748085251 165.88561068539326 187.35083846649016 0.0 0.0
315.89613615257525 -1.2898648122760825 108.12469050785342 201.60270138682972 0.0 0.0
212.4362988224252 -3.5015866488462244 66.26819741918533 205.6884580907975 0.0 0.0
143.74901647153752 -1.195579382217601 43.59008456843843 196.1717596637803 0.0 0.0
97.13872199173586 7.249315243150923 31.421659323841176 181.0321792477993 0.0 0.0
54.641086525311735 16.084400506392168 21.216532386011146 171.03494411624908 0.0 0.0
12.393267107644988 5.5584986279509145 5.385233878821911 173.91524184356481 0.0 0.0
-16.430793881638877 -46.54226176642256 -18.890191539849035 185.02853454979208 0.0 0.0
2.6427228123282624 -351.64933158515686 -116.57197206451063 155.97264963206928 0.0 0.0
-3.994977899764649 -302.3341571388536 -94.9890995412488 -148.50103480593833 0.0 0.0
-35.11521168194534 -50.8921590162185 -25.79946296939376 -188.02867749386803 0.0 0.0
-20.452280275693553 4.5556882612056615 -4.769269883776238 -181.5911908714599 0.0 0.0
3.820891567463282 16.924854846234098 6.224584223057859 -179.69716177301302 0.0 0.0
26.46788084936492 11.11415760678509 11.307981189977806 -189.00034384470226 0.0 0.0
46.314041036749444 3.0780937389930725 15.089022243118832 -205.4575417238368 0.0 0.0
70.90071468111194 -0.2879520610553792 22.18762507747427 -220.07152792137126 0.0 0.0
111.5035484582803 0.3005782700142703 36.12648441806551 -225.32491998387397 0.0 0.0
177.23618549528257 3.914920640313696 60.63446367069735 -216.25504481789307 0.0 0.0
250.99218565356583 5.406342478529243 91.13663580290532 -201.6914635681755 0.0 0.0
314.5024178696026 8.651301090441066 125.25884184150935 -188.17308824034353 0.0 0.0
364.9860248242063 8.5068123980774 156.18249298484884 -180.56281029533332 0.0 0.0
401.03647679352906 9.505392058948544 182.15365609491712 -174.5278573134732 0.0 0.0
427.73375168716024 8.489185599329787 202.35318017644036 -169.78650488069326 0.0 0.0
450.95876240655565 5.033033164969623 218.32504705708814 -165.82078004046838 0.0 0.0
477.8624545621157 -0.8571695159776027 232.83413453365182 -161.76510170410265 0.0 0.0
514.0165337741829 -6.128189425438592 250.01655026434895 -155.23427481987062 0.0 0.0
560.874974650158 -7.378846932992218 273.5184673108455 -144.1435356706982 0.0 0.0
590.3148214950078 -30.29644070813069 279.26138871430476 -130.57501933240079 0.0 0.0
618.6812588403708 -75.36202965634237 268.943318364946 -120.88070342456965 0.0 0.0
618.6812588415048 -75.36202965502815 268.9433183657125 120.88070342500446 0.0 0.0
590.3148214959965 -30.296440706443974 279.26138871511387 130.57501933311318 0.0 0.0
560.8749746504106 -7.378846932463745 273.518467311064 144.14353567105616 0.0 0.0
514.0165337741731 -6.128189425486994 250.01655026432442 155.23427481996526 0.0 0.0
477.8624545622671 -0.857169515642795 232.83413453377682 161.7651017041745 0.0 0.0
450.95876240677734 5.03303316514976 218.32504705715797 165.82078004043422 0.0 0.0
427.73375168714983 8.48918559951261 202.35318017648945 169.78650488075013 0.0 0.0
401.03647679290924 9.505392057804457 182.15365609434994 174.52785731347353 0.0 0.0
364.98602482342903 8.506812396970453 156.18249298420727 180.56281029537433 0.0 0.0
314.50241786943184 8.65130109026913 125.25884184133847 188.1730882402888 0.0 0.0
250.9921856531536 5.406342477942996 91.13663580257167 201.69146356805035 0.0 0.0
177.23618549512182 3.914920640180604 60.63446367058873 216.2550448179701 0.0 0.0
111.5035484583349 0.3005782705328688 36.1264844182279 225.3249199839459 0.0 0.0
70.90071468133111 -0.28795206035486665 22.187625077748052 220.07152792128193 0.0 0.0
46.3140410370885 3.0780937397214627 15.089022243439171 205.4575417236628 0.0 0.0
26.467880849465406 11.114157606951006 11.307981190058346 189.00034384446116 0.0 0.0
3.8208915674387183 16.924854846098164 6.224584223010192 179.69716177289942 0.0 0.0
-20.45228027573317 4.55568826126703 -4.769269883770237 181.59119087142915 0.0 0.0
-35.11521168194969 -50.8921590162561 -25.799462969407312 188.02867749381417 0.0 0.0
-3.994977899854719 -302.3341571386465 -94.98909954119318 148.50103480579398 0.0 0.0
-15.900062008157999 -253.54165468268314 -80.96221954037543 -137.6081321667313 0.0 0.0
-51.97923806899832 -53.205880032152635 -31.55515519234428 -188.03569137507617 0.0 0.0
-52.011110312571304 3.9391976168379226 -14.426731035787187 -185.25522139862528 0.0 0.0
-45.45762275119557 17.65203086394942 -8.354089022978767 -183.58386291450557 0.0 0.0
-43.4319177462979 14.789388982006747 -8.638726241877926 -191.20833354455314 0.0 0.0
-51.9462272664162 7.601020306830734 -13.595747635615389 -206.39784075353577 0.0 0.0
-72.7894277169394 2.648641461346701 -22.068560012944783 -220.24684159396907 0.0 0.0
-111.97671355220311 0.10341217341188091 -36.1539606402491 -225.48451201106644 0.0 0.0
-177.02365022938235 -3.795596301809489 -60.527353368663434 -216.31674550797834 0.0 0.0
-250.7357630733888 -5.31344593940813 -91.02080001100343 -201.6721032295539 0.0 0.0
-314.6004632103358 -7.628069507790045 -124.81920759512116 -188.09459688563766 0.0 0.0
-366.21939411015603 -7.0266752018328305 -156.15044030849685 -180.14641531785446 0.0 0.0
-404.8593971302249 -8.54344039317364 -183.40966030185578 -173.9566082882837 0.0 0.0
-434.109907527618 -12.578921999876187 -206.93288340664006 -169.80779361622805 0.0 0.0
-454.71064105539347 -20.415206272047968 -227.48763354706983 -168.03847595200392 0.0 0.0
-464.71890893656297 -31.564852639633898 -244.39492345078827 -168.3777503878202 0.0 0.0
-454.5963014025784 -44.00438749172932 -253.7643383640869 -169.32081480146456 0.0 0.0
-395.0864689613455 -40.595471242775574 -240.60555623801324 -169.6392241160447 0.0 0.0
-213.0183283153683 -34.56269013537647 -175.1263408349342 -172.1108422767039 0.0 0.0
2.9321461395605013 -174.4336975967537 -66.82401397227089 -151.38498773444778 0.0 0.0
2.932146139582983 -174.43369759685916 -66.82401397237015 151.38498773489323 0.0 0.0
-213.01832831558613 -34.56269013557355 -175.12634083507342 172.11084227713943 0.0 0.0
-395.08646896141295 -40.59547124309074 -240.60555623806056 169.63922411631884 0.0 0.0
-454.596301402247 -44.00438749113209 -253.76433836372348 169.32081480142608 0.0 0.0
-464.7189089363662 -31.56485263977288 -244.3949234507086 168.37775038776945 0.0 0.0
-454.7106410555382 -20.415206272471607 -227.48763354716692 168.03847595202433 0.0 0.0
-434.109907527828 -12.578922000566834 -206.9328834067943 169.80779361622908 0.0 0.0
-404.85939712892883 -8.543440392199685 -183.40966030107305 173.95660828841824 0.0 0.0
-366.2193941092339 -7.026675201204981 -156.15044030789602 180.14641531785605 0.0 0.0
-314.6004632101468 -7.628069508622609 -124.81920759515793 188.0945968855795 0.0 0.0
-250.73576307286078 -5.313445939688407 -91.02080001084863 201.67210322947795 0.0 0.0
-177.02365022877962 -3.795596301686235 -60.52735336841812 216.31674550807668 0.0 0.0
-111.9767135517126 0.10341217375478173 -36.15396063998617 225.48451201098806 0.0 0.0
-72.78942771659469 2.648641461569002 -22.06856001276239 220.24684159376105 0.0 0.0
-51.94622726617332 7.601020307034787 -13.595747635479475 206.3978407534272 0.0 0.0
-43.43191774644305 14.789388981426642 -8.638726242096357 191.20833354436962 0.0 0.0
-45.45762275120075 17.652030863592934 -8.354089023088939 183.58386291437296 0.0 0.0
-52.011110312812065 3.939197616387078 -14.426731035997642 185.2552213984404 0.0 0.0
-51.979238069048414 -53.20588003230312 -31.55515519240737 188.0356913749316 0.0 0.0
-15.90006200823094 -253.54165468242445 -80.96221954034088 137.6081321665285 0.0 0.0
-24.397481069142557 -206.97478069525164 -69.4085209113499 -124.58286474811908 0.0 0.0
-65.9675534261747 -52.4976168909035 -35.5394664242057 -184.22422613904956 0.0 0.0
-82.05321160568604 3.257303472726801 -23.651463531717496 -184.92997737691633 0.0 0.0
-93.17319745021966 18.148711717637738 -22.52487973274504 -182.80266944882592 0.0 0.0
-111.85707052462018 17.677393166349468 -28.44666221021439 -187.36284191290662 0.0 0.0
-148.2879123912343 11.385265935734889 -42.05358974079316 -198.49503769936774 0.0 0.0
-213.90555170046454 5.772760336444207 -66.11664265386096 -206.6687585595505 0.0 0.0
-315.7944464218744 1.5870957243114816 -108.08161684032687 -201.93400924048325 0.0 0.0
-423.20962681305116 -4.498076975134797 -165.74917942024297 -187.4684783540982 0.0 0.0
-503.22583192825095 -10.754263297606805 -221.2928067677975 -174.54250580654684 0.0 0.0
-559.2040553171684 -16.333980106625106 -264.7827968173759 -167.1979942181639 0.0 0.0
-601.602397036972 -20.017073685301455 -296.3237177085725 -161.95695112990683 0.0 0.0
-638.5565003708325 -25.599902023155238 -322.7558007930537 -157.6385362082974 0.0 0.0
-672.5928380831642 -33.33929792310326 -346.7316294890077 -154.80984743893623 0.0 0.0
-705.0911688693849 -44.89796610029218 -370.58723904241873 -154.41710812809475 0.0 0.0
-734.726601240541 -60.10692729511922 -394.25530351788035 -156.70753300766575 0.0 0.0
-756.8273107028099 -76.32168885615519 -414.68984178435295 -162.03893772760208 0.0 0.0
-766.7382676316264 -90.31212628761253 -428.0212848234242 -170.4376324120043 0.0 0.0
-802.7713263678401 -144.84243213859452 -474.21305004923965 -179.42235905844635 0.0 0.0
-798.0237588932567 -226.40153956362732 -513.9526432943394 -197.563041554456 0.0 0.0
-798.0237588936222 -226.40153956431186 -513.9526432947492 197.5630415548368 0.0 0.0
-802.7713263680675 -144.84243213900186 -474.213050049466 179.4223590587756 0.0 0.0
-766.7382676318546 -90.31212628798059 -428.0212848235938 170.43763241221257 0.0 0.0
-756.8273107033273 -76.32168885701483 -414.6898417847083 162.03893772779077 0.0 0.0
-734.7266012414523 -60.10692729633527 -394.25530351849704 156.70753300782576 0.0 0.0
-705.0911688692313 -44.8979661004485 -370.5872390423609 154.41710812827773 0.0 0.0
-672.5928380827373 -33.339297922733635 -346.73162948868475 154.80984743892623 0.0 0.0
-638.5565003708548 -25.599902023553156 -322.7558007931403 157.63853620844026 0.0 0.0
-601.6023970367289 -20.017073685287833 -296.3237177083758 161.95695112985243 0.0 0.0
-559.2040553166557 -16.333980106313952 -264.78279681695165 167.19799421805823 0.0 0.0
-503.22583192798885 -10.754263297764613 -221.29280676756122 174.54250580650864 0.0 0.0
-423.20962681204264 -4.498076974361425 -165.74917941956886 187.46847835411535 0.0 0.0
-315.79444642081125 1.587095724986348 -108.08161683973348 201.93400924053415 0.0 0.0
-213.90555169959345 5.772760337128009 -66.11664265337583 206.66875855935 0.0 0.0
-148.28791239083444 11.385265935996216 -42.053589740587 198.495037699129 0.0 0.0
-111.85707052421259 17.677393166821613 -28.446662209949167 187.3628419126387 0.0 0.0
-93.17319744997343 18.148711717746416 -22.52487973264197 182.8026694487675 0.0 0.0
-82.05321160565296 3.2573034728037467 -23.65146353168876 184.9299773767783 0.0 0.0
-65.9675534261097 -52.49761689102891 -35.539466424228564 184.22422613894943 0.0 0.0
-24.397481069153002 -206.97478069507886 -69.40852091130319 124.58286474801258 0.0 0.0
-27.278974752020773 -163.4711348609477 -57.22503288389053 -110.40967980462221 0.0 0.0
-77.52722678491712 -49.32749728273405 -38.054483026473164 -176.36615753634814 0.0 0.0
-110.34080950646148 2.652119807440977 -32.30750443034814 -180.47997045622716 0.0 0.0
-139.14335862602888 18.179976652908447 -36.31982841945207 -177.16670338059436 0.0 0.0
-178.392228552815 19.186845656304033 -48.16004758437706 -177.92917351017988 0.0 0.0
-240.67287015861132 14.488390147481718 -69.9537816985117 -182.9884514451154 0.0 0.0
-338.11075977073745 10.665554596855944 -109.456239166145 -182.07016800704088 0.0 0.0
-450.23458598925157 2.083198105640239 -173.0144753412066 -169.6002178223418 0.0 0.0
-542.2364984989886 -8.68244429245081 -240.82022809775094 -159.2739568344887 0.0 0.0
-610.0953213340392 -19.188467732784055 -295.25670818135063 -153.4023211523323 0.0 0.0
-662.7006296307277 -26.77178562308825 -333.84492089279195 -149.56526079020145 0.0 0.0
-706.9818478630311 -34.672895063602 -364.0816750217623 -145.30699078049082 0.0 0.0
-747.6629908535301 -43.439694197732024 -390.8193559343302 -141.32218153806917 0.0 0.0
-786.9242405626372 -54.34192152025892 -416.9410618159692 -138.4411310439629 0.0 0.0
-826.5739969693393 -69.51082064795304 -444.91097327119405 -137.98596460537527 0.0 0.0
-865.2095307444522 -88.99802138951839 -474.43052176974584 -140.85918141486036 0.0 0.0
-899.8705297678899 -110.57061516326877 -503.0480660488532 -146.99492081446667 0.0 0.0
-938.946376329945 -143.95399858274445 -539.7401405520067 -153.7777582051778 0.0 0.0
-981.7475649150388 -193.0782011046322 -586.1889375300584 -160.1589152929886 0.0 0.0
-1070.0464907655892 -322.6385151846857 -693.815449776266 -169.85911540994644 0.0 0.0
-1070.0464907655642 -322.6385151847625 -693.8154497763009 169.8591154101465 0.0 0.0
-981.7475649150626 -193.0782011048272 -586.1889375300728 160.1589152932549 0.0 0.0
-938.9463763293046 -143.95399858232096 -539.7401405515964 153.77775820541314 0.0 0.0
-899.8705297676156 -110.57061516313567 -503.04806604868827 146.99492081454883 0.0 0.0
-865.2095307431708 -88.99802138827422 -474.4305217688549 140.85918141478223 0.0 0.0
-826.5739969691062 -69.51082064782585 -444.9109732710323 137.98596460537667 0.0 0.0
-786.9242405627017 -54.341921520565606 -416.9410618160857 138.44113104400702 0.0 0.0
-747.6629908536099 -43.43969419800223 -390.81935593434474 141.3221815381402 0.0 0.0
-706.981847862653 -34.672895063483914 -364.08167502150684 145.30699078054423 0.0 0.0
-662.7006296302449 -26.771785622868848 -333.8449208924575 149.56526079019423 0.0 0.0
-610.0953213343494 -19.188467733548848 -295.25670818154646 153.4023211523616 0.0 0.0
-542.2364984988941 -8.682444292898989 -240.8202280976684 159.27395683460205 0.0 0.0
-450.2345859886924 2.0831981056102795 -173.01447534084056 169.6002178224443 0.0 0.0
-338.110759769844 10.665554597373045 -109.45623916564728 182.07016800698568 0.0 0.0
-240.67287015799383 14.488390147816958 -69.95378169822935 182.98845144492515 0.0 0.0
-178.3922285525075 19.186845656386453 -48.160047584260425 177.92917350997834 0.0 0.0
-139.14335862571713 18.1799766530864 -36.319828419310326 177.1667033804031 0.0 0.0
-110.34080950641031 2.652119807334168 -32.30750443036886 180.4799704561288 0.0 0.0
-77.52722678477437 -49.327497282588176 -38.054483026387096 176.36615753633396 0.0 0.0
-27.278974751989146 -163.47113486078848 -57.22503288383328 110.40967980445993 0.0 0.0
-28.380223230784132 -123.90997926834592 -45.68706074973901 -95.78312097573684 0.0 0.0
-87.28131546451715 -43.983191278315914 -39.379214228239505 -164.27157078932993 0.0 0.0
-136.7837729632113 2.0992378560367513 -40.40207718407572 -171.7088829557882 0.0 0.0
-183.27139590903838 17.24296455542094 -49.87750650757634 -166.84737238450316 0.0 0.0
-241.78340238942582 19.696572856556067 -67.25084542220876 -163.2737701007445 0.0 0.0
-326.0837504894057 18.447576836618165 -97.43602392182812 -161.5654243528233 0.0 0.0
-435.7931777769192 12.597779528834124 -153.23540579734504 -151.41763498495874 0.0 0.0
-537.1551124456494 -0.07890499613532853 -227.44065056775824 -140.6123404630658 0.0 0.0
-616.9517004970652 -13.691795764474236 -293.36048152752505 -136.63693893401876 0.0 0.0
-680.0928466952911 -26.301759724794806 -342.1251229537503 -134.66115135865448 0.0 0.0
-732.7624845114026 -37.25582395421432 -378.5744948227258 -132.10805161523362 0.0 0.0
-780.9876444765996 -49.035104258992746 -410.5822579068348 -128.51778061924819 0.0 0.0
-825.9191392791984 -61.23762966197947 -440.12255817845227 -124.73564974089078 0.0 0.0
-869.663770942877 -75.4330452072196 -469.62741928709534 -121.69060035802059 0.0 0.0
-914.1391335588326 -93.60089158716875 -501.2231978705124 -121.04684181888513 0.0 0.0
-960.5709331398799 -117.9990926815768 -536.8539008220295 -123.97381687500611 0.0 0.0
-1009.8487856299704 -150.598318573812 -578.0344693312334 -129.62608159824137 0.0 0.0
-1063.389111291963 -194.14377488822183 -626.8430367952799 -135.2942838118026 0.0 0.0
-1132.0930521581924 -263.5334657949205 -695.7922799179199 -137.8581940792788 0.0 0.0
-1224.9110797874605 -387.27718820766484 -803.6520927720496 -142.77347881128253 0.0 0.0
-1224.9110797876115 -387.2771882079661 -803.6520927722065 142.77347881152383 0.0 0.0
-1132.0930521577582 -263.53346579457303 -695.7922799176273 137.85819407941952 0.0 0.0
-1063.3891112912472 -194.1437748876552 -626.8430367947385 135.29428381199654 0.0 0.0
-1009.8487856294529 -150.59831857342365 -578.0344693307363 129.62608159832988 0.0 0.0
-960.5709331399541 -117.99909268192258 -536.853900822089 123.97381687520351 0.0 0.0
-914.1391335589014 -93.6008915874122 -501.2231978705828 121.04684181889965 0.0 0.0
-869.6637709421934 -75.43304520665653 -469.62741928660455 121.69060035800499 0.0 0.0
-825.9191392785382 -61.237629661469896 -440.1225581780469 124.73564974088058 0.0 0.0
-780.9876444757949 -49.03510425835546 -410.5822579062953 128.51778061922184 0.0 0.0
-732.7624845111746 -37.25582395422867 -378.57449482254106 132.10805161516816 0.0 0.0
-680.0928466948051 -26.301759724537785 -342.12512295338206 134.6611513585848 0.0 0.0
-616.9517004967953 -13.691795764540377 -293.36048152725783 136.63693893399756 0.0 0.0
-537.1551124456328 -0.07890499668344919 -227.44065056766374 140.61234046319197 0.0 0.0
-435.79317777639983 12.597779528794003 -153.23540579704007 151.41763498497863 0.0 0.0
-326.08375048885813 18.447576836872557 -97.4360239215477 161.56542435260138 0.0 0.0
-241.78340238913654 19.696572856569787 -67.25084542211617 163.27377010060172 0.0 0.0
-183.2713959087069 17.24296455550548 -49.87750650745805 166.84737238438726 0.0 0.0
-136.7837729629636 2.099237856304986 -40.40207718392555 171.708882955687 0.0 0.0
-87.28131546442448 -43.98319127826436 -39.37921422819637 164.2715707891703 0.0 0.0
-28.38022323077305 -123.90997926822757 -45.68706074970018 95.78312097560018 0.0 0.0
-29.127581892056483 -88.86857100536953 -35.3988458692278 -80.81496578294677 0.0 0.0
-96.04105801395764 -37.07148515656518 -39.933762951156844 -148.33177901290702 0.0 0.0
-161.5541211038227 1.7333791793359543 -47.94499032133137 -158.51441713966423 0.0 0.0
-225.8488032624632 15.482705697665422 -63.12628520615615 -152.17329798878524 0.0 0.0
-302.0142790586616 20.336939349522797 -85.5820539662121 -144.59392541955953 0.0 0.0
-401.79729549771986 20.775293262579673 -126.24124508279746 -134.66411712146194 0.0 0.0
-508.5060668945373 11.769331279713217 -194.9603690701494 -121.41876233974955 0.0 0.0
-598.3621840093284 -2.6667842075471953 -270.54592611016676 -116.09665293607438 0.0 0.0
-671.1799418322584 -18.03653594354438 -330.56233556214835 -116.1916567700694 0.0 0.0
-732.8014555852358 -32.5033189091085 -375.41584834047944 -116.07840616413709 0.0 0.0
-788.6163423284224 -47.439169377473874 -413.3824243192135 -114.30850976629836 0.0 0.0
-840.7864486518883 -63.177975224234615 -448.47671091820473 -111.2027150414802 0.0 0.0
-890.0476227676272 -79.36497422174074 -481.8319688480285 -107.75402481825778 0.0 0.0
-937.6980337660548 -96.47809065623281 -514.5939832935874 -104.74334021926906 0.0 0.0
-986.839120737566 -117.64808697854244 -549.9136560078301 -103.70454123394666 0.0 0.0
-1041.1266297105108 -148.08287723030347 -592.3393973867828 -105.93810719661687 0.0 0.0
-1103.2068106000277 -190.71851870845646 -644.8105867009881 -110.96154136570173 0.0 0.0
-1174.2911385296206 -249.30869657173946 -709.7185879115525 -115.41329804464559 0.0 0.0
-1255.9269964635732 -330.58014154264083 -791.1298248804283 -117.02180592012465 0.0 0.0
-1339.8346840438621 -443.012227610442 -889.2573303367589 -123.20818146740945 0.0 0.0
-1339.8346840444917 -443.0122276112552 -889.2573303372905 123.20818146772044 0.0 0.0
-1255.9269964643247 -330.5801415434641 -791.1298248809155 117.02180592021844 0.0 0.0
-1174.2911385303419 -249.30869657264412 -709.7185879120723 115.41329804490023 0.0 0.0
-1103.2068105998703 -190.71851870841533 -644.810586700989 110.96154136573706 0.0 0.0
-1041.1266297095203 -148.08287722937484 -592.3393973861467 105.93810719656112 0.0 0.0
-986.8391207375216 -117.64808697864865 -549.9136560078214 103.70454123396377 0.0 0.0
-937.6980337652137 -96.47809065559721 -514.5939832930464 104.7433402193794 0.0 0.0
-890.0476227669913 -79.36497422124295 -481.8319688475886 107.75402481819694 0.0 0.0
-840.7864486513662 -63.17797522392074 -448.4767109178806 111.20271504149835 0.0 0.0
-788.6163423284225 -47.43916937774814 -413.3824243192284 114.30850976630686 0.0 0.0
-732.8014555854686 -32.50331890971843 -375.4158483406401 116.07840616422087 0.0 0.0
-671.1799418319215 -18.036535943488417 -330.56233556191194 116.19165677003085 0.0 0.0
-598.3621840084905 -2.666784207012771 -270.5459261095625 116.09665293603189 0.0 0.0
-508.50606689370767 11.769331280243204 -194.9603690695179 121.41876233969671 0.0 0.0
-401.79729549725283 20.77529326255714 -126.24124508256895 134.66411712142522 0.0 0.0
-302.0142790584754 20.336939349053768 -85.58205396629708 144.59392541948486 0.0 0.0
-225.84880326222066 15.482705697583757 -63.12628520611581 152.17329798869923 0.0 0.0
-161.55412110379692 1.7333791791611701 -47.94499032137666 158.51441713957473 0.0 0.0
-96.0410580138717 -37.071485156613754 -39.93376295114563 148.33177901278745 0.0 0.0
-29.127581892071163 -88.86857100526146 -35.39884586919978 80.81496578278878 0.0 0.0
-29.859384006396787 -58.83706149494763 -26.608933650403323 -65.42941761326594 0.0 0.0
-104.12453734461461 -29.169320025075695 -39.98815721090708 -128.96257725481402 0.0 0.0
-184.93352978915817 1.424652770533518 -55.0504759997669 -141.0389398322618 0.0 0.0
-265.72070206916686 12.87446146709517 -75.93217660660041 -133.0594501328321 0.0 0.0
-357.680842758267 21.436416079269197 -103.59000625983973 -121.91817982103495 0.0 0.0
-465.33529040209066 20.62439535331917 -156.3369990130603 -105.82916895528398 0.0 0.0
-563.2475482106197 10.299268638936383 -232.0747297629148 -94.87166081292933 0.0 0.0
-643.7975920332226 -5.424974810518812 -303.7191579600302 -94.10132790693278 0.0 0.0
-712.9857976928031 -21.15759064033014 -357.5453760597568 -96.28867256830966 0.0 0.0
-776.2587662779866 -38.48869878107365 -402.0302852102234 -97.07133580266758 0.0 0.0
-835.7164626361352 -57.367752839087316 -442.77351430432134 -95.82795697309827 0.0 0.0
-892.0197747110966 -77.22354306736945 -481.61311394398626 -93.26796173190436 0.0 0.0
-945.8277661835675 -97.51268467197364 -519.1464401237279 -90.40523283441433 0.0 0.0
-997.4695200857495 -118.2172667128263 -555.6395302015594 -87.54730463367338 0.0 0.0
-1050.5655573267318 -142.28276266683446 -594.3346159343895 -85.87404419817327 0.0 0.0
-1112.1718176566935 -177.77750617928723 -642.8528174564884 -87.02276487851952 0.0 0.0
-1186.2829773059902 -231.05100209062687 -706.5262249579137 -90.9637098456827 0.0 0.0
-1272.2990812552925 -303.64218622222893 -785.8507397137428 -95.22498518156866 0.0 0.0
-1361.3175586506197 -392.4075193694345 -874.7843976487925 -98.62476533769528 0.0 0.0
-1439.8003661633834 -497.98402612724186 -966.9555356605829 -108.50609088844307 0.0 0.0
-1439.8003661637426 -497.9840261276757 -966.9555356607791 108.50609088860153 0.0 0.0
-1361.317558650801 -392.4075193697081 -874.7843976488873 98.6247653378652 0.0 0.0
-1272.299081254777 -303.6421862218838 -785.8507397133344 95.22498518184315 0.0 0.0
-1186.2829773056815 -231.05100209043076 -706.5262249576728 90.96370984577047 0.0 0.0
-1112.1718176564405 -177.77750617915711 -642.8528174562142 87.02276487851611 0.0 0.0
-1050.5655573257804 -142.28276266596316 -594.3346159336785 85.8740441980433 0.0 0.0
-997.469520085454 -118.21726671270235 -555.6395302013286 87.54730463372505 0.0 0.0
-945.8277661840173 -97.51268467262668 -519.1464401239269 90.40523283445431 0.0 0.0
-892.0197747119114 -77.22354306842854 -481.6131139445415 93.26796173188143 0.0 0.0
-835.7164626361504 -57.36775283927811 -442.7735143043329 95.82795697291968 0.0 0.0
-776.2587662778797 -38.48869878124542 -402.03028521012135 97.0713358026597 0.0 0.0
-712.9857976924889 -21.157590640315902 -357.5453760595111 96.28867256831246 0.0 0.0
-643.7975920325213 -5.424974810112914 -303.71915795947086 94.10132790691657 0.0 0.0
-563.2475482106166 10.29926863844059 -232.07472976278996 94.87166081299137 0.0 0.0
-465.3352904020642 20.6243953528269 -156.3369990130107 105.82916895521952 0.0 0.0
-357.68084275805023 21.43641607886294 -103.5900062598792 121.91817982102874 0.0 0.0
-265.7207020689923 12.874461466938829 -75.93217660660821 133.05945013272756 0.0 0.0
-184.93352978899782 1.4246527706834056 -55.05047599967467 141.03893983207337 0.0 0.0
-104.12453734450867 -29.169320025066895 -39.988157210872664 128.9625772547393 0.0 0.0
-29.859384006426477 -58.83706149497065 -26.608933650419136 65.4294176132745 0.0 0.0
-30.39279136688849 -34.26517136268279 -19.39738881887138 -49.561561225311195 0.0 0.0
-111.32131901172697 -20.81444264853681 -39.640728498079135 -106.54176451292578 0.0 0.0
-207.07560365625204 1.0652921810644926 -61.80309344255626 -119.26534927668109 0.0 0.0
-304.4996511608286 10.224968012435445 -88.38273261717612 -110.3838585937057 0.0 0.0
-410.97346224677733 21.884546929420218 -122.60984513039409 -95.61217014106883 0.0 0.0
-515.979571020599 19.48215810084423 -185.9696272550316 -77.88667157110403 0.0 0.0
-602.8781139560678 7.507823920522341 -263.5685628283632 -71.35490489237246 0.0 0.0
-678.3860039435732 -6.649107072238934 -327.8759269957451 -73.36807081981391 0.0 0.0
-747.5960669635422 -23.903459569010806 -378.8249751352296 -76.21279191138562 0.0 0.0
-813.3431144242884 -44.457477665664754 -424.59610464195293 -77.40742484513197 0.0 0.0
-876.3395109708185 -66.99010141053876 -468.4189168541876 -76.64263725759537 0.0 0.0
-937.0538738865014 -90.99344440008105 -511.3541115340542 -74.69870439736738 0.0 0.0
-995.4819929465538 -115.70111711057291 -553.3050802184556 -72.46763790521203 0.0 0.0
-1052.406194722618 -140.9751963491193 -594.6833634602565 -70.10159977230362 0.0 0.0
-1109.634597947695 -168.37979601255952 -637.1214441678256 -67.86021700768148 0.0 0.0
-1174.873065111084 -206.8077056930528 -688.8616807606693 -67.2853658220655 0.0 0.0
-1259.1150979864046 -268.6083732578077 -761.7449017067511 -70.02835300351632 0.0 0.0
-1358.064407986129 -353.269115226913 -853.5597566112087 -75.13049624489922 0.0 0.0
-1456.5040834271513 -451.48701591787403 -951.985693981314 -81.93348724328696 0.0 0.0
-1534.8124344149196 -555.9053226053005 -1043.5838416197496 -96.54491830153293 0.0 0.0
-1534.8124344153707 -555.9053226057459 -1043.5838416201082 96.54491830155408 0.0 0.0
-1456.5040834270221 -451.48701591782344 -951.985693981235 81.93348724341159 0.0 0.0
-1358.0644079863262 -353.26911522723606 -853.5597566113597 75.1304962451305 0.0 0.0
-1259.1150979862941 -268.6083732578198 -761.7449017066384 70.0283530035983 0.0 0.0
-1174.8730651105584 -206.80770569268867 -688.8616807602635 67.28536582225914 0.0 0.0
-1109.634597947023 -168.3797960120144 -637.1214441673214 67.8602170076664 0.0 0.0
-1052.4061947227228 -140.975196349402 -594.6833634602073 70.10159977234301 0.0 0.0
-995.4819929466146 -115.70111711085993 -553.3050802184307 72.46763790533403 0.0 0.0
-937.0538738866227 -90.99344440045496 -511.3541115340746 74.69870439743043 0.0 0.0
-876.3395109706739 -66.99010141064682 -468.41891685405653 76.64263725757426 0.0 0.0
-813.3431144236201 -44.45747766522632 -424.596104641522 77.40742484504985 0.0 0.0
-747.5960669633968 -23.90345956916851 -378.82497513513727 76.21279191141144 0.0 0.0
-678.3860039432672 -6.649107072246103 -327.8759269955052 73.36807081979543 0.0 0.0
-602.8781139559491 7.507823920251262 -263.56856282817205 71.35490489242119 0.0 0.0
-515.9795710201847 19.482158100835587 -185.9696272547151 77.88667157110609 0.0 0.0
-410.9734622463411 21.884546929381003 -122.60984513023587 95.61217014109496 0.0 0.0
-304.4996511607498 10.224968012151475 -88.38273261725536 110.38385859358951 0.0 0.0
-207.07560365609643 1.0652921810823806 -61.803093442504206 119.26534927659144 0.0 0.0
-111.32131901153589 -20.814442648418318 -39.64072849798625 106.54176451288949 0.0 0.0
-30.3927913669366 -34.2651713626954 -19.397388818889596 49.56156122526423 0.0 0.0
-30.094223738467658 -15.582892826521139 -13.703134969496638 -33.33584139211169 0.0 0.0
-116.76687240799198 -12.447193371197079 -38.76421973375671 -81.27322232514257 0.0 0.0
-228.30690665616436 0.3042370927355389 -68.40080086902863 -93.12735085313767 0.0 0.0
-342.7620942581627 8.819108307593952 -100.37107016461823 -84.18521487542142 0.0 0.0
-458.3312949722462 21.513265349164573 -142.90248625852536 -67.05077637908592 0.0 0.0
-555.7665503404094 16.607226711872556 -214.93928109196742 -52.71769869496519 0.0 0.0
-634.6467800179656 5.549587700279375 -289.0931541755357 -50.16470418802455 0.0 0.0
-706.5819625581013 -7.381978885048696 -346.4266232750755 -52.7516327078708 0.0 0.0
-776.6998353899792 -26.737434948051614 -396.3545884595438 -55.693817963840765 0.0 0.0
-845.1738406844124 -50.2233696079829 -444.04726336310114 -57.07855417272902 0.0 0.0
-912.003941049877 -76.39518280157733 -491.3118600211038 -56.74959832992356 0.0 0.0
-976.9390499326284 -104.4279601318223 -538.2635415643344 -55.41459060999041 0.0 0.0
-1040.5901718295022 -133.68430981012725 -585.0315668749486 -53.903702734358106 0.0 0.0
-1103.1735912124627 -164.52226096695154 -631.9671130231379 -52.13353996419741 0.0 0.0
-1165.8837791837545 -197.18609955285174 -679.7894183959602 -49.81348143942539 0.0 0.0
-1233.333385745053 -236.8677462418613 -733.3093367545918 -47.613197496179495 0.0 0.0
-1317.736052545119 -297.8873226532516 -805.7808779649521 -48.42952997892629 0.0 0.0
-1431.1647985465506 -395.9899892187639 -911.458615990405 -54.512043904801594 0.0 0.0
-1544.7536256810627 -508.474050625843 -1024.6658567525183 -65.77274942008438 0.0 0.0
-1633.2667543997868 -621.3411634714718 -1125.6457586158729 -85.98558026893255 0.0 0.0
-1633.2667543997845 -621.3411634714971 -1125.6457586158897 85.98558026898445 0.0 0.0
-1544.7536256800543 -508.47405062487985 -1024.6658567518175 65.77274942010884 0.0 0.0
-1431.1647985450434 -395.989989217318 -911.4586159893129 54.5120439048971 0.0 0.0
-1317.7360525451522 -297.8873226533868 -805.780877965011 48.429529978896866 0.0 0.0
-1233.3333857447074 -236.86774624163692 -733.3093367542793 47.61319749620439 0.0 0.0
-1165.8837791837195 -197.1860995529451 -679.7894183957446 49.81348143937869 0.0 0.0
-1103.173591212885 -164.52226096756448 -631.9671130233663 52.133539964299985 0.0 0.0
-1040.5901718293858 -133.68430981021265 -585.0315668748469 53.90370273438583 0.0 0.0
-976.9390499325906 -104.42796013199158 -538.2635415642623 55.41459060993924 0.0 0.0
-912.0039410496341 -76.39518280159116 -491.3118600209068 56.74959832992198 0.0 0.0
-845.1738406840775 -50.22336960788357 -444.04726336288456 57.07855417262776 0.0 0.0
-776.6998353899744 -26.737434948373675 -396.35458845953974 55.69381796397182 0.0 0.0
-706.5819625576453 -7.3819788849314065 -346.42662327474636 52.75163270796419 0.0 0.0
-634.6467800173597 5.549587700551367 -289.0931541750716 50.164704188087974 0.0 0.0
-555.7665503397703 16.60722671224108 -214.93928109144105 52.71769869482849 0.0 0.0
-458.3312949716686 21.51326534943116 -142.90248625820035 67.05077637902423 0.0 0.0
-342.7620942578154 8.819108307843443 -100.37107016446205 84.18521487529476 0.0 0.0
-228.30690665581207 0.30423709304512103 -68.40080086883007 93.12735085315049 0.0 0.0
-116.76687240790497 -12.447193371129291 -38.76421973371028 81.27322232503582 0.0 0.0
-30.094223738502016 -15.582892826530147 -13.703134969509648 33.335841392064715 0.0 0.0
-27.675470085242605 -3.1480085013468857 -9.247043575976846 -17.26872585241854 0.0 0.0
-118.75938135607952 -4.638431579519089 -37.01934388067958 -53.12377360827681 0.0 0.0
-248.9615705670642 -0.8622948904869769 -74.94715963726534 -62.09745647314161 0.0 0.0
-382.7327343317047 8.868569976550376 -112.63182280850539 -54.59302236743371 0.0 0.0
-497.8536957685062 20.816504765568883 -164.08110811631582 -39.0754873073029 0.0 0.0
-584.6505291971533 12.328115848527034 -241.60476395489792 -30.07173223863749 0.0 0.0
-659.3332258156582 5.1528508155090975 -308.13156129982667 -29.97191792170743 0.0 0.0
-730.073302502366 -8.721308255449713 -361.5420745674086 -32.211230543938896 0.0 0.0
-800.9978334605955 -29.428166085604857 -410.84872510431904 -34.68669683435457 0.0 0.0
-872.4153779877981 -55.75547480633398 -460.8852829510844 -36.03877383108794 0.0 0.0
-943.2301328495464 -85.6021353347834 -511.8054306069272 -36.12222251687124 0.0 0.0
-1012.8501730359212 -117.49702408395304 -562.9514059455316 -35.445620151341565 0.0 0.0
-1081.4736228372512 -151.67792686973334 -614.6137032280717 -34.54020174253388 0.0 0.0
-1150.3542405560052 -188.18889083177194 -667.4835523870795 -33.458572967592076 0.0 0.0
-1220.1552456250488 -227.65737812460065 -722.237969957225 -31.72979437564593 0.0 0.0
-1291.2347181249538 -271.00779006371994 -779.4923595493076 -28.976647882340917 0.0 0.0
-1368.9706267070278 -324.9814467400948 -845.1825835554248 -27.16893074741401 0.0 0.0
-1472.1627662722085 -411.42478013091716 -939.6745486213148 -32.15693804218569 0.0 0.0
-1632.670229912234 -568.3285456424674 -1098.4993787603896 -48.21051275044928 0.0 0.0
-1744.8137965646524 -702.0366442925689 -1221.8754686366735 -75.87589958450073 0.0 0.0
-1744.8137965643614 -702.0366442923196 -1221.8754686364061 75.87589958458179 0.0 0.0
-1632.670229912413 -568.3285456427021 -1098.499378760419 48.21051275051241 0.0 0.0
-1472.1627662715373 -411.42478013031337 -939.6745486207458 32.15693804221038 0.0 0.0
-1368.9706267061936 -324.98144673934655 -845.182583554683 27.168930747317756 0.0 0.0
-1291.2347181238408 -271.0077900627235 -779.492359548364 28.976647882352783 0.0 0.0
-1220.1552456241234 -227.6573781238058 -722.2379699565026 31.729794375602033 0.0 0.0
-1150.3542405562714 -188.18889083221575 -667.4835523872567 33.458572967617606 0.0 0.0
-1081.4736228368638 -151.67792686954326 -614.6137032277192 34.54020174258235 0.0 0.0
-1012.8501730346024 -117.4970240828496 -562.9514059445578 35.44562015136715 0.0 0.0
-943.2301328484854 -85.60213533395074 -511.80543060614247 36.12222251689018 0.0 0.0
-872.415377986338 -55.7554748051345 -460.88528295009866 36.03877383109989 0.0 0.0
-800.9978334603509 -29.42816608563571 -410.8487251041072 34.68669683430198 0.0 0.0
-730.0733025021669 -8.721308255545651 -361.54207456724583 32.21123054390186 0.0 0.0
-659.3332258152416 5.152850815630529 -308.1315612994715 29.97191792162786 0.0 0.0
-584.6505291968818 12.328115848477463 -241.6047639545937 30.07173223855237 0.0 0.0
-497.8536957682253 20.816504765473503 -164.08110811612633 39.075487307296996 0.0 0.0
-382.73273433138945 8.868569976491619 -112.63182280845474 54.59302236744807 0.0 0.0
-248.96157056685203 -0.8622948904082506 -74.94715963717806 62.097456473141605 0.0 0.0
-118.75938135604174 -4.6384315795395095 -37.01934388067437 53.12377360819994 0.0 0.0
-27.675470085182425 -3.148008501341682 -9.247043575957232 17.26872585240573 0.0 0.0
-20.669071832055124 2.8062034846537705 -5.358860504220408 -2.6183957079932534 0.0 0.0
-114.3082511522645 1.7966915568785016 -33.753467878615794 -21.559997935140558 0.0 0.0
-269.9670311642541 -2.2210691538523957 -81.65643009543194 -25.092077821983963 0.0 0.0
-422.8799236936465 10.897474160918861 -125.804360893594 -22.099149037278583 0.0 0.0
-531.5576089809149 18.334105622092324 -186.84475093942422 -13.370531355150328 0.0 0.0
-610.0430224852212 10.027551948567151 -264.30009159297134 -9.931943232062727 0.0 0.0
-679.5100747225814 4.16811733777196 -323.43138008641495 -10.198002977670527 0.0 0.0
-749.32259243359 -10.129262418964842 -373.67348614396326 -11.623449297606992 0.0 0.0
-821.362293161199 -32.22626722776073 -423.1283254117884 -13.214917904755666 0.0 0.0
-895.6320681258252 -61.04590433948941 -475.4913785660667 -14.288660879537787 0.0 0.0
-970.55565332537 -94.29466465114989 -530.0334779585635 -14.748924425579025 0.0 0.0
-1044.8675635688655 -130.80484139105747 -585.7730902696851 -14.684102389410203 0.0 0.0
-1118.8637726374056 -169.47517806472752 -642.3281948218706 -14.450622951645348 0.0 0.0
-1193.862737947018 -211.40631050871383 -700.9290709045781 -14.030366036128317 0.0 0.0
-1270.8511706076463 -257.83750728895666 -762.7288144626264 -13.139035186411911 0.0 0.0
-1348.9358022369215 -308.41010352867653 -827.1172967447181 -11.397270209073112 0.0 0.0
-1425.1274975360773 -361.21124911000464 -891.6053646532712 -8.7404785038132 0.0 0.0
-1502.6956037265545 -421.3326333698288 -960.2342568433114 -8.962167746352947 0.0 0.0
-1617.1948917026994 -528.332504813991 -1070.551001580521 -24.500050490563165 0.0 0.0
-1944.895706735184 -870.7589636693432 -1406.2840110098089 -62.28032145001447 0.0 0.0
-1944.895706734468 -870.7589636686366 -1406.2840110092939 62.28032145000606 0.0 0.0
-1617.1948917017671 -528.3325048130973 -1070.5510015798109 24.500050490601065 0.0 0.0
-1502.6956037267191 -421.332633370082 -960.2342568433618 8.962167746346072 0.0 0.0
-1425.1274975359895 -361.21124911001834 -891.6053646531781 8.740478503743145 0.0 0.0
-1348.935802235676 -308.4101035275457 -827.1172967439222 11.397270209094913 0.0 0.0
-1270.8511706066222 -257.8375072880672 -762.7288144618902 13.139035186443373 0.0 0.0
-1193.8627379466934 -211.40631050856456 -700.9290709042066 14.030366036137057 0.0 0.0
-1118.8637726371865 -169.47517806470978 -642.3281948216342 14.450622951694154 0.0 0.0
-1044.8675635680995 -130.8048413905197 -585.7730902691388 14.684102389477273 0.0 0.0
-970.5556533242999 -94.2946646503153 -530.033477957836 14.74892442561828 0.0 0.0
-895.632068124851 -61.04590433876267 -475.4913785653912 14.288660879519332 0.0 0.0
-821.3622931604582 -32.22626722727802 -423.12832541130393 13.214917904684304 0.0 0.0
-749.3225924331614 -10.129262418840405 -373.6734861436827 11.623449297627769 0.0 0.0
-679.5100747222268 4.168117337800666 -323.43138008615495 10.19800297764927 0.0 0.0
-610.0430224850376 10.027551948414278 -264.30009159275187 9.931943232002977 0.0 0.0
-531.5576089805658 18.33410562210711 -186.84475093915515 13.370531355152831 0.0 0.0
-422.8799236933083 10.897474160889777 -125.804360893495 22.099149037206246 0.0 0.0
-269.9670311641403 -2.2210691538768117 -81.65643009540511 25.092077822035204 0.0 0.0
-114.30825115222788 1.796691556747799 -33.75346787864402 21.559997935217417 0.0 0.0
-20.6690718320224 2.8062034846273822 -5.358860504218505 2.6183957079889835 0.0 0.0
SCALARS Strain float 6
LOOKUP_TABLE default
0.011377769216518887 -0.012445906680349755 0.0 -0.0068688336658581095 0.0 0.0
0.0023400478874188464 -0.0014264073881885553 0.0 0.001148295491180007 0.0 0.0
0.0018054955326050719 -0.0007369318606963438 0.0 -4.4468550121690154e-05 0.0 0.0
0.002260722413269507 -0.0010787238509218922 0.0 -0.00020871916962617032 0.0 0.0
0.003439879449310984 -0.0020147730209165715 0.0 -0.0002608584576975215 0.0 0.0
0.005864899188216222 -0.004142603332327077 0.0 -0.0003923622007546146 0.0 0.0
0.009768336100698478 -0.007773792334254459 0.0 -0.0006196157993742513 0.0 0.0
0.015392340647038667 -0.013126726744685957 0.0 -0.0009663515566151193 0.0 0.0
0.022861374291433402 -0.02030840683389279 0.0 -0.0014463787879181456 0.0 0.0
0.03216781554400085 -0.029304654315833734 0.0 -0.002020139159186085 0.0 0.0
0.043236902738743956 -0.04004791990505119 0.0 -0.002615603222514945 0.0 0.0
0.055988892519295445 -0.05246493143728559 0.0 -0.003204370143351787 0.0 0.0
0.07034996978159677 -0.06648612784348851 0.0 -0.003792807645391666 0.0 0.0
0.08621994645618268 -0.08200710119425336 0.0 -0.004380186768825206 0.0 0.0
0.10334927145318412 -0.09877373077468121 0.0 -0.004950781535578513 0.0 0.0
0.12119011415313186 -0.11624085588882105 0.0 -0.005396920654456405 0.0 0.0
0.13882789706516138 -0.13350572368604796 0.0 -0.005506725251480993 0.0 0.0
0.15501574909323307 -0.14933655245748323 0.0 -0.00504511923426787 0.0 0.0
0.16825708680035417 -0.162246860701166 0.0 -0.004172075890321814 0.0 0.0
0.1765042210762499 -0.170033949146986 0.0 -0.004399462952655475 0.0 0.0
0.17650422107623995 -0.17003394914697045 0.0 0.0043994629526624696 0.0 0.0
0.16825708680032123 -0.16224686070112826 0.0 0.004172075890342297 0.0 0.0
0.15501574909317584 -0.1493365524574224 0.0 0.0050451192342771956 0.0 0.0
0.13882789706508722 -0.13350572368597424 0.0 0.005506725251488209 0.0 0.0
0.12119011415305023 -0.11624085588874777 0.0 0.00539692065444819 0.0 0.0
0.10334927145310221 -0.0987737307746066 0.0 0.004950781535577042 0.0 0.0
0.08621994645610176 -0.08200710119417653 0.0 0.004380186768826788 0.0 0.0
0.07034996978151448 -0.06648612784340813 0.0 0.0037928076453904724 0.0 0.0
0.055988892519217126 -0.05246493143720965 0.0 0.0032043701433477345 0.0 0.0
0.04323690273867431 -0.040047919904982354 0.0 0.002615603222511309 0.0 0.0
0.032167815543942935 -0.02930465431577778 0.0 0.0020201391591793683 0.0 0.0
0.022861374291388403 -0.020308406833848158 0.0 0.001446378787917757 0.0 0.0
0.01539234064700512 -0.01312672674465265 0.0 0.0009663515566099012 0.0 0.0
0.009768336100676012 -0.00777379233422959 0.0 0.0006196157993739737 0.0 0.0
0.005864899188202877 -0.004142603332313088 0.0 0.0003923622007531158 0.0 0.0
0.003439879449304961 -0.0020147730209104653 0.0 0.0002608584576976325 0.0 0.0
0.0022607224132679127 -0.0010787238509217811 0.0 0.00020871916962517112 0.0 0.0
0.0018054955326040623 -0.0007369318606976205 0.0 4.446855012185669e-05 0.0 0.0
0.0023400478874171515 -0.0014264073881874173 0.0 -0.0011482954911759546 0.0 0.0
0.011377769216507905 -0.012445906680335687 0.0 0.006868833665827301 0.0 0.0
0.00804731641434308 -0.009492581150959994 0.0 -0.008258702041026744 0.0 0.0
0.0012769806471313247 -0.0007214507853373076 0.0 0.0001380951156394472 0.0 0.0
0.0015453202507015422 -0.0005542365492168244 0.0 -0.00013018836851363957 0.0 0.0
0.0019905887449176082 -0.0009062736311856723 0.0 -0.0004623115333860506 0.0 0.0
0.0029303821327687427 -0.0016076335430685873 0.0 -0.000591073536421155 0.0 0.0
0.005005820065490982 -0.0033763257148244907 0.0 -0.0009142608276187791 0.0 0.0
0.00849074721131499 -0.006569236960934699 0.0 -0.0014937749053574867 0.0 0.0
0.013578258481861363 -0.011378185216963654 0.0 -0.0023275956266807507 0.0 0.0
0.020347524573645075 -0.017865454143218162 0.0 -0.0034213926391377103 0.0 0.0
0.028748812771980235 -0.02597178281005208 0.0 -0.0046831279287790906 0.0 0.0
0.03868343264147079 -0.03560335996841246 0.0 -0.005975293602979104 0.0 0.0
0.05008369098107763 -0.046697059315759404 0.0 -0.007219393201044061 0.0 0.0
0.0629267280912017 -0.05922819799481349 0.0 -0.008479516054302971 0.0 0.0
0.07715176401967673 -0.07313300845017867 0.0 -0.009782175398179493 0.0 0.0
0.09254837870043878 -0.08819925798503148 0.0 -0.01104553541097647 0.0 0.0
0.10865092080927677 -0.10396306936386379 0.0 -0.012050522513748385 0.0 0.0
0.1246671463583324 -0.11963820944452097 0.0 -0.012374387783925467 0.0 0.0
0.13946713957077794 -0.1341006250755319 0.0 -0.011623973663404952 0.0 0.0
0.15151422915148977 -0.14578560114269878 0.0 -0.009908512734529917 0.0 0.0
0.15876884473318545 -0.15276469878320587 0.0 -0.007053264012717886 0.0 0.0
0.15876884473317526 -0.1527646987831961 0.0 0.007053264012738647 0.0 0.0
0.15151422915145932 -0.14578560114266992 0.0 0.009908512734565833 0.0 0.0
0.1394671395707276 -0.13410062507548393 0.0 0.011623973663429599 0.0 0.0
0.1246671463582679 -0.11963820944445702 0.0 0.012374387783937513 0.0 0.0
0.10865092080920496 -0.10396306936379807 0.0 0.012050522513737727 0.0 0.0
0.09254837870036522 -0.08819925798496353 0.0 0.011045535410973417 0.0 0.0
0.07715176401960355 -0.07313300845011161 0.0 0.009782175398178716 0.0 0.0
0.06292672809112868 -0.05922819799474599 0.0 0.008479516054300418 0.0 0.0
0.0500836909810079 -0.04669705931569279 0.0 0.0072193932010360395 0.0 0.0
0.03868343264140786 -0.035603359968352066 0.0 0.005975293602970999 0.0 0.0
0.02874881277192856 -0.025971782809999677 0.0 0.004683127928766184 0.0 0.0
0.020347524573604114 -0.017865454143178416 0.0 0.0034213926391339355 0.0 0.0
0.01357825848183078 -0.011378185216934122 0.0 0.0023275956266748388 0.0 0.0
0.008490747211294919 -0.006569236960912717 0.0 0.0014937749053521854 0.0 0.0
0.005005820065479644 -0.0033763257148136105 0.0 0.000914260827614144 0.0 0.0
0.0029303821327640867 -0.0016076335430644795 0.0 0.0005910735364200448 0.0 0.0
0.001990588744916283 -0.0009062736311850061 0.0 0.00046231153338482933 0.0 0.0
0.0015453202507011987 -0.0005542365492170465 0.0 0.0001301883685137506 0.0 0.0
0.0012769806471313039 -0.0007214507853359198 0.0 -0.00013809511564100152 0.0 0.0
0.00804731641432993 -0.00949258115094519 0.0 0.008258702040998933 0.0 0.0
0.0059418662005489425 -0.007541164887150342 0.0 -0.007645428272190002 0.0 0.0
0.0007528218363818048 -0.00046890997081283636 0.0 -0.0005603924619019263 0.0 0.0
0.0012389528293324514 -0.0004090646985334123 0.0 -0.0004321203414179853 0.0 0.0
0.001731386732939981 -0.0007496999761192891 0.0 -0.0007051465707237359 0.0 0.0
0.0024781607535081587 -0.0012714977769492375 0.0 -0.0008852381474453164 0.0 0.0
0.004179449004916243 -0.0026616486319703814 0.0 -0.0013047229083381628 0.0 0.0
0.007221977161341021 -0.005386834577319366 0.0 -0.0021396598675410827 0.0 0.0
0.01174417172994529 -0.009624381020473471 0.0 -0.003373892628813435 0.0 0.0
0.01778755404725421 -0.015388541320256133 0.0 -0.004953667645730908 0.0 0.0
0.02526747161395687 -0.022589372984109346 0.0 -0.0067483581506611046 0.0 0.0
0.03406750954793988 -0.03110953149275497 0.0 -0.008585104871571603 0.0 0.0
0.044124795526680416 -0.04088660070630823 0.0 -0.010360067570092057 0.0 0.0
0.055439440291764 -0.05191772547619422 0.0 -0.012131136818512134 0.0 0.0
0.06799721590285096 -0.06418526582007233 0.0 -0.013979375471698308 0.0 0.0
0.08164524536509046 -0.07753635590355845 0.0 -0.015808203949900235 0.0 0.0
0.09600763061617752 -0.09159542924582631 0.0 -0.017276784756526053 0.0 0.0
0.11042160447337715 -0.10569956579026307 0.0 -0.017861415324898433 0.0 0.0
0.12385930595581784 -0.11881151868312267 0.0 -0.017043678634178716 0.0 0.0
0.13483735577948902 -0.12947348091503352 0.0 -0.01434443872973079 0.0 0.0
0.1416509966172777 -0.13606091058247882 0.0 -0.008984554295139335 0.0 0.0
0.14165099661726782 -0.1360609105824664 0.0 0.008984554295172975 0.0 0.0
0.13483735577946124 -0.12947348091500244 0.0 0.014344438729778863 0.0 0.0
0.1238593059557733 -0.11881151868307338 0.0 0.017043678634214077 0.0 0.0
0.11042160447332103 -0.10569956579020756 0.0 0.017861415324913366 0.0 0.0
0.09600763061611489 -0.09159542924576813 0.0 0.017276784756517838 0.0 0.0
0.08164524536502507 -0.0775363559034945 0.0 0.01580820394989446 0.0 0.0
0.06799721590278579 -0.06418526582000528 0.0 0.013979375471695143 0.0 0.0
0.05543944029169992 -0.051917725476126275 0.0 0.012131136818507193 0.0 0.0
0.0441247955266193 -0.04088660070624828 0.0 0.010360067570078013 0.0 0.0
0.034067509547884206 -0.03110953149270168 0.0 0.00858510487156039 0.0 0.0
0.025267471613910936 -0.022589372984061606 0.0 0.006748358150644562 0.0 0.0
0.01778755404721777 -0.015388541320219273 0.0 0.00495366764572025 0.0 0.0
0.011744171729917874 -0.009624381020448602 0.0 0.0033738926288037763 0.0 0.0
0.007221977161323834 -0.005386834577304711 0.0 0.002139659867535171 0.0 0.0
0.004179449004907049 -0.002661648631964164 0.0 0.0013047229083344436 0.0 0.0
0.0024781607535046823 -0.001271497776946795 0.0 0.0008852381474448168 0.0 0.0
0.0017313867329390165 -0.0007496999761175127 0.0 0.0007051465707239579 0.0 0.0
0.001238952829332618 -0.00040906469853357885 0.0 0.0004321203414180963 0.0 0.0
0.0007528218363818673 -0.0004689099708122535 0.0 0.0005603924619002054 0.0 0.0
0.0059418662005365774 -0.007541164887136839 0.0 0.0076454282721680755 0.0 0.0
0.004473099554232557 -0.006071731721727508 0.0 -0.006493034036740508 0.0 0.0
0.0004724953972002899 -0.00034963905698226494 0.0 -0.0011512161082487538 0.0 0.0
0.000960234007835091 -0.0002985845828822331 0.0 -0.0008314761243516378 0.0 0.0
0.001472702468399957 -0.0006074599446072027 0.0 -0.0009730690456891955 0.0 0.0
0.0020789354603335045 -0.0010043217106734392 0.0 -0.0011655491391144024 0.0 0.0
0.0034196208424719446 -0.002036841856318361 0.0 -0.0015927312559204376 0.0 0.0
0.005972314085447142 -0.004252765710781814 0.0 -0.002566918323299444 0.0 0.0
0.00991057784949144 -0.007885766237152092 0.0 -0.004099525853329483 0.0 0.0
0.015204808723551407 -0.012904811342902 0.0 -0.0060346626190256325 0.0 0.0
0.021750105880356398 -0.019185758341588866 0.0 -0.008217959440797312 0.0 0.0
0.029413296407869535 -0.026591059933084527 0.0 -0.010443083756371818 0.0 0.0
0.03813041634452467 -0.035053265353691465 0.0 -0.012604790155697432 0.0 0.0
0.047918090355411225 -0.044586106645318146 0.0 -0.014774631342429456 0.0 0.0
0.058796870184861266 -0.05520454203300096 0.0 -0.016998219018931393 0.0 0.0
0.07067491842517039 -0.06681950273001913 0.0 -0.019193320441371897 0.0 0.0
0.0832779485364384 -0.07915557955108721 0.0 -0.02104153404369008 0.0 0.0
0.09607310550605021 -0.09167133987707343 0.0 -0.021939195307979775 0.0 0.0
0.1081680936391019 -0.10347224096792917 0.0 -0.021139736458921032 0.0 0.0
0.11826677171445252 -0.11328898193468628 0.0 -0.017711625721803514 0.0 0.0
0.12488755528460832 -0.11970504010689975 0.0 -0.01057069343905559 0.0 0.0
0.12488755528459924 -0.11970504010688998 0.0 0.010570693439100332 0.0 0.0
0.11826677171442693 -0.1132889819346583 0.0 0.01771162572185858 0.0 0.0
0.1081680936390628 -0.10347224096788832 0.0 0.02113973645896161 0.0 0.0
0.09607310550600157 -0.09167133987703346 0.0 0.02193919530799704 0.0 0.0
0.08327794853638415 -0.07915557955104235 0.0 0.02104153404368425 0.0 0.0
0.07067491842511331 -0.06681950272996406 0.0 0.019193320441362238 0.0 0.0
0.05879687018480445 -0.055204542032951665 0.0 0.01699821901892562 0.0 0.0
0.04791809035535596 -0.044586106645267964 0.0 0.01477463134242385 0.0 0.0
0.0381304163444717 -0.035053265353640395 0.0 0.0126047901556825 0.0 0.0
0.02941329640782217 -0.02659105993304056 0.0 0.010443083756357052 0.0 0.0
0.021750105880316062 -0.01918575834154801 0.0 0.008217959440778577 0.0 0.0
0.015204808723519286 -0.012904811342870026 0.0 0.006034662619014253 0.0 0.0
0.00991057784946775 -0.007885766237130776 0.0 0.004099525853319352 0.0 0.0
0.005972314085432917 -0.004252765710768269 0.0 0.0025669183232930326 0.0 0.0
0.0034196208424646657 -0.0020368418563103674 0.0 0.0015927312559149143 0.0 0.0
0.002078935460331305 -0.0010043217106708857 0.0 0.0011655491391114603 0.0 0.0
0.0014727024683993117 -0.0006074599446072027 0.0 0.0009730690456892788 0.0 0.0
0.00096023400783532 -0.000298584582881789 0.0 0.0008314761243501945 0.0 0.0
0.00047249539720031764 -0.0003496390569804053 0.0 0.0011512161082462558 0.0 0.0
0.004473099554221982 -0.0060717317217152435 0.0 0.006493034036722689 0.0 0.0
0.003360387212109947 -0.004877393913155309 0.0 -0.005317919661392223 0.0 0.0
0.00031545631712076583 -0.00028726628229919227 0.0 -0.0016110011376394562 0.0 0.0
0.0007261522546383181 -0.00021785279718744555 0.0 -0.001234347410600134 0.0 0.0
0.0012145408953028597 -0.0004806997892642384 0.0 -0.001266568672552093 0.0 0.0
0.001721919451576348 -0.0007914251860332566 0.0 -0.0014371517083661967 0.0 0.0
0.0027418202928386898 -0.0015182373736686294 0.0 -0.0018372086688643319 0.0 0.0
0.004781233926904799 -0.0032052651342548977 0.0 -0.0027976982391267335 0.0 0.0
0.00809084006436954 -0.006185669806251681 0.0 -0.004464152906211993 0.0 0.0
0.012622949076149581 -0.010440206778397743 0.0 -0.006656191708934722 0.0 0.0
0.01822141137067275 -0.01578795162674629 0.0 -0.009084844497192879 0.0 0.0
0.02474555941454215 -0.022074491573899735 0.0 -0.011555519633570932 0.0 0.0
0.03212480537373949 -0.02922425891885272 0.0 -0.013953473441761899 0.0 0.0
0.04038689770601091 -0.03725908752478446 0.0 -0.016354969294603172 0.0 0.0
0.04958426649198357 -0.046227742520360326 0.0 -0.01883083964075427 0.0 0.0
0.0596808518719896 -0.05609398999584325 0.0 -0.0212579777398737 0.0 0.0
0.07048929974762232 -0.0666695227539611 0.0 -0.023317939764908646 0.0 0.0
0.08161707412284692 -0.07755680139283161 0.0 -0.024487054927219587 0.0 0.0
0.09238000335828184 -0.08806364780102971 0.0 -0.023867888074167898 0.0 0.0
0.1017164019277545 -0.0971468687658974 0.0 -0.02013389050692105 0.0 0.0
0.10830623491762409 -0.10353905843859268 0.0 -0.011914345140663474 0.0 0.0
0.10830623491761582 -0.10353905843858646 0.0 0.011914345140708549 0.0 0.0
0.10171640192773107 -0.09714686876587564 0.0 0.020133890506979224 0.0 0.0
0.09238000335824828 -0.08806364780099685 0.0 0.023867888074210586 0.0 0.0
0.08161707412280539 -0.0775568013927952 0.0 0.024487054927239127 0.0 0.0
0.07048929974757556 -0.06666952275392068 0.0 0.023317939764903484 0.0 0.0
0.059680851871941165 -0.05609398999579662 0.0 0.02125797773986393 0.0 0.0
0.049584266491935314 -0.04622774252031103 0.0 0.01883083964074672 0.0 0.0
0.04038689770596465 -0.03725908752474005 0.0 0.0163549692945959 0.0 0.0
0.032124805373694415 -0.02922425891881497 0.0 0.01395347344174458 0.0 0.0
0.024745559414502766 -0.022074491573864652 0.0 0.011555519633553057 0.0 0.0
0.01822141137063843 -0.01578795162671298 0.0 0.009084844497170064 0.0 0.0
0.012622949076122103 -0.010440206778369543 0.0 0.006656191708920678 0.0 0.0
0.008090840064349819 -0.006185669806231919 0.0 0.004464152906200447 0.0 0.0
0.004781233926893197 -0.003205265134241353 0.0 0.0027976982391202943 0.0 0.0
0.0027418202928335134 -0.0015182373736633004 0.0 0.0018372086688600575 0.0 0.0
0.0017219194515747382 -0.0007914251860309252 0.0 0.00143715170836492 0.0 0.0
0.001214540895302485 -0.0004806997892646825 0.0 0.0012665686725509273 0.0 0.0
0.0007261522546383459 -0.00021785279718838924 0.0 0.001234347410597969 0.0 0.0
0.00031545631712068256 -0.00028726628229808204 0.0 0.0016110011376372357 0.0 0.0
0.0033603872121014122 -0.004877393913145171 0.0 0.0053179196613794 0.0 0.0
0.0024895578272116914 -0.0038804413601906396 0.0 -0.004292538106894617 0.0 0.0
0.00021927497121393413 -0.0002487640957294923 0.0 -0.0019528691299210421 0.0 0.0
0.0005292301975162589 -0.00015637099110288322 0.0 -0.001590885368419892 0.0 0.0
0.0009578530437887034 -0.0003638419795098935 0.0 -0.0015591973965499162 0.0 0.0
0.0013946257517125776 -0.0006156372615873096 0.0 -0.0017026574674957606 0.0 0.0
0.0021393502852897206 -0.0011052923561369887 0.0 -0.0020602870244128546 0.0 0.0
0.003688731536086634 -0.0022967644638520746 0.0 -0.0029395949755088857 0.0 0.0
0.00632378779592857 -0.004580323905263528 0.0 -0.004540374702073968 0.0 0.0
0.01006104864478427 -0.008021943116905739 0.0 -0.0067847994402221445 0.0 0.0
0.014706650600829624 -0.012425014323468986 0.0 -0.009335099945229186 0.0 0.0
0.020087727401764593 -0.017588555016419427 0.0 -0.011902897441700255 0.0 0.0
0.026133665591046115 -0.023428381396747078 0.0 -0.014393982182023313 0.0 0.0
0.032875664656901574 -0.029970645133885032 0.0 -0.016885016137105302 0.0 0.0
0.04038937770895325 -0.03728718592202629 0.0 -0.01943087083276057 0.0 0.0
0.04869532919800297 -0.04539455363119904 0.0 -0.021943606336873478 0.0 0.0
0.05767931513735558 -0.05418017608893777 0.0 -0.024124803829855213 0.0 0.0
0.06707760629506529 -0.06337987404274426 0.0 -0.025464050727244225 0.0 0.0
0.07646094434894603 -0.07255296458844773 0.0 -0.025124133225431555 0.0 0.0
0.08507423285775732 -0.08094238807926946 0.0 -0.021581404364296453 0.0 0.0
0.09174907018350381 -0.08741678775646244 0.0 -0.013042294556436462 0.0 0.0
0.09174907018349573 -0.08741678775645534 0.0 0.01304229455648287 0.0 0.0
0.08507423285773691 -0.08094238807925036 0.0 0.021581404364353518 0.0 0.0
0.07646094434891834 -0.07255296458842109 0.0 0.025124133225475687 0.0 0.0
0.06707760629503073 -0.06337987404270962 0.0 0.025464050727262655 0.0 0.0
0.057679315137316445 -0.0541801760889018 0.0 0.024124803829847608 0.0 0.0
0.048695329197962545 -0.04539455363116218 0.0 0.021943606336863097 0.0 0.0
0.040389377708914015 -0.03728718592198943 0.0 0.019430870832750635 0.0 0.0
0.03287566465686412 -0.02997064513384995 0.0 0.016885016137097364 0.0 0.0
0.026133665591009658 -0.02342838139671466 0.0 0.014393982182008047 0.0 0.0
0.02008772740173212 -0.017588555016385232 0.0 0.011902897441682603 0.0 0.0
0.014706650600801674 -0.012425014323442563 0.0 0.009335099945207925 0.0 0.0
0.010061048644761927 -0.008021943116886199 0.0 0.006784799440207379 0.0 0.0
0.006323787795913083 -0.004580323905252426 0.0 0.00454037470206331 0.0 0.0
0.003688731536077794 -0.0022967644638471896 0.0 0.002939594975503168 0.0 0.0
0.0021393502852860846 -0.001105292356133214 0.0 0.00206028702440908 0.0 0.0
0.0013946257517113148 -0.0006156372615864214 0.0 0.0017026574674940398 0.0 0.0
0.0009578530437883148 -0.0003638419795104486 0.0 0.0015591973965482508 0.0 0.0
0.0005292301975162728 -0.0001563709911028277 0.0 0.001590885368417061 0.0 0.0
0.00021927497121385087 -0.00024876409572854863 0.0 0.0019528691299181 0.0 0.0
0.0024895578272048913 -0.003880441360182665 0.0 0.00429253810688307 0.0 0.0
0.001803161039049317 -0.0030412329418281203 0.0 -0.003447205499563677 0.0 0.0
0.0001510266139937294 -0.00022224397714792898 0.0 -0.0021919074551909334 0.0 0.0
0.00035656212902085427 -0.0001043221565150132 0.0 -0.0018805104001924922 0.0 0.0
0.000704570798331472 -0.00025076132393275774 0.0 -0.0018271761149419863 0.0 0.0
0.001078844531124265 -0.00046176195246205864 0.0 -0.0019632760911803826 0.0 0.0
0.0016085254052068676 -0.0007788813259852478 0.0 -0.0022549946331583692 0.0 0.0
0.002700729460493684 -0.0015393326180730416 0.0 -0.0029884058036703243 0.0 0.0
0.004665089417424259 -0.003133995119893873 0.0 -0.0044038809762279585 0.0 0.0
0.0075591219427970785 -0.005711114794428651 0.0 -0.006465349228903461 0.0 0.0
0.011228479474520367 -0.00913090265977079 0.0 -0.008929703612514939 0.0 0.0
0.015462736337431851 -0.013164178512620417 0.0 -0.011469006808748183 0.0 0.0
0.020181823416792935 -0.017698243689730386 0.0 -0.013911202985832316 0.0 0.0
0.025413037453896878 -0.022756538100813017 0.0 -0.016331829726203173 0.0 0.0
0.031247539211690906 -0.028425074878158263 0.0 -0.018803486553635562 0.0 0.0
0.037748932663576554 -0.034762808994219796 0.0 -0.021246618857840016 0.0 0.0
0.04488320500398037 -0.04172814410884973 0.0 -0.023383227455255062 0.0 0.0
0.052489444610356706 -0.049177177385687276 0.0 -0.024808869858296057 0.0 0.0
0.06038728999287728 -0.05692097860792478 0.0 -0.0248508903239244 0.0 0.0
0.06821640953920148 -0.06456461195650842 0.0 -0.02197707877711752 0.0 0.0
0.07504540529724596 -0.07118225594925542 0.0 -0.013940196305554986 0.0 0.0
0.07504540529723902 -0.07118225594925409 0.0 0.013940196305596175 0.0 0.0
0.0682164095391849 -0.0645646119564951 0.0 0.02197707877717714 0.0 0.0
0.06038728999285545 -0.05692097860790479 0.0 0.02485089032397092 0.0 0.0
0.052489444610328895 -0.04917717738566019 0.0 0.024808869858315874 0.0 0.0
0.04488320500394924 -0.04172814410881864 0.0 0.023383227455246125 0.0 0.0
0.037748932663544066 -0.034762808994190486 0.0 0.021246618857830857 0.0 0.0
0.03124753921166104 -0.028425074878128065 0.0 0.018803486553626292 0.0 0.0
0.02541303745386858 -0.02275653810078504 0.0 0.016331829726194957 0.0 0.0
0.020181823416765055 -0.01769824368970152 0.0 0.013911202985818605 0.0 0.0
0.01546273633740633 -0.01316417851259688 0.0 0.01146900680872831 0.0 0.0
0.011228479474498843 -0.009130902659747697 0.0 0.008929703612491402 0.0 0.0
0.007559121942780078 -0.00571111479441444 0.0 0.006465349228889361 0.0 0.0
0.004665089417412838 -0.003133995119882993 0.0 0.004403880976218633 0.0 0.0
0.002700729460487633 -0.0015393326180661582 0.0 0.0029884058036647176 0.0 0.0
0.0016085254052046472 -0.0007788813259836935 0.0 0.00225499463315576 0.0 0.0
0.0010788445311234462 -0.0004617619524623917 0.0 0.001963276091178384 0.0 0.0
0.0007045707983311666 -0.00025076132393231365 0.0 0.0018271761149394328 0.0 0.0
0.0003565621290209098 -0.00010432215651323684 0.0 0.0018805104001906603 0.0 0.0
0.00015102661399352124 -0.00022224397714665223 0.0 0.002191907455188713 0.0 0.0
0.0018031610390444042 -0.003041232941821676 0.0 0.003447205499555739 0.0 0.0
0.001273129740925416 -0.0023513786690073646 0.0 -0.002787276712380271 0.0 0.0
8.774576783554533e-05 -0.000199806371873279 0.0 -0.002331502357692805 0.0 0.0
0.00019746435114396943 -5.376078933705397e-05 0.0 -0.0021028770534141095 0.0 0.0
0.0004572106445890345 -0.00014001363926730015 0.0 -0.0020509310136680448 0.0 0.0
0.0007584987692700607 -0.0003129531011027975 0.0 -0.00219628287831114 0.0 0.0
0.0011331791376625877 -0.0005244118639886608 0.0 -0.002465088305521279 0.0 0.0
0.001825032478195307 -0.0009462141805298696 0.0 -0.0030081353788898313 0.0 0.0
0.0031429902571361856 -0.001898367041716309 0.0 -0.004101138988258868 0.0 0.0
0.0051777569683272295 -0.003593555904553014 0.0 -0.0057955813439513615 0.0 0.0
0.007826257861409211 -0.0059762783925174645 0.0 -0.00791475598603264 0.0 0.0
0.010897606742848509 -0.008848648117878888 0.0 -0.010203663625479031 0.0 0.0
0.014292020793088542 -0.012076673026205853 0.0 -0.012451170089559538 0.0 0.0
0.01802633842651602 -0.015661551615146596 0.0 -0.014673244711344346 0.0 0.0
0.022188748100744046 -0.019688568777753268 0.0 -0.01690951067715002 0.0 0.0
0.026876963835946954 -0.024247436480123508 0.0 -0.019131300325460843 0.0 0.0
0.032133627760202885 -0.029370277647862153 0.0 -0.021114058468982788 0.0 0.0
0.03790122741064639 -0.035006099067881546 0.0 -0.022455605850061566 0.0 0.0
0.04416009003761842 -0.041170390341260354 0.0 -0.022814732406957305 0.0 0.0
0.05101024843528537 -0.047905000962798816 0.0 -0.021091476618575133 0.0 0.0
0.05799124553939364 -0.054663148817614804 0.0 -0.014549891580978969 0.0 0.0
0.057991245539389114 -0.05466314881761214 0.0 0.014549891581015273 0.0 0.0
0.05101024843527355 -0.04790500096278372 0.0 0.021091476618631644 0.0 0.0
0.04416009003760185 -0.041170390341240815 0.0 0.022814732406996274 0.0 0.0
0.03790122741062543 -0.03500609906786467 0.0 0.022455605850075888 0.0 0.0
0.032133627760179834 -0.029370277647839504 0.0 0.021114058468969965 0.0 0.0
0.02687696383592325 -0.024247436480101303 0.0 0.019131300325448075 0.0 0.0
0.022188748100723632 -0.019688568777733728 0.0 0.016909510677142192 0.0 0.0
0.01802633842649723 -0.01566155161512972 0.0 0.014673244711337574 0.0 0.0
0.014292020793068821 -0.012076673026189422 0.0 0.012451170089548547 0.0 0.0
0.010897606742830024 -0.0088486481178629 0.0 0.010203663625463433 0.0 0.0
0.007826257861394403 -0.005976278392504808 0.0 0.0079147559860121 0.0 0.0
0.005177756968315905 -0.0035935559045439103 0.0 0.005795581343940592 0.0 0.0
0.003142990257128553 -0.0018983670417120901 0.0 0.004101138988251374 0.0 0.0
0.001825032478191685 -0.0009462141805296476 0.0 0.00300813537888589 0.0 0.0
0.0011331791376613665 -0.0005244118639888828 0.0 0.0024650883055176154 0.0 0.0
0.0007584987692697831 -0.0003129531011047959 0.0 0.0021962828783095856 0.0 0.0
0.0004572106445887014 -0.00014001363926741117 0.0 0.0020509310136666015 0.0 0.0
0.00019746435114384453 -5.376078933710948e-05 0.0 0.0021028770534111674 0.0 0.0
8.774576783543431e-05 -0.00019980637187366757 0.0 0.002331502357690751 0.0 0.0
0.0012731297409220022 -0.002351378669003132 0.0 0.0027872767123744424 0.0 0.0
0.000885771723246026 -0.0018169288849214094 0.0 -0.00231691755675284 0.0 0.0
1.5988544697725926e-05 -0.000179715039073991 0.0 -0.0024049341632784715 0.0 0.0
4.554976379948783e-05 1.1242354287510636e-06 0.0 -0.0022607313754585134 0.0 0.0
0.00021723683080854261 -3.3352791973917384e-05 0.0 -0.002223165985563713 0.0 0.0
0.00042995527141274914 -0.00015833587829616746 0.0 -0.0023705747145939815 0.0 0.0
0.0006755861170680555 -0.00030329907375259424 0.0 -0.0026667924082151018 0.0 0.0
0.0010594165374201298 -0.000509010718235281 0.0 -0.0030773370981314607 0.0 0.0
0.0017800994628529715 -0.0009346375391554584 0.0 -0.0037558908361445265 0.0 0.0
0.002967484521367053 -0.0017795280312338235 0.0 -0.004877867530987401 0.0 0.0
0.004561410745784672 -0.003089490786921889 0.0 -0.00639734372455808 0.0 0.0
0.006435875337232902 -0.004752120725685316 0.0 -0.008170928676374534 0.0 0.0
0.008488628779153351 -0.006648629338029899 0.0 -0.01001801174805328 0.0 0.0
0.010734526716104698 -0.00876154184045097 0.0 -0.011912909813244887 0.0 0.0
0.013239924433740016 -0.011156965589496526 0.0 -0.013809942255309071 0.0 0.0
0.016105339399055688 -0.013927691575366996 0.0 -0.015694082726274372 0.0 0.0
0.019447764344484336 -0.017176279318304566 0.0 -0.017450555364606712 0.0 0.0
0.023346550910216674 -0.020966068660326354 0.0 -0.01872379780864697 0.0 0.0
0.027868261517261295 -0.025402468636320563 0.0 -0.01915313115871009 0.0 0.0
0.03336247805009393 -0.03090095391337444 0.0 -0.0185669486071649 0.0 0.0
0.0402994046148748 -0.03763799808573598 0.0 -0.014649461319110046 0.0 0.0
0.040299404614872414 -0.03763799808573198 0.0 0.01464946131913969 0.0 0.0
0.03336247805008716 -0.030900953913366003 0.0 0.018566948607212308 0.0 0.0
0.027868261517249693 -0.02540246863631168 0.0 0.019153131158743952 0.0 0.0
0.023346550910202934 -0.020966068660315695 0.0 0.01872379780865341 0.0 0.0
0.019447764344470098 -0.017176279318293908 0.0 0.017450555364593168 0.0 0.0
0.016105339399042018 -0.013927691575356338 0.0 0.015694082726262937 0.0 0.0
0.013239924433729205 -0.011156965589484535 0.0 0.013809942255305407 0.0 0.0
0.01073452671609515 -0.008761541840438092 0.0 0.011912909813240335 0.0 0.0
0.008488628779141943 -0.006648629338016576 0.0 0.010018011748042177 0.0 0.0
0.006435875337222369 -0.00475212072567599 0.0 0.008170928676361267 0.0 0.0
0.004561410745776345 -0.003089490786912563 0.0 0.006397343724542703 0.0 0.0
0.002967484521361363 -0.0017795280312293826 0.0 0.004877867530979962 0.0 0.0
0.0017800994628486555 -0.0009346375391523498 0.0 0.003755890836140363 0.0 0.0
0.0010594165374183673 -0.0005090107182328385 0.0 0.003077337098128574 0.0 0.0
0.0006755861170674449 -0.0003032990737519281 0.0 0.0026667924082117156 0.0 0.0
0.0004299552714128463 -0.0001583358782953903 0.0 0.0023705747145914557 0.0 0.0
0.00021723683080812628 -3.335279197269614e-05 0.0 0.002223165985561937 0.0 0.0
4.554976379925191e-05 1.124235429583731e-06 0.0 0.0022607313754553493 0.0 0.0
1.5988544697781437e-05 -0.00017971503907360242 0.0 0.002404934163275363 0.0 0.0
0.0008857717232438334 -0.0018169288849185124 0.0 0.002316917556749065 0.0 0.0
0.0006133744847917344 -0.0014160109539514687 0.0 -0.001997735572195125 0.0 0.0
-6.0537975793611976e-05 -0.00016307569154150325 0.0 -0.002443885606148666 0.0 0.0
-0.00010194800529897408 6.06162815024458e-05 0.0 -0.0023608596888345934 0.0 0.0
-1.565240300094306e-05 6.959306427445355e-05 0.0 -0.0023381301423214818 0.0 0.0
9.920229135060299e-05 -1.4222520583473397e-06 0.0 -0.0024756822370115006 0.0 0.0
0.00021061776292355394 -8.16554488858312e-05 0.0 -0.002793050656082874 0.0 0.0
0.0003470708131285416 -0.0001614700377334799 0.0 -0.003225149929808546 0.0 0.0
0.000570140606309194 -0.00027427938401647367 0.0 -0.0036715071039327696 0.0 0.0
0.0009555928217149512 -0.0004720216821023637 0.0 -0.004199160611728259 0.0 0.0
0.0014859599150884029 -0.0007908895872184019 0.0 -0.004963466172415887 0.0 0.0
0.0021183474785813616 -0.0012215223569782552 0.0 -0.00604842205378997 0.0 0.0
0.002799774055995824 -0.0017404233955815585 0.0 -0.007358437797148176 0.0 0.0
0.0035404135024014183 -0.0023550224525066277 0.0 -0.00885543650851428 0.0 0.0
0.004378000139700133 -0.003100847904774273 0.0 -0.010514040621672494 0.0 0.0
0.0054052957936887025 -0.004056662108431475 0.0 -0.01231429076719015 0.0 0.0
0.006797641651301339 -0.005377962812141757 0.0 -0.014126677249201247 0.0 0.0
0.008800769891423338 -0.007284960102197147 0.0 -0.015576035268062727 0.0 0.0
0.011628604684657928 -0.0099745754946019 0.0 -0.016055614998838674 0.0 0.0
0.0155145207963448 -0.013835961257342433 0.0 -0.015526263162385479 0.0 0.0
0.021637000132403356 -0.02001247503730541 0.0 -0.014269782362397954 0.0 0.0
0.021637000132403578 -0.020012475037299193 0.0 0.014269782362425265 0.0 0.0
0.015514520796341996 -0.013835961257332663 0.0 0.015526263162426446 0.0 0.0
0.011628604684651933 -0.009974575494593907 0.0 0.016055614998861545 0.0 0.0
0.008800769891417842 -0.0072849601021918176 0.0 0.01557603526806317 0.0 0.0
0.006797641651297676 -0.005377962812136872 0.0 0.014126677249189923 0.0 0.0
0.005405295793685205 -0.004056662108427034 0.0 0.01231429076718149 0.0 0.0
0.004378000139698357 -0.0031008479047720527 0.0 0.010514040621666165 0.0 0.0
0.003540413502400752 -0.0023550224525106245 0.0 0.008855436508508396 0.0 0.0
0.002799774055993437 -0.001740423395584223 0.0 0.007358437797141182 0.0 0.0
0.0021183474785794465 -0.001221522356977367 0.0 0.0060484220537802 0.0 0.0
0.0014859599150866265 -0.00079088958721929 0.0 0.004963466172406006 0.0 0.0
0.0009555928217141463 -0.0004720216821023637 0.0 0.00419916061172626 0.0 0.0
0.0005701406063082226 -0.0002742793840140312 0.0 0.0036715071039313263 0.0 0.0
0.000347070813128042 -0.00016147003773059332 0.0 0.0032251499298055486 0.0 0.0
0.00021061776292366496 -8.165544888316667e-05 0.0 0.002793050656080265 0.0 0.0
9.920229135074177e-05 -1.4222520577922282e-06 0.0 0.002475682237008614 0.0 0.0
-1.5652403000804282e-05 6.959306427389844e-05 0.0 0.002338130142320871 0.0 0.0
-0.00010194800529930714 6.061628150283438e-05 0.0 0.0023608596888350375 0.0 0.0
-6.0537975793556464e-05 -0.0001630756915416698 0.0 0.0024438856061481107 0.0 0.0
0.0006133744847906519 -0.001416010953950041 0.0 0.00199773557219296 0.0 0.0
0.00042371304179575353 -0.001124520914258187 0.0 -0.0017919198691841443 0.0 0.0
-0.00013276293487413104 -0.00014071761171285946 0.0 -0.0024444544422186354 0.0 0.0
-0.0002444852194163072 0.00011948793195326601 0.0 -0.0024101505220840425 0.0 0.0
-0.00024171807305389814 0.0001693987112334483 0.0 -0.002392261685694619 0.0 0.0
-0.00022812524247325938 0.00015356273246092123 0.0 -0.002510920600085065 0.0 0.0
-0.00025898673602695044 0.00014310482683654868 0.0 -0.002807994311878226 0.0 0.0
-0.0003616131379023113 0.00017719444536523632 0.0 -0.0032302641913033447 0.0 0.0
-0.0005732598277577439 0.0002772053037196631 0.0 -0.0036751053059103644 0.0 0.0
-0.0009546225953638854 0.00047192939556417457 0.0 -0.004200579106326097 0.0 0.0
-0.0014842259060308394 0.0007900858879832384 0.0 -0.004961826974794914 0.0 0.0
-0.0021212170838363076 0.0012271216032098131 0.0 -0.0060472912822608915 0.0 0.0
-0.0028261947846117963 0.001767401765370824 0.0 -0.007362977750993371 0.0 0.0
-0.0036067946052637523 0.0024131696096132416 0.0 -0.008862289810801172 0.0 0.0
-0.004453383214149315 0.003146139788281044 0.0 -0.010520400544707043 0.0 0.0
-0.005275229394097608 0.003870002432348585 0.0 -0.012334537926386613 0.0 0.0
-0.005858734955286243 0.004377377585232267 0.0 -0.014264048768304227 0.0 0.0
-0.005838770848405561 0.0043340407938887715 0.0 -0.016277076208816132 0.0 0.0
-0.004838147384876257 0.0034855723919919868 0.0 -0.018404343544341728 0.0 0.0
-0.0025592698663990943 0.0017138551478277364 0.0 -0.020297580143900262 0.0 0.0
0.0030278445415787836 -0.003504495672437713 0.0 -0.018731588484299566 0.0 0.0
0.003027844541578867 -0.003504495672438157 0.0 0.018731588484317663 0.0 0.0
-0.0025592698663997604 0.0017138551478272923 0.0 0.020297580143916694 0.0 0.0
-0.004838147384874453 0.0034855723919893222 0.0 0.018404343544344837 0.0 0.0
-0.005838770848400315 0.004334040793886107 0.0 0.01627707620880725 0.0 0.0
-0.00585873495527886 0.004377377585225162 0.0 0.014264048768289905 0.0 0.0
-0.005275229394091391 0.0038700024323410354 0.0 0.012334537926375844 0.0 0.0
-0.004453383214142542 0.003146139788272162 0.0 0.01052040054469805 0.0 0.0
-0.0036067946052554256 0.002413169609611021 0.0 0.008862289810795287 0.0 0.0
-0.0028261947846043856 0.0017674017653677154 0.0 0.007362977750984934 0.0 0.0
-0.002121217083829674 0.0012271216032018195 0.0 0.006047291282248679 0.0 0.0
-0.0014842259060253715 0.0007900858879785755 0.0 0.004961826974784367 0.0 0.0
-0.0009546225953606102 0.0004719293955628423 0.0 0.004200579106323765 0.0 0.0
-0.0005732598277557732 0.00027720530371988517 0.0 0.003675105305906534 0.0 0.0
-0.00036161313790103455 0.00017719444536545836 0.0 0.0032302641912986263 0.0 0.0
-0.0002589867360262288 0.00014310482683699277 0.0 0.002807994311876616 0.0 0.0
-0.0002281252424728153 0.00015356273245858976 0.0 0.002510920600083094 0.0 0.0
-0.00024171807305328752 0.00016939871123189398 0.0 0.0023922616856936196 0.0 0.0
-0.0002444852194166125 0.00011948793195176721 0.0 0.00241015052208271 0.0 0.0
-0.00013276293487407553 -0.00014071761171344233 0.0 0.0024444544422172476 0.0 0.0
0.00042371304179517066 -0.0011245209142571634 0.0 0.0017919198691819793 0.0 0.0
0.00029255469553479685 -0.0008941162608862852 0.0 -0.0016194939946123088 0.0 0.0
-0.00019779168353817322 -0.00011021758994439468 0.0 -0.0023950697072676608 0.0 0.0
-0.0003800373709187954 0.00017514262758944188 0.0 -0.002406840105653729 0.0 0.0
-0.00045996891003369234 0.00026487017910303834 0.0 -0.0023811239148282537 0.0 0.0
-0.0005489047751618681 0.00030365209602489784 0.0 -0.0024706195466960013 0.0 0.0
-0.0007210712433501909 0.0003631587709576056 0.0 -0.002716755364750245 0.0 0.0
-0.0010735394323144742 0.0005250405642787115 0.0 -0.0030987324817883244 0.0 0.0
-0.001782287567083124 0.0009377096320073441 0.0 -0.003766171065019308 0.0 0.0
-0.0029652516441582566 0.0017783378777413983 0.0 -0.004879272332868778 0.0 0.0
-0.004559577073755983 0.0030890312697686717 0.0 -0.006395658709580143 0.0 0.0
-0.006440791060510431 0.0047601493960280905 0.0 -0.00816994415286254 0.0 0.0
-0.008514459158171145 0.006678572781309455 0.0 -0.010009167695581134 0.0 0.0
-0.010796062623665642 0.008822238217291556 0.0 -0.011878470322036816 0.0 0.0
-0.013306165120787722 0.011200837589797175 0.0 -0.01376649809645425 0.0 0.0
-0.01597205857391118 0.013730905825886985 0.0 -0.015761152353331198 0.0 0.0
-0.018549308324042335 0.01617113065993525 0.0 -0.017954024141143332 0.0 0.0
-0.020605956848534918 0.018110279165848286 0.0 -0.020419317161595174 0.0 0.0
-0.021597555401967755 0.01902741204448244 0.0 -0.023065259049775633 0.0 0.0
-0.02055302906196521 0.017709375444853848 0.0 -0.024214607192149407 0.0 0.0
-0.014723341045987853 0.011646585162485401 0.0 -0.02186620566614994 0.0 0.0
-0.014723341045988547 0.01164658516248318 0.0 0.021866205666181138 0.0 0.0
-0.02055302906196338 0.017709375444850295 0.0 0.024214607192188264 0.0 0.0
-0.021597555401958207 0.019027412044471337 0.0 0.023065259049798836 0.0 0.0
-0.02060595684851929 0.01811027916582919 0.0 0.020419317161594286 0.0 0.0
-0.01854930832402428 0.016171130659911714 0.0 0.017954024141130898 0.0 0.0
-0.01597205857389508 0.013730905825870998 0.0 0.01576115235332115 0.0 0.0
-0.013306165120772165 0.011200837589783852 0.0 0.013766498096443536 0.0 0.0
-0.010796062623648892 0.008822238217273792 0.0 0.011878470322029433 0.0 0.0
-0.008514459158154256 0.006678572781293468 0.0 0.010009167695564869 0.0 0.0
-0.006440791060495055 0.004760149396015212 0.0 0.008169944152843944 0.0 0.0
-0.00455957707374309 0.0030890312697564593 0.0 0.006395658709563157 0.0 0.0
-0.0029652516441502352 0.0017783378777382897 0.0 0.004879272332861784 0.0 0.0
-0.001782287567077795 0.000937709632006678 0.0 0.003766171065015922 0.0 0.0
-0.0010735394323115044 0.0005250405642798217 0.0 0.003098732481784383 0.0 0.0
-0.0007210712433486782 0.00036315877095782767 0.0 0.0027167553647460263 0.0 0.0
-0.0005489047751609105 0.0003036520960262301 0.0 0.0024706195466923653 0.0 0.0
-0.0004599689100328874 0.00026487017910314936 0.0 0.002381123914828198 0.0 0.0
-0.00038003737091890644 0.00017514262758983046 0.0 0.002406840105652841 0.0 0.0
-0.00019779168353764587 -0.00011021758994508857 0.0 0.002395069707266939 0.0 0.0
0.000292554695534436 -0.0008941162608855063 0.0 0.0016194939946109765 0.0 0.0
0.00019464937785715342 -0.0006905996628508715 0.0 -0.0014353258374600886 0.0 0.0
-0.00025654547012946005 -7.32729440587887e-05 0.0 -0.002292505685055457 0.0 0.0
-0.0005072488579739576 0.00022725646971522018 0.0 -0.002346350014336085 0.0 0.0
-0.0006693308777293017 0.0003547644569441566 0.0 -0.0023065776682693606 0.0 0.0
-0.0008592398617187635 0.0004445090007569874 0.0 -0.0023522190634119866 0.0 0.0
-0.0011743505486919437 0.0005820740252726608 0.0 -0.0025443164228715065 0.0 0.0
-0.0018373667196366905 0.0009635638309566374 0.0 -0.003043641590369628 0.0 0.0
-0.003141857621065808 0.001899525894616172 0.0 -0.004113091799234581 0.0 0.0
-0.005174212454824273 0.0035907341130458903 0.0 -0.005792756605710325 0.0 0.0
-0.007825917625381346 0.005976836630884996 0.0 -0.0079129801091804 0.0 0.0
-0.010903986796503784 0.008857352124210571 0.0 -0.010201662520918364 0.0 0.0
-0.014312280693767387 0.012100807857870599 0.0 -0.012425092342356225 0.0 0.0
-0.018070187922041153 0.01570634384006997 0.0 -0.014577521494921308 0.0 0.0
-0.0222323421178853 0.019715927670087563 0.0 -0.016752902872022024 0.0 0.0
-0.026753981345367356 0.024071989763590373 0.0 -0.019156656706631026 0.0 0.0
-0.03136918255313775 0.0285119064053303 0.0 -0.022066163568710717 0.0 0.0
-0.0355469103079708 0.03251993188601077 0.0 -0.025665235015961296 0.0 0.0
-0.03838515473639251 0.03513987370546312 0.0 -0.02928587836147667 0.0 0.0
-0.0381426879769127 0.03462065856981322 0.0 -0.031123124392935964 0.0 0.0
-0.03149084603522187 0.02731784512376878 0.0 -0.027488298745480866 0.0 0.0
-0.03149084603522115 0.027317845123767892 0.0 0.02748829874551806 0.0 0.0
-0.03814268797690695 0.034620658569807006 0.0 0.031123124392983148 0.0 0.0
-0.03838515473637716 0.035139873705450686 0.0 0.02928587836150892 0.0 0.0
-0.035546910307946974 0.03251993188598812 0.0 0.02566523501596535 0.0 0.0
-0.03136918255311047 0.028511906405309873 0.0 0.02206616356869817 0.0 0.0
-0.026753981345341446 0.024071989763565504 0.0 0.019156656706617703 0.0 0.0
-0.02223234211786096 0.01971592767006225 0.0 0.01675290287200737 0.0 0.0
-0.018070187922015687 0.01570634384004377 0.0 0.01457752149491126 0.0 0.0
-0.014312280693741908 0.012100807857846618 0.0 0.01242509234233985 0.0 0.0
-0.010903986796479956 0.008857352124188811 0.0 0.010201662520897936 0.0 0.0
-0.007825917625361459 0.00597683663086257 0.0 0.007912980109159917 0.0 0.0
-0.005174212454810603 0.0035907341130316794 0.0 0.005792756605699556 0.0 0.0
-0.00314185762105669 0.0018995258946088445 0.0 0.004113091799227642 0.0 0.0
-0.001837366719631764 0.0009635638309555272 0.0 0.003043641590364854 0.0 0.0
-0.0011743505486899175 0.0005820740252731049 0.0 0.002544316422869286 0.0 0.0
-0.0008592398617175284 0.00044450900075676536 0.0 0.0023522190634093776 0.0 0.0
-0.0006693308777283719 0.00035476445694448966 0.0 0.0023065776682675287 0.0 0.0
-0.0005072488579736106 0.00022725646971472058 0.0 0.0023463500143353633 0.0 0.0
-0.00025654547012909923 -7.327294405840012e-05 0.0 0.002292505685055346 0.0 0.0
0.00019464937785698688 -0.0006905996628502088 0.0 0.0014353258374579791 0.0 0.0
0.00011249444387320673 -0.0005084489703709449 0.0 -0.0012451805726845788 0.0 0.0
-0.00031136068032786013 -2.992676161428509e-05 0.0 -0.0021355079419766443 0.0 0.0
-0.0006263830145815941 0.0002762097899990934 0.0 -0.00223183689616413 0.0 0.0
-0.0008694111120942649 0.00043759923637187725 0.0 -0.002175667923150104 0.0 0.0
-0.0011543609886588146 0.0005756856387486575 0.0 -0.002165641201657492 0.0 0.0
-0.001644590763554804 0.0008344463684055725 0.0 -0.0023610443892236876 0.0 0.0
-0.002707199251543002 0.0015543376434521416 0.0 -0.0030297677462580164 0.0 0.0
-0.004660054638220029 0.0031307053022009423 0.0 -0.004406801493420598 0.0 0.0
-0.007555933310637725 0.005707925355059595 0.0 -0.0064595584912224835 0.0 0.0
-0.011230537403666141 0.009133497944918467 0.0 -0.008928942687956076 0.0 0.0
-0.015469522225692783 0.013172336619116098 0.0 -0.011466233885478072 0.0 0.0
-0.02019131636079577 0.017710106347510912 0.0 -0.01387111345341907 0.0 0.0
-0.025423450990343516 0.02276889233610424 0.0 -0.016182778256604524 0.0 0.0
-0.031246801898450166 0.028417353427575787 0.0 -0.01853135748954604 0.0 0.0
-0.03764933547525118 0.03463140902921813 0.0 -0.021189494093875938 0.0 0.0
-0.04436447671672905 0.04113362886344207 0.0 -0.024589637791753716 0.0 0.0
-0.050676553802992436 0.047199590655922385 0.0 -0.028909783127161637 0.0 0.0
-0.055181054013429154 0.05141230216747816 0.0 -0.03335813080116656 0.0 0.0
-0.05544849743059896 0.05126565983485687 0.0 -0.03560904430407197 0.0 0.0
-0.04715281741209659 0.042321136690562255 0.0 -0.032276804827263916 0.0 0.0
-0.047152817412093845 0.04232113669055826 0.0 0.03227680482730477 0.0 0.0
-0.0554484974305888 0.051265659834848876 0.0 0.03560904430412176 0.0 0.0
-0.05518105401340816 0.051412302167460844 0.0 0.03335813080120503 0.0 0.0
-0.0506765538029612 0.047199590655893964 0.0 0.028909783127169575 0.0 0.0
-0.04436447671669404 0.0411336288634061 0.0 0.02458963779174622 0.0 0.0
-0.03764933547521597 0.03463140902918216 0.0 0.021189494093862005 0.0 0.0
-0.031246801898416943 0.028417353427546033 0.0 0.018531357489530276 0.0 0.0
-0.025423450990309265 0.022768892336073154 0.0 0.016182778256592867 0.0 0.0
-0.020191316360761616 0.017710106347480714 0.0 0.01387111345340114 0.0 0.0
-0.01546952222566135 0.013172336619085456 0.0 0.011466233885454147 0.0 0.0
-0.011230537403639496 0.009133497944894042 0.0 0.008928942687933261 0.0 0.0
-0.007555933310618351 0.005707925355041166 0.0 0.006459558491207995 0.0 0.0
-0.004660054638206693 0.0031307053021867315 0.0 0.004406801493410772 0.0 0.0
-0.0027071992515354387 0.0015543376434461464 0.0 0.0030297677462515216 0.0 0.0
-0.001644590763551751 0.0008344463684046843 0.0 0.002361044389218747 0.0 0.0
-0.0011543609886574685 0.0005756856387481024 0.0 0.002165641201655494 0.0 0.0
-0.0008694111120930853 0.00043759923637176623 0.0 0.0021756679231491605 0.0 0.0
-0.0006263830145810945 0.00027620978999992607 0.0 0.0022318368961632973 0.0 0.0
-0.00031136068032754094 -2.992676161422958e-05 0.0 0.0021355079419745904 0.0 0.0
0.00011249444387302632 -0.000508448970370428 0.0 0.0012451805726828025 0.0 0.0
4.076321585161358e-05 -0.0003475532133849213 0.0 -0.001050594555178308 0.0 0.0
-0.0003646974179082052 1.860480566484579e-05 0.0 -0.0019283131271677911 0.0 0.0
-0.0007384214174705472 0.0003228899529789109 0.0 -0.0020605734851447677 0.0 0.0
-0.0010581913407692045 0.0005112065752272965 0.0 -0.001979126207921622 0.0 0.0
-0.0014401331308558363 0.0007056143435051343 0.0 -0.0019298331312005979 0.0 0.0
-0.002165919911629427 0.0011513934169935514 0.0 -0.00216609368454862 0.0 0.0
-0.0036879346244018674 0.0023045404150319193 0.0 -0.002967794099565768 0.0 0.0
-0.00631722849539329 0.004574078706739204 0.0 -0.004536400801694873 0.0 0.0
-0.010059811040353195 0.008020253413677292 0.0 -0.006777565854923617 0.0 0.0
-0.014711063266977908 0.012429622021308262 0.0 -0.009334377484513323 0.0 0.0
-0.020093502773426253 0.01759462690137603 0.0 -0.011896983065981526 0.0 0.0
-0.02612842954086647 0.023423547271277823 0.0 -0.014343805598679538 0.0 0.0
-0.03284152161143475 0.02993903247975993 0.0 -0.016707803427778112 0.0 0.0
-0.040325841441969074 0.03722830122653731 0.0 -0.019091410256671826 0.0 0.0
-0.04861602818948521 0.04530722646203733 0.0 -0.021781330348539574 0.0 0.0
-0.057433533615380006 0.05387043580672479 0.0 -0.02524263283956818 0.0 0.0
-0.06583835301735433 0.06196088118533538 0.0 -0.02973828055576644 0.0 0.0
-0.0719017769292736 0.06763514008324778 0.0 -0.03459163155846823 0.0 0.0
-0.07238876678340919 0.06763349285763587 0.0 -0.03764466420880608 0.0 0.0
-0.062381253188910996 0.057037044704928874 0.0 -0.036578423505664204 0.0 0.0
-0.06238125318890653 0.05703704470492044 0.0 0.03657842350570861 0.0 0.0
-0.0723887667833942 0.06763349285761677 0.0 0.03764466420885604 0.0 0.0
-0.07190177692924682 0.0676351400832167 0.0 0.034591631558508085 0.0 0.0
-0.06583835301731622 0.061960881185297634 0.0 0.029738280555775043 0.0 0.0
-0.057433533615337595 0.05387043580668749 0.0 0.025242632839559687 0.0 0.0
-0.048616028189441315 0.045307226461993366 0.0 0.02178133034852786 0.0 0.0
-0.040325841441926386 0.03722830122649867 0.0 0.019091410256658503 0.0 0.0
-0.032841521611392505 0.02993903247972085 0.0 0.016707803427765455 0.0 0.0
-0.02612842954082331 0.023423547271236966 0.0 0.01434380559866133 0.0 0.0
-0.02009350277338731 0.017594626901336508 0.0 0.011896983065957656 0.0 0.0
-0.014711063266944824 0.012429622021273179 0.0 0.009334377484490675 0.0 0.0
-0.010059811040328173 0.008020253413653533 0.0 0.006777565854907797 0.0 0.0
-0.00631722849537579 0.004574078706725659 0.0 0.0045364008016840485 0.0 0.0
-0.003687934624391445 0.00230454041502548 0.0 0.002967794099558274 0.0 0.0
-0.00216591991162475 0.0011513934169902207 0.0 0.002166093684544901 0.0 0.0
-0.0014401331308540183 0.0007056143435025808 0.0 0.0019298331311994876 0.0 0.0
-0.001058191340768136 0.0005112065752266304 0.0 0.0019791262079210115 0.0 0.0
-0.0007384214174701031 0.0003228899529780782 0.0 0.0020605734851436575 0.0 0.0
-0.0003646974179077195 1.8604805664457214e-05 0.0 0.0019283131271662368 0.0 0.0
4.076321585133602e-05 -0.00034755321338440087 0.0 0.001050594555176254 0.0 0.0
-2.1127927313957517e-05 -0.00020948283098953802 0.0 -0.0008505824289724573 0.0 0.0
-0.0004168864708690989 7.032244170790403e-05 0.0 -0.0016765135043125823 0.0 0.0
-0.0008441726115644976 0.00036705390552771444 0.0 -0.0018333494032687914 0.0 0.0
-0.0012360062874434419 0.0005784494530260975 0.0 -0.0017334289665706937 0.0 0.0
-0.0017341775979915763 0.0008545087321139011 0.0 -0.0016739861724189842 0.0 0.0
-0.0027524912462582873 0.0015503954581346235 0.0 -0.001941280554210334 0.0 0.0
-0.004776344389993553 0.0032062983713243565 0.0 -0.002814866434726282 0.0 0.0
-0.00808585794464059 0.006179974495033047 0.0 -0.004453465869393547 0.0 0.0
-0.012624486805773383 0.010441109276987603 0.0 -0.006649795659331936 0.0 0.0
-0.018227349386096242 0.015793793885557683 0.0 -0.00908428219983809 0.0 0.0
-0.02474829320695457 0.022076577747395465 0.0 -0.011545325315416077 0.0 0.0
-0.03210260841830931 0.02920089555486438 0.0 -0.013897161869501629 0.0 0.0
-0.04030715870358148 0.03718218492162295 0.0 -0.01618412131876057 0.0 0.0
-0.04945103737937431 0.04610838474537404 0.0 -0.018500287879988808 0.0 0.0
-0.05958563817559351 0.05601127230373759 0.0 -0.02098162447328522 0.0 0.0
-0.07043591507110034 0.06657031078851539 0.0 -0.024021609316673298 0.0 0.0
-0.08087273742679998 0.07662501701809088 0.0 -0.02814204938823328 0.0 0.0
-0.08843186696166208 0.0837082829472795 0.0 -0.03315581646688326 0.0 0.0
-0.089151290879034 0.08389427192769627 0.0 -0.037747718009087494 0.0 0.0
-0.07766907035323559 0.07185959049733315 0.0 -0.04067956072087675 0.0 0.0
-0.07766907035322959 0.07185959049732515 0.0 0.04067956072091927 0.0 0.0
-0.08915129087901424 0.0838942719276754 0.0 0.0377477180091389 0.0 0.0
-0.08843186696162934 0.0837082829472493 0.0 0.033155816466923727 0.0 0.0
-0.08087273742675542 0.0766250170180478 0.0 0.02814204938824444 0.0 0.0
-0.07043591507105064 0.06657031078846698 0.0 0.024021609316667303 0.0 0.0
-0.059585638175540925 0.056011272303690074 0.0 0.020981624473275506 0.0 0.0
-0.049451037379322854 0.04610838474532386 0.0 0.01850028787997743 0.0 0.0
-0.04030715870353081 0.03718218492156966 0.0 0.01618412131874719 0.0 0.0
-0.0321026084182582 0.029200895554808426 0.0 0.013897161869483199 0.0 0.0
-0.024748293206907912 0.02207657774734839 0.0 0.011545325315390154 0.0 0.0
-0.018227349386056663 0.01579379388551816 0.0 0.009084282199815996 0.0 0.0
-0.01262448680574315 0.010441109276958516 0.0 0.006649795659317254 0.0 0.0
-0.00808585794461883 0.006179974495014617 0.0 0.004453465869382722 0.0 0.0
-0.004776344389980078 0.0032062983713101456 0.0 0.0028148664347190655 0.0 0.0
-0.0027524912462515705 0.001550395458127074 0.0 0.0019412805542043943 0.0 0.0
-0.0017341775979892587 0.0008545087321111255 0.0 0.0016739861724181238 0.0 0.0
-0.001236006287442644 0.0005784494530253204 0.0 0.0017334289665699165 0.0 0.0
-0.0008441726115640813 0.000367053905528103 0.0 0.0018333494032664044 0.0 0.0
-0.000416886470868634 7.032244170773749e-05 0.0 0.0016765135043116108 0.0 0.0
-2.1127927314047723e-05 -0.00020948283098958485 0.0 0.0008505824289725683 0.0 0.0
-7.147011656211122e-05 -9.664058653477414e-05 0.0 -0.0006443002959290456 0.0 0.0
-0.000465923838338711 0.00012237085802202508 0.0 -0.0013850429386680352 0.0 0.0
-0.0009442713163890226 0.0004086445065535349 0.0 -0.0015504495405968544 0.0 0.0
-0.0014076728485794 0.0006423580170482612 0.0 -0.0014382359450839655 0.0 0.0
-0.002053978656214789 0.0010305811353192862 0.0 -0.0013784564553707135 0.0 0.0
-0.003413086843475327 0.0020481527631257546 0.0 -0.001672665981454713 0.0 0.0
-0.005967439131793845 0.004249561426066029 0.0 -0.0025695684601200197 0.0 0.0
-0.009910075415661052 0.007884253339637937 0.0 -0.004086596804377285 0.0 0.0
-0.015209245146709266 0.012908596143373696 0.0 -0.006029813441088161 0.0 0.0
-0.021756287215055597 0.0191914938215918 0.0 -0.008216980910676519 0.0 0.0
-0.02941044474446211 0.026586947685991014 0.0 -0.010428121307566762 0.0 0.0
-0.03809085586950628 0.035012053009864985 0.0 -0.012548020280917282 0.0 0.0
-0.04780184023518241 0.04447286385463123 0.0 -0.014638059063614928 0.0 0.0
-0.058600966166066304 0.05502483665700231 0.0 -0.0167444945442351 0.0 0.0
-0.07050347084785247 0.06667319917159631 0.0 -0.0188586618635459 0.0 0.0
-0.08323334637787388 0.07909226147474424 0.0 -0.021118807980053278 0.0 0.0
-0.09559343948899168 0.09101450274308975 0.0 -0.02420873461260653 0.0 0.0
-0.10471436097394787 0.09958457441429935 0.0 -0.02907597241437343 0.0 0.0
-0.10597504770174998 0.10025509411509725 0.0 -0.03596705462204375 0.0 0.0
-0.0934061779848831 0.08713757478760309 0.0 -0.044565449161416804 0.0 0.0
-0.09340617798487574 0.08713757478759332 0.0 0.04456544916145588 0.0 0.0
-0.10597504770172587 0.10025509411507372 0.0 0.035967054622090044 0.0 0.0
-0.10471436097390889 0.09958457441425894 0.0 0.029075972414410567 0.0 0.0
-0.0955934394889402 0.09101450274303868 0.0 0.024208734612614802 0.0 0.0
-0.0832333463778167 0.07909226147468962 0.0 0.021118807980053445 0.0 0.0
-0.07050347084779172 0.06667319917153902 0.0 0.018858661863538795 0.0 0.0
-0.058600966166006185 0.05502483665694147 0.0 0.01674449454422494 0.0 0.0
-0.04780184023512308 0.044472863854571276 0.0 0.014638059063604075 0.0 0.0
-0.038090855869447306 0.03501205300980503 0.0 0.012548020280903543 0.0 0.0
-0.029410444744408487 0.026586947685937723 0.0 0.010428121307545474 0.0 0.0
-0.021756287215009475 0.019191493821548722 0.0 0.008216980910656008 0.0 0.0
-0.015209245146674245 0.012908596143338835 0.0 0.006029813441075921 0.0 0.0
-0.009910075415634663 0.007884253339612624 0.0 0.004086596804366738 0.0 0.0
-0.005967439131777115 0.004249561426049375 0.0 0.002569568460113275 0.0 0.0
-0.0034130868434665562 0.002048152763118427 0.0 0.0016726659814505218 0.0 0.0
-0.00205397865621168 0.0010305811353172878 0.0 0.0013784564553701306 0.0 0.0
-0.0014076728485788587 0.000642358017047151 0.0 0.0014382359450829663 0.0 0.0
-0.0009442713163883495 0.00040864450655331286 0.0 0.0015504495405956886 0.0 0.0
-0.0004659238383380726 0.0001223708580221916 0.0 0.0013850429386675633 0.0 0.0
-7.147011656230551e-05 -9.664058653473771e-05 0.0 0.000644300295928435 0.0 0.0
-0.00010654207699831164 -1.221842607065926e-05 0.0 -0.00043336593809745194 0.0 0.0
-0.0005070172423825292 0.0001710606713566376 0.0 -0.0010565518902268534 0.0 0.0
-0.0010393896876163822 0.00044658274675146714 0.0 -0.0012106555610907899 0.0 0.0
-0.001581100930650725 0.000712472818420351 0.0 -0.0010989169627769746 0.0 0.0
-0.002415045655961262 0.0012556046241980479 0.0 -0.001047795759116843 0.0 0.0
-0.0041602616500239775 0.0026520644405829685 0.0 -0.0013572958845164962 0.0 0.0
-0.0072220425249962805 0.005385661832009836 0.0 -0.002134201109659062 0.0 0.0
-0.011749652967055851 0.009628871837619402 0.0 -0.0033618194882473196 0.0 0.0
-0.017794506948481476 0.015394923230886315 0.0 -0.004950658969654742 0.0 0.0
-0.025272374566119804 0.022593485618808806 0.0 -0.00674640927274045 0.0 0.0
-0.0340569149469927 0.031097492979247576 0.0 -0.008567509156481412 0.0 0.0
-0.04406921149739654 0.04082995039413895 0.0 -0.010310547328021946 0.0 0.0
-0.05529962904660346 0.051781016949574266 0.0 -0.012040126417338093 0.0 0.0
-0.06775520871361429 0.06395588278320918 0.0 -0.01382846091466905 0.0 0.0
-0.0813474585126468 0.0772617399183817 0.0 -0.015514074132981892 0.0 0.0
-0.09572172198619378 0.09131470104871076 0.0 -0.016803890916576414 0.0 0.0
-0.10977493524879456 0.10493212674246788 0.0 -0.01823322566123531 0.0 0.0
-0.12066310850154116 0.11518588169402966 0.0 -0.022313101474301655 0.0 0.0
-0.12306339168451938 0.11690760461840055 0.0 -0.03187754906440554 0.0 0.0
-0.11002207537458075 0.10326156802160646 0.0 -0.04792484309928435 0.0 0.0
-0.11002207537457186 0.10326156802159758 0.0 0.04792484309931555 0.0 0.0
-0.12306339168449099 0.11690760461837746 0.0 0.03187754906444484 0.0 0.0
-0.12066310850149532 0.11518588169399191 0.0 0.022313101474333297 0.0 0.0
-0.10977493524873587 0.10493212674240882 0.0 0.018233225661241026 0.0 0.0
-0.09572172198612847 0.09131470104864725 0.0 0.016803890916575193 0.0 0.0
-0.0813474585125781 0.07726173991831331 0.0 0.015514074132977895 0.0 0.0
-0.06775520871354579 0.06395588278313813 0.0 0.013828460914663138 0.0 0.0
-0.05529962904653563 0.051781016949506764 0.0 0.012040126417328878 0.0 0.0
-0.04406921149732914 0.040829950394071446 0.0 0.010310547328011732 0.0 0.0
-0.034056914946932776 0.031097492979188512 0.0 0.008567509156464814 0.0 0.0
-0.025272374566067644 0.022593485618757958 0.0 0.006746409272722381 0.0 0.0
-0.017794506948441452 0.01539492323084568 0.0 0.0049506589696454995 0.0 0.0
-0.011749652967025181 0.009628871837590536 0.0 0.0033618194882397145 0.0 0.0
-0.007222042524976276 0.0053856618319925165 0.0 0.0021342011096535107 0.0 0.0
-0.004160261650013139 0.002652064440575197 0.0 0.0013572958845111394 0.0 0.0
-0.0024150456559570363 0.0012556046241961605 0.0 0.0010477957591147058 0.0 0.0
-0.0015811009306501075 0.0007124728184212392 0.0 0.001098916962775781 0.0 0.0
-0.001039389687615383 0.0004465827467521888 0.0 0.0012106555610909564 0.0 0.0
-0.0005070172423822655 0.00017106067135677638 0.0 0.0010565518902254656 0.0 0.0
-0.00010654207699845042 -1.221842607063324e-05 0.0 0.0004333659380968413 0.0 0.0
-0.00011978477231022744 3.9643727985094745e-05 0.0 -0.000224493436081441 0.0 0.0
-0.0005313102435900996 0.00021047592995754316 0.0 -0.0006906090569075984 0.0 0.0
-0.0011310936710436925 0.00048155162085405934 0.0 -0.0008072669341508409 0.0 0.0
-0.0017697157292827503 0.0007967237549554307 0.0 -0.0007169641413913297 0.0 0.0
-0.0028355406942032757 0.0015533040959647693 0.0 -0.0006932218634691512 0.0 0.0
-0.004981605298471636 0.0033537509438645863 0.0 -0.0009392729601561678 0.0 0.0
-0.008499050244917927 0.006574426372317976 0.0 -0.0014854288728273768 0.0 0.0
-0.013589746546241455 0.011389073175591014 0.0 -0.0023195579121372267 0.0 0.0
-0.020356255075921537 0.017873705626620495 0.0 -0.003419034857363168 0.0 0.0
-0.028751244129903097 0.025973131858412657 0.0 -0.004680432924679956 0.0 0.0
-0.038664024969889604 0.035582749572307115 0.0 -0.005959695606403526 0.0 0.0
-0.050014490587413085 0.04662789338128226 0.0 -0.007184894141365805 0.0 0.0
-0.06277340415239485 0.059077873646524726 0.0 -0.008432085453848659 0.0 0.0
-0.07687807120983728 0.07286601784228752 0.0 -0.009712201291724898 0.0 0.0
-0.09210389467798064 0.08776379349056684 0.0 -0.010838386080860962 0.0 0.0
-0.10791874959158201 0.10323527985610603 0.0 -0.011385535890801601 0.0 0.0
-0.12325617349927853 0.11817790418527352 0.0 -0.01118062725743385 0.0 0.0
-0.13585077331781398 0.13020424912776507 0.0 -0.012779865010607572 0.0 0.0
-0.14056706092837434 0.1339680646197441 0.0 -0.02401709295220522 0.0 0.0
-0.12815903848462154 0.1208215866656337 0.0 -0.04999033876160408 0.0 0.0
-0.12815903848461058 0.12082158666562437 0.0 0.04999033876162723 0.0 0.0
-0.14056706092834187 0.13396806461971078 0.0 0.024017092952235974 0.0 0.0
-0.135850773317761 0.13020424912771578 0.0 0.012779865010628833 0.0 0.0
-0.12325617349921225 0.11817790418521179 0.0 0.011180627257435183 0.0 0.0
-0.10791874959150793 0.10323527985603809 0.0 0.011385535890800158 0.0 0.0
-0.09210389467790332 0.08776379349049446 0.0 0.010838386080858381 0.0 0.0
-0.07687807120976085 0.07286601784220936 0.0 0.009712201291720957 0.0 0.0
-0.06277340415231836 0.05907787364645012 0.0 0.008432085453841859 0.0 0.0
-0.0500144905873379 0.04662789338121387 0.0 0.0071848941413599765 0.0 0.0
-0.03866402496982256 0.03558274957224539 0.0 0.005959695606392479 0.0 0.0
-0.028751244129845827 0.025973131858362697 0.0 0.004680432924668854 0.0 0.0
-0.020356255075876725 0.01787370562657653 0.0 0.0034190348573560625 0.0 0.0
-0.013589746546206965 0.01138907317555704 0.0 0.002319557912130621 0.0 0.0
-0.00849905024489505 0.006574426372296882 0.0 0.0014854288728220755 0.0 0.0
-0.004981605298458369 0.003353750943852374 0.0 0.000939272960152171 0.0 0.0
-0.0028355406941978634 0.0015533040959601063 0.0 0.0006932218634678189 0.0 0.0
-0.0017697157292816922 0.0007967237549549866 0.0 0.000716964141391746 0.0 0.0
-0.0011310936710428807 0.0004815516208540038 0.0 0.0008072669341508409 0.0 0.0
-0.000531310243589888 0.00021047592995737663 0.0 0.0006906090569065992 0.0 0.0
-0.00011978477230996376 3.964372798500107e-05 0.0 0.00022449343608127448 0.0 0.0
-9.951637363092569e-05 5.307291592768215e-05 0.0 -3.40391442039123e-05 0.0 0.0
-0.0005236060912787166 0.00023107603633071294 0.0 -0.0002802799731568273 0.0 0.0
-0.001224018906947344 0.000516329846120267 0.0 -0.0003261970116857915 0.0 0.0
-0.0019947593779874317 0.0009191857571347883 0.0 -0.0003011011057562074 0.0 0.0
-0.0033246006283484952 0.0019244641197520007 0.0 -0.00029329245392806236 0.0 0.0
-0.0058452730003624165 0.0041166418761031665 0.0 -0.0003910207042531755 0.0 0.0
-0.009785712683771264 0.007788166008828812 0.0 -0.0006169334132251625 0.0 0.0
-0.015408548809766165 0.013142298127773122 0.0 -0.0009618721730551005 0.0 0.0
-0.022871272813788035 0.020317839042186536 0.0 -0.0014437026957058174 0.0 0.0
-0.03216717920235873 0.029302840500295968 0.0 -0.0020178258380354475 0.0 0.0
-0.04320908200216711 0.040019314410296936 0.0 -0.002607618333983708 0.0 0.0
-0.0559084692600125 0.05238557826955326 0.0 -0.003191277284911642 0.0 0.0
-0.07018668611057971 0.0663253518195317 0.0 -0.0037791997666508648 0.0 0.0
-0.08591630176299941 0.08170390552427875 0.0 -0.004346789425293762 0.0 0.0
-0.10275129577942466 0.0981684607947062 0.0 -0.004788915148755679 0.0 0.0
-0.11993173060446838 0.11496280419944771 0.0 -0.0048191463828359815 0.0 0.0
-0.13618978238810836 0.1308338941655096 0.0 -0.004013164471822872 0.0 0.0
-0.14968678137791147 0.14391825639003208 0.0 -0.0028002479668890468 0.0 0.0
-0.15721372844416862 0.15078157164797412 0.0 -0.00904524394043249 0.0 0.0
-0.14967147903849068 0.14122760167566195 0.0 -0.046052666428899935 0.0 0.0
-0.14967147903847838 0.1412276016756535 0.0 0.046052666428908484 0.0 0.0
-0.15721372844413203 0.1507815716479426 0.0 0.009045243940448144 0.0 0.0
-0.14968678137785116 0.1439182563899708 0.0 0.0028002479668990943 0.0 0.0
-0.13618978238803292 0.13083389416543456 0.0 0.0040131644718202075 0.0 0.0
-0.11993173060438522 0.11496280419937088 0.0 0.004819146382836037 0.0 0.0
-0.10275129577933904 0.09816846079462582 0.0 0.004788915148756484 0.0 0.0
-0.08591630176291469 0.08170390552419571 0.0 0.004346789425292152 0.0 0.0
-0.07018668611049442 0.06632535181944732 0.0 0.003779199766648811 0.0 0.0
-0.05590846925993019 0.05238557826947465 0.0 0.00319127728491031 0.0 0.0
-0.043209082002092114 0.040019314410227214 0.0 0.002607618333978101 0.0 0.0
-0.03216717920229645 0.02930284050023846 0.0 0.0020178258380290914 0.0 0.0
-0.022871272813739102 0.020317839042141017 0.0 0.001443702695702681 0.0 0.0
-0.01540854880972786 0.013142298127736485 0.0 0.0009618721730527691 0.0 0.0
-0.009785712683745553 0.007788166008804387 0.0 0.0006169334132232474 0.0 0.0
-0.00584527300034682 0.004116641876088067 0.0 0.0003910207042510938 0.0 0.0
-0.003324600628341677 0.0019244641197464496 0.0 0.000293292453927535 0.0 0.0
-0.0019947593779856164 0.0009191857571337891 0.0 0.0003011011057551527 0.0 0.0
-0.0012240189069467784 0.0005163298461199339 0.0 0.00032619701168645765 0.0 0.0
-0.0005236060912782951 0.0002310760363300468 0.0 0.0002802799731578265 0.0 0.0
-9.951637363072533e-05 5.307291592749827e-05 0.0 3.4039144203856786e-05 0.0 0.0
SCALARS Statev float 8
LOOKUP_TABLE default
0.0 0.012350457463826178 0.009521668621272468 -0.009903882808199715 0.00038221418692724416 -0.005455073351118284 0.0 0.0
0.0 0.0006186282055105153 0.0004245137569038579 -0.0003542102191576808 -7.030353774617712e-05 0.00041140900192207974 0.0 0.0
0.0 3.342380937738801e-05 -4.754075056001044e-06 3.773145031477424e-06 9.809300245235895e-07 5.62033213615258e-07 0.0 0.0
0.0 0.00022529418984485716 0.00014749934243807805 -0.00011567546425763703 -3.182387818044105e-05 -2.0471507904625595e-05 0.0 0.0
0.0 0.0012879509519286721 0.001017675943450604 -0.0008354016429983971 -0.0001822743004522067 -0.00011098253934876898 0.0 0.0
0.0 0.0035119019242326388 0.0031972464158098422 -0.002775886646487046 -0.00042135976932279704 -0.00026238600122353677 0.0 0.0
0.0 0.00765542325024414 0.006850859018636436 -0.006247929715547817 -0.0006029293030886177 -0.0004857739792791123 0.0 0.0
0.0 0.013816733682846947 0.012222073103091868 -0.01149316653358284 -0.0007289065695090262 -0.0008144908193581788 0.0 0.0
0.0 0.02213803426069938 0.019437986231969715 -0.018602839788544902 -0.0008351464434248074 -0.0012744621047248606 0.0 0.0
0.0 0.03261199996507942 0.028494891515446513 -0.027552804392645902 -0.0009420871228006033 -0.0018341084322770782 0.0 0.0
0.0 0.04517731808106447 0.03932060281663673 -0.038267971242758034 -0.0010526315738786727 -0.002423215034482589 0.0 0.0
0.0 0.059459385934891466 0.051838361921829806 -0.050672657298684476 -0.0011657046231452993 -0.0030128233661827317 0.0 0.0
0.0 0.07567817262741365 0.06597134237154591 -0.0646913446306 -0.0012799977409458634 -0.0036041938230502546 0.0 0.0
0.0 0.0937129968949354 0.08161720117826016 -0.08022021599507229 -0.0013969851831877977 -0.00419529306422891 0.0 0.0
0.0 0.11321084251082866 0.09852534867057708 -0.09700701036607712 -0.0015183383044999517 -0.004771918927991174 0.0 0.0
0.0 0.13357617894749757 0.11614979712698523 -0.11450653671305203 -0.0016432604139332146 -0.005228895722250084 0.0 0.0
0.0 0.15372657064935613 0.13358211342978019 -0.13181424824899218 -0.0017678651807879991 -0.005356515002771004 0.0 0.0
0.0 0.17221211427464606 0.14958311652358505 -0.1476960465665719 -0.001887069957013133 -0.004917950062596666 0.0 0.0
0.0 0.18731559913987678 0.162662727751433 -0.1606654541066317 -0.0019972736448013208 -0.0040589293712150025 0.0 0.0
0.0 0.1964664535536161 0.17072715339520372 -0.168578850996061 -0.0021483023991427383 -0.00423442944463281 0.0 0.0
0.0 0.1964664535536016 0.17072715339519134 -0.16857885099604802 -0.0021483023991433225 0.004234429444639338 0.0 0.0
0.0 0.18731559913983625 0.16266272775139784 -0.1606654541065965 -0.001997273644801328 0.004058929371234738 0.0 0.0
0.0 0.17221211427457797 0.14958311652352624 -0.14769604656651317 -0.0018870699570130581 0.004917950062606112 0.0 0.0
0.0 0.15372657064927106 0.1335821134297064 -0.13181424824891871 -0.0017678651807876292 0.005356515002777408 0.0 0.0
0.0 0.1335761789474084 0.11614979712690751 -0.11450653671297549 -0.0016432604139320515 0.005228895722241915 0.0 0.0
0.0 0.11321084251073868 0.09852534867049856 -0.09700701036599993 -0.0015183383044986266 0.004771918927990448 0.0 0.0
0.0 0.0937129968948448 0.08161720117818129 -0.08022021599499449 -0.0013969851831867812 0.00419529306422779 0.0 0.0
0.0 0.07567817262732021 0.06597134237146488 -0.06469134463051958 -0.0012799977409453105 0.0036041938230493295 0.0 0.0
0.0 0.05945938593480306 0.05183836192175303 -0.050672657298608446 -0.0011657046231445636 0.0030128233661773545 0.0 0.0
0.0 0.0451773180809856 0.03932060281656784 -0.03826797124268996 -0.0010526315738778637 0.0024232150344791446 0.0 0.0
0.0 0.0326119999650144 0.028494891515389937 -0.027552804392590228 -0.0009420871227997204 0.0018341084322700519 0.0 0.0
0.0 0.022138034260649087 0.019437986231925428 -0.018602839788501246 -0.0008351464434241898 0.0012744621047229402 0.0 0.0
0.0 0.013816733682810098 0.012222073103059007 -0.011493166533550585 -0.0007289065695084216 0.0008144908193553006 0.0 0.0
0.0 0.007655423250218661 0.006850859018613388 -0.00624792971552556 -0.0006029293030878232 0.0004857739792779364 0.0 0.0
0.0 0.003511901924218516 0.003197246415796643 -0.0027758866464748224 -0.00042135976932182044 0.00026238600122234143 0.0 0.0
0.0 0.0012879509519220318 0.0010176759434451245 -0.0008354016429937352 -0.00018227430045138877 0.00011098253934825101 0.0 0.0
0.0 0.00022529418984350495 0.0001474993424378033 -0.00011567546425740141 -3.18238781804019e-05 2.047150790449165e-05 0.0 0.0
0.0 3.342380937687491e-05 -4.754075055922566e-06 3.7731450314146314e-06 9.80930024507978e-07 -5.620332136057866e-07 0.0 0.0
0.0 0.000618628205507917 0.0004245137569024387 -0.00035421021915643485 -7.0303537746004e-05 -0.00041140900192008107 0.0 0.0
0.0 0.012350457463808454 0.009521668621260604 -0.00990388280818683 0.00038221418692622246 0.005455073351090483 0.0 0.0
0.0 0.009070665779727233 0.006555590958514987 -0.007045050053126189 0.0004894590946111967 -0.00624320980319228 0.0 0.0
0.0 9.187524353265074e-07 7.038249902395605e-07 -6.031362539502491e-07 -1.0068873628931147e-07 4.80201127125738e-07 0.0 0.0
0.0 9.430826945183483e-08 -1.020951514236367e-08 7.758883502814768e-09 2.450631639548195e-09 3.6392644398315674e-09 0.0 0.0
0.0 7.598717064547524e-05 4.053800191425928e-05 -3.166994238244963e-05 -8.868059531809894e-06 -1.542229392937284e-05 0.0 0.0
0.0 0.00083681104887013 0.0006177021595465465 -0.0005006462356177366 -0.00011705592392880958 -0.0001655017330835287 0.0 0.0
0.0 0.002659872076149794 0.0024246592066587474 -0.0020721789593683582 -0.00035248024729038935 -0.000529969395659633 0.0 0.0
0.0 0.006315086203824672 0.005649804219900785 -0.00509166037719729 -0.0005581438427034928 -0.001100949822349571 0.0 0.0
0.0 0.01186579468704812 0.010483609097519237 -0.009784350986055705 -0.0006992581114635306 -0.001907513740627674 0.0 0.0
0.0 0.019386665040771956 0.017003324724516107 -0.01619484270723515 -0.0008084820172809508 -0.002970520970499756 0.0 0.0
0.0 0.0288201351347471 0.02516216360816822 -0.024250308599971026 -0.0009118550081971853 -0.004214168775771763 0.0 0.0
0.0 0.04005309298415706 0.03486366212289578 -0.03384826043392902 -0.0010154016889667588 -0.005504022617202679 0.0 0.0
0.0 0.05304949585061738 0.046039510829454164 -0.04492027298645106 -0.0011192378430031026 -0.006756296754603235 0.0 0.0
0.0 0.06748767397311994 0.05866662204985948 -0.057442308816279014 -0.0012243132335804324 -0.008028071417123785 0.0 0.0
0.0 0.08359145497151597 0.0726795650516565 -0.0713477425073447 -0.0013318225443117815 -0.009343394829926554 0.0 0.0
0.0 0.101114659494322 0.08786734247924613 -0.08642482696524396 -0.0014425155140021376 -0.01062334050537239 0.0 0.0
0.0 0.11944647448796025 0.10376627917282856 -0.10221041026044624 -0.0015558689123823322 -0.011654172895130809 0.0 0.0
0.0 0.13768669194709365 0.11958797733433035 -0.11791811584520726 -0.0016698614891231033 -0.012015942042755228 0.0 0.0
0.0 0.15454546711718747 0.13420736019409427 -0.1324249237605427 -0.0017824364335515155 -0.011308815407042167 0.0 0.0
0.0 0.16822052549612793 0.14608251776865144 -0.14418005305525672 -0.0019024647133947259 -0.009625205457291935 0.0 0.0
0.0 0.176404909346406 0.15321574978038566 -0.1512221329532632 -0.0019936168271225065 -0.0067958958052893 0.0 0.0
0.0 0.17640490934639486 0.15321574978037575 -0.15122213295325326 -0.0019936168271224783 0.006795895805309477 0.0 0.0
0.0 0.16822052549609443 0.14608251776862155 -0.14418005305522752 -0.0019024647133940311 0.00962520545732752 0.0 0.0
0.0 0.15454546711713152 0.1342073601940448 -0.13242492376049436 -0.0017824364335504346 0.011308815407065702 0.0 0.0
0.0 0.13768669194702007 0.11958797733426618 -0.11791811584514365 -0.0016698614891224755 0.012015942042766813 0.0 0.0
0.0 0.11944647448788077 0.10376627917275956 -0.10221041026037828 -0.0015558689123812248 0.011654172895121712 0.0 0.0
0.0 0.1011146594942406 0.08786734247917515 -0.08642482696517431 -0.0014425155140008186 0.010623340505368882 0.0 0.0
0.0 0.08359145497143555 0.07267956505158635 -0.07134774250727575 -0.0013318225443105483 0.009343394829923433 0.0 0.0
0.0 0.0674876739730394 0.05866662204978918 -0.057442308816209896 -0.0012243132335792656 0.008028071417121262 0.0 0.0
0.0 0.0530494958505394 0.046039510829386364 -0.04492027298638383 -0.0011192378430025147 0.006756296754594668 0.0 0.0
0.0 0.04005309298408668 0.03486366212283467 -0.033848260433868384 -0.0010154016889662766 0.005504022617194269 0.0 0.0
0.0 0.028820135134687855 0.02516216360811676 -0.024250308599919917 -0.0009118550081968404 0.004214168775759462 0.0 0.0
0.0 0.01938666504072705 0.01700332472447636 -0.016194842707195962 -0.0008084820172803902 0.0029705209704944716 0.0 0.0
0.0 0.011865794687014822 0.0104836090974897 -0.009784350986026922 -0.0006992581114627842 0.0019075137406219485 0.0 0.0
0.0 0.006315086203802027 0.005649804219880344 -0.005091660377177633 -0.0005581438427027096 0.0011009498223457136 0.0 0.0
0.0 0.002659872076137799 0.0024246592066480476 -0.0020721789593586364 -0.0003524802472894112 0.0005299693956571259 0.0 0.0
0.0 0.0008368110488651334 0.0006177021595428973 -0.0005006462356146688 -0.00011705592392822853 0.00016550173308252722 0.0 0.0
0.0 7.598717064462961e-05 4.0538001914127863e-05 -3.166994238234126e-05 -8.86805953178645e-06 1.542229392931435e-05 0.0 0.0
0.0 9.430826938068039e-08 -1.0209515134588993e-08 7.758883496907494e-09 2.4506316376819497e-09 -3.6392644370560787e-09 0.0 0.0
0.0 9.187524352997338e-07 7.038249903118388e-07 -6.031362540102725e-07 -1.006887363015648e-07 -4.802011271782639e-07 0.0 0.0
0.0 0.00907066577970662 0.006555590958501334 -0.007045050053111807 0.0004894590946104729 0.006243209803168388 0.0 0.0
0.0 0.006817044755649658 0.0046599352323802995 -0.005169254342750574 0.0005093191103702742 -0.0054417545087934996 0.0 0.0
0.0 0.0 0.0 0.0 0.0 0.0 0.0 0.0
0.0 0.0 0.0 0.0 0.0 0.0 0.0 0.0
0.0 1.2804374888380875e-05 8.61348257420708e-06 -6.719582783882043e-06 -1.8938997903250547e-06 -5.949148586234994e-06 0.0 0.0
0.0 0.0004384346008082067 0.00032509011160839776 -0.00026029057981637595 -6.479953179202159e-05 -0.00015584657801908072 0.0 0.0
0.0 0.0020434321986545077 0.0016922845356883934 -0.0014226491972779024 -0.00026963533841049 -0.0006411287899901936 0.0 0.0
0.0 0.0050263491604257 0.004474635488944156 -0.003973091500027719 -0.0005015439889164376 -0.001483675151320876 0.0 0.0
0.0 0.009937689089102978 0.008742550186329022 -0.008081739072887232 -0.0006608111134417929 -0.0026864328230597817 0.0 0.0
0.0 0.016660382719949803 0.014539047755227758 -0.013762597574049917 -0.0007764501811778362 -0.004229731441948555 0.0 0.0
0.0 0.025066175192609834 0.021783436814339377 -0.020906514515243585 -0.0008769222990957858 -0.006005884099673014 0.0 0.0
0.0 0.03504203963055053 0.030359591887038774 -0.029386062457582653 -0.0009735294294561047 -0.007845029389651384 0.0 0.0
0.0 0.04642257034856618 0.0402041467405546 -0.03913523419230915 -0.0010689125482454338 -0.00963546851339987 0.0 0.0
0.0 0.05937306931049394 0.05131254843790824 -0.050147853167716076 -0.001164695270192167 -0.011424639397110806 0.0 0.0
0.0 0.07354178787627563 0.06367046319983576 -0.06240810601985341 -0.0012623571799822916 -0.013293629895123846 0.0 0.0
0.0 0.08902635709191761 0.07712242502584427 -0.07576037340267161 -0.0013620516231725897 -0.015149182157167134 0.0 0.0
0.0 0.10537970916104639 0.09129344291265072 -0.08982975273637296 -0.001463690176277739 -0.01665603583680861 0.0 0.0
0.0 0.12175495427576528 0.10552297053833203 -0.10395573147186798 -0.0015672390664639999 -0.017292990065068726 0.0 0.0
0.0 0.136954241762217 0.11878327366529874 -0.11710758483335348 -0.0016756888319452222 -0.016534722994132847 0.0 0.0
0.0 0.1493062702806408 0.12960339883146244 -0.12782272072476378 -0.001780678106698628 -0.013904207988778753 0.0 0.0
0.0 0.15688926422831334 0.13630905965807563 -0.13445342693417062 -0.0018556327239049192 -0.008647134407905266 0.0 0.0
0.0 0.15688926422830113 0.1363090596580646 -0.13445342693415954 -0.0018556327239049664 0.008647134407937487 0.0 0.0
0.0 0.1493062702806086 0.12960339883143324 -0.1278227207247345 -0.00178067810669875 0.013904207988825626 0.0 0.0
0.0 0.13695424176216459 0.11878327366525228 -0.11710758483330674 -0.0016756888319454809 0.016534722994166397 0.0 0.0
0.0 0.12175495427570182 0.10552297053827633 -0.1039557314718126 -0.0015672390664637453 0.017292990065083634 0.0 0.0
0.0 0.10537970916097662 0.0912934429125902 -0.08982975273631327 -0.001463690176276893 0.016656035836800837 0.0 0.0
0.0 0.08902635709184334 0.07712242502577975 -0.07576037340260766 -0.0013620516231720938 0.01514918215716162 0.0 0.0
0.0 0.07354178787619994 0.06367046319976993 -0.062408106019788065 -0.0012623571799818534 0.0132936298951199 0.0 0.0
0.0 0.0593730693104185 0.05131254843784269 -0.050147853167650976 -0.0011646952701917053 0.011424639397104697 0.0 0.0
0.0 0.04642257034849644 0.040204146740494405 -0.03913523419224957 -0.0010689125482448367 0.009635468513385844 0.0 0.0
0.0 0.03504203963048864 0.030359591886984887 -0.029386062457529158 -0.0009735294294557115 0.007845029389639161 0.0 0.0
0.0 0.025066175192556592 0.021783436814293122 -0.020906514515197764 -0.0008769222990953552 0.006005884099656971 0.0 0.0
0.0 0.01666038271990848 0.014539047755191695 -0.013762597574014289 -0.0007764501811774006 0.004229731441938542 0.0 0.0
0.0 0.009937689089073845 0.00874255018630339 -0.008081739072862144 -0.0006608111134412482 0.002686432823051533 0.0 0.0
0.0 0.005026349160408349 0.004474635488928588 -0.003973091500013048 -0.0005015439889155399 0.0014836751513158828 0.0 0.0
0.0 0.0020434321986455327 0.0016922845356810308 -0.0014226491972714167 -0.00026963533840961365 0.0006411287899871752 0.0 0.0
0.0 0.00043843460080510827 0.0003250901116062949 -0.0002602905798146821 -6.479953179161263e-05 0.0001558465780181807 0.0 0.0
0.0 1.2804374888073487e-05 8.613482574469951e-06 -6.719582784078377e-06 -1.893899790391594e-06 5.94914858635099e-06 0.0 0.0
0.0 0.0 0.0 0.0 0.0 0.0 0.0 0.0
0.0 0.0 0.0 0.0 0.0 0.0 0.0 0.0
0.0 0.006817044755631854 0.004659935232368046 -0.005169254342737586 0.0005093191103695379 0.005441754508773881 0.0 0.0
0.0 0.0050620354804431205 0.0033130805625399664 -0.0037863067183799854 0.0004732261558400177 -0.004260640331795713 0.0 0.0
0.0 0.0 0.0 0.0 0.0 0.0 0.0 0.0
0.0 0.0 0.0 0.0 0.0 0.0 0.0 0.0
0.0 2.276422775969165e-06 -1.5481396254720538e-07 1.1771027953684254e-07 3.7103683010378325e-08 1.4375685897482216e-07 0.0 0.0
0.0 0.00019295156211033334 0.00013650554721677586 -0.00010851282734555377 -2.7992719871221964e-05 -0.00010596772090563274 0.0 0.0
0.0 0.0013610451929243776 0.0010800463906307655 -0.0008928672170484865 -0.00018717917358227924 -0.0006236324732427291 0.0 0.0
0.0 0.0038526990773690337 0.0033415521135810463 -0.0029158122389704804 -0.0004257398746105663 -0.001637434794801175 0.0 0.0
0.0 0.008057946727011095 0.007020866976381698 -0.006409345654070815 -0.0006115213223108843 -0.003143941569874304 0.0 0.0
0.0 0.013955299145709886 0.012071231793222193 -0.01133457745255937 -0.0007366543406628242 -0.005043920364657289 0.0 0.0
0.0 0.021321848079143405 0.018387310319759778 -0.017551148122651343 -0.000836162197108426 -0.007211303898907482 0.0 0.0
0.0 0.030019133815621355 0.02583538195760176 -0.02490863759441968 -0.0009267443631820749 -0.009444190761719881 0.0 0.0
0.0 0.03994858270651787 0.034349276759658424 -0.03333510747848727 -0.0010141692811711594 -0.011627570013486995 0.0 0.0
0.0 0.051103879652579634 0.04394278420099343 -0.04284215921753414 -0.0011006249834592818 -0.013821920609295624 0.0 0.0
0.0 0.06354687759747342 0.05463224185342865 -0.05344372469979762 -0.0011885171536310064 -0.016072704825423858 0.0 0.0
0.0 0.07712877778366384 0.06632603986548127 -0.06504894379477627 -0.0012770960707049982 -0.018303166602636225 0.0 0.0
0.0 0.09130398353975644 0.07875119154867828 -0.07738447259000518 -0.0013667189586730937 -0.020199731794503135 0.0 0.0
0.0 0.10582245810866879 0.09137131523507347 -0.08991119613645471 -0.0014601190986186952 -0.021159427139705776 0.0 0.0
0.0 0.1194444733292571 0.10329755308584596 -0.10173949436695001 -0.0015580587188959534 -0.02043654975396747 0.0 0.0
0.0 0.13068243592043247 0.11324607544721904 -0.1115943137321887 -0.0016517617150303234 -0.017116774106105542 0.0 0.0
0.0 0.13790563882941698 0.11976053250481479 -0.11804092352318633 -0.0017196089816284333 -0.010148591884619288 0.0 0.0
0.0 0.13790563882940726 0.11976053250480559 -0.11804092352317691 -0.0017196089816287402 0.010148591884661943 0.0 0.0
0.0 0.1306824359204042 0.11324607544719276 -0.1115943137321617 -0.0016517617150309976 0.01711677410616027 0.0 0.0
0.0 0.11944447332921358 0.10329755308580646 -0.10173949436691024 -0.0015580587188961555 0.020436549754005086 0.0 0.0
0.0 0.10582245810861918 0.09137131523502892 -0.08991119613641119 -0.0014601190986177261 0.021159427139722187 0.0 0.0
0.0 0.09130398353969935 0.07875119154862856 -0.07738447258995651 -0.001366718958672033 0.020199731794496578 0.0 0.0
0.0 0.07712877778359913 0.06632603986542526 -0.06504894379472069 -0.0012770960707045628 0.01830316660262824 0.0 0.0
0.0 0.06354687759741272 0.05463224185337564 -0.053443724699745405 -0.0011885171536302245 0.016072704825417915 0.0 0.0
0.0 0.051103879652519585 0.043942784200941 -0.04284215921748234 -0.0011006249834586538 0.013821920609288805 0.0 0.0
0.0 0.03994858270645838 0.03434927675960664 -0.033335107478436515 -0.0010141692811701227 0.011627570013471339 0.0 0.0
0.0 0.030019133815569296 0.025835381957556188 -0.024908637594375293 -0.0009267443631808981 0.009444190761704963 0.0 0.0
0.0 0.021321848079096675 0.01838731031971969 -0.01755114812261194 -0.000836162197107742 0.007211303898888351 0.0 0.0
0.0 0.013955299145673714 0.012071231793190767 -0.011334577452528603 -0.0007366543406621568 0.005043920364645244 0.0 0.0
0.0 0.008057946726985846 0.007020866976359697 -0.006409345654049551 -0.000611521322310142 0.003143941569864427 0.0 0.0
0.0 0.003852699077353555 0.0033415521135676347 -0.002915812238958163 -0.0004257398746094708 0.0016374347947953523 0.0 0.0
0.0 0.0013610451929152168 0.0010800463906238968 -0.0008928672170425236 -0.00018717917358137328 0.0006236324732385003 0.0 0.0
0.0 0.0001929515621078477 0.00013650554721553057 -0.00010851282734453095 -2.7992719870999717e-05 0.00010596772090461677 0.0 0.0
0.0 2.2764227755735472e-06 -1.548139623760205e-07 1.1771027940623562e-07 3.710368296979533e-08 -1.4375685881460278e-07 0.0 0.0
0.0 0.0 0.0 0.0 0.0 0.0 0.0 0.0
0.0 0.0 0.0 0.0 0.0 0.0 0.0 0.0
0.0 0.005062035480427064 0.0033130805625293464 -0.0037863067183686256 0.00047322615583927897 0.004260640331779721 0.0 0.0
0.0 0.003633360650794326 0.002287148784940171 -0.0026911228966439962 0.0004039741117038262 -0.003114369670527051 0.0 0.0
0.0 0.0 0.0 0.0 0.0 0.0 0.0 0.0
0.0 0.0 0.0 0.0 0.0 0.0 0.0 0.0
0.0 3.444406703857607e-07 -1.8664987765110933e-09 1.9667728646102594e-09 -1.0027408809933078e-10 6.873118523871325e-09 0.0 0.0
0.0 7.235254290395983e-05 4.4532247683300315e-05 -3.540151544293646e-05 -9.130732240363881e-06 -5.391977037555292e-05 0.0 0.0
0.0 0.0007984931854454678 0.0006049489048328951 -0.0004927435821497787 -0.00011220532268311653 -0.0005212587190580798 0.0 0.0
0.0 0.0028580641960629077 0.002295267727870398 -0.0019627041943426483 -0.0003325635335277503 -0.0015697064837752364 0.0 0.0
0.0 0.0062908192743503805 0.005335749968238128 -0.004790979346773195 -0.00054477062146493 -0.0032393816764344744 0.0 0.0
0.0 0.011290276967307167 0.009626280687727761 -0.008940013640159452 -0.0006862670475683106 -0.005404304679644945 0.0 0.0
0.0 0.01761652102671358 0.015001101491245852 -0.014213105818254676 -0.0007879956729911714 -0.00782267158031576 0.0 0.0
0.0 0.025048461283641816 0.021317802079649582 -0.02044372560527737 -0.0008740764743722226 -0.01030732105961858 0.0 0.0
0.0 0.033467304750768 0.028503953809606422 -0.027550111365524467 -0.0009538424440819584 -0.012733184452130857 0.0 0.0
0.0 0.04297333686831784 0.03658248728393674 -0.035550940952610466 -0.0010315463313262914 -0.015163607632836258 0.0 0.0
0.0 0.053424272806607255 0.0456035034795563 -0.04449438283691506 -0.0011091206426412491 -0.017673095371242717 0.0 0.0
0.0 0.06499464250804306 0.055527724715921975 -0.05434076969348281 -0.0011869550224391286 -0.020143059730497778 0.0 0.0
0.0 0.0774344627562457 0.06616810058849348 -0.06490269302062779 -0.0012654075678656816 -0.02225781690605776 0.0 0.0
0.0 0.08990556550339687 0.07713385517032649 -0.07578788187428111 -0.0013459732960453702 -0.023496597370809096 0.0 0.0
0.0 0.10190613873206732 0.08773818528807473 -0.08630687516818951 -0.0014313101198852136 -0.022968884005314823 0.0 0.0
0.0 0.11217337294101748 0.09692812245266631 -0.09541269446754472 -0.0015154279851215683 -0.019378696000224314 0.0 0.0
0.0 0.11921619611893422 0.10340557066068569 -0.10182474407246457 -0.0015808265882210864 -0.011395737024554061 0.0 0.0
0.0 0.11921619611892742 0.10340557066067832 -0.10182474407245765 -0.0015808265882205964 0.011395737024597572 0.0 0.0
0.0 0.11217337294099494 0.09692812245264348 -0.09541269446752268 -0.0015154279851208134 0.01937869600028104 0.0 0.0
0.0 0.10190613873203255 0.08773818528804159 -0.08630687516815692 -0.0014313101198846613 0.02296888400535553 0.0 0.0
0.0 0.08990556550335407 0.07713385517028741 -0.07578788187424282 -0.0013459732960445776 0.023496597370827606 0.0 0.0
0.0 0.07743446275619575 0.0661681005884498 -0.06490269302058504 -0.001265407567864764 0.02225781690605188 0.0 0.0
0.0 0.06499464250798834 0.05552772471587442 -0.054340769693435875 -0.0011869550224385657 0.02014305973048881 0.0 0.0
0.0 0.05342427280655152 0.04560350347950796 -0.04449438283686692 -0.0011091206426410286 0.01767309537123498 0.0 0.0
0.0 0.04297333686826651 0.03658248728389181 -0.03555094095256592 -0.0010315463313258749 0.015163607632828147 0.0 0.0
0.0 0.033467304750720045 0.028503953809564962 -0.027550111365483826 -0.0009538424440811179 0.012733184452115158 0.0 0.0
0.0 0.0250484612835987 0.021317802079612497 -0.020443725605241058 -0.0008740764743714393 0.010307321059601676 0.0 0.0
0.0 0.01761652102667343 0.015001101491212481 -0.014213105818221756 -0.0007879956729907235 0.007822671580293728 0.0 0.0
0.0 0.011290276967275326 0.009626280687700614 -0.008940013640132789 -0.0006862670475678228 0.005404304679630863 0.0 0.0
0.0 0.006290819274327542 0.005335749968218987 -0.004790979346754931 -0.0005447706214640549 0.00323938167642305 0.0 0.0
0.0 0.0028580641960485663 0.0022952677278587413 -0.0019627041943321307 -0.0003325635335266112 0.0015697064837682092 0.0 0.0
0.0 0.0007984931854392839 0.0006049489048285496 -0.0004927435821461274 -0.00011220532268242198 0.0005212587190542943 0.0 0.0
0.0 7.235254290292918e-05 4.453224768315598e-05 -3.540151544280382e-05 -9.130732240352092e-06 5.391977037530926e-05 0.0 0.0
0.0 3.4444067023808336e-07 -1.86649863739691e-09 1.9667727580025504e-09 -1.0027412060375278e-10 -6.873118314828944e-09 0.0 0.0
0.0 0.0 0.0 0.0 0.0 0.0 0.0 0.0
0.0 0.0 0.0 0.0 0.0 0.0 0.0 0.0
0.0 0.0036333606507815 0.002287148784931938 -0.002691122896634993 0.00040397411170305314 0.003114369670515027 0.0 0.0
0.0 0.002448913955954153 0.001493280886457717 -0.0018089860147645258 0.000315705128306808 -0.0021341440008751265 0.0 0.0
0.0 0.0 0.0 0.0 0.0 0.0 0.0 0.0
0.0 0.0 0.0 0.0 0.0 0.0 0.0 0.0
0.0 1.2459832782016668e-06 -8.711175530045244e-08 6.722946238267231e-08 1.9882292917777628e-08 2.0432140011233723e-07 0.0 0.0
0.0 3.0327272355145262e-05 1.2255790183215581e-05 -9.71272659207793e-06 -2.5430635911376475e-06 -2.1586562679833133e-05 0.0 0.0
0.0 0.00039385459656236755 0.00028626957068002474 -0.0002308093282339387 -5.54602424460859e-05 -0.000372580187432322 0.0 0.0
0.0 0.0018325016144071777 0.001416912384533777 -0.0011862846102982233 -0.00023062777423555334 -0.0013746861303492873 0.0 0.0
0.0 0.004627454623478965 0.0037413517934350446 -0.0032897285207506713 -0.0004516232726843731 -0.00303151728618126 0.0 0.0
0.0 0.008732984717685351 0.007228105109021573 -0.006609289467807879 -0.0006188156412136951 -0.00527393614710511 0.0 0.0
0.0 0.013966814803095614 0.011654575091016483 -0.010925444838951213 -0.000729130252065267 -0.007825889366149193 0.0 0.0
0.0 0.020108305869306276 0.01683628723275734 -0.016023359206917255 -0.0008129280258400746 -0.010414598664883177 0.0 0.0
0.0 0.027050467271722424 0.022698327313409584 -0.021811748007827043 -0.0008865793055825437 -0.012939353494692038 0.0 0.0
0.0 0.034807464550785795 0.029268519579589963 -0.02831266644317651 -0.0009558531364134466 -0.015464106244516551 0.0 0.0
0.0 0.04346678149273684 0.03661764228529414 -0.035594307386734636 -0.0010233348985595092 -0.01804699156089882 0.0 0.0
0.0 0.05306781082589372 0.04476239164006854 -0.043671617615284264 -0.0010907740247842975 -0.020608046849364892 0.0 0.0
0.0 0.06319979659515795 0.053591756926229014 -0.05243384291382622 -0.0011579140124028096 -0.02285168397129868 0.0 0.0
0.0 0.07395304544342107 0.06283968248039014 -0.061614868020014604 -0.0012248144603755158 -0.024265270194381464 0.0 0.0
0.0 0.08446184815610058 0.07207569027821682 -0.07078066772298167 -0.0012950225552351665 -0.024025532026019657 0.0 0.0
0.0 0.0936477731478392 0.08054516073810797 -0.07917588783664994 -0.0013692729014579865 -0.020653876577979492 0.0 0.0
0.0 0.10062924058859571 0.08709455371310479 -0.08565920790132414 -0.0014353458117805995 -0.012407677492368189 0.0 0.0
0.0 0.10062924058858905 0.08709455371309742 -0.08565920790131676 -0.0014353458117806362 0.012407677492412263 0.0 0.0
0.0 0.09364777314782088 0.08054516073808847 -0.07917588783663031 -0.0013692729014581982 0.02065387657803551 0.0 0.0
0.0 0.0844618481560738 0.07207569027819005 -0.0707806677229548 -0.0012950225552352777 0.024025532026061475 0.0 0.0
0.0 0.07395304544338377 0.0628396824803559 -0.061614868019980465 -0.001224814460375406 0.024265270194398395 0.0 0.0
0.0 0.06319979659511465 0.05359175692619157 -0.052433842913789296 -0.001157914012402244 0.022851683971290726 0.0 0.0
0.0 0.053067810825849104 0.044762391640029854 -0.04367161761524631 -0.001090774024783532 0.02060804684935484 0.0 0.0
0.0 0.04346678149269318 0.03661764228525593 -0.0355943073866974 -0.0010233348985585304 0.018046991560889573 0.0 0.0
0.0 0.03480746455074458 0.02926851957955404 -0.02831266644314136 -0.0009558531364126793 0.015464106244507246 0.0 0.0
0.0 0.027050467271682165 0.02269832731337524 -0.02181174800779346 -0.0008865793055817817 0.012939353494676929 0.0 0.0
0.0 0.02010830586926733 0.016836287232724644 -0.016023359206885045 -0.0008129280258396001 0.010414598664864494 0.0 0.0
0.0 0.013966814803063119 0.011654575090989768 -0.010925444838925224 -0.0007291302520645416 0.007825889366127806 0.0 0.0
0.0 0.008732984717660755 0.007228105109000959 -0.006609289467788017 -0.0006188156412129409 0.005273936147091037 0.0 0.0
0.0 0.004627454623462839 0.0037413517934219986 -0.003289728520738576 -0.0004516232726834216 0.0030315172861711576 0.0 0.0
0.0 0.0018325016143986798 0.0014169123845273464 -0.0011862846102926382 -0.00023062777423470793 0.0013746861303438561 0.0 0.0
0.0 0.00039385459655839807 0.0002862695706776836 -0.00023080932823203943 -5.546024244564414e-05 0.00037258018742943917 0.0 0.0
0.0 3.0327272354193834e-05 1.225579018318592e-05 -9.712726592050298e-06 -2.5430635911356142e-06 2.158656267976701e-05 0.0 0.0
0.0 1.245983277765114e-06 -8.711175526903953e-08 6.722946235833695e-08 1.9882292910690027e-08 -2.0432140003799813e-07 0.0 0.0
0.0 0.0 0.0 0.0 0.0 0.0 0.0 0.0
0.0 0.0 0.0 0.0 0.0 0.0 0.0 0.0
0.0 0.002448913955943688 0.001493280886451275 -0.001808986014757242 0.0003157051283059683 0.0021341440008657234 0.0 0.0
0.0 0.0015279117210721801 0.0008850227240754757 -0.0011036894977145188 0.00021866677363904276 -0.0013336407451681035 0.0 0.0
0.0 4.3237046965141747e-07 -5.414833726629138e-09 5.131917599336839e-09 2.829161272924473e-10 8.656951798426124e-08 0.0 0.0
0.0 0.0 0.0 0.0 0.0 0.0 0.0 0.0
0.0 1.343535810957597e-06 -6.745450613659108e-08 5.1836617700734505e-08 1.5617888435866596e-08 2.5068220686766373e-07 0.0 0.0
0.0 1.576621496648884e-05 6.292757848879622e-06 -4.970183944163637e-06 -1.3225739047159873e-06 -1.6421659232678718e-05 0.0 0.0
0.0 0.0001996885064357387 0.00010562517503745337 -8.476378176159617e-05 -2.0861393275857242e-05 -0.00020941958047585336 0.0 0.0
0.0 0.0010410895107325665 0.0007291173216900838 -0.0005984012131417615 -0.00013071610854832215 -0.0010412412532916052 0.0 0.0
0.0 0.0030607163844604164 0.002319020903992925 -0.0019871615656626256 -0.00033185933833029856 -0.002579361629117513 0.0 0.0
0.0 0.006267330839451785 0.004934719278127334 -0.004413855245317525 -0.0005208640328098072 -0.004688769382386168 0.0 0.0
0.0 0.010396289952509716 0.008380457029319336 -0.007729359608699674 -0.0006510974206196632 -0.007178801542126117 0.0 0.0
0.0 0.015243806898743502 0.012422838849392989 -0.011684629713303361 -0.0007382091360896257 -0.009749313973991479 0.0 0.0
0.0 0.020691031123244906 0.016967467338591946 -0.01615885232402768 -0.0008086150145642675 -0.012230913076267978 0.0 0.0
0.0 0.026772298471758067 0.022038438432248193 -0.021167804473647817 -0.0008706339586003605 -0.014689277610238607 0.0 0.0
0.0 0.03351610242818061 0.027721971426165115 -0.026793310188215135 -0.0009286612379499799 -0.017200645208442243 0.0 0.0
0.0 0.04105185286267505 0.03407584121904557 -0.03309103355593355 -0.0009848076631120207 -0.019694433927994085 0.0 0.0
0.0 0.04925396965926997 0.04106387541469381 -0.0400215474425519 -0.001042327972141911 -0.02189922719591118 0.0 0.0
0.0 0.05783976896506609 0.048533389256621234 -0.047437471428267264 -0.0010959178283539732 -0.02340707197234513 0.0 0.0
0.0 0.06663082985780282 0.056299525649360235 -0.055151744441960984 -0.0011477812073992563 -0.02355083100766848 0.0 0.0
0.0 0.07513637820711588 0.06398587965539428 -0.06277682281172671 -0.0012090568436675469 -0.02085882834166572 0.0 0.0
0.0 0.08219986326311313 0.07066800237567308 -0.06938976814912595 -0.0012782342265471231 -0.01315862520631928 0.0 0.0
0.0 0.08219986326311039 0.07066800237566878 -0.06938976814912201 -0.001278234226546758 0.013158625206360004 0.0 0.0
0.0 0.0751363782071042 0.06398587965537944 -0.06277682281171212 -0.0012090568436673459 0.02085882834172295 0.0 0.0
0.0 0.06663082985778451 0.05629952564933951 -0.055151744441941035 -0.0011477812073984537 0.02355083100771044 0.0 0.0
0.0 0.057839768965037945 0.04853338925659402 -0.04743747142824076 -0.0010959178283532901 0.023407071972362015 0.0 0.0
0.0 0.049253969659233995 0.04106387541466293 -0.04002154744252141 -0.0010423279721414901 0.021899227195901563 0.0 0.0
0.0 0.04105185286263953 0.03407584121901519 -0.03309103355590355 -0.0009848076631116286 0.019694433927982927 0.0 0.0
0.0 0.03351610242814605 0.027721971426135354 -0.026793310188185412 -0.0009286612379499499 0.01720064520843368 0.0 0.0
0.0 0.026772298471725898 0.022038438432220666 -0.02116780447362028 -0.0008706339586003871 0.014689277610229156 0.0 0.0
0.0 0.02069103112321201 0.016967467338564534 -0.01615885232400049 -0.0008086150145640386 0.012230913076252011 0.0 0.0
0.0 0.015243806898713526 0.01242283884936856 -0.011684629713279413 -0.0007382091360891347 0.009749313973973148 0.0 0.0
0.0 0.01039628995248151 0.008380457029297537 -0.007729359608678273 -0.0006510974206192635 0.007178801542103687 0.0 0.0
0.0 0.006267330839432194 0.004934719278111973 -0.004413855245302812 -0.0005208640328091605 0.0046887693823732665 0.0 0.0
0.0 0.0030607163844468483 0.0023190209039825297 -0.0019871615656532893 -0.000331859338329239 0.002579361629107803 0.0 0.0
0.0 0.0010410895107253744 0.0007291173216849933 -0.0005984012131374941 -0.00013071610854749848 0.0010412412532857286 0.0 0.0
0.0 0.0001996885064336828 0.00010562517503676626 -8.476378176102435e-05 -2.0861393275741744e-05 0.00020941958047443005 0.0 0.0
0.0 1.576621496614437e-05 6.292757849054643e-06 -4.970183944301633e-06 -1.3225739047530134e-06 1.6421659233154682e-05 0.0 0.0
0.0 1.343535810551308e-06 -6.74545061154224e-08 5.1836617684484416e-08 1.561788843093987e-08 -2.5068220678900275e-07 0.0 0.0
0.0 0.0 0.0 0.0 0.0 0.0 0.0 0.0
0.0 4.3237046913438544e-07 -5.414833720036132e-09 5.131917593071955e-09 2.82916126964362e-10 -8.656951787897293e-08 0.0 0.0
0.0 0.0015279117210642303 0.0008850227240710163 -0.0011036894977093212 0.00021866677363830452 0.001333640745161257 0.0 0.0
0.0 0.0008296309395578482 0.00044374789842615084 -0.0005719487393103628 0.00012820084088421206 -0.0007087156343419629 0.0 0.0
0.0 7.512813240816785e-07 -8.578386271568937e-09 1.2383873806030765e-08 -3.805487534463166e-09 1.34086872446479e-07 0.0 0.0
0.0 6.305102464673167e-07 -7.0898921551877894e-09 5.074535917472657e-09 2.0153562377156586e-09 1.2874703632778445e-07 0.0 0.0
0.0 8.785080249573748e-07 -2.7802822492844112e-08 1.994940100867853e-08 7.853421484167789e-09 1.5831386701659792e-07 0.0 0.0
0.0 1.2922684625510518e-05 3.726513460143899e-06 -2.9320006682162754e-06 -7.945127919276363e-07 -1.5182956881771754e-05 0.0 0.0
0.0 0.00011109627482818569 4.278102173539604e-05 -3.413637114631946e-05 -8.644650589076582e-06 -0.00013442662483740853 0.0 0.0
0.0 0.0005207087522744006 0.0002848592418138707 -0.00023028086941642446 -5.457837239744622e-05 -0.0006567148121785094 0.0 0.0
0.0 0.001729357865812516 0.0011458424920130488 -0.000953038545141864 -0.00019280394687118472 -0.0019029401308093632 0.0 0.0
0.0 0.0039677426509367245 0.0028400657114498757 -0.002462143822745454 -0.0003779218887044191 -0.0037254604169914447 0.0 0.0
0.0 0.006893344285553875 0.005247095860046307 -0.004714596956114403 -0.0005324989039319031 -0.005920087153485541 0.0 0.0
0.0 0.010526039041378492 0.008125047514615454 -0.00748950124034249 -0.0006355462742729657 -0.00825679757602252 0.0 0.0
0.0 0.014448333201014352 0.011356669113831935 -0.010647624722266774 -0.0007090443915651582 -0.01055277520667919 0.0 0.0
0.0 0.018815617620651554 0.014943986709126285 -0.014175985431719345 -0.0007680012774069363 -0.012817311698013737 0.0 0.0
0.0 0.023716537016488543 0.01896984591034404 -0.01815146803410432 -0.0008183778762397103 -0.015094835216491242 0.0 0.0
0.0 0.02926649102532569 0.023524868411350583 -0.02266044905378182 -0.000864419357568761 -0.01736556719096831 0.0 0.0
0.0 0.03535111062247196 0.02864693476365645 -0.027736439575976962 -0.0009104951876794764 -0.019419362390343645 0.0 0.0
0.0 0.04195875021592098 0.0342824013032804 -0.03332645846722762 -0.0009559428360527719 -0.020854465186515927 0.0 0.0
0.0 0.04886124904063953 0.04042629715747026 -0.039437157317835474 -0.000989139839634787 -0.021317552811155643 0.0 0.0
0.0 0.05613895123358253 0.04714644048733865 -0.04611940661378741 -0.0010270338735512202 -0.019763723163263573 0.0 0.0
0.0 0.06318556493154594 0.05395123432545769 -0.05285240221426101 -0.0010988321111966887 -0.013574176438824465 0.0 0.0
0.0 0.06318556493154426 0.053951234325454164 -0.05285240221425753 -0.0010988321111966195 0.013574176438858967 0.0 0.0
0.0 0.05613895123357378 0.04714644048732579 -0.04611940661377474 -0.001027033873551047 0.019763723163314786 0.0 0.0
0.0 0.04886124904062494 0.04042629715745286 -0.03943715731781837 -0.0009891398396344765 0.021317552811190923 0.0 0.0
0.0 0.041958750215901924 0.03428240130326151 -0.03332645846720927 -0.0009559428360522494 0.02085446518652871 0.0 0.0
0.0 0.03535111062244442 0.028646934763633513 -0.027736439575954286 -0.0009104951876792143 0.019419362390332914 0.0 0.0
0.0 0.02926649102529805 0.02352486841132782 -0.02266044905375922 -0.0008644193575686118 0.01736556719095588 0.0 0.0
0.0 0.02371653701646487 0.018969845910323933 -0.018151468034084673 -0.0008183778762392682 0.015094835216484106 0.0 0.0
0.0 0.01881561762063097 0.014943986709108611 -0.014175985431702395 -0.0007680012774062224 0.012817311698006404 0.0 0.0
0.0 0.014448333200992843 0.0113566691138145 -0.010647624722249931 -0.0007090443915645673 0.010552775206666438 0.0 0.0
0.0 0.010526039041356983 0.008125047514598648 -0.007489501240326283 -0.0006355462742723622 0.008256797576006806 0.0 0.0
0.0 0.006893344285534573 0.005247095860032363 -0.004714596956101115 -0.0005324989039312471 0.005920087153468034 0.0 0.0
0.0 0.003967742650923498 0.002840065711440053 -0.002462143822736451 -0.0003779218887036011 0.003725460416980828 0.0 0.0
0.0 0.0017293578658047824 0.0011458424920076352 -0.0009530385451371822 -0.00019280394687045245 0.0019029401308022157 0.0 0.0
0.0 0.0005207087522713031 0.0002848592418124407 -0.0002302808694152506 -5.457837239719016e-05 0.0006567148121756018 0.0 0.0
0.0 0.00011109627482689308 4.278102173529008e-05 -3.413637114622877e-05 -8.644650589061313e-06 0.00013442662483688513 0.0 0.0
0.0 1.2922684625263415e-05 3.7265134602631265e-06 -2.9320006683105447e-06 -7.945127919525742e-07 1.5182956882291005e-05 0.0 0.0
0.0 8.785080247023842e-07 -2.78028224132e-08 1.9949400946241152e-08 7.853421466955843e-09 -1.5831386644659035e-07 0.0 0.0
0.0 6.305102458760242e-07 -7.089892147158693e-09 5.074535912009278e-09 2.015356235150372e-09 -1.2874703620679312e-07 0.0 0.0
0.0 7.512813233108139e-07 -8.578386244714475e-09 1.238387377497157e-08 -3.805487530257151e-09 -1.3408687185383791e-07 0.0 0.0
0.0 0.0008296309395523029 0.0004437478984234823 -0.0005719487393070955 0.00012820084088361336 0.0007087156343377483 0.0 0.0
0.0 0.0003225385801179061 0.00017022615370893048 -0.0002295761008725739 5.9349947163643426e-05 -0.0002892731115342996 0.0 0.0
0.0 2.0717276247831737e-06 -6.165853434397743e-09 1.47916262852059e-08 -8.625772850807937e-09 4.367858720835785e-07 0.0 0.0
0.0 8.129603515550081e-07 -9.729788138728575e-10 -5.062304710215263e-10 1.479209284894036e-09 1.6676851108718092e-07 0.0 0.0
0.0 1.3942118126280809e-06 -1.7202479833820512e-08 1.1633862331670308e-08 5.568617502153395e-09 2.882879494068393e-07 0.0 0.0
0.0 1.3642557142744994e-05 2.2681233046070738e-06 -1.741882537742558e-06 -5.262407668645203e-07 -1.7156384369687503e-05 0.0 0.0
0.0 9.019800379233284e-05 2.043279248921451e-05 -1.631252528097421e-05 -4.120267208240297e-06 -0.00011655953258337361 0.0 0.0
0.0 0.00028395134138181133 9.13849594621425e-05 -7.344604062651966e-05 -1.793891883562279e-05 -0.00040338714294988777 0.0 0.0
0.0 0.0007843803680695866 0.00036087102063119935 -0.00029215697510199845 -6.871404552920064e-05 -0.0011350557181164511 0.0 0.0
0.0 0.0019563476699576325 0.0011055475033535757 -0.0009182584014968858 -0.0001872891018566902 -0.0024423066309229627 0.0 0.0
0.0 0.0037236188114284073 0.0023927023548930763 -0.002056946143151474 -0.0003357562117416005 -0.004127836816098257 0.0 0.0
0.0 0.0059051590548613465 0.004061609568607277 -0.003600417246688509 -0.0004611923219187653 -0.005994615912396783 0.0 0.0
0.0 0.008441823815272217 0.005957577830058602 -0.005407510175081703 -0.0005500676549768959 -0.007904181518536233 0.0 0.0
0.0 0.011202209218073977 0.008071116948916799 -0.007453663484492581 -0.0006174534644242116 -0.009849234619169913 0.0 0.0
0.0 0.014294084787029157 0.010458069850427696 -0.009789295286471981 -0.0006687745639557054 -0.011791326302457147 0.0 0.0
0.0 0.017799776252047112 0.013209639182515939 -0.01250065037284966 -0.0007089888096662718 -0.01372264522055784 0.0 0.0
0.0 0.02179401751643726 0.01643267571616907 -0.01568815225830059 -0.0007445234578684869 -0.01554326803954104 0.0 0.0
0.0 0.02631769390847685 0.02019806494829279 -0.019415579287706947 -0.000782485660585851 -0.01691871759585469 0.0 0.0
0.0 0.03135163588049579 0.024595162922631007 -0.023781225788891032 -0.000813937133739984 -0.017473167222418116 0.0 0.0
0.0 0.03730896569034285 0.029985414555327345 -0.029171097009516388 -0.0008143175458109638 -0.017025297461959736 0.0 0.0
0.0 0.04418566999076286 0.03671261513392099 -0.03583743112390923 -0.0008751840100117699 -0.013406041585781969 0.0 0.0
0.0 0.044185669990762 0.03671261513391795 -0.035837431123905986 -0.0008751840100119848 0.013406041585810723 0.0 0.0
0.0 0.03730896569034075 0.029985414555320396 -0.029171097009509143 -0.0008143175458112349 0.017025297462002847 0.0 0.0
0.0 0.03135163588049018 0.024595162922621212 -0.02378122578888147 -0.0008139371337397405 0.01747316722244912 0.0 0.0
0.0 0.02631769390846409 0.020198064948280164 -0.019415579287694808 -0.0007824856605853457 0.016918717595861586 0.0 0.0
0.0 0.021794017516420124 0.016432675716156406 -0.015688152258288207 -0.0007445234578682035 0.015543268039529236 0.0 0.0
0.0 0.017799776252030816 0.013209639182503759 -0.012500650372837638 -0.0007089888096661154 0.013722645220546753 0.0 0.0
0.0 0.014294084787015675 0.010458069850416626 -0.009789295286461263 -0.000668774563955368 0.011791326302452129 0.0 0.0
0.0 0.011202209218061242 0.008071116948906483 -0.00745366348448241 -0.0006174534644240731 0.009849234619164161 0.0 0.0
0.0 0.008441823815256424 0.005957577830047156 -0.005407510175070761 -0.0005500676549763953 0.007904181518523765 0.0 0.0
0.0 0.005905159054846976 0.004061609568597425 -0.0036004172466793257 -0.0004611923219180981 0.005994615912383426 0.0 0.0
0.0 0.0037236188114150547 0.0023927023548848078 -0.0020569461431439303 -0.00033575621174087623 0.00412783681608388 0.0 0.0
0.0 0.0019563476699506243 0.001105547503349022 -0.0009182584014929514 -0.000187289101856071 0.00244230663091559 0.0 0.0
0.0 0.00078438036806545 0.0003608710206291452 -0.00029215697510032656 -6.871404552881847e-05 0.0011350557181115768 0.0 0.0
0.0 0.0002839513413800379 9.13849594617499e-05 -7.344604062619165e-05 -1.793891883555819e-05 0.0004033871429482069 0.0 0.0
0.0 9.019800379066302e-05 2.0432792489088523e-05 -1.63125252808762e-05 -4.120267208212308e-06 0.00011655953258257181 0.0 0.0
0.0 1.3642557142388186e-05 2.2681233046551014e-06 -1.741882537779392e-06 -5.262407668757107e-07 1.7156384370064707e-05 0.0 0.0
0.0 1.3942118121365584e-06 -1.7202479827439693e-08 1.1633862327329383e-08 5.568617500112952e-09 -2.8828794930130727e-07 0.0 0.0
0.0 8.12960351106587e-07 -9.729788137991681e-10 -5.062304704954294e-10 1.479209284295063e-09 -1.667685109932312e-07 0.0 0.0
0.0 2.0717276240791394e-06 -6.165853431574411e-09 1.4791626278552993e-08 -8.625772846978897e-09 -4.3678587193397695e-07 0.0 0.0
0.0 0.0003225385801146792 0.00017022615370769083 -0.00022957610087100136 5.934994716331031e-05 0.00028927311153216463 0.0 0.0
0.0 7.694715572601369e-05 3.7364489270404156e-05 -5.281628441872096e-05 1.545179514831681e-05 -6.722211971792679e-05 0.0 0.0
0.0 2.3409661729961703e-06 6.496376963596438e-10 1.3091562580591183e-08 -1.3741200276949575e-08 4.872012716183131e-07 0.0 0.0
0.0 1.0270296968031666e-06 -6.976354362177446e-09 5.514957212815812e-09 1.4613971493615672e-09 -1.742075056146367e-07 0.0 0.0
0.0 2.351781283682957e-06 -3.270223432153807e-08 3.700372906476761e-08 -4.301494743228934e-09 -2.0670392723123324e-06 0.0 0.0
0.0 1.6971917026243485e-05 4.960952989227222e-07 -3.2924703325870985e-07 -1.6684826566401882e-07 -1.8677767030371395e-05 0.0 0.0
0.0 8.619013417578909e-05 6.298231712974574e-06 -4.941322660994167e-06 -1.3569090519803928e-06 -0.0001221026136729953 0.0 0.0
0.0 0.000231269282933653 2.5416749247610147e-05 -2.039776779032367e-05 -5.018981457286498e-06 -0.0003642200668307199 0.0 0.0
0.0 0.0004890732539545335 6.726345804991208e-05 -5.43372260520263e-05 -1.292623199788569e-05 -0.0007422831441424081 0.0 0.0
0.0 0.0008608083897840305 0.0001662359707050547 -0.0001347903115549623 -3.144565915009237e-05 -0.001387845029095649 0.0 0.0
0.0 0.0015221664429305342 0.0003758134542427254 -0.00030472806742634135 -7.108538681638402e-05 -0.0023414771460296057 0.0 0.0
0.0 0.002327598131051195 0.0007467006036312743 -0.0006051369728637927 -0.0001415636307674814 -0.003602171906665504 0.0 0.0
0.0 0.0033947558407189686 0.0012218778899491815 -0.0010012046808583626 -0.0002206732090908187 -0.005011121263308844 0.0 0.0
0.0 0.004668521371868232 0.0018227196906645713 -0.001527764213468701 -0.00029495547719586926 -0.006586574363439129 0.0 0.0
0.0 0.006178122670015812 0.002555594929927987 -0.0021981634349755213 -0.00035743149495246683 -0.008306816058223481 0.0 0.0
0.0 0.007920137677009565 0.0034855391019890107 -0.0030779015600608576 -0.0004076375419281529 -0.010158620626664063 0.0 0.0
0.0 0.010013517631057315 0.004756294826017271 -0.004307632080918218 -0.0004486627450990519 -0.012023730927047914 0.0 0.0
0.0 0.012496317303112472 0.006596519763810788 -0.0061082695290121565 -0.0004882502347986283 -0.013557989695404409 0.0 0.0
0.0 0.015446367434754022 0.009223439241973917 -0.008686091096995434 -0.0005373481449784787 -0.014181749035119597 0.0 0.0
0.0 0.019357155031654492 0.012936394110879022 -0.01238011473848781 -0.0005562793723912085 -0.01382878791106427 0.0 0.0
0.0 0.025345729045684152 0.018833965771264408 -0.018304228023215723 -0.0005297377480486872 -0.012698333217878548 0.0 0.0
0.0 0.025345729045683916 0.01883396577126208 -0.018304228023213225 -0.0005297377480488482 0.012698333217900207 0.0 0.0
0.0 0.019357155031655242 0.01293639411087502 -0.012380114738483779 -0.0005562793723912408 0.013828787911095975 0.0 0.0
0.0 0.015446367434750669 0.009223439241967779 -0.008686091096989377 -0.0005373481449783996 0.014181749035137815 0.0 0.0
0.0 0.01249631730310475 0.006596519763805234 -0.006108269529006637 -0.0004882502347985931 0.013557989695403623 0.0 0.0
0.0 0.010013517631048092 0.004756294826013542 -0.0043076320809145915 -0.0004486627450989482 0.012023730927035653 0.0 0.0
0.0 0.007920137677001187 0.0034855391019847793 -0.00307790156005688 -0.00040763754192789923 0.010158620626655845 0.0 0.0
0.0 0.00617812267001084 0.002555594929926611 -0.002198163434974157 -0.000357431494952454 0.008306816058216412 0.0 0.0
0.0 0.004668521371865037 0.0018227196906644375 -0.001527764213468758 -0.0002949554771956793 0.0065865743634332405 0.0 0.0
0.0 0.003394755840713793 0.0012218778899480583 -0.001001204680857621 -0.00022067320909043708 0.005011121263301315 0.0 0.0
0.0 0.0023275981310450665 0.0007467006036296985 -0.0006051369728625572 -0.0001415636307671411 0.0036021719066564456 0.0 0.0
0.0 0.0015221664429249323 0.00037581345424163065 -0.0003047280674254172 -7.108538681621364e-05 0.002341477146021351 0.0 0.0
0.0 0.0008608083897821486 0.0001662359707046912 -0.000134790311554701 -3.144565914999003e-05 0.0013878450290926493 0.0 0.0
0.0 0.0004890732539530874 6.726345804968925e-05 -5.433722605185133e-05 -1.2926231997837893e-05 0.0007422831441400298 0.0 0.0
0.0 0.0002312692829316423 2.541674924747616e-05 -2.0397767790200228e-05 -5.018981457275908e-06 0.0003642200668288833 0.0 0.0
0.0 8.61901341745521e-05 6.298231712963398e-06 -4.941322660982472e-06 -1.3569090519809264e-06 0.0001221026136726483 0.0 0.0
0.0 1.697191702582198e-05 4.960952989287533e-07 -3.292470332616353e-07 -1.6684826566712113e-07 1.8677767030618807e-05 0.0 0.0
0.0 2.351781283601368e-06 -3.270223433533918e-08 3.700372908097516e-08 -4.301494745636066e-09 2.06703927317863e-06 0.0 0.0
0.0 1.0270296967889453e-06 -6.976354396099626e-09 5.514957244121955e-09 1.4613971519774584e-09 1.7420750645859097e-07 0.0 0.0
0.0 2.340966172321822e-06 6.496376968874008e-10 1.3091562575233056e-08 -1.3741200272117913e-08 -4.87201271473837e-07 0.0 0.0
0.0 7.694715572471475e-05 3.7364489270166025e-05 -5.2816284418380236e-05 1.5451795148214164e-05 6.722211971763858e-05 0.0 0.0
0.0 4.987461365700043e-06 1.4575405019557182e-06 -2.1060631675712767e-06 6.485226656155503e-07 -3.0141510166373085e-06 0.0 0.0
0.0 2.1318577221605077e-06 -8.297365884830004e-09 1.0198555889841898e-08 -1.901190005007036e-09 9.545657354819241e-09 0.0 0.0
0.0 2.942461041322374e-06 -1.6096798187454492e-07 1.3518184653867563e-07 2.578613533587008e-08 -1.832643901913918e-06 0.0 0.0
0.0 4.866799487870569e-06 -4.830465364643216e-07 4.209892524397047e-07 6.205728402461726e-08 -5.671467806046464e-06 0.0 0.0
0.0 2.18657798089666e-05 -1.7396596315766565e-06 1.5098215686237576e-06 2.2983806295290848e-07 -2.5212264005874245e-05 0.0 0.0
0.0 9.273931086584535e-05 -8.247690688046378e-06 6.7867629493476165e-06 1.4609277386987515e-06 -0.00012482238208226103 0.0 0.0
0.0 0.00023291046185039337 -2.6795877145011454e-05 2.1664256463676557e-05 5.1316206813348805e-06 -0.00036705525058174717 0.0 0.0
0.0 0.0004893082672471677 -6.745208269698422e-05 5.449223156392545e-05 1.2959851133058719e-05 -0.0007438066497665007 0.0 0.0
0.0 0.0008608060692472758 -0.00016598876872268297 0.00013458087167615338 3.140789704652947e-05 -0.0013884614147223783 0.0 0.0
0.0 0.0015207084299987315 -0.00037504845958951256 0.00030401827305369074 7.103018653582181e-05 -0.0023400896328107136 0.0 0.0
0.0 0.0023372893090767657 -0.0007468856834389954 0.000606132444540578 0.0001407532388984171 -0.003602061522747602 0.0 0.0
0.0 0.0034087590221087813 -0.0012398634873265104 0.001018980389752009 0.00022088309757450095 -0.005021074351861264 0.0 0.0
0.0 0.004707766576158148 -0.0018704272706551717 0.0015734832254309886 0.0002969440452241812 -0.006600853903053483 0.0 0.0
0.0 0.006221122316938518 -0.0026121013846209986 0.002247470211879038 0.000364631172741959 -0.00831289922769608 0.0 0.0
0.0 0.007823083612582937 -0.0033735304485493175 0.0029487810518051298 0.00042474939674418707 -0.010150037739010562 0.0 0.0
0.0 0.009402970589558784 -0.003949080074739061 0.00347153109984941 0.0004775489748896463 -0.012075138013262564 0.0 0.0
0.0 0.010656953472122394 -0.004012442430176393 0.0034915217716974204 0.0005209206584789732 -0.014075905616397093 0.0 0.0
0.0 0.011440036725344717 -0.0032845165812907125 0.002735011710406827 0.0005495048708838847 -0.016199033630833148 0.0 0.0
0.0 0.011714122159471901 -0.0018087117712777185 0.001304451594779165 0.0005042601764985537 -0.01806013919430311 0.0 0.0
0.0 0.011382568491179445 0.0026512972435274442 -0.0027281649862030094 7.686774267556476e-05 -0.01676358364375174 0.0 0.0
0.0 0.01138256849118498 0.002651297243527108 -0.002728164986203042 7.686774267593637e-05 0.01676358364376405 0.0 0.0
0.0 0.011714122159474915 -0.0018087117712778003 0.0013044515947791707 0.0005042601764986281 0.01806013919431388 0.0 0.0
0.0 0.01144003672534018 -0.0032845165812891144 0.002735011710405566 0.0005495048708835473 0.016199033630832693 0.0 0.0
0.0 0.010656953472112474 -0.0040124424301713636 0.0034915217716928112 0.0005209206584785489 0.01407590561638871 0.0 0.0
0.0 0.009402970589547005 -0.003949080074732752 0.003471531099843414 0.00047754897488933446 0.012075138013248901 0.0 0.0
0.0 0.007823083612571696 -0.003373530448543157 0.002948781051799336 0.00042474939674381996 0.010150037738999525 0.0 0.0
0.0 0.006221122316927636 -0.002612101384614444 0.0022474702118730626 0.0003646311727413794 0.008312899227687073 0.0 0.0
0.0 0.0047077665761500655 -0.0018704272706506905 0.001573483225427017 0.0002969440452236725 0.00660085390304585 0.0 0.0
0.0 0.0034087590220997343 -0.0012398634873218677 0.0010189803897480455 0.0002208830975738218 0.005021074351852805 0.0 0.0
0.0 0.002337289309067167 -0.0007468856834346106 0.0006061324445369755 0.00014075323889763567 0.0036020615227361453 0.0 0.0
0.0 0.0015207084299912782 -0.0003750484595868729 0.0003040182730514534 7.103018653541933e-05 0.0023400896328011535 0.0 0.0
0.0 0.0008608060692447388 -0.0001659887687218687 0.0001345808716754769 3.140789704639187e-05 0.0013884614147187681 0.0 0.0
0.0 0.0004893082672451297 -6.74520826965573e-05 5.449223156356315e-05 1.2959851132994129e-05 0.0007438066497636895 0.0 0.0
0.0 0.00023291046184837445 -2.6795877144851205e-05 2.1664256463577745e-05 5.131620681273453e-06 0.00036705525057973256 0.0 0.0
0.0 9.273931086460772e-05 -8.247690688029244e-06 6.78676294933966e-06 1.4609277386895936e-06 0.00012482238208206246 0.0 0.0
0.0 2.1865779808502366e-05 -1.73965963160465e-06 1.5098215686474508e-06 2.2983806295719557e-07 2.521226400628902e-05 0.0 0.0
0.0 4.866799487747239e-06 -4.830465365277627e-07 4.2098925249479313e-07 6.205728403297001e-08 5.67146780677124e-06 0.0 0.0
0.0 2.9424610409232696e-06 -1.6096798196801313e-07 1.3518184661727645e-07 2.5786135350737345e-08 1.83264390298469e-06 0.0 0.0
0.0 2.1318577215634253e-06 -8.297365899168352e-09 1.0198555889620776e-08 -1.9011899904475224e-09 -9.545656862980031e-09 0.0 0.0
0.0 4.987461365282861e-06 1.4575405021774182e-06 -2.1060631678987637e-06 6.485226657213483e-07 3.0141510171088166e-06 0.0 0.0
0.0 5.791226492451869e-07 -3.285152939261594e-08 4.863961923435166e-08 -1.578808984173702e-08 8.324711323925464e-08 0.0 0.0
0.0 9.682616590428656e-07 -9.54137996343203e-09 9.964734552262434e-09 -4.23354588831943e-10 -1.5476746001661037e-07 0.0 0.0
0.0 3.7747816349463915e-06 -3.6255297885122595e-07 2.9909751970258336e-07 6.345545914863835e-08 -2.7503997538167e-06 0.0 0.0
0.0 8.038569684969633e-06 -6.671748052549186e-07 5.795047404026264e-07 8.767006485230574e-08 -4.68921199351684e-06 0.0 0.0
0.0 2.807658728211936e-05 -5.773326104564564e-06 4.809531090898664e-06 9.637950136659051e-07 -3.4902601828215144e-05 0.0 0.0
0.0 0.00010248273180013922 -2.563416710160674e-05 2.0720188080890016e-05 4.9139790207166996e-06 -0.00013631987465846464 0.0 0.0
0.0 0.00029558432624566963 -9.452749728827653e-05 7.614347106500217e-05 1.8384026223274317e-05 -0.0004120386205141682 0.0 0.0
0.0 0.0007893953768910683 -0.0003630571166477751 0.00029396005849248496 6.909705815529013e-05 -0.0011410289448930255 0.0 0.0
0.0 0.0019541179688220517 -0.0011045743946860671 0.0009173900532671311 0.0001871843414189359 -0.0024421821142655013 0.0 0.0
0.0 0.0037212869683259852 -0.002391518519212834 0.0020560246282126334 0.0003354938910002009 -0.004126606134095034 0.0 0.0
0.0 0.0059102150132806 -0.004066445949310591 0.0036058390183593995 0.00046060693095118974 -0.005996370228026409 0.0 0.0
0.0 0.008464126301234356 -0.0059809583600770955 0.005431768977617647 0.0005491893824594524 -0.007903727330892344 0.0 0.0
0.0 0.011250346042136553 -0.008125813676035792 0.007508269275661502 0.0006175444003742871 -0.009829169351328949 0.0 0.0
0.0 0.014338626605644233 -0.010513307321490067 0.009838547378054435 0.0006747599434356369 -0.011753970079748079 0.0 0.0
0.0 0.017667288456453413 -0.01306983053727832 0.012341878044520742 0.0007279524927575781 -0.013753729947665968 0.0 0.0
0.0 0.020999253396458296 -0.01555721866405913 0.014778192439273214 0.0007790262247859118 -0.015916826212043676 0.0 0.0
0.0 0.023955132800763165 -0.017558337590981632 0.01673461188139832 0.0008237257095833176 -0.018312810971136347 0.0 0.0
0.0 0.025927138834092183 -0.01854136418047618 0.017686833347237925 0.0008545308332382629 -0.020849569828419578 0.0 0.0
0.0 0.025339669037011972 -0.01746775565340776 0.0165181110409212 0.0009496446124865464 -0.021882116524389605 0.0 0.0
0.0 0.019787753663835967 -0.01184375352580852 0.010810628257022144 0.0010331252687863714 -0.019297886125942014 0.0 0.0
0.0 0.019787753663843652 -0.011843753525809029 0.010810628257022184 0.0010331252687868458 0.01929788612596826 0.0 0.0
0.0 0.02533966903701811 -0.017467755653405744 0.016518111040919006 0.0009496446124867261 0.02188211652442418 0.0 0.0
0.0 0.025927138834085824 -0.018541364180466296 0.017686833347228065 0.0008545308332382165 0.020849569828440072 0.0 0.0
0.0 0.02395513280074421 -0.01755833759096524 0.016734611881382214 0.0008237257095830285 0.018312810971133006 0.0 0.0
0.0 0.020999253396433278 -0.015557218664039266 0.014778192439253468 0.0007790262247858043 0.015916826212029164 0.0 0.0
0.0 0.017667288456433953 -0.01306983053726314 0.012341878044505853 0.0007279524927572851 0.01375372994765354 0.0 0.0
0.0 0.01433862660562589 -0.010513307321475606 0.009838547378040387 0.0006747599434352174 0.011753970079737493 0.0 0.0
0.0 0.011250346042117134 -0.008125813676019658 0.007508269275645566 0.0006175444003740896 0.00982916935131971 0.0 0.0
0.0 0.008464126301213027 -0.0059809583600611066 0.00543176897760225 0.000549189382458854 0.007903727330876787 0.0 0.0
0.0 0.0059102150132608385 -0.004066445949296674 0.003605839018346371 0.00046060693095030395 0.005996370228009187 0.0 0.0
0.0 0.003721286968308741 -0.002391518519201134 0.0020560246282019575 0.0003354938909991759 0.004126606134078545 0.0 0.0
0.0 0.001954117968814621 -0.0011045743946809174 0.0009173900532626796 0.00018718434141823826 0.0024421821142582845 0.0 0.0
0.0 0.0007893953768875548 -0.00036305711664585917 0.00029396005849092923 6.909705815493007e-05 0.001141028944888978 0.0 0.0
0.0 0.000295584326243847 -9.45274972879088e-05 7.614347106472776e-05 1.8384026223181032e-05 0.0004120386205128329 0.0 0.0
0.0 0.00010248273179823117 -2.5634167101392137e-05 2.0720188080714433e-05 4.913979020677677e-06 0.00013631987465734916 0.0 0.0
0.0 2.8076587281245397e-05 -5.7733261045388215e-06 4.809531090879415e-06 9.63795013659391e-07 3.4902601828062455e-05 0.0 0.0
0.0 8.038569684756293e-06 -6.671748053635012e-07 5.795047404941722e-07 8.767006486933215e-08 4.689211994220642e-06 0.0 0.0
0.0 3.7747816344222306e-06 -3.6255297896914596e-07 2.9909751979916354e-07 6.345545916998226e-08 2.750399754722936e-06 0.0 0.0
0.0 9.682616586506968e-07 -9.541379983509871e-09 9.964734548579752e-09 -4.233545650695338e-10 1.5476746059657933e-07 0.0 0.0
0.0 5.791226488939735e-07 -3.285152937202806e-08 4.863961920387383e-08 -1.57880898318369e-08 -8.324711318699175e-08 0.0 0.0
0.0 0.0 0.0 0.0 0.0 0.0 0.0 0.0
0.0 1.2508586812791678e-06 1.7693331314728913e-08 -8.022362203851962e-09 -9.670969110877117e-09 2.5436291706895875e-07 0.0 0.0
0.0 3.5750953042014212e-06 -2.788737601082866e-08 2.339977280088248e-08 4.487603209942459e-09 -1.103984051317534e-07 0.0 0.0
0.0 1.0283431315694511e-05 -8.238622489726745e-07 6.697931113929682e-07 1.540691375797144e-07 -3.41052432163394e-06 0.0 0.0
0.0 3.5599955017611226e-05 -1.0738521846798082e-05 8.746358269679193e-06 1.992163577118901e-06 -3.913980777964802e-05 0.0 0.0
0.0 0.0001357685647452602 -5.418428522543186e-05 4.3692096749567695e-05 1.0492188475864126e-05 -0.0001654665540850065 0.0 0.0
0.0 0.0005432031148190649 -0.0002949989476369369 0.00023888555956703416 5.611338806990282e-05 -0.0006767294062780968 0.0 0.0
0.0 0.0017331952435320286 -0.0011470816069728996 0.0009542363120922837 0.00019284529488061618 -0.0019082889675441372 0.0 0.0
0.0 0.003962681126514819 -0.002837283970914632 0.0024595612446130354 0.0003777227263015956 -0.003722195166861972 0.0 0.0
0.0 0.006892188860707581 -0.005247108782582351 0.004714750925275832 0.0005323578573065183 -0.005918749934200081 0.0 0.0
0.0 0.010532702999462778 -0.008131408708123967 0.007496392726540733 0.0006350159815832362 -0.008257314130645746 0.0 0.0
0.0 0.014464296782137735 -0.011375503309580277 0.01066757704886142 0.0007079262607188618 -0.010536101462209844 0.0 0.0
0.0 0.018838042267055315 -0.014983261542971596 0.014215818790876838 0.0007674427520947578 -0.01274033313492641 0.0 0.0
0.0 0.023719230691329606 -0.019004645390076458 0.01818183932412095 0.0008228060659555023 -0.014953168168450506 0.0 0.0
0.0 0.02912183692210937 -0.023392744051399378 0.022512316411469335 0.0008804276399300318 -0.01736283916676115 0.0 0.0
0.0 0.03470335323027034 -0.02788827771415439 0.026947436433506593 0.0009408412806477737 -0.020234994210317533 0.0 0.0
0.0 0.04002598296630123 -0.03196798568094954 0.030968407068101993 0.000999578612847528 -0.02375430104537323 0.0 0.0
0.0 0.043713238412096206 -0.03471596406344491 0.03364161392305392 0.0010743501403909996 -0.027286767504809357 0.0 0.0
0.0 0.0439194662089578 -0.03440285086028954 0.03323414482166874 0.001168706038620786 -0.029041058494127112 0.0 0.0
0.0 0.035966475529748645 -0.02766529452883535 0.026285244788879426 0.001380049739955918 -0.025280130245151564 0.0 0.0
0.0 0.035966475529755855 -0.027665294528834924 0.02628524478887891 0.0013800497399560144 0.025280130245186154 0.0 0.0
0.0 0.0439194662089608 -0.03440285086028399 0.03323414482166344 0.0011687060386205298 0.029041058494170838 0.0 0.0
0.0 0.04371323841208738 -0.03471596406343151 0.033641613923040936 0.0010743501403905433 0.02728676750483855 0.0 0.0
0.0 0.04002598296627646 -0.03196798568092663 0.030968407068079344 0.0009995786128473147 0.023754301045376215 0.0 0.0
0.0 0.03470335323024188 -0.027888277714130306 0.026947436433483206 0.0009408412806471073 0.020234994210306 0.0 0.0
0.0 0.029121836922079 -0.023392744051374204 0.022512316411444425 0.0008804276399297639 0.017362839166747808 0.0 0.0
0.0 0.023719230691300136 -0.01900464539005243 0.018181839324096897 0.0008228060659555281 0.014953168168435279 0.0 0.0
0.0 0.01883804226702559 -0.014983261542946158 0.014215818790851847 0.0007674427520943055 0.01274033313491544 0.0 0.0
0.0 0.014464296782108053 -0.01137550330955613 0.010667577048837798 0.0007079262607183291 0.010536101462192774 0.0 0.0
0.0 0.01053270299943441 -0.00813140870810172 0.007496392726519101 0.0006350159815826167 0.008257314130625412 0.0 0.0
0.0 0.006892188860681063 -0.005247108782562355 0.004714750925256471 0.0005323578573058851 0.005918749934179217 0.0 0.0
0.0 0.003962681126498519 -0.0028372839709019837 0.0024595612446013304 0.0003777227263006526 0.0037221951668497295 0.0 0.0
0.0 0.001733195243522535 -0.0011470816069660734 0.0009542363120864938 0.00019284529487957977 0.0019082889675358658 0.0 0.0
0.0 0.0005432031148147606 -0.00029499894763495524 0.00023888555956542518 5.611338806953e-05 0.0006767294062740404 0.0 0.0
0.0 0.0001357685647442358 -5.418428522556692e-05 4.3692096749685406e-05 1.0492188475881465e-05 0.00016546655408525914 0.0 0.0
0.0 3.55999550164628e-05 -1.0738521846801846e-05 8.746358269681233e-06 1.9921635771205773e-06 3.913980777965891e-05 0.0 0.0
0.0 1.0283431315060625e-05 -8.238622491221509e-07 6.697931115165384e-07 1.5406913760560042e-07 3.410524322288242e-06 0.0 0.0
0.0 3.5750953036207636e-06 -2.788737611111462e-08 2.3399772881000945e-08 4.4876032301201205e-09 1.1039840568897614e-07 0.0 0.0
0.0 1.2508586809248778e-06 1.7693331309732382e-08 -8.022362201433076e-09 -9.67096910830339e-09 -2.543629169952669e-07 0.0 0.0
0.0 0.0 0.0 0.0 0.0 0.0 0.0 0.0
0.0 0.0 0.0 0.0 0.0 0.0 0.0 0.0
0.0 1.142611525848342e-07 2.288734892542505e-09 -1.5997618405167106e-09 -6.88973052025528e-10 2.247828464461184e-08 0.0 0.0
0.0 2.115447949480392e-06 8.159124240405588e-08 -6.51745020208827e-08 -1.641674038317802e-08 3.785822611167844e-07 0.0 0.0
0.0 1.0117175045479727e-05 -2.0059454773061734e-06 1.6610599698505143e-06 3.44885507455655e-07 -6.652082151562785e-06 0.0 0.0
0.0 4.477082591040107e-05 -1.6775385560164515e-05 1.3651402748425388e-05 3.123982811739159e-06 -4.308219034781319e-05 0.0 0.0
0.0 0.00023462253285645203 -0.0001326546817355904 0.00010692882260563105 2.5725859129959355e-05 -0.0002606938726369844 0.0 0.0
0.0 0.0010694952920700701 -0.0007391898020611723 0.0006078058704465747 0.00013138393161459767 -0.0010613384914535532 0.0 0.0
0.0 0.0030584161221929303 -0.002315558409337623 0.001984206182661508 0.00033135222667611433 -0.002578841067400742 0.0 0.0
0.0 0.006262001032675266 -0.004931753224090398 0.004410916060845081 0.0005208371632453165 -0.00468327828508024 0.0 0.0
0.0 0.010395728529795551 -0.008382713494207503 0.00773167978906888 0.0006510337051386229 -0.007178347720293568 0.0 0.0
0.0 0.01525098892888531 -0.012429455281301181 0.011691610269885976 0.0007378450114152038 -0.009748829214480035 0.0 0.0
0.0 0.020693851905643428 -0.016975804181661513 0.016167927015230725 0.0008078771664307856 -0.012200382305368844 0.0 0.0
0.0 0.026755015439168087 -0.02204589557570817 0.021176017938227664 0.0008698776374804948 -0.014561214809972944 0.0 0.0
0.0 0.03346203459812615 -0.02771607374047725 0.026785581868266926 0.0009304918722103318 -0.016949379684891772 0.0 0.0
0.0 0.04092156356009146 -0.03397087594164354 0.032976369990009954 0.0009945059516335603 -0.019615885150230432 0.0 0.0
0.0 0.048859530475807364 -0.04054390154128506 0.03947748707590709 0.0010664144653779622 -0.022977978172378635 0.0 0.0
0.0 0.05642136358091217 -0.046720259056700145 0.04557075736634964 0.001149501690350494 -0.027224644066384498 0.0 0.0
0.0 0.06201469377070984 -0.051095588674494596 0.049847672819788406 0.0012479158547061228 -0.03159930511161313 0.0 0.0
0.0 0.06254040415885741 -0.05122702078837726 0.0498414991657173 0.0013855216226599308 -0.03381688778104134 0.0 0.0
0.0 0.05269604604611633 -0.04281465593462886 0.04121467787276131 0.00159997806186756 -0.030420749602717245 0.0 0.0
0.0 0.052696046046120215 -0.04281465593462605 0.041214677872758364 0.0015999780618676665 0.03042074960275496 0.0 0.0
0.0 0.06254040415885573 -0.051227020788368306 0.049841499165708666 0.0013855216226596402 0.03381688778108931 0.0 0.0
0.0 0.062014693770694795 -0.05109558867447551 0.04984767281977014 0.0012479158547053395 0.03159930511164907 0.0 0.0
0.0 0.05642136358088019 -0.04672025905667017 0.0455707573663208 0.0011495016903493673 0.027224644066391288 0.0 0.0
0.0 0.048859530475767056 -0.04054390154125029 0.03947748707587265 0.0010664144653776306 0.022977978172368574 0.0 0.0
0.0 0.04092156356005 -0.033970875941608455 0.032976369989974996 0.0009945059516334434 0.01961588515021631 0.0 0.0
0.0 0.033462034598088844 -0.027716073740445865 0.02678558186823612 0.0009304918722097479 0.016949379684876212 0.0 0.0
0.0 0.026755015439130347 -0.02204589557567585 0.021176017938195627 0.0008698776374802225 0.01456121480996142 0.0 0.0
0.0 0.020693851905605576 -0.016975804181629618 0.016167927015199358 0.0008078771664302509 0.012200382305351257 0.0 0.0
0.0 0.015250988928847777 -0.01242945528127063 0.011691610269856026 0.0007378450114146004 0.009748829214456961 0.0 0.0
0.0 0.010395728529764071 -0.008382713494182351 0.007731679789044451 0.0006510337051378961 0.007178347720271659 0.0 0.0
0.0 0.006262001032652309 -0.004931753224072072 0.004410916060827788 0.0005208371632442855 0.004683278285066027 0.0 0.0
0.0 0.0030584161221768455 -0.0023155584093250497 0.0019842061826502045 0.0003313522266748447 0.002578841067389277 0.0 0.0
0.0 0.0010694952920621034 -0.000739189802055809 0.0006078058704420167 0.00013138393161379186 0.0010613384914467993 0.0 0.0
0.0 0.00023462253285351856 -0.00013265468173447297 0.00010692882260471284 2.5725859129760174e-05 0.0002606938726349296 0.0 0.0
0.0 4.477082590926445e-05 -1.6775385560105206e-05 1.3651402748374407e-05 3.123982811730747e-06 4.3082190347671014e-05 0.0 0.0
0.0 1.0117175044830922e-05 -2.005945477479654e-06 1.6610599699914428e-06 3.4488550748820297e-07 6.652082152125821e-06 0.0 0.0
0.0 2.1154479489061414e-06 8.15912422926667e-08 -6.517450193254839e-08 -1.641674036012021e-08 -3.7858226063357777e-07 0.0 0.0
0.0 1.1426115247963744e-07 2.288734890412389e-09 -1.5997618390303778e-09 -6.889730513817681e-10 -2.247828462369251e-08 0.0 0.0
0.0 0.0 0.0 0.0 0.0 0.0 0.0 0.0
0.0 0.0 0.0 0.0 0.0 0.0 0.0 0.0
0.0 0.0 0.0 0.0 0.0 0.0 0.0 0.0
0.0 6.301117771691601e-07 3.177133557320747e-08 -2.5610055499987776e-08 -6.161280073216576e-09 1.139376708674144e-07 0.0 0.0
0.0 9.685909197145295e-06 -4.126937196245351e-07 3.304140360404154e-07 8.227968358413068e-08 -8.733340674136398e-07 0.0 0.0
0.0 7.054594420864216e-05 -2.7929407487562257e-05 2.2535147220209832e-05 5.394260267352415e-06 -5.0112100746324e-05 0.0 0.0
0.0 0.00045233005699300014 -0.00031513236187115406 0.000255459139809877 5.9673222061277016e-05 -0.0004154601619696146 0.0 0.0
0.0 0.0018494972219467146 -0.0014201908466148353 0.0011904941046863235 0.00022969674192851102 -0.0013893501891490236 0.0 0.0
0.0 0.00462139408258426 -0.0037352366408232186 0.0032840504625976973 0.00045118617822552067 -0.0030271443135259065 0.0 0.0
0.0 0.008729807330296317 -0.0072268096384504425 0.006607822677303404 0.0006189869611470378 -0.005267074316912716 0.0 0.0
0.0 0.01397145885533313 -0.011658934739926111 0.010929812659965232 0.0007291220799608809 -0.007825358204379542 0.0 0.0
0.0 0.020113465486473518 -0.01684165345232917 0.016028824598291948 0.0008128288540372229 -0.010410972439019648 0.0 0.0
0.0 0.02703618350284215 -0.02269197932682069 0.021805542408043856 0.0008864369187768395 -0.012898170303140295 0.0 0.0
0.0 0.034742730486531426 -0.02923307891220127 0.028278037963445152 0.0009550409487560907 -0.015307001105140763 0.0 0.0
0.0 0.043348958118209935 -0.03655395938406353 0.03553225365422901 0.0010217057298345055 -0.01772974683382133 0.0 0.0
0.0 0.052955954873304074 -0.04468317520027694 0.04359033773181195 0.001092837468464988 -0.020433171312498267 0.0 0.0
0.0 0.06304791952000031 -0.05333853387875308 0.05216065115223037 0.0011778827265226928 -0.023865437446012158 0.0 0.0
0.0 0.07302675884540863 -0.061575612622468356 0.06029244768292614 0.0012831649395422143 -0.028295780518012317 0.0 0.0
0.0 0.08031631674846215 -0.06746886216335043 0.06605566897644471 0.0014131931869057232 -0.033091258683887834 0.0 0.0
0.0 0.08101708557465864 -0.06779169675072592 0.06621580833333307 0.00157588841739282 -0.03612338073184446 0.0 0.0
0.0 0.06952739896473144 -0.05768048410561248 0.05590846782141015 0.0017720162842023387 -0.034976717146587885 0.0 0.0
0.0 0.06952739896473152 -0.05768048410560689 0.055908467821404045 0.0017720162842028322 0.03497671714662825 0.0 0.0
0.0 0.08101708557464671 -0.06779169675070915 0.06621580833331622 0.0015758884173928949 0.036123380731893195 0.0 0.0
0.0 0.08031631674843492 -0.06746886216332218 0.06605566897641629 0.0014131931869058828 0.03309125868392439 0.0 0.0
0.0 0.0730267588453672 -0.06157561262243098 0.060292447682888425 0.001283164939542517 0.02829578051802046 0.0 0.0
0.0 0.06304791951995453 -0.053338533878713276 0.05216065115219086 0.0011778827265223912 0.02386543744600439 0.0 0.0
0.0 0.0529559548732535 -0.04468317520023342 0.0435903377317686 0.0010928374684648515 0.020433171312486332 0.0 0.0
0.0 0.043348958118163056 -0.03655395938402328 0.03553225365418927 0.0010217057298340163 0.01772974683380657 0.0 0.0
0.0 0.03474273048648472 -0.029233078912160797 0.028278037963405195 0.0009550409487555918 0.015307001105128896 0.0 0.0
0.0 0.02703618350279343 -0.02269197932677918 0.0218055424080027 0.0008864369187764728 0.012898170303121851 0.0 0.0
0.0 0.020113465486427236 -0.016841653452290665 0.016028824598253773 0.0008128288540368862 0.010410972438995667 0.0 0.0
0.0 0.013971458855293302 -0.01165893473989302 0.010929812659932607 0.0007291220799604204 0.007825358204355804 0.0 0.0
0.0 0.008729807330267689 -0.007226809638426666 0.006607822677280225 0.000618986961146445 0.0052670743168973955 0.0 0.0
0.0 0.004621394082565914 -0.0037352366408082 0.0032840504625836443 0.00045118617822455785 0.0030271443135156343 0.0 0.0
0.0 0.0018494972219361334 -0.001420190846606819 0.0011904941046794258 0.000229696741927393 0.0013893501891422168 0.0 0.0
0.0 0.0004523300569884109 -0.00031513236186850367 0.0002554591398077024 5.96732220608013e-05 0.0004154601619663729 0.0 0.0
0.0 7.054594420740574e-05 -2.792940748750653e-05 2.2535147220153372e-05 5.394260267353058e-06 5.011210074618456e-05 0.0 0.0
0.0 9.685909196647189e-06 -4.1269371983067194e-07 3.3041403620693664e-07 8.227968362374623e-08 8.733340679213314e-07 0.0 0.0
0.0 6.301117768796378e-07 3.177133555832444e-08 -2.5610055487985994e-08 -6.161280070339225e-09 -1.1393767081387647e-07 0.0 0.0
0.0 0.0 0.0 0.0 0.0 0.0 0.0 0.0
0.0 0.0 0.0 0.0 0.0 0.0 0.0 0.0
0.0 0.0 0.0 0.0 0.0 0.0 0.0 0.0
0.0 0.0 0.0 0.0 0.0 0.0 0.0 0.0
0.0 9.159772724021529e-07 5.630253744311479e-08 -4.536700834069255e-08 -1.0935529102421052e-08 1.5681455061216043e-07 0.0 0.0
0.0 7.012667458666548e-06 -1.9893498068653236e-06 1.597827676970832e-06 3.915221298945328e-07 -3.656114843876403e-06 0.0 0.0
0.0 0.00011554998922584954 -6.900376947109699e-05 5.542037819039505e-05 1.358339128070197e-05 -8.90498347455299e-05 0.0 0.0
0.0 0.0008329823331172777 -0.0006293836997374451 0.0005147650472453012 0.00011461865249214422 -0.0005655013577916424 0.0 0.0
0.0 0.0028638091177052433 -0.002292769840626422 0.0019618186111693726 0.00033095122945704924 -0.0015815348441582005 0.0 0.0
0.0 0.00628453275946179 -0.0053305861836303 0.004785824244095762 0.000544761939534539 -0.0032301486066034207 0.0 0.0
0.0 0.011290779824292788 -0.009627612267359496 0.008941100469560415 0.0006865117977990841 -0.005398042915943911 0.0 0.0
0.0 0.017622879787558866 -0.015006834030693255 0.014218803802230735 0.0007880302284625268 -0.007822354834403411 0.0 0.0
0.0 0.0250494472070766 -0.021319922794489004 0.020445681546180216 0.0008742412483087731 -0.010299561874765798 0.0 0.0
0.0 0.03343402929497932 -0.028480764530270857 0.027526563937218605 0.0009542005930522324 -0.012684678366986873 0.0 0.0
0.0 0.042863851503630084 -0.0365030085598572 0.035472287035521875 0.0010307215243353278 -0.015008853291913184 0.0 0.0
0.0 0.053243125637879675 -0.04547447497431714 0.04436980750350721 0.0011046674708099337 -0.01736217291975105 0.0 0.0
0.0 0.0648644795628825 -0.05543773645686168 0.05425533585718008 0.0011824005996815988 -0.01986526189870897 0.0 0.0
0.0 0.07742286948023104 -0.06610600146827053 0.06482666136674205 0.0012793401015284713 -0.022890313373252542 0.0 0.0
0.0 0.08933273671250043 -0.07634768838084285 0.07494105822514815 0.0014066301556946432 -0.026959521160239405 0.0 0.0
0.0 0.09810647973534584 -0.08370461094428958 0.08213926914693709 0.0015653417973524322 -0.03191789165952287 0.0 0.0
0.0 0.0992048160745694 -0.08424549096130825 0.08250215659009433 0.0017433343712138817 -0.03646559605969745 0.0 0.0
0.0 0.08674095189995323 -0.07266747786510042 0.0707393767752334 0.001928101089866977 -0.039268981539326994 0.0 0.0
0.0 0.08674095189995154 -0.07266747786509356 0.07073937677522675 0.001928101089866769 0.039268981539367455 0.0 0.0
0.0 0.09920481607455248 -0.08424549096128814 0.08250215659007441 0.001743334371213673 0.03646559605974665 0.0 0.0
0.0 0.0981064797353145 -0.08370461094425828 0.08213926914690656 0.0015653417973516808 0.031917891659559765 0.0 0.0
0.0 0.08933273671245182 -0.07634768838079917 0.07494105822510493 0.0014066301556941957 0.02695952116024942 0.0 0.0
0.0 0.07742286948017486 -0.0661060014682215 0.06482666136669378 0.0012793401015276748 0.022890313373246592 0.0 0.0
0.0 0.06486447956282493 -0.055437736456811486 0.0542553358571307 0.0011824005996807778 0.019865261898700942 0.0 0.0
0.0 0.05324312563782137 -0.04547447497426663 0.0443698075034572 0.0011046674708094085 0.017362172919739002 0.0 0.0
0.0 0.042863851503570694 -0.03650300855980555 0.03547228703547088 0.0010307215243346688 0.015008853291899285 0.0 0.0
0.0 0.033434029294917955 -0.028480764530218094 0.02752656393716589 0.0009542005930521975 0.01268467836696874 0.0 0.0
0.0 0.025049447207021746 -0.021319922794442576 0.02044568154613406 0.0008742412483085217 0.010299561874742198 0.0 0.0
0.0 0.01762287978751281 -0.015006834030654314 0.014218803802192384 0.0007880302284619193 0.00782235483438142 0.0 0.0
0.0 0.011290779824258954 -0.009627612267330445 0.008941100469532096 0.0006865117977983484 0.005398042915929192 0.0 0.0
0.0 0.006284532759438828 -0.005330586183610599 0.0047858242440771935 0.0005447619395334034 0.0032301486065928068 0.0 0.0
0.0 0.00286380911768943 -0.002292769840613518 0.001961818611157833 0.00033095122945568574 0.0015815348441501778 0.0 0.0
0.0 0.0008329823331091224 -0.0006293836997315252 0.0005147650472403272 0.00011461865249119772 0.0005655013577865406 0.0 0.0
0.0 0.00011554998922396644 -6.900376947053172e-05 5.5420378189916674e-05 1.3583391280615051e-05 8.90498347447501e-05 0.0 0.0
0.0 7.0126674585353935e-06 -1.989349807186465e-06 1.5978276772254799e-06 3.915221299609626e-07 3.656114844458306e-06 0.0 0.0
0.0 9.159772720464821e-07 5.630253742091469e-08 -4.5367008322703315e-08 -1.0935529098212496e-08 -1.5681455054918204e-07 0.0 0.0
0.0 0.0 0.0 0.0 0.0 0.0 0.0 0.0
0.0 0.0 0.0 0.0 0.0 0.0 0.0 0.0
0.0 0.0 0.0 0.0 0.0 0.0 0.0 0.0
0.0 0.0 0.0 0.0 0.0 0.0 0.0 0.0
0.0 0.0 0.0 0.0 0.0 0.0 0.0 0.0
0.0 6.25432002704115e-06 -2.4112396823679215e-06 1.9096013190770407e-06 5.016383632909002e-07 -3.2457833657914727e-06 0.0 0.0
0.0 0.00021662532494698275 -0.00015019929228236284 0.00012078343960642801 2.9415852675934876e-05 -0.00013549824353681868 0.0 0.0
0.0 0.0013811892853171396 -0.0010829201921036128 0.0008978181752080875 0.0001851020168955259 -0.0006601392510303604 0.0 0.0
0.0 0.003850343728590284 -0.0033371396703752673 0.0029123522912867707 0.00042478737908849815 -0.0016419546965191776 0.0 0.0
0.0 0.008056940287331367 -0.0070199329470451615 0.006408105978590154 0.0006118269684550075 -0.0031328118837197043 0.0 0.0
0.0 0.013959934703575313 -0.012075357463947917 0.011338481878070593 0.0007368755858773188 -0.005039047146240147 0.0 0.0
0.0 0.021328457109225762 -0.018393152016395582 0.01755687238132076 0.000836279635074835 -0.007210684387689804 0.0 0.0
0.0 0.030013402125713594 -0.025831860717005106 0.0249047605513062 0.0009271001656989022 -0.009431767023218022 0.0 0.0
0.0 0.039896974613865294 -0.03430910783397498 0.03329440825373456 0.0010146995802403974 -0.011576937123751506 0.0 0.0
0.0 0.050960880309768405 -0.04382793956644319 0.04272818883043658 0.0010997507360065882 -0.013695979770847171 0.0 0.0
0.0 0.06331044282942427 -0.05444242303216727 0.05325907830147359 0.0011833447306936772 -0.015833173747195155 0.0 0.0
0.0 0.0769166483499821 -0.06616354971838458 0.06489496408848583 0.0012685856298987467 -0.01797647904244604 0.0 0.0
0.0 0.09124493044819547 -0.07870248513199905 0.07733069788440187 0.001371787247597141 -0.020244098224366427 0.0 0.0
0.0 0.10534611924813787 -0.0908433939115065 0.08932625460983906 0.0015171393016674374 -0.023298366023560817 0.0 0.0
0.0 0.11584390195152894 -0.09973428224177441 0.09803348374353792 0.0017007984982364806 -0.028099275963189743 0.0 0.0
0.0 0.1176282077490014 -0.100797736349463 0.09889979452857393 0.0018979418208890327 -0.03490191928788102 0.0 0.0
0.0 0.10441665330403739 -0.08813134955914609 0.0860495069865776 0.002081842572568418 -0.04331036522349688 0.0 0.0
0.0 0.10441665330403299 -0.08813134955913768 0.08604950698656884 0.0020818425725688673 0.04331036522353568 0.0 0.0
0.0 0.11762820774897881 -0.10079773634943934 0.09889979452855044 0.0018979418208889074 0.034901919287925694 0.0 0.0
0.0 0.11584390195148649 -0.09973428224173514 0.0980334837434986 0.0017007984982364563 0.02809927596322387 0.0 0.0
0.0 0.10534611924807992 -0.0908433939114554 0.08932625460978838 0.001517139301667022 0.023298366023568023 0.0 0.0
0.0 0.09124493044813167 -0.07870248513194333 0.07733069788434682 0.0013717872475964472 0.020244098224364078 0.0 0.0
0.0 0.07691664834991434 -0.06616354971832561 0.06489496408842757 0.0012685856298980515 0.017976479042439132 0.0 0.0
0.0 0.06331044282935469 -0.05444242303210699 0.05325907830141408 0.0011833447306928498 0.015833173747184483 0.0 0.0
0.0 0.05096088030970008 -0.04382793956638394 0.042728188830378 0.001099750736005942 0.013695979770834733 0.0 0.0
0.0 0.03989697461379749 -0.03430910783391598 0.033294408253676265 0.001014699580239757 0.011576937123736947 0.0 0.0
0.0 0.030013402125652268 -0.025831860716952173 0.02490476055125386 0.0009271001656983018 0.009431767023197007 0.0 0.0
0.0 0.02132845710917455 -0.018393152016351496 0.017556872381277143 0.0008362796350743404 0.0072106843876703595 0.0 0.0
0.0 0.013959934703536094 -0.01207535746391372 0.011338481878036877 0.0007368755858768387 0.005039047146227571 0.0 0.0
0.0 0.008056940287302566 -0.007019932947019953 0.0064081059785656945 0.0006118269684542562 0.003132811883709397 0.0 0.0
0.0 0.0038503437285717173 -0.0033371396703592506 0.002912352291271937 0.00042478737908731355 0.0016419546965117996 0.0 0.0
0.0 0.0013811892853076145 -0.0010829201920964523 0.0008978181752018997 0.00018510201689455203 0.0006601392510261426 0.0 0.0
0.0 0.00021662532494447226 -0.00015019929228125676 0.00012078343960551737 2.9415852675739266e-05 0.00013549824353589605 0.0 0.0
0.0 6.254320026791922e-06 -2.411239682765245e-06 1.9096013193859308e-06 5.016383633793267e-07 3.2457833663026825e-06 0.0 0.0
0.0 0.0 0.0 0.0 0.0 0.0 0.0 0.0
0.0 0.0 0.0 0.0 0.0 0.0 0.0 0.0
0.0 0.0 0.0 0.0 0.0 0.0 0.0 0.0
0.0 0.0 0.0 0.0 0.0 0.0 0.0 0.0
0.0 0.0 0.0 0.0 0.0 0.0 0.0 0.0
0.0 0.0 0.0 0.0 0.0 0.0 0.0 0.0
0.0 9.073465387575083e-06 -4.61840214544809e-06 3.67753024820999e-06 9.408718972380884e-07 -4.5091693964961355e-06 0.0 0.0
0.0 0.00041550807250045365 -0.0003054730124640722 0.00024618762560606774 5.928538685800444e-05 -0.0001761356661887261 0.0 0.0
0.0 0.0020323179289334302 -0.001678926979892073 0.0014129695598750407 0.0002659574200170321 -0.0006719658014819487 0.0 0.0
0.0 0.005025292858714307 -0.004474123974619337 0.003972303992218187 0.0005018199824011488 -0.0014820599552147426 0.0 0.0
0.0 0.009944194611205446 -0.008747456057505532 0.00808626885329488 0.0006611872042106528 -0.0026760482630449993 0.0 0.0
0.0 0.01666825749680391 -0.014545645806642972 0.013769028769852289 0.0007766170367906728 -0.004226639336124813 0.0 0.0
0.0 0.02507134611934088 -0.02178791131215437 0.020910770810777454 0.0008771405013769132 -0.006004388068494972 0.0 0.0
0.0 0.03502774264163919 -0.030348455805977337 0.029374495191648992 0.0009739606143283376 -0.007829764378192406 0.0 0.0
0.0 0.04635503290381732 -0.04014855350027763 0.03907928630755261 0.0010692671927249962 -0.00959015765009207 0.0 0.0
0.0 0.0592095961437731 -0.05117475200248356 0.05001100589056823 0.0011637461119152993 -0.011339378281791438 0.0 0.0
0.0 0.07326303617362197 -0.0634340748185371 0.062175783031690544 0.0012582917868465692 -0.013150724895134485 0.0 0.0
0.0 0.08867723934932203 -0.07683350289365123 0.07547916061977639 0.0013543422738748916 -0.014866498874269364 0.0 0.0
0.0 0.10501527200572297 -0.09101032068196319 0.0895490756961706 0.0014612449857925873 -0.01618491934912608 0.0 0.0
0.0 0.1209478708617357 -0.10484175728699627 0.10323628795996903 0.0016054693270272048 -0.01760364177150927 0.0 0.0
0.0 0.13331747767647006 -0.11546845741662216 0.11365189651831804 0.0018165608983040532 -0.021604444903539237 0.0 0.0
0.0 0.13640223733377843 -0.11763933341718161 0.1155958456478794 0.002043487769302233 -0.031022503321944447 0.0 0.0
0.0 0.12322135469340828 -0.10447622198571282 0.10222990506944034 0.0022463169162724775 -0.046807030555788234 0.0 0.0
0.0 0.12322135469340209 -0.10447622198570401 0.10222990506943155 0.002246316916272526 0.04680703055581875 0.0 0.0
0.0 0.13640223733375187 -0.11763933341715577 0.11559584564785405 0.0020434877693016867 0.031022503321983426 0.0 0.0
0.0 0.1333174776764237 -0.11546845741658004 0.11365189651827697 0.0018165608983030232 0.021604444903569636 0.0 0.0
0.0 0.12094787086166837 -0.1048417572869377 0.1032362879599105 0.0016054693270272464 0.017603641771515365 0.0 0.0
0.0 0.10501527200564904 -0.09101032068189881 0.08954907569610696 0.0014612449857918808 0.016184919349124537 0.0 0.0
0.0 0.08867723934924335 -0.07683350289358254 0.07547916061970883 0.001354342273873727 0.014866498874265973 0.0 0.0
0.0 0.07326303617354196 -0.06343407481846776 0.06217578303162158 0.0012582917868461574 0.013150724895127239 0.0 0.0
0.0 0.059209596143695614 -0.05117475200241629 0.050011005890501475 0.0011637461119148374 0.011339378281781862 0.0 0.0
0.0 0.04635503290374001 -0.04014855350021057 0.039079286307486125 0.0010692671927244382 0.009590157650082523 0.0 0.0
0.0 0.0350277426415715 -0.030348455805918353 0.02937449519159066 0.0009739606143276965 0.007829764378175829 0.0 0.0
0.0 0.02507134611928225 -0.02178791131210341 0.020910770810726932 0.0008771405013764818 0.006004388068478221 0.0 0.0
0.0 0.016668257496758793 -0.01454564580660345 0.013769028769813278 0.0007766170367901767 0.004226639336113866 0.0 0.0
0.0 0.00994419461117263 -0.008747456057476472 0.008086268853266606 0.000661187204209867 0.00267604826303618 0.0 0.0
0.0 0.005025292858694022 -0.004474123974601257 0.003972303992201113 0.000501819982400146 0.001482059955208367 0.0 0.0
0.0 0.0020323179289226086 -0.0016789269798830869 0.0014129695598671746 0.00026595742001591136 0.000671965801478369 0.0 0.0
0.0 0.0004155080724968144 -0.0003054730124618468 0.0002461876256042013 5.9285386857645675e-05 0.00017613566618739085 0.0 0.0
0.0 9.0734653873384e-06 -4.618402145958046e-06 3.6775302486057204e-06 9.408718973523331e-07 4.509169396949183e-06 0.0 0.0
0.0 0.0 0.0 0.0 0.0 0.0 0.0 0.0
0.0 0.0 0.0 0.0 0.0 0.0 0.0 0.0
0.0 0.0 0.0 0.0 0.0 0.0 0.0 0.0
0.0 0.0 0.0 0.0 0.0 0.0 0.0 0.0
0.0 0.0 0.0 0.0 0.0 0.0 0.0 0.0
0.0 0.0 0.0 0.0 0.0 0.0 0.0 0.0
0.0 2.1544521561232787e-05 -1.169693687215915e-05 9.334069362363652e-06 2.362867509795531e-06 -7.254850614691457e-06 0.0 0.0
0.0 0.0007458084446125303 -0.0005611691203868649 0.0004563193663096919 0.00010484975407717311 -0.00018524052847421345 0.0 0.0
0.0 0.002638454216909208 -0.002402267624645426 0.0020527274248938743 0.00034954019975155044 -0.0005483404410538804 0.0 0.0
0.0 0.006321624304686754 -0.0056568521815661115 0.005097464937567204 0.0005593872439989097 -0.00109579393984518 0.0 0.0
0.0 0.01187091562269103 -0.01049477510796391 0.0097952566512636 0.0006995184567003195 -0.001900811915066021 0.0 0.0
0.0 0.019397139889964526 -0.01701168124540344 0.01620307661920115 0.0008086046262022945 -0.0029681077985165586 0.0 0.0
0.0 0.028822508636503645 -0.025164128376600235 0.024251958241036004 0.0009121701355642243 -0.004211928864875813 0.0 0.0
0.0 0.04002951124006832 -0.03484398565455443 0.03382820690379632 0.0010157787507581412 -0.005490106713684199 0.0 0.0
0.0 0.05296887770791437 -0.04597091236727771 0.04485167613322985 0.0011192362340478467 -0.006724101079398365 0.0 0.0
0.0 0.0673121897367299 -0.058515473483355306 0.05729213229177541 0.0012233411915798826 -0.007983062831195717 0.0 0.0
0.0 0.08327898215532274 -0.07240980867188553 0.07108020560703175 0.0013296030648537317 -0.009277239843146202 0.0 0.0
0.0 0.10059797000452791 -0.08742796147197812 0.08598849055781645 0.0014394709141616509 -0.010425898753977564 0.0 0.0
0.0 0.11856768319138963 -0.10303832622537679 0.10148422818991325 0.001554098035463528 -0.01100883946833117 0.0 0.0
0.0 0.13595418316410066 -0.11816656641118667 0.11648158160358031 0.0016849848076064405 -0.01082743115771747 0.0 0.0
0.0 0.1502047388281041 -0.13051660847958127 0.12864361705607938 0.0018729914235018864 -0.012361824816059158 0.0 0.0
0.0 0.15574774112025788 -0.13490395166541747 0.1327129529349475 0.0021909987304698964 -0.023390356286449383 0.0 0.0
0.0 0.14367792611945834 -0.12232083767119213 0.11988173598929455 0.0024391016818975358 -0.049003952067005564 0.0 0.0
0.0 0.14367792611944927 -0.12232083767118185 0.11988173598928481 0.0024391016818970097 0.049003952067027665 0.0 0.0
0.0 0.1557477411202216 -0.1349039516653845 0.13271295293491503 0.0021909987304694224 0.023390356286479314 0.0 0.0
0.0 0.1502047388280458 -0.1305166084795299 0.12864361705602892 0.001872991423500953 0.012361824816080096 0.0 0.0
0.0 0.13595418316402713 -0.11816656641112233 0.11648158160351721 0.001684984807605105 0.01082743115772005 0.0 0.0
0.0 0.11856768319130791 -0.10303832622530536 0.1014842281898434 0.0015540980354619735 0.011008839468329572 0.0 0.0
0.0 0.10059797000444187 -0.08742796147190315 0.08598849055774255 0.00143947091416062 0.010425898753975555 0.0 0.0
0.0 0.08327898215523395 -0.0724098086718087 0.07108020560695515 0.0013296030648535535 0.009277239843141927 0.0 0.0
0.0 0.06731218973664319 -0.05851547348327993 0.057292132291700965 0.001223341191578985 0.007983062831188287 0.0 0.0
0.0 0.05296887770783246 -0.045970912367206004 0.04485167613315938 0.001119236234046611 0.0067241010793922034 0.0 0.0
0.0 0.04002951123999473 -0.034843985654490275 0.0338282069037332 0.0010157787507570585 0.005490106713672907 0.0 0.0
0.0 0.028822508636442812 -0.02516412837654699 0.024251958240983716 0.0009121701355632846 0.004211928864864555 0.0 0.0
0.0 0.019397139889915038 -0.017011681245359584 0.01620307661915802 0.0008086046262015564 0.0029681077985101367 0.0 0.0
0.0 0.011870915622653137 -0.010494775107930317 0.00979525665123065 0.0006995184566996607 0.0019008119150598969 0.0 0.0
0.0 0.006321624304662998 -0.0056568521815446035 0.00509746493754666 0.0005593872439979412 0.0010957939398409133 0.0 0.0
0.0 0.0026384542168956943 -0.0024022676246331343 0.002052727424882773 0.00034954019975036205 0.0005483404410509901 0.0 0.0
0.0 0.0007458084446068581 -0.0005611691203827158 0.00045631936630621144 0.00010484975407650402 0.0001852405284729579 0.0 0.0
0.0 2.1544521560830036e-05 -1.1696936872689231e-05 9.334069362762196e-06 2.362867509926988e-06 7.254850614921157e-06 0.0 0.0
0.0 0.0 0.0 0.0 0.0 0.0 0.0 0.0
0.0 0.0 0.0 0.0 0.0 0.0 0.0 0.0
0.0 0.0 0.0 0.0 0.0 0.0 0.0 0.0
0.0 0.0 0.0 0.0 0.0 0.0 0.0 0.0
0.0 0.0 0.0 0.0 0.0 0.0 0.0 0.0
0.0 0.0 0.0 0.0 0.0 0.0 0.0 0.0
0.0 7.148525237762386e-05 -5.272008961821187e-05 4.167195944933338e-05 1.104813016887863e-05 -1.3812168271585821e-05 0.0 0.0
0.0 0.0012178757080759878 -0.0009195785514199185 0.0007551900517610307 0.0001643884996588873 -0.00011947554631110808 0.0 0.0
0.0 0.00348880768482748 -0.003176466697402917 0.0027549894452430423 0.00042147725215987584 -0.00026190544223636005 0.0 0.0
0.0 0.007664945103301123 -0.006867057204281321 0.006262913239926457 0.0006041439643548609 -0.00048435937451544564 0.0 0.0
0.0 0.013836533101305015 -0.012237639970442606 0.011508450322001616 0.0007291896484409846 -0.0008107673321862096 0.0 0.0
0.0 0.022150142939733598 -0.019447493236941366 0.018612234450465857 0.0008352587864755025 -0.001271908762943994 0.0 0.0
0.0 0.032611036384855165 -0.02849382478608794 0.027551384851955577 0.0009424399341323617 -0.0018320732466014559 0.0 0.0
0.0 0.04514495198993021 -0.03929279594945483 0.03823990403662678 0.001052891912828038 -0.0024158823164511806 0.0 0.0
0.0 0.05936745297200773 -0.05175899833965929 0.05059364149575072 0.0011653568439085413 -0.003000383953849309 0.0 0.0
0.0 0.0754921139611902 -0.06581007230672258 0.06453093975866642 0.0012791325480561537 -0.0035913416682794757 0.0 0.0
0.0 0.0933637256347887 -0.08131549114538426 0.07991874936354493 0.0013967417818392927 -0.004164394666824094 0.0 0.0
0.0 0.11251080175728238 -0.0979278894090138 0.09640727835354558 0.0015206110554682277 -0.0046181076913323245 0.0 0.0
0.0 0.13208167089270914 -0.11489034269369386 0.11324077506861863 0.0016495676250751939 -0.004670981870118031 0.0 0.0
0.0 0.15058980730482485 -0.1309433698210729 0.1291648511177756 0.0017785187032972336 -0.0038995382512733 0.0 0.0
0.0 0.16588479167802977 -0.1442456536945984 0.14233052476602642 0.0019151289285719826 -0.002683739786186458 0.0 0.0
0.0 0.17443191067757682 -0.1515260792452469 0.14939161533211925 0.0021344639131275693 -0.00872674328405517 0.0 0.0
0.0 0.16727966146937498 -0.1433625649668335 0.14055462691739118 0.0028079380494422535 -0.045243022250049746 0.0 0.0
0.0 0.16727966146936377 -0.14336256496682295 0.14055462691738105 0.0028079380494418133 0.045243022250058405 0.0 0.0
0.0 0.17443191067753783 -0.15152607924521255 0.1493916153320857 0.0021344639131267583 0.008726743284070332 0.0 0.0
0.0 0.16588479167795978 -0.14424565369453773 0.14233052476596608 0.0019151289285716077 0.0026837397861965953 0.0 0.0
0.0 0.15058980730473814 -0.13094336982099777 0.1291648511177009 0.0017785187032968788 0.0038995382512715467 0.0 0.0
0.0 0.13208167089261708 -0.11489034269361403 0.11324077506853922 0.0016495676250747788 0.004670981870117804 0.0 0.0
0.0 0.11251080175718697 -0.09792788940893087 0.0964072783534634 0.0015206110554674178 0.00461810769133272 0.0 0.0
0.0 0.09336372563469232 -0.08131549114530037 0.07991874936346219 0.0013967417818381458 0.004164394666822371 0.0 0.0
0.0 0.07549211396109287 -0.06581007230663799 0.06453093975858264 0.001279132548055327 0.003591341668276787 0.0 0.0
0.0 0.05936745297191559 -0.05175899833957918 0.050593641495671395 0.0011653568439077657 0.003000383953847105 0.0 0.0
0.0 0.04514495198984758 -0.03929279594938284 0.03823990403655558 0.0010528919128272574 0.0024158823164450636 0.0 0.0
0.0 0.0326110363847867 -0.028493824786028424 0.027551384851896912 0.000942439934131536 0.00183207324659534 0.0 0.0
0.0 0.02215014293968054 -0.01944749323689468 0.018612234450419762 0.0008352587864749155 0.0012719087629417852 0.0 0.0
0.0 0.013836533101263739 -0.012237639970405839 0.011508450321965421 0.0007291896484404108 0.0008107673321836081 0.0 0.0
0.0 0.007664945103274028 -0.006867057204256951 0.0062629132399028105 0.0006041439643541356 0.00048435937451380686 0.0 0.0
0.0 0.0034888076848115838 -0.003176466697388138 0.002754989445229312 0.0004214772521588243 0.0002619054422350551 0.0 0.0
0.0 0.001217875708068813 -0.0009195785514144201 0.0007551900517563327 0.00016438849965808795 0.00011947554631054817 0.0 0.0
0.0 7.148525237660795e-05 -5.272008961798279e-05 4.167195944913543e-05 1.1048130168847355e-05 1.3812168271471497e-05 0.0 0.0
0.0 0.0 0.0 0.0 0.0 0.0 0.0 0.0
0.0 0.0 0.0 0.0 0.0 0.0 0.0 0.0
0.0 0.0 0.0 0.0 0.0 0.0 0.0 0.0