# vtk DataFile Version 3.0
Some data
ASCII
DATASET UNSTRUCTURED_GRID
POINTS 861 float
0.0 0.0 0.0
0.4 0.0 0.0
0.8 0.0 0.0
1.2000000000000002 0.0 0.0
1.6 0.0 0.0
2.0 0.0 0.0
2.4000000000000004 0.0 0.0
2.8000000000000003 0.0 0.0
3.2 0.0 0.0
3.6 0.0 0.0
4.0 0.0 0.0
4.4 0.0 0.0
4.800000000000001 0.0 0.0
5.2 0.0 0.0
5.6000000000000005 0.0 0.0
6.0 0.0 0.0
6.4 0.0 0.0
6.800000000000001 0.0 0.0
7.2 0.0 0.0
7.6000000000000005 0.0 0.0
8.0 0.0 0.0
8.4 0.0 0.0
8.8 0.0 0.0
9.200000000000001 0.0 0.0
9.600000000000001 0.0 0.0
10.0 0.0 0.0
10.4 0.0 0.0
10.8 0.0 0.0
11.200000000000001 0.0 0.0
11.600000000000001 0.0 0.0
12.0 0.0 0.0
12.4 0.0 0.0
12.8 0.0 0.0
13.200000000000001 0.0 0.0
13.600000000000001 0.0 0.0
14.0 0.0 0.0
14.4 0.0 0.0
14.8 0.0 0.0
15.200000000000001 0.0 0.0
15.600000000000001 0.0 0.0
16.0 0.0 0.0
0.0 0.1 0.0
0.4 0.1 0.0
0.8 0.1 0.0
1.2000000000000002 0.1 0.0
1.6 0.1 0.0
2.0 0.1 0.0
2.4000000000000004 0.1 0.0
2.8000000000000003 0.1 0.0
3.2 0.1 0.0
3.6 0.1 0.0
4.0 0.1 0.0
4.4 0.1 0.0
4.800000000000001 0.1 0.0
5.2 0.1 0.0
5.6000000000000005 0.1 0.0
6.0 0.1 0.0
6.4 0.1 0.0
6.800000000000001 0.1 0.0
7.2 0.1 0.0
7.6000000000000005 0.1 0.0
8.0 0.1 0.0
8.4 0.1 0.0
8.8 0.1 0.0
9.200000000000001 0.1 0.0
9.600000000000001 0.1 0.0
10.0 0.1 0.0
10.4 0.1 0.0
10.8 0.1 0.0
11.200000000000001 0.1 0.0
11.600000000000001 0.1 0.0
12.0 0.1 0.0
12.4 0.1 0.0
12.8 0.1 0.0
13.200000000000001 0.1 0.0
13.600000000000001 0.1 0.0
14.0 0.1 0.0
14.4 0.1 0.0
14.8 0.1 0.0
15.200000000000001 0.1 0.0
15.600000000000001 0.1 0.0
16.0 0.1 0.0
0.0 0.2 0.0
0.4 0.2 0.0
0.8 0.2 0.0
1.2000000000000002 0.2 0.0
1.6 0.2 0.0
2.0 0.2 0.0
2.4000000000000004 0.2 0.0
2.8000000000000003 0.2 0.0
3.2 0.2 0.0
3.6 0.2 0.0
4.0 0.2 0.0
4.4 0.2 0.0
4.800000000000001 0.2 0.0
5.2 0.2 0.0
5.6000000000000005 0.2 0.0
6.0 0.2 0.0
6.4 0.2 0.0
6.800000000000001 0.2 0.0
7.2 0.2 0.0
7.6000000000000005 0.2 0.0
8.0 0.2 0.0
8.4 0.2 0.0
8.8 0.2 0.0
9.200000000000001 0.2 0.0
9.600000000000001 0.2 0.0
10.0 0.2 0.0
10.4 0.2 0.0
10.8 0.2 0.0
11.200000000000001 0.2 0.0
11.600000000000001 0.2 0.0
12.0 0.2 0.0
12.4 0.2 0.0
12.8 0.2 0.0
13.200000000000001 0.2 0.0
13.600000000000001 0.2 0.0
14.0 0.2 0.0
14.4 0.2 0.0
14.8 0.2 0.0
15.200000000000001 0.2 0.0
15.600000000000001 0.2 0.0
16.0 0.2 0.0
0.0 0.30000000000000004 0.0
0.4 0.30000000000000004 0.0
0.8 0.30000000000000004 0.0
1.2000000000000002 0.30000000000000004 0.0
1.6 0.30000000000000004 0.0
2.0 0.30000000000000004 0.0
2.4000000000000004 0.30000000000000004 0.0
2.8000000000000003 0.30000000000000004 0.0
3.2 0.30000000000000004 0.0
3.6 0.30000000000000004 0.0
4.0 0.30000000000000004 0.0
4.4 0.30000000000000004 0.0
4.800000000000001 0.30000000000000004 0.0
5.2 0.30000000000000004 0.0
5.6000000000000005 0.30000000000000004 0.0
6.0 0.30000000000000004 0.0
6.4 0.30000000000000004 0.0
6.800000000000001 0.30000000000000004 0.0
7.2 0.30000000000000004 0.0
7.6000000000000005 0.30000000000000004 0.0
8.0 0.30000000000000004 0.0
8.4 0.30000000000000004 0.0
8.8 0.30000000000000004 0.0
9.200000000000001 0.30000000000000004 0.0
9.600000000000001 0.30000000000000004 0.0
10.0 0.30000000000000004 0.0
10.4 0.30000000000000004 0.0
10.8 0.30000000000000004 0.0
11.200000000000001 0.30000000000000004 0.0
11.600000000000001 0.30000000000000004 0.0
12.0 0.30000000000000004 0.0
12.4 0.30000000000000004 0.0
12.8 0.30000000000000004 0.0
13.200000000000001 0.30000000000000004 0.0
13.600000000000001 0.30000000000000004 0.0
14.0 0.30000000000000004 0.0
14.4 0.30000000000000004 0.0
14.8 0.30000000000000004 0.0
15.200000000000001 0.30000000000000004 0.0
15.600000000000001 0.30000000000000004 0.0
16.0 0.30000000000000004 0.0
0.0 0.4 0.0
0.4 0.4 0.0
0.8 0.4 0.0
1.2000000000000002 0.4 0.0
1.6 0.4 0.0
2.0 0.4 0.0
2.4000000000000004 0.4 0.0
2.8000000000000003 0.4 0.0
3.2 0.4 0.0
3.6 0.4 0.0
4.0 0.4 0.0
4.4 0.4 0.0
4.800000000000001 0.4 0.0
5.2 0.4 0.0
5.6000000000000005 0.4 0.0
6.0 0.4 0.0
6.4 0.4 0.0
6.800000000000001 0.4 0.0
7.2 0.4 0.0
7.6000000000000005 0.4 0.0
8.0 0.4 0.0
8.4 0.4 0.0
8.8 0.4 0.0
9.200000000000001 0.4 0.0
9.600000000000001 0.4 0.0
10.0 0.4 0.0
10.4 0.4 0.0
10.8 0.4 0.0
11.200000000000001 0.4 0.0
11.600000000000001 0.4 0.0
12.0 0.4 0.0
12.4 0.4 0.0
12.8 0.4 0.0
13.200000000000001 0.4 0.0
13.600000000000001 0.4 0.0
14.0 0.4 0.0
14.4 0.4 0.0
14.8 0.4 0.0
15.200000000000001 0.4 0.0
15.600000000000001 0.4 0.0
16.0 0.4 0.0
0.0 0.5 0.0
0.4 0.5 0.0
0.8 0.5 0.0
1.2000000000000002 0.5 0.0
1.6 0.5 0.0
2.0 0.5 0.0
2.4000000000000004 0.5 0.0
2.8000000000000003 0.5 0.0
3.2 0.5 0.0
3.6 0.5 0.0
4.0 0.5 0.0
4.4 0.5 0.0
4.800000000000001 0.5 0.0
5.2 0.5 0.0
5.6000000000000005 0.5 0.0
6.0 0.5 0.0
6.4 0.5 0.0
6.800000000000001 0.5 0.0
7.2 0.5 0.0
7.6000000000000005 0.5 0.0
8.0 0.5 0.0
8.4 0.5 0.0
8.8 0.5 0.0
9.200000000000001 0.5 0.0
9.600000000000001 0.5 0.0
10.0 0.5 0.0
10.4 0.5 0.0
10.8 0.5 0.0
11.200000000000001 0.5 0.0
11.600000000000001 0.5 0.0
12.0 0.5 0.0
12.4 0.5 0.0
12.8 0.5 0.0
13.200000000000001 0.5 0.0
13.600000000000001 0.5 0.0
14.0 0.5 0.0
14.4 0.5 0.0
14.8 0.5 0.0
15.200000000000001 0.5 0.0
15.600000000000001 0.5 0.0
16.0 0.5 0.0
0.0 0.6000000000000001 0.0
0.4 0.6000000000000001 0.0
0.8 0.6000000000000001 0.0
1.2000000000000002 0.6000000000000001 0.0
1.6 0.6000000000000001 0.0
2.0 0.6000000000000001 0.0
2.4000000000000004 0.6000000000000001 0.0
2.8000000000000003 0.6000000000000001 0.0
3.2 0.6000000000000001 0.0
3.6 0.6000000000000001 0.0
4.0 0.6000000000000001 0.0
4.4 0.6000000000000001 0.0
4.800000000000001 0.6000000000000001 0.0
5.2 0.6000000000000001 0.0
5.6000000000000005 0.6000000000000001 0.0
6.0 0.6000000000000001 0.0
6.4 0.6000000000000001 0.0
6.800000000000001 0.6000000000000001 0.0
7.2 0.6000000000000001 0.0
7.6000000000000005 0.6000000000000001 0.0
8.0 0.6000000000000001 0.0
8.4 0.6000000000000001 0.0
8.8 0.6000000000000001 0.0
9.200000000000001 0.6000000000000001 0.0
9.600000000000001 0.6000000000000001 0.0
10.0 0.6000000000000001 0.0
10.4 0.6000000000000001 0.0
10.8 0.6000000000000001 0.0
11.200000000000001 0.6000000000000001 0.0
11.600000000000001 0.6000000000000001 0.0
12.0 0.6000000000000001 0.0
12.4 0.6000000000000001 0.0
12.8 0.6000000000000001 0.0
13.200000000000001 0.6000000000000001 0.0
13.600000000000001 0.6000000000000001 0.0
14.0 0.6000000000000001 0.0
14.4 0.6000000000000001 0.0
14.8 0.6000000000000001 0.0
15.200000000000001 0.6000000000000001 0.0
15.600000000000001 0.6000000000000001 0.0
16.0 0.6000000000000001 0.0
0.0 0.7000000000000001 0.0
0.4 0.7000000000000001 0.0
0.8 0.7000000000000001 0.0
1.2000000000000002 0.7000000000000001 0.0
1.6 0.7000000000000001 0.0
2.0 0.7000000000000001 0.0
2.4000000000000004 0.7000000000000001 0.0
2.8000000000000003 0.7000000000000001 0.0
3.2 0.7000000000000001 0.0
3.6 0.7000000000000001 0.0
4.0 0.7000000000000001 0.0
4.4 0.7000000000000001 0.0
4.800000000000001 0.7000000000000001 0.0
5.2 0.7000000000000001 0.0
5.6000000000000005 0.7000000000000001 0.0
6.0 0.7000000000000001 0.0
6.4 0.7000000000000001 0.0
6.800000000000001 0.7000000000000001 0.0
7.2 0.7000000000000001 0.0
7.6000000000000005 0.7000000000000001 0.0
8.0 0.7000000000000001 0.0
8.4 0.7000000000000001 0.0
8.8 0.7000000000000001 0.0
9.200000000000001 0.7000000000000001 0.0
9.600000000000001 0.7000000000000001 0.0
10.0 0.7000000000000001 0.0
10.4 0.7000000000000001 0.0
10.8 0.7000000000000001 0.0
11.200000000000001 0.7000000000000001 0.0
11.600000000000001 0.7000000000000001 0.0
12.0 0.7000000000000001 0.0
12.4 0.7000000000000001 0.0
12.8 0.7000000000000001 0.0
13.200000000000001 0.7000000000000001 0.0
13.600000000000001 0.7000000000000001 0.0
14.0 0.7000000000000001 0.0
14.4 0.7000000000000001 0.0
14.8 0.7000000000000001 0.0
15.200000000000001 0.7000000000000001 0.0
15.600000000000001 0.7000000000000001 0.0
16.0 0.7000000000000001 0.0
0.0 0.8 0.0
0.4 0.8 0.0
0.8 0.8 0.0
1.2000000000000002 0.8 0.0
1.6 0.8 0.0
2.0 0.8 0.0
2.4000000000000004 0.8 0.0
2.8000000000000003 0.8 0.0
3.2 0.8 0.0
3.6 0.8 0.0
4.0 0.8 0.0
4.4 0.8 0.0
4.800000000000001 0.8 0.0
5.2 0.8 0.0
5.6000000000000005 0.8 0.0
6.0 0.8 0.0
6.4 0.8 0.0
6.800000000000001 0.8 0.0
7.2 0.8 0.0
7.6000000000000005 0.8 0.0
8.0 0.8 0.0
8.4 0.8 0.0
8.8 0.8 0.0
9.200000000000001 0.8 0.0
9.600000000000001 0.8 0.0
10.0 0.8 0.0
10.4 0.8 0.0
10.8 0.8 0.0
11.200000000000001 0.8 0.0
11.600000000000001 0.8 0.0
12.0 0.8 0.0
12.4 0.8 0.0
12.8 0.8 0.0
13.200000000000001 0.8 0.0
13.600000000000001 0.8 0.0
14.0 0.8 0.0
14.4 0.8 0.0
14.8 0.8 0.0
15.200000000000001 0.8 0.0
15.600000000000001 0.8 0.0
16.0 0.8 0.0
0.0 0.9 0.0
0.4 0.9 0.0
0.8 0.9 0.0
1.2000000000000002 0.9 0.0
1.6 0.9 0.0
2.0 0.9 0.0
2.4000000000000004 0.9 0.0
2.8000000000000003 0.9 0.0
3.2 0.9 0.0
3.6 0.9 0.0
4.0 0.9 0.0
4.4 0.9 0.0
4.800000000000001 0.9 0.0
5.2 0.9 0.0
5.6000000000000005 0.9 0.0
6.0 0.9 0.0
6.4 0.9 0.0
6.800000000000001 0.9 0.0
7.2 0.9 0.0
7.6000000000000005 0.9 0.0
8.0 0.9 0.0
8.4 0.9 0.0
8.8 0.9 0.0
9.200000000000001 0.9 0.0
9.600000000000001 0.9 0.0
10.0 0.9 0.0
10.4 0.9 0.0
10.8 0.9 0.0
11.200000000000001 0.9 0.0
11.600000000000001 0.9 0.0
12.0 0.9 0.0
12.4 0.9 0.0
12.8 0.9 0.0
13.200000000000001 0.9 0.0
13.600000000000001 0.9 0.0
14.0 0.9 0.0
14.4 0.9 0.0
14.8 0.9 0.0
15.200000000000001 0.9 0.0
15.600000000000001 0.9 0.0
16.0 0.9 0.0
0.0 1.0 0.0
0.4 1.0 0.0
0.8 1.0 0.0
1.2000000000000002 1.0 0.0
1.6 1.0 0.0
2.0 1.0 0.0
2.4000000000000004 1.0 0.0
2.8000000000000003 1.0 0.0
3.2 1.0 0.0
3.6 1.0 0.0
4.0 1.0 0.0
4.4 1.0 0.0
4.800000000000001 1.0 0.0
5.2 1.0 0.0
5.6000000000000005 1.0 0.0
6.0 1.0 0.0
6.4 1.0 0.0
6.800000000000001 1.0 0.0
7.2 1.0 0.0
7.6000000000000005 1.0 0.0
8.0 1.0 0.0
8.4 1.0 0.0
8.8 1.0 0.0
9.200000000000001 1.0 0.0
9.600000000000001 1.0 0.0
10.0 1.0 0.0
10.4 1.0 0.0
10.8 1.0 0.0
11.200000000000001 1.0 0.0
11.600000000000001 1.0 0.0
12.0 1.0 0.0
12.4 1.0 0.0
12.8 1.0 0.0
13.200000000000001 1.0 0.0
13.600000000000001 1.0 0.0
14.0 1.0 0.0
14.4 1.0 0.0
14.8 1.0 0.0
15.200000000000001 1.0 0.0
15.600000000000001 1.0 0.0
16.0 1.0 0.0
0.0 1.1 0.0
0.4 1.1 0.0
0.8 1.1 0.0
1.2000000000000002 1.1 0.0
1.6 1.1 0.0
2.0 1.1 0.0
2.4000000000000004 1.1 0.0
2.8000000000000003 1.1 0.0
3.2 1.1 0.0
3.6 1.1 0.0
4.0 1.1 0.0
4.4 1.1 0.0
4.800000000000001 1.1 0.0
5.2 1.1 0.0
5.6000000000000005 1.1 0.0
6.0 1.1 0.0
6.4 1.1 0.0
6.800000000000001 1.1 0.0
7.2 1.1 0.0
7.6000000000000005 1.1 0.0
8.0 1.1 0.0
8.4 1.1 0.0
8.8 1.1 0.0
9.200000000000001 1.1 0.0
9.600000000000001 1.1 0.0
10.0 1.1 0.0
10.4 1.1 0.0
10.8 1.1 0.0
11.200000000000001 1.1 0.0
11.600000000000001 1.1 0.0
12.0 1.1 0.0
12.4 1.1 0.0
12.8 1.1 0.0
13.200000000000001 1.1 0.0
13.600000000000001 1.1 0.0
14.0 1.1 0.0
14.4 1.1 0.0
14.8 1.1 0.0
15.200000000000001 1.1 0.0
15.600000000000001 1.1 0.0
16.0 1.1 0.0
0.0 1.2000000000000002 0.0
0.4 1.2000000000000002 0.0
0.8 1.2000000000000002 0.0
1.2000000000000002 1.2000000000000002 0.0
1.6 1.2000000000000002 0.0
2.0 1.2000000000000002 0.0
2.4000000000000004 1.2000000000000002 0.0
2.8000000000000003 1.2000000000000002 0.0
3.2 1.2000000000000002 0.0
3.6 1.2000000000000002 0.0
4.0 1.2000000000000002 0.0
4.4 1.2000000000000002 0.0
4.800000000000001 1.2000000000000002 0.0
5.2 1.2000000000000002 0.0
5.6000000000000005 1.2000000000000002 0.0
6.0 1.2000000000000002 0.0
6.4 1.2000000000000002 0.0
6.800000000000001 1.2000000000000002 0.0
7.2 1.2000000000000002 0.0
7.6000000000000005 1.2000000000000002 0.0
8.0 1.2000000000000002 0.0
8.4 1.2000000000000002 0.0
8.8 1.2000000000000002 0.0
9.200000000000001 1.2000000000000002 0.0
9.600000000000001 1.2000000000000002 0.0
10.0 1.2000000000000002 0.0
10.4 1.2000000000000002 0.0
10.8 1.2000000000000002 0.0
11.200000000000001 1.2000000000000002 0.0
11.600000000000001 1.2000000000000002 0.0
12.0 1.2000000000000002 0.0
12.4 1.2000000000000002 0.0
12.8 1.2000000000000002 0.0
13.200000000000001 1.2000000000000002 0.0
13.600000000000001 1.2000000000000002 0.0
14.0 1.2000000000000002 0.0
14.4 1.2000000000000002 0.0
14.8 1.2000000000000002 0.0
15.200000000000001 1.2000000000000002 0.0
15.600000000000001 1.2000000000000002 0.0
16.0 1.2000000000000002 0.0
0.0 1.3 0.0
0.4 1.3 0.0
0.8 1.3 0.0
1.2000000000000002 1.3 0.0
1.6 1.3 0.0
2.0 1.3 0.0
2.4000000000000004 1.3 0.0
2.8000000000000003 1.3 0.0
3.2 1.3 0.0
3.6 1.3 0.0
4.0 1.3 0.0
4.4 1.3 0.0
4.800000000000001 1.3 0.0
5.2 1.3 0.0
5.6000000000000005 1.3 0.0
6.0 1.3 0.0
6.4 1.3 0.0
6.800000000000001 1.3 0.0
7.2 1.3 0.0
7.6000000000000005 1.3 0.0
8.0 1.3 0.0
8.4 1.3 0.0
8.8 1.3 0.0
9.200000000000001 1.3 0.0
9.600000000000001 1.3 0.0
10.0 1.3 0.0
10.4 1.3 0.0
10.8 1.3 0.0
11.200000000000001 1.3 0.0
11.600000000000001 1.3 0.0
12.0 1.3 0.0
12.4 1.3 0.0
12.8 1.3 0.0
13.200000000000001 1.3 0.0
13.600000000000001 1.3 0.0
14.0 1.3 0.0
14.4 1.3 0.0
14.8 1.3 0.0
15.200000000000001 1.3 0.0
15.600000000000001 1.3 0.0
16.0 1.3 0.0
0.0 1.4000000000000001 0.0
0.4 1.4000000000000001 0.0
0.8 1.4000000000000001 0.0
1.2000000000000002 1.4000000000000001 0.0
1.6 1.4000000000000001 0.0
2.0 1.4000000000000001 0.0
2.4000000000000004 1.4000000000000001 0.0
2.8000000000000003 1.4000000000000001 0.0
3.2 1.4000000000000001 0.0
3.6 1.4000000000000001 0.0
4.0 1.4000000000000001 0.0
4.4 1.4000000000000001 0.0
4.800000000000001 1.4000000000000001 0.0
5.2 1.4000000000000001 0.0
5.6000000000000005 1.4000000000000001 0.0
6.0 1.4000000000000001 0.0
6.4 1.4000000000000001 0.0
6.800000000000001 1.4000000000000001 0.0
7.2 1.4000000000000001 0.0
7.6000000000000005 1.4000000000000001 0.0
8.0 1.4000000000000001 0.0
8.4 1.4000000000000001 0.0
8.8 1.4000000000000001 0.0
9.200000000000001 1.4000000000000001 0.0
9.600000000000001 1.4000000000000001 0.0
10.0 1.4000000000000001 0.0
10.4 1.4000000000000001 0.0
10.8 1.4000000000000001 0.0
11.200000000000001 1.4000000000000001 0.0
11.600000000000001 1.4000000000000001 0.0
12.0 1.4000000000000001 0.0
12.4 1.4000000000000001 0.0
12.8 1.4000000000000001 0.0
13.200000000000001 1.4000000000000001 0.0
13.600000000000001 1.4000000000000001 0.0
14.0 1.4000000000000001 0.0
14.4 1.4000000000000001 0.0
14.8 1.4000000000000001 0.0
15.200000000000001 1.4000000000000001 0.0
15.600000000000001 1.4000000000000001 0.0
16.0 1.4000000000000001 0.0
0.0 1.5 0.0
0.4 1.5 0.0
0.8 1.5 0.0
1.2000000000000002 1.5 0.0
1.6 1.5 0.0
2.0 1.5 0.0
2.4000000000000004 1.5 0.0
2.8000000000000003 1.5 0.0
3.2 1.5 0.0
3.6 1.5 0.0
4.0 1.5 0.0
4.4 1.5 0.0
4.800000000000001 1.5 0.0
5.2 1.5 0.0
5.6000000000000005 1.5 0.0
6.0 1.5 0.0
6.4 1.5 0.0
6.800000000000001 1.5 0.0
7.2 1.5 0.0
7.6000000000000005 1.5 0.0
8.0 1.5 0.0
8.4 1.5 0.0
8.8 1.5 0.0
9.200000000000001 1.5 0.0
9.600000000000001 1.5 0.0
10.0 1.5 0.0
10.4 1.5 0.0
10.8 1.5 0.0
11.200000000000001 1.5 0.0
11.600000000000001 1.5 0.0
12.0 1.5 0.0
12.4 1.5 0.0
12.8 1.5 0.0
13.200000000000001 1.5 0.0
13.600000000000001 1.5 0.0
14.0 1.5 0.0
14.4 1.5 0.0
14.8 1.5 0.0
15.200000000000001 1.5 0.0
15.600000000000001 1.5 0.0
16.0 1.5 0.0
0.0 1.6 0.0
0.4 1.6 0.0
0.8 1.6 0.0
1.2000000000000002 1.6 0.0
1.6 1.6 0.0
2.0 1.6 0.0
2.4000000000000004 1.6 0.0
2.8000000000000003 1.6 0.0
3.2 1.6 0.0
3.6 1.6 0.0
4.0 1.6 0.0
4.4 1.6 0.0
4.800000000000001 1.6 0.0
5.2 1.6 0.0
5.6000000000000005 1.6 0.0
6.0 1.6 0.0
6.4 1.6 0.0
6.800000000000001 1.6 0.0
7.2 1.6 0.0
7.6000000000000005 1.6 0.0
8.0 1.6 0.0
8.4 1.6 0.0
8.8 1.6 0.0
9.200000000000001 1.6 0.0
9.600000000000001 1.6 0.0
10.0 1.6 0.0
10.4 1.6 0.0
10.8 1.6 0.0
11.200000000000001 1.6 0.0
11.600000000000001 1.6 0.0
12.0 1.6 0.0
12.4 1.6 0.0
12.8 1.6 0.0
13.200000000000001 1.6 0.0
13.600000000000001 1.6 0.0
14.0 1.6 0.0
14.4 1.6 0.0
14.8 1.6 0.0
15.200000000000001 1.6 0.0
15.600000000000001 1.6 0.0
16.0 1.6 0.0
0.0 1.7000000000000002 0.0
0.4 1.7000000000000002 0.0
0.8 1.7000000000000002 0.0
1.2000000000000002 1.7000000000000002 0.0
1.6 1.7000000000000002 0.0
2.0 1.7000000000000002 0.0
2.4000000000000004 1.7000000000000002 0.0
2.8000000000000003 1.7000000000000002 0.0
3.2 1.7000000000000002 0.0
3.6 1.7000000000000002 0.0
4.0 1.7000000000000002 0.0
4.4 1.7000000000000002 0.0
4.800000000000001 1.7000000000000002 0.0
5.2 1.7000000000000002 0.0
5.6000000000000005 1.7000000000000002 0.0
6.0 1.7000000000000002 0.0
6.4 1.7000000000000002 0.0
6.800000000000001 1.7000000000000002 0.0
7.2 1.7000000000000002 0.0
7.6000000000000005 1.7000000000000002 0.0
8.0 1.7000000000000002 0.0
8.4 1.7000000000000002 0.0
8.8 1.7000000000000002 0.0
9.200000000000001 1.7000000000000002 0.0
9.600000000000001 1.7000000000000002 0.0
10.0 1.7000000000000002 0.0
10.4 1.7000000000000002 0.0
10.8 1.7000000000000002 0.0
11.200000000000001 1.7000000000000002 0.0
11.600000000000001 1.7000000000000002 0.0
12.0 1.7000000000000002 0.0
12.4 1.7000000000000002 0.0
12.8 1.7000000000000002 0.0
13.200000000000001 1.7000000000000002 0.0
13.600000000000001 1.7000000000000002 0.0
14.0 1.7000000000000002 0.0
14.4 1.7000000000000002 0.0
14.8 1.7000000000000002 0.0
15.200000000000001 1.7000000000000002 0.0
15.600000000000001 1.7000000000000002 0.0
16.0 1.7000000000000002 0.0
0.0 1.8 0.0
0.4 1.8 0.0
0.8 1.8 0.0
1.2000000000000002 1.8 0.0
1.6 1.8 0.0
2.0 1.8 0.0
2.4000000000000004 1.8 0.0
2.8000000000000003 1.8 0.0
3.2 1.8 0.0
3.6 1.8 0.0
4.0 1.8 0.0
4.4 1.8 0.0
4.800000000000001 1.8 0.0
5.2 1.8 0.0
5.6000000000000005 1.8 0.0
6.0 1.8 0.0
6.4 1.8 0.0
6.800000000000001 1.8 0.0
7.2 1.8 0.0
7.6000000000000005 1.8 0.0
8.0 1.8 0.0
8.4 1.8 0.0
8.8 1.8 0.0
9.200000000000001 1.8 0.0
9.600000000000001 1.8 0.0
10.0 1.8 0.0
10.4 1.8 0.0
10.8 1.8 0.0
11.200000000000001 1.8 0.0
11.600000000000001 1.8 0.0
12.0 1.8 0.0
12.4 1.8 0.0
12.8 1.8 0.0
13.200000000000001 1.8 0.0
13.600000000000001 1.8 0.0
14.0 1.8 0.0
14.4 1.8 0.0
14.8 1.8 0.0
15.200000000000001 1.8 0.0
15.600000000000001 1.8 0.0
16.0 1.8 0.0
0.0 1.9000000000000001 0.0
0.4 1.9000000000000001 0.0
0.8 1.9000000000000001 0.0
1.2000000000000002 1.9000000000000001 0.0
1.6 1.9000000000000001 0.0
2.0 1.9000000000000001 0.0
2.4000000000000004 1.9000000000000001 0.0
2.8000000000000003 1.9000000000000001 0.0
3.2 1.9000000000000001 0.0
3.6 1.9000000000000001 0.0
4.0 1.9000000000000001 0.0
4.4 1.9000000000000001 0.0
4.800000000000001 1.9000000000000001 0.0
5.2 1.9000000000000001 0.0
5.6000000000000005 1.9000000000000001 0.0
6.0 1.9000000000000001 0.0
6.4 1.9000000000000001 0.0
6.800000000000001 1.9000000000000001 0.0
7.2 1.9000000000000001 0.0
7.6000000000000005 1.9000000000000001 0.0
8.0 1.9000000000000001 0.0
8.4 1.9000000000000001 0.0
8.8 1.9000000000000001 0.0
9.200000000000001 1.9000000000000001 0.0
9.600000000000001 1.9000000000000001 0.0
10.0 1.9000000000000001 0.0
10.4 1.9000000000000001 0.0
10.8 1.9000000000000001 0.0
11.200000000000001 1.9000000000000001 0.0
11.600000000000001 1.9000000000000001 0.0
12.0 1.9000000000000001 0.0
12.4 1.9000000000000001 0.0
12.8 1.9000000000000001 0.0
13.200000000000001 1.9000000000000001 0.0
13.600000000000001 1.9000000000000001 0.0
14.0 1.9000000000000001 0.0
14.4 1.9000000000000001 0.0
14.8 1.9000000000000001 0.0
15.200000000000001 1.9000000000000001 0.0
15.600000000000001 1.9000000000000001 0.0
16.0 1.9000000000000001 0.0
0.0 2.0 0.0
0.4 2.0 0.0
0.8 2.0 0.0
1.2000000000000002 2.0 0.0
1.6 2.0 0.0
2.0 2.0 0.0
2.4000000000000004 2.0 0.0
2.8000000000000003 2.0 0.0
3.2 2.0 0.0
3.6 2.0 0.0
4.0 2.0 0.0
4.4 2.0 0.0
4.800000000000001 2.0 0.0
5.2 2.0 0.0
5.6000000000000005 2.0 0.0
6.0 2.0 0.0
6.4 2.0 0.0
6.800000000000001 2.0 0.0
7.2 2.0 0.0
7.6000000000000005 2.0 0.0
8.0 2.0 0.0
8.4 2.0 0.0
8.8 2.0 0.0
9.200000000000001 2.0 0.0
9.600000000000001 2.0 0.0
10.0 2.0 0.0
10.4 2.0 0.0
10.8 2.0 0.0
11.200000000000001 2.0 0.0
11.600000000000001 2.0 0.0
12.0 2.0 0.0
12.4 2.0 0.0
12.8 2.0 0.0
13.200000000000001 2.0 0.0
13.600000000000001 2.0 0.0
14.0 2.0 0.0
14.4 2.0 0.0
14.8 2.0 0.0
15.200000000000001 2.0 0.0
15.600000000000001 2.0 0.0
16.0 2.0 0.0
CELLS 800 4000
4 0 1 42 41
4 1 2 43 42
4 2 3 44 43
4 3 4 45 44
4 4 5 46 45
4 5 6 47 46
4 6 7 48 47
4 7 8 49 48
4 8 9 50 49
4 9 10 51 50
4 10 11 52 51
4 11 12 53 52
4 12 13 54 53
4 13 14 55 54
4 14 15 56 55
4 15 16 57 56
4 16 17 58 57
4 17 18 59 58
4 18 19 60 59
4 19 20 61 60
4 20 21 62 61
4 21 22 63 62
4 22 23 64 63
4 23 24 65 64
4 24 25 66 65
4 25 26 67 66
4 26 27 68 67
4 27 28 69 68
4 28 29 70 69
4 29 30 71 70
4 30 31 72 71
4 31 32 73 72
4 32 33 74 73
4 33 34 75 74
4 34 35 76 75
4 35 36 77 76
4 36 37 78 77
4 37 38 79 78
4 38 39 80 79
4 39 40 81 80
4 41 42 83 82
4 42 43 84 83
4 43 44 85 84
4 44 45 86 85
4 45 46 87 86
4 46 47 88 87
4 47 48 89 88
4 48 49 90 89
4 49 50 91 90
4 50 51 92 91
4 51 52 93 92
4 52 53 94 93
4 53 54 95 94
4 54 55 96 95
4 55 56 97 96
4 56 57 98 97
4 57 58 99 98
4 58 59 100 99
4 59 60 101 100
4 60 61 102 101
4 61 62 103 102
4 62 63 104 103
4 63 64 105 104
4 64 65 106 105
4 65 66 107 106
4 66 67 108 107
4 67 68 109 108
4 68 69 110 109
4 69 70 111 110
4 70 71 112 111
4 71 72 113 112
4 72 73 114 113
4 73 74 115 114
4 74 75 116 115
4 75 76 117 116
4 76 77 118 117
4 77 78 119 118
4 78 79 120 119
4 79 80 121 120
4 80 81 122 121
4 82 83 124 123
4 83 84 125 124
4 84 85 126 125
4 85 86 127 126
4 86 87 128 127
4 87 88 129 128
4 88 89 130 129
4 89 90 131 130
4 90 91 132 131
4 91 92 133 132
4 92 93 134 133
4 93 94 135 134
4 94 95 136 135
4 95 96 137 136
4 96 97 138 137
4 97 98 139 138
4 98 99 140 139
4 99 100 141 140
4 100 101 142 141
4 101 102 143 142
4 102 103 144 143
4 103 104 145 144
4 104 105 146 145
4 105 106 147 146
4 106 107 148 147
4 107 108 149 148
4 108 109 150 149
4 109 110 151 150
4 110 111 152 151
4 111 112 153 152
4 112 113 154 153
4 113 114 155 154
4 114 115 156 155
4 115 116 157 156
4 116 117 158 157
4 117 118 159 158
4 118 119 160 159
4 119 120 161 160
4 120 121 162 161
4 121 122 163 162
4 123 124 165 164
4 124 125 166 165
4 125 126 167 166
4 126 127 168 167
4 127 128 169 168
4 128 129 170 169
4 129 130 171 170
4 130 131 172 171
4 131 132 173 172
4 132 133 174 173
4 133 134 175 174
4 134 135 176 175
4 135 136 177 176
4 136 137 178 177
4 137 138 179 178
4 138 139 180 179
4 139 140 181 180
4 140 141 182 181
4 141 142 183 182
4 142 143 184 183
4 143 144 185 184
4 144 145 186 185
4 145 146 187 186
4 146 147 188 187
4 147 148 189 188
4 148 149 190 189
4 149 150 191 190
4 150 151 192 191
4 151 152 193 192
4 152 153 194 193
4 153 154 195 194
4 154 155 196 195
4 155 156 197 196
4 156 157 198 197
4 157 158 199 198
4 158 159 200 199
4 159 160 201 200
4 160 161 202 201
4 161 162 203 202
4 162 163 204 203
4 164 165 206 205
4 165 166 207 206
4 166 167 208 207
4 167 168 209 208
4 168 169 210 209
4 169 170 211 210
4 170 171 212 211
4 171 172 213 212
4 172 173 214 213
4 173 174 215 214
4 174 175 216 215
4 175 176 217 216
4 176 177 218 217
4 177 178 219 218
4 178 179 220 219
4 179 180 221 220
4 180 181 222 221
4 181 182 223 222
4 182 183 224 223
4 183 184 225 224
4 184 185 226 225
4 185 186 227 226
4 186 187 228 227
4 187 188 229 228
4 188 189 230 229
4 189 190 231 230
4 190 191 232 231
4 191 192 233 232
4 192 193 234 233
4 193 194 235 234
4 194 195 236 235
4 195 196 237 236
4 196 197 238 237
4 197 198 239 238
4 198 199 240 239
4 199 200 241 240
4 200 201 242 241
4 201 202 243 242
4 202 203 244 243
4 203 204 245 244
4 205 206 247 246
4 206 207 248 247
4 207 208 249 248
4 208 209 250 249
4 209 210 251 250
4 210 211 252 251
4 211 212 253 252
4 212 213 254 253
4 213 214 255 254
4 214 215 256 255
4 215 216 257 256
4 216 217 258 257
4 217 218 259 258
4 218 219 260 259
4 219 220 261 260
4 220 221 262 261
4 221 222 263 262
4 222 223 264 263
4 223 224 265 264
4 224 225 266 265
4 225 226 267 266
4 226 227 268 267
4 227 228 269 268
4 228 229 270 269
4 229 230 271 270
4 230 231 272 271
4 231 232 273 272
4 232 233 274 273
4 233 234 275 274
4 234 235 276 275
4 235 236 277 276
4 236 237 278 277
4 237 238 279 278
4 238 239 280 279
4 239 240 281 280
4 240 241 282 281
4 241 242 283 282
4 242 243 284 283
4 243 244 285 284
4 244 245 286 285
4 246 247 288 287
4 247 248 289 288
4 248 249 290 289
4 249 250 291 290
4 250 251 292 291
4 251 252 293 292
4 252 253 294 293
4 253 254 295 294
4 254 255 296 295
4 255 256 297 296
4 256 257 298 297
4 257 258 299 298
4 258 259 300 299
4 259 260 301 300
4 260 261 302 301
4 261 262 303 302
4 262 263 304 303
4 263 264 305 304
4 264 265 306 305
4 265 266 307 306
4 266 267 308 307
4 267 268 309 308
4 268 269 310 309
4 269 270 311 310
4 270 271 312 311
4 271 272 313 312
4 272 273 314 313
4 273 274 315 314
4 274 275 316 315
4 275 276 317 316
4 276 277 318 317
4 277 278 319 318
4 278 279 320 319
4 279 280 321 320
4 280 281 322 321
4 281 282 323 322
4 282 283 324 323
4 283 284 325 324
4 284 285 326 325
4 285 286 327 326
4 287 288 329 328
4 288 289 330 329
4 289 290 331 330
4 290 291 332 331
4 291 292 333 332
4 292 293 334 333
4 293 294 335 334
4 294 295 336 335
4 295 296 337 336
4 296 297 338 337
4 297 298 339 338
4 298 299 340 339
4 299 300 341 340
4 300 301 342 341
4 301 302 343 342
4 302 303 344 343
4 303 304 345 344
4 304 305 346 345
4 305 306 347 346
4 306 307 348 347
4 307 308 349 348
4 308 309 350 349
4 309 310 351 350
4 310 311 352 351
4 311 312 353 352
4 312 313 354 353
4 313 314 355 354
4 314 315 356 355
4 315 316 357 356
4 316 317 358 357
4 317 318 359 358
4 318 319 360 359
4 319 320 361 360
4 320 321 362 361
4 321 322 363 362
4 322 323 364 363
4 323 324 365 364
4 324 325 366 365
4 325 326 367 366
4 326 327 368 367
4 328 329 370 369
4 329 330 371 370
4 330 331 372 371
4 331 332 373 372
4 332 333 374 373
4 333 334 375 374
4 334 335 376 375
4 335 336 377 376
4 336 337 378 377
4 337 338 379 378
4 338 339 380 379
4 339 340 381 380
4 340 341 382 381
4 341 342 383 382
4 342 343 384 383
4 343 344 385 384
4 344 345 386 385
4 345 346 387 386
4 346 347 388 387
4 347 348 389 388
4 348 349 390 389
4 349 350 391 390
4 350 351 392 391
4 351 352 393 392
4 352 353 394 393
4 353 354 395 394
4 354 355 396 395
4 355 356 397 396
4 356 357 398 397
4 357 358 399 398
4 358 359 400 399
4 359 360 401 400
4 360 361 402 401
4 361 362 403 402
4 362 363 404 403
4 363 364 405 404
4 364 365 406 405
4 365 366 407 406
4 366 367 408 407
4 367 368 409 408
4 369 370 411 410
4 370 371 412 411
4 371 372 413 412
4 372 373 414 413
4 373 374 415 414
4 374 375 416 415
4 375 376 417 416
4 376 377 418 417
4 377 378 419 418
4 378 379 420 419
4 379 380 421 420
4 380 381 422 421
4 381 382 423 422
4 382 383 424 423
4 383 384 425 424
4 384 385 426 425
4 385 386 427 426
4 386 387 428 427
4 387 388 429 428
4 388 389 430 429
4 389 390 431 430
4 390 391 432 431
4 391 392 433 432
4 392 393 434 433
4 393 394 435 434
4 394 395 436 435
4 395 396 437 436
4 396 397 438 437
4 397 398 439 438
4 398 399 440 439
4 399 400 441 440
4 400 401 442 441
4 401 402 443 442
4 402 403 444 443
4 403 404 445 444
4 404 405 446 445
4 405 406 447 446
4 406 407 448 447
4 407 408 449 448
4 408 409 450 449
4 410 411 452 451
4 411 412 453 452
4 412 413 454 453
4 413 414 455 454
4 414 415 456 455
4 415 416 457 456
4 416 417 458 457
4 417 418 459 458
4 418 419 460 459
4 419 420 461 460
4 420 421 462 461
4 421 422 463 462
4 422 423 464 463
4 423 424 465 464
4 424 425 466 465
4 425 426 467 466
4 426 427 468 467
4 427 428 469 468
4 428 429 470 469
4 429 430 471 470
4 430 431 472 471
4 431 432 473 472
4 432 433 474 473
4 433 434 475 474
4 434 435 476 475
4 435 436 477 476
4 436 437 478 477
4 437 438 479 478
4 438 439 480 479
4 439 440 481 480
4 440 441 482 481
4 441 442 483 482
4 442 443 484 483
4 443 444 485 484
4 444 445 486 485
4 445 446 487 486
4 446 447 488 487
4 447 448 489 488
4 448 449 490 489
4 449 450 491 490
4 451 452 493 492
4 452 453 494 493
4 453 454 495 494
4 454 455 496 495
4 455 456 497 496
4 456 457 498 497
4 457 458 499 498
4 458 459 500 499
4 459 460 501 500
4 460 461 502 501
4 461 462 503 502
4 462 463 504 503
4 463 464 505 504
4 464 465 506 505
4 465 466 507 506
4 466 467 508 507
4 467 468 509 508
4 468 469 510 509
4 469 470 511 510
4 470 471 512 511
4 471 472 513 512
4 472 473 514 513
4 473 474 515 514
4 474 475 516 515
4 475 476 517 516
4 476 477 518 517
4 477 478 519 518
4 478 479 520 519
4 479 480 521 520
4 480 481 522 521
4 481 482 523 522
4 482 483 524 523
4 483 484 525 524
4 484 485 526 525
4 485 486 527 526
4 486 487 528 527
4 487 488 529 528
4 488 489 530 529
4 489 490 531 530
4 490 491 532 531
4 492 493 534 533
4 493 494 535 534
4 494 495 536 535
4 495 496 537 536
4 496 497 538 537
4 497 498 539 538
4 498 499 540 539
4 499 500 541 540
4 500 501 542 541
4 501 502 543 542
4 502 503 544 543
4 503 504 545 544
4 504 505 546 545
4 505 506 547 546
4 506 507 548 547
4 507 508 549 548
4 508 509 550 549
4 509 510 551 550
4 510 511 552 551
4 511 512 553 552
4 512 513 554 553
4 513 514 555 554
4 514 515 556 555
4 515 516 557 556
4 516 517 558 557
4 517 518 559 558
4 518 519 560 559
4 519 520 561 560
4 520 521 562 561
4 521 522 563 562
4 522 523 564 563
4 523 524 565 564
4 524 525 566 565
4 525 526 567 566
4 526 527 568 567
4 527 528 569 568
4 528 529 570 569
4 529 530 571 570
4 530 531 572 571
4 531 532 573 572
4 533 534 575 574
4 534 535 576 575
4 535 536 577 576
4 536 537 578 577
4 537 538 579 578
4 538 539 580 579
4 539 540 581 580
4 540 541 582 581
4 541 542 583 582
4 542 543 584 583
4 543 544 585 584
4 544 545 586 585
4 545 546 587 586
4 546 547 588 587
4 547 548 589 588
4 548 549 590 589
4 549 550 591 590
4 550 551 592 591
4 551 552 593 592
4 552 553 594 593
4 553 554 595 594
4 554 555 596 595
4 555 556 597 596
4 556 557 598 597
4 557 558 599 598
4 558 559 600 599
4 559 560 601 600
4 560 561 602 601
4 561 562 603 602
4 562 563 604 603
4 563 564 605 604
4 564 565 606 605
4 565 566 607 606
4 566 567 608 607
4 567 568 609 608
4 568 569 610 609
4 569 570 611 610
4 570 571 612 611
4 571 572 613 612
4 572 573 614 613
4 574 575 616 615
4 575 576 617 616
4 576 577 618 617
4 577 578 619 618
4 578 579 620 619
4 579 580 621 620
4 580 581 622 621
4 581 582 623 622
4 582 583 624 623
4 583 584 625 624
4 584 585 626 625
4 585 586 627 626
4 586 587 628 627
4 587 588 629 628
4 588 589 630 629
4 589 590 631 630
4 590 591 632 631
4 591 592 633 632
4 592 593 634 633
4 593 594 635 634
4 594 595 636 635
4 595 596 637 636
4 596 597 638 637
4 597 598 639 638
4 598 599 640 639
4 599 600 641 640
4 600 601 642 641
4 601 602 643 642
4 602 603 644 643
4 603 604 645 644
4 604 605 646 645
4 605 606 647 646
4 606 607 648 647
4 607 608 649 648
4 608 609 650 649
4 609 610 651 650
4 610 611 652 651
4 611 612 653 652
4 612 613 654 653
4 613 614 655 654
4 615 616 657 656
4 616 617 658 657
4 617 618 659 658
4 618 619 660 659
4 619 620 661 660
4 620 621 662 661
4 621 622 663 662
4 622 623 664 663
4 623 624 665 664
4 624 625 666 665
4 625 626 667 666
4 626 627 668 667
4 627 628 669 668
4 628 629 670 669
4 629 630 671 670
4 630 631 672 671
4 631 632 673 672
4 632 633 674 673
4 633 634 675 674
4 634 635 676 675
4 635 636 677 676
4 636 637 678 677
4 637 638 679 678
4 638 639 680 679
4 639 640 681 680
4 640 641 682 681
4 641 642 683 682
4 642 643 684 683
4 643 644 685 684
4 644 645 686 685
4 645 646 687 686
4 646 647 688 687
4 647 648 689 688
4 648 649 690 689
4 649 650 691 690
4 650 651 692 691
4 651 652 693 692
4 652 653 694 693
4 653 654 695 694
4 654 655 696 695
4 656 657 698 697
4 657 658 699 698
4 658 659 700 699
4 659 660 701 700
4 660 661 702 701
4 661 662 703 702
4 662 663 704 703
4 663 664 705 704
4 664 665 706 705
4 665 666 707 706
4 666 667 708 707
4 667 668 709 708
4 668 669 710 709
4 669 670 711 710
4 670 671 712 711
4 671 672 713 712
4 672 673 714 713
4 673 674 715 714
4 674 675 716 715
4 675 676 717 716
4 676 677 718 717
4 677 678 719 718
4 678 679 720 719
4 679 680 721 720
4 680 681 722 721
4 681 682 723 722
4 682 683 724 723
4 683 684 725 724
4 684 685 726 725
4 685 686 727 726
4 686 687 728 727
4 687 688 729 728
4 688 689 730 729
4 689 690 731 730
4 690 691 732 731
4 691 692 733 732
4 692 693 734 733
4 693 694 735 734
4 694 695 736 735
4 695 696 737 736
4 697 698 739 738
4 698 699 740 739
4 699 700 741 740
4 700 701 742 741
4 701 702 743 742
4 702 703 744 743
4 703 704 745 744
4 704 705 746 745
4 705 706 747 746
4 706 707 748 747
4 707 708 749 748
4 708 709 750 749
4 709 710 751 750
4 710 711 752 751
4 711 712 753 752
4 712 713 754 753
4 713 714 755 754
4 714 715 756 755
4 715 716 757 756
4 716 717 758 757
4 717 718 759 758
4 718 719 760 759
4 719 720 761 760
4 720 721 762 761
4 721 722 763 762
4 722 723 764 763
4 723 724 765 764
4 724 725 766 765
4 725 726 767 766
4 726 727 768 767
4 727 728 769 768
4 728 729 770 769
4 729 730 771 770
4 730 731 772 771
4 731 732 773 772
4 732 733 774 773
4 733 734 775 774
4 734 735 776 775
4 735 736 777 776
4 736 737 778 777
4 738 739 780 779
4 739 740 781 780
4 740 741 782 781
4 741 742 783 782
4 742 743 784 783
4 743 744 785 784
4 744 745 786 785
4 745 746 787 786
4 746 747 788 787
4 747 748 789 788
4 748 749 790 789
4 749 750 791 790
4 750 751 792 791
4 751 752 793 792
4 752 753 794 793
4 753 754 795 794
4 754 755 796 795
4 755 756 797 796
4 756 757 798 797
4 757 758 799 798
4 758 759 800 799
4 759 760 801 800
4 760 761 802 801
4 761 762 803 802
4 762 763 804 803
4 763 764 805 804
4 764 765 806 805
4 765 766 807 806
4 766 767 808 807
4 767 768 809 808
4 768 769 810 809
4 769 770 811 810
4 770 771 812 811
4 771 772 813 812
4 772 773 814 813
4 773 774 815 814
4 774 775 816 815
4 775 776 817 816
4 776 777 818 817
4 777 778 819 818
4 779 780 821 820
4 780 781 822 821
4 781 782 823 822
4 782 783 824 823
4 783 784 825 824
4 784 785 826 825
4 785 786 827 826
4 786 787 828 827
4 787 788 829 828
4 788 789 830 829
4 789 790 831 830
4 790 791 832 831
4 791 792 833 832
4 792 793 834 833
4 793 794 835 834
4 794 795 836 835
4 795 796 837 836
4 796 797 838 837
4 797 798 839 838
4 798 799 840 839
4 799 800 841 840
4 800 801 842 841
4 801 802 843 842
4 802 803 844 843
4 803 804 845 844
4 804 805 846 845
4 805 806 847 846
4 806 807 848 847
4 807 808 849 848
4 808 809 850 849
4 809 810 851 850
4 810 811 852 851
4 811 812 853 852
4 812 813 854 853
4 813 814 855 854
4 814 815 856 855
4 815 816 857 856
4 816 817 858 857
4 817 818 859 858
4 818 819 860 859
CELL_TYPES 800
9
9
9
9
9
9
9
9
9
9
9
9
9
9
9
9
9
9
9
9
9
9
9
9
9
9
9
9
9
9
9
9
9
9
9
9
9
9
9
9
9
9
9
9
9
9
9
9
9
9
9
9
9
9
9
9
9
9
9
9
9
9
9
9
9
9
9
9
9
9
9
9
9
9
9
9
9
9
9
9
9
9
9
9
9
9
9
9
9
9
9
9
9
9
9
9
9
9
9
9
9
9
9
9
9
9
9
9
9
9
9
9
9
9
9
9
9
9
9
9
9
9
9
9
9
9
9
9
9
9
9
9
9
9
9
9
9
9
9
9
9
9
9
9
9
9
9
9
9
9
9
9
9
9
9
9
9
9
9
9
9
9
9
9
9
9
9
9
9
9
9
9
9
9
9
9
9
9
9
9
9
9
9
9
9
9
9
9
9
9
9
9
9
9
9
9
9
9
9
9
9
9
9
9
9
9
9
9
9
9
9
9
9
9
9
9
9
9
9
9
9
9
9
9
9
9
9
9
9
9
9
9
9
9
9
9
9
9
9
9
9
9
9
9
9
9
9
9
9
9
9
9
9
9
9
9
9
9
9
9
9
9
9
9
9
9
9
9
9
9
9
9
9
9
9
9
9
9
9
9
9
9
9
9
9
9
9
9
9
9
9
9
9
9
9
9
9
9
9
9
9
9
9
9
9
9
9
9
9
9
9
9
9
9
9
9
9
9
9
9
9
9
9
9
9
9
9
9
9
9
9
9
9
9
9
9
9
9
9
9
9
9
9
9
9
9
9
9
9
9
9
9
9
9
9
9
9
9
9
9
9
9
9
9
9
9
9
9
9
9
9
9
9
9
9
9
9
9
9
9
9
9
9
9
9
9
9
9
9
9
9
9
9
9
9
9
9
9
9
9
9
9
9
9
9
9
9
9
9
9
9
9
9
9
9
9
9
9
9
9
9
9
9
9
9
9
9
9
9
9
9
9
9
9
9
9
9
9
9
9
9
9
9
9
9
9
9
9
9
9
9
9
9
9
9
9
9
9
9
9
9
9
9
9
9
9
9
9
9
9
9
9
9
9
9
9
9
9
9
9
9
9
9
9
9
9
9
9
9
9
9
9
9
9
9
9
9
9
9
9
9
9
9
9
9
9
9
9
9
9
9
9
9
9
9
9
9
9
9
9
9
9
9
9
9
9
9
9
9
9
9
9
9
9
9
9
9
9
9
9
9
9
9
9
9
9
9
9
9
9
9
9
9
9
9
9
9
9
9
9
9
9
9
9
9
9
9
9
9
9
9
9
9
9
9
9
9
9
9
9
9
9
9
9
9
9
9
9
9
9
9
9
9
9
9
9
9
9
9
9
9
9
9
9
9
9
9
9
9
9
9
9
9
9
9
9
9
9
9
9
9
9
9
9
9
9
9
9
9
9
9
9
9
9
9
9
9
9
9
9
9
9
9
9
9
9
9
9
9
9
9
9
9
9
9
9
9
9
9
9
9
9
9
9
9
9
9
9
9
9
9
9
9
9
9
9
9
9
9
9
9
9
9
9
9
9
9
9
9
9
9
9
9
9
9
9
9
9
9
9
9
9
9
9
9
9
9
9
9
9
9
9
9
9
9
9
9
9
9
9
9
9
9
9
9
9
9
9
9
9
9
9
9
9
9
9
9
9
9
9
9
9
9
9
9
9
9
9
9
9
9
9
9
9
9
9
9
9
9
9
9
9
9
9
9
9
9
9
9
9
9
9
9
9
9
9
9
9
9
9
9
9
9
9
9
9
9
9
9
9
9
9
9
9
9
9
9
9
9
9
POINT_DATA 861
SCALARS Disp float 2
LOOKUP_TABLE default
0.0 0.0
0.021152503309795644 -0.3865778193949517
0.03767605761492413 -0.713222055880969
0.050930178531883336 -1.0342594216322654
0.06607248642768455 -1.349122224817548
0.0842837945652768 -1.6576704559966502
0.10614479091432838 -1.9584296808977724
0.13188852776939602 -2.2498068850049164
0.16159129503191405 -2.530155918051468
0.19527077448472804 -2.7978508689409445
0.2329243219222734 -3.0512846550119272
0.274545841437793 -3.2888649309047135
0.3201315814802321 -3.509009143655647
0.3696856948917259 -3.710142327001963
0.4232321784510026 -3.8906918714072956
0.480836745859831 -4.049065898333163
0.5426288399893906 -4.183591544059671
0.6087798679709788 -4.2923906902315
0.679343068483244 -4.37321947255032
0.7538592700240009 -4.423447888043468
0.8308554048283294 -4.4405705861991605
0.9078515396326583 -4.423447888043469
0.9823677411734152 -4.37321947255032
1.052930941685681 -4.2923906902315005
1.1190819696672694 -4.183591544059671
1.1808740637968285 -4.049065898333162
1.238478631205657 -3.8906918714072942
1.292025114764934 -3.710142327001962
1.3415792281764276 -3.5090091436556463
1.3871649682188667 -3.288864930904712
1.4287864877343857 -3.0512846550119264
1.466440035171931 -2.797850868940944
1.500119514624745 -2.530155918051468
1.5298222818872633 -2.249806885004916
1.5555660187423308 -1.95842968089777
1.5774270150913823 -1.657670455996651
1.5956383232289746 -1.349122224817548
1.6107806311247759 -1.034259421632266
1.624034752041735 -0.7132220558809681
1.6405583063468636 -0.38657781939495045
1.6617108096566593 0.0
0.09576054726946749 -0.013136114064363706
0.10893225766770188 -0.3855538138602409
0.11804904016974883 -0.715076916268914
0.1303302413166539 -1.035552626929799
0.14379729935975802 -1.350826053656515
0.16023952012548678 -1.6596999479622836
0.1799415970837442 -1.9608521885813157
0.20312928788959853 -2.2526284469464644
0.2298700765813416 -2.5333819097885364
0.2601847085144346 -2.801481414549584
0.29407392160511736 -3.0553193496847775
0.3315341941487567 -3.2933032589545976
0.3725636050992325 -3.5138510523764253
0.4171670813362622 -3.715388950186737
0.4653660012825987 -3.8963471259052165
0.5172137962462173 -4.0551388177879275
0.5728073162731976 -4.190097109458495
0.6322560652239598 -4.299342461673659
0.6955356367089566 -4.380603123351802
0.7621672554953225 -4.4311721987552986
0.8308554048283294 -4.44842998285052
0.8995435541613367 -4.431172198755299
0.9661751729477027 -4.380603123351802
1.0294547444327 -4.2993424616736595
1.088903493383462 -4.1900971094584945
1.144497013410442 -4.0551388177879275
1.1963448083740609 -3.8963471259052147
1.2445437283203977 -3.7153889501867363
1.289147204557427 -3.513851052376424
1.330176615507903 -3.2933032589545963
1.3676368880515417 -3.055319349684777
1.4015261011422244 -2.801481414549583
1.4318407330753178 -2.533381909788536
1.4585815217670608 -2.2526284469464635
1.4817692125729152 -1.9608521885813135
1.5014712895311724 -1.6596999479622843
1.5179135102969012 -1.350826053656515
1.5313805683400052 -1.0355526269297999
1.5436617694869104 -0.7150769162689131
1.5527785519889572 -0.3855538138602397
1.5659502623871917 -0.013136114064363736
0.18500077529353948 -0.024419677473947955
0.19444827269405182 -0.3848028107604157
0.19935487531286553 -0.7160989181861059
0.20918801369629264 -1.0368116002783456
0.22112969152191622 -1.3523011446017525
0.23568060001971078 -1.6615226466362738
0.25320885597465714 -1.9630181873578265
0.27382901932131853 -2.2551542787120558
0.2976060425004925 -2.5362687807541198
0.32455596887493976 -2.804730130725934
0.3546815316328868 -3.0589295245212833
0.3879809649942442 -3.297274583039478
0.42445354109850875 -3.518183495388527
0.46410357071090613 -3.7200833149669723
0.5069472435452151 -3.9014061668223006
0.5530230382214589 -4.0605689880348965
0.6023977636294586 -4.195909390255548
0.6551389509303551 -4.305547134556804
0.7111956834843914 -4.387189170925929
0.7701389401785391 -4.438065121044534
0.8308554048283295 -4.455449206459907
0.8915718694781204 -4.438065121044535
0.9505151261722681 -4.3871891709259305
1.0065718587263044 -4.305547134556805
1.0593130460272009 -4.195909390255548
1.1086877714352004 -4.060568988034896
1.1547635661114444 -3.9014061668222992
1.1976072389457537 -3.720083314966971
1.2372572685581507 -3.5181834953885263
1.2737298446624152 -3.2972745830394765
1.3070292780237727 -3.058929524521283
1.3371548407817193 -2.8047301307259334
1.364104767156167 -2.5362687807541193
1.3878817903353406 -2.255154278712055
1.408501953682002 -1.9630181873578245
1.4260302096369484 -1.661522646636275
1.440581118134743 -1.3523011446017523
1.4525227959603666 -1.0368116002783467
1.4623559343437935 -0.7160989181861052
1.4672625369626073 -0.3848028107604145
1.4767100343631197 -0.024419677473948034
0.2703883857557368 -0.034063658608957006
0.2778928767543978 -0.3845819936886725
0.28049459680538535 -0.7165514958721008
0.2878134161878139 -1.0378518098460632
0.2980244898537712 -1.3535847631787608
0.31068324465282643 -1.6631171505704412
0.3260025904236048 -1.9649286767974126
0.3440500105490457 -2.2573825989189236
0.364860021077004 -2.538816623674992
0.3884451764831737 -2.8075970482502526
0.41480738386740024 -3.062115285372838
0.4439461511167221 -3.300778903167803
0.4758612838713354 -3.522006229631501
0.5105554240666454 -3.724224608086331
0.5480378718123148 -3.9058671374105747
0.5883309452583733 -4.065353350838864
0.6314751393301594 -4.201025759876267
0.6775140446599234 -4.311008504093821
0.7264114117350781 -4.392999320377626
0.7778372900894194 -4.444175499803661
0.8308554048283298 -4.461692384797194
0.8838735195672401 -4.444175499803662
0.9352993979215813 -4.392999320377628
0.984196764996736 -4.311008504093821
1.0302356703265 -4.201025759876267
1.0733798643982861 -4.065353350838863
1.1136729378443446 -3.9058671374105733
1.151155385590014 -3.724224608086329
1.1858495257853239 -3.5220062296315007
1.217764658539937 -3.300778903167801
1.246903425789259 -3.0621152853728373
1.2732656331734855 -2.807597048250252
1.2968507885796554 -2.538816623674992
1.3176607991076135 -2.2573825989189227
1.3357082192330545 -1.964928676797411
1.3510275650038326 -1.6631171505704423
1.363686319802888 -1.353584763178761
1.3738973934688452 -1.037851809846064
1.3812162128512737 -0.7165514958721
1.3838179329022615 -0.3845819936886713
1.3913224239009223 -0.034063658608957076
0.3533142810420602 -0.04227768983194477
0.3596482354827187 -0.3848642179211487
0.3610225744441791 -0.7166784222171851
0.3661805269575609 -1.0386205216889983
0.3745443702642444 -1.3546656357793898
0.3852893854756344 -1.664482399340306
0.39838578289593013 -1.9665796935493018
0.41385206186291323 -2.2593131991600335
0.43169311445926595 -2.54102508651432
0.4519128165619075 -2.8100822305888924
0.47451174995841133 -3.064876663699585
0.4994898108136677 -3.3038161972267184
0.5268468929356998 -3.52531904004966
0.5565832513487945 -3.7278122132301714
0.5887004098596966 -3.9097287518676596
0.6232044034635774 -4.069490002066822
0.6601133329238151 -4.205445184591637
0.6994615837841367 -4.315731247874943
0.7412591854650789 -4.398052826589168
0.7853117746505854 -4.449544077033338
0.8308554048283299 -4.467212963855735
0.8763990350060742 -4.449544077033338
0.9204516241915807 -4.3980528265891685
0.9622492258725227 -4.315731247874943
1.0015974767328444 -4.205445184591637
1.0385064061930818 -4.069490002066821
1.0730103997969627 -3.9097287518676582
1.105127558307865 -3.727812213230169
1.1348639167209595 -3.5253190400496597
1.1622209988429915 -3.3038161972267166
1.187199059698248 -3.064876663699584
1.2097979930947518 -2.8100822305888915
1.2300176951973931 -2.5410250865143196
1.247858747793746 -2.259313199160033
1.263325026760729 -1.9665796935493
1.2764214241810248 -1.6644823993403068
1.2871664393924147 -1.35466563577939
1.2955302826990982 -1.038620521688999
1.30068823521248 -0.7166784222171845
1.3020625741739404 -0.38486421792114756
1.3083965286145989 -0.04227768983194481
0.43457747117308454 -0.049254533937419215
0.44008164924162235 -0.38553368658459125
0.44080766121879494 -0.7166482438205795
0.44421835281729466 -1.0391309775875355
0.4507396522141693 -1.3555307394576679
0.45954895924096806 -1.6656178772706856
0.4704164752318351 -1.9679694051743262
0.48329587011168296 -2.260945406106788
0.498165868772931 -2.542894020519128
0.5150194310453621 -2.812185627027764
0.5338548853758964 -3.0672136681015605
0.5546720644065265 -3.3063864226189925
0.5774705541376709 -3.528121766841484
0.6022478949588153 -3.730845745758835
0.6289976734785651 -3.9129903078252224
0.6577103124795819 -4.072978062093461
0.6883849204623356 -4.209167708942111
0.7210571876902582 -4.319719832569541
0.7558062000265571 -4.402365431972836
0.792602559152282 -4.454204600084556
0.8308554048283299 -4.472056906636472
0.8691082505043777 -4.454204600084556
0.9059046096301026 -4.402365431972836
0.9406536219664011 -4.3197198325695405
0.973325889194324 -4.20916770894211
1.0040004971770773 -4.072978062093459
1.0327131361780946 -3.912990307825221
1.0594629146978443 -3.7308457457588333
1.0842402555189883 -3.5281217668414833
1.107038745250133 -3.306386422618991
1.1278559242807626 -3.0672136681015605
1.146691378611297 -2.812185627027763
1.1635449408837282 -2.5428940205191277
1.1784149395449763 -2.2609454061067877
1.1912943344248244 -1.9679694051743242
1.202161850415691 -1.6656178772706864
1.2109711574424897 -1.3555307394576677
1.2174924568393644 -1.0391309775875364
1.220903148437864 -0.7166482438205788
1.2216291604150369 -0.38553368658459014
1.2271333384835745 -0.04925453393741925
0.5146762096561238 -0.05516180166221941
0.5195005062391349 -0.3864618629300665
0.5198676346087583 -0.7165613512838339
0.5218858376410387 -1.0394209201694995
0.5266452925412497 -1.3561769383172557
0.5335152476243427 -1.6665226559925579
0.5421517235335478 -1.969097392831271
0.5524416530622855 -2.262278695042763
0.5643387926598092 -2.5444232781579412
0.5778254633186695 -2.8139071701446796
0.5928970631911172 -3.069126267388224
0.6095530704210005 -3.308489533748943
0.6277925417536405 -3.5304143173764113
0.6476103118651159 -3.7333250650848533
0.6689925244911779 -3.915651668448387
0.6919152623836834 -4.075817549131197
0.7163611071999972 -4.212194055692316
0.7423727680556846 -4.3229777173909145
0.7701129415377328 -4.405948675380421
0.7997432267146294 -4.4581846118393
0.8308554048283298 -4.476265094482523
0.8619675829420299 -4.4581846118393
0.8915978681189267 -4.4059486753804205
0.9193380416009748 -4.322977717390914
0.945349702456662 -4.212194055692315
0.9697955472729758 -4.075817549131197
0.9927182851654817 -3.9156516684483864
1.0141004977915435 -3.733325065084852
1.033918267903019 -3.5304143173764095
1.0521577392356587 -3.3084895337489417
1.0688137464655418 -3.069126267388224
1.0838853463379898 -2.813907170144679
1.0973720169968502 -2.5444232781579403
1.1092691565943735 -2.262278695042763
1.1195590861231115 -1.969097392831269
1.1281955620323165 -1.6665226559925586
1.1350655171154094 -1.3561769383172555
1.1398249720156204 -1.0394209201695002
1.1418431750479008 -0.7165613512838332
1.1422103034175242 -0.38646186293006535
1.1470346000005354 -0.05516180166221949
0.5939436228473169 -0.06014040824093901
0.598153085854879 -0.3875348482892964
0.5982872488159557 -0.7164690387576401
0.599182020743418 -1.0395314260913773
0.6022928043747651 -1.356610306489416
0.6072412165816217 -1.6671970302633166
0.6136489787424738 -1.9699639294812104
0.6213491958452732 -2.2633128929423525
0.6302723193609949 -2.5456127189233535
0.640391298938556 -2.8152467801762215
0.651698549565003 -3.0706144049066735
0.6641930174876527 -3.310125486309172
0.6778731760176625 -3.5321966711574664
0.6927314644509454 -3.735250264753203
0.708747646819869 -3.9177132205972054
0.7258852636424804 -4.078009270606438
0.7441117884504184 -4.214525362132758
0.7634775843962692 -4.325506836214939
0.7842353928667748 -4.408809365175802
0.8067626904853945 -4.461505899249282
0.8308554048283298 -4.479875338306177
0.8549481191712647 -4.461505899249282
0.8774754167898846 -4.408809365175803
0.8982332252603902 -4.325506836214939
0.9175990212062409 -4.214525362132757
0.9358255460141789 -4.078009270606438
0.9529631628367904 -3.9177132205972054
0.9689793452057138 -3.7352502647532013
0.9838376336389968 -3.532196671157465
0.9975177921690066 -3.3101254863091705
1.0100122600916566 -3.070614404906673
1.0213195107181032 -2.8152467801762207
1.0314384902956644 -2.545612718923352
1.040361613811386 -2.2633128929423525
1.0480618309141854 -1.9699639294812084
1.0544695930750374 -1.6671970302633174
1.0594180052818942 -1.3566103064894155
1.0625287889132409 -1.0395314260913777
1.0634235608407032 -0.7164690387576396
1.0635577238017802 -0.3875348482892952
1.0677671868093421 -0.06014040824093909
0.6726164825567004 -0.06430709474821857
0.6762399247535237 -0.38866093797578594
0.6761778541526813 -0.7163907785218097
0.6761387282028289 -1.0394978327922768
0.6777183367941996 -1.3568424897274713
0.6807794213135139 -1.6676433150186807
0.6849661219489518 -1.9705698112791228
0.6900781676087723 -2.2640481295599724
0.6960267703773929 -2.546462251716423
0.7027772812580964 -2.816204363930486
0.7103195963489184 -3.071678008016644
0.7186521099002298 -3.311294240966799
0.7277727866265584 -3.533468874951024
0.7376722253047063 -3.7366216439758264
0.7483253485170074 -3.9191758113783535
0.7596855031134016 -4.079554738281505
0.7717056536542083 -4.216163067326171
0.78443935774421 -4.327307338942426
0.7982270931575103 -4.410949103966328
0.8136866642499696 -4.464184571354122
0.8308554048283299 -4.48292426810915
0.8480241454066898 -4.464184571354123
0.8634837164991491 -4.410949103966328
0.8772714519124493 -4.327307338942426
0.8900051560024512 -4.216163067326171
0.9020253065432577 -4.079554738281505
0.9133854611396519 -3.919175811378353
0.9240385843519527 -3.736621643975824
0.933938023030101 -3.533468874951023
0.9430586997564294 -3.3112942409667983
0.951391213307741 -3.0716780080166437
0.9589335283985629 -2.8162043639304857
0.9656840392792664 -2.546462251716422
0.9716326420478869 -2.2640481295599715
0.9767446877077074 -1.9705698112791212
0.9809313883431452 -1.6676433150186811
0.9839924728624596 -1.356842489727471
0.9855720814538301 -1.0394978327922775
0.9855329555039779 -0.7163907785218089
0.9854708849031354 -0.3886609379757849
0.9890943270999587 -0.06430709474821861
0.7508725464059581 -0.06775868445612013
0.7539254431632844 -0.3897703833520248
0.7536578838292194 -0.7163269962219231
0.7528106577284864 -1.039346968207352
0.7529659786663495 -1.3568873300934343
0.7541832111185907 -1.6678657038799911
0.7561614049923604 -1.9709163630024429
0.7586883026203066 -2.2644847537910846
0.7616623842791165 -2.5469718462783724
0.7650437078344537 -2.8167798211024135
0.7688204391137091 -3.0723169928578242
0.7729905544069094 -3.3119957650635707
0.7775516822909739 -3.5342310308585434
0.7824933032426334 -3.7374396633828737
0.7877873952620252 -3.9200406627003472
0.7933801007903619 -4.0804561022330486
0.7992102473310276 -4.217108955318207
0.8053253768350005 -4.3283775961414905
0.8121412021801045 -4.412363814403054
0.8205389439013862 -4.466230699426319
0.8308554048283299 -4.485449318535104
0.8411718657552733 -4.466230699426319
0.8495696074765549 -4.412363814403054
0.8563854328216587 -4.3283775961414905
0.8625005623256318 -4.217108955318206
0.8683307088662974 -4.0804561022330486
0.8739234143946338 -3.9200406627003463
0.8792175064140257 -3.737439663382872
0.8841591273656852 -3.534231030858543
0.8887202552497497 -3.3119957650635694
0.8928903705429501 -3.072316992857824
0.8966671018222055 -2.816779821102413
0.9000484253775427 -2.5469718462783715
0.9030225070363525 -2.2644847537910837
0.9055494046642988 -1.9709163630024409
0.9075275985380684 -1.6678657038799918
0.9087448309903096 -1.3568873300934339
0.9089001519281728 -1.0393469682073526
0.9080529258274397 -0.7163269962219223
0.9077853664933747 -0.38977038335202374
0.9108382632507008 -0.06775868445612018
0.8288518502783732 -0.07057670682884183
0.8313472987105256 -0.39081246534264164
0.8308438274813342 -0.7162677333952661
0.8292670499958646 -1.0390973396359504
0.8280881480623624 -1.3567585428227729
0.8275078846603199 -1.667869652995048
0.8272935619940018 -1.9710053904905687
0.827239471638063 -2.2646232668992092
0.8272393570672645 -2.5471415204927763
0.8272508285775807 -2.8169730503181634
0.8272612942703157 -3.0725312681019203
0.8272685505812266 -3.31223003164763
0.8272701276818477 -3.5344832797542898
0.8272551952222583 -3.7377048893339677
0.8271948863760604 -3.9203092613590154
0.8270318496472054 -4.08071608594249
0.82669188826274 -4.217365348318733
0.8262035234369458 -4.3287145046189845
0.8260327450810366 -4.413043269152062
0.8273427285715439 -4.467647390983878
0.8308554048283298 -4.487491023295865
0.8343680810851155 -4.467647390983876
0.8356780645756229 -4.413043269152061
0.835507286219713 -4.3287145046189845
0.8350189213939193 -4.217365348318732
0.8346789600094537 -4.080716085942489
0.8345159232805986 -3.920309261359013
0.8344556144344006 -3.737704889333966
0.8344406819748114 -3.5344832797542884
0.8344422590754325 -3.312230031647629
0.8344495153863435 -3.0725312681019203
0.8344599810790785 -2.816973050318163
0.8344714525893948 -2.547141520492775
0.8344713380185961 -2.264623266899208
0.8344172476626573 -1.9710053904905669
0.8342029249963392 -1.6678696529950485
0.8336226615942968 -1.3567585428227724
0.8324437596607945 -1.0390973396359513
0.830866982175325 -0.7162677333952653
0.8303635109461336 -0.3908124653426406
0.8328589593782859 -0.0705767068288419
0.9066691978072591 -0.07283173301629249
0.9086232477489743 -0.39175200593086784
0.9078464349044926 -0.7161982321785705
0.9055856833333471 -1.038760519287075
0.9031446411175238 -1.3564683915484808
0.9008113735198797 -1.667661152112836
0.8984220038679901 -1.9708390307862023
0.8957917116523763 -2.2644642619820807
0.8928178671007104 -2.546971318701181
0.8894588477378365 -2.8167839515768933
0.8857023563705371 -3.072320738566695
0.8815462850326587 -3.311997016491749
0.8769883283779975 -3.534225782049602
0.8720181653762228 -3.737417932973696
0.86660819070427 -3.9199832230879283
0.8607019408869749 -4.080337889726459
0.8542153336984366 -4.216935425276656
0.8471430930179864 -4.328314170902808
0.8399612396906678 -4.412970695816392
0.834122262672702 -4.468429081398801
0.8308554048283296 -4.4890958548803415
0.8275885469839572 -4.4684290813988
0.8217495699659917 -4.412970695816392
0.8145677166386727 -4.328314170902807
0.8074954759582224 -4.216935425276656
0.8010088687696842 -4.080337889726458
0.795102618952389 -3.9199832230879266
0.7896926442804363 -3.737417932973694
0.7847224812786617 -3.534225782049601
0.7801645246240002 -3.311997016491748
0.7760084532861222 -3.0723207385666944
0.7722519619188225 -2.8167839515768924
0.7688929425559489 -2.54697131870118
0.765919098004283 -2.26446426198208
0.763288805788669 -1.9708390307862005
0.7608994361367796 -1.6676611521128366
0.7585661685391354 -1.35646839154848
0.7561251263233122 -1.0387605192870761
0.7538643747521667 -0.7161982321785698
0.7530875619076849 -0.3917520059308668
0.7550416118493999 -0.07283173301629257
0.9844214964160447 -0.07458717541743715
0.9858558850648974 -0.39256614335584983
0.9847694828497205 -0.7161024186201491
0.9818489238659921 -1.038342861530123
0.9782012777849204 -1.3560270878613225
0.9741544568496833 -1.667246067246194
0.969606977050205 -1.9704195290367037
0.9644052399864183 -2.2640083561593682
0.9584580822895851 -2.546461288786161
0.9517279259861514 -2.8162124260633847
0.9442037968494925 -3.0716853087181457
0.9358839302036076 -3.3112966940230795
0.9267664240455034 -3.533458697016299
0.9168422464063898 -3.7365793917890473
0.9060869628712627 -3.919064135265526
0.8944497164565397 -4.079325014749265
0.8818430667423535 -4.215823604439829
0.8682151716836715 -4.327173090887093
0.8539939354630206 -4.412122637491416
0.8409052351416378 -4.468558700191571
0.8308554048283295 -4.490319885787346
0.8208055745150212 -4.46855870019157
0.8077168741936387 -4.412122637491416
0.7934956379729878 -4.327173090887091
0.7798677429143055 -4.215823604439828
0.7672610932001194 -4.079325014749265
0.7556238467853963 -3.919064135265524
0.7448685632502693 -3.7365793917890455
0.7349443856111559 -3.533458697016297
0.7258268794530515 -3.3112966940230786
0.7175070128071666 -3.0716853087181453
0.7099828836705077 -2.816212426063384
0.7032527273670742 -2.54646128878616
0.697305569670241 -2.264008356159367
0.6921038326064541 -1.9704195290367015
0.6875563528069758 -1.6672460672461948
0.6835095318717389 -1.3560270878613223
0.6798618857906671 -1.0383428615301238
0.6769413268069389 -0.7161024186201483
0.6758549245917618 -0.39256614335584866
0.6772893132406145 -0.07458717541743726
1.062191857717719 -0.07590250543259905
1.0631356945489334 -0.39324163849103555
1.0617097742887582 -0.7159650496667721
1.0581413807742097 -1.0378471627545394
1.0533286148879069 -1.3554426364357963
1.0476006333957282 -1.6666296149090687
1.0409096189370344 -1.969748987367562
1.0331404503110384 -2.263256113454681
1.0242201540050209 -2.545611460761002
1.014118180369216 -2.8152583753641114
1.0028257641406015 -3.0706248863123777
0.9903416482998815 -3.310129033430332
0.9766644921668134 -3.532182160640158
0.9617872511045182 -3.735189800734595
0.9456902502222219 -3.9175533972914205
0.9283325569457862 -4.077680952318931
0.9096341120048185 -4.21403585717896
0.8894921072251081 -4.325289974777534
0.868209889766685 -4.410469448194612
0.8477267128874099 -4.46800318874985
0.8308554048283295 -4.491233581412548
0.8139840967692492 -4.468003188749849
0.7935009198899741 -4.41046944819461
0.772218702431551 -4.325289974777532
0.7520766976518406 -4.214035857178959
0.7333782527108728 -4.077680952318931
0.7160205594344371 -3.9175533972914196
0.6999235585521408 -3.7351898007345934
0.6850463174898458 -3.5321821606401573
0.6713691613567776 -3.3101290334303313
0.6588850455160574 -3.0706248863123777
0.647592629287443 -2.815258375364111
0.6374906556516384 -2.545611460761001
0.6285703593456208 -2.26325611345468
0.6208011907196248 -1.9697489873675602
0.6141101762609308 -1.6666296149090696
0.6083821947687524 -1.355442636435796
0.6035694288824495 -1.03784716275454
0.600001035367901 -0.7159650496667713
0.5985751151077259 -0.39324163849103444
0.5995189519389402 -0.07590250543259915
1.1400514639325499 -0.07683592151296827
1.1405427591608435 -0.39377276270167827
1.1387577564257936 -0.7157730905681577
1.1345487874571365 -1.0372741093455782
1.1286009158245947 -1.3547208985239794
1.1212157726587122 -1.6658159620206325
1.112391890304678 -1.9688291231794774
1.102057881120689 -2.2622079652892393
1.0901642011429868 -2.544421828394369
1.0766896821652026 -2.8139217018045075
1.061628384880973 -3.0691393863988528
1.0449795986595476 -3.30849399699366
1.026742568912781 -3.530396261584706
1.0069127807385445 -3.7332495929914855
0.9854766588986321 -3.9154520997774838
0.962406099779863 -4.075408703101571
0.937642425943451 -4.2115796925339035
0.91104521044273 -4.322668347461916
0.8827049680605961 -4.407977175471137
0.8546361121085551 -4.466706600637165
0.8308554048283295 -4.491928002909078
0.8070746975481037 -4.466706600637163
0.7790058415960628 -4.407977175471136
0.750665599213929 -4.322668347461914
0.7240683837132083 -4.211579692533903
0.6993047098767957 -4.075408703101569
0.6762341507580266 -3.9154520997774833
0.6547980289181144 -3.733249592991484
0.6349682407438783 -3.530396261584705
0.6167312109971115 -3.3084939969936586
0.600082424775686 -3.0691393863988528
0.5850211274914566 -2.8139217018045066
0.5715466085136724 -2.5444218283943685
0.5596529285359702 -2.262207965289238
0.5493189193519812 -1.9688291231794757
0.540495036997947 -1.6658159620206334
0.5331098938320645 -1.354720898523979
0.5271620221995227 -1.0372741093455788
0.5229530532308656 -0.715773090568157
0.5211680504958158 -0.3937727627016771
0.5216593457241094 -0.07683592151296835
1.218059651457596 -0.07744650405805945
1.2181473713472144 -0.39415976842176287
1.2159985658593997 -0.7155167431153255
1.2111578559794896 -1.036623455923239
1.2040954028571063 -1.353865698554843
1.195067623583192 -1.664807920646419
1.1841163936526036 -1.967661062435817
1.171218150964086 -2.26086413905898
1.1563502861437949 -2.5428923358423554
1.139502453446426 -2.812202311321774
1.1206717674396534 -3.067228735394106
1.099857943276705 -3.306391542651041
1.0770606932504312 -3.528101019197866
1.0522782426070838 -3.730759053444848
1.025504457518174 -3.912761000003589
0.9967250247983197 -4.072510183367244
0.965915349527927 -4.208463351052738
0.932939167040649 -4.319319870384099
0.8975972436688189 -4.404612296327742
0.8617103108699088 -4.464579723949586
0.8308554048283293 -4.492522432447616
0.8000004987867501 -4.464579723949586
0.76411356598784 -4.40461229632774
0.7287716426160098 -4.319319870384097
0.6957954601287321 -4.208463351052736
0.6649857848583395 -4.072510183367243
0.636206352138485 -3.912761000003588
0.6094325670495752 -3.730759053444846
0.5846501164062279 -3.5281010191978646
0.5618528663799539 -3.3063915426510393
0.5410390422170057 -3.067228735394106
0.5222083562102331 -2.8122023113217733
0.5053605235128643 -2.5428923358423545
0.49049265869257314 -2.2608641390589788
0.4775944160040557 -1.9676610624358155
0.4666431860734672 -1.66480792064642
0.45761540679955315 -1.3538656985548425
0.45055295367716974 -1.03662345592324
0.44571224379725943 -0.7155167431153248
0.4435634383094448 -0.39415976842176176
0.4436511581990632 -0.07744650405805951
1.296262251704661 -0.07779584692433111
1.2960096971923771 -0.3944079973931356
1.2935136208125813 -0.7151904480685942
1.288056960683006 -1.0358948856544286
1.279891709278834 -1.3528788373548035
1.2692252174179037 -1.6636067082151755
1.256146100696478 -1.966245184160553
1.2406818604306922 -2.2592246049607607
1.2228383850563143 -2.5410228718491137
1.2026164625611988 -2.8101001200064077
1.180016010244049 -3.064892875392572
1.1550368482631037 -3.303821628374259
1.1276789548319357 -3.525296380509324
1.0979429637459939 -3.7277182305663223
1.0658314066098142 -3.9094806097364616
1.0313443932906712 -4.0689858193546025
0.9944937185679993 -4.204693522828934
0.9552208441401865 -4.3152676595107415
0.913030109643514 -4.400352153002632
0.8690797377626035 -4.461484976103521
0.8308554048283293 -4.493172452276344
0.7926310718940552 -4.461484976103521
0.7486807000131445 -4.400352153002631
0.7064899655164723 -4.315267659510741
0.6672170910886597 -4.204693522828932
0.6303664163659879 -4.068985819354602
0.5958794030468445 -3.9094806097364603
0.5637678459106651 -3.72771823056632
0.5340318548247234 -3.5252963805093227
0.5066739613935554 -3.303821628374257
0.48169479941261023 -3.064892875392572
0.4590943470954603 -2.8101001200064073
0.4388724246003449 -2.541022871849113
0.42102894922596706 -2.2592246049607603
0.40556470896018104 -1.9662451841605513
0.39248559223875557 -1.6636067082151764
0.3818191003778253 -1.3528788373548033
0.3736538489736532 -1.0358948856544292
0.36819718884407787 -0.7151904480685933
0.365701112464282 -0.39440799739313454
0.3654485579519982 -0.07779584692433113
1.3746877973207652 -0.07794905861391936
1.3741786065713981 -0.3945278359885833
1.3713832164539346 -0.7147941163597027
1.3653375450831406 -1.0350884430550398
1.3560713534480395 -1.3517599088282775
1.3437581841122002 -1.662211762902237
1.3285440162973028 -1.9645810249667364
1.3105094650891793 -2.257289049336009
1.2896883552372986 -2.5388132747234335
1.266091620413556 -2.8076150635582433
1.239721209025337 -3.0621317731461217
1.2105765060505487 -3.3007842060706087
1.1786574656763709 -3.5219822603753155
1.1439665383591604 -3.7241268155047615
1.106514335719073 -3.905611189977594
1.0663203284782232 -4.064835077058253
1.0234173847916193 -4.20027102886508
0.9779005772372534 -4.310546823285941
0.9291630753371827 -4.39520659880757
0.8769836566891149 -4.457215875886344
0.8308554048283294 -4.494074388815905
0.7847271529675437 -4.457215875886343
0.732547734319476 -4.395206598807569
0.6838102324194053 -4.310546823285941
0.6382934248650396 -4.200271028865079
0.595390481178436 -4.064835077058252
0.5551964739375858 -3.905611189977593
0.5177442712974986 -3.72412681550476
0.4830533439802881 -3.521982260375314
0.4511343036061104 -3.3007842060706074
0.4219896006313222 -3.0621317731461213
0.39561918924310324 -2.807615063558243
0.3720224544193604 -2.538813274723433
0.35120134456747987 -2.2572890493360087
0.33316679335935623 -1.9645810249667346
0.3179526255444591 -1.6622117629022382
0.30563945620861965 -1.3517599088282772
0.2963732645735186 -1.0350884430550404
0.2903275932027245 -0.714794116359702
0.2875322030852611 -0.3945278359885822
0.2870230123358941 -0.07794905861391942
1.4533405505144075 -0.07797486153692303
1.452689839155173 -0.39453604198500647
1.449691101096842 -0.7143347572967366
1.4430960001111213 -1.0342042866799226
1.4327169764631982 -1.3505058748004906
1.418736026456804 -1.660620630235858
1.4013727934233309 -1.9626672436892316
1.3807611309726966 -2.255056881964639
1.3569599022184176 -2.536263351754586
1.3299877880841176 -2.804747106246395
1.2998474409354204 -3.0589454383245642
1.266537212886222 -3.2972792088088347
1.2300562573591547 -3.5181585656227266
1.1904090759882795 -3.719984252149812
1.1476099765223138 -3.9011519591504866
1.1017059497726676 -4.060058862793854
1.0527413049928385 -4.19518602379815
1.0009331654269384 -4.305193562209367
0.9461148427280704 -4.389261303617075
0.8858966877073048 -4.451474199143971
0.8308554048283293 -4.495452304547744
0.7758141219493537 -4.451474199143969
0.7155959669285881 -4.389261303617073
0.6607776442297203 -4.305193562209367
0.6089695046638204 -4.19518602379815
0.5600048598839915 -4.060058862793854
0.5141008331343451 -3.9011519591504857
0.4713017336683795 -3.719984252149811
0.43165455229750443 -3.518158565622726
0.39517359677043695 -3.297279208808834
0.36186336872123875 -3.0589454383245647
0.33172302157254163 -2.804747106246395
0.30475090743824146 -2.536263351754585
0.2809496786839627 -2.2550568819646384
0.26033801623332814 -1.9626672436892298
0.2429747831998551 -1.660620630235859
0.22899383319346092 -1.3505058748004903
0.21861480954553794 -1.034204286679923
0.2120197085598172 -0.7143347572967359
0.20902097050148633 -0.3945360419850054
0.2083702591422519 -0.07797486153692307
1.5321880779089165 -0.07794423688586945
1.5315639439925206 -0.39445960934255664
1.5285330434103865 -0.7138284532494494
1.5214350646525538 -1.0332412537562201
1.50991118905752 -1.3491105115667972
1.494227426188324 -1.6588289340728548
1.4746942818611308 -1.9605016406958395
1.4514965987951964 -2.2525272894310016
1.4247125545896389 -2.533372906708005
1.3943647702218018 -2.801496265931531
1.3604548194679247 -3.0553339015018826
1.3229792067818227 -3.293306664333558
1.2819359266068735 -3.5138248925333455
1.237329347098633 -3.7152906190366437
1.1891806944137613 -3.896099265080275
1.137539919046581 -4.0546611812270825
1.082549233707951 -4.189424772330217
1.024260917984971 -4.299197833159228
0.9637311779143791 -4.382760859688381
0.8968471033732902 -4.443864791852558
0.8308554048283293 -4.497482270490892
0.7648637062833681 -4.443864791852558
0.6979796317422793 -4.382760859688379
0.6374498916716876 -4.299197833159226
0.5791615759487081 -4.189424772330216
0.524170890610078 -4.0546611812270825
0.4725301152428973 -3.8960992650802737
0.4243814625580258 -3.715290619036643
0.3797748830497854 -3.513824892533345
0.3387316028748363 -3.2933066643335565
0.30125599018873456 -3.055333901501883
0.2673460394348573 -2.8014962659315303
0.23699825506702032 -2.5333729067080046
0.2102142108614627 -2.2525272894310007
0.18701652779552833 -1.960501640695838
0.16748338346833555 -1.6588289340728555
0.15179962059913915 -1.3491105115667972
0.14027574500410553 -1.0332412537562208
0.1331777662462728 -0.7138284532494488
0.1301468656641386 -0.39445960934255553
0.12952273174774284 -0.07794423688586949
1.6111386413380788 -0.07792651425238839
1.6108050051353022 -0.3943447356218656
1.608033936494603 -0.7133019534877415
1.6004612128769018 -1.0321933357842141
1.5877361146423603 -1.3475642963040442
1.5702992137166496 -1.6568302594439344
1.5485691324791024 -1.9580813025013528
1.522775050610801 -2.2496993165500156
1.4930056482215432 -2.5301417886181454
1.4592823364546217 -2.7978626199098917
1.4216034552659567 -3.051297269893259
1.3799628870316645 -3.2888665249604134
1.3343567776936907 -3.5089812416891673
1.2847884870433157 -3.7100441619684985
1.2312808383698912 -3.8904552246150095
1.1738969868390332 -4.048622177461829
1.1127931279556154 -4.183042198749498
1.048261025856851 -4.292350953345054
0.9806947148416563 -4.376252552129964
0.9123121922712569 -4.433998025746218
0.8308554048283293 -4.5
0.7493986173854013 -4.4339980257462175
0.6810160948150019 -4.376252552129963
0.6134497837998074 -4.292350953345053
0.5489176817010439 -4.183042198749496
0.48781382281762553 -4.048622177461829
0.43042997128676747 -3.890455224615008
0.3769223226133431 -3.7100441619684976
0.32735403196296825 -3.5089812416891664
0.2817479226249945 -3.288866524960413
0.24010735439070255 -3.0512972698932592
0.20242847320203736 -2.7978626199098913
0.16870516143511596 -2.5301417886181445
0.13893575904585814 -2.2496993165500143
0.11314167717755687 -1.9580813025013513
0.09141159594000978 -1.656830259443935
0.07397469501429862 -1.347564296304044
0.061249596779757345 -1.0321933357842148
0.05367687316205641 -0.7133019534877407
0.050905804521357165 -0.3943447356218645
0.050572168318580454 -0.07792651425238839
SCALARS Stress float 6
LOOKUP_TABLE default
-919.7928465187308 -29264.777295461216 -9055.371042593984 -679.9289071311074 0.0 0.0
13860.987314304271 8190.984749450888 6615.591619126546 -1056.155867088366 0.0 0.0
7881.109482881442 -698.9978874354135 2154.63347863381 -451.7059421842274 0.0 0.0
8064.330507140114 613.9322007881973 2603.478812378494 -67.27564023217253 0.0 0.0
9258.818273968613 223.38620759759704 2844.6613444698623 -155.05104882666961 0.0 0.0
11144.150203428146 315.6424704068165 3437.93780215049 -159.77419216771324 0.0 0.0
13225.622501144262 343.9312179781452 4070.866115736723 -169.4211204749483 0.0 0.0
15404.232799323918 400.57902048291857 4741.443545942052 -173.09194154573686 0.0 0.0
17608.265640273283 456.30783029660734 5419.372041170968 -174.39726351993463 0.0 0.0
19817.216039671795 513.8714705423009 6099.32625306423 -174.7369925775593 0.0 0.0
22023.69214053134 571.2643836340494 6778.486957249616 -174.73697125168854 0.0 0.0
24227.449216754718 628.6253788644165 7456.82237868574 -174.77566884716185 0.0 0.0
26431.402157638 686.1861537623635 8135.276493420111 -175.11607165829474 0.0 0.0
28643.520305809026 744.7544502398664 8816.482426814666 -176.1188649383799 0.0 0.0
30881.310039741697 805.7163952272384 9506.107930490682 -178.17198831068578 0.0 0.0
33174.354031460454 870.5045744410229 10213.457581770444 -181.0836116620079 0.0 0.0
35551.35986568556 938.3511538126713 10946.913305849474 -182.4020796038149 0.0 0.0
37988.321386785974 1002.0906115689309 11697.123599506467 -174.84139103866067 0.0 0.0
40305.20168921162 1045.8539075053377 12405.316679015092 -145.83192367950375 0.0 0.0
42077.06237171465 1056.519671766437 12940.074613044319 -85.31056521782205 0.0 0.0
42755.786905190624 1050.5094398950393 13141.888903525702 -5.88329385209363e-11 0.0 0.0
42077.06237171595 1056.5196717694942 12940.074613045637 85.31056521803583 0.0 0.0
40305.20168921085 1045.8539075031138 12405.316679014184 145.8319236796924 0.0 0.0
37988.32138678648 1002.0906115697576 11697.123599506876 174.84139103865624 0.0 0.0
35551.359865685765 938.3511538132443 10946.913305849703 182.40207960384464 0.0 0.0
33174.35403145897 870.5045744377164 10213.457581769004 181.08361166205515 0.0 0.0
30881.310039742442 805.7163952287891 9506.107930491366 178.17198831072415 0.0 0.0
28643.520305808357 744.7544502381794 8816.482426813964 176.11886493820555 0.0 0.0
26431.40215763839 686.1861537633854 8135.276493420533 175.1160716583674 0.0 0.0
24227.44921675409 628.625378863247 7456.822378685199 174.7756688470571 0.0 0.0
22023.692140530544 571.2643836326096 6778.486957248945 174.73697125163403 0.0 0.0
19817.216039672287 513.871470543506 6099.326253064738 174.73699257750718 0.0 0.0
17608.265640273657 456.3078302972383 5419.372041171271 174.39726351992107 0.0 0.0
15404.232799324986 400.57902048543497 4741.443545943127 173.09194154580206 0.0 0.0
13225.622501143856 343.93121797732545 4070.8661157363545 169.42112047516684 0.0 0.0
11144.150203428346 315.64247040717214 3437.937802150656 159.7741921678057 0.0 0.0
9258.818273968598 223.38620759745947 2844.661344469818 155.05104882677384 0.0 0.0
8064.330507139924 613.9322007876078 2603.4788123782596 67.27564023205831 0.0 0.0
7881.109482881389 -698.997887435628 2154.6334786337297 451.70594218410025 0.0 0.0
13860.98731430426 8190.984749450767 6615.5916191265105 1056.1558670882773 0.0 0.0
-919.7928465187022 -29264.777295461285 -9055.371042593995 679.9289071311329 0.0 0.0
-5222.701159235277 -29073.11090774693 -10288.743620094661 -464.64407861504185 0.0 0.0
8524.978553673149 5604.121176339051 4238.729919003659 -842.0889103389973 0.0 0.0
5541.516244279889 -786.4516152392422 1426.5193887121943 -315.7252190185121 0.0 0.0
7192.868777745094 278.06612883524525 2241.2804719741016 -261.32660865038264 0.0 0.0
8231.6304928548 34.523195614509675 2479.8461065407932 -376.7789091882659 0.0 0.0
9941.528672712418 27.478618389150277 2990.70218733047 -426.81856798695935 0.0 0.0
11786.8411936603 9.188577443438264 3538.8089313311234 -449.25372527551554 0.0 0.0
13717.81884603402 2.8083986964276706 4116.188173419136 -458.43798072411505 0.0 0.0
15674.691920289815 0.29356731977587525 4702.495646282875 -460.9593970005476 0.0 0.0
17638.258353200086 -0.3747552099262359 5291.365079397047 -461.2175322494324 0.0 0.0
19601.344486922237 -0.37929610586535567 5880.289557244911 -460.8659194769222 0.0 0.0
21563.0749443095 -0.05813899265034017 6468.905041595055 -460.6931217156577 0.0 0.0
23525.864880672187 0.8083193213045501 7058.001959998045 -461.3319960608139 0.0 0.0
25496.39027420455 2.861804319416219 7649.77562355719 -463.9009857760267 0.0 0.0
27488.24323988583 6.724668736676943 8248.490372586753 -470.1545408019413 0.0 0.0
29521.736947758942 11.41506361777557 8859.945603413016 -481.2321256507562 0.0 0.0
31609.69848527363 10.918915803615299 9486.185220323176 -493.07205052479736 0.0 0.0
33712.5438051278 -9.398067367819685 10110.943721327993 -487.4694284424603 0.0 0.0
35660.670740011505 -68.17229341072567 10677.749533980234 -424.93048817790924 0.0 0.0
37107.28753955862 -159.77017652539905 11084.255208909964 -260.40181543881 0.0 0.0
37648.5888237089 -215.02265879105167 11230.069849475352 -6.52562448522076e-11 0.0 0.0
37107.287539558696 -159.7701765252875 11084.255208910025 260.4018154390183 0.0 0.0
35660.67074001103 -68.17229341232235 10677.749533979611 424.9304881780997 0.0 0.0
33712.543805127985 -9.398067367780413 10110.943721328063 487.4694284425718 0.0 0.0
31609.698485272784 10.918915801690275 9486.185220322344 493.07205052489593 0.0 0.0
29521.7369477591 11.415063618020156 8859.945603413134 481.23212565069133 0.0 0.0
27488.243239886207 6.724668737365519 8248.490372587072 470.15454080194615 0.0 0.0
25496.39027420467 2.861804319786856 7649.775623557338 463.9009857759336 0.0 0.0
23525.86488067231 0.8083193217486695 7058.001959998219 461.3319960608977 0.0 0.0
21563.074944309396 -0.058138992815713664 6468.905041594973 460.6931217154207 0.0 0.0
19601.344486921796 -0.37929610675769254 5880.289557244514 460.86591947715465 0.0 0.0
17638.25835320035 -0.3747552094659312 5291.365079397264 461.2175322494421 0.0 0.0
15674.691920290097 0.29356732032005084 4702.495646283126 460.95939700061876 0.0 0.0
13717.818846034286 2.808398697108572 4116.1881734194185 458.4379807241654 0.0 0.0
11786.841193660068 9.18857744292896 3538.8089313308997 449.2537252755133 0.0 0.0
9941.52867271217 27.478618388552597 2990.702187330216 426.8185679870046 0.0 0.0
8231.630492854929 34.523195614787305 2479.846106540915 376.778909188341 0.0 0.0
7192.86877774477 278.06612883457814 2241.280471973805 261.3266086503886 0.0 0.0
5541.516244279686 -786.4516152395056 1426.5193887120543 315.72521901837547 0.0 0.0
8524.978553673038 5604.121176338909 4238.729919003584 842.0889103389845 0.0 0.0
-5222.701159235294 -29073.110907747017 -10288.743620094696 464.64407861505487 0.0 0.0
-5714.690909997449 -25446.454944497054 -9348.34375634835 -2139.8954449863777 0.0 0.0
5391.372220870362 3378.5223491295396 2630.9683709999713 -1522.7658043629556 0.0 0.0
4109.770758530965 140.91317872557687 1275.2051811769625 -214.09259378691286 0.0 0.0
6001.611464816463 45.54456594949593 1814.1468092297876 -602.8391279813765 0.0 0.0
7324.2110575472625 107.39867054734728 2229.482918428383 -750.2196521034163 0.0 0.0
8824.409609196871 26.722131240837463 2655.3395221313126 -859.8216006456805 0.0 0.0
10486.59021721579 14.595569908813765 3150.355736137382 -902.6594919556744 0.0 0.0
12198.580865930087 3.620401378310567 3660.6603801925203 -919.9714190869946 0.0 0.0
13936.157703744213 0.42595385113485307 4180.975097278605 -924.6225030027286 0.0 0.0
15679.847092247057 -0.5421260352136557 4703.7914898635545 -924.8915280968029 0.0 0.0
17424.218489346327 -0.5389859511638022 5227.10385101855 -924.0964677319726 0.0 0.0
19168.09306254289 -0.0966140806483331 5750.398934538673 -923.667595709845 0.0 0.0
20913.274661332714 1.0987503776784564 6274.31202351312 -924.8093114503091 0.0 0.0
22664.80876595266 3.975295744371266 6800.63521850911 -929.7404338693638 0.0 0.0
24432.506466806186 9.523095270251371 7332.608868622933 -942.133745101901 0.0 0.0
26229.771345118705 16.568982043848738 7873.902098148765 -964.8680177523365 0.0 0.0
28060.941536010818 16.6118475534398 8423.26601506928 -991.0436821212841 0.0 0.0
29884.27547800861 -12.280201911024896 8961.598582829278 -985.371435242995 0.0 0.0
31550.267328240145 -100.65139319860471 9434.884780512462 -866.8159983889883 0.0 0.0
32768.194078232 -245.83006357293323 9756.709204397719 -536.5285728451979 0.0 0.0
33215.465468123395 -338.8685869308323 9862.97906435777 4.8487436288269237e-11 0.0 0.0
32768.19407823144 -245.83006357429898 9756.709204397146 536.5285728451491 0.0 0.0
31550.267328239664 -100.65139319973406 9434.88478051198 866.8159983889245 0.0 0.0
29884.275478009014 -12.280201910264779 8961.598582829625 985.3714352429229 0.0 0.0
28060.941536009774 16.611847551041137 8423.266015068242 991.0436821211213 0.0 0.0
26229.77134511923 16.568982045209808 7873.902098149329 964.8680177524091 0.0 0.0
24432.506466806582 9.523095270953846 7332.608868623261 942.1337451019565 0.0 0.0
22664.808765953898 3.975295747300578 6800.635218510358 929.7404338691134 0.0 0.0
20913.27466133265 1.0987503777825367 6274.31202351313 924.8093114501971 0.0 0.0
19168.09306254277 -0.09661408086240897 5750.3989345385735 923.6675957096122 0.0 0.0
17424.218489346487 -0.5389859506153556 5227.103851018764 924.0964677320145 0.0 0.0
15679.847092246919 -0.5421260355757482 4703.7914898634035 924.8915280968351 0.0 0.0
13936.157703744115 0.42595385081783377 4180.9750972784805 924.622503002823 0.0 0.0
12198.580865929678 3.6204013774992134 3660.6603801921533 919.9714190870537 0.0 0.0
10486.590217215644 14.59556990848565 3150.3557361372377 902.6594919556422 0.0 0.0
8824.409609196482 26.72213123992421 2655.3395221309215 859.8216006456059 0.0 0.0
7324.211057547149 107.39867054719554 2229.482918428304 750.2196521034996 0.0 0.0
6001.611464816321 45.54456594954726 1814.1468092297612 602.8391279814093 0.0 0.0
4109.770758530718 140.91317872533304 1275.2051811768151 214.09259378680255 0.0 0.0
5391.372220870301 3378.5223491294787 2630.968370999934 1522.7658043630881 0.0 0.0
-5714.690909997473 -25446.454944497087 -9348.343756348368 2139.8954449864 0.0 0.0
-5251.599726668675 -21874.87500153583 -8137.942418461354 -2671.4083812834947 0.0 0.0
3365.7015105165306 1374.963108097215 1422.1993855841235 -2085.3832796612096 0.0 0.0
3004.31382985387 650.7454533666505 1096.517784966156 -634.5211184746345 0.0 0.0
4855.8747312917685 93.26344456167604 1484.7414527560331 -871.4629097679647 0.0 0.0
6332.447361703953 115.5640587114942 1934.4034261246343 -1116.0217072178154 0.0 0.0
7708.157285598614 51.020480606002465 2327.7533298613853 -1241.2280572074383 0.0 0.0
9174.484950761042 18.179054199277918 2757.7992014880956 -1303.628909941402 0.0 0.0
10677.642749906974 5.890356578338597 3205.0599319455946 -1326.516991461594 0.0 0.0
12196.65828925469 0.4296402301979221 3659.1263788454658 -1333.2847592533915 0.0 0.0
13721.45871044561 -0.8032592142394517 4116.1966353694115 -1333.776052882256 0.0 0.0
15247.170783423808 -0.8160140292821509 4573.906430818359 -1332.7866937934743 0.0 0.0
16772.977393301222 -0.1681361017403411 5031.8427771598435 -1332.265478939244 0.0 0.0
18299.921861339608 1.5657854825456603 5490.446294046647 -1333.8747663234567 0.0 0.0
19831.21809752234 5.7986756422819745 5951.105031949385 -1340.5947334154032 0.0 0.0
21372.96287489329 14.143380053638474 6416.131876484077 -1357.3151437122604 0.0 0.0
22933.1107808561 25.16392594324605 6887.482412039805 -1387.8039901172858 0.0 0.0
24512.12325854692 26.300807410678566 7361.527219787276 -1422.3919305319516 0.0 0.0
26074.257068113297 -16.6517160168096 7817.281605628945 -1411.8297198301138 0.0 0.0
27495.137021519622 -154.4529943361698 8202.20520815504 -1241.6334410663146 0.0 0.0
28526.946143611065 -388.40328878684875 8441.562856447266 -769.3967818637027 0.0 0.0
28898.486422826696 -542.1403196997693 8506.90383093808 1.3108092389302328e-10 0.0 0.0
28526.946143611844 -388.40328878489106 8441.562856448087 769.3967818636993 0.0 0.0
27495.13702151952 -154.4529943365458 8202.205208154895 1241.6334410663976 0.0 0.0
26074.257068114126 -16.65171601499415 7817.28160562974 1411.829719830087 0.0 0.0
24512.123258547083 26.300807411017914 7361.527219787431 1422.3919305318448 0.0 0.0
22933.11078085568 25.16392594232927 6887.482412039405 1387.8039901171844 0.0 0.0
21372.962874893536 14.14338005422941 6416.131876484331 1357.3151437122433 0.0 0.0
19831.218097522957 5.798675643773564 5951.10503195002 1340.594733415105 0.0 0.0
18299.921861339622 1.5657854828417612 5490.446294046738 1333.874766323419 0.0 0.0
16772.977393301036 -0.1681361021822454 5031.842777159657 1332.2654789393594 0.0 0.0
15247.170783424312 -0.8160140282715957 4573.906430818813 1332.7866937933054 0.0 0.0
13721.458710445913 -0.8032592135611196 4116.196635369708 1333.776052882204 0.0 0.0
12196.658289254512 0.4296402298365365 3659.126378845304 1333.2847592531746 0.0 0.0
10677.642749906512 5.890356577412952 3205.059931945178 1326.5169914615544 0.0 0.0
9174.484950761049 18.179054199441282 2757.799201488147 1303.6289099413032 0.0 0.0
7708.157285598591 51.020480605966156 2327.7533298613675 1241.2280572073291 0.0 0.0
6332.447361703961 115.56405871127319 1934.4034261245702 1116.021707217889 0.0 0.0
4855.874731292239 93.26344456257146 1484.7414527564429 871.4629097678956 0.0 0.0
3004.3138298538934 650.7454533664436 1096.5177849661015 634.5211184747334 0.0 0.0
3365.7015105166233 1374.9631080972622 1422.1993855841663 2085.3832796611537 0.0 0.0
-5251.599726668684 -21874.8750015358 -8137.942418461346 2671.4083812835015 0.0 0.0
-4500.727969823427 -18622.15300735531 -6936.864293153621 -2732.3763950978055 0.0 0.0
2045.083608836884 -169.3519653542939 562.7194930447771 -2465.9271573406027 0.0 0.0
2142.5511991418807 811.9198013039461 886.3413001337478 -1202.3121263664364 0.0 0.0
3812.622973211019 228.3024374505029 1212.2776231984567 -1189.1795234886063 0.0 0.0
5308.187224982218 136.50191080885435 1633.4067407373218 -1442.4257893956956 0.0 0.0
6580.8253855224975 72.30241770270982 1995.9383409675627 -1581.84609782166 0.0 0.0
7858.172797499477 26.32858693541707 2365.350415330469 -1651.4673641159868 0.0 0.0
9153.732436969916 7.8554533555611625 2748.476367097645 -1679.0341071605144 0.0 0.0
10456.563498237076 0.7284837107061115 3137.1875945843353 -1687.0808312644704 0.0 0.0
11762.860729032796 -1.1682342731187845 3528.507748427903 -1687.9383592799531 0.0 0.0
13070.113798925402 -1.1410408152604319 3920.6918274330437 -1686.9192888308385 0.0 0.0
14377.681126285737 -0.2459471848031498 4313.230553730281 -1686.4156914285434 0.0 0.0
15685.944097408123 2.176909896664899 4706.436302191435 -1688.359128664582 0.0 0.0
16996.200307592713 8.110381820829705 5101.293206824067 -1696.137331665406 0.0 0.0
18311.058645562698 19.936766067519617 5499.298623489068 -1715.2482857355892 0.0 0.0
19634.323384310555 35.90644536667596 5901.068948903169 -1749.900369148326 0.0 0.0
20966.195839123757 38.31572682774255 6301.353469785449 -1788.6655076360769 0.0 0.0
22282.933946163575 -23.059600787348515 6677.962303612869 -1772.602872710652 0.0 0.0
23488.365236664322 -225.9880801221483 6978.713146962651 -1560.930383892241 0.0 0.0
24366.554431346536 -578.1802776600807 7136.5122461059345 -971.0635591460259 0.0 0.0
24674.83463543716 -814.6553092933499 7158.053797843145 -8.077449820120819e-11 0.0 0.0
24366.55443134736 -578.1802776578811 7136.512246106842 971.0635591458044 0.0 0.0
23488.365236664657 -225.98808012122484 6978.713146963029 1560.9303838923443 0.0 0.0
22282.93394616459 -23.05960078498039 6677.962303613884 1772.6028727107605 0.0 0.0
20966.195839124404 38.315726829313306 6301.353469786117 1788.6655076364477 0.0 0.0
19634.323384310734 35.90644536726748 5901.0689489034 1749.9003691484866 0.0 0.0
18311.058645562924 19.936766067998974 5499.298623489276 1715.248285735764 0.0 0.0
16996.200307592524 8.110381820456851 5101.293206823893 1696.1373316653144 0.0 0.0
15685.944097408199 2.176909897114868 4706.436302191592 1688.3591286644178 0.0 0.0
14377.681126285699 -0.2459471849304009 4313.230553730231 1686.4156914287614 0.0 0.0
13070.113798924984 -1.1410408163379913 3920.691827432594 1686.9192888309092 0.0 0.0
11762.860729033035 -1.1682342723572106 3528.5077484282033 1687.938359279758 0.0 0.0
10456.563498236988 0.7284837106277635 3137.187594584285 1687.0808312642225 0.0 0.0
9153.732436969607 7.855453354822558 2748.4763670973284 1679.034107160599 0.0 0.0
7858.172797499843 26.328586936180507 2365.3504153308068 1651.4673641159634 0.0 0.0
6580.825385522627 72.30241770291478 1995.938340967663 1581.846097821643 0.0 0.0
5308.187224982581 136.50191080973556 1633.4067407376947 1442.425789395702 0.0 0.0
3812.6229732109227 228.30243745041557 1212.277623198402 1189.179523488544 0.0 0.0
2142.5511991417857 811.919801303773 886.3413001336677 1202.3121263665669 0.0 0.0
2045.0836088369153 -169.3519653543256 562.7194930447772 2465.9271573404226 0.0 0.0
-4500.727969823388 -18622.15300735528 -6936.8642931536015 2732.37639509789 0.0 0.0
-3728.406202104183 -15756.253020983811 -5845.397766926398 -2606.7875805855565 0.0 0.0
1174.980298699962 -1252.0908707964832 -23.133171628956504 -2690.8295055284 0.0 0.0
1459.7007802846742 754.2354260024757 664.1808618861447 -1751.6394562142243 0.0 0.0
2880.7286154617623 355.03920827335145 970.7303471205341 -1544.351240690128 0.0 0.0
4287.433389967534 176.69943321048848 1339.2398469534066 -1738.7702476085497 0.0 0.0
5444.936600799777 91.50398028547181 1660.932174325575 -1878.3862617139835 0.0 0.0
6539.230034200804 35.824649856420805 1972.516405217168 -1948.439065926209 0.0 0.0
7627.875201678897 10.302687830298902 2291.4533668527592 -1977.5240910877858 0.0 0.0
8715.703212130074 1.0248451758392676 2615.0184171917745 -1986.2988575771446 0.0 0.0
9804.03084381339 -1.502776592781867 2940.758420166183 -1987.4096687869828 0.0 0.0
10892.941791561716 -1.4905383844904918 3267.4353759531673 -1986.4944865773787 0.0 0.0
11982.194378159591 -0.308477739463072 3594.565770126039 -1986.063491403143 0.0 0.0
13071.51374735656 2.8714667238413085 3922.3155642241204 -1988.1469103923046 0.0 0.0
14160.366015868925 10.649331326147681 4251.30460415852 -1996.1825883127508 0.0 0.0
15248.169407530655 26.23020682363832 4582.319884306287 -2015.7555585290354 0.0 0.0
16335.584813168065 47.6164975392215 4914.960393212187 -2051.3428304293084 0.0 0.0
17425.080445508895 51.54975062567176 5242.989058840372 -2091.410901091596 0.0 0.0
18509.198209513965 -30.63979589149426 5543.567524086741 -2072.4024946666536 0.0 0.0
19522.471862457176 -309.9832581280285 5763.746581298743 -1833.629156192172 0.0 0.0
20272.01999715687 -807.0846231551002 5839.480612200532 -1150.5448468712827 0.0 0.0
20524.724612654623 -1151.0857448928843 5812.091660328522 -5.439915184979327e-11 0.0 0.0
20272.019997157146 -807.084623154202 5839.480612200882 1150.5448468711488 0.0 0.0
19522.47186245761 -309.9832581267493 5763.746581299259 1833.6291561923 0.0 0.0
18509.198209514994 -30.639795888999956 5543.5675240878 2072.4024946665995 0.0 0.0
17425.080445509324 51.54975062671875 5242.989058840813 2091.4109010914444 0.0 0.0
16335.58481316724 47.61649753729284 4914.960393211358 2051.3428304292884 0.0 0.0
15248.169407530444 26.230206823042764 4582.319884306045 2015.7555585291182 0.0 0.0
14160.366015868638 10.649331325642855 4251.304604158284 1996.1825883127635 0.0 0.0
13071.513747356956 2.8714667246419907 3922.315564224479 1988.1469103922946 0.0 0.0
11982.194378159546 -0.30847773977130544 3594.5657701259324 1986.0634914031398 0.0 0.0
10892.94179156112 -1.4905383858613703 3267.435375952577 1986.4944865773386 0.0 0.0
9804.030843812827 -1.5027765940145557 2940.758420165644 1987.4096687868796 0.0 0.0
8715.703212130176 1.0248451760483661 2615.0184171918672 1986.298857577232 0.0 0.0
7627.87520167858 10.302687829417266 2291.453366852399 1977.5240910878028 0.0 0.0
6539.230034200799 35.824649856589865 1972.5164052172174 1948.4390659261426 0.0 0.0
5444.936600799811 91.50398028586615 1660.9321743257024 1878.3862617139337 0.0 0.0
4287.433389967732 176.69943321108346 1339.2398469536445 1738.770247608551 0.0 0.0
2880.7286154616995 355.03920827325356 970.7303471204863 1544.3512406901853 0.0 0.0
1459.70078028468 754.2354260024246 664.1808618861314 1751.6394562141566 0.0 0.0
1174.9802986999782 -1252.09087079652 -23.1331716289626 2690.8295055284675 0.0 0.0
-3728.406202104212 -15756.25302098386 -5845.397766926422 2606.7875805855556 0.0 0.0
-3033.189398080922 -13262.437548100406 -4888.6880838543975 -2416.876522958116 0.0 0.0
592.5977986528228 -1945.1083112423848 -405.75315377686866 -2799.4041508257415 0.0 0.0
906.1432965672449 585.2757676929998 447.4257192780735 -2215.4525818067336 0.0 0.0
2049.914590448838 438.481523552874 746.5188342005135 -1900.0880123969998 0.0 0.0
3290.9166106803173 224.05543562337502 1054.4916138911076 -2008.569921218775 0.0 0.0
4307.460626659269 110.72159534726273 1325.4546666019594 -2129.944726096202 0.0 0.0
5218.7762684129475 44.83344812843953 1579.082914962416 -2194.8100968894773 0.0 0.0
6100.944320051063 13.056537643896426 1834.200257308488 -2222.3636915682737 0.0 0.0
6974.1486030763135 1.3401659062719808 2092.646630694776 -2231.0262259289307 0.0 0.0
7844.906535464653 -1.8017578311808045 2352.9314332900417 -2232.261313221883 0.0 0.0
8715.596541104092 -1.8177517384990551 2614.1336368096772 -2231.510273830491 0.0 0.0
9586.518541130117 -0.35325180104732823 2875.849586798721 -2231.176698431075 0.0 0.0
10456.819149857094 3.577090618228091 3138.118872142597 -2233.1772899946536 0.0 0.0
11324.310155304984 13.145017803011726 3401.236551932398 -2240.6801061015594 0.0 0.0
12185.562517604876 32.36990097060026 3665.3797255726417 -2258.9029501085774 0.0 0.0
13038.729654134668 59.22643091724104 3929.3868255155735 -2292.5560184936962 0.0 0.0
13889.937568089068 65.2994075917915 4186.571092704258 -2331.9900295563225 0.0 0.0
14750.903683624047 -37.528800861490524 4414.012464828766 -2314.714698467418 0.0 0.0
15589.712123895413 -399.94008202912084 4556.931612559889 -2066.3579891840373 0.0 0.0
16229.887166224307 -1067.7397471414095 4548.64422572487 -1314.9897855433023 0.0 0.0
16430.255459390974 -1550.1450994983725 4464.033107967778 9.947598300641403e-12 0.0 0.0
16229.88716622479 -1067.7397471401196 4548.6442257254 1314.9897855432505 0.0 0.0
15589.712123894058 -399.9400820324056 4556.931612558494 2066.357989184143 0.0 0.0
14750.903683623632 -37.52880086246368 4414.01246482835 2314.7146984675164 0.0 0.0
13889.937568089279 65.29940759224995 4186.571092704459 2331.9900295562106 0.0 0.0
13038.729654133642 59.226430914623954 3929.3868255144803 2292.556018493701 0.0 0.0
12185.562517603874 32.36990096820638 3665.3797255716254 2258.9029501086115 0.0 0.0
11324.310155305098 13.145017803298387 3401.236551932518 2240.680106101578 0.0 0.0
10456.819149856883 3.5770906179504607 3138.1188721424496 2233.177289994765 0.0 0.0
9586.518541130108 -0.35325180068748807 2875.849586798826 2231.176698430796 0.0 0.0
8715.596541104225 -1.8177517383305215 2614.133636809769 2231.51027383053 0.0 0.0
7844.906535464577 -1.80175783161026 2352.93143328989 2232.261313221897 0.0 0.0
6974.148603076712 1.340165907434347 2092.6466306952443 2231.026225928895 0.0 0.0
6100.9443200506485 13.056537643046319 1834.200257308108 2222.3636915682237 0.0 0.0
5218.776268413048 44.83344812853851 1579.0829149624758 2194.8100968893255 0.0 0.0
4307.460626659284 110.7215953474331 1325.454666602015 2129.944726096211 0.0 0.0
3290.9166106802995 224.0554356233692 1054.4916138911 2008.5699212189286 0.0 0.0
2049.91459044912 438.48152355346133 746.5188342007741 1900.0880123970076 0.0 0.0
906.1432965671638 585.2757676927473 447.4257192779734 2215.4525818066454 0.0 0.0
592.5977986530437 -1945.1083112421413 -405.75315377672916 2799.404150825844 0.0 0.0
-3033.1893980807167 -13262.437548100339 -4888.688083854316 2416.8765229579794 0.0 0.0
-2442.8382176018495 -11096.703286663569 -4061.862451279625 -2214.210432154632 0.0 0.0
193.1000592230502 -2333.808816068606 -642.2126270536668 -2824.130428764053 0.0 0.0
444.6835271184429 378.02125011035594 246.8114331686396 -2572.663425614284 0.0 0.0
1303.6508383816372 474.1881364742783 533.3516924567748 -2224.010142751451 0.0 0.0
2328.2574011941056 266.44942445060155 778.4120476934121 -2247.4449192441457 0.0 0.0
3175.255397138829 129.33030633114583 991.3757110409927 -2336.243099529713 0.0 0.0
3898.405455352804 52.7029447645597 1185.3325200352092 -2390.2181747519103 0.0 0.0
4573.565871304467 15.666123735299154 1376.7695985119296 -2413.7241592495902 0.0 0.0
5232.069180346352 1.6850789601226843 1570.1262777919428 -2421.3438811090837 0.0 0.0
5885.4464422297 -2.054586084647365 1765.0175568435159 -2422.539829385851 0.0 0.0
6538.035687626663 -2.0952859844574974 1960.7821204926624 -2421.9782213216686 0.0 0.0
7190.668199728001 -0.3809010574425926 2157.086189601168 -2421.7411859495487 0.0 0.0
7842.040281138764 4.2177308028886955 2353.8774035824963 -2423.442206957607 0.0 0.0
8488.574467488901 15.346320162278985 2551.176236295355 -2429.701507824761 0.0 0.0
9124.369191401565 37.7594007478024 2748.63857764481 -2444.9720913381448 0.0 0.0
9745.32315433409 69.76580206836616 2944.5266869207376 -2474.1517900653103 0.0 0.0
10361.447387993221 79.06906314512518 3132.154935341504 -2511.4788261208446 0.0 0.0
11005.277514248546 -41.278374674209275 3289.199741872301 -2501.696566244568 0.0 0.0
11682.240365048074 -488.3020258655091 3358.18150175477 -2263.6977456955024 0.0 0.0
12227.911997741541 -1352.8283908819026 3262.525082057891 -1470.4060566358767 0.0 0.0
12374.419100075062 -2014.4507446134178 3107.9905066384927 7.139533408917487e-11 0.0 0.0
12227.911997741241 -1352.828390882508 3262.525082057621 1470.4060566358523 0.0 0.0
11682.240365047259 -488.3020258676693 3358.1815017538765 2263.697745695573 0.0 0.0
11005.277514247528 -41.2783746764819 3289.199741871314 2501.6965662445787 0.0 0.0
10361.447387992635 79.06906314393487 3132.154935340972 2511.4788261208864 0.0 0.0
9745.323154334299 69.76580206887519 2944.526686920952 2474.1517900652366 0.0 0.0
9124.36919140111 37.75940074689975 2748.638577644402 2444.972091338328 0.0 0.0
8488.574467489178 15.346320162908228 2551.1762362956265 2429.701507824743 0.0 0.0
7842.040281138685 4.217730802493854 2353.877403582353 2423.4422069576385 0.0 0.0
7190.668199727927 -0.38090105789903106 2157.086189601008 2421.741185949592 0.0 0.0
6538.035687627027 -2.0952859836045477 1960.7821204930272 2421.978221321844 0.0 0.0
5885.446442229566 -2.0545860847586113 1765.0175568434415 2422.5398293857997 0.0 0.0
5232.069180346218 1.6850789599706886 1570.1262777918564 2421.343881108906 0.0 0.0
4573.5658713050325 15.666123736754773 1376.769598512536 2413.724159249691 0.0 0.0
3898.4054553526075 52.70294476404594 1185.3325200349962 2390.2181747517507 0.0 0.0
3175.2553971392626 129.330306331992 991.3757110413763 2336.2430995297254 0.0 0.0
2328.2574011940915 266.44942445059064 778.4120476934046 2247.4449192443394 0.0 0.0
1303.6508383813914 474.18813647399594 533.351692456616 2224.0101427513728 0.0 0.0
444.68352711850287 378.0212501105034 246.8114331687019 2572.6634256143434 0.0 0.0
193.10005922296676 -2333.808816068706 -642.212627053722 2824.1304287639796 0.0 0.0
-2442.8382176020464 -11096.703286663653 -4061.8624512797096 2214.210432154596 0.0 0.0
-1956.3040301272765 -9210.14811750628 -3349.935644290067 -2018.4607904394127 0.0 0.0
-91.19324908049637 -2495.7147580986357 -776.0724021537397 -2787.9090903817814 0.0 0.0
47.89108527600845 176.61544942267014 67.35196040960358 -2822.5341118688407 0.0 0.0
624.849668217934 470.4936864069719 328.60300638747174 -2493.9580062873606 0.0 0.0
1401.9504099315925 296.4143470935893 509.5094271075547 -2447.3831788524626 0.0 0.0
2053.3852251523354 145.21606718096393 659.5803876999898 -2496.090711901523 0.0 0.0
2579.904894808616 59.04328323392541 791.6844534127624 -2534.14514824476 0.0 0.0
3046.260039149003 17.780842346924267 919.2122644487779 -2551.539743958203 0.0 0.0
3489.6282348576856 2.0084138192393617 1047.4909946030773 -2557.305259425828 0.0 0.0
3925.6389753064923 -2.243654749869883 1177.018596166987 -2558.2808381375503 0.0 0.0
4360.228128900171 -2.306572395425171 1307.3764669514244 -2557.9152732201046 0.0 0.0
4794.662831283777 -0.39587933792150665 1438.2800855837568 -2557.761467053184 0.0 0.0
5227.331318192333 4.724739579205455 1569.616817331462 -2558.9786457482123 0.0 0.0
5653.612965245032 17.044425027564486 1701.1972170817799 -2563.4212750555794 0.0 0.0
6065.559587652165 41.89685279400629 1832.2369321338513 -2574.4327439475783 0.0 0.0
6456.738290436554 78.34758973609823 1960.525764051796 -2596.914168874176 0.0 0.0
6840.089624532076 92.35359133879754 2079.7329647612623 -2630.650494084994 0.0 0.0
7269.276798293334 -39.27689584239111 2168.9999707352827 -2634.1218158877004 0.0 0.0
7792.199750639013 -566.4739829702572 2167.7177303006274 -2428.268765228538 0.0 0.0
8254.83555631204 -1654.301439643553 1980.160235000546 -1622.1298537360794 0.0 0.0
8340.125257207557 -2550.913602874885 1736.763496299801 -4.865796654485166e-11 0.0 0.0
8254.835556311895 -1654.3014396434546 1980.1602350005328 1622.129853736107 0.0 0.0
7792.199750639554 -566.4739829688259 2167.7177303012186 2428.268765228576 0.0 0.0
7269.276798293212 -39.27689584284356 2168.9999707351103 2634.121815887719 0.0 0.0
6840.089624531208 92.35359133666499 2079.7329647603615 2630.650494085152 0.0 0.0
6456.738290436848 78.34758973683836 1960.5257640521063 2596.914168874224 0.0 0.0
6065.5595876523585 41.896852794613025 1832.2369321340916 2574.4327439476483 0.0 0.0
5653.612965244748 17.044425026877036 1701.197217081487 2563.4212750555607 0.0 0.0
5227.331318192222 4.724739578905037 1569.6168173313383 2558.9786457482023 0.0 0.0
4794.6628312834655 -0.39587933856304147 1438.2800855834705 2557.761467053127 0.0 0.0
4360.228128900425 -2.306572394876177 1307.3764669516647 2557.915273219937 0.0 0.0
3925.6389753062767 -2.2436547503214967 1177.0185961667871 2558.2808381376126 0.0 0.0
3489.6282348574796 2.0084138188130183 1047.4909946028877 2557.3052594256824 0.0 0.0
3046.2600391494634 17.780842348099217 919.2122644492688 2551.5397439581748 0.0 0.0
2579.9048948085874 59.04328323391469 791.6844534127507 2534.145148244713 0.0 0.0
2053.3852251527487 145.21606718191663 659.5803877003996 2496.0907119015583 0.0 0.0
1401.950409931462 296.4143470933221 509.50942710743533 2447.383178852508 0.0 0.0
624.8496682176892 470.4936864064836 328.60300638725175 2493.958006287338 0.0 0.0
47.89108527607748 176.6154494229245 67.35196040970058 2822.5341118689144 0.0 0.0
-91.19324908065332 -2495.714758098915 -776.0724021538701 2787.909090381689 0.0 0.0
-1956.30403012726 -9210.148117506267 -3349.9356442900585 2018.460790439417 0.0 0.0
-1562.2495367746744 -7559.219120841111 -2736.440597284736 -1834.8006639536723 0.0 0.0
-303.89261728078134 -2494.555480873873 -839.5344294463962 -2705.655378634175 0.0 0.0
-304.1806021664351 4.851309558995819 -89.79878778223181 -2972.374186607256 0.0 0.0
-1.798955008305981 439.3313888715355 131.25973015896886 -2696.831413400873 0.0 0.0
510.3479128419806 310.9698798977879 246.39533782193055 -2599.9510192296157 0.0 0.0
944.8042579647599 156.19305960308395 330.29919527035315 -2607.228800171589 0.0 0.0
1264.8408641664328 63.41618195512871 398.4771138364685 -2625.893243355036 0.0 0.0
1519.481102713636 19.18713277031135 461.60047064518426 -2635.6026114198453 0.0 0.0
1746.952460710813 2.2447069488793687 524.7591502979079 -2638.9154376772262 0.0 0.0
1965.4878456742235 -2.3583822682209146 588.9388390218007 -2639.5151251455704 0.0 0.0
2182.154085763243 -2.439551459866898 653.9143602910127 -2639.3415649585154 0.0 0.0
2398.5199072545806 -0.40430439619622405 719.4346808575151 -2639.257238147336 0.0 0.0
2612.8069332149726 5.043846909282941 785.3552340372769 -2639.859047898661 0.0 0.0
2819.7618509456224 18.089850250424092 851.3555103588141 -2642.091554961194 0.0 0.0
3009.912647411007 44.41313387659159 916.2977343862796 -2647.912251342645 0.0 0.0
3174.22079573041 84.17412016428437 977.5184747684083 -2661.8179310234746 0.0 0.0
3326.421173160261 104.42117029790498 1029.2527030374497 -2690.0534109917403 0.0 0.0
3539.9372992713256 -29.21992290347059 1053.2152129103565 -2711.3650301829452 0.0 0.0
3911.7782324953782 -624.8040385272939 986.0922581904257 -2560.624576030985 0.0 0.0
4300.268412524289 -1962.3241196390904 701.3832878655593 -1775.1198890146823 0.0 0.0
4309.105323876106 -3171.6528685756675 341.2357365901311 -6.252776074688882e-12 0.0 0.0
4300.2684125258465 -1962.3241196351808 701.3832878672 1775.1198890146761 0.0 0.0
3911.778232495673 -624.8040385264322 986.0922581907724 2560.6245760311044 0.0 0.0
3539.9372992709364 -29.21992290431396 1053.215212909987 2711.3650301831285 0.0 0.0
3326.4211731604123 104.42117029816487 1029.2527030375732 2690.0534109918412 0.0 0.0
3174.2207957308237 84.17412016543797 977.5184747688786 2661.8179310234864 0.0 0.0
3009.9126474123 44.41313387970039 916.2977343876001 2647.9122513426832 0.0 0.0
2819.7618509452304 18.089850249476427 851.355510358412 2642.0915549611623 0.0 0.0
2612.8069332153864 5.0438469102697425 785.3552340376968 2639.859047898605 0.0 0.0
2398.519907254628 -0.40430439621654557 719.4346808575234 2639.2572381472587 0.0 0.0
2182.1540857629598 -2.439551460739068 653.9143602906664 2639.341564958328 0.0 0.0
1965.4878456743306 -2.358382268001222 588.9388390218988 2639.515125145601 0.0 0.0
1746.952460711165 2.2447069498027155 524.7591502982905 2638.9154376771994 0.0 0.0
1519.4811027139053 19.187132770892248 461.6004706454393 2635.6026114198457 0.0 0.0
1264.8408641665746 63.41618195544648 398.4771138366063 2625.8932433551354 0.0 0.0
944.8042579648267 156.1930596033213 330.2991952704443 2607.228800171612 0.0 0.0
510.34791284187827 310.9698798974352 246.39533782179402 2599.9510192295584 0.0 0.0
-1.7989550083919426 439.3313888712854 131.25973015886805 2696.831413400784 0.0 0.0
-304.18060216651185 4.85130955891276 -89.79878778227982 2972.374186607197 0.0 0.0
-303.89261728080174 -2494.555480873925 -839.534429446418 2705.6553786342797 0.0 0.0
-1562.2495367746374 -7559.219120841073 -2736.4405972847126 1834.8006639536488 0.0 0.0
-1247.1300323044638 -6109.262937111082 -2206.9178908246636 -1662.0107136919246 0.0 0.0
-472.86685218217235 -2380.2644518617262 -855.9393912131695 -2586.5200215062046 0.0 0.0
-625.7967539613685 -126.69966010153254 -225.7489242188703 -3031.795191559303 0.0 0.0
-589.0561966095727 391.9967072519578 -59.117846807284465 -2826.029520006191 0.0 0.0
-350.33148121980616 310.22996404139934 -12.03045515352202 -2697.852264846263 0.0 0.0
-149.3981381086505 160.75438823396 3.406875037592883 -2666.7498137152916 0.0 0.0
-45.71656542825528 65.38764365251514 5.901323467277962 -2664.5402309270553 0.0 0.0
-6.419845149848015 19.76710922548301 4.0041792226904604 -2665.624410954819 0.0 0.0
4.126418409714745 2.3482201882108455 1.9423915793776985 -2666.139628132553 0.0 0.0
4.999746519577684 -2.396234435858254 0.7810536251158311 -2666.268076501316 0.0 0.0
3.8031499552831747 -2.486242185062615 0.39507233106617434 -2666.2800290533974 0.0 0.0
2.250804932286826 -0.41056511444686095 0.5520719453519973 -2666.258572055062 0.0 0.0
-1.4664329564865284 5.139450645304002 1.1019053066452216 -2666.1801286773266 0.0 0.0
-12.784818767881404 18.40036248218955 1.6846631142923911 -2666.0127952278244 0.0 0.0
-42.026138286046546 45.109251084402004 0.9249338395066218 -2666.1552730330714 0.0 0.0
-101.07868818094988 86.58441560368237 -4.348281773180247 -2670.0698628139867 0.0 0.0
-178.65014294270821 114.12800637704564 -19.356640969698702 -2690.1993468132086 0.0 0.0
-185.23554844867704 -9.688599134423526 -58.4772442749302 -2731.447702056239 0.0 0.0
33.262451064288314 -652.6473158486805 -185.81545943531765 -2658.9169541000674 0.0 0.0
354.7132000609163 -2263.784422481621 -572.7213667262116 -1934.0845248597407 0.0 0.0
260.5303582769598 -3895.5269291304126 -1090.4989712560357 8.185452315956354e-12 0.0 0.0
354.7132000614818 -2263.784422480276 -572.7213667256383 1934.0845248596524 0.0 0.0
33.26245106425125 -652.647315848475 -185.8154594352671 2658.9169540999437 0.0 0.0
-185.23554844852578 -9.688599133984724 -58.47724427475302 2731.447702056289 0.0 0.0
-178.6501429430491 114.1280063760544 -19.35664097009837 2690.1993468134287 0.0 0.0
-101.0786881803723 86.58441560514633 -4.348281772567788 2670.0698628141745 0.0 0.0
-42.0261382853318 45.109251086227346 0.9249338402686647 2666.155273032976 0.0 0.0
-12.784818767971785 18.400362482019695 1.6846631142144304 2666.0127952276684 0.0 0.0
-1.4664329555700988 5.139450647447994 1.1019053075634275 2666.180128677242 0.0 0.0
2.250804932027222 -0.41056511499513704 0.5520719451095459 2666.2585720549114 0.0 0.0
3.8031499553063384 -2.486242185008706 0.39507233108925277 2666.280029053383 0.0 0.0
4.999746519776636 -2.396234435416943 0.7810536253079476 2666.2680765012515 0.0 0.0
4.126418409551661 2.3482201879231006 1.9423915792424538 2666.1396281326665 0.0 0.0
-6.419845149903722 19.767109225512826 4.00417922268273 2665.6244109547474 0.0 0.0
-45.71656542857468 65.38764365185799 5.901323466984998 2664.540230927091 0.0 0.0
-149.39813810860903 160.75438823412253 3.406875037654082 2666.7498137154835 0.0 0.0
-350.33148121973744 310.22996404158016 -12.0304551534472 2697.852264846188 0.0 0.0
-589.0561966098377 391.99670725132995 -59.117846807552304 2826.0295200061732 0.0 0.0
-625.7967539614415 -126.69966010174441 -225.74892421895572 3031.7951915593335 0.0 0.0
-472.8668521822198 -2380.2644518616576 -855.9393912131633 2586.5200215062987 0.0 0.0
-1247.1300323046905 -6109.262937111229 -2206.917890824776 1662.010713691866 0.0 0.0
-998.5059557274722 -4835.039462998929 -1750.0636256179205 -1496.3424306215734 0.0 0.0
-615.5517537434876 -2190.926590294722 -841.9435032114628 -2435.784013922181 0.0 0.0
-926.8833465378208 -215.57113190423155 -342.73634353261576 -3010.1819117944706 0.0 0.0
-1147.0586172524463 337.50026933957906 -242.86750437386013 -2879.1022970577164 0.0 0.0
-1184.745632541839 296.0485327019437 -266.6091299519685 -2735.395570724 0.0 0.0
-1229.588065407925 158.29275092879004 -321.3885943437407 -2671.572161564233 0.0 0.0
-1351.3122897184676 64.66995700529867 -385.99269981395065 -2648.9855427337584 0.0 0.0
-1531.2513698491525 19.475500659443817 -453.5327607569127 -2641.270627072987 0.0 0.0
-1738.8109097302133 2.3026943088958376 -520.9524646263951 -2638.9219909164403 0.0 0.0
-1955.8213487437101 -2.3583200343932944 -587.453900633431 -2638.5605991568887 0.0 0.0
-2174.8281889882596 -2.4435273970675695 -653.1815149155981 -2638.755249822007 0.0 0.0
-2394.141560248298 -0.41492741291520474 -718.366946298364 -2638.8004801329384 0.0 0.0
-2615.473304767427 4.997966078546973 -783.142601606664 -2638.051060319612 0.0 0.0
-2843.990056589009 17.957607527869406 -847.8097347183415 -2635.503490557825 0.0 0.0
-3090.00280302223 43.98351682492933 -913.8057858591902 -2629.966420380334 0.0 0.0
-3368.1319577948316 85.1645381155042 -984.8902259037984 -2623.1475914800526 0.0 0.0
-3673.606179618587 119.82139434411151 -1066.1354355823426 -2631.8814671053046 0.0 0.0
-3907.773714984616 19.1010802722748 -1166.601790413702 -2691.218995464598 0.0 0.0
-3850.876561983112 -638.6925258551407 -1346.8707263514757 -2718.2835546208553 0.0 0.0
-3590.218967725402 -2540.1039616553094 -1839.0968788142136 -2103.3781522668037 0.0 0.0
-3830.8826787972553 -4750.446962870034 -2574.398892500187 -2.802380549837835e-11 0.0 0.0
-3590.218967725931 -2540.1039616566363 -1839.0968788147702 2103.3781522666422 0.0 0.0
-3850.8765619836704 -638.6925258563133 -1346.8707263519946 2718.283554620724 0.0 0.0
-3907.773714983464 19.101080275347044 -1166.6017904124349 2691.2189954648416 0.0 0.0
-3673.6061796189165 119.82139434324907 -1066.1354355827002 2631.8814671051696 0.0 0.0
-3368.131957795026 85.16453811506545 -984.8902259039885 2623.1475914799425 0.0 0.0
-3090.0028030228236 43.983516823680674 -913.8057858597425 2629.9664203801694 0.0 0.0
-2843.9900565886937 17.95760752844823 -847.8097347180741 2635.503490557785 0.0 0.0
-2615.4733047669533 4.997966079660323 -783.1426016061881 2638.051060319679 0.0 0.0
-2394.141560248667 -0.4149274138611929 -718.3669462987584 2638.8004801330667 0.0 0.0
-2174.8281889878285 -2.443527396118448 -653.1815149151839 2638.755249821996 0.0 0.0
-1955.8213487433904 -2.3583200337232526 -587.4539006331343 2638.560599156785 0.0 0.0
-1738.810909730498 2.302694307978509 -520.952464626756 2638.921990916363 0.0 0.0
-1531.2513698494954 19.475500658724258 -453.5327607572313 2641.270627072975 0.0 0.0
-1351.312289718351 64.6699570055092 -385.99269981385277 2648.9855427338243 0.0 0.0
-1229.5880654081589 158.29275092815004 -321.38859434400285 2671.572161564284 0.0 0.0
-1184.7456325419291 296.04853270176994 -266.60912995204785 2735.3955707239693 0.0 0.0
-1147.0586172524552 337.5002693396121 -242.86750437385282 2879.1022970576537 0.0 0.0
-926.8833465379705 -215.57113190433665 -342.73634353269216 3010.1819117946434 0.0 0.0
-615.551753743536 -2190.9265902945435 -841.943503211424 2435.784013922224 0.0 0.0
-998.505955727643 -4835.039462999048 -1750.0636256180069 1496.3424306216687 0.0 0.0
-806.145572679932 -3719.966142474446 -1357.8335145463134 -1333.3938687486354 0.0 0.0
-742.292581071243 -1955.0842492147976 -809.2130490858121 -2256.293846430273 0.0 0.0
-1213.9681851325715 -264.0275608828015 -443.39872380461185 -2915.7077535779317 0.0 0.0
-1683.5171664988602 282.18114022081295 -420.4008078834142 -2855.9499497810475 0.0 0.0
-1997.7022962474948 271.04529356923905 -517.9971008034769 -2708.3952533210063 0.0 0.0
-2297.1951297019036 149.04516833353702 -644.4449884105102 -2618.7886223064816 0.0 0.0
-2652.115241306306 61.229092891037546 -777.2658445245804 -2578.060445864992 0.0 0.0
-3055.0231247856723 18.340119487372938 -911.0049015894897 -2562.1927995009164 0.0 0.0
-3481.8703230633155 2.1192463567844655 -1043.9253230119593 -2557.204066035982 0.0 0.0
-3916.9751695800924 -2.246267422372597 -1175.7664311007397 -2556.4124429294825 0.0 0.0
-4353.737664711669 -2.313664747964026 -1306.81539883789 -2556.7920076382516 0.0 0.0
-4790.664081293704 -0.41311020520025465 -1437.3231574496713 -2556.916848967378 0.0 0.0
-5229.246618614992 4.632118884130442 -1567.3843499192587 -2555.581020260027 0.0 0.0
-5673.973141850042 16.794190965787934 -1697.153685265276 -2550.8745515428964 0.0 0.0
-6134.125004368254 41.227521762637934 -1827.869244781685 -2540.133162347132 0.0 0.0
-6626.155000578225 79.93072231055676 -1963.8672834803008 -2522.7889364478574 0.0 0.0
-7156.105588351239 119.43617389082567 -2111.0008243381244 -2516.6310492596695 0.0 0.0
-7627.575262117615 54.33161873379116 -2271.973093015148 -2586.82463683655 0.0 0.0
-7747.816554465735 -571.8690488600919 -2495.9056809977483 -2729.9047115778167 0.0 0.0
-7541.298204587738 -2763.9710448771216 -3091.5807748394577 -2286.485330490235 0.0 0.0
-7997.612633307059 -5776.698306808293 -4132.293282034606 5.553602022700943e-11 0.0 0.0
-7541.298204587432 -2763.9710448765286 -3091.580774839188 2286.4853304902335 0.0 0.0
-7747.816554465013 -571.8690488585405 -2495.905680997067 2729.9047115777785 0.0 0.0
-7627.575262116716 54.33161873615661 -2271.973093014168 2586.824636836727 0.0 0.0
-7156.105588351356 119.43617389079273 -2111.000824338169 2516.6310492595935 0.0 0.0
-6626.155000579107 79.93072230845556 -1963.8672834811955 2522.7889364479224 0.0 0.0
-6134.1250043685095 41.227521761922326 -1827.869244781976 2540.1331623472634 0.0 0.0
-5673.973141849893 16.794190965932216 -1697.1536852651884 2550.8745515429396 0.0 0.0
-5229.246618615928 4.632118882022123 -1567.384349920172 2555.581020259982 0.0 0.0
-4790.664081294527 -0.41311020688515754 -1437.323157450424 2556.9168489674494 0.0 0.0
-4353.737664711682 -2.313664747958864 -1306.815398837892 2556.792007638151 0.0 0.0
-3916.9751695802242 -2.2462674228735366 -1175.7664311009294 2556.41244292949 0.0 0.0
-3481.8703230632136 2.1192463567660944 -1043.9253230119348 2557.2040660360394 0.0 0.0
-3055.0231247858346 18.340119486974714 -911.004901589658 2562.1927995008236 0.0 0.0
-2652.1152413063974 61.22909289100547 -777.2658445246174 2578.060445865018 0.0 0.0
-2297.1951297020573 149.04516833311823 -644.4449884106818 2618.788622306328 0.0 0.0
-1997.7022962476753 271.0452935687127 -517.9971008036891 2708.395253321092 0.0 0.0
-1683.517166498429 282.1811402215991 -420.4008078830491 2855.9499497809666 0.0 0.0
-1213.968185132405 -264.0275608825872 -443.39872380449765 2915.7077535779317 0.0 0.0
-742.2925810712234 -1955.0842492147517 -809.2130490857925 2256.2938464303256 0.0 0.0
-806.1455726798221 -3719.9661424744077 -1357.8335145462688 1333.3938687487498 0.0 0.0
-662.0787264119982 -2754.8975811338246 -1025.092892263747 -1169.0765433512179 0.0 0.0
-858.3661611858274 -1693.8265370229544 -765.6578094626346 -2049.523831768058 0.0 0.0
-1490.781721113871 -277.00749367367655 -530.3367644362645 -2755.0413422318643 0.0 0.0
-2203.9946918952983 229.88379637959284 -592.2332686547119 -2757.5127311967058 0.0 0.0
-2793.79613467542 238.03169760429472 -766.7293311213375 -2613.8365380605965 0.0 0.0
-3354.4090841044144 133.9403107259686 -966.140632013534 -2505.873816889335 0.0 0.0
-3948.865928178568 55.32763212820345 -1168.0614888151097 -2450.6582238190804 0.0 0.0
-4577.959811660747 16.468729210377205 -1368.4473247351107 -2428.0681592651927 0.0 0.0
-5225.113696694822 1.8308242647101167 -1566.9848617290338 -2420.9410092136814 0.0 0.0
-5878.463362711649 -2.0620358020280207 -1764.1576195541038 -2419.846234151093 0.0 0.0
-6532.9161852800935 -2.1043878749406844 -1960.5061719465107 -2420.4140327209825 0.0 0.0
-7187.333628051768 -0.3989950770249493 -2156.319786938638 -2420.634663848102 0.0 0.0
-7842.863230212863 4.086562428523273 -2351.6330003353023 -2418.8642149185434 0.0 0.0
-8502.985963529114 14.982716247213006 -2546.400974184571 -2412.4133964081125 0.0 0.0
-9174.924675702796 37.15919177814267 -2741.3296451773963 -2397.3430264287304 0.0 0.0
-9874.86671872541 71.55343669418303 -2940.9939846093685 -2370.8583263697888 0.0 0.0
-10622.894479501689 110.97039441792253 -3153.5772255251313 -2347.2678513665924 0.0 0.0
-11341.953584847215 89.43024954461063 -3375.757000590781 -2414.7534595594193 0.0 0.0
-11664.048851949121 -443.42530986959747 -3632.242248545616 -2679.719575193664 0.0 0.0
-11502.70191902003 -2894.45515825468 -4319.147123182413 -2484.6755144486287 0.0 0.0
-12283.447994610273 -7031.496527064519 -5794.483356502437 3.433342499192804e-11 0.0 0.0
-11502.701919019291 -2894.455158253014 -4319.14712318169 2484.675514448603 0.0 0.0
-11664.048851948946 -443.4253098691246 -3632.2422485454213 2679.7195751935433 0.0 0.0
-11341.953584846371 89.43024954666991 -3375.7570005899097 2414.7534595592397 0.0 0.0
-10622.894479502094 110.97039441707946 -3153.577225525506 2347.2678513665187 0.0 0.0
-9874.866718724505 71.55343669630463 -2940.99398460846 2370.8583263696955 0.0 0.0
-9174.924675703289 37.15919177690034 -2741.3296451779165 2397.3430264287554 0.0 0.0
-8502.985963529356 14.982716246470424 -2546.4009741848668 2412.4133964080393 0.0 0.0
-7842.863230213798 4.0865624263273475 -2351.6330003362414 2418.8642149185075 0.0 0.0
-7187.333628051897 -0.39899507721865035 -2156.3197869387354 2420.6346638480986 0.0 0.0
-6532.916185280004 -2.104387874692275 -1960.5061719464088 2420.414032720955 0.0 0.0
-5878.463362711505 -2.062035801814904 -1764.1576195539958 2419.8462341510963 0.0 0.0
-5225.113696695107 1.8308242641393875 -1566.98486172929 2420.941009213777 0.0 0.0
-4577.959811661019 16.468729209875214 -1368.4473247353433 2428.0681592649617 0.0 0.0
-3948.8659281788855 55.327632127454194 -1168.0614888154298 2450.6582238191504 0.0 0.0
-3354.409084104226 133.9403107262606 -966.1406320133898 2505.873816889475 0.0 0.0
-2793.796134675252 238.0316976047021 -766.7293311211648 2613.8365380607343 0.0 0.0
-2203.9946918952933 229.88379637994055 -592.2332686546058 2757.5127311967058 0.0 0.0
-1490.7817211138934 -277.0074936736289 -530.3367644362568 2755.0413422317556 0.0 0.0
-858.3661611859375 -1693.8265370230242 -765.6578094626885 2049.5238317681783 0.0 0.0
-662.078726412204 -2754.897581133941 -1025.0928922638436 1169.0765433511751 0.0 0.0
-560.0889571833314 -1936.7399107273864 -749.0486603732155 -1000.2410978760477 0.0 0.0
-965.0726786548723 -1422.536566376617 -716.2827735094468 -1816.3905636600457 0.0 0.0
-1758.5636206053468 -261.0255610874313 -605.8767545078334 -2533.286573205086 0.0 0.0
-2712.1827996534453 182.3687246542729 -758.9442224997516 -2584.7987629519957 0.0 0.0
-3577.3004335352134 199.77001304897178 -1013.2591261458722 -2449.490461370775 0.0 0.0
-4403.983052289526 114.44051896331683 -1286.8627599978627 -2330.794606311585 0.0 0.0
-5242.79526852022 47.51074398060729 -1558.5853573618838 -2265.856192916216 0.0 0.0
-6100.48708574199 14.048826660605776 -1825.931477724416 -2238.6444810289986 0.0 0.0
-6968.648733877071 1.4856180600664715 -2090.148934745102 -2230.1161500165354 0.0 0.0
-7840.285832982881 -1.8103654129415716 -2352.628859518746 -2228.890932273444 0.0 0.0
-8712.34488078474 -1.8281156421076332 -2614.251898928055 -2229.642499321485 0.0 0.0
-9584.17415508852 -0.3704848270756429 -2875.363391974679 -2229.97069986131 0.0 0.0
-10456.443660553978 3.4378183247286813 -3135.901752668775 -2227.960736860886 0.0 0.0
-11331.365510676962 12.653561079852082 -3395.6135848791323 -2220.3723252418204 0.0 0.0
-12213.365348884057 32.07121073298184 -3654.3882414453224 -2202.1423967574724 0.0 0.0
-13114.923233943373 61.48229719685268 -3916.032281023956 -2169.0116679120924 0.0 0.0
-14070.00730025383 93.6299770569724 -4192.913196959058 -2128.3359872990436 0.0 0.0
-15044.276560517752 113.00718113482449 -4479.38081381488 -2173.9657379874784 0.0 0.0
-15604.70509311456 -251.30013125768014 -4756.80156731167 -2547.0036121839667 0.0 0.0
-15474.296395322366 -2869.7920812223097 -5503.2265429634035 -2693.8880296100588 0.0 0.0
-16749.813189613935 -8594.811185732862 -7603.387312604037 1.8417267710901797e-11 0.0 0.0
-15474.296395323036 -2869.792081223858 -5503.226542964068 2693.88802961001 0.0 0.0
-15604.705093114677 -251.30013125823012 -4756.801567311874 2547.0036121839903 0.0 0.0
-15044.276560517199 113.00718113578804 -4479.380813814423 2173.9657379873966 0.0 0.0
-14070.007300253063 93.62997705899616 -4192.9131969582195 2128.335987299057 0.0 0.0
-13114.923233942418 61.48229719952633 -3916.0322810228677 2169.011667912118 0.0 0.0
-12213.365348884194 32.071210732523895 -3654.388241445502 2202.1423967572914 0.0 0.0
-11331.365510676138 12.653561081559864 -3395.613584878373 2220.3723252419422 0.0 0.0
-10456.443660553283 3.4378183263162967 -3135.9017526680905 2227.9607368609227 0.0 0.0
-9584.174155088649 -0.3704848271327492 -2875.363391974734 2229.9706998613688 0.0 0.0
-8712.344880784573 -1.8281156415698945 -2614.251898927843 2229.6424993217333 0.0 0.0
-7840.285832982826 -1.8103654128380455 -2352.628859518699 2228.8909322734107 0.0 0.0
-6968.6487338771985 1.485618059825219 -2090.1489347452125 2230.11615001643 0.0 0.0
-6100.487085741617 14.04882666137036 -1825.9314777240745 2238.6444810288335 0.0 0.0
-5242.7952685204655 47.510743979928115 -1558.5853573621614 2265.8561929162042 0.0 0.0
-4403.983052289492 114.44051896346525 -1286.8627599978079 2330.794606311895 0.0 0.0
-3577.300433534906 199.77001304950332 -1013.2591261456205 2449.490461370811 0.0 0.0
-2712.1827996533743 182.36872465414186 -758.94422249977 2584.7987629520953 0.0 0.0
-1758.5636206051845 -261.02556108734854 -605.8767545077601 2533.2865732050523 0.0 0.0
-965.0726786548173 -1422.536566376585 -716.2827735094208 1816.3905636600384 0.0 0.0
-560.0889571834274 -1936.7399107274275 -749.0486603732566 1000.2410978760186 0.0 0.0
-494.7608885432032 -1266.903470213976 -528.4993076271537 -825.3247729771344 0.0 0.0
-1060.1161290799746 -1152.3955843940266 -663.7535140422003 -1557.9314356857237 0.0 0.0
-2016.1008451593425 -223.7767363173678 -671.9632744430131 -2253.868264838877 0.0 0.0
-3210.166188569993 139.84492044784395 -921.0963804366448 -2338.1021669269276 0.0 0.0
-4352.254458844917 158.99113211655487 -1257.9789980185087 -2213.585664059908 0.0 0.0
-5449.135517597971 92.40764131161441 -1607.0183628859072 -2092.075465789159 0.0 0.0
-6535.530774358026 38.551666950637056 -1949.093732222217 -2023.017004361678 0.0 0.0
-7623.193683649871 11.33493610460443 -2283.5576242635807 -1993.7842467813766 0.0 0.0
-8712.615580795875 1.138976642915722 -2613.442981245888 -1984.7535201426363 0.0 0.0
-9802.43506499027 -1.5031618097594404 -2941.1814680400093 -1983.5844199773824 0.0 0.0
-10891.992265032774 -1.5010737169246227 -3268.048001624909 -1984.4932574004338 0.0 0.0
-11981.206533256369 -0.33178963522013305 -3594.4614968674778 -1984.9312874552184 0.0 0.0
-13070.160181864163 2.767697202532858 -3920.217745398489 -1982.8814535757872 0.0 0.0
-14159.48562614606 10.069264798683449 -4244.824908404213 -1974.9277669159867 0.0 0.0
-15250.704046590652 26.06094818860575 -4567.392929520614 -1955.0133728527958 0.0 0.0
-16348.516873466253 51.60677617284678 -4889.073029188023 -1918.1900967227812 0.0 0.0
-17493.604223272916 69.96050317765251 -5227.09311602858 -1865.8188960250513 0.0 0.0
-18722.042576906217 108.89158921116304 -5583.945296308518 -1869.8471620363302 0.0 0.0
-19572.19824870705 -8.939393944540882 -5874.341292795479 -2303.777618635954 0.0 0.0
-19448.72007114048 -2597.1168067062445 -6613.751063354017 -2897.657067661402 0.0 0.0
-21485.67677833148 -10575.673967928014 -9618.40522387785 -1.4722445484949276e-10 0.0 0.0
-19448.72007114152 -2597.116806708807 -6613.751063355101 2897.657067661592 0.0 0.0
-19572.198248707144 -8.939393944629344 -5874.3412927955305 2303.7776186361357 0.0 0.0
-18722.04257690753 108.8915892080588 -5583.945296309842 1869.8471620363853 0.0 0.0
-17493.604223271584 69.96050318061796 -5227.09311602729 1865.8188960251264 0.0 0.0
-16348.516873467033 51.60677617121098 -4889.073029188748 1918.1900967228378 0.0 0.0
-15250.704046590317 26.060948189436164 -4567.392929520266 1955.0133728526212 0.0 0.0
-14159.485626145104 10.069264800676159 -4244.824908403328 1974.9277669160165 0.0 0.0
-13070.160181863555 2.767697203880779 -3920.2177453979025 1982.88145357568 0.0 0.0
-11981.206533256758 -0.3317896361946673 -3594.461496867886 1984.9312874552484 0.0 0.0
-10891.99226503251 -1.5010737164064558 -3268.048001624674 1984.493257400261 0.0 0.0
-9802.43506499045 -1.5031618101424087 -2941.1814680401776 1983.5844199774272 0.0 0.0
-8712.61558079556 1.138976643732489 -2613.4429812455483 1984.753520142721 0.0 0.0
-7623.193683650209 11.334936103720816 -2283.5576242639468 1993.7842467813066 0.0 0.0
-6535.5307743579215 38.551666950712836 -1949.093732222163 2023.0170043614785 0.0 0.0
-5449.135517597851 92.40764131182785 -1607.0183628858067 2092.0754657892685 0.0 0.0
-4352.25445884488 158.99113211671997 -1257.9789980184485 2213.58566405989 0.0 0.0
-3210.1661885703015 139.84492044731817 -921.0963804368953 2338.1021669268757 0.0 0.0
-2016.1008451592834 -223.7767363171749 -671.9632744429376 2253.8682648389113 0.0 0.0
-1060.116129079963 -1152.3955843940994 -663.7535140422186 1557.9314356856019 0.0 0.0
-494.7608885430627 -1266.903470213848 -528.4993076270733 825.324772977129 0.0 0.0
-459.92393472561713 -749.3680114317746 -362.7875838472175 -645.3574504743531 0.0 0.0
-1137.3666849232422 -891.9127186160039 -608.7838210617739 -1275.9288699547901 0.0 0.0
-2259.5016585636436 -174.26251782094545 -730.1292529153767 -1918.10441184161 0.0 0.0
-3698.71280374204 101.66469751674387 -1079.1144318675886 -2016.3108530389889 0.0 0.0
-5122.727218121738 118.6001225251089 -1501.2381286789887 -1904.6173266359667 0.0 0.0
-6493.527266649536 69.98034086648464 -1927.0640777349163 -1788.856220165265 0.0 0.0
-7828.992753918914 29.373950606919166 -2339.885640993599 -1721.8659775757642 0.0 0.0
-9146.775615648374 8.623332822809552 -2741.4456848476684 -1693.5029988643782 0.0 0.0
-10457.165945163006 0.8421981410262092 -3136.897124106593 -1684.9267953493256 0.0 0.0
-11764.887044398843 -1.1628393245798065 -3529.814965117028 -1683.9745841287672 0.0 0.0
-13071.815053406423 -1.1490360925795358 -3921.889226849702 -1684.9751947228938 0.0 0.0
-14378.43023651946 -0.2760569343341359 -4313.611888036137 -1685.5051943631743 0.0 0.0
-15684.234891786607 2.095840388806934 -4704.64171541934 -1683.6069700294333 0.0 0.0
-16987.787609317456 7.693156542103637 -5094.028335832608 -1676.0621364262263 0.0 0.0
-18288.09004208275 19.18121932146964 -5480.672646828384 -1656.545767758211 0.0 0.0
-19579.92983580767 42.784256073893474 -5861.143673920131 -1618.4325358518038 0.0 0.0
-20892.162394303363 48.76797129525956 -6253.018326902428 -1564.7787597472677 0.0 0.0
-22354.264292956126 60.312114182665574 -6688.18565363204 -1520.479748776952 0.0 0.0
-23563.431461587235 237.31785731120453 -6997.834081282807 -1918.6528768581966 0.0 0.0
-23406.574853239836 -1939.2484939795881 -7603.747004165826 -3050.6649997007935 0.0 0.0
-26623.27584131244 -13115.421919121094 -11921.609328130064 -8.674305718159303e-11 0.0 0.0
-23406.574853239475 -1939.2484939788062 -7603.747004165491 3050.6649997007235 0.0 0.0
-23563.43146158709 237.31785731150444 -6997.834081282677 1918.6528768582011 0.0 0.0
-22354.26429295799 60.312114177985485 -6688.185653634 1520.4797487768692 0.0 0.0
-20892.162394303585 48.76797129445813 -6253.018326902737 1564.7787597469996 0.0 0.0
-19579.929835808467 42.78425607209284 -5861.143673920913 1618.4325358517117 0.0 0.0
-18288.09004208284 19.181219321280985 -5480.672646828466 1656.5457677581674 0.0 0.0
-16987.787609317962 7.693156540892929 -5094.028335833121 1676.0621364262738 0.0 0.0
-15684.234891786824 2.0958403882999725 -4704.641715419556 1683.6069700293106 0.0 0.0
-14378.43023651967 -0.2760569348724857 -4313.611888036362 1685.505194363269 0.0 0.0
-13071.815053406197 -1.1490360918994096 -3921.889226849429 1684.9751947228017 0.0 0.0
-11764.887044398638 -1.1628393241991617 -3529.814965116852 1683.9745841288827 0.0 0.0
-10457.165945163004 0.8421981409249875 -3136.8971241066242 1684.9267953492122 0.0 0.0
-9146.775615649281 8.623332820782696 -2741.4456848485493 1693.5029988643162 0.0 0.0
-7828.992753918523 29.373950607793788 -2339.885640993219 1721.8659775757685 0.0 0.0
-6493.5272666495375 69.98034086636403 -1927.0640777349518 1788.8562201651246 0.0 0.0
-5122.727218121703 118.60012252524629 -1501.2381286789368 1904.6173266359779 0.0 0.0
-3698.7128037421758 101.66469751661887 -1079.1144318676672 2016.3108530389868 0.0 0.0
-2259.501658563795 -174.26251782114326 -730.1292529154815 1918.104411841694 0.0 0.0
-1137.3666849232409 -891.9127186159726 -608.783821061764 1275.9288699547358 0.0 0.0
-459.9239347255626 -749.3680114317222 -362.78758384718543 645.3574504744054 0.0 0.0
-446.002203953919 -387.8631561911238 -250.15960804351283 -465.80379907138274 0.0 0.0
-1185.9904408781151 -648.9899602345167 -550.4941203337895 -973.5086437115824 0.0 0.0
-2481.689478630196 -123.26167561319456 -781.4853462730172 -1524.1044162897595 0.0 0.0
-4177.685257076703 67.36453213845093 -1233.0962174814756 -1616.3110342416633 0.0 0.0
-5893.268083885957 81.96483692032709 -1743.390974089688 -1521.3702990134882 0.0 0.0
-7541.270399199308 49.431344648106034 -2247.5517163653603 -1420.9499983517928 0.0 0.0
-9125.276322369768 20.97000615059146 -2731.2918948657525 -1362.5495698422833 0.0 0.0
-10671.968820507884 6.214457279257914 -3199.7263089685885 -1337.9968835270174 0.0 0.0
-12202.436134376216 0.6263759575973893 -3660.542927525585 -1330.7639974828148 0.0 0.0
-13727.589344402957 -0.8198728622429741 -4118.52276517956 -1330.115031828299 0.0 0.0
-15251.75748677666 -0.8223646537586973 -4575.7739554291265 -1331.0980525846446 0.0 0.0
-16775.825416234562 -0.16741418447536205 -5032.79784912571 -1331.6373785308388 0.0 0.0
-18298.84592310294 1.3900841626838485 -5489.236751682075 -1330.1345505075087 0.0 0.0
-19817.027341488454 5.865663000122041 -5943.348503546499 -1323.507753186194 0.0 0.0
-21325.945294945304 12.672440600384235 -6393.981856303476 -1307.1136445667698 0.0 0.0
-22815.152777076535 31.91975570219907 -6834.969906412301 -1270.539707644221 0.0 0.0
-24271.551457566362 45.70765091553578 -7267.7531419952475 -1223.2115892627373 0.0 0.0
-25908.221084834375 -33.08672715424521 -7782.392343596588 -1162.1427687962787 0.0 0.0
-27563.85823126451 374.664478420323 -8156.758125853254 -1377.8961790555404 0.0 0.0
-27308.86394458444 -702.9450316884494 -8403.542692881867 -3038.460598993239 0.0 0.0
-32363.161216720677 -16375.258402110176 -14621.525885649258 1.460875864722766e-10 0.0 0.0
-27308.863944583463 -702.9450316861576 -8403.542692880887 3038.4605989933275 0.0 0.0
-27563.85823126319 374.6644784233086 -8156.758125851965 1377.896179055346 0.0 0.0
-25908.221084835262 -33.08672715636923 -7782.39234359749 1162.1427687963308 0.0 0.0
-24271.55145756699 45.70765091379867 -7267.75314199596 1223.2115892628012 0.0 0.0
-22815.152777077088 31.919755700816577 -6834.969906412882 1270.5397076442741 0.0 0.0
-21325.945294945275 12.672440600361526 -6393.981856303472 1307.113644566693 0.0 0.0
-19817.02734148901 5.865662998545986 -5943.34850354714 1323.507753186324 0.0 0.0
-18298.84592310379 1.3900841605391197 -5489.2367516829745 1330.1345505075456 0.0 0.0
-16775.825416234962 -0.16741418543816167 -5032.797849126122 1331.6373785309006 0.0 0.0
-15251.757486776976 -0.8223646544751784 -4575.773955429435 1331.0980525845523 0.0 0.0
-13727.589344403332 -0.819872863083245 -4118.522765179925 1330.1150318282278 0.0 0.0
-12202.436134376185 0.6263759577090755 -3660.5429275255433 1330.763997482712 0.0 0.0
-10671.968820508038 6.214457278755593 -3199.7263089687854 1337.996883526986 0.0 0.0
-9125.27632236969 20.97000615077274 -2731.291894865675 1362.54956984238 0.0 0.0
-7541.2703991993585 49.43134464804389 -2247.551716365395 1420.9499983516932 0.0 0.0
-5893.268083885854 81.96483692045047 -1743.390974089621 1521.3702990135548 0.0 0.0
-4177.68525707649 67.36453213889243 -1233.09621748128 1616.3110342417372 0.0 0.0
-2481.689478630411 -123.26167561362979 -781.4853462732124 1524.1044162898395 0.0 0.0
-1185.9904408780421 -648.9899602344047 -550.494120333734 973.5086437116897 0.0 0.0
-446.0022039539052 -387.86315619114777 -250.15960804351596 465.8037990714817 0.0 0.0
-435.1970333021112 -181.21441201963574 -184.9234335965241 -300.11909072710216 0.0 0.0
-1188.81856589611 -434.5193348053507 -487.0013702104384 -655.6294303194757 0.0 0.0
-2671.5824992943253 -83.79567524329183 -826.6134523612849 -1064.320852798955 0.0 0.0
-4646.759656234365 38.40992625059524 -1382.5049189951308 -1132.7922332789399 0.0 0.0
-6669.5696366566735 53.03857492753667 -1984.9593185187407 -1063.1731844243177 0.0 0.0
-8596.891121465653 33.01240880291055 -2569.1636137988216 -988.8846715621909 0.0 0.0
-10426.52197778805 14.330439076488155 -3123.657461613468 -945.6912955257028 0.0 0.0
-12199.476902610688 4.355948340070341 -3658.5362862811853 -927.6512732006361 0.0 0.0
-13948.508847832143 0.4940272243850785 -4184.404446182329 -922.4448915764324 0.0 0.0
-15690.464300981817 -0.5312644722877593 -4707.298669636231 -922.0660900957303 0.0 0.0
-17431.709935307565 -0.544209374430281 -5229.676243404599 -922.8519992391984 0.0 0.0
-19173.4511629449 -0.11452362406626548 -5752.06970597069 -923.3004204871271 0.0 0.0
-20913.872316439898 1.0523500649377837 -6273.845989912489 -922.2307325930489 0.0 0.0
-22648.538857715 3.5893556140957656 -6793.484850630272 -917.5152471028897 0.0 0.0
-24364.364651031483 10.794157600874215 -7306.071148029184 -904.7284485854116 0.0 0.0
-26057.40147751377 12.647532900775076 -7813.426183383898 -880.3559975223393 0.0 0.0
-27656.462115468505 66.19374706640627 -8277.080510520627 -827.6253605948358 0.0 0.0
-29336.41126600123 -101.32996376693602 -8831.32236893045 -830.1843103899437 0.0 0.0
-31533.965125344235 162.07991242351792 -9411.565563876216 -770.0217909440626 0.0 0.0
-31086.685427537283 1348.6557330164453 -8921.408908356254 -2570.8859801891012 0.0 0.0
-39013.102904110216 -20464.82616218581 -17843.378719888813 3.7402969610411674e-11 0.0 0.0
-31086.685427537315 1348.655733016245 -8921.408908356318 2570.8859801892254 0.0 0.0
-31533.965125343722 162.07991242451013 -9411.565563875763 770.0217909437738 0.0 0.0
-29336.411266000003 -101.32996376425494 -8831.322368929277 830.1843103896038 0.0 0.0
-27656.46211546754 66.19374706859521 -8277.080510519687 827.6253605949075 0.0 0.0
-26057.401477514195 12.647532899781737 -7813.426183384324 880.3559975223369 0.0 0.0
-24364.36465103097 10.794157602042358 -7306.071148028679 904.7284485854127 0.0 0.0
-22648.5388577153 3.5893556134840487 -6793.484850630546 917.5152471028515 0.0 0.0
-20913.87231644067 1.0523500632549787 -6273.845989913222 922.2307325929959 0.0 0.0
-19173.45116294528 -0.11452362502049773 -5752.069705971088 923.3004204872116 0.0 0.0
-17431.709935307994 -0.5442093754352824 -5229.676243405029 922.8519992393911 0.0 0.0
-15690.464300982141 -0.5312644729043248 -4707.298669636515 922.0660900957466 0.0 0.0
-13948.50884783216 0.49402722427259516 -4184.404446182366 922.4448915765666 0.0 0.0
-12199.476902610473 4.355948340456676 -3658.5362862810057 927.6512732005862 0.0 0.0
-10426.521977788469 14.330439075409817 -3123.657461613918 945.6912955259346 0.0 0.0
-8596.891121465103 33.01240880408655 -2569.1636137983055 988.8846715622518 0.0 0.0
-6669.56963665671 53.038574927406465 -1984.9593185187914 1063.1731844244705 0.0 0.0
-4646.759656234273 38.40992625061863 -1382.504918995097 1132.7922332790063 0.0 0.0
-2671.5824992942926 -83.79567524336875 -826.6134523612986 1064.3208527989598 0.0 0.0
-1188.8185658959856 -434.5193348052103 -487.00137021035886 655.6294303196034 0.0 0.0
-435.19703330205914 -181.21441201967795 -184.9234335965211 300.11909072715247 0.0 0.0
-392.19747188115986 -114.95574670223002 -152.14596557501696 -176.76746333537125 0.0 0.0
-1119.6906313471266 -269.6406407521724 -416.7993816297898 -329.18773490990105 0.0 0.0
-2812.9091188378943 -70.58323884808713 -865.0477073057946 -520.2214252518063 0.0 0.0
-5106.806236613622 21.204904867223348 -1525.68039952392 -559.7314667523685 0.0 0.0
-7459.352273666067 35.638582105989855 -2227.114107468023 -529.9161153833422 0.0 0.0
-9665.091388059485 23.060605033679053 -2892.6092349077417 -494.0750086212074 0.0 0.0
-11734.831610449282 10.282263520417061 -3517.36480407866 -472.40376298645447 0.0 0.0
-13729.870477161641 3.20431706638135 -4117.999848028578 -463.0372557449588 0.0 0.0
-15695.386652715337 0.3981778914817511 -4708.4965424471575 -460.1915853870356 0.0 0.0
-17653.380279516736 -0.3648049531840485 -5296.123525340978 -459.8847415251571 0.0 0.0
-19611.58283193196 -0.38337708542051985 -5883.589862705213 -460.22510383468443 0.0 0.0
-21571.155954149304 -0.07359746938927003 -6471.368865485609 -460.4129278551221 0.0 0.0
-23529.862047096598 0.7447639473464847 -7058.735184944773 -459.7955158598853 0.0 0.0
-25481.035729617164 2.7321392984410267 -7643.491077095617 -457.37772372925605 0.0 0.0
-27411.787593203495 6.744367173882722 -8221.512967808885 -450.6841153969227 0.0 0.0
-29287.50004597942 16.000345157035966 -8781.449910246716 -438.59221004604495 0.0 0.0
-31116.68782920415 9.139335452917393 -9332.264548125368 -416.28462317666015 0.0 0.0
-32577.648278040877 150.90773173272203 -9728.022163892447 -386.9851575492412 0.0 0.0
-35374.60021328912 -865.2116440330068 -10871.943557196639 -610.3336768256715 0.0 0.0
-34635.4005206414 4360.843071099551 -9082.367234862557 -871.0954371829442 0.0 0.0
-47041.15985848665 -25157.964612159612 -21659.737341193882 -1.7757884052116424e-10 0.0 0.0
-34635.40052064165 4360.843071098872 -9082.367234862835 871.0954371829092 0.0 0.0
-35374.60021328964 -865.2116440345255 -10871.943557197246 610.3336768257508 0.0 0.0
-32577.648278039975 150.90773173442375 -9728.022163891665 386.985157549268 0.0 0.0
-31116.687829203216 9.139335455013104 -9332.26454812446 416.28462317679737 0.0 0.0
-29287.50004597954 16.00034515724313 -8781.449910246689 438.59221004593377 0.0 0.0
-27411.787593203404 6.744367174194924 -8221.512967808763 450.68411539694125 0.0 0.0
-25481.035729617008 2.7321392987673363 -7643.49107709547 457.3777237291192 0.0 0.0
-23529.862047096532 0.7447639475904317 -7058.735184944684 459.79551585969705 0.0 0.0
-21571.1559541497 -0.07359747049708698 -6471.368865486061 460.4129278550226 0.0 0.0
-19611.58283193177 -0.38337708496795475 -5883.589862705024 460.2251038347496 0.0 0.0
-17653.380279516794 -0.36480495317854267 -5296.123525340993 459.8847415249874 0.0 0.0
-15695.386652715528 0.39817789101566525 -4708.496542447354 460.1915853871464 0.0 0.0
-13729.870477161117 3.2043170675661976 -4117.9998480280665 463.03725574485026 0.0 0.0
-11734.831610449495 10.282263519911297 -3517.3648040788753 472.403762986588 0.0 0.0
-9665.091388059282 23.060605034291463 -2892.609234907497 494.07500862117865 0.0 0.0
-7459.352273666101 35.63858210603322 -2227.11410746802 529.916115383158 0.0 0.0
-5106.806236613748 21.204904866868212 -1525.6803995240637 559.7314667523527 0.0 0.0
-2812.9091188378175 -70.58323884792989 -865.0477073057244 520.2214252518614 0.0 0.0
-1119.6906313470831 -269.64064075216913 -416.7993816297758 329.18773490983403 0.0 0.0
-392.19747188103645 -114.95574670216828 -152.14596557496142 176.76746333537557 0.0 0.0
-204.1136363137893 -48.526429890466595 -75.79201986127677 -118.45531785132056 0.0 0.0
-912.3059907568216 -138.51856594829 -315.24736701153347 -139.1298166442565 0.0 0.0
-2873.5842080680054 -74.39375574825891 -884.3933891448792 -177.06302775125917 0.0 0.0
-5621.8616171900385 -106.25284251871551 -1718.434337912626 -197.4189443765815 0.0 0.0
-8366.578260369817 -187.4010945475838 -2566.1938064752194 -195.91528663438527 0.0 0.0
-10875.032886957157 -268.03688799112575 -3342.9209324844846 -186.79865102893763 0.0 0.0
-13201.010820830004 -338.15146280286234 -4061.74868508986 -179.8319386833581 0.0 0.0
-15436.203877848373 -400.1909344927341 -4750.9184437023305 -176.23765307248237 0.0 0.0
-17639.527160414797 -458.4389152119175 -5429.389822688013 -174.86099083067995 0.0 0.0
-19836.91568123854 -515.5000795652618 -6105.724728241141 -174.51455889936972 0.0 0.0
-22036.39362277535 -572.4508743238393 -6782.653349129759 -174.5017948329928 0.0 0.0
-24238.624906269368 -629.4340298426872 -7460.41768083362 -174.4740189590932 0.0 0.0
-26441.01825279586 -686.4784947616627 -8138.249024267259 -174.11810707186976 0.0 0.0
-28635.41373226605 -741.6452959288786 -8813.11770845848 -173.15993926715396 0.0 0.0
-30806.900493442176 -798.4728152865116 -9481.611992618607 -170.85229272042977 0.0 0.0
-32907.59050643469 -830.7173263759195 -10121.492349843185 -166.3876725835794 0.0 0.0
-34916.825045097044 -936.7193474174387 -10756.063317754346 -170.9251828760032 0.0 0.0
-36555.950781611435 -618.7485455812819 -11152.409798157814 -116.29715436790116 0.0 0.0
-38242.42565851583 -2085.63834064346 -12098.419199747788 -571.0362483601846 0.0 0.0
-39041.96074717058 4952.931342068054 -10226.70882153076 -2.570835221334619 0.0 0.0
-57731.75636632579 -30275.65274844229 -26402.222734430423 8.731149137020111e-11 0.0 0.0
-39041.960747169884 4952.9313420698345 -10226.70882153001 2.570835221329048 0.0 0.0
-38242.4256585164 -2085.638340644817 -12098.419199748365 571.0362483600381 0.0 0.0
-36555.950781611886 -618.74854558293 -11152.409798158445 116.29715436782021 0.0 0.0
-34916.825045097066 -936.7193474175891 -10756.063317754397 170.92518287591156 0.0 0.0
-32907.590506434695 -830.7173263755097 -10121.492349843062 166.38767258340226 0.0 0.0
-30806.90049344227 -798.4728152868779 -9481.611992618746 170.85229272037827 0.0 0.0
-28635.413732265686 -741.645295928126 -8813.117708458143 173.15993926728765 0.0 0.0
-26441.01825279552 -686.4784947609169 -8138.249024266931 174.1181070717805 0.0 0.0
-24238.62490627018 -629.434029844668 -7460.417680834455 174.4740189588316 0.0 0.0
-22036.39362277516 -572.450874323298 -6782.653349129536 174.50179483315605 0.0 0.0
-19836.915681238705 -515.5000795656457 -6105.724728241305 174.5145588993256 0.0 0.0
-17639.527160414513 -458.4389152113345 -5429.389822687755 174.86099083070235 0.0 0.0
-15436.203877847696 -400.19093449141405 -4750.918443701734 176.23765307245765 0.0 0.0
-13201.010820829628 -338.15146280217334 -4061.748685089541 179.83193868337446 0.0 0.0
-10875.032886957493 -268.0368879916191 -3342.9209324847343 186.79865102885526 0.0 0.0
-8366.578260369755 -187.4010945471103 -2566.1938064750602 195.91528663405444 0.0 0.0
-5621.861617189924 -106.25284251865855 -1718.4343379125744 197.41894437643526 0.0 0.0
-2873.5842080677553 -74.39375574775977 -884.3933891446547 177.06302775143007 0.0 0.0
-912.3059907571023 -138.5185659486645 -315.24736701173003 139.12981664413815 0.0 0.0
-204.1136363138232 -48.52642989033197 -75.79201986124654 118.45531785129428 0.0 0.0
SCALARS Strain float 6
LOOKUP_TABLE default
0.052881258274489154 -0.13136114064363702 0.0 -0.008839075792704404 0.0 0.0
0.0470950720186552 0.010240055347108229 0.0 -0.013730026272148761 0.0 0.0
0.03722209402760963 -0.01854860387944995 0.0 -0.005872177248394955 0.0 0.0
0.03549553601595054 -0.012932052975336932 0.0 -0.0008745833230182431 0.0 0.0
0.041692020041741884 -0.01703828838966973 0.0 -0.002015663634746705 0.0 0.0
0.05009038060830481 -0.02029491965633388 0.0 -0.002077064498180272 0.0 0.0
0.059505916505149026 -0.024225076835430764 0.0 -0.0022024745661743286 0.0 0.0
0.06930813014698217 -0.028215619415484366 0.0 -0.0022501952400945805 0.0 0.0
0.07922780839416507 -0.032259917370683344 0.0 -0.0022671644257591505 0.0 0.0
0.0891662836129492 -0.036305456086392546 0.0 -0.0022715809035082713 0.0 0.0
0.0990938336913312 -0.04034694672850119 0.0 -0.002271580626271951 0.0 0.0
0.10900907444744842 -0.044383280498838634 0.0 -0.0022720836950131055 0.0 0.0
0.11892481681741632 -0.04841908720777535 0.0 -0.002276508931557831 0.0 0.0
0.12887574621346334 -0.05246623184773623 0.0 -0.0022895452441989415 0.0 0.0
0.13893881371013164 -0.05655254497921239 0.0 -0.0023162358480389132 0.0 0.0
0.1492458269229851 -0.06072919454764128 0.0 -0.0023540869516061047 0.0 0.0
0.1599289026389346 -0.0650556539882392 0.0 -0.0023712270348495946 0.0 0.0
0.17089278561731674 -0.06951771442159402 0.0 -0.002272938083502591 0.0 0.0
0.18134925256627762 -0.07383650801481341 0.0 -0.001895815007833551 0.0 0.0
0.18939042043135704 -0.07724310711830627 0.0 -0.0011090373478316847 0.0 0.0
0.19249033701082208 -0.07859396651359929 0.0 -7.658804146437603e-16 0.0 0.0
0.18939042043135712 -0.07724310711829493 0.0 0.001109037347834468 0.0 0.0
0.18134925256627837 -0.07383650801482199 0.0 0.001895815007835996 0.0 0.0
0.1708927856173175 -0.06951771442159128 0.0 0.0022729380835025265 0.0 0.0
0.1599289026389345 -0.06505565398823701 0.0 0.0023712270348499797 0.0 0.0
0.14924582692298477 -0.060729194547653395 0.0 0.0023540869516067223 0.0 0.0
0.13893881371013195 -0.05655254497920674 0.0 0.002316235848039413 0.0 0.0
0.12887574621346365 -0.052466231847742614 0.0 0.002289545244196673 0.0 0.0
0.11892481681741607 -0.04841908720777148 0.0 0.0022765089315587746 0.0 0.0
0.10900907444744781 -0.044383280498842714 0.0 0.002272083695011741 0.0 0.0
0.09909383369133042 -0.04034694672850621 0.0 0.002271580626271243 0.0 0.0
0.0891662836129491 -0.036305456086388015 0.0 0.002271580903507592 0.0 0.0
0.07922780839416554 -0.032259917370681214 0.0 0.0022671644257589744 0.0 0.0
0.06930813014698209 -0.028215619415474992 0.0 0.0022501952400954283 0.0 0.0
0.05950591650514876 -0.02422507683543369 0.0 0.0022024745661771684 0.0 0.0
0.050090380608305 -0.020294919656332646 0.0 0.002077064498181475 0.0 0.0
0.041692020041742085 -0.017038288389670333 0.0 0.0020156636347480605 0.0 0.0
0.03549553601595083 -0.01293205297533924 0.0 0.0008745833230167576 0.0 0.0
0.03722209402760982 -0.01854860387945083 0.0 0.005872177248393302 0.0 0.0
0.0470950720186554 0.010240055347107677 0.0 0.013730026272147608 0.0 0.0
0.052881258274489425 -0.1313611406436374 0.0 0.008839075792704728 0.0 0.0
0.03292927599558601 -0.12209838736973974 0.0 -0.006040373021995542 0.0 0.0
0.027860616125351692 0.008875043172680034 0.0 -0.010947155834406965 0.0 0.0
0.02674747956119002 -0.01438431152568434 0.0 -0.004104427847240658 0.0 0.0
0.032185323987511456 -0.012760893230402571 0.0 -0.003397245912454975 0.0 0.0
0.03738659851104106 -0.01589459892102085 0.0 -0.0048981258194474575 0.0 0.0
0.04518037215498266 -0.01926095319811859 0.0 -0.005548641383830473 0.0 0.0
0.053612209705139684 -0.02294253230026995 0.0 -0.005840298428581703 0.0 0.0
0.06241059937199679 -0.026736968535697608 0.0 -0.005959693749413495 0.0 0.0
0.07131927578104509 -0.030564313513260166 0.0 -0.005992472161007117 0.0 0.0
0.08025480627971973 -0.03439630892494533 0.0 -0.005995827919242622 0.0 0.0
0.0891868570429026 -0.038224347546780044 0.0 -0.005991256953199989 0.0 0.0
0.09811210436764392 -0.04204826067382009 0.0 -0.005989010582303549 0.0 0.0
0.1070411089843819 -0.045871758664398826 0.0 -0.00599731594879058 0.0 0.0
0.11600299522920782 -0.049704939825045535 0.0 -0.006030712815088345 0.0 0.0
0.12505839363744406 -0.053571477075025506 0.0 -0.00611200903042524 0.0 0.0
0.13430164373824857 -0.057515448508669076 0.0 -0.006256017633459832 0.0 0.0
0.14380283622217802 -0.061589230979377144 0.0 -0.006409936656822366 0.0 0.0
0.15341040054469873 -0.06578222162652281 0.0 -0.006337102569751984 0.0 0.0
0.1623889878392033 -0.06984849187804126 0.0 -0.005524096346312821 0.0 0.0
0.16914971014921626 -0.0730861650053299 0.0 -0.0033852236007045292 0.0 0.0
0.17172037333251802 -0.07439310130373164 0.0 -8.521829075736065e-16 0.0 0.0
0.16914971014921643 -0.07308616500532954 0.0 0.0033852236007072423 0.0 0.0
0.16238898783920425 -0.0698484918780476 0.0 0.005524096346315298 0.0 0.0
0.15341040054469954 -0.065782221626523 0.0 0.006337102569753437 0.0 0.0
0.14380283622217793 -0.06158923097938426 0.0 0.006409936656823645 0.0 0.0
0.1343016437382488 -0.05751544850866826 0.0 0.00625601763345899 0.0 0.0
0.1250583936374444 -0.05357147707502309 0.0 0.0061120090304253 0.0 0.0
0.11600299522920768 -0.049704939825044064 0.0 0.006030712815087135 0.0 0.0
0.10704110898438164 -0.045871758664397064 0.0 0.005997315948791671 0.0 0.0
0.09811210436764375 -0.04204826067382064 0.0 0.0059890105823004695 0.0 0.0
0.08918685704290237 -0.038224347546783256 0.0 0.00599125695320301 0.0 0.0
0.08025480627972002 -0.034396308924943754 0.0 0.005995827919242745 0.0 0.0
0.07131927578104534 -0.030564313513258244 0.0 0.005992472161008044 0.0 0.0
0.06241059937199664 -0.026736968535695023 0.0 0.005959693749414151 0.0 0.0
0.053612209705139593 -0.02294253230027181 0.0 0.005840298428581673 0.0 0.0
0.04518037215498269 -0.019260953198120816 0.0 0.005548641383831059 0.0 0.0
0.0373865985110411 -0.015894598921019833 0.0 0.004898125819448432 0.0 0.0
0.03218532398751128 -0.012760893230404975 0.0 0.0033972459124550543 0.0 0.0
0.026747479561189613 -0.014384311525685142 0.0 0.004104427847238882 0.0 0.0
0.027860616125351456 0.008875043172679613 0.0 0.0109471558344068 0.0 0.0
0.032929275995586114 -0.12209838736974016 0.0 0.006040373021995717 0.0 0.0
0.02361874350128087 -0.10463772272296659 0.0 -0.027818640784822907 0.0 0.0
0.017942625024157558 0.004859100857842198 0.0 -0.01979595545671843 0.0 0.0
0.018424676252801014 -0.007372898015934009 0.0 -0.002783203719229867 0.0 0.0
0.027218520261313398 -0.0114959145813219 0.0 -0.007836908663757894 0.0 0.0
0.03311573290427273 -0.013793547611226734 0.0 -0.009752855477344412 0.0 0.0
0.04009895556592614 -0.017086013040788096 0.0 -0.011177680808393847 0.0 0.0
0.04768552412700968 -0.0203824410804857 0.0 -0.011734573395423767 0.0 0.0
0.055496483157294205 -0.023770759862292365 0.0 -0.011959628448130932 0.0 0.0
0.06340868694202648 -0.027173569432278562 0.0 -0.012020092539035479 0.0 0.0
0.0713443614154928 -0.030578168503341996 0.0 -0.012023589865258444 0.0 0.0
0.07928124514913057 -0.03397967844030315 0.0 -0.01201325408051564 0.0 0.0
0.08721501183202741 -0.0373782210660256 0.0 -0.01200767874422798 0.0 0.0
0.0951532571458274 -0.04077588627538036 0.0 -0.012022521048854021 0.0 0.0
0.1031171280583831 -0.044178289497970806 0.0 -0.012086625640301727 0.0 0.0
0.11114933438819119 -0.047600057526792444 0.0 -0.012247738686324713 0.0 0.0
0.11931315010530458 -0.051072665254681966 0.0 -0.012543284230780372 0.0 0.0
0.12764489088612005 -0.05464325208885296 0.0 -0.012883567867576691 0.0 0.0
0.1359973998186657 -0.05833021210081196 0.0 -0.012809828658158934 0.0 0.0
0.14374998656023 -0.06198098512912195 0.0 -0.011268607979056848 0.0 0.0
0.14957465167992282 -0.06501650524180927 0.0 -0.0069748714469875725 0.0 0.0
0.15179116162447662 -0.06631200973337592 0.0 6.310056643865636e-16 0.0 0.0
0.14957465167992298 -0.0650165052418144 0.0 0.006974871446986937 0.0 0.0
0.14374998656023 -0.06198098512912617 0.0 0.011268607979056017 0.0 0.0
0.13599739981866601 -0.058330212100809284 0.0 0.012809828658157992 0.0 0.0
0.12764489088611994 -0.05464325208886183 0.0 0.012883567867574577 0.0 0.0
0.1193131501053043 -0.05107266525467679 0.0 0.012543284230781316 0.0 0.0
0.1111493343881916 -0.04760005752678999 0.0 0.012247738686325435 0.0 0.0
0.10311712805838302 -0.044178289497959884 0.0 0.012086625640298478 0.0 0.0
0.09515325714582691 -0.04077588627537976 0.0 0.012022521048852562 0.0 0.0
0.08721501183202732 -0.03737822106602634 0.0 0.012007678744224957 0.0 0.0
0.07928124514913021 -0.033979678440300955 0.0 0.012013254080516185 0.0 0.0
0.07134436141549286 -0.03057816850334337 0.0 0.012023589865258855 0.0 0.0
0.06340868694202666 -0.027173569432279814 0.0 0.012020092539036697 0.0 0.0
0.05549648315729392 -0.02377075986229526 0.0 0.0119596284481317 0.0 0.0
0.04768552412700964 -0.0203824410804869 0.0 0.011734573395423348 0.0 0.0
0.04009895556592614 -0.017086013040791485 0.0 0.01117768080839288 0.0 0.0
0.03311573290427251 -0.01379354761122721 0.0 0.009752855477345493 0.0 0.0
0.02721852026131265 -0.011495914581321393 0.0 0.007836908663758323 0.0 0.0
0.018424676252800372 -0.007372898015934635 0.0 0.0027832037192284313 0.0 0.0
0.017942625024157395 0.00485910085784204 0.0 0.01979595545672014 0.0 0.0
0.023618743501280827 -0.10463772272296668 0.0 0.0278186407848232 0.0 0.0
0.018761227496652395 -0.08929006178998412 0.0 -0.034728308956685425 0.0 0.0
0.012632763812060644 -0.0003070358036649065 0.0 -0.02710998263559572 0.0 0.0
0.012400674291770143 -0.002897520155396789 0.0 -0.00824877454017025 0.0 0.0
0.021912366310482274 -0.009044607053263322 0.0 -0.011329017826983546 0.0 0.0
0.028587285581265574 -0.011822455888185411 0.0 -0.014508282193831597 0.0 0.0
0.034972625712291996 -0.014798763520159991 0.0 -0.0161359647436967 0.0 0.0
0.041708457370274135 -0.01780753095737731 0.0 -0.01694717582923823 0.0 0.0
0.04857178831674897 -0.02079460223988716 0.0 -0.017244720889000725 0.0 0.0
0.05549395741765995 -0.02378152880099925 0.0 -0.01733270187029409 0.0 0.0
0.06243420348799529 -0.026760499314793733 0.0 -0.017339088687469327 0.0 0.0
0.06937621829193545 -0.029735695891509664 0.0 -0.01732622701931516 0.0 0.0
0.07631737500491896 -0.03270807093620031 0.0 -0.01731945122621017 0.0 0.0
0.08326159118740428 -0.03567772330566667 0.0 -0.017340371962204934 0.0 0.0
0.09022073492622422 -0.038644491315996184 0.0 -0.01742773153440024 0.0 0.0
0.09721940148965985 -0.04161292522679786 0.0 -0.01764509686825939 0.0 0.0
0.10429658439730595 -0.04460507015962764 0.0 -0.018041451871524714 0.0 0.0
0.11147887425193766 -0.0476789716804479 0.0 -0.018491095096915378 0.0 0.0
0.11867034050614828 -0.05092056659069743 0.0 -0.018353786357791488 0.0 0.0
0.12540405678686986 -0.05431827831619287 0.0 -0.016141234733862097 0.0 0.0
0.13055499136656473 -0.05739477994402174 0.0 -0.010002158164228139 0.0 0.0
0.13254528684727607 -0.058818786979146026 0.0 1.704365815147213e-15 0.0 0.0
0.13055499136656443 -0.057394779944014346 0.0 0.010002158164228097 0.0 0.0
0.1254040567868701 -0.05431827831619436 0.0 0.016141234733863166 0.0 0.0
0.11867034050614855 -0.05092056659069079 0.0 0.018353786357791127 0.0 0.0
0.11147887425193773 -0.04767897168044669 0.0 0.018491095096913986 0.0 0.0
0.10429658439730582 -0.044605070159631 0.0 0.018041451871523402 0.0 0.0
0.09721940148965987 -0.04161292522679566 0.0 0.017645096868259165 0.0 0.0
0.09022073492622411 -0.03864449131599061 0.0 0.017427731534396366 0.0 0.0
0.08326159118740371 -0.03567772330566534 0.0 0.017340371962204452 0.0 0.0
0.07631737500491902 -0.03270807093620197 0.0 0.017319451226211674 0.0 0.0
0.06937621829193577 -0.02973569589150605 0.0 0.017326227019312967 0.0 0.0
0.062434203487995374 -0.026760499314791245 0.0 0.01733908868746866 0.0 0.0
0.05549395741765987 -0.023781528801000547 0.0 0.01733270187029127 0.0 0.0
0.048571788316748694 -0.020794602239890474 0.0 0.0172447208890002 0.0 0.0
0.04170845737027388 -0.017807530957376597 0.0 0.01694717582923694 0.0 0.0
0.03497262571229197 -0.014798763520160109 0.0 0.016135964743695278 0.0 0.0
0.028587285581266046 -0.011822455888186431 0.0 0.014508282193832558 0.0 0.0
0.02191236631048267 -0.009044607053260165 0.0 0.01132901782698264 0.0 0.0
0.012400674291770653 -0.002897520155397777 0.0 0.008248774540171535 0.0 0.0
0.012632763812060977 -0.0003070358036648688 0.0 0.027109982635595005 0.0 0.0
0.0187612274966523 -0.08929006178998397 0.0 0.03472830895668552 0.0 0.0
0.015834886101646267 -0.07595437664231097 0.0 -0.03552089313627147 0.0 0.0
0.009635366752648698 -0.004758464479593967 0.0 -0.03205705304542784 0.0 0.0
0.008165364343552863 -0.000483739742393713 0.0 -0.01563005764276368 0.0 0.0
0.01690224477508166 -0.0063958387073617 0.0 -0.015459333805351881 0.0 0.0
0.02388607314759183 -0.00972988139453504 0.0 -0.018751535262144046 0.0 0.0
0.029801765789607082 -0.012503633501221544 0.0 -0.020563999271681576 0.0 0.0
0.03570334548409858 -0.015203641884567836 0.0 -0.021469075733507828 0.0 0.0
0.041634164454169786 -0.01781403593932354 0.0 -0.021827443393086687 0.0 0.0
0.047575943373742824 -0.020386984220678587 0.0 -0.021932050806438112 0.0 0.0
0.0535232943739318 -0.02294289388755664 0.0 -0.02194319867063939 0.0 0.0
0.059471242814700356 -0.025491913643613983 0.0 -0.021929950754800906 0.0 0.0
0.06541892872161048 -0.028037597255948045 0.0 -0.021923403988571063 0.0 0.0
0.07136680066890848 -0.030577686049916016 0.0 -0.021948668672639567 0.0 0.0
0.07731689615499625 -0.03310568836252103 0.0 -0.022049785311650277 0.0 0.0
0.08327644014347863 -0.03561585207324006 0.0 -0.022298227714562666 0.0 0.0
0.089266153830148 -0.038123556272987205 0.0 -0.022748704798928245 0.0 0.0
0.09532147540069898 -0.04070974532922509 0.0 -0.023252651599269016 0.0 0.0
0.10143231567657963 -0.04355664237860142 0.0 -0.023043837345238488 0.0 0.0
0.10731273858306087 -0.0468305579760512 0.0 -0.02029209499059914 0.0 0.0
0.11199527420406391 -0.05014550140447911 0.0 -0.012623826268898337 0.0 0.0
0.11385907544436114 -0.05182260919638721 0.0 -1.0430024899310553e-15 0.0 0.0
0.11199527420406333 -0.050145501404470716 0.0 0.01262382626889546 0.0 0.0
0.1073127385830606 -0.04683055797604767 0.0 0.020292094990600484 0.0 0.0
0.1014323156765796 -0.04355664237859261 0.0 0.023043837345239883 0.0 0.0
0.09532147540069891 -0.04070974532921923 0.0 0.02325265159927382 0.0 0.0
0.08926615383014767 -0.03812355627298488 0.0 0.022748704798930333 0.0 0.0
0.0832764401434787 -0.03561585207323831 0.0 0.02229822771456494 0.0 0.0
0.07731689615499608 -0.03310568836252235 0.0 0.022049785311649077 0.0 0.0
0.07136680066890794 -0.03057768604991412 0.0 0.021948668672637436 0.0 0.0
0.06541892872161055 -0.028037597255948555 0.0 0.021923403988573897 0.0 0.0
0.05947124281470054 -0.02549191364361806 0.0 0.021929950754801822 0.0 0.0
0.05352329437393142 -0.022942893887553644 0.0 0.02194319867063686 0.0 0.0
0.047575943373742574 -0.020386984220678778 0.0 0.021932050806434893 0.0 0.0
0.04163416445416981 -0.017814035939326293 0.0 0.02182744339308779 0.0 0.0
0.03570334548409875 -0.015203641884565074 0.0 0.021469075733507526 0.0 0.0
0.02980176578960727 -0.01250363350122086 0.0 0.02056399927168136 0.0 0.0
0.02388607314759176 -0.009729881394531736 0.0 0.01875153526214413 0.0 0.0
0.0169022447750814 -0.006395838707361913 0.0 0.015459333805351073 0.0 0.0
0.008165364343552766 -0.0004837397423943144 0.0 0.015630057642765368 0.0 0.0
0.009635366752648906 -0.004758464479594169 0.0 0.032057053045425485 0.0 0.0
0.015834886101646385 -0.07595437664231093 0.0 0.035520893136272574 0.0 0.0
0.0137604451713444 -0.06442055915137318 0.0 -0.033888238547612234 0.0 0.0
0.007787737557137969 -0.007988225044588928 0.0 -0.0349807835718692 0.0 0.0
0.005170879469590439 0.0005853546667561507 0.0 -0.022771312930784916 0.0 0.0
0.012414988744217982 -0.004001992402506688 0.0 -0.020076566128971664 0.0 0.0
0.019163258029591835 -0.007556512689328972 0.0 -0.022604013218911145 0.0 0.0
0.024596028772082324 -0.010201283261260673 0.0 -0.02441902140228179 0.0 0.0
0.02968363858839366 -0.012588496409844857 0.0 -0.025329707857040713 0.0 0.0
0.03468674192636991 -0.014827479413645997 0.0 -0.025707813184141216 0.0 0.0
0.03965445116709897 -0.016990958218103584 0.0 -0.02582188514850288 0.0 0.0
0.04461127075370687 -0.01912469777893327 0.0 -0.02583632569423079 0.0 0.0
0.04956579170145558 -0.021248018443194783 0.0 -0.025824428325505928 0.0 0.0
0.054519585952218105 -0.023366682611125764 0.0 -0.025818825388240863 0.0 0.0
0.05946978819036086 -0.025476386633751815 0.0 -0.025845909835099965 0.0 0.0
0.06440889917611763 -0.027564259273410434 0.0 -0.025950373648065767 0.0 0.0
0.06932802190095841 -0.029614582903637228 0.0 -0.026204822260877454 0.0 0.0
0.07423405872971324 -0.031637735321874284 0.0 -0.026667456795581 0.0 0.0
0.07918359401334542 -0.03374435550339555 0.0 -0.02718834171419075 0.0 0.0
0.08427659945527695 -0.036232347579858534 0.0 -0.026941232430666498 0.0 0.0
0.08943171432752979 -0.039479243956274016 0.0 -0.023837179030498236 0.0 0.0
0.09381150600221622 -0.04320267402981161 0.0 -0.014957083009326673 0.0 0.0
0.09563211419011969 -0.04526065313393914 0.0 -7.077671781985373e-16 0.0 0.0
0.0938115060022157 -0.04320267402980805 0.0 0.014957083009324933 0.0 0.0
0.0894317143275293 -0.03947924395626906 0.0 0.023837179030499894 0.0 0.0
0.08427659945527678 -0.03623234757984919 0.0 0.026941232430665797 0.0 0.0
0.07918359401334532 -0.033744355503391624 0.0 0.02718834171418877 0.0 0.0
0.07423405872971324 -0.03163773532188144 0.0 0.026667456795580746 0.0 0.0
0.06932802190095859 -0.029614582903639525 0.0 0.026204822260878537 0.0 0.0
0.0644088991761173 -0.02756425927341218 0.0 0.025950373648065933 0.0 0.0
0.05946978819036111 -0.025476386633748946 0.0 0.025845909835099833 0.0 0.0
0.05451958595221849 -0.023366682611127072 0.0 0.025818825388240818 0.0 0.0
0.049565791701455524 -0.021248018443199856 0.0 0.02582442832550541 0.0 0.0
0.044611270753706696 -0.019124697778937782 0.0 0.025836325694229438 0.0 0.0
0.03965445116709901 -0.01699095821810283 0.0 0.025821885148504014 0.0 0.0
0.034686741926370196 -0.014827479413649394 0.0 0.025707813184141445 0.0 0.0
0.02968363858839329 -0.012588496409844076 0.0 0.02532970785703984 0.0 0.0
0.024596028772081693 -0.010201283261258937 0.0 0.024419021402281138 0.0 0.0
0.019163258029591568 -0.007556512689326649 0.0 0.022604013218911156 0.0 0.0
0.01241498874421789 -0.004001992402507013 0.0 0.020076566128972413 0.0 0.0
0.005170879469590567 0.0005853546667559053 0.0 0.022771312930784028 0.0 0.0
0.007787737557138118 -0.007988225044589129 0.0 0.034980783571870074 0.0 0.0
0.013760445171344362 -0.06442055915137335 0.0 0.03388823854761223 0.0 0.0
0.012060741457527595 -0.05442937151759905 0.0 -0.0314193947984555 0.0 0.0
0.006489281190792994 -0.010005808523525858 0.0 -0.03639225396073462 0.0 0.0
0.0029816642523796157 0.0008960253146970208 0.0 -0.028800883563487534 0.0 0.0
0.008472072415614111 -0.002002242519209658 0.0 -0.024701144161161002 0.0 0.0
0.014536762479129862 -0.005397835158740263 0.0 -0.02611140897584407 0.0 0.0
0.01938303874037251 -0.007895764963155532 0.0 -0.02768928143925063 0.0 0.0
0.023658006797428455 -0.009972621534420849 0.0 -0.028532531259563204 0.0 0.0
0.027733836407826746 -0.011837434177819848 0.0 -0.02889072799038756 0.0 0.0
0.031729762820480005 -0.013593492021125279 0.0 -0.029003340937076093 0.0 0.0
0.03569783816413499 -0.015305765742287956 0.0 -0.02901939707188448 0.0 0.0
0.039659508877913696 -0.017003684025563154 0.0 -0.02900963355979639 0.0 0.0
0.04361934820315408 -0.018695318450898498 0.0 -0.029005297079603976 0.0 0.0
0.047571551805144247 -0.020374521579908402 0.0 -0.029031304769930502 0.0 0.0
0.0514999784219218 -0.022022594971841013 0.0 -0.029128841379320286 0.0 0.0
0.05538118814820953 -0.023614563859913274 0.0 -0.029365738351411493 0.0 0.0
0.05921072838602416 -0.025156042564889167 0.0 -0.029803228240418048 0.0 0.0
0.06307188209000128 -0.026788265953231034 0.0 -0.030315870384232203 0.0 0.0
0.06718979292216933 -0.028935018226986672 0.0 -0.030091291080076445 0.0 0.0
0.07171307332368095 -0.03221966601482856 0.0 -0.026862653859392495 0.0 0.0
0.07592807911324637 -0.03650649582363082 0.0 -0.017094867212062926 0.0 0.0
0.07778044528425077 -0.039092158348529985 0.0 1.3227266504323154e-16 0.0 0.0
0.07592807911324603 -0.03650649582362588 0.0 0.017094867212062256 0.0 0.0
0.07171307332368117 -0.03221966601484086 0.0 0.026862653859393862 0.0 0.0
0.06718979292216935 -0.0289350182269903 0.0 0.03009129108007772 0.0 0.0
0.06307188209000136 -0.026788265953229366 0.0 0.03031587038423074 0.0 0.0
0.05921072838602455 -0.025156042564899072 0.0 0.02980322824041811 0.0 0.0
0.05538118814820964 -0.02361456385992223 0.0 0.02936573835141195 0.0 0.0
0.05149997842192177 -0.022022594971839934 0.0 0.029128841379320515 0.0 0.0
0.047571551805143816 -0.02037452157990925 0.0 0.02903130476993194 0.0 0.0
0.04361934820315333 -0.01869531845089684 0.0 0.02900529707960034 0.0 0.0
0.03965950887791397 -0.017003684025562647 0.0 0.02900963355979689 0.0 0.0
0.03569783816413547 -0.015305765742289753 0.0 0.029019397071884667 0.0 0.0
0.031729762820479554 -0.013593492021120765 0.0 0.029003340937075635 0.0 0.0
0.027733836407826506 -0.011837434177822905 0.0 0.028890727990386895 0.0 0.0
0.023658006797428723 -0.009972621534420596 0.0 0.028532531259561233 0.0 0.0
0.019383038740372248 -0.007895764963154785 0.0 0.027689281439250743 0.0 0.0
0.014536762479129795 -0.0053978351587402554 0.0 0.02611140897584607 0.0 0.0
0.008472072415614247 -0.002002242519207535 0.0 0.024701144161161093 0.0 0.0
0.0029816642523797384 0.0008960253146960309 0.0 0.028800883563486403 0.0 0.0
0.006489281190793526 -0.010005808523525183 0.0 0.03639225396073597 0.0 0.0
0.012060741457528402 -0.054429371517599155 0.0 0.03141939479845373 0.0 0.0
0.010523657518905546 -0.04572646542999563 0.0 -0.02878473561801021 0.0 0.0
0.005429532460798663 -0.010995375228597108 0.0 -0.03671369557393269 0.0 0.0
0.001286168610673721 0.0008528638101211559 0.0 -0.03344462453298568 0.0 0.0
0.00500694444851161 -0.00038456311388622715 0.0 -0.028912131855768873 0.0 0.0
0.010073994797754511 -0.0033277570510782703 0.0 -0.0292167839501739 0.0 0.0
0.01419521795963594 -0.0056032951306140034 0.0 -0.030371160293886264 0.0 0.0
0.017634974079564367 -0.007362092239259224 0.0 -0.03107283627177483 0.0 0.0
0.020779175773151495 -0.008847172586048101 0.0 -0.03137841407024468 0.0 0.0
0.023802628866603674 -0.010194867792406833 0.0 -0.03147747045441809 0.0 0.0
0.026782787755010196 -0.011485968929033063 0.0 -0.03149301778201607 0.0 0.0
0.029752148186371022 -0.012758703142101278 0.0 -0.03148571687718169 0.0 0.0
0.03271828306582444 -0.014023536089280975 0.0 -0.031482635417344126 0.0 0.0
0.03567305870411576 -0.015272787873067451 0.0 -0.0315047486904489 0.0 0.0
0.03859308850275807 -0.016482894454864994 0.0 -0.031586119601721904 0.0 0.0
0.04144224898941891 -0.01762071464983055 0.0 -0.03178463718739588 0.0 0.0
0.044205177038186806 -0.018685945751540416 0.0 -0.03216397327084903 0.0 0.0
0.046990400942236166 -0.01984505816927646 0.0 -0.03264922473957097 0.0 0.0
0.050154505520445584 -0.021648107757552316 0.0 -0.03252205536117939 0.0 0.0
0.05410638261140649 -0.025002142929531818 0.0 -0.029428070694041537 0.0 0.0
0.05827501495194373 -0.029999797574108658 0.0 -0.01911527873626639 0.0 0.0
0.0602317858573377 -0.033295868133137424 0.0 9.228728892196614e-16 0.0 0.0
0.05827501495194354 -0.029999797574110837 0.0 0.019115278736266082 0.0 0.0
0.05410638261140698 -0.025002142929540058 0.0 0.029428070694042456 0.0 0.0
0.0501545055204454 -0.02164810775756068 0.0 0.03252205536117952 0.0 0.0
0.04699040094223583 -0.01984505816928074 0.0 0.03264922473957153 0.0 0.0
0.04420517703818677 -0.018685945751538507 0.0 0.03216397327084808 0.0 0.0
0.0414422489894186 -0.017620714649833773 0.0 0.03178463718739826 0.0 0.0
0.0385930885027581 -0.016482894454862663 0.0 0.03158611960172166 0.0 0.0
0.03567305870411615 -0.015272787873069089 0.0 0.0315047486904493 0.0 0.0
0.032718283065824964 -0.014023536089282895 0.0 0.031482635417344695 0.0 0.0
0.029752148186371008 -0.012758703142098106 0.0 0.03148571687718396 0.0 0.0
0.0267827877550098 -0.011485968929033306 0.0 0.031493017782015395 0.0 0.0
0.02380262886660335 -0.010194867792407261 0.0 0.031477470454415776 0.0 0.0
0.020779175773151227 -0.008847172586042583 0.0 0.03137841407024599 0.0 0.0
0.017634974079564474 -0.0073620922392611775 0.0 0.031072836271772743 0.0 0.0
0.014195217959636264 -0.005603295130611 0.0 0.03037116029388643 0.0 0.0
0.01007399479775447 -0.003327757051078292 0.0 0.029216783950176406 0.0 0.0
0.005006944448511039 -0.0003845631138870315 0.0 0.028912131855767846 0.0 0.0
0.0012861686106737074 0.0008528638101217099 0.0 0.03344462453298647 0.0 0.0
0.005429532460798479 -0.010995375228597405 0.0 0.03671369557393174 0.0 0.0
0.010523657518904815 -0.04572646542999564 0.0 0.028784735618009743 0.0 0.0
0.009058605492058138 -0.038091381075905394 0.0 -0.026239990275712367 0.0 0.0
0.004451714494976082 -0.01117767531364183 0.0 -0.03624281817496316 0.0 0.0
-0.00012649568836836861 0.0007102126785849332 0.0 -0.03669294345429492 0.0 0.0
0.0019256033018980045 0.0009222894201267508 0.0 -0.032421454081735676 0.0 0.0
0.005800866388356248 -0.0013851180200907748 0.0 -0.031815981325082 0.0 0.0
0.009059731443440248 -0.003343368083373669 0.0 -0.032449179254719795 0.0 0.0
0.011623432869073047 -0.004762167606162442 0.0 -0.032943886927181885 0.0 0.0
0.01382581053555146 -0.005859304243662051 0.0 -0.033170016671456644 0.0 0.0
0.015873892061654956 -0.006795636775094949 0.0 -0.033244968372535766 0.0 0.0
0.017866032464406788 -0.007665204630959569 0.0 -0.033257650895788166 0.0 0.0
0.019843535802666862 -0.008512939755754519 0.0 -0.03325289855186137 0.0 0.0
0.021816487847050144 -0.009351393771990912 0.0 -0.033250899071691375 0.0 0.0
0.023775144255595675 -0.010171798505389667 0.0 -0.03326672239472677 0.0 0.0
0.02569070236306116 -0.010946993148352402 0.0 -0.03332447657572252 0.0 0.0
0.02751659726086905 -0.011637210515708997 0.0 -0.0334676256713185 0.0 0.0
0.02922538142150094 -0.012234158133052037 0.0 -0.03375988419536429 0.0 0.0
0.030942318288510295 -0.012917965927246023 0.0 -0.03419845642310492 0.0 0.0
0.033151799379127336 -0.014353799632754884 0.0 -0.0342435836065401 0.0 0.0
0.03655913313219953 -0.01777224613626075 0.0 -0.031567493947970975 0.0 0.0
0.04078538958852471 -0.023624000885186652 0.0 -0.02108768809856903 0.0 0.0
0.04292185144590042 -0.027869901144635462 0.0 -6.29704621779581e-16 0.0 0.0
0.040785389588523874 -0.023624000885185924 0.0 0.021087688098569382 0.0 0.0
0.03655913313219918 -0.017772246136255294 0.0 0.031567493947971495 0.0 0.0
0.03315179937912766 -0.014353799632756705 0.0 0.034243583606540354 0.0 0.0
0.03094231828851049 -0.012917965927254029 0.0 0.03419845642310696 0.0 0.0
0.02922538142150083 -0.012234158133049242 0.0 0.03375988419536492 0.0 0.0
0.027516597260868747 -0.011637210515706615 0.0 0.033467625671319425 0.0 0.0
0.025690702363061195 -0.01094699314835497 0.0 0.033324476575722295 0.0 0.0
0.02377514425559575 -0.010171798505390817 0.0 0.03326672239472664 0.0 0.0
0.021816487847049964 -0.009351393771993219 0.0 0.03325089907169065 0.0 0.0
0.019843535802666942 -0.008512939755752517 0.0 0.03325289855185918 0.0 0.0
0.017866032464406694 -0.007665204630961205 0.0 0.033257650895788964 0.0 0.0
0.01587389206165485 -0.006795636775096487 0.0 0.03324496837253387 0.0 0.0
0.01382581053555127 -0.005859304243657603 0.0 0.03317001667145627 0.0 0.0
0.011623432869072942 -0.004762167606162436 0.0 0.032943886927181275 0.0 0.0
0.009059731443440272 -0.0033433680833701404 0.0 0.03244917925472025 0.0 0.0
0.005800866388356175 -0.0013851180200917363 0.0 0.03181598132508261 0.0 0.0
0.0019256033018978424 0.0009222894201250066 0.0 0.03242145408173539 0.0 0.0
-0.00012649568836855044 0.0007102126785859557 0.0 0.03669294345429589 0.0 0.0
0.004451714494975912 -0.01117767531364279 0.0 0.03624281817496197 0.0 0.0
0.009058605492058192 -0.03809138107590537 0.0 0.026239990275712423 0.0 0.0
0.007632241893315404 -0.031348060403116454 0.0 -0.023852408631397738 0.0 0.0
0.0034816717790764973 -0.010757636834278597 0.0 -0.03517351992224428 0.0 0.0
-0.0013934817934973223 0.0006152256327179798 0.0 -0.03864086442589433 0.0 0.0
-0.0008648814535872869 0.0020024657816316836 0.0 -0.035058808374211346 0.0 0.0
0.0017156917376303263 0.0004197345234930726 0.0 -0.033799363249985 0.0 0.0
0.003994282907513646 -0.0011316898818372503 0.0 -0.03389397440223065 0.0 0.0
0.005631364377144769 -0.002177896057228709 0.0 -0.03413661216361547 0.0 0.0
0.006876224108444939 -0.002875686696186675 0.0 -0.03426283394845799 0.0 0.0
0.007944256517683889 -0.003396343881768686 0.0 -0.03430590068980394 0.0 0.0
0.008947568543240749 -0.0038434319383851426 0.0 -0.034313696626892425 0.0 0.0
0.009933558215569498 -0.00426630042638072 0.0 -0.0343114403444607 0.0 0.0
0.010914053971580925 -0.004678953404149126 0.0 -0.034310344095915365 0.0 0.0
0.011878436044655029 -0.005072024016331961 0.0 -0.03431816762268259 0.0 0.0
0.012794641213814259 -0.005416226790704535 0.0 -0.034347190214495525 0.0 0.0
0.01360849693466073 -0.005667249903312974 0.0 -0.03442285926745438 0.0 0.0
0.014278565086253015 -0.005806738304926807 0.0 -0.03460363310330518 0.0 0.0
0.014931595055798271 -0.006011404962807041 0.0 -0.034970694342892635 0.0 0.0
0.016163693561346303 -0.007035828382789878 0.0 -0.035247745392378294 0.0 0.0
0.019016958832982198 -0.010470825928665176 0.0 -0.033288119488402795 0.0 0.0
0.023392753310281744 -0.017314098148780224 0.0 -0.023076558557190877 0.0 0.0
0.02579115231735884 -0.02283377593357769 0.0 -8.413408858487514e-17 0.0 0.0
0.02339275331028121 -0.017314098148765472 0.0 0.02307655855719079 0.0 0.0
0.019016958832981858 -0.01047082592866183 0.0 0.03328811948840437 0.0 0.0
0.01616369356134618 -0.007035828382792956 0.0 0.03524774539238068 0.0 0.0
0.014931595055798455 -0.006011404962806153 0.0 0.034970694342893925 0.0 0.0
0.01427856508625265 -0.005806738304922366 0.0 0.034603633103305324 0.0 0.0
0.013608496934660557 -0.005667249903301352 0.0 0.034422859267454885 0.0 0.0
0.012794641213814321 -0.005416226790708084 0.0 0.0343471902144951 0.0 0.0
0.011878436044654985 -0.005072024016328278 0.0 0.034318167622681875 0.0 0.0
0.01091405397158118 -0.00467895340414931 0.0 0.034310344095914366 0.0 0.0
0.009933558215569913 -0.004266300426384138 0.0 0.034311440344458266 0.0 0.0
0.008947568543240808 -0.0038434319383843507 0.0 0.03431369662689281 0.0 0.0
0.007944256517683686 -0.0033963438817651713 0.0 0.03430590068980358 0.0 0.0
0.006876224108445031 -0.0028756866961845567 0.0 0.034262833948457985 0.0 0.0
0.005631364377144794 -0.00217789605722754 0.0 0.034136612163616756 0.0 0.0
0.0039942829075134845 -0.0011316898818363 0.0 0.03389397440223094 0.0 0.0
0.0017156917376305483 0.00041973452349166723 0.0 0.03379936324998426 0.0 0.0
-0.0008648814535871906 0.002002465781630714 0.0 0.03505880837421019 0.0 0.0
-0.001393481793497509 0.0006152256327177511 0.0 0.03864086442589356 0.0 0.0
0.003481671779076505 -0.010757636834278793 0.0 0.03517351992224564 0.0 0.0
0.007632241893315494 -0.03134806040311634 0.0 0.02385240863139744 0.0 0.0
0.0062386210803813 -0.02536524280086172 0.0 -0.02160613927799502 0.0 0.0
0.0024899715037014812 -0.009908112894215618 0.0 -0.03362476027958066 0.0 0.0
-0.0026003108933262383 0.0006438202167626956 0.0 -0.03941333749027095 0.0 0.0
-0.0034445992737148733 0.002932244601385076 0.0 -0.036738383760080484 0.0 0.0
-0.0021989566694308486 0.0020946927247669908 0.0 -0.03507207944300143 0.0 0.0
-0.0009932325854505823 0.0010227588357763868 0.0 -0.034667747578298776 0.0 0.0
-0.0003355162778209659 0.00038666108120404165 0.0 -0.03463902300205171 0.0 0.0
-6.775615842150072e-05 0.00010245904501815154 0.0 -0.03465311734241264 0.0 0.0
1.4196174397191198e-05 2.6378859574150923e-06 0.0 -0.03465981516572318 0.0 0.0
2.7421503814001715e-05 -2.0652372396330967e-05 0.0 -0.034661484994517114 0.0 0.0
2.2152504557410935e-05 -1.8728544354837005e-05 0.0 -0.03466164037769417 0.0 0.0
1.1041764415076205e-05 -6.2571408886928745e-06 0.0 -0.034661361436715804 0.0 0.0
-1.6694198710356586e-05 2.6244044701282093e-05 0.0 -0.034660341672805246 0.0 0.0
-9.405163223413023e-05 0.00010865204589133152 0.0 -0.03465816633796172 0.0 0.0
-0.0002791819688160958 0.00028719806209181987 0.0 -0.03466001854942992 0.0 0.0
-0.0006287476416505025 0.0005910625329496069 0.0 -0.03471090821658182 0.0 0.0
-0.0010354077628245612 0.0008676502077538381 0.0 -0.03497259150857171 0.0 0.0
-0.0008239289771293542 0.00031712619341329226 0.0 -0.035508820126731115 0.0 0.0
0.0014240064182474384 -0.003034407066686859 0.0 -0.034565920403300886 0.0 0.0
0.006028324684116332 -0.010991909862410167 0.0 -0.02514309882317662 0.0 0.0
0.008781690641964473 -0.01823268172618345 0.0 1.0928757898653885e-16 0.0 0.0
0.006028324684116284 -0.010991909862405154 0.0 0.02514309882317549 0.0 0.0
0.0014240064182468697 -0.003034407066685852 0.0 0.03456592040329926 0.0 0.0
-0.0008239289771295199 0.0003171261934149936 0.0 0.035508820126731754 0.0 0.0
-0.0010354077628241787 0.0008676502077499924 0.0 0.03497259150857457 0.0 0.0
-0.0006287476416507298 0.0005910625329551416 0.0 0.03471090821658426 0.0 0.0
-0.00027918196881640284 0.00028719806209873144 0.0 0.034660018549428684 0.0 0.0
-9.405163223420916e-05 0.00010865204589073478 0.0 0.03465816633795969 0.0 0.0
-1.6694198710366778e-05 2.6244044709249623e-05 0.0 0.03466034167280415 0.0 0.0
1.1041764414963882e-05 -6.257140890680813e-06 0.0 0.034661361436713854 0.0 0.0
2.2152504557411152e-05 -1.872854435463697e-05 0.0 0.03466164037769397 0.0 0.0
2.7421503814047034e-05 -2.065237239471117e-05 0.0 0.03466148499451627 0.0 0.0
1.419617439701057e-05 2.6378859564241586e-06 0.0 0.03465981516572465 0.0 0.0
-6.775615842181178e-05 0.00010245904501839543 0.0 0.03465311734241172 0.0 0.0
-0.0003355162778211375 0.0003866610812016745 0.0 0.03463902300205218 0.0 0.0
-0.0009932325854507093 0.001022758835777045 0.0 0.03466774757830128 0.0 0.0
-0.002198956669430887 0.0020946927247676786 0.0 0.035072079443000455 0.0 0.0
-0.003444599273714856 0.002932244601382736 0.0 0.03673838376008025 0.0 0.0
-0.0026003108933261576 0.0006438202167618735 0.0 0.03941333749027132 0.0 0.0
0.0024899715037011334 -0.009908112894215216 0.0 0.03362476027958188 0.0 0.0
0.006238621080380557 -0.025365242800861942 0.0 0.02160613927799426 0.0 0.0
0.004885124854287914 -0.02005234294297656 0.0 -0.019452451598080452 0.0 0.0
0.0014715463715418388 -0.008768390066041184 0.0 -0.031665192180988365 0.0 0.0
-0.0037969555195338347 0.0008265738755844968 0.0 -0.039132364853328126 0.0 0.0
-0.005877242233710812 0.003772390529137356 0.0 -0.03742832986175031 0.0 0.0
-0.005967887266834157 0.003657274807250431 0.0 -0.035560142419411994 0.0 0.0
-0.005903296561917201 0.0031179287442714494 0.0 -0.034730438100335034 0.0 0.0
-0.006274577334379362 0.002929307269325122 0.0 -0.034436812055538855 0.0 0.0
-0.00700517095909956 0.0030745536992063185 0.0 -0.03433651815194883 0.0 0.0
-0.00791607989317482 0.0034011585330793936 0.0 -0.034305985881913734 0.0 0.0
-0.008894388412716819 0.0038031212738937467 0.0 -0.034301287789039556 0.0 0.0
-0.009890703381472304 0.004229796918870449 0.0 -0.03430381824768609 0.0 0.0
-0.010892534990674576 0.004666688122755418 0.0 -0.034304406241728196 0.0 0.0
-0.011910149570544964 0.005122913689953873 0.0 -0.03429466378415495 0.0 0.0
-0.012975172092159336 0.005627487724600372 0.0 -0.03426154537725173 0.0 0.0
-0.014145280611559768 0.006225630467446781 0.0 -0.034189563464944346 0.0 0.0
-0.015491071257291718 0.006955355966125468 0.0 -0.0341009186892407 0.0 0.0
-0.016948559836235593 0.007708719394521958 0.0 -0.03421445907236895 0.0 0.0
-0.017817617509710948 0.00770706865945885 0.0 -0.03498584694103976 0.0 0.0
-0.016276037931605637 0.004603158303226179 0.0 -0.03533768621007111 0.0 0.0
-0.011382293577922727 -0.004556546038467124 0.0 -0.027343915979468447 0.0 0.0
-0.00816714461093095 -0.014144312457404008 0.0 -3.642919299551295e-16 0.0 0.0
-0.011382293577922548 -0.004556546038472129 0.0 0.02734391597946636 0.0 0.0
-0.016276037931605897 0.004603158303221932 0.0 0.035337686210069406 0.0 0.0
-0.017817617509711694 0.007707068659470583 0.0 0.03498584694104294 0.0 0.0
-0.016948559836235406 0.007708719394518674 0.0 0.03421445907236721 0.0 0.0
-0.015491071257291756 0.006955355966123853 0.0 0.034100918689239264 0.0 0.0
-0.014145280611560025 0.006225630467442252 0.0 0.0341895634649422 0.0 0.0
-0.012975172092159034 0.005627487724602394 0.0 0.03426154537725119 0.0 0.0
-0.011910149570544981 0.005122913689958015 0.0 0.03429466378415583 0.0 0.0
-0.010892534990674406 0.0046666881227518334 0.0 0.03430440624172987 0.0 0.0
-0.00989070338147219 0.0042297969188739275 0.0 0.034303818247685955 0.0 0.0
-0.00889438841271667 0.0038031212738961727 0.0 0.0343012877890382 0.0 0.0
-0.007916079893174326 0.003401158533075775 0.0 0.03430598588191271 0.0 0.0
-0.00700517095909972 0.0030745536992037134 0.0 0.034336518151948665 0.0 0.0
-0.006274577334379242 0.0029293072693258528 0.0 0.034436812055539716 0.0 0.0
-0.005903296561917018 0.0031179287442689935 0.0 0.034730438100335714 0.0 0.0
-0.00596788726683423 0.003657274807249816 0.0 0.035560142419411585 0.0 0.0
-0.005877242233710915 0.003772390529137524 0.0 0.03742832986174948 0.0 0.0
-0.00379695551953431 0.0008265738755843112 0.0 0.039132364853330374 0.0 0.0
0.001471546371541272 -0.00876839006604028 0.0 0.03166519218098891 0.0 0.0
0.004885124854287367 -0.020052342942976763 0.0 0.019452451598081687 0.0 0.0
0.0035859716221314794 -0.015353862081532863 0.0 -0.017334120293732262 0.0 0.0
0.0004349830420946997 -0.0074481628008384055 0.0 -0.029331820003593558 0.0 0.0
-0.005008701498631738 0.001165912558991768 0.0 -0.03790420079651311 0.0 0.0
-0.0082102563310004 0.004566782662677478 0.0 -0.037127349347153615 0.0 0.0
-0.009618083770386116 0.005128775563422655 0.0 -0.0352091382931731 0.0 0.0
-0.010742875918394063 0.005157686018836307 0.0 -0.03404425208998427 0.0 0.0
-0.012186521079081218 0.005450217093201516 0.0 -0.033514785796244895 0.0 0.0
-0.013936118450775189 0.006040742636999608 0.0 -0.03330850639351191 0.0 0.0
-0.015846642500333817 0.006799289700896835 0.0 -0.03324365285846777 0.0 0.0
-0.017817856800115793 0.007627881063909388 0.0 -0.03323336175808328 0.0 0.0
-0.019804994728179565 0.00847926127158452 0.0 -0.03323829609929727 0.0 0.0
-0.021796716004986217 0.009339915307089068 0.0 -0.033239919036575916 0.0 0.0
-0.023802104746522265 0.010218107047222027 0.0 -0.033222553263380354 0.0 0.0
-0.025849326467800974 0.01114066119550192 0.0 -0.03316136917005765 0.0 0.0
-0.027990662437312713 0.012149128982538102 0.0 -0.033021731110512716 0.0 0.0
-0.030304870161136525 0.013284687037640576 0.0 -0.032796256173822154 0.0 0.0
-0.03279318096608525 0.014497840488488175 0.0 -0.0327162036403757 0.0 0.0
-0.03481141409916605 0.015120980626368102 0.0 -0.03362872027887515 0.0 0.0
-0.03413742067754193 0.01250623810889477 0.0 -0.03548876125051162 0.0 0.0
-0.02892316329336382 0.002129463244755184 0.0 -0.02972430929637304 0.0 0.0
-0.025124575783270934 -0.010688632661028982 0.0 7.24247051220317e-16 0.0 0.0
-0.028923163293363585 0.0021294632447572863 0.0 0.029724309296373035 0.0 0.0
-0.03413742067754166 0.01250623810890042 0.0 0.03548876125051111 0.0 0.0
-0.034811414099166584 0.015120980626377116 0.0 0.03362872027887745 0.0 0.0
-0.03279318096608572 0.014497840488488255 0.0 0.032716203640374725 0.0 0.0
-0.03030487016113642 0.013284687037632734 0.0 0.032796256173822994 0.0 0.0
-0.02799066243731247 0.012149128982535345 0.0 0.03302173111051442 0.0 0.0
-0.02584932646780059 0.011140661195502286 0.0 0.033161369170058214 0.0 0.0
-0.023802104746522425 0.010218107047214268 0.0 0.03322255326337975 0.0 0.0
-0.02179671600498668 0.009339915307083007 0.0 0.033239919036576845 0.0 0.0
-0.019804994728179637 0.00847926127158457 0.0 0.03323829609929596 0.0 0.0
-0.017817856800115425 0.007627881063907365 0.0 0.03323336175808336 0.0 0.0
-0.015846642500333324 0.006799289700896554 0.0 0.03324365285846851 0.0 0.0
-0.01393611845077515 0.006040742636998114 0.0 0.0333085063935107 0.0 0.0
-0.012186521079081572 0.005450217093201552 0.0 0.03351478579624524 0.0 0.0
-0.010742875918393941 0.005157686018834702 0.0 0.03404425208998225 0.0 0.0
-0.009618083770385918 0.0051287755634206135 0.0 0.03520913829317419 0.0 0.0
-0.008210256330999973 0.004566782662680213 0.0 0.03712734934715256 0.0 0.0
-0.005008701498631398 0.0011659125589924175 0.0 0.03790420079651311 0.0 0.0
0.00043498304209469986 -0.0074481628008382355 0.0 0.029331820003594224 0.0 0.0
0.003585971622131907 -0.015353862081532901 0.0 0.017334120293733747 0.0 0.0
0.0023595920780363666 -0.011243730477655506 0.0 -0.015197995063565832 0.0 0.0
-0.0006026042862007545 -0.006033096729142078 0.0 -0.02664380981298475 0.0 0.0
-0.006242892218404447 0.0016466402599568213 0.0 -0.035815537449014244 0.0 0.0
-0.010476449251063818 0.005343760922722982 0.0 -0.03584766550555719 0.0 0.0
-0.013175934223101538 0.006530946686716611 0.0 -0.033979874994787745 0.0 0.0
-0.015523744938590728 0.007150526127806768 0.0 -0.03257635961956136 0.0 0.0
-0.018075228855862487 0.007952029286131536 0.0 -0.031858556909648034 0.0 0.0
-0.02086183116501664 0.009001954350645675 0.0 -0.031564886070447516 0.0 0.0
-0.023777837427277633 0.010197301958959338 0.0 -0.031472233119777863 0.0 0.0
-0.026742987330524052 0.011453621294388492 0.0 -0.031458001043964214 0.0 0.0
-0.029720665086668305 0.012729611596465209 0.0 -0.03146538242537277 0.0 0.0
-0.03270158996723535 0.014013485147100484 0.0 -0.03146825063002533 0.0 0.0
-0.035692996494204154 0.015312177157964867 0.0 -0.031445234793941075 0.0 0.0
-0.03871780243073954 0.016648993987806598 0.0 -0.03136137415330546 0.0 0.0
-0.041818367698415106 0.018060177440211007 0.0 -0.031165459343573496 0.0 0.0
-0.04507017277175428 0.019581558238473094 0.0 -0.030821158242807255 0.0 0.0
-0.04855056215084765 0.021219559529629856 0.0 -0.0305144820677657 0.0 0.0
-0.051780277797666835 0.022523717125880055 0.0 -0.03139179497427245 0.0 0.0
-0.0522067429221228 0.02072731010139412 0.0 -0.034836354477517636 0.0 0.0
-0.0466931061729445 0.009260497772030264 0.0 -0.03230078168783218 0.0 0.0
-0.042178270147700925 -0.008040585608653533 0.0 4.510281037539698e-16 0.0 0.0
-0.04669310617294441 0.009260497772036407 0.0 0.03230078168783184 0.0 0.0
-0.05220674292212291 0.020727310101395932 0.0 0.03483635447751606 0.0 0.0
-0.05178027779766701 0.02252371712588777 0.0 0.031391794974270124 0.0 0.0
-0.04855056215084786 0.021219559529626803 0.0 0.030514482067764748 0.0 0.0
-0.04507017277175428 0.019581558238480973 0.0 0.030821158242806047 0.0 0.0
-0.04181836769841492 0.018060177440206313 0.0 0.031165459343573815 0.0 0.0
-0.03871780243073921 0.016648993987803694 0.0 0.031361374153304505 0.0 0.0
-0.035692996494204134 0.015312177157956703 0.0 0.03144523479394059 0.0 0.0
-0.032701589967235566 0.01401348514709986 0.0 0.03146825063002529 0.0 0.0
-0.02972066508666838 0.012729611596466161 0.0 0.0314653824253724 0.0 0.0
-0.02674298733052381 0.01145362129438918 0.0 0.031458001043964255 0.0 0.0
-0.023777837427277813 0.010197301958957296 0.0 0.031472233119779106 0.0 0.0
-0.020861831165016886 0.009001954350643921 0.0 0.0315648860704445 0.0 0.0
-0.018075228855862473 0.007952029286128747 0.0 0.03185855690964896 0.0 0.0
-0.01552374493859044 0.007150526127807729 0.0 0.032576359619563185 0.0 0.0
-0.013175934223101564 0.0065309466867181365 0.0 0.03397987499478955 0.0 0.0
-0.01047644925106447 0.005343760922724552 0.0 0.03584766550555717 0.0 0.0
-0.00624289221840464 0.001646640259957081 0.0 0.03581553744901282 0.0 0.0
-0.0006026042862011194 -0.006033096729142183 0.0 0.026643809812986308 0.0 0.0
0.0023595920780356584 -0.011243730477655634 0.0 0.015197995063565275 0.0 0.0
0.0012282380707342472 -0.007719993127302116 0.0 -0.013003134272388618 0.0 0.0
-0.0016171343834452652 -0.004590649653636609 0.0 -0.023613077327580598 0.0 0.0
-0.007492464629633837 0.0022415327572326157 0.0 -0.03293272545166612 0.0 0.0
-0.012696050751499008 0.006118534156501163 0.0 -0.03360238391837595 0.0 0.0
-0.016666268498030715 0.007884689404766486 0.0 -0.03184337599782008 0.0 0.0
-0.020261281899895817 0.009108471313247667 0.0 -0.030300329882050607 0.0 0.0
-0.02394736442252918 0.010439624658726191 0.0 -0.029456130507910808 0.0 0.0
-0.027784611452114236 0.01195987197850264 0.0 -0.029102378253376984 0.0 0.0
-0.03171024869435782 0.013595624593233595 0.0 -0.028991509950214947 0.0 0.0
-0.035669770327516885 0.015280320211687737 0.0 -0.028975582119554776 0.0 0.0
-0.03963760438206847 0.016980754591358657 0.0 -0.028985352491179315 0.0 0.0
-0.04360726996023997 0.018687453896459424 0.0 -0.028989619098197045 0.0 0.0
-0.04758352240125382 0.02040570721145777 0.0 -0.02896348957919152 0.0 0.0
-0.051582387517685895 0.0221537364487334 0.0 -0.02886484022814367 0.0 0.0
-0.05563335119835178 0.02396198643915898 0.0 -0.028627851157847148 0.0 0.0
-0.05979279119397622 0.025853844758435267 0.0 -0.02819715168285721 0.0 0.0
-0.06420111167141605 0.027862530631104193 0.0 -0.02766836783488757 0.0 0.0
-0.06867182235356868 0.029850521967173076 0.0 -0.028261554593837227 0.0 0.0
-0.07051137291771878 0.029285759334350958 0.0 -0.03311104695839157 0.0 0.0
-0.06481195404033327 0.01711732400131711 0.0 -0.035020544384930775 0.0 0.0
-0.05945176820056432 -0.006444255175337361 0.0 2.411265631607762e-16 0.0 0.0
-0.0648119540403333 0.01711732400131137 0.0 0.035020544384930144 0.0 0.0
-0.07051137291771825 0.02928575933434869 0.0 0.033111046958391885 0.0 0.0
-0.06867182235356807 0.029850521967176386 0.0 0.028261554593836155 0.0 0.0
-0.06420111167141648 0.02786253063111191 0.0 0.027668367834887755 0.0 0.0
-0.05979279119397711 0.025853844758445564 0.0 0.02819715168285753 0.0 0.0
-0.05563335119835153 0.023961986439157174 0.0 0.02862785115784479 0.0 0.0
-0.05158238751768547 0.022153736448739567 0.0 0.028864840228145255 0.0 0.0
-0.04758352240125376 0.02040570721146365 0.0 0.028963489579191988 0.0 0.0
-0.043607269960240454 0.01868745389645942 0.0 0.02898961909819779 0.0 0.0
-0.03963760438206875 0.016980754591360784 0.0 0.028985352491182538 0.0 0.0
-0.03566977032751682 0.015280320211688098 0.0 0.028975582119554345 0.0 0.0
-0.03171024869435792 0.013595624593232745 0.0 0.028991509950213587 0.0 0.0
-0.02778461145211404 0.011959871978505395 0.0 0.02910237825337482 0.0 0.0
-0.023947364422528976 0.010439624658723584 0.0 0.029456130507910648 0.0 0.0
-0.020261281899895938 0.009108471313248278 0.0 0.03030032988205463 0.0 0.0
-0.016666268498030358 0.007884689404768308 0.0 0.03184337599782054 0.0 0.0
-0.012696050751498432 0.006118534156500428 0.0 0.03360238391837724 0.0 0.0
-0.007492464629633263 0.002241532757232675 0.0 0.03293272545166568 0.0 0.0
-0.001617134383445078 -0.004590649653636569 0.0 0.023613077327580504 0.0 0.0
0.0012282380707338907 -0.0077199931273021155 0.0 0.013003134272388247 0.0 0.0
0.0002192997240456794 -0.004799627056814347 0.0 -0.01072922204870275 0.0 0.0
-0.002576356997745534 -0.0031761734572868707 0.0 -0.02025310866391441 0.0 0.0
-0.00873689420965614 0.002913212497816694 0.0 -0.0293002874429054 0.0 0.0
-0.014878953752866766 0.006896118455749178 0.0 -0.030395328170050064 0.0 0.0
-0.02011279049537166 0.009210305845877917 0.0 -0.028776613632778808 0.0 0.0
-0.02497376150562842 0.011046269027283893 0.0 -0.027196981055259074 0.0 0.0
-0.029811840773882776 0.012919695094623556 0.0 -0.026299221056701818 0.0 0.0
-0.0347076343860109 0.014916801642393201 0.0 -0.025919195208157896 0.0 0.0
-0.03964462189707493 0.016994782726277233 0.0 -0.02580179576185427 0.0 0.0
-0.04459814838017672 0.019107908990496632 0.0 -0.02578659745970597 0.0 0.0
-0.049555637712151115 0.021232555031401902 0.0 -0.025798412346205644 0.0 0.0
-0.05451384273652782 0.023361843097009678 0.0 -0.025804106736917843 0.0 0.0
-0.05947462583702688 0.02549940537690664 0.0 -0.025777458896485236 0.0 0.0
-0.06444529466532203 0.027656812125818844 0.0 -0.025674060969907826 0.0 0.0
-0.06944152226095526 0.029857450205109937 0.0 -0.025415173847086345 0.0 0.0
-0.07448638498780852 0.032114418734845655 0.0 -0.024936471257396155 0.0 0.0
-0.07973232219708823 0.03443084852484053 0.0 -0.02425564564832566 0.0 0.0
-0.08539763232388507 0.037003439755877936 0.0 -0.02430801310647228 0.0 0.0
-0.08903607021342523 0.0381251123425311 0.0 -0.029949109042267386 0.0 0.0
-0.08342729855061201 0.02610812266821053 0.0 -0.03766954187959821 0.0 0.0
-0.0771372651039486 -0.006222246836326076 0.0 -1.9099305470504646e-15 0.0 0.0
-0.08342729855061179 0.026108122668200916 0.0 0.037669541879600706 0.0 0.0
-0.08903607021342547 0.03812511234253088 0.0 0.029949109042269766 0.0 0.0
-0.08539763232388499 0.03700343975586637 0.0 0.02430801310647301 0.0 0.0
-0.07973232219708792 0.03443084852485142 0.0 0.024255645648326645 0.0 0.0
-0.07448638498780889 0.032114418734839736 0.0 0.02493647125739689 0.0 0.0
-0.06944152226095536 0.02985745020511306 0.0 0.025415173847084076 0.0 0.0
-0.06444529466532155 0.027656812125826033 0.0 0.025674060969908208 0.0 0.0
-0.05947462583702674 0.025499405376911588 0.0 0.025777458896483835 0.0 0.0
-0.05451384273652768 0.023361843097005997 0.0 0.025804106736918242 0.0 0.0
-0.04955563771215093 0.02123255503140374 0.0 0.025798412346203396 0.0 0.0
-0.04459814838017676 0.019107908990495238 0.0 0.025786597459706555 0.0 0.0
-0.03964462189707508 0.016994782726280324 0.0 0.025801795761855366 0.0 0.0
-0.034707634386010724 0.01491680164238984 0.0 0.02591919520815699 0.0 0.0
-0.029811840773882443 0.012919695094623694 0.0 0.02629922105669923 0.0 0.0
-0.024973761505628293 0.011046269027284629 0.0 0.0271969810552605 0.0 0.0
-0.02011279049537181 0.009210305845878597 0.0 0.02877661363277858 0.0 0.0
-0.014878953752867144 0.0068961184557473874 0.0 0.03039532817004939 0.0 0.0
-0.00873689420965625 0.002913212497817458 0.0 0.029300287442905852 0.0 0.0
-0.0025763569977453383 -0.0031761734572872246 0.0 0.020253108663912823 0.0 0.0
0.00021929972404606863 -0.004799627056814038 0.0 0.01072922204870268 0.0 0.0
-0.0006313862807095976 -0.0025127727792996213 0.0 -0.008389646856166591 0.0 0.0
-0.0034357886150995463 -0.0018403378341024955 0.0 -0.016587075309412277 0.0 0.0
-0.009940920636713736 0.0036131337781138044 0.0 -0.024935357353940927 0.0 0.0
-0.017027389417183934 0.007675064340998164 0.0 -0.026212041089506855 0.0 0.0
-0.02353967908137787 0.010528948632826635 0.0 -0.02476002524626757 0.0 0.0
-0.02968201072794504 0.012980788720909102 0.0 -0.02325513086214844 0.0 0.0
-0.035679196234014554 0.015400187345403372 0.0 -0.02238425770848493 0.0 0.0
-0.04163464455020458 0.017875448614858114 0.0 -0.022015538985236914 0.0 0.0
-0.04758174733686667 0.02039530559460953 0.0 -0.021904048339541238 0.0 0.0
-0.05352796851533182 0.02293623881765091 0.0 -0.021891669593673974 0.0 0.0
-0.05947451787261872 0.025484811239921298 0.0 -0.02190467753139762 0.0 0.0
-0.06542131926514161 0.02803668290216174 0.0 -0.021911567526721264 0.0 0.0
-0.07136735564638724 0.03059379411275296 0.0 -0.021886890610382626 0.0 0.0
-0.07730943527765155 0.03316118970043562 0.0 -0.021788807773540943 0.0 0.0
-0.08324821306915338 0.03574905012997405 0.0 -0.021535094980856744 0.0 0.0
-0.08917211005226897 0.03837553154496118 0.0 -0.021039622966073448 0.0 0.0
-0.09515443643810605 0.040961610938284994 0.0 -0.020342123876714482 0.0 0.0
-0.10182951115560661 0.04386523549079559 0.0 -0.019766236734100374 0.0 0.0
-0.10767638297197876 0.0470284876008611 0.0 -0.02494248739915655 0.0 0.0
-0.10271838101898106 0.03681924031621057 0.0 -0.03965864499611032 0.0 0.0
-0.09556083233568549 -0.00775978184144171 0.0 -1.132774429812855e-15 0.0 0.0
-0.10271838101898098 0.03681924031621344 0.0 0.039658644996109396 0.0 0.0
-0.10767638297197873 0.0470284876008622 0.0 0.02494248739915662 0.0 0.0
-0.10182951115560594 0.04386523549077792 0.0 0.0197662367340993 0.0 0.0
-0.09515443643810549 0.04096161093828178 0.0 0.020342123876710992 0.0 0.0
-0.0891721100522691 0.03837553154495455 0.0 0.021039622966072254 0.0 0.0
-0.0832482130691534 0.03574905012997337 0.0 0.02153509498085618 0.0 0.0
-0.07730943527765151 0.033161189700431096 0.0 0.021788807773541558 0.0 0.0
-0.07136735564638721 0.030593794112751066 0.0 0.021886890610381033 0.0 0.0
-0.06542131926514153 0.028036682902159688 0.0 0.021911567526722502 0.0 0.0
-0.05947451787261901 0.025484811239923945 0.0 0.02190467753139642 0.0 0.0
-0.053527968515331634 0.022936238817652242 0.0 0.021891669593675476 0.0 0.0
-0.04758174733686648 0.02039530559460907 0.0 0.02190404833953976 0.0 0.0
-0.04163464455020476 0.017875448614850672 0.0 0.022015538985236113 0.0 0.0
-0.035679196234014485 0.015400187345406588 0.0 0.022384257708484987 0.0 0.0
-0.029682010727944803 0.012980788720908553 0.0 0.02325513086214661 0.0 0.0
-0.023539679081377985 0.010528948632827193 0.0 0.024760025246267706 0.0 0.0
-0.01702738941718431 0.007675064340997861 0.0 0.02621204108950683 0.0 0.0
-0.009940920636714038 0.003613133778113198 0.0 0.02493535735394202 0.0 0.0
-0.0034357886150996005 -0.0018403378341023558 0.0 0.016587075309411566 0.0 0.0
-0.0006313862807094513 -0.0025127727792994894 0.0 0.008389646856167268 0.0 0.0
-0.0012729768734176402 -0.0008950730629594715 0.0 -0.006055449387927975 0.0 0.0
-0.004130726083538116 -0.0006402229593547266 0.0 -0.01265561236825057 0.0 0.0
-0.011051326860321667 0.004278453859288849 0.0 -0.01981335741176687 0.0 0.0
-0.01913982875736898 0.008452994872529526 0.0 -0.021012043445141623 0.0 0.0
-0.026974201213675743 0.011864812771565108 0.0 -0.01977781388717535 0.0 0.0
-0.03440917143842066 0.014930389896587536 0.0 -0.018472349978573305 0.0 0.0
-0.04156089877877609 0.01788970235660624 0.0 -0.017713144407949685 0.0 0.0
-0.04856957632500544 0.020838614980611007 0.0 -0.01739395948585123 0.0 0.0
-0.05552230584452911 0.023797600472640693 0.0 -0.017299931967276597 0.0 0.0
-0.06245893276495208 0.026765068800062568 0.0 -0.01729149541376789 0.0 0.0
-0.069393892953759 0.02973718534003989 0.0 -0.017304274683600386 0.0 0.0
-0.0763296791862075 0.03271209782711802 0.0 -0.017311285920900907 0.0 0.0
-0.08326245961423563 0.03568907443299095 0.0 -0.017291749156597612 0.0 0.0
-0.09017891244662271 0.038669892082553045 0.0 -0.01720560079142052 0.0 0.0
-0.0970577623511719 0.04164325292987511 0.0 -0.016992477379368005 0.0 0.0
-0.10387118865931752 0.04463478280374425 0.0 -0.016517016199374873 0.0 0.0
-0.11052468905121221 0.0475374951539201 0.0 -0.015901750660415583 0.0 0.0
-0.11781788681804564 0.05037048650687523 0.0 -0.015107855994351625 0.0 0.0
-0.1261461506851731 0.055454246927778256 0.0 -0.017912650327722025 0.0 0.0
-0.12288458813606673 0.05005388479775723 0.0 -0.03949998778691211 0.0 0.0
-0.11532062965196421 -0.011399261356996003 0.0 1.89605275924265e-15 0.0 0.0
-0.12288458813606679 0.05005388479776574 0.0 0.039499987786913264 0.0 0.0
-0.12614615068517304 0.0554542469277893 0.0 0.0179126503277195 0.0 0.0
-0.11781788681804556 0.05037048650686729 0.0 0.015107855994352302 0.0 0.0
-0.11052468905121174 0.04753749515391344 0.0 0.015901750660416412 0.0 0.0
-0.10387118865931735 0.04463478280373903 0.0 0.016517016199375567 0.0 0.0
-0.0970577623511717 0.04164325292987493 0.0 0.016992477379367012 0.0 0.0
-0.09017891244662218 0.038669892082546974 0.0 0.01720560079142221 0.0 0.0
-0.0832624596142353 0.03568907443298286 0.0 0.017291749156598094 0.0 0.0
-0.07632967918620749 0.032712097827114435 0.0 0.01731128592090171 0.0 0.0
-0.06939389295375903 0.029737185340037248 0.0 0.01730427468359918 0.0 0.0
-0.06245893276495215 0.02676506880005947 0.0 0.017291495413766955 0.0 0.0
-0.05552230584452919 0.023797600472641147 0.0 0.017299931967275257 0.0 0.0
-0.048569576325005165 0.020838614980609023 0.0 0.01739395948585082 0.0 0.0
-0.04156089877877609 0.017889702356606918 0.0 0.017713144407950937 0.0 0.0
-0.03440917143842078 0.014930389896587352 0.0 0.01847234997857201 0.0 0.0
-0.02697420121367552 0.011864812771565468 0.0 0.019777813887176216 0.0 0.0
-0.01913982875736888 0.008452994872531124 0.0 0.021012043445142584 0.0 0.0
-0.011051326860321793 0.004278453859287287 0.0 0.01981335741176791 0.0 0.0
-0.004130726083538003 -0.0006402229593543596 0.0 0.012655612368251965 0.0 0.0
-0.0012729768734175309 -0.0008950730629596077 0.0 0.006055449387929263 0.0 0.0
-0.0016267783980863171 2.4108640249774184e-05 0.0 -0.0039015481794523275 0.0 0.0
-0.004561811771956868 0.000341133230133069 0.0 -0.008523182594153182 0.0 0.0
-0.01199229880506476 0.004828315551266956 0.0 -0.013836171086386422 0.0 0.0
-0.021217655792055028 0.009235946494097223 0.0 -0.01472629903262622 0.0 0.0
-0.030449967067896565 0.013246986307400807 0.0 -0.013821251397516133 0.0 0.0
-0.03918022879983439 0.016914144146911267 0.0 -0.01285550073030848 0.0 0.0
-0.04746861935513479 0.020396921354484725 0.0 -0.012293986841834135 0.0 0.0
-0.0555161140061418 0.02380879952503817 0.0 -0.012059466551608267 0.0 0.0
-0.06346667861072383 0.02720184007714364 0.0 -0.01199178359049362 0.0 0.0
-0.07139057660374633 0.030593988133565647 0.0 -0.011986859171244495 0.0 0.0
-0.07931321899736929 0.03398935822119611 0.0 -0.01199707599010958 0.0 0.0
-0.08723897947033239 0.03738770868525307 0.0 -0.012002905466332653 0.0 0.0
-0.0951601711224282 0.04078683920985327 0.0 -0.011988999523709637 0.0 0.0
-0.10305785104605077 0.04418098234058841 0.0 -0.01192769821233757 0.0 0.0
-0.11087890776951498 0.04755962448659539 0.0 -0.01176146983161035 0.0 0.0
-0.11858583941184417 0.050869479155850376 0.0 -0.011444627967790413 0.0 0.0
-0.12596598043216117 0.054231282674315734 0.0 -0.010759129687732866 0.0 0.0
-0.13328307783096005 0.05674495063356284 0.0 -0.010792396035069268 0.0 0.0
-0.14379559714954218 0.06222869559594828 0.0 -0.010010283282272816 0.0 0.0
-0.1440742973746768 0.06675542016892257 0.0 -0.033421517742458315 0.0 0.0
-0.13760320719743918 -0.017039408374930527 0.0 4.77048955893622e-16 0.0 0.0
-0.14407429737467647 0.06675542016892166 0.0 0.03342151774245994 0.0 0.0
-0.14379559714954177 0.062228695595951775 0.0 0.010010283282269057 0.0 0.0
-0.1332830778309597 0.056744950633572655 0.0 0.01079239603506485 0.0 0.0
-0.12596598043216106 0.05423128267432382 0.0 0.010759129687733796 0.0 0.0
-0.11858583941184421 0.0508694791558467 0.0 0.011444627967790378 0.0 0.0
-0.11087890776951495 0.047559624486599714 0.0 0.01176146983161036 0.0 0.0
-0.10305785104605093 0.0441809823405862 0.0 0.011927698212337069 0.0 0.0
-0.09516017112242839 0.04078683920984711 0.0 0.011988999523708948 0.0 0.0
-0.08723897947033221 0.03738770868524945 0.0 0.012002905466333752 0.0 0.0
-0.07931321899736925 0.03398935822119236 0.0 0.011997075990112085 0.0 0.0
-0.07139057660374662 0.03059398813356349 0.0 0.011986859171244707 0.0 0.0
-0.06346667861072368 0.027201840077143158 0.0 0.011991783590495363 0.0 0.0
-0.05551611400614156 0.02380879952503951 0.0 0.012059466551607622 0.0 0.0
-0.04746861935513459 0.020396921354480638 0.0 0.01229398684183715 0.0 0.0
-0.039180228799834196 0.016914144146915548 0.0 0.012855500730309274 0.0 0.0
-0.03044996706789648 0.013246986307400288 0.0 0.013821251397518112 0.0 0.0
-0.02121765579205466 0.009235946494097152 0.0 0.014726299032627083 0.0 0.0
-0.011992298805064467 0.004828315551266546 0.0 0.013836171086386477 0.0 0.0
-0.004561811771956575 0.00034113323013346597 0.0 0.008523182594154844 0.0 0.0
-0.001626778398085997 2.4108640249480596e-05 0.0 0.003901548179452983 0.0 0.0
-0.001560334790989929 0.00024173642267311528 0.0 -0.002297977023359826 0.0 0.0
-0.004568793123162692 0.0009565318157045131 0.0 -0.004279440553828714 0.0 0.0
-0.012661099174958656 0.0051640190449751 0.0 -0.006762878528273481 0.0 0.0
-0.023277317941083075 0.010054754478542436 0.0 -0.007276509067780793 0.0 0.0
-0.03400954808028729 0.014707892482231089 0.0 -0.006888909499983447 0.0 0.0
-0.04402113399548635 0.01895185395961924 0.0 -0.006422975112075697 0.0 0.0
-0.05341353424140907 0.022929705939394 0.0 -0.006141248918823908 0.0 0.0
-0.06247715908936492 0.02678782707311724 0.0 -0.006019484324684465 0.0 0.0
-0.07141478571674321 0.030607815682201167 0.0 -0.005982490610031464 0.0 0.0
-0.08032216890214249 0.03442243168252067 0.0 -0.005978501639827045 0.0 0.0
-0.08923195429997385 0.03824084215652867 0.0 -0.005982926349850897 0.0 0.0
-0.09814861607631403 0.04206341924210544 0.0 -0.005985368062116588 0.0 0.0
-0.10706232460398686 0.045886619667798785 0.0 -0.0059773417061785095 0.0 0.0
-0.1159440402413901 0.049700450906561396 0.0 -0.005945910408480333 0.0 0.0
-0.12473678506506503 0.05348367267738802 0.0 -0.005858893500159992 0.0 0.0
-0.1332893258822626 0.057183426660124395 0.0 -0.005701698730598583 0.0 0.0
-0.14159875132701208 0.060719125243258884 0.0 -0.005411700101296577 0.0 0.0
-0.14852256974196484 0.06421304432156362 0.0 -0.005030807048140138 0.0 0.0
-0.15926726826460116 0.0650437574355636 0.0 -0.007934337798733726 0.0 0.0
-0.16609471635756257 0.08738086698875373 0.0 -0.011324240683378277 0.0 0.0
-0.16497924636240302 -0.02273847726127726 0.0 -2.3037127760972e-15 0.0 0.0
-0.1660947163575623 0.08738086698875112 0.0 0.011324240683377815 0.0 0.0
-0.1592672682646005 0.06504375743555772 0.0 0.007934337798734762 0.0 0.0
-0.14852256974196407 0.0642130443215696 0.0 0.005030807048140485 0.0 0.0
-0.1415987513270119 0.0607191252432666 0.0 0.0054117001012983675 0.0 0.0
-0.13328932588226355 0.05718342666012556 0.0 0.005701698730597142 0.0 0.0
-0.1247367850650652 0.05348367267738925 0.0 0.005858893500160238 0.0 0.0
-0.11594404024138998 0.04970045090656256 0.0 0.0059459104084785535 0.0 0.0
-0.10706232460398704 0.045886619667799784 0.0 0.005977341706176061 0.0 0.0
-0.0981486160763137 0.04206341924210117 0.0 0.005985368062115295 0.0 0.0
-0.08923195429997388 0.03824084215653037 0.0 0.005982926349851744 0.0 0.0
-0.08032216890214273 0.034422431682520814 0.0 0.005978501639824838 0.0 0.0
-0.07141478571674315 0.030607815682199398 0.0 0.005982490610032904 0.0 0.0
-0.06247715908936487 0.02678782707312161 0.0 0.006019484324683054 0.0 0.0
-0.053413534241409044 0.02292970593939212 0.0 0.006141248918825646 0.0 0.0
-0.0440211339954866 0.018951853959621633 0.0 0.006422975112075322 0.0 0.0
-0.034009548080287534 0.014707892482231349 0.0 0.0068889094999810534 0.0 0.0
-0.023277317941082943 0.010054754478541062 0.0 0.007276509067780585 0.0 0.0
-0.012661099174958609 0.005164019044975664 0.0 0.006762878528274199 0.0 0.0
-0.004568793123162499 0.0009565318157044424 0.0 0.004279440553827843 0.0 0.0
-0.0015603347909894877 0.00024173642267315547 0.0 0.0022979770233598827 0.0 0.0
-0.0008340905069413318 0.00017722633481026626 0.0 -0.0015399191320671674 0.0 0.0
-0.003880881054344373 0.0011487372069110824 0.0 -0.0018086876163753347 0.0 0.0
-0.01292974032300032 0.005264997617078033 0.0 -0.0023018193607663696 0.0 0.0
-0.025372277315303185 0.01047917972006042 0.0 -0.0025664462768955594 0.0 0.0
-0.03770249895031487 0.015462152627529637 0.0 -0.00254689872624701 0.0 0.0
-0.04895872770407236 0.01998674628920684 0.0 -0.002428382463376188 0.0 0.0
-0.05940520388231094 0.024203381944865487 0.0 -0.002337815202883657 0.0 0.0
-0.06945435532194927 0.028279728809862386 0.0 -0.0022910894899422713 0.0 0.0
-0.0793658926952241 0.03231118089859463 0.0 -0.002273192880798837 0.0 0.0
-0.08925274119448312 0.03633646021639322 0.0 -0.0022686892656918044 0.0 0.0
-0.0991493117786964 0.04036631608623848 0.0 -0.0022685233328289083 0.0 0.0
-0.10905834696533243 0.04440139373144107 0.0 -0.002268162246468213 0.0 0.0
-0.11896799998543596 0.04843650844178639 0.0 -0.0022635353919343067 0.0 0.0
-0.12884492415474924 0.05246457068144242 0.0 -0.002251079210473003 0.0 0.0
-0.13861437525535325 0.05644040465265864 0.0 -0.002221079805365584 0.0 0.0
-0.14810963801784482 0.060390037652537226 0.0 -0.0021630397435865364 0.0 0.0
-0.15704495122772757 0.06382573580718989 0.0 -0.002222027377388044 0.0 0.0
-0.16512301639244858 0.06846879814174747 0.0 -0.0015118630067827172 0.0 0.0
-0.1699360419819923 0.06508307558417815 0.0 -0.0074234712286824 0.0 0.0
-0.18729913751665891 0.09866766106339231 0.0 -3.3420857877344834e-05 0.0 0.0
-0.2036419686073199 -0.025177295091077138 0.0 1.1657341758564144e-15 0.0 0.0
-0.18729913751665914 0.09866766106339903 0.0 3.3420857877275445e-05 0.0 0.0
-0.16993604198199225 0.06508307558417308 0.0 0.007423471228680496 0.0 0.0
-0.1651230163924474 0.06846879814174087 0.0 0.0015118630067816607 0.0 0.0
-0.15704495122772738 0.06382573580718925 0.0 0.0022220273773868524 0.0 0.0
-0.14810963801784563 0.06039003765253909 0.0 0.002163039743584231 0.0 0.0
-0.13861437525535292 0.05644040465265714 0.0 0.002221079805364918 0.0 0.0
-0.12884492415474907 0.05246457068144513 0.0 0.002251079210474743 0.0 0.0
-0.11896799998543582 0.048436508441789095 0.0 0.002263535391933148 0.0 0.0
-0.10905834696533223 0.04440139373143362 0.0 0.002268162246464811 0.0 0.0
-0.09914931177869656 0.040366316086240556 0.0 0.0022685233328310263 0.0 0.0
-0.0892527411944831 0.036336460216391794 0.0 0.0022686892656912337 0.0 0.0
-0.07936589269522396 0.03231118089859674 0.0 0.002273192880799132 0.0 0.0
-0.06945435532194877 0.028279728809867087 0.0 0.0022910894899419495 0.0 0.0
-0.059405203882310575 0.024203381944867892 0.0 0.0023378152028838677 0.0 0.0
-0.048958727704072946 0.019986746289205257 0.0 0.0024283824633751176 0.0 0.0
-0.037702498950315536 0.015462152627531676 0.0 0.002546898726242708 0.0 0.0
-0.025372277315302776 0.010479179720060457 0.0 0.002566446276893658 0.0 0.0
-0.012929740323000158 0.005264997617079818 0.0 0.0023018193607685913 0.0 0.0
-0.0038808810543449206 0.0011487372069099266 0.0 0.0018086876163737955 0.0 0.0
-0.0008340905069417484 0.00017722633481094476 0.0 0.001539919132066826 0.0 0.0