# vtk DataFile Version 3.0
Some data
ASCII
DATASET UNSTRUCTURED_GRID
POINTS 861 float
0.0 0.0 0.0
0.4 0.0 0.0
0.8 0.0 0.0
1.2000000000000002 0.0 0.0
1.6 0.0 0.0
2.0 0.0 0.0
2.4000000000000004 0.0 0.0
2.8000000000000003 0.0 0.0
3.2 0.0 0.0
3.6 0.0 0.0
4.0 0.0 0.0
4.4 0.0 0.0
4.800000000000001 0.0 0.0
5.2 0.0 0.0
5.6000000000000005 0.0 0.0
6.0 0.0 0.0
6.4 0.0 0.0
6.800000000000001 0.0 0.0
7.2 0.0 0.0
7.6000000000000005 0.0 0.0
8.0 0.0 0.0
8.4 0.0 0.0
8.8 0.0 0.0
9.200000000000001 0.0 0.0
9.600000000000001 0.0 0.0
10.0 0.0 0.0
10.4 0.0 0.0
10.8 0.0 0.0
11.200000000000001 0.0 0.0
11.600000000000001 0.0 0.0
12.0 0.0 0.0
12.4 0.0 0.0
12.8 0.0 0.0
13.200000000000001 0.0 0.0
13.600000000000001 0.0 0.0
14.0 0.0 0.0
14.4 0.0 0.0
14.8 0.0 0.0
15.200000000000001 0.0 0.0
15.600000000000001 0.0 0.0
16.0 0.0 0.0
0.0 0.1 0.0
0.4 0.1 0.0
0.8 0.1 0.0
1.2000000000000002 0.1 0.0
1.6 0.1 0.0
2.0 0.1 0.0
2.4000000000000004 0.1 0.0
2.8000000000000003 0.1 0.0
3.2 0.1 0.0
3.6 0.1 0.0
4.0 0.1 0.0
4.4 0.1 0.0
4.800000000000001 0.1 0.0
5.2 0.1 0.0
5.6000000000000005 0.1 0.0
6.0 0.1 0.0
6.4 0.1 0.0
6.800000000000001 0.1 0.0
7.2 0.1 0.0
7.6000000000000005 0.1 0.0
8.0 0.1 0.0
8.4 0.1 0.0
8.8 0.1 0.0
9.200000000000001 0.1 0.0
9.600000000000001 0.1 0.0
10.0 0.1 0.0
10.4 0.1 0.0
10.8 0.1 0.0
11.200000000000001 0.1 0.0
11.600000000000001 0.1 0.0
12.0 0.1 0.0
12.4 0.1 0.0
12.8 0.1 0.0
13.200000000000001 0.1 0.0
13.600000000000001 0.1 0.0
14.0 0.1 0.0
14.4 0.1 0.0
14.8 0.1 0.0
15.200000000000001 0.1 0.0
15.600000000000001 0.1 0.0
16.0 0.1 0.0
0.0 0.2 0.0
0.4 0.2 0.0
0.8 0.2 0.0
1.2000000000000002 0.2 0.0
1.6 0.2 0.0
2.0 0.2 0.0
2.4000000000000004 0.2 0.0
2.8000000000000003 0.2 0.0
3.2 0.2 0.0
3.6 0.2 0.0
4.0 0.2 0.0
4.4 0.2 0.0
4.800000000000001 0.2 0.0
5.2 0.2 0.0
5.6000000000000005 0.2 0.0
6.0 0.2 0.0
6.4 0.2 0.0
6.800000000000001 0.2 0.0
7.2 0.2 0.0
7.6000000000000005 0.2 0.0
8.0 0.2 0.0
8.4 0.2 0.0
8.8 0.2 0.0
9.200000000000001 0.2 0.0
9.600000000000001 0.2 0.0
10.0 0.2 0.0
10.4 0.2 0.0
10.8 0.2 0.0
11.200000000000001 0.2 0.0
11.600000000000001 0.2 0.0
12.0 0.2 0.0
12.4 0.2 0.0
12.8 0.2 0.0
13.200000000000001 0.2 0.0
13.600000000000001 0.2 0.0
14.0 0.2 0.0
14.4 0.2 0.0
14.8 0.2 0.0
15.200000000000001 0.2 0.0
15.600000000000001 0.2 0.0
16.0 0.2 0.0
0.0 0.30000000000000004 0.0
0.4 0.30000000000000004 0.0
0.8 0.30000000000000004 0.0
1.2000000000000002 0.30000000000000004 0.0
1.6 0.30000000000000004 0.0
2.0 0.30000000000000004 0.0
2.4000000000000004 0.30000000000000004 0.0
2.8000000000000003 0.30000000000000004 0.0
3.2 0.30000000000000004 0.0
3.6 0.30000000000000004 0.0
4.0 0.30000000000000004 0.0
4.4 0.30000000000000004 0.0
4.800000000000001 0.30000000000000004 0.0
5.2 0.30000000000000004 0.0
5.6000000000000005 0.30000000000000004 0.0
6.0 0.30000000000000004 0.0
6.4 0.30000000000000004 0.0
6.800000000000001 0.30000000000000004 0.0
7.2 0.30000000000000004 0.0
7.6000000000000005 0.30000000000000004 0.0
8.0 0.30000000000000004 0.0
8.4 0.30000000000000004 0.0
8.8 0.30000000000000004 0.0
9.200000000000001 0.30000000000000004 0.0
9.600000000000001 0.30000000000000004 0.0
10.0 0.30000000000000004 0.0
10.4 0.30000000000000004 0.0
10.8 0.30000000000000004 0.0
11.200000000000001 0.30000000000000004 0.0
11.600000000000001 0.30000000000000004 0.0
12.0 0.30000000000000004 0.0
12.4 0.30000000000000004 0.0
12.8 0.30000000000000004 0.0
13.200000000000001 0.30000000000000004 0.0
13.600000000000001 0.30000000000000004 0.0
14.0 0.30000000000000004 0.0
14.4 0.30000000000000004 0.0
14.8 0.30000000000000004 0.0
15.200000000000001 0.30000000000000004 0.0
15.600000000000001 0.30000000000000004 0.0
16.0 0.30000000000000004 0.0
0.0 0.4 0.0
0.4 0.4 0.0
0.8 0.4 0.0
1.2000000000000002 0.4 0.0
1.6 0.4 0.0
2.0 0.4 0.0
2.4000000000000004 0.4 0.0
2.8000000000000003 0.4 0.0
3.2 0.4 0.0
3.6 0.4 0.0
4.0 0.4 0.0
4.4 0.4 0.0
4.800000000000001 0.4 0.0
5.2 0.4 0.0
5.6000000000000005 0.4 0.0
6.0 0.4 0.0
6.4 0.4 0.0
6.800000000000001 0.4 0.0
7.2 0.4 0.0
7.6000000000000005 0.4 0.0
8.0 0.4 0.0
8.4 0.4 0.0
8.8 0.4 0.0
9.200000000000001 0.4 0.0
9.600000000000001 0.4 0.0
10.0 0.4 0.0
10.4 0.4 0.0
10.8 0.4 0.0
11.200000000000001 0.4 0.0
11.600000000000001 0.4 0.0
12.0 0.4 0.0
12.4 0.4 0.0
12.8 0.4 0.0
13.200000000000001 0.4 0.0
13.600000000000001 0.4 0.0
14.0 0.4 0.0
14.4 0.4 0.0
14.8 0.4 0.0
15.200000000000001 0.4 0.0
15.600000000000001 0.4 0.0
16.0 0.4 0.0
0.0 0.5 0.0
0.4 0.5 0.0
0.8 0.5 0.0
1.2000000000000002 0.5 0.0
1.6 0.5 0.0
2.0 0.5 0.0
2.4000000000000004 0.5 0.0
2.8000000000000003 0.5 0.0
3.2 0.5 0.0
3.6 0.5 0.0
4.0 0.5 0.0
4.4 0.5 0.0
4.800000000000001 0.5 0.0
5.2 0.5 0.0
5.6000000000000005 0.5 0.0
6.0 0.5 0.0
6.4 0.5 0.0
6.800000000000001 0.5 0.0
7.2 0.5 0.0
7.6000000000000005 0.5 0.0
8.0 0.5 0.0
8.4 0.5 0.0
8.8 0.5 0.0
9.200000000000001 0.5 0.0
9.600000000000001 0.5 0.0
10.0 0.5 0.0
10.4 0.5 0.0
10.8 0.5 0.0
11.200000000000001 0.5 0.0
11.600000000000001 0.5 0.0
12.0 0.5 0.0
12.4 0.5 0.0
12.8 0.5 0.0
13.200000000000001 0.5 0.0
13.600000000000001 0.5 0.0
14.0 0.5 0.0
14.4 0.5 0.0
14.8 0.5 0.0
15.200000000000001 0.5 0.0
15.600000000000001 0.5 0.0
16.0 0.5 0.0
0.0 0.6000000000000001 0.0
0.4 0.6000000000000001 0.0
0.8 0.6000000000000001 0.0
1.2000000000000002 0.6000000000000001 0.0
1.6 0.6000000000000001 0.0
2.0 0.6000000000000001 0.0
2.4000000000000004 0.6000000000000001 0.0
2.8000000000000003 0.6000000000000001 0.0
3.2 0.6000000000000001 0.0
3.6 0.6000000000000001 0.0
4.0 0.6000000000000001 0.0
4.4 0.6000000000000001 0.0
4.800000000000001 0.6000000000000001 0.0
5.2 0.6000000000000001 0.0
5.6000000000000005 0.6000000000000001 0.0
6.0 0.6000000000000001 0.0
6.4 0.6000000000000001 0.0
6.800000000000001 0.6000000000000001 0.0
7.2 0.6000000000000001 0.0
7.6000000000000005 0.6000000000000001 0.0
8.0 0.6000000000000001 0.0
8.4 0.6000000000000001 0.0
8.8 0.6000000000000001 0.0
9.200000000000001 0.6000000000000001 0.0
9.600000000000001 0.6000000000000001 0.0
10.0 0.6000000000000001 0.0
10.4 0.6000000000000001 0.0
10.8 0.6000000000000001 0.0
11.200000000000001 0.6000000000000001 0.0
11.600000000000001 0.6000000000000001 0.0
12.0 0.6000000000000001 0.0
12.4 0.6000000000000001 0.0
12.8 0.6000000000000001 0.0
13.200000000000001 0.6000000000000001 0.0
13.600000000000001 0.6000000000000001 0.0
14.0 0.6000000000000001 0.0
14.4 0.6000000000000001 0.0
14.8 0.6000000000000001 0.0
15.200000000000001 0.6000000000000001 0.0
15.600000000000001 0.6000000000000001 0.0
16.0 0.6000000000000001 0.0
0.0 0.7000000000000001 0.0
0.4 0.7000000000000001 0.0
0.8 0.7000000000000001 0.0
1.2000000000000002 0.7000000000000001 0.0
1.6 0.7000000000000001 0.0
2.0 0.7000000000000001 0.0
2.4000000000000004 0.7000000000000001 0.0
2.8000000000000003 0.7000000000000001 0.0
3.2 0.7000000000000001 0.0
3.6 0.7000000000000001 0.0
4.0 0.7000000000000001 0.0
4.4 0.7000000000000001 0.0
4.800000000000001 0.7000000000000001 0.0
5.2 0.7000000000000001 0.0
5.6000000000000005 0.7000000000000001 0.0
6.0 0.7000000000000001 0.0
6.4 0.7000000000000001 0.0
6.800000000000001 0.7000000000000001 0.0
7.2 0.7000000000000001 0.0
7.6000000000000005 0.7000000000000001 0.0
8.0 0.7000000000000001 0.0
8.4 0.7000000000000001 0.0
8.8 0.7000000000000001 0.0
9.200000000000001 0.7000000000000001 0.0
9.600000000000001 0.7000000000000001 0.0
10.0 0.7000000000000001 0.0
10.4 0.7000000000000001 0.0
10.8 0.7000000000000001 0.0
11.200000000000001 0.7000000000000001 0.0
11.600000000000001 0.7000000000000001 0.0
12.0 0.7000000000000001 0.0
12.4 0.7000000000000001 0.0
12.8 0.7000000000000001 0.0
13.200000000000001 0.7000000000000001 0.0
13.600000000000001 0.7000000000000001 0.0
14.0 0.7000000000000001 0.0
14.4 0.7000000000000001 0.0
14.8 0.7000000000000001 0.0
15.200000000000001 0.7000000000000001 0.0
15.600000000000001 0.7000000000000001 0.0
16.0 0.7000000000000001 0.0
0.0 0.8 0.0
0.4 0.8 0.0
0.8 0.8 0.0
1.2000000000000002 0.8 0.0
1.6 0.8 0.0
2.0 0.8 0.0
2.4000000000000004 0.8 0.0
2.8000000000000003 0.8 0.0
3.2 0.8 0.0
3.6 0.8 0.0
4.0 0.8 0.0
4.4 0.8 0.0
4.800000000000001 0.8 0.0
5.2 0.8 0.0
5.6000000000000005 0.8 0.0
6.0 0.8 0.0
6.4 0.8 0.0
6.800000000000001 0.8 0.0
7.2 0.8 0.0
7.6000000000000005 0.8 0.0
8.0 0.8 0.0
8.4 0.8 0.0
8.8 0.8 0.0
9.200000000000001 0.8 0.0
9.600000000000001 0.8 0.0
10.0 0.8 0.0
10.4 0.8 0.0
10.8 0.8 0.0
11.200000000000001 0.8 0.0
11.600000000000001 0.8 0.0
12.0 0.8 0.0
12.4 0.8 0.0
12.8 0.8 0.0
13.200000000000001 0.8 0.0
13.600000000000001 0.8 0.0
14.0 0.8 0.0
14.4 0.8 0.0
14.8 0.8 0.0
15.200000000000001 0.8 0.0
15.600000000000001 0.8 0.0
16.0 0.8 0.0
0.0 0.9 0.0
0.4 0.9 0.0
0.8 0.9 0.0
1.2000000000000002 0.9 0.0
1.6 0.9 0.0
2.0 0.9 0.0
2.4000000000000004 0.9 0.0
2.8000000000000003 0.9 0.0
3.2 0.9 0.0
3.6 0.9 0.0
4.0 0.9 0.0
4.4 0.9 0.0
4.800000000000001 0.9 0.0
5.2 0.9 0.0
5.6000000000000005 0.9 0.0
6.0 0.9 0.0
6.4 0.9 0.0
6.800000000000001 0.9 0.0
7.2 0.9 0.0
7.6000000000000005 0.9 0.0
8.0 0.9 0.0
8.4 0.9 0.0
8.8 0.9 0.0
9.200000000000001 0.9 0.0
9.600000000000001 0.9 0.0
10.0 0.9 0.0
10.4 0.9 0.0
10.8 0.9 0.0
11.200000000000001 0.9 0.0
11.600000000000001 0.9 0.0
12.0 0.9 0.0
12.4 0.9 0.0
12.8 0.9 0.0
13.200000000000001 0.9 0.0
13.600000000000001 0.9 0.0
14.0 0.9 0.0
14.4 0.9 0.0
14.8 0.9 0.0
15.200000000000001 0.9 0.0
15.600000000000001 0.9 0.0
16.0 0.9 0.0
0.0 1.0 0.0
0.4 1.0 0.0
0.8 1.0 0.0
1.2000000000000002 1.0 0.0
1.6 1.0 0.0
2.0 1.0 0.0
2.4000000000000004 1.0 0.0
2.8000000000000003 1.0 0.0
3.2 1.0 0.0
3.6 1.0 0.0
4.0 1.0 0.0
4.4 1.0 0.0
4.800000000000001 1.0 0.0
5.2 1.0 0.0
5.6000000000000005 1.0 0.0
6.0 1.0 0.0
6.4 1.0 0.0
6.800000000000001 1.0 0.0
7.2 1.0 0.0
7.6000000000000005 1.0 0.0
8.0 1.0 0.0
8.4 1.0 0.0
8.8 1.0 0.0
9.200000000000001 1.0 0.0
9.600000000000001 1.0 0.0
10.0 1.0 0.0
10.4 1.0 0.0
10.8 1.0 0.0
11.200000000000001 1.0 0.0
11.600000000000001 1.0 0.0
12.0 1.0 0.0
12.4 1.0 0.0
12.8 1.0 0.0
13.200000000000001 1.0 0.0
13.600000000000001 1.0 0.0
14.0 1.0 0.0
14.4 1.0 0.0
14.8 1.0 0.0
15.200000000000001 1.0 0.0
15.600000000000001 1.0 0.0
16.0 1.0 0.0
0.0 1.1 0.0
0.4 1.1 0.0
0.8 1.1 0.0
1.2000000000000002 1.1 0.0
1.6 1.1 0.0
2.0 1.1 0.0
2.4000000000000004 1.1 0.0
2.8000000000000003 1.1 0.0
3.2 1.1 0.0
3.6 1.1 0.0
4.0 1.1 0.0
4.4 1.1 0.0
4.800000000000001 1.1 0.0
5.2 1.1 0.0
5.6000000000000005 1.1 0.0
6.0 1.1 0.0
6.4 1.1 0.0
6.800000000000001 1.1 0.0
7.2 1.1 0.0
7.6000000000000005 1.1 0.0
8.0 1.1 0.0
8.4 1.1 0.0
8.8 1.1 0.0
9.200000000000001 1.1 0.0
9.600000000000001 1.1 0.0
10.0 1.1 0.0
10.4 1.1 0.0
10.8 1.1 0.0
11.200000000000001 1.1 0.0
11.600000000000001 1.1 0.0
12.0 1.1 0.0
12.4 1.1 0.0
12.8 1.1 0.0
13.200000000000001 1.1 0.0
13.600000000000001 1.1 0.0
14.0 1.1 0.0
14.4 1.1 0.0
14.8 1.1 0.0
15.200000000000001 1.1 0.0
15.600000000000001 1.1 0.0
16.0 1.1 0.0
0.0 1.2000000000000002 0.0
0.4 1.2000000000000002 0.0
0.8 1.2000000000000002 0.0
1.2000000000000002 1.2000000000000002 0.0
1.6 1.2000000000000002 0.0
2.0 1.2000000000000002 0.0
2.4000000000000004 1.2000000000000002 0.0
2.8000000000000003 1.2000000000000002 0.0
3.2 1.2000000000000002 0.0
3.6 1.2000000000000002 0.0
4.0 1.2000000000000002 0.0
4.4 1.2000000000000002 0.0
4.800000000000001 1.2000000000000002 0.0
5.2 1.2000000000000002 0.0
5.6000000000000005 1.2000000000000002 0.0
6.0 1.2000000000000002 0.0
6.4 1.2000000000000002 0.0
6.800000000000001 1.2000000000000002 0.0
7.2 1.2000000000000002 0.0
7.6000000000000005 1.2000000000000002 0.0
8.0 1.2000000000000002 0.0
8.4 1.2000000000000002 0.0
8.8 1.2000000000000002 0.0
9.200000000000001 1.2000000000000002 0.0
9.600000000000001 1.2000000000000002 0.0
10.0 1.2000000000000002 0.0
10.4 1.2000000000000002 0.0
10.8 1.2000000000000002 0.0
11.200000000000001 1.2000000000000002 0.0
11.600000000000001 1.2000000000000002 0.0
12.0 1.2000000000000002 0.0
12.4 1.2000000000000002 0.0
12.8 1.2000000000000002 0.0
13.200000000000001 1.2000000000000002 0.0
13.600000000000001 1.2000000000000002 0.0
14.0 1.2000000000000002 0.0
14.4 1.2000000000000002 0.0
14.8 1.2000000000000002 0.0
15.200000000000001 1.2000000000000002 0.0
15.600000000000001 1.2000000000000002 0.0
16.0 1.2000000000000002 0.0
0.0 1.3 0.0
0.4 1.3 0.0
0.8 1.3 0.0
1.2000000000000002 1.3 0.0
1.6 1.3 0.0
2.0 1.3 0.0
2.4000000000000004 1.3 0.0
2.8000000000000003 1.3 0.0
3.2 1.3 0.0
3.6 1.3 0.0
4.0 1.3 0.0
4.4 1.3 0.0
4.800000000000001 1.3 0.0
5.2 1.3 0.0
5.6000000000000005 1.3 0.0
6.0 1.3 0.0
6.4 1.3 0.0
6.800000000000001 1.3 0.0
7.2 1.3 0.0
7.6000000000000005 1.3 0.0
8.0 1.3 0.0
8.4 1.3 0.0
8.8 1.3 0.0
9.200000000000001 1.3 0.0
9.600000000000001 1.3 0.0
10.0 1.3 0.0
10.4 1.3 0.0
10.8 1.3 0.0
11.200000000000001 1.3 0.0
11.600000000000001 1.3 0.0
12.0 1.3 0.0
12.4 1.3 0.0
12.8 1.3 0.0
13.200000000000001 1.3 0.0
13.600000000000001 1.3 0.0
14.0 1.3 0.0
14.4 1.3 0.0
14.8 1.3 0.0
15.200000000000001 1.3 0.0
15.600000000000001 1.3 0.0
16.0 1.3 0.0
0.0 1.4000000000000001 0.0
0.4 1.4000000000000001 0.0
0.8 1.4000000000000001 0.0
1.2000000000000002 1.4000000000000001 0.0
1.6 1.4000000000000001 0.0
2.0 1.4000000000000001 0.0
2.4000000000000004 1.4000000000000001 0.0
2.8000000000000003 1.4000000000000001 0.0
3.2 1.4000000000000001 0.0
3.6 1.4000000000000001 0.0
4.0 1.4000000000000001 0.0
4.4 1.4000000000000001 0.0
4.800000000000001 1.4000000000000001 0.0
5.2 1.4000000000000001 0.0
5.6000000000000005 1.4000000000000001 0.0
6.0 1.4000000000000001 0.0
6.4 1.4000000000000001 0.0
6.800000000000001 1.4000000000000001 0.0
7.2 1.4000000000000001 0.0
7.6000000000000005 1.4000000000000001 0.0
8.0 1.4000000000000001 0.0
8.4 1.4000000000000001 0.0
8.8 1.4000000000000001 0.0
9.200000000000001 1.4000000000000001 0.0
9.600000000000001 1.4000000000000001 0.0
10.0 1.4000000000000001 0.0
10.4 1.4000000000000001 0.0
10.8 1.4000000000000001 0.0
11.200000000000001 1.4000000000000001 0.0
11.600000000000001 1.4000000000000001 0.0
12.0 1.4000000000000001 0.0
12.4 1.4000000000000001 0.0
12.8 1.4000000000000001 0.0
13.200000000000001 1.4000000000000001 0.0
13.600000000000001 1.4000000000000001 0.0
14.0 1.4000000000000001 0.0
14.4 1.4000000000000001 0.0
14.8 1.4000000000000001 0.0
15.200000000000001 1.4000000000000001 0.0
15.600000000000001 1.4000000000000001 0.0
16.0 1.4000000000000001 0.0
0.0 1.5 0.0
0.4 1.5 0.0
0.8 1.5 0.0
1.2000000000000002 1.5 0.0
1.6 1.5 0.0
2.0 1.5 0.0
2.4000000000000004 1.5 0.0
2.8000000000000003 1.5 0.0
3.2 1.5 0.0
3.6 1.5 0.0
4.0 1.5 0.0
4.4 1.5 0.0
4.800000000000001 1.5 0.0
5.2 1.5 0.0
5.6000000000000005 1.5 0.0
6.0 1.5 0.0
6.4 1.5 0.0
6.800000000000001 1.5 0.0
7.2 1.5 0.0
7.6000000000000005 1.5 0.0
8.0 1.5 0.0
8.4 1.5 0.0
8.8 1.5 0.0
9.200000000000001 1.5 0.0
9.600000000000001 1.5 0.0
10.0 1.5 0.0
10.4 1.5 0.0
10.8 1.5 0.0
11.200000000000001 1.5 0.0
11.600000000000001 1.5 0.0
12.0 1.5 0.0
12.4 1.5 0.0
12.8 1.5 0.0
13.200000000000001 1.5 0.0
13.600000000000001 1.5 0.0
14.0 1.5 0.0
14.4 1.5 0.0
14.8 1.5 0.0
15.200000000000001 1.5 0.0
15.600000000000001 1.5 0.0
16.0 1.5 0.0
0.0 1.6 0.0
0.4 1.6 0.0
0.8 1.6 0.0
1.2000000000000002 1.6 0.0
1.6 1.6 0.0
2.0 1.6 0.0
2.4000000000000004 1.6 0.0
2.8000000000000003 1.6 0.0
3.2 1.6 0.0
3.6 1.6 0.0
4.0 1.6 0.0
4.4 1.6 0.0
4.800000000000001 1.6 0.0
5.2 1.6 0.0
5.6000000000000005 1.6 0.0
6.0 1.6 0.0
6.4 1.6 0.0
6.800000000000001 1.6 0.0
7.2 1.6 0.0
7.6000000000000005 1.6 0.0
8.0 1.6 0.0
8.4 1.6 0.0
8.8 1.6 0.0
9.200000000000001 1.6 0.0
9.600000000000001 1.6 0.0
10.0 1.6 0.0
10.4 1.6 0.0
10.8 1.6 0.0
11.200000000000001 1.6 0.0
11.600000000000001 1.6 0.0
12.0 1.6 0.0
12.4 1.6 0.0
12.8 1.6 0.0
13.200000000000001 1.6 0.0
13.600000000000001 1.6 0.0
14.0 1.6 0.0
14.4 1.6 0.0
14.8 1.6 0.0
15.200000000000001 1.6 0.0
15.600000000000001 1.6 0.0
16.0 1.6 0.0
0.0 1.7000000000000002 0.0
0.4 1.7000000000000002 0.0
0.8 1.7000000000000002 0.0
1.2000000000000002 1.7000000000000002 0.0
1.6 1.7000000000000002 0.0
2.0 1.7000000000000002 0.0
2.4000000000000004 1.7000000000000002 0.0
2.8000000000000003 1.7000000000000002 0.0
3.2 1.7000000000000002 0.0
3.6 1.7000000000000002 0.0
4.0 1.7000000000000002 0.0
4.4 1.7000000000000002 0.0
4.800000000000001 1.7000000000000002 0.0
5.2 1.7000000000000002 0.0
5.6000000000000005 1.7000000000000002 0.0
6.0 1.7000000000000002 0.0
6.4 1.7000000000000002 0.0
6.800000000000001 1.7000000000000002 0.0
7.2 1.7000000000000002 0.0
7.6000000000000005 1.7000000000000002 0.0
8.0 1.7000000000000002 0.0
8.4 1.7000000000000002 0.0
8.8 1.7000000000000002 0.0
9.200000000000001 1.7000000000000002 0.0
9.600000000000001 1.7000000000000002 0.0
10.0 1.7000000000000002 0.0
10.4 1.7000000000000002 0.0
10.8 1.7000000000000002 0.0
11.200000000000001 1.7000000000000002 0.0
11.600000000000001 1.7000000000000002 0.0
12.0 1.7000000000000002 0.0
12.4 1.7000000000000002 0.0
12.8 1.7000000000000002 0.0
13.200000000000001 1.7000000000000002 0.0
13.600000000000001 1.7000000000000002 0.0
14.0 1.7000000000000002 0.0
14.4 1.7000000000000002 0.0
14.8 1.7000000000000002 0.0
15.200000000000001 1.7000000000000002 0.0
15.600000000000001 1.7000000000000002 0.0
16.0 1.7000000000000002 0.0
0.0 1.8 0.0
0.4 1.8 0.0
0.8 1.8 0.0
1.2000000000000002 1.8 0.0
1.6 1.8 0.0
2.0 1.8 0.0
2.4000000000000004 1.8 0.0
2.8000000000000003 1.8 0.0
3.2 1.8 0.0
3.6 1.8 0.0
4.0 1.8 0.0
4.4 1.8 0.0
4.800000000000001 1.8 0.0
5.2 1.8 0.0
5.6000000000000005 1.8 0.0
6.0 1.8 0.0
6.4 1.8 0.0
6.800000000000001 1.8 0.0
7.2 1.8 0.0
7.6000000000000005 1.8 0.0
8.0 1.8 0.0
8.4 1.8 0.0
8.8 1.8 0.0
9.200000000000001 1.8 0.0
9.600000000000001 1.8 0.0
10.0 1.8 0.0
10.4 1.8 0.0
10.8 1.8 0.0
11.200000000000001 1.8 0.0
11.600000000000001 1.8 0.0
12.0 1.8 0.0
12.4 1.8 0.0
12.8 1.8 0.0
13.200000000000001 1.8 0.0
13.600000000000001 1.8 0.0
14.0 1.8 0.0
14.4 1.8 0.0
14.8 1.8 0.0
15.200000000000001 1.8 0.0
15.600000000000001 1.8 0.0
16.0 1.8 0.0
0.0 1.9000000000000001 0.0
0.4 1.9000000000000001 0.0
0.8 1.9000000000000001 0.0
1.2000000000000002 1.9000000000000001 0.0
1.6 1.9000000000000001 0.0
2.0 1.9000000000000001 0.0
2.4000000000000004 1.9000000000000001 0.0
2.8000000000000003 1.9000000000000001 0.0
3.2 1.9000000000000001 0.0
3.6 1.9000000000000001 0.0
4.0 1.9000000000000001 0.0
4.4 1.9000000000000001 0.0
4.800000000000001 1.9000000000000001 0.0
5.2 1.9000000000000001 0.0
5.6000000000000005 1.9000000000000001 0.0
6.0 1.9000000000000001 0.0
6.4 1.9000000000000001 0.0
6.800000000000001 1.9000000000000001 0.0
7.2 1.9000000000000001 0.0
7.6000000000000005 1.9000000000000001 0.0
8.0 1.9000000000000001 0.0
8.4 1.9000000000000001 0.0
8.8 1.9000000000000001 0.0
9.200000000000001 1.9000000000000001 0.0
9.600000000000001 1.9000000000000001 0.0
10.0 1.9000000000000001 0.0
10.4 1.9000000000000001 0.0
10.8 1.9000000000000001 0.0
11.200000000000001 1.9000000000000001 0.0
11.600000000000001 1.9000000000000001 0.0
12.0 1.9000000000000001 0.0
12.4 1.9000000000000001 0.0
12.8 1.9000000000000001 0.0
13.200000000000001 1.9000000000000001 0.0
13.600000000000001 1.9000000000000001 0.0
14.0 1.9000000000000001 0.0
14.4 1.9000000000000001 0.0
14.8 1.9000000000000001 0.0
15.200000000000001 1.9000000000000001 0.0
15.600000000000001 1.9000000000000001 0.0
16.0 1.9000000000000001 0.0
0.0 2.0 0.0
0.4 2.0 0.0
0.8 2.0 0.0
1.2000000000000002 2.0 0.0
1.6 2.0 0.0
2.0 2.0 0.0
2.4000000000000004 2.0 0.0
2.8000000000000003 2.0 0.0
3.2 2.0 0.0
3.6 2.0 0.0
4.0 2.0 0.0
4.4 2.0 0.0
4.800000000000001 2.0 0.0
5.2 2.0 0.0
5.6000000000000005 2.0 0.0
6.0 2.0 0.0
6.4 2.0 0.0
6.800000000000001 2.0 0.0
7.2 2.0 0.0
7.6000000000000005 2.0 0.0
8.0 2.0 0.0
8.4 2.0 0.0
8.8 2.0 0.0
9.200000000000001 2.0 0.0
9.600000000000001 2.0 0.0
10.0 2.0 0.0
10.4 2.0 0.0
10.8 2.0 0.0
11.200000000000001 2.0 0.0
11.600000000000001 2.0 0.0
12.0 2.0 0.0
12.4 2.0 0.0
12.8 2.0 0.0
13.200000000000001 2.0 0.0
13.600000000000001 2.0 0.0
14.0 2.0 0.0
14.4 2.0 0.0
14.8 2.0 0.0
15.200000000000001 2.0 0.0
15.600000000000001 2.0 0.0
16.0 2.0 0.0
CELLS 800 4000
4 0 1 42 41
4 1 2 43 42
4 2 3 44 43
4 3 4 45 44
4 4 5 46 45
4 5 6 47 46
4 6 7 48 47
4 7 8 49 48
4 8 9 50 49
4 9 10 51 50
4 10 11 52 51
4 11 12 53 52
4 12 13 54 53
4 13 14 55 54
4 14 15 56 55
4 15 16 57 56
4 16 17 58 57
4 17 18 59 58
4 18 19 60 59
4 19 20 61 60
4 20 21 62 61
4 21 22 63 62
4 22 23 64 63
4 23 24 65 64
4 24 25 66 65
4 25 26 67 66
4 26 27 68 67
4 27 28 69 68
4 28 29 70 69
4 29 30 71 70
4 30 31 72 71
4 31 32 73 72
4 32 33 74 73
4 33 34 75 74
4 34 35 76 75
4 35 36 77 76
4 36 37 78 77
4 37 38 79 78
4 38 39 80 79
4 39 40 81 80
4 41 42 83 82
4 42 43 84 83
4 43 44 85 84
4 44 45 86 85
4 45 46 87 86
4 46 47 88 87
4 47 48 89 88
4 48 49 90 89
4 49 50 91 90
4 50 51 92 91
4 51 52 93 92
4 52 53 94 93
4 53 54 95 94
4 54 55 96 95
4 55 56 97 96
4 56 57 98 97
4 57 58 99 98
4 58 59 100 99
4 59 60 101 100
4 60 61 102 101
4 61 62 103 102
4 62 63 104 103
4 63 64 105 104
4 64 65 106 105
4 65 66 107 106
4 66 67 108 107
4 67 68 109 108
4 68 69 110 109
4 69 70 111 110
4 70 71 112 111
4 71 72 113 112
4 72 73 114 113
4 73 74 115 114
4 74 75 116 115
4 75 76 117 116
4 76 77 118 117
4 77 78 119 118
4 78 79 120 119
4 79 80 121 120
4 80 81 122 121
4 82 83 124 123
4 83 84 125 124
4 84 85 126 125
4 85 86 127 126
4 86 87 128 127
4 87 88 129 128
4 88 89 130 129
4 89 90 131 130
4 90 91 132 131
4 91 92 133 132
4 92 93 134 133
4 93 94 135 134
4 94 95 136 135
4 95 96 137 136
4 96 97 138 137
4 97 98 139 138
4 98 99 140 139
4 99 100 141 140
4 100 101 142 141
4 101 102 143 142
4 102 103 144 143
4 103 104 145 144
4 104 105 146 145
4 105 106 147 146
4 106 107 148 147
4 107 108 149 148
4 108 109 150 149
4 109 110 151 150
4 110 111 152 151
4 111 112 153 152
4 112 113 154 153
4 113 114 155 154
4 114 115 156 155
4 115 116 157 156
4 116 117 158 157
4 117 118 159 158
4 118 119 160 159
4 119 120 161 160
4 120 121 162 161
4 121 122 163 162
4 123 124 165 164
4 124 125 166 165
4 125 126 167 166
4 126 127 168 167
4 127 128 169 168
4 128 129 170 169
4 129 130 171 170
4 130 131 172 171
4 131 132 173 172
4 132 133 174 173
4 133 134 175 174
4 134 135 176 175
4 135 136 177 176
4 136 137 178 177
4 137 138 179 178
4 138 139 180 179
4 139 140 181 180
4 140 141 182 181
4 141 142 183 182
4 142 143 184 183
4 143 144 185 184
4 144 145 186 185
4 145 146 187 186
4 146 147 188 187
4 147 148 189 188
4 148 149 190 189
4 149 150 191 190
4 150 151 192 191
4 151 152 193 192
4 152 153 194 193
4 153 154 195 194
4 154 155 196 195
4 155 156 197 196
4 156 157 198 197
4 157 158 199 198
4 158 159 200 199
4 159 160 201 200
4 160 161 202 201
4 161 162 203 202
4 162 163 204 203
4 164 165 206 205
4 165 166 207 206
4 166 167 208 207
4 167 168 209 208
4 168 169 210 209
4 169 170 211 210
4 170 171 212 211
4 171 172 213 212
4 172 173 214 213
4 173 174 215 214
4 174 175 216 215
4 175 176 217 216
4 176 177 218 217
4 177 178 219 218
4 178 179 220 219
4 179 180 221 220
4 180 181 222 221
4 181 182 223 222
4 182 183 224 223
4 183 184 225 224
4 184 185 226 225
4 185 186 227 226
4 186 187 228 227
4 187 188 229 228
4 188 189 230 229
4 189 190 231 230
4 190 191 232 231
4 191 192 233 232
4 192 193 234 233
4 193 194 235 234
4 194 195 236 235
4 195 196 237 236
4 196 197 238 237
4 197 198 239 238
4 198 199 240 239
4 199 200 241 240
4 200 201 242 241
4 201 202 243 242
4 202 203 244 243
4 203 204 245 244
4 205 206 247 246
4 206 207 248 247
4 207 208 249 248
4 208 209 250 249
4 209 210 251 250
4 210 211 252 251
4 211 212 253 252
4 212 213 254 253
4 213 214 255 254
4 214 215 256 255
4 215 216 257 256
4 216 217 258 257
4 217 218 259 258
4 218 219 260 259
4 219 220 261 260
4 220 221 262 261
4 221 222 263 262
4 222 223 264 263
4 223 224 265 264
4 224 225 266 265
4 225 226 267 266
4 226 227 268 267
4 227 228 269 268
4 228 229 270 269
4 229 230 271 270
4 230 231 272 271
4 231 232 273 272
4 232 233 274 273
4 233 234 275 274
4 234 235 276 275
4 235 236 277 276
4 236 237 278 277
4 237 238 279 278
4 238 239 280 279
4 239 240 281 280
4 240 241 282 281
4 241 242 283 282
4 242 243 284 283
4 243 244 285 284
4 244 245 286 285
4 246 247 288 287
4 247 248 289 288
4 248 249 290 289
4 249 250 291 290
4 250 251 292 291
4 251 252 293 292
4 252 253 294 293
4 253 254 295 294
4 254 255 296 295
4 255 256 297 296
4 256 257 298 297
4 257 258 299 298
4 258 259 300 299
4 259 260 301 300
4 260 261 302 301
4 261 262 303 302
4 262 263 304 303
4 263 264 305 304
4 264 265 306 305
4 265 266 307 306
4 266 267 308 307
4 267 268 309 308
4 268 269 310 309
4 269 270 311 310
4 270 271 312 311
4 271 272 313 312
4 272 273 314 313
4 273 274 315 314
4 274 275 316 315
4 275 276 317 316
4 276 277 318 317
4 277 278 319 318
4 278 279 320 319
4 279 280 321 320
4 280 281 322 321
4 281 282 323 322
4 282 283 324 323
4 283 284 325 324
4 284 285 326 325
4 285 286 327 326
4 287 288 329 328
4 288 289 330 329
4 289 290 331 330
4 290 291 332 331
4 291 292 333 332
4 292 293 334 333
4 293 294 335 334
4 294 295 336 335
4 295 296 337 336
4 296 297 338 337
4 297 298 339 338
4 298 299 340 339
4 299 300 341 340
4 300 301 342 341
4 301 302 343 342
4 302 303 344 343
4 303 304 345 344
4 304 305 346 345
4 305 306 347 346
4 306 307 348 347
4 307 308 349 348
4 308 309 350 349
4 309 310 351 350
4 310 311 352 351
4 311 312 353 352
4 312 313 354 353
4 313 314 355 354
4 314 315 356 355
4 315 316 357 356
4 316 317 358 357
4 317 318 359 358
4 318 319 360 359
4 319 320 361 360
4 320 321 362 361
4 321 322 363 362
4 322 323 364 363
4 323 324 365 364
4 324 325 366 365
4 325 326 367 366
4 326 327 368 367
4 328 329 370 369
4 329 330 371 370
4 330 331 372 371
4 331 332 373 372
4 332 333 374 373
4 333 334 375 374
4 334 335 376 375
4 335 336 377 376
4 336 337 378 377
4 337 338 379 378
4 338 339 380 379
4 339 340 381 380
4 340 341 382 381
4 341 342 383 382
4 342 343 384 383
4 343 344 385 384
4 344 345 386 385
4 345 346 387 386
4 346 347 388 387
4 347 348 389 388
4 348 349 390 389
4 349 350 391 390
4 350 351 392 391
4 351 352 393 392
4 352 353 394 393
4 353 354 395 394
4 354 355 396 395
4 355 356 397 396
4 356 357 398 397
4 357 358 399 398
4 358 359 400 399
4 359 360 401 400
4 360 361 402 401
4 361 362 403 402
4 362 363 404 403
4 363 364 405 404
4 364 365 406 405
4 365 366 407 406
4 366 367 408 407
4 367 368 409 408
4 369 370 411 410
4 370 371 412 411
4 371 372 413 412
4 372 373 414 413
4 373 374 415 414
4 374 375 416 415
4 375 376 417 416
4 376 377 418 417
4 377 378 419 418
4 378 379 420 419
4 379 380 421 420
4 380 381 422 421
4 381 382 423 422
4 382 383 424 423
4 383 384 425 424
4 384 385 426 425
4 385 386 427 426
4 386 387 428 427
4 387 388 429 428
4 388 389 430 429
4 389 390 431 430
4 390 391 432 431
4 391 392 433 432
4 392 393 434 433
4 393 394 435 434
4 394 395 436 435
4 395 396 437 436
4 396 397 438 437
4 397 398 439 438
4 398 399 440 439
4 399 400 441 440
4 400 401 442 441
4 401 402 443 442
4 402 403 444 443
4 403 404 445 444
4 404 405 446 445
4 405 406 447 446
4 406 407 448 447
4 407 408 449 448
4 408 409 450 449
4 410 411 452 451
4 411 412 453 452
4 412 413 454 453
4 413 414 455 454
4 414 415 456 455
4 415 416 457 456
4 416 417 458 457
4 417 418 459 458
4 418 419 460 459
4 419 420 461 460
4 420 421 462 461
4 421 422 463 462
4 422 423 464 463
4 423 424 465 464
4 424 425 466 465
4 425 426 467 466
4 426 427 468 467
4 427 428 469 468
4 428 429 470 469
4 429 430 471 470
4 430 431 472 471
4 431 432 473 472
4 432 433 474 473
4 433 434 475 474
4 434 435 476 475
4 435 436 477 476
4 436 437 478 477
4 437 438 479 478
4 438 439 480 479
4 439 440 481 480
4 440 441 482 481
4 441 442 483 482
4 442 443 484 483
4 443 444 485 484
4 444 445 486 485
4 445 446 487 486
4 446 447 488 487
4 447 448 489 488
4 448 449 490 489
4 449 450 491 490
4 451 452 493 492
4 452 453 494 493
4 453 454 495 494
4 454 455 496 495
4 455 456 497 496
4 456 457 498 497
4 457 458 499 498
4 458 459 500 499
4 459 460 501 500
4 460 461 502 501
4 461 462 503 502
4 462 463 504 503
4 463 464 505 504
4 464 465 506 505
4 465 466 507 506
4 466 467 508 507
4 467 468 509 508
4 468 469 510 509
4 469 470 511 510
4 470 471 512 511
4 471 472 513 512
4 472 473 514 513
4 473 474 515 514
4 474 475 516 515
4 475 476 517 516
4 476 477 518 517
4 477 478 519 518
4 478 479 520 519
4 479 480 521 520
4 480 481 522 521
4 481 482 523 522
4 482 483 524 523
4 483 484 525 524
4 484 485 526 525
4 485 486 527 526
4 486 487 528 527
4 487 488 529 528
4 488 489 530 529
4 489 490 531 530
4 490 491 532 531
4 492 493 534 533
4 493 494 535 534
4 494 495 536 535
4 495 496 537 536
4 496 497 538 537
4 497 498 539 538
4 498 499 540 539
4 499 500 541 540
4 500 501 542 541
4 501 502 543 542
4 502 503 544 543
4 503 504 545 544
4 504 505 546 545
4 505 506 547 546
4 506 507 548 547
4 507 508 549 548
4 508 509 550 549
4 509 510 551 550
4 510 511 552 551
4 511 512 553 552
4 512 513 554 553
4 513 514 555 554
4 514 515 556 555
4 515 516 557 556
4 516 517 558 557
4 517 518 559 558
4 518 519 560 559
4 519 520 561 560
4 520 521 562 561
4 521 522 563 562
4 522 523 564 563
4 523 524 565 564
4 524 525 566 565
4 525 526 567 566
4 526 527 568 567
4 527 528 569 568
4 528 529 570 569
4 529 530 571 570
4 530 531 572 571
4 531 532 573 572
4 533 534 575 574
4 534 535 576 575
4 535 536 577 576
4 536 537 578 577
4 537 538 579 578
4 538 539 580 579
4 539 540 581 580
4 540 541 582 581
4 541 542 583 582
4 542 543 584 583
4 543 544 585 584
4 544 545 586 585
4 545 546 587 586
4 546 547 588 587
4 547 548 589 588
4 548 549 590 589
4 549 550 591 590
4 550 551 592 591
4 551 552 593 592
4 552 553 594 593
4 553 554 595 594
4 554 555 596 595
4 555 556 597 596
4 556 557 598 597
4 557 558 599 598
4 558 559 600 599
4 559 560 601 600
4 560 561 602 601
4 561 562 603 602
4 562 563 604 603
4 563 564 605 604
4 564 565 606 605
4 565 566 607 606
4 566 567 608 607
4 567 568 609 608
4 568 569 610 609
4 569 570 611 610
4 570 571 612 611
4 571 572 613 612
4 572 573 614 613
4 574 575 616 615
4 575 576 617 616
4 576 577 618 617
4 577 578 619 618
4 578 579 620 619
4 579 580 621 620
4 580 581 622 621
4 581 582 623 622
4 582 583 624 623
4 583 584 625 624
4 584 585 626 625
4 585 586 627 626
4 586 587 628 627
4 587 588 629 628
4 588 589 630 629
4 589 590 631 630
4 590 591 632 631
4 591 592 633 632
4 592 593 634 633
4 593 594 635 634
4 594 595 636 635
4 595 596 637 636
4 596 597 638 637
4 597 598 639 638
4 598 599 640 639
4 599 600 641 640
4 600 601 642 641
4 601 602 643 642
4 602 603 644 643
4 603 604 645 644
4 604 605 646 645
4 605 606 647 646
4 606 607 648 647
4 607 608 649 648
4 608 609 650 649
4 609 610 651 650
4 610 611 652 651
4 611 612 653 652
4 612 613 654 653
4 613 614 655 654
4 615 616 657 656
4 616 617 658 657
4 617 618 659 658
4 618 619 660 659
4 619 620 661 660
4 620 621 662 661
4 621 622 663 662
4 622 623 664 663
4 623 624 665 664
4 624 625 666 665
4 625 626 667 666
4 626 627 668 667
4 627 628 669 668
4 628 629 670 669
4 629 630 671 670
4 630 631 672 671
4 631 632 673 672
4 632 633 674 673
4 633 634 675 674
4 634 635 676 675
4 635 636 677 676
4 636 637 678 677
4 637 638 679 678
4 638 639 680 679
4 639 640 681 680
4 640 641 682 681
4 641 642 683 682
4 642 643 684 683
4 643 644 685 684
4 644 645 686 685
4 645 646 687 686
4 646 647 688 687
4 647 648 689 688
4 648 649 690 689
4 649 650 691 690
4 650 651 692 691
4 651 652 693 692
4 652 653 694 693
4 653 654 695 694
4 654 655 696 695
4 656 657 698 697
4 657 658 699 698
4 658 659 700 699
4 659 660 701 700
4 660 661 702 701
4 661 662 703 702
4 662 663 704 703
4 663 664 705 704
4 664 665 706 705
4 665 666 707 706
4 666 667 708 707
4 667 668 709 708
4 668 669 710 709
4 669 670 711 710
4 670 671 712 711
4 671 672 713 712
4 672 673 714 713
4 673 674 715 714
4 674 675 716 715
4 675 676 717 716
4 676 677 718 717
4 677 678 719 718
4 678 679 720 719
4 679 680 721 720
4 680 681 722 721
4 681 682 723 722
4 682 683 724 723
4 683 684 725 724
4 684 685 726 725
4 685 686 727 726
4 686 687 728 727
4 687 688 729 728
4 688 689 730 729
4 689 690 731 730
4 690 691 732 731
4 691 692 733 732
4 692 693 734 733
4 693 694 735 734
4 694 695 736 735
4 695 696 737 736
4 697 698 739 738
4 698 699 740 739
4 699 700 741 740
4 700 701 742 741
4 701 702 743 742
4 702 703 744 743
4 703 704 745 744
4 704 705 746 745
4 705 706 747 746
4 706 707 748 747
4 707 708 749 748
4 708 709 750 749
4 709 710 751 750
4 710 711 752 751
4 711 712 753 752
4 712 713 754 753
4 713 714 755 754
4 714 715 756 755
4 715 716 757 756
4 716 717 758 757
4 717 718 759 758
4 718 719 760 759
4 719 720 761 760
4 720 721 762 761
4 721 722 763 762
4 722 723 764 763
4 723 724 765 764
4 724 725 766 765
4 725 726 767 766
4 726 727 768 767
4 727 728 769 768
4 728 729 770 769
4 729 730 771 770
4 730 731 772 771
4 731 732 773 772
4 732 733 774 773
4 733 734 775 774
4 734 735 776 775
4 735 736 777 776
4 736 737 778 777
4 738 739 780 779
4 739 740 781 780
4 740 741 782 781
4 741 742 783 782
4 742 743 784 783
4 743 744 785 784
4 744 745 786 785
4 745 746 787 786
4 746 747 788 787
4 747 748 789 788
4 748 749 790 789
4 749 750 791 790
4 750 751 792 791
4 751 752 793 792
4 752 753 794 793
4 753 754 795 794
4 754 755 796 795
4 755 756 797 796
4 756 757 798 797
4 757 758 799 798
4 758 759 800 799
4 759 760 801 800
4 760 761 802 801
4 761 762 803 802
4 762 763 804 803
4 763 764 805 804
4 764 765 806 805
4 765 766 807 806
4 766 767 808 807
4 767 768 809 808
4 768 769 810 809
4 769 770 811 810
4 770 771 812 811
4 771 772 813 812
4 772 773 814 813
4 773 774 815 814
4 774 775 816 815
4 775 776 817 816
4 776 777 818 817
4 777 778 819 818
4 779 780 821 820
4 780 781 822 821
4 781 782 823 822
4 782 783 824 823
4 783 784 825 824
4 784 785 826 825
4 785 786 827 826
4 786 787 828 827
4 787 788 829 828
4 788 789 830 829
4 789 790 831 830
4 790 791 832 831
4 791 792 833 832
4 792 793 834 833
4 793 794 835 834
4 794 795 836 835
4 795 796 837 836
4 796 797 838 837
4 797 798 839 838
4 798 799 840 839
4 799 800 841 840
4 800 801 842 841
4 801 802 843 842
4 802 803 844 843
4 803 804 845 844
4 804 805 846 845
4 805 806 847 846
4 806 807 848 847
4 807 808 849 848
4 808 809 850 849
4 809 810 851 850
4 810 811 852 851
4 811 812 853 852
4 812 813 854 853
4 813 814 855 854
4 814 815 856 855
4 815 816 857 856
4 816 817 858 857
4 817 818 859 858
4 818 819 860 859
CELL_TYPES 800
9
9
9
9
9
9
9
9
9
9
9
9
9
9
9
9
9
9
9
9
9
9
9
9
9
9
9
9
9
9
9
9
9
9
9
9
9
9
9
9
9
9
9
9
9
9
9
9
9
9
9
9
9
9
9
9
9
9
9
9
9
9
9
9
9
9
9
9
9
9
9
9
9
9
9
9
9
9
9
9
9
9
9
9
9
9
9
9
9
9
9
9
9
9
9
9
9
9
9
9
9
9
9
9
9
9
9
9
9
9
9
9
9
9
9
9
9
9
9
9
9
9
9
9
9
9
9
9
9
9
9
9
9
9
9
9
9
9
9
9
9
9
9
9
9
9
9
9
9
9
9
9
9
9
9
9
9
9
9
9
9
9
9
9
9
9
9
9
9
9
9
9
9
9
9
9
9
9
9
9
9
9
9
9
9
9
9
9
9
9
9
9
9
9
9
9
9
9
9
9
9
9
9
9
9
9
9
9
9
9
9
9
9
9
9
9
9
9
9
9
9
9
9
9
9
9
9
9
9
9
9
9
9
9
9
9
9
9
9
9
9
9
9
9
9
9
9
9
9
9
9
9
9
9
9
9
9
9
9
9
9
9
9
9
9
9
9
9
9
9
9
9
9
9
9
9
9
9
9
9
9
9
9
9
9
9
9
9
9
9
9
9
9
9
9
9
9
9
9
9
9
9
9
9
9
9
9
9
9
9
9
9
9
9
9
9
9
9
9
9
9
9
9
9
9
9
9
9
9
9
9
9
9
9
9
9
9
9
9
9
9
9
9
9
9
9
9
9
9
9
9
9
9
9
9
9
9
9
9
9
9
9
9
9
9
9
9
9
9
9
9
9
9
9
9
9
9
9
9
9
9
9
9
9
9
9
9
9
9
9
9
9
9
9
9
9
9
9
9
9
9
9
9
9
9
9
9
9
9
9
9
9
9
9
9
9
9
9
9
9
9
9
9
9
9
9
9
9
9
9
9
9
9
9
9
9
9
9
9
9
9
9
9
9
9
9
9
9
9
9
9
9
9
9
9
9
9
9
9
9
9
9
9
9
9
9
9
9
9
9
9
9
9
9
9
9
9
9
9
9
9
9
9
9
9
9
9
9
9
9
9
9
9
9
9
9
9
9
9
9
9
9
9
9
9
9
9
9
9
9
9
9
9
9
9
9
9
9
9
9
9
9
9
9
9
9
9
9
9
9
9
9
9
9
9
9
9
9
9
9
9
9
9
9
9
9
9
9
9
9
9
9
9
9
9
9
9
9
9
9
9
9
9
9
9
9
9
9
9
9
9
9
9
9
9
9
9
9
9
9
9
9
9
9
9
9
9
9
9
9
9
9
9
9
9
9
9
9
9
9
9
9
9
9
9
9
9
9
9
9
9
9
9
9
9
9
9
9
9
9
9
9
9
9
9
9
9
9
9
9
9
9
9
9
9
9
9
9
9
9
9
9
9
9
9
9
9
9
9
9
9
9
9
9
9
9
9
9
9
9
9
9
9
9
9
9
9
9
9
9
9
9
9
9
9
9
9
9
9
9
9
9
9
9
9
9
9
9
9
9
9
9
9
9
9
9
9
9
9
9
9
9
9
9
9
9
9
9
9
9
9
9
9
9
9
9
9
9
9
9
9
9
9
9
9
9
9
9
9
9
9
9
9
9
9
9
9
9
9
9
9
9
9
9
9
9
9
9
9
9
9
9
9
9
9
9
9
9
9
9
9
9
9
9
9
9
9
9
9
9
9
9
9
9
9
9
9
9
9
9
9
9
9
9
9
9
9
9
9
9
9
9
9
9
9
9
9
9
9
9
POINT_DATA 861
SCALARS Disp float 2
LOOKUP_TABLE default
0.0 0.0
0.0036938819589106644 -0.1077992807600714
0.004630113173952492 -0.20925805081045795
0.005330127420345192 -0.3101481403066688
0.006156971627381149 -0.41075417376555684
0.007262281577523592 -0.5108992982632294
0.008893864266249827 -0.610357847563865
0.011262951234748696 -0.7088893397318409
0.014598014595135936 -0.8061960574886141
0.019146815607881413 -0.9018874959349902
0.02518380504944964 -0.9954377955298932
0.03305374466859147 -1.0861440296675036
0.043211175704794075 -1.173101011281396
0.05620878248608503 -1.255214115962318
0.07268405086649898 -1.3312196130223892
0.09327579452892129 -1.3997015568761229
0.1184794085784936 -1.459110423636916
0.14846701585475514 -1.5078024674927948
0.18293049726392507 -1.5441580604386675
0.22101562211871464 -1.5668013993162428
0.26130566379567605 -1.5748173821129334
0.3015957054726365 -1.566801399316208
0.3396808303274215 -1.5441580604385963
0.37414431173658363 -1.5078024674926913
0.404131919012835 -1.4591104236367858
0.42933553306239636 -1.3997015568759754
0.44992727672480803 -1.331219613022227
0.466402545105211 -1.255214115962145
0.4794001518864902 -1.173101011281218
0.48955758292268114 -1.0861440296673257
0.4974275225418122 -0.9954377955297199
0.5034645119833714 -0.9018874959348256
0.5080133129961095 -0.8061960574884603
0.5113483763564908 -0.7088893397317005
0.5137174633249851 -0.6103578475637395
0.5153490460137083 -0.5108992982631217
0.5164543559638493 -0.41075417376546725
0.5172812001708847 -0.3101481403065987
0.5179812144172773 -0.20925805081040694
0.5189174456323183 -0.1077992807600409
0.5226113275912267 0.0
0.026910922534037506 -0.0016691479443482217
0.029355672275756785 -0.10788485005313898
0.029875998101937213 -0.20932564615580126
0.030511702760285586 -0.3102236963453803
0.03125334214112076 -0.410848826069329
0.0322200488863623 -0.5110627919949315
0.03365098226128 -0.6106457123593744
0.0357514730049327 -0.7093522354589823
0.03873250370329476 -0.806890650376633
0.04281228182073337 -0.9028727396786816
0.048230764597368185 -0.9967825618326103
0.05528512941380735 -1.0879396941596455
0.06437202471646541 -1.1754678826296214
0.07600402624689846 -1.2582973201757655
0.09077161793205167 -1.3351791926570278
0.1092749070817113 -1.4046838591809954
0.13198195540915944 -1.4652065352074086
0.15906469257512504 -1.515006048783187
0.19026367009243278 -1.552336756612827
0.22480473612519447 -1.5756887752229043
0.26130566379567177 -1.5839815550995326
0.29780659146614813 -1.5756887752228688
0.3323476574989057 -1.5523367566127544
0.3635466350162067 -1.5150060487830814
0.3906293721821637 -1.4652065352072765
0.41333642050960223 -1.4046838591808455
0.4318397096592522 -1.3351791926568632
0.4466073013443955 -1.25829732017559
0.4582393028748181 -1.1754678826294407
0.4673261981774657 -1.0879396941594655
0.47438056299389525 -0.9967825618324347
0.47979904577052185 -0.9028727396785153
0.48387882388795367 -0.8068906503764779
0.48685985458631037 -0.7093522354588407
0.48896034532995897 -0.6106457123592481
0.49039127870487403 -0.5110627919948235
0.49135798545011444 -0.41084882606923917
0.4920996248309492 -0.3102236963453102
0.49273532948929744 -0.20932564615575025
0.49325565531547794 -0.10788485005310837
0.4957004050571938 -0.0016691479443462643
0.05311440363908129 -0.0029666109130069575
0.054847465701848515 -0.10791861385532989
0.05514931971067427 -0.20936718036110546
0.055668645979954974 -0.3102936012675387
0.05633124595904942 -0.4109302292562993
0.05717465233100023 -0.5111943746349064
0.05840185380032471 -0.6108846302149311
0.060231414447207185 -0.7097468072041049
0.06285266023755269 -0.8074923182946101
0.06645815067421759 -0.9037334922754146
0.07125423290579083 -0.9979623887251535
0.0774952716236405 -1.0895168991489959
0.0855225486866425 -1.1775488919904167
0.0957901967813009 -1.2610168409070945
0.10884675913388556 -1.338685543123822
0.12524463207960063 -1.4091139529217984
0.14542582536756596 -1.470648043749296
0.16957706388743918 -1.5214597995122687
0.19749837895518704 -1.5596890985312823
0.22849007531984122 -1.5836880335665662
0.2613056637956679 -1.5922392410410873
0.29412125227149355 -1.5836880335665304
0.32511294863614415 -1.5596890985312084
0.353034263703886 -1.5214597995121615
0.3771855022237518 -1.4706480437491618
0.3973666955117087 -1.4091139529216465
0.4137645684574152 -1.3386855431236553
0.42682113080999096 -1.261016840906917
0.4370887789046401 -1.1775488919902337
0.4451160559676329 -1.0895168991488133
0.4513570946854741 -0.9979623887249761
0.45615317691703994 -0.9037334922752467
0.45975866735369875 -0.8074923182944537
0.4623799131440394 -0.7097468072039625
0.4642094737909182 -0.6108846302148043
0.4654366752602406 -0.5111943746347981
0.46628008163219054 -0.41093022925620937
0.46694268161128466 -0.31029360126746863
0.4674620078805653 -0.2093671803610545
0.46776386188939123 -0.10791861385529908
0.46949692395215514 -0.002966610913003041
0.07894847884512031 -0.0039989233573678295
0.08022286101552377 -0.10794240140688986
0.08040609092688512 -0.20939003935952433
0.08081022889945452 -0.31035153261841686
0.08138465278551914 -0.41100294766910955
0.08212169381514521 -0.5112990256040293
0.08315401626355123 -0.6110745889419167
0.08470901955753948 -0.7100741298057512
0.08696708110182244 -0.8080011901924258
0.09009464818262054 -0.9044701657798198
0.09426724572036795 -0.998978095878126
0.09969734253678417 -1.0908786821392509
0.10667432101131252 -1.1793483828787594
0.11559211810802615 -1.2633743387432779
0.1269371546146864 -1.3417379813546375
0.1412202020105761 -1.4129880969440514
0.15885738115615095 -1.475429280822161
0.18005196339444796 -1.5271590368021815
0.20466951135319203 -1.5662114839374188
0.23211778411153366 -1.5908102555563692
0.2613056637956643 -1.5996176097170485
0.29049354347979384 -1.5908102555563328
0.3179418162381322 -1.566211483937344
0.342559364196871 -1.5271590368020727
0.3637539464351615 -1.4754292808220253
0.38139112558072913 -1.4129880969438975
0.39567417297661106 -1.3417379813544688
0.40701920948326364 -1.2633743387430987
0.4159370065799691 -1.1793483828785747
0.4229139850544895 -1.0908786821390664
0.42834408187089834 -0.9989780958779471
0.43251667940863914 -0.9044701657796504
0.43564424648943195 -0.8080011901922682
0.43790230803371066 -0.710074129805608
0.4394573113276957 -0.6110745889417892
0.4404896337761001 -0.5112990256039208
0.4412266748057256 -0.41100294766901974
0.44180109869178985 -0.31035153261834675
0.44220523666435924 -0.2093900393594734
0.44238846657572073 -0.10794240140685887
0.4436628487461212 -0.00399892335736217
0.10456651001308837 -0.0048243554072619705
0.10551297202762726 -0.10796770773657345
0.10563052400792676 -0.20940210336099702
0.10593477368255289 -0.3103960623514659
0.10641487032069849 -0.41106669004085467
0.10704991308735311 -0.511385502825589
0.10791284553139054 -0.6112197729194236
0.1091913786321971 -0.7103348630816315
0.11108469883839714 -0.8084186034600841
0.11373278873075833 -0.905083851361217
0.11728204694498658 -0.9998318129094084
0.12190661601672331 -1.0920278516655066
0.1278430717990603 -1.180870743222876
0.13542340670177647 -1.2653746056943955
0.145073208458703 -1.344337891453043
0.15724230062195457 -1.4163048712601718
0.17232258231373848 -1.479546467685359
0.1905376208163673 -1.5320978651983548
0.21182351122839763 -1.5719003220719328
0.23572011259476872 -1.5970620780447893
0.2613056637956608 -1.606131696456623
0.28689121499655185 -1.5970620780447524
0.31078781636291986 -1.5719003220718568
0.3320737067749455 -1.5320978651982446
0.3502887452775687 -1.479546467685222
0.3653690269693463 -1.4163048712600164
0.37753811913259117 -1.3443378914528727
0.38718792088951115 -1.2653746056942146
0.39476825579222036 -1.1808707432226895
0.4007047115745506 -1.0920278516653203
0.40532928064628104 -0.9998318129092277
0.4088785388605036 -0.9050838513610466
0.41152662875286017 -0.8084186034599256
0.41341994895905654 -0.7103348630814875
0.4146984820598606 -0.6112197729192959
0.41556141450389683 -0.5113855028254805
0.41619645727055093 -0.41106669004076474
0.41667655390869623 -0.3103960623513958
0.4169808035833224 -0.2094021033609461
0.4170983555636219 -0.10796770773654228
0.41804481757815837 -0.004824355407254827
0.1300407080886521 -0.005480651884099602
0.1307417094677534 -0.10799692920109973
0.13081964006983152 -0.2094087323060578
0.1310398080370484 -0.3104280833112096
0.1314237760770733 -0.41112009282442397
0.13195558927468626 -0.511457570972388
0.13266795425930517 -0.6113299337240381
0.13369329902307067 -0.7105298855775135
0.13521550357534468 -0.8087464154939302
0.13738428241191433 -0.9055767955984888
0.14031228958489364 -1.0005259207990722
0.1441369935327771 -1.0929684193975508
0.14904561140540326 -1.182121143846577
0.1553073865367215 -1.2670229088118448
0.16327538467709296 -1.3464905404044867
0.173346576719979 -1.4190663605929357
0.1858735479878837 -1.482997368910562
0.20108697930843897 -1.536270444447731
0.21900747579580526 -1.576750259626698
0.2393260638259415 -1.6024442184048626
0.26130566379565723 -1.6117888359808787
0.2832852637653721 -1.6024442184048253
0.3036038517955055 -1.576750259626621
0.3215243482828678 -1.5362704444476196
0.33673777960341833 -1.4829973689104237
0.34926475087131753 -1.4190663605927787
0.35933594291419785 -1.3464905404043153
0.3673039410545639 -1.2670229088116622
0.3735657161858766 -1.182121143846389
0.378474334058497 -1.092968419397363
0.38229903800637516 -1.0005259207988904
0.38522704517934986 -0.9055767955983173
0.38739582401591555 -0.8087464154937708
0.3889180285681866 -0.7105298855773691
0.38994337333195017 -0.61132993372391
0.39065573831656825 -0.5114575709722794
0.3911875515141808 -0.41112009282433404
0.3915715195542055 -0.3104280833111395
0.39179168752142235 -0.20940873230600693
0.3918696181235004 -0.1079969292010684
0.39257061950259986 -0.005480651884091221
0.1554106796816685 -0.005997576575401255
0.1559262157348977 -0.10802969686230011
0.15597617554862805 -0.20941274538393895
0.15612431157349999 -0.3104491869842419
0.15641390794541588 -0.4111618742446781
0.1568378290506965 -0.5115174265617406
0.15740778681164957 -0.6114145812102914
0.1582074524519906 -0.7106696911691854
0.15937678532309488 -0.808986326932151
0.1610622920672521 -0.9059520241402611
0.1633731196690689 -1.0010642495233384
0.16640507875145183 -1.0937050609738383
0.17029920505205953 -1.183105826565822
0.17526202069151445 -1.2683268222218866
0.18157607873504697 -1.3482020540391126
0.1895669293591331 -1.4212780001256897
0.1995509037928652 -1.4857837794816613
0.21175861431830142 -1.5396719660684695
0.22627668388883293 -1.5807530434938608
0.2429665646414008 -1.6069509002735893
0.2613056637956536 -1.6165895742092409
0.2796447629499057 -1.6069509002735514
0.2963346437024711 -1.5807530434937829
0.3108527132729992 -1.539671966068357
0.3230604237984314 -1.485783779481522
0.33304439823215903 -1.4212780001255318
0.3410352488562404 -1.34820205403894
0.34734930689976873 -1.2683268222217032
0.35231212253921923 -1.183105826565633
0.35620624883982244 -1.0937050609736496
0.3592382079222012 -1.0010642495231559
0.3615490355240142 -0.9059520241400888
0.36323454226816837 -0.8089863269319909
0.3644038751392704 -0.7106696911690406
0.3652035407796101 -0.6114145812101632
0.3657734985405626 -0.5115174265616319
0.36619741964584285 -0.4111618742445881
0.3664870160177586 -0.31044918698417184
0.3666351520426305 -0.20941274538388804
0.3666851118563607 -0.1080296968622687
0.36720064790958856 -0.0059975765753918844
0.18070395693548408 -0.006398144988527681
0.18107767960771642 -0.10806639286999252
0.1811049489125534 -0.20941492424575586
0.18118905401331276 -0.3104608531009366
0.18138755198240922 -0.41119171215266964
0.18169999368124148 -0.51156428303894
0.18213126855216477 -0.6114778904891538
0.18272257782643764 -0.7107668168949883
0.18357008688239831 -0.8091479434858294
0.18478759213812765 -0.9062135273147994
0.1864818533520937 -1.0014518235455354
0.18872844793715782 -1.0942438838159072
0.19162264043547297 -1.1838325147989368
0.1953097710466519 -1.2692955558446213
0.19999823489300061 -1.3494828284427076
0.20594156131093647 -1.4229475242009038
0.2134023512930032 -1.4879099812586023
0.22260208358558833 -1.542301324564151
0.2336870131938726 -1.5838987229003743
0.246677693450864 -1.6105690242297295
0.2613056637956498 -1.6205271329728737
0.27593363414043504 -1.610569024229691
0.2889243143974245 -1.5838987229002959
0.30000924400570594 -1.5423013245640378
0.309208976298288 -1.4879099812584622
0.31666976628035115 -1.4229475242007446
0.32261309269828325 -1.3494828284425342
0.32730155654462906 -1.2692955558444368
0.3309886871558048 -1.183832514798747
0.3338828796541167 -1.0942438838157176
0.33612947423917766 -1.001451823545352
0.33782373545314076 -0.9062135273146265
0.33904124070886815 -0.8091479434856689
0.3398887497648272 -0.7107668168948433
0.3404800590390992 -0.6114778904890258
0.3409113339100221 -0.5115642830388312
0.34122377560885414 -0.41119171215257966
0.3414222735779505 -0.31046085310086646
0.34150637867870975 -0.2094149242457049
0.3415336479835467 -0.10806639286996107
0.34190737065577814 -0.0063981449885175505
0.20593568040511073 -0.006705594705953239
0.20620649896625873 -0.10810670755502236
0.2062101698100096 -0.20941511190868856
0.2062364305553256 -0.31046425488297363
0.2063473682118895 -0.4112098060172831
0.2065465835381555 -0.5115966931073498
0.20683330453509707 -0.6115240089416533
0.207229127992474 -0.7108312261072853
0.20778464839124494 -0.8092467382908582
0.20856749125499618 -0.9063729798561397
0.20966063871165447 -1.001696201847497
0.21113100193126863 -1.0945937384883118
0.2130379821624065 -1.1843116366839053
0.2154726742275987 -1.269941587886437
0.21856950598643415 -1.350346362840081
0.222503496862183 -1.4240875339133277
0.22747060309731312 -1.489384830397445
0.2336773658859399 -1.544160436861727
0.24130156557767823 -1.5861776053513643
0.25050163020332294 -1.61327890994374
0.2613056637956458 -1.6235875456329043
0.27210969738796814 -1.613278909943701
0.2813097620136116 -1.5861776053512855
0.28893396170534785 -1.5441604368616133
0.2951407244939722 -1.4893848303973045
0.3001078307291001 -1.424087533913168
0.30404182160484655 -1.3503463628399068
0.3071386533636799 -1.2699415878862523
0.30957334542887033 -1.1843116366837148
0.3114803256600061 -1.0945937384881217
0.3129506888796183 -1.0016962018473132
0.3140438363362748 -0.9063729798559663
0.31482667920002483 -0.8092467382906977
0.3153821995987949 -0.7108312261071401
0.31577802305617125 -0.6115240089415251
0.3160647440531126 -0.5115966931072409
0.31626395937937846 -0.41120980601719315
0.31637489703594235 -0.31046425488290347
0.3164011577812582 -0.20941511190863757
0.31640482862500907 -0.10810670755499094
0.31667564718615654 -0.00670559470594258
0.23111562232836041 -0.006945364914088166
0.23131541977898684 -0.10814946565408931
0.23129676251935968 -0.20941294996084625
0.23126964686254015 -0.31046030915213224
0.23129651409246207 -0.41121638855315545
0.23138225957594813 -0.5116141997688332
0.23152156477254535 -0.6115513866038743
0.23171944198458505 -0.7108697175171436
0.23199543317018076 -0.8093014966015174
0.2323854899133841 -0.9064530734579487
0.23291652437367358 -1.0018162565630389
0.23363555655395324 -1.094770800310106
0.2345718957324876 -1.1845598565439726
0.23577354919939575 -1.270283908238273
0.23731126230732014 -1.350813722548182
0.23927497586166982 -1.4247188299055618
0.24178498202639268 -1.4902243519372296
0.2450108556908418 -1.545260617805236
0.249177926514251 -1.5875869090749
0.2545038819830079 -1.6150546635047731
0.26130566379564146 -1.6257460777877026
0.268107445608275 -1.615054663504734
0.2734334010770313 -1.5875869090748211
0.27760047190043907 -1.545260617805122
0.28082634556488684 -1.4902243519370888
0.28333635172960864 -1.4247188299054017
0.2853000652839573 -1.3508137225480075
0.2868377783918808 -1.270283908238088
0.2880394318587884 -1.184559856543782
0.28897577103732186 -1.0947708003099155
0.28969480321760077 -1.0018162565628548
0.29022583767788956 -0.9064530734577753
0.2906158944210924 -0.8093014966013568
0.29089188560668783 -0.7108697175169983
0.2910897628187273 -0.6115513866037461
0.2912290680153244 -0.5116141997687244
0.2913148134988105 -0.4112163885530654
0.29134168072873246 -0.310460309152062
0.2913145650719129 -0.20941294996079524
0.2912959078122857 -0.10814946565405789
0.29149570526291185 -0.006945364914077166
0.25625768722321457 -0.007135358885930541
0.2564083361035818 -0.10819248337824151
0.25636905329108023 -0.20940845489698318
0.25629257649247944 -0.31044961267847937
0.2562386694064718 -0.4112118425611565
0.25621199549577006 -0.511616654771282
0.2562022689857162 -0.6115594858888075
0.2562001627317691 -0.7108824587242095
0.2562003221703328 -0.8093194338895083
0.25620079513481003 -0.9064788448280208
0.25620114917736647 -1.0018517316995255
0.256201335904673 -1.0948200001753896
0.2562008987318084 -1.1846255054067871
0.2561983951420673 -1.2703731476641784
0.25619378714462704 -1.3509367118977975
0.2561972998453461 -1.4248891206267447
0.2562564186422598 -1.4904715343689323
0.25650984404446603 -1.5456366913458686
0.2572214451052134 -1.5881592443490542
0.2587116849271222 -1.6158878130450314
0.261305663795637 -1.6269753825122986
0.2638996426641521 -1.6158878130449925
0.26538988248606077 -1.5881592443489747
0.2661014835468076 -1.5456366913457544
0.26635490894901387 -1.4904715343687915
0.2664140277459278 -1.4248891206265846
0.26641754044664717 -1.350936711897623
0.2664129324492071 -1.2703731476639935
0.26641042885946675 -1.1846255054065966
0.2664099916866026 -1.0948200001751993
0.2664101784139096 -1.0018517316993412
0.26641053245646645 -0.9064788448278472
0.2664110054209439 -0.8093194338893477
0.2664111648595078 -0.7108824587240642
0.2664090586055607 -0.6115594858886793
0.266399332095507 -0.5116166547711731
0.2663726581848053 -0.4112118425610665
0.26631875109879777 -0.31044961267840915
0.26624227430019703 -0.20940845489693208
0.26620299148769555 -0.1081924833782101
0.2663536403680627 -0.00713535888591933
0.28137621770763105 -0.0072859167308386395
0.28148998816636694 -0.10823342492712822
0.28143164629716644 -0.20940171742153668
0.28130928696535656 -0.31043263424745016
0.2811778753904057 -0.41119665179079323
0.28104087711950915 -0.51160417642869
0.2808830897874937 -0.6115481812173846
0.2806809078716434 -0.710869192474838
0.28040527622064937 -0.8093016900570608
0.2800161400924611 -0.9064532261827304
0.2794857960874602 -1.001816352560135
0.2787671739883571 -1.0947707288016169
0.2778300371425376 -1.1845592746657336
0.2766236458628 -1.2702823738188935
0.2750762362757997 -1.3508125337263959
0.2731177434583528 -1.4247266444322775
0.27071929414064066 -1.4902784651722656
0.2679575089405561 -1.5454429454467145
0.2650841874930611 -1.5880370417950025
0.26255601284426505 -1.6158827493590062
0.26130566379563286 -1.6273857387882382
0.26005531474700044 -1.6158827493589671
0.2575271400982043 -1.5880370417949232
0.25465381865071 -1.5454429454466
0.251892033450627 -1.4902784651721248
0.2494935841329165 -1.4247266444321176
0.2475350913154713 -1.3508125337262213
0.2459876817284723 -1.2702823738187086
0.24478129044873662 -1.1845592746655433
0.243844153602919 -1.0947707288014268
0.2431255315038176 -1.001816352559951
0.2425951874988181 -0.9064532261825567
0.24220605137063086 -0.8093016900569001
0.24193041971963744 -0.7108691924746927
0.24172823780378747 -0.6115481812172562
0.24157045047177234 -0.5116041764285814
0.241433452200876 -0.4111966517907033
0.24130204062592533 -0.31043263424737993
0.24117968129411554 -0.2094017174214856
0.24112133942491518 -0.10823342492709677
0.24123510988365096 -0.007285916730827261
0.30648403684880254 -0.007402377044999856
0.3065659344625654 -0.10827058933992993
0.3064893717267669 -0.20939264110038364
0.30632405762521775 -0.3104098099629943
0.3061184929453969 -0.41117137529721254
0.3058740721048161 -0.5115771394900052
0.30557064116591415 -0.6115177430166361
0.3051714694627223 -0.710830238876046
0.30461613878408045 -0.8092471037401305
0.30383428207453933 -0.906373309106425
0.30274176379774626 -1.001696391275616
0.30127165422483493 -1.0945936179352231
0.2993643137736447 -1.1843104858210995
0.2969262579716595 -1.2699382058181776
0.29381938342398217 -1.350342956984766
0.28988394227857045 -1.4241037476403178
0.28500675250185153 -1.4894935427101192
0.2792089685472855 -1.5445289603627586
0.2727462029733853 -1.5870853010583938
0.26632570696324254 -1.615115716736725
0.26130566379562864 -1.6271116731094235
0.25628562062801447 -1.6151157167366859
0.2498651246178722 -1.5870853010583148
0.2434023590439735 -1.5445289603626446
0.23760457508941007 -1.489493542709979
0.23272738531269438 -1.4241037476401586
0.22879194416728546 -1.3503429569845917
0.22568506961961066 -1.2699382058179933
0.22324701381762851 -1.18431048582091
0.2213396733664414 -1.0945936179350337
0.21986956379353303 -1.0016963912754324
0.21877704551674262 -0.9063733091062516
0.2179951888072033 -0.80924710373997
0.2174398581285626 -0.7108302388759008
0.21704068642537133 -0.6115177430165076
0.21673725548646985 -0.5115771394898964
0.21649283464588936 -0.4111713752971226
0.21628726996606887 -0.31040980996292405
0.21612195586451985 -0.20939264110033262
0.2160453931287214 -0.10827058933989848
0.2161272907424842 -0.007402377044988342
0.3315891068349188 -0.00748940028718524
0.3316421637069834 -0.10830252931320747
0.33154721848744395 -0.20938101968363074
0.3313413350700609 -0.31038153860453577
0.3310649391111874 -0.4111366050301585
0.33071688023989043 -0.5115362999792719
0.33027279782490576 -0.6114689128244141
0.3296780493297598 -0.7107653818348543
0.3288311102827034 -0.8091485768388339
0.3276145265735789 -0.9062140800608357
0.32592062450733345 -1.0014520751090836
0.32367399969561306 -1.0942437298394463
0.3207801628223261 -1.183831131084253
0.31709260079973256 -1.2692908501943876
0.31239776630633875 -1.349476911802777
0.30644742144819276 -1.4229682031159687
0.2990373512178093 -1.4880608710628365
0.2901298051117541 -1.542824649208343
0.2800500981646208 -1.5852415200077477
0.2697809252492494 -1.613435019224158
0.2613056637956244 -1.6261536616376362
0.25283040234199944 -1.613435019224119
0.242561229426629 -1.5852415200076688
0.23248152247949805 -1.5428246492082298
0.22357397637344673 -1.488060871062697
0.2161639061430675 -1.4229682031158104
0.21021356128492522 -1.3494769118026033
0.2055187267915353 -1.269290850194204
0.2018311647689461 -1.1838311310840643
0.19893732789566335 -1.0942437298392573
0.19669070308394715 -1.0014520751089009
0.19499680101770536 -0.9062140800606631
0.1937802173085837 -0.8091485768386736
0.192933278261529 -0.7107653818347088
0.1923385297663841 -0.6114689128242857
0.1918944473514001 -0.5115362999791632
0.19154638848010352 -0.41113660503006855
0.19126999252123034 -0.3103815386044656
0.19106410910384744 -0.20938101968357972
0.1909691638843081 -0.10830252931317601
0.19102222075637268 -0.007489400287173625
0.35669722012429117 -0.007551271714440127
0.3567240686342965 -0.10832825069088244
0.3566102012016257 -0.20936653347036832
0.35636562027904906 -0.310348157205901
0.35602149805497224 -0.4110930924286026
0.35557470442181943 -0.5114823216383408
0.3549946096839083 -0.6114029744328231
0.35419382842901176 -0.7106680730107064
0.3530250366571083 -0.808987252196051
0.35134019320369775 -0.9059527714826815
0.3490292771078082 -1.0010644570210918
0.3459970961344619 -1.0937048805744773
0.3421039533052202 -1.183104666374578
0.33714496962627233 -1.2683221821892718
0.3308335856221552 -1.34819475636093
0.3228351420487081 -1.4212985198760149
0.3128485060133104 -1.485954845787652
0.3007884682125689 -1.5403079325142437
0.2870767379471645 -1.5824907548759157
0.27302853547216555 -1.6108670966145453
0.2613056637956204 -1.6245387896219785
0.2495827921190755 -1.6108670966145062
0.2355345896440781 -1.5824907548758371
0.22182285937867685 -1.540307932514131
0.20976282157794007 -1.4859548457875136
0.19977618554254745 -1.4212985198758572
0.19177774196910535 -1.3481947563607573
0.18546635796499322 -1.2683221821890893
0.18050737428605076 -1.1831046663743903
0.17661423145681449 -1.0937048805742895
0.1735820504834736 -1.0010644570209102
0.1712711343875886 -0.9059527714825095
0.16958629093418184 -0.8089872521958913
0.16841749916228088 -0.7106680730105612
0.16761671790738597 -0.6114029744326948
0.16703662316947562 -0.5114823216382322
0.16658982953632331 -0.41109309242851266
0.16624570731224686 -0.31034815720583087
0.1660011263896705 -0.2093665334703173
0.16588725895699977 -0.10832825069085096
0.16591410746700508 -0.007551271714428444
0.3818127974734767 -0.00759210406817527
0.3818163243329767 -0.10834721418743921
0.3816832397586942 -0.2093488299495793
0.3814015165689242 -0.31031002329542107
0.3809927870443044 -0.41104138624247155
0.3804525102745088 -0.5114171054902517
0.3797347628171055 -0.6113162598490136
0.3787087034355511 -0.7105282293644992
0.3771872485566447 -0.8087476257114121
0.3750184705506985 -0.9055776142035247
0.3720900589915039 -1.0005260221067898
0.3682649312727982 -1.0929681972094412
0.3633578860893027 -1.182120680549577
0.3571045951603577 -1.2670203236984539
0.3491518039940827 -1.3464846304088294
0.3390788167868582 -1.4190825272192324
0.3265026333874087 -1.4831647109044892
0.31129473523404805 -1.5369710887039336
0.29396987343374886 -1.5788337912895307
0.27620665014577855 -1.60743312356553
0.2613056637956165 -1.6222862435087086
0.2464046774454549 -1.607433123565491
0.22864145415748674 -1.5788337912894528
0.2113165923571915 -1.5369710887038215
0.1961086942038363 -1.4831647109043522
0.18353251080439287 -1.4190825272190764
0.1734595235971744 -1.346484630408658
0.16550673243090547 -1.2670203236982724
0.15925344150196707 -1.1821206805493905
0.15434639631847827 -1.0929681972092546
0.15052126859977888 -1.0005260221066095
0.14759285704058994 -0.9055776142033537
0.14542407903464832 -0.8087476257112529
0.14390262415574528 -0.7105282293643546
0.14287656477419305 -0.6113162598488854
0.14215881731679084 -0.5114171054901432
0.14161854054699582 -0.4110413862423817
0.1412098110223764 -0.310310023295351
0.14092808783260669 -0.2093488299495283
0.1407950032583243 -0.10834721418740774
0.14079853011782434 -0.0075921040681635405
0.4069391394706429 -0.007615986124190215
0.4069228789041938 -0.10835928677769358
0.4067711540232417 -0.20932766005056036
0.40645370728942404 -0.3102673982135593
0.4059830325967131 -0.41098230145292647
0.4053530984798547 -0.5113407007691189
0.40449016316661285 -0.611204542744759
0.4032124466703148 -0.7103333537079759
0.40131893631296794 -0.8084199362793759
0.3986701274686293 -0.9050845980373055
0.3951201811121479 -0.9998317607526866
0.39049522656384056 -1.0920276100641362
0.38456118777342013 -1.180871436037829
0.3769933382510993 -1.2653760615395346
0.3673699521212513 -1.3443369200606277
0.35521274094618727 -1.416315645535434
0.34006581329718377 -1.4796917146499828
0.3217551900751331 -1.5328189563945969
0.30087869175985343 -1.5742785461728424
0.279425134320974 -1.6031357830915638
0.2613056637956126 -1.619390262902182
0.2431861932702521 -1.6031357830915256
0.22173263583137537 -1.5742785461727653
0.2008561375161004 -1.5328189563944863
0.182545514294056 -1.4796917146498472
0.16739858664505938 -1.4163156455352792
0.15524137547000255 -1.3443369200604578
0.14561798934016162 -1.2653760615393548
0.13805013981784853 -1.1808714360376442
0.13211610102743604 -1.0920276100639512
0.1274911464791359 -0.9998317607525077
0.1239412001226612 -0.9050845980371356
0.12129239127832779 -0.8084199362792177
0.11939888092098509 -0.7103333537078318
0.11812116442468995 -0.6112045427446312
0.11725822911144962 -0.5113407007690103
0.11662829499459182 -0.4109823014528367
0.11615762030188134 -0.31026739821348925
0.11584017356806396 -0.20932766005050932
0.11568844868711196 -0.1083592867776621
0.1156721881206629 -0.0076159861241784635
0.43207837401601623 -0.007627088149328214
0.432046948044974 -0.10836471736020516
0.43187869483863556 -0.2093029941835367
0.4315270756595593 -0.3102203966523493
0.4309963165738728 -0.41091689531872055
0.43027766337581036 -0.5112520367971776
0.4292517121572672 -0.6110588933620279
0.42769709190440347 -0.71007266208045
0.42543730263001733 -0.8080023425203572
0.4223083108337624 -0.904470726332311
0.4181348417381913 -0.9989778728565136
0.4127046876777457 -1.0908785478361105
0.40573149765334726 -1.1793507141936517
0.3968288998541127 -1.263381163178373
0.38551612898385046 -1.341744958955767
0.37126241315165853 -1.4129973671428508
0.353588842731822 -1.4755480836142663
0.3322877920792059 -1.527872412176644
0.307957957829153 -1.5688351242134015
0.28278947676501465 -1.5979571918485267
0.2613056637956089 -1.6158202240679014
0.239821850826204 -1.5979571918484887
0.21465336976206892 -1.5688351242133254
0.1903235355120216 -1.527872412176535
0.16902248485941246 -1.4755480836141321
0.1513489144395839 -1.4129973671426976
0.1370951986074 -1.3417449589555988
0.12578242773714618 -1.2633811631781948
0.11687982993792027 -1.179350714193469
0.10990663991353088 -1.0908785478359275
0.10447648585309369 -0.9989778728563364
0.10030301675753003 -0.9044707263321425
0.09717402496128118 -0.8080023425202
0.09491423568689987 -0.7100726620803067
0.09335961543403974 -0.6110588933619006
0.09233366421549852 -0.5112520367970691
0.09161501101743692 -0.41091689531863085
0.09108425193175083 -0.3102203966522793
0.09073263275267489 -0.2093029941834857
0.09056437954633663 -0.10836471736017371
0.09053295357529441 -0.007627088149316441
0.45723115651304513 -0.0076297097282605275
0.45719094378773967 -0.10836419138814743
0.4570108122630873 -0.2092751085416891
0.4566267493887627 -0.31016908312597047
0.4560364707249074 -0.41084574023241216
0.4552242724061004 -0.5111478357401736
0.4540082206041266 -0.6108693896756033
0.4521770421476422 -0.7097448270696218
0.4495522352338661 -0.807493000271968
0.4459448065962446 -0.9037337758216992
0.4411477325310746 -0.9979620143826778
0.4349072990726068 -1.089517125993249
0.4268856214976537 -1.1775533715313429
0.4166346041324063 -1.2610294982552068
0.4036104570539547 -1.3387018957300203
0.3872559980025224 -1.4091290707340969
0.3671102390348227 -1.4707573415979052
0.3429891924915791 -1.5221701201756204
0.3153701089503211 -1.5625181443854226
0.2864401250601768 -1.5918581814522725
0.26130566379560494 -1.6115132253212423
0.23617120253103424 -1.591858181452235
0.2072412186408938 -1.5625181443853475
0.17962213509964234 -1.522170120175513
0.1555010885564066 -1.470757341597773
0.13535532958871585 -1.4091290707339457
0.1190008705372925 -1.338701895729854
0.10597672345885044 -1.261029498255031
0.09572570609361297 -1.1775533715311624
0.08770402851867003 -1.0895171259930683
0.08146359506021163 -0.9979620143825026
0.07666652099504989 -0.9037337758215326
0.07305909235743512 -0.807493000271812
0.07043428544366456 -0.7097448270694795
0.06860310698718433 -0.6108693896754765
0.06738705518521299 -0.5111478357400655
0.06657485686640702 -0.4108457402323225
0.06598457820255217 -0.31016908312590047
0.0656005153282279 -0.20927510854163814
0.06542038380357573 -0.10836419138811598
0.06538017107827028 -0.00762970972824875
0.48239599585005133 -0.007628255743325834
0.482356412861768 -0.10835900935257606
0.4821730820440051 -0.20924474607262294
0.4817584418688455 -0.3101133034165344
0.48110594338164836 -0.4107687516055968
0.4801831164832803 -0.5110198237756678
0.47876424198420686 -0.6106309862866608
0.476658819100035 -0.7093490184709363
0.47367287470109604 -0.8068906319204918
0.46959064872691947 -0.9028726691011602
0.4641711620104459 -0.9967820977150688
0.4571183331399222 -1.087940639037555
0.44803899509218337 -1.1754749979964
0.4364241082744285 -1.2583156393532164
0.4216859871678419 -1.3352048305752864
0.40323605937641055 -1.4047128984485746
0.38064972940846664 -1.4653396808629764
0.3538623493478382 -1.5157747717615426
0.32332878150685224 -1.5553701456743196
0.29062065501779016 -1.584772656480651
0.2613056637956009 -1.6063491742611018
0.23199067257341283 -1.584772656480614
0.19928254608435536 -1.555370145674246
0.16874897824337678 -1.5157747717614367
0.14196159818275747 -1.4653396808628465
0.11937526821482351 -1.4047128984484254
0.1009253404234023 -1.3352048305751225
0.08618721931682628 -1.2583156393530428
0.07457233249908253 -1.1754749979962222
0.06549299445135509 -1.0879406390373765
0.058440165580841606 -0.9967820977148958
0.05302067886437704 -0.9028726691009953
0.048938452890207894 -0.8068906319203374
0.04595250849127523 -0.7093490184707952
0.043847085607108094 -0.6106309862865349
0.04242821110803755 -0.51101982377556
0.041505384209670766 -0.4107687516055072
0.040852885722474155 -0.31011330341646454
0.04043824554731493 -0.20924474607257204
0.04025491472955219 -0.10835900935254458
0.04021533174126897 -0.007628255743314058
0.5075679073472554 -0.007627072462881482
0.5075440687462767 -0.10835158261562737
0.5073725801671265 -0.20921312484798596
0.5069286278564875 -0.31005299336692044
0.5062037856641443 -0.41068199143971357
0.5051495167303195 -0.5108632927275988
0.503525472190143 -0.6103422200706486
0.5011489613461446 -0.708884597364015
0.4978079373008494 -0.8061951016007689
0.4932560667854802 -0.9018870017716205
0.4872182414764576 -0.9954373534219022
0.47935087976455093 -1.0861460831415535
0.46920275188576194 -1.1731111839005086
0.45622244141948554 -1.2552376775524547
0.4397740954369561 -1.331254020939665
0.41924650732181606 -1.3997522319460638
0.39424870243965354 -1.4593062264049987
0.3648470974325805 -1.5087318583380098
0.3317546981686507 -1.5475409939076679
0.29616623835804234 -1.5766481610022298
0.26130566379559655 -1.6000000000000003
0.22644508923315207 -1.5766481610021934
0.19085662942254883 -1.547540993907596
0.15776423015862776 -1.5087318583379061
0.1283626251515652 -1.4593062264048713
0.10336482026941368 -1.399752231945917
0.08283723215428512 -1.3312540209395036
0.06638888617176752 -1.2552376775522835
0.05340857570550332 -1.1731111839003336
0.0432604478267268 -1.0861460831413776
0.03539308611483139 -0.9954373534217317
0.029355260805818528 -0.9018870017714575
0.02480339029045744 -0.8061951016006162
0.021462366245169024 -0.708884597363875
0.01908585540117594 -0.6103422200705236
0.017461810861002763 -0.5108632927274913
0.01640754192717965 -0.41068199143962414
0.015682699734837012 -0.3100529933668506
0.015238747424198418 -0.2092131248479351
0.01506725884504845 -0.10835158261559594
0.01504342024406973 -0.007627072462869709
SCALARS Stress float 6
LOOKUP_TABLE default
-885.9511014201684 -1654.923492926453 -1187.5126787561849 0.4954608947709369 0.0 0.0
1091.5855233726782 631.5973267718593 742.7914182379523 -23.465042113657578 0.0 0.0
474.64662695954536 52.854438561143866 157.1756211591363 -32.33141547424858 0.0 0.0
428.8663060920913 15.147846390491285 132.49218735320167 -4.22012529779925 0.0 0.0
523.6876785093316 36.07174697055523 174.57540389600987 -1.5770801055285821 0.0 0.0
590.0271195009875 62.80257528125854 240.2595459996209 -0.8247369161420397 0.0 0.0
672.0646859533206 76.95981090553337 312.07006136033334 -1.5612442261980508 0.0 0.0
750.9683131213865 109.42327887599913 390.2237278490806 -2.0475377052821564 0.0 0.0
833.8106981109675 152.55874341529645 468.081351587735 -2.4755117108294318 0.0 0.0
927.599547624771 210.51043116987645 551.7903366940075 -3.0941543802915032 0.0 0.0
1036.0704300828593 285.08074382164807 646.8479754545249 -3.84318241693946 0.0 0.0
1158.3852354344813 375.781075459357 754.6178879863114 -4.686380590162718 0.0 0.0
1290.8663522379677 475.83633413318944 870.8392084341875 -5.206936006936447 0.0 0.0
1429.8295396584513 581.8751219848714 992.8212471844608 -5.6445650572862425 0.0 0.0
1568.0202295941203 687.1428718271977 1113.8212521585112 -6.037827985788948 0.0 0.0
1698.1053286467607 785.2678389623885 1227.2138780254108 -6.398857782237947 0.0 0.0
1814.1473862259834 871.8337316264972 1327.9743583311347 -6.505016147880296 0.0 0.0
1910.3230854308722 942.5502299058915 1411.1506610965737 -6.02645781569656 0.0 0.0
1982.1711939807803 994.3171064431845 1472.9097437537594 -4.850073019734128 0.0 0.0
2021.4825550222247 1020.4002664499702 1505.7167275650568 -3.8715183614179396 0.0 0.0
2021.1127938301636 1016.6128413462363 1503.9615280286334 2.965983014746598e-11 0.0 0.0
2021.4825550221299 1020.4002664498821 1505.716727564931 3.8715183614273094 0.0 0.0
1982.1711939802465 994.3171064426781 1472.9097437532605 4.8500730197271675 0.0 0.0
1910.3230854309872 942.5502299060672 1411.1506610965782 6.026457815705257 0.0 0.0
1814.147386224047 871.8337316245936 1327.9743583295785 6.505016147936525 0.0 0.0
1698.1053286463862 785.2678389620803 1227.2138780250407 6.398857782234087 0.0 0.0
1568.0202295936797 687.1428718268575 1113.821252158115 6.037827985843304 0.0 0.0
1429.8295396577082 581.8751219842195 992.8212471838302 5.644565057318395 0.0 0.0
1290.8663522377822 475.8363341331474 870.8392084339052 5.206936006921438 0.0 0.0
1158.3852354336047 375.78107545863287 754.6178879856299 4.686380590083914 0.0 0.0
1036.0704300821815 285.0807438211421 646.8479754538946 3.843182417007812 0.0 0.0
927.5995476245453 210.51043116985636 551.7903366937526 3.0941543802699467 0.0 0.0
833.810698110228 152.55874341473213 468.0813515871092 2.4755117107687035 0.0 0.0
750.9683131213168 109.42327887619308 390.22372784889035 2.0475377052562767 0.0 0.0
672.0646859526194 76.95981090502185 312.07006135973336 1.5612442261926347 0.0 0.0
590.0271195006733 62.80257528122053 240.25954599933073 0.8247369161583151 0.0 0.0
523.6876785090267 36.07174697053396 174.57540389583983 1.57708010557368 0.0 0.0
428.86630609183146 15.147846390330155 132.492187353087 4.220125297820423 0.0 0.0
474.6466269592959 52.854438561082745 157.17562115904735 32.33141547419009 0.0 0.0
1091.5855233722716 631.597326771406 742.7914182374298 23.465042113682735 0.0 0.0
-885.9511014177856 -1654.9234929240495 -1187.5126787538375 -0.4954608952855679 0.0 0.0
-1127.8386437495142 -1862.8827397522225 -1369.8687218665611 3.13949731465682 0.0 0.0
733.482107499549 360.7042808686855 460.65310342292736 -40.34182285635907 0.0 0.0
327.14988138645583 18.877195432072803 103.66809939308912 -25.161594477088425 0.0 0.0
379.37538734056733 3.0312890706988425 114.7809459038456 -16.289144584791977 0.0 0.0
466.7094127248989 14.037173426534054 146.83101579047252 -15.044488263655667 0.0 0.0
545.56267782039 18.309768949386424 196.9616991370451 -17.43844127762383 0.0 0.0
606.4790640707263 25.890289890068004 257.8140924809243 -19.67294039951879 0.0 0.0
670.6829261858177 41.12626423959219 320.47303017350174 -20.4367196045768 0.0 0.0
732.34091715281 62.22255229104183 377.7900254417677 -20.424944847801658 0.0 0.0
796.826203699097 91.15293982134045 433.44306421451324 -20.204253964836376 0.0 0.0
866.1190728037786 127.32627835620397 490.60140636085714 -19.73469248694844 0.0 0.0
939.2635893511952 167.57231162263622 549.2779697309544 -19.278369030231172 0.0 0.0
1012.285941620488 209.7572388534029 607.5655676554711 -18.67742927677548 0.0 0.0
1083.0965888913254 247.7853434988852 662.0514654098683 -18.058592928040145 0.0 0.0
1144.9775528661778 277.0100672311848 707.4876480781361 -17.64928195359203 0.0 0.0
1192.8449405520635 293.22975920095234 739.3961092506783 -17.274039185303536 0.0 0.0
1223.8862590223018 294.9600578241027 755.7193355873362 -16.53843203669241 0.0 0.0
1239.3246812672662 284.91624657554826 758.5007005176742 -14.947929120780083 0.0 0.0
1241.7166403632743 267.1410072085838 751.0743396844206 -12.345926258323466 0.0 0.0
1223.125266759258 235.1468712593423 726.3883006974692 -9.333837559911235 0.0 0.0
1186.8336234613698 195.41507431572293 689.2635699342062 2.1953994178147695e-11 0.0 0.0
1223.125266758863 235.14687125894858 726.38830069716 9.3338375599318 0.0 0.0
1241.716640363204 267.1410072085462 751.0743396843442 12.34592625835596 0.0 0.0
1239.3246812674458 284.9162465757707 758.500700517771 14.947929120798431 0.0 0.0
1223.886259021753 294.96005782360686 755.7193355868903 16.53843203667875 0.0 0.0
1192.8449405517397 293.2297592007013 739.3961092503828 17.274039185307387 0.0 0.0
1144.9775528661044 277.01006723122094 707.4876480779795 17.6492819536605 0.0 0.0
1083.0965888907924 247.78534349844176 662.0514654094544 18.058592928078014 0.0 0.0
1012.285941620373 209.75723885340966 607.5655676553464 18.677429276719803 0.0 0.0
939.2635893509951 167.5723116226053 549.2779697308158 19.27836903016751 0.0 0.0
866.1190728031935 127.32627835578403 490.6014063603871 19.734692487047113 0.0 0.0
796.8262036987387 91.15293982116327 433.4430642141999 20.204253964784396 0.0 0.0
732.3409171524232 62.22255229085573 377.79002544140997 20.424944847795686 0.0 0.0
670.6829261855387 41.12626423953144 320.473030173209 20.4367196045889 0.0 0.0
606.4790640701016 25.89028988964848 257.8140924804156 19.67294039945255 0.0 0.0
545.562677820072 18.309768949339727 196.9616991367887 17.43844127764002 0.0 0.0
466.70941272457503 14.03717342659007 146.8310157903661 15.044488263653143 0.0 0.0
379.37538734034115 3.0312890706509874 114.78094590377471 16.289144584776516 0.0 0.0
327.14988138640643 18.877195432034373 103.66809939306484 25.161594477013086 0.0 0.0
733.4821074991016 360.7042808682783 460.6531034224276 40.34182285639951 0.0 0.0
-1127.8386437477554 -1862.88273975035 -1369.8687218646696 -3.1394973151202166 0.0 0.0
-914.7842466955996 -1615.2965186530703 -1128.0301887413284 -38.18414705341977 0.0 0.0
536.7949343132478 263.73148148602075 327.4177445691698 -102.04903174071067 0.0 0.0
239.20903264800944 31.756144408421946 81.28948745245253 -24.482356006955172 0.0 0.0
324.02158832755435 -1.6233912109552018 96.7150255263158 -35.45860684671711 0.0 0.0
417.7979654145295 9.686521106423452 128.46548343100793 -36.60739317852655 0.0 0.0
514.39237691907 15.115120155380296 174.03838097819775 -34.76928191870001 0.0 0.0
578.1325953813804 25.25543006707835 234.89684082540688 -37.4478869825458 0.0 0.0
644.7120512891422 35.526165019528534 296.7799400362268 -38.92237478773005 0.0 0.0
705.7640256708161 54.54396452483039 355.05261220393993 -39.19374746880201 0.0 0.0
767.8592021277075 79.91220119011436 409.64626148584443 -38.87121542320102 0.0 0.0
833.1895296109058 112.00918740492605 464.1667625839992 -38.121283554679096 0.0 0.0
901.4540748062341 149.06637342390286 519.7069657881402 -37.01419531684337 0.0 0.0
971.6924462329861 186.60771280524565 574.7774416544762 -35.83771115681351 0.0 0.0
1037.7925090743975 221.63122096179478 625.6613807100487 -34.698018329497614 0.0 0.0
1096.3428395359572 247.76269279165132 667.9447850847737 -33.859425641648926 0.0 0.0
1141.827697108438 261.87403140061883 697.6202599016689 -33.03802154507916 0.0 0.0
1172.9443986157737 263.84182558284573 714.1196188191477 -31.53181290839456 0.0 0.0
1189.6368945244817 255.0159971407761 718.2230531112161 -28.609148422452193 0.0 0.0
1190.0246009545547 234.98203349292126 708.8071993241805 -24.046544992212805 0.0 0.0
1177.3384104375082 208.7376682760879 689.7761129240026 -17.715276656932964 0.0 0.0
1129.7612564040196 157.84955320238217 641.738241387114 1.0470735389844776e-11 0.0 0.0
1177.3384104374773 208.73766827608614 689.7761129239868 17.71527665700332 0.0 0.0
1190.0246009541738 234.98203349256474 708.8071993239013 24.046544992313226 0.0 0.0
1189.6368945245852 255.01599714092995 718.2230531112392 28.609148422505754 0.0 0.0
1172.9443986160925 263.8418255832137 714.1196188193202 31.53181290839541 0.0 0.0
1141.827697108103 261.8740314003619 697.6202599013707 33.03802154510808 0.0 0.0
1096.3428395360625 247.7626927918548 667.9447850847554 33.859425641693115 0.0 0.0
1037.7925090736153 221.6312209611109 625.6613807094576 34.698018329537305 0.0 0.0
971.6924462323494 186.60771280471369 574.7774416539563 35.83771115677298 0.0 0.0
901.4540748066364 149.06637342447928 519.7069657883516 37.014195316812554 0.0 0.0
833.1895296103787 112.00918740455802 464.16676258359234 38.12128355468929 0.0 0.0
767.8592021271346 79.91220118970516 409.6462614853764 38.871215423134096 0.0 0.0
705.7640256706459 54.543964524874156 355.05261220371943 39.19374746879749 0.0 0.0
644.7120512886635 35.526165019283525 296.77994003580983 38.92237478771827 0.0 0.0
578.1325953810368 25.255430067001384 234.89684082507262 37.44788698246643 0.0 0.0
514.3923769187257 15.115120155324469 174.03838097795946 34.76928191867954 0.0 0.0
417.7979654140982 9.686521106245001 128.46548343082708 36.607393178511195 0.0 0.0
324.02158832745323 -1.6233912109092643 96.71502552630164 35.45860684664503 0.0 0.0
239.20903264799858 31.75614440834133 81.28948745242513 24.482356006870166 0.0 0.0
536.7949343128181 263.7314814857447 327.417744568743 102.04903174060641 0.0 0.0
-914.7842466939929 -1615.296518651383 -1128.0301887395512 38.184147053082974 0.0 0.0
-732.0550784783031 -1400.1470190367982 -919.181425118118 -53.84876168005151 0.0 0.0
394.3807913613787 169.4186456675637 224.47341096517442 -140.7584713481616 0.0 0.0
177.52399946233362 37.70479109752666 64.56863716795809 -46.56865601125529 0.0 0.0
270.19427063208536 3.223372741838114 82.03080845422087 -52.724904475979436 0.0 0.0
364.5322688974267 3.989257737024798 109.99208428381496 -59.412543077250255 0.0 0.0
467.50941183066413 10.75913876113991 149.76314647158156 -54.985084254699146 0.0 0.0
550.4227839693093 20.799465205531643 207.99957859022535 -56.86521842504771 0.0 0.0
613.3765670582106 30.2936609077547 269.35560213711 -57.79656307323744 0.0 0.0
675.0349352630562 46.74364823635764 328.5263934914867 -57.8149429692543 0.0 0.0
735.0189266762216 68.89689683962315 382.78934856910604 -57.216123730440806 0.0 0.0
796.1739727644112 96.96008056354573 434.9894573874778 -55.96597813347314 0.0 0.0
860.5343145610266 129.19880265730487 487.3076483443349 -54.332863453480655 0.0 0.0
926.0240490456519 164.10965927621723 539.4729425561654 -52.46130450058959 0.0 0.0
989.0678224869118 194.12459870193348 586.666612667259 -50.97230064611267 0.0 0.0
1043.7214048629119 217.30350512839982 625.656706049311 -49.765672786858204 0.0 0.0
1087.7152030173174 230.81543912467984 654.3151003403248 -48.486356810860485 0.0 0.0
1119.4005344784503 233.11449610428843 671.2759941791348 -46.424161314484536 0.0 0.0
1136.769429016916 224.65077825103833 675.9969506671272 -42.51904995174608 0.0 0.0
1138.9666257094898 205.92375071946844 668.1887201238344 -36.03687266881914 0.0 0.0
1129.1165018661236 181.80814685593285 651.5594322649334 -25.670582721885484 0.0 0.0
1060.6485117204645 109.85345416368253 583.2091004392051 2.8770763549346157e-11 0.0 0.0
1129.1165018664788 181.80814685631836 651.5594322652022 25.670582721982584 0.0 0.0
1138.9666257089725 205.92375071898843 668.1887201234124 36.03687266891877 0.0 0.0
1136.7694290170812 224.65077825124416 675.9969506672362 42.51904995180226 0.0 0.0
1119.4005344782863 233.1144961041739 671.2759941789614 46.4241613144973 0.0 0.0
1087.715203017185 230.8154391246242 654.3151003401797 48.48635681090418 0.0 0.0
1043.7214048627543 217.3035051283162 625.6567060491601 49.765672786834365 0.0 0.0
989.0678224865652 194.12459870170554 586.666612666967 50.97230064614449 0.0 0.0
926.0240490451112 164.10965927580685 539.4729425557205 52.46130450061254 0.0 0.0
860.534314561248 129.19880265770664 487.30764834438406 54.33286345354941 0.0 0.0
796.1739727640943 96.96008056338366 434.98945738719493 55.96597813344681 0.0 0.0
735.0189266756046 68.89689683917396 382.7893485686163 57.216123730395424 0.0 0.0
675.0349352627217 46.743648236230285 328.52639349116674 57.81494296924192 0.0 0.0
613.3765670578887 30.293660907679644 269.35560213679037 57.79656307322454 0.0 0.0
550.4227839690568 20.799465205603592 207.99957858997894 56.86521842504435 0.0 0.0
467.5094118303181 10.759138761185962 149.76314647143195 54.98508425463044 0.0 0.0
364.5322688970956 3.9892577369132294 109.99208428368942 59.412543077183386 0.0 0.0
270.19427063198054 3.2233727418030007 82.03080845417766 52.72490447588915 0.0 0.0
177.5239994623439 37.70479109748083 64.56863716794741 46.568656011153024 0.0 0.0
394.3807913610117 169.41864566737664 224.47341096483655 140.75847134799486 0.0 0.0
-732.0550784769465 -1400.1470190352995 -919.1814251165576 53.84876167985288 0.0 0.0
-574.7274267824299 -1209.4059740541345 -737.1103978192447 -57.41966435376667 0.0 0.0
291.9974125690271 88.86170282935774 147.8301458509731 -167.95234429074316 0.0 0.0
131.1680877921984 35.673195280752786 50.052384921885334 -74.43827337566341 0.0 0.0
219.80120722031737 10.076050756960605 68.96245552309216 -71.75794410567927 0.0 0.0
307.44945438189416 3.3422373658530473 93.307547966337 -79.93092897751875 0.0 0.0
412.896633087902 2.1729767851483004 124.80147591250835 -80.63811104026583 0.0 0.0
508.9637443241097 14.143826225986855 176.94643967398179 -76.57154015347618 0.0 0.0
576.3771374932551 27.465131683707682 239.17661829642063 -76.44728288478332 0.0 0.0
638.6430647719438 39.19750621725129 297.4774868508305 -76.3511339871015 0.0 0.0
697.0077281138213 58.03338301328051 351.72690881866407 -75.19862680654384 0.0 0.0
755.1258475006705 81.66880537919558 402.2850984834148 -73.42370891935587 0.0 0.0
815.0722325411228 109.43625123786859 451.7889042666376 -71.14239151974586 0.0 0.0
876.6253020672759 139.07683236438626 500.3896241820998 -68.83149978445019 0.0 0.0
935.1373245009721 167.2250976697139 545.0478186888511 -66.85085418673485 0.0 0.0
987.112731453906 187.04303798828636 581.2553060455964 -65.31279858229753 0.0 0.0
1029.300960965507 198.08281798093435 607.8157582399972 -63.7471486493809 0.0 0.0
1061.6462580903758 201.848411586522 625.8602308285106 -61.26850567475973 0.0 0.0
1081.3449005951388 195.39782164697039 632.8187355451485 -56.639569218320915 0.0 0.0
1086.2894067457312 178.48450746836244 627.3442240886154 -48.25846664234156 0.0 0.0
1077.148622295638 153.60395659112547 610.6856544190982 -33.97218469676833 0.0 0.0
982.2508468451229 54.89893839857875 516.7235562953431 4.565947619994404e-11 0.0 0.0
1077.1486222953522 153.6039565908593 610.685654418947 33.97218469689038 0.0 0.0
1086.2894067457894 178.48450746847038 627.3442240886187 48.258466642438805 0.0 0.0
1081.3449005954105 195.3978216472965 632.8187355453477 56.63956921842352 0.0 0.0
1061.646258089902 201.8484115861103 625.8602308280979 61.26850567481311 0.0 0.0
1029.3009609656008 198.08281798108294 607.815758240023 63.74714864938929 0.0 0.0
987.1127314533875 187.04303798785733 581.2553060451555 65.31279858228115 0.0 0.0
935.1373245011173 167.22509766997692 545.0478186889474 66.85085418677895 0.0 0.0
876.625302067224 139.07683236452363 500.3896241820428 68.8314997846008 0.0 0.0
815.0722325413262 109.43625123825335 451.7889042667173 71.14239151981802 0.0 0.0
755.1258475003568 81.668805379017 402.28509848309534 73.42370891930666 0.0 0.0
697.0077281133681 58.033383013043405 351.72690881828186 75.19862680654131 0.0 0.0
638.643064771562 39.197506217064316 297.4774868504728 76.35113398705475 0.0 0.0
576.3771374930045 27.465131683757583 239.17661829616057 76.44728288476698 0.0 0.0
508.96374432362876 14.143826225775905 176.9464396736375 76.57154015344933 0.0 0.0
412.89663308748044 2.1729767851047423 124.80147591235327 80.63811104019634 0.0 0.0
307.44945438167133 3.3422373658463895 93.30754796627012 79.93092897744094 0.0 0.0
219.80120722019834 10.076050756845317 68.96245552302199 71.75794410558692 0.0 0.0
131.1680877921621 35.67319528066709 50.05238492184877 74.43827337549271 0.0 0.0
291.99741256865946 88.86170282922606 147.83014585070185 167.9523442905791 0.0 0.0
-574.7274267813498 -1209.4059740528166 -737.1103978179225 57.41966435373148 0.0 0.0
-437.6442444529797 -1040.146896300419 -579.0100557181809 -62.03842986988255 0.0 0.0
211.81203297035992 28.65601437118297 91.39162657892223 -180.0106700447849 0.0 0.0
94.18200527702805 28.66918584191246 36.85535733568216 -100.82191801006284 0.0 0.0
172.66617583559727 15.62107230751691 56.48617444293425 -91.65470717094607 0.0 0.0
253.27150271392733 3.957975497621714 77.17328575351739 -99.34406528691338 0.0 0.0
344.78458324843365 0.1155505419356235 102.90188972532476 -103.30655018187959 0.0 0.0
445.250621503599 8.700097204136341 145.09714686322943 -98.98152345013001 0.0 0.0
534.3048916413868 18.762761250483447 202.08045074781845 -97.24316702961038 0.0 0.0
592.4301144981413 33.67424056207359 261.4515828000253 -93.77629474987954 0.0 0.0
652.9462024302709 47.03181857992771 315.0812873475206 -92.9764044581876 0.0 0.0
708.2746572774518 66.40742763994719 364.6708307970876 -90.51229216139748 0.0 0.0
764.0262168179472 89.4734358079163 411.80321436254815 -87.55792853281692 0.0 0.0
821.120249485535 114.98559246198516 457.6814281526242 -84.67043189002153 0.0 0.0
875.9865015410605 138.09021686944905 498.9902576680283 -82.40712659720892 0.0 0.0
924.885734124075 155.99562639275885 533.2060388450578 -80.59546438654569 0.0 0.0
965.496262375557 166.5885755933268 558.9450674805612 -78.5818828143909 0.0 0.0
998.3869900033193 169.34081276561278 576.7443242629702 -75.99412336414193 0.0 0.0
1021.0594388124058 165.7349426521758 586.6583231995012 -70.90963073662296 0.0 0.0
1030.208342036934 152.29823396094795 585.1176926202623 -60.888389268065936 0.0 0.0
1021.325982943985 125.36023432587892 567.6257106369923 -43.07925057708898 0.0 0.0
893.8147313796367 -6.311073826222518 442.3019230473741 6.414957454126125e-11 0.0 0.0
1021.3259829439583 125.36023432591941 567.6257106370485 43.079250577268326 0.0 0.0
1030.2083420370982 152.29823396118962 585.1176926203754 60.88838926824529 0.0 0.0
1021.0594388126214 165.73494265247461 586.6583231996325 70.90963073682144 0.0 0.0
998.3869900027635 169.34081276512424 576.7443242624869 75.9941233642381 0.0 0.0
965.4962623753436 166.58857559317465 558.9450674804228 78.5818828144244 0.0 0.0
924.8857341238299 155.9956263926361 533.206038844801 80.59546438662132 0.0 0.0
875.9865015408163 138.09021686932326 498.99025766782927 82.40712659725389 0.0 0.0
821.1202494851184 114.9855924617141 457.68142815232477 84.67043189014534 0.0 0.0
764.0262168178824 89.47343580800676 411.80321436246453 87.55792853282732 0.0 0.0
708.2746572767871 66.4074276393706 364.67083079653435 90.5122921613156 0.0 0.0
652.9462024300459 47.03181857993303 315.08128734729604 92.97640445817183 0.0 0.0
592.4301144977971 33.67424056194846 261.45158279969775 93.77629474985343 0.0 0.0
534.3048916411636 18.762761250635172 202.08045074761014 97.24316702962783 0.0 0.0
445.250621503096 8.70009720389941 145.0971468629224 98.98152345009221 0.0 0.0
344.78458324806485 0.1155505421044456 102.90188972528595 103.30655018173235 0.0 0.0
253.27150271374094 3.9579754975687997 77.17328575344231 99.34406528682076 0.0 0.0
172.6661758354566 15.621072307375215 56.48617444284953 91.65470717082603 0.0 0.0
94.1820052769753 28.669185841890645 36.85535733565978 100.82191800984421 0.0 0.0
211.81203297001943 28.656014371094358 91.39162657871091 180.01067004462055 0.0 0.0
-437.6442444520581 -1040.1468962992562 -579.0100557170582 62.038429869883814 0.0 0.0
-322.54841792359235 -882.8126237433028 -443.9516528667712 -67.46687002248122 0.0 0.0
149.76621571258613 -19.51039918395294 49.519928089083606 -185.4863345447697 0.0 0.0
63.09459585766539 20.236211743340334 24.999242280301715 -122.90911067829109 0.0 0.0
128.4081394611362 19.021301827377723 44.22883238655417 -110.78316881556873 0.0 0.0
198.78265772600903 6.519883654957644 61.59756125264322 -116.61657654800003 0.0 0.0
273.7991110879328 -1.02081068613636 81.61582461393573 -123.40105142876311 0.0 0.0
374.58989013786953 -0.9783513785561968 112.5111742599111 -125.96690852856561 0.0 0.0
463.2915867778218 13.337352473871789 161.66683671454686 -117.3605905340732 0.0 0.0
542.6008756502334 21.43245874683221 216.42144539350986 -115.44305567543996 0.0 0.0
597.3896208996234 37.29536906451894 271.19468549283056 -109.61018216611095 0.0 0.0
653.652451842322 51.03669703263893 319.7956625919164 -107.1916227275095 0.0 0.0
705.8389380604323 69.09103094431335 365.21234947385113 -103.74518546641474 0.0 0.0
758.5258582830127 89.85641824421361 408.7790551124531 -100.29831628401377 0.0 0.0
809.1906861876948 109.34406841790567 447.893715320199 -97.65237460636692 0.0 0.0
855.041068516662 124.51002303377125 480.296730158688 -95.43610357076857 0.0 0.0
894.4780014255244 132.42244187477377 504.4561979160737 -93.53253063996829 0.0 0.0
927.1307933504219 137.63032042432138 523.5111156048151 -90.43089526563134 0.0 0.0
953.6892278851469 136.20807093494048 536.5149701098367 -85.08921484937589 0.0 0.0
968.4602497117819 125.9108046655124 539.4397133691594 -74.21136158114209 0.0 0.0
960.9604861997497 97.87047736479582 522.2669160311691 -53.522833232772506 0.0 0.0
793.3053470501402 -74.07604876804535 358.90216454742347 8.493117320540478e-11 0.0 0.0
960.9604861997688 97.87047736489009 522.2669160311862 53.52283323295396 0.0 0.0
968.4602497116022 125.91080466538214 539.4397133690613 74.21136158130595 0.0 0.0
953.689227885291 136.20807093520824 536.514970109926 85.08921484959608 0.0 0.0
927.1307933499997 137.63032042398052 523.5111156044359 90.43089526574248 0.0 0.0
894.4780014254624 132.42244187483098 504.4561979160468 93.53253064004349 0.0 0.0
855.0410685162938 124.51002303346016 480.29673015839063 95.43610357079734 0.0 0.0
809.1906861876778 109.3440684180702 447.8937153201033 97.65237460646922 0.0 0.0
758.5258582824283 89.8564182437464 408.77905511201317 100.29831628405285 0.0 0.0
705.8389380598977 69.09103094388608 365.2123494734575 103.74518546641109 0.0 0.0
653.6524518418311 51.03669703228387 319.79566259147083 107.19162272744832 0.0 0.0
597.3896208993673 37.29536906444812 271.19468549257095 109.61018216600276 0.0 0.0
542.600875649865 21.432458746784132 216.42144539320495 115.44305567548972 0.0 0.0
463.2915867774498 13.337352473776795 161.66683671427873 117.36059053400741 0.0 0.0
374.589890137406 -0.9783513786308724 112.51117425972703 125.9669085284788 0.0 0.0
273.79911108781266 -1.0208106857550234 81.61582461402078 123.40105142861862 0.0 0.0
198.78265772587872 6.51988365493529 61.59756125259682 116.61657654785483 0.0 0.0
128.40813946109105 19.021301827389017 44.22883238654401 110.78316881538724 0.0 0.0
63.09459585766867 20.2362117434514 24.99924228033602 122.90911067808675 0.0 0.0
149.76621571228097 -19.510399184043287 49.519928088914746 185.48633454456817 0.0 0.0
-322.5484179228746 -882.8126237422762 -443.9516528658746 67.46687002253512 0.0 0.0
-219.77000711560893 -754.2591456075895 -328.8628333663379 -84.80241380878553 0.0 0.0
94.6931727685188 -53.43133009086962 16.8314111850391 -181.53490078829284 0.0 0.0
36.116619796657325 12.877734701806538 14.698337125189909 -140.24134553037987 0.0 0.0
86.41378385623504 20.47634832110772 32.067039653202826 -127.72230573185043 0.0 0.0
144.29427074450206 9.17232636128953 46.04126383728204 -131.6816559595969 0.0 0.0
204.71484321601588 0.43951898307557213 61.50212987514307 -139.79528092971128 0.0 0.0
283.71271822951815 -1.9793480146811657 83.81239212765877 -147.19296139080456 0.0 0.0
375.2736130835239 2.2307512003914898 117.9197468623404 -142.06878531613287 0.0 0.0
460.6170735516546 13.67131944298534 165.31715504410943 -134.0472096577751 0.0 0.0
530.9102005388069 21.666063482566813 214.88848984106903 -130.011985861119 0.0 0.0
585.1421064169456 34.81777765538654 263.19417992461564 -123.48820675195445 0.0 0.0
635.0529590485171 48.65170027577154 307.59348160449866 -119.18791720131793 0.0 0.0
684.6995659508431 64.38549859660708 349.7165836785801 -115.60559478102238 0.0 0.0
731.0750041347035 79.49909459790274 387.2582758464548 -112.61860232016639 0.0 0.0
774.1993483206319 91.24997268758456 418.64759174868885 -110.12858237111611 0.0 0.0
811.6660723762028 99.0782243806469 442.9939841500569 -107.8987087895706 0.0 0.0
845.0895778918015 102.90017850911806 462.2093757970884 -105.0990774857301 0.0 0.0
874.2121292748366 104.38660716487806 478.1379684594851 -99.1879095012831 0.0 0.0
896.4441734251352 100.9583772374228 488.448971376452 -87.84090178712286 0.0 0.0
893.753876712426 73.5236256944614 474.3549483276736 -65.94014556542093 0.0 0.0
675.014434355628 -148.7831256287841 263.8030630959748 6.870948254800169e-11 0.0 0.0
893.7538767122783 73.52362569440999 474.354948327613 65.94014556561793 0.0 0.0
896.4441734247724 100.9583772371731 488.44897137622337 87.84090178737651 0.0 0.0
874.2121292748741 104.3866071650123 478.13796845950964 99.18790950150866 0.0 0.0
845.0895778915999 102.90017850901748 462.20937579688155 105.09907748584342 0.0 0.0
811.6660723760048 99.07822438048717 442.99398414993465 107.89870878958811 0.0 0.0
774.199348320136 91.24997268719657 418.64759174833097 110.12858237114365 0.0 0.0
731.0750041345827 79.4990945978663 387.2582758463457 112.6186023202402 0.0 0.0
684.6995659505277 64.3854985964046 349.7165836783163 115.60559478103471 0.0 0.0
635.0529590483571 48.65170027574552 307.59348160432967 119.18791720130235 0.0 0.0
585.1421064166913 34.817777655313684 263.1941799243504 123.48820675192162 0.0 0.0
530.9102005386333 21.66606348264936 214.8884898408856 130.0119858610686 0.0 0.0
460.6170735509777 13.671319442468793 165.31715504365147 134.04720965778955 0.0 0.0
375.2736130830346 2.2307512002145033 117.91974686208131 142.06878531607666 0.0 0.0
283.7127182291853 -1.9793480145030622 83.81239212762443 147.19296139065412 0.0 0.0
204.71484321590057 0.4395189832076061 61.502129875149095 139.7952809295407 0.0 0.0
144.29427074437177 9.172326361143297 46.041263837198656 131.68165595942935 0.0 0.0
86.41378385624525 20.476348321226954 32.06703965324166 127.72230573167388 0.0 0.0
36.116619796689164 12.877734701964037 14.69833712524663 140.24134553018982 0.0 0.0
94.69317276821867 -53.43133009099569 16.83141118488304 181.53490078804617 0.0 0.0
-219.77000711504738 -754.259145606686 -328.8628333656641 84.80241380891422 0.0 0.0
-155.66717857631863 -626.0508545123437 -247.80857937757662 -96.33026833538186 0.0 0.0
47.70405172906206 -76.85274132864234 -6.977392580532943 -171.47567830622302 0.0 0.0
11.21288484148043 6.972875200588372 5.457195398756165 -152.95497518004655 0.0 0.0
46.4863557120825 20.52046981542643 20.102047658252673 -141.5694915081786 0.0 0.0
90.14060085897752 11.516461864309619 30.497550330854292 -143.89892316257664 0.0 0.0
134.62584211641615 2.978146957257254 41.31438819822681 -152.19575199017504 0.0 0.0
188.5366928385306 -1.4762959267613445 55.789600236070214 -163.31205751200434 0.0 0.0
264.01631235323725 -3.7826886416186167 77.10473099273187 -169.10784827242088 0.0 0.0
347.5468754282106 -2.16321104565829 107.21058547422801 -160.82434789281965 0.0 0.0
423.5686090574724 4.701171492444797 145.3588118325896 -149.7849051250793 0.0 0.0
485.68924411305136 16.824260696021966 188.59812410245843 -139.60034824555504 0.0 0.0
539.0871418345611 25.458650383684247 229.00262900444673 -133.7690428304019 0.0 0.0
587.4485497796646 37.91112770721055 269.83114513058615 -129.74798312512615 0.0 0.0
630.8228966175963 48.67857178814179 306.8199374816236 -127.0812459016609 0.0 0.0
670.9525794643977 57.25772952398982 338.81857394124273 -124.49152972213804 0.0 0.0
707.2432280705261 63.19374224245858 364.4844623416993 -122.19649364640219 0.0 0.0
741.9342204684269 68.79727987063336 387.009942940691 -119.66326410806757 0.0 0.0
771.4612502138181 70.15070631547673 404.50649098623023 -113.45852529953144 0.0 0.0
801.8201924225463 71.17939404092759 421.70017558618883 -101.79744273365044 0.0 0.0
814.3341113576122 53.36547871943879 420.76360854358603 -81.2335119143965 0.0 0.0
530.9249123608472 -228.07885610866998 154.83389707821286 2.665601073204016e-11 0.0 0.0
814.3341113576691 53.365478719653 420.7636085437353 81.23351191464016 0.0 0.0
801.8201924221662 71.17939404069512 421.7001755859263 101.7974427339939 0.0 0.0
771.4612502134361 70.15070631516895 404.5064909859732 113.45852529974566 0.0 0.0
741.9342204680885 68.79727987028996 387.00994294038946 119.66326410813923 0.0 0.0
707.2432280701935 63.19374224220557 364.4844623414387 122.19649364637908 0.0 0.0
670.9525794639753 57.257729523668644 338.8185739409631 124.49152972220665 0.0 0.0
630.8228966177056 48.678571788470066 306.8199374816429 127.08124590171799 0.0 0.0
587.4485497791104 37.9111277066724 269.83114513019495 129.7479831251759 0.0 0.0
539.0871418348336 25.45865038419919 229.00262900456227 133.7690428304294 0.0 0.0
485.68924411282063 16.824260695937696 188.59812410224288 139.60034824550817 0.0 0.0
423.5686090570059 4.701171492125614 145.35881183227542 149.7849051250427 0.0 0.0
347.5468754276337 -2.1632110459968916 107.21058547392724 160.82434789279662 0.0 0.0
264.01631235280655 -3.782688641641712 77.10473099260167 169.1078482723832 0.0 0.0
188.5366928384064 -1.4762959264706943 55.78960023612642 163.31205751186104 0.0 0.0
134.62584211623138 2.978146957071817 41.31438819811634 152.19575198997558 0.0 0.0
90.14060085900054 11.51646186443675 30.497550330898978 143.89892316238993 0.0 0.0
46.486355712097186 20.520469815541198 20.102047658291514 141.5694915080074 0.0 0.0
11.212884841462849 6.972875200669046 5.4571953987749 152.95497517987178 0.0 0.0
47.704051728797516 -76.85274132871314 -6.977392580652247 171.47567830593007 0.0 0.0
-155.66717857594858 -626.0508545115981 -247.80857937713284 96.33026833543776 0.0 0.0
-113.20931876722138 -521.1431743823764 -190.3111435106034 -108.26381643910338 0.0 0.0
11.483615455973972 -89.35930297079892 -23.35125115847036 -159.63427855177014 0.0 0.0
-11.563891132698505 2.359409567837155 -2.7610619508880765 -161.09542865993754 0.0 0.0
8.362818422354103 19.675740664454647 8.411685337935555 -151.82098448332184 0.0 0.0
36.71895105639934 13.504450249787274 15.06818489024768 -152.74256771805378 0.0 0.0
64.22574008404224 5.585806323181458 20.940968814363938 -160.93573034010197 0.0 0.0
93.4322811958918 0.5394838167012701 28.07487250009121 -172.86770616341767 0.0 0.0
130.06142158173046 -0.7663654511860569 38.7911500809807 -178.86505088803048 0.0 0.0
180.96172291201006 -0.7265587602674275 54.30579472258615 -177.0932582983846 0.0 0.0
246.1639203286414 -7.23289829683322 72.0885504488043 -172.12278083686172 0.0 0.0
310.5133478614133 -11.016651989026052 92.97032441217686 -167.5214206444134 0.0 0.0
368.8828187081442 -14.649024802243234 114.71908765843511 -157.94863010688928 0.0 0.0
421.51093528021266 -10.54812075249195 140.6107816697013 -150.89863740902726 0.0 0.0
465.4514668756006 -1.8524117277770493 169.60560976816203 -144.09160658026806 0.0 0.0
502.20029503946733 10.369889388991954 199.9488352017286 -139.5279338283519 0.0 0.0
537.0613813605637 24.42261035255138 230.6240491648604 -140.34231884868043 0.0 0.0
574.0011850758962 32.32397350593792 261.839805932613 -141.0756223084756 0.0 0.0
608.2428553465934 33.13670286177767 288.57453634914407 -134.8888021105571 0.0 0.0
642.0404006090871 27.361697478296627 309.6418402914452 -120.9455683387431 0.0 0.0
687.8443784996338 31.253419963794084 338.48024917606665 -100.91072301355551 0.0 0.0
328.95573411999624 -313.98635367477436 17.665686861374198 2.9810820478815003e-11 0.0 0.0
687.8443784997654 31.253419964122116 338.48024917624423 100.9107230137995 0.0 0.0
642.0404006092144 27.36169747869724 309.6418402915092 120.94556833905827 0.0 0.0
608.2428553464057 33.13670286162429 288.57453634901435 134.88880211079154 0.0 0.0
574.001185075445 32.3239735054418 261.83980593227415 141.07562230858895 0.0 0.0
537.061381360662 24.422610352799463 230.6240491649346 140.3423188487201 0.0 0.0
502.20029503910524 10.369889388594775 199.94883520147263 139.52793382830123 0.0 0.0
465.4514668758934 -1.8524117273442062 169.6056097683739 144.09160658037007 0.0 0.0
421.5109352796028 -10.548120753241205 140.61078166926836 150.89863740903914 0.0 0.0
368.8828187080246 -14.64902480229714 114.7190876583511 157.94863010697287 0.0 0.0
310.5133478613999 -11.016651988730871 92.97032441223709 167.52142064435046 0.0 0.0
246.1639203281706 -7.232898297061724 72.08855044859763 172.1227808367126 0.0 0.0
180.96172291183322 -0.726558760194782 54.30579472255063 177.09325829839048 0.0 0.0
130.06142158164621 -0.7663654510405955 38.79115008099811 178.86505088793854 0.0 0.0
93.43228119589565 0.53948381694399 28.074872500166947 172.86770616321394 0.0 0.0
64.22574008401638 5.585806323095938 20.940968814330876 160.93573033991674 0.0 0.0
36.71895105652573 13.504450249992463 15.06818489034723 152.74256771784098 0.0 0.0
8.362818422400343 19.67574066452822 8.411685337971473 151.8209844831032 0.0 0.0
-11.56389113264871 2.359409567962189 -2.7610619508358463 161.09542865980978 0.0 0.0
11.483615455852675 -89.35930297083952 -23.351251158523652 159.63427855157818 0.0 0.0
-113.20931876706507 -521.14317438178 -190.31114351035632 108.26381643910543 0.0 0.0
-95.17369266020964 -414.8314242158152 -153.06332454108684 -102.97856021111281 0.0 0.0
-10.94785270562463 -96.97635296429083 -32.37018451135309 -151.41609089378557 0.0 0.0
-32.47881879239905 -1.5764661457465585 -10.21312372693892 -165.21341995228644 0.0 0.0
-27.916433564305663 18.452286544684252 -2.8385191553454607 -158.17602660728923 0.0 0.0
-15.735019208710815 14.9491384578346 -0.23533628693049868 -157.84537243027307 0.0 0.0
-6.467757345428824 8.243173852072252 0.5326708790684096 -164.7427172647555 0.0 0.0
-2.1427986549179288 2.6197882361041653 0.14099914218797238 -176.70798686689486 0.0 0.0
-0.3327115441709765 0.4062106916160184 0.02234700193402972 -182.43368280881444 0.0 0.0
0.10149848958421614 -0.16999404642770344 -0.019891400850866603 -182.66880540459647 0.0 0.0
0.1756508061890223 -0.07317893763761507 0.0325955731560299 -175.62433311753202 0.0 0.0
0.10532124745915183 -0.030800348946677047 0.023467525729994776 -170.7573573032 0.0 0.0
-0.046839894306337726 0.06849921806266224 0.0005834250002010322 -164.6856590394061 0.0 0.0
-0.7953649498019217 0.46328282812752697 -0.0511989090696936 -163.61093360408188 0.0 0.0
-1.6405131427427762 1.0558835220762326 -0.024063919178303195 -162.14712319582384 0.0 0.0
1.5481453638417548 0.22366716605591108 0.5156814847371223 -158.90350070440894 0.0 0.0
16.37884982185747 0.22706997552027275 3.002449433349689 -149.72561356342652 0.0 0.0
46.53828220603653 6.075281721759332 7.443472932032485 -141.9967757595045 0.0 0.0
130.8345284800073 -4.1241139665143365 20.612021136435438 -139.74795463513638 0.0 0.0
274.05174755039246 -58.75419244002982 35.52119629353733 -135.66153804768794 0.0 0.0
408.5550821216121 -50.26393044344916 124.13089425303393 -132.84611794539893 0.0 0.0
-155.11033827220467 -458.7686989696892 -242.79987845357604 -3.133493464702042e-12 0.0 0.0
408.5550821220299 -50.26393044293404 124.13089425327145 132.8461179455129 0.0 0.0
274.05174755077167 -58.75419243964579 35.52119629378576 135.66153804823642 0.0 0.0
130.83452848033443 -4.124113965894708 20.612021136774644 139.7479546355084 0.0 0.0
46.53828220596485 6.075281721539653 7.443472931937848 141.99677575969292 0.0 0.0
16.37884982216255 0.22706997578803367 3.0024494335374285 149.72561356339907 0.0 0.0
1.5481453640399252 0.22366716607293569 0.5156814848106066 158.9035007043444 0.0 0.0
-1.6405131426470234 1.0558835218431462 -0.02406391922770368 162.14712319588287 0.0 0.0
-0.7953649496609998 0.46328282774467766 -0.051198909151001004 163.6109336042149 0.0 0.0
-0.04683989420907153 0.06849921774859169 0.0005834249409311099 164.68565903944545 0.0 0.0
0.10532124758794481 -0.030800349192299237 0.02346752569715882 170.75735730319357 0.0 0.0
0.17565080657439225 -0.07317893713859913 0.032595573420747925 175.62433311738246 0.0 0.0
0.10149848968596231 -0.16999404644375815 -0.01989140082440244 182.66880540461054 0.0 0.0
-0.3327115441064148 0.4062106916460362 0.02234700196301942 182.43368280871746 0.0 0.0
-2.1427986546056648 2.6197882367144456 0.14099914246455425 176.7079868667158 0.0 0.0
-6.467757345494903 8.243173851785507 0.5326708789625458 164.74271726457607 0.0 0.0
-15.735019208720319 14.949138457713854 -0.23533628696969022 157.8453724300245 0.0 0.0
-27.916433564261112 18.45228654467925 -2.838519155333886 158.17602660710628 0.0 0.0
-32.478818792293985 -1.5764661456433013 -10.213123726876697 165.21341995217372 0.0 0.0
-10.947852705578372 -96.97635296424141 -32.37018451131898 151.41609089364096 0.0 0.0
-95.17369266016284 -414.83142421526185 -153.0633245409501 102.97856021100188 0.0 0.0
-77.48334496457569 -326.61351944103495 -121.23545984784091 -95.14366414760238 0.0 0.0
-26.405900639478546 -97.1500606845237 -37.06607443745285 -142.82958940139702 0.0 0.0
-51.68770627512674 -4.776232302362199 -16.939820555146476 -165.17272994916607 0.0 0.0
-62.447091475005145 16.984344393309435 -13.6372809310407 -160.50574249640096 0.0 0.0
-66.97976420513723 15.759509608613653 -15.3677391982115 -158.84985029098343 0.0 0.0
-76.35143001368799 10.630577458394706 -19.731946072947608 -163.63283575326102 0.0 0.0
-97.72646581021364 4.802817808158059 -27.699951485991036 -174.64530420835985 0.0 0.0
-130.7792066747821 1.4854208299878646 -38.79007302384168 -179.07287781289443 0.0 0.0
-180.7342609448388 0.4097902373785427 -54.33001783721461 -177.08163756426953 0.0 0.0
-245.83087228443594 7.04106556511958 -72.04597253445915 -172.07816399787808 0.0 0.0
-310.31699732631137 10.981384969985271 -92.91714293532176 -167.4495597504286 0.0 0.0
-368.9955703023753 14.79945773943858 -114.69762759789054 -158.13672034823597 0.0 0.0
-422.10174922742976 10.802936373665393 -140.85730140057814 -150.522364988842 0.0 0.0
-466.2625836107178 2.3994761618052927 -169.90781926121437 -143.53474212097973 0.0 0.0
-501.0531391016988 -7.7372355680197415 -198.01134553132516 -139.81178289045002 0.0 0.0
-528.0208109553449 -13.3394907266998 -218.2960667257003 -142.30870790660683 0.0 0.0
-544.0049701503547 -10.573536274236076 -225.58892016609374 -148.41636027209532 0.0 0.0
-545.7812068666445 6.0284806131382425 -212.86147070884158 -158.70605194296476 0.0 0.0
-534.6905061376784 25.997295486014877 -182.38362287960865 -161.07213529781822 0.0 0.0
-338.27380960753896 19.63622626119123 -112.69895677969131 -103.886688221518 0.0 0.0
-641.4439099620686 -647.2793576570732 -614.93953598354 -1.0368950142947142e-10 0.0 0.0
-338.27380960741414 19.636226261463364 -112.69895677953129 103.88668822195805 0.0 0.0
-534.6905061380332 25.997295485427998 -182.38362287987263 161.07213529821965 0.0 0.0
-545.7812068661884 6.028480613612338 -212.86147070854415 158.70605194321405 0.0 0.0
-544.0049701500242 -10.573536273865749 -225.58892016583272 148.41636027208463 0.0 0.0
-528.0208109551162 -13.339490726589514 -218.29606672556125 142.30870790663215 0.0 0.0
-501.05313910135885 -7.737235567582385 -198.01134553098464 139.81178289045044 0.0 0.0
-466.26258361026225 2.399476162105124 -169.9078192609323 143.5347421210314 0.0 0.0
-422.1017492271621 10.802936373572688 -140.85730140044333 150.52236498896423 0.0 0.0
-368.99557030207984 14.799457739139994 -114.69762759784804 158.13672034830307 0.0 0.0
-310.3169973258101 10.9813849698312 -92.91714293517757 167.44955975033622 0.0 0.0
-245.8308722836726 7.041065565403786 -72.04597253414745 172.0781639977872 0.0 0.0
-180.73426094430292 0.4097902375153497 -54.330017837013585 177.08163756427084 0.0 0.0
-130.77920667471216 1.4854208295497942 -38.79007302394929 179.0728778128393 0.0 0.0
-97.72646580967424 4.802817808952209 -27.69995148559297 174.64530420818488 0.0 0.0
-76.35143001351639 10.630577458401849 -19.73194607289461 163.63283575298752 0.0 0.0
-66.97976420503544 15.75950960855701 -15.367739198198299 158.84985029080823 0.0 0.0
-62.44709147490289 16.984344393325262 -13.63728093100577 160.5057424962713 0.0 0.0
-51.68770627509523 -4.776232302440362 -16.939820555160928 165.17272994906352 0.0 0.0
-26.405900639441114 -97.15006068444647 -37.06607443741828 142.8295894012331 0.0 0.0
-77.48334496445827 -326.61351944064995 -121.23545984768859 95.14366414743937 0.0 0.0
-62.270965551885226 -250.29586034268564 -93.77004776837124 -85.08346929897462 0.0 0.0
-38.07255079700187 -92.25566972004185 -39.09844595336619 -132.84281376845723 0.0 0.0
-69.45654221446195 -7.026450692484014 -22.94568567051015 -161.2323874134364 0.0 0.0
-95.3279717194699 15.283148079436144 -24.01530743023111 -158.68790548735782 0.0 0.0
-116.83004444378899 15.960334451567016 -30.254338671806252 -155.788131167402 0.0 0.0
-145.52737425519686 12.607885865097298 -39.79675024134502 -158.63789970507997 0.0 0.0
-191.0563882403189 5.646998950398785 -55.54627959231877 -163.2341824262972 0.0 0.0
-264.3654337221906 4.393609045358465 -77.06556400974877 -169.39228031748058 0.0 0.0
-347.4136502538871 1.7537776003278704 -107.29919939386966 -160.73983899772972 0.0 0.0
-423.49988413425825 -4.794605869819293 -145.3245717177417 -149.76084258597967 0.0 0.0
-485.59882098226535 -16.799271688776184 -188.550685765812 -139.58168033966996 0.0 0.0
-539.0418416165332 -25.380620366519494 -228.9863976544052 -133.69994124248134 0.0 0.0
-587.7050106235155 -37.8181891424082 -269.99050476734016 -129.34864180971618 0.0 0.0
-631.4048883340582 -48.35049193963279 -307.01702700079824 -126.34931043160705 0.0 0.0
-669.8757264539947 -55.19848971081725 -337.3182829684241 -124.3024804195659 0.0 0.0
-699.0605766801779 -55.83062911531684 -356.8998297640235 -124.7306248917946 0.0 0.0
-714.7903535836888 -48.92626780106171 -364.1566870951333 -128.9352438669221 0.0 0.0
-716.2911294958363 -39.202031043177556 -361.6096988242076 -137.62392831334964 0.0 0.0
-697.8963645104598 -21.018984080916084 -344.31867329894317 -146.93956852184024 0.0 0.0
-680.5821389167377 -18.758408166549316 -331.67110189361836 -145.12739566106748 0.0 0.0
-1289.6084632768384 -880.8753276190528 -1024.377292116533 4.4000358911944204e-11 0.0 0.0
-680.5821389165958 -18.758408166570092 -331.67110189356515 145.12739566133214 0.0 0.0
-697.8963645102749 -21.01898408099146 -344.31867329883534 146.9395685221703 0.0 0.0
-716.2911294958435 -39.20203104335751 -361.609698824216 137.6239283136254 0.0 0.0
-714.7903535834198 -48.926267800815594 -364.1566870949186 128.93524386699232 0.0 0.0
-699.0605766802302 -55.830629115539814 -356.8998297640485 124.73062489183033 0.0 0.0
-669.8757264536811 -55.19848971057935 -337.318282968154 124.30248041955579 0.0 0.0
-631.4048883339678 -48.35049193970212 -307.01702700071985 126.34931043168083 0.0 0.0
-587.705010623458 -37.818189142643874 -269.9905047672602 129.34864180979736 0.0 0.0
-539.0418416159858 -25.380620366242248 -228.986397653993 133.6999412424835 0.0 0.0
-485.5988209818008 -16.799271688610425 -188.5506857654939 139.58168033969244 0.0 0.0
-423.4998841340332 -4.794605870149181 -145.3245717176344 149.76084258603964 0.0 0.0
-347.4136502531975 1.7537776005600267 -107.29919939354859 160.73983899776147 0.0 0.0
-264.36543372153733 4.393609045672541 -77.06556400946731 169.39228031741882 0.0 0.0
-191.05638823999794 5.646998950339938 -55.54627959224834 163.2341824261849 0.0 0.0
-145.52737425492023 12.60788586529906 -39.7967502411998 158.6378997048766 0.0 0.0
-116.83004444362574 15.960334451557095 -30.2543386717614 155.78813116725522 0.0 0.0
-95.32797171935024 15.283148079410184 -24.015307430203563 158.68790548717723 0.0 0.0
-69.45654221441644 -7.026450692510218 -22.945685670504066 161.23238741330596 0.0 0.0
-38.072550796985276 -92.25566972002905 -39.098445953357384 132.84281376829304 0.0 0.0
-62.27096555177124 -250.2958603423653 -93.77004776824094 85.08346929883255 0.0 0.0
-50.189414633611754 -185.13026499712186 -70.59590388922007 -74.37739904711987 0.0 0.0
-47.36320402663176 -83.66263793721814 -39.30775258915497 -121.06564514623491 0.0 0.0
-86.17423211696027 -8.247166768415871 -28.32742415290821 -153.42176124848237 0.0 0.0
-126.74788013017054 13.443763086561642 -33.98860038340381 -152.84938500404792 0.0 0.0
-165.02451487830635 15.342471402562724 -44.89505385589243 -148.40709436184144 0.0 0.0
-211.67589908683632 13.228638925290022 -59.596414603533404 -146.83234708776075 0.0 0.0
-287.6886473603425 8.066925694782789 -82.72613763312359 -152.06600907612838 0.0 0.0
-375.4696448600185 -2.152066602999973 -118.01833906473934 -142.35422905991945 0.0 0.0
-460.6861872880545 -13.996161515715281 -165.39051361049752 -133.97256457907068 0.0 0.0
-530.9839712018438 -21.790549276481176 -214.93502976949202 -129.95423525864183 0.0 0.0
-585.0473092971672 -34.783633992435156 -263.1627191279017 -123.44269777289632 0.0 0.0
-634.9362160133144 -48.5097567395635 -307.4991785130074 -119.12257574427088 0.0 0.0
-684.7888270871804 -64.3078785173615 -349.72898801597296 -115.2262804039271 0.0 0.0
-731.7430683355544 -79.58186297527445 -387.61381891698784 -111.74089931731291 0.0 0.0
-774.1554810960022 -90.37396608814771 -418.20608793739154 -109.45451200851828 0.0 0.0
-805.9559821489121 -93.59773467584694 -437.6363027482514 -109.91150142255081 0.0 0.0
-823.0264766833255 -85.37330868931784 -443.36811873234547 -114.2047473180829 0.0 0.0
-818.481554848503 -64.08936855014677 -431.8926135574282 -122.21530137939584 0.0 0.0
-792.8660246823999 -33.56516426205964 -405.2532689261493 -130.50352236972924 0.0 0.0
-738.9004819087979 6.802974458416166 -361.6236677233924 -134.94145260540063 0.0 0.0
-1705.8160323414004 -1104.228046618381 -1351.8240194588436 1.0394884952802386e-10 0.0 0.0
-738.9004819085372 6.802974458609725 -361.6236677232701 134.94145260559728 0.0 0.0
-792.866024681743 -33.56516426148987 -405.2532689256838 130.50352236990864 0.0 0.0
-818.4815548480117 -64.08936854976531 -431.89261355708186 122.21530137954723 0.0 0.0
-823.02647668326 -85.37330868934455 -443.3681187322477 114.20474731819039 0.0 0.0
-805.9559821484917 -93.59773467557484 -437.63630274797276 109.91150142260788 0.0 0.0
-774.1554810957944 -90.37396608802285 -418.2060879371582 109.45451200856381 0.0 0.0
-731.7430683354295 -79.58186297530013 -387.6138189168802 111.74089931733101 0.0 0.0
-684.7888270870171 -64.30787851742969 -349.72898801584853 115.22628040397268 0.0 0.0
-634.9362160125678 -48.50975673892088 -307.49917851244936 119.1225757442542 0.0 0.0
-585.0473092972242 -34.78363399288176 -263.162719127901 123.44269777294573 0.0 0.0
-530.9839712016341 -21.79054927665535 -214.93502976926234 129.9542352586093 0.0 0.0
-460.6861872875178 -13.996161515615904 -165.39051361015908 133.97256457912255 0.0 0.0
-375.469644859203 -2.152066602294121 -118.01833906423435 142.35422905988867 0.0 0.0
-287.6886473600284 8.066925694379277 -82.7261376331592 152.06600907597948 0.0 0.0
-211.67589908654173 13.22863892516005 -59.59641460349603 146.8323470875847 0.0 0.0
-165.02451487810134 15.342471402589453 -44.89505385582234 148.40709436169902 0.0 0.0
-126.74788013007826 13.44376308651293 -33.98860038339145 152.84938500384027 0.0 0.0
-86.17423211688096 -8.247166768364938 -28.327424152868833 153.4217612483492 0.0 0.0
-47.36320402658819 -83.6626379372003 -39.30775258913654 121.06564514612604 0.0 0.0
-50.189414633502714 -185.13026499688792 -70.5959038891172 74.37739904699754 0.0 0.0
-41.181068836799064 -130.51032729272907 -51.50741883885843 -63.384172947421995 0.0 0.0
-55.06494949228322 -72.7035214656581 -38.330541287382395 -107.55954345718756 0.0 0.0
-102.05926644781378 -8.36803551593518 -33.128584937255866 -141.9030391258235 0.0 0.0
-156.83469195640498 11.338899352255215 -43.65540126766149 -142.82977031836435 0.0 0.0
-211.30145329225832 14.155160297755005 -59.12914855670448 -136.90539451206647 0.0 0.0
-279.1102791305769 14.160287626648193 -78.86901786044218 -133.5704035473173 0.0 0.0
-372.418521964515 3.1152327518047938 -112.11176779065936 -126.49282781740537 0.0 0.0
-463.0935623565838 -13.386814840045645 -161.6215886662157 -117.6716344877357 0.0 0.0
-542.819807447068 -21.757277456151208 -216.5671123634474 -115.32091988202993 0.0 0.0
-597.4917806866865 -37.405468249521505 -271.2878260991529 -109.5432285008533 0.0 0.0
-653.6022901781032 -50.94540571067449 -319.7554666489996 -107.1817919506544 0.0 0.0
-705.6210565915841 -68.85817551512525 -365.016569498017 -103.6841940551789 0.0 0.0
-758.3170820410367 -89.60010726771935 -408.5355416191818 -99.97935458341608 0.0 0.0
-809.7670303994056 -109.6172238949247 -448.27930778731024 -96.77581457755977 0.0 0.0
-856.3852851630179 -125.23264032107811 -481.3208256247199 -94.48044388179694 0.0 0.0
-892.8934552973676 -130.65620358090217 -502.9353548092052 -94.94015363789894 0.0 0.0
-909.2248012207907 -121.97679855428657 -507.56915194362716 -98.15009916758335 0.0 0.0
-897.4443674353095 -89.3832427113707 -486.6261701710914 -104.74411718456335 0.0 0.0
-853.3948562351442 -36.99765389391587 -440.24365708101664 -113.07355131623189 0.0 0.0
-769.635310921409 34.30108927125362 -366.8479764944878 -120.91198315975173 0.0 0.0
-2025.9542777442348 -1327.9150393105642 -1631.1749563075778 8.65227889335074e-11 0.0 0.0
-769.6353109211318 34.30108927144731 -366.8479764943038 120.91198315993685 0.0 0.0
-853.3948562345947 -36.99765389347249 -440.24365708061055 113.07355131641762 0.0 0.0
-897.4443674345266 -89.3832427106028 -486.62617017050593 104.74411718465066 0.0 0.0
-909.22480122079 -121.9767985544056 -507.5691519436088 98.15009916767045 0.0 0.0
-892.8934552969531 -130.65620358054105 -502.9353548089065 94.94015363792428 0.0 0.0
-856.3852851627248 -125.23264032091285 -481.32082562441883 94.48044388184616 0.0 0.0
-809.7670303987068 -109.61722389430959 -448.2793077867834 96.77581457755977 0.0 0.0
-758.3170820405492 -89.60010726737956 -408.5355416188488 99.97935458339083 0.0 0.0
-705.6210565912639 -68.85817551500496 -365.0165694977276 103.68419405525171 0.0 0.0
-653.6022901781027 -50.94540571091456 -319.75546664892187 107.18179195061822 0.0 0.0
-597.4917806861788 -37.40546824926922 -271.2878260987321 109.54322850081188 0.0 0.0
-542.8198074465363 -21.757277455942642 -216.56711236300015 115.32091988201094 0.0 0.0
-463.0935623560526 -13.386814839865975 -161.62158866585997 117.67163448772027 0.0 0.0
-372.4185219640026 3.115232751751767 -112.11176779048996 126.49282781735815 0.0 0.0
-279.11027913024816 14.1602876264588 -78.86901786040823 133.5704035471831 0.0 0.0
-211.3014532919842 14.155160297792955 -59.12914855661343 136.90539451191674 0.0 0.0
-156.8346919562148 11.338899352257554 -43.65540126760375 142.82977031815014 0.0 0.0
-102.05926644768627 -8.368035515903252 -33.12858493720787 141.90303912570346 0.0 0.0
-55.06494949225014 -72.70352146562415 -38.33054128736229 107.55954345708017 0.0 0.0
-41.181068836764275 -130.51032729257886 -51.507418838802934 63.38417294732628 0.0 0.0
-34.96138865389895 -86.09818826936248 -36.31787307697843 -52.16758203085584 0.0 0.0
-61.50658871207111 -60.46555649324447 -36.59164356159467 -92.45046171296332 0.0 0.0
-117.17179378231626 -7.498439304558948 -37.40106992606257 -126.82671360748442 0.0 0.0
-185.7529094243936 9.114197529623233 -52.99675374470081 -128.84370735262743 0.0 0.0
-255.21666430391966 12.074716491312376 -73.00954700652134 -121.06884543426922 0.0 0.0
-345.5018856532042 12.255116023099184 -98.96619931410831 -114.32932903116554 0.0 0.0
-443.65059379789693 -6.059967530637037 -144.08949285981797 -101.40794000111654 0.0 0.0
-534.2654206233838 -19.013284035961306 -202.11945130298398 -97.41945799794627 0.0 0.0
-592.6366179251237 -33.88489735851921 -261.5842460612848 -93.65474981460949 0.0 0.0
-653.0417141100024 -47.094466167431186 -315.1736844956218 -92.93024776927335 0.0 0.0
-708.2344693598695 -66.33954509562682 -364.64736321931093 -90.49692975375757 0.0 0.0
-763.7342028036439 -89.16869686942013 -411.52888834947146 -87.49192788240477 0.0 0.0
-820.556221523759 -114.45142047128749 -457.1265864085192 -84.40844554346441 0.0 0.0
-876.1573511775157 -138.23005794248292 -499.11227604940893 -81.67685182751858 0.0 0.0
-927.5158306718868 -158.33132677227405 -535.6735752378962 -79.6422441685403 0.0 0.0
-968.1809993562129 -168.83364582989097 -561.5311325327398 -79.29956291428047 0.0 0.0
-985.5398165104597 -156.9196153562072 -564.7636944676294 -81.53658305019428 0.0 0.0
-963.8239826124261 -113.41199394699811 -533.298695360998 -86.44179100239582 0.0 0.0
-897.3575575775654 -37.85893867196698 -464.31492623562394 -94.63161899004571 0.0 0.0
-785.7859579687721 61.84874399069555 -362.9100024008579 -107.262315543311 0.0 0.0
-2311.8430706895238 -1551.6342001461144 -1891.4388673749145 6.359357485052897e-11 0.0 0.0
-785.785957968832 61.84874399054388 -362.9100024008793 107.26231554349667 0.0 0.0
-897.3575575773625 -37.85893867182501 -464.31492623551503 94.63161899018516 0.0 0.0
-963.8239826122057 -113.41199394682249 -533.298695360808 86.44179100249275 0.0 0.0
-985.5398165100291 -156.91961535586307 -564.7636944673206 81.53658305024652 0.0 0.0
-968.180999356204 -168.8336458299941 -561.5311325326987 79.29956291435721 0.0 0.0
-927.5158306714513 -158.33132677194007 -535.6735752375333 79.64224416860492 0.0 0.0
-876.1573511766759 -138.23005794171104 -499.11227604870305 81.6768518274841 0.0 0.0
-820.5562215234538 -114.45142047109398 -457.1265864083294 84.40844554341517 0.0 0.0
-763.7342028031572 -89.16869686910786 -411.52888834905315 87.49192788244333 0.0 0.0
-708.2344693594849 -66.3395450954214 -364.6473632189857 90.4969297536615 0.0 0.0
-653.0417141093642 -47.094466167072625 -315.1736844951376 92.93024776932477 0.0 0.0
-592.6366179247166 -33.884897358327684 -261.5842460608795 93.65474981455883 0.0 0.0
-534.2654206227843 -19.01328403564805 -202.1194513025153 97.41945799790994 0.0 0.0
-443.6505937974556 -6.059967530606584 -144.08949285956075 101.40794000110972 0.0 0.0
-345.5018856526174 12.255116023147947 -98.96619931393644 114.32932903101452 0.0 0.0
-255.21666430367708 12.074716491248138 -73.00954700647151 121.06884543418282 0.0 0.0
-185.75290942422149 9.114197529604878 -52.99675374465414 128.84370735248666 0.0 0.0
-117.1717937821148 -7.49843930437908 -37.401069925948164 126.82671360735907 0.0 0.0
-61.506588712037974 -60.46555649323751 -36.591643561582636 92.45046171286305 0.0 0.0
-34.96138865385759 -86.09818826925267 -36.317873076933076 52.16758203080173 0.0 0.0
-31.127735775139556 -51.78450341237458 -24.873671756254236 -40.79760931236952 0.0 0.0
-66.63154831727911 -47.7906336370014 -34.326654586284164 -75.88260369050208 0.0 0.0
-131.45058225370727 -5.966990149865945 -41.22527172107195 -108.29722270199727 0.0 0.0
-213.50306790101538 6.961990394842154 -61.96820639477747 -110.78930446912138 0.0 0.0
-299.3710004981071 9.471454719910009 -86.75365082491331 -102.32745023129497 0.0 0.0
-400.46529906424473 1.9822026991541346 -121.8885647624421 -87.50033025571709 0.0 0.0
-507.3628009496216 -11.61586132650583 -175.51250122212357 -78.78110768625771 0.0 0.0
-576.315630422261 -27.62298556441447 -239.1599574187254 -76.38460266318597 0.0 0.0
-638.8318996371487 -39.30305760153135 -297.60656617744525 -76.25259297023038 0.0 0.0
-697.1017954879653 -58.081054411541835 -351.81947257904676 -75.17557617212294 0.0 0.0
-755.0838778002615 -81.60329241510259 -402.2527695870556 -73.41107503659194 0.0 0.0
-814.719777947684 -109.07670317061215 -451.4509222602902 -71.06554872365432 0.0 0.0
-875.8108285269564 -138.33656273021268 -499.6169143932982 -68.61063655074727 0.0 0.0
-934.7909439912195 -167.05331718941238 -544.7767212232781 -66.36654317649423 0.0 0.0
-989.8473984845893 -189.82331762160436 -584.0239668080742 -64.62177899521191 0.0 0.0
-1035.1389578137412 -203.50177300036376 -613.5458432741273 -63.80493338963635 0.0 0.0
-1055.1694268241724 -194.71332720543836 -619.5183148222967 -64.28001981874978 0.0 0.0
-1025.2847511003122 -141.12784510159355 -578.8470464063769 -67.38932380755423 0.0 0.0
-934.9666085618795 -39.65980192985381 -484.99074553461253 -76.26552566294438 0.0 0.0
-788.5146640822651 94.19913787612384 -348.99765893642643 -94.92066350822861 0.0 0.0
-2575.794514389067 -1770.8090518600952 -2137.6859884333567 1.8403056856186595e-11 0.0 0.0
-788.5146640820677 94.19913787625924 -348.9976589362799 94.92066350832862 0.0 0.0
-934.9666085619671 -39.65980193002139 -484.9907455347181 76.26552566311827 0.0 0.0
-1025.2847511001135 -141.127845101464 -578.8470464061747 67.38932380769143 0.0 0.0
-1055.1694268236886 -194.71332720499652 -619.5183148219419 64.2800198187495 0.0 0.0
-1035.138957813332 -203.5017730000235 -613.5458432737558 63.804933389666104 0.0 0.0
-989.8473984838898 -189.82331762099392 -584.0239668075269 64.62177899521497 0.0 0.0
-934.790943990291 -167.05331718859935 -544.7767212225185 66.36654317652479 0.0 0.0
-875.8108285268995 -138.33656273029302 -499.61691439326216 68.6106365507603 0.0 0.0
-814.7197779471636 -109.07670317024203 -451.450922259841 71.06554872363171 0.0 0.0
-755.0838777998299 -81.6032924148648 -402.2527695867215 73.41107503657469 0.0 0.0
-697.1017954873337 -58.08105441109951 -351.8194725785425 75.17557617209434 0.0 0.0
-638.8318996368231 -39.30305760145707 -297.60656617710464 76.25259297018913 0.0 0.0
-576.315630421697 -27.62298556410379 -239.15995741824378 76.38460266313163 0.0 0.0
-507.36280094918646 -11.615861326439257 -175.5125012217999 78.78110768622572 0.0 0.0
-400.46529906346797 1.9822026996020234 -121.8885647620742 87.50033025561972 0.0 0.0
-299.3710004978818 9.471454719701848 -86.75365082491162 102.32745023122256 0.0 0.0
-213.50306790080245 6.961990394854794 -61.96820639470922 110.78930446904883 0.0 0.0
-131.45058225354876 -5.96699014970292 -41.225271720975506 108.29722270188687 0.0 0.0
-66.6315483172559 -47.790633637019866 -34.326654586282714 75.88260369044481 0.0 0.0
-31.127735775083735 -51.78450341229629 -24.87367175621401 40.797609312356556 0.0 0.0
-29.06955978054122 -27.539266356855116 -16.9826478412189 -29.53752424473863 0.0 0.0
-70.02930611109227 -35.40224157930852 -31.629464307120223 -58.04293269473649 0.0 0.0
-144.6388745888171 -4.2391782619502205 -44.663415855230184 -86.25445507327487 0.0 0.0
-240.2259637698237 5.074773259279848 -70.54750599397752 -88.62385830417581 0.0 0.0
-343.3912685807185 4.94378127018118 -101.03213874653842 -79.15869943002663 0.0 0.0
-459.15469426443184 -4.139100565645604 -144.92139318554817 -63.155157684041725 0.0 0.0
-548.3401517722017 -19.735279832518515 -206.89906513528928 -57.88738601083171 0.0 0.0
-613.2822204692791 -30.143387709415492 -269.2637504674492 -57.66609281502358 0.0 0.0
-675.2052169256473 -46.789593860672014 -328.65333984473534 -57.7482559319195 0.0 0.0
-735.1297485087644 -68.95971322677187 -382.8930566401839 -57.210592720065954 0.0 0.0
-796.103701765965 -96.87175613950197 -434.92308958275487 -55.95379907807457 0.0 0.0
-860.1391750555499 -128.81296587957374 -486.9277348741852 -54.247548998789725 0.0 0.0
-925.1654000799191 -163.35898095527813 -538.6817425211613 -52.27992988077922 0.0 0.0
-988.3718059769438 -193.6985605388275 -586.1268411005558 -50.73468099099969 0.0 0.0
-1045.162886395763 -219.02758052046897 -627.3028955989226 -49.44780973812085 0.0 0.0
-1092.8366110910365 -235.79797192174516 -659.4823211629482 -48.18924213298905 0.0 0.0
-1119.5136183689015 -232.4377634553901 -671.2541582641536 -47.10955258579893 0.0 0.0
-1089.669376217633 -177.67826802805237 -629.8648724816826 -48.040782243136995 0.0 0.0
-974.842773226255 -49.92751622347342 -510.6723133706151 -57.55056249719312 0.0 0.0
-777.1855423579425 136.18471989775196 -322.6788502766009 -82.68815488743974 0.0 0.0
-2819.168514357523 -1976.420035471493 -2366.5837095782813 2.3643309532417334e-11 0.0 0.0
-777.1855423574788 136.1847198981792 -322.6788502762482 82.68815488753926 0.0 0.0
-974.8427732261715 -49.92751622343637 -510.67231337056427 57.55056249728496 0.0 0.0
-1089.669376217228 -177.67826802770324 -629.8648724813131 48.04078224321884 0.0 0.0
-1119.5136183688792 -232.43776345541906 -671.2541582641567 47.109552585795456 0.0 0.0
-1092.8366110904756 -235.79797192125872 -659.4823211624677 48.18924213303007 0.0 0.0
-1045.1628863951587 -219.02758051993737 -627.3028955984338 49.44780973809805 0.0 0.0
-988.371805976403 -193.6985605383843 -586.1268411001241 50.73468099099745 0.0 0.0
-925.1654000794084 -163.3589809548983 -538.6817425207619 52.279929880750466 0.0 0.0
-860.139175055446 -128.81296587963254 -486.9277348740471 54.24754899876561 0.0 0.0
-796.103701765719 -96.8717561394605 -434.92308958254574 55.95379907807022 0.0 0.0
-735.1297485085444 -68.95971322676493 -382.893056639959 57.21059272003742 0.0 0.0
-675.2052169250876 -46.7895938603246 -328.65333984426206 57.74825593188852 0.0 0.0
-613.2822204688083 -30.14338770921466 -269.26375046701685 57.66609281499983 0.0 0.0
-548.3401517717716 -19.735279832428603 -206.89906513492775 57.88738601081614 0.0 0.0
-459.15469426395 -4.139100565561207 -144.92139318530636 63.15515768402262 0.0 0.0
-343.39126858041874 4.943781269984843 -101.03213874651658 79.15869942995913 0.0 0.0
-240.22596376964225 5.0747732592515 -70.54750599393095 88.62385830409869 0.0 0.0
-144.63887458869706 -4.239178261963056 -44.66341585519804 86.25445507316621 0.0 0.0
-70.02930611104915 -35.4022415793173 -31.62946430710993 58.042932694686435 0.0 0.0
-29.069559780511756 -27.539266356801072 -16.982647841193838 29.537524244713218 0.0 0.0
-27.73986933882854 -13.171585757994867 -12.273436529047023 -19.084229195584108 0.0 0.0
-70.86123356513629 -24.096564243173322 -28.487339342492884 -39.18649483194364 0.0 0.0
-156.26843566699995 -2.9632736223806058 -47.76951278681417 -60.32143426394736 0.0 0.0
-266.1044398711499 3.623032468558266 -78.74896442258131 -62.03069156421604 0.0 0.0
-386.3451446175878 -2.8670026511168842 -116.97668408570122 -52.21286561839318 0.0 0.0
-505.82298112515105 -11.749357268940296 -169.55143331940684 -39.694841520559876 0.0 0.0
-576.4200122296622 -24.425178057852772 -233.90603283088637 -37.81242818373148 0.0 0.0
-644.4679405053157 -34.92012001768521 -296.49377210578075 -38.826886650142754 0.0 0.0
-705.98585836677 -54.645755355160546 -355.23910623820643 -39.15185218285821 0.0 0.0
-767.9652653999647 -79.96768586369006 -409.73816010403294 -38.87402743419852 0.0 0.0
-833.0729147359413 -111.88139972195737 -464.0500342032257 -38.10918681924323 0.0 0.0
-901.0423090441492 -148.68929611744977 -519.3157943367537 -36.93345375209924 0.0 0.0
-970.9748019057788 -186.0222938158479 -574.1467487765143 -35.70885908407476 0.0 0.0
-1036.994396351432 -221.11264480469492 -625.0611732644667 -34.63720930391949 0.0 0.0
-1095.8733872675373 -247.6571219677875 -667.7773707405811 -33.83813755072368 0.0 0.0
-1141.6901419819644 -261.9846229836789 -697.7897613014976 -32.730862176422036 0.0 0.0
-1171.192159406909 -262.0657312299629 -712.4886754777182 -30.84156085861673 0.0 0.0
-1166.2298533853207 -231.88019950368852 -695.3702121713648 -29.385865149805753 0.0 0.0
-1035.6617022169107 -85.76507830763343 -559.2940163967899 -37.04431995379433 0.0 0.0
-746.3067252763063 195.08720424818748 -277.7202809804813 -68.87013767793269 0.0 0.0
-3027.453842574714 -2150.551432086572 -2562.4467890536225 1.9198864720237907e-11 0.0 0.0
-746.3067252756548 195.08720424878936 -277.72028097997395 68.87013767801058 0.0 0.0
-1035.6617022170112 -85.76507830776622 -559.2940163968511 37.04431995393452 0.0 0.0
-1166.2298533847486 -231.88019950316848 -695.3702121708839 29.38586514983812 0.0 0.0
-1171.1921594071155 -262.06573123022093 -712.4886754778374 30.84156085863726 0.0 0.0
-1141.6901419814324 -261.9846229832231 -697.7897613010117 32.730862176445896 0.0 0.0
-1095.8733872672742 -247.65712196759532 -667.7773707403102 33.838137550697766 0.0 0.0
-1036.9943963510018 -221.11264480438498 -625.0611732640634 34.63720930390349 0.0 0.0
-970.9748019049716 -186.02229381517066 -574.1467487759322 35.70885908407325 0.0 0.0
-901.0423090439131 -148.68929611738884 -519.3157943365356 36.93345375212273 0.0 0.0
-833.0729147359489 -111.88139972215032 -464.0500342031832 38.10918681919261 0.0 0.0
-767.965265399708 -79.96768586365053 -409.73816010375435 38.874027434170934 0.0 0.0
-705.9858583663897 -54.645755354988495 -355.2391062378376 39.15185218281912 0.0 0.0
-644.4679405049493 -34.920120017599196 -296.4937721054096 38.82688665016033 0.0 0.0
-576.4200122294122 -24.425178057944343 -233.90603283060207 37.81242818373177 0.0 0.0
-505.8229811249251 -11.749357269119116 -169.55143331924765 39.6948415205628 0.0 0.0
-386.34514461713445 -2.867002651082781 -116.97668408556444 52.21286561832322 0.0 0.0
-266.1044398709726 3.623032468446986 -78.74896442256018 62.03069156413951 0.0 0.0
-156.2684356668745 -2.9632736224243104 -47.76951278678965 60.321434263856304 0.0 0.0
-70.86123356508871 -24.096564243139234 -28.487339342468374 39.186494831920136 0.0 0.0
-27.739869338832555 -13.171585757978303 -12.273436529043254 19.08422919553551 0.0 0.0
-25.120896702821227 -7.868004763799814 -9.896670439986313 -11.009988621091356 0.0 0.0
-67.74477750398934 -15.177682095039545 -24.876737879708664 -19.61447068734396 0.0 0.0
-165.48041471249792 -2.8062286096184312 -50.4859929966349 -29.540619980908183 0.0 0.0
-292.1493369563054 2.35282697215512 -86.94075636372614 -30.427258444059337 0.0 0.0
-432.6491927968926 -8.725021533579575 -133.83216990131157 -23.833747823002533 0.0 0.0
-538.8439933496601 -19.23233837827241 -194.1295102356919 -19.040446434936612 0.0 0.0
-604.2623909514505 -24.114187140091385 -256.38527405013235 -19.950232004434316 0.0 0.0
-670.4207711926804 -40.73501830290792 -320.3744984315714 -20.412411831656662 0.0 0.0
-732.6206924796254 -62.27680210023662 -377.9623106198627 -20.395503893852105 0.0 0.0
-796.9218227687525 -91.19562945403212 -433.5178542367055 -20.2068932333126 0.0 0.0
-865.9530823264533 -127.15797914654325 -490.4337784610099 -19.722672139313133 0.0 0.0
-938.8616005903208 -167.23100744114413 -548.9045866438677 -19.222634116988832 0.0 0.0
-1011.804401585074 -209.42804158280427 -607.1890206814503 -18.614515695026526 0.0 0.0
-1082.324642477529 -247.2590538595005 -661.4944994957536 -18.086751710338174 0.0 0.0
-1142.537723884396 -274.9179897729985 -705.3878717154385 -17.73851644864335 0.0 0.0
-1185.845127799146 -286.7920633761677 -732.9269383516047 -17.07655795697474 0.0 0.0
-1208.645955639161 -280.8637182910303 -741.2711116608381 -15.611229286301736 0.0 0.0
-1220.598258128541 -268.4472343341268 -740.8923520201548 -13.45167342531698 0.0 0.0
-1179.8968953643416 -210.24982686386082 -693.0360396644804 -15.723192928043463 0.0 0.0
-730.3419512238357 238.35232029928244 -247.40781350063256 -46.1944471338282 0.0 0.0
-3082.8415521421366 -2171.0851139033966 -2606.749058585149 3.561773098681442e-11 0.0 0.0
-730.341951223436 238.35232029968017 -247.40781350031676 46.19444713384983 0.0 0.0
-1179.8968953648482 -210.2498268644163 -693.0360396647939 15.723192928131066 0.0 0.0
-1220.5982581281576 -268.44723433377465 -740.892352019799 13.451673425319042 0.0 0.0
-1208.645955639462 -280.86371829140074 -741.2711116609912 15.611229286299537 0.0 0.0
-1185.8451277985062 -286.79206337560635 -732.9269383510662 17.076557957023198 0.0 0.0
-1142.5377238842016 -274.91798977289494 -705.387871715238 17.738516448696018 0.0 0.0
-1082.3246424767794 -247.25905385886446 -661.4944994950727 18.086751710364155 0.0 0.0
-1011.8044015843478 -209.42804158221347 -607.1890206809326 18.61451569507416 0.0 0.0
-938.8616005896292 -167.23100744060832 -548.9045866433471 19.222634117028548 0.0 0.0
-865.9530823265831 -127.1579791468803 -490.4337784610259 19.72267213929933 0.0 0.0
-796.9218227682679 -91.19562945374523 -433.5178542362791 20.206893233327968 0.0 0.0
-732.6206924793103 -62.27680210013869 -377.962310619532 20.395503893837443 0.0 0.0
-670.4207711922132 -40.73501830269289 -320.3744984311379 20.412411831606704 0.0 0.0
-604.2623909512428 -24.114187140206575 -256.38527404985837 19.950232004449067 0.0 0.0
-538.8439933492849 -19.23233837823922 -194.12951023539878 19.04044643494572 0.0 0.0
-432.64919279646705 -8.725021533540495 -133.83216990114627 23.833747822996074 0.0 0.0
-292.1493369560852 2.3528269720864317 -86.94075636368412 30.427258444026933 0.0 0.0
-165.48041471237477 -2.806228609667255 -50.485992996612595 29.54061998087759 0.0 0.0
-67.74477750391004 -15.1776820950491 -24.876737879687738 19.614470687390543 0.0 0.0
-25.120896702718 -7.868004763759357 -9.896670439943207 11.009988621085046 0.0 0.0
-14.679888607603381 -3.6907644706177556 -5.511195923466339 -7.089262294072512 0.0 0.0
-57.165796833358186 -8.177128425957642 -19.60287757779475 -8.15435663790549 0.0 0.0
-170.633501790258 -3.6314466200738984 -52.27948452309957 -10.137092915508996 0.0 0.0
-323.76648263546593 -6.2032817564195355 -98.97655190209507 -10.298785439872207 0.0 0.0
-485.857697242608 -31.818715685407277 -160.46721151094698 -5.1348697895098 0.0 0.0
-596.3392702083265 -58.46087912798419 -236.4905315691854 -1.710812698956417 0.0 0.0
-670.2315520992636 -75.28628728714556 -310.99819566224295 -1.6064136152542474 0.0 0.0
-751.3789769399034 -109.40465664139212 -390.5701376204411 -2.0580484899095346 0.0 0.0
-834.200559743966 -152.79283085776783 -468.41411119951863 -2.4746884599145567 0.0 0.0
-927.7321915715202 -210.58898219799153 -551.9020687767054 -3.10177026905537 0.0 0.0
-1035.7414429589246 -284.75815029630246 -646.5208289926642 -3.8356910759038456 0.0 0.0
-1157.7209501523073 -375.1964461372418 -753.9841178888687 -4.647518195277776 0.0 0.0
-1290.3348982584816 -475.46058156194977 -870.40800638902 -5.175831701115314 0.0 0.0
-1429.2106240133087 -581.4667510107455 -992.4239016701592 -5.713997468208754 0.0 0.0
-1563.4070653734848 -682.8586460777676 -1109.6449214846916 -6.210282445630561 0.0 0.0
-1677.3707297760789 -765.2918447296013 -1207.375536254518 -6.4324310413308154 0.0 0.0
-1752.3696386408624 -811.9814558740827 -1268.007796368291 -6.05980838298985 0.0 0.0
-1767.849138466787 -804.2961879519876 -1272.040225293133 -4.736806453379842 0.0 0.0
-1754.663390239103 -773.8599405130999 -1251.2547575752064 -4.6187450375499655 0.0 0.0
-1634.4360621420694 -647.7678505362134 -1125.9651783739228 -32.12158896031815 0.0 0.0
-4425.650865514845 -3485.2689225009653 -3918.927109533115 -2.8336444302112795e-11 0.0 0.0
-1634.436062142192 -647.7678505363707 -1125.9651783739753 32.121588960388635 0.0 0.0
-1754.6633902396738 -773.8599405137102 -1251.2547575754943 4.618745037595829 0.0 0.0
-1767.849138466619 -804.2961879518631 -1272.0402252928718 4.736806453331592 0.0 0.0
-1752.3696386407328 -811.9814558740218 -1268.0077963680908 6.059808382936033 0.0 0.0
-1677.3707297752135 -765.2918447288145 -1207.3755362537972 6.432431041337107 0.0 0.0
-1563.4070653727986 -682.8586460771644 -1109.6449214840961 6.210282445665886 0.0 0.0
-1429.2106240124135 -581.4667510099529 -992.42390166931 5.713997468154712 0.0 0.0
-1290.334898257543 -475.460581561156 -870.4080063882134 5.175831701111871 0.0 0.0
-1157.7209501511861 -375.1964461362643 -753.9841178880317 4.647518195278423 0.0 0.0
-1035.7414429587684 -284.75815029635345 -646.5208289923922 3.8356910758642364 0.0 0.0
-927.7321915710869 -210.5889821977627 -551.9020687762843 3.101770269045094 0.0 0.0
-834.2005597434287 -152.7928308574589 -468.4141111990191 2.4746884599154235 0.0 0.0
-751.3789769390926 -109.40465664080645 -390.5701376197868 2.0580484898405302 0.0 0.0
-670.2315520988852 -75.28628728706552 -310.99819566184874 1.6064136152899557 0.0 0.0
-596.3392702078664 -58.46087912778675 -236.49053156878176 1.7108126989828456 0.0 0.0
-485.8576972421884 -31.818715685416098 -160.467211510765 5.134869789550386 0.0 0.0
-323.76648263513687 -6.203281756315086 -98.9765519019667 10.298785439919197 0.0 0.0
-170.6335017900882 -3.6314466201028743 -52.279484523057306 10.137092915502327 0.0 0.0
-57.16579683335358 -8.177128426102138 -19.60287757783671 8.154356637983035 0.0 0.0
-14.67988860758523 -3.690764470619375 -5.511195923461381 7.089262294083646 0.0 0.0
SCALARS Strain float 6
LOOKUP_TABLE default
0.009234704897276666 -0.016691479443482267 0.0 -0.00038897655980350485 0.0 0.0
0.005787641467440616 -0.0008556929306756359 0.0 -0.00495466034461122 0.0 0.0
0.002045306826793159 -0.0006759534534335086 0.0 -0.0004772251533995428 0.0 0.0
0.0019085730667858219 -0.0007555603871142529 0.0 -5.440029446964449e-05 0.0 0.0
0.0024151926964730034 -0.0009465230377212095 0.0 2.475769169533892e-05 0.0 0.0
0.003421115798585849 -0.0016349373170221142 0.0 7.308084050197183e-05 0.0 0.0
0.0050008370715313825 -0.0028786479550930045 0.0 8.36281145374778e-05 0.0 0.0
0.0071301879111076456 -0.004628957271414714 0.0 8.745529590356324e-05 0.0 0.0
0.009854830466415903 -0.006945928880187904 0.0 9.719582765145758e-05 0.0 0.0
0.013232238067892144 -0.009852437436914835 0.0 0.00010248957692062584 0.0 0.0
0.017383661325887582 -0.013447663027169515 0.0 0.00014892831354372077 0.0 0.0
0.02253421331918055 -0.017956644921420253 0.0 0.00023482776278040834 0.0 0.0
0.02894379727186698 -0.02366871348225627 0.0 0.0002708822481952797 0.0 0.0
0.0368410939521312 -0.030832042134475636 0.0 0.0003041854318925611 0.0 0.0
0.0463337650535454 -0.03959579634638572 0.0 0.00026636951327055694 0.0 0.0
0.05724419713999328 -0.049823023048724255 0.0 0.0001276122597417505 0.0 0.0
0.06898902665729224 -0.060961115704925004 0.0 -0.00010066996418098728 0.0 0.0
0.08056386085678933 -0.07203581290392254 0.0 -0.00033277879849024543 0.0 0.0
0.0906857578299494 -0.08178696174159393 0.0 -0.00041693649423309165 0.0 0.0
0.09796895816468892 -0.08887375906661459 0.0 -0.00043301202803391284 0.0 0.0
0.10072510419240255 -0.09164172986599257 0.0 1.6670692604137116e-15 0.0 0.0
0.09796895816468186 -0.08887375906660785 0.0 0.00043301202803812475 0.0 0.0
0.09068575782993404 -0.08178696174158166 0.0 0.00041693649423744147 0.0 0.0
0.080563860856767 -0.07203581290389971 0.0 0.00033277879849373266 0.0 0.0
0.068989026657266 -0.0609611157049096 0.0 0.00010066996418252316 0.0 0.0
0.057244197139966396 -0.049823023048699344 0.0 -0.00012761225974295548 0.0 0.0
0.04633376505351839 -0.039595796346361053 0.0 -0.00026636951327023255 0.0 0.0
0.03684109395210286 -0.030832042134451336 0.0 -0.0003041854318927694 0.0 0.0
0.028943797271837754 -0.02366871348222807 0.0 -0.0002708822481958806 0.0 0.0
0.022534213319152528 -0.017956644921396807 0.0 -0.00023482776278179146 0.0 0.0
0.017383661325862863 -0.013447663027148431 0.0 -0.00014892831354378457 0.0 0.0
0.013232238067871663 -0.009852437436895362 0.0 -0.00010248957692158092 0.0 0.0
0.009854830466399225 -0.006945928880175079 0.0 -9.719582765254698e-05 0.0 0.0
0.007130187911094422 -0.004628957271401615 0.0 -8.745529590417354e-05 0.0 0.0
0.0050008370715219266 -0.0028786479550871745 0.0 -8.362811453769639e-05 0.0 0.0
0.0034211157985801818 -0.0016349373170177323 0.0 -7.308084050157627e-05 0.0 0.0
0.0024151926964704933 -0.0009465230377196918 0.0 -2.475769169444847e-05 0.0 0.0
0.0019085730667851662 -0.0007555603871146686 0.0 5.4400294469932956e-05 0.0 0.0
0.002045306826792116 -0.0006759534534332638 0.0 0.00047722515339833685 0.0 0.0
0.005787641467436948 -0.000855692930674731 0.0 0.004954660344604605 0.0 0.0
0.009234704897271281 -0.016691479443462637 0.0 0.0003889765597741558 0.0 0.0
0.006111874354298202 -0.014833054565034805 0.0 3.2762923429545485e-05 0.0 0.0
0.0037063444598746374 -0.0005966654762923106 0.0 -0.0038027040496270348 0.0 0.0
0.0014450381056610056 -0.0005456477532377695 0.0 -0.0003275251816927023 0.0 0.0
0.0017216800489794318 -0.0007273048043492081 0.0 -0.00021138209386072107 0.0 0.0
0.0021354326575958875 -0.000880277453712076 0.0 -0.00017749790359778875 0.0 0.0
0.002997050150199051 -0.0014753818583854085 0.0 -0.0001842540951733215 0.0 0.0
0.004414280148213003 -0.0026339132553295647 0.0 -0.0003218566596887545 0.0 0.0
0.006351901802518445 -0.004287337361320621 0.0 -0.00046385645928073574 0.0 0.0
0.008826011019750835 -0.006481304029979592 0.0 -0.0006274020625404729 0.0 0.0
0.01187282611759178 -0.009229981702121871 0.0 -0.0008082139882907639 0.0 0.0
0.015591059491342468 -0.012622965976300787 0.0 -0.0009815538194988102 0.0 0.0
0.020176575148871518 -0.016864347407461944 0.0 -0.0011490162210186633 0.0 0.0
0.02589862104136389 -0.022239403545105174 0.0 -0.0013901676109079161 0.0 0.0
0.03299949151948288 -0.029013624723882712 0.0 -0.001732066058178857 0.0 0.0
0.04158860104351612 -0.037329650507165114 0.0 -0.002169632419604709 0.0 0.0
0.05151292184638473 -0.04706198022837732 0.0 -0.002689990434579567 0.0 0.0
0.0622372318667671 -0.05768810056189956 0.0 -0.0031706530573775357 0.0 0.0
0.0728521433540916 -0.06828666009737065 0.0 -0.0033625365933527243 0.0 0.0
0.08217505443758674 -0.07765519046307415 0.0 -0.00301399959333694 0.0 0.0
0.08880249212904888 -0.08443317125161673 0.0 -0.0021837321027490413 0.0 0.0
0.09125231917619218 -0.08710929464076958 0.0 3.819427413231935e-15 0.0 0.0
0.08880249212904238 -0.08443317125161244 0.0 0.002183732102758115 0.0 0.0
0.08217505443757328 -0.07765519046306103 0.0 0.0030139995933469127 0.0 0.0
0.07285214335407252 -0.0682866600973505 0.0 0.003362536593359318 0.0 0.0
0.0622372318667444 -0.05768810056187988 0.0 0.0031706530573789083 0.0 0.0
0.05151292184636062 -0.047061980228354935 0.0 0.002689990434578477 0.0 0.0
0.04158860104349152 -0.03732965050714094 0.0 0.002169632419604983 0.0 0.0
0.032999491519457406 -0.02901362472386 0.0 0.0017320660581786951 0.0 0.0
0.025898621041337735 -0.022239403545079486 0.0 0.001390167610905346 0.0 0.0
0.020176575148846354 -0.016864347407437502 0.0 0.0011490162210161222 0.0 0.0
0.0155910594913202 -0.01262296597628147 0.0 0.0009815538194980701 0.0 0.0
0.011872826117572994 -0.009229981702104786 0.0 0.0008082139882881206 0.0 0.0
0.00882601101973559 -0.0064813040299662086 0.0 0.0006274020625391665 0.0 0.0
0.006351901802506625 -0.004287337361310067 0.0 0.00046385645927963446 0.0 0.0
0.004414280148204606 -0.002633913255324274 0.0 0.0003218566596872877 0.0 0.0
0.0029970501501943247 -0.0014753818583819228 0.0 0.00018425409517346388 0.0 0.0
0.0021354326575939416 -0.0008802774537108786 0.0 0.00017749790359803492 0.0 0.0
0.0017216800489787088 -0.000727304804349175 0.0 0.00021138209386049395 0.0 0.0
0.0014450381056609438 -0.0005456477532379328 0.0 0.00032752518169170444 0.0 0.0
0.003706344459870522 -0.000596665476290905 0.0 0.0038027040496196257 0.0 0.0
0.006111874354289642 -0.014833054565015196 0.0 -3.276292345159046e-05 0.0 0.0
0.004332655156918043 -0.011648877065098042 0.0 -0.002192225800393372 0.0 0.0
0.002543645089491215 -0.00028775676875433787 0.0 -0.0036647681112882656 0.0 0.0
0.0010264753476330669 -0.0003219660186152989 0.0 -0.00031827014052143347 0.0 0.0
0.0014774078104689279 -0.0006391813651830981 0.0 -0.00046118042314757747 0.0 0.0
0.00188250793880657 -0.0007706079989026487 0.0 -0.0004694134872178736 0.0 0.0
0.002588259801594124 -0.001181168045488828 0.0 -0.0004347765543752149 0.0 0.0
0.0038209526452587022 -0.0021443829127109717 0.0 -0.0006753707001420136 0.0 0.0
0.005563508046534974 -0.003609471733845177 0.0 -0.000971877336564828 0.0 0.0
0.007783420283763 -0.005552699078963826 0.0 -0.0013104693464987102 0.0 0.0
0.010501965835297672 -0.007987130505690334 0.0 -0.0016757562287433956 0.0 0.0
0.013796401186778634 -0.010977670227578964 0.0 -0.0020468529769779387 0.0 0.0
0.017835394726064577 -0.014694939898028024 0.0 -0.002422063466694856 0.0 0.0
0.022868656447075492 -0.01940250124569008 0.0 -0.0028634457233877434 0.0 0.0
0.02915526305905384 -0.025385092837561345 0.0 -0.0034803546111182347 0.0 0.0
0.03681804412287471 -0.03279394348804998 0.0 -0.004293706605206422 0.0 0.0
0.04572383279210051 -0.041521188815279046 0.0 -0.005226651137518262 0.0 0.0
0.055415539759798134 -0.051113728073762604 0.0 -0.006055179503129762 0.0 0.0
0.06509069198452634 -0.06076494009497341 0.0 -0.006364964380868222 0.0 0.0
0.07364126429050255 -0.06937363662295919 0.0 -0.005756086264075397 0.0 0.0
0.07975910605060116 -0.07560740166732594 0.0 -0.004122438205560143 0.0 0.0
0.0820389711895656 -0.07818027308757852 0.0 7.352842293362194e-15 0.0 0.0
0.07975910605059525 -0.0756074016673201 0.0 0.00412243820557711 0.0 0.0
0.07364126429049052 -0.06937363662294932 0.0 0.005756086264093742 0.0 0.0
0.0650906919845096 -0.06076494009495606 0.0 0.006364964380879693 0.0 0.0
0.055415539759778455 -0.051113728073741184 0.0 0.006055179503132262 0.0 0.0
0.045723832792079304 -0.04152118881525965 0.0 0.0052266511375174875 0.0 0.0
0.036818044122852736 -0.0327939434880274 0.0 0.004293706605206305 0.0 0.0
0.029155263059031086 -0.02538509283754271 0.0 0.003480354611118142 0.0 0.0
0.022868656447052393 -0.019402501245670355 0.0 0.0028634457233844062 0.0 0.0
0.017835394726042557 -0.014694939898003617 0.0 0.0024220634666907255 0.0 0.0
0.013796401186758891 -0.010977670227561832 0.0 0.002046852976974552 0.0 0.0
0.010501965835280833 -0.007987130505676397 0.0 0.0016757562287392416 0.0 0.0
0.007783420283749391 -0.005552699078950916 0.0 0.0013104693464961958 0.0 0.0
0.005563508046524312 -0.0036094717338367964 0.0 0.0009718773365626121 0.0 0.0
0.0038209526452514216 -0.002144382912705198 0.0 0.0006753707001398328 0.0 0.0
0.0025882598015903903 -0.0011811680454863705 0.0 0.00043477655437477666 0.0 0.0
0.0018825079388050336 -0.0007706079989026933 0.0 0.00046941348721779867 0.0 0.0
0.0014774078104684205 -0.0006391813651827292 0.0 0.0004611804231466496 0.0 0.0
0.0010264753476331753 -0.00032196601861564524 0.0 0.0003182701405203287 0.0 0.0
0.0025436450894871765 -0.00028775676875256287 0.0 0.003664768111278691 0.0 0.0
0.004332655156909631 -0.011648877065079484 0.0 0.0021922258003778555 0.0 0.0
0.003185955426008638 -0.009288722471275079 0.0 -0.00259816325376974 0.0 0.0
0.0018220151022060105 -0.0002454694062177762 0.0 -0.0034113633738020515 0.0 0.0
0.0007342098549134412 -0.00017461499945780432 0.0 -0.0006053925281463188 0.0 0.0
0.0012232023232925143 -0.0005123054196362253 0.0 -0.0006854968739919367 0.0 0.0
0.0016393311446133425 -0.0006823039227768093 0.0 -0.0007662444237702596 0.0 0.0
0.002211704347540102 -0.0009556409534133296 0.0 -0.0007132478092443281 0.0 0.0
0.0032341571779928436 -0.00167571352246271 0.0 -0.0009139215968232946 0.0 0.0
0.004766331047839021 -0.0029402793876328708 0.0 -0.0013584306381867264 0.0 0.0
0.006732035781351345 -0.004631425827369541 0.0 -0.001834851963363374 0.0 0.0
0.009125205773181898 -0.006751795429011994 0.0 -0.0023479418244217666 0.0 0.0
0.01200336794270452 -0.009347120921273648 0.0 -0.002871575253310408 0.0 0.0
0.015508844113680715 -0.012554762582555376 0.0 -0.0034061367853778 0.0 0.0
0.019868469464052484 -0.01660925616229641 0.0 -0.004016955192944951 0.0 0.0
0.025328542004217372 -0.02178882393650516 0.0 -0.004820948492470006 0.0 0.0
0.03203510487818749 -0.028261741646106238 0.0 -0.00588495112688004 0.0 0.0
0.03990028317683068 -0.03595459169186603 0.0 -0.007125781622634977 0.0 0.0
0.0485397017298397 -0.04449211968031596 0.0 -0.008229890091800139 0.0 0.0
0.05726516274630129 -0.05319032843043113 0.0 -0.008674969249431964 0.0 0.0
0.06508227589635716 -0.06105611770325148 0.0 -0.007938362076681946 0.0 0.0
0.07079519055309047 -0.06687022239111652 0.0 -0.005607470849899631 0.0 0.0
0.07296969921032533 -0.06946227707767862 0.0 9.957095911672376e-15 0.0 0.0
0.0707951905530849 -0.06687022239110892 0.0 0.005607470849922119 0.0 0.0
0.06508227589634644 -0.06105611770324365 0.0 0.007938362076703866 0.0 0.0
0.05726516274628654 -0.05319032843041541 0.0 0.008674969249445693 0.0 0.0
0.0485397017298226 -0.04449211968029981 0.0 0.008229890091803343 0.0 0.0
0.03990028317681195 -0.03595459169184797 0.0 0.007125781622633647 0.0 0.0
0.03203510487816811 -0.028261741646087656 0.0 0.0058849511268780266 0.0 0.0
0.025328542004197534 -0.021788823936487053 0.0 0.00482094849246858 0.0 0.0
0.01986846946403234 -0.01660925616227905 0.0 0.0040169551929418665 0.0 0.0
0.015508844113661477 -0.012554762582534802 0.0 0.0034061367853736556 0.0 0.0
0.012003367942686973 -0.009347120921257621 0.0 0.00287157525330506 0.0 0.0
0.00912520577316699 -0.006751795429000196 0.0 0.0023479418244167732 0.0 0.0
0.006732035781339402 -0.004631425827359162 0.0 0.0018348519633598825 0.0 0.0
0.004766331047829691 -0.002940279387624973 0.0 0.0013584306381837906 0.0 0.0
0.0032341571779868207 -0.0016757135224575415 0.0 0.0009139215968218381 0.0 0.0
0.0022117043475373774 -0.0009556409534115058 0.0 0.0007132478092434463 0.0 0.0
0.0016393311446122048 -0.0006823039227768079 0.0 0.0007662444237694892 0.0 0.0
0.0012232023232920824 -0.0005123054196361597 0.0 0.0006854968739907471 0.0 0.0
0.0007342098549135775 -0.00017461499945803287 0.0 0.0006053925281449894 0.0 0.0
0.0018220151022025018 -0.0002454694062160522 0.0 0.0034113633737927994 0.0 0.0
0.0031859554260012988 -0.00928872247125891 0.0 0.0025981632537589792 0.0 0.0
0.002366155036347245 -0.007408642633658865 0.0 -0.002397234605619747 0.0 0.0
0.0013300174935480093 -0.0002726389710492931 0.0 -0.0031279426810207132 0.0 0.0
0.0005272520686570348 -9.34647326673616e-05 0.0 -0.0009676975538836252 0.0 0.0
0.0009804328909646441 -0.0003827534639639036 0.0 -0.0009328376618526594 0.0 0.0
0.0013939242560002728 -0.0005857257765721043 0.0 -0.0010411841348830133 0.0 0.0
0.0018724690133650468 -0.0007927268417939289 0.0 -0.00102187630050582 0.0 0.0
0.002676831931054976 -0.0012767239106068187 0.0 -0.001117010341283184 0.0 0.0
0.003964816633758247 -0.002278778858811479 0.0 -0.0015771408481695735 0.0 0.0
0.005676762623201525 -0.0037261265075214742 0.0 -0.0021941229818707745 0.0 0.0
0.007746685133236805 -0.005533149093345275 0.0 -0.002818340665186456 0.0 0.0
0.010217284107456256 -0.007739124604729688 0.0 -0.003454781057733629 0.0 0.0
0.013201281067592167 -0.010448686291500909 0.0 -0.004100407911869893 0.0 0.0
0.016895988356316453 -0.013863804839088919 0.0 -0.004826990565657474 0.0 0.0
0.021537670824553407 -0.01824285034283432 0.0 -0.0057575931442322625 0.0 0.0
0.027273617400222692 -0.023762795249247112 0.0 -0.006971681645187699 0.0 0.0
0.03406171731879439 -0.03039131824442151 0.0 -0.008378846743380526 0.0 0.0
0.04161915024301582 -0.03784044044200501 0.0 -0.009660408264064954 0.0 0.0
0.049376161143323875 -0.045557038227749355 0.0 -0.010267238413262192 0.0 0.0
0.056478114723001786 -0.0526938784463964 0.0 -0.009515443844977253 0.0 0.0
0.06185269070907909 -0.05816981424246731 0.0 -0.0067478194088237825 0.0 0.0
0.06396387800222905 -0.06085613131915099 0.0 1.1003784688989882e-14 0.0 0.0
0.0618526907090738 -0.058169814242463466 0.0 0.006747819408849552 0.0 0.0
0.0564781147229921 -0.05269387844638633 0.0 0.00951544384500066 0.0 0.0
0.04937616114331111 -0.04555703822773501 0.0 0.010267238413277556 0.0 0.0
0.04161915024300106 -0.037840440441992834 0.0 0.009660408264069435 0.0 0.0
0.03406171731877812 -0.030391318244404678 0.0 0.008378846743378328 0.0 0.0
0.02727361740020604 -0.023762795249233228 0.0 0.006971681645185433 0.0 0.0
0.021537670824536555 -0.018242850342816475 0.0 0.00575759314423052 0.0 0.0
0.016895988356299404 -0.013863804839071821 0.0 0.004826990565655622 0.0 0.0
0.01320128106757592 -0.010448686291483324 0.0 0.004100407911864969 0.0 0.0
0.010217284107441361 -0.007739124604716423 0.0 0.003454781057726654 0.0 0.0
0.007746685133223892 -0.005533149093334505 0.0 0.002818340665181134 0.0 0.0
0.005676762623191116 -0.003726126507512916 0.0 0.0021941229818662816 0.0 0.0
0.003964816633750509 -0.0022787788588046636 0.0 0.0015771408481662858 0.0 0.0
0.002676831931050337 -0.0012767239106042522 0.0 0.001117010341281724 0.0 0.0
0.001872469013362982 -0.0007927268417931043 0.0 0.001021876300504987 0.0 0.0
0.0013939242559993068 -0.0005857257765717307 0.0 0.0010411841348820258 0.0 0.0
0.0009804328909643295 -0.0003827534639641981 0.0 0.0009328376618514614 0.0 0.0
0.000527252068657037 -9.34647326676809e-05 0.0 0.0009676975538814052 0.0 0.0
0.001330017493544891 -0.00027263897104771556 0.0 0.0031279426810129495 0.0 0.0
0.0023661550363410903 -0.00740864263364527 0.0 0.0023972346056134737 0.0 0.0
0.0017525034477532887 -0.005866105840696448 0.0 -0.0020698449495997594 0.0 0.0
0.0009736649764742699 -0.00030994562863333967 0.0 -0.0028438819910955944 0.0 0.0
0.0003726232116187485 -5.321011470950302e-05 0.0 -0.0013106849341308166 0.0 0.0
0.0007551700090523097 -0.0002656231638802127 0.0 -0.0011915111932222988 0.0 0.0
0.0011447265470473891 -0.0004759210191172562 0.0 -0.0012916714528860161 0.0 0.0
0.0015552227277898412 -0.0006596186807584532 0.0 -0.0013227213078006908 0.0 0.0
0.002172137185480513 -0.0009740414543385843 0.0 -0.0013656868551115177 0.0 0.0
0.0031844366450494103 -0.0016741404377700326 0.0 -0.001690233113397789 0.0 0.0
0.004613729236054622 -0.0028386173603341396 0.0 -0.0023482051027305197 0.0 0.0
0.006370982511936232 -0.00434086389522079 0.0 -0.003076864948958888 0.0 0.0
0.008440888901078433 -0.006162183069649458 0.0 -0.003784166128416088 0.0 0.0
0.010916652275637012 -0.008386046541660185 0.0 -0.004501715135738449 0.0 0.0
0.01396299125493052 -0.01117541671473023 0.0 -0.0052874455028713045 0.0 0.0
0.017787216589612152 -0.014761082637455066 0.0 -0.0062686757486976235 0.0 0.0
0.022548987729071896 -0.019320812930348118 0.0 -0.007539963344643921 0.0 0.0
0.028247704138488407 -0.024865644327589507 0.0 -0.00901039194670121 0.0 0.0
0.034675503235574924 -0.031186558981511098 0.0 -0.010363497422860465 0.0 0.0
0.04141740975990192 -0.03787050435057374 0.0 -0.011086145885498801 0.0 0.0
0.047798855646878156 -0.044263607109641855 0.0 -0.01045135414423813 0.0 0.0
0.05287273499981501 -0.049444111144001275 0.0 -0.007565960209565666 0.0 0.0
0.05494899992428835 -0.052289388763086773 0.0 1.10996281610376e-14 0.0 0.0
0.052872734999810315 -0.049444111143996494 0.0 0.007565960209591757 0.0 0.0
0.047798855646869635 -0.044263607109632265 0.0 0.010451354144263451 0.0 0.0
0.04141740975989106 -0.03787050435056159 0.0 0.011086145885514983 0.0 0.0
0.034675503235562136 -0.031186558981501383 0.0 0.010363497422865142 0.0 0.0
0.028247704138474408 -0.024865644327576524 0.0 0.009010391946699028 0.0 0.0
0.02254898772905788 -0.01932081293033535 0.0 0.0075399633446418726 0.0 0.0
0.017787216589598354 -0.014761082637442406 0.0 0.006268675748695956 0.0 0.0
0.013962991254916382 -0.011175416714718058 0.0 0.005287445502869107 0.0 0.0
0.010916652275623169 -0.008386046541646465 0.0 0.004501715135732514 0.0 0.0
0.00844088890106606 -0.006162183069640675 0.0 0.0037841661284083727 0.0 0.0
0.006370982511925534 -0.004340863895210981 0.0 0.0030768649489524933 0.0 0.0
0.004613729236045882 -0.0028386173603269947 0.0 0.0023482051027257597 0.0 0.0
0.0031844366450432425 -0.0016741404377644243 0.0 0.0016902331133953103 0.0 0.0
0.0021721371854771265 -0.0009740414543372899 0.0 0.0013656868551101947 0.0 0.0
0.0015552227277882951 -0.0006596186807573847 0.0 0.0013227213077993977 0.0 0.0
0.0011447265470465736 -0.0004759210191170694 0.0 0.00129167145288471 0.0 0.0
0.0007551700090519459 -0.0002656231638805831 0.0 0.001191511193220738 0.0 0.0
0.00037262321161855085 -5.3210114709499346e-05 0.0 0.0013106849341279745 0.0 0.0
0.0009736649764717907 -0.00030994562863214076 0.0 0.0028438819910894895 0.0 0.0
0.001752503447748552 -0.005866105840685299 0.0 0.0020698449495952878 0.0 0.0
0.0012888401330730806 -0.004587465522140415 0.0 -0.0017640564830873734 0.0 0.0
0.0007068698336994803 -0.00034731834446404675 0.0 -0.00258911031085704 0.0 0.0
0.0002476197982528639 -3.095969849024898e-05 0.0 -0.0015978184388177842 0.0 0.0
0.0005471654959847831 -0.00016384894863464682 0.0 -0.0014401811946023932 0.0 0.0
0.0008918968464956059 -0.000358096641228386 0.0 -0.001516419945193997 0.0 0.0
0.0012423485827921027 -0.0005335603327606381 0.0 -0.0015938616742404196 0.0 0.0
0.0017120292516176448 -0.0007397838255791958 0.0 -0.0016237592950080872 0.0 0.0
0.002461248139306622 -0.0011846565873741405 0.0 -0.0018182881354900787 0.0 0.0
0.0035685495190768716 -0.002007639959495719 0.0 -0.0023299996785764708 0.0 0.0
0.004995417932467561 -0.0031836585815536154 0.0 -0.0030808546079178012 0.0 0.0
0.006678483355249711 -0.004629513732315955 0.0 -0.003843477205971374 0.0 0.0
0.008657606728738314 -0.00637732209178112 0.0 -0.00459469928120088 0.0 0.0
0.01107117742507827 -0.008556854761798911 0.0 -0.00539205640971165 0.0 0.0
0.014096092103734283 -0.011363235163882685 0.0 -0.006358361791961433 0.0 0.0
0.017881135834523318 -0.014961440191105069 0.0 -0.007574721300215694 0.0 0.0
0.022468531322272778 -0.019405818039840025 0.0 -0.00900223384839838 0.0 0.0
0.027739606198960355 -0.02456306174020124 0.0 -0.010348440902877004 0.0 0.0
0.03340722511995969 -0.03015440058209983 0.0 -0.011136058629502234 0.0 0.0
0.039009937903874234 -0.035742316368381315 0.0 -0.010700980766063578 0.0 0.0
0.04378622488352592 -0.0406240291243345 0.0 -0.00803751526961254 0.0 0.0
0.04584774788563123 -0.04369148495997219 0.0 1.013035141883556e-14 0.0 0.0
0.04378622488352185 -0.04062402912433008 0.0 0.008037515269636707 0.0 0.0
0.0390099379038669 -0.03574231636837484 0.0 0.010700980766087734 0.0 0.0
0.0334072251199505 -0.030154400582089617 0.0 0.011136058629516894 0.0 0.0
0.02773960619894988 -0.024563061740193043 0.0 0.010348440902880156 0.0 0.0
0.02246853132226126 -0.01940581803982857 0.0 0.009002233848395998 0.0 0.0
0.017881135834512108 -0.014961440191095812 0.0 0.007574721300212582 0.0 0.0
0.014096092103723505 -0.0113632351638718 0.0 0.006358361791960085 0.0 0.0
0.011071177425067122 -0.008556854761790746 0.0 0.005392056409708854 0.0 0.0
0.008657606728727459 -0.006377322091772974 0.0 0.004594699281195188 0.0 0.0
0.006678483355239747 -0.004629513732308574 0.0 0.0038434772059638307 0.0 0.0
0.004995417932459 -0.0031836585815462255 0.0 0.0030808546079106693 0.0 0.0
0.003568549519070251 -0.0020076399594905424 0.0 0.002329999678573437 0.0 0.0
0.00246124813930218 -0.0011846565873711685 0.0 0.0018182881354870738 0.0 0.0
0.0017120292516152982 -0.0007397838255782938 0.0 0.0016237592950067224 0.0 0.0
0.001242348582790948 -0.0005335603327587912 0.0 0.0015938616742387952 0.0 0.0
0.0008918968464950446 -0.0003580966412282229 0.0 0.0015164199451920802 0.0 0.0
0.0005471654959845557 -0.00016384894863450745 0.0 0.0014401811946000342 0.0 0.0
0.00024761979825266224 -3.0959698489750034e-05 0.0 0.001597818438815128 0.0 0.0
0.0007068698336976627 -0.000347318344463358 0.0 0.00258911031085197 0.0 0.0
0.0012888401330696194 -0.004587465522131671 0.0 0.001764056483084741 0.0 0.0
0.0009343066805808534 -0.003540090652759927 0.0 -0.0015456160864509949 0.0 0.0
0.0005012399713366309 -0.00038505346361125426 0.0 -0.0023695579147300426 0.0 0.0
0.00013921800699535388 -1.1832623748046275e-05 0.0 -0.0018231039817720885 0.0 0.0
0.00035325383731970943 -7.533949365861818e-05 0.0 -0.0016603899745140554 0.0 0.0
0.0006386745849108797 -0.00023965886302473237 0.0 -0.001711986090136134 0.0 0.0
0.0009296457121944603 -0.000396332728045991 0.0 -0.0018139504833101375 0.0 0.0
0.0012782301814952288 -0.0005471386568102373 0.0 -0.0018755787028229996 0.0 0.0
0.00179852291279195 -0.000807674690499438 0.0 -0.00197918854342763 0.0 0.0
0.002581267889612541 -0.0013020567935350424 0.0 -0.0022690726840134444 0.0 0.0
0.0036397080871192295 -0.0021047785793943436 0.0 -0.0028538541359119825 0.0 0.0
0.004926069748787684 -0.0031597616207937862 0.0 -0.0036003504134568902 0.0 0.0
0.006425983854224088 -0.004443387572366514 0.0 -0.004346248167668044 0.0 0.0
0.00822665388686761 -0.006029050590415544 0.0 -0.005120704484158028 0.0 0.0
0.010469493071909537 -0.008073828322751414 0.0 -0.006009624374292393 0.0 0.0
0.013289737830355726 -0.010721544004841911 0.0 -0.007097824188417247 0.0 0.0
0.016755145500003236 -0.014047668938189416 0.0 -0.008351103504618703 0.0 0.0
0.02082565284331482 -0.018005254578918807 0.0 -0.009593753931818915 0.0 0.0
0.02535582737608674 -0.022442353966288315 0.0 -0.01039216921402231 0.0 0.0
0.030094512331594506 -0.0271228092875165 0.0 -0.01021021613774659 0.0 0.0
0.0345233132522215 -0.031640048350752396 0.0 -0.008110184781013443 0.0 0.0
0.03656992586196384 -0.034989857118318195 0.0 8.617672547783783e-15 0.0 0.0
0.034523313252218316 -0.03164004835074973 0.0 0.008110184781034634 0.0 0.0
0.030094512331588587 -0.027122809287512227 0.0 0.010210216137769058 0.0 0.0
0.025355827376079335 -0.022442353966280575 0.0 0.01039216921403521 0.0 0.0
0.020825652843306564 -0.01800525457891156 0.0 0.009593753931820648 0.0 0.0
0.01675514549999413 -0.014047668938181292 0.0 0.008351103504614913 0.0 0.0
0.01328973783034743 -0.010721544004836102 0.0 0.0070978241884152495 0.0 0.0
0.010469493071902071 -0.008073828322744482 0.0 0.0060096243742905784 0.0 0.0
0.008226653886859623 -0.006029050590409126 0.0 0.0051207044841548475 0.0 0.0
0.00642598385421607 -0.004443387572359205 0.0 0.004346248167662257 0.0 0.0
0.004926069748780128 -0.0031597616207874176 0.0 0.0036003504134498477 0.0 0.0
0.0036397080871131667 -0.00210477857938883 0.0 0.002853854135906716 0.0 0.0
0.002581267889608026 -0.0013020567935338291 0.0 0.0022690726840112548 0.0 0.0
0.0017985229127888017 -0.0008076746904981407 0.0 0.0019791885434254646 0.0 0.0
0.0012782301814936185 -0.0005471386568090052 0.0 0.0018755787028214635 0.0 0.0
0.0009296457121937027 -0.000396332728045188 0.0 0.001813950483308038 0.0 0.0
0.0006386745849105627 -0.0002396588630251353 0.0 0.0017119860901339216 0.0 0.0
0.00035325383731952333 -7.533949365809555e-05 0.0 0.0016603899745117599 0.0 0.0
0.0001392180069951944 -1.183262374739467e-05 0.0 0.0018231039817697067 0.0 0.0
0.0005012399713354766 -0.0003850534636112645 0.0 0.0023695579147260818 0.0 0.0
0.0009343066805786683 -0.003540090652753463 0.0 0.0015456160864500696 0.0 0.0
0.0006770464028699786 -0.002736099627802456 0.0 -0.001444455158291291 0.0 0.0
0.00034311175612361956 -0.0004153639204838459 0.0 -0.0021981956470671395 0.0 0.0
3.741448633364091e-05 9.87142454800903e-06 0.0 -0.0019878661259075826 0.0 0.0
0.00017149800234989382 2.7197440216294017e-06 0.0 -0.0018404033896063216 0.0 0.0
0.00038769122853737307 -0.0001233820024290901 0.0 -0.0018707372302059996 0.0 0.0
0.0006074204040094415 -0.00024958364946564104 0.0 -0.0019814241819295134 0.0 0.0
0.0008531805678981001 -0.0003674805736024211 0.0 -0.0020916851480162948 0.0 0.0
0.0011891798201848153 -0.0005145031107761141 0.0 -0.0021690908957690182 0.0 0.0
0.0016729540781526826 -0.0007677655784391216 0.0 -0.002300460747155985 0.0 0.0
0.0023449879005118706 -0.0011977307157468556 0.0 -0.002572340569516074 0.0 0.0
0.0032043883453405707 -0.0018221650875175069 0.0 -0.0031025931823156707 0.0 0.0
0.004221679313440056 -0.00263458247099467 0.0 -0.003733750461532851 0.0 0.0
0.005427090370412582 -0.003636708725177658 0.0 -0.004438535262583309 0.0 0.0
0.006914404780034587 -0.004941761968259859 0.0 -0.005224516931500371 0.0 0.0
0.008788528293230385 -0.006654470527371125 0.0 -0.006117295462016112 0.0 0.0
0.011126371388598698 -0.00885652852328933 0.0 -0.0071310116930387015 0.0 0.0
0.013967336279696133 -0.011571853393136617 0.0 -0.008177975018551255 0.0 0.0
0.01728870310045638 -0.01479646620542533 0.0 -0.008947108166131456 0.0 0.0
0.021030330396728816 -0.018440930872629484 0.0 -0.008943524750623879 0.0 0.0
0.02500512277245948 -0.02242819637521818 0.0 -0.007631482691205536 0.0 0.0
0.027010083980806482 -0.026094724074145717 0.0 6.736364938086936e-15 0.0 0.0
0.025005122772457235 -0.02242819637521512 0.0 0.007631482691223509 0.0 0.0
0.021030330396724636 -0.018440930872627066 0.0 0.008943524750643757 0.0 0.0
0.017288703100450754 -0.014796466205421587 0.0 0.008947108166141924 0.0 0.0
0.01396733627969026 -0.01157185339313272 0.0 0.008177975018550917 0.0 0.0
0.011126371388592944 -0.008856528523285263 0.0 0.007131011693034522 0.0 0.0
0.00878852829322479 -0.006654470527367576 0.0 0.006117295462015011 0.0 0.0
0.006914404780029659 -0.004941761968254021 0.0 0.005224516931499089 0.0 0.0
0.005427090370407714 -0.003636708725175757 0.0 0.004438535262581512 0.0 0.0
0.004221679313435011 -0.002634582470987821 0.0 0.003733750461527903 0.0 0.0
0.0032043883453359155 -0.0018221650875139134 0.0 0.00310259318231014 0.0 0.0
0.0023449879005082116 -0.0011977307157453978 0.0 0.002572340569513156 0.0 0.0
0.0016729540781501402 -0.000767765578439012 0.0 0.0023004607471545486 0.0 0.0
0.001189179820183001 -0.0005145031107754683 0.0 0.002169090895768412 0.0 0.0
0.0008531805678971047 -0.00036748057360098024 0.0 0.002091685148014944 0.0 0.0
0.0006074204040089746 -0.00024958364946613544 0.0 0.0019814241819270206 0.0 0.0
0.00038769122853722247 -0.00012338200242854985 0.0 0.0018707372302035259 0.0 0.0
0.0001714980023497369 2.719744022122935e-06 0.0 0.0018404033896040955 0.0 0.0
3.741448633340412e-05 9.871424548409488e-06 0.0 0.0019878661259053734 0.0 0.0
0.0003431117561229356 -0.0004153639204840712 0.0 0.0021981956470640274 0.0 0.0
0.0006770464028687335 -0.002736099627798093 0.0 0.0014444551582902837 0.0 0.0
0.0004994936265660802 -0.0021488208998864822 0.0 -0.0014002177594838097 0.0 0.0
0.0002264252387491105 -0.0004288791160957011 0.0 -0.002075295621832309 0.0 0.0
-5.7216145558362187e-05 3.3285058526863325e-05 0.0 -0.0020941369672001844 0.0 0.0
-3.105336220074268e-07 7.321102247149606e-05 0.0 -0.0019735685546173804 0.0 0.0
0.00014076589175998728 -1.0182719367118633e-05 0.0 -0.001985857297964756 0.0 0.0
0.00028131335010408385 -9.980831966090856e-05 0.0 -0.002091687775325515 0.0 0.0
0.0004214780107961434 -0.00017738473577077476 0.0 -0.0022245749322924533 0.0 0.0
0.0005923354970442658 -0.00025616308462121564 0.0 -0.0023324638005784936 0.0 0.0
0.0008325599109988253 -0.0003634779932501677 0.0 -0.002400826030567478 0.0 0.0
0.001151364004366045 -0.0005293248594048198 0.0 -0.002476930552832318 0.0 0.0
0.0015625833007114189 -0.0007776492601422904 0.0 -0.0026946062366367024 0.0 0.0
0.002069214198517481 -0.0011313084353888085 0.0 -0.0030778301091451046 0.0 0.0
0.002672490806803095 -0.0015693436144082493 0.0 -0.0035768020631995953 0.0 0.0
0.0034242082185406285 -0.002157798888708658 0.0 -0.004188727932918716 0.0 0.0
0.004376783327842537 -0.002951745288582159 0.0 -0.004922246293146849 0.0 0.0
0.005592149648840641 -0.00400793356708469 0.0 -0.005794271820494231 0.0 0.0
0.0071698497864649356 -0.005433519857436042 0.0 -0.006748157149859158 0.0 0.0
0.009241180609822876 -0.007381272420707841 0.0 -0.00754080562945722 0.0 0.0
0.011866282865207583 -0.00990819498844993 0.0 -0.007643159486745721 0.0 0.0
0.015159671601738148 -0.013044515506459145 0.0 -0.00664868727200774 0.0 0.0
0.017004454531583998 -0.01693918439697081 0.0 5.364632349458276e-15 0.0 0.0
0.015159671601737264 -0.01304451550645699 0.0 0.006648687272021857 0.0 0.0
0.011866282865205075 -0.009908194988446231 0.0 0.007643159486760521 0.0 0.0
0.009241180609819434 -0.0073812724207053485 0.0 0.007540805629464483 0.0 0.0
0.007169849786461964 -0.00543351985743564 0.0 0.006748157149858403 0.0 0.0
0.005592149648838028 -0.004007933567081234 0.0 0.005794271820490883 0.0 0.0
0.004376783327840165 -0.0029517452885818216 0.0 0.004922246293145069 0.0 0.0
0.0034242082185389055 -0.0021577988887050586 0.0 0.004188727932917812 0.0 0.0
0.002672490806801303 -0.0015693436144100428 0.0 0.0035768020631979473 0.0 0.0
0.0020692141985153897 -0.0011313084353872325 0.0 0.003077830109141993 0.0 0.0
0.0015625833007096577 -0.0007776492601398449 0.0 0.002694606236632287 0.0 0.0
0.0011513640043645432 -0.0005293248594051301 0.0 0.002476930552830366 0.0 0.0
0.000832559910997758 -0.0003634779932493796 0.0 0.0024008260305665298 0.0 0.0
0.0005923354970435702 -0.00025616308462036275 0.0 0.0023324638005769436 0.0 0.0
0.0004214780107957264 -0.00017738473576971314 0.0 0.0022245749322901756 0.0 0.0
0.0002813133501041377 -9.980831966125124e-05 0.0 0.002091687775323212 0.0 0.0
0.0001407658917601603 -1.0182719366429475e-05 0.0 0.001985857297962002 0.0 0.0
-3.1053362194304553e-07 7.321102247174314e-05 0.0 0.0019735685546145875 0.0 0.0
-5.721614555837929e-05 3.328505852733453e-05 0.0 0.002094136967198605 0.0 0.0
0.00022642523874871507 -0.00042887911609573596 0.0 0.0020752956218300024 0.0 0.0
0.0004994936265653837 -0.0021488208998837873 0.0 0.0014002177594835278 0.0 0.0
0.00037662220091811 -0.001702759083752334 0.0 -0.0013398343344244012 0.0 0.0
0.0001392075848320123 -0.0004197963651945494 0.0 -0.0019685280769153953 0.0 0.0
-0.00014469951387800743 5.61626965478383e-05 0.0 -0.0021469927362630513 0.0 0.0
-0.00016297985576058148 0.00013837452341064772 0.0 -0.002056034066134495 0.0 0.0
-0.00010072624588675609 9.868381181114267e-05 0.0 -0.002051996126285441 0.0 0.0
-4.55005259444573e-05 5.011670071588098e-05 0.0 -0.0021414664417582713 0.0 0.0
-1.4790955001152376e-05 1.6026932447900768e-05 0.0 -0.002274629866417625 0.0 0.0
-2.4335192292290926e-06 2.6252115279872337e-06 0.0 -0.0023926055655844177 0.0 0.0
7.905038011923036e-07 -9.672777165809935e-07 0.0 -0.0024462673774211805 0.0 0.0
1.0337587921438658e-06 -7.63623908728913e-07 0.0 -0.0025121213671363066 0.0 0.0
6.759623287120274e-07 -4.799854802270924e-07 0.0 -0.0025800856152779156 0.0 0.0
-3.13056947550891e-07 3.575424450639206e-07 0.0 -0.002809129962057608 0.0 0.0
-3.6759532570135485e-06 2.909391195525296e-06 0.0 -0.003150727310736172 0.0 0.0
-8.889483976664452e-06 7.672096896975161e-06 0.0 -0.0036385247967416303 0.0 0.0
-1.3691209015202744e-06 5.9441089307891895e-06 0.0 -0.00432009636081038 0.0 0.0
7.828937204094823e-05 -3.90726335794932e-05 0.0 -0.00520469010550365 0.0 0.0
0.00039068024889989464 -0.0002705661751802378 0.0 -0.006262902827664743 0.0 0.0
0.00120628307869192 -0.0009116382073920647 0.0 -0.007376371226580524 0.0 0.0
0.0027523011033201575 -0.0022506636005123573 0.0 -0.00828259722990284 0.0 0.0
0.005105273363029534 -0.004140429271167142 0.0 -0.008259518397769939 0.0 0.0
0.006484947171287399 -0.008198305002678338 0.0 5.6669079151472346e-15 0.0 0.0
0.0051052733630297335 -0.0041404292711649995 0.0 0.00825951839778195 0.0 0.0
0.0027523011033194636 -0.002250663600509641 0.0 0.008282597229912352 0.0 0.0
0.0012062830786914417 -0.0009116382073890124 0.0 0.0073763712265836855 0.0 0.0
0.0003906802489002161 -0.00027056617518133165 0.0 0.00626290282766263 0.0 0.0
7.828937204165995e-05 -3.907263357868349e-05 0.0 0.005204690105500084 0.0 0.0
-1.369120900801611e-06 5.944108930648514e-06 0.0 0.004320096360808684 0.0 0.0
-8.889483975491942e-06 7.672096895428601e-06 0.0 0.0036385247967407634 0.0 0.0
-3.675953255580396e-06 2.909391193445593e-06 0.0 0.0031507273107345335 0.0 0.0
-3.130569463782721e-07 3.575424433390769e-07 0.0 0.0028091299620557945 0.0 0.0
6.759623298424979e-07 -4.799854816569315e-07 0.0 0.0025800856152745745 0.0 0.0
1.0337587929349132e-06 -7.636239072218009e-07 0.0 0.0025121213671340913 0.0 0.0
7.905038016956445e-07 -9.672777168600367e-07 0.0 0.0024462673774207234 0.0 0.0
-2.4335192290007867e-06 2.6252115280061056e-06 0.0 0.002392605565582914 0.0 0.0
-1.4790955000923359e-05 1.6026932450070094e-05 0.0 0.0022746298664156153 0.0 0.0
-4.55005259442033e-05 5.011670071470958e-05 0.0 0.0021414664417560686 0.0 0.0
-0.00010072624588656966 9.868381181061728e-05 0.0 0.002051996126282307 0.0 0.0
-0.0001629798557603784 0.0001383745234105469 0.0 0.0020560340661322286 0.0 0.0
-0.00014469951387772965 5.616269654810167e-05 0.0 0.0021469927362616588 0.0 0.0
0.0001392075848320555 -0.00041979636519433317 0.0 0.0019685280769134116 0.0 0.0
0.0003766222009177504 -0.0017027590837505001 0.0 0.0013398343344237745 0.0 0.0
0.0002844261468397058 -0.001335090795346609 0.0 -0.0012370223627846087 0.0 0.0
6.92857369192289e-05 -0.0003905298084421391 0.0 -0.0018567590684545419 0.0 0.0
-0.00022587650126300822 7.906898299773735e-05 0.0 -0.002147419471968962 0.0 0.0
-0.0003172136334509828 0.00019901357742551 0.0 -0.002086262297878944 0.0 0.0
-0.00033551230730929373 0.00020233631971982357 0.0 -0.0020653100319244716 0.0 0.0
-0.0003684820036400484 0.00019757640638356664 0.0 -0.0021290287380094277 0.0 0.0
-0.00044996155983223723 0.00020871436085614383 0.0 -0.002239409156694996 0.0 0.0
-0.0005972669585554452 0.00026109924081817306 0.0 -0.002335352394829508 0.0 0.0
-0.000830959723977926 0.00036165074688857603 0.0 -0.002400959066126898 0.0 0.0
-0.0011493501664864873 0.0005276786079789365 0.0 -0.0024758934301962834 0.0 0.0
-0.0015612076301299944 0.0007767021195466986 0.0 -0.002693805171709287 0.0 0.0
-0.00206969868115321 0.0011319112008315538 0.0 -0.0030770610311885 0.0 0.0
-0.0026794101569464056 0.0015750979284377203 0.0 -0.003572481062414428 0.0 0.0
-0.0034422510834224568 0.0021747092300022025 0.0 -0.004177259677867145 0.0 0.0
-0.00438237800555896 0.002968774565156874 0.0 -0.00492735686995495 0.0 0.0
-0.005446177668948801 0.003926864932133311 0.0 -0.005899202141215603 0.0 0.0
-0.006450293147245953 0.004889958294064587 0.0 -0.007143706970087506 0.0 0.0
-0.007043883309474443 0.005538654915549744 0.0 -0.008702598264323697 0.0 0.0
-0.006751870120363738 0.005369716453301196 0.0 -0.01042596554950519 0.0 0.0
-0.004723154621785231 0.0038604815415331506 0.0 -0.011115761060943466 0.0 0.0
-0.0031258726215807045 -0.0006814529856246608 0.0 6.68519059554562e-15 0.0 0.0
-0.0047231546217856545 0.0038604815415346893 0.0 0.011115761060955527 0.0 0.0
-0.006751870120363077 0.005369716453298123 0.0 0.01042596554951575 0.0 0.0
-0.007043883309471657 0.005538654915549415 0.0 0.00870259826432742 0.0 0.0
-0.00645029314724189 0.004889958294062447 0.0 0.007143706970084346 0.0 0.0
-0.0054461776689446574 0.00392686493213012 0.0 0.005899202141212647 0.0 0.0
-0.004382378005555261 0.0029687745651554107 0.0 0.004927356869952563 0.0 0.0
-0.0034422510834183845 0.0021747092300002037 0.0 0.004177259677865164 0.0 0.0
-0.002679410156941656 0.0015750979284335901 0.0 0.0035724810624113267 0.0 0.0
-0.002069698681148789 0.001131911200827213 0.0 0.003077061031184422 0.0 0.0
-0.0015612076301261605 0.0007767021195438471 0.0 0.002693805171704636 0.0 0.0
-0.001149350166483428 0.0005276786079785954 0.0 0.002475893430194147 0.0 0.0
-0.0008309597239758008 0.0003616507468881983 0.0 0.0024009590661268282 0.0 0.0
-0.0005972669585542367 0.00026109924081601317 0.0 0.002335352394828373 0.0 0.0
-0.00044996155983136846 0.00020871436085873838 0.0 0.0022394091566930604 0.0 0.0
-0.00036848200363929785 0.0001975764063832794 0.0 0.0021290287380060133 0.0 0.0
-0.0003355123073087322 0.0002023363197193787 0.0 0.002065310031922295 0.0 0.0
-0.00031721363345056116 0.0001990135774253943 0.0 0.0020862622978773766 0.0 0.0
-0.00022587650126271137 7.906898299731824e-05 0.0 0.002147419471967702 0.0 0.0
6.92857369192516e-05 -0.0003905298084418635 0.0 0.001856759068452367 0.0 0.0
0.0002844261468394698 -0.0013350907953450636 0.0 0.001237022362782451 0.0 0.0
0.00020474403440715912 -0.0010174177817330434 0.0 -0.00110608510088667 0.0 0.0
6.668597455414228e-06 -0.0003455219303962342 0.0 -0.0017269523661473858 0.0 0.0
-0.00030234604668459233 0.0001034886895296801 0.0 -0.0020961648274428228 0.0 0.0
-0.00046359847671248824 0.00025547821457195846 0.0 -0.0020631772225142213 0.0 0.0
-0.0005624819005020266 0.00030023380317397 0.0 -0.002023843304854817 0.0 0.0
-0.0006848147243533944 0.0003393822470905049 0.0 -0.0020529440473730926 0.0 0.0
-0.0008782533026173119 0.0003963419648528341 0.0 -0.0021178340454902685 0.0 0.0
-0.0011931279772921055 0.0005190531999189433 0.0 -0.0021759936137858964 0.0 0.0
-0.00167148423522862 0.0007655660911337621 0.0 -0.0022996674777033357 0.0 0.0
-0.0023429687329177447 0.0011957306094741058 0.0 -0.002569677013767666 0.0 0.0
-0.0032032848121305215 0.0018213872552568138 0.0 -0.0031012439366314704 0.0 0.0
-0.004221812530127001 0.0026349948108520837 0.0 -0.0037334896455743904 0.0 0.0
-0.005431745316469286 0.0036407179074027553 0.0 -0.00443010645475095 0.0 0.0
-0.006931162937078133 0.004957618122529154 0.0 -0.005195814269920579 0.0 0.0
-0.008802894616361296 0.006678109618094822 0.0 -0.006099277124979862 0.0 0.0
-0.011015788652663281 0.008792206581544245 0.0 -0.007289842207492056 0.0 0.0
-0.013343717164106119 0.01108797054714634 0.0 -0.008941230517207896 0.0 0.0
-0.015325686910582635 0.013091481191856196 0.0 -0.011128217079352826 0.0 0.0
-0.01610407698005371 0.013977608936273065 0.0 -0.013403892109659648 0.0 0.0
-0.014300673972195883 0.012238650674242074 0.0 -0.013908403038865334 0.0 0.0
-0.012550107919035033 0.006160385753010183 0.0 6.418043180245192e-15 0.0 0.0
-0.014300673972195553 0.012238650674242095 0.0 0.013908403038880822 0.0 0.0
-0.016104076980051226 0.013977608936271011 0.0 0.01340389210967519 0.0 0.0
-0.015325686910577643 0.013091481191850806 0.0 0.011128217079359883 0.0 0.0
-0.013343717164098915 0.011087970547140603 0.0 0.00894123051720604 0.0 0.0
-0.011015788652655772 0.008792206581536127 0.0 0.007289842207488658 0.0 0.0
-0.008802894616354667 0.0066781096180898395 0.0 0.006099277124975851 0.0 0.0
-0.006931162937071196 0.004957618122522413 0.0 0.005195814269917782 0.0 0.0
-0.005431745316461583 0.0036407179073948597 0.0 0.004430106454747065 0.0 0.0
-0.004221812530119372 0.0026349948108469285 0.0 0.003733489645569031 0.0 0.0
-0.003203284812123458 0.0018213872552516465 0.0 0.0031012439366254743 0.0 0.0
-0.0023429687329121103 0.0011957306094684758 0.0 0.0025696770137642803 0.0 0.0
-0.0016714842352250107 0.0007655660911326384 0.0 0.0022996674777024757 0.0 0.0
-0.0011931279772899681 0.0005190531999193036 0.0 0.0021759936137852776 0.0 0.0
-0.0008782533026159087 0.00039634196485209615 0.0 0.0021178340454894307 0.0 0.0
-0.0006848147243524964 0.00033938224709085445 0.0 0.002052944047370369 0.0 0.0
-0.0005624819005012963 0.0003002338031736362 0.0 0.002023843304853072 0.0 0.0
-0.0004635984767119071 0.0002554782145716199 0.0 0.0020631772225119843 0.0 0.0
-0.0003023460466843276 0.00010348868952946615 0.0 0.002096164827441068 0.0 0.0
6.668597455464728e-06 -0.00034552193039620827 0.0 0.0017269523661452553 0.0 0.0
0.00020474403440705308 -0.0010174177817318085 0.0 0.001106085100884823 0.0 0.0
0.00013264218016145401 -0.0007444733472013616 0.0 -0.0009669061876125583 0.0 0.0
-5.236043434359924e-05 -0.00028830675476241045 0.0 -0.0015738533869010536 0.0 0.0
-0.0003760357961530835 0.00013053815007651467 0.0 -0.0019946142398660706 0.0 0.0
-0.000602849220320611 0.0003082637854665856 0.0 -0.0019866684140029357 0.0 0.0
-0.0007805685377130967 0.0003914143430498247 0.0 -0.00192842617054328 0.0 0.0
-0.000990176607852067 0.00047408925832190783 0.0 -0.0019122231578021756 0.0 0.0
-0.0012985386376632266 0.0005738429190658602 0.0 -0.0019165097295076772 0.0 0.0
-0.0018021094277529486 0.0008108293266974333 0.0 -0.001987785186576943 0.0 0.0
-0.0025794034452261724 0.0012992577203976372 0.0 -0.0022663834173372657 0.0 0.0
-0.003638107219212542 0.0021026881187169084 0.0 -0.0028498171920200615 0.0 0.0
-0.004925658597457378 0.0031596712726223697 0.0 -0.0035994956729531982 0.0 0.0
-0.006425577106259191 0.004443686803727418 0.0 -0.004346610420826771 0.0 0.0
-0.008226748619850639 0.0060290972326096075 0.0 -0.005110702785798977 0.0 0.0
-0.010477995644984148 0.008080118144528513 0.0 -0.00596366762509088 0.0 0.0
-0.013306474189424749 0.010741003119181665 0.0 -0.007025680161111461 0.0 0.0
-0.01670051886066177 0.014026138821515755 0.0 -0.008473950224385582 0.0 0.0
-0.02039702042054823 0.017693484612338262 0.0 -0.010611790058173708 0.0 0.0
-0.023734066316485607 0.021105139242573453 0.0 -0.013578312854722073 0.0 0.0
-0.025436099828130828 0.02297273091238961 0.0 -0.016610287650872326 0.0 0.0
-0.023430542961245478 0.021243100610897927 0.0 -0.01762603449274561 0.0 0.0
-0.021188153634062474 0.01286441743722522 0.0 7.931155732165962e-15 0.0 0.0
-0.02343054296124419 0.021243100610897785 0.0 0.017626034492764397 0.0 0.0
-0.025436099828126717 0.02297273091238887 0.0 0.01661028765089069 0.0 0.0
-0.023734066316477866 0.02110513924256813 0.0 0.013578312854731121 0.0 0.0
-0.0203970204205382 0.0176934846123285 0.0 0.010611790058174116 0.0 0.0
-0.016700518860651853 0.014026138821507769 0.0 0.008473950224382703 0.0 0.0
-0.013306474189415206 0.010741003119173252 0.0 0.0070256801611070455 0.0 0.0
-0.01047799564497391 0.008080118144518693 0.0 0.005963667625086674 0.0 0.0
-0.008226748619839984 0.006029097232599392 0.0 0.0051107027857941745 0.0 0.0
-0.006425577106248693 0.0044436868037208135 0.0 0.004346610420820105 0.0 0.0
-0.004925658597447432 0.0031596712726114184 0.0 0.0035994956729457498 0.0 0.0
-0.003638107219204315 0.002102688118709211 0.0 0.0028498171920137228 0.0 0.0
-0.0025794034452204834 0.0012992577203938976 0.0 0.0022663834173351563 0.0 0.0
-0.0018021094277495277 0.0008108293266980644 0.0 0.001987785186575368 0.0 0.0
-0.0012985386376611723 0.0005738429190635555 0.0 0.0019165097295058124 0.0 0.0
-0.0009901766078507456 0.00047408925832098984 0.0 0.0019122231578007384 0.0 0.0
-0.0007805685377122062 0.0003914143430495376 0.0 0.001928426170541407 0.0 0.0
-0.0006028492203201142 0.0003082637854662004 0.0 0.0019866684140003458 0.0 0.0
-0.0003760357961528146 0.0001305381500765851 0.0 0.0019946142398643 0.0 0.0
-5.236043434343573e-05 -0.00028830675476241446 0.0 0.0015738533868996385 0.0 0.0
0.000132642180161494 -0.0007444733472005095 0.0 0.0009669061876109677 0.0 0.0
6.71212750133859e-05 -0.0005135189049501592 0.0 -0.0008239942483164861 0.0 0.0
-0.00010877365333185557 -0.000223424371158792 0.0 -0.0013982740649434388 0.0 0.0
-0.0004480604440593479 0.000160948670257338 0.0 -0.0018447767875215417 0.0 0.0
-0.0007358789333168698 0.0003575765455732472 0.0 -0.0018572912034765612 0.0 0.0
-0.0009886448215370857 0.00047609393843467006 0.0 -0.0017784658749645877 0.0 0.0
-0.0012836104638300268 0.0005959724451012848 0.0 -0.001709202332183104 0.0 0.0
-0.0017260949910096494 0.0007632648770029103 0.0 -0.001672364254457619 0.0 0.0
-0.002461966283499949 0.0011857623517742583 0.0 -0.0018270766750783543 0.0 0.0
-0.0035670440316425854 0.002004755637109253 0.0 -0.002325181720262073 0.0 0.0
-0.004994699436625185 0.003182329286554464 0.0 -0.0030767861457029213 0.0 0.0
-0.006678871336544797 0.004630265011469241 0.0 -0.0038429639438925496 0.0 0.0
-0.008656654753234976 0.006377663150025519 0.0 -0.004595603805931298 0.0 0.0
-0.011065158135236971 0.008552252673381095 0.0 -0.0053830106836097995 0.0 0.0
-0.014087959603831322 0.011352632479668038 0.0 -0.006302640679813837 0.0 0.0
-0.017887284471955364 0.014961406969737724 0.0 -0.007450233669709179 0.0 0.0
-0.022481349511056105 0.01942837948368116 0.0 -0.009043135090074985 0.0 0.0
-0.027558342295174044 0.024480800791736604 0.0 -0.011435354949788697 0.0 0.0
-0.0322147100826824 0.02926780252204686 0.0 -0.014845235748860118 0.0 0.0
-0.03469991592550417 0.032038643591083986 0.0 -0.018600078779736573 0.0 0.0
-0.03221384268943007 0.03000947829314078 0.0 -0.020431418949932747 0.0 0.0
-0.029307179191362637 0.019337090644637865 0.0 9.206177487008915e-15 0.0 0.0
-0.03221384268942791 0.030009478293139963 0.0 0.02043141894995416 0.0 0.0
-0.03469991592549835 0.032038643591081 0.0 0.018600078779757976 0.0 0.0
-0.03221471008267259 0.02926780252204131 0.0 0.014845235748871567 0.0 0.0
-0.027558342295161742 0.02448080079172414 0.0 0.01143535494979023 0.0 0.0
-0.0224813495110434 0.0194283794836706 0.0 0.009043135090072034 0.0 0.0
-0.017887284471942797 0.014961406969726691 0.0 0.00745023366970517 0.0 0.0
-0.01408795960381825 0.011352632479658646 0.0 0.006302640679809662 0.0 0.0
-0.011065158135223388 0.00855225267336983 0.0 0.005383010683604714 0.0 0.0
-0.008656654753221452 0.00637766315001346 0.0 0.004595603805925043 0.0 0.0
-0.006678871336532408 0.00463026501145653 0.0 0.0038429639438836826 0.0 0.0
-0.0049946994366147105 0.0031823292865463494 0.0 0.003076786145696113 0.0 0.0
-0.0035670440316346143 0.0020047556371036567 0.0 0.0023251817202577314 0.0 0.0
-0.0024619662834948204 0.0011857623517712622 0.0 0.0018270766750759278 0.0 0.0
-0.00172609499100659 0.0007632648770011082 0.0 0.001672364254456506 0.0 0.0
-0.0012836104638283398 0.0005959724450999444 0.0 0.0017092023321817087 0.0 0.0
-0.0009886448215359728 0.00047609393843436344 0.0 0.0017784658749628022 0.0 0.0
-0.0007358789333160085 0.0003575765455728864 0.0 0.0018572912034737934 0.0 0.0
-0.0004480604440588262 0.0001609486702572314 0.0 0.0018447767875199648 0.0 0.0
-0.00010877365333177105 -0.0002234243711587022 0.0 0.001398274064942042 0.0 0.0
6.71212750132513e-05 -0.0005135189049495437 0.0 0.0008239942483152415 0.0 0.0
8.817148750016582e-06 -0.0003235720487504964 0.0 -0.000678178566401126 0.0 0.0
-0.00016194714347809693 -0.00015518043405572372 0.0 -0.0012018560022685229 0.0 0.0
-0.000518509705065649 0.00019436709903977354 0.0 -0.0016487472768972975 0.0 0.0
-0.0008630658929872196 0.0004037949617082773 0.0 -0.0016752603142406585 0.0 0.0
-0.0011862578680191436 0.0005539548783808862 0.0 -0.0015761800348337042 0.0 0.0
-0.001572530283998632 0.0007081043461102051 0.0 -0.0014516217180012907 0.0 0.0
-0.002179758548697263 0.000992158440320559 0.0 -0.001411137429286005 0.0 0.0
-0.0031843928255759924 0.0016735965136513336 0.0 -0.0016961161214832665 0.0 0.0
-0.004612791106065695 0.0028365795833758373 0.0 -0.002342232769483681 0.0 0.0
-0.006371486956426102 0.0043408672268799905 0.0 -0.0030733241695639945 0.0 0.0
-0.00844192409737534 0.006163481342025722 0.0 -0.003783708735696888 0.0 0.0
-0.010915216127751395 0.008386352551706323 0.0 -0.004502670906590182 0.0 0.0
-0.013950420140550531 0.011166151683743394 0.0 -0.005278985770266423 0.0 0.0
-0.017757602619024954 0.014730603248686143 0.0 -0.006213094199930737 0.0 0.0
-0.022532222966874408 0.01928918150151028 0.0 -0.007395921905493281 0.0 0.0
-0.02831146325834249 0.024914371702904798 0.0 -0.008962106132178968 0.0 0.0
-0.034730101941012656 0.03131565568834407 0.0 -0.011274165436509134 0.0 0.0
-0.040665949942074786 0.03744488059823392 0.0 -0.014752741168480693 0.0 0.0
-0.043860106360336854 0.04106104351536659 0.0 -0.019067774513550777 0.0 0.0
-0.04083026204766555 0.038656567614907676 0.0 -0.022332571029930054 0.0 0.0
-0.0372524658754047 0.025742633598983575 0.0 9.037041948101177e-15 0.0 0.0
-0.0408302620476622 0.03865656761490389 0.0 0.02233257102995257 0.0 0.0
-0.04386010636032926 0.04106104351535986 0.0 0.019067774513572833 0.0 0.0
-0.040665949942063045 0.037444880598223394 0.0 0.014752741168493334 0.0 0.0
-0.03473010194099829 0.031315655688331855 0.0 0.011274165436511151 0.0 0.0
-0.028311463258327417 0.024914371702889633 0.0 0.008962106132177558 0.0 0.0
-0.022532222966859233 0.019289181501497388 0.0 0.0073959219054908956 0.0 0.0
-0.017757602619009185 0.014730603248675003 0.0 0.006213094199926389 0.0 0.0
-0.013950420140534023 0.011166151683728271 0.0 0.005278985770260922 0.0 0.0
-0.01091521612773524 0.008386352551692598 0.0 0.004502670906584068 0.0 0.0
-0.008441924097360427 0.006163481342012635 0.0 0.00378370873568776 0.0 0.0
-0.006371486956413168 0.004340867226870017 0.0 0.0030733241695585626 0.0 0.0
-0.004612791106055818 0.0028365795833679708 0.0 0.0023422327694782867 0.0 0.0
-0.0031843928255691142 0.0016735965136472181 0.0 0.0016961161214800935 0.0 0.0
-0.0021797585486930276 0.0009921584403177817 0.0 0.0014111374292844283 0.0 0.0
-0.0015725302839964788 0.0007081043461096665 0.0 0.001451621717999894 0.0 0.0
-0.0011862578680179932 0.0005539548783801923 0.0 0.0015761800348327254 0.0 0.0
-0.0008630658929863883 0.00040379496170784673 0.0 0.0016752603142387986 0.0 0.0
-0.0005185097050650834 0.00019436709904019903 0.0 0.0016487472768956677 0.0 0.0
-0.00016194714347795962 -0.00015518043405575668 0.0 0.0012018560022672201 0.0 0.0
8.817148749990685e-06 -0.0003235720487500774 0.0 0.0006781785664004225 0.0 0.0
-4.065141612275462e-05 -0.00017492040576478217 0.0 -0.0005303689210608038 0.0 0.0
-0.00020998180925146736 -8.75158638296621e-05 0.0 -0.0009864738479765272 0.0 0.0
-0.0005864645184621295 0.00022917883021283903 0.0 -0.0014078638951259648 0.0 0.0
-0.0009851517831607867 0.000448133215358885 0.0 -0.0014405062997823682 0.0 0.0
-0.001375761011961716 0.0006224546187554951 0.0 -0.0013239805466080507 0.0 0.0
-0.0018660867876252435 0.0008253434653701778 0.0 -0.0011520361082830656 0.0 0.0
-0.002675814761924833 0.001286832434928331 0.0 -0.0011560694727629519 0.0 0.0
-0.0039640335670561 0.002277836420245296 0.0 -0.0015772995740097313 0.0 0.0
-0.005677899002106895 0.003726415955274646 0.0 -0.002188785044798916 0.0 0.0
-0.007748444001025015 0.0055344393560679064 0.0 -0.002815579176319131 0.0 0.0
-0.010218626130985895 0.007740746251381051 0.0 -0.0034548513001013623 0.0 0.0
-0.013198741673409824 0.010448246866652652 0.0 -0.004100812081690487 0.0 0.0
-0.016877360390926594 0.013849831779625659 0.0 -0.004817506524025896 0.0 0.0
-0.021489044565211095 0.01819580260040328 0.0 -0.005710331559723713 0.0 0.0
-0.027225746631140156 0.023698357265311623 0.0 -0.006852855046035875 0.0 0.0
-0.0341301735300844 0.030425800381907925 0.0 -0.00827551141269291 0.0 0.0
-0.04182193858881766 0.03808313645111384 0.0 -0.010198091851887262 0.0 0.0
-0.04898390192166289 0.04549338263644634 0.0 -0.013268255177784674 0.0 0.0
-0.05291256969269878 0.04999333538064607 0.0 -0.017955611394188154 0.0 0.0
-0.04946628495530105 0.04737965858501591 0.0 -0.023475512815494395 0.0 0.0
-0.04529867631340239 0.03233009720403733 0.0 9.320669236423385e-15 0.0 0.0
-0.04946628495529646 0.04737965858501226 0.0 0.023475512815516308 0.0 0.0
-0.052912569692689634 0.04999333538063621 0.0 0.017955611394210223 0.0 0.0
-0.04898390192164927 0.045493382636433724 0.0 0.01326825517779839 0.0 0.0
-0.041821938588801316 0.038083136451100084 0.0 0.010198091851889829 0.0 0.0
-0.03413017353006683 0.030425800381892562 0.0 0.008275511412692388 0.0 0.0
-0.02722574663112217 0.02369835726529735 0.0 0.006852855046033425 0.0 0.0
-0.02148904456519255 0.01819580260038974 0.0 0.005710331559720972 0.0 0.0
-0.016877360390907023 0.013849831779606102 0.0 0.004817506524021155 0.0 0.0
-0.013198741673390808 0.010448246866636313 0.0 0.0041008120816843135 0.0 0.0
-0.010218626130968578 0.007740746251365742 0.0 0.0034548513000941606 0.0 0.0
-0.007748444001010119 0.005534439356056168 0.0 0.0028155791763130886 0.0 0.0
-0.005677899002095124 0.003726415955264354 0.0 0.0021887850447940035 0.0 0.0
-0.003964033567047302 0.0022778364202392116 0.0 0.0015772995740059765 0.0 0.0
-0.002675814761919366 0.001286832434924514 0.0 0.0011560694727609513 0.0 0.0
-0.0018660867876226861 0.0008253434653708049 0.0 0.0011520361082823158 0.0 0.0
-0.0013757610119603484 0.0006224546187541655 0.0 0.001323980546607181 0.0 0.0
-0.0009851517831598292 0.0004481332153585154 0.0 0.0014405062997814013 0.0 0.0
-0.0005864645184617261 0.00022917883021327174 0.0 0.0014078638951245293 0.0 0.0
-0.0002099818092513256 -8.751586382979143e-05 0.0 0.0009864738479757828 0.0 0.0
-4.065141612265323e-05 -0.00017492040576453489 0.0 0.0005303689210606351 0.0 0.0
-7.856492760559513e-05 -6.861802035163537e-05 0.0 -0.00038398781518160226 0.0 0.0
-0.0002495989717258181 -2.4523052269223945e-05 0.0 -0.0007545581250315744 0.0 0.0
-0.0006498404817683151 0.00026275754435631986 0.0 -0.0011213079159525731 0.0 0.0
-0.0011029728309534298 0.000491575437944387 0.0 -0.0011521659222865767 0.0 0.0
-0.0015617653546861339 0.0006828061025719822 0.0 -0.0010223595400643728 0.0 0.0
-0.0021807555207568846 0.0009643251447256328 0.0 -0.0008216279229053798 0.0 0.0
-0.0032257143392585303 0.0016757653457785107 0.0 -0.0009354944165216878 0.0 0.0
-0.004768011909062317 0.0029426331917700287 0.0 -0.0013563340612747952 0.0 0.0
-0.006735976338301355 0.004634680037039242 0.0 -0.001831085710335323 0.0 0.0
-0.009128076114782578 0.00675411107803114 0.0 -0.002346017282119642 0.0 0.0
-0.012004528945020871 0.009348731850044428 0.0 -0.0028720197851166557 0.0 0.0
-0.015504180106055008 0.012552420354436388 0.0 -0.0034056891275912058 0.0 0.0
-0.019844734779541285 0.016590322532428575 0.0 -0.004006100556661192 0.0 0.0
-0.025269210836871035 0.021732816421638386 0.0 -0.004786476546109691 0.0 0.0
-0.03195810837806772 0.028175121653037392 0.0 -0.005817730292080948 0.0 0.0
-0.03990910781503553 0.03593287400668411 0.0 -0.0070376205414484925 0.0 0.0
-0.048718276340565594 0.04467186526038867 0.0 -0.008371677604047043 0.0 0.0
-0.05703860612833618 0.053244181094881445 0.0 -0.010438788666689089 0.0 0.0
-0.06187289414273908 0.0588020089370984 0.0 -0.015148888637515064 0.0 0.0
-0.058315367541930216 0.056388008196456674 0.0 -0.023656421122111117 0.0 0.0
-0.05370953242351336 0.03938518790469876 0.0 9.187962890511159e-15 0.0 0.0
-0.058315367541924845 0.05638800819645373 0.0 0.023656421122130792 0.0 0.0
-0.06187289414272797 0.05880200893708759 0.0 0.015148888637534164 0.0 0.0
-0.057038606128320554 0.05324418109486807 0.0 0.010438788666700989 0.0 0.0
-0.048718276340547116 0.04467186526037015 0.0 0.008371677604049756 0.0 0.0
-0.03990910781501561 0.03593287400666721 0.0 0.007037620541449439 0.0 0.0
-0.031958108378047134 0.028175121653020073 0.0 0.005817730292078372 0.0 0.0
-0.025269210836849687 0.021732816421619852 0.0 0.004786476546106932 0.0 0.0
-0.019844734779519143 0.016590322532409017 0.0 0.004006100556656875 0.0 0.0
-0.01550418010603323 0.012552420354414987 0.0 0.003405689127585948 0.0 0.0
-0.012004528945001074 0.009348731850025622 0.0 0.00287201978511058 0.0 0.0
-0.009128076114765633 0.006754111078015098 0.0 0.002346017282114118 0.0 0.0
-0.0067359763382876985 0.004634680037028349 0.0 0.0018310857103313676 0.0 0.0
-0.004768011909051782 0.0029426331917617025 0.0 0.0013563340612715567 0.0 0.0
-0.0032257143392516808 0.0016757653457734236 0.0 0.0009354944165198371 0.0 0.0
-0.002180755520753516 0.0009643251447238807 0.0 0.0008216279229049807 0.0 0.0
-0.0015617653546845956 0.0006828061025706944 0.0 0.001022359540063665 0.0 0.0
-0.0011029728309525349 0.0004915754379438913 0.0 0.001152165922285555 0.0 0.0
-0.0006498404817677438 0.0002627575443560274 0.0 0.0011213079159511608 0.0 0.0
-0.00024959897172560495 -2.4523052269347913e-05 0.0 0.0007545581250309237 0.0 0.0
-7.856492760556646e-05 -6.861802035144693e-05 0.0 0.00038398781518127184 0.0 0.0
-0.00010053181326357991 -5.837969988160986e-06 0.0 -0.00024809497954259333 0.0 0.0
-0.0002754303124471822 2.854003814557713e-05 0.0 -0.0005094244328152675 0.0 0.0
-0.0007052429987212076 0.0002912405545688181 0.0 -0.0007841786454313156 0.0 0.0
-0.0012179269227249364 0.0005354661790745905 0.0 -0.0008064585669728913 0.0 0.0
-0.001753096228327775 0.0007407185656189633 0.0 -0.0006753067288763103 0.0 0.0
-0.002535312650975911 0.0011610651075489144 0.0 -0.0005022962666387181 0.0 0.0
-0.0038090378230727206 0.002139535376835917 0.0 -0.0006835900271117206 0.0 0.0
-0.0055699817128255875 0.0036182180475680245 0.0 -0.0009708772672981072 0.0 0.0
-0.007790294439247026 0.005558552999326749 0.0 -0.0013083255847031272 0.0 0.0
-0.010505628378489382 0.007990286155754006 0.0 -0.0016745781726019927 0.0 0.0
-0.013796884404547249 0.010978875707224998 0.0 -0.0020475863531647827 0.0 0.0
-0.017827638791776155 0.014689543992779452 0.0 -0.002420969124949061 0.0 0.0
-0.022840868675250557 0.019378580986254272 0.0 -0.0028529781332672145 0.0 0.0
-0.02909395555462374 0.025327619125782543 0.0 -0.0034596131467673243 0.0 0.0
-0.03672325766235493 0.032700641902403155 0.0 -0.004275174678656014 0.0 0.0
-0.04562527252391493 0.0414223434713806 0.0 -0.005201076211096297 0.0 0.0
-0.05533350688867904 0.05104201375644989 0.0 -0.005996878418681349 0.0 0.0
-0.06467516260562696 0.060488202075506245 0.0 -0.0068282171412351695 0.0 0.0
-0.07068633428925282 0.06732489269541014 0.0 -0.010255958207318599 0.0 0.0
-0.06758055644339524 0.06592267683937793 0.0 -0.02208795990589714 0.0 0.0
-0.06283615316142825 0.04735524903399837 0.0 6.683022191200649e-15 0.0 0.0
-0.06758055644338887 0.06592267683937525 0.0 0.022087959905912967 0.0 0.0
-0.07068633428923991 0.06732489269539674 0.0 0.010255958207335365 0.0 0.0
-0.06467516260560902 0.06048820207549138 0.0 0.006828217141243981 0.0 0.0
-0.05533350688865811 0.051042013756427786 0.0 0.005996878418684154 0.0 0.0
-0.045625272523892646 0.04142234347136134 0.0 0.0052010762110971265 0.0 0.0
-0.03672325766233175 0.03270064190238138 0.0 0.00427517467865442 0.0 0.0
-0.029093955554599437 0.025327619125760516 0.0 0.0034596131467648237 0.0 0.0
-0.02284086867522557 0.019378580986233428 0.0 0.0028529781332650053 0.0 0.0
-0.017827638791751723 0.01468954399275603 0.0 0.0024209691249462567 0.0 0.0
-0.013796884404525192 0.010978875707202634 0.0 0.0020475863531594814 0.0 0.0
-0.010505628378470633 0.0079902861557364 0.0 0.0016745781725979003 0.0 0.0
-0.007790294439231659 0.005558552999313229 0.0 0.0013083255846998982 0.0 0.0
-0.005569981712813467 0.003618218047557553 0.0 0.0009708772672959579 0.0 0.0
-0.0038090378230644867 0.002139535376828569 0.0 0.0006835900271101779 0.0 0.0
-0.002535312650971666 0.0011610651075450815 0.0 0.0005022962666384103 0.0 0.0
-0.001753096228326015 0.0007407185656184511 0.0 0.0006753067288756121 0.0 0.0
-0.0012179269227238856 0.0005354661790737144 0.0 0.0008064585669718773 0.0 0.0
-0.0007052429987205519 0.00029124055456837463 0.0 0.0007841786454301317 0.0 0.0
-0.0002754303124470321 2.8540038145639433e-05 0.0 0.0005094244328149619 0.0 0.0
-0.00010053181326363043 -5.837969988077815e-06 0.0 0.0002480949795419616 0.0 0.0
-9.895747070842697e-05 1.3186326895212231e-05 0.0 -0.00014312985207418763 0.0 0.0
-0.00027864225755782447 6.304386260034926e-05 0.0 -0.00025498811893547154 0.0 0.0
-0.0007474637411531097 0.00030991846851560707 0.0 -0.00038402805975180633 0.0 0.0
-0.0013339233279458704 0.000580448795250118 0.0 -0.00039561457759290094 0.0 0.0
-0.001969156731956468 0.0008187439634929003 0.0 -0.0002965757527321055 0.0 0.0
-0.002927126746801957 0.0014227150628747078 0.0 -0.00020157173023366477 0.0 0.0
-0.004405371729056739 0.0026358480247733905 0.0 -0.0003252354390030048 0.0 0.0
-0.006364209103888577 0.004301148528034256 0.0 -0.00046496104977648606 0.0 0.0
-0.008835212966394423 0.006489493355994971 0.0 -0.0006260529528629255 0.0 0.0
-0.011877140863312721 0.009233870250393732 0.0 -0.0008080312970424743 0.0 0.0
-0.015590394483746644 0.012623304803878622 0.0 -0.0009824176935782198 0.0 0.0
-0.02016520864782815 0.016855214258477476 0.0 -0.0011482218919432554 0.0 0.0
-0.025867781081867026 0.02221093815416837 0.0 -0.0013830984540351664 0.0 0.0
-0.03294125990542679 0.028959103513761214 0.0 -0.0017231042882116863 0.0 0.0
-0.041485061122522454 0.037239373951776795 0.0 -0.0021783819541904424 0.0 0.0
-0.0512953221992191 0.046884193940165304 0.0 -0.0027160162631436158 0.0 0.0
-0.06171713753571531 0.057255575964533234 0.0 -0.0031350246170557556 0.0 0.0
-0.0716511848770179 0.0671913091880523 0.0 -0.0032485563091717165 0.0 0.0
-0.07905211791255999 0.07488575238877462 0.0 -0.0043244098072371525 0.0 0.0
-0.07752889713906422 0.0760501022502138 0.0 -0.01509321924414998 0.0 0.0
-0.07328747805547171 0.05756612660621031 0.0 4.6351811278100286e-15 0.0 0.0
-0.0775288971390568 0.07605010225020861 0.0 0.015093219244158983 0.0 0.0
-0.0790521179125451 0.07488575238875682 0.0 0.00432440980724676 0.0 0.0
-0.07165118487699743 0.06719130918803398 0.0 0.003248556309176336 0.0 0.0
-0.061717137535691614 0.05725557596450795 0.0 0.003135024617056863 0.0 0.0
-0.05129532219919397 0.0468841939401436 0.0 0.0027160162631439024 0.0 0.0
-0.04148506112249651 0.03723937395175187 0.0 0.0021783819541911194 0.0 0.0
-0.03294125990539975 0.02895910351373831 0.0 0.0017231042882109222 0.0 0.0
-0.025867781081839018 0.022210938154144017 0.0 0.0013830984540347787 0.0 0.0
-0.020165208647801178 0.016855214258454012 0.0 0.0011482218919421248 0.0 0.0
-0.015590394483722602 0.012623304803853617 0.0 0.0009824176935756498 0.0 0.0
-0.011877140863292135 0.009233870250375552 0.0 0.0008080312970407892 0.0 0.0
-0.008835212966377251 0.006489493355979285 0.0 0.000626052952861196 0.0 0.0
-0.0063642091038747396 0.00430114852802265 0.0 0.0004649610497745823 0.0 0.0
-0.004405371729047103 0.0026358480247644866 0.0 0.00032523543900234646 0.0 0.0
-0.0029271267467966635 0.0014227150628708175 0.0 0.00020157173023376825 0.0 0.0
-0.0019691567319542434 0.0008187439634919355 0.0 0.00029657575273218993 0.0 0.0
-0.001333923327944794 0.0005804487952494282 0.0 0.0003956145775924898 0.0 0.0
-0.0007474637411524542 0.0003099184685151447 0.0 0.0003840280597514087 0.0 0.0
-0.00027864225755744494 6.304386260015111e-05 0.0 0.0002549881189360771 0.0 0.0
-9.895747070803616e-05 1.3186326895195016e-05 0.0 0.0001431298520741056 0.0 0.0
-5.9596502446890764e-05 1.1832804443515793e-05 0.0 -9.216040982294267e-05 0.0 0.0
-0.0002441589751611624 7.426736948694116e-05 0.0 -0.00010600663629277142 0.0 0.0
-0.00076930111223653 0.0003162122463696668 0.0 -0.00013178220790161698 0.0 0.0
-0.0014609931287278134 0.0006031004961398524 0.0 -0.0001342233632381531 0.0 0.0
-0.0022238889077099565 0.0008676016588320323 0.0 -3.445137588811695e-05 0.0 0.0
-0.0033478918425015104 0.0015653104806905166 0.0 8.871668172430577e-05 0.0 0.0
-0.00500069423021852 0.002887662160121215 0.0 8.567126384261713e-05 0.0 0.0
-0.007146918611617078 0.004644211069213602 0.0 8.53205484465827e-05 0.0 0.0
-0.00986611820083059 0.006955303197228084 0.0 9.762048802734432e-05 0.0 0.0
-0.013237119780489696 0.009856673295397264 0.0 0.00010136580919138227 0.0 0.0
-0.01738148377616151 0.013447442931665717 0.0 0.00014694294770190301 0.0 0.0
-0.02251936198836962 0.017945558960012792 0.0 0.00023317814803003496 0.0 0.0
-0.028910547931331822 0.02363814095891289 0.0 0.00027307492215993814 0.0 0.0
-0.03678582056100734 0.030779618007618945 0.0 0.0003047851516248326 0.0 0.0
-0.04621991762208693 0.03950809635621495 0.0 0.00023788969913102632 0.0 0.0
-0.056906741246628124 0.049606665025107716 0.0 3.922262238862783e-05 0.0 0.0
-0.0679992623615443 0.06033454457977779 0.0 -0.00023480267806273193 0.0 0.0
-0.07811750533875339 0.07042913423532944 0.0 -0.00044597853091334246 0.0 0.0
-0.0858510738431726 0.07829151766651776 0.0 -0.0006362117122890873 0.0 0.0
-0.08806129296631784 0.0812449547842135 0.0 -0.01011792421289356 0.0 0.0
-0.08715143640611295 0.063491742611015 0.0 1.457167719820518e-15 0.0 0.0
-0.08806129296630953 0.08124495478420447 0.0 0.01011792421289813 0.0 0.0
-0.08585107384315535 0.0782915176664976 0.0 0.0006362117122935005 0.0 0.0
-0.0781175053387295 0.07042913423530686 0.0 0.0004459785309148161 0.0 0.0
-0.06799926236151757 0.060334544579751744 0.0 0.00023480267806266861 0.0 0.0
-0.0569067412466001 0.04960666502508452 0.0 -3.9222622389444885e-05 0.0 0.0
-0.046219917622057634 0.03950809635618948 0.0 -0.0002378896991305588 0.0 0.0
-0.03678582056097726 0.030779618007593934 0.0 -0.00030478515162584395 0.0 0.0
-0.02891054793130094 0.02363814095888711 0.0 -0.0002730749221603653 0.0 0.0
-0.022519361988339925 0.01794555895998894 0.0 -0.00023317814803119072 0.0 0.0
-0.017381483776135354 0.01344744293164033 0.0 -0.00014694294770290807 0.0 0.0
-0.013237119780467418 0.009856673295377157 0.0 -0.00010136580919212646 0.0 0.0
-0.009866118200811872 0.006955303197212058 0.0 -9.762048802760756e-05 0.0 0.0
-0.007146918611601863 0.004644211069202492 0.0 -8.532054844766635e-05 0.0 0.0
-0.005000694230207831 0.0028876621601122304 0.0 -8.567126384219858e-05 0.0 0.0
-0.003347891842495377 0.0015653104806865065 0.0 -8.871668172368257e-05 0.0 0.0
-0.002223888907707192 0.0008676016588304539 0.0 3.445137588898239e-05 0.0 0.0
-0.001460993128726545 0.0006031004961397075 0.0 0.00013422336323875978 0.0 0.0
-0.0007693011122357007 0.0003162122463692038 0.0 0.00013178220790153024 0.0 0.0
-0.00024415897516085963 7.426736948627475e-05 0.0 0.00010600663629377948 0.0 0.0
-5.959650244680503e-05 1.1832804443473035e-05 0.0 9.21604098230874e-05 0.0 0.0
SCALARS Statev float 8
LOOKUP_TABLE default
0.0 0.012025501621766414 0.009400806146853553 -0.011527057649114533 0.002126251502260993 -0.00039541755143552746 0.0 0.0
0.0 0.003431490138859546 0.002391296968091943 -0.001262114152118987 -0.001129182815972955 -0.004649614797133671 0.0 0.0
0.0 -4.469505513956482e-05 -1.288121842414631e-05 7.507725938794269e-06 5.373492485351859e-06 -5.6916752234311355e-05 0.0 0.0
0.0 6.803626523365376e-05 -1.4298413059095655e-05 1.073812110123e-05 3.560291957865567e-06 4.6133440174570985e-07 0.0 0.0
0.0 0.0004067932973565744 0.00011272503022619332 -7.948714896597396e-05 -3.3237881260219564e-05 4.525973306721045e-05 0.0 0.0
0.0 0.0008471331890354704 0.0009255733830022291 -0.0007035201951774943 -0.00022205318782473528 8.380242041181847e-05 0.0 0.0
0.0 0.0023910042471956064 0.002224058450163577 -0.0017872448886501902 -0.0004368135615133861 0.00010392428947805251 0.0 0.0
0.0 0.004460386094377265 0.004124816855588332 -0.0034642856043390073 -0.000660531251249325 0.00011407328607223112 0.0 0.0
0.0 0.007233552382780083 0.006616737118365612 -0.005755884522716333 -0.00086085259564928 0.00012937747989224028 0.0 0.0
0.0 0.01080252027190152 0.009737691481564116 -0.008685904766286053 -0.0010517867152780662 0.00014271358386441543 0.0 0.0
0.0 0.015289586673045736 0.013601202254387549 -0.012348689137971675 -0.0012525131164158633 0.00019888968496393372 0.0 0.0
0.0 0.020626665015665784 0.018437885587176652 -0.01696604561358585 -0.0014718399735908006 0.0002957507104525233 0.0 0.0
0.0 0.02747485511667561 0.0245094788245282 -0.022805336811913997 -0.001704142012614202 0.00033857241628545325 0.0 0.0
0.0 0.03604408758256408 0.032053990807592934 -0.030107441564135622 -0.0019465492434573206 0.0003775647776372825 0.0 0.0
0.0 0.04648028601865542 0.04119511009155338 -0.03900874848289276 -0.00218636160866058 0.00034486127708581275 0.0 0.0
0.0 0.05864071071370894 0.05177239307224119 -0.049361383433527944 -0.0024110096387133296 0.00021079741091084364 0.0 0.0
0.0 0.07183222859690522 0.06321800186109879 -0.060607101746221845 -0.0026109001148769515 -1.6104754258542634e-05 0.0 0.0
0.0 0.0848994872200044 0.07454279676613867 -0.07176635343366082 -0.0027764433324777224 -0.00025443484688619073 0.0 0.0
0.0 0.09636936373773317 0.08447574213534093 -0.08157592586720802 -0.0028998162681328496 -0.0003538855449765489 0.0 0.0
0.0 0.10445311522018477 0.09165072088060036 -0.08868496147498352 -0.0029657594056169945 -0.00038268228933547774 0.0 0.0
0.0 0.10750082939886839 0.09440040177731406 -0.09143718258993556 -0.00296321918737857 1.2819606487468604e-15 0.0 0.0
0.0 0.10445311522017679 0.09165072088059342 -0.08868496147497665 -0.0029657594056166398 0.0003826822893395667 0.0 0.0
0.0 0.09636936373771722 0.0844757421353267 -0.08157592586719484 -0.0028998162681319146 0.00035388554498098825 0.0 0.0
0.0 0.08489948721997843 0.07454279676611604 -0.07176635343363869 -0.0027764433324773095 0.00025443484688956585 0.0 0.0
0.0 0.07183222859688096 0.06321800186107701 -0.06060710174620215 -0.0026109001148749327 1.6104754259347546e-05 0.0 0.0
0.0 0.05864071071367941 0.05177239307221515 -0.04936138343350262 -0.0024110096387125043 -0.0002107974109119982 0.0 0.0
0.0 0.04648028601862592 0.041195110091527445 -0.039008748482867645 -0.0021863616086597658 -0.00034486127708619613 0.0 0.0
0.0 0.036044087582533905 0.032053990807566386 -0.030107441564110125 -0.0019465492434562603 -0.0003775647776379082 0.0 0.0
0.0 0.027474855116642848 0.02450947882449942 -0.02280533681188628 -0.0017041420126131324 -0.0003385724162858598 0.0 0.0
0.0 0.020626665015636713 0.018437885587150895 -0.01696604561356111 -0.0014718399735897927 -0.0002957507104528824 0.0 0.0
0.0 0.015289586673019943 0.01360120225436451 -0.012348689137950026 -0.0012525131164144877 -0.0001988896849648864 0.0 0.0
0.0 0.01080252027187898 0.009737691481544353 -0.008685904766267198 -0.0010517867152771612 -0.00014271358386509 0.0 0.0
0.0 0.007233552382764002 0.006616737118350845 -0.005755884522702735 -0.0008608525956481063 -0.0001293774798925402 0.0 0.0
0.0 0.00446038609436366 0.004124816855575461 -0.003464285604327272 -0.0006605312512481865 -0.00011407328607250517 0.0 0.0
0.0 0.0023910042471883587 0.0022240584501559617 -0.0017872448886437546 -0.00043681356151220515 -0.00010392428947820053 0.0 0.0
0.0 0.0008471331890314883 0.0009255733829976422 -0.0007035201951738296 -0.00022205318782381273 -8.380242041163435e-05 0.0 0.0
0.0 0.00040679329735408473 0.00011272503022492071 -7.948714896506201e-05 -3.323788125985821e-05 -4.5259733066906374e-05 0.0 0.0
0.0 6.803626523303165e-05 -1.4298413058864862e-05 1.0738121101057851e-05 3.560291957807486e-06 -4.6133440173252076e-07 0.0 0.0
0.0 -4.469505513984894e-05 -1.2881218424168119e-05 7.5077259388375995e-06 5.373492485331017e-06 5.6916752233865755e-05 0.0 0.0
0.0 0.0034314901388533938 0.002391296968088843 -0.0012621141521172085 -0.0011291828159716326 0.004649614797126731 0.0 0.0
0.0 0.012025501621751358 0.00940080614684338 -0.011527057649099825 0.002126251502256436 0.0003954175514128683 0.0 0.0
0.0 0.009544246698425917 0.006901940380617597 -0.009265201914697808 0.0023632615340802017 -8.050541660992432e-06 0.0 0.0
0.0 0.001793256508523434 0.0012709699988143115 -0.0006089840642520231 -0.0006619859345622862 -0.0032782603524943673 0.0 0.0
0.0 1.3089402545520032e-05 -6.893359033531077e-06 6.193240771183825e-06 7.001182623472748e-07 -4.2445349055275006e-07 0.0 0.0
0.0 1.0077444561399199e-05 1.521464738411519e-06 -1.2267498360827602e-06 -2.9471490232880915e-07 3.7678574157463227e-07 0.0 0.0
0.0 0.00014122641164081903 4.318787779690223e-05 -3.0152678071689135e-05 -1.3035199725213195e-05 1.8080443829734994e-05 0.0 0.0
0.0 0.0007903979379499488 0.0005921439632267468 -0.00045314413769618735 -0.00013899982553056036 4.244564143578821e-05 0.0 0.0
0.0 0.0019361454894436373 0.0018074414014158607 -0.0014669249699524292 -0.0003405164314634306 -6.610843449501015e-05 0.0 0.0
0.0 0.0038582069531184157 0.0035408861132089965 -0.0030062347479796027 -0.0005346513652293937 -0.00019817910442123732 0.0 0.0
0.0 0.006434967815801249 0.005824325300585997 -0.005127220377542935 -0.0006971049230430609 -0.0003618777795190514 0.0 0.0
0.0 0.009672514185440143 0.008675589105150075 -0.007840342499358157 -0.0008352466057919099 -0.0005455586867478911 0.0 0.0
0.0 0.013710403464686641 0.012187355654399164 -0.011224516649334852 -0.0009628390050643122 -0.0007250028171684805 0.0 0.0
0.0 0.018875891559634397 0.016555532624145927 -0.015469396626951896 -0.001086135997194025 -0.0008983974236256577 0.0 0.0
0.0 0.02490906527390286 0.022063175543024765 -0.020858412475458252 -0.0012047630675665196 -0.0011473610303098349 0.0 0.0
0.0 0.032826497615797576 0.028948763788389377 -0.027634829359925346 -0.001313934428464025 -0.0014973043501143356 0.0 0.0
0.0 0.042476336612279446 0.037340459852149205 -0.03593600304190457 -0.0014044568102446371 -0.0019401917542080135 0.0 0.0
0.0 0.05373134535105624 0.04709763594630184 -0.04562976744967797 -0.0014678684966238685 -0.0024654279251706203 0.0 0.0
0.0 0.066012323214 0.05769381966177275 -0.05619349245910561 -0.001500327202667075 -0.002955653440900534 0.0 0.0
0.0 0.07826354959938137 0.06822064536839512 -0.066714503257571 -0.0015061421108241498 -0.003168213514782586 0.0 0.0
0.0 0.08905761308218828 0.0774937942561099 -0.07600170902904554 -0.0014920852270643157 -0.002853502551978738 0.0 0.0
0.0 0.09682834409028432 0.0841291685531878 -0.08268463525672835 -0.0014445332964594464 -0.002062392214470195 0.0 0.0
0.0 0.09990398990662147 0.08664516902526025 -0.0852722242222548 -0.001372944803005393 3.5351496036062358e-15 0.0 0.0
0.0 0.09682834409027839 0.08412916855318223 -0.08268463525672315 -0.001444533296459084 0.0020623922144790002 0.0 0.0
0.0 0.08905761308217308 0.07749379425609661 -0.07600170902903244 -0.0014920852270640956 0.002853502551988287 0.0 0.0
0.0 0.07826354959935886 0.0682206453683756 -0.06671450325755154 -0.00150614211082403 0.0031682135147889368 0.0 0.0
0.0 0.06601232321397545 0.057693819661751376 -0.05619349245908494 -0.0015003272026664113 0.002955653440902085 0.0 0.0
0.0 0.05373134535102969 0.047097635946278534 -0.04562976744965527 -0.0014678684966232518 0.0024654279251694793 0.0 0.0
0.0 0.042476336612251586 0.0373404598521248 -0.035936003041880916 -0.0014044568102439103 0.0019401917542073966 0.0 0.0
0.0 0.032826497615770035 0.028948763788365285 -0.02763482935990185 -0.0013139344284634202 0.0014973043501136814 0.0 0.0
0.0 0.02490906527387318 0.022063175542999004 -0.02085841247543296 -0.0012047630675660582 0.0011473610303079883 0.0 0.0
0.0 0.018875891559606787 0.016555532624121513 -0.015469396626927813 -0.001086135997193679 0.0008983974236239444 0.0 0.0
0.0 0.013710403464663179 0.012187355654378491 -0.011224516649315022 -0.0009628390050634694 0.0007250028171664577 0.0 0.0
0.0 0.009672514185420698 0.008675589105132345 -0.007840342499341195 -0.0008352466057911468 0.0005455586867459236 0.0 0.0
0.0 0.0064349678157863376 0.00582432530057187 -0.0051272203775297375 -0.0006971049230421314 0.0003618777795178226 0.0 0.0
0.0 0.00385820695310698 0.003540886113198043 -0.003006234747969603 -0.0005346513652284398 0.00019817910441997884 0.0 0.0
0.0 0.0019361454894370527 0.0018074414014091931 -0.0014669249699467398 -0.00034051643146245313 6.610843449440456e-05 0.0 0.0
0.0 0.0007903979379456551 0.0005921439632231571 -0.00045314413769333096 -0.0001389998255298261 -4.244564143585649e-05 0.0 0.0
0.0 0.00014122641163947006 4.318787779649982e-05 -3.0152678071417295e-05 -1.3035199725082738e-05 -1.8080443829455995e-05 0.0 0.0
0.0 1.007744456093116e-05 1.521464738641469e-06 -1.2267498362560866e-06 -2.9471490238522123e-07 -3.7678574160065323e-07 0.0 0.0
0.0 1.3089402545431345e-05 -6.893359033439186e-06 6.19324077110216e-06 7.001182623369033e-07 4.244534905343411e-07 0.0 0.0
0.0 0.0017932565085175228 0.0012709699988110727 -0.0006089840642500028 -0.0006619859345610685 0.0032782603524864323 0.0 0.0
0.0 0.009544246698410306 0.0069019403806058885 -0.009265201914682086 0.0023632615340761893 8.05054164497199e-06 0.0 0.0
0.0 0.006786725082076019 0.004791586329304444 -0.006636616124988083 0.0018450297956836372 -0.0016958318886989153 0.0 0.0
0.0 0.001219553649422024 0.0007463942570077616 -0.00031009515786081484 -0.0004362990991469465 -0.0023381306986590272 0.0 0.0
0.0 1.2634912319597936e-08 -1.3678156687548327e-09 1.0394932843731892e-09 3.2832238438154863e-10 4.875689838480855e-10 0.0 0.0
0.0 2.112470610277108e-06 -6.26796958028339e-08 4.0511652483027944e-08 2.2168043319681657e-08 -2.1853414025496657e-07 0.0 0.0
0.0 3.3335495086360057e-05 7.461185400694123e-07 3.545688335403796e-07 -1.1006873736099937e-06 6.482624102971418e-06 0.0 0.0
0.0 0.0004995492556543828 0.00030002816869914133 -0.0002240975094198278 -7.593065927931334e-05 1.7224110567885417e-05 0.0 0.0
0.0 0.001355045362026375 0.001320518074690528 -0.0010511159087361823 -0.00026940216595434653 -0.00018854816936891806 0.0 0.0
0.0 0.0030895576945780354 0.0028384069476728967 -0.002374864571954766 -0.0004635423757181282 -0.00046588646432433727 0.0 0.0
0.0 0.00534359086152323 0.004868995020502074 -0.004234193944775844 -0.0006348010757262299 -0.0008009506294042836 0.0 0.0
0.0 0.008255837399399345 0.00739700751867307 -0.006620433316220577 -0.0007765742024524893 -0.0011704304282417822 0.0 0.0
0.0 0.01183739184410908 0.01049471746370749 -0.009591681726311235 -0.0009030357373962481 -0.0015512762907671101 0.0 0.0
0.0 0.016171406714064376 0.01433128436085147 -0.013308530204255976 -0.0010227541565954958 -0.0019408789275758916 0.0 0.0
0.0 0.021894964400873455 0.01915227194760015 -0.01801583497788511 -0.0011364369697150337 -0.002397555478349167 0.0 0.0
0.0 0.028627099065185027 0.025237239416189616 -0.02399806810769366 -0.0012391713084959552 -0.0030292803728347675 0.0 0.0
0.0 0.03724798254336964 0.03270989114200956 -0.03138632551507714 -0.0013235656269324568 -0.0038535340718649854 0.0 0.0
0.0 0.04734248143799544 0.041453935743511756 -0.04007138703676697 -0.0013825487067447592 -0.004797156857432234 0.0 0.0
0.0 0.05840719348339259 0.05101775993332226 -0.04960234117552444 -0.0014154187577978088 -0.005645265935320632 0.0 0.0
0.0 0.06950606977456841 0.06060236608728191 -0.059178230159223744 -0.0014241359280581947 -0.005993045451376346 0.0 0.0
0.0 0.07938550590881721 0.06910682513495542 -0.06770029909000569 -0.0014065260449496895 -0.0054434811791766275 0.0 0.0
0.0 0.0865195289305766 0.07522018467021377 -0.07385041822366409 -0.0013697664465496188 -0.0038921396090200126 0.0 0.0
0.0 0.08941290944168218 0.07758954659942974 -0.07631227160690374 -0.0012772749925259684 7.21623281962902e-15 0.0 0.0
0.0 0.0865195289305706 0.07522018467020797 -0.07385041822365836 -0.0013697664465495893 0.0038921396090360687 0.0 0.0
0.0 0.07938550590880478 0.06910682513494434 -0.06770029908999502 -0.0014065260449493996 0.00544348117919367 0.0 0.0
0.0 0.06950606977454908 0.06060236608726495 -0.05917823015920698 -0.0014241359280579248 0.005993045451387118 0.0 0.0
0.0 0.05840719348336869 0.051017759933301786 -0.04960234117550413 -0.0014154187577976414 0.005645265935323119 0.0 0.0
0.0 0.04734248143797233 0.04145393574349139 -0.04007138703674725 -0.0013825487067441562 0.0047971568574310805 0.0 0.0
0.0 0.03724798254334421 0.032709891141987336 -0.03138632551505545 -0.0013235656269319016 0.003853534071864295 0.0 0.0
0.0 0.028627099065161442 0.025237239416168858 -0.023998068107673656 -0.0012391713084951984 0.003029280372834157 0.0 0.0
0.0 0.021894964400849117 0.019152271947578653 -0.01801583497786446 -0.001136436969714187 0.002397555478346357 0.0 0.0
0.0 0.016171406714038064 0.014331284360828622 -0.013308530204233534 -0.0010227541565950846 0.001940878927572162 0.0 0.0
0.0 0.011837391844089093 0.010494717463689223 -0.00959168172629367 -0.0009030357373955566 0.001551276290763591 0.0 0.0
0.0 0.00825583739938293 0.007397007518657782 -0.006620433316206157 -0.0007765742024516222 0.0011704304282384981 0.0 0.0
0.0 0.005343590861509222 0.004868995020489055 -0.004234193944763738 -0.0006348010757253178 0.0008009506294018281 0.0 0.0
0.0 0.003089557694568013 0.0028384069476636345 -0.002374864571946504 -0.00046354237571712847 0.0004658864643222745 0.0 0.0
0.0 0.0013550453620203159 0.0013205180746843472 -0.0010511159087310412 -0.0002694021659533059 0.00018854816936776916 0.0 0.0
0.0 0.0004995492556510798 0.0003000281686966878 -0.00022409750941796517 -7.59306592787224e-05 -1.7224110568057253e-05 0.0 0.0
0.0 3.333549508559528e-05 7.461185401514178e-07 3.545688334694343e-07 -1.100687373620829e-06 -6.4826241028467974e-06 0.0 0.0
0.0 2.1124706099977037e-06 -6.267969575684532e-08 4.0511652449334283e-08 2.2168043307534996e-08 2.1853414026419497e-07 0.0 0.0
0.0 1.2634912310065045e-08 -1.367815667713223e-09 1.0394932835817643e-09 3.283223841315191e-10 -4.875689834762404e-10 0.0 0.0
0.0 0.001219553649417142 0.0007463942570048165 -0.00031009515785894513 -0.00043629909914587095 0.002338130698650808 0.0 0.0
0.0 0.006786725082060527 0.004791586329293196 -0.006636616124972885 0.0018450297956796916 0.0016958318886877773 0.0 0.0
0.0 0.00492490029553555 0.0033672381521677795 -0.004764842131485718 0.0013976039793179387 -0.0018981293519290698 0.0 0.0
0.0 0.0007680317263682635 0.0004409492303482235 -0.0001642813310657652 -0.0002766678992824585 -0.001581503246275951 0.0 0.0
0.0 0.0 0.0 0.0 0.0 0.0 0.0 0.0
0.0 -1.0390837439607566e-06 1.1224192617575011e-07 -8.466471595657498e-08 -2.7577210219183563e-08 -7.31158042041032e-08 0.0 0.0
0.0 1.2767160450047344e-05 -1.2358186842531368e-05 9.536318309929257e-06 2.8218685326023504e-06 6.118636233994065e-06 0.0 0.0
0.0 0.00018744243496472392 0.00011494071623586316 -8.352780976566066e-05 -3.1412906470202146e-05 1.5582860667609143e-06 0.0 0.0
0.0 0.001018050293317314 0.0008252418238399321 -0.0006420773046510663 -0.00018316451918886536 -0.00017467375729767417 0.0 0.0
0.0 0.0023453734337856155 0.0021489221071152647 -0.0017676494383786635 -0.00038127266873660195 -0.00060707531823464 0.0 0.0
0.0 0.004324487485828921 0.00391976616762783 -0.003359802075419516 -0.0005599640922083129 -0.0010832577047630678 0.0 0.0
0.0 0.006857792761836826 0.006127640507913885 -0.005419567500342118 -0.0007080730075717635 -0.0016041322159260365 0.0 0.0
0.0 0.009913775053472271 0.008820422385808999 -0.007985176178863542 -0.0008352462069454537 -0.0021440175375752567 0.0 0.0
0.0 0.013786405543667326 0.012130932217378038 -0.01117899365148386 -0.0009519385658941775 -0.0026998095604825506 0.0 0.0
0.0 0.018440211578770477 0.016293723121572797 -0.015231558971274772 -0.001062164150298024 -0.0033349582344372863 0.0 0.0
0.0 0.024741785233004635 0.021554389708836604 -0.02039584527728357 -0.0011585444315530273 -0.004158308584070542 0.0 0.0
0.0 0.032176773615825605 0.028080938170639495 -0.026844192005379904 -0.0012367461652595876 -0.005237997380650883 0.0 0.0
0.0 0.040904725011768436 0.03578940297094159 -0.034495623432452965 -0.001293779538488628 -0.006495458984093791 0.0 0.0
0.0 0.050832146114919846 0.044299284792872595 -0.04297167736785103 -0.0013276074250215676 -0.007626375994711841 0.0 0.0
0.0 0.06083642830730409 0.052932287194593954 -0.05159443275216025 -0.001337854442433704 -0.008122221600059263 0.0 0.0
0.0 0.06981593501497588 0.060698611474074675 -0.05937500343809884 -0.001323608035975735 -0.007469882731987299 0.0 0.0
0.0 0.07638670026446191 0.06639965941244114 -0.0651082492241996 -0.0012914101882415833 -0.0052737532745151215 0.0 0.0
0.0 0.07921803622122231 0.06870605048362734 -0.06754575793025752 -0.0011602925533698053 9.582612481295882e-15 0.0 0.0
0.0 0.07638670026445524 0.0663996594124348 -0.06510824922419298 -0.0012914101882418164 0.005273753274536344 0.0 0.0
0.0 0.06981593501496584 0.06069861147406518 -0.05937500343809001 -0.0013236080359751215 0.007469882732007921 0.0 0.0
0.0 0.06083642830728697 0.05293228719457887 -0.05159443275214516 -0.001337854442433694 0.008122221600072265 0.0 0.0
0.0 0.05083214611490049 0.04429928479285588 -0.04297167736783482 -0.0013276074250211174 0.007626375994714878 0.0 0.0
0.0 0.040904725011747474 0.03578940297092323 -0.034495623432435035 -0.0012937795384881847 0.006495458984091893 0.0 0.0
0.0 0.032176773615803816 0.028080938170620552 -0.02684419200536136 -0.001236746165259194 0.005237997380649178 0.0 0.0
0.0 0.024741785232983347 0.02155438970881772 -0.020395845277265276 -0.0011585444315524284 0.004158308584068701 0.0 0.0
0.0 0.018440211578749057 0.016293723121554072 -0.015231558971256842 -0.001062164150297226 0.0033349582344339023 0.0 0.0
0.0 0.013786405543645549 0.012130932217358371 -0.011178993651464887 -0.0009519385658934884 0.002699809560477512 0.0 0.0
0.0 0.009913775053453894 0.008820422385792366 -0.007985176178847605 -0.000835246206944758 0.002144017537570251 0.0 0.0
0.0 0.006857792761822307 0.006127640507900653 -0.005419567500329736 -0.0007080730075709135 0.001604132215921632 0.0 0.0
0.0 0.004324487485816943 0.00391976616761689 -0.0033598020754094793 -0.0005599640922074057 0.0010832577047597378 0.0 0.0
0.0 0.002345373433777382 0.002148922107106951 -0.0017676494383713527 -0.0003812726687355992 0.0006070753182318717 0.0 0.0
0.0 0.0010180502933110455 0.0008252418238349102 -0.0006420773046470061 -0.00018316451918790394 0.00017467375729626132 0.0 0.0
0.0 0.00018744243496251556 0.00011494071623471456 -8.352780976481094e-05 -3.141290646990375e-05 -1.558286066749773e-06 0.0 0.0
0.0 1.2767160449204736e-05 -1.2358186842369624e-05 9.536318309803462e-06 2.821868532566139e-06 -6.118636233894677e-06 0.0 0.0
0.0 -1.0390837437358132e-06 1.1224192615061098e-07 -8.466471593745809e-08 -2.7577210213149207e-08 7.311580418800225e-08 0.0 0.0
0.0 0.0 0.0 0.0 0.0 0.0 0.0 0.0
0.0 0.0007680317263638693 0.00044094923034576324 -0.0001642813310641632 -0.00027666789928160044 0.0015815032462688661 0.0 0.0
0.0 0.004924900295523297 0.0033672381521582463 -0.004764842131472667 0.00139760397931442 0.0018981293519208919 0.0 0.0
0.0 0.003385363758140489 0.002320017612449326 -0.0033293695002907025 0.001009351887841376 -0.0016507789690207804 0.0 0.0
0.0 0.0006292865183889534 0.00022506820372337 -5.72061475660815e-05 -0.00016786205615728844 -0.0009445622052410517 0.0 0.0
0.0 0.0 0.0 0.0 0.0 0.0 0.0 0.0
0.0 1.5028312787509444e-07 -1.5385716863678778e-08 1.1776366407597212e-08 3.6093504560833587e-09 1.561152117108147e-08 0.0 0.0
0.0 -5.668129223350014e-06 1.6516620890870794e-06 -1.3014598790229025e-06 -3.502022100641702e-07 -2.082058175269213e-06 0.0 0.0
0.0 6.681575208832287e-05 -1.5524730279787494e-06 2.955437780945173e-06 -1.4029647529662986e-06 2.641914301763613e-05 0.0 0.0
0.0 0.0006782856282036323 0.0004186486082843803 -0.0003185777657396159 -0.0001000708425447645 -0.00012158031928799379 0.0 0.0
0.0 0.0016470797713186401 0.0014828935712621631 -0.001192773883545503 -0.0002901196877166592 -0.0005833261706673904 0.0 0.0
0.0 0.003335857992148805 0.0029885597889439297 -0.002517933211173569 -0.00047062657777035996 -0.0012015582400384547 0.0 0.0
0.0 0.005469384220331617 0.0048762869304156175 -0.004250214053012952 -0.0006260728774026682 -0.0018407585167013864 0.0 0.0
0.0 0.00810361859242677 0.007167585725746819 -0.006411352212649539 -0.0007562335130972752 -0.0025002728417820017 0.0 0.0
0.0 0.01136155387030631 0.00996775763814331 -0.00909557584247861 -0.0008721817956647012 -0.0031755568221131956 0.0 0.0
0.0 0.015522261166107231 0.013472061530799804 -0.012493666611536789 -0.0009783949192630065 -0.003932181068459622 0.0 0.0
0.0 0.02047638902373746 0.017930393576586393 -0.016858698116398164 -0.0010716954601882262 -0.004888532039804709 0.0 0.0
0.0 0.02703353450047859 0.023490501259003985 -0.022345458382939287 -0.0011450428760646943 -0.006122615263617828 0.0 0.0
0.0 0.03482632961066395 0.03012406037829826 -0.028926057255517924 -0.0011980031227803245 -0.007550133810938571 0.0 0.0
0.0 0.04329033172641194 0.03755248191618651 -0.0363184227665593 -0.0012340591496272073 -0.008863917690293075 0.0 0.0
0.0 0.05214137672280552 0.045211761476136356 -0.04396278188177377 -0.001248979594362579 -0.009530924013424017 0.0 0.0
0.0 0.06027002497225231 0.0522554107866086 -0.051015850537486696 -0.0012395602491219368 -0.008888083778626809 0.0 0.0
0.0 0.06642626685901663 0.057613382014116254 -0.05640608261035083 -0.0012072994037653465 -0.006306181007765794 0.0 0.0
0.0 0.06927380630898088 0.059910057510044315 -0.05888216440643318 -0.0010278931036111635 1.0409858738902322e-14 0.0 0.0
0.0 0.06642626685901265 0.057613382014111744 -0.056406082610346304 -0.001207299403765418 0.006306181007789976 0.0 0.0
0.0 0.06027002497224197 0.05225541078659879 -0.05101585053747707 -0.0012395602491217055 0.008888083778648954 0.0 0.0
0.0 0.052141376722790594 0.045211761476123026 -0.04396278188176035 -0.0012489795943626779 0.009530924013438049 0.0 0.0
0.0 0.04329033172639635 0.03755248191617285 -0.03631842276654639 -0.0012340591496264712 0.008863917690296864 0.0 0.0
0.0 0.034826329610645086 0.030124060378281768 -0.028926057255501663 -0.0011980031227800897 0.0075501338109362675 0.0 0.0
0.0 0.027033534500461226 0.02349050125898862 -0.022345458382924697 -0.001145042876063911 0.006122615263615776 0.0 0.0
0.0 0.02047638902371798 0.01793039357656935 -0.01685869811638126 -0.001071695460188095 0.004888532039802392 0.0 0.0
0.0 0.015522261166088566 0.013472061530783133 -0.012493666611520538 -0.0009783949192625923 0.0039321810684558095 0.0 0.0
0.0 0.011361553870287765 0.009967757638126745 -0.009095575842462525 -0.0008721817956642174 0.003175556822107335 0.0 0.0
0.0 0.008103618592411052 0.007167585725732746 -0.006411352212636331 -0.0007562335130964161 0.0025002728417756674 0.0 0.0
0.0 0.0054693842203186885 0.004876286930404039 -0.004250214053002247 -0.0006260728774017924 0.001840758516696097 0.0 0.0
0.0 0.0033358579921388145 0.002988559788934611 -0.002517933211165185 -0.0004706265777694244 0.0012015582400345696 0.0 0.0
0.0 0.001647079771311333 0.001482893571255364 -0.0011927738835397043 -0.0002901196877156596 0.0005833261706643147 0.0 0.0
0.0 0.0006782856281991525 0.00041864860828131164 -0.0003185777657372318 -0.00010007084254408055 0.00012158031928688266 0.0 0.0
0.0 6.681575208703127e-05 -1.5524730282331506e-06 2.9554377811223288e-06 -1.4029647528888135e-06 -2.6419143017565502e-05 0.0 0.0
0.0 -5.668129223545609e-06 1.6516620891244203e-06 -1.3014598790504505e-06 -3.5020221007405537e-07 2.0820581752935583e-06 0.0 0.0
0.0 1.5028312785351273e-07 -1.538571686135809e-08 1.1776366405820481e-08 3.6093504555372983e-09 -1.561152116871207e-08 0.0 0.0
0.0 0.0 0.0 0.0 0.0 0.0 0.0 0.0
0.0 0.0006292865183845092 0.0002250682037214858 -5.72061475648042e-05 -0.00016786205615668107 0.0009445622052354208 0.0 0.0
0.0 0.0033853637581307424 0.002320017612441731 -0.0033293695002800964 0.0010093518878383637 0.001650778969014964 0.0 0.0
0.0 0.0023158531562652695 0.0015119892419902874 -0.0021903528094510925 0.0006783635674608061 -0.001263345361291286 0.0 0.0
0.0 0.00025736753881913877 9.467627304762805e-05 1.579788834668606e-06 -9.625606188229685e-05 -0.0005037432805133904 0.0 0.0
0.0 0.0 0.0 0.0 0.0 0.0 0.0 0.0
0.0 0.0 0.0 0.0 0.0 0.0 0.0 0.0
0.0 -2.583381490012492e-06 6.592535446113706e-08 -4.371390419781626e-08 -2.2211450263346405e-08 -1.9860415614205212e-07 0.0 0.0
0.0 -1.2579770809016873e-05 -1.4174028051436091e-05 1.1333275992506086e-05 2.840752058929924e-06 2.0263844563743802e-05 0.0 0.0
0.0 0.00021423046805595547 0.0001765799440635674 -0.0001320202878090233 -4.455965625454413e-05 -7.892705025982724e-05 0.0 0.0
0.0 0.001259064881667123 0.0008441770048399277 -0.0006633762304386417 -0.00018080077440128675 -0.00042607194201285366 0.0 0.0
0.0 0.002266617507390541 0.002094267398607063 -0.0017261660171972574 -0.0003681013814098043 -0.0011291132709820861 0.0 0.0
0.0 0.0041632133563091495 0.003649421158676049 -0.003123981753453741 -0.0005254394052223048 -0.0018681716910024491 0.0 0.0
0.0 0.0063254158834820775 0.005546133002346726 -0.0048848019757373835 -0.0006613310266093401 -0.0026075063303179213 0.0 0.0
0.0 0.008980934850695947 0.007848436166802971 -0.007069669573929022 -0.0007787665928739458 -0.0033634620648118284 0.0 0.0
0.0 0.012318809688973687 0.010716390538424757 -0.00983214216058292 -0.000884248377841841 -0.004186729888301024 0.0 0.0
0.0 0.01665911831391247 0.014362904793713063 -0.013389068582988679 -0.0009738362107243778 -0.005197383102933907 0.0 0.0
0.0 0.021972960251779312 0.018958361556308246 -0.01791365340285821 -0.0010447081534500384 -0.0064922223076188295 0.0 0.0
0.0 0.02831315413856994 0.024508523291221447 -0.023411925210771966 -0.0010965980804494805 -0.007988827470114129 0.0 0.0
0.0 0.03593335314262841 0.0308026959911012 -0.029670566073939735 -0.001132129917161453 -0.009375573819126617 0.0 0.0
0.0 0.043533598034989886 0.037440702464617406 -0.036287602420816766 -0.0011531000438006335 -0.010164320685922702 0.0 0.0
0.0 0.050615151684569454 0.043753937826565295 -0.042602109227460806 -0.0011518285991044886 -0.009659805083753269 0.0 0.0
0.0 0.05645633473253026 0.04880558400253941 -0.0476874847752592 -0.0011180992272801667 -0.00700592995206351 0.0 0.0
0.0 0.05939498915673242 0.051133912541221904 -0.05025365841231515 -0.0008802541289067499 1.0264575647789265e-14 0.0 0.0
0.0 0.05645633473252663 0.04880558400253497 -0.04768748477525457 -0.0011180992272804265 0.007005929952087269 0.0 0.0
0.0 0.05061515168456058 0.043753937826556503 -0.042602109227452015 -0.0011518285991044457 0.009659805083776268 0.0 0.0
0.0 0.043533598034977514 0.03744070246460612 -0.03628760242080559 -0.0011531000438005181 0.010164320685936305 0.0 0.0
0.0 0.03593335314261535 0.030802695991089726 -0.029670566073929136 -0.0011321299171606033 0.009375573819130047 0.0 0.0
0.0 0.02831315413855451 0.02450852329120809 -0.023411925210758747 -0.0010965980804493365 0.007988827470111511 0.0 0.0
0.0 0.021972960251764317 0.018958361556294892 -0.01791365340284558 -0.0010447081534493063 0.006492222307615792 0.0 0.0
0.0 0.016659118313898012 0.0143629047937 -0.013389068582976057 -0.0009738362107239379 0.005197383102931655 0.0 0.0
0.0 0.012318809688958848 0.010716390538411849 -0.009832142160570467 -0.0008842483778413755 0.004186729888297219 0.0 0.0
0.0 0.008980934850680493 0.007848436166789463 -0.007069669573915977 -0.0007787665928734894 0.003363462064805759 0.0 0.0
0.0 0.006325415883469715 0.005546133002335983 -0.004884801975727546 -0.0006613310266084352 0.0026075063303112704 0.0 0.0
0.0 0.004163213356298241 0.003649421158666148 -0.0031239817534446344 -0.0005254394052215123 0.0018681716909962596 0.0 0.0
0.0 0.002266617507382651 0.0020942673985993652 -0.0017261660171904948 -0.00036810138140887016 0.0011291132709776647 0.0 0.0
0.0 0.001259064881660302 0.0008441770048347927 -0.0006633762304344399 -0.00018080077440035277 0.0004260719420101487 0.0 0.0
0.0 0.00021423046805328855 0.00017657994406187818 -0.00013202028780775931 -4.455965625411865e-05 7.892705025899606e-05 0.0 0.0
0.0 -1.2579770809413015e-05 -1.4174028050943074e-05 1.1333275992118995e-05 2.8407520588240457e-06 -2.026384456312325e-05 0.0 0.0
0.0 -2.583381489848908e-06 6.592535438537149e-08 -4.371390413846017e-08 -2.2211450246908758e-08 1.986041560400587e-07 0.0 0.0
0.0 0.0 0.0 0.0 0.0 0.0 0.0 0.0
0.0 0.0 0.0 0.0 0.0 0.0 0.0 0.0
0.0 0.00025736753881581986 9.467627304640135e-05 1.5797888354829434e-06 -9.625606188188388e-05 0.0005037432805094214 0.0 0.0
0.0 0.00231585315625767 0.0015119892419843716 -0.0021903528094426926 0.0006783635674583201 0.0012633453612867986 0.0 0.0
0.0 0.0013425506346803815 0.0009114358077759311 -0.0013231525096094449 0.0004117167018335133 -0.0008869871727951175 0.0 0.0
0.0 9.707848279933722e-05 3.0530484942457566e-06 4.916286715822245e-05 -5.2215915652468256e-05 -0.00017778796177503358 0.0 0.0
0.0 0.0 0.0 0.0 0.0 0.0 0.0 0.0
0.0 0.0 0.0 0.0 0.0 0.0 0.0 0.0
0.0 -2.24616510734497e-06 1.5972522696188962e-07 -1.2573103519584418e-07 -3.3994191766034275e-08 -4.044500699970223e-07 0.0 0.0
0.0 -2.154845708420525e-06 -5.75445175586204e-06 4.666124222846244e-06 1.08832753301588e-06 1.0351994333500707e-05 0.0 0.0
0.0 4.8836517843467276e-05 6.379035250329443e-06 -4.24047208974378e-06 -2.1385631605857385e-06 1.3810515863266365e-05 0.0 0.0
0.0 0.0004967236319449134 0.0004072964892001406 -0.00031390571450494643 -9.339077469519399e-05 -0.00029260045854712704 0.0 0.0
0.0 0.0017677618976969336 0.0012123259970362162 -0.0009762687716642652 -0.0002360572253719507 -0.0008292399547957507 0.0 0.0
0.0 0.0027804250015885518 0.0024712049098054665 -0.002067258967287529 -0.00040394594251793925 -0.0016559222397583586 0.0 0.0
0.0 0.0046262245967131545 0.003966469635474936 -0.003424525045827792 -0.0005419445896471409 -0.0024499861105137513 0.0 0.0
0.0 0.0067315186019500225 0.005779867109063399 -0.005116200315201262 -0.0006636667938621374 -0.00324601187013749 0.0 0.0
0.0 0.009338279663896129 0.008026501343698209 -0.007255179482926782 -0.0007713218607714263 -0.00408817829801947 0.0 0.0
0.0 0.01268968895309901 0.010885995348402963 -0.010024328903710373 -0.000861666444692594 -0.005088880922078663 0.0 0.0
0.0 0.016907273189341487 0.014513140621728699 -0.013580983608260898 -0.0009321570134677916 -0.006334051953795702 0.0 0.0
0.0 0.022372537747075906 0.018951459274831422 -0.01796952895020149 -0.0009819303246299215 -0.007786310950078792 0.0 0.0
0.0 0.028045593314276904 0.02409566438625195 -0.023075250478889996 -0.0010204139073619614 -0.009172839264423794 0.0 0.0
0.0 0.03470563292140099 0.02964786354210112 -0.02860013463978206 -0.001047728902319053 -0.010029898836460348 0.0 0.0
0.0 0.04120579397354199 0.03516566243236732 -0.034110020447087476 -0.0010556419852798557 -0.009736233065508727 0.0 0.0
0.0 0.04656378952258313 0.03991162854262111 -0.0388885404078121 -0.0010230881348090276 -0.007341718437586497 0.0 0.0
0.0 0.049687593658616594 0.04230846032404959 -0.041592793448735614 -0.0007156668753139761 9.024898883769339e-15 0.0 0.0
0.0 0.04656378952258025 0.039911628542617116 -0.0388885404078081 -0.001023088134808943 0.007341718437608306 0.0 0.0
0.0 0.041205793973535715 0.03516566243236055 -0.03411002044708075 -0.0010556419852798303 0.009736233065530758 0.0 0.0
0.0 0.03470563292139089 0.029647863542091753 -0.028600134639772838 -0.001047728902318881 0.010029898836472147 0.0 0.0
0.0 0.028045593314265968 0.024095664386242506 -0.02307525047888129 -0.001020413907361209 0.009172839264425506 0.0 0.0
0.0 0.022372537747062916 0.018951459274820268 -0.017969528950190466 -0.0009819303246297955 0.007786310950075433 0.0 0.0
0.0 0.01690727318933014 0.014513140621718419 -0.013580983608251088 -0.000932157013467323 0.006334051953792216 0.0 0.0
0.0 0.012689688953087386 0.010885995348392375 -0.010024328903700483 -0.0008616664446918946 0.0050888809220759855 0.0 0.0
0.0 0.0093382796638851 0.00802650134368862 -0.007255179482917819 -0.0007713218607708031 0.004088178298016166 0.0 0.0
0.0 0.006731518601938887 0.005779867109053983 -0.005116200315192373 -0.0006636667938616122 0.0032460118701318438 0.0 0.0
0.0 0.004626224596703111 0.003966469635466225 -0.00342452504582004 -0.000541944589646182 0.002449986110507003 0.0 0.0
0.0 0.0027804250015796487 0.002471204909797692 -0.002067258967280559 -0.000403945942517132 0.0016559222397526327 0.0 0.0
0.0 0.0017677618976895213 0.0012123259970309096 -0.0009762687716598576 -0.00023605722537105149 0.0008292399547920715 0.0 0.0
0.0 0.0004967236319407508 0.0004072964891970144 -0.00031390571450245976 -9.339077469455398e-05 0.00029260045854497696 0.0 0.0
0.0 4.883651784189894e-05 6.379035249912767e-06 -4.240472089440296e-06 -2.1385631604725346e-06 -1.381051586350128e-05 0.0 0.0
0.0 -2.1548457092915955e-06 -5.754451755716724e-06 4.666124222734073e-06 1.0883275329825738e-06 -1.035199433324658e-05 0.0 0.0
0.0 -2.246165107199524e-06 1.5972522694916917e-07 -1.257310351860552e-07 -3.3994191763110714e-08 4.0445006996736767e-07 0.0 0.0
0.0 0.0 0.0 0.0 0.0 0.0 0.0 0.0
0.0 0.0 0.0 0.0 0.0 0.0 0.0 0.0
0.0 9.707848279704957e-05 3.0530484935648167e-06 4.91628671586523e-05 -5.221591565221724e-05 0.00017778796177258323 0.0 0.0
0.0 0.0013425506346749886 0.0009114358077717665 -0.0013231525096034146 0.00041171670183164777 0.0008869871727917845 0.0 0.0
0.0 0.001030565009132943 0.00040847374769800726 -0.0005917441854448993 0.00018327043774689198 -0.0004431847069367823 0.0 0.0
0.0 -7.077041965918575e-05 -2.7125770864708893e-05 4.939006277343063e-05 -2.2264291908721752e-05 -9.604204482235135e-06 0.0 0.0
0.0 1.683476983325989e-07 -9.842474380911868e-10 1.1381256918532304e-09 -1.5387825376230337e-10 3.35101228491758e-08 0.0 0.0
0.0 0.0 0.0 0.0 0.0 0.0 0.0 0.0
0.0 -6.002912790152338e-07 2.361648622678751e-08 -1.719295850391252e-08 -6.423527722869078e-09 -1.2456266137436325e-07 0.0 0.0
0.0 -4.596758698068024e-06 -1.0160305982914828e-06 7.951366753696949e-07 2.208939229217676e-07 3.3881687761092226e-06 0.0 0.0
0.0 -1.230244358685014e-05 -1.758384348289541e-05 1.404574879893384e-05 3.5380946839614747e-06 3.792979525746006e-05 0.0 0.0
0.0 0.00012501891152985782 0.00010238059446842753 -7.903840658259884e-05 -2.334218788582863e-05 -0.00013229433431790266 0.0 0.0
0.0 0.0007229398443919232 0.0005466652335849105 -0.000431512047856323 -0.00011515318572858747 -0.0005264589584623677 0.0 0.0
0.0 0.0019379581583670335 0.001339988914410649 -0.001094410861237364 -0.00024557805317328477 -0.0011636983197174358 0.0 0.0
0.0 0.0030192208195385464 0.0024473771530729577 -0.0020613460795583767 -0.00038603107351458 -0.001995003725681483 0.0 0.0
0.0 0.004525401922020559 0.003785086831801907 -0.003272676412765848 -0.0005124104190360607 -0.00279680524405091 0.0 0.0
0.0 0.006482210576005218 0.005424309180526172 -0.004799353858954445 -0.000624955321571725 -0.0036178317520047377 0.0 0.0
0.0 0.008935184740151928 0.007514254106902554 -0.0067938238757691925 -0.000720430231133365 -0.004545582544130232 0.0 0.0
0.0 0.012179133133240788 0.010183587435406974 -0.009388523458175852 -0.0007950639772311199 -0.005666152617592736 0.0 0.0
0.0 0.01608542249993716 0.013509923450918278 -0.012661069975303262 -0.0008488534756150105 -0.006948420290354285 0.0 0.0
0.0 0.020926597577513716 0.01744786928531512 -0.016558807040931062 -0.0008890622443840622 -0.00822746592450442 0.0 0.0
0.0 0.02603544318785869 0.021858553593149095 -0.020935761855511225 -0.0009227917376378535 -0.009102726390505626 0.0 0.0
0.0 0.03120963434975909 0.02649640248738965 -0.025550261456501234 -0.0009461410308884237 -0.009068284414513994 0.0 0.0
0.0 0.03632510156328485 0.030876361729692575 -0.02995550324166454 -0.0009208584880280366 -0.007252962888662971 0.0 0.0
0.0 0.03975186173423521 0.033367383596386475 -0.03283771524399687 -0.0005296683523896082 7.724289957655728e-15 0.0 0.0
0.0 0.036325101563283856 0.030876361729689963 -0.02995550324166195 -0.000920858488028033 0.007252962888681601 0.0 0.0
0.0 0.03120963434975534 0.02649640248738482 -0.025550261456496595 -0.0009461410308882 0.009068284414533164 0.0 0.0
0.0 0.026035443187850768 0.021858553593141754 -0.020935761855504057 -0.0009227917376377196 0.0091027263905156 0.0 0.0
0.0 0.02092659757750479 0.017447869285307418 -0.016558807040923926 -0.0008890622443834823 0.008227465924504683 0.0 0.0
0.0 0.016085422499926706 0.01350992345090974 -0.012661069975294816 -0.0008488534756149351 0.006948420290350267 0.0 0.0
0.0 0.01217913313323309 0.010183587435400049 -0.009388523458169382 -0.000795063977230657 0.0056661526175903814 0.0 0.0
0.0 0.008935184740143641 0.007514254106895475 -0.006793823875762419 -0.0007204302311330552 0.004545582544127455 0.0 0.0
0.0 0.006482210575996874 0.005424309180519069 -0.0047993538589478826 -0.0006249553215711835 0.0036178317520013962 0.0 0.0
0.0 0.00452540192201191 0.0037850868317943994 -0.0032726764127589025 -0.0005124104190354951 0.0027968052440453276 0.0 0.0
0.0 0.0030192208195302535 0.0024473771530661697 -0.0020613460795524236 -0.0003860310735137446 0.001995003725674866 0.0 0.0
0.0 0.0019379581583600944 0.0013399889144053018 -0.0010944108612327987 -0.00024557805317250404 0.0011636983197128238 0.0 0.0
0.0 0.0007229398443881586 0.0005466652335823177 -0.0004315120478542295 -0.00011515318572808784 0.0005264589584599915 0.0 0.0
0.0 0.0001250189115276875 0.00010238059446707255 -7.903840658153963e-05 -2.3342187885532983e-05 0.0001322943343164683 0.0 0.0
0.0 -1.230244358712746e-05 -1.758384348262613e-05 1.4045748798724898e-05 3.5380946839011557e-06 -3.79297952570393e-05 0.0 0.0
0.0 -4.596758698534613e-06 -1.016030598264935e-06 7.951366753483269e-07 2.2089392291664445e-07 -3.3881687759904517e-06 0.0 0.0
0.0 -6.002912788349186e-07 2.3616486216782317e-08 -1.719295849616168e-08 -6.423527720625745e-09 1.2456266134057105e-07 0.0 0.0
0.0 0.0 0.0 0.0 0.0 0.0 0.0 0.0
0.0 1.6834769789144244e-07 -9.84247435487633e-10 1.1381256888423935e-09 -1.5387825335482658e-10 -3.351012276057265e-08 0.0 0.0
0.0 -7.077041965989879e-05 -2.7125770864785875e-05 4.9390062773366406e-05 -2.226429190858069e-05 9.604204481481516e-06 0.0 0.0
0.0 0.001030565009127698 0.0004084737476953798 -0.0005917441854410996 0.0001832704377457206 0.00044318470693418497 0.0 0.0
0.0 0.0003185376761141323 0.00014459314491669173 -0.00021105899217158076 6.64658472548898e-05 -0.00019216166993132688 0.0 0.0
0.0 -4.593065798047615e-05 -2.115370338545381e-05 2.9989774882159445e-05 -8.83607149670571e-06 3.0988170913759445e-05 0.0 0.0
0.0 2.535276324517265e-06 -4.831974744427683e-09 1.2168905422072356e-08 -7.336930677643471e-09 5.485514330232776e-07 0.0 0.0
0.0 0.0 0.0 0.0 0.0 0.0 0.0 0.0
0.0 -2.859128898207967e-07 9.242535231306326e-09 -7.084965890506323e-09 -2.157569340802201e-09 -5.122909250329696e-08 0.0 0.0
0.0 -7.459821209607616e-06 7.299961605868183e-07 -5.640387799628884e-07 -1.6595738062392212e-07 -2.879406057237707e-06 0.0 0.0
0.0 -8.97247838436277e-07 -8.032939830589631e-06 6.390345643286854e-06 1.642594187302762e-06 3.1371599639761654e-05 0.0 0.0
0.0 4.2693432945168166e-05 -2.0918678054701544e-05 1.609189745093287e-05 4.826780603768673e-06 2.9311131772453146e-05 0.0 0.0
0.0 0.00019219208822653295 9.279076265448371e-05 -7.481333185717216e-05 -1.7977430797311534e-05 -0.00020974422454932983 0.0 0.0
0.0 0.0007603198065136689 0.0004522348302120598 -0.000367845441873987 -8.43893883380724e-05 -0.0006251368028900431 0.0 0.0
0.0 0.0014372917174400948 0.001084075701973034 -0.0008948553386743515 -0.00018922036329868227 -0.0012877886551234553 0.0 0.0
0.0 0.0024909302289486883 0.001907935523349445 -0.0016097410666545795 -0.00029819445669486557 -0.0019947529047376258 0.0 0.0
0.0 0.003761509871864853 0.0029514610307709525 -0.0025403448213483343 -0.0004111162094226181 -0.0027518114819566667 0.0 0.0
0.0 0.005377249238840811 0.004293538060851253 -0.003778690576051737 -0.0005148474847995109 -0.003572460734778779 0.0 0.0
0.0 0.00751971351794809 0.0060278798511062435 -0.005426102444882612 -0.0006017774062236324 -0.004498905575628318 0.0 0.0
0.0 0.010271074389872254 0.008231672555122305 -0.0075649056988832866 -0.0006667668562390199 -0.00554245727563547 0.0 0.0
0.0 0.01360911084923935 0.010941376011570983 -0.010222423547376108 -0.0007189524641948645 -0.0066223525851463756 0.0 0.0
0.0 0.017322150973116884 0.014143382645339849 -0.013383268125202644 -0.0007601145201372092 -0.007472147337237548 0.0 0.0
0.0 0.02150330039025219 0.01776054878905676 -0.01696154729082102 -0.0007990014982357334 -0.007620157995086424 0.0 0.0
0.0 0.02618370070073144 0.021644645846565957 -0.020842377188963583 -0.0008022686576023536 -0.0065754470363183805 0.0 0.0
0.0 0.029674765234579428 0.024245591980456553 -0.023925691579443773 -0.0003199004010127988 6.388552881153586e-15 0.0 0.0
0.0 0.02618370070073133 0.021644645846563976 -0.020842377188961276 -0.0008022686576026947 0.006575447036333188 0.0 0.0
0.0 0.02150330039025059 0.01776054878905374 -0.016961547290818398 -0.0007990014982353394 0.007620157995101838 0.0 0.0
0.0 0.017322150973111815 0.014143382645335288 -0.013383268125198316 -0.0007601145201369588 0.00747214733724523 0.0 0.0
0.0 0.013609110849232801 0.010941376011565838 -0.010222423547371453 -0.0007189524641943799 0.006622352585145104 0.0 0.0
0.0 0.010271074389866165 0.008231672555117442 -0.007564905698878843 -0.000666766856238595 0.005542457275631594 0.0 0.0
0.0 0.007519713517942961 0.006027879851101862 -0.005426102444878512 -0.0006017774062233499 0.004498905575626324 0.0 0.0
0.0 0.0053772492388349915 0.0042935380608463 -0.0037786905760473486 -0.0005148474847989512 0.0035724607347767563 0.0 0.0
0.0 0.0037615098718609677 0.0029514610307674618 -0.002540344821345161 -0.0004111162094223001 0.0027518114819542246 0.0 0.0
0.0 0.0024909302289411583 0.0019079355233439866 -0.001609741066649724 -0.00029819445669426254 0.00199475290473232 0.0 0.0
0.0 0.0014372917174352664 0.001084075701969083 -0.0008948553386710066 -0.00018922036329807682 0.001287788655118533 0.0 0.0
0.0 0.0007603198065099781 0.00045223483020978415 -0.00036784544187210396 -8.438938833767981e-05 0.0006251368028876005 0.0 0.0
0.0 0.00019219208822502943 9.27907626538671e-05 -7.481333185668627e-05 -1.7977430797181047e-05 0.0002097442245481917 0.0 0.0
0.0 4.2693432944418176e-05 -2.0918678054591622e-05 1.6091897450852733e-05 4.826780603738947e-06 -2.931113177256902e-05 0.0 0.0
0.0 -8.97247839407096e-07 -8.03293983044374e-06 6.390345643172369e-06 1.6425941872714562e-06 -3.137159963924971e-05 0.0 0.0
0.0 -7.459821210238374e-06 7.299961605998039e-07 -5.640387799729254e-07 -1.6595738062691538e-07 2.8794060573386986e-06 0.0 0.0
0.0 -2.8591288959316563e-07 9.24253522329496e-09 -7.084965884329158e-09 -2.15756933896141e-09 5.122909245679573e-08 0.0 0.0
0.0 0.0 0.0 0.0 0.0 0.0 0.0 0.0
0.0 2.5352763242583978e-06 -4.831974744202714e-09 1.2168905420848461e-08 -7.336930676644521e-09 -5.485514329585872e-07 0.0 0.0
0.0 -4.5930657980367723e-05 -2.1153703385100157e-05 2.998977488171232e-05 -8.836071496612158e-06 -3.098817091306316e-05 0.0 0.0
0.0 0.0003185376761108833 0.00014459314491538025 -0.00021105899216972469 6.646584725434448e-05 0.00019216166992959267 0.0 0.0
0.0 7.1753065664095e-05 -1.641256437282286e-06 1.614278608661999e-06 2.697782862040407e-08 7.211854224534392e-06 0.0 0.0
0.0 -4.535703482785739e-06 -5.866972466325335e-08 1.1594520454885966e-07 -5.7275479885603366e-08 -5.000065929652372e-08 0.0 0.0
0.0 5.149974561989484e-07 8.315305539707942e-10 5.81062297663047e-10 -1.4125928516329942e-09 1.0360537900382677e-07 0.0 0.0
0.0 5.102853194010992e-07 6.51326980736861e-09 -5.92521034271967e-09 -5.880594646505873e-10 1.0424366580308873e-07 0.0 0.0
0.0 -8.593099250458052e-07 3.008918804294092e-08 -2.426669608445876e-08 -5.822491958475931e-09 -2.039176300560015e-07 0.0 0.0
0.0 2.5641008229970374e-06 -2.518760980933328e-08 1.27120707934381e-08 1.24755390158696e-08 4.767190958111e-07 0.0 0.0
0.0 -1.7466760317648472e-06 -2.7618607081270113e-06 2.1785756896934515e-06 5.832850184335789e-07 2.270524783197641e-05 0.0 0.0
0.0 1.917310164646522e-05 -9.344339196944226e-07 9.476001287813069e-07 -1.3166209086906438e-08 -7.218139034097126e-06 0.0 0.0
0.0 8.443322373750505e-05 8.120150382252973e-06 -6.943922996936145e-06 -1.1762273853167732e-06 -9.861367268847751e-05 0.0 0.0
0.0 0.00015568915919774223 1.782788095079455e-05 -1.578166175448534e-05 -2.0462191963092998e-06 -0.00023933440195311677 0.0 0.0
0.0 0.0005088406960730837 0.0001329470700390783 -0.00011734049178677492 -1.5606578252303516e-05 -0.0005168277682593293 0.0 0.0
0.0 0.0007886315139973944 0.00037490519926104763 -0.00033266045182772327 -4.224474743332411e-05 -0.001024497917755543 0.0 0.0
0.0 0.0013679055330933611 0.0007600301217778457 -0.000673420435220919 -8.660968655692578e-05 -0.001615119776882241 0.0 0.0
0.0 0.002232998658922313 0.0013485806812232027 -0.001195951215104129 -0.00015262946611907486 -0.0023155370473752295 0.0 0.0
0.0 0.0033718904301921664 0.0021812599395312814 -0.0019503710401653253 -0.000230888899365954 -0.0031083831533782746 0.0 0.0
0.0 0.004870514881336743 0.0032894127313139406 -0.002978518473059312 -0.00031089425825462996 -0.003969821675461383 0.0 0.0
0.0 0.0068381490487555725 0.004741089530243281 -0.004341378238452968 -0.0003997112917903135 -0.004914174059848975 0.0 0.0
0.0 0.009442568934844004 0.006682533191906291 -0.006201729847473124 -0.00048080334443316366 -0.005787251202019977 0.0 0.0
0.0 0.012455550010806487 0.009161586168816759 -0.008617480114490613 -0.0005441060543261511 -0.006070867098342061 0.0 0.0
0.0 0.015891236856337275 0.012275050212949772 -0.011661295664764567 -0.000613754548185192 -0.0053368478728315185 0.0 0.0
0.0 0.02023615779110439 0.01491519486076391 -0.014849320497124875 -6.587436363903788e-05 4.978222695184442e-15 0.0 0.0
0.0 0.01589123685633885 0.012275050212948982 -0.011661295664763592 -0.0006137545481853899 0.005336847872842465 0.0 0.0
0.0 0.01245555001080506 0.009161586168814313 -0.008617480114488632 -0.000544106054325679 0.006070867098352761 0.0 0.0
0.0 0.009442568934840306 0.006682533191903362 -0.00620172984747034 -0.0004808033444330268 0.005787251202024192 0.0 0.0
0.0 0.006838149048751641 0.004741089530241311 -0.0043413782384512725 -0.00039971129179004083 0.004914174059846743 0.0 0.0
0.0 0.004870514881332861 0.003289412731311318 -0.002978518473056837 -0.0003108942582544809 0.00396982167545752 0.0 0.0
0.0 0.003371890430190608 0.00218125993952974 -0.0019503710401639282 -0.00023088889936581357 0.0031083831533771523 0.0 0.0
0.0 0.0022329986589185967 0.0013485806812209824 -0.0011959512151019371 -0.0001526294661190458 0.002315537047373 0.0 0.0
0.0 0.001367905533092233 0.0007600301217773299 -0.0006734204352205302 -8.66096865567995e-05 0.0016151197768804397 0.0 0.0
0.0 0.0007886315139940731 0.0003749051992593474 -0.0003326604518261831 -4.224474743316432e-05 0.0010244979177513457 0.0 0.0
0.0 0.0005088406960697928 0.00013294707003791737 -0.00011734049178573523 -1.5606578252182027e-05 0.0005168277682557313 0.0 0.0
0.0 0.00015568915919738946 1.782788095099395e-05 -1.5781661754669136e-05 -2.0462191963248043e-06 0.00023933440195310208 0.0 0.0
0.0 8.443322373667149e-05 8.12015038212541e-06 -6.9439229968298955e-06 -1.1762273852954423e-06 9.861367268745455e-05 0.0 0.0
0.0 1.917310164592971e-05 -9.344339197246941e-07 9.476001288067765e-07 -1.3166209082104327e-08 7.21813903374309e-06 0.0 0.0
0.0 -1.7466760321707174e-06 -2.7618607080854736e-06 2.178575689660804e-06 5.832850184246721e-07 -2.270524783160531e-05 0.0 0.0
0.0 2.5641008225426575e-06 -2.5187609804060635e-08 1.2712070789955e-08 1.2475539014106878e-08 -4.7671909570504365e-07 0.0 0.0
0.0 -8.593099251298585e-07 3.0089188041248155e-08 -2.4266696082362417e-08 -5.822491958886435e-09 2.039176300699479e-07 0.0 0.0
0.0 5.10285319165181e-07 6.513269804796147e-09 -5.925210340276538e-09 -5.880594645190752e-10 -1.0424366575315331e-07 0.0 0.0
0.0 5.149974558099532e-07 8.315305537905433e-10 5.810622967492264e-10 -1.4125928505440177e-09 -1.036053789230171e-07 0.0 0.0
0.0 -4.5357034833822444e-06 -5.866972459308606e-08 1.1594520445510385e-07 -5.7275479862008634e-08 5.000065948721313e-08 0.0 0.0
0.0 7.175306566272385e-05 -1.641256437495014e-06 1.6142786089808011e-06 2.697782851408651e-08 -7.211854224842666e-06 0.0 0.0
0.0 -5.583525764618224e-07 6.485410838052788e-07 -9.574884752023896e-07 3.0894739139705996e-07 -1.113051679935005e-06 0.0 0.0
0.0 -1.2255556618959075e-06 -7.295785333034991e-08 1.0834380143811487e-07 -3.538594810775188e-08 -1.1889529618243132e-07 0.0 0.0
0.0 3.6187657992177032e-06 1.0195274959671077e-08 7.11349756412122e-09 -1.7308772523796264e-08 7.81723116672718e-07 0.0 0.0
0.0 1.2405663355666563e-06 2.296314495505155e-08 -1.9338392250235115e-08 -3.624752704813151e-09 2.542797602654144e-07 0.0 0.0
0.0 7.821947515459587e-08 1.9553413154148733e-08 -1.741372149231297e-08 -2.139691661835925e-09 -6.284691891100786e-09 0.0 0.0
0.0 1.3548064263496657e-06 2.027879397800174e-09 -1.7982440208853433e-09 -2.29635376911699e-10 1.8888268355036466e-07 0.0 0.0
0.0 9.272512352740501e-07 6.421934087550306e-08 -7.47080017149989e-08 1.0488660839485056e-08 2.2573962852008002e-05 0.0 0.0
0.0 1.3088216300129143e-05 -1.2712496804910987e-07 1.286112565517129e-07 -1.4862885025907878e-09 -2.096768906982993e-05 0.0 0.0
0.0 9.152511323979437e-05 -1.816817646653374e-09 5.103148657554374e-09 -3.2863310108914707e-09 -7.157290716142581e-05 0.0 0.0
0.0 0.00014347557009202486 9.462971447634244e-08 -8.535965152330577e-08 -9.270062953029899e-09 -0.00022900503660839034 0.0 0.0
0.0 0.0003086650437302733 1.3835685659121926e-07 -1.328005757099541e-07 -5.5562808812748995e-09 -0.00036023997033631454 0.0 0.0
0.0 0.00038350239841527525 2.476648857513526e-08 -5.4338349208607184e-08 2.9571860633501027e-08 -0.0006682163945453286 0.0 0.0
0.0 0.0005609454547356079 9.189973705827769e-07 -6.768687334197279e-07 -2.421286371630456e-07 -0.0010237851738831055 0.0 0.0
0.0 0.0007698917394961622 8.608111413962606e-07 -1.0418630628771663e-07 -7.566248351083305e-07 -0.0015306121951959204 0.0 0.0
0.0 0.0011004307707575872 -8.000824744539432e-06 7.921513373378185e-06 7.931137116092788e-08 -0.002254350851653064 0.0 0.0
0.0 0.0015488463232315214 1.2394020449661594e-06 -1.1136034574284133e-05 9.896632529318204e-06 -0.0032582571291791054 0.0 0.0
0.0 0.0023879820207551258 0.0001782669698503994 -0.0002199699510819304 4.1702981231531115e-05 -0.004416944742791185 0.0 0.0
0.0 0.0035740742621172923 0.0005768422970467656 -0.0006638478131348285 8.700551608806212e-05 -0.005559647816323752 0.0 0.0
0.0 0.005266699235903795 0.0013471928713484564 -0.0014925332225463137 0.00014534035119785727 -0.006518997235282894 0.0 0.0
0.0 0.007785932705103769 0.003173298398135851 -0.003090080654387927 -8.321774374792525e-05 -0.006532518864479753 0.0 0.0
0.0 0.013474105597501078 0.0062081459965135245 -0.006501326832918562 0.0002931808364050394 5.710276002046655e-15 0.0 0.0
0.0 0.0077859327051066855 0.0031732983981350906 -0.0030900806543873774 -8.321774374771345e-05 0.006532518864490279 0.0 0.0
0.0 0.005266699235901777 0.001347192871346815 -0.001492533222544576 0.0001453403511977601 0.006518997235285274 0.0 0.0
0.0 0.0035740742621142335 0.0005768422970460899 -0.0006638478131338749 8.70055160877862e-05 0.005559647816322075 0.0 0.0
0.0 0.002387982020752184 0.00017826696985060803 -0.00021996995108217605 4.1702981231567585e-05 0.004416944742786621 0.0 0.0
0.0 0.0015488463232300811 1.2394020448354046e-06 -1.1136034574073798e-05 9.896632529238691e-06 0.003258257129175896 0.0 0.0
0.0 0.0011004307707565646 -8.000824744675933e-06 7.921513373559762e-06 7.931137111619776e-08 0.0022543508516522075 0.0 0.0
0.0 0.000769891739495619 8.608111416665996e-07 -1.0418630659910627e-07 -7.56624835067324e-07 0.0015306121951942854 0.0 0.0
0.0 0.0005609454547337724 9.189973706151945e-07 -6.768687334957627e-07 -2.421286371194759e-07 0.0010237851738797395 0.0 0.0
0.0 0.0003835023984141417 2.4766488701412467e-08 -5.43383493060412e-08 2.9571860604630425e-08 0.0006682163945430034 0.0 0.0
0.0 0.0003086650437279736 1.3835685666017283e-07 -1.3280057576782e-07 -5.5562808923401144e-09 0.0003602399703330579 0.0 0.0
0.0 0.000143475570091738 9.46297144861333e-08 -8.535965153607648e-08 -9.27006295003479e-09 0.0002290050366081197 0.0 0.0
0.0 9.152511323919225e-05 -1.8168176364368862e-09 5.1031486511160764e-09 -3.2863310146870253e-09 7.157290716078601e-05 0.0 0.0
0.0 1.3088216299586632e-05 -1.271249680551221e-07 1.286112565608134e-07 -1.486288505677164e-09 2.0967689069586348e-05 0.0 0.0
0.0 9.272512348349487e-07 6.421934087340557e-08 -7.470800171379816e-08 1.04886608404006e-08 -2.257396285169028e-05 0.0 0.0
0.0 1.3548064257701182e-06 2.027879393269517e-09 -1.7982440164533427e-09 -2.2963537682250245e-10 -1.8888268341974747e-07 0.0 0.0
0.0 7.821947466927294e-08 1.955341314824257e-08 -1.741372148698716e-08 -2.13969166125215e-09 6.284691988554587e-09 0.0 0.0
0.0 1.2405663350389034e-06 2.2963144945294832e-08 -1.9338392241929008e-08 -3.624752703366745e-09 -2.542797601527055e-07 0.0 0.0
0.0 3.618765798929172e-06 1.0195274960301875e-08 7.113497562151617e-09 -1.7308772522443827e-08 -7.817231166001966e-07 0.0 0.0
0.0 -1.2255556618199918e-06 -7.295785339324138e-08 1.0834380152793184e-07 -3.538594813470779e-08 1.1889529607898706e-07 0.0 0.0
0.0 -5.58352577349298e-07 6.485410842469286e-07 -9.57488475860538e-07 3.0894739161371347e-07 1.1130516807503192e-06 0.0 0.0
0.0 -1.1154274967154842e-06 6.94027292706571e-08 -1.0140536005932449e-07 3.200263078866925e-08 -1.5472886577778064e-07 0.0 0.0
0.0 1.563318351507121e-07 -8.962566343147133e-09 1.253236508218711e-08 -3.5697987390420057e-09 2.559376361966427e-08 0.0 0.0
0.0 -7.973792108451382e-07 -1.204917363749536e-08 8.854264138521895e-09 3.1949094989739415e-09 -1.7398262980274483e-07 0.0 0.0
0.0 1.490317100255079e-06 4.241911744592017e-08 -3.470315010590186e-08 -7.71596734001991e-09 3.1235457426870176e-07 0.0 0.0
0.0 -9.046999604837317e-07 -2.5830668004379132e-08 1.7516571732222505e-08 8.314096272158702e-09 -2.619781416867651e-07 0.0 0.0
0.0 -1.8986681417112873e-06 -3.7690649343781417e-07 2.984549616397255e-07 7.845153179812128e-08 -1.801873217033658e-06 0.0 0.0
0.0 1.160226147041548e-05 4.325068702081542e-06 -3.439354128953473e-06 -8.857145731281439e-07 3.0979798013681736e-05 0.0 0.0
0.0 2.2884497170798586e-05 6.720965276849732e-07 -6.817828797019444e-07 9.686352016991624e-09 -7.404983261879345e-06 0.0 0.0
0.0 8.45154038325039e-05 -8.168760653485986e-06 7.005377528603182e-06 1.163383124882643e-06 -9.889777779139321e-05 0.0 0.0
0.0 0.00015477418700902943 -1.770316551831726e-05 1.5658012924995955e-05 2.045152593321215e-06 -0.00023887729822386856 0.0 0.0
0.0 0.0005046445606244683 -0.00013252628044644233 0.00011694398430432248 1.5582296142119935e-05 -0.0005169608949537148 0.0 0.0
0.0 0.0007993869765497422 -0.00037456808442900977 0.00033237411528396225 4.219396914504754e-05 -0.0010212836666614322 0.0 0.0
0.0 0.001374983781934622 -0.0007639829583496261 0.0006766446706273811 8.733828772224411e-05 -0.0016156903175594817 0.0 0.0
0.0 0.0022525945345944834 -0.0013622006800179814 0.001208456244885278 0.00015374443513270337 -0.002311308030294409 0.0 0.0
0.0 0.0033696491905072807 -0.002185735181699484 0.001958864016047436 0.00022687116565204787 -0.0031098036923790993 0.0 0.0
0.0 0.004727035680067937 -0.003153526950350677 0.0028740870692452415 0.000279439881105435 -0.004049188938429715 0.0 0.0
0.0 0.00611522156716263 -0.004084511981154676 0.0037884351399610945 0.0002960768411935831 -0.005214294286550264 0.0 0.0
0.0 0.007379047538380593 -0.0046252267602847775 0.004370548496120825 0.0002546782641639486 -0.006639419589065154 0.0 0.0
0.0 0.007655187892005574 -0.004312997080765736 0.004164118782345192 0.00014887829842054852 -0.008332027790633552 0.0 0.0
0.0 0.006648144744090515 -0.003171379669525287 0.0030858412606463506 8.553840887893502e-05 -0.00976523411406373 0.0 0.0
0.0 0.012686204107815404 -0.0018119814122312793 0.0006703686337422912 0.001141612778488987 8.031336012903623e-15 0.0 0.0
0.0 0.006648144744094571 -0.003171379669525687 0.0030858412606469543 8.553840887873064e-05 0.009765234114070072 0.0 0.0
0.0 0.007655187892004937 -0.004312997080764578 0.004164118782344127 0.00014887829842045574 0.008332027790638892 0.0 0.0
0.0 0.00737904753837757 -0.004625226760283112 0.0043705484961192535 0.0002546782641638572 0.0066394195890656345 0.0 0.0
0.0 0.006115221567158175 -0.0040845119811513154 0.00378843513995799 0.0002960768411933281 0.005214294286547246 0.0 0.0
0.0 0.004727035680063444 -0.0031535269503473015 0.0028740870692420526 0.0002794398811052478 0.004049188938426428 0.0 0.0
0.0 0.0033696491905044505 -0.002185735181696318 0.0019588640160448077 0.00022687116565151168 0.003109803692376706 0.0 0.0
0.0 0.002252594534590766 -0.0013622006800153128 0.0012084562448828867 0.00015374443513242595 0.0023113080302917554 0.0 0.0
0.0 0.0013749837819294823 -0.0007639829583461517 0.0006766446706243188 8.733828772183279e-05 0.0016156903175547916 0.0 0.0
0.0 0.0007993869765448125 -0.00037456808442645203 0.0003323741152816215 4.2193969144830394e-05 0.001021283666656482 0.0 0.0
0.0 0.0005046445606207525 -0.00013252628044512876 0.00011694398430320946 1.558229614191918e-05 0.000516960894950265 0.0 0.0
0.0 0.00015477418700809143 -1.7703165518180586e-05 1.5658012924846538e-05 2.045152593333978e-06 0.00023887729822291438 0.0 0.0
0.0 8.451540383205684e-05 -8.168760653533311e-06 7.005377528646753e-06 1.1633831248865216e-06 9.88977777913073e-05 0.0 0.0
0.0 2.2884497170182427e-05 6.720965277249828e-07 -6.817828797279187e-07 9.686352002936482e-09 7.404983261461322e-06 0.0 0.0
0.0 1.1602261469854003e-05 4.325068702041789e-06 -3.439354128923545e-06 -8.857145731182357e-07 -3.0979798013343655e-05 0.0 0.0
0.0 -1.8986681423045424e-06 -3.7690649345489956e-07 2.9845496165368955e-07 7.845153180121216e-08 1.8018732171760941e-06 0.0 0.0
0.0 -9.046999610048385e-07 -2.5830668016928637e-08 1.7516571743071845e-08 8.314096273852852e-09 2.619781417877792e-07 0.0 0.0
0.0 1.4903170996868914e-06 4.241911743258753e-08 -3.470315009501489e-08 -7.715967337572316e-09 -3.123545741501756e-07 0.0 0.0
0.0 -7.973792112328151e-07 -1.2049173637036891e-08 8.854264135792826e-09 3.194909501241335e-09 1.7398262987621965e-07 0.0 0.0
0.0 1.5633183536249753e-07 -8.96256633991177e-09 1.2532365079843436e-08 -3.5697987399297236e-09 -2.5593763663451428e-08 0.0 0.0
0.0 -1.1154274964526031e-06 6.940272925345171e-08 -1.0140536003419192e-07 3.2002630780733594e-08 1.5472886573936063e-07 0.0 0.0
0.0 0.0 0.0 0.0 0.0 0.0 0.0 0.0
0.0 2.1048115274896888e-08 1.779303116025321e-10 -7.692157692559785e-11 -1.0100873467691951e-10 4.212842558405787e-09 0.0 0.0
0.0 -6.96977332642471e-07 -2.1540156773917086e-08 1.7601164642050715e-08 3.938992131864946e-09 -1.437910681489006e-07 0.0 0.0
0.0 -9.073015980962664e-07 -5.68571413310864e-08 4.755545022616241e-08 9.301691104915119e-09 -2.3445117856962518e-07 0.0 0.0
0.0 7.006219533685963e-06 2.273153865596955e-07 -1.944437572579736e-07 -3.287162930167307e-08 1.4024003214091607e-06 0.0 0.0
0.0 1.3467139629504615e-05 2.0388503582185173e-06 -1.6433689797942923e-06 -3.9548137842421185e-07 9.34864879294645e-06 0.0 0.0
0.0 -9.957557632715927e-06 2.179717621402528e-06 -1.7970316481162057e-06 -3.826859732862716e-07 4.210326051594657e-06 0.0 0.0
0.0 4.9402535174689e-05 1.969125887226226e-05 -1.50613419057581e-05 -4.629916966504313e-06 2.610603034135087e-05 0.0 0.0
0.0 0.00019145182103221436 -9.273411664949692e-05 7.47279286604875e-05 1.8006187989009494e-05 -0.00021004957073284943 0.0 0.0
0.0 0.0007568907867483121 -0.0004506480786277951 0.00036646695504520256 8.418112358259206e-05 -0.0006227860601499311 0.0 0.0
0.0 0.0014354575244539516 -0.001083315643401076 0.0008941593535785781 0.00018915628982249722 -0.0012866820922157608 0.0 0.0
0.0 0.002491644115712938 -0.0019081538490757206 0.0016098555537782736 0.00029829829529744677 -0.0019953904094221334 0.0 0.0
0.0 0.0037663590660183175 -0.0029549333042163295 0.0025432655800285138 0.00041166772418781535 -0.0027485741112246403 0.0 0.0
0.0 0.005390705430091723 -0.004307189773818489 0.0037917377092250336 0.0005154520645934548 -0.003553273234309688 0.0 0.0
0.0 0.007530322305915056 -0.006042291143110184 0.005443311052515279 0.0005989800905949028 -0.004483344879525504 0.0 0.0
0.0 0.010165443713059849 -0.008139581457581401 0.007487419117454526 0.0006521623401268751 -0.005668344083898724 0.0 0.0
0.0 0.013013819884543209 -0.010389389828531968 0.009714181325133416 0.0006752085033985416 -0.007265072346937908 0.0 0.0
0.0 0.015396924976290544 -0.012345448857904534 0.011670640104592019 0.000674808753312518 -0.009339106011279276 0.0 0.0
0.0 0.016877064833333868 -0.013162601643571196 0.012519381299963541 0.0006432203436076521 -0.011493677718875725 0.0 0.0
0.0 0.015715187035192892 -0.011423407542702445 0.010814062853859281 0.0006093446888431618 -0.012021746895271457 0.0 0.0
0.0 0.01592231357244792 -0.008959944532254223 0.0070937837580153885 0.0018661607742388293 5.8451507523038515e-15 0.0 0.0
0.0 0.015715187035196698 -0.011423407542702773 0.010814062853859701 0.0006093446888430771 0.0120217468952835 0.0 0.0
0.0 0.016877064833334125 -0.013162601643569598 0.012519381299962305 0.0006432203436072774 0.011493677718886977 0.0 0.0
0.0 0.015396924976285043 -0.012345448857899788 0.011670640104587507 0.0006748087533122783 0.00933910601128275 0.0 0.0
0.0 0.013013819884534974 -0.010389389828525417 0.00971418132512717 0.0006752085033982401 0.007265072346935139 0.0 0.0
0.0 0.010165443713051078 -0.008139581457574003 0.00748741911744741 0.0006521623401265888 0.005668344083894863 0.0 0.0
0.0 0.007530322305908017 -0.0060422911431043625 0.005443311052509983 0.0005989800905943801 0.004483344879521627 0.0 0.0
0.0 0.005390705430084607 -0.004307189773811989 0.003791737709218891 0.0005154520645930943 0.0035532732343059306 0.0 0.0
0.0 0.0037663590660095662 -0.002954933304209148 0.0025432655800220016 0.000411667724187148 0.0027485741112196985 0.0 0.0
0.0 0.0024916441157053254 -0.0019081538490697957 0.0016098555537731713 0.0002982982952966234 0.001995390409416746 0.0 0.0
0.0 0.0014354575244469744 -0.0010833156433956099 0.0008941593535737571 0.0001891562898218527 0.0012866820922094718 0.0 0.0
0.0 0.0007568907867420792 -0.00045064807862361895 0.00036646695504172054 8.418112358189844e-05 0.0006227860601457643 0.0 0.0
0.0 0.00019145182103021783 -9.273411664850638e-05 7.472792865971936e-05 1.8006187988786955e-05 0.00021004957073157628 0.0 0.0
0.0 4.9402535174258695e-05 1.9691258872026342e-05 -1.5061341905565922e-05 -4.62991696646048e-06 -2.6106030341166188e-05 0.0 0.0
0.0 -9.95755763369247e-06 2.179717621218185e-06 -1.7970316479729713e-06 -3.826859732452082e-07 -4.210326050973863e-06 0.0 0.0
0.0 1.3467139629074487e-05 2.0388503582536764e-06 -1.6433689798210128e-06 -3.954813784327424e-07 -9.348648793026442e-06 0.0 0.0
0.0 7.006219533177373e-06 2.2731538652596097e-07 -1.9444375723002515e-07 -3.287162929593774e-08 -1.4024003212458688e-06 0.0 0.0
0.0 -9.073015986570772e-07 -5.6857141346010775e-08 4.755545023829637e-08 9.301691107725905e-09 2.3445117868003778e-07 0.0 0.0
0.0 -6.969773323641747e-07 -2.1540156766816746e-08 1.7601164636488607e-08 3.938992130327122e-09 1.4379106809095408e-07 0.0 0.0
0.0 2.104811525417068e-08 1.779303114248141e-10 -7.692157684864826e-11 -1.0100873457621018e-10 -4.2128425542012475e-09 0.0 0.0
0.0 0.0 0.0 0.0 0.0 0.0 0.0 0.0
0.0 0.0 0.0 0.0 0.0 0.0 0.0 0.0
0.0 0.0 0.0 0.0 0.0 0.0 0.0 0.0
0.0 -6.673786689358188e-07 -2.6521950268112564e-08 2.1499513791296284e-08 5.022436476819881e-09 -1.3134363579990852e-07 0.0 0.0
0.0 1.8682322036662964e-06 7.292438497842065e-08 -5.975073658410082e-08 -1.3173648394326133e-08 3.735910496881116e-07 0.0 0.0
0.0 2.0647674511108867e-06 2.2516299844036058e-07 -1.7736706428713847e-07 -4.779593415325699e-08 8.660561606589257e-07 0.0 0.0
0.0 -1.22710016588317e-05 -1.348775935250671e-06 1.037593159903084e-06 3.1118277534764447e-07 -3.402645661285204e-06 0.0 0.0
0.0 1.4695458932122616e-05 2.791578123097447e-05 -2.211388689825301e-05 -5.801894332721661e-06 6.034838848199151e-05 0.0 0.0
0.0 0.00013673892028561086 -0.00010501681195446555 8.135768382529644e-05 2.3659128129169196e-05 -0.00013718020879798984 0.0 0.0
0.0 0.0007206652181618788 -0.0005450525214752199 0.00043012347662838577 0.00011492904484683341 -0.000524740077809347 0.0 0.0
0.0 0.0019357074702463506 -0.0013382757317722837 0.0010927623636423107 0.00024551336812997317 -0.0011604121336577173 0.0 0.0
0.0 0.0030142377054058834 -0.0024473415806520464 0.002061274399946942 0.00038606718070510466 -0.0019947406019055454 0.0 0.0
0.0 0.00452598961990506 -0.0037849094290714775 0.0032725824956357542 0.0005123269334357207 -0.0027980169361512485 0.0 0.0
0.0 0.00648209877600798 -0.005423859784214741 0.004798859902541685 0.0006249998816730525 -0.003612761140547924 0.0 0.0
0.0 0.00893804507864342 -0.007520073826144771 0.00679899212852607 0.0007210816976186957 -0.004511035933965813 0.0 0.0
0.0 0.012182525266903398 -0.010198566864983046 0.009404330596072314 0.0007942362689107338 -0.005602771505000725 0.0 0.0
0.0 0.016024863540684414 -0.01346759000605336 0.012628739067549242 0.0008388509385041186 -0.007045100705892421 0.0 0.0
0.0 0.0205552387432503 -0.0170750001782641 0.016220759262661345 0.0008542409156027627 -0.009127128343038627 0.0 0.0
0.0 0.024628948342393882 -0.02038563151540446 0.01955002483271529 0.0008356066826891665 -0.011989513936789929 0.0 0.0
0.0 0.02705403156105051 -0.022129997354501142 0.021343377793287092 0.0007866195612140578 -0.014913741860065846 0.0 0.0
0.0 0.02531398015601342 -0.020268271591598955 0.019558299514157555 0.0007099720774413891 -0.0158717956088754 0.0 0.0
0.0 0.02294004036335523 -0.0163431515714713 0.013799097592616758 0.002544053978854547 6.581107186987012e-15 0.0 0.0
0.0 0.025313980156016422 -0.02026827159159849 0.01955829951415703 0.0007099720774414593 0.015871795608891633 0.0 0.0
0.0 0.027054031561050663 -0.022129997354498755 0.02134337779328517 0.00078661956121357 0.014913741860081878 0.0 0.0
0.0 0.02462894834238736 -0.020385631515398083 0.019550024832709317 0.000835606682688744 0.011989513936797005 0.0 0.0
0.0 0.020555238743238766 -0.017075000178254283 0.01622075926265196 0.0008542409156023314 0.009127128343037638 0.0 0.0
0.0 0.016024863540674433 -0.013467590006044713 0.012628739067540947 0.0008388509385037642 0.0070451007058888 0.0 0.0
0.0 0.012182525266892686 -0.010198566864974008 0.009404330596063935 0.0007942362689100662 0.005602771504995716 0.0 0.0
0.0 0.008938045078632028 -0.007520073826135034 0.0067989921285167235 0.0007210816976183062 0.004511035933961368 0.0 0.0
0.0 0.006482098775996139 -0.005423859784204814 0.004798859902532242 0.0006249998816725726 0.0036127611405425307 0.0 0.0
0.0 0.004525989619894473 -0.003784909429062907 0.0032725824956278925 0.000512326933435014 0.002798016936144801 0.0 0.0
0.0 0.0030142377053940634 -0.0024473415806424855 0.002061274399938139 0.0003860671807043465 0.0019947406018974547 0.0 0.0
0.0 0.0019357074702371186 -0.0013382757317650209 0.001092762363636143 0.000245513368128878 0.001160412133651802 0.0 0.0
0.0 0.0007206652181566586 -0.000545052521471557 0.0004301234766254618 0.00011492904484609474 0.0005247400778065634 0.0 0.0
0.0 0.00013673892028365472 -0.00010501681195330552 8.135768382437931e-05 2.3659128128926114e-05 0.0001371802087968155 0.0 0.0
0.0 1.4695458931280137e-05 2.7915781230800357e-05 -2.2113886898122468e-05 -5.80189433267776e-06 -6.0348388481920785e-05 0.0 0.0
0.0 -1.2271001659792405e-05 -1.3487759355407255e-06 1.0375931601330075e-06 3.111827754077334e-07 3.4026456621372067e-06 0.0 0.0
0.0 2.0647674505053856e-06 2.2516299845129215e-07 -1.7736706429516565e-07 -4.779593415611727e-08 -8.660561606802034e-07 0.0 0.0
0.0 1.8682322031391885e-06 7.292438495947189e-08 -5.975073656882235e-08 -1.3173648390657147e-08 -3.73591049577993e-07 0.0 0.0
0.0 -6.673786687448563e-07 -2.6521950260483167e-08 2.1499513785132376e-08 5.022436475351499e-09 1.3134363576041204e-07 0.0 0.0
0.0 0.0 0.0 0.0 0.0 0.0 0.0 0.0
0.0 0.0 0.0 0.0 0.0 0.0 0.0 0.0
0.0 0.0 0.0 0.0 0.0 0.0 0.0 0.0
0.0 0.0 0.0 0.0 0.0 0.0 0.0 0.0
0.0 -1.9885686319327028e-07 -9.042500065212355e-09 7.070759409378278e-09 1.9717406558339976e-09 -3.727888583608044e-08 0.0 0.0
0.0 -2.4744223030299965e-06 -1.8022640795415001e-07 1.4690897587138403e-07 3.331743208276705e-08 -5.041893378248485e-07 0.0 0.0
0.0 7.007504908059601e-06 4.014625357815617e-07 -3.2776582754916183e-07 -7.369670823242702e-08 1.304253692276444e-06 0.0 0.0
0.0 2.0157839701683132e-05 1.4877836472166841e-05 -1.1797938518484891e-05 -3.0798979536820204e-06 2.721291393202123e-05 0.0 0.0
0.0 5.964698160878099e-05 -2.7497183745356405e-05 2.089327861112493e-05 6.603905134231715e-06 -2.795749283134914e-05 0.0 0.0
0.0 0.0005052950863013179 -0.0004090110769764231 0.00031562369944028803 9.33873775361345e-05 -0.0002973454267377903 0.0 0.0
0.0 0.0017649106834191856 -0.0012104315791366437 0.0009744616446742357 0.00023596993446240808 -0.0008260097617956838 0.0 0.0
0.0 0.0027778712568855084 -0.002470280474714764 0.0020661872176233114 0.0004040932570914527 -0.0016527241751918276 0.0 0.0
0.0 0.004627330676194788 -0.003966911194193792 0.0034249554047819583 0.0005419557894118315 -0.002449600648534042 0.0 0.0
0.0 0.006731435853469248 -0.0057793615877967655 0.005115997588466745 0.0006633639993300212 -0.0032477092832139697 0.0 0.0
0.0 0.009332789672182923 -0.008020776198362136 0.007249974274229365 0.0007708019241327751 -0.00408327907402539 0.0 0.0
0.0 0.01267568995210629 -0.010875969249357648 0.010013649091862586 0.0008623201574950562 -0.005044555090305559 0.0 0.0
0.0 0.016893225679103195 -0.014515188245058968 0.013581011005161507 0.0009341772398974563 -0.006221987899245818 0.0 0.0
0.0 0.022364502514078746 -0.01896726957215443 0.01798791728642581 0.000979352285728622 -0.0078089130927822955 0.0 0.0
0.0 0.02792753458111349 -0.023956537214816963 0.022965493854761404 0.0009910433600555202 -0.010159403660610114 0.0 0.0
0.0 0.033769872378655 -0.028591502364829546 0.02763861292919411 0.0009528894356354367 -0.013483562225460793 0.0 0.0
0.0 0.03734123627883997 -0.031148803610790837 0.03028317409057933 0.0008656295202114932 -0.017130122612625556 0.0 0.0
0.0 0.03513125794306695 -0.02886448646565787 0.028133247915660662 0.0007312385499972061 -0.018859563168855974 0.0 0.0
0.0 0.030478796789264816 -0.023616042796068677 0.02049097199011296 0.0031250708059556917 8.082076674575944e-15 0.0 0.0
0.0 0.035131257943069136 -0.02886448646565655 0.028133247915659573 0.0007312385499969923 0.018859563168874986 0.0 0.0
0.0 0.03734123627883778 -0.03114880361078649 0.03028317409057556 0.0008656295202109521 0.017130122612644544 0.0 0.0
0.0 0.03376987237864708 -0.028591502364821622 0.02763861292918677 0.0009528894356348357 0.013483562225471112 0.0 0.0
0.0 0.02792753458109961 -0.02395653721480482 0.02296549385474957 0.0009910433600552502 0.010159403660610513 0.0 0.0
0.0 0.02236450251406531 -0.018967269572142807 0.01798791728641451 0.0009793522857282912 0.007808913092779016 0.0 0.0
0.0 0.016893225679089924 -0.014515188245047168 0.013581011005150542 0.0009341772398966376 0.006221987899241168 0.0 0.0
0.0 0.012675689952093562 -0.010875969249346355 0.010013649091851956 0.0008623201574943927 0.005044555090301384 0.0 0.0
0.0 0.009332789672168804 -0.008020776198349984 0.00724997427421763 0.0007708019241323517 0.004083279074020634 0.0 0.0
0.0 0.006731435853454927 -0.0057793615877842295 0.005115997588454997 0.0006633639993292347 0.0032477092832067715 0.0 0.0
0.0 0.0046273306761809106 -0.003966911194181649 0.003424955404770565 0.0005419557894110837 0.002449600648525645 0.0 0.0
0.0 0.002777871256875512 -0.0024702804747058203 0.0020661872176153295 0.0004040932570904891 0.0016527241751855578 0.0 0.0
0.0 0.0017649106834105883 -0.0012104315791303477 0.0009744616446690656 0.00023596993446128238 0.0008260097617915894 0.0 0.0
0.0 0.0005052950862966811 -0.0004090110769731462 0.00031562369943772384 9.338737753542235e-05 0.00029734542673556493 0.0 0.0
0.0 5.9646981606795757e-05 -2.749718374468449e-05 2.0893278610610658e-05 6.603905134073772e-06 2.7957492830850257e-05 0.0 0.0
0.0 2.0157839700713107e-05 1.487783647197705e-05 -1.1797938518334346e-05 -3.0798979536427557e-06 -2.7212913931671197e-05 0.0 0.0
0.0 7.007504907219711e-06 4.014625357172702e-07 -3.2776582749763057e-07 -7.369670821961124e-08 -1.3042536921157643e-06 0.0 0.0
0.0 -2.474422303145439e-06 -1.8022640795372814e-07 1.4690897587081943e-07 3.331743208291588e-08 5.041893378418852e-07 0.0 0.0
0.0 -1.988568631114358e-07 -9.042500061442109e-09 7.070759406402369e-09 1.9717406550387577e-09 3.72788858200418e-08 0.0 0.0
0.0 0.0 0.0 0.0 0.0 0.0 0.0 0.0
0.0 0.0 0.0 0.0 0.0 0.0 0.0 0.0
0.0 0.0 0.0 0.0 0.0 0.0 0.0 0.0
0.0 0.0 0.0 0.0 0.0 0.0 0.0 0.0
0.0 0.0 0.0 0.0 0.0 0.0 0.0 0.0
0.0 -1.6494797236909553e-06 -1.25180187868091e-07 9.94793065195467e-08 2.570088134854425e-08 -2.9211865650176426e-07 0.0 0.0
0.0 -6.874802793655261e-06 -1.5767922723586088e-06 1.2419789586628027e-06 3.348133136958048e-07 -2.2850441882044622e-06 0.0 0.0
0.0 3.576500715100978e-05 2.491251933087564e-05 -1.9873361456259445e-05 -5.039157874615979e-06 3.465955940386162e-05 0.0 0.0
0.0 0.0002481477175150698 -0.0001867297702934605 0.0001408481479871718 4.588162230628867e-05 -9.283420927148973e-05 0.0 0.0
0.0 0.0012641106018449954 -0.0008447648254674908 0.0006640856259415886 0.00018067919952590236 -0.00042966316750996504 0.0 0.0
0.0 0.002265338673592515 -0.0020928117315697813 0.0017246727741888214 0.00036813895738095994 -0.0011247210218937576 0.0 0.0
0.0 0.004162487502145662 -0.0036496806118706663 0.003124016459808708 0.0005256641520619583 -0.0018652309485634407 0.0 0.0
0.0 0.006326320589328685 -0.0055472321130484 0.004885856318635086 0.0006613757944133098 -0.0026072486488980394 0.0 0.0
0.0 0.008980327173524823 -0.007847591491561511 0.007069301399323751 0.0007782900922377619 -0.003365275844118919 0.0 0.0
0.0 0.012306890977544803 -0.010705006043251445 0.009821884574201415 0.0008831214690500259 -0.0041816759782013855 0.0 0.0
0.0 0.01662312182121206 -0.014332829364125211 0.013358849097558169 0.0009739802665670478 -0.005151295126172995 0.0 0.0
0.0 0.021932123554008726 -0.018935651166530225 0.017886054026506983 0.0010495971400232402 -0.006360572731302258 0.0 0.0
0.0 0.028351500769044066 -0.02456610542910537 0.02346397173422082 0.0011021336948845437 -0.007931211814293323 0.0 0.0
0.0 0.03604054465228479 -0.0308849278231961 0.02977479849865797 0.0011101293245381469 -0.010214189856856607 0.0 0.0
0.0 0.04303222660614201 -0.03681689606297465 0.035766256551008783 0.0010506395119658533 -0.013628997885449547 0.0 0.0
0.0 0.047080958779184695 -0.040126579369810414 0.039207829483006634 0.0009187498868038215 -0.017837563466680178 0.0 0.0
0.0 0.04463614353558536 -0.03735292414543694 0.036624279954399756 0.0007286441910371745 -0.02093816092786701 0.0 0.0
0.0 0.038683019262458214 -0.030857860123238635 0.0271958816926175 0.0036619784306211153 8.212180935274205e-15 0.0 0.0
0.0 0.04463614353558498 -0.03735292414543355 0.036624279954396585 0.0007286441910369641 0.02093816092788711 0.0 0.0
0.0 0.04708095877917911 -0.04012657936980347 0.03920782948299967 0.0009187498868037946 0.017837563466700422 0.0 0.0
0.0 0.0430322266061301 -0.03681689606296347 0.03576625655099798 0.001050639511965498 0.013628997885460927 0.0 0.0
0.0 0.03604054465226976 -0.030884927823182935 0.029774798498645144 0.0011101293245377656 0.010214189856857948 0.0 0.0
0.0 0.028351500769026948 -0.024566105429090435 0.02346397173420625 0.0011021336948841963 0.007931211814290913 0.0 0.0
0.0 0.021932123553992707 -0.01893565116651619 0.01788605402649361 0.00104959714002258 0.006360572731299031 0.0 0.0
0.0 0.01662312182119713 -0.014332829364111427 0.013358849097545492 0.0009739802665659354 0.005151295126169096 0.0 0.0
0.0 0.012306890977527017 -0.01070500604323589 0.009821884574186066 0.0008831214690498254 0.004181675978196525 0.0 0.0
0.0 0.008980327173508003 -0.007847591491546697 0.00706930139930982 0.0007782900922368679 0.0033652758441123035 0.0 0.0
0.0 0.006326320589312896 -0.005547232113034609 0.004885856318622037 0.0006613757944125692 0.0026072486488901603 0.0 0.0
0.0 0.004162487502133113 -0.003649680611859663 0.0031240164597986287 0.0005256641520610334 0.0018652309485573402 0.0 0.0
0.0 0.0022653386735839542 -0.0020928117315610465 0.0017246727741812146 0.0003681389573798309 0.0011247210218890218 0.0 0.0
0.0 0.0012641106018380726 -0.0008447648254624378 0.0006640856259375089 0.00018067919952492829 0.00042966316750726457 0.0 0.0
0.0 0.00024814771751147715 -0.00018672977029100032 0.00014084814798529015 4.5881622305710594e-05 9.283420927000166e-05 0.0 0.0
0.0 3.5765007150204034e-05 2.4912519330425887e-05 -1.987336145590403e-05 -5.039157874522063e-06 -3.4659559403294515e-05 0.0 0.0
0.0 -6.874802794593063e-06 -1.5767922724430842e-06 1.241978958728896e-06 3.348133137141609e-07 2.285044188348439e-06 0.0 0.0
0.0 -1.6494797235304166e-06 -1.2518018785490416e-07 9.94793065089779e-08 2.570088134592939e-08 2.921186564721411e-07 0.0 0.0
0.0 0.0 0.0 0.0 0.0 0.0 0.0 0.0
0.0 0.0 0.0 0.0 0.0 0.0 0.0 0.0
0.0 0.0 0.0 0.0 0.0 0.0 0.0 0.0
0.0 0.0 0.0 0.0 0.0 0.0 0.0 0.0
0.0 0.0 0.0 0.0 0.0 0.0 0.0 0.0
0.0 0.0 0.0 0.0 0.0 0.0 0.0 0.0
0.0 -1.6427912562006257e-06 -1.4576765561260727e-07 1.1635194098500306e-07 2.9415714627583024e-08 -2.453416837903687e-07 0.0 0.0
0.0 1.2391923509829231e-05 5.1706963713144855e-06 -4.0896318285854315e-06 -1.0810645427290036e-06 6.276306398783502e-06 0.0 0.0
0.0 3.08940660210703e-05 -4.3619835398952126e-05 3.1901656134377114e-05 1.1718179264574629e-05 -1.4531814958742494e-05 0.0 0.0
0.0 0.0007052030605895589 -0.0004196933009996688 0.0003205987883032424 9.90945126964267e-05 -0.00013191507284160146 0.0 0.0
0.0 0.0016476126742503198 -0.0014826298294195034 0.0011927379663058892 0.0002898918631136136 -0.0005842997393883139 0.0 0.0
0.0 0.003336924618754576 -0.0029891039395896174 0.002518273544560413 0.00047083039502920633 -0.00119750133618592 0.0 0.0
0.0 0.005470694295246466 -0.004877785814071069 0.004251462726025097 0.0006263230880459729 -0.0018382966860815328 0.0 0.0
0.0 0.008105108820943105 -0.007168990834987827 0.006412757742375588 0.0007562330926122326 -0.0025005073246256674 0.0 0.0
0.0 0.011359913513704169 -0.00996593422181776 0.009094374332193752 0.0008715598896240066 -0.0031769599482829826 0.0 0.0
0.0 0.015503840447648552 -0.013455236463977081 0.012478372978896342 0.0009768634850807374 -0.003925568248866179 0.0 0.0
0.0 0.020421016742629736 -0.017882834902874033 0.016811717688528592 0.001071117214345443 -0.004847566498429287 0.0 0.0
0.0 0.026963571297221878 -0.023437280565361727 0.02228666680548065 0.0011506137598810814 -0.006012771919098119 0.0 0.0
0.0 0.034866038223624767 -0.030180050165427425 0.02897028204527794 0.0012097681201494789 -0.007446047278627639 0.0 0.0
0.0 0.04352434896989628 -0.0377674389177384 0.03654467147467134 0.001222767443067067 -0.009362451594243515 0.0 0.0
0.0 0.05194095074194563 -0.04493744050342329 0.043792824165694286 0.0011446163377290266 -0.012392193968286468 0.0 0.0
0.0 0.057035727587573234 -0.04902471247108607 0.0480616983591506 0.0009630141119354623 -0.01696415956056988 0.0 0.0
0.0 0.05412763204209815 -0.04590590941648019 0.04520239441110725 0.0007035150053729206 -0.02224154418988742 0.0 0.0
0.0 0.04682689025487422 -0.038282446301897234 0.034113921709104184 0.00416852459279304 9.076073226310655e-15 0.0 0.0
0.0 0.05412763204209661 -0.04590590941647614 0.04520239441110345 0.0007035150053726873 0.02224154418990804 0.0 0.0
0.0 0.05703572758756452 -0.04902471247107691 0.048061698359141286 0.000963014111935608 0.01696415956058969 0.0 0.0
0.0 0.05194095074193131 -0.04493744050341015 0.04379282416568161 0.0011446163377285077 0.012392193968298399 0.0 0.0
0.0 0.04352434896987912 -0.03776743891772329 0.03654467147465662 0.0012227674430666823 0.009362451594246087 0.0 0.0
0.0 0.034866038223606136 -0.030180050165410827 0.028970282045262044 0.0012097681201487464 0.00744604727862673 0.0 0.0
0.0 0.026963571297203476 -0.023437280565345508 0.022286666805465195 0.0011506137598803093 0.006012771919095632 0.0 0.0
0.0 0.020421016742611604 -0.01788283490285777 0.016811717688513514 0.001071117214344257 0.00484756649842615 0.0 0.0
0.0 0.015503840447626888 -0.01345523646395785 0.012478372978877328 0.0009768634850805225 0.00392556824886127 0.0 0.0
0.0 0.011359913513684476 -0.009965934221800116 0.009094374332177017 0.0008715598896230962 0.0031769599482771014 0.0 0.0
0.0 0.008105108820925128 -0.007168990834971805 0.006412757742360239 0.0007562330926115656 0.002500507324618688 0.0 0.0
0.0 0.005470694295232043 -0.004877785814057916 0.004251462726012852 0.0006263230880450633 0.0018382966860758612 0.0 0.0
0.0 0.0033369246187432504 -0.002989103939578852 0.002518273544550748 0.00047083039502810315 0.0011975013361815447 0.0 0.0
0.0 0.0016476126742424573 -0.0014826298294123384 0.00119273796629982 0.0002898918631125179 0.0005842997393852651 0.0 0.0
0.0 0.000705203060583918 -0.00041969330099579237 0.0003205987883002307 9.909451269556081e-05 0.00013191507284001668 0.0 0.0
0.0 3.089406602018871e-05 -4.3619835399054014e-05 3.190165613448167e-05 1.171817926457202e-05 1.4531814959259031e-05 0.0 0.0
0.0 1.2391923508636797e-05 5.170696371246199e-06 -4.0896318285341225e-06 -1.0810645427119516e-06 -6.276306398712612e-06 0.0 0.0
0.0 -1.642791256056295e-06 -1.457676555988268e-07 1.1635194097405649e-07 2.9415714624769247e-08 2.4534168376624963e-07 0.0 0.0
0.0 0.0 0.0 0.0 0.0 0.0 0.0 0.0
0.0 0.0 0.0 0.0 0.0 0.0 0.0 0.0
0.0 0.0 0.0 0.0 0.0 0.0 0.0 0.0
0.0 0.0 0.0 0.0 0.0 0.0 0.0 0.0
0.0 0.0 0.0 0.0 0.0 0.0 0.0 0.0
0.0 0.0 0.0 0.0 0.0 0.0 0.0 0.0
0.0 -5.301947323951955e-07 -5.211120635768816e-08 4.136700228583785e-08 1.074420407185488e-08 -5.5764332291065365e-08 0.0 0.0
0.0 1.6283416110863495e-05 1.1058452002923027e-05 -8.547914769809165e-06 -2.5105372331136496e-06 6.703552525973666e-06 0.0 0.0
0.0 0.00020033817240341196 -0.00010857279006151543 7.890651637889074e-05 2.9666273682624866e-05 -6.10873012837466e-07 0.0 0.0
0.0 0.0010209090680656004 -0.0008239650978492337 0.0006415829195798667 0.00018238217826936672 -0.00018295839838087575 0.0 0.0
0.0 0.0023491665023899194 -0.0021507115139812183 0.0017695311739120132 0.0003811803400692045 -0.0006066748546794889 0.0 0.0
0.0 0.004328747037048496 -0.00392311465423123 0.003362840171187028 0.0005602744830441981 -0.0010803583832203693 0.0 0.0
0.0 0.006860726917973824 -0.0061302065270391875 0.005421875436441575 0.0007083310905976151 -0.001602279576758785 0.0 0.0
0.0 0.009915407462889443 -0.00882170270477443 0.007986550443718857 0.0008351522610555743 -0.002144620397101686 0.0 0.0
0.0 0.013782486813133692 -0.012127095281907904 0.011175884818939658 0.000951210462968241 -0.002700470990606939 0.0 0.0
0.0 0.018415674712407494 -0.016271968864356345 0.015211346723303341 0.001060622141053011 -0.0033264614682110612 0.0 0.0
0.0 0.02467553689588451 -0.02149708990944539 0.020339561253716273 0.0011575286557291226 -0.004126925693226696 0.0 0.0
0.0 0.032082614368597356 -0.028001789660267996 0.0267615608826477 0.0012402287776202658 -0.005174908765485377 0.0 0.0
0.0 0.0408926660515788 -0.035787845199207385 0.03448338546791185 0.00130445973129557 -0.006411160393719633 0.0 0.0
0.0 0.05101251703772554 -0.04447624613130039 0.04314790241271603 0.0013283437185843312 -0.007759253420431653 0.0 0.0
0.0 0.06070290411465644 -0.05280157395801261 0.05155327106197274 0.0012483028960398861 -0.00981425849752831 0.0 0.0
0.0 0.06679704920942743 -0.05783958002099895 0.05682337388832047 0.0010162061326784834 -0.014400731325051548 0.0 0.0
0.0 0.06399553953197108 -0.054709181025708785 0.05405728800801609 0.000651893017692719 -0.0225814751085744 0.0 0.0
0.0 0.05590340065470252 -0.0461281954693004 0.04148865974615252 0.004639535723147884 8.886988367429183e-15 0.0 0.0
0.0 0.06399553953196875 -0.05470918102570456 0.05405728800801226 0.0006518930176922924 0.022581475108592784 0.0 0.0
0.0 0.06679704920941608 -0.05783958002098813 0.05682337388830967 0.0010162061326784112 0.014400731325069456 0.0 0.0
0.0 0.06070290411464018 -0.05280157395799793 0.05155327106195878 0.0012483028960391688 0.009814258497539141 0.0 0.0
0.0 0.051012517037704465 -0.044476246131282086 0.04314790241269768 0.0013283437185843358 0.007759253420434414 0.0 0.0
0.0 0.040892666051557794 -0.03578784519918882 0.03448338546789409 0.0013044597312947377 0.006411160393720048 0.0 0.0
0.0 0.03208261436857557 -0.0280017896602489 0.026761560882629366 0.0012402287776195255 0.005174908765483096 0.0 0.0
0.0 0.024675536895861938 -0.02149708990942543 0.020339561253696986 0.0011575286557284404 0.004126925693223965 0.0 0.0
0.0 0.01841567471238375 -0.01627196886433559 0.015211346723283246 0.0010606221410523488 0.0033264614682071178 0.0 0.0
0.0 0.013782486813110027 -0.012127095281886527 0.011175884818918907 0.0009512104629676182 0.0027004709906019954 0.0 0.0
0.0 0.00991540746286827 -0.008821702704755489 0.007986550443700524 0.0008351522610549593 0.002144620397095667 0.0 0.0
0.0 0.00686072691795573 -0.006130206527022995 0.005421875436426169 0.0007083310905968312 0.0016022795767536317 0.0 0.0
0.0 0.004328747037035655 -0.003923114654219139 0.0033628401711759477 0.0005602744830431919 0.0010803583832168166 0.0 0.0
0.0 0.002349166502380689 -0.0021507115139720867 0.0017695311739040376 0.0003811803400680498 0.0006066748546765587 0.0 0.0
0.0 0.0010209090680590633 -0.0008239650978438559 0.0006415829195755179 0.0001823821782683385 0.0001829583983792272 0.0 0.0
0.0 0.00020033817240070842 -0.00010857279006006761 7.890651637780241e-05 2.9666273682265466e-05 6.108730126867213e-07 0.0 0.0
0.0 1.6283416109990824e-05 1.1058452002700385e-05 -8.547914769632645e-06 -2.510537233067887e-06 -6.703552525804021e-06 0.0 0.0
0.0 -5.301947322418017e-07 -5.211120634290696e-08 4.136700227412343e-08 1.0744204068790724e-08 5.5764332271987006e-08 0.0 0.0
0.0 0.0 0.0 0.0 0.0 0.0 0.0 0.0
0.0 0.0 0.0 0.0 0.0 0.0 0.0 0.0
0.0 0.0 0.0 0.0 0.0 0.0 0.0 0.0
0.0 0.0 0.0 0.0 0.0 0.0 0.0 0.0
0.0 0.0 0.0 0.0 0.0 0.0 0.0 0.0
0.0 0.0 0.0 0.0 0.0 0.0 0.0 0.0
0.0 -9.358286179290562e-07 -9.36213002212803e-08 7.091029120208625e-08 2.2711009019184512e-08 -5.957663808258335e-08 0.0 0.0
0.0 1.5175268508897133e-06 -1.13603534506356e-06 7.083581961435368e-08 1.065199525449195e-06 3.4605241628009627e-06 0.0 0.0
0.0 0.00046916571250913265 -0.0002781489312326765 0.0002067502722267793 7.139865900589746e-05 1.3736673128560431e-05 0.0 0.0
0.0 0.0013479948006130944 -0.0013144345782575184 0.0010461721995343582 0.00026826237872315967 -0.0001920284607232114 0.0 0.0
0.0 0.003105876345003607 -0.0028447628484842063 0.0023813760787398048 0.00046338676974440286 -0.00046612774084625147 0.0 0.0
0.0 0.00534989171499993 -0.004875192439803223 0.004239944329195086 0.0006352481106081362 -0.0007993515063259705 0.0 0.0
0.0 0.008260151717034725 -0.007400360820441142 0.006623569446816458 0.0007767913736246835 -0.0011692158159574116 0.0 0.0
0.0 0.011838621388526673 -0.010495416981755316 0.009592598282426036 0.000902818699329281 -0.0015521669245146205 0.0 0.0
0.0 0.01616402590982051 -0.014324434882236713 0.013302453318295347 0.00102198156394137 -0.0019408342261717716 0.0 0.0
0.0 0.021865357018015567 -0.019126248229610204 0.01799101012931007 0.0011352381003001317 -0.0023887629651742426 0.0 0.0
0.0 0.0285593846014758 -0.025178244299970322 0.023940098995382172 0.0012381453045881433 -0.0030093294258163703 0.0 0.0
0.0 0.03714245705965884 -0.03261704246507979 0.0312934513752299 0.0013235910898499186 -0.0038352788904966054 0.0 0.0
0.0 0.0472316885437297 -0.04135648339043288 0.03997304673137381 0.0013834366590590233 -0.004775575002802812 0.0 0.0
0.0 0.05830691482702868 -0.050939377701706 0.049526821160272766 0.001412556541433284 -0.00559593812751933 0.0 0.0
0.0 0.06903789423274927 -0.060234888956212936 0.05885520297468965 0.0013796859815233117 -0.006446200894287693 0.0 0.0
0.0 0.07641659856873328 -0.06647561442022491 0.06536128450902776 0.0011143299111971345 -0.009774382047919273 0.0 0.0
0.0 0.07435055328281892 -0.06397297243211214 0.0634112003087518 0.0005617721233602282 -0.021192648116084012 0.0 0.0
0.0 0.06592870879008596 -0.05476838128026497 0.04972315524698872 0.005045226033276182 6.435824095873954e-15 0.0 0.0
0.0 0.0743505532828154 -0.0639729724321074 0.06341120030874786 0.0005617721233595724 0.021192648116098826 0.0 0.0
0.0 0.07641659856871888 -0.06647561442021177 0.06536128450901478 0.0011143299111970894 0.009774382047934215 0.0 0.0
0.0 0.06903789423273045 -0.06023488895619634 0.05885520297467378 0.0013796859815225443 0.006446200894296084 0.0 0.0
0.0 0.05830691482700404 -0.050939377701684614 0.04952682116025147 0.0014125565414331827 0.005595938127521867 0.0 0.0
0.0 0.047231688543705914 -0.041356483390411834 0.03997304673135378 0.0013834366590580746 0.0047755750028033285 0.0 0.0
0.0 0.03714245705963297 -0.03261704246505723 0.03129345137520798 0.001323591089849247 0.0038352788904953477 0.0 0.0
0.0 0.02855938460144941 -0.0251782442999471 0.023940098995359847 0.0012381453045872378 0.0030093294258140783 0.0 0.0
0.0 0.021865357017989764 -0.01912624822958737 0.01799101012928792 0.0011352381002994484 0.0023887629651720534 0.0 0.0
0.0 0.01616402590979341 -0.014324434882213044 0.013302453318272303 0.0010219815639407256 0.0019408342261686604 0.0 0.0
0.0 0.01183862138850257 -0.01049541698173345 0.009592598282404687 0.0009028186993287683 0.0015521669245099775 0.0 0.0
0.0 0.008260151717015385 -0.0074003608204232015 0.006623569446799461 0.0007767913736237343 0.001169215815953678 0.0 0.0
0.0 0.00534989171498488 -0.004875192439788948 0.004239944329181831 0.0006352481106071204 0.0007993515063232496 0.0 0.0
0.0 0.003105876344992286 -0.002844762848473235 0.00238137607873001 0.0004633867697432252 0.00046612774084387387 0.0 0.0
0.0 0.0013479948006056832 -0.0013144345782502452 0.0010461721995282693 0.0002682623787219755 0.000192028460721665 0.0 0.0
0.0 0.0004691657125050745 -0.0002781489312295905 0.00020675027222441799 7.139865900517207e-05 -1.373667312890605e-05 0.0 0.0
0.0 1.5175268499114974e-06 -1.136035345312905e-06 7.083581981646596e-08 1.06519952549634e-06 -3.460524162589904e-06 0.0 0.0
0.0 -9.358286176765532e-07 -9.36213001927943e-08 7.09102911802755e-08 2.2711009012500863e-08 5.957663806372381e-08 0.0 0.0
0.0 0.0 0.0 0.0 0.0 0.0 0.0 0.0
0.0 0.0 0.0 0.0 0.0 0.0 0.0 0.0
0.0 0.0 0.0 0.0 0.0 0.0 0.0 0.0
0.0 0.0 0.0 0.0 0.0 0.0 0.0 0.0
0.0 0.0 0.0 0.0 0.0 0.0 0.0 0.0
0.0 0.0 0.0 0.0 0.0 0.0 0.0 0.0
0.0 -4.6039742046719905e-07 -5.853725170073649e-08 4.9520409295273314e-08 9.016842405465027e-09 -6.021782012969738e-08 0.0 0.0
0.0 9.138067454311777e-05 -1.974655512434208e-05 1.2647027113492034e-05 7.099528010849884e-06 1.3262968966927377e-05 0.0 0.0
0.0 0.0006971682563346301 -0.000552949552974602 0.0004194164993880414 0.00013353305358656083 4.595407342051121e-05 0.0 0.0
0.0 0.0019248944098803243 -0.0018048089660848228 0.0014654474629714732 0.0003393615031133489 -6.588242294535873e-05 0.0 0.0
0.0 0.003860824585029061 -0.0035537695230268935 0.0030186307151124176 0.0005351388079144741 -0.00019959969596494923 0.0 0.0
0.0 0.006450424229218897 -0.005832468173076444 0.005135002861846923 0.0006974653112295204 -0.0003609114022428482 0.0 0.0
0.0 0.009677840332845196 -0.008679601975005063 0.007844188882155708 0.0008354130928493506 -0.0005453416850094107 0.0 0.0
0.0 0.013710574978272601 -0.0121870167085257 0.011224514408430145 0.0009625023000955551 -0.0007260229557671488 0.0 0.0
0.0 0.0188644372237061 -0.016545104036004055 0.015459720014831913 0.0010853840211721417 -0.0008983276484224008 0.0 0.0
0.0 0.02487509035391963 -0.022033684667338044 0.020829588228682607 0.0012040964386554347 -0.0011411097499998215 0.0 0.0
0.0 0.03276237976250934 -0.028892767023072023 0.02757967007009879 0.0013130969529732243 -0.00148797651597729 0.0 0.0
0.0 0.04236771504924647 -0.03724283129533314 0.035842075507242034 0.0014007557880911011 -0.0019477812403580787 0.0 0.0
0.0 0.05350621177665252 -0.04689567506281503 0.04543999615782003 0.0014556789049950528 -0.002494021009702943 0.0 0.0
0.0 0.0654478124522372 -0.057207110002447305 0.05573501895503839 0.001472091047408904 -0.0029320786363338314 0.0 0.0
0.0 0.07686975490898261 -0.06706220296590659 0.0655913094444999 0.0014708935214067737 -0.003073684554642596 0.0 0.0
0.0 0.08547831558198364 -0.0745075622355308 0.07312760212055065 0.0013799601149800987 -0.004120008299172588 0.0 0.0
0.0 0.08539356598584731 -0.07389077062274707 0.07339171600163069 0.000499054621116333 -0.014492691431410212 0.0 0.0
0.0 0.07782884368699795 -0.06504002155349387 0.05988716625963635 0.005152855293857445 4.169407874510256e-15 0.0 0.0
0.0 0.08539356598584072 -0.07389077062274056 0.07339171600162461 0.0004990546211159502 0.014492691431418934 0.0 0.0
0.0 0.08547831558196506 -0.07450756223551466 0.07312760212053442 0.001379960114980073 0.004120008299181057 0.0 0.0
0.0 0.07686975490896017 -0.06706220296588701 0.06559130944448091 0.0014708935214060987 0.0030736845546471894 0.0 0.0
0.0 0.06544781245220915 -0.057207110002422894 0.05573501895501427 0.0014720910474086625 0.0029320786363349694 0.0 0.0
0.0 0.053506211776625706 -0.04689567506279146 0.04543999615779727 0.0014556789049941627 0.002494021009702601 0.0 0.0
0.0 0.04236771504921739 -0.03724283129530771 0.035842075507217186 0.0014007557880905451 0.0019477812403580715 0.0 0.0
0.0 0.03276237976248077 -0.028892767023046766 0.02757967007007485 0.0013130969529718984 0.0014879765159761889 0.0 0.0
0.0 0.024875090353889903 -0.022033684667311995 0.020829588228657166 0.001204096438654821 0.0011411097499988139 0.0 0.0
0.0 0.01886443722367781 -0.01654510403597897 0.015459720014807587 0.0010853840211713806 0.000898327648420753 0.0 0.0
0.0 0.013710574978245063 -0.012187016708501551 0.011224514408406607 0.0009625023000949351 0.000726022955764759 0.0 0.0
0.0 0.009677840332824124 -0.008679601974985829 0.007844188882137455 0.0008354130928483756 0.0005453416850075259 0.0 0.0
0.0 0.006450424229201699 -0.005832468173060204 0.005135002861831717 0.0006974653112284868 0.00036091140224130916 0.0 0.0
0.0 0.0038608245850161537 -0.003553769523014419 0.0030186307151010886 0.000535138807913331 0.00019959969596369508 0.0 0.0
0.0 0.0019248944098714511 -0.0018048089660759872 0.0014654474629638683 0.00033936150311211826 6.588242294450856e-05 0.0 0.0
0.0 0.000697168256329939 -0.0005529495529706964 0.0004194164993849883 0.00013353305358570756 -4.5954073420526014e-05 0.0 0.0
0.0 9.138067454166778e-05 -1.9746555123938256e-05 1.2647027113218344e-05 7.099528010719977e-06 -1.3262968966759037e-05 0.0 0.0
0.0 -4.603974210373721e-07 -5.8537251764729536e-08 4.9520409342134194e-08 9.01684242265159e-09 6.021782013958798e-08 0.0 0.0
0.0 0.0 0.0 0.0 0.0 0.0 0.0 0.0
0.0 0.0 0.0 0.0 0.0 0.0 0.0 0.0
0.0 0.0 0.0 0.0 0.0 0.0 0.0 0.0
0.0 0.0 0.0 0.0 0.0 0.0 0.0 0.0
0.0 0.0 0.0 0.0 0.0 0.0 0.0 0.0
0.0 0.0 0.0 0.0 0.0 0.0 0.0 0.0
0.0 1.6004297709530511e-06 6.953396174423087e-08 2.3531156086074017e-09 -7.18870773527135e-08 -3.3915251981440465e-07 0.0 0.0
0.0 0.0002358185801006956 -8.30293122914479e-05 5.7207874128736486e-05 2.582143816271226e-05 3.2301931375510476e-05 0.0 0.0
0.0 0.00099704667270327 -0.0008086226075056329 0.0006083701736641696 0.0002002524338414615 0.00011095724681073918 0.0 0.0
0.0 0.0023769066687449954 -0.0022289631941462833 0.0017922489749146828 0.0004367142192316006 0.0001065546408409224 0.0 0.0
0.0 0.004483618995708518 -0.004139985918310311 0.003478310680580047 0.000661675237730263 0.0001120751788154066 0.0 0.0
0.0 0.007246644548146051 -0.006626925815196689 0.005765345345101697 0.0008615804700949927 0.00012979143800623358 0.0 0.0
0.0 0.01080850364676457 -0.00974219539909414 0.008690166815864884 0.0010520285832292602 0.00014168882268910223 0.0 0.0
0.0 0.01528855312320445 -0.013599695030300337 0.012347840275219847 0.0012518547550804805 0.00019680693168865277 0.0 0.0
0.0 0.020611811606652694 -0.01842452808364725 0.016953983588637242 0.0014705444950100202 0.00029359588456864577 0.0 0.0
0.0 0.027438435366957566 -0.02447767632196587 0.02277432950975138 0.0017033468122144538 0.00034036073427443645 0.0 0.0
0.0 0.03598297487330309 -0.03200060341996215 0.030054499974147466 0.0019461034458147155 0.00037906711871154653 0.0 0.0
0.0 0.04636366795636834 -0.04109163764656319 0.03891281160631653 0.0021788260402465804 0.00031862337092422414 0.0 0.0
0.0 0.05831512783153489 -0.05147888866922391 0.049106004849709825 0.002372883819514071 0.00012284422592592943 0.0 0.0
0.0 0.07087875501084828 -0.062357398046703545 0.05986388570663447 0.0024935123400690383 -0.0001560251690838621 0.0 0.0
0.0 0.08251103503285317 -0.07239276426628714 0.06989078112944952 0.002501983136837504 -0.000384400047019404 0.0 0.0
0.0 0.09137924924072391 -0.08011542893910956 0.0776519401473618 0.002463488791747727 -0.0005761680268009375 0.0 0.0
0.0 0.09376247639204546 -0.0825497121989727 0.0803431921761206 0.002206520022852192 -0.009700343556409422 0.0 0.0
0.0 0.08990043750100961 -0.07612947612658985 0.0684012202609479 0.007728255865641862 1.824929096727601e-15 0.0 0.0
0.0 0.09376247639203572 -0.08254971219896409 0.08034319217611208 0.0022065200228520345 0.009700343556413074 0.0 0.0
0.0 0.09137924924070226 -0.0801154289390908 0.0776519401473434 0.0024634887917473957 0.0005761680268047556 0.0 0.0
0.0 0.08251103503282634 -0.0723927642662635 0.06989078112942695 0.0025019831368366355 0.00038440004702150563 0.0 0.0
0.0 0.0708787550108182 -0.06235739804667709 0.059863885706608624 0.002493512340068321 0.00015602516908449961 0.0 0.0
0.0 0.05831512783150551 -0.05147888866919796 0.04910600484968508 0.002372883819512946 -0.00012284422592682889 0.0 0.0
0.0 0.04636366795633702 -0.04109163764653552 0.03891281160628996 0.0021788260402455374 -0.00031862337092421374 0.0 0.0
0.0 0.035982974873271484 -0.0320006034199341 0.030054499974121116 0.001946103445813001 -0.00037906711871185574 0.0 0.0
0.0 0.02743843536692539 -0.024477676321937272 0.022774329509724252 0.0017033468122130183 -0.0003403607342748198 0.0 0.0
0.0 0.020611811606622177 -0.01842452808362044 0.016953983588611436 0.0014705444950089835 -0.0002935958845698104 0.0 0.0
0.0 0.015288553123175562 -0.013599695030274628 0.012347840275195357 0.0012518547550792786 -0.00019680693168914348 0.0 0.0
0.0 0.010808503646740516 -0.009742195399073054 0.008690166815844915 0.0010520285832281472 -0.00014168882268971263 0.0 0.0
0.0 0.007246644548127122 -0.006626925815179447 0.00576534534508568 0.0008615804700937643 -0.0001297914380065081 0.0 0.0
0.0 0.004483618995694867 -0.004139985918297291 0.003478310680568206 0.0006616752377290858 -0.00011207517881559319 0.0 0.0
0.0 0.002376906668735451 -0.0022289631941367757 0.001792248974906457 0.0004367142192303179 -0.00010655464084096815 0.0 0.0
0.0 0.0009970466726985667 -0.0008086226075008974 0.0006083701736604682 0.00020025243384042945 -0.00011095724681045969 0.0 0.0
0.0 0.00023581858009875885 -8.302931229052164e-05 5.7207874128104315e-05 2.5821438162418334e-05 -3.230193137517257e-05 0.0 0.0
0.0 1.6004297707632548e-06 6.953396171649139e-08 2.353115627768134e-09 -7.188707734427424e-08 3.3915251981027997e-07 0.0 0.0
0.0 0.0 0.0 0.0 0.0 0.0 0.0 0.0
0.0 0.0 0.0 0.0 0.0 0.0 0.0 0.0
0.0 0.0 0.0 0.0 0.0 0.0 0.0 0.0
SCALARS Wm float 4
LOOKUP_TABLE default
8.497742972520928 1.8818185895266746 3.12256387455034 3.4933605084439083
3.4875236531676483 1.8050834023088704 0.7036044195539739 0.9788358313048059
0.43705147532451294 0.44830005718354077 -0.0045381347049012945 -0.0067104471541266615
0.40495424404705993 0.4096960538244659 -0.000804116936071951 -0.003937692841334091
0.6562141297980885 0.6006243791312362 0.020565881254041515 0.035023869412810126
1.1765909711368034 0.7584129905161778 0.127465252515468 0.2907127281051574
2.1245096496717473 0.9965200065746932 0.4205300350267209 0.7074596080703335
3.5060832003982423 1.2506669436927718 0.9212937502404543 1.3341225064650157
5.398070460504299 1.5440654276055996 1.6872265769134511 2.1667784559852485
7.906154421636636 1.9046400972634097 2.782043530074119 3.2194707942991108
11.183569287219754 2.371825361616091 4.284482590638042 4.527261334965624
15.392202962337478 2.9798545832288843 6.24521769978994 6.167130679318658
20.91188156061517 3.7388379941123175 8.94072775653273 8.232315809970125
28.01729910286981 4.659205879732742 12.549803174521136 10.808290048615927
36.85732076625707 5.679763163294588 17.24681975169493 13.930737851267546
47.28005974036289 6.670516967391864 23.067345181133106 17.542197591837937
58.63797263374553 7.449280965035453 29.715011019200766 21.473680649509316
69.83651305712974 7.856354032161643 36.60984355045325 25.37031547451483
79.56027069429655 7.88207147137312 42.88537346399677 28.792825758926643
86.29716515479733 7.590663139404167 47.42411565617512 31.282386359218048
88.60516665225595 7.172766966194693 49.16197436176704 32.2704253242942
86.2971651547912 7.590663139404434 47.42411565617061 31.282386359216108
79.56027069428043 7.882071471370677 42.885373463987875 28.79282575892189
69.83651305711075 7.85635403216463 36.60984355043925 25.370315474506867
58.63797263371273 7.44928096502246 29.715011019188232 21.473680649502022
47.28005974033681 6.67051696738918 23.067345181118537 17.542197591829115
36.85732076623187 5.679763163291968 17.24681975168125 13.930737851258648
28.01729910284383 4.6592058797289315 12.549803174507996 10.808290048606896
20.91188156059126 3.73883799411161 8.940727756519369 8.232315809960284
15.392202962313952 2.979854583225193 6.245217699778902 6.167130679309862
11.183569287199356 2.371825361612579 4.284482590628953 4.5272613349578235
7.906154421621613 1.9046400972623163 2.782043530066882 3.219470794292419
5.398070460492179 1.544065427603115 1.68722657690875 2.1667784559803125
3.506083200389672 1.2506669436920033 0.9212937502369339 1.334122506460735
2.124509649665924 0.9965200065729518 0.4205300350250871 0.7074596080678855
1.1765909711336058 0.7584129905151701 0.12746525251497107 0.29071272810346455
0.6562141297967651 0.600624379130508 0.020565881253838507 0.035023869412418786
0.4049542440467352 0.4096960538240533 -0.0008041169360498864 -0.003937692841268183
0.43705147532408506 0.4483000571830812 -0.0045381347048807285 -0.006710447154115528
3.4875236531647906 1.8050834023094096 0.7036044195524618 0.9788358313029188
8.49774297250134 1.8818185895165602 3.122563874545367 3.493360508439418
9.650051557224291 4.50454575807146 2.3427828421764225 2.8027229569764103
1.1499964229649409 0.28609262871769287 0.3242970501293481 0.5396067441178988
0.21038082286075582 0.21302734533217815 -0.0003549840871126098 -0.0022915383843097057
0.3281329360418679 0.32747532296316045 0.00016290389166007766 0.0004947091870473791
0.5114478602939393 0.4926273141207364 0.005197685246719897 0.01362286092648313
0.9559569525858851 0.6835427136084774 0.08744748439922119 0.18496675457818681
1.7554858507311475 0.8562887878766319 0.32223526561228466 0.5769617972422307
2.9748406049346987 1.0577676942637844 0.7663113066617946 1.1507616040091202
4.641932730591536 1.2686521399536168 1.455193168518705 1.918087422119213
6.812738585765141 1.5040811514788772 2.422615631996999 2.8860418022892635
9.61318915921033 1.781472209824274 3.746416095789405 4.085300853596653
13.274048678812413 2.1209978657026967 5.573409792558805 5.579641020550906
17.91477647080456 2.5315397663162447 7.9128766020021395 7.470360102486178
24.018702426108685 3.0114193562949017 11.167682040191325 9.839601029622465
31.67273066745503 3.529450327845921 15.405446170453668 12.737834169155452
40.77415630706745 4.000231143892857 20.66241947465142 16.111505688523167
50.810973802579625 4.309955949368582 26.735873919538818 19.765143933672235
60.85769804488756 4.376983751530576 33.07580978947009 23.404904503886872
69.67812190174183 4.190544065768142 38.865823791630795 26.621754044342907
75.87993173404166 3.8068616243811166 43.14523362533999 28.927836484320526
78.13816359781755 3.4407523470662276 44.862927817808604 29.834483432942722
75.87993173403372 3.806861624378319 43.14523362533666 28.92783648431873
69.67812190173038 4.190544065769558 38.86582379162249 26.62175404433834
60.85769804486915 4.376983751530797 33.075809789458155 23.404904503880218
50.8109738025616 4.309955949370403 26.7358739195264 19.765143933664795
40.7741563070447 4.0002311438908675 20.662419474638632 16.111505688515205
31.672730667433274 3.529450327845161 15.405446170441019 12.737834169147105
24.01870242608647 3.0114193562926825 11.167682040179587 9.839601029614197
17.914776470783018 2.5315397663154244 7.912876601990339 7.470360102477251
13.274048678793006 2.120997865701981 5.573409792548532 5.57964102054249
9.613189159192812 1.7814722098218605 3.7464160957813766 4.085300853589578
6.812738585751559 1.5040811514774683 2.422615631990846 2.886041802283243
4.641932730581261 1.2686521399523842 1.4551931685144257 1.9180874221144502
2.9748406049270013 1.0577676942625887 0.7663113066589434 1.1507616040054682
1.7554858507262157 0.8562887878752091 0.32223526561094784 0.5769617972400579
0.9559569525831877 0.6835427136075483 0.08744748439856072 0.1849667545770787
0.5114478602929886 0.49262731411997096 0.005197685246653881 0.01362286092636394
0.32813293604158844 0.32747532296280185 0.00016290389167100645 0.0004947091871155715
0.2103808228607585 0.21302734533214013 -0.0003549840871034294 -0.0022915383842782204
1.1499964229618813 0.28609262871770164 0.32429705012798055 0.5396067441161987
9.650051557205359 4.504545758062138 2.3427828421715473 2.802722956971671
7.058419664383484 3.5129904658371127 1.532498684024219 2.012930514522151
0.6624355163598759 0.09624345951091637 0.20005907224558064 0.36613298460337856
0.13081977493007116 0.13082021138772956 -1.80369121587346e-08 -4.1842074621861334e-07
0.24875935825770074 0.24876335777637626 1.189635482686055e-05 -1.5895873502431935e-05
0.40469865219241585 0.4048010118092412 -0.00035843815696686527 0.00025607854014162443
0.7492924887685883 0.613455446491318 0.0427987515610737 0.0930382907161968
1.4142351570554228 0.7820249185448613 0.21196663456635886 0.42024360394420257
2.480761120352745 0.980782542039099 0.5785718550608705 0.9214067232527758
3.937414925850229 1.1804118932280658 1.1539626848395654 1.6030403477825963
5.844335383664909 1.3970398799186319 1.986118435392436 2.46117706835384
8.278176041898298 1.645345829148547 3.114274089023192 3.5185561237265586
11.382066349690096 1.9400560477690396 4.608497651615155 4.833512650305902
15.503724100642074 2.302847582566719 6.713970259105443 6.486906258969917
20.72539539000473 2.727284758115113 9.413164467684432 8.584946164205181
27.424701173071785 3.182923431229858 13.07653977533922 11.165237966502701
35.443643048416746 3.608554094680158 17.64143808935402 14.193650864382576
44.357816549481804 3.9159634046197067 22.923129817770583 17.51872332709151
53.352125327017376 4.019565314437397 28.498175140099125 20.834384872480868
61.30098595270946 3.8740296221829973 33.65693812665814 23.77001820386833
66.93232522926938 3.566940159667726 37.491120911310865 25.874264158290792
68.95189296250517 3.1527430815912103 39.06019755789041 26.738952323023533
66.9323252292678 3.5669401596713377 37.4911209113076 25.87426415828889
61.30098595269578 3.874029622179654 33.65693812665152 23.770018203864595
53.352125327002724 4.019565314438463 28.498175140089288 20.834384872474992
44.35781654946389 3.9159634046207175 22.923129817758802 17.518723327084384
35.44364304839783 3.6085540946789543 17.641438089343254 14.193650864375613
27.42470117305339 3.182923431230233 13.076539775328055 11.165237966495093
20.72539538998487 2.727284758112038 9.413164467674731 8.584946164198104
15.503724100622238 2.302847582563662 6.713970259096048 6.486906258962528
11.382066349673192 1.9400560477694018 4.608497651605786 4.833512650298007
8.27817604188373 1.645345829146932 3.114274089016531 3.5185561237202694
5.844335383652807 1.3970398799167134 1.9861184353874424 2.4611770683486522
3.937414925841176 1.1804118932272236 1.1539626848357647 1.6030403477781872
2.4807611203460826 0.9807825420378339 0.5785718550585542 0.9214067232496949
1.414235157051299 0.7820249185439181 0.21196663456527828 0.42024360394210286
0.749292488766598 0.6134554464904939 0.042798751560674426 0.09303829071542946
0.4046986521917059 0.40480101180850303 -0.0003584381569606759 0.0002560785401635673
0.24875935825749249 0.24876335777615313 1.1896354828402989e-05 -1.589587348905968e-05
0.13081977493001604 0.1308202113876741 -1.8036912141597065e-08 -4.184207459031903e-07
0.6624355163574553 0.09624345951115408 0.20005907224450298 0.3661329846017978
7.058419664366598 3.5129904658294864 1.5324986840197357 2.0129305145173753
5.214904819768938 2.7257815218186483 1.0245184501847167 1.4646048477655758
0.4147917838098221 0.06681727841002455 0.11069825890337788 0.23727624649641924
0.09230357934804964 0.09230357934804964 0.0 0.0
0.18583665174452493 0.18579850967462405 2.762707400739038e-06 3.5379362500165364e-05
0.3233610347937155 0.3283732439013745 -0.0010061733181815134 -0.004006035789477455
0.5689815588931741 0.521267984260156 0.012084077384865693 0.035629497248152384
1.1120030126443787 0.7213998524569681 0.12726333481772628 0.2633398253696839
2.004617148616341 0.8980080650113137 0.40781339449140097 0.6987956891136262
3.2653136283578093 1.0877847455191119 0.8828944195322987 1.2946344633063984
4.904867654127746 1.28672960164495 1.5735071646738463 2.044630887808949
6.968678239329179 1.505575834360344 2.4980587387934454 2.9650436661753905
9.633695689663561 1.7654446550212475 3.7674674451378305 4.1007835895044815
13.043233291575682 2.0759493227726757 5.434781200488863 5.5325027683141474
17.614494914164258 2.444347339354855 7.826071267116678 7.344076307692724
23.33070346639978 2.846071546542839 10.879749873583481 9.604882046273461
30.21781942677086 3.2299649985475796 14.704367303909008 12.283487124314274
38.04975310005556 3.5327287749569494 19.279071127012703 15.237953198085915
46.03253680799576 3.6713209087677305 24.124768681885996 18.23644721734203
53.16517371242314 3.5879068805005856 28.642501155150928 20.93476567677163
58.295096188439636 3.338317815754765 32.04566341894661 22.911114953738277
60.143187370868894 2.8481237045741223 33.55208921951951 23.74297444677526
58.295096188434535 3.338317815755115 32.0456634189431 22.91111495373631
53.1651737124154 3.5879068805010363 28.642501155145787 20.934765676768592
46.03253680798273 3.6713209087683407 24.12476868187748 18.236447217336913
38.04975310003902 3.5327287749554506 19.279071127003515 15.23795319808008
30.217819426754364 3.2299649985468144 14.704367303899579 12.28348712430798
23.33070346638287 2.8460715465416877 10.879749873574253 9.604882046266923
17.61449491414927 2.444347339354791 7.8260712671082295 7.344076307686248
13.043233291559742 2.0759493227710455 5.434781200480988 5.532502768307709
9.633695689648965 1.765444655020992 3.7674674451302863 4.100783589497689
6.968678239316654 1.5055758343594186 2.4980587387876056 2.9650436661696307
4.904867654117064 1.2867296016429774 1.5735071646696417 2.044630887804445
3.2653136283498654 1.0877847455179375 0.8828944195292432 1.294634463302685
2.004617148610807 0.8980080650103571 0.40781339448966564 0.6987956891107834
1.112003012640828 0.7213998524560542 0.12726333481669033 0.2633398253680832
0.5689815588917762 0.521267984259289 0.01208407738468953 0.03562949724779763
0.3233610347932594 0.32837324390085243 -0.0010061733181682747 -0.004006035789424719
0.1858366517443164 0.18579850967442402 2.762707400018399e-06 3.5379362492379505e-05
0.09230357934797676 0.09230357934797676 0.0 0.0
0.4147917838077858 0.06681727841018328 0.1106982589024892 0.23727624649511334
5.214904819755632 2.72578152181275 1.0245184501814018 1.4646048477614813
3.7844242793879075 2.0920932390297873 0.6519442056643021 1.0403868346938183
0.3105820195410561 0.10911389054030465 0.07065410977513101 0.13081401922562064
0.08337698544163354 0.08337698544163354 0.0 0.0
0.14465469470936682 0.1446602373311121 -4.2444358086294644e-07 -5.118178164441581e-06
0.259788430225991 0.25906701758137785 0.00013668211416906301 0.0005847305304441403
0.43597581943333175 0.43963631302151485 -0.001739702124095393 -0.0019207914640877299
0.8399674088677817 0.638957947716211 0.06705018510503935 0.1339592760465318
1.5541501523597723 0.8106666748622325 0.2582596698792851 0.4852238076182544
2.6166864579212823 0.9882537319647835 0.6343527543066968 0.9940799716498023
3.993564197978861 1.170147323735365 1.185394964691083 1.638021909552413
5.729142353095056 1.3657872145087282 1.939969716706035 2.423385421880294
7.9334010387547895 1.5895088557798862 2.9580394333488584 3.385852749626049
10.812790732545508 1.8572602535915632 4.361879199840596 4.59365127911335
14.493811369605394 2.169802383638772 6.188499227162469 6.135509758804154
19.3273002886184 2.512517214782793 8.75094065161002 8.06384242222559
25.235039499980715 2.8593194205728834 12.002754978113936 10.372965101293886
31.8935966587624 3.1590491889193117 15.768895146425487 12.965652323417618
38.85825527341396 3.3329705252908672 19.899136654786005 15.626148093337083
45.22535976664531 3.3168519168171016 23.845672466828155 18.062835383000056
49.9484866567448 3.116945344476386 26.923958569772868 19.907582742495553
51.673533271128186 2.539069453190726 28.37280401392521 20.761659804012268
49.94848665673963 3.1169453444744453 26.92395856977086 19.907582742494338
45.22535976663782 3.3168519168178054 23.845672466823014 18.062835382996997
38.858255273404446 3.3329705252929864 19.899136654778868 15.626148093332603
31.893596658748805 3.1590491889174768 15.768895146418362 12.965652323412964
25.235039499967403 2.859319420573393 12.002754978105783 10.372965101288234
19.327300288603958 2.512517214780622 8.750940651602972 8.063842422220365
14.493811369592077 2.1698023836387565 6.188499227155078 6.135509758798242
10.812790732532715 1.8572602535912561 4.361879199833925 4.593651279107534
7.933401038743106 1.5895088557800945 2.9580394333427513 3.385852749620259
5.729142353084351 1.3657872145076957 1.9399697167012833 2.4233854218753703
3.9935641979701666 1.1701473237341304 1.1853949646875845 1.6380219095484512
2.616686457914613 0.9882537319636914 0.634352754304348 0.994079971646573
1.5541501523552386 0.8106666748614296 0.25825966987783217 0.48522380761597594
0.8399674088651219 0.6389579477151319 0.06705018510445274 0.1339592760455375
0.43597581943234254 0.439636313020624 -0.0017397021241179547 -0.0019207914641633567
0.25978843022559683 0.25906701758097167 0.0001366821141694775 0.0005847305304556527
0.1446546947091769 0.14466023733092137 -4.244435807835282e-07 -5.118178163679836e-06
0.08337698544143878 0.08337698544143878 0.0 0.0
0.3105820195392881 0.10911389054028166 0.07065410977440399 0.1308140192246026
3.7844242793777845 2.0920932390254054 0.6519442056618647 1.0403868346905156
2.6917530346499507 1.6011416744478448 0.39634499753868413 0.6942663626634213
0.22663115994066527 0.14329510934084594 0.020785239775005616 0.06255081082481372
0.09326044879913653 0.09326044879913653 0.0 0.0
0.12363613456765397 0.12363613456765397 0.0 0.0
0.21234427325952931 0.21231462101229615 1.214630593603407e-07 2.9530784173825602e-05
0.34008140650714025 0.3479379639317441 -0.0021504645815528327 -0.005706092843051001
0.6004980555361574 0.5268179696326831 0.01651342964777299 0.057166656255701456
1.1655525160635531 0.7275425439302725 0.15757186835820036 0.2804381037750804
1.9814237106525114 0.8744148260907706 0.4028758213064457 0.7041330632552953
3.1272419518474788 1.047948598683724 0.8374840918353027 1.2418092613284513
4.537189741978708 1.22059613318073 1.4217731992397302 1.8948204095582488
6.3078169970015345 1.4123301275615527 2.205951737502932 2.6895351319370486
8.592235213651136 1.637688037981453 3.27372028497566 3.680826890694023
11.616287722986483 1.8999787292351966 4.769087053519679 4.947221940231605
15.488146440253555 2.195340869997354 6.743237781149148 6.549567789107056
20.26698918032838 2.4950249531652804 9.282957033270606 8.489007193892503
25.944648907133878 2.78073453985432 12.479734217652217 10.684180149627341
31.870389662002395 2.9967260709991486 15.86980576494351 13.003857826059741
37.42475039663135 3.0526880662116636 19.17836371695812 15.19369861346156
41.80207023592821 2.9029484445420115 21.97914842478024 16.919973366605973
43.44841332717066 2.23007407379312 23.418591686078933 17.79974756729861
41.80207023592745 2.90294844454414 21.979148424778458 16.91997336660483
37.424750396625164 3.052688066212351 19.17836371695389 15.19369861345892
31.870389661993396 2.996726070999495 15.869805764937844 13.003857826056063
25.944648907122403 2.7807345398524017 12.479734217646556 10.684180149623444
20.266989180315555 2.495024953163468 9.282957033264257 8.489007193887844
15.4881464402429 2.1953408699970054 6.743237781143358 6.549567789102536
11.616287722975514 1.899978729233965 4.769087053514426 4.947221940227123
8.5922352136401 1.6376880379798813 3.27372028497071 3.680826890689507
6.307816996990884 1.4123301275604705 2.205951737498152 2.6895351319322613
4.537189741969538 1.220596133178871 1.4217731992362377 1.8948204095544294
3.1272419518403782 1.0479485986828583 0.8374840918325501 1.24180926132497
1.981423710647073 0.8744148260897674 0.4028758213046621 0.7041330632526439
1.1655525160599405 0.7275425439295489 0.15757186835704196 0.2804381037733497
0.6004980555343542 0.526817969631696 0.016513429647519888 0.057166656255138296
0.3400814065064762 0.3479379639308471 -0.0021504645815060563 -0.005706092842864822
0.21234427325917926 0.21231462101197893 1.2146305537957637e-07 2.9530784144926766e-05
0.12363613456743143 0.12363613456743143 0.0 0.0
0.09326044879882575 0.09326044879882575 0.0 0.0
0.22663115993933675 0.14329510934067924 0.020785239774557013 0.06255081082410052
2.691753034642315 1.6011416744445213 0.39634499753696945 0.6942663626608236
1.8426394561007466 1.2064037526482754 0.20846505733485457 0.4277706461176164
0.18805260644449412 0.17828351902169842 -0.0006903046853279178 0.010459392108123761
0.11225326212823857 0.11225326212823857 0.0 0.0
0.1187039467565615 0.1187039467565615 0.0 0.0
0.17928486159727813 0.17919871874756801 7.828390201779132e-06 7.831445950834427e-05
0.2722508103831226 0.2753709851378977 -0.0005624180894284294 -0.0025577566653466567
0.435832831900816 0.43794087767948964 -0.0026667517867615524 0.0005587060080879748
0.7866629172389308 0.5938805716900663 0.05236816621265593 0.14041417933620845
1.4478044390066807 0.7777092040653574 0.25065917223198103 0.4194360627093418
2.2820028277756426 0.9096541297135466 0.5151369752828469 0.8572117227792492
3.405775349851109 1.0681580616317081 0.9562486134187165 1.381368674800685
4.778363698609836 1.2317236705770094 1.5347946397900296 2.011845388242797
6.524556847301719 1.4185496296263422 2.3127516435306514 2.7932555741447262
8.820677027410945 1.634688527333506 3.3948211361411045 3.791167363936335
11.808647491321869 1.87700776819854 4.866347388364557 5.065292334758772
15.652320846168251 2.144054542457974 6.8817772531337 6.626489050576574
20.0162935639542 2.405896103153662 9.171848785248786 8.438548675551752
24.970867133561523 2.642395125622156 11.960184940631487 10.368287067307882
29.87566841703746 2.781751825937945 14.812132532383355 12.281784058716148
33.87601037151003 2.6985333308887225 17.265160872299475 13.912316168321823
35.497978704524925 1.9275881764732417 18.726253290576746 14.84413723747493
33.8760103715062 2.6985333308870327 17.265160872298136 13.912316168321023
29.875668417031378 2.781751825936619 14.812132532380499 12.281784058714255
24.970867133555224 2.6423951256232425 11.960184940627101 10.368287067304879
20.016293563945602 2.405896103152786 9.171848785244313 8.438548675548502
15.652320846160444 2.144054542459105 6.881777253128671 6.6264890505726655
11.808647491311657 1.8770077681960013 4.866347388360422 5.065292334755234
8.82067702740408 1.6346885273341472 3.394821136137188 3.791167363932747
6.524556847293707 1.4185496296251345 2.3127516435272146 2.793255574141358
4.778363698601606 1.2317236705753587 1.5347946397868328 2.0118453882394145
3.4057753498443404 1.0681580616307251 0.956248613416107 1.3813686747975082
2.282002827769989 0.9096541297126929 0.5151369752807762 0.8572117227765207
1.4478044390025493 0.777709204064463 0.2506591722306009 0.4194360627074852
0.7866629172363834 0.593880571689184 0.05236816621206507 0.14041417933513456
0.43583283189962974 0.43794087767850987 -0.0026667517868239786 0.0005587060079438469
0.27225081038259996 0.2753709851372951 -0.0005624180894095768 -0.002557756665285561
0.17928486159691218 0.17919871874720866 7.828390200932262e-06 7.831445950258222e-05
0.11870394675627596 0.11870394675627596 0.0 0.0
0.11225326212792006 0.11225326212792006 0.0 0.0
0.1880526064435294 0.1782835190213648 -0.0006903046855496193 0.010459392107714268
1.8426394560953858 1.206403752645886 0.20846505733378506 0.42777064611571475
1.2565412792600235 0.954364395575264 0.10485718079395942 0.19731970289080022
0.16140058755833392 0.1822024961923878 -0.009999141264324137 -0.010802767369729687
0.13368148725410633 0.13368729766932352 -2.3757776738740996e-07 -5.5728374497752275e-06
0.12482236565442631 0.12482236565442631 0.0 0.0
0.16015558802672455 0.16013317591554385 1.8172994548958084e-06 2.0594811725824774e-05
0.22475306298169395 0.22561156952556494 -0.00017279129886027867 -0.0006857152450106972
0.3218457094422905 0.33360121633226836 -0.0032211934702796566 -0.008534313419698136
0.5191853117790138 0.47082687580843074 0.007460456568991433 0.040897979401591684
0.9080689394647536 0.6220256861646736 0.08460638069211822 0.201436872607962
1.5534602573453657 0.777165551093264 0.29033418990663884 0.4859605163454623
2.3357981650552424 0.9017209045515239 0.551295352081699 0.8827819084220193
3.3285067691619146 1.0370756222851605 0.9333352209020782 1.3580959259746763
4.58891562038918 1.1918353397284214 1.461583593599098 1.93549668706166
6.224739673507529 1.364821510693483 2.187132935793741 2.672785227020306
8.402149961454999 1.5644913528233664 3.2178532690658868 3.6198053395657466
11.15371978062779 1.786915858089542 4.562560313932484 4.80424360860576
14.563159410802838 2.029777981535249 6.335659073856577 6.197722355411019
18.356012338607837 2.2744465739687176 8.324459431325161 7.757106333313956
22.318271299014935 2.4784733629215445 10.47511661214141 9.364681323951984
26.017592674794564 2.490923874582517 12.66120095117143 10.865467849040613
27.679716572204516 1.6298480424397528 14.180781333721454 11.869087196043305
26.017592674794905 2.4909238745835527 12.661200951171004 10.865467849040343
22.31827129901215 2.4784733629215054 10.475116612139793 9.364681323950862
18.356012338600927 2.2744465739673787 8.324459431321971 7.757106333311575
14.563159410796189 2.02977798153473 6.335659073853155 6.197722355408306
11.153719780618557 1.7869158580871314 4.562560313928765 4.804243608602657
8.402149961449373 1.564491352822647 3.2178532690633244 3.619805339563401
6.224739673500959 1.3648215106919686 2.187132935791174 2.672785227017816
4.588915620383532 1.1918353397276982 1.4615835935967263 1.9354966870591088
3.3285067691567263 1.0370756222850175 0.9333352208998098 1.3580959259718994
2.335798165049889 0.9017209045507032 0.5512953520797708 0.8827819084194152
1.5534602573415048 0.7771655510926927 0.290334189905248 0.48596051634356396
0.9080689394620586 0.6220256861635061 0.08460638069154558 0.20143687260700704
0.5191853117774399 0.47082687580757127 0.007460456568791138 0.040897979401077166
0.32184570944158086 0.3336012163314126 -0.0032211934702434985 -0.008534313419588263
0.22475306298120254 0.22561156952504968 -0.0001727912988574027 -0.0006857152449898572
0.16015558802636978 0.1601331759151957 1.8172994544034804e-06 2.0594811719682714e-05
0.12482236565413003 0.12482236565413003 0.0 0.0
0.13368148725377124 0.13368729766897305 -2.3757776660358785e-07 -5.5728374351892456e-06
0.16140058755776532 0.18220249619190815 -0.009999141264326977 -0.010802767369815868
1.2565412792563548 0.9543643955735633 0.10485718079320443 0.19731970288958736
0.8151301836221246 0.7146682657608838 0.026701104653226365 0.07376081320801452
0.1572437989430175 0.17228199813527917 -0.004071903289797354 -0.010966295902464342
0.15323659113684696 0.15333200490222298 -7.942672845307354e-06 -8.747109253071001e-05
0.13742607081382785 0.13742607081382785 0.0 0.0
0.1530218120863715 0.1530127837490261 2.5498622371285784e-07 8.773351121642145e-06
0.19294756132727336 0.19234212853373828 9.805477109590973e-05 0.0005073780224392204
0.2516105616806883 0.2594350569590379 -0.001907080537830473 -0.005917414740519092
0.3485148365508049 0.3592204498756029 -0.002890983247920275 -0.007814630076877712
0.530078545690938 0.4683874480064897 0.0128679915824218 0.04882310610202658
0.8651472697815545 0.5905423026228591 0.08548048517198237 0.18912448198671317
1.3487709366148188 0.6980540664856081 0.21947339880031388 0.43124347132889684
1.988240443635333 0.8150129403993555 0.43488432860096876 0.7383431746350083
2.7950872249677885 0.9382475154976063 0.7359117135086257 1.1209279959615568
3.8373343157367263 1.0726238376533666 1.1551402022302155 1.6095702758531434
5.226338550305037 1.2284031527646266 1.7572888775101823 2.240646520030229
7.046340729658749 1.4101694533184876 2.593486995942873 3.0426842803973866
9.344532248702192 1.6306449880546268 3.6874410696168396 4.026446191030725
12.040815004264573 1.856343176744897 5.01046112554606 5.174010701973616
15.118641910979116 2.106475647113374 6.570189344120391 6.441976919745344
18.438175382846175 2.2683352668221692 8.387870773497973 7.781969342526042
20.12628584196016 1.3552592244161685 9.837906904075973 8.933119713468015
18.438175382846133 2.268335266822227 8.387870773497903 7.781969342526009
15.118641910976311 2.106475647111738 6.570189344119744 6.441976919744829
12.040815004260152 1.8563431767437817 5.010461125544217 5.174010701972152
9.344532248696122 1.6306449880528073 3.687441069614581 4.026446191028736
7.0463407296550615 1.4101694533185436 2.5934869959409443 3.042684280395575
5.226338550300623 1.2284031527632209 1.7572888775086803 2.240646520028719
3.8373343157348367 1.0726238376547477 1.1551402022286639 1.6095702758514259
2.7950872249639875 0.9382475154962083 0.7359117135075977 1.1209279959601817
1.9882404436316523 0.8150129403994797 0.4348843285993099 0.7383431746328631
1.3487709366117313 0.6980540664851338 0.21947339879931613 0.4312434713272816
0.8651472697792433 0.5905423026219313 0.08548048517146006 0.18912448198585197
0.5300785456898606 0.4683874480058363 0.012867991582292109 0.04882310610173196
0.34851483655012816 0.3592204498749213 -0.002890983247921795 -0.007814630076871297
0.2516105616802446 0.25943505695847063 -0.001907080537802559 -0.005917414740423428
0.1929475613267958 0.1923421285332445 9.805477109583835e-05 0.0005073780224554389
0.15302181208602977 0.1530127837486928 2.549862230170516e-07 8.7733511139407e-06
0.1374260708135153 0.1374260708135153 0.0 0.0
0.15323659113650995 0.15333200490187454 -7.9426728438462e-06 -8.747109252077777e-05
0.1572437989426586 0.17228199813467088 -0.00407190328973981 -0.010966295902272454
0.8151301836198359 0.7146682657595841 0.026701104652900896 0.07376081320735085
0.5458357390682617 0.5464170464210814 0.0001888133509889355 -0.000770120703808935
0.15785773574715048 0.1579735448179427 -4.176248202229994e-05 -7.40465887698301e-05
0.16840149352922276 0.1684190209871631 -9.038683591991786e-07 -1.6623589581121507e-05
0.15269693807836424 0.15271508382148033 -1.1251006770666433e-06 -1.7020642439032754e-05
0.15527654208960062 0.1552403949331358 4.197779080709848e-06 3.194937738412248e-05
0.1774280927342401 0.1775124697588341 -3.604873582223196e-06 -8.077215101174288e-05
0.2109551412491408 0.21604577312206139 -0.0011125189896556338 -0.003978112883265035
0.25389270930627306 0.2529091390240372 -0.00025304004199168926 0.001236610324227475
0.31323358251063704 0.2918662084817293 0.004567205074542635 0.016800168954365147
0.4077162745714906 0.3566254457189302 0.012718838708519843 0.0383719901440407
0.5956251697482021 0.4433063386885529 0.050474645628326854 0.10184418543132234
0.854334929012926 0.5210836184909219 0.10627318444040385 0.22697812608160045
1.2286012828848536 0.6138822738402245 0.2119133515327377 0.4028056575118909
1.7446286433700813 0.7059410167431719 0.3840759363724252 0.6546116902544844
2.442509626055278 0.8016818821366165 0.6422984107337479 0.9985293331849129
3.3987129481542016 0.9299540867629638 1.0171942406238188 1.4515646207674178
4.699575034227566 1.1088311262239783 1.5553605709350224 2.0353833370685663
6.442860213402842 1.3296385238804445 2.3303364232186365 2.7828852663037638
8.513750667321458 1.546679483593376 3.2950307155674263 3.672040468160655
11.106402978597846 1.8863058742550416 4.487526257222119 4.732570847120683
13.246175661337864 1.1188256279155209 6.08837603108896 6.038974002333379
11.106402978599402 1.8863058742556027 4.487526257222672 4.732570847121127
8.513750667324032 1.546679483596795 3.295030715566979 3.6720404681602585
6.442860213400748 1.32963852388061 2.330336423217481 2.7828852663026598
4.699575034224586 1.1088311262232025 1.5553605709338996 2.0353833370674836
3.398712948151746 0.9299540867627881 1.0171942406227712 1.4515646207661863
2.442509626054136 0.8016818821364011 0.6422984107333884 0.9985293331843463
1.7446286433674008 0.7059410167422602 0.3840759363716243 0.6546116902535167
1.2286012828836899 0.6138822738397468 0.21191335153246166 0.4028056575114812
0.8543349290108193 0.5210836184904172 0.1062731844397959 0.22697812608060594
0.5956251697466717 0.4433063386882548 0.05047464562786403 0.10184418543055279
0.4077162745710575 0.3566254457184242 0.012718838708551967 0.03837199014408123
0.3132335825100903 0.2918662084814435 0.004567205074458867 0.016800168954187927
0.2538927093058858 0.25290913902373585 -0.0002530400420132302 0.0012366103241632739
0.210955141248667 0.21604577312150586 -0.0011125189896365238 -0.00397811288320237
0.1774280927338907 0.17751246975846605 -3.604873580265281e-06 -8.077215099507151e-05
0.15527654208917277 0.1552403949327056 4.197779080708162e-06 3.194937738642501e-05
0.15269693807794366 0.15271508382105112 -1.125100676383091e-06 -1.702064243101171e-05
0.16840149352897377 0.1684190209869002 -9.038683582517383e-07 -1.6623589568169255e-05
0.15785773574688233 0.1579735448176238 -4.1762482015306756e-05 -7.404658872611428e-05
0.5458357390671005 0.5464170464200669 0.00018881335095921996 -0.0007701207039257041
0.37030104325259694 0.36991723802376864 4.982117217544187e-05 0.00033398405665292774
0.15520628788506782 0.15520909920437564 -2.687275722767047e-06 -1.2404358506213836e-07
0.17812623807796973 0.17826212883491738 -1.1143274495061744e-05 -0.00012474748245261706
0.1676532934130441 0.16769789828430312 -3.0090264717618683e-06 -4.159584478721377e-05
0.16435042630259183 0.1643499700070653 1.2746668436716983e-06 -8.183713171120655e-07
0.17683694149372725 0.17686920027298875 2.194431352722773e-06 -3.445321061420714e-05
0.19941109722689326 0.20426542539939108 -0.0010101201430924374 -0.003844208029405328
0.22434588115275086 0.22046526930907015 0.00023588918389964668 0.0036447226597810696
0.24469513787492714 0.22760156038732213 0.004495220701395811 0.01259835678620929
0.26867133497203605 0.21531947267308313 0.013702190935591062 0.03964967136336183
0.3020161781377605 0.20924637370392923 0.030137574877673653 0.06263222955615763
0.3530436294623795 0.1883890619500046 0.050044350971874325 0.1146102165405004
0.43206014336120996 0.1816409381125465 0.08260778003364394 0.16781142521501974
0.5539171806142369 0.1921255683856895 0.1289182215111424 0.2328733907174047
0.7539894501912789 0.23217081943483658 0.2014280161932221 0.3203906145632201
1.0445891209788796 0.27901188407310573 0.3018583730937905 0.4637188638119833
1.4776659788057764 0.28025576900047505 0.4869653633116834 0.7104448464936174
2.123712722816885 0.27688358688271675 0.778846151136914 1.0679829847972535
3.1790375175558623 0.41145330699667365 1.2179889959351482 1.549595214624042
5.174721300442319 1.022673423928228 1.8475132770999332 2.3045345994141586
8.46200919751702 0.8959104919577742 3.566177962222229 3.9999207433370185
5.174721300445048 1.02267342392907 1.8475132771009748 2.304534599415004
3.1790375175523744 0.41145330699433713 1.2179889959345833 1.5495952146234535
2.1237127228163835 0.2768835868838675 0.7788461511361411 1.067982984796375
1.4776659788044726 0.2802557690005836 0.486965363310993 0.710444846492895
1.0445891209781322 0.2790118840734085 0.30185837309335606 0.46371886381136784
0.7539894501911266 0.23217081943472492 0.20142801619316208 0.3203906145632397
0.5539171806144259 0.19212556838624334 0.1289182215110129 0.23287339071716973
0.4320601433605642 0.18164093811280319 0.08260778003328251 0.16781142521447828
0.3530436294620105 0.18838906195024452 0.05004435097169385 0.11461021654007242
0.30201617813654213 0.2092463737036047 0.030137574877340277 0.06263222955559704
0.26867133497183426 0.2153194726729429 0.013702190935574756 0.039649671363316596
0.24469513787478178 0.22760156038733828 0.004495220701346887 0.012598356786096663
0.2243458811523562 0.22046526930874077 0.00023588918387905204 0.0036447226597364334
0.19941109722656236 0.20426542539899192 -0.001010120143076534 -0.003844208029353075
0.17683694149332238 0.17686920027256128 2.194431354928429e-06 -3.445321059380875e-05
0.164350426302083 0.16434997000653945 1.2746668447383521e-06 -8.183713012188865e-07
0.16765329341268692 0.16769789828392606 -3.009026470089872e-06 -4.1595844769073125e-05
0.17812623807773212 0.1782621288346671 -1.1143274493439908e-05 -0.00012474748244152296
0.15520628788477878 0.1552090992041217 -2.6872757262683234e-06 -1.2404361669785714e-07
0.3703010432518867 0.3699172380227925 4.982117219891724e-05 0.00033398405689518784
0.24807215743786484 0.24803109948980726 3.1449235594818967e-06 3.791302449810016e-05
0.14632460550936846 0.1463309515284529 -7.4288778474509e-07 -5.603131299709842e-06
0.18145251350886948 0.18142190184052526 2.893602342382726e-06 2.7718066001837145e-05
0.18022518614045507 0.1802810025666417 -4.477284794431172e-06 -5.13391413922115e-05
0.17798227817022413 0.17793474384293817 7.5083836910334716e-06 4.002594359496312e-05
0.19007220461980642 0.18968759086905068 7.193303656843759e-05 0.000312680714187285
0.21673610765803616 0.22357987821672332 -0.0014297790170508403 -0.005413991541636279
0.25528072128083995 0.25411073841698856 -0.00014106136050833073 0.0013110442243597022
0.31306728394435873 0.29159096430756754 0.004622279353041064 0.016854040283750066
0.40701386268409734 0.35605715893060436 0.01265892246576865 0.03829778128772441
0.5946088055334466 0.4428267062655721 0.049861332615058825 0.10192076665281581
0.8563618044390302 0.5223317245865235 0.10801486316109109 0.22601521669141544
1.2325197554013165 0.615442673009658 0.21285777368135553 0.40421930871030287
1.753416389900681 0.7080278564089832 0.3871232696997148 0.658265263791983
2.4390091679896653 0.7993954232532803 0.6421739240803137 0.9974398206560711
3.289627508514294 0.9031074236606138 0.982047697498921 1.4044723873547595
4.200318483656208 1.0110478150047328 1.3633516719242353 1.8259189967272387
4.976553645886099 1.08893853264445 1.7396512304657046 2.1479638827759455
5.274514321849277 1.1204914450648191 1.89746725860866 2.2565556181757973
4.314644271852202 0.5604609881019416 1.7531630442713566 2.001020239478903
8.543574808957706 1.626636029732477 3.186248950647882 3.730689828577347
4.314644271853549 0.5604609881007501 1.7531630442726773 2.001020239480118
5.274514321849088 1.120491445064889 1.8974672586085388 2.2565556181756627
4.97655364588179 1.088938532642012 1.7396512304647112 2.147963882775065
4.200318483653261 1.0110478150045603 1.3633516719229108 1.8259189967257894
3.2896275085106375 0.9031074236595474 0.9820476974977251 1.4044723873533649
2.4390091679872863 0.799395423252841 0.6421739240795423 0.9974398206549029
1.753416389898211 0.7080278564083391 0.38712326969890487 0.6582652637909664
1.2325197553980995 0.6154426730089658 0.21285777368034725 0.40421930870878675
0.8563618044360792 0.5223317245856501 0.10801486316028702 0.22601521669014185
0.5946088055315097 0.44282670626487997 0.04986133261458492 0.10192076665204497
0.40701386268286144 0.3560571589295646 0.012658922465727179 0.03829778128756956
0.31306728394391264 0.29159096430713843 0.004622279353028236 0.01685404028374598
0.2552807212803788 0.25411073841663206 -0.0001410613605374693 0.001311044224284328
0.21673610765755624 0.22357987821616682 -0.0014297790170312648 -0.005413991541579245
0.1900722046192436 0.18968759086846315 7.193303657050052e-05 0.00031268071420999423
0.17798227816984014 0.1779347438425364 7.508383692143861e-06 4.00259436115903e-05
0.18022518614017655 0.18028100256634214 -4.477284792821856e-06 -5.1339141372841755e-05
0.18145251350865654 0.18142190184029977 2.8936023426262372e-06 2.7718066014138557e-05
0.1463246055090481 0.14633095152813969 -7.428877850261805e-07 -5.603131306556757e-06
0.24807215743722533 0.248031099489178 3.1449235585162974e-06 3.791302448882746e-05
0.1595653528606374 0.1595653528606374 0.0 0.0
0.1316453896876632 0.1316461198098946 -3.4333122731160884e-08 -6.957891086760974e-07
0.17808887163677214 0.17806293332413067 2.016410127340017e-06 2.39219025141398e-05
0.1891092146854686 0.18906368104705157 6.741537791692081e-06 3.8792100625377955e-05
0.1945878405160562 0.1948412256932991 -2.3082941183686038e-05 -0.00023030223605917304
0.21607500187650852 0.2180656131819757 -0.00031987624060902974 -0.0016707350648581226
0.2609285380910049 0.26276068045098394 -0.0008562613175198713 -0.000975881042459122
0.3510861473574401 0.3607613813362954 -0.0025458407741335296 -0.00712939320472163
0.5294872549891987 0.46776972105628717 0.012873209256268765 0.04884432467664281
0.8637911769816051 0.5903245857108561 0.08500051742832183 0.18846607384242728
1.3479426876678962 0.6978825718036675 0.21915257048787315 0.43090754537635556
1.9885903030440286 0.8150205743084084 0.43503060784215386 0.7385391208934659
2.797937757813213 0.9387453385600556 0.7370561352292274 1.1221362840239308
3.845418620647613 1.073873935227946 1.1586181776400053 1.6129265077796617
5.227574257996389 1.225439732829519 1.7600447732109195 2.242089751955951
6.953428741441997 1.3844962555356561 2.5599155158731706 3.009016970033171
8.879846165038519 1.5376107878224692 3.4894096571524216 3.8528257200636293
10.65805260178956 1.6846478032615508 4.340986513619009 4.632418284909004
11.683820912632367 1.7358674423041098 4.879622930036536 5.06833054029172
10.87956994953281 1.7628083739077849 4.503335737908786 4.613425837716241
12.927339582121856 3.6433432447417524 4.497379491254461 4.786616846125639
10.879569949534257 1.762808373906695 4.503335737910212 4.613425837717353
11.683820912634726 1.735867442306268 4.879622930036639 5.068330540291819
10.658052601785911 1.6846478032614722 4.340986513617038 4.632418284907397
8.879846165031484 1.5376107878206753 3.4894096571496185 3.8528257200611877
6.9534287414363245 1.3844962555354168 2.559915515870386 3.0090169700305216
5.227574257990887 1.2254397328282427 1.7600447732088296 2.242089751953814
3.845418620642728 1.0738739352273305 1.1586181776380242 1.612926507777373
2.797937757808079 0.9387453385597444 0.7370561352270522 1.1221362840212825
1.9885903030395957 0.8150205743078613 0.43503060784049374 0.7385391208912402
1.3479426876630227 0.6978825718023953 0.21915257048645373 0.4309075453741738
0.8637911769783757 0.5903245857101184 0.08500051742739533 0.18846607384086245
0.5294872549876817 0.46776972105533093 0.012873209256106502 0.048844324676244
0.35108614735685406 0.3607613813356105 -0.002545840774109325 -0.007129393204647028
0.2609285380904435 0.2627606804502854 -0.0008562613174985053 -0.000975881042343383
0.21607500187592343 0.21806561318141116 -0.00031987624061023684 -0.00167073506487752
0.1945878405156904 0.19484122569290113 -2.3082941179597847e-05 -0.00023030223603115831
0.18910921468503916 0.18906368104660265 6.74153779291067e-06 3.879210064361902e-05
0.17808887163647957 0.17806293332384843 2.0164101265430307e-06 2.3921902504595976e-05
0.13164538968738618 0.13164611980961685 -3.433312268844444e-08 -6.957891079894279e-07
0.1595653528602096 0.1595653528602096 0.0 0.0
0.09812964385008646 0.09812964385008646 0.0 0.0
0.11265304041336954 0.11265304041336954 0.0 0.0
0.16857144875678967 0.168547186185298 1.7498561801295798e-06 2.2512715311568723e-05
0.19394174024988908 0.1940112710340865 -5.218320297586886e-06 -6.431246389986003e-05
0.21341521586917908 0.2135945766519807 -2.1783341876264926e-05 -0.00015757744092537607
0.25263971284469705 0.25192032374122647 6.979565466014577e-05 0.0006495934488105146
0.3354430747695685 0.35316609203935645 -0.004243215101323929 -0.013479802168464033
0.5224855868413255 0.47194620565106676 0.008362616645667339 0.04217676454459153
0.9070015315231297 0.6219165438674725 0.08423498019405859 0.2008500074615986
1.5523018554629153 0.7771772039324414 0.2901079366894639 0.48501671484101017
2.3346826960282483 0.9014701477936602 0.5498025007906366 0.8834100474439524
3.3284790493132603 1.0368420091731463 0.9334675722083967 1.3581694679317167
4.588910193708936 1.1918475198024212 1.4615939570390553 1.9354687168674598
6.227670885598635 1.3660871077546737 2.1880503948165835 2.6735333830273764
8.402415115870667 1.5631430969977547 3.2188851459298014 3.6203868729431146
11.090068696918344 1.7645043105704412 4.540634998525309 4.784929387822593
14.234652048805831 1.9545235641622203 6.194847599749323 6.085280884894291
17.183482696739595 2.074938335379226 7.76970303665546 7.338841324704905
18.90577752364955 2.054170804198486 8.766720521261215 8.084886198189846
17.57445756244931 1.875418768328978 8.11370525494634 7.585333539173982
19.703158382148477 5.73312384299134 7.12052244121552 6.849512097941618
17.574457562451034 1.8754187683285615 8.11370525494759 7.585333539174898
18.905777523647757 2.054170804196593 8.766720521261263 8.084886198189897
17.183482696735396 2.074938335379579 7.769703036652872 7.338841324702949
14.23465204879789 1.9545235641620415 6.194847599744968 6.08528088489088
11.090068696911729 1.7645043105704081 4.540634998521758 4.784929387819562
8.402415115863057 1.5631430969969111 3.218885145926239 3.620386872939908
6.227670885591809 1.366087107754744 2.1880503948130894 2.6735333830239743
4.588910193701426 1.1918475198018386 1.461593957035695 1.9354687168638913
3.328479049305332 1.0368420091711208 0.933467572205653 1.3581694679285576
2.334682696021666 0.901470147793356 0.5498025007878802 0.8834100474404296
1.5523018554579848 0.7771772039319322 0.29010793668761137 0.48501671483844117
0.9070015315199503 0.6219165438663566 0.08423498019328834 0.2008500074603058
0.5224855868395355 0.4719462056498913 0.008362616645490168 0.04217676454415398
0.33544307476866464 0.3531660920383823 -0.004243215101298369 -0.0134798021684193
0.2526397128441991 0.2519203237405309 6.979565468788274e-05 0.0006495934489803393
0.21341521586874124 0.21359457665155174 -2.178334187845698e-05 -0.00015757744093206614
0.19394174024941938 0.1940112710335967 -5.218320295818337e-06 -6.431246388149186e-05
0.16857144875649757 0.1685471861850131 1.749856179479478e-06 2.2512715304933934e-05
0.11265304041318384 0.11265304041318384 0.0 0.0
0.0981296438498185 0.0981296438498185 0.0 0.0
0.057266009364480744 0.057266009364480744 0.0 0.0
0.09174835107785685 0.09174835107785685 0.0 0.0
0.15416562813138754 0.1541585847631923 4.3574774429583853e-07 6.607620450981613e-06
0.19518761956047304 0.1950824192185653 1.21103505880072e-05 9.30899913196835e-05
0.23402291037900258 0.23429129487474687 -2.200889373383079e-05 -0.0002463756020104425
0.30063741215361234 0.30871870332574447 -0.0015518250713860231 -0.006529466100746077
0.44790043038503047 0.4372318726929166 0.0002664102122771888 0.010402147479836484
0.7891795738803792 0.5944513477286049 0.053330793929866754 0.14139743222190768
1.4466314480044073 0.77786361453388 0.25008804902596726 0.4186797844445605
2.2810891610057253 0.9097923510480517 0.5145187679898309 0.8567780419678432
3.405983960092402 1.0680803630885292 0.9566041223783844 1.3812994746254887
4.777770113932392 1.2311807229413638 1.5347789894344268 2.0118104015566023
6.520128108472074 1.4175125028510884 2.3110813573134874 2.7915342483074967
8.811951720744789 1.6349860750583343 3.3901849533261084 3.786780692360344
11.801466755575275 1.8791652763517839 4.861297426930612 5.061004052292883
15.643607246759643 2.1402146936269046 6.878767800342642 6.624624752790099
19.875839775828073 2.349938265209756 9.122748025908407 8.403153484709922
24.060825213918847 2.4138953891338963 11.558185334970895 10.088744489814063
26.460911094997076 2.238215502265853 13.106484067976512 11.116211524754705
24.61258477800978 1.9469791595744779 12.175956355761924 10.489649262673385
27.05852575217964 7.751229683810908 10.170466070389441 9.136829997979284
24.61258477800969 1.9469791595727948 12.175956355762887 10.48964926267401
26.46091109499393 2.2382155022643175 13.10648406797554 11.116211524754075
24.06082521391078 2.413895389131574 11.558185334967476 10.088744489811733
19.87583977581721 2.349938265208775 9.122748025902712 8.403153484705724
15.643607246747372 2.140214693623865 6.878767800337432 6.6246247527860715
11.801466755565011 1.879165276350449 4.861297426925799 5.061004052288761
8.81195172073547 1.634986075057145 3.3901849533218362 3.7867806923564875
6.520128108462146 1.41751250284982 2.311081357309097 2.7915342483032264
4.7777701139226805 1.2311807229402763 1.5347789894302857 2.0118104015521188
3.405983960084078 1.068080363088218 0.9566041223747606 1.381299474621099
2.2810891609990227 0.9097923510468171 0.5145187679875006 0.8567780419647049
1.446631447999434 0.777863614532655 0.25008804902437254 0.41867978444240617
0.7891795738775741 0.5944513477275657 0.05333079392923164 0.14139743222077683
0.44790043038359306 0.43723187269181546 0.0002664102121780086 0.010402147479599683
0.3006374121529118 0.3087187033249347 -0.0015518250713572337 -0.0065294661006656055
0.23402291037849873 0.23429129487420747 -2.2008893729937923e-05 -0.0002463756019787351
0.19518761955993635 0.19508241921802638 1.211035058774905e-05 9.308999132227693e-05
0.15416562813110923 0.154158584762917 4.3574774405297814e-07 6.607620448196673e-06
0.09174835107768202 0.09174835107768202 0.0 0.0
0.057266009364330996 0.057266009364330996 0.0 0.0
0.03147243465550507 0.03147243465550507 0.0 0.0
0.07108777568513655 0.07108777568513655 0.0 0.0
0.13664143231048667 0.13664143231048667 0.0 0.0
0.19399160196723225 0.19392751523868845 6.040838194838018e-06 5.804589034893029e-05
0.25674575066631294 0.2560358938377636 0.0001292682100378272 0.0005805886185114045
0.36315537938750236 0.3760359966940463 -0.003159442325396313 -0.009721174981147574
0.6108423292349732 0.5302919257618883 0.019133501410607788 0.061416902062477144
1.1668951277939228 0.7279435953989422 0.158004234388206 0.2809472980067743
1.9808512217182002 0.8747975967428924 0.4025955918581829 0.7034580331171252
3.127169531146796 1.0481218919590898 0.8373167244189755 1.2417309147687319
4.537705438350557 1.2205350302314173 1.4220374937183464 1.8951329144007918
6.306615165521894 1.4114676963874955 2.2057759118106888 2.689371557323707
8.581966682423419 1.6350190001077283 3.2697644348319614 3.6771832474837334
11.58997090186859 1.8974516133225896 4.756203513020367 4.936315775525631
15.468126934729717 2.202855744849077 6.727793059193377 6.537478130687266
20.31690760653102 2.517335190199156 9.29857969312769 8.500992723204178
25.99652577441971 2.7535464249911024 12.52596981418123 10.717009535247369
31.224571966642202 2.7328984790079596 15.639303430352573 12.852370057281659
34.008772325137976 2.3451135146248303 17.522250000208796 14.14140881030436
31.77510336853546 2.016568421030298 16.413044538793347 13.34549040871182
35.09043800354394 9.879041672906727 13.693626344886454 11.517769985750753
31.77510336853353 2.016568421028647 16.413044538793176 13.345490408711708
34.00877232513186 2.345113514622956 17.522250000206192 14.141408810302703
31.224571966631007 2.732898479005813 15.639303430347118 12.852370057278083
25.996525774409008 2.753546424991433 12.525969814174687 10.717009535242886
20.316907606518722 2.5173351901990237 9.298579693120674 8.500992723199031
15.468126934717441 2.2028557448478154 6.727793059187199 6.537478130682426
11.58997090185591 1.897451613319956 4.756203513014947 4.936315775521005
8.581966682410558 1.6350190001062996 3.2697644348260058 3.6771832474782533
6.306615165510124 1.4114676963860944 2.2057759118054983 2.6893715573185304
4.537705438340248 1.2205350302304607 1.4220374937138838 1.8951329143959055
3.1271695311382453 1.0481218919574968 0.8373167244158274 1.241730914764921
1.9808512217119163 0.8747975967415461 0.4025955918562342 0.7034580331141359
1.1668951277898763 0.727943595397747 0.15800423438704037 0.28094729800508883
0.6108423292327371 0.5302919257608751 0.019133501410227016 0.061416902061634915
0.36315537938659487 0.3760359966929147 -0.003159442325341397 -0.009721174980978386
0.2567457506658577 0.2560358938372725 0.00012926821004015428 0.0005805886185451157
0.19399160196683296 0.19392751523829582 6.040838194107054e-06 5.8045890342973e-05
0.13664143231019946 0.13664143231019946 0.0 0.0
0.07108777568499579 0.07108777568499579 0.0 0.0
0.031472434655435436 0.031472434655435436 0.0 0.0
0.016251402660119436 0.016251402660119436 0.0 0.0
0.05237396250336536 0.05237396250336536 0.0 0.0
0.11803889157723009 0.11803889157723009 0.0 0.0
0.19219079642589668 0.19212796675401336 5.622717784786087e-06 5.720695409850619e-05
0.2838668808221406 0.28616279181261456 -0.0003745432501007956 -0.0019213677403730866
0.4455856938043908 0.43014975896890156 0.0017378937967593034 0.01369804103872976
0.8449547587385164 0.6412688310231298 0.0687201562758142 0.13496577143957258
1.5547188353292873 0.8110142816057647 0.2581820857967554 0.4855224679267675
2.6173383400460173 0.9886750480439902 0.634667727325627 0.9939955646764003
3.9944634692777914 1.170335772411829 1.1857515394243308 1.6383761574416318
5.729967122525502 1.3657049396322398 1.9404232240707393 2.423838958822524
7.93113520501979 1.5882871649548447 2.9575071907706882 3.3853408492942556
10.796374165394624 1.8529302011126272 4.355372503592961 4.588071460689034
14.450266477304098 2.1637997962086697 6.167615625427803 6.118851055667624
19.287489096728947 2.5217204177854753 8.722751424493786 8.04301725444969
25.311155738045066 2.9048732363783847 12.020435542598246 10.385846959068434
32.079933977142844 3.1675998712757756 15.87560965743549 13.036724448431576
38.40210861810354 3.0352923772463165 19.80126386228139 15.565552378575832
41.77474910000904 2.4275657978575684 22.25553727746854 17.091646024682948
39.16334373631676 2.0602339966663763 20.873230208612707 16.229879531037685
43.584641245865875 12.129225005980866 17.403844172951473 14.051572066933527
39.16334373631571 2.060233996666471 20.873230208612018 16.22987953103723
41.77474910000308 2.427565797858502 22.25553727746426 17.091646024680305
38.40210861809368 3.0352923772475195 19.801263862274556 15.565552378571601
32.07993397712719 3.167599871273145 15.87560965742762 13.03672444842642
25.31115573803051 2.9048732363775187 12.020435542590164 10.385846959062839
19.287489096713255 2.52172041778281 8.722751424486319 8.04301725444413
14.450266477289048 2.1637997962059674 6.167615625420952 6.118851055662134
10.796374165380016 1.8529302011124427 4.355372503585235 4.588071460682334
7.931135205005131 1.5882871649527959 2.9575071907642054 3.3853408492881316
5.729967122513159 1.3657049396309284 1.940423224065305 2.4238389588169253
3.994463469267503 1.170335772409989 1.1857515394203921 1.6383761574371227
2.6173383400386383 0.9886750480429936 0.6346677273229697 0.9939955646726748
1.554718835323961 0.8110142816044014 0.2581820857951465 0.48552246792441317
0.8449547587354476 0.6412688310220594 0.06872015627506814 0.1349657714383197
0.44558569380318275 0.4301497589676521 0.0017378937967498262 0.013698041038781075
0.28386688082160155 0.28616279181205106 -0.0003745432500976417 -0.0019213677403519041
0.19219079642557205 0.19212796675369487 5.6227177840943e-06 5.7206954093084954e-05
0.11803889157700102 0.11803889157700102 0.0 0.0
0.052373962503299086 0.052373962503299086 0.0 0.0
0.016251402660096847 0.016251402660096847 0.0 0.0
0.008008274736473388 0.008008274736473388 0.0 0.0
0.03682116581620469 0.03682116581620469 0.0 0.0
0.10045483788767512 0.10045483788767512 0.0 0.0
0.19235392501767723 0.19233494156187997 1.300615864217136e-06 1.768283993303967e-05
0.3185016018843689 0.3230102997235321 -0.0008999538037964641 -0.00360874403536673
0.5646540727479598 0.5191781212426455 0.011755702308854109 0.03372024919646066
1.1111040979918752 0.7202662996303952 0.12734231844329172 0.2634954799181882
2.0066172548912498 0.898407762953399 0.40872367758376943 0.6994858143540802
3.267760650013055 1.088150285975631 0.8839445766440186 1.2956657873934052
4.90667256242841 1.286945826889628 1.5743285856835731 2.045398149855208
6.969417549678572 1.5053644916278346 2.498566829697351 2.965486228353385
9.629444252801196 1.7637591891184679 3.7661159025877637 4.099569161094964
13.02149034330738 2.0706297058969683 5.425742203225102 5.525118434185308
17.560353688947114 2.436260683352271 7.799830835055451 7.324262170539395
23.267019506971934 2.8500626755504377 10.840102181670469 9.576854649751025
30.253881039979717 3.2744691719204044 14.69949350284573 12.279918365213593
38.22844596024472 3.570338829930206 19.36571662310284 15.292390507211671
45.62153060985652 3.368864307272976 24.05707481775155 18.195591484831994
49.6492380548724 2.525242166026618 27.09182100116552 20.03217488768027
46.93728546890062 2.043011444799967 25.713091626164577 19.1811823979361
52.94072185119126 14.473376204528426 21.715803111071736 16.75154253559109
46.93728546889691 2.043011444798074 25.713091626163404 19.181182397935437
49.649238054863766 2.525242166027078 27.091821001159776 20.03217488767691
45.62153060984081 3.368864307270239 24.05707481774345 18.195591484827126
38.22844596022869 3.5703388299305403 19.3657166230928 15.292390507205358
30.25388103996216 3.274469171918544 14.699493502836294 12.279918365207317
23.267019506953588 2.8500626755478726 10.840102181661244 9.576854649744472
17.56035368892812 2.4362606833491065 7.799830835046468 7.324262170532547
13.021490343290536 2.0706297058959917 5.425742203216375 5.525118434178172
9.629444252784582 1.7637591891174842 3.766115902579548 4.099569161087548
6.969417549664344 1.5053644916268896 2.498566829690634 2.965486228346822
4.906672562416471 1.2869458268884666 1.574328585678347 2.045398149849658
3.2677606500040928 1.0881502859740544 0.8839445766407026 1.2956657873893354
2.006617254884954 0.8984077629521744 0.40872367758191136 0.699485814350868
1.1111040979878941 0.7202662996292224 0.12734231844220717 0.2634954799164645
0.5646540727462431 0.5191781212415981 0.011755702308638798 0.03372024919600614
0.3185016018837561 0.32301029972282447 -0.0008999538037768384 -0.003608744035291486
0.19235392501735463 0.19233494156156308 1.3006158637357774e-06 1.768283992781072e-05
0.10045483788746322 0.10045483788746322 0.0 0.0
0.03682116581614629 0.03682116581614629 0.0 0.0
0.008008274736461598 0.008008274736461598 0.0 0.0
0.003938348583021634 0.003938348583021634 0.0 0.0
0.025053338334277774 0.025053338334277774 0.0 0.0
0.08609376889776205 0.08609376889776205 0.0 0.0
0.1978783470327354 0.19784733890995626 1.5386726525572254e-06 2.9469450126598963e-05
0.3670862226184777 0.36742130249793503 -0.0005374090524053615 0.00020232917294808403
0.7286190961494885 0.6031849564296399 0.03935946209907575 0.0860746776207729
1.410613762968877 0.7809946346292505 0.2102312103679081 0.4193879179717186
2.4867093720012106 0.9810311162925008 0.5823166299983374 0.9233616257103726
3.9415878956251094 1.1807602153947931 1.1557431846270825 1.6050844956032342
5.846885371686071 1.3972523432355803 1.9873653620015561 2.462267666448934
8.278339397533346 1.644868360869209 3.114649568885569 3.518821467778566
11.374940805239575 1.9378519285094526 4.605849379768815 4.8312394969613095
15.478011718124858 2.297496378740261 6.702548991804338 6.477966347580256
20.669242808724764 2.719301118285247 9.385322481793 8.564619208646517
27.342132401141548 3.1781609684625316 13.030366806470157 11.133604626208854
35.36542846337793 3.6144811150543554 17.59056430298566 14.160383045337912
44.27875941035569 3.91532920494408 22.87852124236527 17.48490896304633
52.743379108257145 3.7912123259701014 28.249858294275967 20.702308488011084
57.659963289882555 2.6998821198851304 32.085701487860774 22.87437968213664
55.16775781241288 1.8964350253076407 31.022074013490162 22.249248773615083
63.21772655563581 16.781082515009626 26.668328929527505 19.76831511109869
55.167757812409356 1.8964350253070652 31.02207401348835 22.249248773613935
57.65996328987078 2.699882119885398 32.08570148785315 22.874379682132236
52.74337910824023 3.7912123259683645 28.24985829426636 20.702308488005503
44.27875941033677 3.915329204944675 22.878521242353163 17.48490896303893
35.365428463357894 3.6144811150525697 17.590564302974578 14.16038304533075
27.342132401120807 3.1781609684608694 13.030366806458806 11.133604626201137
20.669242808704684 2.7193011182839335 9.385322481782161 8.564619208638593
15.478011718104467 2.297496378737656 6.702548991794386 6.477966347572424
11.374940805220838 1.937851928508539 4.605849379759144 4.831239496953156
8.278339397517232 1.644868360868715 3.114649568877513 3.518821467771001
5.846885371673192 1.3972523432346782 1.9873653619956688 2.4622676664428442
3.941587895614866 1.180760215393467 1.1557431846229933 1.605084495598406
2.4867093719935935 0.9810311162912383 0.582316629995651 0.9233616257067042
1.4106137629641062 0.7809946346282757 0.21023121036667627 0.4193879179691542
0.728619096147251 0.6031849564288635 0.03935946209858721 0.0860746776198001
0.3670862226177044 0.3674213024970648 -0.0005374090523845111 0.00020232917302406324
0.1978783470323813 0.19784733890961173 1.5386726516919999e-06 2.9469450117884424e-05
0.08609376889757296 0.08609376889757296 0.0 0.0
0.025053338334242177 0.025053338334242177 0.0 0.0
0.0039383485830068905 0.0039383485830068905 0.0 0.0
0.0018699785111528358 0.0018699785111528358 0.0 0.0
0.016936368846777926 0.016936368846777926 0.0 0.0
0.07777750813850112 0.07777750813850112 0.0 0.0
0.21405565262267376 0.21403372424842185 3.493613385583662e-06 1.843476086630826e-05
0.4451026295711947 0.43675046856262434 0.002132071943063759 0.006220089065506376
0.9215377197441519 0.6708023687130806 0.07823058461912105 0.17250476641195045
1.7510449727420738 0.8544842431384035 0.32028264758687497 0.5762780820167952
2.9799405699885653 1.0573200045535152 0.7673865428085711 1.1552340226264781
4.649144675779427 1.269177458799743 1.4590934015401795 1.9208738154395057
6.815851188819539 1.5042335284925559 2.42422296521635 2.887394695110631
9.612287516780174 1.780627342093282 3.746434066036399 4.085226108650491
13.263531694748384 2.118309851110083 5.569114163476469 5.576107680161835
17.88645715366895 2.5269350120842136 7.899364128787671 7.460158012797068
23.965814365898392 3.0050424224438594 11.140413959613056 9.820357983841475
31.576009075887224 3.5145469547014088 15.356548352456931 12.704913768728897
40.54775982274014 3.9486119552958225 20.554504194960906 16.044643672483403
50.21322824370707 4.161932112094368 26.449070147623843 19.602225983988863
59.45106977707169 4.112597045021059 32.34317877390226 22.99529395814835
65.77464279721306 3.3010288530230016 36.91966390858921 25.553950035600852
63.88455612460093 1.516499403936398 36.87413323112174 25.493923489542794
74.30354482712438 18.1630667270337 32.85236953643385 23.288108563656827
63.88455612458954 1.5164994039306015 36.87413323111814 25.4939234895408
65.77464279719973 3.3010288530251963 36.919663908579196 25.553950035595346
59.45106977705015 4.1125970450180525 32.34317877389044 22.995293958141666
50.213228243686615 4.1619321120965544 26.44907014760968 19.60222598398041
40.54775982271659 3.948611955293197 20.554504194947995 16.044643672475395
31.576009075864583 3.5145469547007053 15.356548352443722 12.704913768720168
23.9658143658746 3.0050424224407934 11.140413959600895 9.820357983832903
17.886457153645672 2.5269350120816503 7.899364128775861 7.460158012788158
13.263531694726705 2.118309851107581 5.569114163465922 5.5761076801532
9.612287516762507 1.7806273420933394 3.7464340660269655 4.085226108642207
6.81585118880446 1.5042335284906563 2.42422296520969 2.887394695104114
4.649144675767891 1.2691774587986278 1.459093401535241 1.9208738154340217
2.9799405699798207 1.0573200045521407 0.7673865428053636 1.1552340226223172
1.7510449727364856 0.8544842431375244 0.320282647585078 0.5762780820138825
0.9215377197412709 0.6708023687120861 0.07823058461842845 0.17250476641075657
0.4451026295701455 0.4367504685617568 0.002132071943006289 0.006220089065382529
0.21405565262233278 0.21403372424806097 3.49361338678022e-06 1.843476088501837e-05
0.07777750813835749 0.07777750813835749 0.0 0.0
0.016936368846762848 0.016936368846762848 0.0 0.0
0.001869978511143529 0.001869978511143529 0.0 0.0
0.00045959435526165974 0.00045959435526165974 0.0 0.0
0.011956735064444095 0.011956735064444095 0.0 0.0
0.07937235681849467 0.07937235681849467 0.0 0.0
0.2504491048893872 0.25045516550849534 1.2501714781432103e-05 -1.856233388959665e-05
0.5637943501587733 0.5261950176030481 0.011878487919423891 0.025720844636301345
1.1597740241902255 0.7828675247803017 0.12491318086216939 0.25199331854775425
2.1212836688941454 0.9937865320361335 0.41789750240039014 0.7095996344576221
3.5179014905195602 1.2517204515049332 0.9269150923830404 1.3392659466315873
5.405926422101935 1.5447617082272003 1.6909380500129507 2.170226663861784
7.909563497951162 1.9046743901618204 2.783890471421681 3.2209986363676597
11.180747157474759 2.3698828541865438 4.284054208361352 4.52681009492686
15.377444912728992 2.9752419965485037 6.239557581275914 6.162645334904574
20.881325420635786 3.7340665678029796 8.925875274181763 8.221383578651045
27.966310960353493 4.653158299592803 12.523208570826709 10.789944089933979
36.72313682683671 5.633781054564006 17.191821028939884 13.89753474333282
46.80743050483568 6.4526317951053 22.907317001103724 17.447481708626654
57.223462797497646 6.807515977818143 29.223323932822815 21.192622886856707
66.48539861156748 6.4959831443507055 35.32808191161779 24.661333555598976
73.44440321649813 6.00409489308865 40.13076979790355 27.309538525505943
71.10897992313342 1.574585692672247 41.435917620772656 28.098476609688486
107.23630736619975 41.158175908354664 39.304964917100726 26.77316654074437
71.10897992312755 1.57458569267471 41.43591762076727 28.09847660968554
73.44440321648538 6.004094893094262 40.13076979789169 27.309538525499438
66.4853986115447 6.495983144350619 35.328081911603434 24.661333555590666
57.22346279747301 6.807515977818054 29.223323932807265 21.192622886847694
46.80743050480712 6.452631795100009 22.90731700108931 17.447481708617794
36.723136826808975 5.6337810545602665 17.191821028925343 13.89753474332335
27.96631096032555 4.653158299588135 12.523208570812926 10.789944089924505
20.881325420608572 3.734066567798551 8.925875274168662 8.221383578641355
15.377444912702963 2.9752419965432004 6.2395575812643305 6.1626453348954335
11.180747157454888 2.36988285418557 4.284054208351176 4.526810094918146
7.909563497934295 1.9046743901598018 2.7838904714139674 3.2209986363605263
5.405926422088693 1.5447617082252794 1.690938050007419 2.1702266638559955
3.5179014905093657 1.2517204515026041 0.9269150923795013 1.3392659466272598
2.1212836688876022 0.9937865320347486 0.4178975023983301 0.7095996344545238
1.1597740241867462 0.7828675247790928 0.12491318086147418 0.25199331854617907
0.5637943501573761 0.5261950176020748 0.01187848791928021 0.02572084463602118
0.2504491048889772 0.250455165508077 1.250171478254335e-05 -1.8562333882412077e-05
0.07937235681832255 0.07937235681832255 0.0 0.0
0.011956735064426917 0.011956735064426917 0.0 0.0
0.00045959435526593545 0.00045959435526593545 0.0 0.0
CELL_DATA 800
SCALARS Stress float 6
LOOKUP_TABLE default
132.42428376086093 -496.8020406013568 -185.77052380527817 -102.92824934929453 0.0 0.0
392.7126178138843 10.454253888772534 124.26968303398515 64.70431263719607 0.0 0.0
367.6648444571782 -0.6325049717058151 109.91351584073699 -7.571946217330493 0.0 0.0
430.2926438287716 -3.383312525890214 127.87205490765116 -11.514646158965496 0.0 0.0
499.12817297191833 -9.653413442411171 160.1705863996936 -10.698173479998974 0.0 0.0
564.5149285606227 2.0087529548985277 219.15254023313747 -8.936898396447097 0.0 0.0
626.7263850509696 11.923552004248478 277.9348264125805 -8.923290280277508 0.0 0.0
688.2946051291729 30.376042214940128 335.166601473569 -9.672557975710545 0.0 0.0
750.1419682214535 54.52648410572636 388.6019247623537 -10.48060441314811 0.0 0.0
812.6550663345503 82.59600132680193 439.39395269431907 -10.970333586617263 0.0 0.0
875.6624336164562 112.50504247582724 488.44580899834034 -11.147719373083685 0.0 0.0
939.3415154752006 144.56305241599597 537.4597929777482 -11.086980836629172 0.0 0.0
1004.4103097780368 177.15057505138734 586.7554058150121 -10.983353949785112 0.0 0.0
1071.3593434873274 211.08662140555657 637.3819558712155 -10.885011459480792 0.0 0.0
1140.8836747544692 248.08873595685657 690.7182480625788 -10.72943101972986 0.0 0.0
1212.4595762219087 288.7685328004193 746.9011882032314 -10.321523162726058 0.0 0.0
1283.4860690860087 332.1032434099668 804.1438116837078 -9.467544757443115 0.0 0.0
1349.5012918369073 375.1449493872126 858.6969264454998 -8.025561206831004 0.0 0.0
1405.5866035010054 414.32609228881233 906.2764068774406 -6.394566220015713 0.0 0.0
1456.6711237806594 456.3823663469972 952.4301188701877 -6.277116971568292 0.0 0.0
1456.6711237806928 456.38236634703776 952.4301188702245 6.27711697161193 0.0 0.0
1405.5866035008635 414.32609228868927 906.2764068773155 6.394566220005071 0.0 0.0
1349.5012918366308 375.1449493869719 858.6969264452033 8.02556120684056 0.0 0.0
1283.4860690854016 332.10324340940673 804.1438116831833 9.467544757496523 0.0 0.0
1212.459576221041 288.76853279961074 746.9011882025521 10.321523162700245 0.0 0.0
1140.8836747540968 248.08873595655882 690.718248062301 10.729431019723053 0.0 0.0
1071.3593434870213 211.08662140535182 637.3819558709527 10.885011459611047 0.0 0.0
1004.4103097778375 177.1505750513108 586.7554058148035 10.983353949768434 0.0 0.0
939.3415154747534 144.56305241569262 537.4597929773814 11.086980836561137 0.0 0.0
875.662433615744 112.50504247527287 488.4458089977758 11.1477193731198 0.0 0.0
812.6550663343941 82.59600132684 439.39395269412853 10.970333586618905 0.0 0.0
750.1419682210253 54.52648410548338 388.60192476199984 10.480604413126834 0.0 0.0
688.2946051288839 30.376042214858245 335.16660147328184 9.672557975675334 0.0 0.0
626.726385050704 11.92355200421089 277.9348264123025 8.923290280283307 0.0 0.0
564.5149285601708 2.0087529546615848 219.1525402327589 8.936898396456488 0.0 0.0
499.12817297175667 -9.653413442277607 160.1705863995882 10.698173480013356 0.0 0.0
430.2926438285427 -3.3833125257589503 127.8720549076312 11.514646158990598 0.0 0.0
367.66484445704214 -0.6325049718103264 109.91351584066793 7.5719462173062775 0.0 0.0
392.7126178137882 10.45425388877823 124.26968303393258 -64.70431263712595 0.0 0.0
132.42428376142405 -496.80204060079734 -185.77052380473242 102.92824934896555 0.0 0.0
42.04731382002967 -524.4831630793178 -234.49870006074775 -141.64524578691143 0.0 0.0
233.25397861068353 17.220927651733255 75.14247187872502 16.45168566127414 0.0 0.0
324.422097802903 16.575595457034975 102.29881785165348 -9.943720557488756 0.0 0.0
385.77074186522844 -1.5188805833380887 115.12746585231336 -31.056217851200117 0.0 0.0
468.06200925008204 -11.237942596815806 142.03206422906294 -30.813638201217547 0.0 0.0
537.9384892011544 -0.2030152988049707 197.34756492029527 -27.030528535525267 0.0 0.0
605.1342977229573 9.444424978401637 257.9793946848091 -27.292934927633485 0.0 0.0
667.5691431457049 26.486139579310397 316.768364968079 -28.28595594963257 0.0 0.0
728.0156583904316 48.635853536790314 370.5900476124838 -29.336484425413172 0.0 0.0
787.9688991518857 74.2673988392039 420.4181089485385 -29.78598460117757 0.0 0.0
847.7974210156549 101.63732723906682 467.61275594167296 -29.560747162299265 0.0 0.0
907.9830620600193 129.48893357857295 513.3498575345675 -28.92382259087774 0.0 0.0
968.5702196674106 158.4882957073889 558.8972699965288 -28.19407558840487 0.0 0.0
1031.1223574109056 188.69369739458512 605.6022234720067 -27.619772999524933 0.0 0.0
1096.0817232811512 221.42260802053306 654.6114593139172 -27.025749958556517 0.0 0.0
1162.7057882715294 257.4130751601893 706.0264394756916 -25.92214601895351 0.0 0.0
1228.8119451278258 295.87969671872656 758.3949843792788 -23.88203955626092 0.0 0.0
1291.0046183148252 334.90867634695434 809.0379521546939 -20.725320853900516 0.0 0.0
1347.594728056641 374.4136434284293 856.9674716066252 -16.887370750840223 0.0 0.0
1386.2774898564094 403.4973156739702 890.6870728681448 -11.31871489194268 0.0 0.0
1386.27748985607 403.497315673634 890.6870728678932 11.318714891982964 0.0 0.0
1347.5947280562923 374.4136434280989 856.9674716063511 16.88737075087395 0.0 0.0
1291.0046183148481 334.9086763470196 809.0379521546647 20.72532085396109 0.0 0.0
1228.8119451280731 295.8796967190326 758.3949843793878 23.882039556302267 0.0 0.0
1162.7057882713752 257.41307516009346 706.0264394755161 25.92214601892431 0.0 0.0
1096.081723280799 221.42260802026135 654.6114593135155 27.025749958575087 0.0 0.0
1031.1223574107155 188.69369739450292 605.6022234717595 27.61977299961384 0.0 0.0
968.5702196670292 158.48829570712206 558.8972699962029 28.194075588383747 0.0 0.0
907.983062059724 129.48893357840734 513.3498575343427 28.923822590767337 0.0 0.0
847.7974210154687 101.6373272390419 467.6127559415179 29.560747162313287 0.0 0.0
787.9688991513792 74.2673988388681 420.4181089481326 29.785984601123822 0.0 0.0
728.0156583900558 48.63585353660551 370.59004761214965 29.336484425416327 0.0 0.0
667.5691431451687 26.48613957896976 316.76836496763684 28.285955949639124 0.0 0.0
605.1342977223723 9.444424978031094 257.97939468432554 27.292934927606208 0.0 0.0
537.9384892006838 -0.2030152990392473 197.3475649199308 27.030528535497286 0.0 0.0
468.0620092497612 -11.23794259684791 142.03206422890764 30.813638201203922 0.0 0.0
385.7707418650435 -1.518880583202828 115.12746585230646 31.056217851137653 0.0 0.0
324.42209780284884 16.575595457031465 102.29881785163654 9.943720557480002 0.0 0.0
233.25397861083502 17.220927651935426 75.14247187883112 -16.451685661372355 0.0 0.0
42.04731382036714 -524.4831630789278 -234.49870006034786 141.64524578669062 0.0 0.0
1.961581827822613 -521.0332132630831 -241.5257126351591 -155.4351907230341 0.0 0.0
136.33792507517936 7.170594286247321 43.052555808428004 -35.340224890934024 0.0 0.0
264.1714183358735 24.435718520820416 86.58214105700817 -28.317079085005563 0.0 0.0
340.9730282531635 2.5106275088789913 103.0318507412965 -48.86513171121332 0.0 0.0
425.57888067342697 -7.6813686162307375 126.45865909556842 -52.633931029305025 0.0 0.0
509.4722336570029 -6.089480891979041 172.29545554533337 -47.907746874904376 0.0 0.0
578.8439329284075 8.058099509081234 235.24710902676563 -45.941219879561025 0.0 0.0
642.0564749672551 22.43469526826027 294.58966525206324 -46.89085639919127 0.0 0.0
702.1105931774098 42.714506384134765 349.472343300577 -47.88219521503535 0.0 0.0
759.8567122904419 65.79076558630021 398.82573450422996 -48.10383152338031 0.0 0.0
816.5477640346304 90.01649794089329 444.170088871455 -47.476565963558805 0.0 0.0
872.6404562808993 114.7380296958892 487.0965284852565 -46.244061053150475 0.0 0.0
929.6969964558775 139.5314309619315 529.2030058747322 -45.04599552863133 0.0 0.0
987.9195273763268 166.0891766866581 572.1504154682167 -44.03075312334995 0.0 0.0
1048.011854963781 194.45285567890625 616.6548701893987 -43.038170032680675 0.0 0.0
1109.541058446169 225.41708978792292 663.0718849337477 -41.37076063673446 0.0 0.0
1170.710830338458 258.7981883500175 710.443048223425 -38.40919038123539 0.0 0.0
1230.0484665008278 294.6305208361719 758.0536640972157 -33.81202831324392 0.0 0.0
1282.5051312691312 329.3633057209364 801.5937750331163 -27.075958727809883 0.0 0.0
1316.8805057292648 353.1991486557196 830.6112811775797 -16.011336369265145 0.0 0.0
1316.8805057296343 353.19914865609957 830.6112811778526 16.01133636931248 0.0 0.0
1282.5051312690612 329.36330572089605 801.5937750330453 27.075958727933973 0.0 0.0
1230.0484665004014 294.6305208357875 758.0536640968556 33.81202831331494 0.0 0.0
1170.7108303383845 258.79818834999617 710.4430482232978 38.409190381270435 0.0 0.0
1109.5410584460305 225.4170897878466 663.0718849335733 41.37076063675257 0.0 0.0
1048.01185496386 194.45285567907172 616.6548701894508 43.03817003271683 0.0 0.0
987.9195273757742 166.08917668619875 572.1504154677974 44.030753123395115 0.0 0.0
929.6969964549339 139.5314309610988 529.2030058739836 45.04599552865255 0.0 0.0
872.6404562805833 114.73802969571523 487.09652848488463 46.24406105314473 0.0 0.0
816.5477640345171 90.01649794095442 444.170088871275 47.47656596359511 0.0 0.0
759.8567122899216 65.79076558592851 398.8257345038221 48.10383152328971 0.0 0.0
702.110593177179 42.71450638410097 349.4723433003286 47.88219521501544 0.0 0.0
642.0564749670643 22.434695268305372 294.5896652518177 46.89085639918814 0.0 0.0
578.8439329282318 8.058099509210244 235.24710902653828 45.941219879545855 0.0 0.0
509.4722336568301 -6.089480891819079 172.29545554518992 47.90774687488144 0.0 0.0
425.5788806730554 -7.681368616317017 126.4586590954192 52.63393102925929 0.0 0.0
340.973028252897 2.5106275087017282 103.03185074116604 48.86513171112988 0.0 0.0
264.17141833585157 24.43571852081707 86.58214105700057 28.31707908492657 0.0 0.0
136.337925075359 7.1705942864920535 43.052555808555304 35.34022489073546 0.0 0.0
1.9615818280300203 -521.0332132627861 -241.5257126348219 155.43519072284946 0.0 0.0
-11.007827532236774 -501.283615517896 -226.52689030522626 -158.32019626139342 0.0 0.0
79.66486864186595 -6.9242114131198225 21.822197168623834 -79.21703889207868 0.0 0.0
205.74945750516915 25.987421873908396 69.52106381372325 -53.80199930782314 0.0 0.0
292.43970681319263 6.329873000377674 89.62548583235728 -67.60448920720532 0.0 0.0
374.8627705720445 -4.1405007644875225 111.28111960572909 -75.02717659395051 0.0 0.0
466.42616670824384 -8.644422404140986 147.59956580617688 -71.17200763348961 0.0 0.0
544.5726661536391 4.416930715037995 207.17751641022292 -65.60456218746444 0.0 0.0
611.434412259694 19.034783652866565 268.7780392930517 -65.79104660775903 0.0 0.0
671.2635794787825 36.56254374984201 324.2123623573519 -66.15937367944183 0.0 0.0
727.2050861759366 56.93245046347111 373.515776646897 -65.99232981686421 0.0 0.0
781.0772613442655 78.18683654945549 417.68568835660454 -64.91900600292402 0.0 0.0
834.0288224863083 99.55611181969641 458.4868003037745 -63.16790797398645 0.0 0.0
886.7315586618145 120.76252382620268 497.2701790697104 -61.498179719747576 0.0 0.0
941.2503117897741 143.34785163654678 536.7331275068789 -60.183896498764895 0.0 0.0
996.8108973022124 167.17680572519865 576.8884851204206 -58.82188026457994 0.0 0.0
1052.5358774808687 193.04527397527875 617.9289235967572 -56.674981761056635 0.0 0.0
1109.0289444357763 221.45483458287845 660.4910356311773 -53.10964225406426 0.0 0.0
1164.313490039705 252.47734352783021 703.6918214481278 -47.15204845989937 0.0 0.0
1213.2707013562922 282.45926828774225 743.16480096636 -37.37305623167079 0.0 0.0
1245.9190805575458 302.9854063292094 769.7167462662951 -21.008988225799882 0.0 0.0
1245.919080557311 302.98540632898636 769.716746266115 21.0089882259065 0.0 0.0
1213.2707013562613 282.45926828775 743.1648009662974 37.37305623179052 0.0 0.0
1164.3134900396904 252.47734352786992 703.6918214480862 47.15204846001126 0.0 0.0
1109.0289444355337 221.45483458268347 660.4910356309714 53.10964225409241 0.0 0.0
1052.5358774805159 193.0452739749855 617.9289235964301 56.67498176108039 0.0 0.0
996.8108973019714 167.17680572502894 576.8884851201863 58.82188026455242 0.0 0.0
941.2503117897905 143.34785163665646 536.7331275068236 60.18389649877098 0.0 0.0
886.7315586617464 120.76252382627241 497.27017906962203 61.49817971981554 0.0 0.0
834.0288224862315 99.55611181979235 458.4868003036686 63.167907974074005 0.0 0.0
781.0772613442643 78.1868365496495 417.68568835652013 64.9190060029835 0.0 0.0
727.2050861753246 56.932450463002475 373.51577664641115 65.99232981679091 0.0 0.0
671.263579478233 36.562543749473 324.21236235690645 66.15937367941798 0.0 0.0
611.4344122592945 19.034783652680687 268.77803929269135 65.79104660770857 0.0 0.0
544.5726661531949 4.416930714896186 207.1775164098672 65.6045621875084 0.0 0.0
466.42616670788186 -8.644422404146395 147.59956580598916 71.17200763346034 0.0 0.0
374.8627705717696 -4.140500764386571 111.28111960568283 75.02717659387002 0.0 0.0
292.4397068130566 6.329873000468998 89.62548583234471 67.6044892071271 0.0 0.0
205.7494575051542 25.987421873859297 69.52106381370405 53.80199930770145 0.0 0.0
79.66486864197203 -6.924211412931003 21.822197168712307 79.21703889189506 0.0 0.0
-11.007827532099455 -501.2836155175672 -226.52689030491035 158.32019626129212 0.0 0.0
-11.281888194292236 -472.151683957566 -200.69666023277892 -156.9493292098207 0.0 0.0
45.10447892300555 -20.065563524275255 7.5116746196190896 -112.96006935173972 0.0 0.0
154.1886843868827 23.608441875147847 53.33913787860915 -80.45272404032778 0.0 0.0
241.5080686268014 9.631212583981974 75.34178436323499 -87.19968837710039 0.0 0.0
320.4940965868754 -0.7497724142629036 95.8633275737684 -96.07864094184433 0.0 0.0
412.51142589827657 -8.215307338549954 124.69239581698574 -96.07770632407387 0.0 0.0
502.0904990474961 -0.7425905922902971 175.6175056611617 -88.43826791531473 0.0 0.0
574.266115428891 15.38015551344539 237.97037878347803 -84.6889807728734 0.0 0.0
634.2749305800702 30.40402682506801 293.9733203819363 -84.40959337228506 0.0 0.0
689.217693803459 47.81108216601096 343.6317736963327 -83.57369106078741 0.0 0.0
740.8292646142181 66.01708301428124 387.2602353635399 -81.99729065611211 0.0 0.0
790.4329766441965 84.02389680721674 426.29327153724955 -79.71737249739198 0.0 0.0
839.8678318614635 101.87164705405527 462.81993948031777 -77.69784007240658 0.0 0.0
889.6242052391757 120.57855719499842 498.54200114504727 -76.01847273123118 0.0 0.0
940.4616313108877 139.97284954685927 534.3974374592938 -74.37136099787989 0.0 0.0
991.9630051097629 160.69704025066105 570.896659527979 -71.9676571153198 0.0 0.0
1042.707724847509 183.53833864637136 607.8463895477498 -67.93132369765927 0.0 0.0
1093.1110363797857 208.82456013015644 645.7642052582553 -60.78655827876004 0.0 0.0
1139.075162518811 233.8831572429929 681.3402659584311 -48.157548006229234 0.0 0.0
1171.57963704045 251.84636198573807 706.5937717812499 -26.687650038511563 0.0 0.0
1171.5796370400785 251.84636198537748 706.5937717810173 26.687650038609263 0.0 0.0
1139.0751625186704 233.88315724289743 681.3402659583841 48.157548006359136 0.0 0.0
1093.1110363800744 208.82456013052206 645.764205258446 60.78655827893865 0.0 0.0
1042.7077248473813 183.53833864632688 607.8463895475928 67.9313236977961 0.0 0.0
991.9630051096965 160.6970402506851 570.8966595278872 71.96765711539693 0.0 0.0
940.4616313106266 139.97284954666696 534.397437459069 74.371360997877 0.0 0.0
889.6242052388988 120.5785571948324 498.5420011448262 76.01847273129457 0.0 0.0
839.8678318614893 101.87164705423618 462.8199394803267 77.69784007253679 0.0 0.0
790.4329766441292 84.02389680734736 426.2932715371431 79.71737249749091 0.0 0.0
740.8292646142175 66.01708301445937 387.2602353634633 81.99729065611784 0.0 0.0
689.2176938031032 47.81108216580519 343.631773695985 83.57369106070831 0.0 0.0
634.2749305798725 30.404026825137706 293.97332038171766 84.40959337232735 0.0 0.0
574.2661154286346 15.380155513464654 237.970378783205 84.68898077285861 0.0 0.0
502.09049904710025 -0.7425905923304157 175.61750566088313 88.43826791535241 0.0 0.0
412.511425897845 -8.21530733866676 124.69239581678815 96.07770632396 0.0 0.0
320.49409658653167 -0.7497724143918454 95.86332757363382 96.07864094171899 0.0 0.0
241.5080686265828 9.631212583802892 75.34178436311569 87.19968837699577 0.0 0.0
154.18868438681278 23.608441875020283 53.33913787854991 80.45272404018473 0.0 0.0
45.104478923052255 -20.065563524105784 7.511674619683941 112.96006935153476 0.0 0.0
-11.281888194213664 -472.15168395722196 -200.69666023248112 156.949329209765 0.0 0.0
-6.307904458391512 -436.9806122852504 -170.60646930487533 -153.85098469973775 0.0 0.0
21.820386619258365 -31.066800329712223 -2.7739241131361583 -137.56583104170315 0.0 0.0
109.458025656758 19.30975724472679 38.63033487044544 -104.96505235214359 0.0 0.0
190.4004694301993 12.495703067372386 60.8688517492715 -106.36107254559911 0.0 0.0
263.1481498424245 0.916445133601739 79.17682031546342 -115.86085640057995 0.0 0.0
343.42877904446965 -5.814010995922348 102.5792589191008 -119.54140303389269 0.0 0.0
439.67937634615436 -3.3356745028959303 143.15510591020734 -114.23190044209159 0.0 0.0
523.5671936708783 9.429043594057156 199.9220776145749 -106.07488062749519 0.0 0.0
589.4755691138278 24.089719573665395 257.5132492840808 -102.82715611805584 0.0 0.0
644.1750760256579 38.575154576000514 307.62833854978555 -101.03263885939762 0.0 0.0
693.6986376705712 53.34203357063447 350.9479712906423 -98.78480080115223 0.0 0.0
740.8440529240308 68.21481217234063 389.34550434352377 -96.06037104953336 0.0 0.0
786.7904353873307 82.90338505894941 424.1850880699419 -93.6143662042445 0.0 0.0
832.8036119392948 97.75578966845363 457.1581016626459 -91.71872007619871 0.0 0.0
879.1130366658313 112.70810919478987 489.07260254718966 -89.84948496132563 0.0 0.0
924.8439310149798 128.77253051428016 520.5993423602384 -87.11477666273986 0.0 0.0
970.6709033118495 145.543250526029 552.169020312834 -82.88210504557541 0.0 0.0
1015.6163690282535 163.8098619716832 583.9138354330638 -74.83668534903833 0.0 0.0
1058.1776918396072 183.35076538285114 615.1001922429065 -59.74298961827725 0.0 0.0
1091.8382501069743 198.96804217282255 639.8304174787393 -33.45293571489223 0.0 0.0
1091.8382501073372 198.96804217322182 639.8304174790086 33.45293571505931 0.0 0.0
1058.1776918400726 183.3507653834097 615.1001922432367 59.74298961851854 0.0 0.0
1015.6163690282547 163.80986197178254 583.9138354330304 74.83668534925047 0.0 0.0
970.6709033114706 145.54325052573358 552.1690203125318 82.88210504568411 0.0 0.0
924.8439310143632 128.77253051372924 520.5993423597503 87.11477666278323 0.0 0.0
879.1130366654495 112.70810919449272 489.0726025468688 89.84948496136774 0.0 0.0
832.8036119392468 97.75578966854086 457.1581016625521 91.7187200762902 0.0 0.0
786.7904353866343 82.90338505837931 424.1850880694138 93.614366204324 0.0 0.0
740.8440529232249 68.21481217163648 389.34550434293897 96.06037104951903 0.0 0.0
693.6986376700411 53.34203357022838 350.9479712902049 98.78480080110474 0.0 0.0
644.1750760250341 38.575154575458384 307.6283385492689 101.03263885925031 0.0 0.0
589.4755691134368 24.089719573501863 257.5132492837473 102.82715611805949 0.0 0.0
523.5671936706515 9.429043594163517 199.922077614362 106.07488062748914 0.0 0.0
439.67937634576214 -3.335674502839666 143.15510591001598 114.23190044213713 0.0 0.0
343.42877904415286 -5.814010995836464 102.57925891902654 119.54140303377042 0.0 0.0
263.14814984225035 0.9164451337051522 79.17682031544399 115.8608564004673 0.0 0.0
190.40046943012592 12.495703067389726 60.86885174925468 106.36107254541764 0.0 0.0
109.45802565672543 19.309757244743334 38.63033487044063 104.9650523519557 0.0 0.0
21.820386619289323 -31.06680032954035 -2.7739241130753074 137.5658310414939 0.0 0.0
-6.307904458318809 -436.9806122849139 -170.60646930460106 153.85098469964214 0.0 0.0
-0.7698522424056975 -396.71487868650996 -139.88961770467867 -149.59885812434166 0.0 0.0
3.562759416312113 -41.19273993073553 -11.288994154327021 -154.86836061787133 0.0 0.0
70.17058352307922 14.858845123552666 25.50882859398956 -125.79877312799714 0.0 0.0
140.3178889832853 14.527419799245852 46.453592634759346 -124.03850047547029 0.0 0.0
203.60229708468154 2.937449448946436 61.951043059685965 -133.20773111525122 0.0 0.0
273.19350516030664 -3.7270048012688126 80.88950440866175 -140.98050968273054 0.0 0.0
360.2291769268437 -3.2485803739794434 111.29121341731611 -139.66973881964438 0.0 0.0
452.15019826354035 4.1137001361819765 157.40660731255866 -131.12066230243437 0.0 0.0
528.5739465143434 16.343024324874783 211.66620854821144 -122.98943751166917 0.0 0.0
588.2381962757839 29.22741021802517 263.0219115318852 -118.71078978019143 0.0 0.0
636.7306391040038 40.292436844716235 306.08080554133664 -115.57628578249162 0.0 0.0
682.1330171610173 52.10995604504974 344.6785881623292 -112.31032575433798 0.0 0.0
725.261998366494 63.49404762733909 378.9057210284517 -109.4913745974949 0.0 0.0
767.5078424541987 75.05113319412844 410.24713970317055 -107.3068207935321 0.0 0.0
808.8311044589796 85.62953126377916 438.65381851813777 -105.25606518535169 0.0 0.0
850.4095850264686 96.93718803177951 466.3163564287218 -102.4268253767014 0.0 0.0
890.4093645204914 107.96988833614775 492.3718268501335 -97.82505245429628 0.0 0.0
928.8134758707115 118.37250075084884 517.0937546514128 -89.22462525519407 0.0 0.0
967.8402301913035 130.22150514588216 542.7804890032298 -72.53490486959855 0.0 0.0
1004.2182335126182 143.291322991745 567.7020809630006 -41.938899719009775 0.0 0.0
1004.2182335127382 143.29132299190084 567.7020809630452 41.9388997191498 0.0 0.0
967.8402301909936 130.22150514565274 542.7804890030305 72.53490486982327 0.0 0.0
928.8134758703286 118.3725007505486 517.0937546511788 89.22462525539265 0.0 0.0
890.4093645205505 107.96988833634353 492.37182685013926 97.82505245448215 0.0 0.0
850.409585026608 96.93718803205634 466.31635642878393 102.42682537681827 0.0 0.0
808.831104458696 85.62953126359685 438.65381851795297 105.25606518537522 0.0 0.0
767.5078424541114 75.05113319412044 410.2471397030657 107.30682079357413 0.0 0.0
725.2619983665422 63.4940476275883 378.90572102844607 109.4913745976104 0.0 0.0
682.1330171604172 52.10995604459235 344.6785881618556 112.31032575437379 0.0 0.0
636.7306391037216 40.292436844579996 306.0808055410574 115.57628578244724 0.0 0.0
588.2381962756125 29.227410218062097 263.02191153166206 118.71078978010881 0.0 0.0
528.5739465140543 16.34302432485027 211.66620854795266 122.98943751168112 0.0 0.0
452.15019826307787 4.113700136068456 157.40660731225384 131.1206623023938 0.0 0.0
360.2291769262988 -3.2485803742104125 111.29121341705108 139.6697388195431 0.0 0.0
273.19350516013907 -3.7270048010549 80.88950440867437 140.980509682576 0.0 0.0
203.60229708455796 2.9374494490341165 61.95104305967675 133.2077311150772 0.0 0.0
140.31788898327787 14.527419799328056 46.453592634781764 124.03850047527601 0.0 0.0
70.17058352310457 14.858845123722137 25.50882859404801 125.7987731277943 0.0 0.0
3.562759416319586 -41.19273993062558 -11.288994154291794 154.86836061769841 0.0 0.0
-0.7698522424076444 -396.7148786861674 -139.88961770447108 149.5988581242811 0.0 0.0
0.31784516798171225 -353.1611002050903 -113.72948023866076 -144.60574866021454 0.0 0.0
-12.954108056442756 -50.05996389087808 -18.904205091574717 -165.46048767807733 0.0 0.0
35.07151840816579 11.086205724612716 13.847317239833547 -142.757891498977 0.0 0.0
91.73565479885093 15.693690902213216 32.22880371031924 -139.19606731442067 0.0 0.0
143.07684880053043 5.794326030892525 44.65463329694673 -147.52927496289328 0.0 0.0
196.18739752807735 -2.0500428368752215 58.28876045124207 -158.14706200272568 0.0 0.0
263.27081808342245 -2.359780044646758 79.7277572512255 -162.42486523354066 0.0 0.0
353.2035056175429 2.1585255615927683 113.52133471392298 -157.8565134913777 0.0 0.0
440.0417411839773 7.998698516094683 156.55876905252364 -147.62656100069364 0.0 0.0
508.708198094443 18.971905782938727 204.87320700759582 -137.9378956117545 0.0 0.0
562.7037773367031 26.89968902138386 247.91272564993645 -133.38419729685404 0.0 0.0
606.8210789898519 35.27384961005049 286.19663387558137 -128.8519944212762 0.0 0.0
648.1430470595304 43.95893345915668 321.1523752530828 -125.55457132064814 0.0 0.0
687.4892988529407 52.02814688346891 352.3762095315301 -123.06636735316854 0.0 0.0
725.4312432801846 59.133456457603316 379.8983343221595 -120.83890662539608 0.0 0.0
761.4567141275676 65.10711785483537 403.72417559896166 -117.88091926383386 0.0 0.0
797.3892861067121 70.85979762950728 425.9067509741684 -113.06864786968576 0.0 0.0
830.0076008912878 73.69149028081318 444.5198499267426 -103.72544752909343 0.0 0.0
861.5729710561988 74.4514514774379 461.27071661279246 -86.46162597242886 0.0 0.0
900.8769838350669 82.90079050750234 485.47875124711345 -52.97846386075363 0.0 0.0
900.8769838349738 82.90079050744362 485.4787512470901 52.97846386092925 0.0 0.0
861.5729710561684 74.4514514775488 461.2707166128439 86.46162597276313 0.0 0.0
830.0076008911146 73.69149028083109 444.5198499266138 103.72544752939416 0.0 0.0
797.3892861063632 70.85979762925204 425.90675097389203 113.06864786979375 0.0 0.0
761.4567141270472 65.10711785434405 403.72417559857587 117.88091926381233 0.0 0.0
725.4312432797813 59.13345645724918 379.8983343218599 120.83890662543264 0.0 0.0
687.4892988524333 52.02814688307841 352.37620953119364 123.06636735322249 0.0 0.0
648.14304705913 43.95893345878233 321.15237525277587 125.55457132063168 0.0 0.0
606.8210789899252 35.27384961028993 286.19663387557733 128.8519944212872 0.0 0.0
562.7037773365314 26.89968902135426 247.91272564973534 133.38419729679924 0.0 0.0
508.7081980940642 18.971905782761706 204.87320700728085 137.93789561170325 0.0 0.0
440.04174118339466 7.998698515750448 156.55876905217394 147.62656100072746 0.0 0.0
353.2035056168348 2.1585255611516345 113.52133471354217 157.85651349134434 0.0 0.0
263.27081808310464 -2.3597800445716723 79.72775725114559 162.42486523347162 0.0 0.0
196.1873975279327 -2.0500428367894346 58.288760451224604 158.14706200259218 0.0 0.0
143.07684880039548 5.794326030802477 44.65463329688029 147.52927496268867 0.0 0.0
91.73565479883678 15.693690902219354 32.22880371031683 139.19606731423067 0.0 0.0
35.071518408144165 11.086205724701053 13.847317239853563 142.75789149879122 0.0 0.0
-12.954108056466191 -50.05996389087863 -18.904205091581954 165.46048767789858 0.0 0.0
0.3178451679250429 -353.1611002047841 -113.72948023852987 144.60574866006704 0.0 0.0
-7.650257611497411 -308.09223301382013 -96.44327002035625 -136.9849732533503 0.0 0.0
-28.46393891024776 -56.81133472803721 -25.581614345952687 -172.12666193919992 0.0 0.0
3.2359501769229215 8.09857060739672 3.4003562352958925 -155.5063557031461 0.0 0.0
44.85541081871947 16.326159547622172 18.35447110990249 -151.1713254023516 0.0 0.0
82.0132828912708 8.664089170521144 27.200140643696074 -158.26318198019317 0.0 0.0
117.5833074778758 0.9459608374632552 35.526293385579486 -170.39029497453024 0.0 0.0
159.9745619165139 -1.6012677938388769 48.01694406467398 -179.4270878726296 0.0 0.0
217.68515396336917 0.967759433880846 67.91752553833216 -179.66513623847047 0.0 0.0
295.74838350358016 4.335543220097399 95.84854645297467 -174.29796165915351 0.0 0.0
376.85471252093805 7.712771780947465 130.17542041353008 -163.2256863209251 0.0 0.0
443.3075069797798 14.074611236024538 168.1986633779509 -153.69377732943227 0.0 0.0
492.9087481672419 18.008781031333076 202.9528971927828 -147.5234015833099 0.0 0.0
535.3478125306599 23.85162148732927 237.165993785796 -142.99367359301374 0.0 0.0
573.9519333904118 28.99906631100015 269.43939218031704 -139.61834235165682 0.0 0.0
608.9606805908979 32.56916976778931 297.89616761535825 -136.7420036282669 0.0 0.0
640.7740984383964 33.970863774482204 321.4064576493785 -133.60393319238625 0.0 0.0
672.2086727964529 33.0407796323265 340.8921225093605 -128.80557528154617 0.0 0.0
705.5665773603249 30.989734090584804 359.2760929042578 -118.4272254901595 0.0 0.0
730.4652125111236 18.150142226888164 367.50399284049706 -100.94869331590688 0.0 0.0
769.1270737653492 13.550692227793576 385.2425725264833 -67.62859812808999 0.0 0.0
769.1270737649854 13.550692227426254 385.2425725262591 67.62859812822659 0.0 0.0
730.465212510834 18.15014222673463 367.5039928403307 100.94869331624736 0.0 0.0
705.5665773596642 30.98973409006996 359.2760929038285 118.42722549043509 0.0 0.0
672.2086727959999 33.040779631972654 340.892122509042 128.80557528168276 0.0 0.0
640.7740984380905 33.97086377420503 321.4064576491005 133.60393319238975 0.0 0.0
608.9606805908575 32.569169767882755 297.89616761531175 136.7420036282943 0.0 0.0
573.9519333905996 28.999066311316398 269.4393921803887 139.61834235173978 0.0 0.0
535.3478125307131 23.851621487654818 237.16599378585448 142.99367359316165 0.0 0.0
492.90874816704667 18.008781031290667 202.95289719259702 147.52340158333737 0.0 0.0
443.3075069797302 14.074611236217578 168.1986633778909 153.69377732938682 0.0 0.0
376.85471252044084 7.712771780630915 130.17542041323014 163.2256863208187 0.0 0.0
295.74838350306686 4.335543219791994 95.8485464527038 174.29796165914257 0.0 0.0
217.68515396314177 0.9677594339688644 67.91752553827718 179.66513623843767 0.0 0.0
159.97456191630516 -1.6012677938535056 48.01694406460244 179.42708787251655 0.0 0.0
117.58330747774973 0.9459608373883688 35.52629338552025 170.39029497430647 0.0 0.0
82.01328289138218 8.664089170790879 27.200140643811082 158.26318197998364 0.0 0.0
44.855410818833164 16.326159547866098 18.35447111000978 151.1713254021701 0.0 0.0
3.2359501769199857 8.098570607450364 3.4003562353111048 155.50635570295182 0.0 0.0
-28.46393891026839 -56.81133472802437 -25.581614345955302 172.12666193904954 0.0 0.0
-7.6502576115422745 -308.09223301352347 -96.4432700202641 136.9849732531702 0.0 0.0
-16.422364876477136 -263.22136848213887 -83.85654975677193 -127.12239858393154 0.0 0.0
-41.723857034362986 -60.215842878435396 -30.57949589051027 -174.9033162642546 0.0 0.0
-26.099844287546798 5.510157000881103 -6.176753561092886 -164.20868744946523 0.0 0.0
-0.3067572316411664 16.619437063815397 4.893574243783265 -159.43652557955943 0.0 0.0
21.08908453395531 11.333285801445868 9.724836530185298 -165.00437984922237 0.0 0.0
37.540863921375355 4.4659028911414875 12.594193822154043 -176.99586426024243 0.0 0.0
53.31994781475211 0.606075740423003 16.32959525488879 -187.79564670067327 0.0 0.0
73.40891966546455 -0.03683159125673452 22.525814383134666 -193.46838317673786 0.0 0.0
101.24804983605114 1.3876553206008158 32.17371698638343 -189.85170576083885 0.0 0.0
133.867392453528 1.780062207163228 43.354093221331276 -184.30478294273618 0.0 0.0
174.89231386697423 4.271859972229539 58.660138976809904 -174.3560640185558 0.0 0.0
218.38075409254128 4.6774795888795 74.75869961705163 -168.3674560999359 0.0 0.0
261.5571899883298 6.628354385152164 94.06240705642112 -163.36680242888224 0.0 0.0
302.9593239453715 8.307340809086782 116.35209049618591 -158.8102207545186 0.0 0.0
345.2751916723863 9.145762151614676 141.8952785976745 -154.65324758573448 0.0 0.0
389.8010540367951 4.265830011308864 167.95333476038422 -150.36460168050556 0.0 0.0
430.45577688959696 -4.396799435210156 190.36300836711965 -144.69464036181745 0.0 0.0
477.6517769297389 -14.988552833750433 215.4846665352291 -135.35906733112856 0.0 0.0
531.4301921532425 -27.62914731090308 242.60897579203245 -114.97505828602462 0.0 0.0
556.5672461158147 -76.60220325771884 236.24972072366828 -84.18596308010409 0.0 0.0
556.5672461157286 -76.6022032577629 236.24972072358463 84.18596308030698 0.0 0.0
531.4301921538517 -27.629147310047074 242.60897579245284 114.9750582864291 0.0 0.0
477.6517769299889 -14.98855283317856 215.484666535476 135.35906733149187 0.0 0.0
430.4557768893618 -4.396799435451328 190.36300836698544 144.69464036194705 0.0 0.0
389.801054036797 4.265830011266814 167.95333476036194 150.36460168047677 0.0 0.0
345.27519167237494 9.14576215164049 141.8952785976532 154.65324758572814 0.0 0.0
302.95932394504064 8.307340808599875 116.35209049594204 158.810220754584 0.0 0.0
261.5571899881908 6.628354384703634 94.06240705623138 163.36680242896898 0.0 0.0
218.38075409212706 4.677479588125777 74.75869961669306 168.36745609997212 0.0 0.0
174.8923138669192 4.271859972160854 58.66013897676016 174.35606401850788 0.0 0.0
133.86739245362733 1.7800622074168313 43.354093221429366 184.30478294262002 0.0 0.0
101.248049835996 1.387655320611623 32.17371698636529 189.8517057608573 0.0 0.0
73.40891966551922 -0.03683159110008649 22.525814383193993 193.46838317668306 0.0 0.0
53.31994781479053 0.6060757406525727 16.329595254967746 187.79564670052457 0.0 0.0
37.54086392144127 4.4659028912194785 12.594193822197498 176.99586426002992 0.0 0.0
21.0890845340575 11.333285801599727 9.724836530262316 165.00437984899952 0.0 0.0
-0.3067572316087519 16.6194370638043 4.893574243789701 159.43652557930332 0.0 0.0
-26.099844287494783 5.510157000957272 -6.1767535610545385 164.2086874492851 0.0 0.0
-41.723857034271205 -60.21584287831311 -30.579495890446783 174.90331626413618 0.0 0.0
-16.422364876521197 -263.22136848189234 -83.85654975672367 127.12239858385381 0.0 0.0
-21.482464571253985 -219.6658416392867 -72.33809133700447 -115.77175796989812 0.0 0.0
-52.58862213164889 -60.12486157205581 -33.81212596061582 -173.80657776902075 0.0 0.0
-53.23664400408532 3.2494569802552684 -14.995628293544192 -168.75241876148712 0.0 0.0
-43.81161925581872 16.579513677741872 -8.169054039704818 -163.73158820708977 0.0 0.0
-39.13765004006138 13.655637390522255 -7.640318461443261 -167.41798682338822 0.0 0.0
-42.69886184804749 7.891155097213113 -10.43090950549929 -178.02026160543716 0.0 0.0
-54.00504372405065 3.15766870886004 -15.405429122401973 -187.99778411103847 0.0 0.0
-72.99647411623656 0.586907370254262 -22.235361475140525 -193.5031766753878 0.0 0.0
-100.85605223079611 -1.5524565859982769 -32.09977415793101 -189.83104643758634 0.0 0.0
-133.577862946681 -1.878658006107008 -43.29274387293471 -184.29463888310124 0.0 0.0
-174.69942123446845 -4.1506474813322765 -58.54575574913436 -174.34689108621797 0.0 0.0
-218.52963534109517 -4.104963212979623 -74.59387605772295 -168.25491409412703 0.0 0.0
-262.99971227105584 -5.786675270133859 -94.26144003737667 -163.06800602700346 0.0 0.0
-306.27647797856423 -8.534725076312327 -117.81974550471851 -158.52827234224583 0.0 0.0
-347.2121624117265 -13.38049805233446 -144.63399781851052 -155.31728972634235 0.0 0.0
-380.55892115589006 -21.47202640891247 -171.18715010003172 -154.44777124167285 0.0 0.0
-384.4930945579094 -30.048901683962157 -186.14513788022583 -155.47507867498672 0.0 0.0
-335.7856696390287 -44.46544526351427 -180.9529938006309 -159.26509776434295 0.0 0.0
-179.41948756086921 -39.11302911161289 -112.01114993951492 -157.4202340897909 0.0 0.0
37.79091386135981 -159.29220291691288 -51.961548304155336 -112.26906025074553 0.0 0.0
37.79091386161306 -159.2922029164274 -51.961548303984756 112.26906025107763 0.0 0.0
-179.4194875610313 -39.11302911183246 -112.01114993963976 157.42023409022588 0.0 0.0
-335.78566963887306 -44.46544526323157 -180.95299380050693 159.26509776462478 0.0 0.0
-384.4930945574613 -30.04890168341919 -186.14513787987815 155.47507867504487 0.0 0.0
-380.5589211555084 -21.47202640847938 -171.1871500997645 154.44777124163878 0.0 0.0
-347.2121624114866 -13.38049805234828 -144.6339978183898 155.31728972635258 0.0 0.0
-306.2764779780757 -8.534725075748618 -117.81974550436216 158.5282723422784 0.0 0.0
-262.9997122704323 -5.786675269848331 -94.26144003706445 163.06800602712894 0.0 0.0
-218.52963534072524 -4.104963213193862 -74.59387605765662 168.25491409416202 0.0 0.0
-174.699421234231 -4.150647481892797 -58.54575574920683 174.34689108620415 0.0 0.0
-133.57786294625754 -1.8786580060238087 -43.29274387276827 184.29463888299804 0.0 0.0
-100.8560522303211 -1.5524565856105959 -32.09977415766268 189.83104643758705 0.0 0.0
-72.99647411604715 0.5869073702281202 -22.235361475088702 193.50317667534105 0.0 0.0
-54.005043723837154 3.15766870915177 -15.405429122248005 187.99778411091154 0.0 0.0
-42.698861847848335 7.89115509734519 -10.430909505400319 178.02026160518372 0.0 0.0
-39.137650040094286 13.655637390261873 -7.640318461531611 167.41798682317147 0.0 0.0
-43.81161925577931 16.579513677622604 -8.169054039729039 163.73158820691316 0.0 0.0
-53.23664400403061 3.249456980270237 -14.995628293523671 168.75241876136212 0.0 0.0
-52.58862213154772 -60.124861572012165 -33.812125960573276 173.80657776887207 0.0 0.0
-21.48246457121343 -219.6658416390468 -72.33809133692192 115.77175796973077 0.0 0.0
-22.779818079995305 -178.5811604550961 -60.408293560527405 -103.90949439807407 0.0 0.0
-61.605460801196166 -57.2681992249125 -35.661947219940664 -168.8156257436801 0.0 0.0
-78.41347130184178 1.4555184336974896 -23.08642895903718 -169.06598207282218 0.0 0.0
-85.67966110865723 16.16893251529291 -20.847485547561607 -163.9230165857242 0.0 0.0
-98.2159716722538 15.436991692930743 -24.824384030469226 -165.29220044008565 0.0 0.0
-121.92210079338301 10.748638055797446 -33.40010800270476 -172.96431510365286 0.0 0.0
-160.45958645060847 5.187442815760844 -47.094369415194706 -180.2944491458518 0.0 0.0
-217.33907356220175 -0.4936362983682878 -67.66895685646614 -179.7318501074852 0.0 0.0
-295.3488253004491 -4.489993305660716 -95.77322188594773 -174.24973463603024 0.0 0.0
-376.6579904115631 -7.805732700173127 -130.12930094871925 -163.17574721523457 0.0 0.0
-443.18600771344813 -13.972431865238502 -168.11847814890933 -153.64682680839627 0.0 0.0
-492.79080373034105 -17.517267895210445 -202.74096143648063 -147.30873732692282 0.0 0.0
-535.4913609616224 -22.994900075562782 -236.90105166537424 -142.3862516880647 0.0 0.0
-575.2410745297965 -29.201376323427198 -270.1232774566126 -139.02736252825207 0.0 0.0
-613.0244389512934 -37.47088695243833 -302.0295669096695 -137.59060804356363 0.0 0.0
-647.3429192034175 -48.879490617590264 -331.50388893374753 -139.22061853446965 0.0 0.0
-677.2644084493729 -66.02280066656301 -359.1746472852711 -145.557887163613 0.0 0.0
-698.3697032525205 -89.08339479736347 -383.2867389110361 -157.0261148919067 0.0 0.0
-730.0340213535239 -142.5760497583304 -423.37569350011466 -167.01465036633385 0.0 0.0
-695.2665679779766 -195.63841809218687 -425.344396342956 -167.54793214752323 0.0 0.0
-695.2665679780761 -195.6384180923886 -425.3443963430712 167.5479321478058 0.0 0.0
-730.0340213534862 -142.5760497585323 -423.37569350012325 167.01465036671573 0.0 0.0
-698.3697032525465 -89.08339479774196 -383.28673891108303 157.02611489226223 0.0 0.0
-677.2644084490234 -66.02280066635844 -359.1746472850178 145.55788716368323 0.0 0.0
-647.3429192034623 -48.879490617670925 -331.50388893368915 139.22061853442273 0.0 0.0
-613.0244389509312 -37.470886952186824 -302.02956690938163 137.59060804361144 0.0 0.0
-575.241074529469 -29.20137632320659 -270.12327745632473 139.0273625283067 0.0 0.0
-535.4913609613135 -22.994900075463242 -236.90105166511648 142.38625168811387 0.0 0.0
-492.79080373016484 -17.517267895406505 -202.74096143633963 147.30873732696645 0.0 0.0
-443.18600771296724 -13.972431865198878 -168.1184781486251 153.64682680839613 0.0 0.0
-376.6579904108514 -7.805732699982347 -130.1293009483484 163.17574721520847 0.0 0.0
-295.3488252997957 -4.489993305589852 -95.77322188570062 174.24973463608202 0.0 0.0
-217.3390735618012 -0.4936362983987461 -67.66895685634357 179.731850107492 0.0 0.0
-160.45958645035896 5.187442815761595 -47.094369415115345 180.29444914580625 0.0 0.0
-121.92210079291459 10.748638056331254 -33.40010800240596 172.9643151033886 0.0 0.0
-98.21597167195544 15.43699169331086 -24.824384030266447 165.29220043986902 0.0 0.0
-85.67966110848332 16.168932515327604 -20.847485547499602 163.9230165855752 0.0 0.0
-78.41347130177915 1.4555184336912594 -23.08642895902073 169.06598207267558 0.0 0.0
-61.60546080115966 -57.26819922494888 -35.661947219940785 168.81562574354962 0.0 0.0
-22.77981807996688 -178.581160454923 -60.40829356046696 103.90949439791396 0.0 0.0
-23.21524926744538 -140.67820074419512 -49.16803500349215 -91.93696142455293 0.0 0.0
-69.441267579889 -52.08862734153483 -36.458968476427145 -160.02289524007122 0.0 0.0
-101.91964629106712 0.1739067182531535 -30.52077173122573 -165.15160083454703 0.0 0.0
-125.875951232996 15.389715089386758 -33.135099258877794 -159.89084832576708 0.0 0.0
-155.8004278773519 16.353665747956928 -41.82861332548902 -158.57342980341573 0.0 0.0
-199.57055055186385 12.680598042164066 -56.131636280757036 -162.4123155690565 0.0 0.0
-263.5794851747995 5.502441142102941 -78.90499639381225 -163.4150101067751 0.0 0.0
-352.86809897722475 -1.7892075772670744 -113.30141578594998 -158.02793197086518 0.0 0.0
-439.9531208303764 -8.151598571508845 -156.53067504920364 -147.52145233993963 0.0 0.0
-508.72029181519304 -19.042698244740357 -204.886694034294 -137.85795667619865 0.0 0.0
-562.6864801782843 -26.855550419859433 -247.90630402348947 -133.34197241629033 0.0 0.0
-606.6997983734668 -34.91584990394708 -286.0130979625717 -128.6366108816911 0.0 0.0
-647.9464269671751 -43.12553096320189 -320.6632808399721 -124.87719762044786 0.0 0.0
-688.1747214665357 -51.877283242328865 -352.51413151171397 -122.16809524218863 0.0 0.0
-728.7597537434239 -62.719203444568706 -383.16302918950583 -121.15588674085448 0.0 0.0
-768.5576228650626 -77.17970954386595 -413.25974294966977 -123.1187813544481 0.0 0.0
-807.0308720666947 -97.3016567264129 -444.04175484898485 -129.739254271891 0.0 0.0
-850.9613944120617 -133.59402634579942 -484.2593922343822 -139.50145783864434 0.0 0.0
-897.8572625210725 -188.14634445331185 -533.8430634397714 -148.9758506373161 0.0 0.0
-950.4859774365733 -285.55296942248833 -601.7539805291894 -155.50158782876383 0.0 0.0
-950.4859774369254 -285.5529694230887 -601.7539805295476 155.50158782904907 0.0 0.0
-897.8572625204183 -188.1463444527597 -533.8430634394063 148.97585063750793 0.0 0.0
-850.9613944117907 -133.59402634564063 -484.2593922342086 139.50145783883573 0.0 0.0
-807.0308720666726 -97.30165672657394 -444.04175484895654 129.73925427208724 0.0 0.0
-768.5576228648683 -77.17970954378885 -413.25974294953113 123.11878135450652 0.0 0.0
-728.7597537434336 -62.71920344474763 -383.16302918953977 121.15588674091873 0.0 0.0
-688.1747214668285 -51.877283242747225 -352.51413151188757 122.16809524219298 0.0 0.0
-647.9464269669604 -43.12553096318232 -320.66328083981506 124.87719762051306 0.0 0.0
-606.6997983729565 -34.91584990367875 -286.0130979622128 128.63661088175306 0.0 0.0
-562.6864801777313 -26.855550419497227 -247.90630402304453 133.34197241625307 0.0 0.0
-508.7202918152269 -19.04269824530655 -204.8866940342873 137.85795667623776 0.0 0.0
-439.953120829928 -8.15159857160716 -156.5306750489708 147.5214523400319 0.0 0.0
-352.8680989763434 -1.7892075766495479 -113.30141578546775 158.02793197086783 0.0 0.0
-263.5794851742865 5.5024411422890385 -78.9049963935989 163.4150101066941 0.0 0.0
-199.57055055171367 12.680598041792184 -56.13163628082329 162.41231556889147 0.0 0.0
-155.80042787722644 16.353665747759948 -41.82861332551464 158.5734298032746 0.0 0.0
-125.87595123279108 15.389715089420163 -33.135099258807315 159.89084832557776 0.0 0.0
-101.91964629100852 0.17390671821920156 -30.520771731219146 165.15160083433005 0.0 0.0
-69.44126757983456 -52.08862734153589 -36.45896847641114 160.02289523989828 0.0 0.0
-23.215249267392405 -140.6782007440573 -49.1680350034349 91.93696142441416 0.0 0.0
-23.643076185994474 -106.38857653009127 -39.00949581482572 -79.81107074252736 0.0 0.0
-76.75531434725434 -45.241469239548195 -36.599035076040764 -147.8098638393599 0.0 0.0
-123.99406926244968 -0.5243727869760244 -37.35274068239099 -157.05258491610732 0.0 0.0
-164.5096444215717 14.048043728681568 -45.127263174375734 -151.66903164143326 0.0 0.0
-211.38021918350765 16.695294218591005 -58.37053409896252 -147.41823124718792 0.0 0.0
-273.8351750519296 12.414739529201897 -78.89845373205928 -145.84181567455272 0.0 0.0
-360.0476473036947 6.273476090441827 -110.31388321630659 -141.55239346294266 0.0 0.0
-451.98538364586716 -3.986738765826109 -157.27597211154682 -131.16451269277812 0.0 0.0
-528.6397945641838 -16.475267502056877 -211.69386217574538 -122.85208660597016 0.0 0.0
-588.2937297426406 -29.31354766656598 -263.08740856038105 -118.62630055424056 0.0 0.0
-636.7321816857641 -40.26277608086711 -306.0902754983607 -115.55319069892573 0.0 0.0
-682.0689389339107 -51.92098025301698 -344.58745828282554 -112.13258854360345 0.0 0.0
-724.9943939943012 -62.82022875389817 -378.44465373806145 -108.81615255443317 0.0 0.0
-767.5392722338704 -74.43397877637425 -409.8546925273332 -106.18585736725389 0.0 0.0
-810.639489947299 -87.40156422496807 -440.3550110710462 -105.12435698734569 0.0 0.0
-855.6345893972857 -105.01357652043642 -473.02196234923076 -106.96169657159763 0.0 0.0
-904.4413870683933 -132.0915053083546 -511.35212616147453 -112.42003229107948 0.0 0.0
-961.7292849863206 -176.93987002922208 -562.2745379922123 -120.97402114020552 0.0 0.0
-1027.671748536852 -245.4968616597556 -628.471655174144 -129.35420826827215 0.0 0.0
-1099.433238301076 -353.8675142220401 -713.545890656859 -137.8604881582546 0.0 0.0
-1099.433238300891 -353.8675142219901 -713.5458906567976 137.86048815846843 0.0 0.0
-1027.671748536342 -245.49686165932945 -628.4716551737872 129.3542082684499 0.0 0.0
-961.7292849857121 -176.93987002872782 -562.2745379917644 120.97402114038107 0.0 0.0
-904.4413870676932 -132.09150530769386 -511.3521261609244 112.42003229110526 0.0 0.0
-855.6345893966577 -105.01357651986913 -473.0219623487121 106.96169657159759 0.0 0.0
-810.6394899467023 -87.40156422445092 -440.35501107055677 105.12435698738766 0.0 0.0
-767.5392722335906 -74.43397877621773 -409.85469252710305 106.18585736730343 0.0 0.0
-724.9943939938171 -62.8202287535483 -378.4446537376971 108.81615255443822 0.0 0.0
-682.0689389337433 -51.920980253086924 -344.5874582826659 112.13258854368823 0.0 0.0
-636.7321816856737 -40.26277608100783 -306.0902754982133 115.55319069890177 0.0 0.0
-588.2937297423399 -29.31354766654254 -263.0874085600838 118.62630055418582 0.0 0.0
-528.639794563622 -16.47526750181973 -211.69386217530254 122.85208660596767 0.0 0.0
-451.98538364554724 -3.9867387660223805 -157.27597211136157 131.1645126928606 0.0 0.0
-360.0476473030708 6.273476090629272 -110.31388321602499 141.55239346286405 0.0 0.0
-273.83517505154066 12.414739529189482 -78.89845373194314 145.84181567437975 0.0 0.0
-211.3802191832554 16.69529421858273 -58.370534098890765 147.4182312470418 0.0 0.0
-164.50964442137956 14.048043728685158 -45.12726317431817 151.6690316412399 0.0 0.0
-123.99406926232118 -0.524372786949153 -37.35274068234514 157.05258491594225 0.0 0.0
-76.75531434715266 -45.24146923947107 -36.59903507598712 147.8098638392681 0.0 0.0
-23.643076185963317 -106.38857652999366 -39.00949581478709 79.81107074245477 0.0 0.0
-24.275125815655848 -76.11335094509721 -30.116543028225912 -67.38047156187439 0.0 0.0
-83.83575759067826 -37.31419915177182 -36.344987022735026 -132.56937679146247 0.0 0.0
-144.90767361536027 -0.7434741110625307 -43.69534431792684 -144.91131669228537 0.0 0.0
-201.61031887452006 12.416744265675522 -56.73852679911809 -139.28905004946452 0.0 0.0
-265.11268922817567 15.329710531974433 -74.8301875957941 -131.97420604816617 0.0 0.0
-343.51525086745585 12.888269202734365 -100.6975606601616 -125.3972498942921 0.0 0.0
-438.5147269122346 5.388043312958027 -142.25313914114162 -115.45882921448785 0.0 0.0
-523.5014408762316 -9.393523808145579 -199.83386495632783 -106.08149851574117 0.0 0.0
-589.6634049313207 -24.25860939303067 -257.63198828422514 -102.65219937963434 0.0 0.0
-644.2602565254582 -38.63145731133049 -307.70758694373774 -100.98026219944579 0.0 0.0
-693.7175703205994 -53.33302645964217 -350.9716374066196 -98.76381320378206 0.0 0.0
-740.8786642765374 -68.1949777796502 -389.3708908115416 -95.91906778410133 0.0 0.0
-786.6071858556585 -82.53012599861353 -423.9235285318123 -93.0157606529824 0.0 0.0
-832.1400611519434 -96.72506049180795 -456.28325255492047 -90.5748778398152 0.0 0.0
-878.6804412484025 -112.11761664351046 -488.5496578206034 -89.39201547888834 0.0 0.0
-928.3379543252938 -133.40470247856564 -524.700640113197 -90.38434513069237 0.0 0.0
-986.9234402091411 -167.18577322970557 -570.9040241931219 -94.51496309485628 0.0 0.0
-1057.4991598042845 -222.37441962663033 -633.4779698968143 -101.69732224484581 0.0 0.0
-1137.6812484532568 -303.61632410128794 -713.5019407998853 -110.39433278757777 0.0 0.0
-1210.1095691556002 -412.7116248861543 -800.7921669364232 -124.89482999268431 0.0 0.0
-1210.1095691557475 -412.7116248864228 -800.7921669365421 124.89482999288441 0.0 0.0
-1137.6812484532647 -303.6163241014128 -713.5019407999002 110.39433278778236 0.0 0.0
-1057.4991598035667 -222.37441962599004 -633.4779698962907 101.69732224499171 0.0 0.0
-986.9234402085622 -167.18577322916616 -570.9040241926584 94.51496309486811 0.0 0.0
-928.3379543253543 -133.40470247874413 -524.7006401132129 90.38434513078998 0.0 0.0
-878.6804412483459 -112.1176166435693 -488.54965782056286 89.39201547895863 0.0 0.0
-832.1400611516467 -96.72506049161896 -456.2832525546861 90.57487783982484 0.0 0.0
-786.6071858547765 -82.53012599779169 -423.92352853115426 93.01576065289626 0.0 0.0
-740.8786642759253 -68.19497777917415 -389.37089081106444 95.91906778410738 0.0 0.0
-693.7175703203283 -53.33302645954876 -350.971637406362 98.76381320370186 0.0 0.0
-644.2602565250561 -38.631457311133765 -307.7075869433826 100.98026219940925 0.0 0.0
-589.6634049306649 -24.258609392653383 -257.63198828372083 102.65219937964474 0.0 0.0
-523.501440875805 -9.393523808043158 -199.8338649559757 106.08149851574137 0.0 0.0
-438.5147269116808 5.388043313062631 -142.25313914083205 115.45882921449225 0.0 0.0
-343.5152508670211 12.888269202635428 -100.69756066004993 125.39724989415761 0.0 0.0
-265.11268922798473 15.329710531696012 -74.83018759582453 131.97420604805396 0.0 0.0
-201.61031887435567 12.416744265592323 -56.7385267990952 139.28905004929672 0.0 0.0
-144.90767361519693 -0.7434741110657299 -43.69534431787879 144.91131669210387 0.0 0.0
-83.83575759061821 -37.314199151770474 -36.34498702271661 132.5693767912938 0.0 0.0
-24.27512581564377 -76.11335094502988 -30.11654302820209 67.38047156177404 0.0 0.0
-25.02844730169206 -50.23707771093702 -22.579657503788724 -54.502355695576696 0.0 0.0
-90.60088853206518 -28.831909629603462 -35.82983944850059 -114.62631653351536 0.0 0.0
-164.83892762236133 -0.5408801011044169 -49.613942317039715 -128.8953431395559 0.0 0.0
-237.3141206640553 10.111599550110654 -68.15043620059413 -122.78173904712466 0.0 0.0
-315.4377668741709 13.440885394249731 -90.66114598400289 -112.45647788544133 0.0 0.0
-408.1180705122706 13.15804364698562 -122.66214131963477 -101.93720473888371 0.0 0.0
-500.7968796322831 2.1959710403459134 -174.77711312142506 -89.50895082844842 0.0 0.0
-574.4310563639399 -15.489284981983484 -238.0202099137177 -84.4463256802402 0.0 0.0
-634.5003174046634 -30.580206047363284 -294.1472623374409 -84.27088907836607 0.0 0.0
-689.2666745829674 -47.83035044169645 -343.6828714673105 -83.54659300874505 0.0 0.0
-740.8635359712148 -66.02456098478602 -387.29207140674737 -81.97359764049642 0.0 0.0
-790.5519995023585 -84.13282528710283 -426.4135162760732 -79.59504056196457 0.0 0.0
-839.8207356972445 -101.82503732867355 -462.8003323473221 -77.24135186925761 0.0 0.0
-888.4475612735389 -119.35240470929502 -497.37957629253583 -75.08506346008106 0.0 0.0
-938.0526859198178 -137.40167004325502 -531.9395529665001 -73.67354139274242 0.0 0.0
-993.1830468649985 -161.91902448492343 -572.1474881715478 -73.64977636654956 0.0 0.0
-1059.1267941967164 -202.06734204175314 -625.060313786234 -75.97292128817563 0.0 0.0
-1141.42158043346 -267.51145083523284 -698.4734759052776 -82.1421707941603 0.0 0.0
-1231.9164803664441 -358.3350127191226 -788.7724845598971 -92.8871313322189 0.0 0.0
-1306.0140105035578 -469.44097148959355 -879.0278639764739 -115.40161429132309 0.0 0.0
-1306.0140105039477 -469.44097149004403 -879.0278639767658 115.40161429144888 0.0 0.0
-1231.916480366411 -358.33501271916 -788.7724845598827 92.88713133237485 0.0 0.0
-1141.4215804335308 -267.5114508353882 -698.4734759053497 82.14217079431995 0.0 0.0
-1059.1267941964138 -202.06734204151994 -625.060313786001 75.97292128823936 0.0 0.0
-993.1830468642047 -161.9190244841938 -572.1474881709125 73.6497763665777 0.0 0.0
-938.0526859193026 -137.4016700428213 -531.9395529660461 73.67354139276367 0.0 0.0
-888.4475612729748 -119.35240470884244 -497.3795762920514 75.08506346013209 0.0 0.0
-839.8207356969659 -101.82503732854376 -462.8003323470605 77.2413518693174 0.0 0.0
-790.5519995017457 -84.13282528665263 -426.41351627561727 79.59504056200419 0.0 0.0
-740.8635359707814 -66.02456098452058 -387.2920714063587 81.97359764045135 0.0 0.0
-689.266674582105 -47.83035044102645 -343.6828714666567 83.54659300873561 0.0 0.0
-634.500317404276 -30.58020604723844 -294.14726233707574 84.27088907835666 0.0 0.0
-574.4310563635394 -15.489284981849249 -238.02020991334663 84.44632568020481 0.0 0.0
-500.79687963167675 2.1959710406163726 -174.7771131209887 89.5089508284422 0.0 0.0
-408.1180705116334 13.15804364727315 -122.66214131931706 101.93720473879955 0.0 0.0
-315.4377668737458 13.440885394400128 -90.66114598383768 112.45647788534575 0.0 0.0
-237.31412066381986 10.111599550081944 -68.15043620053372 122.78173904700748 0.0 0.0
-164.83892762212074 -0.5408801009220068 -49.61394231691282 128.8953431394769 0.0 0.0
-90.60088853196858 -28.831909629491904 -35.82983944843814 114.62631653341714 0.0 0.0
-25.02844730167318 -50.23707771091787 -22.579657503777316 54.50235569553186 0.0 0.0
-25.586396838183553 -29.133299358754222 -16.41590885908133 -41.12645382372676 0.0 0.0
-96.58765369655895 -20.257033439089117 -35.05340614069442 -94.250987644482 0.0 0.0
-183.81981978140527 -0.024507122077928933 -55.15329807104495 -108.99075862456812 0.0 0.0
-272.207215482373 6.910016928116923 -79.57967440423495 -102.41191424226353 0.0 0.0
-364.117274920197 12.203265346036764 -105.77779688350736 -90.14187948573442 0.0 0.0
-462.13609366973884 12.517477312547314 -145.15207932757673 -76.38913214508865 0.0 0.0
-543.9162836517994 -3.767345459312825 -206.6743134724724 -65.88991910571586 0.0 0.0
-611.8083764089106 -19.26653015843611 -269.0238969042148 -65.4780780349607 0.0 0.0
-671.4367957336125 -36.66713370881756 -324.35781089574107 -66.07069805117838 0.0 0.0
-727.2425094556875 -56.94055459889071 -373.5525905595763 -65.98529323399393 0.0 0.0
-781.1256082183754 -78.21415770028203 -417.7278040555073 -64.88602095892361 0.0 0.0
-834.1773430419364 -99.72936734803085 -458.65111836484186 -63.05360030626219 0.0 0.0
-886.7247876286583 -120.889279966474 -497.36499502987795 -61.20802457284241 0.0 0.0
-940.0033058293435 -142.2913515888503 -535.6548025950169 -59.59882086732911 0.0 0.0
-993.5905203208516 -163.92757845481805 -573.7125371504205 -58.07532218434192 0.0 0.0
-1050.9450470187783 -190.96528045451004 -616.1273948025841 -56.76743660000017 0.0 0.0
-1122.6457352885664 -235.254344061751 -673.9579581433022 -57.16491003885751 0.0 0.0
-1214.4297143682847 -308.6510745084204 -755.9616209727421 -62.5839826648816 0.0 0.0
-1316.3241503689328 -410.04826048426855 -857.3686473382078 -76.37816843425871 0.0 0.0
-1396.9689060339228 -528.1647682561792 -955.3433166451515 -107.5371941821124 0.0 0.0
-1396.968906033435 -528.16476825572 -955.3433166448513 107.53719418218844 0.0 0.0
-1316.3241503685706 -410.04826048394955 -857.3686473379482 76.3781684343744 0.0 0.0
-1214.4297143678482 -308.6510745080484 -755.9616209723505 62.58398266500573 0.0 0.0
-1122.6457352882812 -235.25434406152942 -673.957958143035 57.16491003889463 0.0 0.0
-1050.945047018419 -190.9652804542115 -616.1273948022608 56.767436600022684 0.0 0.0
-993.5905203200651 -163.92757845410034 -573.7125371498165 58.0753221843354 0.0 0.0
-940.0033058285665 -142.29135158815845 -535.6548025944188 59.59882086732407 0.0 0.0
-886.7247876280635 -120.88927996599223 -497.3649950294026 61.20802457282516 0.0 0.0
-834.1773430415903 -99.72936734781759 -458.65111836454025 63.053600306182574 0.0 0.0
-781.125608218018 -78.21415770008744 -417.7278040551833 64.8860209588765 0.0 0.0
-727.2425094552016 -56.94055459860753 -373.5525905591921 65.98529323397253 0.0 0.0
-671.4367957330359 -36.66713370842752 -324.3578108952639 66.07069805111894 0.0 0.0
-611.8083764085206 -19.26653015831829 -269.02389690384 65.47807803495404 0.0 0.0
-543.9162836513106 -3.767345459146691 -206.67431347206386 65.88991910570161 0.0 0.0
-462.13609366920986 12.517477312703532 -145.15207932728333 76.38913214507183 0.0 0.0
-364.1172749197227 12.203265346159988 -105.77779688333811 90.14187948566516 0.0 0.0
-272.2072154821714 6.910016927988603 -79.57967440421457 102.41191424217793 0.0 0.0
-183.81981978126424 -0.02450712210288719 -55.15329807101013 108.99075862446779 0.0 0.0
-96.58765369651225 -20.25703343913315 -35.05340614069361 94.25098764440301 0.0 0.0
-25.586396838169943 -29.133299358749152 -16.415908859075728 41.12645382371609 0.0 0.0
-25.318180621572317 -13.153513535151621 -11.54150824701718 -27.403645344778248 0.0 0.0
-100.85354567649233 -12.001394404926177 -33.856482024425546 -71.60974115418955 0.0 0.0
-201.89347861002923 0.5062764489695173 -60.41616064831791 -85.02042677627006 0.0 0.0
-306.65630107778634 3.2043024483396785 -91.02506311599257 -78.27505035937568 0.0 0.0
-410.7403754145946 12.644308547516454 -120.29577289539654 -65.33854909873942 0.0 0.0
-505.55427630909173 8.410877837520708 -169.84663078007077 -51.43511087173525 0.0 0.0
-579.0829271858486 -8.28339605909392 -235.41112696581158 -45.75352718997356 0.0 0.0
-642.4305857052093 -22.607537162612058 -294.89134669047843 -46.61788285626025 0.0 0.0
-702.2174009900502 -42.746851877125465 -349.5666208031913 -47.841103150333716 0.0 0.0
-759.9006384692489 -65.80465273300014 -398.86172314197984 -48.10488634679372 0.0 0.0
-816.6120004333213 -90.07359960889559 -444.2308075348394 -47.438286197185235 0.0 0.0
-872.7428746168307 -114.900910894391 -487.23720115823505 -46.14491392726474 0.0 0.0
-929.6061252200925 -139.63568983272668 -529.2486990615272 -44.89634368595583 0.0 0.0
-986.942201817531 -165.4109194416176 -571.400224405038 -43.7757440343372 0.0 0.0
-1045.4391465278845 -192.04119904973086 -614.2298704359181 -42.466467253915596 0.0 0.0
-1106.8275428361858 -222.41541789405494 -660.2418436921953 -40.394805174533815 0.0 0.0
-1176.3308628284726 -264.11677116397715 -715.7780699576178 -38.561071471992676 0.0 0.0
-1274.3349915828321 -342.3797089321412 -803.1793465480868 -42.65798076919219 0.0 0.0
-1392.9012086780854 -458.50836862232353 -920.1554585430704 -59.68604012377077 0.0 0.0
-1491.5911531853926 -593.374978861547 -1036.4324069065328 -99.8228067771307 0.0 0.0
-1491.5911531848799 -593.3749788610496 -1036.4324069061279 99.82280677718774 0.0 0.0
-1392.9012086780745 -458.5083686223686 -920.1554585430363 59.68604012391606 0.0 0.0
-1274.3349915823617 -342.3797089317112 -803.1793465477379 42.6579807692459 0.0 0.0
-1176.330862828423 -264.1167711639926 -715.778069957549 38.56107147207756 0.0 0.0
-1106.8275428359111 -222.4154178938463 -660.2418436919504 40.3948051745446 0.0 0.0
-1045.439146527409 -192.04119904933614 -614.2298704354947 42.46646725392874 0.0 0.0
-986.9422018171218 -165.41091944129096 -571.4002244047167 43.775744034272044 0.0 0.0
-929.6061252199046 -139.63568983267334 -529.2486990613204 44.89634368598868 0.0 0.0
-872.742874616274 -114.9009108939962 -487.23720115774177 46.14491392728479 0.0 0.0
-816.6120004332663 -90.07359960902825 -444.2308075347558 47.438286197163954 0.0 0.0
-759.9006384690674 -65.80465273302664 -398.86172314179987 48.1048863467591 0.0 0.0
-702.2174009897792 -42.746851877079436 -349.56662080292983 47.84110315033898 0.0 0.0
-642.4305857046922 -22.607537162315708 -294.89134669002596 46.61788285620712 0.0 0.0
-579.08292718535 -8.28339605889817 -235.41112696537877 45.75352718999365 0.0 0.0
-505.55427630885094 8.410877837370476 -169.8466307798819 51.435110871732775 0.0 0.0
-410.7403754143443 12.644308547210478 -120.29577289539472 65.33854909867253 0.0 0.0
-306.656301077547 3.2043024483125597 -91.02506311593065 78.27505035929124 0.0 0.0
-201.8934786098556 0.5062764489280145 -60.41616064827828 85.02042677617399 0.0 0.0
-100.85354567642776 -12.001394404974747 -33.85648202442074 71.60974115407853 0.0 0.0
-25.318180621562245 -13.15351353513701 -11.541508247009773 27.403645344727003 0.0 0.0
-23.02585331965769 -2.5758926248398133 -7.6805237833492495 -13.84631009607814 0.0 0.0
-101.81261256039583 -4.574081605539336 -31.916008249780546 -46.70177440423247 0.0 0.0
-219.0968848251563 0.7630696927374938 -65.50014453972562 -56.41181578757404 0.0 0.0
-341.7787593838638 -0.4168119018254073 -102.61930749351453 -50.757260439964696 0.0 0.0
-452.21040907486133 15.024767651824197 -134.7036410081584 -39.78789349463993 0.0 0.0
-535.8652118977068 0.7382870983781693 -195.6636297342381 -28.394228526808142 0.0 0.0
-605.9757776133641 -10.165951505595778 -258.7041397209696 -26.973653858108733 0.0 0.0
-667.7257454550407 -26.55245635965474 -316.9989932281659 -28.13993937087653 0.0 0.0
-728.0831869585594 -48.6184811634758 -370.64478421376555 -29.31148380125678 0.0 0.0
-788.0289805160717 -74.2984292475192 -420.4646083933051 -29.788880564924096 0.0 0.0
-847.8686167684318 -101.7218105891232 -467.6894700037975 -29.528500656247726 0.0 0.0
-907.985347658894 -129.58438366555265 -513.4138062663479 -28.856397445975116 0.0 0.0
-968.3370081796061 -158.46279387948388 -558.809219984912 -28.139809087040327 0.0 0.0
-1030.5152590142561 -188.38251781373737 -605.2096970105199 -27.55681737710691 0.0 0.0
-1095.083708232932 -220.73563739310595 -653.8288305238312 -26.672641207434964 0.0 0.0
-1161.491880140761 -256.51826628531444 -704.9628872233193 -24.742374471234253 0.0 0.0
-1229.2181036628847 -296.93631078284136 -759.0893404580265 -21.514835803241866 0.0 0.0
-1307.115721484391 -353.9418428712285 -825.9817365951869 -22.04783772626022 0.0 0.0
-1461.5586892150295 -502.19173363049686 -976.2593573470963 -40.56305422010738 0.0 0.0
-1600.7437986343252 -673.9650610346073 -1132.2588651513815 -90.55319037759226 0.0 0.0
-1600.7437986341029 -673.9650610344211 -1132.2588651512342 90.55319037765511 0.0 0.0
-1461.5586892147471 -502.1917336302362 -976.2593573468445 40.56305422017603 0.0 0.0
-1307.1157214839916 -353.94184287087563 -825.9817365947962 22.04783772632789 0.0 0.0
-1229.2181036627107 -296.9363107827203 -759.0893404577668 21.514835803252108 0.0 0.0
-1161.4918801405374 -256.5182662851561 -704.962887223045 24.742374471250272 0.0 0.0
-1095.0837082324733 -220.73563739273266 -653.8288305233866 26.67264120750366 0.0 0.0
-1030.5152590137345 -188.38251781331167 -605.2096970100356 27.556817377097197 0.0 0.0
-968.3370081789388 -158.46279387893887 -558.8092199843986 28.139809087069075 0.0 0.0
-907.9853476582998 -129.58438366511282 -513.4138062659114 28.856397446002028 0.0 0.0
-847.8686167681868 -101.72181058906187 -467.68947000352534 29.52850065621653 0.0 0.0
-788.0289805156945 -74.2984292473361 -420.46460839295185 29.788880564896868 0.0 0.0
-728.0831869582355 -48.6184811633679 -370.64478421343034 29.31148380125753 0.0 0.0
-667.7257454547179 -26.552456359572208 -316.99899322781783 28.139939370811142 0.0 0.0
-605.9757776132489 -10.165951505808616 -258.70413972073806 26.973653858148737 0.0 0.0
-535.8652118974692 0.7382870982586347 -195.66362973400578 28.394228526861568 0.0 0.0
-452.21040907449526 15.024767651797386 -134.7036410080108 39.78789349466051 0.0 0.0
-341.77875938363337 -0.4168119019363252 -102.61930749348231 50.757260439875765 0.0 0.0
-219.09688482500337 0.7630696926139287 -65.50014453971683 56.411815787495044 0.0 0.0
-101.81261256031149 -4.57408160552759 -31.91600824975172 46.70177440418763 0.0 0.0
-23.025853319590503 -2.575892624770223 -7.6805237833082165 13.846310096080275 0.0 0.0
-16.376486351837112 2.443063423991431 -4.180026878353703 -1.6340610715626944 0.0 0.0
-96.88270381554862 1.3886891182481875 -28.64820440919013 -19.10220402735218 0.0 0.0
-235.91212065285254 -0.08181626777883544 -70.7981810761894 -22.085521133790714 0.0 0.0
-378.9554413943401 -0.4639132394458718 -113.74303133580891 -20.451902678347384 0.0 0.0
-488.9763453009781 13.708184788577043 -152.1886997275459 -14.15451509654294 0.0 0.0
-565.1252417665954 -4.080823075518676 -219.37517448620312 -8.65444505636102 0.0 0.0
-627.2961739449624 -12.357466182384613 -278.58663264542946 -8.846562876495348 0.0 0.0
-688.5918265388923 -30.432386458593946 -335.452498038408 -9.612848572220209 0.0 0.0
-750.1937307194288 -54.484262219550835 -388.63818987073114 -10.462422880309607 0.0 0.0
-812.717353653115 -82.63280309619505 -439.4408024204755 -10.969911063147405 0.0 0.0
-875.730626018681 -112.60723078617147 -488.53078429440757 -11.13510740482764 0.0 0.0
-939.2345896186096 -144.57407184823757 -537.4325628812245 -11.066941129072053 0.0 0.0
-1004.0465132315926 -176.98108362659804 -586.5309640283773 -10.97826776521186 0.0 0.0
-1071.1443870418627 -211.12203702524246 -637.3469156722008 -10.858577291327297 0.0 0.0
-1141.5198104297083 -249.1362236991481 -691.6010621474821 -10.456342604963464 0.0 0.0
-1214.1967168017893 -291.4916877930202 -749.0934755003111 -9.401958136175919 0.0 0.0
-1284.84672559215 -335.7986661131287 -806.5505718311248 -7.112202898683138 0.0 0.0
-1347.9831867993712 -378.5858104196388 -859.4974678914136 -3.9715143199069756 0.0 0.0
-1425.5764985110188 -445.40967338731735 -930.2621527130754 -14.804892065227532 0.0 0.0
-1789.1422290246799 -831.0965725490333 -1305.315465016273 -72.43953708718836 0.0 0.0
-1789.1422290248074 -831.0965725491694 -1305.3154650163606 72.43953708721705 0.0 0.0
-1425.576498511406 -445.40967338773567 -930.2621527132983 14.804892065276988 0.0 0.0
-1347.983186799596 -378.5858104199091 -859.4974678914812 3.9715143199422362 0.0 0.0
-1284.8467255921614 -335.798666113194 -806.5505718310687 7.11220289862621 0.0 0.0
-1214.1967168014476 -291.4916877927437 -749.0934755000106 9.401958136163795 0.0 0.0
-1141.5198104292815 -249.13622369880312 -691.6010621471243 10.45634260502517 0.0 0.0
-1071.1443870413436 -211.12203702482313 -637.3469156717532 10.858577291333669 0.0 0.0
-1004.0465132308663 -176.98108362599186 -586.5309640277545 10.978267765219286 0.0 0.0
-939.2345896177266 -144.57407184750656 -537.4325628805317 11.06694112911543 0.0 0.0
-875.7306260183368 -112.60723078600705 -488.53078429408833 11.135107404774892 0.0 0.0
-812.7173536527343 -82.63280309601372 -439.44080242014184 10.969911063174894 0.0 0.0
-750.1937307191133 -54.484262219444076 -388.638189870436 10.462422880304779 0.0 0.0
-688.5918265383584 -30.432386458285706 -335.4524980379636 9.612848572180237 0.0 0.0
-627.2961739443988 -12.357466182069166 -278.5866326449599 8.846562876446697 0.0 0.0
-565.1252417662994 -4.080823075504576 -219.37517448591393 8.654445056404455 0.0 0.0
-488.9763453006555 13.708184788560239 -152.18869972736272 14.154515096544921 0.0 0.0
-378.9554413941047 -0.4639132396049126 -113.7430313357902 20.451902678367475 0.0 0.0
-235.9121206526114 -0.08181626774871553 -70.79818107610804 22.085521133803525 0.0 0.0
-96.88270381549378 1.3886891181466403 -28.648204409204137 19.1022040273778 0.0 0.0
-16.37648635181486 2.443063423930815 -4.180026878365212 1.6340610716182056 0.0 0.0
SCALARS Strain float 6
LOOKUP_TABLE default
0.0076732896257874295 -0.008773586187078977 0.0 -0.004655164331659578 0.0 0.0
0.001820696301527822 -0.0007658231920545377 0.0 0.000913918532843172 0.0 0.0
0.0016696486309263434 -0.0007157569202739245 0.0 -9.787326761168114e-05 0.0 0.0
0.001960604484838909 -0.0008510417124178438 0.0 -0.0001492247101459454 0.0 0.0
0.0025900208692299807 -0.0012907301773715796 0.0 -0.00017817391620239542 0.0 0.0
0.0038281450795549206 -0.002256792636057603 0.0 -0.00022741056200331622 0.0 0.0
0.005586972140189463 -0.003753802613253865 0.0 -0.0003193202584087784 0.0 0.0
0.007895117573436621 -0.005787443075801257 0.0 -0.0004413614513159442 0.0 0.0
0.010785723912730107 -0.008399183158551038 0.0 -0.0005921330804770641 0.0 0.0
0.014319340272753807 -0.011650050232042464 0.0 -0.0007630233821871862 0.0 0.0
0.018655380544476224 -0.015702153974294975 0.0 -0.0009374866151347361 0.0 0.0
0.024055407923575828 -0.020812679201837936 0.0 -0.001145293820399254 0.0 0.0
0.03078701038965502 -0.027250377808366144 0.0 -0.0013977139214089024 0.0 0.0
0.039053575081959016 -0.035213919240430824 0.0 -0.0016951577948365465 0.0 0.0
0.048868791015102477 -0.04470940969755466 0.0 -0.0020498648804132685 0.0 0.0
0.0598883279712755 -0.05539206937682439 0.0 -0.00240613156672867 0.0 0.0
0.0713379305527838 -0.06649846430442441 0.0 -0.0026133290343924587 0.0 0.0
0.08207807365809709 -0.07691138732275782 0.0 -0.002453628225002974 0.0 0.0
0.09078273860943897 -0.08533036040410447 0.0 -0.0018827626846279477 0.0 0.0
0.09598871168429875 -0.09025774446630308 0.0 -0.0014403833092705987 0.0 0.0
0.09598871168429593 -0.09025774446629997 0.0 0.0014403833092739293 0.0 0.0
0.09078273860942822 -0.08533036040409447 0.0 0.0018827626846364964 0.0 0.0
0.08207807365807902 -0.07691138732274139 0.0 0.002453628225008553 0.0 0.0
0.07133793055276041 -0.06649846430440443 0.0 0.0026133290343969273 0.0 0.0
0.05988832797124992 -0.05539206937680352 0.0 0.0024061315667248673 0.0 0.0
0.048868791015077045 -0.04470940969753112 0.0 0.0020498648804131436 0.0 0.0
0.03905357508193283 -0.03521391924040618 0.0 0.001695157794838087 0.0 0.0
0.030787010389627403 -0.0272503778083395 0.0 0.0013977139214089163 0.0 0.0
0.02405540792354806 -0.0208126792018124 0.0 0.0011452938203963536 0.0 0.0
0.018655380544450803 -0.015702153974273214 0.0 0.0009374866151346528 0.0 0.0
0.014319340272732212 -0.01165005023202148 0.0 0.0007630233821844246 0.0 0.0
0.010785723912712403 -0.008399183158535384 0.0 0.0005921330804760649 0.0 0.0
0.007895117573422428 -0.005787443075788379 0.0 0.00044136145131440374 0.0 0.0
0.005586972140178642 -0.003753802613244206 0.0 0.0003193202584081123 0.0 0.0
0.003828145079547901 -0.002256792636052718 0.0 0.00022741056200287213 0.0 0.0
0.002590020869226606 -0.001290730177368471 0.0 0.0001781739162022844 0.0 0.0
0.0019606044848377857 -0.0008510417124169556 0.0 0.00014922471014625072 0.0 0.0
0.0016696486309260017 -0.000715756920274202 0.0 9.787326761137582e-05 0.0 0.0
0.0018206963015270083 -0.0007658231920540104 0.0 -0.0009139185328416732 0.0 0.0
0.007673289625780427 -0.008773586187068642 0.0 0.0046551643316380675 0.0 0.0
0.005222264755608124 -0.006656133854248195 0.0 -0.005483258658214529 0.0 0.0
0.0010277247937577304 -0.0003764900374754465 0.0 0.00021387191359656388 0.0 0.0
0.0014437886595363401 -0.000557195637313157 0.0 -0.000129264727982914 0.0 0.0
0.001755299199912021 -0.0007565405456436136 0.0 -0.0004029619528964634 0.0 0.0
0.002262641396490437 -0.0010649291347257783 0.0 -0.00043510281742911716 0.0 0.0
0.003322668555302737 -0.0018525024776574472 0.0 -0.000564095012170987 0.0 0.0
0.00491256423816897 -0.0031674480033966335 0.0 -0.0008068102043810171 0.0 0.0
0.007002845610884448 -0.004981198315498259 0.0 -0.0011044176275327305 0.0 0.0
0.009606585692629385 -0.007312102573549972 0.0 -0.001448952164855563 0.0 0.0
0.012768206260260068 -0.01020289744638081 0.0 -0.001826712445050227 0.0 0.0
0.016619254417861024 -0.013785159409468228 0.0 -0.0022215008473179254 0.0 0.0
0.02139271545707507 -0.01829107175072875 0.0 -0.002646895739194563 0.0 0.0
0.02737456203136432 -0.024002650460621666 0.0 -0.003188260555629943 0.0 0.0
0.03478019254717239 -0.03112935599061739 0.0 -0.0038816596913058554 0.0 0.0
0.04362645261921844 -0.03968222103798724 0.0 -0.004692014403814004 0.0 0.0
0.053610302019266795 -0.049358011413451974 0.0 -0.005502983785908966 0.0 0.0
0.06404246960729842 -0.05947629635484675 0.0 -0.005982880319835099 0.0 0.0
0.07390036573131953 -0.06903046323768658 0.0 -0.005714607685475381 0.0 0.0
0.08191595299676978 -0.07675800131058641 0.0 -0.004588451769696161 0.0 0.0
0.08664564518288026 -0.08128472142608323 0.0 -0.0026282882157223075 0.0 0.0
0.08664564518287753 -0.08128472142608234 0.0 0.0026282882157335763 0.0 0.0
0.08191595299676012 -0.07675800131057864 0.0 0.004588451769714341 0.0 0.0
0.07390036573130367 -0.06903046323767059 0.0 0.005714607685488815 0.0 0.0
0.06404246960727844 -0.05947629635482543 0.0 0.005982880319842732 0.0 0.0
0.05361030201924441 -0.049358011413430436 0.0 0.005502983785905524 0.0 0.0
0.043626452619195524 -0.03968222103796637 0.0 0.004692014403814337 0.0 0.0
0.03478019254714872 -0.031129355990594743 0.0 0.003881659691306494 0.0 0.0
0.027374562031339728 -0.024002650460599018 0.0 0.003188260555628708 0.0 0.0
0.02139271545705039 -0.018291071750705434 0.0 0.002646895739189359 0.0 0.0
0.016619254417838528 -0.013785159409446468 0.0 0.002221500847315705 0.0 0.0
0.012768206260240583 -0.010202897446363823 0.0 0.0018267124450452865 0.0 0.0
0.009606585692613273 -0.00731210257353565 0.0 0.0014489521648536896 0.0 0.0
0.007002845610871708 -0.004981198315488156 0.0 0.0011044176275306905 0.0 0.0
0.004912564238159209 -0.00316744800338975 0.0 0.0008068102043791991 0.0 0.0
0.0033226685552968233 -0.0018525024776536725 0.0 0.0005640950121695854 0.0 0.0
0.0022626413964879216 -0.0010649291347242795 0.0 0.0004351028174285898 0.0 0.0
0.0017552991999110756 -0.000756540545642781 0.0 0.000402961952895714 0.0 0.0
0.0014437886595361077 -0.0005571956373130738 0.0 0.00012926472798280297 0.0 0.0
0.0010277247937580253 -0.000376490037474822 0.0 -0.00021387191359784063 0.0 0.0
0.0052222647555996565 -0.006656133854237474 0.0 0.00548325865819671 0.0 0.0
0.003759305291463344 -0.0052804999796041835 0.0 -0.005071998641234948 0.0 0.0
0.0006063549002338839 -0.00023323274989417442 0.0 -0.0004594229235821423 0.0 0.0
0.0011543303023126249 -0.0004039517464852205 0.0 -0.00036812202810507233 0.0 0.0
0.0015462798314488206 -0.0006532488184421426 0.0 -0.0006351050694704541 0.0 0.0
0.0019755592519710916 -0.0008868469096655618 0.0 -0.0006980375888351598 0.0 0.0
0.002824404897163131 -0.001473048480542416 0.0 -0.0008362539105325195 0.0 0.0
0.004230704926088409 -0.0025864066431598998 0.0 -0.0011783094484665024 0.0 0.0
0.006099134168285579 -0.00418097249731042 0.0 -0.0016305844734644664 0.0 0.0
0.008416321896828765 -0.006227727011104522 0.0 -0.002133095096884585 0.0 0.0
0.011210849711650806 -0.008761903286888861 0.0 -0.0026734815701565523 0.0 0.0
0.014588919417832354 -0.011887450716138392 0.0 -0.0032434522176051916 0.0 0.0
0.018755319421912938 -0.01580636939298885 0.0 -0.0038579007870933185 0.0 0.0
0.023981806489215034 -0.020784943622629948 0.0 -0.004598912719519205 0.0 0.0
0.030501998574056183 -0.027049680334993775 0.0 -0.005578846997478598 0.0 0.0
0.03835115042700602 -0.03463291126534185 0.0 -0.0067683296753564826 0.0 0.0
0.04727296554192518 -0.04327690547558949 0.0 -0.0079334647842067 0.0 0.0
0.05668227594771266 -0.05240237181388885 0.0 -0.00864461320077256 0.0 0.0
0.06567357878311493 -0.06110811348024647 0.0 -0.008372023167744824 0.0 0.0
0.07304996140374476 -0.06822303697969834 0.0 -0.006752927369305467 0.0 0.0
0.07750433519994689 -0.07250295332882173 0.0 -0.0035596580855564164 0.0 0.0
0.07750433519994401 -0.07250295332881684 0.0 0.003559658085574069 0.0 0.0
0.07304996140373615 -0.06822303697969012 0.0 0.006752927369330364 0.0 0.0
0.06567357878310083 -0.061108113480234705 0.0 0.008372023167763032 0.0 0.0
0.05668227594769534 -0.05240237181387197 0.0 0.008644613200781748 0.0 0.0
0.04727296554190574 -0.04327690547557084 0.0 0.00793346478420437 0.0 0.0
0.03835115042698552 -0.034632911265320754 0.0 0.006768329675356455 0.0 0.0
0.030501998574035336 -0.02704968033497579 0.0 0.005578846997477904 0.0 0.0
0.023981806489193333 -0.020784943622613294 0.0 0.004598912719518122 0.0 0.0
0.01875531942189146 -0.01580636939296909 0.0 0.0038579007870888082 0.0 0.0
0.014588919417812568 -0.011887450716119075 0.0 0.003243452217601084 0.0 0.0
0.01121084971163333 -0.008761903286873984 0.0 0.002673481570149683 0.0 0.0
0.00841632189681453 -0.006227727011091311 0.0 0.002133095096880977 0.0 0.0
0.006099134168274248 -0.004180972497299873 0.0 0.001630584473461233 0.0 0.0
0.004230704926079756 -0.002586406643151795 0.0 0.0011783094484640322 0.0 0.0
0.002824404897158489 -0.0014730484805380861 0.0 0.0008362539105306876 0.0 0.0
0.0019755592519692666 -0.0008868469096649512 0.0 0.0006980375888343548 0.0 0.0
0.0015462798314480053 -0.0006532488184424756 0.0 0.0006351050694693994 0.0 0.0
0.0011543303023125312 -0.0004039517464851927 0.0 0.0003681220281040454 0.0 0.0
0.0006063549002342239 -0.00023323274989341114 0.0 0.00045942292357956105 0.0 0.0
0.003759305291455489 -0.005280499979594646 0.0 0.005071998641219766 0.0 0.0
0.0027760552311779374 -0.004253691897888656 0.0 -0.004317827073184205 0.0 0.0
0.00037597736457607375 -0.00018685165578133378 0.0 -0.0010298215055970228 0.0 0.0
0.0008854845589943983 -0.00028296867260879655 0.0 -0.0006994259910017009 0.0 0.0
0.0013181506552627682 -0.0005413605239709129 0.0 -0.0008787418337132813 0.0 0.0
0.001715104745350856 -0.0007510979665242834 0.0 -0.000976429362631287 0.0 0.0
0.00236906861555429 -0.0011583059953337305 0.0 -0.0010770490894162488 0.0 0.0
0.0035419204934935243 -0.0020295862669357234 0.0 -0.0014373470700683039 0.0 0.0
0.005189227188103749 -0.003390732717692524 0.0 -0.002013616900247178 0.0 0.0
0.0072195712164491235 -0.00515549424527717 0.0 -0.0026389879370962155 0.0 0.0
0.00965231968996957 -0.007337013063396958 0.0 -0.00330515569434002 0.0 0.0
0.012568332360191198 -0.010014432787690541 0.0 -0.004000407748739998 0.0 0.0
0.016141792821081684 -0.013357649351862122 0.0 -0.004750619032662745 0.0 0.0
0.020622664999287256 -0.017613136476171798 0.0 -0.005662076012557138 0.0 0.0
0.026243547829483523 -0.02300088524761712 0.0 -0.006821948273674522 0.0 0.0
0.033065174448926656 -0.029583422072630983 0.0 -0.008230606968703397 0.0 0.0
0.04089682604669839 -0.03716980589659258 0.0 -0.009666976534290828 0.0 0.0
0.04926202592615715 -0.045280076296857485 0.0 -0.010597148968736148 0.0 0.0
0.05737929796346803 -0.053138332653436704 0.0 -0.010370343525394704 0.0 0.0
0.06418109265589089 -0.05970330311467009 0.0 -0.00841901769755532 0.0 0.0
0.06846678860627863 -0.06382954613997249 0.0 -0.004334573299483502 0.0 0.0
0.06846678860627575 -0.06382954613997094 0.0 0.004334573299505762 0.0 0.0
0.06418109265588295 -0.05970330311466232 0.0 0.008419017697583853 0.0 0.0
0.057379297963455575 -0.05313833265342427 0.0 0.01037034352541516 0.0 0.0
0.049262025926142095 -0.04528007629684372 0.0 0.010597148968746084 0.0 0.0
0.04089682604668156 -0.0371698058965777 0.0 0.009666976534288718 0.0 0.0
0.03306517444890848 -0.029583422072614107 0.0 0.008230606968701482 0.0 0.0
0.02624354782946567 -0.023000885247599134 0.0 0.00682194827367294 0.0 0.0
0.02062266499926843 -0.017613136476153146 0.0 0.005662076012555695 0.0 0.0
0.016141792821063303 -0.013357649351843914 0.0 0.004750619032658665 0.0 0.0
0.012568332360174087 -0.010014432787673222 0.0 0.004000407748735224 0.0 0.0
0.009652319689954225 -0.007337013063384745 0.0 0.0033051556943324567 0.0 0.0
0.007219571216436627 -0.0051554942452674 0.0 0.002638987937092163 0.0 0.0
0.0051892271880938645 -0.0033907327176845303 0.0 0.0020136169002427373 0.0 0.0
0.0035419204934863113 -0.0020295862669303943 0.0 0.0014373470700663193 0.0 0.0
0.0023690686155508484 -0.001158305995331399 0.0 0.0010770490894146667 0.0 0.0
0.0017151047453495272 -0.0007510979665233952 0.0 0.0009764293626303433 0.0 0.0
0.0013181506552619876 -0.0005413605239702468 0.0 0.0008787418337122821 0.0 0.0
0.000885484558994426 -0.00028296867260899083 0.0 0.0006994259910001188 0.0 0.0
0.00037597736457618824 -0.00018685165578068152 0.0 0.0010298215055946358 0.0 0.0
0.002776055231171165 -0.00425369189788032 0.0 0.004317827073172964 0.0 0.0
0.0020593292420502674 -0.003427589706819542 0.0 -0.003559859479440153 0.0 0.0
0.00024435322797201203 -0.00017925204793531324 0.0 -0.0014684809015726163 0.0 0.0
0.000655522052303778 -0.0001932495240224985 0.0 -0.0010458854125242611 0.0 0.0
0.0010800808477131815 -0.00042711871656514466 0.0 -0.001133595948902305 0.0 0.0
0.001458569955334478 -0.0006273546518417161 0.0 -0.0012474539473329438 0.0 0.0
0.00196912178582042 -0.000911144757066995 0.0 -0.001329366480616656 0.0 0.0
0.002879847330715085 -0.0015259165024823496 0.0 -0.0016086569256630878 0.0 0.0
0.004269405948092574 -0.0026141726486409445 0.0 -0.002211712229481133 0.0 0.0
0.006021085911163571 -0.00410378135558942 0.0 -0.0029580429165967648 0.0 0.0
0.00809658173400947 -0.005935260634677864 0.0 -0.0037126768306532387 0.0 0.0
0.01056159127452521 -0.00817337810854113 0.0 -0.004495070913416749 0.0 0.0
0.013556342068703958 -0.010954841778726632 0.0 -0.005329934396010927 0.0 0.0
0.017302637542543006 -0.01449351870575133 0.0 -0.006324437089544305 0.0 0.0
0.022022249871622525 -0.019004760344464078 0.0 -0.007607866422437132 0.0 0.0
0.027800355257672042 -0.02457069142103796 0.0 -0.009146238412400393 0.0 0.0
0.03450906619961074 -0.031061952789833924 0.0 -0.010689547067668254 0.0 0.0
0.04178558727898 -0.038117402372896736 0.0 -0.01177897048162141 0.0 0.0
0.049007983624245785 -0.04511258402070939 0.0 -0.011686224768284431 0.0 0.0
0.05526898674563413 -0.051160389574193665 0.0 -0.009620064445874543 0.0 0.0
0.059456438963259986 -0.055196399421645115 0.0 -0.004988038828966257 0.0 0.0
0.059456438963257446 -0.05519639942164445 0.0 0.004988038828988961 0.0 0.0
0.05526898674562669 -0.05116038957418678 0.0 0.009620064445904297 0.0 0.0
0.04900798362423506 -0.045112584020696955 0.0 0.011686224768306608 0.0 0.0
0.041785587278967126 -0.038117402372884523 0.0 0.011778970481632789 0.0 0.0
0.034509066199596025 -0.03106195278981949 0.0 0.010689547067667393 0.0 0.0
0.02780035525765648 -0.02457069142102375 0.0 0.009146238412397978 0.0 0.0
0.022022249871607433 -0.01900476034445031 0.0 0.007607866422435994 0.0 0.0
0.01730263754252745 -0.014493518705735342 0.0 0.006324437089543555 0.0 0.0
0.013556342068688332 -0.010954841778711089 0.0 0.005329934396006708 0.0 0.0
0.010561591274510757 -0.008173378108526475 0.0 0.004495070913409838 0.0 0.0
0.00809658173399666 -0.005935260634666872 0.0 0.0037126768306442737 0.0 0.0
0.006021085911152774 -0.004103781355579317 0.0 0.0029580429165923794 0.0 0.0
0.004269405948084226 -0.002614172648633617 0.0 0.0022117122294766645 0.0 0.0
0.002879847330709548 -0.0015259165024782417 0.0 0.0016086569256609506 0.0 0.0
0.001969121785817929 -0.0009111447570659958 0.0 0.0013293664806143801 0.0 0.0
0.0014585699553333192 -0.0006273546518417716 0.0 0.0012474539473315283 0.0 0.0
0.0010800808477125362 -0.00042711871656553324 0.0 0.001133595948900945 0.0 0.0
0.0006555220523037086 -0.0001932495240229426 0.0 0.0010458854125224015 0.0 0.0
0.00024435322797189407 -0.00017925204793463323 0.0 0.0014684809015699518 0.0 0.0
0.0020593292420448273 -0.0034275897068126613 0.0 0.0035598594794320204 0.0 0.0
0.0015206717904131806 -0.0027484617625102153 0.0 -0.0029131077040703834 0.0 0.0
0.00015986301976056438 -0.00018390369540774443 0.0 -0.001788355803542141 0.0 0.0
0.0004603799901110317 -0.0001255837545671712 0.0 -0.0013645456805778666 0.0 0.0
0.0008419555149260308 -0.00031442546643234426 0.0 -0.0013826939430927887 0.0 0.0
0.0011946678786169396 -0.00050818504803396 0.0 -0.0015044298595194017 0.0 0.0
0.0016029034319649943 -0.0007225153780296978 0.0 -0.0016015351084778529 0.0 0.0
0.0022812630051331634 -0.0011222653896262313 0.0 -0.0017988973591403778 0.0 0.0
0.0033644217792228592 -0.0018985851494638384 0.0 -0.002289281215877542 0.0 0.0
0.004817856975908627 -0.0030756998999654783 0.0 -0.00304863962539606 0.0 0.0
0.00654854346849517 -0.0045677863301922805 0.0 -0.0038824895320112296 0.0 0.0
0.008570828787832982 -0.006374851502769285 0.0 -0.004709561046973315 0.0 0.0
0.011003430216542348 -0.008606621477662557 0.0 -0.005583468224607424 0.0 0.0
0.014030738463466454 -0.011442980646434009 0.0 -0.00661231176941926 0.0 0.0
0.017852570229879995 -0.0150771352233392 0.0 -0.007901938198600272 0.0 0.0
0.022577553333715236 -0.019615765836899612 0.0 -0.009459474358242154 0.0 0.0
0.028138682127045955 -0.024990250519266954 0.0 -0.011057442371319087 0.0 0.0
0.03427642730748931 -0.030939660959187876 0.0 -0.012206623580751697 0.0 0.0
0.04054820757237229 -0.03702152743950626 0.0 -0.012246900240997338 0.0 0.0
0.04626058597838008 -0.042547328679449326 0.0 -0.010316224904931837 0.0 0.0
0.050398373904960866 -0.046537100485443794 0.0 -0.005526610312306335 0.0 0.0
0.0503983739049587 -0.046537100485439575 0.0 0.005526610312328595 0.0 0.0
0.04626058597837343 -0.04254732867944 0.0 0.010316224904961757 0.0 0.0
0.040548207572363076 -0.03702152743949694 0.0 0.01224690024101932 0.0 0.0
0.034276427307478485 -0.030939660959178994 0.0 0.0122066235807613 0.0 0.0
0.02813868212703355 -0.02499025051925785 0.0 0.011057442371317283 0.0 0.0
0.022577553333702136 -0.01961576583688851 0.0 0.009459474358239461 0.0 0.0
0.017852570229867887 -0.01507713522332721 0.0 0.007901938198599079 0.0 0.0
0.014030738463453984 -0.011442980646425127 0.0 0.006612311769418067 0.0 0.0
0.011003430216529497 -0.008606621477653897 0.0 0.005583468224602206 0.0 0.0
0.00857082878782113 -0.0063748515027601815 0.0 0.004709561046966404 0.0 0.0
0.006548543468484699 -0.004567786330185175 0.0 0.003882489532002098 0.0 0.0
0.004817856975899856 -0.003075699899958484 0.0 0.0030486396253912307 0.0 0.0
0.003364421779216309 -0.0018985851494579542 0.0 0.00228928121587324 0.0 0.0
0.002281263005129111 -0.0011222653896232337 0.0 0.0017988973591388235 0.0 0.0
0.0016029034319632735 -0.0007225153780285876 0.0 0.0016015351084760765 0.0 0.0
0.001194667878615982 -0.0005081850480331829 0.0 0.0015044298595180139 0.0 0.0
0.000841955514925663 -0.0003144254664321222 0.0 0.0013826939430904295 0.0 0.0
0.0004603799901108513 -0.0001255837545670324 0.0 0.0013645456805754241 0.0 0.0
0.0001598630197603701 -0.00018390369540702278 0.0 0.001788355803539421 0.0 0.0
0.0015206717904091005 -0.0027484617625047683 0.0 0.0029131077040638054 0.0 0.0
0.0011115734068269656 -0.0021863221040941544 0.0 -0.002401754577283005 0.0 0.0
9.653639820915438e-05 -0.00019437434754665528 0.0 -0.0020132886880323275 0.0 0.0
0.00029030140703908275 -6.922489255783981e-05 0.0 -0.0016353840506639628 0.0 0.0
0.0006101179262654188 -0.0002075201234308377 0.0 -0.0016125005061811137 0.0 0.0
0.0009204535051410764 -0.00038347192595444834 0.0 -0.0017311106664743559 0.0 0.0
0.001251540789845497 -0.0005508287803100975 0.0 -0.0018352207681545663 0.0 0.0
0.001738718643267384 -0.0008021750233270231 0.0 -0.001987009881099816 0.0 0.0
0.002521052408831201 -0.0012937113974066383 0.0 -0.0023300682735062084 0.0 0.0
0.0036287649998582097 -0.0021155986410833494 0.0 -0.0029460931454550754 0.0 0.0
0.005006361019728574 -0.0032453859836771848 0.0 -0.00376798324776495 0.0 0.0
0.0065981920843088335 -0.004631984321328719 0.0 -0.004630575307435769 0.0 0.0
0.008485398498653575 -0.006327555375916782 0.0 -0.005502722873169469 0.0 0.0
0.010812432813292291 -0.008477109279247719 0.0 -0.006499117184431996 0.0 0.0
0.013753152362351528 -0.011247540131648526 0.0 -0.007728597953685218 0.0 0.0
0.017417721302527514 -0.014751492394045718 0.0 -0.009191861757181674 0.0 0.0
0.02180595551974849 -0.018978629260774538 0.0 -0.010704898257380357 0.0 0.0
0.026759303522526687 -0.023777801363113138 0.0 -0.011874828528321446 0.0 0.0
0.03200374897351973 -0.028875189510973787 0.0 -0.012079101840385215 0.0 0.0
0.037100701261949004 -0.033819016813268155 0.0 -0.010477907063840275 0.0 0.0
0.04120883687379842 -0.03777841359886369 0.0 -0.0059403343011978915 0.0 0.0
0.04120883687379662 -0.03777841359886125 0.0 0.005940334301217487 0.0 0.0
0.03710070126194352 -0.03381901681326416 0.0 0.010477907063868142 0.0 0.0
0.03200374897351191 -0.02887518951096779 0.0 0.01207910184040567 0.0 0.0
0.026759303522517874 -0.023777801363103812 0.0 0.011874828528329717 0.0 0.0
0.02180595551973856 -0.018978629260763658 0.0 0.010704898257378581 0.0 0.0
0.017417721302516884 -0.014751492394036392 0.0 0.009191861757177455 0.0 0.0
0.013753152362342688 -0.011247540131640088 0.0 0.007728597953683414 0.0 0.0
0.010812432813282882 -0.008477109279237727 0.0 0.006499117184430692 0.0 0.0
0.008485398498643854 -0.006327555375910121 0.0 0.005502722873164889 0.0 0.0
0.006598192084299667 -0.004631984321320948 0.0 0.004630575307428553 0.0 0.0
0.0050063610197201985 -0.0032453859836695242 0.0 0.0037679832477560127 0.0 0.0
0.0036287649998519578 -0.0021155986410782424 0.0 0.0029460931454508843 0.0 0.0
0.0025210524088263297 -0.0012937113974035297 0.0 0.0023300682735023504 0.0 0.0
0.0017387186432646362 -0.0008021750233263569 0.0 0.001987009881097318 0.0 0.0
0.0012515407898442826 -0.0005508287803087653 0.0 0.0018352207681524846 0.0 0.0
0.0009204535051403756 -0.0003834719259538377 0.0 0.001731110666472191 0.0 0.0
0.0006101179262652245 -0.00020752012343044912 0.0 0.001612500506178588 0.0 0.0
0.00029030140703886764 -6.922489255711817e-05 0.0 0.001635384050661326 0.0 0.0
9.653639820897397e-05 -0.00019437434754616956 0.0 0.0020132886880300793 0.0 0.0
0.0011115734068241484 -0.002186322104090241 0.0 0.002401754577279175 0.0 0.0
0.0008056765417254197 -0.0017388220122769582 0.0 -0.0020339867723226657 0.0 0.0
3.867518573485301e-05 -0.00020251173981264414 0.0 -0.0021509683817942937 0.0 0.0
0.00013795730759415953 -1.7947224848935406e-05 0.0 -0.0018558525894867006 0.0 0.0
0.00038679453207545594 -0.00010747823325268913 0.0 -0.0018095488750874689 0.0 0.0
0.0006395712813728194 -0.00025251966511607993 0.0 -0.0019172920384498693 0.0 0.0
0.000897494834831078 -0.0003926426045461895 0.0 -0.0020580249064148515 0.0 0.0
0.0012339159145622267 -0.0005526383239822241 0.0 -0.002202248719489819 0.0 0.0
0.001753786818414517 -0.0008160200866283995 0.0 -0.002390240093602447 0.0 0.0
0.0025004351493506938 -0.001291236731845502 0.0 -0.0027674786142382335 0.0 0.0
0.0034842608382803994 -0.0020191542165104437 0.0 -0.003408475395470234 0.0 0.0
0.004646197255847848 -0.0029711648718317996 0.0 -0.00420529937062511 0.0 0.0
0.00600146591181628 -0.0041448827868653115 0.0 -0.0050436828680571755 0.0 0.0
0.007652278345463906 -0.005625769633920363 0.0 -0.005975015770868564 0.0 0.0
0.00973161950648023 -0.007547832195944348 0.0 -0.007069188067761328 0.0 0.0
0.01234664661710587 -0.010017720548985976 0.0 -0.00834130031590355 0.0 0.0
0.015534870271496061 -0.01307429425633333 0.0 -0.009673755149487318 0.0 0.0
0.019258118851514877 -0.0166698071820941 0.0 -0.010741016688980115 0.0 0.0
0.02338641162502824 -0.020689973742830547 0.0 -0.011069035111539505 0.0 0.0
0.027738431103295103 -0.024943840825002228 0.0 -0.010022061720840192 0.0 0.0
0.031790004921385895 -0.028851491870206525 0.0 -0.006213746778111151 0.0 0.0
0.03179000492138444 -0.028851491870205415 0.0 0.006213746778127749 0.0 0.0
0.027738431103291133 -0.02494384082499801 0.0 0.010022061720864728 0.0 0.0
0.023386411625022113 -0.020689973742824996 0.0 0.011069035111557712 0.0 0.0
0.019258118851508008 -0.01666980718208899 0.0 0.010741016688986027 0.0 0.0
0.015534870271488824 -0.013074294256328889 0.0 0.00967375514948371 0.0 0.0
0.012346646617098209 -0.010017720548980424 0.0 0.008341300315900246 0.0 0.0
0.009731619506473985 -0.007547832195940574 0.0 0.00706918806776069 0.0 0.0
0.007652278345457744 -0.0056257696339163665 0.0 0.005975015770866732 0.0 0.0
0.00600146591180957 -0.004144882786857984 0.0 0.005043682868052457 0.0 0.0
0.004646197255841492 -0.0029711648718262484 0.0 0.004205299370618476 0.0 0.0
0.00348426083827455 -0.002019154216506336 0.0 0.0034084753954637392 0.0 0.0
0.002500435149346808 -0.0012912367318441698 0.0 0.0027674786142360686 0.0 0.0
0.0017537868184113459 -0.0008160200866282885 0.0 0.0023902400936005874 0.0 0.0
0.0012339159145604711 -0.0005526383239811139 0.0 0.002202248719488459 0.0 0.0
0.0008974948348302592 -0.00039264260454552335 0.0 0.0020580249064131584 0.0 0.0
0.000639571281372403 -0.00025251966511624646 0.0 0.0019172920384473158 0.0 0.0
0.0003867945320753796 -0.00010747823325263361 0.0 0.0018095488750849986 0.0 0.0
0.0001379573075938889 -1.7947224848491317e-05 0.0 0.0018558525894842859 0.0 0.0
3.867518573474893e-05 -0.0002025117398126025 0.0 0.0021509683817920178 0.0 0.0
0.0008056765417236988 -0.0017388220122744767 0.0 0.002033986772319696 0.0 0.0
0.0005882700147180203 -0.001412641536009368 0.0 -0.0018122033064491005 0.0 0.0
-1.8733019845319776e-05 -0.00020298075612315558 0.0 -0.00223729321513802 0.0 0.0
-1.0686393794243076e-06 3.0538393418655385e-05 0.0 -0.0020215826241408996 0.0 0.0
0.0001722561081073104 -1.3184025154822088e-05 0.0 -0.0019652272302305707 0.0 0.0
0.000356201012190048 -0.00012044598677907192 0.0 -0.002056763290354424 0.0 0.0
0.0005325327419234901 -0.000224421618521653 0.0 -0.00221094696047619 0.0 0.0
0.0007421258367707809 -0.00032934536039608275 0.0 -0.002389063950830078 0.0 0.0
0.0010393894804583137 -0.0004662486025871493 0.0 -0.0025536202296993216 0.0 0.0
0.0014661245086932118 -0.0006742595623399072 0.0 -0.0027033558405222813 0.0 0.0
0.0020302273961847264 -0.001000741586753895 0.0 -0.0029885847685243716 0.0 0.0
0.002736744249867265 -0.001485582686679754 0.0 -0.003512899061333591 0.0 0.0
0.0035541492620902726 -0.0021264084093075564 0.0 -0.004191352072996396 0.0 0.0
0.0045454319151254086 -0.002952701059517837 0.0 -0.005018560911649844 0.0 0.0
0.005793181083449797 -0.004048400299686339 0.0 -0.005955080116026135 0.0 0.0
0.007372130537623117 -0.005493278501675025 0.0 -0.006991671436419766 0.0 0.0
0.009346390499816226 -0.007354087660091713 0.0 -0.008074233501899508 0.0 0.0
0.011790795566344853 -0.009698512416468574 0.0 -0.009025496745452943 0.0 0.0
0.014739088143934403 -0.012547423335224073 0.0 -0.009380070991753364 0.0 0.0
0.018157525118001977 -0.015925286422844964 0.0 -0.008818260196522543 0.0 0.0
0.02200726925619563 -0.01967142857915638 0.0 -0.006238803566714524 0.0 0.0
0.022007269256194825 -0.01967142857915749 0.0 0.006238803566727069 0.0 0.0
0.01815752511799966 -0.015925286422843854 0.0 0.008818260196543526 0.0 0.0
0.014739088143930087 -0.012547423335222962 0.0 0.009380070991768852 0.0 0.0
0.011790795566340162 -0.009698512416466132 0.0 0.009025496745456774 0.0 0.0
0.009346390499812063 -0.00735408766008927 0.0 0.0080742335018959 0.0 0.0
0.007372130537618912 -0.005493278501670806 0.0 0.006991671436415825 0.0 0.0
0.005793181083446064 -0.004048400299681454 0.0 0.0059550801160254685 0.0 0.0
0.004545431915122508 -0.0029527010595140624 0.0 0.005018560911649872 0.0 0.0
0.0035541492620865395 -0.00212640840930467 0.0 0.004191352072993426 0.0 0.0
0.002736744249863879 -0.0014855826866762012 0.0 0.0035128990613280675 0.0 0.0
0.002030227396181722 -0.0010007415867531178 0.0 0.0029885847685192646 0.0 0.0
0.001466124508691033 -0.0006742595623399072 0.0 0.0027033558405208657 0.0 0.0
0.001039389480456815 -0.00046624860258603906 0.0 0.0025536202296977673 0.0 0.0
0.000742125836769747 -0.00032934536039563866 0.0 0.002389063950828052 0.0 0.0
0.0005325327419230808 -0.000224421618521764 0.0 0.0022109469604734144 0.0 0.0
0.0003562010121900411 -0.00012044598677807272 0.0 0.002056763290351815 0.0 0.0
0.00017225610810735204 -1.318402515393391e-05 0.0 0.0019652272302282114 0.0 0.0
-1.0686393795422688e-06 3.0538393418905185e-05 0.0 0.002021582624138374 0.0 0.0
-1.8733019845437737e-05 -0.00020298075612305844 0.0 0.00223729321513616 0.0 0.0
0.000588270014717035 -0.001412641536007695 0.0 0.001812203306446547 0.0 0.0
0.00043805791374210146 -0.0011650584799728775 0.0 -0.0016516254431445387 0.0 0.0
-7.242509016099075e-05 -0.0001926133014456266 0.0 -0.002273284300295386 0.0 0.0
-0.00012949056927541447 7.595768757989729e-05 0.0 -0.0021345442076780574 0.0 0.0
-3.3799820107191514e-05 7.621232825910651e-05 0.0 -0.0020724618848803056 0.0 0.0
7.383946598041313e-05 1.0454947750759835e-05 0.0 -0.002143823113095633 0.0 0.0
0.00016197335817919045 -5.2771436909848646e-05 0.0 -0.002297821775744141 0.0 0.0
0.0002447136976157782 -0.00010420245999565036 0.0 -0.002494504884064719 0.0 0.0
0.00034518828019924896 -0.0001533924752845639 0.0 -0.0026578940754106717 0.0 0.0
0.00048816213460074753 -0.00021854329031467667 0.0 -0.002787763635789642 0.0 0.0
0.0006642356285574275 -0.00030623253279338236 0.0 -0.0029204373451495458 0.0 0.0
0.000899023634482729 -0.00042337500885070156 0.0 -0.0031514945066006828 0.0 0.0
0.001169877507087247 -0.0005742436404903017 0.0 -0.0035192900813773575 0.0 0.0
0.0014989373464588673 -0.000774441443599061 0.0 -0.004070372729652938 0.0 0.0
0.0019163813881050984 -0.0010611438776038096 0.0 -0.004829869279517507 0.0 0.0
0.0024590328188359434 -0.0014664003539925918 0.0 -0.005797651002992954 0.0 0.0
0.003211406202045672 -0.0020873657644286947 0.0 -0.006891116719602131 0.0 0.0
0.004349123833319188 -0.0031162798616761744 0.0 -0.007899653708720922 0.0 0.0
0.006098339855195631 -0.004742044073933194 0.0 -0.008348520618128963 0.0 0.0
0.008520244113332104 -0.00702742407206336 0.0 -0.007738796231929246 0.0 0.0
0.011744700851435572 -0.010312271324272038 0.0 -0.006184714967196525 0.0 0.0
0.011744700851435808 -0.010312271324272704 0.0 0.006184714967206684 0.0 0.0
0.008520244113331216 -0.007027424072058697 0.0 0.007738796231946343 0.0 0.0
0.006098339855193327 -0.004742044073928753 0.0 0.008348520618139288 0.0 0.0
0.0043491238333175225 -0.0031162798616757303 0.0 0.007899653708722532 0.0 0.0
0.0032114062020446588 -0.0020873657644278065 0.0 0.006891116719598411 0.0 0.0
0.0024590328188350413 -0.0014664003539917037 0.0 0.005797651002989679 0.0 0.0
0.0019163813881043074 -0.0010611438776051418 0.0 0.004829869279517007 0.0 0.0
0.0014989373464590894 -0.0007744414436008373 0.0 0.004070372729652716 0.0 0.0
0.0011698775070866363 -0.0005742436404927442 0.0 0.00351929008137547 0.0 0.0
0.0008990236344823821 -0.00042337500885070156 0.0 0.003151494506597463 0.0 0.0
0.0006642356285571083 -0.0003062325327921611 0.0 0.002920437345145105 0.0 0.0
0.0004881621346004006 -0.00021854329031445463 0.0 0.002787763635788948 0.0 0.0
0.00034518828019912406 -0.00015339247528389777 0.0 0.0026578940754090064 0.0 0.0
0.0002447136976154729 -0.00010420245999465116 0.0 0.0024945048840622763 0.0 0.0
0.0001619733581793431 -5.27714369096266e-05 0.0 0.0022978217757415043 0.0 0.0
7.383946598057967e-05 1.0454947751259436e-05 0.0 0.0021438231130928576 0.0 0.0
-3.379982010702498e-05 7.621232825899549e-05 0.0 0.002072461884877086 0.0 0.0
-0.0001294905692753312 7.595768758014709e-05 0.0 0.002134544207675809 0.0 0.0
-7.242509016081033e-05 -0.0001926133014452519 0.0 0.0022732843002939707 0.0 0.0
0.0004380579137415741 -0.0011650584799718488 0.0 0.0016516254431437893 0.0 0.0
0.0003305241738788961 -0.0009574969689739865 0.0 -0.0015048781247428977 0.0 0.0
-0.0001220308521276553 -0.0001710203672009858 0.0 -0.0022591046720810415 0.0 0.0
-0.00024854516301334173 0.0001185795323785932 0.0 -0.002193575864445102 0.0 0.0
-0.0002316483261982083 0.00016084600696264495 0.0 -0.002128226998470345 0.0 0.0
-0.00020459022699784168 0.0001383455647758769 0.0 -0.0021749830216631905 0.0 0.0
-0.00020939230258666675 0.00011891507007399937 0.0 -0.002310032755191982 0.0 0.0
-0.0002553602122467302 0.00012285460397154502 0.0 -0.0024971504078104834 0.0 0.0
-0.0003443402655379374 0.00015505040909569168 0.0 -0.0026583449834475525 0.0 0.0
-0.0004858289546387645 0.00021681238868931363 0.0 -0.002787188790389278 0.0 0.0
-0.0006624874530555824 0.00030498892340413697 0.0 -0.002920057222412592 0.0 0.0
-0.0008980442147457496 0.0004232525658158792 0.0 -0.003150880927793198 0.0 0.0
-0.0011719675233550636 0.0005775105741314679 0.0 -0.0035176813973264998 0.0 0.0
-0.0015111185868483812 0.0007850229316912483 0.0 -0.0040664811058794825 0.0 0.0
-0.001940021980550738 0.0010747600834315474 0.0 -0.0048286559168758125 0.0 0.0
-0.0024437251459097503 0.0014332718293446067 0.0 -0.0058186855726397035 0.0 0.0
-0.002924163150998138 0.0017777269556684683 0.0 -0.007001197545781657 0.0 0.0
-0.003135449747347932 0.0019340754791037362 0.0 -0.008359344591876483 0.0 0.0
-0.0027021504834345428 0.0015797422660281946 0.0 -0.00984377526965341 0.0 0.0
-0.001297418533608971 0.0006363312003849764 0.0 -0.010932493800023424 0.0 0.0
0.0016795372748533433 -0.0020264629495727604 0.0 -0.009016559034930871 0.0 0.0
0.0016795372748533849 -0.002026462949570984 0.0 0.009016559034942029 0.0 0.0
-0.001297418533609318 0.0006363312003843102 0.0 0.010932493800036303 0.0 0.0
-0.002702150483434307 0.0015797422660290827 0.0 0.009843775269659127 0.0 0.0
-0.0031354497473459197 0.0019340754791044024 0.0 0.008359344591875206 0.0 0.0
-0.002924163150995751 0.0017777269556682462 0.0 0.00700119754577716 0.0 0.0
-0.00244372514590728 0.0014332718293428304 0.0 0.005818685572636539 0.0 0.0
-0.001940021980548809 0.0010747600834324356 0.0 0.004828655916874425 0.0 0.0
-0.0015111185868450505 0.0007850229316903601 0.0 0.004066481105878983 0.0 0.0
-0.001171967523352177 0.0005775105741290254 0.0 0.003517681397323613 0.0 0.0
-0.0008980442147429879 0.0004232525658123265 0.0 0.0031508809277900895 0.0 0.0
-0.0006624874530533481 0.0003049889234032488 0.0 0.0029200572224081234 0.0 0.0
-0.0004858289546371686 0.00021681238868997976 0.0 0.002787188790388001 0.0 0.0
-0.00034434026553695207 0.00015505040909513657 0.0 0.0026583449834463313 0.0 0.0
-0.0002553602122463 0.0001228546039724332 0.0 0.0024971504078084017 0.0 0.0
-0.00020939230258602837 0.00011891507007422142 0.0 0.0023100327551888455 0.0 0.0
-0.00020459022699749474 0.00013834556477476667 0.0 0.002174983021660526 0.0 0.0
-0.00023164832619780584 0.00016084600696203433 0.0 0.0021282269984681523 0.0 0.0
-0.00024854516301313356 0.00011857953237856544 0.0 0.002193575864443603 0.0 0.0
-0.0001220308521272806 -0.0001710203672009858 0.0 0.0022591046720792374 0.0 0.0
0.0003305241738786324 -0.0009574969689729968 0.0 0.0015048781247407605 0.0 0.0
0.0002445850906234587 -0.0007681236348146964 0.0 -0.001350823427174963 0.0 0.0
-0.00016863075624877488 -0.00014044045824332385 0.0 -0.002194571689582897 0.0 0.0
-0.0003595917916987684 0.00015950302804440541 0.0 -0.0021976266633469133 0.0 0.0
-0.00042122031846467123 0.00024050389018281937 0.0 -0.002130037522689532 0.0 0.0
-0.00047677388934666554 0.0002615671613270809 0.0 -0.0021475483368711967 0.0 0.0
-0.000576522838646773 0.00028737569716619227 0.0 -0.002252028575519649 0.0 0.0
-0.0007516920238027358 0.00034695899770265104 0.0 -0.002401319048582512 0.0 0.0
-0.0010387029120447755 0.000467699578610703 0.0 -0.0025545822853340616 0.0 0.0
-0.0014637410471617651 0.0006725169661776498 0.0 -0.0027021541374082636 0.0 0.0
-0.0020285778522424747 0.0009993918041215633 0.0 -0.002987212221423091 0.0 0.0
-0.0027359145900180404 0.0014853607545628478 0.0 -0.003512263892541778 0.0 0.0
-0.003555596621262175 0.0021294985551381096 0.0 -0.004187982849566729 0.0 0.0
-0.004555558852153516 0.002964784226748396 0.0 -0.005004080237965058 0.0 0.0
-0.005817855168347069 0.0040687237117273956 0.0 -0.005939842557403596 0.0 0.0
-0.007367417453573194 0.005462367667946388 0.0 -0.007046896859791818 0.0 0.0
-0.009094548868038857 0.007039096270529344 0.0 -0.008408733855094774 0.0 0.0
-0.010699461443313199 0.008494537730510787 0.0 -0.01005528256915883 0.0 0.0
-0.011670108776743904 0.009328629102822061 0.0 -0.011870670869636002 0.0 0.0
-0.011185838323673564 0.008593866794449623 0.0 -0.012686606056410199 0.0 0.0
-0.007837990270307571 0.00520549150548133 0.0 -0.010525211657546996 0.0 0.0
-0.007837990270308182 0.005205491505481108 0.0 0.010525211657559486 0.0 0.0
-0.011185838323673022 0.008593866794448735 0.0 0.012686606056428351 0.0 0.0
-0.011670108776741253 0.009328629102818509 0.0 0.011870670869648492 0.0 0.0
-0.010699461443308037 0.008494537730507234 0.0 0.010055282569158885 0.0 0.0
-0.009094548868032772 0.007039096270523126 0.0 0.00840873385508939 0.0 0.0
-0.007367417453567615 0.005462367667942614 0.0 0.007046896859788848 0.0 0.0
-0.005817855168342288 0.004068723711724287 0.0 0.00593984255740132 0.0 0.0
-0.004555558852147298 0.002964784226743511 0.0 0.005004080237962588 0.0 0.0
-0.0035555966212559367 0.0021294985551321144 0.0 0.004187982849561955 0.0 0.0
-0.0027359145900122117 0.001485360754558629 0.0 0.0035122638925360883 0.0 0.0
-0.0020285778522373746 0.0009993918041190097 0.0 0.0029872122214184282 0.0 0.0
-0.001463741047158157 0.0006725169661759844 0.0 0.002702154137407098 0.0 0.0
-0.00103870291204268 0.00046769957860959277 0.0 0.0025545822853335065 0.0 0.0
-0.0007516920238015215 0.00034695899770209593 0.0 0.0024013190485815405 0.0 0.0
-0.0005765228386457252 0.0002873756971677466 0.0 0.002252028575516457 0.0 0.0
-0.0004767738893460688 0.00026156716132824664 0.0 0.0021475483368685044 0.0 0.0
-0.00042122031846396346 0.00024050389018265284 0.0 0.0021300375226877 0.0 0.0
-0.00035959179169848393 0.00015950302804426664 0.0 0.002197626663345109 0.0 0.0
-0.00016863075624853896 -0.00014044045824355977 0.0 0.0021945716895812317 0.0 0.0
0.0002445850906232505 -0.0007681236348139643 0.0 0.0013508234271728814 0.0 0.0
0.00016869310728430398 -0.0005948160773145694 0.0 -0.0011951804985191883 0.0 0.0
-0.0002143849441725021 -0.00010159278262319993 0.0 -0.002080297638120926 0.0 0.0
-0.000463996898665206 0.00019946387605712657 0.0 -0.002146488701793403 0.0 0.0
-0.0006024507983679456 0.00031520812756297145 0.0 -0.002077171646632958 0.0 0.0
-0.0007405996398472114 0.00037804888893744337 0.0 -0.0020605524230578043 0.0 0.0
-0.0009343916923582885 0.0004483485147773747 0.0 -0.0021166964943864774 0.0 0.0
-0.0012424002479222707 0.0005684361670692528 0.0 -0.002217523457166831 0.0 0.0
-0.001752837157122794 0.0008169197124419103 0.0 -0.002392318006777472 0.0 0.0
-0.002498050523332046 0.001288779734429868 0.0 -0.0027635557470576666 0.0 0.0
-0.0034830254287982476 0.0020177260606097924 0.0 -0.003405820478664834 0.0 0.0
-0.0046459179807896295 0.0029710213115463624 0.0 -0.004205070835635594 0.0 0.0
-0.00600147165559653 0.004146214163116557 0.0 -0.005039363816056408 0.0 0.0
-0.007657022280723402 0.0056335518031827014 0.0 -0.005948339500243649 0.0 0.0
-0.00975213630133892 0.007567004028897761 0.0 -0.007014887416574078 0.0 0.0
-0.012357232504447174 0.010007948531692179 0.0 -0.008355792201034828 0.0 0.0
-0.015359075008877912 0.012841080858160714 0.0 -0.010132689342936096 0.0 0.0
-0.018381662575776447 0.015684914008492257 0.0 -0.012491818345550187 0.0 0.0
-0.020678090651291836 0.017740461025307352 0.0 -0.01509285559027923 0.0 0.0
-0.02086208615689268 0.01762239281606437 0.0 -0.016484326232215185 0.0 0.0
-0.01686913077654867 0.01319354492177216 0.0 -0.013617157052707718 0.0 0.0
-0.01686913077654885 0.013193544921769718 0.0 0.013617157052722428 0.0 0.0
-0.020862086156890877 0.017622392816065702 0.0 0.016484326232235225 0.0 0.0
-0.020678090651287083 0.0177404610253038 0.0 0.015092855590293108 0.0 0.0
-0.018381662575768447 0.01568491400848404 0.0 0.012491818345553518 0.0 0.0
-0.015359075008868656 0.012841080858152276 0.0 0.010132689342932766 0.0 0.0
-0.012357232504438966 0.01000794853168352 0.0 0.008355792201031331 0.0 0.0
-0.00975213630133092 0.007567004028887991 0.0 0.007014887416568888 0.0 0.0
-0.0076570222807141805 0.005633551803174264 0.0 0.005948339500240513 0.0 0.0
-0.00600147165558737 0.004146214163109674 0.0 0.005039363816051384 0.0 0.0
-0.004645917980780692 0.002971021311540145 0.0 0.004205070835628488 0.0 0.0
-0.0034830254287902193 0.0020177260606005776 0.0 0.003405820478657534 0.0 0.0
-0.0024980505233262174 0.001288779734425205 0.0 0.0027635557470543637 0.0 0.0
-0.001752837157119276 0.0008169197124423544 0.0 0.0023923180067761673 0.0 0.0
-0.0012424002479202237 0.0005684361670690308 0.0 0.0022175234571655544 0.0 0.0
-0.000934391692356866 0.0004483485147753763 0.0 0.0021166964943842848 0.0 0.0
-0.000740599639846351 0.00037804888893638866 0.0 0.0020605524230563332 0.0 0.0
-0.000602450798367106 0.0003152081275627494 0.0 0.0020771716466306267 0.0 0.0
-0.00046399689866489374 0.00019946387605687677 0.0 0.002146488701790711 0.0 0.0
-0.0002143849441722523 -0.00010159278262331095 0.0 0.0020802976381186777 0.0 0.0
0.00016869310728427622 -0.0005948160773140455 0.0 0.0011951804985173842 0.0 0.0
9.98817275874031e-05 -0.0004379640246492261 0.0 -0.0010375439196528558 0.0 0.0
-0.0002610158152628883 -5.6175822062798364e-05 0.0 -0.0019215282299116787 0.0 0.0
-0.000563080424949583 0.00023933805948594955 0.0 -0.002041338704697415 0.0 0.0
-0.000775647728687906 0.00038447000095337414 0.0 -0.0019707812965403804 0.0 0.0
-0.000993565630562257 0.00048745471243449856 0.0 -0.0019142395699949244 0.0 0.0
-0.0012802214411198332 0.0005995836626102591 0.0 -0.0019184018448726858 0.0 0.0
-0.001744412187553085 0.000816236078693966 0.0 -0.002014004694131988 0.0 0.0
-0.002519663523699825 0.0012931673346533445 0.0 -0.00232944036837035 0.0 0.0
-0.0036267839531688995 0.002113166104684927 0.0 -0.0029408131131711535 0.0 0.0
-0.005006022702668839 0.0032446333307296626 0.0 -0.003765504580354878 0.0 0.0
-0.006598507231333331 0.0046323367648033464 0.0 -0.004631352658067023 0.0 0.0
-0.00848372462816084 0.006326569873221333 0.0 -0.005499549197418796 0.0 0.0
-0.01080818212692676 0.00847566357395424 0.0 -0.006465747108865716 0.0 0.0
-0.013757773121888667 0.01125411723481351 0.0 -0.007632354013278608 0.0 0.0
-0.01743598553949141 0.014759193409004778 0.0 -0.009126118953686535 0.0 0.0
-0.02174588283222645 0.018878542575692547 0.0 -0.011191865343048557 0.0 0.0
-0.026209479883495812 0.02311370984641936 0.0 -0.014046991608543724 0.0 0.0
-0.02973929651567217 0.026337409129656653 0.0 -0.017323102034553284 0.0 0.0
-0.03039671923796282 0.026593438707221306 0.0 -0.01934105116650059 0.0 0.0
-0.02524766641271274 0.02091397312635279 0.0 -0.01674986816157842 0.0 0.0
-0.025247666412712366 0.020913973126353014 0.0 0.016749868161597348 0.0 0.0
-0.030396719237959773 0.026593438707220862 0.0 0.019341051166524736 0.0 0.0
-0.0297392965156653 0.026337409129652878 0.0 0.01732310203457116 0.0 0.0
-0.026209479883485105 0.023113709846412478 0.0 0.014046991608548137 0.0 0.0
-0.021745882832214812 0.01887854257568433 0.0 0.011191865343045476 0.0 0.0
-0.017435985539480434 0.014759193408997007 0.0 0.009126118953683815 0.0 0.0
-0.013757773121877565 0.01125411723480374 0.0 0.007632354013273973 0.0 0.0
-0.010808182126914596 0.00847566357394447 0.0 0.006465747108861608 0.0 0.0
-0.008483724628148781 0.006326569873209786 0.0 0.005499549197413439 0.0 0.0
-0.006598507231321368 0.004632336764791578 0.0 0.00463135265805828 0.0 0.0
-0.005006022702658493 0.003244633330720559 0.0 0.0037655045803459686 0.0 0.0
-0.003626783953160531 0.002113166104679043 0.0 0.0029408131131659354 0.0 0.0
-0.0025196635236945444 0.0012931673346486816 0.0 0.0023294403683677967 0.0 0.0
-0.001744412187549789 0.0008162360786928557 0.0 0.002014004694129573 0.0 0.0
-0.0012802214411179597 0.0005995836626093709 0.0 0.0019184018448702433 0.0 0.0
-0.000993565630561126 0.00048745471243399896 0.0 0.0019142395699931203 0.0 0.0
-0.0007756477286870664 0.00038447000095304107 0.0 0.0019707812965379656 0.0 0.0
-0.0005630804249490695 0.00023933805948583853 0.0 0.0020413387046953613 0.0 0.0
-0.00026101581526257606 -5.617582206264571e-05 0.0 0.0019215282299104852 0.0 0.0
9.988172758735453e-05 -0.00043796402464884275 0.0 0.001037543919651912 0.0 0.0
3.7969211881705434e-05 -0.0002989792514596634 0.0 -0.000875946130304367 0.0 0.0
-0.0003086900086916311 -6.29987883873917e-06 0.0 -0.001723401898289012 0.0 0.0
-0.0006578801404333173 0.000279187156344618 0.0 -0.0018838471169997095 0.0 0.0
-0.0009410646858707267 0.0004492004830548013 0.0 -0.001809446316153429 0.0 0.0
-0.0012338380036854557 0.0005846116711014648 0.0 -0.0017107113617898517 0.0 0.0
-0.001622302744143142 0.0007596536594933756 0.0 -0.0016849640121212317 0.0 0.0
-0.002283550795563749 0.0011327911500829124 0.0 -0.0018211944180283046 0.0 0.0
-0.003362808313512211 0.0018973506542308005 0.0 -0.002287784884943217 0.0 0.0
-0.004817026824196047 0.0030739188189788935 0.0 -0.0030419384907426628 0.0 0.0
-0.006549159568855226 0.004567960967294171 0.0 -0.0038798206486120868 0.0 0.0
-0.008571635865064917 0.006375591396691194 0.0 -0.004710163209885876 0.0 0.0
-0.011000235015921428 0.00860334595018597 0.0 -0.005581496813200859 0.0 0.0
-0.014015343259866045 0.011429221579093873 0.0 -0.006578657113623765 0.0 0.0
-0.017830218962990196 0.015059922214592847 0.0 -0.007781881572477944 0.0 0.0
-0.022589288475839533 0.0196305930444145 0.0 -0.00931760985647212 0.0 0.0
-0.028203524293559032 0.02503063769972491 0.0 -0.011434126434874847 0.0 0.0
-0.03408491994262765 0.0306348934673637 0.0 -0.014397358679657524 0.0 0.0
-0.038795740082129535 0.03496903698347409 0.0 -0.018059893643768532 0.0 0.0
-0.03976428220371149 0.03545468317700262 0.0 -0.020863341717299255 0.0 0.0
-0.03327982253338413 0.028432595811427763 0.0 -0.019765442820219414 0.0 0.0
-0.033279822533383185 0.028432595811425765 0.0 0.01976544282023951 0.0 0.0
-0.0397642822037069 0.03545468317699774 0.0 0.020863341717324235 0.0 0.0
-0.038795740082120674 0.03496903698346898 0.0 0.018059893643788044 0.0 0.0
-0.03408491994261494 0.030634893467354152 0.0 0.014397358679662575 0.0 0.0
-0.028203524293545112 0.02503063769971048 0.0 0.011434126434873626 0.0 0.0
-0.02258928847582569 0.019630593044400735 0.0 0.009317609856470066 0.0 0.0
-0.01783021896297632 0.015059922214580412 0.0 0.007781881572472754 0.0 0.0
-0.014015343259851099 0.01142922157908366 0.0 0.006578657113619407 0.0 0.0
-0.011000235015906308 0.00860334595017398 0.0 0.005581496813195447 0.0 0.0
-0.008571635865050352 0.006375591396677871 0.0 0.0047101632098763835 0.0 0.0
-0.006549159568842437 0.004567960967283291 0.0 0.0038798206486032327 0.0 0.0
-0.004817026824185423 0.003073918818971344 0.0 0.003041938490737306 0.0 0.0
-0.0033628083135050085 0.0018973506542253604 0.0 0.00228778488493922 0.0 0.0
-0.0022835507955589265 0.0011327911500800258 0.0 0.0018211944180258344 0.0 0.0
-0.0016223027441406926 0.0007596536594918213 0.0 0.0016849640121190113 0.0 0.0
-0.0012338380036841373 0.0005846116710999105 0.0 0.001710711361788575 0.0 0.0
-0.0009410646858698524 0.0004492004830541352 0.0 0.0018094463161513474 0.0 0.0
-0.0006578801404325679 0.0002791871563442849 0.0 0.0018838471169973503 0.0 0.0
-0.0003086900086913605 -6.2998788388501925e-06 0.0 0.0017234018982868193 0.0 0.0
3.7969211881629106e-05 -0.00029897925145938066 0.0 0.0008759461303030625 0.0 0.0
-1.591713368637171e-05 -0.00017977323134646395 0.0 -0.0007085306240424971 0.0 0.0
-0.0003560118190431699 4.548654382283135e-05 0.0 -0.0014901421149356997 0.0 0.0
-0.0007489624044845905 0.00031897490440357945 0.0 -0.0016756394608142267 0.0 0.0
-0.001099255271663449 0.0005085493570343713 0.0 -0.0015956513684799167 0.0 0.0
-0.0014627636083174578 0.0006774475533896096 0.0 -0.0014634794161931253 0.0 0.0
-0.0019758534633064484 0.000940609126936609 0.0 -0.0014238026437365103 0.0 0.0
-0.0028797198473156232 0.0015329638038888982 0.0 -0.0016302576770229615 0.0 0.0
-0.004268706545316456 0.002612825442797173 0.0 -0.0022053186924565205 0.0 0.0
-0.006021983562856159 0.004103527991277223 0.0 -0.0029515894412823485 0.0 0.0
-0.00809794739459492 0.005936387601610971 0.0 -0.003710568080433685 0.0 0.0
-0.010562602833766296 0.008174242497040796 0.0 -0.004495443459194004 0.0 0.0
-0.013551354967394957 0.010949158285263882 0.0 -0.005327401766486883 0.0 0.0
-0.01727642556408221 0.014467533353335726 0.0 -0.006295111938933062 0.0 0.0
-0.021970221620153857 0.01895986253560311 0.0 -0.0074970004497852405 0.0 0.0
-0.027787747977860683 0.024572960160001545 0.0 -0.00896041642402412 0.0 0.0
-0.03465388881056619 0.03119938969152325 0.0 -0.010837295654236245 0.0 0.0
-0.041898151719264115 0.03812564281921471 0.0 -0.013548850675772217 0.0 0.0
-0.04775170014447354 0.0435368871301256 0.0 -0.017306499618855276 0.0 0.0
-0.04902097590856208 0.044262927953271136 0.0 -0.02118419898690077 0.0 0.0
-0.041275571094404495 0.03596660540246521 0.0 -0.022792078816288697 0.0 0.0
-0.04127557109440254 0.035966605402460994 0.0 0.02279207881630879 0.0 0.0
-0.049020975908556065 0.04426292795326514 0.0 0.021184198986927055 0.0 0.0
-0.047751700144462825 0.04353688713011428 0.0 0.017306499618875593 0.0 0.0
-0.041898151719249474 0.03812564281920161 0.0 0.013548850675778601 0.0 0.0
-0.03465388881055012 0.03119938969151148 0.0 0.010837295654236162 0.0 0.0
-0.02778774797784412 0.024572960159987778 0.0 0.008960416424023121 0.0 0.0
-0.0219702216201373 0.018959862535589567 0.0 0.007497000449781965 0.0 0.0
-0.01727642556406444 0.014467533353319295 0.0 0.006295111938929843 0.0 0.0
-0.013551354967376597 0.010949158285248561 0.0 0.005327401766481998 0.0 0.0
-0.010562602833749463 0.00817424249702614 0.0 0.004495443459185733 0.0 0.0
-0.008097947394579558 0.0059363876015999795 0.0 0.003710568080426385 0.0 0.0
-0.006021983562843745 0.0041035279912665645 0.0 0.002951589441276936 0.0 0.0
-0.004268706545307206 0.0026128254427897346 0.0 0.0022053186924517743 0.0 0.0
-0.002879719847309222 0.0015329638038851234 0.0 0.0016302576770199917 0.0 0.0
-0.001975853463303187 0.0009406091269358319 0.0 0.001423802643734401 0.0 0.0
-0.0014627636083159763 0.0006774475533896096 0.0 0.0014634794161921122 0.0 0.0
-0.0010992552716623596 0.0005085493570338162 0.0 0.0015956513684784734 0.0 0.0
-0.0007489624044838515 0.0003189749044039403 0.0 0.0016756394608131997 0.0 0.0
-0.0003560118190429479 4.548654382315054e-05 0.0 0.001490142114934423 0.0 0.0
-1.5917133686323137e-05 -0.00017977323134641364 0.0 0.0007085306240419142 0.0 0.0
-5.960817186416445e-05 -8.26630382478738e-05 0.0 -0.0005346438997084479 0.0 0.0
-0.0003999726091131195 9.617642256043446e-05 0.0 -0.001225262839378266 0.0 0.0
-0.000836332391117342 0.00035833714116828563 0.0 -0.0014168798621193857 0.0 0.0
-0.0012517922229968448 0.0005620384770798625 0.0 -0.0013309906456991372 0.0 0.0
-0.0016857341436509327 0.0007703505307355973 0.0 -0.0011776816277350721 0.0 0.0
-0.002361108164731146 0.0011715667733616097 0.0 -0.0011578037425630794 0.0 0.0
-0.003540420936452196 0.0020317050512850265 0.0 -0.0014472534783341595 0.0 0.0
-0.00519162453966622 0.003391426932723096 0.0 -0.0020052710084440817 0.0 0.0
-0.007222250800742028 0.0051573273200656855 0.0 -0.0026335585514422055 0.0 0.0
-0.009654269315065564 0.007338798005837255 0.0 -0.003303666593598098 0.0 0.0
-0.012568885760941215 0.010014750620992885 0.0 -0.004000046664065393 0.0 0.0
-0.016134036018523604 0.013348920361013983 0.0 -0.00474613544488206 0.0 0.0
-0.02058805915194424 0.017578101026694215 0.0 -0.0056394856933318915 0.0 0.0
-0.026170196250137848 0.02293429733011143 0.0 -0.006747125545046806 0.0 0.0
-0.033013658759069975 0.029551197487217795 0.0 -0.00805967173701111 0.0 0.0
-0.0410256225860499 0.037309547141498145 0.0 -0.009544973781908106 0.0 0.0
-0.04951459234333333 0.045450876268346097 0.0 -0.011536305690184712 0.0 0.0
-0.056507915706665704 0.05194983088696681 0.0 -0.014968536901891927 0.0 0.0
-0.058277548128772144 0.05311006601238932 0.0 -0.02025608812560753 0.0 0.0
-0.04950410436845913 0.0437431503865886 0.0 -0.025825177817306644 0.0 0.0
-0.04950410436845662 0.0437431503865886 0.0 0.025825177817327072 0.0 0.0
-0.05827754812876469 0.05311006601238377 0.0 0.020256088125631788 0.0 0.0
-0.0565079157066529 0.05194983088695637 0.0 0.014968536901910634 0.0 0.0
-0.04951459234331691 0.04545087626833122 0.0 0.011536305690190984 0.0 0.0
-0.04102562258603152 0.037309547141481714 0.0 0.009544973781908578 0.0 0.0
-0.03301365875905089 0.029551197487202918 0.0 0.008059671737010388 0.0 0.0
-0.026170196250118412 0.02293429733009611 0.0 0.006747125545043781 0.0 0.0
-0.020588059151923816 0.017578101026676896 0.0 0.005639485693328283 0.0 0.0
-0.01613403601850234 0.013348920360994443 0.0 0.004746135444876204 0.0 0.0
-0.012568885760921703 0.010014750620975121 0.0 0.004000046664057663 0.0 0.0
-0.00965426931504794 0.007338798005821934 0.0 0.003303666593590951 0.0 0.0
-0.007222250800727817 0.005157327320054361 0.0 0.002633558551436835 0.0 0.0
-0.0051916245396550174 0.0033914269327136592 0.0 0.0020052710084401543 0.0 0.0
-0.003540420936444074 0.0020317050512790313 0.0 0.001447253478330926 0.0 0.0
-0.002361108164726969 0.0011715667733593893 0.0 0.0011578037425614418 0.0 0.0
-0.0016857341436492326 0.0007703505307354308 0.0 0.001177681627734406 0.0 0.0
-0.0012517922229957137 0.0005620384770789189 0.0 0.0013309906456980825 0.0 0.0
-0.0008363323911166516 0.00035833714116789706 0.0 0.0014168798621180811 0.0 0.0
-0.0003999726091128211 9.617642256014303e-05 0.0 0.0012252628393772391 0.0 0.0
-5.960817186411241e-05 -8.266303824787727e-05 0.0 0.0005346438997083092 0.0 0.0
-8.954837043460839e-05 -1.0478034372873868e-05 0.0 -0.0003562473894821172 0.0 0.0
-0.0004354809137384341 0.00014205806952674593 0.0 -0.0009309266350044643 0.0 0.0
-0.0009196025667511237 0.0003959958411323683 0.0 -0.0011052655480915108 0.0 0.0
-0.0014012971869272611 0.0006123430634363825 0.0 -0.0010173053148260502 0.0 0.0
-0.00191356439608667 0.0008767807165617203 0.0 -0.0008627303261498076 0.0 0.0
-0.002802503775646184 0.0014685237171429 0.0 -0.0008949257396022592 0.0 0.0
-0.004232248386685122 0.0025866934862636137 0.0 -0.0011792141900596187 0.0 0.0
-0.0061057452352027836 0.004185886296086183 0.0 -0.0016229028173790627 0.0 0.0
-0.00842052554234557 0.006231463795004832 0.0 -0.0021293073704511667 0.0 0.0
-0.011213178950926384 0.008764044922237924 0.0 -0.0026722985796499843 0.0 0.0
-0.01458823439864175 0.011886401583487638 0.0 -0.003242222298988129 0.0 0.0
-0.018743584499189406 0.015793822525850487 0.0 -0.0038518386737061427 0.0 0.0
-0.023942018955602398 0.0207450379273737 0.0 -0.00458407902273128 0.0 0.0
-0.03042114743589236 0.026973640744563987 0.0 -0.00554507982327046 0.0 0.0
-0.0382602186045303 0.034556798172503234 0.0 -0.006659914384110344 0.0 0.0
-0.047274161734420186 0.04329519212557531 0.0 -0.007648828399706709 0.0 0.0
-0.05677762149482446 0.052465170086924307 0.0 -0.008557400348246536 0.0 0.0
-0.06493614723913867 0.060096359145012546 0.0 -0.011070662640493167 0.0 0.0
-0.06762308119285322 0.062079951121166266 0.0 -0.01776363379581747 0.0 0.0
-0.05827284279247222 0.052030045714565265 0.0 -0.02864435363463974 0.0 0.0
-0.05827284279246938 0.052030045714565265 0.0 0.028644353634656478 0.0 0.0
-0.06762308119284435 0.062079951121157384 0.0 0.017763633795839368 0.0 0.0
-0.06493614723912353 0.06009635914499989 0.0 0.011070662640509155 0.0 0.0
-0.05677762149480604 0.0524651700869061 0.0 0.008557400348252614 0.0 0.0
-0.047274161734399175 0.04329519212555577 0.0 0.007648828399708096 0.0 0.0
-0.03826021860450906 0.03455679817248458 0.0 0.006659914384110482 0.0 0.0
-0.03042114743586982 0.02697364074454356 0.0 0.005545079823266949 0.0 0.0
-0.0239420189555793 0.020745037927351495 0.0 0.004584079022728463 0.0 0.0
-0.018743584499165414 0.015793822525829393 0.0 0.0038518386737035337 0.0 0.0
-0.014588234398619535 0.011886401583465434 0.0 0.0032422222989821614 0.0 0.0
-0.011213178950906726 0.008764044922218939 0.0 0.0026722985796436144 0.0 0.0
-0.008420525542329534 0.006231463794989955 0.0 0.0021293073704475723 0.0 0.0
-0.006105745235189815 0.004185886296075747 0.0 0.0016229028173752186 0.0 0.0
-0.004232248386675429 0.0025866934862561752 0.0 0.0011792141900572595 0.0 0.0
-0.0028025037756407405 0.001468523717138015 0.0 0.0008949257396004273 0.0 0.0
-0.001913564396084446 0.0008767807165593888 0.0 0.0008627303261485725 0.0 0.0
-0.0014012971869261578 0.0006123430634358273 0.0 0.0010173053148249955 0.0 0.0
-0.0009196025667502529 0.00039599584113184094 0.0 0.0011052655480902618 0.0 0.0
-0.00043548091373804554 0.000142058069526399 0.0 0.000930926635003021 0.0 0.0
-8.954837043459105e-05 -1.047803437282703e-05 0.0 0.00035624738948145107 0.0 0.0
-9.974464198600486e-05 3.318010253031134e-05 0.0 -0.00018000203124901581 0.0 0.0
-0.00045432792801899935 0.00017772252318756787 0.0 -0.0006071230672550221 0.0 0.0
-0.0009983788118552994 0.00043071089251101036 0.0 -0.0007333536052384626 0.0 0.0
-0.0015534714388155124 0.0006638416812571046 0.0 -0.0006593059352617558 0.0 0.0
-0.002168781521468738 0.0010250029566063468 0.0 -0.000549875927685961 0.0 0.0
-0.0032936578763090862 0.0018320767672419525 0.0 -0.000591568271727072 0.0 0.0
-0.004920751675820345 0.003171059938140486 0.0 -0.0008028453105023703 0.0 0.0
-0.007013439140893835 0.004990884750808111 0.0 -0.0011001512167638228 0.0 0.0
-0.009612068264747642 0.007317375360076039 0.0 -0.0014461079234749097 0.0 0.0
-0.012770700977054461 0.010205116940740666 0.0 -0.0018257259183781516 0.0 0.0
-0.016616577911239397 0.013782018116516692 0.0 -0.0022197484328883577 0.0 0.0
-0.021376269528364883 0.01827430245318329 0.0 -0.0026412173119488846 0.0 0.0
-0.027332380228752715 0.023961162184664708 0.0 -0.003181571418091278 0.0 0.0
-0.03470283523129786 0.031054620283620826 0.0 -0.0038768145915576424 0.0 0.0
-0.04350548355357953 0.0395661872012798 0.0 -0.004641096157829594 0.0 0.0
-0.053415111169554455 0.04916916510225566 0.0 -0.005221057860102352 0.0 0.0
-0.06363553325483984 0.05906504574503235 0.0 -0.005246600695836268 0.0 0.0
-0.072690814227805 0.06771673562590341 0.0 -0.005770100589272686 0.0 0.0
-0.07704763797400781 0.07116761841362251 0.0 -0.012732172270754183 0.0 0.0
-0.06806181560845163 0.061247880158811 0.0 -0.030636802273729113 0.0 0.0
-0.06806181560844832 0.061247880158808776 0.0 0.030636802273741798 0.0 0.0
-0.07704763797399732 0.07116761841361363 0.0 0.012732172270770448 0.0 0.0
-0.07269081422778766 0.06771673562588831 0.0 0.005770100589285204 0.0 0.0
-0.06363553325481877 0.05906504574501237 0.0 0.005246600695839182 0.0 0.0
-0.05341511116953093 0.04916916510223346 0.0 0.005221057860103323 0.0 0.0
-0.043505483553555664 0.039566187201258485 0.0 0.0046410961578306625 0.0 0.0
-0.03470283523127257 0.0310546202835984 0.0 0.003876814591556324 0.0 0.0
-0.027332380228726614 0.02396116218464206 0.0 0.0031815714180892796 0.0 0.0
-0.021376269528337963 0.018274302453159308 0.0 0.0026412173119480936 0.0 0.0
-0.01661657791121493 0.013782018116493377 0.0 0.002219748432884097 0.0 0.0
-0.012770700977032867 0.010205116940720904 0.0 0.0018257259183738078 0.0 0.0
-0.009612068264729899 0.00731737536005983 0.0 0.0014461079234727031 0.0 0.0
-0.007013439140879004 0.0049908847507947884 0.0 0.0011001512167605754 0.0 0.0
-0.004920751675809198 0.0031710599381296056 0.0 0.0008028453105008437 0.0 0.0
-0.00329365787630239 0.0018320767672359572 0.0 0.0005915682717263782 0.0 0.0
-0.0021687815214659328 0.001025002956604515 0.0 0.0005498759276858223 0.0 0.0
-0.0015534714388143207 0.0006638416812562165 0.0 0.0006593059352606456 0.0 0.0
-0.0009983788118543627 0.00043071089251014993 0.0 0.0007333536052374356 0.0 0.0
-0.00045432792801863853 0.00017772252318745685 0.0 0.0006071230672544392 0.0 0.0
-9.974464198583485e-05 3.3180102530496955e-05 0.0 0.00018000203124904357 0.0 0.0
-7.927698657764215e-05 4.305008696524337e-05 0.0 -2.124279393031503e-05 0.0 0.0
-0.00044352424614133024 0.00019523980792834905 0.0 -0.00024832865235557833 0.0 0.0
-0.0010732406072483103 0.00045965637125466863 0.0 -0.0002871117747392793 0.0 0.0
-0.0017216758494253692 0.0007353510774861793 0.0 -0.00026541647662864376 0.0 0.0
-0.002471369790241068 0.0012164560697611737 0.0 -0.00021925417476903464 0.0 0.0
-0.00380364879906242 0.002226486320405785 0.0 -0.000224460052675568 0.0 0.0
-0.005602417160212841 0.003765936614667287 0.0 -0.0003186495868225392 0.0 0.0
-0.007908710555292797 0.005799757133221006 0.0 -0.00043912287857125754 0.0 0.0
-0.010792620611932202 0.008405988246312779 0.0 -0.0005900183978288509 0.0 0.0
-0.014321640031870225 0.01165205811353065 0.0 -0.0007622377073747966 0.0 0.0
-0.018650238228037935 0.01569650094583941 0.0 -0.0009359583494689683 0.0 0.0
-0.024034332408159845 0.020791849959463704 0.0 -0.0011428075562129325 0.0 0.0
-0.030743996605039042 0.02720887948326589 0.0 -0.0013984690677747436 0.0 0.0
-0.03898308386139511 0.03514385718191648 0.0 -0.0016997111907434137 0.0 0.0
-0.048721894883214295 0.04455738069066162 0.0 -0.0020150675270096396 0.0 0.0
-0.05948016856263298 0.05497060480244276 0.0 -0.0021788662087081634 0.0 0.0
-0.07023623133462667 0.06538183940755382 0.0 -0.0019072979598253603 0.0 0.0
-0.07953245888114466 0.07436032595092379 0.0 -0.0009523131203393875 0.0 0.0
-0.08537073287458798 0.07976823622536511 0.0 -0.0032795973658628075 0.0 0.0
-0.08021945723079409 0.0723683486976141 0.0 -0.028432529271537554 0.0 0.0
-0.0802194572307906 0.07236834869760989 0.0 0.02843252927154291 0.0 0.0
-0.08537073287457578 0.0797682362253509 0.0 0.0032795973658703292 0.0 0.0
-0.0795324588811247 0.0743603259509027 0.0 0.000952313120345688 0.0 0.0
-0.07023623133460227 0.0653818394075294 0.0 0.0019072979598239725 0.0 0.0
-0.059480168562606954 0.054970604802418555 0.0 0.0021788662087080246 0.0 0.0
-0.04872189488318717 0.04455738069063675 0.0 0.002015067527009848 0.0 0.0
-0.03898308386136699 0.03514385718189117 0.0 0.001699711190744163 0.0 0.0
-0.030743996605010038 0.0272088794832408 0.0 0.001398469067773217 0.0 0.0
-0.02403433240812993 0.02079184995943839 0.0 0.001142807556213793 0.0 0.0
-0.01865023822801119 0.015696500945814318 0.0 0.000935958349465818 0.0 0.0
-0.014321640031846779 0.011652058113509 0.0 0.0007622377073736031 0.0 0.0
-0.01079262061191278 0.008405988246294793 0.0 0.0005900183978280737 0.0 0.0
-0.007908710555276345 0.0057997571332071285 0.0 0.00043912287856980037 0.0 0.0
-0.005602417160200262 0.003765936614657406 0.0 0.00031864958682117916 0.0 0.0
-0.003803648799054671 0.0022264863203992347 0.0 0.000224460052675457 0.0 0.0
-0.0024713697902373696 0.0012164560697584537 0.0 0.00021925417476875708 0.0 0.0
-0.001721675849424069 0.0007353510774850691 0.0 0.0002654164766289213 0.0 0.0
-0.001073240607247272 0.00045965637125433556 0.0 0.0002871117747394458 0.0 0.0
-0.0004435242461408827 0.00019523980792778006 0.0 0.0002483286523559114 0.0 0.0
-7.927698657742271e-05 4.3050086964924184e-05 0.0 2.1242793931036674e-05 0.0 0.0
SCALARS Statev float 8
LOOKUP_TABLE default
0.0 0.007949506208766093 0.005987309360373172 -0.006369595344138819 0.0003822859837656473 -0.0033170970901187495 0.0 0.0
0.0 0.00015627963123664897 5.9219117842537056e-05 -4.262101022659646e-05 -1.6598107615940562e-05 7.276246855962313e-05 0.0 0.0
0.0 3.342380937738801e-05 -4.754075056001044e-06 3.773145031477424e-06 9.809300245235895e-07 5.62033213615258e-07 0.0 0.0
0.0 6.464209049176463e-05 -4.12562073230763e-06 3.121898316241383e-06 1.003722416066147e-06 4.6568992060605023e-07 0.0 0.0
0.0 0.000533591963089076 0.00032015576380631277 -0.0002535149711021059 -6.664079270420738e-05 -3.909766096240873e-05 0.0 0.0
0.0 0.0014414236312715982 0.001337312376533861 -0.0010913351976414554 -0.00024597717889240553 -0.00011123088284950396 0.0 0.0
0.0 0.0031488493419091234 0.002888127782559859 -0.002456428556079782 -0.0004316992264800754 -0.00020331748476517083 0.0 0.0
0.0 0.005519518436177063 0.005001958513323521 -0.004404131476971845 -0.0005978270363516759 -0.0003156181976317071 0.0 0.0
0.0 0.008596196215447494 0.00769970668492496 -0.006963699739603959 -0.000736006945320999 -0.00045588522310613866 0.0 0.0
0.0 0.012449365024077327 0.011039049872112737 -0.01018495671013317 -0.0008540931619795669 -0.0006204090455611619 0.0 0.0
0.0 0.017282063512025117 0.015178494653605195 -0.014218516822751916 -0.0009599778308532769 -0.0007925662632846482 0.0 0.0
0.0 0.023109544690488135 0.020381734614290443 -0.01932029250123849 -0.0010614421130519466 -0.0010011630695230748 0.0 0.0
0.0 0.030540554415274035 0.026910817812064433 -0.025749382110233508 -0.0011614357018309245 -0.001254930320061696 0.0 0.0
0.0 0.039807213800795486 0.03496948123043754 -0.033706240398420795 -0.0012632408320167523 -0.001553652645863296 0.0 0.0
0.0 0.05086281501709679 0.04457258311735929 -0.04320245049311337 -0.0013701326242459057 -0.0019103822771567806 0.0 0.0
0.0 0.063350057189189 0.055379534671671435 -0.05389687089418878 -0.001482663777482665 -0.002271951765613231 0.0 0.0
0.0 0.07635329993807394 0.06662487078999427 -0.06502753570031967 -0.001597335089674576 -0.002490250952545698 0.0 0.0
0.0 0.08855340579136 0.07718133001266163 -0.07547481474227027 -0.0017065152703913203 -0.002349295929314171 0.0 0.0
0.0 0.09843335692875906 0.08573570934068334 -0.08393419634998087 -0.0018015129907024774 -0.0017996333237677434 0.0 0.0
0.0 0.1041454984800751 0.09081857479322124 -0.08892600443406179 -0.0018925703591594536 -0.0013587807886402108 0.0 0.0
0.0 0.10414549848007168 0.09081857479321837 -0.08892600443405879 -0.001892570359159527 0.0013587807886429742 0.0 0.0
0.0 0.0984333569287471 0.0857357093406729 -0.08393419634997067 -0.0018015129907022484 0.0017996333237764305 0.0 0.0
0.0 0.0885534057913401 0.07718133001264413 -0.0754748147422535 -0.0017065152703906125 0.0023492959293196255 0.0 0.0
0.0 0.07635329993804907 0.06662487078997228 -0.06502753570029858 -0.0015973350896737045 0.0024902509525494727 0.0 0.0
0.0 0.06335005718916238 0.055379534671647954 -0.053896870894166185 -0.0014826637774817833 0.0022719517656097643 0.0 0.0
0.0 0.05086281501706876 0.04457258311733485 -0.043202450493089316 -0.0013701326242455216 0.001910382277156744 0.0 0.0
0.0 0.03980721380076643 0.03496948123041218 -0.033706240398395974 -0.001263240832016204 0.0015536526458631433 0.0 0.0
0.0 0.03054055441524307 0.026910817812037385 -0.02574938211020709 -0.0011614357018302956 0.0012549303200619266 0.0 0.0
0.0 0.023109544690457888 0.020381734614263902 -0.01932029250121266 -0.0010614421130512382 0.0010011630695210588 0.0 0.0
0.0 0.017282063511998777 0.015178494653581655 -0.014218516822729298 -0.0009599778308523538 0.0007925662632840955 0.0 0.0
0.0 0.012449365024053388 0.011039049872091694 -0.010184956710112896 -0.0008540931619787917 0.0006204090455583788 0.0 0.0
0.0 0.00859619621542945 0.007699706684908501 -0.006963699739588263 -0.0007360069453202366 0.00045588522310541614 0.0 0.0
0.0 0.0055195184361630225 0.005001958513310219 -0.004404131476959422 -0.0005978270363507961 0.0003156181976306244 0.0 0.0
0.0 0.0031488493418988556 0.002888127782549892 -0.0024564285560707507 -0.00043169922647914036 0.0002033174847644293 0.0 0.0
0.0 0.0014414236312661338 0.0013373123765281778 -0.0010913351976366316 -0.00024597717889154603 0.00011123088284893781 0.0 0.0
0.0 0.0005335919630857068 0.0003201557638037882 -0.00025351497110006574 -6.664079270372246e-05 3.909766096211076e-05 0.0 0.0
0.0 6.464209049091238e-05 -4.125620732119494e-06 3.121898316099959e-06 1.0037224160195262e-06 -4.6568992062706517e-07 0.0 0.0
0.0 3.342380937687491e-05 -4.754075055922566e-06 3.7731450314146314e-06 9.80930024507978e-07 -5.620332136057866e-07 0.0 0.0
0.0 0.00015627963123553276 5.921911784213362e-05 -4.262101022632043e-05 -1.659810761581336e-05 -7.276246855903582e-05 0.0 0.0
0.0 0.007949506208753966 0.005987309360365012 -0.006369595344129617 0.00038228598376460234 0.0033170970901015154 0.0 0.0
0.0 0.005490729812330394 0.0038735553917978774 -0.004322395118212682 0.0004488397264148066 -0.0036418704629846807 0.0 0.0
0.0 0.0 0.0 0.0 0.0 0.0 0.0 0.0
0.0 9.430826945183483e-08 -1.020951514236367e-08 7.758883502814768e-09 2.450631639548195e-09 3.6392644398315674e-09 0.0 0.0
0.0 2.899390317728517e-05 -3.141631510658415e-06 2.401168849389567e-06 7.404626612686142e-07 7.688791691381306e-07 0.0 0.0
0.0 0.0002964562965093641 0.00011852253268839719 -9.359831152298176e-05 -2.492422116541546e-05 -3.452552081328901e-05 0.0 0.0
0.0 0.0009990862946746412 0.0009286929337292002 -0.0007485583199812478 -0.0001801346137479523 -0.00021269814120915853 0.0 0.0
0.0 0.0024964400438025436 0.0022880284790489994 -0.0019199995896769923 -0.0003680288893720073 -0.0004520020503217818 0.0 0.0
0.0 0.004612995422882467 0.004179881651977008 -0.003637122751224135 -0.0005427589007528723 -0.0007367002001875072 0.0 0.0
0.0 0.007348940198888815 0.006595346252401138 -0.005907373282229551 -0.0006879729701715861 -0.0010675778673251918 0.0 0.0
0.0 0.010756426843293924 0.009570390026182252 -0.008761653928426193 -0.0008087360977560581 -0.0014394946452349186 0.0 0.0
0.0 0.014985947896267391 0.013234142437553859 -0.012320230780227572 -0.0009139116573262822 -0.001837211134208035 0.0 0.0
0.0 0.0203459842546292 0.017817058333444682 -0.016806517039229734 -0.0010105412942149493 -0.0022708860455131524 0.0 0.0
0.0 0.02687236398069137 0.023607789281583143 -0.022503890704662702 -0.0011038985769204455 -0.00282173757298068 0.0 0.0
0.0 0.035104001386199145 0.030816024641417753 -0.02961773760626595 -0.0011982870351517972 -0.003522602642312031 0.0 0.0
0.0 0.0450605431656207 0.03946009510381436 -0.03816329430419731 -0.00129680079961706 -0.00434067965435277 0.0 0.0
0.0 0.05632601046535152 0.04924193234986297 -0.04784197844763209 -0.0013999539022308799 -0.005165995887662571 0.0 0.0
0.0 0.06812648575589864 0.0594798219033063 -0.057974884444179725 -0.0015049374591265658 -0.005672413805603707 0.0 0.0
0.0 0.07930011716045929 0.06916126258249788 -0.06755494276371707 -0.0016063198187808005 -0.005445178514374675 0.0 0.0
0.0 0.08836347440932803 0.07702505102903916 -0.07532322622823366 -0.0017018248008055206 -0.004368915949935238 0.0 0.0
0.0 0.09368622836721432 0.08165553431641139 -0.07988676116036625 -0.001768773156045155 -0.002481144922127053 0.0 0.0
0.0 0.09368622836721233 0.08165553431640947 -0.07988676116036457 -0.0017687731560449098 0.0024811449221377978 0.0 0.0
0.0 0.08836347440931826 0.07702505102903033 -0.07532322622822517 -0.001701824800805168 0.00436891594995298 0.0 0.0
0.0 0.0793001171604413 0.06916126258248195 -0.06755494276370143 -0.0016063198187805227 0.005445178514387321 0.0 0.0
0.0 0.06812648575587518 0.059479821903285705 -0.05797488444415941 -0.0015049374591262809 0.005672413805610802 0.0 0.0
0.0 0.05632601046532621 0.04924193234984095 -0.04784197844761057 -0.0013999539022303774 0.005165995887659508 0.0 0.0
0.0 0.04506054316559568 0.03946009510379219 -0.038163294304176205 -0.0012968007996159866 0.004340679654352861 0.0 0.0
0.0 0.03510400138617273 0.030816024641394532 -0.029617737606243547 -0.0011982870351509702 0.003522602642311514 0.0 0.0
0.0 0.026872363980664497 0.023607789281559568 -0.022503890704639783 -0.0011038985769197872 0.002821737572979719 0.0 0.0
0.0 0.020345984254602094 0.017817058333420895 -0.01680651703920637 -0.0010105412942145171 0.0022708860455093833 0.0 0.0
0.0 0.014985947896242559 0.013234142437532025 -0.0123202307802062 -0.0009139116573258239 0.0018372111342056323 0.0 0.0
0.0 0.010756426843273855 0.009570390026164187 -0.008761653928408896 -0.0008087360977552921 0.001439494645230677 0.0 0.0
0.0 0.0073489401988727325 0.006595346252386126 -0.00590737328221537 -0.0006879729701707565 0.0010675778673232773 0.0 0.0
0.0 0.004612995422870512 0.004179881651965774 -0.0036371227512137965 -0.0005427589007519768 0.0007367002001853819 0.0 0.0
0.0 0.002496440043794343 0.0022880284790408826 -0.0019199995896698589 -0.0003680288893710229 0.0004520020503203184 0.0 0.0
0.0 0.000999086294669827 0.0009286929337247418 -0.0007485583199775545 -0.00018013461374718733 0.00021269814120812065 0.0 0.0
0.0 0.00029645629650708484 0.00011852253268720514 -9.359831152203683e-05 -2.4924221165168387e-05 3.4525520812938795e-05 0.0 0.0
0.0 2.8993903176767592e-05 -3.1416315104864907e-06 2.4011688492580147e-06 7.404626612286158e-07 -7.688791690754204e-07 0.0 0.0
0.0 9.430826938068039e-08 -1.0209515134588993e-08 7.758883496907494e-09 2.4506316376819497e-09 -3.6392644370560787e-09 0.0 0.0
0.0 0.0 0.0 0.0 0.0 0.0 0.0 0.0
0.0 0.005490729812316774 0.003873555391788907 -0.004322395118202806 0.00044883972641389825 0.003641870462969732 0.0 0.0
0.0 0.0039352410401670215 0.002605658993476868 -0.003034680109499773 0.00042902111602290496 -0.003051341161835505 0.0 0.0
0.0 0.0 0.0 0.0 0.0 0.0 0.0 0.0
0.0 0.0 0.0 0.0 0.0 0.0 0.0 0.0
0.0 2.4307082921929654e-06 -2.7159244173351415e-07 2.053625051523891e-07 6.622993658110159e-08 1.4164277531911574e-07 0.0 0.0
0.0 0.00010912819161359273 2.5830784322962895e-05 -2.038375693091504e-05 -5.4470273920477675e-06 -1.3796485454194406e-05 0.0 0.0
0.0 0.000745300176076869 0.0005263526908581483 -0.00041994954227901653 -0.00010640314857913126 -0.00021345320115876272 0.0 0.0
0.0 0.001869504400092847 0.0017014430742501416 -0.001405560577772546 -0.00029588249647759517 -0.0005810735900322092 0.0 0.0
0.0 0.003724095513702427 0.0033643883342297882 -0.002888176763322744 -0.00047621157090704303 -0.0010210033402749798 0.0 0.0
0.0 0.006140890457915745 0.0054940492054687835 -0.004863925138308216 -0.0006301240671605683 -0.0015106265590891258 0.0 0.0
0.0 0.00912877692228663 0.00810849090033439 -0.0073528334446283546 -0.0007556574557060366 -0.0020481317603526085 0.0 0.0
0.0 0.012835797552116885 0.011307460477877724 -0.01044645642648373 -0.0008610040513939897 -0.0026262568600789273 0.0 0.0
0.0 0.017408025676275987 0.01529486897778016 -0.014340454064319063 -0.0009544149134611 -0.0032567279934023626 0.0 0.0
0.0 0.02331892735056667 0.020336423162190642 -0.019294250773943693 -0.0010421723882469477 -0.004013314777646998 0.0 0.0
0.0 0.030505447445648495 0.026669760325406862 -0.025540021304160252 -0.001129739021246606 -0.005006447206875048 0.0 0.0
0.0 0.03928457289323488 0.03432775274098958 -0.03310817545600661 -0.0012195772849829636 -0.006208833464931634 0.0 0.0
0.0 0.04935645335618894 0.04305799371177684 -0.04174507150945923 -0.0013129222023176008 -0.007395644895929152 0.0 0.0
0.0 0.05997360569497716 0.05228258365088054 -0.05087463193779611 -0.0014079517130844116 -0.0081452937258165 0.0 0.0
0.0 0.07008337948830315 0.06110236272801088 -0.059599112888530266 -0.0015032498394805794 -0.007932466799672654 0.0 0.0
0.0 0.07834690265476316 0.06833387136853017 -0.06674370514884964 -0.0015901662196804807 -0.006400939905843939 0.0 0.0
0.0 0.08330358244721438 0.0726956483160505 -0.07104771139174006 -0.0016479369243104227 -0.00335151071275597 0.0 0.0
0.0 0.08330358244721027 0.07269564831604677 -0.07104771139173612 -0.0016479369243106625 0.0033515107127730067 0.0 0.0
0.0 0.0783469026547542 0.06833387136852176 -0.06674370514884145 -0.0015901662196802914 0.006400939905867222 0.0 0.0
0.0 0.07008337948828901 0.06110236272799778 -0.059599112888517755 -0.0015032498394799952 0.007932466799689938 0.0 0.0
0.0 0.059973605694957945 0.05228258365086336 -0.05087463193777943 -0.0014079517130839176 0.008145293725825231 0.0 0.0
0.0 0.04935645335616705 0.043057993711757725 -0.041745071509440665 -0.0013129222023170511 0.007395644895926586 0.0 0.0
0.0 0.039284572893211196 0.034327752740969 -0.03310817545598614 -0.0012195772849828556 0.006208833464931136 0.0 0.0
0.0 0.03050544744562641 0.026669760325387457 -0.025540021304141423 -0.001129739021246028 0.005006447206873768 0.0 0.0
0.0 0.023318927350545072 0.020336423162171286 -0.019294250773925412 -0.001042172388245869 0.004013314777645639 0.0 0.0
0.0 0.017408025676252607 0.015294868977759443 -0.014340454064299462 -0.0009544149134599757 0.0032567279933979265 0.0 0.0
0.0 0.012835797552095424 0.011307460477858328 -0.010446456426465158 -0.0008610040513931682 0.0026262568600743472 0.0 0.0
0.0 0.009128776922268978 0.008108490900318349 -0.007352833444613012 -0.0007556574557053355 0.0020481317603469164 0.0 0.0
0.0 0.006140890457901034 0.0054940492054552795 -0.0048639251382955545 -0.0006301240671597233 0.0015106265590857763 0.0 0.0
0.0 0.003724095513691088 0.0033643883342191106 -0.002888176763313077 -0.000476211570906034 0.001021003340271787 0.0 0.0
0.0 0.0018695044000845784 0.00170144307424222 -0.0014055605777656913 -0.0002958824964765284 0.000581073590029936 0.0 0.0
0.0 0.0007453001760720842 0.0005263526908543946 -0.00041994954227596087 -0.00010640314857843323 0.00021345320115722887 0.0 0.0
0.0 0.00010912819161244339 2.5830784322642886e-05 -2.038375693065427e-05 -5.4470273919884955e-06 1.3796485453984118e-05 0.0 0.0
0.0 2.430708291709614e-06 -2.715924416780426e-07 2.0536250511018518e-07 6.622993656783338e-08 -1.4164277528895462e-07 0.0 0.0
0.0 0.0 0.0 0.0 0.0 0.0 0.0 0.0
0.0 0.0 0.0 0.0 0.0 0.0 0.0 0.0
0.0 0.003935241040155425 0.002605658993468927 -0.0030346801094909026 0.0004290211160219754 0.0030513411618227227 0.0 0.0
0.0 0.0027709135634695872 0.0017393786101044379 -0.0021035758970553704 0.0003641972869509322 -0.0022596645217860907 0.0 0.0
0.0 0.0 0.0 0.0 0.0 0.0 0.0 0.0
0.0 0.0 0.0 0.0 0.0 0.0 0.0 0.0
0.0 1.1217285375004458e-06 -1.148405540922369e-07 8.789999552340031e-08 2.6940558568849977e-08 1.165259803878264e-07 0.0 0.0
0.0 3.726051701150922e-05 1.501820752495572e-06 -1.1796274351853823e-06 -3.221933173100876e-07 -1.0760669099302212e-06 0.0 0.0
0.0 0.00041653317610068847 0.00024537049711612476 -0.00019404528454139455 -5.1325212574730226e-05 -0.00015181299018088374 0.0 0.0
0.0 0.0013232183802654985 0.0011364488334132197 -0.0009240456466651203 -0.00021240318674809898 -0.0005844877616312662 0.0 0.0
0.0 0.0028678987076819567 0.002563774361224156 -0.002165587958627738 -0.0003981864025964176 -0.0011583332943463109 0.0 0.0
0.0 0.0049591051806921384 0.0044044156782160025 -0.0038450930512721783 -0.0005593226269438228 -0.0017789160792634716 0.0 0.0
0.0 0.007531520302407129 0.00666196659975544 -0.0059705940214800635 -0.0006913725782753735 -0.0024472554067207853 0.0 0.0
0.0 0.010704419722942345 0.009406754840828962 -0.008607222545886514 -0.0007995322949424418 -0.003156460670701986 0.0 0.0
0.0 0.014658850607515102 0.01280871307683535 -0.011916656476775481 -0.0008920566000598657 -0.003929436229000921 0.0 0.0
0.0 0.01965543090370813 0.017116056260322053 -0.016140946488705524 -0.0009751097716165269 -0.00486259967620042 0.0 0.0
0.0 0.025998051587136528 0.02255741773924979 -0.021500649346854875 -0.001056768392394913 -0.006039557619190578 0.0 0.0
0.0 0.033722456189164945 0.02919721789868402 -0.028058757027623026 -0.0011384608710609866 -0.007465922525263857 0.0 0.0
0.0 0.042390930279171735 0.0368506079556521 -0.03562933506485253 -0.0012212728907995646 -0.00893020177139709 0.0 0.0
0.0 0.051824349643859985 0.04503980000929935 -0.04373307049967145 -0.001306729509627905 -0.009906723619433313 0.0 0.0
0.0 0.060920061309928414 0.05299198426073344 -0.05159871140384411 -0.001393272856889337 -0.00975736689541601 0.0 0.0
0.0 0.06846663386150034 0.05965317525299058 -0.05818094620262483 -0.0014722290503657483 -0.0079331679665436 0.0 0.0
0.0 0.07315598439633517 0.06384624643238415 -0.06232101943138278 -0.0015252270010013423 -0.004061456452548103 0.0 0.0
0.0 0.07315598439633299 0.06384624643238185 -0.06232101943138073 -0.0015252270010011303 0.004061456452568977 0.0 0.0
0.0 0.06846663386149243 0.05965317525298272 -0.05818094620261724 -0.0014722290503654712 0.007933167966570575 0.0 0.0
0.0 0.060920061309915216 0.052991984260721055 -0.05159871140383196 -0.0013932728568890906 0.009757366895435014 0.0 0.0
0.0 0.05182434964384413 0.04503980000928491 -0.043733070499657384 -0.0013067295096275313 0.009906723619442883 0.0 0.0
0.0 0.0423909302791535 0.036850607955636105 -0.0356293350648372 -0.0012212728907988982 0.008930201771394673 0.0 0.0
0.0 0.033722456189144906 0.029197217898666448 -0.028058757027606015 -0.001138460871060431 0.0074659225252623005 0.0 0.0
0.0 0.025998051587116246 0.022557417739231936 -0.021500649346837496 -0.0010567683923944481 0.006039557619188917 0.0 0.0
0.0 0.01965543090368725 0.01711605626030354 -0.016140946488687455 -0.0009751097716160823 0.004862599676198093 0.0 0.0
0.0 0.014658850607494923 0.012808713076817338 -0.011916656476758027 -0.0008920566000593075 0.003929436228995702 0.0 0.0
0.0 0.01070441972292363 0.009406754840812019 -0.008607222545870293 -0.0007995322949417303 0.0031564606706964383 0.0 0.0
0.0 0.007531520302391827 0.0066619665997417225 -0.0059705940214671545 -0.000691372578274565 0.0024472554067141747 0.0 0.0
0.0 0.0049591051806802434 0.00440441567820503 -0.003845093051262056 -0.0005593226269429735 0.0017789160792597294 0.0 0.0
0.0 0.0028678987076725913 0.0025637743612154495 -0.002165587958619955 -0.00039818640259549386 0.001158333294342526 0.0 0.0
0.0 0.0013232183802590143 0.0011364488334074817 -0.0009240456466602823 -0.00021240318674719933 0.00058448776162871 0.0 0.0
0.0 0.00041653317609729274 0.00024537049711420317 -0.00019404528453986056 -5.132521257434266e-05 0.00015181299017968236 0.0 0.0
0.0 3.726051701063097e-05 1.5018207526232575e-06 -1.179627435283719e-06 -3.22193317339637e-07 1.0760669100329464e-06 0.0 0.0
0.0 1.1217285373393579e-06 -1.1484055407491507e-07 8.789999551013864e-08 2.6940558564774134e-08 -1.1652598037014098e-07 0.0 0.0
0.0 0.0 0.0 0.0 0.0 0.0 0.0 0.0
0.0 0.0 0.0 0.0 0.0 0.0 0.0 0.0
0.0 0.002770913563459437 0.0017393786100979459 -0.0021035758970479983 0.00036419728695005185 0.0022596645217761663 0.0 0.0
0.0 0.001855397467558114 0.0011064661667362114 -0.001384799109672319 0.00027833294293610735 -0.001519518199712484 0.0 0.0
0.0 0.0 0.0 0.0 0.0 0.0 0.0 0.0
0.0 0.0 0.0 0.0 0.0 0.0 0.0 0.0
0.0 0.0 0.0 0.0 0.0 0.0 0.0 0.0
0.0 1.344433100594441e-05 -1.2301948606406719e-06 9.303464705640319e-07 2.998483900765975e-07 1.5683849110324484e-06 0.0 0.0
0.0 0.0001802269547858764 8.128028904669045e-05 -6.42624878013519e-05 -1.701780124533875e-05 -8.035629840369562e-05 0.0 0.0
0.0 0.0009150563956552779 0.0006317072080809118 -0.0005056415424579115 -0.0001260656656229999 -0.0004589594427639966 0.0 0.0
0.0 0.0020937540986887514 0.0017781011723935038 -0.001472718684889618 -0.0003053824875038859 -0.0011107554794337786 0.0 0.0
0.0 0.003813227406592655 0.0033362772790737263 -0.0028634291132717503 -0.00047284816580197425 -0.0018607182027570591 0.0 0.0
0.0 0.005985312987606607 0.005237657548785689 -0.004625041844258231 -0.0006126157045274587 -0.0026262188468630025 0.0 0.0
0.0 0.008649652144861509 0.0075373609290208515 -0.006811329273645899 -0.0007260316553749505 -0.0034291061348872913 0.0 0.0
0.0 0.011938709933738998 0.010369652937999674 -0.009549871890490547 -0.0008197810475091278 -0.0042936085535448315 0.0 0.0
0.0 0.01617059611762228 0.013950335763037247 -0.013048845284008934 -0.000901490479028311 -0.005314365168603019 0.0 0.0
0.0 0.02140353906613505 0.018502809682936716 -0.017525403820862734 -0.0009774058620739753 -0.006619626276931126 0.0 0.0
0.0 0.027957580796121068 0.024109602531626834 -0.023058267065616984 -0.0010513354660098484 -0.008179410719427955 0.0 0.0
0.0 0.03565977789442981 0.03064664172372989 -0.02952114849413062 -0.001125493229599259 -0.009753967525169096 0.0 0.0
0.0 0.043718396176709765 0.037759125747033634 -0.036559262894535705 -0.001199862852497929 -0.010895863273551838 0.0 0.0
0.0 0.051717078231093734 0.044824311590429475 -0.04354839395890311 -0.0012759176315263639 -0.01089599951066055 0.0 0.0
0.0 0.05859966977942693 0.05094644606784221 -0.04959918221769277 -0.0013472638501494502 -0.008994016321793563 0.0 0.0
0.0 0.06310829239626917 0.05503620097870822 -0.05363837111834126 -0.0013978298603669673 -0.004641099378465607 0.0 0.0
0.0 0.06310829239626792 0.055036200978706644 -0.05363837111833969 -0.0013978298603669027 0.00464109937848704 0.0 0.0
0.0 0.05859966977942032 0.050946446067835265 -0.04959918221768568 -0.001347263850149569 0.008994016321821629 0.0 0.0
0.0 0.051717078231082084 0.04482431159041814 -0.04354839395889178 -0.0012759176315263357 0.010895999510680404 0.0 0.0
0.0 0.043718396176696414 0.0377591257470211 -0.0365592628945237 -0.001199862852497402 0.01089586327356144 0.0 0.0
0.0 0.035659777894413325 0.030646641723715402 -0.02952114849411654 -0.0011254932295988646 0.009753967525167233 0.0 0.0
0.0 0.027957580796104196 0.02410960253161195 -0.02305826706560254 -0.0010513354660094054 0.008179410719425576 0.0 0.0
0.0 0.021403539066118884 0.018502809682922425 -0.017525403820848887 -0.0009774058620735345 0.0066196262769291645 0.0 0.0
0.0 0.01617059611760507 0.013950335763021847 -0.0130488452839938 -0.0009014904790280451 0.005314365168600577 0.0 0.0
0.0 0.011938709933721935 0.010369652937984423 -0.009549871890475917 -0.0008197810475085007 0.004293608553539326 0.0 0.0
0.0 0.00864965214484536 0.007537360929006552 -0.00681132927363225 -0.0007260316553743015 0.0034291061348803056 0.0 0.0
0.0 0.005985312987592881 0.005237657548773829 -0.004625041844247266 -0.000612615704526562 0.0026262188468550657 0.0 0.0
0.0 0.003813227406581561 0.003336277279063694 -0.00286342911326262 -0.00047284816580107295 0.001860718202752124 0.0 0.0
0.0 0.0020937540986801623 0.0017781011723860575 -0.0014727186848831808 -0.0003053824875028762 0.0011107554794295023 0.0 0.0
0.0 0.0009150563956499458 0.0006317072080768754 -0.0005056415424546146 -0.0001260656656222609 0.0004589594427613691 0.0 0.0
0.0 0.00018022695478392753 8.12802890458858e-05 -6.426248780071241e-05 -1.7017801245173417e-05 8.035629840290017e-05 0.0 0.0
0.0 1.3444331005540514e-05 -1.2301948604763596e-06 9.303464704358364e-07 2.998483900406031e-07 -1.5683849108186362e-06 0.0 0.0
0.0 0.0 0.0 0.0 0.0 0.0 0.0 0.0
0.0 0.0 0.0 0.0 0.0 0.0 0.0 0.0
0.0 0.0 0.0 0.0 0.0 0.0 0.0 0.0
0.0 0.001855397467550062 0.001106466166731341 -0.0013847991096665934 0.00027833294293525224 0.0015195181997050755 0.0 0.0
0.0 0.0011192010389732448 0.0006408306903199495 -0.0008289302617288635 0.00018809957140891392 -0.0009130449029737925 0.0 0.0
0.0 0.0 0.0 0.0 0.0 0.0 0.0 0.0
0.0 0.0 0.0 0.0 0.0 0.0 0.0 0.0
0.0 0.0 0.0 0.0 0.0 0.0 0.0 0.0
0.0 1.0042081989473157e-05 -9.329724215854319e-07 7.201815348631364e-07 2.1279088672229382e-07 1.7612736881375419e-06 0.0 0.0
0.0 6.194062287021e-05 3.0907408627413455e-05 -2.4433266104730436e-05 -6.4741425226830045e-06 -4.7496869037247845e-05 0.0 0.0
0.0 0.0004594882582128466 0.00029259527051335855 -0.00023133529372720916 -6.125997678614916e-05 -0.00031388265339318724 0.0 0.0
0.0 0.0013889136766036523 0.001060612492681416 -0.0008604964605059444 -0.00020011603217547156 -0.0009103077677201046 0.0 0.0
0.0 0.0027541404315069283 0.002292883583626107 -0.0019256652702369422 -0.0003672183133891644 -0.0017118865958613342 0.0 0.0
0.0 0.004499638861198273 0.0038469733280555598 -0.0033329569812091185 -0.0005140163468464403 -0.0025690652268390607 0.0 0.0
0.0 0.006645010049744014 0.005708770606772041 -0.0050745917571806375 -0.0006341788495914029 -0.0034253586365583363 0.0 0.0
0.0 0.009312851938731421 0.00798555042669599 -0.007252411202622928 -0.0007331392240730619 -0.0043346834009634905 0.0 0.0
0.0 0.0126910689429446 0.010857418996223136 -0.010041034286542848 -0.0008163847096802898 -0.005395325008764081 0.0 0.0
0.0 0.01701276353683151 0.014520923007180171 -0.013630971601278557 -0.0008899514059016068 -0.006709594837609689 0.0 0.0
0.0 0.02243331296908911 0.01908465921799905 -0.01812702792405403 -0.0009576312939450172 -0.00829143105374492 0.0 0.0
0.0 0.02860481315008391 0.024488520281282837 -0.02346594826177553 -0.0010225720195073027 -0.00992495027470347 0.0 0.0
0.0 0.03562082749396131 0.030469641197188358 -0.029383117326380995 -0.0010865238708073527 -0.011129156215159215 0.0 0.0
0.0 0.04263016150733154 0.03659171127333814 -0.0354412814426727 -0.0011504298306654144 -0.01127402333145984 0.0 0.0
0.0 0.04867829963327085 0.04216737395562068 -0.04095416568023981 -0.0012132082753808452 -0.009539566039894233 0.0 0.0
0.0 0.05305412439849903 0.04619738034390333 -0.044934437694929344 -0.0012629426489740017 -0.005091722148012736 0.0 0.0
0.0 0.0530541243984961 0.046197380343900356 -0.044934437694926166 -0.001262942648974205 0.005091722148032824 0.0 0.0
0.0 0.04867829963326381 0.042167373955613034 -0.04095416568023208 -0.0012132082753809606 0.009539566039921015 0.0 0.0
0.0 0.04263016150732295 0.036591711273329025 -0.035441281442663924 -0.0011504298306650959 0.011274023331479064 0.0 0.0
0.0 0.035620827493951054 0.030469641197178526 -0.02938311732637166 -0.0010865238708068525 0.011129156215167406 0.0 0.0
0.0 0.028604813150071535 0.024488520281271953 -0.02346594826176533 -0.001022572019506613 0.0099249502747011 0.0 0.0
0.0 0.02243331296907542 0.01908465921798693 -0.018127027924042496 -0.0009576312939444308 0.008291431053741681 0.0 0.0
0.0 0.017012763536818333 0.014520923007168292 -0.013630971601267215 -0.0008899514059010793 0.006709594837607307 0.0 0.0
0.0 0.012691068942932884 0.010857418996212504 -0.010041034286532953 -0.0008163847096795488 0.005395325008761854 0.0 0.0
0.0 0.009312851938719103 0.007985550426685235 -0.007252411202612835 -0.000733139224072403 0.004334683400958458 0.0 0.0
0.0 0.00664501004973201 0.005708770606761574 -0.005074591757170955 -0.0006341788495906203 0.0034253586365520427 0.0 0.0
0.0 0.004499638861187989 0.0038469733280466194 -0.0033329569812010126 -0.0005140163468456058 0.002569065226831844 0.0 0.0
0.0 0.0027541404314984455 0.0022928835836185458 -0.0019256652702302173 -0.0003672183133883287 0.0017118865958564572 0.0 0.0
0.0 0.0013889136765968106 0.0010606124926758396 -0.0008604964605012517 -0.0002001160321745876 0.0009103077677158815 0.0 0.0
0.0 0.00045948825820933675 0.0002925952705110647 -0.0002313352937253683 -6.125997678569633e-05 0.00031388265339104074 0.0 0.0
0.0 6.194062286909776e-05 3.090740862729454e-05 -2.4433266104636276e-05 -6.474142522658303e-06 4.749686903706123e-05 0.0 0.0
0.0 1.0042081989081814e-05 -9.329724215460563e-07 7.201815348328094e-07 2.127908867132563e-07 -1.7612736880608109e-06 0.0 0.0
0.0 0.0 0.0 0.0 0.0 0.0 0.0 0.0
0.0 0.0 0.0 0.0 0.0 0.0 0.0 0.0
0.0 0.0 0.0 0.0 0.0 0.0 0.0 0.0
0.0 0.0011192010389670611 0.0006408306903164221 -0.0008289302617245785 0.00018809957140815634 0.0009130449029684576 0.0 0.0
0.0 0.0005966769550803785 0.00031051592345221127 -0.0004137369155822313 0.00010322099213002 -0.0004569694216665634 0.0 0.0
0.0 0.0 0.0 0.0 0.0 0.0 0.0 0.0
0.0 0.0 0.0 0.0 0.0 0.0 0.0 0.0
0.0 0.0 0.0 0.0 0.0 0.0 0.0 0.0
0.0 3.1613189767086014e-06 -2.2524151938286448e-07 1.7083701737073144e-07 5.440450201212877e-08 5.898380239102724e-07 0.0 0.0
0.0 3.4679138395659913e-05 1.3170134550529032e-06 -1.0692419503009286e-06 -2.477715047520011e-07 -2.4741422790689416e-06 0.0 0.0
0.0 0.00019263351923518552 9.963670819817054e-05 -7.865153594088624e-05 -2.0985172257284273e-05 -0.0001713032764444391 0.0 0.0
0.0 0.0007522343895512812 0.0005025818786866103 -0.00039994468972339987 -0.00010263718896320999 -0.0006254996635745618 0.0 0.0
0.0 0.0017581735968687034 0.0013279091165961214 -0.001086953530113891 -0.00024095558648223002 -0.0013472304578033762 0.0 0.0
0.0 0.0030850582698517945 0.0025035440209745198 -0.0021146328730558073 -0.0003889111479187128 -0.0022247429806224617 0.0 0.0
0.0 0.004729039741028636 0.003934098752367894 -0.00341922933858429 -0.0005148694137836032 -0.003128083592263378 0.0 0.0
0.0 0.0067684272163183856 0.0056699162291595565 -0.005047887748157012 -0.0006220284810025457 -0.004042688638363075 0.0 0.0
0.0 0.00937252937870332 0.007849722474443507 -0.007138327938291996 -0.0007113945361515089 -0.005075729314664562 0.0 0.0
0.0 0.012669127334031806 0.010643560559426484 -0.009856163324383115 -0.000787397235043362 -0.0063336092833693 0.0 0.0
0.0 0.01685891231161035 0.014159990804905494 -0.013308412665898937 -0.000851578139006551 -0.007823532909772103 0.0 0.0
0.0 0.02186935971165084 0.018398787911306898 -0.01748822628875065 -0.0009105616225562374 -0.009373349527483239 0.0 0.0
0.0 0.027413035628371094 0.02320776927270365 -0.02224347901773794 -0.0009642902549657087 -0.010603102846415594 0.0 0.0
0.0 0.03322015508921752 0.028312880977269562 -0.027298191168944844 -0.001014689808324724 -0.010919181712067693 0.0 0.0
0.0 0.03880128810693518 0.03327100310221615 -0.032204193260205766 -0.001066809842010371 -0.009534953300535495 0.0 0.0
0.0 0.04312896203134036 0.03725423581216745 -0.036136989742108994 -0.0011172460700584583 -0.005395128604850765 0.0 0.0
0.0 0.04312896203133867 0.037254235812165346 -0.03613698974210708 -0.001117246070058268 0.00539512860486854 0.0 0.0
0.0 0.03880128810693204 0.03327100310221158 -0.03220419326020138 -0.0010668098420101835 0.009534953300560438 0.0 0.0
0.0 0.03322015508921192 0.02831288097726286 -0.027298191168938276 -0.0010146898083245783 0.010919181712085566 0.0 0.0
0.0 0.027413035628362125 0.023207769272694842 -0.022243479017729495 -0.0009642902549653557 0.01060310284642145 0.0 0.0
0.0 0.021869359711639166 0.01839878791129678 -0.017488226288740853 -0.0009105616225559228 0.009373349527479945 0.0 0.0
0.0 0.016858912311598927 0.014159990804895727 -0.013308412665889403 -0.0008515781390063256 0.007823532909767578 0.0 0.0
0.0 0.012669127334022177 0.010643560559417911 -0.009856163324374924 -0.0007873972350429812 0.00633360928336695 0.0 0.0
0.0 0.009372529378692904 0.007849722474434221 -0.007138327938283186 -0.0007113945361510346 0.005075729314661756 0.0 0.0
0.0 0.0067684272163091586 0.00566991622915144 -0.005047887748149673 -0.0006220284810017636 0.00404268863835803 0.0 0.0
0.0 0.0047290397410186605 0.003934098752359515 -0.0034192293385766795 -0.0005148694137828348 0.0031280835922567387 0.0 0.0
0.0 0.003085058269842136 0.0025035440209667226 -0.002114632873048923 -0.00038891114791779865 0.0022247429806145982 0.0 0.0
0.0 0.0017581735968619733 0.0013279091165908903 -0.0010869535301094833 -0.00024095558648140657 0.0013472304577990296 0.0 0.0
0.0 0.0007522343895466981 0.0005025818786834236 -0.00039994468972087444 -0.00010263718896254983 0.0006254996635712306 0.0 0.0
0.0 0.00019263351923343232 9.963670819740307e-05 -7.865153594028003e-05 -2.0985172257122882e-05 0.00017130327644325756 0.0 0.0
0.0 3.4679138394878725e-05 1.3170134550162444e-06 -1.069241950270582e-06 -2.477715047456042e-07 2.474142278996361e-06 0.0 0.0
0.0 3.161318976189613e-06 -2.2524151934812776e-07 1.7083701734378719e-07 5.4404502004334224e-08 -5.898380238126453e-07 0.0 0.0
0.0 0.0 0.0 0.0 0.0 0.0 0.0 0.0
0.0 0.0 0.0 0.0 0.0 0.0 0.0 0.0
0.0 0.0 0.0 0.0 0.0 0.0 0.0 0.0
0.0 0.0005966769550762969 0.0003105159234502289 -0.0004137369155797218 0.00010322099212949288 0.0004569694216635204 0.0 0.0
0.0 0.0002559074352970512 0.00010375144521988471 -0.0001431339638575255 3.9382518637641e-05 -0.0001541120397398767 0.0 0.0
0.0 9.021725963171627e-08 -5.274566123778698e-10 6.099197200343717e-10 -8.24631076566411e-11 1.7958020711408732e-08 0.0 0.0
0.0 0.0 0.0 0.0 0.0 0.0 0.0 0.0
0.0 0.0 0.0 0.0 0.0 0.0 0.0 0.0
0.0 2.941446764786285e-06 -1.3952363807393717e-07 1.0592787567314353e-07 3.3595762400780106e-08 5.885360677433528e-07 0.0 0.0
0.0 2.1082107514474624e-05 9.159236122415614e-07 -6.781533928343186e-07 -2.377702194072428e-07 -2.113100379417598e-06 0.0 0.0
0.0 9.54756603944472e-05 3.361378995498242e-05 -2.6341560757018443e-05 -7.272229197964005e-06 -9.072547145379038e-05 0.0 0.0
0.0 0.00031639829660406793 0.0001612890807400761 -0.00012672545393916464 -3.4563626800911515e-05 -0.00033810541821453684 0.0 0.0
0.0 0.0009015465131442214 0.0005470626447837347 -0.0004363294590712241 -0.00011073318571251035 -0.0008483333212292161 0.0 0.0
0.0 0.0017232692006704535 0.0012764875169939862 -0.0010436416377720792 -0.00023284587922190662 -0.0016152827525174255 0.0 0.0
0.0 0.002958394112733403 0.0022448969911713123 -0.0018897385624587594 -0.0003551584287125519 -0.0024713048057660074 0.0 0.0
0.0 0.004354116897128451 0.0034495662420954676 -0.0029817254656174146 -0.00046784077647805315 -0.003368606940580585 0.0 0.0
0.0 0.00615228729500846 0.004959230073234613 -0.004391621167747228 -0.0005676089054873835 -0.004342806343700138 0.0 0.0
0.0 0.008501232640761133 0.006900779546838025 -0.0062481746677849875 -0.0006526048790530361 -0.005469325292170138 0.0 0.0
0.0 0.011544000874409053 0.009378038086874589 -0.008655393464870476 -0.0007226446220041152 -0.0067703945297734 0.0 0.0
0.0 0.015194676737867225 0.012430833641038919 -0.011652058511017714 -0.0007787751300212043 -0.008141303199057478 0.0 0.0
0.0 0.019459151226485043 0.016016322243886827 -0.015189162114620312 -0.0008271601292665134 -0.009271124266674199 0.0 0.0
0.0 0.02394990184431709 0.020013690630883135 -0.019146640018007567 -0.0008670506128755616 -0.00972060429366129 0.0 0.0
0.0 0.028543456303777803 0.024234149500149453 -0.02333183255088593 -0.0009023169492635075 -0.008898060583198617 0.0 0.0
0.0 0.032678790670781 0.028138189314842483 -0.02718646222012077 -0.0009517270947217136 -0.005525026747921354 0.0 0.0
0.0 0.03267879067078053 0.02813818931484137 -0.027186462220119535 -0.0009517270947218248 0.005525026747935669 0.0 0.0
0.0 0.028543456303775763 0.02423414950014588 -0.023331832550882236 -0.0009023169492636439 0.008898060583218806 0.0 0.0
0.0 0.023949901844313008 0.020013690630877705 -0.019146640018002557 -0.0008670506128751504 0.009720604293675588 0.0 0.0
0.0 0.01945915122647924 0.016016322243880908 -0.015189162114614869 -0.0008271601292660377 0.009271124266678709 0.0 0.0
0.0 0.015194676737860121 0.012430833641032969 -0.011652058511012175 -0.0007787751300207925 0.008141303199054149 0.0 0.0
0.0 0.011544000874401088 0.009378038086867966 -0.008655393464864209 -0.0007226446220037542 0.006770394529769621 0.0 0.0
0.0 0.008501232640755675 0.006900779546833226 -0.006248174667780526 -0.000652604879052701 0.0054693252921687975 0.0 0.0
0.0 0.006152287295002717 0.0049592300732294314 -0.004391621167742419 -0.0005676089054870109 0.00434280634369852 0.0 0.0
0.0 0.004354116897120381 0.003449566242088744 -0.00298172546561118 -0.00046784077647756396 0.003368606940575723 0.0 0.0
0.0 0.0029583941127260534 0.002244896991165469 -0.0018897385624536197 -0.00035515842871184836 0.002471304805760086 0.0 0.0
0.0 0.0017232692006639212 0.0012764875169892927 -0.001043641637768127 -0.00023284587922116554 0.001615282752511597 0.0 0.0
0.0 0.0009015465131410847 0.0005470626447817209 -0.0004363294590695691 -0.00011073318571215197 0.0008483333212266112 0.0 0.0
0.0 0.0003163982966023828 0.00016128908073921288 -0.0001267254539384814 -3.4563626800731375e-05 0.00033810541821311074 0.0 0.0
0.0 9.547566039331827e-05 3.36137899548087e-05 -2.634156075688021e-05 -7.272229197928529e-06 9.072547145332763e-05 0.0 0.0
0.0 2.108210751399386e-05 9.159236122484717e-07 -6.781533928402798e-07 -2.3777021940816918e-07 2.113100379460016e-06 0.0 0.0
0.0 2.9414467642801842e-06 -1.3952363805020315e-07 1.0592787565476392e-07 3.359576239544616e-08 -5.885360676368125e-07 0.0 0.0
0.0 0.0 0.0 0.0 0.0 0.0 0.0 0.0
0.0 0.0 0.0 0.0 0.0 0.0 0.0 0.0
0.0 9.021725939530122e-08 -5.274566109826295e-10 6.099197184208691e-10 -8.246310743827494e-11 -1.7958020663926448e-08 0.0 0.0
0.0 0.00025590743529464456 0.00010375144521910269 -0.00014313396385646335 3.9382518637360906e-05 0.00015411203973882424 0.0 0.0
0.0 5.938347923395986e-05 1.971804822424287e-05 -2.832066238804781e-05 8.602614163804992e-06 -3.139865415554672e-05 0.0 0.0
0.0 1.6538167115190833e-06 -2.748905065804631e-09 7.58763272979475e-09 -4.838727663989611e-09 3.533900715791832e-07 0.0 0.0
0.0 0.0 0.0 0.0 0.0 0.0 0.0 0.0
0.0 0.0 0.0 0.0 0.0 0.0 0.0 0.0
0.0 3.0628381032312882e-06 -6.90575449801798e-08 5.370267077264668e-08 1.5354874207528902e-08 6.580753880870616e-07 0.0 0.0
0.0 1.669848219022137e-05 -6.754141313248215e-07 5.129785862136518e-07 1.624355451111653e-07 4.126874192703304e-06 0.0 0.0
0.0 6.465369544021081e-05 1.187654159446402e-05 -9.351762455106588e-06 -2.5247791393573977e-06 -5.6511808485893245e-05 0.0 0.0
0.0 0.00015237841705097844 5.429163809978732e-05 -4.268338050400155e-05 -1.1608257595785771e-05 -0.0002179734585992057 0.0 0.0
0.0 0.00036050053295151114 0.00013765872568491922 -0.00010854188350556206 -2.911684217935715e-05 -0.00043748233895328574 0.0 0.0
0.0 0.0007067035524249485 0.0003527861218717522 -0.0002787602462569301 -7.40258756148222e-05 -0.0008666508463523453 0.0 0.0
0.0 0.0012834951821383803 0.0007936166268893289 -0.0006386964873232805 -0.00015492013956604819 -0.0015148799560509715 0.0 0.0
0.0 0.002153947805495102 0.0014210480385902365 -0.0011726598464241848 -0.00024838819216605157 -0.0022735478524133677 0.0 0.0
0.0 0.0032425814845702975 0.002260219275381797 -0.0019131884574797998 -0.0003470308179019965 -0.003159643154940666 0.0 0.0
0.0 0.0046715127307201025 0.003371079104234714 -0.002928308642885247 -0.0004427704613494673 -0.004140041665454596 0.0 0.0
0.0 0.0065127267874826485 0.004823025140743349 -0.004295839078204588 -0.0005271860625387602 -0.005214025389252296 0.0 0.0
0.0 0.008817600026235186 0.006675585989760036 -0.006080671144832461 -0.0005949148449275746 -0.006337382370398487 0.0 0.0
0.0 0.011666419535107754 0.00899065155557512 -0.008344065121671487 -0.0006465864339036334 -0.007351024266792842 0.0 0.0
0.0 0.014930776576058484 0.011796653997625042 -0.011105108000280122 -0.0006915459973449246 -0.007840517060381292 0.0 0.0
0.0 0.018579085355126358 0.015083680258047436 -0.014369083325951973 -0.0007145969320954682 -0.007505927183415754 0.0 0.0
0.0 0.022376853124522925 0.0187598237845003 -0.018007627570857603 -0.0007521962136427028 -0.005359631791049354 0.0 0.0
0.0 0.02237685312452401 0.018759823784500425 -0.018007627570857755 -0.0007521962136426781 0.005359631791060124 0.0 0.0
0.0 0.018579085355127076 0.015083680258046087 -0.01436908332595078 -0.0007145969320953005 0.00750592718343231 0.0 0.0
0.0 0.014930776576057923 0.011796653997622615 -0.011105108000278073 -0.0006915459973445419 0.007840517060393196 0.0 0.0
0.0 0.011666419535104472 0.008990651555571685 -0.008344065121668433 -0.0006465864339032516 0.007351024266794898 0.0 0.0
0.0 0.00881760002623046 0.006675585989756568 -0.006080671144829509 -0.0005949148449270594 0.006337382370394834 0.0 0.0
0.0 0.006512726787477305 0.0048230251407394165 -0.004295839078200966 -0.0005271860625384484 0.005214025389247999 0.0 0.0
0.0 0.00467151273071543 0.0033710791042306236 -0.0029283086428815537 -0.0004427704613490699 0.004140041665452851 0.0 0.0
0.0 0.0032425814845673017 0.0022602192753792064 -0.0019131884574774848 -0.0003470308179017206 0.0031596431549387708 0.0 0.0
0.0 0.0021539478054908683 0.0014210480385871375 -0.0011726598464216575 -0.00024838819216547927 0.0022735478524100405 0.0 0.0
0.0 0.0012834951821337182 0.0007936166268863905 -0.0006386964873208574 -0.0001549201395655329 0.001514879956046039 0.0 0.0
0.0 0.0007067035524217415 0.0003527861218703091 -0.00027876024625576585 -7.40258756145432e-05 0.0008666508463486215 0.0 0.0
0.0 0.00036050053295035467 0.0001376587256844421 -0.00010854188350521124 -2.911684217923076e-05 0.00043748233895201207 0.0 0.0
0.0 0.00015237841704993885 5.42916380994749e-05 -4.268338050375494e-05 -1.1608257595719953e-05 0.00021797345859807737 0.0 0.0
0.0 6.465369543953032e-05 1.1876541594344567e-05 -9.351762455009755e-06 -2.5247791393347836e-06 5.6511808485336975e-05 0.0 0.0
0.0 1.6698482189740015e-05 -6.75414131304937e-07 5.129785861990805e-07 1.624355451058679e-07 -4.126874192569552e-06 0.0 0.0
0.0 3.062838102718457e-06 -6.905754496692381e-08 5.3702670762761436e-08 1.535487420416051e-08 -6.580753879724068e-07 0.0 0.0
0.0 0.0 0.0 0.0 0.0 0.0 0.0 0.0
0.0 0.0 0.0 0.0 0.0 0.0 0.0 0.0
0.0 1.65381671108306e-06 -2.7489050652915605e-09 7.587632727915323e-09 -4.8387276626236715e-09 -3.5339007148384286e-07 0.0 0.0
0.0 5.9383479232587435e-05 1.9718048224065112e-05 -2.832066238778703e-05 8.602614163721917e-06 3.139865415533463e-05 0.0 0.0
0.0 7.926091410215743e-06 -4.4713923387902977e-07 6.299904879433938e-07 -1.8285125406435732e-07 9.657384465714216e-07 0.0 0.0
0.0 2.1979396482406107e-06 1.1868574056845524e-09 1.0883559240507842e-08 -1.207041664619258e-08 4.588111399241068e-07 0.0 0.0
0.0 8.28283976103979e-07 8.757322001854407e-09 -7.994197467743662e-09 -7.631245341108108e-10 1.6872916499049268e-07 0.0 0.0
0.0 1.0341171999299922e-06 3.4830124123105497e-09 -4.631541757330647e-09 1.1485293450206947e-09 2.129476539670559e-07 0.0 0.0
0.0 5.455561020512527e-06 -1.877319191668789e-08 9.400339741409076e-09 9.372852175272426e-09 1.2338249442580408e-06 0.0 0.0
0.0 1.2649162497038722e-05 -1.4081635774303978e-07 1.0163524973800948e-07 3.918110800504046e-08 3.1244596390103373e-06 0.0 0.0
0.0 4.719694036452408e-05 3.5174650349853227e-06 -2.7585240933040297e-06 -7.589409416812948e-07 -5.316147695596634e-05 0.0 0.0
0.0 0.00013394107212594635 1.187715605974306e-05 -9.30621625538141e-06 -2.5709398043616155e-06 -0.00014280509411307923 0.0 0.0
0.0 0.00022398965696268148 3.226394388096813e-05 -2.5348916684028918e-05 -6.915027196939218e-06 -0.0003196914608987367 0.0 0.0
0.0 0.00039531714794015086 6.259989943252919e-05 -4.93006153169096e-05 -1.3299284115619573e-05 -0.0005244751668939758 0.0 0.0
0.0 0.0005333875105600492 0.00011896006357141692 -9.440562944617304e-05 -2.4554434125243873e-05 -0.0008848656743594577 0.0 0.0
0.0 0.0008082717594482018 0.0001971280054334371 -0.0001579218578703099 -3.920614756312707e-05 -0.0013305131520781905 0.0 0.0
0.0 0.0012123768767507682 0.00034218753867957814 -0.00027415381995769545 -6.803371872188263e-05 -0.0019466042980774683 0.0 0.0
0.0 0.0018143383538814315 0.0005885739153361498 -0.0004737134599869073 -0.00011486045534924227 -0.002765336409708765 0.0 0.0
0.0 0.002608112007201484 0.0009592184215979456 -0.0007813734593455743 -0.00017784496225237105 -0.0037871587843784065 0.0 0.0
0.0 0.0036596771480483614 0.0015207296790192355 -0.0012720633312894702 -0.000248666347729765 -0.0049363768977555575 0.0 0.0
0.0 0.005076157475104466 0.002475794262269067 -0.0021630676866150485 -0.0003127265756540179 -0.006018623384017294 0.0 0.0
0.0 0.006923557592951365 0.004010825141099154 -0.00362739664456699 -0.0003834284965321629 -0.006588852742824292 0.0 0.0
0.0 0.009231759855908206 0.006185562895287586 -0.005728219583590931 -0.0004573433116966533 -0.0062441204742109254 0.0 0.0
0.0 0.012269087866445767 0.009201335897055421 -0.008740034857724219 -0.00046130103933119776 -0.005090297447155172 0.0 0.0
0.0 0.012269087866447235 0.009201335897055896 -0.00874003485772492 -0.0004613010393309745 0.005090297447162693 0.0 0.0
0.0 0.009231759855908066 0.006185562895285565 -0.005728219583589005 -0.00045734331169655754 0.006244120474222764 0.0 0.0
0.0 0.006923557592949917 0.004010825141096828 -0.0036273966445646622 -0.00038342849653216456 0.006588852742829894 0.0 0.0
0.0 0.005076157475103072 0.0024757942622680145 -0.0021630676866139526 -0.0003127265756540616 0.00601862338401722 0.0 0.0
0.0 0.003659677148045979 0.0015207296790181167 -0.001272063331288402 -0.0002486663477297141 0.004936376897752214 0.0 0.0
0.0 0.002608112007199336 0.0009592184215971068 -0.0007813734593448639 -0.00017784496225224292 0.003787158784375213 0.0 0.0
0.0 0.0018143383538804327 0.0005885739153359167 -0.0004737134599866672 -0.00011486045534924947 0.002765336409707415 0.0 0.0
0.0 0.0012123768767500678 0.0003421875386795375 -0.00027415381995772223 -6.803371872181514e-05 0.0019466042980761191 0.0 0.0
0.0 0.0008082717594468261 0.00019712800543322898 -0.00015792185787014292 -3.9206147563086096e-05 0.0013305131520758328 0.0 0.0
0.0 0.00053338751055856 0.00011896006357116758 -9.440562944598683e-05 -2.4554434125180756e-05 0.0008848656743568608 0.0 0.0
0.0 0.0003953171479381282 6.259989943224094e-05 -4.930061531666026e-05 -1.3299284115580623e-05 0.0005244751668910445 0.0 0.0
0.0 0.00022398965696197577 3.226394388088587e-05 -2.5348916683970798e-05 -6.91502719691504e-06 0.000319691460897803 0.0 0.0
0.0 0.00013394107212522522 1.1877156059668757e-05 -9.30621625532751e-06 -2.5709398043412444e-06 0.00014280509411212624 0.0 0.0
0.0 4.719694036388169e-05 3.517465034950718e-06 -2.7585240932766308e-06 -7.589409416740782e-07 5.3161476955457044e-05 0.0 0.0
0.0 1.264916249658675e-05 -1.4081635773777134e-07 1.0163524973414598e-07 3.918110800362112e-08 -3.1244596388847664e-06 0.0 0.0
0.0 5.4555610200182124e-06 -1.87731919147807e-08 9.400339740515117e-09 9.372852174262189e-09 -1.2338249441362645e-06 0.0 0.0
0.0 1.0341171994111593e-06 3.4830124097744975e-09 -4.63154175459075e-09 1.1485293448161685e-09 -2.1294765385734702e-07 0.0 0.0
0.0 8.282839756553083e-07 8.757321996808003e-09 -7.99419746324245e-09 -7.631245335657651e-10 -1.687291648967851e-07 0.0 0.0
0.0 2.1979396476663126e-06 1.1868574058352821e-09 1.0883559236708018e-08 -1.2070416642541689e-08 -4.588111397997392e-07 0.0 0.0
0.0 7.926091409781098e-06 -4.4713923374391006e-07 6.299904877457897e-07 -1.8285125400192885e-07 -9.657384463102498e-07 0.0 0.0
0.0 1.1154274967154838e-06 -6.940272927065707e-08 1.0140536005932445e-07 -3.2002630788669234e-08 1.5472886577778056e-07 0.0 0.0
0.0 1.7796170291698353e-06 6.777231581667589e-09 2.818520896233413e-09 -9.595752477896557e-09 3.8083891622846305e-07 0.0 0.0
0.0 1.006612653282911e-06 1.8800037151531995e-08 -1.6160969127413305e-08 -2.6390680241173787e-09 2.0557945423080885e-07 0.0 0.0
0.0 1.3830639415008088e-06 2.5459537940910303e-08 -2.257136934973081e-08 -2.8881685911793595e-09 2.8364822182210734e-07 0.0 0.0
0.0 6.329568723119171e-06 1.2100159608371412e-07 -9.95749289913299e-08 -2.1426667092374816e-08 1.450807040856032e-06 0.0 0.0
0.0 1.6603222805893222e-05 2.923750411414829e-07 -2.3536244238636934e-07 -5.701259875511966e-08 4.230645678701024e-06 0.0 0.0
0.0 4.861043164644937e-05 -3.7066342467898626e-06 2.9505511575658874e-06 7.56083089223963e-07 -5.317921436698315e-05 0.0 0.0
0.0 0.0001340376181113825 -1.1830576114083997e-05 9.268118857354761e-06 2.5624572567291996e-06 -0.0001428036866675111 0.0 0.0
0.0 0.00022361401606452587 -3.202703960067787e-05 2.514093203621435e-05 6.886107564463499e-06 -0.0003193851867006551 0.0 0.0
0.0 0.00039498848825917894 -6.235524114074e-05 4.907630320524846e-05 1.32789379354916e-05 -0.0005242269169322758 0.0 0.0
0.0 0.0005343128310024688 -0.00011859171341910716 9.41380377471364e-05 2.445367567197072e-05 -0.0008843713436723646 0.0 0.0
0.0 0.0008084364393205428 -0.00019736760555564152 0.00015835012309813878 3.901748245750267e-05 -0.0013303675141028482 0.0 0.0
0.0 0.0012148976709592395 -0.0003461921984543675 0.00027806457957926876 6.812761887509881e-05 -0.0019465970275284372 0.0 0.0
0.0 0.0018232108790807344 -0.0005981712965294632 0.00048128937358818505 0.0001168819229412779 -0.0027677883764266166 0.0 0.0
0.0 0.002602934331600065 -0.0009446860776573851 0.0007624050792609235 0.0001822809983964612 -0.0037995608061972526 0.0 0.0
0.0 0.003543353615354843 -0.0013103573099821036 0.001057467980829148 0.00025288932915295474 -0.00499337651963991 0.0 0.0
0.0 0.004489882137122444 -0.001537275333904667 0.0012283626388663444 0.0003089126950383219 -0.006338168569101656 0.0 0.0
0.0 0.005287325531890901 -0.001361349793835617 0.0010269614971862768 0.0003343882966493402 -0.007773328998716951 0.0 0.0
0.0 0.005590102857255658 -0.0006270073643813168 0.00039475038969246474 0.00023225697468885162 -0.008886030756856142 0.0 0.0
0.0 0.005160789096870469 0.0011737020787149419 -0.001251257886652389 7.755580793744696e-05 -0.007557061251671179 0.0 0.0
0.0 0.005160789096873075 0.0011737020787147014 -0.0012512578866524047 7.755580793770224e-05 0.00755706125167802 0.0 0.0
0.0 0.005590102857258963 -0.0006270073643813698 0.00039475038969246593 0.0002322569746889033 0.008886030756863367 0.0 0.0
0.0 0.00528732553189151 -0.0013613497938355494 0.0010269614971861706 0.0003343882966493777 0.0077733289987190046 0.0 0.0
0.0 0.004489882137120229 -0.001537275333903559 0.0012283626388654891 0.00030891269503807 0.006338168569099623 0.0 0.0
0.0 0.0035433536153518107 -0.0013103573099805747 0.0010574679808277338 0.0002528893291528408 0.004993376519635856 0.0 0.0
0.0 0.0026029343315969716 -0.0009446860776559543 0.0007624050792597572 0.00018228099839619685 0.0037995608061939558 0.0 0.0
0.0 0.0018232108790791324 -0.0005981712965285963 0.00048128937358752185 0.00011688192294107431 0.0027677883764248056 0.0 0.0
0.0 0.0012148976709573434 -0.00034619219845325816 0.0002780645795783566 6.812761887490138e-05 0.0019465970275263068 0.0 0.0
0.0 0.0008084364393181567 -0.0001973676055548265 0.000158350123097422 3.901748245740439e-05 0.0013303675140995067 0.0 0.0
0.0 0.0005343128310007 -0.0001185917134184822 9.413803774663377e-05 2.445367567184847e-05 0.0008843713436694358 0.0 0.0
0.0 0.0003949884882570292 -6.235524114024858e-05 4.907630320482918e-05 1.3278937935419394e-05 0.0005242269169291489 0.0 0.0
0.0 0.0002236140160635863 -3.2027039600472976e-05 2.5140932036057104e-05 6.8861075644158635e-06 0.00031938518669936934 0.0 0.0
0.0 0.00013403761811071392 -1.1830576114007214e-05 9.268118857292208e-06 2.5624572567149983e-06 0.00014280368666689744 0.0 0.0
0.0 4.861043164584949e-05 -3.706634246758563e-06 2.9505511575465988e-06 7.560830892119565e-07 5.3179214366551664e-05 0.0 0.0
0.0 1.6603222805341956e-05 2.923750411306663e-07 -2.3536244237751912e-07 -5.701259875313553e-08 -4.2306456785429164e-06 0.0 0.0
0.0 6.329568722502479e-06 1.210015960720766e-07 -9.957492898152986e-08 -2.142666709055061e-08 -1.4508070407032778e-06 0.0 0.0
0.0 1.38306394101384e-06 2.5459537931086613e-08 -2.257136934122153e-08 -2.8881685898646692e-09 -2.8364822171881803e-07 0.0 0.0
0.0 1.0066126526757192e-06 1.8800037139368483e-08 -1.616096911716342e-08 -2.639068022204588e-09 -2.0557945410441137e-07 0.0 0.0
0.0 1.7796170285604457e-06 6.777231579867834e-09 2.8185208935578717e-09 -9.595752473420792e-09 -3.808389160997736e-07 0.0 0.0
0.0 1.1154274964526031e-06 -6.940272925345171e-08 1.0140536003419192e-07 -3.2002630780733594e-08 -1.5472886573936063e-07 0.0 0.0
0.0 0.0 0.0 0.0 0.0 0.0 0.0 0.0
0.0 1.5710527121896345e-07 1.3280899262144232e-09 -5.741504665692977e-10 -7.539394596450155e-10 3.144508494451769e-08 0.0 0.0
0.0 1.1358547083526696e-06 2.9199022431040485e-08 -2.4414515400477513e-08 -4.784507030563987e-09 2.311035997749412e-07 0.0 0.0
0.0 4.433390297608247e-06 1.6015753021184142e-07 -1.3149237797340506e-07 -2.8665152238422848e-08 9.6169292488308e-07 0.0 0.0
0.0 5.593573495776328e-06 2.248805082958022e-07 -1.7833069165734527e-07 -4.654981663844911e-08 1.2502688499167775e-06 0.0 0.0
0.0 1.966055479638601e-05 -8.895396002189953e-07 6.491936930734263e-07 2.40345907145532e-07 -3.492479172161549e-06 0.0 0.0
0.0 6.908960785633307e-05 -1.2254481448844226e-05 9.690849825142083e-06 2.5636316237021183e-06 -5.749120968643862e-05 0.0 0.0
0.0 0.00015292837287371098 -5.425143396601839e-05 4.265571447454266e-05 1.15957194914757e-05 -0.0002180682339367541 0.0 0.0
0.0 0.00035867072348529815 -0.00013739174344693238 0.00010828386192635816 2.9107881520574094e-05 -0.0004369075871398703 0.0 0.0
0.0 0.000704932149702235 -0.00035219045065799747 0.0002782395305820054 7.395092007599191e-05 -0.000865927507625042 0.0 0.0
0.0 0.0012825616748430608 -0.0007931209164720211 0.0006382661850955041 0.0001548547313765168 -0.0015148551440326266 0.0 0.0
0.0 0.0021544758928598025 -0.0014220299466080057 0.0011737872468639294 0.000248242699744076 -0.0022729692643167322 0.0 0.0
0.0 0.003248845118011586 -0.0022679459749568092 0.001921170108185715 0.0003467758667710936 -0.003153058966020217 0.0 0.0
0.0 0.004691407727744435 -0.0033906367763681462 0.002946684065364918 0.0004439527110032273 -0.004132486844536319 0.0 0.0
0.0 0.006518718028950537 -0.0048115459396098886 0.004277141093917136 0.0005344048456927499 -0.005258218955225491 0.0 0.0
0.0 0.008634968007813439 -0.006428409341348775 0.005815223511411547 0.0006131858299372262 -0.006598865814146668 0.0 0.0
0.0 0.01077141639787924 -0.007950935572994085 0.007269993150241637 0.0006809424227524517 -0.008163030036031861 0.0 0.0
0.0 0.012351363983214014 -0.0088868154610439 0.008151561413563544 0.0007352540474803546 -0.009829331376041216 0.0 0.0
0.0 0.012177194597120819 -0.008384595831793611 0.007576632470960817 0.0008079633608327919 -0.010515415601647858 0.0 0.0
0.0 0.008870356241681636 -0.005293131652070402 0.004502767149460865 0.0007903645026095354 -0.008347088539629195 0.0 0.0
0.0 0.008870356241684918 -0.0052931316520709905 0.00450276714946133 0.0007903645026096591 0.00834708853963801 0.0 0.0
0.0 0.012177194597124123 -0.008384595831793575 0.007576632470960982 0.0008079633608325885 0.010515415601661048 0.0 0.0
0.0 0.012351363983213438 -0.008886815461041758 0.008151561413561773 0.0007352540474799825 0.009829331376049083 0.0 0.0
0.0 0.010771416397874607 -0.007950935572989983 0.007269993150237965 0.000680942422752016 0.008163030036031005 0.0 0.0
0.0 0.008634968007805782 -0.006428409341342499 0.005815223511405754 0.0006131858299367461 0.006598865814141894 0.0 0.0
0.0 0.00651871802894498 -0.0048115459396053115 0.004277141093913079 0.0005344048456922315 0.005258218955221899 0.0 0.0
0.0 0.004691407727739572 -0.00339063677636424 0.0029466840653616295 0.00044395271100261064 0.004132486844533333 0.0 0.0
0.0 0.0032488451180056836 -0.0022679459749516003 0.0019211701081811822 0.0003467758667704173 0.0031530589660171077 0.0 0.0
0.0 0.002154475892852536 -0.0014220299466027315 0.0011737872468593905 0.00024824269974334126 0.002272969264311392 0.0 0.0
0.0 0.0012825616748368715 -0.0007931209164681115 0.0006382661850922349 0.00015485473137587642 0.0015148551440269387 0.0 0.0
0.0 0.0007049321496978708 -0.0003521904506556133 0.0002782395305801217 7.395092007549134e-05 0.0008659275076207179 0.0 0.0
0.0 0.000358670723483568 -0.00013739174344611413 0.00010828386192568928 2.910788152042485e-05 0.0004369075871380314 0.0 0.0
0.0 0.00015292837287298334 -5.425143396578734e-05 4.2655714474369334e-05 1.1595719491418006e-05 0.00021806823393611053 0.0 0.0
0.0 6.908960785564127e-05 -1.2254481448757341e-05 9.690849825076553e-06 2.5636316236807425e-06 5.7491209686059066e-05 0.0 0.0
0.0 1.966055479592292e-05 -8.895396002642959e-07 6.491936931095071e-07 2.403459071547901e-07 3.4924791724051895e-06 0.0 0.0
0.0 5.59357349524175e-06 2.2488050827509277e-07 -1.7833069164048388e-07 -4.6549816634625795e-08 -1.250268849792875e-06 0.0 0.0
0.0 4.433390297146278e-06 1.6015753019507324e-07 -1.3149237795953612e-07 -2.8665152235533242e-08 -9.61692924777465e-07 0.0 0.0
0.0 1.1358547078605477e-06 2.919902241766033e-08 -2.441451538947173e-08 -4.7845070281886985e-09 -2.3110359967327132e-07 0.0 0.0
0.0 1.5710527106426096e-07 1.3280899248879184e-09 -5.741504659949382e-10 -7.53939458893311e-10 -3.144508491313459e-08 0.0 0.0
0.0 0.0 0.0 0.0 0.0 0.0 0.0 0.0
0.0 0.0 0.0 0.0 0.0 0.0 0.0 0.0
0.0 0.0 0.0 0.0 0.0 0.0 0.0 0.0
0.0 2.3595770756542535e-06 8.103527067074457e-08 -6.628456757845172e-08 -1.4750703092293867e-08 4.821090557083344e-07 0.0 0.0
0.0 6.5906872819304125e-06 3.108815427979235e-07 -2.5702362177301864e-07 -5.385792102489637e-08 1.4093816020137892e-06 0.0 0.0
0.0 8.125944734988232e-06 1.900781732499347e-07 -1.6300160660260636e-07 -2.7076566647318694e-08 9.021643866002903e-07 0.0 0.0
0.0 2.721582876079797e-05 -1.7154969568586505e-06 1.3922443176230898e-06 3.2325263923553903e-07 -5.33639198874325e-06 0.0 0.0
0.0 0.00010372323663052859 -3.460665492583688e-05 2.7197239005820446e-05 7.409415920016422e-06 -9.312832577875476e-05 0.0 0.0
0.0 0.0003171393228954318 -0.0001611325972814959 0.00012661147818348364 3.452111909801223e-05 -0.0003379548911562245 0.0 0.0
0.0 0.000897684620856237 -0.0005453083296112328 0.0004348120334680422 0.0001104962961431905 -0.0008457768666384514 0.0 0.0
0.0 0.0017206503413909713 -0.0012753180581408338 0.0010425290730592637 0.00023278898508157018 -0.0016136670418742513 0.0 0.0
0.0 0.0029578594922721017 -0.0022446283615632306 0.0018894098873429989 0.0003552184742202318 -0.002471625194223819 0.0 0.0
0.0 0.004353944171889741 -0.003449366085528974 0.0029817240681322354 0.0004676420173967378 -0.0033670878745944237 0.0 0.0
0.0 0.006152109193217682 -0.004962973363592287 0.00439626489628799 0.000566708467304295 -0.004324935931177826 0.0 0.0
0.0 0.008509822185578044 -0.0069178498161373055 0.006265357165642031 0.0006524926504952731 -0.005426702178425626 0.0 0.0
0.0 0.011551029804338175 -0.009382257084681166 0.008653660374515629 0.0007285967101655407 -0.00678076567340372 0.0 0.0
0.0 0.015079765174039878 -0.012251946073292903 0.011454253357157945 0.0007976927161349563 -0.00853214518532827 0.0 0.0
0.0 0.018814471949991807 -0.015158523332806071 0.014294813351750802 0.0008637099810552631 -0.010805208040015604 0.0 0.0
0.0 0.021632001010987296 -0.017350063807101797 0.016405599977066684 0.0009444638300351194 -0.013279336638376854 0.0 0.0
0.0 0.022135166448478398 -0.017455783956126944 0.016415574049389665 0.0010402099067372806 -0.014547640173930076 0.0 0.0
0.0 0.017219321082372143 -0.013447661314293318 0.012292949831935959 0.0011547114823573551 -0.011595636410933788 0.0 0.0
0.0 0.01721932108237421 -0.013447661314293176 0.012292949831935454 0.0011547114823577172 0.011595636410944792 0.0 0.0
0.0 0.02213516644848218 -0.017455783956127034 0.016415574049389762 0.0010402099067372645 0.01454764017394762 0.0 0.0
0.0 0.02163200101098528 -0.017350063807097905 0.016405599977063007 0.000944463830034896 0.013279336638388244 0.0 0.0
0.0 0.018814471949983445 -0.015158523332798378 0.014294813351743468 0.0008637099810549127 0.010805208040016383 0.0 0.0
0.0 0.015079765174029678 -0.012251946073284295 0.011454253357149622 0.0007976927161346698 0.008532145185324181 0.0 0.0
0.0 0.011551029804328677 -0.009382257084673228 0.008653660374507799 0.0007285967101654271 0.006780765673399388 0.0 0.0
0.0 0.008509822185567747 -0.006917849816128729 0.0062653571656336535 0.0006524926504950744 0.005426702178420379 0.0 0.0
0.0 0.006152109193208031 -0.004962973363583874 0.0043962648962800124 0.0005667084673038614 0.004324935931173842 0.0 0.0
0.0 0.0043539441718805205 -0.0034493660855214247 0.0029817240681253143 0.00046764201739611135 0.0033670878745885946 0.0 0.0
0.0 0.0029578594922629662 -0.002244628361555848 0.0018894098873364674 0.00035521847421937994 0.0024716251942171986 0.0 0.0
0.0 0.0017206503413811371 -0.0012753180581334756 0.001042529073052839 0.00023278898508063644 0.001613667041866443 0.0 0.0
0.0 0.0008976846208509596 -0.000545308329607444 0.00043481203346489256 0.00011049629614255134 0.0008457768666339485 0.0 0.0
0.0 0.0003171393228936967 -0.00016113259728073475 0.00012661147818288543 3.4521119097849343e-05 0.00033795489115488546 0.0 0.0
0.0 0.00010372323662924812 -3.460665492575596e-05 2.719723900575753e-05 7.409415919998424e-06 9.312832577853108e-05 0.0 0.0
0.0 2.7215828759832617e-05 -1.7154969568442694e-06 1.392244317609976e-06 3.2325263923424747e-07 5.336391988695461e-06 0.0 0.0
0.0 8.125944734682992e-06 1.9007817314915343e-07 -1.6300160652265942e-07 -2.7076566626537124e-08 -9.021643862366536e-07 0.0 0.0
0.0 6.590687281374371e-06 3.1088154276881837e-07 -2.570236217490074e-07 -5.385792101982278e-08 -1.4093816018841068e-06 0.0 0.0
0.0 2.3595770750547986e-06 8.103527064889636e-08 -6.628456756069521e-08 -1.4750703088195763e-08 -4.821090555798598e-07 0.0 0.0
0.0 0.0 0.0 0.0 0.0 0.0 0.0 0.0
0.0 0.0 0.0 0.0 0.0 0.0 0.0 0.0
0.0 0.0 0.0 0.0 0.0 0.0 0.0 0.0
0.0 0.0 0.0 0.0 0.0 0.0 0.0 0.0
0.0 1.762862297087584e-06 7.425115861487428e-08 -6.029149643128876e-08 -1.3959662183589334e-08 3.448992119798501e-07 0.0 0.0
0.0 4.567888438468323e-06 2.816642514112822e-07 -2.2557908395482e-07 -5.6085167456466286e-08 9.161147982519621e-07 0.0 0.0
0.0 1.0652708672196913e-05 8.226055347238993e-07 -6.478885821616355e-07 -1.747169525622491e-07 2.1974362185183357e-06 0.0 0.0
0.0 4.505590544183026e-05 -1.0771137164471305e-05 8.409521788266346e-06 2.3616153762049573e-06 -2.2458241103500636e-05 0.0 0.0
0.0 0.00020673117976351845 -0.00010023456172340855 7.932640246175494e-05 2.090815926165371e-05 -0.0001738235791137333 0.0 0.0
0.0 0.0007522565220686733 -0.0005016306717865486 0.00039920899484635424 0.00010242167694019434 -0.0006243017033642347 0.0 0.0
0.0 0.001754222217763359 -0.0013258386748646836 0.0010850419570853178 0.0002407967177793661 -0.0013437359872935416 0.0 0.0
0.0 0.003081268607908582 -0.0025031554882960563 0.0021141293616079603 0.00038902612668809545 -0.0022233626731497508 0.0 0.0
0.0 0.004729553690696911 -0.003934375900273353 0.003419416959431495 0.0005149589408418569 -0.003129161178980988 0.0 0.0
0.0 0.006766520488981247 -0.00566814259129505 0.005046190178661314 0.000621952412633736 -0.004041825546351951 0.0 0.0
0.0 0.009363197995183465 -0.007845107480693194 0.0071346061461251865 0.0007105013345680082 -0.005051137125658085 0.0 0.0
0.0 0.01265770061246721 -0.010646509767674875 0.009860196181553576 0.0007863135861212994 -0.006251937867504308 0.0 0.0
0.0 0.016862768809889902 -0.014174422952698936 0.013319709478602101 0.0008547134740968307 -0.007759502312851042 0.0 0.0
0.0 0.021866519859964895 -0.01833476319354452 0.017410625630674956 0.0009241375628695708 -0.009801363287617788 0.0 0.0
0.0 0.027090018021982788 -0.02265243839535859 0.02165047710311633 0.0010019612922422512 -0.01258553118875969 0.0 0.0
0.0 0.03135413143214156 -0.02603947170277272 0.024936102745334962 0.001103368957437748 -0.015750439759730613 0.0 0.0
0.0 0.03225679324958957 -0.02656931327052941 0.02533670790995359 0.0012326053605758085 -0.017659446459013052 0.0 0.0
0.0 0.026020062483387427 -0.021351620328525712 0.019963842004026087 0.001387778324499621 -0.014957681815521108 0.0 0.0
0.0 0.026020062483390883 -0.021351620328526093 0.019963842004026434 0.0013877783244996664 0.014957681815537258 0.0 0.0
0.0 0.032256793249591686 -0.026569313270527736 0.025336707909952315 0.0012326053605754292 0.01765944645903489 0.0 0.0
0.0 0.031354131432138464 -0.02603947170276748 0.0249361027453303 0.0011033689574371625 0.015750439759746205 0.0 0.0
0.0 0.02709001802197358 -0.022652438395349563 0.02165047710310802 0.0010019612922415417 0.012585531188763769 0.0 0.0
0.0 0.021866519859953526 -0.018334763193534394 0.017410625630665623 0.0009241375628687709 0.009801363287614707 0.0 0.0
0.0 0.016862768809879202 -0.014174422952689433 0.013319709478593372 0.000854713474096054 0.007759502312847775 0.0 0.0
0.0 0.012657700612455195 -0.010646509767664592 0.009860196181543789 0.000786313586120803 0.006251937867499028 0.0 0.0
0.0 0.00936319799517104 -0.007845107480682378 0.0071346061461149395 0.0007105013345674375 0.005051137125653912 0.0 0.0
0.0 0.006766520488968157 -0.005668142591283694 0.005046190178650607 0.0006219524126330844 0.004041825546345492 0.0 0.0
0.0 0.0047295536906831765 -0.003934375900261832 0.0034194169594207865 0.0005149589408410444 0.0031291611789725565 0.0 0.0
0.0 0.003081268607897222 -0.002503155488286733 0.002114129361599636 0.00038902612668709544 0.002223362673141553 0.0 0.0
0.0 0.0017542222177549763 -0.001325838674858105 0.001085041957079755 0.0002407967177783503 0.0013437359872883557 0.0 0.0
0.0 0.0007522565220636588 -0.0005016306717828842 0.00039920899484343036 0.00010242167693945366 0.0006243017033606088 0.0 0.0
0.0 0.00020673117976136848 -0.00010023456172252855 7.932640246106582e-05 2.090815926146278e-05 0.00017382357911234044 0.0 0.0
0.0 4.505590544044308e-05 -1.0771137164386683e-05 8.409521788197799e-06 2.3616153761889356e-06 2.2458241103306446e-05 0.0 0.0
0.0 1.0652708671765672e-05 8.226055346890362e-07 -6.478885821339158e-07 -1.7471695255515656e-07 -2.1974362184231995e-06 0.0 0.0
0.0 4.567888437996252e-06 2.8166425138205025e-07 -2.255790839313278e-07 -5.6085167450732297e-08 -9.161147981532237e-07 0.0 0.0
0.0 1.7628622966370727e-06 7.425115859493936e-08 -6.029149641515662e-08 -1.3959662179784548e-08 -3.4489921188806817e-07 0.0 0.0
0.0 0.0 0.0 0.0 0.0 0.0 0.0 0.0
0.0 0.0 0.0 0.0 0.0 0.0 0.0 0.0
0.0 0.0 0.0 0.0 0.0 0.0 0.0 0.0
0.0 0.0 0.0 0.0 0.0 0.0 0.0 0.0
0.0 0.0 0.0 0.0 0.0 0.0 0.0 0.0
0.0 6.9346823109825144e-06 5.042347017098303e-07 -4.065067840334973e-07 -9.772791767633461e-08 1.3113344896096305e-06 0.0 0.0
0.0 2.5212619995950892e-05 2.4747268596932223e-06 -1.951196794361913e-06 -5.235300653313059e-07 4.953316836308696e-06 0.0 0.0
0.0 8.791811296461491e-05 -3.644042699200329e-05 2.88930961882776e-05 7.5473308037257266e-06 -5.479976349543421e-05 0.0 0.0
0.0 0.0004745316274786918 -0.0002962748047448513 0.00023469913443805804 6.157567030679327e-05 -0.0003202296382399625 0.0 0.0
0.0 0.0013883473974973097 -0.0010591421922777633 0.0008593153145226893 0.00019982687775507355 -0.0009087254042385816 0.0 0.0
0.0 0.002751316291880718 -0.0022915456960553265 0.001924268776120728 0.0003672769199345986 -0.0017074598988074164 0.0 0.0
0.0 0.004499505085853915 -0.003847366852610537 0.00333316648864703 0.000514200363963506 -0.0025670772400192914 0.0 0.0
0.0 0.006645852479777305 -0.005709505009261312 0.005075222717398576 0.0006342822918627359 -0.0034262336382367095 0.0 0.0
0.0 0.009309125576640516 -0.007982190497425528 0.0072489465064521025 0.000733243990973427 -0.004334548932007542 0.0 0.0
0.0 0.01267023639034736 -0.010841987812383392 0.010026076137505736 0.0008159116748776534 -0.005369452225134994 0.0 0.0
0.0 0.016973895768326405 -0.014499031126800573 0.013610912546491591 0.0008881185803089757 -0.006604408160560347 0.0 0.0
0.0 0.022428538936566492 -0.019096887181293692 0.018140335979028543 0.0009565512022651478 -0.00815551365524657 0.0 0.0
0.0 0.02871349317969058 -0.024548992535820206 0.023518103320460004 0.001030889215360196 -0.010259129948175847 0.0 0.0
0.0 0.03562204256957641 -0.03025743743771618 0.029134081136908834 0.0011233563008073398 -0.013168664159424392 0.0 0.0
0.0 0.041202334970814505 -0.03479202286739328 0.03354444338705559 0.0012475794803377001 -0.01673782845458554 0.0 0.0
0.0 0.0423950749347281 -0.035601553358796965 0.03419599001362935 0.0014055633451676096 -0.01942821539106074 0.0 0.0
0.0 0.03482444734896148 -0.029049530375339992 0.0274798013317205 0.001569729043619484 -0.018141810030314516 0.0 0.0
0.0 0.03482444734896334 -0.029049530375338896 0.02747980133171944 0.0015697290436194554 0.018141810030332012 0.0 0.0
0.0 0.04239507493472651 -0.035601553358792545 0.034195990013625055 0.0014055633451674854 0.019428215391083064 0.0 0.0
0.0 0.04120233497080913 -0.03479202286738626 0.03354444338704915 0.0012475794803371181 0.01673782845460315 0.0 0.0
0.0 0.03562204256956455 -0.030257437437704867 0.02913408113689815 0.0011233563008067 0.01316866415942929 0.0 0.0
0.0 0.02871349317967465 -0.024548992535806276 0.02351810332044635 0.0010308892153599175 0.010259129948173356 0.0 0.0
0.0 0.02242853893655105 -0.019096887181280157 0.018140335979015217 0.0009565512022649415 0.008155513655243604 0.0 0.0
0.0 0.01697389576831152 -0.014499031126787541 0.013610912546479009 0.0008881185803085323 0.006604408160555032 0.0 0.0
0.0 0.012670236390333186 -0.010841987812370633 0.010026076137493723 0.0008159116748769192 0.0053694522251317555 0.0 0.0
0.0 0.009309125576625367 -0.007982190497412039 0.007248946506439365 0.0007332439909726732 0.004334548932002051 0.0 0.0
0.0 0.006645852479761358 -0.005709505009247577 0.00507522271738558 0.0006342822918619944 0.003426233638228259 0.0 0.0
0.0 0.004499505085840725 -0.003847366852598931 0.003333166488636302 0.0005142003639626282 0.0025670772400109123 0.0 0.0
0.0 0.0027513162918706836 -0.00229154569604666 0.0019242687761130322 0.0003672769199336269 0.001707459898801924 0.0 0.0
0.0 0.0013883473974902977 -0.0010591421922720118 0.0008593153145179052 0.00019982687775410658 0.000908725404234582 0.0 0.0
0.0 0.0004745316274745409 -0.0002962748047421766 0.0002346991344359435 6.1575670306233e-05 0.000320229638237435 0.0 0.0
0.0 8.791811296302838e-05 -3.64404269917089e-05 2.8893096188037718e-05 7.54733080367124e-06 5.479976349496227e-05 0.0 0.0
0.0 2.5212619994963567e-05 2.474726859593644e-06 -1.951196794283381e-06 -5.235300653103639e-07 -4.9533168361263605e-06 0.0 0.0
0.0 6.934682310505462e-06 5.042347016716486e-07 -4.0650678400268413e-07 -9.772791766897146e-08 -1.3113344895102354e-06 0.0 0.0
0.0 0.0 0.0 0.0 0.0 0.0 0.0 0.0
0.0 0.0 0.0 0.0 0.0 0.0 0.0 0.0
0.0 0.0 0.0 0.0 0.0 0.0 0.0 0.0
0.0 0.0 0.0 0.0 0.0 0.0 0.0 0.0
0.0 0.0 0.0 0.0 0.0 0.0 0.0 0.0
0.0 0.0 0.0 0.0 0.0 0.0 0.0 0.0
0.0 3.2006597007079794e-06 2.5707668110242285e-07 -2.054760131561159e-07 -5.160066794626825e-08 5.112391327039601e-07 0.0 0.0
0.0 2.769263827536987e-05 -1.4051648312331197e-06 1.0947571311003523e-06 3.1040770013278566e-07 -1.5452036823879568e-06 0.0 0.0
0.0 0.00020194700400704807 -9.951925725406932e-05 7.864859095382296e-05 2.087066630024658e-05 -9.861898213102208e-05 0.0 0.0
0.0 0.0009254746673364004 -0.0006346071622758264 0.0005086229595566065 0.0001259842027192196 -0.000466641316253132 0.0 0.0
0.0 0.002092638777385421 -0.001776815505840307 0.001471594968290604 0.0003052205375497034 -0.001107516458613398 0.0 0.0
0.0 0.0038127123253745105 -0.003336573178410048 0.0028634576519008825 0.0004731155265091647 -0.0018560678832635897 0.0 0.0
0.0 0.005986356422878662 -0.005238883854543594 0.004626115034744036 0.0006127688197995568 -0.002624462371319999 0.0 0.0
0.0 0.008650676006177463 -0.007538260102497522 0.0068121318908977825 0.0007261282115997357 -0.0034297866898675504 0.0 0.0
0.0 0.011932532240345618 -0.010364414482227927 0.009544374138031749 0.0008200403441961739 -0.004292666239181344 0.0 0.0
0.0 0.016138328775184237 -0.01392425994010998 0.013022726937912244 0.0009015330021977339 -0.005290974364632713 0.0 0.0
0.0 0.021336963161293434 -0.01845308178528891 0.017477883852800476 0.0009751979324884288 -0.006520894624804187 0.0 0.0
0.0 0.027931523768294657 -0.024101496382776227 0.02305498015188834 0.0010465162308878916 -0.008002660385918469 0.0 0.0
0.0 0.03582979373090314 -0.030789073345225904 0.02966098901139305 0.001128084333832856 -0.009879848561471102 0.0 0.0
0.0 0.04395975570346325 -0.037843209232022515 0.03660969886744905 0.0012335103645734662 -0.012561202699025935 0.0 0.0
0.0 0.050648555339367275 -0.043493569632417 0.04211460179979366 0.0013789678326233492 -0.01623865139853119 0.0 0.0
0.0 0.052264146539592354 -0.044582054752648384 0.04302356956947724 0.0015584851831711357 -0.019976666279581924 0.0 0.0
0.0 0.04381456310262808 -0.0367682042950858 0.03503624744819313 0.001731956846892643 -0.021291857830501495 0.0 0.0
0.0 0.043814563102627754 -0.03676820429508301 0.035036247448190144 0.001731956846892842 0.021291857830519956 0.0 0.0
0.0 0.052264146539588816 -0.04458205475264257 0.043023569569471495 0.0015584851831710583 0.019976666279606183 0.0 0.0
0.0 0.05064855533935688 -0.043493569632406276 0.042114601799782894 0.0013789678326233702 0.016238651398549433 0.0 0.0
0.0 0.04395975570344815 -0.037843209232008686 0.03660969886743559 0.0012335103645731047 0.01256120269903149 0.0 0.0
0.0 0.03582979373088737 -0.03078907334521176 0.029660989011379774 0.0011280843338319657 0.009879848561470651 0.0 0.0
0.0 0.027931523768277594 -0.024101496382760906 0.02305498015187386 0.0010465162308870453 0.008002660385917194 0.0 0.0
0.0 0.021336963161276486 -0.018453081785273766 0.01747788385278624 0.0009751979324875312 0.006520894624800248 0.0 0.0
0.0 0.016138328775165425 -0.013924259940093015 0.013022726937895975 0.0009015330021970381 0.0052909743646287165 0.0 0.0
0.0 0.011932532240327014 -0.010364414482211273 0.00954437413801578 0.0008200403441954887 0.0042926662391759435 0.0 0.0
0.0 0.00865067600615978 -0.007538260102481874 0.006812131890883033 0.0007261282115988406 0.003429786689859865 0.0 0.0
0.0 0.005986356422864007 -0.005238883854530557 0.004626115034731969 0.0006127688197985862 0.0026244623713128222 0.0 0.0
0.0 0.003812712325362215 -0.0033365731783988367 0.0028634576518907296 0.0004731155265081072 0.0018560678832582993 0.0 0.0
0.0 0.0020926387773764644 -0.001776815505832303 0.001471594968283652 0.0003052205375486504 0.0011075164586091119 0.0 0.0
0.0 0.0009254746673306184 -0.0006346071622713965 0.0005086229595530435 0.00012598420271835308 0.0004666413162502432 0.0 0.0
0.0 0.00020194700400476577 -9.951925725308557e-05 7.864859095304047e-05 2.0870666300044955e-05 9.861898213000681e-05 0.0 0.0
0.0 2.7692638274467244e-05 -1.4051648314037972e-06 1.0947571312338263e-06 3.104077001699904e-07 1.5452036826174164e-06 0.0 0.0
0.0 3.200659700236418e-06 2.5707668106207243e-07 -2.0547601312382118e-07 -5.1600667938269986e-08 -5.112391326237518e-07 0.0 0.0
0.0 0.0 0.0 0.0 0.0 0.0 0.0 0.0
0.0 0.0 0.0 0.0 0.0 0.0 0.0 0.0
0.0 0.0 0.0 0.0 0.0 0.0 0.0 0.0
0.0 0.0 0.0 0.0 0.0 0.0 0.0 0.0
0.0 0.0 0.0 0.0 0.0 0.0 0.0 0.0
0.0 0.0 0.0 0.0 0.0 0.0 0.0 0.0
0.0 2.6184053184797525e-06 2.3936820084323267e-07 -1.9194239063393857e-07 -4.7425810209277095e-08 3.642394502886807e-07 0.0 0.0
0.0 4.540147288307778e-05 -5.50956635615344e-06 4.491596299857e-06 1.0179700562965848e-06 -5.837194420524583e-06 0.0 0.0
0.0 0.00043368360727012744 -0.0002493795994049959 0.00019804712730289988 5.1332472102096446e-05 -0.00016474502467692687 0.0 0.0
0.0 0.0013258316661877473 -0.0011365020065908765 0.0009246558828951829 0.00021184612369569363 -0.0005906845299598533 0.0 0.0
0.0 0.002869994273934063 -0.0025650182982156437 0.002166511173545589 0.0003985071246700542 -0.0011540559939895924 0.0 0.0
0.0 0.0049614981685558645 -0.004406604238980803 0.0038469710786657426 0.0005596331603150605 -0.0017746394767768864 0.0 0.0
0.0 0.007533554882874465 -0.0066637964855248265 0.005972308128808813 0.0006914883567160142 -0.002445857781556177 0.0 0.0
0.0 0.010704904305770582 -0.009407170662483023 0.008607541291083471 0.0007996293713995507 -0.003156528391599386 0.0 0.0
0.0 0.014649242735973695 -0.01280072003188323 0.011908324505643969 0.0008923955262392588 -0.003926438640900652 0.0 0.0
0.0 0.019614462890356135 -0.017081816626295477 0.016106412752538782 0.0009754038737566916 -0.00484378137388494 0.0 0.0
0.0 0.025912912669309007 -0.022487098952266932 0.021432266925419143 0.001054832026847794 -0.005972340873771527 0.0 0.0
0.0 0.033659887814374914 -0.029152166330873575 0.028019880793284976 0.001132285537588598 -0.007304692548614665 0.0 0.0
0.0 0.04253092396559777 -0.03698153636384165 0.03576376488103865 0.0012177714828029884 -0.008806997106108105 0.0 0.0
0.0 0.05212897909360696 -0.045265182120198075 0.04393224244850705 0.0013329396716910355 -0.010793161859679564 0.0 0.0
0.0 0.06007359428979752 -0.052032686178046024 0.050537499256497365 0.0014951869215486537 -0.014154945127248466 0.0 0.0
0.0 0.06226097632316048 -0.053597052738661194 0.05189976811824996 0.0016972846204112368 -0.019263171935962164 0.0 0.0
0.0 0.05298036554520131 -0.044744521965641514 0.042855505893850884 0.0018890160717906041 -0.024427194292939183 0.0 0.0
0.0 0.052980365545203016 -0.0447445219656403 0.042855505893849774 0.001889016071790524 0.024427194292958622 0.0 0.0
0.0 0.06226097632315554 -0.053597052738654685 0.05189976811824375 0.0016972846204109612 0.01926317193598492 0.0 0.0
0.0 0.06007359428978569 -0.052032686178034256 0.05053749925648632 0.0014951869215479084 0.014154945127265558 0.0 0.0
0.0 0.052128979093589586 -0.04526518212018235 0.04393224244849189 0.0013329396716904587 0.010793161859685353 0.0 0.0
0.0 0.04253092396557797 -0.03698153636382413 0.03576376488102175 0.0012177714828023583 0.008806997106108282 0.0 0.0
0.0 0.03365988781435563 -0.029152166330856443 0.0280198807932686 0.0011322855375878343 0.007304692548614027 0.0 0.0
0.0 0.025912912669289138 -0.022487098952249446 0.021432266925402423 0.0010548320268470072 0.0059723408737685675 0.0 0.0
0.0 0.019614462890334843 -0.017081816626276593 0.016106412752520657 0.0009754038737559298 0.004843781373881556 0.0 0.0
0.0 0.014649242735950984 -0.012800720031862924 0.011908324505624335 0.0008923955262385896 0.00392643864089583 0.0 0.0
0.0 0.010704904305749989 -0.00940717066246452 0.008607541291065756 0.000799629371398759 0.0031565283915922686 0.0 0.0
0.0 0.007533554882856488 -0.0066637964855086294 0.005972308128793381 0.0006914883567152467 0.002445857781549308 0.0 0.0
0.0 0.004961498168542267 -0.004406604238968175 0.003846971078654049 0.0005596331603141246 0.0017746394767722885 0.0 0.0
0.0 0.002869994273923467 -0.0025650182982056517 0.00216651117353671 0.000398507124668942 0.001154055993985752 0.0 0.0
0.0 0.0013258316661803916 -0.0011365020065843365 0.0009246558828897031 0.0002118461236946335 0.000590684529956805 0.0 0.0
0.0 0.0004336836072663227 -0.0002493795994027892 0.00019804712730113195 5.1332472101657256e-05 0.0001647450246755081 0.0 0.0
0.0 4.540147288214865e-05 -5.509566356386481e-06 4.491596300039768e-06 1.0179700563466256e-06 5.837194420758811e-06 0.0 0.0
0.0 2.618405318069889e-06 2.393682008043899e-07 -1.9194239060307888e-07 -4.7425810201298124e-08 -3.6423945023065724e-07 0.0 0.0
0.0 0.0 0.0 0.0 0.0 0.0 0.0 0.0
0.0 0.0 0.0 0.0 0.0 0.0 0.0 0.0
0.0 0.0 0.0 0.0 0.0 0.0 0.0 0.0
0.0 0.0 0.0 0.0 0.0 0.0 0.0 0.0
0.0 0.0 0.0 0.0 0.0 0.0 0.0 0.0
0.0 0.0 0.0 0.0 0.0 0.0 0.0 0.0
0.0 2.5053288124497985e-06 2.531774601912513e-07 -2.004950959842307e-07 -5.268236420702641e-08 2.7033984583380355e-07 0.0 0.0
0.0 9.827086453503439e-05 -2.1339715535516885e-05 1.700495135915136e-05 4.33476417636545e-06 -1.3329187866195044e-05 0.0 0.0
0.0 0.0007365505695105556 -0.00051688602351455 0.0004133679673215527 0.00010351805619299739 -0.00022626929826970106 0.0 0.0
0.0 0.0018704188050637364 -0.0017023755352932376 0.0014063693853315932 0.00029600614996164436 -0.0005844183365899625 0.0 0.0
0.0 0.003731433838223335 -0.0033698406324563727 0.0028929410833057117 0.0004768995491506601 -0.0010168703402476794 0.0 0.0
0.0 0.006145529482492256 -0.005497908746415793 0.004867522021700597 0.000630386724715193 -0.0015073730294968286 0.0 0.0
0.0 0.009131529319025522 -0.008110675322392609 0.007354924643486081 0.0007557506789065261 -0.002046935057141666 0.0 0.0
0.0 0.012834877721202098 -0.011306631007190746 0.010445505369579874 0.0008611256376108716 -0.002625524578424721 0.0 0.0
0.0 0.01739397840487691 -0.01528307729418419 0.014328356966659845 0.0009547203275243425 -0.0032519547926517013 0.0 0.0
0.0 0.023273174696809954 -0.02029731491284332 0.019254934140114904 0.0010423807727284072 -0.004000426554813854 0.0 0.0
0.0 0.030415052661529225 -0.026591653142574688 0.02546318170243822 0.0011284714401364675 -0.004975995150824076 0.0 0.0
0.0 0.03918279981011961 -0.03424242947611935 0.03302750064230618 0.001214928833813168 -0.006107850309809441 0.0 0.0
0.0 0.04934559144493171 -0.043064009912618634 0.04175666513525301 0.0013073447773656152 -0.0071236959324377696 0.0 0.0
0.0 0.060044785961249014 -0.05236580944236449 0.050947590543565055 0.001418218898799415 -0.00805610641911063 0.0 0.0
0.0 0.06920814002503406 -0.06028281086444485 0.05869198618247687 0.0015908246819679747 -0.01051610889049367 0.0 0.0
0.0 0.07238688470953414 -0.06272657089021089 0.06090290796344615 0.0018236629267647392 -0.016987715274208448 0.0 0.0
0.0 0.06287375075300788 -0.05325959810519737 0.051204885268735116 0.0020547128364622556 -0.027346657146537043 0.0 0.0
0.0 0.06287375075300862 -0.053259598105195746 0.051204885268734006 0.002054712836461745 0.027346657146553037 0.0 0.0
0.0 0.07238688470952567 -0.06272657089020209 0.06090290796343756 0.0018236629267645169 0.01698771527422846 0.0 0.0
0.0 0.06920814002501889 -0.06028281086443088 0.058691986182463296 0.00159082468196758 0.010516108890508958 0.0 0.0
0.0 0.060044785961228316 -0.052365809442346235 0.0509475905435471 0.0014182188987991217 0.008056106419115605 0.0 0.0
0.0 0.04934559144490861 -0.04306400991259832 0.04175666513523321 0.001307344777365116 0.007123695932439017 0.0 0.0
0.0 0.03918279981009689 -0.03424242947609926 0.033027500642286906 0.001214928833812356 0.006107850309809409 0.0 0.0
0.0 0.03041505266150466 -0.026591653142553223 0.025463181702417258 0.001128471440135965 0.004975995150821412 0.0 0.0
0.0 0.02327317469678442 -0.020297314912820767 0.019254934140093025 0.0010423807727277352 0.00400042655481061 0.0 0.0
0.0 0.017393978404851497 -0.015283077294161652 0.01432835696663835 0.0009547203275233039 0.0032519547926488316 0.0 0.0
0.0 0.012834877721177734 -0.01130663100716888 0.01044550536955854 0.0008611256376103376 0.00262552457841903 0.0 0.0
0.0 0.009131529319004518 -0.008110675322373629 0.007354924643467771 0.0007557506789058583 0.002046935057135746 0.0 0.0
0.0 0.006145529482475841 -0.0054979087464006515 0.004867522021686289 0.0006303867247143616 0.0015073730294931655 0.0 0.0
0.0 0.0037314338382112384 -0.0033698406324448663 0.0028929410832952487 0.00047689954914961795 0.0010168703402445261 0.0 0.0
0.0 0.00187041880505523 -0.0017023755352850944 0.0014063693853245732 0.0002960061499605218 0.0005844183365873419 0.0 0.0
0.0 0.0007365505695051244 -0.0005168860235102528 0.0004133679673180633 0.00010351805619218903 0.00022626929826790113 0.0 0.0
0.0 9.827086453332806e-05 -2.1339715535000737e-05 1.700495135872792e-05 4.334764176272945e-06 1.3329187865829624e-05 0.0 0.0
0.0 2.505328812068445e-06 2.5317746015048106e-07 -2.004950959519918e-07 -5.2682364198484455e-08 -2.703398457904753e-07 0.0 0.0
0.0 0.0 0.0 0.0 0.0 0.0 0.0 0.0
0.0 0.0 0.0 0.0 0.0 0.0 0.0 0.0
0.0 0.0 0.0 0.0 0.0 0.0 0.0 0.0
0.0 0.0 0.0 0.0 0.0 0.0 0.0 0.0
0.0 0.0 0.0 0.0 0.0 0.0 0.0 0.0
0.0 0.0 0.0 0.0 0.0 0.0 0.0 0.0
0.0 7.217443276911551e-06 8.68179010796905e-07 -6.71359549835835e-07 -1.9681946096104174e-07 5.384504577851146e-07 0.0 0.0
0.0 0.000230416733738253 -8.724778612893255e-05 6.95080432226963e-05 1.773974290623646e-05 -3.263331225564192e-05 0.0 0.0
0.0 0.0009782186005363029 -0.0009067198307743422 0.0007310920693021443 0.00017562776147219783 -0.0002224433008785662 0.0 0.0
0.0 0.0025019891332649295 -0.0022941779245933725 0.0019248698196669641 0.00036930810492640805 -0.00045218781034695674 0.0 0.0
0.0 0.0046168962031089885 -0.004190137588000362 0.003646559924581575 0.0005435776634187864 -0.0007343320049424278 0.0 0.0
0.0 0.007355734991874941 -0.006600547228020707 0.005912375809134932 0.0006881714188857749 -0.0010650586340585715 0.0 0.0
0.0 0.010759508268138585 -0.009572700630935339 0.008763868703614196 0.0008088319273211399 -0.0014384704710341384 0.0 0.0
0.0 0.014982785818662431 -0.013231351748286619 0.012317290039303964 0.0009140617089826554 -0.0018358779243571371 0.0 0.0
0.0 0.02032701747721516 -0.017800840074968266 0.01679012564062319 0.0010107144343450697 -0.002266084145151208 0.0 0.0
0.0 0.02682476317100394 -0.023566603208651275 0.02246275681181535 0.0011038463968359251 -0.0028157538999597537 0.0 0.0
0.0 0.03501797268985391 -0.03074064725846296 0.029542945438652345 0.0011977018198106096 -0.0035185759656552523 0.0 0.0
0.0 0.044923135450749954 -0.03934191171429027 0.03804649658011019 0.0012954151341800998 -0.004294351822132939 0.0 0.0
0.0 0.05608956566912338 -0.049049873499113605 0.04765207428263611 0.0013977992164774839 -0.004899406991976307 0.0 0.0
0.0 0.06760289971769529 -0.059073481213386715 0.057567266132765194 0.0015062150806215437 -0.004966907830394124 0.0 0.0
0.0 0.07779094710633248 -0.06792512098958267 0.06628679865314019 0.0016383223364425056 -0.0054834786988313036 0.0 0.0
0.0 0.08271091164840452 -0.07195752116439905 0.07002185001193181 0.0019356711524671929 -0.012204852565892786 0.0 0.0
0.0 0.07384375104112327 -0.06276743250455899 0.06051820146830547 0.002249231036253509 -0.02945961079882041 0.0 0.0
0.0 0.07384375104112184 -0.06276743250455627 0.060518201468302876 0.002249231036253384 0.029459610798832282 0.0 0.0
0.0 0.08271091164839409 -0.0719575211643892 0.07002185001192242 0.001935671152466748 0.01220485256590816 0.0 0.0
0.0 0.07779094710631418 -0.06792512098956621 0.0662867986531245 0.0016383223364416803 0.005483478698842942 0.0 0.0
0.0 0.06760289971767185 -0.05907348121336594 0.05756726613274525 0.0015062150806206874 0.0049669078303969045 0.0 0.0
0.0 0.05608956566909718 -0.04904987349909055 0.047652074282613865 0.0013977992164766846 0.004899406991977069 0.0 0.0
0.0 0.04492313545072413 -0.03934191171426747 0.03804649658008836 0.0012954151341791238 0.004294351822133115 0.0 0.0
0.0 0.035017972689826635 -0.03074064725843892 0.0295429454386293 0.0011977018198096089 0.0035185759656540605 0.0 0.0
0.0 0.02682476317097621 -0.023566603208626923 0.02246275681179175 0.0011038463968351764 0.002815753899957382 0.0 0.0
0.0 0.020327017477186703 -0.017800840074943 0.016790125640598556 0.0010107144343444383 0.002266084145150067 0.0 0.0
0.0 0.01498278581863571 -0.013231351748262878 0.012317290039281118 0.0009140617089817538 0.0018358779243532824 0.0 0.0
0.0 0.010759508268115794 -0.009572700630914827 0.008763868703594616 0.0008088319273202135 0.0014384704710301485 0.0 0.0
0.0 0.00735573499185703 -0.006600547228003919 0.005912375809119172 0.0006881714188847467 0.0010650586340563552 0.0 0.0
0.0 0.004616896203094284 -0.0041901375879865 0.0036465599245688457 0.0005435776634176544 0.0007343320049400305 0.0 0.0
0.0 0.0025019891332540463 -0.0022941779245827733 0.0019248698196576684 0.000369308104925104 0.0004521878103449102 0.0 0.0
0.0 0.0009782186005303957 -0.0009067198307686653 0.0007310920692974518 0.0001756277614712133 0.00022244330087717773 0.0 0.0
0.0 0.00023041673373587845 -8.72477861277762e-05 6.950804322176884e-05 1.7739742906007214e-05 3.263331225523569e-05 0.0 0.0
0.0 7.217443276285659e-06 8.681790107182434e-07 -6.713595497753641e-07 -1.9681946094292053e-07 -5.384504577394223e-07 0.0 0.0
0.0 0.0 0.0 0.0 0.0 0.0 0.0 0.0
0.0 0.0 0.0 0.0 0.0 0.0 0.0 0.0
0.0 0.0 0.0 0.0 0.0 0.0 0.0 0.0
0.0 0.0 0.0 0.0 0.0 0.0 0.0 0.0
0.0 0.0 0.0 0.0 0.0 0.0 0.0 0.0
0.0 0.0 0.0 0.0 0.0 0.0 0.0 0.0
0.0 1.3220964968873506e-05 1.7909406834492612e-06 -1.3770654118147467e-06 -4.138752716343679e-07 4.5825818987221563e-07 0.0 0.0
0.0 0.000477264174187485 -0.00023420883614463082 0.00018616757827550262 4.8041257869128106e-05 -3.5245478513976414e-05 0.0 0.0
0.0 0.0014154551284199192 -0.001313206586572025 0.0010701398114041805 0.0002430667751678444 -0.00011195226694287478 0.0 0.0
0.0 0.003155724115587906 -0.0029023524387297504 0.002468899735693622 0.0004334527030361271 -0.00020364426942809968 0.0 0.0
0.0 0.005535585416325702 -0.005014578749343838 0.004415852578648026 0.000598726170695811 -0.0003141558471323948 0.0 0.0
0.0 0.008604995950825655 -0.00770633563647048 0.006970161676525293 0.0007361739599451864 -0.000454006900384826 0.0 0.0
0.0 0.012452365344905365 -0.011041163671879656 0.01018698489490124 0.0008541787769784127 -0.0006196288635538803 0.0 0.0
0.0 0.017276141708424786 -0.0151732921205654 0.014213144984300633 0.0009601471362647592 -0.0007912019532062088 0.0 0.0
0.0 0.023085615510261778 -0.02036116941216099 0.01929971958995514 0.001061449822205852 -0.0009989373215349958 0.0 0.0
0.0 0.030492541817205784 -0.02686903211036354 0.025707918685508927 0.0011611134248546008 -0.0012557515868269894 0.0 0.0
0.0 0.039727636300983867 -0.03490006535523196 0.0336367304129716 0.0012633349422603469 -0.001558549685956159 0.0 0.0
0.0 0.05068892972337715 -0.0444254017598357 0.043053380500291574 0.0013720212595441264 -0.0018791350731451144 0.0 0.0
0.0 0.06285338482232694 -0.05497006272356403 0.05348312795295471 0.0014869347706093414 -0.0020566407529378763 0.0 0.0
0.0 0.07502763591785393 -0.0655255215635823 0.06392373679198456 0.0016017847715977056 -0.0018148393221424793 0.0 0.0
0.0 0.0855119030730824 -0.07464966786461438 0.07294203402098581 0.0017076338436285532 -0.0009006834341805969 0.0 0.0
0.0 0.09210755406135501 -0.08030635812118347 0.07846152661546556 0.0018448315057178729 -0.0030871337690148498 0.0 0.0
0.0 0.08690689952209753 -0.07447836414201864 0.07188214501929785 0.002596219122720795 -0.027490815289404107 0.0 0.0
0.0 0.08690689952209371 -0.07447836414201486 0.07188214501929398 0.002596219122720838 0.02749081528940909 0.0 0.0
0.0 0.09210755406133991 -0.08030635812117029 0.07846152661545251 0.001844831505717779 0.0030871337690217284 0.0 0.0
0.0 0.08551190307305885 -0.0746496678645938 0.07294203402096562 0.0017076338436281483 0.000900683434186439 0.0 0.0
0.0 0.07502763591782591 -0.06552552156355784 0.06392373679196052 0.0016017847715973108 0.0018148393221418318 0.0 0.0
0.0 0.06285338482229826 -0.05497006272353885 0.05348312795293009 0.0014869347706087663 0.0020566407529378954 0.0 0.0
0.0 0.05068892972334736 -0.044425401759809656 0.04305338050026616 0.0013720212595434945 0.0018791350731445205 0.0 0.0
0.0 0.039727636300953294 -0.034900065355205144 0.03363673041294564 0.0012633349422595166 0.0015585496859568254 0.0 0.0
0.0 0.030492541817174916 -0.026869032110336328 0.02570791868548283 0.0011611134248534854 0.0012557515868253663 0.0 0.0
0.0 0.02308561551023047 -0.020361169412133357 0.019299719589928536 0.0010614498222048091 0.0009989373215352924 0.0 0.0
0.0 0.01727614170839569 -0.015173292120539647 0.014213144984275715 0.0009601471362639259 0.0007912019532037444 0.0 0.0
0.0 0.012452365344879984 -0.011041163671857342 0.010186984894879755 0.0008541787769775872 0.0006196288635523295 0.0 0.0
0.0 0.0086049959508054 -0.007706335636452033 0.006970161676507689 0.0007361739599443442 0.00045400690038411163 0.0 0.0
0.0 0.005535585416309949 -0.005014578749328926 0.004415852578634074 0.000598726170694852 0.0003141558471314573 0.0 0.0
0.0 0.0031557241155765144 -0.0029023524387188117 0.0024688997356837137 0.0004334527030350977 0.0002036442694273721 0.0 0.0
0.0 0.001415455128413337 -0.0013132065865653023 0.0010701398113984377 0.00024306677516686405 0.00011195226694219905 0.0 0.0
0.0 0.0004772641741838147 -0.00023420883614229572 0.00018616757827362527 4.8041257868670796e-05 3.524547851367308e-05 0.0 0.0
0.0 1.3220964968205055e-05 1.790940683362012e-06 -1.377065411748653e-06 -4.1387527161337006e-07 -4.582581898558443e-07 0.0 0.0
0.0 0.0 0.0 0.0 0.0 0.0 0.0 0.0
0.0 0.0 0.0 0.0 0.0 0.0 0.0 0.0
0.0 0.0 0.0 0.0 0.0 0.0 0.0 0.0