# vtk DataFile Version 3.0
Some data
ASCII
DATASET UNSTRUCTURED_GRID
POINTS 861 float
0.0 0.0 0.0
0.4 0.0 0.0
0.8 0.0 0.0
1.2000000000000002 0.0 0.0
1.6 0.0 0.0
2.0 0.0 0.0
2.4000000000000004 0.0 0.0
2.8000000000000003 0.0 0.0
3.2 0.0 0.0
3.6 0.0 0.0
4.0 0.0 0.0
4.4 0.0 0.0
4.800000000000001 0.0 0.0
5.2 0.0 0.0
5.6000000000000005 0.0 0.0
6.0 0.0 0.0
6.4 0.0 0.0
6.800000000000001 0.0 0.0
7.2 0.0 0.0
7.6000000000000005 0.0 0.0
8.0 0.0 0.0
8.4 0.0 0.0
8.8 0.0 0.0
9.200000000000001 0.0 0.0
9.600000000000001 0.0 0.0
10.0 0.0 0.0
10.4 0.0 0.0
10.8 0.0 0.0
11.200000000000001 0.0 0.0
11.600000000000001 0.0 0.0
12.0 0.0 0.0
12.4 0.0 0.0
12.8 0.0 0.0
13.200000000000001 0.0 0.0
13.600000000000001 0.0 0.0
14.0 0.0 0.0
14.4 0.0 0.0
14.8 0.0 0.0
15.200000000000001 0.0 0.0
15.600000000000001 0.0 0.0
16.0 0.0 0.0
0.0 0.1 0.0
0.4 0.1 0.0
0.8 0.1 0.0
1.2000000000000002 0.1 0.0
1.6 0.1 0.0
2.0 0.1 0.0
2.4000000000000004 0.1 0.0
2.8000000000000003 0.1 0.0
3.2 0.1 0.0
3.6 0.1 0.0
4.0 0.1 0.0
4.4 0.1 0.0
4.800000000000001 0.1 0.0
5.2 0.1 0.0
5.6000000000000005 0.1 0.0
6.0 0.1 0.0
6.4 0.1 0.0
6.800000000000001 0.1 0.0
7.2 0.1 0.0
7.6000000000000005 0.1 0.0
8.0 0.1 0.0
8.4 0.1 0.0
8.8 0.1 0.0
9.200000000000001 0.1 0.0
9.600000000000001 0.1 0.0
10.0 0.1 0.0
10.4 0.1 0.0
10.8 0.1 0.0
11.200000000000001 0.1 0.0
11.600000000000001 0.1 0.0
12.0 0.1 0.0
12.4 0.1 0.0
12.8 0.1 0.0
13.200000000000001 0.1 0.0
13.600000000000001 0.1 0.0
14.0 0.1 0.0
14.4 0.1 0.0
14.8 0.1 0.0
15.200000000000001 0.1 0.0
15.600000000000001 0.1 0.0
16.0 0.1 0.0
0.0 0.2 0.0
0.4 0.2 0.0
0.8 0.2 0.0
1.2000000000000002 0.2 0.0
1.6 0.2 0.0
2.0 0.2 0.0
2.4000000000000004 0.2 0.0
2.8000000000000003 0.2 0.0
3.2 0.2 0.0
3.6 0.2 0.0
4.0 0.2 0.0
4.4 0.2 0.0
4.800000000000001 0.2 0.0
5.2 0.2 0.0
5.6000000000000005 0.2 0.0
6.0 0.2 0.0
6.4 0.2 0.0
6.800000000000001 0.2 0.0
7.2 0.2 0.0
7.6000000000000005 0.2 0.0
8.0 0.2 0.0
8.4 0.2 0.0
8.8 0.2 0.0
9.200000000000001 0.2 0.0
9.600000000000001 0.2 0.0
10.0 0.2 0.0
10.4 0.2 0.0
10.8 0.2 0.0
11.200000000000001 0.2 0.0
11.600000000000001 0.2 0.0
12.0 0.2 0.0
12.4 0.2 0.0
12.8 0.2 0.0
13.200000000000001 0.2 0.0
13.600000000000001 0.2 0.0
14.0 0.2 0.0
14.4 0.2 0.0
14.8 0.2 0.0
15.200000000000001 0.2 0.0
15.600000000000001 0.2 0.0
16.0 0.2 0.0
0.0 0.30000000000000004 0.0
0.4 0.30000000000000004 0.0
0.8 0.30000000000000004 0.0
1.2000000000000002 0.30000000000000004 0.0
1.6 0.30000000000000004 0.0
2.0 0.30000000000000004 0.0
2.4000000000000004 0.30000000000000004 0.0
2.8000000000000003 0.30000000000000004 0.0
3.2 0.30000000000000004 0.0
3.6 0.30000000000000004 0.0
4.0 0.30000000000000004 0.0
4.4 0.30000000000000004 0.0
4.800000000000001 0.30000000000000004 0.0
5.2 0.30000000000000004 0.0
5.6000000000000005 0.30000000000000004 0.0
6.0 0.30000000000000004 0.0
6.4 0.30000000000000004 0.0
6.800000000000001 0.30000000000000004 0.0
7.2 0.30000000000000004 0.0
7.6000000000000005 0.30000000000000004 0.0
8.0 0.30000000000000004 0.0
8.4 0.30000000000000004 0.0
8.8 0.30000000000000004 0.0
9.200000000000001 0.30000000000000004 0.0
9.600000000000001 0.30000000000000004 0.0
10.0 0.30000000000000004 0.0
10.4 0.30000000000000004 0.0
10.8 0.30000000000000004 0.0
11.200000000000001 0.30000000000000004 0.0
11.600000000000001 0.30000000000000004 0.0
12.0 0.30000000000000004 0.0
12.4 0.30000000000000004 0.0
12.8 0.30000000000000004 0.0
13.200000000000001 0.30000000000000004 0.0
13.600000000000001 0.30000000000000004 0.0
14.0 0.30000000000000004 0.0
14.4 0.30000000000000004 0.0
14.8 0.30000000000000004 0.0
15.200000000000001 0.30000000000000004 0.0
15.600000000000001 0.30000000000000004 0.0
16.0 0.30000000000000004 0.0
0.0 0.4 0.0
0.4 0.4 0.0
0.8 0.4 0.0
1.2000000000000002 0.4 0.0
1.6 0.4 0.0
2.0 0.4 0.0
2.4000000000000004 0.4 0.0
2.8000000000000003 0.4 0.0
3.2 0.4 0.0
3.6 0.4 0.0
4.0 0.4 0.0
4.4 0.4 0.0
4.800000000000001 0.4 0.0
5.2 0.4 0.0
5.6000000000000005 0.4 0.0
6.0 0.4 0.0
6.4 0.4 0.0
6.800000000000001 0.4 0.0
7.2 0.4 0.0
7.6000000000000005 0.4 0.0
8.0 0.4 0.0
8.4 0.4 0.0
8.8 0.4 0.0
9.200000000000001 0.4 0.0
9.600000000000001 0.4 0.0
10.0 0.4 0.0
10.4 0.4 0.0
10.8 0.4 0.0
11.200000000000001 0.4 0.0
11.600000000000001 0.4 0.0
12.0 0.4 0.0
12.4 0.4 0.0
12.8 0.4 0.0
13.200000000000001 0.4 0.0
13.600000000000001 0.4 0.0
14.0 0.4 0.0
14.4 0.4 0.0
14.8 0.4 0.0
15.200000000000001 0.4 0.0
15.600000000000001 0.4 0.0
16.0 0.4 0.0
0.0 0.5 0.0
0.4 0.5 0.0
0.8 0.5 0.0
1.2000000000000002 0.5 0.0
1.6 0.5 0.0
2.0 0.5 0.0
2.4000000000000004 0.5 0.0
2.8000000000000003 0.5 0.0
3.2 0.5 0.0
3.6 0.5 0.0
4.0 0.5 0.0
4.4 0.5 0.0
4.800000000000001 0.5 0.0
5.2 0.5 0.0
5.6000000000000005 0.5 0.0
6.0 0.5 0.0
6.4 0.5 0.0
6.800000000000001 0.5 0.0
7.2 0.5 0.0
7.6000000000000005 0.5 0.0
8.0 0.5 0.0
8.4 0.5 0.0
8.8 0.5 0.0
9.200000000000001 0.5 0.0
9.600000000000001 0.5 0.0
10.0 0.5 0.0
10.4 0.5 0.0
10.8 0.5 0.0
11.200000000000001 0.5 0.0
11.600000000000001 0.5 0.0
12.0 0.5 0.0
12.4 0.5 0.0
12.8 0.5 0.0
13.200000000000001 0.5 0.0
13.600000000000001 0.5 0.0
14.0 0.5 0.0
14.4 0.5 0.0
14.8 0.5 0.0
15.200000000000001 0.5 0.0
15.600000000000001 0.5 0.0
16.0 0.5 0.0
0.0 0.6000000000000001 0.0
0.4 0.6000000000000001 0.0
0.8 0.6000000000000001 0.0
1.2000000000000002 0.6000000000000001 0.0
1.6 0.6000000000000001 0.0
2.0 0.6000000000000001 0.0
2.4000000000000004 0.6000000000000001 0.0
2.8000000000000003 0.6000000000000001 0.0
3.2 0.6000000000000001 0.0
3.6 0.6000000000000001 0.0
4.0 0.6000000000000001 0.0
4.4 0.6000000000000001 0.0
4.800000000000001 0.6000000000000001 0.0
5.2 0.6000000000000001 0.0
5.6000000000000005 0.6000000000000001 0.0
6.0 0.6000000000000001 0.0
6.4 0.6000000000000001 0.0
6.800000000000001 0.6000000000000001 0.0
7.2 0.6000000000000001 0.0
7.6000000000000005 0.6000000000000001 0.0
8.0 0.6000000000000001 0.0
8.4 0.6000000000000001 0.0
8.8 0.6000000000000001 0.0
9.200000000000001 0.6000000000000001 0.0
9.600000000000001 0.6000000000000001 0.0
10.0 0.6000000000000001 0.0
10.4 0.6000000000000001 0.0
10.8 0.6000000000000001 0.0
11.200000000000001 0.6000000000000001 0.0
11.600000000000001 0.6000000000000001 0.0
12.0 0.6000000000000001 0.0
12.4 0.6000000000000001 0.0
12.8 0.6000000000000001 0.0
13.200000000000001 0.6000000000000001 0.0
13.600000000000001 0.6000000000000001 0.0
14.0 0.6000000000000001 0.0
14.4 0.6000000000000001 0.0
14.8 0.6000000000000001 0.0
15.200000000000001 0.6000000000000001 0.0
15.600000000000001 0.6000000000000001 0.0
16.0 0.6000000000000001 0.0
0.0 0.7000000000000001 0.0
0.4 0.7000000000000001 0.0
0.8 0.7000000000000001 0.0
1.2000000000000002 0.7000000000000001 0.0
1.6 0.7000000000000001 0.0
2.0 0.7000000000000001 0.0
2.4000000000000004 0.7000000000000001 0.0
2.8000000000000003 0.7000000000000001 0.0
3.2 0.7000000000000001 0.0
3.6 0.7000000000000001 0.0
4.0 0.7000000000000001 0.0
4.4 0.7000000000000001 0.0
4.800000000000001 0.7000000000000001 0.0
5.2 0.7000000000000001 0.0
5.6000000000000005 0.7000000000000001 0.0
6.0 0.7000000000000001 0.0
6.4 0.7000000000000001 0.0
6.800000000000001 0.7000000000000001 0.0
7.2 0.7000000000000001 0.0
7.6000000000000005 0.7000000000000001 0.0
8.0 0.7000000000000001 0.0
8.4 0.7000000000000001 0.0
8.8 0.7000000000000001 0.0
9.200000000000001 0.7000000000000001 0.0
9.600000000000001 0.7000000000000001 0.0
10.0 0.7000000000000001 0.0
10.4 0.7000000000000001 0.0
10.8 0.7000000000000001 0.0
11.200000000000001 0.7000000000000001 0.0
11.600000000000001 0.7000000000000001 0.0
12.0 0.7000000000000001 0.0
12.4 0.7000000000000001 0.0
12.8 0.7000000000000001 0.0
13.200000000000001 0.7000000000000001 0.0
13.600000000000001 0.7000000000000001 0.0
14.0 0.7000000000000001 0.0
14.4 0.7000000000000001 0.0
14.8 0.7000000000000001 0.0
15.200000000000001 0.7000000000000001 0.0
15.600000000000001 0.7000000000000001 0.0
16.0 0.7000000000000001 0.0
0.0 0.8 0.0
0.4 0.8 0.0
0.8 0.8 0.0
1.2000000000000002 0.8 0.0
1.6 0.8 0.0
2.0 0.8 0.0
2.4000000000000004 0.8 0.0
2.8000000000000003 0.8 0.0
3.2 0.8 0.0
3.6 0.8 0.0
4.0 0.8 0.0
4.4 0.8 0.0
4.800000000000001 0.8 0.0
5.2 0.8 0.0
5.6000000000000005 0.8 0.0
6.0 0.8 0.0
6.4 0.8 0.0
6.800000000000001 0.8 0.0
7.2 0.8 0.0
7.6000000000000005 0.8 0.0
8.0 0.8 0.0
8.4 0.8 0.0
8.8 0.8 0.0
9.200000000000001 0.8 0.0
9.600000000000001 0.8 0.0
10.0 0.8 0.0
10.4 0.8 0.0
10.8 0.8 0.0
11.200000000000001 0.8 0.0
11.600000000000001 0.8 0.0
12.0 0.8 0.0
12.4 0.8 0.0
12.8 0.8 0.0
13.200000000000001 0.8 0.0
13.600000000000001 0.8 0.0
14.0 0.8 0.0
14.4 0.8 0.0
14.8 0.8 0.0
15.200000000000001 0.8 0.0
15.600000000000001 0.8 0.0
16.0 0.8 0.0
0.0 0.9 0.0
0.4 0.9 0.0
0.8 0.9 0.0
1.2000000000000002 0.9 0.0
1.6 0.9 0.0
2.0 0.9 0.0
2.4000000000000004 0.9 0.0
2.8000000000000003 0.9 0.0
3.2 0.9 0.0
3.6 0.9 0.0
4.0 0.9 0.0
4.4 0.9 0.0
4.800000000000001 0.9 0.0
5.2 0.9 0.0
5.6000000000000005 0.9 0.0
6.0 0.9 0.0
6.4 0.9 0.0
6.800000000000001 0.9 0.0
7.2 0.9 0.0
7.6000000000000005 0.9 0.0
8.0 0.9 0.0
8.4 0.9 0.0
8.8 0.9 0.0
9.200000000000001 0.9 0.0
9.600000000000001 0.9 0.0
10.0 0.9 0.0
10.4 0.9 0.0
10.8 0.9 0.0
11.200000000000001 0.9 0.0
11.600000000000001 0.9 0.0
12.0 0.9 0.0
12.4 0.9 0.0
12.8 0.9 0.0
13.200000000000001 0.9 0.0
13.600000000000001 0.9 0.0
14.0 0.9 0.0
14.4 0.9 0.0
14.8 0.9 0.0
15.200000000000001 0.9 0.0
15.600000000000001 0.9 0.0
16.0 0.9 0.0
0.0 1.0 0.0
0.4 1.0 0.0
0.8 1.0 0.0
1.2000000000000002 1.0 0.0
1.6 1.0 0.0
2.0 1.0 0.0
2.4000000000000004 1.0 0.0
2.8000000000000003 1.0 0.0
3.2 1.0 0.0
3.6 1.0 0.0
4.0 1.0 0.0
4.4 1.0 0.0
4.800000000000001 1.0 0.0
5.2 1.0 0.0
5.6000000000000005 1.0 0.0
6.0 1.0 0.0
6.4 1.0 0.0
6.800000000000001 1.0 0.0
7.2 1.0 0.0
7.6000000000000005 1.0 0.0
8.0 1.0 0.0
8.4 1.0 0.0
8.8 1.0 0.0
9.200000000000001 1.0 0.0
9.600000000000001 1.0 0.0
10.0 1.0 0.0
10.4 1.0 0.0
10.8 1.0 0.0
11.200000000000001 1.0 0.0
11.600000000000001 1.0 0.0
12.0 1.0 0.0
12.4 1.0 0.0
12.8 1.0 0.0
13.200000000000001 1.0 0.0
13.600000000000001 1.0 0.0
14.0 1.0 0.0
14.4 1.0 0.0
14.8 1.0 0.0
15.200000000000001 1.0 0.0
15.600000000000001 1.0 0.0
16.0 1.0 0.0
0.0 1.1 0.0
0.4 1.1 0.0
0.8 1.1 0.0
1.2000000000000002 1.1 0.0
1.6 1.1 0.0
2.0 1.1 0.0
2.4000000000000004 1.1 0.0
2.8000000000000003 1.1 0.0
3.2 1.1 0.0
3.6 1.1 0.0
4.0 1.1 0.0
4.4 1.1 0.0
4.800000000000001 1.1 0.0
5.2 1.1 0.0
5.6000000000000005 1.1 0.0
6.0 1.1 0.0
6.4 1.1 0.0
6.800000000000001 1.1 0.0
7.2 1.1 0.0
7.6000000000000005 1.1 0.0
8.0 1.1 0.0
8.4 1.1 0.0
8.8 1.1 0.0
9.200000000000001 1.1 0.0
9.600000000000001 1.1 0.0
10.0 1.1 0.0
10.4 1.1 0.0
10.8 1.1 0.0
11.200000000000001 1.1 0.0
11.600000000000001 1.1 0.0
12.0 1.1 0.0
12.4 1.1 0.0
12.8 1.1 0.0
13.200000000000001 1.1 0.0
13.600000000000001 1.1 0.0
14.0 1.1 0.0
14.4 1.1 0.0
14.8 1.1 0.0
15.200000000000001 1.1 0.0
15.600000000000001 1.1 0.0
16.0 1.1 0.0
0.0 1.2000000000000002 0.0
0.4 1.2000000000000002 0.0
0.8 1.2000000000000002 0.0
1.2000000000000002 1.2000000000000002 0.0
1.6 1.2000000000000002 0.0
2.0 1.2000000000000002 0.0
2.4000000000000004 1.2000000000000002 0.0
2.8000000000000003 1.2000000000000002 0.0
3.2 1.2000000000000002 0.0
3.6 1.2000000000000002 0.0
4.0 1.2000000000000002 0.0
4.4 1.2000000000000002 0.0
4.800000000000001 1.2000000000000002 0.0
5.2 1.2000000000000002 0.0
5.6000000000000005 1.2000000000000002 0.0
6.0 1.2000000000000002 0.0
6.4 1.2000000000000002 0.0
6.800000000000001 1.2000000000000002 0.0
7.2 1.2000000000000002 0.0
7.6000000000000005 1.2000000000000002 0.0
8.0 1.2000000000000002 0.0
8.4 1.2000000000000002 0.0
8.8 1.2000000000000002 0.0
9.200000000000001 1.2000000000000002 0.0
9.600000000000001 1.2000000000000002 0.0
10.0 1.2000000000000002 0.0
10.4 1.2000000000000002 0.0
10.8 1.2000000000000002 0.0
11.200000000000001 1.2000000000000002 0.0
11.600000000000001 1.2000000000000002 0.0
12.0 1.2000000000000002 0.0
12.4 1.2000000000000002 0.0
12.8 1.2000000000000002 0.0
13.200000000000001 1.2000000000000002 0.0
13.600000000000001 1.2000000000000002 0.0
14.0 1.2000000000000002 0.0
14.4 1.2000000000000002 0.0
14.8 1.2000000000000002 0.0
15.200000000000001 1.2000000000000002 0.0
15.600000000000001 1.2000000000000002 0.0
16.0 1.2000000000000002 0.0
0.0 1.3 0.0
0.4 1.3 0.0
0.8 1.3 0.0
1.2000000000000002 1.3 0.0
1.6 1.3 0.0
2.0 1.3 0.0
2.4000000000000004 1.3 0.0
2.8000000000000003 1.3 0.0
3.2 1.3 0.0
3.6 1.3 0.0
4.0 1.3 0.0
4.4 1.3 0.0
4.800000000000001 1.3 0.0
5.2 1.3 0.0
5.6000000000000005 1.3 0.0
6.0 1.3 0.0
6.4 1.3 0.0
6.800000000000001 1.3 0.0
7.2 1.3 0.0
7.6000000000000005 1.3 0.0
8.0 1.3 0.0
8.4 1.3 0.0
8.8 1.3 0.0
9.200000000000001 1.3 0.0
9.600000000000001 1.3 0.0
10.0 1.3 0.0
10.4 1.3 0.0
10.8 1.3 0.0
11.200000000000001 1.3 0.0
11.600000000000001 1.3 0.0
12.0 1.3 0.0
12.4 1.3 0.0
12.8 1.3 0.0
13.200000000000001 1.3 0.0
13.600000000000001 1.3 0.0
14.0 1.3 0.0
14.4 1.3 0.0
14.8 1.3 0.0
15.200000000000001 1.3 0.0
15.600000000000001 1.3 0.0
16.0 1.3 0.0
0.0 1.4000000000000001 0.0
0.4 1.4000000000000001 0.0
0.8 1.4000000000000001 0.0
1.2000000000000002 1.4000000000000001 0.0
1.6 1.4000000000000001 0.0
2.0 1.4000000000000001 0.0
2.4000000000000004 1.4000000000000001 0.0
2.8000000000000003 1.4000000000000001 0.0
3.2 1.4000000000000001 0.0
3.6 1.4000000000000001 0.0
4.0 1.4000000000000001 0.0
4.4 1.4000000000000001 0.0
4.800000000000001 1.4000000000000001 0.0
5.2 1.4000000000000001 0.0
5.6000000000000005 1.4000000000000001 0.0
6.0 1.4000000000000001 0.0
6.4 1.4000000000000001 0.0
6.800000000000001 1.4000000000000001 0.0
7.2 1.4000000000000001 0.0
7.6000000000000005 1.4000000000000001 0.0
8.0 1.4000000000000001 0.0
8.4 1.4000000000000001 0.0
8.8 1.4000000000000001 0.0
9.200000000000001 1.4000000000000001 0.0
9.600000000000001 1.4000000000000001 0.0
10.0 1.4000000000000001 0.0
10.4 1.4000000000000001 0.0
10.8 1.4000000000000001 0.0
11.200000000000001 1.4000000000000001 0.0
11.600000000000001 1.4000000000000001 0.0
12.0 1.4000000000000001 0.0
12.4 1.4000000000000001 0.0
12.8 1.4000000000000001 0.0
13.200000000000001 1.4000000000000001 0.0
13.600000000000001 1.4000000000000001 0.0
14.0 1.4000000000000001 0.0
14.4 1.4000000000000001 0.0
14.8 1.4000000000000001 0.0
15.200000000000001 1.4000000000000001 0.0
15.600000000000001 1.4000000000000001 0.0
16.0 1.4000000000000001 0.0
0.0 1.5 0.0
0.4 1.5 0.0
0.8 1.5 0.0
1.2000000000000002 1.5 0.0
1.6 1.5 0.0
2.0 1.5 0.0
2.4000000000000004 1.5 0.0
2.8000000000000003 1.5 0.0
3.2 1.5 0.0
3.6 1.5 0.0
4.0 1.5 0.0
4.4 1.5 0.0
4.800000000000001 1.5 0.0
5.2 1.5 0.0
5.6000000000000005 1.5 0.0
6.0 1.5 0.0
6.4 1.5 0.0
6.800000000000001 1.5 0.0
7.2 1.5 0.0
7.6000000000000005 1.5 0.0
8.0 1.5 0.0
8.4 1.5 0.0
8.8 1.5 0.0
9.200000000000001 1.5 0.0
9.600000000000001 1.5 0.0
10.0 1.5 0.0
10.4 1.5 0.0
10.8 1.5 0.0
11.200000000000001 1.5 0.0
11.600000000000001 1.5 0.0
12.0 1.5 0.0
12.4 1.5 0.0
12.8 1.5 0.0
13.200000000000001 1.5 0.0
13.600000000000001 1.5 0.0
14.0 1.5 0.0
14.4 1.5 0.0
14.8 1.5 0.0
15.200000000000001 1.5 0.0
15.600000000000001 1.5 0.0
16.0 1.5 0.0
0.0 1.6 0.0
0.4 1.6 0.0
0.8 1.6 0.0
1.2000000000000002 1.6 0.0
1.6 1.6 0.0
2.0 1.6 0.0
2.4000000000000004 1.6 0.0
2.8000000000000003 1.6 0.0
3.2 1.6 0.0
3.6 1.6 0.0
4.0 1.6 0.0
4.4 1.6 0.0
4.800000000000001 1.6 0.0
5.2 1.6 0.0
5.6000000000000005 1.6 0.0
6.0 1.6 0.0
6.4 1.6 0.0
6.800000000000001 1.6 0.0
7.2 1.6 0.0
7.6000000000000005 1.6 0.0
8.0 1.6 0.0
8.4 1.6 0.0
8.8 1.6 0.0
9.200000000000001 1.6 0.0
9.600000000000001 1.6 0.0
10.0 1.6 0.0
10.4 1.6 0.0
10.8 1.6 0.0
11.200000000000001 1.6 0.0
11.600000000000001 1.6 0.0
12.0 1.6 0.0
12.4 1.6 0.0
12.8 1.6 0.0
13.200000000000001 1.6 0.0
13.600000000000001 1.6 0.0
14.0 1.6 0.0
14.4 1.6 0.0
14.8 1.6 0.0
15.200000000000001 1.6 0.0
15.600000000000001 1.6 0.0
16.0 1.6 0.0
0.0 1.7000000000000002 0.0
0.4 1.7000000000000002 0.0
0.8 1.7000000000000002 0.0
1.2000000000000002 1.7000000000000002 0.0
1.6 1.7000000000000002 0.0
2.0 1.7000000000000002 0.0
2.4000000000000004 1.7000000000000002 0.0
2.8000000000000003 1.7000000000000002 0.0
3.2 1.7000000000000002 0.0
3.6 1.7000000000000002 0.0
4.0 1.7000000000000002 0.0
4.4 1.7000000000000002 0.0
4.800000000000001 1.7000000000000002 0.0
5.2 1.7000000000000002 0.0
5.6000000000000005 1.7000000000000002 0.0
6.0 1.7000000000000002 0.0
6.4 1.7000000000000002 0.0
6.800000000000001 1.7000000000000002 0.0
7.2 1.7000000000000002 0.0
7.6000000000000005 1.7000000000000002 0.0
8.0 1.7000000000000002 0.0
8.4 1.7000000000000002 0.0
8.8 1.7000000000000002 0.0
9.200000000000001 1.7000000000000002 0.0
9.600000000000001 1.7000000000000002 0.0
10.0 1.7000000000000002 0.0
10.4 1.7000000000000002 0.0
10.8 1.7000000000000002 0.0
11.200000000000001 1.7000000000000002 0.0
11.600000000000001 1.7000000000000002 0.0
12.0 1.7000000000000002 0.0
12.4 1.7000000000000002 0.0
12.8 1.7000000000000002 0.0
13.200000000000001 1.7000000000000002 0.0
13.600000000000001 1.7000000000000002 0.0
14.0 1.7000000000000002 0.0
14.4 1.7000000000000002 0.0
14.8 1.7000000000000002 0.0
15.200000000000001 1.7000000000000002 0.0
15.600000000000001 1.7000000000000002 0.0
16.0 1.7000000000000002 0.0
0.0 1.8 0.0
0.4 1.8 0.0
0.8 1.8 0.0
1.2000000000000002 1.8 0.0
1.6 1.8 0.0
2.0 1.8 0.0
2.4000000000000004 1.8 0.0
2.8000000000000003 1.8 0.0
3.2 1.8 0.0
3.6 1.8 0.0
4.0 1.8 0.0
4.4 1.8 0.0
4.800000000000001 1.8 0.0
5.2 1.8 0.0
5.6000000000000005 1.8 0.0
6.0 1.8 0.0
6.4 1.8 0.0
6.800000000000001 1.8 0.0
7.2 1.8 0.0
7.6000000000000005 1.8 0.0
8.0 1.8 0.0
8.4 1.8 0.0
8.8 1.8 0.0
9.200000000000001 1.8 0.0
9.600000000000001 1.8 0.0
10.0 1.8 0.0
10.4 1.8 0.0
10.8 1.8 0.0
11.200000000000001 1.8 0.0
11.600000000000001 1.8 0.0
12.0 1.8 0.0
12.4 1.8 0.0
12.8 1.8 0.0
13.200000000000001 1.8 0.0
13.600000000000001 1.8 0.0
14.0 1.8 0.0
14.4 1.8 0.0
14.8 1.8 0.0
15.200000000000001 1.8 0.0
15.600000000000001 1.8 0.0
16.0 1.8 0.0
0.0 1.9000000000000001 0.0
0.4 1.9000000000000001 0.0
0.8 1.9000000000000001 0.0
1.2000000000000002 1.9000000000000001 0.0
1.6 1.9000000000000001 0.0
2.0 1.9000000000000001 0.0
2.4000000000000004 1.9000000000000001 0.0
2.8000000000000003 1.9000000000000001 0.0
3.2 1.9000000000000001 0.0
3.6 1.9000000000000001 0.0
4.0 1.9000000000000001 0.0
4.4 1.9000000000000001 0.0
4.800000000000001 1.9000000000000001 0.0
5.2 1.9000000000000001 0.0
5.6000000000000005 1.9000000000000001 0.0
6.0 1.9000000000000001 0.0
6.4 1.9000000000000001 0.0
6.800000000000001 1.9000000000000001 0.0
7.2 1.9000000000000001 0.0
7.6000000000000005 1.9000000000000001 0.0
8.0 1.9000000000000001 0.0
8.4 1.9000000000000001 0.0
8.8 1.9000000000000001 0.0
9.200000000000001 1.9000000000000001 0.0
9.600000000000001 1.9000000000000001 0.0
10.0 1.9000000000000001 0.0
10.4 1.9000000000000001 0.0
10.8 1.9000000000000001 0.0
11.200000000000001 1.9000000000000001 0.0
11.600000000000001 1.9000000000000001 0.0
12.0 1.9000000000000001 0.0
12.4 1.9000000000000001 0.0
12.8 1.9000000000000001 0.0
13.200000000000001 1.9000000000000001 0.0
13.600000000000001 1.9000000000000001 0.0
14.0 1.9000000000000001 0.0
14.4 1.9000000000000001 0.0
14.8 1.9000000000000001 0.0
15.200000000000001 1.9000000000000001 0.0
15.600000000000001 1.9000000000000001 0.0
16.0 1.9000000000000001 0.0
0.0 2.0 0.0
0.4 2.0 0.0
0.8 2.0 0.0
1.2000000000000002 2.0 0.0
1.6 2.0 0.0
2.0 2.0 0.0
2.4000000000000004 2.0 0.0
2.8000000000000003 2.0 0.0
3.2 2.0 0.0
3.6 2.0 0.0
4.0 2.0 0.0
4.4 2.0 0.0
4.800000000000001 2.0 0.0
5.2 2.0 0.0
5.6000000000000005 2.0 0.0
6.0 2.0 0.0
6.4 2.0 0.0
6.800000000000001 2.0 0.0
7.2 2.0 0.0
7.6000000000000005 2.0 0.0
8.0 2.0 0.0
8.4 2.0 0.0
8.8 2.0 0.0
9.200000000000001 2.0 0.0
9.600000000000001 2.0 0.0
10.0 2.0 0.0
10.4 2.0 0.0
10.8 2.0 0.0
11.200000000000001 2.0 0.0
11.600000000000001 2.0 0.0
12.0 2.0 0.0
12.4 2.0 0.0
12.8 2.0 0.0
13.200000000000001 2.0 0.0
13.600000000000001 2.0 0.0
14.0 2.0 0.0
14.4 2.0 0.0
14.8 2.0 0.0
15.200000000000001 2.0 0.0
15.600000000000001 2.0 0.0
16.0 2.0 0.0
CELLS 800 4000
4 0 1 42 41
4 1 2 43 42
4 2 3 44 43
4 3 4 45 44
4 4 5 46 45
4 5 6 47 46
4 6 7 48 47
4 7 8 49 48
4 8 9 50 49
4 9 10 51 50
4 10 11 52 51
4 11 12 53 52
4 12 13 54 53
4 13 14 55 54
4 14 15 56 55
4 15 16 57 56
4 16 17 58 57
4 17 18 59 58
4 18 19 60 59
4 19 20 61 60
4 20 21 62 61
4 21 22 63 62
4 22 23 64 63
4 23 24 65 64
4 24 25 66 65
4 25 26 67 66
4 26 27 68 67
4 27 28 69 68
4 28 29 70 69
4 29 30 71 70
4 30 31 72 71
4 31 32 73 72
4 32 33 74 73
4 33 34 75 74
4 34 35 76 75
4 35 36 77 76
4 36 37 78 77
4 37 38 79 78
4 38 39 80 79
4 39 40 81 80
4 41 42 83 82
4 42 43 84 83
4 43 44 85 84
4 44 45 86 85
4 45 46 87 86
4 46 47 88 87
4 47 48 89 88
4 48 49 90 89
4 49 50 91 90
4 50 51 92 91
4 51 52 93 92
4 52 53 94 93
4 53 54 95 94
4 54 55 96 95
4 55 56 97 96
4 56 57 98 97
4 57 58 99 98
4 58 59 100 99
4 59 60 101 100
4 60 61 102 101
4 61 62 103 102
4 62 63 104 103
4 63 64 105 104
4 64 65 106 105
4 65 66 107 106
4 66 67 108 107
4 67 68 109 108
4 68 69 110 109
4 69 70 111 110
4 70 71 112 111
4 71 72 113 112
4 72 73 114 113
4 73 74 115 114
4 74 75 116 115
4 75 76 117 116
4 76 77 118 117
4 77 78 119 118
4 78 79 120 119
4 79 80 121 120
4 80 81 122 121
4 82 83 124 123
4 83 84 125 124
4 84 85 126 125
4 85 86 127 126
4 86 87 128 127
4 87 88 129 128
4 88 89 130 129
4 89 90 131 130
4 90 91 132 131
4 91 92 133 132
4 92 93 134 133
4 93 94 135 134
4 94 95 136 135
4 95 96 137 136
4 96 97 138 137
4 97 98 139 138
4 98 99 140 139
4 99 100 141 140
4 100 101 142 141
4 101 102 143 142
4 102 103 144 143
4 103 104 145 144
4 104 105 146 145
4 105 106 147 146
4 106 107 148 147
4 107 108 149 148
4 108 109 150 149
4 109 110 151 150
4 110 111 152 151
4 111 112 153 152
4 112 113 154 153
4 113 114 155 154
4 114 115 156 155
4 115 116 157 156
4 116 117 158 157
4 117 118 159 158
4 118 119 160 159
4 119 120 161 160
4 120 121 162 161
4 121 122 163 162
4 123 124 165 164
4 124 125 166 165
4 125 126 167 166
4 126 127 168 167
4 127 128 169 168
4 128 129 170 169
4 129 130 171 170
4 130 131 172 171
4 131 132 173 172
4 132 133 174 173
4 133 134 175 174
4 134 135 176 175
4 135 136 177 176
4 136 137 178 177
4 137 138 179 178
4 138 139 180 179
4 139 140 181 180
4 140 141 182 181
4 141 142 183 182
4 142 143 184 183
4 143 144 185 184
4 144 145 186 185
4 145 146 187 186
4 146 147 188 187
4 147 148 189 188
4 148 149 190 189
4 149 150 191 190
4 150 151 192 191
4 151 152 193 192
4 152 153 194 193
4 153 154 195 194
4 154 155 196 195
4 155 156 197 196
4 156 157 198 197
4 157 158 199 198
4 158 159 200 199
4 159 160 201 200
4 160 161 202 201
4 161 162 203 202
4 162 163 204 203
4 164 165 206 205
4 165 166 207 206
4 166 167 208 207
4 167 168 209 208
4 168 169 210 209
4 169 170 211 210
4 170 171 212 211
4 171 172 213 212
4 172 173 214 213
4 173 174 215 214
4 174 175 216 215
4 175 176 217 216
4 176 177 218 217
4 177 178 219 218
4 178 179 220 219
4 179 180 221 220
4 180 181 222 221
4 181 182 223 222
4 182 183 224 223
4 183 184 225 224
4 184 185 226 225
4 185 186 227 226
4 186 187 228 227
4 187 188 229 228
4 188 189 230 229
4 189 190 231 230
4 190 191 232 231
4 191 192 233 232
4 192 193 234 233
4 193 194 235 234
4 194 195 236 235
4 195 196 237 236
4 196 197 238 237
4 197 198 239 238
4 198 199 240 239
4 199 200 241 240
4 200 201 242 241
4 201 202 243 242
4 202 203 244 243
4 203 204 245 244
4 205 206 247 246
4 206 207 248 247
4 207 208 249 248
4 208 209 250 249
4 209 210 251 250
4 210 211 252 251
4 211 212 253 252
4 212 213 254 253
4 213 214 255 254
4 214 215 256 255
4 215 216 257 256
4 216 217 258 257
4 217 218 259 258
4 218 219 260 259
4 219 220 261 260
4 220 221 262 261
4 221 222 263 262
4 222 223 264 263
4 223 224 265 264
4 224 225 266 265
4 225 226 267 266
4 226 227 268 267
4 227 228 269 268
4 228 229 270 269
4 229 230 271 270
4 230 231 272 271
4 231 232 273 272
4 232 233 274 273
4 233 234 275 274
4 234 235 276 275
4 235 236 277 276
4 236 237 278 277
4 237 238 279 278
4 238 239 280 279
4 239 240 281 280
4 240 241 282 281
4 241 242 283 282
4 242 243 284 283
4 243 244 285 284
4 244 245 286 285
4 246 247 288 287
4 247 248 289 288
4 248 249 290 289
4 249 250 291 290
4 250 251 292 291
4 251 252 293 292
4 252 253 294 293
4 253 254 295 294
4 254 255 296 295
4 255 256 297 296
4 256 257 298 297
4 257 258 299 298
4 258 259 300 299
4 259 260 301 300
4 260 261 302 301
4 261 262 303 302
4 262 263 304 303
4 263 264 305 304
4 264 265 306 305
4 265 266 307 306
4 266 267 308 307
4 267 268 309 308
4 268 269 310 309
4 269 270 311 310
4 270 271 312 311
4 271 272 313 312
4 272 273 314 313
4 273 274 315 314
4 274 275 316 315
4 275 276 317 316
4 276 277 318 317
4 277 278 319 318
4 278 279 320 319
4 279 280 321 320
4 280 281 322 321
4 281 282 323 322
4 282 283 324 323
4 283 284 325 324
4 284 285 326 325
4 285 286 327 326
4 287 288 329 328
4 288 289 330 329
4 289 290 331 330
4 290 291 332 331
4 291 292 333 332
4 292 293 334 333
4 293 294 335 334
4 294 295 336 335
4 295 296 337 336
4 296 297 338 337
4 297 298 339 338
4 298 299 340 339
4 299 300 341 340
4 300 301 342 341
4 301 302 343 342
4 302 303 344 343
4 303 304 345 344
4 304 305 346 345
4 305 306 347 346
4 306 307 348 347
4 307 308 349 348
4 308 309 350 349
4 309 310 351 350
4 310 311 352 351
4 311 312 353 352
4 312 313 354 353
4 313 314 355 354
4 314 315 356 355
4 315 316 357 356
4 316 317 358 357
4 317 318 359 358
4 318 319 360 359
4 319 320 361 360
4 320 321 362 361
4 321 322 363 362
4 322 323 364 363
4 323 324 365 364
4 324 325 366 365
4 325 326 367 366
4 326 327 368 367
4 328 329 370 369
4 329 330 371 370
4 330 331 372 371
4 331 332 373 372
4 332 333 374 373
4 333 334 375 374
4 334 335 376 375
4 335 336 377 376
4 336 337 378 377
4 337 338 379 378
4 338 339 380 379
4 339 340 381 380
4 340 341 382 381
4 341 342 383 382
4 342 343 384 383
4 343 344 385 384
4 344 345 386 385
4 345 346 387 386
4 346 347 388 387
4 347 348 389 388
4 348 349 390 389
4 349 350 391 390
4 350 351 392 391
4 351 352 393 392
4 352 353 394 393
4 353 354 395 394
4 354 355 396 395
4 355 356 397 396
4 356 357 398 397
4 357 358 399 398
4 358 359 400 399
4 359 360 401 400
4 360 361 402 401
4 361 362 403 402
4 362 363 404 403
4 363 364 405 404
4 364 365 406 405
4 365 366 407 406
4 366 367 408 407
4 367 368 409 408
4 369 370 411 410
4 370 371 412 411
4 371 372 413 412
4 372 373 414 413
4 373 374 415 414
4 374 375 416 415
4 375 376 417 416
4 376 377 418 417
4 377 378 419 418
4 378 379 420 419
4 379 380 421 420
4 380 381 422 421
4 381 382 423 422
4 382 383 424 423
4 383 384 425 424
4 384 385 426 425
4 385 386 427 426
4 386 387 428 427
4 387 388 429 428
4 388 389 430 429
4 389 390 431 430
4 390 391 432 431
4 391 392 433 432
4 392 393 434 433
4 393 394 435 434
4 394 395 436 435
4 395 396 437 436
4 396 397 438 437
4 397 398 439 438
4 398 399 440 439
4 399 400 441 440
4 400 401 442 441
4 401 402 443 442
4 402 403 444 443
4 403 404 445 444
4 404 405 446 445
4 405 406 447 446
4 406 407 448 447
4 407 408 449 448
4 408 409 450 449
4 410 411 452 451
4 411 412 453 452
4 412 413 454 453
4 413 414 455 454
4 414 415 456 455
4 415 416 457 456
4 416 417 458 457
4 417 418 459 458
4 418 419 460 459
4 419 420 461 460
4 420 421 462 461
4 421 422 463 462
4 422 423 464 463
4 423 424 465 464
4 424 425 466 465
4 425 426 467 466
4 426 427 468 467
4 427 428 469 468
4 428 429 470 469
4 429 430 471 470
4 430 431 472 471
4 431 432 473 472
4 432 433 474 473
4 433 434 475 474
4 434 435 476 475
4 435 436 477 476
4 436 437 478 477
4 437 438 479 478
4 438 439 480 479
4 439 440 481 480
4 440 441 482 481
4 441 442 483 482
4 442 443 484 483
4 443 444 485 484
4 444 445 486 485
4 445 446 487 486
4 446 447 488 487
4 447 448 489 488
4 448 449 490 489
4 449 450 491 490
4 451 452 493 492
4 452 453 494 493
4 453 454 495 494
4 454 455 496 495
4 455 456 497 496
4 456 457 498 497
4 457 458 499 498
4 458 459 500 499
4 459 460 501 500
4 460 461 502 501
4 461 462 503 502
4 462 463 504 503
4 463 464 505 504
4 464 465 506 505
4 465 466 507 506
4 466 467 508 507
4 467 468 509 508
4 468 469 510 509
4 469 470 511 510
4 470 471 512 511
4 471 472 513 512
4 472 473 514 513
4 473 474 515 514
4 474 475 516 515
4 475 476 517 516
4 476 477 518 517
4 477 478 519 518
4 478 479 520 519
4 479 480 521 520
4 480 481 522 521
4 481 482 523 522
4 482 483 524 523
4 483 484 525 524
4 484 485 526 525
4 485 486 527 526
4 486 487 528 527
4 487 488 529 528
4 488 489 530 529
4 489 490 531 530
4 490 491 532 531
4 492 493 534 533
4 493 494 535 534
4 494 495 536 535
4 495 496 537 536
4 496 497 538 537
4 497 498 539 538
4 498 499 540 539
4 499 500 541 540
4 500 501 542 541
4 501 502 543 542
4 502 503 544 543
4 503 504 545 544
4 504 505 546 545
4 505 506 547 546
4 506 507 548 547
4 507 508 549 548
4 508 509 550 549
4 509 510 551 550
4 510 511 552 551
4 511 512 553 552
4 512 513 554 553
4 513 514 555 554
4 514 515 556 555
4 515 516 557 556
4 516 517 558 557
4 517 518 559 558
4 518 519 560 559
4 519 520 561 560
4 520 521 562 561
4 521 522 563 562
4 522 523 564 563
4 523 524 565 564
4 524 525 566 565
4 525 526 567 566
4 526 527 568 567
4 527 528 569 568
4 528 529 570 569
4 529 530 571 570
4 530 531 572 571
4 531 532 573 572
4 533 534 575 574
4 534 535 576 575
4 535 536 577 576
4 536 537 578 577
4 537 538 579 578
4 538 539 580 579
4 539 540 581 580
4 540 541 582 581
4 541 542 583 582
4 542 543 584 583
4 543 544 585 584
4 544 545 586 585
4 545 546 587 586
4 546 547 588 587
4 547 548 589 588
4 548 549 590 589
4 549 550 591 590
4 550 551 592 591
4 551 552 593 592
4 552 553 594 593
4 553 554 595 594
4 554 555 596 595
4 555 556 597 596
4 556 557 598 597
4 557 558 599 598
4 558 559 600 599
4 559 560 601 600
4 560 561 602 601
4 561 562 603 602
4 562 563 604 603
4 563 564 605 604
4 564 565 606 605
4 565 566 607 606
4 566 567 608 607
4 567 568 609 608
4 568 569 610 609
4 569 570 611 610
4 570 571 612 611
4 571 572 613 612
4 572 573 614 613
4 574 575 616 615
4 575 576 617 616
4 576 577 618 617
4 577 578 619 618
4 578 579 620 619
4 579 580 621 620
4 580 581 622 621
4 581 582 623 622
4 582 583 624 623
4 583 584 625 624
4 584 585 626 625
4 585 586 627 626
4 586 587 628 627
4 587 588 629 628
4 588 589 630 629
4 589 590 631 630
4 590 591 632 631
4 591 592 633 632
4 592 593 634 633
4 593 594 635 634
4 594 595 636 635
4 595 596 637 636
4 596 597 638 637
4 597 598 639 638
4 598 599 640 639
4 599 600 641 640
4 600 601 642 641
4 601 602 643 642
4 602 603 644 643
4 603 604 645 644
4 604 605 646 645
4 605 606 647 646
4 606 607 648 647
4 607 608 649 648
4 608 609 650 649
4 609 610 651 650
4 610 611 652 651
4 611 612 653 652
4 612 613 654 653
4 613 614 655 654
4 615 616 657 656
4 616 617 658 657
4 617 618 659 658
4 618 619 660 659
4 619 620 661 660
4 620 621 662 661
4 621 622 663 662
4 622 623 664 663
4 623 624 665 664
4 624 625 666 665
4 625 626 667 666
4 626 627 668 667
4 627 628 669 668
4 628 629 670 669
4 629 630 671 670
4 630 631 672 671
4 631 632 673 672
4 632 633 674 673
4 633 634 675 674
4 634 635 676 675
4 635 636 677 676
4 636 637 678 677
4 637 638 679 678
4 638 639 680 679
4 639 640 681 680
4 640 641 682 681
4 641 642 683 682
4 642 643 684 683
4 643 644 685 684
4 644 645 686 685
4 645 646 687 686
4 646 647 688 687
4 647 648 689 688
4 648 649 690 689
4 649 650 691 690
4 650 651 692 691
4 651 652 693 692
4 652 653 694 693
4 653 654 695 694
4 654 655 696 695
4 656 657 698 697
4 657 658 699 698
4 658 659 700 699
4 659 660 701 700
4 660 661 702 701
4 661 662 703 702
4 662 663 704 703
4 663 664 705 704
4 664 665 706 705
4 665 666 707 706
4 666 667 708 707
4 667 668 709 708
4 668 669 710 709
4 669 670 711 710
4 670 671 712 711
4 671 672 713 712
4 672 673 714 713
4 673 674 715 714
4 674 675 716 715
4 675 676 717 716
4 676 677 718 717
4 677 678 719 718
4 678 679 720 719
4 679 680 721 720
4 680 681 722 721
4 681 682 723 722
4 682 683 724 723
4 683 684 725 724
4 684 685 726 725
4 685 686 727 726
4 686 687 728 727
4 687 688 729 728
4 688 689 730 729
4 689 690 731 730
4 690 691 732 731
4 691 692 733 732
4 692 693 734 733
4 693 694 735 734
4 694 695 736 735
4 695 696 737 736
4 697 698 739 738
4 698 699 740 739
4 699 700 741 740
4 700 701 742 741
4 701 702 743 742
4 702 703 744 743
4 703 704 745 744
4 704 705 746 745
4 705 706 747 746
4 706 707 748 747
4 707 708 749 748
4 708 709 750 749
4 709 710 751 750
4 710 711 752 751
4 711 712 753 752
4 712 713 754 753
4 713 714 755 754
4 714 715 756 755
4 715 716 757 756
4 716 717 758 757
4 717 718 759 758
4 718 719 760 759
4 719 720 761 760
4 720 721 762 761
4 721 722 763 762
4 722 723 764 763
4 723 724 765 764
4 724 725 766 765
4 725 726 767 766
4 726 727 768 767
4 727 728 769 768
4 728 729 770 769
4 729 730 771 770
4 730 731 772 771
4 731 732 773 772
4 732 733 774 773
4 733 734 775 774
4 734 735 776 775
4 735 736 777 776
4 736 737 778 777
4 738 739 780 779
4 739 740 781 780
4 740 741 782 781
4 741 742 783 782
4 742 743 784 783
4 743 744 785 784
4 744 745 786 785
4 745 746 787 786
4 746 747 788 787
4 747 748 789 788
4 748 749 790 789
4 749 750 791 790
4 750 751 792 791
4 751 752 793 792
4 752 753 794 793
4 753 754 795 794
4 754 755 796 795
4 755 756 797 796
4 756 757 798 797
4 757 758 799 798
4 758 759 800 799
4 759 760 801 800
4 760 761 802 801
4 761 762 803 802
4 762 763 804 803
4 763 764 805 804
4 764 765 806 805
4 765 766 807 806
4 766 767 808 807
4 767 768 809 808
4 768 769 810 809
4 769 770 811 810
4 770 771 812 811
4 771 772 813 812
4 772 773 814 813
4 773 774 815 814
4 774 775 816 815
4 775 776 817 816
4 776 777 818 817
4 777 778 819 818
4 779 780 821 820
4 780 781 822 821
4 781 782 823 822
4 782 783 824 823
4 783 784 825 824
4 784 785 826 825
4 785 786 827 826
4 786 787 828 827
4 787 788 829 828
4 788 789 830 829
4 789 790 831 830
4 790 791 832 831
4 791 792 833 832
4 792 793 834 833
4 793 794 835 834
4 794 795 836 835
4 795 796 837 836
4 796 797 838 837
4 797 798 839 838
4 798 799 840 839
4 799 800 841 840
4 800 801 842 841
4 801 802 843 842
4 802 803 844 843
4 803 804 845 844
4 804 805 846 845
4 805 806 847 846
4 806 807 848 847
4 807 808 849 848
4 808 809 850 849
4 809 810 851 850
4 810 811 852 851
4 811 812 853 852
4 812 813 854 853
4 813 814 855 854
4 814 815 856 855
4 815 816 857 856
4 816 817 858 857
4 817 818 859 858
4 818 819 860 859
CELL_TYPES 800
9
9
9
9
9
9
9
9
9
9
9
9
9
9
9
9
9
9
9
9
9
9
9
9
9
9
9
9
9
9
9
9
9
9
9
9
9
9
9
9
9
9
9
9
9
9
9
9
9
9
9
9
9
9
9
9
9
9
9
9
9
9
9
9
9
9
9
9
9
9
9
9
9
9
9
9
9
9
9
9
9
9
9
9
9
9
9
9
9
9
9
9
9
9
9
9
9
9
9
9
9
9
9
9
9
9
9
9
9
9
9
9
9
9
9
9
9
9
9
9
9
9
9
9
9
9
9
9
9
9
9
9
9
9
9
9
9
9
9
9
9
9
9
9
9
9
9
9
9
9
9
9
9
9
9
9
9
9
9
9
9
9
9
9
9
9
9
9
9
9
9
9
9
9
9
9
9
9
9
9
9
9
9
9
9
9
9
9
9
9
9
9
9
9
9
9
9
9
9
9
9
9
9
9
9
9
9
9
9
9
9
9
9
9
9
9
9
9
9
9
9
9
9
9
9
9
9
9
9
9
9
9
9
9
9
9
9
9
9
9
9
9
9
9
9
9
9
9
9
9
9
9
9
9
9
9
9
9
9
9
9
9
9
9
9
9
9
9
9
9
9
9
9
9
9
9
9
9
9
9
9
9
9
9
9
9
9
9
9
9
9
9
9
9
9
9
9
9
9
9
9
9
9
9
9
9
9
9
9
9
9
9
9
9
9
9
9
9
9
9
9
9
9
9
9
9
9
9
9
9
9
9
9
9
9
9
9
9
9
9
9
9
9
9
9
9
9
9
9
9
9
9
9
9
9
9
9
9
9
9
9
9
9
9
9
9
9
9
9
9
9
9
9
9
9
9
9
9
9
9
9
9
9
9
9
9
9
9
9
9
9
9
9
9
9
9
9
9
9
9
9
9
9
9
9
9
9
9
9
9
9
9
9
9
9
9
9
9
9
9
9
9
9
9
9
9
9
9
9
9
9
9
9
9
9
9
9
9
9
9
9
9
9
9
9
9
9
9
9
9
9
9
9
9
9
9
9
9
9
9
9
9
9
9
9
9
9
9
9
9
9
9
9
9
9
9
9
9
9
9
9
9
9
9
9
9
9
9
9
9
9
9
9
9
9
9
9
9
9
9
9
9
9
9
9
9
9
9
9
9
9
9
9
9
9
9
9
9
9
9
9
9
9
9
9
9
9
9
9
9
9
9
9
9
9
9
9
9
9
9
9
9
9
9
9
9
9
9
9
9
9
9
9
9
9
9
9
9
9
9
9
9
9
9
9
9
9
9
9
9
9
9
9
9
9
9
9
9
9
9
9
9
9
9
9
9
9
9
9
9
9
9
9
9
9
9
9
9
9
9
9
9
9
9
9
9
9
9
9
9
9
9
9
9
9
9
9
9
9
9
9
9
9
9
9
9
9
9
9
9
9
9
9
9
9
9
9
9
9
9
9
9
9
9
9
9
9
9
9
9
9
9
9
9
9
9
9
9
9
9
9
9
9
9
9
9
9
9
9
9
9
9
9
9
9
9
9
9
9
9
9
9
9
9
9
9
9
9
9
9
9
9
9
9
9
9
9
9
9
9
9
9
9
9
9
9
9
9
9
9
9
9
9
9
9
9
9
9
9
9
9
9
9
9
9
9
9
9
9
9
9
9
9
9
9
9
9
9
9
9
9
9
9
9
9
9
9
9
9
9
9
9
9
9
9
9
9
9
9
9
9
9
9
9
9
9
9
9
9
9
9
9
9
9
9
9
9
9
9
9
9
9
9
9
9
9
9
9
9
9
9
9
9
9
9
9
9
9
9
9
POINT_DATA 861
SCALARS Disp float 2
LOOKUP_TABLE default
0.0 0.0
0.005522710978491885 -0.223052803221669
0.006780612375119244 -0.43729625126659083
0.007551713552956599 -0.6505658970630893
0.008529538267547465 -0.8634907773748632
0.010063446766967242 -1.0757025496960455
0.012700705738461418 -1.286715977382521
0.01709697559903914 -1.4959234745600134
0.024020136142141397 -1.7025685360014544
0.03430635845393004 -1.9056724642051581
0.04879553698041802 -2.1039188908561433
0.06829364237562678 -2.295576489936011
0.09355587836831572 -2.4785116950681374
0.12527856131888476 -2.6502853928614427
0.16409893151914084 -2.8082285694837874
0.21052923904918455 -2.9494992674585325
0.2648334636252213 -3.0711516342487766
0.32687496552223133 -3.17024992185423
0.3959817817683495 -3.2440668113272664
0.4708847707002817 -3.2903260307565394
0.5495514960971304 -3.3074662765056133
0.6282182214939742 -3.2903260307564364
0.7031212104258905 -3.2440668113270585
0.7722280266719826 -3.1702499218539293
0.8342695285689581 -3.0711516342483987
0.8885737531449582 -2.9494992674581026
0.9350040606749656 -2.808228569483315
0.9738244308751842 -2.650285392860943
1.0055471138257166 -2.4785116950676254
1.03080934981837 -2.295576489935504
1.0503074552135474 -2.1039188908556534
1.0647966337400099 -1.905672464204696
1.0750828560517784 -1.7025685360010274
1.0820060165948655 -1.495923474559628
1.0864022864554324 -1.2867159773821806
1.0890395454269204 -1.0757025496957568
1.0905734539263374 -0.8634907773746268
1.0915512786409276 -0.6505658970629079
1.0923223798187647 -0.43729625126646304
1.093580281215391 -0.22305280322159793
1.099102992193879 0.0
0.05563982216024234 -0.0023160579963111944
0.059477338778334166 -0.22329036976677666
0.060139823980560725 -0.43735762775578296
0.06082543558368245 -0.6506532236378296
0.06168701659646479 -0.8636252661233345
0.06299602835166002 -1.0759912888026106
0.06526761566412369 -1.2873072056183374
0.06912150674681034 -1.4969932889134718
0.0752794666323316 -1.7043133555256789
0.08450543815129366 -1.908292108483666
0.09754878468575413 -2.1076059710854746
0.11511341298621973 -2.3005126705715297
0.13786259536986165 -2.4848681588083155
0.16643044788757186 -2.6582225817781038
0.2014001882150298 -2.8178893086985255
0.24325011317520948 -2.9609856702480903
0.29224077012109007 -3.084490620388167
0.348279005922207 -3.1853574433188827
0.4107926957977995 -3.260719128912061
0.47859192706123277 -3.308136892012871
0.5495514960971177 -3.3257530030837588
0.620511065132998 -3.3081368920127656
0.6883102963964165 -3.2607191289118482
0.7508239862719861 -3.185357443318574
0.8068622220730731 -3.084490620387781
0.8558528790189212 -2.960985670247652
0.8977028039790678 -2.8178893086980445
0.932672544306492 -2.6582225817775953
0.9612403968241692 -2.484868158807795
0.9839895792077794 -2.3005126705710137
1.0015542075082167 -2.1076059710849777
1.0145975540426542 -1.9082921084831987
1.0238235255615977 -1.704313355525248
1.029981485447105 -1.4969932889130835
1.0338353765297823 -1.2873072056179955
1.0361069638422404 -1.075991288802321
1.0374159755974335 -0.8636252661230978
1.0382775566102154 -0.6506532236376482
1.0389631682133371 -0.4373576277556552
1.0396256534155635 -0.22329036976670522
1.0434631700336499 -0.0023160579963086825
0.11033470907816194 -0.004148524597117017
0.11313781457239036 -0.2234072387396359
0.11351904514674334 -0.43739161768752216
0.11407897448862431 -0.6507303449895288
0.11483321891356599 -0.8637336704058719
0.11594033015024952 -1.076219850359925
0.11785396915441537 -1.2877960513530393
0.12116789511822526 -1.4979091849230068
0.12654785141806554 -1.7058391061131533
0.13468838331631713 -1.910608368559801
0.14625233075164482 -2.1108822435479726
0.16185088144420565 -2.304906561240163
0.18205795081725923 -2.4905306470556083
0.2074321153579352 -2.6652997745651787
0.23850682589507796 -2.826512621295308
0.2757254793626065 -2.971252161400929
0.3193536995903529 -3.0964331971193606
0.3693586207137545 -3.1989112567664697
0.42526472880119104 -3.2756876355294664
0.4859539937316567 -3.3241337636629753
0.5495514960971056 -3.342182060067266
0.6131489984625499 -3.324133763662868
0.673838263393002 -3.275687635529249
0.7297443714804184 -3.1989112567661553
0.7797492926037939 -3.0964331971189676
0.8233775128315117 -2.9712521614004825
0.8605961662990105 -2.8265126212948193
0.8916708768361234 -2.6652997745646623
0.91704504137677 -2.4905306470550803
0.9372521107497956 -2.30490656123964
0.9528506614423311 -2.1108822435474695
0.9644146088776383 -1.910608368559329
0.9725551407758732 -1.7058391061127187
0.977935097075701 -1.4979091849226158
0.9812490230395028 -1.2877960513526958
0.983162662043664 -1.0762198503596347
0.9842697732803458 -0.8637336704056349
0.9850240177052872 -0.6507303449893473
0.9855839470471682 -0.43739161768739443
0.9859651776215212 -0.22340723873956408
0.9887682831157444 -0.004148524597111848
0.16453274862216472 -0.005618688345542198
0.16664354532625358 -0.22348668242459988
0.1668765499600543 -0.4374105689240445
0.1673148610164153 -0.6507932529462878
0.16796292109124392 -0.8638233409302608
0.16889283502757327 -1.0763956668864536
0.1704691498162686 -1.2881859621698593
0.17324883613058586 -1.4986723872901277
0.17784648674930212 -1.7071431879126189
0.18488663482977674 -1.9126162522142616
0.1949500107966229 -2.1137416157961204
0.2085591084954961 -2.308752907984902
0.2262028786386629 -2.4954940911554866
0.2483629271766758 -2.671509552103688
0.2755098769869868 -2.834089233667124
0.308059247282245 -2.9802886009567833
0.3462854455905278 -3.1069702621562167
0.3902156834388853 -3.2109053188125984
0.4394772902891888 -3.28896673040535
0.4931204483428173 -3.338354665544136
0.5495514960970939 -3.356838927042502
0.6059825438513661 -3.338354665544027
0.6596257019049823 -3.288966730405128
0.708887308755268 -3.2109053188122783
0.7528175466036028 -3.106970262155818
0.7910437449118606 -2.98028860095633
0.8235931152070926 -2.834089233666629
0.8507400650173775 -2.671509552103165
0.8729001135553645 -2.495494091154952
0.8905438836985069 -2.3087529079843727
0.9041529813973583 -2.113741615795612
0.9142163573641863 -1.9126162522137853
0.921256505444646 -1.707143187912181
0.9258541560633513 -1.4986723872897345
0.9286338423776617 -1.2881859621695144
0.9302101571663534 -1.076395666886163
0.9311400711026815 -0.8638233409300237
0.9317881311775098 -0.6507932529461063
0.9322264422338709 -0.4374105689239169
0.9324594468676717 -0.22348668242452768
0.9345702435717559 -0.0056186883455346314
0.21844643604851677 -0.006804655216415745
0.22004216169782184 -0.22354907915374372
0.22019434670799798 -0.4374214719766405
0.22052973351309818 -0.6508421568094016
0.22107281396289016 -0.8638975501560727
0.22184544105048176 -1.076529905718338
0.2231194276165973 -1.2884843498661525
0.2253764104447374 -1.4992855862929204
0.22919678734540525 -1.7082259819375036
0.23513192918421102 -1.9143136579664113
0.24368438093205758 -2.1161812727019007
0.25529282686591503 -2.312048622731822
0.27036087608149256 -2.49975572821814
0.2892937718947932 -2.6768489315092583
0.3125027433730949 -2.8406139901858163
0.3403611949597861 -2.988087905980402
0.37315003908051025 -3.1160930164396703
0.4109584686599059 -3.22132903174747
0.4535427226761638 -3.3005566025259823
0.5001725483861686 -3.3508278540706358
0.5495514960970823 -3.369771235834812
0.5989304438079918 -3.3508278540705243
0.6455602695179853 -3.300556602525757
0.688144523534228 -3.2213290317471452
0.7259529531136042 -3.116093016439266
0.7587417972343065 -2.988087905979943
0.7866002488209749 -2.840613990185316
0.8098092202992544 -2.67684893150873
0.8287421161125328 -2.499755728217599
0.8438101653280895 -2.3120486227312873
0.8554186112619286 -2.116181272701388
0.8639710630097595 -1.9143136579659314
0.8699062048485524 -1.7082259819370627
0.8737265817492108 -1.4992855862925254
0.8759835645773453 -1.2884843498658063
0.877257551143458 -1.076529905718047
0.8780301782310488 -0.8638975501558355
0.8785732586808406 -0.6508421568092202
0.8789086454859408 -0.43742147197651293
0.879060830496117 -0.22354907915367128
0.8806565561454182 -0.006804655216406041
0.27217200360053395 -0.0077556614949052015
0.2733657010615905 -0.22360133723550701
0.2734706830695239 -0.4374290936217832
0.27372081922604097 -0.6508783178726992
0.2741598244471574 -0.8639585916768504
0.27479206985776844 -1.076631992526245
0.27579700563801496 -1.2887038629898666
0.27756933022452757 -1.499754114854287
0.2806203939247536 -1.7090902819145353
0.2854563067542475 -1.915701668225928
0.29249846782690714 -2.118201111854291
0.3021048423312425 -2.314793741837637
0.31459753460775064 -2.503315630262984
0.3303042511240233 -2.6813177703818742
0.34957110838929767 -2.8460867070196865
0.37273653698358256 -2.9946473226431043
0.4000702829858026 -3.123793520878487
0.431711297758389 -3.2301715570636134
0.46757087733099606 -3.3104537305288964
0.5071774305566629 -3.3615670254816465
0.5495514960970705 -3.381007077686207
0.5919255616374746 -3.3615670254815333
0.6315321148631314 -3.3104537305286685
0.6673916944357254 -3.2301715570632847
0.6990327092082954 -3.123793520878079
0.7263664552104967 -2.9946473226426398
0.7495318838047625 -2.8460867070191807
0.7687987410700187 -2.6813177703813404
0.7845054575862729 -2.503315630262439
0.7969981498627638 -2.3147937418370983
0.8066045243670837 -2.1182011118537742
0.8136466854397302 -1.9157016682254449
0.8184825982692135 -1.709090281914092
0.8215336619694319 -1.4997541148538904
0.8233059865559401 -1.28870386298952
0.8243109223361847 -1.076631992525954
0.8249431677467952 -0.8639585916766133
0.8253821729679114 -0.6508783178725178
0.8256323091244286 -0.4374290936216557
0.8257372911323619 -0.22360133723543432
0.8269309885934153 -0.007755661494893698
0.32576039984436034 -0.008509433318530938
0.3266363434799679 -0.22364597961008925
0.3267104299151944 -0.4374358561693279
0.326887819310885 -0.6509031555679765
0.32722384146003736 -0.8640073516642973
0.3277261151549966 -1.0767093689446567
0.3284924425705495 -1.2888593062238913
0.32982431832724135 -1.500091835155099
0.3321435194442873 -1.709741848321829
0.33589281926478337 -1.9167842982569387
0.34143647236098834 -2.119804354609477
0.3490505274262737 -2.3169912436943294
0.3589783311528535 -2.506177266228331
0.3714718080742625 -2.6849198341695315
0.38681191769244555 -2.850510196727771
0.40528989660108883 -2.9999684208942288
0.42716442836755 -3.1300683385686145
0.4526103962377429 -3.237422344288234
0.48168278053824337 -3.3186471384499225
0.5142030753951714 -3.3705708749788164
0.5495514960970587 -3.390558199894232
0.5848999167989427 -3.370570874978702
0.6174202116558621 -3.318647138449692
0.6464925959563519 -3.2374223442879018
0.6719385638265313 -3.1300683385682024
0.6938130955929773 -2.9999684208937607
0.7122910745016052 -2.850510196727261
0.7276311841197733 -2.6849198341689937
0.7401246610411684 -2.5061772662277817
0.7500524647677345 -2.316991243693787
0.7576665198330074 -2.119804354608957
0.7632101729292018 -1.916784298256453
0.7669594727496896 -1.7097418483213838
0.7692786738667295 -1.5000918351547012
0.7706105496234182 -1.2888593062235443
0.7713768770389698 -1.0767093689443654
0.7718791507339288 -0.8640073516640602
0.7722151728830811 -0.650903155567795
0.7723925622787717 -0.43743585616920044
0.7724666487139981 -0.22364597961001645
0.7733425923496031 -0.008509433318517948
0.3792459290929471 -0.009096173014650698
0.3798706841469073 -0.22368499362623726
0.3799206461059411 -0.4374422782278937
0.38003240837406477 -0.6509180106689196
0.3802671220590904 -0.8640433699887706
0.38064137941732196 -1.0767675720923848
0.3812004628305478 -1.288963872228945
0.38213566844711744 -1.5003172236768807
0.3837766454883877 -1.710195018408682
0.38647900114657235 -1.917569533823503
0.39054505465534195 -2.120997500661692
0.3961858394324673 -2.3186475061052505
0.40357143415035673 -2.508347809772296
0.4128780248852383 -2.6876629262681435
0.42431707648767175 -2.8538920652529884
0.4381311894272753 -3.004056652955814
0.4545591400862588 -3.134918803411023
0.4737933556421322 -3.243073573325887
0.49600909736908677 -3.325118476127071
0.521326878957779 -3.377821553830707
0.5495514960970463 -3.3984195614609445
0.5777761132363113 -3.3778215538305916
0.6030938948249968 -3.3251184761268386
0.625309636551943 -3.243073573325552
0.6445438521078056 -3.134918803410608
0.6609718027667775 -3.0040566529553425
0.6747859157063694 -2.853892065252475
0.6862249673087921 -2.687662926267602
0.6955315580436633 -2.508347809771744
0.7029171527615428 -2.318647506104705
0.7085579375386585 -2.12099750066117
0.7126239910474205 -1.917569533823015
0.7153263467055992 -1.7101950184082357
0.7169673237468653 -1.5003172236764821
0.7179025293634327 -1.2889638722285974
0.7184616127766579 -1.0767675720920933
0.7188358701348893 -0.8640433699885334
0.7190705838199147 -0.650918010668738
0.7191823460880383 -0.4374422782277662
0.719232308047072 -0.22368499362616434
0.7198570631010305 -0.009096173014636515
0.43264918507357847 -0.009544528541857448
0.4330842715015046 -0.2237200965167699
0.43310777936612305 -0.4374475686438131
0.43315761453765594 -0.6509239467308409
0.4332938526250752 -0.8640659898609436
0.4335361930647857 -1.076808796881084
0.43390660425053323 -1.2890312479417911
0.43449690064140306 -1.5004514149489918
0.4355211042014112 -1.7104725069885185
0.43723911295128043 -1.9180744937989163
0.43987298450312445 -2.121792360430411
0.44357411082033116 -2.3197734905258103
0.44844865667034906 -2.509838935961799
0.4546057115860413 -2.6895598929008133
0.4621853247814519 -2.856244815239332
0.47137022935931155 -3.006922625116672
0.482375328780615 -3.138352958438873
0.4954124113063499 -3.2471228182989234
0.5107079742388173 -3.3298440657679738
0.5286453797685783 -3.383282793446267
0.5495514960970336 -3.4045674555125487
0.5704576124254871 -3.3832827934461505
0.5883950179552438 -3.3298440657677397
0.6036905808877051 -3.2471228182985863
0.6167276634134324 -3.138352958438455
0.6277327628347278 -3.0069226251161987
0.6369176674125796 -2.856244815238816
0.6444972806079833 -2.6895598929002706
0.6506543355236696 -2.509838935961245
0.6555288813736809 -2.319773490525263
0.6592300076908815 -2.1217923604298865
0.6618638792427204 -1.9180744937984269
0.6635818879925862 -1.7104725069880713
0.6646060915525918 -1.5004514149485926
0.6651963879434604 -1.2890312479414434
0.6655667991292075 -1.076808796880793
0.665809139568918 -0.8640659898607063
0.6659453776563371 -0.6509239467306592
0.66599521282787 -0.43744756864368556
0.6660187206924882 -0.223720096516697
0.6664538071204134 -0.009544528541842328
0.48598428293882423 -0.009883673742365866
0.4862852766458666 -0.2237535414370596
0.48627776971256675 -0.43745003042333064
0.48626744039162834 -0.6509217382455709
0.48630817471127763 -0.864075180386905
0.4864158544595752 -1.0768320618427698
0.48659843150110005 -1.2890705020921946
0.4868885444553179 -1.5005191749419862
0.487369432618351 -1.7106065683706457
0.48818470021872656 -1.9183295529175117
0.4894579073378643 -2.1222134331898697
0.4912753063965566 -2.3203896686333376
0.4936832177145207 -2.510670078290307
0.4967348319658242 -2.690631406257583
0.5005048137309323 -2.8575894890192584
0.5051064978253698 -3.0085845111150666
0.5107147655070338 -3.14038534614655
0.517568491869933 -3.2495819272308237
0.5259503666122556 -3.3328067918194924
0.536307165463753 -3.3868972941447377
0.5495514960970205 -3.408951355739973
0.5627958267302872 -3.3868972941446205
0.5731526255817824 -3.332806791819257
0.5815345003241011 -3.2495819272304853
0.588388226686996 -3.140385346146131
0.5939964943686561 -3.008584511114591
0.5985981784630902 -2.857589489018741
0.6023681602281954 -2.690631406257039
0.6054197744794966 -2.510670078289752
0.6078276857974578 -2.3203896686327896
0.6096450848561472 -2.1222134331893447
0.6109182919752829 -1.9183295529170217
0.6117335595756573 -1.7106065683701983
0.6122144477386892 -1.500519174941587
0.6125045606929067 -1.2890705020918471
0.6126871377344314 -1.0768320618424785
0.612794817482729 -0.8640751803866676
0.6128355518023783 -0.6509217382453892
0.6128252224814398 -0.4374500304232031
0.6128177155481398 -0.22375354143698678
0.6131187092551815 -0.009883673742350097
0.5392677098411913 -0.010138550519010242
0.5394744080315025 -0.22378771787434384
0.5394355890777544 -0.4374480934004174
0.5393664171775671 -0.65091189460148
0.5393142650628696 -0.8640711474653946
0.5392878387575428 -1.0768366211494667
0.5392778236274182 -1.2890828925264597
0.5392747803533245 -1.5005404490442473
0.5392740141578722 -1.7106434189880613
0.5392741163421526 -1.9183946664107911
0.5392743299091209 -2.1223208320787537
0.5392737689371514 -2.3205494629297005
0.5392678137841787 -2.5108917198524523
0.5392530159742761 -2.690925864203406
0.5392371859553017 -2.8579729619707006
0.539268993007734 -3.009084984966841
0.5394819404104073 -3.141051715118839
0.5401459586287845 -3.2504871242914772
0.5416561093965827 -3.334038868277347
0.5444532918621572 -3.3886154310531538
0.549551496097007 -3.4114895432480474
0.5546497003318569 -3.3886154310530365
0.5574468827974305 -3.334038868277111
0.5589570335652275 -3.250487124291138
0.5596210517836044 -3.14105171511842
0.5598339991862785 -3.0090849849663646
0.5598658062387114 -2.857972961970183
0.5598499762197381 -2.6909258642028617
0.5598351784098371 -2.510891719851897
0.5598292232568656 -2.320549462929152
0.559828662284897 -2.1223208320782283
0.5598288758518662 -1.918394666410301
0.5598289780361473 -1.7106434189876134
0.559828211840695 -1.5005404490438479
0.5598251685666015 -1.2890828925261122
0.559815153436477 -1.0768366211491753
0.5597887271311505 -0.8640711474651572
0.5597365750164531 -0.6509118946012984
0.5596674031162657 -0.4374480934002896
0.5596285841625177 -0.22378771787427104
0.5598352823528283 -0.010138550518994049
0.5925104921409281 -0.010332816198668065
0.5926523225197966 -0.22382195074809885
0.5925852056695167 -0.43744155363081416
0.592459353161681 -0.6508945946494841
0.5923170660887495 -0.8640543217227337
0.5921586907477064 -1.0768223744749235
0.5919569881522879 -1.2890679366152664
0.5916606485491253 -1.5005185909376821
0.5911783362251265 -1.7106065113315403
0.5903634842059904 -1.9183295900641848
0.5890911227048934 -2.1222135099069654
0.5872715675099747 -2.3203882039033292
0.5848510275862224 -2.5106653106324424
0.581770114023207 -2.690623322414952
0.5779712456531241 -2.8575889109419093
0.5734372927198984 -3.008629665427519
0.568248270082917 -3.1405637303201868
0.5626493394186445 -3.250045995565522
0.5570609526332043 -3.3337336101391113
0.552098410356157 -3.3885517190028644
0.5495514960969933 -3.412288900412977
0.5470045818378291 -3.388551719002747
0.5420420395607812 -3.333733610138876
0.5364536527753442 -3.250045995565184
0.5308547221110766 -3.1405637303197684
0.5256656994741009 -3.0086296654270432
0.5211317465408798 -2.8575889109413923
0.5173328781708018 -2.6906233224144085
0.5142519646077918 -2.5106653106318886
0.5118314246840449 -2.320388203902781
0.5100118694891309 -2.1222135099064405
0.5087395079880378 -1.9183295900636947
0.5079246559689042 -1.7106065113310924
0.5074423436449068 -1.500518590937283
0.5071460040417449 -1.289067936614919
0.5069443014463267 -1.0768223744746324
0.5067859261052841 -0.8640543217224963
0.5066436390323527 -0.6508945946493025
0.5065177865245171 -0.4374415536306864
0.5064506696742372 -0.22382195074802608
0.5065925000531056 -0.010332816198651638
0.6457260996924717 -0.010481904093906973
0.6458231489667781 -0.2238542340860279
0.6457306434420703 -0.4374308197516982
0.645551256008881 -0.6508700696434133
0.645322312952385 -0.8640253113009497
0.6450352023836677 -1.0767897255427372
0.6446469239320533 -1.2890260921621515
0.6440508951726986 -1.5004501415939053
0.643026064603422 -1.7104724357352972
0.6413093723746226 -1.918074749380459
0.638675923344153 -2.121792228315512
0.634971844006798 -2.3197702738853723
0.6300859728689929 -2.509829080607985
0.623904006815642 -2.6895437079648814
0.6163013538548401 -2.856244382594462
0.6071840071801934 -3.007014945118921
0.5965717839948211 -3.138709100317526
0.5846764093577485 -3.2480310580447243
0.5719726126216186 -3.3316938201412003
0.5595314403712316 -3.3868133004033814
0.54955149609698 -3.4115187700723286
0.5395715518227288 -3.3868133004032646
0.5271303795723428 -3.331693820140966
0.5144265828362184 -3.248031058044387
0.5025312081991546 -3.1387091003171097
0.491918985013792 -3.0070149451184474
0.48280163833915435 -2.8562443825939474
0.4751989853783609 -2.6895437079643396
0.4690170193250194 -2.5098290806074326
0.46413114818722345 -2.319770273884826
0.46042706884987666 -2.1217922283149884
0.4577936198194141 -1.91807474937997
0.45607692759061946 -1.7104724357348497
0.4550520970213458 -1.500450141593506
0.4544560682619927 -1.289026092161804
0.4540677898103789 -1.0767897255424457
0.45378067924166204 -0.8640253113007125
0.4535517361851663 -0.6508700696432316
0.4533723487519772 -0.43743081975157044
0.45327984322726944 -0.22385423408595512
0.45337689250157576 -0.010481904093890375
0.6989309820300015 -0.010593187638572211
0.698992103041799 -0.2238829776946763
0.6988767026287076 -0.4374162307705111
0.6986473235733635 -0.6508387320188491
0.6983353303472142 -0.8639848400075075
0.6979249603495724 -1.0767398024127481
0.6973498707083164 -1.2889557316086042
0.6964101088336625 -1.5003153626061048
0.6947707341663866 -1.7101952803002671
0.6920698989369514 -1.917570005746072
0.6880033334330022 -2.120996920062282
0.6823592411565895 -2.3186426598624434
0.6749662755889898 -2.508334110851814
0.6656464067021699 -2.6876410025913864
0.6541985824404024 -2.8538931561813095
0.6404438085351492 -3.0041904095247403
0.624321604945929 -3.135427540511442
0.606019745951597 -3.244374642622173
0.5861969029279284 -3.3278733312394584
0.5663346963262202 -3.3832679796627767
0.5495514960969672 -3.409216831355288
0.5327682958677151 -3.3832679796626595
0.5129060892660099 -3.327873331239225
0.4930832462423491 -3.244374642621838
0.47478138724802893 -3.135427540511028
0.45865918365882263 -3.0041904095242686
0.4449044097535822 -2.8538931561807965
0.4334565854918269 -2.6876410025908477
0.42413671660502034 -2.5083341108512642
0.4167437510374334 -2.3186426598618994
0.4110996587610322 -2.1209969200617604
0.4070330932570936 -1.9175700057455847
0.4043322580276652 -1.7101952802998208
0.4026928833603939 -1.5003153626057057
0.4017531214857425 -1.2889557316082567
0.40117803184448764 -1.0767398024124568
0.4007676618468462 -0.8639848400072705
0.4004556686206975 -0.6508387320186674
0.4002262895653534 -0.43741623077038333
0.4001108891522621 -0.22388297769460358
0.4001720101640597 -0.010593187638555455
0.7521354753748988 -0.010672513540790135
0.7521655147042886 -0.2239067373908757
0.7520282960415651 -0.43739797571001954
0.751752008815852 -0.6508010798882649
0.751360979693307 -0.8639338809162302
0.7508336279375637 -1.07667338870748
0.7500534896828428 -1.2888480341738349
0.7487211539855653 -1.5000901086493106
0.746404680124825 -1.7097426966884626
0.7426563233023916 -1.9167847869551604
0.7371110122955642 -2.119803086852629
0.7294939414824582 -2.316985209208361
0.7195650290403454 -2.5061621504401503
0.7070766348164031 -2.6848969699019327
0.6917514136722039 -2.8505154745954115
0.673318504929452 -3.000131053178593
0.6516266371540872 -3.1306863138861303
0.626873600772375 -3.23905447625209
0.5999331642415562 -3.322263355230166
0.5728389866372918 -3.3779831909475084
0.5495514960969545 -3.405459053291107
0.526264005556619 -3.377983190947392
0.49916982795235965 -3.3222633552299343
0.47222939142155124 -3.239054476251758
0.4474763550398537 -3.1306863138857204
0.425784487264506 -3.000131053178126
0.40735157852177073 -2.850515474594902
0.3920263573775878 -2.684896969901397
0.37953796315366267 -2.506162150439604
0.36960905071156624 -2.3169852092078207
0.3619919798984748 -2.119803086852111
0.35644666889166055 -1.9167847869546755
0.3526983120692368 -1.7097426966880176
0.3503818382085027 -1.5000901086489125
0.34904950251122896 -1.2888480341734878
0.3482693642565098 -1.0766733887071889
0.34774201250076714 -0.8639338809159933
0.34735098337822246 -0.6508010798880832
0.34707469615250963 -0.43739797570989175
0.34693747748978615 -0.22390673739080297
0.346967516819176 -0.010672513540773275
0.8053464527890083 -0.010725274985390824
0.805349320397779 -0.22392444725826247
0.8051906512712077 -0.437376076783338
0.8048702830395815 -0.6507576142869942
0.8044054964067205 -0.8638737912721353
0.8037605847805869 -1.0765888633307328
0.8027477738922981 -1.2886903594751478
0.8009771023392424 -1.4997531941065245
0.7979288676241503 -1.7090916576756885
0.79309277419708 -1.9157018955102503
0.7860481199751338 -2.118199022612562
0.7764397630049733 -2.3147872301109222
0.7639537001566687 -2.5033022964454745
0.748273609472846 -2.6813005285789107
0.7290510539832463 -2.8461003157035325
0.7059231334736765 -2.994824396288813
0.6786612752459528 -3.1244746177582567
0.6474773313022779 -3.2320653616153
0.6134876925491005 -3.314881670994885
0.5792868857596611 -3.371001043700825
0.5495514960969421 -3.400263085718409
0.5198161064342253 -3.371001043700709
0.48561529964479333 -3.314881670994655
0.45162566089162876 -3.2320653616149713
0.4204417169479714 -3.124474617757851
0.39317985872026767 -2.99482439628835
0.3700519382107184 -2.846100315703027
0.3508293827211389 -2.68130052857838
0.3351492920373368 -2.503302296444933
0.3226632291890523 -2.314787230110386
0.3130548722189098 -2.118199022612048
0.30601021799697925 -1.9157018955097682
0.3011741245699208 -1.7090916576752455
0.2981258898548372 -1.4997531941061275
0.29635521830178635 -1.288690359474801
0.2953424074135001 -1.076588863330442
0.29469749578736704 -0.8638737912718982
0.29423270915450656 -0.6507576142868126
0.29391234092288065 -0.4373760767832103
0.2937536717963094 -0.22392444725818972
0.2937565394050801 -0.010725274985373918
0.8585687439117259 -0.010756678353629414
0.8585485976980293 -0.22393552821572976
0.8583691347132556 -0.4373504556963843
0.8580070887646358 -0.650708963096885
0.8574720022226763 -0.8638051581118252
0.856700965003267 -1.0764813360814012
0.8554264759214377 -1.2884698856500953
0.8531723308326199 -1.4992856076141055
0.8493533057470992 -1.708227598859121
0.843416760551819 -1.9143133654692068
0.8348614579641355 -2.116178395662982
0.8232532012361574 -2.3120426133937895
0.8082000383096746 -2.499747519105665
0.78931309452787 -2.676844047545418
0.7661783802265442 -2.840641994823651
0.7383744080525976 -2.98827149122529
0.7056012593815744 -3.116799968161143
0.6680743951011388 -3.2234209023152576
0.6271302973607653 -3.3057469993956983
0.5858461875754006 -3.3623255208184557
0.54955149609693 -3.393601927610359
0.5132568046184618 -3.3623255208183416
0.4719726948331067 -3.3057469993954713
0.43102859709274866 -3.223420902314933
0.3935017328123333 -3.1167999681607426
0.3607285841413332 -2.9882714912248325
0.33292461196741097 -2.8406419948231516
0.30978989766610915 -2.676844047544892
0.2909029538843285 -2.4997475191051293
0.27584979095786943 -2.312042613393258
0.2642415342299126 -2.1161783956624722
0.2556862316422471 -1.9143133654687285
0.24974968644698106 -1.7082275988586808
0.24593066136147054 -1.4992856076137102
0.24367651627265932 -1.2884698856497496
0.2424020271908332 -1.0764813360811107
0.24163098997142501 -0.8638051581115883
0.24109590342946588 -0.6507089630967033
0.2407338574808463 -0.43735045569625663
0.24055439449607283 -0.223935528215657
0.24053424828237624 -0.010756678353612485
0.9118054763036666 -0.010771914987684693
0.9117675240737255 -0.22393989676823156
0.9115691485965647 -0.4373211030164473
0.9111676402070779 -0.6506556886129542
0.9105633351135874 -0.863727940158976
0.909651221564934 -1.0763446862312225
0.9080808942227583 -1.2881717957373566
0.9053026608932957 -1.4986728806655696
0.9007041111069157 -1.7071446361932767
0.8936613685820209 -1.912615259169925
0.8835955091781227 -2.1137382163557623
0.8699898764707953 -2.308748629058444
0.852368819910621 -2.4954938930199524
0.8302682507950371 -2.671522301594244
0.8032205425503639 -2.8341395417614192
0.7707724299762646 -2.9804839723660317
0.7326054590268491 -3.1076892111172594
0.688908673794609 -3.2131515981150085
0.641117710821774 -3.2948691045279115
0.5926716253800576 -3.351925213476153
0.5495514960969177 -3.3854115118894903
0.5064313668137814 -3.3519252134760404
0.4579852813720759 -3.2948691045276877
0.41019431839925913 -3.2131515981146883
0.36649753316704226 -3.107689211116865
0.3283305622176534 -2.980483972365581
0.29588244964358146 -2.834139541760926
0.26883474139893637 -2.6715223015937246
0.24673417228338004 -2.495493893019423
0.22911311572323295 -2.3087486290579187
0.21550748301592984 -2.113738216355258
0.2054416236120521 -1.9126152591694507
0.1983988810871737 -1.7071446361928395
0.19380033130080573 -1.4986728806651763
0.191022097971351 -1.2881717957370122
0.18945177062917928 -1.0763446862309323
0.18853965708052742 -0.8637279401587391
0.18793535198703745 -0.6506556886127727
0.18753384359755093 -0.4373211030163196
0.18733546812039034 -0.22393989676815884
0.18729751589044932 -0.010771914987667747
0.9650579234302183 -0.010776250194772385
0.9650092970922415 -0.22393803935701104
0.9647964696236979 -0.43728818067610226
0.9643572785769344 -0.6505983689487476
0.9636803653241661 -0.863640124258576
0.962605948731267 -1.076170323484558
0.9607016254733866 -1.2877824657975852
0.9573863800300265 -1.4979093700860422
0.952002830811229 -1.7058399308639594
0.9438588377593644 -1.9106066095356182
0.9322934527477665 -2.1108788151301323
0.916702357903583 -2.3049053666027417
0.8965246965802726 -2.49054060991581
0.8712179226111568 -2.6653333809348454
0.840259894865364 -2.826593380253766
0.8032070847770458 -2.971479225353755
0.759796096759331 -3.097189444498948
0.7102021241874024 -3.201307975372151
0.6557211354395031 -3.282251946074687
0.5999627731378213 -3.3397335223150035
0.5495514960969052 -3.375582164917014
0.4991402190559936 -3.339733522314893
0.4433818567543246 -3.2822519460744672
0.38890086800644647 -3.2013079753718365
0.33930689543454434 -3.0971894444985604
0.29589590741685956 -2.971479225353311
0.2588430973285722 -2.82659338025328
0.22788506958281118 -2.665333380934333
0.20257829561372687 -2.490540609915288
0.18240063429044692 -2.304905366602223
0.16680953944629057 -2.110878815129633
0.15524415443471556 -1.9106066095351488
0.14710016138286933 -1.705839930863526
0.14171661216408565 -1.4979093700856518
0.13840136672073475 -1.287782465797242
0.13649704346285943 -1.0761703234842686
0.13542262686996231 -0.8636401242583392
0.13474571361719462 -0.6505983689485658
0.13430652257043132 -0.43728818067597464
0.13409369510188796 -0.2239380393569383
0.13404506876391126 -0.010776250194755449
1.0183248600975006 -0.010775024514160915
1.0182760520222176 -0.2239312046020546
1.0180577805881241 -0.4372522855451078
1.017581706515349 -0.6505369521230056
1.0168218413004289 -0.8635385564226594
1.01555604434182 -1.0759461221647606
1.0132941401137476 -1.2872937715141692
1.009434925580142 -1.496992255097886
1.0032710924252553 -1.7043131552736086
0.99404114333126 -1.90828962817007
0.9809978078064875 -2.1076031507351374
0.9634447232117649 -2.3005158798294514
0.9407303743345773 -2.4848897688075047
0.9122346632764751 -2.658278799516226
0.8773952194782205 -2.8180078389689274
0.8357795232599449 -2.961273207927038
0.7872308784002028 -3.0853507281927945
0.7320536463202111 -3.187979940694443
0.6713326975264694 -3.2679217409315067
0.6080475653990003 -3.3256351326138676
0.5495514960968926 -3.363931364456539
0.49105542679479014 -3.325635132613759
0.4277702946673355 -3.267921740931292
0.3670493458736179 -3.1879799406941354
0.3118721137936566 -3.0853507281924144
0.263323468933948 -2.961273207926602
0.22170777271570705 -2.818007838968449
0.18686832891748778 -2.6582787995157218
0.15837261785942064 -2.4848897688069904
0.135658268982267 -2.3005158798289402
0.11810518438757447 -2.1076031507346453
0.10506184886282711 -1.9082896281696062
0.0958318997688523 -1.7043131552731792
0.08966806661398086 -1.4969922550974986
0.08580885208038574 -1.287293771513828
0.08354694785231943 -1.0759461221644717
0.0822811508937131 -0.8635385564224228
0.08152128567879349 -0.6505369521228238
0.08104521160601892 -0.4372522855449802
0.08082694017192568 -0.2239312046019819
0.0807781320966427 -0.010775024514143972
1.0716012255940646 -0.010773475264327361
1.0715687718081708 -0.2239219321261103
1.0713618436156578 -0.4372146586561435
1.07084653641428 -0.6504700727249443
1.0699828113393157 -0.8634163980159729
1.0684978981636875 -1.0756635015184657
1.0658660903864796 -1.286701482021834
1.061461016145725 -1.4959205575478143
1.0545303603216742 -1.7025670028253599
1.044239877906051 -1.9056693722525175
1.029752249139271 -2.1039173318614273
1.0102692190090505 -2.2955852566002974
0.9850463339255787 -2.4785460813773112
0.9534007322802409 -2.6503656765271213
0.9147270244149868 -2.8083922938292942
0.8686029372323499 -2.9498783657882632
0.8149735782886686 -3.0722036148717953
0.7543718442458143 -3.1732632157953664
0.688071460211173 -3.2520487038752495
0.6181194380577517 -3.3095004697292034
0.5495514960968795 -3.349999999999996
0.4809835541360134 -3.3095004697290977
0.41103153198260806 -3.2520487038750403
0.3447311479479946 -3.1732632157950653
0.2841294139051748 -3.072203614871424
0.2305000549615306 -2.949878365787836
0.18437596777893223 -2.8083922938288253
0.14570225991371724 -2.6503656765266257
0.11405665826841808 -2.4785460813768054
0.0888337731849835 -2.2955852565997947
0.06935074305479623 -2.103917331860942
0.054863114288043704 -1.9056693722520595
0.04457263187244253 -1.7025670028249351
0.037641976048408625 -1.4959205575474301
0.033236901807666 -1.2867014820214948
0.030605094030464755 -1.0756635015181777
0.02912018085483953 -0.8634163980157367
0.028256455779876174 -0.6504700727247626
0.02774114857849898 -0.43721465865601583
0.027534220385986265 -0.22392193212603761
0.027501766600092296 -0.01077347526431042
SCALARS Stress float 6
LOOKUP_TABLE default
-1186.0258788681817 -1982.9162432923226 -1507.9591362805877 -22.503074447953626 0.0 0.0
1313.309586988957 767.6332392189112 969.1071827033809 -22.286802592494297 0.0 0.0
587.4009000835733 142.62890051142793 231.214362484783 -39.739272035018054 0.0 0.0
478.09287700676805 24.11071054271706 154.2422215168454 -2.0786978016545357 0.0 0.0
596.0470652952766 68.92943610276907 232.41301500209303 1.8799342583536216 0.0 0.0
704.7762912967366 113.28759698293113 345.2202482163776 1.7175020586704624 0.0 0.0
823.2830131899491 157.9364735112755 458.594854261878 0.7337411323644267 0.0 0.0
942.7906577575459 218.6660791456914 564.1154981044899 -0.5662161709988108 0.0 0.0
1069.880482185129 292.7393961086187 669.1467848908384 -2.077261343629421 0.0 0.0
1212.0314278578667 386.3524923058965 788.0202112206257 -3.7047937028345084 0.0 0.0
1374.3836059632665 504.14525362293585 928.1224448189865 -5.287256258908897 0.0 0.0
1557.1514154271763 646.6910082651673 1090.4677661484284 -6.588723899103252 0.0 0.0
1755.6752895174282 807.7628949625866 1269.8174541661122 -7.4020409322742005 0.0 0.0
1963.320728795233 980.5538697147374 1459.589037452945 -8.036341839959201 0.0 0.0
2171.178318402638 1156.006080784401 1650.7931085582127 -8.458451862052495 0.0 0.0
2369.273686433182 1324.2579372625457 1833.5369948172215 -8.623434813438838 0.0 0.0
2547.4666777483944 1475.6868248044689 1997.994846151038 -8.375536717454438 0.0 0.0
2695.370387012863 1600.5697124445949 2134.151416733306 -7.61249317704242 0.0 0.0
2809.5330663481445 1696.1770577999855 2238.8301881607863 -6.482051635878082 0.0 0.0
2876.8980959721184 1750.3947406582986 2299.4723372009703 -7.553633394954954 0.0 0.0
2868.646309851362 1740.4730433623774 2290.6545021154384 -5.1382897936491645e-11 0.0 0.0
2876.898095971333 1750.394740657535 2299.472337200395 7.5536333950261 0.0 0.0
2809.533066347828 1696.1770577997365 2238.8301881603497 6.482051635909508 0.0 0.0
2695.370387013662 1600.5697124455091 2134.151416733829 7.612493177069544 0.0 0.0
2547.466677747184 1475.6868248033343 1997.9948461500128 8.375536717476919 0.0 0.0
2369.273686431398 1324.2579372608984 1833.5369948156545 8.623434813435452 0.0 0.0
2171.1783184018896 1156.0060807838015 1650.7931085573969 8.45845186199737 0.0 0.0
1963.320728794151 980.5538697138375 1459.589037451911 8.03634184003817 0.0 0.0
1755.6752895158506 807.762894961182 1269.817454164809 7.402040932109349 0.0 0.0
1557.151415428014 646.6910082662479 1090.4677661488518 6.588723898949588 0.0 0.0
1374.3836059622245 504.14525362216045 928.1224448179333 5.287256258852695 0.0 0.0
1212.0314278569203 386.35249230519776 788.0202112198036 3.704793702998625 0.0 0.0
1069.8804821835924 292.7393961073095 669.1467848896847 2.0772613434508873 0.0 0.0
942.7906577568035 218.66607914525864 564.1154981038846 0.5662161707138669 0.0 0.0
823.2830131887894 157.93647351034775 458.5948542609511 -0.7337411321241056 0.0 0.0
704.7762912958143 113.28759698219045 345.22024821559654 -1.7175020588708811 0.0 0.0
596.0470652949878 68.92943610274914 232.41301500183775 -1.8799342584779843 0.0 0.0
478.0928770064189 24.110710542484533 154.24222151667675 2.0786978015484845 0.0 0.0
587.4009000833444 142.62890051135017 231.21436248463823 39.73927203502464 0.0 0.0
1313.3095869885294 767.6332392185544 969.1071827028542 22.286802592404264 0.0 0.0
-1186.025878865573 -1982.9162432897392 -1507.9591362779438 22.503074447358784 0.0 0.0
-1510.7097959438088 -2278.3813602534733 -1785.324563980479 -23.418591906735553 0.0 0.0
894.7390848658338 424.994688685997 606.6785692299416 -30.890434645641342 0.0 0.0
409.1827798135527 56.719841989260516 138.24182921135608 -33.738002004576536 0.0 0.0
422.44347314198757 4.215782025669326 129.21631367411055 -16.001364855329076 0.0 0.0
530.1791664466645 30.425181190475428 188.78355482700675 -15.891670760924503 0.0 0.0
627.162924471887 42.97130357448466 274.48852954204784 -20.88110311882747 0.0 0.0
709.4801224533453 58.9333878829778 359.8255603366108 -22.887113729815802 0.0 0.0
788.9324627531192 77.92174654421491 426.27673834942834 -23.42076816440668 0.0 0.0
862.6391065925475 97.92612874109528 477.96661322077074 -23.87667633423836 0.0 0.0
933.0998098589882 120.04770253797207 525.415384385483 -24.47153857668707 0.0 0.0
1002.6280632966215 145.6668644141882 573.3076145452867 -24.76754798825694 0.0 0.0
1072.6216512962417 175.18254939639812 623.1492164932105 -24.68835363464868 0.0 0.0
1142.403711044861 208.6071103719207 674.7560232504983 -24.246490968738332 0.0 0.0
1209.38727099291 241.15138141322987 724.5026164857994 -23.645253032113 0.0 0.0
1267.747718635076 267.54980608526427 766.8637512520623 -22.922425517790533 0.0 0.0
1312.794849588304 283.1597372251386 797.1742484839687 -21.880107382475007 0.0 0.0
1341.4053768388687 285.23958647273435 812.5058271025924 -20.270845074151087 0.0 0.0
1353.7257905270344 274.5685281560555 813.3219486602721 -18.02951948506011 0.0 0.0
1346.938909301931 249.22453104783807 797.3517660418718 -15.587885641241934 0.0 0.0
1290.2560595253374 179.72395820398845 734.9379032558186 -15.04171877650103 0.0 0.0
1192.0985005338223 80.50663239969899 637.3972577870411 3.3018032752352156e-11 0.0 0.0
1290.256059524261 179.72395820291058 734.9379032550584 15.041718776570333 0.0 0.0
1346.9389093025786 249.22453104857365 797.3517660421766 15.587885641314813 0.0 0.0
1353.7257905273946 274.56852815649995 813.3219486605966 18.029519485097513 0.0 0.0
1341.4053768383967 285.2395864723421 812.5058271023573 20.2708450741434 0.0 0.0
1312.7948495879762 283.1597372249571 797.1742484836477 21.88010738244815 0.0 0.0
1267.7477186347382 267.5498060850664 766.863751251808 22.922425517782454 0.0 0.0
1209.3872709922623 241.15138141276276 724.502616485226 23.645253032217 0.0 0.0
1142.4037110441088 208.607110371347 674.7560232499937 24.246490968616868 0.0 0.0
1072.6216512973695 175.18254939775915 623.1492164939879 24.688353634682105 0.0 0.0
1002.6280632967814 145.66686441460809 573.3076145453385 24.767547988243294 0.0 0.0
933.0998098583727 120.04770253759656 525.4153843850899 24.471538576782734 0.0 0.0
862.6391065920263 97.92612874085123 477.96661322039955 23.876676334186683 0.0 0.0
788.9324627526311 77.92174654397681 426.2767383490452 23.420768164317188 0.0 0.0
709.4801224527564 58.933387882700316 359.82556033612394 22.88711372989509 0.0 0.0
627.1629244712169 42.97130357403451 274.48852954147014 20.88110311872196 0.0 0.0
530.1791664463736 30.425181190518366 188.78355482681002 15.891670760883972 0.0 0.0
422.44347314165213 4.215782025448794 129.21631367395472 16.00136485532678 0.0 0.0
409.182779813546 56.719841989398404 138.24182921139467 33.73800200450309 0.0 0.0
894.7390848652306 424.9946886855858 606.6785692293142 30.89043464554913 0.0 0.0
-1510.709795941777 -2278.3813602513355 -1785.3245639783513 23.418591906304343 0.0 0.0
-1257.3452052874509 -1990.4674911573325 -1504.8813088472075 -61.745063145575855 0.0 0.0
702.5205183386221 334.45822746273876 462.44965250401594 -98.93214679693145 0.0 0.0
286.14495251196456 64.5199719632581 105.20710251681263 -36.18961504304128 0.0 0.0
362.1897915861003 0.47416596271654576 108.62137557018313 -37.22538295765882 0.0 0.0
484.9986159029989 21.275710703470068 161.88594459357776 -38.23027506725218 0.0 0.0
594.2612769312339 38.1698952109312 244.5925187808544 -40.25011223178776 0.0 0.0
680.3036041476605 54.86480712082764 335.16831491113027 -42.750203752390995 0.0 0.0
760.5926764871234 70.33612104819835 405.00167560643575 -43.822521400169734 0.0 0.0
832.0439568512459 87.28592626372307 456.3942733419678 -44.88776995652914 0.0 0.0
898.8595653200946 105.48200338461947 500.59868829402797 -45.849671663927126 0.0 0.0
964.6641904863365 127.74446062089427 545.0409022088439 -46.05103926671435 0.0 0.0
1031.084833367528 154.90645466094037 591.9277195479463 -45.44906760917033 0.0 0.0
1097.982390974373 185.0111609649416 640.446776213444 -44.490602446036874 0.0 0.0
1161.1410564831472 214.96624030842185 687.013812885418 -43.30278223404125 0.0 0.0
1217.0296059761426 239.36662342575545 727.1438520225515 -41.87085768650935 0.0 0.0
1261.0511260886894 254.31765646145485 756.6005052647059 -39.93332916957245 0.0 0.0
1290.7879744944846 257.68402854743755 773.1369213014077 -37.12041508133124 0.0 0.0
1303.320293293976 247.18172187667682 774.2025073136439 -33.44675659483299 0.0 0.0
1288.6768525884754 213.91895280045986 750.5085975779648 -29.549620535220512 0.0 0.0
1255.4469248011972 168.03665447718797 711.3121525052759 -26.127626064026952 0.0 0.0
1137.6634843565425 49.72785722922763 594.6767183635143 -2.0298429603826662e-11 0.0 0.0
1255.446924800576 168.0366544766107 711.3121525048597 26.127626064102706 0.0 0.0
1288.6768525890366 213.91895280108437 750.508597578317 29.54962053536437 0.0 0.0
1303.3202932937522 247.18172187655261 774.2025073134824 33.44675659489991 0.0 0.0
1290.7879744934048 257.68402854643386 773.1369213006698 37.12041508136065 0.0 0.0
1261.0511260890519 254.31765646194785 756.6005052649773 39.933329169525365 0.0 0.0
1217.0296059752955 239.36662342506014 727.1438520218771 41.87085768648604 0.0 0.0
1161.141056482161 214.9662403076161 687.0138128846748 43.30278223414765 0.0 0.0
1097.982390973418 185.01116096413622 640.4467762128056 44.49060244595321 0.0 0.0
1031.0848333684767 154.90645466211294 591.9277195485489 45.44906760914845 0.0 0.0
964.6641904865423 127.74446062131904 545.0409022090187 46.05103926661365 0.0 0.0
898.859565319312 105.48200338407908 500.5986882935561 45.84967166390636 0.0 0.0
832.0439568512097 87.28592626394678 456.39427334189634 44.88776995646731 0.0 0.0
760.5926764867963 70.33612104815272 405.0016756061617 43.82252140016319 0.0 0.0
680.3036041475121 54.86480712104584 335.1683149108904 42.750203752384635 0.0 0.0
594.2612769307681 38.16989521078056 244.59251878041465 40.25011223178814 0.0 0.0
484.9986159027774 21.275710703606 161.88594459347672 38.23027506720583 0.0 0.0
362.189791585841 0.47416596246428133 108.6213755700472 37.225382957557954 0.0 0.0
286.14495251196706 64.51997196325853 105.2071025168144 36.18961504285888 0.0 0.0
702.5205183380087 334.4582274624598 462.4496525034268 98.9321467967751 0.0 0.0
-1257.3452052855532 -1990.4674911553238 -1504.8813088451434 61.74506314537601 0.0 0.0
-1024.6549656724667 -1727.1678070888743 -1250.0078953743862 -75.25123932107104 0.0 0.0
534.3750998895358 238.61108390457005 337.28861711732014 -145.08475428078287 0.0 0.0
208.69992123613162 56.635912267828054 79.60075005118787 -58.208103525879025 0.0 0.0
301.29592214845906 6.016059716825123 92.14042544613181 -58.699601306319934 0.0 0.0
429.91555633695947 11.37613188302992 135.24269325156916 -62.81769725806253 0.0 0.0
548.3986391600615 32.00224657997137 210.8536713675278 -61.10631853338077 0.0 0.0
648.2741156258983 48.67770512672466 304.80258584720184 -63.981222271317904 0.0 0.0
727.31328437295 62.92671465509285 379.59215933350356 -64.50368507490653 0.0 0.0
797.39771638025 76.83302527971087 432.2038844580224 -65.62426382551531 0.0 0.0
860.9567512530456 91.50177909017525 474.0204827070886 -66.56247325899386 0.0 0.0
922.7281823418894 110.15732971949711 514.8376441928734 -66.44810491510486 0.0 0.0
985.7095377866123 133.8725781438496 558.3065561964503 -65.41746559407724 0.0 0.0
1048.9888403699008 161.7596572619003 603.9352717773712 -63.93409327032538 0.0 0.0
1108.9454174197542 187.9798277812758 647.0563623022765 -62.306667800299564 0.0 0.0
1161.9214792616021 210.20667990247276 684.6496805464344 -60.24665428506822 0.0 0.0
1205.7016591722281 225.50634360701775 714.1609257533546 -57.48528107411406 0.0 0.0
1236.5756066418771 229.87280046048852 731.7758900225731 -53.80002559235981 0.0 0.0
1248.9213412769436 218.94787011773687 732.5962727688405 -49.1690432115802 0.0 0.0
1239.1818333588421 190.2636763580088 713.6150639522323 -43.59637788234339 0.0 0.0
1218.4733945711685 156.2318649866296 686.4473512310625 -35.95082238700886 0.0 0.0
1052.7845576228533 -9.727240847925245 522.8129572019658 -2.0868640149274142e-11 0.0 0.0
1218.4733945713253 156.23186498683324 686.447351231285 35.950822387122955 0.0 0.0
1239.1818333579427 190.2636763571636 713.615063951652 43.59637788244701 0.0 0.0
1248.9213412773547 218.94787011825042 732.5962727691469 49.169043211703965 0.0 0.0
1236.5756066414774 229.87280046022414 731.7758900222617 53.80002559252233 0.0 0.0
1205.701659171802 225.50634360669068 714.1609257530265 57.48528107410714 0.0 0.0
1161.9214792600435 210.20667990103084 684.6496805453123 60.246654284983784 0.0 0.0
1108.945417418871 187.97982778055808 647.0563623017553 62.30666780039355 0.0 0.0
1048.9888403693208 161.75965726154269 603.9352717769684 63.93409327040968 0.0 0.0
985.7095377868328 133.8725781442929 558.3065561966298 65.41746559416126 0.0 0.0
922.7281823417239 110.15732971959041 514.8376441927845 66.44810491517887 0.0 0.0
860.9567512523414 91.50177908972125 474.02048270662607 66.56247325900328 0.0 0.0
797.3977163800814 76.83302527982154 432.2038844578797 65.62426382552212 0.0 0.0
727.3132843725526 62.92671465493625 379.5921593331488 64.50368507481252 0.0 0.0
648.2741156260797 48.67770512733633 304.80258584713914 63.98122227135108 0.0 0.0
548.3986391595229 32.00224657976399 210.85367136711426 61.10631853334206 0.0 0.0
429.9155563367696 11.376131883435246 135.2426932516118 62.81769725802697 0.0 0.0
301.2959221482962 6.016059716512345 92.1404254459845 58.6996013061829 0.0 0.0
208.6999212361124 56.635912267729154 79.60075005115246 58.20810352575374 0.0 0.0
534.3750998889391 238.61108390429058 337.28861711678195 145.08475428063045 0.0 0.0
-1024.6549656707557 -1727.1678070870869 -1250.0078953725115 75.25123932083802 0.0 0.0
-822.9830077476101 -1498.4724300296743 -1026.3203739988203 -74.36201317519323 0.0 0.0
410.29299231892713 155.2850437794104 240.22909880954217 -176.39539325148166 0.0 0.0
153.39934298411396 45.38576486271057 59.63553235404734 -88.12934786339963 0.0 0.0
246.55255785678983 12.198830576826222 77.62832984538431 -81.94379239885228 0.0 0.0
365.71262460342473 6.733041165207063 111.74467862168903 -87.76682165542141 0.0 0.0
494.40597398142296 19.869584800485523 174.04387530646426 -86.68625441259873 0.0 0.0
604.2055005939895 41.063448213623545 266.8348725838151 -85.3990506202819 0.0 0.0
688.194725957478 56.37852202805564 349.4576721210094 -85.58467830829349 0.0 0.0
757.9053335884287 66.92139997445769 404.6374738168126 -86.06025801267381 0.0 0.0
818.4409010136635 77.88338291309753 444.88167856496034 -86.56767785977864 0.0 0.0
876.6827514911836 92.70757817847503 482.4305759685724 -86.00266692920813 0.0 0.0
935.6843511352857 112.83636583710015 522.2041195868694 -84.50148960252156 0.0 0.0
995.4402983930522 137.046227809923 564.2563481033109 -82.68003243125118 0.0 0.0
1051.9156856806853 161.43674132541207 604.7689347795438 -80.59308644873 0.0 0.0
1102.431812356381 181.13123119639135 639.8929906612855 -77.97952477447483 0.0 0.0
1144.9212002065626 194.8655924877843 667.9688086399846 -74.60714604366457 0.0 0.0
1177.114969190548 200.93225935614393 687.1020283521818 -70.32177059817344 0.0 0.0
1193.7536880274672 194.00966054099183 692.0682711778578 -64.99715381725672 0.0 0.0
1190.718559650548 171.22206956504758 679.3588908337836 -57.61535209473391 0.0 0.0
1175.840674513554 141.52497752532855 657.2178922587435 -46.06072355716076 0.0 0.0
950.9723906801725 -83.30921589558274 435.64485459101616 4.972555700533121e-11 0.0 0.0
1175.8406745135705 141.52497752538147 657.2178922588574 46.06072355737209 0.0 0.0
1190.7185596489294 171.22206956349078 679.3588908326398 57.615352094819755 0.0 0.0
1193.753688028262 194.0096605419115 692.0682711784342 64.9971538174314 0.0 0.0
1177.1149691899427 200.93225935563578 687.1020283517116 70.32177059831285 0.0 0.0
1144.9212002059394 194.86559248721827 667.9688086395822 74.60714604354216 0.0 0.0
1102.4318123555634 181.1312311956783 639.8929906607142 77.97952477433144 0.0 0.0
1051.9156856807285 161.4367413256781 604.7689347795892 80.59308644878287 0.0 0.0
995.4402983923188 137.046227809384 564.2563481027985 82.6800324313655 0.0 0.0
935.6843511344784 112.83636583640961 522.2041195863089 84.50148960244721 0.0 0.0
876.6827514909648 92.70757817847505 482.4305759683982 86.00266692911514 0.0 0.0
818.4409010133659 77.88338291302988 444.88167856476986 86.56767785968901 0.0 0.0
757.9053335880809 66.92139997440543 404.637473816567 86.06025801272288 0.0 0.0
688.1947259569346 56.378522027798866 349.45767212054784 85.58467830825066 0.0 0.0
604.2055005938693 41.06344821390914 266.8348725835852 85.39905062033327 0.0 0.0
494.4059739807983 19.869584800160382 174.04387530604905 86.6862544125408 0.0 0.0
365.712624603145 6.733041165347924 111.74467862166107 87.76682165538456 0.0 0.0
246.5525578566834 12.198830576653014 77.6283298452971 81.9437923987704 0.0 0.0
153.39934298413644 45.385764862682834 59.63553235404577 88.1293478633411 0.0 0.0
410.29299231841225 155.2850437792291 240.22909880911445 176.39539325135613 0.0 0.0
-822.9830077461061 -1498.4724300280575 -1026.320373997137 74.36201317499794 0.0 0.0
-645.9223013731005 -1296.172416414721 -827.7287111794212 -71.44502800921975 0.0 0.0
312.71918468743604 90.75104787787771 165.95329468953892 -194.37394663466307 0.0 0.0
111.21234802424463 31.855629716523115 42.92039332223032 -116.6007508083566 0.0 0.0
196.72448419797254 17.286646738982277 64.20533364674421 -105.48945612337678 0.0 0.0
299.081651918717 5.166603398062873 90.77961895136954 -111.90663456266633 0.0 0.0
425.45727393612685 10.285295038623541 138.83760951383246 -112.78685115648982 0.0 0.0
543.0095424341175 32.74026914627657 222.64702329699048 -108.30423040280081 0.0 0.0
641.605836312256 46.9787757892248 310.41091166390083 -107.82469991795844 0.0 0.0
710.4932029747129 57.60292452925364 371.5982427576167 -106.095148478226 0.0 0.0
770.520037447112 64.43935364512596 412.23607143566585 -105.89156000213352 0.0 0.0
825.2489654271698 75.38449068841491 446.99651056618416 -104.70103895995157 0.0 0.0
880.3333641430522 91.8502644493562 483.1807031649201 -102.67920972409587 0.0 0.0
936.1791531936198 112.86925319791864 521.7370636186672 -100.49265260595315 0.0 0.0
989.0755041370476 133.51426745302817 558.6371911950897 -98.15799772639609 0.0 0.0
1036.861994283026 151.31072287942308 591.4895901749609 -95.13608779559581 0.0 0.0
1077.9291534921913 164.26454103726041 618.5031437200012 -91.13671901638135 0.0 0.0
1111.5184442365055 170.8446677660868 638.5570498909212 -86.49761317114127 0.0 0.0
1134.6264940574756 170.1453183732014 649.8183014048426 -80.78048745876447 0.0 0.0
1140.0006201755125 154.9048919276134 645.0876769679553 -72.00969615888212 0.0 0.0
1128.6376218491541 126.39078905385128 625.306047440888 -57.16012150489607 0.0 0.0
833.3148525649959 -168.25911828359256 335.1160426754084 1.156408302449563e-11 0.0 0.0
1128.6376218495695 126.39078905433762 625.3060474413115 57.16012150510703 0.0 0.0
1140.0006201743568 154.9048919265049 645.0876769671643 72.00969615893194 0.0 0.0
1134.6264940578494 170.14531837359584 649.8183014051439 80.78048745875228 0.0 0.0
1111.5184442358843 170.84466776556445 638.557049890464 86.49761317110121 0.0 0.0
1077.929153491378 164.26454103652972 618.5031437195717 91.1367190163503 0.0 0.0
1036.8619942832074 151.31072287977761 591.4895901751236 95.136087795692 0.0 0.0
989.0755041370358 133.5142674531939 558.6371911950143 98.15799772640628 0.0 0.0
936.1791531933867 112.86925319794344 521.7370636184689 100.4926526061322 0.0 0.0
880.3333641423125 91.85026444881802 483.1807031644392 102.67920972411456 0.0 0.0
825.2489654268887 75.38449068834532 446.99651056588027 104.70103895993026 0.0 0.0
770.5200374466949 64.43935364489724 412.236071435401 105.89156000205165 0.0 0.0
710.4932029744581 57.60292452929865 371.59824275737395 106.0951484782243 0.0 0.0
641.6058363118474 46.97877578912497 310.4109116635189 107.82469991792371 0.0 0.0
543.0095424337167 32.740269146164934 222.64702329659846 108.30423040272031 0.0 0.0
425.4572739357883 10.285295038679253 138.83760951366003 112.7868511563726 0.0 0.0
299.0816519182917 5.16660339786038 90.77961895121008 111.90663456257717 0.0 0.0
196.72448419796524 17.286646739038108 64.20533364675894 105.4894561233626 0.0 0.0
111.21234802424581 31.855629716481484 42.920393322218175 116.60075080828717 0.0 0.0
312.7191846869528 90.75104787771348 165.9532946891815 194.3739466345221 0.0 0.0
-645.9223013717801 -1296.1724164132056 -827.728711177917 71.44502800913578 0.0 0.0
-493.3181197206068 -1111.1638698532981 -651.8672652804332 -69.16782737849717 0.0 0.0
235.67398176235756 39.6492764310979 109.3045592522269 -205.23414264926717 0.0 0.0
77.02551803999177 18.52138525342584 28.663975753585955 -140.1327654930032 0.0 0.0
149.8795011774979 20.619849453382926 51.150874345227166 -127.41172931639613 0.0 0.0
233.83583869458823 6.283934003810383 71.86935007090109 -133.09179087565278 0.0 0.0
346.80620577995467 1.4312940565679477 105.68927888423333 -140.7003445707525 0.0 0.0
468.6279934534653 19.367163058574633 173.35872844490862 -134.95594470479998 0.0 0.0
574.8440658734532 38.57997601996995 260.72694770875256 -129.7518568858303 0.0 0.0
656.346192873343 45.15024397154961 329.4754137517385 -127.84376353428222 0.0 0.0
713.6410476196784 51.277014687324275 373.51351669392164 -124.38015520479301 0.0 0.0
767.0174474988085 58.25769811465098 407.3204368167692 -122.46351929424667 0.0 0.0
818.2423691045577 70.83147911161913 440.17722766573223 -119.93527209992554 0.0 0.0
869.7864075730638 88.15971803084236 474.90550610790166 -117.40142250630755 0.0 0.0
918.7813010506485 105.85795983442287 508.46261068704786 -114.8287358704958 0.0 0.0
963.3499903885992 121.0688942733351 538.4908613508558 -111.61345888414911 0.0 0.0
1002.4142934500846 131.36123569168177 563.2178610227456 -107.38833689050664 0.0 0.0
1037.0064920517768 140.2089296368875 584.8905198799108 -102.05669226578534 0.0 0.0
1068.4251518917592 146.70374288481122 603.8005562218964 -96.24691997086275 0.0 0.0
1084.5188991327732 140.24677647714782 608.7948023473817 -87.13223687710045 0.0 0.0
1077.082374642154 112.8847707244091 591.6592062393047 -70.00504337047595 0.0 0.0
697.860104046824 -264.1081160601514 220.56445252843525 1.0232525937681203e-10 0.0 0.0
1077.0823746428084 112.88477072508799 591.659206239876 70.00504337060676 0.0 0.0
1084.5188991318112 140.24677647620933 608.794802346784 87.13223687708424 0.0 0.0
1068.4251518920994 146.70374288525966 603.8005562221024 96.24691997092275 0.0 0.0
1037.0064920513548 140.20892963650522 584.890519879607 102.05669226571418 0.0 0.0
1002.414293449551 131.3612356912938 563.2178610223516 107.38833689054593 0.0 0.0
963.3499903880215 121.06889427294759 538.4908613505239 111.61345888424188 0.0 0.0
918.7813010513136 105.85795983541023 508.46261068746014 114.82873587074785 0.0 0.0
869.786407573348 88.15971803135022 474.90550610810664 117.40142250644176 0.0 0.0
818.2423691038642 70.83147911108082 440.1772276652738 119.9352720998835 0.0 0.0
767.0174474982982 58.25769811422691 407.32043681634616 122.463519294102 0.0 0.0
713.6410476193653 51.27701468725668 373.51351669372644 124.3801552047205 0.0 0.0
656.3461928730787 45.15024397165628 329.47541375149774 127.84376353435833 0.0 0.0
574.8440658730564 38.57997601991568 260.7269477083729 129.7518568858182 0.0 0.0
468.6279934532878 19.36716305883823 173.3587284447447 134.95594470475908 0.0 0.0
346.8062057795494 1.431294056520551 105.68927888407997 140.70034457054973 0.0 0.0
233.83583869454424 6.283934004014897 71.86935007094952 133.09179087548986 0.0 0.0
149.87950117756023 20.619849453531806 51.15087434529013 127.41172931629745 0.0 0.0
77.02551803989444 18.52138525334045 28.663975753531247 140.13276549275838 0.0 0.0
235.67398176182112 39.64927643080195 109.3045592518593 205.23414264908098 0.0 0.0
-493.31811971954704 -1111.1638698519619 -651.8672652791553 69.16782737848985 0.0 0.0
-358.92694060373987 -950.708839220107 -497.15846104208487 -75.67788824418955 0.0 0.0
170.08923549163373 1.0424816179111946 65.27414931005517 -207.63751107903508 0.0 0.0
47.66809464896218 7.5600888251026115 16.568272286337713 -158.03022955555514 0.0 0.0
104.60353117086684 21.987508885204424 37.97852350164061 -146.32518329078331 0.0 0.0
171.477468105226 8.607722754763149 53.92621955995909 -151.53799270021955 0.0 0.0
259.22320763066875 -1.2948526579026263 76.83978612000983 -164.34408871426396 0.0 0.0
374.40086547806754 5.9815683227053595 123.69391507147652 -163.54975056055815 0.0 0.0
487.6922093185635 24.586948684569087 198.88551841519384 -153.59682275128574 0.0 0.0
580.095056045538 34.624064039968424 273.2171503498525 -148.02047017187613 0.0 0.0
645.9513897812543 35.29739371691408 323.5180909044124 -143.74561474488718 0.0 0.0
697.3067408972369 40.36932016110147 359.0833152923234 -139.20668659580664 0.0 0.0
745.5161183316135 49.945787227298425 390.40820012302333 -136.0234178198017 0.0 0.0
793.0950584929602 63.54881913989534 421.79769667832954 -133.1580077376971 0.0 0.0
837.2317842954446 77.4170478373454 451.230800483292 -130.4219458103462 0.0 0.0
878.485517557037 89.87838027484344 478.3176620400898 -127.31409284882763 0.0 0.0
915.1723221570655 99.13329598806675 501.4735748633478 -123.05095726906596 0.0 0.0
949.2481851501499 106.03802285271317 522.0180006356746 -117.31148710889278 0.0 0.0
987.840473815237 119.43612500564151 547.7616762221656 -111.05446974976948 0.0 0.0
1019.8329447186823 128.11715988683733 568.1836725454438 -102.74954169780266 0.0 0.0
1020.9830885963726 105.31439711258395 557.9055506382097 -85.52686501749373 0.0 0.0
538.8849666828194 -370.66272139232245 89.41013300171687 9.090328489946842e-11 0.0 0.0
1020.9830885962804 105.31439711249763 557.9055506382884 85.52686501755498 0.0 0.0
1019.8329447185771 128.1171598870378 568.1836725454529 102.74954169814598 0.0 0.0
987.8404738157022 119.43612500617837 547.7616762224487 111.05446975007276 0.0 0.0
949.2481851504974 106.0380228533053 522.0180006357874 117.31148710891758 0.0 0.0
915.1723221567698 99.13329598781104 501.4735748631522 123.05095726909403 0.0 0.0
878.485517557092 89.87838027513853 478.3176620401099 127.31409284890539 0.0 0.0
837.2317842955761 77.41704783765651 451.23080048345565 130.42194581047897 0.0 0.0
793.095058492796 63.548819139915324 421.7976966782193 133.15800773774978 0.0 0.0
745.516118331313 49.945787227104546 390.4082001227939 136.02341781974891 0.0 0.0
697.3067408969173 40.36932016096172 359.0833152920432 139.2066865956819 0.0 0.0
645.9513897814433 35.29739371730643 323.5180909045135 143.74561474479498 0.0 0.0
580.0950560449315 34.62406403962804 273.21715034936796 148.0204701718074 0.0 0.0
487.6922093180464 24.586948684482216 198.88551841481447 153.59682275132906 0.0 0.0
374.40086547787416 5.9815683230340735 123.69391507140848 163.5497505605975 0.0 0.0
259.22320763005143 -1.2948526585357785 76.83978611966434 164.34408871392958 0.0 0.0
171.47746810531115 8.607722755106552 53.926219560086 151.53799270008733 0.0 0.0
104.60353117079897 21.987508885170246 37.978523501610645 146.3251832905425 0.0 0.0
47.668094648964434 7.56008882519318 16.56827228636548 158.03022955525554 0.0 0.0
170.08923549120368 1.042481617671335 65.27414930977623 207.63751107886665 0.0 0.0
-358.9269406029523 -950.7088392189988 -497.15846104105924 75.6778882441859 0.0 0.0
-256.7641132503548 -795.8885510730904 -372.2411200568532 -82.86596803053736 0.0 0.0
113.78778951488123 -30.257755904617262 31.721872174067286 -203.69549133894597 0.0 0.0
20.21058673681698 0.1410987247160147 6.107223540959458 -170.74447559107074 0.0 0.0
60.4731206314395 21.8176664009059 24.686058184808484 -161.4059525659586 0.0 0.0
109.27317454768611 11.611230869144553 36.201178703256076 -166.0841248005089 0.0 0.0
170.13643045516122 0.6354087892571897 50.97355070372447 -181.14242740684688 0.0 0.0
259.21293432059093 -3.1635273941689195 77.81817033500883 -192.74835830423697 0.0 0.0
370.9648604763636 5.145227078918 128.074218980461 -183.7096028846032 0.0 0.0
473.51646551972453 16.886035102748163 194.60528814187842 -169.01322336790858 0.0 0.0
549.6442401994549 19.215821715525003 251.01739163402428 -160.57612341302666 0.0 0.0
605.3265438369809 21.86446697176782 292.35133690434776 -154.21125086066812 0.0 0.0
652.2096461503451 27.770095413393385 324.409042733575 -150.43698738117013 0.0 0.0
696.1471131334905 38.55224260256695 354.3798278051912 -147.34852987939058 0.0 0.0
735.2997830379596 48.62453461754279 380.2932781840959 -144.51276320119678 0.0 0.0
772.0116318640418 58.1734586670846 404.0791020883811 -141.779221730647 0.0 0.0
806.814931707752 66.28823660741989 426.0039330320006 -138.16322984356034 0.0 0.0
840.4758257449766 72.88630030226278 446.6447520338867 -132.45440398226532 0.0 0.0
879.5322100413468 85.19961944095654 472.2868195515432 -125.08322487196483 0.0 0.0
930.3464738799967 109.84575190420838 509.6238320553666 -118.08230898650419 0.0 0.0
957.0311265689072 107.77622439031757 523.0430253496621 -105.23242966460894 0.0 0.0
347.5588885120955 -484.0171326958597 -60.38204282031998 6.916778261256695e-11 0.0 0.0
957.0311265687302 107.77622439027337 523.0430253497341 105.23242966474473 0.0 0.0
930.3464738802392 109.84575190470683 509.6238320555277 118.0823089869034 0.0 0.0
879.5322100411944 85.19961944100037 472.28681955146345 125.0832248722295 0.0 0.0
840.475825745338 72.88630030265874 446.64475203409256 132.45440398244355 0.0 0.0
806.8149317076371 66.28823660757823 426.0039330320129 138.16322984350757 0.0 0.0
772.0116318641666 58.17345866748036 404.07910208844356 141.77922173094717 0.0 0.0
735.2997830376935 48.62453461730336 380.29327818377993 144.51276320105018 0.0 0.0
696.1471131334521 38.5522426027167 354.3798278051573 147.34852987944907 0.0 0.0
652.2096461501179 27.770095413338932 324.40904273345586 150.43698738119284 0.0 0.0
605.326543836196 21.864466971056522 292.35133690383003 154.2112508606708 0.0 0.0
549.6442401994565 19.21582171564238 251.01739163391747 160.57612341287137 0.0 0.0
473.5164655190667 16.88603510230371 194.60528814141037 169.01322336786077 0.0 0.0
370.96486047566134 5.145227078486274 128.07421898002565 183.70960288463107 0.0 0.0
259.2129343201529 -3.163527394200503 77.81817033485957 192.7483583040968 0.0 0.0
170.13643045495036 0.6354087891841511 50.97355070364904 181.14242740653475 0.0 0.0
109.27317454769363 11.611230869305686 36.20117870331047 166.0841248003327 0.0 0.0
60.473120631353886 21.81766640082037 24.686058184755925 161.40595256574142 0.0 0.0
20.21058673674472 0.14109872471515184 6.107223540936774 170.74447559086238 0.0 0.0
113.78778951452387 -30.257755904847407 31.72187217384919 203.69549133879497 0.0 0.0
-256.76411324959724 -795.8885510719922 -372.24112005600523 82.8659680305557 0.0 0.0
-175.85571854891217 -660.4124885406463 -272.54460198935413 -97.8588058585743 0.0 0.0
63.01870816305912 -53.978808882423415 5.335940373589592 -193.71832628237746 0.0 0.0
-6.306024538246467 -3.2777431160871378 -2.8757827551110005 -178.55454131304128 0.0 0.0
17.186841656545663 20.608857216594163 11.337748723401145 -172.11619120305542 0.0 0.0
47.04727132761607 14.402664926504464 18.41484508470949 -176.32530852074999 0.0 0.0
82.16624983535822 3.96568165567077 25.717891190832535 -192.83430465985055 0.0 0.0
129.62401408033423 -1.6537305316760893 38.34950211888074 -209.2195025598053 0.0 0.0
204.07999017410864 -5.256392389656685 60.466862358476114 -213.39186938349542 0.0 0.0
301.74455582554174 -11.687769954859998 92.76056740292259 -201.37904320318495 0.0 0.0
391.7996110523113 -17.116667010371636 130.18222596670194 -181.61351097726222 0.0 0.0
453.8503161472159 -11.524593941603516 168.1240180811708 -167.86606833098017 0.0 0.0
499.156362179844 0.06041065734201112 201.6712028475954 -161.21513322364086 0.0 0.0
538.5770175815721 10.160909582170014 231.50582699356477 -159.30484972744392 0.0 0.0
572.8124370463831 18.522956781224018 257.23385994650744 -158.21569077576743 0.0 0.0
604.4425282552819 26.495998356892585 280.9858071831172 -157.43594567644246 0.0 0.0
636.5863408304275 34.11144420432223 304.6224496062905 -156.23889318629804 0.0 0.0
671.6174641740877 40.81221333226096 329.4249004310386 -151.97188065806046 0.0 0.0
710.0851859458536 46.30864886341342 355.0918745681016 -143.66477507763227 0.0 0.0
765.4927398910639 66.08412250803286 393.0878603070755 -134.8972062876397 0.0 0.0
848.8845749948814 110.74982255687343 459.4775132090179 -131.2119162470497 0.0 0.0
90.73786409370452 -599.6203581980162 -240.92355305911636 1.1001333177773631e-10 0.0 0.0
848.8845749950328 110.749822557322 459.47751320929734 131.2119162474442 0.0 0.0
765.4927398904972 66.08412250750638 393.08786030671865 134.8972062879852 0.0 0.0
710.0851859463761 46.30864886422411 355.0918745684797 143.66477507792183 0.0 0.0
671.6174641730717 40.81221333113278 329.42490043029693 151.9718806580672 0.0 0.0
636.5863408315938 34.11144420610526 304.6224496071678 156.23889318647858 0.0 0.0
604.4425282548096 26.49599835650151 280.9858071829178 157.43594567649683 0.0 0.0
572.8124370473955 18.522956782591585 257.23385994709616 158.21569077594233 0.0 0.0
538.5770175820148 10.1609095827535 231.5058269937779 159.30484972740243 0.0 0.0
499.15636218003186 0.06041065777194632 201.6712028476725 161.21513322354258 0.0 0.0
453.85031614648926 -11.524593942428737 168.12401808061847 167.8660683309016 0.0 0.0
391.7996110520621 -17.116667010635137 130.1822259665126 181.6135109771231 0.0 0.0
301.7445558253847 -11.687769954405475 92.76056740297213 201.37904320322215 0.0 0.0
204.0799901739247 -5.256392389313745 60.466862358513936 213.39186938347888 0.0 0.0
129.62401408006914 -1.6537305320563669 38.34950211868767 209.21950255962193 0.0 0.0
82.16624983561161 3.9656816562772588 25.71789119109435 192.83430465966674 0.0 0.0
47.04727132772366 14.402664926705576 18.41484508480344 176.32530852057465 0.0 0.0
17.18684165650751 20.608857216622805 11.337748723398441 172.11619120278291 0.0 0.0
-6.306024538251959 -3.2777431159729544 -2.875782755081591 178.55454131281388 0.0 0.0
63.01870816271393 -53.97880888262449 5.335940373403401 193.71832628215134 0.0 0.0
-175.8557185484816 -660.4124885398168 -272.54460198880895 97.85880585861426 0.0 0.0
-126.51507888133753 -535.1754155915299 -202.79290839374514 -109.47734805966242 0.0 0.0
18.179726271445645 -69.48496140066877 -14.79351961714015 -178.20439471237657 0.0 0.0
-31.462483182266745 -4.158912842601074 -10.68090639355651 -182.2959918109215 0.0 0.0
-25.16741465618695 19.03893742227943 -1.8400418522261444 -178.3989117853845 0.0 0.0
-14.404216198403313 16.73849113650017 0.7008729748241422 -181.90866384168604 0.0 0.0
-6.58209106450807 7.687416010336477 0.33719751238476814 -197.13171630736844 0.0 0.0
-2.72945221513179 1.3890116675319018 -0.4073697677343677 -214.5737390744855 0.0 0.0
-0.8104027016415039 0.1076837230618537 -0.2181887275416834 -218.6701517188991 0.0 0.0
-0.17015161302023785 -0.03743268053732862 -0.06482492575738519 -210.54849841906918 0.0 0.0
0.07502043368012323 -0.00016332852065659154 0.029620743199814115 -202.96725342498624 0.0 0.0
-0.2151163412750634 -0.058830520929969765 -0.1349740049749073 -201.84859614260955 0.0 0.0
-0.7607035188812432 0.18841132535931848 0.1615391262025554 -195.32075039013029 0.0 0.0
-1.987287552834772 0.6720496420215625 0.26378077428127256 -185.52095517084274 0.0 0.0
-1.3723541387754494 1.724041098939857 0.7155265696079738 -177.8674405855362 0.0 0.0
4.848689460894946 4.8084532410848055 1.773696583123126 -172.47089501495387 0.0 0.0
24.259473211774605 10.960696983627201 4.865583114780421 -167.8400291717135 0.0 0.0
67.52538860009231 22.253244475217464 12.364445989204754 -162.65082123315068 0.0 0.0
151.73878387229024 30.20046797434047 16.745527766198975 -153.80987965008737 0.0 0.0
363.5002791008101 -18.638396677769535 30.175589388210383 -147.35324405453804 0.0 0.0
567.2665583531876 13.793527874557938 217.494456221301 -188.64272126320336 0.0 0.0
-541.2671618442005 -824.3674265987406 -605.4718005036028 -5.165645688975928e-12 0.0 0.0
567.2665583523476 13.793527873459908 217.49445622085432 188.6427212633191 0.0 0.0
363.50027910013443 -18.638396678641953 30.175589387684525 147.3532440551599 0.0 0.0
151.738783872385 30.200467974351128 16.745527766183187 153.80987965065958 0.0 0.0
67.52538859975552 22.253244474820107 12.364445988885336 162.65082123327812 0.0 0.0
24.25947321204042 10.960696983891033 4.8655831149335 167.8400291718335 0.0 0.0
4.848689460685861 4.808453240509856 1.773696582906851 172.47089501495088 0.0 0.0
-1.3723541386104898 1.724041098870515 0.7155265696290698 177.86744058564256 0.0 0.0
-1.9872875526002503 0.672049641952313 0.26378077430327806 185.520955171144 0.0 0.0
-0.760703518179561 0.18841132569963648 0.1615391265281474 195.3207503901379 0.0 0.0
-0.21511634020173886 -0.05883051947980178 -0.13497400420736838 201.8485961424839 0.0 0.0
0.07502043409577652 -0.00016332860837486862 0.029620743289129337 202.967253424758 0.0 0.0
-0.1701516125855207 -0.03743267983949128 -0.06482492541590368 210.5484984191043 0.0 0.0
-0.8104027015362085 0.10768372342486421 -0.21818872739159012 218.6701517189274 0.0 0.0
-2.729452215386516 1.3890116668541093 -0.4073697680144064 214.5737390742596 0.0 0.0
-6.582091064478162 7.687416010170984 0.3371975123435331 197.13171630710374 0.0 0.0
-14.404216198283715 16.73849113660742 0.7008729748914999 181.90866384139122 0.0 0.0
-25.167414656177023 19.038937422266102 -1.8400418522286761 178.39891178506005 0.0 0.0
-31.462483182125936 -4.158912842407543 -10.680906393455011 182.29599181084416 0.0 0.0
18.17972627135921 -69.48496140069612 -14.793519617178719 178.2043947121229 0.0 0.0
-126.51507888124408 -535.175415590813 -202.79290839348423 109.47734805972844 0.0 0.0
-102.38559943901923 -421.6320952092552 -157.07826900782146 -110.33339867008895 0.0 0.0
-13.267045383764104 -78.71677267733465 -27.610755780999348 -164.7861908594134 0.0 0.0
-54.98404221580311 -4.567771354049896 -17.869913454262257 -181.9115552906452 0.0 0.0
-66.11373745227716 17.633867951965318 -14.544973312614443 -180.08717963924258 0.0 0.0
-74.72192677201275 18.320713649769413 -16.922384499296953 -182.19104928463807 0.0 0.0
-94.15403035730778 11.185895158377289 -24.841558266427707 -194.67981596760683 0.0 0.0
-134.9231217381701 4.653429970025856 -39.005771574080704 -210.6722105411612 0.0 0.0
-205.37391876853212 5.371620693911702 -60.88653054590944 -213.63477969769383 0.0 0.0
-301.8568705519445 11.48503358308521 -92.89774558039417 -201.38982096209205 0.0 0.0
-391.707301742843 17.123804293031597 -130.13237686625178 -181.584838974222 0.0 0.0
-454.3238272255848 11.566419988698357 -168.18111966888836 -167.91554726391269 0.0 0.0
-499.64629337100666 -0.08726621670648882 -202.35327876029572 -161.11762814791498 0.0 0.0
-539.7654339547274 -9.472438260663708 -232.57244584505952 -158.76088114355423 0.0 0.0
-572.8830058418082 -15.140474873147937 -256.44963115904693 -157.40175127814976 0.0 0.0
-597.2015104796844 -17.183375599003853 -272.1799878929313 -157.3587959921663 0.0 0.0
-610.5631763512043 -14.240007337378572 -276.9569278919527 -159.54089220862215 0.0 0.0
-611.0103694392255 -6.3280609945101105 -268.59537956599456 -164.2408202376547 0.0 0.0
-604.9146890171194 0.6327090310795285 -247.62580920181998 -174.10737794455102 0.0 0.0
-586.8622350124482 46.338919598432106 -191.18700827451468 -187.78020049285948 0.0 0.0
-323.70113881203423 136.2424420875742 -0.625013976348967 -142.57836376997537 0.0 0.0
-1090.9467054100005 -1069.9257530031716 -1095.8374262432603 -1.638724711483519e-10 0.0 0.0
-323.7011388126145 136.24244208614363 -0.6250139770998544 142.57836377069128 0.0 0.0
-586.8622350132739 46.3389195970651 -191.18700827523762 187.780200493211 0.0 0.0
-604.9146890168848 0.6327090307878933 -247.62580920161741 174.10737794479635 0.0 0.0
-611.0103694398474 -6.328060995335633 -268.5953795664707 164.24082023793235 0.0 0.0
-610.5631763513009 -14.240007337898227 -276.95692789210216 159.54089220860297 0.0 0.0
-597.2015104802623 -17.183375600115056 -272.1799878933157 157.35879599246823 0.0 0.0
-572.8830058416997 -15.140474873277213 -256.4496311588894 157.40175127809607 0.0 0.0
-539.7654339548666 -9.472438261292556 -232.57244584513097 158.76088114360198 0.0 0.0
-499.64629337062615 -0.08726621659776512 -202.35327875994818 161.11762814804044 0.0 0.0
-454.3238272249696 11.566419989289763 -168.18111966846254 167.91554726391152 0.0 0.0
-391.7073017416524 17.123804294118663 -130.13237686545463 181.58483897407427 0.0 0.0
-301.8568705513436 11.485033583081627 -92.8977455801594 201.38982096215298 0.0 0.0
-205.37391876796363 5.371620693949997 -60.88653054571678 213.63477969763596 0.0 0.0
-134.92312173796927 4.653429969726843 -39.005771574112984 210.6722105410103 0.0 0.0
-94.15403035686066 11.185895158871382 -24.84155826615067 194.6798159673889 0.0 0.0
-74.72192677203519 18.32071364936931 -16.922384499425778 182.19104928433737 0.0 0.0
-66.11373745208437 17.63386795225708 -14.544973312472917 180.0871796389462 0.0 0.0
-54.98404221584314 -4.567771354199857 -17.86991345432179 181.91155529050454 0.0 0.0
-13.26704538382924 -78.71677267740644 -27.610755781037646 164.78619085929037 0.0 0.0
-102.38559943901602 -421.6320952086535 -157.07826900769084 110.33339867003443 0.0 0.0
-84.89771939686904 -322.4975492642639 -122.22173821630818 -102.17632983247569 0.0 0.0
-33.67868892538748 -81.49935614865724 -34.54947787030991 -152.8814547971868 0.0 0.0
-76.92103203272752 -5.104801107060793 -24.600114788205495 -177.98175241223515 0.0 0.0
-105.1331163947858 16.26074906357726 -26.677612135046637 -176.94626722667513 0.0 0.0
-133.95173795452365 19.4040910583466 -34.281580796607145 -178.38667516719784 0.0 0.0
-180.6159350049764 14.49123295073191 -49.56328021453585 -187.35097087937737 0.0 0.0
-261.3469394125432 5.092247712890518 -78.42479850020791 -192.09512294167519 0.0 0.0
-371.21982873259645 -5.3523617992434005 -128.39406091932656 -184.12557257434844 0.0 0.0
-473.55274771182735 -17.114397543437956 -194.70702535951898 -169.09789655137945 0.0 0.0
-549.5933040674965 -19.26565913132255 -251.01852856356209 -160.5468661287099 0.0 0.0
-605.305201255653 -21.817613599118516 -292.3578033266638 -154.1590154810333 0.0 0.0
-652.5408114509967 -27.696481356182296 -324.62165195229466 -150.08509384596604 0.0 0.0
-696.7900670105892 -38.01146248154372 -354.5972634099876 -146.3713488247623 0.0 0.0
-734.6039044128382 -46.03115520918814 -378.95226530992875 -143.1852217295736 0.0 0.0
-764.4514814226382 -49.69967012116665 -396.4617191125425 -141.77282848366193 0.0 0.0
-782.530458041995 -46.22894150683726 -404.08200601668955 -142.869050336656 0.0 0.0
-788.2237225079873 -36.63809583738208 -401.9122988202439 -146.82907949290018 0.0 0.0
-781.3923916454427 -23.391249238748856 -391.31610899368 -153.67837669963484 0.0 0.0
-736.2941215394649 19.435271411083733 -348.04951731454406 -161.79266564382152 0.0 0.0
-640.5357783833725 99.94583216003329 -263.25953145689806 -168.99665641634198 0.0 0.0
-1858.9320523544943 -1362.67501964176 -1573.1506265954677 2.114575181622058e-11 0.0 0.0
-640.5357783828366 99.94583216035133 -263.2595314565664 168.99665641655938 0.0 0.0
-736.2941215388522 19.435271411313963 -348.0495173141504 161.79266564425922 0.0 0.0
-781.3923916450187 -23.39124923850636 -391.3161089933551 153.67837670000534 0.0 0.0
-788.2237225080796 -36.638095837652784 -401.91229882034423 146.82907949292877 0.0 0.0
-782.5304580416491 -46.22894150655947 -404.0820060165014 142.86905033666972 0.0 0.0
-764.4514814221232 -49.699670120994746 -396.4617191121099 141.77282848368296 0.0 0.0
-734.6039044129775 -46.031155209460906 -378.9522653100682 143.1852217296776 0.0 0.0
-696.7900670093921 -38.01146248032438 -354.59726340919684 146.37134882457437 0.0 0.0
-652.5408114510203 -27.69648135661817 -324.6216519523301 150.0850938460882 0.0 0.0
-605.3052012550171 -21.817613598721145 -292.3578033262188 154.15901548090196 0.0 0.0
-549.5933040665267 -19.265659130585526 -251.0185285628981 160.5468661286678 0.0 0.0
-473.552747711514 -17.11439754355476 -194.70702535922712 169.09789655141304 0.0 0.0
-371.2198287315706 -5.352361798381183 -128.39406091863253 184.12557257430225 0.0 0.0
-261.3469394119259 5.092247713133527 -78.42479849993683 192.09512294155098 0.0 0.0
-180.61593500461635 14.491232950838775 -49.56328021440705 187.35097087918598 0.0 0.0
-133.95173795458354 19.404091057738835 -34.28158079681354 178.38667516691336 0.0 0.0
-105.13311639431895 16.260749064261965 -26.67761213470634 176.94626722648619 0.0 0.0
-76.9210320326933 -5.104801107164205 -24.600114788228524 177.98175241214278 0.0 0.0
-33.67868892548717 -81.49935614881664 -34.54947787038712 152.88145479711608 0.0 0.0
-84.8977193967266 -322.4975492638199 -122.2217382161303 102.17632983233635 0.0 0.0
-68.82784603040196 -238.9585789395873 -92.33592749099675 -90.58436370190203 0.0 0.0
-48.55642004716388 -78.50672968718565 -38.119738193796614 -139.760142998307 0.0 0.0
-97.10418750396846 -5.498952167163795 -30.77392390423756 -169.79269892157737 0.0 0.0
-142.55200923632603 14.922706374424232 -38.25398520039595 -170.0292752754983 0.0 0.0
-190.68052341313228 19.149556259190007 -51.37008591691081 -168.1849482590626 0.0 0.0
-263.3121662506501 13.5683054557182 -75.32632537248415 -168.94997183168192 0.0 0.0
-374.8789126506529 -3.308513126350917 -123.44980087476131 -166.26373638885917 0.0 0.0
-487.8608844514363 -24.95602131436577 -199.06107145406784 -154.21316414063037 0.0 0.0
-580.0957471338075 -34.875611392135205 -273.31220983306196 -148.05656512127925 0.0 0.0
-645.901080501463 -35.29423679863425 -323.52407781842936 -143.74564318521436 0.0 0.0
-697.1531401543866 -40.199055566679235 -358.9552598002964 -139.14895970025748 0.0 0.0
-745.5210984317882 -49.666165019132094 -390.31219652842765 -135.63081603188823 0.0 0.0
-793.3982303044145 -63.03462091946122 -421.7632632031424 -132.0074989748783 0.0 0.0
-836.8941521563634 -75.70106528229117 -450.36784305661877 -128.69281409703575 0.0 0.0
-872.9979066155836 -83.62120722134647 -472.7347429243588 -126.93651018252544 0.0 0.0
-896.163134221056 -83.00406171575654 -484.2138872882001 -128.16944841864068 0.0 0.0
-903.8405348110439 -71.72883194586183 -482.5036694754412 -132.85168798333498 0.0 0.0
-885.852769423038 -41.90642062767637 -458.72508961410153 -139.2393804745665 0.0 0.0
-833.9706633477905 13.088729413839133 -406.11180434310813 -144.57938753085278 0.0 0.0
-693.7437650625045 141.6495524522455 -276.0114170569084 -147.96405025089703 0.0 0.0
-2304.3023579439973 -1600.976590264569 -1924.429385305068 6.979661293371464e-11 0.0 0.0
-693.7437650625589 141.64955245209947 -276.0114170569025 147.9640502510744 0.0 0.0
-833.9706633465114 13.088729415107338 -406.1118043422631 144.57938753094024 0.0 0.0
-885.8527694226683 -41.90642062757222 -458.7250896137856 139.2393804747935 0.0 0.0
-903.8405348104393 -71.72883194530493 -482.5036694750794 132.8516879834244 0.0 0.0
-896.1631342216547 -83.00406171655558 -484.21388728860404 128.16944841878785 0.0 0.0
-872.9979066145418 -83.62120722037572 -472.73474292363943 126.9365101824584 0.0 0.0
-836.8941521568162 -75.70106528308858 -450.36784305690253 128.69281409716905 0.0 0.0
-793.3982303030756 -63.03462091812678 -421.7632632022628 132.0074989747945 0.0 0.0
-745.5210984323651 -49.66616502007514 -390.31219652877786 135.6308160319426 0.0 0.0
-697.1531401530889 -40.19905556541305 -358.95525979951003 139.14895970002857 0.0 0.0
-645.9010805012483 -35.294236798809074 -323.524077818267 143.74564318524185 0.0 0.0
-580.0957471332179 -34.87561139188206 -273.31220983254383 148.05656512126504 0.0 0.0
-487.8608844505491 -24.956021313725955 -199.06107145339206 154.213164140598 0.0 0.0
-374.8789126503107 -3.3085131264603875 -123.44980087456743 166.26373638881824 0.0 0.0
-263.3121662506514 13.568305454774714 -75.32632537277148 168.94997183155232 0.0 0.0
-190.68052341297897 19.149556258886037 -51.370085916961784 168.18494825885307 0.0 0.0
-142.55200923607805 14.922706374669987 -38.2539852002516 170.02927527537494 0.0 0.0
-97.10418750394285 -5.498952167135624 -30.77392390422161 169.7926989215258 0.0 0.0
-48.55642004715838 -78.50672968728131 -38.11973819382348 139.76014299819673 0.0 0.0
-68.82784603022006 -238.95857893921544 -92.33592749083066 90.58436370175514 0.0 0.0
-55.98545915218449 -169.14469877799993 -67.53904737905532 -77.55429462915536 0.0 0.0
-59.99476334580868 -71.28293723871083 -39.38329171437856 -124.67261101196533 0.0 0.0
-115.99923352662208 -5.583307278474164 -36.4736715350925 -157.56155648955684 0.0 0.0
-177.8134914976887 12.976743766071632 -49.44164029238636 -158.12019377660536 0.0 0.0
-246.2571012508825 18.048155270678745 -68.15726451917202 -154.31570736037577 0.0 0.0
-346.0841005684607 9.607327318334825 -103.35677825137407 -147.91849139409118 0.0 0.0
-466.10971536414115 -18.028123524370955 -172.72804746912016 -135.84104971463404 0.0 0.0
-574.9836714467805 -39.206436097643234 -260.8946172667612 -130.07565614156792 0.0 0.0
-656.4258294392386 -45.3924786898014 -329.6443074076629 -127.86349253666378 0.0 0.0
-713.565989920651 -51.214738412057976 -373.48607540027325 -124.38684349273315 0.0 0.0
-766.7517240329446 -57.933684811944275 -407.05960431538665 -122.4148741831049 0.0 0.0
-817.7962387365326 -70.19533503980769 -439.67358193167456 -119.54148142919598 0.0 0.0
-869.505507380112 -87.36944679397037 -474.40569626202637 -116.24339345262914 0.0 0.0
-918.9537775075744 -105.12382770452427 -508.2469686866703 -112.97718046666536 0.0 0.0
-961.546859266 -118.65127480631094 -536.5318508299754 -110.92032366734419 0.0 0.0
-990.1061573102912 -120.77045833773246 -552.0756183568152 -111.97021539875658 0.0 0.0
-994.4250888615702 -104.8387273445023 -546.4943990051863 -116.16082630008427 0.0 0.0
-965.0496622257643 -60.32499254226789 -509.84339838080007 -121.84961187672394 0.0 0.0
-886.8626520237735 23.999318305231128 -429.61988927568035 -125.61678457605385 0.0 0.0
-724.1746937469486 177.29228282570062 -274.32027457376716 -126.6775034527682 0.0 0.0
-2654.400500736522 -1843.526858638277 -2227.071723849543 3.197442310920451e-12 0.0 0.0
-724.1746937466576 177.2922828259229 -274.3202745735542 126.67750345280973 0.0 0.0
-886.8626520231171 23.999318305768725 -429.61988927523475 125.61678457620576 0.0 0.0
-965.0496622259318 -60.32499254265599 -509.84339838098515 121.84961187698823 0.0 0.0
-994.4250888613379 -104.83872734436278 -546.4943990050594 116.16082630018394 0.0 0.0
-990.1061573103557 -120.77045833796365 -552.075618356798 111.97021539875807 0.0 0.0
-961.5468592653784 -118.65127480586995 -536.5318508295846 110.92032366738266 0.0 0.0
-918.9537775074883 -105.12382770463813 -508.246968686502 112.97718046674912 0.0 0.0
-869.5055073795486 -87.36944679359561 -474.4056962617156 116.24339345261119 0.0 0.0
-817.796238736647 -70.1953350402305 -439.6735819317537 119.54148142925234 0.0 0.0
-766.7517240327248 -57.933684812008124 -407.0596043153294 122.41487418315958 0.0 0.0
-713.5659899202262 -51.214738411879914 -373.4860753999424 124.38684349262684 0.0 0.0
-656.4258294388818 -45.39247868971564 -329.64430740733803 127.86349253662328 0.0 0.0
-574.9836714461954 -39.20643609745487 -260.8946172662568 130.07565614156468 0.0 0.0
-466.1097153635406 -18.02812352414484 -172.72804746865913 135.8410497145523 0.0 0.0
-346.08410056807844 9.607327318162396 -103.35677825126754 147.91849139405429 0.0 0.0
-246.2571012505397 18.048155270474716 -68.15726451916268 154.31570736016855 0.0 0.0
-177.8134914974766 12.97674376608735 -49.44164029232263 158.12019377650182 0.0 0.0
-115.99923352650687 -5.583307278427381 -36.473671535042676 157.5615564895066 0.0 0.0
-59.99476334581852 -71.28293723873352 -39.383291714388335 124.67261101181829 0.0 0.0
-55.98545915211959 -169.1446987778004 -67.539047378976 77.55429462905914 0.0 0.0
-46.62650150396492 -112.47159167675528 -47.729427954216064 -63.968307541804435 0.0 0.0
-69.04329436791387 -61.228252370897366 -39.08146402164337 -107.54517528699645 0.0 0.0
-133.79650397574824 -5.124780254290981 -41.67703055529899 -141.3240263469523 0.0 0.0
-211.25541211468328 10.892750370421526 -60.0671501106586 -142.24216084805616 0.0 0.0
-299.3528634543627 13.44244266144903 -85.8439800661051 -133.67905206259547 0.0 0.0
-420.68788427193977 -0.11754250232234575 -135.1395795426964 -121.43630944373885 0.0 0.0
-541.5177449468987 -31.274367108058257 -221.51310443682044 -109.73952067181679 0.0 0.0
-642.029296954431 -47.74455421525784 -310.78997841047976 -107.94703096719547 0.0 0.0
-710.5385804266936 -57.70836903374387 -371.71356603578596 -106.11162258760709 0.0 0.0
-770.418893151268 -64.32719198627055 -412.16748061358714 -105.9072735636443 0.0 0.0
-824.8552667527965 -74.93693342537895 -446.6118207699866 -104.63606428847788 0.0 0.0
-879.4307320103469 -90.83199925816518 -482.26011884278796 -102.28949914810443 0.0 0.0
-935.1123279331844 -111.57776875790147 -520.5775246754829 -99.46323117360018 0.0 0.0
-989.4795372159593 -133.53002903783536 -558.8384008480817 -96.53301499395482 0.0 0.0
-1038.9134900426798 -153.0128584123536 -593.4217216262053 -94.28589444622251 0.0 0.0
-1072.1537637634467 -159.17949084406808 -613.3735729431461 -94.36811921669764 0.0 0.0
-1073.2253661227196 -136.60668809205768 -602.9299904420834 -97.84073642164853 0.0 0.0
-1026.8981674480958 -73.83761222792305 -548.8185637744662 -102.75474697329892 0.0 0.0
-922.8723561058055 36.99292257514145 -442.2594444356322 -105.96147992045272 0.0 0.0
-747.1075955443073 203.68563330229645 -272.5254977249294 -108.93531557172506 0.0 0.0
-2955.2647844677867 -2074.036717182456 -2497.121374875713 1.6838797023410734e-10 0.0 0.0
-747.1075955442725 203.6856333024127 -272.52549772495564 108.93531557170814 0.0 0.0
-922.8723561052282 36.992922575678875 -442.2594444352744 105.96147992047993 0.0 0.0
-1026.898167448291 -73.83761222829388 -548.8185637746617 102.75474697342206 0.0 0.0
-1073.2253661229668 -136.6066880924296 -602.9299904424042 97.84073642179428 0.0 0.0
-1072.1537637625108 -159.1794908432403 -613.3735729425115 94.36811921667278 0.0 0.0
-1038.9134900426343 -153.01285841236995 -593.4217216261534 94.28589444619715 0.0 0.0
-989.4795372151457 -133.53002903720005 -558.8384008474529 96.53301499386924 0.0 0.0
-935.1123279332298 -111.57776875814983 -520.5775246756641 99.46323117358334 0.0 0.0
-879.4307320090546 -90.83199925703252 -482.2601188419327 102.28949914799028 0.0 0.0
-824.8552667533299 -74.936933426287 -446.611820770417 104.63606428861924 0.0 0.0
-770.4188931508842 -64.32719198610371 -412.16748061334215 105.90727356354702 0.0 0.0
-710.5385804266728 -57.70836903406537 -371.7135660356863 106.11162258762506 0.0 0.0
-642.0292969539303 -47.74455421509866 -310.7899784100091 107.94703096714227 0.0 0.0
-541.5177449461992 -31.274367107715754 -221.5131044362425 109.73952067184567 0.0 0.0
-420.6878842717588 -0.11754250261648069 -135.13957954260962 121.43630944364808 0.0 0.0
-299.3528634540518 13.442442661238587 -85.84398006609632 133.67905206244183 0.0 0.0
-211.25541211437803 10.892750370701233 -60.06715011048145 142.2421608479565 0.0 0.0
-133.79650397575108 -5.124780254402101 -41.677030555332784 141.3240263468383 0.0 0.0
-69.04329436789274 -61.228252370883844 -39.08146402163297 107.54517528686682 0.0 0.0
-46.62650150385591 -112.4715916766117 -47.72942795414028 63.968307541754854 0.0 0.0
-40.4676451576751 -68.59602626964941 -32.71910142819735 -50.15439091995703 0.0 0.0
-76.08935139044706 -49.58720550696811 -37.70296706922455 -88.55409990092127 0.0 0.0
-150.52128811891626 -4.100416899828903 -46.38696112530556 -121.09836140957276 0.0 0.0
-243.2351055080604 7.908809402106056 -70.56732540647933 -121.77231285554947 0.0 0.0
-355.2292046663926 8.091701712772569 -104.56206500400236 -110.53506614873204 0.0 0.0
-481.9345452392922 -15.567642877663186 -170.50900138089065 -91.43296196545245 0.0 0.0
-603.1810890838054 -40.07734183146842 -265.7285812616019 -86.25103081634715 0.0 0.0
-688.4582090400935 -56.791246709843215 -349.69830082407066 -85.55552337811035 0.0 0.0
-757.9658659737973 -66.97804706358198 -404.73380643328494 -86.072980675095 0.0 0.0
-818.3109836119315 -77.72866913094664 -444.7743607968322 -86.5926640868533 0.0 0.0
-876.1569749694402 -92.13491863751773 -481.9170366812948 -85.91674495844023 0.0 0.0
-934.4149793001927 -111.51980227771648 -520.9498712652826 -84.12538052335168 0.0 0.0
-993.7035818342798 -135.31780763463053 -562.5367394063842 -81.87373569511325 0.0 0.0
-1051.8418295317583 -161.43196848569139 -604.6950422723913 -79.44910560668492 0.0 0.0
-1106.1956749428587 -184.89497149993718 -643.6535453191482 -77.16124059734808 0.0 0.0
-1145.4166363580346 -195.46663458589083 -668.7574502089225 -76.13775052951763 0.0 0.0
-1145.6211441282587 -171.21859249461102 -657.1517555457505 -78.01052943493528 0.0 0.0
-1083.1642530116533 -90.63422992666136 -586.1440293397492 -82.37606562765713 0.0 0.0
-953.9249520423523 46.362654396980645 -453.6512385062939 -87.06071440173407 0.0 0.0
-760.7914220119035 229.73106233811546 -266.1148685434434 -93.96897372461015 0.0 0.0
-3217.701175095408 -2284.7486426917267 -2736.9799580008685 9.763212460711657e-11 0.0 0.0
-760.7914220128871 229.73106233701984 -266.11486854411396 93.96897372484015 0.0 0.0
-953.9249520422798 46.36265439698414 -453.6512385062613 87.06071440187412 0.0 0.0
-1083.1642530108084 -90.6342299259311 -586.1440293391839 82.3760656277472 0.0 0.0
-1145.6211441290397 -171.21859249547737 -657.1517555463349 78.01052943497196 0.0 0.0
-1145.416636358562 -195.46663458653447 -668.7574502093216 76.13775052947346 0.0 0.0
-1106.195674943101 -184.89497150035683 -643.6535453192662 77.1612405973061 0.0 0.0
-1051.8418295311074 -161.43196848519986 -604.6950422719387 79.44910560673812 0.0 0.0
-993.7035818342234 -135.31780763484983 -562.5367394064043 81.87373569519903 0.0 0.0
-934.4149792991739 -111.519802276845 -520.9498712645877 84.1253805233308 0.0 0.0
-876.1569749701271 -92.13491863853704 -481.917036681764 85.9167449585291 0.0 0.0
-818.3109836115285 -77.72866913077252 -444.77436079655115 86.59266408673712 0.0 0.0
-757.9658659730957 -66.97804706315588 -404.7338064327736 86.0729806750572 0.0 0.0
-688.45820903967 -56.79124670975425 -349.69830082367173 85.55552337802052 0.0 0.0
-603.1810890836989 -40.07734183180542 -265.72858126133303 86.25103081634701 0.0 0.0
-481.9345452390568 -15.56764287799933 -170.509001380731 91.43296196541893 0.0 0.0
-355.22920466588033 8.09170171273393 -104.56206500386891 110.53506614869718 0.0 0.0
-243.235105507723 7.908809402459661 -70.56732540627337 121.77231285538733 0.0 0.0
-150.52128811879822 -4.100416899803829 -46.3869611252626 121.09836140947718 0.0 0.0
-76.08935139039178 -49.58720550702966 -37.702967069226425 88.55409990088013 0.0 0.0
-40.467645157597254 -68.59602626954154 -32.71910142814162 50.15439091999516 0.0 0.0
-36.83621696587991 -37.29446786777182 -22.239205450095522 -36.465912223488985 0.0 0.0
-80.98209832153915 -37.46610947984746 -35.534462340415985 -67.92215883789584 0.0 0.0
-165.95609726680547 -2.6899534638300495 -50.593815219190645 -96.77425028401032 0.0 0.0
-274.9513145564299 4.017945157855401 -81.21468711895642 -96.91306185868798 0.0 0.0
-408.3529317009411 -1.110924058130622 -125.71316245795178 -82.09744745072643 0.0 0.0
-540.9417742000634 -26.790234758539818 -206.2620557009263 -66.22092418001307 0.0 0.0
-647.1606476616515 -48.16253345479008 -303.9776073823801 -64.22327632648519 0.0 0.0
-727.3644896909904 -62.93516482745126 -379.59597272427476 -64.40572828755212 0.0 0.0
-797.4772877326375 -76.86907869365656 -432.2913402163039 -65.63669627116043 0.0 0.0
-860.7978888198288 -91.31101587561096 -473.877466829195 -66.59127203386093 0.0 0.0
-922.0671786874092 -109.46877585578244 -514.1952828482995 -66.34515494783194 0.0 0.0
-984.2453002846443 -132.43208786574354 -556.8864264185097 -65.08290574485943 0.0 0.0
-1046.9182503382876 -159.86148399813044 -601.9633383769902 -63.38682320011925 0.0 0.0
-1107.7811923743147 -187.17283393345735 -646.0527974197998 -61.67748086335466 0.0 0.0
-1163.9345533908186 -212.58374756007865 -686.833286068872 -59.679544274383446 0.0 0.0
-1208.388284423772 -228.317577102914 -717.0566618328817 -57.61543967217047 0.0 0.0
-1216.18700146812 -210.09161705734846 -712.2598395218724 -57.337469105392046 0.0 0.0
-1145.4419078558858 -119.76712126366277 -632.3162412867782 -61.03728277986887 0.0 0.0
-987.2535993995915 47.03720575531064 -470.3055629226226 -68.4236926629405 0.0 0.0
-761.9418481304472 262.9477804990632 -249.89387677318288 -80.36082729192489 0.0 0.0
-3441.989991869149 -2466.268570560579 -2942.4963081305536 5.0590642786119133e-11 0.0 0.0
-761.9418481303651 262.9477804990439 -249.89387677308514 80.36082729213838 0.0 0.0
-987.2535993990022 47.03720575583337 -470.30556292218284 68.4236926630322 0.0 0.0
-1145.4419078556966 -119.76712126356949 -632.3162412866615 61.037282779969416 0.0 0.0
-1216.1870014679685 -210.09161705731282 -712.2598395217123 57.337469105418755 0.0 0.0
-1208.3882844244222 -228.31757710374433 -717.0566618332361 57.61543967232771 0.0 0.0
-1163.9345533898659 -212.5837475592208 -686.8332860681645 59.679544274262824 0.0 0.0
-1107.7811923752597 -187.1728339345837 -646.0527974204359 61.67748086331191 0.0 0.0
-1046.9182503376412 -159.86148399769183 -601.9633383766361 63.38682320006 0.0 0.0
-984.2453002841107 -132.4320878654633 -556.8864264181188 65.082905744916 0.0 0.0
-922.0671786872354 -109.46877585588815 -514.1952828481903 66.34515494785384 0.0 0.0
-860.7978888192462 -91.31101587530121 -473.87746682880567 66.5912720338558 0.0 0.0
-797.4772877320393 -76.86907869334732 -432.2913402159288 65.63669627117827 0.0 0.0
-727.3644896909595 -62.93516482773869 -379.5959727241585 64.40572828755893 0.0 0.0
-647.160647661222 -48.16253345470584 -303.97760738190226 64.22327632634392 0.0 0.0
-540.9417741998727 -26.790234758854723 -206.26205570071858 66.22092418003582 0.0 0.0
-408.35293170040563 -1.1109240579703337 -125.71316245771445 82.09744745075892 0.0 0.0
-274.9513145558625 4.017945158477203 -81.21468711862865 96.91306185858907 0.0 0.0
-165.9560972666084 -2.689953463680304 -50.59381521908661 96.77425028394364 0.0 0.0
-80.98209832151653 -37.46610947994585 -35.53446234043872 67.92215883780416 0.0 0.0
-36.83621696584022 -37.29446786772433 -22.239205450069363 36.46591222346535 0.0 0.0
-34.52322352840459 -18.2127292882456 -15.820785844995058 -23.65799510983097 0.0 0.0
-82.97455055381208 -26.008690702200855 -32.694972376803875 -45.9441045540177 0.0 0.0
-179.72692072482525 -1.4022282892800746 -54.3387447042316 -67.8655409133496 0.0 0.0
-307.74300159699305 -0.6312783169528537 -92.3496824221472 -67.15403968032312 0.0 0.0
-457.3940270811381 -13.692654557941296 -150.0351311116337 -51.75533351913449 0.0 0.0
-588.3640350693024 -35.87342279581561 -241.06478271643894 -43.10795234696735 0.0 0.0
-679.0514269443154 -53.9240985989668 -334.194354764059 -42.72800317766947 0.0 0.0
-760.4417410925562 -69.99706338260523 -404.74394016375334 -43.71488001295712 0.0 0.0
-832.1624561470663 -87.34163738234292 -456.507526464594 -44.90550929883888 0.0 0.0
-898.6493927668721 -105.23627202470979 -500.39812523563035 -45.87162449724286 0.0 0.0
-963.8830102503136 -126.96525913308228 -544.2875889167608 -45.950170410808646 0.0 0.0
-1029.5911464911362 -153.50437206527454 -590.5040136451738 -45.1945538223488 0.0 0.0
-1095.8520324841536 -183.14489669372173 -638.4645974709241 -44.18068246838947 0.0 0.0
-1158.7712227071788 -213.0770924539599 -684.8975616097327 -43.05416135035148 0.0 0.0
-1214.6975307018117 -237.66139031299917 -725.1577440753045 -41.6131079069112 0.0 0.0
-1257.7093673000477 -251.58490363167746 -753.6684478546904 -39.430577371163494 0.0 0.0
-1277.046785578207 -244.71685836602563 -760.1294134209838 -37.197835624306656 0.0 0.0
-1232.5684715696768 -179.34574335211886 -705.7930585563329 -38.659618136423454 0.0 0.0
-1042.1463277579403 21.658236930631574 -510.69732414927694 -48.41724736368172 0.0 0.0
-738.1150042906187 317.81203622209955 -210.51946534222074 -66.95876859893743 0.0 0.0
-3614.3602149480944 -2601.1038689621864 -3098.2636348556784 7.996803219612048e-11 0.0 0.0
-738.1150042894627 317.8120362231998 -210.51946534135055 66.95876859902796 0.0 0.0
-1042.1463277580833 21.658236930456738 -510.697324149431 48.41724736373516 0.0 0.0
-1232.5684715703471 -179.34574335290978 -705.7930585568836 38.659618136500946 0.0 0.0
-1277.0467855783616 -244.71685836629362 -760.129413421104 37.19783562443744 0.0 0.0
-1257.709367299943 -251.58490363172047 -753.6684478544729 39.430577371191866 0.0 0.0
-1214.6975307008788 -237.66139031219228 -725.1577440745777 41.61310790689699 0.0 0.0
-1158.7712227075135 -213.07709245453773 -684.8975616099261 43.054161350459744 0.0 0.0
-1095.8520324829738 -183.14489669275838 -638.4645974702287 44.18068246848532 0.0 0.0
-1029.5911464910248 -153.50437206540076 -590.5040136450816 45.19455382245047 0.0 0.0
-963.8830102504045 -126.96525913341667 -544.2875889168729 45.950170410750864 0.0 0.0
-898.6493927667905 -105.23627202491808 -500.3981252355448 45.87162449727522 0.0 0.0
-832.1624561465602 -87.34163738208 -456.5075264642266 44.90550929871962 0.0 0.0
-760.441741092449 -69.9970633828344 -404.7439401635934 43.7148800129132 0.0 0.0
-679.0514269438414 -53.924098598835876 -334.19435476358353 42.7280031776421 0.0 0.0
-588.3640350691378 -35.87342279610613 -241.06478271617323 43.10795234698354 0.0 0.0
-457.3940270805636 -13.692654557840527 -150.03513111136613 51.755333519150284 0.0 0.0
-307.74300159649056 -0.6312783164201796 -92.34968242184554 67.15403968013166 0.0 0.0
-179.72692072464898 -1.4022282891313438 -54.338744704134115 67.86554091329847 0.0 0.0
-82.97455055373412 -26.008690702262307 -32.69497237679892 45.94410455396167 0.0 0.0
-34.5232235282794 -18.212729288189767 -15.82078584494075 23.65799510969963 0.0 0.0
-31.250667722195363 -10.343769194115367 -12.478331074893218 -13.379953884915277 0.0 0.0
-80.58989398201577 -16.83827225521853 -29.22844987117029 -23.015593002773386 0.0 0.0
-191.2574186814089 -1.174036622980116 -57.7294365913167 -33.10111087603967 0.0 0.0
-342.4933678294202 -5.028512719518571 -104.19961475230615 -31.96652784734158 0.0 0.0
-506.67502411425926 -23.93673858727505 -176.11148924618257 -23.16125982136173 0.0 0.0
-622.7229202070139 -42.6591724419625 -272.37623379572835 -21.931177283224567 0.0 0.0
-707.6808082843971 -57.26700218811697 -358.2919761988588 -22.837500540840885 0.0 0.0
-788.7120230410999 -77.62773091342152 -426.0337057832777 -23.371692345770864 0.0 0.0
-862.7874634704523 -97.9426560815088 -478.0636895013396 -23.893234954518935 0.0 0.0
-932.8245590806683 -119.73813550169595 -525.1469843967507 -24.478106884932377 0.0 0.0
-1001.755045811133 -144.82713993941857 -572.4722171705209 -24.697811780227166 0.0 0.0
-1071.1832037550278 -173.88751215076405 -621.8001979258474 -24.544573526505623 0.0 0.0
-1140.309290924232 -206.81930470185873 -672.837517683408 -24.118305165242052 0.0 0.0
-1205.8413387720088 -238.11475942965868 -721.2546677113173 -23.59201432227916 0.0 0.0
-1260.5287978276365 -261.1021648884332 -760.1154864355872 -22.820411272626114 0.0 0.0
-1297.9647151690135 -269.5126058325743 -783.0869390304156 -21.32292743044514 0.0 0.0
-1315.3444317074636 -261.1244662361297 -787.6301215079461 -18.839397166993564 0.0 0.0
-1312.7086222077842 -237.23198856835214 -774.5234933438928 -17.357672687942642 0.0 0.0
-1209.5983038238053 -120.67425246110642 -665.4225208793337 -24.610017893355327 0.0 0.0
-719.4155390602673 366.0852726665108 -177.28916259250437 -49.82515998963356 0.0 0.0
-3581.7913100237174 -2532.7818940184543 -3050.1011310436033 2.5506707856948196e-11 0.0 0.0
-719.4155390595022 366.0852726672361 -177.28916259190993 49.82515998970843 0.0 0.0
-1209.5983038241552 -120.67425246152064 -665.422520879572 24.610017893359835 0.0 0.0
-1312.7086222081098 -237.2319885687764 -774.5234933442447 17.357672688011345 0.0 0.0
-1315.344431708115 -261.124466236903 -787.6301215083959 18.83939716708643 0.0 0.0
-1297.964715168173 -269.51260583186536 -783.0869390298326 21.322927430351655 0.0 0.0
-1260.528797827628 -261.1021648885826 -760.1154864355249 22.820411272684183 0.0 0.0
-1205.8413387708276 -238.11475942867563 -721.2546677104 23.59201432232104 0.0 0.0
-1140.309290922866 -206.81930470068016 -672.8375176825236 24.11830516520586 0.0 0.0
-1071.1832037555969 -173.88751215159502 -621.8001979261755 24.544573526554846 0.0 0.0
-1001.7550458112976 -144.82713993984592 -572.4722171706203 24.697811780234087 0.0 0.0
-932.8245590802086 -119.73813550153059 -525.1469843964088 24.47810688501012 0.0 0.0
-862.7874634698816 -97.9426560811992 -478.06368950093884 23.893234954477094 0.0 0.0
-788.7120230405009 -77.62773091311082 -426.0337057828327 23.371692345680792 0.0 0.0
-707.6808082839113 -57.26700218798516 -358.29197619841847 22.837500540932606 0.0 0.0
-622.7229202064482 -42.65917244171172 -272.37623379519954 21.931177283241777 0.0 0.0
-506.6750241139518 -23.936738587346643 -176.1114892459891 23.161259821258593 0.0 0.0
-342.4933678291729 -5.02851271974416 -104.19961475231966 31.966527847294795 0.0 0.0
-191.25741868116137 -1.1740366228402408 -57.729436591200475 33.101110876027484 0.0 0.0
-80.58989398199095 -16.838272255276262 -29.228449871180175 23.01559300283095 0.0 0.0
-31.25066772217568 -10.343769194079972 -12.478331074876692 13.37995388470144 0.0 0.0
-20.056298389795725 -5.190611763660341 -7.57407304603682 -8.268245293679165 0.0 0.0
-69.86223202812171 -9.56188857407183 -23.82723618065806 -9.560106171969343 0.0 0.0
-199.64434721598195 -2.8654038302205436 -60.75292531386073 -11.11888255418644 0.0 0.0
-384.8769402543638 -20.120217857638544 -122.50102429520722 -8.55473648909107 0.0 0.0
-572.7396291688889 -64.58626152721226 -219.78098249203663 -0.7360293993342992 0.0 0.0
-707.4580620678319 -109.58992619027853 -342.7993757910024 1.1609292857703046 0.0 0.0
-822.1064304901487 -156.87942278623012 -457.617946274816 0.7960242209944433 0.0 0.0
-943.1707618478359 -218.80477854995678 -564.3679997469426 -0.556488092247136 0.0 0.0
-1070.153791023728 -292.90827424168805 -669.3870932877536 -2.09781141511737 0.0 0.0
-1211.579327532708 -385.86904836691923 -787.5915253405309 -3.722219162118151 0.0 0.0
-1372.985332697594 -502.79904453979066 -926.783064836232 -5.270189225318152 0.0 0.0
-1554.983299940736 -644.6917085817242 -1088.4058542638381 -6.542273622534694 0.0 0.0
-1752.5438113578864 -804.9468522809544 -1266.87639089921 -7.398100090725249 0.0 0.0
-1956.5268278344765 -974.2702333776599 -1453.1564373849237 -8.121241323821067 0.0 0.0
-2151.6305477552232 -1137.3115886577843 -1631.9540703527302 -8.530965379499499 0.0 0.0
-2316.5058961454433 -1273.0485697893837 -1782.138669141637 -8.361661053439576 0.0 0.0
-2424.8976208333443 -1356.0637135737788 -1877.9051771814354 -7.15844923718668 0.0 0.0
-2459.06064127215 -1369.5463297117951 -1901.5923320649165 -5.286020532681352 0.0 0.0
-2487.649028142372 -1383.3677631964674 -1921.551794918289 -10.576175361406403 0.0 0.0
-2525.7605929698875 -1419.848270012976 -1956.0542851307928 -39.1305753923715 0.0 0.0
-5897.738059165771 -4820.848372127407 -5334.518737074758 7.65965069149388e-12 0.0 0.0
-2525.760592969733 -1419.8482700128593 -1956.0542851305977 39.130575392420575 0.0 0.0
-2487.6490281412875 -1383.367763195446 -1921.5517949172572 10.576175361364385 0.0 0.0
-2459.0606412711577 -1369.5463297108788 -1901.5923320640488 5.286020532716677 0.0 0.0
-2424.897620832984 -1356.063713573559 -1877.9051771809336 7.158449237164984 0.0 0.0
-2316.505896143016 -1273.0485697870588 -1782.1386691397736 8.36166105327279 0.0 0.0
-2151.630547754475 -1137.311588657222 -1631.9540703520274 8.530965379623382 0.0 0.0
-1956.526827831903 -974.2702333752586 -1453.1564373828362 8.121241324039666 0.0 0.0
-1752.5438113562166 -804.9468522794627 -1266.8763908978933 7.398100090631608 0.0 0.0
-1554.9832999400323 -644.6917085812785 -1088.4058542631096 6.542273622536509 0.0 0.0
-1372.985332696553 -502.79904453899246 -926.7830648353143 5.270189225300086 0.0 0.0
-1211.5793275314743 -385.86904836598006 -787.5915253395694 3.7222191622157332 0.0 0.0
-1070.15379102327 -292.90827424148677 -669.3870932872956 2.097811415159981 0.0 0.0
-943.1707618469322 -218.8047785493928 -564.3679997462442 0.5564880921343374 0.0 0.0
-822.1064304890891 -156.87942278546836 -457.61794627396625 -0.796024220732015 0.0 0.0
-707.4580620668984 -109.5899261895655 -342.79937579019725 -1.1609292857016271 0.0 0.0
-572.7396291683824 -64.58626152705502 -219.7809824916473 0.736029399248487 0.0 0.0
-384.8769402540405 -20.120217857882903 -122.50102429516397 8.55473648930094 0.0 0.0
-199.6443472156201 -2.8654038300957865 -60.75292531371474 11.118882554106229 0.0 0.0
-69.86223202806991 -9.561888574029355 -23.827236180629775 9.560106172042799 0.0 0.0
-20.056298389910587 -5.190611763673106 -7.574073046075107 8.268245293371269 0.0 0.0
SCALARS Strain float 6
LOOKUP_TABLE default
0.013806777446229726 -0.02316057996311193 0.0 -0.001233786451749214 0.0 0.0
0.00847576546889906 -0.002375665451076561 0.0 -0.00707403608481582 0.0 0.0
0.002536253218080891 -0.0006137648919213229 0.0 -0.0007992512473606104 0.0 0.0
0.0021861573655352737 -0.0008732657474026125 0.0 -5.937328082085111e-06 0.0 0.0
0.003139666517513305 -0.001344887484713027 0.0 0.00015396749797768743 0.0 0.0
0.005213959338642446 -0.002887391065650358 0.0 0.00029431583735531363 0.0 0.0
0.008791911040089879 -0.005912282358163667 0.0 0.0003929431766630968 0.0 0.0
0.014149288004599983 -0.010698143534584523 0.0 0.00042961320404518366 0.0 0.0
0.021511728568613636 -0.01744819524224447 0.0 0.0004070678454711052 0.0 0.0
0.030969251047845807 -0.026196442785077052 0.0 0.00030285340527504487 0.0 0.0
0.04248410490212095 -0.03687080229331051 0.0 0.00015244488979448262 0.0 0.0
0.05595042673487212 -0.04936180635519051 0.0 -4.329915906356213e-05 0.0 0.0
0.07123114867907253 -0.06356463740178023 0.0 -0.00031895864133021424 0.0 0.0
0.08817881643853152 -0.07937188916660555 0.0 -0.0006272273326911883 0.0 0.0
0.10656334716287494 -0.09660739214738431 0.0 -0.0010047762874726821 0.0 0.0
0.12591816513260065 -0.11486402789557473 0.0 -0.0014450896959875136 0.0 0.0
0.14543215809130833 -0.13338986139390055 0.0 -0.0018652530359335397 0.0 0.0
0.16393539767891016 -0.15107521464652857 0.0 -0.0021035673483547493 0.0 0.0
0.18001225647256294 -0.16652317584794493 0.0 -0.001985995833386504 0.0 0.0
0.1919621429109765 -0.17810861256331387 0.0 -0.002177767863422415 0.0 0.0
0.19666681349211612 -0.18286726578145782 0.0 3.5735303605122226e-16 0.0 0.0
0.1919621429109502 -0.1781086125632916 0.0 0.0021777678634316375 0.0 0.0
0.18001225647251076 -0.16652317584789494 0.0 0.0019859958333935043 0.0 0.0
0.16393539767883464 -0.1510752146464487 0.0 0.002103567348359788 0.0 0.0
0.14543215809121957 -0.1333898613938186 0.0 0.0018652530359328599 0.0 0.0
0.12591816513250936 -0.11486402789549358 0.0 0.0014450896959840222 0.0 0.0
0.10656334716278248 -0.09660739214729613 0.0 0.0010047762874711768 0.0 0.0
0.08817881643843895 -0.07937188916651922 0.0 0.0006272273326906027 0.0 0.0
0.07123114867898209 -0.06356463740169833 0.0 0.00031895864132534726 0.0 0.0
0.0559504267347883 -0.04936180635510202 0.0 4.3299159058403716e-05 0.0 0.0
0.04248410490204983 -0.03687080229324519 0.0 -0.0001524448897974773 0.0 0.0
0.030969251047788582 -0.026196442785024747 0.0 -0.00030285340527466957 0.0 0.0
0.021511728568569397 -0.017448195242208198 0.0 -0.0004070678454738204 0.0 0.0
0.014149288004567339 -0.010698143534555452 0.0 -0.0004296132040489891 0.0 0.0
0.008791911040068432 -0.005912282358148248 0.0 -0.00039294317665966745 0.0 0.0
0.0052139593386312565 -0.0028873910656440536 0.0 -0.00029431583735705475 0.0 0.0
0.0031396665175091984 -0.0013448874847100478 0.0 -0.00015396749797870796 0.0 0.0
0.0021861573655343426 -0.0008732657474031813 0.0 5.937328080797509e-06 0.0 0.0
0.0025362532180792487 -0.0006137648919205822 0.0 0.0007992512473595716 0.0 0.0
0.008475765468892968 -0.002375665451073089 0.0 0.007074036084804494 0.0 0.0
0.013806777446220277 -0.023160579963086805 0.0 0.00123378645170282 0.0 0.0
0.009593791545229557 -0.020742622985585088 0.0 -0.0007622340353539783 0.0 0.0
0.005625002275397979 -0.0017721775898344306 0.0 -0.005726444229847355 0.0 0.0
0.00168512100668536 -0.00047683210465702096 0.0 -0.0005114034806955599 0.0 0.0
0.001933990769880088 -0.0008222396321965532 0.0 -0.00019824328110058193 0.0 0.0
0.0027132409599719648 -0.0012144651550436711 0.0 -0.00015417822588360727 0.0 0.0
0.004475748834573607 -0.002586503319396769 0.0 -0.00021800745234202193 0.0 0.0
0.00765684799393789 -0.005400369852592016 0.0 -0.0004861830588063235 0.0 0.0
0.012514813710259887 -0.00992855181496637 0.0 -0.000903089788246293 0.0 0.0
0.019229914255604143 -0.01635285055849532 0.0 -0.0014849480831215125 0.0 0.0
0.02783664756677818 -0.024679521773213257 0.0 -0.002205645137808539 0.0 0.0
0.03825996854365759 -0.03481676345914543 0.0 -0.002991733753695142 0.0 0.0
0.05039226335513441 -0.04665035652076269 0.0 -0.0037915393106565474 0.0 0.0
0.06414629362669015 -0.06009475993735554 0.0 -0.00462702676350024 0.0 0.0
0.07942199105646029 -0.07507190851867639 0.0 -0.005508667167510705 0.0 0.0
0.09602458160954719 -0.09142025905760225 0.0 -0.006414388707797971 0.0 0.0
0.11355072738257531 -0.10876446971198059 0.0 -0.007270438044942114 0.0 0.0
0.1312861159337467 -0.1264078143529181 0.0 -0.007863536512832177 0.0 0.0
0.1481899070958866 -0.14330667456120005 0.0 -0.007867359697251827 0.0 0.0
0.16289115142378216 -0.1581041210109989 0.0 -0.007059575703277012 0.0 0.0
0.173448500374148 -0.16903866453217772 0.0 -0.005946227557746748 0.0 0.0
0.17739892258970666 -0.17357891780826554 0.0 7.512220012717563e-15 0.0 0.0
0.1734485003741233 -0.16903866453215868 0.0 0.005946227557766783 0.0 0.0
0.1628911514237352 -0.15810412101094834 0.0 0.007059575703296816 0.0 0.0
0.14818990709582075 -0.14330667456113175 0.0 0.007867359697262766 0.0 0.0
0.13128611593366893 -0.1264078143528427 0.0 0.00786353651283241 0.0 0.0
0.11355072738249347 -0.10876446971190008 0.0 0.007270438044937425 0.0 0.0
0.09602458160946356 -0.09142025905752041 0.0 0.006414388707795704 0.0 0.0
0.07942199105637694 -0.07507190851859631 0.0 0.005508667167508877 0.0 0.0
0.06414629362660935 -0.0600947599372785 0.0 0.0046270267634942255 0.0 0.0
0.05039226335505937 -0.04665035652068113 0.0 0.0037915393106507243 0.0 0.0
0.03825996854359349 -0.034816763459080066 0.0 0.0029917337536875853 0.0 0.0
0.027836647566726304 -0.02467952177316417 0.0 0.0022056451378045074 0.0 0.0
0.01922991425556341 -0.016352850558456866 0.0 0.0014849480831173093 0.0 0.0
0.012514813710230612 -0.00992855181493932 0.0 0.0009030897882422434 0.0 0.0
0.0076568479939195504 -0.005400369852576384 0.0 0.00048618305880566683 0.0 0.0
0.004475748834564097 -0.002586503319390653 0.0 0.00021800745234046783 0.0 0.0
0.0027132409599683353 -0.0012144651550409307 0.0 0.00015417822588335847 0.0 0.0
0.0019339907698792632 -0.0008222396321971518 0.0 0.00019824328110066192 0.0 0.0
0.0016851210066851532 -0.00047683210465647473 0.0 0.0005114034806943393 0.0 0.0
0.005625002275391141 -0.001772177589830881 0.0 0.005726444229834978 0.0 0.0
0.009593791545216283 -0.020742622985559223 0.0 0.0007622340353196593 0.0 0.0
0.007007763735571052 -0.016513151746155044 0.0 -0.003682153046685393 0.0 0.0
0.003980420085726746 -0.0009815632891159928 0.0 -0.005722833623409435 0.0 0.0
0.0011764498952924292 -0.0002647058413083582 0.0 -0.00047025291489833325 0.0 0.0
0.0016427172085283113 -0.0007001465422903113 0.0 -0.0004804387342730971 0.0 0.0
0.0023266945770315127 -0.0009903740346314195 0.0 -0.00048235923909989735 0.0 0.0
0.003775937801061743 -0.002021890419215703 0.0 -0.0005939428043929194 0.0 0.0
0.0065344562099697015 -0.004393782757610465 0.0 -0.0011039974431271882 0.0 0.0
0.010867352829562724 -0.008395491883279203 0.0 -0.0019171715312647597 0.0 0.0
0.016900610247614845 -0.014149161934700963 0.0 -0.0030388789611402846 0.0 0.0
0.024630599166974118 -0.021620718652976652 0.0 -0.004397938401109038 0.0 0.0
0.033953122659860634 -0.030678223553228447 0.0 -0.005866610296109297 0.0 0.0
0.04475702508201796 -0.041201187066865125 0.0 -0.007332026838163166 0.0 0.0
0.056976542392161975 -0.05312966173585646 0.0 -0.008790100312263785 0.0 0.0
0.07056109384727349 -0.06643485162791946 0.0 -0.010315071354105046 0.0 0.0
0.08536670500583919 -0.08099962484299043 0.0 -0.011892039684903507 0.0 0.0
0.10105859211909377 -0.09651465354346393 0.0 -0.013355049244888863 0.0 0.0
0.11704142668893489 -0.11239820884024829 0.0 -0.014350491859736383 0.0 0.0
0.13238878651354752 -0.127739377468579 0.0 -0.014384660429239946 0.0 0.0
0.1457442162723777 -0.14123800746644383 0.0 -0.013105161163684643 0.0 0.0
0.15535845911989346 -0.15108886765632598 0.0 -0.010475424264327838 0.0 0.0
0.15899375591361675 -0.1554296197937182 0.0 1.3815771443548286e-14 0.0 0.0
0.15535845911987048 -0.15108886765630639 0.0 0.010475424264361294 0.0 0.0
0.14574421627233575 -0.14123800746639895 0.0 0.013105161163719955 0.0 0.0
0.13238878651348998 -0.12773937746852226 0.0 0.014384660429260343 0.0 0.0
0.11704142668886663 -0.11239820884018561 0.0 0.014350491859739377 0.0 0.0
0.10105859211902055 -0.0965146535433886 0.0 0.013355049244881383 0.0 0.0
0.08536670500576442 -0.08099962484291995 0.0 0.011892039684898926 0.0 0.0
0.07056109384719952 -0.06643485162785061 0.0 0.010315071354101688 0.0 0.0
0.05697654239209038 -0.053129661735789646 0.0 0.008790100312254367 0.0 0.0
0.04475702508195142 -0.04120118706679307 0.0 0.007332026838151465 0.0 0.0
0.03395312265980332 -0.030678223553169556 0.0 0.005866610296096239 0.0 0.0
0.02463059916692759 -0.021620718652933673 0.0 0.0043979384010988136 0.0 0.0
0.016900610247578458 -0.014149161934664364 0.0 0.0030388789611322763 0.0 0.0
0.010867352829537056 -0.008395491883254821 0.0 0.001917171531259167 0.0 0.0
0.006534456209953775 -0.0043937827575948815 0.0 0.0011039974431237534 0.0 0.0
0.0037759378010536887 -0.0020218904192097625 0.0 0.0005939428043921352 0.0 0.0
0.002326694577029021 -0.0009903740346293005 0.0 0.00048235923909943255 0.0 0.0
0.0016427172085279424 -0.0007001465422912376 0.0 0.000480438734271878 0.0 0.0
0.0011764498952924539 -0.00026470584130837394 0.0 0.00047025291489596617 0.0 0.0
0.003980420085720166 -0.0009815632891123707 0.0 0.005722833623394896 0.0 0.0
0.007007763735557693 -0.016513151746129735 0.0 0.0036821530466637936 0.0 0.0
0.00527699176022213 -0.013280653096493601 0.0 -0.004111350345870377 0.0 0.0
0.0029297516723619456 -0.0007092020705390908 0.0 -0.005218115095970577 0.0 0.0
0.0008391446127021344 -0.0001492714455918391 0.0 -0.0007567053458364271 0.0 0.0
0.0013579639139870393 -0.0005590590993642071 0.0 -0.0007621698854007453 0.0 0.0
0.0019724675139474856 -0.0008193987510043672 0.0 -0.0008050421785864207 0.0 0.0
0.00313278590628084 -0.001550276792065718 0.0 -0.0009277220483369169 0.0 0.0
0.005445001378765739 -0.003441492565566089 0.0 -0.0015186081936826932 0.0 0.0
0.00922167116629188 -0.0068820068495687925 0.0 -0.002653955545888836 0.0 0.0
0.014547248373988547 -0.011934379121752565 0.0 -0.004185151518468543 0.0 0.0
0.02137940505915097 -0.018526447033050345 0.0 -0.0060303055149075885 0.0 0.0
0.029590592082149203 -0.026495145769640648 0.0 -0.008010568811236454 0.0 0.0
0.03906608480254999 -0.03571030745829616 0.0 -0.00998086709066024 0.0 0.0
0.0497547733514746 -0.046125405812656325 0.0 -0.0119311788273156 0.0 0.0
0.06163374793540492 -0.05774578472039829 0.0 -0.013935645455256062 0.0 0.0
0.07462040013196164 -0.07050684445254053 0.0 -0.01599422367628486 0.0 0.0
0.08846946075442629 -0.08417872289736113 0.0 -0.017922707625468413 0.0 0.0
0.10269554519580021 -0.09829909660155026 0.0 -0.019289199868981883 0.0 0.0
0.11648980587332614 -0.112088874904999 0.0 -0.01949634558065954 0.0 0.0
0.12863095612991501 -0.12434483498257687 0.0 -0.01792171403955726 0.0 0.0
0.13759275725988143 -0.13347045203830396 0.0 -0.013747472523880458 0.0 0.0
0.14107761938568603 -0.1379458788377321 0.0 1.87436871579294e-14 0.0 0.0
0.13759275725986025 -0.13347045203828145 0.0 0.013747472523926413 0.0 0.0
0.12863095612987727 -0.12434483498254373 0.0 0.01792171403960149 0.0 0.0
0.11648980587327562 -0.1120888749049461 0.0 0.019496345580686348 0.0 0.0
0.10269554519574092 -0.09829909660149301 0.0 0.019289199868988343 0.0 0.0
0.08846946075436245 -0.08417872289729936 0.0 0.01792270762546048 0.0 0.0
0.07462040013189623 -0.07050684445248354 0.0 0.015994223676277536 0.0 0.0
0.061633747935340114 -0.057745784720337756 0.0 0.013935645455251548 0.0 0.0
0.04975477335141183 -0.04612540581259615 0.0 0.011931178827305457 0.0 0.0
0.039066084802492365 -0.035710307458236876 0.0 0.009980867090645919 0.0 0.0
0.02959059208209927 -0.02649514576959105 0.0 0.008010568811223568 0.0 0.0
0.02137940505910965 -0.018526447033012268 0.0 0.0060303055148937055 0.0 0.0
0.01454724837395623 -0.011934379121720658 0.0 0.004185151518458787 0.0 0.0
0.009221671166269329 -0.006882006849548044 0.0 0.0026539555458800824 0.0 0.0
0.005445001378752491 -0.003441492565551379 0.0 0.0015186081936786019 0.0 0.0
0.0031327859062747565 -0.0015502767920619546 0.0 0.0009277220483354851 0.0 0.0
0.0019724675139455917 -0.0008193987510019586 0.0 0.0008050421785862529 0.0 0.0
0.0013579639139868157 -0.0005590590993652296 0.0 0.0007621698853989044 0.0 0.0
0.0008391446127022395 -0.00014927144559225147 0.0 0.0007567053458347984 0.0 0.0
0.0029297516723560298 -0.0007092020705360074 0.0 0.00521811509595758 0.0 0.0
0.005276991760210227 -0.013280653096470939 0.0 0.0041113503458535035 0.0 0.0
0.0039893141232627315 -0.010684865746814938 0.0 -0.003664784951473787 0.0 0.0
0.0021848883243515207 -0.0005732740545357604 0.0 -0.004660242273596141 0.0 0.0
0.000609464769095433 -9.26234886936891e-05 0.0 -0.001145681522224195 0.0 0.0
0.0010980840686152552 -0.0004253246320572542 0.0 -0.0010653066761617618 0.0 0.0
0.0016446344217294756 -0.0006762537329488339 0.0 -0.0011251693566028324 0.0 0.0
0.002558267067133954 -0.0011816281989572085 0.0 -0.0012373254866234484 0.0 0.0
0.004413711742819584 -0.002589504100036724 0.0 -0.001805321609495723 0.0 0.0
0.00759669966100995 -0.00540863782079687 0.0 -0.0030745696194806314 0.0 0.0
0.012194398424342027 -0.009735470009582633 0.0 -0.00491555371460584 0.0 0.0
0.018109491983315386 -0.015427080058331932 0.0 -0.007095753833142595 0.0 0.0
0.025201122102130002 -0.022297480290853548 0.0 -0.009426420805342879 0.0 0.0
0.033345618936793796 -0.030204169263675265 0.0 -0.01173940021656711 0.0 0.0
0.04250118128609779 -0.039107695537485165 0.0 -0.014027106126356803 0.0 0.0
0.05267733411450301 -0.04904109139093169 0.0 -0.016366207722858735 0.0 0.0
0.06383427883124117 -0.059987366762813035 0.0 -0.0187425610773762 0.0 0.0
0.07580911963426915 -0.07179360843160042 0.0 -0.02096233431062991 0.0 0.0
0.08824659212514958 -0.08411629361135184 0.0 -0.022627220232460225 0.0 0.0
0.10049085449456686 -0.09633119125507435 0.0 -0.023101411010370693 0.0 0.0
0.11151759965782838 -0.10743500061772951 0.0 -0.02140559269492079 0.0 0.0
0.12001096677614831 -0.11606179968755295 0.0 -0.01623338056680891 0.0 0.0
0.12344736927727912 -0.12084075321852791 0.0 2.2691050427514625e-14 0.0 0.0
0.1200109667761286 -0.11606179968753297 0.0 0.016233380566862445 0.0 0.0
0.11151759965779527 -0.10743500061770501 0.0 0.021405592694969885 0.0 0.0
0.10049085449452354 -0.09633119125502639 0.0 0.023101411010402022 0.0 0.0
0.08824659212509785 -0.0841162936113033 0.0 0.022627220232466962 0.0 0.0
0.07580911963421325 -0.07179360843154774 0.0 0.020962334310618468 0.0 0.0
0.06383427883118487 -0.05998736676276088 0.0 0.018742561077365626 0.0 0.0
0.05267733411444736 -0.04904109139087532 0.0 0.016366207722851692 0.0 0.0
0.042501181286043854 -0.03910769553743484 0.0 0.014027106126346296 0.0 0.0
0.03334561893674478 -0.030204169263630364 0.0 0.01173940021654985 0.0 0.0
0.02520112210208747 -0.022297480290811803 0.0 0.009426420805323217 0.0 0.0
0.018109491983279637 -0.015427080058297304 0.0 0.007095753833125114 0.0 0.0
0.012194398424314063 -0.009735470009555956 0.0 0.004915553714595149 0.0 0.0
0.007596699660990948 -0.005408637820780389 0.0 0.0030745696194721863 0.0 0.0
0.00441371174280889 -0.0025895041000261634 0.0 0.0018053216094918484 0.0 0.0
0.0025582670671294386 -0.0011816281989554215 0.0 0.0012373254866218368 0.0 0.0
0.0016446344217282334 -0.0006762537329479256 0.0 0.001125169356602881 0.0 0.0
0.0010980840686150455 -0.0004253246320577782 0.0 0.001065306676160605 0.0 0.0
0.0006094647690955894 -9.262348869385918e-05 0.0 0.0011456815222234346 0.0 0.0
0.0021848883243466336 -0.0005732740545331195 0.0 0.004660242273585528 0.0 0.0
0.003989314123252733 -0.010684865746795348 0.0 0.003664784951461457 0.0 0.0
0.0029842436526414835 -0.008523890510575973 0.0 -0.0030443703722866063 0.0 0.0
0.0016233493362374765 -0.0004845022817277706 0.0 -0.004120881247867544 0.0 0.0
0.00044389770556309304 -7.192096343709676e-05 0.0 -0.0015158097605086356 0.0 0.0
0.0008614267220418713 -0.0003049937928744729 0.0 -0.0013714435799001231 0.0 0.0
0.0013390632896592826 -0.0005490075411229835 0.0 -0.0014369558311963994 0.0 0.0
0.0020464764885718893 -0.0008973161315947232 0.0 -0.001528218618696273 0.0 0.0
0.003471575458448851 -0.0018747817886940825 0.0 -0.0020375781402912543 0.0 0.0
0.006029235358423227 -0.004031244310892458 0.0 -0.0032434842433162006 0.0 0.0
0.009858720662149876 -0.007579331921626718 0.0 -0.005200781220141338 0.0 0.0
0.014847592377692006 -0.012353201452636199 0.0 -0.007584087021833611 0.0 0.0
0.0208106694712439 -0.018115409537880354 0.0 -0.010104634869982141 0.0 0.0
0.027623833476054443 -0.024713104812539768 0.0 -0.012604645209073461 0.0 0.0
0.03524926099097596 -0.03210769005095557 0.0 -0.01506776032349276 0.0 0.0
0.04371696722693386 -0.04035451330136355 0.0 -0.017573665048531893 0.0 0.0
0.0530403573244492 -0.049481032709774386 0.0 -0.020116068729784616 0.0 0.0
0.06312396824563118 -0.059402574569132255 0.0 -0.022490009116987095 0.0 0.0
0.07371845096850795 -0.06987661064472088 0.0 -0.024333346590438197 0.0 0.0
0.08437574293149169 -0.08046656270382072 0.0 -0.025065624173826864 0.0 0.0
0.09433266599784225 -0.0904526796197001 0.0 -0.023544046212143954 0.0 0.0
0.1024757734575932 -0.09871510454090535 0.0 -0.01803904890162421 0.0 0.0
0.10593516385101465 -0.10393482029710094 0.0 2.1901751245945178e-14 0.0 0.0
0.10247577345757598 -0.09871510454088564 0.0 0.018039048901678255 0.0 0.0
0.09433266599781369 -0.0904526796196777 0.0 0.02354404621219513 0.0 0.0
0.08437574293145503 -0.08046656270378179 0.0 0.025065624173856098 0.0 0.0
0.07371845096846406 -0.06987661064468023 0.0 0.02433334659044259 0.0 0.0
0.06312396824558389 -0.059402574569088915 0.0 0.022490009116977967 0.0 0.0
0.05304035732440235 -0.04948103270972613 0.0 0.020116068729775113 0.0 0.0
0.04371696722688793 -0.04035451330131745 0.0 0.017573665048522386 0.0 0.0
0.03524926099093158 -0.03210769005091197 0.0 0.015067760323482532 0.0 0.0
0.027623833476013587 -0.024713104812502454 0.0 0.012604645209057184 0.0 0.0
0.020810669471207858 -0.01811540953784563 0.0 0.010104634869961176 0.0 0.0
0.014847592377662241 -0.012353201452608245 0.0 0.007584087021815029 0.0 0.0
0.009858720662127193 -0.007579331921604933 0.0 0.005200781220128903 0.0 0.0
0.006029235358408271 -0.004031244310879286 0.0 0.0032434842433080994 0.0 0.0
0.003471575458440988 -0.0018747817886880275 0.0 0.0020375781402860054 0.0 0.0
0.002046476488568798 -0.0008973161315925431 0.0 0.00152821861869386 0.0 0.0
0.0013390632896582955 -0.0005490075411235712 0.0 0.0014369558311959046 0.0 0.0
0.000861426722041732 -0.00030499379287420746 0.0 0.0013714435798999384 0.0 0.0
0.0004438977055631795 -7.192096343728856e-05 0.0 0.0015158097605077335 0.0 0.0
0.0016233493362334567 -0.00048450228172576044 0.0 0.004120881247858656 0.0 0.0
0.002984243652633697 -0.008523890510559505 0.0 0.003044370372278657 0.0 0.0
0.002189859089018824 -0.006702557598727505 0.0 -0.0024717382668299763 0.0 0.0
0.0011875375885425298 -0.0004182819536511639 0.0 -0.003633113136912693 0.0 0.0
0.0003143447886463734 -6.592303055236611e-05 0.0 -0.001821654765273136 0.0 0.0
0.0006417644310536978 -0.0001984639811014816 0.0 -0.0016564236285928858 0.0 0.0
0.0010478698051395393 -0.00042389155960093956 0.0 -0.001721278661185592 0.0 0.0
0.0015857513881402164 -0.0006778978306987042 0.0 -0.001818395401724684 0.0 0.0
0.0026227539653059934 -0.0013000461953920966 0.0 -0.0022107968003883057 0.0 0.0
0.004563846092172298 -0.0028155441129679463 0.0 -0.0032714865094727514 0.0 0.0
0.00758562617192751 -0.005523682470734245 0.0 -0.005084321059129152 0.0 0.0
0.011616191145876363 -0.009339327987874521 0.0 -0.007464660897935875 0.0 0.0
0.016447135201862917 -0.013981944037002467 0.0 -0.010025747654564533 0.0 0.0
0.021927323489831393 -0.01926882133806758 0.0 -0.012561154017443387 0.0 0.0
0.028026600809986014 -0.025160897546562394 0.0 -0.0150412403809719 0.0 0.0
0.03479198317449005 -0.03172577943134584 0.0 -0.01754729431822496 0.0 0.0
0.042272610658532904 -0.03902679116650731 0.0 -0.020080892914001853 0.0 0.0
0.05044063834388054 -0.04704665156355155 0.0 -0.022474415082591234 0.0 0.0
0.05915062454581756 -0.055626412662680466 0.0 -0.024373118740224974 0.0 0.0
0.06814794021336669 -0.06451008131136964 0.0 -0.02531321043291926 0.0 0.0
0.07699084894678562 -0.07332372799087106 0.0 -0.024244563172775166 0.0 0.0
0.08483589444851933 -0.08127264174530763 0.0 -0.019141584799806297 0.0 0.0
0.08837105175471426 -0.08706241887368411 0.0 2.253666003815269e-14 0.0 0.0
0.08483589444850426 -0.0812726417452887 0.0 0.01914158479985755 0.0 0.0
0.07699084894676139 -0.07332372799085181 0.0 0.024244563172825723 0.0 0.0
0.06814794021333648 -0.06451008131133754 0.0 0.02531321043294934 0.0 0.0
0.059150624545781905 -0.055626412662646944 0.0 0.024373118740227316 0.0 0.0
0.05044063834384232 -0.04704665156351596 0.0 0.02247441508258144 0.0 0.0
0.042272610658494976 -0.039026791166471966 0.0 0.02008089291399237 0.0 0.0
0.03479198317445411 -0.03172577943130574 0.0 0.01754729431821716 0.0 0.0
0.02802660080995153 -0.025160897546525927 0.0 0.01504124038096068 0.0 0.0
0.021927323489798718 -0.0192688213380383 0.0 0.01256115401742659 0.0 0.0
0.01644713520183409 -0.013981944036976347 0.0 0.01002574765454194 0.0 0.0
0.011616191145852751 -0.00933932798785206 0.0 0.007464660897917327 0.0 0.0
0.007585626171909759 -0.00552368247071729 0.0 0.005084321059118473 0.0 0.0
0.004563846092160919 -0.002815544112958228 0.0 0.00327148650946544 0.0 0.0
0.00262275396530054 -0.0013000461953867975 0.0 0.002210796800383936 0.0 0.0
0.001585751388138211 -0.000677897830697911 0.0 0.001818395401721999 0.0 0.0
0.0010478698051389669 -0.0004238915595999497 0.0 0.0017212786611836097 0.0 0.0
0.0006417644310536827 -0.0001984639811009183 0.0 0.001656423628591576 0.0 0.0
0.0003143447886461024 -6.592303055257003e-05 0.0 0.0018216547652700373 0.0 0.0
0.0011875375885391272 -0.0004182819536501619 0.0 0.003633113136904705 0.0 0.0
0.0021898590890126277 -0.006702557598713956 0.0 0.0024717382668248957 0.0 0.0
0.0015618876349006215 -0.005175476116632487 0.0 -0.0020281253828757497 0.0 0.0
0.0008433962662425873 -0.00037058453340338697 0.0 -0.0031929914088703387 0.0 0.0
0.00020215528394688074 -5.856237242607568e-05 0.0 -0.002054524048709406 0.0 0.0
0.0004330949414366129 -0.00010395581432118902 0.0 -0.0019023885672411027 0.0 0.0
0.0007612138040714085 -0.0002931909832315119 0.0 -0.0019618959541424113 0.0 0.0
0.0011666759643216879 -0.0004971396821361355 0.0 -0.0021002382512722096 0.0 0.0
0.0018678612872443552 -0.0008597085894998558 0.0 -0.002366256080700794 0.0 0.0
0.003220228322299895 -0.001797898969463242 0.0 -0.00317602115386298 0.0 0.0
0.00542916587431866 -0.0036532933334479396 0.0 -0.004677463897658259 0.0 0.0
0.008460511458692782 -0.0064509777098876115 0.0 -0.0067716343837769645 0.0 0.0
0.01213354785736865 -0.009940029104667318 0.0 -0.0091649046415042 0.0 0.0
0.01628297436876844 -0.01391123415740458 0.0 -0.011569969417967946 0.0 0.0
0.020865231815963656 -0.018308348667341254 0.0 -0.013917647616138649 0.0 0.0
0.025932052921643776 -0.023200293656411602 0.0 -0.01626080179197189 0.0 0.0
0.03156645567754636 -0.0286730925578024 0.0 -0.018625122914557524 0.0 0.0
0.03780257949823384 -0.034771021112216846 0.0 -0.020881758906430195 0.0 0.0
0.04457770776857104 -0.04142309935129397 0.0 -0.022716648397265747 0.0 0.0
0.05181244660353495 -0.04850237005344886 0.0 -0.023739515552025064 0.0 0.0
0.05941690414455841 -0.05598463659025648 0.0 -0.023309007128154553 0.0 0.0
0.06692799840994938 -0.06355959233725504 0.0 -0.019414834800307507 0.0 0.0
0.07056154284816538 -0.07004627809158098 0.0 1.954773148904465e-14 0.0 0.0
0.06692799840993788 -0.06355959233724365 0.0 0.019414834800354417 0.0 0.0
0.05941690414453975 -0.05598463659023765 0.0 0.023309007128208145 0.0 0.0
0.051812446603511135 -0.04850237005342248 0.0 0.02373951555205434 0.0 0.0
0.0445777077685431 -0.04142309935126388 0.0 0.022716648397266483 0.0 0.0
0.037802579498204765 -0.03477102111218933 0.0 0.020881758906418864 0.0 0.0
0.031566455677518125 -0.02867309255777343 0.0 0.018625122914546974 0.0 0.0
0.02593205292161734 -0.023200293656383982 0.0 0.01626080179196439 0.0 0.0
0.02086523181593848 -0.018308348667316614 0.0 0.01391764761612806 0.0 0.0
0.016282974368744138 -0.01391123415738171 0.0 0.011569969417951036 0.0 0.0
0.012133547857347214 -0.009940029104647356 0.0 0.009164904641483722 0.0 0.0
0.008460511458675948 -0.00645097770986942 0.0 0.006771634383759403 0.0 0.0
0.005429165874306037 -0.0036532933334381835 0.0 0.004677463897648346 0.0 0.0
0.0032202283222917214 -0.0017978989694570349 0.0 0.003176021153857384 0.0 0.0
0.0018678612872406008 -0.0008597085894959672 0.0 0.0023662560806982963 0.0 0.0
0.0011666759643207442 -0.0004971396821383836 0.0 0.002100238251269361 0.0 0.0
0.0007612138040710881 -0.0002931909832300806 0.0 0.00196189595414049 0.0 0.0
0.0004330949414363799 -0.00010395581432122021 0.0 0.0019023885672381025 0.0 0.0
0.00020215528394674207 -5.8562372425695913e-05 0.0 0.0020545240487061128 0.0 0.0
0.0008433962662401195 -0.0003705845334028168 0.0 0.0031929914088639558 0.0 0.0
0.0015618876348958413 -0.005175476116621864 0.0 0.002028125382871878 0.0 0.0
0.0010877160698151407 -0.003937503638575738 0.0 -0.0017471507078956148 0.0 0.0
0.0005732428656807211 -0.0003427390541120585 0.0 -0.0028058376326481212 0.0 0.0
9.167879518933185e-05 -3.876097718434692e-05 0.0 -0.0022191947344605183 0.0 0.0
0.00023259157369021896 -1.8637883255911134e-05 0.0 -0.002097866433595395 0.0 0.0
0.0004732231589121761 -0.00015905199067200255 0.0 -0.0021507994268679534 0.0 0.0
0.0007659395318225912 -0.0003224487519263052 0.0 -0.0023341973897934506 0.0 0.0
0.001200884470771775 -0.0005331493162489129 0.0 -0.0025634292321233035 0.0 0.0
0.002018124938597504 -0.001009756325526019 0.0 -0.003037193767406896 0.0 0.0
0.0034277653873466696 -0.002057749809817966 0.0 -0.004064912912589146 0.0 0.0
0.005439850377141539 -0.003800095470043529 0.0 -0.005621321441594388 0.0 0.0
0.007918747336313432 -0.006079662640887239 0.0 -0.007559482496004849 0.0 0.0
0.010719590209030757 -0.008710812640436126 0.0 -0.009610884593787717 0.0 0.0
0.013789500957137707 -0.011611342590055211 0.0 -0.011674085147934247 0.0 0.0
0.01717083513887864 -0.01484239994719944 0.0 -0.013723313693987438 0.0 0.0
0.02095564721658783 -0.018487118831348834 0.0 -0.015764729053521737 0.0 0.0
0.02523750499895386 -0.022639290796259502 0.0 -0.017758637008953835 0.0 0.0
0.030052727433797916 -0.027332713677635637 0.0 -0.019472114373937678 0.0 0.0
0.035415806822752895 -0.03254176952468524 0.0 -0.020488203022372035 0.0 0.0
0.04154121057778552 -0.03844157846210636 0.0 -0.02049362271833538 0.0 0.0
0.048554402322770376 -0.04537870157015262 0.0 -0.01850280465084861 0.0 0.0
0.05226529082113605 -0.05265897139514429 0.0 1.601583449195587e-14 0.0 0.0
0.048554402322762695 -0.045378701570145216 0.0 0.01850280465089068 0.0 0.0
0.041541210577772256 -0.03844157846209125 0.0 0.020493622718382957 0.0 0.0
0.03541580682273566 -0.03254176952466832 0.0 0.020488203022396675 0.0 0.0
0.03005272743377837 -0.027332713677614185 0.0 0.019472114373935104 0.0 0.0
0.025237504998933916 -0.022639290796239435 0.0 0.017758637008942264 0.0 0.0
0.020955647216569367 -0.018487118831329197 0.0 0.015764729053514788 0.0 0.0
0.017170835138862642 -0.014842399947185093 0.0 0.013723313693979972 0.0 0.0
0.013789500957122206 -0.011611342590039566 0.0 0.011674085147925853 0.0 0.0
0.01071959020901496 -0.008710812640421126 0.0 0.009610884593774415 0.0 0.0
0.00791874733629934 -0.00607966264087717 0.0 0.00755948249598999 0.0 0.0
0.0054398503771310005 -0.003800095470032968 0.0 0.00562132144158058 0.0 0.0
0.0034277653873392906 -0.002057749809813729 0.0 0.004064912912582334 0.0 0.0
0.0020181249385926112 -0.0010097563255242646 0.0 0.003037193767403088 0.0 0.0
0.0012008844707696487 -0.0005331493162480246 0.0 0.002563429232120612 0.0 0.0
0.0007659395318219942 -0.00032244875192642713 0.0 0.0023341973897906573 0.0 0.0
0.0004732231589119803 -0.00015905199067136068 0.0 0.002150799426866436 0.0 0.0
0.00023259157368996655 -1.863788325610615e-05 0.0 0.002097866433592431 0.0 0.0
9.167879518902377e-05 -3.876097718423046e-05 0.0 0.0022191947344583837 0.0 0.0
0.0005732428656792834 -0.00034273905411223195 0.0 0.002805837632644421 0.0 0.0
0.0010877160698127143 -0.0039375036385679045 0.0 0.0017471507078930726 0.0 0.0
0.0007524842676061292 -0.0029701098857639547 0.0 -0.0015820453986700352 0.0 0.0
0.00036685846717818835 -0.00033810678786973773 0.0 -0.002507263201216921 0.0 0.0
-2.2295317797857805e-05 -2.6237830210314075e-06 0.0 -0.0023211974524825316 0.0 0.0
3.800624838860931e-05 6.026064680447266e-05 0.0 -0.0022374242549128144 0.0 0.0
0.00018551758493354732 -2.578802225588721e-05 0.0 -0.0022858423075264923 0.0 0.0
0.00036282098727805106 -0.000139121341914328 0.0 -0.002485923667825892 0.0 0.0
0.0005908624946783503 -0.00025822292334327246 0.0 -0.002752794489595124 0.0 0.0
0.0009637513965635943 -0.00044517047627773784 0.0 -0.003030684288456434 0.0 0.0
0.0016201947042608397 -0.0008545599977136307 0.0 -0.0034984226871018253 0.0 0.0
0.002610593399391687 -0.0016008630593744048 0.0 -0.004333564069669589 0.0 0.0
0.0038632577222875485 -0.002642358241713979 0.0 -0.005568417614799136 0.0 0.0
0.0052816379708204774 -0.0038798620194509187 0.0 -0.00707251579144472 0.0 0.0
0.006824406961584517 -0.005263919453269897 0.0 -0.008706386461158528 0.0 0.0
0.008526995020514455 -0.006829856512966221 0.0 -0.010412741470015242 0.0 0.0
0.010464582324431924 -0.008640733656841338 0.0 -0.012182075202605577 0.0 0.0
0.012762439720126867 -0.010811799250844783 0.0 -0.01400100316700209 0.0 0.0
0.015577492555704037 -0.013493783399829257 0.0 -0.015713711995734233 0.0 0.0
0.019044501381527135 -0.01682152996277239 0.0 -0.01685907047900563 0.0 0.0
0.02342334199227483 -0.020974012546862507 0.0 -0.016903532853565186 0.0 0.0
0.029501411855956103 -0.026663188034434526 0.0 -0.016141144432705614 0.0 0.0
0.03311082658316776 -0.034610438677494616 0.0 1.4412950000153302e-14 0.0 0.0
0.029501411855952526 -0.026663188034429252 0.0 0.01614114443274448 0.0 0.0
0.023423341992267668 -0.02097401254685824 0.0 0.016903532853601983 0.0 0.0
0.019044501381517077 -0.01682152996275892 0.0 0.01685907047902028 0.0 0.0
0.015577492555693774 -0.013493783399824792 0.0 0.01571371199572811 0.0 0.0
0.012762439720117707 -0.01081179925082797 0.0 0.014001003166991554 0.0 0.0
0.010464582324424017 -0.00864073365683556 0.0 0.012182075202598572 0.0 0.0
0.008526995020507942 -0.00682985651295378 0.0 0.01041274147001043 0.0 0.0
0.006824406961578107 -0.005263919453261014 0.0 0.008706386461148394 0.0 0.0
0.00528163797081353 -0.003879862019442578 0.0 0.007072515791432268 0.0 0.0
0.003863257722281426 -0.002642358241712068 0.0 0.005568417614788456 0.0 0.0
0.0026105933993876298 -0.0016008630593717511 0.0 0.004333564069661152 0.0 0.0
0.001620194704257816 -0.0008545599977099127 0.0 0.003498422687098314 0.0 0.0
0.0009637513965617861 -0.00044517047627553637 0.0 0.003030684288454079 0.0 0.0
0.0005908624946779411 -0.00025822292334454016 0.0 0.002752794489592635 0.0 0.0
0.00036282098727809546 -0.00013912134191212892 0.0 0.0024859236678243385 0.0 0.0
0.00018551758493364577 -2.5788022255180444e-05 0.0 0.0022858423075245125 0.0 0.0
3.800624838836557e-05 6.026064680469197e-05 0.0 0.0022374242549097127 0.0 0.0
-2.229531779809409e-05 -2.623783020518938e-06 0.0 0.0023211974524806975 0.0 0.0
0.00036685846717719674 -0.00033810678787021093 0.0 0.002507263201213716 0.0 0.0
0.000752484267604335 -0.002970109885758551 0.0 0.001582045398668283 0.0 0.0
0.0005167454757778052 -0.0022457122815110306 0.0 -0.0014918723778145852 0.0 0.0
0.00020984904570356625 -0.0003420465551962929 0.0 -0.0023016992321095143 0.0 0.0
-0.0001349885674195303 4.2383962582681644e-05 0.0 -0.002368041124170812 0.0 0.0
-0.00015165501860605818 0.00013571798043379086 0.0 -0.002319253730958636 0.0 0.0
-9.822302503031567e-05 0.00010429332085615771 0.0 -0.0023614512976246004 0.0 0.0
-4.555179431423629e-05 4.84368392306627e-05 0.0 -0.0025504998856747487 0.0 0.0
-1.6323005272759984e-05 1.2827384642091413e-05 0.0 -0.002837001612536779 0.0 0.0
-4.761836932294482e-06 2.9200215200518394e-06 0.0 -0.0030901376079651988 0.0 0.0
-8.300139648235506e-07 2.8519552619364646e-07 0.0 -0.003273253674302196 0.0 0.0
3.946890609575677e-07 -1.857333642393301e-07 0.0 -0.0037028464270471395 0.0 0.0
-4.342562514934433e-07 -3.8358548286578846e-07 0.0 -0.004527418813492299 0.0 0.0
-8.145156177908914e-06 7.323650043270321e-06 0.0 -0.005732304150032854 0.0 0.0
-2.5941203594098423e-05 2.3838289321035213e-05 0.0 -0.0071314522336233055 0.0 0.0
-3.828478609612079e-05 4.041921315566573e-05 0.0 -0.008675142360896814 0.0 0.0
1.9971291822406005e-05 2.89038674779966e-06 0.0 -0.010366741343334563 0.0 0.0
0.00030594306888205407 -0.00022577156226168973 0.0 -0.0121944669625293 0.0 0.0
0.0010962070263130107 -0.0008919208681839816 0.0 -0.01408515127637833 0.0 0.0
0.002717711232719139 -0.0023203416734934846 0.0 -0.01582970370457795 0.0 0.0
0.005384166541715794 -0.004634091598093291 0.0 -0.017107453347352797 0.0 0.0
0.009869233375530211 -0.008272124290632114 0.0 -0.017857119251355 0.0 0.0
0.012745510587124566 -0.016687723365017663 0.0 1.0374513748079295e-14 0.0 0.0
0.009869233375529227 -0.008272124290635893 0.0 0.017857119251379887 0.0 0.0
0.005384166541713238 -0.0046340915980948895 0.0 0.01710745334736698 0.0 0.0
0.0027177112327173795 -0.0023203416734915395 0.0 0.015829703704579732 0.0 0.0
0.0010962070263136944 -0.0008919208681867712 0.0 0.014085151276369834 0.0 0.0
0.0003059430688837167 -0.00022577156226198712 0.0 0.012194466962520318 0.0 0.0
1.997129182446534e-05 2.890386743736829e-06 0.0 0.010366741343326269 0.0 0.0
-3.828478609291903e-05 4.041921315269887e-05 0.0 0.008675142360889574 0.0 0.0
-2.5941203590815892e-05 2.3838289318126678e-05 0.0 0.007131452233613373 0.0 0.0
-8.145156175174068e-06 7.323650043270077e-06 0.0 0.005732304150021951 0.0 0.0
-4.342562490988202e-07 -3.8358547867895203e-07 0.0 0.0045274188134831585 0.0 0.0
3.946890629196755e-07 -1.857333653662905e-07 0.0 0.0037028464270424362 0.0 0.0
-8.300139641692346e-07 2.851955284873846e-07 0.0 0.00327325367430009 0.0 0.0
-4.7618369325227875e-06 2.920021521516922e-06 0.0 0.0030901376079635065 0.0 0.0
-1.632300527262565e-05 1.2827384639532059e-05 0.0 0.0028370016125337095 0.0 0.0
-4.555179431378852e-05 4.843683922986126e-05 0.0 0.002550499885672342 0.0 0.0
-9.822302503001174e-05 0.00010429332085644215 0.0 0.0023614512976215113 0.0 0.0
-0.00015165501860604427 0.0001357179804337651 0.0 0.002319253730955261 0.0 0.0
-0.00013498856741924966 4.238396258327267e-05 0.0 0.00236804112416934 0.0 0.0
0.00020984904570330574 -0.00034204655519633713 0.0 0.002301699232106528 0.0 0.0
0.0005167454757766494 -0.0022457122815077325 0.0 0.00149187237781544 0.0 0.0
0.00035457594717150495 -0.0017167678744836974 0.0 -0.001430887117174865 0.0 0.0
9.339191073591251e-05 -0.0003325810584201088 0.0 -0.0021422171138050354 0.0 0.0
-0.00024121169764434878 8.63682435961181e-05 0.0 -0.0023655330551518353 0.0 0.0
-0.00033517447595894157 0.00020912479033308897 0.0 -0.0023417659583307897 0.0 0.0
-0.0003758280174682137 0.0002291808222251332 0.0 -0.0023694853342230574 0.0 0.0
-0.00045009742057694957 0.0002344780336462333 0.0 -0.002530200485040822 0.0 0.0
-0.0006225527482265604 0.00028400182154211047 0.0 -0.0027747690552735035 0.0 0.0
-0.0009733149089519075 0.0004515372517108476 0.0 -0.0030426442984726283 0.0 0.0
-0.0016214554289186857 0.0008549162638201789 0.0 -0.0035034966803796307 0.0 0.0
-0.002609016900291347 0.001599585151659221 0.0 -0.004332468056931351 0.0 0.0
-0.0038648958700194863 0.0026430188162079355 0.0 -0.005565300123770536 0.0 0.0
-0.005300118898338676 0.0038959452216426587 0.0 -0.007074375558613182 0.0 0.0
-0.006876816858459589 0.005313196222338686 0.0 -0.008703102715457395 0.0 0.0
-0.008599727416372868 0.0069107811926248635 0.0 -0.01039954618000394 0.0 0.0
-0.010416026629135646 0.008642896881192413 0.0 -0.01218708926801621 0.0 0.0
-0.012153719462758863 0.010350199239597794 0.0 -0.01414345336054925 0.0 0.0
-0.013484941626567493 0.011713074006568036 0.0 -0.016321194750435447 0.0 0.0
-0.01398414681214084 0.012280331233765122 0.0 -0.018810096128835413 0.0 0.0
-0.013188661328109245 0.011725240680732186 0.0 -0.021549638171498957 0.0 0.0
-0.009386820670263704 0.009010653248862088 0.0 -0.022803370296960057 0.0 0.0
-0.0063672856479099205 -0.0001461341214029513 0.0 1.0005885009434223e-14 0.0 0.0
-0.009386820670264983 0.009010653248857848 0.0 0.022803370296985252 0.0 0.0
-0.013188661328106265 0.01172524068072338 0.0 0.02154963817151557 0.0 0.0
-0.013984146812131018 0.01228033123375558 0.0 0.01881009612883978 0.0 0.0
-0.013484941626554232 0.011713074006550934 0.0 0.01632119475042745 0.0 0.0
-0.012153719462746009 0.010350199239583404 0.0 0.014143453360537576 0.0 0.0
-0.010416026629123873 0.008642896881176483 0.0 0.012187089268008364 0.0 0.0
-0.008599727416360082 0.006910781192612351 0.0 0.010399546179994132 0.0 0.0
-0.006876816858446001 0.005313196222323419 0.0 0.008703102715446283 0.0 0.0
-0.005300118898326043 0.003895945221631697 0.0 0.007074375558600899 0.0 0.0
-0.003864895870008914 0.0026430188162006292 0.0 0.0055653001237568455 0.0 0.0
-0.0026090169002833566 0.0015995851516573804 0.0 0.004332468056923322 0.0 0.0
-0.001621455428913707 0.0008549162638168642 0.0 0.003503496680374774 0.0 0.0
-0.0009733149089491389 0.00045153725170967785 0.0 0.0030426442984703293 0.0 0.0
-0.0006225527482250829 0.0002840018215403718 0.0 0.0027747690552708923 0.0 0.0
-0.00045009742057602745 0.00023447803364774728 0.0 0.0025302004850391684 0.0 0.0
-0.0003758280174676061 0.00022918082222342286 0.0 0.002369485334219763 0.0 0.0
-0.00033517447595874435 0.00020912479033414393 0.0 0.002341765958327975 0.0 0.0
-0.0002412116976442499 8.636824359552028e-05 0.0 0.0023655330551506726 0.0 0.0
9.339191073568545e-05 -0.0003325810584202322 0.0 0.002142217113803461 0.0 0.0
0.0003545759471709146 -0.0017167678744816357 0.0 0.0014308871171751455 0.0 0.0
0.0002426231857659053 -0.0013018571995207875 0.0 -0.001328375534935423 0.0 0.0
5.679686998299656e-06 -0.000305134732887009 0.0 -0.0019872419622266255 0.0 0.0
-0.0003398661973713498 0.00012661430151536217 0.0 -0.0023123096507760253 0.0 0.0
-0.0005104131121066282 0.00027931315317411776 0.0 -0.0023032623781527265 0.0 0.0
-0.0006450670315164621 0.0003474085761308937 0.0 -0.00230824858183075 0.0 0.0
-0.0008442362754145615 0.00041286031087700104 0.0 -0.002419628067171691 0.0 0.0
-0.0012303840137112489 0.0005610250333115273 0.0 -0.0026111072838171986 0.0 0.0
-0.002026074160788923 0.0010161416578865897 0.0 -0.003060628043746347 0.0 0.0
-0.003426903497595035 0.0020561551563654658 0.0 -0.004068770026892253 0.0 0.0
-0.005437676574086255 0.0037979215905614896 0.0 -0.005617667070463223 0.0 0.0
-0.007921910459780844 0.006082949223417975 0.0 -0.007558351990597182 0.0 0.0
-0.010737438093950223 0.008727720204431279 0.0 -0.009607697132516618 0.0 0.0
-0.01383479648894493 0.011655998903140685 0.0 -0.01164055258554977 0.0 0.0
-0.017230773767691054 0.014911599117827141 0.0 -0.01363766408828235 0.0 0.0
-0.020899999544310897 0.018478773802998193 0.0 -0.015702362506158536 0.0 0.0
-0.024661962325023663 0.0221962795138926 0.0 -0.01804831807757577 0.0 0.0
-0.02813449727805615 0.025680949043724928 0.0 -0.020903466842192513 0.0 0.0
-0.030748964216503263 0.02835676471674753 0.0 -0.02437886711482957 0.0 0.0
-0.03143121123314605 0.02930139449826019 0.0 -0.027798051474700852 0.0 0.0
-0.028026395655798293 0.026418696700437803 0.0 -0.028599757563594563 0.0 0.0
-0.02494986068562852 0.015360345288445057 0.0 1.571225788365993e-14 0.0 0.0
-0.028026395655796454 0.026418696700438345 0.0 0.02859975756363408 0.0 0.0
-0.03143121123313786 0.029301394498254467 0.0 0.027798051474740272 0.0 0.0
-0.030748964216485125 0.028356764716731382 0.0 0.02437886711484507 0.0 0.0
-0.028134497278033063 0.0256809490437009 0.0 0.02090346684218582 0.0 0.0
-0.02466196232500034 0.02219627951387092 0.0 0.018048318077560764 0.0 0.0
-0.020899999544288807 0.018478773802978354 0.0 0.015702362506146848 0.0 0.0
-0.017230773767668763 0.01491159911780374 0.0 0.0136376640882705 0.0 0.0
-0.013834796488921833 0.011655998903124 0.0 0.011640552585534873 0.0 0.0
-0.010737438093928334 0.0087277202044084 0.0 0.0096076971324988 0.0 0.0
-0.007921910459761705 0.006082949223401787 0.0 0.007558351990577559 0.0 0.0
-0.005437676574071536 0.003797921590551515 0.0 0.00561766707045123 0.0 0.0
-0.0034269034975853915 0.0020561551563567995 0.0 0.004068770026884132 0.0 0.0
-0.002026074160783421 0.0010161416578862517 0.0 0.003060628043741817 0.0 0.0
-0.0012303840137086234 0.0005610250333111645 0.0 0.002611107283814639 0.0 0.0
-0.0008442362754133569 0.00041286031087698754 0.0 0.0024196280671698227 0.0 0.0
-0.0006450670315157268 0.0003474085761284102 0.0 0.0023082485818279406 0.0 0.0
-0.0005104131121059819 0.00027931315317645503 0.0 0.0023032623781512676 0.0 0.0
-0.0003398661973709912 0.0001266143015148191 0.0 0.002312309650775146 0.0 0.0
5.679686998166967e-06 -0.0003051347328875489 0.0 0.0019872419622255643 0.0 0.0
0.00024262318576566416 -0.0013018571995190179 0.0 0.0013283755349335594 0.0 0.0
0.0001528025294938663 -0.0009530472344158386 0.0 -0.0011775967281247267 0.0 0.0
-6.78492516173023e-05 -0.0002625165242389902 0.0 -0.0018169752273702335 0.0 0.0
-0.0004309743355442932 0.0001642202083935535 0.0 -0.0022064299077407573 0.0 0.0
-0.0006767153518665659 0.0003449487757419702 0.0 -0.002206997511390372 0.0 0.0
-0.0009029540297387059 0.0004571519235969996 0.0 -0.0021830042877635817 0.0 0.0
-0.0012318245486220548 0.0005816841762872224 0.0 -0.0022214867318898386 0.0 0.0
-0.0018935643948873584 0.0008902899415838272 0.0 -0.002436621487747585 0.0 0.0
-0.0032239206774123817 0.00180016472297264 0.0 -0.0031981418002450025 0.0 0.0
-0.005425262370889005 0.0036486952341709938 0.0 -0.004675226317944668 0.0 0.0
-0.008459250916730512 0.006449812126493465 0.0 -0.006767295063672678 0.0 0.0
-0.012138322225452228 0.009945707314409495 0.0 -0.009165372888407027 0.0 0.0
-0.016296322305015473 0.013925323385056771 0.0 -0.011561001108614462 0.0 0.0
-0.02089104306802447 0.018334650839170446 0.0 -0.013852647554417459 0.0 0.0
-0.025959616435734304 0.023233690314743736 0.0 -0.016085666658063418 0.0 0.0
-0.031503247708776 0.028644539995253446 0.0 -0.01843645957987288 0.0 0.0
-0.037346221868091695 0.034419459701641654 0.0 -0.021245491666372972 0.0 0.0
-0.04303007822944018 0.04011393215697547 0.0 -0.02495602557545951 0.0 0.0
-0.04765587752250102 0.04488290896317135 0.0 -0.029571281336887432 0.0 0.0
-0.04960631203172122 0.04715232455516707 0.0 -0.03381391320106759 0.0 0.0
-0.04580675853870149 0.044150547279367146 0.0 -0.035141643814486 0.0 0.0
-0.04195800057313127 0.030298583906104 0.0 1.9671764217576992e-14 0.0 0.0
-0.04580675853869653 0.04415054727936178 0.0 0.035141643814529756 0.0 0.0
-0.04960631203170752 0.04715232455516013 0.0 0.03381391320111024 0.0 0.0
-0.04765587752247615 0.044882908963148074 0.0 0.029571281336909665 0.0 0.0
-0.04303007822940808 0.040113932156946475 0.0 0.02495602557545756 0.0 0.0
-0.037346221868058554 0.034419459701604885 0.0 0.021245491666359417 0.0 0.0
-0.03150324770874465 0.028644539995227578 0.0 0.01843645957985751 0.0 0.0
-0.025959616435702285 0.023233690314708646 0.0 0.016085666658050002 0.0 0.0
-0.020891043067991884 0.01833465083914495 0.0 0.013852647554401847 0.0 0.0
-0.016296322304985164 0.013925323385022722 0.0 0.011561001108593483 0.0 0.0
-0.012138322225424786 0.009945707314388751 0.0 0.009165372888383943 0.0 0.0
-0.008459250916708717 0.006449812126472069 0.0 0.0067672950636559395 0.0 0.0
-0.00542526237087458 0.003648695234159288 0.0 0.004675226317934796 0.0 0.0
-0.003223920677403366 0.0018001647229680317 0.0 0.003198141800238394 0.0 0.0
-0.0018935643948828113 0.0008902899415801338 0.0 0.00243662148774327 0.0 0.0
-0.0012318245486203268 0.0005816841762830302 0.0 0.0022214867318883333 0.0 0.0
-0.0009029540297375803 0.00045715192359547087 0.0 0.0021830042877615695 0.0 0.0
-0.0006767153518659966 0.0003449487757426772 0.0 0.0022069975113892383 0.0 0.0
-0.00043097433554422694 0.00016422020839362662 0.0 0.0022064299077400704 0.0 0.0
-6.784925161708935e-05 -0.00026251652423943704 0.0 0.0018169752273687802 0.0 0.0
0.00015280252949396886 -0.0009530472344145015 0.0 0.001177596728122817 0.0 0.0
7.509832347466043e-05 -0.0006604367340931401 0.0 -0.0010082058301790198 0.0 0.0
-0.00013397416666707622 -0.00020734781793072007 0.0 -0.0016207409316364406 0.0 0.0
-0.0005168823605457824 0.00020076993586540498 0.0 -0.002048184909235153 0.0 0.0
-0.0008341454353226624 0.00040558865927465545 0.0 -0.0020550841766720845 0.0 0.0
-0.001147976097860386 0.0005552436768616344 0.0 -0.0019895557264865086 0.0 0.0
-0.0016343625130801622 0.0007546954100771623 0.0 -0.0019645694169323925 0.0 0.0
-0.0026405924399979254 0.0013268606672826608 0.0 -0.0022813840073791503 0.0 0.0
-0.0045610119475222215 0.0028108424978998503 0.0 -0.003283360615384534 0.0 0.0
-0.007581038353966873 0.005518113122893468 0.0 -0.005077680593493211 0.0 0.0
-0.01161708478657582 0.009340551179109858 0.0 -0.007461111404564045 0.0 0.0
-0.016452977274916878 0.01398948724859633 0.0 -0.010026595105842584 0.0 0.0
-0.02193247906902362 0.01927714875760759 0.0 -0.012546220242481908 0.0 0.0
-0.028021633332568706 0.0251590720316965 0.0 -0.014952578028569807 0.0 0.0
-0.03476701921017666 0.03170237006237909 0.0 -0.017305641340695847 0.0 0.0
-0.04219766235868902 0.03896420238888441 0.0 -0.019780246381605946 0.0 0.0
-0.05015597064764593 0.04683006617963628 0.0 -0.022816924420760953 0.0 0.0
-0.05805613019634616 0.05476461376592355 0.0 -0.026955927341751767 0.0 0.0
-0.06461684114066366 0.061546405034366036 0.0 -0.032183374926639245 0.0 0.0
-0.06754326766885378 0.0649583012228653 0.0 -0.03720694526341198 0.0 0.0
-0.06297708518075218 0.06133467980976218 0.0 -0.03923367540897199 0.0 0.0
-0.05821872635084133 0.04476872818439258 0.0 1.9468801570887706e-14 0.0 0.0
-0.06297708518074363 0.06133467980975506 0.0 0.0392336754090161 0.0 0.0
-0.06754326766883469 0.06495830122284947 0.0 0.03720694526345943 0.0 0.0
-0.06461684114063236 0.061546405034333077 0.0 0.03218337492666574 0.0 0.0
-0.058056130196306496 0.05476461376588498 0.0 0.026955927341751902 0.0 0.0
-0.05015597064760375 0.046830066179593476 0.0 0.022816924420747488 0.0 0.0
-0.042197662358647726 0.03896420238884606 0.0 0.01978024638159116 0.0 0.0
-0.03476701921013511 0.03170237006233783 0.0 0.01730564134068247 0.0 0.0
-0.028021633332526948 0.025159072031657223 0.0 0.014952578028553206 0.0 0.0
-0.021932479068984885 0.01927714875756762 0.0 0.01254622024246159 0.0 0.0
-0.01645297727488223 0.013989487248562114 0.0 0.010026595105819772 0.0 0.0
-0.01161708478654755 0.009340551179083457 0.0 0.007461111404543813 0.0 0.0
-0.00758103835394724 0.005518113122875371 0.0 0.005077680593480483 0.0 0.0
-0.004561011947509765 0.0028108424978899507 0.0 0.0032833606153770587 0.0 0.0
-0.0026405924399912034 0.0013268606672785152 0.0 0.002281384007374137 0.0 0.0
-0.0016343625130772633 0.0007546954100748956 0.0 0.001964569416931126 0.0 0.0
-0.0011479760978591466 0.0005552436768606908 0.0 0.0019895557264853598 0.0 0.0
-0.0008341454353218301 0.00040558865927440636 0.0 0.002055084176671249 0.0 0.0
-0.0005168823605453176 0.00020076993586536367 0.0 0.0020481849092343464 0.0 0.0
-0.00013397416666707698 -0.00020734781793080385 0.0 0.0016207409316345317 0.0 0.0
7.509832347456662e-05 -0.0006604367340923587 0.0 0.0010082058301777684 0.0 0.0
7.169021926632446e-06 -0.0004208240641965051 0.0 -0.0008315879980434575 0.0 0.0
-0.0001947518972507584 -0.00014395412427015096 0.0 -0.0013980872787309542 0.0 0.0
-0.0005987966977467575 0.0002376000681760808 0.0 -0.0018372654274614385 0.0 0.0
-0.0009814435806088863 0.00046058395689904544 0.0 -0.0018467433670777533 0.0 0.0
-0.001387122823743248 0.0006436140220252102 0.0 -0.0017339486578272203 0.0 0.0
-0.00207215314302798 0.0009602631303940621 0.0 -0.0016840249252492291 0.0 0.0
-0.0034793530516807284 0.0018907426186971724 0.0 -0.002090482276763932 0.0 0.0
-0.006023632835184924 0.004022505176024587 0.0 -0.003245738515402935 0.0 0.0
-0.009855410177703052 0.007575489146710605 0.0 -0.005192748643285099 0.0 0.0
-0.014850934561270634 0.012357107429768387 0.0 -0.007582019923954599 0.0 0.0
-0.020816263990133362 0.01812345594823703 0.0 -0.010104439907983685 0.0 0.0
-0.027618024773081368 0.024712979072858778 0.0 -0.012582793522643153 0.0 0.0
-0.035207691915159094 0.03207315667242593 0.0 -0.01496657673833924 0.0 0.0
-0.04362830771677803 0.04026461178257432 0.0 -0.017315225515239344 0.0 0.0
-0.05293809499896191 0.0493673988587994 0.0 -0.019770001865677508 0.0 0.0
-0.06298722342161697 0.05929780976651569 0.0 -0.022688361952676924 0.0 0.0
-0.07305725271424819 0.06943172862493442 0.0 -0.026678095520672823 0.0 0.0
-0.08146697837106527 0.07816786968416418 0.0 -0.032004844901966825 0.0 0.0
-0.08523805692827105 0.08258177917233847 0.0 -0.037683937010861444 0.0 0.0
-0.07992024556519814 0.07828835064526424 0.0 -0.04169076371386131 0.0 0.0
-0.07433847415679476 0.05928562840374284 0.0 2.2783858133479384e-14 0.0 0.0
-0.07992024556518576 0.07828835064525215 0.0 0.041690763713905496 0.0 0.0
-0.08523805692824565 0.08258177917231607 0.0 0.037683937010906776 0.0 0.0
-0.08146697837102741 0.0781678696841249 0.0 0.03200484490199259 0.0 0.0
-0.07305725271420123 0.06943172862488553 0.0 0.026678095520675224 0.0 0.0
-0.0629872234215662 0.05929780976646973 0.0 0.02268836195266654 0.0 0.0
-0.05293809499891095 0.049367398858748704 0.0 0.01977000186566358 0.0 0.0
-0.043628307716727106 0.04026461178252747 0.0 0.017315225515224457 0.0 0.0
-0.03520769191510823 0.03207315667237412 0.0 0.014966576738322673 0.0 0.0
-0.02761802477303367 0.024712979072817595 0.0 0.01258279352262197 0.0 0.0
-0.02081626399009135 0.01812345594819128 0.0 0.010104439907961107 0.0 0.0
-0.014850934561236189 0.012357107429735531 0.0 0.007582019923934643 0.0 0.0
-0.009855410177677574 0.007575489146684719 0.0 0.005192748643271813 0.0 0.0
-0.006023632835168111 0.004022505176010036 0.0 0.0032457385153937387 0.0 0.0
-0.003479353051671376 0.001890742618691061 0.0 0.0020904822767599434 0.0 0.0
-0.0020721531430241955 0.0009602631303902249 0.0 0.0016840249252464245 0.0 0.0
-0.0013871228237419286 0.0006436140220241094 0.0 0.0017339486578260887 0.0 0.0
-0.0009814435806080079 0.0004605839568996913 0.0 0.001846743367076438 0.0 0.0
-0.0005987966977465438 0.00023760006817557172 0.0 0.001837265427459925 0.0 0.0
-0.0001947518972506884 -0.00014395412427013068 0.0 0.0013980872787292683 0.0 0.0
7.169021926848413e-06 -0.00042082406419606414 0.0 0.000831587998042813 0.0 0.0
-5.0365534241605405e-05 -0.00023320001146943839 0.0 -0.0006520070819594413 0.0 0.0
-0.0002495114980879464 -7.724754984533318e-05 0.0 -0.0011512032987119765 0.0 0.0
-0.0006768861667417788 0.00027486883445367705 0.0 -0.0015743069746592588 0.0 0.0
-0.0011214156132241721 0.0005096283701993046 0.0 -0.001581592181821243 0.0 0.0
-0.001632654701711219 0.0007292555657959741 0.0 -0.0014262726963115897 0.0 0.0
-0.002556907876548265 0.001220885497552573 0.0 -0.0013777255011015405 0.0 0.0
-0.004410792713308868 0.0025928186889551154 0.0 -0.0018397377635802378 0.0 0.0
-0.007591462717923228 0.005401567204775212 0.0 -0.003069348741016686 0.0 0.0
-0.01219446285100116 0.009735107412059832 0.0 -0.004908479905049821 0.0 0.0
-0.018114809728704655 0.015433181701625248 0.0 -0.007095524080122932 0.0 0.0
-0.02520444914457691 0.022304031284000388 0.0 -0.009424613890785385 0.0 0.0
-0.03332677456807594 0.03019300526238955 0.0 -0.011710836974244673 0.0 0.0
-0.04242513338535918 0.03904201712760853 0.0 -0.013926193919774383 0.0 0.0
-0.05252707260391304 0.048891134923333364 0.0 -0.016144888036528603 0.0 0.0
-0.06367335809409062 0.05980386971056674 0.0 -0.01843686176425297 0.0 0.0
-0.0757214010562122 0.0717021196139064 0.0 -0.02095098415892589 0.0 0.0
-0.0878750161893234 0.0839270332049861 0.0 -0.02421584495797807 0.0 0.0
-0.09808870252601135 0.09456881750145525 0.0 -0.029027076581538233 0.0 0.0
-0.10278525940717256 0.10006283233486907 0.0 -0.03548068176562971 0.0 0.0
-0.09697350157979429 0.09537915112335987 0.0 -0.04289496216634337 0.0 0.0
-0.09073672869617387 0.07425786914459787 0.0 2.1255566751143817e-14 0.0 0.0
-0.09697350157977908 0.09537915112333907 0.0 0.0428949621663901 0.0 0.0
-0.10278525940714141 0.10006283233483816 0.0 0.0354806817656734 0.0 0.0
-0.09808870252596683 0.09456881750141494 0.0 0.029027076581562214 0.0 0.0
-0.08787501618926943 0.08392703320492775 0.0 0.024215844957979012 0.0 0.0
-0.075721401056153 0.07170211961384415 0.0 0.020950984158916972 0.0 0.0
-0.06367335809403003 0.05980386971050457 0.0 0.018436861764241048 0.0 0.0
-0.052527072603853184 0.04889113492327668 0.0 0.016144888036516414 0.0 0.0
-0.0424251333852998 0.03904201712754888 0.0 0.01392619391976084 0.0 0.0
-0.03332677456802004 0.030193005262338833 0.0 0.011710836974226183 0.0 0.0
-0.025204449144528067 0.022304031283947222 0.0 0.009424613890764462 0.0 0.0
-0.018114809728664413 0.015433181701586689 0.0 0.007095524080104394 0.0 0.0
-0.01219446285097066 0.009735107412032613 0.0 0.004908479905037517 0.0 0.0
-0.007591462717902179 0.005401567204755987 0.0 0.00306934874100665 0.0 0.0
-0.0044107927132966615 0.0025928186889429845 0.0 0.0018397377635749556 0.0 0.0
-0.0025569078765428706 0.0012208854975472954 0.0 0.0013777255010994243 0.0 0.0
-0.0016326547017091178 0.0007292555657950874 0.0 0.0014262726963117371 0.0 0.0
-0.00112141561322334 0.000509628370200266 0.0 0.0015815921818191684 0.0 0.0
-0.0006768861667412899 0.00027486883445356066 0.0 0.0015743069746580152 0.0 0.0
-0.0002495114980875748 -7.724754984572097e-05 0.0 0.0011512032987114416 0.0 0.0
-5.036553424146153e-05 -0.0002332000114690994 0.0 0.000652007081959937 0.0 0.0
-9.488057485259864e-05 -9.785920571489596e-05 0.0 -0.00047405685890535693 0.0 0.0
-0.0002954096338773007 -1.2555706406304636e-05 0.0 -0.0008829880648926456 0.0 0.0
-0.0007498548333094964 0.0003113751014098439 0.0 -0.0012580652536921342 0.0 0.0
-0.0012572668537214813 0.0005529707406864193 0.0 -0.0012575973666691046 0.0 0.0
-0.0018955233026797563 0.000825169266245709 0.0 -0.0010694315153861205 0.0 0.0
-0.0031030511135364544 0.001555062984217394 0.0 -0.001029900832975792 0.0 0.0
-0.005435700839548 0.0034370992625503563 0.0 -0.001534495283190603 0.0 0.0
-0.009220978894803193 0.006881187640317763 0.0 -0.0026458045828680232 0.0 0.0
-0.014551615389093327 0.01193833997580812 0.0 -0.004180347809794699 0.0 0.0
-0.021385752410991426 0.01853377966794215 0.0 -0.0060315891653805786 0.0 0.0
-0.029589365139032285 0.026497902664249295 0.0 -0.008006738442493576 0.0 0.0
-0.039033361584377146 0.035686233955239365 0.0 -0.009948812493108673 0.0 0.0
-0.049652032094697644 0.04603454594927091 0.0 -0.011843799316760543 0.0 0.0
-0.06143534670032137 0.05755333305286614 0.0 -0.013782920510401505 0.0 0.0
-0.07436977602346566 0.07024307284942614 0.0 -0.01579451527063649 0.0 0.0
-0.08826885440439332 0.08396132935767424 0.0 -0.017773703072558447 0.0 0.0
-0.10232969522706928 0.09805261831097462 0.0 -0.01986034529743878 0.0 0.0
-0.11435968525634366 0.11056463471553096 0.0 -0.023336221331997177 0.0 0.0
-0.12029631051818918 0.11747526660505536 0.0 -0.030512828807741074 0.0 0.0
-0.11445776840607058 0.11295999251726163 0.0 -0.04259508138987051 0.0 0.0
-0.10780032320784519 0.09009881346672456 0.0 1.720151798778602e-14 0.0 0.0
-0.11445776840605205 0.11295999251724331 0.0 0.04259508138991237 0.0 0.0
-0.12029631051815294 0.1174752666050222 0.0 0.030512828807780376 0.0 0.0
-0.11435968525629213 0.11056463471548014 0.0 0.02333622133201831 0.0 0.0
-0.10232969522700729 0.09805261831091333 0.0 0.01986034529744024 0.0 0.0
-0.08826885440432611 0.08396132935760331 0.0 0.017773703072556237 0.0 0.0
-0.07436977602339626 0.07024307284936179 0.0 0.015794515270626582 0.0 0.0
-0.06143534670025191 0.0575533330527913 0.0 0.013782920510389342 0.0 0.0
-0.04965203209462937 0.04603454594920549 0.0 0.01184379931674868 0.0 0.0
-0.03903336158431284 0.03568623395517749 0.0 0.009948812493094133 0.0 0.0
-0.02958936513897613 0.02649790266419349 0.0 0.008006738442475837 0.0 0.0
-0.02138575241094516 0.01853377966789846 0.0 0.006031589165365456 0.0 0.0
-0.01455161538905795 0.011938339975775319 0.0 0.004180347809784401 0.0 0.0
-0.009220978894778398 0.006881187640292688 0.0 0.002645804582859637 0.0 0.0
-0.005435700839533094 0.0034370992625374318 0.0 0.0015344952831843365 0.0 0.0
-0.0031030511135295134 0.0015550629842106213 0.0 0.0010299008329744269 0.0 0.0
-0.0018955233026773477 0.0008251692662451662 0.0 0.0010694315153868615 0.0 0.0
-0.0012572668537206375 0.0005529707406886101 0.0 0.0012575973666682785 0.0 0.0
-0.0007498548333088919 0.00031137510141014105 0.0 0.001258065253691267 0.0 0.0
-0.00029540963387700596 -1.2555706406796369e-05 0.0 0.0008829880648914541 0.0 0.0
-9.48805748525106e-05 -9.785920571475725e-05 0.0 0.0004740568589050495 0.0 0.0
-0.00012156584494216205 -1.5547632381128533e-05 0.0 -0.00030755393642780267 0.0 0.0
-0.0003268172581505534 4.346083088491967e-05 0.0 -0.0005972733592022303 0.0 0.0
-0.0008150231441338589 0.00034408735669718484 0.0 -0.0008822520318735447 0.0 0.0
-0.0013951303744148137 0.0005936824497426278 0.0 -0.0008695979367378767 0.0 0.0
-0.002189162307084338 0.0009469186815829114 0.0 -0.0006724122355566378 0.0 0.0
-0.0037234248134744687 0.0019928203323113544 0.0 -0.0006538130393317478 0.0 0.0
-0.006524460876550715 0.004390121115936035 0.0 -0.001107578796908257 0.0 0.0
-0.010873493327696925 0.008403127838419105 0.0 -0.0019105078987362379 0.0 0.0
-0.01690942783832759 0.01415740459833957 0.0 -0.0030366427202729394 0.0 0.0
-0.024636722579328123 0.021628154999273706 0.0 -0.00439973158652058 0.0 0.0
-0.03394559981972669 0.03067532810312635 0.0 -0.005861953192081327 0.0 0.0
-0.04471094520936738 0.04116374614496419 0.0 -0.0073030097772489345 0.0 0.0
-0.056855544115532744 0.05302062106223513 0.0 -0.008727245795347137 0.0 0.0
-0.07033100214363576 0.06621751039009398 0.0 -0.010233900515255148 0.0 0.0
-0.08501354729263885 0.08065851396245866 0.0 -0.01180892088435499 0.0 0.0
-0.10057974763254131 0.09605382219496843 0.0 -0.0132096138880751 0.0 0.0
-0.11625620073705417 0.1116924146223238 0.0 -0.01415884065622587 0.0 0.0
-0.13009370164978476 0.12585828710282854 0.0 -0.01560326434166316 0.0 0.0
-0.13779918881197611 0.13473681798202286 0.0 -0.021957000155088252 0.0 0.0
-0.13271204917824744 0.1314504043114257 0.0 -0.03978307345819501 0.0 0.0
-0.12602819260228482 0.1074007371647528 0.0 1.3036446921965705e-14 0.0 0.0
-0.13271204917822563 0.13145040431141042 0.0 0.039783073458226306 0.0 0.0
-0.137799188811934 0.13473681798198003 0.0 0.021957000155118127 0.0 0.0
-0.13009370164972534 0.12585828710276506 0.0 0.015603264341677844 0.0 0.0
-0.11625620073698356 0.11169241462225224 0.0 0.01415884065622916 0.0 0.0
-0.1005797476324652 0.09605382219489296 0.0 0.013209613888073787 0.0 0.0
-0.08501354729256037 0.08065851396238508 0.0 0.011808920884350507 0.0 0.0
-0.07033100214355664 0.06621751039001274 0.0 0.010233900515247868 0.0 0.0
-0.056855544115455375 0.05302062106216345 0.0 0.008727245795341506 0.0 0.0
-0.044710945209295395 0.041163746144892314 0.0 0.0073030097772391785 0.0 0.0
-0.03394559981966424 0.03067532810306286 0.0 0.005861953192066742 0.0 0.0
-0.024636722579276533 0.021628154999222014 0.0 0.004399731586509131 0.0 0.0
-0.016909427838287375 0.014157404598301653 0.0 0.0030366427202633225 0.0 0.0
-0.010873493327668212 0.00840312783839045 0.0 0.001910507898729403 0.0 0.0
-0.006524460876532782 0.004390121115920265 0.0 0.0011075787969044154 0.0 0.0
-0.003723424813465526 0.0019928203323026895 0.0 0.0006538130393307544 0.0 0.0
-0.0021891623070809806 0.0009469186815814397 0.0 0.0006724122355572172 0.0 0.0
-0.0013951303744137303 0.0005936824497442176 0.0 0.0008695979367353973 0.0 0.0
-0.000815023144133347 0.000344087356697518 0.0 0.0008822520318728801 0.0 0.0
-0.00032681725815007865 4.346083088448797e-05 0.0 0.000597273359201502 0.0 0.0
-0.00012156584494170127 -1.5547632381118593e-05 0.0 0.00030755393642609516 0.0 0.0
-0.00012202018820746394 1.3874652225056032e-05 0.0 -0.0001739394005038986 0.0 0.0
-0.0003338493867204957 8.053615450368642e-05 0.0 -0.00029920270903605403 0.0 0.0
-0.0008679318835855994 0.0003676100997941878 0.0 -0.0004303144413885156 0.0 0.0
-0.001544924109618887 0.0006414811190163972 0.0 -0.0004115494102103128 0.0 0.0
-0.0025320777169110047 0.0011186312130155708 0.0 -0.00024923247644625116 0.0 0.0
-0.004409626483351366 0.002534109830461955 0.0 -0.0002342717022833346 0.0 0.0
-0.007651398452097334 0.00540491887875459 0.0 -0.000485341600940817 0.0 0.0
-0.012528809610615456 0.009944062691139849 0.0 -0.0009010491208061352 0.0 0.0
-0.019242227811102373 0.016364640192995786 0.0 -0.0014840687880039915 0.0 0.0
-0.02784160577345958 0.02468618641550134 0.0 -0.0022072935934774546 0.0 0.0
-0.03824552514936893 0.0348074163435268 0.0 -0.002988832616704056 0.0 0.0
-0.05033429183988767 0.046600550012224434 0.0 -0.0037739670631206073 0.0 0.0
-0.06401257491911225 0.05997264269249317 0.0 -0.004595462881936694 0.0 0.0
-0.07916894357044606 0.07483852203862008 0.0 -0.005483539356357838 0.0 0.0
-0.09556892502066294 0.09100543212235966 0.0 -0.006407362765401555 0.0 0.0
-0.11270542634752209 0.108004297827458 0.0 -0.007199349253313944 0.0 0.0
-0.129657346174667 0.12492914813576395 0.0 -0.007496008312567524 0.0 0.0
-0.1448727260921667 0.1402237978839267 0.0 -0.007365165631330228 0.0 0.0
-0.15500760115151346 0.1510162109971848 0.0 -0.010317366040929695 0.0 0.0
-0.15222650178697128 0.15116526292899876 0.0 -0.029228704806639236 0.0 0.0
-0.14624017325526303 0.1279108245850915 0.0 6.647460359943125e-15 0.0 0.0
-0.15222650178694627 0.15116526292897786 0.0 0.029228704806658297 0.0 0.0
-0.15500760115146522 0.15101621099713466 0.0 0.010317366040946756 0.0 0.0
-0.14487272609209867 0.14022379788385633 0.0 0.007365165631338121 0.0 0.0
-0.1296573461745874 0.12492914813568057 0.0 0.007496008312569037 0.0 0.0
-0.11270542634743695 0.10800429782737715 0.0 0.007199349253311754 0.0 0.0
-0.0955689250205752 0.09100543212227173 0.0 0.006407362765399811 0.0 0.0
-0.07916894357035813 0.07483852203853825 0.0 0.0054835393563536765 0.0 0.0
-0.06401257491902614 0.059972642692413924 0.0 0.004595462881933265 0.0 0.0
-0.05033429183980778 0.046600550012141057 0.0 0.003773967063114345 0.0 0.0
-0.03824552514929994 0.03480741634345642 0.0 0.0029888326166960097 0.0 0.0
-0.027841605773402694 0.02468618641544639 0.0 0.002207293593472226 0.0 0.0
-0.01924222781105778 0.016364640192953736 0.0 0.0014840687879993726 0.0 0.0
-0.01252880961058316 0.009944062691110266 0.0 0.0009010491208019207 0.0 0.0
-0.007651398452076806 0.005404918878736171 0.0 0.0004853416009401772 0.0 0.0
-0.004409626483340836 0.0025341098304541157 0.0 0.0002342717022834129 0.0 0.0
-0.0025320777169074177 0.0011186312130128427 0.0 0.0002492324764453049 0.0 0.0
-0.001544924109617705 0.0006414811190152315 0.0 0.0004115494102098011 0.0 0.0
-0.0008679318835847461 0.00036761009979434167 0.0 0.0004303144413883572 0.0 0.0
-0.0003338493867202702 8.05361545033754e-05 0.0 0.00029920270903680235 0.0 0.0
-0.00012202018820744343 1.3874652225178705e-05 0.0 0.00017393940050111867 0.0 0.0
-8.113446473443289e-05 1.5492498335447106e-05 0.0 -0.00010748718881782915 0.0 0.0
-0.0002992274730085138 9.272475944281049e-05 0.0 -0.00012428138023560148 0.0 0.0
-0.0009027942423637878 0.0003762688896436612 0.0 -0.00014454547320442372 0.0 0.0
-0.0017237903454278972 0.0006687939806134778 0.0 -0.00010387521047264305 0.0 0.0
-0.0029357978132409515 0.0012215840668646754 0.0 0.00011791439696804209 0.0 0.0
-0.005145901191045302 0.0028262064629470743 0.0 0.0003121832113512687 0.0 0.0
-0.00879610252245306 0.005922894923350673 0.0 0.00039818269063615923 0.0 0.0
-0.014169662581006614 0.010716975500717135 0.0 0.00042900465142327207 0.0 0.0
-0.021526422799592382 0.01746152448248603 0.0 0.00040666058331261337 0.0 0.0
-0.030972638978004 0.02620255917552365 0.0 0.00029943445282685577 0.0 0.0
-0.04246332362125034 0.03685818873710312 0.0 0.00014955789311140713 0.0 0.0
-0.055882394017115276 0.04930623229154265 0.0 -4.0978921997232576e-05 0.0 0.0
-0.07108560841101211 0.06343687430193604 0.0 -0.00031592899851458096 0.0 0.0
-0.08789913688823996 0.0791312298910459 0.0 -0.0006470755273182537 0.0 0.0
-0.10599724380986378 0.09615545139633214 0.0 -0.0010728122087634885 0.0 0.0
-0.12469180765789778 0.1139484213877449 0.0 -0.0015300115790761269 0.0 0.0
-0.1427888662331694 0.13147113320999207 0.0 -0.0018040636242196949 0.0 0.0
-0.15862764759686918 0.14716724899077152 0.0 -0.0016243819982850634 0.0 0.0
-0.17031550773507803 0.15873037056256392 0.0 -0.0029089405702595935 0.0 0.0
-0.17314995514286702 0.16134662884663956 0.0 -0.021720393568419896 0.0 0.0
-0.17141985490217293 0.13931364456543677 0.0 1.5543122344752192e-15 0.0 0.0
-0.17314995514283904 0.16134662884661252 0.0 0.02172039356842769 0.0 0.0
-0.1703155077350236 0.1587303705625157 0.0 0.0029089405702650475 0.0 0.0
-0.15862764759679154 0.14716724899069952 0.0 0.0016243819982864234 0.0 0.0
-0.14278886623307996 0.13147113320990483 0.0 0.001804063624218118 0.0 0.0
-0.12469180765780323 0.11394842138766342 0.0 0.0015300115790731032 0.0 0.0
-0.10599724380976652 0.09615545139623893 0.0 0.001072812208762713 0.0 0.0
-0.08789913688814273 0.07913122989096266 0.0 0.000647075527319043 0.0 0.0
-0.07108560841091724 0.06343687430185016 0.0 0.0003159289985127465 0.0 0.0
-0.05588239401702734 0.04930623229145842 0.0 4.0978921993803895e-05 0.0 0.0
-0.04246332362117481 0.036858188737033074 0.0 -0.000149557893114707 0.0 0.0
-0.030972638977942096 0.02620255917546807 0.0 -0.0002994344528279248 0.0 0.0
-0.021526422799543834 0.017461524482439744 0.0 -0.00040666058331287336 0.0 0.0
-0.014169662580970634 0.010716975500685486 0.0 -0.0004290046514245384 0.0 0.0
-0.008796102522429846 0.005922894923332792 0.0 -0.0003981826906320242 0.0 0.0
-0.005145901191033111 0.00282620646293979 0.0 -0.0003121832113494212 0.0 0.0
-0.002935797813235728 0.0012215840668615588 0.0 -0.00011791439696850082 0.0 0.0
-0.0017237903454256898 0.0006687939806115147 0.0 0.00010387521047549095 0.0 0.0
-0.0009027942423623845 0.00037626888964352326 0.0 0.00014454547320338099 0.0 0.0
-0.0002992274730083609 9.272475944290276e-05 0.0 0.00012428138023655642 0.0 0.0
-8.113446473493065e-05 1.5492498335613016e-05 0.0 0.0001074871888138265 0.0 0.0
SCALARS Statev float 8
LOOKUP_TABLE default
0.0 0.01810078000673462 0.014500593771211266 -0.01728697626937347 0.0027863824981621825 -0.0009412464839258178 0.0 0.0
0.0 0.006143443248729867 0.004514328166837711 -0.00279020649263261 -0.0017241216742051014 -0.006784307651113395 0.0 0.0
0.0 0.00011116879068288317 0.00016001361215734212 -9.898650062592847e-05 -6.10271115314137e-05 -0.00028264071090537565 0.0 0.0
0.0 0.00014772026639000684 6.322237859077653e-05 -4.5316652330777636e-05 -1.79057262599991e-05 2.1085743339423793e-05 0.0 0.0
0.0 0.0009252657923867077 0.0006114448676942144 -0.00044684454478081763 -0.00016460032291339642 0.00012952835261909046 0.0 0.0
0.0 0.002395276899380374 0.0023778396499577257 -0.0018788342412953416 -0.0004990054086623872 0.00027198831059259773 0.0 0.0
0.0 0.006099009857155623 0.005600292965799862 -0.004779147924542303 -0.0008211450412575524 0.0003834045419423592 0.0 0.0
0.0 0.011735584842771358 0.010609507081687522 -0.00953111469651993 -0.001078392385167595 0.00043697401426816794 0.0 0.0
0.0 0.01969739362587441 0.017605155429187173 -0.016303351322173608 -0.0013018041070135703 0.0004340722429382874 0.0 0.0
0.0 0.030108172709029938 0.026670652963846256 -0.025128127787988792 -0.0015425251758574854 0.0003510157234118936 0.0 0.0
0.0 0.04290449010588189 0.03776058841996749 -0.03593776948525182 -0.0018228189347156295 0.0002211792211602983 0.0 0.0
0.0 0.057633654116713104 0.05077040781935667 -0.04862383262415297 -0.002146575195203627 4.235425162478002e-05 0.0 0.0
0.0 0.07450376448597157 0.06556914275517846 -0.06306521276106787 -0.0025039299941105385 -0.00022273210921064932 0.0 0.0
0.0 0.09329979696337254 0.08202242715530689 -0.07914029386580695 -0.002882133289499768 -0.0005227548887717186 0.0 0.0
0.0 0.11378255361553967 0.09991765435487565 -0.09665446541086506 -0.0032631889440105067 -0.000894816413266001 0.0 0.0
0.0 0.1354829017318961 0.11880848909855447 -0.1151811015600119 -0.0036273875385425206 -0.001332985043412808 0.0 0.0
0.0 0.15745554824573668 0.13790534720899966 -0.13395010323207376 -0.003955243976925898 -0.0017563710586066294 0.0 0.0
0.0 0.17836479859673626 0.15606062743761268 -0.1518337805031323 -0.0042268469344803414 -0.0020046049370531964 0.0 0.0
0.0 0.19657435346523322 0.17186710200976338 -0.1674315162551815 -0.004435585754581739 -0.0019017291621200858 0.0 0.0
0.0 0.20993095199372483 0.18365245304790484 -0.1790960306168457 -0.004556422431059231 -0.0020795706292879995 0.0 0.0
0.0 0.21550151612665075 0.18837027326107597 -0.1838306797803194 -0.0045395934807565775 1.0217521273503394e-15 0.0 0.0
0.0 0.20993095199369702 0.1836524530478805 -0.17909603061682172 -0.004556422431058675 0.0020795706292963036 0.0 0.0
0.0 0.19657435346517466 0.17186710200971178 -0.16743151625513134 -0.004435585754580401 0.0019017291621266806 0.0 0.0
0.0 0.178364798596647 0.15606062743753532 -0.15183378050305502 -0.004226846934480387 0.0020046049370578854 0.0 0.0
0.0 0.15745554824563768 0.13790534720891365 -0.13395010323198944 -0.003955243976924289 0.0017563710586056581 0.0 0.0
0.0 0.13548290173179733 0.1188084890984672 -0.11518110155992749 -0.00362738753853983 0.0013329850434093638 0.0 0.0
0.0 0.11378255361543572 0.09991765435478482 -0.09665446541077624 -0.0032631889440084484 0.0008948164132652108 0.0 0.0
0.0 0.09329979696326958 0.08202242715521676 -0.07914029386571932 -0.0028821332894975733 0.0005227548887701077 0.0 0.0
0.0 0.07450376448587231 0.06556914275509183 -0.06306521276098326 -0.0025039299941084963 0.0002227321092079246 0.0 0.0
0.0 0.057633654116614544 0.050770407819270884 -0.04862383262406794 -0.0021465751952028655 -4.235425162794036e-05 0.0 0.0
0.0 0.04290449010580402 0.03776058841989884 -0.03593776948518576 -0.00182281893471309 -0.00022117922116256196 0.0 0.0
0.0 0.030108172708967377 0.026670652963791487 -0.02512812778793565 -0.001542525175855842 -0.000351015723413652 0.0 0.0
0.0 0.019697393625828993 0.017605155429146927 -0.01630335132213483 -0.0013018041070120706 -0.0004340722429386817 0.0 0.0
0.0 0.01173558484273755 0.010609507081657038 -0.009531114696490714 -0.0010783923851663299 -0.00043697401426826953 0.0 0.0
0.0 0.006099009857136071 0.005600292965781433 -0.004779147924525377 -0.0008211450412560495 -0.000383404541942054 0.0 0.0
0.0 0.002395276899371726 0.0023778396499488674 -0.00187883424128789 -0.0004990054086609765 -0.0002719883105917332 0.0 0.0
0.0 0.0009252657923823312 0.00061144486769114 -0.00044684454477855534 -0.00016460032291258373 -0.0001295283526184941 0.0 0.0
0.0 0.0001477202663893757 6.322237859098949e-05 -4.531665233096049e-05 -1.7905726260028403e-05 -2.1085743339332794e-05 0.0 0.0
0.0 0.00011116879068180978 0.00016001361215650965 -9.898650062535937e-05 -6.102711153114977e-05 0.00028264071090425134 0.0 0.0
0.0 0.006143443248719654 0.0045143281668324365 -0.002790206492628786 -0.001724121674203646 0.006784307651103237 0.0 0.0
0.0 0.018100780006713005 0.01450059377119662 -0.017286976269353386 0.0027863824981567524 0.0009412464838871556 0.0 0.0
0.0 0.014752340627025205 0.011051781638597673 -0.014294767724204155 0.0032429860856064727 -0.00045779234056641627 0.0 0.0
0.0 0.0037620731796104865 0.002698816737942719 -0.0016450245521207523 -0.0010537921858219622 -0.005324868579454016 0.0 0.0
0.0 -7.173097900180204e-05 -6.83503855814789e-05 6.070559893403955e-05 7.644786647439345e-06 -7.280945463606495e-05 0.0 0.0
0.0 3.0318411727859343e-05 2.19215477198204e-05 -1.5828862100752864e-05 -6.092685619067543e-06 9.774462018696113e-06 0.0 0.0
0.0 0.0005008534610652859 0.00039115823176486545 -0.00028814697908554146 -0.00010301125267932379 5.24134940084113e-05 0.0 0.0
0.0 0.0020945624812267983 0.0018161239618889706 -0.0014488826562482904 -0.00036724130564068196 5.34468882027351e-05 0.0 0.0
0.0 0.005168202832268825 0.004737585804000545 -0.004091078267821971 -0.0006465075361785699 -0.00018865058031871786 0.0 0.0
0.0 0.01039690056510491 0.009326449123834759 -0.008495346746033623 -0.0008311023778011404 -0.0005986198021090057 0.0 0.0
0.0 0.017825330185783018 0.01578055783558421 -0.014831572622480815 -0.0009489852131033897 -0.0011745512907764136 0.0 0.0
0.0 0.027462033999000178 0.02413934314786842 -0.023091987494536413 -0.0010473556533319747 -0.001887515136311607 0.0 0.0
0.0 0.0392467247546491 0.034325289945613686 -0.033181194264453505 -0.0011440956811602193 -0.0026697556298478013 0.0 0.0
0.0 0.05315003560723165 0.0462266527474876 -0.0449826129660605 -0.0012440397814270931 -0.0034705907134061132 0.0 0.0
0.0 0.068484076710826 0.059759319771899494 -0.05841205588777209 -0.0013472638841273196 -0.004311822380906642 0.0 0.0
0.0 0.08587591843967012 0.07482353569834427 -0.07337683059452448 -0.0014467051038197878 -0.0052012788780932346 0.0 0.0
0.0 0.10481733313798984 0.0912374633523778 -0.08970609088319786 -0.0015313724691798038 -0.0061163971760666925 0.0 0.0
0.0 0.12488825365730565 0.10860725411319742 -0.10701531475099788 -0.0015919393621996792 -0.006985996648969937 0.0 0.0
0.0 0.1452985939063841 0.12622570716991538 -0.1246031454793696 -0.0016225616905455576 -0.007600015526868212 0.0 0.0
0.0 0.1648386144146015 0.143053113858476 -0.14142894559319938 -0.001624168265276726 -0.0076329759439460465 0.0 0.0
0.0 0.1818781269547752 0.1577263213229071 -0.15613380765322243 -0.0015925136696847057 -0.006856933189940868 0.0 0.0
0.0 0.19431528964773537 0.16836921286871104 -0.16689949337902593 -0.0014697194896851052 -0.005750685213652234 0.0 0.0
0.0 0.1996150166014377 0.17251528592231763 -0.17123720733278278 -0.0012780785895349237 7.082442271544309e-15 0.0 0.0
0.0 0.1943152896477105 0.16836921286868894 -0.16689949337900428 -0.0014697194896845346 0.005750685213671371 0.0 0.0
0.0 0.18187812695471925 0.15772632132285838 -0.15613380765317408 -0.0015925136696841556 0.006856933189959723 0.0 0.0
0.0 0.164838614414524 0.14305311385840944 -0.14142894559313224 -0.0016241682652771395 0.0076329759439564965 0.0 0.0
0.0 0.1452985939062954 0.126225707169839 -0.12460314547929326 -0.001622561690545678 0.0076000155268685435 0.0 0.0
0.0 0.12488825365721247 0.1086072541131165 -0.10701531475091745 -0.001591939362198839 0.0069859966489655995 0.0 0.0
0.0 0.10481733313789479 0.09123746335229518 -0.08970609088311594 -0.0015313724691793334 0.006116397176064536 0.0 0.0
0.0 0.08587591843957622 0.07482353569826262 -0.07337683059444389 -0.0014467051038185926 0.005201278878090054 0.0 0.0
0.0 0.06848407671073513 0.05975931977182081 -0.058412055887694075 -0.001347263884126785 0.0043118223809022055 0.0 0.0
0.0 0.05315003560714223 0.04622665274741015 -0.04498261296598289 -0.0012440397814272466 0.0034705907133998556 0.0 0.0
0.0 0.03924672475457502 0.0343252899455495 -0.03318119426438994 -0.0011440956811596089 0.0026697556298404222 0.0 0.0
0.0 0.027462033998943324 0.02413934314781847 -0.023091987494486963 -0.0010473556533314948 0.0018875151363063327 0.0 0.0
0.0 0.017825330185739105 0.01578055783554516 -0.01483157262244248 -0.0009489852131026822 0.0011745512907728826 0.0 0.0
0.0 0.010396900565073978 0.009326449123806993 -0.00849534674600669 -0.0008311023778003144 0.0005986198021061201 0.0 0.0
0.0 0.005168202832250897 0.004737585803984004 -0.004091078267806565 -0.0006465075361774352 0.0001886505803170305 0.0 0.0
0.0 0.002094562481218005 0.0018161239618812673 -0.0014488826562417943 -0.0003672413056394729 -5.344688820291761e-05 0.0 0.0
0.0 0.0005008534610618431 0.00039115823176245977 -0.0002881469790837475 -0.00010301125267871246 -5.241349400813316e-05 0.0 0.0
0.0 3.0318411727426817e-05 2.1921547720108166e-05 -1.5828862100985758e-05 -6.092685619122254e-06 -9.774462018586305e-06 0.0 0.0
0.0 -7.17309790017616e-05 -6.835038558138772e-05 6.070559893394435e-05 7.644786647443198e-06 7.280945463579909e-05 0.0 0.0
0.0 0.0037620731796005145 0.002698816737937338 -0.0016450245521169925 -0.0010537921858203474 0.005324868579442838 0.0 0.0
0.0 0.014752340627002938 0.011051781638580638 -0.014294767724182738 0.0032429860856020894 0.0004577923405377031 0.0 0.0
0.0 0.010981152632569513 0.008051466562001498 -0.010704154061570366 0.002652687499568862 -0.002879467225792906 0.0 0.0
0.0 0.002617393923022505 0.001663179313983767 -0.0009063991701657305 -0.0007567801438180376 -0.004436715715049326 0.0 0.0
0.0 -5.445291401794681e-07 3.1574445271221674e-07 -2.7761858148294775e-07 -3.81258712292656e-08 2.1208066120334857e-07 0.0 0.0
0.0 -2.5631504037055734e-06 -4.588437102840659e-06 3.699378630531018e-06 8.890584723095093e-07 3.491244176467619e-06 0.0 0.0
0.0 0.00021179728213282029 0.00017644398046209018 -0.000126425747403905 -5.001823305818552e-05 1.4634336774381003e-05 0.0 0.0
0.0 0.0014810215702387405 0.001228775037393252 -0.0009544592017022269 -0.00027431583569102454 -7.069134537967837e-05 0.0 0.0
0.0 0.0039845268944491705 0.003717987872279336 -0.0031448989146264164 -0.0005730889576529196 -0.0005482447943461052 0.0 0.0
0.0 0.00866262317401488 0.007777396142109057 -0.006998780960379855 -0.000778615181729196 -0.0013474787530625535 0.0 0.0
0.0 0.015298478306142232 0.013555910762767152 -0.012652934220729762 -0.0009029765420373865 -0.002455337951705406 0.0 0.0
0.0 0.024006324589207425 0.02104542237789161 -0.02004894128947856 -0.000996481088413068 -0.003801892669477984 0.0 0.0
0.0 0.03457800770598499 0.030138979751673563 -0.029052388217290153 -0.0010865915343833729 -0.005267946785642012 0.0 0.0
0.0 0.04676322494927631 0.040721852176493656 -0.03954120051079661 -0.0011806516656970298 -0.0067411889592439486 0.0 0.0
0.0 0.06083145581096703 0.05272481734305767 -0.05144707378989946 -0.001277743553158248 -0.0082117224804653 0.0 0.0
0.0 0.07603447940027823 0.06610835864464851 -0.06473745052540873 -0.0013709081192397365 -0.00975213518506251 0.0 0.0
0.0 0.09294851620068173 0.08073132268913094 -0.07928019777312117 -0.0014511249160099103 -0.011347718534978886 0.0 0.0
0.0 0.11091685501751172 0.09626971373123956 -0.09475976437874112 -0.001509949352498314 -0.012835915965684428 0.0 0.0
0.0 0.12927251001386275 0.1121337182412357 -0.11059074163929167 -0.001542976601944157 -0.013867926463679082 0.0 0.0
0.0 0.14693962019545487 0.12740426139086314 -0.12585900187705096 -0.001545259513812242 -0.013949852593507115 0.0 0.0
0.0 0.16241071466742407 0.14074747333500298 -0.13924882405519642 -0.001498649279806422 -0.012721016096726772 0.0 0.0
0.0 0.17364985211666387 0.15040024770636118 -0.1489789123127522 -0.0014213353936088017 -0.010135765125495492 0.0 0.0
0.0 0.17864841071533616 0.15427204535522324 -0.15307974877578426 -0.0011922965794389155 1.4079015731027766e-14 0.0 0.0
0.0 0.17364985211664083 0.15040024770633983 -0.1489789123127313 -0.0014213353936085194 0.010135765125527963 0.0 0.0
0.0 0.1624107146673746 0.14074747333495966 -0.13924882405515338 -0.0014986492798064039 0.012721016096760213 0.0 0.0
0.0 0.14693962019538948 0.12740426139080627 -0.12585900187699417 -0.0015452595138119552 0.013949852593526643 0.0 0.0
0.0 0.1292725100137865 0.11213371824117027 -0.11059074163922668 -0.0015429766019435917 0.013867926463681682 0.0 0.0
0.0 0.11091685501742643 0.09626971373116569 -0.09475976437866727 -0.0015099493524983855 0.012835915965677548 0.0 0.0
0.0 0.09294851620059819 0.08073132268905835 -0.07928019777304951 -0.0014511249160088526 0.011347718534974603 0.0 0.0
0.0 0.07603447940019632 0.06610835864457715 -0.06473745052533844 -0.0013709081192387086 0.009752135185057766 0.0 0.0
0.0 0.06083145581088727 0.05272481734298868 -0.05144707378983098 -0.0012777435531576978 0.008211722480456974 0.0 0.0
0.0 0.04676322494919663 0.04072185217642502 -0.0395412005107281 -0.001180651665696861 0.006741188959232534 0.0 0.0
0.0 0.034578007705918914 0.030138979751616123 -0.029052388217232814 -0.0010865915343833022 0.005267946785630261 0.0 0.0
0.0 0.02400632458915722 0.021045422377847477 -0.020048941289434765 -0.000996481088412695 0.0038018926694680303 0.0 0.0
0.0 0.015298478306101366 0.013555910762731176 -0.012652934220694441 -0.0009029765420367471 0.002455337951698202 0.0 0.0
0.0 0.008662623173987026 0.007777396142084547 -0.006998780960356149 -0.0007786151817283851 0.0013474787530570456 0.0 0.0
0.0 0.003984526894432738 0.0037179878722641197 -0.0031448989146125065 -0.0005730889576516148 0.0005482447943427534 0.0 0.0
0.0 0.0014810215702309533 0.0012287750373866418 -0.000954459201696891 -0.0002743158356897503 7.069134537888939e-05 0.0 0.0
0.0 0.0002117972821306059 0.00017644398046075808 -0.0001264257474029494 -5.001823305780878e-05 -1.4634336774243369e-05 0.0 0.0
0.0 -2.5631504035065906e-06 -4.588437102494961e-06 3.6993786302731223e-06 8.89058472221862e-07 -3.491244176375501e-06 0.0 0.0
0.0 -5.445291401736088e-07 3.15744452728257e-07 -2.776185814944971e-07 -3.8125871233760025e-08 -2.1208066119937442e-07 0.0 0.0
0.0 0.002617393923014306 0.0016631793139789504 -0.000906399170162516 -0.0007567801438164313 0.004436715715036819 0.0 0.0
0.0 0.010981152632546917 0.00805146656198476 -0.010704154061549162 0.002652687499564402 0.0028794672257739067 0.0 0.0
0.0 0.008311721683879909 0.0059345030348895746 -0.008056808352619509 0.0021223053177299197 -0.0031330842346964545 0.0 0.0
0.0 0.0018799385928506519 0.0011217257244471026 -0.0005947619145516574 -0.0005269638098954418 -0.0033320132903204 0.0 0.0
0.0 0.0 0.0 0.0 0.0 0.0 0.0 0.0
0.0 -9.238697410500448e-07 -1.2809690108208432e-06 1.0151234435537068e-06 2.658455672671333e-07 9.249315814141523e-07 0.0 0.0
0.0 6.52847449304454e-05 4.281796996458631e-05 -2.8542036036724144e-05 -1.427593392786188e-05 1.158788576839238e-05 0.0 0.0
0.0 0.0008615194258086831 0.0007550765874017819 -0.0005714095591741912 -0.00018366702822759012 -0.0001333399074029669 0.0 0.0
0.0 0.0031058348141295602 0.0027338512370971373 -0.0022552660389900626 -0.00047858519810707503 -0.0006868523041555609 0.0 0.0
0.0 0.006975125102594571 0.006248883055410029 -0.0055362822572845765 -0.0007126007981254542 -0.001815407639915051 0.0 0.0
0.0 0.01284444836416093 0.011323815156693897 -0.010474141846893709 -0.0008496733098001706 -0.0033320360887368434 0.0 0.0
0.0 0.0205491479957495 0.01792290469558164 -0.016981490077561022 -0.0009414146180206121 -0.005164993362540668 0.0 0.0
0.0 0.029825148977990622 0.025914443631308307 -0.02488958367843599 -0.0010248599528722875 -0.007146743447340091 0.0 0.0
0.0 0.04065939684122406 0.03517580581512738 -0.0340636462080408 -0.0011121596070865585 -0.009130440037937237 0.0 0.0
0.0 0.05268542800007989 0.04565837154318401 -0.044454817930744905 -0.001203553612439154 -0.01110003561480137 0.0 0.0
0.0 0.06646431413397903 0.05734157513343148 -0.05605168118972161 -0.0012898939437098376 -0.01312565877385217 0.0 0.0
0.0 0.08120464384195449 0.07015307727632698 -0.06878802111234085 -0.0013650561639860594 -0.015211017170578971 0.0 0.0
0.0 0.09687972583126328 0.08385045336260573 -0.08242646073800783 -0.0014239926245979047 -0.01717539897150493 0.0 0.0
0.0 0.11327844199452013 0.09795514019831542 -0.09649593335885605 -0.0014592068394593176 -0.018589799536281197 0.0 0.0
0.0 0.1291460333310912 0.11167251538127125 -0.110211337834519 -0.0014611775467521819 -0.018857148018908997 0.0 0.0
0.0 0.14313578126657747 0.12379086507358612 -0.12236695801840028 -0.0014239070551858844 -0.01735496112708679 0.0 0.0
0.0 0.15346122067095394 0.13276440911135215 -0.13139423024453378 -0.0013701788668186153 -0.013280111832849342 0.0 0.0
0.0 0.15845463333557294 0.13658332517210284 -0.1355338463612552 -0.0010494788108474373 1.901517138191977e-14 0.0 0.0
0.0 0.15346122067093101 0.1327644091113308 -0.13139423024451166 -0.0013701788668191877 0.013280111832893815 0.0 0.0
0.0 0.1431357812665381 0.12379086507355078 -0.12236695801836517 -0.001423907055185602 0.017354961127129677 0.0 0.0
0.0 0.12914603333103264 0.11167251538121992 -0.11021133783446761 -0.0014611775467523282 0.018857148018934195 0.0 0.0
0.0 0.11327844199445275 0.09795514019825727 -0.09649593335879852 -0.0014592068394587564 0.01858979953628555 0.0 0.0
0.0 0.0968797258311909 0.08385045336254303 -0.08242646073794559 -0.0014239926245973936 0.017175398971497086 0.0 0.0
0.0 0.08120464384188426 0.07015307727626555 -0.06878802111228065 -0.001365056163984951 0.015211017170572742 0.0 0.0
0.0 0.06646431413390741 0.05734157513336921 -0.056051681189659606 -0.001289893943709632 0.013125658773846428 0.0 0.0
0.0 0.0526854280000088 0.04565837154312301 -0.044454817930684426 -0.001203553612438547 0.011100035614790131 0.0 0.0
0.0 0.040659396841157394 0.03517580581506958 -0.034063646207983155 -0.0011121596070864598 0.009130440037921822 0.0 0.0
0.0 0.029825148977933962 0.025914443631259207 -0.02488958367838724 -0.0010248599528719523 0.007146743447326241 0.0 0.0
0.0 0.02054914799570439 0.01792290469554247 -0.016981490077522424 -0.0009414146180200359 0.005164993362526665 0.0 0.0
0.0 0.012844448364124671 0.011323815156662375 -0.010474141846862822 -0.0008496733097995438 0.0033320360887269997 0.0 0.0
0.0 0.006975125102571 0.006248883055388691 -0.005536282257264174 -0.0007126007981245108 0.0018154076399075193 0.0 0.0
0.0 0.003105834814113764 0.002733851237083804 -0.002255266038978233 -0.00047858519810557146 0.0006868523041510379 0.0 0.0
0.0 0.0008615194258030629 0.0007550765873974599 -0.0005714095591708187 -0.0001836670282266412 0.00013333990740203812 0.0 0.0
0.0 6.528474492944665e-05 4.281796996431511e-05 -2.8542036036562872e-05 -1.4275933927752252e-05 -1.1587885768097298e-05 0.0 0.0
0.0 -9.23869741529207e-07 -1.2809690109198337e-06 1.0151234436296801e-06 2.6584556729017483e-07 -9.249315814730823e-07 0.0 0.0
0.0 0.0 0.0 0.0 0.0 0.0 0.0 0.0
0.0 0.0018799385928434484 0.001121725724442943 -0.0005947619145488785 -0.000526963809894066 0.0033320132903093833 0.0 0.0
0.0 0.00831172168386068 0.005934503034874608 -0.0080568083526004 0.0021223053177257946 0.003133084234682611 0.0 0.0
0.0 0.006078475615459505 0.00431703995595804 -0.005966458669286214 0.0016494187133281755 -0.0026980787801962757 0.0 0.0
0.0 0.0015001740505164382 0.0007266945766403131 -0.00037391613674010846 -0.0003527784399002041 -0.0023671021613268796 0.0 0.0
0.0 0.0 0.0 0.0 0.0 0.0 0.0 0.0
0.0 -3.6650292598529935e-07 6.201996462168535e-08 -4.745338812409388e-08 -1.4566576497590118e-08 -3.73749766820867e-08 0.0 0.0
0.0 -1.701003756484208e-05 -6.2121216073040504e-06 6.267016062801413e-06 -5.489445549735421e-08 1.5799324917646217e-05 0.0 0.0
0.0 0.00046758883880345785 0.00037710738738726344 -0.0002783013490278048 -9.880603835945866e-05 -0.00011040417925966494 0.0 0.0
0.0 0.0022536100157895655 0.0018545317210457938 -0.001488260781338134 -0.000366270939707656 -0.0006951339514320583 0.0 0.0
0.0 0.005368171594732252 0.004764480322446157 -0.004134051833819416 -0.0006304284886267466 -0.0019619688014728153 0.0 0.0
0.0 0.010431025139365722 0.009112210067086792 -0.00832626279834706 -0.0007859472687397334 -0.0037967703604410803 0.0 0.0
0.0 0.01709060680120416 0.014801435070464154 -0.013921513103529489 -0.00087992196693466 -0.0059703740209654695 0.0 0.0
0.0 0.0251619095306153 0.02168041557589466 -0.02072234819055629 -0.0009580673853383742 -0.008308386135263173 0.0 0.0
0.0 0.03447771558631466 0.029619757909253308 -0.028581518386777527 -0.0010382395224757684 -0.010640880851734326 0.0 0.0
0.0 0.045035654290460095 0.03857593365800237 -0.037453381706790245 -0.0011225519512120929 -0.012952265704750533 0.0 0.0
0.0 0.05646246093249339 0.048567064200257005 -0.047363248166868405 -0.0012038160333885729 -0.015318497599025243 0.0 0.0
0.0 0.06934889636136965 0.05955365610224577 -0.05827953571426849 -0.0012741203879772685 -0.01772882725530803 0.0 0.0
0.0 0.08317369866825933 0.07137876523492798 -0.07004860138076952 -0.0013301638541584032 -0.01999244141206227 0.0 0.0
0.0 0.09728903994457568 0.08369306871075935 -0.08232462941181848 -0.0013684392989408726 -0.02171303721468396 0.0 0.0
0.0 0.11131857326599787 0.0958512029520078 -0.0944725066189713 -0.0013786963330366005 -0.02225644801074635 0.0 0.0
0.0 0.12396271128665799 0.10683987830017391 -0.10548599478982823 -0.0013538835103455238 -0.020656593117689245 0.0 0.0
0.0 0.13366106123469484 0.11532987770825666 -0.11401983672502118 -0.0013100409832353947 -0.015634591160565817 0.0 0.0
0.0 0.13882962828848205 0.1192210107819214 -0.11834428127114321 -0.0008767295107781961 2.2043131209237288e-14 0.0 0.0
0.0 0.13366106123467486 0.11532987770823712 -0.11401983672500121 -0.0013100409832358596 0.0156345911606166 0.0 0.0
0.0 0.12396271128662717 0.1068398783001448 -0.10548599478980011 -0.0013538835103445689 0.02065659311773722 0.0 0.0
0.0 0.11131857326594696 0.09585120295196278 -0.09447250661892591 -0.0013786963330369101 0.022256448010775406 0.0 0.0
0.0 0.09728903994451754 0.0836930687107092 -0.08232462941176902 -0.0013684392989401896 0.021713037214688882 0.0 0.0
0.0 0.08317369866819666 0.07137876523487377 -0.07004860138071554 -0.0013301638541581761 0.01999244141205242 0.0 0.0
0.0 0.06934889636130724 0.059553656102191634 -0.05827953571421486 -0.001274120387976709 0.017728827255299312 0.0 0.0
0.0 0.05646246093242948 0.04856706420020161 -0.047363248166813234 -0.0012038160333883356 0.015318497599017513 0.0 0.0
0.0 0.04503565429040035 0.03857593365795054 -0.037453381706739064 -0.001122551951211438 0.012952265704738546 0.0 0.0
0.0 0.03447771558626043 0.029619757909206467 -0.02858151838673124 -0.0010382395224752129 0.010640880851718035 0.0 0.0
0.0 0.025161909530566462 0.021680415575852964 -0.020722348190515136 -0.0009580673853378313 0.008308386135244721 0.0 0.0
0.0 0.017090606801163637 0.014801435070429506 -0.013921513103495249 -0.0008799219669342562 0.005970374020949155 0.0 0.0
0.0 0.010431025139334969 0.00911221006706012 -0.008326262798321011 -0.000785947268739106 0.003796770360429752 0.0 0.0
0.0 0.00536817159471251 0.004764480322428796 -0.00413405183380316 -0.0006304284886256389 0.0019619688014649267 0.0 0.0
0.0 0.0022536100157771024 0.001854531721035784 -0.0014882607813295266 -0.00036627093970625864 0.0006951339514275166 0.0 0.0
0.0 0.00046758883879973454 0.0003771073873847603 -0.0002783013490259524 -9.880603835880734e-05 0.00011040417925880624 0.0 0.0
0.0 -1.701003756507207e-05 -6.2121216069777894e-06 6.26701606254388e-06 -5.4894455566137146e-08 -1.5799324917118424e-05 0.0 0.0
0.0 -3.6650292582486205e-07 6.201996455339947e-08 -4.745338807245207e-08 -1.4566576480953882e-08 3.73749765896734e-08 0.0 0.0
0.0 0.0 0.0 0.0 0.0 0.0 0.0 0.0
0.0 0.001500174050509755 0.000726694576637087 -0.0003739161367379752 -0.00035277843989911013 0.002367102161317897 0.0 0.0
0.0 0.006078475615443468 0.004317039955945473 -0.0059664586692699225 0.0016494187133244396 0.002698078780186483 0.0 0.0
0.0 0.004412723810354947 0.0030280034681157727 -0.00425350494733115 0.0012255014792153746 -0.002115585008166749 0.0 0.0
0.0 0.0009018904987079905 0.0004448099266514212 -0.00022024880205169647 -0.00022456112459972411 -0.0015940199416169226 0.0 0.0
0.0 0.0 0.0 0.0 0.0 0.0 0.0 0.0
0.0 -4.15121720248544e-07 4.2271630597954324e-08 -3.2299802309084454e-08 -9.971828288869904e-09 -8.065029622508502e-08 0.0 0.0
0.0 -1.5813842862341444e-05 -1.2425636410153814e-05 9.951348191831936e-06 2.474288218321897e-06 1.783041811826256e-05 0.0 0.0
0.0 0.00015440353744758622 0.00014287447571993876 -0.00010230028161290198 -4.0574194107036855e-05 -6.198955366190466e-05 0.0 0.0
0.0 0.0012885921555038963 0.0011396086849431635 -0.0008899982858288033 -0.0002496103991143615 -0.0006296231450548444 0.0 0.0
0.0 0.0041365813221508 0.003357290708041636 -0.002838113067874346 -0.0005191776401672833 -0.00184176314438274 0.0 0.0
0.0 0.007953305498761293 0.0069500563982066174 -0.006244209375674489 -0.0007058470225321335 -0.0038215442899243975 0.0 0.0
0.0 0.013715014578692104 0.011710005328077634 -0.010901264057537661 -0.0008087412705399722 -0.006207496741805873 0.0 0.0
0.0 0.020512695083885202 0.017467996145989952 -0.0165839637773324 -0.0008840323686575434 -0.008743521363502772 0.0 0.0
0.0 0.028308088680113475 0.024084713106760594 -0.02312708503382459 -0.000957628072935988 -0.011269815482660213 0.0 0.0
0.0 0.03705245307961677 0.031520274700232734 -0.030485161991726725 -0.0010351127085060276 -0.013761355839615361 0.0 0.0
0.0 0.04686424827155307 0.0398098168942208 -0.03870051559563047 -0.0011093012985903352 -0.01629761107808874 0.0 0.0
0.0 0.05753286105377121 0.04897024782261565 -0.04779505894748451 -0.0011751888751311305 -0.018879299588441874 0.0 0.0
0.0 0.06898833153815813 0.05890847400530613 -0.05767924882850028 -0.0012292251768058285 -0.021305231769774134 0.0 0.0
0.0 0.08143832214704794 0.06937496132381094 -0.06810572074236017 -0.0012692405814507183 -0.02320887761921336 0.0 0.0
0.0 0.0935440002963398 0.07993255589087139 -0.07864062210249326 -0.0012919337883781972 -0.02401547783686293 0.0 0.0
0.0 0.10470841545116516 0.08983265175030805 -0.08854957163362297 -0.0012830801166850872 -0.022607920162078486 0.0 0.0
0.0 0.1139792202285852 0.09796013060308957 -0.09671614298223954 -0.0012439876208499324 -0.01729596732206056 0.0 0.0
0.0 0.11949391856132058 0.10201887497477738 -0.10134087836282239 -0.0006779966119549367 2.1749962941797207e-14 0.0 0.0
0.0 0.11397922022856813 0.09796013060307164 -0.096716142982221 -0.0012439876208506972 0.017295967322111864 0.0 0.0
0.0 0.10470841545113922 0.08983265175028245 -0.08854957163359797 -0.0012830801166845295 0.022607920162129008 0.0 0.0
0.0 0.0935440002962979 0.07993255589083388 -0.07864062210245526 -0.0012919337883785505 0.024015477836892313 0.0 0.0
0.0 0.081438322146999 0.06937496132376866 -0.06810572074231855 -0.0012692405814501476 0.023208877619218273 0.0 0.0
0.0 0.06898833153810577 0.058908474005261155 -0.05767924882845515 -0.0012292251768059965 0.021305231769765412 0.0 0.0
0.0 0.05753286105371665 0.04897024782256867 -0.047795058947437526 -0.0011751888751311407 0.01887929958843112 0.0 0.0
0.0 0.04686424827150075 0.03980981689417507 -0.03870051559558535 -0.0011093012985897287 0.01629761107807911 0.0 0.0
0.0 0.037052453079566006 0.03152027470018927 -0.030485161991683902 -0.0010351127085053487 0.01376135583960281 0.0 0.0
0.0 0.028308088680068115 0.024084713106721913 -0.02312708503378641 -0.0009576280729355003 0.011269815482643695 0.0 0.0
0.0 0.020512695083843163 0.017467996145954755 -0.01658396377729821 -0.0008840323686565509 0.008743521363482084 0.0 0.0
0.0 0.013715014578658636 0.011710005328049214 -0.010901264057509586 -0.0008087412705396174 0.006207496741788357 0.0 0.0
0.0 0.007953305498736464 0.0069500563981849065 -0.006244209375653679 -0.0007058470225312346 0.003821544289911987 0.0 0.0
0.0 0.0041365813221338485 0.0033572907080280014 -0.0028381130678618626 -0.0005191776401661363 0.001841763144375091 0.0 0.0
0.0 0.0012885921554954647 0.0011396086849365492 -0.0008899982858233801 -0.00024961039911316964 0.0006296231450506417 0.0 0.0
0.0 0.00015440353744504643 0.000142874475718366 -0.00010230028161176722 -4.057419410659868e-05 6.198955366101602e-05 0.0 0.0
0.0 -1.5813842862625983e-05 -1.2425636409557129e-05 9.951348191379495e-06 2.4742882181776046e-06 -1.7830418117599422e-05 0.0 0.0
0.0 -4.1512172008188116e-07 4.227163060150367e-08 -3.2299802311726066e-08 -9.971828289774474e-09 8.065029622417837e-08 0.0 0.0
0.0 0.0 0.0 0.0 0.0 0.0 0.0 0.0
0.0 0.0009018904987026799 0.00044480992664903474 -0.00022024880205012644 -0.00022456112459890817 0.0015940199416098685 0.0 0.0
0.0 0.004412723810342354 0.0030280034681059147 -0.0042535049473180235 0.0012255014792121072 0.002115585008159892 0.0 0.0
0.0 0.002910305379349751 0.002011902984921261 -0.002864516326962574 0.0008526133420413098 -0.001572556510909513 0.0 0.0
0.0 0.0005481713073406773 0.00023259843325572875 -9.906052428477682e-05 -0.00013353790897095136 -0.0009650692824722187 0.0 0.0
0.0 3.547722962352453e-07 -4.760043067899587e-09 4.283870871274896e-09 4.761721966247399e-10 7.118613590585807e-08 0.0 0.0
0.0 -3.9933846218285653e-07 2.3010864123224606e-08 -1.7665084308602554e-08 -5.345779814626124e-09 -7.114747973550936e-08 0.0 0.0
0.0 -5.583597106203095e-06 -4.079462221334731e-06 3.246553528242472e-06 8.32908693092304e-07 8.914620197894051e-06 0.0 0.0
0.0 1.1007137330242423e-05 1.2401218651644288e-05 -6.3110739852618446e-06 -6.090144666382403e-06 1.0709077695098587e-05 0.0 0.0
0.0 0.0007050991136547245 0.0005687028352938926 -0.0004339019278374093 -0.0001348009074564835 -0.0004563695192259068 0.0 0.0
0.0 0.002528150332830197 0.002138586148398114 -0.0017550874726944869 -0.0003834986757036283 -0.0015847123699569575 0.0 0.0
0.0 0.006122498851365954 0.004865833694145725 -0.004270701280654371 -0.000595132413491353 -0.0034223521331834842 0.0 0.0
0.0 0.010268770645445046 0.00868517170484984 -0.00796498121484074 -0.000720190490009104 -0.005847718880273568 0.0 0.0
0.0 0.015932310702380853 0.013310415166766005 -0.012511725701102355 -0.0007986894656636572 -0.008433721903739323 0.0 0.0
0.0 0.022245545891384437 0.018602624704474637 -0.017735349338470242 -0.0008672753660043958 -0.011001995480144352 0.0 0.0
0.0 0.029257456685704862 0.02452226660832882 -0.023584658266195158 -0.0009376083421336495 -0.013515021888389898 0.0 0.0
0.0 0.037064040200241 0.031119557525019017 -0.030114203362911415 -0.001005354162107632 -0.016054520751908507 0.0 0.0
0.0 0.04566282765466885 0.038445200340026194 -0.0373793743602648 -0.0010658259797613765 -0.018629917948507914 0.0 0.0
0.0 0.05533832159135731 0.04647043552170176 -0.04535500951030072 -0.0011154260114010774 -0.021078366703014648 0.0 0.0
0.0 0.06500182686954697 0.055053241259833886 -0.05389461179296739 -0.0011586294668665584 -0.023046381740769763 0.0 0.0
0.0 0.07548214200125901 0.06393157090256796 -0.06273526146362321 -0.0011963094389446257 -0.024062000473298036 0.0 0.0
0.0 0.08566427773962114 0.07269181681935857 -0.07148499132103658 -0.0012068254983220272 -0.02311184409337286 0.0 0.0
0.0 0.09441528821992187 0.08050729854075414 -0.0793339532276075 -0.00117334531314668 -0.01823151923599011 0.0 0.0
0.0 0.10048312810650578 0.08481643573918256 -0.08436424145852046 -0.00045219428066216663 2.121133130250641e-14 0.0 0.0
0.0 0.09441528821990693 0.08050729854073768 -0.07933395322759014 -0.0011733453131475336 0.01823151923603966 0.0 0.0
0.0 0.08566427773960027 0.07269181681933684 -0.07148499132101493 -0.0012068254983218906 0.023111844093423622 0.0 0.0
0.0 0.0754821420012255 0.063931570902537 -0.06273526146359254 -0.0011963094389444739 0.024062000473327346 0.0 0.0
0.0 0.06500182686950635 0.05505324125979929 -0.053894611792933034 -0.0011586294668662453 0.023046381740773038 0.0 0.0
0.0 0.05533832159131462 0.04647043552166503 -0.04535500951026457 -0.0011154260114004902 0.021078366703004343 0.0 0.0
0.0 0.045662827654627244 0.038445200339990084 -0.037379374360228895 -0.0010658259797611655 0.018629917948497228 0.0 0.0
0.0 0.03706404020019797 0.03111955752498185 -0.030114203362874625 -0.0010053541621072154 0.01605452075189744 0.0 0.0
0.0 0.02925745668566348 0.024522266608293975 -0.023584658266160505 -0.000937608342133485 0.013515021888376937 0.0 0.0
0.0 0.022245545891347567 0.018602624704443925 -0.017735349338439992 -0.0008672753660039504 0.011001995480128101 0.0 0.0
0.0 0.015932310702347054 0.01331041516673846 -0.012511725701075518 -0.0007986894656629437 0.008433721903718615 0.0 0.0
0.0 0.010268770645417776 0.0086851717048274 -0.007964981214818707 -0.0007201904900086994 0.00584771888025596 0.0 0.0
0.0 0.006122498851344622 0.004865833694129098 -0.004270701280638704 -0.0005951324134903858 0.0034223521331718156 0.0 0.0
0.0 0.0025281503328177415 0.0021385861483880705 -0.001755087472685662 -0.0003834986757024067 0.0015847123699498028 0.0 0.0
0.0 0.0007050991136482931 0.0005687028352894747 -0.00043390192783393993 -0.00013480090745553468 0.00045636951922206853 0.0 0.0
0.0 1.1007137329156017e-05 1.240121865136475e-05 -6.31107398506983e-06 -6.0901446662950906e-06 -1.0709077695147296e-05 0.0 0.0
0.0 -5.5835971070590755e-06 -4.079462221307038e-06 3.246553528216131e-06 8.329086930909076e-07 -8.914620197758955e-06 0.0 0.0
0.0 -3.9933846203843063e-07 2.3010864114477826e-08 -1.766508430182229e-08 -5.345779812654833e-09 7.114747970917023e-08 0.0 0.0
0.0 3.5477229582550476e-07 -4.760043062279326e-09 4.283870866217358e-09 4.761721960621147e-10 -7.118613582206866e-08 0.0 0.0
0.0 0.0005481713073365827 0.00023259843325401292 -9.906052428365115e-05 -0.00013353790897036188 0.0009650692824666517 0.0 0.0
0.0 0.002910305379339993 0.002011902984913688 -0.0028645163269521985 0.0008526133420385128 0.0015725565109045267 0.0 0.0
0.0 0.002185972798889352 0.0011847213875260333 -0.0017060600230006879 0.0005213386354746538 -0.0010443128357012857 0.0 0.0
0.0 0.0001905211016611199 9.242503517636816e-05 -2.27518642904097e-05 -6.967317088595844e-05 -0.0004937037648428815 0.0 0.0
0.0 3.1729105385705564e-07 7.352369230273244e-09 -8.266148638911048e-09 9.137794086384652e-10 -1.310644871897517e-07 0.0 0.0
0.0 -7.31920891719591e-07 2.6334162546153862e-08 -2.0276738449999008e-08 -6.057424096155143e-09 -1.6118446091937734e-07 0.0 0.0
0.0 -3.6238668335956365e-06 -2.3726229826381983e-06 1.8759344924499264e-06 4.966884901882768e-07 8.097950960443777e-06 0.0 0.0
0.0 -2.5898630166803757e-05 -1.6122673638495526e-05 1.3429071779395466e-05 2.693601859100046e-06 3.6234902013222035e-05 0.0 0.0
0.0 0.00026147549350135073 0.0001903701849452898 -0.0001424742602890665 -4.789592465622318e-05 -0.00024010932341353777 0.0 0.0
0.0 0.0013851500763805082 0.0011169759763567217 -0.0008909671212854511 -0.00022600885507127058 -0.0011792624580962657 0.0 0.0
0.0 0.003739256599548614 0.0029904524156757007 -0.0025464453440546962 -0.0004440070716210032 -0.002753197785423869 0.0 0.0
0.0 0.007421500439570755 0.0057689777367184985 -0.005173260457443683 -0.0005957172792748097 -0.004902941392093431 0.0 0.0
0.0 0.011446578888325102 0.009246193106062601 -0.008557290621188486 -0.0006889024848741095 -0.007355217715758712 0.0 0.0
0.0 0.01620692228586411 0.013215924758135855 -0.012457076615859116 -0.0007588481422767496 -0.009801664986310524 0.0 0.0
0.0 0.021559542150566244 0.017627776297226186 -0.016803753630283802 -0.0008240226669423653 -0.012186593515548587 0.0 0.0
0.0 0.027442761891585545 0.022538865772647507 -0.021654685018430226 -0.0008841807542172746 -0.014565316496437388 0.0 0.0
0.0 0.03408421090712229 0.028026322153233568 -0.02708727968978093 -0.0009390424634526286 -0.016970039707522765 0.0 0.0
0.0 0.04129824756122461 0.03412762819372563 -0.033141718746626546 -0.0009859094470990406 -0.019282096461932335 0.0 0.0
0.0 0.049308505516723056 0.04077355087805288 -0.0397463901868788 -0.0010271606911740796 -0.021191599064850138 0.0 0.0
0.0 0.05750348094137296 0.047874040936300474 -0.04679614745342095 -0.0010778934828795104 -0.02229580744527806 0.0 0.0
0.0 0.0659201103955222 0.05536219066961341 -0.05424319746379447 -0.0011189932058189404 -0.021973263086083123 0.0 0.0
0.0 0.07444588906054554 0.06281791288859372 -0.06171783136396611 -0.0011000815246276143 -0.018302985555080094 0.0 0.0
0.0 0.08134647645481034 0.06744523913216535 -0.06725052183509257 -0.000194717297072839 1.8370721610594387e-14 0.0 0.0
0.0 0.07444588906053808 0.06281791288858267 -0.06171783136395429 -0.0011000815246282752 0.018302985555126203 0.0 0.0
0.0 0.06592011039550677 0.0553621906695956 -0.0542431974637768 -0.001118993205818842 0.021973263086132247 0.0 0.0
0.0 0.05750348094134609 0.04787404093627556 -0.04679614745339615 -0.0010778934828794217 0.022295807445303385 0.0 0.0
0.0 0.04930850551668926 0.04077355087802425 -0.03974639018685098 -0.001027160691173234 0.021191599064850554 0.0 0.0
0.0 0.04129824756119085 0.034127628193697364 -0.033141718746598506 -0.0009859094470988897 0.019282096461920643 0.0 0.0
0.0 0.03408421090708939 0.028026322153205538 -0.027087279689753326 -0.0009390424634522035 0.016970039707511205 0.0 0.0
0.0 0.027442761891554233 0.022538865772621135 -0.02165468501840372 -0.0008841807542174291 0.01456531649642816 0.0 0.0
0.0 0.021559542150536633 0.017627776297201705 -0.01680375363025966 -0.0008240226669420298 0.01218659351553731 0.0 0.0
0.0 0.01620692228583555 0.01321592475811242 -0.012457076615836072 -0.0007588481422763436 0.0098016649862943 0.0 0.0
0.0 0.01144657888829892 0.009246193106042135 -0.008557290621168724 -0.000688902484873397 0.007355217715739857 0.0 0.0
0.0 0.007421500439548573 0.005768977736701462 -0.005173260457427017 -0.0005957172792744425 0.004902941392077068 0.0 0.0
0.0 0.0037392565995346843 0.002990452415664875 -0.0025464453440448747 -0.00044400707162000084 0.002753197785414851 0.0 0.0
0.0 0.0013851500763721668 0.0011169759763504346 -0.0008909671212801551 -0.00022600885507027978 0.0011792624580901057 0.0 0.0
0.0 0.00026147549349779623 0.00019037018494289385 -0.0001424742602872135 -4.7895924655680157e-05 0.0002401093234105289 0.0 0.0
0.0 -2.5898630167040855e-05 -1.6122673637820848e-05 1.3429071778869e-05 2.693601858951885e-06 -3.62349020117236e-05 0.0 0.0
0.0 -3.6238668341316394e-06 -2.3726229826788246e-06 1.8759344924823369e-06 4.966884901964793e-07 -8.097950960645632e-06 0.0 0.0
0.0 -7.319208920504316e-07 2.6334162556458045e-08 -2.027673845709278e-08 -6.0574240993651674e-09 1.61184461050435e-07 0.0 0.0
0.0 3.1729105369889224e-07 7.352369257935899e-09 -8.266148666917398e-09 9.137794089819007e-10 1.310644877905827e-07 0.0 0.0
0.0 0.00019052110165829883 9.242503517527236e-05 -2.275186428970378e-05 -6.967317088556852e-05 0.0004937037648386893 0.0 0.0
0.0 0.0021859727988802506 0.0011847213875205162 -0.0017060600229928862 0.0005213386354723698 0.001044312835697462 0.0 0.0
0.0 0.0010634228841610394 0.000619342129371999 -0.0009015687331710971 0.0002822266037990986 -0.0006698931234986297 0.0 0.0
0.0 3.621563592450566e-05 6.500092510489865e-06 2.6814217944450462e-05 -3.3314310454940435e-05 -0.00015779624524182344 0.0 0.0
0.0 2.001952649209945e-06 -1.6550962398641236e-09 1.0244608737673292e-08 -8.589512497808254e-09 4.83448223400802e-07 0.0 0.0
0.0 1.7215871128440942e-06 -1.8442588407024047e-08 1.2552963931359911e-08 5.88962447566399e-09 4.109497620673084e-07 0.0 0.0
0.0 -4.671173652537377e-06 -1.4240994676535212e-06 1.103384858687973e-06 3.207146089655471e-07 8.29419553866207e-06 0.0 0.0
0.0 -2.105187291716795e-05 -7.329181213742484e-06 6.039175865737339e-06 1.290005348005146e-06 2.0654166495558896e-05 0.0 0.0
0.0 5.972066242903932e-05 1.6801763580079676e-05 -1.1785022294668563e-05 -5.016741285411186e-06 -5.77005741682233e-05 0.0 0.0
0.0 0.0006209423881566519 0.0003631298053047548 -0.00028692384173537245 -7.62059635693829e-05 -0.0006489689299070542 0.0 0.0
0.0 0.001929944814305392 0.0013774200446149867 -0.001139997354839303 -0.0002374226897756832 -0.0018677410088063348 0.0 0.0
0.0 0.004232403522894205 0.003096978996168588 -0.0026951821308709347 -0.0004017968652976514 -0.003533831837225042 0.0 0.0
0.0 0.006991334424279474 0.005363438322942701 -0.004842468154634085 -0.0005209701683086158 -0.005554736234816163 0.0 0.0
0.0 0.010343795317146996 0.007986810685499486 -0.007384735084177213 -0.0006020756013222674 -0.007655203757832504 0.0 0.0
0.0 0.013994053499650431 0.010898163497081892 -0.010228313391660023 -0.0006698501054218697 -0.009758554259502167 0.0 0.0
0.0 0.01801285108167441 0.014137712942891298 -0.01341213302845407 -0.0007255799144372263 -0.011844647772371878 0.0 0.0
0.0 0.022558550506540185 0.01778896789840081 -0.017013850023755623 -0.0007751178746452153 -0.013921599171023324 0.0 0.0
0.0 0.02771642331696336 0.02194186859487423 -0.021121503682186973 -0.000820364912687245 -0.015962515020987545 0.0 0.0
0.0 0.033434930963102134 0.026629644883577257 -0.025766464312478643 -0.0008631805710985746 -0.017750207122168234 0.0 0.0
0.0 0.03948100751922482 0.03185437543103491 -0.030940039077500696 -0.0009143363535342603 -0.0188621210990365 0.0 0.0
0.0 0.046323104039311745 0.03781868258432491 -0.036830851762724354 -0.0009878308216005262 -0.018958552701510825 0.0 0.0
0.0 0.05440155927588624 0.044715475564535805 -0.043697471464226346 -0.0010180041003094741 -0.017134783065208693 0.0 0.0
0.0 0.06216842276150494 0.049710897615301314 -0.049808120463127326 9.722284782595435e-05 1.5105104667068048e-14 0.0 0.0
0.0 0.054401559275884845 0.04471547556452908 -0.04369747146421887 -0.0010180041003101643 0.017134783065248994 0.0 0.0
0.0 0.046323104039301274 0.03781868258431142 -0.03683085176271113 -0.0009878308216002196 0.018958552701553215 0.0 0.0
0.0 0.039481007519206766 0.031854375431018385 -0.030940039077484344 -0.0009143363535340262 0.018862121099057688 0.0 0.0
0.0 0.03343493096307572 0.02662964488355681 -0.025766464312458333 -0.0008631805710984676 0.01775020712216334 0.0 0.0
0.0 0.027716423316939964 0.021941868594855116 -0.02112150368216785 -0.0008203649126872411 0.01596251502097666 0.0 0.0
0.0 0.02255855050651754 0.017788967898382423 -0.017013850023737682 -0.0007751178746447482 0.013921599171012471 0.0 0.0
0.0 0.01801285108165608 0.014137712942875798 -0.013412133028439402 -0.0007255799144364039 0.01184464777236632 0.0 0.0
0.0 0.013994053499631703 0.01089816349706676 -0.010228313391645235 -0.0006698501054215343 0.009758554259493013 0.0 0.0
0.0 0.010343795317126748 0.007986810685484557 -0.00738473508416246 -0.0006020756013220936 0.007655203757818905 0.0 0.0
0.0 0.006991334424263091 0.005363438322930689 -0.004842468154622415 -0.0005209701683082713 0.00555473623480127 0.0 0.0
0.0 0.004232403522879552 0.003096978996158058 -0.00269518213086112 -0.0004017968652969391 0.003533831837213252 0.0 0.0
0.0 0.0019299448142976112 0.0013774200446095282 -0.0011399973548345313 -0.00023742268977499604 0.0018677410088001442 0.0 0.0
0.0 0.0006209423881522187 0.00036312980530207254 -0.0002869238417331654 -7.620596356890696e-05 0.0006489689299028831 0.0 0.0
0.0 5.972066242683186e-05 1.6801763579872773e-05 -1.1785022294503408e-05 -5.0167412853693465e-06 5.770057416735319e-05 0.0 0.0
0.0 -2.105187291767136e-05 -7.329181213507739e-06 6.039175865551207e-06 1.2900053479565011e-06 -2.0654166494294204e-05 0.0 0.0
0.0 -4.671173652654698e-06 -1.4240994675636273e-06 1.103384858617025e-06 3.207146089466128e-07 -8.294195537889078e-06 0.0 0.0
0.0 1.7215871123295466e-06 -1.8442588438467832e-08 1.255296395672104e-08 5.889624481747663e-09 -4.109497622077214e-07 0.0 0.0
0.0 2.0019526491207633e-06 -1.655096221940818e-09 1.0244608716008092e-08 -8.589512494066878e-09 -4.834482228272607e-07 0.0 0.0
0.0 3.62156359223674e-05 6.500092510166879e-06 2.6814217944564513e-05 -3.3314310454731265e-05 0.00015779624524008622 0.0 0.0
0.0 0.0010634228841550012 0.0006193421293687046 -0.000901568733166347 0.00028222660379764194 0.0006698931234958481 0.0 0.0
0.0 0.0004664734060080939 0.0002323272245556894 -0.00034064792386812254 0.00010832069931243323 -0.0003098809225085693 0.0 0.0
0.0 -3.5293422372490386e-05 -2.1199376400358037e-05 3.431922934735243e-05 -1.3119852946994382e-05 1.1075040453985075e-05 0.0 0.0
0.0 4.1246076582343694e-07 4.516086577322068e-09 -7.778380631925382e-09 3.2622940546044144e-09 1.1584587005271668e-08 0.0 0.0
0.0 4.067040796037118e-07 -8.050984126036504e-09 3.2462914220341443e-09 4.804692704000219e-09 8.623072690538302e-08 0.0 0.0
0.0 -3.579745476490034e-06 -4.925066877121434e-07 3.9182773007879276e-07 1.0067895763335905e-07 6.386703243257776e-06 0.0 0.0
0.0 -9.755850551494476e-06 -3.484902628985103e-06 2.8764613466042645e-06 6.084412823808093e-07 2.0922292752165663e-05 0.0 0.0
0.0 3.134255545905897e-05 -2.2139183425138207e-06 2.0060036139303605e-06 2.0791472858348223e-07 -3.2940956317654934e-05 0.0 0.0
0.0 0.00017117416343108516 2.6167150646280036e-05 -2.2068235530577365e-05 -4.098915115702706e-06 -0.00025658998647099413 0.0 0.0
0.0 0.0006148311149197495 0.000233081121305225 -0.0002043634630966343 -2.8717658208590333e-05 -0.00088049512546042 0.0 0.0
0.0 0.0015798811706826607 0.0008211936825646258 -0.0007323069687940268 -8.888671377060016e-05 -0.001972588426965181 0.0 0.0
0.0 0.0031973927569409334 0.0018289052777608191 -0.0016517737706633815 -0.00017713150709743565 -0.003386158726496394 0.0 0.0
0.0 0.004890290748060457 0.003088453580178664 -0.00282892272519647 -0.00025953085498219816 -0.00497671905953739 0.0 0.0
0.0 0.006916748464526461 0.0044940219785402575 -0.00415959973431804 -0.0003344222442222109 -0.006635423414701758 0.0 0.0
0.0 0.009209967259000073 0.006076568060374136 -0.005677401851383004 -0.0003991662089911264 -0.008355937489930266 0.0 0.0
0.0 0.011785368171618014 0.007903592391465528 -0.007445071145468202 -0.00045852124599732433 -0.010135407908811825 0.0 0.0
0.0 0.014788026076563949 0.010087608856690645 -0.009570543286211314 -0.0005170655704793282 -0.011969897555580214 0.0 0.0
0.0 0.018391866509207343 0.012774760905478546 -0.012196280919582872 -0.0005784799858956703 -0.013738077547179445 0.0 0.0
0.0 0.022655145091786184 0.016096176236945137 -0.015455307616318524 -0.0006408686206266082 -0.01499142840299641 0.0 0.0
0.0 0.02754830641005322 0.020284636267042175 -0.019566562259105465 -0.0007180740079367325 -0.015149869171825873 0.0 0.0
0.0 0.034019308135048346 0.02611232998463053 -0.025254394014913046 -0.0008579359697174574 -0.014435389521493966 0.0 0.0
0.0 0.04392834048619827 0.03139632139581354 -0.031837615419952656 0.0004412940241391141 1.2983537855948413e-14 0.0 0.0
0.0 0.03401930813505218 0.0261123299846273 -0.02525439401490936 -0.0008579359697179552 0.014435389521527701 0.0 0.0
0.0 0.027548306410050565 0.020284636267036523 -0.01956656225909995 -0.0007180740079365874 0.01514986917185817 0.0 0.0
0.0 0.022655145091771942 0.01609617623693425 -0.015455307616307751 -0.0006408686206264975 0.014991428403007295 0.0 0.0
0.0 0.01839186650919332 0.012774760905470561 -0.012196280919575406 -0.0005784799858951786 0.013738077547173232 0.0 0.0
0.0 0.014788026076547752 0.010087608856679645 -0.009570543286200352 -0.0005170655704792908 0.01196989755556733 0.0 0.0
0.0 0.011785368171609021 0.0079035923914591 -0.007445071145461476 -0.00045852124599762243 0.010135407908804114 0.0 0.0
0.0 0.00920996725898731 0.006076568060365493 -0.005677401851375002 -0.0003991662089904999 0.008355937489923177 0.0 0.0
0.0 0.006916748464514469 0.004494021978532829 -0.004159599734311093 -0.000334422244221737 0.006635423414692162 0.0 0.0
0.0 0.004890290748048731 0.003088453580171538 -0.002828922725189882 -0.000259530854981657 0.004976719059526212 0.0 0.0
0.0 0.00319739275693259 0.0018289052777562653 -0.0016517737706592628 -0.00017713150709700165 0.003386158726486734 0.0 0.0
0.0 0.0015798811706758738 0.0008211936825611353 -0.0007323069687907134 -8.888671377042253e-05 0.001972588426958551 0.0 0.0
0.0 0.0006148311149167685 0.0002330811213037427 -0.00020436346309534999 -2.871765820839222e-05 0.0008804951254564259 0.0 0.0
0.0 0.00017117416342936966 2.6167150645962937e-05 -2.2068235530309712e-05 -4.098915115653311e-06 0.0002565899864688546 0.0 0.0
0.0 3.134255545803284e-05 -2.21391834245758e-06 2.0060036138767806e-06 2.0791472858080645e-07 3.294095631755034e-05 0.0 0.0
0.0 -9.755850552313662e-06 -3.4849026289051683e-06 2.8764613465436457e-06 6.084412823615194e-07 -2.0922292751329438e-05 0.0 0.0
0.0 -3.5797454767784512e-06 -4.925066877089243e-07 3.918277300822816e-07 1.0067895762663971e-07 -6.386703242958302e-06 0.0 0.0
0.0 4.067040793354186e-07 -8.050984140124914e-09 3.2462914368697345e-09 4.804692703256005e-09 -8.62307264657528e-08 0.0 0.0
0.0 4.1246076616980697e-07 4.5160865838706464e-09 -7.778380654468251e-09 3.262294070593616e-09 -1.1584585882159838e-08 0.0 0.0
0.0 -3.529342237321783e-05 -2.1199376400204518e-05 3.4319229347087425e-05 -1.3119852946882873e-05 -1.1075040454251323e-05 0.0 0.0
0.0 0.0004664734060039694 0.00023232722455380456 -0.00034064792386540277 0.00010832069931159774 0.00030988092250629787 0.0 0.0
0.0 7.292320579358597e-05 4.2368384206580564e-05 -6.379718446600525e-05 2.142880025942465e-05 -6.866685303897408e-05 0.0 0.0
0.0 -1.3065688655985962e-05 -7.467307180375303e-06 1.04575617885092e-05 -2.990254608133887e-06 1.4957899151381356e-05 0.0 0.0
0.0 3.618938895758617e-06 6.411963756697536e-08 -3.655756804782614e-08 -2.7562069519154634e-08 1.8067693711671393e-06 0.0 0.0
0.0 1.2541013352034093e-06 -1.9601970043511744e-08 1.2108559774054634e-08 7.493410269460594e-09 -6.787774863685018e-08 0.0 0.0
0.0 -1.8544104983574934e-06 -4.2897871312669136e-08 4.585033828807871e-08 -2.9524669754097655e-09 3.36133231731803e-06 0.0 0.0
0.0 -2.4363261252200575e-06 -6.044187076141548e-07 6.32418850795374e-07 -2.8000143181219376e-08 1.2212426321040201e-05 0.0 0.0
0.0 4.124845006000962e-05 -1.2032813474046789e-06 1.1770933301326804e-06 2.6188017271989775e-08 -4.754300456846772e-05 0.0 0.0
0.0 0.00014489188459437103 -8.755809308067511e-07 8.387157609678405e-07 3.6865169838929076e-08 -0.00024742563561951016 0.0 0.0
0.0 0.00035569512186582283 -1.3264230916444368e-07 1.1989412071388293e-07 1.2748188450567314e-08 -0.0005361231948542961 0.0 0.0
0.0 0.0005810854092639843 6.377301457570613e-08 -2.7954956315963685e-08 -3.5818058259852565e-08 -0.001064272132522318 0.0 0.0
0.0 0.0010430956645290882 3.5061866602399076e-07 -6.145683975909889e-07 2.639497315670659e-07 -0.0019033870636383727 0.0 0.0
0.0 0.001573660806226089 -3.816712906159906e-06 5.482846827455936e-06 -1.6661339212957184e-06 -0.003193134394961159 0.0 0.0
0.0 0.002501564114171311 -1.46010202054701e-05 1.789278094309685e-05 -3.2917607376260164e-06 -0.0047196798164023486 0.0 0.0
0.0 0.0036174078918500994 -2.7763663899421805e-05 3.081376630721623e-05 -3.050102407793406e-06 -0.006362865633284842 0.0 0.0
0.0 0.004891345869741134 5.601069254242033e-06 -1.1218300391595943e-05 5.617231137353693e-06 -0.00812461970814017 0.0 0.0
0.0 0.006289390266185289 0.0002083851229707929 -0.00023688746268999273 2.850233971920068e-05 -0.01001254658329703 0.0 0.0
0.0 0.007866398128196147 0.000810506619009182 -0.0008833523386761229 7.284571966694085e-05 -0.011970690600347379 0.0 0.0
0.0 0.009561680430098096 0.0020294363069684974 -0.002218617545907453 0.00018918123893895103 -0.013830175269126804 0.0 0.0
0.0 0.011955208691499047 0.0035839709352774034 -0.0039503858119709105 0.00036641487669350904 -0.015191861174643802 0.0 0.0
0.0 0.017476814421780854 0.00737983255990806 -0.00716395040814317 -0.0002158821517648861 -0.01540476387493336 0.0 0.0
0.0 0.030823909481549092 0.013307087555692057 -0.014285994675545663 0.0009789071198536027 1.0441300601904402e-14 0.0 0.0
0.0 0.017476814421788858 0.00737983255990896 -0.00716395040814339 -0.00021588215176556038 0.015404763874956737 0.0 0.0
0.0 0.01195520869149541 0.0035839709352761297 -0.0039503858119699494 0.00036641487669381614 0.015191861174649908 0.0 0.0
0.0 0.009561680430084988 0.0020294363069662566 -0.0022186175459054432 0.00018918123893918806 0.013830175269121158 0.0 0.0
0.0 0.007866398128186017 0.0008105066190104754 -0.0008833523386779099 7.284571966743658e-05 0.01197069060033722 0.0 0.0
0.0 0.006289390266176884 0.00020838512297175166 -0.00023688746269098066 2.8502339719229763e-05 0.010012546583286482 0.0 0.0
0.0 0.004891345869734512 5.601069256160962e-06 -1.1218300393422823e-05 5.61723113725953e-06 0.008124619708131905 0.0 0.0
0.0 0.0036174078918415203 -2.7763663897117387e-05 3.081376630487381e-05 -3.050102407755188e-06 0.006362865633276222 0.0 0.0
0.0 0.0025015641141606457 -1.4601020203431042e-05 1.7892780940919337e-05 -3.2917607374883227e-06 0.004719679816388501 0.0 0.0
0.0 0.0015736608062184084 -3.81671290593469e-06 5.482846827294986e-06 -1.6661339213604724e-06 0.003193134394950157 0.0 0.0
0.0 0.0010430956645231108 3.5061866637901276e-07 -6.145683978935355e-07 2.639497315145092e-07 0.0019033870636308678 0.0 0.0
0.0 0.0005810854092637491 6.377301446171583e-08 -2.7954956247032143e-08 -3.581805821449734e-08 0.001064272132520581 0.0 0.0
0.0 0.0003556951218641253 -1.326423091248038e-07 1.198941206827155e-07 1.2748188441984965e-08 0.0005361231948517343 0.0 0.0
0.0 0.00014489188459319776 -8.755809307918519e-07 8.387157610009173e-07 3.686516979093627e-08 0.0002474256356174521 0.0 0.0
0.0 4.124845005896019e-05 -1.2032813474335455e-06 1.1770933301601378e-06 2.6188017273425522e-08 4.7543004568335695e-05 0.0 0.0
0.0 -2.436326125913594e-06 -6.044187076259484e-07 6.324188508043677e-07 -2.800014317842527e-08 -1.2212426320006787e-05 0.0 0.0
0.0 -1.8544104984690044e-06 -4.289787134481409e-08 4.5850338316754335e-08 -2.95246697193701e-09 -3.3613323165744385e-06 0.0 0.0
0.0 1.2541013351677704e-06 -1.9601970103058118e-08 1.2108559826064826e-08 7.493410276992302e-09 6.78777494806608e-08 0.0 0.0
0.0 3.618938894937139e-06 6.411963758620019e-08 -3.655756806103302e-08 -2.756206952515723e-08 -1.8067693716344416e-06 0.0 0.0
0.0 -1.3065688656634064e-05 -7.467307180302506e-06 1.0457561788414213e-05 -2.990254608111721e-06 -1.4957899151068945e-05 0.0 0.0
0.0 7.292320579244865e-05 4.236838420642396e-05 -6.379718446575928e-05 2.1428800259335455e-05 6.866685303896951e-05 0.0 0.0
0.0 8.654030246420927e-07 -1.5616019590138175e-06 2.196798892318086e-06 -6.351969333042856e-07 3.4470655362915775e-06 0.0 0.0
0.0 -4.5710491213771375e-07 2.3584496723204252e-07 -3.1389678058072313e-07 7.805181334868332e-08 3.3673673391844846e-09 0.0 0.0
0.0 3.5752967388385445e-07 5.1986222198703114e-08 -7.383313873044956e-08 2.184691653174611e-08 -6.828363734478206e-07 0.0 0.0
0.0 2.128536873391129e-06 2.755326147058971e-08 -3.261557407499888e-08 5.062312604408158e-09 -6.326230206360088e-07 0.0 0.0
0.0 -1.5556338555637285e-07 -1.208898824413351e-07 1.1078706932149815e-07 1.0102813119832364e-08 -1.0016935227629775e-06 0.0 0.0
0.0 -2.993067154733503e-06 1.892365475136569e-07 5.5174918743570794e-08 -2.444114662571853e-07 6.371225380672814e-07 0.0 0.0
0.0 5.2812709136069576e-05 5.343480582077346e-07 -1.5866827639501124e-07 -3.7567978181278284e-07 -3.6030318238408206e-05 0.0 0.0
0.0 0.000182281369915316 -2.9717679887243354e-05 2.5288474269626683e-05 4.429205617616608e-06 -0.00026539216240260843 0.0 0.0
0.0 0.0006170423180610382 -0.00023429014415492648 0.00020535917170624488 2.893097244868194e-05 -0.0008854290078724341 0.0 0.0
0.0 0.0015776342661091027 -0.000819993250436963 0.0007312066122804211 8.878663815654169e-05 -0.001971865150266464 0.0 0.0
0.0 0.003207519202523248 -0.0018281987834118463 0.0016514292959227332 0.0001767694874891124 -0.0033823980093396697 0.0 0.0
0.0 0.004919774031074338 -0.0031055482489491474 0.0028433821945292367 0.00026216605441990845 -0.004979846392690288 0.0 0.0
0.0 0.006970141433080464 -0.004541057014844537 0.004202051593942325 0.0003390054209022115 -0.006639211260591192 0.0 0.0
0.0 0.009279139477504169 -0.006142697546212122 0.005742484611489318 0.0004002129347228003 -0.008353323413387993 0.0 0.0
0.0 0.011712206741281336 -0.007864064121975128 0.007424741511628508 0.00043932261034662455 -0.010141424920118049 0.0 0.0
0.0 0.01416364138712302 -0.00953769898384684 0.009090119119919951 0.0004475798639268903 -0.012069421761837165 0.0 0.0
0.0 0.016281765774644526 -0.010842274940212117 0.010425305688032755 0.00041696925217936913 -0.014186064087345938 0.0 0.0
0.0 0.017860557313023134 -0.011330063017311355 0.010998356941281314 0.00033170607603004085 -0.016546700215556244 0.0 0.0
0.0 0.018008307746177683 -0.010471622286061126 0.010326472217809577 0.0001451500682515493 -0.019108495565091782 0.0 0.0
0.0 0.014706536469941998 -0.0075648888340366935 0.007842951809241641 -0.000278062975204946 -0.02094985156795038 0.0 0.0
0.0 0.029637909967895226 -0.004161196889729565 0.0019233184461330155 0.002237878443596543 1.214306433183765e-14 0.0 0.0
0.0 0.014706536469949247 -0.0075648888340383484 0.007842951809242557 -0.00027806297520420714 0.020949851567966263 0.0 0.0
0.0 0.01800830774617412 -0.010471622286057155 0.010326472217805284 0.00014515006825187478 0.019108495565103824 0.0 0.0
0.0 0.017860557313011633 -0.011330063017302841 0.010998356941273886 0.0003317060760289414 0.01654670021555743 0.0 0.0
0.0 0.016281765774624292 -0.010842274940197703 0.010425305688018133 0.0004169692521795788 0.014186064087334326 0.0 0.0
0.0 0.01416364138710639 -0.009537698983834504 0.00909011911990779 0.00044757986392671275 0.012069421761825736 0.0 0.0
0.0 0.011712206741265671 -0.00786406412196271 0.00742474151161669 0.0004393226103460134 0.010141424920106275 0.0 0.0
0.0 0.00927913947748886 -0.006142697546199834 0.0057424846114778536 0.0004002129347219814 0.00835332341337888 0.0 0.0
0.0 0.006970141433062592 -0.004541057014831302 0.004202051593929886 0.00033900542090141634 0.0066392112605794555 0.0 0.0
0.0 0.00491977403105801 -0.003105548248937731 0.0028433821945188236 0.00026216605441890545 0.004979846392676372 0.0 0.0
0.0 0.0032075192025085783 -0.0018281987834028255 0.0016514292959140323 0.00017676948748879278 0.0033823980093259974 0.0 0.0
0.0 0.0015776342661007292 -0.0008199932504320982 0.0007312066122761262 8.878663815597277e-05 0.0019718651502603555 0.0 0.0
0.0 0.0006170423180561887 -0.00023429014415260569 0.00020535917170420154 2.8930972448404214e-05 0.0008854290078667844 0.0 0.0
0.0 0.00018228136991370555 -2.9717679886970677e-05 2.528847426940718e-05 4.429205617563525e-06 0.000265392162401063 0.0 0.0
0.0 5.281270913442514e-05 5.343480581845589e-07 -1.5866827638586117e-07 -3.7567978179870134e-07 3.603031823775832e-05 0.0 0.0
0.0 -2.9930671554111944e-06 1.892365473572471e-07 5.517491887336295e-08 -2.4441146623060803e-07 -6.37122536886939e-07 0.0 0.0
0.0 -1.5556338592268643e-07 -1.2088988251484295e-07 1.107870693847845e-07 1.0102813130049334e-08 1.0016935233777822e-06 0.0 0.0
0.0 2.1285368729723116e-06 2.7553261353670245e-08 -3.261557397735677e-08 5.062312623687157e-09 6.326230216750002e-07 0.0 0.0
0.0 3.5752967350762206e-07 5.198622218332827e-08 -7.383313872781411e-08 2.1846916544481275e-08 6.828363741145015e-07 0.0 0.0
0.0 -4.571049119892146e-07 2.3584496716555682e-07 -3.1389678050027835e-07 7.805181333472054e-08 -3.3673673132893196e-09 0.0 0.0
0.0 8.654030232342095e-07 -1.5616019585217402e-06 2.1967988915718453e-06 -6.351969330500924e-07 -3.4470655353024344e-06 0.0 0.0
0.0 -5.791226492451871e-07 3.285152939261595e-08 -4.863961923435168e-08 1.5788089841737027e-08 -8.324711323925468e-08 0.0 0.0
0.0 1.3216736312324791e-06 -1.1940321357561998e-10 1.979766273116998e-08 -1.9678259517600396e-08 2.169501368027169e-07 0.0 0.0
0.0 -2.13983805413125e-07 1.8158894938833255e-07 -1.4341318073338083e-07 -3.817576865496043e-08 1.453130583031375e-06 0.0 0.0
0.0 1.1260002619796185e-06 -3.728247399031559e-07 2.9331506148275077e-07 7.950967842039296e-08 -2.9609042059495267e-06 0.0 0.0
0.0 2.4881159411751216e-06 2.375423648765184e-06 -1.9618572875353638e-06 -4.1356636122975986e-07 1.0778195342821985e-05 0.0 0.0
0.0 1.0094688264282815e-05 6.235328714614524e-06 -4.86467670592698e-06 -1.3706520086875322e-06 1.593455426021479e-05 0.0 0.0
0.0 7.215861439378361e-05 -3.36481428295085e-05 2.5906187877948068e-05 7.741954951560481e-06 -0.00011387068557541972 0.0 0.0
0.0 0.0006381216017840632 -0.00037059465120379534 0.0002934826324049222 7.71120187988731e-05 -0.0006669956002798178 0.0 0.0
0.0 0.0019297274992722932 -0.0013768718933903337 0.0011393374844756356 0.0002375344089146972 -0.0018704973717243193 0.0 0.0
0.0 0.00422864892399093 -0.0030951363352910988 0.0026933321372715146 0.00040180419801958214 -0.0035305578107899934 0.0 0.0
0.0 0.006994346051555085 -0.0053666475788912505 0.0048455427845400904 0.0005211047943511618 -0.005554284789343749 0.0 0.0
0.0 0.010363211470219333 -0.008003211236657957 0.007400458916107256 0.0006027523205507047 -0.007656590912519058 0.0 0.0
0.0 0.014037647635022082 -0.010939759242729285 0.010268975219917535 0.0006707840228117385 -0.009737725050827862 0.0 0.0
0.0 0.0180603288057783 -0.014195229376405539 0.013471420639288937 0.0007238087371166043 -0.011776256205797891 0.0 0.0
0.0 0.022480788198739568 -0.017746984221048267 0.016985902352801244 0.0007610818682470056 -0.013859315735870941 0.0 0.0
0.0 0.027124764241575776 -0.02142477645609898 0.020647505525338762 0.0007772709307601994 -0.016191020423199236 0.0 0.0
0.0 0.0315429144917506 -0.024851204257502653 0.024078935490919492 0.0007722687665831659 -0.018994688808784802 0.0 0.0
0.0 0.03496391510954316 -0.027464063295624695 0.02671465821198259 0.0007494050836421124 -0.022381048217734324 0.0 0.0
0.0 0.0367308612103226 -0.028242661994303923 0.027577702682923765 0.0006649593113801493 -0.025694746821331167 0.0 0.0
0.0 0.034112166175696325 -0.02506868731282673 0.024563274574877232 0.000505412737949481 -0.026402801030182124 0.0 0.0
0.0 0.03641323269426183 -0.020058938893211888 0.017025596368228913 0.0030333425249829573 1.5439038936193583e-14 0.0 0.0
0.0 0.03411216617570604 -0.02506868731282659 0.02456327457487749 0.0005054127379491037 0.026402801030218803 0.0 0.0
0.0 0.03673086121032228 -0.028242661994297848 0.027577702682918398 0.0006649593113794443 0.025694746821364897 0.0 0.0
0.0 0.034963915109524485 -0.027464063295607834 0.02671465821196635 0.0007494050836414881 0.022381048217745003 0.0 0.0
0.0 0.03154291449172223 -0.024851204257479657 0.024078935490896524 0.0007722687665831233 0.018994688808777742 0.0 0.0
0.0 0.027124764241547843 -0.021424776456076686 0.02064750552531649 0.000777270930760194 0.016191020423184058 0.0 0.0
0.0 0.02248078819871509 -0.01774698422102785 0.016985902352781974 0.000761081868245872 0.013859315735858965 0.0 0.0
0.0 0.018060328805751674 -0.014195229376383161 0.013471420639266481 0.0007238087371166836 0.011776256205784692 0.0 0.0
0.0 0.01403764763499707 -0.010939759242709159 0.010268975219897739 0.0006707840228114096 0.009737725050815403 0.0 0.0
0.0 0.01036321147019139 -0.008003211236636651 0.007400458916086466 0.0006027523205501923 0.007656590912499652 0.0 0.0
0.0 0.006994346051532655 -0.0053666475788740255 0.0048455427845235394 0.0005211047943504872 0.005554284789325832 0.0 0.0
0.0 0.004228648923974845 -0.0030951363352791274 0.0026933321372603057 0.0004018041980188226 0.0035305578107785456 0.0 0.0
0.0 0.0019297274992609624 -0.0013768718933819942 0.0011393374844684615 0.00023753440891353237 0.0018704973717157626 0.0 0.0
0.0 0.0006381216017797484 -0.0003705946512010881 0.00029348263240285265 7.7112018798235e-05 0.0006669956002758889 0.0 0.0
0.0 7.215861439167158e-05 -3.364814282919823e-05 2.590618787770272e-05 7.741954951495527e-06 0.000113870685574476 0.0 0.0
0.0 1.0094688263517473e-05 6.235328714372428e-06 -4.864676705741447e-06 -1.3706520086310809e-06 -1.593455425959511e-05 0.0 0.0
0.0 2.4881159403428833e-06 2.375423648578765e-06 -1.9618572873795207e-06 -4.135663611992354e-07 -1.0778195341932941e-05 0.0 0.0
0.0 1.1260002618097503e-06 -3.728247400534498e-07 2.933150616072004e-07 7.950967844625515e-08 2.9609042069468152e-06 0.0 0.0
0.0 -2.1398380608550996e-07 1.8158894938619784e-07 -1.4341318074258866e-07 -3.817576864360442e-08 -1.4531305827105786e-06 0.0 0.0
0.0 1.3216736307777823e-06 -1.1940320282900113e-10 1.9797662722910345e-08 -1.9678259520082775e-08 -2.1695013694543481e-07 0.0 0.0
0.0 -5.791226488939735e-07 3.285152937202806e-08 -4.863961920387383e-08 1.57880898318369e-08 8.324711318699175e-08 0.0 0.0
0.0 0.0 0.0 0.0 0.0 0.0 0.0 0.0
0.0 -4.597287996738521e-07 -6.853202956288844e-09 2.886835497529438e-09 3.966367458759904e-09 -9.336839224249032e-08 0.0 0.0
0.0 1.2853784083991112e-06 1.3728786844709104e-07 -1.0219788293651757e-07 -3.508998551056825e-08 8.751782397487415e-07 0.0 0.0
0.0 8.09778131224928e-07 1.0477760761068422e-06 -8.737477852338843e-07 -1.740282908729578e-07 3.3830671911067206e-06 0.0 0.0
0.0 1.5385875241338732e-06 2.1177928403744514e-06 -1.6717716940151465e-06 -4.4602114635933953e-07 3.4000396042320253e-06 0.0 0.0
0.0 1.4937169390983434e-06 -7.900747243952757e-06 5.884911573929993e-06 2.0158356700228024e-06 -2.5137098077972847e-05 0.0 0.0
0.0 0.0003356643580665598 -0.0002093073026357611 0.00015933943692746037 4.9967865708300745e-05 -0.0002751929146924156 0.0 0.0
0.0 0.001400935424120005 -0.0011206418943078501 0.0008945618956862127 0.00022607999862163616 -0.001193370666416808 0.0 0.0
0.0 0.003735152948286455 -0.002987065367057762 0.0025429613556813666 0.00044410401137639545 -0.002750490971368038 0.0 0.0
0.0 0.007419878039666919 -0.005767972986148792 0.005172145573006796 0.0005958274131420004 -0.004898601702264892 0.0 0.0
0.0 0.011447973838107835 -0.009251287997730756 0.008562539992310863 0.0006887480054198835 -0.00735643641230368 0.0 0.0
0.0 0.016222165370452082 -0.013228684355177867 0.01246990426771211 0.0007587800874657576 -0.009797800500199915 0.0 0.0
0.0 0.021579835950918554 -0.017651248742686303 0.01682708170350642 0.0008241670391798983 -0.012136550067744044 0.0 0.0
0.0 0.027445399789580778 -0.02256424903746085 0.02168130264833572 0.0008829463891251122 -0.014412660074801954 0.0 0.0
0.0 0.0339763116649865 -0.027972792100916626 0.027044047057050262 0.0009287450438663996 -0.016786284947500046 0.0 0.0
0.0 0.04081894878852289 -0.03371623312049236 0.032763914477956554 0.0009523186425357815 -0.019579288836930636 0.0 0.0
0.0 0.04787430904754583 -0.039342224307516924 0.03839306001027506 0.0009491642972418472 -0.02322895363167616 0.0 0.0
0.0 0.05374304738084354 -0.04397756094074849 0.04307557427775402 0.0009019866629944357 -0.027761169390718075 0.0 0.0
0.0 0.056790965563230066 -0.046025993327376155 0.04522675720656151 0.0007992361208146138 -0.0319343811631665 0.0 0.0
0.0 0.053390963155375525 -0.042539582510295965 0.0419876667439268 0.0005519157663691542 -0.03321811116122434 0.0 0.0
0.0 0.050758875242276846 -0.035724597746765736 0.031960369242553244 0.0037642285042124913 1.8762769116165146e-14 0.0 0.0
0.0 0.05339096315537896 -0.04253958251029093 0.041987666743922104 0.0005519157663688236 0.03321811116126578 0.0 0.0
0.0 0.056790965563225264 -0.0460259933273657 0.045226757206551435 0.0007992361208142096 0.03193438116320802 0.0 0.0
0.0 0.053743047380819024 -0.043977560940724844 0.04307557427773125 0.0009019866629935677 0.027761169390737354 0.0 0.0
0.0 0.047874309047509986 -0.039342224307486476 0.03839306001024472 0.0009491642972417811 0.023228953631673044 0.0 0.0
0.0 0.04081894878848165 -0.033716233120458 0.032763914477922276 0.0009523186425357045 0.019579288836915176 0.0 0.0
0.0 0.03397631166495206 -0.02797279210088796 0.027044047057022184 0.000928745043865822 0.016786284947485554 0.0 0.0
0.0 0.027445399789542326 -0.022564249037428187 0.021681302648303508 0.0008829463891246551 0.014412660074786799 0.0 0.0
0.0 0.02157983595088324 -0.017651248742657097 0.016827081703477575 0.0008241670391795105 0.012136550067729521 0.0 0.0
0.0 0.01622216537041327 -0.013228684355146616 0.012469904267681384 0.0007587800874652291 0.00979780050017823 0.0 0.0
0.0 0.011447973838077389 -0.009251287997706727 0.008562539992286919 0.0006887480054197973 0.007356436412283573 0.0 0.0
0.0 0.007419878039640797 -0.005767972986128089 0.005172145572986844 0.0005958274131412492 0.004898601702247795 0.0 0.0
0.0 0.0037351529482702785 -0.002987065367045129 0.002542961355670055 0.0004441040113750695 0.002750490971358352 0.0 0.0
0.0 0.0014009354241113503 -0.0011206418943012968 0.0008945618956807496 0.0002260799986205475 0.0011933706664106192 0.0 0.0
0.0 0.0003356643580616275 -0.000209307302632799 0.00015933943692511855 4.996786570768049e-05 0.0002751929146886326 0.0 0.0
0.0 1.4937169379890606e-06 -7.900747244064996e-06 5.884911574022446e-06 2.015835670042541e-06 2.5137098078153316e-05 0.0 0.0
0.0 1.5385875236840275e-06 2.117792840200773e-06 -1.6717716938703326e-06 -4.4602114633044015e-07 -3.4000396035198083e-06 0.0 0.0
0.0 8.097781303380654e-07 1.047776076021242e-06 -8.737477851671484e-07 -1.740282908540903e-07 -3.383067190636118e-06 0.0 0.0
0.0 1.285378407858978e-06 1.3728786845165308e-07 -1.0219788294198388e-07 -3.5089985509675054e-08 -8.751782397647517e-07 0.0 0.0
0.0 -4.59728799576089e-07 -6.853202954632321e-09 2.8868354967489913e-09 3.9663674578853385e-09 9.336839222251318e-08 0.0 0.0
0.0 0.0 0.0 0.0 0.0 0.0 0.0 0.0
0.0 0.0 0.0 0.0 0.0 0.0 0.0 0.0
0.0 1.5308091780677812e-08 3.0663233307284843e-10 -2.1432744662428963e-10 -9.23048864485231e-11 3.0115191088803258e-09 0.0 0.0
0.0 -5.087479912002288e-07 2.8338866977912786e-08 -2.288533479607034e-08 -5.453532181844191e-09 1.153251290868107e-07 0.0 0.0
0.0 -2.1065901735142385e-06 2.246773763089887e-07 -1.7775724081524647e-07 -4.69201354937322e-08 4.783424237859508e-07 0.0 0.0
0.0 -2.955534851502656e-06 8.145744521286384e-06 -6.6186481468410076e-06 -1.5270963744453715e-06 1.654846919837688e-05 0.0 0.0
0.0 9.405517624806327e-05 -4.45661866374178e-05 3.249745525573609e-05 1.2068731381681637e-05 -4.162902880920778e-05 0.0 0.0
0.0 0.0007273487055920085 -0.0005961781196674559 0.0004587446406546234 0.0001374334790128327 -0.0005154503610889073 0.0 0.0
0.0 0.002533835560226603 -0.0021362451703349264 0.001753057245317754 0.0003831879250171703 -0.0015923770855441506 0.0 0.0
0.0 0.0061163642903389 -0.004861464385916877 0.004265970311072123 0.000595494074844755 -0.003415455190516581 0.0 0.0
0.0 0.01026846517775365 -0.008686306057691062 0.007966046773188764 0.0007202592845023028 -0.005844082439158515 0.0 0.0
0.0 0.015940784898068314 -0.013316708588443148 0.012518438680133552 0.0007982699083096 -0.008435201741462216 0.0 0.0
0.0 0.022252134690745627 -0.018608301250798178 0.017741920701804314 0.0008663805489938622 -0.010992180983902361 0.0 0.0
0.0 0.02924440523515371 -0.02451676851025214 0.023580052460203147 0.0009367160500490077 -0.013441413913685625 0.0 0.0
0.0 0.037005105603335024 -0.031092306517225582 0.030087188081610337 0.0010051184356152038 -0.0158369379946292 0.0 0.0
0.0 0.04552621840189772 -0.03837270275081344 0.037310340697772 0.001062362053041411 -0.018338282173930475 0.0 0.0
0.0 0.0550231579023621 -0.0462147089761363 0.04512064580782428 0.0010940631683120398 -0.02136131162057711 0.0 0.0
0.0 0.0640542436573047 -0.054061004441562824 0.05297742817084592 0.001083576270716823 -0.025445836599850672 0.0 0.0
0.0 0.07238238494699802 -0.060646845415919436 0.059635690406167535 0.0010111550097519518 -0.030599329972241837 0.0 0.0
0.0 0.07678796115777323 -0.06371738526519057 0.06286358081938993 0.0008538044458005884 -0.03557392706392328 0.0 0.0
0.0 0.07250493198324877 -0.05950175369963954 0.058950475943152614 0.0005512777564869643 -0.03758686786408599 0.0 0.0
0.0 0.06647741386891318 -0.05105262172089045 0.046664154140704864 0.004388467580185518 1.942803556920225e-14 0.0 0.0
0.0 0.07250493198324809 -0.059501753699631794 0.058950475943145134 0.0005512777564866691 0.03758686786412958 0.0 0.0
0.0 0.0767879611577602 -0.06371738526517329 0.0628635808193731 0.0008538044458001505 0.03557392706396875 0.0 0.0
0.0 0.07238238494696425 -0.060646845415888176 0.059635690406135984 0.0010111550097520437 0.030599329972264885 0.0 0.0
0.0 0.06405424365725974 -0.05406100444152396 0.052977428170807216 0.0010835762707167454 0.025445836599849503 0.0 0.0
0.0 0.05502315790231264 -0.046214708976094115 0.045120645807782564 0.0010940631683115111 0.02136131162056363 0.0 0.0
0.0 0.04552621840185153 -0.03837270275077402 0.03731034069773296 0.001062362053041051 0.018338282173915185 0.0 0.0
0.0 0.03700510560328734 -0.031092306517184358 0.03008718808157003 0.0010051184356143206 0.015836937994614726 0.0 0.0
0.0 0.029244405235106206 -0.024516768510212172 0.023580052460163304 0.0009367160500488627 0.013441413913669258 0.0 0.0
0.0 0.022252134690699556 -0.01860830125075963 0.01774192070176616 0.0008663805489934525 0.010992180983881304 0.0 0.0
0.0 0.015940784898027645 -0.01331670858840961 0.01251843868010007 0.0007982699083095474 0.008435201741438698 0.0 0.0
0.0 0.010268465177721597 -0.00868630605766415 0.007966046773162604 0.0007202592845015529 0.0058440824391396634 0.0 0.0
0.0 0.006116364290315348 -0.004861464385898411 0.004265970311054619 0.0005954940748437939 0.00341545519050438 0.0 0.0
0.0 0.0025338355602132143 -0.002136245170324355 0.0017530572453085455 0.0003831879250158083 0.0015923770855367169 0.0 0.0
0.0 0.0007273487055852015 -0.0005961781196627072 0.0004587446406509398 0.00013743347901176768 0.0005154503610849576 0.0 0.0
0.0 9.405517624590614e-05 -4.456618663652819e-05 3.249745525506466e-05 1.2068731381463554e-05 4.1629028808419874e-05 0.0 0.0
0.0 -2.9555348515816137e-06 8.145744520520716e-06 -6.618648146236514e-06 -1.5270963742841825e-06 -1.65484691968315e-05 0.0 0.0
0.0 -2.106590173898856e-06 2.2467737620002954e-07 -1.777572407291974e-07 -4.692013547081581e-08 -4.783424232750821e-07 0.0 0.0
0.0 -5.087479912659705e-07 2.8338867011610784e-08 -2.2885334823715113e-08 -5.4535321878954055e-09 -1.153251292389094e-07 0.0 0.0
0.0 1.5308091766584117e-08 3.0663233278746693e-10 -2.1432744642515877e-10 -9.23048863622756e-11 -3.0115191060776662e-09 0.0 0.0
0.0 0.0 0.0 0.0 0.0 0.0 0.0 0.0
0.0 0.0 0.0 0.0 0.0 0.0 0.0 0.0
0.0 0.0 0.0 0.0 0.0 0.0 0.0 0.0
0.0 -3.008317283811859e-07 -1.6894082401111415e-08 1.3667650964936457e-08 3.226431436173586e-09 -5.3084951058647605e-08 0.0 0.0
0.0 -8.547825012141415e-07 1.0718803541747232e-06 -8.636382910750328e-07 -2.082420630996647e-07 2.404723946977281e-06 0.0 0.0
0.0 -1.167634152772681e-05 1.0391874215815992e-06 -1.3934565627366697e-06 3.5426914115506136e-07 3.87901898652036e-06 0.0 0.0
0.0 0.0002568974989830278 -0.00017159940473580865 0.00012710964718371968 4.4489757552089026e-05 -0.00010535290248062334 0.0 0.0
0.0 0.0013298871647701028 -0.0011509455342635531 0.0009025681801618852 0.00024837735410166697 -0.0006638685080303131 0.0 0.0
0.0 0.004134552177533771 -0.003351288149351374 0.00283199903405351 0.0005192891152978659 -0.0018424271128293938 0.0 0.0
0.0 0.007949441277272668 -0.006946850178173878 0.006240652772185606 0.0007061974059882733 -0.003813297549646205 0.0 0.0
0.0 0.01371819892293891 -0.011713582104414078 0.010904863829052456 0.000808718275361628 -0.006205225367627225 0.0 0.0
0.0 0.020520271590588935 -0.017474310787662428 0.01659093998407975 0.0008833708035826703 -0.008744171072233475 0.0 0.0
0.0 0.028302964273958554 -0.02408050929018106 0.02312460279286989 0.0009559064973111721 -0.011253030033717791 0.0 0.0
0.0 0.0370005900181925 -0.03148036321564325 0.030447510737302442 0.001032852478340786 -0.013673554733082441 0.0 0.0
0.0 0.04673702294358423 -0.03971946267552711 0.03860978502066743 0.0011096776548597165 -0.016060296320317927 0.0 0.0
0.0 0.057361760081800134 -0.04886317941880634 0.04768396033335784 0.0011792190854484777 -0.018544285237876615 0.0 0.0
0.0 0.06881581618543223 -0.05878528419848055 0.057565416215676124 0.0012198679828044593 -0.021461576402859856 0.0 0.0
0.0 0.08090091949595951 -0.06880043090143581 0.0676005290305475 0.0011999018708882506 -0.025406165947191393 0.0 0.0
0.0 0.0910123831932314 -0.07726647179782836 0.07617348264846993 0.0010929891493583032 -0.030669033191313932 0.0 0.0
0.0 0.09602525785528351 -0.08123159493053277 0.0803491168586506 0.000882478071882165 -0.03630643777189556 0.0 0.0
0.0 0.09124554941952165 -0.07628796738411056 0.0757404728388489 0.0005474945452616309 -0.04027460461142888 0.0 0.0
0.0 0.0833969759159382 -0.06641888737254308 0.061477232750639856 0.004941654621903202 2.061285170329441e-14 0.0 0.0
0.0 0.09124554941951445 -0.07628796738409822 0.07574047283883624 0.0005474945452619876 0.040274604611473294 0.0 0.0
0.0 0.09602525785526159 -0.08123159493050894 0.08034911685862692 0.0008824780718820484 0.036306437771940536 0.0 0.0
0.0 0.09101238319318972 -0.07726647179779039 0.07617348264843193 0.0010929891493584322 0.030669033191338096 0.0 0.0
0.0 0.08090091949590471 -0.06880043090138867 0.06760052903049964 0.0011999018708889252 0.0254061659471919 0.0 0.0
0.0 0.06881581618537622 -0.05878528419843228 0.057565416215628384 0.001219867982803932 0.021461576402849795 0.0 0.0
0.0 0.05736176008174088 -0.04886317941875557 0.04768396033330736 0.0011792190854482605 0.01854428523786301 0.0 0.0
0.0 0.046737022943528286 -0.03971946267547836 0.03860978502061957 0.001109677654858746 0.016060296320304156 0.0 0.0
0.0 0.037000590018133286 -0.0314803632155928 0.030447510737251535 0.001032852478341251 0.01367355473306609 0.0 0.0
0.0 0.02830296427390639 -0.02408050929013684 0.023124602792826278 0.0009559064973105332 0.011253030033698095 0.0 0.0
0.0 0.020520271590537868 -0.01747431078761975 0.01659093998403709 0.0008833708035826595 0.008744171072209058 0.0 0.0
0.0 0.013718198922899518 -0.01171358210438094 0.01090486382901971 0.0008087182753612291 0.00620522536760853 0.0 0.0
0.0 0.00794944127724445 -0.0069468501781488395 0.006240652772161511 0.0007061974059873253 0.0038132975496326872 0.0 0.0
0.0 0.0041345521775147265 -0.0033512881493361203 0.002831999034039619 0.000519289115296502 0.0018424271128208885 0.0 0.0
0.0 0.0013298871647610276 -0.0011509455342563178 0.0009025681801559776 0.0002483773541003403 0.0006638685080259493 0.0 0.0
0.0 0.00025689749897880155 -0.00017159940473324056 0.0001271096471817549 4.448975755148535e-05 0.00010535290247899916 0.0 0.0
0.0 -1.1676341527969596e-05 1.0391874210437951e-06 -1.3934565623056583e-06 3.542691412618211e-07 -3.879018985654789e-06 0.0 0.0
0.0 -8.547825020125189e-07 1.0718803542118588e-06 -8.636382911039752e-07 -2.0824206310787884e-07 -2.40472394699711e-06 0.0 0.0
0.0 -3.0083172820327663e-07 -1.6894082390560128e-08 1.3667650956397697e-08 3.226431434162971e-09 5.3084951026648725e-08 0.0 0.0
0.0 0.0 0.0 0.0 0.0 0.0 0.0 0.0
0.0 0.0 0.0 0.0 0.0 0.0 0.0 0.0
0.0 0.0 0.0 0.0 0.0 0.0 0.0 0.0
0.0 0.0 0.0 0.0 0.0 0.0 0.0 0.0
0.0 -1.680433764396781e-07 -1.0793184899027673e-08 8.54508648894806e-09 2.2480984100807976e-09 -2.827633481288059e-08 0.0 0.0
0.0 -2.3140373520280992e-06 7.721403095700459e-07 -6.193231830352481e-07 -1.5281712653482686e-07 1.4478853009006226e-06 0.0 0.0
0.0 1.6689121661518156e-05 -1.21422331610085e-06 -8.89847273480987e-07 2.104070589581895e-06 1.0683163621926496e-05 0.0 0.0
0.0 0.00044449731137694156 -0.00042635011673963427 0.0003200583920106141 0.00010629172472902007 -0.00018909699555065863 0.0 0.0
0.0 0.002282398622496837 -0.0018535961525294462 0.0014898408925943466 0.0003637552599350992 -0.0007184743629677248 0.0 0.0
0.0 0.005362463191673579 -0.004758905994023632 0.004128288673528182 0.0006306173204954488 -0.0019571269371012516 0.0 0.0
0.0 0.010430921812885586 -0.00911220130137747 0.008325948138767119 0.000786253162610356 -0.003789531156273586 0.0 0.0
0.0 0.017096934255598314 -0.014807009355536666 0.013927197030666832 0.0008798123248698441 -0.005969819446993837 0.0 0.0
0.0 0.025167398324308764 -0.021684742202707927 0.02072759485971187 0.0009571473429960374 -0.008307696206325661 0.0 0.0
0.0 0.0344585949197952 -0.02960340418188947 0.02856755699792992 0.0010358471839595484 -0.010617207027441102 0.0 0.0
0.0 0.04494772337111667 -0.03850339729674931 0.037384245683920694 0.0011191516128285558 -0.01286183535573791 0.0 0.0
0.0 0.056274740033429 -0.04841705397239137 0.04721348945805559 0.0012035645143357828 -0.015112049663641694 0.0 0.0
0.0 0.06912297576484695 -0.05938520249460497 0.058103570737673416 0.0012816317569315481 -0.017433765636487433 0.0 0.0
0.0 0.08303439714776502 -0.07129065400161422 0.06995819165698541 0.0013324623446287253 -0.01996119340204216 0.0 0.0
0.0 0.09698083861501765 -0.08338946599074266 0.08207896681794813 0.0013104991727944473 -0.023201708075323915 0.0 0.0
0.0 0.10915476888995004 -0.09368804864985265 0.09251802622756147 0.0011700224222912746 -0.027956187728378684 0.0 0.0
0.0 0.11542345649265916 -0.09862656752312478 0.09771965477706121 0.0009069127460634128 -0.034348892478407174 0.0 0.0
0.0 0.11010298863171518 -0.09322412017904277 0.09269013637583626 0.0005339838032065356 -0.04167336550792344 0.0 0.0
0.0 0.10072798106549978 -0.08218081572173573 0.07674959065841208 0.0054312250633236445 1.997707554934891e-14 0.0 0.0
0.0 0.11010298863170107 -0.09322412017902529 0.09269013637581847 0.0005339838032067695 0.04167336550796718 0.0 0.0
0.0 0.11542345649262781 -0.09862656752309396 0.09771965477703042 0.0009069127460633637 0.03434889247844904 0.0 0.0
0.0 0.10915476888990283 -0.09368804864981048 0.09251802622751962 0.0011700224222908106 0.027956187728401503 0.0 0.0
0.0 0.0969808386149531 -0.08338946599068692 0.08207896681789206 0.0013104991727948996 0.02320170807532438 0.0 0.0
0.0 0.08303439714769517 -0.07129065400155399 0.06995819165692498 0.001332462344628964 0.019961193402033815 0.0 0.0
0.0 0.06912297576477619 -0.05938520249454395 0.058103570737612804 0.0012816317569311437 0.017433765636476067 0.0 0.0
0.0 0.05627474003336181 -0.04841705397233337 0.0472134894579981 0.0012035645143352342 0.01511204966362882 0.0 0.0
0.0 0.04494772337104895 -0.03850339729669058 0.037384245683862186 0.0011191516128284116 0.012861835355723255 0.0 0.0
0.0 0.034458594919733326 -0.02960340418183632 0.028567556997877414 0.0010358471839589105 0.01061720702742288 0.0 0.0
0.0 0.025167398324250183 -0.021684742202657887 0.02072759485966207 0.0009571473429958248 0.008307696206303582 0.0 0.0
0.0 0.01709693425555323 -0.014807009355497754 0.013927197030628433 0.0008798123248693038 0.005969819446976812 0.0 0.0
0.0 0.01043092181285326 -0.009112201301349078 0.008325948138739589 0.000786253162609491 0.0037895311562617722 0.0 0.0
0.0 0.005362463191650925 -0.0047589059940039685 0.004128288673509744 0.0006306173204942228 0.0019571269370923833 0.0 0.0
0.0 0.002282398622482381 -0.0018535961525178745 0.0014898408925844635 0.00036375525993340873 0.0007184743629624445 0.0 0.0
0.0 0.0004444973113715866 -0.0004263501167356812 0.0003200583920076101 0.00010629172472807068 0.00018909699554897839 0.0 0.0
0.0 1.6689121660806818e-05 -1.2142233164189724e-06 -8.898472732059732e-07 2.104070589625076e-06 -1.0683163621326765e-05 0.0 0.0
0.0 -2.31403735219807e-06 7.721403095551013e-07 -6.193231830268321e-07 -1.5281712652826768e-07 -1.447885300866313e-06 0.0 0.0
0.0 -1.6804337643450485e-07 -1.0793184898566844e-08 8.545086488621468e-09 2.248098409945835e-09 2.8276334812116163e-08 0.0 0.0
0.0 0.0 0.0 0.0 0.0 0.0 0.0 0.0
0.0 0.0 0.0 0.0 0.0 0.0 0.0 0.0
0.0 0.0 0.0 0.0 0.0 0.0 0.0 0.0
0.0 0.0 0.0 0.0 0.0 0.0 0.0 0.0
0.0 0.0 0.0 0.0 0.0 0.0 0.0 0.0
0.0 -3.0224597346292423e-06 1.6946061190168084e-06 -1.3679876159371894e-06 -3.266185030796102e-07 2.272437493839553e-06 0.0 0.0
0.0 7.139730750291007e-05 -4.3994773949173513e-05 2.9624745298022506e-05 1.4370028651151267e-05 -2.1646985266766054e-06 0.0 0.0
0.0 0.0008792580507324926 -0.0007479206782253361 0.0005682084131586085 0.000179712265066727 -0.00016902881863562172 0.0 0.0
0.0 0.003106284018190103 -0.0027281078124954984 0.0022512045472582584 0.00047690326523723803 -0.0006995926909462956 0.0 0.0
0.0 0.006975497381295827 -0.00624795315267583 0.00553542277083212 0.0007125303818437122 -0.0018085301151298451 0.0 0.0
0.0 0.01284930488995413 -0.01132796957879508 0.010478032427352988 0.0008499371514420785 -0.003327070758269612 0.0 0.0
0.0 0.020557224537042066 -0.01792954569094949 0.016988321713846673 0.0009412239771028145 -0.005165902628940387 0.0 0.0
0.0 0.029825991826302183 -0.025914525333651364 0.024890852851224634 0.0010236724824267103 -0.00714425142817176 0.0 0.0
0.0 0.04062512691374424 -0.03514611285438031 0.03403669680451334 0.0011094160498669673 -0.009102734718425497 0.0 0.0
0.0 0.05256977458800778 -0.04556017807656888 0.044360530986188654 0.0011996470903803233 -0.011019770615158991 0.0 0.0
0.0 0.06623263805551077 -0.057146279185479695 0.05585844623784224 0.0012878329476373415 -0.012981113259177895 0.0 0.0
0.0 0.08089824209743551 -0.06989922880695498 0.068529839828037 0.0013693889789180137 -0.015018681195069503 0.0 0.0
0.0 0.0966176094871577 -0.08364497434067814 0.0822147498238038 0.00143022451687438 -0.01702470235682023 0.0 0.0
0.0 0.11288726797279482 -0.09763228740459749 0.09621040613477638 0.0014218812698211598 -0.019114958199068683 0.0 0.0
0.0 0.12705812601778807 -0.10976060076088992 0.10849683309813526 0.0012637676627545685 -0.02254273665585889 0.0 0.0
0.0 0.1347102342905879 -0.11599494505694219 0.1150537418327955 0.0009412032241466928 -0.02962332080312284 0.0 0.0
0.0 0.12960271418848823 -0.11062847830982951 0.11012750002741085 0.0005009782824188387 -0.04155039063507549 0.0 0.0
0.0 0.11950507631066641 -0.09870352056653613 0.09285342686952795 0.00585009369700818 1.653885361996288e-14 0.0 0.0
0.0 0.12960271418847208 -0.11062847830981129 0.11012750002739287 0.0005009782824184439 0.041550390635114565 0.0 0.0
0.0 0.13471023429055076 -0.11599494505690748 0.11505374183276124 0.0009412032241461615 0.029623320803160956 0.0 0.0
0.0 0.1270581260177297 -0.10976060076083899 0.10849683309808444 0.001263767662754408 0.022542736655878703 0.0 0.0
0.0 0.11288726797272393 -0.09763228740453603 0.09621040613471538 0.0014218812698206394 0.019114958199069797 0.0 0.0
0.0 0.09661760948707859 -0.08364497434060947 0.08221474982373553 0.0014302245168739298 0.017024702356815972 0.0 0.0
0.0 0.08089824209735831 -0.06989922880688802 0.06852983982797084 0.0013693889789171932 0.01501868119506116 0.0 0.0
0.0 0.06623263805542784 -0.05714627918540813 0.05585844623777068 0.0012878329476374139 0.01298111325916629 0.0 0.0
0.0 0.05256977458793095 -0.045560178076502665 0.04436053098612253 0.0011996470903801824 0.0110197706151479 0.0 0.0
0.0 0.040625126913672295 -0.03514611285431765 0.03403669680445146 0.0011094160498662335 0.009102734718410225 0.0 0.0
0.0 0.029825991826238213 -0.025914525333596075 0.024890852851169796 0.0010236724824262658 0.007144251428153737 0.0 0.0
0.0 0.02055722453699085 -0.0179295456909051 0.016988321713802886 0.0009412239771022077 0.005165902628925329 0.0 0.0
0.0 0.012849304889916008 -0.011327969578761674 0.010478032427320105 0.0008499371514415646 0.0033270707582590837 0.0 0.0
0.0 0.006975497381268554 -0.006247953152651445 0.005535422770808706 0.0007125303818427451 0.0018085301151213704 0.0 0.0
0.0 0.003106284018174238 -0.002728107812481895 0.002251204547246275 0.00047690326523562 0.0006995926909418655 0.0 0.0
0.0 0.0008792580507250272 -0.0007479206782195105 0.0005682084131540081 0.000179712265065502 0.00016902881863396142 0.0 0.0
0.0 7.139730750173201e-05 -4.3994773948845956e-05 2.9624745297837673e-05 1.4370028651008167e-05 2.164698526995701e-06 0.0 0.0
0.0 -3.02245973447516e-06 1.6946061184469172e-06 -1.3679876155123892e-06 -3.26618502934523e-07 -2.2724374933793793e-06 0.0 0.0
0.0 0.0 0.0 0.0 0.0 0.0 0.0 0.0
0.0 0.0 0.0 0.0 0.0 0.0 0.0 0.0
0.0 0.0 0.0 0.0 0.0 0.0 0.0 0.0
0.0 0.0 0.0 0.0 0.0 0.0 0.0 0.0
0.0 0.0 0.0 0.0 0.0 0.0 0.0 0.0
0.0 0.0 0.0 0.0 0.0 0.0 0.0 0.0
0.0 -3.990350436146484e-06 4.11319246150126e-06 -3.3001847013183765e-06 -8.13007760182899e-07 3.4045791063243113e-06 0.0 0.0
0.0 0.00014930103984188908 -0.0001477838501830103 0.00010423821708346052 4.354563309954969e-05 4.0710019211006616e-07 0.0 0.0
0.0 0.0014423417826790151 -0.0011970119463963387 0.0009280442196118209 0.0002689677267845175 -9.340965882117216e-05 0.0 0.0
0.0 0.0039783495313237575 -0.0037113814218736785 0.003139872936368308 0.0005715084855053719 -0.000552114755598554 0.0 0.0
0.0 0.008678502221147699 -0.007783396127553684 0.007005334633447669 0.0007780614941060246 -0.001342214458567795 0.0 0.0
0.0 0.015307288419952913 -0.013564389303362663 0.012661107811333797 0.0009032814920288563 -0.002452871099388034 0.0 0.0
0.0 0.024014710279788545 -0.02105192721138427 0.0200557650823935 0.0009961621289907802 -0.0038034004680564232 0.0 0.0
0.0 0.034572214569112136 -0.03013306404054988 0.029047898500041143 0.0010851655405087106 -0.005264600976740814 0.0 0.0
0.0 0.046714296394854374 -0.04067900205547737 0.03950112526508608 0.001177876790391253 -0.0067154805775584015 0.0 0.0
0.0 0.06069722882153202 -0.052608698194358934 0.05133487060077113 0.001273827593587808 -0.008152896923258076 0.0 0.0
0.0 0.07577556905589997 -0.06588410801119537 0.06451739267588841 0.0013667153353069564 -0.00967419641770058 0.0 0.0
0.0 0.0925490058341569 -0.08038428834071223 0.07893703800185797 0.0014472503388543068 -0.011267950481565146 0.0 0.0
0.0 0.11036934076596862 -0.09579908082327061 0.09429467999039472 0.0015044008328758633 -0.012697016382249975 0.0 0.0
0.0 0.1283738389105298 -0.1113782362168436 0.10986023461565514 0.0015180016011885704 -0.013675268793109884 0.0 0.0
0.0 0.14442750506235047 -0.1252585674947991 0.12384747352440009 0.0014110939703989712 -0.015100689305889656 0.0 0.0
0.0 0.1540387596864068 -0.13332201580401443 0.1322992613195089 0.001022754484505422 -0.021327575939360393 0.0 0.0
0.0 0.150010790289005 -0.12886053530047453 0.12843839242586594 0.0004221428746083254 -0.038912609466408815 0.0 0.0
0.0 0.13985180799235877 -0.11650544278327116 0.11033732073485805 0.0061681220484129775 1.1997347559855598e-14 0.0 0.0
0.0 0.15001079028898653 -0.12886053530045555 0.1284383924258482 0.0004221428746073592 0.03891260946643895 0.0 0.0
0.0 0.15403875968635922 -0.13332201580397207 0.1322992613194665 0.0010227544845057147 0.02132757593938956 0.0 0.0
0.0 0.14442750506227975 -0.12525856749473835 0.12384747352433878 0.0014110939703995328 0.015100689305903331 0.0 0.0
0.0 0.12837383891044818 -0.11137823621677283 0.10986023461558451 0.001518001601188537 0.01367526879311147 0.0 0.0
0.0 0.11036934076588135 -0.09579908082319478 0.09429467999031996 0.0015044008328748686 0.012697016382248292 0.0 0.0
0.0 0.09254900583406929 -0.08038428834063613 0.07893703800178284 0.0014472503388532833 0.011267950481560849 0.0 0.0
0.0 0.07577556905580786 -0.06588410801111577 0.06451739267580928 0.0013667153353065535 0.009674196417691893 0.0 0.0
0.0 0.060697228821446736 -0.05260869819428499 0.05133487060069745 0.0012738275935875467 0.008152896923251196 0.0 0.0
0.0 0.04671429639477169 -0.040679002055406005 0.03950112526501517 0.0011778767903907706 0.006715480577547322 0.0 0.0
0.0 0.03457221456904079 -0.030133064040487652 0.029047898499979023 0.0010851655405086334 0.005264600976726982 0.0 0.0
0.0 0.024014710279730515 -0.02105192721133328 0.020055765082343108 0.0009961621289901615 0.003803400468044552 0.0 0.0
0.0 0.015307288419909358 -0.013564389303324037 0.012661107811295876 0.0009032814920281728 0.0024528710993799675 0.0 0.0
0.0 0.008678502221116352 -0.007783396127525608 0.007005334633420561 0.0007780614941050422 0.0013422144585615316 0.0 0.0
0.0 0.0039783495313058335 -0.003711381421857203 0.0031398729363533067 0.0005715084855039019 0.0005521147555950679 0.0 0.0
0.0 0.001442341782669533 -0.0011970119463882549 0.0009280442196052534 0.0002689677267830002 9.340965881996839e-05 0.0 0.0
0.0 0.00014930103983981058 -0.00014778385018197267 0.00010423821708274803 4.354563309922459e-05 -4.0710019173656867e-07 0.0 0.0
0.0 -3.9903504363256276e-06 4.113192461324047e-06 -3.3001847011858306e-06 -8.130077601382395e-07 -3.404579106314203e-06 0.0 0.0
0.0 0.0 0.0 0.0 0.0 0.0 0.0 0.0
0.0 0.0 0.0 0.0 0.0 0.0 0.0 0.0
0.0 0.0 0.0 0.0 0.0 0.0 0.0 0.0
0.0 0.0 0.0 0.0 0.0 0.0 0.0 0.0
0.0 0.0 0.0 0.0 0.0 0.0 0.0 0.0
0.0 0.0 0.0 0.0 0.0 0.0 0.0 0.0
0.0 -5.107005508907642e-06 3.700538320477082e-06 -3.4157912585996475e-06 -2.847470618774346e-07 4.015451805127717e-06 0.0 0.0
0.0 0.0003764722177872419 -0.00029877493808989463 0.0002141351359112832 8.463980217861153e-05 5.186390123145134e-05 0.0 0.0
0.0 0.001992256566037014 -0.0017685649916728322 0.001404756961667654 0.000363808030005177 5.083360239858461e-05 0.0 0.0
0.0 0.005159704238510592 -0.00473633287825581 0.004092294712970291 0.0006440381652855231 -0.00018845409390988525 0.0 0.0
0.0 0.010401625187751026 -0.009340741650455009 0.00851008275247039 0.0008306588979846068 -0.0005972171203111143 0.0 0.0
0.0 0.017844926827890815 -0.01579230001212439 0.014843076743945643 0.0009492232681787573 -0.0011734567335952451 0.0 0.0
0.0 0.02746940793512168 -0.024144810657903915 0.023097919777793696 0.0010468908801102071 -0.0018890782039733345 0.0 0.0
0.0 0.03923341108294326 -0.034312698955978174 0.033170211148751405 0.0011424878072267776 -0.0026677610635611033 0.0 0.0
0.0 0.05308802695101414 -0.046171907386227444 0.044930512470456936 0.0012413949157705497 -0.0034548876072760352 0.0 0.0
0.0 0.06833653392960819 -0.05963051369806899 0.058287019003090995 0.0013434946949779046 -0.0042819249147885464 0.0 0.0
0.0 0.08559673345132221 -0.07457879101729749 0.07313845182604335 0.0014403391912540852 -0.005176843170168209 0.0 0.0
0.0 0.10431922595433936 -0.09079810750851078 0.08927997652040698 0.001518130988103832 -0.006110697418857414 0.0 0.0
0.0 0.12396290917762513 -0.10779450208897151 0.10623028337532174 0.001564218713649697 -0.006922151196718159 0.0 0.0
0.0 0.14347581730596176 -0.12465375589774583 0.1230803086371215 0.001573447260624341 -0.007251096149396607 0.0 0.0
0.0 0.16102812889191023 -0.13982681620399612 0.13827910965344092 0.0015477065505552588 -0.007139515886386975 0.0 0.0
0.0 0.17297460154641386 -0.15013875479240513 0.1488070510224356 0.0013317037699693017 -0.009997435808316078 0.0 0.0
0.0 0.1717301635356677 -0.14834622992655896 0.1479897795131871 0.0003564504133718866 -0.028580977726773992 0.0 0.0
0.0 0.16298711711089292 -0.13670554124273757 0.13062689539358277 0.00607864584915476 6.324801793411439e-15 0.0 0.0
0.0 0.17173016353564288 -0.14834622992653576 0.14798977951316455 0.0003564504133711513 0.028580977726792082 0.0 0.0
0.0 0.17297460154635755 -0.15013875479235614 0.14880705102238662 0.0013317037699693474 0.009997435808333077 0.0 0.0
0.0 0.16102812889183055 -0.13982681620392762 0.13827910965337165 0.0015477065505558945 0.007139515886393975 0.0 0.0
0.0 0.1434758173058679 -0.12465375589766475 0.12308030863704031 0.0015734472606244517 0.007251096149396915 0.0 0.0
0.0 0.12396290917752975 -0.10779450208888863 0.10623028337523947 0.0015642187136491058 0.006922151196717184 0.0 0.0
0.0 0.1043192259542382 -0.09079810750842318 0.08927997652031995 0.0015181309881033083 0.006110697418854915 0.0 0.0
0.0 0.08559673345122472 -0.0745787910172126 0.07313845182595975 0.001440339191252746 0.005176843170163505 0.0 0.0
0.0 0.06833653392951325 -0.059630513697986595 0.058287019003009234 0.001343494694977299 0.004281924914785589 0.0 0.0
0.0 0.053088026950920755 -0.04617190738614645 0.044930512470376355 0.0012413949157700898 0.0034548876072691324 0.0 0.0
0.0 0.039233411082863524 -0.03431269895590914 0.033170211148682766 0.0011424878072263868 0.0026677610635529665 0.0 0.0
0.0 0.027469407935058768 -0.024144810657848563 0.02309791977773913 0.0010468908801094363 0.001889078203967095 0.0 0.0
0.0 0.01784492682784264 -0.01579230001208158 0.014843076743903491 0.0009492232681780726 0.0011734567335911703 0.0 0.0
0.0 0.010401625187717175 -0.009340741650424573 0.008510082752440818 0.0008306588979837466 0.0005972171203080703 0.0 0.0
0.0 0.005159704238490044 -0.004736332878236851 0.004092294712952601 0.0006440381652842473 0.00018845409390805327 0.0 0.0
0.0 0.0019922565660269 -0.0017685649916639617 0.0014047569616602031 0.00036380803000375797 -5.083360239873004e-05 0.0 0.0
0.0 0.00037647221778387414 -0.00029877493808766297 0.00021413513590966453 8.463980217799836e-05 -5.186390123105676e-05 0.0 0.0
0.0 -5.1070055089778805e-06 3.70053832006378e-06 -3.4157912582865333e-06 -2.847470617771787e-07 -4.0154518050311966e-06 0.0 0.0
0.0 0.0 0.0 0.0 0.0 0.0 0.0 0.0
0.0 0.0 0.0 0.0 0.0 0.0 0.0 0.0
0.0 0.0 0.0 0.0 0.0 0.0 0.0 0.0
0.0 0.0 0.0 0.0 0.0 0.0 0.0 0.0
0.0 0.0 0.0 0.0 0.0 0.0 0.0 0.0
0.0 0.0 0.0 0.0 0.0 0.0 0.0 0.0
0.0 1.464281329934138e-05 -1.333750738534669e-05 8.328123077314046e-06 5.009384308032749e-06 7.3363638855408466e-06 0.0 0.0
0.0 0.0006648960600374035 -0.0004986505334253807 0.00035573445700934884 0.0001429160764160315 0.00012748277915938788 0.0 0.0
0.0 0.002571580950030548 -0.0022871948336780626 0.0017987699371102154 0.0004884248965678462 0.0002970911306362547 0.0 0.0
0.0 0.006087929608547645 -0.005607316423593887 0.004787705472134378 0.0008196109514595118 0.00038783437576323155 0.0 0.0
0.0 0.011763697696106584 -0.010628567939212782 0.009549691251074752 0.001078876688138024 0.0004362389966224849 0.0 0.0
0.0 0.019714878831084075 -0.017619096895767905 0.016316754527227247 0.001302342368540644 0.000433932131709139 0.0 0.0
0.0 0.030114368304334727 -0.026674933200901634 0.02513314813804839 0.0015417850628532137 0.0003478233019343917 0.0 0.0
0.0 0.04288562714342236 -0.037742770121826405 0.03592253136350134 0.001820238758325084 0.00021807035304054288 0.0 0.0
0.0 0.057562542368862414 -0.05070712386167994 0.048564607103144405 0.0021425167585355006 4.407063509571842e-05 0.0 0.0
0.0 0.07434668499666523 -0.06543062421899294 0.06293247825995515 0.0024981459590377895 -0.0002197536973351519 0.0 0.0
0.0 0.09300117801801233 -0.08175764275521144 0.07888805616010511 0.0028695865951064146 -0.0005414993901085791 0.0 0.0
0.0 0.11319552720156142 -0.09939298955960343 0.09616663241245912 0.0032263571471441415 -0.0009619096588299927 0.0 0.0
0.0 0.1342400141861056 -0.1176920590355671 0.11416569738876121 0.0035263616468059473 -0.0014213099853814127 0.0 0.0
0.0 0.15479575781596125 -0.13551533146513547 0.1317972475808388 0.003718083884296491 -0.001711003784136269 0.0 0.0
0.0 0.1729640930482152 -0.1512390523831735 0.14747400117932485 0.0037650512038486647 -0.0015556637313602056 0.0 0.0
0.0 0.18616396914828706 -0.16283464193153832 0.15903340814395525 0.0038012337875831873 -0.0027714502905613076 0.0 0.0
0.0 0.188743175436397 -0.16558500601073323 0.1617231478795534 0.003861858131179669 -0.02121169608831907 0.0 0.0
0.0 0.18455346271215406 -0.1571642152701473 0.146569501231713 0.010594714038434025 1.457167719820518e-15 0.0 0.0
0.0 0.18874317543636562 -0.16558500601070553 0.16172314787952632 0.0038618581311791 0.021211696088326227 0.0 0.0
0.0 0.1861639691482278 -0.16283464193148622 0.15903340814390515 0.003801233787581186 0.002771450290567308 0.0 0.0
0.0 0.17296409304812857 -0.15123905238309818 0.14747400117925114 0.003765051203847192 0.0015556637313611059 0.0 0.0
0.0 0.15479575781585964 -0.1355153314650468 0.13179724758075173 0.003718083884294854 0.0017110037841349748 0.0 0.0
0.0 0.13424001418600418 -0.11769205903547841 0.11416569738867452 0.0035263616468037577 0.0014213099853805575 0.0 0.0
0.0 0.1131955272014522 -0.09939298955950804 0.0961666324123653 0.003226357147142592 0.0009619096588276092 0.0 0.0
0.0 0.09300117801790862 -0.08175764275512035 0.07888805616001685 0.00286958659510344 0.000541499390106526 0.0 0.0
0.0 0.07434668499656139 -0.06543062421890218 0.06293247825986631 0.0024981459590359485 0.00021975369733453522 0.0 0.0
0.0 0.05756254236876371 -0.050707123861593754 0.048564607103060105 0.0021425167585335816 -4.4070635099169655e-05 0.0 0.0
0.0 0.04288562714333914 -0.0377427701217535 0.03592253136343024 0.001820238758323255 -0.00021807035304360813 0.0 0.0
0.0 0.030114368304267676 -0.026674933200843055 0.025133148137991404 0.001541785062851666 -0.0003478233019367288 0.0 0.0
0.0 0.01971487883103048 -0.017619096895720658 0.01631675452718133 0.001302342368539343 -0.000433932131709953 0.0 0.0
0.0 0.011763697696069556 -0.010628567939179425 0.009549691251042682 0.0010788766881367328 -0.00043623899662228473 0.0 0.0
0.0 0.006087929608525745 -0.005607316423573552 0.004787705472115551 0.0008196109514579954 -0.000387834375762508 0.0 0.0
0.0 0.002571580950020284 -0.0022871948336682627 0.0017987699371019746 0.0004884248965662903 -0.0002970911306352999 0.0 0.0
0.0 0.0006648960600327549 -0.0004986505334218705 0.00035573445700678996 0.0001429160764150812 -0.00012748277915873113 0.0 0.0
0.0 1.4642813298834088e-05 -1.3337507385057232e-05 8.328123077122545e-06 5.0093843079346515e-06 -7.336363885421224e-06 0.0 0.0
0.0 0.0 0.0 0.0 0.0 0.0 0.0 0.0
0.0 0.0 0.0 0.0 0.0 0.0 0.0 0.0
0.0 0.0 0.0 0.0 0.0 0.0 0.0 0.0
SCALARS Wm float 4
LOOKUP_TABLE default
12.569373604942973 2.0107710015035782 5.242658910380838 5.3159436930585535
6.253024395972608 3.007836047802249 1.452771545191558 1.7924168029788023
0.7007620530522697 0.6545838564996175 0.006128788265749251 0.04004940828690307
0.5297126192511505 0.5022458432405608 0.007499263945868528 0.01996751206472158
1.064722552776976 0.768361244479379 0.10579569669891797 0.19056561159867838
2.2994606784750724 1.1052270971737275 0.4390781180609637 0.7551554632403811
4.762929567652337 1.5789138668019365 1.3641560443937932 1.8198596564566114
8.776614226662975 2.1670320336262954 3.092902494528266 3.5166796985084057
14.725062210369387 2.9122077505694626 5.9069256520307905 5.905928807769131
22.89303562282066 3.848204325349143 10.033666059259149 9.011165238212373
33.4204604686635 4.999997162728614 15.608731719718541 12.811731586216343
46.22984127766151 6.374937703985986 22.585676667431194 17.26922690624435
61.43058480810364 7.955813826666551 31.13378276936531 22.340988212071778
78.94774317444283 9.724530033420546 41.23821068523852 27.985002455783757
98.51913482984179 11.549726334007781 52.847990827682125 34.12141766815183
119.53520894036375 13.202723958983439 65.73763061327165 40.594854368108635
140.87932057199865 14.408339017838527 79.31030556363 47.16067599053015
161.04175142425905 14.956637054428716 92.6752060302018 53.409908339628466
178.38562527448263 14.892416012440775 104.63888719832325 58.85432206371877
190.5681478271666 14.047882062746357 113.59452986622759 62.92573589819253
194.53130768511085 12.484822151342321 117.37585737800794 64.6706281557607
190.56814782713414 14.04788206274063 113.59452986620872 62.92573589818478
178.3856252744252 14.892416012440657 104.63888719828391 58.854322063700586
161.0417514241942 14.95663705444881 92.67520603014374 53.4099083396016
140.87932057190056 14.408339017832338 79.31030556356772 47.16067599050044
119.5352089402579 13.20272395896763 65.73763061321168 40.594854368078686
98.5191348297464 11.549726334004083 52.847990827621864 34.12141766812048
78.9477431743464 9.72453003341208 41.23821068518161 27.985002455752706
61.43058480801235 7.955813826656983 31.133782769313477 22.340988212041918
46.22984127758442 6.374937703986806 22.585676667382867 17.269226906214772
33.420460468598264 4.999997162722277 15.608731719683043 12.811731586192922
22.893035622770803 3.8482043253439984 10.033666059233127 9.011165238193687
14.725062210330066 2.9122077505609036 5.906925652013773 5.905928807755394
8.77661422663805 2.167032033622874 3.0929024945171255 3.5166796984980517
4.76292956763609 1.5789138667973255 1.3641560443882919 1.819859656450473
2.299460678467612 1.1052270971711196 0.4390781180592051 0.7551554632372873
1.0647225527743467 0.7683612444783248 0.10579569669830069 0.19056561159772134
0.5297126192506701 0.5022458432400075 0.007499263945877894 0.019967512064784955
0.7007620530513787 0.6545838564990425 0.0061287882656583725 0.04004940828667735
6.253024395966794 3.0078360478025217 1.4527715451885626 1.7924168029757075
12.569373604915775 2.0107710014908147 5.242658910372906 5.315943693052066
14.976403009445937 6.547113275655482 4.064141737710015 4.365147996080439
2.4941907063427053 0.5467185612651373 0.8170578427638043 1.1304143023137625
0.26672984725525556 0.3076481947629736 -0.01312184040994454 -0.02779650709777355
0.4133012281036496 0.4052424249393294 0.0014358186110306121 0.00662298455328949
0.8047746079895501 0.6297147479555916 0.05354880947883345 0.12151105055512529
1.838144158292625 0.921538990472522 0.34038937180740214 0.5762157960127017
3.9080050105958235 1.254053623617295 1.107374055192338 1.5465773317861902
7.426893543059484 1.6598088265174946 2.6547178889342304 3.11236682760776
12.67330982087539 2.1284728216777022 5.209643491314727 5.335193507882962
19.825686481672914 2.661712831772878 8.94107768621858 8.222895963681443
28.97073863900485 3.2550048909719007 13.96953760531955 11.746196142713403
40.176370820672496 3.920994458715573 20.3934928745049 15.861883487452026
53.237225903679224 4.670278763813297 28.024084248918065 20.542862890947873
68.40996665631006 5.475468523080906 37.18007153029434 25.754426602934828
85.41176456215808 6.280526822012521 47.69110530809771 31.440132432047857
103.78202459956323 6.962727659702982 59.360719417456906 37.45857752240325
122.65710262414412 7.372905454132219 71.73317261426291 43.55102455574892
140.76877095115677 7.405320202444249 83.98602735492757 49.37742339378492
156.41622088211946 6.982150221490908 94.96616316989713 54.46790749073137
167.47531526499267 6.155362369813665 103.14603486228842 58.17391803289057
171.6399018178817 5.219886095733337 106.67222783351849 59.747787888629915
167.47531526496235 6.155362369807002 103.14603486227203 58.17391803288328
156.416220882075 6.982150221499848 94.96616316986054 54.46790749071471
140.76877095108003 7.405320202440022 83.98602735487825 49.377423393761774
122.6571026240594 7.372905454129022 71.73317261420812 43.551024555722236
103.78202459948214 6.9627276597052425 59.3607194174015 37.45857752237541
85.41176456207106 6.280526822008277 47.69110530804356 31.440132432019226
68.40996665622463 5.475468523074336 37.18007153024351 25.754426602906765
53.23722590360082 4.670278763808752 28.024084248871535 20.542862890920503
40.17637082060138 3.9209944587143792 20.393492874461916 15.86188348742508
28.97073863894837 3.255004890970627 13.969537605286613 11.746196142691135
19.82568648162906 2.661712831769425 8.941077686195404 8.222895963664222
12.673309820843134 2.1284728216750013 5.209643491298635 5.3351935078694925
7.426893543037309 1.6598088265147117 2.6547178889243446 3.112366827598255
3.9080050105833237 1.254053623615124 1.1073740551875824 1.5465773317806157
1.8381441582865112 0.9215389904706889 0.34038937180557866 0.576215796010244
0.8047746079875084 0.6297147479547315 0.053548809478399156 0.12151105055437804
0.41330122810326997 0.40524242493885193 0.0014358186110382289 0.00662298455337989
0.2667298472552576 0.3076481947628701 -0.013121840409893991 -0.027796507097718505
2.494190706336095 0.546718561264142 0.8170578427610675 1.1304143023108861
14.97640300941948 6.547113275643496 4.064141737702261 4.365147996073705
11.281305194989418 5.195549744442212 2.8144993324524075 3.271256118094797
1.545996928607111 0.21731719132796795 0.5440161125728499 0.7846636247062947
0.16740638548883846 0.16728353790505024 1.421468688467134e-05 0.00010863289690362365
0.3076063428226803 0.30970202410656716 -0.0005265609605678482 -0.001569120323319002
0.6106626893279197 0.5386639836007733 0.018219712797388626 0.05377899292975789
1.4293751800530374 0.825981650871111 0.21591375113263359 0.3874797780492932
3.1606208619254352 1.1457317305676789 0.8058024729368674 1.209086658420888
6.2290517203221984 1.52527076289111 2.110457708281162 2.593323249149925
10.839682543226417 1.9477334405491837 4.3024458856811005 4.58950321699613
17.153178812789434 2.4125985210494836 7.554259585340184 7.186320706399765
25.182976685115477 2.924075099683455 11.918162289106727 10.34073929632529
34.896507096158835 3.495138192931116 17.390311792082258 14.011057111145456
46.458413922636936 4.147953161316126 24.142607896339413 18.167852864981395
59.60911526740665 4.870207783400658 31.931748045957182 22.807159438048785
74.5172984178642 5.601444276002636 41.04045688589926 27.87539725596229
90.70419128802425 6.258166614921951 51.180062437040895 33.265962236061384
107.45660151929268 6.716351652543476 61.96193218943297 38.77831767731625
123.6221893863867 6.831453764333995 72.72628624514454 44.064449376908144
137.5925173746425 6.487127087714624 82.42781042303633 48.67757986389159
147.50080445429776 5.857168867680228 89.63027750012796 52.01335808648957
151.08628348392304 4.714328650721619 92.86235599247364 53.509598840727826
147.5008044542817 5.857168867686034 89.6302775001131 52.01335808648246
137.59251737459437 6.487127087712853 82.42781042300489 48.67757986387666
123.62218938633274 6.831453764340161 72.72628624510413 44.06444937688839
107.45660151921878 6.716351652538253 61.96193218938725 38.7783176772933
90.70419128795112 6.258166614923642 51.180062436991626 33.26596223603588
74.51729841778808 5.601444275997525 41.04045688585317 27.875397255937376
59.6091152673323 4.870207783394004 31.931748045914137 22.807159438024144
46.458413922565974 4.147953161308785 24.142607896299797 18.1678528649574
34.8965070960985 3.495138192931723 17.390311792045235 14.011057111121573
25.182976685063753 2.9240750996803744 11.918162289078182 10.340739296305197
17.15317881275003 2.412598521045196 7.554259585320393 7.186320706384447
10.839682543196915 1.9477334405465287 4.302445885666724 4.589503216983661
6.2290517203032945 1.5252707628890856 2.1104577082727167 2.593323249141494
3.160620861915051 1.145731730566543 0.8058024729328298 1.2090866584156774
1.4293751800481211 0.8259816508697444 0.21591375113119737 0.3874797780471793
0.6106626893265573 0.5386639836000293 0.01821971279718055 0.053778992929347215
0.30760634282249266 0.30970202410624864 -0.0005265609605453586 -0.0015691203232105343
0.16740638548870287 0.16728353790490935 1.4214686884826915e-05 0.00010863289690870991
1.545996928601882 0.21731719132742114 0.5440161125706958 0.7846636247037644
11.281305194964883 5.195549744431966 2.814499332445046 3.2712561180878774
8.510310014326803 4.043634759674814 1.9860262070198922 2.4806490476321
1.0349178502796037 0.10385955052961865 0.3602099907132767 0.5708483090367072
0.11750753823408601 0.11750753823408601 0.0 0.0
0.2308592102719629 0.23135403975223054 -5.663330456272233e-05 -0.0004381961757049604
0.4627726145397494 0.44828784789340603 0.002499006111843815 0.011985760534499621
1.0643277618479812 0.7141218861410787 0.11235301336108386 0.2378528623458191
2.496664356832838 1.0399509368419622 0.567039340617928 0.8896740793729473
5.080189058045774 1.3860412750327304 1.6064297831140686 2.0877179998989748
9.069592131935416 1.7658483886745509 3.4531252145350146 3.850618528725848
14.538118482740463 2.169959511085615 6.21612501654857 6.15203395510628
21.4511491216355 2.6053269776001935 9.90736857144619 8.938453572589117
29.849239066736203 3.0963534273056745 14.590206040050084 12.162679599380452
39.65129480652271 3.658304010158583 20.186924092561586 15.806066703802554
51.11847361696144 4.289250989421082 26.96838859856735 19.860834028972995
63.92356369395773 4.959372129974927 34.65094932929787 24.313242234684935
77.89254331792625 5.594045562003027 43.22251111080041 29.075986645122832
92.60124374323854 6.0891545174461355 52.540247910090805 33.97184131570162
106.91132464025381 6.295366454413393 61.88663016392885 38.729328021911535
119.3894304271188 6.094727623764133 70.3639844257515 42.93071837760312
128.38560466338797 5.592372535839143 76.75976460698494 46.03346752056389
131.64848893510538 4.225035077479894 79.90950445906716 47.51394939855828
128.38560466337066 5.59237253584279 76.75976460697063 46.03346752055719
119.38943042707302 6.0947276237545704 70.36398442572721 42.930718377591255
106.91132464020359 6.29536645441579 61.88663016389367 38.72932802189415
92.60124374318364 6.089154517450649 52.540247910051775 33.971841315681225
77.89254331785932 5.594045561998278 43.222511110759996 29.075986645101118
63.92356369388787 4.95937212996381 34.650949329260335 24.313242234663683
51.11847361689865 4.289250989416287 26.968388598530957 19.860834028951395
39.65129480646392 3.6583040101550726 20.186924092527576 15.806066703781273
29.849239066681132 3.096353427300897 14.590206040020067 12.162679599360176
21.451149121593726 2.605326977599252 9.90736857142261 8.938453572571866
14.53811848270673 2.169959511082665 6.216125016531467 6.15203395509259
9.069592131910355 1.7658483886726786 3.453125214522831 3.8506185287148456
5.0801890580293945 1.3860412750305278 1.60642978310733 2.087717999891535
2.4966643568240485 1.0399509368412616 0.567039340614296 0.8896740793684907
1.0643277618443898 0.7141218861397324 0.11235301336021648 0.23785286234444136
0.4627726145388671 0.448287847892645 0.002499006111784633 0.011985760534437489
0.23085921027179293 0.23135403975209937 -5.663330456733704e-05 -0.0004381961757391256
0.11750753823398588 0.11750753823398588 0.0 0.0
1.0349178502753027 0.10385955052925913 0.3602099907114835 0.5708483090345609
8.510310014306556 4.043634759666636 1.9860262070140238 2.4806490476258976
6.327020630345469 3.1245379205678465 1.354163876104086 1.848318833673538
0.757471937878775 0.11028315084229663 0.2551085656065113 0.3920802214299674
0.10699836651894916 0.10699836651894916 0.0 0.0
0.18484667902105884 0.18482445118388877 2.9205676877888873e-06 1.9307269482280325e-05
0.3530849801227532 0.3585528826984658 -0.0023412948878788423 -0.003126607687833651
0.7795628125446004 0.6143261547226232 0.0469581481631182 0.11827850965885836
1.8916073848496986 0.9137377898938074 0.3713136510100626 0.6065559439458293
3.9979977707009144 1.2437540296661163 1.1526954149238011 1.6015483261109964
7.361220900505237 1.5822654262558684 2.6563303218601666 3.122625152389205
11.990567439933107 1.9319297248599656 4.934253776605845 5.124383938467296
17.84993411494874 2.3029577636556793 8.00610694171198 7.5408694095810755
24.907000613441163 2.717106771455891 11.869194532060149 10.320699309925118
33.21671881407533 3.2001136726209842 16.568937165113137 13.447667976341217
42.68627592647114 3.7518272967316433 22.003118319348456 16.93133031039102
53.54856981820826 4.345728635788502 28.444391113008955 20.7584500694108
65.52352048284519 4.952711698597914 35.69363371086041 24.877175073386866
78.0861796299759 5.486685741196422 43.434229795722906 29.165264093056535
90.58401945359331 5.802777954770911 51.401935229374345 33.37930626944806
101.7247757300769 5.756574337563244 58.79756144001373 37.17063995249996
110.04083550546613 5.363162608567067 64.59965588669914 40.0780170101999
113.11654346694812 3.7519345562478996 67.73620702349349 41.62840188720677
110.04083550544888 5.3631626085679365 64.59965588668715 40.07801701019378
101.72477573004106 5.756574337555042 58.797561439995384 37.170639952490625
90.584019453557 5.802777954779479 51.40193522934493 33.379306269432604
78.0861796299173 5.486685741187749 43.43422979569034 29.16526409303922
65.5235204827942 4.952711698599499 35.693633710826695 24.877175073367983
53.54856981815925 4.345728635790171 28.44439111297698 20.75845006939211
42.68627592642314 3.7518272967340063 22.00311831931729 16.931330310371845
33.216718814023196 3.200113672614589 16.56893716508552 13.447667976323084
24.907000613396242 2.717106771450874 11.869194532036744 10.320699309908617
17.849934114911296 2.302957763652584 8.006106941692499 7.540869409566212
11.990567439905497 1.9319297248592489 4.934253776591206 5.124383938455048
7.361220900483967 1.5822654262538323 2.656330321850383 3.12262515237975
3.9979977706875784 1.243754029664121 1.1526954149184676 1.6015483261049892
1.8916073848425405 0.9137377898926216 0.3713136510074815 0.6065559439424376
0.7795628125420554 0.6143261547213095 0.04695814816268417 0.11827850965806162
0.35308498012222234 0.35855288269777624 -0.002341294887853719 -0.003126607687700132
0.1848466790209121 0.18482445118377014 2.9205676860914977e-06 1.9307269455847747e-05
0.10699836651890518 0.10699836651890518 0.0 0.0
0.7574719378754542 0.11028315084211501 0.25510856560506484 0.39208022142827564
6.3270206303291 3.124537920561215 1.3541638760995323 1.848318833668352
4.616075087898846 2.3945002719830084 0.8982482023338038 1.323326613582034
0.5364993656572645 0.1428643747588411 0.13772737746956454 0.2559076134288589
0.12055976585357714 0.12055976585357714 0.0 0.0
0.16314010953902008 0.16312043041698526 1.3662678090342908e-06 1.8312854225805885e-05
0.2823650382278909 0.2887705797465503 -0.0013716026849933858 -0.005033938833665989
0.5606469443423427 0.5061600775446344 0.009948250836526232 0.044538615961182346
1.3387639389645156 0.7709013304068052 0.18838750735405443 0.3794751012036559
3.039798222227855 1.0919731898989684 0.8041344929515001 1.1436905393773866
5.707874050790922 1.3949147855229056 1.9028251355393695 2.4101341297286494
9.545846841267043 1.698926360296038 3.7395770829393737 4.107343398031626
14.360224689785355 2.012012748714429 6.197212592171555 6.150999348899365
20.12279228891899 2.360382138658332 9.274731821028709 8.48767832923196
26.856231174423286 2.7689168876163985 12.986396052247734 11.100918234559156
34.66861391788415 3.243950711935651 17.41590341956833 14.008759786380184
43.504942632701244 3.77953813964544 22.507867378070284 17.217537114985515
53.29723700552469 4.336751161258688 28.26892619435714 20.69155964990887
63.98231367789437 4.885945640299112 34.76069795685193 24.33567008074334
74.67788749865556 5.328342365201138 41.34256751810795 28.00697761534646
84.49654773051199 5.455369973772438 47.61950148746135 31.421676269278162
92.29211485285511 5.171215619387392 52.94406483253976 34.17683440092795
95.29918755289896 3.3034674451568606 56.16629853985129 35.82942156789086
92.29211485284678 5.171215619394327 52.94406483252976 34.176834400922644
84.4965477304906 5.455369973773747 47.61950148744658 31.42167626927033
74.67788749861643 5.328342365197674 41.342567518084685 28.00697761533408
63.98231367785799 4.885945640303425 34.76069795682578 24.33567008072876
53.297237005471885 4.336751161248528 28.26892619433028 20.691559649893097
43.50494263265473 3.7795381396420704 22.507867378043496 17.21753711496915
34.66861391784013 3.2439507119318947 17.415903419543923 14.008759786364308
26.856231174386718 2.768916887617373 12.986396052225489 11.100918234543851
20.12279228888314 2.360382138654841 9.274731821010107 8.487678329218198
14.360224689755059 2.0120127487127726 6.197212592155655 6.150999348886632
9.545846841242824 1.6989263602934885 3.7395770829279416 4.107343398021391
5.707874050774774 1.394914785521966 1.9028251355318953 2.4101341297209147
3.039798222217288 1.0919731898973473 0.8041344929473243 1.1436905393726153
1.3387639389594046 0.7709013304055095 0.18838750735253262 0.3794751012013622
0.5606469443406501 0.5061600775436698 0.009948250836308304 0.0445386159606721
0.282365038227546 0.2887705797459446 -0.0013716026849511695 -0.0050339388334473935
0.16314010953893848 0.16312043041690255 1.3662678090459725e-06 1.8312854226933103e-05
0.12055976585350474 0.12055976585350474 0.0 0.0
0.5364993656547727 0.14286437475869002 0.1377273774685361 0.2559076134275467
4.616075087886128 2.3945002719776625 0.8982482023305218 1.3233266135779445
3.2479924400415765 1.8073378334514136 0.5425580545541111 0.8980965520360522
0.4019700498612005 0.18678630527570955 0.06936493073470387 0.14581881385078704
0.1446371175187014 0.14464954594720436 -6.591917487488861e-07 -1.1769236754219564e-05
0.15885089799630384 0.15883661198018678 9.176681420014073e-07 1.3368347975063384e-05
0.23935787831019148 0.24185151736585006 -0.0004776593679273304 -0.002015979687731223
0.41197288421029676 0.41375619862538493 -0.0035943981330607434 0.0018110837179725367
0.919558178916656 0.640412364039443 0.08177823925835405 0.19736757561885868
2.1023458484970767 0.9111518155553415 0.4413531785148056 0.7498408544269302
4.257939394807461 1.2075392188355814 1.3245482403562674 1.725851935615613
7.18067424488353 1.4653353530725106 2.6116309047949366 3.103707987016083
11.01421528734081 1.731153836392183 4.509873931987759 4.7731875189608735
15.54328148814469 2.022031026826758 6.855201667740719 6.666048793577214
20.79358641835406 2.3641613110406987 9.660419091205203 8.769006016108158
26.860926118738984 2.7696646880172096 12.987790169683345 11.103471261038425
33.79570000440083 3.2373754036800015 16.866366917985403 13.69195768273543
41.69409419949223 3.7545853220106964 21.423285489399024 16.516223388082505
50.06064318195249 4.295032187645437 26.240193131325896 19.525417862981183
59.05549355545435 4.832057359916465 31.622197442687913 22.60123875284995
67.81412884281687 5.162976911071389 37.03182440586219 25.61932752588327
75.11988290574226 5.023886937468935 41.82823556362734 28.267760404646
78.19328220359692 2.89306404074958 45.21742562942329 30.082792533424026
75.11988290573208 5.02388693747159 41.82823556361902 28.267760404641457
67.81412884279236 5.162976911064432 37.03182440585084 25.619327525877093
59.05549355543312 4.832057359922932 31.622197442670313 22.601238752839855
50.060643181911736 4.295032187637335 26.240193131305382 19.525417862969025
41.69409419946195 3.7545853220138894 21.423285489378287 16.516223388069765
33.795700004364534 3.23737540367564 16.866366917966104 13.691957682722787
26.8609261187127 2.7696646880228015 12.987790169664482 11.103471261025422
20.79358641832097 2.36416131103721 9.660419091188082 8.76900601609568
15.54328148811626 2.0220310268236643 6.855201667726489 6.666048793566106
11.014215287315805 1.731153836389471 4.509873931975756 4.773187518950576
7.1806742448652265 1.4653353530711353 2.611630904786252 3.103707987007842
4.257939394794104 1.2075392188340806 1.3245482403504438 1.7258519356095796
2.102345848489392 0.911151815553969 0.4413531785120538 0.7498408544233692
0.9195581789132067 0.640412364038547 0.08177823925739541 0.1973675756172646
0.41197288420914147 0.4137561986243176 -0.0035943981330714345 0.0018110837178954603
0.2393578783098228 0.2418515173654531 -0.00047765936792029093 -0.0020159796877100193
0.158850897996101 0.1588366119799893 9.176681415783688e-07 1.336834797013782e-05
0.14463711751824726 0.14464954594673557 -6.591917477816558e-07 -1.1769236740542314e-05
0.4019700498592577 0.18678630527545717 0.06936493073400073 0.14581881384979933
3.2479924400321982 1.8073378334475467 0.542558054551814 0.8980965520328382
2.259373125913177 1.3807011858323606 0.3347303052454817 0.5439416348353346
0.29616499136051355 0.2113491380361885 0.01745740588146032 0.0673584474428648
0.17003446443892417 0.17000887019960367 2.4303645033747284e-06 2.316387481709412e-05
0.16594532441974263 0.16591580421976226 2.1723866411831483e-06 2.7347813339094914e-05
0.21518421384508815 0.21709239089513105 -0.00032046025699705586 -0.0015877167930458186
0.32300066668914035 0.33539068400460476 -0.0042670875060357395 -0.008122929809428846
0.6044026230818209 0.5117815595482136 0.01874857945990295 0.07387248407370432
1.3542285445472193 0.731393462185997 0.20389826539917044 0.4189368169620524
2.8116873144983083 0.9845391265385485 0.7208196679826625 1.1063285199770965
5.057933091329396 1.228794865233266 1.6981228536910777 2.1310153724050513
7.832304623041985 1.4511456908869316 2.9701788248828427 3.4109801072722115
11.166095519889108 1.6934018210537396 4.610149361445056 4.862544337390309
15.025586638682697 1.9778044560732677 6.589090915263206 6.458691267346227
19.456469511916342 2.3157168982533824 8.915696821092935 8.225055792570025
24.60397494875099 2.7240330941891835 11.68861456955899 10.19132728500282
30.426487693181254 3.1925305704854123 14.865866978482249 12.368090144213607
36.96555274979622 3.70245440016823 18.55080469584208 14.712293653785906
43.96892069506596 4.292239771522789 22.479164546254246 17.19751637728894
51.311455476601836 4.835723707376222 26.697909555391583 19.777822213834018
58.301240547456786 4.918646042744758 31.08089682898316 22.301697675728853
61.61285594581493 2.5323499964027603 34.733039328352156 24.347466621060022
58.30124054744679 4.918646042740754 31.080896828979224 22.301697675726817
51.31145547659576 4.835723707382769 26.69790955538369 19.777822213829307
43.968920695040794 4.292239771518962 22.47916454624103 17.19751637728082
36.96555274978065 3.7024544001787714 18.550804695826134 14.712293653775737
30.426487693148545 3.1925305704780333 14.865866978467025 12.368090144203478
24.603974948727632 2.724033094189906 11.688614569544841 10.1913272849929
19.456469511885732 2.3157168982449576 8.91569682108015 8.22505579256062
15.025586638662066 1.977804456072891 6.589090915251866 6.458691267337307
11.166095519869584 1.6934018210531718 4.610149361434852 4.86254433738156
7.832304623024819 1.4511456908862506 2.9701788248743277 3.4109801072642427
5.057933091315704 1.228794865232489 1.6981228536846404 2.1310153723985747
2.8116873144894186 0.9845391265370309 0.7208196679792928 1.1063285199730943
1.354228544541994 0.7313934621847069 0.20389826539759903 0.41893681695968743
0.6044026230797545 0.5117815595474903 0.01874857945949795 0.07387248407276625
0.32300066668832705 0.3353906840033951 -0.004267087505973623 -0.008122929809094657
0.21518421384477227 0.21709239089485163 -0.0003204602569942218 -0.0015877167930851597
0.16594532441925366 0.1659158042192498 2.172386642150975e-06 2.734781336166246e-05
0.1700344644384326 0.17000887019899968 2.4303645121366184e-06 2.316387492078407e-05
0.29616499135911767 0.21134913803589822 0.017457405881071267 0.06735844744214801
2.259373125906288 1.3807011858296299 0.334730305243694 0.5439416348329652
1.464836670530605 1.0228207858218799 0.1447896372259722 0.29722624748275245
0.23394745145887422 0.22203215529986592 -0.0016851644827970192 0.013600460641805395
0.19174655456354697 0.19183157019182626 -7.697896812186585e-06 -7.731773146702767e-05
0.1794646358827812 0.17953705511991655 -4.849802464876978e-06 -6.756943467052138e-05
0.20441061636683203 0.20622491961559689 -0.00031089256090641165 -0.0015034106878584364
0.27412644956983945 0.2807320353570915 -0.0023708973259964385 -0.0042346884612555645
0.41401101733004897 0.404642288362894 -0.0023120036495483977 0.011680732616703448
0.7919166729747464 0.5619619172302281 0.06366162507816242 0.16629313066635604
1.6271378985075204 0.750269839849007 0.3068358031515168 0.5700322555069959
3.019197639132553 0.9515093795484882 0.8369446447559458 1.2307436148281194
4.84416141051754 1.1434802446626706 1.6032341290787624 2.0974470367761087
7.0622229956403695 1.348324843858853 2.619705623567293 3.0941925282142226
9.6084738968267 1.5842372848744903 3.8335540647569935 4.190682547195214
12.523943678811197 1.8602947647943202 5.263403586028 5.400245327988879
15.929952626467024 2.2023913856019104 6.975266536984395 6.752294703880711
19.921935439141727 2.6243138913973207 9.021334289709758 8.276287258034653
24.485976199549995 3.108087936607547 11.403697623125678 9.974190639816761
29.52585101754473 3.6447655471748357 14.059419665992982 11.82166580437692
35.4197722745697 4.360752861217707 17.1711036898218 13.887915723530185
42.07380608314487 4.851729524443604 20.974757754436276 16.247318804264978
45.76290819570989 2.2691198845612175 24.812575645554862 18.681212665593822
42.073806083148455 4.851729524448274 20.974757754435586 16.247318804264594
35.419772274554084 4.360752861210202 17.171103689816864 13.887915723527014
29.525851017530194 3.644765547173654 14.059419665984915 11.821665804371612
24.485976199518507 3.1080879365954264 11.403697623114267 9.974190639808805
19.9219354391306 2.624313891402695 9.021334289700253 8.276287258027658
15.929952626446894 2.2023913855973207 6.975266536975609 6.752294703873957
12.523943678802452 1.860294764797727 5.263403586021332 5.400245327983395
9.60847389681264 1.5842372848727762 3.833554064750473 4.190682547189391
7.062222995626034 1.3483248438569178 2.619705623560862 3.094192528208258
4.84416141050342 1.1434802446584627 1.6032341290739278 2.097447036771028
3.01919763912407 0.9515093795477954 0.8369446447523035 1.2307436148239694
1.6271378985026494 0.7502698398478745 0.3068358031499507 0.5700322555048251
0.7919166729718117 0.5619619172290974 0.06366162507752478 0.16629313066518947
0.4140110173287585 0.40464228836189614 -0.002312003649665037 0.011680732616527502
0.27412644956934484 0.28073203535632085 -0.0023708973259467243 -0.00423468846102918
0.20441061636655217 0.2062249196151697 -0.000310892560895456 -0.001503410687722134
0.17946463588228947 0.17953705511945325 -4.8498024660886615e-06 -6.756943469766917e-05
0.19174655456316753 0.19183157019134317 -7.69789680692967e-06 -7.731773136870982e-05
0.23394745145830687 0.2220321552996797 -0.0016851644829264248 0.013600460641553585
1.4648366705257654 1.0228207858195335 0.14478963722498026 0.2972262474812513
0.9350779365932386 0.7698969567311511 0.0476011958067562 0.11757978405533127
0.1979350559504063 0.2125998338704794 -0.0053668379693592476 -0.009297939950713846
0.20744952454173213 0.20745058239456507 -1.959341032367452e-07 -8.61918729629425e-07
0.19544445224563298 0.1954608530173428 -2.0502292903264376e-06 -1.4350542419462072e-05
0.20545554960067475 0.20684998657404846 -0.0002782182390143742 -0.0011162187343594485
0.25009797962085173 0.25559814364824734 -0.0017480554499707697 -0.003752108577424742
0.3268884354353874 0.3221875625070166 -0.0006650892534093555 0.005365962181779998
0.45158207940111644 0.39579715429017626 0.011095492667643312 0.04468943244329684
0.7434276766339003 0.4972411953041049 0.06978704054679363 0.17639944078300168
1.3334271852896622 0.6276654547985486 0.24227617952515146 0.4634855509659622
2.259217784700849 0.7620581002334439 0.5878935412570502 0.9092661432103539
3.3841205734820146 0.9023225485682073 1.0238425728613139 1.4579554520524938
4.731029439774274 1.0741216812372083 1.5890700948896934 2.067837663647371
6.310046406404 1.2838414894046777 2.2772449905840775 2.7489599264152447
8.175010605441315 1.5491406045039686 3.1036778218851 3.5221921790522464
10.452554362155754 1.9025738261951572 4.123166906299436 4.426813629661156
13.266596450525126 2.3549929074589904 5.4101089333868515 5.501494609679283
16.60240810255892 2.8409275265183043 7.014826943393184 6.746653632647433
20.57254232246354 3.429155928959278 8.94352259303598 8.199863800468279
26.356671575452275 4.533532733042948 11.652156910588554 10.170981931820775
31.421215732585647 2.223971830280366 16.050617564958838 13.146626337346442
26.356671575452207 4.533532733040168 11.652156910590177 10.170981931821865
20.57254232245773 3.429155928955323 8.943522593034874 8.199863800467533
16.602408102552708 2.840927526521925 7.01482694338762 6.746653632643163
13.266596450513843 2.3549929074570333 5.410108933381647 5.501494609675165
10.452554362145309 1.9025738261953182 4.123166906293757 4.426813629656236
8.17501060543308 1.5491406045015272 3.103677821882109 3.5221921790494455
6.310046406397505 1.283841489405755 2.2772449905801806 2.748959926411568
4.731029439769042 1.0741216812391254 1.5890700948861711 2.067837663643744
3.3841205734767383 0.9023225485695362 1.023842572858223 1.4579554520489793
2.2592177846965678 0.7620581002336511 0.587893541255055 0.9092661432078626
1.3334271852857151 0.6276654547975712 0.2422761795239064 0.4634855509642376
0.7434276766326522 0.4972411953042004 0.06978704054633499 0.1763994407821165
0.4515820794002536 0.3957971542898777 0.011095492667463992 0.04468943244291207
0.3268884354347721 0.32218756250644026 -0.0006650892534317181 0.0053659621817633485
0.2500979796205358 0.25559814364775413 -0.0017480554499378527 -0.0037521085772804505
0.2054555496003465 0.20684998657366235 -0.000278218239006742 -0.0011162187343090441
0.1954444522450994 0.1954608530167252 -2.050229281654777e-06 -1.435054234420867e-05
0.20744952454140322 0.20745058239401862 -1.9593407950921033e-07 -8.619185358669121e-07
0.19793505594996297 0.21259983387000225 -0.005366837969337543 -0.009297939950701658
0.9350779365903773 0.7698969567297069 0.0476011958062633 0.11757978405440665
0.588638732587988 0.5607299160463239 0.004998991551999807 0.022909824989664283
0.18325183366118206 0.18842185391884891 -0.0009225141911019743 -0.004247506066564941
0.21693659666336318 0.21727200110956854 -3.345738634480433e-05 -0.0003019470598605279
0.21125496953665315 0.21123989362110548 2.116039872870978e-07 1.4864311560366552e-05
0.2158885792158387 0.2166999117612719 -0.00023070814935813463 -0.0005806243960749847
0.24729978807651976 0.25074598575624296 -0.0013501764365191832 -0.002096021243203952
0.3041136763908358 0.29488442434690026 0.000927269963360347 0.008301982080575362
0.35732058338511336 0.3015516874810821 0.012970099051194655 0.04279879685283654
0.39999458013920075 0.2668981763005707 0.04108065053891115 0.09201575329971899
0.4922018314021309 0.23369008307705175 0.08646568133281829 0.1720460669922607
0.720961693035781 0.259508956663558 0.1800098456315071 0.2814428907407165
1.0745006648664086 0.29952836658544546 0.30521383280375014 0.4697584654772129
1.5654714959614353 0.30405423745576615 0.5132940155949013 0.7481232429107676
2.181542729998196 0.31298710893194465 0.7892255621832935 1.079330058882959
2.940165161875879 0.3453230253821138 1.1349221588062677 1.4599199776874967
3.845669527991406 0.421090233381365 1.5386972479292325 1.8858820466808086
4.950549757052572 0.5628257875473591 2.0337574823327325 2.3539664871724812
6.252128335324491 0.7646925473754114 2.624900722921248 2.862535065027832
8.132994023838686 1.1314557191272947 3.445566727941993 3.5559715767693976
12.928627429358697 2.6701884058249816 5.046280623300852 5.212158400232863
21.607151437760788 2.321474755527231 10.08092182695784 9.204754855275729
12.928627429355561 2.6701884058168592 5.046280623303677 5.212158400235026
8.132994023835682 1.1314557191261558 3.445566727940955 3.5559715767685693
6.252128335308942 0.7646925473674467 2.624900722917247 2.862535065024247
4.950549757046905 0.5628257875476671 2.0337574823296274 2.3539664871696075
3.845669527980648 0.4210902333757674 1.5386972479267875 1.8858820466780932
2.9401651618722218 0.3453230253820088 1.1349221588044318 1.4599199776857816
2.1815427299900234 0.3129871089282146 0.7892255621813622 1.0793300588804475
1.5654714959530631 0.30405423745286 0.5132940155925072 0.7481232429076956
1.0745006648612179 0.2995283665834021 0.3052138328023234 0.469758465475493
0.7209616930341527 0.2595089566638772 0.18000984563059003 0.28144289073968487
0.4922018314018489 0.2336900830770437 0.08646568133273086 0.17204606699207503
0.39999458013839384 0.2668981763004525 0.041080650538649024 0.09201575329929221
0.3573205833845088 0.3015516874810089 0.012970099051021295 0.04279879685247881
0.3041136763901146 0.2948844243462644 0.0009272699632996394 0.008301982080550475
0.2472997880760185 0.25074598575552937 -0.0013501764364813084 -0.002096021243029714
0.2158885792152424 0.21669991176053327 -0.00023070814934397448 -0.0005806243959468227
0.21125496953604855 0.21123989362033585 2.116040064336124e-07 1.4864311706295309e-05
0.21693659666308004 0.21727200110937817 -3.34573863543482e-05 -0.00030194705994379597
0.18325183366075762 0.18842185391833596 -0.0009225141910797032 -0.004247506066498656
0.5886387325867067 0.5607299160452005 0.00499899155190866 0.022909824989597777
0.38256594948455164 0.3836536798157944 -0.00019311161357647163 -0.0008946187176662962
0.1733339609980208 0.17327777248402562 1.6614191107625724e-05 3.9574322887538535e-05
0.22046707675745406 0.22035053481489925 2.5067698374684237e-06 0.00011403517271738083
0.22483491629779873 0.2247230430367023 2.319296283017747e-06 0.00010955396481333898
0.2321984835764628 0.23215573340395304 -0.00013177075598623156 0.00017452092849600795
0.2664467925953786 0.2676849862024003 -0.001109717006354555 -0.00012847660066727648
0.33667395664699157 0.3301676921708093 0.00045126372797392575 0.006055000748208298
0.4562434074637965 0.3974681780353832 0.01224202884315425 0.046533200585258984
0.7447460695675168 0.4970862354730517 0.0703331799200188 0.177326654174446
1.332318697367718 0.6272345919321136 0.24194149597429906 0.46314260946130514
2.2614957762953614 0.7637725269222231 0.5885480327310559 0.9091752166420831
3.399385999466627 0.904852192666533 1.0312817872365772 1.4632520195635168
4.765698299655715 1.0792227864423782 1.6036008487470255 2.0828746644663103
6.3511088645145914 1.2863944355043602 2.2976688449613243 2.767045584048906
8.10943854956106 1.5264859492957985 3.082979423151516 3.499973177113746
9.956077532849559 1.8024079719088952 3.918218963739148 4.2354505972015195
11.653747552019738 2.0976151203654583 4.6802521632634 4.875880268390877
13.015976779089335 2.4415922714729605 5.281506408640471 5.292878098975904
13.497303914573028 2.6805902786055866 5.4541766567865215 5.362536979180924
10.837781152428402 1.7085131591793339 4.711545529879636 4.417722463369427
21.88166393272941 3.7904198555575674 9.274640873206279 8.816603203965562
10.837781152442442 1.708513159187438 4.711545529882901 4.417722463372102
13.49730391456775 2.6805902786029274 5.454176656784969 5.362536979179856
13.015976779084829 2.4415922714763783 5.281506408636047 5.292878098972393
11.653747552000148 2.097615120359502 4.680252163255951 4.875880268384697
9.956077532840153 1.8024079719102613 3.918218963733409 4.235450597196478
8.1094385495487 1.526485949293761 3.082979423146198 3.499973177108742
6.351108864508445 1.2863944355075003 2.2976688449565756 2.767045584044369
4.765698299646359 1.0792227864436599 1.6036008487417965 2.082874664460904
3.3993859994566495 0.9048521926657747 1.0312817872322468 1.4632520195586274
2.2614957762844563 0.7637725269189237 0.5885480327275543 0.9091752166379774
1.3323186973631662 0.6272345919308869 0.24194149597294418 0.4631426094593355
0.7447460695645725 0.49708623547214825 0.07033317991926959 0.17732665417315463
0.45624340746280917 0.3974681780348171 0.012242028843021087 0.0465332005849709
0.33667395664621563 0.33016769217020914 0.0004512637279066975 0.006055000748099646
0.26644679259510395 0.26768498620187675 -0.0011097170063124788 -0.0001284766004603418
0.232198483575734 0.23215573340310938 -0.00013177075597848296 0.00017452092860311118
0.2248349162973197 0.2247230430360208 2.319296303951355e-06 0.00010955396499493942
0.2204670767572338 0.22035053481455785 2.5067698444688803e-06 0.00011403517283138691
0.17333396099784287 0.17327777248386317 1.6614191102271713e-05 3.957432287745517e-05
0.3825659494839031 0.3836536798148318 -0.00019311161354200533 -0.0008946187173866953
0.24777267575330575 0.24775193662318357 1.3476233019465938e-06 1.9391506820260498e-05
0.15965949715775726 0.15969725589628675 -1.7775711804584477e-06 -3.59811673490169e-05
0.21749155101507317 0.217783116329016 -3.368065153542338e-05 -0.00025788466240741034
0.23447022446855165 0.2338949113196098 5.419571289257428e-05 0.0005211174360493873
0.25274022665303264 0.25528897841210896 -0.0005602188939341846 -0.001988532865142102
0.3055371042057947 0.3103152603141359 -0.0015162194334445741 -0.0032619366748966516
0.4295871717598646 0.4061146658000836 0.000692258931554504 0.022780247028226376
0.7993066810781522 0.5627938253744865 0.06627313346923884 0.17023972223442718
1.6271401188181984 0.7500474348225807 0.306892540230088 0.5702001437655296
3.0174225942234916 0.9513893714975391 0.8360457803999454 1.2299874423260067
4.846676721075858 1.1440041168427488 1.6041077644207384 2.0985648398123677
7.076106723808762 1.3502863483010996 2.625821278719946 3.0999990967877125
9.638952532529055 1.5870067601196687 3.84843163996145 4.203514132447943
12.55151826729563 1.8568901757577092 5.2808203506428075 5.413807740895107
15.841358112450433 2.1681850205139925 6.945946709982117 6.7272263819543205
19.39277536704442 2.511742080489926 8.784221763275793 8.096811523278694
22.912467417148697 2.8876308541652773 10.613283276246303 9.41155328673711
25.936633153259308 3.319990184197977 12.114128475317703 10.502514493743629
27.43093455789399 3.4947909698926956 12.911674575250226 11.024469012751075
25.41055676123807 3.4187330267586935 11.859309459552614 10.132514274926763
31.198738164790385 7.599575109512767 12.665279839201702 10.933883216075891
25.41055676124571 3.4187330267590834 11.859309459556977 10.13251427492965
27.430934557906816 3.4947909699057016 12.911674575250125 11.024469012750993
25.93663315324008 3.3199901841925055 12.114128475309492 10.502514493738081
22.91246741713578 2.8876308541728073 10.613283276234347 9.411553286728623
19.392775367021944 2.5117420804871906 8.784221763264457 8.096811523270297
15.841358112437817 2.1681850205181874 6.945946709972676 6.727226381946956
12.551518267271922 1.8568901757520029 5.280820350632943 5.413807740886973
9.638952532512171 1.5870067601189084 3.8484316399528535 4.203514132440411
7.076106723788687 1.3502863482982823 2.6258212787110202 3.099999096779383
4.846676721062434 1.1440041168426134 1.604107764414266 2.0985648398055528
3.01742259421213 0.9513893714947094 0.8360457803959342 1.2299874423214874
1.6271401188116308 0.7500474348215237 0.306892540227773 0.5702001437623336
0.799306681075123 0.5627938253731972 0.06627313346863473 0.17023972223329165
0.4295871717585139 0.40611466579905336 0.000692258931435953 0.02278024702802464
0.30553710420507063 0.31031526031325357 -0.0015162194334141835 -0.003261936674768863
0.2527402266524294 0.25528897841131004 -0.0005602188938998003 -0.0019885328649808898
0.23447022446825028 0.23389491131911233 5.419571291100939e-05 0.0005211174362269343
0.21749155101487266 0.21778311632875966 -3.368065153259807e-05 -0.00025788466235437946
0.15965949715767977 0.159697255896236 -1.7775711819084796e-06 -3.598116737437815e-05
0.247772675752657 0.24775193662254785 1.3476233008971399e-06 1.9391506808273514e-05
0.1531977795744527 0.1531977795744527 0.0 0.0
0.1407788427429222 0.14076248961596008 9.89853957466213e-07 1.5363273004669434e-05
0.20768786641717435 0.20786185098220866 -1.9075504228894304e-05 -0.000154909060805414
0.24033005664091672 0.24112930153854129 -0.00013370178954450585 -0.0006655431080802226
0.2770240753578579 0.27824754906644683 -0.0003993128614434773 -0.000824160847145449
0.36047022216024177 0.3573506667931788 -0.0018937159069541164 0.005013271274017345
0.6289886211713083 0.52039271220244 0.025804206651962674 0.08279170231690539
1.3600575304773492 0.732066125761345 0.2065562616289247 0.4214351430870802
2.8094829822244183 0.9845100992291242 0.7197799366022473 1.1051929463930448
5.057192036863293 1.2290457419460101 1.697886256742481 2.130260038174803
7.8353157214456886 1.4514881727329092 2.970305872620874 3.4135216760919063
11.176867954157778 1.694254889849839 4.615598583296402 4.86701448101154
15.040006960190755 1.9782017592296053 6.597020314204176 6.464784886756967
19.451179233477735 2.308407375501504 8.917034767074522 8.225737090901712
24.486488891170044 2.6853413007031253 11.642626306031367 10.15852128443554
29.965543600488314 3.0914514872345475 14.650938255747993 12.223153857505771
35.68088500092174 3.518650055040877 17.881233860047097 14.281001085833775
40.577658363015836 3.835495729067027 20.66909241394907 16.073070219999728
43.0785404783624 3.887650646601252 22.1849238543869 17.005965977374238
40.04312292995168 3.42142530030023 20.613271669948034 16.008425959703406
44.94670984540785 10.507056829897499 19.244504460095783 15.195148555414587
40.04312292994945 3.421425300295297 20.613271669949714 16.008425959704432
43.07854047834438 3.8876506465871365 22.184923854384454 17.005965977372803
40.57765836299798 3.835495729068362 20.669092413937257 16.073070219992367
35.68088500088667 3.5186500550333704 17.881233860030257 14.281001085823023
29.965543600450772 3.091451487227963 14.650938255729411 12.223153857493394
24.486488891136485 2.685341300694734 11.642626306016549 10.158521284425195
19.45117923345461 2.3084073755055177 8.917034767058894 8.225737090890204
15.040006960160152 1.9782017592231558 6.5970203141906225 6.464784886746371
11.176867954133138 1.6942548898506455 4.61559858328257 4.867014480999916
7.835315721422083 1.4514881727283548 2.9703058726109384 3.413521676082794
5.057192036846025 1.2290457419439755 1.6978862567348814 2.1302600381671684
2.8094829822149667 0.9845100992281499 0.7197799365983526 1.1051929463884649
1.3600575304712643 0.7320661257593429 0.2065562616272884 0.4214351430846327
0.6289886211685554 0.5203927122014299 0.025804206651390344 0.08279170231573496
0.3604702221594118 0.3573506667923293 -0.0018937159069773838 0.005013271274059851
0.27702407535731477 0.27824754906574883 -0.0003993128614198215 -0.0008241608470141786
0.24033005664060608 0.24112930153813708 -0.00013370178953365984 -0.000665543107997246
0.20768786641705356 0.2078618509820932 -1.9075504230352943e-05 -0.0001549090608093899
0.14077884274274058 0.14076248961578197 9.898539572355688e-07 1.5363273001379168e-05
0.1531977795739909 0.1531977795739909 0.0 0.0
0.08966896076155188 0.08966896076155188 0.0 0.0
0.11763748980706548 0.11763801950273897 -2.2971052855553653e-08 -5.067246206468004e-07
0.19207909994071792 0.19210600469353278 -4.191175907743161e-06 -2.271357690707677e-05
0.24280782453568095 0.24297010291098559 -4.6608520434726515e-05 -0.00011566985486994853
0.303406814428897 0.3084667058551293 -0.0012115905528205016 -0.0038483008734119034
0.4536183344246746 0.4356284775795309 0.0021725787028361396 0.01581727814230773
0.936188513407292 0.6374256217278043 0.08805015743676702 0.2107127342427204
2.103763568727333 0.911580428822389 0.44222486560604585 0.7499582742988982
4.254952424959055 1.2080190836813074 1.3228227056488049 1.7241106356289426
7.181230274865921 1.4657898764948032 2.611491620794702 3.1039487775764165
11.019403986916073 1.7311182266925367 4.512956995078825 4.775328765144714
15.546399377410111 2.0205583263391755 6.857825774883883 6.668015276187049
20.77963577875326 2.3593784161885467 9.65524112619456 8.765016236370164
26.805970162867546 2.758120994036003 12.962245257772857 11.08560391105867
33.665438552392416 3.211114616121404 16.803423122949425 13.650900813321586
41.389537473325205 3.6964906004886338 21.270826622617868 16.422220250218707
49.1106022065405 4.106356667478955 25.763080575817543 19.241164963244024
55.960926227522336 4.276706939320837 30.011722239357006 21.672497048844473
59.26775083785759 3.9951193732011014 32.3224029387096 22.95022852594688
55.34311836690902 3.5038008685432906 30.137568703165975 21.70174879519976
60.24412966280534 13.322758633496662 26.98497647239149 19.93639455691718
55.34311836691576 3.5038008685504365 30.137568703165726 21.701748795199585
59.26775083784808 3.9951193732023476 32.32240293870271 22.95022852594303
55.96092622748752 4.276706939313668 30.011722239339385 21.672497048834458
49.11060220650618 4.1063566674808065 25.76308057579493 19.24116496323044
41.389537473294446 3.6964906004966562 21.270826622593937 16.422220250203843
33.66543855235453 3.2111146161188637 16.80342312292806 13.650900813307615
26.80597016283002 2.7581209940338 12.962245257751903 11.085603911044315
20.779635778716322 2.3593784161855593 9.655241126174905 8.765016236355855
15.546399377377693 2.020558326338584 6.857825774866057 6.668015276173051
11.019403986886891 1.7311182266902214 4.512956995064381 4.7753287651322855
7.181230274844425 1.4657898764932844 2.611491620784477 3.1039487775666625
4.254952424943789 1.2080190836791183 1.3228227056423678 1.724110635622302
2.103763568719142 0.9115804288208861 0.4422248656031151 0.7499582742951413
0.9361885134034013 0.6374256217266249 0.08805015743573895 0.21071273424103656
0.4536183344234214 0.43562847757869994 0.002172578702724699 0.015817278141996717
0.3034068144283739 0.3084667058541781 -0.001211590552751845 -0.0038483008730523928
0.2428078245353958 0.24297010291059828 -4.6608520426220935e-05 -0.00011566985477628969
0.1920790999405205 0.1921060046933675 -4.191175911671498e-06 -2.2713576935287875e-05
0.11763748980682591 0.11763801950249893 -2.297105282889122e-08 -5.067246201801207e-07
0.08966896076133517 0.08966896076133517 0.0 0.0
0.04938441024210711 0.04938441024210711 0.0 0.0
0.09298185258803889 0.09298185258803889 0.0 0.0
0.1722438932954653 0.1722332347011709 6.366593226293898e-07 1.002193497175889e-05
0.2425750339802525 0.243219053373393 -0.00010388210736881755 -0.0005401372857716642
0.335302930445511 0.33745857785044775 -0.0014198032664162656 -0.0007358441385205828
0.5955276006761524 0.5210306188504893 0.017879009581256256 0.05661797224440674
1.351609206535253 0.7711477642243457 0.19452296037992214 0.38593848193098523
3.0380950356267595 1.0929458813297843 0.8030718672420201 1.142077287054954
5.7060990202122 1.3957562871218456 1.901659272836524 2.408683460253832
9.548502653332477 1.699382516015822 3.7406820284283078 4.108438108888347
14.364705896918942 2.0112845981438836 6.200107893670138 6.153313405104916
20.114247993714823 2.3553679003766668 9.272720342085362 8.486159751252792
26.80512173397812 2.7559880287264558 12.9638423808008 11.085291324450866
34.5557832080922 3.2282798525261476 17.357018302657757 13.9704850529083
43.36915517139335 3.778301595463647 22.42448541991123 17.166368156018486
53.1467781823386 4.326225706163234 28.180266249546644 20.64028622662873
63.34998262755633 4.701310903273033 34.473551264696106 24.17512045958717
71.8262413711285 4.631693062141888 39.94813305804373 27.246415250942867
75.57907830458116 4.007324295167994 42.74705611226378 28.82469789714939
71.1581356793007 3.6889791178026035 40.14084827980309 27.328308281694998
76.92395210635453 16.168923442940915 35.823101844582645 24.931926818830956
71.15813567928086 3.688979117788918 40.140848279799144 27.328308281692813
75.57907830455416 4.007324295159821 42.747056112251556 28.82469789714276
71.82624137110068 4.631693062149566 39.94813305802083 27.24641525093029
63.34998262750489 4.701310903267285 34.473551264666796 24.1751204595708
53.14677818228606 4.32622570615623 28.18026624951795 20.6402862266119
43.369155171340225 3.7783015954574575 22.424485419882174 17.166368156000566
34.5557832080501 3.22827985252698 17.357018302631722 13.970485052891412
26.80512173393172 2.755988028723969 12.963842380774787 11.085291324432974
20.114247993675775 2.3553679003747896 9.272720342063973 8.486159751237011
14.364705896882388 2.011284598142139 6.200107893650803 6.15331340508945
9.548502653304666 1.699382516013327 3.740682028414865 4.1084381088764745
5.706099020194076 1.3957562871211038 1.9016592728280277 2.408683460244944
3.038095035614696 1.0929458813277346 0.8030718672373289 1.142077287049631
1.351609206529322 0.7711477642225758 0.19452296037824846 0.38593848192849856
0.595527600673991 0.5210306188496121 0.017879009580829115 0.05661797224354954
0.33530293044493964 0.337458577849615 -0.001419803266380814 -0.0007358441382944612
0.24257503397987987 0.24321905337303396 -0.00010388210737063583 -0.0005401372857835109
0.17224389329520703 0.17223323470091914 6.366593221431451e-07 1.0021934965748754e-05
0.09298185258787257 0.09298185258787257 0.0 0.0
0.04938441024201016 0.04938441024201016 0.0 0.0
0.025510830039347614 0.025510830039347614 0.0 0.0
0.06954948678402237 0.06954948678402237 0.0 0.0
0.15055478231907707 0.15054880817603344 3.662909033654852e-07 5.6078521402870744e-06
0.2418294643598762 0.2422614454100794 -7.687715732649123e-05 -0.00035510389287668964
0.3839696013003217 0.38590759445529477 -0.0013061742960296112 -0.0006318188589433523
0.7884054620188984 0.6002552179820927 0.05037110179609937 0.13777914224070587
1.8967708855128858 0.9139857941436738 0.3746612702090869 0.6081238211601255
3.9958902667771303 1.2449685291349926 1.1509471470702304 1.59997459057191
7.3617265707552875 1.5831850090985518 2.65635181093973 3.1221897507170033
11.995038711391894 1.9322498396165644 4.9365454702634235 5.126243401511909
17.851858853054786 2.301014593154434 8.008321736569393 7.542522523330957
24.883900607983794 2.707932473806437 11.861024795543123 10.314943338634231
33.128658367095646 3.178855922869473 16.528567286769178 13.42123515745699
42.51755990322987 3.7306819711829964 21.911910804056717 16.874967127990157
53.38014309618953 4.360456333827086 28.328849046375243 20.69083771598721
65.44272859944756 4.987080277729543 35.619294696538525 24.836353625179484
77.641752719294 5.306166174655523 43.26191673006351 29.073669814574963
87.82449267165946 4.940631547639731 50.15416564709343 32.72969547692631
92.40949010460035 4.0190026854553675 53.78252380034381 34.60796361880119
87.67324696576298 3.909265445427498 50.74150081302312 33.022480707312376
94.6159739316251 19.01802005320919 45.376097593201706 30.221856285214237
87.67324696574954 3.9092654454261946 50.74150081301502 33.02248070730826
92.40949010457261 4.0190026854556145 53.78252380032542 34.6079636187916
87.8244926716152 4.940631547636774 50.15416564706623 32.729695476912205
77.64175271924292 5.306166174659873 43.26191673002749 29.073669814555572
65.44272859938623 4.987080277726806 35.61929469650094 24.836353625158477
53.38014309613425 4.360456333829276 28.328849046339 20.690837715965966
42.51755990316775 3.7306819711738117 21.911910804023993 16.87496712796996
33.128658367045254 3.1788559228708833 16.528567286737925 13.421235157436438
24.88390060793011 2.707932473798248 11.861024795516391 10.314943338615462
17.85185885301443 2.3010145931552626 8.008321736546016 7.542522523313142
11.995038711361055 1.9322498396157006 4.936545470247125 5.126243401498234
7.36172657073219 1.583185009095739 2.6563518109294812 3.1221897507069682
3.9958902667621388 1.2449685291329344 1.1509471470640857 1.5999745905651206
1.896770885504831 0.9139857941425014 0.3746612702060993 0.6081238211562288
0.7884054620160509 0.6002552179812547 0.05037110179538093 0.13777914223941534
0.38396960129956664 0.38590759445436995 -0.0013061742959993405 -0.0006318188588040041
0.24182946435937763 0.24226144540957656 -7.68771573290709e-05 -0.0003551038928698302
0.15055478231886008 0.15054880817581665 3.662909033509835e-07 5.607852140109466e-06
0.06954948678394061 0.06954948678394061 0.0 0.0
0.025510830039345837 0.025510830039345837 0.0 0.0
0.012506172598178286 0.012506172598178286 0.0 0.0
0.04947731346457246 0.04947731346457246 0.0 0.0
0.12968764533846824 0.12968764533846824 0.0 0.0
0.24416408262022402 0.2449636946941873 -0.0001308931758934618 -0.0006687188980698323
0.45627758136776975 0.4406611567637915 0.0027078235068998075 0.012908601097078426
1.0605558026891275 0.7099022564603846 0.11325726842637789 0.23739627780236575
2.495500781812921 1.0397226424227715 0.5666712555887728 0.8891068838013776
5.0809186653132805 1.3869271275429396 1.6066096491678756 2.087381888602464
9.0732716643817 1.766720022890919 3.4547226913233393 3.8518289501674423
14.543331456388895 2.1698213196031113 6.21916620574238 6.154343931043398
21.44803586534428 2.601646666483753 9.90772992615295 8.938659272707579
29.810529686283857 3.083320061255691 14.574849790100311 12.152359834927857
39.534520330093166 3.631565333088286 20.13160753935303 15.771347457651864
50.902622738864416 4.260258738486679 26.85097234108777 19.79139165928998
63.672119264402944 4.962686906193241 34.48789019938616 24.221542158823503
77.70679438611677 5.6323877355816645 43.0770060860732 28.997400564461902
92.08506197988105 5.916041509771948 52.314205878003065 33.85481459210605
104.02930497342413 5.290899231990858 60.63625029636923 38.102155445064085
109.68085534945456 4.058465759929055 65.21626127902556 40.406128310499994
105.15469162255152 4.106781804842925 62.18458294216275 38.863326875545845
113.83509744218568 21.820209559394883 56.18290106238813 35.831986820402676
105.15469162253834 4.106781804844214 62.18458294215311 38.863326875541055
109.68085534942168 4.058465759929813 65.216261279003 40.40612831048883
104.02930497336736 5.290899231986194 60.63625029633435 38.10215544504678
92.08506197981832 5.916041509771502 52.314205877962074 33.85481459208475
77.70679438605615 5.632387735588749 43.0770060860291 28.997400564438255
63.67211926433887 4.962686906193624 34.48789019934495 24.221542158800286
50.90262273879434 4.2602587384836355 26.850972341045658 19.79139165926504
39.53452033003084 3.6315653330857356 20.131607539316285 15.771347457628806
29.810529686227934 3.0833200612540574 14.574849790067947 12.152359834905937
21.448035865297488 2.60164666648298 9.90772992612634 8.938659272688174
14.54333145635013 2.169821319599239 6.2191662057229795 6.1543439310279116
9.073271664352736 1.7667200228864703 3.454722691310487 3.851828950155779
5.080918665295144 1.3869271275411317 1.6066096491601767 2.087381888593834
2.4955007818030763 1.0397226424210997 0.5666712555851229 0.8891068837968548
1.060555802685052 0.7099022564593721 0.11325726842519779 0.23739627780048206
0.45627758136679625 0.440661156762933 0.002707823506854467 0.012908601097008393
0.24416408261992217 0.2449636946936804 -0.00013089317588253424 -0.0006687188978755634
0.12968764533826577 0.12968764533826577 0.0 0.0
0.04947731346447226 0.04947731346447226 0.0 0.0
0.01250617259816709 0.01250617259816709 0.0 0.0
0.006059770295169659 0.006059770295169659 0.0 0.0
0.034058953491208604 0.034058953491208604 0.0 0.0
0.11261670698239402 0.11261670698239402 0.0 0.0
0.25540450029298983 0.25713466027028065 -0.0002959601579315689 -0.0014341998193591662
0.5614005240800091 0.5035571559846074 0.013159290085532186 0.04468407800986968
1.4073884756896293 0.8200271778361814 0.20933397213620308 0.3780273257172446
3.158016007568498 1.1456881482413601 0.8038349273599836 1.208492931967152
6.236181641725594 1.5258106530226376 2.1152246906353986 2.59514629806756
10.846178679857925 1.9482383613463674 4.305640173696152 4.5923001448154075
17.157838845315634 2.411695849829345 7.557510280453642 7.188632715032648
25.172838744235456 2.9183006874521547 11.915640216009747 10.338897840773544
34.843149580868776 3.4792725204302437 17.367557410657014 13.996319649781531
46.322474311908486 4.118991409843141 24.075955799172732 18.1275271028926
59.358292972626806 4.83290216803184 31.795917027125576 22.7294737774694
74.14037059818355 5.564498539360114 40.82030352721787 27.75556853160555
90.17464520012356 6.207645833844211 50.86532133556616 33.101678030713224
106.43152201678825 6.498211056525848 61.42832556623383 38.504985394028566
120.29885886162185 5.813897425597808 71.1657715149797 43.31918992104435
127.43048118501235 4.123296277625901 77.14616085616409 46.16102405122233
123.81616298045138 4.211019942722553 74.65783211454215 44.94731092318666
134.75647793858133 24.447362109503494 68.36394405368632 41.94517177539152
123.81616298042977 4.211019942717787 74.65783211453078 44.9473109231812
127.43048118495895 4.123296277616833 77.14616085613412 46.16102405120801
120.29885886156089 5.813897425601619 71.16577151493621 43.31918992102305
106.43152201671239 6.498211056523557 61.428325566184874 38.504985394003974
90.17464520004536 6.207645833842335 50.865321335515894 33.101678030687076
74.14037059810047 5.564498539351576 40.82030352716954 27.755568531579375
59.35829297255263 4.83290216803362 31.7959170270773 22.72947377744173
46.32247431183693 4.118991409839547 24.07595579913044 18.12752710286694
34.84314958079907 3.4792725204238764 17.367557410618524 13.996319649756671
25.172838744178936 2.9183006874482733 11.915640215978883 10.338897840751773
17.157838845272586 2.4116958498268573 7.557510280430769 7.188632715014957
10.846178679826219 1.948238361343367 4.305640173680837 4.592300144802016
6.236181641704811 1.5258106530210847 2.1152246906258343 2.5951462980578928
3.1580160075564705 1.145688148239375 0.803834927355663 1.208492931961432
1.407388475684325 0.8200271778352257 0.20933397213445337 0.37802732571464603
0.5614005240784109 0.5035571559835037 0.013159290085343141 0.04468407800956403
0.2554045002924364 0.2571346602696662 -0.0002959601579233461 -0.0014341998193064139
0.11261670698223071 0.11261670698223071 0.0 0.0
0.03405895349113018 0.03405895349113018 0.0 0.0
0.006059770295114981 0.006059770295114981 0.0 0.0
0.002875812156039421 0.002875812156039421 0.0 0.0
0.023484047550547168 0.023484047550547168 0.0 0.0
0.10333321679691476 0.10333321679691476 0.0 0.0
0.2849233200186878 0.28685225865295105 -0.0005973065158087335 -0.0013316321184545462
0.7223335355640679 0.5918205256591681 0.03877735118968326 0.09173565871521627
1.8020143712197836 0.9159374439404987 0.325046021133361 0.5610309061459238
3.9057643059903087 1.2536052416625585 1.1054396669520383 1.5467193973757105
7.433445886309747 1.6594141781700078 2.656560331987458 3.117471376152279
12.6840864720738 2.128576052322293 5.21628844913914 5.339221970612369
19.82870477761607 2.659827361627617 8.944014223782094 8.224863192206362
28.952688222963083 3.247050490354376 13.963561888916072 11.742075843692627
40.110162090815265 3.9033183394010598 20.36365989395005 15.843183857464131
53.08803113598858 4.640841612514377 27.948599066648725 20.498590456825486
68.12836776870128 5.428690209018062 37.02901410602533 25.67066345365789
84.88661413716567 6.187969409706457 47.40827830829949 31.290366419159728
102.73844056218124 6.745137350568866 58.81165089038035 37.181652321231965
120.52027615961761 6.900903822767811 70.60874547220162 43.010626864648195
136.24463591025471 6.434048401564372 81.5677819080072 48.2428056006831
145.4963063004693 4.50726657442933 89.18620706947887 51.8028326565611
143.81149355928773 4.026032442572893 88.39056657092178 51.39489454579304
157.60978329434246 25.956923599900506 82.81734733087166 48.835512363570295
143.81149355924939 4.026032442558092 88.39056657090568 51.394894545785604
145.496306300426 4.507266574439627 89.18620706944264 51.80283265654383
136.24463591018966 6.434048401573844 81.5677819079566 48.2428056006592
120.52027615953358 6.90090382276949 70.60874547214388 43.01062686462014
102.7384405620959 6.745137350568972 58.81165089032376 37.18165232120322
84.88661413707703 6.187969409705648 47.40827830824201 31.290366419129416
68.12836776861464 5.428690209013356 37.02901410597263 25.670663453628638
53.08803113590237 4.640841612505187 27.94859906660014 20.49859045679703
40.11016209074253 3.9033183394012876 20.363659893905226 15.843183857436014
28.95268822290134 3.2470504903520423 13.96356188888063 11.742075843668678
19.82870477756803 2.6598273616243095 8.944014223756433 8.22486319218728
12.684086472037677 2.128576052318616 5.216288449121466 5.339221970597591
7.433445886285311 1.659414178166829 2.6565603319766526 3.1174713761418333
3.905764305976626 1.2536052416607408 1.1054396669465854 1.5467193973692994
1.8020143712131367 0.9159374439387518 0.3250460211312841 0.5610309061431011
0.722333535562014 0.5918205256581969 0.03877735118929015 0.09173565871452712
0.2849233200182309 0.28685225865234587 -0.000597306515790226 -0.0013316321183247603
0.1033332167967325 0.1033332167967325 0.0 0.0
0.02348404755053963 0.02348404755053963 0.0 0.0
0.0028758121560124965 0.0028758121560124965 0.0 0.0
0.0008726147781170719 0.0008726147781170719 0.0 0.0
0.017116011694795468 0.017116011694795468 0.0 0.0
0.10792296832304663 0.10792296832304663 0.0 0.0
0.34961136221911604 0.3452893543761264 0.0004278828818529688 0.0038941249611366482
0.9539059511463797 0.7225420470277769 0.07692010882736272 0.15444379529124036
2.29610002020201 1.1234364987132412 0.4483103748063553 0.7243531466824131
4.762606026330663 1.578192553275206 1.3615085641724756 1.822904908882981
8.792336768782532 2.167318777691832 3.101730843900752 3.5232871471899507
14.735861756320126 2.91180365253008 5.913363169815821 5.910694933974225
22.892473482980048 3.843565508298282 10.036151229696484 9.012756744985271
33.391566437724215 4.985580293937318 15.60005462318234 12.805931520604563
46.14624973212082 6.347611886052536 22.550773788531203 17.24786405753708
61.255604357896644 7.9100901649918836 31.05165613644731 22.29385805645745
78.58810593574039 9.619544098694462 41.07315719936396 27.89540463768195
97.69917411169972 11.245832032919088 52.50624998215154 33.94709209662906
117.60458724619309 12.395213673725697 64.98442640935383 40.22494716311357
136.6338076880097 12.626423455007913 77.63966102020188 46.367723212799916
152.81988906580187 11.840346961559785 89.1822914071663 51.79725069707575
164.15393938631223 10.64838962114786 97.7605962097246 55.74495355543985
160.14238065139767 4.101815884264212 99.44788362964795 56.592681137485485
224.18595039820045 72.3306660740983 96.68628993632359 55.16899438777861
160.14238065136936 4.101815884265918 99.44788362962743 56.592681137476006
164.1539393862543 10.648389621146315 97.76059620968562 55.7449535554223
152.81988906571831 11.840346961558009 89.18229140711061 51.79725069704983
136.63380768791217 12.626423455004634 77.63966102013828 46.367723212769256
117.60458724608405 12.395213673708396 64.98442640929241 40.224947163083144
97.69917411160114 11.245832032916873 52.506249982088086 33.94709209659621
78.58810593563156 9.619544098673924 41.07315719930665 27.89540463765099
61.2556043577983 7.910090164978888 31.051656136393152 22.293858056426302
46.14624973203685 6.3476118860465425 22.550773788482843 17.247864057507442
33.39156643765133 4.985580293927253 15.600054623144493 12.805931520579598
22.892473482923645 3.8435655082898252 10.036151229668613 9.012756744965213
14.735861756279446 2.911803652525676 5.91336316979573 5.910694933958044
8.7923367687552 2.16731877768805 3.1017308438885465 3.5232871471786034
4.762606026313818 1.5781925532712655 1.3615085641663724 1.8229049088761815
2.296100020193735 1.1234364987103909 0.4483103748041739 0.7243531466791702
0.9539059511431371 0.722542047026272 0.07692010882671921 0.15444379529014596
0.3496113622183542 0.34528935437547154 0.00042788288183328574 0.0038941249610492477
0.10792296832269618 0.10792296832269618 0.0 0.0
0.01711601169475939 0.01711601169475939 0.0 0.0
0.0008726147781048884 0.0008726147781048884 0.0 0.0
CELL_DATA 800
SCALARS Stress float 6
LOOKUP_TABLE default
164.0721509054248 -516.0447808082707 -181.94647577945332 -109.12315128047112 0.0 0.0
400.95687204651784 -64.17137393428715 116.09854042198904 56.25231529591253 0.0 0.0
405.1810451780375 9.34511964747563 124.16166344274923 -3.265073119859174 0.0 0.0
464.67794319589365 -12.563623438729508 142.97595182216546 -14.70839936468287 0.0 0.0
540.7468268300406 -18.01216999788913 196.0208647117515 -11.579204283714734 0.0 0.0
613.4508433690339 -12.910656361101996 267.5703845120373 -10.077051920099848 0.0 0.0
683.9218826085859 -6.213688297218269 326.03592204181484 -10.46742615024958 0.0 0.0
754.8247276493726 8.281216462759978 376.0096295702484 -11.957542004028618 0.0 0.0
827.9043100510974 30.400647369896873 425.6566799678849 -13.562999366596879 0.0 0.0
903.2043556402414 59.31631132298436 478.4962265327832 -14.675955493311635 0.0 0.0
979.3304810797356 92.92731558123047 533.7986010101637 -15.164898361440043 0.0 0.0
1054.9930351689543 130.02942464820404 590.5030861471869 -15.099988637858283 0.0 0.0
1130.1896177650465 169.30034262616752 647.9630651865814 -14.881746708710605 0.0 0.0
1205.759145180316 211.3281632381466 706.9114429053985 -14.589923187132154 0.0 0.0
1282.3513586532874 256.859493640882 768.0794433564092 -14.098552723425335 0.0 0.0
1359.3383764227315 305.50999424507523 830.9802581612679 -13.21591529830201 0.0 0.0
1434.39084759165 355.56962204402214 893.6065815860476 -11.78486985666322 0.0 0.0
1504.6943945441242 405.0023821383069 953.5219257679057 -9.979000468576537 0.0 0.0
1568.501756612561 453.0308025061369 1009.4079601699885 -9.01909961584412 0.0 0.0
1653.5252890313125 529.3784301425925 1089.5607150928913 -13.556382325299062 0.0 0.0
1653.5252890305744 529.3784301418609 1089.5607150923563 13.556382325366116 0.0 0.0
1568.501756612046 453.0308025056659 1009.4079601695904 9.019099615835113 0.0 0.0
1504.694394544911 405.00238213917925 953.5219257684261 9.979000468660605 0.0 0.0
1434.3908475919084 355.5696220443876 893.6065815862345 11.784869856819046 0.0 0.0
1359.3383764220746 305.5099942445284 830.9802581607564 13.21591529819956 0.0 0.0
1282.3513586527586 256.85949364049696 768.079443355948 14.09855272347024 0.0 0.0
1205.7591451798328 211.32816323781924 706.9114429050172 14.589923187107155 0.0 0.0
1130.1896177647202 169.30034262603414 647.9630651862692 14.881746708724217 0.0 0.0
1054.993035168801 130.02942464826597 590.503086147053 15.099988637746133 0.0 0.0
979.3304810802838 92.92731558201288 533.7986010104495 15.16489836134922 0.0 0.0
903.2043556398894 59.31631132287916 478.49622653242005 14.6759554934372 0.0 0.0
827.9043100499762 30.400647369023687 425.65667996712136 13.562999366525586 0.0 0.0
754.8247276487008 8.28121646235411 376.00962956979123 11.95754200386159 0.0 0.0
683.9218826078063 -6.213688297766936 326.03592204127705 10.467426150228352 0.0 0.0
613.450843368487 -12.910656361373974 267.57038451161316 10.077051920150941 0.0 0.0
540.7468268295236 -18.01216999820299 196.02086471136468 11.579204283540696 0.0 0.0
464.6779431957168 -12.56362343868162 142.9759518221053 14.70839936454038 0.0 0.0
405.18104517799077 9.345119647568009 124.16166344276604 3.265073119862713 0.0 0.0
400.9568720465092 -64.17137393409924 116.09854042200249 -56.25231529595787 0.0 0.0
164.07215090595187 -516.0447808077848 -181.94647577895046 109.12315128008109 0.0 0.0
64.10115126619559 -544.6471758047987 -242.40408942387026 -156.20434412088156 0.0 0.0
263.9698112496234 -52.332148798659375 63.537436415012905 10.2227526904872 0.0 0.0
355.07692748536283 30.066881296020355 115.5410732495385 -9.932543038982793 0.0 0.0
428.6305806928747 -10.3423943125418 127.78862660603059 -34.69480774999579 0.0 0.0
512.3190329714996 -18.568899372136812 173.91213669511245 -32.9145156452408 0.0 0.0
589.5983794809388 -13.917707122264737 246.5675454942969 -29.807016980422052 0.0 0.0
663.8217014938605 -7.047479009170608 311.2570709835595 -30.557913211333158 0.0 0.0
735.7243387354504 7.069474388110436 364.2873102037722 -32.808955230495535 0.0 0.0
807.5932833720083 27.83809759213382 413.60659577020033 -35.2680882541693 0.0 0.0
879.9671019971064 54.239460883390635 464.0208216544744 -36.67516060879694 0.0 0.0
951.7884009821132 84.28319620160393 515.5074456296637 -36.83621218579225 0.0 0.0
1022.5980744938352 116.64822170943577 567.4637619146615 -36.20614862335795 0.0 0.0
1092.664494762279 151.64736203666013 620.2462187728154 -35.32197854244815 0.0 0.0
1162.9966024922237 189.17097226647203 674.3507559743168 -34.33361060410073 0.0 0.0
1233.8588014228249 229.44284147958882 730.0505003639312 -33.008246602881 0.0 0.0
1304.752204389908 272.33235136128525 787.0439676855452 -30.94223020232073 0.0 0.0
1374.4649042216683 317.1538154203662 844.3789112299075 -27.946310228951297 0.0 0.0
1441.774947517585 363.55454625990046 901.2440706351924 -24.623676577870995 0.0 0.0
1511.396598786343 417.5629298483107 962.9049237780757 -22.37682140649734 0.0 0.0
1563.0823351963531 460.2992129326302 1009.9664936754747 -20.87298983336538 0.0 0.0
1563.0823351958104 460.29921293210424 1009.9664936750554 20.872989833447917 0.0 0.0
1511.3965987863924 417.56292984839956 962.9049237779984 22.376821406479728 0.0 0.0
1441.7749475173189 363.55454625971436 901.2440706348152 24.623676577960417 0.0 0.0
1374.4649042205617 317.1538154193565 844.3789112290337 27.946310229013555 0.0 0.0
1304.7522043894107 272.3323513608916 787.0439676851188 30.942230202181292 0.0 0.0
1233.8588014222762 229.4428414791729 730.0505003634632 33.008246602867644 0.0 0.0
1162.9966024913472 189.17097226575157 674.3507559736619 34.33361060413296 0.0 0.0
1092.664494761594 151.64736203617392 620.2462187722012 35.32197854249996 0.0 0.0
1022.59807449354 116.64822170933712 567.4637619143455 36.206148623299796 0.0 0.0
951.78840098213 84.28319620184408 515.5074456296899 36.83621218569298 0.0 0.0
879.9671019973651 54.23946088388658 464.0208216546806 36.67516060878788 0.0 0.0
807.5932833719572 27.83809759234485 413.60659577017213 35.268088254131186 0.0 0.0
735.7243387352788 7.06947438823245 364.2873102036557 32.80895523058514 0.0 0.0
663.8217014935627 -7.047479009177891 311.2570709833159 30.557913211288163 0.0 0.0
589.5983794804888 -13.917707122405886 246.5675454939287 29.807016980476234 0.0 0.0
512.3190329713324 -18.568899371984077 173.91213669497964 32.91451564524701 0.0 0.0
428.630580692757 -10.342394312385775 127.78862660603544 34.69480774999063 0.0 0.0
355.07692748530116 30.066881295908665 115.54107324948981 9.932543038972478 0.0 0.0
263.9698112498329 -52.33214879809394 63.53743641524751 -10.222752690705411 0.0 0.0
64.10115126640156 -544.6471758045002 -242.40408942357664 156.20434412073158 0.0 0.0
13.126287311811382 -551.5978021928981 -264.3581946435202 -170.83762878733756 0.0 0.0
149.94747111726582 -43.863085440280415 31.82531570309562 -43.78107486870013 0.0 0.0
288.7198302075419 33.781912636849434 96.75052285331736 -33.44672690788112 0.0 0.0
382.10661879008507 -1.7370312383176847 114.62452193489047 -54.30157486625215 0.0 0.0
474.7220222986324 -17.280740275659113 151.98182381596612 -56.41084654228998 0.0 0.0
562.3402620206552 -16.576166585334484 221.13866673089393 -51.38716099153066 0.0 0.0
639.5847098639256 -7.036142117811256 293.1761462305858 -50.978080751291316 0.0 0.0
712.2447361775669 5.931499044642727 349.6176724086338 -53.58204226148037 0.0 0.0
783.2954875859493 25.3587228698589 399.35714143344944 -56.49950828147997 0.0 0.0
852.6778011206015 48.935329095804136 447.3242396221639 -57.93167592198563 0.0 0.0
920.328544851199 75.17804756988394 494.97617000673864 -57.71868792804442 0.0 0.0
986.2574673807034 103.50293172871794 542.5371869844319 -56.53311888774478 0.0 0.0
1051.4990543236913 133.75922662377837 590.57079726451 -55.150662379378105 0.0 0.0
1116.413621346789 166.52682222068518 639.6224977786794 -53.52537115413727 0.0 0.0
1181.3567143933174 201.35487760459574 689.6734405686466 -51.40070186265657 0.0 0.0
1246.2131956746857 238.3277439748002 740.7091635930008 -48.364888737269304 0.0 0.0
1310.822386787437 277.95067780743204 792.8835852915078 -44.2667271685973 0.0 0.0
1376.470636854693 322.5059499767474 847.9529442255011 -39.72061671432476 0.0 0.0
1438.1372345852326 368.1216394417403 901.5135984207135 -34.62061358679098 0.0 0.0
1481.6754561842986 401.74754038445366 939.9986872678219 -27.169858825702256 0.0 0.0
1481.6754561840612 401.7475403842258 939.9986872676837 27.169858825749362 0.0 0.0
1438.1372345845546 368.1216394411136 901.5135984202598 34.620613586906494 0.0 0.0
1376.4706368548607 322.5059499770051 847.952944225615 39.720616714472754 0.0 0.0
1310.8223867871748 277.95067780728186 792.883585291325 44.266727168730064 0.0 0.0
1246.213195674069 238.32774397429222 740.7091635925183 48.36488873724538 0.0 0.0
1181.3567143926298 201.35487760403862 689.673440568132 51.40070186262183 0.0 0.0
1116.4136213455806 166.52682221964957 639.6224977777629 53.52537115426152 0.0 0.0
1051.4990543224499 133.75922662270528 590.5707972636618 55.15066237938352 0.0 0.0
986.2574673806879 103.50293172891546 542.537186984412 56.533118887748344 0.0 0.0
920.328544851689 75.1780475706116 494.97617000702786 57.71868792807779 0.0 0.0
852.6778011199141 48.93532909535071 447.32423962169366 57.931675922005724 0.0 0.0
783.2954875853131 25.358722869479436 399.35714143302226 56.49950828144702 0.0 0.0
712.2447361774119 5.931499044755867 349.6176724084942 53.58204226142203 0.0 0.0
639.5847098639672 -7.03614211747481 293.17614623051355 50.97808075119448 0.0 0.0
562.3402620206821 -16.576166584902836 221.13866673081415 51.38716099160117 0.0 0.0
474.7220222983763 -17.280740275574118 151.98182381582492 56.41084654227279 0.0 0.0
382.106618789933 -1.7370312382202462 114.62452193488613 54.30157486609629 0.0 0.0
288.71983020743943 33.7819126366103 96.7505228532149 33.446726907735936 0.0 0.0
149.94747111750576 -43.863085439781074 31.8253157033174 43.78107486841404 0.0 0.0
13.126287311942463 -551.5978021926347 -264.35819464326596 170.8376287872087 0.0 0.0
-6.000476987135727 -538.7964394615009 -259.53561272362873 -172.9954320597692 0.0 0.0
87.34279456536929 -43.11658446082412 13.26786303136355 -89.48335041284962 0.0 0.0
225.875098159186 31.08172810141766 77.08704787818108 -64.68191120168908 0.0 0.0
329.8048614644458 6.095570592680903 100.77967351634157 -75.60006306175386 0.0 0.0
427.42128332897914 -14.891961428664438 130.43867380906644 -82.05362065974256 0.0 0.0
524.4411507639843 -17.37014266651406 192.8010182158951 -74.93718385485433 0.0 0.0
608.5096919964838 -8.355866725348776 268.7976410498468 -72.16715498566512 0.0 0.0
684.1717559554664 5.405654170368763 331.707220295106 -74.3896606564795 0.0 0.0
754.1741009725704 22.73288528011021 382.14977071114697 -77.22672002468249 0.0 0.0
820.7845035762934 43.40544392071873 428.0457293608971 -78.45221494975588 0.0 0.0
884.4713592782723 65.950274784009 472.11400464361236 -77.82024892693067 0.0 0.0
945.944361310421 90.10781709166443 515.455396881049 -76.16614415636325 0.0 0.0
1005.9726098989383 115.88507028203891 558.6913688313068 -74.28609700452144 0.0 0.0
1065.7342378336966 143.66271222737475 602.7140446656123 -72.1414294424352 0.0 0.0
1124.8591455667502 172.81841324442541 647.0572616316425 -69.33706163129389 0.0 0.0
1183.3968570614825 203.86408097191054 691.9923124157584 -65.53117790861863 0.0 0.0
1243.0626315120467 238.32519171544072 739.1112733053972 -60.69941785454923 0.0 0.0
1303.6428423275086 277.2272102864848 788.8303502287681 -54.82644432443475 0.0 0.0
1360.0003413047605 316.4170869968507 836.5458061399006 -46.65067854721407 0.0 0.0
1400.6820724836 345.4855367032463 871.3362595322383 -33.82223983098956 0.0 0.0
1400.6820724838196 345.48553670349384 871.3362595324436 33.82223983112344 0.0 0.0
1360.000341303733 316.41708699586707 836.5458061392706 46.65067854728183 0.0 0.0
1303.6428423274233 277.2272102864719 788.8303502286601 54.826444324541384 0.0 0.0
1243.0626315119146 238.3251917154384 739.1112733052412 60.69941785475996 0.0 0.0
1183.3968570610887 203.864080971661 691.992312415369 65.53117790870903 0.0 0.0
1124.8591455645962 172.81841324234847 647.057261630042 69.33706163116412 0.0 0.0
1065.7342378322394 143.66271222600574 602.7140446646384 72.14142944234867 0.0 0.0
1005.9726098984113 115.88507028170363 558.6913688309844 74.28609700459448 0.0 0.0
945.944361309977 90.10781709144086 515.4553968807188 76.16614415643649 0.0 0.0
884.4713592780064 65.9502747839235 472.11400464338413 77.82024892683157 0.0 0.0
820.7845035760623 43.40544392074213 428.04572936073595 78.45221494975236 0.0 0.0
754.1741009721802 22.732885279996978 382.1497707108588 77.22672002471654 0.0 0.0
684.1717559551461 5.405654170362041 331.70722029486933 74.389660656491 0.0 0.0
608.5096919962901 -8.35586672519414 268.79764104961396 72.16715498570761 0.0 0.0
524.4411507636927 -17.37014266644819 192.8010182156558 74.93718385481891 0.0 0.0
427.42128332879787 -14.891961428391316 130.43867380904413 82.05362065969156 0.0 0.0
329.804861464381 6.095570592874002 100.77967351638677 75.60006306163717 0.0 0.0
225.87509815918838 31.081728101369876 77.08704787816747 64.68191120167201 0.0 0.0
87.34279456555424 -43.11658446048865 13.267863031519674 89.48335041264893 0.0 0.0
-6.0004769870536165 -538.7964394612936 -259.53561272339283 172.9954320596101 0.0 0.0
-10.162418206239622 -514.5585191120911 -240.05051933749812 -170.66811276185263 0.0 0.0
52.0005963410334 -43.5159278385537 2.5454005507439126 -125.06214499947026 0.0 0.0
171.79174182866333 25.512165794251672 59.19117228687449 -96.1750755578993 0.0 0.0
274.4240204563846 10.802734291728159 85.57032938120084 -98.38754171905572 0.0 0.0
370.002584069691 -10.062113843001598 110.28401943764561 -107.41207058108388 0.0 0.0
475.3322117764238 -17.446321460083773 162.44074710707008 -101.68325726065719 0.0 0.0
569.943139568517 -10.134077213088407 238.4038591007598 -95.18071097745857 0.0 0.0
649.7705227359248 4.415180523106702 308.3933263040535 -95.26226730763526 0.0 0.0
719.5711655068205 20.207193643954554 361.3552171655914 -97.488242558713 0.0 0.0
783.6216896352935 37.67445114544737 405.713342267449 -98.28857920176446 0.0 0.0
843.6984547962277 56.58490882434589 446.58376473637054 -97.17310657049987 0.0 0.0
900.6035211085239 76.58805668958294 485.71897810736834 -95.05081052456406 0.0 0.0
955.7264247339446 97.84735102919345 524.3316365705664 -92.82416397976058 0.0 0.0
1009.8066959460814 120.6330336745468 563.0639688989239 -90.16096961750732 0.0 0.0
1063.2727846284238 144.3983701334404 601.9202169167136 -86.76435562657633 0.0 0.0
1116.2647053937146 169.43422487191168 641.1171427783186 -82.47319393308287 0.0 0.0
1169.3489914321765 197.3019548121294 681.6773863444132 -77.07426346319741 0.0 0.0
1223.8977874895795 229.38235491188235 724.9825529947266 -70.04339665373963 0.0 0.0
1276.3143673138864 262.82192292528134 767.8520097429356 -59.113647077934964 0.0 0.0
1317.1458676634336 289.467965126249 801.4862932705354 -41.398722280780525 0.0 0.0
1317.145867663294 289.4679651261275 801.4862932704575 41.39872228093331 0.0 0.0
1276.3143673131585 262.82192292462264 767.8520097423994 59.11364707808403 0.0 0.0
1223.8977874894706 229.3823549118684 724.9825529945649 70.043396653874 0.0 0.0
1169.3489914315162 197.30195481155522 681.6773863439205 77.07426346322598 0.0 0.0
1116.2647053926628 169.43422487092772 641.1171427776513 82.47319393298797 0.0 0.0
1063.2727846287873 144.39837013390184 601.9202169170156 86.76435562648999 0.0 0.0
1009.8066959470117 120.63303367565558 563.0639688994795 90.16096961753655 0.0 0.0
955.726424733089 97.84735102857414 524.3316365699876 92.82416397995385 0.0 0.0
900.6035211072224 76.58805668846611 485.71897810644083 95.05081052459457 0.0 0.0
843.6984547955872 56.58490882388023 446.583764735848 97.17310657042393 0.0 0.0
783.621689635431 37.67445114581251 405.7133422674967 98.28857920169835 0.0 0.0
719.5711655064094 20.207193643778538 361.35521716532423 97.48824255866398 0.0 0.0
649.7705227352618 4.415180522686242 308.3933263035622 95.26226730754982 0.0 0.0
569.943139568064 -10.13407721321191 238.40385910038583 95.1807109774663 0.0 0.0
475.33221177591514 -17.446321460294918 162.44074710672112 101.68325726060141 0.0 0.0
370.0025840692866 -10.06211384313848 110.284019437486 107.41207058106869 0.0 0.0
274.42402045614404 10.80273429155286 85.57032938108253 98.38754171900129 0.0 0.0
171.79174182875886 25.512165794353635 59.19117228693375 96.17507555786088 0.0 0.0
52.00059634117805 -43.5159278381806 2.5454005508992363 125.06214499935925 0.0 0.0
-10.162418206164446 -514.5585191117714 -240.0505193372239 170.66811276177407 0.0 0.0
-7.573494770532079 -482.6640016852456 -212.2723136490841 -167.10212484263675 0.0 0.0
30.606732528676936 -43.37175433045318 -3.8295065405328717 -151.54575858883356 0.0 0.0
125.64788228798473 19.12355084651759 43.4314299403507 -123.99383918335272 0.0 0.0
218.37971907737304 12.698647127520424 69.31953340288447 -121.20816987467774 0.0 0.0
306.4678707919363 -4.12576365517944 91.39131919784982 -130.73420460666298 0.0 0.0
410.1904052512557 -16.20622983360395 131.00619086591007 -130.64371455730418 0.0 0.0
516.4272602091706 -10.817372658848836 201.6064898614501 -121.05313755697874 0.0 0.0
604.858649863002 2.0573707405033126 276.28271992743805 -117.17741555584114 0.0 0.0
677.8245557687477 17.33367787751123 335.10857683654933 -117.54984303226514 0.0 0.0
740.0709753846423 31.918236581978245 379.4626780827458 -117.45129696030982 0.0 0.0
796.492581380624 46.98711749840601 417.42725243747134 -115.80117312046333 0.0 0.0
849.1840926476503 63.005518092093546 452.77583609117534 -113.24225260385332 0.0 0.0
899.2177689521025 79.86404426305668 486.7897028260694 -110.64490508997281 0.0 0.0
947.7770898329352 97.45003399142402 520.2434389840386 -107.698676272999 0.0 0.0
995.8599221756849 115.97496494245222 553.8249041896377 -103.85338197170165 0.0 0.0
1042.728620554736 135.433675812059 587.2214559281153 -98.97753721785969 0.0 0.0
1088.968384045455 155.73757288659044 620.6459079352074 -93.24662349498796 0.0 0.0
1136.3686335598657 179.4166022015525 656.2043208145062 -85.55125591558459 0.0 0.0
1185.031601302689 206.90707800188022 694.1978268258482 -72.51275569636245 0.0 0.0
1228.349063560834 232.35677208948675 728.4188027963858 -50.508143421025174 0.0 0.0
1228.3490635613252 232.35677209004356 728.4188027967948 50.50814342128237 0.0 0.0
1185.0316013028685 206.90707800213386 694.1978268260768 72.51275569643872 0.0 0.0
1136.3686335593718 179.41660220109327 656.2043208141981 85.55125591557177 0.0 0.0
1088.9683840450302 155.7375728861948 620.6459079349135 93.24662349490843 0.0 0.0
1042.7286205539988 135.43367581144093 587.2214559276304 98.97753721792299 0.0 0.0
995.8599221747896 115.97496494167669 553.8249041890049 103.85338197174887 0.0 0.0
947.7770898320115 97.45003399066195 520.2434389833786 107.69867627304282 0.0 0.0
899.2177689518983 79.864044263056 486.78970282587574 110.64490509009083 0.0 0.0
849.1840926479105 63.005518092642234 452.77583609131983 113.24225260397961 0.0 0.0
796.4925813805949 46.98711749858536 417.42725243738175 115.80117312043176 0.0 0.0
740.0709753839865 31.918236581518116 379.4626780822364 117.45129696025722 0.0 0.0
677.8245557685107 17.333677877555132 335.1085768363249 117.54984303227366 0.0 0.0
604.8586498627874 2.0573707406716153 276.2827199272206 117.17741555588009 0.0 0.0
516.4272602087577 -10.817372658930257 201.60648986110456 121.05313755694469 0.0 0.0
410.19040525104396 -16.206229833454593 131.00619086579204 130.64371455714485 0.0 0.0
306.467870791809 -4.125763654898952 91.39131919789787 130.7342046064823 0.0 0.0
218.37971907723426 12.698647127417944 69.31953340281352 121.20816987459516 0.0 0.0
125.64788228813794 19.123550846754046 43.43142994046759 123.9938391833015 0.0 0.0
30.60673252861289 -43.37175433038913 -3.829506540532874 151.54575858864567 0.0 0.0
-7.573494770542595 -482.6640016850113 -212.27231364885506 167.10212484257676 0.0 0.0
-1.9829954337601947 -444.66529293106214 -179.7993113246651 -163.62633402088426 0.0 0.0
15.534768784858604 -43.273140929845994 -8.321568226721674 -170.09644093892948 0.0 0.0
85.03537175933417 13.062236788245638 29.429282564273944 -146.52027153542275 0.0 0.0
162.73488407065352 13.8262362355917 52.96521251418638 -142.1420493275015 0.0 0.0
239.35786263739934 0.5895849223920191 72.33078018113798 -151.42951119907238 0.0 0.0
332.41662575157847 -12.080479590703856 101.12273987140023 -158.86880681109733 0.0 0.0
444.2663203017577 -11.301541930209492 159.07476282825445 -150.56088806164215 0.0 0.0
544.7029804901276 -0.04751182269562815 234.05935869316406 -141.3587128612513 0.0 0.0
623.9453778963294 13.311535223423494 299.01362751205176 -138.03729313144262 0.0 0.0
687.3263042589429 25.951507742446793 346.8347691605287 -136.1731694985709 0.0 0.0
740.5373566189335 37.177876857067794 383.03851019068907 -133.73834388408957 0.0 0.0
789.2200711731118 49.42644671063419 415.2126226939584 -130.74155030603333 0.0 0.0
834.2496735168257 61.86754638073915 444.8359588402774 -127.82992304560325 0.0 0.0
877.0027065083041 74.4862981771914 473.08519862581096 -124.67372168768857 0.0 0.0
918.9752857267748 87.44346613427786 500.88718628647973 -120.62411828299338 0.0 0.0
961.1492004571352 101.75446617529346 529.4055892850128 -115.2734496070026 0.0 0.0
1000.2691820594282 114.834977463503 555.7757816140654 -108.97205651076969 0.0 0.0
1038.5318387485136 128.36180627461096 581.7683351316551 -101.20616682607297 0.0 0.0
1082.6461903093477 147.7326847676576 613.377580837778 -87.35882392767016 0.0 0.0
1130.7888457592564 172.640784311077 649.6179741430024 -62.05623820564393 0.0 0.0
1130.7888457592014 172.64078431106208 649.6179741429523 62.05623820574344 0.0 0.0
1082.6461903081506 147.73268476649974 613.3775808369988 87.35882392775028 0.0 0.0
1038.5318387488414 128.3618062750976 581.7683351318285 101.20616682632655 0.0 0.0
1000.2691820591266 114.83497746331139 555.7757816138084 108.97205651075731 0.0 0.0
961.1492004568015 101.75446617503937 529.4055892846892 115.27344960700975 0.0 0.0
918.9752857265271 87.44346613417116 500.88718628626066 120.62411828301089 0.0 0.0
877.0027065090757 74.48629817822336 473.0851986263455 124.67372168793207 0.0 0.0
834.2496735172406 61.8675463815043 444.83595884063146 127.82992304581917 0.0 0.0
789.2200711727647 49.426446710468554 415.21262269372954 130.74155030603904 0.0 0.0
740.5373566183121 37.177876856555216 383.03851019024336 133.73834388395062 0.0 0.0
687.3263042582788 25.951507741800086 346.83476916002877 136.17316949831326 0.0 0.0
623.9453778963069 13.311535223649102 299.0136275119882 138.03729313139027 0.0 0.0
544.7029804895045 -0.04751182296614331 234.0593586926974 141.3587128612773 0.0 0.0
444.2663203014363 -11.301541930019788 159.07476282805965 150.56088806168725 0.0 0.0
332.41662575146694 -12.08047959033781 101.12273987143705 158.86880681098495 0.0 0.0
239.35786263736668 0.5895849226838505 72.33078018121886 151.42951119884754 0.0 0.0
162.73488407062146 13.826236235655053 52.96521251419675 142.14204932731184 0.0 0.0
85.03537175938433 13.06223678837694 29.429282564328382 146.52027153507262 0.0 0.0
15.534768784818628 -43.27314092975802 -8.32156822670721 170.09644093863102 0.0 0.0
-1.9829954337733326 -444.6652929308297 -179.79931132444796 163.62633402078754 0.0 0.0
2.9661523503490344 -402.0300263317352 -147.18124418822728 -161.00404425017513 0.0 0.0
1.422115777805098 -43.780065632986236 -12.706676492383446 -180.95050498984006 0.0 0.0
47.90803034444032 8.193976005712344 16.830198833798256 -163.7361375567193 0.0 0.0
108.36746165304271 15.060319288844479 37.027241600716295 -159.5879572637299 0.0 0.0
169.9200614393139 3.5823347959483893 52.25957529770078 -169.69758714334182 0.0 0.0
242.2842617128312 -5.8364246125331505 72.98503339451536 -181.44827318607227 0.0 0.0
345.46652598773073 -9.418029912013953 113.47279618110039 -182.27852064987243 0.0 0.0
458.9926049993727 -1.9809122789875868 179.52655321015357 -169.98000838790833 0.0 0.0
550.1973560411407 8.690952803534932 247.7180580644728 -160.44555529571545 0.0 0.0
617.5975639898365 19.1380304787084 301.168208084565 -154.96270460874263 0.0 0.0
670.3804696577704 27.081174069205908 339.12231703400244 -151.3053888842017 0.0 0.0
714.9563565690742 35.611279434006384 369.2436937818643 -147.63215626263258 0.0 0.0
755.0617039278764 44.12467138076708 395.3601008682636 -144.34363149416671 0.0 0.0
791.9153323003117 51.7943675206075 418.66425129757954 -141.0758688463652 0.0 0.0
827.6273214867738 59.16748862209295 440.7857703034559 -137.15704948687195 0.0 0.0
864.0963875938937 67.6645987378299 463.577342077218 -131.52944050777026 0.0 0.0
899.5065970132305 75.83034855668973 485.72435321852157 -124.33173920987949 0.0 0.0
927.7629827095399 78.27929379947032 501.43660078125043 -116.50670152104406 0.0 0.0
961.8039676633225 84.3179051380188 521.2969350756757 -103.71573002750539 0.0 0.0
1016.2365384893345 107.90005586577992 559.7376550609657 -77.33954807418365 0.0 0.0
1016.2365384891868 107.90005586569742 559.7376550609494 77.33954807432264 0.0 0.0
961.8039676632745 84.31790513804606 521.2969350757392 103.71573002769503 0.0 0.0
927.7629827100211 78.27929380025313 501.4366007816254 116.5067015214847 0.0 0.0
899.5065970141319 75.83034855779906 485.7243532190789 124.33173921008878 0.0 0.0
864.0963875941791 67.66459873841615 463.5773420773753 131.5294405079403 0.0 0.0
827.6273214861817 59.16748862159193 440.7857703030176 137.15704948691584 0.0 0.0
791.9153323001408 51.794367520635205 418.6642512975094 141.0758688463896 0.0 0.0
755.0617039274441 44.12467138032788 395.3601008679159 144.34363149410808 0.0 0.0
714.9563565688298 35.61127943393221 369.2436937816869 147.63215626262647 0.0 0.0
670.3804696576734 27.08117406935112 339.12231703390927 151.30538888421933 0.0 0.0
617.597563990298 19.13803047959965 301.1682080848222 154.96270460881476 0.0 0.0
550.1973560408995 8.690952803482915 247.71805806423328 160.44555529562348 0.0 0.0
458.9926049987665 -1.9809122792161844 179.52655320973213 169.98000838792547 0.0 0.0
345.4665259873423 -9.418029911832136 113.47279618095314 182.27852064987206 0.0 0.0
242.28426171230956 -5.836424613129769 72.98503339417648 181.44827318583845 0.0 0.0
169.92006143915006 3.5823347956985456 52.25957529758014 169.6975871431295 0.0 0.0
108.36746165298317 15.060319288906758 37.0272416007205 159.58795726349467 0.0 0.0
47.90803034440066 8.193976005708913 16.83019883378584 163.73613755653494 0.0 0.0
1.4221157777750717 -43.780065632891095 -12.7066764923653 180.95050498963644 0.0 0.0
2.9661523503819467 -402.0300263314153 -147.18124418799994 161.00404425007753 0.0 0.0
3.013250917503896 -355.52561600261913 -118.91285255488543 -157.35407084985837 0.0 0.0
-15.329698690812002 -46.03002626396766 -18.406442489038024 -186.56232179386575 0.0 0.0
13.149256573266335 5.357064076509269 5.5516003530757025 -175.86101177041974 0.0 0.0
55.532567746040186 16.124175648339744 21.495909294813544 -172.99270587476934 0.0 0.0
98.61066568362665 7.148474911820794 31.86475779140694 -183.22538206880236 0.0 0.0
146.34792306424177 -1.4554470375972175 44.42738579478242 -198.64709082930978 0.0 0.0
218.13390409003472 -3.8570944799387785 68.44367257480724 -208.09998276350842 0.0 0.0
324.9182979908137 -1.6115266834574786 112.82211778976679 -203.02728984847323 0.0 0.0
433.02837566226714 4.661174088668535 172.80691734606637 -188.21168201684907 0.0 0.0
511.8851741569356 11.054813043549974 228.65448702773372 -175.8438199181591 0.0 0.0
567.2540669588301 17.068485787312056 271.6286397258749 -168.92803169832507 0.0 0.0
609.2338643062101 21.412506129717677 302.5882694638207 -164.23503031073176 0.0 0.0
644.8284656640408 26.347949578033578 327.6026009359321 -160.36461293882735 0.0 0.0
675.7037194051949 29.688042464506367 347.6372467128558 -156.8239340462358 0.0 0.0
704.2801778725903 31.460682859688447 364.4776136513626 -153.07100119788626 0.0 0.0
733.7765461451274 33.06908103341419 380.82454699883306 -147.95680362455607 0.0 0.0
767.1416482047772 36.384724204795276 399.48758404335194 -139.9731357073191 0.0 0.0
795.3908715727547 34.86980411360466 413.55041251037005 -130.5591031449166 0.0 0.0
810.5703406969268 17.49673386260875 412.7437887536081 -120.47298752751894 0.0 0.0
868.2105045843373 32.241556977744125 447.5749747768201 -98.50681685263591 0.0 0.0
868.2105045845022 32.24155697801126 447.5749747769981 98.50681685289517 0.0 0.0
810.5703406964326 17.49673386232041 412.74378875330467 120.47298752791667 0.0 0.0
795.3908715724273 34.86980411352033 413.5504125101209 130.5591031452624 0.0 0.0
767.1416482039853 36.384724204166986 399.48758404286207 139.97313570744257 0.0 0.0
733.7765461451005 33.06908103334351 380.8245469988169 147.95680362446527 0.0 0.0
704.2801778729024 31.460682860415062 364.47761365165684 153.0710011981731 0.0 0.0
675.7037194057174 29.688042465374593 347.63724671313724 156.82393404643022 0.0 0.0
644.8284656641625 26.347949578448663 327.6026009360078 160.36461293896448 0.0 0.0
609.2338643060119 21.41250612961639 302.5882694636496 164.23503031069845 0.0 0.0
567.2540669576873 17.068485786126132 271.6286397250951 168.92803169818202 0.0 0.0
511.88517415622545 11.05481304259935 228.65448702709114 175.8438199178546 0.0 0.0
433.02837566178573 4.661174088207041 172.80691734567688 188.21168201676318 0.0 0.0
324.91829798972833 -1.611526684381733 112.82211778909797 203.0272898484433 0.0 0.0
218.13390408960785 -3.8570944802150784 68.44367257458065 208.09998276337674 0.0 0.0
146.34792306420982 -1.455447037346283 44.427385794840994 198.64709082910872 0.0 0.0
98.61066568387595 7.148474912327487 31.864757791636258 183.22538206864743 0.0 0.0
55.53256774594952 16.124175648301982 21.495909294775426 172.99270587456476 0.0 0.0
13.14925657320868 5.357064076460082 5.551600353043769 175.8610117702417 0.0 0.0
-15.329698690960228 -46.030026264138556 -18.406442489135248 186.56232179370403 0.0 0.0
3.013250917450936 -355.5256160023616 -118.91285255474817 157.35407084973647 0.0 0.0
-2.899934401249954 -306.0449337138565 -96.38073086041345 -150.29718291106542 0.0 0.0
-34.190204574872205 -50.082842552361726 -25.27916820541941 -189.37024005305673 0.0 0.0
-19.953664820778123 4.387512593590159 -4.670443466174589 -183.42543314750108 0.0 0.0
4.170645247472917 17.024052342876608 6.3605945074394175 -181.69391078429794 0.0 0.0
26.93822603338182 11.07937120238919 11.449841654608836 -191.329750756767 0.0 0.0
47.16073000352754 2.96384363758314 15.352268579094412 -208.2010433611518 0.0 0.0
72.81439355337386 -0.39532883651752027 22.838144044625345 -223.05504073684818 0.0 0.0
116.38456084945798 0.44050425106063074 37.93936544538747 -227.82595504415588 0.0 0.0
186.3478470150925 4.078729841612514 64.26926181599488 -217.95571679609338 0.0 0.0
262.04061253357133 5.79907012301614 96.76729075072896 -202.76444934337368 0.0 0.0
326.40079150394706 8.746232052980353 132.39381752679125 -189.5829111543854 0.0 0.0
375.54500362045167 8.546941784972091 163.5410114427941 -181.8711501194406 0.0 0.0
409.460247346953 9.480672233806061 188.82058637265658 -175.8486819941174 0.0 0.0
435.01729607780305 8.248153150017984 208.25214894146154 -171.21278103977585 0.0 0.0
457.9046881941157 4.598005052601621 223.56226550566464 -167.2426004603034 0.0 0.0
484.83647406167546 -1.2771098414006872 237.5930033315346 -163.07024579020793 0.0 0.0
521.2017174261871 -6.18429058132898 254.6578540952555 -156.40582376798895 0.0 0.0
568.1002829873283 -6.9516075428823 278.1834721107403 -145.2224308133492 0.0 0.0
595.3672970873312 -31.397720418190744 281.73533082431703 -132.4751387446182 0.0 0.0
625.0353503676893 -74.43859610052411 272.67649708109786 -124.7221866493654 0.0 0.0
625.035350367184 -74.43859610086912 272.6764970808324 124.72218664972331 0.0 0.0
595.3672970868753 -31.39772041835525 281.7353308241477 132.4751387450654 0.0 0.0
568.1002829876087 -6.951607542492326 278.1834721109583 145.22243081363376 0.0 0.0
521.2017174263607 -6.184290580844049 254.65785409545794 156.40582376817565 0.0 0.0
484.8364740619743 -1.2771098410766513 237.5930033316763 163.07024579017747 0.0 0.0
457.90468819427394 4.598005053237998 223.56226550588366 167.2426004603969 0.0 0.0
435.0172960788426 8.248153151198267 208.25214894215594 171.21278103981808 0.0 0.0
409.46024734780633 9.480672234930651 188.820586373205 175.8486819942085 0.0 0.0
375.545003621239 8.546941786237205 163.54101144333657 181.87115011944866 0.0 0.0
326.4007915042851 8.746232053860567 132.39381752708564 189.5829111544648 0.0 0.0
262.04061253361095 5.799070123285254 96.76729075078117 202.76444934331448 0.0 0.0
186.34784701527946 4.078729842068324 64.26926181615693 217.95571679612252 0.0 0.0
116.38456084956792 0.4405042520183393 37.93936544569372 227.82595504417827 0.0 0.0
72.81439355364971 -0.3953288357986038 22.838144044921204 223.05504073670056 0.0 0.0
47.160730003498024 2.9638436374641044 15.352268579048674 208.20104336090282 0.0 0.0
26.938226033556713 11.079371202587486 11.449841654721364 191.3297507566091 0.0 0.0
4.170645247480207 17.024052342901026 6.360594507449344 181.6939107840091 0.0 0.0
-19.953664820668923 4.387512593886976 -4.67044346605325 183.42543314726566 0.0 0.0
-34.19020457469178 -50.08284255203903 -25.279168205270263 189.37024005287392 0.0 0.0
-2.8999344013488155 -306.04493371356904 -96.38073086032534 150.29718291087568 0.0 0.0
-14.91800447949738 -256.76757504432 -81.73044827093042 -139.5590154464877 0.0 0.0
-51.62590922874442 -52.560370728687374 -31.256357939497413 -189.39554500996476 0.0 0.0
-51.84039476948455 3.9303429813484025 -14.380899228233229 -186.9474879532442 0.0 0.0
-45.644942653241664 17.803836979174434 -8.369149952211654 -185.54403844353254 0.0 0.0
-43.9166245678946 14.871333899986361 -8.774695302780227 -193.52715057637735 0.0 0.0
-52.92101811592252 7.554389250637259 -13.950485257706724 -209.15234770123237 0.0 0.0
-74.90442891809909 2.642769938748721 -22.817594909474145 -223.22195169967443 0.0 0.0
-116.96922365196407 -0.037032752803112245 -38.00341053664913 -227.9855604680838 0.0 0.0
-186.16224089566998 -3.9336347617296177 -64.16276330954243 -218.0265237213127 0.0 0.0
-261.7956517775403 -5.662116826223684 -96.63839424138433 -202.74387188960392 0.0 0.0
-326.5396883046351 -7.634856070889306 -131.94506453079046 -189.48950444491015 0.0 0.0
-376.8977889110106 -6.9763020012901364 -163.51471608705089 -181.43852221284743 0.0 0.0
-413.47236251176435 -8.738841878517647 -190.23088252236522 -175.29666985324639 0.0 0.0
-441.43177919387375 -13.06266214269219 -213.2100087094658 -171.35489975112355 0.0 0.0
-461.03701399181386 -21.161292287591294 -233.21644893162468 -169.70806348877366 0.0 0.0
-469.91094306490334 -32.391405258766014 -249.48382818228097 -169.9942529626803 0.0 0.0
-458.69198357104085 -44.57841024994502 -258.26607334514597 -170.74333230059221 0.0 0.0
-398.12577266159883 -40.509916914744224 -244.29466097259132 -170.90019932181897 0.0 0.0
-215.67453910472074 -35.119073648543946 -180.13079810474824 -173.52953346835204 0.0 0.0
-2.155770864915837 -174.98266673729694 -67.41811419330548 -155.49793917992957 0.0 0.0
-2.1557708654283374 -174.982666738324 -67.41811419378001 155.49793918037648 0.0 0.0
-215.67453910559647 -35.11907364983148 -180.13079810548527 173.52953346876944 0.0 0.0
-398.12577266236474 -40.50991691615286 -244.29466097327494 170.90019932216606 0.0 0.0
-458.691983571499 -44.578410251025986 -258.26607334556246 170.7433323007738 0.0 0.0
-469.9109430649926 -32.391405259037754 -249.48382818233802 169.9942529626968 0.0 0.0
-461.0370139924174 -21.161292288817833 -233.2164489321256 169.70806348891577 0.0 0.0
-441.43177919444065 -13.062662143927213 -213.21000870989917 171.3548997512715 0.0 0.0
-413.4723625122735 -8.738841879943834 -190.23088252283145 175.29666985347296 0.0 0.0
-376.89778891073973 -6.976302002015515 -163.5147160870548 181.4385222129348 0.0 0.0
-326.53968830366676 -7.63485607039533 -131.94506453024087 189.48950444487195 0.0 0.0
-261.79565177635885 -5.662116825198552 -96.6383942406348 202.74387188944183 0.0 0.0
-186.16224089466704 -3.933634760966882 -64.1627633089767 218.0265237213336 0.0 0.0
-116.9692236518105 -0.03703275308542331 -38.00341053667307 227.98556046809156 0.0 0.0
-74.90442891804312 2.642769938396331 -22.81759490955242 223.2219516995791 0.0 0.0
-52.921018116018956 7.554389250069148 -13.950485257902612 209.15234770103154 0.0 0.0
-43.916624567960696 14.871333899465938 -8.774695302956987 193.52715057613315 0.0 0.0
-45.64494265316079 17.803836979201137 -8.36914995218045 185.54403844319557 0.0 0.0
-51.84039476956458 3.930342981163617 -14.380899228315348 186.9474879529792 0.0 0.0
-51.62590922867929 -52.560370728696924 -31.2563579394836 189.39554500976993 0.0 0.0
-14.9180044796525 -256.7675750440852 -81.73044827092946 139.5590154464269 0.0 0.0
-24.240004850799387 -209.7072699980219 -70.18102483667803 -126.51876395592978 0.0 0.0
-66.14823623214598 -52.03372950181778 -35.45566566595281 -185.65587106881287 0.0 0.0
-82.30230387774553 3.3719023750410444 -23.69734867097658 -186.50864413468017 0.0 0.0
-93.87639089290808 18.377246793638506 -22.681117156167637 -184.64382557449207 0.0 0.0
-113.25717405098169 17.840019002757288 -28.863153626490753 -189.5322299703592 0.0 0.0
-151.0224339019776 11.500283036873675 -42.98254027740039 -200.99481732127893 0.0 0.0
-219.63997557783804 6.014245152963495 -68.3700039187878 -209.06840995897375 0.0 0.0
-324.7780946847379 1.909627275456014 -112.78349083775052 -203.39523782709261 0.0 0.0
-432.699967751678 -4.565669964786487 -172.65881732185932 -188.3437408866016 0.0 0.0
-511.6074158857815 -10.785527636513336 -228.43295075828172 -175.8085102752364 0.0 0.0
-566.8797841715801 -16.23067573877556 -271.13209923371187 -168.70171659703203 0.0 0.0
-609.1574280979061 -20.00203294749113 -301.9473463915552 -163.548862477623 0.0 0.0
-646.1545621197996 -25.680726247030663 -327.8532855419485 -159.25801503625553 0.0 0.0
-680.3033155387002 -33.70390609417973 -351.586616375692 -156.50059341199545 0.0 0.0
-712.8942731943305 -45.63769822540496 -375.40864338917453 -156.19339012954975 0.0 0.0
-742.396773276675 -61.02264553277851 -398.9834420152661 -158.46737117645336 0.0 0.0
-764.0100881718326 -77.0166618109273 -418.99525470972605 -163.675817149227 0.0 0.0
-773.3930399244941 -90.63729162325532 -431.7655726623689 -171.89358495792612 0.0 0.0
-808.9732498827211 -145.05427348074676 -477.77256279950154 -180.89563507321753 0.0 0.0
-808.1155601823657 -228.929724093831 -520.8689487790473 -199.5384456771212 0.0 0.0
-808.115560182526 -228.92972409410967 -520.8689487792658 199.53844567735032 0.0 0.0
-808.9732498835565 -145.0542734819041 -477.7725628001029 180.8956350737154 0.0 0.0
-773.3930399240992 -90.63729162326956 -431.76557266222255 171.89358495829794 0.0 0.0
-764.0100881720115 -77.0166618114616 -418.9952547098708 163.67581714949443 0.0 0.0
-742.3967732770759 -61.02264553357517 -398.98344201563987 158.46737117656517 0.0 0.0
-712.8942731948116 -45.6376982260369 -375.40864338948006 156.19339012958224 0.0 0.0
-680.3033155389347 -33.70390609490721 -351.5866163759197 156.50059341220654 0.0 0.0
-646.1545621188643 -25.68072624607973 -327.85328554128773 159.2580150361424 0.0 0.0
-609.1574280972576 -20.002032947043155 -301.94734639110186 163.54886247762488 0.0 0.0
-566.8797841713643 -16.230675738896565 -271.1320992335029 168.70171659701572 0.0 0.0
-511.60741588549797 -10.785527636689281 -228.43295075806975 175.80851027519392 0.0 0.0
-432.6999677506161 -4.565669963944984 -172.65881732111956 188.34374088657705 0.0 0.0
-324.77809468395265 1.90962727594815 -112.78349083726546 203.39523782703316 0.0 0.0
-219.63997557726225 6.0142451531835786 -68.37000391852202 209.0684099588348 0.0 0.0
-151.02243390148863 11.500283037515475 -42.98254027705316 200.99481732106437 0.0 0.0
-113.2571740505608 17.84001900323985 -28.86315362622151 189.53222997012844 0.0 0.0
-93.87639089271262 18.377246793850947 -22.68111715604815 184.64382557430633 0.0 0.0
-82.30230387760182 3.3719023751299604 -23.697348670910845 186.5086441345543 0.0 0.0
-66.1482362321391 -52.03372950187317 -35.45566566597367 185.655871068695 0.0 0.0
-24.240004850814305 -209.70726999784534 -70.18102483663152 126.51876395582755 0.0 0.0
-27.554511395978043 -165.68506896492332 -57.9718741082704 -112.18984596365996 0.0 0.0
-78.13719773029115 -49.039505324795726 -38.15107672270388 -177.88357550048795 0.0 0.0
-111.04159214434725 2.844681191916951 -32.46563000284994 -181.96682475157448 0.0 0.0
-140.38178426322978 18.452443706851746 -36.633541081233076 -178.8241843561021 0.0 0.0
-180.58194892456237 19.457808610727167 -48.815155082281315 -179.84141475058453 0.0 0.0
-244.879816816865 14.950812324505732 -71.4668447101921 -185.10252393089212 0.0 0.0
-345.0976211387504 11.231546832328547 -113.15421857974408 -183.50935275464093 0.0 0.0
-458.31354200780174 2.2618658166599204 -179.24053957839493 -170.51389831737342 0.0 0.0
-549.983775813439 -8.629047586379983 -247.5941644546902 -160.48835978330612 0.0 0.0
-617.4173021583244 -18.941941230185066 -301.0201215809769 -154.9329789011576 0.0 0.0
-670.0912211452262 -26.477372682767708 -338.7329743798811 -151.0934325565944 0.0 0.0
-714.7432965560063 -34.46919300431803 -368.6010035689319 -146.84954675713428 0.0 0.0
-755.8018489247528 -43.37439278306978 -395.2827717346986 -142.86281661885505 0.0 0.0
-795.4714497800787 -54.62769412562139 -421.6196535812387 -140.04259016304556 0.0 0.0
-835.461087297362 -70.27646026980861 -449.9327965358617 -139.7049099924535 0.0 0.0
-874.1487931270137 -90.02741621902956 -479.6020241124005 -142.627296115419 0.0 0.0
-908.6302098028272 -111.59331558518727 -508.1094226519488 -148.6464376255332 0.0 0.0
-947.4385894430536 -144.86406052109203 -544.5863891772831 -155.2831991047314 0.0 0.0
-990.235162950836 -193.92092807975916 -590.9315856637834 -161.44659014341258 0.0 0.0
-1081.8162107141532 -325.55699094397005 -701.4434689203661 -170.39707370832912 0.0 0.0
-1081.8162107130163 -325.5569909429229 -701.4434689196407 170.39707370849584 0.0 0.0
-990.2351629494683 -193.92092807846126 -590.9315856628555 161.44659014360934 0.0 0.0
-947.4385894425131 -144.86406052071914 -544.5863891768399 155.28319910500295 0.0 0.0
-908.6302098016527 -111.59331558416554 -508.1094226511294 148.64643762561667 0.0 0.0
-874.1487931256738 -90.02741621766666 -479.6020241114287 142.62729611533905 0.0 0.0
-835.461087296607 -70.27646026916021 -449.9327965353388 139.70490999240508 0.0 0.0
-795.4714497797481 -54.62769412538924 -421.61965358102793 140.04259016303763 0.0 0.0
-755.8018489244522 -43.374392783073446 -395.2827717345955 142.8628166189366 0.0 0.0
-714.743296555202 -34.46919300351827 -368.6010035683411 146.84954675695002 0.0 0.0
-670.0912211443988 -26.47737268216784 -338.7329743793617 151.09343255649924 0.0 0.0
-617.4173021574995 -18.94194122956783 -301.02012158041464 154.93297890109926 0.0 0.0
-549.9837758132855 -8.629047586752257 -247.59416445456904 160.48835978342925 0.0 0.0
-458.313542006968 2.261865817137343 -179.2405395778186 170.51389831738157 0.0 0.0
-345.09762113777197 11.231546833021143 -113.15421857915304 183.50935275455362 0.0 0.0
-244.87981681666764 14.950812324058646 -71.46684471025462 185.10252393072417 0.0 0.0
-180.58194892467748 19.45780861002204 -48.815155082522715 179.84141475032976 0.0 0.0
-140.38178426303762 18.452443706764306 -36.63354108120594 178.82418435595454 0.0 0.0
-111.04159214416565 2.8446811921084847 -32.465630002744305 181.9668247514088 0.0 0.0
-78.1371977302685 -49.039505324823324 -38.151076722705874 177.88357550034567 0.0 0.0
-27.55451139593888 -165.68506896479633 -57.97187410822056 112.1898459635233 0.0 0.0
-28.793499648846037 -125.62094865975159 -46.32433449257928 -97.34556506164785 0.0 0.0
-88.19213861297715 -43.84528403966691 -39.611089001182805 -165.81625732861977 0.0 0.0
-137.9219649390805 2.3269761596302665 -40.6784591916173 -173.1263606453727 0.0 0.0
-185.0327127980132 17.52397124206858 -50.35217172391014 -168.2741620029473 0.0 0.0
-244.7180014761397 20.192199288338138 -68.11830231418348 -164.93286111707596 0.0 0.0
-331.29510663930216 19.24528295036104 -99.6897612026049 -163.0258939985076 0.0 0.0
-442.622558191885 13.095266908559804 -158.15521226505047 -152.21566156136254 0.0 0.0
-544.2458791633862 0.20247104832379392 -233.76800039921824 -141.6295525086963 0.0 0.0
-623.8991926401252 -13.337641797115197 -299.0021911901821 -138.02381473449654 0.0 0.0
-687.2194815813021 -25.827322074595955 -346.7460141694816 -136.15448726901005 0.0 0.0
-740.4001451662782 -36.809909022944666 -382.8072174242867 -133.54150713785347 0.0 0.0
-789.1408111547148 -48.68936458188861 -414.8159159690071 -129.93714793215807 0.0 0.0
-834.5633807726576 -61.06062022335148 -444.55769043663804 -126.14867361086732 0.0 0.0
-878.816840047136 -75.61747778691912 -474.4333725151126 -123.15991555055426 0.0 0.0
-923.7951864161828 -94.36269587653581 -506.5489425985526 -122.66500843820319 0.0 0.0
-970.5232655433898 -119.23931929192702 -542.5745893839672 -125.68047395498891 0.0 0.0
-1019.8515556133724 -152.07316519155881 -583.9024007368633 -131.25630563984845 0.0 0.0
-1073.3409773595408 -195.6702231368346 -632.6825726201771 -136.70097390571874 0.0 0.0
-1142.8251055130256 -265.69085434316963 -702.3123574752443 -138.81836599993503 0.0 0.0
-1236.9880071523335 -389.6829631441568 -811.0938120751437 -142.6445007861722 0.0 0.0
-1236.988007152248 -389.68296314417165 -811.0938120751607 142.64450078633254 0.0 0.0
-1142.8251055136236 -265.69085434392264 -702.3123574756264 138.81836600011312 0.0 0.0
-1073.3409773591563 -195.67022313656938 -632.6825726198616 136.7009739058517 0.0 0.0
-1019.8515556134575 -152.07316519192977 -583.9024007368732 131.25630564019067 0.0 0.0
-970.5232655437906 -119.23931929251331 -542.5745893841886 125.68047395509701 0.0 0.0
-923.795186416437 -94.3626958769951 -506.5489425986889 122.6650084382674 0.0 0.0
-878.816840047285 -75.61747778729165 -474.4333725151598 123.15991555064508 0.0 0.0
-834.5633807719876 -61.06062022293472 -444.55769043614805 126.14867361098628 0.0 0.0
-789.1408111545367 -48.68936458198948 -414.81591596883794 129.9371479322348 0.0 0.0
-740.4001451661251 -36.80990902313296 -382.80721742418564 133.54150713793825 0.0 0.0
-687.2194815805375 -25.827322074007203 -346.7460141689464 136.1544872688415 0.0 0.0
-623.8991926397721 -13.337641797055646 -299.00219118988053 138.0238147344628 0.0 0.0
-544.2458791626666 0.20247104879547884 -233.76800039861908 141.62955250860443 0.0 0.0
-442.6225581916921 13.095266908196724 -158.15521226490077 152.215661561334 0.0 0.0
-331.2951066391573 19.24528294982473 -99.68976120266454 163.02589399841915 0.0 0.0
-244.71800147598276 20.192199287998395 -68.11830231424352 164.9328611169791 0.0 0.0
-185.0327127978309 17.52397124182177 -50.35217172393581 168.27416200288388 0.0 0.0
-137.9219649389869 2.3269761596146226 -40.67845919159815 173.12636064524463 0.0 0.0
-88.19213861289569 -43.84528403962016 -39.61108900114447 165.81625732851995 0.0 0.0
-28.79349964878352 -125.62094865959861 -46.32433449251463 97.34556506157955 0.0 0.0
-29.58207580414095 -90.11903467150246 -35.91033314269302 -82.14073966898823 0.0 0.0
-97.1608564195186 -37.037005174566346 -40.25935847822548 -149.82924535452605 0.0 0.0
-163.0920929914883 1.938575135514503 -48.3448231007775 -159.8283671681118 0.0 0.0
-228.06020334908112 15.795422390254133 -63.73195275551279 -153.38824474958506 0.0 0.0
-305.5665218501595 21.146132356509366 -86.7066720739608 -145.91145243519216 0.0 0.0
-407.32441303328324 21.614194228766507 -129.38280699087096 -135.44182080847213 0.0 0.0
-514.7895854765942 12.32213502467745 -200.43897732383124 -122.06989550450137 0.0 0.0
-604.7572286163049 -2.1153808106550755 -276.1863615676223 -117.21257909957819 0.0 0.0
-677.8716934112632 -17.406709296307994 -335.1768590204145 -117.53258805975148 0.0 0.0
-740.0542238524722 -31.851858849963037 -379.4329728373894 -117.43857430484042 0.0 0.0
-796.5377006232594 -46.86052099738366 -417.3857991555865 -115.60339338892453 0.0 0.0
-849.3276273958556 -62.73629254153708 -452.7129062862548 -112.48366361160397 0.0 0.0
-899.1207224812903 -79.08493991144526 -486.35911071603994 -109.02423468530041 0.0 0.0
-947.3024992066548 -96.5355242718476 -519.5218353932859 -106.05095814873009 0.0 0.0
-997.0958471565693 -118.3878789557304 -555.4951024418325 -105.16047277411595 0.0 0.0
-1051.9925520942295 -149.58388133505144 -598.6197743671207 -107.5313916773225 0.0 0.0
-1114.3683606903437 -192.7207408392411 -651.4966901781947 -112.50185486308436 0.0 0.0
-1185.779918722266 -251.74762452879656 -716.7723290677436 -116.66780522443064 0.0 0.0
-1267.859532695224 -333.35430430523235 -798.5727041517221 -117.77476696740622 0.0 0.0
-1352.2030507923573 -445.15147507793847 -896.6585525867752 -122.73712548091743 0.0 0.0
-1352.2030507911759 -445.15147507674106 -896.6585525859994 122.7371254809293 0.0 0.0
-1267.8595326942486 -333.35430430421536 -798.5727041510214 117.7747669673885 0.0 0.0
-1185.7799187222117 -251.74762452881959 -716.7723290677706 116.66780522451558 0.0 0.0
-1114.3683606899294 -192.720740839005 -651.496690177991 112.50185486325492 0.0 0.0
-1051.9925520932907 -149.5838813341793 -598.6197743664361 107.53139167724136 0.0 0.0
-997.0958471553756 -118.38787895464239 -555.4951024410129 105.16047277411957 0.0 0.0
-947.302499206404 -96.53552427171239 -519.5218353930859 106.05095814866206 0.0 0.0
-899.1207224809127 -79.08493991124351 -486.3591107158416 109.02423468526419 0.0 0.0
-849.3276273953683 -62.73629254121469 -452.7129062859514 112.48366361151491 0.0 0.0
-796.5377006229362 -46.860520997313124 -417.3857991553732 115.60339338893431 0.0 0.0
-740.0542238524974 -31.851858850345458 -379.43297283741526 117.43857430489845 0.0 0.0
-677.8716934110441 -17.406709296388314 -335.1768590202429 117.53258805972192 0.0 0.0
-604.7572286159484 -2.115380810665485 -276.18636156733027 117.2125790996136 0.0 0.0
-514.7895854756434 12.322135025281769 -200.43897732315236 122.06989550451154 0.0 0.0
-407.32441303250744 21.61419422922334 -129.38280699039672 135.44182080834454 0.0 0.0
-305.56652184978566 21.146132356582523 -86.70667207383178 145.91145243503794 0.0 0.0
-228.0602033488099 15.795422390265447 -63.73195275543453 153.3882447494592 0.0 0.0
-163.09209299135844 1.9385751355185277 -48.344823100737905 159.82836716808208 0.0 0.0
-97.1608564195789 -37.037005174671485 -40.25935847827512 149.82924535435524 0.0 0.0
-29.582075804067557 -90.11903467140237 -35.91033314264097 82.1407396688345 0.0 0.0
-30.3251030265412 -59.682544929908886 -27.002294386935027 -66.51427337508795 0.0 0.0
-105.40592430663087 -29.19580328919585 -40.38051827874801 -130.33788812864503 0.0 0.0
-186.81788966758444 1.5637688197726103 -55.57404914852306 -142.21285455662178 0.0 0.0
-268.3661426281885 13.296144089047063 -76.63985967566276 -134.10285592184286 0.0 0.0
-361.90187828691995 22.46673916996334 -105.13186524349268 -122.79990375691057 0.0 0.0
-470.71923355376146 21.430937074490707 -160.27149888487443 -106.16745980715622 0.0 0.0
-568.9332720405246 11.05538040712701 -237.48171585914014 -95.54445673681118 0.0 0.0
-649.8720026416336 -4.576572713964552 -308.4755275604425 -95.1656075824712 0.0 0.0
-719.6681255880194 -20.300244844560254 -361.4586245091082 -97.48671099661989 0.0 0.0
-783.6749965167738 -37.669033654020296 -405.7364992876752 -98.26759232195116 0.0 0.0
-843.8993872389398 -56.66374735957484 -446.71125995593127 -96.96438826818387 0.0 0.0
-900.9066412620753 -76.70137240146991 -485.9229532239294 -94.398077943625 0.0 0.0
-955.279452680484 -97.17008312618361 -523.8010719549676 -91.52554864268497 0.0 0.0
-1007.451463884435 -118.15718477515804 -560.6801872335781 -88.67004713769457 0.0 0.0
-1061.3062993068424 -142.9553577986725 -600.1064115819498 -87.11336695824767 0.0 0.0
-1123.831452923153 -179.52797045130035 -649.6332367512587 -88.43289271267338 0.0 0.0
-1198.650002297872 -233.7055547052771 -714.1273401757264 -92.36935631249821 0.0 0.0
-1285.038966616865 -306.8180847739665 -793.9010090053791 -96.36154957917337 0.0 0.0
-1374.1265847964949 -395.58672676683165 -882.8733437998662 -99.25788975030144 0.0 0.0
-1452.5454892846208 -500.0696770353987 -974.4830708743887 -107.8309263673418 0.0 0.0
-1452.5454892861137 -500.0696770370886 -974.4830708754571 107.83092636767134 0.0 0.0
-1374.1265847964296 -395.5867267668348 -882.8733437998887 99.25788975040928 0.0 0.0
-1285.0389666165922 -306.8180847737731 -793.90100900516 96.36154957923344 0.0 0.0
-1198.6500022982812 -233.7055547058505 -714.1273401760516 92.36935631270049 0.0 0.0
-1123.8314529233426 -179.5279704516146 -649.6332367514269 88.43289271264308 0.0 0.0
-1061.3062993066915 -142.9553577986373 -600.1064115817916 87.11336695818859 0.0 0.0
-1007.4514638840035 -118.15718477486769 -560.6801872332732 88.67004713767538 0.0 0.0
-955.279452679921 -97.17008312580307 -523.8010719545861 91.52554864267532 0.0 0.0
-900.9066412611045 -76.7013724007343 -485.92295322334803 94.39807794367064 0.0 0.0
-843.8993872382142 -56.66374735902464 -446.7112599554395 96.9643882680705 0.0 0.0
-783.6749965170828 -37.669033654654946 -405.73649928788336 98.2675923219777 0.0 0.0
-719.6681255879075 -20.30024484470688 -361.4586245089818 97.48671099654852 0.0 0.0
-649.8720026414072 -4.576572714005341 -308.47552756017586 95.16560758230369 0.0 0.0
-568.9332720405552 11.055380406633319 -237.4817158590186 95.54445673685709 0.0 0.0
-470.71923355376936 21.430937073881843 -160.2714988848611 106.16745980716203 0.0 0.0
-361.901878286701 22.46673916966006 -105.13186524349852 122.79990375685865 0.0 0.0
-268.3661426278634 13.296144089035396 -76.63985967558064 134.1028559217606 0.0 0.0
-186.81788966746947 1.5637688197810489 -55.57404914848688 142.2128545564632 0.0 0.0
-105.40592430658818 -29.195803289238558 -40.38051827874802 130.33788812849983 0.0 0.0
-30.325103026481752 -59.68254492983422 -27.00229438689479 66.51427337505379 0.0 0.0
-30.863045391765755 -34.771180505345384 -19.690267769133342 -50.40351654804594 0.0 0.0
-112.74325501534383 -20.863452770090877 -40.08201233563041 -107.728143543262 0.0 0.0
-209.29588463141653 1.1008449026762968 -62.458511918622065 -120.27227826958506 0.0 0.0
-307.5939406639809 10.873750605263014 -89.16849014771574 -111.23906289662374 0.0 0.0
-415.5105476232583 22.941792175876326 -124.73096702154868 -96.01608844741835 0.0 0.0
-521.0369375576859 20.30522239008556 -190.42914254154988 -78.07983056701323 0.0 0.0
-608.27253512327 8.556657622231661 -268.47848073726516 -72.007143423239 0.0 0.0
-684.3411409956693 -5.556082527150039 -331.8630354646061 -74.2683409168177 0.0 0.0
-754.2979002395882 -22.82568032522832 -382.25883173057343 -77.23328298314433 0.0 0.0
-820.908406243822 -43.47142031804384 -428.1324019235471 -78.41880859533505 0.0 0.0
-884.755314219109 -66.1670992382769 -472.3493771955458 -77.60640628570118 0.0 0.0
-946.2327813359653 -90.38979506989578 -515.7385501098345 -75.66190602865662 0.0 0.0
-1005.3073770004219 -115.33922588147283 -558.1188657700084 -73.4311027749354 0.0 0.0
-1062.755259875629 -140.87994881872604 -599.8813490410926 -71.03312873933129 0.0 0.0
-1120.7051870647335 -168.93021630368946 -642.9877604337169 -68.83547825860096 0.0 0.0
-1187.1801675569645 -208.69128016650836 -696.0135571951971 -68.43798223785463 0.0 0.0
-1272.5738102968457 -271.8681121800911 -770.1859126139186 -71.27696644341447 0.0 0.0
-1371.87180085932 -357.07906514176796 -862.4644096653458 -76.19057463959643 0.0 0.0
-1470.1176063904086 -455.0694412453115 -960.6794440661206 -82.49072601941556 0.0 0.0
-1548.0133021960341 -558.0814739491672 -1051.3605419317148 -95.75139915958836 0.0 0.0
-1548.0133021958377 -558.0814739489963 -1051.3605419315982 95.75139915972265 0.0 0.0
-1470.1176063900762 -455.0694412451036 -960.6794440658662 82.49072601967536 0.0 0.0
-1371.8718008589701 -357.0790651415079 -862.4644096650275 76.19057463968917 0.0 0.0
-1272.573810295934 -271.86811217928704 -770.1859126131172 71.27696644346888 0.0 0.0
-1187.1801675579338 -208.69128016760834 -696.0135571958127 68.43798223791336 0.0 0.0
-1120.7051870653315 -168.93021630447748 -642.9877604341658 68.83547825869485 0.0 0.0
-1062.755259875196 -140.8799488184252 -599.881349040727 71.03312873922819 0.0 0.0
-1005.307377000612 -115.33922588184845 -558.1188657700287 73.4311027749149 0.0 0.0
-946.2327813357172 -90.38979506993053 -515.7385501095937 75.6619060288119 0.0 0.0
-884.7553142194067 -66.16709923883563 -472.3493771956518 77.60640628572173 0.0 0.0
-820.9084062434144 -43.47142031792027 -428.1324019232466 78.41880859535424 0.0 0.0
-754.2979002382391 -22.825680324118956 -382.25883172970265 77.2332829830853 0.0 0.0
-684.3411409949626 -5.55608252674778 -331.8630354641076 74.26834091681614 0.0 0.0
-608.2725351228783 8.556657622263753 -268.4784807369078 72.00714342319452 0.0 0.0
-521.0369375575966 20.3052223897715 -190.42914254140436 78.07983056694987 0.0 0.0
-415.5105476229468 22.94179217566679 -124.73096702145973 96.01608844739872 0.0 0.0
-307.59394066362177 10.873750605368397 -89.16849014759393 111.23906289653779 0.0 0.0
-209.29588463120194 1.1008449028780518 -62.45851191849718 120.2722782695082 0.0 0.0
-112.74325501518986 -20.86345277001268 -40.082012335560755 107.72814354321073 0.0 0.0
-30.86304539174741 -34.77118050537374 -19.690267769136344 50.40351654809717 0.0 0.0
-30.566515664978695 -15.822787886285862 -13.916791065379366 -33.93176562643391 0.0 0.0
-118.3203654396238 -12.489220830687199 -39.2428758810933 -82.20878699139755 0.0 0.0
-230.86499995835482 0.22489512941030831 -69.19203144868335 -93.93618088391854 0.0 0.0
-346.4142148906295 9.759594327810909 -101.26793433256816 -84.81627140031301 0.0 0.0
-462.8761692003523 22.43564303052908 -145.6941946392438 -67.10958591457334 0.0 0.0
-560.4844162664906 17.600619799828557 -219.5411124784906 -52.900250464726135 0.0 0.0
-639.806440680634 6.841413047271608 -293.3579071333253 -50.68612449619303 0.0 0.0
-712.4400916101074 -6.049038746960164 -349.7829757664399 -53.465188952202205 0.0 0.0
-783.4255472992857 -25.4399317246194 -399.45684739049545 -56.507304906404315 0.0 0.0
-852.8584674752829 -49.070699409252185 -447.4714429579327 -57.88923000631971 0.0 0.0
-920.6056043563078 -75.45032931778405 -495.23958268874526 -57.5262904363357 0.0 0.0
-986.3740254205575 -103.7435537218615 -542.7171984249442 -56.19476479119189 0.0 0.0
-1050.752282530723 -133.32590101635603 -590.0018355366802 -54.691989127818786 0.0 0.0
-1113.957655902735 -164.50653657577948 -637.4153839323922 -52.880741193983525 0.0 0.0
-1177.3060663665015 -197.69135520118027 -685.8079426195765 -50.51892959885821 0.0 0.0
-1245.8887640624378 -238.5692413174898 -740.4822726068835 -48.43184170200454 0.0 0.0
-1331.983546063686 -301.49271032449667 -814.7739682954607 -49.47432078308702 0.0 0.0
-1446.1356869604488 -400.5537178270258 -921.327430466655 -55.52871453325747 0.0 0.0
-1559.1736202677803 -512.4985539840046 -1033.983629438685 -66.29370726518631 0.0 0.0
-1646.9952079602792 -623.7522021772886 -1133.7862083339319 -85.13862031233117 0.0 0.0
-1646.9952079602917 -623.7522021773801 -1133.7862083339958 85.1386203124977 0.0 0.0
-1559.1736202666639 -512.4985539829511 -1033.9836294378372 66.29370726529262 0.0 0.0
-1446.1356869600513 -400.5537178266826 -921.3274304662925 55.52871453322197 0.0 0.0
-1331.98354606352 -301.4927103244561 -814.7739682952833 49.474320783228514 0.0 0.0
-1245.8887640619203 -238.56924131709894 -740.4822726063477 48.4318417020347 0.0 0.0
-1177.3060663654444 -197.6913552002702 -685.8079426186431 50.51892959889827 0.0 0.0
-1113.957655902103 -164.50653657528306 -637.415383931957 52.88074119386806 0.0 0.0
-1050.7522825310602 -133.32590101691434 -590.0018355370036 54.691989127907824 0.0 0.0
-986.3740254195211 -103.74355372105404 -542.717198424301 56.19476479125749 0.0 0.0
-920.6056043554296 -75.45032931715451 -495.23958268814897 57.52629043633598 0.0 0.0
-852.8584674745687 -49.070699408794496 -447.47144295746756 57.88923000629889 0.0 0.0
-783.425547299059 -25.439931724678324 -399.45684739036153 56.507304906394296 0.0 0.0
-712.4400916105592 -6.049038747733327 -349.78297576668297 53.46518895212985 0.0 0.0
-639.8064406807079 6.841413046848828 -293.35790713326656 50.686124496123355 0.0 0.0
-560.4844162662454 17.60061979968479 -219.54111247820296 52.90025046468692 0.0 0.0
-462.876169200129 22.435643030274193 -145.6941946391499 67.109585914623 0.0 0.0
-346.4142148899859 9.759594328387681 -101.26793433222386 84.8162714003015 0.0 0.0
-230.86499995800017 0.2248951299283224 -69.19203144842153 93.93618088386303 0.0 0.0
-118.32036543951413 -12.489220830676793 -39.24287588105727 82.2087869912182 0.0 0.0
-30.566515664898365 -15.822787886240759 -13.916791065341735 33.93176562630581 0.0 0.0
-28.140176250187736 -3.202454032574581 -9.402789084828694 -17.615659721120352 0.0 0.0
-120.42950418500239 -4.656726023342179 -37.52586906250336 -53.746027359200184 0.0 0.0
-251.88040172753074 -1.0125274036047704 -75.86787873934067 -62.68261915195386 0.0 0.0
-386.86727744600046 10.074774088672122 -113.73238480171014 -54.943403343239005 0.0 0.0
-502.25141045675116 21.54211446614404 -167.5012844160424 -38.995500359285934 0.0 0.0
-589.2249511508472 13.586007737333425 -246.0142272730946 -30.251178673490877 0.0 0.0
-664.3469074001371 6.617647730838769 -311.7850470038103 -30.31846925369365 0.0 0.0
-735.846728175519 -7.144916466860735 -364.39589264343874 -32.71247739570252 0.0 0.0
-807.7214134841654 -27.90509855432998 -413.6949393773773 -35.27230944435214 0.0 0.0
-880.1852102843391 -54.43377720036085 -464.2169463892097 -36.6335528413432 0.0 0.0
-951.9812197895815 -84.53053175460016 -515.7224770587512 -36.699974087420514 0.0 0.0
-1022.4891496034422 -116.73988587352281 -567.4576358447893 -36.025379341744504 0.0 0.0
-1091.949101988157 -151.31793272511266 -619.7297899868722 -35.12915444793136 0.0 0.0
-1161.5829668599406 -188.31330419440778 -673.2166853295505 -34.01368365329165 0.0 0.0
-1232.0377277112282 -228.3181523562651 -728.5637826641466 -32.20954026055881 0.0 0.0
-1303.8893978358894 -272.45669281969685 -786.5901255780518 -29.44776492858715 0.0 0.0
-1383.1459006238047 -328.10102055838064 -853.8785266148002 -27.874134127654486 0.0 0.0
-1488.3264699920514 -416.7662344342077 -950.5187068772473 -33.114619266644915 0.0 0.0
-1648.403372803265 -573.3222567193295 -1108.9712779042882 -48.7906201683939 0.0 0.0
-1759.034250607314 -704.7070427047304 -1230.3747670524476 -75.0331780563335 0.0 0.0
-1759.0342506065222 -704.7070427039614 -1230.374767051858 75.03317805635638 0.0 0.0
-1648.403372803471 -573.3222567196029 -1108.9712779043825 48.790620168519006 0.0 0.0
-1488.3264699930808 -416.7662344353204 -950.5187068780259 33.11461926668839 0.0 0.0
-1383.1459006238592 -328.1010205585478 -853.8785266147871 27.874134127757884 0.0 0.0
-1303.8893978358717 -272.4566928198194 -786.5901255779415 29.447764928652724 0.0 0.0
-1232.0377277112318 -228.31815235642088 -728.5637826640286 32.20954026061626 0.0 0.0
-1161.5829668593196 -188.3133041939556 -673.2166853290112 34.01368365327031 0.0 0.0
-1091.949101987165 -151.3179327243285 -619.7297899860713 35.12915444804383 0.0 0.0
-1022.4891496031053 -116.73988587343149 -567.4576358444713 36.025379341793695 0.0 0.0
-951.9812197899411 -84.53053175522221 -515.722477058953 36.699974087426426 0.0 0.0
-880.1852102848143 -54.43377720111008 -464.216946389492 36.63355284134382 0.0 0.0
-807.7214134838209 -27.905098554278872 -413.69493937712093 35.27230944439896 0.0 0.0
-735.8467281746723 -7.144916466281053 -364.39589264285274 32.712477395617576 0.0 0.0
-664.3469073998963 6.617647730754349 -311.7850470035694 30.318469253658698 0.0 0.0
-589.2249511507257 13.5860077370731 -246.01422727289955 30.251178673550804 0.0 0.0
-502.2514104565458 21.542114465932798 -167.5012844159009 38.995500359316864 0.0 0.0
-386.86727744568964 10.074774088539922 -113.73238480167693 54.94340334310763 0.0 0.0
-251.88040172727585 -1.0125274034833285 -75.86787873922775 62.682619151795876 0.0 0.0
-120.4295041849019 -4.656726023347914 -37.52586906247494 53.746027359225806 0.0 0.0
-28.140176250162384 -3.2024540326453046 -9.402789084842304 17.615659721081922 0.0 0.0
-21.10443840879473 2.8472470312354785 -5.477157413267775 -2.720751885322025 0.0 0.0
-116.03870227604278 1.8068912318463788 -34.26954331325892 -21.795790301704084 0.0 0.0
-273.34584013283893 -2.306143545176784 -82.69559510340471 -25.43355200354749 0.0 0.0
-427.06788454512093 12.171894211889228 -127.2534289750425 -22.207713616627125 0.0 0.0
-535.6482688824857 19.0572455211881 -190.6551780838905 -13.31332185708198 0.0 0.0
-614.3745194563683 11.442612570860149 -268.3627498403272 -10.023945195973793 0.0 0.0
-684.4389887135841 5.782526257140603 -326.5564155014613 -10.364511171271536 0.0 0.0
-754.9954227600142 -8.312376691609145 -376.12281658345256 -11.90080907717943 0.0 0.0
-828.0362503765568 -30.46716099882356 -425.74536763357514 -13.553210807504119 0.0 0.0
-903.4238609355338 -59.53480758918752 -478.7070355384286 -14.65166864628295 0.0 0.0
-979.4185872178331 -93.11253719418175 -533.9353215162787 -15.113238786861022 0.0 0.0
-1054.6979982831672 -129.96977476836577 -590.3268039913446 -15.04932586436815 0.0 0.0
-1129.6077563124256 -169.11550023835747 -647.5711348537134 -14.816534225295339 0.0 0.0
-1205.479731207364 -211.6572669233403 -706.9124697181364 -14.371414542046024 0.0 0.0
-1283.2336132258656 -258.74075499373276 -769.4220613315201 -13.426107702130246 0.0 0.0
-1361.9577146927113 -309.9547849308076 -834.4512280807722 -11.62219071476172 0.0 0.0
-1438.91396963212 -363.60077589357354 -899.7435310631946 -9.009422810719022 0.0 0.0
-1518.1931904916848 -425.57126218735834 -970.1636767263722 -9.590453995837212 0.0 0.0
-1635.3498373011307 -535.3681420018532 -1083.2535939507463 -25.276705216782798 0.0 0.0
-1960.040704199786 -874.2433066621786 -1415.6546754820088 -61.75638357838435 0.0 0.0
-1960.0407042000252 -874.243306662446 -1415.6546754822202 61.75638357843312 0.0 0.0
-1635.349837301484 -535.368142002262 -1083.253593950918 25.276705216827203 0.0 0.0
-1518.1931904907651 -425.5712621865082 -970.1636767255957 9.590453995877443 0.0 0.0
-1438.9139696311731 -363.60077589273374 -899.7435310624104 9.00942281070818 0.0 0.0
-1361.957714692488 -309.95478493071255 -834.451228080623 11.622190714744036 0.0 0.0
-1283.233613224994 -258.7407549929919 -769.4220613309262 13.426107702094864 0.0 0.0
-1205.479731206072 -211.65726692221344 -706.9124697171986 14.371414542120434 0.0 0.0
-1129.607756311136 -169.11550023727176 -647.5711348527581 14.816534225383066 0.0 0.0
-1054.6979982824637 -129.9697747678818 -590.3268039908132 15.049325864286084 0.0 0.0
-979.4185872170896 -93.11253719368489 -533.9353215156862 15.113238786908806 0.0 0.0
-903.4238609350124 -59.53480758892607 -478.70703553803145 14.65166864628062 0.0 0.0
-828.0362503761787 -30.4671609987395 -425.7453676333206 13.55321080768445 0.0 0.0
-754.9954227597859 -8.312376691673165 -376.12281658330073 11.900809077029695 0.0 0.0
-684.4389887129488 5.782526257481038 -326.5564155010341 10.364511171333064 0.0 0.0
-614.3745194555894 11.442612571357042 -268.3627498397569 10.023945196140263 0.0 0.0
-535.6482688819895 19.05724552139558 -190.6551780835207 13.31332185703452 0.0 0.0
-427.06788454506926 12.171894211405528 -127.25342897514774 22.207713616638436 0.0 0.0
-273.34584013250884 -2.306143545242703 -82.69559510332545 25.433552003620086 0.0 0.0
-116.03870227585375 1.806891231957902 -34.26954331316875 21.795790301648577 0.0 0.0
-21.104438408870823 2.847247031189142 -5.477157413304504 2.720751885176842 0.0 0.0
SCALARS Strain float 6
LOOKUP_TABLE default
0.011700284495729634 -0.012768122707094237 0.0 -0.00706164393974501 0.0 0.0
0.002400483248567401 -0.0014947151714989615 0.0 0.0011808144840085855 0.0 0.0
0.0018208909761988495 -0.0007435153196623245 0.0 -4.188391734455399e-05 0.0 0.0
0.0022992571592165174 -0.001109076616057858 0.0 -0.00021515169838265402 0.0 0.0
0.003553650318268757 -0.0021161392751809505 0.0 -0.00027194418252285413 0.0 0.0
0.006136057854947296 -0.004399836711907357 0.0 -0.00041422307597710484 0.0 0.0
0.010312701179080463 -0.008305212946374096 0.0 -0.0006597702236161296 0.0 0.0
0.016351400535779395 -0.01407316938841463 0.0 -0.0010371018772532548 0.0 0.0
0.02439024228843837 -0.021822319013660607 0.0 -0.0015613005143436665 0.0 0.0
0.03441565632618559 -0.03153362253919356 0.0 -0.0021887245524938315 0.0 0.0
0.046328417119592916 -0.04311630432425062 0.0 -0.0028402816277578458 0.0 0.0
0.06001427297041358 -0.05646322187848485 0.0 -0.003480928650446191 0.0 0.0
0.07536316933534906 -0.07146826328419342 0.0 -0.004117133102701703 0.0 0.0
0.09223763815964268 -0.08798964065699488 0.0 -0.004746663105578058 0.0 0.0
0.11035029061277937 -0.10573571002147819 0.0 -0.005348170295818466 0.0 0.0
0.12911860190239655 -0.12412694464473839 0.0 -0.005805743053432122 0.0 0.0
0.1475996721226584 -0.14223253802021496 0.0 -0.005899653690988715 0.0 0.0
0.16452563265213827 -0.15879919524723762 0.0 -0.005398446685639657 0.0 0.0
0.1783777752442067 -0.17231589420562932 0.0 -0.004505876210597615 0.0 0.0
0.18703286804091768 -0.18048793917238415 0.0 -0.004909664220260512 0.0 0.0
0.18703286804090488 -0.18048793917237527 0.0 0.004909664220267951 0.0 0.0
0.17837777524416848 -0.1723158942055938 0.0 0.004505876210618043 0.0 0.0
0.1645256326520774 -0.15879919524717234 0.0 0.005398446685651592 0.0 0.0
0.14759967212257794 -0.1422325380201328 0.0 0.005899653690997431 0.0 0.0
0.12911860190231045 -0.12412694464465579 0.0 0.005805743053421852 0.0 0.0
0.11035029061269225 -0.10573571002139381 0.0 0.005348170295818577 0.0 0.0
0.09223763815955366 -0.08798964065690829 0.0 0.004746663105576809 0.0 0.0
0.07536316933526219 -0.07146826328410816 0.0 0.004117133102701009 0.0 0.0
0.060014272970329186 -0.056463221878400915 0.0 0.003480928650438253 0.0 0.0
0.046328417119518406 -0.043116304324172905 0.0 0.0028402816277522946 0.0 0.0
0.034415656326124866 -0.0315336225391345 0.0 0.002188724552487864 0.0 0.0
0.024390242288389985 -0.021822319013617753 0.0 0.0015613005143403358 0.0 0.0
0.0163514005357428 -0.014073169388381102 0.0 0.0010371018772479812 0.0 0.0
0.010312701179055195 -0.008305212946352558 0.0 0.0006597702236144642 0.0 0.0
0.006136057854932819 -0.004399836711895366 0.0 0.0004142230759764942 0.0 0.0
0.0035536503182624357 -0.0021161392751770647 0.0 0.00027194418252007857 0.0 0.0
0.002299257159215029 -0.0011090766160567478 0.0 0.0002151516983806001 0.0 0.0
0.0018208909761985304 -0.0007435153196618804 0.0 4.18839173446095e-05 0.0 0.0
0.002400483248565788 -0.001494715171496963 0.0 -0.0011808144840076418 0.0 0.0
0.011700284495718305 -0.012768122707079877 0.0 0.0070616439397109265 0.0 0.0
0.008300777640400301 -0.009746677868325254 0.0 -0.00851446883135143 0.0 0.0
0.0013046447207244252 -0.0007542945229924714 0.0 0.00013393863007821194 0.0 0.0
0.0015569261812533597 -0.0005555564171915162 0.0 -0.00012910362444384926 0.0 0.0
0.0020197817971550312 -0.0009276281711823042 0.0 -0.0004705037670947876 0.0 0.0
0.0030201537398484475 -0.0016848291992594966 0.0 -0.0006127327132081084 0.0 0.0
0.0052315328957869035 -0.0035870364600809612 0.0 -0.0009618708166448942 0.0 0.0
0.008959771308120687 -0.007023708721184185 0.0 -0.0015853117728439892 0.0 0.0
0.014422395231701919 -0.012208232985047252 0.0 -0.0024886189671976533 0.0 0.0
0.021708129271517065 -0.01921005331804837 0.0 -0.0036783695020058405 0.0 0.0
0.030759117462235218 -0.027962662693165274 0.0 -0.005052215832904772 0.0 0.0
0.041453973741283 -0.038350815655656234 0.0 -0.006458698853423678 0.0 0.0
0.05369531469586937 -0.0502818945796335 0.0 -0.007810348038371523 0.0 0.0
0.06742752132298277 -0.06369840517183922 0.0 -0.00916932351039379 0.0 0.0
0.08255556358075099 -0.07850252691928494 0.0 -0.010557941311131136 0.0 0.0
0.09883572303463536 -0.09444901874810263 0.0 -0.011884857731757514 0.0 0.0
0.11577359646703371 -0.11104533942016026 0.0 -0.012916004039835616 0.0 0.0
0.13255394615564786 -0.12748195089390402 0.0 -0.013218381918228661 0.0 0.0
0.14802474745378627 -0.1426116003249609 0.0 -0.012414341470522672 0.0 0.0
0.16061062024237358 -0.15482689133754812 0.0 -0.010659365673820864 0.0 0.0
0.16819633925166788 -0.162129643168059 0.0 -0.007770175991915096 0.0 0.0
0.16819633925165559 -0.16212964316804968 0.0 0.0077701759919380775 0.0 0.0
0.16061062024233813 -0.1548268913375126 0.0 0.010659365673857057 0.0 0.0
0.14802474745373267 -0.14261160032490894 0.0 0.012414341470548207 0.0 0.0
0.13255394615557806 -0.12748195089384007 0.0 0.013218381918241207 0.0 0.0
0.11577359646695745 -0.11104533942008654 0.0 0.01291600403982418 0.0 0.0
0.09883572303455654 -0.09444901874802669 0.0 0.011884857731753518 0.0 0.0
0.08255556358067145 -0.07850252691920989 0.0 0.010557941311128194 0.0 0.0
0.06742752132290503 -0.06369840517176506 0.0 0.009169323510390681 0.0 0.0
0.053695314695794694 -0.05028189457956023 0.0 0.007810348038361115 0.0 0.0
0.041453973741216066 -0.03835081565558873 0.0 0.006458698853412548 0.0 0.0
0.03075911746218074 -0.027962662693108875 0.0 0.005052215832891616 0.0 0.0
0.021708129271473142 -0.019210053318004183 0.0 0.0036783695019992346 0.0 0.0
0.014422395231668717 -0.012208232985014389 0.0 0.0024886189671924908 0.0 0.0
0.00895977130809894 -0.007023708721163535 0.0 0.0015853117728396038 0.0 0.0
0.005231532895774327 -0.003587036460070303 0.0 0.0009618708166430623 0.0 0.0
0.0030201537398434897 -0.0016848291992548337 0.0 0.0006127327132071092 0.0 0.0
0.0020197817971540077 -0.000927628171181194 0.0 0.00047050376709462105 0.0 0.0
0.0015569261812533597 -0.0005555564171919603 0.0 0.00012910362444373824 0.0 0.0
0.001304644720724335 -0.0007542945229903619 0.0 -0.00013393863008109852 0.0 0.0
0.008300777640386892 -0.009746677868310245 0.0 0.00851446883132534 0.0 0.0
0.006142377747896589 -0.007748037166945804 0.0 -0.007889533787640901 0.0 0.0
0.0007677940101921063 -0.0004919746074319442 0.0 -0.0005691539732931017 0.0 0.0
0.0012478004978024593 -0.0004092959664070417 0.0 -0.00043480744980245456 0.0 0.0
0.001752880624712884 -0.0007628924057395681 0.0 -0.0007138232230509689 0.0 0.0
0.0025462814662661065 -0.0013274352545882273 0.0 -0.0009120971127990485 0.0 0.0
0.004362442241076479 -0.0028286367167440485 0.0 -0.001369692649764831 0.0 0.0
0.007617015347658962 -0.005765565919705562 0.0 -0.002268839991725835 0.0 0.0
0.012472008648195643 -0.010336420832933957 0.0 -0.0036030205478115307 0.0 0.0
0.018975849973407753 -0.016559827269629235 0.0 -0.005318474211882029 0.0 0.0
0.02703415425271733 -0.024336279513040182 0.0 -0.007269390420350241 0.0 0.0
0.03650956048929249 -0.03352859496443683 0.0 -0.009264976869872349 0.0 0.0
0.047313549395275455 -0.044048954223087744 0.0 -0.011190811869067008 0.0 0.0
0.05941776634836111 -0.05586610819193716 0.0 -0.013102037371493735 0.0 0.0
0.07277707543431731 -0.06893194955162496 0.0 -0.015071345813709391 0.0 0.0
0.08721002970348347 -0.08306525963835032 0.0 -0.016989539186365143 0.0 0.0
0.1023180231700365 -0.0978675229635515 0.0 -0.018500801548264445 0.0 0.0
0.11741894871469855 -0.11265563541492574 0.0 -0.019072351752834615 0.0 0.0
0.1314596436721751 -0.1263657846100612 0.0 -0.0181991168790418 0.0 0.0
0.1429155287301176 -0.1374999837852222 0.0 -0.015397498594576842 0.0 0.0
0.15003568764965727 -0.14438884428198406 0.0 -0.00983342432257761 0.0 0.0
0.15003568764964548 -0.1443888442819734 0.0 0.009833424322613138 0.0 0.0
0.1429155287300852 -0.13749998378519335 0.0 0.015397498594628245 0.0 0.0
0.13145964367212779 -0.1263657846100128 0.0 0.018199116879078825 0.0 0.0
0.11741894871463776 -0.11265563541486623 0.0 0.019072351752852712 0.0 0.0
0.1023180231699698 -0.097867522963488 0.0 0.01850080154825573 0.0 0.0
0.08721002970341332 -0.0830652596382837 0.0 0.016989539186359037 0.0 0.0
0.07277707543424744 -0.06893194955156146 0.0 0.01507134581370706 0.0 0.0
0.059417766348292184 -0.05586610819187454 0.0 0.013102037371488184 0.0 0.0
0.04731354939521004 -0.04404895422302202 0.0 0.011190811869051909 0.0 0.0
0.03650956048923379 -0.0335285949643751 0.0 0.009264976869859054 0.0 0.0
0.027034154252668807 -0.024336279512994885 0.0 0.007269390420334143 0.0 0.0
0.018975849973368458 -0.01655982726959282 0.0 0.005318474211871316 0.0 0.0
0.012472008648166194 -0.010336420832904869 0.0 0.003603020547801594 0.0 0.0
0.007617015347640033 -0.005765565919686022 0.0 0.0022688399917186186 0.0 0.0
0.004362442241066133 -0.0028286367167329463 0.0 0.0013696926497618334 0.0 0.0
0.0025462814662623734 -0.0013274352545851187 0.0 0.0009120971127976052 0.0 0.0
0.0017528806247122108 -0.000762892405739013 0.0 0.000713823223049026 0.0 0.0
0.0012478004978024593 -0.00040929596640792987 0.0 0.0004348074498005672 0.0 0.0
0.0007677940101922243 -0.0004919746074301401 0.0 0.0005691539732893824 0.0 0.0
0.006142377747884009 -0.007748037166931929 0.0 0.007889533787619085 0.0 0.0
0.0046331529417424355 -0.006241818000086968 0.0 -0.00670400353088052 0.0 0.0
0.00048148705497103733 -0.00036649890869921986 0.0 -0.001163283555367045 0.0 0.0
0.0009671223268265319 -0.0002990345785489623 0.0 -0.0008408648456219581 0.0 0.0
0.0014889256557757552 -0.0006155654446288183 0.0 -0.0009830248216594617 0.0 0.0
0.002128176279901195 -0.0010422402884824322 0.0 -0.0011933574252990242 0.0 0.0
0.0035628766935135864 -0.0021631326408868556 0.0 -0.0016665051728387281 0.0 0.0
0.00629583642807173 -0.004557933495429767 0.0 -0.0027203163613941372 0.0 0.0
0.010522534399230107 -0.008479965138388224 0.0 -0.004374620782569449 0.0 0.0
0.016219112399100476 -0.013900998885172822 0.0 -0.006472950660500354 0.0 0.0
0.023269784643365904 -0.020685313289650065 0.0 -0.008842900447340762 0.0 0.0
0.03152192954091332 -0.028676858263501526 0.0 -0.011257860244110296 0.0 0.0
0.04088977419843047 -0.037786759047864216 0.0 -0.013601781754884912 0.0 0.0
0.0513661804391419 -0.04800508234111733 0.0 -0.015941619494414083 0.0 0.0
0.06294490161076599 -0.0593206796213126 0.0 -0.018312369778864968 0.0 0.0
0.0755097773524368 -0.07162030771155115 0.0 -0.02061753353706086 0.0 0.0
0.08876880303625866 -0.08461029653536034 0.0 -0.022525758735758794 0.0 0.0
0.10217333428469115 -0.09773233609162535 0.0 -0.023426946400210702 0.0 0.0
0.11480732608320181 -0.1100679252775163 0.0 -0.022570139924101784 0.0 0.0
0.12534122970454156 -0.12031530323565853 0.0 -0.0189863212026673 0.0 0.0
0.13226249433148815 -0.12702748659404994 0.0 -0.011524053861479477 0.0 0.0
0.132262494331477 -0.1270274865940375 0.0 0.01152405386152544 0.0 0.0
0.12534122970451192 -0.12031530323563411 0.0 0.018986321202725698 0.0 0.0
0.11480732608316063 -0.11006792527747544 0.0 0.022570139924143584 0.0 0.0
0.1021733342846386 -0.09773233609157339 0.0 0.023426946400231574 0.0 0.0
0.08876880303620019 -0.08461029653530394 0.0 0.022525758735751022 0.0 0.0
0.0755097773523754 -0.07162030771150141 0.0 0.02061753353705087 0.0 0.0
0.06294490161070554 -0.05932067962125975 0.0 0.018312369778858306 0.0 0.0
0.05136618043908181 -0.0480050823410596 0.0 0.01594161949440709 0.0 0.0
0.04088977419837386 -0.03778675904780959 0.0 0.013601781754868703 0.0 0.0
0.0315219295408633 -0.028676858263452676 0.0 0.011257860244092366 0.0 0.0
0.02326978464332341 -0.02068531328960832 0.0 0.008842900447320723 0.0 0.0
0.016219112399065816 -0.013900998885139737 0.0 0.006472950660488308 0.0 0.0
0.010522534399204558 -0.008479965138363799 0.0 0.004374620782558791 0.0 0.0
0.006295836428055868 -0.004557933495414446 0.0 0.0027203163613880865 0.0 0.0
0.003562876693505551 -0.00216313264087975 0.0 0.0016665051728340097 0.0 0.0
0.002128176279898558 -0.0010422402884796567 0.0 0.0011933574252973589 0.0 0.0
0.001488925655775214 -0.0006155654446279302 0.0 0.000983024821658074 0.0 0.0
0.000967122326826636 -0.00029903457854918436 0.0 0.000840864845621736 0.0 0.0
0.0004814870549712247 -0.0003664989086980541 0.0 0.001163283555364436 0.0 0.0
0.004633152941731583 -0.006241818000075065 0.0 0.0067040035308625345 0.0 0.0
0.003486778887952083 -0.00501632180126374 0.0 -0.005492090018482831 0.0 0.0
0.0003214587726368817 -0.00029939863453043447 0.0 -0.0016258078849931135 0.0 0.0
0.0007319037020216274 -0.00021891354220204828 0.0 -0.001250275982252691 0.0 0.0
0.0012276070886354934 -0.00048601292037686594 0.0 -0.0012791029524775177 0.0 0.0
0.0017560906227532952 -0.000815641643424625 0.0 -0.0014639990568049988 0.0 0.0
0.0028486529329525834 -0.0016079996581057632 0.0 -0.0019118591207729074 0.0 0.0
0.005036634268315868 -0.0034402084254034904 0.0 -0.002961871357946455 0.0 0.0
0.008589300751117288 -0.006664142691991115 0.0 -0.004763071585346945 0.0 0.0
0.013463818335374592 -0.011261551182741858 0.0 -0.007133907178451193 0.0 0.0
0.019493266025632797 -0.01703924705953641 0.0 -0.009766500630386199 0.0 0.0
0.02651852554774109 -0.023824791291027214 0.0 -0.012444463215698254 0.0 0.0
0.034450926865107104 -0.031525105753296145 0.0 -0.015042872431654197 0.0 0.0
0.04329951541196661 -0.04014370458729921 0.0 -0.01763349048507018 0.0 0.0
0.05309478592947023 -0.049707778532431135 0.0 -0.020273272915799168 0.0 0.0
0.06377985022622015 -0.06016066748286297 0.0 -0.02282462907250865 0.0 0.0
0.07515323765368019 -0.07129960550759229 0.0 -0.024961206222870014 0.0 0.0
0.08681180543997735 -0.08271514877479991 0.0 -0.02615219934727958 0.0 0.0
0.0980547919860812 -0.09369826659528879 0.0 -0.025482261538167073 0.0 0.0
0.10779547366958946 -0.1031814970696252 0.0 -0.021565498995122168 0.0 0.0
0.11469126656415207 -0.10987506631203159 0.0 -0.012954881608508884 0.0 0.0
0.11469126656414166 -0.10987506631202182 0.0 0.012954881608557511 0.0 0.0
0.10779547366956291 -0.10318149706960256 0.0 0.02156549899518423 0.0 0.0
0.09805479198604597 -0.09369826659525415 0.0 0.02548226153821309 0.0 0.0
0.08681180543993258 -0.0827151487747586 0.0 0.02615219934729973 0.0 0.0
0.07515323765362944 -0.07129960550754699 0.0 0.024961206222861687 0.0 0.0
0.06377985022616775 -0.06016066748280835 0.0 0.022824629072496938 0.0 0.0
0.05309478592941949 -0.04970777853237518 0.0 0.020273272915791063 0.0 0.0
0.0432995154119159 -0.04014370458725258 0.0 0.01763349048506424 0.0 0.0
0.03445092686505957 -0.03152510575325529 0.0 0.015042872431638044 0.0 0.0
0.026518525547698762 -0.023824791290988134 0.0 0.012444463215678159 0.0 0.0
0.01949326602559659 -0.017039247059499107 0.0 0.009766500630361774 0.0 0.0
0.013463818335345351 -0.011261551182714324 0.0 0.007133907178436427 0.0 0.0
0.00858930075109593 -0.006664142691972907 0.0 0.004763071585334344 0.0 0.0
0.005036634268303308 -0.0034402084253928322 0.0 0.0029618713579399603 0.0 0.0
0.0028486529329466714 -0.0016079996581019884 0.0 0.001911859120768522 0.0 0.0
0.0017560906227516715 -0.0008156416434244029 0.0 0.0014639990568046102 0.0 0.0
0.001227607088634869 -0.00048601292037731003 0.0 0.001279102952477018 0.0 0.0
0.0007319037020218633 -0.00021891354220177073 0.0 0.0012502759822521914 0.0 0.0
0.00032145877263681233 -0.00029939863452901894 0.0 0.0016258078849916702 0.0 0.0
0.0034867788879431594 -0.005016321801253481 0.0 0.00549209001846962 0.0 0.0
0.002587051370830179 -0.003992070991039903 0.0 -0.004432584229181857 0.0 0.0
0.00022383555394986376 -0.000257024610634482 0.0 -0.0019700948616548364 0.0 0.0
0.0005344069402596213 -0.0001580012141099152 0.0 -0.0016119199093835856 0.0 0.0
0.0009687842128359575 -0.00036798841362040147 0.0 -0.0015755018869706983 0.0 0.0
0.0014181488819628302 -0.0006306820292936166 0.0 -0.0017289611116523829 0.0 0.0
0.0022140789947492356 -0.0011640982621821117 0.0 -0.0021298485297564507 0.0 0.0
0.0038802504290056244 -0.0024658176741820803 0.0 -0.0031013508182936578 0.0 0.0
0.006712831021589927 -0.004946433540528039 0.0 -0.0048421571724857615 0.0 0.0
0.010731515812487463 -0.008670982191521848 0.0 -0.007269105157780453 0.0 0.0
0.015732267711080883 -0.013429363930982152 0.0 -0.010026789753042109 0.0 0.0
0.021525536962025915 -0.019003723059392907 0.0 -0.012805950689685874 0.0 0.0
0.028025620003859913 -0.025295689110198083 0.0 -0.015502480498516547 0.0 0.0
0.03525024179710204 -0.032318498765019577 0.0 -0.01818911759840308 0.0 0.0
0.04325870860432185 -0.040127767478705056 0.0 -0.020907292728129523 0.0 0.0
0.05205425937866022 -0.048722939796044695 0.0 -0.023552705134074925 0.0 0.0
0.06151034721085147 -0.057979579706261664 0.0 -0.025820119890942128 0.0 0.0
0.07135872830347405 -0.06762802457373951 0.0 -0.02719883307542592 0.0 0.0
0.08116495484138435 -0.0772209757282325 0.0 -0.02682870110070923 0.0 0.0
0.09015856010324352 -0.08598628709098266 0.0 -0.023108549123275868 0.0 0.0
0.09715310780286901 -0.09277485852597556 0.0 -0.014155997207486393 0.0 0.0
0.0971531078028599 -0.09277485852596357 0.0 0.01415599720753613 0.0 0.0
0.09015856010322035 -0.08598628709095824 0.0 0.023108549123336597 0.0 0.0
0.08116495484135472 -0.07722097572820541 0.0 0.026828701100753083 0.0 0.0
0.07135872830343673 -0.06762802457370443 0.0 0.027198833075442796 0.0 0.0
0.061510347210809196 -0.05797957970622303 0.0 0.02582011989093491 0.0 0.0
0.05205425937861702 -0.04872293979600606 0.0 0.023552705134065377 0.0 0.0
0.0432587086042803 -0.0401277674786682 0.0 0.020907292728120752 0.0 0.0
0.03525024179706171 -0.03231849876498005 0.0 0.01818911759839481 0.0 0.0
0.028025620003821416 -0.02529568911015767 0.0 0.015502480498500337 0.0 0.0
0.021525536961990943 -0.019003723059357824 0.0 0.012805950689665724 0.0 0.0
0.01573226771105099 -0.013429363930955507 0.0 0.010026789753018295 0.0 0.0
0.010731515812463982 -0.008670982191499199 0.0 0.007269105157765576 0.0 0.0
0.006712831021572968 -0.004946433540511608 0.0 0.004842157172474326 0.0 0.0
0.0038802504289961737 -0.0024658176741743087 0.0 0.003101350818286497 0.0 0.0
0.002214078994745322 -0.001164098262178559 0.0 0.0021298485297508996 0.0 0.0
0.0014181488819616783 -0.0006306820292920623 0.0 0.0017289611116498849 0.0 0.0
0.000968784212835555 -0.0003679884136206235 0.0 0.001575501886969699 0.0 0.0
0.0005344069402598572 -0.00015800121410913803 0.0 0.0016119199093829195 0.0 0.0
0.00022383555394944743 -0.0002570246106340657 0.0 0.001970094861652394 0.0 0.0
0.0025870513708230736 -0.003992070991031891 0.0 0.004432584229171865 0.0 0.0
0.0018758733619597262 -0.0031287685613387017 0.0 -0.0035573590513001685 0.0 0.0
0.0001550604928254179 -0.00022718037356883602 0.0 -0.002211167162688099 0.0 0.0
0.00036143957976789154 -0.00010638579754418398 0.0 -0.001904763529960496 0.0 0.0
0.0007134197927224639 -0.0002543671270816006 0.0 -0.0018475959590506519 0.0 0.0
0.0010956638164884985 -0.00047110736100663964 0.0 -0.00199004992307511 0.0 0.0
0.00165676353597341 -0.0008138457639088603 0.0 -0.0023163741581244124 0.0 0.0
0.002833851716576921 -0.0016497726341773156 0.0 -0.0031354985745572495 0.0 0.0
0.0049502226978952735 -0.0033927930431740805 0.0 -0.004687379053281537 0.0 0.0
0.008064569348350925 -0.006192028267087313 0.0 -0.006924667057966405 0.0 0.0
0.012012133256218235 -0.009891908093894397 0.0 -0.009586208107696559 0.0 0.0
0.016568549803013352 -0.01424704231567997 0.0 -0.012326646657777163 0.0 0.0
0.021641748055586538 -0.019134029774431127 0.0 -0.014965832732824313 0.0 0.0
0.02725008457036318 -0.02456817821288748 0.0 -0.017575506503915428 0.0 0.0
0.03347395152577068 -0.03062480311914806 0.0 -0.020217498897845798 0.0 0.0
0.040365114810308605 -0.03735050293401354 0.0 -0.022796256729542552 0.0 0.0
0.04787810303180577 -0.044693484519970905 0.0 -0.025022562437516493 0.0 0.0
0.05585022928258283 -0.052508469400308844 0.0 -0.02649761392761396 0.0 0.0
0.06411015753431881 -0.06061283357400926 0.0 -0.0265407400274269 0.0 0.0
0.07229759555702522 -0.06861008264519564 0.0 -0.023532915823407996 0.0 0.0
0.0794662973014435 -0.07556020209301684 0.0 -0.015112647869089946 0.0 0.0
0.07946629730143615 -0.07556020209300973 0.0 0.015112647869134577 0.0 0.0
0.07229759555700602 -0.06861008264518276 0.0 0.023532915823468836 0.0 0.0
0.06411015753429508 -0.060612833573983504 0.0 0.026540740027474863 0.0 0.0
0.055850229282552455 -0.05250846940027998 0.0 0.026497613927630392 0.0 0.0
0.04787810303177245 -0.044693484519939375 0.0 0.025022562437507 0.0 0.0
0.040365114810274605 -0.03735050293398068 0.0 0.022796256729530673 0.0 0.0
0.03347395152573848 -0.0306248031191112 0.0 0.020217498897838526 0.0 0.0
0.027250084570332928 -0.024568178212854175 0.0 0.01757550650390749 0.0 0.0
0.021641748055557075 -0.01913402977440315 0.0 0.014965832732807716 0.0 0.0
0.016568549802985777 -0.014247042315655545 0.0 0.012326646657755624 0.0 0.0
0.012012133256195517 -0.009891908093875301 0.0 0.009586208107671412 0.0 0.0
0.008064569348333217 -0.006192028267069327 0.0 0.006924667057951139 0.0 0.0
0.004950222697882561 -0.0033927930431640885 0.0 0.004687379053271934 0.0 0.0
0.0028338517165700516 -0.0016497726341710983 0.0 0.0031354985745515873 0.0 0.0
0.0016567635359711064 -0.0008138457639059737 0.0 0.002316374158120693 0.0 0.0
0.0010956638164878463 -0.00047110736100530737 0.0 0.00199004992307239 0.0 0.0
0.0007134197927222141 -0.0002543671270812675 0.0 0.001847595959048265 0.0 0.0
0.0003614395797678638 -0.00010638579754368438 0.0 0.001904763529955944 0.0 0.0
0.00015506049282507095 -0.00022718037356836418 0.0 0.0022111671626843243 0.0 0.0
0.0018758733619542722 -0.003128768561332375 0.0 0.003557359051291731 0.0 0.0
0.0013248018523578653 -0.0024172920886970928 0.0 -0.002871269056980652 0.0 0.0
9.183727956538212e-05 -0.0002019665322605113 0.0 -0.0023523428369783272 0.0 0.0
0.00020199679957078054 -5.613238920287866e-05 0.0 -0.0021284410412010235 0.0 0.0
0.00046368971555603433 -0.0001427796704708273 0.0 -0.002074569414562355 0.0 0.0
0.0007707472474275529 -0.0003192233043616266 0.0 -0.0022260403374507187 0.0 0.0
0.0011618682487167242 -0.0005430025077270972 0.0 -0.0025186636593376166 0.0 0.0
0.0019068775092993678 -0.0010078349247857332 0.0 -0.00313002999756562 0.0 0.0
0.0033314757515980203 -0.0020583992597369427 0.0 -0.004345153927614309 0.0 0.0
0.00552545551006732 -0.00391224277624902 0.0 -0.006197775192864796 0.0 0.0
0.008374906325767012 -0.00649909872066079 0.0 -0.00849208357465192 0.0 0.0
0.011677388867915084 -0.009604220946393127 0.0 -0.010957913245464912 0.0 0.0
0.01532517570988412 -0.013085553050314225 0.0 -0.01337971683951178 0.0 0.0
0.01932955706321729 -0.016940464110863473 0.0 -0.015770545689601012 0.0 0.0
0.023773330997305164 -0.021248583095068163 0.0 -0.01816290168128898 0.0 0.0
0.028748771896829006 -0.026093610736004358 0.0 -0.020516555846125994 0.0 0.0
0.0342913126003587 -0.0315006359435408 0.0 -0.022589461589798687 0.0 0.0
0.04033912260201025 -0.037417000004433376 0.0 -0.023979565425773064 0.0 0.0
0.04688913082427751 -0.04387417306969699 0.0 -0.024368025168051477 0.0 0.0
0.05406898389806636 -0.0509341462823123 0.0 -0.022590368324762244 0.0 0.0
0.0614134168346534 -0.058045668335821254 0.0 -0.015760833066715718 0.0 0.0
0.061413416834648044 -0.05804566833581637 0.0 0.015760833066754465 0.0 0.0
0.05406898389805265 -0.05093414628229853 0.0 0.02259036832481931 0.0 0.0
0.046889130824259495 -0.04387417306967567 0.0 0.024368025168096108 0.0 0.0
0.04033912260198741 -0.0374170000044054 0.0 0.02397956542578783 0.0 0.0
0.034291312600334106 -0.031500635943514155 0.0 0.022589461589787696 0.0 0.0
0.02874877189680461 -0.02609361073598304 0.0 0.020516555846116002 0.0 0.0
0.02377333099728296 -0.021248583095046403 0.0 0.018162901681279653 0.0 0.0
0.019329557063197084 -0.01694046411084571 0.0 0.01577054568959324 0.0 0.0
0.015325175709863581 -0.013085553050294685 0.0 0.01337971683949768 0.0 0.0
0.01167738886789546 -0.009604220946373587 0.0 0.010957913245447481 0.0 0.0
0.008374906325751136 -0.006499098720641694 0.0 0.008492083574632492 0.0 0.0
0.005525455510055816 -0.003912242776238584 0.0 0.0061977751928516955 0.0 0.0
0.0033314757515895133 -0.0020583992597309475 0.0 0.0043451539276060935 0.0 0.0
0.0019068775092948853 -0.0010078349247819585 0.0 0.003130029997560846 0.0 0.0
0.0011618682487153642 -0.0005430025077286516 0.0 0.0025186636593338974 0.0 0.0
0.0007707472474273724 -0.0003192233043625148 0.0 0.0022260403374483317 0.0 0.0
0.00046368971555571514 -0.00014277967047049422 0.0 0.002074569414559857 0.0 0.0
0.000201996799570614 -5.613238920282315e-05 0.0 0.0021284410411987476 0.0 0.0
9.183727956510457e-05 -0.00020196653226006722 0.0 0.0023523428369767174 0.0 0.0
0.0013248018523543126 -0.0024172920886923795 0.0 0.0028712690569747124 0.0 0.0
0.0009201001687106636 -0.0018629506039906651 0.0 -0.0023762795389689617 0.0 0.0
2.0001164148242268e-05 -0.00017953349903587767 0.0 -0.002424973937614705 0.0 0.0
4.938231324314035e-05 -1.2664712374377274e-06 0.0 -0.0022860263845043693 0.0 0.0
0.00022121550883563712 -3.4910203457250155e-05 0.0 -0.0022486168884225943 0.0 0.0
0.0004375252350100889 -0.00016227743823638008 0.0 -0.0024046931900472135 0.0 0.0
0.0006912352840905689 -0.00031259556044771486 0.0 -0.0027186709108831253 0.0 0.0
0.0011005116813595783 -0.0005350707169897717 0.0 -0.0031686944988321697 0.0 0.0
0.0018813646538015372 -0.0010091068756072907 0.0 -0.003935745680960168 0.0 0.0
0.00316659543780598 -0.0019456025036119762 0.0 -0.005186635774650172 0.0 0.0
0.004883848338727209 -0.0033806593902707682 0.0 -0.0068496331188862 0.0 0.0
0.006898156719873733 -0.005186254334929696 0.0 -0.00876611486875667 0.0 0.0
0.009103071459977463 -0.0072366021801779645 0.0 -0.01075353576421223 0.0 0.0
0.011510836458744733 -0.009513278426388716 0.0 -0.012784449013090282 0.0 0.0
0.014186993700648354 -0.01208093568348323 0.0 -0.014810709728926508 0.0 0.0
0.017233235840371425 -0.015032798891604138 0.0 -0.016812252888743662 0.0 0.0
0.020766708878709322 -0.01847136853035458 0.0 -0.018660434479719656 0.0 0.0
0.024863511110792602 -0.022457483197886763 0.0 -0.01998046473039583 0.0 0.0
0.02959679709348742 -0.02710917491709397 0.0 -0.020440275387041518 0.0 0.0
0.03536775547657292 -0.032886133749946644 0.0 -0.01989064716135769 0.0 0.0
0.0426880587021535 -0.03999200462947572 0.0 -0.0158644761010881 0.0 0.0
0.04268805870215028 -0.03999200462947128 0.0 0.01586447610112318 0.0 0.0
0.03536775547656501 -0.03288613374994087 0.0 0.019890647161410424 0.0 0.0
0.029596797093475014 -0.027109174917082868 0.0 0.020440275387079487 0.0 0.0
0.024863511110777697 -0.02245748319787566 0.0 0.01998046473040449 0.0 0.0
0.020766708878694445 -0.018471368530339927 0.0 0.018660434479705557 0.0 0.0
0.017233235840357214 -0.015032798891587262 0.0 0.016812252888735335 0.0 0.0
0.014186993700636141 -0.012080935683467686 0.0 0.014810709728922289 0.0 0.0
0.011510836458734408 -0.00951327842637717 0.0 0.01278444901308673 0.0 0.0
0.009103071459965861 -0.007236602180167306 0.0 0.010753535764199462 0.0 0.0
0.00689815671986263 -0.005186254334924811 0.0 0.008766114868741792 0.0 0.0
0.004883848338718161 -0.0033806593902663273 0.0 0.006849633118868881 0.0 0.0
0.003166595437800429 -0.0019456025036090896 0.0 0.005186635774641513 0.0 0.0
0.0018813646537966244 -0.0010091068756077348 0.0 0.003935745680955394 0.0 0.0
0.0011005116813577187 -0.0005350707169897717 0.0 0.0031686944988284504 0.0 0.0
0.0006912352840897917 -0.0003125955604463826 0.0 0.0027186709108795726 0.0 0.0
0.0004375252350102832 -0.00016227743823460372 0.0 0.0024046931900456037 0.0 0.0
0.00022121550883530405 -3.4910203457250155e-05 0.0 0.002248616888420041 0.0 0.0
4.938231324297382e-05 -1.2664712375487497e-06 0.0 0.002286026384502149 0.0 0.0
2.00011641479092e-05 -0.00017953349903637728 0.0 0.0024249739376130397 0.0 0.0
0.0009201001687084986 -0.0018629506039878167 0.0 0.002376279538965298 0.0 0.0
0.0006346148716919742 -0.0014452660696430142 0.0 -0.0020360023725196075 0.0 0.0
-5.790735881017195e-05 -0.00016119707185513477 0.0 -0.0024613268863135085 0.0 0.0
-9.937652640717998e-05 5.890333502045486e-05 0.0 -0.002385405523496753 0.0 0.0
-1.4272243810259377e-05 6.938282800583728e-05 0.0 -0.0023655330689072995 0.0 0.0
0.00010156680371350979 -2.631925932750079e-06 0.0 -0.0025125706771222944 0.0 0.0
0.0002157023892503107 -8.474870480990049e-05 0.0 -0.0028490074115929964 0.0 0.0
0.00035883710015530146 -0.00016832268263233807 0.0 -0.0033046465878498466 0.0 0.0
0.0006001524594759777 -0.0002906235983841654 0.0 -0.0037838670279519704 0.0 0.0
0.0010192122308199936 -0.0005098205534745937 0.0 -0.00437280164725834 0.0 0.0
0.001591775857632649 -0.000862561910818016 0.0 -0.005233363951987036 0.0 0.0
0.0022710476084034092 -0.0013359659262359713 0.0 -0.006431657308760386 0.0 0.0
0.0030024452062391294 -0.0019071792925426934 0.0 -0.007863040173386904 0.0 0.0
0.0037960205517512946 -0.002580497539844462 0.0 -0.00948044000723769 0.0 0.0
0.004692689682667117 -0.0033896544863285527 0.0 -0.011253694497106226 0.0 0.0
0.005791863933587299 -0.004419734016082533 0.0 -0.013159469331267215 0.0 0.0
0.00727651885542166 -0.0058342141203180375 0.0 -0.015061106050661355 0.0 0.0
0.009397180726595428 -0.007857830164715196 0.0 -0.01656677951001473 0.0 0.0
0.012365031887650979 -0.010686367592540602 0.0 -0.017054713002280564 0.0 0.0
0.01644247664633977 -0.014751066831352855 0.0 -0.01657448546265894 0.0 0.0
0.022928168585146624 -0.021281622082450102 0.0 -0.015429585245707367 0.0 0.0
0.022928168585145736 -0.021281622082451435 0.0 0.015429585245736455 0.0 0.0
0.01644247664633597 -0.014751066831350634 0.0 0.016574485462699573 0.0 0.0
0.012365031887644762 -0.010686367592532608 0.0 0.01705471300230388 0.0 0.0
0.009397180726589599 -0.007857830164707647 0.0 0.016566779510014507 0.0 0.0
0.007276518855417857 -0.0058342141203127085 0.0 0.015061106050649031 0.0 0.0
0.005791863933583552 -0.0044197340160767595 0.0 0.013159469331257112 0.0 0.0
0.004692689682664952 -0.003389654486320559 0.0 0.011253694497098343 0.0 0.0
0.003796020551750129 -0.0025804975398382446 0.0 0.009480440007230806 0.0 0.0
0.0030024452062372142 -0.001907179292535588 0.0 0.007863040173375135 0.0 0.0
0.0022710476084011055 -0.0013359659262306423 0.0 0.006431657308750172 0.0 0.0
0.0015917758576311503 -0.0008625619108157956 0.0 0.005233363951977488 0.0 0.0
0.001019212230819383 -0.0005098205534723732 0.0 0.004372801647254343 0.0 0.0
0.0006001524594742846 -0.0002906235983797245 0.0 0.0037838670279489173 0.0 0.0
0.00035883710015499615 -0.0001683226826294515 0.0 0.0033046465878456277 0.0 0.0
0.00021570238925036622 -8.474870481034458e-05 0.0 0.0028490074115886665 0.0 0.0
0.00010156680371392612 -2.6319259321949673e-06 0.0 0.0025125706771205736 0.0 0.0
-1.4272243810287133e-05 6.93828280059483e-05 0.0 0.002365533068904302 0.0 0.0
-9.9376526407291e-05 5.8903335021620595e-05 0.0 0.0023854055234944216 0.0 0.0
-5.790735880997766e-05 -0.00016119707185402454 0.0 0.002461326886311621 0.0 0.0
0.0006346148716905031 -0.0014452660696409898 0.0 0.002036002372516499 0.0 0.0
0.0004356607114746891 -0.001142492767064185 0.0 -0.0018193934408013424 0.0 0.0
-0.0001324197550351125 -0.00013846552075874596 0.0 -0.0024623176107049227 0.0 0.0
-0.0002437805100286572 0.00011919860799591842 0.0 -0.0024332898952848514 0.0 0.0
-0.0002430489845363093 0.00017062847328375153 0.0 -0.002420039871487256 0.0 0.0
-0.00023100205796222628 0.00015536208602084933 0.0 -0.002548642965110426 0.0 0.0
-0.00026464715692897656 0.00014601292868299254 0.0 -0.0028647093215031227 0.0 0.0
-0.00037422859657038066 0.00018407008879273157 0.0 -0.003310099946902789 0.0 0.0
-0.0006038481493138848 0.000293828815431052 0.0 -0.00378766160681554 0.0 0.0
-0.0010184372935696517 0.0005099200156357675 0.0 -0.004374458038758133 0.0 0.0
-0.001590184917660692 0.0008619925919703952 0.0 -0.005231803590378892 0.0 0.0
-0.002275145208610302 0.0013429059907976715 0.0 -0.006431199216160088 0.0 0.0
-0.0030331188459063185 0.0019383412319076143 0.0 -0.007869142690496655 0.0 0.0
-0.003869639216147386 0.002644755042322089 0.0 -0.00948863591195559 0.0 0.0
-0.004768372986321684 0.0034329640862296174 0.0 -0.011260069134048423 0.0 0.0
-0.005627682350991647 0.004196852840569587 0.0 -0.013179174802253057 0.0 0.0
-0.006220094042885149 0.004716521689873243 0.0 -0.015202846882462318 0.0 0.0
-0.006168640557369293 0.004645567623037028 0.0 -0.017298540710618426 0.0 0.0
-0.005097795022052404 0.003731934320954533 0.0 -0.019508078066915235 0.0 0.0
-0.002706699764341014 0.001844850942624987 0.0 -0.02149353089634287 0.0 0.0
0.0031891124696075968 -0.0036782255731986346 0.0 -0.020038524536326707 0.0 0.0
0.003189112469607125 -0.0036782255732021873 0.0 0.02003852453634236 0.0 0.0
-0.002706699764342818 0.0018448509426209903 0.0 0.02149353089636008 0.0 0.0
-0.005097795022050128 0.0037319343209465394 0.0 0.019508078066919454 0.0 0.0
-0.006168640557363436 0.004645567623027258 0.0 0.01729854071061132 0.0 0.0
-0.0062200940428771 0.004716521689864361 0.0 0.015202846882449106 0.0 0.0
-0.005627682350985208 0.004196852840558485 0.0 0.013179174802244287 0.0 0.0
-0.004768372986314162 0.003432964086217627 0.0 0.011260069134041206 0.0 0.0
-0.003869639216138865 0.0026447550423087662 0.0 0.009488635911949372 0.0 0.0
-0.0030331188458979086 0.0019383412318982884 0.0 0.007869142690485442 0.0 0.0
-0.0022751452086031687 0.0013429059907945629 0.0 0.00643119921614832 0.0 0.0
-0.00159018491765478 0.0008619925919703952 0.0 0.0052318035903679005 0.0 0.0
-0.001018437293565655 0.0005099200156364336 0.0 0.004374458038754525 0.0 0.0
-0.0006038481493121917 0.0002938288154290536 0.0 0.003787661606812487 0.0 0.0
-0.0003742285965693537 0.0001840700887909552 0.0 0.003310099946900291 0.0 0.0
-0.0002646471569282549 0.00014601292868055005 0.0 0.002864709321499681 0.0 0.0
-0.0002310020579615324 0.0001553620860186289 0.0 0.002548642965107595 0.0 0.0
-0.00024304898453603174 0.00017062847328375153 0.0 0.002420039871483315 0.0 0.0
-0.00024378051002874046 0.00011919860799530779 0.0 0.0024332898952823534 0.0 0.0
-0.00013241975503480719 -0.0001384655207589125 0.0 0.002462317610702869 0.0 0.0
0.0004356607114738009 -0.0011424927670631354 0.0 0.0018193934408010648 0.0 0.0
0.00029859956646866026 -0.000906856165839659 0.0 -0.0016446606843138478 0.0 0.0
-0.00019952796873451417 -0.00010774729406531902 0.0 -0.002413914587806376 0.0 0.0
-0.0003815499262811717 0.0001762944259338095 0.0 -0.002428660539213201 0.0 0.0
-0.00046403766178432226 0.00026767713927344783 0.0 -0.0024079623593051824 0.0 0.0
-0.0005568573872003213 0.00030829676985089094 0.0 -0.002506791244487605 0.0 0.0
-0.000737476308791174 0.0003724669265061653 0.0 -0.0027701738710634305 0.0 0.0
-0.0011154604531465606 0.0005514689844592358 0.0 -0.003192467676019106 0.0 0.0
-0.0018839286165941715 0.0010126247001001065 0.0 -0.003947893159718441 0.0 0.0
-0.0031644303099195303 0.0019445813998428818 0.0 -0.005188657737618896 0.0 0.0
-0.004882263164458112 0.003380611375896958 0.0 -0.006848304432833241 0.0 0.0
-0.00690454316534217 0.005196058047054031 0.0 -0.0087655387773653 0.0 0.0
-0.009133013826946618 0.007270800212072714 0.0 -0.01074378291668876 0.0 0.0
-0.011578599520457866 0.009579222372640306 0.0 -0.012746608548230065 0.0 0.0
-0.014251901663606098 0.01212071398758896 0.0 -0.014762823974918016 0.0 0.0
-0.01706412450984049 0.014796243280222665 0.0 -0.01688003295253071 0.0 0.0
-0.01975155727794206 0.017346751556292617 0.0 -0.01918413325309465 0.0 0.0
-0.0218678816266816 0.019347837617296637 0.0 -0.02175235946062648 0.0 0.0
-0.022865229401962617 0.020273637593542393 0.0 -0.024494321199990954 0.0 0.0
-0.02175464315929282 0.018891042986966866 0.0 -0.02569853638997399 0.0 0.0
-0.015658573166769246 0.012542744700658748 0.0 -0.023388163773519377 0.0 0.0
-0.01565857316676922 0.012542744700657416 0.0 0.023388163773548354 0.0 0.0
-0.021754643159292236 0.018891042986961093 0.0 0.025698536390018845 0.0 0.0
-0.02286522940195182 0.020273637593532623 0.0 0.02449432120001782 0.0 0.0
-0.021867881626664226 0.01934783761727754 0.0 0.021752359460628035 0.0 0.0
-0.019751557277922993 0.017346751556270412 0.0 0.019184133253080438 0.0 0.0
-0.017064124509823336 0.014796243280202681 0.0 0.01688003295251672 0.0 0.0
-0.01425190166358939 0.012120713987569864 0.0 0.014762823974907358 0.0 0.0
-0.01157859952043945 0.009579222372626983 0.0 0.01274660854821924 0.0 0.0
-0.009133013826928424 0.007270800212057615 0.0 0.010743782916673217 0.0 0.0
-0.006904543165326016 0.005196058047038488 0.0 0.008765538777346704 0.0 0.0
-0.004882263164444595 0.0033806113758840795 0.0 0.006848304432814645 0.0 0.0
-0.003164430309910246 0.001944581399838885 0.0 0.0051886577376100695 0.0 0.0
-0.0018839286165888702 0.0010126247000983302 0.0 0.003947893159711613 0.0 0.0
-0.0011154604531437712 0.0005514689844585696 0.0 0.0031924676760148873 0.0 0.0
-0.0007374763087899944 0.00037246692650794166 0.0 0.002770173871059489 0.0 0.0
-0.0005568573871994192 0.00030829676985233423 0.0 0.0025067912444850515 0.0 0.0
-0.0004640376617839337 0.00026767713927411396 0.0 0.0024079623593033506 0.0 0.0
-0.000381549926280797 0.00017629442593403155 0.0 0.002428660539212424 0.0 0.0
-0.00019952796873440315 -0.00010774729406556882 0.0 0.00241391458780571 0.0 0.0
0.0002985995664682717 -0.0009068561658388541 0.0 0.001644660684312571 0.0 0.0
0.00019771285762990032 -0.0007001357665682439 0.0 -0.0014584679975275794 0.0 0.0
-0.0002598824222488916 -7.077313730668999e-05 0.0 -0.0023122321185892747 0.0 0.0
-0.0005109581106667871 0.0002296330287562265 0.0 -0.002366555169466933 0.0 0.0
-0.0006761703533064434 0.00035904459003122113 0.0 -0.002331262261184741 0.0 0.0
-0.0008718507079487625 0.0004519721171565294 0.0 -0.002385344005115586 0.0 0.0
-0.0012042101160879004 0.0006014184176827975 0.0 -0.002601846058247592 0.0 0.0
-0.0019197382925107698 0.0010256977067384376 0.0 -0.003168798350432156 0.0 0.0
-0.003330256545690552 0.0020596721141514784 0.0 -0.004358348674800894 0.0 0.0
-0.005521909322793422 0.003909495347084402 0.0 -0.006195318237241787 0.0 0.0
-0.008375018168023274 0.006500259438084299 0.0 -0.008490808308187825 0.0 0.0
-0.011685214517209747 0.009614611380794003 0.0 -0.010955695519323294 0.0 0.0
-0.015348545881755993 0.013112918895497483 0.0 -0.01334932279103751 0.0 0.0
-0.019377293675213486 0.016988375648328446 0.0 -0.015663385837962007 0.0 0.0
-0.02381309652821184 0.021269658933237956 0.0 -0.017992892913928693 0.0 0.0
-0.028590150724875002 0.02587881003666892 0.0 -0.020549620132272683 0.0 0.0
-0.033418033468240405 0.030530477001323497 0.0 -0.023615996201313716 0.0 0.0
-0.037746542039255926 0.03468987614317598 0.0 -0.02737053707262782 0.0 0.0
-0.040658299699748296 0.03738452162146544 0.0 -0.03111367889140959 0.0 0.0
-0.040379223565118944 0.036829048211730164 0.0 -0.03300492955038181 0.0 0.0
-0.033453930629380846 0.029236297288223856 0.0 -0.02930162192694341 0.0 0.0
-0.033453930629379014 0.029236297288227853 0.0 0.0293016219269836 0.0 0.0
-0.040379223565113975 0.036829048211732385 0.0 0.03300492955043388 0.0 0.0
-0.04065829969973139 0.03738452162145123 0.0 0.031113678891445562 0.0 0.0
-0.03774654203922986 0.034689876143155995 0.0 0.02737053707263326 0.0 0.0
-0.033418033468211275 0.030530477001301737 0.0 0.02361599620130128 0.0 0.0
-0.028590150724847607 0.025878810036645383 0.0 0.02054962013225714 0.0 0.0
-0.023813096528185862 0.02126965893321353 0.0 0.01799289291391487 0.0 0.0
-0.01937729367518516 0.016988375648300913 0.0 0.015663385837949906 0.0 0.0
-0.015348545881728515 0.01311291889547439 0.0 0.013349322791017637 0.0 0.0
-0.011685214517184989 0.00961461138077313 0.0 0.010955695519300257 0.0 0.0
-0.0083750181680015 0.006500259438066536 0.0 0.008490808308166953 0.0 0.0
-0.00552190932277874 0.003909495347069525 0.0 0.006195318237230851 0.0 0.0
-0.003330256545681226 0.0020596721141459273 0.0 0.004358348674792789 0.0 0.0
-0.0019197382925055795 0.0010256977067377715 0.0 0.003168798350426938 0.0 0.0
-0.0012042101160858604 0.0006014184176801329 0.0 0.0026018460582444836 0.0 0.0
-0.0008718507079477772 0.0004519721171534208 0.0 0.002385344005111756 0.0 0.0
-0.0006761703533055136 0.000359044590030555 0.0 0.0023312622611833533 0.0 0.0
-0.0005109581106664957 0.00022963302875689262 0.0 0.002366555169465767 0.0 0.0
-0.0002598824222487389 -7.077313730685653e-05 0.0 0.0023122321185874983 0.0 0.0
0.00019771285762983093 -0.0007001357665677426 0.0 0.001458467997525803 0.0 0.0
0.00011395042648426612 -0.00051542799208662 0.0 -0.0012654923458014222 0.0 0.0
-0.0003157738447687186 -2.7523178538935156e-05 0.0 -0.0021555888669874124 0.0 0.0
-0.0006320828513214638 0.0002795359553793286 0.0 -0.0022506135064983557 0.0 0.0
-0.0008787779358678804 0.00044305610930817085 0.0 -0.0021969633278725587 0.0 0.0
-0.0011721521917313071 0.000586863982727337 0.0 -0.002196503075191536 0.0 0.0
-0.001694034869970884 0.0008705557001877917 0.0 -0.0024267855151741125 0.0 0.0
-0.0028401219649143994 0.001664756957817648 0.0 -0.003178811209074428 0.0 0.0
-0.004944810660020255 0.003389187842991692 0.0 -0.004690676614937106 0.0 0.0
-0.008061490064835641 0.006189012013580797 0.0 -0.006919168021234545 0.0 0.0
-0.01201484563847069 0.009895260002819928 0.0 -0.009586001627086449 0.0 0.0
-0.016576453861898405 0.014256419318671387 0.0 -0.01232293175271204 0.0 0.0
-0.021652347512140624 0.0191470553287294 0.0 -0.014918221390328723 0.0 0.0
-0.02726032888845248 0.024579965505587165 0.0 -0.017407231173749982 0.0 0.0
-0.03346630675745843 0.030608571376760096 0.0 -0.01992302612407859 0.0 0.0
-0.040234603310006556 0.037185189660223994 0.0 -0.022753401777743987 0.0 0.0
-0.04726758920573104 0.04400291485729246 0.0 -0.026341846605492436 0.0 0.0
-0.053818619220055236 0.050306964976971624 0.0 -0.03084964545118163 0.0 0.0
-0.058454099443109364 0.0546507118968762 0.0 -0.03543387882217375 0.0 0.0
-0.058695480257465515 0.05447382362280262 0.0 -0.03769034705232932 0.0 0.0
-0.050088363461988084 0.04521283389724484 0.0 -0.03425944098984279 0.0 0.0
-0.050088363461984475 0.04521283389724129 0.0 0.034259440989885315 0.0 0.0
-0.05869548025745566 0.0544738236227893 0.0 0.03769034705238261 0.0 0.0
-0.058454099443086535 0.05465071189685533 0.0 0.035433878822213105 0.0 0.0
-0.05381861922002197 0.05030696497693743 0.0 0.030849645451194563 0.0 0.0
-0.0472675892056926 0.04400291485725161 0.0 0.026341846605483 0.0 0.0
-0.04023460330996963 0.03718518966018536 0.0 0.022753401777728888 0.0 0.0
-0.03346630675742271 0.030608571376723237 0.0 0.019923026124062826 0.0 0.0
-0.02726032888841466 0.024579965505552526 0.0 0.01740723117373788 0.0 0.0
-0.021652347512104167 0.01914705532869343 0.0 0.01491822139030996 0.0 0.0
-0.01657645386186586 0.014256419318638969 0.0 0.012322931752689503 0.0 0.0
-0.012014845638441157 0.00989526000279417 0.0 0.009586001627060747 0.0 0.0
-0.008061490064815116 0.006189012013561701 0.0 0.006919168021218558 0.0 0.0
-0.004944810660006682 0.0033891878429817 0.0 0.004690676614925726 0.0 0.0
-0.0028401219649064474 0.0016647569578096544 0.0 0.003178811209066157 0.0 0.0
-0.0016940348699675672 0.0008705557001835729 0.0 0.0024267855151698936 0.0 0.0
-0.0011721521917300165 0.0005868639827255606 0.0 0.0021965030751904258 0.0 0.0
-0.0008787779358667286 0.0004430561093068386 0.0 0.002196963327872281 0.0 0.0
-0.000632082851321103 0.0002795359553791621 0.0 0.0022506135064971344 0.0 0.0
-0.00031577384476844106 -2.7523178538879645e-05 0.0 0.0021555888669861356 0.0 0.0
0.00011395042648425224 -0.0005154279920860459 0.0 0.001265492345800534 0.0 0.0
4.113367270058843e-05 -0.00035235655993726134 0.0 -0.001067829615696847 0.0 0.0
-0.0003698597366184053 2.0945296473784403e-05 0.0 -0.0019477801896088387 0.0 0.0
-0.0007458193216739739 0.0003268226397604712 0.0 -0.0020776548355145863 0.0 0.0
-0.001069769694257483 0.0005177762268288033 0.0 -0.0019972678306668934 0.0 0.0
-0.0014653292273461016 0.0007230751042108796 0.0 -0.0019608570301247186 0.0 0.0
-0.002241186428762032 0.0012110003771712563 0.0 -0.0022389717510691853 0.0 0.0
-0.0038787590629166535 0.0024729462073651565 0.0 -0.0031299735679028995 0.0 0.0
-0.0067058857197905275 0.004939767777801363 0.0 -0.004838135245381736 0.0 0.0
-0.010730562811879507 0.008669652288423535 0.0 -0.0072622181565044075 0.0 0.0
-0.01573745653596703 0.013434778424887384 0.0 -0.01002649087843599 0.0 0.0
-0.021531784729083236 0.01901021668753078 0.0 -0.012798266307190054 0.0 0.0
-0.028018719113021756 0.02528916546057447 0.0 -0.015442546263733758 0.0 0.0
-0.03521060613470603 0.032281476588488456 0.0 -0.01798808563019183 0.0 0.0
-0.043184720792248665 0.04005800107450508 0.0 -0.02053978993519945 0.0 0.0
-0.05195103656540229 0.04860907890829402 0.0 -0.023403229684242355 0.0 0.0
-0.06119215750386062 0.0575917650882678 0.0 -0.027060519540775374 0.0 0.0
-0.06992122540673376 0.0660040538233182 0.0 -0.03175678966991069 0.0 0.0
-0.07616259410499518 0.07185399436035755 0.0 -0.036740191259840294 0.0 0.0
-0.07661873049212964 0.07181915740982525 0.0 -0.03978687337953424 0.0 0.0
-0.06627860025382071 0.06089057409690657 0.0 -0.03868288483969495 0.0 0.0
-0.06627860025381532 0.06089057409690746 0.0 0.03868288483973836 0.0 0.0
-0.07661873049211404 0.07181915740981504 0.0 0.03978687337958797 0.0 0.0
-0.07616259410496633 0.07185399436032869 0.0 0.036740191259881205 0.0 0.0
-0.06992122540669346 0.06600405382327956 0.0 0.031756789669923124 0.0 0.0
-0.06119215750381432 0.0575917650882265 0.0 0.027060519540765604 0.0 0.0
-0.05195103656535564 0.04860907890825361 0.0 0.023403229684230198 0.0 0.0
-0.04318472079220308 0.04005800107446067 0.0 0.020539789935183017 0.0 0.0
-0.035210606134659164 0.03228147658844316 0.0 0.017988085630177397 0.0 0.0
-0.02801871911297603 0.02528916546053095 0.0 0.01544254626371322 0.0 0.0
-0.021531784729042505 0.019010216687491255 0.0 0.012798266307165407 0.0 0.0
-0.015737456535931033 0.013434778424850524 0.0 0.010026490878411287 0.0 0.0
-0.010730562811852681 0.008669652288397334 0.0 0.007262218156488032 0.0 0.0
-0.006705885719772153 0.004939767777784265 0.0 0.004838135245370523 0.0 0.0
-0.0038787590629057456 0.002472946207358717 0.0 0.0031299735678960716 0.0 0.0
-0.0022411864287568417 0.00121100037716948 0.0 0.0022389717510644114 0.0 0.0
-0.0014653292273446167 0.0007230751042105465 0.0 0.001960857030122831 0.0 0.0
-0.0010697696942564283 0.0005177762268284702 0.0 0.001997267830665672 0.0 0.0
-0.0007458193216734049 0.00032682263976024917 0.0 0.0020776548355142532 0.0 0.0
-0.0003698597366184747 2.094529647342358e-05 0.0 0.0019477801896066183 0.0 0.0
4.113367270072721e-05 -0.0003523565599369491 0.0 0.0010678296156948486 0.0 0.0
-2.1598256157440154e-05 -0.0002124216285293301 0.0 -0.0008646855538761433 0.0 0.0
-0.0004226651391812386 7.270064743208904e-05 0.0 -0.0016943925456723852 0.0 0.0
-0.0008530177253073534 0.00037136138531468355 0.0 -0.001848610294685471 0.0 0.0
-0.0012498414685257198 0.0005864217520961112 0.0 -0.0017489072950527818 0.0 0.0
-0.0017699360569287392 0.0008808020482078405 0.0 -0.0017046323420381038 0.0 0.0
-0.002859124962647508 0.0016400053719192176 0.0 -0.0020171458822873523 0.0 0.0
-0.005031020802342051 0.0034403015873569753 0.0 -0.0029785431316479705 0.0 0.0
-0.008584074750766058 0.006658226544933976 0.0 -0.004752235436092989 0.0 0.0
-0.013465798277938118 0.011262944288054744 0.0 -0.007127883167370341 0.0 0.0
-0.019499946012037195 0.017045784953120258 0.0 -0.009766074901406685 0.0 0.0
-0.02652076712267315 0.023826218333564242 0.0 -0.012431650435530739 0.0 0.0
-0.034424032218484196 0.031496970284709214 0.0 -0.014976083137084761 0.0 0.0
-0.0432087930820341 0.04005629186651083 0.0 -0.01743933467633807 0.0 0.0
-0.05294658723865697 0.049574009566870636 0.0 -0.01991311151196118 0.0 0.0
-0.06366486585439549 0.06005612971702057 0.0 -0.02254896712255572 0.0 0.0
-0.0750437586234336 0.07113777330318216 0.0 -0.025767079433908435 0.0 0.0
-0.08588851028013791 0.0815955444857801 0.0 -0.03007935784153415 0.0 0.0
-0.09366717061693858 0.08889565449614611 0.0 -0.03522966502240488 0.0 0.0
-0.09435614571850504 0.0890509724077786 0.0 -0.03986283452384942 0.0 0.0
-0.08253760142648742 0.07668340495209858 0.0 -0.042876551933222595 0.0 0.0
-0.08253760142648128 0.07668340495208392 0.0 0.04287655193326956 0.0 0.0
-0.09435614571848362 0.08905097240775728 0.0 0.03986283452390388 0.0 0.0
-0.09366717061690345 0.08889565449611236 0.0 0.0352296650224444 0.0 0.0
-0.08588851028009077 0.08159554448573036 0.0 0.030079357841547194 0.0 0.0
-0.07504375862337989 0.0711377733031271 0.0 0.02576707943390094 0.0 0.0
-0.06366486585433931 0.06005612971696506 0.0 0.022548967122545227 0.0 0.0
-0.052946587238601656 0.049574009566817345 0.0 0.019913111511946913 0.0 0.0
-0.043208793081978614 0.04005629186645798 0.0 0.017439334676324025 0.0 0.0
-0.03442403221842942 0.03149697028465903 0.0 0.014976083137067775 0.0 0.0
-0.0265207671226243 0.023826218333518945 0.0 0.01243165043550587 0.0 0.0
-0.019499946011995103 0.01704578495307585 0.0 0.009766074901383093 0.0 0.0
-0.013465798277905519 0.011262944288022325 0.0 0.007127883167353355 0.0 0.0
-0.008584074750742729 0.00665822654491155 0.0 0.004752235436078556 0.0 0.0
-0.005031020802327535 0.0034403015873416543 0.0 0.0029785431316398103 0.0 0.0
-0.0028591249626404996 0.001640005371911002 0.0 0.0020171458822824118 0.0 0.0
-0.0017699360569265882 0.000880802048205509 0.0 0.0017046323420366605 0.0 0.0
-0.0012498414685244846 0.0005864217520956672 0.0 0.0017489072950522266 0.0 0.0
-0.0008530177253068677 0.000371361385314517 0.0 0.0018486102946834726 0.0 0.0
-0.00042266513918096105 7.270064743181148e-05 0.0 0.0016943925456704978 0.0 0.0
-2.1598256157315254e-05 -0.00021242162852910633 0.0 0.0008646855538756992 0.0 0.0
-7.262305454711071e-05 -9.80259327853783e-05 0.0 -0.0006552457151245972 0.0 0.0
-0.00047229807741813734 0.000124920637176007 0.0 -0.0014004658660624059 0.0 0.0
-0.0009544429226331641 0.00041313581933843935 0.0 -0.0015635396175046057 0.0 0.0
-0.00142423954431245 0.0006524621838995825 0.0 -0.0014511365344376803 0.0 0.0
-0.002103938460078475 0.0010693390151406135 0.0 -0.001408207789387883 0.0 0.0
-0.003556020530006254 0.0021736988145879543 0.0 -0.0017461995285983911 0.0 0.0
-0.006290473022850657 0.004554084306374051 0.0 -0.0027222668052984678 0.0 0.0
-0.010521968589875752 0.008478448071900901 0.0 -0.004361506363442569 0.0 0.0
-0.01622410965021867 0.013905344825627886 0.0 -0.006468420033326039 0.0 0.0
-0.02327645248947738 0.020691428032506565 0.0 -0.008841688003571213 0.0 0.0
-0.03151736179413178 0.02867081821282591 0.0 -0.011239655798736758 0.0 0.0
-0.040842774358321315 0.03773805210528991 0.0 -0.013535427913808462 0.0 0.0
-0.05123439112173553 0.04787686018443171 0.0 -0.015786481926989948 0.0 0.0
-0.06272802818249887 0.05912099506702795 0.0 -0.018032391351828547 0.0 0.0
-0.07531510593505739 0.07144985960745309 0.0 -0.020266487520380405 0.0 0.0
-0.08867514952554811 0.08449137951571073 0.0 -0.022656036764143295 0.0 0.0
-0.10152956189084453 0.09690030622066281 0.0 -0.025911759746105267 0.0 0.0
-0.11091882589151039 0.10573599534017752 0.0 -0.030946043594284767 0.0 0.0
-0.11216274403385129 0.10639101105044757 0.0 -0.03797903163541938 0.0 0.0
-0.09926852595201358 0.09295361531585966 0.0 -0.046826192483327755 0.0 0.0
-0.09926852595200539 0.09295361531585256 0.0 0.046826192483371165 0.0 0.0
-0.11216274403382567 0.10639101105042359 0.0 0.03797903163547317 0.0 0.0
-0.1109188258914687 0.10573599534013756 0.0 0.030946043594320738 0.0 0.0
-0.1015295618907902 0.09690030622061352 0.0 0.025911759746114482 0.0 0.0
-0.08867514952548644 0.08449137951564367 0.0 0.02265603676413941 0.0 0.0
-0.07531510593499265 0.0714498596073847 0.0 0.020266487520373522 0.0 0.0
-0.06272802818243364 0.05912099506696489 0.0 0.018032391351815502 0.0 0.0
-0.05123439112167141 0.04787686018436643 0.0 0.015786481926976015 0.0 0.0
-0.04084277435825774 0.03773805210522729 0.0 0.013535427913795167 0.0 0.0
-0.03151736179407509 0.02867081821276729 0.0 0.01123965579871461 0.0 0.0
-0.02327645248942911 0.020691428032459935 0.0 0.00884168800355073 0.0 0.0
-0.01622410965018048 0.013905344825596355 0.0 0.006468420033312661 0.0 0.0
-0.010521968589848114 0.008478448071876477 0.0 0.004361506363432188 0.0 0.0
-0.006290473022832442 0.004554084306357398 0.0 0.002722266805290141 0.0 0.0
-0.00355602052999731 0.0021736988145788505 0.0 0.001746199528592729 0.0 0.0
-0.0021039384600750957 0.0010693390151376159 0.0 0.0014082077893862732 0.0 0.0
-0.0014242395443113884 0.0006524621838996936 0.0 0.0014511365344370697 0.0 0.0
-0.0009544429226325812 0.00041313581933893895 0.0 0.0015635396175036065 0.0 0.0
-0.00047229807741758917 0.0001249206371760625 0.0 0.0014004658660617397 0.0 0.0
-7.262305454697193e-05 -9.80259327855431e-05 0.0 0.0006552457151252633 0.0 0.0
-0.00010822320989739564 -1.2388979335892225e-05 0.0 -0.00044111295314364085 0.0 0.0
-0.0005140036821304483 0.00017389875782763964 0.0 -0.001068714230888168 0.0 0.0
-0.0010508742953128647 0.0004512100227576088 0.0 -0.001221170351490941 0.0 0.0
-0.0016015229328234515 0.0007256778230326777 0.0 -0.0011091656676366912 0.0 0.0
-0.0024831626769406534 0.0013108932353225189 0.0 -0.0010748947382276386 0.0 0.0
-0.004343313250070258 0.0028184634321799518 0.0 -0.0014217726891450622 0.0 0.0
-0.007616848466028392 0.005764202596495016 0.0 -0.0022627345840422475 0.0 0.0
-0.012477623756471712 0.010341079544224696 0.0 -0.0035907011768094854 0.0 0.0
-0.018983419470949225 0.01656677481812041 0.0 -0.005315682652099696 0.0 0.0
-0.027039055519370275 0.024340254299685338 0.0 -0.007266889740502602 0.0 0.0
-0.03649590943938863 0.03351331840666294 0.0 -0.009244080206955108 0.0 0.0
-0.04724839735435582 0.04398272779922108 0.0 -0.01113384358102365 0.0 0.0
-0.05925917885587456 0.055711018817707014 0.0 -0.01299873206280211 0.0 0.0
-0.07250716998808257 0.06867541083526074 0.0 -0.014901428702021935 0.0 0.0
-0.0868761533280219 0.08275454259964743 0.0 -0.016667809051845284 0.0 0.0
-0.10197244870891267 0.09752256815293903 0.0 -0.018017859704209327 0.0 0.0
-0.11661344725521075 0.11171694680584343 0.0 -0.01955570671231366 0.0 0.0
-0.12783993965091775 0.12230390598040941 0.0 -0.023842471341687044 0.0 0.0
-0.13025555967924757 0.12404424807186665 0.0 -0.033699244608232926 0.0 0.0
-0.11691425790507043 0.1101051906681274 0.0 -0.050212937480428876 0.0 0.0
-0.1169142579050596 0.1101051906681163 0.0 0.050212937480462294 0.0 0.0
-0.13025555967921804 0.12404424807184311 0.0 0.033699244608277334 0.0 0.0
-0.12783993965086887 0.12230390598036278 0.0 0.023842471341717464 0.0 0.0
-0.11661344725514862 0.11171694680578215 0.0 0.019555706712321763 0.0 0.0
-0.10197244870884221 0.09752256815287152 0.0 0.01801785970420844 0.0 0.0
-0.08687615332794904 0.08275454259958037 0.0 0.016667809051842286 0.0 0.0
-0.07250716998800752 0.0686754108351888 0.0 0.014901428702012331 0.0 0.0
-0.059259178855801 0.055711018817631075 0.0 0.012998732062792867 0.0 0.0
-0.04724839735428378 0.04398272779915402 0.0 0.011133843581014352 0.0 0.0
-0.036495909439324445 0.03351331840660299 0.0 0.009244080206938371 0.0 0.0
-0.027039055519315923 0.024340254299634267 0.0 0.007266889740485005 0.0 0.0
-0.018983419470905753 0.016566774818077556 0.0 0.005315682652087483 0.0 0.0
-0.012477623756439564 0.010341079544189613 0.0 0.003590701176798494 0.0 0.0
-0.007616848466007062 0.005764202596472812 0.0 0.0022627345840339763 0.0 0.0
-0.004343313250058822 0.0028184634321692936 0.0 0.0014217726891406213 0.0 0.0
-0.0024831626769361986 0.001310893235318189 0.0 0.0010748947382265839 0.0 0.0
-0.0016015229328220984 0.000725677823034454 0.0 0.0011091656676369688 0.0 0.0
-0.001050874295312261 0.00045121002275927413 0.0 0.0012211703514902195 0.0 0.0
-0.0005140036821299696 0.0001738987578274731 0.0 0.0010687142308858366 0.0 0.0
-0.00010822320989711809 -1.2388979335843653e-05 0.0 0.0004411129531419755 0.0 0.0
-0.00012179301657483377 4.030217783965173e-05 0.0 -0.0002290035763745646 0.0 0.0
-0.0005388736282962436 0.0002136494297545477 0.0 -0.0006986983556696025 0.0 0.0
-0.0011440813994232357 0.00048655978368228325 0.0 -0.0008148740489754003 0.0 0.0
-0.001795973084610436 0.000814923308292359 0.0 -0.0007246799384678093 0.0 0.0
-0.002925266939384885 0.001628845778571586 0.0 -0.0007143482760263442 0.0 0.0
-0.005207784357440959 0.0035644780160677403 0.0 -0.0009866883234741497 0.0 0.0
-0.008968074971207052 0.007029046357860835 0.0 -0.001576433887835349 0.0 0.0
-0.014434227967105306 0.012219452892533678 0.0 -0.0024802903713413427 0.0 0.0
-0.021717427682324653 0.019218784779492903 0.0 -0.0036761035305417633 0.0 0.0
-0.030760900670463 0.02796322880271518 0.0 -0.005048857046394684 0.0 0.0
-0.04143022429863258 0.03832575584142672 0.0 -0.0064404988741409985 0.0 0.0
-0.05361501275062247 0.05020163940797895 0.0 -0.00777120005146914 0.0 0.0
-0.06725310628402248 0.06352711263462218 0.0 -0.009115160061580307 0.0 0.0
-0.08224683943005931 0.07820061351729146 0.0 -0.010475972073654916 0.0 0.0
-0.09833563288324243 0.09395779355777911 0.0 -0.011650202093847706 0.0 0.0
-0.11494954109682093 0.11022366866435362 0.0 -0.01219857364483179 0.0 0.0
-0.1309640058149002 0.12583375491930626 0.0 -0.012003160350161468 0.0 0.0
-0.14400242192705123 0.1382911991044442 0.0 -0.013791792575624129 0.0 0.0
-0.14880436803643834 0.1421429742215845 0.0 -0.02551193816261954 0.0 0.0
-0.13613418292878032 0.1287459508080513 0.0 -0.05225713175002156 0.0 0.0
-0.13613418292876753 0.12874595080804285 0.0 0.05225713175004565 0.0 0.0
-0.14880436803640437 0.14214297422154942 0.0 0.025511938162653403 0.0 0.0
-0.14400242192699486 0.13829119910438203 0.0 0.013791792575646722 0.0 0.0
-0.13096400581482914 0.12583375491923476 0.0 0.01200316035016541 0.0 0.0
-0.11494954109674184 0.11022366866427458 0.0 0.012198573644831567 0.0 0.0
-0.09833563288316034 0.09395779355769696 0.0 0.01165020209384679 0.0 0.0
-0.08224683942997524 0.07820061351721064 0.0 0.010475972073649725 0.0 0.0
-0.06725310628393957 0.06352711263454447 0.0 0.009115160061574923 0.0 0.0
-0.05361501275054193 0.0502016394078999 0.0 0.007771200051463173 0.0 0.0
-0.04143022429856125 0.038325755841353004 0.0 0.006440498874127953 0.0 0.0
-0.030760900670402942 0.027963228802652118 0.0 0.005048857046381611 0.0 0.0
-0.021717427682276278 0.01921878477944583 0.0 0.0036761035305350465 0.0 0.0
-0.014434227967068877 0.012219452892501259 0.0 0.0024802903713342372 0.0 0.0
-0.008968074971182502 0.0070290463578370765 0.0 0.001576433887830242 0.0 0.0
-0.0052077843574270775 0.0035644780160539735 0.0 0.0009866883234719848 0.0 0.0
-0.0029252669393792854 0.001628845778566257 0.0 0.0007143482760255115 0.0 0.0
-0.0017959730846091246 0.0008149233082914709 0.0 0.000724679938466255 0.0 0.0
-0.0011440813994223129 0.00048655978368233876 0.0 0.0008148740489733464 0.0 0.0
-0.0005388736282957753 0.00021364942975432566 0.0 0.0006986983556699355 0.0 0.0
-0.0001217930165745805 4.03021778392805e-05 0.0 0.000229003576374065 0.0 0.0
-0.00010157732647092521 5.410862888927115e-05 0.0 -3.5369774509186325e-05 0.0 0.0
-0.0005314995332580952 0.00023449682454318443 0.0 -0.00028334527392215314 0.0 0.0
-0.0012392265926913226 0.0005225314351284815 0.0 -0.0003306361760461174 0.0 0.0
-0.002029487862355517 0.0009451890237389682 0.0 -0.0003059122992618568 0.0 0.0
-0.003438387667796472 0.002023895264906095 0.0 -0.00030421725196866367 0.0 0.0
-0.006117140006600186 0.004374550693148516 0.0 -0.0004130168429709591 0.0 0.0
-0.010330360967950258 0.008319935212034446 0.0 -0.0006567446955449974 0.0 0.0
-0.016368111223671822 0.01408924999160166 0.0 -0.001032389506574638 0.0 0.0
-0.024400539387022913 0.021832041829005 0.0 -0.0015585405484716541 0.0 0.0
-0.034413705364440716 0.03153037395631442 0.0 -0.002185973179598011 0.0 0.0
-0.04629514340617863 0.04308221051432204 0.0 -0.002831131641132467 0.0 0.0
-0.05992154245082437 0.0563715532967386 0.0 -0.0034661152523970395 0.0 0.0
-0.07517664087929998 0.07128405209649102 0.0 -0.0041006393493258075 0.0 0.0
-0.091891439579386 0.08764334064368828 0.0 -0.004705201240931989 0.0 0.0
-0.10967472925114077 0.10505193639203858 0.0 -0.005163206600492742 0.0 0.0
-0.12772250475427918 0.12270977729887056 0.0 -0.0051728923822556006 0.0 0.0
-0.14472370765355727 0.1393191911003795 0.0 -0.004306527711178565 0.0 0.0
-0.15877666603547866 0.1529488097766678 0.0 -0.003124307344648747 0.0 0.0
-0.16654644285111292 0.16003849970460537 0.0 -0.009903270203117653 0.0 0.0
-0.15883001407872546 0.15033013670603745 0.0 -0.048135339348139405 0.0 0.0
-0.1588300140787105 0.15033013670602102 0.0 0.0481353393481494 0.0 0.0
-0.16654644285107484 0.1600384997045654 0.0 0.009903270203134196 0.0 0.0
-0.15877666603541407 0.1529488097766083 0.0 0.003124307344660404 0.0 0.0
-0.1447237076534762 0.13931919110030355 0.0 0.0043065277111763445 0.0 0.0
-0.12772250475419122 0.12270977729878352 0.0 0.005172892382254268 0.0 0.0
-0.10967472925104899 0.1050519363919511 0.0 0.005163206600491715 0.0 0.0
-0.09189143957929272 0.08764334064360169 0.0 0.004705201240930018 0.0 0.0
-0.07517664087920814 0.07128405209640576 0.0 0.004100639349324586 0.0 0.0
-0.05992154245073522 0.05637155329665289 0.0 0.00346611525239382 0.0 0.0
-0.04629514340609991 0.04308221051424699 0.0 0.0028311316411262777 0.0 0.0
-0.03441370536437484 0.03153037395625091 0.0 0.0021859731795911552 0.0 0.0
-0.02440053938696997 0.021832041828953486 0.0 0.001558540548471321 0.0 0.0
-0.016368111223631666 0.014089249991562136 0.0 0.001032389506569642 0.0 0.0
-0.010330360967922139 0.008319935212009133 0.0 0.0006567446955439982 0.0 0.0
-0.006117140006584506 0.004374550693136525 0.0 0.0004130168429719583 0.0 0.0
-0.0034383876677894385 0.00202389526490121 0.0 0.00030421725196760896 0.0 0.0
-0.002029487862353705 0.0009451890237360816 0.0 0.0003059122992618013 0.0 0.0
-0.001239226592689692 0.0005225314351275379 0.0 0.0003306361760470611 0.0 0.0
-0.0005314995332574525 0.0002344968245433232 0.0 0.0002833452739214315 0.0 0.0
-0.00010157732647118108 5.41086288892087e-05 0.0 3.5369774507298946e-05 0.0 0.0
SCALARS Statev float 8
LOOKUP_TABLE default
0.0 0.012735276836288407 0.009832936856320924 -0.010214710290363926 0.00038177343404299774 -0.005643042973098885 0.0 0.0
0.0 0.0006804473947527497 0.0004735896380663648 -0.0003982751831247655 -7.531445494159922e-05 0.00044953438516172263 0.0 0.0
0.0 3.342380937738801e-05 -4.754075056001044e-06 3.773145031477424e-06 9.809300245235895e-07 5.62033213615258e-07 0.0 0.0
0.0 0.00025084636521535106 0.00017148593581220266 -0.0001347776563371218 -3.6708279475080903e-05 -2.3942506641776708e-05 0.0 0.0
0.0 0.0013965988702443288 0.0011169292261893468 -0.0009209268878788166 -0.0001960023383105302 -0.00012141452683456257 0.0 0.0
0.0 0.003798451067842497 0.0034507932303285286 -0.00301375158828024 -0.0004370416420482889 -0.0002832214010158068 0.0 0.0
0.0 0.008255529683683841 0.007372825116654428 -0.006759207797912404 -0.000613617318742023 -0.0005236936836628851 0.0 0.0
0.0 0.014893221751748049 0.013153713166582044 -0.012418323934898999 -0.0007353892316830438 -0.0008816538312008827 0.0 0.0
0.0 0.02386892217268369 0.020934806729189556 -0.02009398076548162 -0.0008408259637079335 -0.0013849815225779071 0.0 0.0
0.0 0.035169290657424745 0.030706353354768033 -0.02975765322254895 -0.0009487001322190779 -0.0019979371310807803 0.0 0.0
0.0 0.04870553145351382 0.042371853589081326 -0.041311247279021926 -0.0010606063100593692 -0.0026431379490591254 0.0 0.0
0.0 0.0640633192980368 0.055820106560761897 -0.05464512481975166 -0.0011749817410101975 -0.0032846287981540337 0.0 0.0
0.0 0.08142083890921853 0.07093811635824296 -0.06964753597289683 -0.001290580385346086 -0.0039236703954884655 0.0 0.0
0.0 0.10061421242328814 0.08758620184295643 -0.08617727559105703 -0.0014089262518992992 -0.00455699410414534 0.0 0.0
0.0 0.12124669134380316 0.10547594222500888 -0.10394436128666805 -0.0015315809383407923 -0.005164889110413937 0.0 0.0
0.0 0.14268249504418984 0.1240266453988924 -0.12236901666408777 -0.0016576287348046305 -0.005633936154554197 0.0 0.0
0.0 0.16380621640641865 0.14230148219014527 -0.14051838998666852 -0.0017830922034767303 -0.005746450382852093 0.0 0.0
0.0 0.18314332477166995 0.159039947141277 -0.15713688267746112 -0.0019030644638158825 -0.005268719679548163 0.0 0.0
0.0 0.19895082418865864 0.1727289246051581 -0.17071418364298618 -0.002014740962171897 -0.00438862791559164 0.0 0.0
0.0 0.20856519509755056 0.18119365031361434 -0.1790202023169108 -0.0021734479967035992 -0.004733431250031624 0.0 0.0
0.0 0.20856519509753813 0.18119365031360332 -0.1790202023169002 -0.0021734479967031295 0.004733431250038191 0.0 0.0
0.0 0.19895082418861634 0.17272892460512113 -0.17071418364294966 -0.0020147409621713848 0.004388627915612186 0.0 0.0
0.0 0.18314332477159723 0.15903994714121425 -0.15713688267739823 -0.001903064463815996 0.005268719679559004 0.0 0.0
0.0 0.16380621640632514 0.14230148219006433 -0.14051838998658753 -0.0017830922034767292 0.005746450382858783 0.0 0.0
0.0 0.14268249504409267 0.124026645398808 -0.12236901666400418 -0.0016576287348038785 0.005633936154545258 0.0 0.0
0.0 0.12124669134370464 0.10547594222492312 -0.10394436128658323 -0.0015315809383398575 0.005164889110413464 0.0 0.0
0.0 0.10061421242318716 0.08758620184286875 -0.0861772755909701 -0.0014089262518986083 0.004556994104144416 0.0 0.0
0.0 0.08142083890911966 0.07093811635815704 -0.06964753597281184 -0.0012905803853452149 0.003923670395487595 0.0 0.0
0.0 0.06406331929794022 0.055820106560678165 -0.05464512481966846 -0.0011749817410096639 0.003284628798147553 0.0 0.0
0.0 0.048705531453426966 0.04237185358900568 -0.04131124727894687 -0.0010606063100588026 0.0026431379490547548 0.0 0.0
0.0 0.03516929065735627 0.03070635335470837 -0.029757653222490427 -0.0009487001322179473 0.0019979371310731805 0.0 0.0
0.0 0.02386892217263241 0.02093480672914432 -0.020093980765437225 -0.0008408259637071075 0.0013849815225755032 0.0 0.0
0.0 0.014893221751709311 0.013153713166547513 -0.012418323934865135 -0.0007353892316823737 0.0008816538311977806 0.0 0.0
0.0 0.00825552968365836 0.007372825116631428 -0.006759207797890098 -0.0006136173187413265 0.0005236936836614957 0.0 0.0
0.0 0.003798451067828809 0.0034507932303157428 -0.0030137515882683466 -0.00043704164204739625 0.00028322140101453197 0.0 0.0
0.0 0.0013965988702384284 0.0011169292261845607 -0.0009209268878747176 -0.00019600233830984265 0.00012141452683404953 0.0 0.0
0.0 0.00025084636521362637 0.00017148593581158046 -0.0001347776563366067 -3.670827947497375e-05 2.3942506641575168e-05 0.0 0.0
0.0 3.342380937687491e-05 -4.754075055922566e-06 3.7731450314146314e-06 9.80930024507978e-07 -5.620332136057866e-07 0.0 0.0
0.0 0.0006804473947503989 0.0004735896380650968 -0.0003982751831236995 -7.531445494139756e-05 -0.00044953438516018936 0.0 0.0
0.0 0.012735276836269828 0.009832936856308443 -0.010214710290350452 0.0003817734340420027 0.005643042973069872 0.0 0.0
0.0 0.009395060653945676 0.00679969498622632 -0.007290896396537772 0.0004912014103114466 -0.006483812357779969 0.0 0.0
0.0 3.4517850245257928e-06 1.6035959008386144e-06 -1.3729075022200853e-06 -2.3068839861853373e-07 1.042845101878305e-06 0.0 0.0
0.0 4.3119800637939587e-07 -4.6524355116270225e-08 3.617743073399609e-08 1.034692438227138e-08 1.9435062927024315e-08 0.0 0.0
0.0 8.916193152852486e-05 5.2798242130890924e-05 -4.128738867123744e-05 -1.1510853459653725e-05 -1.9471266344842303e-05 0.0 0.0
0.0 0.0009175878423565462 0.0006915734309754128 -0.0005626379478988945 -0.00012893548307651813 -0.00018484400981997798 0.0 0.0
0.0 0.0028941876332165507 0.0026325157559402576 -0.0022631990370067844 -0.0003693167189334736 -0.0005743795958994075 0.0 0.0
0.0 0.006829627808870335 0.006096977188612968 -0.005525853167422203 -0.0005711240211907627 -0.001188058901096658 0.0 0.0
0.0 0.01281290587547947 0.01130080871491249 -0.01059356288357897 -0.00070724583133352 -0.0020621025492012115 0.0 0.0
0.0 0.020929130319745755 0.018332329894700523 -0.017517443987295725 -0.0008148859074047885 -0.0032198843547016397 0.0 0.0
0.0 0.031111742100316985 0.027136672376056485 -0.026217878112104857 -0.0009187942639516266 -0.004575438744990411 0.0 0.0
0.0 0.043221736402460686 0.03759471769911933 -0.036571287866746585 -0.001023429832372743 -0.005979828095008378 0.0 0.0
0.0 0.057188712683449244 0.04960849229883634 -0.04848004293356794 -0.0011284493652684016 -0.00733966810626787 0.0 0.0
0.0 0.07265309200168295 0.06312203922038558 -0.061887275911719886 -0.001234763308665669 -0.008710137789341963 0.0 0.0
0.0 0.08979939233640302 0.07803586316065106 -0.07669236074291749 -0.0013435024177335406 -0.010111604373277825 0.0 0.0
0.0 0.10834267521073651 0.09410566904028653 -0.09265036900282045 -0.0014553000374660358 -0.01145575052592006 0.0 0.0
0.0 0.12763824903814383 0.11083889992365442 -0.1092693069188535 -0.0015695930048009368 -0.012513755047205446 0.0 0.0
0.0 0.1467587961660099 0.12742392072451494 -0.12573945424782848 -0.0016844664766864866 -0.012855079885252294 0.0 0.0
0.0 0.16438914232829754 0.14271307064154098 -0.14091484452903122 -0.0017982261125097344 -0.012094233675010349 0.0 0.0
0.0 0.17868181242230186 0.15512433902888145 -0.15320325370294305 -0.0019210853259383981 -0.0103684669955364 0.0 0.0
0.0 0.18724396354138667 0.16258632613559826 -0.1605715659894144 -0.0020147601461838987 -0.0074988271240813455 0.0 0.0
0.0 0.18724396354137451 0.16258632613558727 -0.1605715659894039 -0.002014760146183406 0.007498827124103255 0.0 0.0
0.0 0.17868181242226167 0.15512433902884576 -0.15320325370290802 -0.0019210853259378053 0.010368466995572822 0.0 0.0
0.0 0.16438914232823748 0.14271307064148786 -0.14091484452897932 -0.0017982261125085268 0.012094233675034722 0.0 0.0
0.0 0.14675879616593318 0.12742392072444783 -0.12573945424776245 -0.0016844664766852916 0.01285507988526403 0.0 0.0
0.0 0.12763824903805726 0.1108388999235794 -0.1092693069187792 -0.0015695930048001405 0.012513755047195823 0.0 0.0
0.0 0.10834267521064744 0.0941056690402091 -0.09265036900274394 -0.0014553000374651417 0.011455750525916238 0.0 0.0
0.0 0.08979939233631422 0.07803586316057384 -0.07669236074284114 -0.0013435024177326622 0.010111604373274467 0.0 0.0
0.0 0.0726530920015959 0.06312203922030962 -0.06188727591164524 -0.001234763308664355 0.008710137789338181 0.0 0.0
0.0 0.05718871268336448 0.04960849229876252 -0.04848004293349509 -0.001128449365267412 0.007339668106258217 0.0 0.0
0.0 0.04322173640238376 0.03759471769905271 -0.03657128786668022 -0.0010234298323724884 0.005979828094998539 0.0 0.0
0.0 0.031111742100253817 0.027136672376001765 -0.026217878112050237 -0.0009187942639515257 0.004575438744977373 0.0 0.0
0.0 0.02092913031969651 0.01833232989465713 -0.017517443987252714 -0.0008148859074044079 0.003219884354695529 0.0 0.0
0.0 0.01281290587544277 0.011300808714880154 -0.01059356288354715 -0.0007072458313330117 0.0020621025491948837 0.0 0.0
0.0 0.0068296278088474625 0.0060969771885923335 -0.005525853167402328 -0.0005711240211900022 0.0011880589010928575 0.0 0.0
0.0 0.0028941876332040897 0.0026325157559291667 -0.0022631990369966475 -0.0003693167189325193 0.0005743795958968712 0.0 0.0
0.0 0.000917587842351062 0.0006915734309713211 -0.0005626379478954454 -0.00012893548307587582 0.00018484400981889814 0.0 0.0
0.0 8.916193152760878e-05 5.2798242130697116e-05 -4.128738867107651e-05 -1.1510853459620452e-05 1.9471266344742834e-05 0.0 0.0
0.0 4.3119800644648236e-07 -4.652435504835824e-08 3.617743068279189e-08 1.034692436556444e-08 -1.9435062903978722e-08 0.0 0.0
0.0 3.4517850243849972e-06 1.6035959009007464e-06 -1.3729075022715614e-06 -2.3068839862918147e-07 -1.042845101928154e-06 0.0 0.0
0.0 0.00939506065392513 0.006799694986212768 -0.007290896396523507 0.0004912014103107354 0.006483812357755829 0.0 0.0
0.0 0.007085653634718474 0.004852812316082905 -0.005366896016978876 0.0005140837008959711 -0.005668644613405513 0.0 0.0
0.0 0.0 0.0 0.0 0.0 0.0 0.0 0.0
0.0 0.0 0.0 0.0 0.0 0.0 0.0 0.0
0.0 1.6227367986389423e-05 1.1678766807317737e-05 -9.110538460516429e-06 -2.5682283468013253e-06 -7.90274978969099e-06 0.0 0.0
0.0 0.0004933739680590809 0.00037472298008340524 -0.00030097578403803413 -7.374719604537083e-05 -0.00017875610774927873 0.0 0.0
0.0 0.0022301621624572234 0.001857584681191542 -0.0015705374906900525 -0.0002870471905014885 -0.0007016595568749323 0.0 0.0
0.0 0.005458005482815904 0.004848301804508496 -0.0043312439249747385 -0.0005170578795337577 -0.001606124941959048 0.0 0.0
0.0 0.010755955608449443 0.009444108724487723 -0.00877328471527787 -0.0006708240092098549 -0.0029064539984122863 0.0 0.0
0.0 0.018013206188884193 0.01569644633193297 -0.014912641940449433 -0.0007838043914835352 -0.0045839806042227895 0.0 0.0
0.0 0.027089714868277062 0.023515154600191275 -0.022630953097405055 -0.0008842015027862108 -0.006516278633364428 0.0 0.0
0.0 0.037847986868484944 0.03276314909140143 -0.03178152812999934 -0.000981620961402069 -0.008514633926807772 0.0 0.0
0.0 0.05009274078279531 0.04335132223644166 -0.042273276900183634 -0.001078045336258028 -0.010455881323526326 0.0 0.0
0.0 0.06395675562609893 0.055246766112575084 -0.05407179954767374 -0.001174966564901346 -0.01238507876056182 0.0 0.0
0.0 0.07905239729615786 0.06840423130758241 -0.06713052948404018 -0.0012737018235421862 -0.014375515988705609 0.0 0.0
0.0 0.09544393401226578 0.08263978860877674 -0.08126548879393036 -0.0013742998148463634 -0.01632133006215061 0.0 0.0
0.0 0.11265703227746361 0.09755551255301478 -0.09607877814452397 -0.0014767344084907754 -0.017872057994679946 0.0 0.0
0.0 0.12982170680079375 0.11247108817540977 -0.11088982984584447 -0.001581258329565236 -0.01849688429964285 0.0 0.0
0.0 0.14571139330850338 0.12633297882920502 -0.12464167898832464 -0.0016912998408803463 -0.017682748861755578 0.0 0.0
0.0 0.15860767441898865 0.1376292954139851 -0.135831115732922 -0.0017981796810631074 -0.014947430617948558 0.0 0.0
0.0 0.16653415057813278 0.1446399297102142 -0.14276507076872816 -0.0018748589414859817 -0.009480216157843483 0.0 0.0
0.0 0.16653415057812054 0.14463992971020304 -0.14276507076871692 -0.0018748589414859886 0.009480216157878396 0.0 0.0
0.0 0.1586076744189551 0.13762929541395447 -0.1358311157328917 -0.0017981796810627973 0.01494743061799846 0.0 0.0
0.0 0.1457113933084499 0.1263329788291574 -0.12464167898827712 -0.0016912998408802767 0.01768274886179068 0.0 0.0
0.0 0.12982170680072547 0.1124710881753498 -0.11088982984578488 -0.0015812583295649408 0.01849688429965922 0.0 0.0
0.0 0.11265703227738849 0.09755551255294967 -0.09607877814445957 -0.0014767344084900499 0.01787205799467154 0.0 0.0
0.0 0.09544393401218722 0.08263978860870844 -0.08126548879386275 -0.001374299814845658 0.016321330062144954 0.0 0.0
0.0 0.07905239729608152 0.06840423130751566 -0.06713052948397469 -0.0012737018235409693 0.01437551598870166 0.0 0.0
0.0 0.06395675562602363 0.055246766112509484 -0.054071799547608906 -0.0011749665649005768 0.012385078760556199 0.0 0.0
0.0 0.05009274078271976 0.0433513222363766 -0.04227327690011895 -0.0010780453362576549 0.01045588132351118 0.0 0.0
0.0 0.03784798686841631 0.0327631490913418 -0.03178152812994008 -0.0009816209614016888 0.008514633926794041 0.0 0.0
0.0 0.02708971486822366 0.023515154600144802 -0.022630953097359227 -0.000884201502785571 0.006516278633348069 0.0 0.0
0.0 0.018013206188841502 0.015696446331895646 -0.014912641940412714 -0.0007838043914829221 0.004583980604212504 0.0 0.0
0.0 0.010755955608416752 0.00944410872445901 -0.00877328471524979 -0.0006708240092092193 0.002906453998403108 0.0 0.0
0.0 0.00545800548279485 0.0048483018044897545 -0.004331243924956927 -0.0005170578795328292 0.0016061249419530902 0.0 0.0
0.0 0.002230162162445301 0.0018575846811815897 -0.0015705374906811878 -0.0002870471905004021 0.0007016595568710181 0.0 0.0
0.0 0.0004933739680554709 0.0003747229800808679 -0.0003009757840359463 -7.374719604492145e-05 0.00017875610774805898 0.0 0.0
0.0 1.6227367986040164e-05 1.1678766807544865e-05 -9.110538460683201e-06 -2.5682283468616874e-06 7.902749789774337e-06 0.0 0.0
0.0 0.0 0.0 0.0 0.0 0.0 0.0 0.0
0.0 0.0 0.0 0.0 0.0 0.0 0.0 0.0
0.0 0.007085653634700344 0.0048528123160704465 -0.00536689601696574 0.0005140837008952918 0.005668644613385372 0.0 0.0
0.0 0.005281540334856108 0.00346565724840042 -0.00394613993734561 0.00048048268894518894 -0.00445506291410352 0.0 0.0
0.0 0.0 0.0 0.0 0.0 0.0 0.0 0.0
0.0 0.0 0.0 0.0 0.0 0.0 0.0 0.0
0.0 2.717461732197656e-06 2.1421461705961776e-07 -1.6649512104178816e-07 -4.7719496017814074e-08 -2.2400185666146037e-07 0.0 0.0
0.0 0.00022504786942766417 0.00016438993182690213 -0.00013099054563204174 -3.3399386194860234e-05 -0.0001266603567223709 0.0 0.0
0.0 0.0015026667863321554 0.001203817253017736 -0.001000418674084466 -0.00020339857893327014 -0.0006923217827256218 0.0 0.0
0.0 0.004204998988841735 0.0036439506295760584 -0.0032001931622335274 -0.0004437574673425319 -0.0017821433465804906 0.0 0.0
0.0 0.008749043149794293 0.007607344931150987 -0.0069831749448642086 -0.0006241699862867777 -0.003407555194035216 0.0 0.0
0.0 0.015118436312703674 0.01305556587822451 -0.012310177504047797 -0.000745388374176714 -0.005469003300179481 0.0 0.0
0.0 0.023075930843486244 0.019873038885406858 -0.01902909515984787 -0.0008439437255589673 -0.007823021652993936 0.0 0.0
0.0 0.03245977489748416 0.027906669163663387 -0.026971731591538744 -0.00093493757212464 -0.010246197008060197 0.0 0.0
0.0 0.04314600390973282 0.03706839721283744 -0.03604519849603533 -0.0010231987168021167 -0.01261162188085219 0.0 0.0
0.0 0.05510103743701353 0.04734818204831723 -0.04623751172443216 -0.001110670323885069 -0.014975900233355304 0.0 0.0
0.0 0.06835573954829496 0.05873579555693699 -0.057536320758700514 -0.0011994747982364547 -0.017374531196113308 0.0 0.0
0.0 0.08273238014842746 0.07111529513691715 -0.06982652516697568 -0.00128876996994145 -0.019716151735854042 0.0 0.0
0.0 0.09766373651605527 0.08419560334103275 -0.08281653318600403 -0.0013790701550287032 -0.02167385342294675 0.0 0.0
0.0 0.11288090604910875 0.09742417582466217 -0.09595070119297638 -0.0014734746316857547 -0.02263785396810156 0.0 0.0
0.0 0.12711670979752623 0.10988819821233714 -0.1083153515401143 -0.001572846672222851 -0.02185739614788413 0.0 0.0
0.0 0.1388440393950286 0.12027067233772287 -0.11860256944947581 -0.0016681028882470864 -0.018379862381553515 0.0 0.0
0.0 0.14639553103495007 0.12708431666342337 -0.12534688677954242 -0.0017374298838809226 -0.011084364743676613 0.0 0.0
0.0 0.14639553103493766 0.1270843166634118 -0.12534688677953057 -0.0017374298838812477 0.011084364743720836 0.0 0.0
0.0 0.13884403939500017 0.12027067233769595 -0.11860256944944894 -0.0016681028882469529 0.01837986238161103 0.0 0.0
0.0 0.12711670979748158 0.1098881982122962 -0.10831535154007368 -0.0015728466722224586 0.02185739614792455 0.0 0.0
0.0 0.11288090604905028 0.09742417582461005 -0.09595070119292486 -0.0014734746316851773 0.022637853968119695 0.0 0.0
0.0 0.09766373651598911 0.0841956033409753 -0.08281653318594756 -0.0013790701550277203 0.021673853422937806 0.0 0.0
0.0 0.08273238014836322 0.07111529513686102 -0.06982652516692119 -0.0012887699699397931 0.019716151735845736 0.0 0.0
0.0 0.06835573954822999 0.05873579555688031 -0.05753632075864447 -0.0011994747982358243 0.01737453119610777 0.0 0.0
0.0 0.05510103743694632 0.04734818204825879 -0.04623751172437403 -0.0011106703238847498 0.01497590023334736 0.0 0.0
0.0 0.04314600390966904 0.03706839721278222 -0.03604519849598076 -0.0010231987168014673 0.012611621880835028 0.0 0.0
0.0 0.03245977489742752 0.027906669163614232 -0.026971731591490206 -0.0009349375721240257 0.010246197008043554 0.0 0.0
0.0 0.023075930843437672 0.019873038885365315 -0.019029095159806834 -0.0008439437255584734 0.007823021652973942 0.0 0.0
0.0 0.01511843631266532 0.013055565878191198 -0.012310177504015163 -0.0007453883741760283 0.005469003300166994 0.0 0.0
0.0 0.008749043149766291 0.007607344931126675 -0.006983174944840586 -0.0006241699862860844 0.003407555194024408 0.0 0.0
0.0 0.004204998988824348 0.003643950629561047 -0.0032001931622196193 -0.0004437574673414261 0.0017821433465738876 0.0 0.0
0.0 0.0015026667863230025 0.0012038172530108987 -0.0010004186740784865 -0.00020339857893241224 0.0006923217827213637 0.0 0.0
0.0 0.00022504786942507366 0.00016438993182554807 -0.00013099054563093718 -3.3399386194611016e-05 0.00012666035672136868 0.0 0.0
0.0 2.717461731765131e-06 2.1421461719999504e-07 -1.6649512114857323e-07 -4.771949605141141e-08 2.2400185679069605e-07 0.0 0.0
0.0 0.0 0.0 0.0 0.0 0.0 0.0 0.0
0.0 0.0 0.0 0.0 0.0 0.0 0.0 0.0
0.0 0.005281540334840106 0.0034656572483898218 -0.003946139937334266 0.00048048268894444334 0.0044550629140876034 0.0 0.0
0.0 0.003808975902880759 0.0024056774213088977 -0.0028188486120188914 0.0004131711907099947 -0.0032734045525787472 0.0 0.0
0.0 0.0 0.0 0.0 0.0 0.0 0.0 0.0
0.0 0.0 0.0 0.0 0.0 0.0 0.0 0.0
0.0 4.0989018591599377e-07 4.6581862963630634e-08 -3.506707912856381e-08 -1.151478383506697e-08 -6.491012979339897e-08 0.0 0.0
0.0 8.726769079180576e-05 5.641056079680608e-05 -4.4901168948612136e-05 -1.1509391848193973e-05 -6.764213925090811e-05 0.0 0.0
0.0 0.0008986674013444709 0.0006894835125409438 -0.0005641086124801036 -0.00012537490006084048 -0.000589976776384364 0.0 0.0
0.0 0.0031353191813984953 0.002529323243304789 -0.002177017541334133 -0.0003523057019706561 -0.0017245221152394935 0.0 0.0
0.0 0.00685782754715235 0.005809660897678403 -0.005248972821046681 -0.0005606880766317204 -0.0035246621103476867 0.0 0.0
0.0 0.012264735384149954 0.010438306124054808 -0.009741197576953013 -0.0006971085471017946 -0.0058665600251879245 0.0 0.0
0.0 0.019100840055080073 0.016240239267575673 -0.015443616767409534 -0.0007966225001661339 -0.008488749100763261 0.0 0.0
0.0 0.027122073774960898 0.023054786284101028 -0.022172292505850046 -0.0008824937782509923 -0.011181212830281756 0.0 0.0
0.0 0.036188661943067364 0.030791369811759915 -0.029828562287920222 -0.0009628075238396817 -0.013807211894834864 0.0 0.0
0.0 0.04637972616510461 0.03945415176969652 -0.03841285425048841 -0.0010412975192081247 -0.01642677635333329 0.0 0.0
0.0 0.05752670307114399 0.049071297953600025 -0.04795163770353636 -0.0011196602500636774 -0.01910118031077157 0.0 0.0
0.0 0.06977950340669284 0.05958296418365327 -0.058384869831212466 -0.0011980943524407721 -0.02169669244936316 0.0 0.0
0.0 0.08287121519509275 0.07078774117818697 -0.0695107038596938 -0.0012770373184931533 -0.023889054701739937 0.0 0.0
0.0 0.09595007884491032 0.08228352949455128 -0.08092511898219566 -0.001358410512355608 -0.025150233922258014 0.0 0.0
0.0 0.10849391557345417 0.09336685041049322 -0.09192185785912176 -0.0014449925513714409 -0.024571697381668457 0.0 0.0
0.0 0.11920828915880609 0.10295991273202235 -0.10142935711866638 -0.0015305556133559262 -0.020797021583109015 0.0 0.0
0.0 0.12657609013417678 0.10974196861343008 -0.10814445789626187 -0.001597510717168153 -0.012416698218858737 0.0 0.0
0.0 0.12657609013416674 0.10974196861342007 -0.10814445789625184 -0.0015975107171681555 0.012416698218905379 0.0 0.0
0.0 0.11920828915878157 0.10295991273199764 -0.10142935711864234 -0.0015305556133553256 0.020797021583169137 0.0 0.0
0.0 0.10849391557341764 0.09336685041045827 -0.09192185785908745 -0.0014449925513708166 0.024571697381712727 0.0 0.0
0.0 0.09595007884486295 0.08228352949450822 -0.08092511898215322 -0.0013584105123549957 0.025150233922277793 0.0 0.0
0.0 0.08287121519503746 0.07078774117813899 -0.06951070385964617 -0.0012770373184928718 0.023889054701732845 0.0 0.0
0.0 0.0697795034066312 0.059582964183600186 -0.058384869831159154 -0.0011980943524410451 0.02169669244935257 0.0 0.0
0.0 0.057526703071083006 0.04907129795354713 -0.04795163770348372 -0.0011196602500633966 0.019101180310763088 0.0 0.0
0.0 0.0463797261650496 0.039454151769648296 -0.03841285425044084 -0.0010412975192074436 0.016426776353324842 0.0 0.0
0.0 0.03618866194301642 0.030791369811715822 -0.029828562287877124 -0.000962807523838672 0.013807211894818313 0.0 0.0
0.0 0.027122073774913616 0.02305478628406042 -0.022172292505810383 -0.0008824937782500387 0.011181212830262646 0.0 0.0
0.0 0.019100840055036476 0.016240239267539397 -0.01544361676737378 -0.0007966225001656188 0.008488749100739695 0.0 0.0
0.0 0.012264735384117306 0.010438306124026958 -0.009741197576925617 -0.0006971085471013394 0.005866560025173795 0.0 0.0
0.0 0.006857827547129185 0.0058096608976589935 -0.005248972821028103 -0.0005606880766308891 0.0035246621103361964 0.0 0.0
0.0 0.0031353191813848513 0.002529323243293749 -0.0021770175413240982 -0.0003523057019696512 0.0017245221152328983 0.0 0.0
0.0 0.0008986674013384474 0.000689483512536735 -0.0005641086124765595 -0.0001253749000601754 0.0005899767763807038 0.0 0.0
0.0 8.726769079087892e-05 5.641056079675976e-05 -4.490116894855172e-05 -1.1509391848207974e-05 6.764213925071719e-05 0.0 0.0
0.0 4.0989018576725336e-07 4.658186310196688e-08 -3.506707923457545e-08 -1.1514783867389526e-08 6.491013000125625e-08 0.0 0.0
0.0 0.0 0.0 0.0 0.0 0.0 0.0 0.0
0.0 0.0 0.0 0.0 0.0 0.0 0.0 0.0
0.0 0.003808975902867708 0.0024056774213004886 -0.0028188486120097065 0.0004131711907092157 0.003273404552566557 0.0 0.0
0.0 0.002585529647983415 0.0015825143716813447 -0.0019085196952430997 0.00032600532356175425 -0.0022602566062275794 0.0 0.0
0.0 0.0 0.0 0.0 0.0 0.0 0.0 0.0
0.0 0.0 0.0 0.0 0.0 0.0 0.0 0.0
0.0 1.2459832782016668e-06 -8.711175530045244e-08 6.722946238267231e-08 1.9882292917777628e-08 2.0432140011233723e-07 0.0 0.0
0.0 3.6858693218100204e-05 1.6707861317154065e-05 -1.3264426033040196e-05 -3.4434352841138705e-06 -2.941645176576428e-05 0.0 0.0
0.0 0.0004568290990611734 0.00033532691004141635 -0.00027127221883834336 -6.405469120307281e-05 -0.0004314802405114965 0.0 0.0
0.0 0.00203822417129381 0.0015842978037636734 -0.0013346801857819055 -0.0002496176179817679 -0.0015276600300529342 0.0 0.0
0.0 0.005074254053818524 0.004106047908276829 -0.003635008339544896 -0.00047103956873193256 -0.0033188507702598268 0.0 0.0
0.0 0.009521304591664241 0.007871056415714815 -0.007238250882001459 -0.0006328055337133584 -0.005740957198361006 0.0 0.0
0.0 0.015181974623384564 0.012648984206154758 -0.011909654633690961 -0.0007393295724637985 -0.008499922892558081 0.0 0.0
0.0 0.021814160989375355 0.018239695610026613 -0.017417778896157796 -0.0008219167138688116 -0.011300535439119852 0.0 0.0
0.0 0.029293533325503763 0.024553371571896566 -0.023657776807550313 -0.0008955947643462611 -0.014030331214666453 0.0 0.0
0.0 0.0376191203301464 0.031604133572975215 -0.030638807778667603 -0.0009653257943076087 -0.016750733832233435 0.0 0.0
0.0 0.04685833793475258 0.039446363364620374 -0.03841298685543672 -0.0010333765091836544 -0.019507209936580536 0.0 0.0
0.0 0.05702921555638899 0.04807965957147993 -0.04697828738120897 -0.0011013721902709828 -0.022202611168442805 0.0 0.0
0.0 0.06770683919876344 0.057380686805688044 -0.05621182297059768 -0.0011688638350903847 -0.02453341190710995 0.0 0.0
0.0 0.07897600001602716 0.06707846160447947 -0.06584229100020147 -0.0012361706042779692 -0.025986626969991076 0.0 0.0
0.0 0.08996128147068758 0.0767365430581091 -0.0754291993076787 -0.0013073437504304045 -0.02571653477380663 0.0 0.0
0.0 0.09956090392895217 0.08558505945397168 -0.08420197833879925 -0.0013830811151723872 -0.022165883299223154 0.0 0.0
0.0 0.10687294953778831 0.09245252584739365 -0.09100149058688715 -0.0014510352605064485 -0.013499391343013065 0.0 0.0
0.0 0.10687294953777829 0.09245252584738353 -0.0910014905868766 -0.0014510352605069203 0.01349939134305946 0.0 0.0
0.0 0.0995609039289296 0.08558505945394831 -0.08420197833877549 -0.0013830811151728812 0.022165883299282894 0.0 0.0
0.0 0.08996128147065942 0.0767365430580808 -0.07542919930765052 -0.0013073437504302933 0.02571653477385065 0.0 0.0
0.0 0.0789760000159878 0.06707846160444324 -0.06584229100016549 -0.0012361706042777298 0.02598662697000899 0.0 0.0
0.0 0.06770683919871687 0.05738068680564781 -0.056211822970557795 -0.0011688638350899928 0.024533411907101912 0.0 0.0
0.0 0.057029215556341856 0.048079659571439094 -0.04697828738116876 -0.0011013721902703249 0.02220261116843264 0.0 0.0
0.0 0.04685833793470788 0.03944636336458131 -0.03841298685539842 -0.001033376509182883 0.019507209936571193 0.0 0.0
0.0 0.037619120330100876 0.031604133572935615 -0.030638807778628672 -0.0009653257943069477 0.01675073383222363 0.0 0.0
0.0 0.029293533325457997 0.024553371571857805 -0.023657776807512035 -0.0008955947643457704 0.014030331214648601 0.0 0.0
0.0 0.021814160989334114 0.01823969560999192 -0.017417778896123788 -0.0008219167138681384 0.011300535439100111 0.0 0.0
0.0 0.01518197462335033 0.01264898420612669 -0.011909654633663763 -0.0007393295724629254 0.00849992289253495 0.0 0.0
0.0 0.009521304591637367 0.00787105641569225 -0.007238250881979722 -0.000632805533712526 0.005740957198346019 0.0 0.0
0.0 0.005074254053798893 0.00410604790826087 -0.003635008339529954 -0.00047103956873091515 0.0033188507702478854 0.0 0.0
0.0 0.002038224171283376 0.0015842978037556462 -0.001334680185774864 -0.00024961761798078167 0.0015276600300462159 0.0 0.0
0.0 0.0004568290990565839 0.0003353269100386082 -0.00027127221883603206 -6.405469120257613e-05 0.0004314802405080166 0.0 0.0
0.0 3.685869321712172e-05 1.6707861317131778e-05 -1.3264426033007379e-05 -3.4434352841243843e-06 2.9416451765614526e-05 0.0 0.0
0.0 1.245983277765114e-06 -8.711175526903953e-08 6.722946235833695e-08 1.9882292910690027e-08 -2.0432140003799813e-07 0.0 0.0
0.0 0.0 0.0 0.0 0.0 0.0 0.0 0.0
0.0 0.0 0.0 0.0 0.0 0.0 0.0 0.0
0.0 0.0025855296479731157 0.001582514371674987 -0.0019085196952359305 0.0003260053235609446 0.0022602566062183676 0.0 0.0
0.0 0.0016299266719940306 0.0009490914327449365 -0.001178115556821029 0.00022902412407609194 -0.0014302167090286732 0.0 0.0
0.0 4.3237046965141747e-07 -5.414833726629138e-09 5.131917599336839e-09 2.829161272924473e-10 8.656951798426124e-08 0.0 0.0
0.0 0.0 0.0 0.0 0.0 0.0 0.0 0.0
0.0 1.343535810957597e-06 -6.745450613659108e-08 5.1836617700734505e-08 1.5617888435866596e-08 2.5068220686766373e-07 0.0 0.0
0.0 1.9341453759764907e-05 8.255050956796708e-06 -6.5223213907937665e-06 -1.7327295660029441e-06 -2.146627748716904e-05 0.0 0.0
0.0 0.00023388192325202533 0.0001282437976365623 -0.00010313431752087311 -2.510948011568926e-05 -0.0002510796695801471 0.0 0.0
0.0 0.0011810819471395205 0.0008341799464152002 -0.0006882532998312501 -0.00014592664658395004 -0.0011782070297559014 0.0 0.0
0.0 0.0033916339947062746 0.002577725565750338 -0.002224411975285665 -0.0003533135904646724 -0.0028497157860852707 0.0 0.0
0.0 0.0068730949348833085 0.00541333020297249 -0.004874147435091859 -0.0005391827678806297 -0.005130182247257651 0.0 0.0
0.0 0.011344243638580867 0.009134681150277983 -0.008470424022477423 -0.0006642571278005593 -0.007815956904215137 0.0 0.0
0.0 0.01658232354245759 0.01349618760049032 -0.012747567899750876 -0.0007486197007394439 -0.010588048187283998 0.0 0.0
0.0 0.02245500079000894 0.018392606303827868 -0.017574512967183695 -0.0008180933366441729 -0.01326619257884588 0.0 0.0
0.0 0.028986770467691783 0.02383889146061058 -0.02295888749625552 -0.0008800039643550399 -0.015913717504322585 0.0 0.0
0.0 0.03619236737865515 0.02991029523843366 -0.02897210275233284 -0.0009381924861008117 -0.018596740515905846 0.0 0.0
0.0 0.0441852122495881 0.03665273436030587 -0.03565792655666505 -0.00099480780364082 -0.021228143191863637 0.0 0.0
0.0 0.0528263705793837 0.044019097112710556 -0.042966424666234154 -0.0010526724464764209 -0.02352400759262546 0.0 0.0
0.0 0.061832678472459976 0.05185479951090205 -0.05074857684211612 -0.0011062226687859307 -0.025080977192973954 0.0 0.0
0.0 0.07103233541285071 0.05998269355268564 -0.05882419234456206 -0.0011585012081235893 -0.025225059858687955 0.0 0.0
0.0 0.07992369049201797 0.06802603000388664 -0.06680471041231323 -0.0012213195915733827 -0.022397251112348283 0.0 0.0
0.0 0.08733100168045997 0.07504574121032834 -0.07375279578471884 -0.001292945425609512 -0.014305916772416575 0.0 0.0
0.0 0.08733100168045399 0.07504574121032116 -0.0737527957847118 -0.001292945425609366 0.014305916772459912 0.0 0.0
0.0 0.07992369049200519 0.06802603000387052 -0.06680471041229753 -0.001221319591573019 0.022397251112408083 0.0 0.0
0.0 0.0710323354128283 0.05998269355266126 -0.058824192344537986 -0.0011585012081232339 0.025225059858732617 0.0 0.0
0.0 0.0618326784724291 0.051854799510872504 -0.05074857684208713 -0.0011062226687853847 0.025080977192990545 0.0 0.0
0.0 0.05282637057934604 0.044019097112678034 -0.04296642466620234 -0.0010526724464756843 0.023524007592615873 0.0 0.0
0.0 0.04418521224954927 0.03665273436027262 -0.03565792655663235 -0.0009948078036402562 0.021228143191851533 0.0 0.0
0.0 0.03619236737861588 0.029910295238399956 -0.028972102752299184 -0.0009381924861007792 0.01859674051589541 0.0 0.0
0.0 0.028986770467655926 0.023838891460579926 -0.02295888749622489 -0.0008800039643550398 0.01591371750431184 0.0 0.0
0.0 0.022455000789974987 0.018392606303799547 -0.017574512967155752 -0.0008180933366437977 0.013266192578829206 0.0 0.0
0.0 0.01658232354242573 0.013496187600464414 -0.012747567899725488 -0.0007486197007389162 0.010588048187264266 0.0 0.0
0.0 0.011344243638553594 0.009134681150256868 -0.008470424022456841 -0.0006642571278000259 0.00781595690419334 0.0 0.0
0.0 0.006873094934861186 0.005413330202955138 -0.00487414743507513 -0.0005391827678800072 0.005130182247243065 0.0 0.0
0.0 0.0033916339946923005 0.0025777255657396356 -0.002224411975275955 -0.00035331359046367953 0.002849715786075329 0.0 0.0
0.0 0.0011810819471320176 0.00083417994640993 -0.0006882532998267555 -0.00014592664658317364 0.001178207029749653 0.0 0.0
0.0 0.00023388192324928287 0.00012824379763542066 -0.00010313431751992879 -2.510948011549168e-05 0.0002510796695778889 0.0 0.0
0.0 1.9341453759227695e-05 8.255050956866954e-06 -6.522321390848376e-06 -1.7327295660185816e-06 2.1466277487372138e-05 0.0 0.0
0.0 1.343535810551308e-06 -6.74545061154224e-08 5.1836617684484416e-08 1.561788843093987e-08 -2.5068220678900275e-07 0.0 0.0
0.0 0.0 0.0 0.0 0.0 0.0 0.0 0.0
0.0 4.3237046913438544e-07 -5.414833720036132e-09 5.131917593071955e-09 2.82916126964362e-10 -8.656951787897293e-08 0.0 0.0
0.0 0.001629926671985703 0.0009490914327402223 -0.0011781155568155585 0.0002290241240753354 0.0014302167090214926 0.0 0.0
0.0 0.000900371861020122 0.0004861541848261764 -0.0006234645947952339 0.0001373104099690572 -0.0007782164817283755 0.0 0.0
0.0 8.210417639304128e-07 -3.4125116978720923e-09 6.954832552331815e-09 -3.5423208544610616e-09 1.3727889593280243e-08 0.0 0.0
0.0 6.305102464673167e-07 -7.0898921551877894e-09 5.074535917472657e-09 2.0153562377156586e-09 1.2874703632778445e-07 0.0 0.0
0.0 9.286742601838068e-07 -1.6251374838081276e-08 1.0787965588805412e-08 5.463409249278074e-09 7.40298661336937e-08 0.0 0.0
0.0 1.5957928676657882e-05 4.9098053714570176e-06 -3.865523235846559e-06 -1.0442821356104708e-06 -1.9971704587275313e-05 0.0 0.0
0.0 0.00012829325502578673 5.116985332554146e-05 -4.091644200341166e-05 -1.0253411322129783e-05 -0.00015983610791867696 0.0 0.0
0.0 0.0006023214254496849 0.0003356270287643438 -0.00027233579197241686 -6.329123679192685e-05 -0.0007604092291172781 0.0 0.0
0.0 0.0019504075444324149 0.0013028311879979056 -0.0010907159610277154 -0.00021211522697019028 -0.002135413818571501 0.0 0.0
0.0 0.00439523574097991 0.0031590822461636287 -0.002758824419108274 -0.0004002578270553508 -0.0041119829740204955 0.0 0.0
0.0 0.0075771921528376696 0.005767377863662739 -0.00521664021494273 -0.0005507376487200075 -0.006477568414738266 0.0 0.0
0.0 0.011499496362704573 0.008874791756281043 -0.008225372636701497 -0.0006494191195795478 -0.008990943189970289 0.0 0.0
0.0 0.015734649135315262 0.012357676386862556 -0.01163730937195785 -0.0007203670149047007 -0.011460498808097555 0.0 0.0
0.0 0.020432958397267463 0.016213475701951453 -0.015435454760573099 -0.0007780209413783535 -0.013894078480176845 0.0 0.0
0.0 0.025675470650210964 0.020519442264030886 -0.019691685557274366 -0.0008277567067565195 -0.01632891538628623 0.0 0.0
0.0 0.03156876967457334 0.02536056517778346 -0.024486828541429476 -0.0008737366363539795 -0.01873351420279666 0.0 0.0
0.0 0.03798722769663494 0.0307676935736118 -0.02984744834272328 -0.0009202452308885046 -0.020879578863197672 0.0 0.0
0.0 0.04491727983581536 0.03668392166960692 -0.0357183053218692 -0.0009656163477377277 -0.02236325281604463 0.0 0.0
0.0 0.05215222096802302 0.04311988975260089 -0.04212177016345815 -0.000998119589142737 -0.022853438048277903 0.0 0.0
0.0 0.05978651253831865 0.05016838632007029 -0.0491310844538939 -0.0010373018661763663 -0.021242063834404676 0.0 0.0
0.0 0.06719701720409865 0.05733369070859685 -0.056221207324824704 -0.0011124833837721571 -0.014755418941751332 0.0 0.0
0.0 0.06719701720409567 0.05733369070859208 -0.05622120732481965 -0.0011124833837724201 0.01475541894178827 0.0 0.0
0.0 0.05978651253830952 0.05016838632005695 -0.04913108445388024 -0.0010373018661767154 0.021242063834459275 0.0 0.0
0.0 0.052152220968007396 0.0431198897525822 -0.042121770163439466 -0.0009981195891427162 0.022853438048316806 0.0 0.0
0.0 0.044917279835789234 0.036683921669582065 -0.03571830532184458 -0.0009656163477374984 0.022363252816056674 0.0 0.0
0.0 0.0379872276966049 0.0307676935735869 -0.029847448342698906 -0.0009202452308879842 0.02087957886318447 0.0 0.0
0.0 0.03156876967454616 0.025360565177760617 -0.024486828541407202 -0.0008737366363534275 0.018733514202786097 0.0 0.0
0.0 0.025675470650185203 0.020519442264009473 -0.019691685557253105 -0.0008277567067563829 0.016328915386276587 0.0 0.0
0.0 0.020432958397245043 0.01621347570193223 -0.01543545476055431 -0.0007780209413779216 0.013894078480169835 0.0 0.0
0.0 0.01573464913529094 0.01235767638684286 -0.01163730937193857 -0.0007203670149042912 0.011460498808083535 0.0 0.0
0.0 0.011499496362680165 0.008874791756261984 -0.008225372636682968 -0.0006494191195790096 0.008990943189952631 0.0 0.0
0.0 0.0075771921528150175 0.005767377863646278 -0.005216640214927013 -0.0005507376487192646 0.0064775684147179 0.0 0.0
0.0 0.004395235740965352 0.003159082246152892 -0.0027588244190982995 -0.00040025782705459294 0.00411198297400859 0.0 0.0
0.0 0.0019504075444233002 0.0013028311879914544 -0.0010907159610221188 -0.00021211522696933512 0.0021354138185630625 0.0 0.0
0.0 0.0006023214254450075 0.0003356270287618551 -0.0002723357919703546 -6.32912367915005e-05 0.000760409229112509 0.0 0.0
0.0 0.0001282932550243889 5.116985332538641e-05 -4.091644200327365e-05 -1.0253411322112756e-05 0.00015983610791799773 0.0 0.0
0.0 1.5957928676317768e-05 4.909805371539973e-06 -3.865523235912209e-06 -1.0442821356277556e-06 1.9971704587647815e-05 0.0 0.0
0.0 9.28674259922873e-07 -1.6251374759813188e-08 1.0787965527468145e-08 5.463409232342038e-09 -7.402986557366972e-08 0.0 0.0
0.0 6.305102458760242e-07 -7.089892147158693e-09 5.074535912009278e-09 2.015356235150372e-09 -1.2874703620679312e-07 0.0 0.0
0.0 8.210417634168398e-07 -3.412511655360632e-09 6.954832502881454e-09 -3.5423208475208802e-09 -1.3727888556311232e-08 0.0 0.0
0.0 0.0009003718610141889 0.0004861541848232801 -0.0006234645947917298 0.00013731040996844949 0.0007782164817237043 0.0 0.0
0.0 0.00036310549318379433 0.00019337621128688722 -0.0002591719264336416 6.579571514675441e-05 -0.00033067661792080276 0.0 0.0
0.0 2.1298229790330694e-06 -5.045527206255506e-09 1.2420514185614406e-08 -7.374986979358678e-09 3.362457055496259e-07 0.0 0.0
0.0 8.129603515550081e-07 -9.729788138728575e-10 -5.062304710215263e-10 1.479209284894036e-09 1.6676851108718092e-07 0.0 0.0
0.0 1.3942118126280809e-06 -1.7202479833820512e-08 1.1633862331670308e-08 5.568617502153395e-09 2.882879494068393e-07 0.0 0.0
0.0 1.6970352518359896e-05 2.991755646797285e-06 -2.306677582933711e-06 -6.850780638635786e-07 -2.2763223152782913e-05 0.0 0.0
0.0 0.00010218114448051927 2.3953576905137806e-05 -1.9155361971192513e-05 -4.7982149339452955e-06 -0.0001362587301020984 0.0 0.0
0.0 0.00032241947509120043 0.00010672202805170732 -8.591887959281492e-05 -2.080314845889231e-05 -0.00046339472290656 0.0 0.0
0.0 0.000901028048104802 0.00042358905050693266 -0.0003444386185191327 -7.915043198779974e-05 -0.0012963909129300158 0.0 0.0
0.0 0.002209587556581934 0.0012676556966467465 -0.0010601554345428187 -0.00020750026210392827 -0.002739883908431135 0.0 0.0
0.0 0.004147757368513865 0.0026839864180494563 -0.0023251239637115144 -0.00035886245433794036 -0.004563663459950132 0.0 0.0
0.0 0.006518662018180731 0.004494932073349362 -0.004013272703839199 -0.00048165936951016135 -0.0065700504566784425 0.0 0.0
0.0 0.009257513494073905 0.006542903301836721 -0.005975931510171507 -0.0005669717916652121 -0.008618480370172717 0.0 0.0
0.0 0.012230419403747122 0.008817619956195477 -0.008186371574378924 -0.0006312483818165491 -0.010699709044885524 0.0 0.0
0.0 0.015543216932981194 0.011374463037388422 -0.010694364446628685 -0.0006800985907597275 -0.012771998586325443 0.0 0.0
0.0 0.01927689162780175 0.01430574239577505 -0.01358696561861665 -0.0007187767771583949 -0.01482232987317114 0.0 0.0
0.0 0.02350219051258243 0.017718666590032055 -0.016964812295805713 -0.0007538542942263529 -0.016736996032600426 0.0 0.0
0.0 0.0282529413923453 0.021681611332140936 -0.020889462970538546 -0.0007921483616024012 -0.01816081396620068 0.0 0.0
0.0 0.033529827132819566 0.026292473060559606 -0.025470112011537305 -0.0008223610490223116 -0.018743007046157605 0.0 0.0
0.0 0.03979818447563535 0.03196026455701261 -0.031138646225083885 -0.0008216183319287372 -0.018324498323499944 0.0 0.0
0.0 0.04706127964224003 0.03906673097686366 -0.038179534195322704 -0.0008871967815409787 -0.014583887482003831 0.0 0.0
0.0 0.0470612796422392 0.03906673097686029 -0.03817953419531909 -0.0008871967815412201 0.014583887482035544 0.0 0.0
0.0 0.03979818447563495 0.031960264557006283 -0.031138646225077872 -0.0008216183319283935 0.018324498323547506 0.0 0.0
0.0 0.033529827132812884 0.02629247306054834 -0.025470112011526647 -0.0008223610490216837 0.018743007046191078 0.0 0.0
0.0 0.028252941392332503 0.021681611332128314 -0.020889462970526223 -0.0007921483616020816 0.018160813966207737 0.0 0.0
0.0 0.023502190512562415 0.017718666590017182 -0.01696481229579077 -0.0007538542942264185 0.016736996032587506 0.0 0.0
0.0 0.0192768916277829 0.01430574239576081 -0.013586965618602499 -0.0007187767771583082 0.014822329873159085 0.0 0.0
0.0 0.01554321693296513 0.011374463037375323 -0.010694364446616278 -0.0006800985907590483 0.012771998586318695 0.0 0.0
0.0 0.012230419403734708 0.008817619956185279 -0.008186371574369158 -0.0006312483818161224 0.010699709044880192 0.0 0.0
0.0 0.009257513494058527 0.006542903301825701 -0.0059759315101608965 -0.000566971791664806 0.008618480370160383 0.0 0.0
0.0 0.006518662018167915 0.004494932073341025 -0.0040132727038312685 -0.00048165936950975553 0.006570050456665425 0.0 0.0
0.0 0.004147757368501223 0.002683986418041569 -0.002325123963704349 -0.0003588624543372186 0.00456366345993677 0.0 0.0
0.0 0.002209587556574936 0.0012676556966423258 -0.0010601554345389308 -0.00020750026210339514 0.0027398839084235914 0.0 0.0
0.0 0.0009010280481010041 0.0004235890505050567 -0.0003444386185175867 -7.915043198746986e-05 0.0012963909129256306 0.0 0.0
0.0 0.00032241947508921575 0.0001067220280512278 -8.591887959241365e-05 -2.0803148458814084e-05 0.0004633947229045526 0.0 0.0
0.0 0.00010218114447876516 2.395357690498464e-05 -1.915536197107495e-05 -4.798214933909681e-06 0.0001362587301011591 0.0 0.0
0.0 1.6970352518018982e-05 2.991755646849018e-06 -2.30667758297285e-06 -6.850780638761689e-07 2.2763223153186947e-05 0.0 0.0
0.0 1.3942118121365584e-06 -1.7202479827439693e-08 1.1633862327329383e-08 5.568617500112952e-09 -2.8828794930130727e-07 0.0 0.0
0.0 8.12960351106587e-07 -9.729788137991681e-10 -5.062304704954294e-10 1.479209284295063e-09 -1.667685109932312e-07 0.0 0.0
0.0 2.129822978495305e-06 -5.04552720033542e-09 1.242051417225217e-08 -7.3749869719170675e-09 -3.3624570511227215e-07 0.0 0.0
0.0 0.00036310549318050063 0.0001933762112855794 -0.00025917192643195463 6.579571514637497e-05 0.0003306766179187239 0.0 0.0
0.0 9.159749536065584e-05 4.547604683681893e-05 -6.396239896622666e-05 1.84863521294077e-05 -8.213899467575713e-05 0.0 0.0
0.0 2.3415245474562604e-06 6.479275173958679e-10 1.3081736236432314e-08 -1.3729663753826929e-08 4.862343762289808e-07 0.0 0.0
0.0 1.4326653519739672e-06 -3.259861216600687e-08 2.9609622074998633e-08 2.9889900910081733e-09 -8.74892579238654e-07 0.0 0.0
0.0 3.186838828461983e-06 -4.8499772149930236e-08 5.942592382273247e-08 -1.0926151672801648e-08 -3.51222871142628e-06 0.0 0.0
0.0 2.0792919753138272e-05 6.694928320977093e-07 -4.4668041271005733e-07 -2.2281241938765848e-07 -2.5283917284323675e-05 0.0 0.0
0.0 9.797318894778548e-05 7.372907557689329e-06 -5.798425123883272e-06 -1.5744824338060427e-06 -0.00014239384789802319 0.0 0.0
0.0 0.0002550325603714235 2.8429355200593912e-05 -2.286723205275168e-05 -5.562123147842249e-06 -0.00040493105827082017 0.0 0.0
0.0 0.0005362526855619724 7.579945977335995e-05 -6.134023019720039e-05 -1.4459229576159461e-05 -0.0008221296123779437 0.0 0.0
0.0 0.000953039767934057 0.00018999498323094216 -0.00015428853943602518 -3.5706443794916946e-05 -0.0015393773289091254 0.0 0.0
0.0 0.0016902878990272194 0.0004354223362754099 -0.0003533454065066463 -8.207692976876363e-05 -0.0025974261105231778 0.0 0.0
0.0 0.0025845539981583553 0.000850753725253331 -0.0006915051729547656 -0.00015924855229856516 -0.003967079463753375 0.0 0.0
0.0 0.003761390383171639 0.0013828521179785204 -0.0011412849788726854 -0.00024156713910583483 -0.005498715221834176 0.0 0.0
0.0 0.005153080059747133 0.002046171202926224 -0.001730479650434078 -0.0003156915524921445 -0.0071944071413141625 0.0 0.0
0.0 0.006780317282928531 0.0028423536554153207 -0.0024659910845497455 -0.00037636257086557604 -0.00902792834358914 0.0 0.0
0.0 0.008644443516912384 0.0038445808984541195 -0.00342052361079587 -0.0004240572876582473 -0.010985315525283272 0.0 0.0
0.0 0.010868883390027678 0.0052068103253484835 -0.004744184355021219 -0.00046262597032726107 -0.012941192855388653 0.0 0.0
0.0 0.013490626704125564 0.007163882484735383 -0.006663119354526388 -0.0005007631302089907 -0.014533503801030872 0.0 0.0
0.0 0.016585278149268332 0.009931378269566124 -0.009382183922179089 -0.0005491943473870327 -0.015166821401707024 0.0 0.0
0.0 0.020715002029282233 0.013841146576512304 -0.01327842428739443 -0.0005627222891178745 -0.014852308658978903 0.0 0.0
0.0 0.02708133929923586 0.02010034868477904 -0.0195628613307743 -0.0005374873540047419 -0.013808196819265617 0.0 0.0
0.0 0.02708133929923979 0.020100348684779758 -0.01956286133077506 -0.0005374873540046896 0.01380819681929005 0.0 0.0
0.0 0.020715002029286056 0.01384114657651028 -0.013278424287392322 -0.0005627222891179587 0.014852308659013724 0.0 0.0
0.0 0.016585278149264512 0.009931378269559418 -0.009382183922172296 -0.0005491943473871169 0.015166821401726639 0.0 0.0
0.0 0.013490626704117074 0.007163882484729716 -0.006663119354520699 -0.000500763130209015 0.014533503801028223 0.0 0.0
0.0 0.010868883390017486 0.005206810325343886 -0.0047441843550168495 -0.0004626259703270352 0.012941192855376723 0.0 0.0
0.0 0.008644443516903907 0.0038445808984508647 -0.0034205236107927132 -0.00042405728765815065 0.010985315525271953 0.0 0.0
0.0 0.006780317282919379 0.0028423536554107705 -0.0024659910845450527 -0.00037636257086571867 0.009027928343580707 0.0 0.0
0.0 0.005153080059739986 0.002046171202923301 -0.0017304796504313811 -0.0003156915524919197 0.007194407141306095 0.0 0.0
0.0 0.0037613903831626013 0.0013828521179753794 -0.0011412849788699107 -0.00024156713910546845 0.005498715221822303 0.0 0.0
0.0 0.0025845539981506475 0.0008507537252510991 -0.0006915051729528889 -0.00015924855229820981 0.00396707946374213 0.0 0.0
0.0 0.0016902878990212537 0.0004354223362741952 -0.00035334540650563376 -8.207692976856163e-05 0.002597426110514399 0.0 0.0
0.0 0.0009530397679313109 0.00018999498323032346 -0.00015428853943556028 -3.57064437947631e-05 0.0015393773289047502 0.0 0.0
0.0 0.0005362526855599495 7.579945977301309e-05 -6.134023019692378e-05 -1.4459229576089252e-05 0.0008221296123745992 0.0 0.0
0.0 0.0002550325603691433 2.842935520043157e-05 -2.286723205260214e-05 -5.562123147829402e-06 0.0004049310582685205 0.0 0.0
0.0 9.797318894611581e-05 7.372907557645238e-06 -5.798425123845047e-06 -1.5744824338001906e-06 0.00014239384789693012 0.0 0.0
0.0 2.0792919752765533e-05 6.694928321058234e-07 -4.466804127152936e-07 -2.2281241939053315e-07 2.5283917284655305e-05 0.0 0.0
0.0 3.1868388283174844e-06 -4.849977216262519e-08 5.942592383749074e-08 -1.0926151674865627e-08 3.512228712183683e-06 0.0 0.0
0.0 1.4326653518932276e-06 -3.259861219579846e-08 2.9609622102459703e-08 2.9889900933385363e-09 8.748925799676923e-07 0.0 0.0
0.0 2.3415245469807344e-06 6.479275173144274e-10 1.3081736227575667e-08 -1.372966374488755e-08 -4.862343757402123e-07 0.0 0.0
0.0 9.159749535903181e-05 4.5476046836405634e-05 -6.39623989656557e-05 1.8486352129250003e-05 8.21389946751152e-05 0.0 0.0
0.0 6.965596250009609e-06 2.5036988993004542e-06 -3.627570968226671e-06 1.123872068926208e-06 -5.1262399970022636e-06 0.0 0.0
0.0 2.238941669539709e-06 -1.5301893667612512e-08 1.2932132328202642e-08 2.3697613394147284e-09 -1.755255753809098e-07 0.0 0.0
0.0 3.6083879114492967e-06 -2.543705515616699e-07 2.1495209259973635e-07 3.9418458961934346e-08 -2.9725518926765893e-06 0.0 0.0
0.0 6.208895167788442e-06 -6.722407296567964e-07 5.881494796993578e-07 8.409124995743899e-08 -7.96737172133316e-06 0.0 0.0
0.0 2.6281830238018425e-05 -2.2739772269440597e-06 1.9684367149052894e-06 3.055405120387805e-07 -3.279000761752033e-05 0.0 0.0
0.0 0.00010491339664425443 -9.636210359968135e-06 7.933727369362393e-06 1.702482990605732e-06 -0.00014572880138710156 0.0 0.0
0.0 0.0002569541697466784 -2.9968689435973367e-05 2.427320335762813e-05 5.695486078345211e-06 -0.00040821457480702143 0.0 0.0
0.0 0.0005366146349886314 -7.606269598824271e-05 6.155502791214779e-05 1.4507668076094884e-05 -0.0008238493207304502 0.0 0.0
0.0 0.0009531109797653528 -0.00018977068619820977 0.00015410068313659696 3.5670003061612774e-05 -0.0015401132303810682 0.0 0.0
0.0 0.0016888772024387952 -0.0004346574253744026 0.0003526521070731269 8.20053183012758e-05 -0.0025961332558140406 0.0 0.0
0.0 0.002595268889468423 -0.0008518166479896461 0.0006933531418989797 0.0001584635060906659 -0.003967835658376257 0.0 0.0
0.0 0.0037787649703713193 -0.001404366428483777 0.001162603984416973 0.0002417624440668034 -0.0055104419017296385 0.0 0.0
0.0 0.005197974331225512 -0.002100731990189888 0.001782894384163483 0.00031783760602640306 -0.007209779203863387 0.0 0.0
0.0 0.006823556289703903 -0.0029006230966305523 0.002516314715088069 0.00038430838154248015 -0.009032455437283817 0.0 0.0
0.0 0.008522490697724955 -0.003704063892861402 0.003261279107622386 0.00044278478523901584 -0.010972969976898998 0.0 0.0
0.0 0.010173478129173788 -0.004293352177722203 0.003799386559296297 0.0004939656184259008 -0.012992921593947474 0.0 0.0
0.0 0.011463349651249117 -0.004329447364906725 0.003793022588912473 0.0005364247759942513 -0.015078877390710727 0.0 0.0
0.0 0.012252919666426736 -0.003534373025575413 0.002970853255076969 0.0005635197704984421 -0.01728637547573159 0.0 0.0
0.0 0.012515445785183177 -0.0019512018764473484 0.0014267383050535034 0.0005244635713938441 -0.019237646961254296 0.0 0.0
0.0 0.012219972220739892 0.002836290152536272 -0.002907673067099482 7.138291456320849e-05 -0.018017051326987624 0.0 0.0
0.0 0.01221997222074405 0.002836290152536111 -0.00290767306709938 7.138291456327173e-05 0.018017051326997467 0.0 0.0
0.0 0.012515445785186808 -0.001951201876447811 0.001426738305053525 0.0005244635713942845 0.019237646961266078 0.0 0.0
0.0 0.012252919666420425 -0.0035343730255724456 0.0029708532550738443 0.0005635197704985983 0.017286375475731294 0.0 0.0
0.0 0.01146334965123762 -0.004329447364900823 0.003793022588906796 0.0005364247759940248 0.01507887739070126 0.0 0.0
0.0 0.010173478129160106 -0.0042933521777142 0.003799386559288555 0.0004939656184256445 0.012992921593934047 0.0 0.0
0.0 0.008522490697713091 -0.0037040638928545356 0.0032612791076157594 0.0004427847852387751 0.010972969976888382 0.0 0.0
0.0 0.006823556289691557 -0.0029006230966226983 0.0025163147150807533 0.00038430838154194407 0.009032455437274677 0.0 0.0
0.0 0.005197974331212914 -0.0021007319901816604 0.0017828943841558282 0.00031783760602583126 0.007209779203854224 0.0 0.0
0.0 0.0037787649703593133 -0.0014043664284778155 0.0011626039844116745 0.00024176244406614122 0.005510441901717291 0.0 0.0
0.0 0.0025952688894594136 -0.000851816647985789 0.0006933531418956781 0.00015846350609011124 0.003967835658364984 0.0 0.0
0.0 0.001688877202431652 -0.00043465742537173574 0.00035265210707089757 8.200531830083797e-05 0.002596133255805157 0.0 0.0
0.0 0.000953110979762596 -0.00018977068619723507 0.00015410068313580243 3.567000306143266e-05 0.0015401132303771879 0.0 0.0
0.0 0.0005366146349863922 -7.60626959877769e-05 6.155502791175535e-05 1.450766807602152e-05 0.0008238493207272965 0.0 0.0
0.0 0.00025695416974510143 -2.996868943587215e-05 2.4273203357580225e-05 5.695486078291908e-06 0.00040821457480576283 0.0 0.0
0.0 0.00010491339664264937 -9.636210359910327e-06 7.933727369321975e-06 1.7024829905883636e-06 0.00014572880138627128 0.0 0.0
0.0 2.6281830237512414e-05 -2.273977226965497e-06 1.9684367149226743e-06 3.055405120428192e-07 3.2790007617863835e-05 0.0 0.0
0.0 6.208895167498053e-06 -6.722407296967492e-07 5.881494797339692e-07 8.409124996278047e-08 7.9673717217721e-06 0.0 0.0
0.0 3.608387910977852e-06 -2.543705516451269e-07 2.1495209266982695e-07 3.941845897530052e-08 2.972551893623495e-06 0.0 0.0
0.0 2.238941668935132e-06 -1.5301893681470854e-08 1.293213232779496e-08 2.3697613536808014e-09 1.7552557585979045e-07 0.0 0.0
0.0 6.965596249629798e-06 2.5036988995415338e-06 -3.6275709685823025e-06 1.1238720690407712e-06 5.1262399975149895e-06 0.0 0.0
0.0 5.791226492451869e-07 -3.285152939261594e-08 4.863961923435166e-08 -1.578808984173702e-08 8.324711323925464e-08 0.0 0.0
0.0 1.1036122138762188e-06 -2.088032544016217e-08 1.5500596621736994e-08 5.379728818423635e-09 -3.8826391180834875e-07 0.0 0.0
0.0 4.544464756306219e-06 -5.265763363473397e-07 4.35435235521154e-07 9.114110082618142e-08 -4.048165462358819e-06 0.0 0.0
0.0 1.0035738900014851e-05 -1.111512863575517e-06 9.54643231641718e-07 1.568696319338126e-07 -7.59262683678538e-06 0.0 0.0
0.0 3.3280287309467714e-05 -7.106218881013053e-06 5.916183320895867e-06 1.1900355601171892e-06 -4.287225487293546e-05 0.0 0.0
0.0 0.00011528711702483754 -2.9587525142076122e-05 2.395805005272998e-05 5.629475089346121e-06 -0.00015724124588680478 0.0 0.0
0.0 0.00033581628086047963 -0.00011079421340610667 8.93827894494795e-05 2.141142395662722e-05 -0.00047457834655244746 0.0 0.0
0.0 0.0009070622082880819 -0.0004263489385139237 0.0003467341854390939 7.961475307482978e-05 -0.0013037550679662366 0.0 0.0
0.0 0.002207585958249957 -0.0012667672020911088 0.0010593715720565084 0.00020739563003459993 -0.0027401891060930745 0.0 0.0
0.0 0.004145809058405559 -0.0026830538026213963 0.0023244784641134296 0.0003585753385079664 -0.004562793799255168 0.0 0.0
0.0 0.006525306153700287 -0.004501188406943 0.00402019360063997 0.0004809948063030259 -0.006572416461603884 0.0 0.0
0.0 0.009283441595052599 -0.006570150755465657 0.006004153215075978 0.0005659975403896804 -0.00861764770447966 0.0 0.0
0.0 0.01228309976397511 -0.008878127727542337 0.008246614232382838 0.000631513495159497 -0.010676254352758744 0.0 0.0
0.0 0.015584113031832356 -0.011428320869617405 0.010741398620188271 0.0006869222494291403 -0.012728316260562074 0.0 0.0
0.0 0.019107859428514586 -0.014131222656290705 0.013391977396474432 0.0007392452598162697 -0.014849518880846563 0.0 0.0
0.0 0.02259621126253192 -0.016729582542880754 0.0159397944610186 0.0007897880818621503 -0.01712405742780075 0.0 0.0
0.0 0.025656553570200035 -0.018791849060603417 0.017958412912028935 0.0008334361485744905 -0.019624573837686527 0.0 0.0
0.0 0.02767569268919874 -0.019781868498768583 0.018919086132778373 0.0008627823659902206 -0.022259704595537912 0.0 0.0
0.0 0.027048664768473212 -0.018644017164299587 0.017686195635347266 0.000957821528952306 -0.023346893134022162 0.0 0.0
0.0 0.0212735363770469 -0.012742693375166734 0.011693916557685785 0.001048776817480942 -0.020794163979716805 0.0 0.0
0.0 0.02127353637705372 -0.012742693375166654 0.011693916557685279 0.0010487768174813762 0.020794163979742798 0.0 0.0
0.0 0.027048664768480175 -0.018644017164297463 0.017686195635345126 0.0009578215289523238 0.023346893134060544 0.0 0.0
0.0 0.02767569268919387 -0.019781868498759562 0.018919086132769488 0.0008627823659900601 0.022259704595559947 0.0 0.0
0.0 0.025656553570180457 -0.018791849060586167 0.01795841291201203 0.0008334361485741446 0.01962457383768461 0.0 0.0
0.0 0.022596211262507188 -0.016729582542861436 0.015939794460999215 0.0007897880818622232 0.01712405742778509 0.0 0.0
0.0 0.019107859428491275 -0.014131222656272553 0.013391977396456428 0.0007392452598161273 0.014849518880832153 0.0 0.0
0.0 0.015584113031811106 -0.011428320869600956 0.010741398620172118 0.0006869222494288358 0.012728316260548673 0.0 0.0
0.0 0.012283099763955727 -0.00887812772752618 0.008246614232367153 0.0006315134951590227 0.010676254352749388 0.0 0.0
0.0 0.009283441595030964 -0.0065701507554493535 0.006004153215060292 0.0005659975403890583 0.008617647704464094 0.0 0.0
0.0 0.00652530615367887 -0.004501188406927793 0.00402019360062567 0.0004809948063021233 0.0065724164615855 0.0 0.0
0.0 0.004145809058387315 -0.0026830538026092437 0.0023244784641021747 0.00035857533850706816 0.004562793799237123 0.0 0.0
0.0 0.002207585958241003 -0.0012667672020847624 0.0010593715720510063 0.00020739563003375634 0.002740189106084568 0.0 0.0
0.0 0.0009070622082830167 -0.0004263489385110828 0.0003467341854367623 7.96147530743206e-05 0.0013037550679601815 0.0 0.0
0.0 0.0003358162808579689 -0.00011079421340546742 8.938278944897531e-05 2.1411423956492077e-05 0.0004745783465500352 0.0 0.0
0.0 0.00011528711702290777 -2.9587525141857774e-05 2.3958050052551632e-05 5.6294750893061234e-06 0.0001572412458856522 0.0 0.0
0.0 3.328028730875217e-05 -7.106218881087668e-06 5.916183320961512e-06 1.1900355601261383e-06 4.2872254873381744e-05 0.0 0.0
0.0 1.003573889940812e-05 -1.11151286366636e-06 9.546432317181077e-07 1.5686963194825528e-07 7.592626837368181e-06 0.0 0.0
0.0 4.544464755754318e-06 -5.265763364592349e-07 4.35435235612779e-07 9.114110084645543e-08 4.048165463218388e-06 0.0 0.0
0.0 1.103612213650409e-06 -2.0880325477845726e-08 1.5500596627874426e-08 5.379728849971644e-09 3.8826391267484715e-07 0.0 0.0
0.0 5.791226488939735e-07 -3.285152937202806e-08 4.863961920387383e-08 -1.57880898318369e-08 -8.324711318699175e-08 0.0 0.0
0.0 0.0 0.0 0.0 0.0 0.0 0.0 0.0
0.0 1.2508586812791678e-06 1.7693331314728913e-08 -8.022362203851962e-09 -9.670969110877117e-09 2.5436291706895875e-07 0.0 0.0
0.0 4.106747005457112e-06 -1.8157316145026078e-07 1.4878957584597277e-07 3.278358560428423e-08 -9.864476964644229e-07 0.0 0.0
0.0 1.2248066397587419e-05 -1.5330780518665089e-06 1.2593834802681706e-06 2.7369457159834653e-07 -6.547864555413777e-06 0.0 0.0
0.0 4.0939241707572884e-05 -1.297698303328195e-05 1.0587418092628117e-05 2.389564940653843e-06 -4.740561335798675e-05 0.0 0.0
0.0 0.00015639904788577896 -6.458508058210492e-05 5.2144363769683186e-05 1.2440716812421675e-05 -0.00019551324714599483 0.0 0.0
0.0 0.0006270052304796124 -0.00034713419443814107 0.0002821622129990532 6.497198143908774e-05 -0.0007831767646218242 0.0 0.0
0.0 0.0019546184845040363 -0.0013041568462941458 0.0010920316626888838 0.00021212518360526223 -0.0021416679966750393 0.0 0.0
0.0 0.00439027949156804 -0.0031563252617878325 0.002756273674614108 0.00040005158717372274 -0.004108969560058807 0.0 0.0
0.0 0.00757668459324682 -0.005767874751448394 0.005217313008626273 0.0005505617428221202 -0.006476679582472776 0.0 0.0
0.0 0.011507654616782964 -0.00888257393207759 0.00823376195092018 0.0006488119811574149 -0.008991480896087567 0.0 0.0
0.0 0.015752732661021764 -0.012379434693835836 0.011660248410331666 0.0007191862835041732 -0.011440278683194765 0.0 0.0
0.0 0.020456302605887315 -0.016256270177366375 0.015478620681254619 0.0007776494961117591 -0.013806169221916891 0.0 0.0
0.0 0.02567007862462921 -0.020550110300871737 0.019717160748824087 0.0008329495520476433 -0.0161723392418091 0.0 0.0
0.0 0.03138682524265058 -0.025193159173596696 0.024302101512268127 0.0008910576613285531 -0.018733456302370787 0.0 0.0
0.0 0.03723876886649263 -0.029901733663102482 0.02894998785655952 0.0009517458065429378 -0.02176184135181327 0.0 0.0
0.0 0.04276541572420791 -0.0341329450975975 0.033122733272419755 0.0010102118251777222 -0.02543813338349589 0.0 0.0
0.0 0.04656545905967236 -0.036955282427080585 0.035870804456140395 0.0010844779709401975 -0.029094997303048084 0.0 0.0
0.0 0.04675038870474812 -0.03660532652098008 0.03542690272920703 0.0011784237917730244 -0.03090612387851745 0.0 0.0
0.0 0.03848956783601752 -0.029585350265606585 0.028189192723491928 0.0013961575421146456 -0.02708645996873513 0.0 0.0
0.0 0.0384895678360275 -0.02958535026560778 0.02818919272349348 0.001396157542114295 0.027086459968773156 0.0 0.0
0.0 0.04675038870475697 -0.0366053265209786 0.035426902729206206 0.001178423791772383 0.030906123878566963 0.0 0.0
0.0 0.04656545905966213 -0.03695528242706517 0.035870804456125796 0.0010844779709393512 0.029094997303080523 0.0 0.0
0.0 0.04276541572418366 -0.034132945097574544 0.03312273327239765 0.0010102118251769203 0.025438133383500247 0.0 0.0
0.0 0.03723876886646217 -0.029901733663076545 0.028949987856534416 0.0009517458065421329 0.021761841351801873 0.0 0.0
0.0 0.031386825242619834 -0.02519315917357132 0.024302101512243265 0.0008910576613280434 0.018733456302355872 0.0 0.0
0.0 0.02567007862459908 -0.020550110300846747 0.019717160748799315 0.0008329495520474336 0.016172339241795383 0.0 0.0
0.0 0.020456302605855257 -0.016256270177339403 0.015478620681227708 0.000777649496111689 0.01380616922190373 0.0 0.0
0.0 0.015752732660990483 -0.012379434693810292 0.011660248410306665 0.0007191862835036254 0.011440278683177287 0.0 0.0
0.0 0.011507654616754117 -0.008882573932055288 0.008233761950898328 0.0006488119811569584 0.008991480896065766 0.0 0.0
0.0 0.007576684593221122 -0.0057678747514289756 0.005217313008607503 0.0005505617428214723 0.006476679582452662 0.0 0.0
0.0 0.004390279491550754 -0.003156325261774294 0.0027562736746015045 0.0004000515871727887 0.004108969560046271 0.0 0.0
0.0 0.0019546184844946067 -0.0013041568462874079 0.001092031662683061 0.00021212518360434702 0.0021416679966668284 0.0 0.0
0.0 0.0006270052304751218 -0.0003471341944359176 0.00028216221299727837 6.497198143863911e-05 0.0007831767646177409 0.0 0.0
0.0 0.00015639904788393634 -6.458508058181614e-05 5.214436376945639e-05 1.2440716812359702e-05 0.00019551324714506952 0.0 0.0
0.0 4.0939241706082126e-05 -1.2976983033140879e-05 1.0587418092510342e-05 2.3895649406304994e-06 4.740561335746891e-05 0.0 0.0
0.0 1.2248066396875721e-05 -1.5330780519879217e-06 1.2593834803681544e-06 2.736945716197557e-07 6.547864555943829e-06 0.0 0.0
0.0 4.106747005136618e-06 -1.8157316162107077e-07 1.487895759852783e-07 3.278358563579884e-08 9.864476974527202e-07 0.0 0.0
0.0 1.2508586809248778e-06 1.7693331309732382e-08 -8.022362201433076e-09 -9.67096910830339e-09 -2.543629169952669e-07 0.0 0.0
0.0 0.0 0.0 0.0 0.0 0.0 0.0 0.0
0.0 0.0 0.0 0.0 0.0 0.0 0.0 0.0
0.0 1.142611525848342e-07 2.288734892542505e-09 -1.5997618405167106e-09 -6.88973052025528e-10 2.247828464461184e-08 0.0 0.0
0.0 2.335003469875931e-06 -2.5117404182908026e-10 4.383851306283762e-10 -1.8721108880415234e-10 2.9181891489329496e-08 0.0 0.0
0.0 1.194474054720979e-05 -2.856672600576799e-06 2.3589263149429822e-06 4.977462856338134e-07 -9.399221834244144e-06 0.0 0.0
0.0 5.141519074709547e-05 -2.0451338889376686e-05 1.6648530600161566e-05 3.8028082892151465e-06 -5.2375880669548184e-05 0.0 0.0
0.0 0.0002731819874808231 -0.00015822605415273872 0.00012785198367312592 3.0374070479612798e-05 -0.00030744889319351366 0.0 0.0
0.0 0.0012103600576399884 -0.0008445990919897107 0.000698113967589446 0.0001464851244002648 -0.001200007608776715 0.0 0.0
0.0 0.003389072955341399 -0.002573929558229665 0.0022211546684061663 0.0003527748898234976 -0.002849492432324054 0.0 0.0
0.0 0.0068679653703429145 -0.005410503851115961 0.004871348146820912 0.0005391557042950499 -0.00512485842968609 0.0 0.0
0.0 0.011344533674150784 -0.009137608234930294 0.008473448369566733 0.0006641598653635609 -0.007815993292589318 0.0 0.0
0.0 0.01659050779957507 -0.01350387882573786 0.012755657819900264 0.0007482210058375992 -0.010586892159919946 0.0 0.0
0.0 0.022457411414603282 -0.018401901377193393 0.017584567060953262 0.0008173343162401305 -0.013229038467210668 0.0 0.0
0.0 0.02896528401158297 -0.023845939450579175 0.02296658699988998 0.0008793524506891765 -0.015767298416808708 0.0 0.0
0.0 0.036126010917952533 -0.0298972988326758 0.02895678344685132 0.0009405153858244804 -0.018321947221921386 0.0 0.0
0.0 0.04402282967456911 -0.03651699483563828 0.035511486946084574 0.0010055078895536854 -0.021158756668047344 0.0 0.0
0.0 0.0523490990411434 -0.04340769374102793 0.04232946467136107 0.0010782290696668612 -0.024708000444077578 0.0 0.0
0.0 0.06021232131803056 -0.04982332479088101 0.04866169986840407 0.0011616249224769201 -0.029143313477863596 0.0 0.0
0.0 0.06597828489101037 -0.05432992374994718 0.0530700276875908 0.0012598960623563232 -0.033656766161399405 0.0 0.0
0.0 0.06647578072986453 -0.054433359547628006 0.05303457170003606 0.0013987878475919292 -0.03588570829433016 0.0 0.0
0.0 0.05627322185040029 -0.045704588589055364 0.044089125984124414 0.0016154626049309834 -0.03240506247962255 0.0 0.0
0.0 0.05627322185040423 -0.045704588589052235 0.044089125984121035 0.0016154626049311744 0.032405062479662995 0.0 0.0
0.0 0.06647578072986082 -0.05443335954761687 0.053034571700025034 0.001398787847591813 0.03588570829438114 0.0 0.0
0.0 0.06597828489099247 -0.0543299237499254 0.05307002768756965 0.00125989606235572 0.033656766161437035 0.0 0.0
0.0 0.06021232131799508 -0.04982332479084788 0.048661699868371586 0.0011616249224762859 0.029143313477872086 0.0 0.0
0.0 0.05234909904109799 -0.0434076937409887 0.0423294646713222 0.0010782290696664874 0.024708000444066736 0.0 0.0
0.0 0.04402282967452502 -0.03651699483560097 0.035511486946047645 0.0010055078895532964 0.02115875666803141 0.0 0.0
0.0 0.036126010917910026 -0.02989729883263996 0.02895678344681603 0.0009405153858239343 0.01832194722190444 0.0 0.0
0.0 0.028965284011541265 -0.02384593945054335 0.022966586999854998 0.000879352450688357 0.015767298416795056 0.0 0.0
0.0 0.022457411414560945 -0.018401901377157723 0.017584567060918314 0.0008173343162394005 0.013229038467190906 0.0 0.0
0.0 0.01659050779953619 -0.013503878825706214 0.012755657819869167 0.0007482210058370413 0.010586892159896307 0.0 0.0
0.0 0.0113445336741165 -0.009137608234902901 0.008473448369539982 0.0006641598653629151 0.007815993292565809 0.0 0.0
0.0 0.006867965370318536 -0.005410503851096659 0.0048713481468025 0.0005391557042941611 0.005124858429670542 0.0 0.0
0.0 0.0033890729553266597 -0.002573929558218084 0.0022211546683957944 0.0003527748898222888 0.002849492432313868 0.0 0.0
0.0 0.001210360057630466 -0.0008445990919830426 0.0006981139675837814 0.00014648512439926077 0.0012000076087688148 0.0 0.0
0.0 0.0002731819874770285 -0.00015822605415104026 0.00012785198367171646 3.037407047932386e-05 0.0003074488931904446 0.0 0.0
0.0 5.1415190746192145e-05 -2.0451338889470547e-05 1.6648530600229316e-05 3.8028082892411754e-06 5.237588066969761e-05 0.0 0.0
0.0 1.1944740546549929e-05 -2.8566726007451267e-06 2.3589263150797272e-06 4.977462856653914e-07 9.399221834790537e-06 0.0 0.0
0.0 2.335003469276565e-06 -2.511741438366592e-10 4.383852114374899e-10 -1.8721106760273487e-10 -2.9181891046082064e-08 0.0 0.0
0.0 1.1426115247963744e-07 2.288734890412389e-09 -1.5997618390303778e-09 -6.889730513817681e-10 -2.247828462369251e-08 0.0 0.0
0.0 0.0 0.0 0.0 0.0 0.0 0.0 0.0
0.0 0.0 0.0 0.0 0.0 0.0 0.0 0.0
0.0 0.0 0.0 0.0 0.0 0.0 0.0 0.0
0.0 6.301117771691601e-07 3.177133557320747e-08 -2.5610055499987776e-08 -6.161280073216576e-09 1.139376708674144e-07 0.0 0.0
0.0 1.1383263990271786e-05 -1.3734730599652964e-06 1.1108807206417788e-06 2.6259233932352803e-07 -3.220648922287767e-06 0.0 0.0
0.0 8.218230834396562e-05 -3.583742767148113e-05 2.8934651542152337e-05 6.902776129328778e-06 -6.400814846722038e-05 0.0 0.0
0.0 0.0005183997954127905 -0.00036621728273877245 0.0002978685759911926 6.834870674757979e-05 -0.00047822808055904726 0.0 0.0
0.0 0.00205482941257122 -0.0015869863989824134 0.0013384926880411312 0.00024849371094128134 -0.0015430649263443819 0.0 0.0
0.0 0.005067761522025322 -0.004099552190276419 0.003628929296578747 0.0004706228936976717 -0.00331437171708722 0.0 0.0
0.0 0.009518530715808101 -0.007870079697298275 0.007237113006257559 0.000632966691040716 -0.005734294511727639 0.0 0.0
0.0 0.015187544961584053 -0.0126541126642357 0.011914806924102406 0.0007393057401332944 -0.008499789412473063 0.0 0.0
0.0 0.02181945912975061 -0.018245465706196395 0.01742363404284943 0.000821831663346968 -0.011295422193134034 0.0 0.0
0.0 0.02927568345436596 -0.024545254774284164 0.02364978612275899 0.0008954686515251853 -0.013980258636782907 0.0 0.0
0.0 0.037544476581431896 -0.03156316859824081 0.030598681538249687 0.0009644870599910968 -0.016570770579282926 0.0 0.0
0.0 0.04672457258569869 -0.03937229433571309 0.0383404421939644 0.001031852141748676 -0.019161127479265957 0.0 0.0
0.0 0.05689170408258617 -0.04797638180171578 0.046872131878675075 0.0011042499230407132 -0.02203614353817885 0.0 0.0
0.0 0.06748866859381174 -0.05705450022694273 0.05586376600525103 0.0011907342216916832 -0.025662611448970182 0.0 0.0
0.0 0.07786243366720341 -0.0656157097498082 0.06431885995121159 0.001296849798596597 -0.030294265556690594 0.0 0.0
0.0 0.08537149074507254 -0.07168647444177867 0.07025890411131652 0.0014275703304621242 -0.0352235097919227 0.0 0.0
0.0 0.0860370464849283 -0.07197732334133895 0.070386280576081 0.0015910427652579264 -0.03825580140895796 0.0 0.0
0.0 0.07417357111206227 -0.06153030004135599 0.05974303906722757 0.0017872609741284324 -0.03708730220844302 0.0 0.0
0.0 0.0741735711120668 -0.061530300041353556 0.0597430390672254 0.0017872609741281216 0.03708730220848628 0.0 0.0
0.0 0.08603704648492129 -0.07197732334132564 0.07038628057606822 0.0015910427652574112 0.03825580140901192 0.0 0.0
0.0 0.08537149074504546 -0.07168647444175015 0.07025890411128782 0.0014275703304623064 0.0352235097919625 0.0 0.0
0.0 0.07786243366716075 -0.0656157097497693 0.0643188599511727 0.0012968497985965538 0.03029426555670081 0.0 0.0
0.0 0.06748866859376138 -0.057054500226898786 0.05586376600520781 0.0011907342216909752 0.025662611448961467 0.0 0.0
0.0 0.056891704082535854 -0.047976381801672255 0.04687213187863225 0.0011042499230400377 0.022036143538166644 0.0 0.0
0.0 0.04672457258564644 -0.03937229433566825 0.038340442193919994 0.001031852141748255 0.01916112747925041 0.0 0.0
0.0 0.03754447658137896 -0.031563168598195225 0.030598681538204248 0.0009644870599909741 0.01657077057926896 0.0 0.0
0.0 0.029275683454313993 -0.024545254774239935 0.023649786122715042 0.0008954686515248827 0.013980258636763526 0.0 0.0
0.0 0.021819459129703123 -0.01824546570615685 0.017423634042810356 0.0008218316633464924 0.01129542219310926 0.0 0.0
0.0 0.015187544961541259 -0.012654112664200187 0.011914806924067382 0.0007393057401328121 0.008499789412447608 0.0 0.0
0.0 0.009518530715777084 -0.007870079697272407 0.007237113006232345 0.0006329666910400658 0.005734294511711647 0.0 0.0
0.0 0.005067761522004507 -0.004099552190259405 0.003628929296562675 0.0004706228936967306 0.003314371717075546 0.0 0.0
0.0 0.002054829412560513 -0.0015869863989743341 0.0013384926880341146 0.00024849371094021937 0.0015430649263374217 0.0 0.0
0.0 0.0005183997954081993 -0.00036621728273606455 0.00029786857598900705 6.834870674705753e-05 0.0004782280805559324 0.0 0.0
0.0 8.218230834293707e-05 -3.5837427671562155e-05 2.8934651542207818e-05 6.902776129354244e-06 6.400814846733794e-05 0.0 0.0
0.0 1.1383263989705627e-05 -1.3734730601323959e-06 1.1108807207764105e-06 2.6259233935599613e-07 3.2206489227021424e-06 0.0 0.0
0.0 6.301117768796378e-07 3.177133555832444e-08 -2.5610055487985994e-08 -6.161280070339225e-09 -1.1393767081387647e-07 0.0 0.0
0.0 0.0 0.0 0.0 0.0 0.0 0.0 0.0
0.0 0.0 0.0 0.0 0.0 0.0 0.0 0.0
0.0 0.0 0.0 0.0 0.0 0.0 0.0 0.0
0.0 0.0 0.0 0.0 0.0 0.0 0.0 0.0
0.0 9.159772724021529e-07 5.630253744311479e-08 -4.536700834069255e-08 -1.0935529102421052e-08 1.5681455061216043e-07 0.0 0.0
0.0 8.57182015564562e-06 -3.026328764700756e-06 2.432028195099103e-06 5.943005696016953e-07 -5.5701680688245275e-06 0.0 0.0
0.0 0.00013538768823877115 -8.442435460443355e-05 6.79177370624049e-05 1.650661754202869e-05 -0.00010823359319826654 0.0 0.0
0.0 0.0009337189932282845 -0.0007137896375942763 0.0005863645878888104 0.00012742504970546606 -0.0006369689047943213 0.0 0.0
0.0 0.003140210176909375 -0.0025259939453174474 0.002175402203471843 0.00035059174184560446 -0.001736465194069425 0.0 0.0
0.0 0.006851265859670937 -0.0058042928879695 0.0052435881132006845 0.0005607047747688157 -0.003515082537520863 0.0 0.0
0.0 0.012265804574765322 -0.010440095954028523 0.009742755387131853 0.0006973405668966716 -0.005860555924414283 0.0 0.0
0.0 0.019108000683290265 -0.01624667932886587 0.015450012877683685 0.0007966664511821848 -0.00848859620122132 0.0 0.0
0.0 0.027122008042075763 -0.02305633269745171 0.022173621099569808 0.0008827115978818847 -0.011171113388044348 0.0 0.0
0.0 0.03614861529444437 -0.03076343550061192 0.029800232754987558 0.0009632027456243298 -0.013748908123817636 0.0 0.0
0.0 0.04625512598445069 -0.03936385255125341 0.03832352149518857 0.0010403310560648368 -0.016249502543983167 0.0 0.0
0.0 0.05732541464925972 -0.0489275859772479 0.0478125980140694 0.0011149879631785014 -0.01876040089917115 0.0 0.0
0.0 0.06962617163058923 -0.0594729270119322 0.058278787439680735 0.0011941395722514772 -0.021416493352098498 0.0 0.0
0.0 0.08280432468814428 -0.07066834316962167 0.06937521612092705 0.0012931270486946137 -0.02461745182864368 0.0 0.0
0.0 0.09519902595574789 -0.08131700961097005 0.07989490624559609 0.001422103365373909 -0.028878556209471672 0.0 0.0
0.0 0.10423811950570304 -0.08889305442452328 0.08731133495658258 0.0015817194679406486 -0.03397696487787562 0.0 0.0
0.0 0.10530842780741617 -0.0894032029003726 0.08764340614871821 0.001759796751654342 -0.038572481957095506 0.0 0.0
0.0 0.09247911621760985 -0.077486703101929 0.07554321049703705 0.0019434926048919148 -0.04147474989044715 0.0 0.0
0.0 0.09247911621760507 -0.07748670310191953 0.07554321049702702 0.0019434926048924822 0.04147474989048983 0.0 0.0
0.0 0.10530842780739844 -0.08940320290035156 0.08764340614869698 0.0017597967516545475 0.03857248195714856 0.0 0.0
0.0 0.1042381195056682 -0.0888930544244889 0.0873113349565486 0.0015817194679402522 0.033976964877914365 0.0 0.0
0.0 0.0951990259556943 -0.08131700961092223 0.07989490624554811 0.001422103365374061 0.028878556209482088 0.0 0.0
0.0 0.08280432468808195 -0.07066834316956774 0.06937521612087302 0.001293127048694699 0.02461745182863658 0.0 0.0
0.0 0.06962617163052501 -0.059472927011876495 0.05827878743962552 0.0011941395722509652 0.021416493352088777 0.0 0.0
0.0 0.057325414649197104 -0.04892758597719385 0.04781259801401577 0.0011149879631780595 0.01876040089915713 0.0 0.0
0.0 0.04625512598438877 -0.03936385255119959 0.03832352149513524 0.0010403310560643448 0.016249502543969244 0.0 0.0
0.0 0.03614861529438421 -0.030763435500560023 0.029800232754936026 0.0009632027456239821 0.013748908123800056 0.0 0.0
0.0 0.02712200804202068 -0.023056332697404924 0.02217362109952359 0.0008827115978813397 0.011171113388020952 0.0 0.0
0.0 0.01910800068323996 -0.016246679328823496 0.015450012877641674 0.0007966664511818105 0.008488596201197383 0.0 0.0
0.0 0.012265804574727937 -0.010440095953996515 0.009742755387100526 0.0006973405668959878 0.0058605559243982246 0.0 0.0
0.0 0.0068512658596445175 -0.005804292887946964 0.005243588113179202 0.0005607047747677607 0.003515082537508608 0.0 0.0
0.0 0.0031402101768921095 -0.002525993945303337 0.002175402203459127 0.0003505917418442105 0.0017364651940606681 0.0 0.0
0.0 0.0009337189932199177 -0.0007137896375881219 0.0005863645878836472 0.00012742504970447442 0.0006369689047893052 0.0 0.0
0.0 0.00013538768823686845 -8.442435460384084e-05 6.791773706190952e-05 1.650661754193131e-05 0.00010823359319749802 0.0 0.0
0.0 8.571820155459366e-06 -3.0263287649853813e-06 2.432028195324143e-06 5.943005696612158e-07 5.570168069338733e-06 0.0 0.0
0.0 9.159772720464821e-07 5.630253742091469e-08 -4.5367008322703315e-08 -1.0935529098212496e-08 -1.5681455054918204e-07 0.0 0.0
0.0 0.0 0.0 0.0 0.0 0.0 0.0 0.0
0.0 0.0 0.0 0.0 0.0 0.0 0.0 0.0
0.0 0.0 0.0 0.0 0.0 0.0 0.0 0.0
0.0 0.0 0.0 0.0 0.0 0.0 0.0 0.0
0.0 0.0 0.0 0.0 0.0 0.0 0.0 0.0
0.0 7.973770473195516e-06 -3.7119503062244232e-06 2.9497846557225344e-06 7.621656505019091e-07 -5.028716781571771e-06 0.0 0.0
0.0 0.0002505842826681647 -0.000179069484230692 0.00014426778229402148 3.480170193667055e-05 -0.00015999863957144448 0.0 0.0
0.0 0.0015224962594201181 -0.0012060217224450212 0.001004973582488673 0.0002010481399563489 -0.0007311617312272191 0.0 0.0
0.0 0.00420197831275832 -0.0036389930819068564 0.00319617449447209 0.00044281858743476824 -0.001786173940796361 0.0 0.0
0.0 0.008747987468473658 -0.00760639156188504 0.006981922219846239 0.0006244693420388021 -0.003396017931523939 0.0 0.0
0.0 0.01512373719075107 -0.013060246917104432 0.012314638129298783 0.0007456087878056424 -0.005464387354545162 0.0 0.0
0.0 0.023082979369011505 -0.019879316191620654 0.01903522392184573 0.0008440922697749369 -0.007822243491831858 0.0 0.0
0.0 0.03245159257456533 -0.02790135993768697 0.026965996671895316 0.0009353632657916502 -0.010230772517022644 0.0 0.0
0.0 0.043084912929325966 -0.037020802969411085 0.035997044083470695 0.0010237588859403814 -0.012551823135435925 0.0 0.0
0.0 0.05493886345545863 -0.04721804137421064 0.04610841694968343 0.0011096244245272 -0.014831877590915787 0.0 0.0
0.0 0.06809344068631852 -0.058525393829910455 0.0573314398977465 0.0011939539321639307 -0.017108960678217242 0.0 0.0
0.0 0.0824915940236847 -0.07092945696483982 0.06964897126772387 0.0012804856971159503 -0.019371626303018592 0.0 0.0
0.0 0.09754955225186084 -0.08409630594380585 0.08271004532941503 0.0013862606143907768 -0.021766342995051185 0.0 0.0
0.0 0.11222888260266474 -0.09672977387655131 0.09519550719719713 0.001534266679354188 -0.02498515918234088 0.0 0.0
0.0 0.12304900453337984 -0.10588878209942446 0.10416988635009938 0.0017188957493250974 -0.02995556612397001 0.0 0.0
0.0 0.12482996780750127 -0.10693577932986639 0.10502016268098933 0.001915616648877023 -0.03690665219716698 0.0 0.0
0.0 0.11127877310866897 -0.09394262246485473 0.09184496191941388 0.0020976605454407727 -0.04558142429425311 0.0 0.0
0.0 0.11127877310866602 -0.0939426224648471 0.09184496191940639 0.0020976605454407415 0.04558142429429477 0.0 0.0
0.0 0.12482996780747824 -0.10693577932984175 0.1050201626809652 0.0019156166488765612 0.03690665219721739 0.0 0.0
0.0 0.12304900453333605 -0.10588878209938365 0.10416988635005911 0.0017188957493244209 0.029955566124004775 0.0 0.0
0.0 0.11222888260260624 -0.09672977387649913 0.09519550719714637 0.0015342666793527544 0.024985159182349385 0.0 0.0
0.0 0.09754955225178708 -0.0840963059437419 0.08271004532935108 0.001386260614390751 0.021766342995046536 0.0 0.0
0.0 0.0824915940236084 -0.07092945696477396 0.06964897126765784 0.0012804856971161162 0.019371626303010488 0.0 0.0
0.0 0.06809344068624448 -0.05852539382984639 0.05733143989768313 0.0011939539321632032 0.017108960678205536 0.0 0.0
0.0 0.05493886345538426 -0.04721804137414617 0.046108416949619715 0.0011096244245264535 0.014831877590902123 0.0 0.0
0.0 0.04308491292925403 -0.03702080296934845 0.03599704408340898 0.0010237588859394976 0.012551823135420612 0.0 0.0
0.0 0.032451592574499075 -0.02790135993762979 0.026965996671838882 0.0009353632657908956 0.010230772517000226 0.0 0.0
0.0 0.023082979368957122 -0.01987931619157379 0.019035223921799543 0.0008440922697742313 0.007822243491811124 0.0 0.0
0.0 0.0151237371907117 -0.013060246917070016 0.012314638129265039 0.000745608787804976 0.005464387354532552 0.0 0.0
0.0 0.008747987468444612 -0.007606391561859585 0.00698192221982161 0.0006244693420379728 0.0033960179315135784 0.0 0.0
0.0 0.004201978312738766 -0.0036389930818900166 0.0031961744944564 0.0004428185874336173 0.0017861739407886122 0.0 0.0
0.0 0.0015224962594093236 -0.001206021722436776 0.0010049735824814916 0.00020104813995528424 0.0007311617312223807 0.0 0.0
0.0 0.00025058428266502885 -0.00017906948422905121 0.00014426778229267227 3.4801701936378754e-05 0.00015999863957008982 0.0 0.0
0.0 7.973770472941296e-06 -3.71195030661767e-06 2.9497846560280977e-06 7.621656505895851e-07 5.0287167820783445e-06 0.0 0.0
0.0 0.0 0.0 0.0 0.0 0.0 0.0 0.0
0.0 0.0 0.0 0.0 0.0 0.0 0.0 0.0
0.0 0.0 0.0 0.0 0.0 0.0 0.0 0.0
0.0 0.0 0.0 0.0 0.0 0.0 0.0 0.0
0.0 0.0 0.0 0.0 0.0 0.0 0.0 0.0
0.0 0.0 0.0 0.0 0.0 0.0 0.0 0.0
0.0 1.1587678297839753e-05 -6.714368377439532e-06 5.356627558826597e-06 1.3577408186129247e-06 -6.55413943262198e-06 0.0 0.0
0.0 0.00046947483711253115 -0.0003536696583519639 0.00028585947441047945 6.781018394148435e-05 -0.00020247012133818503 0.0 0.0
0.0 0.0022187077254937817 -0.0018438019077557973 0.0015604220400633373 0.0002833798676924598 -0.0007340694331036224 0.0 0.0
0.0 0.005456676316259303 -0.004847591003754302 0.004330249009537719 0.0005173419942165829 -0.0016038149655917384 0.0 0.0
0.0 0.010762631816278276 -0.009449171320191276 0.008777990136894676 0.0006711811832965985 -0.0028956537204308567 0.0 0.0
0.0 0.018021768633808298 -0.01570363690312547 0.014919650884708837 0.0007839860184166195 -0.00458108768831644 0.0 0.0
0.0 0.027094736587687473 -0.02351957639554464 0.022635112931081773 0.0008844634644628612 -0.006514329750420446 0.0 0.0
0.0 0.037829810313235956 -0.03274891628561688 0.03176680227268428 0.000982114012932589 -0.008496238431282744 0.0 0.0
0.0 0.050013711809692274 -0.04328621835547324 0.04220780873206213 0.001078409623411093 -0.010403311638738156 0.0 0.0
0.0 0.06377117798024667 -0.0550904090480505 0.05391651714568769 0.0011738919023627833 -0.012287736204140465 0.0 0.0
0.0 0.07874070538205967 -0.06814026458933115 0.06687088395838695 0.0012693806309441893 -0.014213979066500149 0.0 0.0
0.0 0.09505113611056362 -0.08231487194292053 0.08094832836217421 0.0013665435807463607 -0.016011062967060126 0.0 0.0
0.0 0.11222027557321568 -0.09721158215948705 0.09573585780452248 0.0014757243549645262 -0.017388245762083268 0.0 0.0
0.0 0.12883184004776882 -0.11162792954282225 0.1100042740859272 0.00162365545689503 -0.018912540542133528 0.0 0.0
0.0 0.1416034871228324 -0.12259208293855603 0.12075547989340388 0.0018366030451520633 -0.023120598052754696 0.0 0.0
0.0 0.14473030433470888 -0.1247794148530427 0.12271700496722698 0.0020624098858157483 -0.03283742641378551 0.0 0.0
0.0 0.1312516364583934 -0.11131558948103587 0.10905277955457254 0.0022628099264633095 -0.04910613541636857 0.0 0.0
0.0 0.1312516364583851 -0.11131558948102521 0.10905277955456177 0.0022628099264634712 0.04910613541639982 0.0 0.0
0.0 0.14473030433468176 -0.12477941485301589 0.12271700496720112 0.002062409885814764 0.03283742641382853 0.0 0.0
0.0 0.14160348712277931 -0.1225920829385081 0.12075547989335668 0.0018366030451513623 0.02312059805278558 0.0 0.0
0.0 0.1288318400476983 -0.11162792954276063 0.11000427408586622 0.001623655456894453 0.018912540542139793 0.0 0.0
0.0 0.11222027557313646 -0.09721158215941778 0.09573585780445461 0.0014757243549632095 0.017388245762081988 0.0 0.0
0.0 0.09505113611048338 -0.08231487194285018 0.0809483283621056 0.001366543580744644 0.016011062967056608 0.0 0.0
0.0 0.07874070538197513 -0.06814026458925786 0.06687088395831411 0.0012693806309437058 0.014213979066492046 0.0 0.0
0.0 0.06377117798016108 -0.05509040904797658 0.053916517145613546 0.0011738919023630565 0.012287736204130064 0.0 0.0
0.0 0.05001371180961263 -0.04328621835540421 0.042207808731993555 0.0010784096234106426 0.010403311638728005 0.0 0.0
0.0 0.03782981031316527 -0.032748916285555256 0.03176680227262339 0.0009821140129318692 0.008496238431266004 0.0 0.0
0.0 0.02709473658762749 -0.023519576395492472 0.02263511293103019 0.000884463464462293 0.006514329750403119 0.0 0.0
0.0 0.01802176863375969 -0.015703636903083018 0.014919650884666819 0.000783986018416202 0.004581087688304357 0.0 0.0
0.0 0.010762631816240884 -0.009449171320158392 0.008777990136862417 0.000671181183295976 0.002895653720420806 0.0 0.0
0.0 0.005456676316235422 -0.004847591003733149 0.004330249009517606 0.0005173419942155444 0.0016038149655843727 0.0 0.0
0.0 0.00221870772548136 -0.001843801907745372 0.001560422040054197 0.00028337986769117374 0.0007340694330996913 0.0 0.0
0.0 0.00046947483710793397 -0.00035366965834886704 0.0002858594744078997 6.781018394096754e-05 0.00020247012133648497 0.0 0.0
0.0 1.1587678297571318e-05 -6.714368377923067e-06 5.356627559201041e-06 1.357740818722035e-06 6.554139433049344e-06 0.0 0.0
0.0 0.0 0.0 0.0 0.0 0.0 0.0 0.0
0.0 0.0 0.0 0.0 0.0 0.0 0.0 0.0
0.0 0.0 0.0 0.0 0.0 0.0 0.0 0.0
0.0 0.0 0.0 0.0 0.0 0.0 0.0 0.0
0.0 0.0 0.0 0.0 0.0 0.0 0.0 0.0
0.0 0.0 0.0 0.0 0.0 0.0 0.0 0.0
0.0 2.7573115601584415e-05 -1.7123113449991076e-05 1.3649944477432702e-05 3.473168972558401e-06 -1.0415695005702243e-05 0.0 0.0
0.0 0.0008245365648133899 -0.0006329486420259767 0.0005165061639316754 0.00011644247809430151 -0.00020740677135562714 0.0 0.0
0.0 0.0028729156725612044 -0.002610301930990364 0.00224368920974516 0.0003666127212452025 -0.0005934230007187683 0.0 0.0
0.0 0.006836247398997281 -0.006104091533115824 0.005531760187600721 0.0005723313455151041 -0.0011822937875373314 0.0 0.0
0.0 0.012818409713354559 -0.01131230553989316 0.010604813543639546 0.0007074919962536241 -0.00205502816519721 0.0 0.0
0.0 0.02094020506748388 -0.018341220671801387 0.01752618574297224 0.0008150349288291439 -0.0032175635077651855 0.0 0.0
0.0 0.03111323982744214 -0.027137950704425658 0.02621879445370666 0.0009191562507189987 -0.004572620859457222 0.0 0.0
0.0 0.04319296386113438 -0.0375706977129047 0.036546852954927225 0.001023844757977484 -0.005963399211004532 0.0 0.0
0.0 0.0570951491909527 -0.04952886328518273 0.048400418659174216 0.0011284446260084987 -0.007302870120026462 0.0 0.0
0.0 0.07245316855365871 -0.06294993235814966 0.061716183960285206 0.0012337483978644569 -0.008658481053757201 0.0 0.0
0.0 0.08944606667267996 -0.07773121958004554 0.07638998055997925 0.0013412390200662305 -0.010033794186162124 0.0 0.0
0.0 0.10776020566317016 -0.09361076714721692 0.09215848205399738 0.0014522850932194935 -0.011231478070460441 0.0 0.0
0.0 0.1266493265003792 -0.1100186643352381 0.10845023284333119 0.0015684314919068797 -0.011815752700760155 0.0 0.0
0.0 0.14481344982024444 -0.12582124563254093 0.12411872338124025 0.0017025222513007234 -0.01164079660650196 0.0 0.0
0.0 0.1595798103590371 -0.13861171698905816 0.1367167625113113 0.001894954477746848 -0.013361302525157744 0.0 0.0
0.0 0.16524924359810556 -0.14308579147435743 0.14087352352911983 0.002212267945237549 -0.02487766010043042 0.0 0.0
0.0 0.152938930802924 -0.1302416343903795 0.12778537249508531 0.0024562618952941716 -0.05128170043528922 0.0 0.0
0.0 0.15293893080291449 -0.13024163439036865 0.1277853724950751 0.0024562618952935654 0.05128170043531302 0.0 0.0
0.0 0.1652492435980675 -0.143085791474323 0.14087352352908566 0.002212267945237303 0.024877660100462655 0.0 0.0
0.0 0.15957981035896954 -0.1386117169889995 0.13671676251125198 0.0018949544777475279 0.013361302525179773 0.0 0.0
0.0 0.14481344982016262 -0.12582124563246988 0.12411872338116953 0.0017025222513003258 0.011640796606504557 0.0 0.0
0.0 0.12664932650028826 -0.11001866433515911 0.10845023284325295 0.0015684314919061713 0.011815752700759082 0.0 0.0
0.0 0.10776020566307581 -0.09361076714713484 0.09215848205391616 0.0014522850932186643 0.011231478070458779 0.0 0.0
0.0 0.08944606667258519 -0.07773121957996308 0.07638998055989792 0.0013412390200651426 0.01003379418615721 0.0 0.0
0.0 0.07245316855356655 -0.06294993235806934 0.06171618396020626 0.0012337483978631162 0.008658481053750354 0.0 0.0
0.0 0.05709514919086167 -0.04952886328510325 0.048400418659095695 0.0011284446260075513 0.007302870120019855 0.0 0.0
0.0 0.04319296386105145 -0.03757069771283281 0.036546852954855776 0.0010238447579770204 0.0059633992109914095 0.0 0.0
0.0 0.031113239827372102 -0.027137950704364776 0.02621879445364621 0.0009191562507185739 0.004572620859444141 0.0 0.0
0.0 0.020940205067430568 -0.018341220671754272 0.01752618574292581 0.0008150349288284551 0.00321756350775786 0.0 0.0
0.0 0.012818409713316336 -0.011312305539859215 0.010604813543606376 0.0007074919962528338 0.0020550281651912088 0.0 0.0
0.0 0.006836247398971117 -0.006104091533092243 0.005531760187578106 0.0005723313455141343 0.0011822937875326789 0.0 0.0
0.0 0.002872915672546664 -0.0026103019309771883 0.00224368920973317 0.000366612721244019 0.0005934230007158244 0.0 0.0
0.0 0.0008245365648073752 -0.0006329486420215085 0.000516506163927923 0.00011644247809358507 0.00020740677135439235 0.0 0.0
0.0 2.7573115601027396e-05 -1.7123113450381405e-05 1.3649944477721351e-05 3.4731689726600086e-06 1.0415695005855817e-05 0.0 0.0
0.0 0.0 0.0 0.0 0.0 0.0 0.0 0.0
0.0 0.0 0.0 0.0 0.0 0.0 0.0 0.0
0.0 0.0 0.0 0.0 0.0 0.0 0.0 0.0
0.0 0.0 0.0 0.0 0.0 0.0 0.0 0.0
0.0 0.0 0.0 0.0 0.0 0.0 0.0 0.0
0.0 0.0 0.0 0.0 0.0 0.0 0.0 0.0
0.0 8.652710586529188e-05 -6.677074177464182e-05 5.284758239927698e-05 1.3923159375364975e-05 -1.721202224570415e-05 0.0 0.0
0.0 0.0013249816937337233 -0.0010175432222280971 0.0008391538668505903 0.0001783893553775062 -0.00013114406782659794 0.0 0.0
0.0 0.003775995872390767 -0.003430647615222545 0.0029932317263491716 0.000437415888873374 -0.00028270555542329976 0.0 0.0
0.0 0.008265431939510667 -0.007389326858248819 0.006774529474426175 0.0006147973838226412 -0.0005220060503184675 0.0 0.0
0.0 0.014913618375896763 -0.013169786899784344 0.012434134516044507 0.0007356523837398282 -0.0008776789885713053 0.0 0.0
0.0 0.0238814197584924 -0.020944676928088726 0.02010370520698392 0.0008409717211048054 -0.0013823488079741006 0.0 0.0
0.0 0.035166722344405 -0.03070394882445447 0.029754851649549413 0.0009490971749050614 -0.001995501487196332 0.0 0.0
0.0 0.04866683606095075 -0.04233862225815515 0.04127774233719178 0.0010608799209633716 -0.0026346595369032737 0.0 0.0
0.0 0.0639571880210367 -0.05572849732754811 0.05455386496716866 0.0011746323603794243 -0.0032704740161602535 0.0 0.0
0.0 0.08120784649237066 -0.07075363205037595 0.06946386126093361 0.0012897707894423925 -0.0039080244043969686 0.0 0.0
0.0 0.10021530528054086 -0.08724189552831141 0.08583303867691673 0.001408856851394626 -0.00451837285188539 0.0 0.0
0.0 0.12045573187975933 -0.10480080540949932 0.10326665665517118 0.0015341487543282038 -0.004988667200365049 0.0 0.0
0.0 0.14102618143218906 -0.122629325200333 0.12096493780936438 0.0016643873909685833 -0.005021803902963699 0.0 0.0
0.0 0.1603895367821177 -0.13942415426583182 0.13762920872880438 0.0017949455370274334 -0.004189405214639217 0.0 0.0
0.0 0.17632348955167668 -0.15327930249139082 0.1513441307867775 0.0019351717046132964 -0.002999631442702863 0.0 0.0
0.0 0.18516035112019322 -0.16079762626853616 0.15863743526773683 0.002160191000799256 -0.009574673035299477 0.0 0.0
0.0 0.1778817597777704 -0.15246465753094282 0.14963781016982566 0.0028268473611170967 -0.04733250636162041 0.0 0.0
0.0 0.17788175977775322 -0.15246465753092736 0.1496378101698099 0.002826847361117396 0.047332506361629764 0.0 0.0
0.0 0.18516035112014861 -0.16079762626849717 0.1586374352676981 0.002160191000798972 0.009574673035315442 0.0 0.0
0.0 0.17632348955160518 -0.15327930249132837 0.1513441307867163 0.0019351717046120686 0.0029996314427139974 0.0 0.0
0.0 0.16038953678202728 -0.13942415426575303 0.13762920872872683 0.0017949455370261918 0.004189405214637138 0.0 0.0
0.0 0.14102618143208834 -0.12262932520024579 0.12096493780927742 0.0016643873909683146 0.005021803902962595 0.0 0.0
0.0 0.12045573187965622 -0.10480080540940989 0.10326665665508217 0.0015341487543276524 0.004988667200364482 0.0 0.0
0.0 0.10021530528043744 -0.08724189552822147 0.08583303867682784 0.0014088568513935652 0.004518372851882452 0.0 0.0
0.0 0.081207846492269 -0.07075363205028751 0.06946386126084628 0.0012897707894411786 0.003908024404394607 0.0 0.0
0.0 0.06395718802093645 -0.05572849732746094 0.05455386496708238 0.0011746323603785483 0.0032704740161581007 0.0 0.0
0.0 0.0486668360608629 -0.042338622258078516 0.04127774233711625 0.0010608799209622696 0.002634659536896463 0.0 0.0
0.0 0.03516672234433103 -0.03070394882439021 0.029754851649485978 0.0009490971749042496 0.001995501487189507 0.0 0.0
0.0 0.023881419758433678 -0.020944676928037163 0.020103705206932936 0.0008409717211042261 0.0013823488079714233 0.0 0.0
0.0 0.014913618375852701 -0.013169786899745196 0.012434134516005871 0.0007356523837393153 0.0008776789885682559 0.0 0.0
0.0 0.008265431939481541 -0.007389326858222724 0.0067745294744007535 0.0006147973838219689 0.0005220060503166684 0.0 0.0
0.0 0.0037759958723764296 -0.003430647615209158 0.0029932317263367206 0.0004374158888724361 0.0002827055554221349 0.0 0.0
0.0 0.0013249816937266398 -0.001017543222222679 0.0008391538668459669 0.00017838935537671283 0.0001311440678261602 0.0 0.0
0.0 8.652710586380427e-05 -6.677074177397174e-05 5.2847582398728504e-05 1.3923159375243196e-05 1.72120222455016e-05 0.0 0.0
0.0 0.0 0.0 0.0 0.0 0.0 0.0 0.0
0.0 0.0 0.0 0.0 0.0 0.0 0.0 0.0
0.0 0.0 0.0 0.0 0.0 0.0 0.0 0.0