# vtk DataFile Version 3.0
Some data
ASCII
DATASET UNSTRUCTURED_GRID
POINTS 861 float
0.0 0.0 0.0
0.4 0.0 0.0
0.8 0.0 0.0
1.2000000000000002 0.0 0.0
1.6 0.0 0.0
2.0 0.0 0.0
2.4000000000000004 0.0 0.0
2.8000000000000003 0.0 0.0
3.2 0.0 0.0
3.6 0.0 0.0
4.0 0.0 0.0
4.4 0.0 0.0
4.800000000000001 0.0 0.0
5.2 0.0 0.0
5.6000000000000005 0.0 0.0
6.0 0.0 0.0
6.4 0.0 0.0
6.800000000000001 0.0 0.0
7.2 0.0 0.0
7.6000000000000005 0.0 0.0
8.0 0.0 0.0
8.4 0.0 0.0
8.8 0.0 0.0
9.200000000000001 0.0 0.0
9.600000000000001 0.0 0.0
10.0 0.0 0.0
10.4 0.0 0.0
10.8 0.0 0.0
11.200000000000001 0.0 0.0
11.600000000000001 0.0 0.0
12.0 0.0 0.0
12.4 0.0 0.0
12.8 0.0 0.0
13.200000000000001 0.0 0.0
13.600000000000001 0.0 0.0
14.0 0.0 0.0
14.4 0.0 0.0
14.8 0.0 0.0
15.200000000000001 0.0 0.0
15.600000000000001 0.0 0.0
16.0 0.0 0.0
0.0 0.1 0.0
0.4 0.1 0.0
0.8 0.1 0.0
1.2000000000000002 0.1 0.0
1.6 0.1 0.0
2.0 0.1 0.0
2.4000000000000004 0.1 0.0
2.8000000000000003 0.1 0.0
3.2 0.1 0.0
3.6 0.1 0.0
4.0 0.1 0.0
4.4 0.1 0.0
4.800000000000001 0.1 0.0
5.2 0.1 0.0
5.6000000000000005 0.1 0.0
6.0 0.1 0.0
6.4 0.1 0.0
6.800000000000001 0.1 0.0
7.2 0.1 0.0
7.6000000000000005 0.1 0.0
8.0 0.1 0.0
8.4 0.1 0.0
8.8 0.1 0.0
9.200000000000001 0.1 0.0
9.600000000000001 0.1 0.0
10.0 0.1 0.0
10.4 0.1 0.0
10.8 0.1 0.0
11.200000000000001 0.1 0.0
11.600000000000001 0.1 0.0
12.0 0.1 0.0
12.4 0.1 0.0
12.8 0.1 0.0
13.200000000000001 0.1 0.0
13.600000000000001 0.1 0.0
14.0 0.1 0.0
14.4 0.1 0.0
14.8 0.1 0.0
15.200000000000001 0.1 0.0
15.600000000000001 0.1 0.0
16.0 0.1 0.0
0.0 0.2 0.0
0.4 0.2 0.0
0.8 0.2 0.0
1.2000000000000002 0.2 0.0
1.6 0.2 0.0
2.0 0.2 0.0
2.4000000000000004 0.2 0.0
2.8000000000000003 0.2 0.0
3.2 0.2 0.0
3.6 0.2 0.0
4.0 0.2 0.0
4.4 0.2 0.0
4.800000000000001 0.2 0.0
5.2 0.2 0.0
5.6000000000000005 0.2 0.0
6.0 0.2 0.0
6.4 0.2 0.0
6.800000000000001 0.2 0.0
7.2 0.2 0.0
7.6000000000000005 0.2 0.0
8.0 0.2 0.0
8.4 0.2 0.0
8.8 0.2 0.0
9.200000000000001 0.2 0.0
9.600000000000001 0.2 0.0
10.0 0.2 0.0
10.4 0.2 0.0
10.8 0.2 0.0
11.200000000000001 0.2 0.0
11.600000000000001 0.2 0.0
12.0 0.2 0.0
12.4 0.2 0.0
12.8 0.2 0.0
13.200000000000001 0.2 0.0
13.600000000000001 0.2 0.0
14.0 0.2 0.0
14.4 0.2 0.0
14.8 0.2 0.0
15.200000000000001 0.2 0.0
15.600000000000001 0.2 0.0
16.0 0.2 0.0
0.0 0.30000000000000004 0.0
0.4 0.30000000000000004 0.0
0.8 0.30000000000000004 0.0
1.2000000000000002 0.30000000000000004 0.0
1.6 0.30000000000000004 0.0
2.0 0.30000000000000004 0.0
2.4000000000000004 0.30000000000000004 0.0
2.8000000000000003 0.30000000000000004 0.0
3.2 0.30000000000000004 0.0
3.6 0.30000000000000004 0.0
4.0 0.30000000000000004 0.0
4.4 0.30000000000000004 0.0
4.800000000000001 0.30000000000000004 0.0
5.2 0.30000000000000004 0.0
5.6000000000000005 0.30000000000000004 0.0
6.0 0.30000000000000004 0.0
6.4 0.30000000000000004 0.0
6.800000000000001 0.30000000000000004 0.0
7.2 0.30000000000000004 0.0
7.6000000000000005 0.30000000000000004 0.0
8.0 0.30000000000000004 0.0
8.4 0.30000000000000004 0.0
8.8 0.30000000000000004 0.0
9.200000000000001 0.30000000000000004 0.0
9.600000000000001 0.30000000000000004 0.0
10.0 0.30000000000000004 0.0
10.4 0.30000000000000004 0.0
10.8 0.30000000000000004 0.0
11.200000000000001 0.30000000000000004 0.0
11.600000000000001 0.30000000000000004 0.0
12.0 0.30000000000000004 0.0
12.4 0.30000000000000004 0.0
12.8 0.30000000000000004 0.0
13.200000000000001 0.30000000000000004 0.0
13.600000000000001 0.30000000000000004 0.0
14.0 0.30000000000000004 0.0
14.4 0.30000000000000004 0.0
14.8 0.30000000000000004 0.0
15.200000000000001 0.30000000000000004 0.0
15.600000000000001 0.30000000000000004 0.0
16.0 0.30000000000000004 0.0
0.0 0.4 0.0
0.4 0.4 0.0
0.8 0.4 0.0
1.2000000000000002 0.4 0.0
1.6 0.4 0.0
2.0 0.4 0.0
2.4000000000000004 0.4 0.0
2.8000000000000003 0.4 0.0
3.2 0.4 0.0
3.6 0.4 0.0
4.0 0.4 0.0
4.4 0.4 0.0
4.800000000000001 0.4 0.0
5.2 0.4 0.0
5.6000000000000005 0.4 0.0
6.0 0.4 0.0
6.4 0.4 0.0
6.800000000000001 0.4 0.0
7.2 0.4 0.0
7.6000000000000005 0.4 0.0
8.0 0.4 0.0
8.4 0.4 0.0
8.8 0.4 0.0
9.200000000000001 0.4 0.0
9.600000000000001 0.4 0.0
10.0 0.4 0.0
10.4 0.4 0.0
10.8 0.4 0.0
11.200000000000001 0.4 0.0
11.600000000000001 0.4 0.0
12.0 0.4 0.0
12.4 0.4 0.0
12.8 0.4 0.0
13.200000000000001 0.4 0.0
13.600000000000001 0.4 0.0
14.0 0.4 0.0
14.4 0.4 0.0
14.8 0.4 0.0
15.200000000000001 0.4 0.0
15.600000000000001 0.4 0.0
16.0 0.4 0.0
0.0 0.5 0.0
0.4 0.5 0.0
0.8 0.5 0.0
1.2000000000000002 0.5 0.0
1.6 0.5 0.0
2.0 0.5 0.0
2.4000000000000004 0.5 0.0
2.8000000000000003 0.5 0.0
3.2 0.5 0.0
3.6 0.5 0.0
4.0 0.5 0.0
4.4 0.5 0.0
4.800000000000001 0.5 0.0
5.2 0.5 0.0
5.6000000000000005 0.5 0.0
6.0 0.5 0.0
6.4 0.5 0.0
6.800000000000001 0.5 0.0
7.2 0.5 0.0
7.6000000000000005 0.5 0.0
8.0 0.5 0.0
8.4 0.5 0.0
8.8 0.5 0.0
9.200000000000001 0.5 0.0
9.600000000000001 0.5 0.0
10.0 0.5 0.0
10.4 0.5 0.0
10.8 0.5 0.0
11.200000000000001 0.5 0.0
11.600000000000001 0.5 0.0
12.0 0.5 0.0
12.4 0.5 0.0
12.8 0.5 0.0
13.200000000000001 0.5 0.0
13.600000000000001 0.5 0.0
14.0 0.5 0.0
14.4 0.5 0.0
14.8 0.5 0.0
15.200000000000001 0.5 0.0
15.600000000000001 0.5 0.0
16.0 0.5 0.0
0.0 0.6000000000000001 0.0
0.4 0.6000000000000001 0.0
0.8 0.6000000000000001 0.0
1.2000000000000002 0.6000000000000001 0.0
1.6 0.6000000000000001 0.0
2.0 0.6000000000000001 0.0
2.4000000000000004 0.6000000000000001 0.0
2.8000000000000003 0.6000000000000001 0.0
3.2 0.6000000000000001 0.0
3.6 0.6000000000000001 0.0
4.0 0.6000000000000001 0.0
4.4 0.6000000000000001 0.0
4.800000000000001 0.6000000000000001 0.0
5.2 0.6000000000000001 0.0
5.6000000000000005 0.6000000000000001 0.0
6.0 0.6000000000000001 0.0
6.4 0.6000000000000001 0.0
6.800000000000001 0.6000000000000001 0.0
7.2 0.6000000000000001 0.0
7.6000000000000005 0.6000000000000001 0.0
8.0 0.6000000000000001 0.0
8.4 0.6000000000000001 0.0
8.8 0.6000000000000001 0.0
9.200000000000001 0.6000000000000001 0.0
9.600000000000001 0.6000000000000001 0.0
10.0 0.6000000000000001 0.0
10.4 0.6000000000000001 0.0
10.8 0.6000000000000001 0.0
11.200000000000001 0.6000000000000001 0.0
11.600000000000001 0.6000000000000001 0.0
12.0 0.6000000000000001 0.0
12.4 0.6000000000000001 0.0
12.8 0.6000000000000001 0.0
13.200000000000001 0.6000000000000001 0.0
13.600000000000001 0.6000000000000001 0.0
14.0 0.6000000000000001 0.0
14.4 0.6000000000000001 0.0
14.8 0.6000000000000001 0.0
15.200000000000001 0.6000000000000001 0.0
15.600000000000001 0.6000000000000001 0.0
16.0 0.6000000000000001 0.0
0.0 0.7000000000000001 0.0
0.4 0.7000000000000001 0.0
0.8 0.7000000000000001 0.0
1.2000000000000002 0.7000000000000001 0.0
1.6 0.7000000000000001 0.0
2.0 0.7000000000000001 0.0
2.4000000000000004 0.7000000000000001 0.0
2.8000000000000003 0.7000000000000001 0.0
3.2 0.7000000000000001 0.0
3.6 0.7000000000000001 0.0
4.0 0.7000000000000001 0.0
4.4 0.7000000000000001 0.0
4.800000000000001 0.7000000000000001 0.0
5.2 0.7000000000000001 0.0
5.6000000000000005 0.7000000000000001 0.0
6.0 0.7000000000000001 0.0
6.4 0.7000000000000001 0.0
6.800000000000001 0.7000000000000001 0.0
7.2 0.7000000000000001 0.0
7.6000000000000005 0.7000000000000001 0.0
8.0 0.7000000000000001 0.0
8.4 0.7000000000000001 0.0
8.8 0.7000000000000001 0.0
9.200000000000001 0.7000000000000001 0.0
9.600000000000001 0.7000000000000001 0.0
10.0 0.7000000000000001 0.0
10.4 0.7000000000000001 0.0
10.8 0.7000000000000001 0.0
11.200000000000001 0.7000000000000001 0.0
11.600000000000001 0.7000000000000001 0.0
12.0 0.7000000000000001 0.0
12.4 0.7000000000000001 0.0
12.8 0.7000000000000001 0.0
13.200000000000001 0.7000000000000001 0.0
13.600000000000001 0.7000000000000001 0.0
14.0 0.7000000000000001 0.0
14.4 0.7000000000000001 0.0
14.8 0.7000000000000001 0.0
15.200000000000001 0.7000000000000001 0.0
15.600000000000001 0.7000000000000001 0.0
16.0 0.7000000000000001 0.0
0.0 0.8 0.0
0.4 0.8 0.0
0.8 0.8 0.0
1.2000000000000002 0.8 0.0
1.6 0.8 0.0
2.0 0.8 0.0
2.4000000000000004 0.8 0.0
2.8000000000000003 0.8 0.0
3.2 0.8 0.0
3.6 0.8 0.0
4.0 0.8 0.0
4.4 0.8 0.0
4.800000000000001 0.8 0.0
5.2 0.8 0.0
5.6000000000000005 0.8 0.0
6.0 0.8 0.0
6.4 0.8 0.0
6.800000000000001 0.8 0.0
7.2 0.8 0.0
7.6000000000000005 0.8 0.0
8.0 0.8 0.0
8.4 0.8 0.0
8.8 0.8 0.0
9.200000000000001 0.8 0.0
9.600000000000001 0.8 0.0
10.0 0.8 0.0
10.4 0.8 0.0
10.8 0.8 0.0
11.200000000000001 0.8 0.0
11.600000000000001 0.8 0.0
12.0 0.8 0.0
12.4 0.8 0.0
12.8 0.8 0.0
13.200000000000001 0.8 0.0
13.600000000000001 0.8 0.0
14.0 0.8 0.0
14.4 0.8 0.0
14.8 0.8 0.0
15.200000000000001 0.8 0.0
15.600000000000001 0.8 0.0
16.0 0.8 0.0
0.0 0.9 0.0
0.4 0.9 0.0
0.8 0.9 0.0
1.2000000000000002 0.9 0.0
1.6 0.9 0.0
2.0 0.9 0.0
2.4000000000000004 0.9 0.0
2.8000000000000003 0.9 0.0
3.2 0.9 0.0
3.6 0.9 0.0
4.0 0.9 0.0
4.4 0.9 0.0
4.800000000000001 0.9 0.0
5.2 0.9 0.0
5.6000000000000005 0.9 0.0
6.0 0.9 0.0
6.4 0.9 0.0
6.800000000000001 0.9 0.0
7.2 0.9 0.0
7.6000000000000005 0.9 0.0
8.0 0.9 0.0
8.4 0.9 0.0
8.8 0.9 0.0
9.200000000000001 0.9 0.0
9.600000000000001 0.9 0.0
10.0 0.9 0.0
10.4 0.9 0.0
10.8 0.9 0.0
11.200000000000001 0.9 0.0
11.600000000000001 0.9 0.0
12.0 0.9 0.0
12.4 0.9 0.0
12.8 0.9 0.0
13.200000000000001 0.9 0.0
13.600000000000001 0.9 0.0
14.0 0.9 0.0
14.4 0.9 0.0
14.8 0.9 0.0
15.200000000000001 0.9 0.0
15.600000000000001 0.9 0.0
16.0 0.9 0.0
0.0 1.0 0.0
0.4 1.0 0.0
0.8 1.0 0.0
1.2000000000000002 1.0 0.0
1.6 1.0 0.0
2.0 1.0 0.0
2.4000000000000004 1.0 0.0
2.8000000000000003 1.0 0.0
3.2 1.0 0.0
3.6 1.0 0.0
4.0 1.0 0.0
4.4 1.0 0.0
4.800000000000001 1.0 0.0
5.2 1.0 0.0
5.6000000000000005 1.0 0.0
6.0 1.0 0.0
6.4 1.0 0.0
6.800000000000001 1.0 0.0
7.2 1.0 0.0
7.6000000000000005 1.0 0.0
8.0 1.0 0.0
8.4 1.0 0.0
8.8 1.0 0.0
9.200000000000001 1.0 0.0
9.600000000000001 1.0 0.0
10.0 1.0 0.0
10.4 1.0 0.0
10.8 1.0 0.0
11.200000000000001 1.0 0.0
11.600000000000001 1.0 0.0
12.0 1.0 0.0
12.4 1.0 0.0
12.8 1.0 0.0
13.200000000000001 1.0 0.0
13.600000000000001 1.0 0.0
14.0 1.0 0.0
14.4 1.0 0.0
14.8 1.0 0.0
15.200000000000001 1.0 0.0
15.600000000000001 1.0 0.0
16.0 1.0 0.0
0.0 1.1 0.0
0.4 1.1 0.0
0.8 1.1 0.0
1.2000000000000002 1.1 0.0
1.6 1.1 0.0
2.0 1.1 0.0
2.4000000000000004 1.1 0.0
2.8000000000000003 1.1 0.0
3.2 1.1 0.0
3.6 1.1 0.0
4.0 1.1 0.0
4.4 1.1 0.0
4.800000000000001 1.1 0.0
5.2 1.1 0.0
5.6000000000000005 1.1 0.0
6.0 1.1 0.0
6.4 1.1 0.0
6.800000000000001 1.1 0.0
7.2 1.1 0.0
7.6000000000000005 1.1 0.0
8.0 1.1 0.0
8.4 1.1 0.0
8.8 1.1 0.0
9.200000000000001 1.1 0.0
9.600000000000001 1.1 0.0
10.0 1.1 0.0
10.4 1.1 0.0
10.8 1.1 0.0
11.200000000000001 1.1 0.0
11.600000000000001 1.1 0.0
12.0 1.1 0.0
12.4 1.1 0.0
12.8 1.1 0.0
13.200000000000001 1.1 0.0
13.600000000000001 1.1 0.0
14.0 1.1 0.0
14.4 1.1 0.0
14.8 1.1 0.0
15.200000000000001 1.1 0.0
15.600000000000001 1.1 0.0
16.0 1.1 0.0
0.0 1.2000000000000002 0.0
0.4 1.2000000000000002 0.0
0.8 1.2000000000000002 0.0
1.2000000000000002 1.2000000000000002 0.0
1.6 1.2000000000000002 0.0
2.0 1.2000000000000002 0.0
2.4000000000000004 1.2000000000000002 0.0
2.8000000000000003 1.2000000000000002 0.0
3.2 1.2000000000000002 0.0
3.6 1.2000000000000002 0.0
4.0 1.2000000000000002 0.0
4.4 1.2000000000000002 0.0
4.800000000000001 1.2000000000000002 0.0
5.2 1.2000000000000002 0.0
5.6000000000000005 1.2000000000000002 0.0
6.0 1.2000000000000002 0.0
6.4 1.2000000000000002 0.0
6.800000000000001 1.2000000000000002 0.0
7.2 1.2000000000000002 0.0
7.6000000000000005 1.2000000000000002 0.0
8.0 1.2000000000000002 0.0
8.4 1.2000000000000002 0.0
8.8 1.2000000000000002 0.0
9.200000000000001 1.2000000000000002 0.0
9.600000000000001 1.2000000000000002 0.0
10.0 1.2000000000000002 0.0
10.4 1.2000000000000002 0.0
10.8 1.2000000000000002 0.0
11.200000000000001 1.2000000000000002 0.0
11.600000000000001 1.2000000000000002 0.0
12.0 1.2000000000000002 0.0
12.4 1.2000000000000002 0.0
12.8 1.2000000000000002 0.0
13.200000000000001 1.2000000000000002 0.0
13.600000000000001 1.2000000000000002 0.0
14.0 1.2000000000000002 0.0
14.4 1.2000000000000002 0.0
14.8 1.2000000000000002 0.0
15.200000000000001 1.2000000000000002 0.0
15.600000000000001 1.2000000000000002 0.0
16.0 1.2000000000000002 0.0
0.0 1.3 0.0
0.4 1.3 0.0
0.8 1.3 0.0
1.2000000000000002 1.3 0.0
1.6 1.3 0.0
2.0 1.3 0.0
2.4000000000000004 1.3 0.0
2.8000000000000003 1.3 0.0
3.2 1.3 0.0
3.6 1.3 0.0
4.0 1.3 0.0
4.4 1.3 0.0
4.800000000000001 1.3 0.0
5.2 1.3 0.0
5.6000000000000005 1.3 0.0
6.0 1.3 0.0
6.4 1.3 0.0
6.800000000000001 1.3 0.0
7.2 1.3 0.0
7.6000000000000005 1.3 0.0
8.0 1.3 0.0
8.4 1.3 0.0
8.8 1.3 0.0
9.200000000000001 1.3 0.0
9.600000000000001 1.3 0.0
10.0 1.3 0.0
10.4 1.3 0.0
10.8 1.3 0.0
11.200000000000001 1.3 0.0
11.600000000000001 1.3 0.0
12.0 1.3 0.0
12.4 1.3 0.0
12.8 1.3 0.0
13.200000000000001 1.3 0.0
13.600000000000001 1.3 0.0
14.0 1.3 0.0
14.4 1.3 0.0
14.8 1.3 0.0
15.200000000000001 1.3 0.0
15.600000000000001 1.3 0.0
16.0 1.3 0.0
0.0 1.4000000000000001 0.0
0.4 1.4000000000000001 0.0
0.8 1.4000000000000001 0.0
1.2000000000000002 1.4000000000000001 0.0
1.6 1.4000000000000001 0.0
2.0 1.4000000000000001 0.0
2.4000000000000004 1.4000000000000001 0.0
2.8000000000000003 1.4000000000000001 0.0
3.2 1.4000000000000001 0.0
3.6 1.4000000000000001 0.0
4.0 1.4000000000000001 0.0
4.4 1.4000000000000001 0.0
4.800000000000001 1.4000000000000001 0.0
5.2 1.4000000000000001 0.0
5.6000000000000005 1.4000000000000001 0.0
6.0 1.4000000000000001 0.0
6.4 1.4000000000000001 0.0
6.800000000000001 1.4000000000000001 0.0
7.2 1.4000000000000001 0.0
7.6000000000000005 1.4000000000000001 0.0
8.0 1.4000000000000001 0.0
8.4 1.4000000000000001 0.0
8.8 1.4000000000000001 0.0
9.200000000000001 1.4000000000000001 0.0
9.600000000000001 1.4000000000000001 0.0
10.0 1.4000000000000001 0.0
10.4 1.4000000000000001 0.0
10.8 1.4000000000000001 0.0
11.200000000000001 1.4000000000000001 0.0
11.600000000000001 1.4000000000000001 0.0
12.0 1.4000000000000001 0.0
12.4 1.4000000000000001 0.0
12.8 1.4000000000000001 0.0
13.200000000000001 1.4000000000000001 0.0
13.600000000000001 1.4000000000000001 0.0
14.0 1.4000000000000001 0.0
14.4 1.4000000000000001 0.0
14.8 1.4000000000000001 0.0
15.200000000000001 1.4000000000000001 0.0
15.600000000000001 1.4000000000000001 0.0
16.0 1.4000000000000001 0.0
0.0 1.5 0.0
0.4 1.5 0.0
0.8 1.5 0.0
1.2000000000000002 1.5 0.0
1.6 1.5 0.0
2.0 1.5 0.0
2.4000000000000004 1.5 0.0
2.8000000000000003 1.5 0.0
3.2 1.5 0.0
3.6 1.5 0.0
4.0 1.5 0.0
4.4 1.5 0.0
4.800000000000001 1.5 0.0
5.2 1.5 0.0
5.6000000000000005 1.5 0.0
6.0 1.5 0.0
6.4 1.5 0.0
6.800000000000001 1.5 0.0
7.2 1.5 0.0
7.6000000000000005 1.5 0.0
8.0 1.5 0.0
8.4 1.5 0.0
8.8 1.5 0.0
9.200000000000001 1.5 0.0
9.600000000000001 1.5 0.0
10.0 1.5 0.0
10.4 1.5 0.0
10.8 1.5 0.0
11.200000000000001 1.5 0.0
11.600000000000001 1.5 0.0
12.0 1.5 0.0
12.4 1.5 0.0
12.8 1.5 0.0
13.200000000000001 1.5 0.0
13.600000000000001 1.5 0.0
14.0 1.5 0.0
14.4 1.5 0.0
14.8 1.5 0.0
15.200000000000001 1.5 0.0
15.600000000000001 1.5 0.0
16.0 1.5 0.0
0.0 1.6 0.0
0.4 1.6 0.0
0.8 1.6 0.0
1.2000000000000002 1.6 0.0
1.6 1.6 0.0
2.0 1.6 0.0
2.4000000000000004 1.6 0.0
2.8000000000000003 1.6 0.0
3.2 1.6 0.0
3.6 1.6 0.0
4.0 1.6 0.0
4.4 1.6 0.0
4.800000000000001 1.6 0.0
5.2 1.6 0.0
5.6000000000000005 1.6 0.0
6.0 1.6 0.0
6.4 1.6 0.0
6.800000000000001 1.6 0.0
7.2 1.6 0.0
7.6000000000000005 1.6 0.0
8.0 1.6 0.0
8.4 1.6 0.0
8.8 1.6 0.0
9.200000000000001 1.6 0.0
9.600000000000001 1.6 0.0
10.0 1.6 0.0
10.4 1.6 0.0
10.8 1.6 0.0
11.200000000000001 1.6 0.0
11.600000000000001 1.6 0.0
12.0 1.6 0.0
12.4 1.6 0.0
12.8 1.6 0.0
13.200000000000001 1.6 0.0
13.600000000000001 1.6 0.0
14.0 1.6 0.0
14.4 1.6 0.0
14.8 1.6 0.0
15.200000000000001 1.6 0.0
15.600000000000001 1.6 0.0
16.0 1.6 0.0
0.0 1.7000000000000002 0.0
0.4 1.7000000000000002 0.0
0.8 1.7000000000000002 0.0
1.2000000000000002 1.7000000000000002 0.0
1.6 1.7000000000000002 0.0
2.0 1.7000000000000002 0.0
2.4000000000000004 1.7000000000000002 0.0
2.8000000000000003 1.7000000000000002 0.0
3.2 1.7000000000000002 0.0
3.6 1.7000000000000002 0.0
4.0 1.7000000000000002 0.0
4.4 1.7000000000000002 0.0
4.800000000000001 1.7000000000000002 0.0
5.2 1.7000000000000002 0.0
5.6000000000000005 1.7000000000000002 0.0
6.0 1.7000000000000002 0.0
6.4 1.7000000000000002 0.0
6.800000000000001 1.7000000000000002 0.0
7.2 1.7000000000000002 0.0
7.6000000000000005 1.7000000000000002 0.0
8.0 1.7000000000000002 0.0
8.4 1.7000000000000002 0.0
8.8 1.7000000000000002 0.0
9.200000000000001 1.7000000000000002 0.0
9.600000000000001 1.7000000000000002 0.0
10.0 1.7000000000000002 0.0
10.4 1.7000000000000002 0.0
10.8 1.7000000000000002 0.0
11.200000000000001 1.7000000000000002 0.0
11.600000000000001 1.7000000000000002 0.0
12.0 1.7000000000000002 0.0
12.4 1.7000000000000002 0.0
12.8 1.7000000000000002 0.0
13.200000000000001 1.7000000000000002 0.0
13.600000000000001 1.7000000000000002 0.0
14.0 1.7000000000000002 0.0
14.4 1.7000000000000002 0.0
14.8 1.7000000000000002 0.0
15.200000000000001 1.7000000000000002 0.0
15.600000000000001 1.7000000000000002 0.0
16.0 1.7000000000000002 0.0
0.0 1.8 0.0
0.4 1.8 0.0
0.8 1.8 0.0
1.2000000000000002 1.8 0.0
1.6 1.8 0.0
2.0 1.8 0.0
2.4000000000000004 1.8 0.0
2.8000000000000003 1.8 0.0
3.2 1.8 0.0
3.6 1.8 0.0
4.0 1.8 0.0
4.4 1.8 0.0
4.800000000000001 1.8 0.0
5.2 1.8 0.0
5.6000000000000005 1.8 0.0
6.0 1.8 0.0
6.4 1.8 0.0
6.800000000000001 1.8 0.0
7.2 1.8 0.0
7.6000000000000005 1.8 0.0
8.0 1.8 0.0
8.4 1.8 0.0
8.8 1.8 0.0
9.200000000000001 1.8 0.0
9.600000000000001 1.8 0.0
10.0 1.8 0.0
10.4 1.8 0.0
10.8 1.8 0.0
11.200000000000001 1.8 0.0
11.600000000000001 1.8 0.0
12.0 1.8 0.0
12.4 1.8 0.0
12.8 1.8 0.0
13.200000000000001 1.8 0.0
13.600000000000001 1.8 0.0
14.0 1.8 0.0
14.4 1.8 0.0
14.8 1.8 0.0
15.200000000000001 1.8 0.0
15.600000000000001 1.8 0.0
16.0 1.8 0.0
0.0 1.9000000000000001 0.0
0.4 1.9000000000000001 0.0
0.8 1.9000000000000001 0.0
1.2000000000000002 1.9000000000000001 0.0
1.6 1.9000000000000001 0.0
2.0 1.9000000000000001 0.0
2.4000000000000004 1.9000000000000001 0.0
2.8000000000000003 1.9000000000000001 0.0
3.2 1.9000000000000001 0.0
3.6 1.9000000000000001 0.0
4.0 1.9000000000000001 0.0
4.4 1.9000000000000001 0.0
4.800000000000001 1.9000000000000001 0.0
5.2 1.9000000000000001 0.0
5.6000000000000005 1.9000000000000001 0.0
6.0 1.9000000000000001 0.0
6.4 1.9000000000000001 0.0
6.800000000000001 1.9000000000000001 0.0
7.2 1.9000000000000001 0.0
7.6000000000000005 1.9000000000000001 0.0
8.0 1.9000000000000001 0.0
8.4 1.9000000000000001 0.0
8.8 1.9000000000000001 0.0
9.200000000000001 1.9000000000000001 0.0
9.600000000000001 1.9000000000000001 0.0
10.0 1.9000000000000001 0.0
10.4 1.9000000000000001 0.0
10.8 1.9000000000000001 0.0
11.200000000000001 1.9000000000000001 0.0
11.600000000000001 1.9000000000000001 0.0
12.0 1.9000000000000001 0.0
12.4 1.9000000000000001 0.0
12.8 1.9000000000000001 0.0
13.200000000000001 1.9000000000000001 0.0
13.600000000000001 1.9000000000000001 0.0
14.0 1.9000000000000001 0.0
14.4 1.9000000000000001 0.0
14.8 1.9000000000000001 0.0
15.200000000000001 1.9000000000000001 0.0
15.600000000000001 1.9000000000000001 0.0
16.0 1.9000000000000001 0.0
0.0 2.0 0.0
0.4 2.0 0.0
0.8 2.0 0.0
1.2000000000000002 2.0 0.0
1.6 2.0 0.0
2.0 2.0 0.0
2.4000000000000004 2.0 0.0
2.8000000000000003 2.0 0.0
3.2 2.0 0.0
3.6 2.0 0.0
4.0 2.0 0.0
4.4 2.0 0.0
4.800000000000001 2.0 0.0
5.2 2.0 0.0
5.6000000000000005 2.0 0.0
6.0 2.0 0.0
6.4 2.0 0.0
6.800000000000001 2.0 0.0
7.2 2.0 0.0
7.6000000000000005 2.0 0.0
8.0 2.0 0.0
8.4 2.0 0.0
8.8 2.0 0.0
9.200000000000001 2.0 0.0
9.600000000000001 2.0 0.0
10.0 2.0 0.0
10.4 2.0 0.0
10.8 2.0 0.0
11.200000000000001 2.0 0.0
11.600000000000001 2.0 0.0
12.0 2.0 0.0
12.4 2.0 0.0
12.8 2.0 0.0
13.200000000000001 2.0 0.0
13.600000000000001 2.0 0.0
14.0 2.0 0.0
14.4 2.0 0.0
14.8 2.0 0.0
15.200000000000001 2.0 0.0
15.600000000000001 2.0 0.0
16.0 2.0 0.0
CELLS 800 4000
4 0 1 42 41
4 1 2 43 42
4 2 3 44 43
4 3 4 45 44
4 4 5 46 45
4 5 6 47 46
4 6 7 48 47
4 7 8 49 48
4 8 9 50 49
4 9 10 51 50
4 10 11 52 51
4 11 12 53 52
4 12 13 54 53
4 13 14 55 54
4 14 15 56 55
4 15 16 57 56
4 16 17 58 57
4 17 18 59 58
4 18 19 60 59
4 19 20 61 60
4 20 21 62 61
4 21 22 63 62
4 22 23 64 63
4 23 24 65 64
4 24 25 66 65
4 25 26 67 66
4 26 27 68 67
4 27 28 69 68
4 28 29 70 69
4 29 30 71 70
4 30 31 72 71
4 31 32 73 72
4 32 33 74 73
4 33 34 75 74
4 34 35 76 75
4 35 36 77 76
4 36 37 78 77
4 37 38 79 78
4 38 39 80 79
4 39 40 81 80
4 41 42 83 82
4 42 43 84 83
4 43 44 85 84
4 44 45 86 85
4 45 46 87 86
4 46 47 88 87
4 47 48 89 88
4 48 49 90 89
4 49 50 91 90
4 50 51 92 91
4 51 52 93 92
4 52 53 94 93
4 53 54 95 94
4 54 55 96 95
4 55 56 97 96
4 56 57 98 97
4 57 58 99 98
4 58 59 100 99
4 59 60 101 100
4 60 61 102 101
4 61 62 103 102
4 62 63 104 103
4 63 64 105 104
4 64 65 106 105
4 65 66 107 106
4 66 67 108 107
4 67 68 109 108
4 68 69 110 109
4 69 70 111 110
4 70 71 112 111
4 71 72 113 112
4 72 73 114 113
4 73 74 115 114
4 74 75 116 115
4 75 76 117 116
4 76 77 118 117
4 77 78 119 118
4 78 79 120 119
4 79 80 121 120
4 80 81 122 121
4 82 83 124 123
4 83 84 125 124
4 84 85 126 125
4 85 86 127 126
4 86 87 128 127
4 87 88 129 128
4 88 89 130 129
4 89 90 131 130
4 90 91 132 131
4 91 92 133 132
4 92 93 134 133
4 93 94 135 134
4 94 95 136 135
4 95 96 137 136
4 96 97 138 137
4 97 98 139 138
4 98 99 140 139
4 99 100 141 140
4 100 101 142 141
4 101 102 143 142
4 102 103 144 143
4 103 104 145 144
4 104 105 146 145
4 105 106 147 146
4 106 107 148 147
4 107 108 149 148
4 108 109 150 149
4 109 110 151 150
4 110 111 152 151
4 111 112 153 152
4 112 113 154 153
4 113 114 155 154
4 114 115 156 155
4 115 116 157 156
4 116 117 158 157
4 117 118 159 158
4 118 119 160 159
4 119 120 161 160
4 120 121 162 161
4 121 122 163 162
4 123 124 165 164
4 124 125 166 165
4 125 126 167 166
4 126 127 168 167
4 127 128 169 168
4 128 129 170 169
4 129 130 171 170
4 130 131 172 171
4 131 132 173 172
4 132 133 174 173
4 133 134 175 174
4 134 135 176 175
4 135 136 177 176
4 136 137 178 177
4 137 138 179 178
4 138 139 180 179
4 139 140 181 180
4 140 141 182 181
4 141 142 183 182
4 142 143 184 183
4 143 144 185 184
4 144 145 186 185
4 145 146 187 186
4 146 147 188 187
4 147 148 189 188
4 148 149 190 189
4 149 150 191 190
4 150 151 192 191
4 151 152 193 192
4 152 153 194 193
4 153 154 195 194
4 154 155 196 195
4 155 156 197 196
4 156 157 198 197
4 157 158 199 198
4 158 159 200 199
4 159 160 201 200
4 160 161 202 201
4 161 162 203 202
4 162 163 204 203
4 164 165 206 205
4 165 166 207 206
4 166 167 208 207
4 167 168 209 208
4 168 169 210 209
4 169 170 211 210
4 170 171 212 211
4 171 172 213 212
4 172 173 214 213
4 173 174 215 214
4 174 175 216 215
4 175 176 217 216
4 176 177 218 217
4 177 178 219 218
4 178 179 220 219
4 179 180 221 220
4 180 181 222 221
4 181 182 223 222
4 182 183 224 223
4 183 184 225 224
4 184 185 226 225
4 185 186 227 226
4 186 187 228 227
4 187 188 229 228
4 188 189 230 229
4 189 190 231 230
4 190 191 232 231
4 191 192 233 232
4 192 193 234 233
4 193 194 235 234
4 194 195 236 235
4 195 196 237 236
4 196 197 238 237
4 197 198 239 238
4 198 199 240 239
4 199 200 241 240
4 200 201 242 241
4 201 202 243 242
4 202 203 244 243
4 203 204 245 244
4 205 206 247 246
4 206 207 248 247
4 207 208 249 248
4 208 209 250 249
4 209 210 251 250
4 210 211 252 251
4 211 212 253 252
4 212 213 254 253
4 213 214 255 254
4 214 215 256 255
4 215 216 257 256
4 216 217 258 257
4 217 218 259 258
4 218 219 260 259
4 219 220 261 260
4 220 221 262 261
4 221 222 263 262
4 222 223 264 263
4 223 224 265 264
4 224 225 266 265
4 225 226 267 266
4 226 227 268 267
4 227 228 269 268
4 228 229 270 269
4 229 230 271 270
4 230 231 272 271
4 231 232 273 272
4 232 233 274 273
4 233 234 275 274
4 234 235 276 275
4 235 236 277 276
4 236 237 278 277
4 237 238 279 278
4 238 239 280 279
4 239 240 281 280
4 240 241 282 281
4 241 242 283 282
4 242 243 284 283
4 243 244 285 284
4 244 245 286 285
4 246 247 288 287
4 247 248 289 288
4 248 249 290 289
4 249 250 291 290
4 250 251 292 291
4 251 252 293 292
4 252 253 294 293
4 253 254 295 294
4 254 255 296 295
4 255 256 297 296
4 256 257 298 297
4 257 258 299 298
4 258 259 300 299
4 259 260 301 300
4 260 261 302 301
4 261 262 303 302
4 262 263 304 303
4 263 264 305 304
4 264 265 306 305
4 265 266 307 306
4 266 267 308 307
4 267 268 309 308
4 268 269 310 309
4 269 270 311 310
4 270 271 312 311
4 271 272 313 312
4 272 273 314 313
4 273 274 315 314
4 274 275 316 315
4 275 276 317 316
4 276 277 318 317
4 277 278 319 318
4 278 279 320 319
4 279 280 321 320
4 280 281 322 321
4 281 282 323 322
4 282 283 324 323
4 283 284 325 324
4 284 285 326 325
4 285 286 327 326
4 287 288 329 328
4 288 289 330 329
4 289 290 331 330
4 290 291 332 331
4 291 292 333 332
4 292 293 334 333
4 293 294 335 334
4 294 295 336 335
4 295 296 337 336
4 296 297 338 337
4 297 298 339 338
4 298 299 340 339
4 299 300 341 340
4 300 301 342 341
4 301 302 343 342
4 302 303 344 343
4 303 304 345 344
4 304 305 346 345
4 305 306 347 346
4 306 307 348 347
4 307 308 349 348
4 308 309 350 349
4 309 310 351 350
4 310 311 352 351
4 311 312 353 352
4 312 313 354 353
4 313 314 355 354
4 314 315 356 355
4 315 316 357 356
4 316 317 358 357
4 317 318 359 358
4 318 319 360 359
4 319 320 361 360
4 320 321 362 361
4 321 322 363 362
4 322 323 364 363
4 323 324 365 364
4 324 325 366 365
4 325 326 367 366
4 326 327 368 367
4 328 329 370 369
4 329 330 371 370
4 330 331 372 371
4 331 332 373 372
4 332 333 374 373
4 333 334 375 374
4 334 335 376 375
4 335 336 377 376
4 336 337 378 377
4 337 338 379 378
4 338 339 380 379
4 339 340 381 380
4 340 341 382 381
4 341 342 383 382
4 342 343 384 383
4 343 344 385 384
4 344 345 386 385
4 345 346 387 386
4 346 347 388 387
4 347 348 389 388
4 348 349 390 389
4 349 350 391 390
4 350 351 392 391
4 351 352 393 392
4 352 353 394 393
4 353 354 395 394
4 354 355 396 395
4 355 356 397 396
4 356 357 398 397
4 357 358 399 398
4 358 359 400 399
4 359 360 401 400
4 360 361 402 401
4 361 362 403 402
4 362 363 404 403
4 363 364 405 404
4 364 365 406 405
4 365 366 407 406
4 366 367 408 407
4 367 368 409 408
4 369 370 411 410
4 370 371 412 411
4 371 372 413 412
4 372 373 414 413
4 373 374 415 414
4 374 375 416 415
4 375 376 417 416
4 376 377 418 417
4 377 378 419 418
4 378 379 420 419
4 379 380 421 420
4 380 381 422 421
4 381 382 423 422
4 382 383 424 423
4 383 384 425 424
4 384 385 426 425
4 385 386 427 426
4 386 387 428 427
4 387 388 429 428
4 388 389 430 429
4 389 390 431 430
4 390 391 432 431
4 391 392 433 432
4 392 393 434 433
4 393 394 435 434
4 394 395 436 435
4 395 396 437 436
4 396 397 438 437
4 397 398 439 438
4 398 399 440 439
4 399 400 441 440
4 400 401 442 441
4 401 402 443 442
4 402 403 444 443
4 403 404 445 444
4 404 405 446 445
4 405 406 447 446
4 406 407 448 447
4 407 408 449 448
4 408 409 450 449
4 410 411 452 451
4 411 412 453 452
4 412 413 454 453
4 413 414 455 454
4 414 415 456 455
4 415 416 457 456
4 416 417 458 457
4 417 418 459 458
4 418 419 460 459
4 419 420 461 460
4 420 421 462 461
4 421 422 463 462
4 422 423 464 463
4 423 424 465 464
4 424 425 466 465
4 425 426 467 466
4 426 427 468 467
4 427 428 469 468
4 428 429 470 469
4 429 430 471 470
4 430 431 472 471
4 431 432 473 472
4 432 433 474 473
4 433 434 475 474
4 434 435 476 475
4 435 436 477 476
4 436 437 478 477
4 437 438 479 478
4 438 439 480 479
4 439 440 481 480
4 440 441 482 481
4 441 442 483 482
4 442 443 484 483
4 443 444 485 484
4 444 445 486 485
4 445 446 487 486
4 446 447 488 487
4 447 448 489 488
4 448 449 490 489
4 449 450 491 490
4 451 452 493 492
4 452 453 494 493
4 453 454 495 494
4 454 455 496 495
4 455 456 497 496
4 456 457 498 497
4 457 458 499 498
4 458 459 500 499
4 459 460 501 500
4 460 461 502 501
4 461 462 503 502
4 462 463 504 503
4 463 464 505 504
4 464 465 506 505
4 465 466 507 506
4 466 467 508 507
4 467 468 509 508
4 468 469 510 509
4 469 470 511 510
4 470 471 512 511
4 471 472 513 512
4 472 473 514 513
4 473 474 515 514
4 474 475 516 515
4 475 476 517 516
4 476 477 518 517
4 477 478 519 518
4 478 479 520 519
4 479 480 521 520
4 480 481 522 521
4 481 482 523 522
4 482 483 524 523
4 483 484 525 524
4 484 485 526 525
4 485 486 527 526
4 486 487 528 527
4 487 488 529 528
4 488 489 530 529
4 489 490 531 530
4 490 491 532 531
4 492 493 534 533
4 493 494 535 534
4 494 495 536 535
4 495 496 537 536
4 496 497 538 537
4 497 498 539 538
4 498 499 540 539
4 499 500 541 540
4 500 501 542 541
4 501 502 543 542
4 502 503 544 543
4 503 504 545 544
4 504 505 546 545
4 505 506 547 546
4 506 507 548 547
4 507 508 549 548
4 508 509 550 549
4 509 510 551 550
4 510 511 552 551
4 511 512 553 552
4 512 513 554 553
4 513 514 555 554
4 514 515 556 555
4 515 516 557 556
4 516 517 558 557
4 517 518 559 558
4 518 519 560 559
4 519 520 561 560
4 520 521 562 561
4 521 522 563 562
4 522 523 564 563
4 523 524 565 564
4 524 525 566 565
4 525 526 567 566
4 526 527 568 567
4 527 528 569 568
4 528 529 570 569
4 529 530 571 570
4 530 531 572 571
4 531 532 573 572
4 533 534 575 574
4 534 535 576 575
4 535 536 577 576
4 536 537 578 577
4 537 538 579 578
4 538 539 580 579
4 539 540 581 580
4 540 541 582 581
4 541 542 583 582
4 542 543 584 583
4 543 544 585 584
4 544 545 586 585
4 545 546 587 586
4 546 547 588 587
4 547 548 589 588
4 548 549 590 589
4 549 550 591 590
4 550 551 592 591
4 551 552 593 592
4 552 553 594 593
4 553 554 595 594
4 554 555 596 595
4 555 556 597 596
4 556 557 598 597
4 557 558 599 598
4 558 559 600 599
4 559 560 601 600
4 560 561 602 601
4 561 562 603 602
4 562 563 604 603
4 563 564 605 604
4 564 565 606 605
4 565 566 607 606
4 566 567 608 607
4 567 568 609 608
4 568 569 610 609
4 569 570 611 610
4 570 571 612 611
4 571 572 613 612
4 572 573 614 613
4 574 575 616 615
4 575 576 617 616
4 576 577 618 617
4 577 578 619 618
4 578 579 620 619
4 579 580 621 620
4 580 581 622 621
4 581 582 623 622
4 582 583 624 623
4 583 584 625 624
4 584 585 626 625
4 585 586 627 626
4 586 587 628 627
4 587 588 629 628
4 588 589 630 629
4 589 590 631 630
4 590 591 632 631
4 591 592 633 632
4 592 593 634 633
4 593 594 635 634
4 594 595 636 635
4 595 596 637 636
4 596 597 638 637
4 597 598 639 638
4 598 599 640 639
4 599 600 641 640
4 600 601 642 641
4 601 602 643 642
4 602 603 644 643
4 603 604 645 644
4 604 605 646 645
4 605 606 647 646
4 606 607 648 647
4 607 608 649 648
4 608 609 650 649
4 609 610 651 650
4 610 611 652 651
4 611 612 653 652
4 612 613 654 653
4 613 614 655 654
4 615 616 657 656
4 616 617 658 657
4 617 618 659 658
4 618 619 660 659
4 619 620 661 660
4 620 621 662 661
4 621 622 663 662
4 622 623 664 663
4 623 624 665 664
4 624 625 666 665
4 625 626 667 666
4 626 627 668 667
4 627 628 669 668
4 628 629 670 669
4 629 630 671 670
4 630 631 672 671
4 631 632 673 672
4 632 633 674 673
4 633 634 675 674
4 634 635 676 675
4 635 636 677 676
4 636 637 678 677
4 637 638 679 678
4 638 639 680 679
4 639 640 681 680
4 640 641 682 681
4 641 642 683 682
4 642 643 684 683
4 643 644 685 684
4 644 645 686 685
4 645 646 687 686
4 646 647 688 687
4 647 648 689 688
4 648 649 690 689
4 649 650 691 690
4 650 651 692 691
4 651 652 693 692
4 652 653 694 693
4 653 654 695 694
4 654 655 696 695
4 656 657 698 697
4 657 658 699 698
4 658 659 700 699
4 659 660 701 700
4 660 661 702 701
4 661 662 703 702
4 662 663 704 703
4 663 664 705 704
4 664 665 706 705
4 665 666 707 706
4 666 667 708 707
4 667 668 709 708
4 668 669 710 709
4 669 670 711 710
4 670 671 712 711
4 671 672 713 712
4 672 673 714 713
4 673 674 715 714
4 674 675 716 715
4 675 676 717 716
4 676 677 718 717
4 677 678 719 718
4 678 679 720 719
4 679 680 721 720
4 680 681 722 721
4 681 682 723 722
4 682 683 724 723
4 683 684 725 724
4 684 685 726 725
4 685 686 727 726
4 686 687 728 727
4 687 688 729 728
4 688 689 730 729
4 689 690 731 730
4 690 691 732 731
4 691 692 733 732
4 692 693 734 733
4 693 694 735 734
4 694 695 736 735
4 695 696 737 736
4 697 698 739 738
4 698 699 740 739
4 699 700 741 740
4 700 701 742 741
4 701 702 743 742
4 702 703 744 743
4 703 704 745 744
4 704 705 746 745
4 705 706 747 746
4 706 707 748 747
4 707 708 749 748
4 708 709 750 749
4 709 710 751 750
4 710 711 752 751
4 711 712 753 752
4 712 713 754 753
4 713 714 755 754
4 714 715 756 755
4 715 716 757 756
4 716 717 758 757
4 717 718 759 758
4 718 719 760 759
4 719 720 761 760
4 720 721 762 761
4 721 722 763 762
4 722 723 764 763
4 723 724 765 764
4 724 725 766 765
4 725 726 767 766
4 726 727 768 767
4 727 728 769 768
4 728 729 770 769
4 729 730 771 770
4 730 731 772 771
4 731 732 773 772
4 732 733 774 773
4 733 734 775 774
4 734 735 776 775
4 735 736 777 776
4 736 737 778 777
4 738 739 780 779
4 739 740 781 780
4 740 741 782 781
4 741 742 783 782
4 742 743 784 783
4 743 744 785 784
4 744 745 786 785
4 745 746 787 786
4 746 747 788 787
4 747 748 789 788
4 748 749 790 789
4 749 750 791 790
4 750 751 792 791
4 751 752 793 792
4 752 753 794 793
4 753 754 795 794
4 754 755 796 795
4 755 756 797 796
4 756 757 798 797
4 757 758 799 798
4 758 759 800 799
4 759 760 801 800
4 760 761 802 801
4 761 762 803 802
4 762 763 804 803
4 763 764 805 804
4 764 765 806 805
4 765 766 807 806
4 766 767 808 807
4 767 768 809 808
4 768 769 810 809
4 769 770 811 810
4 770 771 812 811
4 771 772 813 812
4 772 773 814 813
4 773 774 815 814
4 774 775 816 815
4 775 776 817 816
4 776 777 818 817
4 777 778 819 818
4 779 780 821 820
4 780 781 822 821
4 781 782 823 822
4 782 783 824 823
4 783 784 825 824
4 784 785 826 825
4 785 786 827 826
4 786 787 828 827
4 787 788 829 828
4 788 789 830 829
4 789 790 831 830
4 790 791 832 831
4 791 792 833 832
4 792 793 834 833
4 793 794 835 834
4 794 795 836 835
4 795 796 837 836
4 796 797 838 837
4 797 798 839 838
4 798 799 840 839
4 799 800 841 840
4 800 801 842 841
4 801 802 843 842
4 802 803 844 843
4 803 804 845 844
4 804 805 846 845
4 805 806 847 846
4 806 807 848 847
4 807 808 849 848
4 808 809 850 849
4 809 810 851 850
4 810 811 852 851
4 811 812 853 852
4 812 813 854 853
4 813 814 855 854
4 814 815 856 855
4 815 816 857 856
4 816 817 858 857
4 817 818 859 858
4 818 819 860 859
CELL_TYPES 800
9
9
9
9
9
9
9
9
9
9
9
9
9
9
9
9
9
9
9
9
9
9
9
9
9
9
9
9
9
9
9
9
9
9
9
9
9
9
9
9
9
9
9
9
9
9
9
9
9
9
9
9
9
9
9
9
9
9
9
9
9
9
9
9
9
9
9
9
9
9
9
9
9
9
9
9
9
9
9
9
9
9
9
9
9
9
9
9
9
9
9
9
9
9
9
9
9
9
9
9
9
9
9
9
9
9
9
9
9
9
9
9
9
9
9
9
9
9
9
9
9
9
9
9
9
9
9
9
9
9
9
9
9
9
9
9
9
9
9
9
9
9
9
9
9
9
9
9
9
9
9
9
9
9
9
9
9
9
9
9
9
9
9
9
9
9
9
9
9
9
9
9
9
9
9
9
9
9
9
9
9
9
9
9
9
9
9
9
9
9
9
9
9
9
9
9
9
9
9
9
9
9
9
9
9
9
9
9
9
9
9
9
9
9
9
9
9
9
9
9
9
9
9
9
9
9
9
9
9
9
9
9
9
9
9
9
9
9
9
9
9
9
9
9
9
9
9
9
9
9
9
9
9
9
9
9
9
9
9
9
9
9
9
9
9
9
9
9
9
9
9
9
9
9
9
9
9
9
9
9
9
9
9
9
9
9
9
9
9
9
9
9
9
9
9
9
9
9
9
9
9
9
9
9
9
9
9
9
9
9
9
9
9
9
9
9
9
9
9
9
9
9
9
9
9
9
9
9
9
9
9
9
9
9
9
9
9
9
9
9
9
9
9
9
9
9
9
9
9
9
9
9
9
9
9
9
9
9
9
9
9
9
9
9
9
9
9
9
9
9
9
9
9
9
9
9
9
9
9
9
9
9
9
9
9
9
9
9
9
9
9
9
9
9
9
9
9
9
9
9
9
9
9
9
9
9
9
9
9
9
9
9
9
9
9
9
9
9
9
9
9
9
9
9
9
9
9
9
9
9
9
9
9
9
9
9
9
9
9
9
9
9
9
9
9
9
9
9
9
9
9
9
9
9
9
9
9
9
9
9
9
9
9
9
9
9
9
9
9
9
9
9
9
9
9
9
9
9
9
9
9
9
9
9
9
9
9
9
9
9
9
9
9
9
9
9
9
9
9
9
9
9
9
9
9
9
9
9
9
9
9
9
9
9
9
9
9
9
9
9
9
9
9
9
9
9
9
9
9
9
9
9
9
9
9
9
9
9
9
9
9
9
9
9
9
9
9
9
9
9
9
9
9
9
9
9
9
9
9
9
9
9
9
9
9
9
9
9
9
9
9
9
9
9
9
9
9
9
9
9
9
9
9
9
9
9
9
9
9
9
9
9
9
9
9
9
9
9
9
9
9
9
9
9
9
9
9
9
9
9
9
9
9
9
9
9
9
9
9
9
9
9
9
9
9
9
9
9
9
9
9
9
9
9
9
9
9
9
9
9
9
9
9
9
9
9
9
9
9
9
9
9
9
9
9
9
9
9
9
9
9
9
9
9
9
9
9
9
9
9
9
9
9
9
9
9
9
9
9
9
9
9
9
9
9
9
9
9
9
9
9
9
9
9
9
9
9
9
9
9
9
9
9
9
9
9
9
9
9
9
9
9
9
9
9
9
9
9
9
9
9
9
9
9
9
9
9
9
9
9
9
9
9
9
9
9
9
9
9
9
9
9
9
9
9
9
9
9
9
9
9
9
9
9
9
9
9
9
9
9
9
9
9
9
9
9
9
9
9
9
9
9
9
9
9
9
9
9
9
9
9
9
9
9
9
9
9
9
9
9
9
9
9
9
9
9
9
9
9
9
POINT_DATA 861
SCALARS Disp float 2
LOOKUP_TABLE default
0.0 0.0
0.0039650379529134056 -0.11787130983499779
0.004931858534448828 -0.22905299827602135
0.005638970673781728 -0.3396161259638598
0.006479426360315335 -0.44989329604011624
0.007623287286760684 -0.5596861025661867
0.009345437907512494 -0.6687444237977674
0.011900479814046778 -0.7767924986161455
0.015568102225002748 -0.8834899206181818
0.020647917373958338 -0.9883942543090942
0.027460782464624155 -1.0909106809247584
0.036386237717176105 -1.1902470587342096
0.04789691520960246 -1.2853928971923574
0.06254859627365451 -1.3751396029620226
0.08097048274821943 -1.4581051786526205
0.10378479411729584 -1.5327542458109358
0.13146487336116253 -1.5974217821023418
0.16415859677270894 -1.6503593892697905
0.20153219466615543 -1.689857480571549
0.24270024365724724 -1.7144655145060144
0.2861951766667014 -1.7232078235869368
0.3296901096761548 -1.7144655145059733
0.37085815866724114 -1.6898574805714643
0.40823175656067767 -1.6503593892696677
0.4409254799722117 -1.5974217821021877
0.4686055592160647 -1.5327542458107608
0.491419870585128 -1.4581051786524277
0.5098417570596793 -1.3751396029618181
0.5244934381237174 -1.2853928971921469
0.5360041156161298 -1.1902470587339993
0.5449295708686689 -1.090910680924554
0.551742435959324 -0.9883942543089004
0.556822251108271 -0.8834899206180011
0.5604898735192201 -0.7767924986159809
0.5630449154257493 -0.6687444237976207
0.5647670660464976 -0.5596861025660609
0.5659109269729415 -0.44989329604001194
0.5667513826594746 -0.33961612596377855
0.5674584947988073 -0.22905299827596245
0.5684253153803419 -0.11787130983496291
0.5723903533332528 0.0
0.029420447340776403 -0.0017649020068813167
0.032064081882912085 -0.11797691682887068
0.03259896791963226 -0.22911841373779468
0.03323881540788191 -0.3396930655918684
0.03399192211964211 -0.44999117855245196
0.034989087811100855 -0.5598603565880387
0.0364951595196849 -0.669059013214328
0.03875581367056799 -0.7773105262668913
0.04203109048391901 -0.8842812200964169
0.046587816557235436 -0.9895298572417818
0.05270764445720368 -1.0924690856986914
0.06071790406007371 -1.1923256825478559
0.07103083113861344 -1.2881140944935927
0.08416053965356302 -1.378647503504837
0.10068870447336177 -1.4625565229724373
0.12119936754505657 -1.5382906180191016
0.14614103782189727 -1.6041288660940676
0.17566545061592254 -1.658225337410238
0.20949162419651432 -1.6987435858699889
0.2468149627511015 -1.7240959851384636
0.28619517666669647 -1.7331307557067899
0.32557539058229035 -1.7240959851384219
0.36289872913687254 -1.6987435858699025
0.3967249027174558 -1.6582253374101126
0.4262493155114704 -1.6041288660939106
0.45119098578829914 -1.5382906180189235
0.47170164885998195 -1.4625565229722417
0.48822981367976853 -1.3786475035046288
0.5013595221947056 -1.2881140944933789
0.5116724492732329 -1.1923256825476427
0.5196827088760911 -1.0924690856984842
0.5258025367760499 -0.9895298572415859
0.5303592628493584 -0.8842812200962344
0.5336345396627032 -0.7773105262667254
0.5358951938135816 -0.6690590132141804
0.5374012655221628 -0.5598603565879127
0.5383984312136203 -0.44999117855234744
0.5391515379253802 -0.33969306559178714
0.5397913854136296 -0.22911841373773575
0.5403262714503498 -0.11797691682883568
0.5429699059924817 -0.0017649020068792496
0.05809821667647278 -0.00313830309248406
0.05998036253113927 -0.1180220086529488
0.06029148710272905 -0.22915868667099934
0.06081463529626435 -0.339763700809991
0.06148650659166109 -0.4500748219433308
0.06235306687677075 -0.5600000505353576
0.06364120700557829 -0.6693196529521135
0.06560565035098909 -0.7777520688408434
0.06848201160842814 -0.8849676628901402
0.07250820757929152 -0.9905243831450776
0.07792798228814618 -1.093840168340927
0.08502181721730763 -1.1941568744553956
0.09414415998049433 -1.2905134792533313
0.10574960449804553 -1.381748431739378
0.12037721095880839 -1.4665040571519252
0.1385645403761253 -1.543217330003368
0.16073715423490958 -1.6101179621610042
0.18706595702265116 -1.6652732314383178
0.2173328386752018 -1.7067309983300811
0.25080800697839284 -1.7327610034661984
0.2861951766666918 -1.7420681762744568
0.3215823463549896 -1.732761003466156
0.35505751465817614 -1.7067309983299932
0.3853243963107193 -1.6652732314381902
0.41165319909845155 -1.6101179621608452
0.43382581295722544 -1.543217330003187
0.45201314237453155 -1.4665040571517272
0.46664074883528367 -1.3817484317391675
0.4782461933528237 -1.2905134792531145
0.4873685361159995 -1.1941568744551796
0.49446237104515045 -1.0938401683407175
0.49988214575399664 -0.9905243831448798
0.5039083417248529 -0.8849676628899561
0.5067847029822863 -0.7777520688406763
0.508749146327693 -0.669319652951965
0.5100372864564983 -0.5600000505352313
0.510903846741607 -0.45007482194322623
0.5115757180370034 -0.33976370080990975
0.5120988662305387 -0.22915868667094047
0.5124099908021286 -0.11802200865291357
0.5142921366567914 -0.0031383030924799125
0.08638895144013924 -0.004231462263139634
0.0877765367100766 -0.11805280007111645
0.08796643752713683 -0.22918113494928224
0.08837459704264428 -0.3398222678097501
0.08895729941879894 -0.4501487905684993
0.08971090690950431 -0.5601104825499104
0.0907912664359947 -0.6695267350463142
0.09245684528117767 -0.7781182148051873
0.09493070040124792 -0.8855490540908215
0.09842132051862988 -0.9913776109259929
0.10313764847762372 -1.0950239976190377
0.10931470397161257 -1.1957428283309612
0.11725278667523338 -1.2925944919885992
0.1273452621582528 -1.3844432859020621
0.14006904695676464 -1.4699464012357466
0.1559213590971416 -1.5475301820676368
0.17530536484730935 -1.6153832508002788
0.19841280328041633 -1.6714985152493411
0.22509440438586772 -1.7138163164333209
0.2547322872479596 -1.7404738707272076
0.2861951766666875 -1.7500516509274542
0.31765806608541397 -1.7404738707271643
0.34729594894750176 -1.7138163164332318
0.37397755005294653 -1.6714985152492114
0.39708498848604545 -1.6153832508001176
0.4164689942362041 -1.5475301820674536
0.43232130637657157 -1.469946401235546
0.44504509117507396 -1.384443285901849
0.45513756665808364 -1.2925944919883803
0.463075649361695 -1.1957428283307427
0.4692527048556747 -1.0950239976188263
0.47396903281466096 -0.9913776109257934
0.4774596529320367 -0.8855490540906362
0.479933508052102 -0.7781182148050192
0.4815990868972815 -0.6695267350461652
0.48267944642377003 -0.5601104825497838
0.4834330539144748 -0.45014879056839474
0.4840157562906291 -0.33982226780966884
0.48442391580613653 -0.2291811349492234
0.48461381662319686 -0.11805280007108097
0.48600140189313096 -0.004231462263133622
0.11445406438304703 -0.005105963672405841
0.11548552671810747 -0.1180822002582665
0.115608287643105 -0.22919333009193837
0.11591693855511084 -0.3398674276947988
0.1164046741413409 -0.45021346262185147
0.11705215710731426 -0.5602005016753848
0.11795063636776493 -0.6696847890685405
0.11931695383993211 -0.7784098706467572
0.12138731385781323 -0.8860265892925571
0.12434016543740517 -0.992090197899332
0.1283517244013442 -1.0960220786205463
0.1336154530892223 -1.1970857092613851
0.1403766534433687 -1.294360797685703
0.14896601152145791 -1.386736124537035
0.1597999678051646 -1.4728844419201033
0.17331645232464238 -1.551227371270468
0.18989753167402523 -1.619920692504752
0.2097593559635567 -1.676895115127296
0.23282786523699164 -1.719996384088618
0.2586237651505876 -1.747242996662019
0.28619517666668315 -1.7570989031160518
0.3137665881827776 -1.747242996661975
0.3395624880963695 -1.719996384088528
0.3626309973697987 -1.6768951151271647
0.3824928216593233 -1.6199206925045888
0.3990739010086981 -1.5512273712702829
0.4125903855281678 -1.4728844419199008
0.4234243418118664 -1.38673612453682
0.4320136998899472 -1.2943607976854818
0.43877490024408544 -1.1970857092611646
0.444038628931956 -1.0960220786203332
0.4480501878958884 -0.992090197899131
0.4510030394754749 -0.8860265892923704
0.4530733994933518 -0.7784098706465883
0.4544397169655162 -0.669684789068391
0.4553381962259655 -0.5602005016752579
0.4559856791919384 -0.45021346262174683
0.45647341477816816 -0.3398674276947174
0.45678206569017404 -0.2291933300918796
0.45690482661517157 -0.11808220025823082
0.4579362889502293 -0.0051059636723982255
0.1423690411324265 -0.005801464737575113
0.14313205203011334 -0.1181134019809111
0.14321439201454791 -0.2292004362550995
0.14343927726210576 -0.3399000741202148
0.14383005507109362 -0.4502677618847979
0.14437214319034938 -0.5602748109472168
0.1451093845467517 -0.6698037199480054
0.14620101924729492 -0.7786285161518508
0.14786296708811267 -0.8864021948836482
0.15027845863800782 -0.9926641559298045
0.15358670328747562 -1.0968364006124252
0.15794157952027837 -1.1981889862846236
0.1635369526814641 -1.2958169567029882
0.1706401040073182 -1.388631683449407
0.17959600556796002 -1.4753229762802007
0.19079142062909374 -1.5543106895201935
0.2045718590838102 -1.6237277444345992
0.2211645365254918 -1.6814569119793727
0.2405854193559656 -1.7252660609139592
0.2625144743176813 -1.7530701927009211
0.2861951766666789 -1.7632190617475456
0.30987587901567526 -1.7530701927008763
0.3318049339773873 -1.7252660609138675
0.3512258168078561 -1.68145691197924
0.367818494249532 -1.6237277444344345
0.3815989327042416 -1.5543106895200065
0.39279434776536837 -1.4753229762799964
0.40175024932600356 -1.3886316834491903
0.4088534006518507 -1.2958169567027653
0.4144487738130296 -1.1981889862844017
0.41880365004582615 -1.0968364006122104
0.42211189469528837 -0.9926641559296022
0.424527386245179 -0.8864021948834607
0.4261893340859933 -0.7786285161516813
0.4272809687865344 -0.6698037199478557
0.42801821014293584 -0.5602748109470899
0.4285602982621912 -0.4502677618846932
0.4289510760711789 -0.33990007412013334
0.42917596131873664 -0.22920043625504072
0.42925830130317116 -0.11811340198087529
0.430021312200856 -0.00580146473756615
0.1701751574273161 -0.006349013968491125
0.17073378189768398 -0.1181465748987105
0.1707878119619899 -0.2292051534383496
0.1709407144809994 -0.33992175888011417
0.17123609695315875 -0.4503104793862845
0.17166900719303224 -0.5603360507130507
0.1722562245606904 -0.6698936518610707
0.17310220469497314 -0.7787848872813615
0.17437574782719278 -0.8866780883840585
0.17625135178361556 -0.9931025273620195
0.17886063234376262 -1.0974705535945641
0.1823134322592877 -1.1990569547145604
0.1867553514807712 -1.2969687431497046
0.19239078265653198 -1.3901370503245274
0.19949524360712978 -1.4772678737235814
0.2083862390500202 -1.556785327749195
0.2193755263979783 -1.6268059041275202
0.2326934400532358 -1.685178740982975
0.24842782182267192 -1.7296169087009035
0.26643839535554104 -1.7579500765326208
0.2861951766666745 -1.7684137224382048
0.3059519579778068 -1.7579500765325755
0.32396253151067267 -1.7296169087008109
0.33969691328010465 -1.6851787409828414
0.3530148269353574 -1.626805904127354
0.36400411428330987 -1.5567853277490065
0.37289510972619455 -1.4772678737233758
0.3799995706767871 -1.3901370503243093
0.3856350018525425 -1.29696874314948
0.39007692107402075 -1.199056954714337
0.39352972098954064 -1.0974705535943483
0.3961390015496833 -0.9931025273618163
0.39801460550610257 -0.8866780883838702
0.3992881486383196 -0.7787848872811916
0.40013412877260085 -0.6698936518609209
0.4007213461402584 -0.5603360507129238
0.40115425638013164 -0.4503104793861798
0.4014496388522908 -0.33992175888003273
0.40160254137130014 -0.22920515343829076
0.401656571435606 -0.11814657489867463
0.40221519590597243 -0.00634901396848107
0.19790089579556255 -0.006772852817146532
0.1983028483168397 -0.11818237076951618
0.19833359315490456 -0.22920817672125843
0.19842213958413013 -0.3399339588447701
0.198625287230409 -0.450341090778323
0.19894487145985865 -0.5603842124143655
0.19938878963685402 -0.6699598746844042
0.20001014797436062 -0.7788921139155082
0.20092816678134895 -0.8868643261130411
0.20228128026773054 -0.9934097584985656
0.20419384908200264 -1.097929561184235
0.2067524174296652 -1.1996954847877161
0.21005536354900414 -1.2978235067424804
0.21424589048967924 -1.3912611107613146
0.21952674340716502 -1.478729198165298
0.22614542077585345 -1.5586588810202504
0.2343629580278589 -1.6291593421383705
0.24440295579622687 -1.68805902439869
0.25641715810836757 -1.7330383219747472
0.2704350576238473 -1.7618691847069006
0.2861951766666698 -1.772676406698977
0.3019552957094915 -1.7618691847068548
0.3159731952249686 -1.7330383219746535
0.32798739753710593 -1.6880590243985554
0.3380273953054701 -1.6291593421382036
0.34624493255747124 -1.5586588810200606
0.3528636099261553 -1.478729198165091
0.35814446284363727 -1.3912611107610955
0.36233498978430856 -1.297823506742255
0.36563793590364335 -1.1996954847874917
0.36819650425130224 -1.0979295611840185
0.37010907306557106 -0.9934097584983614
0.3714621865519501 -0.8868643261128523
0.3723802053589368 -0.7788921139153379
0.37300156369644244 -0.6699598746842543
0.3734454818734374 -0.5603842124142385
0.37376506610288684 -0.4503410907782183
0.37396821374916556 -0.3399339588446886
0.374056760178391 -0.22920817672119956
0.3740875050164558 -0.11818237076948025
0.37448945753773194 -0.006772852817135652
0.225561883594135 -0.0070972615226028825
0.22585028632986126 -0.11822092628252469
0.22585613798223927 -0.2292091762156214
0.22588603036985444 -0.3399378135642808
0.22600036059783926 -0.45035975420326624
0.2262045868638213 -0.5604177285092466
0.22650009548292588 -0.6700077016983803
0.2269152714293215 -0.7789615715264879
0.2275114600553325 -0.8869770643331483
0.22837752017896124 -0.99359805265833
0.22961130553487194 -1.0982214381652213
0.23128662245310763 -1.2001133920328886
0.23346405504383208 -1.298391399514617
0.23623331598914732 -1.392016014437955
0.2397245962439307 -1.4797201876384733
0.24410886660083417 -1.5599437585997924
0.24958378753897958 -1.630796883269534
0.2563606769143635 -1.690099397295669
0.26462437856132975 -1.7355195113136732
0.27455114085990096 -1.764806486364624
0.2861951766666649 -1.7759925177805043
0.2978392124734281 -1.7648064863645778
0.3077659747719977 -1.735519511313579
0.31602967641896135 -1.6900993972955336
0.32280656579434264 -1.6307968832693662
0.3282814867324851 -1.5599437585996019
0.33266575708938567 -1.4797201876382657
0.3361570373441667 -1.3920160144377354
0.33892629828947957 -1.2983913995143908
0.34110373088020146 -1.2001133920326637
0.3427790477984348 -1.0982214381650042
0.3440128331543434 -0.9935980526581253
0.3448788932779706 -0.8869770643329593
0.34547508190398074 -0.7789615715263175
0.34589025785037575 -0.6700077016982304
0.34618576646948007 -0.5604177285091196
0.346389992735462 -0.4503597542031615
0.3465043229634468 -0.3399378135641993
0.3465342153510619 -0.22920917621556247
0.3465400670034398 -0.11822092628248879
0.3468284697391655 -0.007097261522591414
0.2531684135675476 -0.007348371328486862
0.25337860085328434 -0.11826190470233812
0.2533604203334773 -0.22920752598638308
0.2533356860428358 -0.3399342161778999
0.2533645800384405 -0.4503667082677384
0.25345301248315816 -0.5604359124492208
0.2535969275429346 -0.6700362093773211
0.2538046049539872 -0.7790027111832352
0.2541009151015291 -0.8870373836702605
0.25452847016842856 -0.9936906485897351
0.2551247284946086 -1.0983654862795773
0.25594347249444505 -1.2003271956871224
0.2570132845563063 -1.2986891213328409
0.25838198109383015 -1.3924205248896855
0.26011664219056424 -1.4802615098608687
0.26230577058675564 -1.560660378032195
0.2650741321610132 -1.6317343204173511
0.26859934759393317 -1.691311055059322
0.2731158349901479 -1.7370566197256956
0.27885909218952865 -1.766733610329963
0.2861951766666597 -1.778335377247247
0.29353126114379047 -1.7667336103299163
0.29927451834317037 -1.7370566197256012
0.30379100573938345 -1.691311055059186
0.3073162211723019 -1.6317343204171828
0.3100845827465582 -1.560660378032004
0.3122737111427482 -1.4802615098606609
0.3140083722394814 -1.3924205248894654
0.3153770687770045 -1.2986891213326144
0.31644688083886463 -1.200327195686897
0.3172656248387002 -1.0983654862793597
0.31786188316487934 -0.9936906485895302
0.31828943823177824 -0.8870373836700715
0.3185857483793198 -0.7790027111830647
0.3187934257903722 -0.6700362093771711
0.3189373408501485 -0.5604359124490939
0.31902577329486626 -0.45036670826763353
0.319054667290471 -0.3399342161778183
0.31902993299982946 -0.22920752598632413
0.31901175248002234 -0.11826190470230223
0.31922193976575874 -0.007348371328475017
0.2807351819290534 -0.007545401707880312
0.2808907430237155 -0.11830363407270965
0.28085070202037865 -0.2292031416843152
0.2807750806443936 -0.33992372970545753
0.2807217306463464 -0.45036230399839083
0.2806952559997521 -0.5604385940887189
0.28068562442041 -0.6700447696590035
0.28068350349291066 -0.7790163474922254
0.2806835088243431 -0.8870570609144102
0.2806839448206983 -0.9937195689016951
0.28068426029219207 -1.098406443885182
0.2806844550347754 -1.2003844011465838
0.2806836383804852 -1.29876678336703
0.28068022258024833 -1.3925259154459428
0.2806742303567978 -1.4804036644261704
0.2806772379979093 -1.5608555774399595
0.2807442538534085 -1.632013899036266
0.2810249529466828 -1.691728451718097
0.2817964398958586 -1.737682165078499
0.28339437165781795 -1.7676390184435402
0.2861951766666543 -1.779673433908359
0.2889959816754908 -1.7676390184434936
0.29059391343744984 -1.7376821650784042
0.2913654003866251 -1.691728451717961
0.2916460994798995 -1.6320138990360975
0.2917131153353992 -1.5608555774397683
0.29171612297651095 -1.4804036644259626
0.2917101307530608 -1.3925259154457226
0.2917067149528247 -1.2987667833668035
0.291705898298535 -1.2003844011463582
0.29170609304111883 -1.0984064438849641
0.2917064085126131 -0.9937195689014903
0.29170684450896855 -0.8870570609142211
0.2917068498404012 -0.7790163474920551
0.29170472891290194 -0.6700447696588534
0.2916950973335599 -0.5604385940885919
0.2916686226869657 -0.4503623039982859
0.2916152726889186 -0.339923729705376
0.29153965131293363 -0.2292031416842562
0.2914996103095968 -0.11830363407267377
0.29165517140425873 -0.0075454017078682555
0.3082751490591468 -0.007701246303930207
0.3083915438886926 -0.11834359018997428
0.3083313375663465 -0.22919623696543842
0.30820836982359107 -0.33990677041888434
0.30807594564801494 -0.45034701450019166
0.307936695306505 -0.5604258824191621
0.30777464947870703 -0.6700332059281794
0.30756229385810313 -0.7790021663840769
0.307266151866398 -0.8870375523049948
0.3068394438328027 -0.9936907763289289
0.3062439032333876 -1.098365612229517
0.30542550300578547 -1.2003270493610507
0.3043541153169965 -1.2986882742705517
0.3029787950536068 -1.3924185827309792
0.30123164505798405 -1.480259738882077
0.29904786084207596 -1.5606700133395446
0.2964063745129037 -1.6317967070202397
0.2933965963577582 -1.6915141236381401
0.29028578638694696 -1.7375440975761798
0.2875458754309711 -1.767628677158012
0.2861951766666492 -1.7801190929834396
0.284844477902327 -1.7676286771579652
0.2821045669463509 -1.7375440975760852
0.2789937569755407 -1.6915141236380038
0.2759839788203971 -1.6317967070200716
0.2733424924912271 -1.560670013339354
0.27115870827532085 -1.4802597388818688
0.2694115582796998 -1.3924185827307594
0.2680362380163124 -1.2986882742703254
0.26696485032752565 -1.2003270493608253
0.2661464500999255 -1.0983656122292995
0.26555090950051213 -0.9936907763287243
0.26512420146691795 -0.8870375523048057
0.2648280594752135 -0.7790021663839064
0.26461570385461003 -0.6700332059280293
0.26445365802681237 -0.560425882419035
0.2643144076853026 -0.4503470145000868
0.2641819835097267 -0.33990677041880274
0.2640590157669714 -0.22919623696537944
0.26399880944462534 -0.1183435901899384
0.26411520427417107 -0.007701246303917975
0.3358028143207612 -0.00782172214793418
0.3358862325732758 -0.11838008615444573
0.3358071288290365 -0.22918678027453004
0.33563985382023964 -0.33988376676494825
0.3354316827130939 -0.450321408772714
0.3351827034023636 -0.5603981424501782
0.3348703986422447 -0.6700017754083719
0.33445174967231633 -0.7789605484514146
0.33385562544320524 -0.8869773923330913
0.3329905687031604 -0.9935983635813032
0.3317574335149864 -1.0982216407905807
0.33008222506142876 -1.2001130899147587
0.3279037442543077 -1.2983896660149201
0.3251292718964925 -1.392011601661849
0.32162548212325076 -1.4797158070079481
0.3172404338169829 -1.5599632099422058
0.3118698055126034 -1.630921064248729
0.3055475793702795 -1.690506138017644
0.29854759864764113 -1.7364991542473123
0.2916153669992223 -1.7667821440899614
0.2861951766666441 -1.7798118045768672
0.2807749863340654 -1.7667821440899147
0.273842754685647 -1.736499154247218
0.26684277396301076 -1.6905061380175082
0.26052054782069023 -1.6309210642485619
0.25514991951631455 -1.5599632099420158
0.2507648712100501 -1.4797158070077403
0.24726108143681155 -1.3920116016616295
0.244486609079 -1.2983896660146947
0.24230812827188267 -1.200113089914534
0.24063291981832863 -1.0982216407903638
0.2393997846301576 -0.9935983635810988
0.23853472789011498 -0.8869773923329025
0.2379386036610051 -0.7789605484512441
0.23751995469107753 -0.670001775408222
0.23720764993095908 -0.5603981424500512
0.23695867062022913 -0.4503214087726091
0.23675049951308366 -0.3398837667648667
0.23658322450428698 -0.22918678027447106
0.23650412076004773 -0.11838008615440984
0.23658753901256233 -0.007821722147921812
0.36332699720413447 -0.00791172576669639
0.3633808826775447 -0.11841161317787481
0.36328302271651797 -0.2291746495111413
0.3630740095049332 -0.33985513082246527
0.3627934711934616 -0.4502860662543623
0.3624384857149346 -0.5603562078495621
0.36198145483792643 -0.6699511963551295
0.3613566817597345 -0.7788906773944617
0.3604392913079212 -0.8868649142984255
0.3590871840165755 -0.9934103058162096
0.3571749445522233 -1.0979297871844171
0.3546161675346841 -1.1996950435620748
0.35131305254601386 -1.2978212538445129
0.3471206967385447 -1.3912548439230847
0.34183170464427926 -1.4787220301235515
0.33520677148562344 -1.558684028865443
0.32705059161655736 -1.629331547901731
0.3173386443982322 -1.68863559539427
0.3064250410098931 -1.7344873953281896
0.2953441931481377 -1.764946776619673
0.28619517666663896 -1.778753936350311
0.2770461601851402 -1.764946776619626
0.26596531232338577 -1.7344873953280953
0.2550517089350498 -1.6886355953941345
0.2453397617167293 -1.6293315479015649
0.23718358184766855 -1.5586840288652541
0.23055864868901746 -1.4787220301233446
0.22526965659475673 -1.3912548439228662
0.2210773007872926 -1.2978212538442884
0.2177741857986275 -1.199695043561851
0.21521540878109333 -1.097929787184201
0.21330316931674548 -0.993410305816006
0.21195106202540295 -0.8868649142982371
0.21103367157359174 -0.7788906773942914
0.21040889849540106 -0.6699511963549795
0.20995186761839352 -0.5603562078494351
0.2095968821398669 -0.4502860662542575
0.20931634382839567 -0.3398551308223837
0.20910733061681108 -0.22917464951108235
0.2090094706557845 -0.11841161317783891
0.20906335612919466 -0.007911725766683916
0.39085390547085685 -0.007975735032027906
0.390881063851124 -0.1184370918588683
0.3907640541629895 -0.2291595894388329
0.39051536496665396 -0.3398212250074564
0.390165679577441 -0.4502417561160531
0.3897101289306881 -0.560300957342539
0.38911230285693293 -0.6698822606092825
0.3882650554642386 -0.7787833012281443
0.38699235920911845 -0.8866790032664139
0.385117493701439 -0.9931032641186862
0.3825080343695655 -1.0974706854666547
0.37905481823960163 -1.1990563961148364
0.37461361394012854 -1.296966527751306
0.36898144023263324 -1.3901305295338362
0.3618789546089131 -1.4772591882131019
0.35298070017329397 -1.556811035888564
0.34199407932334547 -1.62700210437697
0.3288499170634992 -1.6858806782066318
0.3140085953863219 -1.731494223298663
0.298856814054404 -1.7621527261819316
0.2861951766666341 -1.7769765096270744
0.2735335392788643 -1.762152726181885
0.2583817579469484 -1.731494223298569
0.243540436269775 -1.6858806782064975
0.2303962740099345 -1.627002104376805
0.21940965315999247 -1.5568110358883764
0.21051139872437938 -1.477259188212896
0.20340891310066544 -1.390130529533619
0.19777673939317655 -1.2969665277510831
0.19333553509371018 -1.199056396114614
0.18988231896375266 -1.09747068546644
0.18727285963188467 -0.9931032641184836
0.18539799412420932 -0.886679003266226
0.18412529786909226 -0.7787833012279742
0.1832780504763998 -0.6698822606091327
0.1826802244026454 -0.5603009573424119
0.18222467375589305 -0.45024175611594835
0.18187498836668048 -0.3398212250073748
0.1816262991703452 -0.229159589438774
0.18150928948221082 -0.11843709185883239
0.18153644786247797 -0.007975735032015365
0.41838820963578577 -0.00801802377724087
0.41839161367304384 -0.118455906757575
0.41825520800272054 -0.2291412868685237
0.4179685682043258 -0.33978243550353876
0.41755301462778627 -0.4501890864785966
0.41700257851160294 -0.5602342688713612
0.41625918369163156 -0.6697901223500067
0.4151669717970289 -0.7786269814529044
0.41350609695939977 -0.8864034448308313
0.4110906508602965 -0.9926649415565306
0.4077818574381394 -1.096836366007031
0.4034263757342546 -1.1981883207399844
0.39783261590535124 -1.2958153971493414
0.3907383895911391 -1.3886271905561114
0.3817982630642651 -1.4753156883061405
0.3706009250498082 -1.554332122865066
0.3567721985367733 -1.623922114533876
0.3402023411296231 -1.6822338660265088
0.32145548197605905 -1.7275215301402096
0.3023012536782913 -1.7584228027058315
0.28619517666662936 -1.7744986306423116
0.27008909965496775 -1.758422802705785
0.2509348713572027 -1.7275215301401166
0.23218801220364355 -1.682233866026376
0.21561815479650026 -1.6239221145337128
0.20178942828347282 -1.5543321228648797
0.1905920902690232 -1.4753156883059362
0.18165196374215695 -1.388627190555896
0.1745577374279526 -1.2958153971491202
0.16896397759905726 -1.1981883207397634
0.16460849589518 -1.0968363660068177
0.1612997024730296 -0.9926649415563291
0.1588842563739315 -0.8864034448306443
0.15722338153630647 -0.7786269814527349
0.15613116964170629 -0.6697901223498569
0.1553877748217361 -0.5602342688712343
0.15483733870555336 -0.4501890864784919
0.15442178512901422 -0.3397824355034572
0.15413514533061973 -0.2291412868684648
0.1539987396602966 -0.11845590675753907
0.1540021436975547 -0.00801802377722828
0.44593337536616817 -0.00804282038060257
0.445916615890051 -0.11846786552928971
0.44576138590778686 -0.22911951161815033
0.4454382954743115 -0.33973904166037766
0.4449599095783936 -0.45012900297106734
0.44431721915166905 -0.5601555520340264
0.44341828721659965 -0.6696695711936097
0.4420529452491324 -0.7784085933829977
0.43998264427490635 -0.8860279963486868
0.437029075950411 -0.9920908804914128
0.4330166584801013 -1.0960218287793395
0.42775242200524116 -1.197084994704023
0.4209939983647204 -1.2943605044329993
0.41241846422881917 -1.3867359425214907
0.401612733441542 -1.4728822831194093
0.38810852406170543 -1.551243135799937
0.37145995237534674 -1.620093490755733
0.35151392576354074 -1.6777007593709754
0.32892575721317696 -1.7225779618348394
0.30579315379198535 -1.753759778238595
0.2861951766666246 -1.7713122885349692
0.26659719954126476 -1.7537597782385488
0.2434645961200765 -1.7225779618347474
0.22087642756971865 -1.677700759370844
0.20093040095792045 -1.6200934907555717
0.18428182927157025 -1.5512431357997527
0.17077761989174245 -1.4728822831192072
0.15997188910447416 -1.386735942521277
0.15139635496858223 -1.2943605044327802
0.144637931328071 -1.197084994703804
0.13937369485321957 -1.096021828779128
0.13536127738291762 -0.9920908804912127
0.13240770905842839 -0.8860279963485008
0.1303374080842072 -0.7784085933828289
0.12897206611674322 -0.6696695711934604
0.12807313418167543 -0.5601555520338998
0.1274304437549516 -0.4501290029709626
0.1269520578590341 -0.3397390416602963
0.12662896742555907 -0.2291195116180914
0.12647373744329507 -0.1184678655292538
0.12645697796717795 -0.008042820380589953
0.4734916410134174 -0.008054422048672561
0.4734594026209305 -0.11847317354680552
0.4732874094375922 -0.22909423678815152
0.47292953617798594 -0.3396911983669109
0.4723902571590447 -0.4500625859778904
0.4716546498506674 -0.5600631212588758
0.4705805593965339 -0.6695111321401114
0.4689154374782071 -0.778117024369854
0.4664399942749875 -0.8855503039151273
0.462947906667645 -0.9913780701819854
0.4582305491801943 -1.0950235261008934
0.45205342778407387 -1.1957422371066015
0.4441197767857768 -1.2925960658093272
0.43404438015270247 -1.38444895781555
0.4213557004116209 -1.4699526454509035
0.40553510594112874 -1.5475444171704564
0.3861164721893128 -1.6155298407001386
0.3629131823815527 -1.6723032659480963
0.33658374669336705 -1.716673530255564
0.3094431269094971 -1.7481446547603614
0.2861951766666199 -1.7673830955293441
0.26294722642374385 -1.7481446547603157
0.235806606639878 -1.7166735302554732
0.20947717095169938 -1.6723032659479664
0.1862738811439482 -1.6155298406999792
0.1668552473921418 -1.5475444171702741
0.15103465292165968 -1.4699526454507035
0.13834597318058828 -1.3844489578153387
0.12827057654752463 -1.2925960658091105
0.12033692554923833 -1.1957422371063848
0.11415980415312808 -1.095023526100684
0.10944244666568609 -0.991378070181787
0.10595035905835067 -0.8855503039149427
0.10347491585513673 -0.778117024369686
0.1018097939368139 -0.6695111321399626
0.10073570348268253 -0.5600631212587494
0.1000000961743061 -0.45006258597778576
0.0994608171553653 -0.3396911983668296
0.0991029438957594 -0.22909423678809265
0.09893095071242128 -0.11847317354676959
0.09889871231993437 -0.008054422048659925
0.5010637304380967 -0.008057248194489582
0.5010224805597924 -0.1184724899645251
0.5008383254889044 -0.22906572050379717
0.5004474298130916 -0.33963905295180236
0.49984776765128514 -0.4499901419714484
0.49901233877988 -0.5599532345625667
0.49773511818598376 -0.6693045234938875
0.49576906498445883 -0.7777503804011926
0.49288916101311325 -0.8849684416390885
0.48886094667395036 -0.990524530242209
0.48344006889918145 -1.0938395165275059
0.4763469802618851 -1.194156711480123
0.46723108784206135 -1.2905174942672484
0.45564433372649826 -1.3817605241836162
0.4410527185299338 -1.4665204502464142
0.4229142498799681 -1.5432383205933298
0.40078635090620074 -1.6102566825915787
0.3745065105811104 -1.6660816232661273
0.34460233335483476 -1.7098221076245959
0.3133980340984496 -1.7415359549197345
0.28619517666661515 -1.7626426681698077
0.258992319234782 -1.7415359549196894
0.22778801997840184 -1.7098221076245066
0.19788384275213428 -1.6660816232659994
0.171604002427054 -1.6102566825914217
0.1494761034532975 -1.54323832059315
0.13133763480334296 -1.4665204502462168
0.11674601960679007 -1.3817605241834072
0.10515926549123897 -1.2905174942670343
0.09604337307142753 -1.194156711479909
0.08895028443414237 -1.093839516527299
0.08352940665938328 -0.9905245302420127
0.07950119232022834 -0.8849684416389055
0.0766212883488891 -0.7777503804010257
0.07465523514736885 -0.6693045234937394
0.07337801455347533 -0.5599532345624406
0.07254258568207125 -0.44999014197134385
0.07194292352026531 -0.339639052951721
0.07155202784445283 -0.22906572050373836
0.07136787277356507 -0.11847248996448917
0.07132662289526073 -0.008057248194476941
0.528648180611891 -0.008055817762632997
0.5286074671753161 -0.11846711127736607
0.5284198416170179 -0.2290346672775008
0.5279977010134611 -0.3395825516569247
0.5273342684329393 -0.4499110555241059
0.5263806550485879 -0.5598172454237913
0.5248864578745561 -0.6690443635840352
0.52262079460717 -0.7773075885388991
0.5193405146376285 -0.884281277149007
0.5147812452630294 -0.9895296210463111
0.5086603618519497 -1.0924683431976692
0.5006519251257966 -1.1923263502675705
0.4903475233544189 -1.2881210544757866
0.47723697220689315 -1.3786658649610581
0.46074247575095933 -1.4625833279571236
0.4402941321664775 -1.538327779326079
0.4154925381950248 -1.6042962049682377
0.3863016346308822 -1.6591016822943332
0.3532117285532401 -1.7020657589861445
0.3179115649097253 -1.7338632584377505
0.2861951766666102 -1.756963247694642
0.2544787884234967 -1.733863258437706
0.21917862477998765 -1.7020657589860566
0.18608871870235488 -1.6591016822942077
0.15689781513822368 -1.6042962049680833
0.1320962211667831 -1.538327779325902
0.11164787758231373 -1.4625833279569291
0.09515338112639292 -1.378665864960852
0.08204282997888053 -1.288121054475576
0.07173842820751661 -1.1923263502673593
0.06372999148137579 -1.0924683431974647
0.05760910807030686 -0.9895296210461169
0.053049838695716375 -0.8842812771488257
0.0497695587261821 -0.7773075885387336
0.04750389545880125 -0.6690443635838877
0.04600969828477268 -0.5598172454236655
0.04505608490042268 -0.44991105552400146
0.044392652319901485 -0.3395825516568433
0.04397051171634501 -0.229034667277442
0.043782886158047075 -0.11846711127733017
0.043742172721472086 -0.008055817762620345
0.5562399915415391 -0.008054587905666398
0.556215111235936 -0.11845946332583233
0.5560392335093242 -0.2290022890119888
0.5555867721556864 -0.33952152775671834
0.5548484545160066 -0.4498213556311865
0.5537550449569034 -0.5596499150179125
0.5520404032415918 -0.6687288757335679
0.5494777624466041 -0.7767879739990375
0.5458040220512802 -0.8834890101798261
0.5407210483758209 -0.9883935728737898
0.53390735070537 -1.0909099844559558
0.5249848502952065 -1.190248976653582
0.5134844876342445 -1.2854032140349418
0.49885216043023456 -1.375163822982376
0.4804622013664184 -1.4581422810455373
0.45772480164985624 -1.5328167985650958
0.43028000537941186 -1.5976602618559617
0.3982336999407962 -1.6514129619051494
0.36234209732707034 -1.6935588902056002
0.32386115529790543 -1.725068322432186
0.28619517666660493 -1.7500000000000004
0.24852919803530618 -1.7250683224321424
0.21004825600614782 -1.6935588902055143
0.174156653392433 -1.6514129619050264
0.14211034795383023 -1.5976602618558104
0.11466555168339927 -1.5328167985649215
0.09192815196685121 -1.4581422810453457
0.07353819290304944 -1.3751638229821732
0.058905865699054254 -1.2854032140347342
0.047405503038107276 -1.190248976653374
0.03848300262795749 -1.0909099844557544
0.03166930495751799 -0.9883935728735977
0.02658633128206817 -0.8834890101796466
0.022912590886752144 -0.7767879739988734
0.020349950091770288 -0.6687288757334214
0.018635308376462323 -0.5596499150177872
0.017541898817360967 -0.4498213556310823
0.01680358117768184 -0.339521527756637
0.01635111982404452 -0.22900228901193004
0.0161752420974328 -0.11845946332579643
0.016150361791829722 -0.008054587905653755
SCALARS Stress float 6
LOOKUP_TABLE default
-929.2644519687993 -1703.2496068123492 -1235.6985344836771 -2.808248985394533 0.0 0.0
1125.9687552381267 650.8482854646755 777.5595739632406 -24.472397321386723 0.0 0.0
488.49780525544503 65.0444131711795 165.5884232495505 -33.36201658777098 0.0 0.0
433.34321159813896 15.062247230769456 134.1262922948384 -4.141172562004771 0.0 0.0
531.2254220233868 39.48949955194058 180.0703998577324 -1.080334776572093 0.0 0.0
602.2360476437347 67.20855448394124 250.54250561066846 -0.3668000525779922 0.0 0.0
688.1842959112431 84.30376763713416 327.81018320308067 -0.9722450456315448 0.0 0.0
770.9024646824374 118.62621523678602 409.4982647829401 -1.5021869113589847 0.0 0.0
857.5574755633388 163.65560983649388 489.4379983699963 -2.1029918798778273 0.0 0.0
955.5453726633523 224.08078667382827 575.2843269881931 -2.8861854217429315 0.0 0.0
1068.8034105713223 302.12349312614447 673.4994411489705 -3.7829785811663057 0.0 0.0
1196.5291415303975 397.3166241882951 785.6181316602976 -4.72720455855479 0.0 0.0
1334.9758044141952 503.084674342839 907.427112865027 -5.315787136413354 0.0 0.0
1480.166029841914 615.6128799736737 1035.698087748979 -5.817371539822705 0.0 0.0
1624.706056694774 727.8295359453186 1163.3664605512672 -6.240544384844439 0.0 0.0
1760.9512373279247 832.8658611169487 1283.3159938164874 -6.581933253488028 0.0 0.0
1882.5334226433351 925.7006872878585 1389.9725910717145 -6.639960611090664 0.0 0.0
1983.115690728481 1001.4101656975955 1477.809256958308 -6.140228324599645 0.0 0.0
2058.2262984869317 1056.8157103703895 1542.9608017782696 -4.99155636000288 0.0 0.0
2099.4281373804833 1084.9111293460119 1577.671321367781 -4.143693127239101 0.0 0.0
2098.287395544484 1080.499858776559 1575.2184082306221 1.6891377185856982e-11 0.0 0.0
2099.4281373807785 1084.91112934633 1577.6713213679454 4.143693127220303 0.0 0.0
2058.226298487348 1056.8157103708434 1542.9608017784549 4.991556360038242 0.0 0.0
1983.1156907281215 1001.4101656972891 1477.8092569579223 6.140228324617569 0.0 0.0
1882.5334226428347 925.700687287428 1389.9725910711736 6.639960611079898 0.0 0.0
1760.9512373271596 832.8658611162615 1283.3159938158458 6.581933253484655 0.0 0.0
1624.7060566939438 727.8295359445783 1163.3664605505753 6.240544384864041 0.0 0.0
1480.1660298417537 615.6128799736437 1035.698087748778 5.817371539854696 0.0 0.0
1334.9758044139976 503.0846743427961 907.4271128647204 5.315787136427403 0.0 0.0
1196.5291415301072 397.31662418817695 785.6181316599362 4.727204558485136 0.0 0.0
1068.8034105702309 302.12349312523367 673.4994411480736 3.782978581133376 0.0 0.0
955.5453726626196 224.08078667328792 575.2843269876181 2.8861854217295058 0.0 0.0
857.5574755626643 163.6556098360275 489.437998369398 2.102991879927634 0.0 0.0
770.9024646820654 118.62621523663896 409.49826478256625 1.5021869113606279 0.0 0.0
688.1842959105836 84.30376763670567 327.8101832025056 0.9722450456190774 0.0 0.0
602.2360476427707 67.20855448309231 250.54250560996638 0.36680005267516513 0.0 0.0
531.225422023326 39.489499552256326 180.07039985770936 1.080334776478228 0.0 0.0
433.3432115978157 15.062247230661132 134.1262922947194 4.141172562093914 0.0 0.0
488.4978052551395 65.04441317102791 165.58842324941187 33.36201658764446 0.0 0.0
1125.968755237743 650.8482854642543 777.559573962719 24.472397321397104 0.0 0.0
-929.2644519663863 -1703.2496068099156 -1235.6985344812792 2.8082489848442407 0.0 0.0
-1183.7097938961308 -1924.7443845609705 -1432.7603750834344 -0.5210694687818247 0.0 0.0
758.1793968937973 369.20162103524683 482.4472989782863 -39.67535548317123 0.0 0.0
336.4145405815527 25.409590464301303 108.16333461541996 -26.20837658693385 0.0 0.0
383.4326008617518 2.415388084871291 115.81127073159402 -16.434854113816346 0.0 0.0
473.65019140386426 15.665753954617216 150.7895486166695 -14.97848594860439 0.0 0.0
554.4559199314393 20.54203829642617 204.65549387170967 -17.701405372861498 0.0 0.0
618.1144026738923 28.67952232890036 269.3368512992851 -19.960247049061245 0.0 0.0
683.8002334503972 43.59106107620214 333.6399963750947 -20.80697157242517 0.0 0.0
746.469230673213 63.817793822110445 390.35909977608196 -20.88669042036245 0.0 0.0
811.5403588521895 91.57080574585862 444.4129787465632 -20.74798115834186 0.0 0.0
881.0353875917139 126.58539048098208 499.9653707799608 -20.381984034428083 0.0 0.0
954.0434921541023 165.96787470947476 557.4410060520484 -19.97996155766927 0.0 0.0
1027.1029680075203 207.8394728806707 615.2496526077799 -19.387350383775377 0.0 0.0
1097.9844837385306 246.2578836558527 669.8565234344406 -18.768364855521646 0.0 0.0
1160.0300566365572 276.28606650259184 715.7550607827055 -18.304663951745198 0.0 0.0
1208.1595343495917 293.53831837400685 748.3000090312461 -17.808996282399292 0.0 0.0
1239.4257558036268 296.2327585150582 765.1932583158143 -16.929551508316457 0.0 0.0
1254.7428313402827 286.6636593258362 768.1045721524747 -15.25502836740639 0.0 0.0
1256.277878401209 268.4171057784944 759.9557039756905 -12.667546095729053 0.0 0.0
1234.814056265943 233.7240023808306 732.4598347567312 -9.814876742287058 0.0 0.0
1193.9187844278604 189.59607406504423 690.870817199604 2.667555065727356e-11 0.0 0.0
1234.8140562657907 233.7240023806999 732.4598347565623 9.81487674233295 0.0 0.0
1256.277878401547 268.4171057788647 759.9557039759094 12.667546095793854 0.0 0.0
1254.7428313402972 286.6636593259018 768.1045721524389 15.255028367458738 0.0 0.0
1239.4257558028066 296.2327585142862 765.1932583151694 16.929551508281612 0.0 0.0
1208.15953434922 293.5383183737229 748.3000090309246 17.808996282424868 0.0 0.0
1160.0300566356068 276.2860665017237 715.755060781976 18.304663951757462 0.0 0.0
1097.984483738473 246.25788365592345 669.856523434393 18.76836485559276 0.0 0.0
1027.1029680073598 207.83947288064394 615.249652607619 19.387350383747005 0.0 0.0
954.0434921540576 165.96787470960646 557.441006051992 19.979961557641897 0.0 0.0
881.0353875910263 126.58539048045654 499.96537077943145 20.381984034382274 0.0 0.0
811.5403588517942 91.57080574566874 444.41297874623996 20.74798115830395 0.0 0.0
746.4692306728309 63.81779382193055 390.35909977572226 20.886690420398445 0.0 0.0
683.8002334501399 43.59106107617977 333.6399963748143 20.80697157235535 0.0 0.0
618.114402673587 28.6795223288539 269.33685129895395 19.96024704899152 0.0 0.0
554.4559199308452 20.542038296066575 204.6554938712852 17.70140537292435 0.0 0.0
473.65019140372124 15.665753954886231 150.78954861666617 14.978485948610206 0.0 0.0
383.4326008615285 2.4153880847967617 115.81127073151691 16.43485411384477 0.0 0.0
336.4145405814578 25.40959046422872 108.16333461537292 26.208376586855344 0.0 0.0
758.179396893353 369.20162103485916 482.4472989777746 39.675355483184006 0.0 0.0
-1183.70979389431 -1924.7443845590483 -1432.7603750814856 0.5210694682887169 0.0 0.0
-962.1028559068175 -1668.8017086216794 -1182.813757784198 -40.995574749239 0.0 0.0
560.5191127737149 274.0001786001666 346.56661942183024 -102.3199406490624 0.0 0.0
244.5797689920736 35.895242660838434 84.14243783139673 -26.135972796072025 0.0 0.0
327.61073067710265 -1.551245861794588 97.82215106287501 -35.84322760944491 0.0 0.0
425.2052827639222 10.725773060501325 131.55864187353438 -36.66197218236369 0.0 0.0
523.2358405237753 17.277186736842367 180.85982675855402 -35.26668708414926 0.0 0.0
589.906137108433 27.715829276534333 245.93812503591428 -37.94365735686462 0.0 0.0
657.9501577301712 38.02751610378754 310.3038572070541 -39.50933909866442 0.0 0.0
719.9572382507962 56.16160399949219 368.39443942716446 -39.92677839601991 0.0 0.0
782.533689560852 80.39237540856499 421.4213993268496 -39.78391570938302 0.0 0.0
848.0787790060358 111.43034352078799 474.21710036721055 -39.20706191358309 0.0 0.0
916.2853632062433 147.6030881537419 528.358148594243 -38.189869756535515 0.0 0.0
986.3197694910596 184.86237697922334 582.6911664747936 -37.02715198415066 0.0 0.0
1052.4747291382407 220.17798092440745 633.5481583199272 -35.867031510411 0.0 0.0
1111.1844734691372 247.16205749254473 676.2927345650362 -34.917653869280926 0.0 0.0
1156.9938774891777 262.38907895370414 706.6714697825562 -33.89069782237438 0.0 0.0
1188.344525314574 265.32768680293617 723.7514264332272 -32.1552447836315 0.0 0.0
1204.7482125440272 256.80563329613705 727.8043315850152 -29.11530916518082 0.0 0.0
1203.8405735641447 235.88163474581262 717.2326056981626 -24.608671970683147 0.0 0.0
1189.4842730286132 208.16912159800268 696.5938781950891 -18.486159368542364 0.0 0.0
1136.43097333542 152.04106927315868 643.2520161035828 4.525713137581988e-11 0.0 0.0
1189.4842730285636 208.1691215979813 696.5938781949941 18.486159368616335 0.0 0.0
1203.84057356399 235.88163474568614 717.2326056980593 24.608671970741646 0.0 0.0
1204.7482125440422 256.80563329620054 727.8043315849736 29.115309165236276 0.0 0.0
1188.3445253138025 265.3276868022367 723.7514264325897 32.15524478365068 0.0 0.0
1156.9938774887803 262.38907895336655 706.671469782194 33.89069782236609 0.0 0.0
1111.1844734683707 247.1620574918764 676.2927345644289 34.91765386926177 0.0 0.0
1052.4747291381834 220.17798092448186 633.5481583198401 35.86703151048149 0.0 0.0
986.3197694904851 184.86237697879045 582.691166474286 37.02715198418329 0.0 0.0
916.2853632062038 147.60308815388134 528.3581485942112 38.18986975658256 0.0 0.0
848.0787790056467 111.43034352057573 474.2171003669081 39.207061913597535 0.0 0.0
782.5336895605489 80.39237540845482 421.42139932656664 39.78391570934149 0.0 0.0
719.9572382504314 56.16160399934341 368.3944394268315 39.92677839605311 0.0 0.0
657.950157730058 38.027516103939575 310.3038572068509 39.50933909860319 0.0 0.0
589.9061371081823 27.71582927655728 245.93812503562958 37.94365735684224 0.0 0.0
523.2358405235203 17.2771867369074 180.85982675836112 35.266687084136116 0.0 0.0
425.20528276354963 10.725773060437692 131.55864187339543 36.661972182390386 0.0 0.0
327.61073067696213 -1.5512458618136864 97.8221510628295 35.843227609375404 0.0 0.0
244.57976899207253 35.8952426607403 84.142437831367 26.135972796043216 0.0 0.0
560.5191127733528 274.0001785999749 346.5666194214256 102.31994064892841 0.0 0.0
-962.1028559051294 -1668.8017086199056 -1182.8137577823436 40.99557474889282 0.0 0.0
-771.6776738793207 -1446.5211897892693 -966.4709987141473 -55.91067835054292 0.0 0.0
414.8832903998498 180.11787892170486 240.44862175767256 -141.81220535208013 0.0 0.0
181.28371522622206 39.62332747164454 66.27211280935995 -48.294767031719665 0.0 0.0
273.6034350854436 3.2934532431996937 83.07458194063685 -53.69077799883111 0.0 0.0
372.56765363633724 3.9077976955168845 112.11651915413671 -59.92522328551462 0.0 0.0
476.2606933223834 13.20719621253511 155.6336461443048 -55.289006673987465 0.0 0.0
561.7555374835198 23.272196950951532 218.34345679372967 -57.53319115033932 0.0 0.0
626.8112387050776 32.82329969454703 283.00717509926176 -58.588751958369016 0.0 0.0
689.3492337376784 48.454168869220894 342.6776147584987 -58.82075804871214 0.0 0.0
749.7414153074078 69.51274097083923 395.55150582093995 -58.451110211793214 0.0 0.0
811.1123868000143 96.56517535872527 445.91139690671355 -57.42791483909398 0.0 0.0
875.3030960480751 127.981171990358 496.59009049399054 -55.899567347192054 0.0 0.0
940.6033192164168 162.47813273113155 547.7213337733518 -54.06542067412367 0.0 0.0
1003.4516527605408 192.8154688653688 594.6635601878991 -52.546381046090055 0.0 0.0
1058.2500212987295 216.8092057382502 634.0394393234883 -51.18458689681066 0.0 0.0
1102.6561439274994 231.48144394271586 663.4579259699553 -49.633615332804126 0.0 0.0
1134.567156532277 234.75320381277157 681.0063948324629 -47.26103427653859 0.0 0.0
1151.49177533255 226.4377582947204 685.5109555261083 -43.20696477385679 0.0 0.0
1152.539288078786 206.9871677083529 676.6866275849808 -36.82518999955279 0.0 0.0
1141.7297013016898 182.11813153263049 659.1518531268607 -26.673009357345 0.0 0.0
1065.6215083526845 102.78638645500476 583.3867746140803 3.7341685299452365e-11 0.0 0.0
1141.7297013021196 182.11813153309703 659.1518531271596 26.673009357442886 0.0 0.0
1152.5392880782815 206.98716770789173 676.6866275846074 36.825189999656644 0.0 0.0
1151.491775332246 226.43775829445312 685.5109555258771 43.20696477393719 0.0 0.0
1134.5671565323053 234.75320381289146 681.0063948323991 47.2610342766246 0.0 0.0
1102.656143927018 231.4814439422972 663.4579259695722 49.63361533279884 0.0 0.0
1058.250021298406 216.80920573804846 634.0394393231971 51.184586896897784 0.0 0.0
1003.45165276038 192.81546886533152 594.6635601877573 52.546381046170666 0.0 0.0
940.6033192158837 162.47813273075457 547.7213337728931 54.065420674188736 0.0 0.0
875.3030960478851 127.9811719903243 496.59009049382587 55.89956734720718 0.0 0.0
811.1123867996345 96.5651753585428 445.9113969064333 57.42791483915907 0.0 0.0
749.7414153069755 69.51274097058196 395.5515058205654 58.45111021172867 0.0 0.0
689.3492337374445 48.45416886923486 342.6776147582535 58.82075804874479 0.0 0.0
626.8112387046634 32.82329969434551 283.0071750988739 58.5887519583228 0.0 0.0
561.7555374831254 23.272196950883362 218.34345679339629 57.53319115035666 0.0 0.0
476.2606933222156 13.207196212775964 155.63364614422926 55.289006673937145 0.0 0.0
372.56765363598817 3.9077976955421017 112.11651915406279 59.92522328543508 0.0 0.0
273.60343508545424 3.293453243425193 83.07458194070644 53.690777998758776 0.0 0.0
181.28371522619207 39.62332747152139 66.27211280931404 48.29476703163585 0.0 0.0
414.8832903995062 180.11787892158935 240.44862175734343 141.81220535190235 0.0 0.0
-771.6776738778889 -1446.5211897877095 -966.4709987125133 55.91067835032565 0.0 0.0
-607.7587117206556 -1250.3267896657662 -777.5927658767041 -58.60456596572125 0.0 0.0
309.378201691728 99.66205648004812 160.84450487779597 -169.47566031899026 0.0 0.0
134.05130717386913 36.240334044554906 51.0874923655272 -76.28937373922204 0.0 0.0
223.128797902396 10.122361409893585 69.97462592359565 -73.21385973885776 0.0 0.0
313.0700494279597 3.8456005755750313 95.1676543774084 -80.76483312110854 0.0 0.0
423.4660002928413 2.8762300966011924 129.0631678593249 -81.56129380260504 0.0 0.0
520.0373197233152 16.791251088804295 186.20713284606387 -77.4051780989949 0.0 0.0
589.9387406807816 29.73410318494285 252.49722075584438 -77.57219880620153 0.0 0.0
653.2337430603897 41.066791249647125 312.3547320440305 -77.61698375039632 0.0 0.0
711.9346389953455 58.83042522002546 365.62901596285803 -76.71602136433302 0.0 0.0
770.162277743824 81.54132410277661 414.34369707045454 -75.17764926776297 0.0 0.0
829.8296992029012 108.44998421893014 461.9060836872734 -73.01484559404122 0.0 0.0
891.033033016509 137.74452287086496 509.1596782876162 -70.75641044274974 0.0 0.0
949.3260237578319 166.01517206058307 553.2364119412841 -68.76174399190816 0.0 0.0
1001.2896340813959 186.63189013781772 589.6663666360223 -67.04267304905218 0.0 0.0
1043.8561829077714 198.8783915330486 616.9742122051384 -65.16015610191278 0.0 0.0
1076.4422349258139 203.54676257319983 635.5916910221798 -62.30135549596246 0.0 0.0
1095.7742375407327 197.3043279221854 642.3880863120942 -57.484878696895635 0.0 0.0
1099.8186981189986 179.93982758250152 636.1360145973681 -49.24844178775703 0.0 0.0
1090.1078794467444 154.70064214960323 618.9561876768843 -35.21470691585675 0.0 0.0
984.8563256975098 45.94433463855382 514.9366845540508 5.4932058901613345e-11 0.0 0.0
1090.1078794469702 154.7006421498394 618.9561876770744 35.21470691597063 0.0 0.0
1099.8186981191468 179.93982758272307 636.1360145974404 49.24844178785705 0.0 0.0
1095.7742375404641 197.30432792197303 642.3880863119547 57.48487869699642 0.0 0.0
1076.4422349255442 203.54676257300292 635.5916910219117 62.30135549603443 0.0 0.0
1043.85618290751 198.87839153286723 616.9742122049742 65.16015610194945 0.0 0.0
1001.2896340811582 186.6318901377002 589.6663666357528 67.04267304911525 0.0 0.0
949.3260237573393 166.01517206021134 553.2364119409496 68.7617439919858 0.0 0.0
891.0330330162677 137.7445228707565 509.1596782874238 70.75641044277286 0.0 0.0
829.8296992023089 108.44998421842789 461.90608368685434 73.0148455939258 0.0 0.0
770.1622777436476 81.54132410280876 414.3436970702625 75.17764926778383 0.0 0.0
711.9346389949096 58.830425219775705 365.6290159624772 76.71602136426321 0.0 0.0
653.2337430600686 41.066791249529665 312.3547320437246 77.61698375037295 0.0 0.0
589.9387406802484 29.734103184663063 252.4972207553876 77.57219880612237 0.0 0.0
520.0373197227992 16.791251088558468 186.2071328456851 77.4051780989574 0.0 0.0
423.466000292444 2.876230096687795 129.06316785920652 81.56129380252828 0.0 0.0
313.0700494277432 3.8456005755503817 95.16765437733407 80.76483312101001 0.0 0.0
223.12879790238557 10.122361410020027 69.97462592363055 73.21385973878688 0.0 0.0
134.05130717382963 36.240334044475134 51.08749236549143 76.28937373907321 0.0 0.0
309.3782016913513 99.66205647991482 160.84450487750246 169.47566031881638 0.0 0.0
-607.7587117194731 -1250.3267896643897 -777.5927658752931 58.60456596560368 0.0 0.0
-464.85895228263075 -1076.1681151195346 -612.8350507024372 -61.95356657486852 0.0 0.0
226.61950610322114 38.95673715597003 101.83145695663761 -182.4789460221506 0.0 0.0
96.57194552945091 28.39528829152715 37.49017014629341 -102.74758305426147 0.0 0.0
175.8493832709609 15.659422154231844 57.45264162755781 -93.48287751387069 0.0 0.0
258.0360516560739 3.898519173487138 78.56472324041077 -100.89796491789026 0.0 0.0
354.3222709539117 0.4191168628664218 105.96694030474383 -104.45855626574647 0.0 0.0
457.0754369950932 11.08911706089869 152.7260002094148 -99.78900859801394 0.0 0.0
547.3679110971084 21.409910079040213 214.66968066315718 -98.47440286429179 0.0 0.0
607.6377942674546 35.40963887425062 276.60445730042704 -95.47045493860394 0.0 0.0
668.228231545421 48.08152441433918 330.20171192334055 -94.71783602770111 0.0 0.0
723.5645288859006 66.56752087728982 378.131066611005 -92.47639895069126 0.0 0.0
778.9154218220341 88.76413689849755 423.11267958374697 -89.62225002913125 0.0 0.0
835.5555939032824 113.9078038522075 467.2507466406036 -86.83051997998382 0.0 0.0
889.9235416572241 137.11777129733568 507.5522723751682 -84.56973217013707 0.0 0.0
938.6692260691075 155.65671996246007 541.667433882874 -82.57145078759038 0.0 0.0
979.6187011506614 167.36876119381935 568.0297882446478 -80.24772987823384 0.0 0.0
1012.6919590486369 171.06127254739775 586.415146732764 -77.20225913525506 0.0 0.0
1035.2270718417353 167.8404488246763 596.3430102333276 -71.8853773643696 0.0 0.0
1043.8077744502455 154.27376293251635 594.3180520219978 -62.07011051476506 0.0 0.0
1034.6023541426284 127.2416001309252 576.5546884177994 -44.59367167262251 0.0 0.0
893.4814310125759 -17.67025334466613 438.01845319555 6.675904273834021e-11 0.0 0.0
1034.6023541422858 127.24160013061882 576.5546884176281 44.59367167274972 0.0 0.0
1043.8077744507764 154.27376293312747 594.318052022367 62.0701105149363 0.0 0.0
1035.2270718412294 167.84044882422302 596.3430102329957 71.88537736449986 0.0 0.0
1012.6919590483099 171.06127254715616 586.4151467324116 77.20225913533613 0.0 0.0
979.6187011505298 167.36876119377476 568.0297882445844 80.24772987828032 0.0 0.0
938.6692260689805 155.6567199624303 541.667433882685 82.57145078760716 0.0 0.0
889.9235416565149 137.1177712967321 507.5522723746828 84.56973217016332 0.0 0.0
835.5555939031267 113.9078038522047 467.25074664044314 86.83051998004834 0.0 0.0
778.9154218215165 88.76413689814434 423.11267958336987 89.62225002912737 0.0 0.0
723.5645288858827 66.56752087743257 378.131066610865 92.47639895065349 0.0 0.0
668.2282315450452 48.0815244141345 330.2017119230011 94.71783602759643 0.0 0.0
607.6377942670941 35.4096388741387 276.6044573000892 95.47045493861195 0.0 0.0
547.3679110968645 21.409910079131855 214.6696806629078 98.47440286427654 0.0 0.0
457.0754369944947 11.089117060514628 152.72600020902456 99.78900859792344 0.0 0.0
354.3222709534196 0.4191168627702462 105.96694030459145 104.45855626560827 0.0 0.0
258.03605165583883 3.898519173299673 78.5647232402827 100.89796491781149 0.0 0.0
175.8493832708616 15.659422154197307 57.45264162751766 93.482877513727 0.0 0.0
96.57194552939849 28.39528829152296 37.49017014627643 102.74758305404058 0.0 0.0
226.61950610286286 38.95673715582226 101.83145695638991 182.47894602193477 0.0 0.0
-464.85895228162656 -1076.1681151182875 -612.8350507012257 61.95356657482347 0.0 0.0
-344.3538392724168 -914.6778443889539 -471.15792730731414 -66.31085421872334 0.0 0.0
162.28912056310597 -9.677456085071427 57.87544818030965 -188.69787850728054 0.0 0.0
65.17511967795797 19.426187379717263 25.380392117302566 -124.84417499780902 0.0 0.0
131.31626170758472 19.042436824832972 45.1076095597253 -112.87275575359479 0.0 0.0
202.76822574418446 6.35005740110824 62.74242806254352 -118.56065940521222 0.0 0.0
281.6435251028119 -1.3017379666464386 83.73429969924501 -125.52520290424485 0.0 0.0
386.32860365943395 0.8323565270219557 118.20063752971899 -127.02566936715886 0.0 0.0
477.51608977632606 15.75013479285765 172.4414078513506 -118.71228125746838 0.0 0.0
557.5764090650825 23.87625106329961 231.43619679096588 -117.02690480359298 0.0 0.0
613.5050233283339 38.371226287278674 287.1701513376425 -111.68963068657588 0.0 0.0
669.450411091991 51.54246964003388 334.90598703820336 -109.28780691516023 0.0 0.0
721.0552638798733 68.72096664924443 378.1769723699261 -105.86136589011971 0.0 0.0
773.1435287731813 89.16755244244158 419.6578183321005 -102.55552035780018 0.0 0.0
823.0635988545481 108.62021297180438 457.1804873794392 -99.93264967563415 0.0 0.0
868.4532797257394 124.23252816284347 488.9197252988609 -97.5898050367289 0.0 0.0
907.9967303526788 133.2495761123569 513.4516876732296 -95.39721669506108 0.0 0.0
940.8525719173988 139.17765405897433 532.9761416043411 -91.79153239907671 0.0 0.0
967.599046555484 138.51040160737773 546.2941439776628 -86.17297746516203 0.0 0.0
982.2163190076315 128.58376461060735 549.1443283523325 -75.57212744314543 0.0 0.0
974.592131655528 100.63838886590717 531.886242032085 -55.3581602562418 0.0 0.0
789.4093458646468 -88.34360515659725 351.54851962934487 7.286615755219827e-11 0.0 0.0
974.5921316548588 100.63838886530917 531.8862420316582 55.35816025644601 0.0 0.0
982.2163190076366 128.58376461069258 549.14432835232 75.57212744333023 0.0 0.0
967.5990465548242 138.5104016068097 546.2941439772171 86.17297746534408 0.0 0.0
940.8525719172349 139.17765405889355 532.9761416041264 91.79153239920899 0.0 0.0
907.9967303527709 133.2495761125432 513.4516876733442 95.39721669508837 0.0 0.0
868.4532797257372 124.23252816294747 488.9197252987901 97.58980503675082 0.0 0.0
823.0635988539958 108.62021297136005 457.18048737902404 99.93264967563134 0.0 0.0
773.1435287728546 89.16755244223339 419.657818331813 102.55552035786326 0.0 0.0
721.0552638796371 68.72096664912316 378.17697236973646 105.86136589006027 0.0 0.0
669.4504110914567 51.54246963958133 334.9059870377381 109.28780691504531 0.0 0.0
613.5050233281486 38.3712262873141 287.1701513374352 111.6896306865033 0.0 0.0
557.5764090649141 23.876251063459527 231.43619679075448 117.02690480359544 0.0 0.0
477.51608977591 15.750134792775315 172.44140785105773 118.71228125744828 0.0 0.0
386.3286036588576 0.8323565267763859 118.20063752944016 127.02566936708948 0.0 0.0
281.64352510263063 -1.3017379664978965 83.73429969923806 125.5252029041367 0.0 0.0
202.76822574400984 6.350057400943685 62.742428062441874 118.5606594050999 0.0 0.0
131.31626170756743 19.042436824983916 45.107609559765415 112.87275575342463 0.0 0.0
65.17511967793757 19.426187379757987 25.38039211730867 124.84417499761047 0.0 0.0
162.28912056282513 -9.677456085158628 57.87544818014023 188.69787850708587 0.0 0.0
-344.3538392715537 -914.6778443878335 -471.15792730630767 66.31085421871529 0.0 0.0
-237.37293345980157 -780.8182809198344 -349.98701930332504 -82.22949165688422 0.0 0.0
105.70582333630452 -44.77039015626312 23.62195687323589 -185.61791227950985 0.0 0.0
37.82541795015542 11.790019050895552 14.88466187596604 -142.14526945718475 0.0 0.0
88.90395762172027 20.459186050382705 32.80894310163088 -129.96639438888562 0.0 0.0
147.49013023151116 9.063434101545269 46.96681554292236 -133.95500961133078 0.0 0.0
210.25615138710722 -0.1701105177746205 62.908472668959284 -142.58460659422798 0.0 0.0
295.3122933998606 -1.9740023964023035 87.33493728645158 -150.00214675630525 0.0 0.0
390.1982937472607 4.185501568057072 126.01630717820805 -143.27345069217628 0.0 0.0
477.23520859700636 16.207664842802796 178.57493719189154 -135.63308222037813 0.0 0.0
547.5998019698909 23.536499614847557 231.101895547616 -131.76839023302236 0.0 0.0
601.8993001770752 35.64502852063982 279.7049708683712 -125.58517846812461 0.0 0.0
651.1285689826744 48.6365416349053 322.5881354377258 -121.29467070670606 0.0 0.0
699.9214017779217 64.21619441417982 362.64215403586917 -117.8070007872007 0.0 0.0
745.1439700708835 79.12308444305135 397.93507326827546 -114.84062488035144 0.0 0.0
787.3561162814631 91.18370252819237 427.8818228195223 -112.30150273610444 0.0 0.0
824.6669766750183 99.89174052765532 451.9982942372914 -109.94481869706098 0.0 0.0
857.9415039894203 104.24090002673184 471.32912868209394 -106.55675952148283 0.0 0.0
887.6804033007022 106.7565630583728 487.7973022231645 -100.33027957625013 0.0 0.0
910.5061408436981 104.40247795325965 498.6484915421944 -89.3718259422822 0.0 0.0
907.9957716430888 77.44393841816243 484.79730886986744 -68.16358355982281 0.0 0.0
666.9041106218623 -166.46990166128217 252.72623881831078 2.6044943979286472e-11 0.0 0.0
907.9957716426835 77.44393841786356 484.79730886962795 68.16358355997768 0.0 0.0
910.5061408433995 104.4024779530542 498.64849154196844 89.37182594254556 0.0 0.0
887.6804033010382 106.75656305887117 487.7973022234281 100.3302795764607 0.0 0.0
857.9415039890874 104.2409000264571 471.3291286817597 106.5567595216016 0.0 0.0
824.6669766748953 99.89174052760231 451.99829423723025 109.94481869706279 0.0 0.0
787.3561162814582 91.1837025282897 427.88182281948536 112.30150273613658 0.0 0.0
745.1439700703462 79.12308444260627 397.93507326788165 114.84062488036884 0.0 0.0
699.9214017776776 64.2161944141239 362.6421540356504 117.80700078729406 0.0 0.0
651.1285689823699 48.63654163466673 322.58813543746186 121.29467070664012 0.0 0.0
601.899300176755 35.645028520551215 279.70497086807495 125.58517846810284 0.0 0.0
547.5998019698059 23.53649961508941 231.10189554750116 131.76839023304117 0.0 0.0
477.23520859666473 16.207664842735703 178.57493719162628 135.63308222038373 0.0 0.0
390.1982937467932 4.185501567869381 126.01630717794514 143.27345069214616 0.0 0.0
295.31229339940853 -1.9740023965404427 87.33493728628254 150.0021467561586 0.0 0.0
210.256151386954 -0.1701105176043607 62.90847266897726 142.58460659399938 0.0 0.0
147.49013023139395 9.063434101496826 46.96681554286961 133.95500961116574 0.0 0.0
88.90395762166526 20.45918605046627 32.80894310163946 129.9663943886945 0.0 0.0
37.825417950155334 11.79001905101697 14.884661876002363 142.1452694570383 0.0 0.0
105.70582333598858 -44.77039015639769 23.621956873067106 185.61791227929024 0.0 0.0
-237.3729334592071 -780.8182809189033 -349.9870193025931 82.22949165695904 0.0 0.0
-167.61537261690637 -648.2563003842904 -262.4211856918314 -93.84302183092504 0.0 0.0
57.04966085208242 -70.28319445962295 -1.6923058821380774 -176.45867728488486 0.0 0.0
12.405411575728282 6.029507499560471 5.531943108722153 -154.80936621267185 0.0 0.0
48.3872768686182 20.455369642792956 20.65315541430416 -143.8800158771728 0.0 0.0
92.42845255731908 11.460011033078422 31.165621600615236 -146.42807362429897 0.0 0.0
138.21502687000745 2.5879801533843483 42.28120901773604 -155.0714039964514 0.0 0.0
197.06649998980305 -1.7950426606748155 58.06966381623314 -168.1134197904043 0.0 0.0
278.3069701498051 -4.325237209792322 81.62795549655795 -172.36457780400394 0.0 0.0
365.62826823249037 -0.6903025150672355 116.32360975834732 -161.90552886490772 0.0 0.0
442.93012134567795 7.791329085151143 159.45674635762438 -150.31722070648559 0.0 0.0
505.1059102926658 18.352907606353394 204.91736508688126 -141.03226218338844 0.0 0.0
557.0607310274271 26.141742334971926 245.48872122242346 -135.4961084181483 0.0 0.0
604.0970578061573 38.38845514088204 285.16147117622705 -131.83313211141376 0.0 0.0
645.755305342042 48.76006153072503 319.78756226268473 -128.99935373715786 0.0 0.0
684.3898175242432 57.49583650632387 349.5542393465936 -126.45580965672042 0.0 0.0
719.9459477994997 64.21128668251438 374.09479506175217 -124.28379839458132 0.0 0.0
754.0404161894847 69.93061647519792 395.96471583991377 -121.17286231401788 0.0 0.0
784.298694863581 72.29342544078749 413.700617083609 -114.57455152602643 0.0 0.0
816.0329998111271 75.26517483596143 431.9974139438275 -103.36458946776658 0.0 0.0
829.5795509083209 58.943775102287574 432.1614321675637 -83.94629829656803 0.0 0.0
517.8888597096036 -249.5667123490732 139.2962404188272 3.68771679859492e-11 0.0 0.0
829.5795509083828 58.94377510250105 432.1614321676657 83.94629829670534 0.0 0.0
816.0329998107534 75.26517483573441 431.99741394356346 103.36458946813164 0.0 0.0
784.2986948640136 72.29342544138689 413.70061708391404 114.57455152630737 0.0 0.0
754.0404161892048 69.93061647497011 395.96471583960687 121.17286231412766 0.0 0.0
719.945947799187 64.21128668229133 374.0947950615183 124.28379839461664 0.0 0.0
684.3898175237963 57.49583650586925 349.55423934626396 126.45580965669899 0.0 0.0
645.7553053417164 48.760061530584494 319.7875622624462 128.99935373719137 0.0 0.0
604.0970578061647 38.38845514100287 285.1614711761754 131.83313211153344 0.0 0.0
557.060731026981 26.141742334615035 245.4887212220725 135.49610841808496 0.0 0.0
505.1059102926248 18.35290760665364 204.91736508684167 141.0322621834617 0.0 0.0
442.93012134544927 7.791329085219868 159.45674635745442 150.31722070650684 0.0 0.0
365.62826823211435 -0.6903025150958548 116.32360975817166 161.90552886494058 0.0 0.0
278.30697014941865 -4.325237209813734 81.6279554964338 172.36457780393886 0.0 0.0
197.06649998956308 -1.795042660592562 58.06966381619585 168.1134197902055 0.0 0.0
138.21502686972295 2.5879801529681297 42.28120901752622 155.07140399625195 0.0 0.0
92.42845255732654 11.460011033186287 31.165621600649974 146.42807362411088 0.0 0.0
48.3872768686157 20.45536964283086 20.65315541431465 143.88001587697187 0.0 0.0
12.405411575754528 6.029507499704129 5.531943108772925 154.8093662125417 0.0 0.0
57.04966085177428 -70.28319445969557 -1.6923058822743116 176.4586772845677 0.0 0.0
-167.61537261648752 -648.2563003834995 -262.4211856913365 93.84302183103857 0.0 0.0
-118.650238497681 -540.1404796803878 -198.82563784454538 -108.3517264882691 0.0 0.0
17.209580919870177 -84.08718384476198 -19.887643831450333 -163.4469108457994 0.0 0.0
-10.961151844387526 1.9336820109883779 -2.7079584314494194 -162.8979045487986 0.0 0.0
9.523952018828847 19.56012402583972 8.725386615506629 -154.1365528135179 0.0 0.0
38.01012729411115 13.492599841171545 15.451810254754285 -155.40564942222198 0.0 0.0
66.18112410150425 5.405470687504084 21.46664683919887 -164.25205665291014 0.0 0.0
97.50240597943214 0.3614891871241941 29.21149754400737 -177.66173796325566 0.0 0.0
138.02005032617757 -1.0863351947431976 41.11859464586515 -183.63864588757232 0.0 0.0
196.31547153066728 -2.2699058879170417 58.37874022809063 -181.86215672731228 0.0 0.0
266.6556197526502 -9.113885005665317 78.55102751474018 -174.97071336193804 0.0 0.0
333.95324614528 -13.525106434007071 101.43401414807188 -168.54870770751134 0.0 0.0
393.6197426770306 -16.159951128888423 125.364962774935 -158.32927510941852 0.0 0.0
440.7522031711579 -8.671792320704483 153.52783273305852 -150.64500303608966 0.0 0.0
481.26317084131233 1.0950603427659935 182.48777025771366 -144.67289120535887 0.0 0.0
516.190887481887 15.179161224484417 212.30641512929947 -141.14759673318446 0.0 0.0
550.4721593217076 26.663715115560514 241.74825667524308 -142.33660270565971 0.0 0.0
586.1111978449011 33.482165097369936 271.35284971399375 -142.2133010056782 0.0 0.0
620.8698212472227 35.080425468926194 297.47796542307435 -135.56326779699194 0.0 0.0
655.7295202311514 31.183227367207387 318.79321258457344 -122.08133384828922 0.0 0.0
704.3215872359506 38.62150175929108 350.31526153378627 -104.22851908404311 0.0 0.0
310.07750948617115 -339.137951494503 -3.124281214820776 7.158007520047249e-11 0.0 0.0
704.3215872359269 38.621501759397574 350.3152615338365 104.22851908419155 0.0 0.0
655.7295202312604 31.183227367526207 318.7932125846579 122.08133384865172 0.0 0.0
620.8698212472111 35.080425468884 297.47796542304917 135.56326779718265 0.0 0.0
586.1111978448794 33.48216509717784 271.35284971384505 142.2133010057323 0.0 0.0
550.4721593218708 26.66371511591505 241.74825667538272 142.33660270563814 0.0 0.0
516.1908874816891 15.179161224261398 212.30641512913033 141.14759673311647 0.0 0.0
481.263170841415 1.095060343056895 182.48777025779768 144.67289120538925 0.0 0.0
440.7522031708379 -8.671792321029345 153.5278327328266 150.645003036215 0.0 0.0
393.6197426768843 -16.159951128774196 125.36496277486786 158.32927510940732 0.0 0.0
333.953246145183 -13.52510643373493 101.43401414809918 168.54870770749045 0.0 0.0
266.6556197522748 -9.113885005788344 78.55102751458153 174.97071336186377 0.0 0.0
196.31547153049917 -2.2699058877392817 58.378740228094024 181.86215672735128 0.0 0.0
138.02005032607863 -1.0863351946248643 41.11859464587046 183.63864588746773 0.0 0.0
97.50240597941425 0.361489187362082 29.211497544075574 177.66173796305603 0.0 0.0
66.18112410140313 5.405470687327915 21.466646839115814 164.25205665275044 0.0 0.0
38.0101272942444 13.49259984141745 15.451810254868168 155.4056494220375 0.0 0.0
9.52395201885443 19.56012402590567 8.725386615534047 154.1365528133119 0.0 0.0
-10.961151844373253 1.9336820110865038 -2.707958431415913 162.89790454861847 0.0 0.0
17.20958091972153 -84.0871838448271 -19.887643831519785 163.4469108456072 0.0 0.0
-118.65023849752032 -540.140479679756 -198.82563784427813 108.35172648821163 0.0 0.0
-99.18072239299562 -429.6986821092247 -158.85666577855054 -104.49932803653945 0.0 0.0
-8.21075898130531 -93.3571619692566 -30.445741061591626 -154.43453263699377 0.0 0.0
-32.41351099982246 -1.4864093608789302 -10.166514353705661 -167.02423843888266 0.0 0.0
-27.573268851115763 18.347548711189013 -2.766991091437067 -160.44525142912457 0.0 0.0
-15.50528234864408 15.000350062162097 -0.15105174761222973 -160.5189343470843 0.0 0.0
-6.366685185132733 8.295657590415642 0.5797115307759948 -168.16944391026763 0.0 0.0
-2.2282271007448813 2.358411262026367 0.03312191732755654 -181.66201750386244 0.0 0.0
-0.36819430791473806 0.39805177160095306 0.00989288950834677 -187.68187979398425 0.0 0.0
0.05251756693276732 -0.165238981809523 -0.033035553692275954 -187.1569549208823 0.0 0.0
0.16130803267262905 -0.04790970431437458 0.03692109279871936 -178.5945584549894 0.0 0.0
0.14140698018650255 -0.11658630125014291 -0.020811729999081763 -172.34770372885149 0.0 0.0
-0.18071515080066547 0.1541381777824249 0.003697334785428552 -167.1464397580999 0.0 0.0
-1.1575450196894082 0.6864170142793125 -0.05650035070365789 -166.5116715526798 0.0 0.0
-2.217689655336713 1.2845109024609087 -0.09143928622534503 -164.596166349837 0.0 0.0
1.806861310446095 0.13350874412696 0.6217129628469209 -160.84478317342885 0.0 0.0
14.532524624780422 2.4421272909501255 2.701765091392673 -151.64920778705547 0.0 0.0
45.687022699392074 8.50164796285182 7.166665100290594 -144.6081779354239 0.0 0.0
130.06135449605094 1.294427277502983 18.58904771278891 -141.36129735841553 0.0 0.0
283.4111597578468 -56.49175132672606 35.272659817454034 -137.37236379543083 0.0 0.0
423.92105722769844 -44.4245006322582 132.0468550290896 -139.39666557575623 0.0 0.0
-189.9215503353254 -492.78238977786253 -275.57913932250796 1.220001877300092e-11 0.0 0.0
423.9210572277515 -44.42450063229563 132.04685502905934 139.39666557586457 0.0 0.0
283.4111597579906 -56.49175132653262 35.2726598175738 137.37236379598508 0.0 0.0
130.06135449624463 1.2944272776459584 18.58904771296971 141.36129735884646 0.0 0.0
45.68702269940931 8.501647962443883 7.166665100174427 144.60817793566886 0.0 0.0
14.532524624800615 2.4421272907626204 2.701765091321505 151.6492077869993 0.0 0.0
1.8068613111165064 0.13350874487181486 0.621712963320256 160.84478317339833 0.0 0.0
-2.217689655258333 1.2845109020974448 -0.0914392863284128 164.59616634993966 0.0 0.0
-1.157545019503651 0.6864170139142658 -0.05650035076647342 166.5116715528077 0.0 0.0
-0.18071515027128982 0.1541381784440361 0.0036973351580762426 167.14643975813823 0.0 0.0
0.14140698045132893 -0.1165863012647641 -0.020811729921071276 172.3477037287947 0.0 0.0
0.16130803263391158 -0.04790970485184687 0.036921092624266905 178.59455845486704 0.0 0.0
0.05251756713765943 -0.16523898158196015 -0.03303555356213295 187.15695492094423 0.0 0.0
-0.3681943076185341 0.39805177208917986 0.009892889745022337 187.6818797939052 0.0 0.0
-2.228227100600506 2.358411262239449 0.03312191743453585 181.66201750365985 0.0 0.0
-6.366685184941788 8.295657590746847 0.5797115309326015 168.16944391010952 0.0 0.0
-15.505282348566915 15.000350062205998 -0.15105174757602224 160.51893434688287 0.0 0.0
-27.573268850991433 18.347548711367605 -2.766991091346476 160.4452514289242 0.0 0.0
-32.413510999799826 -1.4864093608517832 -10.166514353690992 167.02423843869022 0.0 0.0
-8.210758981367531 -93.35716196931526 -30.44574106162333 154.43453263684899 0.0 0.0
-99.18072239293967 -429.698682108664 -158.85666577840271 104.49932803641046 0.0 0.0
-81.08364210280419 -338.3787907250492 -125.84513037451373 -97.50330982351167 0.0 0.0
-25.196036574657526 -94.81406123083688 -36.00228953488532 -145.4862109612082 0.0 0.0
-52.20384403807822 -4.3957950243836885 -16.980627163012286 -167.05001585064602 0.0 0.0
-62.90018670126125 16.96623218000495 -13.778643162908873 -162.68603029121394 0.0 0.0
-67.83672887252669 15.86928727911518 -15.591067393030045 -161.46928664260534 0.0 0.0
-77.96727581850635 10.922681798562403 -20.136415445823005 -166.7288814803423 0.0 0.0
-102.14503228202317 4.633577638196627 -29.003824028167784 -179.9829213007914 0.0 0.0
-138.86890850524037 1.737429661750724 -41.18192682302448 -183.85665476331786 0.0 0.0
-196.13409890912828 1.9480070898820525 -58.423720696334755 -181.84380122939382 0.0 0.0
-266.37565467917784 8.981894414165744 -78.49833438660697 -174.94070563834285 0.0 0.0
-334.0479665507846 13.653086666998194 -101.31040049864664 -168.56399495846568 0.0 0.0
-393.70002425514457 16.268555566599026 -125.40789949336894 -158.4159217686703 0.0 0.0
-441.359944450876 8.86364930835429 -153.90279469461183 -150.20189568423947 0.0 0.0
-482.15580721974317 -0.6513016421144613 -182.95234278598895 -144.05187166840093 0.0 0.0
-515.1474337049565 -11.872056970765136 -210.17084597506036 -141.28223590172678 0.0 0.0
-540.6430476589643 -15.682962514244842 -228.54933611780424 -143.94328882081876 0.0 0.0
-554.3038395825096 -12.074760228222864 -233.57473404523125 -150.11330223139484 0.0 0.0
-554.0628782443707 3.2219266084077844 -218.74237595478775 -160.84076410497107 0.0 0.0
-542.178178947338 28.475108312530736 -185.4704306406099 -164.91204660333415 0.0 0.0
-338.9164285054293 30.102762203616233 -105.63152493751222 -107.43354748637114 0.0 0.0
-685.2410052494008 -687.6964984125191 -661.3626230106877 -1.0050626997326617e-10 0.0 0.0
-338.9164285056703 30.102762203393226 -105.63152493763722 107.43354748685192 0.0 0.0
-542.1781789474888 28.475108312176346 -185.4704306407565 164.91204660366543 0.0 0.0
-554.0628782437533 3.221926609077677 -218.74237595434982 160.8407641051399 0.0 0.0
-554.3038395828877 -12.07476022885752 -233.5747340455154 150.1133022315269 0.0 0.0
-540.6430476591448 -15.682962514639335 -228.54933611788317 143.94328882074834 0.0 0.0
-515.1474337044278 -11.872056970081939 -210.17084597465956 141.28223590178067 0.0 0.0
-482.155807219449 -0.6513016421537934 -182.95234278581745 144.05187166842967 0.0 0.0
-441.3599444507576 8.863649308111782 -153.90279469454262 150.20189568442035 0.0 0.0
-393.7000242547857 16.268555566480757 -125.40789949323914 158.41592176874968 0.0 0.0
-334.0479665503653 13.653086666636092 -101.31040049858916 168.56399495842783 0.0 0.0
-266.37565467863453 8.981894413983083 -78.49833438648389 174.94070563824928 0.0 0.0
-196.13409890863238 1.9480070898323567 -58.423720696204086 181.8438012294346 0.0 0.0
-138.8689085046945 1.7374296623359284 -41.18192682268301 183.8566547632399 0.0 0.0
-102.1450322819005 4.633577638006301 -29.00382402819014 179.98292130057555 0.0 0.0
-77.96727581834267 10.922681798570387 -20.13641544577436 166.72888148013104 0.0 0.0
-67.83672887245577 15.869287279024345 -15.591067393035736 161.4692866424535 0.0 0.0
-62.90018670108362 16.966232180191767 -13.778643162800037 162.68603029103676 0.0 0.0
-52.20384403804553 -4.395795024407471 -16.980627163009963 167.05001585046372 0.0 0.0
-25.196036574686286 -94.81406123085611 -36.00228953489957 145.48621096106808 0.0 0.0
-81.08364210270581 -338.37879072467206 -125.84513037436949 97.50330982342406 0.0 0.0
-65.2835585571863 -259.27478088295345 -97.36750183204191 -87.43609933390331 0.0 0.0
-37.79191544786829 -90.94718133572265 -38.62180529570426 -135.35506712818915 0.0 0.0
-70.4588548278134 -6.477804486656542 -23.081425590286862 -163.16114370735298 0.0 0.0
-96.5512361402456 15.356643003150403 -24.36023827934954 -160.757904987746 0.0 0.0
-118.71049585806475 16.131846398007728 -30.76974713913376 -158.19004866264504 0.0 0.0
-149.2028952742433 13.247161881876131 -40.660386888116264 -162.02018806144787 0.0 0.0
-199.0835263102253 5.294848837430855 -58.03347118200341 -166.98807561730698 0.0 0.0
-278.67293740706555 4.805035745926786 -81.64287370029126 -172.64665750993348 0.0 0.0
-365.5546073492086 0.32181324705404535 -116.41029519710648 -161.856106979423 0.0 0.0
-442.8746374505914 -7.887255956381999 -159.43177993179694 -150.28366830905637 0.0 0.0
-505.0032295750787 -18.290427735241153 -204.85850602187335 -140.9971864925434 0.0 0.0
-557.0277687985581 -26.03182643981942 -245.48169524612294 -135.39901933906881 0.0 0.0
-604.4252166483807 -38.25770028093182 -285.36174605908565 -131.36658850780043 0.0 0.0
-646.3328107809085 -48.271266266295065 -319.96273512688555 -128.15528863207544 0.0 0.0
-683.2263592760255 -55.13173419437034 -347.89380990912184 -126.10163954892427 0.0 0.0
-710.8970833541273 -55.83494272913008 -365.6046703175723 -126.59245974519557 0.0 0.0
-725.0649789183076 -48.85549181998269 -371.2157621792467 -130.83840627334698 0.0 0.0
-724.7018168895818 -38.40302310821528 -366.95384092871655 -139.48596218726732 0.0 0.0
-702.4788820679928 -16.821283441927108 -346.5769464258297 -149.00491734551704 0.0 0.0
-678.8694790539879 -7.448557469032721 -329.19435575303066 -148.40843859005463 0.0 0.0
-1348.7339347280454 -930.9379884137786 -1082.6744097597825 3.3221425610463484e-11 0.0 0.0
-678.8694790537955 -7.4485574689581995 -329.19435575290396 148.40843859025392 0.0 0.0
-702.4788820675703 -16.82128344162581 -346.5769464255575 149.00491734573347 0.0 0.0
-724.7018168888526 -38.40302310748501 -366.9538409282136 139.48596218740144 0.0 0.0
-725.0649789189308 -48.85549182083082 -371.2157621796533 130.83840627346436 0.0 0.0
-710.8970833539391 -55.83494272906313 -365.60467031745935 126.59245974519021 0.0 0.0
-683.2263592756376 -55.13173419408171 -347.8938099087818 126.10163954896369 0.0 0.0
-646.3328107804838 -48.27126626603472 -319.9627351266097 128.15528863210258 0.0 0.0
-604.4252166481469 -38.25770028096964 -285.3617460588884 131.36658850786932 0.0 0.0
-557.0277687983197 -26.03182643985633 -245.4816952458886 135.39901933907294 0.0 0.0
-505.003229574755 -18.29042773523134 -204.8585060216153 140.9971864924935 0.0 0.0
-442.87463745002407 -7.887255956180067 -159.43177993141597 150.28366830904534 0.0 0.0
-365.5546073487072 0.32181324697702074 -116.41029519689889 161.85610697948243 0.0 0.0
-278.672937406637 4.805035745803677 -81.64287370018623 172.64665750991597 0.0 0.0
-199.08352630972496 5.294848837614614 -58.03347118181127 166.98807561710507 0.0 0.0
-149.2028952741429 13.247161881583711 -40.660386888172255 162.02018806133444 0.0 0.0
-118.71049585782896 16.131846398098766 -30.769747139036937 158.19004866245058 0.0 0.0
-96.55123614011958 15.356643003145633 -24.360238279313727 160.7579049875604 0.0 0.0
-70.45885482775591 -6.47780448667521 -23.081425590275277 163.16114370718998 0.0 0.0
-37.79191544784852 -90.947181335691 -38.62180529568876 135.3550671280608 0.0 0.0
-65.28355855706539 -259.2747808826314 -97.36750183190901 87.43609933377716 0.0 0.0
-52.58451833565099 -191.78114971936225 -73.30970041650396 -76.48175211289646 0.0 0.0
-47.687012807048106 -83.08092243663431 -39.23038057310472 -123.4229454857666 0.0 0.0
-87.58352450352967 -7.660813305662423 -28.57430583005299 -155.356849410552 0.0 0.0
-128.68235238095022 13.5916270654085 -34.52458286498364 -154.77606061570174 0.0 0.0
-168.01110280981766 15.632069512015061 -45.6916937992469 -150.6436610134126 0.0 0.0
-217.09671345389862 13.626185235934122 -61.07692489345625 -149.36338587099578 0.0 0.0
-298.8777621210924 7.8373929630060655 -86.30010511857395 -154.66817048554998 0.0 0.0
-390.3369465128674 -4.250207771973624 -126.14699379225719 -143.60884410548448 0.0 0.0
-477.2994190116554 -16.515740176810937 -178.64826359255542 -135.57690091822553 0.0 0.0
-547.6653730294605 -23.65065284520899 -231.1520398945046 -131.71644508616845 0.0 0.0
-601.7792545710774 -35.567433907747656 -279.6503028875753 -125.53492736998945 0.0 0.0
-651.0074801223959 -48.458433760419496 -322.4820901924795 -121.19260736919546 0.0 0.0
-700.0525338630616 -64.09577941099268 -362.67527527824404 -117.34057026718956 0.0 0.0
-745.8142528550218 -79.07196907508788 -398.2758966214709 -113.80911428547739 0.0 0.0
-787.242591872959 -90.08820023998403 -427.3255038476932 -111.47459684170475 0.0 0.0
-818.235707471742 -93.62610454910295 -445.8986962008769 -111.8926334270147 0.0 0.0
-834.0991841457205 -85.43086417820284 -450.6497018971603 -116.2537421131744 0.0 0.0
-827.2355297955961 -62.91430908406032 -437.16976275508716 -124.24924592528886 0.0 0.0
-797.9139657499557 -29.033195449021093 -407.2574984870534 -132.28610134762192 0.0 0.0
-734.985890162593 20.699348772069662 -355.83390306900526 -137.1459753854807 0.0 0.0
-1771.4895879294345 -1159.4670215805106 -1417.0766178808735 7.30118188130291e-11 0.0 0.0
-734.9858901621016 20.69934877248879 -355.8339030687454 137.14597538564195 0.0 0.0
-797.913965749484 -29.033195448626188 -407.2574984867213 132.28610134784088 0.0 0.0
-827.2355297948127 -62.9143090833125 -437.1697627545355 124.24924592538439 0.0 0.0
-834.0991841457179 -85.43086417837502 -450.64970189714796 116.25374211326849 0.0 0.0
-818.2357074717572 -93.62610454927108 -445.89869620090155 111.89263342711634 0.0 0.0
-787.242591872265 -90.08820023935036 -427.3255038471415 111.47459684168473 0.0 0.0
-745.8142528549258 -79.07196907519835 -398.27589662142714 113.80911428558292 0.0 0.0
-700.0525338629301 -64.09577941104196 -362.6752752781463 117.34057026724737 0.0 0.0
-651.0074801217016 -48.45843375992349 -322.4820901919504 121.19260736920353 0.0 0.0
-601.7792545712392 -35.56743390825572 -279.6503028876598 125.53492737002034 0.0 0.0
-547.6653730290984 -23.65065284520026 -231.15203989418012 131.71644508616626 0.0 0.0
-477.2994190110396 -16.515740176500422 -178.64826359210124 135.5769009181874 0.0 0.0
-390.33694651249795 -4.250207772205443 -126.14699379211842 143.60884410554164 0.0 0.0
-298.87776212038017 7.837392963358623 -86.30010511826563 154.66817048544388 0.0 0.0
-217.09671345347937 13.626185236073141 -61.076924893303186 149.36338587081167 0.0 0.0
-168.01110280962877 15.63206951198626 -45.691693799196784 150.64366101329747 0.0 0.0
-128.68235238079475 13.591627065445376 -34.52458286492667 154.77606061555156 0.0 0.0
-87.583524503477 -7.660813305749176 -28.574305830062926 155.3568494104059 0.0 0.0
-47.68701280698583 -83.0809224365579 -39.2303805730631 123.42294548567173 0.0 0.0
-52.584518335597856 -191.7811497191616 -73.3097004164278 76.48175211280152 0.0 0.0
-43.04609628817239 -135.25932757896777 -53.49162716014204 -65.17922375725539 0.0 0.0
-55.79240920549267 -72.58529592344917 -38.513311538682544 -109.70484853924297 0.0 0.0
-103.82197037759371 -7.835449033339721 -33.49777683873833 -143.78346037930936 0.0 0.0
-159.41134067146115 11.534617705675755 -44.369095685727416 -144.57514386030172 0.0 0.0
-215.12666100259236 14.476624305864203 -60.17304636778482 -138.729257097717 0.0 0.0
-287.196171489567 14.634981972125345 -80.95181529786188 -135.77962336577323 0.0 0.0
-383.86630074770466 1.1888996712228694 -117.80850264737477 -127.45234132357128 0.0 0.0
-477.3844774069999 -15.911657298773456 -172.42879128520826 -119.04755518614326 0.0 0.0
-557.7714145610491 -24.1975463750271 -231.58347182791744 -116.9315353755877 0.0 0.0
-613.5830479027985 -38.45582566264731 -287.25350195819794 -111.6330912442229 0.0 0.0
-669.3659873339473 -51.41500347755318 -334.8382293709068 -109.27082324354609 0.0 0.0
-720.8127175447855 -68.44224516788655 -377.95075045981787 -105.76374939406274 0.0 0.0
-772.94760689894 -88.85803701674159 -419.4138725110007 -102.136914647242 0.0 0.0
-823.6609132360327 -108.7985668335802 -457.56918450625784 -98.88409060158668 0.0 0.0
-869.8168775054755 -124.86883637504098 -489.9222796792433 -96.50833240905033 0.0 0.0
-905.9101737754223 -130.95252113043114 -511.41935763096615 -96.82552882824027 0.0 0.0
-921.0412672442333 -121.97581334407427 -515.1389433958843 -100.10349673336171 0.0 0.0
-906.6738826164869 -87.92910440962527 -492.00105421079604 -106.7795144859634 0.0 0.0
-858.0990725138413 -31.50867731542138 -441.41866090517203 -114.68520848176566 0.0 0.0
-764.5866867167504 50.00560556286236 -358.8708340474779 -122.10825704092515 0.0 0.0
-2098.0554772687274 -1388.2932267915162 -1702.4337606532104 1.1405631994421128e-10 0.0 0.0
-764.5866867164182 50.005605563097305 -358.87083404722654 122.1082570411062 0.0 0.0
-858.0990725141849 -31.508677315921048 -441.41866090540674 114.68520848205333 0.0 0.0
-906.6738826163229 -87.92910440954935 -492.00105421063046 106.77951448610037 0.0 0.0
-921.0412672441698 -121.9758133441118 -515.1389433958469 100.10349673347102 0.0 0.0
-905.9101737751201 -130.95252113026214 -511.41935763074554 96.82552882829495 0.0 0.0
-869.8168775049534 -124.8688363745832 -489.9222796787938 96.50833240904825 0.0 0.0
-823.6609132360502 -108.7985668337741 -457.5691845062296 98.88409060167523 0.0 0.0
-772.9476068990093 -88.85803701701406 -419.41387251103674 102.13691464725477 0.0 0.0
-720.8127175440046 -68.44224516726669 -377.9507504592208 105.76374939406992 0.0 0.0
-669.3659873340519 -51.41500347790076 -334.83822937092555 109.27082324348686 0.0 0.0
-613.5830479022386 -38.4558256623257 -287.2535019577337 111.63309124415034 0.0 0.0
-557.7714145605567 -24.19754637483299 -231.5834718274719 116.93153537555668 0.0 0.0
-477.3844774063239 -15.911657298477468 -172.4287912847495 119.04755518615875 0.0 0.0
-383.86630074704215 1.1888996714690612 -117.80850264706294 127.45234132350133 0.0 0.0
-287.1961714891304 14.634981972241071 -80.9518152977021 135.77962336568885 0.0 0.0
-215.1266610023198 14.476624305859714 -60.17304636770929 138.72925709761984 0.0 0.0
-159.411340671254 11.534617705790502 -44.369095685631194 144.57514386017596 0.0 0.0
-103.82197037752498 -7.835449033425134 -33.49777683874308 143.78346037914235 0.0 0.0
-55.79240920541028 -72.58529592337018 -38.51331153863412 109.70484853913743 0.0 0.0
-43.04609628810907 -135.2593275788287 -53.491627160081336 65.1792237571774 0.0 0.0
-36.41190679244475 -89.3252661799063 -37.72115189170531 -53.64292109838733 0.0 0.0
-62.51420560160891 -60.609022643998614 -36.936968473682235 -94.33220534373424 0.0 0.0
-119.24816248504033 -7.066123570838808 -37.894580186441935 -128.57524963775282 0.0 0.0
-188.8864146965376 9.341453109316515 -53.86753004984084 -130.376483649201 0.0 0.0
-259.7591277897275 12.234125877977412 -74.33569357574733 -122.38432455920159 0.0 0.0
-354.72689434436234 11.743906149962147 -102.14807562081923 -115.49744444796175 0.0 0.0
-455.4591205558697 -8.406929445674816 -151.66460742526206 -102.11455428114718 0.0 0.0
-547.4087785396562 -21.75946649767728 -214.74134974156985 -98.62526959472964 0.0 0.0
-607.8245268337862 -35.618650094917726 -276.7401142111132 -95.37647588942173 0.0 0.0
-668.2944105353813 -48.11899001848873 -330.2772320505495 -94.68153718298397 0.0 0.0
-723.4905386142291 -66.46341168395024 -378.07628519021193 -92.4553854841334 0.0 0.0
-778.5790866314809 -88.40145542562624 -422.79188890228596 -89.52107060750188 0.0 0.0
-834.9665207528457 -113.30230840636466 -466.6642145213288 -86.4699346822157 0.0 0.0
-890.1220905005925 -137.19658746004887 -507.68431685483785 -83.6737823280235 0.0 0.0
-941.4142100695087 -158.03284973930408 -544.2055442914643 -81.52231655832328 0.0 0.0
-981.982002591448 -169.27680076592634 -570.2813047573719 -81.01194758823961 0.0 0.0
-997.9730025823338 -156.9955722525644 -572.6123221886593 -83.22690842554051 0.0 0.0
-973.2082590491045 -111.45811771163034 -538.4843845450714 -88.36776529926729 0.0 0.0
-901.6278575941866 -31.340162379917928 -464.5579775493251 -96.15794843342802 0.0 0.0
-780.3315765711964 78.4939772530075 -353.48336073396763 -107.78755317868698 0.0 0.0
-2388.9551099976966 -1615.841707764717 -1967.2467165525923 8.113687499644584e-11 0.0 0.0
-780.3315765706851 78.49397725344186 -353.4833607335828 107.78755317884438 0.0 0.0
-901.62785759453 -31.340162380361534 -464.5579775495956 96.15794843362734 0.0 0.0
-973.2082590489094 -111.45811771155164 -538.4843845449102 88.36776529939856 0.0 0.0
-997.9730025824203 -156.99557225277962 -572.6123221886803 83.2269084256924 0.0 0.0
-981.9820025912247 -169.27680076576885 -570.2813047571758 81.01194758827565 0.0 0.0
-941.4142100695163 -158.03284973941402 -544.2055442914159 81.52231655832992 0.0 0.0
-890.1220905000007 -137.19658745960672 -507.6843168543252 83.6737823280393 0.0 0.0
-834.9665207525921 -113.30230840628789 -466.6642145211768 86.46993468226006 0.0 0.0
-778.5790866310374 -88.40145542537724 -422.7918889018982 89.52107060757072 0.0 0.0
-723.4905386137202 -66.46341168359086 -378.0762851898181 92.45538548403694 0.0 0.0
-668.2944105348644 -48.118990018193784 -330.27723205013217 94.68153718293108 0.0 0.0
-607.8245268334173 -35.61865009483536 -276.74011421072703 95.37647588942404 0.0 0.0
-547.4087785388314 -21.759466497135165 -214.74134974094682 98.62526959469953 0.0 0.0
-455.4591205552747 -8.406929445414491 -151.66460742488715 102.11455428115612 0.0 0.0
-354.726894344013 11.743906149565653 -102.1480756208384 115.49744444783552 0.0 0.0
-259.7591277893673 12.234125878127369 -74.33569357559755 122.3843245591413 0.0 0.0
-188.88641469643977 9.341453109095724 -53.86753004987764 130.37648364906724 0.0 0.0
-119.24816248489337 -7.0661235707700385 -37.89458018637708 128.5752496376386 0.0 0.0
-62.51420560154231 -60.60902264396585 -36.93696847365244 94.33220534362924 0.0 0.0
-36.41190679238733 -89.32526617980658 -37.72115189165817 53.642921098290266 0.0 0.0
-32.27941936637008 -53.83213734567626 -25.8334670136139 -41.95815258160469 0.0 0.0
-67.84267689591381 -48.04992661530382 -34.76778105336529 -77.45533134630254 0.0 0.0
-133.82893969758624 -5.651874846007474 -41.84424436307811 -109.84330688476966 0.0 0.0
-217.0683754673405 7.203774576382859 -62.965263410212806 -112.05992162785695 0.0 0.0
-305.39684472380446 9.463887216503617 -88.48849237864904 -103.31475677435263 0.0 0.0
-409.804309881962 0.48306990995044874 -126.32370493563175 -87.71179109601509 0.0 0.0
-518.4613179517494 -14.427426788769077 -184.8069196067278 -79.38504974536329 0.0 0.0
-589.9344163636025 -29.94495414292932 -252.50476042591944 -77.49053822297658 0.0 0.0
-653.4081923422679 -41.1743470173581 -312.4834830810367 -77.53881478827212 0.0 0.0
-712.0018232090932 -58.85777538474995 -365.7030867963661 -76.70359262510547 0.0 0.0
-770.0873822118028 -81.44093467823564 -414.28063349714 -75.15832384430274 0.0 0.0
-829.4188090020283 -108.02339060565978 -461.5112890481469 -72.90393060861727 0.0 0.0
-890.1565900657858 -136.9149709161573 -508.3236992465696 -70.45141722367146 0.0 0.0
-948.9772893555546 -165.78291299148094 -552.9485232362772 -68.13996577470289 0.0 0.0
-1004.1340968179245 -189.47133371924332 -592.5000358164402 -66.2755459840068 0.0 0.0
-1049.5488559255211 -204.14425072152898 -622.5308232012069 -65.26093966065423 0.0 0.0
-1068.3397691059977 -194.91226515696025 -627.687317747168 -65.62779021336667 0.0 0.0
-1034.843095145672 -138.68825516879866 -583.840430010846 -69.08800154682424 0.0 0.0
-938.8201159289781 -32.244627386413725 -484.41802729295415 -77.80504102194607 0.0 0.0
-783.3478982875357 111.00024460785875 -338.8953242411467 -94.96797157414451 0.0 0.0
-2655.885061670077 -1836.806012520868 -2215.942550090818 7.127809453777445e-11 0.0 0.0
-783.3478982869034 111.00024460844521 -338.89532424070643 94.96797157426167 0.0 0.0
-938.8201159290205 -32.24462738651117 -484.4180272930017 77.80504102207416 0.0 0.0
-1034.8430951450339 -138.68825516821528 -583.8404300103688 69.08800154689833 0.0 0.0
-1068.339769105511 -194.9122651565542 -627.687317746785 65.62779021341225 0.0 0.0
-1049.5488559252644 -204.14425072135228 -622.5308232009269 65.26093966065783 0.0 0.0
-1004.1340968175684 -189.47133371902294 -592.5000358161681 66.27554598406915 0.0 0.0
-948.9772893551765 -165.7829129911976 -552.9485232359273 68.13996577468757 0.0 0.0
-890.1565900654733 -136.91497091599268 -508.32369924635935 70.45141722367563 0.0 0.0
-829.4188090018238 -108.02339060562845 -461.5112890479341 72.90393060859458 0.0 0.0
-770.0873822114104 -81.44093467803256 -414.28063349682463 75.15832384426164 0.0 0.0
-712.0018232088514 -58.85777538473456 -365.703086796104 76.70359262504788 0.0 0.0
-653.4081923418818 -41.1743470172502 -312.4834830806681 77.538814788287 0.0 0.0
-589.9344163628311 -29.944954142413494 -252.5047604253051 77.49053822294252 0.0 0.0
-518.4613179514147 -14.427426788850319 -184.8069196064519 79.38504974537238 0.0 0.0
-409.80430988154757 0.483069909758433 -126.3237049355265 87.71179109597556 0.0 0.0
-305.3968447235163 9.463887216402078 -88.48849237859906 103.31475677426003 0.0 0.0
-217.06837546727746 7.203774576067986 -62.96526341028779 112.05992162775323 0.0 0.0
-133.82893969744978 -5.651874845962053 -41.844244363023535 109.84330688468972 0.0 0.0
-67.84267689588172 -48.049926615303484 -34.76778105335556 77.4553313462258 0.0 0.0
-32.27941936633095 -53.832137345620914 -25.833467013585555 41.958152581486374 0.0 0.0
-30.022656800997286 -28.721593449892175 -17.623275075266836 -30.392568130043887 0.0 0.0
-71.39972373082837 -35.68167856088441 -32.12442068751383 -59.26500581860376 0.0 0.0
-147.28710232567704 -4.0119291800524035 -45.389709451718815 -87.52562458034355 0.0 0.0
-244.2273085555886 5.193052147318417 -71.71414624567574 -89.59116170207967 0.0 0.0
-351.5400513954869 5.076975537240923 -103.18837966836028 -79.72051329068933 0.0 0.0
-468.09793936919294 -6.429372791242713 -150.74011075984185 -63.23163362064636 0.0 0.0
-559.80765613888 -22.301288767796276 -217.27953857543744 -58.423607973135354 0.0 0.0
-626.7275470255984 -32.6819865444609 -282.91121288385915 -58.43931529486214 0.0 0.0
-689.5110077984052 -48.50845889013817 -342.8005159165595 -58.76742108441735 0.0 0.0
-749.8299178056877 -69.558994680443 -395.6386487501688 -58.456104429910994 0.0 0.0
-811.0095212225078 -96.44354556970792 -445.81560585609964 -57.40844680272599 0.0 0.0
-874.8449796930133 -127.52746906832712 -496.152238000122 -55.783118836315175 0.0 0.0
-939.6576155388991 -161.6268944156505 -546.844845275714 -53.82224509414757 0.0 0.0
-1002.6803295775401 -192.2839966989933 -594.0375628844178 -52.211447054064955 0.0 0.0
-1059.6484519215862 -218.46150998541134 -635.6042378385423 -50.80233946010398 0.0 0.0
-1107.6585828436293 -236.3530102119052 -668.4680293693289 -49.370334550563385 0.0 0.0
-1133.6217488596317 -233.08197590719905 -679.9780895836838 -48.08098147725556 0.0 0.0
-1099.810882300268 -175.21030692035947 -635.0919836249325 -49.354360980112624 0.0 0.0
-978.2625790673285 -41.57207347910362 -509.31449187945 -59.151793722121866 0.0 0.0
-772.9468124655876 152.37928080261037 -312.73043790391915 -82.47640379205417 0.0 0.0
-2899.554952174615 -2041.7284896601702 -2444.6034488570463 5.4868110055394936e-11 0.0 0.0
-772.9468124651822 152.37928080299878 -312.7304379036392 82.47640379210132 0.0 0.0
-978.2625790674732 -41.57207347931157 -509.3144918795952 59.15179372223926 0.0 0.0
-1099.8108823002117 -175.2103069203655 -635.0919836248585 49.35436098020372 0.0 0.0
-1133.6217488590066 -233.081975906643 -679.9780895832534 48.08098147730686 0.0 0.0
-1107.6585828430175 -236.3530102113742 -668.4680293688135 49.37033455061131 0.0 0.0
-1059.6484519211463 -218.4615099850652 -635.6042378381986 50.802339460125395 0.0 0.0
-1002.6803295772899 -192.28399669887608 -594.0375628841689 52.21144705408268 0.0 0.0
-939.6576155385991 -161.6268944155065 -546.8448452755068 53.82224509414189 0.0 0.0
-874.8449796924159 -127.52746906788572 -496.1522379996912 55.78311883627684 0.0 0.0
-811.0095212221564 -96.44354556956773 -445.8156058558517 57.40844680270833 0.0 0.0
-749.8299178056304 -69.55899468063899 -395.63864875008016 58.456104429951374 0.0 0.0
-689.5110077983512 -48.50845889036516 -342.8005159164059 58.767421084424896 0.0 0.0
-626.7275470250082 -32.68198654411556 -282.91121288334546 58.439315294822336 0.0 0.0
-559.8076561384755 -22.30128876774242 -217.27953857506958 58.42360797308586 0.0 0.0
-468.097939368695 -6.4293727911364655 -150.7401107595699 63.231633620645894 0.0 0.0
-351.5400513952142 5.076975536926401 -103.18837966838477 79.72051329058336 0.0 0.0
-244.22730855535502 5.193052147371062 -71.71414624558882 89.59116170206816 0.0 0.0
-147.28710232553112 -4.011929180072321 -45.389709451681036 87.52562458024758 0.0 0.0
-71.3997237307588 -35.68167856085664 -32.12442068748463 59.26500581857747 0.0 0.0
-30.022656800991065 -28.72159344986178 -17.623275075255847 30.39256812993853 0.0 0.0
-28.56956075895341 -13.777849073000061 -12.704222949586041 -19.646648670839102 0.0 0.0
-72.35997168619872 -24.34958188810081 -29.012866072289864 -40.02058574659958 0.0 0.0
-159.15966822576016 -2.750285667369512 -48.5729861679389 -61.2340643821229 0.0 0.0
-270.6930370305778 3.3957705245107443 -80.18460704025915 -62.67340858197601 0.0 0.0
-394.13205297572665 -3.8813452081673807 -120.09236311213465 -52.02893756337307 0.0 0.0
-515.0891740898616 -14.10582694679073 -176.52132706589597 -39.92544698942224 0.0 0.0
-588.2795022926731 -26.879579297859863 -244.9656503569323 -38.234689563276945 0.0 0.0
-657.6956079453157 -37.441337404384186 -309.9967103077364 -39.39572487802757 0.0 0.0
-720.1692645754042 -56.26588190357388 -368.571882287705 -39.89417343369763 0.0 0.0
-782.6234220036097 -80.4361582522219 -421.50015176605933 -39.79488609655417 0.0 0.0
-847.9290673217063 -111.27031523231986 -474.0723669265168 -39.1884759576019 0.0 0.0
-915.8147792313414 -147.1653764142383 -527.9159074773421 -38.08535389769799 0.0 0.0
-985.4983206147837 -184.16768452522115 -581.9597456256524 -36.85974376693291 0.0 0.0
-1051.5052699554178 -219.47750512331942 -632.7659087707661 -35.74829621810305 0.0 0.0
-1110.430344267521 -246.76591294847026 -675.8124124156178 -34.844830978062426 0.0 0.0
-1156.420110019168 -262.0909589918026 -706.3740848793062 -33.602173068004994 0.0 0.0
-1186.059950864457 -263.0732099183302 -721.6145712515231 -31.49202113030573 0.0 0.0
-1178.2306779287046 -230.71078829863504 -702.1103689681828 -30.117785387445366 0.0 0.0
-1039.0271442313804 -76.78045364314532 -557.562030239961 -38.58140051658366 0.0 0.0
-743.1140171809245 210.45735115222226 -268.32545758139656 -68.77804310821229 0.0 0.0
-3104.8949628664823 -2212.205554192609 -2636.85168597785 5.3375970310298726e-11 0.0 0.0
-743.1140171806405 210.45735115248397 -268.32545758114475 68.77804310829204 0.0 0.0
-1039.0271442308851 -76.78045364270447 -557.5620302396095 38.58140051665483 0.0 0.0
-1178.2306779292333 -230.71078829921322 -702.1103689685243 30.11778538751062 0.0 0.0
-1186.059950864189 -263.0732099181341 -721.614571251327 31.492021130304536 0.0 0.0
-1156.4201100187327 -262.09095899145376 -706.3740848788605 33.60217306804248 0.0 0.0
-1110.4303442675098 -246.76591294856783 -675.812412415573 34.84483097808153 0.0 0.0
-1051.5052699548937 -219.47750512291393 -632.7659087703111 35.748296218120394 0.0 0.0
-985.4983206146555 -184.16768452525162 -581.959745625601 36.85974376692802 0.0 0.0
-915.8147792308331 -147.16537641391182 -527.915907476938 38.08535389773783 0.0 0.0
-847.9290673213264 -111.27031523213272 -474.07236692624554 39.18847595757573 0.0 0.0
-782.6234220032517 -80.43615825208327 -421.5001517657534 39.79488609656067 0.0 0.0
-720.1692645752107 -56.26588190365049 -368.5718822874655 39.89417343368711 0.0 0.0
-657.6956079448798 -37.4413374042223 -309.9967103073145 39.395724878072265 0.0 0.0
-588.2795022920935 -26.87957929757111 -244.96565035643079 38.23468956322392 0.0 0.0
-515.0891740893155 -14.105826946529259 -176.52132706551907 39.92544698938106 0.0 0.0
-394.13205297530584 -3.8813452082599875 -120.09236311203095 52.028937563361836 0.0 0.0
-270.693037030294 3.395770524601773 -80.18460704014927 62.673408581926 0.0 0.0
-159.15966822566318 -2.750285667423711 -48.57298616792607 61.23406438208057 0.0 0.0
-72.35997168615168 -24.34958188812848 -29.012866072284048 40.020585746632676 0.0 0.0
-28.569560758943517 -13.777849072985779 -12.704222949578789 19.646648670790665 0.0 0.0
-25.86849260428418 -8.163102519212615 -10.209478537049039 -11.302174586184181 0.0 0.0
-69.32948556718247 -15.39764909717992 -25.41814039930872 -20.03142406657788 0.0 0.0
-168.6146745809923 -2.5584959101026956 -51.351951147328485 -29.98156710372207 0.0 0.0
-297.56572281422325 1.6587201998190952 -88.76324972465449 -30.677473572931405 0.0 0.0
-440.8371586690836 -10.064875189548875 -137.78584353255152 -23.580522644135186 0.0 0.0
-548.2047896141535 -21.40447129126403 -201.97347644861637 -19.256400476823014 0.0 0.0
-615.9676670559538 -26.921672067668613 -267.9040359634921 -20.172017389241976 0.0 0.0
-683.5188219513494 -43.18970240718972 -333.48999333371313 -20.77066500791079 0.0 0.0
-746.7366553155526 -63.878998481769415 -390.52403813470573 -20.864987720794712 0.0 0.0
-811.6221012639248 -91.60354048760742 -444.47642824999247 -20.75429817705375 0.0 0.0
-880.8367533147102 -126.38626894084783 -499.77188463940513 -20.36659823482239 0.0 0.0
-953.5887663383168 -165.57379520165583 -557.0244330640976 -19.912563359707786 0.0 0.0
-1026.501624538743 -207.38782864350287 -614.7555403662009 -19.30658938573911 0.0 0.0
-1096.9357394815574 -245.45594930846983 -669.0100602711786 -18.76841859003421 0.0 0.0
-1157.0626468092305 -273.6820008375214 -713.1073754212391 -18.35925927074845 0.0 0.0
-1200.2527211758588 -286.23994870053366 -740.913231997886 -17.605480404282744 0.0 0.0
-1223.2180765621988 -281.24247383280965 -749.7985703095735 -16.00499835703687 0.0 0.0
-1234.9785662394117 -269.2251111641582 -749.6489462668281 -13.643618750970953 0.0 0.0
-1186.890846853978 -204.23816409291777 -694.6210172874435 -16.537268335616854 0.0 0.0
-728.8351779273123 252.19482642603757 -239.62335877087392 -46.99083936016209 0.0 0.0
-3148.872927582273 -2221.1326619128454 -2668.8092898794735 -1.084821121821733e-11 0.0 0.0
-728.8351779270098 252.19482642630692 -239.62335877062506 46.99083936024085 0.0 0.0
-1186.8908468534103 -204.23816409237946 -694.6210172870236 16.537268335650598 0.0 0.0
-1234.9785662394747 -269.22511116428313 -749.6489462668425 13.643618751019032 0.0 0.0
-1223.2180765619285 -281.2424738326093 -749.7985703093082 16.004998357063933 0.0 0.0
-1200.2527211753288 -286.23994870008096 -740.9132319974019 17.605480404267517 0.0 0.0
-1157.0626468087619 -273.68200083715686 -713.1073754208333 18.359259270776242 0.0 0.0
-1096.9357394813983 -245.45594930843362 -669.0100602709317 18.768418590029015 0.0 0.0
-1026.5016245382878 -207.3878286432109 -614.7555403658828 19.306589385762038 0.0 0.0
-953.5887663379099 -165.57379520143428 -557.0244330637928 19.912563359752276 0.0 0.0
-880.8367533145534 -126.38626894089899 -499.7718846392564 20.366598234848293 0.0 0.0
-811.6221012631786 -91.60354048705253 -444.4764282494098 20.754298177041935 0.0 0.0
-746.7366553150539 -63.87899848149623 -390.5240381342936 20.864987720724724 0.0 0.0
-683.5188219509822 -43.189702407074726 -333.4899933333387 20.770665007877525 0.0 0.0
-615.9676670554212 -26.921672067387238 -267.90403596301553 20.172017389134194 0.0 0.0
-548.2047896136195 -21.40447129102932 -201.97347644821247 19.256400476769866 0.0 0.0
-440.837158668616 -10.064875189540523 -137.7858435323789 23.58052264415109 0.0 0.0
-297.5657228139232 1.6587201998488283 -88.76324972455657 30.677473572823292 0.0 0.0
-168.61467458084152 -2.558495910164307 -51.35195114730173 29.981567103737053 0.0 0.0
-69.32948556719586 -15.397649097228966 -25.41814039932745 20.03142406659694 0.0 0.0
-25.868492604410367 -8.163102519281377 -10.209478537107524 11.302174586164906 0.0 0.0
-15.327293809869339 -3.8658578600521794 -5.757945500976454 -7.23686568716266 0.0 0.0
-58.738239841144086 -8.364846670946836 -20.130925953627276 -8.321982823274153 0.0 0.0
-174.10073026247204 -3.45357558064115 -53.26629175293395 -10.281662734115837 0.0 0.0
-330.31849034057154 -7.470471696868298 -101.32840775425922 -10.209945654017172 0.0 0.0
-495.9690401479954 -34.43094187745978 -165.93005261712764 -4.602313710318112 0.0 0.0
-608.1416139981508 -63.18545762284098 -247.05294549433938 -1.2380335351728675 0.0 0.0
-686.427796015775 -82.700063099169 -326.73445748563864 -0.9843470081555594 0.0 0.0
-771.2706133890869 -118.59776623888182 -409.7971650085167 -1.5025794982508351 0.0 0.0
-857.9460426702204 -163.9003647321871 -489.76504093285484 -2.104459218930211 0.0 0.0
-955.6573997902946 -224.1424261893821 -575.3789026078251 -2.894199663043171 0.0 0.0
-1068.4319845376692 -301.75988426105823 -673.1382230182988 -3.776305930209233 0.0 0.0
-1195.8077574037688 -396.6738974119079 -784.9396946947736 -4.690361052193108 0.0 0.0
-1334.3030408739771 -502.5653630502736 -906.8605574597821 -5.28779020194361 0.0 0.0
-1479.1032084900392 -614.768010547962 -1034.8478049421028 -5.883262578933445 0.0 0.0
-1618.9326920278863 -722.4146720059157 -1158.0173157715556 -6.395322588438063 0.0 0.0
-1737.6565758018212 -810.389512210539 -1260.9225989495476 -6.596938117454641 0.0 0.0
-1815.9107225902933 -861.0940143160542 -1325.2182698764434 -6.182628801060073 0.0 0.0
-1832.2563996327067 -854.8342191245299 -1330.4999680365834 -4.63979660476793 0.0 0.0
-1817.4383045246443 -823.1471887039992 -1307.9110058566157 -4.882695690161903 0.0 0.0
-1710.4606044272998 -711.2181231906495 -1195.466657350552 -33.380593488540256 0.0 0.0
-4577.859435438961 -3621.543703261338 -4066.8316772162243 -4.4707348934025504e-11 0.0 0.0
-1710.4606044269008 -711.2181231902653 -1195.4666573502795 33.38059348854128 0.0 0.0
-1817.4383045243815 -823.1471887037794 -1307.9110058563997 4.88269569016364 0.0 0.0
-1832.256399632002 -854.8342191238721 -1330.4999680360165 4.639796604765394 0.0 0.0
-1815.9107225896296 -861.0940143154756 -1325.2182698757929 6.1826288010775485 0.0 0.0
-1737.6565758009747 -810.3895122097728 -1260.9225989488318 6.5969381174909 0.0 0.0
-1618.9326920267974 -722.4146720049118 -1158.0173157705776 6.395322588464584 0.0 0.0
-1479.103208489651 -614.7680105477149 -1034.8478049416235 5.883262578936694 0.0 0.0
-1334.3030408727136 -502.56536304914766 -906.8605574587605 5.287790201978183 0.0 0.0
-1195.8077574028825 -396.67389741119126 -784.9396946941044 4.6903610521671695 0.0 0.0
-1068.4319845375428 -301.7598842611526 -673.138223018077 3.7763059301823283 0.0 0.0
-955.6573997894401 -224.14242618872112 -575.3789026071349 2.8941996630609843 0.0 0.0
-857.9460426696994 -163.90036473190955 -489.76504093239566 2.1044592188469835 0.0 0.0
-771.2706133886371 -118.59776623869658 -409.79716500808 1.5025794981945033 0.0 0.0
-686.4277960153751 -82.70006309904755 -326.73445748521317 0.9843470080279211 0.0 0.0
-608.141613997572 -63.18545762253024 -247.05294549385818 1.2380335350930594 0.0 0.0
-495.9690401475443 -34.43094187743711 -165.93005261691795 4.602313710317681 0.0 0.0
-330.3184903402718 -7.470471696833961 -101.32840775416162 10.20994565394422 0.0 0.0
-174.1007302623447 -3.453575580703653 -53.2662917529145 10.281662734158976 0.0 0.0
-58.738239841042656 -8.364846670895103 -20.13092595358133 8.321982823227694 0.0 0.0
-15.327293809858517 -3.865857860082589 -5.757945500982331 7.2368656871467225 0.0 0.0
SCALARS Strain float 6
LOOKUP_TABLE default
0.00991259488228352 -0.01764902006881315 0.0 -0.0004738011797305042 0.0 0.0
0.006164823168061038 -0.0010560699387289515 0.0 -0.0053258085450399555 0.0 0.0
0.002092415901085403 -0.0006541546177330537 0.0 -0.0005099263092431526 0.0 0.0
0.001934459782333133 -0.0007693962800856397 0.0 -5.1924864116743003e-05 0.0 0.0
0.002480395766223698 -0.000978825123357579 0.0 3.74868403590967e-05 0.0 0.0
0.0035825144339964483 -0.0017425402185197586 0.0 9.40955463378528e-05 0.0 0.0
0.005346490659107617 -0.003145894165604699 0.0 0.00011422105927555016 0.0 0.0
0.007778330396862824 -0.005180276507458498 0.0 0.00012146753969410621 0.0 0.0
0.010934296949889453 -0.007912994782349799 0.0 0.00012768797297668154 0.0 0.0
0.014865850299526768 -0.011356029326876016 0.0 0.0001230414495503052 0.0 0.0
0.01967290042902222 -0.01558404773932933 0.0 0.00015261439440140387 0.0 0.0
0.025545165931222885 -0.02078623813646492 0.0 0.0002138930944773934 0.0 0.0
0.03270294819559803 -0.027211973012353903 0.0 0.00022347900534333152 0.0 0.0
0.04134195942327128 -0.03507900542814216 0.0 0.00022908197375591153 0.0 0.0
0.05154524730455176 -0.044513443198169 0.0 0.00016391369028151263 0.0 0.0
0.06311798826617893 -0.05536372208165623 0.0 -2.0034544395870768e-08 0.0 0.0
0.07546725331926632 -0.06707083991726052 0.0 -0.0002447847162205237 0.0 0.0
0.08758415163124117 -0.07865948140447224 0.0 -0.00047608465437277807 0.0 0.0
0.09817705860567294 -0.08886105298440178 0.0 -0.0005383612416907618 0.0 0.0
0.10582872750068267 -0.09630470632449423 0.0 -0.0005407378306921105 0.0 0.0
0.10873733252363457 -0.09922932119853131 0.0 1.3869114190434573e-15 0.0 0.0
0.1058287275006746 -0.09630470632448435 0.0 0.000540737830695681 0.0 0.0
0.09817705860565361 -0.08886105298438032 0.0 0.0005383612416960531 0.0 0.0
0.08758415163121326 -0.0786594814044466 0.0 0.00047608465437650165 0.0 0.0
0.07546725331923396 -0.06707083991723116 0.0 0.00024478471622060675 0.0 0.0
0.06311798826614545 -0.055363722081626876 0.0 2.0034543554529882e-08 0.0 0.0
0.05154524730451818 -0.044513443198139935 0.0 -0.00016391369028178216 0.0 0.0
0.0413419594232369 -0.03507900542810852 0.0 -0.00022908197375615114 0.0 0.0
0.032702948195563304 -0.027211973012320263 0.0 -0.0002234790053438514 0.0 0.0
0.025545165931189447 -0.020786238136433023 0.0 -0.00021389309447890424 0.0 0.0
0.019672900428992793 -0.015584047739305718 0.0 -0.0001526143944033249 0.0 0.0
0.014865850299502624 -0.011356029326855576 0.0 -0.00012304144955122952 0.0 0.0
0.01093429694987016 -0.007912994782333971 0.0 -0.00012768797297636817 0.0 0.0
0.00777833039684795 -0.005180276507445404 0.0 -0.00012146753969426106 0.0 0.0
0.005346490659096922 -0.0031458941655973316 0.0 -0.00011422105927579078 0.0 0.0
0.0035825144339902007 -0.001742540218518543 0.0 -9.409554633617668e-05 0.0 0.0
0.002480395766221035 -0.0009788251233544506 0.0 -3.748684036010548e-05 0.0 0.0
0.0019344597823320805 -0.0007693962800856872 0.0 5.192486411794286e-05 0.0 0.0
0.002092415901084203 -0.0006541546177330434 0.0 0.000509926309240985 0.0 0.0
0.006164823168056988 -0.0010560699387275497 0.0 0.0053258085450324354 0.0 0.0
0.00991259488227735 -0.017649020068792542 0.0 0.0004738011796985289 0.0 0.0
0.006609086355339203 -0.015691515462420286 0.0 -3.8953672609499447e-05 0.0 0.0
0.003973150723569817 -0.0007534940897551543 0.0 -0.004115266772512429 0.0 0.0
0.0014684169062122816 -0.0005284419748897332 0.0 -0.0003470431123460089 0.0 0.0
0.0017411927500123178 -0.0007378742306558838 0.0 -0.0002126329059084013 0.0 0.0
0.00218784050402369 -0.0009076295160733874 0.0 -0.00017371258848392621 0.0 0.0
0.003129046750053493 -0.001569739845854343 0.0 -0.00018589537729446273 0.0 0.0
0.004708407324333927 -0.0028761457717297696 0.0 -0.00033386660823664073 0.0 0.0
0.0069199137052926366 -0.004797851123489248 0.0 -0.0005019059178994877 0.0 0.0
0.009790003608334302 -0.0073887113597914875 0.0 -0.000704616801486108 0.0 0.0
0.013345692466605856 -0.010650644179916626 0.0 -0.0009333809761773689 0.0 0.0
0.017662609378547852 -0.01464743708084254 0.0 -0.001158782514982467 0.0 0.0
0.022903983351762205 -0.019549078605930942 0.0 -0.0013783634929690736 0.0 0.0
0.029303294491861635 -0.02560291030486968 0.0 -0.0016660523417668899 0.0 0.0
0.03707234166843543 -0.033044143886777774 0.0 -0.002047994476600618 0.0 0.0
0.046298534864367 -0.04199439249652332 0.0 -0.0025202520898865077 0.0 0.0
0.05681541668566941 -0.05231542096215972 0.0 -0.0030666976078904816 0.0 0.0
0.06808260383858236 -0.06348090029331328 0.0 -0.0035569948701850073 0.0 0.0
0.07918823296827121 -0.07456921084263404 0.0 -0.0037315984701901143 0.0 0.0
0.08893689016897366 -0.08436758879266285 0.0 -0.003335089615049959 0.0 0.0
0.09587944058772786 -0.09147744480092089 0.0 -0.0024451456902734097 0.0 0.0
0.09845053478898626 -0.09430176343760126 0.0 4.049278273798862e-15 0.0 0.0
0.09587944058772008 -0.09147744480091399 0.0 0.0024451456902832565 0.0 0.0
0.08893689016895688 -0.08436758879264415 0.0 0.0033350896150617783 0.0 0.0
0.07918823296824735 -0.07456921084261003 0.0 0.0037315984701976937 0.0 0.0
0.06808260383855418 -0.06348090029328962 0.0 0.003556994870185563 0.0 0.0
0.05681541668563948 -0.05231542096213172 0.0 0.0030666976078894312 0.0 0.0
0.04629853486433669 -0.0419943924964981 0.0 0.002520252089886101 0.0 0.0
0.03707234166840453 -0.033044143886746924 0.0 0.0020479944766008604 0.0 0.0
0.029303294491830348 -0.025602910304839112 0.0 0.0016660523417641436 0.0 0.0
0.022903983351731945 -0.019549078605900612 0.0 0.0013783634929667565 0.0 0.0
0.017662609378521328 -0.0146474370808195 0.0 0.001158782514979144 0.0 0.0
0.013345692466584003 -0.010650644179896588 0.0 0.0009333809761746292 0.0 0.0
0.009790003608316625 -0.007388711359775655 0.0 0.0007046168014850519 0.0 0.0
0.006919913705279017 -0.004797851123476748 0.0 0.0005019059178972241 0.0 0.0
0.004708407324324586 -0.0028761457717217946 0.0 0.00033386660823501904 0.0 0.0
0.0031290467500484963 -0.0015697398458521012 0.0 0.00018589537729533166 0.0 0.0
0.002187840504021811 -0.0009076295160712637 0.0 0.00017371258848425505 0.0 0.0
0.0017411927500116822 -0.0007378742306559978 0.0 0.0002126329059087504 0.0 0.0
0.0014684169062121086 -0.0005284419748899899 0.0 0.00034704311234493593 0.0 0.0
0.00397315072356528 -0.0007534940897533034 0.0 0.004115266772504045 0.0 0.0
0.006609086355329871 -0.01569151546239957 0.0 3.8953672585273166e-05 0.0 0.0
0.004705364636666199 -0.012332801281291593 0.0 -0.0023667434043477317 0.0 0.0
0.0027415880328203286 -0.00037941621122890344 0.0 -0.003963205337321601 0.0 0.0
0.0010428409564063467 -0.00031360605743772896 0.0 -0.0003397671587799525 0.0 0.0
0.0014937743611650417 -0.0006460110894086754 0.0 -0.0004662609166025206 0.0 0.0
0.001923039475633 -0.0007880600802370845 0.0 -0.00046855066092427384 0.0 0.0
0.0026933755173964907 -0.0012506298093581465 0.0 -0.0004469432689612157 0.0 0.0
0.004065729342772903 -0.00233860915993114 0.0 -0.0007094883003080692 0.0 0.0
0.006051005753562319 -0.004038442691480292 0.0 -0.0010548543694848438 0.0 0.0
0.008628196535378049 -0.006339169972023142 0.0 -0.001467343293648239 0.0 0.0
0.011807463349647539 -0.009238768421055 0.0 -0.0019231120065113143 0.0 0.0
0.015642012047520124 -0.012774559601732046 0.0 -0.0023905940357975084 0.0 0.0
0.020270222115435166 -0.01708572891552671 0.0 -0.002857639082811164 0.0 0.0
0.025909734100922364 -0.022401987475032227 0.0 -0.0033796689218784323 0.0 0.0
0.032791313722892595 -0.028978911986127433 0.0 -0.004064609849794087 0.0 0.0
0.041018669847599776 -0.03694939131654636 0.0 -0.004934410412973795 0.0 0.0
0.0504499290951265 -0.04619782024267559 0.0 -0.005907423500923815 0.0 0.0
0.060626770808157225 -0.056271923531055784 0.0 -0.006748241666626452 0.0 0.0
0.07074460555036523 -0.06636588919551491 0.0 -0.007029531888876903 0.0 0.0
0.07967756244467708 -0.07536365281666083 0.0 -0.006345814088083999 0.0 0.0
0.08607792248936262 -0.0818894279437191 0.0 -0.004584849946179367 0.0 0.0
0.08846792422074609 -0.0846044761033218 0.0 8.284171959527242e-15 0.0 0.0
0.08607792248935539 -0.08188942794371232 0.0 0.004584849946197754 0.0 0.0
0.07967756244466218 -0.0753636528166468 0.0 0.00634581408810341 0.0 0.0
0.07074460555034431 -0.06636588919549381 0.0 0.007029531888888926 0.0 0.0
0.060626770808132766 -0.056271923531035495 0.0 0.006748241666629181 0.0 0.0
0.050449929095100085 -0.04619782024265141 0.0 0.0059074235009222015 0.0 0.0
0.04101866984757281 -0.03694939131652346 0.0 0.004934410412972512 0.0 0.0
0.03279131372286528 -0.028978911986100267 0.0 0.004064609849793536 0.0 0.0
0.02590973410089491 -0.022401987475007785 0.0 0.003379668921875632 0.0 0.0
0.020270222115408455 -0.017085728915499858 0.0 0.0028576390828076066 0.0 0.0
0.015642012047496413 -0.012774559601710155 0.0 0.0023905940357933277 0.0 0.0
0.011807463349627973 -0.009238768421036832 0.0 0.0019231120065067741 0.0 0.0
0.008628196535362008 -0.006339169972008795 0.0 0.0014673432936457916 0.0 0.0
0.006051005753550154 -0.004038442691468455 0.0 0.0010548543694815743 0.0 0.0
0.004065729342764979 -0.0023386091599242424 0.0 0.0007094883003064476 0.0 0.0
0.002693375517392554 -0.001250629809354976 0.0 0.0004469432689607931 0.0 0.0
0.0019230394756313347 -0.0007880600802365687 0.0 0.0004685506609247406 0.0 0.0
0.0014937743611644811 -0.0006460110894085252 0.0 0.0004662609166016258 0.0 0.0
0.0010428409564065342 -0.0003136060574381742 0.0 0.0003397671587795783 0.0 0.0
0.0027415880328160026 -0.0003794162112264941 0.0 0.003963205337310629 0.0 0.0
0.004705364636657093 -0.012332801281271847 0.0 0.002366743404331093 0.0 0.0
0.003468963174843402 -0.00983830289960888 0.0 -0.002774105987070735 0.0 0.0
0.0019718576087469934 -0.0003009580265885388 0.0 -0.0036612699228372836 0.0 0.0
0.0007475754157096035 -0.00017321710469515031 0.0 -0.0006278319714123556 0.0 0.0
0.0012385773645776392 -0.0005186344240390788 0.0 -0.0006980532297890084 0.0 0.0
0.001670387333575041 -0.0006932033926030595 0.0 -0.0007694306768014536 0.0 0.0
0.00229245877149471 -0.001002255700136262 0.0 -0.0007269794445510896 0.0 0.0
0.0034324229645917343 -0.0018256805821353305 0.0 -0.0009625185081629578 0.0 0.0
0.0051742924565665255 -0.003289009029568754 0.0 -0.0014713813609191623 0.0 0.0
0.0074555940468152455 -0.005294632012084448 0.0 -0.0020477339040815196 0.0 0.0
0.010258685095469762 -0.007829073771271386 0.0 -0.0026838901197020434 0.0 0.0
0.013616729316228367 -0.010909551398097465 0.0 -0.003337811190220323 0.0 0.0
0.017643922747012084 -0.014644174029947218 0.0 -0.003994938602378317 0.0 0.0
0.022538197733300284 -0.019236592161858485 0.0 -0.004713104649504064 0.0 0.0
0.028520325351914143 -0.02493846398828651 0.0 -0.00560785144187259 0.0 0.0
0.0357201211736111 -0.03190192384089013 0.0 -0.0067448359751874415 0.0 0.0
0.044045397363180916 -0.04005020633550057 0.0 -0.008036502213079662 0.0 0.0
0.05311430522909335 -0.049013651718738324 0.0 -0.009158529281551732 0.0 0.0
0.062236299423197916 -0.05810941844489116 0.0 -0.009574337336775028 0.0 0.0
0.07039935495942908 -0.06632692879268473 0.0 -0.008744061538383988 0.0 0.0
0.07637596535102481 -0.07240996597910253 0.0 -0.006215377256693079 0.0 0.0
0.07865722354681802 -0.07515363420797445 0.0 1.0593088906052373e-14 0.0 0.0
0.07637596535101772 -0.07240996597909295 0.0 0.006215377256717792 0.0 0.0
0.07039935495941574 -0.06632692879267416 0.0 0.008744061538407876 0.0 0.0
0.06223629942317964 -0.05810941844487448 0.0 0.009574337336790093 0.0 0.0
0.05311430522907196 -0.04901365171871679 0.0 0.009158529281555888 0.0 0.0
0.044045397363157664 -0.04005020633547988 0.0 0.008036502213077591 0.0 0.0
0.035720121173587284 -0.03190192384086799 0.0 0.006744835975187182 0.0 0.0
0.02852032535189008 -0.024938463988263115 0.0 0.005607851441871509 0.0 0.0
0.022538197733276227 -0.019236592161837176 0.0 0.004713104649501083 0.0 0.0
0.017643922746988824 -0.01464417402992476 0.0 0.003994938602372745 0.0 0.0
0.013616729316207448 -0.010909551398078216 0.0 0.0033378111902153213 0.0 0.0
0.010258685095452481 -0.007829073771256233 0.0 0.002683890119695767 0.0 0.0
0.007455594046801335 -0.005294632012071467 0.0 0.002047733904078007 0.0 0.0
0.005174292456556018 -0.0032890090295602512 0.0 0.0014713813609154869 0.0 0.0
0.0034324229645851267 -0.0018256805821303158 0.0 0.0009625185081616429 0.0 0.0
0.0022924587714916508 -0.001002255700133209 0.0 0.000726979444550122 0.0 0.0
0.00167038733357386 -0.000693203392602673 0.0 0.0007694306768006864 0.0 0.0
0.0012385773645772244 -0.0005186344240380524 0.0 0.0006980532297880524 0.0 0.0
0.0007475754157097073 -0.00017321710469565214 0.0 0.0006278319714112662 0.0 0.0
0.0019718576087430937 -0.0003009580265862162 0.0 0.0036612699228270066 0.0 0.0
0.003468963174835338 -0.009838302899591566 0.0 0.002774105987058991 0.0 0.0
0.002578655837651098 -0.00785001237217735 0.0 -0.002540143003215427 0.0 0.0
0.0014427790750724653 -0.0003030095489733203 0.0 -0.0033316314242318695 0.0 0.0
0.0005392647962542226 -9.650652908631999e-05 0.0 -0.0009917618586098866 0.0 0.0
0.0009954831227948827 -0.0003890315523231119 0.0 -0.0009517645650839804 0.0 0.0
0.0014190231902542663 -0.0005948565814923801 0.0 -0.0010525642142592696 0.0 0.0
0.0019324527830300179 -0.0008216419865324832 0.0 -0.001032976654135596 0.0 0.0
0.002830995915772309 -0.0013849245084559417 0.0 -0.001171120660430137 0.0 0.0
0.004295846862560387 -0.0025515067333172475 0.0 -0.0017063804494346095 0.0 0.0
0.006279014496841311 -0.004265703964133174 0.0 -0.0024390756313948177 0.0 0.0
0.00870551317941373 -0.006432725019057269 0.0 -0.0032086710630971045 0.0 0.0
0.011594109564771414 -0.009062014966937303 0.0 -0.003999115153307169 0.0 0.0
0.015031161302530592 -0.01223078976831238 0.0 -0.004789021088116996 0.0 0.0
0.01918819804029456 -0.01611232357194456 0.0 -0.00564218906340901 0.0 0.0
0.02427914295224493 -0.020941987736725516 0.0 -0.006680346047673367 0.0 0.0
0.03043805100398065 -0.02688287522227016 0.0 -0.007979265360814072 0.0 0.0
0.03762195483607582 -0.03390253726278388 0.0 -0.009445005571049839 0.0 0.0
0.04555362954864281 -0.04172246817160044 0.0 -0.010752208638530212 0.0 0.0
0.053662916953707944 -0.049791983650157925 0.0 -0.011335948254455002 0.0 0.0
0.061080511483788555 -0.057248722403190844 0.0 -0.010479777067914692 0.0 0.0
0.06670913928711442 -0.06298160986856789 0.0 -0.007467213435683709 0.0 0.0
0.0689285287902375 -0.06583705410045729 0.0 1.2358603723727768e-14 0.0 0.0
0.0667091392871079 -0.0629816098685601 0.0 0.007467213435711431 0.0 0.0
0.061080511483776426 -0.0572487224031778 0.0 0.010479777067940073 0.0 0.0
0.053662916953692213 -0.04979198365014342 0.0 0.011335948254471657 0.0 0.0
0.04555362954862421 -0.0417224681715833 0.0 0.01075220863853497 0.0 0.0
0.0376219548360556 -0.033902537262764876 0.0 0.009445005571047545 0.0 0.0
0.030438051003960277 -0.026882875222251055 0.0 0.007979265360812351 0.0 0.0
0.02427914295222427 -0.020941987736707277 0.0 0.006680346047672033 0.0 0.0
0.019188198040273958 -0.01611232357192505 0.0 0.005642189063404586 0.0 0.0
0.01503116130251109 -0.012230789768295907 0.0 0.004789021088108901 0.0 0.0
0.011594109564753765 -0.009062014966920327 0.0 0.003999115153299636 0.0 0.0
0.008705513179398612 -0.006432725019044291 0.0 0.003208671063089834 0.0 0.0
0.006279014496829229 -0.0042657039641225795 0.0 0.0024390756313898156 0.0 0.0
0.0042958468625516055 -0.002551506733311007 0.0 0.001706380449430276 0.0 0.0
0.0028309959157670514 -0.0013849245084529658 0.0 0.0011711206604282354 0.0 0.0
0.0019324527830276495 -0.0008216419865309723 0.0 0.0010329766541346884 0.0 0.0
0.0014190231902532907 -0.0005948565814920356 0.0 0.001052564214257966 0.0 0.0
0.0009954831227945906 -0.0003890315523225181 0.0 0.000951764565083061 0.0 0.0
0.0005392647962541983 -9.650652908660583e-05 0.0 0.0009917618586079522 0.0 0.0
0.0014427790750690395 -0.00030300954897150104 0.0 0.003331631424223173 0.0 0.0
0.002578655837644369 -0.007850012372162688 0.0 0.0025401430032075227 0.0 0.0
0.0019075272442171803 -0.006215251480426386 0.0 -0.0021743778869948655 0.0 0.0
0.0010566886026518135 -0.00032187320222015596 0.0 -0.0030074384990229066 0.0 0.0
0.00038403153999052377 -5.9116732055980716e-05 0.0 -0.0013357185797053992 0.0 0.0
0.0007695788206821202 -0.00027165592657661886 0.0 -0.0012152774076803188 0.0 0.0
0.0011660824103045361 -0.00048508382216459224 0.0 -0.0013113069746634608 0.0 0.0
0.0015991618445726264 -0.0006777451883295823 0.0 -0.001335697150419523 0.0 0.0
0.0022860950711819325 -0.001044313962651119 0.0 -0.0014141905411653478 0.0 0.0
0.003441978176701184 -0.0018750831730225724 0.0 -0.0018218393943486653 0.0 0.0
0.005096799238391118 -0.0032574954575068506 0.0 -0.0026023798755441916 0.0 0.0
0.0071546702492036995 -0.005061647313437495 0.0 -0.003486825429919435 0.0 0.0
0.009578901102838202 -0.007242374870089812 0.0 -0.004361498231432036 0.0 0.0
0.012437811742485592 -0.00985622726587703 0.0 -0.005235799262877015 0.0 0.0
0.015873155608799747 -0.013039727320007556 0.0 -0.0061598812689670135 0.0 0.0
0.020073816108119886 -0.017004628937460426 0.0 -0.007258668796145379 0.0 0.0
0.025189145777219438 -0.021917159017390563 0.0 -0.008622378578657401 0.0 0.0
0.03121981689481273 -0.027789782393634468 0.0 -0.010157026566109053 0.0 0.0
0.037966394870497515 -0.03442605811383991 0.0 -0.011542804454208423 0.0 0.0
0.045016950340194206 -0.04141812927839472 0.0 -0.01225247515080415 0.0 0.0
0.051687422240236834 -0.048102623061427305 0.0 -0.011516817973534184 0.0 0.0
0.05701219663839166 -0.05353539935300895 0.0 -0.008368100017216237 0.0 0.0
0.059201755872492504 -0.056574096610765595 0.0 1.246312081315537e-14 0.0 0.0
0.05701219663838544 -0.0535353993530044 0.0 0.00836810001724394 0.0 0.0
0.051687422240225975 -0.04810262306141339 0.0 0.011516817973561317 0.0 0.0
0.045016950340180883 -0.041418129278383994 0.0 0.012252475150821344 0.0 0.0
0.0379663948704819 -0.034426058113826166 0.0 0.011542804454212734 0.0 0.0
0.031219816894795444 -0.027789782393617676 0.0 0.01015702656610636 0.0 0.0
0.025189145777202413 -0.02191715901737421 0.0 0.008622378578653889 0.0 0.0
0.020073816108102896 -0.017004628937447044 0.0 0.007258668796142861 0.0 0.0
0.015873155608782503 -0.013039727319990946 0.0 0.00615988126896282 0.0 0.0
0.012437811742469317 -0.009856227265863259 0.0 0.005235799262870299 0.0 0.0
0.009578901102823455 -0.007242374870075095 0.0 0.004361498231422645 0.0 0.0
0.007154670249191038 -0.0050616473134266725 0.0 0.003486825429911148 0.0 0.0
0.005096799238381139 -0.0032574954574984927 0.0 0.00260237987553933 0.0 0.0
0.003441978176694202 -0.0018750831730163925 0.0 0.0018218393943450696 0.0 0.0
0.0022860950711782323 -0.0010443139626501634 0.0 0.0014141905411633054 0.0 0.0
0.0015991618445710951 -0.000677745188329532 0.0 0.0013356971504184128 0.0 0.0
0.0011660824103037991 -0.00048508382216495664 0.0 0.0013113069746623724 0.0 0.0
0.0007695788206817354 -0.0002716559265765823 0.0 0.001215277407678451 0.0 0.0
0.0003840315399902934 -5.911673205589749e-05 0.0 0.0013357185797025274 0.0 0.0
0.00105668860264911 -0.0003218732022189592 0.0 0.00300743849901539 0.0 0.0
0.0019075272442119692 -0.006215251480414249 0.0 0.0021743778869895043 0.0 0.0
0.0013965611759197303 -0.004856940397857101 0.0 -0.0018346290098681653 0.0 0.0
0.0007658181683422409 -0.00034484394302555256 0.0 -0.0027161929036914174 0.0 0.0
0.0002586657291442601 -3.8702330794304475e-05 0.0 -0.0016229742749715177 0.0 0.0
0.0005603562389610862 -0.0001694236227768001 0.0 -0.0014673458247967323 0.0 0.0
0.0009103658900410428 -0.0003666444676253701 0.0 -0.0015417039945937762 0.0 0.0
0.0012751595094145378 -0.0005470073357437162 0.0 -0.001615324245936593 0.0 0.0
0.0017914968774261361 -0.000780773681993786 0.0 -0.0016640202598769422 0.0 0.0
0.0026494040831279916 -0.001317988818286923 0.0 -0.0019349020184064461 0.0 0.0
0.0039364338608030335 -0.0023106561469643364 0.0 -0.002571051634641189 0.0 0.0
0.005606105645712297 -0.0037280128438057884 0.0 -0.0034764733645184123 0.0 0.0
0.007577600594590174 -0.005465802859049715 0.0 -0.004407305218040863 0.0 0.0
0.009868398921260726 -0.00753249251546264 0.0 -0.005318547396991527 0.0 0.0
0.012596687996555375 -0.010032750197459932 0.0 -0.006258065174758811 0.0 0.0
0.015924865157948283 -0.013147136559536692 0.0 -0.007344980805541379 0.0 0.0
0.019994320491860326 -0.017031109425485427 0.0 -0.008656657584810113 0.0 0.0
0.02485035348856066 -0.021740957500284118 0.0 -0.010152537271125086 0.0 0.0
0.030384001254019466 -0.02715798851885804 0.0 -0.0115362718219814 0.0 0.0
0.036315369280867024 -0.03301056209658596 0.0 -0.012321659363053834 0.0 0.0
0.0421811941278815 -0.03886130530394036 0.0 -0.011805475675047784 0.0 0.0
0.047209193555003234 -0.04399496002989619 0.0 -0.008893100640796854 0.0 0.0
0.04939195327783223 -0.04728672475715746 0.0 1.1275702593849246e-14 0.0 0.0
0.04720919355499768 -0.043994960029893934 0.0 0.008893100640823869 0.0 0.0
0.042181194127872315 -0.03886130530393102 0.0 0.011805475675074277 0.0 0.0
0.03631536928085589 -0.03301056209657816 0.0 0.01232165936307075 0.0 0.0
0.030384001254006532 -0.027157988518845995 0.0 0.011536271821984448 0.0 0.0
0.02485035348854645 -0.021740957500269126 0.0 0.01015253727112089 0.0 0.0
0.019994320491846462 -0.017031109425471497 0.0 0.008656657584805808 0.0 0.0
0.01592486515793499 -0.013147136559526226 0.0 0.007344980805538755 0.0 0.0
0.012596687996542181 -0.010032750197448374 0.0 0.006258065174755049 0.0 0.0
0.009868398921247717 -0.007532492515450727 0.0 0.005318547396983456 0.0 0.0
0.00757760059457821 -0.005465802859040654 0.0 0.004407305218031071 0.0 0.0
0.00560610564570239 -0.003728012843796591 0.0 0.003476473364510696 0.0 0.0
0.003936433860795325 -0.0023106561469570675 0.0 0.002571051634636322 0.0 0.0
0.0026494040831228265 -0.0013179888182833401 0.0 0.0019349020184036094 0.0 0.0
0.0017914968774234731 -0.0007807736819933245 0.0 0.001664020259875742 0.0 0.0
0.0012751595094134744 -0.0005470073357427332 0.0 0.0016153242459352312 0.0 0.0
0.0009103658900405738 -0.0003666444676257832 0.0 0.001541703994592339 0.0 0.0
0.0005603562389607134 -0.00016942362277607974 0.0 0.00146734582479452 0.0 0.0
0.0002586657291440879 -3.870233079407942e-05 0.0 0.001622974274968936 0.0 0.0
0.0007658181683404179 -0.00034484394302480446 0.0 0.002716192903686013 0.0 0.0
0.001396561175916127 -0.004856940397847518 0.0 0.001834629009864369 0.0 0.0
0.0010048813031928777 -0.0037412377705588005 0.0 -0.0015901640468293878 0.0 0.0
0.0005408716991775 -0.00037175691907094543 0.0 -0.0024616327192534242 0.0 0.0
0.0001491140841130466 -2.0113886359012556e-05 0.0 -0.0018478549928205527 0.0 0.0
0.00036461759438058096 -8.027342083311317e-05 0.0 -0.0016895631270555129 0.0 0.0
0.0006534148446606372 -0.00024637408490867953 0.0 -0.0017414987385917335 0.0 0.0
0.0009543780080562671 -0.0004083889809796835 0.0 -0.0018455815286561594 0.0 0.0
0.0013315956431274498 -0.0005702491865476301 0.0 -0.0019155222652508653 0.0 0.0
0.001924221430618636 -0.0008834212256315841 0.0 -0.002065230614054278 0.0 0.0
0.0028389153667124217 -0.0014948797454490197 0.0 -0.0024684945881231733 0.0 0.0
0.004082102875817134 -0.0024776264815524235 0.0 -0.003200701862263865 0.0 0.0
0.005588921452418327 -0.003754422853286152 0.0 -0.004103791905891708 0.0 0.0
0.007326893083751878 -0.00528218659164127 0.0 -0.00500148097870705 0.0 0.0
0.009366841325017524 -0.007113281824561578 0.0 -0.005913514651693673 0.0 0.0
0.011839224822701075 -0.009394820567136659 0.0 -0.006919447615445515 0.0 0.0
0.014874412857717779 -0.012261569574459421 0.0 -0.008100449639665183 0.0 0.0
0.018545268275867357 -0.015792154252987422 0.0 -0.009424542212271174 0.0 0.0
0.02282191877546675 -0.01995489571007026 0.0 -0.010708873518042977 0.0 0.0
0.027567750100635814 -0.024603281563471312 0.0 -0.011512540489832001 0.0 0.0
0.03254012728452546 -0.02951301306384716 0.0 -0.01127991669197415 0.0 0.0
0.03722252319787785 -0.034282049160015614 0.0 -0.008983878383487742 0.0 0.0
0.03940029760705532 -0.03789397671149752 0.0 8.729562211984288e-15 0.0 0.0
0.03722252319787339 -0.034282049160013046 0.0 0.008983878383511229 0.0 0.0
0.032540127284518036 -0.02951301306384118 0.0 0.011279916691999237 0.0 0.0
0.027567750100626915 -0.024603281563460276 0.0 0.011512540489846039 0.0 0.0
0.022821918775456702 -0.019954895710062075 0.0 0.010708873518044842 0.0 0.0
0.018545268275856546 -0.015792154252977104 0.0 0.009424542212266447 0.0 0.0
0.01487441285770754 -0.012261569574449075 0.0 0.008100449639661264 0.0 0.0
0.01183922482269158 -0.009394820567129909 0.0 0.006919447615443171 0.0 0.0
0.009366841325007567 -0.0071132818245526605 0.0 0.0059135146516905365 0.0 0.0
0.007326893083742044 -0.005282186591633043 0.0 0.00500148097869935 0.0 0.0
0.005588921452409639 -0.003754422853278876 0.0 0.004103791905884051 0.0 0.0
0.004082102875809856 -0.002477626481545064 0.0 0.0032007018622580903 0.0 0.0
0.0028389153667071534 -0.001494879745445099 0.0 0.0024684945881197815 0.0 0.0
0.0019242214306154485 -0.0008834212256302329 0.0 0.0020652306140522846 0.0 0.0
0.0013315956431258422 -0.0005702491865475409 0.0 0.0019155222652492594 0.0 0.0
0.0009543780080555442 -0.0004083889809788901 0.0 0.001845581528654129 0.0 0.0
0.0006534148446601253 -0.00024637408490860445 0.0 0.0017414987385893565 0.0 0.0
0.0003646175943801678 -8.027342083262574e-05 0.0 0.0016895631270530285 0.0 0.0
0.0001491140841128122 -2.0113886358462858e-05 0.0 0.0018478549928187373 0.0 0.0
0.0005408716991761328 -0.00037175691907081706 0.0 0.002461632719249278 0.0 0.0
0.001004881303190305 -0.003741237770551712 0.0 0.0015901640468276067 0.0 0.0
0.0007210068393155914 -0.002877592556701647 0.0 -0.0014715730398793558 0.0 0.0
0.00036781798513030274 -0.0003976696641096599 0.0 -0.0022611306840498494 0.0 0.0
4.468004999147304e-05 3.2536743765487754e-06 0.0 -0.0020119732093317106 0.0 0.0
0.000180278269500016 -1.2866656485853605e-06 0.0 -0.001870490191027824 0.0 0.0
0.00039819561745860156 -0.00012808744707657605 0.0 -0.0019034296410498667 0.0 0.0
0.0006246686063582702 -0.00025850017427601446 0.0 -0.002019229252394952 0.0 0.0
0.0008883557068752577 -0.0003816734645845347 0.0 -0.0021391142411486537 0.0 0.0
0.0012642057155082564 -0.0005529863386351144 0.0 -0.0022394183953269014 0.0 0.0
0.0018278109370496501 -0.0008652877860981092 0.0 -0.002431859813901808 0.0 0.0
0.002624806849424319 -0.001404450455847411 0.0 -0.0028195177866013753 0.0 0.0
0.003636377842683002 -0.0021796254767112015 0.0 -0.003489777155168245 0.0 0.0
0.004815936886200205 -0.0031585544970305587 0.0 -0.0042571763628453455 0.0 0.0
0.006183366920049634 -0.0043280729518031 0.0 -0.005088672969822092 0.0 0.0
0.007825676500123283 -0.005797070641852374 0.0 -0.005980532134065834 0.0 0.0
0.009844438264608601 -0.0076615584778542845 0.0 -0.006960186285300723 0.0 0.0
0.012323989118811145 -0.010007485059723611 0.0 -0.00804412048431478 0.0 0.0
0.015314762891911662 -0.01287489139490245 0.0 -0.009138677704073948 0.0 0.0
0.018800738777937677 -0.016260153303161735 0.0 -0.009921326066642012 0.0 0.0
0.0227380799319218 -0.020091488754739963 0.0 -0.009890476927291681 0.0 0.0
0.026963497631668967 -0.024322128115312598 0.0 -0.008471085255132045 0.0 0.0
0.02911008951690902 -0.028294852741350324 0.0 7.004813395994347e-15 0.0 0.0
0.02696349763166604 -0.02432212811530894 0.0 0.008471085255151433 0.0 0.0
0.022738079931916597 -0.02009148875473649 0.0 0.00989047692731451 0.0 0.0
0.018800738777931213 -0.01626015330315257 0.0 0.00992132606665407 0.0 0.0
0.015314762891904667 -0.0128748913948971 0.0 0.009138677704074323 0.0 0.0
0.012323989118803766 -0.010007485059717764 0.0 0.008044120484310815 0.0 0.0
0.009844438264601919 -0.007661558477850057 0.0 0.006960186285297418 0.0 0.0
0.007825676500117297 -0.005797070641847801 0.0 0.005980532134064595 0.0 0.0
0.006183366920043415 -0.004328072951796729 0.0 0.005088672969819248 0.0 0.0
0.004815936886194013 -0.0031585544970266755 0.0 0.004257176362839287 0.0 0.0
0.0036363778426773312 -0.0021796254767050913 0.0 0.0034897771551630633 0.0 0.0
0.0026248068494197025 -0.0014044504558434546 0.0 0.002819517786597623 0.0 0.0
0.0018278109370466838 -0.000865287786096303 0.0 0.0024318598139004347 0.0 0.0
0.0012642057155064607 -0.0005529863386343833 0.0 0.002239418395325503 0.0 0.0
0.0008883557068742147 -0.00038167346458388196 0.0 0.00213911424114681 0.0 0.0
0.0006246686063577964 -0.0002585001742773618 0.0 0.0020192292523924494 0.0 0.0
0.0003981956174584237 -0.00012808744707609805 0.0 0.0019034296410474468 0.0 0.0
0.00018027826949992913 -1.2866656484066722e-06 0.0 0.001870490191025192 0.0 0.0
4.468004999131285e-05 3.2536743771503327e-06 0.0 0.0020119732093300843 0.0 0.0
0.00036781798512949246 -0.00039766966410988375 0.0 0.002261130684046579 0.0 0.0
0.0007210068393141483 -0.0028775925566967967 0.0 0.0014715730398787204 0.0 0.0
0.0005254682143419113 -0.0022407009263871397 0.0 -0.0014173417600362522 0.0 0.0
0.0002400084574121179 -0.0004135389509248023 0.0 -0.00212165985309909 0.0 0.0
-5.364351306069212e-05 3.017265653099497e-05 0.0 -0.0021175691537553784 0.0 0.0
5.199631203988622e-06 7.041929411636176e-05 0.0 -0.0020037264789984385 0.0 0.0
0.00014665805040293338 -1.2748975622859431e-05 0.0 -0.0020202700966149715 0.0 0.0
0.0002904343806177147 -0.00010432789736130029 0.0 -0.0021335307073244254 0.0 0.0
0.00043949058853637573 -0.00018533980311524818 0.0 -0.0022808537300970646 0.0 0.0
0.0006299844482431553 -0.0002738798286885562 0.0 -0.002410307548228605 0.0 0.0
0.0009048315180516953 -0.0003999829063100135 0.0 -0.002499677913071498 0.0 0.0
0.001279766741349377 -0.0006075812168259268 0.0 -0.0026280050529606733 0.0 0.0
0.0017687529075206614 -0.0009250285998019714 0.0 -0.0029309100851336164 0.0 0.0
0.002360695077122117 -0.001355045568475962 0.0 -0.0034153809082406077 0.0 0.0
0.003048135749231348 -0.0018769192620643233 0.0 -0.004018744819938234 0.0 0.0
0.003879197042822375 -0.0025495050399387937 0.0 -0.0047309527045301955 0.0 0.0
0.004904736866156827 -0.0034173839384854816 0.0 -0.005551645863801942 0.0 0.0
0.0061968624630611745 -0.004559094200836154 0.0 -0.006499156210227218 0.0 0.0
0.007866971258971876 -0.006085078833659346 0.0 -0.007511014711763894 0.0 0.0
0.01005212853641841 -0.00814527211213996 0.0 -0.00833149397383425 0.0 0.0
0.012824680744494379 -0.010813268824128527 0.0 -0.008417887415656456 0.0 0.0
0.016349177095639787 -0.014162660394581715 0.0 -0.007382292912354429 0.0 0.0
0.018340211192827225 -0.018404580639273537 0.0 5.202869385323439e-15 0.0 0.0
0.016349177095638292 -0.014162660394579963 0.0 0.007382292912370353 0.0 0.0
0.012824680744491258 -0.010813268824124365 0.0 0.00841788741567354 0.0 0.0
0.01005212853641437 -0.008145272112136089 0.0 0.00833149397384189 0.0 0.0
0.007866971258968404 -0.006085078833656601 0.0 0.00751101471176146 0.0 0.0
0.006196862463057894 -0.004559094200831554 0.0 0.006499156210222267 0.0 0.0
0.004904736866153982 -0.0034173839384838193 0.0 0.00555164586379885 0.0 0.0
0.003879197042820303 -0.002549505039935763 0.0 0.004730952704528853 0.0 0.0
0.003048135749229014 -0.0018769192620637417 0.0 0.004018744819936393 0.0 0.0
0.0023606950771196166 -0.0013550455684736603 0.0 0.0034153809082364244 0.0 0.0
0.00176875290751838 -0.0009250285997992853 0.0 0.002930910085129007 0.0 0.0
0.0012797667413475408 -0.0006075812168254045 0.0 0.0026280050529586974 0.0 0.0
0.0009048315180505801 -0.00039998290630887203 0.0 0.002499677913071357 0.0 0.0
0.0006299844482424424 -0.00027387982868779377 0.0 0.00241030754822672 0.0 0.0
0.0004394905885358904 -0.00018533980311418656 0.0 0.002280853730095061 0.0 0.0
0.0002904343806175967 -0.00010432789736190296 0.0 0.0021335307073224036 0.0 0.0
0.0001466580504030603 -1.2748975622000272e-05 0.0 0.0020202700966126586 0.0 0.0
5.1996312039733806e-06 7.041929411661491e-05 0.0 0.002003726478995792 0.0 0.0
-5.364351306081837e-05 3.0172656531413024e-05 0.0 0.002117569153753116 0.0 0.0
0.00024000845741163114 -0.0004135389509248819 0.0 0.0021216598530967115 0.0 0.0
0.0005254682143410811 -0.0022407009263841907 0.0 0.001417341760035147 0.0 0.0
0.00038890273665514373 -0.0017643748772166856 0.0 -0.0013619034540772706 0.0 0.0
0.00014440011415656228 -0.00040842743818086946 0.0 -0.002007459793502314 0.0 0.0
-0.00014457797415227575 5.6445104723461666e-05 0.0 -0.0021705333765888015 0.0 0.0
-0.00016121421754025175 0.0001372287950775241 0.0 -0.0020855339888183537 0.0 0.0
-9.978080580189106e-05 9.846883773370262e-05 0.0 -0.002086752431203987 0.0 0.0
-4.51327824205091e-05 5.0150150292626976e-05 0.0 -0.0021846679590313747 0.0 0.0
-1.4690633551838253e-05 1.501724570905633e-05 0.0 -0.002333582075521072 0.0 0.0
-2.644495083655899e-06 2.7239957900450103e-06 0.0 -0.0024769195486787315 0.0 0.0
5.516597346151526e-07 -8.431736717531755e-07 0.0 -0.002552842937492429 0.0 0.0
9.393348112302395e-07 -6.386959689161476e-07 0.0 -0.002631860391594154 0.0 0.0
6.377675963129285e-07 -6.297496984383562e-07 0.0 -0.0027351666122158434 0.0 0.0
-7.773896336166403e-07 7.316303571510427e-07 0.0 -0.0030402717956078554 0.0 0.0
-5.290568158829092e-06 4.235311446601367e-06 0.0 -0.0034727390707475496 0.0 0.0
-1.1760029609298448e-05 9.710793531096532e-06 0.0 -0.0040620315250426905 0.0 0.0
-3.7307279238225303e-06 8.854893958661715e-06 0.0 -0.004837063155421563 0.0 0.0
8.752937076340027e-05 -4.817653674915384e-05 0.0 -0.0058023419860176294 0.0 0.0
0.00043464368596683636 -0.0003119330144417674 0.0 -0.006929881088219332 0.0 0.0
0.0013152325530626466 -0.0010153428940899616 0.0 -0.008099088733665497 0.0 0.0
0.002961773388918949 -0.002437389252421799 0.0 -0.009038451422808872 0.0 0.0
0.005498420963494566 -0.004475334140245507 0.0 -0.00905516983011283 0.0 0.0
0.007002012522091048 -0.008918578680962437 0.0 5.749740961125127e-15 0.0 0.0
0.005498420963494459 -0.004475334140245428 0.0 0.009055169830126105 0.0 0.0
0.0029617733889179642 -0.002437389252419901 0.0 0.009038451422818268 0.0 0.0
0.0013152325530620776 -0.001015342894088356 0.0 0.008099088733669726 0.0 0.0
0.00043464368596755 -0.00031193301444349536 0.0 0.006929881088216683 0.0 0.0
8.752937076430699e-05 -4.817653675053788e-05 0.0 0.00580234198601301 0.0 0.0
-3.7307279229587464e-06 8.854893961576132e-06 0.0 0.004837063155420331 0.0 0.0
-1.1760029607881125e-05 9.710793528902784e-06 0.0 0.004062031525041062 0.0 0.0
-5.290568157382115e-06 4.2353114446704574e-06 0.0 0.0034727390707452255 0.0 0.0
-7.773896323609716e-07 7.31630359022579e-07 0.0 0.0030402717956047954 0.0 0.0
6.377675976762043e-07 -6.297496991451815e-07 0.0 0.0027351666122115417 0.0 0.0
9.393348121499546e-07 -6.386959713372998e-07 0.0 0.0026318603915922575 0.0 0.0
5.51659735113357e-07 -8.431736711262051e-07 0.0 0.0025528429374925953 0.0 0.0
-2.6444950832710276e-06 2.7239957917024166e-06 0.0 0.0024769195486776053 0.0 0.0
-1.4690633551599817e-05 1.5017245709746791e-05 0.0 0.002333582075518784 0.0 0.0
-4.5132782420290295e-05 5.015015029376566e-05 0.0 0.0021846679590294326 0.0 0.0
-9.978080580163126e-05 9.846883773375741e-05 0.0 0.002086752431201466 0.0 0.0
-0.00016121421754004356 0.000137228795078103 0.0 0.0020855339888158617 0.0 0.0
-0.0001445779741522247 5.644510472353947e-05 0.0 0.002170533376586373 0.0 0.0
0.00014440011415633216 -0.0004084274381809445 0.0 0.002007459793500343 0.0 0.0
0.0003889027366547402 -0.0017643748772147533 0.0 0.0013619034540763011 0.0 0.0
0.00029098707386459406 -0.0013816022002693287 0.0 -0.0012676977565714296 0.0 0.0
7.023563399971244e-05 -0.000382260408680472 0.0 -0.0018912905790835852 0.0 0.0
-0.0002289675813769202 8.180704892597174e-05 0.0 -0.002171841242848582 0.0 0.0
-0.0003192398979145044 0.00019981470254617397 0.0 -0.0021146060392115123 0.0 0.0
-0.00033959314635756237 0.00020447612838467923 0.0 -0.002099129666609774 0.0 0.0
-0.00037662021163489975 0.00020225819270336593 0.0 -0.002170502271926958 0.0 0.0
-0.00046800181050231447 0.00021497125315832557 0.0 -0.002296483846970117 0.0 0.0
-0.0006356220153862796 0.00027899520405325144 0.0 -0.002414202073991266 0.0 0.0
-0.0009035625316255579 0.00039834290659439574 0.0 -0.002500179336754073 0.0 0.0
-0.001277810791262921 0.0006060266019596825 0.0 -0.0026269554933423655 0.0 0.0
-0.0017674260337715128 0.0009240154730066469 0.0 -0.002929475176180859 0.0 0.0
-0.0023622348954888345 0.0013565561591250054 0.0 -0.003414477418026798 0.0 0.0
-0.0030583849402232776 0.0018855867605490116 0.0 -0.0040138873432982464 0.0 0.0
-0.0039030878237655536 0.0025715689204698594 0.0 -0.00471908418318605 0.0 0.0
-0.004913667764413493 0.003439287091111928 0.0 -0.005558029428441679 0.0 0.0
-0.006031588181350441 0.004461837488768417 0.0 -0.00660523107733541 0.0 0.0
-0.007064080605397167 0.005464173937685246 0.0 -0.007927379577269583 0.0 0.0
-0.007650735157445826 0.00611156850226432 0.0 -0.009571106076941673 0.0 0.0
-0.007313401158483833 0.005915054155933001 0.0 -0.011387398140927735 0.0 0.0
-0.005113262150372171 0.004284371767893519 0.0 -0.012113767552052932 0.0 0.0
-0.0033767469108050892 -0.0006918533425401268 0.0 8.152332975353005e-15 0.0 0.0
-0.005113262150372876 0.0042843717678930455 0.0 0.01211376755206603 0.0 0.0
-0.007313401158482925 0.005915054155930791 0.0 0.011387398140937241 0.0 0.0
-0.007650735157442218 0.0061115685022641655 0.0 0.009571106076945434 0.0 0.0
-0.007064080605391966 0.005464173937677444 0.0 0.007927379577265782 0.0 0.0
-0.006031588181345339 0.004461837488762002 0.0 0.006605231077330562 0.0 0.0
-0.004913667764409149 0.003439287091110811 0.0 0.0055580294284391695 0.0 0.0
-0.0039030878237606105 0.0025715689204657698 0.0 0.004719084183183097 0.0 0.0
-0.0030583849402177057 0.001885586760543327 0.0 0.004013887343294668 0.0 0.0
-0.0023622348954835527 0.0013565561591204638 0.0 0.0034144774180216797 0.0 0.0
-0.0017674260337668729 0.0009240154730022355 0.0 0.0029294751761756548 0.0 0.0
-0.0012778107912594515 0.0006060266019571802 0.0 0.0026269554933396858 0.0 0.0
-0.0009035625316232978 0.0003983429065932893 0.0 0.002500179336754248 0.0 0.0
-0.0006356220153849027 0.0002789952040548195 0.0 0.0024142020739896927 0.0 0.0
-0.00046800181050142174 0.00021497125315725308 0.0 0.0022964838469676768 0.0 0.0
-0.0003766202116342778 0.00020225819270318452 0.0 0.0021705022719250137 0.0 0.0
-0.0003395931463570503 0.0002044761283841159 0.0 0.0020991296666077264 0.0 0.0
-0.0003192398979140731 0.00019981470254668932 0.0 0.002114606039209328 0.0 0.0
-0.00022896758137672303 8.180704892579702e-05 0.0 0.0021718412428462677 0.0 0.0
7.023563399962196e-05 -0.000382260408680506 0.0 0.0018912905790817252 0.0 0.0
0.00029098707386428663 -0.0013816022002677815 0.0 0.001267697756570252 0.0 0.0
0.00020854563128656163 -0.0010523973138309253 0.0 -0.0011366692913407433 0.0 0.0
5.393135344124956e-06 -0.00034011493950271546 0.0 -0.0017596287139842815 0.0 0.0
-0.00030797344129524396 0.00010793727148573033 0.0 -0.002121175012270717 0.0 0.0
-0.0004693076449282605 0.000258197982095371 0.0 -0.0020900872160192667 0.0 0.0
-0.0005714380223451253 0.00030474122914674355 0.0 -0.00205534187930405 0.0 0.0
-0.0007016050885616043 0.00034837284800063754 0.0 -0.002091506252424309 0.0 0.0
-0.0009136921625591584 0.0004100478652495628 0.0 -0.0021689807054483526 0.0 0.0
-0.0012684664987993252 0.0005574449480764648 0.0 -0.0022475816477426727 0.0 0.0
-0.0018264762114448244 0.0008631900328463021 0.0 -0.002431571704744431 0.0 0.0
-0.002622739910273455 0.0014023525635959134 0.0 -0.002816609652997646 0.0 0.0
-0.003635429552164479 0.002179125225500091 0.0 -0.0034882013226414195 0.0 0.0
-0.004817111575848367 0.003160028994879366 0.0 -0.004256708885931229 0.0 0.0
-0.006191191456170339 0.004335102130193539 0.0 -0.005078453538776074 0.0 0.0
-0.007847827663821165 0.005818694039472985 0.0 -0.005948167816595694 0.0 0.0
-0.009861047599386996 0.007688543792627961 0.0 -0.006939212418970294 0.0 0.0
-0.01219459576330922 0.009929922370507563 0.0 -0.008212018333238575 0.0 0.0
-0.014616068058379273 0.012325795592544184 0.0 -0.00995757457602939 0.0 0.0
-0.016652758581202774 0.014392641219349748 0.0 -0.01226237229585904 0.0 0.0
-0.017415265463821418 0.01528351123994992 0.0 -0.014648734475666163 0.0 0.0
-0.015440527476246288 0.013409502691694185 0.0 -0.015149224326110603 0.0 0.0
-0.013550475831446238 0.00682578316564302 0.0 7.600257229123386e-15 0.0 0.0
-0.01544052747624643 0.013409502691695115 0.0 0.01514922432612776 0.0 0.0
-0.01741526546381833 0.015283511239948807 0.0 0.014648734475682323 0.0 0.0
-0.016652758581196036 0.014392641219346938 0.0 0.012262372295865511 0.0 0.0
-0.0146160680583702 0.012325795592531363 0.0 0.009957574576026352 0.0 0.0
-0.012194595763300066 0.009929922370499139 0.0 0.008212018333234117 0.0 0.0
-0.009861047599378696 0.007688543792621695 0.0 0.006939212418965803 0.0 0.0
-0.007847827663812597 0.005818694039466336 0.0 0.0059481678165919875 0.0 0.0
-0.0061911914561611 0.0043351021301850905 0.0 0.005078453538771127 0.0 0.0
-0.004817111575839231 0.003160028994871099 0.0 0.004256708885923756 0.0 0.0
-0.003635429552156318 0.002179125225493115 0.0 0.003488201322633208 0.0 0.0
-0.0026227399102670035 0.0014023525635917622 0.0 0.0028166096529928793 0.0 0.0
-0.0018264762114405778 0.0008631900328433192 0.0 0.002431571704742999 0.0 0.0
-0.0012684664987967927 0.0005574449480747535 0.0 0.002247581647740965 0.0 0.0
-0.0009136921625575551 0.00041004786524971197 0.0 0.002168980705446782 0.0 0.0
-0.0007016050885605284 0.0003483728479990655 0.0 0.00209150625242262 0.0 0.0
-0.0005714380223442665 0.00030474122914673205 0.0 0.0020553418793017265 0.0 0.0
-0.00046930764492769173 0.0002581979820951165 0.0 0.0020900872160169656 0.0 0.0
-0.0003079734412949425 0.00010793727148552958 0.0 0.002121175012268605 0.0 0.0
5.393135344154067e-06 -0.00034011493950261067 0.0 0.0017596287139825999 0.0 0.0
0.00020854563128648349 -0.0010523973138296951 0.0 0.0011366692913391029 0.0 0.0
0.00013471368352554436 -0.000770064420468579 0.0 -0.0009942627774676542 0.0 0.0
-5.496810952063205e-05 -0.0002850285221129423 0.0 -0.0016044982913149658 0.0 0.0
-0.0003835914657643434 0.00013595417848585317 0.0 -0.0020197703859729755 0.0 0.0
-0.0006119394038204101 0.00031270878745935925 0.0 -0.002011715196954435 0.0 0.0
-0.0007944047374982802 0.00039826328330418105 0.0 -0.0019563619621352796 0.0 0.0
-0.0010150204444189885 0.0004859255381961467 0.0 -0.0019442849843359735 0.0 0.0
-0.0013522549440001038 0.0005975739954467831 0.0 -0.0019585658576832766 0.0 0.0
-0.001927704412506595 0.0008862361163523983 0.0 -0.002075618469508409 0.0 0.0
-0.002836872178948743 0.001491945333386698 0.0 -0.0024658666976186995 0.0 0.0
-0.00408043344462234 0.0024754973130839916 0.0 -0.003196466116096224 0.0 0.0
-0.005588770602364271 0.003754776619631468 0.0 -0.004102917909435596 0.0 0.0
-0.00732736500776182 0.005283468999611226 0.0 -0.0050013674342543266 0.0 0.0
-0.009369338495174283 0.0071156913180696856 0.0 -0.0059004020221579585 0.0 0.0
-0.0118516848771682 0.00940536064006504 0.0 -0.006865128668093785 0.0 0.0
-0.014892406566151553 0.01228309397423028 0.0 -0.00801911874963643 0.0 0.0
-0.018476391284652467 0.015760870268209024 0.0 -0.00956056544116869 0.0 0.0
-0.022335158859239153 0.01959479935879699 0.0 -0.011818089107322956 0.0 0.0
-0.02578193825833041 0.023127299055060925 0.0 -0.014933120816974416 0.0 0.0
-0.027493064062618144 0.025024654743246087 0.0 -0.018083992838350226 0.0 0.0
-0.025287330429067698 0.023147089540148644 0.0 -0.0191259410017431 0.0 0.0
-0.022872541203746915 0.014176474748965273 0.0 8.230829212640955e-15 0.0 0.0
-0.02528733042906648 0.023147089540149757 0.0 0.01912594100176427 0.0 0.0
-0.027493064062612947 0.025024654743243255 0.0 0.018083992838371164 0.0 0.0
-0.025781938258320505 0.02312729905505517 0.0 0.014933120816983728 0.0 0.0
-0.02233515885922654 0.01959479935878407 0.0 0.011818089107322282 0.0 0.0
-0.018476391284639855 0.015760870268195983 0.0 0.009560565441164999 0.0 0.0
-0.014892406566139767 0.012283093974222241 0.0 0.008019118749630993 0.0 0.0
-0.011851684877156075 0.009405360640052977 0.0 0.006865128668090097 0.0 0.0
-0.009369338495161566 0.007115691318057327 0.0 0.005900402022152063 0.0 0.0
-0.00732736500774912 0.005283468999601966 0.0 0.0050013674342468195 0.0 0.0
-0.005588770602352578 0.0037547766196182686 0.0 0.004102917909426069 0.0 0.0
-0.004080433444612973 0.0024754973130760144 0.0 0.0031964661160895306 0.0 0.0
-0.00283687217894221 0.001491945333382926 0.0 0.0024658666976145544 0.0 0.0
-0.0019277044125023905 0.0008862361163487463 0.0 0.002075618469506833 0.0 0.0
-0.0013522549439977743 0.0005975739954472005 0.0 0.0019585658576823416 0.0 0.0
-0.0010150204444177003 0.00048592553819628084 0.0 0.0019442849843346321 0.0 0.0
-0.000794404737497316 0.0003982632833036373 0.0 0.0019563619621336624 0.0 0.0
-0.0006119394038197922 0.00031270878745924015 0.0 0.002011715196952593 0.0 0.0
-0.00038359146576392734 0.00013595417848534912 0.0 0.0020197703859710383 0.0 0.0
-5.4968109520497603e-05 -0.0002850285221127161 0.0 0.001604498291313733 0.0 0.0
0.00013471368352539471 -0.0007700644204677692 0.0 0.0009942627774664195 0.0 0.0
6.789595066780266e-05 -0.0005314900527223671 0.0 -0.0008473299088443203 0.0 0.0
-0.00011231413483426585 -0.00022146789850098302 0.0 -0.0014261630310101587 0.0 0.0
-0.0004571236055875503 0.00016681321308820664 0.0 -0.0018692400047221787 0.0 0.0
-0.0007479682319355194 0.0003634765946324937 0.0 -0.0018799148495617173 0.0 0.0
-0.0010065450449572829 0.000484898878828257 0.0 -0.0018019482472294945 0.0 0.0
-0.0013167209006351233 0.000609694891004516 0.0 -0.0017301666331945443 0.0 0.0
-0.0018063418330618304 0.0008053700256141174 0.0 -0.0017142855884804992 0.0 0.0
-0.002649929559768084 0.0013184797077861203 0.0 -0.001944478134942136 0.0 0.0
-0.003934452203499561 0.002307347337971573 0.0 -0.002565925355784334 0.0 0.0
-0.005605406049441273 0.0037268212983939866 0.0 -0.003472268531695643 0.0 0.0
-0.007578344327296833 0.005467105886932016 0.0 -0.004406850565607473 0.0 0.0
-0.009868025536796207 0.007533614110451227 0.0 -0.0053187618579609505 0.0 0.0
-0.012591722508710455 0.010029283475857092 0.0 -0.006244849977063101 0.0 0.0
-0.015918324164019296 0.013138266834867554 0.0 -0.007277361314272205 0.0 0.0
-0.020000925074174163 0.017031709087054647 0.0 -0.008517840843480912 0.0 0.0
-0.024856094106959624 0.021759530001885973 0.0 -0.010207877383910869 0.0 0.0
-0.030163478887243432 0.02704716683927501 0.0 -0.012729018296504635 0.0 0.0
-0.03498185492127942 0.032008646838805624 0.0 -0.016296664995161476 0.0 0.0
-0.037491378761369 0.0348293259399001 0.0 -0.020187855138294696 0.0 0.0
-0.034766773399609895 0.03261986956920715 0.0 -0.022067555259745793 0.0 0.0
-0.0316540934694247 0.021276528539997765 0.0 1.0865440491780731e-14 0.0 0.0
-0.034766773399607084 0.032619869569205984 0.0 0.022067555259769264 0.0 0.0
-0.037491378761361646 0.034829325939890625 0.0 0.0201878551383192 0.0 0.0
-0.03498185492126741 0.032008646838794376 0.0 0.01629666499517346 0.0 0.0
-0.030163478887228187 0.027047166839259947 0.0 0.012729018296506198 0.0 0.0
-0.024856094106943907 0.021759530001871644 0.0 0.010207877383907705 0.0 0.0
-0.02000092507415881 0.01703170908704215 0.0 0.008517840843475278 0.0 0.0
-0.015918324164003583 0.013138266834851461 0.0 0.007277361314267195 0.0 0.0
-0.012591722508694107 0.01002928347583998 0.0 0.00624484997705663 0.0 0.0
-0.009868025536779903 0.007533614110438918 0.0 0.0053187618579529465 0.0 0.0
-0.007578344327281909 0.005467105886916155 0.0 0.004406850565596434 0.0 0.0
-0.005605406049429151 0.003726821298384553 0.0 0.0034722685316874525 0.0 0.0
-0.003934452203490463 0.002307347337964739 0.0 0.002565925355778981 0.0 0.0
-0.0026499295597618914 0.001318479707782789 0.0 0.0019444781349396418 0.0 0.0
-0.001806341833058629 0.0008053700256133566 0.0 0.0017142855884792435 0.0 0.0
-0.001316720900633482 0.0006096948910042992 0.0 0.0017301666331936325 0.0 0.0
-0.0010065450449561434 0.0004848988788278047 0.0 0.0018019482472285 0.0 0.0
-0.0007479682319348093 0.0003634765946326197 0.0 0.001879914849560137 0.0 0.0
-0.000457123605587065 0.00016681321308767856 0.0 0.0018692400047199817 0.0 0.0
-0.0001123141348340449 -0.00022146789850078428 0.0 0.001426163031008786 0.0 0.0
6.789595066781973e-05 -0.0005314900527218582 0.0 0.0008473299088433058 0.0 0.0
8.510093145193588e-06 -0.0003354267428733064 0.0 -0.0006973579742790355 0.0 0.0
-0.0001662520413315233 -0.00015386835210705628 0.0 -0.0012263186694685452 0.0 0.0
-0.0005288068358975793 0.00020038910341293683 0.0 -0.001671502208467451 0.0 0.0
-0.0008777417186679279 0.0004109167353938038 0.0 -0.0016950969743032922 0.0 0.0
-0.0012074871159036215 0.0005637657249286266 0.0 -0.0015936417050148035 0.0 0.0
-0.001617288670193368 0.0007270265425629295 0.0 -0.001465843734358145 0.0 0.0
-0.002294508393217583 0.0010634470783639689 0.0 -0.001460968928594823 0.0 0.0
-0.003441358415289768 0.0018735392257319605 0.0 -0.00182720417656184 0.0 0.0
-0.005095401170915472 0.0032550345886358393 0.0 -0.00259602480059326 0.0 0.0
-0.007155299401575395 0.005061918136366556 0.0 -0.003483240225389262 0.0 0.0
-0.009580343907552318 0.007244283436575528 0.0 -0.0043611034266388075 0.0 0.0
-0.012436551915985186 0.009857007054066398 0.0 -0.005235770099689593 0.0 0.0
-0.01585998267889438 0.013030116591533298 0.0 -0.00614666514719954 0.0 0.0
-0.02004294105135773 0.016972935061726774 0.0 -0.00719024396506905 0.0 0.0
-0.025171830676663714 0.02188452546846314 0.0 -0.00846227122304926 0.0 0.0
-0.031282580659364775 0.027839500443135295 0.0 -0.010118913342611793 0.0 0.0
-0.03799822990023125 0.03454306810618415 0.0 -0.012547813691796611 0.0 0.0
-0.04414589570089274 0.04089959417828111 0.0 -0.016179226007709265 0.0 0.0
-0.047376359314164715 0.0445813073191179 0.0 -0.02065036171487798 0.0 0.0
-0.04407538163678712 0.04196473971668282 0.0 -0.024039676939721154 0.0 0.0
-0.04026519252915446 0.028321105460524437 0.0 1.046992353925802e-14 0.0 0.0
-0.044075381636783255 0.041964739716681576 0.0 0.024039676939746006 0.0 0.0
-0.04737635931415525 0.04458130731910626 0.0 0.020650361714902254 0.0 0.0
-0.04414589570087805 0.040899594178267336 0.0 0.016179226007723084 0.0 0.0
-0.03799822990021339 0.03454306810616561 0.0 0.012547813691799801 0.0 0.0
-0.03128258065934631 0.027839500443117983 0.0 0.010118913342609477 0.0 0.0
-0.025171830676644805 0.021884525468444115 0.0 0.00846227122304441 0.0 0.0
-0.020042941051338244 0.01697293506171038 0.0 0.007190243965063655 0.0 0.0
-0.015859982678874614 0.0130301165915145 0.0 0.006146665147194457 0.0 0.0
-0.012436551915965774 0.009857007054049138 0.0 0.005235770099682833 0.0 0.0
-0.00958034390753457 0.007244283436560308 0.0 0.004361103426628094 0.0 0.0
-0.00715529940156062 0.005061918136354238 0.0 0.0034832402253812582 0.0 0.0
-0.005095401170903961 0.0032550345886260008 0.0 0.002596024800587686 0.0 0.0
-0.0034413584152815065 0.0018735392257276783 0.0 0.0018272041765583793 0.0 0.0
-0.0022945083932129377 0.0010634470783617853 0.0 0.0014609689285934432 0.0 0.0
-0.0016172886701911631 0.0007270265425605912 0.0 0.001465843734356895 0.0 0.0
-0.0012074871159023443 0.0005637657249286693 0.0 0.0015936417050141506 0.0 0.0
-0.0008777417186670495 0.00041091673539260607 0.0 0.0016950969743015599 0.0 0.0
-0.0005288068358970416 0.0002003891034129606 0.0 0.0016715022084659564 0.0 0.0
-0.00016625204133128408 -0.0001538683521070372 0.0 0.0012263186694671802 0.0 0.0
8.51009314526043e-06 -0.00033542674287296464 0.0 0.0006973579742777735 0.0 0.0
-4.189869029291518e-05 -0.0001819913571584053 0.0 -0.0005454559835608613 0.0 0.0
-0.0002149868229765655 -8.633394615260047e-05 0.0 -0.001006919307501933 0.0 0.0
-0.0005979005196743028 0.0002352504018609591 0.0 -0.0014279629895020054 0.0 0.0
-0.0010018454117415702 0.0004561856831392292 0.0 -0.0014570243228459305 0.0 0.0
-0.0014013454033030663 0.0006325025035311664 0.0 -0.001334425310769539 0.0 0.0
-0.0019270279522424507 0.0008557380624271637 0.0 -0.0011653535828558595 0.0 0.0
-0.002830342378170786 0.001394951049476294 0.0 -0.0012094231617026012 0.0 0.0
-0.00429455367711659 0.0025497854152516856 0.0 -0.00170570303795574 0.0 0.0
-0.006279836623401722 0.0042657045785203995 0.0 -0.002433372307580571 0.0 0.0
-0.008707482243506329 0.0064343568727259085 0.0 -0.0032060115015740995 0.0 0.0
-0.01159581743146228 0.009064199530687916 0.0 -0.003999184055489082 0.0 0.0
-0.015028325144226067 0.012230418166914388 0.0 -0.004788084317978629 0.0 0.0
-0.019167447220527486 0.016096656700070464 0.0 -0.00562788036970778 0.0 0.0
-0.024226581153972967 0.020891163702806345 0.0 -0.006622270550195976 0.0 0.0
-0.030387425208892233 0.026815214276185023 0.0 -0.00784680486127958 0.0 0.0
-0.03769097633274412 0.03393852847304758 0.0 -0.009343105088801897 0.0 0.0
-0.04574324787270579 0.04196136916868553 0.0 -0.01135066120110039 0.0 0.0
-0.053167743952712176 0.04965300039206156 0.0 -0.014551382589235554 0.0 0.0
-0.05715096496444423 0.05423999942322751 0.0 -0.019432449997984474 0.0 0.0
-0.05341322568319055 0.051390739727348915 0.0 -0.02520854221913376 0.0 0.0
-0.04899494281340082 0.035577675564837256 0.0 1.0800388361431601e-14 0.0 0.0
-0.05341322568318506 0.05139073972734671 0.0 0.025208542219157987 0.0 0.0
-0.05715096496443265 0.05423999942321554 0.0 0.019432449998007566 0.0 0.0
-0.053167743952695086 0.04965300039204781 0.0 0.01455138258924904 0.0 0.0
-0.04574324787268551 0.04196136916866783 0.0 0.011350661201103692 0.0 0.0
-0.03769097633272252 0.03393852847302739 0.0 0.00934310508880053 0.0 0.0
-0.030387425208870104 0.02681521427616456 0.0 0.007846804861276977 0.0 0.0
-0.024226581153950322 0.02089116370278573 0.0 0.006622270550191099 0.0 0.0
-0.01916744722050396 0.0160966567000483 0.0 0.0056278803697021864 0.0 0.0
-0.015028325144203328 0.012230418166892553 0.0 0.004788084317971174 0.0 0.0
-0.011595817431441769 0.009064199530669234 0.0 0.0039991840554798085 0.0 0.0
-0.008707482243488985 0.006434356872709601 0.0 0.0032060115015662026 0.0 0.0
-0.006279836623388007 0.0042657045785084065 0.0 0.002433372307575571 0.0 0.0
-0.004294553677106447 0.002549785415245345 0.0 0.0017057030379518437 0.0 0.0
-0.0028303423781647283 0.0013949510494712923 0.0 0.0012094231617006317 0.0 0.0
-0.0019270279522395554 0.0008557380624249243 0.0 0.0011653535828553812 0.0 0.0
-0.0014013454033016833 0.0006325025035302566 0.0 0.0013344253107684882 0.0 0.0
-0.0010018454117406564 0.0004561856831376619 0.0 0.0014570243228445585 0.0 0.0
-0.0005979005196737703 0.00023525040186089965 0.0 0.001427962989500966 0.0 0.0
-0.0002149868229764201 -8.633394615266158e-05 0.0 0.0010069193075009357 0.0 0.0
-4.1898690292845106e-05 -0.00018199135715822978 0.0 0.0005454559835593228 0.0 0.0
-8.059598121724795e-05 -7.213906943506471e-05 0.0 -0.0003951033856905705 0.0 0.0
-0.0002552894697815445 -2.312217617690876e-05 0.0 -0.000770445075641849 0.0 0.0
-0.0006623330536807283 0.0002689555717658317 0.0 -0.0011378331195444661 0.0 0.0
-0.0011214403481843642 0.0004999435428764722 0.0 -0.001164764793272584 0.0 0.0
-0.0015936079091481308 0.000694304998094918 0.0 -0.0010256132504994162 0.0 0.0
-0.0022621222031384324 0.001011587357297877 0.0 -0.000835084561721923 0.0 0.0
-0.0034240154655754487 0.0018252384986112212 0.0 -0.000983224041802492 0.0 0.0
-0.005175706401933038 0.0032910649090252004 0.0 -0.0014683660421380307 0.0 0.0
-0.007459413513202581 0.005297773547992371 0.0 -0.0020437235741305386 0.0 0.0
-0.010261806368491524 0.007831751246018932 0.0 -0.0026821741145110624 0.0 0.0
-0.013618098604463964 0.010911561259167327 0.0 -0.0033381565603694276 0.0 0.0
-0.01763846549302194 0.014641416119499016 0.0 -0.00399288335232232 0.0 0.0
-0.022511309539214305 0.019215050828753764 0.0 -0.0046979534994810645 0.0 0.0
-0.02845509546769491 0.024877091689373017 0.0 -0.005566377063574571 0.0 0.0
-0.035636592764467255 0.031809164364976134 0.0 -0.0066693987516747546 0.0 0.0
-0.04404903527788527 0.04002407603303558 0.0 -0.007942864970230768 0.0 0.0
-0.05327740444947007 0.04918404082076898 0.0 -0.009316568317779609 0.0 0.0
-0.06191590686993209 0.05809568052424098 0.0 -0.011466687856432938 0.0 0.0
-0.0668375693400694 0.06377927105121758 0.0 -0.016418855307042318 0.0 0.0
-0.06298571253343398 0.06111911659430021 0.0 -0.025362555059904455 0.0 0.0
-0.05811987560719169 0.04334810182580803 0.0 9.992874583364397e-15 0.0 0.0
-0.06298571253342733 0.0611191165942957 0.0 0.025362555059925112 0.0 0.0
-0.06683756934005564 0.06377927105120285 0.0 0.016418855307063544 0.0 0.0
-0.061915906869912295 0.0580956805242214 0.0 0.01146668785644587 0.0 0.0
-0.05327740444944696 0.0491840408207491 0.0 0.009316568317783448 0.0 0.0
-0.04404903527786067 0.040024076033014264 0.0 0.007942864970231462 0.0 0.0
-0.035636592764441886 0.03180916436495303 0.0 0.0066693987516721655 0.0 0.0
-0.028455095467668796 0.02487709168934812 0.0 0.005566377063571008 0.0 0.0
-0.02251130953918746 0.01921505082872824 0.0 0.00469795349947609 0.0 0.0
-0.017638465492995713 0.014641416119475729 0.0 0.003992883352316158 0.0 0.0
-0.013618098604440307 0.010911561259145146 0.0 0.0033381565603620295 0.0 0.0
-0.010261806368471762 0.007831751245999065 0.0 0.002682174114505334 0.0 0.0
-0.00745941351318671 0.0052977735479764615 0.0 0.0020437235741259737 0.0 0.0
-0.0051757064019209605 0.0032910649090160224 0.0 0.0014683660421341046 0.0 0.0
-0.0034240154655677643 0.00182523849860519 0.0 0.0009832240417998548 0.0 0.0
-0.0022621222031347604 0.0010115873572959574 0.0 0.0008350845617216866 0.0 0.0
-0.0015936079091465366 0.0006943049980931909 0.0 0.0010256132504982422 0.0 0.0
-0.0011214403481833832 0.0004999435428762372 0.0 0.0011647647932724096 0.0 0.0
-0.0006623330536800258 0.0002689555717654567 0.0 0.0011378331195432184 0.0 0.0
-0.0002552894697812821 -2.3122176176918072e-05 0.0 0.000770445075641507 0.0 0.0
-8.059598121727889e-05 -7.213906943493853e-05 0.0 0.00039510338568920085 0.0 0.0
-0.0001031246957608879 -6.978569802191146e-06 0.0 -0.0002554064327209084 0.0 0.0
-0.0002817561864904077 3.031134719722883e-05 0.0 -0.0005202676147057944 0.0 0.0
-0.0007188134333758381 0.00029784755325370105 0.0 -0.0007960428369675979 0.0 0.0
-0.0012381972970240747 0.0005432335499314225 0.0 -0.000814702657188323 0.0 0.0
-0.001793863791514627 0.0007576522689225697 0.0 -0.0006726706439826194 0.0 0.0
-0.0026408118316266693 0.0012293791754215727 0.0 -0.0005129509134467267 0.0 0.0
-0.004054092244276407 0.0023338427803814756 0.0 -0.0007169399081712957 0.0 0.0
-0.0060574464660881405 0.0040471791547732686 0.0 -0.001053112036686388 0.0 0.0
-0.008635147888135603 0.006345133830602232 0.0 -0.0014650854880656674 0.0 0.0
-0.011811365142414747 0.009242245678370963 0.0 -0.0019221506335999866 0.0 0.0
-0.015642458015081552 0.012775914516120463 0.0 -0.002391163188615023 0.0 0.0
-0.020261226321400157 0.017079434195154317 0.0 -0.0028549854660641434 0.0 0.0
-0.025878308169233612 0.02237505666770229 0.0 -0.0033660330361559693 0.0 0.0
-0.032722961640159504 0.02891546427246046 0.0 -0.0040407347030042215 0.0 0.0
-0.04091260480816271 0.03684658746889954 0.0 -0.004913368815449957 0.0 0.0
-0.05033295952966628 0.04608318922188567 0.0 -0.005875159304712697 0.0 0.0
-0.06050967412357204 0.05616817865950348 0.0 -0.0066737983124367725 0.0 0.0
-0.0702300219392074 0.06600791826881636 0.0 -0.007514520044623484 0.0 0.0
-0.07638559560332601 0.07303885634709703 0.0 -0.011178005267643655 0.0 0.0
-0.07300894586027462 0.07140698161305432 0.0 -0.023683510680374664 0.0 0.0
-0.06800714357958461 0.05209923917351064 0.0 7.771561172376096e-15 0.0 0.0
-0.07300894586026657 0.07140698161304801 0.0 0.023683510680390936 0.0 0.0
-0.07638559560330967 0.07303885634708335 0.0 0.01117800526766068 0.0 0.0
-0.07023002193918479 0.06600791826879084 0.0 0.007514520044633467 0.0 0.0
-0.06050967412354598 0.05616817865947875 0.0 0.006673798312439229 0.0 0.0
-0.05033295952963885 0.046083189221860776 0.0 0.005875159304713126 0.0 0.0
-0.04091260480813426 0.03684658746887097 0.0 0.004913368815448561 0.0 0.0
-0.03272296164013003 0.02891546427243378 0.0 0.004040734703001609 0.0 0.0
-0.0258783081692032 0.022375056667672186 0.0 0.0033660330361526634 0.0 0.0
-0.02026122632137079 0.017079434195127398 0.0 0.0028549854660611254 0.0 0.0
-0.01564245801505535 0.012775914516095945 0.0 0.002391163188609342 0.0 0.0
-0.011811365142392536 0.009242245678350358 0.0 0.0019221506335955819 0.0 0.0
-0.008635147888117737 0.006345133830585083 0.0 0.0014650854880622413 0.0 0.0
-0.006057446466074337 0.004047179154761502 0.0 0.0010531120366842827 0.0 0.0
-0.004054092244267225 0.002333842780375033 0.0 0.0007169399081690892 0.0 0.0
-0.0026408118316220007 0.0012293791754192712 0.0 0.000512950913445914 0.0 0.0
-0.001793863791512491 0.0007576522689212974 0.0 0.0006726706439826005 0.0 0.0
-0.0012381972970230057 0.0005432335499313223 0.0 0.0008147026571876937 0.0 0.0
-0.0007188134333752915 0.0002978475532532654 0.0 0.0007960428369670474 0.0 0.0
-0.00028175618649013966 3.0311347197011174e-05 0.0 0.0005202676147062248 0.0 0.0
-0.00010312469576087075 -6.978569802145432e-06 0.0 0.0002554064327202786 0.0 0.0
-0.00010178359143702846 1.3301444115936757e-05 0.0 -0.00014692826962039434 0.0 0.0
-0.00028542374359117944 6.513319346383717e-05 0.0 -0.00026040851286551243 0.0 0.0
-0.0007622077023188149 0.00031715745904196767 0.0 -0.00038976037234838694 0.0 0.0
-0.0013569664800983953 0.000587625975420278 0.0 -0.0003987735952827412 0.0 0.0
-0.0020213074560915013 0.0008439317013091332 0.0 -0.00028993288497555065 0.0 0.0
-0.003059763197979028 0.001516597723270961 0.0 -0.00020310418979385642 0.0 0.0
-0.004699825551772287 0.002878238801598058 0.0 -0.0003365036158449282 0.0 0.0
-0.006932429046159446 0.00481203201077494 0.0 -0.0005026546454884333 0.0 0.0
-0.009799436680175874 0.00739715729631182 0.0 -0.0007032354434303149 0.0 0.0
-0.01335019098209852 0.010654786842095464 0.0 -0.000933324051474312 0.0 0.0
-0.017661650171541025 0.014647660357751089 0.0 -0.0011595024956309822 0.0 0.0
-0.022891048121913563 0.01953867413270541 0.0 -0.0013765389310392328 0.0 0.0
-0.02926869114862931 0.025571401161532406 0.0 -0.001657394405943492 0.0 0.0
-0.03700630950432451 0.03298350600620208 0.0 -0.0020387083329900142 0.0 0.0
-0.0461785500505196 0.04189084600438364 0.0 -0.0025299787738528416 0.0 0.0
-0.056562421944918076 0.052107610141169575 0.0 -0.003088337414452345 0.0 0.0
-0.06749062191949402 0.06298210367808484 0.0 -0.00349910634426115 0.0 0.0
-0.0778510120522308 0.07334330680489005 0.0 -0.0035759957239543325 0.0 0.0
-0.08548758715144611 0.0813160870949774 0.0 -0.004753150318093175 0.0 0.0
-0.08377068985828749 0.0823381624377432 0.0 -0.016306254888342694 0.0 0.0
-0.07929097060778585 0.06321334084903664 0.0 4.432218481120742e-15 0.0 0.0
-0.0837706898582781 0.08233816243773542 0.0 0.016306254888352845 0.0 0.0
-0.08548758715142725 0.08131608709496148 0.0 0.0047531503181026035 0.0 0.0
-0.07785101205220499 0.07334330680486378 0.0 0.0035759957239599417 0.0 0.0
-0.06749062191946475 0.06298210367805712 0.0 0.0034991063442633115 0.0 0.0
-0.056562421944887475 0.05210761014114182 0.0 0.0030883374144515764 0.0 0.0
-0.04617855005048772 0.04189084600435424 0.0 0.0025299787738531383 0.0 0.0
-0.03700630950429157 0.03298350600617002 0.0 0.0020387083329883753 0.0 0.0
-0.029268691148595448 0.025571401161500674 0.0 0.0016573944059422733 0.0 0.0
-0.022891048121880943 0.019538674132674662 0.0 0.001376538931037704 0.0 0.0
-0.017661650171512215 0.014647660357722792 0.0 0.001159502495628597 0.0 0.0
-0.013350190982074258 0.010654786842074973 0.0 0.0009333240514718933 0.0 0.0
-0.009799436680155938 0.007397157296294251 0.0 0.0007032354434276644 0.0 0.0
-0.0069324290461439024 0.00481203201076111 0.0 0.0005026546454865746 0.0 0.0
-0.004699825551761785 0.0028782388015901367 0.0 0.0003365036158426344 0.0 0.0
-0.0030597631979732264 0.0015165977232675027 0.0 0.00020310418979313874 0.0 0.0
-0.0020213074560889964 0.0008439317013079252 0.0 0.00028993288497599615 0.0 0.0
-0.0013569664800970951 0.000587625975419833 0.0 0.0003987735952813252 0.0 0.0
-0.0007622077023180084 0.00031715745904139326 0.0 0.00038976037234858166 0.0 0.0
-0.0002854237435911447 6.513319346364012e-05 0.0 0.0002604085128657603 0.0 0.0
-0.0001017835914374685 1.330144411586995e-05 0.0 0.0001469282696201438 0.0 0.0
-6.220076400780374e-05 1.2298569666007783e-05 0.0 -9.407925393311459e-05 0.0 0.0
-0.0002509475402688593 7.647951533742285e-05 0.0 -0.00010818577670256404 0.0 0.0
-0.0007854238503119977 0.00032378265511990326 0.0 -0.0001336616155435059 0.0 0.0
-0.0014884737416468103 0.000610239002063412 0.0 -0.0001331218517435247 0.0 0.0
-0.002289658998478605 0.0008969989291934399 0.0 -1.8623245819232375e-05 0.0 0.0
-0.003510064093018326 0.0016733040587876614 0.0 0.00010949895517955587 0.0 0.0
-0.005346603137874174 0.003154878504673008 0.0 0.00011687994395060102 0.0 0.0
-0.007795476487889519 0.005196145398616545 0.0 0.0001195103365184009 0.0 0.0
-0.010945892588478938 0.007922669691808411 0.0 0.00012807554307648044 0.0 0.0
-0.014870839182387761 0.011360481725212758 0.0 0.00012181328275479497 0.0 0.0
-0.01967024760076804 0.015583587417133981 0.0 0.00015063380946228264 0.0 0.0
-0.025528578838906718 0.020773736139885826 0.0 0.0002127147203669446 0.0 0.0
-0.032665862331214726 0.02717840440844663 0.0 0.00022608488726422182 0.0 0.0
-0.04127785783478265 0.035020419786822445 0.0 0.00022804847017004548 0.0 0.0
-0.05140919847547299 0.0444104691158622 0.0 0.00013103667619098532 0.0 0.0
-0.06272774498375815 0.05510980760983435 0.0 -9.07811792424133e-05 0.0 0.0
-0.07436387713632481 0.06635943112275917 0.0 -0.0003705323311952464 0.0 0.0
-0.08492238506542671 0.07688720389183892 0.0 -0.0005526323379080305 0.0 0.0
-0.09296568080361346 0.08506868780544294 0.0 -0.0007655129204933615 0.0 0.0
-0.09518365082558194 0.08794936005564502 0.0 -0.01105548336119955 0.0 0.0
-0.09416494657824923 0.0696324769464161 0.0 1.3877787807814457e-15 0.0 0.0
-0.09518365082557131 0.0879493600556364 0.0 0.01105548336120264 0.0 0.0
-0.09296568080359147 0.08506868780542237 0.0 0.000765512920496203 0.0 0.0
-0.08492238506539701 0.07688720389181332 0.0 0.0005526323379102943 0.0 0.0
-0.07436387713629217 0.06635943112273024 0.0 0.00037053233119632885 0.0 0.0
-0.06272774498372377 0.055109807609804676 0.0 9.078117924215482e-05 0.0 0.0
-0.05140919847543719 0.04441046911583261 0.0 -0.000131036676190739 0.0 0.0
-0.04127785783474621 0.03502041978678823 0.0 -0.00022804847017100435 0.0 0.0
-0.03266586233117774 0.0271784044084165 0.0 -0.00022608488726416024 0.0 0.0
-0.025528578838870976 0.020773736139854605 0.0 -0.00021271472036893304 0.0 0.0
-0.019670247600736643 0.015583587417103112 0.0 -0.00015063380946316865 0.0 0.0
-0.01487083918236164 0.011360481725191052 0.0 -0.0001218132827553104 0.0 0.0
-0.010945892588457304 0.007922669691789296 0.0 -0.00012807554307800494 0.0 0.0
-0.0077954764878723345 0.005196145398601506 0.0 -0.00011951033651929569 0.0 0.0
-0.005346603137862278 0.003154878504663006 0.0 -0.00011687994395226744 0.0 0.0
-0.003510064093011659 0.0016733040587837379 0.0 -0.0001094989551802529 0.0 0.0
-0.002289658998475604 0.0008969989291918059 0.0 1.8623245819573194e-05 0.0 0.0
-0.0014884737416455598 0.0006102390020630248 0.0 0.00013312185174258037 0.0 0.0
-0.0007854238503112962 0.0003237826551193704 0.0 0.00013366161554406665 0.0 0.0
-0.0002509475402684986 7.647951533746046e-05 0.0 0.00010818577670196001 0.0 0.0
-6.220076400769521e-05 1.229856966584833e-05 0.0 9.40792539329074e-05 0.0 0.0
SCALARS Statev float 8
LOOKUP_TABLE default
0.0 0.012915800098223625 0.010150494930183477 -0.012380216514430116 0.002229721584246663 -0.00043729394292037476 0.0 0.0
0.0 0.0038030828048582536 0.002677591181012279 -0.0014550188722502791 -0.0012225723087620007 -0.005007667379861928 0.0 0.0
0.0 -3.805785574685549e-05 -4.123870560726147e-06 1.752659168541841e-06 2.3712113921841052e-06 -7.622009360212974e-05 0.0 0.0
0.0 7.403631708838305e-05 -8.473466369149548e-06 6.496739599979043e-06 1.9767267691704193e-06 1.9103791893189996e-06 0.0 0.0
0.0 0.00044918728618305206 0.0001536085052212732 -0.00010932888829560256 -4.427961692567084e-05 5.1531192454533896e-05 0.0 0.0
0.0 0.0009763496002096316 0.0010479607859196884 -0.0007994151610578601 -0.00024854562486182843 9.886394702136673e-05 0.0 0.0
0.0 0.0027156683735686596 0.0025237401058117222 -0.0020434212851188844 -0.00048031882069283756 0.00012686024486876016 0.0 0.0
0.0 0.005115961691747217 0.004716004793480224 -0.004002806489444363 -0.0007131983040358647 0.00014099596954177313 0.0 0.0
0.0 0.00837072803856101 0.007626149984382494 -0.0067107796206322635 -0.0009153703637502335 0.00015502686741509318 0.0 0.0
0.0 0.01256327753428904 0.01128717110670304 -0.01018018871076784 -0.0011069823959351953 0.0001605618600329634 0.0 0.0
0.0 0.017790122049696305 0.015792317777578283 -0.014481210927379607 -0.001311106850198653 0.00020179311595656566 0.0 0.0
0.0 0.023941851506752116 0.021336922357343788 -0.019799600347620357 -0.0015373220097234495 0.00027534675373860543 0.0 0.0
0.0 0.03163451737856908 0.02814383685433886 -0.026363792008149266 -0.0017800448461895838 0.00029258423811670585 0.0 0.0
0.0 0.041040821356890946 0.03641809572564569 -0.03438327365162419 -0.002034822074021515 0.0003047078037736067 0.0 0.0
0.0 0.052278510135766586 0.046258511015822776 -0.04397048210202653 -0.0022880289137961985 0.0002450407672844907 0.0 0.0
0.0 0.06518570766992066 0.05748750486193945 -0.054961650540524355 -0.002525854321415129 8.554509775094907e-05 0.0 0.0
0.0 0.07905919168352278 0.06952809612358901 -0.06679058433312728 -0.002737511790461781 -0.00015846522827634574 0.0 0.0
0.0 0.092739742960457 0.0813874023115826 -0.07847514481143003 -0.002912257500152427 -0.0003962616861529829 0.0 0.0
0.0 0.10474378329835735 0.09178559188146126 -0.08874335088585592 -0.003042240995605367 -0.0004734710090107256 0.0 0.0
0.0 0.11324614307028799 0.09932546048985091 -0.09621361278310188 -0.0031118477067491653 -0.00048686982003800236 0.0 0.0
0.0 0.1164857637958141 0.10222947294642293 -0.09912156178675147 -0.0031079111596715447 1.1700709845463564e-15 0.0 0.0
0.0 0.11324614307027783 0.09932546048984216 -0.09621361278309294 -0.0031118477067490647 0.00048686982004181615 0.0 0.0
0.0 0.10474378329833378 0.09178559188144086 -0.08874335088583585 -0.00304224099560499 0.00047347100901555745 0.0 0.0
0.0 0.09273974296042613 0.08138740231155549 -0.07847514481140397 -0.002912257500151495 0.00039626168615647123 0.0 0.0
0.0 0.07905919168348706 0.06952809612355768 -0.06679058433309729 -0.0027375117904604772 0.00015846522827656778 0.0 0.0
0.0 0.06518570766988482 0.05748750486190782 -0.0549616505404937 -0.0025258543214140977 -8.55450977517453e-05 0.0 0.0
0.0 0.052278510135730656 0.046258511015791176 -0.043970482101996056 -0.002288028913795093 -0.00024504076728501436 0.0 0.0
0.0 0.04104082135685205 0.03641809572561175 -0.03438327365159094 -0.002034822074020794 -0.0003047078037742626 0.0 0.0
0.0 0.031634517378530014 0.028143836854304587 -0.026363792008116175 -0.0017800448461884131 -0.00029258423811740766 0.0 0.0
0.0 0.023941851506715087 0.02133692235731108 -0.01979960034758884 -0.0015373220097222545 -0.0002753467537392111 0.0 0.0
0.0 0.01779012204966636 0.015792317777551603 -0.014481210927354434 -0.0013111068501971714 -0.00020179311595805937 0.0 0.0
0.0 0.01256327753426378 0.011287171106680885 -0.01018018871074666 -0.0011069823959342297 -0.000160561860033713 0.0 0.0
0.0 0.008370728038541792 0.007626149984364975 -0.006710779620616016 -0.000915370363748952 -0.00015502686741542747 0.0 0.0
0.0 0.005115961691732529 0.00471600479346643 -0.004002806489431653 -0.0007131983040347744 -0.0001409959695419492 0.0 0.0
0.0 0.002715668373559961 0.002523740105802822 -0.0020434212851112256 -0.0004803188206915944 -0.0001268602448688388 0.0 0.0
0.0 0.0009763496002065531 0.0010479607859159362 -0.0007994151610548991 -0.0002485456248610379 -9.886394702095398e-05 0.0 0.0
0.0 0.00044918728617987497 0.0001536085052193531 -0.00010932888829417926 -4.427961692517323e-05 -5.153119245432242e-05 0.0 0.0
0.0 7.403631708775413e-05 -8.473466368927558e-06 6.496739599809763e-06 1.9767267691182734e-06 -1.9103791892779663e-06 0.0 0.0
0.0 -3.805785574722386e-05 -4.123870560835506e-06 1.752659168644106e-06 2.371211392191909e-06 7.622009360160697e-05 0.0 0.0
0.0 0.0038030828048513333 0.0026775911810087314 -0.0014550188722481277 -0.0012225723087605999 0.005007667379854273 0.0 0.0
0.0 0.012915800098207489 0.010150494930172494 -0.01238021651441446 0.0022297215842419444 0.00043729394289555336 0.0 0.0
0.0 0.010288177972733986 0.00749137818535325 -0.009992498793084783 0.002501120607731521 -3.2179769515334664e-05 0.0 0.0
0.0 0.0020554844508926507 0.0014597271191211304 -0.0007385621511232635 -0.0007211649679978657 -0.0035994871512312026 0.0 0.0
0.0 4.735282149755194e-06 -1.3296409075900495e-05 1.1376885584219315e-05 1.9195234916812023e-06 -6.334216715868833e-06 0.0 0.0
0.0 9.87720424216215e-06 1.3697339282571258e-06 -1.0853636902215034e-06 -2.843702380356724e-07 1.0201975712112235e-06 0.0 0.0
0.0 0.00016811431228087593 6.927250086129776e-05 -4.9298675815672794e-05 -1.997382504562507e-05 2.1007728847930818e-05 0.0 0.0
0.0 0.0008984912395372085 0.0006945634486484997 -0.0005337829166317503 -0.00016078053201675028 4.422289255273678e-05 0.0 0.0
0.0 0.002215681110264454 0.0020648598714067446 -0.0016883665024145054 -0.00037649336899223655 -7.438339659884453e-05 0.0 0.0
0.0 0.00444415754342142 0.004066759124217595 -0.0034896460841320203 -0.0005771130400855747 -0.00023141528745796065 0.0 0.0
0.0 0.007472166883741173 0.006738922795365525 -0.006002557833228098 -0.0007363649621374254 -0.0004330898260213961 0.0 0.0
0.0 0.011294504772143424 0.01009196634908354 -0.00922456820224779 -0.000867398146835744 -0.0006636572211189246 0.0 0.0
0.0 0.016023369104865817 0.014197258582480695 -0.013208862895689935 -0.0009883956867907605 -0.0008938167225349018 0.0 0.0
0.0 0.021948087697841144 0.01921887921213398 -0.018111691232169092 -0.0011071879799648774 -0.001118623992719373 0.0 0.0
0.0 0.028764903589278395 0.025402413340056707 -0.02417857873835009 -0.0012238346017066136 -0.0014140167867778104 0.0 0.0
0.0 0.037456416116440946 0.032956590860378214 -0.031623671794297585 -0.0013329190660806283 -0.0018040057334788365 0.0 0.0
0.0 0.04784472716933612 0.04198644627211217 -0.040562145152907375 -0.0014243011192048044 -0.002282291458513819 0.0 0.0
0.0 0.05978671884590272 0.05233737650502932 -0.050848423238958496 -0.0014889532660708326 -0.002835180656219291 0.0 0.0
0.0 0.07269702253097333 0.06347761408481051 -0.06195513556470942 -0.0015224785201010445 -0.0033369107005768914 0.0 0.0
0.0 0.0855176066191759 0.07449667115878725 -0.07296825803402407 -0.0015284131247631954 -0.003533283101413833 0.0 0.0
0.0 0.09680731322079492 0.0841980599915989 -0.08268532394798997 -0.0015127360436088986 -0.0031704115158054822 0.0 0.0
0.0 0.10495244525051485 0.09115464606210448 -0.08969515397629103 -0.0014594920858134958 -0.002317552292623677 0.0 0.0
0.0 0.1081992078144268 0.09380164120374394 -0.09242255940548527 -0.0013790817982586628 3.703634621210483e-15 0.0 0.0
0.0 0.10495244525050677 0.091154646062097 -0.08969515397628397 -0.0014594920858130758 0.0023175522926329284 0.0 0.0
0.0 0.09680731322077464 0.08419805999158132 -0.0826853239479723 -0.0015127360436089287 0.0031704115158164583 0.0 0.0
0.0 0.08551760661914845 0.07449667115876338 -0.07296825803400042 -0.0015284131247628968 0.003533283101420728 0.0 0.0
0.0 0.07269702253094323 0.06347761408478432 -0.06195513556468408 -0.0015224785201002071 0.0033369107005779006 0.0 0.0
0.0 0.05978671884586965 0.05233737650500035 -0.05084842323893011 -0.0014889532660702098 0.002835180656217907 0.0 0.0
0.0 0.04784472716930429 0.04198644627208419 -0.04056214515288034 -0.001424301119203885 0.0022822914585132535 0.0 0.0
0.0 0.03745641611640568 0.032956590860347634 -0.03162367179426725 -0.0013329190660803694 0.001804005733478155 0.0 0.0
0.0 0.028764903589242975 0.02540241334002595 -0.024178578738319866 -0.0012238346017060897 0.0014140167867754331 0.0 0.0
0.0 0.02194808769780719 0.019218879212104054 -0.01811169123213956 -0.0011071879799644645 0.0011186239927174126 0.0 0.0
0.0 0.01602336910483771 0.014197258582456029 -0.013208862895666097 -0.0009883956867899337 0.0008938167225321747 0.0 0.0
0.0 0.011294504772120609 0.010091966349062896 -0.009224568202227883 -0.0008673981468350063 0.0006636572211166779 0.0 0.0
0.0 0.007472166883723438 0.00673892279534895 -0.0060025578332124786 -0.0007363649621364688 0.0004330898260198717 0.0 0.0
0.0 0.004444157543407884 0.0040667591242048075 -0.0034896460841202146 -0.0005771130400845921 0.0002314152874566044 0.0 0.0
0.0 0.0022156811102559603 0.0020648598713983615 -0.001688366502407253 -0.0003764933689911087 7.438339659812933e-05 0.0 0.0
0.0 0.0008984912395333475 0.0006945634486452977 -0.0005337829166292387 -0.0001607805320160583 -4.422289255268489e-05 0.0 0.0
0.0 0.00016811431227914124 6.927250086053329e-05 -4.929867581511392e-05 -1.9973825045419614e-05 -2.1007728847677687e-05 0.0 0.0
0.0 9.877204241718992e-06 1.3697339285102446e-06 -1.0853636904133964e-06 -2.8437023809668713e-07 -1.0201975712317054e-06 0.0 0.0
0.0 4.73528214971072e-06 -1.3296409075777453e-05 1.137688558411234e-05 1.919523491664986e-06 6.334216715816363e-06 0.0 0.0
0.0 0.002055484450886018 0.0014597271191174638 -0.0007385621511209076 -0.0007211649679965549 0.0035994871512226526 0.0 0.0
0.0 0.010288177972717234 0.00749137818534062 -0.009992498793068022 0.002501120607727392 3.217976949752014e-05 0.0 0.0
0.0 0.007365656093102375 0.005238455716591471 -0.007206167658719721 0.0019677119421282457 -0.0018338009326076233 0.0 0.0
0.0 0.001410294823576999 0.0008698426659847485 -0.00038878850593641905 -0.00048105416004832905 -0.0026330461088837913 0.0 0.0
0.0 1.2634912319597936e-08 -1.3678156687548327e-09 1.0394932843731892e-09 3.2832238438154863e-10 4.875689838480855e-10 0.0 0.0
0.0 2.3165571378532695e-06 1.2706558114898123e-07 -1.0553748973620973e-07 -2.15280914128956e-08 -2.9895767973668094e-07 0.0 0.0
0.0 4.302353243266657e-05 1.0439684214442976e-05 -6.543058583406354e-06 -3.896625631036809e-06 8.054977446454162e-06 0.0 0.0
0.0 0.0005774521061127877 0.00037440183502070775 -0.0002808722421188643 -9.352959290184338e-05 1.1523663132724887e-05 0.0 0.0
0.0 0.0015775337654080862 0.0015266795886994095 -0.0012234219130972908 -0.00030325767560212055 -0.0002162207546688291 0.0 0.0
0.0 0.003583860640879076 0.003283752024877725 -0.0027761992495933916 -0.0005075527752843323 -0.000541232961202206 0.0 0.0
0.0 0.006245802892422202 0.005665244409264054 -0.0049874504755036625 -0.0006777939337603896 -0.0009482951744999799 0.0 0.0
0.0 0.009689692841820138 0.008647515563946401 -0.007834797664766274 -0.0008127178991801228 -0.001405921102289335 0.0 0.0
0.0 0.01389685676837863 0.012280089318321944 -0.011348267500276116 -0.0009318218180458175 -0.0018809022309209276 0.0 0.0
0.0 0.01891460824741263 0.01670273715452593 -0.015656779088594693 -0.001045958065931237 -0.0023611707759762027 0.0 0.0
0.0 0.025342592964839213 0.0221294655686481 -0.02097278295597957 -0.0011566826126685427 -0.002898315946084474 0.0 0.0
0.0 0.0327651049262189 0.028809529286067892 -0.02755076755956222 -0.0012587617265056644 -0.0035983384401587436 0.0 0.0
0.0 0.04204153553439806 0.03684792966834046 -0.03550398579195783 -0.001343943876382658 -0.004480480912673145 0.0 0.0
0.0 0.05274575130408383 0.046118550530785 -0.044714267616536504 -0.0014042829142484592 -0.005466844429232949 0.0 0.0
0.0 0.06437287925222465 0.0561686668514386 -0.054730418037448755 -0.0014382488139898708 -0.006330223484439242 0.0 0.0
0.0 0.07598525182429583 0.06619777943496681 -0.06475108854580203 -0.00144669088916483 -0.006651032869729552 0.0 0.0
0.0 0.08631055482660702 0.07508803093752232 -0.07366145122149644 -0.0014265797160258789 -0.00602590135246512 0.0 0.0
0.0 0.09377664634367426 0.08148764562390921 -0.08010115632487359 -0.0013864892990355217 -0.004344529874388316 0.0 0.0
0.0 0.09683232301741815 0.08397870898213412 -0.08269515696552909 -0.0012835520166050453 7.697401743778087e-15 0.0 0.0
0.0 0.093776646343667 0.08148764562390204 -0.0801011563248669 -0.0013864892990351528 0.004344529874405742 0.0 0.0
0.0 0.08631055482659059 0.07508803093750785 -0.07366145122148215 -0.0014265797160257832 0.006025901352483767 0.0 0.0
0.0 0.07598525182427189 0.06619777943494587 -0.0647510885457813 -0.0014466908891645025 0.006651032869740856 0.0 0.0
0.0 0.06437287925219871 0.05616866685141599 -0.05473041803742709 -0.0014382488139888907 0.006330223484441722 0.0 0.0
0.0 0.05274575130405483 0.04611855053075953 -0.04471426761651178 -0.0014042829142477497 0.005466844429231442 0.0 0.0
0.0 0.04204153553436955 0.03684792966831542 -0.03550398579193365 -0.0013439438763817731 0.004480480912672108 0.0 0.0
0.0 0.03276510492618787 0.028809529286040844 -0.02755076755953564 -0.0012587617265052032 0.003598338440157277 0.0 0.0
0.0 0.025342592964809743 0.0221294655686221 -0.02097278295595458 -0.0011566826126675166 0.0028983159460812483 0.0 0.0
0.0 0.018914608247382194 0.01670273715449958 -0.01565677908856864 -0.001045958065930928 0.0023611707759720333 0.0 0.0
0.0 0.01389685676835362 0.012280089318299405 -0.011348267500254201 -0.0009318218180452067 0.0018809022309165596 0.0 0.0
0.0 0.009689692841799803 0.00864751556392776 -0.007834797664748436 -0.0008127178991793275 0.0014059211022853344 0.0 0.0
0.0 0.006245802892405949 0.005665244409249115 -0.004987450475489619 -0.0006777939337594962 0.0009482951744971014 0.0 0.0
0.0 0.003583860640866302 0.0032837520248660506 -0.0027761992495827907 -0.0005075527752832577 0.0005412329611997327 0.0 0.0
0.0 0.0015775337654010256 0.00152667958869235 -0.0012234219130913108 -0.000303257675601039 0.00021622075466749864 0.0 0.0
0.0 0.0005774521061090595 0.0003744018350178549 -0.00028087224211669046 -9.352959290116414e-05 -1.1523663132976395e-05 0.0 0.0
0.0 4.302353243170851e-05 1.043968421433627e-05 -6.543058583339702e-06 -3.896625630996543e-06 -8.05497744633446e-06 0.0 0.0
0.0 2.316557137573406e-06 1.2706558119455118e-07 -1.055374897695705e-07 -2.1528091424956656e-08 2.98957679745694e-07 0.0 0.0
0.0 1.2634912310065045e-08 -1.367815667713223e-09 1.0394932835817643e-09 3.283223841315191e-10 -4.875689834762404e-10 0.0 0.0
0.0 0.0014102948235713562 0.0008698426659813381 -0.0003887885059342012 -0.0004810541600471366 0.0026330461088745582 0.0 0.0
0.0 0.007365656093085803 0.0052384557165793665 -0.007206167658703527 0.001967711942124165 0.0018338009325954872 0.0 0.0
0.0 0.005379283116452477 0.0037078632614848794 -0.005212919959552735 0.0015050566980678527 -0.0020472671685136767 0.0 0.0
0.0 0.0009138196131703881 0.0005282909077668106 -0.00021854955296077982 -0.00030974135480603095 -0.0018177112532602408 0.0 0.0
0.0 0.0 0.0 0.0 0.0 0.0 0.0 0.0
0.0 -1.0390837439607566e-06 1.1224192617575011e-07 -8.466471595657498e-08 -2.7577210219183563e-08 -7.31158042041032e-08 0.0 0.0
0.0 6.020599138083598e-06 -1.8414459332163898e-05 1.4283878105066721e-05 4.130581227097417e-06 9.597225910236508e-06 0.0 0.0
0.0 0.00023919623797525054 0.0001644165684180521 -0.00012045017199890524 -4.3966396419146416e-05 -8.222357789252442e-06 0.0 0.0
0.0 0.0011912242501350672 0.000986068757791157 -0.0007718930754742145 -0.00021417568231694157 -0.00021458702320854644 0.0 0.0
0.0 0.002750052931908231 0.0025139819752318516 -0.0020883979073349807 -0.0004255840678968719 -0.0007097275854603652 0.0 0.0
0.0 0.005091067706706757 0.004595545553568432 -0.003988862583686286 -0.0006066829698821444 -0.0012830640494482615 0.0 0.0
0.0 0.008100264017552303 0.007207574389120392 -0.00645869809443306 -0.0007488762946873292 -0.0019240256869487312 0.0 0.0
0.0 0.011715173436501011 0.010374882240626456 -0.009506841599331 -0.000868040641295458 -0.002591248297312101 0.0 0.0
0.0 0.01619678118587663 0.014204264160498225 -0.013226240110085908 -0.0009780240504123029 -0.003268244226864821 0.0 0.0
0.0 0.02147388330136036 0.018900480336974928 -0.01781649584602949 -0.0010839844909454363 -0.004010254180740453 0.0 0.0
0.0 0.028384394751650773 0.024684285631691335 -0.023505368513190694 -0.0011789171185006312 -0.004924748488273419 0.0 0.0
0.0 0.03639339282410164 0.03170514403471005 -0.03044753567864807 -0.0012576083560619715 -0.006079436345528903 0.0 0.0
0.0 0.04565553821135197 0.03987452569841243 -0.03855844245036797 -0.0013160832480444546 -0.007391265213753205 0.0 0.0
0.0 0.05608084159571556 0.048815108844399824 -0.04746405741075507 -0.0013510514336447423 -0.00854413583595673 0.0 0.0
0.0 0.06654482046251933 0.05784676361726641 -0.056486103140076786 -0.0013606604771896351 -0.009012646794714892 0.0 0.0
0.0 0.0759259161594279 0.06596216921197513 -0.06461802575773087 -0.0013441434542441962 -0.008265334068389802 0.0 0.0
0.0 0.08280174331611112 0.07192922182150559 -0.07061923430512285 -0.0013099875163828229 -0.005868628135047597 0.0 0.0
0.0 0.0857994087209638 0.07435837574665821 -0.07319405371579933 -0.0011643220308588673 1.0108884215820346e-14 0.0 0.0
0.0 0.08280174331610264 0.07192922182149754 -0.07061923430511449 -0.0013099875163829749 0.005868628135071031 0.0 0.0
0.0 0.07592591615941482 0.06596216921196307 -0.06461802575771929 -0.0013441434542437755 0.008265334068412341 0.0 0.0
0.0 0.06654482046249954 0.0578467636172489 -0.05648610314005955 -0.0013606604771893383 0.009012646794728907 0.0 0.0
0.0 0.05608084159569077 0.04881510884437836 -0.047464057410734194 -0.0013510514336442 0.008544135835959766 0.0 0.0
0.0 0.04565553821132684 0.03987452569839037 -0.03855844245034648 -0.0013160832480438886 0.007391265213751208 0.0 0.0
0.0 0.0363933928240755 0.03170514403468711 -0.030447535678625834 -0.0012576083560613056 0.00607943634552751 0.0 0.0
0.0 0.028384394751623986 0.02468428563166781 -0.02350536851316757 -0.0011789171185002181 0.00492474848827129 0.0 0.0
0.0 0.021473883301334453 0.018900480336952286 -0.01781649584600778 -0.0010839844909445089 0.00401025418073663 0.0 0.0
0.0 0.016196781185851297 0.014204264160475629 -0.013226240110063816 -0.0009780240504118152 0.0032682442268590515 0.0 0.0
0.0 0.011715173436478956 0.010374882240606738 -0.009506841599311831 -0.0008680406412949005 0.0025912482973062525 0.0 0.0
0.0 0.00810026401753444 0.0072075743891043265 -0.006458698094417832 -0.0007488762946864919 0.001924025686943294 0.0 0.0
0.0 0.005091067706692278 0.004595545553555342 -0.003988862583674093 -0.0006066829698812481 0.0012830640494443243 0.0 0.0
0.0 0.002750052931898822 0.002513981975222529 -0.002088397907326672 -0.000425584067895856 0.0007097275854572901 0.0 0.0
0.0 0.0011912242501285462 0.0009860687577859188 -0.00077189307546995 -0.00021417568231596793 0.00021458702320700606 0.0 0.0
0.0 0.00023919623797215127 0.00016441656841608096 -0.00012045017199742195 -4.396639641865918e-05 8.222357788939313e-06 0.0 0.0
0.0 6.0205991375980605e-06 -1.8414459331674564e-05 1.4283878104692925e-05 4.130581226981617e-06 -9.597225909969434e-06 0.0 0.0
0.0 -1.0390837437358132e-06 1.1224192615061098e-07 -8.466471593745809e-08 -2.7577210213149207e-08 7.311580418800225e-08 0.0 0.0
0.0 0.0 0.0 0.0 0.0 0.0 0.0 0.0
0.0 0.0009138196131653596 0.0005282909077639618 -0.0002185495529588881 -0.00030974135480507414 0.001817711253252276 0.0 0.0
0.0 0.0053792831164390775 0.003707863261474448 -0.005212919959538621 0.00150505669806417 0.0020472671685047576 0.0 0.0
0.0 0.0037356766359566175 0.0025755700629406706 -0.003676405640244558 0.0011008355773038882 -0.0017782836456610499 0.0 0.0
0.0 0.000739027382967433 0.0002866479086505908 -9.59857715192749e-05 -0.00019066213713131577 -0.001128447840084996 0.0 0.0
0.0 0.0 0.0 0.0 0.0 0.0 0.0 0.0
0.0 1.5028312787509444e-07 -1.5385716863678778e-08 1.1776366407597212e-08 3.6093504560833587e-09 1.561152117108147e-08 0.0 0.0
0.0 -5.421766832317041e-06 2.192825543942947e-06 -1.7280286622031359e-06 -4.64796881739814e-07 -2.621383684858133e-06 0.0 0.0
0.0 8.082945397782928e-05 1.3031878499701025e-05 -7.229384787239984e-06 -5.802493712460884e-06 2.732016529826946e-05 0.0 0.0
0.0 0.0008042600125899961 0.0005353068930580342 -0.00040951408504589457 -0.00012579280801213979 -0.0001648533451432031 0.0 0.0
0.0 0.001965630383095899 0.0017695001450676586 -0.0014365233070870224 -0.00033297683798063553 -0.0006979418649539894 0.0 0.0
0.0 0.003967064224358695 0.003542978066479879 -0.0030226552077247796 -0.0005203228587550979 -0.0014300548426396658 0.0 0.0
0.0 0.006517922492022423 0.005782529146211326 -0.005110531662720092 -0.0006719974834912336 -0.0022113627853607757 0.0 0.0
0.0 0.009643356548301868 0.00848712570781214 -0.007692962625229768 -0.0007941630825823718 -0.0030218057128262492 0.0 0.0
0.0 0.013434280364097466 0.011737546908375387 -0.010835436015071767 -0.0009021108933036205 -0.003839828095394461 0.0 0.0
0.0 0.018138015144356315 0.015703389176949734 -0.014700757119342702 -0.0010026320576070203 -0.004722355727653263 0.0 0.0
0.0 0.023618484032546582 0.02061139020945857 -0.01951821994347976 -0.0010931702659787977 -0.005786443375778561 0.0 0.0
0.0 0.030670394260238366 0.026596050218734433 -0.025429600671883122 -0.0011664495468512923 -0.007107710611176396 0.0 0.0
0.0 0.03892380991858902 0.03362645282714424 -0.03240568362777976 -0.0012207691993644631 -0.008597923541724974 0.0 0.0
0.0 0.0478215658217552 0.041430126054406824 -0.04017215109554445 -0.0012579749588623788 -0.0099422910170827 0.0 0.0
0.0 0.05708020846413699 0.0494435843873557 -0.048171261803989604 -0.0012723225833660941 -0.010588644831395358 0.0 0.0
0.0 0.06557254423269226 0.056805531756463364 -0.055544489472028793 -0.0012610422844345909 -0.009839547324673846 0.0 0.0
0.0 0.07201743251139223 0.06241908513462041 -0.061191516978630484 -0.0012275681559898984 -0.007009422245777571 0.0 0.0
0.0 0.07504348644690162 0.06484556869053885 -0.06381708625827272 -0.0010284824322661576 1.1642596609018341e-14 0.0 0.0
0.0 0.07201743251138533 0.06241908513461342 -0.06119151697862323 -0.0012275681559901586 0.007009422245803812 0.0 0.0
0.0 0.06557254423267903 0.05680553175645094 -0.05554448947201653 -0.001261042284434396 0.00983954732469793 0.0 0.0
0.0 0.05708020846412034 0.0494435843873408 -0.04817126180397468 -0.0012723225833661184 0.010588644831410704 0.0 0.0
0.0 0.04782156582173456 0.04143012605438887 -0.04017215109552714 -0.001257974958861738 0.00994229101708652 0.0 0.0
0.0 0.0389238099185667 0.03362645282712482 -0.032405683627760494 -0.0012207691993643055 0.008597923541722202 0.0 0.0
0.0 0.030670394260215988 0.026596050218714674 -0.025429600671864186 -0.0011664495468504765 0.007107710611173853 0.0 0.0
0.0 0.023618484032524662 0.020611390209439313 -0.0195182199434609 -0.0010931702659784219 0.005786443375776216 0.0 0.0
0.0 0.018138015144333938 0.01570338917692989 -0.0147007571193233 -0.0010026320576065832 0.00472235572764854 0.0 0.0
0.0 0.013434280364077247 0.011737546908357469 -0.010835436015054304 -0.0009021108933031667 0.003839828095387867 0.0 0.0
0.0 0.00964335654828257 0.008487125707795137 -0.0076929626252135045 -0.0007941630825816283 0.003021805712818446 0.0 0.0
0.0 0.00651792249200678 0.005782529146197443 -0.0051105316627070895 -0.0006719974834903575 0.0022113627853544114 0.0 0.0
0.0 0.003967064224346538 0.0035429780664687663 -0.0030226552077145382 -0.0005203228587542256 0.0014300548426349668 0.0 0.0
0.0 0.0019656303830881267 0.0017695001450604385 -0.001436523307080867 -0.000332976837979571 0.0006979418649506852 0.0 0.0
0.0 0.0008042600125848846 0.00053530689305442 -0.0004095140850430315 -0.0001257928080113889 0.00016485334514178886 0.0 0.0
0.0 8.082945397634158e-05 1.3031878499270888e-05 -7.229384786935337e-06 -5.802493712335151e-06 -2.7320165298178932e-05 0.0 0.0
0.0 -5.421766832496116e-06 2.192825543902048e-06 -1.7280286621718444e-06 -4.647968817302841e-07 2.621383684835984e-06 0.0 0.0
0.0 1.5028312785351273e-07 -1.538571686135809e-08 1.1776366405820481e-08 3.6093504555372983e-09 -1.561152116871207e-08 0.0 0.0
0.0 0.0 0.0 0.0 0.0 0.0 0.0 0.0
0.0 0.000739027382962463 0.0002866479086484086 -9.598577151779438e-05 -0.00019066213713061318 0.00112844784007856 0.0 0.0
0.0 0.0037356766359457655 0.0025755700629322108 -0.0036764056402328873 0.0011008355773006724 0.0017782836456546743 0.0 0.0
0.0 0.0025793811283911215 0.0016983172568973762 -0.0024509519093063132 0.0007526346524089383 -0.0013689815215215749 0.0 0.0
0.0 0.00033323332989476114 0.00013477336330461944 -2.398044341021804e-05 -0.00011079291989440138 -0.0006352122007349486 0.0 0.0
0.0 0.0 0.0 0.0 0.0 0.0 0.0 0.0
0.0 0.0 0.0 0.0 0.0 0.0 0.0 0.0
0.0 -1.6739914633399014e-06 -4.0298435498622057e-07 3.2474431269883475e-07 7.824004228739535e-08 3.6656926911236964e-07 0.0 0.0
0.0 -1.240727108718037e-05 -1.2870424445516913e-05 1.0593044244068812e-05 2.277380201447995e-06 2.2264081035181355e-05 0.0 0.0
0.0 0.00029101818749553845 0.0002464405621119367 -0.00018505739214885042 -6.138316996308619e-05 -0.00011693342939116667 0.0 0.0
0.0 0.0015003419221510483 0.0010592580073289376 -0.0008390763357773752 -0.00022018167155156315 -0.0005416721571128714 0.0 0.0
0.0 0.002762694547633486 0.0025266314113158604 -0.0021081802745262813 -0.0004184511367895772 -0.0013612639613423403 0.0 0.0
0.0 0.005016726286126345 0.0043809539459831156 -0.003804410020306049 -0.0005765439256770632 -0.002255493561559321 0.0 0.0
0.0 0.007600047370550878 0.006628126339641141 -0.005922669081230903 -0.0007054572584102392 -0.003159305045073049 0.0 0.0
0.0 0.01071125851398559 0.009311049858098785 -0.008497005798260845 -0.0008140440598379375 -0.004070710012498308 0.0 0.0
0.0 0.014510484386889132 0.01256711546502255 -0.011655056828452765 -0.000912058636569784 -0.005031084509227223 0.0 0.0
0.0 0.019296548153057053 0.016591203465342517 -0.015594004072898513 -0.000997199392444002 -0.006159262277933597 0.0 0.0
0.0 0.025026836718479554 0.0215417858776419 -0.020474937627274897 -0.001066848250367018 -0.007548949718418726 0.0 0.0
0.0 0.031754647199550186 0.027424821213217113 -0.0263051534655106 -0.0011196677477065167 -0.009113806077692011 0.0 0.0
0.0 0.039745179080670046 0.034039149704174584 -0.03288270381790481 -0.0011564458862697686 -0.010539175085450108 0.0 0.0
0.0 0.04770159972991793 0.040987090169572526 -0.03980997639940551 -0.0011771137701670205 -0.011317965245067342 0.0 0.0
0.0 0.05511327946559337 0.04759127109041739 -0.04641680313638153 -0.0011744679540358473 -0.01070990653684224 0.0 0.0
0.0 0.0612346505541333 0.0528948793005016 -0.05175487178982293 -0.0011400075106786668 -0.007788382285472145 0.0 0.0
0.0 0.06437189196761506 0.055364871017205976 -0.054488495517730065 -0.0008763754994758863 1.1593590670821996e-14 0.0 0.0
0.0 0.06123465055412896 0.05289487930049637 -0.05175487178981762 -0.0011400075106787844 0.007788382285498194 0.0 0.0
0.0 0.05511327946558078 0.047591271090405333 -0.04641680313636932 -0.0011744679540359804 0.010709906536867146 0.0 0.0
0.0 0.04770159972990493 0.040987090169560564 -0.03980997639939375 -0.0011771137701668 0.01131796524508284 0.0 0.0
0.0 0.039745179080653045 0.03403914970415971 -0.03288270381789087 -0.0011564458862688592 0.010539175085453364 0.0 0.0
0.0 0.03175464719953076 0.02742482121320033 -0.026305153465493867 -0.0011196677477064662 0.009113806077688719 0.0 0.0
0.0 0.02502683671846058 0.02154178587762518 -0.02047493762725886 -0.0010668482503663076 0.007548949718414993 0.0 0.0
0.0 0.019296548153040306 0.01659120346532745 -0.015594004072883905 -0.0009971993924435436 0.006159262277930738 0.0 0.0
0.0 0.014510484386869842 0.012567115465005841 -0.011655056828436617 -0.0009120586365692195 0.005031084509222191 0.0 0.0
0.0 0.010711258513968704 0.009311049858084008 -0.00849700579824665 -0.0008140440598373578 0.004070710012491642 0.0 0.0
0.0 0.007600047370533754 0.0066281263396264865 -0.0059226690812171365 -0.000705457258409352 0.0031593050450641497 0.0 0.0
0.0 0.005016726286113456 0.004380953945971515 -0.0038044100202952753 -0.0005765439256762355 0.002255493561552394 0.0 0.0
0.0 0.002762694547624244 0.0025266314113070072 -0.0021081802745184105 -0.00041845113678859686 0.001361263961337374 0.0 0.0
0.0 0.0015003419221431872 0.0010592580073229378 -0.0008390763357723936 -0.0002201816715505448 0.0005416721571094749 0.0 0.0
0.0 0.0002910181874926825 0.00024644056211006667 -0.00018505739214745755 -6.138316996260892e-05 0.00011693342939030071 0.0 0.0
0.0 -1.2407271087396781e-05 -1.2870424444960587e-05 1.0593044243633119e-05 2.277380201327443e-06 -2.2264081034494638e-05 0.0 0.0
0.0 -1.673991463512169e-06 -4.0298435502134586e-07 3.247443127272108e-07 7.824004229412034e-08 -3.665692691773648e-07 0.0 0.0
0.0 0.0 0.0 0.0 0.0 0.0 0.0 0.0
0.0 0.0 0.0 0.0 0.0 0.0 0.0 0.0
0.0 0.00033323332989095066 0.00013477336330311365 -2.3980443409191638e-05 -0.00011079291989392184 0.000635212200730238 0.0 0.0
0.0 0.002579381128382711 0.0016983172568908332 -0.0024509519092970906 0.0007526346524062569 0.0013689815215167996 0.0 0.0
0.0 0.001530179324338163 0.0010395767147374133 -0.0015068188257819286 0.00046724211104451504 -0.0009725879050247623 0.0 0.0
0.0 0.0001447734458767365 2.6669553669568517e-05 3.379019051492785e-05 -6.0459744184496434e-05 -0.00026312048309677053 0.0 0.0
0.0 0.0 0.0 0.0 0.0 0.0 0.0 0.0
0.0 0.0 0.0 0.0 0.0 0.0 0.0 0.0
0.0 -2.2386753520192194e-06 1.6348951559788906e-07 -1.2877392081928395e-07 -3.4715594778593957e-08 -4.1542232601732724e-07 0.0 0.0
0.0 -8.309940247843395e-06 -9.409273500624462e-06 7.5680912926013356e-06 1.841182208023217e-06 1.65033918185902e-05 0.0 0.0
0.0 8.610330404389272e-05 3.84033502140776e-05 -2.814160284516663e-05 -1.0261747368911098e-05 -1.2686558103876939e-05 0.0 0.0
0.0 0.0006544222182265422 0.0005441109482126745 -0.0004218032458096965 -0.00012230770240297782 -0.00039164236205935644 0.0 0.0
0.0 0.0021402145261873325 0.001531520487259019 -0.001246518493496762 -0.0002850019937622563 -0.00104970187219448 0.0 0.0
0.0 0.0034375497227942457 0.0030268925955080086 -0.002568856213243217 -0.0004580363822647939 -0.0020245081655929265 0.0 0.0
0.0 0.005633016547516076 0.004810021224147575 -0.004216980610054591 -0.0005930406140929798 -0.00298656372814378 0.0 0.0
0.0 0.008115041773677988 0.006933469510390115 -0.006227248994334163 -0.0007062205160559542 -0.003942349640419972 0.0 0.0
0.0 0.011100776671885084 0.009494208408851278 -0.008689385939014218 -0.0008048224698370686 -0.004924843410107408 0.0 0.0
0.0 0.014816752836592662 0.012658248214202404 -0.011769871495044732 -0.0008883767191576675 -0.006045856359758135 0.0 0.0
0.0 0.019373985362984996 0.016571782473424182 -0.015616212558762745 -0.0009555699146614302 -0.007387990119332637 0.0 0.0
0.0 0.025156255011725928 0.02128042173247564 -0.020275032753807036 -0.0010053889786685937 -0.008912373454089288 0.0 0.0
0.0 0.031134877714045668 0.02668796908792745 -0.025643133718870302 -0.0010448353690571473 -0.010342981900793406 0.0 0.0
0.0 0.038098646417798324 0.03250458086646715 -0.03143227431882313 -0.001072306547644021 -0.011201410656006728 0.0 0.0
0.0 0.04489744265801463 0.03828670467228776 -0.03720718315595344 -0.001079521516334304 -0.010823038018286895 0.0 0.0
0.0 0.050533110632183034 0.04328501984307259 -0.04223843441369431 -0.0010465854293782717 -0.008173444557465711 0.0 0.0
0.0 0.053884845240642756 0.045839713920218114 -0.04513356993313349 -0.0007061439870846509 1.0326375171620938e-14 0.0 0.0
0.0 0.05053311063218077 0.043285019843068824 -0.04223843441369071 -0.0010465854293780386 0.00817344455749007 0.0 0.0
0.0 0.04489744265800594 0.03828670467227864 -0.03720718315594455 -0.0010795215163341076 0.010823038018310985 0.0 0.0
0.0 0.03809864641778862 0.032504580866457806 -0.031432274318814145 -0.0010723065476436347 0.011201410656021272 0.0 0.0
0.0 0.03113487771403098 0.026687969087914876 -0.025643133718858426 -0.0010448353690564393 0.01034298190079473 0.0 0.0
0.0 0.025156255011709164 0.02128042173246142 -0.02027503275379267 -0.001005388978668751 0.008912373454084738 0.0 0.0
0.0 0.01937398536296959 0.016571782473410374 -0.015616212558749447 -0.0009555699146609237 0.007387990119328045 0.0 0.0
0.0 0.014816752836579567 0.012658248214190586 -0.011769871495033498 -0.0008883767191570866 0.006045856359755547 0.0 0.0
0.0 0.01110077667187076 0.00949420840883898 -0.00868938593900254 -0.0008048224698364337 0.004924843410102826 0.0 0.0
0.0 0.00811504177366331 0.006933469510377821 -0.006227248994322284 -0.0007062205160555421 0.003942349640412672 0.0 0.0
0.0 0.005633016547503507 0.0048100212241369055 -0.004216980610044769 -0.0005930406140921335 0.002986563728135482 0.0 0.0
0.0 0.003437549722783564 0.0030268925954987707 -0.002568856213234787 -0.0004580363822639823 0.002024508165586152 0.0 0.0
0.0 0.0021402145261779563 0.0015315204872520757 -0.0012465184934908624 -0.00028500199376121205 0.0010497018721895815 0.0 0.0
0.0 0.0006544222182217487 0.0005441109482090267 -0.0004218032458067653 -0.0001223077024022608 0.00039164236205678255 0.0 0.0
0.0 8.610330404213885e-05 3.8403350213509686e-05 -2.8141602844759945e-05 -1.026174736874982e-05 1.2686558103578794e-05 0.0 0.0
0.0 -8.309940248758231e-06 -9.409273500567811e-06 7.568091292559192e-06 1.8411822080085367e-06 -1.6503391818545868e-05 0.0 0.0
0.0 -2.238675351837719e-06 1.6348951560326523e-07 -1.287739208241156e-07 -3.4715594779146354e-08 4.15422326040523e-07 0.0 0.0
0.0 0.0 0.0 0.0 0.0 0.0 0.0 0.0
0.0 0.0 0.0 0.0 0.0 0.0 0.0 0.0
0.0 0.0001447734458742022 2.6669553668764304e-05 3.379019051543683e-05 -6.0459744184201355e-05 0.000263120483093896 0.0 0.0
0.0 0.001530179324331996 0.001039576714732684 -0.0015068188257751417 0.0004672421110424578 0.0009725879050210704 0.0 0.0
0.0 0.0011647772677275295 0.0004955380201571464 -0.0007181862951043175 0.00022264827494717116 -0.0005211806552898927 0.0 0.0
0.0 -5.2132721467741745e-05 -1.9380067428563554e-05 4.608670202468088e-05 -2.6706634596117366e-05 -4.85998596197953e-05 0.0 0.0
0.0 1.683476983325989e-07 -9.842474380911868e-10 1.1381256918532304e-09 -1.5387825376230337e-10 3.35101228491758e-08 0.0 0.0
0.0 0.0 0.0 0.0 0.0 0.0 0.0 0.0
0.0 -6.282434264271959e-07 9.567969782883395e-09 -5.836754755614401e-09 -3.731215027263084e-09 -8.361364443293174e-08 0.0 0.0
0.0 -4.608613151029062e-06 -2.7952056524917857e-06 2.2085076932893045e-06 5.866979592024375e-07 8.018357068803799e-06 0.0 0.0
0.0 -1.110391587719526e-05 -1.6924421536779576e-05 1.3591671463849827e-05 3.3327500729296553e-06 3.450564258110302e-05 0.0 0.0
0.0 0.00020705079035608485 0.00016853267500172985 -0.00013002683208366623 -3.85058429180636e-05 -0.0002026757550559853 0.0 0.0
0.0 0.0009635417276192622 0.0007449132267794312 -0.0005922028509796869 -0.00015271037579974402 -0.0007052645192582581 0.0 0.0
0.0 0.0024072218548135023 0.0017260614587113745 -0.0014272564333504011 -0.0002988050253609723 -0.0014877127892345757 0.0 0.0
0.0 0.0037568617781816435 0.0030524499506164667 -0.0026102415893211814 -0.0004422083612952839 -0.002471184585806089 0.0 0.0
0.0 0.005557155340850814 0.004628087254447451 -0.004064794243185196 -0.0005632930112622592 -0.003424650259519871 0.0 0.0
0.0 0.007809888899732087 0.006507521838802986 -0.005840517462911789 -0.0006670043758911937 -0.004382023641460063 0.0 0.0
0.0 0.010546705937976887 0.00882909220891365 -0.00807581742434318 -0.0007532747845704752 -0.005426519492000946 0.0 0.0
0.0 0.01405437132363392 0.011716230564332034 -0.010894631178448905 -0.0008215993858831292 -0.006640530104095823 0.0 0.0
0.0 0.01820775794822095 0.015249768444639683 -0.014376615049257233 -0.0008731533953824475 -0.007995259569209382 0.0 0.0
0.0 0.02329266055107197 0.019395566298582884 -0.01848219426119665 -0.0009133720373862421 -0.009323635644263702 0.0 0.0
0.0 0.028648774414778977 0.024021178882054604 -0.023073847820477375 -0.0009473310615772092 -0.01020824685534075 0.0 0.0
0.0 0.0340862774424004 0.028892173034550155 -0.027921293505034625 -0.0009708795295155356 -0.01011808295472448 0.0 0.0
0.0 0.039481019300169305 0.03352590621059446 -0.032580079231336996 -0.0009458269792574604 -0.008097751797210046 0.0 0.0
0.0 0.04317794244645311 0.03619516155968155 -0.035682181679030846 -0.0005129798806506834 8.390423772430822e-15 0.0 0.0
0.0 0.03948101930016807 0.03352590621059122 -0.0325800792313339 -0.0009458269792573186 0.008097751797231517 0.0 0.0
0.0 0.034086277442394904 0.028892173034543576 -0.0279212935050284 -0.0009708795295151623 0.01011808295474614 0.0 0.0
0.0 0.028648774414768714 0.024021178882045174 -0.02307384782046793 -0.000947331061577278 0.010208246855352049 0.0 0.0
0.0 0.02329266055106116 0.019395566298573592 -0.018482194261188092 -0.000913372037385482 0.009323635644264019 0.0 0.0
0.0 0.0182077579482083 0.015249768444629318 -0.014376615049246927 -0.0008731533953824045 0.007995259569204629 0.0 0.0
0.0 0.014054371323622222 0.011716230564321915 -0.010894631178439107 -0.0008215993858828059 0.00664053010409149 0.0 0.0
0.0 0.010546705937967638 0.00882909220890558 -0.008075817424335602 -0.0007532747845699795 0.0054265194919983755 0.0 0.0
0.0 0.007809888899721325 0.006507521838793841 -0.005840517462903289 -0.0006670043758905499 0.004382023641455714 0.0 0.0
0.0 0.005557155340840102 0.004628087254438388 -0.004064794243176631 -0.0005632930112617544 0.003424650259513028 0.0 0.0
0.0 0.0037568617781722573 0.0030524499506088044 -0.002610241589314387 -0.00044220836129441586 0.0024711845857987138 0.0 0.0
0.0 0.0024072218548048495 0.0017260614587047117 -0.0014272564333445501 -0.0002988050253601627 0.0014877127892285544 0.0 0.0
0.0 0.000963541727613762 0.000744913226775372 -0.0005922028509763409 -0.0001527103757990305 0.0007052645192547934 0.0 0.0
0.0 0.00020705079035369955 0.00016853267500020413 -0.00013002683208247233 -3.850584291773202e-05 0.00020267575505438523 0.0 0.0
0.0 -1.1103915877469723e-05 -1.6924421536587692e-05 1.3591671463698198e-05 3.33275007288942e-06 -3.4505642580803064e-05 0.0 0.0
0.0 -4.608613151345614e-06 -2.7952056521665746e-06 2.2085076930286165e-06 5.866979591380109e-07 -8.01835706786307e-06 0.0 0.0
0.0 -6.282434263814372e-07 9.567969705340905e-09 -5.8367546932986715e-09 -3.731215012047339e-09 8.361364420189941e-08 0.0 0.0
0.0 0.0 0.0 0.0 0.0 0.0 0.0 0.0
0.0 1.6834769789144244e-07 -9.84247435487633e-10 1.1381256888423935e-09 -1.5387825335482658e-10 -3.351012276057265e-08 0.0 0.0
0.0 -5.213272146878789e-05 -1.9380067428806032e-05 4.6086702024755045e-05 -2.6706634595949145e-05 4.859985961850466e-05 0.0 0.0
0.0 0.0011647772677216971 0.000495538020154096 -0.0007181862950998955 0.00022264827494580035 0.0005211806552871393 0.0 0.0
0.0 0.0003982539540923715 0.0001930674732859405 -0.0002813658922433014 8.829841895736164e-05 -0.0002516137560773303 0.0 0.0
0.0 -5.207911895144468e-05 -2.5393569642750903e-05 3.6782340643371286e-05 -1.1388771000620456e-05 3.283212065365407e-05 0.0 0.0
0.0 2.535276324517265e-06 -4.831974744427683e-09 1.2168905422072356e-08 -7.336930677643471e-09 5.485514330232776e-07 0.0 0.0
0.0 -2.4363969988976666e-07 4.67274257071459e-09 -2.865438166614223e-09 -1.807304404100963e-09 -4.998462457855251e-08 0.0 0.0
0.0 6.233628489086471e-07 -8.196377453290556e-09 3.608994933244982e-09 4.587382520045591e-09 1.3531606602111735e-07 0.0 0.0
0.0 -7.161843190811636e-06 8.972557649135218e-07 -6.957212113210086e-07 -2.0153455359250548e-07 -3.3010004410831118e-06 0.0 0.0
0.0 -8.179784770433913e-06 -1.2564861340420272e-05 1.0005994427893661e-05 2.5588669125265754e-06 4.636021612660273e-05 0.0 0.0
0.0 6.001654645006393e-05 -1.1375057810621203e-05 8.542235883391769e-06 2.832821927229456e-06 1.3211161251502883e-06 0.0 0.0
0.0 0.00030517655108483867 0.0001731195567521189 -0.00013890845653651674 -3.421110021560215e-05 -0.0003270879386580072 0.0 0.0
0.0 0.0010339274287726765 0.0006610283558600924 -0.0005398267997182134 -0.00012120155614187856 -0.0008653939174170629 0.0 0.0
0.0 0.0019015722373993847 0.0014457537002595248 -0.0012063551016736472 -0.0002393985985858775 -0.001656357746784195 0.0 0.0
0.0 0.0031676083098328535 0.002438078926399163 -0.0020854390303306426 -0.0003526398960685191 -0.0024957269534094167 0.0 0.0
0.0 0.0046498872243626805 0.003648206520494511 -0.0031861274340339325 -0.00046207908646057633 -0.0033748422523737147 0.0 0.0
0.0 0.0064690952314193015 0.005149721409103189 -0.004592556648098907 -0.0005571647610042732 -0.004303540535482781 0.0 0.0
0.0 0.008800049826037853 0.00703306429076676 -0.006398121575079648 -0.0006349427156871173 -0.005316260759763356 0.0 0.0
0.0 0.011730885522882428 0.009381718502430044 -0.008687480378844304 -0.0006942381235857393 -0.006428431105185221 0.0 0.0
0.0 0.01525294412356815 0.012243403809436903 -0.011499536779234345 -0.0007438670302025454 -0.007563430493991715 0.0 0.0
0.0 0.01915623836748452 0.015608236367406363 -0.014824621462444886 -0.0007836149049614919 -0.008431856896803666 0.0 0.0
0.0 0.023555423239136994 0.01941880881603585 -0.01859576900828733 -0.0008230398077485054 -0.008546737264210715 0.0 0.0
0.0 0.028513349687884965 0.02355225768803213 -0.022724235516210212 -0.0008280221718219056 -0.007379783377276658 0.0 0.0
0.0 0.032337057539346376 0.02635523951046563 -0.026061241529412308 -0.0002939979810533406 6.523861312279777e-15 0.0 0.0
0.0 0.028513349687884472 0.02355225768802937 -0.022724235516207374 -0.0008280221718220039 0.007379783377294263 0.0 0.0
0.0 0.023555423239134517 0.019418808816031776 -0.018595769008283684 -0.0008230398077480845 0.008546737264228797 0.0 0.0
0.0 0.019156238367476194 0.015608236367399102 -0.014824621462437612 -0.0007836149049614697 0.008431856896812074 0.0 0.0
0.0 0.015252944123560236 0.012243403809430507 -0.011499536779228737 -0.0007438670302017717 0.00756343049399066 0.0 0.0
0.0 0.011730885522874376 0.009381718502423546 -0.008687480378838163 -0.0006942381235853742 0.0064284311051807964 0.0 0.0
0.0 0.00880004982603112 0.007033064290761139 -0.0063981215750743125 -0.0006349427156868215 0.005316260759760331 0.0 0.0
0.0 0.0064690952314135994 0.00514972140909826 -0.00459255664809448 -0.0005571647610037798 0.004303540535481105 0.0 0.0
0.0 0.004649887224355377 0.0036482065204883583 -0.0031861274340282317 -0.00046207908646012563 0.003374842252369312 0.0 0.0
0.0 0.003167608309825762 0.002438078926394139 -0.002085439030326171 -0.0003526398960679689 0.002495726953404183 0.0 0.0
0.0 0.0019015722373930423 0.001445753700254451 -0.0012063551016691608 -0.00023939859858529075 0.0016563577467780606 0.0 0.0
0.0 0.001033927428767199 0.000661028355856468 -0.0005398267997151989 -0.00012120155614126847 0.0008653939174130339 0.0 0.0
0.0 0.00030517655108239884 0.0001731195567507254 -0.00013890845653539475 -3.4211100215330644e-05 0.0003270879386562068 0.0 0.0
0.0 6.001654644922325e-05 -1.137505781070235e-05 8.54223588346396e-06 2.832821927238434e-06 -1.3211161257031965e-06 0.0 0.0
0.0 -8.179784771786573e-06 -1.2564861340195593e-05 1.0005994427719177e-05 2.5588669124764793e-06 -4.636021612586185e-05 0.0 0.0
0.0 -7.16184319144857e-06 8.972557649233177e-07 -6.957212113287737e-07 -2.0153455359458076e-07 3.3010004411748285e-06 0.0 0.0
0.0 6.23362848792628e-07 -8.196377454568047e-09 3.6089949352570515e-09 4.587382519321487e-09 -1.3531606599445892e-07 0.0 0.0
0.0 -2.436396997976858e-07 4.67274256891026e-09 -2.865438165498191e-09 -1.8073044034137032e-09 4.9984624558949425e-08 0.0 0.0
0.0 2.5352763242583978e-06 -4.831974744202714e-09 1.2168905420848461e-08 -7.336930676644521e-09 -5.485514329585872e-07 0.0 0.0
0.0 -5.207911895120487e-05 -2.5393569642333777e-05 3.678234064284411e-05 -1.1388771000510321e-05 -3.2832120652801226e-05 0.0 0.0
0.0 0.0003982539540886356 0.00019306747328433186 -0.0002813658922410338 8.829841895670184e-05 0.0002516137560752188 0.0 0.0
0.0 9.213707268209074e-05 1.0270230542916646e-05 -1.6212342498540688e-05 5.9421119556241605e-06 -8.76931568875382e-06 0.0 0.0
0.0 -8.007401661192111e-06 -2.001688701551317e-06 2.879873931637357e-06 -8.781852300860366e-07 3.149987896301953e-06 0.0 0.0
0.0 5.149974561989484e-07 8.315305539707942e-10 5.81062297663047e-10 -1.4125928516329942e-09 1.0360537900382677e-07 0.0 0.0
0.0 2.436080776126386e-07 8.137071863921834e-09 -7.318061333627642e-09 -8.19010530296412e-10 4.870757729381507e-08 0.0 0.0
0.0 1.3594309053105892e-07 2.4029076266449467e-08 -1.9068505419017562e-08 -4.96057084742354e-09 3.3458739142496685e-09 0.0 0.0
0.0 1.8179358094750148e-06 -1.630635997521216e-07 1.1640561223394956e-07 4.665798751814643e-08 1.7460291634069594e-06 0.0 0.0
0.0 -6.044725805254892e-06 -3.6619612640877182e-06 2.9236062342900925e-06 7.383550297976489e-07 2.8748863425259485e-05 0.0 0.0
0.0 3.368147431342231e-05 -6.741421104976427e-08 2.598147432239222e-07 -1.924005321741745e-07 -2.3005151690165092e-05 0.0 0.0
0.0 0.00010118312318924558 7.417411908619272e-06 -6.5920592322914635e-06 -8.253526763277716e-07 -0.00013546987561643926 0.0 0.0
0.0 0.00023274160129024732 5.064435634973828e-05 -4.4201820896514724e-05 -6.442535453223625e-06 -0.00035338577925547954 0.0 0.0
0.0 0.0006870305096272956 0.0002308500383653583 -0.00020432217719190842 -2.6527861173450068e-05 -0.0007397768849359689 0.0 0.0
0.0 0.0010858125637991677 0.000556403881206034 -0.0004957687546535715 -6.063512655246189e-05 -0.001357100331818167 0.0 0.0
0.0 0.0018236991168758335 0.00106165879399409 -0.0009421402466044768 -0.00011951854738961243 -0.002060359780469068 0.0 0.0
0.0 0.002824995340264755 0.0017482554345165339 -0.0015593539300040845 -0.00018890150451245102 -0.002850205118860531 0.0 0.0
0.0 0.0040834213153897805 0.002665010793278068 -0.002400533790691125 -0.00026447700258694037 -0.003716727106270544 0.0 0.0
0.0 0.005687501326505576 0.0038471196241388426 -0.0035040821524185296 -0.0003430374717203133 -0.004648780375053642 0.0 0.0
0.0 0.0077836175981729275 0.005393667791964415 -0.004966293587807853 -0.00042737420415656205 -0.005662241798690078 0.0 0.0
0.0 0.010526632030718493 0.007446617016520298 -0.006943152559479147 -0.000503464457041149 -0.006569171492473357 0.0 0.0
0.0 0.013701927024606283 0.010070997803266294 -0.009507400861740976 -0.0005635969415253286 -0.006830830075628698 0.0 0.0
0.0 0.017384407739643885 0.013410974304399645 -0.012773812630223565 -0.0006371616741760693 -0.006027322164261866 0.0 0.0
0.0 0.02215701854962751 0.01627643029633238 -0.016248461039393994 -2.796925693839412e-05 4.272623921330876e-15 0.0 0.0
0.0 0.017384407739645693 0.013410974304398507 -0.012773812630222304 -0.0006371616741761958 0.006027322164275864 0.0 0.0
0.0 0.01370192702460418 0.01007099780326323 -0.00950740086173812 -0.0005635969415251099 0.006830830075641064 0.0 0.0
0.0 0.010526632030713398 0.007446617016516213 -0.0069431525594751175 -0.000503464457041103 0.006569171492478514 0.0 0.0
0.0 0.007783617598166398 0.005393667791960542 -0.004966293587804403 -0.0004273742041561399 0.0056622417986869405 0.0 0.0
0.0 0.005687501326500635 0.0038471196241354868 -0.00350408215241525 -0.00034303747172023506 0.00464878037504897 0.0 0.0
0.0 0.004083421315386895 0.0026650107932756233 -0.002400533790688898 -0.00026447700258672635 0.0037167271062683352 0.0 0.0
0.0 0.0028249953402613753 0.0017482554345145088 -0.0015593539300022287 -0.00018890150451228037 0.0028502051188587924 0.0 0.0
0.0 0.0018236991168729612 0.0010616587939925187 -0.0009421402466030981 -0.00011951854738941997 0.0020603597804655983 0.0 0.0
0.0 0.0010858125637958284 0.0005564038812043355 -0.0004957687546521611 -6.0635126552174174e-05 0.001357100331814128 0.0 0.0
0.0 0.0006870305096238441 0.00023085003836401135 -0.00020432217719068744 -2.6527861173323657e-05 0.0007397768849316318 0.0 0.0
0.0 0.00023274160128900243 5.0644356349356285e-05 -4.4201820896178194e-05 -6.4425354531781e-06 0.0003533857792544679 0.0 0.0
0.0 0.0001011831231887848 7.417411908616256e-06 -6.592059232285867e-06 -8.253526763303439e-07 0.00013546987561579007 0.0 0.0
0.0 3.3681474312380894e-05 -6.741421108237646e-08 2.598147432541163e-07 -1.9240053217175155e-07 2.300515168963898e-05 0.0 0.0
0.0 -6.044725805388684e-06 -3.6619612640243064e-06 2.9236062342377315e-06 7.383550297865834e-07 -2.874886342466786e-05 0.0 0.0
0.0 1.8179358089903669e-06 -1.6306359975338076e-07 1.1640561223588008e-07 4.665798751750193e-08 -1.746029163351957e-06 0.0 0.0
0.0 1.3594309011922446e-07 2.4029076266739186e-08 -1.906850541868594e-08 -4.960570848056445e-09 -3.3458738293035996e-09 0.0 0.0
0.0 2.436080774645492e-07 8.137071860818163e-09 -7.3180613307116555e-09 -8.190105301053078e-10 -4.870757726290399e-08 0.0 0.0
0.0 5.149974558099532e-07 8.315305537905433e-10 5.810622967492264e-10 -1.4125928505440177e-09 -1.036053789230171e-07 0.0 0.0
0.0 -8.00740166182846e-06 -2.001688701496915e-06 2.8798739315563644e-06 -8.781852300594448e-07 -3.149987896182519e-06 0.0 0.0
0.0 9.213707268060949e-05 1.0270230542631834e-05 -1.6212342498108328e-05 5.942111955476388e-06 8.769315688395833e-06 0.0 0.0
0.0 1.8566203975543931e-06 1.97332678845922e-06 -2.9375489278817896e-06 9.64222139422519e-07 -3.4121896022578287e-06 0.0 0.0
0.0 -1.5491006909612235e-06 -2.504454831835097e-07 3.7362160106823927e-07 -1.231761178847165e-07 1.8913077860465372e-07 0.0 0.0
0.0 3.6187657992177032e-06 1.0195274959671077e-08 7.11349756412122e-09 -1.7308772523796264e-08 7.81723116672718e-07 0.0 0.0
0.0 1.2405663355666563e-06 2.296314495505155e-08 -1.9338392250235115e-08 -3.624752704813151e-09 2.542797602654144e-07 0.0 0.0
0.0 7.821947515459587e-08 1.9553413154148733e-08 -1.741372149231297e-08 -2.139691661835925e-09 -6.284691891100786e-09 0.0 0.0
0.0 5.782142889699383e-07 1.3697186941992018e-08 -8.598140986379216e-09 -5.099045955609666e-09 1.534811802104697e-06 0.0 0.0
0.0 -2.2079230535171875e-06 3.7801720917056393e-08 -6.746837620150601e-08 2.9666655284438735e-08 2.8024152029139984e-05 0.0 0.0
0.0 2.2368726008702592e-05 -1.9160655241827826e-07 1.9628480443069197e-07 -4.678252012402069e-09 -3.705511135693639e-05 0.0 0.0
0.0 0.00011932083297218603 -8.339903301422603e-09 1.2244257155198875e-08 -3.904353853765473e-09 -0.00011980252352095814 0.0 0.0
0.0 0.00019015373217483658 1.1631173059347368e-07 -1.018037591372348e-07 -1.4507971456231256e-08 -0.00031013113167929177 0.0 0.0
0.0 0.0003820302353022068 -2.7536435149365123e-07 1.34074683093603e-07 1.412896684000175e-07 -0.0004946464637407738 0.0 0.0
0.0 0.0004910593474329167 3.629393892384254e-07 -3.0458725578386975e-07 -5.8352133454514754e-08 -0.0008673680787525573 0.0 0.0
0.0 0.0006904560177627551 1.4420319349816611e-06 -1.017841680384803e-06 -4.2419025459683266e-07 -0.0013080873405627127 0.0 0.0
0.0 0.0009423559020625599 1.118026091738279e-06 -1.754543935510969e-07 -9.425716981869721e-07 -0.0019222813624948086 0.0 0.0
0.0 0.00132178803255038 -1.163220191559202e-05 1.1830211647966907e-05 -1.9800973237506936e-07 -0.0027460809741669885 0.0 0.0
0.0 0.001912691628460268 2.2582586213012372e-05 -3.4535738629644705e-05 1.195315241663251e-05 -0.0038309022847859077 0.0 0.0
0.0 0.002819788182309461 0.00022971104206458989 -0.00027516072255650247 4.544968049191285e-05 -0.0050499747750588206 0.0 0.0
0.0 0.00404411787845985 0.0006947509930678298 -0.000798839427164217 0.0001040884340963863 -0.006261391868006096 0.0 0.0
0.0 0.005826691188888553 0.0015128889528658075 -0.0016769047664252177 0.00016401581355941094 -0.00725261069346827 0.0 0.0
0.0 0.008596768266524656 0.0035102492089513207 -0.0034192597686990337 -9.098944025228808e-05 -0.0072430131776279934 0.0 0.0
0.0 0.014863426296628054 0.006799077980117119 -0.0071529177665598746 0.00035383978644275824 5.587544316121296e-15 0.0 0.0
0.0 0.008596768266528106 0.003510249208950847 -0.003419259768698734 -9.098944025211304e-05 0.007243013177639865 0.0 0.0
0.0 0.005826691188886853 0.0015128889528645724 -0.0016769047664238908 0.00016401581355931775 0.0072526106934704595 0.0 0.0
0.0 0.0040441178784559745 0.0006947509930667786 -0.0007988394271627639 0.00010408843409598747 0.006261391868004719 0.0 0.0
0.0 0.002819788182304731 0.00022971104206443108 -0.0002751607225563388 4.544968049190759e-05 0.005049974775052987 0.0 0.0
0.0 0.0019126916284576015 2.2582586213430224e-05 -3.4535738630166884e-05 1.1953152416737406e-05 0.003830902284782018 0.0 0.0
0.0 0.0013217880325497556 -1.1632201916253736e-05 1.1830211648872338e-05 -1.9800973261883189e-07 0.002746080974166153 0.0 0.0
0.0 0.0009423559020615032 1.1180260920640953e-06 -1.7545439396478779e-07 -9.425716980992194e-07 0.0019222813624918465 0.0 0.0
0.0 0.0006904560177607626 1.4420319348579469e-06 -1.0178416803062153e-06 -4.241902545517654e-07 0.0013080873405587256 0.0 0.0
0.0 0.0004910593474311945 3.629393893986874e-07 -3.045872558674791e-07 -5.8352133531242175e-08 0.0008673680787489974 0.0 0.0
0.0 0.00038203023529978524 -2.7536435135932483e-07 1.3407468297412217e-07 1.4128966838523146e-07 0.0004946464637372105 0.0 0.0
0.0 0.00019015373217452937 1.1631173063898984e-07 -1.0180375919074272e-07 -1.4507971448225947e-08 0.00031013113167898516 0.0 0.0
0.0 0.00011932083297158517 -8.339903291083719e-09 1.2244257146886941e-08 -3.904353855808728e-09 0.0001198025235203202 0.0 0.0
0.0 2.236872600824409e-05 -1.916065524271126e-07 1.9628480444624138e-07 -4.6782520191146996e-09 3.7055111356838007e-05 0.0 0.0
0.0 -2.207923053939806e-06 3.7801720913702156e-08 -6.746837619941381e-08 2.966665528571993e-08 -2.8024152028793757e-05 0.0 0.0
0.0 5.782142883805905e-07 1.3697186937755066e-08 -8.598140982354614e-09 -5.099045955406777e-09 -1.5348118019910044e-06 0.0 0.0
0.0 7.821947466927294e-08 1.955341314824257e-08 -1.741372148698716e-08 -2.13969166125215e-09 6.284691988554587e-09 0.0 0.0
0.0 1.2405663350389034e-06 2.2963144945294832e-08 -1.9338392241929008e-08 -3.624752703366745e-09 -2.542797601527055e-07 0.0 0.0
0.0 3.618765798929172e-06 1.0195274960301875e-08 7.113497562151617e-09 -1.7308772522443827e-08 -7.817231166001966e-07 0.0 0.0
0.0 -1.5491006908701026e-06 -2.5044548323805146e-07 3.736216011455776e-07 -1.2317611790754354e-07 -1.891307786936586e-07 0.0 0.0
0.0 1.8566203965534217e-06 1.9733267888385457e-06 -2.9375489284467953e-06 9.642221396083539e-07 3.4121896029653638e-06 0.0 0.0
0.0 -1.1154274967154842e-06 6.94027292706571e-08 -1.0140536005932449e-07 3.200263078866925e-08 -1.5472886577778064e-07 0.0 0.0
0.0 1.7918000042185022e-07 -8.709275583130871e-09 1.2408309398132015e-08 -3.6990338150030894e-09 3.0163412121232195e-08 0.0 0.0
0.0 -8.826497244967562e-07 -1.2994467622963783e-08 9.317246254383222e-09 3.677221368580728e-09 -1.9103679018332728e-07 0.0 0.0
0.0 1.490317100255079e-06 4.241911744592017e-08 -3.470315010590186e-08 -7.71596734001991e-09 3.1235457426870176e-07 0.0 0.0
0.0 -1.044162569446133e-06 7.827834198773969e-09 -1.200240923174912e-08 4.174575032977234e-09 -2.8940255904420427e-08 0.0 0.0
0.0 -1.1496807778808222e-06 -6.044330132589942e-07 4.892468140598836e-07 1.1518619919914327e-07 -3.026812682507857e-06 0.0 0.0
0.0 3.1216688648116514e-06 6.167981322844805e-06 -4.9199194979440165e-06 -1.2480618249008722e-06 4.32941299401714e-05 0.0 0.0
0.0 3.855147023444827e-05 -4.4421860198846955e-07 2.3180275210049773e-07 2.1241584988799892e-07 -2.4065562068133675e-05 0.0 0.0
0.0 0.0001014534519765264 -7.605607489595365e-06 6.766141736790749e-06 8.394657528044611e-07 -0.00013620992077195283 0.0 0.0
0.0 0.0002315138406638199 -5.020717782569312e-05 4.380614629017643e-05 6.401031535516621e-06 -0.0003527263200439085 0.0 0.0
0.0 0.0006957625705955681 -0.0002286721717650622 0.000202712489097509 2.59596826675537e-05 -0.0007381432417208039 0.0 0.0
0.0 0.0010943327115035379 -0.0005574437901032655 0.0004965514956692392 6.0892294434026164e-05 -0.0013550704350340835 0.0 0.0
0.0 0.0018345034231195044 -0.001069143936048285 0.000948374405289008 0.00012076953075927665 -0.002061262699403134 0.0 0.0
0.0 0.0028505657274909627 -0.0017677142543089915 0.0015771632036718328 0.00019055105063715838 -0.002846409851496837 0.0 0.0
0.0 0.00408206452649444 -0.002670994950307448 0.002410669956445727 0.00026032499386171963 -0.0037213603617192287 0.0 0.0
0.0 0.005524570577123368 -0.0036947213910036953 0.0033864637256744872 0.000308257665329208 -0.004733968322664767 0.0 0.0
0.0 0.006976656959676428 -0.0046610356488948025 0.004342729878384745 0.0003183057705100578 -0.005975906648261449 0.0 0.0
0.0 0.00827367679642123 -0.005203701440243541 0.004936250987923544 0.0002674504523199945 -0.007480176143577049 0.0 0.0
0.0 0.008534427209322239 -0.00483800324723926 0.004681205699988424 0.00015679754725083847 -0.009243541535084393 0.0 0.0
0.0 0.007326951562560658 -0.00353197315194587 0.0034670360267110263 6.493712523484164e-05 -0.010717131434730109 0.0 0.0
0.0 0.014033642920207146 -0.0019741305666928955 0.0007267237071323362 0.0012474068595605585 9.459447114501529e-15 0.0 0.0
0.0 0.007326951562564342 -0.0035319731519458898 0.0034670360267111183 6.49371252347703e-05 0.010717131434736953 0.0 0.0
0.0 0.008534427209321415 -0.004838003247238348 0.004681205699987541 0.0001567975472508141 0.009243541535089588 0.0 0.0
0.0 0.008273676796418073 -0.005203701440241359 0.004936250987921622 0.00026745045231973583 0.007480176143578614 0.0 0.0
0.0 0.0069766569596683824 -0.004661035648889086 0.004342729878379127 0.00031830577050995994 0.00597590664825593 0.0 0.0
0.0 0.00552457057711674 -0.003694721390998399 0.0033864637256696578 0.00030825766532873995 0.004733968322660834 0.0 0.0
0.0 0.004082064526491087 -0.0026709949503041213 0.002410669956442589 0.0002603249938615332 0.0037213603617160217 0.0 0.0
0.0 0.0028505657274860876 -0.0017677142543053212 0.0015771632036686383 0.00019055105063668263 0.002846409851493511 0.0 0.0
0.0 0.0018345034231126052 -0.0010691439360435628 0.0009483744052848177 0.0001207695307587445 0.002061262699397204 0.0 0.0
0.0 0.0010943327114974208 -0.0005574437900997609 0.0004965514956660226 6.089229443373834e-05 0.0013550704350279335 0.0 0.0
0.0 0.0006957625705900906 -0.00022867217176297558 0.00020271248909562342 2.5959682667352054e-05 0.0007381432417160939 0.0 0.0
0.0 0.00023151384066226978 -5.020717782503002e-05 4.380614628958746e-05 6.401031535442462e-06 0.0003527263200424458 0.0 0.0
0.0 0.00010145345197604334 -7.605607489693443e-06 6.766141736872963e-06 8.394657528204476e-07 0.00013620992077159844 0.0 0.0
0.0 3.85514702335169e-05 -4.4421860195071735e-07 2.3180275207356045e-07 2.124158498771711e-07 2.4065562067573122e-05 0.0 0.0
0.0 3.1216688643941573e-06 6.167981322804977e-06 -4.919919497914398e-06 -1.2480618248905645e-06 -4.329412993980572e-05 0.0 0.0
0.0 -1.1496807780794728e-06 -6.044330133703557e-07 4.8924681415697e-07 1.1518619921338795e-07 3.026812683310172e-06 0.0 0.0
0.0 -1.0441625700718157e-06 7.827834211450396e-09 -1.2002409243018549e-08 4.174575031564229e-09 2.8940255830675012e-08 0.0 0.0
0.0 1.4903170996868914e-06 4.241911743258753e-08 -3.470315009501489e-08 -7.715967337572316e-09 -3.123545741501756e-07 0.0 0.0
0.0 -8.826497247984758e-07 -1.2994467621539304e-08 9.317246251181477e-09 3.677221370354842e-09 1.9103679023936508e-07 0.0 0.0
0.0 1.791800006106036e-07 -8.709275580154348e-09 1.2408309395914994e-08 -3.699033815758634e-09 -3.0163412160347144e-08 0.0 0.0
0.0 -1.1154274964526031e-06 6.940272925345171e-08 -1.0140536003419192e-07 3.2002630780733594e-08 1.5472886573936063e-07 0.0 0.0
0.0 0.0 0.0 0.0 0.0 0.0 0.0 0.0
0.0 -6.422239837672116e-08 -7.673636738658928e-10 3.860605389357296e-10 3.81303134929867e-10 -1.284131782217668e-08 0.0 0.0
0.0 -3.7874344330713723e-07 -1.8012271592059652e-08 1.5873291862660503e-08 2.138979729398885e-09 -8.014407512813873e-08 0.0 0.0
0.0 -9.073015980962664e-07 -5.68571413310864e-08 4.755545022616241e-08 9.301691104915119e-09 -2.3445117856962518e-07 0.0 0.0
0.0 7.181341784351561e-06 1.5760583350965413e-07 -1.3836733909287425e-07 -1.923849441673101e-08 1.1287533103349057e-06 0.0 0.0
0.0 1.0070777051580484e-05 3.289550300251892e-06 -2.6578846522824412e-06 -6.316656479694372e-07 1.47561923745142e-05 0.0 0.0
0.0 -4.754546858957441e-06 2.617535475109021e-06 -2.101875175934476e-06 -5.156602991744587e-07 1.8642775766382953e-06 0.0 0.0
0.0 6.710703417108491e-05 9.64143130445594e-06 -7.053947314204352e-06 -2.5874839902517843e-06 -3.175100113537241e-06 0.0 0.0
0.0 0.0003043148894682091 -0.00017283589762385966 0.00013863361279155934 3.420228483230056e-05 -0.00032744231401193234 0.0 0.0
0.0 0.0010303793776305858 -0.0006593452768527656 0.0005383292173042406 0.00012101605954852451 -0.0008629219649799117 0.0 0.0
0.0 0.0018999024522948574 -0.0014451368049247565 0.001205784760780868 0.00023935204414388708 -0.0016552378982383556 0.0 0.0
0.0 0.0031694306824622187 -0.0024392430143844904 0.002086423931011443 0.0003528190833730486 -0.002496521634523335 0.0 0.0
0.0 0.004657668708752847 -0.003654494542438461 0.0031917101875369985 0.00046278435490145983 -0.003370687888174668 0.0 0.0
0.0 0.0064875023996414285 -0.0051685146120063925 0.004610607051942769 0.0005579075600636223 -0.004282149064378714 0.0 0.0
0.0 0.008811426841516515 -0.007049454119162107 0.006417522209822092 0.0006319319093400159 -0.005299891104834278 0.0 0.0
0.0 0.011605148266296154 -0.00927226976610864 0.008594344453645668 0.0006779253124629758 -0.006566316356551032 0.0 0.0
0.0 0.014583474451125258 -0.011620850044786581 0.010925651939997769 0.0006951981047887986 -0.00825667529447588 0.0 0.0
0.0 0.017060338312105666 -0.013637284792810265 0.012947172848163374 0.0006901119446468878 -0.010449054787424566 0.0 0.0
0.0 0.01856435741424677 -0.014447968398283093 0.01379403391441882 0.0006539344838642689 -0.012711670550174442 0.0 0.0
0.0 0.017237750276618082 -0.012551144450809442 0.011934649726828818 0.0006164947239806227 -0.01321991462443989 0.0 0.0
0.0 0.01754459837897757 -0.009827224755066354 0.007833360590980172 0.0019938641640861766 7.16917844534315e-15 0.0 0.0
0.0 0.017237750276623106 -0.012551144450810242 0.01193464972682986 0.0006164947239803892 0.013219914624454458 0.0 0.0
0.0 0.01856435741424708 -0.014447968398281249 0.01379403391441725 0.0006539344838639928 0.012711670550187784 0.0 0.0
0.0 0.01706033831210011 -0.013637284792805323 0.012947172848158765 0.0006901119446465619 0.010449054787429291 0.0 0.0
0.0 0.014583474451112386 -0.011620850044776268 0.010925651939987638 0.0006951981047886248 0.008256675294471313 0.0 0.0
0.0 0.011605148266286076 -0.009272269766100153 0.008594344453637357 0.0006779253124627936 0.00656631635654664 0.0 0.0
0.0 0.008811426841507649 -0.007049454119154806 0.006417522209815474 0.0006319319093393306 0.005299891104829274 0.0 0.0
0.0 0.006487502399633489 -0.005168514611999145 0.004610607051935868 0.000557907560063271 0.004282149064374652 0.0 0.0
0.0 0.004657668708742622 -0.003654494542430153 0.0031917101875293856 0.0004627843549007678 0.003370687888168825 0.0 0.0
0.0 0.0031694306824515905 -0.002439243014376249 0.0020864239310040686 0.00035281908337217904 0.0024965216345158065 0.0 0.0
0.0 0.001899902452286031 -0.0014451368049178135 0.0012057847607747163 0.00023935204414309686 0.0016552378982307929 0.0 0.0
0.0 0.001030379377623922 -0.0006593452768482771 0.0005383292173005026 0.00012101605954777419 0.0008629219649752889 0.0 0.0
0.0 0.0003043148894650401 -0.000172835897621924 0.000138633612790025 3.42022848318989e-05 0.00032744231400972735 0.0 0.0
0.0 6.710703416966602e-05 9.641431304818523e-06 -7.0539473144998e-06 -2.587483990318759e-06 3.175100112056885e-06 0.0 0.0
0.0 -4.754546860121127e-06 2.6175354747746977e-06 -2.101875175665514e-06 -5.156602991092006e-07 -1.86427757558342e-06 0.0 0.0
0.0 1.0070777051071347e-05 3.2895503003032106e-06 -2.657884652325833e-06 -6.316656479774556e-07 -1.4756192374727499e-05 0.0 0.0
0.0 7.181341783866511e-06 1.5760583347115675e-07 -1.383673390605964e-07 -1.92384944105623e-08 -1.128753310131624e-06 0.0 0.0
0.0 -9.073015986570772e-07 -5.6857141346010775e-08 4.755545023829637e-08 9.301691107725905e-09 2.3445117868003778e-07 0.0 0.0
0.0 -3.7874344334963774e-07 -1.8012271588564516e-08 1.5873291858862447e-08 2.138979729702004e-09 8.014407513526805e-08 0.0 0.0
0.0 -6.422239831149007e-08 -7.673636730775991e-10 3.8606053854000237e-10 3.8130313453729685e-10 1.284131780894419e-08 0.0 0.0
0.0 0.0 0.0 0.0 0.0 0.0 0.0 0.0
0.0 0.0 0.0 0.0 0.0 0.0 0.0 0.0
0.0 0.0 0.0 0.0 0.0 0.0 0.0 0.0
0.0 -6.673786689358188e-07 -2.6521950268112564e-08 2.1499513791296284e-08 5.022436476819881e-09 -1.3134363579990852e-07 0.0 0.0
0.0 1.8682322036662964e-06 7.292438497842065e-08 -5.975073658410082e-08 -1.3173648394326133e-08 3.735910496881116e-07 0.0 0.0
0.0 6.375838370154127e-07 5.613401199605323e-07 -4.512591694911154e-07 -1.1008095046946014e-07 2.0056310390849662e-06 0.0 0.0
0.0 -1.2856304924543703e-05 -7.129866357783946e-07 5.341544954438985e-07 1.7883214033455499e-07 -2.5609680130281004e-06 0.0 0.0
0.0 2.0863901869054033e-05 2.4439798372006303e-05 -1.937977022774678e-05 -5.060028144259717e-06 5.212035862887334e-05 0.0 0.0
0.0 0.00021958023367208012 -0.00017161548228860338 0.00013276124475457938 3.8854237534024084e-05 -0.0002087034961371114 0.0 0.0
0.0 0.0009610630982401342 -0.0007431210895445144 0.0005906025103644363 0.00015251857918007747 -0.000703366985681767 0.0 0.0
0.0 0.002404863856691955 -0.0017243106185846077 0.0014255244579240887 0.00029878616066051895 -0.0014841523299760338 0.0 0.0
0.0 0.0037522092571887385 -0.003052700934701867 0.002610469452982227 0.0004422314817196395 -0.0024709638536257327 0.0 0.0
0.0 0.005558727811202278 -0.004628738393079186 0.0040655268129410095 0.0005632115801381741 -0.003425863538454784 0.0 0.0
0.0 0.007811934543098576 -0.006509232407892831 0.005842078501412691 0.0006671539064801383 -0.004374974608684494 0.0 0.0
0.0 0.010552536770106301 -0.008838635411437932 0.00808458526122574 0.0007540501502121902 -0.0053856101823825785 0.0 0.0
0.0 0.014056764087115564 -0.011732314162918277 0.010911682831849219 0.0008206313310690515 -0.006569948990694269 0.0 0.0
0.0 0.018131960644916883 -0.015194499948418733 0.014332799185445609 0.0008617007629731174 -0.008105961206617501 0.0 0.0
0.0 0.022868922432002337 -0.018968783787623594 0.018094830350623686 0.000873953436999917 -0.010306790459851684 0.0 0.0
0.0 0.02709983519947561 -0.022395886717111145 0.02154526266165519 0.0008506240554559514 -0.013317880619945663 0.0 0.0
0.0 0.029571809540800537 -0.024157930274772473 0.023362063524135668 0.0007958667506368026 -0.01636427352083114 0.0 0.0
0.0 0.027644596811265135 -0.022115102809700138 0.021407363106440896 0.0007077397032592411 -0.017343043321731852 0.0 0.0
0.0 0.025153456995626843 -0.017879908723291822 0.01519096054815236 0.0026889481751394525 7.278032343460694e-15 0.0 0.0
0.0 0.027644596811269545 -0.02211510280970036 0.021407363106441046 0.0007077397032593081 0.017343043321750927 0.0 0.0
0.0 0.029571809540799177 -0.02415793027476855 0.02336206352413208 0.0007958667506364414 0.016364273520849234 0.0 0.0
0.0 0.02709983519946743 -0.022395886717103214 0.021545262661647704 0.0008506240554554897 0.013317880619953726 0.0 0.0
0.0 0.0228689224319877 -0.01896878378761124 0.018094830350611643 0.0008739534369996008 0.010306790459849788 0.0 0.0
0.0 0.018131960644902363 -0.015194499948406324 0.014332799185433356 0.0008617007629729658 0.008105961206612486 0.0 0.0
0.0 0.014056764087103614 -0.011732314162908179 0.010911682831839882 0.0008206313310682845 0.00656994899068909 0.0 0.0
0.0 0.010552536770092746 -0.008838635411426382 0.008084585261214437 0.0007540501502119494 0.005385610182377518 0.0 0.0
0.0 0.007811934543083963 -0.006509232407880698 0.0058420785014009265 0.0006671539064797735 0.004374974608677846 0.0 0.0
0.0 0.005558727811189111 -0.004628738393068423 0.004065526812931105 0.0005632115801373146 0.003425863538447173 0.0 0.0
0.0 0.0037522092571742054 -0.003052700934690256 0.0026104694529711986 0.00044223148171905653 0.002470963853615806 0.0 0.0
0.0 0.0024048638566817283 -0.0017243106185765504 0.0014255244579170982 0.0002987861606594525 0.001484152329969369 0.0 0.0
0.0 0.0009610630982337479 -0.0007431210895399133 0.0005906025103607165 0.0001525185791791962 0.0007033669856781185 0.0 0.0
0.0 0.00021958023366880298 -0.00017161548228638616 0.00013276124475284913 3.885423753353695e-05 0.0002087034961347925 0.0 0.0
0.0 2.0863901868414964e-05 2.4439798371765705e-05 -1.9379770227561444e-05 -5.060028144204125e-06 -5.212035862842889e-05 0.0 0.0
0.0 -1.2856304925401413e-05 -7.129866361477594e-07 5.341544957412533e-07 1.7883214040652023e-07 2.560968014080013e-06 0.0 0.0
0.0 6.375838364887955e-07 5.613401200119581e-07 -4.512591695322223e-07 -1.1008095047972433e-07 -2.0056310392045076e-06 0.0 0.0
0.0 1.8682322031391885e-06 7.292438495947189e-08 -5.975073656882235e-08 -1.3173648390657147e-08 -3.73591049577993e-07 0.0 0.0
0.0 -6.673786687448563e-07 -2.6521950260483167e-08 2.1499513785132376e-08 5.022436475351499e-09 1.3134363576041204e-07 0.0 0.0
0.0 0.0 0.0 0.0 0.0 0.0 0.0 0.0
0.0 0.0 0.0 0.0 0.0 0.0 0.0 0.0
0.0 0.0 0.0 0.0 0.0 0.0 0.0 0.0
0.0 0.0 0.0 0.0 0.0 0.0 0.0 0.0
0.0 -2.95889627028445e-07 -1.3592507698731995e-08 1.083743040721265e-08 2.7550772915178707e-09 -5.501979115714737e-08 0.0 0.0
0.0 -2.112291098398292e-06 -1.6324554829102846e-07 1.3285156833206997e-07 3.0393979958964755e-08 -4.379793777943576e-07 0.0 0.0
0.0 9.348538555044396e-06 5.436269627979444e-07 -4.3380375662981595e-07 -1.0982320616812411e-07 1.5320950408266139e-06 0.0 0.0
0.0 1.2556184479622265e-05 1.978470682410702e-05 -1.5701999037254048e-05 -4.0827077868530485e-06 3.496847056050789e-05 0.0 0.0
0.0 9.979544069140358e-05 -6.193973378753465e-05 4.691332216538382e-05 1.5026411622151028e-05 -5.740515127407275e-05 0.0 0.0
0.0 0.0006628925684638754 -0.0005455178456090571 0.000423318091241675 0.00012219975436738155 -0.0003968599175222727 0.0 0.0
0.0 0.0021368549798993323 -0.001529266657998731 0.0012443027402632585 0.00028496391773547263 -0.001045815395901693 0.0 0.0
0.0 0.003435024746307714 -0.003026054801358549 0.0025678456019157287 0.00045820919944282115 -0.002021038345520744 0.0 0.0
0.0 0.005634641753277898 -0.004810894239899785 0.0042178745792625025 0.0005930196606372831 -0.002986329863441374 0.0 0.0
0.0 0.008115666435165985 -0.006933551442513837 0.006227680134283754 0.0007058713082300814 -0.003943833115838133 0.0 0.0
0.0 0.01109603240455519 -0.009489392338507367 0.008685031441825888 0.0008043608966814802 -0.004917070086648955 0.0 0.0
0.0 0.014802909068224812 -0.012649571224848891 0.011760414522422019 0.0008891567024268699 -0.005991868136451581 0.0 0.0
0.0 0.019357549353826067 -0.016574027360728213 0.015616444533152767 0.0009575828275754429 -0.007263232522163258 0.0 0.0
0.0 0.025140527512584353 -0.021290101056224604 0.02028829831042855 0.0010018027457960512 -0.008949145509143745 0.0 0.0
0.0 0.03098582942702863 -0.026513944686132204 0.025502775590035196 0.0010111690960969604 -0.011427672838970936 0.0 0.0
0.0 0.03704273392410226 -0.031318380746127604 0.030350279955612822 0.0009681007905148133 -0.014908531306843945 0.0 0.0
0.0 0.040678830136039984 -0.03391027440613068 0.0330375927263487 0.0008726816797819665 -0.018696947428031744 0.0 0.0
0.0 0.03823873644985736 -0.03140713780875306 0.0306846552602465 0.0007224825485065579 -0.020480147918213763 0.0 0.0
0.0 0.03335264299441341 -0.02579990656424816 0.022517260817072445 0.003282645747175688 9.38311928155855e-15 0.0 0.0
0.0 0.038238736449859416 -0.03140713780875118 0.030684655260245032 0.0007224825485061519 0.020480147918234885 0.0 0.0
0.0 0.040678830136033704 -0.033910274406122695 0.03303759272634083 0.0008726816797818749 0.01869694742805251 0.0 0.0
0.0 0.03704273392409002 -0.03131838074611606 0.03035027995560169 0.0009681007905143448 0.014908531306854154 0.0 0.0
0.0 0.030985829427011533 -0.026513944686117282 0.025502775590020475 0.001011169096096813 0.011427672838971076 0.0 0.0
0.0 0.025140527512567318 -0.021290101056209827 0.020288298310414163 0.0010018027457956546 0.008949145509139866 0.0 0.0
0.0 0.019357549353809986 -0.01657402736071411 0.01561644453313945 0.0009575828275746636 0.007263232522157651 0.0 0.0
0.0 0.014802909068206895 -0.012649571224833341 0.011760414522406913 0.0008891567024264125 0.005991868136445417 0.0 0.0
0.0 0.011096032404536134 -0.009489392338491139 0.008685031441809984 0.0008043608966811489 0.004917070086642317 0.0 0.0
0.0 0.00811566643514967 -0.0069335514424996095 0.006227680134270413 0.0007058713082291967 0.003943833115830039 0.0 0.0
0.0 0.005634641753260567 -0.004810894239884889 0.004217874579248192 0.0005930196606366993 0.002986329863431103 0.0 0.0
0.0 0.0034350247462958555 -0.0030260548013480468 0.0025678456019062224 0.0004582091994418225 0.0020210383455134978 0.0 0.0
0.0 0.002136854979889191 -0.0015292666579911362 0.0012443027402568617 0.00028496391773427475 0.0010458153958967447 0.0 0.0
0.0 0.0006628925684584553 -0.0005455178456051122 0.0004233180912385665 0.00012219975436654563 0.0003968599175195779 0.0 0.0
0.0 9.979544068942594e-05 -6.193973378680892e-05 4.691332216485381e-05 1.5026411621955e-05 5.740515127372664e-05 0.0 0.0
0.0 1.2556184478688822e-05 1.97847068239782e-05 -1.5701999037154714e-05 -4.082707786823535e-06 -3.496847056032218e-05 0.0 0.0
0.0 9.348538553727478e-06 5.436269626810424e-07 -4.3380375653745305e-07 -1.0982320614356933e-07 -1.532095040558042e-06 0.0 0.0
0.0 -2.1122910987118115e-06 -1.6324554830016535e-07 1.3285156833938794e-07 3.039397996078572e-08 4.3797937784828425e-07 0.0 0.0
0.0 -2.9588962689353585e-07 -1.3592507692400482e-08 1.0837430402124616e-08 2.755077290274585e-09 5.50197911312241e-08 0.0 0.0
0.0 0.0 0.0 0.0 0.0 0.0 0.0 0.0
0.0 0.0 0.0 0.0 0.0 0.0 0.0 0.0
0.0 0.0 0.0 0.0 0.0 0.0 0.0 0.0
0.0 0.0 0.0 0.0 0.0 0.0 0.0 0.0
0.0 -1.336041538324973e-07 -7.0791082984345225e-09 5.607259907490537e-09 1.4718483909442396e-09 -2.3963176664436898e-08 0.0 0.0
0.0 -1.150862233485828e-06 -9.876059602605095e-08 7.855272765354809e-08 2.0207868372501855e-08 -2.0268686367933702e-07 0.0 0.0
0.0 -6.524666726088917e-06 -1.8438285016387623e-06 1.4528634905272128e-06 3.909650111115482e-07 -2.6454857451832655e-06 0.0 0.0
0.0 3.9207020984554866e-05 2.0739547322157816e-05 -1.700544313465351e-05 -3.734104187504097e-06 3.5623043465357826e-05 0.0 0.0
0.0 0.0003264268734976326 -0.00025732009574463944 0.0001947961336206456 6.252396212399381e-05 -0.00013347972293990934 0.0 0.0
0.0 0.0015046364297035244 -0.001059065746950358 0.0008391113657985088 0.00021995438115184963 -0.000545075671830354 0.0 0.0
0.0 0.0027608988553038064 -0.002524816683205588 0.002106280877543078 0.00041853580566251044 -0.0013561306140307773 0.0 0.0
0.0 0.00501619256281464 -0.004381421682002044 0.0038046556225801048 0.0005767660594219425 -0.00225238024201047 0.0 0.0
0.0 0.007601531862583811 -0.006629700759792414 0.005924250259288619 0.000705450500503791 -0.003159183415345072 0.0 0.0
0.0 0.010710945431439762 -0.009310446499319648 0.008496957867893876 0.0008134886314257696 -0.004071996181792066 0.0 0.0
0.0 0.014497591514923091 -0.012555099859521694 0.011644182030653857 0.0009109178288678288 -0.0050225559963307355 0.0 0.0
0.0 0.019257700089835558 -0.016559651955327097 0.01556220838799387 0.0009974435673332275 -0.006102484794804742 0.0 0.0
0.0 0.02498262039594866 -0.021518117217362315 0.0204462600856182 0.0010718571317441025 -0.007402481107791057 0.0 0.0
0.0 0.031791558942069434 -0.027482007804692486 0.02635748948594169 0.0011245183187507976 -0.009065758023964674 0.0 0.0
0.0 0.03983701314581378 -0.03410277672898143 0.032972167980290484 0.0011306087486909497 -0.011465863882264586 0.0 0.0
0.0 0.04709716071189578 -0.04025476815903227 0.039189345801448 0.001065422357584255 -0.015030445058818792 0.0 0.0
0.0 0.05122317190994488 -0.04361206723608765 0.04268872937830222 0.0009233378577854694 -0.01940030838524341 0.0 0.0
0.0 0.04851488658625774 -0.04058620782915257 0.03987154742446003 0.0007146604046925545 -0.022638438748398222 0.0 0.0
0.0 0.04226278045675165 -0.03369504961564194 0.029866011259522585 0.0038290383561193405 9.412609580650155e-15 0.0 0.0
0.0 0.04851488658625887 -0.040586207829150026 0.03987154742445797 0.0007146604046920498 0.022638438748421027 0.0 0.0
0.0 0.0512231719099357 -0.04361206723607752 0.042688729378291865 0.0009233378577856405 0.0194003083852651 0.0 0.0
0.0 0.04709716071188068 -0.040254768159018205 0.03918934580143434 0.0010654223575838596 0.015030445058830895 0.0 0.0
0.0 0.03983701314579324 -0.03410277672896349 0.03297216798027285 0.0011306087486906036 0.011465863882265802 0.0 0.0
0.0 0.03179155894204893 -0.027482007804674597 0.026357489485924236 0.0011245183187503882 0.00906575802396189 0.0 0.0
0.0 0.024982620395926802 -0.021518117217343466 0.02044626008559978 0.0010718571317436842 0.007402481107786119 0.0 0.0
0.0 0.01925770008981565 -0.016559651955309146 0.015562208387976922 0.0009974435673322148 0.006102484794799142 0.0 0.0
0.0 0.014497591514901547 -0.012555099859502853 0.011644182030635289 0.0009109178288675646 0.005022555996325075 0.0 0.0
0.0 0.010710945431418996 -0.0093104464993015 0.008496957867876619 0.0008134886314248693 0.004071996181784413 0.0 0.0
0.0 0.0076015318625648936 -0.006629700759776083 0.0059242502592729545 0.0007054505005031244 0.003159183415335614 0.0 0.0
0.0 0.0050161925627993835 -0.0043814216819887866 0.0038046556225677128 0.0005767660594210737 0.0022523802420031545 0.0 0.0
0.0 0.002760898855293343 -0.002524816683195218 0.0021062808775339607 0.00041853580566125656 0.0013561306140251733 0.0 0.0
0.0 0.0015046364296956599 -0.001059065746944472 0.0008391113657936868 0.0002199543811507843 0.0005450756718272858 0.0 0.0
0.0 0.0003264268734938675 -0.00025732009574201665 0.00019479613361861493 6.252396212340227e-05 0.00013347972293841395 0.0 0.0
0.0 3.9207020983437385e-05 2.0739547321992784e-05 -1.7005443134514137e-05 -3.73410418747886e-06 -3.5623043464966504e-05 0.0 0.0
0.0 -6.524666727039987e-06 -1.8438285017130817e-06 1.452863490585271e-06 3.909650111277833e-07 2.645485745313696e-06 0.0 0.0
0.0 -1.1508622335227065e-06 -9.876059602363591e-08 7.855272765149146e-08 2.02078683721454e-08 2.02686863685958e-07 0.0 0.0
0.0 -1.3360415377959937e-07 -7.079108295548217e-09 5.6072599052097004e-09 1.4718483903391005e-09 2.396317665472527e-08 0.0 0.0
0.0 0.0 0.0 0.0 0.0 0.0 0.0 0.0
0.0 0.0 0.0 0.0 0.0 0.0 0.0 0.0
0.0 0.0 0.0 0.0 0.0 0.0 0.0 0.0
0.0 0.0 0.0 0.0 0.0 0.0 0.0 0.0
0.0 0.0 0.0 0.0 0.0 0.0 0.0 0.0
0.0 -1.6427912562006257e-06 -1.4576765561260727e-07 1.1635194098500306e-07 2.9415714627583024e-08 -2.453416837903687e-07 0.0 0.0
0.0 9.920496525721224e-06 7.101912572738341e-06 -5.644938205032145e-06 -1.4569743677061458e-06 8.66652729704507e-06 0.0 0.0
0.0 5.583759788037437e-05 -6.676735537116248e-05 4.913069065102067e-05 1.7636664720141464e-05 -2.5100298607663248e-05 0.0 0.0
0.0 0.0008322840718926322 -0.0005368873080052849 0.0004121858270824234 0.00012470148092286155 -0.00017741751501287796 0.0 0.0
0.0 0.00196544736505876 -0.0017685561671518493 0.0014358514207820495 0.0003327047463697996 -0.0006983260410570442 0.0 0.0
0.0 0.003967765371557838 -0.0035432824068379752 0.0030227388004722324 0.000520543606365745 -0.001425367715333033 0.0 0.0
0.0 0.00651954721755472 -0.005784314420732538 0.0051120883846414705 0.0006722260360910661 -0.0022088647974477277 0.0 0.0
0.0 0.009645380036112827 -0.00848896287266633 0.007694852180515679 0.000794110692150642 -0.003022125845513147 0.0 0.0
0.0 0.013432418621461818 -0.01173553311869663 0.010834139972867422 0.000901393145829203 -0.003840333220066605 0.0 0.0
0.0 0.018117055892490096 -0.015684522275442644 0.014683511120682714 0.0010010111547599345 -0.004712011945800051 0.0 0.0
0.0 0.023557772791924995 -0.020559791861536836 0.019467189548876003 0.001092602312660833 -0.00573645099512484 0.0 0.0
0.0 0.030595453390833485 -0.026539711779106127 0.02536761974582968 0.001172092033276449 -0.00698522276348749 0.0 0.0
0.0 0.038963250979078615 -0.033683244664000606 0.03245113020796513 0.0012321144560354601 -0.00849471287321339 0.0 0.0
0.0 0.048046670524609224 -0.041635448401532 0.04039188986419057 0.0012435585373414021 -0.010497499928326628 0.0 0.0
0.0 0.05678650921794577 -0.049077321504753274 0.04791841638017079 0.0011589051245825244 -0.013653238569126844 0.0 0.0
0.0 0.06197895096810559 -0.05323185836681839 0.05226636534532669 0.0009654930214916828 -0.01842098446469918 0.0 0.0
0.0 0.05878883698125322 -0.049838328811202814 0.04915237367051657 0.0006859551406862179 -0.023973958588669887 0.0 0.0
0.0 0.051156738324198 -0.04179464034896795 0.03745396420980025 0.004340676139167673 9.863637684404125e-15 0.0 0.0
0.0 0.05878883698125221 -0.04983832881119893 0.049152373670513075 0.0006859551406858445 0.023973958588692584 0.0 0.0
0.0 0.06197895096809431 -0.0532318583668068 0.05226636534531508 0.0009654930214917114 0.018420984464720597 0.0 0.0
0.0 0.05678650921792875 -0.04907732150473779 0.04791841638015577 0.001158905124581971 0.01365323856913936 0.0 0.0
0.0 0.04804667052458774 -0.04163544840151297 0.04039188986417216 0.0012435585373408264 0.010497499928329334 0.0 0.0
0.0 0.03896325097905484 -0.03368324466397961 0.03245113020794486 0.00123211445603471 0.008494712873211978 0.0 0.0
0.0 0.030595453390809282 -0.026539711779085037 0.025367619745809068 0.0011720920332759536 0.006985222763484077 0.0 0.0
0.0 0.023557772791900265 -0.020559791861515124 0.019467189548855054 0.001092602312660076 0.005736450995120159 0.0 0.0
0.0 0.018117055892464647 -0.01568452227542012 0.014683511120660521 0.0010010111547595984 0.004712011945794405 0.0 0.0
0.0 0.013432418621436801 -0.011735533118674552 0.010834139972846064 0.0009013931458284915 0.0038403332200594442 0.0 0.0
0.0 0.009645380036090872 -0.008488962872647004 0.007694852180497043 0.000794110692149959 0.003022125845504406 0.0 0.0
0.0 0.006519547217536286 -0.005784314420715983 0.005112088384625842 0.0006722260360901405 0.0022088647974405793 0.0 0.0
0.0 0.0039677653715444496 -0.003543282406825475 0.0030227388004608327 0.0005205436063646426 0.00142536771532784 0.0 0.0
0.0 0.001965447365049946 -0.0017685561671438679 0.0014358514207752087 0.0003327047463686586 0.0006983260410535907 0.0 0.0
0.0 0.0008322840718860693 -0.0005368873080006065 0.0004121858270787436 0.00012470148092186194 0.00017741751501079044 0.0 0.0
0.0 5.5837597878606555e-05 -6.676735537047006e-05 4.913069065052095e-05 1.76366647199488e-05 2.510029860769901e-05 0.0 0.0
0.0 9.92049652461434e-06 7.1019125726030485e-06 -5.644938204926854e-06 -1.4569743676760702e-06 -8.666527296891956e-06 0.0 0.0
0.0 -1.642791256056295e-06 -1.457676555988268e-07 1.1635194097405649e-07 2.9415714624769247e-08 2.4534168376624963e-07 0.0 0.0
0.0 0.0 0.0 0.0 0.0 0.0 0.0 0.0
0.0 0.0 0.0 0.0 0.0 0.0 0.0 0.0
0.0 0.0 0.0 0.0 0.0 0.0 0.0 0.0
0.0 0.0 0.0 0.0 0.0 0.0 0.0 0.0
0.0 0.0 0.0 0.0 0.0 0.0 0.0 0.0
0.0 0.0 0.0 0.0 0.0 0.0 0.0 0.0
0.0 -8.417872576605753e-07 -8.544655395676276e-08 6.60999379835288e-08 1.9346615973240632e-08 -7.969114554795907e-08 0.0 0.0
0.0 9.718321740849236e-06 1.6925241632624826e-05 -1.3172526187057163e-05 -3.7527154455674508e-06 1.0753422279544997e-05 0.0 0.0
0.0 0.00025179026246698966 -0.00015738673161909454 0.00011547714606053866 4.190958555855602e-05 -1.3073324653520469e-05 0.0 0.0
0.0 0.0011939215970772352 -0.000984348425895899 0.0007711141503787258 0.00021323427551717299 -0.00022371713815173253 0.0 0.0
0.0 0.002753514692645685 -0.0025154584659475253 0.002090016701883318 0.0004254417640642067 -0.0007086549433048231 0.0 0.0
0.0 0.005095195901647224 -0.0045988219364206 0.003991848556870615 0.0006069733795499822 -0.0012797471000331132 0.0 0.0
0.0 0.008103562706850686 -0.007210453244609004 0.0064613433695873594 0.0007491098750216483 -0.0019222447569222192 0.0 0.0
0.0 0.011717158115603785 -0.010376439725490134 0.009508541296397954 0.0008678984290921746 -0.002591846751933989 0.0 0.0
0.0 0.016192080658640345 -0.014199760155159549 0.013222557638300944 0.0009772025168585997 -0.0032677028074502208 0.0 0.0
0.0 0.021445785758867828 -0.018875729071056856 0.0177934316096101 0.001082297461446745 -0.0039982643132571456 0.0 0.0
0.0 0.0283112430956302 -0.02462117615918233 0.023443434834175044 0.0011777413250072888 -0.004887628251871729 0.0 0.0
0.0 0.036291309688478005 -0.03161944912659524 0.03035859288026299 0.0012608562463322158 -0.006008968338693402 0.0 0.0
0.0 0.045636949416637644 -0.03986797392303897 0.03854165116577567 0.0013263227572633425 -0.007301050621073444 0.0 0.0
0.0 0.056245262177316506 -0.048978885803408236 0.04762905094264 0.0013498348607681727 -0.008691515558575284 0.0 0.0
0.0 0.06631853659868604 -0.0576323058942487 0.05636937775995498 0.0012629281342937217 -0.010825081163691474 0.0 0.0
0.0 0.07254764195451516 -0.06277258629277058 0.06175576581219294 0.001016820480577602 -0.015649881988654732 0.0 0.0
0.0 0.06946245153504631 -0.05936150520675799 0.0587287043147329 0.0006328008920251308 -0.02429036181060774 0.0 0.0
0.0 0.06103541353375148 -0.05035159875409443 0.04554050667256139 0.004811092081533054 9.289444213855802e-15 0.0 0.0
0.0 0.06946245153504246 -0.0593615052067524 0.058728704314727466 0.0006328008920249216 0.024290361810627794 0.0 0.0
0.0 0.07254764195450018 -0.06277258629275663 0.0617557658121788 0.0010168204805777988 0.015649881988674435 0.0 0.0
0.0 0.06631853659866384 -0.05763230589422907 0.05636937775993561 0.0012629281342934268 0.01082508116370322 0.0 0.0
0.0 0.056245262177292046 -0.048978885803386774 0.04762905094261891 0.0013498348607677937 0.008691515558578456 0.0 0.0
0.0 0.04563694941661139 -0.039867973923015866 0.03854165116575339 0.0013263227572624797 0.0073010506210735154 0.0 0.0
0.0 0.03629130968845014 -0.03161944912657104 0.030358592880239347 0.0012608562463316756 0.006008968338690534 0.0 0.0
0.0 0.02831124309560133 -0.02462117615915692 0.02344343483415031 0.0011777413250065962 0.004887628251867932 0.0 0.0
0.0 0.021445785758837953 -0.018875729071030987 0.017793431609584614 0.001082297461446376 0.003998264313252245 0.0 0.0
0.0 0.01619208065861298 -0.014199760155135 0.013222557638276995 0.0009772025168580042 0.0032677028074445586 0.0 0.0
0.0 0.011717158115578394 -0.010376439725467652 0.009508541296375975 0.0008678984290916721 0.0025918467519268204 0.0 0.0
0.0 0.008103562706828852 -0.007210453244589688 0.006461343369568695 0.0007491098750209966 0.0019222447569159661 0.0 0.0
0.0 0.005095195901630407 -0.004598821936405109 0.003991848556856153 0.0006069733795489543 0.00127974710002845 0.0 0.0
0.0 0.002753514692634954 -0.0025154584659371117 0.0020900167018740702 0.00042544176406304193 0.0007086549433014142 0.0 0.0
0.0 0.001193921597069674 -0.0009843484258896052 0.0007711141503735848 0.00021323427551602135 0.00022371713814973857 0.0 0.0
0.0 0.00025179026246397406 -0.00015738673161734437 0.00011547714605924228 4.1909585558102353e-05 1.3073324653289629e-05 0.0 0.0
0.0 9.718321740017597e-06 1.69252416323472e-05 -1.317252618683944e-05 -3.7527154455079107e-06 -1.0753422279341421e-05 0.0 0.0
0.0 -8.417872574397398e-07 -8.544655393450504e-08 6.609993796626954e-08 1.9346615968240957e-08 7.969114552353769e-08 0.0 0.0
0.0 0.0 0.0 0.0 0.0 0.0 0.0 0.0
0.0 0.0 0.0 0.0 0.0 0.0 0.0 0.0
0.0 0.0 0.0 0.0 0.0 0.0 0.0 0.0
0.0 0.0 0.0 0.0 0.0 0.0 0.0 0.0
0.0 0.0 0.0 0.0 0.0 0.0 0.0 0.0
0.0 0.0 0.0 0.0 0.0 0.0 0.0 0.0
0.0 7.187229598705419e-07 8.463335519122874e-08 -6.176879738647556e-08 -2.286455780476825e-08 5.165437736512387e-08 0.0 0.0
0.0 9.034227789410617e-06 -9.16408911644683e-06 5.722370831614668e-06 3.441718284832143e-06 3.7055443412305032e-06 0.0 0.0
0.0 0.0005459747899629147 -0.00035130669219639234 0.00026249255842189035 8.881413377450179e-05 6.079897415762727e-06 0.0 0.0
0.0 0.0015705076618926202 -0.0015204625772952298 0.0012183729478963666 0.0003020896293988623 -0.0002198889438486954 0.0 0.0
0.0 0.0036002530860378187 -0.0032901254979297405 0.002782847364415611 0.0005072781335141318 -0.0005409676132720297 0.0 0.0
0.0 0.006252222823755897 -0.005671558211545499 0.004993351519825439 0.000678206691720058 -0.0009464612334275981 0.0 0.0
0.0 0.009694344812724316 -0.008651152497424123 0.007838241108977571 0.0008129113884465498 -0.0014048171143447817 0.0 0.0
0.0 0.013898157068381515 -0.012280826701711272 0.011349263940909727 0.0009315627608015452 -0.0018817130011661983 0.0 0.0
0.0 0.018905937561989116 -0.01669477435108082 0.015649665047162486 0.0010451093039183417 -0.0023598758653940693 0.0 0.0
0.0 0.025309020633495643 -0.022100007711386004 0.02094470799096774 0.0011552997204182553 -0.0028868563671858418 0.0 0.0
0.0 0.03268976879753125 -0.02874380041122354 0.02748644502998778 0.001257355381235724 -0.003576006852168883 0.0 0.0
0.0 0.04192394847379997 -0.03674432057487123 0.03540105289861718 0.0013432676762541028 -0.004460386012735146 0.0 0.0
0.0 0.05261489160709866 -0.04600355654537712 0.04459945272449699 0.0014041038208800756 -0.0054383310548286315 0.0 0.0
0.0 0.06423219101290488 -0.05605640604100453 0.05462203292592116 0.0014343731150834348 -0.006264402037742797 0.0 0.0
0.0 0.0754084338474009 -0.0657381002854641 0.0643409606399642 0.0013971396454999048 -0.007122988834586693 0.0 0.0
0.0 0.0829860202430669 -0.07214197360799376 0.07102787485360575 0.0011140987543880171 -0.010676447060928067 0.0 0.0
0.0 0.08066032281419652 -0.06938017793401376 0.06883753564514972 0.0005426422888639298 -0.0227893961199679 0.0 0.0
0.0 0.07192924256704872 -0.059756254625507876 0.054547646971207196 0.005208607654300615 7.078539143723361e-15 0.0 0.0
0.0 0.08066032281418989 -0.06938017793400636 0.0688375356451429 0.000542642288863489 0.022789396119983134 0.0 0.0
0.0 0.08298602024305049 -0.07214197360797871 0.07102787485359112 0.0011140987543876637 0.010676447060944165 0.0 0.0
0.0 0.07540843384737317 -0.06573810028544022 0.06434096063994027 0.0013971396454999514 0.007122988834595828 0.0 0.0
0.0 0.06423219101287583 -0.05605640604097922 0.054622032925896145 0.0014343731150831492 0.006264402037745269 0.0 0.0
0.0 0.05261489160706866 -0.04600355654535065 0.04459945272447167 0.0014041038208790235 0.005438331054828573 0.0 0.0
0.0 0.041923948473767285 -0.03674432057484292 0.035401052898589185 0.0013432676762537492 0.004460386012733501 0.0 0.0
0.0 0.032689768797499144 -0.028743800411195404 0.02748644502996054 0.0012573553812348442 0.003576006852166043 0.0 0.0
0.0 0.02530902063346148 -0.022100007711356204 0.020944707990938057 0.0011552997204181455 0.002886856367182599 0.0 0.0
0.0 0.018905937561957114 -0.0166947743510529 0.015649665047135306 0.0010451093039175717 0.0023598758653905335 0.0 0.0
0.0 0.013898157068353774 -0.012280826701686289 0.011349263940885252 0.0009315627608010394 0.0018817130011608574 0.0 0.0
0.0 0.009694344812701221 -0.00865115249740303 0.007838241108957264 0.0008129113884457641 0.0014048171143402927 0.0 0.0
0.0 0.006252222823737519 -0.005671558211528355 0.004993351519809323 0.0006782066917190356 0.0009464612334243087 0.0 0.0
0.0 0.0036002530860247393 -0.003290125497917242 0.0027828473644043207 0.0005072781335129194 0.000540967613269343 0.0 0.0
0.0 0.0015705076618850004 -0.001520462577287759 0.0012183729478901012 0.0003020896293976566 0.00021988894384717805 0.0 0.0
0.0 0.0005459747899590556 -0.0003513066921934941 0.0002624925584196654 8.881413377382799e-05 -6.0798974160395505e-06 0.0 0.0
0.0 9.034227788323723e-06 -9.164089116398986e-06 5.722370831592537e-06 3.4417182848063667e-06 -3.705544341103537e-06 0.0 0.0
0.0 7.187229594391122e-07 8.463335514353968e-08 -6.176879735139436e-08 -2.2864557792165992e-08 -5.165437734438602e-08 0.0 0.0
0.0 0.0 0.0 0.0 0.0 0.0 0.0 0.0
0.0 0.0 0.0 0.0 0.0 0.0 0.0 0.0
0.0 0.0 0.0 0.0 0.0 0.0 0.0 0.0
0.0 0.0 0.0 0.0 0.0 0.0 0.0 0.0
0.0 0.0 0.0 0.0 0.0 0.0 0.0 0.0
0.0 0.0 0.0 0.0 0.0 0.0 0.0 0.0
0.0 -8.917882943824995e-07 2.0533968546770362e-07 -1.610843871340444e-07 -4.425529833365797e-08 3.356116536699727e-08 0.0 0.0
0.0 0.00011086677056373284 -3.8897740829233954e-05 2.6321573954424753e-05 1.2576166874809059e-05 1.6613909398206717e-05 0.0 0.0
0.0 0.0008035459263730882 -0.0006538061715180813 0.0004983526806331259 0.0001554534908849556 4.7229016404842746e-05 0.0 0.0
0.0 0.0022045763986390313 -0.00206222577853926 0.0016870396074072332 0.00037518617113202707 -7.426738978478243e-05 0.0 0.0
0.0 0.004447127305606916 -0.004079854480014053 0.0035024672998832957 0.0005773871801307565 -0.00023263600038559307 0.0 0.0
0.0 0.007487965424700691 -0.006747357958522823 0.006010661248545278 0.0007366967099775461 -0.00043199060305998383 0.0 0.0
0.0 0.01130009445691568 -0.010096200428885293 0.009228656750262626 0.0008675436786226635 -0.0006635181751726137 0.0 0.0
0.0 0.016023310882164122 -0.014196703635337853 0.013208678745524154 0.0009880248898136883 -0.0008947367185782907 0.0 0.0
0.0 0.02193497568152056 -0.019207001632620617 0.01810062330961007 0.0011063783230105297 -0.0011176756073630308 0.0 0.0
0.0 0.028726957555537655 -0.02536939807945014 0.024146454557392512 0.001222943522057636 -0.001406408743928883 0.0 0.0
0.0 0.03738427829232219 -0.03289332982128619 0.031561867053115325 0.0013314627681708534 -0.00179471889131957 0.0 0.0
0.0 0.04771905854797988 -0.0418734208808616 0.04045400097522553 0.0014194199056360686 -0.002291308403333112 0.0 0.0
0.0 0.059523837967866505 -0.052101888110086425 0.05062706095491163 0.0014748271551748421 -0.0028594661691966703 0.0 0.0
0.0 0.07205215511340536 -0.06292109310289659 0.061428791076941255 0.0014923020259553549 -0.00329104136561967 0.0 0.0
0.0 0.08396608012274945 -0.07320443030718024 0.07171249109195149 0.0014919392152287873 -0.003398628680191711 0.0 0.0
0.0 0.0928663594722659 -0.08090142168924676 0.07951501011922986 0.0013864115700168737 -0.004538165829730156 0.0 0.0
0.0 0.09259796519182349 -0.08010765676716822 0.07962450050056569 0.0004831562666024569 -0.015695373976660584 0.0 0.0
0.0 0.08480251087957688 -0.07088151889756296 0.06559248083240825 0.005289038065154687 4.580537338316759e-15 0.0 0.0
0.0 0.09259796519181453 -0.08010765676715953 0.07962450050055744 0.00048315626660207163 0.015695373976669716 0.0 0.0
0.0 0.09286635947224602 -0.08090142168922927 0.07951501011921272 0.0013864115700164337 0.004538165829739143 0.0 0.0
0.0 0.08396608012271946 -0.07320443030715433 0.07171249109192575 0.0014919392152285763 0.003398628680196693 0.0 0.0
0.0 0.07205215511337268 -0.06292109310286799 0.06142879107691332 0.001492302025954734 0.0032910413656214803 0.0 0.0
0.0 0.059523837967832983 -0.05210188811005704 0.05062706095488313 0.0014748271551738954 0.0028594661691960987 0.0 0.0
0.0 0.047719058547944795 -0.04187342088083089 0.04045400097519563 0.0014194199056352878 0.0022913084033330472 0.0 0.0
0.0 0.037384278292284946 -0.032893329821253633 0.03156186705308369 0.00133146276816991 0.0017947188913179984 0.0 0.0
0.0 0.028726957555500365 -0.025369398079417644 0.024146454557360468 0.001222943522057167 0.0014064087439273668 0.0 0.0
0.0 0.021934975681484892 -0.019207001632589236 0.018100623309579275 0.0011063783230099474 0.0011176756073609244 0.0 0.0
0.0 0.016023310882131898 -0.014196703635309685 0.013208678745496572 0.0009880248898131044 0.0008947367185755692 0.0 0.0
0.0 0.011300094456891126 -0.010096200428863056 0.009228656750241353 0.0008675436786217019 0.0006635181751703482 0.0 0.0
0.0 0.00748796542468084 -0.006747357958504356 0.00601066124852771 0.000736696709976643 0.00043199060305824287 0.0 0.0
0.0 0.004447127305591739 -0.004079854479999612 0.0035024672998700025 0.0005773871801296082 0.0002326360003841668 0.0 0.0
0.0 0.002204576398629964 -0.002062225778530283 0.001687039607399418 0.0003751861711308655 7.426738978388996e-05 0.0 0.0
0.0 0.0008035459263681944 -0.0006538061715139906 0.0004983526806299015 0.00015545349088408897 -4.7229016404869506e-05 0.0 0.0
0.0 0.00011086677056221986 -3.88977408287956e-05 2.6321573954135678e-05 1.2576166874659954e-05 -1.661390939796811e-05 0.0 0.0
0.0 -8.917882948826047e-07 2.053396854591833e-07 -1.6108438713059855e-07 -4.425529832852608e-08 -3.35611653775424e-08 0.0 0.0
0.0 0.0 0.0 0.0 0.0 0.0 0.0 0.0
0.0 0.0 0.0 0.0 0.0 0.0 0.0 0.0
0.0 0.0 0.0 0.0 0.0 0.0 0.0 0.0
0.0 0.0 0.0 0.0 0.0 0.0 0.0 0.0
0.0 0.0 0.0 0.0 0.0 0.0 0.0 0.0
0.0 0.0 0.0 0.0 0.0 0.0 0.0 0.0
0.0 1.761010457296298e-06 -7.960912064350755e-08 1.210134055073232e-07 -4.140428486369066e-08 -3.92558241301474e-07 0.0 0.0
0.0 0.00026373062160733537 -0.00011035528948050909 7.630499943305432e-05 3.4050290047455544e-05 4.120683241490323e-05 0.0 0.0
0.0 0.0011300404546267968 -0.000934713627703342 0.0007064395076631312 0.0002282741200402093 0.00012559339113680335 0.0 0.0
0.0 0.002701619467262852 -0.00252861593867251 0.002048635439916733 0.0004799804987557772 0.0001296764550566234 0.0 0.0
0.0 0.005139901408817787 -0.004731715817815183 0.00401753256221455 0.0007141832556006311 0.0001390438699956617 0.0 0.0
0.0 0.008384214071031428 -0.007636660483625399 0.006720604890064734 0.0009160555935606633 0.00015543351292257308 0.0 0.0
0.0 0.01256945679504579 -0.011291834176632102 0.010184639402562489 0.0011071947740696117 0.00015943787837435623 0.0 0.0
0.0 0.01778867992637523 -0.01579043483899873 0.014480031527105322 0.0013104033118934034 0.00019972578655500233 0.0 0.0
0.0 0.023925175744194713 -0.021321960440047902 0.019785984448797554 0.0015359759912503537 0.0002736894140454552 0.0 0.0
0.0 0.03159413497997763 -0.02810848600760992 0.02632948582619736 0.001779000181412535 0.00029482615988948814 0.0 0.0
0.0 0.04097105618881815 -0.036356765515567546 0.03432333331941404 0.0020334321961535114 0.00030453088369617907 0.0 0.0
0.0 0.05214030979305443 -0.046135182996999764 0.043857117464192616 0.0022780655328070746 0.00021417586984067913 0.0 0.0
0.0 0.06480795523969977 -0.057146430271489176 0.05466388640875999 0.0024825438627291974 -5.020983715503698e-06 0.0 0.0
0.0 0.07799092567251525 -0.0685637919496621 0.06595320770563935 0.002610584244022697 -0.000290158156781465 0.0 0.0
0.0 0.09012947818481545 -0.07903910434800485 0.07641724043595764 0.0026218639120470628 -0.0004923149820460458 0.0 0.0
0.0 0.09935251512731863 -0.08707507657283116 0.08449639978339105 0.0025786767894401133 -0.0007020378765212575 0.0 0.0
0.0 0.10169148727012714 -0.08949137497425724 0.08714655977893149 0.002344815195325835 -0.010621535645848525 0.0 0.0
0.0 0.09772512483416262 -0.08280821247177078 0.07477315879374004 0.008035053678030677 1.9637069748057456e-15 0.0 0.0
0.0 0.10169148727011615 -0.08949137497424763 0.08714655977892197 0.00234481519532565 0.010621535645851604 0.0 0.0
0.0 0.09935251512729402 -0.08707507657280984 0.08449639978337009 0.0025786767894397564 0.0007020378765240764 0.0 0.0
0.0 0.09012947818478367 -0.07903910434797684 0.07641724043593065 0.002621863912046272 0.0004923149820483426 0.0 0.0
0.0 0.07799092567248007 -0.06856379194963093 0.06595320770560947 0.0026105842440213066 0.00029015815678232366 0.0 0.0
0.0 0.06480795523966301 -0.05714643027145683 0.05466388640872884 0.0024825438627280373 5.020983714772512e-06 0.0 0.0
0.0 0.052140309793016926 -0.04613518299696644 0.0438571174641611 0.0022780655328053234 -0.000214175869840778 0.0 0.0
0.0 0.040971056188777735 -0.036356765515531964 0.034323333319379895 0.0020334321961520702 -0.0003045308836971822 0.0 0.0
0.0 0.031594134979939376 -0.02810848600757604 0.026329485826165032 0.0017790001814110105 -0.00029482615988987585 0.0 0.0
0.0 0.023925175744156525 -0.021321960440014512 0.019785984448765077 0.0015359759912494122 -0.00027368941404710707 0.0 0.0
0.0 0.017788679926340215 -0.015790434838967776 0.014480031527075448 0.0013104033118923426 -0.00019972578655553944 0.0 0.0
0.0 0.012569456795018526 -0.011291834176608223 0.010184639402539795 0.0011071947740684332 -0.00015943787837510346 0.0 0.0
0.0 0.0083842140710091 -0.007636660483605262 0.0067206048900457 0.0009160555935595646 -0.00015543351292301565 0.0 0.0
0.0 0.005139901408800879 -0.0047317158177993136 0.004017532562199913 0.0007141832555994001 -0.00013904386999582434 0.0 0.0
0.0 0.002701619467251948 -0.002528615938661793 0.0020486354399073614 0.00047998049875443236 -0.0001296764550566304 0.0 0.0
0.0 0.001130040454621855 -0.0009347136276983811 0.0007064395076592436 0.00022827412003913777 -0.00012559339113646275 0.0 0.0
0.0 0.00026373062160522253 -0.00011035528947941448 7.630499943229795e-05 3.4050290047117605e-05 -4.120683241455671e-05 0.0 0.0
0.0 1.761010457131018e-06 -7.960912069404301e-08 1.2101340554455188e-07 -4.140428485052348e-08 3.925582413054781e-07 0.0 0.0
0.0 0.0 0.0 0.0 0.0 0.0 0.0 0.0
0.0 0.0 0.0 0.0 0.0 0.0 0.0 0.0
0.0 0.0 0.0 0.0 0.0 0.0 0.0 0.0
SCALARS Wm float 4
LOOKUP_TABLE default
9.074789051453301 1.8950082749110586 3.419330851054709 3.760449925487527
3.8590132202935883 1.9667846872814763 0.8019167264110262 1.0903118066010875
0.4621267401107252 0.47176255635073233 -0.004916774658871278 -0.004719041581135979
0.4158524696569758 0.41827647856049277 -0.000286331978411938 -0.0021376769251050145
0.6912148371825285 0.6165673056130907 0.02690546605792718 0.04774206551151046
1.270723436752482 0.790980683335078 0.1502651371571217 0.32947761626028205
2.3478312749986134 1.0491788819478114 0.49379386282834525 0.8048585302224569
3.95438599315026 1.329535537578775 1.0940561194810854 1.530794336090398
6.187087023352051 1.6536907740524582 2.0254661348383323 2.507930114461261
9.160030607957857 2.0511662888812876 3.36116716533581 3.747697153740763
13.022358086592803 2.5635752872010666 5.18136137973494 5.277421419656799
17.91347521973622 3.2257228405857346 7.526066079970003 7.161686299180495
24.19178955461836 4.046313223264945 10.665262092126756 9.480214239226662
32.10511154114816 5.034350527320792 14.76345107347183 12.307309940355545
41.77274889116882 6.122909041488898 19.979635034905943 15.670204814773978
53.010591120815626 7.173305659226166 26.331589094001814 19.50569636758766
65.13943166467277 7.995642883124921 33.50201953537732 23.641769246170533
77.03568497798184 8.423920310091233 40.88937278436782 27.722391883522764
87.35334373441844 8.447607172789938 47.60058522730411 31.305151334324428
94.51603971889085 8.121644290596093 52.474101073518796 33.92029435477596
96.96396032785012 7.639051579177782 54.35900344352923 34.96590530514315
94.51603971888588 8.121644290599638 52.47410107351294 33.9202943547733
87.35334373440351 8.447607172795339 47.60058522729072 31.305151334317458
77.03568497795419 8.423920310090018 40.88937278435084 27.722391883513303
65.13943166464139 7.995642883123114 33.5020195353584 23.641769246159853
53.010591120782685 7.17330565922209 26.331589093983695 19.505696367576924
41.77274889113491 6.122909041482982 19.979635034888776 15.670204814763139
32.1051115411176 5.034350527319337 14.763451073454338 12.307309940343918
24.191789554589803 4.046313223264614 10.665262092110268 9.480214239214924
17.913475219708268 3.2257228405835394 7.526066079955427 7.1616862991693075
13.022358086568163 2.563575287196411 5.1813613797239935 5.277421419647757
9.160030607939023 2.051166288878402 3.361167165327376 3.7476971537332484
6.187087023337789 1.6536907740498983 2.0254661348325054 2.5079301144553865
3.9543859931403076 1.329535537577369 1.0940561194771452 1.5307943360857936
2.347831274991988 1.0491788819460834 0.49379386282633114 0.8048585302195738
1.2707234367487052 0.7909806833331 0.1502651371567449 0.3294776162588602
0.6912148371811164 0.6165673056125819 0.02690546605762213 0.047742065510912715
0.4158524696565067 0.41827647855993866 -0.00028633197839060515 -0.002137676925041275
0.4621267401101855 0.4717625563501933 -0.004916774658857855 -0.004719041581150041
3.8590132202901604 1.9667846872819332 0.8019167264092594 1.0903118065989683
9.074789051432681 1.895008274900682 3.419330851049277 3.760449925482731
10.392288977560458 4.78944378640505 2.576944108427092 3.025901082728318
1.3161019394037639 0.3118502572475449 0.38597701181671806 0.6182746703395007
0.21600841158092748 0.22197405771385245 -0.0011679517737594835 -0.0047976943591654594
0.33561818180699293 0.3350745127475514 0.00010903179742643836 0.0004346372620151872
0.5365200693815628 0.5065614153663104 0.008269417706319932 0.021689236308932623
1.0299816049480912 0.706691118654007 0.10589576026689247 0.2173947260271917
1.9374886308703414 0.8946138213747358 0.382052616909594 0.6608221925860115
3.3548200371145893 1.113081271941471 0.9151929305004411 1.3265458346726762
5.325787079976208 1.3417133012627478 1.7548279226646357 2.2292458560488244
7.909551739260632 1.5952552897628176 2.941658549001383 3.3726379004964304
11.224636596892648 1.891414416470365 4.554032340363651 4.779189840058631
15.486618548355143 2.2507946024393006 6.734524538485919 6.50129940742992
20.78423197684591 2.6838397727235104 9.473280953176223 8.627111250946182
27.587164869693854 3.1866189265151124 13.171969698589592 11.228576244589153
35.95463599566943 3.72643308466409 17.879851917511782 14.348350993493561
45.76073512697225 4.214933895998008 23.617683833931927 17.9281173970423
56.47180611488214 4.535258318100018 30.165994398338178 21.770553398443965
67.13938065740666 4.602200472680219 36.95605888531206 25.581121299414374
76.49047347341929 4.399347847907719 43.14446184716127 28.946663778350313
83.07029426357465 3.981498615048864 47.72372924867145 31.365066399854303
85.47034045090025 3.573206365368865 49.57408564326496 32.32304844226645
83.0702942635649 3.9814986150461786 47.72372924866685 31.365066399851862
76.49047347340311 4.3993478479089925 43.14446184714994 28.946663778344202
67.13938065738452 4.602200472681161 36.95605888529716 25.581121299406195
56.47180611485157 4.535258318094153 30.165994398322564 21.770553398434856
45.76073512694468 4.2149338959966975 23.61768383391559 17.928117397032402
35.95463599563966 3.726433084658795 17.87985191749686 14.348350993484011
27.58716486966627 3.18661892651362 13.171969698574065 11.228576244578582
20.784231976819385 2.6838397727222434 9.473280953161622 8.627111250935517
15.486618548331005 2.2507946024385914 6.7345245384728125 6.501299407419606
11.224636596871722 1.8914144164679194 4.554032340353645 4.779189840050159
7.909551739244756 1.5952552897614614 2.9416585489938916 3.3726379004894005
5.325787079963822 1.3417133012612463 1.7548279226593642 2.2292458560432116
3.354820037105889 1.113081271940556 0.9151929304969382 1.326545834668395
1.93748863086477 0.8946138213737075 0.3820526169077968 0.6608221925832654
1.0299816049453527 0.7066911186528516 0.10589576026628746 0.21739472602621357
0.5365200693805766 0.5065614153656834 0.008269417706195164 0.021689236308698113
0.33561818180676295 0.33507451274723243 0.00010903179743969522 0.00043463726209084353
0.216008411580891 0.22197405771375536 -0.0011679517737436028 -0.00479769435912072
1.3161019394002216 0.31185025724750426 0.3859770118151328 0.6182746703375844
10.392288977540211 4.789443786395214 2.576944108421762 3.025901082723233
7.620743136130823 3.7340948625813 1.700039441703796 2.186608831845728
0.7725751799020827 0.10615773329226467 0.24306214026268308 0.4233553063471348
0.13493323133638874 0.13493366779404714 -1.80369121587346e-08 -4.1842074621861334e-07
0.2545334583028243 0.2544624898078084 2.5638419097493452e-05 4.533007591843728e-05
0.4220956051704844 0.41853549703593795 0.00039761595811188544 0.003162492176434596
0.8057381867063949 0.6345999473404614 0.05472909345802715 0.11640914590790659
1.5605297927602104 0.8179040350048796 0.2556358298706528 0.48698992788467765
2.7995099244350516 1.032398765844511 0.697414456113217 1.069696702477324
4.5251611885763205 1.2486063364054185 1.4028524081355314 1.8737024440353711
6.799600850654407 1.480982435912723 2.427286155625105 2.891332259116579
9.689303875835076 1.7452390423892727 3.807670235555415 4.136394597890387
13.319693716758149 2.0567017215006462 5.606519519136262 5.656472476121244
18.02398261297558 2.437687397170314 8.065100850167916 7.521194365637351
23.853623628880193 2.882546564498168 11.144729565646058 9.826347498735963
31.17637157141741 3.3580902334609477 15.214977885643409 12.60330345231304
39.81305225122685 3.8018843639761637 20.196536444143234 15.814631443107455
49.32312934720444 4.1225126786977 25.892187975264143 19.308428693242597
58.869244552704075 4.228396970884285 31.8627084450151 22.77813913680468
67.28781500010324 4.068312476982708 37.371970015387035 25.84753250773349
73.25496593346007 3.7360879321904017 41.467479188714535 28.051398812555163
75.39470999187023 3.271283467560336 43.15865051172885 28.96477601258105
73.25496593345669 3.736087932193347 41.46747918871051 28.051398812552815
67.28781500008925 4.0683124769825545 37.371970015378096 25.847532507728577
58.86924455268504 4.228396970884972 31.86270844500264 22.778139136797453
49.32312934718257 4.122512678696653 25.89218797525107 19.30842869323485
39.813052251201924 3.801884363973827 20.196536444129347 15.814631443098731
31.176371571393886 3.358090233458855 15.214977885630505 12.603303452304528
23.853623628857086 2.8825465644975914 11.14472956563286 9.826347498726635
18.023982612951908 2.4376873971673247 8.065100850156144 7.521194365628443
13.319693716737296 2.0567017215002044 5.606519519124983 5.656472476112109
9.689303875816968 1.7452390423876358 3.8076702355467464 4.136394597882589
6.799600850640507 1.4809824359116186 2.427286155618673 2.891332259110215
4.525161188565303 1.2486063364040718 1.4028524081309406 1.87370244403029
2.7995099244273933 1.0323987658438498 0.6974144561101268 1.0696967024734179
1.5605297927554587 0.8179040350038542 0.25563582986932654 0.4869899278822782
0.8057381867042861 0.6345999473397292 0.05472909345754499 0.11640914590701167
0.4220956051697426 0.4185354970352456 0.0003976159580982117 0.0031624921763986837
0.25453345830259927 0.2544624898075687 2.5638419098933476e-05 4.53300759316719e-05
0.13493323133635618 0.13493366779401425 -1.8036912141597065e-08 -4.184207459031903e-07
0.7725751798992632 0.10615773329255085 0.24306214026138506 0.4233553063453269
7.620743136112469 3.7340948625729498 1.7000394416988984 2.186608831840624
5.643124693069856 2.8962103359998026 1.1459954299320403 1.6009189271380162
0.4903627402363801 0.06920980758370796 0.1401403435793492 0.2810125890733228
0.09534124941619898 0.09534124941619898 0.0 0.0
0.19105058342047415 0.19101244135057327 2.762707400739038e-06 3.5379362500165364e-05
0.33528020624813915 0.34296949171533625 -0.0016590623389746706 -0.006030223128222404
0.6091587206680174 0.5397973300820581 0.01820569118875436 0.051155699397204796
1.2270059609041357 0.7530458963742044 0.15866816787401664 0.3152918966559144
2.2646320711657966 0.9457970984106433 0.49863622275634245 0.8201987499988104
3.759100968743903 1.1509940446853728 1.0835000895432445 1.5246068345152848
5.719905164315152 1.3639545702532718 1.9385801966225518 2.4173703974393286
8.18037729117254 1.5963688461931131 3.078546652362477 3.5054617926169516
11.304134986417019 1.8698699460623407 4.6103696380189945 4.823895402335683
15.21270261392084 2.1956818224683925 6.574417091687495 6.442603699764952
20.313422507029887 2.5806019616910323 9.295961888944007 8.436858656394852
26.564093128251685 3.000770523678528 12.6934552614938 10.869867343079353
33.9828401841168 3.403491889734296 16.870617624113837 13.708730670268666
42.336355495810785 3.7215086578839323 21.80228539509873 16.812561442828123
50.80621412083538 3.8652417696960923 26.992007882620857 19.948964468518422
58.35688055533955 3.772410970427653 31.816709999888452 22.767759585023448
63.79204727617968 3.503545368660327 35.452874734935605 24.835627172583752
65.74862218115149 2.9519624989907847 37.07927389392357 25.71738578823711
63.79204727617524 3.503545368662944 35.45287473493106 24.83562717258124
58.35688055532673 3.772410970425655 31.816709999881596 22.767759585019494
50.806214120816755 3.8652417696934243 26.9920078826108 19.94896446851252
42.336355495791686 3.721508657884346 21.80228539508668 16.81256144282067
33.982840184096396 3.403491889733087 16.870617624102213 13.708730670261128
26.564093128230578 3.000770523676725 12.693455261482367 10.869867343071476
20.31342250700948 2.580601961689758 9.295961888932991 8.436858656386734
15.212702613901303 2.1956818224665264 6.574417091677605 6.442603699757173
11.304134986399058 1.869869946061365 4.610369638009876 4.823895402327816
8.180377291156752 1.5963688461914887 3.078546652355172 3.5054617926100904
5.719905164302816 1.363954570251831 1.9385801966171585 2.4173703974338245
3.7591009687346952 1.1509940446844822 1.0835000895393945 1.5246068345108175
2.264632071159163 0.9457970984092862 0.4986362227542622 0.8201987499956149
1.2270059609002482 0.7530458963731166 0.15866816787289326 0.3152918966542378
0.6091587206664099 0.5397973300813727 0.01820569118845462 0.05115569939658281
0.3352802062476601 0.3429694917146557 -0.0016590623389330273 -0.006030223128062579
0.19105058342031764 0.19101244135042525 2.762707400018399e-06 3.5379362492379505e-05
0.09534124941611727 0.09534124941611727 0.0 0.0
0.49036274023397686 0.06920980758385988 0.14014034357829008 0.2810125890718268
5.643124693055316 2.896210335993399 1.1459954299283401 1.6009189271335766
4.106499671095807 2.2237813742425154 0.7372381087549794 1.1454801880983119
0.3634345232495134 0.10814364706769505 0.09155463200203508 0.16373624417978339
0.0862912357158852 0.0862912357158852 0.0 0.0
0.14967636627889647 0.1496819089006418 -4.2444358086294644e-07 -5.118178164441581e-06
0.26867519476644974 0.2677056070521245 0.0001909181259271488 0.0007786695883980462
0.4629137424514645 0.4612504462583651 -0.0005878637155288169 0.0022511599086279897
0.9260785509965981 0.6665550099189088 0.08777199360868992 0.17175154746899968
1.758916835992872 0.8544510644520315 0.3236773963591242 0.5807883751817164
3.019093148021461 1.0464676686069427 0.7891853863879836 1.183440093026534
4.670380448379704 1.2411184728349332 1.4766808861936427 1.9525810893511302
6.7455590948040305 1.4482985202616214 2.4119556674683444 2.8853049070740666
9.339592177651213 1.6829303999672969 3.6489923098698074 4.007669467814107
12.644504854592439 1.962842540037286 5.303285601249258 5.378376713305895
16.766261337956895 2.289634853988239 7.398488793433868 7.078137690534783
22.052112682126975 2.648164331902228 10.24904850164415 9.154899848580605
28.413300358408236 3.013493152399789 13.797598452596816 11.602208753411631
35.51733227116341 3.330644763768512 17.86166538849872 14.325022118896198
42.90781910278048 3.5139153655424376 22.28610656415853 17.10779717307951
49.64879428637813 3.4941768534884625 26.501026766617866 19.653590666271803
54.65623321767085 3.2796168508550174 29.791684770032393 21.584931596783434
56.48402342084392 2.628387465160423 31.363072535493103 22.492563420190418
54.656233217665516 3.2796168508553527 29.791684770028823 21.58493159678133
49.648794286371995 3.4941768534929767 26.501026766611158 19.65359066626786
42.90781910276771 3.5139153655428093 22.286106564150387 17.107797173074516
35.51733227114629 3.3306447637672174 17.861665388489055 14.325022118890017
28.413300358390856 3.0134931523990316 13.797598452586884 11.602208753404943
22.052112682110497 2.6481643319018433 10.24904850163478 9.154899848573868
16.766261337939646 2.2896348539862372 7.398488793425261 7.078137690528146
12.644504854576155 1.9628425400362217 5.303285601240965 5.378376713298968
9.339592177635469 1.6829303999647898 3.648992309862866 4.007669467807813
6.745559094791289 1.448298520260946 2.4119556674622653 2.8853049070680754
4.6703804483692695 1.2411184728337075 1.4766808861892118 1.9525810893463502
3.0190931480133125 1.0464676686056686 0.7891853863849877 1.1834400930226554
1.7589168359876006 0.8544510644507867 0.3236773963575151 0.5807883751792983
0.9260785509934556 0.666555009917676 0.08777199360796394 0.17175154746781562
0.46291374245028 0.46125044625735495 -0.000587863715576677 0.002251159908501777
0.26867519476602153 0.2677056070517153 0.000190918125922128 0.0007786695883839711
0.14967636627872855 0.149681908900473 -4.244435807835282e-07 -5.118178163679836e-06
0.08629123571572796 0.08629123571572796 0.0 0.0
0.36343452324742875 0.10814364706765203 0.09155463200116978 0.16373624417860722
4.1064996710845945 2.223781374237706 0.737238108752211 1.1454801880946783
2.92846055662513 1.7003459855128762 0.4547901144512117 0.7733244566610422
0.2612244605222159 0.14334134269869794 0.032572606716791706 0.08531051110672624
0.09647555009342289 0.09647555009342289 0.0 0.0
0.12852387934161233 0.12852387934161233 0.0 0.0
0.2199665688986069 0.22013766258660886 -2.5703092022850055e-05 -0.00014539059597910872
0.35729284024237656 0.36544817461244644 -0.0026202802590048007 -0.005535054111065024
0.658599692323973 0.5525448518167319 0.025851692570262243 0.08020314793697893
1.3213104098774435 0.7646554189896916 0.20383417554846478 0.3528208153392869
2.294925793950591 0.928384239750205 0.5135869543667451 0.8529545998336414
3.6696552900797363 1.1127751911489574 1.0590196150894744 1.4978604838413045
5.361997719018899 1.2955537216531252 1.7892366867177532 2.2772073106480195
7.4549996531387315 1.496169601500791 2.7501995865306705 3.2086304651072703
10.088293227292558 1.7312275648236093 4.0187373917668445 4.3383282707021
13.477010762825698 2.004602614066746 5.733957921582657 5.738450227176293
17.71769012473618 2.3139485908449378 7.938011324339816 7.4657302095514195
22.867375589484954 2.6310909094591763 10.714830021485863 9.521454658539918
28.92287936844977 2.9349464606607123 14.160205441673014 11.827727466116041
35.21506837782691 3.165403054960091 17.795407479870235 14.254257842996582
41.102621573389364 3.2246673290238377 21.334817846855362 16.54313639751016
45.75052201721304 3.064654169152625 24.33240074686529 18.353467101195147
47.49927419053166 2.305670172397633 25.900786022768365 19.292817995365663
45.75052201720784 3.0646541691509253 24.3324007468631 18.353467101193793
41.10262157337989 3.2246673290242556 21.33481784684924 16.5431363975064
35.21506837781227 3.165403054955407 17.795407479864146 14.254257842992716
28.922879368437126 2.9349464606607176 14.160205441665443 11.827727466110964
22.867375589470065 2.631090909458376 10.714830021477644 9.521454658534056
17.717690124722225 2.313948590844253 7.938011324332251 7.465730209545723
13.477010762811744 2.0046026140642774 5.73395792157636 5.738450227171104
10.088293227279525 1.7312275648231354 4.018737391760149 4.338328270696244
7.454999653126714 1.4961696014994335 2.750199586525225 3.2086304651020545
5.361997719007905 1.2955537216524444 1.7892366867126905 2.2772073106427704
3.6696552900711845 1.1127751911478918 1.0590196150860622 1.4978604838372302
2.294925793944465 0.9283842397493145 0.5135869543645661 0.8529545998305844
1.3213104098730533 0.7646554189887574 0.2038341755470514 0.3528208153372442
0.6585996923219242 0.5525448518155955 0.025851692569969522 0.08020314793635916
0.3572928402416823 0.3654481746114896 -0.00262028025895176 -0.005535054110855524
0.21996656889828828 0.22013766258630835 -2.5703092025306054e-05 -0.00014539059599476156
0.12852387934135054 0.12852387934135054 0.0 0.0
0.09647555009311083 0.09647555009311083 0.0 0.0
0.2612244605205889 0.1433413426984916 0.03257260671623211 0.08531051110586538
2.928460556616684 1.7003459855092158 0.454790114449267 0.7733244566582012
2.009095244030307 1.2801629011118922 0.24487325538557375 0.48405908753284127
0.20989625670382672 0.17990183893288486 0.0052265727131785115 0.024767845057763423
0.11581987804824545 0.11581987804824545 0.0 0.0
0.12349069480368348 0.12349069480368348 0.0 0.0
0.18613153547514824 0.1860429230910167 8.051635463919186e-06 8.056074866764353e-05
0.28421877213290847 0.2894223521181131 -0.0010600276711205067 -0.004143552314084181
0.4725159053185765 0.4606193454476232 0.0002276807582778755 0.011668879112675312
0.8920992606026875 0.6281530707038975 0.07622258913488376 0.18772360076390626
1.6827134395404404 0.8231357495919889 0.3284070387964885 0.531170651151963
2.6931037385469447 0.9691481293033553 0.6696091197414018 1.0543464895021872
4.0442092421873514 1.1359822461229112 1.2248239571261939 1.6834030389382457
5.67381069511314 1.3069142261240903 1.9399967277529846 2.4268997412360642
7.695812132575242 1.5015778070992414 2.872231208200076 3.3220031172759246
10.278007666273878 1.7263438145045722 4.1223781876953725 4.4292856640739355
13.556187085778978 1.9800716204366589 5.770810041767165 5.805305423575152
17.69849695163694 2.2629175589963983 7.973975626967741 7.461603765672796
22.36084865839341 2.5430887143378635 10.452426432198491 9.365333511857063
27.62601606739622 2.798184956819184 13.441640532679683 11.386190577897349
32.83143770172933 2.948882286941031 16.493277347731553 13.389278067056738
37.092326175099636 2.8611030995712756 19.128111782677504 15.103111292850867
38.822529766688326 1.9908624701424 20.728354930726407 16.103312365819527
37.09232617509602 2.861103099569313 19.128111782676438 15.103111292850265
32.831437701722585 2.9488822869409357 16.493277347727528 13.389278067054121
27.626016067388782 2.798184956818914 13.441640532675386 11.386190577894471
22.360848658381926 2.5430887143369216 10.452426432192315 9.36533351185269
17.698496951625525 2.26291755899671 7.9739756269610504 7.461603765667758
13.556187085768624 1.980071620436843 5.770810041761392 5.805305423570392
10.278007666264186 1.726343814503486 4.122378187690791 4.429285664069909
7.69581213256457 1.5015778070975936 2.8722312081954033 3.322003117271572
5.673810695103213 1.306914226123025 1.939996727748572 2.4268997412316167
4.044209242178128 1.135982246121065 1.2248239571227488 1.683403038934312
2.6931037385405268 0.9691481293028137 0.6696091197387887 1.0543464894989247
1.6827134395354124 0.823135749591282 0.3284070387946134 0.531170651149517
0.8920992605996931 0.6281530707028937 0.07622258913415637 0.18772360076264327
0.4725159053172564 0.4606193454465846 0.00022768075818758104 0.011668879112484324
0.28421877213242847 0.2894223521176021 -0.0010600276711039134 -0.00414355231406966
0.18613153547486377 0.18604292309072698 8.05163546410312e-06 8.056074867266801e-05
0.12349069480338748 0.12349069480338748 0.0 0.0
0.11581987804791112 0.11581987804791112 0.0 0.0
0.20989625670280554 0.17990183893262363 0.0052265727129017815 0.02476784505728015
2.0090952440240883 1.28016290110906 0.24487325538432178 0.484059087530707
1.3709707885707108 1.004256337507551 0.12913121070419273 0.23758324035896683
0.1725003429624723 0.18710947531946048 -0.009397662151249821 -0.005211470205738384
0.13749741129310183 0.13750322170831897 -2.3757776738740996e-07 -5.5728374497752275e-06
0.1295198836285404 0.1295198836285404 0.0 0.0
0.1662710687624954 0.16625787307924653 9.841367940400931e-07 1.2211546454828718e-05
0.23444048886076332 0.23652166217510126 -0.00041952902373394875 -0.001661644290603941
0.34356390724952934 0.35531443128855394 -0.003836326872513193 -0.007914197166511353
0.5821921392205262 0.5007522881001021 0.015932400763590333 0.06550745035683393
1.061129171114369 0.6628660472587184 0.12464626610432124 0.2736168577513296
1.8449364173242975 0.8274620839168675 0.39073681547114525 0.6267375179362843
2.794497637979458 0.9620755778653655 0.7283513201575591 1.1040707399565333
3.9793987394517805 1.1044184701885282 1.2073618892031968 1.6676183800600537
5.44623131142555 1.2656795818399484 1.8467540715074453 2.3337976580781565
7.294030616895434 1.4451390792058927 2.6926513577349476 3.156240179954592
9.687773615670736 1.6536185051600614 3.8517790632979114 4.182376047212767
12.660993345622263 1.8901468157894101 5.329902787356276 5.440943742476575
16.30440590346493 2.1493891479017284 7.24747601028977 6.9075407452734305
20.34283814602785 2.415219885117779 9.386513135152779 8.541105125757287
24.565040266194934 2.6399430369754624 11.697423598047202 10.22767363117227
28.522231357101777 2.656600748911752 14.053388853674498 11.812241754515524
30.306868489892565 1.6833772163260157 15.72658003306919 12.896911240497372
28.52223135710173 2.6566007489126 14.053388853673944 11.81224175451518
24.56504026618933 2.6399430369739307 11.697423598044777 10.227673631170632
20.342838146023233 2.415219885120484 9.386513135148556 8.541105125754187
16.304405903456125 2.1493891479004374 7.247476010285518 6.907540745270168
12.660993345611656 1.8901468157872108 5.329902787351633 5.440943742472814
9.687773615662227 1.6536185051591437 3.8517790632938627 4.182376047209222
7.294030616887941 1.4451390792041552 2.692651357731975 3.156240179951808
5.44623131141916 1.2656795818400333 1.8467540715042468 2.3337976580748805
3.979398739444549 1.104418470187649 1.2073618892002402 1.6676183800566593
2.794497637973773 0.9620755778649076 0.7283513201552649 1.1040707399536005
1.844936417319522 0.827462083916366 0.39073681546928457 0.6267375179338712
1.0611291711110944 0.6628660472578393 0.12464626610340132 0.27361685774985384
0.5821921392188775 0.5007522880992791 0.015932400763343124 0.06550745035625494
0.3435639072487584 0.3553144312876752 -0.003836326872482665 -0.007914197166434154
0.23444048886027224 0.23652166217439768 -0.00041952902371231773 -0.0016616442904131758
0.16627106876211492 0.16625787307891687 9.841367897007596e-07 1.2211546408430884e-05
0.12951988362816844 0.12951988362816844 0.0 0.0
0.1374974112928424 0.13750322170804422 -2.3757776660358785e-07 -5.5728374351892456e-06
0.17250034296180144 0.18710947531902425 -0.009397662151298343 -0.005211470205924545
1.3709707885665554 1.0042563375056826 0.1291312107032947 0.2375832403575781
0.8853761605462787 0.7505203103144926 0.03718003468542338 0.09767581554636265
0.1618477264278927 0.18004963284912856 -0.005390676122018022 -0.012811230299217971
0.15716305997303423 0.15725847373841026 -7.942672845307354e-06 -8.747109253071001e-05
0.14203262090028562 0.14202385391640543 5.897935051999962e-07 8.177190374985282e-06
0.15867957399134047 0.1587032644832651 -1.9461531036676694e-06 -2.1744338820966167e-05
0.20104898939482826 0.20032987653804038 0.00012215912275598094 0.000596953734031896
0.26606585250423664 0.2779489733391501 -0.003005476893907702 -0.008877643941005793
0.38168809824601346 0.38557570817898146 -0.0019059428479235394 -0.001981667085044479
0.6113164850322395 0.5031857079752694 0.025527466631476918 0.0826033104254929
1.0355761122947238 0.632998812361358 0.13137188126432858 0.2712054186690377
1.6333116319226013 0.7503441794624494 0.3124424110372225 0.5705250414229295
2.4044945440720134 0.8729735509771352 0.5901780343458841 0.9413429587489939
3.351401597202203 1.0024186982367098 0.9615451873250952 1.3874377116403975
4.536726603258173 1.1419601878115393 1.4576448498272905 1.9371215656193428
6.07128948558416 1.3046875676044505 2.141855871660274 2.624746046319435
8.044830935338336 1.4981754851063394 3.0660285511984586 3.480626899033536
10.510103245550207 1.7336444752306879 4.256863192553813 4.519595577765705
13.387227024252292 1.9788598158901878 5.684130934592165 5.724236273769942
16.678383100249537 2.2559502997344905 7.364819643822779 7.057613156692261
20.254312055164128 2.4387047324345286 9.334744916130079 8.480862406599517
22.09064109122074 1.4042109267139127 10.954622602891797 9.731807561615032
20.25431205516526 2.438704732436029 9.334744916129855 8.480862406599377
16.67838310024741 2.2559502997341534 7.364819643821772 7.057613156691485
13.387227024246203 1.9788598158896524 5.684130934589043 5.724236273767505
10.510103245545121 1.7336444752307993 4.2568631925510205 4.519595577763303
8.044830935332993 1.4981754851060467 3.0660285511958123 3.480626899031135
6.071289485578385 1.3046875676027174 2.141855871658221 2.624746046317445
4.536726603255017 1.1419601878116745 1.4576448498256858 1.9371215656176586
3.351401597197138 1.0024186982360226 0.9615451873231197 1.3874377116379966
2.4044945440671013 0.8729735509758936 0.5901780343442274 0.9413429587469804
1.633311631918671 0.7503441794619883 0.31244241103582265 0.5705250414208604
1.0355761122918556 0.6329988123607856 0.13137188126342983 0.27120541866764036
0.6113164850308258 0.5031857079746798 0.025527466631220692 0.08260331042492541
0.3816880982452027 0.38557570817830356 -0.0019059428479632607 -0.0019816670851375115
0.2660658525037185 0.2779489733384486 -0.003005476893864901 -0.00887764394086524
0.20104898939432658 0.20032987653752504 0.0001221591227552442 0.0005969537340462688
0.1586795739909761 0.15870326448289626 -1.946153103291718e-06 -2.174433881687147e-05
0.1420326208999119 0.14202385391603514 5.897935049128192e-07 8.177190371824514e-06
0.15716305997277305 0.15725847373813767 -7.9426728438462e-06 -8.747109252077777e-05
0.16184772642749898 0.18004963284843592 -0.005390676121949845 -0.012811230298987175
0.8853761605437301 0.7505203103131632 0.037180034685014136 0.09767581554555316
0.5855313707018431 0.5780204337938707 0.0021659412903490037 0.005344995617623415
0.16036984270676813 0.16183479148009056 -0.0003495059874867371 -0.0011154427858356439
0.17232426392511754 0.17234179138305786 -9.038683591991786e-07 -1.6623589581121507e-05
0.15725776588771956 0.157266278403897 -4.624563956504184e-07 -8.050059781740452e-06
0.16070532887121666 0.16070513340712791 1.7247569551195297e-06 -1.5292928663885773e-06
0.1846185295866753 0.18498079047046315 -5.772610734988352e-05 -0.0003045347764379961
0.2219277841931424 0.228566284446321 -0.0015782545261491905 -0.005060245727029388
0.27290500996885597 0.2686228101349602 0.00034831029767023314 0.003933889536225591
0.3455602974044484 0.31678119829205004 0.006525253012192441 0.022253846100205966
0.4725566618798679 0.39005003574763675 0.021019028303621637 0.06148759782860944
0.7183097870078404 0.4841139951393639 0.07893010176979487 0.1552656900986815
1.0484118589116511 0.5731557772948527 0.1591238150313403 0.3161322665854581
1.5019468507442548 0.6607315780714889 0.3016727773951974 0.5395424952775684
2.1011754108622505 0.753113911240713 0.5158534517649522 0.832208047856586
2.885197222353977 0.8559569830497691 0.8172513403715391 1.2119888989326681
3.932301999647739 0.9969772934190863 1.2386656298065282 1.6966590764221237
5.341312116174959 1.1895778853666943 1.8327114188114546 2.319022811996809
7.2107579072851635 1.429076909960127 2.6735779649665705 3.108103032358467
9.428216092501232 1.665951918021298 3.716311422538723 4.0459527519412095
12.254464888549629 2.0509872859335947 5.0229572225726855 5.180520380043346
14.610356924351523 1.1751288305034377 6.819995379101207 6.615232714746872
12.254464888550103 2.0509872859329175 5.022957222573328 5.1805203800438555
9.428216092501977 1.6659519180233648 3.7163114225380016 4.045952751940611
7.210757907281629 1.429076909959763 2.673577964964927 3.1081030323569405
5.341312116170718 1.1895778853662593 1.8327114188095093 2.319022811994947
3.9323019996452295 0.9969772934194983 1.238665629805154 1.6966590764205762
2.8851972223524998 0.8559569830499699 0.8172513403708275 1.2119888989317031
2.1011754108603524 0.7531139112404212 0.5158534517642119 0.8322080478557196
1.5019468507421994 0.6607315780710434 0.30167277739451975 0.539542495276636
1.0484118589101392 0.5731557772948999 0.15912381503075437 0.31613226658448523
0.7183097870059882 0.4841139951390308 0.0789301017691918 0.15526569009776545
0.4725566618789399 0.39005003574701236 0.021019028303545052 0.061487597828382395
0.34556029740409555 0.3167811982918433 0.006525253012141491 0.022253846100110705
0.27290500996835393 0.2686228101345913 0.00034831029763091026 0.003933889536131763
0.22192778419272202 0.22856628444576843 -0.0015782545261188666 -0.005060245726927595
0.18461852958637265 0.18498079047015278 -5.7726107349670646e-05 -0.0003045347764304646
0.1607053288708686 0.16070513340676523 1.7247569561690236e-06 -1.5292928527816401e-06
0.1572577658873159 0.1572662784034879 -4.624563952485292e-07 -8.05005977674842e-06
0.1723242639247474 0.17234179138267386 -9.038683582517383e-07 -1.6623589568169255e-05
0.16036984270649146 0.1618347914797743 -0.0003495059874790912 -0.0011154427858037354
0.5855313707004285 0.5780204337926581 0.002165941290297005 0.005344995617473399
0.39327133207506904 0.3920617006730934 0.00015115701208288516 0.0010584743898928608
0.15788245748008117 0.1579959085274807 -1.6263703956531535e-05 -9.718734344295969e-05
0.18214519255925354 0.18228108331620124 -1.1143274495061744e-05 -0.00012474748245261706
0.17224312863665214 0.17228773350791116 -3.0090264717618683e-06 -4.159584478721377e-05
0.16977687350776346 0.16977641721223694 1.2746668436716983e-06 -8.183713171120655e-07
0.18378422271587083 0.18410497638586235 -5.343132346013735e-05 -0.00026732234653135137
0.20916731287460705 0.21535792608913773 -0.0014054479876885574 -0.0047851652268422196
0.23924216231744555 0.2320338132755151 0.0007794733961855951 0.006428875645744996
0.265020498541456 0.23637751968930548 0.007705906118893019 0.020937072733257487
0.2928844365845101 0.21944498859194658 0.019786327903809187 0.05365312008875431
0.3354911675884732 0.207226506356687 0.04241368412447254 0.08585097710731372
0.40211657301221115 0.1864423023648471 0.06911664340031469 0.14655762724704924
0.5061994646168172 0.18978779798092987 0.10974773313926933 0.2066639334966182
0.6633141397749893 0.2111114073656014 0.16759018376401685 0.2846125486453708
0.9024976285957672 0.26142291588287314 0.25428650797071634 0.3867882047421777
1.2393259641096415 0.2857282255191542 0.3807231148124578 0.5728746237780296
1.719535129143913 0.2870343741254415 0.5925146586024032 0.8399860964160685
2.4111489387330867 0.2937523349119979 0.9101243192906427 1.207272284530445
3.5406535447038516 0.43643908989202607 1.3861604718915803 1.7180539829202448
5.7479894444513295 1.1110506452705502 2.0891560817856822 2.5477827173950995
9.418057907341414 0.9663281500792729 4.035011840560474 4.41671791670167
5.747989444454409 1.1110506452714142 2.089156081786888 2.5477827173961094
3.5406535447007723 0.4364390898900931 1.3861604718910083 1.7180539829196702
2.4111489387320164 0.2937523349125375 0.9101243192898543 1.2072722845296249
1.7195351291410579 0.28703437412496313 0.592514658601285 0.8399860964148083
1.2393259641069079 0.28572822551798915 0.38072311481187326 0.5728746237770457
0.9024976285961455 0.2614229158831727 0.2542865079706528 0.38678820474232045
0.6633141397740343 0.2111114073652998 0.16759018376375323 0.2846125486449814
0.5061994646159449 0.1897877979810642 0.109747733138851 0.20666393349602963
0.40211657301119563 0.18644230236474724 0.0691166433999996 0.1465576272464492
0.3354911675872056 0.20722650635641654 0.04241368412409058 0.08585097710669842
0.2928844365842751 0.21944498859178205 0.01978632790378984 0.0536531200887031
0.26502049854139936 0.23637751968941423 0.007705906118840003 0.02093707273314522
0.23924216231724174 0.2320338132753464 0.0007794733961697265 0.006428875645725625
0.20916731287412704 0.21535792608858423 -0.0014054479876722333 -0.004785165226784972
0.18378422271556405 0.1841049763855361 -5.343132345815289e-05 -0.00026732234651391057
0.16977687350733128 0.16977641721178774 1.2746668447383521e-06 -8.183713012188865e-07
0.17224312863626057 0.1722877335074997 -3.009026470089872e-06 -4.1595844769073125e-05
0.18214519255884187 0.1822810833157769 -1.1143274493439908e-05 -0.00012474748244152296
0.15788245747985083 0.15799590852728013 -1.6263703959244406e-05 -9.71873434700343e-05
0.39327133207429305 0.3920617006720915 0.0001511570121004757 0.0010584743901010758
0.2637197655519417 0.2636787076038842 3.1449235594818967e-06 3.791302449810016e-05
0.1492929529252911 0.1493000930318304 -7.809730483392966e-07 -6.359133490956365e-06
0.18570813701826913 0.1856745617751978 3.0357384811359583e-06 3.053950459020256e-05
0.18492522015564894 0.18498103658183562 -4.477284794431172e-06 -5.13391413922115e-05
0.18363739318538985 0.18363782836764686 1.3616702903466123e-06 -1.7968525473452994e-06
0.1973841223853821 0.19673393986360183 0.00011263396318311874 0.0005375485585971696
0.22810239111689307 0.23791907240601584 -0.0021894544093733637 -0.007627226879749462
0.27460808175512796 0.2698799577084771 0.0005510483150459914 0.00417707573160481
0.34551253322594594 0.3164798187033704 0.0066295544784200095 0.022403160044155414
0.47179717290675305 0.3895678554288595 0.020909765817403725 0.06131955166048977
0.7172159933619222 0.4842837936832062 0.07815518408311074 0.15477701559560544
1.0511985655022187 0.5743247208368794 0.1611851354211258 0.31568870924421333
1.5078101077866362 0.6623656393180173 0.30337041278411686 0.5420740556845026
2.113700847507178 0.7556007376877389 0.5204462446381535 0.8376538651812859
2.8824063840785166 0.8536557217141719 0.8175871154455838 1.2111635469187605
3.806981797775368 0.9665942929548788 1.1966559323258035 1.6437315724946855
4.778260316545617 1.0835629360528083 1.6103483662386788 2.084349014254128
5.600069991672536 1.1748701608848 2.008385706451762 2.416814124335975
5.907743492891674 1.2190345524179547 2.168505646187837 2.5202032942858787
4.793293266526451 0.6092722530701056 1.9793612904813815 2.2046597229749643
9.517487772069494 1.7630227304748165 3.6195441845300125 4.134920857064662
4.793293266527633 0.6092722530689144 1.979361290482648 2.2046597229760687
5.907743492891747 1.219034552418441 2.1685056461875982 2.520203294285709
5.600069991669428 1.1748701608837706 2.0083857064506843 2.4168141243349734
4.778260316540029 1.0835629360522032 1.6103483662362241 2.0843490142516035
3.806981797772334 0.9665942929556607 1.1966559323240211 1.6437315724926507
2.8824063840743124 0.8536557217122533 0.8175871154446239 1.2111635469174353
2.113700847504891 0.7556007376879114 0.5204462446370559 0.8376538651799227
1.5078101077824597 0.6623656393173152 0.30337041278268656 0.5420740556824579
1.0511985654983618 0.5743247208358111 0.161185135420011 0.31568870924253933
0.7172159933591968 0.48428379368235835 0.07815518408236752 0.15477701559447105
0.4717971729055107 0.38956785542806927 0.020909765817290264 0.06131955166015121
0.3455125332253528 0.3164798187028368 0.006629554478391432 0.02240316004412443
0.27460808175451695 0.2698799577080061 0.0005510483150055099 0.004177075731505286
0.22810239111628905 0.23791907240532548 -0.002189454409348723 -0.007627226879687632
0.19738412238498637 0.19673393986304627 0.00011263396320161483 0.0005375485587384565
0.1836373931850203 0.1836378283672953 1.361670287127184e-06 -1.7968525621473661e-06
0.18492522015526164 0.1849810365814273 -4.477284792821856e-06 -5.1339141372841755e-05
0.18570813701787467 0.18567456177479383 3.0357384811983143e-06 3.053950459965208e-05
0.14929295292505557 0.1493000930316012 -7.80973048571847e-07 -6.359133497039122e-06
0.26371976555139415 0.2636787076033468 3.1449235585162974e-06 3.791302448882746e-05
0.16972946894677773 0.16972946894677773 0.0 0.0
0.1350037308473369 0.1350014973948412 1.0780301602207152e-07 2.125649479689325e-06
0.18251868103947752 0.18250380293828963 1.4859508359212948e-06 1.3392150351924643e-05
0.19400328783030235 0.19395775419188532 6.741537791692081e-06 3.8792100625377955e-05
0.20063870434054826 0.200830061357812 -1.3587169700288952e-05 -0.00017776984756345414
0.2247615676937097 0.2280192320113147 -0.0005680181289013512 -0.002689646188703733
0.2762042094707603 0.27797894601292117 -0.0011215208714163128 -0.000653215670744664
0.3846449712001502 0.3870556407145705 -0.0013920111291058793 -0.0010186583853143936
0.6108036156975323 0.5027247852478796 0.025501205949260947 0.08257762450039188
1.034114545822451 0.6327875027917267 0.13081574694413106 0.2705112960865931
1.6325438987207852 0.7501767669248476 0.31212870544092886 0.5702384263550087
2.405518405716335 0.8730548131072474 0.5905921675883118 0.9418714250207757
3.3561850677457676 1.0031502336135953 0.9635092152843167 1.389525618847856
4.547961096063981 1.1433013993635281 1.4626967203345298 1.9419629763659199
6.072436208392109 1.301006133405999 2.145010446057944 2.6264196289281645
7.934108582614703 1.468272235099568 3.0249087689560366 3.440927578559102
9.983464764870597 1.6321074860483884 4.027635526264425 4.323721752557784
11.861563766959314 1.794286547825211 4.935835216907745 5.131442002226362
12.919796847351652 1.847246754854121 5.498031928637827 5.5745181638597066
11.995294242372646 1.86915917620504 5.055943234503008 5.070191831664603
14.307700270426954 3.955945700114718 5.078453602224673 5.273300968087562
11.99529424237707 1.8691591762060726 5.055943234504923 5.070191831666076
12.91979684735308 1.8472467548553102 5.498031928637948 5.574518163859822
11.861563766954042 1.7942865478236112 4.935835216905699 5.131442002224736
9.983464764863495 1.6321074860496154 4.0276355262599335 4.323721752553951
7.934108582607692 1.4682722350988926 3.0249087689527374 3.440927578556059
6.0724362083861365 1.3010061334054288 2.145010446055227 2.6264196289254804
4.547961096057731 1.143301399362119 1.4626967203322268 1.9419629763633837
3.356185067739737 1.0031502336133324 0.9635092152816382 1.3895256188447653
2.4055184057103745 0.8730548131069072 0.5905921675858223 0.941871425017646
1.6325438987152139 0.7501767669238915 0.31212870543904947 0.5702384263522728
1.03411454581853 0.6327875027905998 0.13081574694303177 0.2705112960848985
0.6108036156956399 0.5027247852470692 0.025501205948924938 0.08257762449964552
0.38464497119890245 0.3870556407137069 -0.0013920111292138981 -0.0010186583855906059
0.27620420947025326 0.27797894601216117 -0.0011215208713662949 -0.0006532156705416261
0.22476156769322925 0.22801923201087965 -0.0005680181289034881 -0.0026896461887468775
0.20063870434007106 0.20083006135729478 -1.358716969536765e-05 -0.00017776984752836106
0.1940032878298646 0.19395775419142808 6.74153779291067e-06 3.879210064361902e-05
0.18251868103911456 0.18250380293792576 1.485950835800389e-06 1.3392150353024234e-05
0.13500373084710768 0.13500149739461426 1.078030158836325e-07 2.1256494775240985e-06
0.16972946894635285 0.16972946894635285 0.0 0.0
0.10438323702141061 0.10438323702141061 0.0 0.0
0.11604775816259505 0.11604775816259505 0.0 0.0
0.1730697167594491 0.17304545418795741 1.7498561801295798e-06 2.2512715311568723e-05
0.1990598622117851 0.1991293929959825 -5.218320297586886e-06 -6.431246389986003e-05
0.22007813199214807 0.22052832488976543 -6.671149586605729e-05 -0.00038348140175134874
0.26292697045278335 0.2626351931728191 -0.00012801129774851321 0.00041978857771278466
0.3581915969041808 0.3741175341929387 -0.004296679868140429 -0.011629257420617453
0.5857901648663792 0.5017068641312693 0.017054224983622353 0.06702907575148748
1.0599592289750386 0.6627817052803956 0.12420872901105093 0.27296879468359214
1.843720016697316 0.8274972733659252 0.39046122553612583 0.6257615177952649
2.7934925720308805 0.9618197549766832 0.7268747622499282 1.1047980548042693
3.9799526511828094 1.1041938996726004 1.2077714072025274 1.667987344307682
5.447666252073904 1.2658422761941959 1.8474070940899108 2.3344168817897972
7.2988029493470625 1.446357815832653 2.6945657114734622 3.1578794220409496
9.686507328269613 1.651330534604759 3.852519072727791 4.182657720937063
12.582561554641963 1.8637548483504962 5.301748712408159 5.417057993883304
15.92919322478362 2.067164521958663 7.082643066317027 6.779385636507929
19.036206986025118 2.195411201560849 8.760688763973665 8.080107020490603
20.813732053035796 2.172679573376281 9.800833069364248 8.840219410295264
19.310624415735543 1.9680772465408118 9.05803044878085 8.28451672041388
21.666099434642618 6.1610987676316915 7.991466394551586 7.513534272459348
19.310624415735674 1.968077246537772 9.05803044878268 8.28451672041522
20.81373205303188 2.1726795733733555 9.80083306936366 8.84021941029487
19.036206986017074 2.1954112015585814 8.760688763970334 8.08010702048816
15.929193224774801 2.0671645219598647 7.08264306631135 6.779385636503586
12.582561554631141 1.8637548483494053 5.301748712402818 5.4170579938789185
9.686507328260054 1.651330534602896 3.8525190727236738 4.182657720933485
7.2988029493381505 1.446357815832141 2.69456571146911 3.157879422036898
5.447666252063963 1.2658422761930237 1.8474070940855452 2.334416881785396
3.9799526511737824 1.1041938996710907 1.2077714071989434 1.6679873443037487
2.793492572022295 0.9618197549760233 0.7268747622463394 1.1047980547999328
1.8437200166913412 0.8274972733650034 0.39046122553394047 0.625761517792397
1.0599592289711888 0.6627817052792347 0.12420872901000497 0.27296879468194957
0.5857901648643934 0.5017068641304786 0.017054224983261198 0.06702907575065353
0.35819159690322633 0.37411753419182664 -0.004296679868088625 -0.011629257420511682
0.26292697045231583 0.2626351931721064 -0.00012801129771580056 0.0004197885779252727
0.22007813199171788 0.22052832488936802 -6.671149587127852e-05 -0.0003834814017789224
0.1990598622114091 0.19912939299558635 -5.218320295818337e-06 -6.431246388149186e-05
0.17306971675912125 0.1730454541876369 1.749856179479478e-06 2.2512715304933934e-05
0.11604775816240974 0.11604775816240974 0.0 0.0
0.1043832370211717 0.1043832370211717 0.0 0.0
0.06091384884746727 0.06091384884746727 0.0 0.0
0.09484028292868293 0.09484028292868293 0.0 0.0
0.15856594482810676 0.15855550400265778 6.169848764971448e-07 9.823840572470336e-06
0.20050996094712578 0.20041744008830528 1.1433964402413846e-05 8.108689441796222e-05
0.2413897451933682 0.24171247917163952 -2.387855379070982e-05 -0.0002988554244805756
0.31329405813877764 0.3240963168211444 -0.0021945504002849063 -0.008607708282081832
0.48514530444390014 0.459047434723289 0.0036511906028260767 0.02244667911778485
0.8946462427504773 0.6287199725011773 0.07724973573064023 0.18867653451866007
1.6812634970611569 0.8233064772978896 0.3276951474842863 0.5302618722789807
2.6921859971854345 0.9692992625346805 0.6689653018710754 1.053921432779678
4.044677572008091 1.13585227121081 1.225335723082557 1.6834895777147243
5.673569294598999 1.3062975853904069 1.9401947299474311 2.4270769792611615
7.691747034078394 1.50050535545018 2.870736182493722 3.3205054961344915
10.269001287044356 1.7264324158975863 4.117623319342551 4.424945551804221
13.546592805794923 1.9815970780740968 5.764695144936309 5.800300582784524
17.68229295779083 2.2570623714827143 7.967798842010624 7.45743174429749
22.18943024320283 2.4796929707406568 10.389095781415934 9.320641491046253
26.592905087709312 2.544645391932732 12.977657237741404 11.07060245803517
29.06167976068963 2.353645413996469 14.5905448689563 12.117489477736857
26.998405365451326 2.037707123571982 13.538806457392493 11.421891784486855
29.67021505732704 8.286363670757448 11.384871880415474 9.998979506154104
26.99840536545128 2.0377071235703785 13.538806457393445 11.421891784487453
29.061679760684218 2.35364541399579 14.590544868953447 12.117489477734985
26.59290508769767 2.544645391930133 12.97765723773599 11.07060245803154
22.189430243189047 2.4796929707392246 10.38909578140874 9.320641491041078
17.68229295777909 2.2570623714828604 7.967798842003842 7.457431744292382
13.546592805781573 1.9815970780717322 5.76469514493027 5.800300582779565
10.269001287032275 1.7264324158971687 4.117623319336293 4.424945551798815
7.691747034066742 1.5005053554504568 2.8707361824875446 3.3205054961287392
5.673569294586991 1.3062975853884158 1.9401947299424989 2.427076979256078
4.044677571998105 1.1358522712109962 1.2253357230778095 1.6834895777092986
2.692185997177434 0.9692992625332811 0.6689653018681717 1.053921432775981
1.6812634970552984 0.8233064772966707 0.32769514748226336 0.5302618722763638
0.8946462427470349 0.6287199724999055 0.07724973572983569 0.18867653451729421
0.4851453044424213 0.4590474347221598 0.0036511906027111504 0.022446679117550168
0.3132940581381091 0.3240963168204045 -0.0021945504002603955 -0.008607708282034929
0.24138974519297968 0.24171247917118924 -2.387855378394088e-05 -0.0002988554244255436
0.2005099609467677 0.20041744008793794 1.143396440262814e-05 8.108689442716989e-05
0.15856594482775047 0.15855550400230645 6.169848761276928e-07 9.823840567913113e-06
0.09484028292849651 0.09484028292849651 0.0 0.0
0.06091384884733752 0.06091384884733752 0.0 0.0
0.033476837986974914 0.033476837986974914 0.0 0.0
0.07367452083137452 0.07367452083137452 0.0 0.0
0.14077680751535626 0.14077209383022768 2.7264122338958563e-07 4.441043905202767e-06
0.19953051770264071 0.1994840226864877 5.023327296910349e-06 4.1471688856069486e-05
0.26467077802315186 0.2638277293306731 0.000157419309589008 0.0006856293828896704
0.3813569905302081 0.3933250263577944 -0.0032794650602402213 -0.008688570767345994
0.669605588361105 0.555706834036231 0.02899811291501328 0.08490064140986082
1.3223463635506116 0.7650826747574873 0.20415903605218175 0.3531046527409428
2.294098068792849 0.9288002921322782 0.5131732681789634 0.8521245084816076
3.669669137599932 1.1129350239188527 1.0588943411183747 1.4978397725627048
5.362810228049052 1.2954318880584954 1.7896845846851588 2.277693755305399
7.45379498115478 1.4951265690198978 2.7501131366800706 3.208555275454812
10.076881351947353 1.7282020409800816 4.01428692359565 4.334392387371627
13.447867434061113 2.0016362961586047 5.719542520347406 5.726688617555105
17.695046587348855 2.3217144059150923 7.920705504253743 7.452626677180019
22.916626599060244 2.6533390347153603 10.730277894863423 9.533009669481459
28.9569695640288 2.9002666087012936 14.20075337099885 11.855949584328645
34.45402164189196 2.8704393186207073 17.51173265925166 14.071849664019597
37.31166790443133 2.454589052841034 19.473006374581217 15.38407247700909
34.8397672426016 2.1136288696676475 18.217025499648642 14.50911287328531
38.4078283599989 10.517044648347369 15.29909188859843 12.59169182305311
34.839767242600054 2.113628869665198 18.21702549964918 14.509112873285673
37.31166790442724 2.454589052844004 19.47300637457688 15.38407247700635
34.45402164188154 2.870439318621883 17.51173265924461 14.071849664015058
28.956969564014067 2.900266608701856 14.20075337098968 11.855949584322525
22.91662659904299 2.6533390347129457 10.730277894854753 9.533009669475287
17.69504658733223 2.3217144059137818 7.920705504245027 7.452626677173415
13.447867434046632 2.0016362961577085 5.719542520339937 5.726688617548989
10.076881351932649 1.7282020409794858 4.014286923588147 4.334392387365016
7.453794981139943 1.495126569018127 2.7501131366733658 3.208555275448451
5.362810228036124 1.29543188805699 1.7896845846795615 2.2776937552995715
3.669669137589574 1.1129350239171416 1.0588943411143474 1.4978397725580845
2.294098068785841 0.9288002921313038 0.5131732681764908 0.8521245084780467
1.3223463635455515 0.7650826747558053 0.2041590360507711 0.35310465273897484
0.6696055883585361 0.555706834034995 0.02899811291457422 0.08490064140896698
0.3813569905292244 0.3933250263567105 -0.003279465060215698 -0.008688570767270363
0.2646707780227137 0.26382772933020426 0.00015741930959011275 0.0006856293829194018
0.19953051770221863 0.19948402268606522 5.0233272966949e-06 4.147168885674738e-05
0.1407768075150985 0.14077209382997186 2.726412232514537e-07 4.441043903424872e-06
0.0736745208312172 0.0736745208312172 0.0 0.0
0.03347683798687246 0.03347683798687246 0.0 0.0
0.017283009426665195 0.017283009426665195 0.0 0.0
0.05438357911111242 0.05438357911111242 0.0 0.0
0.12181688866320442 0.12181688866320442 0.0 0.0
0.19788442723974217 0.1978215975678589 5.622717784786087e-06 5.720695409850619e-05
0.2930592320639182 0.2962903624808658 -0.0005683349679845797 -0.002662795448963004
0.47274448770600935 0.44788266269046445 0.0036807258568294374 0.02118109915871529
0.931327217095937 0.6684604413328825 0.08977674542791184 0.1730900303351427
1.759197779375776 0.8548739727919475 0.3234515425845488 0.5808722639992799
3.019578598135602 1.0469129163625044 0.7894196414047632 1.1832460403683347
4.671456507410412 1.241283862984588 1.4771429132297842 1.9530297311960407
6.746650311107138 1.4481350215398199 2.4125968643394087 2.88591842522791
9.33686490826421 1.6814093310393252 3.6483644174345065 4.007091159790379
12.625424885451599 1.9577934883903925 5.2955960444020445 5.372035352659157
16.71753834022758 2.2828970343327137 7.3747639659518684 7.059877339943007
22.008586339711165 2.658128022921564 10.217876908221236 9.132581408568363
28.491177129006125 3.0605354500398327 13.815631373648616 11.615010305317671
35.692184333120636 3.3318948174849004 17.96686909198021 14.39342042365553
42.337870723012585 3.1780881391231937 22.140563345320885 17.019219238568517
45.80283029723735 2.5310568875391186 24.697160818600004 18.57461259109823
42.944627723678096 2.169488619838272 23.146898273775523 17.6282408300643
47.6507095785762 12.859420570619601 19.440772477630123 15.350516530326484
42.94462772367361 2.1694886198345937 23.14689827377504 17.628240830063984
45.80283029722858 2.531056887539431 24.697160818594348 18.574612591094812
42.337870722997394 3.178088139121317 22.14056334531258 17.01921923856349
35.69218433310325 3.331894817484046 17.96686909197013 14.393420423649063
28.491177128988895 3.0605354500403377 13.815631373638036 11.615010305310523
22.00858633969327 2.6581280229210758 10.217876908211116 9.132581408561085
16.71753834020798 2.2828970343302863 7.374763965942167 7.059877339935527
12.625424885433352 1.9577934883893944 5.295596044392624 5.372035352651331
9.336864908246907 1.6814093310383107 3.6483644174259395 4.007091159782657
6.746650311091924 1.4481350215383084 2.412596864332496 2.885918425221117
4.671456507398319 1.2412838629834564 1.4771429132245324 1.953029731190329
3.0195785981267416 1.0469129163612796 0.7894196414014727 1.1832460403639895
1.759197779369457 0.8548739727901394 0.3234515425826761 0.5808722639966405
0.9313272170924283 0.6684604413318438 0.0897767454269715 0.17309003033361306
0.4727444877046873 0.447882662689461 0.00368072585672579 0.02118109915850088
0.2930592320633301 0.29629036248021984 -0.0005683349679736047 -0.002662795448916158
0.19788442723938904 0.19782159756751183 5.6227177840943e-06 5.7206954093084954e-05
0.1218168886630117 0.1218168886630117 0.0 0.0
0.05438357911101002 0.05438357911101002 0.0 0.0
0.017283009426589536 0.017283009426589536 0.0 0.0
0.008508238041797633 0.008508238041797633 0.0 0.0
0.038288830265247854 0.038288830265247854 0.0 0.0
0.10384646958546642 0.10384646958546642 0.0 0.0
0.1982270512666277 0.19819687990864446 2.0410054128779405e-06 2.8130352570346785e-05
0.33038056268408633 0.3375290909605413 -0.0015424117793481833 -0.005606116497106654
0.6050134614637783 0.5379181436834025 0.01793944315128178 0.049155874629094085
1.2261504229150681 0.7520178729688031 0.15873342504813928 0.315399124898126
2.266493420840397 0.9462000521754126 0.4995038831571614 0.8207894855078222
3.7615323411863946 1.1513723525496717 1.084561233566226 1.5255987550704981
5.721931386021885 1.3641372066678086 1.9395471612670256 2.4182470180870506
8.181247343957674 1.5960440705933614 3.079193235062998 3.5060100383013113
11.298902964101691 1.8677709105515492 4.608685611614766 4.822446441935376
15.187214833534519 2.1893957275387357 6.563667926129872 6.434151179865904
20.252347395195113 2.5713945587014924 9.265979275600845 8.414973560892786
26.49341934424038 3.0048425157730807 12.649114014246877 10.839462814220424
34.014934475197066 3.4491516897983567 16.86257983850593 13.703202946892786
42.497905709366805 3.7524134144482817 21.88327869853694 16.86221359638158
50.275042608849525 3.5190331307305733 26.87572885568834 19.880280622430618
54.42580377658083 2.622202298437555 30.04624954245055 21.757351935692718
51.48301666141216 2.168963650064067 28.49279733021109 20.821255681137
57.8069823568758 15.27655983521828 24.239291118557006 18.2911314031005
51.483016661405735 2.16896365006074 28.49279733020913 20.82125568113588
54.425803776569495 2.6222022984384057 30.046249542442837 21.757351935688273
50.2750426088294 3.519033130728398 26.87572885567703 19.880280622423964
42.49790570934445 3.7524134144452206 21.883278698525004 16.862213596374243
34.014934475173874 3.44915168979512 16.862579838493804 13.703202946884947
26.493419344216203 3.004842515769428 12.649114014234723 10.839462814212059
20.252347395174557 2.571394558701533 9.265979275588972 8.414973560884055
15.187214833512718 2.189395727537324 6.563667926118476 6.434151179856921
11.298902964081488 1.867770910549727 4.608685611604912 4.822446441926846
8.181247343940047 1.596044070591966 3.0791932350546065 3.5060100382934767
5.721931386007715 1.3641372066668789 1.939547161260458 2.41824701808038
3.7615323411758093 1.1513723525488597 1.0845612335617119 1.5255987550652366
2.266493420832832 0.946200052173788 0.49950388315488436 0.8207894855041598
1.2261504229104645 0.7520178729675472 0.15873342504682164 0.3153991248960956
0.6050134614619669 0.5379181436824105 0.017939443151010606 0.049155874628545815
0.3303805626833822 0.33752909095971545 -0.0015424117793201861 -0.005606116497013056
0.19822705126637344 0.19819687990839838 2.0410054121905157e-06 2.8130352562807396e-05
0.10384646958524545 0.10384646958524545 0.0 0.0
0.03828883026518741 0.03828883026518741 0.0 0.0
0.00850823804174725 0.00850823804174725 0.0 0.0
0.004174317205727158 0.004174317205727158 0.0 0.0
0.02608895017199432 0.02608895017199432 0.0 0.0
0.08915989586106322 0.08915989586106322 0.0 0.0
0.20410663233634474 0.2041345917623364 -2.1449399111980753e-06 -2.5814486080462045e-05
0.38364317474308796 0.381124596925087 -8.657460165245861e-05 0.002605152419653474
0.7849282981891164 0.6248744592913796 0.05093643979032855 0.10911739910740803
1.5570366006296814 0.817045191361106 0.25384983033223435 0.48614157893634086
2.805599766126479 1.0326000852744004 0.7013259282859415 1.0716737525661377
4.529443768760148 1.2489249100520987 1.404736541049447 1.8757823176586015
6.802373878946315 1.481157343296271 2.4286923826575886 2.8925241529924555
9.68936428720604 1.7445963049792474 3.8080868127495258 4.136681169477269
13.311099268497317 2.0539986718452923 5.603288234589081 5.653812362062945
17.99401545208694 2.431275451265956 8.051675020034324 7.511064980786662
23.789455043098187 2.8730277900032957 11.112693182787359 9.803734070307534
31.081538721664074 3.3515568299592093 15.161930221169268 12.5680516705356
39.714660976057836 3.804668066981984 20.134649313143363 15.775343595932487
49.20214814727778 4.113623836723921 25.826032894328996 19.26249141622487
58.12342397108136 3.957950558856865 31.55200344958874 22.61346996263576
63.20780720278811 2.786528010736582 35.57607410768069 24.845205084370818
60.53590926867034 2.041609582112938 34.35212077311433 24.14217891344306
68.94004487657135 17.62871822751545 29.742872171876726 21.56845447717918
60.53590926866289 2.0416095821110565 34.35212077311082 24.142178913441
63.20780720277526 2.7865280107376096 35.57607410767185 24.845205084365833
58.12342397106064 3.9579505588588324 31.552003449574272 22.613469962627512
49.20214814725314 4.113623836722628 25.826032894314373 19.26249141621613
39.714660976032576 3.804668066980105 20.134649313129 15.77534359592347
31.08153872163973 3.351556829959426 15.161930221154488 12.568051670525815
23.789455043071925 2.8730277900003363 11.112693182773702 9.803734070297887
17.994015452061557 2.4312754512645713 8.051675020020673 7.511064980776314
13.311099268473457 2.053998671842919 5.603288234577219 5.6538123620533245
9.689364287186331 1.7445963049778097 3.8080868127399055 4.1366811694686145
6.802373878930429 1.481157343294904 2.4286923826502855 2.8925241529852395
4.5294437687484 1.2489249100513635 1.4047365410442638 1.875782317652775
2.8055997661177434 1.0326000852730728 0.7013259282827269 1.0716737525619435
1.5570366006243093 0.8170451913596852 0.25384983033090985 0.48614157893371424
0.7849282981865662 0.6248744592902297 0.05093643978984134 0.10911739910649515
0.3836431747421813 0.38112459692421 -8.657460166435892e-05 0.0026051524196355996
0.20410663233599127 0.20413459176196763 -2.1449399102669095e-06 -2.581448606613111e-05
0.08915989586093447 0.08915989586093447 0.0 0.0
0.026088950171982168 0.026088950171982168 0.0 0.0
0.004174317205712934 0.004174317205712934 0.0 0.0
0.0019818691275960334 0.0019818691275960334 0.0 0.0
0.0176827258361459 0.0176827258361459 0.0 0.0
0.08071005457649684 0.08071005457649684 0.0 0.0
0.22125763257405304 0.22133521117328958 -1.0516818951902782e-05 -6.706178028461745e-05
0.46886062579665955 0.45253834600061815 0.004268240142034666 0.012054039654006603
0.9953416762790268 0.6950328838067219 0.09589074873477574 0.2044180437375292
1.9332426885812812 0.893016795896379 0.38004349626509065 0.6601823964198121
3.360050318069373 1.1125584762461287 0.9163679389373895 1.3311239028858535
5.333286556177771 1.3421623547554282 1.7589893110059869 2.2321348904163565
7.912843452544209 1.595355735441649 2.943417862384168 3.3740698547183925
11.22335904622131 1.8903423947990823 4.553970478277642 4.779046173144589
15.474248570592799 2.2475525094243496 6.729427299142035 6.4972687620264145
20.7515294362331 2.678173140313749 9.45763846410851 8.61571783181084
27.52540872533863 3.1782226039208434 13.140258896842248 11.206927224575542
35.83908969849414 3.707276190344074 17.821497007335005 14.310316500815073
45.491265891578664 4.153144099628537 23.488190576300624 17.849931215649512
55.78166263084823 4.367574548717476 29.830559634738815 21.583528447391927
65.5491164934464 4.303047335747426 36.121877950003686 25.124191207695254
72.11245943389211 3.3854433069485403 40.95665347092869 27.770362656014882
70.13348370333942 1.6687025469044503 40.80953937670323 27.655241779731753
80.9491665121762 18.9926278127247 36.57635387904102 25.380184820410456
70.13348370332949 1.6687025469021841 40.80953937669824 27.655241779729053
72.11245943387088 3.3854433069441856 40.95665347091775 27.77036265600895
65.54911649342313 4.303047335749232 36.121877949987564 25.124191207686334
55.78166263081952 4.367574548715569 29.83055963472192 21.583528447382044
45.49126589155011 4.153144099626591 23.488190576284072 17.849931215639472
35.839089698466076 3.7072761903429265 17.82149700731859 14.31031650080457
27.525408725309266 3.1782226039190187 13.140258896825873 11.206927224564367
20.75152943620566 2.678173140312821 9.457638464093167 8.615717831799673
15.474248570566472 2.2475525094226456 6.729427299128253 6.497268762015571
11.223359046198977 1.8903423947979126 4.553970478266176 4.779046173134895
7.912843452526028 1.5953557354390828 2.9434178623761103 3.3740698547108336
5.3332865561639675 1.3421623547538135 1.7589893110000765 2.2321348904100766
3.360050318059144 1.1125584762446565 0.9163679389334773 1.331123902881012
1.9332426885749239 0.8930167958948929 0.38004349626318934 0.6601823964168417
0.9953416762757694 0.6950328838054769 0.09589074873401823 0.20441804373627437
0.4688606257954814 0.45253834599965503 0.004268240141952186 0.0120540396538742
0.2212576325735968 0.2213352111728331 -1.0516818952822722e-05 -6.706178028350567e-05
0.08071005457634876 0.08071005457634876 0.0 0.0
0.017682725836137895 0.017682725836137895 0.0 0.0
0.0019818691276043583 0.0019818691276043583 0.0 0.0
0.0005034137380294631 0.0005034137380294631 0.0 0.0
0.01254256678863403 0.01254256678863403 0.0 0.0
0.08257501442142615 0.08257501442142615 0.0 0.0
0.25987993095481327 0.2598301941672173 2.014205224500502e-05 2.9594735350975778e-05
0.5973238520863747 0.5473072220198304 0.01592211192632294 0.034094518140221346
1.2554952150937446 0.8145317127336926 0.14907209244077063 0.2918914099192815
2.344754289727296 1.0466726122649748 0.4910685142078313 0.8070131632544901
3.9666259404244197 1.3304068616510378 1.1000692512555779 1.536149827517804
6.195245541713515 1.65431129937212 2.0294377540611497 2.5114964882802457
9.163506551181538 2.0510692459119118 3.3631535437834557 3.7492837614861685
13.01885656913095 2.5612402668570167 5.180768696963559 5.276847605310371
17.896481695686862 3.2203534026559346 7.519474048159463 7.156654244871467
24.156408228777032 4.040110292912154 10.648204724136717 9.468093211728158
32.042367691520234 5.023921423182351 14.732078017314652 12.286368251023227
41.60621828209769 6.062996382741476 19.912694859778423 15.63052703957779
52.45563006563679 6.919374557293798 26.14092586249706 19.395329645845933
63.54159181252766 7.277677217212183 32.937640814679604 23.32627378063591
73.3382036116619 6.934323747596126 39.45701378976119 26.946866074304598
80.63797175075574 6.375433166230387 44.561019902857204 29.701518681668126
78.05061107881542 1.7048361022646197 45.86859684558381 30.477178130966976
116.77543365713416 44.020419109061834 43.634467729227765 29.120546818844566
78.05061107880536 1.7048361022640255 45.86859684557763 30.477178130963694
80.63797175073447 6.375433166230219 44.561019902843434 29.701518681660804
73.33820361163104 6.934323747592607 39.45701378974373 26.946866074294736
63.54159181249323 7.277677217206797 32.937640814661016 23.326273780625414
52.45563006560383 6.919374557290405 26.14092586247853 19.395329645834888
41.60621828206159 6.062996382734684 19.91269485976047 15.630527039566418
32.04236769148699 5.023921423179418 14.732078017296462 12.286368251011128
24.156408228743096 4.040110292905858 10.648204724120589 9.468093211716639
17.89648169565582 3.220353402651359 7.519474048144435 7.156654244860023
13.018856569106392 2.5612402668558243 5.180768696950757 5.276847605299811
9.163506551161229 2.051069245908793 3.363153543774364 3.7492837614780745
6.195245541697858 1.6543112993700462 2.0294377540543778 2.5114964882734356
3.9666259404128694 1.330406861649326 1.1000692512510448 1.536149827512498
2.3447542897198597 1.0466726122634777 0.49106851420539865 0.8070131632509833
1.2554952150899035 0.8145317127322629 0.14907209244000622 0.2918914099176346
0.5973238520848045 0.547307222018761 0.015922111926155214 0.034094518139888064
0.2598799309543477 0.25983019416673514 2.0142052247102957e-05 2.9594735365520188e-05
0.08257501442131604 0.08257501442131604 0.0 0.0
0.012542566788592887 0.012542566788592887 0.0 0.0
0.0005034137380252003 0.0005034137380252003 0.0 0.0
CELL_DATA 800
SCALARS Stress float 6
LOOKUP_TABLE default
138.47684990474977 -499.3028779901832 -185.02616439440965 -104.10519712876571 0.0 0.0
392.41825710242824 -2.9974777607149967 121.5897179525267 62.8523581683917 0.0 0.0
371.90718057088503 2.0606877285617773 111.99417448492932 -6.770451091207638 0.0 0.0
434.2065763885241 -4.539109457386069 129.2536811417435 -12.02224078895073 0.0 0.0
504.1805583916433 -10.356987397869618 163.97672972705143 -10.791616430932473 0.0 0.0
570.4167465506159 0.05045538404242933 225.06315786908118 -9.064718541774504 0.0 0.0
633.7279092470718 9.329245546700928 285.21021282637616 -9.050076430641791 0.0 0.0
696.5753108334256 27.091148639295234 342.32773326676323 -9.83125492023878 0.0 0.0
759.82564501572 50.748473163231054 395.00811843462793 -10.76430856082096 0.0 0.0
823.8416715052524 78.72647881710566 445.3457022726483 -11.382620145681447 0.0 0.0
888.432616183323 109.13774358761944 494.6799559191914 -11.643724397291724 0.0 0.0
953.6098866133664 142.0859320280733 544.5042510079267 -11.580465213037693 0.0 0.0
1019.8743737685916 175.88879574652267 594.860707236865 -11.43806253521803 0.0 0.0
1087.7819043048758 211.25494063095067 646.6330574636196 -11.29316247020109 0.0 0.0
1158.0525126941807 249.70867369438164 701.0565191374096 -11.075880373395808 0.0 0.0
1230.1469414102232 291.67295319305236 758.1330561094865 -10.608493959490474 0.0 0.0
1301.5749812678753 336.08460145425795 816.0952153266878 -9.70806932564545 0.0 0.0
1368.139746233528 380.1653059973629 871.4185218241469 -8.229122757883744 0.0 0.0
1425.1312770894037 420.5245109611678 920.0216007752697 -6.609310657304736 0.0 0.0
1479.0115667978657 465.4686412483223 968.979739353769 -6.819489795437738 0.0 0.0
1479.0115667979742 465.4686412484405 968.9797393538138 6.8194897954471125 0.0 0.0
1425.1312770897373 420.524510961527 920.0216007754698 6.609310657354944 0.0 0.0
1368.1397462337584 380.16530599764013 871.418521824244 8.22912275791972 0.0 0.0
1301.5749812678712 336.0846014543173 816.0952153265845 9.708069325682295 0.0 0.0
1230.146941409829 291.6729531927313 758.1330561091817 10.608493959495627 0.0 0.0
1158.052512693457 249.7086736937398 701.0565191368715 11.075880373419212 0.0 0.0
1087.7819043046936 211.25494063087723 646.6330574634469 11.293162470199013 0.0 0.0
1019.8743737688061 175.8887957468809 594.8607072369333 11.438062535261476 0.0 0.0
953.609886613051 142.0859320279192 544.5042510076174 11.580465213002292 0.0 0.0
888.43261618287 109.13774358733889 494.67995591880634 11.643724397239225 0.0 0.0
823.8416715047138 78.72647881674825 445.3457022722044 11.382620145608975 0.0 0.0
759.8256450151044 50.74847316280767 395.008118434161 10.764308560840782 0.0 0.0
696.5753108330833 27.091148639171728 342.32773326645895 9.83125492027678 0.0 0.0
633.7279092465894 9.329245546440355 285.210212825971 9.050076430640523 0.0 0.0
570.416746549975 0.05045538358937662 225.06315786858437 9.064718541766286 0.0 0.0
504.18055839129397 -10.356987397979253 163.97672972682855 10.7916164309533 0.0 0.0
434.2065763883584 -4.5391094571813095 129.25368114175552 12.022240788904362 0.0 0.0
371.9071805707521 2.060687728556208 111.99417448489088 6.770451091228259 0.0 0.0
392.4182571023741 -2.9974777606545935 121.58971795249937 -62.85235816837785 0.0 0.0
138.47684990530664 -499.30287798965065 -185.02616439387606 104.1051971284065 0.0 0.0
46.389450649698205 -527.8139556295328 -236.19502122100164 -143.57831444350097 0.0 0.0
235.46621013348457 7.10666447174754 72.77186238156962 15.098499838591172 0.0 0.0
327.40887629883815 18.43913364250171 103.75391285607404 -10.222367169217582 0.0 0.0
390.81845544349585 -2.358767732994898 116.45504425886307 -31.514569622713637 0.0 0.0
473.2885234867443 -12.00358694922402 145.20045332308555 -31.07160710969561 0.0 0.0
544.3525796379346 -1.8937074711885948 203.08931344211913 -27.282591741079433 0.0 0.0
612.4617841140453 7.0907934610651076 265.67757826496336 -27.567956725062686 0.0 0.0
676.2512929452881 23.595596822737573 324.96348528716226 -28.692586569286735 0.0 0.0
738.2125826011373 45.416808244168394 378.27514421958676 -29.982940936784498 0.0 0.0
799.6733723951297 71.00625189070104 427.5506424004709 -30.664036358605525 0.0 0.0
860.9354756356801 98.74239156515438 474.6948408805028 -30.575837679276333 0.0 0.0
922.3441083723039 127.3651241154431 520.8927503954465 -29.94662439074089 0.0 0.0
983.9889858330562 157.43323030167846 567.2659434785239 -29.157554073651895 0.0 0.0
1047.3427406804446 188.93114682582467 614.9271277723444 -28.481349739109458 0.0 0.0
1112.8529461594865 222.95425438266778 664.8226957046348 -27.74114257052219 0.0 0.0
1179.8414954688312 260.09105628812426 716.9749050011873 -26.488150988960463 0.0 0.0
1246.2561399177534 299.55196951748803 769.9763916285577 -24.342204514740615 0.0 0.0
1308.951915267508 339.5897354739938 821.3516495427385 -21.146839525438406 0.0 0.0
1366.7587174196751 380.61427890223405 870.6168202213245 -17.392727808402775 0.0 0.0
1406.7382296220462 411.1135053150041 905.6657789922681 -12.07892976918719 0.0 0.0
1406.7382296218357 411.1135053148 905.6657789920807 12.078929769227123 0.0 0.0
1366.758717419616 380.61427890220807 870.6168202212414 17.39272780851382 0.0 0.0
1308.951915267093 339.58973547361995 821.3516495423677 21.146839525498354 0.0 0.0
1246.2561399166902 299.55196951647565 769.9763916277218 24.342204514729367 0.0 0.0
1179.8414954680304 260.09105628738735 716.9749050005101 26.488150988950586 0.0 0.0
1112.852946158761 222.95425438202307 664.8226957040275 27.741142570505943 0.0 0.0
1047.3427406796059 188.93114682508013 614.9271277716765 28.481349739124447 0.0 0.0
983.9889858326067 157.4332303013657 567.2659434781779 29.157554073698922 0.0 0.0
922.3441083721941 127.36512411549079 520.89275039534 29.946624390753662 0.0 0.0
860.9354756352832 98.74239156494586 474.69484088022847 30.57583767932359 0.0 0.0
799.6733723947905 71.00625189054429 427.55064240016804 30.664036358551563 0.0 0.0
738.2125826008082 45.416808244047246 378.2751442192948 29.98294093679601 0.0 0.0
676.2512929451811 23.595596822868586 324.963485286979 28.692586569220325 0.0 0.0
612.4617841137676 7.09079346103454 265.6775782646505 27.56795672497937 0.0 0.0
544.3525796377511 -1.8937074710907496 203.08931344192217 27.28259174107248 0.0 0.0
473.28852348651105 -12.00358694912496 145.20045332298375 31.07160710978545 0.0 0.0
390.8184554432911 -2.358767732941863 116.45504425882547 31.51456962271748 0.0 0.0
327.40887629872475 18.43913364242401 103.75391285601708 10.222367169253667 0.0 0.0
235.4662101336785 7.106664472016689 72.77186238170853 -15.098499838672309 0.0 0.0
46.38945065006544 -527.813955629128 -236.19502122059254 143.5783144432559 0.0 0.0
4.857646366066888 -525.747567166624 -245.40459838006828 -157.3533063039444 0.0 0.0
137.89910399728015 0.5944550641555431 41.548067718430694 -36.58793104192763 0.0 0.0
266.6812801343674 25.264199132279153 87.58364377999393 -29.47099195276718 0.0 0.0
345.7912162279953 2.5031902242912576 104.47507594836972 -49.49412617676634 0.0 0.0
431.8281501845391 -9.005586650252726 128.78069704715313 -53.17661677817273 0.0 0.0
516.0565071879507 -7.262741754628736 177.73324724398765 -48.18794178136642 0.0 0.0
586.6048796815676 5.9073754076378595 243.18146767005854 -46.374522567839996 0.0 0.0
651.2545857048794 19.9943271190214 303.7934105560084 -47.543208480491934 0.0 0.0
712.8367501021839 40.08822821637601 358.5376228431063 -48.87044964096633 0.0 0.0
772.022270385553 63.147604209977196 407.25164524430636 -49.40383220692216 0.0 0.0
829.981663142651 87.64761513631869 452.2193519991345 -48.94939569437619 0.0 0.0
887.1488707946594 112.95954473036747 495.24097414569394 -47.7298450750513 0.0 0.0
944.9901071852287 138.69563981898983 537.847008472032 -46.465132463820154 0.0 0.0
1003.8057227027668 166.34196313226153 581.4762349476297 -45.30922977646209 0.0 0.0
1064.2800530033505 195.83419780630794 626.6713525235052 -44.08773564478011 0.0 0.0
1126.0365659099284 227.81840289121965 673.6805279353641 -42.189044711465534 0.0 0.0
1187.4525306549124 262.13688754399465 721.6302190864665 -39.06909843875889 0.0 0.0
1247.301977660322 299.00243206346306 769.9925283697876 -34.44621626533445 0.0 0.0
1300.6661809774912 334.9642816097555 814.5631050928617 -27.812344547391454 0.0 0.0
1336.0035697290593 359.8704748959173 844.5581122507809 -16.943524368747724 0.0 0.0
1336.0035697294577 359.8704748963349 844.5581122510669 16.943524368809975 0.0 0.0
1300.666180977315 334.96428160961375 814.5631050927246 27.812344547504534 0.0 0.0
1247.3019776600438 299.0024320632334 769.992528369534 34.446216265422834 0.0 0.0
1187.4525306548653 262.13688754400397 721.6302190863238 39.06909843877251 0.0 0.0
1126.0365659095214 227.81840289089624 673.6805279349879 42.18904471152669 0.0 0.0
1064.2800530028649 195.83419780590185 626.6713525230963 44.08773564478352 0.0 0.0
1003.8057227026602 166.34196313228375 581.4762349474969 45.309229776569836 0.0 0.0
944.9901071848744 138.69563981877218 537.8470084716639 46.46513246387634 0.0 0.0
887.1488707942931 112.95954473017532 495.240974145308 47.7298450751378 0.0 0.0
829.9816631423057 87.64761513615649 452.2193519988249 48.94939569439586 0.0 0.0
772.0222703854461 63.14760421005895 407.2516452441654 49.40383220688157 0.0 0.0
712.8367501018043 40.08822821619532 358.5376228427811 48.87044964096117 0.0 0.0
651.2545857045761 19.994327118963753 303.7934105556958 47.5432084804979 0.0 0.0
586.6048796812241 5.90737540757172 243.18146766973572 46.374522567889414 0.0 0.0
516.0565071877386 -7.262741754504882 177.73324724381206 48.18794178136741 0.0 0.0
431.828150184265 -9.005586650150638 128.78069704707872 53.17661677810705 0.0 0.0
345.7912162277596 2.5031902242126147 104.47507594827809 49.49412617667649 0.0 0.0
266.68128013434136 25.264199132255797 87.58364377997913 29.47099195270099 0.0 0.0
137.8991039974939 0.5944550644942128 41.548067718596435 36.58793104173121 0.0 0.0
4.857646366338869 -525.7475671662861 -245.40459837970946 157.3533063037428 0.0 0.0
-9.163808175634841 -506.89428007092476 -231.79114967046831 -160.16087818000585 0.0 0.0
81.22539599663232 -10.898269634628837 21.098137908601043 -80.39463613859978 0.0 0.0
208.14483942958202 26.177428211789547 70.29668029241147 -55.62153361434431 0.0 0.0
296.8966329642798 6.525881343613751 91.02136618065428 -68.6332660146326 0.0 0.0
381.4466634022342 -5.510106969786293 113.01703192507468 -76.03506122639051 0.0 0.0
473.79740322127685 -9.568614616245798 152.3625839811023 -71.3892332912783 0.0 0.0
552.9241036756342 2.626690380862067 215.10974479719866 -66.21323616875931 0.0 0.0
621.2692550429673 17.0469121828768 278.84068573043294 -66.64979832206643 0.0 0.0
682.5944128775058 34.55143744175817 334.71852260332435 -67.45198059388356 0.0 0.0
739.8805192681411 54.94625339559081 383.43261705015743 -67.65224913056728 0.0 0.0
794.8285613991318 76.3642997719016 426.8924226643903 -66.77803118635379 0.0 0.0
848.5945155643577 98.15440676587518 467.33641995506486 -65.04783024996928 0.0 0.0
901.9051892880962 120.12530375809007 506.25465245468774 -63.30876204023558 0.0 0.0
956.7275917230461 143.60633810313502 546.0559482363299 -61.82263740816728 0.0 0.0
1012.429988061855 168.35954333308274 586.6336630447825 -60.174290720249026 0.0 0.0
1068.317600594055 195.12754182173217 628.1557765420124 -57.725997245184246 0.0 0.0
1125.0063517621506 224.42615929993124 671.2527345170786 -53.94477877978657 0.0 0.0
1180.674496156174 256.37733273977267 715.098324777581 -47.96806915900364 0.0 0.0
1230.3338868950373 287.40023735574164 755.3961352831686 -38.318169648221 0.0 0.0
1263.83922393529 308.8664691076461 782.787082699004 -22.12909820224886 0.0 0.0
1263.8392239353072 308.86646910767564 782.7870826989928 22.1290982023625 0.0 0.0
1230.3338868947405 287.40023735548124 755.3961352829156 38.31816964832045 0.0 0.0
1180.6744961555305 256.37733273918286 715.098324777106 47.96806915912927 0.0 0.0
1125.0063517618617 224.42615929969938 671.2527345168385 53.944778779833044 0.0 0.0
1068.317600593924 195.12754182169712 628.1557765418471 57.725997245268516 0.0 0.0
1012.4299880614647 168.35954333277158 586.6336630444331 60.174290720257005 0.0 0.0
956.7275917225049 143.60633810271264 546.055948235923 61.82263740825202 0.0 0.0
901.9051892876058 120.12530375772623 506.25465245433014 63.3087620402559 0.0 0.0
848.5945155642246 98.15440676589407 467.33641995495077 65.04783024997205 0.0 0.0
794.8285613986595 76.36429977156698 426.89242266403534 66.77803118629822 0.0 0.0
739.8805192676591 54.94625339530396 383.4326170497835 67.6522491305613 0.0 0.0
682.5944128770514 34.55143744151684 334.71852260293696 67.45198059389323 0.0 0.0
621.2692550425691 17.04691218270186 278.8406857300827 66.64979832201945 0.0 0.0
552.9241036751175 2.626690380618186 215.1097447967814 66.21323616874514 0.0 0.0
473.797403221071 -9.568614616004037 152.36258398100563 71.38923329127395 0.0 0.0
381.44666340209574 -5.510106969322284 113.01703192517935 76.03506122628754 0.0 0.0
296.8966329641835 6.5258813437708545 91.02136618067331 68.63326601455438 0.0 0.0
208.14483942963727 26.177428211886422 70.29668029245711 55.62153361426958 0.0 0.0
81.2253959967412 -10.898269634417467 21.09813790869712 80.39463613843539 0.0 0.0
-9.163808175485187 -506.8942800705821 -231.79114967014254 160.1608781798938 0.0 0.0
-10.23008240826097 -478.35255897679053 -206.62855768252456 -158.7485280295485 0.0 0.0
46.92364117096675 -21.986445878071123 7.481158587868684 -114.1966705831917 0.0 0.0
156.62125259716402 23.439230698708876 54.018144988761854 -82.68876482926572 0.0 0.0
245.49257241236822 9.666389976344792 76.54768871661389 -88.73501390820796 0.0 0.0
326.2386521554058 -1.6251540660855994 97.34709323303096 -97.42446312412986 0.0 0.0
420.3279636598838 -9.431286161546323 128.32832979260897 -96.69109236950152 0.0 0.0
511.08160100225746 -1.9721108255285182 183.1696563709341 -89.04115950971861 0.0 0.0
584.7263609213276 13.777615644360491 248.56069465913197 -85.81572824496428 0.0 0.0
646.3826149258855 29.03264148767105 305.89014560677396 -85.92987881462673 0.0 0.0
702.4809108538816 46.486645405890314 355.20964624159586 -85.50898891255173 0.0 0.0
754.9466912213893 64.78132306456459 397.9025233454881 -84.15330279808926 0.0 0.0
805.1187301439641 83.0395599068367 436.1100557228244 -81.90248807960523 0.0 0.0
854.8429339199452 101.44035732373749 472.24026207777104 -79.82741489904102 0.0 0.0
904.6919733475343 120.82189679279581 507.9141014043049 -77.96254098218293 0.0 0.0
955.4541194790006 140.9421414412127 543.9094524047637 -75.98114693114722 0.0 0.0
1006.9086437885817 162.42945507709962 580.6850797653949 -73.22717460049327 0.0 0.0
1057.7953654205894 186.05585545305516 618.0904063243448 -68.91372387923437 0.0 0.0
1108.4654075154272 212.16635886016277 656.5541050236645 -61.75565536125275 0.0 0.0
1154.9762288048807 238.1357446299699 692.8026630271398 -49.310212737448616 0.0 0.0
1188.336003672452 257.00275690841465 718.8457291127354 -28.0326324467721 0.0 0.0
1188.33600367236 257.00275690834087 718.845729112665 28.032632446886844 0.0 0.0
1154.9762288051254 238.1357446302565 692.8026630273416 49.31021273754081 0.0 0.0
1108.4654075156589 212.1663588604839 656.5541050238581 61.755655361434236 0.0 0.0
1057.7953654207572 186.05585545330348 618.090406324437 68.9137238793286 0.0 0.0
1006.9086437878827 162.42945507646982 580.6850797648873 73.22717460053536 0.0 0.0
955.4541194788483 140.94214144115395 543.9094524046169 75.98114693117157 0.0 0.0
904.6919733471794 120.82189679255892 507.9141014040049 77.96254098225711 0.0 0.0
854.84293391959 101.44035732352795 472.2402620775199 79.82741489911402 0.0 0.0
805.1187301430296 83.03955990600168 436.11005572213037 81.90248807952446 0.0 0.0
754.9466912211585 64.78132306449572 397.90252334523404 84.15330279806733 0.0 0.0
702.4809108537762 46.48664540596327 355.2096462414258 85.50898891245905 0.0 0.0
646.3826149254108 29.032641487397342 305.89014560638145 85.92987881460945 0.0 0.0
584.7263609208219 13.77761564406671 248.56069465868939 85.81572824487725 0.0 0.0
511.08160100177827 -1.9721108257216535 183.1696563705762 89.04115950968479 0.0 0.0
420.3279636593669 -9.431286161807783 128.32832979233592 96.69109236939073 0.0 0.0
326.23865215507067 -1.6251540662209054 97.34709323289768 97.42446312402963 0.0 0.0
245.4925724122158 9.666389976291669 76.54768871655223 88.7350139080948 0.0 0.0
156.62125259712957 23.439230698681925 54.01814498874344 82.68876482908851 0.0 0.0
46.92364117100624 -21.98644587790779 7.4811585879295315 114.19667058294617 0.0 0.0
-10.23008240814039 -478.352558976489 -206.6285576822239 158.7485280294201 0.0 0.0
-5.777974999336109 -443.5205660584951 -176.48472569651412 -155.71452842176762 0.0 0.0
24.034092720655106 -31.33714822903949 -2.1909166525153143 -138.9436109401172 0.0 0.0
111.90822347010116 18.947542861421862 39.2567298994569 -107.38602322475323 0.0 0.0
193.7641745864733 12.270073299711221 61.81027436585535 -108.3165256652457 0.0 0.0
268.29263547152016 0.5714909375909245 80.61667974538886 -117.539025879219 0.0 0.0
351.6883588194943 -7.0644266156840105 105.23357308588305 -120.97984190305327 0.0 0.0
450.0233515850441 -4.37780651770978 149.60612025855164 -114.99096394298239 0.0 0.0
535.111447348908 8.390438971201437 210.51839702562364 -107.25185126385963 0.0 0.0
602.4507288766963 23.284440049996398 270.53719095872003 -104.5471182878666 0.0 0.0
658.2394563962857 37.920892273440955 320.98187145402 -103.12125598962672 0.0 0.0
708.3768216212102 52.73283564375892 363.38440525000624 -101.12674510140013 0.0 0.0
755.734856543235 67.68280152874168 400.5028894635437 -98.43797319862492 0.0 0.0
801.666026180307 82.71602624986535 434.34870648796954 -95.96824842325063 0.0 0.0
847.394704944631 97.9877824915693 466.6832858366462 -93.88930391788423 0.0 0.0
893.3646011979276 113.45290796674695 498.34987489542544 -91.67206299354918 0.0 0.0
938.9844285651521 130.1263151197704 529.9730781802112 -88.55444080734271 0.0 0.0
984.7776842409571 147.54504346464498 561.8249665730154 -83.97039372717983 0.0 0.0
1029.8328269345343 166.52888378512154 593.9866878575896 -75.93618112319281 0.0 0.0
1072.8304830450431 186.87705090918254 625.731228551117 -61.11598563610619 0.0 0.0
1107.4058606847495 203.41251613757913 651.2476048617385 -35.07966306311374 0.0 0.0
1107.4058606846302 203.41251613749358 651.2476048616976 35.079663063275916 0.0 0.0
1072.8304830447307 186.87705090894178 625.731228550915 61.11598563630464 0.0 0.0
1029.8328269338049 166.5288837844703 593.986687857055 75.93618112337347 0.0 0.0
984.7776842404696 147.5450434642464 561.8249665725893 83.97039372731118 0.0 0.0
938.9844285650987 130.1263151198217 529.9730781801023 88.55444080740259 0.0 0.0
893.3646011977983 113.45290796671154 498.3498748952742 91.67206299357281 0.0 0.0
847.3947049440249 97.98778249102855 466.68328583618893 93.88930391784828 0.0 0.0
801.6660261799037 82.7160262495908 434.3487064876457 95.96824842330426 0.0 0.0
755.7348565431544 67.68280152884023 400.50288946342846 98.43797319868276 0.0 0.0
708.376821621043 52.73283564378639 363.3844052498066 101.12674510139325 0.0 0.0
658.2394563961341 37.92089227343657 320.981871453798 103.12125598950995 0.0 0.0
602.4507288763672 23.28444004989599 270.53719095840387 104.54711828786192 0.0 0.0
535.1114473485413 8.390438971163071 210.51839702531714 107.25185126388024 0.0 0.0
450.02335158467076 -4.377806517666421 149.60612025834394 114.99096394300781 0.0 0.0
351.6883588190421 -7.064426615854822 105.23357308569084 120.9798419029492 0.0 0.0
268.29263547131046 0.5714909375083179 80.61667974530297 117.53902587911276 0.0 0.0
193.76417458633426 12.270073299639433 61.81027436579211 108.31652566511119 0.0 0.0
111.90822347005152 18.94754286145549 39.256729899452104 107.38602322455894 0.0 0.0
24.034092720678057 -31.337148228929 -2.1909166524752814 138.94361093988024 0.0 0.0
-5.77797499923377 -443.5205660581465 -176.4847256962215 155.71452842167514 0.0 0.0
-0.1773390789814684 -403.4803022590986 -145.0685375364872 -151.7653840688177 0.0 0.0
6.134349616398923 -40.02940369682775 -10.168516224128648 -156.2494272211424 0.0 0.0
72.47421475329392 14.33153427364659 26.041724708082146 -128.22715202832796 0.0 0.0
143.0756994583961 14.272709993799847 47.20452283565877 -126.2875882883972 0.0 0.0
207.82764554704556 2.469365159825113 63.07929923673701 -135.46934023981308 0.0 0.0
279.91193738782744 -4.374252095475527 82.96071849560472 -143.020630939388 0.0 0.0
371.5676830208102 -4.297248150059426 116.19246629738274 -141.38336969169615 0.0 0.0
465.6055646655525 3.4779437643916893 166.98179575202485 -132.2571084452877 0.0 0.0
543.0485769564123 16.124051077905175 225.10360989689553 -124.71825228091694 0.0 0.0
603.4580555407474 29.174702829544724 277.9262850993646 -120.84078619467337 0.0 0.0
652.3419233115432 40.31835126109168 320.60073285312455 -117.92608493480434 0.0 0.0
697.5112197564961 52.07259675873818 357.72285667049766 -114.72857701237874 0.0 0.0
740.186142611668 63.62924535004114 390.34836090360807 -111.9398046590085 0.0 0.0
781.7347709889809 75.32049783840229 420.303702465491 -109.59592626841331 0.0 0.0
822.3690192259191 86.13320383101052 447.8490022500652 -107.23101058327185 0.0 0.0
863.6259738727383 97.90175305023078 475.25944328967046 -104.0137926167774 0.0 0.0
903.5287660160676 109.44195369092293 501.4203536449216 -98.97949279234577 0.0 0.0
941.8529945542289 120.4145579938623 526.3557745413736 -90.42307585491186 0.0 0.0
981.0935075971106 132.96495340323656 552.4335739097093 -74.14062423714957 0.0 0.0
1018.4575859855386 146.98060468371781 578.1434429232859 -43.92829466649036 0.0 0.0
1018.4575859852574 146.98060468346156 578.1434429231095 43.928294666641094 0.0 0.0
981.093507596823 132.9649534030565 552.4335739095561 74.14062423740737 0.0 0.0
941.8529945539826 120.41455799371434 526.3557745411845 90.42307585509658 0.0 0.0
903.5287660159001 109.4419536908666 501.42035364479926 98.97949279250321 0.0 0.0
863.6259738724434 97.90175305000787 475.2594432894601 104.01379261680638 0.0 0.0
822.369019226146 86.13320383136578 447.84900225023875 107.23101058332527 0.0 0.0
781.7347709892053 75.32049783878047 420.30370246562677 109.59592626849312 0.0 0.0
740.1861426111524 63.62924534967784 390.34836090322057 111.93980465910772 0.0 0.0
697.5112197557884 52.0725967581027 357.7228566699449 114.7285770122855 0.0 0.0
652.3419233109449 40.31835126051382 320.60073285265156 117.92608493463507 0.0 0.0
603.458055540386 29.174702829335608 277.9262850990186 120.8407861945812 0.0 0.0
543.0485769561706 16.12405107797225 225.1036098966709 124.71825228092382 0.0 0.0
465.6055646651695 3.4779437643243227 166.98179575174024 132.2571084452468 0.0 0.0
371.56768302036113 -4.2972481501172135 116.19246629718526 141.38336969165573 0.0 0.0
279.9119373875655 -4.374252095445164 82.96071849553435 143.0206309392473 0.0 0.0
207.82764554698286 2.4693651600133855 63.07929923678143 135.46934023962578 0.0 0.0
143.075699458292 14.272709993791844 47.20452283562514 126.2875882882136 0.0 0.0
72.47421475328431 14.331534273794974 26.04172470812378 128.22715202813364 0.0 0.0
6.134349616448029 -40.02940369666335 -10.168516224064597 156.24942722097376 0.0 0.0
-0.17733907892986878 -403.4803022587437 -145.06853753624267 151.76538406870685 0.0 0.0
1.6085232767679436 -359.9431247614179 -117.60390905039011 -147.3076150568716 0.0 0.0
-10.503988821949756 -47.96887917384767 -17.541843906117695 -166.74412402215668 0.0 0.0
37.05870920199207 10.548002983655167 14.28201365569417 -145.06509807066462 0.0 0.0
93.85227819227293 15.477191253943342 32.79884083386488 -141.65538076154957 0.0 0.0
146.20027431591822 5.291632788967413 45.44085297898553 -150.23189281783115 0.0 0.0
201.51202799262177 -2.5454500353627374 59.81739746224156 -161.126609424099 0.0 0.0
273.86878359994466 -2.62916071116987 83.38274216051337 -165.2248695704938 0.0 0.0
368.6755983376067 1.4128756840675374 120.80159388532938 -159.74706451800955 0.0 0.0
457.21687487391694 8.309894517969724 168.87578718568778 -149.03884547978353 0.0 0.0
526.2683965936842 19.44675587338837 220.32835202005754 -139.8899375506693 0.0 0.0
579.9381172027122 27.52293946294158 264.2566691234317 -135.4344631275816 0.0 0.0
623.3851594558947 35.771884335229245 301.57960672591594 -131.07192116232338 0.0 0.0
663.6895135364745 44.489704843363214 334.6970884218925 -127.88557586572668 0.0 0.0
701.6694293392146 52.42929166097933 363.75163712916753 -125.2947816017446 0.0 0.0
738.2883767281421 59.4315051258327 389.4548148470756 -122.85682353551123 0.0 0.0
773.718198039073 65.64130748388146 412.38008655750014 -119.58633691891264 0.0 0.0
809.5303413404404 71.85432164134824 434.38473150635684 -114.24442766975149 0.0 0.0
841.833630464681 75.09298535478547 452.857768859796 -104.98058784057483 0.0 0.0
873.2539642480849 76.28160488389852 469.65057302643453 -88.30603553631398 0.0 0.0
913.6544673952853 85.73167756682736 494.6787879020418 -55.44665875408651 0.0 0.0
913.6544673954135 85.73167756697524 494.6787879021585 55.44665875413862 0.0 0.0
873.253964247638 76.28160488355246 469.6505730261672 88.30603553662306 0.0 0.0
841.8336304646991 75.09298535497797 452.85776885977714 104.98058784085401 0.0 0.0
809.5303413406266 71.8543216417432 434.3847315064334 114.24442766999852 0.0 0.0
773.7181980385106 65.64130748339774 412.38008655704624 119.58633691892814 0.0 0.0
738.2883767277615 59.43150512550406 389.4548148467622 122.85682353550929 0.0 0.0
701.6694293386821 52.429291660479166 363.7516371287656 125.29478160171767 0.0 0.0
663.6895135362694 44.489704843313476 334.6970884217278 127.88557586582783 0.0 0.0
623.385159455837 35.771884335368505 301.5796067258412 131.0719211623675 0.0 0.0
579.9381172026576 27.52293946312094 264.2566691233035 135.43446312760958 0.0 0.0
526.2683965936849 19.446755873802047 220.32835202002113 139.88993755073565 0.0 0.0
457.216874873542 8.309894517961602 168.87578718545382 149.03884547984194 0.0 0.0
368.6755983371095 1.412875683896436 120.80159388507818 159.7470645180001 0.0 0.0
273.8687835995514 -2.6291607112700177 83.38274216035458 165.224869570401 0.0 0.0
201.5120279923894 -2.5454500354876854 59.81739746213398 161.1266094239194 0.0 0.0
146.20027431581448 5.291632788939543 45.440852978947106 150.23189281759454 0.0 0.0
93.85227819221662 15.477191253943616 32.79884083384807 141.65538076137238 0.0 0.0
37.05870920197125 10.548002983713348 14.282013655705379 145.06509807049594 0.0 0.0
-10.503988821991872 -47.96887917383488 -17.541843906126534 166.7441240219929 0.0 0.0
1.6085232767130222 -359.94312476109513 -117.60390905024452 147.3076150567539 0.0 0.0
-5.597110829780544 -314.3200332618192 -98.68465673754383 -140.12608329965866 0.0 0.0
-26.838055885024815 -54.72116436610618 -24.4667983298065 -173.4390798610286 0.0 0.0
4.763368569567001 7.808054243291122 3.7714268438574363 -157.651484932575 0.0 0.0
46.26656134460227 16.13694499306078 18.719938177798483 -153.76566392820786 0.0 0.0
83.99884161961432 8.362507647114969 27.705333805177283 -161.26199115586815 0.0 0.0
120.99557371518635 0.48836455323781003 36.42681374519802 -174.11802618389382 0.0 0.0
166.5914001013594 -1.6766631180362062 50.250272201610606 -183.2180576368178 0.0 0.0
230.71409473370002 0.9147717742926371 72.53538231338311 -183.37607925667044 0.0 0.0
316.86295033062856 4.659605235291337 104.69876722048619 -176.83813804825724 0.0 0.0
400.18872806176495 8.527406597854998 143.45105224477388 -164.51279746858808 0.0 0.0
464.8405429677987 15.115318313749512 184.20279103987556 -154.9226816970977 0.0 0.0
512.2175341113298 18.964322183824432 219.5323704271112 -148.9733321428149 0.0 0.0
552.8635359452728 24.819276632528332 252.95993931104698 -144.73349261408464 0.0 0.0
589.0040839725689 29.58631361180337 283.04126179929295 -141.4036152230335 0.0 0.0
621.7473795261736 32.80676940320145 308.9659347598697 -138.56693375479995 0.0 0.0
652.3160460885143 34.06286638016072 330.5312072342283 -135.33950645628963 0.0 0.0
683.4842112588547 33.49139158804017 349.10262366820956 -130.0121299449539 0.0 0.0
716.5739912984984 32.13137861821865 366.9973428829964 -119.64156291173732 0.0 0.0
740.18340701954 18.91607425742731 374.08176154005577 -102.95775425741117 0.0 0.0
779.9241546548029 15.232080224160086 392.4603623511821 -70.76354462275549 0.0 0.0
779.924154654925 15.232080224340478 392.46036235127025 70.76354462291822 0.0 0.0
740.1834070195251 18.916074257571324 374.0817615400593 102.95775425778247 0.0 0.0
716.573991298338 32.13137861820482 366.997342882878 119.64156291199251 0.0 0.0
683.4842112587672 33.49139158807313 349.10262366810207 130.01212994509567 0.0 0.0
652.3160460881475 34.06286637976983 330.53120723390924 135.33950645625754 0.0 0.0
621.7473795257606 32.80676940286712 308.96593475959645 138.56693375479375 0.0 0.0
589.0040839726895 29.586313611952882 283.041261799314 141.40361522301703 0.0 0.0
552.8635359451658 24.819276632617623 252.9599393109823 144.73349261423456 0.0 0.0
512.2175341108017 18.96432218334471 219.53237042668917 148.9733321427561 0.0 0.0
464.8405429673946 15.115318313445528 184.2027910395496 154.9226816970601 0.0 0.0
400.18872806145754 8.527406597942363 143.45105224461918 164.51279746858287 0.0 0.0
316.86295033026175 4.659605235326948 104.69876722034546 176.8381380482843 0.0 0.0
230.71409473348058 0.9147717743886705 72.53538231333296 183.3760792566179 0.0 0.0
166.59140010120421 -1.6766631179356555 50.2502722015889 183.2180576366853 0.0 0.0
120.99557371490478 0.4883645528561198 36.42681374500083 174.1180261836901 0.0 0.0
83.99884161952208 8.362507646955825 27.705333805102537 161.26199115567357 0.0 0.0
46.26656134468188 16.13694499324239 18.71993817787726 153.76566392800973 0.0 0.0
4.763368569568604 7.808054243358908 3.771426843878253 157.65148493240844 0.0 0.0
-26.838055885046778 -54.72116436607867 -24.46679832980511 173.43907986088675 0.0 0.0
-5.597110829844761 -314.32003326150976 -98.68465673744771 140.1260832994936 0.0 0.0
-14.643433157247614 -268.6704828782209 -84.99272062773846 -130.42339999716026 0.0 0.0
-41.13919613435726 -58.67121679440173 -29.940709795298453 -176.51928031079564 0.0 0.0
-25.195595946798438 5.545205184533942 -5.894964603772525 -166.22192713022068 0.0 0.0
0.35989128563570016 16.518633832816917 5.06332782966678 -162.0246060615117 0.0 0.0
21.84789515719613 11.253699474253889 9.928603818999951 -168.16392632365904 0.0 0.0
38.69582878876811 4.2432083099772555 12.883335221461028 -180.94206981284088 0.0 0.0
55.522418783309334 0.4355738419314301 17.023332914090567 -192.43858927594965 0.0 0.0
77.83009671516645 -0.0036823713938964886 24.0868771653172 -198.4117735823414 0.0 0.0
109.27692115498738 1.6144742081892502 35.10912889638997 -194.52289408678445 0.0 0.0
147.43637535877866 2.29288962471054 48.43456465133804 -187.35527360910572 0.0 0.0
194.80106573046544 5.262900498137483 66.36508511850965 -176.3707149892224 0.0 0.0
241.24578035001636 5.304290988605544 84.40332426658817 -169.47256509768704 0.0 0.0
282.9071865251824 7.333315583039358 105.4284825801524 -163.8601265052191 0.0 0.0
323.3545994869632 9.330917837602641 128.86972458028663 -159.57187805538126 0.0 0.0
364.6568628818492 8.047373981506794 153.995853785304 -155.66230543770897 0.0 0.0
403.6971342605426 3.5893515223711745 177.8793411169316 -151.47291985156227 0.0 0.0
442.0323552819919 -4.704841931186365 198.93087129598104 -145.8352233569724 0.0 0.0
488.3917007421522 -14.008606397973807 223.24584257846362 -136.38538758170364 0.0 0.0
539.585933783725 -26.991759706961787 248.26526080895624 -116.71558994526322 0.0 0.0
564.0871309569164 -77.1230071292742 239.92986817785237 -88.1432307142891 0.0 0.0
564.0871309571869 -77.12300712890595 239.92986817804828 88.14323071448632 0.0 0.0
539.585933783796 -26.991759706842714 248.26526080900095 116.71558994564177 0.0 0.0
488.3917007424778 -14.008606397349709 223.24584257876901 136.38538758204058 0.0 0.0
442.03235528203356 -4.70484193121338 198.9308712959807 145.8352233570884 0.0 0.0
403.69713426055034 3.5893515221686414 177.87934111684856 151.4729198514462 0.0 0.0
364.6568628820084 8.047373981839726 153.99585378542247 155.66230543773975 0.0 0.0
323.3545994869038 9.330917837521909 128.8697245802326 159.57187805547176 0.0 0.0
282.90718652518757 7.333315583028419 105.42848258012341 163.8601265053727 0.0 0.0
241.2457803500833 5.304290988909845 84.4033242666749 169.47256509769403 0.0 0.0
194.80106573075483 5.262900498807603 66.3650851187853 176.37071498918198 0.0 0.0
147.43637535875897 2.2928896247280566 48.434564651326326 187.35527360902975 0.0 0.0
109.2769211549247 1.614474208219658 35.10912889637363 194.52289408684788 0.0 0.0
77.830096715139 -0.003682371390348216 24.08687716530642 198.4117735822993 0.0 0.0
55.52241878334548 0.435573842061836 17.02333291413911 192.43858927584853 0.0 0.0
38.69582878889829 4.2432083103271365 12.883335221605488 180.94206981261672 0.0 0.0
21.847895157379984 11.253699474576953 9.928603819152228 168.16392632346393 0.0 0.0
0.35989128572576057 16.518633832940328 5.063327829730863 162.02460606127903 0.0 0.0
-25.19559594675816 5.545205184611179 -5.894964603737381 166.22192712998714 0.0 0.0
-41.13919613435836 -58.671216794346705 -29.940709795283006 176.51928031061738 0.0 0.0
-14.643433157326863 -268.6704828779952 -84.99272062770535 130.42339999697586 0.0 0.0
-21.42764430698042 -224.36907198726044 -73.7326143621145 -119.00269746961696 0.0 0.0
-52.80623786420731 -58.951449575732916 -33.525387081486485 -175.6455206175932 0.0 0.0
-53.06807336070164 3.4844476672557843 -14.874559894428932 -170.7295228356373 0.0 0.0
-43.91900329882792 16.620946208646966 -8.188839493336047 -166.2527470533048 0.0 0.0
-39.63692830608054 13.80655637620899 -7.744826245542989 -170.54821358130908 0.0 0.0
-43.795140375624754 7.935758508569274 -10.750496643572877 -182.0410314198282 0.0 0.0
-56.4282143051102 3.0059410432260205 -16.26347187138327 -192.5603567083889 0.0 0.0
-77.55846653148743 0.5405227950481812 -23.84317502495797 -198.48854430042164 0.0 0.0
-108.911865100975 -1.7281546463401671 -35.02704807383836 -194.5089760112222 0.0 0.0
-147.17860645222808 -2.395395625696608 -48.381131794613005 -187.34153758930546 0.0 0.0
-194.73388755402684 -5.001141323343514 -66.18479626477507 -176.38200149323484 0.0 0.0
-241.61108242540652 -4.592697411345235 -84.27172955951312 -169.3125194258681 0.0 0.0
-284.84087578382514 -6.432344356398907 -105.83229102152256 -163.5076019409375 0.0 0.0
-327.4424326169543 -9.457166784357 -130.66863987703715 -159.2337149379942 0.0 0.0
-367.66303067297684 -13.891676195566625 -157.70654110865658 -156.36885532677763 0.0 0.0
-396.2857543314259 -22.954045864777 -182.9139547465724 -155.64915703019875 0.0 0.0
-397.4485882771563 -32.51599983456586 -196.90958559921822 -157.06024960059236 0.0 0.0
-346.9399746349071 -43.34758021525788 -190.80037798137005 -160.42192918028977 0.0 0.0
-185.03180066443898 -37.94094322853077 -119.7422827490175 -159.73712445708554 0.0 0.0
34.91135131116167 -162.12170698017178 -54.76771539007141 -116.7158345213884 0.0 0.0
34.91135131107572 -162.12170698027978 -54.767715390168405 116.71583452178461 0.0 0.0
-185.03180066451105 -37.940943228490866 -119.74228274906172 159.73712445750533 0.0 0.0
-346.9399746349696 -43.34758021544256 -190.8003779814206 160.42192918063037 0.0 0.0
-397.4485882768702 -32.5159998343744 -196.90958559900233 157.06024960068817 0.0 0.0
-396.28575433158886 -22.954045865392516 -182.91395474673817 155.64915703018974 0.0 0.0
-367.6630306726533 -13.891676195610223 -157.7065411085342 156.36885532683823 0.0 0.0
-327.4424326164824 -9.457166783951763 -130.66863987670706 159.23371493800806 0.0 0.0
-284.8408757835224 -6.4323443567565235 -105.83229102147445 163.50760194110137 0.0 0.0
-241.61108242481563 -4.592697411114077 -84.27172955923182 169.31251942590555 0.0 0.0
-194.73388755352573 -5.001141323472908 -66.18479626463325 176.38200149321267 0.0 0.0
-147.178606451992 -2.395395626259189 -48.38113179469585 187.34153758923793 0.0 0.0
-108.9118651007164 -1.7281546464725892 -35.02704807379109 194.5089760112731 0.0 0.0
-77.55846653102356 0.5405227956323388 -23.843175024639045 198.48854430037434 0.0 0.0
-56.42821430479127 3.005941043635931 -16.263471871161485 192.56035670825747 0.0 0.0
-43.79514037538408 7.93575850888936 -10.750496643405057 182.0410314196036 0.0 0.0
-39.63692830596773 13.806556376267265 -7.7448262454920265 170.5482135811436 0.0 0.0
-43.919003298738865 16.620946208622172 -8.188839493317033 166.25274705312177 0.0 0.0
-53.068073360602625 3.4844476673812412 -14.874559894361973 170.72952283544183 0.0 0.0
-52.80623786419156 -58.95144957573198 -33.52538708148237 175.64552061745735 0.0 0.0
-21.427644306976056 -224.3690719870694 -73.73261436205748 119.00269746950939 0.0 0.0
-23.31587150394509 -182.48900918897476 -61.74146420787594 -106.85501036205068 0.0 0.0
-62.48327156845461 -56.491589382454144 -35.692114572632846 -170.91091819040057 0.0 0.0
-78.95521921175076 1.838438819103359 -23.1340772163881 -171.01959513361558 0.0 0.0
-86.60417818194036 16.331615722594673 -21.076035707356017 -166.3241535098823 0.0 0.0
-99.90208708433111 15.835205814504745 -25.21241022611589 -168.19695261026845 0.0 0.0
-125.18713640829324 11.000750870370627 -34.356509931353976 -176.60456348144047 0.0 0.0
-167.28061354623762 4.996633488886365 -49.472757850571405 -184.1602762724275 0.0 0.0
-230.45735869241838 -0.4487060061954873 -72.31556189698023 -183.4976101112837 0.0 0.0
-316.511446272412 -4.788161356596577 -104.62157707303238 -176.81612676953927 0.0 0.0
-400.0132733569154 -8.563380965584749 -143.3852465152549 -164.46858422055777 0.0 0.0
-464.68910577475043 -14.90988294983855 -184.0792239292714 -154.84844707407282 0.0 0.0
-512.1172692535689 -18.343758228815936 -219.28752765240864 -148.6928075204573 0.0 0.0
-553.0881973844428 -23.850897580101936 -252.70798138380852 -144.03666895237347 0.0 0.0
-590.6673794859419 -29.926378598957193 -283.9612393072365 -140.68216308847553 0.0 0.0
-626.5244531631924 -38.4487305442334 -313.70896398299647 -139.39864877612234 0.0 0.0
-659.4798802286001 -50.467237628706926 -341.5091059890972 -141.27260600466735 0.0 0.0
-687.9702571351124 -67.66916783599581 -367.7922809310636 -147.64628672498472 0.0 0.0
-707.2710300296758 -89.2330212822591 -390.41775868539236 -158.69978941821515 0.0 0.0
-740.7322358950555 -143.2938492437307 -432.372050313094 -168.53865037932513 0.0 0.0
-708.3364233795902 -200.05503629799102 -438.8605393275891 -172.2274582718504 0.0 0.0
-708.3364233798744 -200.05503629845296 -438.8605393278346 172.22745827211926 0.0 0.0
-740.732235895255 -143.29384924415336 -432.3720503132481 168.53865037964636 0.0 0.0
-707.2710300295055 -89.23302128228039 -390.41775868529083 158.69978941844923 0.0 0.0
-687.9702571350667 -67.66916783595985 -367.79228093097754 147.64628672499913 0.0 0.0
-659.4798802285619 -50.467237628800035 -341.5091059890645 141.27260600463387 0.0 0.0
-626.5244531630198 -38.44873054415942 -313.7089639828481 139.3986487761582 0.0 0.0
-590.6673794855149 -29.92637859864761 -283.96123930691164 140.682163088466 0.0 0.0
-553.0881973841704 -23.8508975801085 -252.7079813836093 144.03666895248736 0.0 0.0
-512.1172692536896 -18.343758229449328 -219.28752765248723 148.6928075205733 0.0 0.0
-464.6891057745531 -14.909882950123247 -184.0792239291354 154.84844707405728 0.0 0.0
-400.01327335639974 -8.563380965592764 -143.38524651496442 164.4685842205006 0.0 0.0
-316.51144627180213 -4.788161356608736 -104.62157707279749 176.81612676958142 0.0 0.0
-230.45735869190878 -0.4487060060916983 -72.3155618967818 183.49761011130713 0.0 0.0
-167.2806135460005 4.996633488759055 -49.47275785052855 184.16027627227652 0.0 0.0
-125.1871364082093 11.000750870089266 -34.35650993141328 176.60456348123645 0.0 0.0
-99.9020870842054 15.835205814385922 -25.21241022611583 168.1969526100591 0.0 0.0
-86.60417818182087 16.33161572254503 -21.076035707335645 166.32415350969057 0.0 0.0
-78.95521921168223 1.8384388190752428 -23.134077216376458 171.01959513341347 0.0 0.0
-62.48327156841781 -56.491589382426625 -35.6921145726139 170.91091819023745 0.0 0.0
-23.315871503911133 -182.48900918880656 -61.741464207815305 106.85501036190763 0.0 0.0
-23.90584734719061 -143.7955194029661 -50.310410025047005 -94.51148722319566 0.0 0.0
-70.74524314165237 -51.63396139074443 -36.71376135971903 -162.26485445666953 0.0 0.0
-103.12867235945697 0.6161160519286177 -30.750816751640038 -167.08223079679007 0.0 0.0
-127.60669332893946 15.677457841768252 -33.56799906194638 -162.1084889134129 0.0 0.0
-158.63397790178516 16.886350849863447 -42.537568814574186 -161.15891055367072 0.0 0.0
-204.68114606040388 12.887764673477163 -57.757257171197466 -165.1148363634367 0.0 0.0
-274.1428084605444 5.709424718482294 -82.58012084477959 -166.29742297209478 0.0 0.0
-368.3421227815907 -1.118602259399724 -120.61322148997473 -159.9751282260021 0.0 0.0
-457.12548094933413 -8.425232941080278 -168.837306330854 -148.96117393268537 0.0 0.0
-526.2654539703763 -19.484549544737604 -220.33072617074848 -139.81655633616353 0.0 0.0
-579.8819650559244 -27.398236507140304 -264.21082075400204 -135.3671429481242 0.0 0.0
-623.22926581947 -35.28650571464475 -301.335293107556 -130.78595218041676 0.0 0.0
-663.5617780612479 -43.57136710351798 -334.2096852094335 -127.08890109778037 0.0 0.0
-702.6559160496181 -52.397737948338424 -364.0984552919583 -124.22085800630002 0.0 0.0
-742.1291351343967 -63.54599121209842 -393.16838633259056 -123.14141020796431 0.0 0.0
-781.255721082774 -78.78334060733262 -422.4724873114455 -125.28176663125168 0.0 0.0
-819.0096670183932 -99.39296702477617 -452.80829043212157 -132.01867209116494 0.0 0.0
-862.2623301214497 -135.2188961985818 -492.7549867990124 -141.20706922521921 0.0 0.0
-908.7914670617822 -189.02477794776993 -542.5424753221405 -150.1594165745014 0.0 0.0
-965.3972301034341 -291.18814557037507 -616.0796410125498 -158.38320087504445 0.0 0.0
-965.3972301036378 -291.1881455707206 -616.0796410128 158.3832008752588 0.0 0.0
-908.7914670609059 -189.02477794694818 -542.5424753216278 150.1594165746707 0.0 0.0
-862.2623301205866 -135.21889619776442 -492.7549867984553 141.20706922533998 0.0 0.0
-819.0096670179635 -99.39296702438298 -452.80829043177243 132.01867209116278 0.0 0.0
-781.2557210828359 -78.7833406075827 -422.4724873114724 125.2817666313579 0.0 0.0
-742.1291351341125 -63.54599121198451 -393.16838633243333 123.14141020806359 0.0 0.0
-702.6559160493988 -52.39773794823926 -364.09845529179444 124.22085800633809 0.0 0.0
-663.5617780607324 -43.57136710318753 -334.20968520907206 127.08890109784207 0.0 0.0
-623.2292658189716 -35.28650571431267 -301.3352931071624 130.7859521803917 0.0 0.0
-579.8819650551706 -27.39823650654315 -264.21082075342326 135.3671429480509 0.0 0.0
-526.2654539700424 -19.484549544763222 -220.3307261704844 139.81655633615574 0.0 0.0
-457.125480948866 -8.425232941104884 -168.8373063305759 148.96117393275057 0.0 0.0
-368.34212278111517 -1.1186022595455372 -120.61322148980142 159.97512822607234 0.0 0.0
-274.14280846000133 5.709424718632596 -82.58012084455348 166.2974229720419 0.0 0.0
-204.68114606003587 12.887764673614068 -57.757257171050085 165.11483636333347 0.0 0.0
-158.6339779015256 16.886350849897557 -42.53756881448965 161.1589105534652 0.0 0.0
-127.60669332877725 15.677457841758951 -33.567999061901524 162.10848891324065 0.0 0.0
-103.128672359381 0.6161160518532962 -30.75081675164067 167.08223079660084 0.0 0.0
-70.74524314156376 -51.63396139069425 -36.7137613596774 162.26485445653287 0.0 0.0
-23.905847347154513 -143.79551940281073 -50.310410024989565 94.51148722309745 0.0 0.0
-24.353287507631933 -108.77552577251478 -39.938643984044006 -82.00831507806286 0.0 0.0
-78.32263693989857 -45.01586493587586 -37.00155056273232 -150.065714714205 0.0 0.0
-125.79633708374367 -0.0898772157632095 -37.76307235741534 -158.9274198603194 0.0 0.0
-167.01325916245742 14.42776172698087 -45.76443219715167 -153.6484663010815 0.0 0.0
-215.43055500444353 17.190408569270545 -59.443318534238784 -149.5319437099535 0.0 0.0
-280.6543211841054 12.903750617934415 -81.06939148566312 -147.75759725411393 0.0 0.0
-371.127984539622 7.145070004361714 -115.25009935737924 -143.1318444538247 0.0 0.0
-465.38319531565537 -3.3683779177321433 -166.83462277740364 -132.37217323172098 0.0 0.0
-543.1034057744813 -16.24335560894131 -225.12941416971802 -124.60079046027215 0.0 0.0
-603.4935066841753 -29.231256952236876 -277.9784457898958 -120.76736283215638 0.0 0.0
-652.3126977758373 -40.23224525514007 -320.57786165583747 -117.88041476344549 0.0 0.0
-697.4132868010227 -51.77817945039174 -357.57423772501363 -114.47475799970678 0.0 0.0
-739.9711231109625 -62.879996607625735 -389.87862099562756 -111.12097016526175 0.0 0.0
-781.96678333046 -74.76385115681697 -420.0521900080961 -108.28893020738961 0.0 0.0
-824.4397112119752 -88.17678839638052 -449.7885284915904 -107.07527973148771 0.0 0.0
-869.1349921775313 -106.70832654752971 -482.3158765584309 -109.03593786322078 0.0 0.0
-918.0338927116038 -134.9790130790708 -521.1537370682556 -114.69032955495277 0.0 0.0
-974.813699880579 -179.7144538995873 -572.0769692559886 -122.7274479384951 0.0 0.0
-1040.7576885401695 -247.87859008526553 -638.7007992495667 -130.15837500174462 0.0 0.0
-1115.4346118424055 -359.500458037612 -728.0306959675415 -139.52925096059656 0.0 0.0
-1115.4346118424899 -359.5004580378393 -728.0306959676395 139.5292509607925 0.0 0.0
-1040.7576885402837 -247.87859008553417 -638.7007992496201 130.15837500202167 0.0 0.0
-974.8136998799846 -179.7144538991136 -572.0769692555456 122.72744793866937 0.0 0.0
-918.03389271098 -134.97901307851674 -521.1537370677833 114.69032955500924 0.0 0.0
-869.1349921771965 -106.70832654729688 -482.3158765581722 109.0359378632647 0.0 0.0
-824.4397112118426 -88.17678839639451 -449.7885284914638 107.07527973156121 0.0 0.0
-781.9667833301829 -74.76385115663027 -420.05219000787395 108.28893020738874 0.0 0.0
-739.971123111009 -62.87999660786558 -389.87862099564984 111.12097016532715 0.0 0.0
-697.4132868007956 -51.77817945040675 -357.57423772482565 114.47475799978835 0.0 0.0
-652.3126977758002 -40.23224525539163 -320.5778616557382 117.88041476346973 0.0 0.0
-603.4935066841989 -29.23125695263689 -277.97844578982597 120.7673628321777 0.0 0.0
-543.1034057740558 -16.243355608855254 -225.1294141693554 124.60079046027555 0.0 0.0
-465.38319531498763 -3.3683779174225643 -166.83462277694122 132.37217323172675 0.0 0.0
-371.12798453909704 7.145070004327567 -115.2500993571692 143.1318444537812 0.0 0.0
-280.65432118367687 12.90375061810457 -81.06939148548123 147.75759725401093 0.0 0.0
-215.43055500403216 17.190408569519555 -59.443318534045645 149.53194370981186 0.0 0.0
-167.01325916225144 14.427761727002615 -45.76443219708449 153.64846630097998 0.0 0.0
-125.79633708366373 -0.0898772158425527 -37.76307235741592 158.92741986018845 0.0 0.0
-78.32263693980063 -45.015864935864386 -37.0015505626995 150.06571471404487 0.0 0.0
-24.353287507606048 -108.77552577241524 -39.93864398400638 82.008315077986 0.0 0.0
-24.96667328651807 -77.84686428725554 -30.844061272132077 -69.21383267108338 0.0 0.0
-85.57958894106646 -37.23996492800962 -36.84586616072282 -134.71760041437847 0.0 0.0
-147.22594907034508 -0.3522573875241326 -44.27222968134612 -146.67760040032343 0.0 0.0
-204.8450295588439 12.809609756034089 -57.59108035730766 -140.96903838246772 0.0 0.0
-270.0735174467809 15.880316475661559 -76.15325427826954 -133.57766804605444 0.0 0.0
-351.5465986995871 13.851255183855272 -103.50088892931535 -126.62469090570404 0.0 0.0
-448.7263939063465 6.385681306016496 -148.676255671424 -116.20427682509582 0.0 0.0
-535.0147387675406 -8.362306513530534 -210.40936063134276 -107.26664371474695 0.0 0.0
-602.6289084972029 -23.45333461601522 -270.6600167802835 -104.39898112466088 0.0 0.0
-658.3025777107662 -37.95416973549103 -321.0461693749488 -103.07732528012274 0.0 0.0
-708.376743517775 -52.6871689355521 -363.38514751325266 -101.08558169461088 0.0 0.0
-755.7533681848793 -67.59313780400866 -400.49113220481684 -98.21889690146355 0.0 0.0
-801.5036954873401 -82.26492241080635 -434.0574464453491 -95.21973924288528 0.0 0.0
-846.79126132226 -96.91663010128485 -465.82749098245256 -92.57725619262948 0.0 0.0
-892.9650461750283 -112.89230398286486 -497.8556049911964 -91.19752053430997 0.0 0.0
-942.7102637552762 -135.28189584192083 -534.3427757873677 -92.24577307360725 0.0 0.0
-1001.8813185041316 -170.76302694148362 -581.6128883850456 -96.65671068344292 0.0 0.0
-1072.5219115551722 -226.56042902021494 -644.7673321975169 -103.46626489332944 0.0 0.0
-1152.5106654178837 -307.2887545059399 -724.9150122461206 -110.95487785044216 0.0 0.0
-1226.9771639234045 -418.1780254650685 -815.1601580992436 -125.53517826496068 0.0 0.0
-1226.9771639237101 -418.17802546550314 -815.160158099463 125.53517826517583 0.0 0.0
-1152.5106654178821 -307.28875450605346 -724.9150122461572 110.95487785067077 0.0 0.0
-1072.5219115554078 -226.56042902057396 -644.7673321976351 103.46626489348904 0.0 0.0
-1001.8813185044698 -170.76302694198213 -581.6128883852072 96.65671068364546 0.0 0.0
-942.7102637549457 -135.28189584171497 -534.3427757871133 92.24577307369998 0.0 0.0
-892.9650461745252 -112.89230398245147 -497.85560499081237 91.19752053433035 0.0 0.0
-846.7912613220217 -96.91663010115332 -465.8274909822196 92.57725619263655 0.0 0.0
-801.5036954873387 -82.26492241100424 -434.0574464452664 95.21973924295996 0.0 0.0
-755.7533681844241 -67.59313780373824 -400.491132204469 98.21889690148012 0.0 0.0
-708.3767435171562 -52.68716893506695 -363.3851475127941 101.08558169448776 0.0 0.0
-658.3025777100133 -37.95416973483645 -321.0461693743684 103.07732527993772 0.0 0.0
-602.6289084968854 -23.4533346159656 -270.66001677996667 104.39898112462949 0.0 0.0
-535.0147387668101 -8.362306513099949 -210.40936063078647 107.2666437147431 0.0 0.0
-448.72639390549915 6.3856813065323035 -148.67625567090326 116.20427682508503 0.0 0.0
-351.5465986990274 13.851255184008163 -103.50088892909451 126.62469090562504 0.0 0.0
-270.0735174465198 15.880316475486412 -76.15325427824794 133.57766804597424 0.0 0.0
-204.84502955856178 12.809609756172136 -57.591080357183095 140.96903838235545 0.0 0.0
-147.2259490702283 -0.35225738756840963 -44.272229681324944 146.67760040014426 0.0 0.0
-85.57958894097119 -37.239964927968785 -36.845866160681986 134.71760041423542 0.0 0.0
-24.966673286465628 -77.84686428716519 -30.84406127208924 69.21383267098943 0.0 0.0
-25.699642929358536 -51.404654745997874 -23.13128930260692 -55.98618648687014 0.0 0.0
-92.48326077922516 -28.848344005751347 -36.399481435492945 -116.56785687649189 0.0 0.0
-167.60012022485688 -0.2142344540832566 -50.34430640368204 -130.48634394557092 0.0 0.0
-241.18609347581793 10.39446755772992 -69.22716764183714 -124.08965333481464 0.0 0.0
-320.93302599836824 14.350471212008035 -92.12067237100932 -113.6731377074996 0.0 0.0
-416.01631564316193 14.141237477618404 -126.40915940549954 -102.39820052240414 0.0 0.0
-509.75820130192255 3.418649793515616 -182.28354652625578 -90.01361332216557 0.0 0.0
-584.8820481611299 -13.902847995013726 -248.60860612560236 -85.58186142146279 0.0 0.0
-646.5929260888983 -29.20520453892694 -306.0620159656763 -85.81584963508757 0.0 0.0
-702.5180941700714 -46.4935673752386 -355.24941422323604 -85.48834372967248 0.0 0.0
-754.9741546630158 -64.76905562878827 -397.9224922919336 -84.10871705232343 0.0 0.0
-805.2390990486887 -83.11350998633517 -436.21517859689635 -81.70737883140596 0.0 0.0
-854.7760110165057 -101.30766473099543 -472.1647281666285 -79.23630731461914 0.0 0.0
-903.4368413703639 -119.44997605836656 -506.6409505357947 -76.89267505453452 0.0 0.0
-952.9219739993891 -138.23441248032861 -541.3301053035459 -75.26178681647177 0.0 0.0
-1008.2549449154026 -163.94753127722277 -582.081790248278 -75.21134574370903 0.0 0.0
-1075.326592387011 -206.229717439058 -636.5451178311446 -77.87028198510983 0.0 0.0
-1158.3773591345953 -273.0950579027311 -711.2324956586413 -83.91324202929394 0.0 0.0
-1248.328661402672 -363.21078713561917 -801.2484442944269 -93.38989833142898 0.0 0.0
-1323.6483709636234 -474.7416342076662 -893.2273940209027 -115.03812052201472 0.0 0.0
-1323.648370963539 -474.7416342076744 -893.2273940208697 115.03812052219197 0.0 0.0
-1248.328661402345 -363.21078713538 -801.2484442941941 93.38989833162921 0.0 0.0
-1158.37735913422 -273.09505790242247 -711.2324956583902 83.9132420294014 0.0 0.0
-1075.3265923864371 -206.2297174385577 -636.5451178307171 77.87028198516757 0.0 0.0
-1008.25494491562 -163.94753127754916 -582.0817902483432 75.21134574378294 0.0 0.0
-952.9219739994194 -138.23441248046242 -541.3301053034818 75.2617868165014 0.0 0.0
-903.4368413702947 -119.44997605843226 -506.64095053573385 76.89267505457128 0.0 0.0
-854.7760110159386 -101.30766473054607 -472.1647281661995 79.2363073146134 0.0 0.0
-805.239099048106 -83.11350998593761 -436.215178596434 81.70737883147063 0.0 0.0
-754.9741546625575 -64.76905562854975 -397.9224922915123 84.10871705235245 0.0 0.0
-702.5180941696811 -46.49356737506633 -355.24941422285735 85.48834372962469 0.0 0.0
-646.5929260884734 -29.205204538748504 -306.06201596528734 85.81584963508521 0.0 0.0
-584.8820481604959 -13.902847994672124 -248.60860612508557 85.5818614214656 0.0 0.0
-509.75820130134684 3.4186497937316522 -182.28354652582294 90.01361332217553 0.0 0.0
-416.0163156429378 14.141237477263772 -126.40915940546242 102.39820052234852 0.0 0.0
-320.93302599805554 14.35047121185609 -92.12067237096537 113.67313770743209 0.0 0.0
-241.18609347565695 10.394467557559487 -69.22716764184156 124.08965333465474 0.0 0.0
-167.60012022477738 -0.21423445427486953 -50.34430640371565 130.48634394548978 0.0 0.0
-92.48326077912802 -28.848344005709713 -36.39948143545132 116.56785687639794 0.0 0.0
-25.69964292932791 -51.404654745969125 -23.131289302589106 55.98618648678473 0.0 0.0
-26.24525515663146 -29.830038567998074 -16.822588117388854 -42.267993683255014 0.0 0.0
-98.60386583754106 -20.31724746552502 -35.67633399091982 -95.91041225656255 0.0 0.0
-186.98694086464587 0.21232585530906167 -56.03238450280104 -110.33025837192464 0.0 0.0
-276.60081454483657 7.062860437295614 -80.85190107022044 -103.39299768538164 0.0 0.0
-370.2409050807368 13.454960840153129 -107.53071937901245 -90.90474600221705 0.0 0.0
-469.5145374791907 13.445854240575613 -149.89573839076277 -76.42872436235328 0.0 0.0
-552.3377049594739 -2.054735740551667 -214.62732131614257 -66.41861077888687 0.0 0.0
-621.6050858032811 -17.26132290036623 -279.07008544180684 -66.34997019811011 0.0 0.0
-682.7591361827314 -34.65916945500101 -334.8597942934245 -67.38253406730665 0.0 0.0
-739.9138699408967 -54.94980891811694 -383.46320005735646 -67.64908468061832 0.0 0.0
-794.8798872630297 -76.38548078243944 -426.9326116484812 -66.72346176984529 0.0 0.0
-848.7487664533132 -98.31223421236763 -467.49509586145473 -64.87207156561652 0.0 0.0
-901.8428914063759 -120.15916240437664 -506.27135276704564 -62.914979952935326 0.0 0.0
-955.3166992848887 -142.34638393388366 -544.7875608892211 -61.13624575717016 0.0 0.0
-1008.9909407481906 -164.88002728918624 -583.2406934523814 -59.40132152888749 0.0 0.0
-1066.6770587191056 -193.08285995744782 -626.3217674958887 -57.973210075916604 0.0 0.0
-1139.781786197089 -239.74360564273553 -685.9386742056993 -58.69951782374419 0.0 0.0
-1233.146955504877 -315.50077026992767 -770.0424179335939 -64.32874855999137 0.0 0.0
-1334.4371204634158 -416.31948595289265 -871.1202529756492 -76.98820796556967 0.0 0.0
-1415.2710119056362 -533.2815629329797 -969.3608206632945 -106.19862647439655 0.0 0.0
-1415.2710119057401 -533.2815629331327 -969.3608206634151 106.19862647449983 0.0 0.0
-1334.4371204632519 -416.3194859527545 -871.1202529755299 76.98820796563174 0.0 0.0
-1233.146955504242 -315.5007702693464 -770.0424179330845 64.32874856007848 0.0 0.0
-1139.781786196309 -239.7436056420172 -685.9386742050705 58.699517823785214 0.0 0.0
-1066.6770587181431 -193.08285995656263 -626.3217674951297 57.97321007596331 0.0 0.0
-1008.9909407472958 -164.88002728836543 -583.2406934517012 59.40132152888223 0.0 0.0
-955.316699284646 -142.346383933758 -544.7875608889777 61.1362457571834 0.0 0.0
-901.8428914062157 -120.15916240435914 -506.2713527668682 62.91497995294864 0.0 0.0
-848.7487664530297 -98.31223421225224 -467.49509586124236 64.87207156559325 0.0 0.0
-794.8798872627353 -76.38548078230929 -426.9326116482414 66.72346176977095 0.0 0.0
-739.913869940542 -54.94980891798699 -383.4632000570688 67.6490846806131 0.0 0.0
-682.7591361824554 -34.65916945496673 -334.85979429314995 67.38253406730385 0.0 0.0
-621.6050858026783 -17.261322900021568 -279.0700854413065 66.34997019811253 0.0 0.0
-552.3377049589456 -2.0547357403485424 -214.6273213156993 66.41861077887526 0.0 0.0
-469.51453747892685 13.445854240371595 -149.89573839062115 76.42872436234722 0.0 0.0
-370.24090508041013 13.454960839896446 -107.53071937899385 90.90474600218408 0.0 0.0
-276.6008145446848 7.0628604370849715 -80.85190107023968 103.3929976852619 0.0 0.0
-186.98694086449214 0.212325855240743 -56.03238450277543 110.33025837184138 0.0 0.0
-98.60386583744965 -20.31724746551635 -35.6763339908898 95.91041225644939 0.0 0.0
-26.24525515660604 -29.83003856794943 -16.822588117366635 42.267993683188834 0.0 0.0
-25.967723941245225 -13.48348997108937 -11.835364173700377 -28.204212884957148 0.0 0.0
-103.01150865224645 -12.060023889681528 -34.52145976257839 -72.9151749924482 0.0 0.0
-205.45394972969092 0.5875374377423697 -61.45992368758455 -86.06300779735199 0.0 0.0
-311.4682077271445 3.4846219360141557 -92.38109829973712 -78.95333423259152 0.0 0.0
-417.3778318973283 13.963472108095015 -122.65649569747933 -65.65074803275215 0.0 0.0
-512.4032632167869 9.440380314591781 -175.36816578410009 -51.44481390062726 0.0 0.0
-586.8568488179369 -6.1412112471592195 -243.35485262918348 -46.15885348251631 0.0 0.0
-651.5960039452114 -20.15726650888574 -304.07310189812 -47.28411432606497 0.0 0.0
-712.9368568085432 -40.12275674177046 -358.6235634776209 -48.83954122240931 0.0 0.0
-772.0695459281437 -63.16519634045499 -407.2885137094948 -49.407555147498016 0.0 0.0
-830.0529446094838 -87.70651357706438 -452.28381303472133 -48.89060094754755 0.0 0.0
-887.2459998995872 -113.1068073633221 -495.3689076700096 -47.58487619054407 0.0 0.0
-944.8226596427643 -138.70651690587437 -537.8021063184717 -46.24811841713298 0.0 0.0
-1002.6384640351343 -165.4565226983865 -580.5172582370815 -44.98610661469015 0.0 0.0
-1061.4762262905908 -193.19492436145114 -624.0138455940241 -43.49412647024238 0.0 0.0
-1123.1173975978418 -224.65459581313743 -670.674245862549 -41.23747178061887 0.0 0.0
-1193.8187780857622 -268.4085764785475 -727.7270021448999 -39.618763518116026 0.0 0.0
-1294.6462030510095 -350.30224352341537 -818.3963426210474 -44.273485065797445 0.0 0.0
-1413.0772718091785 -466.5587272151238 -935.632222147873 -60.558821809477905 0.0 0.0
-1510.378254158335 -598.3184650228322 -1050.2400771055818 -97.64650388805953 0.0 0.0
-1510.3782541581961 -598.3184650227475 -1050.2400771054845 97.64650388817581 0.0 0.0
-1413.0772718091173 -466.55872721509746 -935.6322221478162 60.55882180954026 0.0 0.0
-1294.6462030511198 -350.3022435235918 -818.3963426211508 44.27348506591086 0.0 0.0
-1193.8187780857493 -268.4085764786018 -727.7270021449206 39.6187635181531 0.0 0.0
-1123.117397597526 -224.65459581290364 -670.6742458622854 41.23747178067837 0.0 0.0
-1061.4762262903455 -193.19492436131088 -624.0138455937847 43.494126470296784 0.0 0.0
-1002.6384640347891 -165.45652269815739 -580.5172582367901 44.986106614739896 0.0 0.0
-944.8226596420773 -138.7065169053251 -537.8021063179874 46.24811841714608 0.0 0.0
-887.2459998989553 -113.10680736285862 -495.3689076695279 47.5848761905716 0.0 0.0
-830.0529446090038 -87.70651357677107 -452.2838130343732 48.89060094751481 0.0 0.0
-772.0695459279001 -63.16519634041921 -407.28851370929334 49.407555147463 0.0 0.0
-712.936856808659 -40.12275674215326 -358.62356347762454 48.839541222419896 0.0 0.0
-651.5960039451244 -20.15726650910131 -304.07310189795027 47.28411432611299 0.0 0.0
-586.8568488174903 -6.141211247011791 -243.35485262877154 46.15885348247613 0.0 0.0
-512.403263216382 9.440380314654007 -175.36816578380015 51.444813900612104 0.0 0.0
-417.3778318969539 13.963472107974782 -122.6564956973865 65.65074803272114 0.0 0.0
-311.4682077268486 3.4846219359964 -92.38109829965617 78.95333423253186 0.0 0.0
-205.45394972950623 0.5875374378032281 -61.45992368751089 86.06300779731568 0.0 0.0
-103.0115086521289 -12.060023889661643 -34.521459762537155 72.91517499239697 0.0 0.0
-25.967723941245957 -13.48348997107329 -11.835364173695773 28.20421288492726 0.0 0.0
-23.655469998397667 -2.6555102019329615 -7.893294060099189 -14.306550720806818 0.0 0.0
-104.100069367198 -4.57924571182936 -32.6037945237082 -47.57457354395913 0.0 0.0
-223.1057548797219 0.5970074406737851 -66.75262423171442 -57.12187629782035 0.0 0.0
-346.99426926384615 0.4514491817940929 -103.92203832265393 -51.244723366835196 0.0 0.0
-458.2669295131433 15.772245284983239 -137.96776032500185 -39.69386166470124 0.0 0.0
-542.5331535930874 2.304732810437219 -201.5350626030349 -28.515794699979363 0.0 0.0
-613.2706625770531 -7.782060923136463 -266.3906392049833 -27.255837045335085 0.0 0.0
-676.3970954222212 -23.660484834449356 -325.1665018606611 -28.5476125757927 0.0 0.0
-738.273403275221 -45.400388884671 -378.3193139929572 -29.964682229208126 0.0 0.0
-799.7424648687291 -71.04757602191751 -427.604385928176 -30.6676036382732 0.0 0.0
-861.0116068717126 -98.8300838814816 -474.7753054294825 -30.5280681650564 0.0 0.0
-922.3220929716565 -127.43204788108667 -520.9272186119921 -29.850850981601436 0.0 0.0
-983.6702252913494 -157.3165355177315 -567.081493571774 -29.068563404158837 0.0 0.0
-1046.5649761735585 -188.44943945617544 -614.3515875601682 -28.379232418085753 0.0 0.0
-1111.6602406331867 -222.09452463363772 -663.8439899101314 -27.370316183332747 0.0 0.0
-1178.4814378504445 -259.09909536076634 -715.8053310721615 -25.280444883131175 0.0 0.0
-1246.6941131931792 -300.74049406272667 -770.733835676811 -22.01670850481803 0.0 0.0
-1327.8002010442046 -361.6835724990166 -841.0942657921321 -23.28709262619545 0.0 0.0
-1484.9230573154796 -513.1290279926991 -994.624426041361 -41.82101693255154 0.0 0.0
-1619.7294151628344 -678.7302200861297 -1145.7765187206198 -87.94655666164954 0.0 0.0
-1619.7294151624033 -678.7302200857384 -1145.7765187202704 87.94655666177023 0.0 0.0
-1484.923057314478 -513.1290279917246 -994.624426040546 41.821016932595484 0.0 0.0
-1327.8002010437206 -361.68357249857763 -841.0942657916638 23.28709262624805 0.0 0.0
-1246.6941131931294 -300.74049406273997 -770.7338356766621 22.01670850482057 0.0 0.0
-1178.4814378502372 -259.09909536063793 -715.8053310718763 25.280444883156008 0.0 0.0
-1111.6602406329444 -222.0945246334847 -663.8439899098554 27.37031618332084 0.0 0.0
-1046.5649761731413 -188.4494394558709 -614.3515875597996 28.379232418078807 0.0 0.0
-983.6702252913102 -157.31653551782884 -567.0814935716816 29.0685634041296 0.0 0.0
-922.3220929716316 -127.43204788124699 -520.9272186119563 29.850850981654453 0.0 0.0
-861.0116068713053 -98.83008388126913 -474.7753054291222 30.52806816508321 0.0 0.0
-799.7424648680328 -71.0475760214252 -427.6043859276425 30.667603638267945 0.0 0.0
-738.2734032747835 -45.400388884441696 -378.31931399257235 29.964682229129437 0.0 0.0
-676.397095421557 -23.66048483402887 -325.166501860116 28.547612575826747 0.0 0.0
-613.2706625764686 -7.782060922817701 -266.3906392044697 27.255837045313665 0.0 0.0
-542.533153592471 2.3047328107922223 -201.53506260255494 28.51579469992553 0.0 0.0
-458.266929512739 15.772245285010925 -137.9677603248178 39.69386166473241 0.0 0.0
-346.9942692634861 0.4514491818194437 -103.9220383225432 51.244723366788165 0.0 0.0
-223.10575487953187 0.5970074406759167 -66.75262423165678 57.12187629772427 0.0 0.0
-104.10006936711301 -4.579245711921033 -32.60379452371021 47.57457354401038 0.0 0.0
-23.655469998481397 -2.6555102020126915 -7.893294060148226 14.306550720817494 0.0 0.0
-16.953004482777505 2.490260167083682 -4.3388232947081455 -1.7643244063460561 0.0 0.0
-99.24078797220608 1.4530876225978382 -29.336310104882468 -19.44594947940363 0.0 0.0
-240.45133229527298 -0.4108284360652821 -72.25864821940146 -22.429902502531135 0.0 0.0
-384.9767251680157 0.8656273218267101 -115.17330696559492 -20.722115070925028 0.0 0.0
-494.67132008154204 14.126210666620256 -156.2684832488155 -14.006377820312778 0.0 0.0
-571.0837580452005 -2.0395830345806196 -225.3553238946467 -8.819490406601005 0.0 0.0
-634.3040472733173 -9.779392244414236 -285.85062364351506 -8.970247784545071 0.0 0.0
-696.8433917585309 -27.13826969610268 -342.5772939800779 -9.770413292370261 0.0 0.0
-759.8721232959786 -50.70850239884864 -395.03342633626806 -10.748278342266499 0.0 0.0
-823.915524265075 -78.77696823720511 -445.4033978677671 -11.382195441385697 0.0 0.0
-888.5003863875727 -109.23969491972167 -494.76473963573005 -11.624169388104466 0.0 0.0
-953.460513632893 -142.0520601886568 -544.4300593072278 -11.549835468177372 0.0 0.0
-1019.423455876899 -175.631257200483 -594.5382078151758 -11.423174693369033 0.0 0.0
-1087.4348270663133 -211.17107095110975 -646.4565761555107 -11.250206397923424 0.0 0.0
-1158.5529988232113 -250.65932397571618 -701.8080589295414 -10.782570685319008 0.0 0.0
-1231.8746689032496 -294.4534380659871 -760.3561110676778 -9.652483829286615 0.0 0.0
-1303.0105303637379 -339.9350643026051 -818.6512784075499 -7.216106052441944 0.0 0.0
-1367.2503658030369 -384.3720331260605 -872.847608855328 -4.3779668658678865 0.0 0.0
-1450.8313423877557 -457.8071983960414 -950.0405393697131 -16.38564469237039 0.0 0.0
-1810.0500052099358 -837.8608557201692 -1320.6091850646562 -70.33219289864951 0.0 0.0
-1810.0500052096686 -837.8608557198962 -1320.609185064497 70.33219289864391 0.0 0.0
-1450.831342387344 -457.8071983956522 -950.0405393694333 16.38564469237748 0.0 0.0
-1367.250365802775 -384.3720331258455 -872.8476088551371 4.377966865890438 0.0 0.0
-1303.0105303631358 -339.93506430206503 -818.6512784070362 7.216106052429636 0.0 0.0
-1231.8746689030427 -294.4534380658594 -760.3561110674707 9.652483829340992 0.0 0.0
-1158.552998822432 -250.65932397502365 -701.8080589289062 10.782570685359264 0.0 0.0
-1087.4348270656708 -211.17107095057742 -646.4565761549524 11.250206397915818 0.0 0.0
-1019.4234558763671 -175.6312572000865 -594.5382078147157 11.423174693410491 0.0 0.0
-953.4605136320419 -142.0520601879725 -544.4300593065751 11.54983546819243 0.0 0.0
-888.5003863872955 -109.23969491964226 -494.764739635485 11.624169388092248 0.0 0.0
-823.9155242647271 -78.77696823706697 -445.40339786747484 11.382195441437052 0.0 0.0
-759.8721232954335 -50.70850239851646 -395.033426335846 10.748278342165081 0.0 0.0
-696.8433917581114 -27.138269695928486 -342.57729397972133 9.770413292315707 0.0 0.0
-634.304047272977 -9.77939224434304 -285.85062364318867 8.970247784455847 0.0 0.0
-571.0837580448595 -2.039583034508075 -225.35532389432208 8.819490406493518 0.0 0.0
-494.67132008117414 14.126210666673972 -156.26848324859208 14.006377820298614 0.0 0.0
-384.97672516769586 0.8656273216512993 -115.17330696555932 20.722115070868057 0.0 0.0
-240.45133229508832 -0.41082843610814734 -72.25864821935893 22.42990250247989 0.0 0.0
-99.24078797208574 1.453087622600611 -29.336310104845538 19.445949479367336 0.0 0.0
-16.953004482810595 2.4902601670740743 -4.338823294720956 1.7643244063375156 0.0 0.0
SCALARS Strain float 6
LOOKUP_TABLE default
0.008260840618811357 -0.009352545003771043 0.0 -0.005006699467358544 0.0 0.0
0.0018771332728194931 -0.0008551122782310128 0.0 0.0009267848884760288 0.0 0.0
0.0016836995344781877 -0.0007117754489094352 0.0 -8.745383097208403e-05 0.0 0.0
0.001991952997867261 -0.0008741107017214977 0.0 -0.0001574013289152021 0.0 0.0
0.0026762832723801235 -0.0013606826709384734 0.0 -0.0001859992837366098 0.0 0.0
0.004035277911669816 -0.002444217192062337 0.0 -0.00024361163977457134 0.0 0.0
0.006019620071771724 -0.004163085336531425 0.0 -0.0003492074952086699 0.0 0.0
0.008678624030383733 -0.006546635644904764 0.0 -0.0004935342122649178 0.0 0.0
0.012045676527840016 -0.009634512054612854 0.0 -0.0006767763343799027 0.0 0.0
0.016165866238292595 -0.01347003853310258 0.0 -0.0008857629614341667 0.0 0.0
0.02116964356927746 -0.018185142937897192 0.0 -0.0010985766458835866 0.0 0.0
0.027279505713707616 -0.023999105574408874 0.0 -0.0013399016453130852 0.0 0.0
0.03472673697375203 -0.031145489220248068 0.0 -0.0016208469315392576 0.0 0.0
0.043687564117954644 -0.03979622431315577 0.0 -0.001942418422494152 0.0 0.0
0.05415621805096409 -0.04993858263991213 0.0 -0.002314976991709544 0.0 0.0
0.06577718690088419 -0.06121728099945867 0.0 -0.00267854101548734 0.0 0.0
0.07777267025696442 -0.07286516066086679 0.0 -0.0028775065847818637 0.0 0.0
0.08899971434254786 -0.08376026719443774 0.0 -0.0026890078340238432 0.0 0.0
0.09811423443209867 -0.092582879654447 0.0 -0.0020797983826095767 0.0 0.0
0.10359393365631177 -0.09776701376151187 0.0 -0.0016477540923145462 0.0 0.0
0.10359393365630903 -0.09776701376150854 0.0 0.0016477540923173217 0.0 0.0
0.09811423443208561 -0.09258287965443213 0.0 0.002079798382619902 0.0 0.0
0.08899971434252485 -0.08376026719441354 0.0 0.002689007834030588 0.0 0.0
0.0777726702569357 -0.07286516066083815 0.0 0.00287750658478636 0.0 0.0
0.06577718690085238 -0.061217280999428914 0.0 0.002678541015483149 0.0 0.0
0.05415621805093253 -0.04993858263988438 0.0 0.002314976991710127 0.0 0.0
0.04368756411792228 -0.03979622431312424 0.0 0.0019424184224936525 0.0 0.0
0.03472673697371911 -0.031145489220213873 0.0 0.001620846931540021 0.0 0.0
0.027279505713674518 -0.023999105574377344 0.0 0.001339901645310393 0.0 0.0
0.021169643569246804 -0.01818514293786877 0.0 0.0010985766458814772 0.0 0.0
0.016165866238267268 -0.013470038533079931 0.0 0.0008857629614298368 0.0 0.0
0.012045676527819349 -0.009634512054595201 0.0 0.0006767763343794031 0.0 0.0
0.008678624030367427 -0.006546635644889998 0.0 0.0004935342122641684 0.0 0.0
0.006019620071759546 -0.004163085336521544 0.0 0.00034920749520800376 0.0 0.0
0.004035277911661972 -0.002444217192057674 0.0 0.00024361163977379419 0.0 0.0
0.0026762832723767616 -0.001360682670936475 0.0 0.00018599928373674857 0.0 0.0
0.0019919529978660866 -0.000874110701720221 0.0 0.00015740132891453595 0.0 0.0
0.0016836995344776673 -0.0007117754489092687 0.0 8.745383097236159e-05 0.0 0.0
0.0018771332728186596 -0.0008551122782302217 0.0 -0.0009267848884751129 0.0 0.0
0.008260840618803611 -0.009352545003760055 0.0 0.005006699467334841 0.0 0.0
0.005657225496002697 -0.00709246454840437 0.0 -0.005899400558449841 0.0 0.0
0.0010575132603874472 -0.00042682378641384355 0.0 0.00019628049790168522 0.0 0.0
0.001453744602231185 -0.0005545407566363569 0.0 -0.00013288713393538876 0.0 0.0
0.0017812225089461793 -0.0007713930450074513 0.0 -0.00040952081539707974 0.0 0.0
0.002329657470710511 -0.0011166866909892992 0.0 -0.0004501905960724306 0.0 0.0
0.003492764796739472 -0.002001668425521741 0.0 -0.0005976910459898899 0.0 0.0
0.0052813718703673615 -0.003510911558687213 0.0 -0.0008754903450438889 0.0 0.0
0.007689547588487593 -0.005639926838377218 0.0 -0.0012290708238767434 0.0 0.0
0.010728652555224746 -0.00840484348509496 0.0 -0.0016501360175517898 0.0 0.0
0.014424503261028638 -0.01182804272765603 0.0 -0.002115122800955882 0.0 0.0
0.018880118165039334 -0.01601137274887665 0.0 -0.0025953737636592034 0.0 0.0
0.024294087302158034 -0.021152883336391648 0.0 -0.0030950609340167495 0.0 0.0
0.030918941290625956 -0.02750156497139944 0.0 -0.0036984834397964794 0.0 0.0
0.03894471410070206 -0.03524231207014483 0.0 -0.004442949450539385 0.0 0.0
0.04837249061126471 -0.044371230818771146 0.0 -0.005290813290057483 0.0 0.0
0.05889285516953118 -0.0545790402560149 0.0 -0.006117154070347186 0.0 0.0
0.0698165194772084 -0.06518495047508077 0.0 -0.0065815616431499635 0.0 0.0
0.08011631904142805 -0.07517653244085953 0.0 -0.00626141476231204 0.0 0.0
0.0884981335722227 -0.08326215393913627 0.0 -0.005056711975846062 0.0 0.0
0.09345922950486775 -0.08801219447700914 0.0 -0.0029622080842973686 0.0 0.0
0.09345922950486457 -0.08801219447700714 0.0 0.002962208084309248 0.0 0.0
0.08849813357221084 -0.08326215393912473 0.0 0.005056711975867378 0.0 0.0
0.08011631904140817 -0.07517653244084199 0.0 0.006261414762326778 0.0 0.0
0.06981651947718348 -0.06518495047506168 0.0 0.00658156164315693 0.0 0.0
0.05889285516950345 -0.054579040255991584 0.0 0.006117154070343855 0.0 0.0
0.04837249061123612 -0.0443712308187465 0.0 0.005290813290056651 0.0 0.0
0.03894471410067338 -0.03524231207012063 0.0 0.00444294945053908 0.0 0.0
0.030918941290596427 -0.027501564971372128 0.0 0.00369848343979573 0.0 0.0
0.02429408730212884 -0.021152883336362782 0.0 0.0030950609340125723 0.0 0.0
0.01888011816501159 -0.016011372748850672 0.0 0.002595373763656872 0.0 0.0
0.014424503261006166 -0.011828042727635157 0.0 0.002115122800950109 0.0 0.0
0.010728652555205831 -0.008404843485077529 0.0 0.0016501360175496527 0.0 0.0
0.007689547588472845 -0.005639926838362785 0.0 0.001229070823873163 0.0 0.0
0.0052813718703563495 -0.003510911558677443 0.0 0.0008754903450410301 0.0 0.0
0.0034927647967332442 -0.002001668425516079 0.0 0.0005976910459884743 0.0 0.0
0.002329657470707819 -0.0011166866909870787 0.0 0.00045019059607315226 0.0 0.0
0.0017812225089453015 -0.0007713930450069517 0.0 0.00040952081539719076 0.0 0.0
0.0014537446022308276 -0.0005545407566364957 0.0 0.0001328871339358606 0.0 0.0
0.0010575132603878046 -0.000426823786412997 0.0 -0.00019628049790273994 0.0 0.0
0.005657225495993484 -0.007092464548392794 0.0 0.00589940055843019 0.0 0.0
0.004087163905754802 -0.005619752944116055 0.0 -0.0054467594975330935 0.0 0.0
0.0006262817358125214 -0.0002661984822527885 0.0 -0.00047564310354505923 0.0 0.0
0.0011641346363034273 -0.0004050763902101462 0.0 -0.00038312289538597333 0.0 0.0
0.0015682170894392514 -0.0006626781246379387 0.0 -0.0006432819975226434 0.0 0.0
0.002025209719768793 -0.0009220031986059141 0.0 -0.000715486417440514 0.0 0.0
0.002960624569122411 -0.0015875705437677912 0.0 -0.0008803213256997899 0.0 0.0
0.004537527738242224 -0.0028661402927236956 0.0 -0.0012735977564788392 0.0 0.0
0.006687770471886612 -0.004737685825126792 0.0 -0.001808623053622116 0.0 0.0
0.009396020110306678 -0.007173094907983346 0.0 -0.0024225877018453357 0.0 0.0
0.012670128334810637 -0.010185285295130964 0.0 -0.0030888192170385187 0.0 0.0
0.016588613028937865 -0.013848915768381653 0.0 -0.0037816563140779524 0.0 0.0
0.02132553183350938 -0.018334833054167943 0.0 -0.004502768324247064 0.0 0.0
0.02712240000071327 -0.023879334489760762 0.0 -0.005333261224655661 0.0 0.0
0.03418923907409346 -0.03068599123252813 0.0 -0.006385957641972584 0.0 0.0
0.04254955194711741 -0.03877598074045108 0.0 -0.007628043509303739 0.0 0.0
0.05194577451118999 -0.04789070351771696 0.0 -0.008816979445767176 0.0 0.0
0.06179530152606059 -0.05745286225148982 0.0 -0.009512882807144851 0.0 0.0
0.07118560344750256 -0.06655300957131538 0.0 -0.009177400252523699 0.0 0.0
0.07889131395660356 -0.07399092682124331 0.0 -0.0074302193863418076 0.0 0.0
0.08356257388378385 -0.07848170957003231 0.0 -0.003984789912819309 0.0 0.0
0.08356257388378026 -0.07848170957002654 0.0 0.003984789912838349 0.0 0.0
0.07889131395659287 -0.07399092682123354 0.0 0.0074302193863690635 0.0 0.0
0.07118560344748505 -0.06655300957129939 0.0 0.009177400252543488 0.0 0.0
0.061795301526038904 -0.057452862251468506 0.0 0.009512882807153789 0.0 0.0
0.05194577451116579 -0.04789070351769498 0.0 0.008816979445765316 0.0 0.0
0.042549551947091924 -0.038775980740428206 0.0 0.007628043509302962 0.0 0.0
0.03418923907406815 -0.030685991232503262 0.0 0.006385957641972861 0.0 0.0
0.02712240000068719 -0.02387933448973656 0.0 0.005333261224654329 0.0 0.0
0.021325531833483957 -0.018334833054144406 0.0 0.004502768324243289 0.0 0.0
0.01658861302891336 -0.013848915768358783 0.0 0.003781656314072679 0.0 0.0
0.012670128334790545 -0.010185285295111202 0.0 0.0030888192170311357 0.0 0.0
0.009396020110289921 -0.007173094907968358 0.0 0.002422587701841311 0.0 0.0
0.006687770471873383 -0.004737685825114912 0.0 0.001808623053618702 0.0 0.0
0.004537527738232766 -0.002866140292715702 0.0 0.0012735977564770073 0.0 0.0
0.0029606245691173316 -0.0015875705437632393 0.0 0.0008803213256982079 0.0 0.0
0.0020252097197668018 -0.0009220031986044153 0.0 0.0007154864174393205 0.0 0.0
0.001568217089438384 -0.0006626781246378832 0.0 0.0006432819975215054 0.0 0.0
0.0011641346363033545 -0.0004050763902102017 0.0 0.0003831228953851129 0.0 0.0
0.0006262817358128336 -0.0002661984822516644 0.0 0.0004756431035425057 0.0 0.0
0.004087163905746205 -0.005619752944105518 0.0 0.005446759497516107 0.0 0.0
0.0030238095062472548 -0.004519507982081311 0.0 -0.004626453237603384 0.0 0.0
0.0003908271775722033 -0.00020797664903099422 0.0 -0.0010451302698017972 0.0 0.0
0.0008960130343916087 -0.00028677513852404246 0.0 -0.000723079936986476 0.0 0.0
0.0013380474529809047 -0.0005491596920038089 0.0 -0.000892115932209836 0.0 0.0
0.0017513630708484024 -0.0007734558941333569 0.0 -0.0009927891919210285 0.0 0.0
0.0024735484836763237 -0.0012403657385040567 0.0 -0.0011225742140481276 0.0 0.0
0.0037898703966877216 -0.0022485493189803307 0.0 -0.0015483092187388026 0.0 0.0
0.005680268922439197 -0.003845955216526642 0.0 -0.0022258373376938534 0.0 0.0
0.008054339621217363 -0.0059506108753721865 0.0 -0.0029879149257296955 0.0 0.0
0.010909858653666123 -0.008553339874238342 0.0 -0.0038082300553453075 0.0 0.0
0.014300980227333657 -0.011704809659662807 0.0 -0.00465395148430181 0.0 0.0
0.018374103822209012 -0.015545933137638412 0.0 -0.005535360673719791 0.0 0.0
0.02335229195138582 -0.02029572166038407 0.0 -0.006557070299291395 0.0 0.0
0.029447176352773226 -0.0261543965966482 0.0 -0.007805939837915665 0.0 0.0
0.03671099582481851 -0.03317614943593905 0.0 -0.009278317348314802 0.0 0.0
0.0449563563744382 -0.041173154536522594 0.0 -0.010746687187573711 0.0 0.0
0.05371157840329793 -0.04967020791213961 0.0 -0.011668511290226308 0.0 0.0
0.06218763797360792 -0.05788333766626086 0.0 -0.011373770010306122 0.0 0.0
0.06929222846960968 -0.06474596795054177 0.0 -0.009255514815350308 0.0 0.0
0.07379287616852953 -0.06908189061704562 0.0 -0.004834718804730631 0.0 0.0
0.073792876168526 -0.06908189061704206 0.0 0.0048347188047551115 0.0 0.0
0.06929222846959962 -0.06474596795053333 0.0 0.00925551481538095 0.0 0.0
0.06218763797359253 -0.05788333766624887 0.0 0.011373770010329076 0.0 0.0
0.05371157840327931 -0.04967020791212251 0.0 0.011668511290237327 0.0 0.0
0.044956356374416875 -0.041173154536501944 0.0 0.010746687187571935 0.0 0.0
0.03671099582479641 -0.03317614943591907 0.0 0.009278317348312803 0.0 0.0
0.029447176352751153 -0.02615439659662888 0.0 0.007805939837915388 0.0 0.0
0.023352291951363194 -0.020295721660363863 0.0 0.006557070299288925 0.0 0.0
0.018374103822187016 -0.015545933137616874 0.0 0.005535360673713574 0.0 0.0
0.014300980227312896 -0.011704809659644377 0.0 0.004653951484294205 0.0 0.0
0.010909858653648297 -0.008553339874222798 0.0 0.0038082300553374804 0.0 0.0
0.008054339621202763 -0.005950610875359752 0.0 0.0029879149257251714 0.0 0.0
0.005680268922427803 -0.003845955216517094 0.0 0.0022258373376886353 0.0 0.0
0.0037898703966798147 -0.0022485493189747796 0.0 0.0015483092187358605 0.0 0.0
0.0024735484836723165 -0.001240365738500171 0.0 0.0011225742140464345 0.0 0.0
0.0017513630708469868 -0.000773455894131081 0.0 0.0009927891919197518 0.0 0.0
0.0013380474529801761 -0.0005491596920029207 0.0 0.0008921159322088368 0.0 0.0
0.0008960130343916711 -0.0002867751385237094 0.0 0.0007230799369855045 0.0 0.0
0.0003908271775722866 -0.00020797664903024482 0.0 0.00104513026979966 0.0 0.0
0.003023809506239858 -0.00451950798207228 0.0 0.004626453237591116 0.0 0.0
0.0022430915409341334 -0.0036335139390692855 0.0 -0.0038027069795693036 0.0 0.0
0.0002563761367901374 -0.00019153942902860877 0.0 -0.0014845567175814922 0.0 0.0
0.000666920199454614 -0.00019876294288534435 0.0 -0.0010749539427804544 0.0 0.0
0.0010981417440224031 -0.0004347284418117492 0.0 -0.0011535551808067035 0.0 0.0
0.0014869638565364052 -0.0006430426738917028 0.0 -0.001265775081001147 0.0 0.0
0.0020446507710662407 -0.0009662007564843478 0.0 -0.0013728241823205978 0.0 0.0
0.0030724402158880046 -0.0016878819227926778 0.0 -0.001723279295829827 0.0 0.0
0.004665384823373558 -0.0029712554809239178 0.0 -0.0024394035336855746 0.0 0.0
0.0067104289118588775 -0.0047478181078182136 0.0 -0.003337229911653472 0.0 0.0
0.009149754516758549 -0.006941400111755813 0.0 -0.004263796321123836 0.0 0.0
0.01202325615085105 -0.009587995075588163 0.0 -0.005214743805359079 0.0 0.0
0.015445716894165136 -0.012797180202617886 0.0 -0.0061966952075958315 0.0 0.0
0.01961563675492916 -0.01675858964828625 0.0 -0.007315608377410243 0.0 0.0
0.024737322305435648 -0.021670466362346374 0.0 -0.008698861524048807 0.0 0.0
0.030889874475764446 -0.027609263049114485 0.0 -0.0103082729017131 0.0 0.0
0.037951897255124115 -0.03445185089786196 0.0 -0.011891491614680227 0.0 0.0
0.04556812716401625 -0.04184424390962027 0.0 -0.012981947850545766 0.0 0.0
0.053111740129885905 -0.0491573683870874 0.0 -0.012824348965340071 0.0 0.0
0.059656193594139484 -0.05548436432121551 0.0 -0.01057211402011543 0.0 0.0
0.06406514233136656 -0.059736773351979355 0.0 -0.005552423540374496 0.0 0.0
0.06406514233136347 -0.05973677335197669 0.0 0.00555242354039992 0.0 0.0
0.05965619359412985 -0.055484364321204405 0.0 0.010572114020146905 0.0 0.0
0.05311174012987255 -0.04915736838707252 0.0 0.012824348965364274 0.0 0.0
0.045568127164000605 -0.04184424390960362 0.0 0.01298194785055723 0.0 0.0
0.037951897255105546 -0.03445185089784708 0.0 0.011891491614678729 0.0 0.0
0.030889874475745524 -0.027609263049096278 0.0 0.010308272901710436 0.0 0.0
0.02473732230541721 -0.02167046636232972 0.0 0.008698861524047141 0.0 0.0
0.019615636754909987 -0.016758589648268707 0.0 0.0073156083774083 0.0 0.0
0.01544571689414645 -0.01279718020260412 0.0 0.006196695207588476 0.0 0.0
0.012023256150833952 -0.009587995075572175 0.0 0.005214743805350808 0.0 0.0
0.00914975451674327 -0.006941400111740936 0.0 0.004263796321112789 0.0 0.0
0.006710428911846381 -0.0047478181078079995 0.0 0.003337229911647782 0.0 0.0
0.004665384823363969 -0.0029712554809168124 0.0 0.002439403533679746 0.0 0.0
0.003072440215881836 -0.00168788192278857 0.0 0.0017232792958263854 0.0 0.0
0.002044650771063472 -0.0009662007564836816 0.0 0.001372824182318183 0.0 0.0
0.0014869638565353088 -0.0006430426738918138 0.0 0.0012657750810000645 0.0 0.0
0.0010981417440218133 -0.0004347284418116937 0.0 0.0011535551808052324 0.0 0.0
0.0006669201994545099 -0.00019876294288539986 0.0 0.0010749539427781507 0.0 0.0
0.0002563761367899986 -0.00019153942902794263 0.0 0.0014845567175783003 0.0 0.0
0.0022430915409281937 -0.003633513939061901 0.0 0.003802706979559034 0.0 0.0
0.001652044210068454 -0.002903610743577145 0.0 -0.0030976419046430947 0.0 0.0
0.00017046256092560774 -0.00018945050524740714 0.0 -0.0018062669422215238 0.0 0.0
0.00047223470820918767 -0.00013200971574722775 0.0 -0.001396018301921792 0.0 0.0
0.0008577003514340167 -0.00032201130692993685 0.0 -0.0014081148336481941 0.0 0.0
0.0012187479489115458 -0.0005197863366025457 0.0 -0.0015262460627417096 0.0 0.0
0.0016555734050755985 -0.0007558583944962116 0.0 -0.0016396176029030707 0.0 0.0
0.0024220185435324462 -0.001231515212880674 0.0 -0.0019049122220860248 0.0 0.0
0.003669363716296732 -0.0021613231496052654 0.0 -0.002513768859326665 0.0 0.0
0.005363869382897422 -0.003571324663126596 0.0 -0.0034296306067073956 0.0 0.0
0.007396906512018568 -0.005362622071771073 0.0 -0.00444122763448318 0.0 0.0
0.009759595185409822 -0.00751060706037987 0.0 -0.005444824513761881 0.0 0.0
0.012546615478336492 -0.010098774383265452 0.0 -0.0064734408753043815 0.0 0.0
0.01592322812701863 -0.013285766609182348 0.0 -0.007633405158947865 0.0 0.0
0.020075453139049564 -0.017251321592503865 0.0 -0.009028061845392371 0.0 0.0
0.025108013130030207 -0.02209767836191001 0.0 -0.010661176781527476 0.0 0.0
0.03096215725334317 -0.027763989609612905 0.0 -0.012304610440440816 0.0 0.0
0.03738823887117384 -0.03399994348261659 0.0 -0.01346465129072466 0.0 0.0
0.04394408074988739 -0.04036338395273287 0.0 -0.013452615843392468 0.0 0.0
0.04992453561823096 -0.04615365809322025 0.0 -0.011340007000519237 0.0 0.0
0.05429685457516395 -0.05037272261179582 0.0 -0.006146038500984219 0.0 0.0
0.054296854575160786 -0.05037272261179315 0.0 0.006146038501008921 0.0 0.0
0.04992453561822231 -0.046153658093213146 0.0 0.0113400070005516 0.0 0.0
0.04394408074987598 -0.04036338395272532 0.0 0.013452615843416504 0.0 0.0
0.03738823887116079 -0.033999943482606154 0.0 0.013464651290735985 0.0 0.0
0.03096215725332764 -0.027763989609597584 0.0 0.012304610440437902 0.0 0.0
0.02510801313001426 -0.02209767836189469 0.0 0.010661176781523396 0.0 0.0
0.020075453139034583 -0.017251321592492097 0.0 0.009028061845389124 0.0 0.0
0.015923228127003308 -0.013285766609169025 0.0 0.007633405158945505 0.0 0.0
0.012546615478321421 -0.010098774383250575 0.0 0.006473440875298109 0.0 0.0
0.009759595185395598 -0.0075106070603663255 0.0 0.0054448245137538875 0.0 0.0
0.007396906512006043 -0.005362622071759304 0.0 0.004441227634471967 0.0 0.0
0.005363869382887382 -0.0035713246631180473 0.0 0.003429630606701567 0.0 0.0
0.0036693637162890924 -0.002161323149599048 0.0 0.002513768859322113 0.0 0.0
0.002422018543527929 -0.0012315152128772322 0.0 0.0019049122220836379 0.0 0.0
0.0016555734050737458 -0.0007558583944959896 0.0 0.0016396176029014609 0.0 0.0
0.0012187479489107894 -0.0005197863366025457 0.0 0.001526246062740405 0.0 0.0
0.0008577003514335241 -0.00032201130692999236 0.0 0.0014081148336464455 0.0 0.0
0.00047223470820889624 -0.00013200971574697795 0.0 0.0013960183019192662 0.0 0.0
0.00017046256092549672 -0.00018945050524694917 0.0 0.001806266942218443 0.0 0.0
0.0016520442100640687 -0.0029036107435712723 0.0 0.0030976419046359616 0.0 0.0
0.0012007212395563072 -0.002298173597305442 0.0 -0.0025348246662253715 0.0 0.0
0.00010596862796342921 -0.00019409576857254418 0.0 -0.0020312425538748513 0.0 0.0
0.0003018111852938765 -7.611623782383115e-05 0.0 -0.0016669529763682633 0.0 0.0
0.0006231626480477925 -0.000214056783472083 0.0 -0.0016417386477491636 0.0 0.0
0.0009406180866538896 -0.0003938654667666741 0.0 -0.0017605934831275427 0.0 0.0
0.0012889194308169302 -0.0005719226232410168 0.0 -0.0018744325576230403 0.0 0.0
0.001834173089736664 -0.0008672472874003967 0.0 -0.0020768015364879544 0.0 0.0
0.0027394524240099555 -0.0014673218156460166 0.0 -0.0025299554575692607 0.0 0.0
0.0040358968035054885 -0.0024673443276430618 0.0 -0.003300602013000975 0.0 0.0
0.005652311718023953 -0.0038311936310846395 0.0 -0.0042940600359924475 0.0 0.0
0.007514210328984562 -0.0054876883141330435 0.0 -0.00532939636125912 0.0 0.0
0.009681081676028047 -0.007466468329656584 0.0 -0.006354776794333217 0.0 0.0
0.012282447645544849 -0.009894120147814212 0.0 -0.007481789485170448 0.0 0.0
0.015481642335104503 -0.012926924392518746 0.0 -0.00881560033788431 0.0 0.0
0.019387091014473605 -0.01667438856385961 0.0 -0.01035551347136554 0.0 0.0
0.024008530749954404 -0.021134956409529115 0.0 -0.011918230091987392 0.0 0.0
0.029197389279531805 -0.02616860713282798 0.0 -0.013105912030359379 0.0 0.0
0.03468573010197104 -0.03150848344779211 0.0 -0.0132775714740484 0.0 0.0
0.040035591310435936 -0.0367026072406158 0.0 -0.011525045434829073 0.0 0.0
0.04439612544244517 -0.04090896217526008 0.0 -0.0066052735305677235 0.0 0.0
0.04439612544244241 -0.040908962175258745 0.0 0.00660527353058965 0.0 0.0
0.04003559131042869 -0.03670260724060981 0.0 0.011525045434860715 0.0 0.0
0.03468573010196166 -0.0315084834477839 0.0 0.013277571474070438 0.0 0.0
0.02919738927952112 -0.02616860713281799 0.0 0.013105912030369038 0.0 0.0
0.024008530749942067 -0.021134956409518235 0.0 0.01191823009198395 0.0 0.0
0.0193870910144609 -0.0166743885638454 0.0 0.010355513471360434 0.0 0.0
0.015481642335093096 -0.012926924392505867 0.0 0.008815600337881535 0.0 0.0
0.012282447645533434 -0.00989412014780533 0.0 0.0074817894851691435 0.0 0.0
0.009681081676016265 -0.00746646832964859 0.0 0.006354776794325889 0.0 0.0
0.007514210328973495 -0.005487688314125272 0.0 0.005329396361248906 0.0 0.0
0.0056523117180143495 -0.003831193631076868 0.0 0.00429406003598265 0.0 0.0
0.004035896803497918 -0.0024673443276362894 0.0 0.003300602012995646 0.0 0.0
0.0027394524240045987 -0.0014673218156421308 0.0 0.002529955457564542 0.0 0.0
0.001834173089733701 -0.0008672472873988424 0.0 0.0020768015364858172 0.0 0.0
0.0012889194308156604 -0.0005719226232403507 0.0 0.001874432557621153 0.0 0.0
0.000940618086653397 -0.00039386546676584144 0.0 0.0017605934831255998 0.0 0.0
0.0006231626480473346 -0.00021405678347191648 0.0 0.0016417386477467766 0.0 0.0
0.00030181118529354345 -7.611623782313726e-05 0.0 0.0016669529763657376 0.0 0.0
0.00010596862796333206 -0.00019409576857189192 0.0 0.0020312425538726586 0.0 0.0
0.0012007212395531985 -0.0022981735973010313 0.0 0.0025348246662201535 0.0 0.0
0.000862944071254243 -0.001814821092324323 0.0 -0.0021243493323941653 0.0 0.0
4.5745613053586875e-05 -0.00019777503685741715 0.0 -0.0021676556542673253 0.0 0.0
0.00014804852105093635 -2.4271069368253517e-05 0.0 -0.00188584627491864 0.0 0.0
0.00039684734282965234 -0.00011259072226948996 0.0 -0.0018415199499001444 0.0 0.0
0.0006547631192895878 -0.0002608975991218454 0.0 -0.0019524260705640617 0.0 0.0
0.0009242834951249529 -0.0004067155442859516 0.0 -0.0021019380737927473 0.0 0.0
0.0012956678548777661 -0.0005864231247791896 0.0 -0.0022754898188507844 0.0 0.0
0.0018927592912491506 -0.0009109791554351432 0.0 -0.002542547610519502 0.0 0.0
0.0027739670125129373 -0.0015051618993577875 0.0 -0.0030603599623115485 0.0 0.0
0.003932942712728517 -0.0024008557037542566 0.0 -0.0038605034202010002 0.0 0.0
0.005292356582372808 -0.0035489211307946356 0.0 -0.0048140394573766565 0.0 0.0
0.006850473387579256 -0.004929000086545177 0.0 -0.005793054204264042 0.0 0.0
0.008699734857487894 -0.006613982243884431 0.0 -0.00684718870623513 0.0 0.0
0.010965166465336462 -0.008729465749077736 0.0 -0.008038934074458381 0.0 0.0
0.013753684656989909 -0.011379335263587809 0.0 -0.009385073961607704 0.0 0.0
0.017115572737688572 -0.01461209355352766 0.0 -0.010770605554319912 0.0 0.0
0.021021108929689808 -0.018389570140713518 0.0 -0.011859992211781023 0.0 0.0
0.025347379948883683 -0.02260781117952515 0.0 -0.01217455663708239 0.0 0.0
0.029930827267563603 -0.02709245498324675 0.0 -0.011030778783800932 0.0 0.0
0.034255193561983185 -0.03126706369625487 0.0 -0.006911150579702485 0.0 0.0
0.03425519356198109 -0.031267063696251984 0.0 0.006911150579719028 0.0 0.0
0.029930827267558358 -0.02709245498324364 0.0 0.011030778783828687 0.0 0.0
0.025347379948876286 -0.02260781117951738 0.0 0.01217455663710243 0.0 0.0
0.0210211089296818 -0.018389570140704192 0.0 0.011859992211788684 0.0 0.0
0.01711557273767958 -0.014612093553521666 0.0 0.01077060555431636 0.0 0.0
0.013753684656980764 -0.011379335263580703 0.0 0.009385073961603096 0.0 0.0
0.010965166465328705 -0.008729465749072851 0.0 0.008038934074455772 0.0 0.0
0.00869973485748017 -0.0066139822438775475 0.0 0.006847188706234408 0.0 0.0
0.006850473387570832 -0.004929000086536739 0.0 0.005793054204258352 0.0 0.0
0.005292356582365251 -0.003548921130787086 0.0 0.004814039457369856 0.0 0.0
0.003932942712721724 -0.002400855703746707 0.0 0.0038605034201943944 0.0 0.0
0.0027739670125078164 -0.0015051618993539018 0.0 0.003060359962307968 0.0 0.0
0.0018927592912459795 -0.0009109791554338109 0.0 0.002542547610517254 0.0 0.0
0.0012956678548759065 -0.0005864231247786345 0.0 0.0022754898188488415 0.0 0.0
0.0009242834951241341 -0.0004067155442860626 0.0 0.002101938073790416 0.0 0.0
0.0006547631192891923 -0.0002608975991217899 0.0 0.0019524260705610919 0.0 0.0
0.0003968473428293956 -0.00011259072226937894 0.0 0.0018415199498978407 0.0 0.0
0.0001480485210507282 -2.4271069367948206e-05 0.0 0.0018858462749164473 0.0 0.0
4.574561305337177e-05 -0.00019777503685727837 0.0 0.0021676556542652436 0.0 0.0
0.0008629440712522307 -0.001814821092321484 0.0 0.0021243493323911122 0.0 0.0
0.000623237526828746 -0.0014604411284870333 0.0 -0.0018722751830379525 0.0 0.0
-1.5411084286320875e-05 -0.00019664095287555416 0.0 -0.0022543546481217924 0.0 0.0
6.447621217112176e-06 2.623807809631895e-05 0.0 -0.0020494693041234746 0.0 0.0
0.00017903027948688865 -1.6783390455965552e-05 0.0 -0.001998665343117295 0.0 0.0
0.0003658233883746531 -0.00012569002223083992 0.0 -0.0020957478096381987 0.0 0.0
0.0005492795986013349 -0.0002334580945740905 0.0 -0.0022615492498143375 0.0 0.0
0.0007785666968102845 -0.0003482366784404167 0.0 -0.0024696366191547803 0.0 0.0
0.001115623466941107 -0.0005072949692983553 0.0 -0.002668763762795623 0.0 0.0
0.001617018988160232 -0.0007645763425874197 0.0 -0.00289079137750059 0.0 0.0
0.00228755460261347 -0.0011832202288046823 0.0 -0.003300914249897313 0.0 0.0
0.003117576147590187 -0.0017892588429473388 0.0 -0.003965714088644767 0.0 0.0
0.004059055815732127 -0.0025576273622875956 0.0 -0.0047695186402507694 0.0 0.0
0.00517244685354884 -0.0035111613497711414 0.0 -0.0057055500144430615 0.0 0.0
0.006532426689396784 -0.004729163370629452 0.0 -0.00672789245804567 0.0 0.0
0.008216748441368604 -0.006289708273990113 0.0 -0.007833299253032056 0.0 0.0
0.010304103140503687 -0.00827028290109788 0.0 -0.008972590778846212 0.0 0.0
0.01287763101037985 -0.010745474557349644 0.0 -0.009953984327115584 0.0 0.0
0.01597523630397625 -0.013743830878376828 0.0 -0.010306462813533035 0.0 0.0
0.01958752437243992 -0.01732116188680588 0.0 -0.009707918276793515 0.0 0.0
0.023725150354868857 -0.02134991716040857 0.0 -0.006944991268342693 0.0 0.0
0.023725150354867414 -0.02134991716040635 0.0 0.006944991268357237 0.0 0.0
0.019587524372436868 -0.01732116188680255 0.0 0.009707918276817884 0.0 0.0
0.015975236303971005 -0.013743830878372165 0.0 0.010306462813549966 0.0 0.0
0.012877631010374646 -0.010745474557344759 0.0 0.009953984327120136 0.0 0.0
0.010304103140498427 -0.008270282901094772 0.0 0.00897259077884105 0.0 0.0
0.008216748441363234 -0.006289708273986783 0.0 0.007833299253027393 0.0 0.0
0.0065324266893927035 -0.004729163370624789 0.0 0.0067278924580427835 0.0 0.0
0.005172446853544899 -0.0035111613497673666 0.0 0.00570555001444345 0.0 0.0
0.004059055815727491 -0.0025576273622858192 0.0 0.004769518640245551 0.0 0.0
0.0031175761475861208 -0.0017892588429453404 0.0 0.003965714088639494 0.0 0.0
0.002287554602609612 -0.0011832202288015736 0.0 0.003300914249892428 0.0 0.0
0.001617018988157623 -0.0007645763425857544 0.0 0.0028907913774987304 0.0 0.0
0.0011156234669396498 -0.000507294969297245 0.0 0.0026687637627938743 0.0 0.0
0.0007785666968092436 -0.00034823667843952855 0.0 0.002469636619152338 0.0 0.0
0.0005492795986008353 -0.00023345809457531175 0.0 0.0022615492498119505 0.0 0.0
0.00036582338837455597 -0.00012569002223139503 0.0 0.002095747809635784 0.0 0.0
0.00017903027948690253 -1.678339045529942e-05 0.0 0.001998665343114825 0.0 0.0
6.447621216987276e-06 2.6238078096624262e-05 0.0 0.0020494693041213097 0.0 0.0
-1.541108428647353e-05 -0.00019664095287538763 0.0 0.002254354648120044 0.0 0.0
0.000623237526827608 -0.0014604411284852127 0.0 0.0018722751830356488 0.0 0.0
0.0004571854754985283 -0.0011937987488249424 0.0 -0.0016951545136660862 0.0 0.0
-7.277690392983038e-05 -0.00018672534151828457 0.0 -0.002294291832900419 0.0 0.0
-0.00012544458328313246 7.435387255105841e-05 0.0 -0.002160716323527878 0.0 0.0
-3.057000305313473e-05 7.445370894937353e-05 0.0 -0.002106106931145685 0.0 0.0
7.74472476541832e-05 8.613149246716745e-06 0.0 -0.0021848972172633097 0.0 0.0
0.00016785435054299247 -5.620960590257962e-05 0.0 -0.0023533886526340975 0.0 0.0
0.000256945604441533 -0.00011098295336287034 0.0 -0.0025846224669256457 0.0 0.0
0.0003703943487179673 -0.0001665677656997877 0.0 -0.0027867710778252397 0.0 0.0
0.0005349888290683419 -0.00024298778054920867 0.0 -0.00295437425803019 0.0 0.0
0.0007457172470922563 -0.00034938958782260165 0.0 -0.0031271085923953446 0.0 0.0
0.0010236734280246879 -0.0004908153253304626 0.0 -0.0034220116466144312 0.0 0.0
0.0013362442594638257 -0.0006743374682534053 0.0 -0.0038737030101591574 0.0 0.0
0.0017066009216087363 -0.0009152629522319877 0.0 -0.004520192991711192 0.0 0.0
0.002160836091604376 -0.0012377256077946708 0.0 -0.005369269176004943 0.0 0.0
0.0027401700466286594 -0.001686769865331339 0.0 -0.006418198594458024 0.0 0.0
0.0035442217871959752 -0.0023738901333962836 0.0 -0.007582384459083269 0.0 0.0
0.004757393157742762 -0.0034848763884491873 0.0 -0.00863547392902747 0.0 0.0
0.006609967931738264 -0.0052147100578929795 0.0 -0.009093046241167801 0.0 0.0
0.009176486201675063 -0.0076547673319036225 0.0 -0.008462883091635343 0.0 0.0
0.01267111185745931 -0.011217323873448315 0.0 -0.006868830636209411 0.0 0.0
0.012671111857458978 -0.011217323873446317 0.0 0.006868830636219514 0.0 0.0
0.009176486201673759 -0.007654767331901846 0.0 0.008462883091654327 0.0 0.0
0.006609967931735447 -0.00521471005788765 0.0 0.009093046241178904 0.0 0.0
0.004757393157741013 -0.003484876388447411 0.0 0.008635473929029358 0.0 0.0
0.003544221787194976 -0.0023738901333958395 0.0 0.00758238445907744 0.0 0.0
0.002740170046627216 -0.0016867698653286745 0.0 0.00641819859445425 0.0 0.0
0.0021608360916037656 -0.0012377256077944487 0.0 0.0053692691760042766 0.0 0.0
0.001706600921608667 -0.0009152629522319877 0.0 0.004520192991711192 0.0 0.0
0.0013362442594629653 -0.000674337468251629 0.0 0.00387370301015566 0.0 0.0
0.0010236734280242715 -0.000490815325327576 0.0 0.003422011646610046 0.0 0.0
0.0007457172470917844 -0.00034938958782215757 0.0 0.0031271085923906816 0.0 0.0
0.0005349888290679117 -0.0002429877805488756 0.0 0.0029543742580299404 0.0 0.0
0.00037039434871778687 -0.00016656776569967668 0.0 0.002786771077823963 0.0 0.0
0.0002569456044414081 -0.00011098295336231523 0.0 0.002584622466923814 0.0 0.0
0.0001678543505429092 -5.620960590124735e-05 0.0 0.0023533886526313497 0.0 0.0
7.744724765439137e-05 8.613149247826968e-06 0.0 0.002184897217260895 0.0 0.0
-3.05700030529682e-05 7.445370894976211e-05 0.0 0.0021061069311427705 0.0 0.0
-0.0001254445832831047 7.435387255133596e-05 0.0 0.002160716323524936 0.0 0.0
-7.27769039299414e-05 -0.00018672534151803477 0.0 0.0022942918328982265 0.0 0.0
0.00045718547549786215 -0.0011937987488239172 0.0 0.0016951545136639212 0.0 0.0
0.00033994490525988963 -0.0009790035665726005 0.0 -0.0015468803382392426 0.0 0.0
-0.00012530915710362578 -0.00016525699193922772 0.0 -0.0022830109291124834 0.0 0.0
-0.00024823639842559697 0.00011932002724984736 0.0 -0.002219278217409054 0.0 0.0
-0.00023221771702916505 0.00016124392386213104 0.0 -0.00216100206347114 0.0 0.0
-0.000207156235130318 0.0001400058387794889 0.0 -0.002215675969516162 0.0 0.0
-0.00021459675892510077 0.00012137700190384404 0.0 -0.002364552023877503 0.0 0.0
-0.00026809568512907445 0.0001287241948625395 0.0 -0.0025865957439521192 0.0 0.0
-0.0003701708253408542 0.00016844858781805971 0.0 -0.002787957142641656 0.0 0.0
-0.000532840046550076 0.00024150591090776885 0.0 -0.002953954743227488 0.0 0.0
-0.0007440314099016188 0.00034812114215654333 0.0 -0.0031264288385940975 0.0 0.0
-0.0010227568562735517 0.0004909172059892608 0.0 -0.003420788430141597 0.0 0.0
-0.0013402554288488994 0.0006793044100563694 0.0 -0.003871884374827217 0.0 0.0
-0.0017234200795332166 0.0009292090572097234 0.0 -0.004516553624826891 0.0 0.0
-0.0021914277738416255 0.0012562912952849281 0.0 -0.005368695541433155 0.0 0.0
-0.00272597071849566 0.001647448222541259 0.0 -0.0064375466123062774 0.0 0.0
-0.0032180880920913563 0.002013780582205804 0.0 -0.00769255157794263 0.0 0.0
-0.0034113488273389697 0.002157600479917088 0.0 -0.009121141271811184 0.0 0.0
-0.0029241537770441778 0.0017619779113811074 0.0 -0.010674659612233295 0.0 0.0
-0.0014274739925206892 0.000742043939236714 0.0 -0.011847539862384349 0.0 0.0
0.001812632805643019 -0.002176588947761182 0.0 -0.009898520247067666 0.0 0.0
0.0018126328056428803 -0.0021765889477616263 0.0 0.009898520247080544 0.0 0.0
-0.001427473992521286 0.0007420439392371581 0.0 0.011847539862397782 0.0 0.0
-0.0029241537770436643 0.0017619779113799972 0.0 0.01067465961223879 0.0 0.0
-0.0034113488273364717 0.0021576004799159776 0.0 0.009121141271810074 0.0 0.0
-0.0032180880920879146 0.002013780582200475 0.0 0.00769255157793669 0.0 0.0
-0.0027259707184930787 0.0016474482225394826 0.0 0.006437546612302947 0.0 0.0
-0.0021914277738389887 0.001256291295284706 0.0 0.005368695541431379 0.0 0.0
-0.0017234200795294558 0.0009292090572059486 0.0 0.004516553624825892 0.0 0.0
-0.0013402554288455826 0.0006793044100552592 0.0 0.003871884374823664 0.0 0.0
-0.0010227568562703043 0.0004909172059870404 0.0 0.003420788430137711 0.0 0.0
-0.0007440314098988848 0.0003481211421529906 0.0 0.003126428838589823 0.0 0.0
-0.0005328400465483968 0.00024150591090643658 0.0 0.0029539547432266833 0.0 0.0
-0.0003701708253397856 0.00016844858781972505 0.0 0.002787957142640185 0.0 0.0
-0.00026809568512839443 0.00012872419486376074 0.0 0.002586595743949982 0.0 0.0
-0.0002145967589246428 0.00012137700190484324 0.0 0.002364552023874783 0.0 0.0
-0.00020715623512992942 0.00014000583877954442 0.0 0.0022156759695141637 0.0 0.0
-0.00023221771702872096 0.0001612439238618535 0.0 0.0021610020634688643 0.0 0.0
-0.0002482363984254027 0.00011932002725023594 0.0 0.0022192782174066394 0.0 0.0
-0.0001253091571035564 -0.00016525699193925547 0.0 0.002283010929110846 0.0 0.0
0.00033994490525955656 -0.0009790035665717626 0.0 0.0015468803382378826 0.0 0.0
0.0002497663525755506 -0.0007848590423771423 0.0 -0.0013891151347066588 0.0 0.0
-0.00017413758323174544 -0.00013519636781533784 0.0 -0.0022217763830695014 0.0 0.0
-0.0003628034394403956 0.00016230172422232458 0.0 -0.0022230236331372277 0.0 0.0
-0.0004257441034023479 0.0002430469070689445 0.0 -0.002161252302703587 0.0 0.0
-0.0004852870653003494 0.0002667284823084648 0.0 -0.0021857761908551376 0.0 0.0
-0.0005929382348961315 0.00029585244395757826 0.0 -0.002304909287032225 0.0 0.0
-0.0007887557381653088 0.00036524226234946333 0.0 -0.002483641984921403 0.0 0.0
-0.0011153327760203141 0.0005088895228291257 0.0 -0.0026706402981409028 0.0 0.0
-0.001614705967050073 0.0007628635976459908 0.0 -0.002889751854357664 0.0 0.0
-0.0022858447344862864 0.001181920932810776 0.0 -0.0032993656275498995 0.0 0.0
-0.003117010851449706 0.0017896544261419844 0.0 -0.003964846133429734 0.0 0.0
-0.004062335619887503 0.002562838509617915 0.0 -0.004765496297305272 0.0 0.0
-0.005187240776506105 0.003527946623809397 0.0 -0.005689776233211041 0.0 0.0
-0.006563674711080589 0.004754564716296317 0.0 -0.006710132330734642 0.0 0.0
-0.008211040652719936 0.0062536763573390886 0.0 -0.007890046538788276 0.0 0.0
-0.010015143291939782 0.00791223084424697 0.0 -0.009325665110989145 0.0 0.0
-0.011665005371836665 0.009418141960032322 0.0 -0.01105604292241441 0.0 0.0
-0.012638488366811973 0.01026464474681732 0.0 -0.01296476134355784 0.0 0.0
-0.012090178255493328 0.009457381984589563 0.0 -0.013802942635874837 0.0 0.0
-0.008463611371125099 0.005769107373114757 0.0 -0.011552637549185785 0.0 0.0
-0.008463611371126195 0.005769107373113869 0.0 0.011552637549200606 0.0 0.0
-0.012090178255493106 0.009457381984587787 0.0 0.013802942635893767 0.0 0.0
-0.012638488366808143 0.010264644746813989 0.0 0.01296476134356972 0.0 0.0
-0.011665005371830114 0.009418141960026105 0.0 0.011056042922413856 0.0 0.0
-0.010015143291932052 0.007912230844239199 0.0 0.009325665110982595 0.0 0.0
-0.008211040652713372 0.006253676357333315 0.0 0.007890046538784112 0.0 0.0
-0.006563674711074469 0.00475456471629232 0.0 0.006710132330730034 0.0 0.0
-0.005187240776498736 0.0035279466238029578 0.0 0.005689776233208821 0.0 0.0
-0.004062335619880064 0.0025628385096088113 0.0 0.004765496297299554 0.0 0.0
-0.0031170108514427253 0.001789654426135101 0.0 0.00396484613342174 0.0 0.0
-0.0022858447344804717 0.0011819209328065572 0.0 0.0032993656275427385 0.0 0.0
-0.0016147059670459651 0.0007628635976435483 0.0 0.002889751854355388 0.0 0.0
-0.0011153327760179133 0.0005088895228283485 0.0 0.002670640298140292 0.0 0.0
-0.0007887557381637822 0.0003652422623482421 0.0 0.002483641984918461 0.0 0.0
-0.0005929382348952017 0.00029585244395613497 0.0 0.0023049092870295884 0.0 0.0
-0.00048528706529961385 0.00026672848230774315 0.0 0.0021857761908528894 0.0 0.0
-0.0004257441034017234 0.0002430469070685004 0.0 0.0021612523027012 0.0 0.0
-0.00036280343944004173 0.00016230172422207478 0.0 0.002223023633134702 0.0 0.0
-0.00017413758323163442 -0.00013519636781528233 0.0 0.0022217763830674475 0.0 0.0
0.0002497663525753771 -0.0007848590423764432 0.0 0.0013891151347047992 0.0 0.0
0.00017162965740606662 -0.0006076532109564742 0.0 -0.0012286493339015436 0.0 0.0
-0.00022120463158256665 -9.698130020166507e-05 0.0 -0.0021094431079367038 0.0 0.0
-0.00047036027547704695 0.00020383352935871013 0.0 -0.0021715868913025627 0.0 0.0
-0.0006108867732716322 0.000319892304173397 0.0 -0.002106000974272354 0.0 0.0
-0.0007549559865717148 0.0003863855948387229 0.0 -0.0020957401261368913 0.0 0.0
-0.0009616695464088332 0.00046256826929258477 0.0 -0.00216408428843734 0.0 0.0
-0.0013042775601504186 0.0006022505509767351 0.0 -0.0022928761874691506 0.0 0.0
-0.001891893351155513 0.0009117454580935824 0.0 -0.0025458612213795917 0.0 0.0
-0.0027714550392380632 0.0015026789987955258 0.0 -0.003056547566839485 0.0 0.0
-0.003931718315657737 0.0023995568562860115 0.0 -0.0038578164685961758 0.0 0.0
-0.005292481838871044 0.00354949979423691 0.0 -0.004813614324832793 0.0 0.0
-0.0068519947447391455 0.004932292615455802 0.0 -0.005787229153441875 0.0 0.0
-0.0087085352066055 0.006625849545857099 0.0 -0.006815741488083726 0.0 0.0
-0.010990977334383908 0.008752673115804077 0.0 -0.007976002617804123 0.0 0.0
-0.01376247683115464 0.011364789805796471 0.0 -0.009398951146841417 0.0 0.0
-0.01690851021680706 0.014343487118803955 0.0 -0.011271097815541198 0.0 0.0
-0.020042716700811383 0.017300294851860798 0.0 -0.013752145917284075 0.0 0.0
-0.022391980138721762 0.019411507712483678 0.0 -0.01646348325346153 0.0 0.0
-0.022516349387717738 0.019235631947054355 0.0 -0.017896621361828735 0.0 0.0
-0.018211508517596217 0.01446617848422349 0.0 -0.01490189452737889 0.0 0.0
-0.018211508517596925 0.014466178484222603 0.0 0.014901894527395043 0.0 0.0
-0.02251634938771599 0.01923563194705702 0.0 0.01789662136185244 0.0 0.0
-0.022391980138715295 0.01941150771248168 0.0 0.01646348325347663 0.0 0.0
-0.020042716700801266 0.017300294851853026 0.0 0.013752145917285352 0.0 0.0
-0.016908510216795528 0.014343487118791742 0.0 0.01127109781553659 0.0 0.0
-0.013762476831144434 0.011364789805787368 0.0 0.00939895114683803 0.0 0.0
-0.010990977334374062 0.008752673115795195 0.0 0.007976002617799072 0.0 0.0
-0.008708535206594648 0.006625849545848661 0.0 0.0068157414880805345 0.0 0.0
-0.006851994744728036 0.0049322926154471425 0.0 0.005787229153434603 0.0 0.0
-0.005292481838860302 0.0035494997942300266 0.0 0.004813614324823828 0.0 0.0
-0.003931718315648598 0.002399556856278018 0.0 0.003857816468587544 0.0 0.0
-0.002771455039231402 0.0015026789987903078 0.0 0.003056547566835266 0.0 0.0
-0.0018918933511513983 0.0009117454580904738 0.0 0.002545861221377843 0.0 0.0
-0.0013042775601478027 0.0006022505509759579 0.0 0.0022928761874672354 0.0 0.0
-0.0009616695464075287 0.00046256826929258477 0.0 0.002164084288436341 0.0 0.0
-0.0007549559865706809 0.00038638559483844537 0.0 0.002095740126134532 0.0 0.0
-0.0006108867732709036 0.0003198923041730639 0.0 0.0021060009742702446 0.0 0.0
-0.0004703602754765751 0.00020383352935823829 0.0 0.002171586891300231 0.0 0.0
-0.00022120463158226134 -9.698130020160955e-05 0.0 0.0021094431079349274 0.0 0.0
0.00017162965740592784 -0.0006076532109558375 0.0 0.0012286493339002669 0.0 0.0
0.00010130481709667849 -0.00044743973162506 0.0 -0.0010661080960148173 0.0 0.0
-0.0002685870614515806 -5.209304342543297e-05 0.0 -0.001950854291284665 0.0 0.0
-0.0005721280099003356 0.00024482943658649114 0.0 -0.002065711558972172 0.0 0.0
-0.0007877796258556197 0.00039107976659036314 0.0 -0.0019965139471158078 0.0 0.0
-0.0010131701565999768 0.0004978032266611532 0.0 -0.0019424205284419571 0.0 0.0
-0.0013185711884541457 0.0006209312643504772 0.0 -0.0019579085415877273 0.0 0.0
-0.001840025588607755 0.0008815595608224758 0.0 -0.0021045434551896225 0.0 0.0
-0.0027376083836668924 0.0014664359916453096 0.0 -0.0025302156492848227 0.0 0.0
-0.004033715998781398 0.0024647636476751167 0.0 -0.0032951775322664634 0.0 0.0
-0.005652123495282185 0.0038307170764295684 0.0 -0.004291630884191544 0.0 0.0
-0.007514991434378879 0.005488745825005248 0.0 -0.005330006170999768 0.0 0.0
-0.009680399110179122 0.007466867702226265 0.0 -0.006349366903473264 0.0 0.0
-0.01228066189370558 0.009895202412277149 0.0 -0.007440465385360917 0.0 0.0
-0.015489347147481916 0.012935781498491172 0.0 -0.008704838806053272 0.0 0.0
-0.019403984492843807 0.016679174436643907 0.0 -0.010286414760170282 0.0 0.0
-0.023928500898768232 0.02101218250820125 0.0 -0.012461152433573541 0.0 0.0
-0.028570136847714284 0.025421803561996414 0.0 -0.015454474792475192 0.0 0.0
-0.03219365633189547 0.028740446085823157 0.0 -0.018857546073959508 0.0 0.0
-0.03279078649209165 0.028936112336341635 0.0 -0.02091647880496411 0.0 0.0
-0.02726331733658595 0.02285738580489083 0.0 -0.01822557443841888 0.0 0.0
-0.027263317336585657 0.02285738580488972 0.0 0.018225574438439474 0.0 0.0
-0.032790786492087845 0.028936112336336972 0.0 0.020916478804991867 0.0 0.0
-0.032193656331886686 0.028740446085817384 0.0 0.01885754607397927 0.0 0.0
-0.02857013684770121 0.025421803561986644 0.0 0.015454474792479495 0.0 0.0
-0.023928500898753487 0.02101218250818815 0.0 0.01246115243357035 0.0 0.0
-0.019403984492830213 0.016679174436630806 0.0 0.01028641476016659 0.0 0.0
-0.015489347147468337 0.01293578149847896 0.0 0.008704838806046916 0.0 0.0
-0.01228066189369132 0.009895202412262272 0.0 0.007440465385356282 0.0 0.0
-0.009680399110164335 0.0074668677022122765 0.0 0.006349366903466075 0.0 0.0
-0.007514991434364675 0.005488745824990815 0.0 0.005330006170990137 0.0 0.0
-0.005652123495269792 0.0038307170764164677 0.0 0.004291630884181247 0.0 0.0
-0.004033715998772322 0.002464763647667789 0.0 0.003295177532260385 0.0 0.0
-0.002737608383660349 0.0014664359916416458 0.0 0.0025302156492807704 0.0 0.0
-0.0018400255886039107 0.0008815595608200333 0.0 0.0021045434551869024 0.0 0.0
-0.0013185711884524734 0.0006209312643503662 0.0 0.0019579085415862563 0.0 0.0
-0.001013170156598714 0.0004978032266615973 0.0 0.0019424205284404583 0.0 0.0
-0.0007877796258547523 0.0003910797665900856 0.0 0.0019965139471145865 0.0 0.0
-0.000572128009899836 0.00024482943658599154 0.0 0.002065711558970562 0.0 0.0
-0.00026858706145115735 -5.209304342557175e-05 0.0 0.0019508542912825833 0.0 0.0
0.00010130481709660216 -0.00044743973162465756 0.0 0.001066108096013818 0.0 0.0
3.820302190649105e-05 -0.0003055182195983025 0.0 -0.000899779824724084 0.0 0.0
-0.0003167691980722337 -2.561641987364194e-06 0.0 -0.0017513288053869203 0.0 0.0
-0.0006691612434128469 0.00028546037113441614 0.0 -0.0019066948675333373 0.0 0.0
-0.0009565487071905993 0.00045729570687036425 0.0 -0.0018312861644824707 0.0 0.0
-0.0012574834536702995 0.0005967905431715215 0.0 -0.001731556367762399 0.0 0.0
-0.0016765261171581974 0.0007941336522681031 0.0 -0.0017247938536681384 0.0 0.0
-0.0024243241091212175 0.0012422901725777091 0.0 -0.0019283888147544614 0.0 0.0
-0.0036669638659366094 0.002159391054111781 0.0 -0.0025119363548875284 0.0 0.0
-0.005362889508478408 0.0035694049886914048 0.0 -0.003422722426769942 0.0 0.0
-0.007397815942538258 0.005363210108895844 0.0 -0.00443865611092914 0.0 0.0
-0.00976087229231086 0.0075119741723777 0.0 -0.005445178910283843 0.0 0.0
-0.0125437051604705 0.010096029884083091 0.0 -0.0064687127579046155 0.0 0.0
-0.015908000027134328 0.013272347898447334 0.0 -0.0075899873679822205 0.0 0.0
-0.020053265188242658 0.01723419442343066 0.0 -0.008890156467329324 0.0 0.0
-0.02511949056259516 0.02211206465229698 0.0 -0.01051268613365336 0.0 0.0
-0.031019184203729233 0.027794514332960096 0.0 -0.012734604746809208 0.0 0.0
-0.037142524583745465 0.033634010116084134 0.0 -0.015835190255108822 0.0 0.0
-0.04198522603842671 0.03809752669288091 0.0 -0.0196299582278594 0.0 0.0
-0.04288251203710704 0.03851308317276714 0.0 -0.02249308824299079 0.0 0.0
-0.03595964299928994 0.031039012304314495 0.0 -0.021402316107615893 0.0 0.0
-0.03595964299928918 0.03103901230431183 0.0 0.021402316107638653 0.0 0.0
-0.04288251203710111 0.03851308317276092 0.0 0.022493088243019432 0.0 0.0
-0.041985226038415716 0.03809752669286848 0.0 0.019629958227879718 0.0 0.0
-0.03714252458372971 0.03363401011606637 0.0 0.015835190255115483 0.0 0.0
-0.031019184203711893 0.02779451433294433 0.0 0.012734604746807626 0.0 0.0
-0.025119490562578346 0.02211206465228277 0.0 0.010512686133650362 0.0 0.0
-0.02005326518822524 0.01723419442341445 0.0 0.008890156467322469 0.0 0.0
-0.015908000027116564 0.013272347898429349 0.0 0.007589987367977946 0.0 0.0
-0.012543705160452147 0.010096029884066882 0.0 0.00646871275789776 0.0 0.0
-0.009760872292293526 0.007511974172363489 0.0 0.0054451789102725745 0.0 0.0
-0.0073978159425229575 0.00536321010888452 0.0 0.004438656110917039 0.0 0.0
-0.005362889508466827 0.0035694049886811907 0.0 0.0034227224267630585 0.0 0.0
-0.0036669638659276235 0.00215939105410623 0.0 0.002511936354882699 0.0 0.0
-0.0024243241091157844 0.0012422901725760438 0.0 0.0019283888147517136 0.0 0.0
-0.0016765261171557758 0.000794133652267548 0.0 0.001724793853666834 0.0 0.0
-0.001257483453668863 0.0005967905431703002 0.0 0.0017315563677615387 0.0 0.0
-0.0009565487071896209 0.00045729570687047527 0.0 0.0018312861644811107 0.0 0.0
-0.0006691612434122432 0.0002854603711339998 0.0 0.0019066948675310613 0.0 0.0
-0.0003167691980718798 -2.561641987364194e-06 0.0 0.0017513288053850606 0.0 0.0
3.82030219065535e-05 -0.0003055182195979937 0.0 0.0008997798247228628 0.0 0.0
-1.669429857388549e-05 -0.00018377687538204124 0.0 -0.0007278204243293118 0.0 0.0
-0.0003645445657342594 4.9082393293320425e-05 0.0 -0.0015153821393943945 0.0 0.0
-0.0007621627898376365 0.0003258454676723921 0.0 -0.0016963224712924219 0.0 0.0
-0.0011174243405718265 0.000517386753451976 0.0 -0.0016126542542198863 0.0 0.0
-0.0014914081786348427 0.0006940017243201035 0.0 -0.001481986366287491 0.0 0.0
-0.0020529084438009743 0.000996339968658888 0.0 -0.0014686199726149929 0.0 0.0
-0.003071942327587396 0.0016946961315180697 0.0 -0.0017444667299993666 0.0 0.0
-0.004663969764818976 0.0029691827602554843 0.0 -0.002432229091469784 0.0 0.0
-0.006711268029498257 0.004747547736311253 0.0 -0.0033306140574265175 0.0 0.0
-0.009151513615583515 0.006942991464046422 0.0 -0.004261835262652391 0.0 0.0
-0.012024647723431134 0.009589316318263652 0.0 -0.005214664257303936 0.0 0.0
-0.015440229336780173 0.012791093761516326 0.0 -0.006191089021138296 0.0 0.0
-0.01958720056264171 0.016730703754813447 0.0 -0.007276753883830922 0.0 0.0
-0.024682321642688965 0.02162326610675991 0.0 -0.008570822860150484 0.0 0.0
-0.030876934242866957 0.027611961259300433 0.0 -0.01011126210344615 0.0 0.0
-0.03809662274924194 0.03458805421636013 0.0 -0.012073669028403844 0.0 0.0
-0.04564485502369513 0.0418086521683807 0.0 -0.01490208277238847 0.0 0.0
-0.05166878462990976 0.04738337480451782 0.0 -0.018796783866778632 0.0 0.0
-0.05285853964869913 0.048032963863033684 0.0 -0.022792984457662036 0.0 0.0
-0.044630067671278514 0.0392468328728941 0.0 -0.024575922222621838 0.0 0.0
-0.04463006767127674 0.039246832872892545 0.0 0.024575922222645374 0.0 0.0
-0.05285853964869154 0.04803296386302769 0.0 0.022792984457691456 0.0 0.0
-0.05166878462989636 0.04738337480450627 0.0 0.0187967838667997 0.0 0.0
-0.0456448550236768 0.04180865216836538 0.0 0.01490208277239538 0.0 0.0
-0.03809662274922208 0.03458805421633904 0.0 0.012073669028403594 0.0 0.0
-0.03087693424284673 0.027611961259280005 0.0 0.010111262103444207 0.0 0.0
-0.024682321642668183 0.02162326610673926 0.0 0.008570822860145183 0.0 0.0
-0.019587200562620394 0.016730703754795018 0.0 0.007276753883826009 0.0 0.0
-0.01544022933675819 0.01279109376149723 0.0 0.006191089021132995 0.0 0.0
-0.012024647723410907 0.009589316318245666 0.0 0.005214664257295082 0.0 0.0
-0.009151513615565425 0.006942991464030213 0.0 0.004261835262642288 0.0 0.0
-0.0067112680294841714 0.004747547736299151 0.0 0.0033306140574202725 0.0 0.0
-0.004663969764807777 0.0029691827602472687 0.0 0.0024322290914648714 0.0 0.0
-0.0030719423275801724 0.0016946961315132958 0.0 0.0017444667299960914 0.0 0.0
-0.002052908443797498 0.0009963399686552243 0.0 0.0014686199726125226 0.0 0.0
-0.001491408178633212 0.0006940017243188823 0.0 0.0014819863662867416 0.0 0.0
-0.0011174243405707995 0.0005173867534509213 0.0 0.0016126542542178879 0.0 0.0
-0.000762162789836901 0.00032584546767136513 0.0 0.0016963224712913672 0.0 0.0
-0.0003645445657338986 4.9082393293320425e-05 0.0 0.0015153821393931732 0.0 0.0
-1.6694298573802224e-05 -0.00018377687538197011 0.0 0.0007278204243282016 0.0 0.0
-6.12473357550769e-05 -8.454842792895989e-05 0.0 -0.0005494839178823152 0.0 0.0
-0.0004090289570030381 9.98340624150662e-05 0.0 -0.0012468353593353132 0.0 0.0
-0.0008512046163519915 0.0003655906173277157 0.0 -0.0014342933588350204 0.0 0.0
-0.0012720811435739526 0.0005713014332184296 0.0 -0.0013437447304596728 0.0 0.0
-0.0017228721688772874 0.0007942388416380952 0.0 -0.0011949640316841204 0.0 0.0
-0.002466277986503604 0.0012543491432448484 0.0 -0.0012040231563610337 0.0 0.0
-0.0037880798572426377 0.0022500403332103014 0.0 -0.0015573209788691256 0.0 0.0
-0.005682180221806998 0.0038463072335160886 0.0 -0.0022166419929246506 0.0 0.0
-0.008057069914797307 0.005952513714934993 0.0 -0.002982409425405147 0.0 0.0
-0.010912218697200562 0.008555564939367821 0.0 -0.00380689817190899 0.0 0.0
-0.014301697338725688 0.011705301379337785 0.0 -0.0046528637683611596 0.0 0.0
-0.01836509329852233 0.015535981105468055 0.0 -0.005527752040182465 0.0 0.0
-0.02331366346121945 0.020257116648063844 0.0 -0.006526940893694433 0.0 0.0
-0.02936801316044843 0.026083111872232445 0.0 -0.007718120821779528 0.0 0.0
-0.036656004812911036 0.03314178148993152 0.0 -0.00909303625259078 0.0 0.0
-0.04508400679771832 0.04131184342537342 0.0 -0.010629214639900852 0.0 0.0
-0.05393664552445754 0.0498057173923665 0.0 -0.012696985169110164 0.0 0.0
-0.06114700529818674 0.05650962501076995 0.0 -0.01627310297315465 0.0 0.0
-0.06284152900632688 0.05759777528754295 0.0 -0.021776363147182343 0.0 0.0
-0.053557409210297655 0.047721582419293807 0.0 -0.027738823244160937 0.0 0.0
-0.05355740921029484 0.047721582419290254 0.0 0.027738823244183253 0.0 0.0
-0.06284152900631756 0.057597775287534514 0.0 0.02177636314720785 0.0 0.0
-0.06114700529817068 0.05650962501075729 0.0 0.016273102973174358 0.0 0.0
-0.05393664552443665 0.049805717392349846 0.0 0.012696985169116742 0.0 0.0
-0.045084006797695794 0.0413118434253561 0.0 0.010629214639902296 0.0 0.0
-0.03665600481288739 0.03314178148991265 0.0 0.00909303625258942 0.0 0.0
-0.029368013160424575 0.026083111872209797 0.0 0.007718120821775698 0.0 0.0
-0.023313663461194532 0.02025711664803964 0.0 0.006526940893689964 0.0 0.0
-0.0183650932984969 0.015535981105443852 0.0 0.00552775204017622 0.0 0.0
-0.014301697338702159 0.01170530137931558 0.0 0.004652863768351709 0.0 0.0
-0.010912218697179923 0.008555564939348725 0.0 0.003806898171900608 0.0 0.0
-0.008057069914780817 0.005952513714919672 0.0 0.002982409425399346 0.0 0.0
-0.005682180221793887 0.0038463072335058746 0.0 0.002216641992920071 0.0 0.0
-0.0037880798572335166 0.002250040333203529 0.0 0.0015573209788654896 0.0 0.0
-0.0024662779864989826 0.0012543491432406295 0.0 0.0012040231563589798 0.0 0.0
-0.0017228721688753341 0.0007942388416363189 0.0 0.0011949640316837318 0.0 0.0
-0.0012720811435728875 0.0005713014332172084 0.0 0.001343744730458174 0.0 0.0
-0.0008512046163511588 0.00036559061732710507 0.0 0.001434293358833938 0.0 0.0
-0.0004090289570026391 9.983406241492743e-05 0.0 0.0012468353593338422 0.0 0.0
-6.124733575505609e-05 -8.454842792878815e-05 0.0 0.0005494839178814548 0.0 0.0
-9.186033848904152e-05 -1.0712817683028453e-05 0.0 -0.0003666547675044429 0.0 0.0
-0.0004451853177828424 0.00014599933317382963 0.0 -0.0009478972749018266 0.0 0.0
-0.0009359611692736913 0.00040330849731462504 0.0 -0.0011188191013655757 0.0 0.0
-0.0014236764759347487 0.0006229471077530135 0.0 -0.0010260751515513422 0.0 0.0
-0.0019637952247279766 0.0009116535137545512 0.0 -0.000878537732865059 0.0 0.0
-0.0029391388100371285 0.0015824767126645378 0.0 -0.0009378861723831622 0.0 0.0
-0.004538968899814727 0.0028662630744261675 0.0 -0.0012737549428015194 0.0 0.0
-0.006694183968206424 0.004742531223501989 0.0 -0.001800204757074153 0.0 0.0
-0.00940037743313174 0.007177011079075868 0.0 -0.00241878486531788 0.0 0.0
-0.012672794077774496 0.010187747565818306 0.0 -0.003087754128793807 0.0 0.0
-0.016587762541770995 0.013847675999328457 0.0 -0.0037795214639139707 0.0 0.0
-0.021311929272651076 0.018320485842785228 0.0 -0.004493946691834283 0.0 0.0
-0.027077688435796818 0.023835025870062587 0.0 -0.005313579252836209 0.0 0.0
-0.03410036867205761 0.030603144182116404 0.0 -0.006344658662145786 0.0 0.0
-0.04244882890057236 0.038691458908080234 0.0 -0.00750624229732455 0.0 0.0
-0.05193316590697912 0.04789627342843206 0.0 -0.008509618631277305 0.0 0.0
-0.061853912666062896 0.05747400395264446 0.0 -0.009431922820903771 0.0 0.0
-0.07029201614307659 0.06536532656468563 0.0 -0.012078861527292761 0.0 0.0
-0.07293114880031881 0.06730061235797447 0.0 -0.019113745497819412 0.0 0.0
-0.06306350959338979 0.05674563600081628 0.0 -0.03065690657908171 0.0 0.0
-0.06306350959338647 0.056745636000813615 0.0 0.030656906579100418 0.0 0.0
-0.07293114880030743 0.06730061235796336 0.0 0.019113745497841755 0.0 0.0
-0.07029201614305784 0.06536532656466609 0.0 0.012078861527311247 0.0 0.0
-0.06185391266603925 0.0574740039526207 0.0 0.00943192282090946 0.0 0.0
-0.05193316590695372 0.0478962734284083 0.0 0.008509618631279137 0.0 0.0
-0.042448828900545806 0.03869145890805492 0.0 0.007506242297324772 0.0 0.0
-0.03410036867203034 0.03060314418209087 0.0 0.006344658662143052 0.0 0.0
-0.027077688435768497 0.023835025870037718 0.0 0.005313579252832712 0.0 0.0
-0.021311929272622154 0.01832048584275947 0.0 0.004493946691830897 0.0 0.0
-0.016587762541744332 0.013847675999304032 0.0 0.0037795214639069624 0.0 0.0
-0.012672794077751327 0.010187747565796101 0.0 0.003087754128786313 0.0 0.0
-0.009400377433112981 0.007177011079056106 0.0 0.002418784865313467 0.0 0.0
-0.006694183968191464 0.004742531223487112 0.0 0.0018002047570706836 0.0 0.0
-0.004538968899803833 0.0028662630744172857 0.0 0.0012737549427978834 0.0 0.0
-0.002939138810031154 0.001582476712660097 0.0 0.000937886172381025 0.0 0.0
-0.0019637952247256174 0.0009116535137528858 0.0 0.0008785377328643651 0.0 0.0
-0.0014236764759334199 0.0006229471077524029 0.0 0.0010260751515506206 0.0 0.0
-0.0009359611692729697 0.00040330849731454177 0.0 0.0011188191013651039 0.0 0.0
-0.0004451853177823463 0.00014599933317369085 0.0 0.0009478972749011605 0.0 0.0
-9.186033848907621e-05 -1.071281768295386e-05 0.0 0.00036665476750405435 0.0 0.0
-0.00010245414359894012 3.404559507808047e-05 0.0 -0.00018598515937048865 0.0 0.0
-0.0004647257864826837 0.0001821595672772125 0.0 -0.0006184694560714687 0.0 0.0
-0.0010162953492120486 0.00043777260587052336 0.0 -0.0007425843918716646 0.0 0.0
-0.0015788684279104126 0.0006779387111010005 0.0 -0.0006656311984160612 0.0 0.0
-0.0022363028196956403 0.0010753779305893163 0.0 -0.0005625178616942006 0.0 0.0
-0.0034642722099099965 0.0019807452431386263 0.0 -0.0006247290780545256 0.0 0.0
-0.00528964558613873 0.003514758860728384 0.0 -0.0008710057712941754 0.0 0.0
-0.007700229926108915 0.005649781761874251 0.0 -0.0012242710738722684 0.0 0.0
-0.010734354642202543 0.008410368429896842 0.0 -0.0016472795575599164 0.0 0.0
-0.014427201482310664 0.011830412628673015 0.0 -0.0021141778365821873 0.0 0.0
-0.01887690670431183 0.016007672711946475 0.0 -0.0025928134447488205 0.0 0.0
-0.024275367739001824 0.021134005020072344 0.0 -0.003087456862831739 0.0 0.0
-0.03087163157886108 0.027455495070099367 0.0 -0.0036894305382877413 0.0 0.0
-0.03885763956562292 0.03515890755924311 0.0 -0.004434757816477786 0.0 0.0
-0.04823351529305939 0.04423831778270548 0.0 -0.00522970460716482 0.0 0.0
-0.058661866181525024 0.054355094452958275 0.0 -0.005803136673842413 0.0 0.0
-0.06933842986154107 0.06470209297567564 0.0 -0.005781465807825792 0.0 0.0
-0.07874260412989714 0.07368144805122645 0.0 -0.00635810507196416 0.0 0.0
-0.08313057862487497 0.07714522560217585 0.0 -0.0137745533850257 0.0 0.0
-0.07364905709368716 0.06676058478574798 0.0 -0.032690724077352296 0.0 0.0
-0.07364905709368327 0.06676058478574642 0.0 0.032690724077366784 0.0 0.0
-0.0831305786248614 0.07714522560216786 0.0 0.013774553385042826 0.0 0.0
-0.07874260412987551 0.07368144805120758 0.0 0.006358105071977371 0.0 0.0
-0.06933842986151428 0.06470209297564922 0.0 0.005781465807828706 0.0 0.0
-0.05866186618149645 0.05435509445293096 0.0 0.005803136673843523 0.0 0.0
-0.04823351529302984 0.04423831778267728 0.0 0.0052297046071643205 0.0 0.0
-0.0388576395655921 0.03515890755921447 0.0 0.0044347578164762175 0.0 0.0
-0.030871631578829484 0.027455495070067837 0.0 0.0036894305382842857 0.0 0.0
-0.024275367738969163 0.02113400502003948 0.0 0.0030874568628305316 0.0 0.0
-0.018876906704282565 0.016007672711919163 0.0 0.0025928134447444767 0.0 0.0
-0.01442720148228501 0.01183041262865081 0.0 0.002114177836577441 0.0 0.0
-0.010734354642181787 0.00841036842987819 0.0 0.0016472795575561139 0.0 0.0
-0.007700229926091888 0.005649781761860484 0.0 0.0012242710738701035 0.0 0.0
-0.00528964558612635 0.0035147588607188363 0.0 0.0008710057712917052 0.0 0.0
-0.0034642722099026534 0.0019807452431341854 0.0 0.0006247290780524994 0.0 0.0
-0.0022363028196925767 0.0010753779305874844 0.0 0.0005625178616941728 0.0 0.0
-0.0015788684279089207 0.0006779387111005009 0.0 0.0006656311984155061 0.0 0.0
-0.0010162953492111881 0.00043777260587016253 0.0 0.0007425843918704156 0.0 0.0
-0.0004647257864821182 0.00018215956727662963 0.0 0.0006184694560721349 0.0 0.0
-0.00010245414359916563 3.404559507788098e-05 0.0 0.00018598515937062743 0.0 0.0
-8.199217772245082e-05 4.438904250164688e-05 0.0 -2.2936217282498728e-05 0.0 0.0
-0.00045437910613760346 0.000200131085228622 0.0 -0.00025279734323224723 0.0 0.0
-0.0010932524464931648 0.0004670108285916852 0.0 -0.00029158873253290474 0.0 0.0
-0.0017521877752520454 0.0007536189656284775 0.0 -0.00026912855059815777 0.0 0.0
-0.002558778679318141 0.001285151493990666 0.0 -0.00022555665109946776 0.0 0.0
-0.00401104861167928 0.002414091281730424 0.0 -0.00024092221811727876 0.0 0.0
-0.006035380077967167 0.004175511951644673 0.0 -0.00034833799306799307 0.0 0.0
-0.008692525456081762 0.006559407545212337 0.0 -0.0004910297231914273 0.0 0.0
-0.012052803812573065 0.009641575708510874 0.0 -0.0006745806068685078 0.0 0.0
-0.016168226351913284 0.013472034571173186 0.0 -0.0008849573358448715 0.0 0.0
-0.021163671420395852 0.018178661778509797 0.0 -0.0010966789702578361 0.0 0.0
-0.02725595554042448 0.023976070274166927 0.0 -0.0013367297407919088 0.0 0.0
-0.034678597939419575 0.03109941209763445 0.0 -0.001621011775046255 0.0 0.0
-0.04360556939968757 0.039715444451341675 0.0 -0.0019453321300312854 0.0 0.0
-0.05398217912630503 0.049760138362848094 0.0 -0.0022717356164528857 0.0 0.0
-0.06530798780237124 0.060734619366297427 0.0 -0.0024241778274505243 0.0 0.0
-0.07654651125344761 0.07162331750729978 0.0 -0.002100059247597985 0.0 0.0
-0.08622688586420992 0.08097794584864104 0.0 -0.0010753358216061826 0.0 0.0
-0.09222638209084966 0.0865090239305426 0.0 -0.003733868787687722 0.0 0.0
-0.08672795859301978 0.07879091850103026 0.0 -0.030291631590008472 0.0 0.0
-0.08672795859301531 0.07879091850102715 0.0 0.030291631590013635 0.0 0.0
-0.09222638209083414 0.08650902393052928 0.0 0.003733868787694883 0.0 0.0
-0.08622688586418462 0.08097794584861706 0.0 0.00107533582161215 0.0 0.0
-0.07654651125341741 0.07162331750727291 0.0 0.0021000592475979296 0.0 0.0
-0.06530798780233953 0.060734619366266784 0.0 0.002424177827451371 0.0 0.0
-0.053982179126271734 0.049760138362819006 0.0 0.0022717356164533437 0.0 0.0
-0.043605569399653196 0.03971544445131081 0.0 0.0019453321300309523 0.0 0.0
-0.0346785979393846 0.031099412097602253 0.0 0.0016210117750451447 0.0 0.0
-0.027255955540388593 0.023976070274135397 0.0 0.0013367297407919365 0.0 0.0
-0.02116367142036334 0.01817866177847849 0.0 0.0010966789702548385 0.0 0.0
-0.01616822635188552 0.013472034571146985 0.0 0.0008849573358435947 0.0 0.0
-0.012052803812550372 0.00964157570849078 0.0 0.0006745806068662041 0.0 0.0
-0.008692525456062873 0.00655940754519535 0.0 0.0004910297231896232 0.0 0.0
-0.006035380077953367 0.004175511951632349 0.0 0.00034833799306593916 0.0 0.0
-0.004011048611670698 0.0024140912817233184 0.0 0.00024092221811508607 0.0 0.0
-0.002558778679314186 0.0012851514939880015 0.0 0.00022555665109896816 0.0 0.0
-0.0017521877752504087 0.0007536189656272008 0.0 0.0002691285505974639 0.0 0.0
-0.001093252446492241 0.0004670108285911301 0.0 0.0002915887325322386 0.0 0.0
-0.00045437910613706136 0.00020013108522839995 0.0 0.0002527973432317754 0.0 0.0
-8.199217772258266e-05 4.43890425016677e-05 0.0 2.2936217282387705e-05 0.0 0.0
SCALARS Statev float 8
LOOKUP_TABLE default
0.0 0.008645180357273626 0.006541962805710719 -0.006925854585554616 0.00038389177984389804 -0.00365333190468459 0.0 0.0
0.0 0.00019926256773680564 9.29303475950691e-05 -6.911292684500537e-05 -2.3817420750063668e-05 0.00010970423228693677 0.0 0.0
0.0 3.342380937738801e-05 -4.754075056001044e-06 3.773145031477424e-06 9.809300245235895e-07 5.62033213615258e-07 0.0 0.0
0.0 7.741778953103996e-05 7.991973451176485e-06 -6.224768139166079e-06 -1.7672053120105021e-06 -1.1121986588425978e-06 0.0 0.0
0.0 0.0006038432134417755 0.0003858100939156796 -0.00030666180177108324 -7.914829214459678e-05 -4.5708270134487624e-05 0.0 0.0
0.0 0.0016425235310939704 0.0015208645987964215 -0.0012512496123530032 -0.0002696149864434183 -0.00012577029873150282 0.0 0.0
0.0 0.0036023236324271065 0.0032927897130959802 -0.0028313243811547576 -0.00046146533194122195 -0.0002315565016103266 0.0 0.0
0.0 0.00637064080631081 0.005749875799075692 -0.005123736821950956 -0.0006261389771247348 -0.0003657278983018136 0.0 0.0
0.0 0.009990900847116369 0.008915183190158205 -0.008156003775253487 -0.0007591794149047131 -0.0005368403230892303 0.0 0.0
0.0 0.014515350618442936 0.012832766152400966 -0.011959889866521257 -0.0008728762858797048 -0.0007377888995403079 0.0 0.0
0.0 0.020113592381204838 0.017633207037621057 -0.016656162797681517 -0.0009770442399395435 -0.0009472082287187941 0.0 0.0
0.0 0.026756111039618953 0.023541341555194786 -0.0224623640281173 -0.0010789775270774742 -0.0011893555975435953 0.0 0.0
0.0 0.03501098702067652 0.03078348935938416 -0.029602830577472497 -0.001180658781911654 -0.0014721521185814231 0.0 0.0
0.0 0.045078558909038426 0.039535486593572124 -0.038250876573657784 -0.0012846100199143586 -0.001795607310381538 0.0 0.0
0.0 0.05688910465568013 0.04979210327674087 -0.04839846246063666 -0.0013936408161042049 -0.002170990546855399 0.0 0.0
0.0 0.07007190461872176 0.061201161207786875 -0.05969322576914436 -0.0015079354386425192 -0.002540630594013964 0.0 0.0
0.0 0.08370634106216657 0.07299306507579646 -0.07136907837324624 -0.0016239867025502402 -0.002751301683548473 0.0 0.0
0.0 0.09646820295122584 0.08403639135311247 -0.08230175632233805 -0.0017346350307743978 -0.002582029238171355 0.0 0.0
0.0 0.10681936948297671 0.0929993972142563 -0.09116777289245584 -0.0018316243218004919 -0.001993877344064615 0.0 0.0
0.0 0.11284008770663322 0.09835054839322559 -0.09642237000852602 -0.0019281783846995634 -0.0015591007249738556 0.0 0.0
0.0 0.11284008770662973 0.09835054839322255 -0.09642237000852305 -0.0019281783846994477 0.0015591007249765093 0.0 0.0
0.0 0.10681936948296065 0.09299939721424241 -0.09116777289244195 -0.0018316243218004528 0.0019938773440742875 0.0 0.0
0.0 0.09646820295119865 0.08403639135308888 -0.08230175632231473 -0.0017346350307741224 0.0025820292381776317 0.0 0.0
0.0 0.08370634106213365 0.0729930650757677 -0.07136907837321806 -0.0016239867025496406 0.00275130168355249 0.0 0.0
0.0 0.07007190461868645 0.0612011612077561 -0.05969322576911406 -0.0015079354386420682 0.002540630594009706 0.0 0.0
0.0 0.056889104655646144 0.049792103276711165 -0.04839846246060758 -0.001393640816103563 0.0021709905468556773 0.0 0.0
0.0 0.04507855890900186 0.039535486593540295 -0.03825087657362642 -0.0012846100199138785 0.0017956073103810653 0.0 0.0
0.0 0.03501098702063822 0.030783489359350803 -0.02960283057743967 -0.0011806587819111361 0.0014721521185816217 0.0 0.0
0.0 0.02675611103958221 0.02354134155516257 -0.02246236402808594 -0.0010789775270766324 0.0011893555975413632 0.0 0.0
0.0 0.02011359238117167 0.01763320703759167 -0.01665616279765295 -0.0009770442399387187 0.0009472082287173673 0.0 0.0
0.0 0.014515350618415811 0.012832766152377127 -0.011959889866498295 -0.0008728762858788289 0.0007377888995369201 0.0 0.0
0.0 0.009990900847095483 0.00891518319013928 -0.008156003775235341 -0.0007591794149039369 0.0005368403230884729 0.0 0.0
0.0 0.006370640806294502 0.005749875799060456 -0.005123736821936543 -0.0006261389771239124 0.00036572789830057026 0.0 0.0
0.0 0.0036023236324159067 0.003292789713085216 -0.002831324381144905 -0.0004614653319403104 0.00023155650160967695 0.0 0.0
0.0 0.001642523531088056 0.0015208645987903576 -0.0012512496123477817 -0.0002696149864425756 0.00012577029873083248 0.0 0.0
0.0 0.0006038432134388558 0.000385810093913566 -0.0003066618017693952 -7.914829214417091e-05 4.57082701343557e-05 0.0 0.0
0.0 7.741778952996587e-05 7.991973451155532e-06 -6.224768139143545e-06 -1.7672053120119942e-06 1.1121986587792497e-06 0.0 0.0
0.0 3.342380937687491e-05 -4.754075055922566e-06 3.7731450314146314e-06 9.80930024507978e-07 -5.620332136057866e-07 0.0 0.0
0.0 0.00019926256773553322 9.293034759455602e-05 -6.911292684463858e-05 -2.381742074991764e-05 -0.00010970423228620075 0.0 0.0
0.0 0.008645180357260385 0.006541962805701787 -0.006925854585544656 0.0003838917798428642 0.003653331904665556 0.0 0.0
0.0 0.006035920912735248 0.004279264777478405 -0.004738103126113662 0.00045883834863525666 -0.004032882470684328 0.0 0.0
0.0 0.0 0.0 0.0 0.0 0.0 0.0 0.0
0.0 9.430826945183483e-08 -1.020951514236367e-08 7.758883502814768e-09 2.450631639548195e-09 3.6392644398315674e-09 0.0 0.0
0.0 3.0517225757394244e-05 -1.725353482497612e-06 1.3110432110614715e-06 4.1431027143590723e-07 1.6858969819757157e-07 0.0 0.0
0.0 0.00034419238009224826 0.0001630101528375818 -0.00012893529102843437 -3.407486180914747e-05 -4.6259703646387696e-05 0.0 0.0
0.0 0.0011566300599329872 0.0010727953075061944 -0.0008710370485457175 -0.00020175825896047678 -0.00024301735335585718 0.0 0.0
0.0 0.0028766129724654673 0.0026282155073861775 -0.0022291564824240256 -0.00039905902496215116 -0.0005171069076180739 0.0 0.0
0.0 0.0053533206549626206 0.004831129746926002 -0.00425608265514223 -0.000575047091783773 -0.0008560671984760159 0.0 0.0
0.0 0.00858651647699252 0.007673127570914692 -0.006957195936084716 -0.0007159316348299755 -0.0012603577853735914 0.0 0.0
0.0 0.012606690512159896 0.011173971740489747 -0.010342237964916134 -0.0008317337755736085 -0.0017164903282940102 0.0 0.0
0.0 0.017530992225185102 0.01543559663552942 -0.01450163923192815 -0.0009339574036012625 -0.002197887873828611 0.0 0.0
0.0 0.023628495131595737 0.020654753572062846 -0.01962485366881724 -0.0010298999032456121 -0.002705754816937118 0.0 0.0
0.0 0.03089612890690408 0.02708604512213098 -0.025961848728940463 -0.001124196393190518 -0.003319435236839005 0.0 0.0
0.0 0.039844226522490374 0.03491378780919709 -0.03369356300159477 -0.0012202248076023184 -0.004072691903930962 0.0 0.0
0.0 0.050473639779041665 0.04413989130559823 -0.0428194886278883 -0.0013204026777099433 -0.004930178436640695 0.0 0.0
0.0 0.06235991432144116 0.054459246634120995 -0.05303427093675049 -0.0014249756973705038 -0.0057728081074907 0.0 0.0
0.0 0.07472804951553541 0.0651895313193387 -0.06365836152534875 -0.0015311697939899267 -0.006265112984458336 0.0 0.0
0.0 0.08641009133215127 0.07531297154261561 -0.07367902577101412 -0.00163394577160144 -0.00598650584848134 0.0 0.0
0.0 0.09589162445467289 0.08354118663380967 -0.08180916202718594 -0.0017320246066237584 -0.004830606514336826 0.0 0.0
0.0 0.10147535651061956 0.08840070728321843 -0.08659915599066269 -0.0018015512925557663 -0.002805181997297935 0.0 0.0
0.0 0.10147535651061672 0.08840070728321572 -0.08659915599066026 -0.0018015512925554508 0.0028051819973092954 0.0 0.0
0.0 0.09589162445465978 0.08354118663379793 -0.08180916202717448 -0.0017320246066234706 0.004830606514356699 0.0 0.0
0.0 0.08641009133213015 0.07531297154259668 -0.0736790257709959 -0.0016339457716007687 0.0059865058484953 0.0 0.0
0.0 0.07472804951551036 0.06518953131931632 -0.06365836152532744 -0.001531169793988861 0.006265112984465448 0.0 0.0
0.0 0.06235991432141175 0.05445924663409515 -0.05303427093672571 -0.0014249756973694246 0.005772808107487497 0.0 0.0
0.0 0.05047363977901117 0.044139891305571395 -0.04281948862786243 -0.0013204026777089615 0.004930178436640073 0.0 0.0
0.0 0.03984422652246011 0.03491378780917048 -0.03369356300156911 -0.0012202248076013545 0.0040726919039304615 0.0 0.0
0.0 0.03089612890687174 0.02708604512210271 -0.02596184872891278 -0.001124196393189931 0.003319435236837644 0.0 0.0
0.0 0.02362849513156289 0.020654753572034116 -0.019624853668788935 -0.0010298999032451737 0.0027057548169327744 0.0 0.0
0.0 0.01753099222515489 0.015435596635502934 -0.014501639231902133 -0.0009339574036007991 0.0021978878738256654 0.0 0.0
0.0 0.012606690512135865 0.011173971740468282 -0.010342237964895442 -0.0008317337755728382 0.0017164903282889383 0.0 0.0
0.0 0.008586516476973085 0.007673127570896804 -0.006957195936067611 -0.0007159316348291913 0.0012603577853713046 0.0 0.0
0.0 0.005353320654947138 0.0048311297469117095 -0.004256082655128888 -0.0005750470917828205 0.0008560671984732986 0.0 0.0
0.0 0.002876612972454981 0.0026282155073760385 -0.0022291564824149885 -0.0003990590249610494 0.0005171069076162983 0.0 0.0
0.0 0.0011566300599270473 0.0010727953075007357 -0.0008710370485411152 -0.00020175825895962045 0.0002430173533545321 0.0 0.0
0.0 0.0003441923800896016 0.0001630101528360514 -0.00012893529102721177 -3.4074861808839725e-05 4.625970364594139e-05 0.0 0.0
0.0 3.051722575687325e-05 -1.7253534823288113e-06 1.3110432109324036e-06 4.1431027139654815e-07 -1.6858969813646873e-07 0.0 0.0
0.0 9.430826938068039e-08 -1.0209515134588993e-08 7.758883496907494e-09 2.4506316376819497e-09 -3.6392644370560787e-09 0.0 0.0
0.0 0.0 0.0 0.0 0.0 0.0 0.0 0.0
0.0 0.00603592091272037 0.004279264777468576 -0.0047381031261029445 0.000458838348634369 0.004032882470667863 0.0 0.0
0.0 0.00436121966491957 0.0029061474256044293 -0.003351835536303937 0.0004456881106995059 -0.0034011665155818157 0.0 0.0
0.0 0.0 0.0 0.0 0.0 0.0 0.0 0.0
0.0 0.0 0.0 0.0 0.0 0.0 0.0 0.0
0.0 2.4307082921929654e-06 -2.7159244173351415e-07 2.053625051523891e-07 6.622993658110159e-08 1.4164277531911574e-07 0.0 0.0
0.0 0.00013102517653729257 4.5731634441448514e-05 -3.60619945071122e-05 -9.669639934336233e-06 -2.4190399324268504e-05 0.0 0.0
0.0 0.0008657690820731032 0.0006360477914166958 -0.0005105722033467402 -0.00012547558806995528 -0.0002538780825420264 0.0 0.0
0.0 0.002179080398163883 0.0019781366044509304 -0.001650997648734446 -0.0003271389557164847 -0.0006707289630969192 0.0 0.0
0.0 0.004353624008308245 0.003917179149874759 -0.003405085466330567 -0.0005120936835441906 -0.0011905613433757208 0.0 0.0
0.0 0.007218850270860895 0.006429775136384982 -0.005766474489647291 -0.0006633006467376916 -0.0017872718565127735 0.0 0.0
0.0 0.010759364498091166 0.009515615857064296 -0.008732112442736062 -0.0007835034143282365 -0.0024465693983485304 0.0 0.0
0.0 0.015090244037443043 0.013248505163927789 -0.01236385232135057 -0.0008846528425772182 -0.003145314170051062 0.0 0.0
0.0 0.020321369414463334 0.017802088257850176 -0.01682604601040925 -0.0009760422474409296 -0.003882280338271397 0.0 0.0
0.0 0.026892145361054155 0.023412263437223663 -0.022348557015369818 -0.0010637064218538324 -0.004729214502625999 0.0 0.0
0.0 0.03471175372202917 0.030291937757699457 -0.029139778111713845 -0.0011521596459856064 -0.005796937654878577 0.0 0.0
0.0 0.04408339001896886 0.03846191000759538 -0.037218724621192335 -0.001243185386403039 -0.007054902945921598 0.0 0.0
0.0 0.05470440839836363 0.04766784007788023 -0.04633021989140512 -0.001337620186475099 -0.008268521864518123 0.0 0.0
0.0 0.06582887703026567 0.05733368953273172 -0.055899922564597734 -0.0014337669681339718 -0.009004984527440984 0.0 0.0
0.0 0.07639528557427264 0.06655258599985082 -0.06502207997258752 -0.0015305060272632607 -0.008729599441074352 0.0 0.0
0.0 0.08503156648478594 0.07411227413177003 -0.07249290430018657 -0.0016193698315834395 -0.007068658907225719 0.0 0.0
0.0 0.09022843250506624 0.0786891989158586 -0.07701021942154213 -0.0016789794943164406 -0.0037645240960255885 0.0 0.0
0.0 0.09022843250506124 0.07868919891585408 -0.07701021942153742 -0.0016789794943166453 0.0037645240960438196 0.0 0.0
0.0 0.08503156648477495 0.07411227413175979 -0.07249290430017655 -0.00161936983158323 0.007068658907251505 0.0 0.0
0.0 0.07639528557425415 0.06655258599983398 -0.0650220799725712 -0.0015305060272627544 0.008729599441092991 0.0 0.0
0.0 0.0658288770302414 0.05733368953271007 -0.055899922564576744 -0.0014337669681333154 0.009004984527449746 0.0 0.0
0.0 0.054704408398337144 0.047667840077857 -0.046330219891382696 -0.0013376201864743133 0.008268521864515469 0.0 0.0
0.0 0.04408339001894124 0.0384619100075711 -0.03721872462116878 -0.0012431853864023313 0.007054902945920776 0.0 0.0
0.0 0.03471175372200071 0.03029193775767452 -0.029139778111689444 -0.0011521596459850689 0.005796937654877453 0.0 0.0
0.0 0.026892145361025733 0.023412263437198474 -0.02234855701534561 -0.0010637064218528504 0.004729214502623936 0.0 0.0
0.0 0.02032136941443561 0.017802088257825716 -0.01682604601038588 -0.0009760422474398374 0.003882280338266498 0.0 0.0
0.0 0.015090244037416793 0.013248505163904302 -0.012363852321327869 -0.000884652842576431 0.003145314170045533 0.0 0.0
0.0 0.010759364498069274 0.009515615857044652 -0.00873211244271708 -0.0007835034143275697 0.0024465693983416756 0.0 0.0
0.0 0.0072188502708436806 0.006429775136369364 -0.005766474489632456 -0.0006633006467369061 0.0017872718565088161 0.0 0.0
0.0 0.004353624008295072 0.003917179149862492 -0.003405085466319323 -0.0005120936835431696 0.0011905613433722292 0.0 0.0
0.0 0.0021790803981551043 0.0019781366044426063 -0.0016509976487271208 -0.000327138955715485 0.0006707289630944449 0.0 0.0
0.0 0.0008657690820679427 0.0006360477914125995 -0.0005105722033433889 -0.00012547558806920987 0.0002538780825404316 0.0 0.0
0.0 0.0001310251765358578 4.5731634440868995e-05 -3.606199450664663e-05 -9.66963993422225e-06 2.4190399323928874e-05 0.0 0.0
0.0 2.430708291709614e-06 -2.715924416780426e-07 2.0536250511018518e-07 6.622993656783338e-08 -1.4164277528895462e-07 0.0 0.0
0.0 0.0 0.0 0.0 0.0 0.0 0.0 0.0
0.0 0.0 0.0 0.0 0.0 0.0 0.0 0.0
0.0 0.004361219664906545 0.002906147425595517 -0.0033518355362941446 0.00044568811069862666 0.0034011665155674504 0.0 0.0
0.0 0.0030992008330438772 0.0019616004025133395 -0.002346469018495842 0.00038486861598250243 -0.0025443618212633076 0.0 0.0
0.0 0.0 0.0 0.0 0.0 0.0 0.0 0.0
0.0 0.0 0.0 0.0 0.0 0.0 0.0 0.0
0.0 1.1217285375004458e-06 -1.148405540922369e-07 8.789999552340031e-08 2.6940558568849977e-08 1.165259803878264e-07 0.0 0.0
0.0 4.176127282168597e-05 5.390141270163832e-06 -4.209816293462154e-06 -1.1803249767015744e-06 -4.333395977951807e-06 0.0 0.0
0.0 0.0004988069707271152 0.0003187524216172241 -0.0002532826846192592 -6.546973699796497e-05 -0.0001945141812615097 0.0 0.0
0.0 0.0015661840010746976 0.0013518545310766412 -0.0011096319981753918 -0.00024222253290124887 -0.0006875371485449315 0.0 0.0
0.0 0.0033878989527367405 0.0030177540440943246 -0.002581024866280926 -0.00043672917781339857 -0.0013593899595069896 0.0 0.0
0.0 0.005875832244412846 0.005195272496897458 -0.0045973986593597325 -0.0005978738375377261 -0.0021110391780092093 0.0 0.0
0.0 0.008938875363939147 0.00786802436299404 -0.007143101436738849 -0.0007249229262551894 -0.0029287508166479324 0.0 0.0
0.0 0.012663945689551558 0.011081722503992437 -0.010254049682427033 -0.0008276728215654016 -0.003785837078879211 0.0 0.0
0.0 0.017198816051498176 0.014979367484468634 -0.014062808768188656 -0.000916558716279975 -0.00468973888047019 0.0 0.0
0.0 0.02277313920535251 0.019782335939264505 -0.018784108416560346 -0.0009982275227041597 -0.005734056392768333 0.0 0.0
0.0 0.029667189412254526 0.025698031823667193 -0.02461825297722481 -0.0010797788464423778 -0.0070022455516094905 0.0 0.0
0.0 0.037905733363509206 0.03278133569407603 -0.031619351675944506 -0.0011619840181315056 -0.008496051568951564 0.0 0.0
0.0 0.047053073832651435 0.04084969334901354 -0.039604082179927155 -0.0012456111690863816 -0.009996249223386315 0.0 0.0
0.0 0.056934918602752495 0.0494300649852127 -0.04809795007922042 -0.0013321149059922703 -0.010967229166089082 0.0 0.0
0.0 0.0664385541206399 0.05774147897910308 -0.056321565098559095 -0.0014199138805439848 -0.010750185111239076 0.0 0.0
0.0 0.07432283322335065 0.06470475359409286 -0.06320437410405316 -0.001500379490039675 -0.008757378609923433 0.0 0.0
0.0 0.07924406952983015 0.06911116037656306 -0.0675562835026324 -0.0015548768739306162 -0.0045470405281013955 0.0 0.0
0.0 0.07924406952982649 0.06911116037655947 -0.06755628350262899 -0.0015548768739304896 0.004547040528124399 0.0 0.0
0.0 0.07432283322334124 0.06470475359408351 -0.06320437410404425 -0.001500379490039245 0.008757378609952784 0.0 0.0
0.0 0.0664385541206254 0.05774147897908931 -0.05632156509854583 -0.0014199138805434603 0.010750185111260396 0.0 0.0
0.0 0.056934918602732754 0.04943006498519481 -0.04809795007920296 -0.0013321149059918511 0.010967229166099497 0.0 0.0
0.0 0.04705307383262741 0.04084969334899258 -0.039604082179906776 -0.001245611169085804 0.009996249223383444 0.0 0.0
0.0 0.0379057333634851 0.03278133569405489 -0.03161935167592408 -0.0011619840181308111 0.008496051568949463 0.0 0.0
0.0 0.02966718941223119 0.02569803182364658 -0.024618252977204803 -0.0010797788464417888 0.0070022455516081114 0.0 0.0
0.0 0.022773139205328478 0.019782335939243247 -0.018784108416539592 -0.0009982275227036527 0.005734056392765598 0.0 0.0
0.0 0.017198816051473855 0.01497936748444716 -0.014062808768167581 -0.0009165587162795757 0.004689738880463938 0.0 0.0
0.0 0.012663945689529776 0.011081722503973001 -0.01025404968240817 -0.000827672821564837 0.0037858370788723286 0.0 0.0
0.0 0.008938875363920615 0.007868024362977632 -0.007143101436723154 -0.0007249229262544734 0.0029287508166401834 0.0 0.0
0.0 0.0058758322443982595 0.0051952724968841865 -0.0045973986593473536 -0.0005978738375368327 0.0021110391780045593 0.0 0.0
0.0 0.003387898952725582 0.0030177540440841344 -0.0025810248662716255 -0.0004367291778125072 0.0013593899595023824 0.0 0.0
0.0 0.0015661840010675568 0.0013518545310703257 -0.0011096319981700221 -0.00024222253290030337 0.0006875371485421736 0.0 0.0
0.0 0.0004988069707227822 0.00031875242161446345 -0.0002532826846170358 -6.54697369974277e-05 0.00019451418125987304 0.0 0.0
0.0 4.176127282079989e-05 5.390141270293382e-06 -4.2098162935569e-06 -1.180324976736577e-06 4.333395978013855e-06 0.0 0.0
0.0 1.1217285373393579e-06 -1.1484055407491507e-07 8.789999551013864e-08 2.6940558564774134e-08 -1.1652598037014098e-07 0.0 0.0
0.0 0.0 0.0 0.0 0.0 0.0 0.0 0.0
0.0 0.0 0.0 0.0 0.0 0.0 0.0 0.0
0.0 0.003099200833032797 0.0019616004025061968 -0.0023464690184878097 0.0003848686159816118 0.0025443618212524968 0.0 0.0
0.0 0.0021011045689516496 0.0012667702779864658 -0.0015670391043215112 0.00030026882633504566 -0.0017389761151851727 0.0 0.0
0.0 0.0 0.0 0.0 0.0 0.0 0.0 0.0
0.0 0.0 0.0 0.0 0.0 0.0 0.0 0.0
0.0 0.0 0.0 0.0 0.0 0.0 0.0 0.0
0.0 1.5028928654295538e-05 -6.4649549020574e-07 4.61714521380269e-07 1.8478096882544783e-07 7.429396125411018e-07 0.0 0.0
0.0 0.00022753972659310992 0.00012135651821341579 -9.605988549787717e-05 -2.5296632715538765e-05 -0.00011583998151707797 0.0 0.0
0.0 0.0010960907375341142 0.0007888285291948254 -0.000636644482605248 -0.0001521840465895772 -0.0005657442222034849 0.0 0.0
0.0 0.00250773329829815 0.0021352604842221593 -0.0017902129757750313 -0.00034504750844712806 -0.001323799066501039 0.0 0.0
0.0 0.004568129253333532 0.003980900017871118 -0.00346457217445758 -0.0005163278434135352 -0.0022201414870633247 0.0 0.0
0.0 0.007166748767385363 0.006239894399960369 -0.0055872975031420495 -0.0006525968968183215 -0.0031521794652606635 0.0 0.0
0.0 0.010310401786374677 0.008942548464359181 -0.00818262786906067 -0.0007599205952985095 -0.004120750868983918 0.0 0.0
0.0 0.014100317454347092 0.012198847666889808 -0.011350534823351886 -0.0008483128435379211 -0.005131962862560963 0.0 0.0
0.0 0.018828185856061684 0.016201943014431695 -0.01527516664090836 -0.0009267763735233317 -0.006277851983722709 0.0 0.0
0.0 0.0245315161142969 0.02115696643599363 -0.020155666734182596 -0.0010012997018110296 -0.007685348491280428 0.0 0.0
0.0 0.03152282272112344 0.027139881269138407 -0.0260649283984949 -0.0010749528706434986 -0.009320517991608187 0.0 0.0
0.0 0.03963507585673977 0.034032025838444946 -0.03288260758791649 -0.0011494182505284527 -0.010939538344873814 0.0 0.0
0.0 0.04808340713522335 0.041485369729579405 -0.04026069452926815 -0.0012246752003112578 -0.01208606944011572 0.0 0.0
0.0 0.05644443688788349 0.04887249378813451 -0.04757067091257958 -0.0013018228755549387 -0.012021525445643786 0.0 0.0
0.0 0.06363739234251176 0.05527772006160075 -0.053903374706617324 -0.0013743453549834234 -0.009931081254528597 0.0 0.0
0.0 0.06837809659298523 0.05958723504203603 -0.058161014537343646 -0.001426220504692377 -0.005187999318566458 0.0 0.0
0.0 0.06837809659298262 0.059587235042033185 -0.05816101453734086 -0.0014262205046922751 0.005187999318590391 0.0 0.0
0.0 0.06363739234250157 0.055277720061590624 -0.05390337470660699 -0.0013743453549836357 0.009931081254558875 0.0 0.0
0.0 0.05644443688786913 0.048872493788120766 -0.047570670912565664 -0.0013018228755550764 0.012021525445665628 0.0 0.0
0.0 0.04808340713520591 0.04148536972956343 -0.04026069452925234 -0.0012246752003110947 0.012086069440125958 0.0 0.0
0.0 0.03963507585672075 0.03403202583842817 -0.03288260758790028 -0.001149418250527908 0.010939538344871769 0.0 0.0
0.0 0.0315228227211024 0.02713988126911994 -0.02606492839847685 -0.001074952870643081 0.009320517991605205 0.0 0.0
0.0 0.024531516114277136 0.021156966435976157 -0.02015566673416574 -0.0010012997018104173 0.007685348491277798 0.0 0.0
0.0 0.018828185856041454 0.01620194301441361 -0.015275166640890682 -0.0009267763735229229 0.006277851983719818 0.0 0.0
0.0 0.014100317454328833 0.0121988476668735 -0.011350534823336388 -0.0008483128435371052 0.005131962862554658 0.0 0.0
0.0 0.010310401786356085 0.008942548464342753 -0.008182627869045065 -0.000759920595297689 0.004120750868975932 0.0 0.0
0.0 0.0071667487673679016 0.006239894399945472 -0.00558729750312795 -0.0006525968968175201 0.003152179465250822 0.0 0.0
0.0 0.0045681292533211095 0.003980900017859994 -0.0034645721744472977 -0.000516327843412695 0.0022201414870578595 0.0 0.0
0.0 0.0025077332982886974 0.0021352604842139935 -0.001790212975767879 -0.0003450475084461142 0.0013237990664963417 0.0 0.0
0.0 0.0010960907375281133 0.0007888285291902261 -0.0006366444826014301 -0.0001521840465887962 0.000565744222200483 0.0 0.0
0.0 0.00022753972659094026 0.00012135651821242961 -9.605988549708855e-05 -2.5296632715341084e-05 0.00011583998151610358 0.0 0.0
0.0 1.5028928653698901e-05 -6.464954900292952e-07 4.617145212431707e-07 1.8478096878619532e-07 -7.429396123206895e-07 0.0 0.0
0.0 0.0 0.0 0.0 0.0 0.0 0.0 0.0
0.0 0.0 0.0 0.0 0.0 0.0 0.0 0.0
0.0 0.0 0.0 0.0 0.0 0.0 0.0 0.0
0.0 0.0021011045689424343 0.0012667702779808265 -0.0015670391043150023 0.00030026882633417564 0.0017389761151765729 0.0 0.0
0.0 0.0012941619840210554 0.0007509261474326209 -0.0009594019643284449 0.0002084758168958239 -0.0010733530351601155 0.0 0.0
0.0 0.0 0.0 0.0 0.0 0.0 0.0 0.0
0.0 0.0 0.0 0.0 0.0 0.0 0.0 0.0
0.0 0.0 0.0 0.0 0.0 0.0 0.0 0.0
0.0 1.0042081989473157e-05 -9.329724215854319e-07 7.201815348631364e-07 2.1279088672229382e-07 1.7612736881375419e-06 0.0 0.0
0.0 8.009523673130978e-05 4.4385330683425666e-05 -3.5153363559725646e-05 -9.23196712370001e-06 -6.687965816337818e-05 0.0 0.0
0.0 0.0005778257322129874 0.00038974425621848835 -0.0003101819725267315 -7.956228369175666e-05 -0.00041002969082725365 0.0 0.0
0.0 0.0017000556306301933 0.0013221697335474294 -0.0010848305778994752 -0.00023733915564795423 -0.0011194947928964897 0.0 0.0
0.0 0.0033490869379331073 0.002792348185027015 -0.0023782649836234532 -0.00041408320140356124 -0.00207051806896513 0.0 0.0
0.0 0.005453179527859849 0.004644063375628331 -0.004083394541362819 -0.0005606688342655103 -0.003100651306618033 0.0 0.0
0.0 0.008003120480284124 0.006841886938644419 -0.00616662939829184 -0.0006752575403525779 -0.00413017682744368 0.0 0.0
0.0 0.011091336070849203 0.009470219732108745 -0.008702831771898994 -0.0007673879602097537 -0.005193747223722258 0.0 0.0
0.0 0.014883143115611067 0.012690495095223846 -0.011845324641429261 -0.0008451704537945894 -0.006385817929445607 0.0 0.0
0.0 0.01959566059608504 0.016685486216818732 -0.015770143518789796 -0.0009153426980289304 -0.007807500894459876 0.0 0.0
0.0 0.02537825462599791 0.021558894298333825 -0.020577371187603714 -0.0009815231107301154 -0.009469439962611336 0.0 0.0
0.0 0.031890649310059846 0.027257384200467378 -0.02621118492509371 -0.0010461992753736725 -0.011153402709945363 0.0 0.0
0.0 0.03923769084698063 0.03352840546502554 -0.03241776472371886 -0.0011106407413066742 -0.012373036172271323 0.0 0.0
0.0 0.046565350393879615 0.03993568997267879 -0.03876029909947029 -0.0011753908732084642 -0.012465445488790961 0.0 0.0
0.0 0.05290145508253462 0.045779295622196195 -0.04454020078037193 -0.0012390948418242469 -0.010545499187249858 0.0 0.0
0.0 0.05751632764039751 0.05004181545323918 -0.04875180499416398 -0.0012900104590751996 -0.0056900028811637405 0.0 0.0
0.0 0.05751632764039502 0.050041815453236424 -0.04875180499416113 -0.001290010459075303 0.005690002881186334 0.0 0.0
0.0 0.052901455082527846 0.04577929562218844 -0.044540200780364386 -0.0012390948418240669 0.01054549918727964 0.0 0.0
0.0 0.04656535039387094 0.03993568997266925 -0.03876029909946138 -0.0011753908732078625 0.012465445488812649 0.0 0.0
0.0 0.0392376908469684 0.03352840546501369 -0.0324177647237078 -0.001110640741305873 0.01237303617228094 0.0 0.0
0.0 0.03189064931004214 0.027257384200452033 -0.02621118492507889 -0.0010461992753731312 0.011153402709941668 0.0 0.0
0.0 0.02537825462598011 0.021558894298318247 -0.02057737118758864 -0.0009815231107296067 0.009469439962606949 0.0 0.0
0.0 0.019595660596070052 0.016685486216805285 -0.01577014351877692 -0.0009153426980283647 0.007807500894457095 0.0 0.0
0.0 0.014883143115595134 0.012690495095209645 -0.011845324641415656 -0.0008451704537939872 0.00638581792944255 0.0 0.0
0.0 0.011091336070832137 0.009470219732094054 -0.008702831771884903 -0.0007673879602091508 0.005193747223715232 0.0 0.0
0.0 0.008003120480268317 0.006841886938630771 -0.006166629398278983 -0.000675257540351789 0.0041301768274357754 0.0 0.0
0.0 0.0054531795278456455 0.004644063375616225 -0.004083394541351589 -0.0005606688342646342 0.003100651306608338 0.0 0.0
0.0 0.003349086937922903 0.0027923481850179958 -0.0023782649836153707 -0.0004140832014026248 0.002070518068959362 0.0 0.0
0.0 0.0017000556306224364 0.0013221697335411057 -0.0010848305778940756 -0.00023733915564702932 0.0011194947928916698 0.0 0.0
0.0 0.0005778257322087406 0.00038974425621559163 -0.00031018197252437817 -7.95622836912133e-05 0.00041002969082453615 0.0 0.0
0.0 8.0095236730159e-05 4.4385330683289477e-05 -3.515336355961616e-05 -9.231967123673352e-06 6.68796581631213e-05 0.0 0.0
0.0 1.0042081989081814e-05 -9.329724215460563e-07 7.201815348328094e-07 2.127908867132563e-07 -1.7612736880608109e-06 0.0 0.0
0.0 0.0 0.0 0.0 0.0 0.0 0.0 0.0
0.0 0.0 0.0 0.0 0.0 0.0 0.0 0.0
0.0 0.0 0.0 0.0 0.0 0.0 0.0 0.0
0.0 0.001294161984014251 0.0007509261474286856 -0.0009594019643237225 0.00020847581689503706 0.001073353035154185 0.0 0.0
0.0 0.000709099549865151 0.0003787846752578358 -0.0004986409009331518 0.000119856225675316 -0.0005618746733307416 0.0 0.0
0.0 0.0 0.0 0.0 0.0 0.0 0.0 0.0
0.0 0.0 0.0 0.0 0.0 0.0 0.0 0.0
0.0 0.0 0.0 0.0 0.0 0.0 0.0 0.0
0.0 3.217223271532526e-06 -1.971444864950563e-07 1.4812460987413522e-07 4.9019876620916786e-08 5.079399900274096e-07 0.0 0.0
0.0 4.6060733001968594e-05 7.2394434779868685e-06 -5.742378938491018e-06 -1.4970645394958883e-06 -1.5164355410996102e-05 0.0 0.0
0.0 0.0002542539862895567 0.00014417750185359788 -0.00011412082267281019 -3.0056679180787618e-05 -0.00023881773049590444 0.0 0.0
0.0 0.0009607331715941272 0.0006671142099568176 -0.000535830493841609 -0.000131283716115208 -0.0008106130477805202 0.0 0.0
0.0 0.002195051091873769 0.001682495410185628 -0.0013957363027526262 -0.00028675910743300155 -0.0016792647333490546 0.0 0.0
0.0 0.003810419054389108 0.00309567292221358 -0.0026549906342721954 -0.00044068228794138506 -0.0027231298154616933 0.0 0.0
0.0 0.005781062672115656 0.004793879338598171 -0.004229866086191501 -0.0005640132524066707 -0.003796357257106664 0.0 0.0
0.0 0.008158744016418045 0.006808218757389421 -0.006143980198809784 -0.0006642385585796372 -0.004863305293172293 0.0 0.0
0.0 0.011094159636485695 0.009262483341866983 -0.008516464619291503 -0.0007460187225754772 -0.006026572024603338 0.0 0.0
0.0 0.014702152489994402 0.01231640478061544 -0.01150046917152905 -0.0008159356090863806 -0.007390853296394938 0.0 0.0
0.0 0.019179923723273457 0.016076219227465622 -0.015199727550800686 -0.0008764916766649318 -0.008961510333783007 0.0 0.0
0.0 0.024464164190912352 0.020550142675100563 -0.019616137049036655 -0.000934005626063899 -0.010566050787969286 0.0 0.0
0.0 0.030278356564948154 0.025596038910455234 -0.024608393221791112 -0.0009876456886641228 -0.011819178624058884 0.0 0.0
0.0 0.03635800890585183 0.03094662062800275 -0.02990824308411802 -0.0010383775438847314 -0.012102071487934544 0.0 0.0
0.0 0.04220746187075215 0.0361582215634198 -0.03506714138537176 -0.001091080178048025 -0.01056121731974613 0.0 0.0
0.0 0.04678681583294963 0.04039152358392799 -0.039248963655315425 -0.001142559928612545 -0.006034205699903349 0.0 0.0
0.0 0.04678681583294809 0.04039152358392598 -0.0392489636553135 -0.0011425599286124697 0.006034205699923316 0.0 0.0
0.0 0.04220746187074729 0.036158221563413494 -0.03506714138536552 -0.0010910801780479617 0.010561217319774418 0.0 0.0
0.0 0.03635800890584433 0.030946620627994095 -0.02990824308410972 -0.0010383775438843773 0.012102071487954183 0.0 0.0
0.0 0.030278356564937898 0.025596038910445117 -0.024608393221781273 -0.0009876456886638468 0.011819178624066496 0.0 0.0
0.0 0.024464164190899 0.02055014267508905 -0.01961613704902542 -0.0009340056260636238 0.010566050787965468 0.0 0.0
0.0 0.01917992372325804 0.016076219227452577 -0.015199727550787651 -0.0008764916766649266 0.008961510333777206 0.0 0.0
0.0 0.014702152489980889 0.012316404780603682 -0.011500469171517522 -0.0008159356090861554 0.0073908532963911245 0.0 0.0
0.0 0.011094159636474622 0.009262483341857019 -0.00851646461928216 -0.0007460187225748576 0.006026572024600743 0.0 0.0
0.0 0.00815874401640649 0.006808218757379394 -0.006143980198800504 -0.0006642385585788882 0.004863305293166178 0.0 0.0
0.0 0.005781062672103935 0.0047938793385885175 -0.004229866086182446 -0.0005640132524060698 0.00379635725709865 0.0 0.0
0.0 0.003810419054378379 0.0030956729222049507 -0.002654990634264439 -0.0004406822879405109 0.0027231298154530943 0.0 0.0
0.0 0.0021950510918653555 0.0016824954101790298 -0.0013957363027468886 -0.0002867591074321402 0.001679264733343636 0.0 0.0
0.0 0.000960733171588541 0.0006671142099528481 -0.000535830493838388 -0.00013128371611446064 0.0008106130477763334 0.0 0.0
0.0 0.0002542539862873682 0.00014417750185249752 -0.00011412082267193684 -3.005667918056051e-05 0.0002388177304942924 0.0 0.0
0.0 4.606073300097955e-05 7.239443477966504e-06 -5.742378938475124e-06 -1.4970645394913115e-06 1.516435541093811e-05 0.0 0.0
0.0 3.2172232712826504e-06 -1.9714448632524493e-07 1.4812460973806117e-07 4.901987658717741e-08 -5.079399895353021e-07 0.0 0.0
0.0 0.0 0.0 0.0 0.0 0.0 0.0 0.0
0.0 0.0 0.0 0.0 0.0 0.0 0.0 0.0
0.0 0.0 0.0 0.0 0.0 0.0 0.0 0.0
0.0 0.0007090995498602914 0.00037878467525536834 -0.0004986409009300715 0.0001198562256747031 0.0005618746733269646 0.0 0.0
0.0 0.0003150306449286722 0.0001385809041526913 -0.00018909854717766685 5.051764302497583e-05 -0.00020935033665483418 0.0 0.0
0.0 9.021725963171627e-08 -5.274566123778698e-10 6.099197200343717e-10 -8.24631076566411e-11 1.7958020711408732e-08 0.0 0.0
0.0 0.0 0.0 0.0 0.0 0.0 0.0 0.0
0.0 0.0 0.0 0.0 0.0 0.0 0.0 0.0
0.0 2.941446764786285e-06 -1.3952363807393717e-07 1.0592787567314353e-07 3.3595762400780106e-08 5.885360677433528e-07 0.0 0.0
0.0 2.4569712506064926e-05 2.6312763021622508e-06 -1.9941559268429578e-06 -6.371203753192935e-07 -7.292151279460344e-06 0.0 0.0
0.0 0.00012132397767403665 4.745430905205782e-05 -3.7400032582653136e-05 -1.0054276469404694e-05 -0.00012756651443436473 0.0 0.0
0.0 0.00042331787873434764 0.00023270300391521249 -0.00018382774552107688 -4.8875258394135585e-05 -0.00046583577178537807 0.0 0.0
0.0 0.0011789957358505495 0.0007536611606988384 -0.0006075723788582291 -0.00014608878184060897 -0.0011228549710743628 0.0 0.0
0.0 0.002219275842949231 0.001661263391600265 -0.0013781943602005863 -0.00028306903139967913 -0.0020419342320422995 0.0 0.0
0.0 0.0037024199459796043 0.0028303354092388067 -0.0024202436486201275 -0.0004100917606186782 -0.0030533914367180956 0.0 0.0
0.0 0.005351384233610012 0.0042395748268915 -0.0037204123589486067 -0.0005191624679428937 -0.004089119229153838 0.0 0.0
0.0 0.007398048590623971 0.0059500674797034045 -0.005338850865163697 -0.0006112166145397059 -0.005184676219980682 0.0 0.0
0.0 0.009979962646499169 0.00808109071182561 -0.007393480607680059 -0.0006876101041455472 -0.0064101019136357015 0.0 0.0
0.0 0.013238017107886444 0.01073557225330856 -0.009984878001854146 -0.0007506942514544157 -0.0077879352556460574 0.0 0.0
0.0 0.01709715744573212 0.013964013838555278 -0.013161152664052208 -0.000802861174503069 -0.009215983174374047 0.0 0.0
0.0 0.021571810308978295 0.017732815802709162 -0.016882969139650063 -0.0008498466630591016 -0.010374814652074255 0.0 0.0
0.0 0.026284157096754936 0.02193013792788215 -0.021041239007312362 -0.0008888989205697803 -0.010809808995154917 0.0 0.0
0.0 0.031123265492601464 0.02638345571318868 -0.02545950620175446 -0.0009239495114341979 -0.009882800321828849 0.0 0.0
0.0 0.03552706519734797 0.030557536923210064 -0.029583222201143018 -0.0009743147220670405 -0.00619034401589936 0.0 0.0
0.0 0.035527065197346115 0.030557536923207722 -0.029583222201140503 -0.0009743147220672096 0.006190344015915226 0.0 0.0
0.0 0.031123265492599556 0.026383455713184747 -0.025459506201750696 -0.0009239495114340508 0.009882800321852587 0.0 0.0
0.0 0.026284157096749097 0.021930137927874925 -0.021041239007305555 -0.0008888989205693702 0.010809808995171328 0.0 0.0
0.0 0.021571810308969902 0.017732815802700932 -0.016882969139642316 -0.0008498466630586128 0.010374814652078703 0.0 0.0
0.0 0.01709715744572322 0.01396401383854769 -0.013161152664045318 -0.0008028611745023684 0.009215983174370293 0.0 0.0
0.0 0.01323801710787664 0.010735572253300357 -0.009984878001846439 -0.0007506942514539128 0.007787935255641476 0.0 0.0
0.0 0.009979962646491744 0.008081090711819162 -0.007393480607674075 -0.0006876101041450861 0.006410101913633443 0.0 0.0
0.0 0.007398048590616149 0.005950067479696387 -0.005338850865157119 -0.0006112166145392651 0.0051846762199786465 0.0 0.0
0.0 0.005351384233600201 0.004239574826883462 -0.0037204123589410646 -0.0005191624679423977 0.004089119229147575 0.0 0.0
0.0 0.0037024199459705304 0.002830335409231599 -0.002420243648613749 -0.00041009176061784975 0.0030533914367109317 0.0 0.0
0.0 0.002219275842940694 0.0016612633915940337 -0.0013781943601951583 -0.0002830690313988752 0.002041934232034831 0.0 0.0
0.0 0.0011789957358453783 0.0007536611606952299 -0.0006075723788552163 -0.00014608878184001387 0.0011228549710700227 0.0 0.0
0.0 0.00042331787873202116 0.0002327030039138939 -0.00018382774552001162 -4.887525839388212e-05 0.0004658357717832525 0.0 0.0
0.0 0.0001213239776727117 4.74543090517763e-05 -3.7400032582425427e-05 -1.0054276469350921e-05 0.00012756651443362842 0.0 0.0
0.0 2.4569712505558e-05 2.6312763021566066e-06 -1.9941559268391876e-06 -6.371203753173949e-07 7.292151279463729e-06 0.0 0.0
0.0 2.9414467642801842e-06 -1.3952363805020315e-07 1.0592787565476392e-07 3.359576239544616e-08 -5.885360676368125e-07 0.0 0.0
0.0 0.0 0.0 0.0 0.0 0.0 0.0 0.0
0.0 0.0 0.0 0.0 0.0 0.0 0.0 0.0
0.0 9.021725939530122e-08 -5.274566109826295e-10 6.099197184208691e-10 -8.246310743827494e-11 -1.7958020663926448e-08 0.0 0.0
0.0 0.0003150306449258274 0.00013858090415165612 -0.0001890985471763054 5.0517643024649475e-05 0.0002093503366533116 0.0 0.0
0.0 8.0217587271752e-05 3.171604597860416e-05 -4.5263613528923687e-05 1.3547567550319578e-05 -5.0636100142389784e-05 0.0 0.0
0.0 1.6538167115190833e-06 -2.748905065804631e-09 7.58763272979475e-09 -4.838727663989611e-09 3.533900715791832e-07 0.0 0.0
0.0 0.0 0.0 0.0 0.0 0.0 0.0 0.0
0.0 1.3942118126280809e-06 -1.7202479833820512e-08 1.1633862331670308e-08 5.568617502153395e-09 2.882879494068393e-07 0.0 0.0
0.0 3.0628381032312882e-06 -6.90575449801798e-08 5.370267077264668e-08 1.5354874207528902e-08 6.580753880870616e-07 0.0 0.0
0.0 1.7990431308992352e-05 -3.255025269430936e-07 2.3366385029696727e-07 9.183867664612188e-08 1.9850905762823732e-06 0.0 0.0
0.0 8.543112391173075e-05 1.847010992884911e-05 -1.4590854395780765e-05 -3.879255533068311e-06 -8.780186987614866e-05 0.0 0.0
0.0 0.0001984067522006535 7.22282244041203e-05 -5.699461259919378e-05 -1.5233611804926515e-05 -0.00028487473245890734 0.0 0.0
0.0 0.0004709964018535999 0.00019674179519075564 -0.00015553179243720436 -4.1210002753551266e-05 -0.0005918955828732462 0.0 0.0
0.0 0.0009573632446234774 0.0005145786505685887 -0.00041039759133414914 -0.00010418105923443959 -0.0011622478828056683 0.0 0.0
0.0 0.0017096001431391008 0.001092350596781631 -0.0008912704335045751 -0.0002010801632770557 -0.0019517192265824978 0.0 0.0
0.0 0.002754642020037903 0.0018557131840918814 -0.0015548241163990564 -0.0003008890676928249 -0.0028328653223941755 0.0 0.0
0.0 0.004010934270386386 0.002824797997737838 -0.0024265225200493035 -0.0003982754776885334 -0.003824014610459961 0.0 0.0
0.0 0.0055956102367915005 0.004056347632650583 -0.0035690269200306765 -0.0004873207126199063 -0.004889645460146235 0.0 0.0
0.0 0.007581227632422242 0.005620670599982343 -0.005057672149577056 -0.0005629984504052862 -0.0060319291142196555 0.0 0.0
0.0 0.010031827207129022 0.007589414020482698 -0.006966326353014571 -0.0006230876674681291 -0.007213177194914448 0.0 0.0
0.0 0.013033123350674814 0.01003410097696995 -0.00936405126289925 -0.0006700497140707056 -0.008263826637831182 0.0 0.0
0.0 0.016463296119892473 0.012991059429735581 -0.012279130770195679 -0.0007119286595399064 -0.00875112249568045 0.0 0.0
0.0 0.020322596116696644 0.016476104091038446 -0.015744344505253624 -0.000731759585784828 -0.00836946747144717 0.0 0.0
0.0 0.024403776022006975 0.020437068245457858 -0.019667500786020396 -0.0007695674594374659 -0.006025065188246871 0.0 0.0
0.0 0.024403776022006104 0.020437068245456203 -0.019667500786018758 -0.0007695674594374535 0.0060250651882593 0.0 0.0
0.0 0.020322596116696155 0.016476104091035688 -0.01574434450525103 -0.0007317595857846515 0.008369467471466711 0.0 0.0
0.0 0.01646329611988969 0.01299105942973094 -0.012279130770191366 -0.0007119286595395759 0.008751122495694062 0.0 0.0
0.0 0.013033123350670025 0.010034100976965072 -0.009364051262894822 -0.0006700497140702497 0.008263826637833892 0.0 0.0
0.0 0.010031827207122847 0.007589414020478209 -0.006966326353010536 -0.0006230876674676707 0.0072131771949097015 0.0 0.0
0.0 0.007581227632416484 0.005620670599978126 -0.005057672149573083 -0.0005629984504050405 0.006031929114215073 0.0 0.0
0.0 0.005595610236786153 0.004056347632646156 -0.0035690269200265483 -0.00048732071261960657 0.004889645460143562 0.0 0.0
0.0 0.0040109342703826345 0.002824797997734469 -0.0024265225200462326 -0.0003982754776882362 0.0038240146104584006 0.0 0.0
0.0 0.0027546420200330614 0.0018557131840885336 -0.0015548241163963067 -0.0003008890676922265 0.002832865322389722 0.0 0.0
0.0 0.0017096001431344322 0.0010923505967786404 -0.0008912704335021519 -0.00020108016327648794 0.0019517192265777125 0.0 0.0
0.0 0.0009573632446190067 0.0005145786505661666 -0.0004103975913321703 -0.00010418105923399615 0.0011622478828008508 0.0 0.0
0.0 0.00047099640185170014 0.00019674179518982277 -0.00015553179243647835 -4.12100027533443e-05 0.0005918955828710345 0.0 0.0
0.0 0.00019840675219945738 7.22282244038291e-05 -5.699461259896807e-05 -1.5233611804860969e-05 0.00028487473245784146 0.0 0.0
0.0 8.54311239106644e-05 1.8470109928702332e-05 -1.4590854395660616e-05 -3.879255533041692e-06 8.780186987542902e-05 0.0 0.0
0.0 1.7990431308587944e-05 -3.2550252690325264e-07 2.3366385026607584e-07 9.183867663718834e-08 -1.9850905760205774e-06 0.0 0.0
0.0 3.062838102718457e-06 -6.905754496692381e-08 5.3702670762761436e-08 1.535487420416051e-08 -6.580753879724068e-07 0.0 0.0
0.0 1.3942118121365584e-06 -1.7202479827439693e-08 1.1633862327329383e-08 5.568617500112952e-09 -2.8828794930130727e-07 0.0 0.0
0.0 0.0 0.0 0.0 0.0 0.0 0.0 0.0
0.0 1.65381671108306e-06 -2.7489050652915605e-09 7.587632727915323e-09 -4.8387276626236715e-09 -3.5339007148384286e-07 0.0 0.0
0.0 8.021758727035684e-05 3.171604597839562e-05 -4.526361352860236e-05 1.3547567550206734e-05 5.0636100142232086e-05 0.0 0.0
0.0 8.573181468346374e-06 -9.21639741727104e-08 9.943488868314529e-08 -7.270914510428134e-09 3.4968629699725177e-07 0.0 0.0
0.0 2.1979396482406107e-06 1.1868574056845524e-09 1.0883559240507842e-08 -1.207041664619258e-08 4.588111399241068e-07 0.0 0.0
0.0 8.28283976103979e-07 8.757322001854407e-09 -7.994197467743662e-09 -7.631245341108108e-10 1.6872916499049268e-07 0.0 0.0
0.0 1.0341171999299922e-06 3.4830124123105497e-09 -4.631541757330647e-09 1.1485293450206947e-09 2.129476539670559e-07 0.0 0.0
0.0 5.455561020512527e-06 -1.877319191668789e-08 9.400339741409076e-09 9.372852175272426e-09 1.2338249442580408e-06 0.0 0.0
0.0 1.5124237525775085e-05 6.502189630928945e-08 -5.6901437122182145e-08 -8.120459187097084e-09 -1.141745067165723e-06 0.0 0.0
0.0 6.453327612616094e-05 5.521870659019352e-06 -4.342195026427659e-06 -1.1796756325916943e-06 -8.292080633830025e-05 0.0 0.0
0.0 0.0001717766026158035 1.7368657333019986e-05 -1.3673893022092764e-05 -3.694764310927193e-06 -0.00020741802125480164 0.0 0.0
0.0 0.00028651875509745015 4.3689627950273805e-05 -3.448107651308889e-05 -9.208551437184934e-06 -0.0004255766349019926 0.0 0.0
0.0 0.0004950179780010179 8.462655171243575e-05 -6.704762593097931e-05 -1.7578925781456412e-05 -0.00069149003547697 0.0 0.0
0.0 0.0006811886624174118 0.00015711007779733137 -0.0001253806015476874 -3.1729476249643936e-05 -0.0011291923517545404 0.0 0.0
0.0 0.001023156657158422 0.00026457678059653433 -0.00021238526627152625 -5.2191514325008014e-05 -0.001670559663889226 0.0 0.0
0.0 0.0015194127754547778 0.00046120768622761167 -0.0003694260264891823 -9.178165973842937e-05 -0.0023900113471433428 0.0 0.0
0.0 0.002202113904943412 0.0007513640577963943 -0.0006060437108818095 -0.00014532034691458443 -0.0032948347612849864 0.0 0.0
0.0 0.00306893934932253 0.0011599505738696296 -0.0009490276602381433 -0.00021092291363148616 -0.004394588623767808 0.0 0.0
0.0 0.004232386921349195 0.0017979391548522163 -0.0015194721779419281 -0.0002784669769102876 -0.00561323650101296 0.0 0.0
0.0 0.005754314767199376 0.002838570425379994 -0.0024999073389262963 -0.00033866308645369707 -0.006739616025386829 0.0 0.0
0.0 0.007712072637028453 0.004481865282298238 -0.004077210710922187 -0.0004046545713760507 -0.007320036202605654 0.0 0.0
0.0 0.010168490851789863 0.00681046678440943 -0.006338031741479792 -0.0004724350429296365 -0.00694558042234692 0.0 0.0
0.0 0.013473998018471368 0.010094886494247595 -0.009625683339099791 -0.00046920315514779843 -0.005722968636923653 0.0 0.0
0.0 0.013473998018471097 0.010094886494246757 -0.009625683339098934 -0.00046920315514782 0.005722968636931192 0.0 0.0
0.0 0.010168490851790857 0.006810466784408016 -0.006338031741478438 -0.0004724350429295748 0.0069455804223609845 0.0 0.0
0.0 0.007712072637026363 0.004481865282295187 -0.0040772107109190315 -0.0004046545713761534 0.007320036202612377 0.0 0.0
0.0 0.005754314767196943 0.002838570425377996 -0.0024999073389243226 -0.00033866308645367333 0.006739616025387208 0.0 0.0
0.0 0.004232386921345965 0.0017979391548507495 -0.0015194721779405846 -0.0002784669769101644 0.00561323650100864 0.0 0.0
0.0 0.0030689393493192043 0.0011599505738680673 -0.0009490276602367269 -0.0002109229136313403 0.004394588623763633 0.0 0.0
0.0 0.0022021139049419047 0.0007513640577958784 -0.0006060437108813538 -0.00014532034691452445 0.003294834761283144 0.0 0.0
0.0 0.001519412775453619 0.0004612076862274568 -0.00036942602648916347 -9.178165973829308e-05 0.002390011347141346 0.0 0.0
0.0 0.0010231566571561295 0.0002645767805959258 -0.0002123852662710409 -5.219151432488484e-05 0.0016705596638856381 0.0 0.0
0.0 0.0006811886624153244 0.00015711007779688684 -0.00012538060154730388 -3.172947624958297e-05 0.00112919235175068 0.0 0.0
0.0 0.0004950179779985563 8.462655171207107e-05 -6.704762593066991e-05 -1.7578925781401118e-05 0.0006914900354732951 0.0 0.0
0.0 0.0002865187550966615 4.3689627950178124e-05 -3.448107651302643e-05 -9.208551437151655e-06 0.00042557663490091796 0.0 0.0
0.0 0.00017177660261521316 1.7368657332965932e-05 -1.3673893022056815e-05 -3.6947643109091138e-06 0.00020741802125407165 0.0 0.0
0.0 6.453327612551351e-05 5.5218706589821615e-06 -4.34219502639754e-06 -1.1796756325846126e-06 8.292080633778292e-05 0.0 0.0
0.0 1.5124237525346918e-05 6.502189631667489e-08 -5.690143712736587e-08 -8.120459189313288e-09 1.1417450673323905e-06 0.0 0.0
0.0 5.4555610200182124e-06 -1.87731919147807e-08 9.400339740515117e-09 9.372852174262189e-09 -1.2338249441362645e-06 0.0 0.0
0.0 1.0341171994111593e-06 3.4830124097744975e-09 -4.63154175459075e-09 1.1485293448161685e-09 -2.1294765385734702e-07 0.0 0.0
0.0 8.282839756553083e-07 8.757321996808003e-09 -7.99419746324245e-09 -7.631245335657651e-10 -1.687291648967851e-07 0.0 0.0
0.0 2.1979396476663126e-06 1.1868574058352821e-09 1.0883559236708018e-08 -1.2070416642541689e-08 -4.588111397997392e-07 0.0 0.0
0.0 8.57318146788132e-06 -9.216397405429033e-08 9.943488851049869e-08 -7.270914456257518e-09 -3.49686296764959e-07 0.0 0.0
0.0 1.1154274967154838e-06 -6.940272927065707e-08 1.0140536005932445e-07 -3.2002630788669234e-08 1.5472886577778056e-07 0.0 0.0
0.0 1.7796170291698353e-06 6.777231581667589e-09 2.818520896233413e-09 -9.595752477896557e-09 3.8083891622846305e-07 0.0 0.0
0.0 1.006612653282911e-06 1.8800037151531995e-08 -1.6160969127413305e-08 -2.6390680241173787e-09 2.0557945423080885e-07 0.0 0.0
0.0 1.3830639415008088e-06 2.5459537940910303e-08 -2.257136934973081e-08 -2.8881685911793595e-09 2.8364822182210734e-07 0.0 0.0
0.0 6.329568723119171e-06 1.2100159608371412e-07 -9.95749289913299e-08 -2.1426667092374816e-08 1.450807040856032e-06 0.0 0.0
0.0 1.79112929637173e-05 1.5683575051759482e-07 -1.2024616779876996e-07 -3.6589582718830915e-08 1.9813845802634164e-06 0.0 0.0
0.0 6.617850082660367e-05 -5.840909845759296e-06 4.65696038166919e-06 1.1839494640900928e-06 -8.331110674306358e-05 0.0 0.0
0.0 0.00017198298943352453 -1.7332471028281743e-05 1.364351150815073e-05 3.6889595201309774e-06 -0.00020760606673617493 0.0 0.0
0.0 0.000286173467035944 -4.341352512546872e-05 3.4238314377249656e-05 9.17521074821904e-06 -0.0004253380550815999 0.0 0.0
0.0 0.0004945270914971091 -8.43031687709427e-05 6.675851291476478e-05 1.754465585617801e-05 -0.0006909888499331267 0.0 0.0
0.0 0.0006890985369795147 -0.00015586632488559556 0.0001245448868777756 3.132143800781991e-05 -0.0011278224107295436 0.0 0.0
0.0 0.0010239217024005662 -0.00026549665717815434 0.0002134436791357162 5.205297804243801e-05 -0.0016708216222909315 0.0 0.0
0.0 0.001524029951918146 -0.0004676126536809732 0.0003753610287836964 9.225162489727684e-05 -0.002390954799594704 0.0 0.0
0.0 0.0022140975863630284 -0.0007644043207489452 0.000616410520465726 0.0001479938002832189 -0.0032986572472392304 0.0 0.0
0.0 0.003062763310480247 -0.0011450528910871105 0.000928852245846642 0.00021620064524046777 -0.004404751493058167 0.0 0.0
0.0 0.004077864767392835 -0.0015454613213512509 0.0012597512479126916 0.00028571007343855775 -0.005669112536550047 0.0 0.0
0.0 0.005064337981599117 -0.0017682442641038638 0.0014286432182753553 0.0003396010458285079 -0.007079358027003483 0.0 0.0
0.0 0.005863397978583521 -0.0015406758411645842 0.001172105283532981 0.0003685705576316029 -0.008589174532889527 0.0 0.0
0.0 0.006176244987217843 -0.0007388398281648166 0.0004745875302591832 0.0002642522979056328 -0.009770957244442238 0.0 0.0
0.0 0.005725668726070813 0.0013127419155318457 -0.0013957649589786878 8.302304344684198e-05 -0.008381214398289618 0.0 0.0
0.0 0.0057256687260740825 0.0013127419155318295 -0.0013957649589788662 8.302304344703595e-05 0.008381214398297344 0.0 0.0
0.0 0.006176244987221601 -0.0007388398281650593 0.0004745875302592532 0.0002642522979058057 0.009770957244450214 0.0 0.0
0.0 0.00586339797858261 -0.001540675841164111 0.0011721052835326248 0.000368570557631485 0.008589174532890594 0.0 0.0
0.0 0.005064337981596086 -0.0017682442641021858 0.0014286432182740408 0.0003396010458281449 0.007079358027001128 0.0 0.0
0.0 0.0040778647673873625 -0.0015454613213481663 0.0012597512479099473 0.00028571007343821883 0.005669112536544224 0.0 0.0
0.0 0.003062763310477265 -0.0011450528910860289 0.0009288522458457527 0.0002162006452402759 0.00440475149305405 0.0 0.0
0.0 0.0022140975863608817 -0.0007644043207475646 0.0006164105204646806 0.00014799380028288403 0.003298657247237274 0.0 0.0
0.0 0.0015240299519152125 -0.0004676126536791899 0.00037536102878223587 9.225162489695387e-05 0.002390954799591574 0.0 0.0
0.0 0.0010239217023976233 -0.0002654966571770231 0.00021344367913475842 5.2052978042264584e-05 0.001670821622286892 0.0 0.0
0.0 0.0006890985369770487 -0.0001558663248848348 0.00012454488687716644 3.1321438007668323e-05 0.0011278224107259464 0.0 0.0
0.0 0.0004945270914947822 -8.430316877035736e-05 6.675851291425484e-05 1.7544655856102493e-05 0.0006909888499297299 0.0 0.0
0.0 0.0002861734670348889 -4.341352512521039e-05 3.4238314377038324e-05 9.175210748172051e-06 0.00042533805508013277 0.0 0.0
0.0 0.0001719829894327131 -1.7332471028177894e-05 1.3643511508069468e-05 3.688959520108416e-06 0.00020760606673531862 0.0 0.0
0.0 6.617850082600514e-05 -5.8409098457264175e-06 4.656960381651969e-06 1.1839494640744411e-06 8.33111067426347e-05 0.0 0.0
0.0 1.7911292963190442e-05 1.5683575050405645e-07 -1.202461677872556e-07 -3.658958271678914e-08 -1.9813845800634374e-06 0.0 0.0
0.0 6.329568722502479e-06 1.210015960720766e-07 -9.957492898152986e-08 -2.142666709055061e-08 -1.4508070407032778e-06 0.0 0.0
0.0 1.38306394101384e-06 2.5459537931086613e-08 -2.257136934122153e-08 -2.8881685898646692e-09 -2.8364822171881803e-07 0.0 0.0
0.0 1.0066126526757192e-06 1.8800037139368483e-08 -1.616096911716342e-08 -2.639068022204588e-09 -2.0557945410441137e-07 0.0 0.0
0.0 1.7796170285604457e-06 6.777231579867834e-09 2.8185208935578717e-09 -9.595752473420792e-09 -3.808389160997736e-07 0.0 0.0
0.0 1.1154274964526031e-06 -6.940272925345171e-08 1.0140536003419192e-07 -3.2002630780733594e-08 -1.5472886573936063e-07 0.0 0.0
0.0 0.0 0.0 0.0 0.0 0.0 0.0 0.0
0.0 3.276462985221994e-07 3.2186778971512715e-09 -1.5001146982919518e-09 -1.7185631988585876e-09 6.55534057056826e-08 0.0 0.0
0.0 1.1358547083526696e-06 2.9199022431040485e-08 -2.4414515400477513e-08 -4.784507030563987e-09 2.311035997749412e-07 0.0 0.0
0.0 4.433390297608247e-06 1.6015753021184142e-07 -1.3149237797340506e-07 -2.8665152238422848e-08 9.6169292488308e-07 0.0 0.0
0.0 5.872498713701131e-06 1.5756350388949597e-07 -1.19292729729402e-07 -3.8270774160086176e-08 7.84193078352088e-07 0.0 0.0
0.0 2.308707910418647e-05 -2.0361914461403663e-06 1.5332200962543202e-06 5.029713498860094e-07 -9.049961773498988e-06 0.0 0.0
0.0 9.12068651087547e-05 -1.90668569766482e-05 1.5129037809818006e-05 3.9378191668301855e-06 -8.955839337984579e-05 0.0 0.0
0.0 0.00019932298384908772 -7.219238441298563e-05 5.697367197600523e-05 1.5218712436980391e-05 -0.00028517136669421457 0.0 0.0
0.0 0.000468940347136847 -0.00019626334333245626 0.0001551048694108071 4.115847392164904e-05 -0.0005911422063536535 0.0 0.0
0.0 0.0009552673373625674 -0.0005137013089229689 0.0004096400578304444 0.00010406125109252431 -0.0011612740326826486 0.0 0.0
0.0 0.00170890003198554 -0.001092048982894618 0.0008910513463351445 0.00020099763655947344 -0.0019518163214667867 0.0 0.0
0.0 0.002756659914699657 -0.001858196202441495 0.0015574501054030287 0.00030074609703846603 -0.0028324897995393263 0.0 0.0
0.0 0.004021191658405676 -0.0028366381080297564 0.00243850684355753 0.0003981312644722255 -0.0038172995368301863 0.0 0.0
0.0 0.005620475056911113 -0.00408116924051017 0.0035922536811013356 0.0004889155594088341 -0.004881264210584459 0.0 0.0
0.0 0.007584733075708302 -0.005606654928694818 0.005035569884340972 0.0005710850443538436 -0.006077864104698685 0.0 0.0
0.0 0.00981503895217963 -0.007305708406223487 0.006663083553063959 0.0006426248531595258 -0.0074891212329284695 0.0 0.0
0.0 0.01203553253396179 -0.008878346259311692 0.008172843992113038 0.0007055022671986556 -0.00913664119498961 0.0 0.0
0.0 0.013660327184604668 -0.009821609386615072 0.009064276670156014 0.0007573327164590597 -0.010901664081121044 0.0 0.0
0.0 0.013430621959483593 -0.009250015925353287 0.008414194801495993 0.0008358211238572908 -0.01161194018094361 0.0 0.0
0.0 0.0098497517300007 -0.005880302617665518 0.005048587110543943 0.0008317155071215737 -0.00931368059165173 0.0 0.0
0.0 0.009849751730004843 -0.005880302617666254 0.00504858711054457 0.0008317155071216821 0.009313680591663057 0.0 0.0
0.0 0.013430621959486903 -0.009250015925352933 0.0084141948014958 0.0008358211238571282 0.011611940180958364 0.0 0.0
0.0 0.013660327184603227 -0.009821609386611974 0.009064276670153196 0.0007573327164587757 0.010901664081129879 0.0 0.0
0.0 0.012035532533954459 -0.008878346259305187 0.008172843992106838 0.0007055022671983483 0.009136641194988866 0.0 0.0
0.0 0.009815038952170278 -0.007305708406216039 0.006663083553056759 0.0006426248531592798 0.007489121232922355 0.0 0.0
0.0 0.0075847330757008655 -0.005606654928688785 0.005035569884335311 0.000571085044353472 0.006077864104694055 0.0 0.0
0.0 0.005620475056904724 -0.004081169240505233 0.0035922536810969186 0.0004889155594083145 0.004881264210579976 0.0 0.0
0.0 0.004021191658398435 -0.0028366381080234607 0.002438506843551831 0.0003981312644716283 0.0038172995368264857 0.0 0.0
0.0 0.002756659914690086 -0.0018581962024345204 0.0015574501053967926 0.0003007460970377278 0.002832489799532101 0.0 0.0
0.0 0.0017089000319768831 -0.0010920489828888471 0.0008910513463301845 0.0002009976365586625 0.0019518163214589954 0.0 0.0
0.0 0.0009552673373563201 -0.0005137013089193088 0.0004096400578274749 0.00010406125109183362 0.0011612740326762305 0.0 0.0
0.0 0.000468940347134275 -0.00019626334333106392 0.00015510486940969263 4.115847392137128e-05 0.0005911422063508294 0.0 0.0
0.0 0.0001993229838480771 -7.219238441267956e-05 5.697367197577122e-05 1.5218712436908342e-05 0.0002851713666932995 0.0 0.0
0.0 9.120686510743269e-05 -1.9066856976433986e-05 1.5129037809653253e-05 3.937819166780667e-06 8.955839337886597e-05 0.0 0.0
0.0 2.3087079103583568e-05 -2.036191446141141e-06 1.53322009625479e-06 5.02971349886352e-07 9.049961773514741e-06 0.0 0.0
0.0 5.872498713375704e-06 1.575635038183348e-07 -1.1929272966830318e-07 -3.827077415004856e-08 -7.841930778786673e-07 0.0 0.0
0.0 4.433390297146278e-06 1.6015753019507324e-07 -1.3149237795953612e-07 -2.8665152235533242e-08 -9.61692924777465e-07 0.0 0.0
0.0 1.1358547078605477e-06 2.919902241766033e-08 -2.441451538947173e-08 -4.7845070281886985e-09 -2.3110359967327132e-07 0.0 0.0
0.0 3.276462981955824e-07 3.218677893892744e-09 -1.500114696772239e-09 -1.7185631971203247e-09 -6.555340563942545e-08 0.0 0.0
0.0 0.0 0.0 0.0 0.0 0.0 0.0 0.0
0.0 0.0 0.0 0.0 0.0 0.0 0.0 0.0
0.0 0.0 0.0 0.0 0.0 0.0 0.0 0.0
0.0 2.3595770756542535e-06 8.103527067074457e-08 -6.628456757845172e-08 -1.4750703092293867e-08 4.821090557083344e-07 0.0 0.0
0.0 6.5906872819304125e-06 3.108815427979235e-07 -2.5702362177301864e-07 -5.385792102489637e-08 1.4093816020137892e-06 0.0 0.0
0.0 9.154149791103052e-06 -2.6292400985510296e-07 1.9652051486670748e-07 6.640349498840508e-08 -6.74288939171981e-07 0.0 0.0
0.0 3.538684331207563e-05 -5.568054853394371e-06 4.471841077796986e-06 1.0962137755973629e-06 -1.759141571266301e-05 0.0 0.0
0.0 0.00013032527105599157 -4.886956203714238e-05 3.8619033426337616e-05 1.0250528610804758e-05 -0.00013100968883191863 0.0 0.0
0.0 0.000424441627667044 -0.00023278047287162096 0.00018390545298323287 4.887501988838804e-05 -0.0004661845544415642 0.0 0.0
0.0 0.0011748846471244462 -0.0007517214433992936 0.000605860982580645 0.00014586046081864847 -0.0011200523057145748 0.0 0.0
0.0 0.002216654008336657 -0.0016601139593790842 0.0013770853337980123 0.00028302862558107165 -0.0020402012362260497 0.0 0.0
0.0 0.003702363483613715 -0.002830485599483135 0.0024203517980577217 0.00041013380142541336 -0.0030538414665071787 0.0 0.0
0.0 0.005352527529373457 -0.004240781113875097 0.0037218783056384873 0.0005189028082366082 -0.004087011775096457 0.0 0.0
0.0 0.007400836799799259 -0.005957397894768688 0.005347049186468667 0.0006103487083000187 -0.005163585773812582 0.0 0.0
0.0 0.009991501662832995 -0.008102442043996263 0.007414530248533405 0.0006879117954628573 -0.006361131463722222 0.0 0.0
0.0 0.013241669876968084 -0.01073690272179969 0.009979573479656483 0.0007573292421432104 -0.00779811281413788 0.0 0.0
0.0 0.016956280092978615 -0.013754115353271356 0.012931811509249288 0.0008223038440220675 -0.009642434849334925 0.0 0.0
0.0 0.020846614243535334 -0.016775970251904766 0.015889532750808906 0.000886437501095854 -0.01203590318009893 0.0 0.0
0.0 0.02375221956916758 -0.019022629312610905 0.018055076218095895 0.0009675530945150147 -0.01462779135353368 0.0 0.0
0.0 0.024207183432469342 -0.019069742932313692 0.018003754923217322 0.0010659880090963742 -0.015944548946360215 0.0 0.0
0.0 0.018925606043467942 -0.014745424046953432 0.013549903905401391 0.0011955201415520355 -0.012842912916003313 0.0 0.0
0.0 0.0189256060434713 -0.014745424046954017 0.01354990390540155 0.0011955201415524627 0.012842912916016679 0.0 0.0
0.0 0.024207183432474546 -0.019069742932314324 0.01800375492321796 0.0010659880090963581 0.01594454894638172 0.0 0.0
0.0 0.023752219569165647 -0.01902262931260669 0.018055076218091937 0.0009675530945147502 0.01462779135354721 0.0 0.0
0.0 0.020846614243525616 -0.01677597025189568 0.015889532750800336 0.0008864375010953427 0.012035903180100236 0.0 0.0
0.0 0.016956280092964966 -0.013754115353259933 0.012931811509238195 0.0008223038440217344 0.009642434849328939 0.0 0.0
0.0 0.013241669876957183 -0.010736902721790498 0.009979573479647471 0.0007573292421430214 0.007798112814133204 0.0 0.0
0.0 0.009991501662822047 -0.008102442043987117 0.007414530248524601 0.0006879117954625151 0.006361131463716677 0.0 0.0
0.0 0.007400836799788681 -0.005957397894759375 0.005347049186459892 0.0006103487082994806 0.005163585773808588 0.0 0.0
0.0 0.005352527529361702 -0.004240781113865391 0.003721878305629505 0.0005189028082358856 0.0040870117750895114 0.0 0.0
0.0 0.0037023634836028155 -0.002830485599474399 0.0024203517980498513 0.0004101338014245458 0.0030538414664991664 0.0 0.0
0.0 0.002216654008326126 -0.0016601139593712577 0.001377085333791044 0.0002830286255802139 0.0020402012362175192 0.0 0.0
0.0 0.0011748846471181346 -0.0007517214433945928 0.0006058609825766694 0.00014586046081792325 0.0011200523057095083 0.0 0.0
0.0 0.00042444162766397777 -0.00023278047286984276 0.0001839054529818267 4.887501988801606e-05 0.0004661845544389029 0.0 0.0
0.0 0.00013032527105400117 -4.8869562036676947e-05 3.86190334259627e-05 1.025052861071423e-05 0.00013100968883069075 0.0 0.0
0.0 3.53868433113715e-05 -5.5680548535033905e-06 4.471841077885548e-06 1.0962137756177963e-06 1.7591415713005694e-05 0.0 0.0
0.0 9.154149790764381e-06 -2.6292400994098014e-07 1.9652051493473037e-07 6.640349500620662e-08 6.742889394845789e-07 0.0 0.0
0.0 6.590687281374371e-06 3.1088154276881837e-07 -2.570236217490074e-07 -5.385792101982278e-08 -1.4093816018841068e-06 0.0 0.0
0.0 2.3595770750547986e-06 8.103527064889636e-08 -6.628456756069521e-08 -1.4750703088195763e-08 -4.821090555798598e-07 0.0 0.0
0.0 0.0 0.0 0.0 0.0 0.0 0.0 0.0
0.0 0.0 0.0 0.0 0.0 0.0 0.0 0.0
0.0 0.0 0.0 0.0 0.0 0.0 0.0 0.0
0.0 0.0 0.0 0.0 0.0 0.0 0.0 0.0
0.0 1.762862297087584e-06 7.425115861487428e-08 -6.029149643128876e-08 -1.3959662183589334e-08 3.448992119798501e-07 0.0 0.0
0.0 4.567888438468323e-06 2.816642514112822e-07 -2.2557908395482e-07 -5.6085167456466286e-08 9.161147982519621e-07 0.0 0.0
0.0 1.2478870844273043e-05 6.032534747885938e-07 -4.596264932229957e-07 -1.4362698156556666e-07 1.494739787438527e-06 0.0 0.0
0.0 5.612880583407087e-05 -1.75480438352114e-05 1.3826942256152294e-05 3.721101579059098e-06 -3.705977728424584e-05 0.0 0.0
0.0 0.00027074125396345575 -0.00014654320993917142 0.0001162670849551655 3.0276124984006007e-05 -0.00024382947728990138 0.0 0.0
0.0 0.0009605873890995434 -0.0006659969081313189 0.0005349511540943818 0.000131045754036937 -0.00080937739727245 0.0 0.0
0.0 0.0021908288830320985 -0.00168025812457698 0.0013936311958035244 0.00028662692877345615 -0.0016753672562829253 0.0 0.0
0.0 0.0038068154025755 -0.0030954705159745083 0.0026546654324796463 0.00044080508349486093 -0.002721655167373511 0.0 0.0
0.0 0.005782140993429086 -0.004794643105866159 0.0042305712121334365 0.0005640718937327216 -0.003797560779074977 0.0 0.0
0.0 0.00815758455267078 -0.006807361301937116 0.00614327731268917 0.000664083989247947 -0.004861195049477076 0.0 0.0
0.0 0.01108585047749751 -0.009259944204555648 0.008514827779155392 0.0007451164254002558 -0.005995892773212514 0.0 0.0
0.0 0.014690939287130046 -0.012321737292576984 0.011506572294267424 0.000815164998309565 -0.007297082713357207 0.0 0.0
0.0 0.019181116846713562 -0.016088733912115887 0.01520871601907046 0.0008800178930454185 -0.008894436123660941 0.0 0.0
0.0 0.024448130263360256 -0.020466362242539518 0.019518547837834955 0.0009478144047045632 -0.011043685241351672 0.0 0.0
0.0 0.02989678091740859 -0.02496416650937725 0.02393791718272198 0.0010262493266552665 -0.013963500508260807 0.0 0.0
0.0 0.03429207493126954 -0.02844727496722594 0.02731868235161624 0.001128592615609694 -0.017262089250759075 0.0 0.0
0.0 0.035138401826947746 -0.02891686713339305 0.02765631755508336 0.0012605495783096813 -0.019224419929941432 0.0 0.0
0.0 0.028462988259570703 -0.02331744100838165 0.02188969013336397 0.0014277508750176818 -0.01641169417593112 0.0 0.0
0.0 0.02846298825957388 -0.023317441008381425 0.021889690133363723 0.0014277508750177045 0.01641169417594917 0.0 0.0
0.0 0.03513840182694772 -0.02891686713338916 0.027656317555079787 0.0012605495783093745 0.019224419929965587 0.0 0.0
0.0 0.0342920749312646 -0.02844727496721875 0.027318682351609655 0.001128592615609081 0.017262089250776567 0.0 0.0
0.0 0.02989678091739648 -0.02496416650936576 0.023937917182711082 0.0010262493266546715 0.013963500508264375 0.0 0.0
0.0 0.024448130263344452 -0.02046636224252571 0.01951854783782158 0.0009478144047041209 0.011043685241347908 0.0 0.0
0.0 0.01918111684669846 -0.016088733912102787 0.015208716019057818 0.0008800178930449638 0.008894436123656296 0.0 0.0
0.0 0.014690939287114983 -0.012321737292564179 0.011506572294255026 0.0008151649983091506 0.007297082713350863 0.0 0.0
0.0 0.011085850477481082 -0.00925994420454155 0.008514827779141611 0.0007451164253999378 0.005995892773207029 0.0 0.0
0.0 0.008157584552654524 -0.006807361301923206 0.006143277312675879 0.0006640839892473249 0.004861195049468826 0.0 0.0
0.0 0.00578214099341258 -0.004794643105852368 0.004230571212120466 0.0005640718937319033 0.0037975607790650305 0.0 0.0
0.0 0.0038068154025607277 -0.003095470515962492 0.002654665432468615 0.00044080508349387615 0.002721655167362937 0.0 0.0
0.0 0.0021908288830224053 -0.0016802581245693592 0.0013936311957969487 0.00028662692877241065 0.0016753672562768028 0.0 0.0
0.0 0.0009605873890937167 -0.0006659969081269565 0.0005349511540908654 0.000131045754036091 0.0008093773972683226 0.0 0.0
0.0 0.0002707412539605244 -0.00014654320993768804 0.00011626708495399623 3.027612498369188e-05 0.00024382947728774642 0.0 0.0
0.0 5.612880583272992e-05 -1.75480438351538e-05 1.3826942256106139e-05 3.7211015790477135e-06 3.705977728411423e-05 0.0 0.0
0.0 1.2478870843717462e-05 6.032534746578384e-07 -4.5962649311719265e-07 -1.4362698154068628e-07 -1.4947397870958258e-06 0.0 0.0
0.0 4.567888437996252e-06 2.8166425138205025e-07 -2.255790839313278e-07 -5.6085167450732297e-08 -9.161147981532237e-07 0.0 0.0
0.0 1.7628622966370727e-06 7.425115859493936e-08 -6.029149641515662e-08 -1.3959662179784548e-08 -3.4489921188806817e-07 0.0 0.0
0.0 0.0 0.0 0.0 0.0 0.0 0.0 0.0
0.0 0.0 0.0 0.0 0.0 0.0 0.0 0.0
0.0 0.0 0.0 0.0 0.0 0.0 0.0 0.0
0.0 0.0 0.0 0.0 0.0 0.0 0.0 0.0
0.0 6.301117771691601e-07 3.177133557320747e-08 -2.5610055499987776e-08 -6.161280073216576e-09 1.139376708674144e-07 0.0 0.0
0.0 6.9346823109825144e-06 5.042347017098303e-07 -4.065067840334973e-07 -9.772791767633461e-08 1.3113344896096305e-06 0.0 0.0
0.0 2.5212619995950892e-05 2.4747268596932223e-06 -1.951196794361913e-06 -5.235300653313059e-07 4.953316836308696e-06 0.0 0.0
0.0 0.00011050392525712669 -5.32675742784522e-05 4.2306144905473116e-05 1.0961429372979114e-05 -7.867287189398573e-05 0.0 0.0
0.0 0.0005939403108809264 -0.0003941280011375959 0.00031425779168097086 7.987020945662502e-05 -0.0004177332160282159 0.0 0.0
0.0 0.0016987224174434571 -0.0013200476728162163 0.0010830664375811087 0.00023698123523510715 -0.0011174699865958181 0.0 0.0
0.0 0.0033460522300203703 -0.0027909149930868413 0.002376738273855251 0.00041417671923159045 -0.0020655356721493504 0.0 0.0
0.0 0.005453433535329191 -0.004644803562650087 0.004083957836944727 0.0005608457257053582 -0.0030986508822875443 0.0 0.0
0.0 0.008004502136305708 -0.006843097049395192 0.00616776718050892 0.000675329868886273 -0.004131066348253902 0.0 0.0
0.0 0.011087553135623207 -0.009467064724559342 0.008699628822518589 0.0007674359020407525 -0.005191867098185589 0.0 0.0
0.0 0.014860931365301821 -0.012674965102981859 0.011830330797602331 0.0008446343053795264 -0.006352130757824712 0.0 0.0
0.0 0.019554187464588684 -0.016663425063256965 0.015749849445480017 0.0009135756177769457 -0.00768665213682514 0.0 0.0
0.0 0.025372331395802427 -0.02157078719518111 0.020590295195461968 0.0009804919997191425 -0.00932711836670733 0.0 0.0
0.0 0.03199719378164057 -0.027310069892396784 0.026255344252855736 0.0010547256395410432 -0.011535409696852314 0.0 0.0
0.0 0.03919857956692067 -0.033261681864214604 0.03211258394045779 0.0011490979237568056 -0.014578653016224066 0.0 0.0
0.0 0.04494824789895177 -0.03792960812247745 0.036654394972352955 0.0012752131501245043 -0.018284896784246118 0.0 0.0
0.0 0.046072724811388556 -0.038668264360145706 0.037233388428800834 0.001434875931344868 -0.02105067483093504 0.0 0.0
0.0 0.038012157428079105 -0.031674764455019384 0.030066696448605868 0.0016080680064135093 -0.019770358790171406 0.0 0.0
0.0 0.03801215742808113 -0.03167476445501807 0.030066696448604588 0.0016080680064134959 0.019770358790191365 0.0 0.0
0.0 0.04607272481138591 -0.038668264360140016 0.037233388428795124 0.0014348759313448827 0.021050674830960712 0.0 0.0
0.0 0.04494824789894132 -0.03792960812246599 0.03665439497234178 0.001275213150124203 0.01828489678426436 0.0 0.0
0.0 0.03919857956690276 -0.03326168186419814 0.032112583940441766 0.0011490979237563583 0.014578653016228092 0.0 0.0
0.0 0.031997193781621955 -0.027310069892380405 0.026255344252839815 0.0010547256395405755 0.011535409696849526 0.0 0.0
0.0 0.02537233139578491 -0.021570787195165617 0.02059029519544702 0.0009804919997185972 0.009327118366704067 0.0 0.0
0.0 0.019554187464569425 -0.016663425063240193 0.015749849445463857 0.0009135756177763356 0.007686652136818194 0.0 0.0
0.0 0.01486093136528191 -0.012674965102964276 0.011830330797585463 0.0008446343053788178 0.006352130757819467 0.0 0.0
0.0 0.011087553135603835 -0.009467064724542338 0.008699628822502234 0.0007674359020401022 0.0051918670981785184 0.0 0.0
0.0 0.008004502136287374 -0.006843097049379536 0.006167767180493899 0.000675329868885636 0.004131066348244233 0.0 0.0
0.0 0.005453433535313769 -0.004644803562636697 0.0040839578369321295 0.0005608457257045672 0.0030986508822778477 0.0 0.0
0.0 0.0033460522300081267 -0.0027909149930762985 0.002376738273845741 0.00041417671923055715 0.002065535672142875 0.0 0.0
0.0 0.001698722417435167 -0.0013200476728094026 0.001083066437575335 0.00023698123523406735 0.0011174699865910387 0.0 0.0
0.0 0.0005939403108766751 -0.00039412800113484487 0.0003142577916787787 7.987020945606601e-05 0.0004177332160256081 0.0 0.0
0.0 0.00011050392525570111 -5.326757427826793e-05 4.230614490532419e-05 1.0961429372943791e-05 7.867287189370823e-05 0.0 0.0
0.0 2.5212619994963567e-05 2.474726859593644e-06 -1.951196794283381e-06 -5.235300653103639e-07 -4.9533168361263605e-06 0.0 0.0
0.0 6.934682310505462e-06 5.042347016716486e-07 -4.0650678400268413e-07 -9.772791766897146e-08 -1.3113344895102354e-06 0.0 0.0
0.0 6.301117768796378e-07 3.177133555832444e-08 -2.5610055487985994e-08 -6.161280070339225e-09 -1.1393767081387647e-07 0.0 0.0
0.0 0.0 0.0 0.0 0.0 0.0 0.0 0.0
0.0 0.0 0.0 0.0 0.0 0.0 0.0 0.0
0.0 0.0 0.0 0.0 0.0 0.0 0.0 0.0
0.0 0.0 0.0 0.0 0.0 0.0 0.0 0.0
0.0 0.0 0.0 0.0 0.0 0.0 0.0 0.0
0.0 3.2006597007079794e-06 2.5707668110242285e-07 -2.054760131561159e-07 -5.160066794626825e-08 5.112391327039601e-07 0.0 0.0
0.0 3.03060894628098e-05 -3.398350381503406e-06 2.668820705997062e-06 7.295296755063614e-07 -4.235576089996204e-06 0.0 0.0
0.0 0.00025171915211568156 -0.00014122874847698606 0.00011199556869780387 2.923317977918242e-05 -0.00013744336582373912 0.0 0.0
0.0 0.0011064204532695 -0.0007914486661768933 0.0006395402608082243 0.00015190840536866861 -0.0005742897568112141 0.0 0.0
0.0 0.002505782727649827 -0.002133326705194251 0.001788461018800455 0.0003448656863937966 -0.0013196648929907676 0.0 0.0
0.0 0.004567552666965262 -0.003981204229810671 0.003464591345924026 0.0005166128838866441 -0.002215008012170379 0.0 0.0
0.0 0.007168279323040002 -0.006241537617130869 0.005588808038332654 0.0006527295787982153 -0.003150486794166649 0.0 0.0
0.0 0.01031181368978231 -0.008943814271997136 0.00818381662597517 0.0007599976460219622 -0.004121250935623731 0.0 0.0
0.0 0.014093197574290284 -0.012193026874411577 0.011344479894979624 0.0008485469794319459 -0.005128893096330019 0.0 0.0
0.0 0.018792321171952113 -0.016173529096905618 0.015246830969693724 0.0009266981272118909 -0.006246681888740873 0.0 0.0
0.0 0.024459817055305994 -0.021104273825728388 0.020105399299192504 0.0009988745265358781 -0.007571218084441536 0.0 0.0
0.0 0.03149553604385769 -0.027131671149545823 0.026061755202747675 0.0010699159467981527 -0.009132858874832016 0.0 0.0
0.0 0.03980819718122283 -0.034174392006953186 0.03302228677000073 0.0011521052369524525 -0.011095921533735627 0.0 0.0
0.0 0.04829560454009997 -0.041532384314665376 0.04027199319024875 0.0012603911244166198 -0.013889769106582042 0.0 0.0
0.0 0.05519304206672668 -0.04735338916457884 0.04594443531184162 0.0014089538527372169 -0.01770591172039781 0.0 0.0
0.0 0.05673654546488932 -0.04836358518883084 0.046774652140166136 0.0015889330486646988 -0.02157891577935346 0.0 0.0
0.0 0.04776715511453645 -0.04006377935880325 0.03829522739645564 0.0017685519623475792 -0.023080426655835647 0.0 0.0
0.0 0.04776715511453825 -0.04006377935880186 0.03829522739645431 0.001768551962347529 0.02308042665585688 0.0 0.0
0.0 0.05673654546488524 -0.04836358518882418 0.04677465214015978 0.0015889330486643831 0.021578915779380276 0.0 0.0
0.0 0.05519304206671471 -0.04735338916456648 0.04594443531182947 0.0014089538527369883 0.01770591172041748 0.0 0.0
0.0 0.04829560454008158 -0.04153238431464853 0.04027199319023243 0.0012603911244160933 0.013889769106588203 0.0 0.0
0.0 0.039808197181199656 -0.03417439200693282 0.03302228676998084 0.0011521052369519622 0.011095921533734416 0.0 0.0
0.0 0.03149553604383472 -0.027131671149525548 0.02606175520272797 0.001069915946797587 0.009132858874829689 0.0 0.0
0.0 0.024459817055282516 -0.02110427382570796 0.020105399299172377 0.0009988745265355789 0.007571218084435756 0.0 0.0
0.0 0.01879232117192993 -0.016173529096885818 0.015246830969674541 0.0009266981272112706 0.006246681888736035 0.0 0.0
0.0 0.014093197574267472 -0.012193026874391217 0.011344479894960109 0.0008485469794311047 0.005128893096323877 0.0 0.0
0.0 0.010311813689760821 -0.008943814271978212 0.00818381662595731 0.0007599976460209009 0.004121250935614501 0.0 0.0
0.0 0.007168279323020644 -0.006241537617113904 0.005588808038316736 0.0006527295787971657 0.0031504867941571676 0.0 0.0
0.0 0.004567552666951029 -0.003981204229797857 0.0034645913459122528 0.0005166128838856039 0.0022150080121641647 0.0 0.0
0.0 0.002505782727639337 -0.002133326705184934 0.0017884610187922571 0.00034486568639267607 0.0013196648929858184 0.0 0.0
0.0 0.0011064204532626953 -0.0007914486661715751 0.000639540260803883 0.000151908405367692 0.0005742897568078095 0.0 0.0
0.0 0.00025171915211235436 -0.00014122874847510627 0.00011199556869630512 2.9233179778800987e-05 0.0001374433658219919 0.0 0.0
0.0 3.030608946180812e-05 -3.3983503815982634e-06 2.6688207060705503e-06 7.295296755277328e-07 4.235576090124533e-06 0.0 0.0
0.0 3.200659700236418e-06 2.5707668106207243e-07 -2.0547601312382118e-07 -5.1600667938269986e-08 -5.112391326237518e-07 0.0 0.0
0.0 0.0 0.0 0.0 0.0 0.0 0.0 0.0
0.0 0.0 0.0 0.0 0.0 0.0 0.0 0.0
0.0 0.0 0.0 0.0 0.0 0.0 0.0 0.0
0.0 0.0 0.0 0.0 0.0 0.0 0.0 0.0
0.0 0.0 0.0 0.0 0.0 0.0 0.0 0.0
0.0 0.0 0.0 0.0 0.0 0.0 0.0 0.0
0.0 2.6184053184797525e-06 2.3936820084323267e-07 -1.9194239063393857e-07 -4.7425810209277095e-08 3.642394502886807e-07 0.0 0.0
0.0 5.4194544250936734e-05 -1.2781281281892504e-05 1.0306600747705765e-05 2.4746805341868895e-06 -1.3202333655298655e-05 0.0 0.0
0.0 0.0005171458339439625 -0.0003233801253329311 0.00025800445823704016 6.537566709589139e-05 -0.0002104497396504411 0.0 0.0
0.0 0.0015683204289152356 -0.0013514144180303096 0.001109866472499635 0.00024154794553067453 -0.0006938790387435962 0.0 0.0
0.0 0.003389501955922469 -0.0030186519053038516 0.002581601091150288 0.0004370508141535633 -0.0013540923803492192 0.0 0.0
0.0 0.005878304706187279 -0.005197552679506288 0.004599381166495764 0.0005981715130105238 -0.0021064364825301605 0.0 0.0
0.0 0.00894139798199832 -0.007870268860959288 0.0071452483789610265 0.0007250204819982621 -0.0029274600710609516 0.0 0.0
0.0 0.012664528100260216 -0.01108227504105692 0.010254510034882716 0.0008277650061742026 -0.0037854587653531713 0.0 0.0
0.0 0.01718747058872502 -0.014970060461366497 0.014053176483057742 0.0009168839783087529 -0.004684415109829451 0.0 0.0
0.0 0.022727099209611933 -0.019744094776944703 0.018745741093825596 0.0009983536831191 -0.005709046154306273 0.0 0.0
0.0 0.029574786074500765 -0.025622130581258642 0.0245446874016407 0.0010774431796179477 -0.006923349626936316 0.0 0.0
0.0 0.037838507349665935 -0.03273323119028244 0.03157783417507659 0.001155397015205842 -0.008320819072715242 0.0 0.0
0.0 0.04719191927217862 -0.040979728445302795 0.039737759485838166 0.0012419689594646139 -0.009875562908913936 0.0 0.0
0.0 0.05721072664557136 -0.049626260013244744 0.048265854729976 0.0013604052832687592 -0.01193389143740149 0.0 0.0
0.0 0.06541290195489687 -0.05660958530296764 0.05508234480196188 0.001527240501005763 -0.015436829241874764 0.0 0.0
0.0 0.06753874040180287 -0.058100503012402605 0.05637103665714882 0.0017294663552537845 -0.02077551644362994 0.0 0.0
0.0 0.057728666994251165 -0.048735017726163884 0.0468110424851053 0.0019239752410585495 -0.02635824109999378 0.0 0.0
0.0 0.05772866699425099 -0.048735017726160956 0.046811042485102185 0.0019239752410587666 0.026358241100014758 0.0 0.0
0.0 0.0675387404017953 -0.05810050301239374 0.05637103665714011 0.0017294663552536406 0.020775516443654638 0.0 0.0
0.0 0.06541290195488197 -0.05660958530295312 0.055082344801948034 0.0015272405010050404 0.015436829241893338 0.0 0.0
0.0 0.057210726645550374 -0.049626260013225745 0.04826585472995786 0.0013604052832678632 0.011933891437407536 0.0 0.0
0.0 0.04719191927215604 -0.040979728445282616 0.039737759485819 0.0012419689594635904 0.009875562908914772 0.0 0.0
0.0 0.03783850734964169 -0.03273323119026102 0.03157783417505598 0.001155397015205015 0.008320819072713951 0.0 0.0
0.0 0.02957478607447421 -0.02562213058123545 0.02454468740161815 0.0010774431796172828 0.006923349626932314 0.0 0.0
0.0 0.02272709920958413 -0.019744094776920296 0.01874574109380181 0.000998353683118479 0.005709046154301632 0.0 0.0
0.0 0.0171874705886973 -0.014970060461341994 0.014053176483033706 0.0009168839783082893 0.004684415109823508 0.0 0.0
0.0 0.012664528100234678 -0.011082275041034309 0.010254510034860661 0.0008277650061736397 0.0037854587653446863 0.0 0.0
0.0 0.008941397981976401 -0.007870268860939797 0.007145248378942245 0.0007250204819975504 0.0029274600710526375 0.0 0.0
0.0 0.005878304706170193 -0.005197552679490715 0.004599381166481098 0.0005981715130096165 0.002106436482524396 0.0 0.0
0.0 0.003389501955910211 -0.0030186519052924883 0.0025816010911400055 0.000437050814152483 0.001354092380344608 0.0 0.0
0.0 0.0015683204289068241 -0.0013514144180228607 0.0011098664724933046 0.0002415479455295557 0.0006938790387401113 0.0 0.0
0.0 0.0005171458339390323 -0.0003233801253297226 0.00025800445823444967 6.537566709527296e-05 0.00021044973964846577 0.0 0.0
0.0 5.419454424977155e-05 -1.2781281281929604e-05 1.0306600747730739e-05 2.4746805341987784e-06 1.3202333655338635e-05 0.0 0.0
0.0 2.618405318069889e-06 2.393682008043899e-07 -1.9194239060307888e-07 -4.7425810201298124e-08 -3.6423945023065724e-07 0.0 0.0
0.0 0.0 0.0 0.0 0.0 0.0 0.0 0.0
0.0 0.0 0.0 0.0 0.0 0.0 0.0 0.0
0.0 0.0 0.0 0.0 0.0 0.0 0.0 0.0
0.0 0.0 0.0 0.0 0.0 0.0 0.0 0.0
0.0 0.0 0.0 0.0 0.0 0.0 0.0 0.0
0.0 0.0 0.0 0.0 0.0 0.0 0.0 0.0
0.0 3.1285138629805582e-06 3.198481553894005e-07 -2.499609673796126e-07 -6.988718800979791e-08 3.1819347234759094e-07 0.0 0.0
0.0 0.00011911863604025954 -3.9945600625411655e-05 3.178466182186477e-05 8.160938803546808e-06 -2.5078008439281195e-05 0.0 0.0
0.0 0.0008566936988255175 -0.0006260141721574564 0.0005036176675902485 0.0001223965045672078 -0.00026910359167500795 0.0 0.0
0.0 0.00217981945221648 -0.0019789287515395567 0.0016516515784912832 0.00032727717304827336 -0.0006736898475288074 0.0 0.0
0.0 0.004360833716872167 -0.003922549501090875 0.003409813897281421 0.0005127356038094545 -0.0011855112708353084 0.0 0.0
0.0 0.0072237010454528705 -0.00643381262941811 0.005770284232355475 0.0006635283970626341 -0.001783870829426559 0.0 0.0
0.0 0.010762494673901318 -0.009518126913208701 0.008734536458064122 0.0007835904551445761 -0.0024454559118763327 0.0 0.0
0.0 0.015089037972844579 -0.013247483308641254 0.012362703430747472 0.0008847798778937844 -0.0031439436515958525 0.0 0.0
0.0 0.020305016924203067 -0.017788412845703136 0.016812097518247443 0.0009763153274556843 -0.00387534330135721 0.0 0.0
0.0 0.026840723767088622 -0.023368338072419517 0.022304621305650106 0.0010637167667694012 -0.00471235371341348 0.0 0.0
0.0 0.03461231285751876 -0.030206137023285142 0.029055693212200015 0.0011504438110851265 -0.005759839276154814 0.0 0.0
0.0 0.04397006395501866 -0.03836726092405262 0.03712919842206057 0.0012380625019920584 -0.0069408186532113995 0.0 0.0
0.0 0.05467636012805906 -0.047660572181503436 0.046328858942307156 0.001331713239196277 -0.007973531498129259 0.0 0.0
0.0 0.06585481783977322 -0.057379022143569255 0.05593372816469121 0.001445293978878035 -0.008916878895168264 0.0 0.0
0.0 0.07534074603832468 -0.06557183300703823 0.06394727396379463 0.0016245590432436004 -0.011503306221437394 0.0 0.0
0.0 0.0784907662090619 -0.06796904886531742 0.0661103417531145 0.0018587071122029121 -0.0183264808142962 0.0 0.0
0.0 0.06846231561411305 -0.057984456135790736 0.05589630082903456 0.002088155306756159 -0.029387502028536933 0.0 0.0
0.0 0.06846231561411227 -0.057984456135787836 0.05589630082903184 0.002088155306756008 0.02938750202855413 0.0 0.0
0.0 0.0784907662090507 -0.06796904886530622 0.06611034175310346 0.001858707112202759 0.01832648081431773 0.0 0.0
0.0 0.07534074603830368 -0.06557183300701935 0.06394727396377564 0.0016245590432436862 0.011503306221454405 0.0 0.0
0.0 0.06585481783974634 -0.05737902214354579 0.05593372816466771 0.001445293978878077 0.00891687889517347 0.0 0.0
0.0 0.054676360128031024 -0.04766057218147887 0.0463288589422831 0.0013317132391957827 0.007973531498130319 0.0 0.0
0.0 0.04397006395498912 -0.03836726092402672 0.037129198422035284 0.0012380625019914396 0.006940818653210914 0.0 0.0
0.0 0.03461231285748862 -0.03020613702325882 0.029055693212174286 0.0011504438110845306 0.0057598392761514326 0.0 0.0
0.0 0.02684072376705854 -0.02336833807239308 0.02230462130562425 0.0010637167667688337 0.004712353713409813 0.0 0.0
0.0 0.020305016924172102 -0.017788412845675956 0.01681209751822104 0.0009763153274549188 0.0038753433013534663 0.0 0.0
0.0 0.015089037972816324 -0.01324748330861603 0.012362703430722823 0.0008847798778932043 0.0031439436515892697 0.0 0.0
0.0 0.010762494673876367 -0.009518126913186395 0.008734536458042407 0.0007835904551439881 0.002445455911869294 0.0 0.0
0.0 0.007223701045432187 -0.006433812629399353 0.0057702842323374475 0.0006635283970619045 0.0017838708294220084 0.0 0.0
0.0 0.004360833716856615 -0.003922549501076419 0.0034098138972680067 0.0005127356038084127 0.0011855112708312149 0.0 0.0
0.0 0.002179819452206398 -0.0019789287515300557 0.001651651578482952 0.00032727717304710454 0.0006736898475256936 0.0 0.0
0.0 0.0008566936988198453 -0.000626014172152963 0.0005036176675865538 0.0001223965045664087 0.00026910359167306756 0.0 0.0
0.0 0.0001191186360386374 -3.99456006249651e-05 3.17846618215013e-05 8.160938803463921e-06 2.50780084389902e-05 0.0 0.0
0.0 3.12851386246432e-06 3.1984815533367717e-07 -2.4996096733628395e-07 -6.988718799738491e-08 -3.181934722935766e-07 0.0 0.0
0.0 0.0 0.0 0.0 0.0 0.0 0.0 0.0
0.0 0.0 0.0 0.0 0.0 0.0 0.0 0.0
0.0 0.0 0.0 0.0 0.0 0.0 0.0 0.0
0.0 0.0 0.0 0.0 0.0 0.0 0.0 0.0
0.0 0.0 0.0 0.0 0.0 0.0 0.0 0.0
0.0 0.0 0.0 0.0 0.0 0.0 0.0 0.0
0.0 7.480929744594875e-06 8.970346975284954e-07 -6.929961877200582e-07 -2.0403850980840786e-07 5.50205352796341e-07 0.0 0.0
0.0 0.00027470390243910744 -0.00012826144468995138 0.00010216466940718252 2.6096775282769077e-05 -4.6497660053084474e-05 0.0 0.0
0.0 0.001135395359266387 -0.0010504519366334561 0.0008531192547922569 0.00019733268184119932 -0.00025402374695479384 0.0 0.0
0.0 0.002882361352106272 -0.002634551323445644 0.002234177212671012 0.0004003741107746321 -0.0005166798897048193 0.0 0.0
0.0 0.0053573761747227056 -0.004841484929040473 0.004265738790122173 0.0005757461389182999 -0.0008531521103869633 0.0 0.0
0.0 0.008593604746943486 -0.00767856718014288 0.00696248129841793 0.0007160858817249482 -0.0012577386885802109 0.0 0.0
0.0 0.012609975418049469 -0.011176467100892158 0.010344630232587243 0.00083183686830491 -0.0017154989892846357 0.0 0.0
0.0 0.017527153679694756 -0.015432256753919713 0.014498142762902089 0.0009341139910176214 -0.0021959485586030875 0.0 0.0
0.0 0.023606918702914727 -0.02063629617388316 0.019606291292102306 0.0010300048817808464 -0.00269939580007092 0.0 0.0
0.0 0.030842857339403822 -0.027039877496038593 0.02591595016939334 0.0011239273266452493 -0.0033115392140336763 0.0 0.0
0.0 0.039747455442188016 -0.03482901622527964 0.0336097799109234 0.0012192363143562405 -0.004065827795042671 0.0 0.0
0.0 0.0503155044183937 -0.044004121861709114 0.0426855340600587 0.0013185878016504207 -0.004873890496781495 0.0 0.0
0.0 0.062080746684140306 -0.054231815631922184 0.0528091597763782 0.0014226558555439917 -0.005474490890361708 0.0 0.0
0.0 0.07411877926964044 -0.06471217079018449 0.06317965352268429 0.0015325172675001966 -0.005495248597263158 0.0 0.0
0.0 0.08470270248133036 -0.07390776988211284 0.07223652421346703 0.0016712456686458297 -0.006055372867823619 0.0 0.0
0.0 0.0896732408407579 -0.07796759351934866 0.07599154951710409 0.0019760440022445367 -0.013230880164902531 0.0 0.0
0.0 0.08033843451868079 -0.06828717012608311 0.06600597698535345 0.002281193140729653 -0.03154741884075085 0.0 0.0
0.0 0.0803384345186795 -0.06828717012608027 0.06600597698535111 0.0022811931407291405 0.03154741884076377 0.0 0.0
0.0 0.08967324084074632 -0.07796759351933742 0.07599154951709394 0.0019760440022434274 0.013230880164919086 0.0 0.0
0.0 0.08470270248130742 -0.07390776988209227 0.0722365242134474 0.0016712456686448721 0.0060553728678361465 0.0 0.0
0.0 0.07411877926961001 -0.06471217079015773 0.06317965352265822 0.0015325172674995067 0.005495248597266039 0.0 0.0
0.0 0.0620807466841083 -0.05423181563189404 0.05280915977635099 0.0014226558555430688 0.005474490890362495 0.0 0.0
0.0 0.05031550441836062 -0.04400412186168013 0.04268553406003051 0.0013185878016496336 0.00487389049678115 0.0 0.0
0.0 0.039747455442154 -0.034829016225249906 0.03360977991089441 0.0012192363143554799 0.004065827795041193 0.0 0.0
0.0 0.030842857339367827 -0.0270398774960072 0.025915950169362493 0.0011239273266447 0.003311539214030601 0.0 0.0
0.0 0.02360691870287792 -0.020636296173850807 0.019606291292070335 0.0010300048817804635 0.0026993958000690235 0.0 0.0
0.0 0.017527153679662958 -0.015432256753891626 0.014498142762874868 0.0009341139910167499 0.002195948558598395 0.0 0.0
0.0 0.012609975418022936 -0.011176467100868446 0.010344630232564423 0.0008318368683040255 0.0017154989892799576 0.0 0.0
0.0 0.008593604746922376 -0.007678567180123391 0.006962481298399365 0.0007160858817240245 0.0012577386885774312 0.0 0.0
0.0 0.005357376174706485 -0.004841484929025321 0.004265738790108119 0.0005757461389172013 0.0008531521103843558 0.0 0.0
0.0 0.002882361352095214 -0.0026345513234349374 0.0022341772126615173 0.0004003741107734193 0.0005166798897026275 0.0 0.0
0.0 0.0011353953592606522 -0.001050451936627942 0.0008531192547876854 0.00019733268184025655 0.00025402374695346753 0.0 0.0
0.0 0.00027470390243651674 -0.00012826144468859152 0.0001021646694060946 2.6096775282496766e-05 4.649766005265152e-05 0.0 0.0
0.0 7.48092974373735e-06 8.970346974239649e-07 -6.929961876401887e-07 -2.040385097838224e-07 -5.502053527401145e-07 0.0 0.0
0.0 0.0 0.0 0.0 0.0 0.0 0.0 0.0
0.0 0.0 0.0 0.0 0.0 0.0 0.0 0.0
0.0 0.0 0.0 0.0 0.0 0.0 0.0 0.0
0.0 0.0 0.0 0.0 0.0 0.0 0.0 0.0
0.0 0.0 0.0 0.0 0.0 0.0 0.0 0.0
0.0 0.0 0.0 0.0 0.0 0.0 0.0 0.0
0.0 1.3820260249020783e-05 1.2343311223807902e-06 -9.342191810718879e-07 -3.0011194130875574e-07 2.589453238675999e-07 0.0 0.0
0.0 0.0005461741882062335 -0.0002986354877837234 0.00023811073566202856 6.052475212169478e-05 -4.347373943540163e-05 0.0 0.0
0.0 0.0016164104712976587 -0.001496722181847118 0.0012296305739935565 0.0002670916078535617 -0.0001262688428314657 0.0 0.0
0.0 0.003609589644717098 -0.0033073048654324744 0.002844176906491495 0.0004631279589409779 -0.00023172477186890716 0.0 0.0
0.0 0.006387215049047616 -0.005762881842803379 0.005135967865084937 0.0006269139777184396 -0.00036401435039061395 0.0 0.0
0.0 0.010000005741717305 -0.008922056089195846 0.008162759896056748 0.0007592961931390998 -0.0005348529884190433 0.0 0.0
0.0 0.014518380703633002 -0.01283491927974537 0.011961941029159949 0.0008729782505854159 -0.0007369887951068574 0.0 0.0
0.0 0.02010670306266947 -0.017627176140291165 0.016649962564073452 0.0009772135762177094 -0.0009455647682124781 0.0 0.0
0.0 0.02672946589801801 -0.023518376151503845 0.02243949471570003 0.0010788814358038145 -0.001186581879705603 0.0 0.0
0.0 0.03495737366685248 -0.03073673485755857 0.02955662588809875 0.0011801089694598063 -0.0014725105040324575 0.0 0.0
0.0 0.04498612059035261 -0.03945483673501594 0.038170462701264486 0.0012843740337514192 -0.001799079446858281 0.0 0.0
0.0 0.05668399767754708 -0.04961811520654685 0.048222893396097546 0.0013952218104493158 -0.002131562197543739 0.0 0.0
0.0 0.06950369036711125 -0.06073082878155549 0.05921854038667097 0.001512288394884534 -0.0022986955376697983 0.0 0.0
0.0 0.0822341310993651 -0.07176933811569415 0.07014050011565587 0.0016288380000382353 -0.00200624986891624 0.0 0.0
0.0 0.09315819099111262 -0.08127646349816682 0.0795396590522838 0.0017368044458829948 -0.0010184222523499 0.0 0.0
0.0 0.09992906387590565 -0.0870839969855595 0.08519675209988661 0.0018872448856728696 -0.003520855406686907 0.0 0.0
0.0 0.09443144724171974 -0.08091541362814735 0.07828423399421922 0.0026311796339281244 -0.02937731308232603 0.0 0.0
0.0 0.09443144724171601 -0.08091541362814356 0.07828423399421539 0.0026311796339281374 0.029377313082331265 0.0 0.0
0.0 0.09992906387588911 -0.08708399698554503 0.08519675209987237 0.0018872448856726719 0.0035208554066939756 0.0 0.0
0.0 0.09315819099108431 -0.08127646349814222 0.07953965905225942 0.0017368044458827554 0.0010184222523555743 0.0 0.0
0.0 0.08223413109933234 -0.07176933811566538 0.07014050011562797 0.0016288380000373801 0.002006249868916344 0.0 0.0
0.0 0.0695036903670756 -0.060730828781524304 0.05921854038664031 0.001512288394884001 0.002298695537669938 0.0 0.0
0.0 0.05668399767751131 -0.04961811520651546 0.04822289339606712 0.001395221810448348 0.0021315621975436733 0.0 0.0
0.0 0.04498612059031526 -0.03945483673498314 0.03817046270123276 0.0012843740337503899 0.0017990794468580465 0.0 0.0
0.0 0.03495737366681412 -0.03073673485752497 0.02955662588806606 0.0011801089694588984 0.0014725105040308082 0.0 0.0
0.0 0.026729465897979712 -0.023518376151470205 0.022439494715667332 0.0010788814358028546 0.001186581879705435 0.0 0.0
0.0 0.020106703062633517 -0.017627176140259552 0.016649962564042532 0.0009772135762170188 0.0009455647682096392 0.0 0.0
0.0 0.014518380703602524 -0.0128349192797187 0.011961941029134017 0.000872978250584683 0.000736988795104913 0.0 0.0
0.0 0.01000000574169395 -0.008922056089174749 0.008162759896036443 0.0007592961931383052 0.0005348529884180581 0.0 0.0
0.0 0.006387215049028732 -0.005762881842785791 0.0051359678650682436 0.0006269139777175473 0.000364014350389519 0.0 0.0
0.0 0.0036095896447036675 -0.003307304865419779 0.002844176906479816 0.0004631279589399634 0.00023172477186801313 0.0 0.0
0.0 0.0016164104712902195 -0.0014967221818396462 0.0012296305739870866 0.0002670916078525594 0.00012626884283067035 0.0 0.0
0.0 0.0005461741882023492 -0.0002986354877811924 0.00023811073565998254 6.052475212121025e-05 4.34737394350862e-05 0.0 0.0
0.0 1.3820260248443828e-05 1.2343311222084656e-06 -9.342191809383633e-07 -3.00111941270113e-07 -2.589453238208915e-07 0.0 0.0
0.0 0.0 0.0 0.0 0.0 0.0 0.0 0.0
0.0 0.0 0.0 0.0 0.0 0.0 0.0 0.0
0.0 0.0 0.0 0.0 0.0 0.0 0.0 0.0