# vtk DataFile Version 3.0
Some data
ASCII
DATASET UNSTRUCTURED_GRID
POINTS 861 float
0.0 0.0 0.0
0.4 0.0 0.0
0.8 0.0 0.0
1.2000000000000002 0.0 0.0
1.6 0.0 0.0
2.0 0.0 0.0
2.4000000000000004 0.0 0.0
2.8000000000000003 0.0 0.0
3.2 0.0 0.0
3.6 0.0 0.0
4.0 0.0 0.0
4.4 0.0 0.0
4.800000000000001 0.0 0.0
5.2 0.0 0.0
5.6000000000000005 0.0 0.0
6.0 0.0 0.0
6.4 0.0 0.0
6.800000000000001 0.0 0.0
7.2 0.0 0.0
7.6000000000000005 0.0 0.0
8.0 0.0 0.0
8.4 0.0 0.0
8.8 0.0 0.0
9.200000000000001 0.0 0.0
9.600000000000001 0.0 0.0
10.0 0.0 0.0
10.4 0.0 0.0
10.8 0.0 0.0
11.200000000000001 0.0 0.0
11.600000000000001 0.0 0.0
12.0 0.0 0.0
12.4 0.0 0.0
12.8 0.0 0.0
13.200000000000001 0.0 0.0
13.600000000000001 0.0 0.0
14.0 0.0 0.0
14.4 0.0 0.0
14.8 0.0 0.0
15.200000000000001 0.0 0.0
15.600000000000001 0.0 0.0
16.0 0.0 0.0
0.0 0.1 0.0
0.4 0.1 0.0
0.8 0.1 0.0
1.2000000000000002 0.1 0.0
1.6 0.1 0.0
2.0 0.1 0.0
2.4000000000000004 0.1 0.0
2.8000000000000003 0.1 0.0
3.2 0.1 0.0
3.6 0.1 0.0
4.0 0.1 0.0
4.4 0.1 0.0
4.800000000000001 0.1 0.0
5.2 0.1 0.0
5.6000000000000005 0.1 0.0
6.0 0.1 0.0
6.4 0.1 0.0
6.800000000000001 0.1 0.0
7.2 0.1 0.0
7.6000000000000005 0.1 0.0
8.0 0.1 0.0
8.4 0.1 0.0
8.8 0.1 0.0
9.200000000000001 0.1 0.0
9.600000000000001 0.1 0.0
10.0 0.1 0.0
10.4 0.1 0.0
10.8 0.1 0.0
11.200000000000001 0.1 0.0
11.600000000000001 0.1 0.0
12.0 0.1 0.0
12.4 0.1 0.0
12.8 0.1 0.0
13.200000000000001 0.1 0.0
13.600000000000001 0.1 0.0
14.0 0.1 0.0
14.4 0.1 0.0
14.8 0.1 0.0
15.200000000000001 0.1 0.0
15.600000000000001 0.1 0.0
16.0 0.1 0.0
0.0 0.2 0.0
0.4 0.2 0.0
0.8 0.2 0.0
1.2000000000000002 0.2 0.0
1.6 0.2 0.0
2.0 0.2 0.0
2.4000000000000004 0.2 0.0
2.8000000000000003 0.2 0.0
3.2 0.2 0.0
3.6 0.2 0.0
4.0 0.2 0.0
4.4 0.2 0.0
4.800000000000001 0.2 0.0
5.2 0.2 0.0
5.6000000000000005 0.2 0.0
6.0 0.2 0.0
6.4 0.2 0.0
6.800000000000001 0.2 0.0
7.2 0.2 0.0
7.6000000000000005 0.2 0.0
8.0 0.2 0.0
8.4 0.2 0.0
8.8 0.2 0.0
9.200000000000001 0.2 0.0
9.600000000000001 0.2 0.0
10.0 0.2 0.0
10.4 0.2 0.0
10.8 0.2 0.0
11.200000000000001 0.2 0.0
11.600000000000001 0.2 0.0
12.0 0.2 0.0
12.4 0.2 0.0
12.8 0.2 0.0
13.200000000000001 0.2 0.0
13.600000000000001 0.2 0.0
14.0 0.2 0.0
14.4 0.2 0.0
14.8 0.2 0.0
15.200000000000001 0.2 0.0
15.600000000000001 0.2 0.0
16.0 0.2 0.0
0.0 0.30000000000000004 0.0
0.4 0.30000000000000004 0.0
0.8 0.30000000000000004 0.0
1.2000000000000002 0.30000000000000004 0.0
1.6 0.30000000000000004 0.0
2.0 0.30000000000000004 0.0
2.4000000000000004 0.30000000000000004 0.0
2.8000000000000003 0.30000000000000004 0.0
3.2 0.30000000000000004 0.0
3.6 0.30000000000000004 0.0
4.0 0.30000000000000004 0.0
4.4 0.30000000000000004 0.0
4.800000000000001 0.30000000000000004 0.0
5.2 0.30000000000000004 0.0
5.6000000000000005 0.30000000000000004 0.0
6.0 0.30000000000000004 0.0
6.4 0.30000000000000004 0.0
6.800000000000001 0.30000000000000004 0.0
7.2 0.30000000000000004 0.0
7.6000000000000005 0.30000000000000004 0.0
8.0 0.30000000000000004 0.0
8.4 0.30000000000000004 0.0
8.8 0.30000000000000004 0.0
9.200000000000001 0.30000000000000004 0.0
9.600000000000001 0.30000000000000004 0.0
10.0 0.30000000000000004 0.0
10.4 0.30000000000000004 0.0
10.8 0.30000000000000004 0.0
11.200000000000001 0.30000000000000004 0.0
11.600000000000001 0.30000000000000004 0.0
12.0 0.30000000000000004 0.0
12.4 0.30000000000000004 0.0
12.8 0.30000000000000004 0.0
13.200000000000001 0.30000000000000004 0.0
13.600000000000001 0.30000000000000004 0.0
14.0 0.30000000000000004 0.0
14.4 0.30000000000000004 0.0
14.8 0.30000000000000004 0.0
15.200000000000001 0.30000000000000004 0.0
15.600000000000001 0.30000000000000004 0.0
16.0 0.30000000000000004 0.0
0.0 0.4 0.0
0.4 0.4 0.0
0.8 0.4 0.0
1.2000000000000002 0.4 0.0
1.6 0.4 0.0
2.0 0.4 0.0
2.4000000000000004 0.4 0.0
2.8000000000000003 0.4 0.0
3.2 0.4 0.0
3.6 0.4 0.0
4.0 0.4 0.0
4.4 0.4 0.0
4.800000000000001 0.4 0.0
5.2 0.4 0.0
5.6000000000000005 0.4 0.0
6.0 0.4 0.0
6.4 0.4 0.0
6.800000000000001 0.4 0.0
7.2 0.4 0.0
7.6000000000000005 0.4 0.0
8.0 0.4 0.0
8.4 0.4 0.0
8.8 0.4 0.0
9.200000000000001 0.4 0.0
9.600000000000001 0.4 0.0
10.0 0.4 0.0
10.4 0.4 0.0
10.8 0.4 0.0
11.200000000000001 0.4 0.0
11.600000000000001 0.4 0.0
12.0 0.4 0.0
12.4 0.4 0.0
12.8 0.4 0.0
13.200000000000001 0.4 0.0
13.600000000000001 0.4 0.0
14.0 0.4 0.0
14.4 0.4 0.0
14.8 0.4 0.0
15.200000000000001 0.4 0.0
15.600000000000001 0.4 0.0
16.0 0.4 0.0
0.0 0.5 0.0
0.4 0.5 0.0
0.8 0.5 0.0
1.2000000000000002 0.5 0.0
1.6 0.5 0.0
2.0 0.5 0.0
2.4000000000000004 0.5 0.0
2.8000000000000003 0.5 0.0
3.2 0.5 0.0
3.6 0.5 0.0
4.0 0.5 0.0
4.4 0.5 0.0
4.800000000000001 0.5 0.0
5.2 0.5 0.0
5.6000000000000005 0.5 0.0
6.0 0.5 0.0
6.4 0.5 0.0
6.800000000000001 0.5 0.0
7.2 0.5 0.0
7.6000000000000005 0.5 0.0
8.0 0.5 0.0
8.4 0.5 0.0
8.8 0.5 0.0
9.200000000000001 0.5 0.0
9.600000000000001 0.5 0.0
10.0 0.5 0.0
10.4 0.5 0.0
10.8 0.5 0.0
11.200000000000001 0.5 0.0
11.600000000000001 0.5 0.0
12.0 0.5 0.0
12.4 0.5 0.0
12.8 0.5 0.0
13.200000000000001 0.5 0.0
13.600000000000001 0.5 0.0
14.0 0.5 0.0
14.4 0.5 0.0
14.8 0.5 0.0
15.200000000000001 0.5 0.0
15.600000000000001 0.5 0.0
16.0 0.5 0.0
0.0 0.6000000000000001 0.0
0.4 0.6000000000000001 0.0
0.8 0.6000000000000001 0.0
1.2000000000000002 0.6000000000000001 0.0
1.6 0.6000000000000001 0.0
2.0 0.6000000000000001 0.0
2.4000000000000004 0.6000000000000001 0.0
2.8000000000000003 0.6000000000000001 0.0
3.2 0.6000000000000001 0.0
3.6 0.6000000000000001 0.0
4.0 0.6000000000000001 0.0
4.4 0.6000000000000001 0.0
4.800000000000001 0.6000000000000001 0.0
5.2 0.6000000000000001 0.0
5.6000000000000005 0.6000000000000001 0.0
6.0 0.6000000000000001 0.0
6.4 0.6000000000000001 0.0
6.800000000000001 0.6000000000000001 0.0
7.2 0.6000000000000001 0.0
7.6000000000000005 0.6000000000000001 0.0
8.0 0.6000000000000001 0.0
8.4 0.6000000000000001 0.0
8.8 0.6000000000000001 0.0
9.200000000000001 0.6000000000000001 0.0
9.600000000000001 0.6000000000000001 0.0
10.0 0.6000000000000001 0.0
10.4 0.6000000000000001 0.0
10.8 0.6000000000000001 0.0
11.200000000000001 0.6000000000000001 0.0
11.600000000000001 0.6000000000000001 0.0
12.0 0.6000000000000001 0.0
12.4 0.6000000000000001 0.0
12.8 0.6000000000000001 0.0
13.200000000000001 0.6000000000000001 0.0
13.600000000000001 0.6000000000000001 0.0
14.0 0.6000000000000001 0.0
14.4 0.6000000000000001 0.0
14.8 0.6000000000000001 0.0
15.200000000000001 0.6000000000000001 0.0
15.600000000000001 0.6000000000000001 0.0
16.0 0.6000000000000001 0.0
0.0 0.7000000000000001 0.0
0.4 0.7000000000000001 0.0
0.8 0.7000000000000001 0.0
1.2000000000000002 0.7000000000000001 0.0
1.6 0.7000000000000001 0.0
2.0 0.7000000000000001 0.0
2.4000000000000004 0.7000000000000001 0.0
2.8000000000000003 0.7000000000000001 0.0
3.2 0.7000000000000001 0.0
3.6 0.7000000000000001 0.0
4.0 0.7000000000000001 0.0
4.4 0.7000000000000001 0.0
4.800000000000001 0.7000000000000001 0.0
5.2 0.7000000000000001 0.0
5.6000000000000005 0.7000000000000001 0.0
6.0 0.7000000000000001 0.0
6.4 0.7000000000000001 0.0
6.800000000000001 0.7000000000000001 0.0
7.2 0.7000000000000001 0.0
7.6000000000000005 0.7000000000000001 0.0
8.0 0.7000000000000001 0.0
8.4 0.7000000000000001 0.0
8.8 0.7000000000000001 0.0
9.200000000000001 0.7000000000000001 0.0
9.600000000000001 0.7000000000000001 0.0
10.0 0.7000000000000001 0.0
10.4 0.7000000000000001 0.0
10.8 0.7000000000000001 0.0
11.200000000000001 0.7000000000000001 0.0
11.600000000000001 0.7000000000000001 0.0
12.0 0.7000000000000001 0.0
12.4 0.7000000000000001 0.0
12.8 0.7000000000000001 0.0
13.200000000000001 0.7000000000000001 0.0
13.600000000000001 0.7000000000000001 0.0
14.0 0.7000000000000001 0.0
14.4 0.7000000000000001 0.0
14.8 0.7000000000000001 0.0
15.200000000000001 0.7000000000000001 0.0
15.600000000000001 0.7000000000000001 0.0
16.0 0.7000000000000001 0.0
0.0 0.8 0.0
0.4 0.8 0.0
0.8 0.8 0.0
1.2000000000000002 0.8 0.0
1.6 0.8 0.0
2.0 0.8 0.0
2.4000000000000004 0.8 0.0
2.8000000000000003 0.8 0.0
3.2 0.8 0.0
3.6 0.8 0.0
4.0 0.8 0.0
4.4 0.8 0.0
4.800000000000001 0.8 0.0
5.2 0.8 0.0
5.6000000000000005 0.8 0.0
6.0 0.8 0.0
6.4 0.8 0.0
6.800000000000001 0.8 0.0
7.2 0.8 0.0
7.6000000000000005 0.8 0.0
8.0 0.8 0.0
8.4 0.8 0.0
8.8 0.8 0.0
9.200000000000001 0.8 0.0
9.600000000000001 0.8 0.0
10.0 0.8 0.0
10.4 0.8 0.0
10.8 0.8 0.0
11.200000000000001 0.8 0.0
11.600000000000001 0.8 0.0
12.0 0.8 0.0
12.4 0.8 0.0
12.8 0.8 0.0
13.200000000000001 0.8 0.0
13.600000000000001 0.8 0.0
14.0 0.8 0.0
14.4 0.8 0.0
14.8 0.8 0.0
15.200000000000001 0.8 0.0
15.600000000000001 0.8 0.0
16.0 0.8 0.0
0.0 0.9 0.0
0.4 0.9 0.0
0.8 0.9 0.0
1.2000000000000002 0.9 0.0
1.6 0.9 0.0
2.0 0.9 0.0
2.4000000000000004 0.9 0.0
2.8000000000000003 0.9 0.0
3.2 0.9 0.0
3.6 0.9 0.0
4.0 0.9 0.0
4.4 0.9 0.0
4.800000000000001 0.9 0.0
5.2 0.9 0.0
5.6000000000000005 0.9 0.0
6.0 0.9 0.0
6.4 0.9 0.0
6.800000000000001 0.9 0.0
7.2 0.9 0.0
7.6000000000000005 0.9 0.0
8.0 0.9 0.0
8.4 0.9 0.0
8.8 0.9 0.0
9.200000000000001 0.9 0.0
9.600000000000001 0.9 0.0
10.0 0.9 0.0
10.4 0.9 0.0
10.8 0.9 0.0
11.200000000000001 0.9 0.0
11.600000000000001 0.9 0.0
12.0 0.9 0.0
12.4 0.9 0.0
12.8 0.9 0.0
13.200000000000001 0.9 0.0
13.600000000000001 0.9 0.0
14.0 0.9 0.0
14.4 0.9 0.0
14.8 0.9 0.0
15.200000000000001 0.9 0.0
15.600000000000001 0.9 0.0
16.0 0.9 0.0
0.0 1.0 0.0
0.4 1.0 0.0
0.8 1.0 0.0
1.2000000000000002 1.0 0.0
1.6 1.0 0.0
2.0 1.0 0.0
2.4000000000000004 1.0 0.0
2.8000000000000003 1.0 0.0
3.2 1.0 0.0
3.6 1.0 0.0
4.0 1.0 0.0
4.4 1.0 0.0
4.800000000000001 1.0 0.0
5.2 1.0 0.0
5.6000000000000005 1.0 0.0
6.0 1.0 0.0
6.4 1.0 0.0
6.800000000000001 1.0 0.0
7.2 1.0 0.0
7.6000000000000005 1.0 0.0
8.0 1.0 0.0
8.4 1.0 0.0
8.8 1.0 0.0
9.200000000000001 1.0 0.0
9.600000000000001 1.0 0.0
10.0 1.0 0.0
10.4 1.0 0.0
10.8 1.0 0.0
11.200000000000001 1.0 0.0
11.600000000000001 1.0 0.0
12.0 1.0 0.0
12.4 1.0 0.0
12.8 1.0 0.0
13.200000000000001 1.0 0.0
13.600000000000001 1.0 0.0
14.0 1.0 0.0
14.4 1.0 0.0
14.8 1.0 0.0
15.200000000000001 1.0 0.0
15.600000000000001 1.0 0.0
16.0 1.0 0.0
0.0 1.1 0.0
0.4 1.1 0.0
0.8 1.1 0.0
1.2000000000000002 1.1 0.0
1.6 1.1 0.0
2.0 1.1 0.0
2.4000000000000004 1.1 0.0
2.8000000000000003 1.1 0.0
3.2 1.1 0.0
3.6 1.1 0.0
4.0 1.1 0.0
4.4 1.1 0.0
4.800000000000001 1.1 0.0
5.2 1.1 0.0
5.6000000000000005 1.1 0.0
6.0 1.1 0.0
6.4 1.1 0.0
6.800000000000001 1.1 0.0
7.2 1.1 0.0
7.6000000000000005 1.1 0.0
8.0 1.1 0.0
8.4 1.1 0.0
8.8 1.1 0.0
9.200000000000001 1.1 0.0
9.600000000000001 1.1 0.0
10.0 1.1 0.0
10.4 1.1 0.0
10.8 1.1 0.0
11.200000000000001 1.1 0.0
11.600000000000001 1.1 0.0
12.0 1.1 0.0
12.4 1.1 0.0
12.8 1.1 0.0
13.200000000000001 1.1 0.0
13.600000000000001 1.1 0.0
14.0 1.1 0.0
14.4 1.1 0.0
14.8 1.1 0.0
15.200000000000001 1.1 0.0
15.600000000000001 1.1 0.0
16.0 1.1 0.0
0.0 1.2000000000000002 0.0
0.4 1.2000000000000002 0.0
0.8 1.2000000000000002 0.0
1.2000000000000002 1.2000000000000002 0.0
1.6 1.2000000000000002 0.0
2.0 1.2000000000000002 0.0
2.4000000000000004 1.2000000000000002 0.0
2.8000000000000003 1.2000000000000002 0.0
3.2 1.2000000000000002 0.0
3.6 1.2000000000000002 0.0
4.0 1.2000000000000002 0.0
4.4 1.2000000000000002 0.0
4.800000000000001 1.2000000000000002 0.0
5.2 1.2000000000000002 0.0
5.6000000000000005 1.2000000000000002 0.0
6.0 1.2000000000000002 0.0
6.4 1.2000000000000002 0.0
6.800000000000001 1.2000000000000002 0.0
7.2 1.2000000000000002 0.0
7.6000000000000005 1.2000000000000002 0.0
8.0 1.2000000000000002 0.0
8.4 1.2000000000000002 0.0
8.8 1.2000000000000002 0.0
9.200000000000001 1.2000000000000002 0.0
9.600000000000001 1.2000000000000002 0.0
10.0 1.2000000000000002 0.0
10.4 1.2000000000000002 0.0
10.8 1.2000000000000002 0.0
11.200000000000001 1.2000000000000002 0.0
11.600000000000001 1.2000000000000002 0.0
12.0 1.2000000000000002 0.0
12.4 1.2000000000000002 0.0
12.8 1.2000000000000002 0.0
13.200000000000001 1.2000000000000002 0.0
13.600000000000001 1.2000000000000002 0.0
14.0 1.2000000000000002 0.0
14.4 1.2000000000000002 0.0
14.8 1.2000000000000002 0.0
15.200000000000001 1.2000000000000002 0.0
15.600000000000001 1.2000000000000002 0.0
16.0 1.2000000000000002 0.0
0.0 1.3 0.0
0.4 1.3 0.0
0.8 1.3 0.0
1.2000000000000002 1.3 0.0
1.6 1.3 0.0
2.0 1.3 0.0
2.4000000000000004 1.3 0.0
2.8000000000000003 1.3 0.0
3.2 1.3 0.0
3.6 1.3 0.0
4.0 1.3 0.0
4.4 1.3 0.0
4.800000000000001 1.3 0.0
5.2 1.3 0.0
5.6000000000000005 1.3 0.0
6.0 1.3 0.0
6.4 1.3 0.0
6.800000000000001 1.3 0.0
7.2 1.3 0.0
7.6000000000000005 1.3 0.0
8.0 1.3 0.0
8.4 1.3 0.0
8.8 1.3 0.0
9.200000000000001 1.3 0.0
9.600000000000001 1.3 0.0
10.0 1.3 0.0
10.4 1.3 0.0
10.8 1.3 0.0
11.200000000000001 1.3 0.0
11.600000000000001 1.3 0.0
12.0 1.3 0.0
12.4 1.3 0.0
12.8 1.3 0.0
13.200000000000001 1.3 0.0
13.600000000000001 1.3 0.0
14.0 1.3 0.0
14.4 1.3 0.0
14.8 1.3 0.0
15.200000000000001 1.3 0.0
15.600000000000001 1.3 0.0
16.0 1.3 0.0
0.0 1.4000000000000001 0.0
0.4 1.4000000000000001 0.0
0.8 1.4000000000000001 0.0
1.2000000000000002 1.4000000000000001 0.0
1.6 1.4000000000000001 0.0
2.0 1.4000000000000001 0.0
2.4000000000000004 1.4000000000000001 0.0
2.8000000000000003 1.4000000000000001 0.0
3.2 1.4000000000000001 0.0
3.6 1.4000000000000001 0.0
4.0 1.4000000000000001 0.0
4.4 1.4000000000000001 0.0
4.800000000000001 1.4000000000000001 0.0
5.2 1.4000000000000001 0.0
5.6000000000000005 1.4000000000000001 0.0
6.0 1.4000000000000001 0.0
6.4 1.4000000000000001 0.0
6.800000000000001 1.4000000000000001 0.0
7.2 1.4000000000000001 0.0
7.6000000000000005 1.4000000000000001 0.0
8.0 1.4000000000000001 0.0
8.4 1.4000000000000001 0.0
8.8 1.4000000000000001 0.0
9.200000000000001 1.4000000000000001 0.0
9.600000000000001 1.4000000000000001 0.0
10.0 1.4000000000000001 0.0
10.4 1.4000000000000001 0.0
10.8 1.4000000000000001 0.0
11.200000000000001 1.4000000000000001 0.0
11.600000000000001 1.4000000000000001 0.0
12.0 1.4000000000000001 0.0
12.4 1.4000000000000001 0.0
12.8 1.4000000000000001 0.0
13.200000000000001 1.4000000000000001 0.0
13.600000000000001 1.4000000000000001 0.0
14.0 1.4000000000000001 0.0
14.4 1.4000000000000001 0.0
14.8 1.4000000000000001 0.0
15.200000000000001 1.4000000000000001 0.0
15.600000000000001 1.4000000000000001 0.0
16.0 1.4000000000000001 0.0
0.0 1.5 0.0
0.4 1.5 0.0
0.8 1.5 0.0
1.2000000000000002 1.5 0.0
1.6 1.5 0.0
2.0 1.5 0.0
2.4000000000000004 1.5 0.0
2.8000000000000003 1.5 0.0
3.2 1.5 0.0
3.6 1.5 0.0
4.0 1.5 0.0
4.4 1.5 0.0
4.800000000000001 1.5 0.0
5.2 1.5 0.0
5.6000000000000005 1.5 0.0
6.0 1.5 0.0
6.4 1.5 0.0
6.800000000000001 1.5 0.0
7.2 1.5 0.0
7.6000000000000005 1.5 0.0
8.0 1.5 0.0
8.4 1.5 0.0
8.8 1.5 0.0
9.200000000000001 1.5 0.0
9.600000000000001 1.5 0.0
10.0 1.5 0.0
10.4 1.5 0.0
10.8 1.5 0.0
11.200000000000001 1.5 0.0
11.600000000000001 1.5 0.0
12.0 1.5 0.0
12.4 1.5 0.0
12.8 1.5 0.0
13.200000000000001 1.5 0.0
13.600000000000001 1.5 0.0
14.0 1.5 0.0
14.4 1.5 0.0
14.8 1.5 0.0
15.200000000000001 1.5 0.0
15.600000000000001 1.5 0.0
16.0 1.5 0.0
0.0 1.6 0.0
0.4 1.6 0.0
0.8 1.6 0.0
1.2000000000000002 1.6 0.0
1.6 1.6 0.0
2.0 1.6 0.0
2.4000000000000004 1.6 0.0
2.8000000000000003 1.6 0.0
3.2 1.6 0.0
3.6 1.6 0.0
4.0 1.6 0.0
4.4 1.6 0.0
4.800000000000001 1.6 0.0
5.2 1.6 0.0
5.6000000000000005 1.6 0.0
6.0 1.6 0.0
6.4 1.6 0.0
6.800000000000001 1.6 0.0
7.2 1.6 0.0
7.6000000000000005 1.6 0.0
8.0 1.6 0.0
8.4 1.6 0.0
8.8 1.6 0.0
9.200000000000001 1.6 0.0
9.600000000000001 1.6 0.0
10.0 1.6 0.0
10.4 1.6 0.0
10.8 1.6 0.0
11.200000000000001 1.6 0.0
11.600000000000001 1.6 0.0
12.0 1.6 0.0
12.4 1.6 0.0
12.8 1.6 0.0
13.200000000000001 1.6 0.0
13.600000000000001 1.6 0.0
14.0 1.6 0.0
14.4 1.6 0.0
14.8 1.6 0.0
15.200000000000001 1.6 0.0
15.600000000000001 1.6 0.0
16.0 1.6 0.0
0.0 1.7000000000000002 0.0
0.4 1.7000000000000002 0.0
0.8 1.7000000000000002 0.0
1.2000000000000002 1.7000000000000002 0.0
1.6 1.7000000000000002 0.0
2.0 1.7000000000000002 0.0
2.4000000000000004 1.7000000000000002 0.0
2.8000000000000003 1.7000000000000002 0.0
3.2 1.7000000000000002 0.0
3.6 1.7000000000000002 0.0
4.0 1.7000000000000002 0.0
4.4 1.7000000000000002 0.0
4.800000000000001 1.7000000000000002 0.0
5.2 1.7000000000000002 0.0
5.6000000000000005 1.7000000000000002 0.0
6.0 1.7000000000000002 0.0
6.4 1.7000000000000002 0.0
6.800000000000001 1.7000000000000002 0.0
7.2 1.7000000000000002 0.0
7.6000000000000005 1.7000000000000002 0.0
8.0 1.7000000000000002 0.0
8.4 1.7000000000000002 0.0
8.8 1.7000000000000002 0.0
9.200000000000001 1.7000000000000002 0.0
9.600000000000001 1.7000000000000002 0.0
10.0 1.7000000000000002 0.0
10.4 1.7000000000000002 0.0
10.8 1.7000000000000002 0.0
11.200000000000001 1.7000000000000002 0.0
11.600000000000001 1.7000000000000002 0.0
12.0 1.7000000000000002 0.0
12.4 1.7000000000000002 0.0
12.8 1.7000000000000002 0.0
13.200000000000001 1.7000000000000002 0.0
13.600000000000001 1.7000000000000002 0.0
14.0 1.7000000000000002 0.0
14.4 1.7000000000000002 0.0
14.8 1.7000000000000002 0.0
15.200000000000001 1.7000000000000002 0.0
15.600000000000001 1.7000000000000002 0.0
16.0 1.7000000000000002 0.0
0.0 1.8 0.0
0.4 1.8 0.0
0.8 1.8 0.0
1.2000000000000002 1.8 0.0
1.6 1.8 0.0
2.0 1.8 0.0
2.4000000000000004 1.8 0.0
2.8000000000000003 1.8 0.0
3.2 1.8 0.0
3.6 1.8 0.0
4.0 1.8 0.0
4.4 1.8 0.0
4.800000000000001 1.8 0.0
5.2 1.8 0.0
5.6000000000000005 1.8 0.0
6.0 1.8 0.0
6.4 1.8 0.0
6.800000000000001 1.8 0.0
7.2 1.8 0.0
7.6000000000000005 1.8 0.0
8.0 1.8 0.0
8.4 1.8 0.0
8.8 1.8 0.0
9.200000000000001 1.8 0.0
9.600000000000001 1.8 0.0
10.0 1.8 0.0
10.4 1.8 0.0
10.8 1.8 0.0
11.200000000000001 1.8 0.0
11.600000000000001 1.8 0.0
12.0 1.8 0.0
12.4 1.8 0.0
12.8 1.8 0.0
13.200000000000001 1.8 0.0
13.600000000000001 1.8 0.0
14.0 1.8 0.0
14.4 1.8 0.0
14.8 1.8 0.0
15.200000000000001 1.8 0.0
15.600000000000001 1.8 0.0
16.0 1.8 0.0
0.0 1.9000000000000001 0.0
0.4 1.9000000000000001 0.0
0.8 1.9000000000000001 0.0
1.2000000000000002 1.9000000000000001 0.0
1.6 1.9000000000000001 0.0
2.0 1.9000000000000001 0.0
2.4000000000000004 1.9000000000000001 0.0
2.8000000000000003 1.9000000000000001 0.0
3.2 1.9000000000000001 0.0
3.6 1.9000000000000001 0.0
4.0 1.9000000000000001 0.0
4.4 1.9000000000000001 0.0
4.800000000000001 1.9000000000000001 0.0
5.2 1.9000000000000001 0.0
5.6000000000000005 1.9000000000000001 0.0
6.0 1.9000000000000001 0.0
6.4 1.9000000000000001 0.0
6.800000000000001 1.9000000000000001 0.0
7.2 1.9000000000000001 0.0
7.6000000000000005 1.9000000000000001 0.0
8.0 1.9000000000000001 0.0
8.4 1.9000000000000001 0.0
8.8 1.9000000000000001 0.0
9.200000000000001 1.9000000000000001 0.0
9.600000000000001 1.9000000000000001 0.0
10.0 1.9000000000000001 0.0
10.4 1.9000000000000001 0.0
10.8 1.9000000000000001 0.0
11.200000000000001 1.9000000000000001 0.0
11.600000000000001 1.9000000000000001 0.0
12.0 1.9000000000000001 0.0
12.4 1.9000000000000001 0.0
12.8 1.9000000000000001 0.0
13.200000000000001 1.9000000000000001 0.0
13.600000000000001 1.9000000000000001 0.0
14.0 1.9000000000000001 0.0
14.4 1.9000000000000001 0.0
14.8 1.9000000000000001 0.0
15.200000000000001 1.9000000000000001 0.0
15.600000000000001 1.9000000000000001 0.0
16.0 1.9000000000000001 0.0
0.0 2.0 0.0
0.4 2.0 0.0
0.8 2.0 0.0
1.2000000000000002 2.0 0.0
1.6 2.0 0.0
2.0 2.0 0.0
2.4000000000000004 2.0 0.0
2.8000000000000003 2.0 0.0
3.2 2.0 0.0
3.6 2.0 0.0
4.0 2.0 0.0
4.4 2.0 0.0
4.800000000000001 2.0 0.0
5.2 2.0 0.0
5.6000000000000005 2.0 0.0
6.0 2.0 0.0
6.4 2.0 0.0
6.800000000000001 2.0 0.0
7.2 2.0 0.0
7.6000000000000005 2.0 0.0
8.0 2.0 0.0
8.4 2.0 0.0
8.8 2.0 0.0
9.200000000000001 2.0 0.0
9.600000000000001 2.0 0.0
10.0 2.0 0.0
10.4 2.0 0.0
10.8 2.0 0.0
11.200000000000001 2.0 0.0
11.600000000000001 2.0 0.0
12.0 2.0 0.0
12.4 2.0 0.0
12.8 2.0 0.0
13.200000000000001 2.0 0.0
13.600000000000001 2.0 0.0
14.0 2.0 0.0
14.4 2.0 0.0
14.8 2.0 0.0
15.200000000000001 2.0 0.0
15.600000000000001 2.0 0.0
16.0 2.0 0.0
CELLS 800 4000
4 0 1 42 41
4 1 2 43 42
4 2 3 44 43
4 3 4 45 44
4 4 5 46 45
4 5 6 47 46
4 6 7 48 47
4 7 8 49 48
4 8 9 50 49
4 9 10 51 50
4 10 11 52 51
4 11 12 53 52
4 12 13 54 53
4 13 14 55 54
4 14 15 56 55
4 15 16 57 56
4 16 17 58 57
4 17 18 59 58
4 18 19 60 59
4 19 20 61 60
4 20 21 62 61
4 21 22 63 62
4 22 23 64 63
4 23 24 65 64
4 24 25 66 65
4 25 26 67 66
4 26 27 68 67
4 27 28 69 68
4 28 29 70 69
4 29 30 71 70
4 30 31 72 71
4 31 32 73 72
4 32 33 74 73
4 33 34 75 74
4 34 35 76 75
4 35 36 77 76
4 36 37 78 77
4 37 38 79 78
4 38 39 80 79
4 39 40 81 80
4 41 42 83 82
4 42 43 84 83
4 43 44 85 84
4 44 45 86 85
4 45 46 87 86
4 46 47 88 87
4 47 48 89 88
4 48 49 90 89
4 49 50 91 90
4 50 51 92 91
4 51 52 93 92
4 52 53 94 93
4 53 54 95 94
4 54 55 96 95
4 55 56 97 96
4 56 57 98 97
4 57 58 99 98
4 58 59 100 99
4 59 60 101 100
4 60 61 102 101
4 61 62 103 102
4 62 63 104 103
4 63 64 105 104
4 64 65 106 105
4 65 66 107 106
4 66 67 108 107
4 67 68 109 108
4 68 69 110 109
4 69 70 111 110
4 70 71 112 111
4 71 72 113 112
4 72 73 114 113
4 73 74 115 114
4 74 75 116 115
4 75 76 117 116
4 76 77 118 117
4 77 78 119 118
4 78 79 120 119
4 79 80 121 120
4 80 81 122 121
4 82 83 124 123
4 83 84 125 124
4 84 85 126 125
4 85 86 127 126
4 86 87 128 127
4 87 88 129 128
4 88 89 130 129
4 89 90 131 130
4 90 91 132 131
4 91 92 133 132
4 92 93 134 133
4 93 94 135 134
4 94 95 136 135
4 95 96 137 136
4 96 97 138 137
4 97 98 139 138
4 98 99 140 139
4 99 100 141 140
4 100 101 142 141
4 101 102 143 142
4 102 103 144 143
4 103 104 145 144
4 104 105 146 145
4 105 106 147 146
4 106 107 148 147
4 107 108 149 148
4 108 109 150 149
4 109 110 151 150
4 110 111 152 151
4 111 112 153 152
4 112 113 154 153
4 113 114 155 154
4 114 115 156 155
4 115 116 157 156
4 116 117 158 157
4 117 118 159 158
4 118 119 160 159
4 119 120 161 160
4 120 121 162 161
4 121 122 163 162
4 123 124 165 164
4 124 125 166 165
4 125 126 167 166
4 126 127 168 167
4 127 128 169 168
4 128 129 170 169
4 129 130 171 170
4 130 131 172 171
4 131 132 173 172
4 132 133 174 173
4 133 134 175 174
4 134 135 176 175
4 135 136 177 176
4 136 137 178 177
4 137 138 179 178
4 138 139 180 179
4 139 140 181 180
4 140 141 182 181
4 141 142 183 182
4 142 143 184 183
4 143 144 185 184
4 144 145 186 185
4 145 146 187 186
4 146 147 188 187
4 147 148 189 188
4 148 149 190 189
4 149 150 191 190
4 150 151 192 191
4 151 152 193 192
4 152 153 194 193
4 153 154 195 194
4 154 155 196 195
4 155 156 197 196
4 156 157 198 197
4 157 158 199 198
4 158 159 200 199
4 159 160 201 200
4 160 161 202 201
4 161 162 203 202
4 162 163 204 203
4 164 165 206 205
4 165 166 207 206
4 166 167 208 207
4 167 168 209 208
4 168 169 210 209
4 169 170 211 210
4 170 171 212 211
4 171 172 213 212
4 172 173 214 213
4 173 174 215 214
4 174 175 216 215
4 175 176 217 216
4 176 177 218 217
4 177 178 219 218
4 178 179 220 219
4 179 180 221 220
4 180 181 222 221
4 181 182 223 222
4 182 183 224 223
4 183 184 225 224
4 184 185 226 225
4 185 186 227 226
4 186 187 228 227
4 187 188 229 228
4 188 189 230 229
4 189 190 231 230
4 190 191 232 231
4 191 192 233 232
4 192 193 234 233
4 193 194 235 234
4 194 195 236 235
4 195 196 237 236
4 196 197 238 237
4 197 198 239 238
4 198 199 240 239
4 199 200 241 240
4 200 201 242 241
4 201 202 243 242
4 202 203 244 243
4 203 204 245 244
4 205 206 247 246
4 206 207 248 247
4 207 208 249 248
4 208 209 250 249
4 209 210 251 250
4 210 211 252 251
4 211 212 253 252
4 212 213 254 253
4 213 214 255 254
4 214 215 256 255
4 215 216 257 256
4 216 217 258 257
4 217 218 259 258
4 218 219 260 259
4 219 220 261 260
4 220 221 262 261
4 221 222 263 262
4 222 223 264 263
4 223 224 265 264
4 224 225 266 265
4 225 226 267 266
4 226 227 268 267
4 227 228 269 268
4 228 229 270 269
4 229 230 271 270
4 230 231 272 271
4 231 232 273 272
4 232 233 274 273
4 233 234 275 274
4 234 235 276 275
4 235 236 277 276
4 236 237 278 277
4 237 238 279 278
4 238 239 280 279
4 239 240 281 280
4 240 241 282 281
4 241 242 283 282
4 242 243 284 283
4 243 244 285 284
4 244 245 286 285
4 246 247 288 287
4 247 248 289 288
4 248 249 290 289
4 249 250 291 290
4 250 251 292 291
4 251 252 293 292
4 252 253 294 293
4 253 254 295 294
4 254 255 296 295
4 255 256 297 296
4 256 257 298 297
4 257 258 299 298
4 258 259 300 299
4 259 260 301 300
4 260 261 302 301
4 261 262 303 302
4 262 263 304 303
4 263 264 305 304
4 264 265 306 305
4 265 266 307 306
4 266 267 308 307
4 267 268 309 308
4 268 269 310 309
4 269 270 311 310
4 270 271 312 311
4 271 272 313 312
4 272 273 314 313
4 273 274 315 314
4 274 275 316 315
4 275 276 317 316
4 276 277 318 317
4 277 278 319 318
4 278 279 320 319
4 279 280 321 320
4 280 281 322 321
4 281 282 323 322
4 282 283 324 323
4 283 284 325 324
4 284 285 326 325
4 285 286 327 326
4 287 288 329 328
4 288 289 330 329
4 289 290 331 330
4 290 291 332 331
4 291 292 333 332
4 292 293 334 333
4 293 294 335 334
4 294 295 336 335
4 295 296 337 336
4 296 297 338 337
4 297 298 339 338
4 298 299 340 339
4 299 300 341 340
4 300 301 342 341
4 301 302 343 342
4 302 303 344 343
4 303 304 345 344
4 304 305 346 345
4 305 306 347 346
4 306 307 348 347
4 307 308 349 348
4 308 309 350 349
4 309 310 351 350
4 310 311 352 351
4 311 312 353 352
4 312 313 354 353
4 313 314 355 354
4 314 315 356 355
4 315 316 357 356
4 316 317 358 357
4 317 318 359 358
4 318 319 360 359
4 319 320 361 360
4 320 321 362 361
4 321 322 363 362
4 322 323 364 363
4 323 324 365 364
4 324 325 366 365
4 325 326 367 366
4 326 327 368 367
4 328 329 370 369
4 329 330 371 370
4 330 331 372 371
4 331 332 373 372
4 332 333 374 373
4 333 334 375 374
4 334 335 376 375
4 335 336 377 376
4 336 337 378 377
4 337 338 379 378
4 338 339 380 379
4 339 340 381 380
4 340 341 382 381
4 341 342 383 382
4 342 343 384 383
4 343 344 385 384
4 344 345 386 385
4 345 346 387 386
4 346 347 388 387
4 347 348 389 388
4 348 349 390 389
4 349 350 391 390
4 350 351 392 391
4 351 352 393 392
4 352 353 394 393
4 353 354 395 394
4 354 355 396 395
4 355 356 397 396
4 356 357 398 397
4 357 358 399 398
4 358 359 400 399
4 359 360 401 400
4 360 361 402 401
4 361 362 403 402
4 362 363 404 403
4 363 364 405 404
4 364 365 406 405
4 365 366 407 406
4 366 367 408 407
4 367 368 409 408
4 369 370 411 410
4 370 371 412 411
4 371 372 413 412
4 372 373 414 413
4 373 374 415 414
4 374 375 416 415
4 375 376 417 416
4 376 377 418 417
4 377 378 419 418
4 378 379 420 419
4 379 380 421 420
4 380 381 422 421
4 381 382 423 422
4 382 383 424 423
4 383 384 425 424
4 384 385 426 425
4 385 386 427 426
4 386 387 428 427
4 387 388 429 428
4 388 389 430 429
4 389 390 431 430
4 390 391 432 431
4 391 392 433 432
4 392 393 434 433
4 393 394 435 434
4 394 395 436 435
4 395 396 437 436
4 396 397 438 437
4 397 398 439 438
4 398 399 440 439
4 399 400 441 440
4 400 401 442 441
4 401 402 443 442
4 402 403 444 443
4 403 404 445 444
4 404 405 446 445
4 405 406 447 446
4 406 407 448 447
4 407 408 449 448
4 408 409 450 449
4 410 411 452 451
4 411 412 453 452
4 412 413 454 453
4 413 414 455 454
4 414 415 456 455
4 415 416 457 456
4 416 417 458 457
4 417 418 459 458
4 418 419 460 459
4 419 420 461 460
4 420 421 462 461
4 421 422 463 462
4 422 423 464 463
4 423 424 465 464
4 424 425 466 465
4 425 426 467 466
4 426 427 468 467
4 427 428 469 468
4 428 429 470 469
4 429 430 471 470
4 430 431 472 471
4 431 432 473 472
4 432 433 474 473
4 433 434 475 474
4 434 435 476 475
4 435 436 477 476
4 436 437 478 477
4 437 438 479 478
4 438 439 480 479
4 439 440 481 480
4 440 441 482 481
4 441 442 483 482
4 442 443 484 483
4 443 444 485 484
4 444 445 486 485
4 445 446 487 486
4 446 447 488 487
4 447 448 489 488
4 448 449 490 489
4 449 450 491 490
4 451 452 493 492
4 452 453 494 493
4 453 454 495 494
4 454 455 496 495
4 455 456 497 496
4 456 457 498 497
4 457 458 499 498
4 458 459 500 499
4 459 460 501 500
4 460 461 502 501
4 461 462 503 502
4 462 463 504 503
4 463 464 505 504
4 464 465 506 505
4 465 466 507 506
4 466 467 508 507
4 467 468 509 508
4 468 469 510 509
4 469 470 511 510
4 470 471 512 511
4 471 472 513 512
4 472 473 514 513
4 473 474 515 514
4 474 475 516 515
4 475 476 517 516
4 476 477 518 517
4 477 478 519 518
4 478 479 520 519
4 479 480 521 520
4 480 481 522 521
4 481 482 523 522
4 482 483 524 523
4 483 484 525 524
4 484 485 526 525
4 485 486 527 526
4 486 487 528 527
4 487 488 529 528
4 488 489 530 529
4 489 490 531 530
4 490 491 532 531
4 492 493 534 533
4 493 494 535 534
4 494 495 536 535
4 495 496 537 536
4 496 497 538 537
4 497 498 539 538
4 498 499 540 539
4 499 500 541 540
4 500 501 542 541
4 501 502 543 542
4 502 503 544 543
4 503 504 545 544
4 504 505 546 545
4 505 506 547 546
4 506 507 548 547
4 507 508 549 548
4 508 509 550 549
4 509 510 551 550
4 510 511 552 551
4 511 512 553 552
4 512 513 554 553
4 513 514 555 554
4 514 515 556 555
4 515 516 557 556
4 516 517 558 557
4 517 518 559 558
4 518 519 560 559
4 519 520 561 560
4 520 521 562 561
4 521 522 563 562
4 522 523 564 563
4 523 524 565 564
4 524 525 566 565
4 525 526 567 566
4 526 527 568 567
4 527 528 569 568
4 528 529 570 569
4 529 530 571 570
4 530 531 572 571
4 531 532 573 572
4 533 534 575 574
4 534 535 576 575
4 535 536 577 576
4 536 537 578 577
4 537 538 579 578
4 538 539 580 579
4 539 540 581 580
4 540 541 582 581
4 541 542 583 582
4 542 543 584 583
4 543 544 585 584
4 544 545 586 585
4 545 546 587 586
4 546 547 588 587
4 547 548 589 588
4 548 549 590 589
4 549 550 591 590
4 550 551 592 591
4 551 552 593 592
4 552 553 594 593
4 553 554 595 594
4 554 555 596 595
4 555 556 597 596
4 556 557 598 597
4 557 558 599 598
4 558 559 600 599
4 559 560 601 600
4 560 561 602 601
4 561 562 603 602
4 562 563 604 603
4 563 564 605 604
4 564 565 606 605
4 565 566 607 606
4 566 567 608 607
4 567 568 609 608
4 568 569 610 609
4 569 570 611 610
4 570 571 612 611
4 571 572 613 612
4 572 573 614 613
4 574 575 616 615
4 575 576 617 616
4 576 577 618 617
4 577 578 619 618
4 578 579 620 619
4 579 580 621 620
4 580 581 622 621
4 581 582 623 622
4 582 583 624 623
4 583 584 625 624
4 584 585 626 625
4 585 586 627 626
4 586 587 628 627
4 587 588 629 628
4 588 589 630 629
4 589 590 631 630
4 590 591 632 631
4 591 592 633 632
4 592 593 634 633
4 593 594 635 634
4 594 595 636 635
4 595 596 637 636
4 596 597 638 637
4 597 598 639 638
4 598 599 640 639
4 599 600 641 640
4 600 601 642 641
4 601 602 643 642
4 602 603 644 643
4 603 604 645 644
4 604 605 646 645
4 605 606 647 646
4 606 607 648 647
4 607 608 649 648
4 608 609 650 649
4 609 610 651 650
4 610 611 652 651
4 611 612 653 652
4 612 613 654 653
4 613 614 655 654
4 615 616 657 656
4 616 617 658 657
4 617 618 659 658
4 618 619 660 659
4 619 620 661 660
4 620 621 662 661
4 621 622 663 662
4 622 623 664 663
4 623 624 665 664
4 624 625 666 665
4 625 626 667 666
4 626 627 668 667
4 627 628 669 668
4 628 629 670 669
4 629 630 671 670
4 630 631 672 671
4 631 632 673 672
4 632 633 674 673
4 633 634 675 674
4 634 635 676 675
4 635 636 677 676
4 636 637 678 677
4 637 638 679 678
4 638 639 680 679
4 639 640 681 680
4 640 641 682 681
4 641 642 683 682
4 642 643 684 683
4 643 644 685 684
4 644 645 686 685
4 645 646 687 686
4 646 647 688 687
4 647 648 689 688
4 648 649 690 689
4 649 650 691 690
4 650 651 692 691
4 651 652 693 692
4 652 653 694 693
4 653 654 695 694
4 654 655 696 695
4 656 657 698 697
4 657 658 699 698
4 658 659 700 699
4 659 660 701 700
4 660 661 702 701
4 661 662 703 702
4 662 663 704 703
4 663 664 705 704
4 664 665 706 705
4 665 666 707 706
4 666 667 708 707
4 667 668 709 708
4 668 669 710 709
4 669 670 711 710
4 670 671 712 711
4 671 672 713 712
4 672 673 714 713
4 673 674 715 714
4 674 675 716 715
4 675 676 717 716
4 676 677 718 717
4 677 678 719 718
4 678 679 720 719
4 679 680 721 720
4 680 681 722 721
4 681 682 723 722
4 682 683 724 723
4 683 684 725 724
4 684 685 726 725
4 685 686 727 726
4 686 687 728 727
4 687 688 729 728
4 688 689 730 729
4 689 690 731 730
4 690 691 732 731
4 691 692 733 732
4 692 693 734 733
4 693 694 735 734
4 694 695 736 735
4 695 696 737 736
4 697 698 739 738
4 698 699 740 739
4 699 700 741 740
4 700 701 742 741
4 701 702 743 742
4 702 703 744 743
4 703 704 745 744
4 704 705 746 745
4 705 706 747 746
4 706 707 748 747
4 707 708 749 748
4 708 709 750 749
4 709 710 751 750
4 710 711 752 751
4 711 712 753 752
4 712 713 754 753
4 713 714 755 754
4 714 715 756 755
4 715 716 757 756
4 716 717 758 757
4 717 718 759 758
4 718 719 760 759
4 719 720 761 760
4 720 721 762 761
4 721 722 763 762
4 722 723 764 763
4 723 724 765 764
4 724 725 766 765
4 725 726 767 766
4 726 727 768 767
4 727 728 769 768
4 728 729 770 769
4 729 730 771 770
4 730 731 772 771
4 731 732 773 772
4 732 733 774 773
4 733 734 775 774
4 734 735 776 775
4 735 736 777 776
4 736 737 778 777
4 738 739 780 779
4 739 740 781 780
4 740 741 782 781
4 741 742 783 782
4 742 743 784 783
4 743 744 785 784
4 744 745 786 785
4 745 746 787 786
4 746 747 788 787
4 747 748 789 788
4 748 749 790 789
4 749 750 791 790
4 750 751 792 791
4 751 752 793 792
4 752 753 794 793
4 753 754 795 794
4 754 755 796 795
4 755 756 797 796
4 756 757 798 797
4 757 758 799 798
4 758 759 800 799
4 759 760 801 800
4 760 761 802 801
4 761 762 803 802
4 762 763 804 803
4 763 764 805 804
4 764 765 806 805
4 765 766 807 806
4 766 767 808 807
4 767 768 809 808
4 768 769 810 809
4 769 770 811 810
4 770 771 812 811
4 771 772 813 812
4 772 773 814 813
4 773 774 815 814
4 774 775 816 815
4 775 776 817 816
4 776 777 818 817
4 777 778 819 818
4 779 780 821 820
4 780 781 822 821
4 781 782 823 822
4 782 783 824 823
4 783 784 825 824
4 784 785 826 825
4 785 786 827 826
4 786 787 828 827
4 787 788 829 828
4 788 789 830 829
4 789 790 831 830
4 790 791 832 831
4 791 792 833 832
4 792 793 834 833
4 793 794 835 834
4 794 795 836 835
4 795 796 837 836
4 796 797 838 837
4 797 798 839 838
4 798 799 840 839
4 799 800 841 840
4 800 801 842 841
4 801 802 843 842
4 802 803 844 843
4 803 804 845 844
4 804 805 846 845
4 805 806 847 846
4 806 807 848 847
4 807 808 849 848
4 808 809 850 849
4 809 810 851 850
4 810 811 852 851
4 811 812 853 852
4 812 813 854 853
4 813 814 855 854
4 814 815 856 855
4 815 816 857 856
4 816 817 858 857
4 817 818 859 858
4 818 819 860 859
CELL_TYPES 800
9
9
9
9
9
9
9
9
9
9
9
9
9
9
9
9
9
9
9
9
9
9
9
9
9
9
9
9
9
9
9
9
9
9
9
9
9
9
9
9
9
9
9
9
9
9
9
9
9
9
9
9
9
9
9
9
9
9
9
9
9
9
9
9
9
9
9
9
9
9
9
9
9
9
9
9
9
9
9
9
9
9
9
9
9
9
9
9
9
9
9
9
9
9
9
9
9
9
9
9
9
9
9
9
9
9
9
9
9
9
9
9
9
9
9
9
9
9
9
9
9
9
9
9
9
9
9
9
9
9
9
9
9
9
9
9
9
9
9
9
9
9
9
9
9
9
9
9
9
9
9
9
9
9
9
9
9
9
9
9
9
9
9
9
9
9
9
9
9
9
9
9
9
9
9
9
9
9
9
9
9
9
9
9
9
9
9
9
9
9
9
9
9
9
9
9
9
9
9
9
9
9
9
9
9
9
9
9
9
9
9
9
9
9
9
9
9
9
9
9
9
9
9
9
9
9
9
9
9
9
9
9
9
9
9
9
9
9
9
9
9
9
9
9
9
9
9
9
9
9
9
9
9
9
9
9
9
9
9
9
9
9
9
9
9
9
9
9
9
9
9
9
9
9
9
9
9
9
9
9
9
9
9
9
9
9
9
9
9
9
9
9
9
9
9
9
9
9
9
9
9
9
9
9
9
9
9
9
9
9
9
9
9
9
9
9
9
9
9
9
9
9
9
9
9
9
9
9
9
9
9
9
9
9
9
9
9
9
9
9
9
9
9
9
9
9
9
9
9
9
9
9
9
9
9
9
9
9
9
9
9
9
9
9
9
9
9
9
9
9
9
9
9
9
9
9
9
9
9
9
9
9
9
9
9
9
9
9
9
9
9
9
9
9
9
9
9
9
9
9
9
9
9
9
9
9
9
9
9
9
9
9
9
9
9
9
9
9
9
9
9
9
9
9
9
9
9
9
9
9
9
9
9
9
9
9
9
9
9
9
9
9
9
9
9
9
9
9
9
9
9
9
9
9
9
9
9
9
9
9
9
9
9
9
9
9
9
9
9
9
9
9
9
9
9
9
9
9
9
9
9
9
9
9
9
9
9
9
9
9
9
9
9
9
9
9
9
9
9
9
9
9
9
9
9
9
9
9
9
9
9
9
9
9
9
9
9
9
9
9
9
9
9
9
9
9
9
9
9
9
9
9
9
9
9
9
9
9
9
9
9
9
9
9
9
9
9
9
9
9
9
9
9
9
9
9
9
9
9
9
9
9
9
9
9
9
9
9
9
9
9
9
9
9
9
9
9
9
9
9
9
9
9
9
9
9
9
9
9
9
9
9
9
9
9
9
9
9
9
9
9
9
9
9
9
9
9
9
9
9
9
9
9
9
9
9
9
9
9
9
9
9
9
9
9
9
9
9
9
9
9
9
9
9
9
9
9
9
9
9
9
9
9
9
9
9
9
9
9
9
9
9
9
9
9
9
9
9
9
9
9
9
9
9
9
9
9
9
9
9
9
9
9
9
9
9
9
9
9
9
9
9
9
9
9
9
9
9
9
9
9
9
9
9
9
9
9
9
9
9
9
9
9
9
9
9
9
9
9
9
9
9
9
9
9
9
9
9
9
9
9
9
9
9
9
9
9
9
9
9
9
9
9
9
9
9
9
9
9
9
9
9
9
9
9
9
9
9
9
9
9
9
9
9
9
9
9
9
9
9
9
9
9
9
9
9
9
9
9
9
9
9
9
9
9
9
9
9
9
9
9
9
9
9
9
9
9
9
9
9
9
9
9
9
9
9
9
9
9
9
POINT_DATA 861
SCALARS Disp float 2
LOOKUP_TABLE default
0.0 0.0
0.005123656249544471 -0.30786166637627876
0.005542003425067661 -0.6095065047499828
0.0054741384910064845 -0.9102611577985971
0.005584930813976565 -1.210991248571859
0.0063572170098063294 -1.511163021592109
0.008598785833301429 -1.8101416748936492
0.013358065071287565 -2.1071074413340103
0.02188701379597786 -2.4009982288912237
0.035546613329602496 -2.690365629264282
0.0556751919356944 -2.973200415249847
0.08349714690961484 -3.2468626801458904
0.12008271506254634 -3.5081535974124787
0.16633432263791054 -3.7534680742253124
0.2229702315429749 -3.978897342936743
0.29044702912756 -4.180325527099137
0.36883564502656885 -4.353565406169999
0.45768898984759226 -4.494567602657378
0.5559501607613886 -4.599721734142029
0.6619512805952245 -4.666120535516658
0.7731208858175471 -4.691914387443856
0.8842904910398625 -4.666120535516504
0.9902916108736748 -4.5997217341417205
1.088552781787432 -4.494567602656932
1.177406126608405 -4.353565406169443
1.2557947425073601 -4.180325527098501
1.3232715400918895 -3.978897342936045
1.3799074489968972 -3.753468074224572
1.4261590565722055 -3.508153597411723
1.4627446247250846 -3.246862680145141
1.4905665796989573 -2.9732004152491243
1.51069515830501 -2.6903656292636042
1.5243547578386052 -2.400998228890599
1.5328837065632737 -2.1071074413334485
1.5376429858012446 -1.810141674893156
1.5398845546247313 -1.5111630215916931
1.5406568408205574 -1.21099124857152
1.5407676331435272 -0.910261157798339
1.5406997682094659 -0.6095065047498043
1.541118115384987 -0.30786166637618256
1.5462417716345278 0.0
0.07683072440826921 -0.0017834631306334748
0.08060699789522752 -0.3082747109132297
0.08077479137636007 -0.6094468829140876
0.08067053538595526 -0.9102708577472179
0.08074118538645535 -1.2110585828268987
0.08131562346633756 -1.5114614302051907
0.08317205099304155 -1.8109053762465166
0.08729943282558808 -2.1086220817792953
0.09486992946309752 -2.403582775850864
0.10712161121888288 -2.6943437890862394
0.1252472515663537 -2.9788750846234744
0.15032579419224176 -3.2545036206651123
0.18330741742408463 -3.5179946635790813
0.22501014246207923 -3.7657044344450337
0.27608786228656856 -3.9936752619751017
0.3369682070195696 -4.197718482167054
0.40774625229559247 -4.373542330330035
0.48806709981166724 -4.5169633542154015
0.5770225927070742 -4.6242142372758925
0.6729842468777878 -4.692199955367777
0.7731208858175284 -4.718655887526589
0.873257524757262 -4.692199955367621
0.9692191789279537 -4.624214237275576
1.058174671823326 -4.516963354214944
1.1384955193393578 -4.3735423303294665
1.2092735646153316 -4.1977184821664055
1.2701539093482828 -3.99367526197439
1.3212316291727213 -3.7657044344442814
1.3629343542106656 -3.5179946635783117
1.395915977442461 -3.2545036206643507
1.420994520068306 -2.9788750846227408
1.4391201604157418 -2.6943437890855533
1.4513718421714998 -2.403582775850233
1.4589423388089895 -2.1086220817787287
1.4630697206415226 -1.8109053762460203
1.4649261481682194 -1.5114614302047737
1.4655005862480985 -1.2110585828265594
1.4655712362485982 -0.9102708577469599
1.4654669802581934 -0.6094468829139089
1.4656347737393258 -0.3082747109131329
1.469411047226278 -0.0017834631306317041
0.153025371739715 -0.0031698523622614425
0.15585334346179552 -0.3085000690159405
0.1559637633231652 -0.6094073504069667
0.15588777864769612 -0.9102701337963971
0.1559206840965819 -1.2111010318579942
0.15633740167425644 -1.5116832633092512
0.1578246927425193 -1.8115313993037034
0.16132354672553423 -2.1099218298477442
0.16791318424252277 -2.4058508556365616
0.17871295182491218 -2.6978709951296165
0.19477798278055206 -2.9839286431147256
0.21705251465654832 -3.2613203350733238
0.24636799092297734 -3.5267822545846417
0.2834480765804829 -3.7766395750265045
0.32888747299867827 -4.006892350769894
0.3830906126694414 -4.213290517291271
0.44619082057346215 -4.391453950105323
0.517937525456656 -4.537079676240982
0.5975400922360239 -4.646242879871878
0.6834227801724739 -4.715610025069202
0.7731208858175102 -4.742651438391161
0.8628189914625402 -4.715610025069042
0.9487016793989705 -4.646242879871553
1.0283042461783076 -4.537079676240516
1.1000509510614642 -4.391453950104742
1.1631511589654413 -4.213290517290611
1.2173542986361594 -4.006892350769168
1.2627936950543097 -3.7766395750257393
1.2998737807117704 -3.52678225458386
1.3291892569781576 -3.261320335072551
1.3514637888541157 -2.983928643113983
1.3675288198097242 -2.6978709951289224
1.3783285873920892 -2.405850855635925
1.38491822490906 -2.109921829847173
1.3884170788920631 -1.811531399303205
1.38990436996032 -1.5116832633088326
1.3903210875379919 -1.211101031857655
1.3903539929868776 -0.9102701337961393
1.3902780083114088 -0.6094073504067881
1.390388428172778 -0.30850006901584326
1.3932163998948528 -0.0031698523622573993
0.22890862221125124 -0.004255836034452655
0.23104939558700283 -0.30863370938626794
0.2311408354063138 -0.6093921873194084
0.231104960420492 -0.9102661362381204
0.23112224616625007 -1.2111259830991312
0.23141460715175433 -1.511839843300454
0.23256467829805874 -1.8120247216221737
0.2354454766662407 -2.1110072239591102
0.2410462170804506 -2.4077971332789123
0.2503690320688816 -2.700938018638629
0.2643372209091396 -2.9883497181680743
0.28376481180613206 -3.2673010461674954
0.3093686054154245 -3.5345036402167747
0.34177731233566655 -3.7862581596209495
0.3815184081812309 -4.018531757901052
0.42898027527124816 -4.22702530742634
0.4843382435660307 -4.407286416969982
0.5474408444390182 -4.554904761143939
0.6176283655069637 -4.66579439684867
0.6935471202570789 -4.736413688359315
0.7731208858174923 -4.764045215331776
0.8526946513778998 -4.7364136883591526
0.9286134061279977 -4.66579439684834
0.9988009271959168 -4.554904761143465
1.061903528068871 -4.4072864169693915
1.1172614963636154 -4.227025307425667
1.164723363453593 -4.018531757900318
1.2044644592991178 -3.786258159620174
1.2368731662193213 -3.5345036402159833
1.2624769598285766 -3.267301046166713
1.2819045507255362 -2.9883497181673233
1.2958727395657665 -2.7009380186379284
1.305195554554176 -2.4077971332782706
1.31079629496837 -2.111007223958536
1.3136770933365418 -1.8120247216216736
1.3148271644828413 -1.5118398433000348
1.3151195254683439 -1.2111259830987915
1.315136811214102 -0.9102661362378625
1.3151009362282804 -0.60939218731923
1.3151923760475912 -0.3086337093861703
1.3173331494233376 -0.004255836034446422
0.30463351048403026 -0.005112205150579486
0.30623419636647203 -0.3087057811216428
0.3063148462670101 -0.609392291634628
0.3063171519692487 -0.9102648584888843
0.3063375386596466 -1.2111404876439034
0.3065372406889014 -1.5119450137406645
0.30739618225957016 -1.81239506767774
0.3096790068548881 -2.1118814650978712
0.31429874769588406 -2.4094210175220256
0.32213773557630215 -2.7035406957875683
0.33399252086792447 -2.9921323104768662
0.35055090791961746 -3.27243832641358
0.37241463653242834 -3.5411505881836542
0.40012020100981266 -3.794551157369493
0.43413173194959814 -4.028582432539646
0.47480841983660993 -4.238909592369684
0.522360144988606 -4.4210237167568796
0.5767385528624229 -4.570420575577014
0.6374682812770769 -4.682871403559826
0.7034878606045796 -4.754658421668488
0.7731208858174748 -4.782912254548126
0.8427539110303648 -4.754658421668322
0.9087734903578524 -4.682871403559492
0.9695032187724834 -4.5704205755765335
1.0238816266462714 -4.42102371675628
1.0714333517982342 -4.238909592369001
1.1121100396852117 -4.028582432538902
1.1461215706249637 -3.7945511573687085
1.1738271351023146 -3.5411505881828536
1.1956908637150938 -3.27243832641279
1.2122492507667588 -2.992132310476109
1.2241040360583573 -2.7035406957868617
1.2319430239387563 -2.40942101752138
1.2365627647797393 -2.1118814650972944
1.2388455893750492 -1.8123950676772382
1.2397045309457138 -1.5119450137402448
1.2399042329749674 -1.2111404876435636
1.2399246196653655 -0.9102648584886264
1.2399269253676042 -0.6093922916344497
1.2400075752681423 -0.3087057811215448
1.2416082611505794 -0.0051122051505712775
0.38025732698262404 -0.005780571918570784
0.3814218566039429 -0.30873328038135117
0.38149245313292013 -0.6094009178159435
0.38152513279592715 -0.9102679335320965
0.381556478087853 -1.2111507287137881
0.3816958539376973 -1.5120122955809745
0.38230968495415935 -1.8126576582877358
0.3840440280395565 -2.1125519548309777
0.3877004172165565 -2.410725951021614
0.39406640360026335 -2.7056799923606603
0.4038105453340666 -2.995275404430209
0.41749662514374364 -3.2767300432265563
0.43561382347299343 -3.5467198547309224
0.45860571308859593 -3.801514568653366
0.48687148449877865 -4.037039774086311
0.5207430433520172 -4.248934766598901
0.5604429215516605 -4.432649977206046
0.60602092375614 -4.5836099507911765
0.6572279787260712 -4.697471503261537
0.7133478674172653 -4.770368297857285
0.7731208858174573 -4.799296189659937
0.8328939042176451 -4.770368297857116
0.8890137929088262 -4.697471503261199
0.9402208478787372 -4.583609950790688
0.9857988500831919 -4.43264997720544
1.0254987282828074 -4.24893476659821
1.0593702871360173 -4.037039774085559
1.0876360585461717 -3.8015145686525735
1.110627948161746 -3.546719854730114
1.1287451464909704 -3.2767300432257582
1.1424312263006242 -2.9952754044294454
1.1521753680344073 -2.705679992359949
1.1585413544180987 -2.4107259510209644
1.162197743595088 -2.112551954830399
1.1639320866804788 -1.8126576582872327
1.164545917696938 -1.5120122955805544
1.1646852935467815 -1.2111507287134482
1.1647166388387074 -0.9102679335318388
1.1647493185017144 -0.609400917815765
1.1648199150306915 -0.308733280381253
1.1659844446520067 -0.005780571918560837
0.4558035482005078 -0.00629134287825343
0.456617626914911 -0.30872873599542644
0.4566783365236452 -0.6094135664020568
0.4567314202040092 -0.9102745141324332
0.4567729953330012 -1.2111605091397428
0.45687767377512634 -1.5120543397127444
0.4572932285299528 -1.8128312821247565
0.4585385000396686 -2.113034897077274
0.46128328362574117 -2.411720179944236
0.46620279896580885 -2.707361694161084
0.47385819956526787 -2.9977833994023135
0.4846893826621515 -3.2801794561429922
0.4990735474860815 -3.5512138733357665
0.5173622783077098 -3.8071500757098358
0.5398901590994173 -4.043904079275332
0.5669530425318391 -4.2570980172917645
0.598777980154901 -4.44215465838042
0.635496039738846 -4.594455121234994
0.6770869914092251 -4.709580488003558
0.7232275555314466 -4.783544616246334
0.7731208858174398 -4.813215157550608
0.8230142161034292 -4.783544616246163
0.8691547802256399 -4.709580488003216
0.9107457318960017 -4.5944551212345
0.9474637914799268 -4.442154658379809
0.979288729102966 -4.257098017291067
1.0063516125353644 -4.043904079274574
1.0288794933270489 -3.807150075709037
1.0471682241486555 -3.551213873334952
1.0615523889725655 -3.2801794561421893
1.0723835720694306 -2.9977833994015457
1.0800389726688737 -2.7073616941603675
1.0849584880089291 -2.4117201799435835
1.0877032715949935 -2.1130348970766932
1.0889485431047043 -1.8128312821242527
1.0893640978595285 -1.5120543397123243
1.0894687763016533 -1.2111605091394027
1.0895103514306452 -0.9102745141321752
1.0895634351110093 -0.6094135664018785
1.0896241447197434 -0.30872873599532813
1.090438223434144 -0.006291342878242114
0.5312870347135731 -0.006668901891313652
0.5318239182639094 -0.3087027056730894
0.5318752637457642 -0.6094272179381858
0.5319383123149595 -0.9102830605034917
0.5319843769405487 -1.2111708769021727
0.5320683957510456 -1.512081590266784
0.5323369556288728 -1.812935949960938
0.5331578202444953 -2.1133527595698527
0.5350639588830031 -2.4124212826955196
0.5385967970563834 -2.7085974868160165
0.544204185440908 -2.999666083086686
0.5522162049452285 -3.2827956316084554
0.5629035492360208 -3.5546413511779
0.5765224834311973 -3.8114653495381443
0.5933374136899916 -4.049181643139759
0.6136111786954653 -4.263403000780055
0.6375681129194839 -4.449534446060231
0.665384766611476 -4.602939596905197
0.6972428239709345 -4.719171023465336
0.7332396351526296 -4.794163879670597
0.7731208858174216 -4.824661840535152
0.813002136482211 -4.794163879670425
0.8489989476638968 -4.719171023464989
0.8808570050233424 -4.602939596904698
0.9086736587153189 -4.449534446059616
0.9326305929393203 -4.263403000779353
0.9529043579447758 -4.049181643138996
0.9697192882035527 -3.81146534953734
0.9833382223987144 -3.554641351177082
0.9940255666894918 -3.2827956316076485
1.0020375861937978 -2.9996660830859136
1.007644974578311 -2.708597486815298
1.0111778127516824 -2.412421282694865
1.0130839513901844 -2.1133527595692714
1.013904816005803 -1.8129359499604338
1.0141733758836293 -1.5120815902663634
1.014257394694126 -1.2111708769018326
1.014303459319715 -0.9102830605032337
1.0143665078889104 -0.6094272179380076
1.0144178533707653 -0.308702705672991
1.0149547369210994 -0.006668901891301201
0.6067153610358017 -0.006936786317694649
0.6070445181165587 -0.308664037143338
0.6070834691873467 -0.6094396946216091
0.607147334032108 -0.9102920974747527
0.607191475862761 -1.2111807778199384
0.6072568284042577 -1.512100677529367
0.6074200463269909 -1.8129934374506291
0.6078947183537288 -2.1135341937096435
0.6090505651369799 -2.4128564836243984
0.611285092060374 -2.7094090752068785
0.6149172259017478 -3.0009404921764244
0.6201702091700426 -3.2845945194554997
0.6272159537373222 -3.5570181280554247
0.6362205566766784 -3.8144754727252597
0.6473720158964288 -4.052885038769629
0.6608898041067107 -4.267860219346187
0.6770065678622122 -4.454796810331574
0.6959324551051601 -4.609053446875838
0.717939894186342 -4.726204041008679
0.7435280900919429 -4.802173843269962
0.7731208858174028 -4.833599892405074
0.8027136815428608 -4.802173843269788
0.8283018774484554 -4.726204041008331
0.8503093165296288 -4.609053446875337
0.8692352037725651 -4.454796810330954
0.8853519675280548 -4.267860219345482
0.8988697557383241 -4.052885038768861
0.9100212149580638 -3.8144754727244536
0.9190258178974109 -3.557018128054603
0.9260715624646808 -3.28459451945469
0.931324545732967 -3.00094049217565
0.9349566795743331 -2.7094090752061577
0.9371912064977217 -2.4128564836237425
0.938347053280969 -2.1135341937090613
0.9388217253077047 -1.8129934374501246
0.9389849432304375 -1.5121006775289467
0.9390502957719338 -1.2111807778195982
0.9390944376025869 -0.9102920974744947
0.9391583024473481 -0.6094396946214307
0.9391972535181359 -0.3086640371432398
0.9395264105988916 -0.0069367863176812705
0.6820944209563199 -0.00711916915200129
0.6822799396886048 -0.30862065393879445
0.6823023971919666 -0.6094490523053995
0.6823588151309922 -0.9103005142402434
0.682396541729361 -1.2111887225782674
0.6824369656776167 -1.512113673643222
0.6825200760173347 -1.8130223090616977
0.6827294848844884 -2.1136156145000773
0.6832434876415278 -2.4130661062782894
0.6842937810906429 -2.709832150183881
0.6860540246347548 -3.0016368260729718
0.6886371951494619 -3.285602966672714
0.6921181080917859 -3.558369861514249
0.696580967388985 -3.8162059841742693
0.7021381558123636 -4.055037380005788
0.7089506804667566 -4.270487726382873
0.7172500511842788 -4.457958751204286
0.7273197449304467 -4.61280783964268
0.7394653144395891 -4.7306439933839615
0.7543134695494231 -4.807486859361093
0.7731208858173834 -4.839951974479705
0.7919283020853425 -4.8074868593609175
0.806776457195174 -4.7306439933836115
0.818922026704311 -4.612807839642177
0.8289917204504722 -4.457958751203663
0.8372910911679885 -4.270487726382165
0.8441036158223756 -4.05503738000502
0.8496608042457499 -3.816205984173461
0.8541236635429459 -3.5583698615134263
0.8576045764852653 -3.2856029666719015
0.8601877469999688 -3.001636826072196
0.8619479905440774 -2.7098321501831597
0.8629982839931902 -2.413066106277632
0.863512286750228 -2.1136156144994946
0.8637216956173809 -1.8130223090611932
0.8638048059570987 -1.5121136736428014
0.8638452299053542 -1.2111887225779272
0.8638829565037229 -0.9103005142399855
0.8639393744427485 -0.609449052305221
0.8639618319461102 -0.3086206539386963
0.8641473506783943 -0.007119169151987248
0.757433760769476 -0.0072374914085770485
0.7575270467991789 -0.3085795953612171
0.7575296266279566 -0.6094537419631445
0.7575729843389255 -0.910307441246997
0.7576006117048925 -1.2111937328284674
0.7576127039513085 -1.512119683727961
0.7576159535185556 -1.8130324141689735
0.7576148218863917 -2.1136371601361463
0.7576126683730483 -2.413115895507494
0.7576113709868102 -2.709935233892466
0.7576105239662974 -3.001816466135178
0.7576067207084207 -3.2858766891210753
0.7575930504147838 -3.558750159603433
0.7575713179801271 -3.8167085841474533
0.7575745686961133 -4.055687300014072
0.7577068142579153 -4.2713280340327815
0.7581901116399656 -4.459056504232972
0.7593978593868524 -4.6142476512066155
0.7617888228937149 -4.732517718644477
0.7658533856691312 -4.810010254542206
0.773120885817363 -4.843583371770197
0.7803883859655955 -4.810010254542031
0.7844529487410116 -4.732517718644127
0.7868439122478722 -4.614247651206112
0.7880516599947582 -4.459056504232349
0.7885349573768097 -4.271328034032072
0.7886672029386124 -4.055687300013302
0.7886704536545999 -3.8167085841466446
0.7886487212199462 -3.55875015960261
0.788635050926311 -3.285876689120264
0.7886312476684366 -3.0018164661344016
0.7886304006479242 -2.709935233891744
0.7886291032616868 -2.413115895506837
0.7886269497483438 -2.1136371601355632
0.7886258181161798 -1.813032414168469
0.788629067683427 -1.5121196837275404
0.7886411599298431 -1.2111937328281275
0.78866878729581 -0.9103074412467391
0.7887121450067787 -0.6094537419629661
0.7887147248355563 -0.308579595361119
0.7888080108652588 -0.007237491408562572
0.8327375852056467 -0.007313835153818143
0.8327769236535388 -0.3085453785370936
0.8327625132389911 -0.6094534000383606
0.8327901086371252 -0.9103122692721195
0.8328053766108722 -1.2111952714320477
0.8327882106156977 -1.5121179876581479
0.8327106810718806 -1.8130249618774632
0.8324982559071973 -2.1136159132416474
0.8319806014391437 -2.413065721039948
0.8309287068109077 -2.7098317965973613
0.8291667468171242 -3.0016359693160104
0.826574202179053 -3.2855988978568123
0.8230655938035891 -3.558360959247153
0.8185620606371066 -3.8161986726950214
0.8130184921881944 -4.05506045378368
0.8064782487929218 -4.270613357955271
0.7991331976037388 -4.458320642495961
0.7913724114357661 -4.613597118303278
0.7837247509379918 -4.732046110071122
0.7769047772782341 -4.809859049635554
0.7731208858173422 -4.844564405823966
0.7693369943564499 -4.809859049635378
0.7625170206966932 -4.7320461100707725
0.7548693601989234 -4.613597118302774
0.7471085740309579 -4.458320642495337
0.7397635228417833 -4.270613357954562
0.7332232794465176 -4.05506045378291
0.7276797109976127 -3.8161986726942145
0.7231761778311384 -3.558360959246331
0.7196675694556827 -3.2855988978560022
0.717075024817619 -3.001635969315236
0.715313064823841 -2.7098317965966396
0.7142611701956084 -2.4130657210392923
0.7137435157275571 -2.1136159132410643
0.7135310905628746 -1.8130249618769587
0.713453561019058 -1.5121179876577273
0.7134363950238836 -1.211195271431708
0.7134516629976305 -0.9103122692718615
0.7134792583957645 -0.6094534000381819
0.7134648479812168 -0.30854537853699565
0.7135041864291087 -0.007313835153803372
0.9080089753209568 -0.007367425228882626
0.9080230055028671 -0.30851874087209
0.9079979805997835 -0.6094492160492215
0.9080104190194004 -0.9103146751278999
0.9080129050617275 -1.2111932339575109
0.907967399119181 -1.5121085223098876
0.9078058383024235 -1.8129979288215552
0.9073287571629781 -2.1135344068891273
0.9061718547272979 -2.4128559112196877
0.9039371312008986 -2.7094084963842713
0.9003024967373895 -3.000938296957649
0.895039767741259 -3.284586044551453
0.8879705768937677 -3.5570006706227786
0.8789355483514358 -3.81446246485691
0.8678108359117271 -4.052934953256167
0.8545706014785968 -4.268116375399781
0.8393709858241748 -4.455517683099626
0.8225986381375967 -4.610604636434164
0.8049093823943562 -4.729025814542484
0.7875357062102193 -4.8071581060048665
0.7731208858173223 -4.843074321077303
0.758706065424426 -4.807158106004692
0.7413323892402921 -4.729025814542134
0.7236431334970603 -4.610604636433662
0.7068707858104948 -4.455517683099006
0.6916711701560876 -4.268116375399075
0.6784309357229704 -4.052934953255399
0.6673062232832754 -3.8144624648561054
0.6582711947409574 -3.5570006706219592
0.6512020038934797 -3.2845860445506454
0.6459392748973618 -3.0009382969568765
0.6423046404338633 -2.7094084963835514
0.6400699169074705 -2.412855911219032
0.6389130144717944 -2.113534406888545
0.6384359333323515 -1.812997928821051
0.638274372515595 -1.5121085223094672
0.6382288665730486 -1.2111932339571712
0.6382313526153757 -0.910314675127642
0.6382437910349925 -0.609449216049043
0.6382187661319089 -0.30851874087199227
0.638232796313819 -0.007367425228867719
0.9832592816981366 -0.007406929626218355
0.98326345332586 -0.30849886902509016
0.9832340211993673 -0.6094429238228366
0.9832338759569312 -0.9103147581593128
0.9832245596971142 -1.2111879157263832
0.9831524770085946 -1.5120912698388178
0.9828823096954097 -1.8129410357129436
0.9820617127159688 -2.1133533882041755
0.98015787488624 -2.412421085294869
0.9766249407304938 -2.7085965675982298
0.9710139415609497 -2.9996623215335014
0.9629940083732677 -3.282783594599502
0.9522943949043242 -3.554618302682334
0.9386674766578801 -3.811451097531509
0.9218990240479944 -4.049260624159862
0.9018782475272152 -4.2637805658772825
0.878699286287785 -4.450579373458338
0.8527804962831612 -4.605198805132013
0.8250508340735964 -4.723409504937709
0.7972643473345259 -4.801818021229255
0.7731208858173032 -4.839197930274749
0.7489774243000819 -4.8018180212290815
0.721190937561017 -4.7234095049373614
0.6934612753514644 -4.605198805131516
0.6675424853468583 -4.450579373457723
0.6443635241074482 -4.263780565876583
0.6243427475866885 -4.049260624159098
0.6075742949768231 -3.8114510975307074
0.5939473767303985 -3.554618302681519
0.5832477632614739 -3.2827835945986976
0.5752278300738093 -2.9996623215327323
0.5696168309042805 -2.7085965675975125
0.5660838967485444 -2.412421085294215
0.5641800589188225 -2.1133533882035946
0.563359461939385 -1.8129410357124394
0.5630892946262014 -1.5120912698383977
0.5630172119376821 -1.211187915726043
0.5630078956778651 -0.9103147581590549
0.5630077504354289 -0.6094429238226581
0.5629783183089362 -0.30849886902499235
0.5629824899366598 -0.0074069296262033206
1.0584992321292648 -0.0074355483026643495
1.0584988116131262 -0.30848466384220424
1.0584688942236555 -0.6094359264364417
1.0584594870852821 -0.9103130334341197
1.0584407956088968 -1.2111799756053276
1.058338854441164 -1.512063702078133
1.0579201685946953 -1.812836647082725
1.0566796940250989 -2.113037083701985
1.0539384467414308 -2.4117205515317104
1.0490179667115196 -2.70736011707337
1.0413581399731155 -2.9977780727121273
1.030523233776559 -3.280165745036568
1.0161443363470453 -3.551190680125052
0.9978816389234846 -3.8071421420846536
0.9754261876095752 -4.044012815430007
0.9485671674376629 -4.257573683734067
0.9173308223647902 -4.443466034654912
0.8822130115710507 -4.597355487916171
0.8444821773661866 -4.715204002791586
0.8066129541662131 -4.793944842920867
0.7731208858172846 -4.83304810196062
0.7396288174683581 -4.793944842920695
0.7017595942683932 -4.715204002791243
0.664028760063545 -4.597355487915675
0.6289109492698274 -4.443466034654302
0.5976746041969794 -4.257573683733372
0.5708155840250925 -4.044012815429249
0.5483601327112095 -3.807142142083858
0.5300974352876746 -3.5511906801242428
0.5157185378581852 -3.2801657450357684
0.5048836316616507 -2.997778072711364
0.49722380492326596 -2.7073601170726573
0.4923033248933687 -2.411720551531059
0.4895620776097104 -2.1130370837014048
0.4883216030401186 -1.8128366470822217
0.4879029171936522 -1.5120637020777128
0.4878009760259199 -1.2111799756049875
0.48778228454953454 -0.9103130334338616
0.4877728774111612 -0.6094359264362631
0.4877429600216906 -0.30848466384210654
0.4877425395055518 -0.0074355483026491715
1.133734145863686 -0.007455578398072171
1.1337309386308614 -0.3084747801739916
1.133702009145072 -0.6094291746644759
1.133686585614592 -0.9103102968625325
1.1336618514554102 -1.2111700922887427
1.1335177366039833 -1.5120201527503245
1.132902915552851 -1.8126642144677239
1.1311742208981945 -2.112556262091384
1.1275210611749107 -2.4107266873816355
1.1211529806774057 -2.705677442044754
1.1114046301750753 -2.9952688542105568
1.0977211719186273 -3.2767173702846657
1.0796304302203366 -3.546703706272214
1.0567043538644363 -3.8015228207709235
1.028543031353655 -4.037178857097446
0.9948327381616768 -4.249481082558346
0.9555430851802651 -4.434165394343935
0.9112612962400779 -4.587074279667927
0.8636540996840271 -4.704448770453159
0.8158931741764825 -4.783604186135664
0.773120885817266 -4.824637559499082
0.7303485974580526 -4.783604186135492
0.6825876719505198 -4.704448770452819
0.6349804753944885 -4.587074279667438
0.5906986864543273 -4.434165394343332
0.5514090334729455 -4.249481082557657
0.5176987402809987 -4.037178857096697
0.48953741777024895 -3.801522820770135
0.46661134141437965 -3.546703706271412
0.44852059971611924 -3.276717370283873
0.434837141459698 -2.9952688542097983
0.4250887909573907 -2.705677442044045
0.4187207104599031 -2.410726687380987
0.41506755073663143 -2.1125562620908056
0.4133388560819821 -1.8126642144672211
0.41272403503085303 -1.5120201527499046
0.4125799201794267 -1.2111700922884028
0.4125551860202452 -0.9103102968622745
0.4125397624897649 -0.6094291746642972
0.4125108330039755 -0.30847478017389385
0.412507625771151 -0.007455578398056928
1.2089671373350417 -0.007468824422782662
1.2089616213841148 -0.3084679886485751
1.2089335228841394 -0.6094231233663299
1.2089140679344463 -0.9103074402319001
1.2088839029985294 -1.211157681858205
1.2086766495438777 -1.5119515160097299
1.207818296187693 -1.8124036400029921
1.2055402072911852 -2.111887566544893
1.200921944222921 -2.40942174958765
1.1930800322883337 -2.7035370053394674
1.1812226751410024 -2.992125308971545
1.1646752511536047 -3.2724299033612465
1.1428589884196256 -3.541148949948235
1.1152563781516631 -3.794586190897304
1.0813902547471104 -4.028756134954236
1.0408741789388738 -4.239507727308985
0.9936208572482479 -4.4226897176433315
0.9402962813483264 -4.574377044253543
0.8829257906851137 -4.691173840980034
0.825308011805292 -4.770809407969087
0.7731208858172477 -4.8139191403715325
0.7209337598292078 -4.770809407968917
0.6633159809494005 -4.691173840979699
0.6059454902862108 -4.574377044253061
0.5526209143863194 -4.422689717642736
0.505367592695729 -4.239507727308306
0.46485151688753 -4.028756134953494
0.43098539348301323 -3.794586190896524
0.40338278321508786 -3.5411489499474413
0.38156652048114365 -3.272429903360461
0.3650190964937779 -2.9921253089707935
0.3531617393464733 -2.703537005338765
0.34531982741190675 -2.409421749587005
0.34070156434365756 -2.1118875665443175
0.33842347544715884 -1.8124036400024908
0.33756512209097844 -1.5119515160093104
0.3373578686363276 -1.2111576818578653
0.3373277037004109 -0.9103074402316422
0.3373082487507181 -0.6094231233661512
0.3372801502507424 -0.30846798864847735
0.3372746342998157 -0.007468824422767396
1.2842002772875647 -0.007476764105814692
1.284192430743829 -0.3084632674037627
1.2841637964491597 -0.6094178067073581
1.2841406258457841 -0.9103051394517022
1.2841024014640106 -1.211141111163736
1.2838039316131211 -1.5118466074881831
1.2826537186848197 -1.8120352883324438
1.2797746268831027 -2.1110143059613717
1.2741732050740633 -2.4077974094543158
1.2648471404626767 -2.7009332697254456
1.2508796764232153 -2.988343506248121
1.2314726220356909 -3.2673002056851344
1.2059341065323117 -3.5345228091183802
1.1736571612898046 -3.7863297275460583
1.1341094195879005 -4.018750991801726
1.086871336976967 -4.227676508423281
1.0318339945971664 -4.409076920860578
0.9696743060783023 -4.559298957963444
0.9026254232416346 -4.675386731232962
0.8350342793434976 -4.755531489813557
0.7731208858172296 -4.800796433963683
0.7112074922909668 -4.755531489813391
0.6436163483928469 -4.6753867312326305
0.5765674655562057 -4.559298957962969
0.5144077770373767 -4.409076920859991
0.4593704346576162 -4.227676508422611
0.41213235204672605 -4.018750991800995
0.37258461034486384 -3.7863297275452883
0.3403076651023986 -3.534522809117597
0.31476914959905977 -3.2673002056843585
0.29536209521157203 -2.988343506247377
0.28139463117214136 -2.700933269724749
0.27206856656077866 -2.407797409453676
0.26646714475175676 -2.111014305960799
0.26358805295005056 -1.8120352883319444
0.2624378400217547 -1.5118466074877643
0.26213937017086697 -1.2111411111633965
0.26210114578909344 -0.9103051394514442
0.2620779751857178 -0.6094178067071796
0.2620493408910484 -0.30846326740366486
0.2620414943473129 -0.007476764105799434
1.3594351076040085 -0.007480675932440275
1.3594247361329317 -0.30845978971506915
1.359393425118378 -0.6094129160449117
1.3593652456853222 -0.9103038669807225
1.3593099796279826 -1.2111165309369087
1.3588873658463239 -1.5116919021264257
1.35739752544651 -1.8115429994164678
1.3538970614977264 -2.1099289148950224
1.3473045131481063 -2.405850240031282
1.3365020327010453 -2.6978655603181343
1.320442341134893 -2.9839248259723923
1.2981980499840318 -3.261330174039653
1.2689616735668852 -3.52682681505196
1.232033685727986 -3.7767555838254934
1.1868362973813262 -4.00717391873568
1.1329782310272316 -4.214022917802126
1.070400707702326 -4.393392041494444
0.999735160838235 -4.541892106302447
0.9231032822813677 -4.6570740147191065
0.845283988048906 -4.737701736300891
0.7731208858172114 -4.785115210014819
0.7009577835855221 -4.737701736300728
0.6231384893530806 -4.657074014718781
0.546506610796244 -4.541892106301981
0.47584106393219255 -4.3933920414938665
0.41326354060733295 -4.214022917801467
0.3594054742532865 -4.007173918734959
0.31420808590667443 -3.776755583824735
0.277280098067823 -3.526826815051187
0.24804372165072155 -3.261330174038887
0.22579943049990128 -2.983924825971658
0.20973973893378323 -2.697865560317445
0.19893725848674934 -2.405850240030648
0.1923447101371495 -2.1099289148944536
0.1888442461883783 -1.8115429994159702
0.18735440578857146 -1.511691902126008
0.18693179200691507 -1.2111165309365695
0.18687652594957543 -0.9103038669804645
0.18684834651651985 -0.609412916044733
0.18681703550196582 -0.30845978971497146
0.18680666403088933 -0.007480675932425012
1.434672874901953 -0.007481758405002892
1.4346597621858288 -0.3084568656122011
1.434623325134393 -0.6094079949948815
1.434586251868215 -0.9103029921013597
1.43449648147158 -1.2110779973150416
1.4339134122631965 -1.511472247141925
1.4320532523896952 -1.8109169634982774
1.4279206819561285 -2.10862810461431
1.4203459449425189 -2.4035809943202664
1.4080929530148505 -2.6943382816862793
1.3899777721367716 -2.978875405007963
1.3649383845115546 -3.254526805953864
1.332046703290412 -3.5180678873816964
1.2905124274484652 -3.7658712318663445
1.2397251634470348 -3.994039095041228
1.1793415514851084 -4.198582342525665
1.1094314602816115 -4.375713099759826
1.0307063904834486 -4.522257122341005
0.9448954808060632 -4.636223338518287
0.8563765816430808 -4.717194922582218
0.773120885817193 -4.766634910516597
0.6898651899913114 -4.717194922582058
0.601346290828351 -4.636223338517969
0.5155353811510008 -4.522257122340547
0.4368103113528827 -4.375713099759262
0.36690022014943796 -4.198582342525018
0.3065166081875649 -3.9940390950405202
0.2557293441861878 -3.7658712318655985
0.2141950683442942 -3.518067887380936
0.18130338712320201 -3.25452680595311
0.15626399949803044 -2.978875405007239
0.13814881861998923 -2.6943382816855985
0.12589582669235086 -2.403580994319639
0.11832108967876336 -2.108628104613745
0.11418851924521141 -1.8109169634977826
0.1123283593717182 -1.5114722471415087
0.1117452901633376 -1.2110779973147026
0.1116555197667029 -0.9103029921011015
0.11161844650052499 -0.6094079949947029
0.11158200944908928 -0.30845686561210345
0.11156889673296498 -0.007481758404987607
1.5099147197230305 -0.007481205301921106
1.5098985164444738 -0.3084539200000243
1.5098550038794312 -0.6094025716546031
1.5098004405152492 -0.9102998496061843
1.5096498666111111 -1.2110158419151464
1.5088747750208367 -1.5111770240956375
1.5066269047618874 -1.8101517363932973
1.501860592761653 -2.107111704356108
1.4933274711791944 -2.400995216104045
1.4796684596066776 -2.690360767683839
1.4595550956023422 -2.9732065038088447
1.4317799013243937 -3.2469014696295506
1.395294172079481 -3.5082582613836837
1.3492292905111387 -3.7536921385975215
1.2929391254440648 -3.9793648878186443
1.2261216260885954 -4.181382396968262
1.1489993591566294 -4.356095191826116
1.0625118913802212 -4.5005394215637935
0.9684462861201115 -4.6129568078915
0.8695506985608343 -4.693840852291549
0.7731208858171739 -4.744820578505303
0.6766910730735204 -4.693840852291393
0.5777954855142674 -4.612956807891188
0.48372988025419755 -4.500539421563348
0.39724241247784103 -4.356095191825565
0.32012014554593293 -4.18138239696763
0.25330264619052223 -3.979364887817951
0.19701248112350717 -3.753692138596789
0.15094759955522372 -3.5082582613829367
0.11446187031036642 -3.246901469628809
0.0866866760324676 -2.9732065038081315
0.06657331202817332 -2.6903607676831665
0.05291430045568913 -2.4009952161034236
0.04438117887325511 -2.1071117043555474
0.03961486687303743 -1.8101517363928057
0.037366996614096995 -1.5111770240952225
0.0365919050238263 -1.2110158419148076
0.036441331119689134 -0.910299849605926
0.036386767755507206 -0.6094025716544246
0.03634325519046474 -0.3084539199999266
0.03632705191190802 -0.007481205301905818
SCALARS Stress float 6
LOOKUP_TABLE default
-1232.511132675682 -241.04524577401952 -1039.1889627871133 6.006576891136643 0.0 0.0
480.0871828510267 290.503250030489 627.9390230308198 54.37189002271451 0.0 0.0
131.1553858140552 244.4297376888632 141.5754568871601 -13.455729213684855 0.0 0.0
-24.872253073578495 0.30801546863425233 2.894112568159097 4.6756824420481085 0.0 0.0
34.73260831856781 83.41125397090866 97.10893676185765 14.682728219374734 0.0 0.0
51.921552756812574 136.30937843352896 203.3853904794177 12.849871888426142 0.0 0.0
67.22128798410205 195.4874047341931 294.3145813697626 12.03367721604733 0.0 0.0
87.98660829718057 266.73659749836213 377.2170444511349 10.676208819818363 0.0 0.0
125.17795462467895 350.7033089896293 469.22659962909916 8.606230431234277 0.0 0.0
188.49636473995525 455.11162438672727 583.2042384085975 6.0710566043082395 0.0 0.0
283.59197689895984 586.2351577590777 725.9094847141617 3.5264071101261276 0.0 0.0
408.71558346196207 744.3321736223893 896.9516010867594 1.4064692997986796 0.0 0.0
556.0625317421873 922.6586131110339 1089.1828523212098 -0.20421093240726051 0.0 0.0
715.4079207896777 1113.621446699391 1293.8673341693434 -1.6054235329291853 0.0 0.0
873.442319067232 1307.5843741902693 1499.8196709800557 -2.635905903209933 0.0 0.0
1014.0210720855152 1493.2728982815925 1693.8141172919707 -3.04255389429985 0.0 0.0
1120.4556969566538 1659.0221128367941 1862.12684004326 -2.651435506083656 0.0 0.0
1180.588838752417 1794.227446349641 1992.9982590396512 -1.927843290411289 0.0 0.0
1206.9493656984394 1902.7280626971365 2091.7386195578365 -2.862486095084879 0.0 0.0
1210.9419763789558 1971.9042560300068 2151.757672090791 -13.446016872764925 0.0 0.0
1166.5088289937635 1956.8033662158682 2131.1939190249655 3.397992998088739e-11 0.0 0.0
1210.9419763776382 1971.9042560309272 2151.757672090326 13.446016872784877 0.0 0.0
1206.949365698184 1902.7280626971728 2091.738619557594 2.86248609492624 0.0 0.0
1180.5888387533241 1794.2274463510253 1992.998259039815 1.927843290333005 0.0 0.0
1120.455696956754 1659.0221128359658 1862.1268400426159 2.6514355065107944 0.0 0.0
1014.0210720837256 1493.2728982821063 1693.8141172908938 3.0425538939078303 0.0 0.0
873.4423190671338 1307.5843741894491 1499.8196709794076 2.6359059032063454 0.0 0.0
715.40792078662 1113.6214466945921 1293.8673341664112 1.605423532978664 0.0 0.0
556.0625317419943 922.6586131111077 1089.1828523206796 0.20421093252815936 0.0 0.0
408.7155834619371 744.3321736217972 896.9516010861488 -1.4064693001343 0.0 0.0
283.5919768989414 586.2351577588877 725.909484713651 -3.5264071101424657 0.0 0.0
188.49636473890484 455.11162438622705 583.2042384077101 -6.071056604287185 0.0 0.0
125.17795462464308 350.7033089904637 469.2265996290156 -8.60623043141011 0.0 0.0
87.98660829765524 266.73659749875173 377.21704445103063 -10.676208820040548 0.0 0.0
67.22128798451402 195.4874047349258 294.31458136975226 -12.033677215890181 0.0 0.0
51.921552756286445 136.30937843278167 203.38539047867704 -12.849871888360525 0.0 0.0
34.732608318070675 83.41125397041345 97.10893676134815 -14.682728219247597 0.0 0.0
-24.87225307342475 0.3080154686341521 2.8941125681321704 -4.675682442437137 0.0 0.0
131.15538581365112 244.42973768864675 141.5754568868531 13.455729213516356 0.0 0.0
480.08718285083796 290.5032500305885 627.9390230306274 -54.37189002239299 0.0 0.0
-1232.511132674427 -241.04524577248287 -1039.1889627855642 -6.006576891060231 0.0 0.0
-1366.5187727168823 -526.230364589632 -1311.5399096491633 -9.04962430354125 0.0 0.0
396.79845955119004 78.33858181819537 393.8982145328514 30.615289488994932 0.0 0.0
91.10821635846476 130.10536127163863 66.38321161516768 -17.469323634751806 0.0 0.0
-29.529926851504936 -7.521323226100702 -6.3924881133324645 2.3088944378068583 0.0 0.0
24.783919358636076 41.951366322901805 61.986549219833535 7.728908383378373 0.0 0.0
23.490955946979724 58.86058849925132 136.3351668149529 4.57131451479718 0.0 0.0
2.416938569743426 74.95989894816736 188.19298687745027 4.744912561646252 0.0 0.0
-24.750686731076527 86.104399301295 213.84904687895954 4.388962941341507 0.0 0.0
-58.04720437295967 89.04888031961558 226.2929565177306 2.63652200445443 0.0 0.0
-94.84166229688131 84.67606556469357 232.57724793019838 0.3079745598217931 0.0 0.0
-131.47171821027206 76.59905900961672 236.9173553544989 -1.743334473206236 0.0 0.0
-165.9402246604592 67.57248029322426 241.8340868662043 -3.2687805218020753 0.0 0.0
-199.7209767436678 58.617609630912035 247.1781053549135 -4.290865915258338 0.0 0.0
-236.9579248373198 46.58668184794674 249.39727905978566 -4.887286339297445 0.0 0.0
-284.9100765592786 27.90731952430398 243.2735225897908 -4.78054790488741 0.0 0.0
-350.26006774459205 -0.09589342016819913 224.37423646885162 -3.4243421350017877 0.0 0.0
-437.2477975983732 -37.77896984137142 190.47492419014623 -0.6771149174249578 0.0 0.0
-543.777768720707 -82.11726369989093 143.42383058515054 2.0129928242806554 0.0 0.0
-668.9842273644674 -139.02972318795298 78.36654225880835 0.15531902462749336 0.0 0.0
-847.9463010094065 -261.6557048283247 -52.688681490441596 -14.966660768716492 0.0 0.0
-1034.3164367481252 -420.5627585106112 -216.94949833210825 -6.747580272303821e-11 0.0 0.0
-847.9463010095819 -261.65570482710405 -52.688681490243795 14.966660768976322 0.0 0.0
-668.9842273639314 -139.02972318720026 78.3665422594431 -0.15531902462817637 0.0 0.0
-543.7777687200972 -82.11726369889652 143.42383058553764 -2.0129928245182187 0.0 0.0
-437.24779759736066 -37.77896984088363 190.47492419070642 0.6771149178038884 0.0 0.0
-350.2600677455972 -0.09589342066286122 224.3742364681275 3.4243421349009715 0.0 0.0
-284.9100765573505 27.907319528082013 243.27352259149743 4.780547904653844 0.0 0.0
-236.9579248376299 46.5866818471182 249.3972790593379 4.887286339310391 0.0 0.0
-199.72097674278763 58.61760963243128 247.17810535564516 4.290865915428292 0.0 0.0
-165.94022466006493 67.57248029329429 241.8340868663421 3.2687805215179497 0.0 0.0
-131.47171821023392 76.59905900887715 236.9173553542477 1.7433344732830238 0.0 0.0
-94.8416622965495 84.67606556579287 232.57724793051898 -0.30797455999575796 0.0 0.0
-58.047204372774274 89.04888032095593 226.29295651802883 -2.6365220045980435 0.0 0.0
-24.750686730287768 86.10439930258758 213.84904687944507 -4.388962941424893 0.0 0.0
2.416938570168533 74.95989894896908 188.19298687761707 -4.744912561594649 0.0 0.0
23.49095594718277 58.86058849964283 136.33516681483425 -4.571314514771319 0.0 0.0
24.783919357851087 41.951366322040585 61.98654921918595 -7.72890838342062 0.0 0.0
-29.5299268516361 -7.521323226272929 -6.3924881134455855 -2.308894437875104 0.0 0.0
91.10821635850098 130.10536127179657 66.38321161523123 17.469323634697012 0.0 0.0
396.79845955083636 78.33858181812482 393.89821453239375 -30.615289488892202 0.0 0.0
-1366.518772715674 -526.2303645896502 -1311.5399096478795 9.049624303477033 0.0 0.0
-1067.3292110206737 -492.8860926449448 -1085.7523032816944 65.99097041381924 0.0 0.0
435.858393090681 140.8171927598631 362.3229712102248 7.785723994623247 0.0 0.0
43.22916738842512 78.45605554530454 36.575754952229275 -29.349607188231364 0.0 0.0
-13.202872052442114 1.01211997161777 -2.9299917901142782 3.4179546645096255 0.0 0.0
40.01602877203811 26.98054107782261 45.517141169440016 10.270394979719242 0.0 0.0
63.373372494819954 53.820944235592975 126.77834882226199 12.938443119976071 0.0 0.0
56.82568326712162 70.40321674404957 190.74831789443937 13.65386677606779 0.0 0.0
41.75280940813363 78.82281719426193 221.87611136189042 12.66796745449355 0.0 0.0
17.54092650019826 79.4572447511596 235.48644574021472 9.458275220977434 0.0 0.0
-10.928981017085299 73.6164621252104 242.23772418561023 5.890945993424982 0.0 0.0
-38.72265677665334 66.08461446776491 248.2809505819943 3.123085784438693 0.0 0.0
-64.36818961177217 58.9500740116198 255.60944866002447 1.2271327156962621 0.0 0.0
-89.38190507945673 51.173776340348645 262.9927369648131 -0.08975776484143116 0.0 0.0
-118.306091478349 41.22251156156347 267.44693743954565 -0.6835322595054678 0.0 0.0
-155.69809326911664 25.838373868239852 265.20496012363276 -0.01954837814616095 0.0 0.0
-207.4378898689827 2.6575501592602055 252.30942573584466 2.6967091443627673 0.0 0.0
-277.6590394058535 -29.375767955603646 226.13869950453847 7.480680706036727 0.0 0.0
-370.2887139846526 -72.71054259923318 182.77672434007147 11.413027129025574 0.0 0.0
-493.2832675162602 -138.97767025727117 110.14620321817588 7.018927335527824 0.0 0.0
-614.6187844303952 -210.5983050860144 28.88059909796992 -14.71376130426592 0.0 0.0
-814.6109095906711 -384.5857208712706 -151.49082621277648 1.5289991495137656e-11 0.0 0.0
-614.6187844290756 -210.5983050847862 28.880599098807863 14.713761304400876 0.0 0.0
-493.28326751511497 -138.97767025838556 110.14620321857706 -7.018927335561104 0.0 0.0
-370.2887139837455 -72.71054259818439 182.77672434086 -11.41302712894977 0.0 0.0
-277.65903940579244 -29.375767955032074 226.13869950460966 -7.480680705910005 0.0 0.0
-207.43788986743326 2.657550159579529 252.3094257364373 -2.696709144118816 0.0 0.0
-155.6980932683149 25.838373869030477 265.20496012396757 0.019548378064065286 0.0 0.0
-118.30609147723413 41.22251156247532 267.4469374401617 0.6835322591569897 0.0 0.0
-89.38190507931475 51.17377634069658 262.992736964854 0.08975776493868759 0.0 0.0
-64.36818961173682 58.950074011809136 255.60944866002234 -1.227132715754999 0.0 0.0
-38.722656777319074 66.08461446712434 248.2809505815438 -3.1230857842598643 0.0 0.0
-10.92898101632106 73.61646212622207 242.23772418608078 -5.890945993483444 0.0 0.0
17.540926499714047 79.45724475098322 235.48644573980627 -9.458275220865628 0.0 0.0
41.752809408394164 78.8228171950064 221.87611136207985 -12.667967454518017 0.0 0.0
56.82568326681724 70.40321674389664 190.7483178940963 -13.653866776207947 0.0 0.0
63.373372494992864 53.82094423602406 126.77834882214907 -12.938443120085234 0.0 0.0
40.01602877166204 26.980541077250436 45.51714116899096 -10.270394979863815 0.0 0.0
-13.202872052249429 1.0121199718534395 -2.929991789992483 -3.4179546643232186 0.0 0.0
43.229167388302294 78.45605554495361 36.575754952082924 29.349607188369653 0.0 0.0
435.8583930899545 140.8171927594803 362.32297120953234 -7.785723994487206 0.0 0.0
-1067.3292110191126 -492.8860926442613 -1085.7523032801037 -65.99097041388927 0.0 0.0
-842.8652571803873 -446.39856149521046 -890.6514324300475 89.292302265768 0.0 0.0
389.8680034665947 182.22617081070146 308.75880838106417 -6.9729129740584685 0.0 0.0
27.387456850369993 28.285582978314345 16.7019119486053 -21.932218891606446 0.0 0.0
-1.8852280415475267 3.35825365529797 0.09696812880798916 -2.14060814729333 0.0 0.0
50.16742033222733 13.596910969019468 31.12541096456074 9.79189173935913 0.0 0.0
91.42356969361337 45.35986786252324 110.36056629084064 16.806363977032703 0.0 0.0
108.15247683019534 64.1326554407982 187.8373791910133 17.936709202165346 0.0 0.0
103.50979953870579 71.67618345304646 226.68763068620456 17.467341204282814 0.0 0.0
88.9516916961795 70.291358627411 242.57436266688137 13.609211905260455 0.0 0.0
69.04213368276626 63.352442219334286 250.2311721492158 9.450555853903763 0.0 0.0
49.616997640477 56.00467657856942 257.5722562107511 6.349786174503842 0.0 0.0
32.781581629716754 49.95814348232609 266.8972406757238 4.196836745194442 0.0 0.0
16.13428356891477 44.26737368502894 276.5771761730601 2.8020894424595104 0.0 0.0
-3.9521676930037586 35.538300529131085 283.0847383214213 2.2991022194428448 0.0 0.0
-30.993808783266154 23.172740292396533 284.4684788486278 3.4752253208739443 0.0 0.0
-68.62960624191055 5.26361098372324 278.07541472597086 7.118266933643923 0.0 0.0
-123.1633015543785 -22.099518419306836 258.7019209403633 12.857430310277813 0.0 0.0
-202.19179701393995 -63.29885578114467 219.56852579651627 17.037469128367697 0.0 0.0
-301.7304849491798 -114.99359842111443 161.83724978995744 11.426207869357494 0.0 0.0
-389.2114670932122 -157.1397330234115 108.18489597984325 -13.289899947546305 0.0 0.0
-652.8898867981875 -394.9707785004182 -136.9727765982562 -2.7387203616058287e-11 0.0 0.0
-389.2114670918231 -157.13973302059458 108.18489598089934 13.289899947592382 0.0 0.0
-301.730484950427 -114.99359842396765 161.8372497887204 -11.426207869455189 0.0 0.0
-202.1917970132551 -63.298855780514 219.5685257970435 -17.037469128160698 0.0 0.0
-123.16330155443276 -22.0995184184506 258.70192094032774 -12.85743031024009 0.0 0.0
-68.62960623847314 5.263610988744574 278.0754147286133 -7.118266933967089 0.0 0.0
-30.993808783499617 23.172740290629093 284.4684788480639 -3.4752253209310107 0.0 0.0
-3.9521676932127434 35.538300528646374 283.0847383210688 -2.299102219421267 0.0 0.0
16.134283569029748 44.26737368535595 276.57717617304945 -2.802089442359681 0.0 0.0
32.781581629594285 49.9581434815031 266.89724067543403 -4.196836745177224 0.0 0.0
49.616997639969334 56.00467657775362 257.57225621022013 -6.349786174539086 0.0 0.0
69.04213368324716 63.35244221910193 250.23117214922485 -9.450555853900726 0.0 0.0
88.95169169566707 70.29135862677278 242.57436266640795 -13.609211905369184 0.0 0.0
103.50979953818964 71.67618345126353 226.6876306853983 -17.467341204329976 0.0 0.0
108.15247683016044 64.1326554412198 187.83737919087466 -17.936709202121733 0.0 0.0
91.42356969335533 45.35986786224372 110.3605662904093 -16.80636397725759 0.0 0.0
50.16742033223979 13.596910968934283 31.12541096440508 -9.791891739328793 0.0 0.0
-1.885228041361903 3.3582536554951385 0.09696812892441037 2.140608147268258 0.0 0.0
27.38745685024772 28.28558297793603 16.701911948455127 21.93221889159857 0.0 0.0
389.868003465905 182.22617081035352 308.7588083804316 6.972912974288079 0.0 0.0
-842.8652571789596 -446.3985614944457 -890.6514324285331 -89.29230226582845 0.0 0.0
-669.129363169966 -414.7334465496574 -727.1195475233932 95.79733211114936 0.0 0.0
342.25289843867216 200.88710873102772 258.7673694844804 -14.930529932188822 0.0 0.0
22.880926010315306 0.21215891084572958 6.927925476348309 -14.673698155369845 0.0 0.0
6.8046061909841145 0.6894544528885169 2.195449814492061 -6.6322036939578375 0.0 0.0
52.34026526841208 3.110657767556413 20.240490103937937 4.761385907474515 0.0 0.0
110.19075011387625 31.797863046342943 88.5329354908794 14.67706207300465 0.0 0.0
148.99265108284516 56.19667056218238 176.07286819087918 18.527428106244184 0.0 0.0
159.71417482651012 65.01428156379743 227.54776163774835 18.603973026466722 0.0 0.0
155.68011847992042 61.76875808814856 247.21221756106712 15.19330373403734 0.0 0.0
144.2723976246769 53.509505662011264 255.89202416201277 11.005416499056324 0.0 0.0
133.38075771815264 46.10959996401856 264.52670155368173 7.900181053060492 0.0 0.0
124.81861530954194 41.00149621608417 275.5095311385705 5.7292368784284715 0.0 0.0
116.6853710310009 36.49339567129004 287.0931292991672 4.300507745721866 0.0 0.0
105.3859308889001 30.414646424597514 296.36147737838104 4.0662200506519515 0.0 0.0
88.6783650779442 20.380328302649126 301.03761022191054 5.7395319736468515 0.0 0.0
63.77079901925134 5.833398244964997 299.5060207112728 9.823400874025072 0.0 0.0
25.286277914726355 -15.622082963792614 287.7683560225713 15.750929189167877 0.0 0.0
-33.477571040174226 -47.00443104727745 260.0930642848907 19.93989514112294 0.0 0.0
-109.78790247798544 -82.7413475378408 218.08055670106006 14.063421926181352 0.0 0.0
-176.91732027712624 -106.62379226236594 179.89520536159375 -13.141501389209909 0.0 0.0
-519.8740583317013 -421.81969016584804 -144.46055578697056 -5.018196969075461e-11 0.0 0.0
-176.91732027596368 -106.62379225976224 179.89520536260397 13.141501389472102 0.0 0.0
-109.78790248068529 -82.74134754084992 218.0805566991862 -14.06342192602122 0.0 0.0
-33.47757103880383 -47.00443104414023 260.09306428621693 -19.93989514096999 0.0 0.0
25.28627791548587 -15.622082961995545 287.76835602317954 -15.75092918909133 0.0 0.0
63.770799020604215 5.833398248351784 299.50602071259425 -9.823400874163779 0.0 0.0
88.67836507798458 20.38032830263529 301.0376102217101 -5.739531973444267 0.0 0.0
105.38593088792878 30.414646423550437 296.36147737761627 -4.066220050594362 0.0 0.0
116.68537103214732 36.49339567263664 287.0931292999006 -4.3005077459044765 0.0 0.0
124.81861530963482 41.001496215251606 275.50953113835135 -5.729236878289626 0.0 0.0
133.3807577176321 46.10959996357106 264.52670155323176 -7.900181053014299 0.0 0.0
144.27239762454184 53.50950566031394 255.8920241614902 -11.005416499148577 0.0 0.0
155.68011847998724 61.76875808893776 247.2122175612447 -15.193303734203178 0.0 0.0
159.71417482611577 65.01428156158302 227.5477616368058 -18.603973026320222 0.0 0.0
148.99265108277822 56.196670563002556 176.072868190849 -18.52742810616026 0.0 0.0
110.19075011347122 31.79786304580624 88.5329354903317 -14.677062072997318 0.0 0.0
52.34026526855767 3.1106577682608894 20.240490104156603 -4.761385907369831 0.0 0.0
6.804606190730022 0.6894544521057159 2.1954498141793533 6.632203693927825 0.0 0.0
22.880926010353633 0.212158910903826 6.927925476377236 14.673698155352763 0.0 0.0
342.2528984379977 200.88710873070463 258.7673694839127 14.930529932260024 0.0 0.0
-669.1293631688961 -414.73344654889183 -727.1195475220661 -95.79733211125304 0.0 0.0
-523.2669436260476 -386.33750265762257 -582.5778462525406 93.21743748050167 0.0 0.0
293.40098845785025 206.9514743179356 214.2141967003231 -19.759824088145322 0.0 0.0
22.482981464676435 -13.743912194370981 2.6216321480043168 -7.761032445042001 0.0 0.0
15.971740848693615 -3.7608644693282933 3.665611581548067 -8.917095098508112 0.0 0.0
48.23416889465678 -4.513002434249932 12.925807546717662 -2.993928795087577 0.0 0.0
114.50120606966094 17.53013988009716 65.40801529262596 8.060999550420803 0.0 0.0
174.84594606078926 47.266066913805496 154.9606831455845 14.763247346261528 0.0 0.0
208.7024330832059 56.16943491334235 220.75584749402137 15.59348105437476 0.0 0.0
215.11206805693976 53.437822459062275 247.52877940158504 14.189518015398473 0.0 0.0
214.00211777423553 43.78556889045784 258.5464529916176 10.557633629177078 0.0 0.0
211.47471454744942 36.2543356009577 268.43710090897406 7.798447622173154 0.0 0.0
211.12119188221521 32.066447460907895 281.03687395821385 5.88360113227463 0.0 0.0
211.2053097766697 29.175549092936254 294.5862263812544 4.615491797950487 0.0 0.0
208.55025751188285 24.348224455730765 305.8438082940063 4.559879965085972 0.0 0.0
201.5321595694245 16.656776596076384 313.5256392593657 6.661225032143376 0.0 0.0
188.68672747813218 5.716086870920272 316.6830385021861 11.110699930299056 0.0 0.0
167.21925887793478 -9.240946987689291 313.34288183314 16.790546300379944 0.0 0.0
131.35417858193017 -27.34045367013553 300.28286413922126 20.718577694988227 0.0 0.0
77.91423898790958 -45.92807571376002 274.64251560000343 14.690231327523513 0.0 0.0
25.47162679362485 -55.209046033461064 247.31790674016335 -14.72040132600426 0.0 0.0
-411.4627512270132 -459.9722851638305 -169.5494695744584 1.5465029257200058e-10 0.0 0.0
25.47162679521955 -55.20904603231534 247.31790674123204 14.720401326154654 0.0 0.0
77.91423898746962 -45.928075714296284 274.64251559984393 -14.690231327371485 0.0 0.0
131.3541785852197 -27.340453662938103 300.2828641424917 -20.71857769503695 0.0 0.0
167.2192588788227 -9.240946986968169 313.34288183356466 -16.790546300112766 0.0 0.0
188.68672747694546 5.716086869348061 316.6830385012923 -11.110699930234173 0.0 0.0
201.53215956879052 16.65677659466266 313.5256392586362 -6.661225032036454 0.0 0.0
208.55025751148048 24.34822445464968 305.84380829357826 -4.559879965158673 0.0 0.0
211.205309777235 29.175549093620845 294.58622638169436 -4.61549179808447 0.0 0.0
211.12119188177792 32.066447459727044 281.03687395768645 -5.8836011322474615 0.0 0.0
211.47471454688548 36.25433560172439 268.4371009088895 -7.798447622490619 0.0 0.0
214.00211777469053 43.785568890602356 258.54645299177184 -10.557633629169896 0.0 0.0
215.11206805609143 53.43782245907384 247.52877940121172 -14.189518015435727 0.0 0.0
208.70243308296122 56.16943491309644 220.75584749372823 -15.59348105425912 0.0 0.0
174.84594606063365 47.26606691364879 154.96068314518615 -14.763247346296165 0.0 0.0
114.5012060691314 17.530139879274223 65.40801529204225 -8.060999550432397 0.0 0.0
48.2341688946715 -4.5130024333829075 12.925807546997369 2.9939287949790687 0.0 0.0
15.971740848622186 -3.7608644694838893 3.6656115814754133 8.917095098431785 0.0 0.0
22.482981464628402 -13.743912194453575 2.6216321479652067 7.761032445002859 0.0 0.0
293.40098845728517 206.9514743174227 214.21419669978712 19.759824088061915 0.0 0.0
-523.2669436249356 -386.3375026567852 -582.5778462512602 -93.21743748054716 0.0 0.0
-397.9609542730644 -353.20931733760546 -452.05626724248157 86.2715685688769 0.0 0.0
247.21135388898566 201.08979340232676 174.8783253243164 -25.26650188057258 0.0 0.0
23.12243375170072 -18.99139680772505 1.239463136690944 -1.3995797516538035 0.0 0.0
23.13986166638318 -6.718336329131176 4.922802021916328 -9.083361793089828 0.0 0.0
40.38107729426107 -8.292679706553095 8.949613398222338 -9.462153928309341 0.0 0.0
106.7043265997469 2.0745421835832367 43.130164788590996 -5.040647123422194 0.0 0.0
185.1653426017968 33.13278856194218 123.98910116872585 4.97026617697091 0.0 0.0
241.2756364155666 47.910269649898105 202.5866816146545 9.463342854864322 0.0 0.0
267.8176722141831 42.80355190136139 241.23641996030497 9.196177638461362 0.0 0.0
275.3336922742206 33.97140641853843 256.28122512088225 8.20367968588547 0.0 0.0
282.5844380494291 26.428954630492537 268.4047763421974 6.144971890955346 0.0 0.0
290.23181382138125 22.945296976543897 282.4443849645318 4.733118423329984 0.0 0.0
298.02067207892077 21.283831974342487 297.514156976623 3.803671502651663 0.0 0.0
303.83002173573726 18.521961564706018 311.07806309003644 3.9403291594500898 0.0 0.0
305.8595291942982 12.528913729985412 321.16656353570056 6.230534912917197 0.0 0.0
303.7778346784502 3.153490858046105 327.37138125708975 10.88609311336845 0.0 0.0
298.8651324850797 -3.6922144833166755 333.02820091371456 16.671008614388853 0.0 0.0
288.1327293208725 -6.103594631502688 336.9876142096821 19.978915770773988 0.0 0.0
259.14894625104375 -5.476659946622021 329.7245745733222 13.310722338683748 0.0 0.0
219.61236225375137 0.10673228161587645 312.5103773193464 -18.472386333969816 0.0 0.0
-328.1392953162997 -507.5720626177504 -211.7529726128171 1.3310552660072972e-10 0.0 0.0
219.6123622544129 0.10673228124966272 312.5103773195671 18.472386334006067 0.0 0.0
259.1489462523104 -5.47665994207145 329.72457457509427 -13.310722338724283 0.0 0.0
288.1327293223284 -6.103594628094584 336.9876142112339 -19.97891577104812 0.0 0.0
298.8651324847869 -3.6922144845539435 333.028200913185 -16.671008614571107 0.0 0.0
303.777834677533 3.153490855664245 327.3713812560725 -10.886093113200308 0.0 0.0
305.8595291936535 12.528913730766448 321.1665635357184 -6.230534913119349 0.0 0.0
303.8300217365168 18.521961565371598 311.07806309041337 -3.940329159228814 0.0 0.0
298.0206720782614 21.28383197357718 297.5141569761165 -3.8036715025245167 0.0 0.0
290.2318138199877 22.945296974115905 282.444384963334 -4.733118423380211 0.0 0.0
282.58443804933523 26.42895463096353 268.4047763422061 -6.144971891086245 0.0 0.0
275.33369227462464 33.97140641907669 256.281225121107 -8.20367968581 0.0 0.0
267.8176722133937 42.80355189948982 241.23641995931663 -9.196177638493543 0.0 0.0
241.27563641487313 47.91026964947374 202.58668161414036 -9.463342854995808 0.0 0.0
185.16534260141012 33.13278856159171 123.98910116821538 -4.970266177163123 0.0 0.0
106.70432659919354 2.0745421831326873 43.130164788172074 5.040647123301204 0.0 0.0
40.381077294297825 -8.292679705879632 8.949613398457101 9.462153928122344 0.0 0.0
23.139861666621677 -6.718336328604391 4.922802022144998 9.083361792855952 0.0 0.0
23.122433751478514 -18.991396808205497 1.239463136480107 1.3995797515060087 0.0 0.0
247.2113538884634 201.08979340187057 174.8783253238757 25.266501880490498 0.0 0.0
-397.96095427203915 -353.2093173367984 -452.05626724134913 -86.27156856886255 0.0 0.0
-285.7014892834253 -322.71884399398607 -334.0838274050932 71.39874903632638 0.0 0.0
202.03115377978224 187.49302969111923 139.86609186967294 -28.838165215925226 0.0 0.0
23.403218553219553 -18.651716357690578 1.4242308301207764 4.07420068671461 0.0 0.0
26.579562028771758 -7.9347501600759704 5.592579072678455 -7.656329077844802 0.0 0.0
33.48062039076452 -9.648524828352802 6.798351501926485 -14.16370071770174 0.0 0.0
86.55399976798577 -8.032768359912478 25.99590723817809 -20.101001698435418 0.0 0.0
173.03474956298146 15.77369803814306 86.69354612361269 -10.585255500796011 0.0 0.0
253.62421042783103 34.56611033256738 167.94513214656513 -1.1311377269086842 0.0 0.0
302.64043801305485 33.431526012474045 222.52934299915972 2.2528361352316857 0.0 0.0
326.4694424509852 21.948429861490702 245.77111189198132 2.9022946013890443 0.0 0.0
342.5384970307072 15.689349037017237 261.17014918237936 3.1017272005366148 0.0 0.0
358.47363433644983 13.618304178686078 277.3521521621404 2.536058266137637 0.0 0.0
373.8074379628757 13.125610080149674 293.8542065424257 2.1507923443652683 0.0 0.0
387.0106668652278 11.797945454694798 308.86413285186524 2.4900589744925856 0.0 0.0
398.2893108331195 8.036894691131558 321.70959890028934 4.573542784848383 0.0 0.0
406.32330404348966 1.1312135281555271 331.22736480538725 9.258276235227704 0.0 0.0
414.41329722061613 -2.888757947123011 341.58803034757904 15.499032469507883 0.0 0.0
427.8208915240949 10.80831224833895 362.2511012747521 18.661490669589885 0.0 0.0
429.8907473769959 39.34603560745977 381.1735424345684 10.46063777405038 0.0 0.0
407.11425106519647 64.98113742893699 378.62570649150643 -24.956872598292 0.0 0.0
-274.6010979099509 -562.9277025456242 -272.7450047216937 1.2069367727463032e-10 0.0 0.0
407.11425106478714 64.98113742742535 378.6257064909779 24.956872598501203 0.0 0.0
429.890747377651 39.34603560965124 381.17354243538176 -10.4606377743219 0.0 0.0
427.82089152353893 10.808312246200444 362.2511012741086 -18.66149066958324 0.0 0.0
414.413297220187 -2.888757944578657 341.58803034791845 -15.499032469723668 0.0 0.0
406.3233040421507 1.1312135243662738 331.22736480394366 -9.258276234787528 0.0 0.0
398.28931083362374 8.036894693705577 321.7095989010003 -4.5735427849228785 0.0 0.0
387.0106668645131 11.797945454411519 308.86413285145693 -2.4900589745135178 0.0 0.0
373.80743796273725 13.125610079641035 293.8542065420876 -2.1507923443455357 0.0 0.0
358.47363433576845 13.618304177216245 277.35215216145986 -2.5360582661608655 0.0 0.0
342.53849703090106 15.689349037701447 261.17014918254876 -3.1017272004554375 0.0 0.0
326.46944245060433 21.948429860535782 245.771111891572 -2.902294601485822 0.0 0.0
302.640438012593 33.4315260111935 222.5293429985167 -2.252836135187439 0.0 0.0
253.6242104275206 34.56611033266669 167.94513214629652 1.1311377268720184 0.0 0.0
173.0347495627531 15.773698038060331 86.6935461233217 10.585255500904102 0.0 0.0
86.55399976768685 -8.03276836017592 25.995907237970698 20.10100169845546 0.0 0.0
33.48062039085282 -9.648524827932446 6.798351502087487 14.16370071753445 0.0 0.0
26.579562028732198 -7.934750160032874 5.592579072685023 7.65632907754652 0.0 0.0
23.40321855327801 -18.651716357581677 1.4242308301693807 -4.074200686789749 0.0 0.0
202.03115377917106 187.4930296904699 139.86609186919168 28.83816521586922 0.0 0.0
-285.7014892828204 -322.7188439933423 -334.08382740422394 -71.39874903633826 0.0 0.0
-196.77237956963913 -281.78521619447935 -235.66420500871385 55.31194015126608 0.0 0.0
159.4324939934865 166.18219924556314 109.58223721397572 -30.35349136525802 0.0 0.0
21.990891550098052 -14.546551096173511 2.229688729980443 7.915571042282162 0.0 0.0
26.32141364533709 -7.952026412017825 5.500443021400535 -5.726081053959838 0.0 0.0
27.181296188231872 -8.740484491180478 5.3789806601603525 -16.7304714540639 0.0 0.0
58.86365386226367 -10.80716098613619 14.591606172431641 -31.919107675450434 0.0 0.0
135.14837147162285 -1.634866858537896 49.26996190822191 -32.99364542238598 0.0 0.0
233.81899983845412 13.820615625864713 114.29731521672107 -18.80959910908927 0.0 0.0
309.75313963391886 18.200284738719013 178.97118535593194 -7.260296964829334 0.0 0.0
353.56243051431557 9.732599424361036 216.70952838150015 -2.980192253722925 0.0 0.0
382.36090416482494 4.4077712503029645 239.5720524119579 -0.6906473485789887 0.0 0.0
406.71585477390795 3.1653723710785613 258.48600944292417 -0.2279295581746288 0.0 0.0
429.0205086706678 4.41178131796746 276.7590607853921 0.06859342488941422 0.0 0.0
448.69299936076817 4.454829927786953 292.80442983964286 0.6500256439525307 0.0 0.0
467.9350534350506 3.1128003216497575 307.88962494228446 2.223962350869507 0.0 0.0
487.53531753774695 0.03314530929576165 322.2125087251153 5.978205923654239 0.0 0.0
506.80290045166623 -2.221155687271235 336.31226912904896 12.668534194140712 0.0 0.0
533.7308079684412 16.083603602800196 362.90769730412495 17.72125136521836 0.0 0.0
572.8165785886938 78.31749326221001 413.7129983244307 7.512835114914459 0.0 0.0
587.0662009275698 146.32412802288988 447.28021422334075 -35.328079858920454 0.0 0.0
-260.0125899340784 -620.1497474435326 -354.17786718370473 8.08633160431782e-11 0.0 0.0
587.0662009282171 146.32412802383806 447.2802142238327 35.328079858869856 0.0 0.0
572.8165785883782 78.31749326092287 413.71299832398205 -7.512835114938884 0.0 0.0
533.7308079680449 16.08360360006688 362.90769730332977 -17.721251365050655 0.0 0.0
506.8029004524521 -2.2211556844449376 336.3122691298058 -12.668534194291574 0.0 0.0
487.53531753566955 0.03314530568972884 322.21250872330455 -5.9782059235764295 0.0 0.0
467.93505343472305 3.1128003202908445 307.88962494183386 -2.223962350825059 0.0 0.0
448.69299935997134 4.4548299276134316 292.8044298391409 -0.6500256441645007 0.0 0.0
429.0205086711003 4.411781318366664 276.7590607855859 -0.06859342463079177 0.0 0.0
406.71585477491766 3.165372372504237 258.48600944363113 0.22792955800834136 0.0 0.0
382.36090416444887 4.407771250067775 239.57205241168845 0.6906473487084321 0.0 0.0
353.562430513753 9.732599423174335 216.7095283808781 2.980192253705214 0.0 0.0
309.7531396339658 18.200284738982212 178.97118535579884 7.260296964917425 0.0 0.0
233.8189998383169 13.820615627002876 114.2973152168917 18.809599109056702 0.0 0.0
135.14837147104834 -1.63486685886756 49.269961907877 32.99364542235836 0.0 0.0
58.863653861926196 -10.807160986348292 14.591606172275247 31.919107675461092 0.0 0.0
27.181296188075326 -8.740484491309875 5.378980660082979 16.73047145400535 0.0 0.0
26.321413645246743 -7.952026412339797 5.500443021275103 5.726081053889657 0.0 0.0
21.990891550328328 -14.546551095618282 2.229688730215975 -7.915571042272718 0.0 0.0
159.43249399299626 166.18219924491643 109.58223721356501 30.35349136524011 0.0 0.0
-196.7723795688067 -281.78521619366734 -235.6642050078344 -55.311940151129264 0.0 0.0
-123.12926534158665 -242.17026928411963 -154.56477722425208 31.89157271575881 0.0 0.0
118.44891739664807 139.8985309880091 82.74215419693563 -28.952365133530385 0.0 0.0
18.42092610220901 -7.494238220513687 3.25210977158865 10.611746014212565 0.0 0.0
22.87716685962416 -7.118646358858368 4.7223847596460455 -3.098790357115065 0.0 0.0
19.105056166242754 -6.409501488558552 3.761015639942001 -17.686792041181878 0.0 0.0
31.11803582820233 -8.262680847768795 6.838078518174884 -38.54017470150749 0.0 0.0
72.14159131318996 -7.380264795183503 20.621381916256823 -51.67913240596533 0.0 0.0
155.02161015734436 -9.704212845326637 49.398801552026676 -46.64600576381626 0.0 0.0
255.49539232086613 -16.15916744464455 89.81919623281593 -23.708206867946252 0.0 0.0
325.55325397857496 -15.467207103488342 131.10285992267777 -3.9935301836555253 0.0 0.0
370.01675709615125 -10.752191232817196 165.43432401491907 -0.8273475777963244 0.0 0.0
400.9627160865856 -7.42232769382894 191.08760831312782 -1.8332342943047735 0.0 0.0
426.88941787794397 -4.172964403449228 212.06232620652096 -3.259889474400537 0.0 0.0
451.027905703468 -1.750954906048932 230.47431907951392 -4.340858491982628 0.0 0.0
476.36076134558397 0.03401092014736662 249.02279023425703 -4.544050663425418 0.0 0.0
506.56621171906295 -0.5928403426388229 269.42451958521985 -2.4939284446821173 0.0 0.0
540.6641839745081 -1.0153206921521587 291.78167302877245 3.6089799712342003 0.0 0.0
572.1752291535043 10.245196058079202 316.60828241390766 11.376442676383002 0.0 0.0
628.1954528901783 81.4898001771777 377.1985442984501 3.6387113188509694 0.0 0.0
721.6655318202158 232.8580894731678 489.18030921886276 -51.29814302990255 0.0 0.0
-317.4161257243858 -667.1481593015085 -464.863792834773 4.2376768760732375e-11 0.0 0.0
721.6655318205059 232.85808947328232 489.1803092189702 51.29814303010122 0.0 0.0
628.1954528898395 81.48980017721195 377.1985442984351 -3.6387113188286726 0.0 0.0
572.1752291539008 10.245196058140522 316.6082824142009 -11.376442676142023 0.0 0.0
540.6641839753063 -1.0153206934922423 291.7816730285193 -3.6089799711786448 0.0 0.0
506.56621171931994 -0.5928403416823755 269.4245195856695 2.493928444546473 0.0 0.0
476.3607613450432 0.034010919122763994 249.0227902337602 4.544050663219879 0.0 0.0
451.0279057038352 -1.7509549052903495 230.47431907982082 4.340858491930417 0.0 0.0
426.8894178777945 -4.17296440383226 212.06232620624715 3.2598894746408966 0.0 0.0
400.9627160864438 -7.42232769413225 191.08760831300657 1.833234294308724 0.0 0.0
370.0167570958528 -10.752191233398982 165.43432401466345 0.8273475777840034 0.0 0.0
325.5532539786124 -15.467207103240392 131.10285992272242 3.993530183593272 0.0 0.0
255.49539232033342 -16.159167445421623 89.81919623241457 23.708206868079525 0.0 0.0
155.02161015709842 -9.704212844804053 49.398801552098035 46.64600576372397 0.0 0.0
72.14159131300951 -7.380264795207256 20.62138191618531 51.67913240600094 0.0 0.0
31.1180358280324 -8.262680847754188 6.838078518140105 38.54017470126441 0.0 0.0
19.105056165995514 -6.4095014889006166 3.76101563976779 17.68679204111837 0.0 0.0
22.877166859579447 -7.118646358915563 4.722384759615803 3.0987903570139226 0.0 0.0
18.420926102258555 -7.494238220402768 3.2521097716352196 -10.611746014167608 0.0 0.0
118.44891739631896 139.898530987684 82.74215419670276 28.952365133535977 0.0 0.0
-123.12926534105006 -242.17026928346277 -154.56477722363493 -31.89157271561545 0.0 0.0
-73.19748819189093 -199.9652355012225 -96.89474372037563 7.264178229492272 0.0 0.0
78.22722676986015 111.22655053741931 58.65088849538386 -23.28077342315685 0.0 0.0
12.918360912466717 0.8136505338388871 4.109618492380445 10.83686760958712 0.0 0.0
17.209356127940303 -5.671702567078363 3.4404398333768715 -0.6889568915249081 0.0 0.0
9.738899660830917 -3.2338846612217216 1.9476082894276 -16.79849424929479 0.0 0.0
3.0137819028270556 -3.9468159746246276 -0.26336970381546543 -39.78048331762088 0.0 0.0
-0.39610936454490364 -3.6842967628271017 -1.2279238595714057 -56.92441274919076 0.0 0.0
-1.0014246837331555 -1.1516491716339203 -0.6469960116840241 -59.884843636616175 0.0 0.0
-0.7309410241029113 -0.18258865606665076 -0.2801867039398509 -55.70933744338597 0.0 0.0
-0.5136810609359657 0.16259812545611396 -0.10520498740128659 -51.167360081291854 0.0 0.0
-0.8389899505081928 0.186128082834081 -0.11166972082408222 -39.81202281615689 0.0 0.0
-1.4055546539600243 0.3656703260537668 0.2909543861257333 -29.1175401406597 0.0 0.0
-1.5261819559123637 1.0641231306602776 0.5910213809748797 -22.595322630394794 0.0 0.0
2.9807574588373598 2.5039606945894946 1.2429057959224394 -18.10030845127219 0.0 0.0
18.3222954261673 5.445852418199294 3.232581044134619 -15.356341048595795 0.0 0.0
49.932320845866286 12.747106347490927 7.955981717978318 -13.450734553942835 0.0 0.0
109.37961460459422 23.884970997953687 18.91039079577405 -8.516790500725188 0.0 0.0
209.61340069301582 33.65739596104274 32.727085441506176 1.2817633882410409 0.0 0.0
419.68753329010036 34.056429785174714 75.6682454474099 -4.509744159838704 0.0 0.0
660.9651697913168 182.55333172358007 308.54513961518086 -97.04888380076315 0.0 0.0
-810.483741528416 -841.5933593353358 -794.6260745003702 -2.1944401851214934e-10 0.0 0.0
660.9651697914616 182.55333172355773 308.5451396153445 97.0488838006224 0.0 0.0
419.68753328970325 34.056429785265124 75.66824544720484 4.509744159561247 0.0 0.0
209.61340069383522 33.65739596226226 32.72708544224335 -1.281763387521007 0.0 0.0
109.37961460514548 23.88497099945029 18.910390796442982 8.516790501436205 0.0 0.0
49.9323208471331 12.747106350255763 7.955981719133959 13.450734553629484 0.0 0.0
18.32229542769032 5.445852420146451 3.2325810454603356 15.356341048505904 0.0 0.0
2.980757459055269 2.5039606938433963 1.2429057958163696 18.10030845111504 0.0 0.0
-1.526181955025848 1.0641231324823366 0.5910213816538743 22.595322630724873 0.0 0.0
-1.405554654716724 0.3656703233875973 0.29095438505510884 29.117540140771677 0.0 0.0
-0.8389899514582098 0.18612808059522123 -0.11166972191911384 39.812022816444355 0.0 0.0
-0.5136810598720487 0.16259812695877862 -0.10520498661583844 51.16736008073751 0.0 0.0
-0.7309410245188239 -0.18258865793752221 -0.2801867046428299 55.70933744337968 0.0 0.0
-1.001424683782039 -1.1516491719752944 -0.6469960118021794 59.88484363674713 0.0 0.0
-0.3961093643790776 -3.684296762388404 -1.227923859392624 56.92441274908908 0.0 0.0
3.0137819027364148 -3.9468159748667397 -0.26336970391714154 39.78048331732354 0.0 0.0
9.738899660364666 -3.2338846623006434 1.9476082889634676 16.798494249203724 0.0 0.0
17.209356128144883 -5.671702566508221 3.4404398336079827 0.6889568914538944 0.0 0.0
12.918360912414865 0.8136505338805669 4.109618492376544 -10.836867609576721 0.0 0.0
78.22722676952006 111.22655053708206 58.6508884951583 23.28077342299661 0.0 0.0
-73.19748819154562 -199.96523550060195 -96.89474371998246 -7.264178229380354 0.0 0.0
-50.04296738162201 -161.0899006341873 -64.52862288283937 -14.257513355133003 0.0 0.0
43.822488498564304 85.05437065968476 38.839384499716076 -15.562876083181688 0.0 0.0
7.009202814169658 8.049973123615361 4.496223611352692 10.497834997678765 0.0 0.0
10.383624849130028 -3.6610880646612487 1.9823683838790573 1.5794840437382942 0.0 0.0
-0.150406716313654 0.2083350040414342 0.002985712239334082 -14.119958646248776 0.0 0.0
-24.557365206247376 0.5828418693607242 -7.306643349976581 -35.418202417316785 0.0 0.0
-72.17678897423329 0.16461038348801527 -22.996145676386547 -51.119440375621906 0.0 0.0
-155.83296587616348 7.094998077361559 -50.67868511290173 -46.736742858310784 0.0 0.0
-256.38842270353956 15.721009323459334 -90.34005228597348 -23.867968289285674 0.0 0.0
-326.28103222201185 15.732634789239345 -131.266970843915 -4.018081313255781 0.0 0.0
-371.1674138680732 10.977053161545982 -165.9520903789644 -0.8861321250597052 0.0 0.0
-402.34810337837723 7.880331708113985 -192.1414377329293 -1.5990384984782757 0.0 0.0
-427.40949012617483 5.822709377546545 -212.2792313325287 -2.5856309605958403 0.0 0.0
-444.9129226828246 6.098651240217421 -225.32601182183183 -4.092385384462952 0.0 0.0
-450.8794203854782 8.899245146171268 -229.53533261232556 -6.884226671506453 0.0 0.0
-441.7323094297556 15.021777772836316 -222.4520011256131 -11.344408292075538 0.0 0.0
-416.60162952235453 24.699287094406557 -202.19317243322368 -17.371550151192373 0.0 0.0
-391.5749084703403 41.132759432306855 -172.3000859263824 -23.78073668566421 0.0 0.0
-361.8735109676794 142.9636329090363 -93.60121541708867 -34.00074904503728 0.0 0.0
-97.89612616143478 401.9707631685402 198.88100593502787 -58.43632168753029 0.0 0.0
-1169.4356751685093 -1032.3499906596624 -1255.4519280518768 -6.823341891504242e-11 0.0 0.0
-97.89612616159206 401.970763168885 198.88100593498953 58.436321687749256 0.0 0.0
-361.8735109659351 142.96363291176974 -93.60121541577223 34.000749044922614 0.0 0.0
-391.57490846923713 41.13275943476552 -172.30008592510467 23.780736685925607 0.0 0.0
-416.60162952122676 24.69928709669776 -202.19317243232425 17.371550151596214 0.0 0.0
-441.73230942998117 15.021777772912515 -222.45200112554676 11.344408291923418 0.0 0.0
-450.8794203844983 8.899245148039213 -229.53533261145617 6.884226671462805 0.0 0.0
-444.9129226823673 6.098651240089083 -225.3260118217314 4.092385384553586 0.0 0.0
-427.4094901254035 5.822709379552812 -212.2792313315125 2.585630960518696 0.0 0.0
-402.34810337807085 7.8803317081320685 -192.14143773272397 1.5990384985094277 0.0 0.0
-371.1674138690387 10.977053159864086 -165.9520903795451 0.8861321250429106 0.0 0.0
-326.28103222160945 15.732634789241166 -131.26697084369016 4.018081313315297 0.0 0.0
-256.3884227030829 15.721009323169499 -90.34005228583277 23.867968289394167 0.0 0.0
-155.8329658768861 7.094998075064411 -50.678685113728555 46.73674285858243 0.0 0.0
-72.1767889739588 0.16461038364610042 -22.996145676231365 51.119440375621245 0.0 0.0
-24.557365206068283 0.5828418694495263 -7.306643349899616 35.418202417063384 0.0 0.0
-0.15040671661654004 0.2083350032383423 0.0029857119038761426 14.119958646113703 0.0 0.0
10.383624849187312 -3.66108806450394 1.9823683839411248 -1.5794840437752815 0.0 0.0
7.009202814076782 8.049973123405106 4.496223611261485 -10.497834997554222 0.0 0.0
43.822488498366305 85.0543706592353 38.83938449952109 15.562876083133773 0.0 0.0
-50.04296738161986 -161.08990063353258 -64.52862288270178 14.257513355045576 0.0 0.0
-44.21447078490667 -121.34791850051423 -49.63606432724515 -20.81480573571855 0.0 0.0
23.111620904364162 61.038736414735226 25.251721956085493 -13.144243506408989 0.0 0.0
1.7021092251316907 12.383603651544062 4.238273766586028 8.442483047501378 0.0 0.0
3.739686061563104 -1.3163758535362702 0.6822605230305435 3.7938312938100065 0.0 0.0
-10.22113610243339 3.669801418837175 -1.9468387919113586 -10.727998872645918 0.0 0.0
-51.264795759367196 3.722616430889871 -15.079996911733714 -27.44880542299192 0.0 0.0
-132.10247334059534 -5.811135667506813 -51.422202319439656 -30.27468080574927 0.0 0.0
-233.3284929821666 -16.437575339120706 -115.16107245085017 -18.882982029015025 0.0 0.0
-310.2316040211474 -18.652208247304053 -179.2930513341792 -7.425134366332872 0.0 0.0
-354.0742707516334 -9.417546001477078 -216.784429109927 -3.1366834777491226 0.0 0.0
-382.9904920309706 -4.02164834031629 -239.72056563122885 -0.6347040067832586 0.0 0.0
-407.6394643648008 -2.7397781106621437 -258.8125165120764 0.441248485401577 0.0 0.0
-428.9144556788243 -3.2979523068415517 -276.2832986057832 1.2569197981493456 0.0 0.0
-442.1495745160639 -0.8379323669574319 -287.912698110619 0.8885757743209872 0.0 0.0
-443.4213670257651 6.107248403520202 -291.20361735665944 -1.7911819241447096 0.0 0.0
-428.25018015924024 18.792266712038497 -283.4681962993616 -7.095707504708993 0.0 0.0
-397.47901469130204 34.663228660878644 -266.4887080400766 -14.026315216981244 0.0 0.0
-358.0237807041602 57.34046848767761 -242.03590325941187 -17.844187504297622 0.0 0.0
-297.61608031103134 149.8204054560772 -175.0239462223268 -16.638656583681378 0.0 0.0
-172.19913663980543 415.4408068724362 -8.481015129646252 -54.61780832041676 0.0 0.0
-1742.287376775971 -1222.141280840319 -1637.9079604622589 8.613554314251815e-12 0.0 0.0
-172.19913664050327 415.44080687018015 -8.481015130671238 54.61780832041612 0.0 0.0
-297.61608031064793 149.82040545623448 -175.02394622212782 16.63865658362097 0.0 0.0
-358.0237807043429 57.34046848776705 -242.03590325954482 17.844187504324687 0.0 0.0
-397.4790146913806 34.66322866085747 -266.4887080401594 14.026315216817375 0.0 0.0
-428.25018016052263 18.792266708289148 -283.46819630076965 7.0957075044138715 0.0 0.0
-443.4213670252362 6.107248403772779 -291.2036173561502 1.7911819239687592 0.0 0.0
-442.14957451439454 -0.8379323654742663 -287.9126981095867 -0.8885757743511534 0.0 0.0
-428.9144556790294 -3.297952307846451 -276.28329860619317 -1.2569197980475155 0.0 0.0
-407.6394643641506 -2.739778108903719 -258.8125165112307 -0.44124848534304234 0.0 0.0
-382.9904920302885 -4.021648339110238 -239.7205656305796 0.6347040066665147 0.0 0.0
-354.0742707517417 -9.417546002694174 -216.78442911018976 3.136683477752549 0.0 0.0
-310.23160402048376 -18.65220824651556 -179.29305133354598 7.425134366371162 0.0 0.0
-233.32849298271134 -16.43757534161302 -115.16107245148754 18.882982029095633 0.0 0.0
-132.1024733399597 -5.811135667047196 -51.42220231900219 30.274680806020456 0.0 0.0
-51.264795759157636 3.7226164307247176 -15.079996911714042 27.448805422849823 0.0 0.0
-10.22113610216122 3.6698014192133677 -1.946838791730821 10.727998872501313 0.0 0.0
3.739686061672693 -1.3163758534553602 0.6822605230824004 -3.7938312938465844 0.0 0.0
1.7021092250646763 12.383603651408675 4.238273766520159 -8.442483047494271 0.0 0.0
23.111620904189547 61.03873641452454 25.25172195596977 13.144243506373815 0.0 0.0
-44.21447078483914 -121.34791850023777 -49.63606432712757 20.814805735692612 0.0 0.0
-36.493946983358995 -90.50078363211598 -38.09841918464249 -21.42803504923004 0.0 0.0
11.159987055207647 42.228040139207 16.016735789247353 -12.75972084999547 0.0 0.0
-2.436976842888885 13.74427835214669 3.4308748594496037 6.101136236414951 0.0 0.0
-2.387680930673424 0.9769139581675087 -0.39843748531422385 5.006249276354859 0.0 0.0
-19.240190082993994 5.705745010972013 -4.19401718011483 -4.856479032900447 0.0 0.0
-75.26717203728228 0.266986476238376 -26.855486117232573 -12.016074574278251 0.0 0.0
-169.43018212583155 -21.463289083806263 -87.62986460568253 -9.28155727349511 0.0 0.0
-253.39206990600997 -37.33908276097667 -168.73263520797775 -0.8313670194923146 0.0 0.0
-302.9916323898619 -33.807956440003025 -222.78368214880683 2.110516609806545 0.0 0.0
-326.77550781977004 -21.516427250075793 -245.71811598387285 2.6552743566778068 0.0 0.0
-342.7252124748468 -15.067548495046879 -260.97934849233263 3.1629607991531827 0.0 0.0
-358.77115046425774 -12.986783084203395 -277.20993963042406 3.361444143780635 0.0 0.0
-373.47508865381053 -12.322987498530424 -293.3080016482965 3.7179227542232223 0.0 0.0
-381.7784181406313 -9.413731890277603 -305.1077045337421 3.0135438442541647 0.0 0.0
-378.40713856725836 -1.141448038588294 -308.37505465653805 -0.4163508955774444 0.0 0.0
-357.6809209741409 14.15829194779863 -299.584306820552 -7.6516851405032265 0.0 0.0
-316.5195522595619 36.94368936262791 -277.39755285092065 -17.315987204284944 0.0 0.0
-250.7262977947115 77.46338085378535 -234.1484219457695 -21.169778116957865 0.0 0.0
-169.02030112039324 179.96196302989875 -154.0053775590307 -8.34667407553373 0.0 0.0
1.5646223840804083 511.7350135128855 63.640413920051095 -18.707030226670664 0.0 0.0
-1928.1761777626357 -1321.7732876727043 -1863.829639384409 -1.0982770248801899e-10 0.0 0.0
1.5646223842430231 511.73501351307056 63.640413920190866 18.707030226604314 0.0 0.0
-169.02030112303933 179.9619630246726 -154.00537756142168 8.346674075696514 0.0 0.0
-250.72629779319536 77.46338085715493 -234.1484219442455 21.16977811675522 0.0 0.0
-316.51955225935444 36.94368936324999 -277.39755285071124 17.315987204094448 0.0 0.0
-357.68092097442013 14.158291946501365 -299.58430682112703 7.651685140078148 0.0 0.0
-378.40713856822987 -1.1414480407469263 -308.3750546574648 0.4163508957623234 0.0 0.0
-381.77841813985606 -9.41373188807409 -305.1077045328999 -3.0135438440595577 0.0 0.0
-373.47508865405945 -12.322987499706787 -293.3080016487196 -3.717922754228546 0.0 0.0
-358.7711504636492 -12.986783083119803 -277.2099396298207 -3.361444143578244 0.0 0.0
-342.72521247471104 -15.067548495197396 -260.9793484923782 -3.1629607990703947 0.0 0.0
-326.7755078204842 -21.516427251812868 -245.7181159846072 -2.6552743568344015 0.0 0.0
-302.99163238915014 -33.807956439860675 -222.78368214835535 -2.110516609868871 0.0 0.0
-253.39206990502464 -37.33908276059144 -168.7326352073124 0.831367019742064 0.0 0.0
-169.43018212541017 -21.463289083556937 -87.62986460529447 9.281557273705447 0.0 0.0
-75.2671720371557 0.2669864759532681 -26.855486117238385 12.016074574228165 0.0 0.0
-19.24019008254926 5.705745011607326 -4.194017179803571 4.856479032828166 0.0 0.0
-2.3876809305973605 0.9769139582744047 -0.39843748527052336 -5.006249276486713 0.0 0.0
-2.4369768428096017 13.744278352626381 3.4308748596206287 -6.101136236245816 0.0 0.0
11.159987055153533 42.2280401390543 16.016735789182906 12.75972085000934 0.0 0.0
-36.49394698302721 -90.50078363166992 -38.09841918440914 21.428035049108068 0.0 0.0
-28.34963885505912 -65.6100340739248 -28.187901878695172 -19.112924700069833 0.0 0.0
3.688055288433305 28.05129810828322 9.521583343957118 -12.539817511099601 0.0 0.0
-5.407344780783355 12.921446962262433 2.2809638177225224 3.9756003962407744 0.0 0.0
-7.042515412804484 2.092514119912769 -1.4583909801492572 6.419133555440556 0.0 0.0
-29.17858758963576 5.818440929928576 -7.476661813177933 1.0217217051973086 0.0 0.0
-96.02455078387642 -8.096318639539755 -43.478293219191286 2.341697156487053 0.0 0.0
-181.58477042950332 -38.76589989547589 -124.57147666630087 8.678575227962448 0.0 0.0
-241.58120375645012 -50.6253107247397 -203.55436183008635 10.214419142019086 0.0 0.0
-268.09075123692173 -43.043414306205555 -241.45062236009244 9.026392314282948 0.0 0.0
-275.37581132424253 -33.433062159975506 -256.0689730226976 7.914850102378438 0.0 0.0
-282.23118847487086 -25.49638972538429 -267.8121987888691 6.212905456586819 0.0 0.0
-289.5938054725831 -21.867336875312787 -281.60533685592645 5.619221846678105 0.0 0.0
-297.2027219418285 -20.589509561074806 -296.71352636823354 5.512867137639944 0.0 0.0
-300.79341916894396 -18.107773637892052 -309.24986664750423 4.625615777268627 0.0 0.0
-293.4260136204355 -10.13972888255256 -313.56128009473434 0.8934127792342367 0.0 0.0
-266.6844686684509 8.684496005517985 -302.8950079881397 -7.282360513776011 0.0 0.0
-209.4025296803317 42.93221253720867 -269.92931348261504 -18.22361891163512 0.0 0.0
-114.1116993438495 101.28503310097014 -206.2627976701912 -22.951422400234293 0.0 0.0
14.889147067972004 228.32865900731548 -91.41747272408938 0.26801540498387144 0.0 0.0
201.07997642392195 586.789966234655 145.91057325584478 17.14163738798907 0.0 0.0
-2011.6437668059873 -1413.5771790967262 -2038.9375510894774 -2.546940436332079e-11 0.0 0.0
201.07997642478188 586.7899662353708 145.9105732565868 -17.14163738813921 0.0 0.0
14.889147066446355 228.32865900500383 -91.41747272506652 -0.26801540455512063 0.0 0.0
-114.11169934193987 101.28503310415 -206.26279766848276 22.951422400484766 0.0 0.0
-209.402529681285 42.93221253523619 -269.9293134834636 18.22361891148454 0.0 0.0
-266.6844686668261 8.68449600767066 -302.89500798684594 7.282360513603258 0.0 0.0
-293.4260136214079 -10.1397288846821 -313.56128009543204 -0.8934127789156485 0.0 0.0
-300.79341916894384 -18.107773637227538 -309.2498666472127 -4.625615777255918 0.0 0.0
-297.202721942056 -20.589509561795044 -296.7135263685233 -5.512867137855368 0.0 0.0
-289.59380547301447 -21.867336876198003 -281.6053368562383 -5.619221846821615 0.0 0.0
-282.231188474891 -25.49638972485654 -267.81219878870354 -6.212905456505693 0.0 0.0
-275.3758113248613 -33.433062160585834 -256.0689730229865 -7.914850102572034 0.0 0.0
-268.0907512364054 -43.04341430605854 -241.4506223597038 -9.026392314233002 0.0 0.0
-241.58120375573876 -50.62531072278152 -203.55436182905547 -10.214419141961116 0.0 0.0
-181.58477042929937 -38.76589989544532 -124.57147666597191 -8.678575227856436 0.0 0.0
-96.02455078368143 -8.09631863927913 -43.478293218912434 -2.3416971562945648 0.0 0.0
-29.17858758945537 5.818440929888385 -7.476661813141346 -1.0217217051395766 0.0 0.0
-7.04251541287207 2.09251411947264 -1.4583909803128818 -6.4191335554712285 0.0 0.0
-5.407344780676852 12.92144696246795 2.2809638178120295 -3.975600396198912 0.0 0.0
3.6880552883399047 28.05129810818387 9.521583343899486 12.539817511135153 0.0 0.0
-28.349638855085633 -65.61003407372588 -28.18790187864345 19.112924700162434 0.0 0.0
-21.356476007941417 -45.719940397151866 -20.122924921527982 -16.036800839369757 0.0 0.0
-1.1949529902850669 17.812283761430102 4.985204168034412 -11.765166864789128 0.0 0.0
-7.576648064695174 10.866723084618938 0.996965091221007 2.1518799468032417 0.0 0.0
-10.916902400292361 2.253889784342728 -2.4525378734444905 6.842480186134343 0.0 0.0
-38.52362915508961 1.7966009303609825 -13.0692355995906 8.860702776003377 0.0 0.0
-107.70614697294599 -21.225887691045436 -64.93773342794995 15.514670561303324 0.0 0.0
-174.3027138213632 -52.13445129318216 -155.74245167048986 18.803861885940435 0.0 0.0
-209.50464470742662 -58.473614465742585 -221.88783431009995 16.51817797989841 0.0 0.0
-215.18346975310874 -53.4949349277595 -247.59187316158412 13.98234312738806 0.0 0.0
-213.70676060660335 -43.13847447916447 -258.14480505376724 10.258696916319467 0.0 0.0
-210.51342143749787 -35.03321512732447 -267.42448621575386 7.908083789423382 0.0 0.0
-209.40898726299704 -30.454655976368343 -279.40714017046537 6.7538869196899505 0.0 0.0
-209.56935345397028 -28.347266407642252 -293.2692219644552 6.157276907653022 0.0 0.0
-207.73950753474762 -25.989628440684697 -306.01718732482277 5.1261143610591136 0.0 0.0
-197.00736367721584 -19.02843925430804 -312.02282186558654 1.7174754952026314 0.0 0.0
-163.51398383584456 2.747011970761349 -299.3083237984372 -5.9154132439872615 0.0 0.0
-89.55869415628527 51.716307574812106 -253.51628546558123 -17.147368448414934 0.0 0.0
42.88386125315756 134.89032567618358 -162.28096550870157 -23.772750449349697 0.0 0.0
217.25035903560016 272.81510228989 -19.737222194224927 3.949937777390452 0.0 0.0
405.4915647357404 630.3135492701682 219.52359872097713 49.07092183235107 0.0 0.0
-2021.1582027809218 -1459.649825461905 -2162.148448057963 2.639666263348772e-12 0.0 0.0
405.49156473608895 630.3135492701796 219.52359872099828 -49.070921832518785 0.0 0.0
217.2503590356907 272.815102290559 -19.737222194100724 -3.9499377772533695 0.0 0.0
42.88386125249236 134.89032567385928 -162.2809655095568 23.772750449347484 0.0 0.0
-89.55869415774566 51.716307570652745 -253.5162854672671 17.14736844824391 0.0 0.0
-163.5139838358317 2.7470119696251825 -299.30832379866763 5.915413244159768 0.0 0.0
-197.00736367707833 -19.028439255256338 -312.0228218656005 -1.7174754946857766 0.0 0.0
-207.7395075350939 -25.98962844141606 -306.0171873250203 -5.12611436093691 0.0 0.0
-209.56935345430034 -28.347266408816246 -293.26922196486555 -6.1572769078825225 0.0 0.0
-209.4089872628498 -30.454655975579623 -279.40714017008173 -6.75388691980984 0.0 0.0
-210.5134214371249 -35.03321512623701 -267.4244862153153 -7.908083789108545 0.0 0.0
-213.70676060660065 -43.13847447961736 -258.1448050538104 -10.258696916582398 0.0 0.0
-215.18346975250796 -53.494934926532565 -247.5918731608634 -13.982343127513866 0.0 0.0
-209.50464470728807 -58.47361446427013 -221.8878343094179 -16.51817797994026 0.0 0.0
-174.30271382103464 -52.1344512932239 -155.7424516700509 -18.803861885660346 0.0 0.0
-107.70614697293334 -21.225887691199745 -64.9377334277728 -15.514670561188964 0.0 0.0
-38.52362915512294 1.7966009298537988 -13.069235599722399 -8.860702775965288 0.0 0.0
-10.916902400445547 2.253889783779239 -2.4525378736692804 -6.842480186062037 0.0 0.0
-7.576648064749476 10.866723084577254 0.9969650911934078 -2.1518799467696526 0.0 0.0
-1.1949529902606375 17.81228376140415 4.985204168033993 11.765166864727727 0.0 0.0
-21.356476007782568 -45.71994039697044 -20.122924921425902 16.036800839582146 0.0 0.0
-15.93518297537027 -30.110361651552275 -13.81366338807676 -12.86564962215084 0.0 0.0
-4.6705727678349795 10.649721812591594 1.7937447134269842 -10.416393430467226 0.0 0.0
-9.443214423726362 8.442825385223578 -0.3006242100243723 0.7426250216408277 0.0 0.0
-14.432852534606695 0.37748741207440645 -4.063536307929597 7.231568605191761 0.0 0.0
-49.65236999332958 -4.772514553374776 -21.508797042081742 14.9308006892152 0.0 0.0
-105.8906497070605 -37.12839232548271 -89.12205938680887 25.23275572023304 0.0 0.0
-150.68323075014723 -60.03007016857782 -177.24776881330305 22.781387147572975 0.0 0.0
-160.43575058953573 -66.52719477999719 -228.36670758359654 19.521841784935802 0.0 0.0
-155.51767431307525 -61.738248649021415 -247.15863552096295 14.965005205601118 0.0 0.0
-143.57327600086901 -52.76128918040122 -255.27781274704995 10.727470380589756 0.0 0.0
-131.82256319735706 -44.664510495198854 -263.13122942282314 8.059838438434697 0.0 0.0
-122.16694635515205 -38.99302305340893 -273.2327326270153 6.508440023746013 0.0 0.0
-114.0738367290337 -35.349494193341 -285.12941070722684 5.430501030452281 0.0 0.0
-105.302046476552 -32.758419153374945 -297.1650175287706 4.29222354252715 0.0 0.0
-89.8568492494619 -25.721073155173855 -303.63334628535983 1.7872809547703485 0.0 0.0
-51.543484779935596 -2.4383332886627045 -290.4562810564422 -4.181422737224688 0.0 0.0
36.46943493534056 57.993016227463045 -234.46473686053184 -13.89260793817451 0.0 0.0
202.90798010836133 167.62385006290802 -116.64417092002091 -23.616684730330167 0.0 0.0
424.67668712022487 311.12032974868407 51.632569226627936 -1.3663126404231971 0.0 0.0
617.8796515681032 646.4270131469075 289.36859813552377 75.17088784255085 0.0 0.0
-1959.3533139685296 -1441.6235409331239 -2230.1167916538425 -1.0865974786611332e-10 0.0 0.0
617.8796515672648 646.4270131460581 289.3685981347404 -75.17088784278089 0.0 0.0
424.67668712189226 311.1203297512402 51.63256922797353 1.3663126404277877 0.0 0.0
202.9079801074714 167.62385006060424 -116.6441709210611 23.616684730150325 0.0 0.0
36.46943493519767 57.99301622579554 -234.46473686097528 13.892607937955948 0.0 0.0
-51.5434847815476 -2.4383332896496084 -290.4562810573233 4.181422737187221 0.0 0.0
-89.8568492504838 -25.721073157704108 -303.6333462862608 -1.787280954377155 0.0 0.0
-105.30204647693176 -32.758419153752804 -297.1650175289293 -4.292223542430572 0.0 0.0
-114.0738367294648 -35.3494941938903 -285.129410707582 -5.430501030362992 0.0 0.0
-122.16694635485676 -38.99302305308226 -273.2327326266755 -6.5084400238456706 0.0 0.0
-131.82256319738073 -44.6645104946971 -263.1312294226359 -8.059838438464311 0.0 0.0
-143.57327600090713 -52.761289179974554 -255.27781274686058 -10.727470380621067 0.0 0.0
-155.51767431252907 -61.73824864796954 -247.15863552040307 -14.965005205602463 0.0 0.0
-160.4357505889333 -66.52719477832736 -228.36670758271353 -19.521841784974328 0.0 0.0
-150.6832307500542 -60.03007016905334 -177.24776881309688 -22.781387147552437 0.0 0.0
-105.8906497070125 -37.12839232584487 -89.12205938666622 -25.23275572018432 0.0 0.0
-49.65236999339877 -4.7725145539059115 -21.508797042202993 -14.930800689099073 0.0 0.0
-14.432852534403253 0.37748741220235027 -4.063536307838989 -7.231568605109046 0.0 0.0
-9.443214423725584 8.442825385256986 -0.300624210014045 -0.7426250215491752 0.0 0.0
-4.670572767761606 10.649721812640319 1.793744713463613 10.416393430466027 0.0 0.0
-15.935182975187725 -30.110361651442958 -13.813663387989207 12.865649622141156 0.0 0.0
-12.118736932222838 -18.21738138589256 -9.100835495434618 -9.723607695183759 0.0 0.0
-7.547051286686235 5.775366488006962 -0.5315054396037818 -8.517654449591305 0.0 0.0
-11.544682606163475 6.268115487099421 -1.5831906134234863 -0.21678490767693093 0.0 0.0
-19.596307775649997 -3.195482239151039 -6.646947759807514 7.154443407174453 0.0 0.0
-57.824446434694096 -15.77288132098069 -33.95926441834473 19.905516483552198 0.0 0.0
-96.61155551273391 -48.2280493155027 -111.55242390663966 25.951026965477464 0.0 0.0
-110.9285194920327 -66.64715478419711 -189.13831567424864 21.815809077002275 0.0 0.0
-103.97820144432606 -72.57089115658228 -227.14278944566084 18.245575928416674 0.0 0.0
-88.40532723268073 -70.15284095480668 -242.34695365921104 13.3785525158922 0.0 0.0
-67.90328373972943 -62.53473213182514 -249.4048375757501 9.226169554377165 0.0 0.0
-47.535859990242955 -54.44675179488078 -255.88390719829647 6.540425904702747 0.0 0.0
-29.52245267507095 -47.846103802365974 -264.28932135548973 4.814144532582607 0.0 0.0
-12.591000595674188 -42.73835463073215 -273.99637026646286 3.465068519029478 0.0 0.0
5.392897489144957 -36.69729573590695 -282.60726248438937 2.13297118995699 0.0 0.0
28.911723112689913 -27.64771959965671 -286.86365264631377 0.6572013265969345 0.0 0.0
70.82449577535974 -5.6851960352706215 -275.25615180074584 -2.6398708490821754 0.0 0.0
160.91719709468117 55.0775208792185 -219.9486574214444 -9.342474406946664 0.0 0.0
350.22318751290686 188.9839273710926 -82.21933434731781 -20.538187122643095 0.0 0.0
630.2325774652385 348.99484587010375 120.32151973006104 -15.76377804956512 0.0 0.0
839.9392252030158 631.4452840000581 357.4587710336148 88.79142230045338 0.0 0.0
-1812.5880597947619 -1338.422766848753 -2230.9051894065715 4.5432102524500806e-11 0.0 0.0
839.9392252014172 631.4452839983559 357.45877103246437 -88.79142230027759 0.0 0.0
630.2325774666774 348.9948458722746 120.32151973144633 15.763778049825511 0.0 0.0
350.2231875104161 188.9839273682961 -82.21933434905239 20.53818712279717 0.0 0.0
160.91719709508766 55.07752088074601 -219.9486574208891 9.342474407042818 0.0 0.0
70.82449577531554 -5.6851960323628425 -275.2561517999133 2.6398708491608365 0.0 0.0
28.91172311305229 -27.647719598963327 -286.8636526459528 -0.6572013264670451 0.0 0.0
5.392897489218186 -36.69729573685128 -282.6072624845201 -2.132971189681447 0.0 0.0
-12.591000595757741 -42.73835462878838 -273.9963702659211 -3.4650685190457233 0.0 0.0
-29.522452675426102 -47.84610380323536 -264.2893213557063 -4.814144532252689 0.0 0.0
-47.53585999085938 -54.44675179578086 -255.88390719865097 -6.540425904734017 0.0 0.0
-67.90328373935321 -62.53473213084302 -249.40483757525217 -9.226169554582645 0.0 0.0
-88.40532723286901 -70.152840954696 -242.34695365918608 -13.378552515766838 0.0 0.0
-103.97820144435146 -72.57089115590283 -227.14278944529372 -18.245575928374215 0.0 0.0
-110.92851949183384 -66.64715478394474 -189.13831567382405 -21.815809077188298 0.0 0.0
-96.61155551235827 -48.22804931561252 -111.55242390627757 -25.951026965423335 0.0 0.0
-57.82444643453655 -15.772881320944434 -33.959264418182244 -19.905516483338857 0.0 0.0
-19.59630777536258 -3.195482238875414 -6.646947759659995 -7.154443407124842 0.0 0.0
-11.544682606148244 6.268115487164367 -1.5831906133991513 0.2167849075710102 0.0 0.0
-7.547051286749665 5.775366487933279 -0.531505439644916 8.517654449509243 0.0 0.0
-12.11873693217575 -18.21738138588733 -9.100835495418924 9.723607694987948 0.0 0.0
-9.86212429495549 -9.714865563976165 -5.873096957679497 -6.52279881774367 0.0 0.0
-10.334418301769375 2.605899366874289 -2.318555680468527 -6.049456199236408 0.0 0.0
-14.360220362795937 4.627721467160767 -2.9197496686905486 -0.5733196847124438 0.0 0.0
-27.946796744731245 -8.102015970169406 -10.736242925425035 6.850314638215242 0.0 0.0
-60.70030033265035 -29.86013672204505 -50.32984058387071 19.945400276747264 0.0 0.0
-74.08484593427706 -55.755213570781535 -129.54293827053226 20.132455193758133 0.0 0.0
-59.9252628801274 -71.54292715333435 -191.6599424233598 16.627711565087573 0.0 0.0
-41.61457904477094 -79.14644915850612 -221.86829064502913 13.220856359241324 0.0 0.0
-16.513692068655004 -79.26325454487903 -235.07821618889784 9.266715253000998 0.0 0.0
12.541325091359695 -72.73770884869475 -241.19102658606735 5.746234315627576 0.0 0.0
41.20910028321268 -64.53043286831578 -246.4147651515515 3.3035073204843735 0.0 0.0
67.95719910894373 -56.949768453931995 -252.9253324843909 1.6391367974976951 0.0 0.0
93.74392298098451 -49.28366302250768 -259.88357827728953 0.19883595669794962 0.0 0.0
122.45181674766981 -40.04446272934109 -264.528270708337 -1.0433853012392773 0.0 0.0
158.1206045992264 -25.354564696555684 -262.68332662904004 -1.8851920368234723 0.0 0.0
209.4391011064509 0.8445257225407374 -247.11243216545506 -2.402151082311798 0.0 0.0
290.05679440385717 47.45619295422597 -204.87910360395182 -5.953086457446283 0.0 0.0
457.59383026815493 171.01817485625793 -84.91383712283363 -11.463164046162746 0.0 0.0
813.4945300510577 388.75768657245834 174.24657673115576 -30.64129244041746 0.0 0.0
1081.2502789337584 586.2776792756711 434.8923300409565 70.5549524855125 0.0 0.0
-1540.209775950594 -1114.0630775977236 -2145.7963183544143 -8.109424243230023e-11 0.0 0.0
1081.2502789346509 586.2776792771972 434.8923300418661 -70.55495248550042 0.0 0.0
813.494530049572 388.75768657216605 174.2465767303343 30.641292440155404 0.0 0.0
457.59383026780307 171.01817485712644 -84.9138371227582 11.463164046283778 0.0 0.0
290.05679440336695 47.45619295371292 -204.87910360434833 5.953086457609675 0.0 0.0
209.43910110691974 0.8445257250439511 -247.11243216448005 2.4021510823251084 0.0 0.0
158.12060459919712 -25.35456469394469 -262.6833266285404 1.8851920367922634 0.0 0.0
122.45181674767478 -40.04446273065483 -264.52827070850657 1.0433853010919654 0.0 0.0
93.74392298068788 -49.28366302156496 -259.8835782770693 -0.1988359565492006 0.0 0.0
67.95719910889021 -56.94976845403171 -252.92533248431909 -1.6391367976430828 0.0 0.0
41.20910028227041 -64.5304328708056 -246.41476515250497 -3.303507320584279 0.0 0.0
12.541325090961365 -72.73770884964422 -241.19102658632667 -5.746234315547976 0.0 0.0
-16.513692068687952 -79.26325454507374 -235.07821618887894 -9.266715252927298 0.0 0.0
-41.61457904503167 -79.14644915834145 -221.86829064490382 -13.220856359212327 0.0 0.0
-59.925262880182075 -71.54292715343041 -191.65994242315293 -16.62771156511838 0.0 0.0
-74.08484593437136 -55.75521357106201 -129.5429382703049 -20.132455193624498 0.0 0.0
-60.70030033238507 -29.860136721766423 -50.32984058357903 -19.945400276745225 0.0 0.0
-27.94679674470496 -8.102015970101583 -10.736242925407552 -6.850314638134198 0.0 0.0
-14.360220362821714 4.627721467263707 -2.919749668667401 0.5733196846297909 0.0 0.0
-10.334418301821744 2.6058993665807133 -2.318555680572309 6.049456199286732 0.0 0.0
-9.862124294632313 -9.714865563796076 -5.873096957528517 6.522798817646069 0.0 0.0
-9.13127209173846 -4.495127029226561 -4.087919736289505 -3.054417144953586 0.0 0.0
-13.289028479978235 0.7549383930242832 -3.760227026086186 -2.991859972022272 0.0 0.0
-18.77113171125561 3.322691144193253 -4.634532170118702 0.018130293734914038 0.0 0.0
-38.19044318948447 -14.006052915885988 -17.03735680657583 5.8531290142003725 0.0 0.0
-58.909073046168785 -41.81585536585571 -68.07727031934387 11.931125094414002 0.0 0.0
-38.1670677254948 -60.84699750351976 -140.80903397792258 8.66535589425326 0.0 0.0
-4.399793642102203 -74.76887448272836 -188.1302158659455 6.399412274713434 0.0 0.0
25.733190764705732 -86.25583608458618 -213.51816187987455 4.710305383861436 0.0 0.0
59.667362504776484 -88.78192191605334 -225.65621079377618 2.5605277551710723 0.0 0.0
96.92657893715055 -83.73813578210263 -231.31486100779418 0.26561104541078606 0.0 0.0
134.2608426840408 -75.1058722404695 -234.95487613460443 -1.6189887103868705 0.0 0.0
169.7430988218478 -65.73583442302834 -239.16426811622964 -3.0711446552802086 0.0 0.0
204.97673231866438 -56.31435955843176 -243.50136649954314 -4.229414400169276 0.0 0.0
244.2787012026262 -42.896062574195525 -243.73197080907653 -5.147626317930314 0.0 0.0
294.93012350443655 -20.572561586229227 -233.57774642660632 -5.528353550568461 0.0 0.0
361.70281310431835 14.28987625462986 -208.25508309039333 -4.777406537711127 0.0 0.0
448.6655671815903 62.33298941956744 -165.85001181497233 -3.788652227049452 0.0 0.0
542.7011361850517 114.51176588861127 -110.48822765847359 -7.097343323082954 0.0 0.0
862.6269068867922 357.45078697602526 116.80884992296538 -6.916096021317703 0.0 0.0
1319.1912687077245 491.1197492439947 482.77713736028215 -13.186504666811029 0.0 0.0
-971.6233748806869 -657.3848845024037 -1704.032749183194 -7.845812888263026e-11 0.0 0.0
1319.1912687087042 491.119749245223 482.7771373612064 13.18650466710594 0.0 0.0
862.6269068858178 357.45078697639315 116.80884992251988 6.916096021151367 0.0 0.0
542.7011361856776 114.51176589128208 -110.48822765746336 7.097343322728729 0.0 0.0
448.6655671797022 62.33298941519483 -165.8500118167042 3.78865222704 0.0 0.0
361.70281310326976 14.289876254552297 -208.25508309071657 4.777406537798177 0.0 0.0
294.9301235037636 -20.57256158678115 -233.57774642706016 5.528353550504069 0.0 0.0
244.27870120212208 -42.89606257470285 -243.7319708092024 5.147626317882806 0.0 0.0
204.97673231804765 -56.314359558961456 -243.5013664999563 4.229414400331325 0.0 0.0
169.74309882104785 -65.73583442378832 -239.16426811671357 3.0711446553097677 0.0 0.0
134.2608426835268 -75.10587224079445 -234.95487613483698 1.618988710316858 0.0 0.0
96.92657893674858 -83.738135782558 -231.31486100786964 -0.26561104537187985 0.0 0.0
59.6673625046992 -88.7819219160166 -225.65621079369328 -2.5605277551295 0.0 0.0
25.733190765074788 -86.25583608317544 -213.51816187922196 -4.7103053838619715 0.0 0.0
-4.399793642513501 -74.76887448347111 -188.13021586609494 -6.399412274593109 0.0 0.0
-38.16706772540044 -60.84699750402062 -140.80903397772352 -8.665355894232531 0.0 0.0
-58.90907304590158 -41.815855365529764 -68.07727031896752 -11.931125094394103 0.0 0.0
-38.19044318919096 -14.006052915497664 -17.037356806363277 -5.8531290140554315 0.0 0.0
-18.771131711283285 3.3226911439424054 -4.634532170202263 -0.018130293755232174 0.0 0.0
-13.289028479941244 0.7549383929702794 -3.7602270260912887 2.9918599722098653 0.0 0.0
-9.131272091829542 -4.495127029264162 -4.087919736328111 3.0544171449929367 0.0 0.0
-10.267857011090294 -3.184898978836826 -4.035826796978134 -1.026041113959221 0.0 0.0
-16.6978948534299 -0.6823677354125941 -5.214078776652748 -1.089642646070168 0.0 0.0
-26.748622013824658 0.4557340347533938 -7.887866393721377 0.7211878988268798 0.0 0.0
-53.78278082234691 -28.76436387517399 -29.951172125172548 7.4568567318768775 0.0 0.0
-78.38235707927069 -83.73376230937892 -105.64781514325844 15.043586105583278 0.0 0.0
-70.61840889544251 -135.20184491806089 -207.41567051227526 14.518030433292921 0.0 0.0
-68.23544617573631 -195.25772286092234 -294.23521805225926 12.788145241289268 0.0 0.0
-86.26586526558992 -266.9843830691131 -376.8944498392137 10.863924767546429 0.0 0.0
-122.74279752536563 -350.18851911804666 -468.2608241073488 8.60350891071555 0.0 0.0
-185.43362580587234 -453.5090958472207 -581.2220016760891 6.055543252288288 0.0 0.0
-279.4498441860004 -583.6235124977329 -722.7695741541604 3.561101500537511 0.0 0.0
-402.98397822448374 -740.845056970558 -892.5665450233078 1.4235106877734935 0.0 0.0
-546.958649479071 -916.9706757333697 -1082.072443009197 -0.33289333137008725 0.0 0.0
-697.5821149957658 -1100.3325415004915 -1278.5231465219688 -1.9048570486861038 0.0 0.0
-835.1273189607596 -1273.0928728336735 -1463.0339593777146 -2.9346351779804962 0.0 0.0
-936.1859474826376 -1414.1212157881928 -1612.3189793627112 -2.924279906562411 0.0 0.0
-974.6049224502633 -1492.8752404016532 -1699.0643613231064 -0.7209362905714514 0.0 0.0
-968.9820803027458 -1548.1872978955982 -1739.9973835721576 -4.047036474270584 0.0 0.0
-978.61904489483 -1517.6772834652586 -1771.796049819485 11.955841222956465 0.0 0.0
-1080.3608965586886 -2147.589255734114 -2080.073583696541 -35.7205709817805 0.0 0.0
-3616.5584422970646 -3495.9253618569046 -4353.1220689455895 -6.974687494221143e-11 0.0 0.0
-1080.3608965589863 -2147.5892557349025 -2080.073583696588 35.72057098222268 0.0 0.0
-978.6190448933658 -1517.6772834624715 -1771.7960498177708 -11.955841222950433 0.0 0.0
-968.9820803027405 -1548.1872978944416 -1739.9973835712192 4.047036473778881 0.0 0.0
-974.6049224508932 -1492.8752404040113 -1699.0643613235143 0.7209362908513697 0.0 0.0
-936.1859474835819 -1414.1212157883044 -1612.3189793626082 2.9242799069730836 0.0 0.0
-835.1273189592549 -1273.0928728327594 -1463.033959376453 2.9346351778429494 0.0 0.0
-697.5821149956816 -1100.332541499988 -1278.5231465211527 1.904857048745999 0.0 0.0
-546.958649477086 -916.9706757311209 -1082.0724430075143 0.33289333141679833 0.0 0.0
-402.98397822521576 -740.8450569702768 -892.5665450231447 -1.4235106878278998 0.0 0.0
-279.44984418609874 -583.6235124966415 -722.7695741535564 -3.561101500811688 0.0 0.0
-185.43362580484563 -453.50909584605563 -581.2220016749793 -6.055543252334893 0.0 0.0
-122.74279752479049 -350.1885191169649 -468.2608241065369 -8.603508910736775 0.0 0.0
-86.26586526446721 -266.9843830666072 -376.8944498378591 -10.863924767634163 0.0 0.0
-68.23544617589448 -195.2577228609507 -294.23521805199795 -12.78814524114123 0.0 0.0
-70.61840889500962 -135.20184491864495 -207.41567051199513 -14.518030433330177 0.0 0.0
-78.38235707915857 -83.73376230903543 -105.64781514280493 -15.043586105464097 0.0 0.0
-53.78278082187939 -28.764363874591993 -29.951172124829576 -7.456856731748206 0.0 0.0
-26.748622014077036 0.4557340340672651 -7.8878663940029305 -0.7211878987488718 0.0 0.0
-16.697894853359365 -0.6823677352944435 -5.214078776596143 1.0896426462531694 0.0 0.0
-10.267857011130815 -3.1848989789044504 -4.0358267970105794 1.0260411140187786 0.0 0.0
SCALARS Strain float 6
LOOKUP_TABLE default
0.012809140623861192 -0.0178346313063348 0.0 -0.0013469218580047218 0.0 0.0
0.006927504281334581 -0.004130445369509903 0.0 -0.0070497144806480685 0.0 0.0
0.00043810280182751557 0.0005962183589526413 0.0 -0.0006714847649736819 0.0 0.0
5.36592361361213e-05 -9.699948620969222e-05 0.0 0.0001080391721423272 0.0 0.0
0.0011038481484998029 -0.0006733425503971336 0.0 0.0004352159828975755 0.0 0.0
0.00376731877415608 -0.0029840861308165654 0.0 0.0006460316630749252 0.0 0.0
0.008751060076851542 -0.007637013528675407 0.0 0.0008021269200248135 0.0 0.0
0.01661028495334556 -0.015146404452852189 0.0 0.0008429850460366498 0.0 0.0
0.027735685322893687 -0.025845469596406878 0.0 0.0007564217583575631 0.0 0.0
0.04223522267464572 -0.03978159821957514 0.0 0.0004972459445254751 0.0 0.0
0.059938166975015444 -0.05674669373627102 0.0 9.928270458272085e-05 0.0 0.0
0.08050940390856494 -0.07640940519222263 0.0 -0.00040500487702037764 0.0 0.0
0.10354646966036973 -0.0984106616660208 0.0 -0.0010097189838947627 0.0 0.0
0.12860939560053594 -0.12236360219721887 0.0 -0.0016714836636438045 0.0 0.0
0.1551408831120621 -0.14777919038358683 0.0 -0.0023955086563445162 0.0 0.0
0.18233176685449254 -0.17392955067917418 0.0 -0.0031233001214745247 0.0 0.0
0.20905245090004015 -0.1997692416003669 0.0 -0.0036965217575660016 0.0 0.0
0.23389314466852468 -0.22395751558024102 0.0 -0.003914310324286745 0.0 0.0
0.2553278634345403 -0.2449250313386328 0.0 -0.0037168466172426947 0.0 0.0
0.2714634063201986 -0.26079419851119945 0.0 -0.004911153801653117 0.0 0.0
0.27792401305579806 -0.26741500082732855 0.0 4.326400349086157e-15 0.0 0.0
0.2714634063201596 -0.2607941985111621 0.0 0.004911153801665744 0.0 0.0
0.25532786343446223 -0.24492503133855575 0.0 0.003716846617255123 0.0 0.0
0.23389314466841327 -0.2239575155801249 0.0 0.0039143103242888794 0.0 0.0
0.20905245089991065 -0.19976924160024012 0.0 0.003696521757568313 0.0 0.0
0.1823317668543561 -0.17392955067904242 0.0 0.0031233001214613764 0.0 0.0
0.15514088311192145 -0.14777919038344953 0.0 0.0023955086563431528 0.0 0.0
0.12860939560039517 -0.12236360219709996 0.0 0.001671483663643507 0.0 0.0
0.10354646966023437 -0.09841066166588655 0.0 0.0010097189838915105 0.0 0.0
0.08050940390843987 -0.07640940519210003 0.0 0.0004050048770109951 0.0 0.0
0.059938166974907045 -0.05674669373616406 0.0 -9.928270459097282e-05 0.0 0.0
0.04223522267455984 -0.039781598219494244 0.0 -0.0004972459445281956 0.0 0.0
0.027735685322829474 -0.025845469596341222 0.0 -0.0007564217583587162 0.0 0.0
0.01661028495329913 -0.015146404452804227 0.0 -0.0008429850460398982 0.0 0.0
0.008751060076821957 -0.007637013528643573 0.0 -0.0008021269200225095 0.0 0.0
0.0037673187741409323 -0.0029840861308054524 0.0 -0.0006460316630727825 0.0 0.0
0.0011038481484947384 -0.0006733425503950704 0.0 -0.00043521598289475433 0.0 0.0
5.3659236135609814e-05 -9.699948620892594e-05 0.0 -0.00010803917214716801 0.0 0.0
0.00043810280182466634 0.0005962183589536374 0.0 0.0006714847649694586 0.0 0.0
0.006927504281327433 -0.004130445369503329 0.0 0.007049714480643376 0.0 0.0
0.012809140623852203 -0.01783463130631716 0.0 0.001346921857959595 0.0 0.0
0.009440683717395775 -0.015849261811307136 0.0 -0.0011012607579157319 0.0 0.0
0.004930083710113579 -0.003192013198309103 0.0 -0.005930838668062331 0.0 0.0
7.942186340968902e-05 0.0004957717150808531 0.0 -0.00038638405199749483 0.0 0.0
-4.200748738087955e-05 -4.4879989000996606e-05 0.0 5.35758924342358e-05 0.0 0.0
0.0008063601004778792 -0.0005489164306751353 0.0 0.00019055084056077043 0.0 0.0
0.0030385820082327445 -0.0026012085857103815 0.0 9.243154772856717e-05 0.0 0.0
0.007479761699063166 -0.006948622050272446 0.0 -0.00032127992154083035 0.0 0.0
0.014622348087569965 -0.01407194256867162 0.0 -0.0010193412342013337 0.0 0.0
0.02477772299161848 -0.024263133726689704 0.0 -0.0020212819009556905 0.0 0.0
0.037971652629070214 -0.03752682932667423 0.0 -0.003283693489214566 0.0 0.0
0.054005228716698606 -0.05364113932439097 0.0 -0.00468583524930325 0.0 0.0
0.07257520732216366 -0.07228827463716565 0.0 -0.00612263495984054 0.0 0.0
0.09335543533729684 -0.09314328586081248 0.0 -0.00757463792274588 0.0 0.0
0.11597555607810506 -0.11585750400596426 0.0 -0.00903197828216388 0.0 0.0
0.13994758069686308 -0.13997503916575335 0.0 -0.010431352374008716 0.0 0.0
0.16457298751127986 -0.16482495096067176 0.0 -0.011615917734258383 0.0 0.0
0.1888736159901218 -0.18944271967662082 0.0 -0.012280212325966757 0.0 0.0
0.21159542551435195 -0.21256036791802282 0.0 -0.012097205637003899 0.0 0.0
0.23114643383265066 -0.23260572864923768 0.0 -0.01109609406729322 0.0 0.0
0.24512286638806816 -0.24744744776272443 0.0 -0.010694564927124117 0.0 0.0
0.2503415973493431 -0.2536852547365249 0.0 9.57307150217801e-15 0.0 0.0
0.2451228663880315 -0.24744744776268518 0.0 0.010694564927155226 0.0 0.0
0.23114643383258 -0.2326057286491633 0.0 0.011096094067325127 0.0 0.0
0.2115954255142549 -0.2125603679179217 0.0 0.012097205637015867 0.0 0.0
0.18887361599000702 -0.18944271967650209 0.0 0.012280212325970166 0.0 0.0
0.16457298751115615 -0.1648249509605521 0.0 0.011615917734249508 0.0 0.0
0.1399475806967368 -0.13997503916561235 0.0 0.010431352374003708 0.0 0.0
0.11597555607797863 -0.11585750400584097 0.0 0.00903197828216009 0.0 0.0
0.09335543533717487 -0.09314328586068431 0.0 0.0075746379227398354 0.0 0.0
0.07257520732205087 -0.0722882746370518 0.0 0.0061226349598265915 0.0 0.0
0.05400522871660099 -0.0536411393242952 0.0 0.004685835249290693 0.0 0.0
0.03797165262899212 -0.037526829326592535 0.0 0.0032836934892035005 0.0 0.0
0.02477772299155967 -0.024263133726627247 0.0 0.002021281900949738 0.0 0.0
0.014622348087528575 -0.01407194256862511 0.0 0.0010193412341949772 0.0 0.0
0.007479761699037505 -0.006948622050243987 0.0 0.0003212799215384198 0.0 0.0
0.0030385820082199618 -0.0026012085856966364 0.0 -9.243154772892951e-05 0.0 0.0
0.0008063601004732842 -0.0005489164306751305 0.0 -0.00019055084056068963 0.0 0.0
-4.200748738148494e-05 -4.4879989001224126e-05 0.0 -5.357589243502108e-05 0.0 0.0
7.942186340986846e-05 0.0004957717150811888 0.0 0.0003863840519962829 0.0 0.0
0.004930083710106068 -0.0031920131983033586 0.0 0.005930838668052174 0.0 0.0
0.009440683717380736 -0.01584926181128716 0.0 0.0011012607578790813 0.0 0.0
0.007069929305201244 -0.012361864519095864 0.0 -0.0029360526192879106 0.0 0.0
0.0036729894793127 -0.0017949923651911655 0.0 -0.005584884097005108 0.0 0.0
4.304398237574084e-05 0.00027347797339617703 0.0 -0.0003823608258021631 0.0 0.0
-5.384903322908407e-05 2.3607545487206687e-05 0.0 5.5023358899261837e-05 0.0 0.0
0.0005620287832004211 -0.0003370013611618196 0.0 0.00013889200790607737 0.0 0.0
0.0023800108074217654 -0.0018920654763164135 0.0 -4.304088005250739e-05 0.0 0.0
0.006232681314097265 -0.005596726878286044 0.0 -0.0008350716480301512 0.0 0.0
0.012610614375004353 -0.011925710899075775 0.0 -0.0021691012128097487 0.0 0.0
0.021736756374222437 -0.021071787140239266 0.0 -0.004055018515574738 0.0 0.0
0.03358099817253662 -0.03297114776194916 0.0 -0.006360130097711728 0.0 0.0
0.047924453539545164 -0.04737316772299891 0.0 -0.008861828215704913 0.0 0.0
0.06448751017803162 -0.06398712751191189 0.0 -0.011371926267942867 0.0 0.0
0.08299445240491818 -0.08254488318846664 0.0 -0.013843109984776987 0.0 0.0
0.10314935259462615 -0.10276862587958066 0.0 -0.016301770863629505 0.0 0.0
0.12455317011119826 -0.12428247962975295 0.0 -0.01866094835764763 0.0 0.0
0.1466291844684799 -0.14653412629642748 0.0 -0.020641657910893188 0.0 0.0
0.16855864098401793 -0.1687204331997321 0.0 -0.021776492334946336 0.0 0.0
0.1891865895782021 -0.1897070346426898 0.0 -0.021617439071438028 0.0 0.0
0.20685656839477257 -0.207900797863883 0.0 -0.02013407203582705 0.0 0.0
0.2194759919768581 -0.22106866495769453 0.0 -0.017696331252648814 0.0 0.0
0.22424526411258303 -0.22694663902593248 0.0 1.9180837473875556e-14 0.0 0.0
0.21947599197682519 -0.22106866495765531 0.0 0.017696331252698483 0.0 0.0
0.20685656839470942 -0.20790079786381954 0.0 0.02013407203587543 0.0 0.0
0.18918658957811757 -0.18970703464259953 0.0 0.021617439071469187 0.0 0.0
0.16855864098391732 -0.16872043319962998 0.0 0.021776492334947842 0.0 0.0
0.14662918446836903 -0.14653412629631188 0.0 0.020641657910887144 0.0 0.0
0.12455317011108566 -0.12428247962963618 0.0 0.018660948357640844 0.0 0.0
0.10314935259451435 -0.10276862587946352 0.0 0.016301770863617428 0.0 0.0
0.08299445240481017 -0.08254488318835762 0.0 0.013843109984766129 0.0 0.0
0.06448751017793171 -0.06398712751181147 0.0 0.011371926267923976 0.0 0.0
0.04792445353945824 -0.04737316772291557 0.0 0.008861828215689021 0.0 0.0
0.03358099817246664 -0.032971147761874646 0.0 0.0063601300976953695 0.0 0.0
0.02173675637416963 -0.02107178714018863 0.0 0.004055018515566854 0.0 0.0
0.012610614374967313 -0.011925710899036315 0.0 0.0021691012128011162 0.0 0.0
0.006232681314074859 -0.005596726878265248 0.0 0.0008350716480230876 0.0 0.0
0.002380010807410855 -0.0018920654763045228 0.0 4.3040880048914474e-05 0.0 0.0
0.000562028783197086 -0.0003370013611612788 0.0 -0.00013889200790788412 0.0 0.0
-5.384903322875275e-05 2.3607545487975854e-05 0.0 -5.50233588967676e-05 0.0 0.0
4.304398237581978e-05 0.0002734779733948581 0.0 0.0003823608258039138 0.0 0.0
0.0036729894793050893 -0.0017949923651871427 0.0 0.005584884096992536 0.0 0.0
0.007069929305186716 -0.012361864519073703 0.0 0.002936052619263394 0.0 0.0
0.00535193343937894 -0.009711763941590255 0.0 -0.0029039896579619697 0.0 0.0
0.0027902664938282 -0.0010285605285114722 0.0 -0.0045161745828120456 0.0 0.0
6.945604186147051e-05 7.529386169310875e-05 0.0 -0.00028511884559088383 0.0 0.0
-2.323655007970525e-05 2.637653756482212e-05 0.0 -2.0378116891008436e-05 0.0 0.0
0.00038705841407787845 -0.00019727892954626264 0.0 0.00011713898740616839 0.0 0.0
0.001803040164760841 -0.001308752157066883 0.0 -0.0001242280805783833 0.0 0.0
0.005038586893107923 -0.004318341870183905 0.0 -0.0011017782380658453 0.0 0.0
0.010601923477989808 -0.00979817625063389 0.0 -0.002938213924153927 0.0 0.0
0.018654444253301167 -0.017850809427320223 0.0 -0.005485676082592415 0.0 0.0
0.029113754785861264 -0.028348503289758617 0.0 -0.008566812354503234 0.0 0.0
0.0417447246715631 -0.04101833681070341 0.0 -0.011881093974221288 0.0 0.0
0.05628923063285611 -0.055589956701280564 0.0 -0.01520043624553015 0.0 0.0
0.07251562566191813 -0.07184166799506408 0.0 -0.01846316376956329 0.0 0.0
0.09018725345725807 -0.08955791171494294 0.0 -0.021674524958698566 0.0 0.0
0.10900370366947715 -0.10845040884876161 0.0 -0.024737640002139273 0.0 0.0
0.12852479423099983 -0.12809537539206423 0.0 -0.02735428800032014 0.0 0.0
0.14807571145971227 -0.14784883325777895 0.0 -0.029002695071279522 0.0 0.0
0.166612652426166 -0.166704496680163 0.0 -0.029129837819525314 0.0 0.0
0.18263284477257577 -0.18314261843973642 0.0 -0.027245213813955605 0.0 0.0
0.19436565038816095 -0.19524198299643494 0.0 -0.02248812094335289 0.0 0.0
0.19893441390102645 -0.20130408078482012 0.0 2.7128473079063298e-14 0.0 0.0
0.19436565038813172 -0.1952419829963949 0.0 0.02248812094341863 0.0 0.0
0.1826328447725214 -0.18314261843969248 0.0 0.02724521381401774 0.0 0.0
0.1666126524260916 -0.16670449668008508 0.0 0.02912983781956551 0.0 0.0
0.14807571145962348 -0.14784883325768852 0.0 0.02900269507128342 0.0 0.0
0.1285247942309027 -0.12809537539194474 0.0 0.027354288000304754 0.0 0.0
0.1090037036693777 -0.10845040884866745 0.0 0.024737640002127775 0.0 0.0
0.09018725345716003 -0.0895579117148471 0.0 0.021674524958689226 0.0 0.0
0.07251562566182326 -0.07184166799496834 0.0 0.01846316376954778 0.0 0.0
0.05628923063276871 -0.055589956701195715 0.0 0.015200436245506366 0.0 0.0
0.04174472467148767 -0.04101833681063171 0.0 0.011881093974197924 0.0 0.0
0.029113754785799847 -0.028348503289696667 0.0 0.008566812354481635 0.0 0.0
0.018654444253254042 -0.017850809427276338 0.0 0.005485676082576643 0.0 0.0
0.010601923477956956 -0.00979817625060725 0.0 0.0029382139241419447 0.0 0.0
0.005038586893089267 -0.004318341870164756 0.0 0.0011017782380598603 0.0 0.0
0.0018030401647526192 -0.001308752157060601 0.0 0.00012422808057296843 0.0 0.0
0.00038705841407572376 -0.00019727892954456491 0.0 -0.00011713898740620239 0.0 0.0
-2.3236550079191506e-05 2.637653756530684e-05 0.0 2.037811689075321e-05 0.0 0.0
6.945604186165186e-05 7.529386169162592e-05 0.0 0.00028511884559078153 0.0 0.0
0.0027902664938212396 -0.0010285605285078618 0.0 0.004516174582802202 0.0 0.0
0.005351933439365493 -0.009711763941569388 0.0 0.0029039896579441133 0.0 0.0
0.004001714706104469 -0.007623679420590494 0.0 -0.0022404160707943663 0.0 0.0
0.0021016697287248223 -0.0004978549754164617 0.0 -0.003487803020359997 0.0 0.0
0.00010369450347078542 -4.365248267576673e-05 0.0 -0.000190758076019808 0.0 0.0
2.836549079562085e-05 -8.986469878891459e-06 0.0 -8.43831344185424e-05 0.0 0.0
0.00027511089956598503 -0.0001237280732861722 0.0 7.096554328911635e-05 0.0 0.0
0.0013233044999045168 -0.0008622614026023191 0.0 -0.00016199111258103705 0.0 0.0
0.0039272077074833925 -0.003164683327811576 0.0 -0.001195530916004892 0.0 0.0
0.008628206795392357 -0.007723654359336257 0.0 -0.0032896804387776493 0.0 0.0
0.015573410901767549 -0.01464408871350929 0.0 -0.006303037681592147 0.0 0.0
0.024617216465050523 -0.023709868610153107 0.0 -0.00990225853664216 0.0 0.0
0.03551646542914415 -0.03462843131067244 0.0 -0.013755416157878744 0.0 0.0
0.048027644580629886 -0.047144985295301485 0.0 -0.017613780445425962 0.0 0.0
0.06196161636274401 -0.061081072570741066 0.0 -0.021414948407046358 0.0 0.0
0.07714636927146229 -0.07628204516207861 0.0 -0.02514780168034318 0.0 0.0
0.09336027353349674 -0.09254008092629164 0.0 -0.02868266216249964 0.0 0.0
0.11028551629875971 -0.10954729586280879 0.0 -0.03173776486769587 0.0 0.0
0.12741266628226602 -0.12681780118031902 0.0 -0.03386533908101346 0.0 0.0
0.14388517036058865 -0.1435259482361936 0.0 -0.03440921191807369 0.0 0.0
0.1584366346776957 -0.158385532064325 0.0 -0.032299241518803506 0.0 0.0
0.16956575567549761 -0.16977304748985353 0.0 -0.026047327934442227 0.0 0.0
0.17408256303223166 -0.17625487164080053 0.0 3.2351725465229464e-14 0.0 0.0
0.16956575567547172 -0.16977304748981797 0.0 0.026047327934519617 0.0 0.0
0.1584366346776482 -0.15838553206429276 0.0 0.032299241518878724 0.0 0.0
0.14388517036052356 -0.14352594823611706 0.0 0.03440921191811684 0.0 0.0
0.12741266628218822 -0.12681780118023486 0.0 0.03386533908102122 0.0 0.0
0.11028551629867536 -0.10954729586271232 0.0 0.031737764867682275 0.0 0.0
0.09336027353341193 -0.0925400809262073 0.0 0.028682662162488548 0.0 0.0
0.07714636927137877 -0.07628204516200057 0.0 0.02514780168033267 0.0 0.0
0.061961616362662994 -0.06108107257065344 0.0 0.021414948407023345 0.0 0.0
0.04802764458055546 -0.047144985295228925 0.0 0.017613780445401007 0.0 0.0
0.035516465429078936 -0.034628431310610074 0.0 0.013755416157851082 0.0 0.0
0.024617216464996493 -0.023709868610103796 0.0 0.009902258536614719 0.0 0.0
0.01557341090172781 -0.014644088713467451 0.0 0.006303037681573112 0.0 0.0
0.008628206795366414 -0.0077236543593174126 0.0 0.003289680438766032 0.0 0.0
0.003927207707467938 -0.0031646833277946726 0.0 0.0011955309159994004 0.0 0.0
0.0013233044998975491 -0.0008622614025983314 0.0 0.00016199111257837203 0.0 0.0
0.0002751108995646967 -0.00012372807328274644 0.0 -7.096554328765034e-05 0.0 0.0
2.8365490795961716e-05 -8.986469881931553e-06 0.0 8.438313441809958e-05 0.0 0.0
0.00010369450347084657 -4.3652482675577155e-05 0.0 0.00019075807601958588 0.0 0.0
0.002101669728718644 -0.0004978549754134124 0.0 0.003487803020349999 0.0 0.0
0.004001714706092266 -0.007623679420571983 0.0 0.002240416070781214 0.0 0.0
0.0029113240532972293 -0.005895688638369657 0.0 -0.0015315825745640058 0.0 0.0
0.0015439076878702013 -0.00011477436891798196 0.0 -0.002608279629521533 0.0 0.0
0.00012909523998038514 -0.00010637383714376556 0.0 -0.00010086515525637815 0.0 0.0
8.003119366606839e-05 -4.827821774424161e-05 0.0 -0.00011592244850366465 0.0 0.0
0.00021340142721270076 -0.00010010747919845171 0.0 -3.169194324390485e-06 0.0 0.0
0.0009415085828829537 -0.0005466298603981862 0.0 -0.0001814965363098762 0.0 0.0
0.002935217627323944 -0.002181072235083584 0.0 -0.0011893427105906765 0.0 0.0
0.00673841532799646 -0.005767159897015311 0.0 -0.0032878999934459635 0.0 0.0
0.012527969450883605 -0.011495812111048444 0.0 -0.0064873672628180746 0.0 0.0
0.020137660146887577 -0.01910499186757495 0.0 -0.010361499813211156 0.0 0.0
0.029287776929350327 -0.02825544462723556 0.0 -0.014484170095653996 0.0 0.0
0.03975409767365858 -0.038705648647055876 0.0 -0.018613189163221907 0.0 0.0
0.05138635993106541 -0.05031642576056372 0.0 -0.022686102015246474 0.0 0.0
0.06407207628223163 -0.0629945917017083 0.0 -0.026689512704750958 0.0 0.0
0.07767166282927666 -0.07660823367842706 0.0 -0.030483111682823992 0.0 0.0
0.09196429631610242 -0.09094212461039983 0.0 -0.033789640423522026 0.0 0.0
0.10659735050515338 -0.10565470811770665 0.0 -0.03625480440886712 0.0 0.0
0.12098132146801319 -0.12017272828991121 0.0 -0.0372394731872466 0.0 0.0
0.13415867957640665 -0.1335454222186583 0.0 -0.03535438317189398 0.0 0.0
0.14486613386423303 -0.1444309728892324 0.0 -0.02858238336366514 0.0 0.0
0.14943254600047498 -0.15151451501240526 0.0 3.5410042953376575e-14 0.0 0.0
0.144866133864211 -0.14443097288920267 0.0 0.028582383363744655 0.0 0.0
0.13415867957636524 -0.13354542221861918 0.0 0.03535438317197341 0.0 0.0
0.12098132146795715 -0.12017272828982742 0.0 0.037239473187291594 0.0 0.0
0.10659735050508785 -0.10565470811763701 0.0 0.036254804408875616 0.0 0.0
0.09196429631603172 -0.09094212461033671 0.0 0.03378964042351054 0.0 0.0
0.07767166282920539 -0.07660823367836114 0.0 0.030483111682810406 0.0 0.0
0.064072076282161 -0.06299459170164155 0.0 0.026689512704734242 0.0 0.0
0.05138635993099819 -0.05031642576049314 0.0 0.022686102015224408 0.0 0.0
0.03975409767359763 -0.03870564864699923 0.0 0.01861318916319507 0.0 0.0
0.029287776929296253 -0.028255444627181287 0.0 0.014484170095620787 0.0 0.0
0.020137660146843123 -0.019104991867528984 0.0 0.010361499813183052 0.0 0.0
0.01252796945085081 -0.01149581211101807 0.0 0.0064873672628009095 0.0 0.0
0.006738415327975051 -0.005767159896995478 0.0 0.003287899993434685 0.0 0.0
0.002935217627312418 -0.002181072235073481 0.0 0.0011893427105828553 0.0 0.0
0.0009415085828784248 -0.0005466298603975287 0.0 0.00018149653630688916 0.0 0.0
0.0002134014272115409 -0.00010010747919496898 0.0 3.16919432403805e-06 0.0 0.0
8.003119366595126e-05 -4.8278217744723816e-05 0.0 0.00011592244850246498 0.0 0.0
0.00012909523998033012 -0.00010637383714405004 0.0 0.00010086515525589285 0.0 0.0
0.0015439076878655937 -0.0001147743689166009 0.0 0.0026082796295112025 0.0 0.0
0.0029113240532881593 -0.005895688638354128 0.0 0.0015315825745555415 0.0 0.0
0.002035196786008057 -0.004441649863714366 0.0 -0.0009449441381875795 0.0 0.0
0.0010934854039217523 0.00015287354130950594 0.0 -0.001892471104922188 0.0 0.0
0.00014224161137267014 -0.0001315006112113369 0.0 -1.816960703816792e-05 0.0 0.0
0.0001183235116949566 -7.563485697661996e-05 0.0 -0.00011778082694617262 0.0 0.0
0.00018281696389642031 -0.00010074094192455962 0.0 -8.528771191104238e-05 0.0 0.0
0.0006502914961895054 -0.0003464734290456631 0.0 -0.0002257571645257044 0.0 0.0
0.0020760328306779177 -0.0013914583660129876 0.0 -0.0010893433320941983 0.0 0.0
0.004987568869735495 -0.004004023694375253 0.0 -0.0030421612496561393 0.0 0.0
0.009580373657675277 -0.008476658369523582 0.0 -0.006090788022529906 0.0 0.0
0.015718644924408408 -0.014587472276781126 0.0 -0.00992705704199794 0.0 0.0
0.023108229620428376 -0.021953393282384145 0.0 -0.014054001943178821 0.0 0.0
0.031519184901017065 -0.030327941909492166 0.0 -0.01819019340939258 0.0 0.0
0.040841119556947775 -0.03960748223488792 0.0 -0.022264645643417243 0.0 0.0
0.05102076451666971 -0.04975390442388881 0.0 -0.02627890571144985 0.0 0.0
0.06198845528016168 -0.060709345267241685 0.0 -0.030105281021347213 0.0 0.0
0.0736097763193545 -0.07234117090576739 0.0 -0.03347254716412056 0.0 0.0
0.08567874650875848 -0.08442234427092757 0.0 -0.036070423089922456 0.0 0.0
0.09788626406790507 -0.09664823057010677 0.0 -0.037463072752243594 0.0 0.0
0.10966439474075051 -0.10849760101899522 0.0 -0.036287642539856425 0.0 0.0
0.1200423680102683 -0.11897790906655886 0.0 -0.03008449825699081 0.0 0.0
0.12473332571497822 -0.12682825437607206 0.0 3.4915646762723185e-14 0.0 0.0
0.12004236801024995 -0.11897790906653957 0.0 0.030084498257068215 0.0 0.0
0.10966439474071575 -0.10849760101894515 0.0 0.03628764253993203 0.0 0.0
0.09788626406785866 -0.09664823057004779 0.0 0.03746307275228562 0.0 0.0
0.08567874650870529 -0.0844223442708784 0.0 0.03607042308992549 0.0 0.0
0.073609776319297 -0.07234117090571851 0.0 0.0334725471641072 0.0 0.0
0.06198845528010355 -0.060709345267183246 0.0 0.03010528102133072 0.0 0.0
0.0510207645166141 -0.0497539044238295 0.0 0.02627890571143416 0.0 0.0
0.04084111955689584 -0.03960748223483994 0.0 0.022264645643402158 0.0 0.0
0.03151918490096882 -0.030327941909453968 0.0 0.018190193409366465 0.0 0.0
0.02310822962038533 -0.021953393282340312 0.0 0.014054001943146651 0.0 0.0
0.01571864492437318 -0.014587472276743549 0.0 0.009927057041970935 0.0 0.0
0.009580373657649618 -0.008476658369505223 0.0 0.00609078802251119 0.0 0.0
0.004987568869718842 -0.0040040236943618595 0.0 0.003042161249643888 0.0 0.0
0.0020760328306684574 -0.0013914583660060232 0.0 0.0010893433320837735 0.0 0.0
0.0006502914961858369 -0.00034647342904484027 0.0 0.00022575716452174523 0.0 0.0
0.00018281696389575922 -0.00010074094192200863 0.0 8.528771190976997e-05 0.0 0.0
0.00011832351169499471 -7.563485697467017e-05 0.0 0.00011778082694307939 0.0 0.0
0.00014224161137259684 -0.00013150061121309058 0.0 1.8169607036294585e-05 0.0 0.0
0.0010934854039182922 0.00015287354131012724 0.0 0.0018924711049144696 0.0 0.0
0.0020351967860015785 -0.0044416498637019535 0.0 0.0009449441381820632 0.0 0.0
0.0013422088758409537 -0.003227217197205965 0.0 -0.0005254452779699685 0.0 0.0
0.0007352862902389902 0.00032349426044215863 0.0 -0.001313439050351728 0.0 0.0
0.0001429925638126642 -0.0001306410977613647 0.0 5.0219780504799485e-05 0.0 0.0
0.00013639149348060545 -8.791671159785698e-05 0.0 -0.00010000456449016838 0.0 0.0
0.00016260429510751135 -0.0001013434009788349 0.0 -0.00015575955531649434 0.0 0.0
0.00044072336040518927 -0.00023168908311268658 0.0 -0.00031056817779948396 0.0 0.0
0.0013617806168121007 -0.0008107766293626256 0.0 -0.0009548726436442374 0.0 0.0
0.0034087540676626814 -0.0024964831618487547 0.0 -0.0025755743479257717 0.0 0.0
0.006798721014860209 -0.005681518400810831 0.0 -0.005219501501511509 0.0 0.0
0.011425283197381238 -0.01023690522897232 0.0 -0.008644535016133496 0.0 0.0
0.017024259861056313 -0.015785463870556096 0.0 -0.012452549308149307 0.0 0.0
0.023374204743891035 -0.0220753165625365 0.0 -0.01631495257456162 0.0 0.0
0.030382848107461155 -0.029021273598290258 0.0 -0.020125116155907497 0.0 0.0
0.03804233056746373 -0.0366269850771201 0.0 -0.023883973107480513 0.0 0.0
0.046360869080335265 -0.044904797471486166 0.0 -0.027512780067332116 0.0 0.0
0.055288374036865526 -0.05381101027211142 0.0 -0.030757195776232878 0.0 0.0
0.06471698489501353 -0.06321075975577137 0.0 -0.033277806619870114 0.0 0.0
0.07459338881431335 -0.07299162820421883 0.0 -0.03486364492481007 0.0 0.0
0.08481858567644192 -0.08311776502560385 0.0 -0.034765839571165254 0.0 0.0
0.09484757730810894 -0.09314613511813762 0.0 -0.030360848534788418 0.0 0.0
0.09970312666197692 -0.10192367427233152 0.0 3.145574078988744e-14 0.0 0.0
0.09484757730809418 -0.09314613511812776 0.0 0.030360848534862032 0.0 0.0
0.08481858567641433 -0.08311776502556893 0.0 0.03476583957123651 0.0 0.0
0.07459338881427753 -0.0729916282041897 0.0 0.034863644924852326 0.0 0.0
0.06471698489497228 -0.06321075975572521 0.0 0.03327780661987371 0.0 0.0
0.055288374036821096 -0.05381101027208023 0.0 0.030757195776218348 0.0 0.0
0.046360869080290454 -0.04490479747143373 0.0 0.027512780067315078 0.0 0.0
0.03804233056742322 -0.03662698507708246 0.0 0.023883973107468464 0.0 0.0
0.030382848107423956 -0.02902127359825503 0.0 0.020125116155891114 0.0 0.0
0.023374204743854224 -0.022075316562505314 0.0 0.01631495257453699 0.0 0.0
0.017024259861023933 -0.01578546387052161 0.0 0.012452549308120293 0.0 0.0
0.01142528319735568 -0.010236905228950259 0.0 0.008644535016107603 0.0 0.0
0.006798721014841732 -0.005681518400797129 0.0 0.005219501501495596 0.0 0.0
0.003408754067651009 -0.0024964831618380424 0.0 0.0025755743479154484 0.0 0.0
0.001361780616806315 -0.0008107766293580441 0.0 0.000954872643638953 0.0 0.0
0.0004407233604036449 -0.0002316890831126815 0.0 0.00031056817779875136 0.0 0.0
0.00016260429510725821 -0.00010134340097724245 0.0 0.0001557595553149873 0.0 0.0
0.00013639149348041452 -8.791671159764582e-05 0.0 0.00010000456448736885 0.0 0.0
0.00014299256381271975 -0.00013064109776098827 0.0 -5.021978050553955e-05 0.0 0.0
0.0007352862902363081 0.0003234942604413577 0.0 0.0013134390503461658 0.0 0.0
0.0013422088758350448 -0.0032272171971958184 0.0 0.0005254452779653004 0.0 0.0
0.0008228927018925633 -0.002251336303438228 0.0 -0.000281195850375204 0.0 0.0
0.0004601351894312536 0.0004102586714747978 0.0 -0.0008485282564165826 0.0 0.0
0.0001285198944364758 -0.00010917183606866579 0.0 0.00010059181674361081 0.0 0.0
0.00013500834426788925 -8.726868375844967e-05 0.0 -7.383991774848639e-05 0.0 0.0
0.0001368679651871507 -8.922838047272722e-05 0.0 -0.0001999011242061326 0.0 0.0
0.0002857130802872774 -0.00016041688219015906 0.0 -0.000422974905507592 0.0 0.0
0.0007973624368388745 -0.0004317955037962612 0.0 -0.0008762932830371332 0.0 0.0
0.0020381485124862414 -0.0013142746511241616 0.0 -0.001970484517245756 0.0 0.0
0.004237967133306396 -0.003224117913849255 0.0 -0.003945958078920154 0.0 0.0
0.007333325955959945 -0.006173316839319592 0.0 -0.006620090518736112 0.0 0.0
0.011106396387085911 -0.009853714931431735 0.0 -0.009732609341542268 0.0 0.0
0.015373409794468 -0.01403667532129217 0.0 -0.01299209382758356 0.0 0.0
0.02006293438329468 -0.018642551681746618 0.0 -0.016278397308374527 0.0 0.0
0.02519507769888312 -0.023703173180626744 0.0 -0.019541218603816354 0.0 0.0
0.03083655928754036 -0.029278684330142385 0.0 -0.022727222664299777 0.0 0.0
0.0370431899572293 -0.03542362801408494 0.0 -0.02569220559597507 0.0 0.0
0.043803313748061665 -0.04212152572027479 0.0 -0.028081843088087876 0.0 0.0
0.051166657905162186 -0.049341213687411525 0.0 -0.029584146751527294 0.0 0.0
0.05949454373347848 -0.05736484959312778 0.0 -0.03028804314938112 0.0 0.0
0.06897623953882619 -0.06661489845247862 0.0 -0.028875642261524656 0.0 0.0
0.0739819893136475 -0.07645066972277018 0.0 2.716490227205881e-14 0.0 0.0
0.06897623953881554 -0.06661489845246372 0.0 0.02887564226158617 0.0 0.0
0.05949454373345986 -0.057364849593113276 0.0 0.030288043149449405 0.0 0.0
0.05116665790513712 -0.04934121368739422 0.0 0.029584146751563713 0.0 0.0
0.04380331374803256 -0.04212152572023697 0.0 0.02808184308808491 0.0 0.0
0.037043189957198755 -0.03542362801406942 0.0 0.025692205595958324 0.0 0.0
0.030836559287511237 -0.029278684330117544 0.0 0.02272722266428438 0.0 0.0
0.025195077698858575 -0.02370317318060514 0.0 0.019541218603807756 0.0 0.0
0.020062934383271353 -0.01864255168172122 0.0 0.016278397308362478 0.0 0.0
0.015373409794445039 -0.014036675321262931 0.0 0.012992093827559757 0.0 0.0
0.01110639638706542 -0.009853714931413004 0.0 0.009732609341521465 0.0 0.0
0.007333325955943398 -0.006173316839307791 0.0 0.006620090518716423 0.0 0.0
0.004237967133294901 -0.003224117913837404 0.0 0.0039459580789093455 0.0 0.0
0.002038148512478705 -0.001314274651114283 0.0 0.0019704845172390344 0.0 0.0
0.0007973624368353429 -0.00043179550379522706 0.0 0.0008762932830336406 0.0 0.0
0.0002857130802863125 -0.00016041688219060608 0.0 0.0004229749055082486 0.0 0.0
0.00013686796518685185 -8.922838047315497e-05 0.0 0.00019990112420661667 0.0 0.0
0.00013500834426806766 -8.726868375970357e-05 0.0 7.383991774738955e-05 0.0 0.0
0.00012851989443647715 -0.00010917183606662513 0.0 -0.0001005918167423041 0.0 0.0
0.0004601351894296593 0.000410258671473297 0.0 0.0008485282564133522 0.0 0.0
0.0008228927018895744 -0.0022513363034301933 0.0 0.0002811958503735675 0.0 0.0
0.00046379683071225586 -0.0015035254544121719 0.0 -0.00016171329861181774 0.0 0.0
0.0002599702945583397 0.00042220891060484585 0.0 -0.0004997105286469592 0.0 0.0
9.8594302984078e-05 -7.023670767751005e-05 0.0 0.00013096182623856915 0.0 0.0
0.00011768067174296233 -7.671886122213865e-05 0.0 -4.633630699678196e-05 0.0 0.0
9.76881832806994e-05 -6.477504264544698e-05 0.0 -0.0002207700430664191 0.0 0.0
0.00015441785996719276 -9.50309929699759e-05 0.0 -0.000512605369033425 0.0 0.0
0.0003656490085896745 -0.0001948835917211478 0.0 -0.0008978901132457482 0.0 0.0
0.0009042645302412846 -0.0005148321325131961 0.0 -0.0014542288574246728 0.0 0.0
0.0019553702576931044 -0.0012970594154750287 0.0 -0.002460153424412276 0.0 0.0
0.003513171241533817 -0.002630793427938289 0.0 -0.004082005111171317 0.0 0.0
0.005429267573523584 -0.0043798697937670735 0.0 -0.006247030288292405 0.0 0.0
0.007580104321288524 -0.0064108483278767555 0.0 -0.008733736609706179 0.0 0.0
0.009929715299403858 -0.008660157740041828 0.0 -0.011368288489635763 0.0 0.0
0.012525059650722299 -0.011165557110968432 0.0 -0.01408059159718071 0.0 0.0
0.015462141347214495 -0.014011306222214519 0.0 -0.016839413762333444 0.0 0.0
0.018889869214893967 -0.017339073432970697 0.0 -0.01956666324210118 0.0 0.0
0.022961330579612655 -0.021298469506990395 0.0 -0.02198242268599171 0.0 0.0
0.027769079069137937 -0.025971021653886917 0.0 -0.023529531316131926 0.0 0.0
0.03374215577372057 -0.03156838817898896 0.0 -0.02410413111115164 0.0 0.0
0.0420694642222429 -0.039182056361218374 0.0 -0.025008498483736534 0.0 0.0
0.047018540669899335 -0.04991739682562065 0.0 2.2008436739717752e-14 0.0 0.0
0.04206946422223825 -0.0391820563612128 0.0 0.025008498483790643 0.0 0.0
0.03374215577371067 -0.03156838817897969 0.0 0.02410413111120613 0.0 0.0
0.02776907906912287 -0.025971021653870354 0.0 0.02352953131615145 0.0 0.0
0.02296133057959675 -0.021298469506976107 0.0 0.021982422685981613 0.0 0.0
0.018889869214879024 -0.017339073432952403 0.0 0.019566663242079455 0.0 0.0
0.01546214134720161 -0.014011306222205769 0.0 0.01683941376232063 0.0 0.0
0.012525059650712897 -0.011165557110956167 0.0 0.014080591597173592 0.0 0.0
0.009929715299394334 -0.008660157740033921 0.0 0.011368288489626266 0.0 0.0
0.007580104321278804 -0.0064108483278681565 0.0 0.00873373660969023 0.0 0.0
0.005429267573515292 -0.0043798697937610575 0.0 0.006247030288276614 0.0 0.0
0.003513171241526865 -0.002630793427930674 0.0 0.004082005111158896 0.0 0.0
0.0019553702576882138 -0.0012970594154735613 0.0 0.0024601534244058994 0.0 0.0
0.0009042645302384445 -0.0005148321325096594 0.0 0.001454228857420769 0.0 0.0
0.0003656490085886006 -0.00019488359172062535 0.0 0.0008978901132440647 0.0 0.0
0.00015441785996663123 -9.503099296979451e-05 0.0 0.0005126053690321183 0.0 0.0
9.768818328026375e-05 -6.477504264653835e-05 0.0 0.00022077004306630336 0.0 0.0
0.0001176806717428537 -7.671886122229428e-05 0.0 4.6336306996161705e-05 0.0 0.0
9.859430298408716e-05 -7.023670767710513e-05 0.0 -0.00013096182623752864 0.0 0.0
0.00025997029455726746 0.00042220891060414426 0.0 0.0004997105286455268 0.0 0.0
0.0004637968307102093 -0.0015035254544065054 0.0 0.00016171329861109092 0.0 0.0
0.00023321507425734842 -0.0009733300090843272 0.0 -0.00013943863496605367 0.0 0.0
0.00011983232310079751 0.0003763770085045293 0.0 -0.00028539336853956323 0.0 0.0
5.7421924683160585e-05 -2.1738664805788484e-05 0.0 0.00014077287789772844 0.0 0.0
8.873134616980654e-05 -5.8775159381328914e-05 0.0 -1.852105098835016e-05 0.0 0.0
4.964951547886538e-05 -3.2744268900791794e-05 0.0 -0.00022112869364939293 0.0 0.0
1.9177267078837798e-05 -2.1570074630063876e-05 0.0 -0.0005421269852279772 0.0 0.0
2.647418853883357e-06 -1.3264078827770178e-05 0.0 -0.0009438202375017482 0.0 0.0
-4.1064318841609255e-06 -1.4937078499413143e-06 0.0 -0.001260496559605339 0.0 0.0
-4.313624477052843e-06 1.9261917088338746e-06 0.0 -0.0016870232073202514 0.0 0.0
-2.6805084388573357e-06 1.7679325930953442e-06 0.0 -0.0027010846832808914 0.0 0.0
-5.812847986941955e-06 4.2837848099453834e-06 0.0 -0.004363208123914399 0.0 0.0
-2.1841939392026064e-05 2.0344079508463988e-05 0.0 -0.006482081687362574 0.0 0.0
-4.425341036696736e-05 4.451133547841524e-05 0.0 -0.008802440223955757 0.0 0.0
-2.3102148338144174e-05 3.655739623684357e-05 0.0 -0.011265959272691752 0.0 0.0
0.0001693703472352402 -0.0001153688894582382 0.0 -0.013872630477506902 0.0 0.0
0.0007694286798154433 -0.000628157861992776 0.0 -0.01657366364279931 0.0 0.0
0.0021138064111713315 -0.0018094564583746873 0.0 -0.01923378936999062 0.0 0.0
0.004498389067186482 -0.003946393302995351 0.0 -0.021563185487782806 0.0 0.0
0.008069407852848388 -0.007010583435803011 0.0 -0.02340607167747614 0.0 0.0
0.01416507865456026 -0.011860951372300105 0.0 -0.025875527763094597 0.0 0.0
0.018168750370580383 -0.02306215672130863 0.0 1.2993078835066285e-14 0.0 0.0
0.014165078654560657 -0.01186095137229991 0.0 0.0258755277631232 0.0 0.0
0.008069407852845828 -0.007010583435801485 0.0 0.023406071677493936 0.0 0.0
0.004498389067183301 -0.003946393302986622 0.0 0.021563185487784665 0.0 0.0
0.0021138064111720406 -0.001809456458369964 0.0 0.019233789369978535 0.0 0.0
0.0007694286798177803 -0.0006281578619847386 0.0 0.016573663642782524 0.0 0.0
0.0001693703472378039 -0.00011536888945120759 0.0 0.013872630477492851 0.0 0.0
-2.3102148332697142e-05 3.6557396230127263e-05 0.0 0.011265959272680683 0.0 0.0
-4.425341036113739e-05 4.4511335479359144e-05 0.0 0.008802440223939001 0.0 0.0
-2.184193938707202e-05 2.034407949452337e-05 0.0 0.006482081687348509 0.0 0.0
-5.812847983573013e-06 4.28378479800848e-06 0.0 0.004363208123902052 0.0 0.0
-2.6805084372837247e-06 1.767932598225572e-06 0.0 0.002701084683272052 0.0 0.0
-4.313624475530705e-06 1.9261917013322323e-06 0.0 0.0016870232073166146 0.0 0.0
-4.106431883775092e-06 -1.4937078513439195e-06 0.0 0.001260496559603535 0.0 0.0
2.6474188538223775e-06 -1.3264078826142567e-05 0.0 0.0009438202374987229 0.0 0.0
1.917726707892751e-05 -2.1570074631022437e-05 0.0 0.0005421269852245045 0.0 0.0
4.964951547882512e-05 -3.274426890477013e-05 0.0 0.0002211286936489288 0.0 0.0
8.873134616957162e-05 -5.877515937908231e-05 0.0 1.852105098826144e-05 0.0 0.0
5.742192468283458e-05 -2.17386648054906e-05 0.0 -0.00014077287789711983 0.0 0.0
0.00011983232310021466 0.0003763770085033063 0.0 0.00028539336853862377 0.0 0.0
0.00023321507425636475 -0.0009733300090806248 0.0 0.00013943863496578983 0.0 0.0
9.834611973057148e-05 -0.0006496691015278691 0.0 -0.00020278570078424918 0.0 0.0
3.1160041680501674e-05 0.0003042724456354287 0.0 -0.00019466258723793787 0.0 0.0
1.6481229482950482e-05 2.2629569615324956e-05 0.0 0.00013315644035271674 0.0 0.0
5.3579214851427844e-05 -3.616940451473217e-05 0.0 9.83416026489585e-06 0.0 0.0
-2.372526784369e-06 2.4943547843032315e-06 0.0 -0.00019568119836174198 0.0 0.0
-0.0001183694237393374 5.580709036561095e-05 0.0 -0.0005136372174078698 0.0 0.0
-0.0003624433856254564 0.00017242673709119265 0.0 -0.0009229830600353407 0.0 0.0
-0.0009125995409212193 0.0005137662350978115 0.0 -0.0014812725701735684 0.0 0.0
-0.0019619363703619747 0.0012999214390298666 0.0 -0.002473922423393935 0.0 0.0
-0.003517318277524306 0.002633687540970931 0.0 -0.004084009274635361 0.0 0.0
-0.00544313078981842 0.004390845887647434 0.0 -0.006249012718853678 0.0 0.0
-0.007626441266919005 0.0064532228481126155 0.0 -0.00874100224973723 0.0 0.0
-0.010015176927433037 0.00874744490327071 0.0 -0.011362086152842048 0.0 0.0
-0.012558877019243207 0.01123059645271435 0.0 -0.014053216314115798 0.0 0.0
-0.015104764805230948 0.013761733789527681 0.0 -0.016837020497242467 0.0 0.0
-0.017356618230569585 0.016058293165004497 0.0 -0.019756299786942988 0.0 0.0
-0.018882296696444638 0.017694105666722304 0.0 -0.022825329513961372 0.0 0.0
-0.019260558332183885 0.018215073862255054 0.0 -0.02615294071522956 0.0 0.0
-0.018084542696915024 0.017459520509963574 0.0 -0.02972461666213937 0.0 0.0
-0.013254831400812003 0.01426074268669628 0.0 -0.032236266985614034 0.0 0.0
-0.00945972865223027 0.0025452534644701597 0.0 1.5399140296246117e-14 0.0 0.0
-0.013254831400811157 0.014260742686695718 0.0 0.03223626698564294 0.0 0.0
-0.018084542696908193 0.017459520509968306 0.0 0.029724616662157977 0.0 0.0
-0.019260558332169244 0.01821507386225009 0.0 0.026152940715236342 0.0 0.0
-0.01888229669642537 0.01769410566671169 0.0 0.02282532951394941 0.0 0.0
-0.017356618230550628 0.016058293164985388 0.0 0.019756299786924756 0.0 0.0
-0.015104764805213153 0.013761733789517314 0.0 0.016837020497224145 0.0 0.0
-0.012558877019223766 0.011230596452695751 0.0 0.014053216314103976 0.0 0.0
-0.010015176927412467 0.008747444903257741 0.0 0.011362086152822581 0.0 0.0
-0.007626441266899195 0.006453222848093862 0.0 0.008741002249712887 0.0 0.0
-0.005443130789802009 0.004390845887624574 0.0 0.006249012718830766 0.0 0.0
-0.003517318277513247 0.002633687540961129 0.0 0.004084009274624088 0.0 0.0
-0.001961936370354902 0.0012999214390234113 0.0 0.002473922423387798 0.0 0.0
-0.0009125995409173325 0.0005137662350862314 0.0 0.0014812725701683813 0.0 0.0
-0.00036244338562393464 0.00017242673709084652 0.0 0.0009229830600322555 0.0 0.0
-0.00011836942373879143 5.580709036575462e-05 0.0 0.000513637217404971 0.0 0.0
-2.372526784294528e-06 2.4943547813458727e-06 0.0 0.00019568119836071773 0.0 0.0
5.357921485130667e-05 -3.616940451405768e-05 0.0 -9.834160264694852e-06 0.0 0.0
1.6481229482926795e-05 2.262956961455997e-05 0.0 -0.000133156440350815 0.0 0.0
3.116004168038868e-05 0.00030427244563385676 0.0 0.0001946625872377747 0.0 0.0
9.834611973003938e-05 -0.0006496691015257478 0.0 0.00020278570078474222 0.0 0.0
3.50754547756897e-05 -0.0004654723620010218 0.0 -0.00026980664556924795 0.0 0.0
-1.3743401466562206e-05 0.00023254756001693196 0.0 -0.00016959016381772158 0.0 0.0
-1.5733104333418637e-05 5.238107761994218e-05 0.0 0.00011262198211948513 0.0 0.0
1.865557742980357e-05 -1.2444435967688818e-05 0.0 3.881421366829284e-05 0.0 0.0
-5.377487527428482e-05 3.6778528323269715e-05 0.0 -0.00014639354627469844 0.0 0.0
-0.00025883344913011296 0.00013358909664969078 0.0 -0.00043453661557019347 0.0 0.0
-0.0007983024452536674 0.00041963082259858413 0.0 -0.0009242126064032308 0.0 0.0
-0.002042479468906921 0.0013126251873626451 0.0 -0.0020051939538079655 0.0 0.0
-0.004239532452599343 0.0032231787253940818 0.0 -0.00395624463344812 0.0 0.0
-0.007336697487385404 0.006176144995659324 0.0 -0.006621812574520786 0.0 0.0
-0.011121704324549427 0.009868238912544396 0.0 -0.00973596148985069 0.0 0.0
-0.015414899804527288 0.014076516286552234 0.0 -0.012978936110339005 0.0 0.0
-0.020130274237279023 0.018713282824096112 0.0 -0.01620151987814534 0.0 0.0
-0.02519967622755081 0.023737875817563495 0.0 -0.019390773187868023 0.0 0.0
-0.030456183591048937 0.0289991481190911 0.0 -0.022664728879588494 0.0 0.0
-0.035549812609440526 0.0341639603899474 0.0 -0.02622841863285807 0.0 0.0
-0.03996495417625013 0.03870634518810911 0.0 -0.030279882872749624 0.0 0.0
-0.04307700428727325 0.04199156585632151 0.0 -0.034844740066596956 0.0 0.0
-0.043828664909221736 0.04318302566706713 0.0 -0.03906142128535485 0.0 0.0
-0.03973562072129241 0.04020514203149835 0.0 -0.04076278288706398 0.0 0.0
-0.03603705098224174 0.02683237774608461 0.0 2.3175905639050143e-14 0.0 0.0
-0.0397356207212877 0.040205142031485695 0.0 0.04076278288712078 0.0 0.0
-0.04382866490920703 0.04318302566705394 0.0 0.03906142128540731 0.0 0.0
-0.043077004287246715 0.0419915658562945 0.0 0.034844740066614935 0.0 0.0
-0.0399649541762159 0.03870634518807451 0.0 0.030279882872735718 0.0 0.0
-0.03554981260940546 0.03416396038989942 0.0 0.026228418632834816 0.0 0.0
-0.030456183591015228 0.02899914811906002 0.0 0.022664728879565606 0.0 0.0
-0.0251996762275163 0.023737875817537352 0.0 0.01939077318785253 0.0 0.0
-0.020130274237244724 0.018713282824058562 0.0 0.01620151987812618 0.0 0.0
-0.015414899804494519 0.014076516286525956 0.0 0.01297893611031005 0.0 0.0
-0.011121704324520502 0.00986823891252054 0.0 0.009735961489820078 0.0 0.0
-0.00733669748736414 0.006176144995634887 0.0 0.006621812574502091 0.0 0.0
-0.00423953245258616 0.0032231787253850707 0.0 0.0039562446334371094 0.0 0.0
-0.0020424794688987417 0.001312625187347117 0.0 0.002005193953801416 0.0 0.0
-0.0007983024452491595 0.00041963082259714155 0.0 0.0009242126064008449 0.0 0.0
-0.00025883344912866046 0.00013358909664836649 0.0 0.00043453661556801845 0.0 0.0
-5.377487527414366e-05 3.6778528324786297e-05 0.0 0.000146393546274119 0.0 0.0
1.8655577429995864e-05 -1.244443596739639e-05 0.0 -3.881421366773105e-05 0.0 0.0
-1.5733104333502897e-05 5.2381077619489936e-05 0.0 -0.0001126219821185008 0.0 0.0
-1.3743401466910867e-05 0.00023254756001627865 0.0 0.00016959016381699183 0.0 0.0
3.5075454775282786e-05 -0.00046547236199969186 0.0 0.000269806645568544 0.0 0.0
1.0429069308342737e-05 -0.0003406153689085777 0.0 -0.0002785644556399905 0.0 0.0
-3.157562346154716e-05 0.00017038514942887122 0.0 -0.00016596219447676406 0.0 0.0
-3.697171116080774e-05 6.64480638982226e-05 0.0 8.470670158319979e-05 0.0 0.0
-1.1826877816309969e-05 8.208468900669686e-06 0.0 6.41004499755385e-05 0.0 0.0
-0.0001017486854207488 6.629176091647506e-05 0.0 -8.118686353438735e-05 0.0 0.0
-0.0004278125021305951 0.00022410115877404224 0.0 -0.00033412337328375864 0.0 0.0
-0.0013634553657823204 0.0008064086941516786 0.0 -0.0010059964953362467 0.0 0.0
-0.0034055435114622177 0.0024866159357122865 0.0 -0.0025953776668027426 0.0 0.0
-0.006795964981843764 0.0056767984398864105 0.0 -0.0052210141719028534 0.0 0.0
-0.011429916656613045 0.010241896554505615 0.0 -0.008647367745187116 0.0 0.0
-0.01703866544653284 0.015801121227608374 0.0 -0.01245556757295924 0.0 0.0
-0.02339943332078182 0.022101497574424027 0.0 -0.016277646259539025 0.0 0.0
-0.03040816464423443 0.029049952488633186 0.0 -0.019965581398619897 0.0 0.0
-0.03799421357041229 0.03660161386128296 0.0 -0.023572448986665745 0.0 0.0
-0.04598653641333111 0.04461068913080641 0.0 -0.02733507694297641 0.0 0.0
-0.053999672200261625 0.05271345832856779 0.0 -0.0316656068277647 0.0 0.0
-0.06137218905506735 0.06025824222357151 0.0 -0.03697361636533666 0.0 0.0
-0.06706056526773574 0.06624574258996235 0.0 -0.04296579718194186 0.0 0.0
-0.06939518618579396 0.06910905875449484 0.0 -0.047910045262398095 0.0 0.0
-0.06491243532036639 0.06606631542000051 0.0 -0.04934929189133115 0.0 0.0
-0.06035865379305509 0.05013109558341565 0.0 2.605728133264762e-14 0.0 0.0
-0.0649124353203576 0.06606631541999262 0.0 0.04934929189139621 0.0 0.0
-0.06939518618577173 0.06910905875445214 0.0 0.04791004526246305 0.0 0.0
-0.06706056526769832 0.06624574258993772 0.0 0.042965797181970355 0.0 0.0
-0.061372189055020315 0.06025824222352674 0.0 0.03697361636532847 0.0 0.0
-0.05399967220021239 0.05271345832851425 0.0 0.031665606827739015 0.0 0.0
-0.0459865364132814 0.04461068913074851 0.0 0.02733507694295295 0.0 0.0
-0.03799421357036259 0.03660161386124092 0.0 0.023572448986644488 0.0 0.0
-0.030408164644186726 0.02904995248858172 0.0 0.019965581398598203 0.0 0.0
-0.023399433320736674 0.022101497574383483 0.0 0.016277646259512033 0.0 0.0
-0.017038665446491862 0.0158011212275673 0.0 0.012455567572927017 0.0 0.0
-0.01142991665658114 0.010241896554467327 0.0 0.008647367745158594 0.0 0.0
-0.00679596498182242 0.005676798439867684 0.0 0.005221014171887444 0.0 0.0
-0.0034055435114492445 0.002486615935703389 0.0 0.0025953776667978485 0.0 0.0
-0.0013634553657764302 0.0008064086941479068 0.0 0.0010059964953332051 0.0 0.0
-0.000427812502128741 0.00022410115877185953 0.0 0.00033412337328188416 0.0 0.0
-0.00010174868542028709 6.629176091879604e-05 0.0 8.118686353436847e-05 0.0 0.0
-1.1826877816429151e-05 8.208468901242196e-06 0.0 -6.410044997603087e-05 0.0 0.0
-3.697171116132332e-05 6.644806390019813e-05 0.0 -8.47067015814118e-05 0.0 0.0
-3.1575623461505155e-05 0.0001703851494282867 0.0 0.00016596219447713854 0.0 0.0
1.0429069308982572e-05 -0.0003406153689071951 0.0 0.00027856445563840496 0.0 0.0
-1.0512903463656958e-06 -0.00024324385926899252 0.0 -0.00024846802110090776 0.0 0.0
-3.7922382011473656e-05 0.00012044425549282095 0.0 -0.00016304614221334876 0.0 0.0
-4.915565980496509e-05 6.87457918033683e-05 0.0 5.447773863028759e-05 0.0 0.0
-3.5123268448654476e-05 2.2306483902572546e-05 0.0 8.348682719666839e-05 0.0 0.0
-0.00015079080514784947 8.91171882020792e-05 0.0 -1.877013535185247e-06 0.0 0.0
-0.0006507837677516378 0.0003555854424664225 0.0 -0.0002445413698024129 0.0 0.0
-0.0020739505200814026 0.001384106226098843 0.0 -0.001113697742607252 0.0 0.0
-0.004977152316580759 0.003985630563958206 0.0 -0.0030423396501022704 0.0 0.0
-0.009577159141973927 0.008471989566167487 0.0 -0.006087860270876609 0.0 0.0
-0.015725383460393674 0.01459562776737985 0.0 -0.009931701740962012 0.0 0.0
-0.023118416168700577 0.021967336614722326 0.0 -0.014053591883367177 0.0 0.0
-0.031517254532587996 0.03033112157418033 0.0 -0.018129941539357115 0.0 0.0
-0.040801993566343155 0.03957298205060089 0.0 -0.02204031973004519 0.0 0.0
-0.05089768592183751 0.04964138380292881 0.0 -0.0258432830984113 0.0 0.0
-0.06164308935727719 0.06040883531208174 0.0 -0.02981939053346474 0.0 0.0
-0.07261920655598131 0.07149741659467908 0.0 -0.03454407085882278 0.0 0.0
-0.0829426948332651 0.08206989557201358 0.0 -0.040508260765227136 0.0 0.0
-0.09106080624825448 0.09062262732042836 0.0 -0.04726846038625753 0.0 0.0
-0.09450007175604698 0.09480367242274927 0.0 -0.05272036570371786 0.0 0.0
-0.08920161443612766 0.09106917546795652 0.0 -0.05416098975151087 0.0 0.0
-0.08373017087231885 0.07280185387833436 0.0 2.899243345400038e-14 0.0 0.0
-0.08920161443611418 0.09106917546794767 0.0 0.054160989751575475 0.0 0.0
-0.09450007175601643 0.09480367242270905 0.0 0.05272036570378981 0.0 0.0
-0.09106080624820725 0.09062262732039454 0.0 0.04726846038629761 0.0 0.0
-0.08294269483320704 0.082069895571948 0.0 0.04050826076522338 0.0 0.0
-0.07261920655591864 0.07149741659462666 0.0 0.03454407085880147 0.0 0.0
-0.06164308935721234 0.060408835312009246 0.0 0.02981939053344288 0.0 0.0
-0.05089768592177258 0.04964138380286579 0.0 0.02584328309838693 0.0 0.0
-0.04080199356628063 0.03957298205053589 0.0 0.022040319730017795 0.0 0.0
-0.03151725453253006 0.030331121574119144 0.0 0.01812994153932465 0.0 0.0
-0.023118416168649222 0.021967336614672293 0.0 0.014053591883331967 0.0 0.0
-0.015725383460352554 0.014595627767335695 0.0 0.00993170174093004 0.0 0.0
-0.009577159141944503 0.008471989566140176 0.0 0.006087860270858481 0.0 0.0
-0.004977152316562629 0.003985630563947478 0.0 0.003042339650088819 0.0 0.0
-0.002073950520072736 0.0013841062260913012 0.0 0.0011136977426011714 0.0 0.0
-0.000650783767748395 0.00035558544246464896 0.0 0.00024454136980180195 0.0 0.0
-0.00015079080514708443 8.911718820166776e-05 0.0 1.8770135362827895e-06 0.0 0.0
-3.5123268448373505e-05 2.2306483900948913e-05 0.0 -8.348682719612345e-05 0.0 0.0
-4.9155659804931224e-05 6.874579180413747e-05 0.0 -5.447773862954977e-05 0.0 0.0
-3.792238201170621e-05 0.00012044425549255275 0.0 0.00016304614221380703 0.0 0.0
-1.051290346874193e-06 -0.00024324385926803577 0.0 0.00024846802110211166 0.0 0.0
-8.018082061687347e-06 -0.0001663806005915552 0.0 -0.00020847841091180686 0.0 0.0
-4.017089826754401e-05 8.337596814590293e-05 0.0 -0.00015294647806071877 0.0 0.0
-5.54412703369307e-05 6.401535055922026e-05 0.0 2.8747441742402583e-05 0.0 0.0
-5.019711207733189e-05 2.7966011098543664e-05 0.0 9.6757215488423e-05 0.0 0.0
-0.00021106126326107415 0.00011146873561243564 0.0 7.821708842414901e-05 0.0 0.0
-0.00094866987819933 0.0005609303420154474 0.0 -0.00017867721015866488 0.0 0.0
-0.0029293946322360236 0.0021650353986659527 0.0 -0.0011794987113332902 0.0 0.0
-0.006727317972425342 0.005747585785458806 0.0 -0.003275524811958355 0.0 0.0
-0.012526550275985754 0.011494009720300841 0.0 -0.006483987534260437 0.0 0.0
-0.020145538749794085 0.019115558669515025 0.0 -0.01036738065208076 0.0 0.0
-0.029289760948472764 0.028263818702911572 0.0 -0.014477234460453656 0.0 0.0
-0.039717749943423274 0.03867920837660363 0.0 -0.018533478191842735 0.0 0.0
-0.05127102256773882 0.050208650884086534 0.0 -0.02243355274492046 0.0 0.0
-0.06385924858335214 0.06277975593675174 0.0 -0.02622024239064727 0.0 0.0
-0.07733951962844957 0.07628340237885534 0.0 -0.03012749154660417 0.0 0.0
-0.09124993271673731 0.09032978212541025 0.0 -0.034698114052056694 0.0 0.0
-0.10446430240199861 0.1038815850579045 0.0 -0.0405413219696863 0.0 0.0
-0.11486123187029762 0.1148922183131387 0.0 -0.047437871250151094 0.0 0.0
-0.1192101525794941 0.1201508090577566 0.0 -0.05344431649003654 0.0 0.0
-0.11316651733345148 0.1156771747589053 0.0 -0.05676069811201014 0.0 0.0
-0.1069307208980377 0.09564480794543613 0.0 3.0803484762920164e-14 0.0 0.0
-0.11316651733343261 0.1156771747588872 0.0 0.056760698112077096 0.0 0.0
-0.11921015257945514 0.12015080905771958 0.0 0.053444316490105864 0.0 0.0
-0.11486123187024058 0.11489221831307408 0.0 0.047437871250187974 0.0 0.0
-0.10446430240192861 0.10388158505781989 0.0 0.04054132196968578 0.0 0.0
-0.09124993271666058 0.09032978212533067 0.0 0.03469811405204307 0.0 0.0
-0.07733951962837049 0.07628340237877451 0.0 0.03012749154659035 0.0 0.0
-0.0638592485832739 0.06277975593667091 0.0 0.026220242390624905 0.0 0.0
-0.051271022567662215 0.05020865088400617 0.0 0.022433552744893486 0.0 0.0
-0.03971774994335211 0.038679208376535046 0.0 0.01853347819180963 0.0 0.0
-0.029289760948410667 0.0282638187028533 0.0 0.014477234460422376 0.0 0.0
-0.02014553874974359 0.01911555866946352 0.0 0.010367380652049448 0.0 0.0
-0.012526550275949126 0.01149400972026931 0.0 0.006483987534238879 0.0 0.0
-0.006727317972401181 0.005747585785439227 0.0 0.0032755248119416894 0.0 0.0
-0.0029293946322229663 0.0021650353986543466 0.0 0.0011794987113295386 0.0 0.0
-0.0009486698781943474 0.0005609303420105356 0.0 0.00017867721015648726 0.0 0.0
-0.00021106126325976505 0.00011146873560978197 0.0 -7.821708842403582e-05 0.0 0.0
-5.019711207713915e-05 2.796601109646798e-05 0.0 -9.675721548687049e-05 0.0 0.0
-5.5441270337068323e-05 6.40153505591107e-05 0.0 -2.8747441742050634e-05 0.0 0.0
-4.01708982673815e-05 8.337596814573655e-05 0.0 0.00015294647805991497 0.0 0.0
-8.018082061318356e-06 -0.0001663806005910395 0.0 0.0002084784109145679 0.0 0.0
-1.3789877317407811e-05 -0.0001059285387125908 0.0 -0.00016725344508796097 0.0 0.0
-4.201806362820278e-05 5.7563851144569976e-05 0.0 -0.00013541311459607398 0.0 0.0
-5.944181208555024e-05 5.683978558849592e-05 0.0 9.622041281491014e-06 0.0 0.0
-6.202485701244494e-05 2.578705415152112e-05 0.0 0.00010200304111697371 0.0 0.0
-0.0002967729882111154 0.0001449056250335432 0.0 0.000147655320713172 0.0 0.0
-0.0013320085135454214 0.0008677263107067174 0.0 -0.00012647263529557855 0.0 0.0
-0.0039205528158653795 0.0031446306764013215 0.0 -0.00116604750911073 0.0 0.0
-0.008620439955964758 0.007709780650058501 0.0 -0.003270607056283206 0.0 0.0
-0.015575218753564449 0.014646389636598305 0.0 -0.006301078997456382 0.0 0.0
-0.02462408635239814 0.023720861596541527 0.0 -0.00990865030351581 0.0 0.0
-0.03550597641841099 0.034626739812180216 0.0 -0.013740891286525284 0.0 0.0
-0.04795460840172135 0.04708582299765015 0.0 -0.017522300635545378 0.0 0.0
-0.06177359125242722 0.060904485769167974 0.0 -0.021176977860197115 0.0 0.0
-0.07683591709064404 0.07596546612432666 0.0 -0.02474494413066064 0.0 0.0
-0.09297774901598638 0.09213932647860651 0.0 -0.02831997934337482 0.0 0.0
-0.10971174687357776 0.10902287067532758 0.0 -0.03222398428492034 0.0 0.0
-0.12572237198818403 0.12544236741678857 0.0 -0.03713209909619121 0.0 0.0
-0.1383688332039178 0.1388766085224203 0.0 -0.04354010497975745 0.0 0.0
-0.1437353369287931 0.145310196100984 0.0 -0.05068383685639326 0.0 0.0
-0.1372561310848325 0.1403634816105337 0.0 -0.05772609840429988 0.0 0.0
-0.13046781497010546 0.11920562767699455 0.0 2.855181369110227e-14 0.0 0.0
-0.137256131084809 0.14036348161050505 0.0 0.057726098404363074 0.0 0.0
-0.1437353369287462 0.14531019610094817 0.0 0.050683836856457 0.0 0.0
-0.13836883320385127 0.13887660852234535 0.0 0.04354010497978998 0.0 0.0
-0.1257223719881024 0.12544236741670226 0.0 0.037132099096190425 0.0 0.0
-0.1097117468734869 0.10902287067522981 0.0 0.03222398428490632 0.0 0.0
-0.0929777490158946 0.09213932647850573 0.0 0.02831997934336377 0.0 0.0
-0.0768359170905528 0.07596546612423345 0.0 0.024744944130642207 0.0 0.0
-0.0617735912523371 0.060904485769075214 0.0 0.02117697786017607 0.0 0.0
-0.047954608401637504 0.04708582299756829 0.0 0.01752230063551493 0.0 0.0
-0.03550597641833797 0.03462673981210859 0.0 0.013740891286492068 0.0 0.0
-0.024624086352338898 0.02372086159648339 0.0 0.009908650303488793 0.0 0.0
-0.015575218753519696 0.014646389636557889 0.0 0.006301078997437349 0.0 0.0
-0.008620439955934993 0.007709780650035041 0.0 0.003270607056268803 0.0 0.0
-0.003920552815848915 0.003144630676384506 0.0 0.0011660475091040702 0.0 0.0
-0.0013320085135389882 0.00086772631069994 0.0 0.00012647263529331644 0.0 0.0
-0.0002967729882094445 0.00014490562503042916 0.0 -0.00014765532071202368 0.0 0.0
-6.202485701194631e-05 2.5787054151866536e-05 0.0 -0.00010200304111564272 0.0 0.0
-5.944181208561017e-05 5.683978558864488e-05 0.0 -9.622041280303474e-06 0.0 0.0
-4.201806362796393e-05 5.756385114464859e-05 0.0 0.00013541311459605836 0.0 0.0
-1.378987731679038e-05 -0.00010592853871244943 0.0 0.00016725344508783502 0.0 0.0
-1.9616359339123422e-05 -5.925754828797662e-05 0.0 -0.00012640690003738888 0.0 0.0
-4.560104800603595e-05 4.099466752946984e-05 0.0 -0.00011072950784468699 0.0 0.0
-6.475612255618097e-05 5.1036607091205897e-05 0.0 -2.828888732572475e-06 0.0 0.0
-7.674373143672746e-05 1.786625588751034e-05 0.0 0.00010175818390725195 0.0 0.0
-0.00042086779082888546 0.00020575460648084655 0.0 0.0002035481016638566 0.0 0.0
-0.0018108534739887036 0.0012980694165189506 0.0 -6.413994865410113e-05 0.0 0.0
-0.005036630912523075 0.0043032029326221174 0.0 -0.0010634767974027415 0.0 0.0
-0.010600642013445733 0.009793258249352592 0.0 -0.002918380369634691 0.0 0.0
-0.018659358025532796 0.017857547781839386 0.0 -0.005485860079166384 0.0 0.0
-0.029116910813560187 0.028357225106665572 0.0 -0.008572618928701026 0.0 0.0
-0.041718148033732264 0.041002414995765415 0.0 -0.011860339980159815 0.0 0.0
-0.05618196236362924 0.0554986466079634 0.0 -0.01511013443568824 0.0 0.0
-0.07226932593235798 0.07161067448137227 0.0 -0.01827347658985925 0.0 0.0
-0.08978085868051426 0.08915303535905196 0.0 -0.02139869047256771 0.0 0.0
-0.1084822803910475 0.1079110810927809 0.0 -0.024453262925448173 0.0 0.0
-0.12784428123841757 0.12742404753429631 0.0 -0.02738715088177513 0.0 0.0
-0.1464962886233301 0.1464883807444351 0.0 -0.03062880965481109 0.0 0.0
-0.16151071419441443 0.16242468975548768 0.0 -0.035692865515936596 0.0 0.0
-0.16830003341850586 0.1704991313046366 0.0 -0.04440320683137068 0.0 0.0
-0.1618806717805066 0.16553835834098019 0.0 -0.0568822471953293 0.0 0.0
-0.15478348381566373 0.14401965178356327 0.0 2.683443744988523e-14 0.0 0.0
-0.16188067178047824 0.16553835834094277 0.0 0.056882247195388036 0.0 0.0
-0.16830003341845148 0.1704991313045922 0.0 0.044403206831429766 0.0 0.0
-0.16151071419433785 0.16242468975539717 0.0 0.03569286551596604 0.0 0.0
-0.14649628862323702 0.1464883807443467 0.0 0.03062880965481226 0.0 0.0
-0.12784428123831343 0.12742404753419953 0.0 0.02738715088176563 0.0 0.0
-0.10848228039094036 0.10791108109267651 0.0 0.024453262925436266 0.0 0.0
-0.08978085868040941 0.08915303535894517 0.0 0.021398690472555455 0.0 0.0
-0.07226932593225525 0.07161067448127445 0.0 0.018273476589839167 0.0 0.0
-0.056181962363533414 0.05549864660786473 0.0 0.015110134435667139 0.0 0.0
-0.04171814803364808 0.0410024149956775 0.0 0.011860339980130936 0.0 0.0
-0.029116910813491687 0.02835722510660079 0.0 0.008572618928676029 0.0 0.0
-0.018659358025480775 0.017857547781787282 0.0 0.0054858600791506534 0.0 0.0
-0.010600642013410077 0.00979325824931898 0.0 0.002918380369622902 0.0 0.0
-0.005036630912502581 0.0043032029326033686 0.0 0.001063476797393099 0.0 0.0
-0.0018108534739794753 0.0012980694165109815 0.0 6.413994865261018e-05 0.0 0.0
-0.00042086779082649945 0.0002057546064791732 0.0 -0.00020354810166155858 0.0 0.0
-7.674373143638826e-05 1.7866255888592272e-05 0.0 -0.00010175818390617417 0.0 0.0
-6.47561225562319e-05 5.1036607091465854e-05 0.0 2.828888731181803e-06 0.0 0.0
-4.5601048006180864e-05 4.099466752925826e-05 0.0 0.00011072950784362013 0.0 0.0
-1.9616359338919385e-05 -5.925754828804464e-05 0.0 0.00012640690003484328 0.0 0.0
-2.592867769229398e-05 -2.4971495940928348e-05 0.0 -8.479638463066771e-05 0.0 0.0
-5.210310703845553e-05 3.2008957807728295e-05 0.0 -7.864293059007331e-05 0.0 0.0
-7.436305951168499e-05 4.905856238303356e-05 0.0 -7.4531559012617654e-06 0.0 0.0
-0.00010430686299382172 1.0736751713170296e-05 0.0 9.861149715883485e-05 0.0 0.0
-0.0005973497987476145 0.0003155692434704823 0.0 0.00023535610571777756 0.0 0.0
-0.0023905677268403432 0.0018718017312891627 0.0 1.431765092885859e-05 0.0 0.0
-0.006237880435746649 0.005591624170833001 0.0 -0.0007985974363694531 0.0 0.0
-0.012616265373004755 0.011931006735308159 0.0 -0.002153775403388669 0.0 0.0
-0.021743785995851746 0.021082075670246867 0.0 -0.0040571074366115385 0.0 0.0
-0.03357771501651703 0.032974940195830235 0.0 -0.006364169665517963 0.0 0.0
-0.0478799783962669 0.04734050620079354 0.0 -0.008840288584116975 0.0 0.0
-0.06435083446000979 0.06386699865635095 0.0 -0.01129867397014163 0.0 0.0
-0.0827054553200573 0.0822746086834198 0.0 -0.013718778441798434 0.0 0.0
-0.1026567202319488 0.10229247839856868 0.0 -0.016157548811349128 0.0 0.0
-0.12381931837594326 0.12355948380249038 0.0 -0.018505448175117976 0.0 0.0
-0.1455444870987504 0.14547082948807755 0.0 -0.02042158090774896 0.0 0.0
-0.16655383773624582 0.16681910550375398 0.0 -0.021849157203173954 0.0 0.0
-0.18412178177619778 0.18520917811220095 0.0 -0.024442044505097474 0.0 0.0
-0.1930639659866611 0.19581696357337047 0.0 -0.03341174967591299 0.0 0.0
-0.18747799558019565 0.1916828361566962 0.0 -0.05333998262172535 0.0 0.0
-0.1804077555792302 0.17080761723542484 0.0 1.8035919979730863e-14 0.0 0.0
-0.18747799558016343 0.19168283615667056 0.0 0.05333998262177063 0.0 0.0
-0.19306396598659775 0.19581696357330228 0.0 0.03341174967595402 0.0 0.0
-0.18412178177611005 0.18520917811211426 0.0 0.024442044505118284 0.0 0.0
-0.16655383773613872 0.1668191055036446 0.0 0.021849157203172855 0.0 0.0
-0.1455444870986326 0.14547082948796766 0.0 0.020421580907744756 0.0 0.0
-0.12381931837582308 0.12355948380237658 0.0 0.018505448175109147 0.0 0.0
-0.10265672023182956 0.10229247839844657 0.0 0.01615754881133608 0.0 0.0
-0.08270545531994121 0.08227460868330529 0.0 0.013718778441788083 0.0 0.0
-0.06435083445990215 0.06386699865624317 0.0 0.011298673970122455 0.0 0.0
-0.04787997839617295 0.04734050620069079 0.0 0.008840288584095218 0.0 0.0
-0.03357771501643985 0.03297494019574981 0.0 0.0063641696655014676 0.0 0.0
-0.021743785995792176 0.021082075670186915 0.0 0.0040571074366001015 0.0 0.0
-0.012616265372963792 0.011931006735267235 0.0 0.0021537754033794146 0.0 0.0
-0.006237880435722519 0.005591624170809002 0.0 0.000798597436363319 0.0 0.0
-0.0023905677268290975 0.001871801731277619 0.0 -1.4317650929207933e-05 0.0 0.0
-0.0005973497987450971 0.0003155692434696352 0.0 -0.00023535610571746607 0.0 0.0
-0.00010430686299404264 1.073675171361438e-05 0.0 -9.861149715767433e-05 0.0 0.0
-7.436305951200302e-05 4.9058562383552206e-05 0.0 7.453155900187297e-06 0.0 0.0
-5.2103107038121346e-05 3.2008957806494635e-05 0.0 7.864293059072752e-05 0.0 0.0
-2.592867769117466e-05 -2.4971495940739155e-05 0.0 8.479638462939891e-05 0.0 0.0
-3.2781790310418206e-05 -2.6468474040908564e-06 0.0 -3.9707422884396626e-05 0.0 0.0
-6.193720945029836e-05 2.9348575224218055e-05 0.0 -3.889417963628955e-05 0.0 0.0
-9.188789701738985e-05 5.172195154302772e-05 0.0 2.356938185538913e-07 0.0 0.0
-0.00015855457851633855 2.0086872692446032e-05 0.0 8.847124943563584e-05 0.0 0.0
-0.0008410495062735762 0.0005034451088108394 0.0 0.00023786611493650513 0.0 0.0
-0.00305403635235614 0.002574390153942266 0.0 0.0001383381435211834 0.0 0.0
-0.007490912883834687 0.0069563151158531355 0.0 -0.00029792526359353794 0.0 0.0
-0.014634134308970155 0.014086052694570618 0.0 -0.0010123822078514858 0.0 0.0
-0.024784661176597486 0.024275119636187375 0.0 -0.0020229311845203625 0.0 0.0
-0.03796021600718381 0.0375239631714783 0.0 -0.0032858788314589433 0.0 0.0
-0.05394321062911967 0.05359161081773762 0.0 -0.004671882997233919 0.0 0.0
-0.07241383605794942 0.07214352205051466 0.0 -0.006081346265355565 0.0 0.0
-0.0930324463288617 0.092842768341383 0.0 -0.0075180398276190625 0.0 0.0
-0.11540192480422165 0.11531722613986034 0.0 -0.00898598565865164 0.0 0.0
-0.13896359495419605 0.13904515458517938 0.0 -0.010374748010455685 0.0 0.0
-0.16286712895677874 0.16320260416931562 0.0 -0.011375530591428566 0.0 0.0
-0.18579395125207435 0.18648424834164698 0.0 -0.011600217497655642 0.0 0.0
-0.20566997434443537 0.20676342369326572 0.0 -0.011754145738145897 0.0 0.0
-0.2179122610504596 0.22058603413803113 0.0 -0.016957231107797646 0.0 0.0
-0.21471824373608803 0.2193044200467118 0.0 -0.04168091243824428 0.0 0.0
-0.20813923956471195 0.2014731575475792 0.0 1.268082860939046e-14 0.0 0.0
-0.21471824373605217 0.21930442004668232 0.0 0.041680912438275826 0.0 0.0
-0.2179122610503883 0.2205860341379577 0.0 0.01695723110782116 0.0 0.0
-0.20566997434433557 0.2067634236931745 0.0 0.01175414573815042 0.0 0.0
-0.18579395125195367 0.18648424834151014 0.0 0.011600217497652828 0.0 0.0
-0.16286712895664737 0.16320260416918136 0.0 0.011375530591427385 0.0 0.0
-0.13896359495406255 0.13904515458504257 0.0 0.01037474801045144 0.0 0.0
-0.11540192480408848 0.1153172261397249 0.0 0.008985985658643909 0.0 0.0
-0.09303244632873241 0.09284276834125076 0.0 0.00751803982761476 0.0 0.0
-0.07241383605782972 0.07214352205039086 0.0 0.006081346265346621 0.0 0.0
-0.05394321062901606 0.053591610817631884 0.0 0.0046718829972205635 0.0 0.0
-0.03796021600709945 0.0375239631713921 0.0 0.0032858788314487812 0.0 0.0
-0.024784661176532316 0.02427511963612229 0.0 0.0020229311845143642 0.0 0.0
-0.014634134308924268 0.01408605269452962 0.0 0.0010123822078463315 0.0 0.0
-0.00749091288380643 0.006956315115822257 0.0 0.0002979252635920733 0.0 0.0
-0.003054036352342248 0.0025743901539279574 0.0 -0.00013833814352136924 0.0 0.0
-0.0008410495062690849 0.0005034451088082863 0.0 -0.0002378661149357346 0.0 0.0
-0.00015855457851573473 2.0086872693631e-05 0.0 -8.847124943366226e-05 0.0 0.0
-9.188789701702665e-05 5.172195154194036e-05 0.0 -2.3569381881801566e-07 0.0 0.0
-6.193720945002472e-05 2.9348575223900194e-05 0.0 3.889417963872825e-05 0.0 0.0
-3.278179031075931e-05 -2.646847404084327e-06 0.0 3.970742288490818e-05 0.0 0.0
-4.050819639172902e-05 5.531030817918509e-06 0.0 -1.3338534481469883e-05 0.0 0.0
-7.464480449905148e-05 2.9456121768060994e-05 0.0 -1.4165354398912187e-05 0.0 0.0
-0.00012259491153067132 5.423340278508601e-05 0.0 9.375442684749437e-06 0.0 0.0
-0.00025642158540014703 3.1424951754760076e-05 0.0 0.00012529864466423988 0.0 0.0
-0.001157081868015877 0.0006215539989520606 0.0 0.0004373832834974346 0.0 0.0
-0.0037787023115297778 0.0029522304628782185 0.0 0.0006937594787160355 0.0 0.0
-0.008767727823979731 0.0076522710498019095 0.0 0.0008181733963375126 0.0 0.0
-0.016624291978366394 0.015164002582018582 0.0 0.0008447584168132605 0.0 0.0
-0.02774016644371932 0.025857782162217784 0.0 0.0007539332070940748 0.0 0.0
-0.04221546947106548 0.03977514002440704 0.0 0.0004909562872731006 0.0 0.0
-0.05986069785285498 0.056689011991179185 0.0 9.735722356807742e-05 0.0 0.0
-0.0803261544035765 0.0762533632431397 0.0 -0.00039952884015464346 0.0 0.0
-0.10318826351656868 0.09809625998012535 0.0 -0.001013648319271426 0.0 0.0
-0.12794380829427038 0.12179093268823389 0.0 -0.0017146524169640697 0.0 0.0
-0.15388458052817927 0.14674207222583502 0.0 -0.0024732029931259832 0.0 0.0
-0.17992470785929401 0.17199945557402674 0.0 -0.0031121339744646422 0.0 0.0
-0.20451216838546737 0.19617907933711703 0.0 -0.0032672919942311265 0.0 0.0
-0.225691341295647 0.2171770077721058 0.0 -0.0030220111140032806 0.0 0.0
-0.2412014910242333 0.2326653062678741 0.0 -0.006118735269210652 0.0 0.0
-0.2441567503786723 0.2335407029066937 0.0 -0.03308854408971779 0.0 0.0
-0.24107453185914257 0.21814332011294307 0.0 3.913536161803677e-15 0.0 0.0
-0.24415675037863258 0.23354070290665147 0.0 0.033088544089733773 0.0 0.0
-0.24120149102415325 0.2326653062678058 0.0 0.006118735269221732 0.0 0.0
-0.2256913412955328 0.21717700777199628 0.0 0.003022011113995717 0.0 0.0
-0.20451216838533076 0.19617907933697376 0.0 0.003267291994230072 0.0 0.0
-0.1799247078591485 0.1719994555738789 0.0 0.0031121339744671697 0.0 0.0
-0.15388458052803206 0.14674207222569513 0.0 0.0024732029931214226 0.0 0.0
-0.12794380829412325 0.12179093268808938 0.0 0.0017146524169598318 0.0 0.0
-0.10318826351642607 0.09809625997999451 0.0 0.001013648319268999 0.0 0.0
-0.08032615440344525 0.07625336324300787 0.0 0.00039952884014942715 0.0 0.0
-0.05986069785274148 0.05668901199106885 0.0 -9.735722357678833e-05 0.0 0.0
-0.04221546947097302 0.03977514002432121 0.0 -0.0004909562872769425 0.0 0.0
-0.027740166443647716 0.02585778216215113 0.0 -0.0007539332070965379 0.0 0.0
-0.016624291978314592 0.01516400258197671 0.0 -0.0008447584168142664 0.0 0.0
-0.008767727823947653 0.0076522710497699525 0.0 -0.0008181733963343336 0.0 0.0
-0.0037787023115139337 0.002952230462862638 0.0 -0.0006937594787149854 0.0 0.0
-0.0011570818680098215 0.0006215539989478261 0.0 -0.00043738328349454745 0.0 0.0
-0.00025642158539887353 3.1424951756271616e-05 0.0 -0.00012529864466233613 0.0 0.0
-0.0001225949115304817 5.423340278245628e-05 0.0 -9.375442683735349e-06 0.0 0.0
-7.464480449896095e-05 2.9456121768461048e-05 0.0 1.4165354401291199e-05 0.0 0.0
-4.0508196391781526e-05 5.5310308176898376e-06 0.0 1.3338534482244125e-05 0.0 0.0
SCALARS Statev float 8
LOOKUP_TABLE default
0.0 0.02199605529783394 0.017051344974397906 -0.020036955220658893 0.0029856102462610143 -0.0014250073575894982 0.0 0.0
0.0 0.0077790233469477174 0.005904731776671411 -0.003920922310839579 -0.0019838094658318262 -0.007756549050943359 0.0 0.0
0.0 0.0003007524250125139 0.00036133366462127455 -0.000216834065439852 -0.00014449959918142296 -0.0004965602851957785 0.0 0.0
0.0 0.00027070836276955353 0.00018282369355920384 -0.00013150677431099264 -5.131691924821189e-05 4.7255300395701756e-05 0.0 0.0
0.0 0.0015424257367357367 0.001200965393006113 -0.0008926365026310388 -0.0003083288903750735 0.00024434051604570395 0.0 0.0
0.0 0.004175704095327994 0.004017253163741436 -0.0032826726081298654 -0.0007345805556115759 0.00047898332852538527 0.0 0.0
0.0 0.010070136120087522 0.009149656616086962 -0.008072146748315575 -0.0010775098677713703 0.0006456891162161982 0.0 0.0
0.0 0.019134481959703298 0.017136282374783898 -0.01578228196122152 -0.0013540004135623607 0.000704194331379011 0.0 0.0
0.0 0.03192753278791749 0.02833969041269838 -0.026707379309974362 -0.0016323111027240328 0.0006445407627515174 0.0 0.0
0.0 0.04858888839192456 0.04285021464513891 -0.04089960543678594 -0.0019506092083529626 0.0004183222086694676 0.0 0.0
0.0 0.06890437955408957 0.06048842405423051 -0.05816361733264672 -0.0023248067215837524 5.343941215108145e-05 0.0 0.0
0.0 0.09216581662965147 0.08092775165331889 -0.07817256528351149 -0.0027551863698072696 -0.0004232889779177592 0.0 0.0
0.0 0.11828927121299888 0.10378391919980716 -0.10055608665548088 -0.003227832544326219 -0.0010070642417734663 0.0 0.0
0.0 0.14674025265107168 0.12864358916789065 -0.12491779654827731 -0.0037257926196131146 -0.0016506131577157255 0.0 0.0
0.0 0.1769244814769274 0.15498477758448143 -0.15075721926946722 -0.004227558315014026 -0.0023612418796027878 0.0 0.0
0.0 0.20800687917360022 0.18204229201742528 -0.17733416238651592 -0.004708129630909192 -0.0030837469208486266 0.0 0.0
0.0 0.23870344809326888 0.20873189584457688 -0.20359047835905103 -0.00514141748552613 -0.003662053095986913 0.0 0.0
0.0 0.2674057182403276 0.23367103903284644 -0.2281682721653011 -0.0055027668675451695 -0.003889248361511393 0.0 0.0
0.0 0.2922716141960618 0.25528481662943053 -0.24949063967423413 -0.00579417695519582 -0.003679634298006598 0.0 0.0
0.0 0.31077813691206474 0.2715941893304849 -0.2656096703186449 -0.005984519011840512 -0.004736355582307173 0.0 0.0
0.0 0.31895362885910195 0.2782234648386905 -0.2722524635363798 -0.005971001302310382 3.882311139236094e-15 0.0 0.0
0.0 0.3107781369120294 0.2715941893304533 -0.2656096703186148 -0.005984519011838784 0.004736355582319539 0.0 0.0
0.0 0.292271614195974 0.2552848166293535 -0.24949063967415813 -0.005794176955194939 0.0036796342980210863 0.0 0.0
0.0 0.2674057182401975 0.2336710390327329 -0.22816827216519037 -0.005502766867542554 0.0038892483615145523 0.0 0.0
0.0 0.2387034480931166 0.20873189584444468 -0.20359047835892097 -0.005141417485523996 0.0036620530959836726 0.0 0.0
0.0 0.2080068791734546 0.18204229201729694 -0.17733416238639108 -0.004708129630905724 0.003083746920840574 0.0 0.0
0.0 0.17692448147676373 0.1549847775843391 -0.150757219269327 -0.004227558315012164 0.0023612418796014707 0.0 0.0
0.0 0.14674025265091484 0.12864358916775356 -0.12491779654814336 -0.0037257926196102385 0.0016506131577147852 0.0 0.0
0.0 0.11828927121284365 0.10378391919967207 -0.10055608665534807 -0.003227832544323744 0.0010070642417686444 0.0 0.0
0.0 0.09216581662950624 0.08092775165319212 -0.07817256528338688 -0.0027551863698051433 0.0004232889779127425 0.0 0.0
0.0 0.06890437955396425 0.06048842405412114 -0.05816361733253963 -0.002324806721581511 -5.343941215911908e-05 0.0 0.0
0.0 0.04858888839183019 0.04285021464505622 -0.04089960543670544 -0.0019506092083508536 -0.0004183222086724626 0.0 0.0
0.0 0.03192753278784593 0.02833969041263548 -0.026707379309913057 -0.0016323111027224185 -0.0006445407627503847 0.0 0.0
0.0 0.019134481959649074 0.017136282374735527 -0.015782281961174958 -0.001354000413560542 -0.000704194331379371 0.0 0.0
0.0 0.010070136120054106 0.009149656616056403 -0.008072146748286805 -0.0010775098677696018 -0.0006456891162159372 0.0 0.0
0.0 0.004175704095312776 0.0040172531637266895 -0.0032826726081169153 -0.0007345805556097829 -0.0004789833285240956 0.0 0.0
0.0 0.0015424257367303022 0.001200965393002027 -0.0008926365026280093 -0.0003083288903740147 -0.0002443405160445355 0.0 0.0
0.0 0.00027070836276732804 0.00018282369355788312 -0.0001315067743100356 -5.1316919247846755e-05 -4.72553003954852e-05 0.0 0.0
0.0 0.0003007524250107066 0.00036133366461966007 -0.00021683406543883987 -0.0001444995991808188 0.0004965602851937462 0.0 0.0
0.0 0.007779023346936887 0.005904731776665067 -0.003920922310834074 -0.001983809465830998 0.007756549050934482 0.0 0.0
0.0 0.02199605529780621 0.017051344974387265 -0.02003695522064473 0.0029856102462574572 0.0014250073575433786 0.0 0.0
0.0 0.017724827410671225 0.013516622169621993 -0.017235198011908044 0.003718575842286045 -0.0009836156419696961 0.0 0.0
0.0 0.005082808376849493 0.003654446606884199 -0.0023976610962740193 -0.0012567855106101796 -0.006328837431419267 0.0 0.0
0.0 -0.0001054325978568174 -8.138635905242527e-05 8.148205068310873e-05 -9.56916306835026e-08 -0.00015928284474572127 0.0 0.0
0.0 9.405408181075289e-05 8.477142986749536e-05 -6.115699531774917e-05 -2.3614434549746116e-05 2.3560264742746647e-05 0.0 0.0
0.0 0.0009660629019452065 0.0008383473769988017 -0.0006285175594219399 -0.0002098298175768608 9.007503157685156e-05 0.0 0.0
0.0 0.003614854484411453 0.0032139208614691515 -0.002655772344063739 -0.000558148517405418 3.300445903620377e-05 0.0 0.0
0.0 0.008692494438038293 0.007862406334952877 -0.0070375066568424925 -0.0008248996781103849 -0.0003829637848422317 0.0 0.0
0.0 0.01711658142585349 0.01519603169049573 -0.014218817024956275 -0.0009772146655394704 -0.0010763977524387732 0.0 0.0
0.0 0.029055479245385766 0.0255409717687393 -0.024456009500070618 -0.001084962268668669 -0.0020555566870135984 0.0 0.0
0.0 0.04451211931114074 0.03892174091079696 -0.03774360627604771 -0.0011781346347492741 -0.003287697158492249 0.0 0.0
0.0 0.06328182073654551 0.055132861929296145 -0.053865966163722724 -0.001266895765573477 -0.004663171901151569 0.0 0.0
0.0 0.0851080628859277 0.0738690182962051 -0.07251229624532314 -0.0013567220508818758 -0.006080140813057111 0.0 0.0
0.0 0.10903111027795583 0.09481273379349392 -0.09336518821605018 -0.0014475455774437007 -0.0075188566658475195 0.0 0.0
0.0 0.135378328232097 0.11760432164365323 -0.1160717783838703 -0.0015325432597829874 -0.008968443559753016 0.0 0.0
0.0 0.16331393847680697 0.1417789023428306 -0.1401770305943291 -0.0016018717485014149 -0.010369205251245189 0.0 0.0
0.0 0.19208970680094045 0.1666607053645758 -0.16501330024048455 -0.001647405124091398 -0.011571401286503358 0.0 0.0
0.0 0.2206177145295405 0.1912888989096368 -0.18962398413752635 -0.0016649147721103483 -0.012271409832040238 0.0 0.0
0.0 0.24743189688439476 0.2144062742082833 -0.21275031250672674 -0.0016559617015566494 -0.012123374543719544 0.0 0.0
0.0 0.27062027313202835 0.23440036019807925 -0.2327965065609563 -0.001603853637122673 -0.011098113214613375 0.0 0.0
0.0 0.2875344800576172 0.24889108131363696 -0.2474901217123326 -0.0014009596013043874 -0.010499998337130802 0.0 0.0
0.0 0.2950927864437057 0.2545569111478197 -0.2534593398465922 -0.0010975713012275627 1.0451708942760263e-14 0.0 0.0
0.0 0.28753448005757953 0.2488910813136034 -0.2474901217122994 -0.0014009596013038104 0.010499998337158532 0.0 0.0
0.0 0.2706202731319455 0.234400360198008 -0.23279650656088394 -0.001603853637123913 0.011098113214645287 0.0 0.0
0.0 0.24743189688428124 0.2144062742081853 -0.2127503125066291 -0.0016559617015561793 0.012123374543734597 0.0 0.0
0.0 0.2206177145294027 0.19128889890951856 -0.18962398413740764 -0.001664914772110899 0.012271409832038714 0.0 0.0
0.0 0.1920897068008016 0.16666070536445543 -0.16501330024036495 -0.0016474051240900278 0.011571401286495798 0.0 0.0
0.0 0.1633139384766598 0.14177890234270293 -0.1401770305942016 -0.001601871748501389 0.010369205251243204 0.0 0.0
0.0 0.13537832823195062 0.11760432164352647 -0.11607177838374398 -0.0015325432597824587 0.008968443559749052 0.0 0.0
0.0 0.10903111027781308 0.0948127337933709 -0.0933651882159272 -0.001447545577443761 0.007518856665839268 0.0 0.0
0.0 0.08510806288579571 0.07386901829609063 -0.07251229624520886 -0.0013567220508818663 0.006080140813046855 0.0 0.0
0.0 0.0632818207364304 0.05513286192919684 -0.05386596616362359 -0.0012668957655732726 0.004663171901138014 0.0 0.0
0.0 0.04451211931105186 0.038921740910719316 -0.03774360627597055 -0.0011781346347487294 0.003287697158483444 0.0 0.0
0.0 0.029055479245320842 0.025540971768682013 -0.024456009500014145 -0.0010849622686678719 0.002055556687009513 0.0 0.0
0.0 0.017116581425805213 0.015196031690453068 -0.014218817024914314 -0.000977214665538776 0.001076397752433501 0.0 0.0
0.0 0.008692494438008909 0.007862406334926542 -0.007037506656817153 -0.0008248996781093788 0.00038296378483915 0.0 0.0
0.0 0.003614854484396238 0.003213920861455764 -0.0026557723440518263 -0.0005581485174039332 -3.3004459036902386e-05 0.0 0.0
0.0 0.0009660629019412579 0.0008383473769958689 -0.000628517559419778 -0.0002098298175760923 -9.007503157622158e-05 0.0 0.0
0.0 9.405408180973617e-05 8.477142986711776e-05 -6.115699531748198e-05 -2.3614434549635595e-05 -2.3560264742644726e-05 0.0 0.0
0.0 -0.00010543259785714013 -8.138635905209463e-05 8.148205068280426e-05 -9.569163070999019e-08 0.00015928284474522165 0.0 0.0
0.0 0.005082808376837266 0.003654446606877663 -0.0023976610962691378 -0.0012567855106085269 0.006328837431407773 0.0 0.0
0.0 0.017724827410647417 0.013516622169602815 -0.017235198011884237 0.0037185758422814126 0.0009836156419338795 0.0 0.0
0.0 0.013533811987445356 0.010038617766414654 -0.013127056327324693 0.0030884385609100434 -0.0037939352346675623 0.0 0.0
0.0 0.0034930936486449 0.002248407759814427 -0.0013018062825391236 -0.0009466014772753079 -0.005686098508935209 0.0 0.0
0.0 -2.2235764934955943e-06 -5.541388200839885e-07 9.050791806359306e-07 -3.5094036055193787e-07 -8.159323551552923e-07 0.0 0.0
0.0 1.0467414464728424e-05 9.288519305381772e-06 -5.652350134716769e-06 -3.6361691706651286e-06 1.05899482606367e-05 0.0 0.0
0.0 0.0005144422754686772 0.0004706951627111244 -0.00034360431163871555 -0.00012709085107240903 5.376873169727231e-06 0.0 0.0
0.0 0.002672214583521044 0.0023340428845344484 -0.0018759426155187547 -0.0004581002690156905 -0.00021124064061219626 0.0 0.0
0.0 0.006934018430505458 0.006340280199719392 -0.005577381960263949 -0.0007628982394554402 -0.0010125719161190325 0.0 0.0
0.0 0.01448658226544287 0.012852898720797914 -0.011924381603892049 -0.0009285171169058585 -0.0023337847897181656 0.0 0.0
0.0 0.025193687377877902 0.02212146727745851 -0.021089532305634442 -0.0010319349718240375 -0.004177976093447444 0.0 0.0
0.0 0.039140072917540535 0.034109424357088275 -0.032992266957822425 -0.0011171573992658638 -0.006436712395626253 0.0 0.0
0.0 0.05598010019670315 0.048589615171003075 -0.04738925335462972 -0.001200361816373305 -0.008902428330902616 0.0 0.0
0.0 0.07526739348185055 0.06528119041009793 -0.0639950159933976 -0.001286174416700351 -0.011387878993246918 0.0 0.0
0.0 0.09703620616535685 0.0839126117002732 -0.0825403358223404 -0.0013722758779327274 -0.013841943133834054 0.0 0.0
0.0 0.12026027908193153 0.10420388722551958 -0.1027510271684467 -0.0014528600570729066 -0.016292884944255945 0.0 0.0
0.0 0.14523002451286385 0.12576822557853165 -0.12424741119881239 -0.0015208143797194795 -0.018660694228731723 0.0 0.0
0.0 0.1710154203114713 0.14804882438166744 -0.14648010674342352 -0.0015687176382438058 -0.020676715129769912 0.0 0.0
0.0 0.19669674063277653 0.17024208057837062 -0.16865083486980606 -0.001591245708564878 -0.021873741184124815 0.0 0.0
0.0 0.22093694706161102 0.1912031324207366 -0.1896247499141605 -0.001578382506576186 -0.02176580842411535 0.0 0.0
0.0 0.2418795322271435 0.20927973753179518 -0.20778061510904372 -0.001499122422751175 -0.02022531809118891 0.0 0.0
0.0 0.25699873689326447 0.22227650934002804 -0.22089428071026312 -0.001382228629764464 -0.01750505235569336 0.0 0.0
0.0 0.26410627390050534 0.2275142038399103 -0.22647286302528138 -0.00104134081462903 1.8987415806304142e-14 0.0 0.0
0.0 0.2569987368932245 0.22227650933999163 -0.2208942807102268 -0.0013822286297648326 0.01750505235574127 0.0 0.0
0.0 0.24187953222706235 0.2092797375317253 -0.20778061510897244 -0.0014991224227531362 0.020225318091237725 0.0 0.0
0.0 0.22093694706151085 0.19120313242065032 -0.189624749914073 -0.0015783825065771961 0.021765808424145532 0.0 0.0
0.0 0.19669674063266018 0.17024208057827062 -0.16865083486970664 -0.0015912457085642856 0.02187374118412467 0.0 0.0
0.0 0.17101542031133582 0.1480488243815502 -0.14648010674330628 -0.0015687176382439669 0.020676715129760687 0.0 0.0
0.0 0.14523002451273131 0.12576822557841671 -0.12424741119869787 -0.0015208143797187637 0.01866069422872601 0.0 0.0
0.0 0.12026027908179818 0.1042038872254045 -0.10275102716833152 -0.0014528600570729478 0.01629288494424839 0.0 0.0
0.0 0.09703620616523165 0.08391261170016506 -0.08254033582223282 -0.001372275877932197 0.013841943133821925 0.0 0.0
0.0 0.07526739348173464 0.06528119040999815 -0.0639950159932981 -0.0012861744167000035 0.011387878993228788 0.0 0.0
0.0 0.05598010019660474 0.04858961517091784 -0.04738925335454485 -0.0012003618163730111 0.008902428330884397 0.0 0.0
0.0 0.03914007291745858 0.03410942435701669 -0.032992266957751114 -0.0011171573992655524 0.006436712395610656 0.0 0.0
0.0 0.025193687377819494 0.022121467277407245 -0.021089532305584264 -0.0010319349718229856 0.004177976093438107 0.0 0.0
0.0 0.014486582265400389 0.01285289872076097 -0.011924381603855637 -0.0009285171169052985 0.0023337847897098507 0.0 0.0
0.0 0.006934018430481373 0.006340280199697761 -0.005577381960243361 -0.000762898239454411 0.0010125719161137908 0.0 0.0
0.0 0.002672214583507897 0.00233404288452315 -0.0018759426155089305 -0.0004581002690142201 0.00021124064061002248 0.0 0.0
0.0 0.0005144422754647662 0.00047069516270813774 -0.0003436043116365514 -0.0001270908510715861 -5.376873169654543e-06 0.0 0.0
0.0 1.046741446444885e-05 9.288519305285853e-06 -5.652350134654222e-06 -3.6361691706315755e-06 -1.0589948260565759e-05 0.0 0.0
0.0 -2.2235764933687515e-06 -5.541388201369633e-07 9.050791806677468e-07 -3.509403605307843e-07 8.15932355108253e-07 0.0 0.0
0.0 0.0034930936486352645 0.002248407759808835 -0.0013018062825353146 -0.0009466014772735101 0.00568609850892087 0.0 0.0
0.0 0.013533811987419752 0.010038617766395735 -0.01312705632730122 0.0030884385609054573 0.0037939352346439553 0.0 0.0
0.0 0.010444200015975125 0.007560684734392991 -0.010080046168529854 0.0025193614341368414 -0.004064789587416954 0.0 0.0
0.0 0.002605064315618301 0.0015774039452828746 -0.0008917511647934912 -0.0006856527804893771 -0.004425526714149286 0.0 0.0
0.0 0.0 0.0 0.0 0.0 0.0 0.0 0.0
0.0 -9.778252509577096e-06 -8.627577195808693e-06 6.902879419222967e-06 1.7246977765857254e-06 7.449789023804847e-06 0.0 0.0
0.0 0.00022826914473573806 0.0002033047953171121 -0.00014332423744617783 -5.998055787093349e-05 -1.0155605205500332e-05 0.0 0.0
0.0 0.0017464273685644707 0.0015795029675228197 -0.0012328752924028177 -0.0003466276751199983 -0.0003427108122798085 0.0 0.0
0.0 0.005513860709359383 0.004875779560904663 -0.004195020363356084 -0.0006807591975485763 -0.0013349554576939943 0.0 0.0
0.0 0.011915323528228685 0.010531920201505153 -0.009661261022561755 -0.0008706591789433947 -0.003165289359809603 0.0 0.0
0.0 0.02140409046889073 0.018678984376761708 -0.017704977138912684 -0.0009740072378490211 -0.0056625958373608 0.0 0.0
0.0 0.033756598572041475 0.02923891953900025 -0.02818635554210731 -0.0010525639968929287 -0.008689669580603982 0.0 0.0
0.0 0.048576615660070176 0.0419670050825447 -0.04083757631281942 -0.0011294287697251857 -0.011963641194489835 0.0 0.0
0.0 0.06568528912663933 0.056600605800944614 -0.055390229185234036 -0.001210376615710555 -0.015254995123217678 0.0 0.0
0.0 0.08451360971598104 0.07291622106886068 -0.0716239376738763 -0.001292283394984385 -0.018499590932315256 0.0 0.0
0.0 0.10538025697421703 0.09068494885399891 -0.08931690436164597 -0.001368044492352916 -0.021704413287551315 0.0 0.0
0.0 0.12724173325450852 0.10962013454210505 -0.10818606054512557 -0.0014340739969794418 -0.024782817931310635 0.0 0.0
0.0 0.1498506735562067 0.1292929508007739 -0.12780752473425674 -0.0014854260665171357 -0.027446825470457518 0.0 0.0
0.0 0.1727854705329704 0.14904643157126574 -0.14753502773660349 -0.0015114038346623433 -0.029169841665313133 0.0 0.0
0.0 0.19453177303322466 0.16785801591625876 -0.16636193730808346 -0.0014960786081752082 -0.02935132491819411 0.0 0.0
0.0 0.21340305936850934 0.18421176267437495 -0.1827774903003697 -0.001434272374005229 -0.027393754516257262 0.0 0.0
0.0 0.22723289227159008 0.19623827546806166 -0.19487782418798794 -0.0013604512800741522 -0.02231535224403481 0.0 0.0
0.0 0.23436253471745677 0.20140094800236932 -0.2005140208874127 -0.0008869271149566276 2.7490162923804462e-14 0.0 0.0
0.0 0.2272328922715587 0.19623827546803135 -0.1948778241879583 -0.001360451280073123 0.022315352244099928 0.0 0.0
0.0 0.21340305936844875 0.18421176267432066 -0.1827774903003153 -0.001434272374005193 0.02739375451632066 0.0 0.0
0.0 0.19453177303313735 0.16785801591618266 -0.16636193730800683 -0.0014960786081758717 0.0293513249182316 0.0 0.0
0.0 0.17278547053286963 0.14904643157117847 -0.1475350277365175 -0.0015114038346609642 0.02916984166531654 0.0 0.0
0.0 0.14985067355608706 0.12929295080067113 -0.12780752473415322 -0.001485426066517659 0.027446825470446322 0.0 0.0
0.0 0.12724173325439106 0.10962013454200326 -0.10818606054502374 -0.001434073996979626 0.02478281793129988 0.0 0.0
0.0 0.10538025697410414 0.09068494885390067 -0.08931690436154857 -0.0013680444923521936 0.021704413287541705 0.0 0.0
0.0 0.08451360971587038 0.07291622106876572 -0.07162393767378201 -0.0012922833949836686 0.018499590932298457 0.0 0.0
0.0 0.06568528912653672 0.05660060580085614 -0.05539022918514571 -0.0012103766157105247 0.015254995123193667 0.0 0.0
0.0 0.0485766156599832 0.04196700508246979 -0.04083757631274519 -0.0011294287697245168 0.011963641194466933 0.0 0.0
0.0 0.03375659857196701 0.02923891953893611 -0.02818635554204348 -0.0010525639968926 0.008689669580582345 0.0 0.0
0.0 0.02140409046883724 0.018678984376715477 -0.017704977138867088 -0.0009740072378483802 0.005662595837346442 0.0 0.0
0.0 0.011915323528189912 0.010531920201471 -0.009661261022528188 -0.0008706591789428118 0.003165289359798235 0.0 0.0
0.0 0.005513860709337877 0.004875779560886607 -0.004195020363339302 -0.0006807591975473029 0.001334955457687443 0.0 0.0
0.0 0.0017464273685547026 0.0015795029675148217 -0.0012328752923961726 -0.00034662767511864785 0.00034271081227731705 0.0 0.0
0.0 0.00022826914473227377 0.00020330479531453376 -0.00014332423744426907 -5.9980557870264305e-05 1.015560520507194e-05 0.0 0.0
0.0 -9.778252509792669e-06 -8.627577195752677e-06 6.902879419174906e-06 1.7246977765778014e-06 -7.449789023734152e-06 0.0 0.0
0.0 0.0 0.0 0.0 0.0 0.0 0.0 0.0
0.0 0.002605064315609747 0.001577403945277892 -0.0008917511647901246 -0.0006856527804877701 0.0044255267141364565 0.0 0.0
0.0 0.010444200015952927 0.007560684734375825 -0.010080046168508399 0.002519361434132558 0.004064789587399884 0.0 0.0
0.0 0.007831396267328667 0.005634582030844724 -0.007644385553882247 0.0020098035230375314 -0.0034857813882393086 0.0 0.0
0.0 0.0020919020465440955 0.001079886953854724 -0.0006007601171868716 -0.0004791268366678523 -0.0032937061312415424 0.0 0.0
0.0 0.0 0.0 0.0 0.0 0.0 0.0 0.0
0.0 -1.4816294091191815e-06 -1.330183758228862e-06 1.0663418648802245e-06 2.638418933486406e-07 1.8355136029094964e-06 0.0 0.0
0.0 3.5278977842371755e-05 4.843629503116617e-05 -3.0410229065429234e-05 -1.8026065965736972e-05 9.067526491947685e-06 0.0 0.0
0.0 0.0010901552362349146 0.0009528469471409692 -0.0007231651894269008 -0.00022968175771406825 -0.00035279291953009757 0.0 0.0
0.0 0.004145626742642772 0.00353064876019876 -0.002958068401711902 -0.0005725803584868547 -0.001436387481386066 0.0 0.0
0.0 0.009445662540796594 0.008268478986062125 -0.007467832862458855 -0.0008006461236032808 -0.0035315320881217156 0.0 0.0
0.0 0.017663406455606382 0.015258481772841767 -0.014348593999888547 -0.000909887772953232 -0.0065005506301346345 0.0 0.0
0.0 0.02837063399386868 0.024359956771663176 -0.02337716950578313 -0.0009827872658800317 -0.010045328951129891 0.0 0.0
0.0 0.04125254574967513 0.035315516092829936 -0.034262118121584785 -0.0010533979712451518 -0.013858118511568531 0.0 0.0
0.0 0.056003502629235785 0.04787831804511416 -0.04674950055670973 -0.0011288174884044144 -0.017688260524845532 0.0 0.0
0.0 0.07245853221927423 0.06186356929504469 -0.060657871798602256 -0.0012056974964423993 -0.021470855007740736 0.0 0.0
0.0 0.09003343242507264 0.07710960380272222 -0.07583149728180069 -0.0012781065209216584 -0.025200662541001655 0.0 0.0
0.0 0.10910522226556614 0.09339900861589386 -0.0920574086048551 -0.001341600011038663 -0.028757276078157045 0.0 0.0
0.0 0.12897405142643967 0.11042467143209779 -0.1090315476244378 -0.0013931238076600404 -0.0318654690790582 0.0 0.0
0.0 0.14882696859561031 0.12769445430228055 -0.1262701088145941 -0.0014243454876864553 -0.03407010116047264 0.0 0.0
0.0 0.16806813118337263 0.14437219116564584 -0.1429510028410901 -0.0014211883245556305 -0.034668430554908286 0.0 0.0
0.0 0.18510153868137363 0.15918858300383046 -0.15780938634530123 -0.001379196658529039 -0.03248206600384387 0.0 0.0
0.0 0.19805912936066616 0.17056024939653208 -0.169235461700915 -0.0013247876956172062 -0.025876488416382508 0.0 0.0
0.0 0.20548339314605987 0.17583251295496094 -0.1751422751111493 -0.0006902378438114716 3.300658357741071e-14 0.0 0.0
0.0 0.19805912936064027 0.17056024939650577 -0.16923546170088918 -0.0013247876956166084 0.02587648841645647 0.0 0.0
0.0 0.18510153868133056 0.15918858300378916 -0.15780938634526076 -0.0013791966585282342 0.03248206600391701 0.0 0.0
0.0 0.16806813118329914 0.1443721911655807 -0.14295100284102524 -0.0014211883245555017 0.034668430554949455 0.0 0.0
0.0 0.14882696859551986 0.12769445430220255 -0.12627010881451686 -0.0014243454876856623 0.03407010116047939 0.0 0.0
0.0 0.12897405142634277 0.11042467143201373 -0.10903154762435428 -0.0013931238076595378 0.031865469079046395 0.0 0.0
0.0 0.10910522226546784 0.09339900861580853 -0.09205740860477094 -0.0013416000110376206 0.028757276078143323 0.0 0.0
0.0 0.09003343242497903 0.07710960380264087 -0.07583149728172 -0.0012781065209208629 0.02520066254099039 0.0 0.0
0.0 0.07245853221917666 0.06186356929496106 -0.060657871798518566 -0.0012056974964423266 0.0214708550077201 0.0 0.0
0.0 0.05600350262914624 0.0478783180450377 -0.04674950055663321 -0.0011288174884044274 0.01768826052481877 0.0 0.0
0.0 0.041252545749599835 0.03531551609276597 -0.03426211812152163 -0.0010533979712443534 0.013858118511540273 0.0 0.0
0.0 0.028370633993801794 0.02435995677160649 -0.023377169505726318 -0.0009827872658801679 0.010045328951103652 0.0 0.0
0.0 0.017663406455561234 0.015258481772803145 -0.014348593999850293 -0.0009098877729528356 0.006500550630117754 0.0 0.0
0.0 0.009445662540763164 0.008268478986033417 -0.007467832862430947 -0.0008006461236024809 0.003531532088108195 0.0 0.0
0.0 0.004145626742625527 0.003530648760184824 -0.0029580684016992454 -0.0005725803584855735 0.0014363874813794835 0.0 0.0
0.0 0.0010901552362266684 0.0009528469471343998 -0.0007231651894216583 -0.00022968175771274235 0.00035279291952733713 0.0 0.0
0.0 3.527897784120628e-05 4.843629503053466e-05 -3.0410229064979474e-05 -1.8026065965555196e-05 -9.06752649184253e-06 0.0 0.0
0.0 -1.4816294092182084e-06 -1.3301837582607777e-06 1.0663418649039257e-06 2.638418933568349e-07 -1.835513602962159e-06 0.0 0.0
0.0 0.0 0.0 0.0 0.0 0.0 0.0 0.0
0.0 0.002091902046535942 0.0010798869538505816 -0.0006007601171840699 -0.0004791268366665102 0.003293706131230618 0.0 0.0
0.0 0.007831396267310317 0.0056345820308303105 -0.007644385553863967 0.0020098035230336495 0.003485781388227504 0.0 0.0
0.0 0.005827015698917015 0.004074285748062222 -0.005622768309899426 0.0015484825618371982 -0.0027434092618105277 0.0 0.0
0.0 0.0013677973072979055 0.0007086512521083378 -0.00038810896277039966 -0.0003205422893379369 -0.0023514019163756433 0.0 0.0
0.0 1.4483749750251462e-07 -3.087412547042466e-09 2.644247110450392e-09 4.4316543659177474e-10 2.8266529167811133e-08 0.0 0.0
0.0 -4.5770131099499316e-07 2.9610090929977088e-08 -1.7866752237617204e-08 -1.1743338692359872e-08 -2.1222305920967473e-10 0.0 0.0
0.0 -2.4637208217559434e-05 -1.5150209591881623e-05 1.4197497634859643e-05 9.52711957021973e-07 3.5751880011748006e-05 0.0 0.0
0.0 0.0005430249021321219 0.0004934097852937338 -0.0003644167277552415 -0.0001289930575384928 -0.00028628953046534657 0.0 0.0
0.0 0.0026913024321127597 0.0023643280221090825 -0.0019226926258430511 -0.0004416353962660305 -0.001381264926092076 0.0 0.0
0.0 0.007384641872767713 0.006110291086191477 -0.005403819650716181 -0.0007064714354752846 -0.0034906152471528354 0.0 0.0
0.0 0.013874922419682176 0.011903859013389879 -0.011069039952155968 -0.0008348190612339223 -0.006671830997018254 0.0 0.0
0.0 0.023075186547770056 0.019521147590839512 -0.018615096855878463 -0.0009060507349610482 -0.010498749050390454 0.0 0.0
0.0 0.033940186053251054 0.028687440511377983 -0.027716848582055705 -0.0009705919293222596 -0.014585549914742242 0.0 0.0
0.0 0.04631888810454877 0.03916814669637618 -0.03812774378559977 -0.0010404029107763846 -0.01868967597794148 0.0 0.0
0.0 0.06004142735294639 0.05081597604539335 -0.04970361620179152 -0.0011123598436018627 -0.022746103408619826 0.0 0.0
0.0 0.0750583022584921 0.06352461304379683 -0.06234474172527813 -0.0011798713185186107 -0.026748791144297082 0.0 0.0
0.0 0.09097145900666359 0.07715927565521272 -0.07591893086316427 -0.0012403447920485773 -0.030569707608241854 0.0 0.0
0.0 0.10756327934862595 0.09150446136677143 -0.09021265039578397 -0.001291810970987353 -0.033934079522615915 0.0 0.0
0.0 0.12493823077070623 0.1062174071130319 -0.10488766017170156 -0.0013297469413303309 -0.03647308151077207 0.0 0.0
0.0 0.14161066290251845 0.12073396419080716 -0.11938857045747878 -0.0013453937333284148 -0.03750881469728144 0.0 0.0
0.0 0.15674563099231378 0.13411218004129646 -0.13278694670820762 -0.0013252333330887934 -0.035545356179151784 0.0 0.0
0.0 0.16912180998523532 0.14502693902132496 -0.1437457433587644 -0.0012811956625605712 -0.02839101814642708 0.0 0.0
0.0 0.177098478410112 0.15054557712450262 -0.1500861719177883 -0.0004594052067139734 3.34038352534094e-14 0.0 0.0
0.0 0.16912180998520987 0.1450269390212983 -0.1437457433587364 -0.001281195662561804 0.028391018146504632 0.0 0.0
0.0 0.15674563099227234 0.13411218004125622 -0.13278694670816665 -0.001325233333089459 0.03554535617922924 0.0 0.0
0.0 0.14161066290245516 0.12073396419075039 -0.11938857045742116 -0.001345393733329036 0.03750881469732706 0.0 0.0
0.0 0.12493823077062695 0.10621740711296365 -0.1048876601716336 -0.0013297469413300425 0.03647308151077709 0.0 0.0
0.0 0.10756327934854651 0.09150446136670295 -0.09021265039571615 -0.0012918109709870215 0.03393407952260359 0.0 0.0
0.0 0.09097145900658127 0.07715927565514136 -0.07591893086309333 -0.0012403447920480005 0.030569707608226877 0.0 0.0
0.0 0.07505830225840994 0.06352461304372593 -0.06234474172520721 -0.0011798713185186957 0.026748791144281293 0.0 0.0
0.0 0.0600414273528657 0.050815976045325 -0.04970361620172285 -0.0011123598436021888 0.02274610340859951 0.0 0.0
0.0 0.04631888810447606 0.039168146696314875 -0.038127743785538674 -0.0010404029107761747 0.018689675977914287 0.0 0.0
0.0 0.03394018605319068 0.028687440511327753 -0.02771684858200625 -0.0009705919293215322 0.01458554991471316 0.0 0.0
0.0 0.023075186547714854 0.01952114759079323 -0.0186150968558323 -0.0009060507349609207 0.010498749050362261 0.0 0.0
0.0 0.013874922419648269 0.01190385901336078 -0.011069039952127482 -0.0008348190612333102 0.0066718309970015734 0.0 0.0
0.0 0.007384641872741531 0.006110291086170481 -0.005403819650695927 -0.0007064714354745546 0.003490615247140054 0.0 0.0
0.0 0.002691302432098412 0.002364328022097503 -0.0019226926258329954 -0.0004416353962645071 0.0013812649260847053 0.0 0.0
0.0 0.0005430249021267353 0.0004934097852897426 -0.00036441672775213953 -0.0001289930575376027 0.00028628953046251035 0.0 0.0
0.0 -2.463720821778369e-05 -1.5150209591394915e-05 1.419749763444884e-05 9.527119569460377e-07 -3.5751880010689824e-05 0.0 0.0
0.0 -4.577013109917756e-07 2.9610090827596324e-08 -1.786675215796351e-08 -1.1743338669629626e-08 2.122228518179854e-10 0.0 0.0
0.0 1.4483749738291524e-07 -3.0874125444692183e-09 2.6442471082460284e-09 4.431654362230215e-10 -2.8266529144286692e-08 0.0 0.0
0.0 0.0013677973072910448 0.0007086512521049823 -0.0003881089627681063 -0.0003205422893368738 0.0023514019163663976 0.0 0.0
0.0 0.005827015698902526 0.0040742857480507684 -0.005622768309884495 0.0015484825618337196 0.0027434092618026555 0.0 0.0
0.0 0.0040216679507793455 0.002817103180503249 -0.0039506291092996585 0.0011335259287964027 -0.0020664745295829795 0.0 0.0
0.0 0.0009037272305406299 0.00042138081256678844 -0.0002194409068821749 -0.0002019399056846132 -0.0015640065804747446 0.0 0.0
0.0 1.1853683892268223e-07 1.5421076153843974e-09 -7.818401241691979e-10 -7.602674912153491e-10 2.4929733331571593e-08 0.0 0.0
0.0 -1.4364451483672691e-08 -6.909809778155548e-08 5.08202014851885e-08 1.827789629636411e-08 3.028763639951722e-07 0.0 0.0
0.0 -2.8258282844082824e-05 -1.8103022037381136e-05 1.4718492646930937e-05 3.3845293904502633e-06 3.772028915697908e-05 0.0 0.0
0.0 0.00021579717513117873 0.00018457692364903225 -0.0001320944028810725 -5.2482520767959785e-05 -0.00016022875192121583 0.0 0.0
0.0 0.0016758486666261399 0.0013858889522649362 -0.0010933906431669148 -0.0002924983090980207 -0.0011539567923948197 0.0 0.0
0.0 0.004967675486073303 0.00415693611455449 -0.0035777815655794114 -0.0005791545489750756 -0.003165184706769375 0.0 0.0
0.0 0.010769711293214369 0.008667345254396861 -0.007927094990768655 -0.0007402502636282079 -0.006210338331829901 0.0 0.0
0.0 0.017725164587928083 0.014777355410346431 -0.013959906932781164 -0.000817448477565273 -0.010033704877914452 0.0 0.0
0.0 0.026703119719044363 0.02213755802664026 -0.021259054233949165 -0.000878503792691105 -0.014133886577761243 0.0 0.0
0.0 0.03673657567505657 0.03052611035482177 -0.029583654096196017 -0.0009424562586257716 -0.01825172394889587 0.0 0.0
0.0 0.04779306803431532 0.039829213179979624 -0.03882059915117631 -0.0010086140288032206 -0.022314093372951718 0.0 0.0
0.0 0.059847225985814365 0.04999601444497315 -0.04892415210447367 -0.0010718623404995169 -0.0263301299905227 0.0 0.0
0.0 0.07274756692150894 0.060959700850088755 -0.0598314506967966 -0.0011282501532920786 -0.030186277975215135 0.0 0.0
0.0 0.08664395478560113 0.07258667445413497 -0.07141021453615433 -0.001176459917980704 -0.03361406637459436 0.0 0.0
0.0 0.10038793388062821 0.08467842482597868 -0.0834560431984128 -0.0012223816275659287 -0.036287146201909516 0.0 0.0
0.0 0.11478212632200956 0.09694192645066796 -0.09568003208165345 -0.0012618943690143553 -0.037722798657263655 0.0 0.0
0.0 0.12856317592887317 0.10885502188143537 -0.10758690743802556 -0.0012681144434099777 -0.036460681930259316 0.0 0.0
0.0 0.1403408576300768 0.119413231863401 -0.11818025861860725 -0.0012329732447936813 -0.0298443572346492 0.0 0.0
0.0 0.14918308512874492 0.12529503463871386 -0.12510023246487698 -0.00019480217383698983 3.3186994818912297e-14 0.0 0.0
0.0 0.1403408576300586 0.11941323186337904 -0.11818025861858483 -0.0012329732447943422 0.029844357234726126 0.0 0.0
0.0 0.12856317592884298 0.10885502188140377 -0.10758690743799368 -0.0012681144434101136 0.03646068193033545 0.0 0.0
0.0 0.11478212632195976 0.09694192645062175 -0.09568003208160698 -0.001261894369014819 0.03772279865730924 0.0 0.0
0.0 0.10038793388056468 0.08467842482592432 -0.08345604319835867 -0.0012223816275655761 0.03628714620191491 0.0 0.0
0.0 0.08664395478553312 0.07258667445407693 -0.0714102145360964 -0.0011764599179805682 0.03361406637457879 0.0 0.0
0.0 0.07274756692144706 0.06095970085003501 -0.059831450696743047 -0.0011282501532919624 0.03018627797520128 0.0 0.0
0.0 0.05984722598574664 0.04999601444491517 -0.04892415210441596 -0.001071862340499234 0.026330129990504134 0.0 0.0
0.0 0.04779306803425559 0.039829213179929074 -0.03882059915112626 -0.0010086140288028253 0.02231409337293498 0.0 0.0
0.0 0.036736575675000056 0.030526110354775066 -0.029583654096149558 -0.0009424562586255149 0.018251723948870407 0.0 0.0
0.0 0.026703119718992675 0.02213755802659841 -0.02125905423390782 -0.0008785037926905832 0.014133886577730768 0.0 0.0
0.0 0.01772516458788378 0.014777355410310333 -0.013959906932745335 -0.0008174484775649834 0.010033704877886464 0.0 0.0
0.0 0.010769711293181487 0.008667345254370856 -0.007927094990743608 -0.0007402502636272582 0.006210338331811605 0.0 0.0
0.0 0.004967675486055046 0.004156936114539897 -0.0035777815655657088 -0.0005791545489741816 0.003165184706758834 0.0 0.0
0.0 0.00167584866661423 0.0013858889522561173 -0.0010933906431595435 -0.00029249830909657443 0.0011539567923868942 0.0 0.0
0.0 0.0002157971751275759 0.0001845769236468263 -0.00013209440287945535 -5.248252076737096e-05 0.00016022875191882955 0.0 0.0
0.0 -2.8258282843880678e-05 -1.8103022036863673e-05 1.471849264652192e-05 3.384529390341753e-06 -3.772028915582048e-05 0.0 0.0
0.0 -1.4364451749843682e-08 -6.909809780275856e-08 5.0820201501811265e-08 1.827789630094865e-08 -3.0287636404798544e-07 0.0 0.0
0.0 1.1853683869198745e-07 1.5421076161875886e-09 -7.818401251826872e-10 -7.602674910048665e-10 -2.492973328350805e-08 0.0 0.0
0.0 0.00090372723053554 0.00042138081256459434 -0.0002194409068807168 -0.00020193990568387766 0.0015640065804680932 0.0 0.0
0.0 0.00402166795076825 0.0028171031804945525 -0.003950629109288045 0.0011335259287934894 0.0020664745295772766 0.0 0.0
0.0 0.00304257380027058 0.0017855123151594614 -0.0025433009522688125 0.0007577886371093488 -0.0014536290154422114 0.0 0.0
0.0 0.00044403895237342617 0.00021616920368126732 -0.00010112501953925474 -0.00011504418414201254 -0.0009385429025447001 0.0 0.0
0.0 1.797817183161946e-06 1.352427552117449e-07 -1.4134189790131388e-07 6.099142689569421e-09 -2.7448284224904015e-06 0.0 0.0
0.0 -6.104873930674756e-07 -1.9573294349602897e-08 1.5250854698202828e-08 4.3224396513998734e-09 -4.7228647818595093e-07 0.0 0.0
0.0 -1.5681515960503436e-05 -9.07406683595079e-06 7.317681001965629e-06 1.7563858339851563e-06 2.8368554013628363e-05 0.0 0.0
0.0 4.661152677968368e-05 3.489806988265898e-05 -2.270038080387838e-05 -1.2197689078780568e-05 -4.925515571982348e-05 0.0 0.0
0.0 0.000858706257270193 0.0006503077352398272 -0.0005000526760234497 -0.0001502550592163767 -0.0008172643221338894 0.0 0.0
0.0 0.0030680384503003213 0.002444399879242225 -0.0020369596996499977 -0.00040744017959222815 -0.002560869557475959 0.0 0.0
0.0 0.007131280831985419 0.005669460128312386 -0.0050609213593548795 -0.0006085387689575056 -0.00524878837126952 0.0 0.0
0.0 0.013007650809396134 0.010194515297756522 -0.009488286546765324 -0.0007062287509911926 -0.008682264845951549 0.0 0.0
0.0 0.019579013752442385 0.015726856623231873 -0.014958347646421549 -0.0007685089768103106 -0.012492871761756284 0.0 0.0
0.0 0.027185915640399468 0.022018292256720022 -0.021189669403682047 -0.0008286228530379979 -0.01634792133202141 0.0 0.0
0.0 0.035635981745451344 0.028974280642580633 -0.028085409181933054 -0.0008888714606475908 -0.020153076456384245 0.0 0.0
0.0 0.04479117446680988 0.03658827035059743 -0.03564216260481794 -0.0009461077457794427 -0.02391634387414891 0.0 0.0
0.0 0.054781989201109015 0.04486404226655681 -0.04386498358034171 -0.0009990586862150695 -0.027572236123535144 0.0 0.0
0.0 0.06530739556256585 0.05375529538414839 -0.052710340336478874 -0.0010449550476694677 -0.030877553367290842 0.0 0.0
0.0 0.07653482498499246 0.06315296731751112 -0.06206231397468345 -0.0010906533428276558 -0.03347929404197373 0.0 0.0
0.0 0.08792905805472291 0.0730138734769775 -0.07186056177626225 -0.0011533117007151094 -0.03510624430351473 0.0 0.0
0.0 0.09956403008468458 0.08329991130662001 -0.08209789876892382 -0.001202012537696159 -0.03490182786222791 0.0 0.0
0.0 0.11110492589097776 0.09347741631866364 -0.09229243086894723 -0.0011849854497163314 -0.030036409191010624 0.0 0.0
0.0 0.12125427353452366 0.09982262309062573 -0.0999300549135509 0.00010743182292510649 2.98884181293424e-14 0.0 0.0
0.0 0.11110492589096826 0.09347741631864784 -0.09229243086893128 -0.0011849854497165704 0.03003640919108152 0.0 0.0
0.0 0.09956403008466225 0.08329991130659363 -0.08209789876889767 -0.0012020125376959554 0.0349018278623027 0.0 0.0
0.0 0.08792905805468293 0.07301387347694027 -0.07186056177622423 -0.0011533117007159338 0.03510624430355691 0.0 0.0
0.0 0.07653482498495198 0.06315296731747638 -0.06206231397465016 -0.0010906533428261798 0.03347929404198011 0.0 0.0
0.0 0.06530739556251068 0.053755295384102814 -0.05271034033643294 -0.0010449550476699437 0.030877553367270584 0.0 0.0
0.0 0.054781989201059644 0.04486404226651439 -0.04386498358030033 -0.000999058686214008 0.027572236123519077 0.0 0.0
0.0 0.04479117446676547 0.03658827035055947 -0.035642162604780564 -0.0009461077457788977 0.02391634387413714 0.0 0.0
0.0 0.03563598174540582 0.028974280642542864 -0.028085409181895997 -0.0008888714606468703 0.02015307645636761 0.0 0.0
0.0 0.027185915640354507 0.02201829225668339 -0.021189669403645556 -0.0008286228530378218 0.016347921331997084 0.0 0.0
0.0 0.019579013752400773 0.0157268566231998 -0.014958347646389937 -0.0007685089768098398 0.012492871761726216 0.0 0.0
0.0 0.013007650809362734 0.010194515297730822 -0.009488286546739676 -0.0007062287509911493 0.00868226484592692 0.0 0.0
0.0 0.007131280831960746 0.005669460128293332 -0.005060921359336433 -0.0006085387689569036 0.005248788371253031 0.0 0.0
0.0 0.003068038450286751 0.0024443998792318504 -0.00203695969964065 -0.00040744017959120157 0.002560869557466111 0.0 0.0
0.0 0.0008587062572628151 0.0006503077352346221 -0.0005000526760192336 -0.00015025505921538844 0.0008172643221271996 0.0 0.0
0.0 4.6611526777640136e-05 3.489806988190285e-05 -2.2700380803315645e-05 -1.2197689078587132e-05 4.9255155718830275e-05 0.0 0.0
0.0 -1.5681515961546164e-05 -9.074066835773334e-06 7.317681001830188e-06 1.7563858339431125e-06 -2.836855401296057e-05 0.0 0.0
0.0 -6.104873931102685e-07 -1.957329426825442e-08 1.5250854644392645e-08 4.322439623861126e-09 4.722864792640946e-07 0.0 0.0
0.0 1.7978171828912805e-06 1.3524275521119975e-07 -1.4134189790878413e-07 6.099142697584849e-09 2.7448284227272103e-06 0.0 0.0
0.0 0.00044403895237011626 0.00021616920367994481 -0.00010112501953844782 -0.00011504418414149688 0.0009385429025398661 0.0 0.0
0.0 0.00304257380026006 0.0017855123151527977 -0.0025433009522596735 0.0007577886371068755 0.0014536290154376983 0.0 0.0
0.0 0.0016731084114786703 0.0010305804679359692 -0.0014910650993333607 0.00046048463139739177 -0.0010002510723416628 0.0 0.0
0.0 0.00019788131838925855 7.661937415312894e-05 -1.7130227941824606e-05 -5.948914621130405e-05 -0.0004539328686682284 0.0 0.0
0.0 4.398390609330183e-06 9.014313669589696e-08 -1.0821016768049994e-07 1.8067030984604027e-08 -2.3106068060573364e-06 0.0 0.0
0.0 1.3704848622958622e-06 -2.7609904472213907e-07 2.2423330174591572e-07 5.186574297622337e-08 5.991359529915177e-07 0.0 0.0
0.0 -9.276352241009027e-06 -4.0807715005388615e-06 3.3144572557635263e-06 7.663142447753375e-07 1.7595004696698136e-05 0.0 0.0
0.0 -4.37439828650146e-06 -2.928521244597859e-06 3.8018127925648668e-06 -8.732915479669778e-07 -8.026505726736371e-06 0.0 0.0
0.0 0.0003557501656381388 0.000193073222055286 -0.00014699366943380444 -4.607955262148204e-05 -0.0004473758925461153 0.0 0.0
0.0 0.0016215692560329557 0.001061230409557849 -0.0008612032566707221 -0.00020002715288712717 -0.0017259597288275953 0.0 0.0
0.0 0.0041115262467862216 0.002984958640278776 -0.002582032850058073 -0.00040292579022070305 -0.0038515742183773717 0.0 0.0
0.0 0.007970729830098479 0.005905176995097159 -0.005366571898097673 -0.0005386050969994862 -0.006581348019437715 0.0 0.0
0.0 0.012515679566802737 0.009560561601755176 -0.008942854352818073 -0.0006177072489370976 -0.009723630926010739 0.0 0.0
0.0 0.017842805671334883 0.013732307593319457 -0.013054699386822317 -0.0006776082064971411 -0.012989130743327287 0.0 0.0
0.0 0.023638372943576232 0.01833958810309638 -0.01760594123415236 -0.0007336468689440076 -0.01627928902289809 0.0 0.0
0.0 0.029939730000727385 0.023397501591730426 -0.02261320118646506 -0.000784300405265382 -0.01954966893718774 0.0 0.0
0.0 0.036865745644057944 0.028963387658261005 -0.02813051131418463 -0.0008328763440763726 -0.02275613417486108 0.0 0.0
0.0 0.044437859967771415 0.03508888185059219 -0.034209172001237124 -0.0008797098493550129 -0.02576992227298257 0.0 0.0
0.0 0.05253470934110564 0.041770435915966 -0.040845747187467356 -0.0009246887284986529 -0.028246534032611702 0.0 0.0
0.0 0.060983036511066076 0.049066490816680366 -0.048076673947516683 -0.0009898168691637615 -0.02981452301927512 0.0 0.0
0.0 0.07053340792838987 0.05736850657791497 -0.05627664269406914 -0.0010918638838457978 -0.03038571000587501 0.0 0.0
0.0 0.08163922651141571 0.06693131504755769 -0.06579499946986671 -0.001136315577691015 -0.028416377223358692 0.0 0.0
0.0 0.0934250035322425 0.07382056084137703 -0.0742712066712292 0.0004506458298521067 2.6115394569092842e-14 0.0 0.0
0.0 0.08163922651141292 0.06693131504754597 -0.06579499946985484 -0.0011363155776910792 0.028416377223420858 0.0 0.0
0.0 0.07053340792837554 0.057368506577895335 -0.05627664269404936 -0.0010918638838459589 0.03038571000594361 0.0 0.0
0.0 0.06098303651103489 0.049066490816652 -0.04807667394748749 -0.0009898168691644805 0.02981452301930937 0.0 0.0
0.0 0.05253470934107152 0.041770435915938355 -0.040845747187441356 -0.0009246887284970193 0.028246534032610703 0.0 0.0
0.0 0.0444378599677362 0.0350888818505639 -0.034209172001209404 -0.000879709849354484 0.025769922272964815 0.0 0.0
0.0 0.03686574564402084 0.02896338765823082 -0.028130511314154165 -0.000832876344076649 0.022756134174845108 0.0 0.0
0.0 0.029939730000702318 0.023397501591708857 -0.022613201186444543 -0.0007843004052643278 0.019549668937181894 0.0 0.0
0.0 0.023638372943545056 0.018339588103071784 -0.017605941234128022 -0.0007336468689437283 0.016279289022882677 0.0 0.0
0.0 0.017842805671301733 0.013732307593294652 -0.013054699386797628 -0.0006776082064970227 0.012989130743305648 0.0 0.0
0.0 0.012515679566776365 0.009560561601735807 -0.008942854352799135 -0.0006177072489366674 0.009723630925988254 0.0 0.0
0.0 0.00797072983007555 0.005905176995080712 -0.005366571898081717 -0.0005386050969989998 0.006581348019418254 0.0 0.0
0.0 0.00411152624677069 0.0029849586402672444 -0.0025820328500476696 -0.0004029257902195721 0.0038515742183654203 0.0 0.0
0.0 0.0016215692560257093 0.0010612304095529619 -0.0008612032566664838 -0.00020002715288647881 0.0017259597288212976 0.0 0.0
0.0 0.00035575016563392384 0.00019307322205361542 -0.00014699366943250131 -4.6079552621113824e-05 0.00044737589254298203 0.0 0.0
0.0 -4.374398287103794e-06 -2.9285212444281366e-06 3.801812792437504e-06 -8.732915480094383e-07 8.02650572725422e-06 0.0 0.0
0.0 -9.276352242030493e-06 -4.080771500365145e-06 3.3144572556318754e-06 7.663142447332771e-07 -1.7595004695452828e-05 0.0 0.0
0.0 1.3704848620081618e-06 -2.7609904476309496e-07 2.2423330177819307e-07 5.186574298490283e-08 -5.991359531759952e-07 0.0 0.0
0.0 4.3983906086518816e-06 9.014313673205125e-08 -1.0821016771725025e-07 1.8067030985199673e-08 2.3106068072412115e-06 0.0 0.0
0.0 0.00019788131838637023 7.66193741524001e-05 -1.7130227941443295e-05 -5.9489146210956115e-05 0.00045393286866523067 0.0 0.0
0.0 0.001673108411470901 0.0010305804679313552 -0.0014910650993268182 0.000460484631395461 0.001000251072338248 0.0 0.0
0.0 0.0008634587324423537 0.0004843405876576316 -0.0007092151718403318 0.00022487458418270106 -0.0005763037439166823 0.0 0.0
0.0 3.0174069371053945e-05 1.686735352516513e-06 2.4502863055175805e-05 -2.6189598407692447e-05 -0.00012332978191106425 0.0 0.0
0.0 5.260999241138134e-06 1.2647979964538655e-07 -2.5596276424511253e-07 1.2948296459972638e-07 -6.990871946194153e-06 0.0 0.0
0.0 4.398527449422865e-06 -2.9955495397696005e-07 2.7369800105850496e-07 2.585695291845043e-08 -6.052032354286119e-06 0.0 0.0
0.0 -3.5984617742616586e-06 -1.8098263234392e-06 1.5715725066229043e-06 2.3825381681630273e-07 9.158253468945292e-06 0.0 0.0
0.0 8.161410523950031e-06 -3.3092226682097835e-06 3.2165827884338906e-06 9.263987977587352e-08 -1.1583097913827486e-05 0.0 0.0
0.0 0.00014639731687362122 2.4802727705334638e-05 -1.8837807901060104e-05 -5.964919804274458e-06 -0.00022606139196819852 0.0 0.0
0.0 0.0005629208631081916 0.000188698362514613 -0.0001596804507225064 -2.9017911792106837e-05 -0.0008478307824950613 0.0 0.0
0.0 0.0016142101308879127 0.0007883833392710312 -0.0006982916954212828 -9.009164384974734e-05 -0.002151946735128974 0.0 0.0
0.0 0.0035206984044206997 0.0020588584508697255 -0.001868473221568968 -0.000190385229300759 -0.0040300892187837955 0.0 0.0
0.0 0.0061886708687689095 0.003811206987215982 -0.003522932215936383 -0.0002882747712795946 -0.006236274769781052 0.0 0.0
0.0 0.00901323289130213 0.005850788661784545 -0.0054856612028080405 -0.000365127458976504 -0.008709904563880216 0.0 0.0
0.0 0.012284247908312212 0.008107102252718747 -0.007680865301897885 -0.00042623695082086267 -0.011325909926468555 0.0 0.0
0.0 0.015913979243693387 0.010613005168465157 -0.010134548999263717 -0.0004784561692014409 -0.01402416043678493 0.0 0.0
0.0 0.019924209223790162 0.013453922742218174 -0.01292340094944549 -0.0005305217927726872 -0.016780341103708917 0.0 0.0
0.0 0.024452520474505732 0.01676028567516253 -0.01617212313430108 -0.0005881625408614636 -0.019534242172320308 0.0 0.0
0.0 0.029655081148971515 0.020694159188245048 -0.02004472411802471 -0.0006494350702203281 -0.022029339425617755 0.0 0.0
0.0 0.035554768139739575 0.02539848314107839 -0.024689072366826194 -0.0007094107742521627 -0.0236774250709249 0.0 0.0
0.0 0.04236194827140188 0.03128921102598312 -0.03046774618409192 -0.0008214648418912152 -0.024151434358296694 0.0 0.0
0.0 0.05162549667326187 0.03954419416117986 -0.038530078047025594 -0.00101411611415424 -0.024341622624347803 0.0 0.0
0.0 0.0669274875473403 0.04690760337031685 -0.047755075906951855 0.0008474725366350243 2.1459396759571092e-14 0.0 0.0
0.0 0.051625496673267435 0.0395441941611741 -0.03853007804702 -0.001014116114154169 0.024341622624399317 0.0 0.0
0.0 0.04236194827139913 0.03128921102597494 -0.030467746184083332 -0.0008214648418915986 0.024151434358350893 0.0 0.0
0.0 0.03555476813971733 0.025398483141061877 -0.024689072366808902 -0.0007094107742529427 0.023677425070941296 0.0 0.0
0.0 0.029655081148937775 0.020694159188222767 -0.020044724118002913 -0.0006494350702198764 0.02202933942560693 0.0 0.0
0.0 0.024452520474484422 0.016760285675148402 -0.01617212313428651 -0.0005881625408618904 0.019534242172300348 0.0 0.0
0.0 0.019924209223773123 0.013453922742205717 -0.012923400949433176 -0.0005305217927725526 0.016780341103698772 0.0 0.0
0.0 0.015913979243679398 0.010613005168455519 -0.010134548999254233 -0.00047845616920128714 0.014024160436778496 0.0 0.0
0.0 0.012284247908295898 0.008107102252708984 -0.0076808653018886975 -0.00042623695082029265 0.011325909926455931 0.0 0.0
0.0 0.009013232891285526 0.005850788661774895 -0.00548566120279832 -0.0003651274589765654 0.008709904563864217 0.0 0.0
0.0 0.006188670868754485 0.003811206987207925 -0.0035229322159282873 -0.00028827477127963655 0.006236274769765423 0.0 0.0
0.0 0.0035206984044091247 0.0020588584508630273 -0.0018684732215624702 -0.00019038522930055443 0.004030089218772184 0.0 0.0
0.0 0.001614210130880924 0.0007883833392670357 -0.0006982916954173311 -9.009164384970528e-05 0.0021519467351208653 0.0 0.0
0.0 0.0005629208631059282 0.00018869836251389312 -0.00015968045072184438 -2.9017911792048687e-05 0.0008478307824923571 0.0 0.0
0.0 0.00014639731687133984 2.4802727705020128e-05 -1.883780790079691e-05 -5.964919804223229e-06 0.00022606139196605236 0.0 0.0
0.0 8.161410524026843e-06 -3.30922266795199e-06 3.216582788235201e-06 9.263987971680285e-08 1.1583097915680908e-05 0.0 0.0
0.0 -3.598461775318255e-06 -1.8098263234131004e-06 1.5715725066096904e-06 2.3825381680340324e-07 -9.158253468235427e-06 0.0 0.0
0.0 4.398527449245121e-06 -2.99554953993215e-07 2.736980010764057e-07 2.585695291681038e-08 6.052032354980723e-06 0.0 0.0
0.0 5.2609992407945685e-06 1.2647979964303437e-07 -2.5596276425062153e-07 1.294829646075836e-07 6.990871946650322e-06 0.0 0.0
0.0 3.0174069369568232e-05 1.686735352252768e-06 2.450286305525651e-05 -2.6189598407509355e-05 0.0001233297819095592 0.0 0.0
0.0 0.0008634587324369747 0.00048434058765481304 -0.000709215171836219 0.00022487458418140563 0.0005763037439140917 0.0 0.0
0.0 0.0002660726068734637 0.0001539125463844059 -0.0002286421794466142 7.472963306220802e-05 -0.0002338729519494531 0.0 0.0
0.0 -2.560361342426815e-05 -1.6487652199298538e-05 2.5561428715298784e-05 -9.07377651600019e-06 1.725668596147582e-05 0.0 0.0
0.0 5.177240814342682e-06 2.1502366015597468e-07 -2.649483677121684e-07 4.9924707556189866e-08 -1.0640102690412701e-07 0.0 0.0
0.0 6.547074059380901e-06 -6.62328570447211e-07 5.58047396038662e-07 1.0428117440855192e-07 -9.564611398526354e-06 0.0 0.0
0.0 2.149506731512389e-06 -9.74397382980379e-07 9.549163307045873e-07 1.9481052275789875e-08 -2.748268408560656e-06 0.0 0.0
0.0 1.8923474910961686e-05 -2.206920952957617e-06 2.2896235415766404e-06 -8.270258861902738e-08 -2.4980702098905823e-05 0.0 0.0
0.0 0.00013094217501461982 -2.7403652569898827e-06 2.721355150190858e-06 1.9010106799028172e-08 -0.00020380287176226806 0.0 0.0
0.0 0.0002763315586404253 -1.797276240472147e-06 1.791906965102621e-06 5.3692753695156e-09 -0.00048199359232932893 0.0 0.0
0.0 0.0005678763174249898 -1.3530823965479506e-06 1.322443397102961e-06 3.063899944496746e-08 -0.0009628018205562336 0.0 0.0
0.0 0.0010194240918349213 -2.6013427095321643e-08 2.6612893308969625e-08 -5.994662135395609e-10 -0.0020359090022240966 0.0 0.0
0.0 0.0020842675318146577 -1.506210691385693e-06 1.927154888776647e-06 -4.209441973907505e-07 -0.0038456518273043603 0.0 0.0
0.0 0.003408789348654911 -1.3829229053957367e-05 1.6843827476444462e-05 -3.014598422487882e-06 -0.006103553665533998 0.0 0.0
0.0 0.0050572795434397945 -3.413978381995293e-05 3.778797896270816e-05 -3.6481951427526544e-06 -0.008508701029760623 0.0 0.0
0.0 0.006900904342931111 -3.238563589656241e-05 3.0373087646033974e-05 2.0125482505284386e-06 -0.011030655262825213 0.0 0.0
0.0 0.008906067945889553 9.077652029790468e-05 -0.00011026583684378114 1.948931654587678e-05 -0.01367299804387516 0.0 0.0
0.0 0.011040503614204725 0.0005508217076843152 -0.0006050609398844629 5.423923220014386e-05 -0.01639880409359805 0.0 0.0
0.0 0.01330337630763882 0.0016311013808389535 -0.0017364463052639025 0.00010534492442495206 -0.019123071093481193 0.0 0.0
0.0 0.015611923396246308 0.0035498987858252258 -0.0037511695535987818 0.00020127076777355705 -0.02157984841182994 0.0 0.0
0.0 0.01877616607403013 0.006135557199246763 -0.006437831916622618 0.00030227471737586243 -0.023347445003398245 0.0 0.0
0.0 0.026614103907653404 0.011596900512611818 -0.011319452566808259 -0.00027744794580355814 -0.02461389227368468 0.0 0.0
0.0 0.047962284263768924 0.019766839927468905 -0.021261854648675135 0.0014950147212062245 1.5841494782620202e-14 0.0 0.0
0.0 0.02661410390766325 0.011596900512611703 -0.01131945256680749 -0.00027744794580419413 0.02461389227371511 0.0 0.0
0.0 0.018776166074027434 0.006135557199246017 -0.006437831916622449 0.00030227471737642866 0.023347445003419648 0.0 0.0
0.0 0.015611923396228768 0.0035498987858208824 -0.0037511695535938153 0.00020127076777292984 0.021579848411822443 0.0 0.0
0.0 0.013303376307623621 0.001631101380840153 -0.0017364463052648319 0.00010534492442467895 0.019123071093459863 0.0 0.0
0.0 0.011040503614191271 0.000550821707686199 -0.0006050609398866166 5.4239232200413364e-05 0.016398804093585344 0.0 0.0
0.0 0.008906067945879365 9.077652029776157e-05 -0.00011026583684221349 1.9489316544453412e-05 0.013672998043862274 0.0 0.0
0.0 0.006900904342923401 -3.238563589348382e-05 3.0373087643217542e-05 2.012548250265872e-06 0.011030655262816186 0.0 0.0
0.0 0.005057279543422111 -3.413978381480373e-05 3.778797895688871e-05 -3.6481951420846233e-06 0.008508701029739576 0.0 0.0
0.0 0.003408789348643473 -1.3829229050824781e-05 1.6843827473092922e-05 -3.0145984222690358e-06 0.006103553665518477 0.0 0.0
0.0 0.0020842675318032684 -1.5062106882674734e-06 1.9271548849665436e-06 -4.2094419669909725e-07 0.0038456518272882764 0.0 0.0
0.0 0.0010194240918328327 -2.6013427409116857e-08 2.6612893699919375e-08 -5.994662906398879e-10 0.002035909002222464 0.0 0.0
0.0 0.0005678763174229368 -1.3530823968070681e-06 1.3224433972773686e-06 3.063899952959452e-08 0.0009628018205526784 0.0 0.0
0.0 0.00027633155863845797 -1.7972762405311717e-06 1.791906965156227e-06 5.3692753749082355e-09 0.0004819935923258222 0.0 0.0
0.0 0.00013094217501266614 -2.7403652569537526e-06 2.7213551501418925e-06 1.901010681189439e-08 0.00020380287176056488 0.0 0.0
0.0 1.892347491011294e-05 -2.2069209529303905e-06 2.2896235415401586e-06 -8.27025886097763e-08 2.498070209929825e-05 0.0 0.0
0.0 2.149506730825775e-06 -9.743973830039657e-07 9.54916330725279e-07 1.9481052278690957e-08 2.748268409280409e-06 0.0 0.0
0.0 6.547074058580374e-06 -6.623285705031705e-07 5.58047396088092e-07 1.0428117441507843e-07 9.56461139936081e-06 0.0 0.0
0.0 5.177240813448881e-06 2.1502366014589292e-07 -2.649483677063019e-07 4.992470756041775e-08 1.0640102737753864e-07 0.0 0.0
0.0 -2.560361342425428e-05 -1.6487652199025065e-05 2.556142871491333e-05 -9.073776515888295e-06 -1.7256685960332223e-05 0.0 0.0
0.0 0.00026607260687047966 0.00015391254638321626 -0.00022864217944490692 7.472963306169078e-05 0.0002338729519477344 0.0 0.0
0.0 2.1346526784919114e-05 1.0133171363141534e-05 -1.607698375362453e-05 5.943812390482966e-06 -1.743802716752006e-05 0.0 0.0
0.0 -4.634258185543839e-06 -2.1117680732185493e-06 2.993401834425346e-06 -8.816337612067994e-07 7.654801843424068e-06 0.0 0.0
0.0 1.8338993364673052e-06 2.545105145542449e-07 -3.621563644683128e-07 1.0764584991406747e-07 -3.3154146171072035e-06 0.0 0.0
0.0 8.814449411631255e-06 -8.56988915395581e-07 6.850256580877003e-07 1.719632573078803e-07 -1.0699132303701966e-05 0.0 0.0
0.0 7.14351009277607e-06 -1.3035121283795777e-06 1.2315482579845776e-06 7.196387039500013e-08 -1.2121735960507915e-05 0.0 0.0
0.0 2.838677413648214e-05 -5.6682999290242595e-06 5.09686818447138e-06 5.714317445529314e-07 -5.320058598275157e-05 0.0 0.0
0.0 0.00018702097950992186 -3.5806743693637755e-05 2.8844283197822818e-05 6.962460495814824e-06 -0.0002584303351522557 0.0 0.0
0.0 0.0005859942450413878 -0.00019881024209371183 0.00016852376822740558 3.028647386630589e-05 -0.0008736949130155285 0.0 0.0
0.0 0.001621470625653242 -0.0007919228212880476 0.0007012236799283006 9.069914135974716e-05 -0.0021636388356332213 0.0 0.0
0.0 0.003520811290775544 -0.00205921462049626 0.0018687023624258435 0.0001905122580704167 -0.004031774217563035 0.0 0.0
0.0 0.006210123948481311 -0.0038197562763041828 0.0035302813654691473 0.00028947491083503144 -0.006237493001227902 0.0 0.0
0.0 0.009069462195726713 -0.00589109240906434 0.005522086877905085 0.0003690055311592517 -0.008720214749257011 0.0 0.0
0.0 0.01236924443974206 -0.008187814259734636 0.007758798274194923 0.00042901598553970164 -0.011328472950354301 0.0 0.0
0.0 0.015947358093540098 -0.010663153446701504 0.010194744794756273 0.00046840865194524884 -0.014000015304117779 0.0 0.0
0.0 0.019569975667784574 -0.013181321834502784 0.012696615434300118 0.00048470640020266767 -0.01674752555051289 0.0 0.0
0.0 0.023001992859769317 -0.01545910201844997 0.014986907810307261 0.00047219420814268657 -0.019608822479146006 0.0 0.0
0.0 0.02576978399498433 -0.01706552937684109 0.016642417028316907 0.0004231123485241964 -0.022599499361995873 0.0 0.0
0.0 0.027629918981479186 -0.01749943477957329 0.01716359757349844 0.00033583720607486184 -0.02584379113831594 0.0 0.0
0.0 0.02758278336995032 -0.016201131515838706 0.016061490255841242 0.00013964125999747914 -0.029282606924553898 0.0 0.0
0.0 0.02262160381648398 -0.011864073116349478 0.01240236619051397 -0.0005382930741644835 -0.03147659480367614 0.0 0.0
0.0 0.046492285190043725 -0.007044253154455032 0.004069672012937892 0.0029745811415171283 1.6285583992470265e-14 0.0 0.0
0.0 0.02262160381649001 -0.01186407311634738 0.012402366190511388 -0.0005382930741640087 0.03147659480370221 0.0 0.0
0.0 0.027582783369947773 -0.016201131515834525 0.01606149025583691 0.00013964125999761288 0.02928260692457398 0.0 0.0
0.0 0.027629918981459427 -0.017499434779558565 0.01716359757348474 0.0003358372060738153 0.025843791138319305 0.0 0.0
0.0 0.025769783994956663 -0.017065529376822666 0.01664241702829787 0.0004231123485248283 0.02259949936197865 0.0 0.0
0.0 0.023001992859743227 -0.015459102018429672 0.01498690781028753 0.00047219420814213054 0.019608822479129748 0.0 0.0
0.0 0.019569975667762248 -0.013181321834485789 0.012696615434283184 0.0004847064002025919 0.01674752555049513 0.0 0.0
0.0 0.015947358093518313 -0.01066315344668439 0.010194744794739152 0.0004684086519452399 0.014000015304104774 0.0 0.0
0.0 0.012369244439713406 -0.00818781425971339 0.007758798274174602 0.0004290159855387868 0.011328472950335837 0.0 0.0
0.0 0.009069462195699176 -0.005891092409045724 0.005522086877887011 0.00036900553115871146 0.008720214749232263 0.0 0.0
0.0 0.006210123948454583 -0.003819756276286337 0.0035302813654523764 0.00028947491083396377 0.006237493001205208 0.0 0.0
0.0 0.003520811290761317 -0.0020592146204868726 0.0018687023624169737 0.0001905122580698985 0.0040317742175509895 0.0 0.0
0.0 0.0016214706256457178 -0.0007919228212834829 0.0007012236799241905 9.069914135929395e-05 0.0021636388356256735 0.0 0.0
0.0 0.0005859942450346586 -0.00019881024209089844 0.0001685237682249875 3.0286473865910223e-05 0.0008736949130068091 0.0 0.0
0.0 0.00018702097950671934 -3.5806743693018425e-05 2.8844283197330783e-05 6.9624604956877435e-06 0.0002584303351491794 0.0 0.0
0.0 2.8386774135421418e-05 -5.668299929125087e-06 5.09686818455513e-06 5.714317445699478e-07 5.320058598314708e-05 0.0 0.0
0.0 7.143510092236576e-06 -1.3035121284984986e-06 1.2315482580851697e-06 7.196387041331976e-08 1.2121735961239511e-05 0.0 0.0
0.0 8.814449410979968e-06 -8.569889154740971e-07 6.85025658154668e-07 1.719632573194266e-07 1.0699132304383805e-05 0.0 0.0
0.0 1.8338993358696406e-06 2.545105145427654e-07 -3.6215636445818257e-07 1.0764584991541255e-07 3.315414617389863e-06 0.0 0.0
0.0 -4.634258185925418e-06 -2.1117680733083225e-06 2.9934018345113484e-06 -8.816337612030281e-07 -7.654801842964342e-06 0.0 0.0
0.0 2.1346526784361228e-05 1.0133171363787178e-05 -1.607698375456744e-05 5.943812390780276e-06 1.743802716914968e-05 0.0 0.0
0.0 1.7177379762652765e-06 -3.281655414159381e-07 4.914278333215308e-07 -1.632622919055151e-07 7.858289950931084e-07 0.0 0.0
0.0 -3.7192367748404286e-08 1.3418156784802185e-07 -1.0110776606962339e-07 -3.3073801778413116e-08 1.285001765595339e-06 0.0 0.0
0.0 -1.0824719293053098e-06 6.891656681180574e-07 -6.263661502015557e-07 -6.279951791651138e-08 2.8697025019672493e-06 0.0 0.0
0.0 5.4799419214612134e-06 -9.940258737705466e-07 7.703631768830004e-07 2.2366269688753686e-07 -1.0505593151237235e-05 0.0 0.0
0.0 1.2993503308051326e-05 -8.475082172911932e-08 1.7755888756671337e-07 -9.280806583753105e-08 -6.929560930301459e-06 0.0 0.0
0.0 7.103269231025628e-05 -1.9545541054542772e-05 1.545882548859008e-05 4.086715565952596e-06 -7.770214507129842e-05 0.0 0.0
0.0 0.00038959247580792737 -0.00022364008553111045 0.00017339948744606585 5.024059808504512e-05 -0.0005306417559284905 0.0 0.0
0.0 0.0016484149207370525 -0.0010732349756810442 0.0008720787159087235 0.00020115625977231984 -0.0017597151874307695 0.0 0.0
0.0 0.004114002503045627 -0.0029852923218658314 0.002582152783597612 0.00040313953826821885 -0.0038597178866857924 0.0 0.0
0.0 0.007970537747649031 -0.005905629096294345 0.005366944675874369 0.0005386844204199692 -0.0065810356893100455 0.0 0.0
0.0 0.012529707257638332 -0.009572365185351893 0.008954280567752678 0.0006180846175992137 -0.009727710337762506 0.0 0.0
0.0 0.017884019603001566 -0.013769030924637393 0.013090537205790228 0.0006784937188471882 -0.012984672340649227 0.0 0.0
0.0 0.02369851823948973 -0.018405073835253832 0.01767197595420341 0.0007330978810504177 -0.01621785983552128 0.0 0.0
0.0 0.029927641067550418 -0.023422054300686848 0.02264697207045826 0.000775082230228563 -0.019402324672934197 0.0 0.0
0.0 0.036481079330309765 -0.02866672130934982 0.02786667440049987 0.0008000469088499298 -0.02264144351457462 0.0 0.0
0.0 0.04300573522147698 -0.0338055756030253 0.033002421491699296 0.0008031541113260054 -0.026136174435296856 0.0 0.0
0.0 0.04890161604277399 -0.038325297321862406 0.037537077460707655 0.0007882198611547481 -0.030097540774928874 0.0 0.0
0.0 0.05329080058588108 -0.041563928535910045 0.04080477398793776 0.0007591545479723352 -0.034612765629041094 0.0 0.0
0.0 0.05535550115743541 -0.04237838981881595 0.041724963599986696 0.0006534262188292026 -0.038845118749766996 0.0 0.0
0.0 0.051860439353899446 -0.038264185350479187 0.037856917769481996 0.00040726758099717735 -0.04005275137889855 0.0 0.0
0.0 0.05707429890879604 -0.03161568796031575 0.027872791144428855 0.003742896815886861 2.3075291677443488e-14 0.0 0.0
0.0 0.05186043935391084 -0.03826418535047592 0.03785691776947804 0.0004072675809978711 0.040052751378955365 0.0 0.0
0.0 0.05535550115743035 -0.04237838981880262 0.04172496359997359 0.0006534262188290188 0.03884511874982023 0.0 0.0
0.0 0.05329080058585018 -0.04156392853588267 0.040804773987909826 0.0007591545479728615 0.03461276562905871 0.0 0.0
0.0 0.04890161604273106 -0.03832529732182797 0.03753707746067292 0.000788219861155012 0.030097540774917095 0.0 0.0
0.0 0.043005735221435595 -0.03380557560299156 0.033002421491666024 0.0008031541113254977 0.026136174435277427 0.0 0.0
0.0 0.03648107933027041 -0.028666721309317616 0.027866674400469083 0.0008000469088485554 0.022641443514554008 0.0 0.0
0.0 0.02992764106751565 -0.023422054300656914 0.022646972070428744 0.0007750822302281309 0.019402324672919097 0.0 0.0
0.0 0.02369851823944806 -0.018405073835220637 0.017671975954169965 0.0007330978810506519 0.016217859835500798 0.0 0.0
0.0 0.017884019602957973 -0.013769030924603966 0.013090537205757403 0.0006784937188465725 0.012984672340619502 0.0 0.0
0.0 0.012529707257601046 -0.009572365185323587 0.00895428056772479 0.0006180846175988003 0.009727710337733415 0.0 0.0
0.0 0.00797053774762322 -0.0059056290962747554 0.0053669446758554595 0.0005386844204192953 0.006581035689291304 0.0 0.0
0.0 0.004114002503029554 -0.002985292321853833 0.0025821527835866035 0.0004031395382672309 0.003859717886674285 0.0 0.0
0.0 0.0016484149207283564 -0.0010732349756748364 0.0008720787159038838 0.00020115625977095144 0.0017597151874231734 0.0 0.0
0.0 0.0003895924758019292 -0.0002236400855284353 0.00017339948744393477 5.0240598084500775e-05 0.0005306417559225791 0.0 0.0
0.0 7.103269230878397e-05 -1.9545541054356252e-05 1.5458825488435346e-05 4.086715565920829e-06 7.770214507097078e-05 0.0 0.0
0.0 1.2993503307523287e-05 -8.475082211373803e-08 1.7755888788140962e-07 -9.280806576767339e-08 6.929560931601931e-06 0.0 0.0
0.0 5.479941921313858e-06 -9.940258739270444e-07 7.703631770130522e-07 2.2366269691399815e-07 1.0505593152274576e-05 0.0 0.0
0.0 -1.0824719296736196e-06 6.891656680669765e-07 -6.263661501761989e-07 -6.279951789077239e-08 -2.869702501075311e-06 0.0 0.0
0.0 -3.719236797995281e-08 1.341815678828385e-07 -1.0110776610509455e-07 -3.307380177774122e-08 -1.285001765867886e-06 0.0 0.0
0.0 1.717737976091983e-06 -3.281655415694764e-07 4.914278335469448e-07 -1.632622919775092e-07 -7.858289954598852e-07 0.0 0.0
0.0 0.0 0.0 0.0 0.0 0.0 0.0 0.0
0.0 2.360250793609079e-07 -8.39484490388739e-09 1.0032999518675527e-08 -1.6381546147925883e-09 -8.582342682289502e-08 0.0 0.0
0.0 -1.8026562324886632e-06 9.759028710311149e-07 -7.824808376697942e-07 -1.9342203336131271e-07 5.391930509805417e-06 0.0 0.0
0.0 3.150303848814477e-06 9.792415463370802e-07 -8.552785141493287e-07 -1.2396303218775268e-07 -9.80790617074675e-07 0.0 0.0
0.0 1.5223507445312744e-05 -3.280143259493e-06 2.6117249669517707e-06 6.68418292541172e-07 -1.8052636106681525e-05 0.0 0.0
0.0 0.00012698858661490454 -9.135939140567478e-05 6.95822391610781e-05 2.177715224459698e-05 -0.0001779144038181413 0.0 0.0
0.0 0.0009545530128872977 -0.0006799441856873953 0.000528135069473439 0.0001518091162139561 -0.0008853362507808102 0.0 0.0
0.0 0.0030863392676075017 -0.0024476907388855996 0.002040124291846188 0.0004075664470394089 -0.002584569895549343 0.0 0.0
0.0 0.007128000272251361 -0.00566589427777767 0.005057175250278422 0.000608719027499237 -0.005248450887830338 0.0 0.0
0.0 0.01301091370004908 -0.010196890932365116 0.009490738255050526 0.0007061526773145956 -0.008681886311823928 0.0 0.0
0.0 0.019589656635996024 -0.015739109729639676 0.014970902128632842 0.0007682076010068229 -0.012496686063348235 0.0 0.0
0.0 0.02720941992335899 -0.022040872652532472 0.021212459854703013 0.000828412797829429 -0.016321345033408177 0.0 0.0
0.0 0.03564252508470269 -0.028999235684685615 0.028111392790672676 0.0008878428940129708 -0.0200139143944248 0.0 0.0
0.0 0.04469920836139149 -0.03655710363434516 0.03561835333672278 0.0009387502976223473 -0.023611625056641047 0.0 0.0
0.0 0.05436601576225565 -0.04455877547453751 0.043586223081163666 0.00097255239337392 -0.027329664381333902 0.0 0.0
0.0 0.06407453700160572 -0.052639406617700044 0.051656769027136756 0.0009826375905632474 -0.03156613492093817 0.0 0.0
0.0 0.07351104519777539 -0.06015027208900198 0.05918264811909266 0.0009676239699092015 -0.03674850853168097 0.0 0.0
0.0 0.08105622603593611 -0.06604196134040015 0.06513111360608269 0.0009108477343174586 -0.04269059006642141 0.0 0.0
0.0 0.08479426153831052 -0.0685111498019857 0.06772471042132622 0.0007864393806594119 -0.047801538499416145 0.0 0.0
0.0 0.08038616536723235 -0.0640571952911374 0.06360544790689227 0.0004517473842451923 -0.049106100498384424 0.0 0.0
0.0 0.07869698035645298 -0.05549617729482759 0.05105195329605863 0.004444223998769037 2.7488428200328485e-14 0.0 0.0
0.0 0.08038616536723744 -0.06405719529112892 0.0636054479068839 0.0004517473842450148 0.049106100498450336 0.0 0.0
0.0 0.08479426153829357 -0.06851114980196166 0.06772471042130207 0.0007864393806595571 0.04780153849947898 0.0 0.0
0.0 0.0810562260358973 -0.06604196134036303 0.0651311136060458 0.0009108477343171676 0.042690590066452525 0.0 0.0
0.0 0.07351104519771952 -0.06015027208895472 0.059182648119045396 0.0009676239699093999 0.036748508531675245 0.0 0.0
0.0 0.06407453700154837 -0.05263940661765223 0.05165676902708842 0.000982637590563758 0.03156613492091799 0.0 0.0
0.0 0.054366015762195054 -0.044558775474487576 0.04358622308111369 0.0009725523933738582 0.027329664381308034 0.0 0.0
0.0 0.04469920836133131 -0.03655710363429477 0.03561835333667214 0.0009387502976226039 0.02361162505661726 0.0 0.0
0.0 0.03564252508464672 -0.028999235684639066 0.028111392790626095 0.000887842894012949 0.02001391439440317 0.0 0.0
0.0 0.027209419923303616 -0.02204087265248784 0.02121245985465887 0.0008284127978289506 0.016321345033378544 0.0 0.0
0.0 0.01958965663594517 -0.015739109729599667 0.014970902128592648 0.0007682076010070286 0.012496686063314933 0.0 0.0
0.0 0.013010913700008715 -0.010196890932333348 0.009490738255018758 0.0007061526773145904 0.00868188631179744 0.0 0.0
0.0 0.007128000272227453 -0.005665894277758991 0.0050571752502607285 0.0006087190274982605 0.005248450887815741 0.0 0.0
0.0 0.0030863392675952003 -0.0024476907388759762 0.00204012429183784 0.00040756644703813795 0.002584569895541202 0.0 0.0
0.0 0.0009545530128800892 -0.0006799441856826564 0.0005281350694696344 0.0001518091162130216 0.0008853362507750342 0.0 0.0
0.0 0.00012698858661256283 -9.135939140489029e-05 6.958223916050208e-05 2.1777152244388217e-05 0.00017791440381691802 0.0 0.0
0.0 1.5223507445062954e-05 -3.2801432598351e-06 2.611724967230152e-06 6.684182926049431e-07 1.805263610760232e-05 0.0 0.0
0.0 3.150303848404016e-06 9.79241546063472e-07 -8.552785139316534e-07 -1.2396303213181383e-07 9.807906182964014e-07 0.0 0.0
0.0 -1.8026562329990328e-06 9.759028710951879e-07 -7.824808377172181e-07 -1.9342203337797674e-07 -5.391930510216182e-06 0.0 0.0
0.0 2.3602507864049295e-07 -8.39484491700686e-09 1.0032999519822877e-08 -1.6381546028130493e-09 8.58234270171417e-08 0.0 0.0
0.0 0.0 0.0 0.0 0.0 0.0 0.0 0.0
0.0 0.0 0.0 0.0 0.0 0.0 0.0 0.0
0.0 -1.442014173058101e-07 -3.3362752796573827e-09 2.2228999904665956e-09 1.11337528919131e-09 -2.8514569053942703e-08 0.0 0.0
0.0 -1.0953323019532836e-06 6.84680268929112e-07 -5.510144525351122e-07 -1.3366581639400264e-07 2.7949334791575207e-06 0.0 0.0
0.0 -2.448947081130645e-06 1.0404933250132038e-06 -9.074462864219109e-07 -1.3304703859128124e-07 3.809097594116026e-08 0.0 0.0
0.0 2.1913759659831708e-05 -7.385198524544629e-06 5.04210944821577e-06 2.3430890763288786e-06 -1.515939570275028e-05 0.0 0.0
0.0 0.0003483424444046096 -0.00024802293162035224 0.00018681276965951967 6.121016196083217e-05 -0.0002749834328367447 0.0 0.0
0.0 0.0017003613250989747 -0.0014110327327765508 0.0011187013549325163 0.0002923313778440357 -0.0012265192205707634 0.0 0.0
0.0 0.004969862454299001 -0.004150515806630749 0.0035710537692021 0.0005794620374286473 -0.003175127098948519 0.0 0.0
0.0 0.010764763998655093 -0.008663446440788767 0.007922894577302993 0.0007405518634857715 -0.006205203370962288 0.0 0.0
0.0 0.017730770994496735 -0.01478275745654647 0.013965625901659316 0.0008171315548871611 -0.010034594792292932 0.0 0.0
0.0 0.026716244574740186 -0.022147223109097607 0.021269753482453635 0.0008774696266439633 -0.014134359654302805 0.0 0.0
0.0 0.03673089907240316 -0.030524494515821947 0.029583659545064124 0.0009408349707577886 -0.018202991423363925 0.0 0.0
0.0 0.04772621260428586 -0.03979193451052798 0.03878505522594117 0.001006879284586813 -0.022111987002834513 0.0 0.0
0.0 0.05965867027257292 -0.049884755286420876 0.048816857742393596 0.001067897544027267 -0.025903416103515795 0.0 0.0
0.0 0.07233038860499111 -0.06066151080264094 0.05954905301592175 0.0011124577867191896 -0.029831004899594785 0.0 0.0
0.0 0.08569319117551936 -0.07172709998061297 0.07059962489966659 0.0011274750809462993 -0.034449400172143686 0.0 0.0
0.0 0.09798477867593407 -0.08223617783628155 0.08113623674458309 0.0010999410916983912 -0.04027135371937589 0.0 0.0
0.0 0.10862357801579159 -0.09064771439838909 0.08963564040940246 0.0010120739889866366 -0.04697009189505448 0.0 0.0
0.0 0.11393246321575193 -0.094369150711962 0.09354723663922851 0.0008219140727333783 -0.05272384990398264 0.0 0.0
0.0 0.10845890168493325 -0.08910796350901155 0.0886557114613029 0.00045225204770864226 -0.05438383103755472 0.0 0.0
0.0 0.10253601741154078 -0.07885072413356824 0.07379386779697479 0.005056856336593321 2.9318561467484017e-14 0.0 0.0
0.0 0.10845890168493319 -0.08910796350900019 0.08865571146129286 0.0004522520477072945 0.054383831037621275 0.0 0.0
0.0 0.11393246321572403 -0.09436915071192875 0.09354723663919612 0.0008219140727325078 0.052723849904049006 0.0 0.0
0.0 0.10862357801574415 -0.09064771439834408 0.08963564040935815 0.0010120739889857297 0.04697009189509132 0.0 0.0
0.0 0.09798477867586618 -0.08223617783622296 0.08113623674452469 0.0010999410916982437 0.04027135371937408 0.0 0.0
0.0 0.08569319117544963 -0.07172709998055328 0.07059962489960779 0.001127475080945497 0.034449400172124625 0.0 0.0
0.0 0.07233038860491443 -0.06066151080257545 0.05954905301585739 0.001112457786718025 0.029831004899568782 0.0 0.0
0.0 0.059658670272495315 -0.04988475528635452 0.048816857742327684 0.0010678975440268068 0.025903416103491256 0.0 0.0
0.0 0.04772621260421205 -0.03979193451046583 0.03878505522587901 0.0010068792845868396 0.02211198700280991 0.0 0.0
0.0 0.036730899072333296 -0.03052449451576364 0.02958365954500626 0.0009408349707573719 0.018202991423333332 0.0 0.0
0.0 0.02671624457467611 -0.022147223109045114 0.021269753482401177 0.0008774696266438964 0.014134359654266545 0.0 0.0
0.0 0.01773077099444508 -0.014782757456503606 0.013965625901616848 0.0008171315548867618 0.010034594792263478 0.0 0.0
0.0 0.010764763998620227 -0.008663446440761119 0.007922894577276305 0.0007405518634848231 0.006205203370943508 0.0 0.0
0.0 0.0049698624542748445 -0.004150515806611689 0.0035710537691841936 0.0005794620374274973 0.003175127098934313 0.0 0.0
0.0 0.0017003613250877508 -0.0014110327327683644 0.0011187013549256214 0.0002923313778427427 0.0012265192205633052 0.0 0.0
0.0 0.00034834244439976413 -0.00024802293161727527 0.0001868127696571538 6.121016196012132e-05 0.0002749834328336313 0.0 0.0
0.0 2.1913759658789356e-05 -7.3851985246870405e-06 5.042109448330764e-06 2.343089076356263e-06 1.5159395703097274e-05 0.0 0.0
0.0 -2.448947081177298e-06 1.0404933247264669e-06 -9.074462861917193e-07 -1.3304703853473065e-07 -3.809097499745878e-08 0.0 0.0
0.0 -1.0953323015528521e-06 6.846802688730145e-07 -5.510144524995149e-07 -1.3366581637350047e-07 -2.7949334789639356e-06 0.0 0.0
0.0 -1.4420141728829376e-07 -3.3362752806946183e-09 2.222899992467387e-09 1.113375288226625e-09 2.8514569050021285e-08 0.0 0.0
0.0 0.0 0.0 0.0 0.0 0.0 0.0 0.0
0.0 0.0 0.0 0.0 0.0 0.0 0.0 0.0
0.0 3.6038578294664624e-09 9.857807809594942e-11 -7.389462359199636e-11 -2.4683454503980076e-11 6.911815398831632e-10 0.0 0.0
0.0 -7.173974233010147e-07 2.3750225030506674e-07 -1.877893240856824e-07 -4.971292621938551e-08 7.730024339604367e-07 0.0 0.0
0.0 -5.327689103515783e-06 4.089427790477273e-06 -3.3575982337752534e-06 -7.318295567019953e-07 7.80497306867653e-06 0.0 0.0
0.0 3.32646121949266e-05 -3.535206948947053e-05 2.5096433828610387e-05 1.0255635660860058e-05 -3.697204766389491e-05 0.0 0.0
0.0 0.0006771643207866256 -0.0005393845750130929 0.0004080939598693308 0.00013129061514376253 -0.0003803679274556081 0.0 0.0
0.0 0.0027294065887745536 -0.0023696964175747145 0.0019306399068940844 0.00043905651068063114 -0.001423948915850516 0.0 0.0
0.0 0.007378172170293959 -0.006100336922051973 0.0053928651392612294 0.000707471782790746 -0.0034902611256970337 0.0 0.0
0.0 0.013873396070244959 -0.011902263139354224 0.011067321380567596 0.0008349417587866181 -0.006665757994916483 0.0 0.0
0.0 0.023084190266878284 -0.019528929866060467 0.01862347369342029 0.0009054561726401845 -0.010500743711992909 0.0 0.0
0.0 0.03394487952291107 -0.028690880393299888 0.027722077917068315 0.0009688024762315357 -0.014580039549716164 0.0 0.0
0.0 0.046276989247478806 -0.03913549770132854 0.03809825746533528 0.0010372402359932792 -0.018621278721798702 0.0 0.0
0.0 0.059893065023936626 -0.050705600533027126 0.049596129352997106 0.0011094711800298577 -0.022513597344719943 0.0 0.0
0.0 0.07476884918108093 -0.06331856126932668 0.06213906903666581 0.0011794922326609654 -0.02628688187734104 0.0 0.0
0.0 0.09054746014469615 -0.07685105970174332 0.07561499929681267 0.0012360604049306467 -0.030149818728041816 0.0 0.0
0.0 0.10685192487918566 -0.0908772047652996 0.08962181360410504 0.001255391161194561 -0.03462121367988486 0.0 0.0
0.0 0.12304767045043555 -0.10431920889805332 0.10310839105059766 0.0012108178474556962 -0.0403184061798569 0.0 0.0
0.0 0.1360213131769342 -0.11511673713631218 0.11403867102837448 0.00107806610793752 -0.04712882549430955 0.0 0.0
0.0 0.1421129038721589 -0.11991678755452861 0.11908300325156923 0.0008337843029593607 -0.05349566568114261 0.0 0.0
0.0 0.1361390640645572 -0.11391921943514347 0.1134631297577395 0.00045608967740397787 -0.05739862009583069 0.0 0.0
0.0 0.1280400115200037 -0.1022576272944129 0.09666809709648735 0.005589530197925573 3.0758381952544767e-14 0.0 0.0
0.0 0.13613906406454784 -0.11391921943512624 0.11346312975772194 0.000456089677404412 0.05739862009589985 0.0 0.0
0.0 0.14211290387212122 -0.11991678755448891 0.11908300325152912 0.0008337843029598774 0.05349566568121015 0.0 0.0
0.0 0.13602131317687363 -0.11511673713625663 0.11403867102831916 0.0010780661079373105 0.04712882549434646 0.0 0.0
0.0 0.12304767045035674 -0.10431920889798482 0.10310839105052909 0.0012108178474556958 0.0403184061798586 0.0 0.0
0.0 0.10685192487909886 -0.090877204765225 0.0896218136040308 0.0012553911611940288 0.034621213679869 0.0 0.0
0.0 0.09054746014460666 -0.07685105970166636 0.07561499929673678 0.0012360604049295012 0.030149818728021274 0.0 0.0
0.0 0.07476884918098965 -0.06331856126924808 0.06213906903658783 0.0011794922326603375 0.026286881877317092 0.0 0.0
0.0 0.05989306502384802 -0.05070560053295122 0.0495961293529215 0.0011094711800296528 0.022513597344695956 0.0 0.0
0.0 0.04627698924739326 -0.03913549770125636 0.038098257465263546 0.0010372402359927649 0.018621278721767165 0.0 0.0
0.0 0.03394487952283598 -0.02869088039323736 0.027722077917005827 0.000968802476231534 0.01458003954968079 0.0 0.0
0.0 0.02308419026681909 -0.019528929866010725 0.018623473693370994 0.0009054561726397253 0.01050074371196502 0.0 0.0
0.0 0.013873396070202795 -0.01190226313931768 0.011067321380531922 0.0008349417587857564 0.006665757994896557 0.0 0.0
0.0 0.00737817217026073 -0.006100336922025273 0.005392865139235519 0.0007074717827897526 0.0034902611256809116 0.0 0.0
0.0 0.002729406588759857 -0.0023696964175627046 0.001930639906883838 0.000439056510678867 0.001423948915843123 0.0 0.0
0.0 0.0006771643207795652 -0.0005393845750081397 0.0004080939598654752 0.0001312906151426645 0.0003803679274519438 0.0 0.0
0.0 3.326461219335654e-05 -3.5352069488953243e-05 2.5096433828244987e-05 1.0255635660708274e-05 3.6972047663512966e-05 0.0 0.0
0.0 -5.327689103866214e-06 4.089427790253521e-06 -3.357598233600459e-06 -7.318295566530604e-07 -7.804973068064003e-06 0.0 0.0
0.0 -7.173974232406267e-07 2.3750225033504831e-07 -1.8778932410967472e-07 -4.9712926225371955e-08 -7.730024340451581e-07 0.0 0.0
0.0 3.6038578586707158e-09 9.857807889774004e-11 -7.389462419330502e-11 -2.4683454704453356e-11 -6.911815455047824e-10 0.0 0.0
0.0 0.0 0.0 0.0 0.0 0.0 0.0 0.0
0.0 0.0 0.0 0.0 0.0 0.0 0.0 0.0
0.0 0.0 0.0 0.0 0.0 0.0 0.0 0.0
0.0 -1.9259891853480113e-07 -1.2438204119640457e-08 9.900711751953166e-09 2.537492367688598e-09 -3.208399983975565e-08 0.0 0.0
0.0 -7.802861588784414e-06 4.610332316805761e-06 -3.84496617265534e-06 -7.653661441504477e-07 7.992649249480828e-06 0.0 0.0
0.0 0.00011237581338192457 -8.793310563765224e-05 6.202644724730011e-05 2.590665839035218e-05 -4.644508824662563e-05 0.0 0.0
0.0 0.001063173649559053 -0.0009919309425785565 0.0007608492086933269 0.00023108173388522953 -0.000454498459658608 0.0 0.0
0.0 0.004168720092327059 -0.003523053420587466 0.002952884527899035 0.0005701688926884276 -0.001462205542029179 0.0 0.0
0.0 0.009436963760751352 -0.008260602056562469 0.0074592129366987895 0.0008013891198636832 -0.0035243909994873714 0.0 0.0
0.0 0.0176665609201904 -0.015260975708254045 0.014351066415092352 0.0009099092931616698 -0.006495624065129195 0.0 0.0
0.0 0.02838104976553151 -0.024368278625284973 0.023386391409321656 0.0009818872159633445 -0.010048107418463476 0.0 0.0
0.0 0.041245170981904104 -0.03530855721230123 0.03425763167572594 0.001050925536575282 -0.013845669186224936 0.0 0.0
0.0 0.05592347576414518 -0.047812112303466235 0.046687688594443943 0.001124423709022235 -0.017606910355854075 0.0 0.0
0.0 0.07223641314078837 -0.0616839404261329 0.060482428368980254 0.001201512057152572 -0.021247574373592995 0.0 0.0
0.0 0.08964719090821771 -0.07680429201328448 0.07552555762408554 0.0012787343891989627 -0.024800743036713497 0.0 0.0
0.0 0.10862018863699177 -0.0930224963988999 0.09167769655108016 0.0013447998478198458 -0.028343213995786827 0.0 0.0
0.0 0.12833859862903332 -0.10989337137119574 0.1085220626930163 0.001371308678179313 -0.032169625789336416 0.0 0.0
0.0 0.14721871462300457 -0.12616942674381038 0.1248554093827635 0.0013140173610468639 -0.03695149519299496 0.0 0.0
0.0 0.16280617266039918 -0.13930690358574527 0.13816788498588822 0.0011390185998570088 -0.04323308807826315 0.0 0.0
0.0 0.17042207974578288 -0.14531459101593122 0.14446905833676082 0.0008455326791702221 -0.05066607479206775 0.0 0.0
0.0 0.1640536938874555 -0.1389418359257494 0.1384922189193546 0.0004496170063948962 -0.05870331994625304 0.0 0.0
0.0 0.15431568633091053 -0.12617865889914323 0.12012954022322664 0.006049118675916733 2.995693970664348e-14 0.0 0.0
0.0 0.16405369388743424 -0.13894183592572412 0.13849221891932773 0.00044961700639628197 0.05870331994631923 0.0 0.0
0.0 0.1704220797457384 -0.1453145910158868 0.14446905833671675 0.0008455326791698308 0.05066607479213142 0.0 0.0
0.0 0.16280617266032477 -0.1393069035856793 0.13816788498582194 0.00113901859985742 0.04323308807829803 0.0 0.0
0.0 0.14721871462291355 -0.12616942674373116 0.1248554093826846 0.0013140173610463662 0.036951495192996994 0.0 0.0
0.0 0.12833859862892186 -0.10989337137109961 0.10852206269291977 0.0013713086781798206 0.03216962578932288 0.0 0.0
0.0 0.10862018863688537 -0.09302249639880815 0.09167769655098912 0.0013447998478190234 0.028343213995770673 0.0 0.0
0.0 0.08964719090811057 -0.07680429201319217 0.0755255576239934 0.0012787343891986199 0.0248007430366938 0.0 0.0
0.0 0.07223641314068285 -0.061683940426042 0.0604824283688891 0.0012015120571528775 0.02124757437357079 0.0 0.0
0.0 0.055923475764047624 -0.04781211230338283 0.046687688594361405 0.0011244237090214694 0.01760691035582492 0.0 0.0
0.0 0.04124517098181686 -0.03530855721222707 0.034257631675652045 0.0010509255365750629 0.013845669186192103 0.0 0.0
0.0 0.02838104976546095 -0.024368278625224622 0.02338639140926161 0.0009818872159629804 0.010048107418436869 0.0 0.0
0.0 0.017666560920138664 -0.015260975708209607 0.01435106641504834 0.0009099092931612674 0.0064956240651101805 0.0 0.0
0.0 0.009436963760715674 -0.008260602056531887 0.007459212936669207 0.000801389119862677 0.0035243909994734676 0.0 0.0
0.0 0.004168720092307807 -0.003523053420571869 0.002952884527885046 0.0005701688926868232 0.0014622055420222516 0.0 0.0
0.0 0.0010631736495514748 -0.0009919309425726918 0.0007608492086886463 0.0002310817338840451 0.00045449845965571254 0.0 0.0
0.0 0.00011237581337968983 -8.793310563661403e-05 6.202644724655607e-05 2.590665839005797e-05 4.6445088246264225e-05 0.0 0.0
0.0 -7.802861588813098e-06 4.610332316614994e-06 -3.844966172508579e-06 -7.65366144106413e-07 -7.992649249225146e-06 0.0 0.0
0.0 -1.9259891850927365e-07 -1.243820411784055e-08 9.900711750511593e-09 2.5374923673294314e-09 3.208399983580417e-08 0.0 0.0
0.0 0.0 0.0 0.0 0.0 0.0 0.0 0.0
0.0 0.0 0.0 0.0 0.0 0.0 0.0 0.0
0.0 0.0 0.0 0.0 0.0 0.0 0.0 0.0
0.0 0.0 0.0 0.0 0.0 0.0 0.0 0.0
0.0 -7.18462332870173e-08 -5.322214849680892e-09 4.219826328331633e-09 1.102388521349622e-09 -1.0684932772376604e-08 0.0 0.0
0.0 -9.094889046421729e-06 6.474162443084701e-06 -5.521216219920716e-06 -9.529462231639777e-07 8.750419613984057e-06 0.0 0.0
0.0 0.00024104325961470514 -0.00020634377726440296 0.00014694344680619178 5.940033045821145e-05 -5.522361262232201e-05 0.0 0.0
0.0 0.0017639261741719983 -0.0015674664062582473 0.0012269636939674033 0.00034050271229084335 -0.0004015032992053082 0.0 0.0
0.0 0.005510348303041716 -0.00486566652075058 0.00418633845379368 0.0006793280669568985 -0.0013470823154037711 0.0 0.0
0.0 0.011914471629363457 -0.010530321527127467 0.009659431218800519 0.0008708903083269417 -0.0031555728567041075 0.0 0.0
0.0 0.021412669278889757 -0.01868608108129042 0.017712183565275583 0.0009738975160148239 -0.005659781261872983 0.0 0.0
0.0 0.03376521690633919 -0.029245303749422896 0.028193936585351475 0.0010513671640714184 -0.00869255913290793 0.0 0.0
0.0 0.04855317624387856 -0.041945964722270815 0.040819519103957 0.0011264456183137973 -0.011945365516920948 0.0 0.0
0.0 0.06556992653061851 -0.05650255323799066 0.05529715946592939 0.0012053937720612933 -0.01517271831461181 0.0 0.0
0.0 0.08423490519943294 -0.0726814730167254 0.0713944851982327 0.0012869878184927058 -0.018318522480606628 0.0 0.0
0.0 0.1049053739116151 -0.09028678000529045 0.0889207002902386 0.001366079715051803 -0.021426419098037153 0.0 0.0
0.0 0.12661371411819083 -0.1090986060649799 0.10766239179647875 0.001436214268501118 -0.02446180654269393 0.0 0.0
0.0 0.14904286725622637 -0.1286198157390484 0.12714582603043462 0.0014739897086138629 -0.02735283256073706 0.0 0.0
0.0 0.1710787019289262 -0.14754818131361683 0.14612444594954888 0.0014237353640680723 -0.030507357487520776 0.0 0.0
0.0 0.18930573671460163 -0.1631016832424433 0.1618817758983806 0.0012199073440625871 -0.03542586908334223 0.0 0.0
0.0 0.198709735629161 -0.17074722175743187 0.16987998822107903 0.0008672335363527088 -0.04419827771672632 0.0 0.0
0.0 0.19282799751102206 -0.1645970118239712 0.16417722891533484 0.000419782908636536 -0.0580365356852352 0.0 0.0
0.0 0.18240813326522134 -0.1510745354510729 0.1446465257440051 0.0064280097070675895 2.6244631468053115e-14 0.0 0.0
0.0 0.19282799751099108 -0.16459701182393913 0.16417722891530187 0.0004197829086373361 0.05803653568529164 0.0 0.0
0.0 0.19870973562910532 -0.17074722175737927 0.16987998822102804 0.0008672335363511961 0.04419827771678203 0.0 0.0
0.0 0.18930573671450737 -0.16310168324236107 0.16188177589829775 0.0012199073440633302 0.03542586908336967 0.0 0.0
0.0 0.17107870192881666 -0.14754818131352268 0.14612444594945426 0.0014237353640681942 0.030507357487520696 0.0 0.0
0.0 0.1490428672560992 -0.12861981573893846 0.12714582603032448 0.0014739897086139956 0.027352832560726542 0.0 0.0
0.0 0.12661371411806674 -0.10909860606487301 0.10766239179637198 0.001436214268500898 0.02446180654268034 0.0 0.0
0.0 0.10490537391149657 -0.09028678000518756 0.08892070029013648 0.0013660797150511516 0.02142641909802131 0.0 0.0
0.0 0.0842349051993085 -0.07268147301661852 0.07139448519812586 0.0012869878184927862 0.01831852248058676 0.0 0.0
0.0 0.06556992653050749 -0.05650255323789473 0.05529715946583422 0.0012053937720605393 0.015172718314586426 0.0 0.0
0.0 0.0485531762437792 -0.04194596472218544 0.04081951910387213 0.0011264456183132945 0.011945365516892478 0.0 0.0
0.0 0.03376521690625934 -0.029245303749354058 0.028193936585283113 0.0010513671640709668 0.008692559132885603 0.0 0.0
0.0 0.02141266927882825 -0.018686081081237253 0.01771218356522268 0.0009738975160145829 0.005659781261855621 0.0 0.0
0.0 0.011914471629320954 -0.010530321527090112 0.009659431218764024 0.000870890308326087 0.0031555728566917667 0.0 0.0
0.0 0.0055103483030175884 -0.004865666520730067 0.004186338453774605 0.0006793280669554525 0.0013470823153965467 0.0 0.0
0.0 0.001763926174162433 -0.0015674664062505196 0.0012269636939610902 0.00034050271228943177 0.00040150329920311356 0.0 0.0
0.0 0.00024104325961180984 -0.00020634377726250674 0.00014694344680481718 5.940033045768973e-05 5.522361262184645e-05 0.0 0.0
0.0 -9.094889046746695e-06 6.474162442621504e-06 -5.521216219564509e-06 -9.529462230569895e-07 -8.750419613551245e-06 0.0 0.0
0.0 -7.184623319621463e-08 -5.322214842869262e-09 4.219826322927047e-09 1.1023885199412321e-09 1.0684932758656047e-08 0.0 0.0
0.0 0.0 0.0 0.0 0.0 0.0 0.0 0.0
0.0 0.0 0.0 0.0 0.0 0.0 0.0 0.0
0.0 0.0 0.0 0.0 0.0 0.0 0.0 0.0
0.0 0.0 0.0 0.0 0.0 0.0 0.0 0.0
0.0 0.0 0.0 0.0 0.0 0.0 0.0 0.0
0.0 -8.606554003621077e-06 7.169732386442855e-06 -6.777727941217096e-06 -3.920044452257954e-07 9.557406862036697e-06 0.0 0.0
0.0 0.0004233660865918616 -0.0004141332630432365 0.000298324715705926 0.00011580854733731052 -2.3934097879936772e-05 0.0 0.0
0.0 0.002631313265353281 -0.002298090724930928 0.001845136122835856 0.00045295460209507366 -0.00024740426658999715 0.0 0.0
0.0 0.006927754418041607 -0.006333058425711053 0.00557196099864444 0.0007610974270666067 -0.0010147576867155915 0.0 0.0
0.0 0.014503051048186125 -0.012859714587486207 0.011931514676565993 0.0009281999109202303 -0.0023256465360588056 0.0 0.0
0.0 0.025206044192421923 -0.022132729741609136 0.02110100408058493 0.0010317256610241883 -0.004177574734900551 0.0 0.0
0.0 0.03914388063616559 -0.03411131474512598 0.03299565418783164 0.0011156605572943343 -0.006438870711621123 0.0 0.0
0.0 0.05593852200667829 -0.04855244169471275 0.047355349867832616 0.0011970918268801028 -0.00888323417928327 0.0 0.0
0.0 0.07512203121326681 -0.06515543310696201 0.06387429529855745 0.0012811378084044715 -0.0113199827485091 0.0 0.0
0.0 0.09671758305967813 -0.08363792579691194 0.08227181751558789 0.0013661082813241632 -0.013721363309235509 0.0 0.0
0.0 0.11970679571353002 -0.10372583841584368 0.10227958603127443 0.0014462523845691782 -0.01614398480243302 0.0 0.0
0.0 0.14438885164880821 -0.1250419782359278 0.12352941254292844 0.0015125656929992062 -0.01848094067863927 0.0 0.0
0.0 0.16974535606720562 -0.14696108446394698 0.14541009686287626 0.0015509876010707624 -0.020390352943678913 0.0 0.0
0.0 0.19435318471899224 -0.16824025607423973 0.16670959107518268 0.0015306649990568827 -0.021771767079227157 0.0 0.0
0.0 0.21526449636070913 -0.18628059442093842 0.18491310722763768 0.0013674871933007872 -0.024293023372497356 0.0 0.0
0.0 0.22723277474269613 -0.196286932241961 0.19535478680068147 0.0009321454412794946 -0.03301341287418757 0.0 0.0
0.0 0.22285032159902213 -0.19135249196088955 0.19102566167377993 0.0003268302871093641 -0.05425719700403703 0.0 0.0
0.0 0.2124494603759004 -0.17759649579340545 0.17084892348195596 0.006747572311449596 1.9083692959220855e-14 0.0 0.0
0.0 0.22285032159899024 -0.1913524919608581 0.1910256616737493 0.00032683028710844126 0.054257197004082124 0.0 0.0
0.0 0.22723277474261794 -0.1962869322418919 0.19535478680061133 0.0009321454412809349 0.03301341287423199 0.0 0.0
0.0 0.21526449636060327 -0.18628059442084755 0.18491310722754614 0.0013674871933011855 0.02429302337251659 0.0 0.0
0.0 0.19435318471886673 -0.16824025607413148 0.16670959107507455 0.0015306649990573622 0.02177176707922393 0.0 0.0
0.0 0.16974535606706653 -0.14696108446382633 0.14541009686275613 0.0015509876010703447 0.020390352943674535 0.0 0.0
0.0 0.1443888516486628 -0.1250419782358028 0.12352941254280231 0.0015125656930005814 0.018480940678630847 0.0 0.0
0.0 0.11970679571339515 -0.10372583841572669 0.10227958603115862 0.0014462523845680624 0.016143984802421883 0.0 0.0
0.0 0.0967175830595401 -0.0836379257967926 0.08227181751546851 0.0013661082813240292 0.013721363309223222 0.0 0.0
0.0 0.07512203121314182 -0.06515543310685418 0.06387429529845018 0.0012811378084038837 0.011319982748491816 0.0 0.0
0.0 0.05593852200657064 -0.04855244169461927 0.04735534986773946 0.0011970918268797215 0.008883234179262813 0.0 0.0
0.0 0.03914388063607707 -0.03411131474504861 0.03299565418775499 0.0011156605572936087 0.006438870711603591 0.0 0.0
0.0 0.025206044192353942 -0.022132729741549666 0.021101004080525933 0.0010317256610237516 0.004177574734888155 0.0 0.0
0.0 0.014503051048137601 -0.012859714587443505 0.01193151467652404 0.0009281999109194593 0.002325646536049174 0.0 0.0
0.0 0.006927754418014111 -0.006333058425686487 0.00557196099862115 0.000761097427065346 0.0010147576867098578 0.0 0.0
0.0 0.002631313265339777 -0.002298090724919291 0.001845136122825915 0.0004529546020933744 0.0002474042665879105 0.0 0.0
0.0 0.00042336608658875884 -0.0004141332630411898 0.0002983247157045212 0.00011580854733666788 2.3934097880221857e-05 0.0 0.0
0.0 -8.606554003735003e-06 7.169732386218484e-06 -6.7777279410464665e-06 -3.920044451720499e-07 -9.557406861929755e-06 0.0 0.0
0.0 0.0 0.0 0.0 0.0 0.0 0.0 0.0
0.0 0.0 0.0 0.0 0.0 0.0 0.0 0.0
0.0 0.0 0.0 0.0 0.0 0.0 0.0 0.0
0.0 0.0 0.0 0.0 0.0 0.0 0.0 0.0
0.0 0.0 0.0 0.0 0.0 0.0 0.0 0.0
0.0 0.0 0.0 0.0 0.0 0.0 0.0 0.0
0.0 1.1506443538089206e-05 -1.4167477152608937e-05 7.2754372777855115e-06 6.892039874823482e-06 1.2380572251030967e-05 0.0 0.0
0.0 0.0008034078648456428 -0.0007113438295705318 0.0005220448705918489 0.00018929895897868259 8.276148870912315e-05 0.0 0.0
0.0 0.0035125558060182683 -0.0031656850609508287 0.0026101609889047383 0.0005555240720460909 2.5688516895891014e-05 0.0 0.0
0.0 0.008686923374309681 -0.007863262551147185 0.007041364474004707 0.0008218980771424817 -0.00038111762316481276 0.0 0.0
0.0 0.01712373424590849 -0.015212461259740375 0.014235654418320795 0.0009768068414195523 -0.0010736161778416844 0.0 0.0
0.0 0.02907761338946898 -0.02555465518818611 0.02447004597333414 0.001084609214851965 -0.0020562180453375855 0.0 0.0
0.0 0.044508888779691134 -0.03891742839705441 0.03774107142728284 0.0011763569697715434 -0.003289331775049283 0.0 0.0
0.0 0.06322217533983618 -0.05507960596510248 0.053816099128764124 0.0012635068363383785 -0.004650836143998888 0.0 0.0
0.0 0.084937606867055 -0.07371990170586754 0.0723680694686882 0.0013518322371793782 -0.006041421384836923 0.0 0.0
0.0 0.10868055820748115 -0.09450705357954202 0.09306655318790383 0.0014405003916380648 -0.007463057440416865 0.0 0.0
0.0 0.13474799975656127 -0.11705326036030969 0.11553252654832162 0.0015207338119880283 -0.008919066516518548 0.0 0.0
0.0 0.16221809267600276 -0.1408194710337375 0.13924004595872724 0.0015794250750103427 -0.010302879414298298 0.0 0.0
0.0 0.19014519481498796 -0.16496659083255402 0.16336132638306333 0.0016052644494903901 -0.011313424306438322 0.0 0.0
0.0 0.21702107185313346 -0.1881925546215754 0.1865968067275991 0.0015957478939765978 -0.011550965018704 0.0 0.0
0.0 0.24036613610292226 -0.20837744471801542 0.20683918422661254 0.0015382604914028631 -0.01166188027494582 0.0 0.0
0.0 0.25562501712347563 -0.22151400612954514 0.22026793383836563 0.0012460722911793996 -0.016867321859520522 0.0 0.0
0.0 0.2545831276496831 -0.21985335474972023 0.21955177390959377 0.0003015808401261691 -0.04150948787757573 0.0 0.0
0.0 0.2465819204140443 -0.20682324914083688 0.2007465977839954 0.006076651356841335 1.3699111289788846e-14 0.0 0.0
0.0 0.25458312764964686 -0.21985335474968604 0.21955177390956107 0.00030158084012485615 0.04150948787760344 0.0 0.0
0.0 0.2556250171233876 -0.22151400612946898 0.22026793383828822 0.0012460722911807169 0.016867321859546196 0.0 0.0
0.0 0.24036613610280405 -0.20837744471791322 0.20683918422651043 0.0015382604914027567 0.011661880274954947 0.0 0.0
0.0 0.21702107185299357 -0.1881925546214545 0.18659680672747864 0.0015957478939758662 0.011550965018701311 0.0 0.0
0.0 0.19014519481483136 -0.16496659083241794 0.16336132638292744 0.0016052644494903158 0.011313424306436008 0.0 0.0
0.0 0.1622180926758458 -0.14081947103360212 0.13924004595859155 0.0015794250750107756 0.010302879414294884 0.0 0.0
0.0 0.1347479997564058 -0.11705326036017497 0.11553252654818774 0.0015207338119871405 0.008919066516511427 0.0 0.0
0.0 0.10868055820732964 -0.09450705357941105 0.09306655318777268 0.0014405003916384107 0.0074630574404104515 0.0 0.0
0.0 0.08493760686691393 -0.07371990170574573 0.0723680694685663 0.001351832237179458 0.006041421384827593 0.0 0.0
0.0 0.06322217533971415 -0.05507960596499714 0.05381609912865889 0.001263506836338283 0.0046508361439864445 0.0 0.0
0.0 0.04450888877959331 -0.038917428396968844 0.0377410714271982 0.0011763569697706342 0.003289331775038616 0.0 0.0
0.0 0.029077613389394134 -0.025554655188120376 0.024470045973268885 0.00108460921485149 0.0020562180453310474 0.0 0.0
0.0 0.017123734245855116 -0.015212461259693244 0.014235654418274277 0.000976806841418959 0.0010736161778365373 0.0 0.0
0.0 0.008686923374277372 -0.007863262551118208 0.007041364473976701 0.000821898077141498 0.0003811176231617837 0.0 0.0
0.0 0.0035125558060035305 -0.003165685060937861 0.002610160988893375 0.0005555240720444862 -2.5688516896346352e-05 0.0 0.0
0.0 0.0008034078648401801 -0.0007113438295663228 0.0005220448705886314 0.00018929895897769068 -8.276148870861133e-05 0.0 0.0
0.0 1.1506443537563652e-05 -1.4167477152571386e-05 7.275437277788019e-06 6.892039874783463e-06 -1.2380572250941654e-05 0.0 0.0
0.0 0.0 0.0 0.0 0.0 0.0 0.0 0.0
0.0 0.0 0.0 0.0 0.0 0.0 0.0 0.0
0.0 0.0 0.0 0.0 0.0 0.0 0.0 0.0
0.0 0.0 0.0 0.0 0.0 0.0 0.0 0.0
0.0 0.0 0.0 0.0 0.0 0.0 0.0 0.0
0.0 0.0 0.0 0.0 0.0 0.0 0.0 0.0
0.0 7.695611267674514e-05 -7.558098528893222e-05 4.9645841709350835e-05 2.593514357958141e-05 2.8359507149840495e-05 0.0 0.0
0.0 0.001238830122263958 -0.0010492424487984796 0.0007641775521651617 0.0002850648966333178 0.000241816664124852 0.0 0.0
0.0 0.004364919066184428 -0.00393953654019807 0.003211188568356946 0.0007283479718411213 0.0005050250830832275 0.0 0.0
0.0 0.010063980487849032 -0.009160790004470823 0.008084853667764529 0.0010759363367063084 0.0006519275082007522 0.0 0.0
0.0 0.0191664961471742 -0.017158780901400935 0.015804184024706947 0.001354596876694014 0.0007035273948351572 0.0 0.0
0.0 0.03194599588479228 -0.02835412647093058 0.026722219325358947 0.0016319071455716267 0.0006420875912547725 0.0 0.0
0.0 0.04857988270514557 -0.04284039798832109 0.040892702062420204 0.0019476959259008063 0.000412234224993353 0.0 0.0
0.0 0.0688320726459786 -0.06042303826190282 0.05810380042615761 0.002319237835745203 5.10629040610909e-05 0.0 0.0
0.0 0.09197764039682056 -0.08076135191544488 0.0780142627431208 0.0027470891723239753 -0.0004180344790956983 0.0 0.0
0.0 0.11791296144567147 -0.10345203494728719 0.10023756672005979 0.003214468227227325 -0.001009320705963615 0.0 0.0
0.0 0.14604167349445563 -0.12802418125132523 0.12432843750345972 0.0036957437478654584 -0.0016898892753311467 0.0 0.0
0.0 0.17561017296049886 -0.15381313418169257 0.1496602946724957 0.004152839509196924 -0.002435052735812236 0.0 0.0
0.0 0.20547978716028284 -0.1797834384146072 0.1752473042626997 0.004536134151907312 -0.0030741183356793322 0.0 0.0
0.0 0.23388122678019313 -0.20442705317580318 0.19963295161346528 0.004794101562337657 -0.0032579198224537004 0.0 0.0
0.0 0.25848466151366717 -0.22577870791633492 0.22085447506577147 0.004924232850563272 -0.0029693996398377637 0.0 0.0
0.0 0.2760080856714655 -0.2412426057996863 0.2361280700431289 0.005114535756557292 -0.006274161205109083 0.0 0.0
0.0 0.2795968801385499 -0.2450964401550248 0.2395379974649814 0.005558442690043502 -0.03262417666695464 0.0 0.0
0.0 0.27829350227369504 -0.23476531079386098 0.22366842615536361 0.011096884638496994 4.8155923693116165e-15 0.0 0.0
0.0 0.2795968801385061 -0.24509644015498486 0.23953799746494261 0.005558442690042107 0.03262417666696488 0.0 0.0
0.0 0.2760080856713747 -0.2412426057996068 0.23612807004305145 0.005114535756555098 0.006274161205120088 0.0 0.0
0.0 0.25848466151353267 -0.2257787079162176 0.2208544750656575 0.0049242328505603224 0.002969399639836598 0.0 0.0
0.0 0.23388122678003806 -0.20442705317566756 0.19963295161333222 0.004794101562335215 0.0032579198224490027 0.0 0.0
0.0 0.20547978716011028 -0.17978343841445696 0.17524730426255114 0.004536134151905211 0.0030741183356765185 0.0 0.0
0.0 0.17561017296033538 -0.15381313418154957 0.14966029467235534 0.004152839509194245 0.0024350527358094655 0.0 0.0
0.0 0.1460416734942855 -0.12802418125117654 0.12432843750331406 0.003695743747862259 0.0016898892753261334 0.0 0.0
0.0 0.11791296144551235 -0.10345203494714862 0.1002375667199232 0.003214468227225261 0.0010093207059605792 0.0 0.0
0.0 0.09197764039666427 -0.0807613519153093 0.07801426274298671 0.002747089172322484 0.00041803447909118975 0.0 0.0
0.0 0.06883207264584482 -0.06042303826178627 0.05810380042604259 0.0023192378357436714 -5.106290406623609e-05 0.0 0.0
0.0 0.04857988270504178 -0.04284039798823035 0.04089270206233175 0.001947695925898545 -0.0004122342249965891 0.0 0.0
0.0 0.03194599588471074 -0.02835412647085902 0.02672221932528896 0.001631907145570051 -0.0006420875912569609 0.0 0.0
0.0 0.01916649614711565 -0.017158780901348952 0.01580418402465626 0.0013545968766926844 -0.0007035273948350221 0.0 0.0
0.0 0.010063980487812239 -0.009160790004437603 0.008084853667732867 0.0010759363367047223 -0.0006519275081994973 0.0 0.0
0.0 0.004364919066170294 -0.003939536540184846 0.0032111885683453554 0.0007283479718394937 -0.0005050250830816931 0.0 0.0
0.0 0.0012388301222559209 -0.0010492424487917892 0.0007641775521600579 0.00028506489663173383 -0.00024181666412351416 0.0 0.0
0.0 7.695611267621463e-05 -7.5580985288609e-05 4.964584170916816e-05 2.593514357944083e-05 -2.8359507149609438e-05 0.0 0.0
0.0 0.0 0.0 0.0 0.0 0.0 0.0 0.0
0.0 0.0 0.0 0.0 0.0 0.0 0.0 0.0
0.0 0.0 0.0 0.0 0.0 0.0 0.0 0.0
SCALARS Wm float 4
LOOKUP_TABLE default
13.500954033574656 0.6233560097870188 6.69936712512126 6.178230898666359
6.364628402931373 2.107264218129905 1.9332379373594224 2.3241262474420474
0.07897797842645486 -0.048066778356335514 0.03012026602381463 0.09692449075897579
0.07695619236543139 -0.0026547100845216824 0.022746958486588496 0.05686394396336431
0.6381137759491871 0.03899698328614046 0.22340323234177414 0.3757135603212719
2.328245384499394 0.17184652037108353 0.8671155578819547 1.289283306246357
6.013033772429519 0.44629816993939986 2.5555384183775027 3.011197184112614
12.3602152400603 0.9242320988899573 5.699634437655092 5.736348703515249
22.035400011895167 1.6560588003353118 10.804370710483093 9.574970501076754
35.41879124656219 2.608936637625449 18.254474721288062 14.5553798876487
52.551493914674886 3.7063398027664753 28.233455775274358 20.61169833663407
73.12557901140559 4.873123136960856 40.62358031286985 27.628875561574898
97.01425795076517 6.0438559479446115 55.49376188334747 35.47664011947309
123.81909472595946 7.157254073613494 72.64470161213595 44.01713904021005
152.87145697627147 8.030190475166858 91.77727060014088 53.06399590096375
183.10933492435112 8.398915156746806 112.35837227491697 62.352047492687376
213.00512274482261 8.031227521416332 133.43884935424904 71.53504586915732
240.7924180596059 6.895145900170405 153.77508799005176 80.12218416938359
264.7206812406232 5.315915040398369 171.84126606768206 87.56350013254303
281.63363592891756 2.912563413679284 185.54118214171217 93.1798903735258
287.1003861856975 -0.2686035355964047 191.66273001436446 95.70625970692976
281.63363592889397 2.912563413692104 185.54118214168548 93.1798903735164
264.72068124054545 5.3159150404121025 171.84126606761694 87.56350013251622
240.7924180594969 6.895145900195018 153.7750879899582 80.1221841693437
213.00512274467357 8.031227521418757 133.4388493541429 71.53504586911203
183.10933492421026 8.39891515674828 112.35837227481831 62.35204749264375
152.87145697611436 8.030190475165423 91.77727060003502 53.06399590091388
123.8190947258012 7.157254073599339 72.64470161203886 44.01713904016299
97.01425795062289 6.043855947939766 55.49376188325654 35.47664011942661
73.12557901127562 4.873123136954524 40.6235803127898 27.628875561531324
52.551493914568866 3.706339802762172 28.23345577521014 20.611698336596557
35.41879124648291 2.6089366376187457 18.2544747212438 14.55537988762035
22.035400011838934 1.65605880033094 10.804370710452801 9.574970501055201
12.360215240020072 0.9242320988864037 5.699634437634898 5.736348703498764
6.013033772406649 0.4462981699374466 2.555538418366903 3.011197184102302
2.3282453844901223 0.17184652037058493 0.8671155578782488 1.2892833062412867
0.6381137759464118 0.03899698328560105 0.22340323234081247 0.37571356031999875
0.07695619236482698 -0.0026547100844880106 0.022746958486366237 0.05686394396294889
0.07897797842560536 -0.04806677835651532 0.030120266023589828 0.09692449075852945
6.36462840292378 2.1072642181293335 1.9332379373562354 2.3241262474382136
13.500954033556807 0.6233560097842854 6.699367125110635 6.178230898661895
12.871518975960365 2.4524762021827824 5.121113172070055 5.2979296017075335
3.41982104221214 0.7247385553776148 1.173909867029387 1.5211726198051359
-0.13248088400272692 -0.07110388770624178 -0.023285776182871056 -0.03809122011361412
0.03419546390755714 0.0009703190225037676 0.007467766503012785 0.025757378382040678
0.4004145655943975 0.008665316170963054 0.13067537760613276 0.261073871817302
1.8181818631056146 0.0941867274159319 0.6916920729094438 1.032303062780238
5.010046546828322 0.28277747265601594 2.1234046425610638 2.603864431611243
10.70623262978954 0.6247243798506434 4.953237295682367 5.128270954256526
19.44207289664299 1.1403207213500361 9.597513990838557 8.7042381844544
31.502517847190834 1.809081545804313 16.35551477630227 13.337921525084266
46.9351439181533 2.5908149664675832 25.387604059234615 18.95672489245109
65.67455368840041 3.471498199401462 36.753763874258475 25.449291614740478
87.26778981442519 4.441060563571543 50.11975636391366 32.70697288694001
111.73716416183164 5.447604496509071 65.68441022021452 40.605149445108054
138.45155016313797 6.427767808137103 83.0346684275047 48.98911392749623
166.57373552023145 7.252660255028396 101.70206189171577 57.619013373487114
194.8588225244845 7.784421618621539 120.92764022803783 66.14676067782509
221.6744378171985 7.9504191997501295 139.56861055196606 74.15540806548239
244.8811562650392 7.694080663528547 156.09652447375558 81.09055112775509
262.0197845105921 7.500354901772262 168.37975566104265 86.13967394777728
269.5660142963327 7.246222867323485 173.92867498343045 88.39111644557869
262.01978451056647 7.500354901785458 168.3797556610154 86.13967394776564
244.88115626496145 7.69408066353598 156.09652447369578 81.09055112772978
221.67443781707075 7.9504191997363645 139.56861055188577 74.15540806544878
194.85882252434186 7.784421618614439 120.92764022794336 66.14676067778393
166.57373552008414 7.252660255014444 101.7020618916239 57.619013373445725
138.45155016300725 6.42776780814428 83.03466842741095 48.989113927452046
111.73716416171126 5.447604496521328 65.6844102201257 40.605149445064235
87.26778981429402 4.441060563565497 50.119756363831605 32.7069728868969
65.67455368828166 3.471498199393899 36.753763874187115 25.44929161470064
46.9351439180519 2.590814966458511 25.38760405917688 18.956724892416528
31.502517847119737 1.809081545800745 16.35551477626143 13.337921525057562
19.44207289659294 1.140320721346678 9.597513990811661 8.704238184434592
10.706232629755316 0.6247243798486135 4.953237295664868 5.128270954241839
5.010046546809001 0.28277747265462727 2.123404642552126 2.6038644316022417
1.8181818630975475 0.0941867274159158 0.691692072905775 1.0323030627758591
0.40041456559276345 0.008665316170853758 0.1306753776055085 0.2610738718164014
0.03419546390730359 0.0009703190224497632 0.007467766502930295 0.025757378381923594
-0.13248088400214825 -0.07110388770591045 -0.023285776182782922 -0.03809122011345466
3.4198210422017525 0.7247385553742474 1.173909867025872 1.5211726198016338
12.871518975940793 2.4524762021795707 5.121113172061384 5.297929601699825
9.141705974420113 1.4435508913442179 3.661101447318943 4.037053635756944
2.283880254398902 0.45045592512832283 0.7860603806626496 1.0473639486079314
-0.027974906520218005 -0.02765495922718016 2.5743748890891033e-05 -0.00034569104192874105
0.0022421980227397787 0.00015564120881768806 -0.0002498223728183158 0.00233637918674039
0.21024825873547576 0.0057345646422906444 0.059941193640701045 0.144572500452484
1.2833855587747829 0.0687025838311903 0.4698455471105061 0.7448374278330873
3.9351331420520848 0.23506078138234512 1.6061387153170628 2.0939336453526773
8.875627114208585 0.5180946490501901 4.017021689205348 4.340510775953042
16.525912175306953 0.9401476269991721 8.027698656081528 7.558065892226256
27.12687742540351 1.4793270848518312 13.921105161277026 11.726445179274647
40.648076922434385 2.1149263837501766 21.771783525558195 16.76136701312602
56.934529813355255 2.8416640898405463 31.53055808884591 22.562307634668798
75.99059860338264 3.6626583658050462 43.29866231551359 29.029277922064047
97.27830745961495 4.560034753849836 56.64337342787864 36.074899277886445
120.72384061337075 5.460390043010751 71.70360089140381 43.55984967895621
145.52047965078785 6.275098639283798 87.94984924429211 51.295531767212026
170.61616716082636 6.867974439026837 104.74260590346519 59.00558681833435
194.47969924548556 7.092578613627381 121.12347327923433 66.26364735262383
215.10075854213505 6.933877814676273 135.64865590771524 72.51822481974358
229.94720852047203 6.587961691943999 146.3412247298324 77.0180220986956
236.33149262537057 5.7709467609842395 151.41359061272468 79.14695525166167
229.9472085204341 6.587961691947331 146.34122472980377 77.01802209868293
215.1007585420491 6.93387781467184 135.64865590765845 72.51822481971884
194.47969924540698 7.0925786136474125 121.12347327916588 66.26364735259372
170.6161671607047 6.867974439018007 104.7426059033876 59.00558681829907
145.52047965067743 6.275098639300812 87.94984924420504 51.29553176717159
120.72384061322117 5.460390042982651 71.70360089132195 43.559849678916564
97.27830745949277 4.5600347538459545 56.64337342780015 36.07489927784661
75.99059860326217 3.662658365792061 43.298662315443664 29.029277922026488
56.934529813259154 2.841664089839942 31.53055808878526 22.562307634634003
40.648076922353056 2.1149263837466297 21.77178352551023 16.76136701309618
27.126877425335092 1.4793270848448057 13.921105161240506 11.726445179249774
16.52591217526254 0.9401476269957487 8.027698656058265 7.5580658922085195
8.87562711417899 0.5180946490481222 4.017021689190644 4.340510775940225
3.9351331420360407 0.23506078138069056 1.6061387153101783 2.09393364534517
1.2833855587675542 0.06870258383058901 0.4698455471076001 0.7448374278293644
0.21024825873408035 0.005734564642348098 0.059941193640168 0.14457250045156403
0.002242198022680754 0.0001556412087973527 -0.00024982237283038817 0.002336379186713805
-0.027974906520085347 -0.027654959227031522 2.5743748890672356e-05 -0.000345691041944429
2.28388025439087 0.45045592512596855 0.7860603806599257 1.0473639486049728
9.141705974400235 1.4435508913409183 3.6611014473101595 4.03705363574916
6.681821678588795 0.9139219707625286 2.6475074508070198 3.120392257019251
1.5974645546520223 0.26248712787549205 0.5465913691490574 0.7883860576274714
-0.006215936700217639 -0.006215936700217639 0.0 0.0
-0.004195135933557694 -0.00036617648087406644 -0.0007915212720814084 -0.0030374381806022232
0.08698192412983807 0.005946366020593351 0.020169757029273754 0.060865801079970645
0.8355919028803235 0.05264865185196111 0.2796181439975647 0.5033251070307972
2.9904594265320155 0.1969220416946559 1.1814560973735118 1.612081287463847
7.147018306591633 0.4353675872929895 3.1418735020793203 3.569777217219329
13.736164987892671 0.7763791454141264 6.541274744702125 6.418511097776417
22.885586492530475 1.2070482879499194 11.5642690941411 10.114269110439459
34.513773776253004 1.7180157831226657 18.231864434855254 14.563893558275101
48.571838099556246 2.3196424513402336 26.581748386101623 19.6704472621144
64.81424433326411 3.0168220891881163 36.44290105722662 25.354521186849365
83.33537610176904 3.801459596263932 47.9982996619176 31.535616843587558
103.53455592989056 4.64729344129138 60.762893469245505 38.124369019353686
124.99805920330716 5.465475446243075 74.56531282948524 44.967270927578824
147.02894396047077 6.123215758411912 89.08177836788761 51.823949834171295
168.10564468581677 6.45814627279013 103.3024485828423 58.34504983018421
186.3567921124532 6.380434343246266 115.96545629239772 64.01090147680921
199.55297531516226 5.957697381053859 125.43031033888036 68.16496759522806
205.6058408193832 4.935028342061867 130.3844953500037 70.28631712731764
199.5529753151447 5.957697381066766 125.43031033885867 68.1649675952192
186.3567921123816 6.380434343234773 115.96545629235622 64.01090147679061
168.10564468570772 6.458146272765227 103.30244858278427 58.34504983015825
147.02894396037365 6.123215758410428 89.08177836782265 51.82394983414064
124.99805920320146 5.465475446247438 74.56531282941076 44.967270927543254
103.53455592980517 4.647293441311709 60.76289346917529 38.12436901931812
83.3353761016642 3.8014595962574873 47.998299661853125 31.535616843553573
64.81424433317238 3.0168220891892266 36.44290105716703 25.354521186816104
48.57183809946786 2.3196424513349476 26.58174838604964 19.670447262083286
34.51377377617769 1.7180157831145852 18.231864434814376 14.56389355824875
22.885586492472815 1.207048287946633 11.564269094109177 10.114269110417
13.736164987856606 0.7763791454146688 6.541274744681697 6.41851109776024
7.14701830656371 0.4353675872897743 3.1418735020666015 3.5697772172073305
2.9904594265189237 0.19692204169349067 1.1814560973677584 1.612081287457675
0.8355919028755384 0.05264865185172224 0.27961814399564294 0.5033251070281731
0.08698192412856291 0.005946366020530024 0.020169757028857732 0.060865801079174726
-0.004195135933508599 -0.0003661764808589482 -0.0007915212720680065 -0.0030374381805815744
-0.006215936700175573 -0.006215936700175573 0.0 0.0
1.5974645546456825 0.2624871278740172 0.5465913691467501 0.7883860576249155
6.681821678572159 0.9139219707601299 2.6475074507998655 3.120392257012172
4.830272500547093 0.5975069918647544 1.8585707194131809 2.3741947892691635
1.1234789329748178 0.15508302123026194 0.398797273700622 0.5695986380439334
0.0025230680403571524 0.0025230680403571524 0.0 0.0
-0.0007341193288073815 -0.00013310466808661285 -7.278174486666683e-05 -0.0005282329158541064
0.01883407052010142 0.006346043925563848 -0.00012914812267449506 0.012617174717212163
0.49894473303115383 0.044606078647964474 0.14929027398028671 0.30504838040290283
2.1555094772989905 0.16269166200860954 0.8186573811281024 1.1741604341622796
5.5433155087837624 0.3751487735068518 2.3433716017929624 2.8247951334839483
11.07618702107547 0.6466699179005689 5.1371776656781325 5.292339437496769
18.79724277226524 0.9883867697430871 9.300463919903413 8.508392082618736
28.622356557416047 1.3985037880687652 14.855792504181881 12.368060265165383
40.44315469280512 1.8930514388677124 21.771667844430944 16.778435409506454
54.20446026497793 2.4911097508672895 30.03881917895892 21.674531335151713
69.62510633046844 3.191510612583549 39.43097397751636 27.00262174036852
86.78419328336169 3.9676821544238288 50.131163304124314 32.68534782481355
105.19398128719602 4.7904937072950275 61.78620670124104 38.617280878659905
124.07589841764644 5.538044847958921 73.9112109289274 44.62664264076011
142.46574141986798 6.014754805682907 86.04681308142932 50.40417353275578
158.64617332984946 6.0528167544239535 97.08106871499456 55.512287860430966
170.69583418102422 5.6506646348985345 105.64773344321192 59.39743610291372
176.6195557230952 4.374220260562735 110.62080694598198 61.62452851655046
170.69583418099202 5.6506646348914344 105.64773344319491 59.397436102905644
158.64617332981322 6.052816754429324 97.08106871496608 55.51228786041786
142.4657414198328 6.0147548057173665 86.04681308138233 50.40417353273314
124.07589841756808 5.538044847963396 73.91121092887133 44.62664264073337
105.19398128708886 4.790493707275466 61.7862067011828 38.61728087863056
86.78419328326454 3.9676821544128393 50.131163304067734 32.685347824783975
69.62510633038575 3.1915106125802386 39.430973977465094 27.00262174034043
54.20446026489295 2.4911097508623596 30.038819178908202 21.674531335122374
40.44315469273437 1.8930514388676318 21.771667844387338 16.778435409479396
28.622356557361044 1.3985037880704942 14.855792504147933 12.368060265142615
18.797242772214204 0.9883867697396808 9.300463919875977 8.508392082598549
11.076187021043019 0.6466699178982296 5.137177665661753 5.292339437483033
5.543315508762435 0.3751487735060402 2.343371601782568 2.824795133473826
2.155509477288454 0.1626916620071234 0.818657381123874 1.1741604341574583
0.49894473302729103 0.04460607864768746 0.14929027397885433 0.30504838040074944
0.018834070519787718 0.006346043925510036 -0.00012914812276267195 0.012617174717040474
-0.0007341193287939471 -0.0001331046680600342 -7.27817448664681e-05 -0.0005282329158674774
0.0025230680403732428 0.0025230680403732428 0.0 0.0
1.1234789329694697 0.15508302122900325 0.39879727369866447 0.5695986380418036
4.830272500534422 0.5975069918635074 1.8585707194076342 2.374194789263276
3.410639264707174 0.3878274592263494 1.2751977927636726 1.7476140127171522
0.730409435071137 0.09614485253641639 0.2385719951280065 0.3956925874067134
0.004668724433032168 0.0046737189753380155 -1.966034484966458e-07 -4.797938857358676e-06
0.0009348237088889879 0.0009277852179948374 1.4968261529152803e-06 5.541664741249123e-06
-0.005487900243410275 0.006376342701722397 -0.004183291033325966 -0.007680951911806687
0.2598377068124908 0.03793868347581026 0.060774005049961784 0.16112501828671866
1.4175583618941892 0.13624279022318145 0.4810277517717866 0.8002878198992202
4.129595500558321 0.3183194254087968 1.6931680388887198 2.1181080362608053
8.545473123430096 0.5516073565458471 3.8072467854293075 4.186618981454943
14.90807199291943 0.8199344931985008 7.172742538937069 6.915394960783856
22.96099322943106 1.148916041322922 11.632830553748915 10.179246634359222
32.617777242414775 1.5600391422926956 17.16681995015678 13.890918149965316
43.8224207185415 2.076392667873577 23.74841754571566 17.997610504952274
56.564355467199874 2.7053923438101273 31.391987148101958 22.46697597528779
70.61326761952468 3.4385060517954833 39.92564507218668 27.2491164955425
85.76157440761435 4.242194181048511 49.25533624858558 32.26404397798026
101.8246869814974 5.065460343204878 59.37358402129247 37.38564261700005
117.60343319453646 5.729891083949384 69.44656583416409 42.426976276422984
131.85038146046855 5.95004004794862 78.86750077515993 47.03284063736
143.06789118210474 5.621923558247967 86.72635756699115 50.71961005686559
148.98744930868997 4.005564613802319 91.87109815158207 53.11078654330563
143.0678911820897 5.621923558256622 86.72635756697478 50.71961005685827
131.8503814604484 5.950040047966976 78.86750077513392 47.03284063734755
117.60343319447138 5.729891083942135 69.44656583412501 42.426976276404204
101.82468698141908 5.065460343197186 59.37358402124531 37.38564261697654
85.761574407534 4.24219418103787 49.25533624854018 32.26404397795595
70.61326761945425 3.4385060517947945 39.925645072141435 27.24911649551802
56.56435546713091 2.705392343808966 31.391987148058924 22.46697597526298
43.82242071847109 2.076392667867413 23.748417545675707 17.997610504927973
32.61777724234956 1.5600391422830953 17.16681995012306 13.890918149943387
22.96099322938243 1.148916041318475 11.632830553723009 10.179246634340954
14.908071992883578 0.8199344932008805 7.172742538915599 6.915394960767097
8.545473123404593 0.5516073565424632 3.8072467854176506 4.186618981444479
4.12959550054287 0.318319425408448 1.6931680388811614 2.118108036253261
1.4175583618861751 0.13624279022242694 0.481027751768596 0.8002878198951514
0.2598377068101891 0.03793868347564009 0.060774005049193974 0.1611250182853551
-0.005487900243264942 0.00637634270157966 -0.004183291033274746 -0.007680951911569954
0.0009348237088146053 0.0009277852179744763 1.4968261468258607e-06 5.541664693314647e-06
0.004668724433054616 0.004673718975356308 -1.9660344829240563e-07 -4.797938853403843e-06
0.7304094350672208 0.09614485253580397 0.2385719951264919 0.39569258740492513
3.4106392646971377 0.3878274592250239 1.2751977927596203 1.7476140127124946
2.286888642651366 0.2442599228229444 0.8111234960160703 1.2315052238123527
0.4573664745497604 0.0669414779693675 0.1380029501430082 0.2524220464373848
0.003656696324262251 0.003660856207887665 -2.3246729076969345e-07 -3.92741633463526e-06
0.0020063827828479402 0.0020705881210749816 -7.630496292957966e-06 -5.657484193407931e-05
-0.006023884161018023 0.005584892518225492 -0.0028694963463264038 -0.008739280332917182
0.10966931464682962 0.031632445977016206 0.014809967548710005 0.06322690112110363
0.8600215208508684 0.11359837597683993 0.2578308816845374 0.48859226318949117
2.7881184676941966 0.2684079858813009 1.0380127908028098 1.4816976910100879
6.315374642216356 0.4718553841338867 2.723504085114427 3.120015172968041
11.19962825402738 0.6965355666052869 5.162466614911858 5.340626072510231
17.575828692754552 0.9638661708681366 8.607532311461336 8.004430210425081
25.161798805441602 1.3101090404365066 12.838332040498278 11.01335772450682
33.938761796285235 1.7628194804438442 17.846252901987906 14.329689413853494
43.92477003524274 2.3387502688253288 23.64759277335604 17.938426993061377
55.04110974018966 3.02937986516827 30.194350418438678 21.817379456582735
67.27638278276119 3.8197423936949417 37.548727061370066 25.90791332769617
80.016110089927 4.693695706434972 45.181164467910364 30.141249915581692
93.34666278013881 5.5425888781503385 53.412839992798204 34.39123390919022
106.05853201758954 6.0305964372025525 61.5389389043001 38.488996676086884
116.57756591791944 5.856359789902523 68.67577611612064 42.045430011896286
122.60785795199476 3.785774136261366 74.12930733067199 44.692776485061344
116.57756591788034 5.856359789880294 68.67577611610939 42.04543001189061
106.05853201757677 6.03059643721698 61.53893890428196 38.488996676077896
93.34666278007151 5.542588878127084 53.412839992769165 34.39123390917525
80.01611008986525 4.693695706428241 45.18116446787455 30.141249915562454
67.2763827827143 3.8197423937050714 37.54872706133326 25.907913327676
55.04110974013334 3.0293798651628787 30.19435041840641 21.817379456564034
43.924770035192175 2.338750268828705 23.647592773322515 17.938426993040963
33.938761796232505 1.7628194804370896 17.846252901959975 14.329689413835458
25.161798805397492 1.3101090404341058 12.838332040473558 11.01335772448982
17.575828692716318 0.963866170866371 8.607532311440513 8.004430210409435
11.199628253994257 0.6965355666016735 5.162466614895703 5.3406260724968755
6.315374642194814 0.47185538413220435 2.723504085104068 3.1200151729585412
2.788118467682164 0.2684079858793412 1.0380127907980337 1.4816976910047908
0.8600215208448554 0.1135983759763932 0.2578308816822111 0.4885922631862505
0.10966931464541066 0.03163244597675525 0.01480996754836366 0.0632269011202922
-0.006023884160796378 0.005584892518114713 -0.0028694963462565486 -0.008739280332654727
0.0020063827827957567 0.0020705881210359278 -7.630496294785624e-06 -5.657484194537825e-05
0.0036566963242825566 0.0036608562078997075 -2.3246729021856114e-07 -3.927416326937905e-06
0.4573664745472211 0.06694147796901083 0.13800295014204317 0.25242204643616706
2.2868886426439463 0.24425992282196018 0.8111234960132473 1.23150522380874
1.4767119921306833 0.1479562577496131 0.5278338564687368 0.800921877912333
0.2530924913334627 0.05211255633649738 0.05761912093322489 0.1433608140637404
0.002312849235435641 0.001769113256081858 6.571833887267888e-05 0.00047801764048103855
0.002702159106069762 0.00262722578570946 -1.9068403740399031e-06 7.684016073433429e-05
-0.002271895231293475 0.00501106872852725 -0.0015961014428991 -0.005686862516921569
0.03634174470176545 0.025178153593368637 -0.002595651734931894 0.013759242843328478
0.4458265951825224 0.08728173779659167 0.10550322617584977 0.25304163121008066
1.7067322949305557 0.2207835933753653 0.5621459067612734 0.9238027947939181
4.15392999288281 0.3987332569103659 1.6312617470716466 2.123934988900796
7.865478351765768 0.5978157913554513 3.460802430121788 3.806860130288533
12.504083098467804 0.8295073282167054 5.823865279057018 5.850710491194085
18.09207768973656 1.1312459453240427 8.804589418263975 8.156242326148549
24.571341351261765 1.53403179932765 12.355686415930638 10.681623136003473
31.94750450203361 2.0636245586407953 16.454300384262094 13.429579559130712
40.29766258187063 2.7314321695476727 21.165569651540807 16.400660760782163
49.45481534485905 3.508712228097141 26.37526860879654 19.57083450796537
59.422068909333646 4.381652561096625 32.16022691401667 22.880189434220355
69.96349234115205 5.387198654565366 38.25110434312539 26.325189343461282
80.81525425399029 6.229814558876143 44.714441963878016 29.870997731236113
90.92942015859785 6.344394636716182 51.28561800784764 33.299407514034016
97.22210304140788 3.685518360263014 57.21678231561742 36.31980236552744
90.92942015859757 6.344394636724108 51.28561800784215 33.29940751403131
80.8152542539404 6.229814558845578 44.71444196386535 29.870997731229494
69.96349234110185 5.387198654549164 38.25110434310356 26.32518934344914
59.42206890931554 4.381652561111972 32.160226913995295 22.880189434208276
49.45481534479534 3.5087122280779672 26.37526860876855 19.570834507948792
40.297662581832945 2.731432169548633 21.165569651517004 16.400660760767327
31.94750450198558 2.063624558626614 16.454300384241627 13.42957955911734
24.57134135123387 1.5340317993332169 12.355686415910867 10.68162313598977
18.092077689704812 1.131245945324166 8.804589418245728 8.15624232613491
12.504083098435354 0.829507328212419 5.8238652790414625 5.850710491181472
7.865478351745086 0.5978157913557929 3.4608024301106033 3.8068601302786917
4.1539299928685764 0.39873325691047296 1.6312617470645299 2.1239349888935735
1.7067322949236807 0.22078359337555034 0.5621459067581465 0.9238027947899834
0.4458265951786724 0.08728173779605715 0.10550322617461999 0.2530416312079954
0.03634174470124028 0.025178153593277172 -0.0025956517350730697 0.013759242843035938
-0.0022718952311988386 0.005011068728457399 -0.001596101442860313 -0.005686862516795819
0.002702159106233959 0.002627225785673333 -1.9068403615531077e-06 7.684016092215359e-05
0.002312849235517429 0.0017691132561210602 6.571833887521487e-05 0.00047801764052115544
0.25309249133156075 0.05211255633596451 0.05761912093268616 0.14336081406290963
1.4767119921252947 0.1479562577493034 0.5278338564664554 0.8009218779095357
0.8310734579404946 0.08938506196010776 0.2615565327973708 0.4801318631830158
0.12362135812611352 0.04330352797875179 0.018217670605808433 0.06210015954155328
0.0005850720468077025 9.823918774020676e-05 7.758622062139408e-05 0.0004092466384461313
0.0023922304421816133 0.002516204108747938 -1.3328889284210428e-05 -0.00011064477728201393
4.9350616035449086e-05 0.004436054144081922 -0.0011086164051352459 -0.0032780871229112583
0.015062953416304488 0.018524327425297655 -0.004335222441277028 0.0008738484322837434
0.18773332878218166 0.059803913790646285 0.027439845904448795 0.10048956908708653
0.8677430202129289 0.16270684567237223 0.23855535495390875 0.46648081958664767
2.351687833926583 0.3190385873879614 0.8081434105867894 1.2245058359518315
4.720320044227944 0.49830654917596434 1.869772793021378 2.352240702030602
7.791016384379157 0.710411344728016 3.325854815395537 3.754750224255605
11.518248418291808 0.9856604097280367 5.188692500474029 5.343895508089738
15.827985076832931 1.354376141563671 7.389630606850957 7.083978328418295
20.759504672367907 1.8411598280781696 9.940035867411463 8.978308976878278
26.420189245823714 2.4773286049828225 12.898407424852477 11.04445321598841
32.84827472307997 3.263369377826413 16.292187158102813 13.29271818715077
39.91913213681943 4.131307681723816 20.083700410632208 15.704124044463425
47.604765042170996 5.1111901744856985 24.221300566102446 18.272274301582833
56.55132390319757 6.345759969474138 29.054557640273185 21.151006293450266
66.37628056329578 7.094802933998762 34.862860034180684 24.418617595116302
73.0623731516703 3.7137334439231084 41.29045648484439 28.058183222902816
66.37628056330689 7.094802934012336 34.86286003417913 24.418617595115446
56.5513239031924 6.345759969480813 29.05455764026567 21.151006293445903
47.60476504215529 5.11119017449482 24.22130056608693 18.272274301573542
39.91913213677455 4.131307681705443 20.08370041061598 15.704124044453124
32.84827472306518 3.2633693778383437 16.292187158086634 13.292718187140217
26.42018924576921 2.4773286049556695 12.898407424836199 11.044453215977327
20.759504672356798 1.8411598280849377 9.940035867401095 8.978308976870773
15.827985076805378 1.3543761415580466 7.38963060683858 7.083978328408753
11.518248418275162 0.9856604097333415 5.18869250046193 5.343895508079894
7.79101638435973 0.7104113447255109 3.3258548153866916 3.754750224247526
4.720320044212211 0.4983065491736271 1.8697727930146195 2.352240702023967
2.3516878339182816 0.3190385873879597 0.8081434105829854 1.2245058359473364
0.8677430202083363 0.16270684567117044 0.2385553549525285 0.46648081958463733
0.1877333287805189 0.0598039137902276 0.0274398459039833 0.10048956908630816
0.015062953416355305 0.01852432742525291 -0.004335222441283034 0.0008738484323855327
4.935061626954807e-05 0.004436054144067733 -0.0011086164051073843 -0.003278087122690842
0.002392230442165412 0.0025162041087649365 -1.3328889283318338e-05 -0.00011064477731618884
0.0005850720470515404 9.823918776177815e-05 7.758622064165153e-05 0.00040924663864804134
0.1236213581251409 0.043303527978573654 0.018217670605491156 0.062100159541075936
0.8310734579364435 0.08938506195954826 0.2615565327958999 0.48013186318099577
0.4041276563826512 0.05666096298987204 0.11079136154779766 0.23667533184498213
0.043570671031562355 0.03459845489523387 -0.0013701009969305585 0.010342317133258937
0.000858637501329762 -0.0005536850135342555 0.00019798331750309957 0.0012143391973609963
0.003105731991671984 0.0019039772221862337 0.00015230491518009558 0.0010494498543055755
0.0010961438582432963 0.003555612426749159 -0.0008305095071128332 -0.0016289590613930067
0.013764302288574906 0.01398471101197258 -0.001993568455606033 0.0017731597322083168
0.08042462346516198 0.03328779057986909 0.007254467453807312 0.03988236543148558
0.29996822414923296 0.07870802343737479 0.059046845782183784 0.16221335492967448
0.9113824011204993 0.19201898357707034 0.24297197677495486 0.4763914407684741
2.05633305116347 0.3453291411423141 0.6650403373523937 1.0459635726687617
3.6917265822473015 0.5246968185433255 1.3604563608580682 1.806573402845908
5.658962834178186 0.7558602300228582 2.208264989956206 2.6948376141991224
8.014515512356027 1.0715223204398185 3.264906067046767 3.678087124869443
10.780035972180368 1.5006383640295307 4.519234375538652 4.760163232612186
14.031666632373874 2.076680805318241 5.991141580158104 5.963844246897525
17.900480431193895 2.832770443775032 7.741481257779348 7.3262287296395145
22.45545552511621 3.7289093177440007 9.845992397164453 8.880553810207752
27.55426736039368 4.5960626420440835 12.341648445644871 10.616556272704738
33.71988726632199 5.736431683988672 15.339512498556159 12.643943083777149
42.78368923726224 7.687073407368951 19.643779348943255 15.452836480950035
51.24995817188331 4.035986336493964 27.167605244018393 20.04636659137094
42.78368923724257 7.687073407345145 19.643779348945824 15.452836480951612
33.71988726631902 5.736431683987822 15.339512498554837 12.643943083776348
27.554267360381683 4.596062642048739 12.341648445634872 10.616556272698075
22.455455525088436 3.728909317740101 9.845992397150555 8.880553810197766
17.900480431187535 2.832770443783775 7.7414812577707055 7.326228729633043
14.031666632382004 2.07668080533792 5.991141580151783 5.963844246892312
10.780035972163505 1.5006383640215908 4.519234375533773 4.760163232608143
8.014515512344072 1.0715223204383246 3.2649060670412244 3.678087124864518
5.65896283415705 0.7558602300118984 2.2082649899510085 2.694837614194147
3.6917265822388012 0.5246968185432703 1.36045636085394 1.8065734028415925
2.0563330511596614 0.3453291411443959 0.6650403373496894 1.0459635726655752
0.9113824011158121 0.19201898357589625 0.24297197677350962 0.47639144076640616
0.2999682241480104 0.07870802343701241 0.05904684578187275 0.16221335492912553
0.0804246234646087 0.03328779057990729 0.007254467453609234 0.03988236543109202
0.013764302288803454 0.01398471101180734 -0.001993568455542534 0.0017731597325385505
0.001096143858357344 0.003555612426732416 -0.0008305095071013346 -0.0016289590612738256
0.003105731991808417 0.0019039772221942533 0.00015230491518955996 0.0010494498544244989
0.0008586375014199402 -0.0005536850135262093 0.00019798331750754607 0.0012143391974385688
0.043570671031163015 0.03459845489515122 -0.001370100997030959 0.010342317133042879
0.4041276563801366 0.05666096298947764 0.11079136154697575 0.23667533184368286
0.1470440436285016 0.04028620190942112 0.025944307649387946 0.0808135340696926
0.010832085719595813 0.022154902284716615 -0.0033906047982712006 -0.00793221176684974
-0.0003946656902407888 -0.0004405637773746787 2.00801657955664e-05 2.58179213383457e-05
0.003092075891322428 0.0011478776583946956 0.0002725065519745325 0.0016716916809531596
0.002862581570501402 0.002771774716528019 -0.0004073949817896575 0.0004982018357630281
0.015418728370975233 0.011922534141538793 -0.000846200387129784 0.004342394616566396
0.0650906951685833 0.021112070444920514 0.008768494999778565 0.03521012972388441
0.12112921510242078 0.009095321419114462 0.029803224460006866 0.08223066922329941
0.21058201327278542 -0.023799310377980682 0.0794494830760339 0.15493184057473247
0.45810858794749976 -0.016464591935220638 0.17287226938710598 0.30170091049561554
1.0096081663333485 0.01917497959497802 0.3960925563376051 0.5943406304007631
1.7986368067929268 0.055628902485760384 0.722710998458437 1.020296905848731
2.81058947678231 0.12718545073989734 1.1685666190625816 1.5148374069798298
4.040742188116176 0.2672155177582486 1.7091480719991372 2.064378598358796
5.50979201956768 0.5026016538063112 2.342854116432571 2.6643362493287928
7.22278724140623 0.8550634035528591 3.0567585765460636 3.3109652613073064
9.222927465270136 1.3646038423609101 3.8736197386093254 3.984703884299896
11.434304679900317 1.9721330398266672 4.78504127993976 4.6771303601338925
14.33283893086239 2.7346130326804765 5.996401419462629 5.60182447871928
21.899957337307203 5.381826757633647 8.564628585249004 7.953501994424556
36.103586234902274 4.231961138810192 17.525361703956595 14.346263392135494
21.899957337331855 5.381826757651734 8.564628585252867 7.9535019944272545
14.332838930858216 2.734613032677291 5.996401419462179 5.601824478718754
11.434304679888795 1.9721330398266912 4.785041279933135 4.677130360128969
9.22292746527008 1.364603842371043 3.873619738603561 3.9847038842954685
7.222787241393339 0.8550634035484942 3.0567585765417347 3.3109652613031075
5.5097920195548475 0.5026016537995266 2.3428541164293106 2.664336249326009
4.040742188110096 0.2672155177566814 1.7091480719968706 2.0643785983565435
2.8105894767793043 0.12718545074695914 1.1685666190577018 1.5148374069746446
1.7986368067905225 0.055628902489036 0.7227109984556006 1.0202969058458866
1.0096081663245742 0.01917497959144672 0.3960925563352089 0.5943406303979175
0.45810858794588083 -0.01646459193676294 0.172872269387045 0.3017009104955998
0.21058201327210402 -0.02379931037771043 0.07944948307562058 0.15493184057419335
0.12112921510141889 0.009095321419056777 0.029803224459658575 0.08223066922270386
0.06509069516801061 0.021112070444810806 0.008768494999612051 0.0352101297235878
0.015418728370856059 0.011922534141373202 -0.0008462003871465571 0.004342394616629496
0.002862581570625819 0.0027717747165164506 -0.00040739498177619544 0.0004982018358856593
0.0030920758914722048 0.0011478776583881045 0.00027250655198766125 0.0016716916810963342
-0.0003946656901368203 -0.0004405637773649115 2.0080165811334414e-05 2.5817921416749622e-05
0.010832085719725259 0.02215490228455029 -0.0033906047982242794 -0.007932211766600826
0.14704404362734627 0.04028620190921165 0.025944307649054536 0.08081353406908033
0.037641036748804015 0.03101018766132757 0.0008661498370705534 0.005764699250405952
0.008175694481771054 0.01023143472182459 -0.0002858640571499438 -0.00176987618290357
0.0008414709898041648 0.00026682632921633763 1.7696138185206602e-05 0.0005569485224026285
0.002696807172124349 0.0005226577861124193 0.0002980841215772423 0.0018760652644347325
0.004396370744245007 0.0023379255752724484 -8.30865673978667e-05 0.002141531736370485
0.02141386006774808 0.012213854384762742 -0.00016231472373906406 0.009362320406724457
0.09031840655043846 0.032708675968383116 0.011292304693866231 0.04631742588818952
0.30932421471156213 0.07897143887871555 0.06270580525928726 0.1676469705735592
0.9158890396540094 0.19251202896893072 0.24470405551476543 0.4786729551703123
2.0578455925649193 0.34631682605609027 0.6651737863073313 1.046354980201498
3.7027835054546094 0.5282955532054352 1.3646030288963893 1.8098849233527852
5.695236040829068 0.7620426296480863 2.2250354582484766 2.7081579529325057
8.071679556420909 1.0766388255204933 3.2924355621950463 3.70260516870537
10.78270678839408 1.4834131462820714 4.531782709354913 4.767510932757093
13.706238373574049 1.9810232966027739 5.8679112992213245 5.857303777749951
16.647521358013133 2.5626283275736252 7.197937013801573 6.886956016637944
19.260647993606554 3.213063042937078 8.3252993029599 7.722285647709581
21.361876981564308 4.0042287151526015 9.13385021694882 8.223798049462886
22.186810974901686 4.66315778672754 9.288645009528215 8.235008178645923
18.917824426486305 4.147559420077129 7.9781001760522825 6.79216483035689
35.437748448829026 5.214897962376905 16.349921425609896 13.872929060842226
18.91782442647672 4.147559420061653 7.978100176055873 6.792164830359186
22.18681097491968 4.663157786747983 9.288645009526547 8.235008178645147
21.36187698154523 4.0042287151476454 9.133850216940672 8.223798049456901
19.260647993570164 3.2130630429206017 8.325299302948432 7.722285647701149
16.6475213579791 2.5626283275575394 7.197937013791479 6.886956016630082
13.706238373557401 1.9810232966017538 5.867911299212703 5.857303777742951
10.782706788378992 1.4834131462812523 4.531782709347127 4.767510932750617
8.071679556394965 1.076638825512812 3.2924355621854287 3.70260516869672
5.695236040812293 0.7620426296482571 2.2250354582397813 2.708157952924256
3.7027835054426146 0.5282955532085234 1.3646030288889803 1.8098849233451095
2.0578455925555903 0.3463168260539156 0.6651737863040665 1.0463549801976075
0.9158890396503434 0.19251202896884365 0.2447040555132986 0.47867295516820085
0.30932421470824145 0.07897143887825617 0.06270580525824963 0.16764697057173522
0.09031840654959267 0.03270867596836457 0.011292304693613284 0.04631742588761435
0.021413860067630637 0.012213854384610048 -0.00016231472377507545 0.00936232040679566
0.004396370744339925 0.002337925575235313 -8.308656739565971e-05 0.0021415317365003376
0.0026968071722536183 0.0005226577861150228 0.0002980841215856014 0.0018760652645530697
0.00084147098981888 0.00026682632918497275 1.7696138183470093e-05 0.0005569485224502734
0.008175694481762223 0.01023143472174547 -0.0002858640571428317 -0.001769876182840303
0.03764103674895416 0.03101018766105829 0.0008661498370926957 0.005764699250803194
0.019509760849445557 0.01973056500642479 -2.2935802323758144e-05 -0.0001978683546554447
0.00497628185115805 0.005213939498652972 -2.4030975118589948e-05 -0.00021362667237633567
8.745212198198245e-05 0.0007666009141798033 -0.0001475239579027375 -0.0005316248342950929
0.0022130244375457454 0.00019392986666422202 0.0001917949439045037 0.0018272996269769206
0.003152463506393836 0.002300544075079653 -0.000311145671244125 0.0011630651025584466
0.03181466541133257 0.015375415316241394 0.0014198115678433643 0.015019438527247343
0.2091512303823609 0.05652480824882282 0.03461602788117912 0.11801039425235896
0.8783535515980723 0.16108473124771822 0.24394145922317068 0.47332736112718365
2.353256581188037 0.31889820453109613 0.8088765803454216 1.2254817963115194
4.721873849682695 0.49956665916214305 1.8697539067113145 2.3525532838092356
7.803218902193849 0.7135191112611479 3.330526948770618 3.759172842162082
11.55068830720808 0.9907624713864114 5.2036844361858225 5.356241399635841
15.870004102678196 1.3549630942141755 7.413265754779145 7.101775253684883
20.722810601653777 1.8129868198874022 9.935822383392564 8.9740013983738
26.027260148711363 2.366681464227389 12.733264985692337 10.927313698791654
31.512359948183082 3.004783534228613 15.646473663483492 12.861102750470977
36.745176667010455 3.7422420848965072 18.383770925867935 14.619163656245997
41.12642908348567 4.604294290197759 20.52155471663798 16.000580076649904
43.42120376280624 5.246241943500944 21.56310089769172 16.611860921613584
41.17524014740294 5.718521363428957 19.999713046708052 15.457005737265922
47.4643203155135 8.112210473937202 22.219916089885853 17.13219375169044
41.175240147401645 5.718521363418808 19.999713046713577 15.457005737269276
43.421203762751475 5.246241943450149 21.563100897689267 16.61186092161205
41.12642908344077 4.604294290177099 20.521554716622923 16.00058007664075
36.74517666696972 3.742242084888854 18.38377092584765 14.619163656233187
31.512359948138407 3.004783534215199 15.646473663464675 12.861102750458539
26.027260148670123 2.366681464215147 12.733264985675168 10.927313698779805
20.722810601629494 1.8129868198882269 9.935822383378053 8.97400139836322
15.87000410264409 1.354963094209014 7.413265754762717 7.101775253672362
11.55068830718031 0.9907624713875977 5.203684436169895 5.356241399622814
7.803218902170043 0.713519111261056 3.330526948758172 3.759172842150819
4.72187384966576 0.49956665916020865 1.8697539067037579 2.3525532838017913
2.3532565811786177 0.31889820453028356 0.808876580341436 1.2254817963069002
0.8783535515935754 0.1610847312473119 0.24394145922153027 0.47332736112473356
0.2091512303801231 0.05652480824873062 0.034616027880401454 0.11801039425099127
0.03181466541103239 0.015375415316055734 0.0014198115678132257 0.015019438527163361
0.0031524635066469977 0.0023005440750508096 -0.00031114567121472516 0.0011630651028107734
0.0022130244377628356 0.00019392986667913505 0.00019179494392252176 0.001827299627161251
8.745212214420446e-05 0.0007666009141736733 -0.00014752395788743513 -0.0005316248341419703
0.004976281851035732 0.005213939498577905 -2.4030975121478713e-05 -0.00021362667242071957
0.019509760849274155 0.019730565006358218 -2.293580233539911e-05 -0.00019786835474870534
0.012543405396395344 0.012543405396395344 0.0 0.0
0.00296165349375373 0.0029439216596268505 2.5245219889040936e-06 1.5207312138007517e-05
-0.0001559211286301702 0.001005583235511242 -0.00017808334377061673 -0.000983421020370804
6.868494811943337e-05 0.00017086389520723738 -0.0001387813126540286 3.660236556617107e-05
0.00582260558016973 0.0027942138494998115 -0.0002528942845838495 0.0032812860152538503
0.06914002907556885 0.019823181568770498 0.0066551011020307095 0.04266174640476811
0.4711408207907314 0.08339335512902224 0.11928922994078792 0.2684582357209207
1.711917731782892 0.2188490316428281 0.5660129309775022 0.9270557691625623
4.152474004082882 0.39917081290738093 1.6302568504582364 2.123046340717262
7.8690003643174915 0.5992949863203834 3.462134994331721 3.807570383665386
12.515370503782561 0.8317978264372929 5.827546238708612 5.856026438636658
18.110687360837055 1.1332321709215853 8.814264365498481 8.16319082441699
24.57086704606448 1.5283411900323391 12.358934241957456 10.683591614074679
31.840930333081786 2.0263170870478717 16.41273359150249 13.401879654531427
39.86284955363266 2.6215877056643286 20.965829382723484 16.275432465244837
48.26262181388656 3.3061891346840957 25.756602503097188 19.19983017610527
56.62722027536766 4.068273265806007 30.58692523651951 21.97202177304217
63.595435132264996 4.75514590487589 34.57326547793572 24.267023749453422
67.22915481076944 5.193290754107915 36.62890935827369 25.40695469838781
63.85816052818606 5.388964073501161 34.362210556345474 24.106985898339456
65.68359967517321 8.800767160535852 33.30625683442014 23.576575680217225
63.85816052821234 5.38896407352302 34.36221055634833 24.10698589834097
67.22915481075077 5.193290754103616 36.62890935826447 25.406954698382723
63.59543513227541 4.755145904918677 34.57326547791502 24.267023749441705
56.62722027532758 4.068273265811839 30.586925236490366 21.972021773025368
48.262621813856015 3.3061891346996584 25.756602503068258 19.199830176088096
39.86284955357641 2.6215877056556005 20.965829382694135 16.27543246522668
31.84093033302888 2.0263170870407685 16.41273359147474 13.401879654513372
24.57086704602493 1.5283411900338826 12.358934241933152 10.683591614057907
18.110687360792078 1.1332321709156765 8.814264365476 8.16319082440039
12.515370503741991 0.8317978264309941 5.827546238689591 5.856026438621416
7.869000364289585 0.5992949863179309 3.462134994318162 3.80757038365349
4.152474004067821 0.3991708129060308 1.6302568504514323 2.1230463407103586
1.7119177317758927 0.21884903164221506 0.5660129309746569 0.9270557691590204
0.47114082078720465 0.0833933551285168 0.11928922993962064 0.26845823571906724
0.06914002907490908 0.01982318156863053 0.006655101101837828 0.04266174640444069
0.005822605580369986 0.002794213849481726 -0.00025289428455690347 0.0032812860154452094
6.868494837645501e-05 0.00017086389521070927 -0.0001387813126264004 3.660236579208645e-05
-0.0001559211286951936 0.0010055832355285368 -0.00017808334377777556 -0.000983421020445958
0.002961653493790509 0.002943921659628763 2.5245219910544155e-06 1.5207312170688767e-05
0.012543405396247487 0.012543405396247487 0.0 0.0
0.007514639469373568 0.007514639469373568 0.0 0.0
0.001879128205367518 0.0018740816059299734 2.569038201666208e-07 4.789695617374315e-06
0.00039038164770145126 0.0010090008789371185 -8.838365297937429e-05 -0.0005302355782562724
-9.777384824769179e-05 0.0003728929428728436 -0.00029122972833300605 -0.0001794370627875427
0.006371868295198166 0.003609540852623311 -0.0008501649143005643 0.0036124923568753805
0.14975067155065896 0.027087732620913366 0.030559477786094948 0.09210346114365042
0.8775246298459263 0.10926589626446925 0.2656423744221497 0.5026163591593076
2.7870422088172484 0.26813747836272084 1.0381390964914206 1.4807656339631072
6.313419186708248 0.47291150502974166 2.7218776327901004 3.1186300488884027
11.20505003795368 0.6979398258768852 5.164469786042517 5.342640426034282
17.585180447188534 0.9642480702860053 8.612965723554238 8.007966653348287
25.153623058635056 1.305883252081169 12.83609522064874 11.011644585905142
33.8714236512043 1.746359248263723 17.815505960349192 14.309558442591415
43.73366730990509 2.2969928724272535 23.555001134602037 17.881673302875758
54.621743263693084 2.951205346461779 29.97838612077654 21.692151796454755
66.34390012743455 3.68596255426314 37.03470758142097 25.623229991750435
77.64253075273037 4.386715668444674 43.835489881744486 29.420325202541232
87.27031538670957 4.860608728785451 49.86485178216266 32.544854875761416
91.9262957239265 4.88392363959341 52.94879305068421 34.093579033648865
87.69540926467994 5.351597504009055 49.85587341201402 32.48793834865686
86.3738480158978 9.223106309682919 46.39677124452237 30.75397046169249
87.6954092646591 5.351597503988485 49.85587341201399 32.48793834865664
91.92629572392264 4.883923639614054 52.94879305066799 34.093579033640545
87.27031538662251 4.860608728740103 49.864851782135325 32.5448548757471
77.64253075264456 4.386715668417152 43.835489881706465 29.420325202520946
66.34390012737322 3.6859625542606964 37.03470758138323 25.623229991729264
54.62174326363005 2.9512053464616597 29.97838612073678 21.692151796431606
43.73366730984158 2.296992872425456 23.555001134563714 17.881673302852416
33.8714236511438 1.746359248259879 17.815505960314656 14.309558442569275
25.153623058577892 1.305883252075791 12.836095220618112 11.011644585883992
17.585180447147934 0.9642480702907297 8.61296572352835 8.00796665332885
11.205050037920081 0.6979398258777991 5.164469786023647 5.342640426018635
6.313419186686097 0.47291150502871593 2.721877632779022 3.1186300488783614
2.787042208801957 0.26813747836078733 1.0381390964850528 1.4807656339561184
0.8775246298403787 0.10926589626409572 0.265642374419984 0.5026163591562983
0.14975067154886026 0.027087732620796022 0.030559477785531124 0.09210346114253314
0.006371868295248866 0.0036095408525994815 -0.0008501649142962804 0.003612492356945809
-9.777384805588577e-05 0.0003728929428589654 -0.000291229728313944 -0.0001794370626009932
0.00039038164775477503 0.0010090008789500975 -8.838365297694596e-05 -0.0005302355782183795
0.001879128205358184 0.0018740816059212564 2.56903820145571e-07 4.789695616782793e-06
0.007514639469368681 0.007514639469368681 0.0 0.0
0.004233870357124778 0.004233870357124778 0.0 0.0
0.0013430160145107444 0.0013431395277649577 -3.731215333731407e-09 -1.197820388793503e-07
0.000741033039181456 0.0009185332182031895 -2.3541896667936418e-05 -0.00015395828235379252
-0.0018287156282402995 0.0005774634116982817 -0.0005358150597546674 -0.0018703639801839695
0.01769991999588545 0.00498196792190465 -2.849356662122226e-05 0.012746445640602023
0.2955359525035959 0.03556090235229667 0.07727703854792023 0.18269801160337895
1.4284091195670132 0.13474085579245385 0.48787429777767455 0.805793965996886
4.1250649003635935 0.31920695721249726 1.6906953370640616 2.115162606087034
8.545593987386013 0.5530253967186546 3.806698918792446 4.185869671874917
14.915428406509829 0.8209145666952873 7.176278355822442 6.918235483992096
22.96207615938078 1.1464432758972727 11.634937104638869 10.18069577884464
32.57283070278989 1.546825889656187 17.14763757328896 13.878367239844751
43.674929725406564 2.046433570363484 23.67546233335262 17.953033821690436
56.28738545241599 2.6662304931452816 31.241122048632743 22.38003291063795
70.21832698221682 3.4027968442427143 39.69345205185084 27.122078086123246
85.05985837632457 4.160583156136626 48.848156686975614 32.051118533212374
99.8322205970641 4.760717668702666 58.25235756288447 36.81914536547694
111.7118134130599 4.923423538463156 66.0392957631174 40.74909411147935
117.1404256256755 4.695702149062356 69.79373190262534 42.65099157398772
112.64864707638333 5.6588941192713476 66.19339190718779 40.79636104992422
109.01049552044265 9.441373537694485 61.24429046420979 38.32483151853842
112.64864707637759 5.658894119274106 66.19339190718213 40.796361049921366
117.14042562563839 4.695702149059975 69.79373190260206 42.650991573976334
111.71181341300223 4.92342353846041 66.03929576308056 40.74909411146128
99.83222059700145 4.760717668710651 58.25235756283765 36.819145365453146
85.0598583762252 4.1605831561124935 48.84815668692593 32.05111853318675
70.21832698213844 3.402796844240511 39.69345205180171 27.122078086096185
56.28738545233416 2.6662304931387384 31.241122048584966 22.380032910610453
43.67492972533776 2.046433570365264 23.675462333308804 17.953033821663702
32.57283070272606 1.5468258896578402 17.14763757324925 13.878367239818957
22.962076159320493 1.1464432758918683 11.63493710460665 10.180695778821967
14.915428406463935 0.8209145666902404 7.176278355799405 6.9182354839742946
8.545593987357796 0.5530253967180649 3.806698918777892 4.185869671861835
4.125064900343394 0.3192069572114209 1.6906953370545148 2.115162606077456
1.4284091195583817 0.13474085579123854 0.4878742977744306 0.8057939659927142
0.2955359525006268 0.03556090235205961 0.07727703854689581 0.1826980116016713
0.017699919995591368 0.0049819679218675045 -2.8493566706249188e-05 0.012746445640430077
-0.0018287156281114748 0.0005774634116797018 -0.0005358150597332334 -0.0018703639800580782
0.0007410330391655234 0.0009185332182060427 -2.3541896669762732e-05 -0.00015395828237073247
0.0013430160145014268 0.0013431395277566447 -3.731215371638002e-09 -1.1978203984607727e-07
0.0042338703571442055 0.0042338703571442055 0.0 0.0
0.002229653665665988 0.002229653665665988 0.0 0.0
0.0010245607121096647 0.0010245607121096647 0.0 0.0
0.000833920172666926 0.0008271034089990085 3.960330448053176e-07 6.420730623111643e-06
-0.0018974417983272317 0.0007517442640084982 -0.0006169072318923483 -0.002032278830443384
0.041329776886241336 0.006952128961084367 0.006303457663964777 0.02807419026119214
0.5190963995869468 0.044420095407380136 0.15129430435756328 0.3233819998220031
2.1586942445107216 0.1631884898316911 0.8214860075356704 1.1740197471433602
5.5392519012058745 0.37648509425472954 2.340442533581114 2.8223242733700284
11.07931861543527 0.6480572283280845 5.138380014396948 5.292881372710234
18.804805609293737 0.9885682234842498 9.304759345334826 8.511478040474671
28.610522450375818 1.3921139081076437 14.8525542309192 12.365854311348963
40.3577289625628 1.870385417582705 21.73293596110941 16.75440758387069
53.98100439404136 2.4492093831440096 29.923952935053844 21.607842075843532
69.25976773784684 3.153034967161144 39.2200304031517 26.886702367534053
86.35228261935976 3.959195441237906 49.853085677247236 32.54000150087456
104.57649655876203 4.742782218310244 61.406100551256706 38.427613789195064
122.24879241252638 5.190126819180726 72.91363343922698 44.14503215411865
136.55853253010554 5.041674312416411 82.69174185292397 48.82511636476523
143.4215007295614 4.7511567739208145 87.5627934935896 51.107550462050995
138.9856135626873 6.237749113111135 83.54017390334144 49.20769054623469
133.1952272885243 9.54056350714966 77.35650259494419 46.29816118643048
138.98561356264028 6.237749113083643 83.54017390332798 49.20769054622857
143.42150072953572 4.751156773937307 87.56279349356103 51.10755046203743
136.55853253003437 5.04167431241494 82.69174185287667 48.825116364742726
122.24879241244678 5.190126819184745 72.91363343917047 44.14503215409158
104.5764965586765 4.74278221832514 61.40610055118987 38.42761378916148
86.35228261925482 3.9591954412257913 49.85308567718623 32.540001500842806
69.25976773776185 3.1530349671667235 39.22003040309307 26.886702367502036
53.98100439395116 2.44920938314054 29.92395293499901 21.6078420758116
40.357728962478056 1.8703854175748955 21.732935961061994 16.754407583841157
28.6105224503097 1.3921139081072937 14.852554230879853 12.365854311322543
18.804805609243616 0.9885682234844059 9.304759345305861 8.511478040453348
11.079318615398533 0.6480572283259609 5.138380014378184 5.2928813726943895
5.539251901181554 0.376485094252235 2.340442533569987 2.8223242733593303
2.1586942444991615 0.16318848983018477 0.8214860075309488 1.1740197471380247
0.519096399583554 0.04442009540725263 0.15129430435625407 0.323381999820047
0.04132977688575858 0.006952128961083998 0.00630345766380027 0.028074190260874266
-0.0018974417982568785 0.0007517442639962279 -0.00061690723188422 -0.0020322788303688793
0.0008339201726679089 0.0008271034090008866 3.960330447626668e-07 6.4207306222634735e-06
0.0010245607121113433 0.0010245607121113433 0.0 0.0
0.0022296536656506777 0.0022296536656506777 0.0 0.0
0.0010805378726766617 0.0010805378726766617 0.0 0.0
0.0007938881320677813 0.0007938881320677813 0.0 0.0
0.0007922457083313727 0.0007897433836596504 1.22441077168008e-07 2.379883594554421e-06
-0.0024945887927292996 0.0009309361061490876 -0.000845759866387378 -0.0025797650324911547
0.09381115400299714 0.008719783126623935 0.021288985310660747 0.06380238556571256
0.8388248757538987 0.05512696040663534 0.2809013308254869 0.5027965845217763
2.9880625326031334 0.19774222090995297 1.1799947032341493 1.6103256084590312
7.146908742951709 0.43617169667672273 3.141663199713125 3.5690738465618637
13.742968735897522 0.7776065771070011 6.544523955104227 6.42083820368629
22.890473729738222 1.2057700476024633 11.56796205757773 10.116741624558031
34.484989204905375 1.7072649409285994 18.220909682344406 14.556814581632402
48.44895770675271 2.2896975172947007 26.523460487570723 19.635799701887297
64.53090884855847 2.967127475965811 36.29289476091737 25.2708866116753
82.8752488535705 3.7537833946726877 47.728253083226946 31.393212375670785
102.9534301129648 4.628529600279639 60.388716808544814 37.93618370414038
124.19190886147419 5.4030992478491005 74.0638318923788 44.724977721246326
144.981626675347 5.685988452952698 87.98339389524435 51.31224432714994
161.89513331281688 5.276046363093754 99.84264878071646 56.77643816900668
170.7231864804133 5.051834761942795 106.06537319366475 59.605978524805764
167.11883775314382 7.0811854128347 102.20674217125304 57.830910169056125
159.71694264698712 9.673340287938196 95.3407056332295 54.702896725819386
167.1188377531114 7.081185412832088 102.20674217123249 57.83091016904691
170.72318648033732 5.051834761921041 106.06537319362745 59.60597852478873
161.8951333127155 5.276046363082884 99.84264878065405 56.77643816897866
144.98162667525628 5.6859884529648 87.98339389517405 51.3122443271173
124.19190886136501 5.403099247856703 74.0638318922999 44.72497772120825
102.95343011286873 4.628529600294783 60.38871680847074 37.93618370410319
82.87524885346193 3.753783394667391 47.728253083159444 31.393212375635105
64.53090884845956 2.9671274759712825 36.2928947608504 25.270886611637827
48.448957706662924 2.2896975172947682 26.523460487514473 19.63579970185368
34.484989204818035 1.7072649409179077 18.220909682297812 14.55681458160233
22.89047372967493 1.2057700475974613 11.567962057543518 10.116741624533951
13.742968735854113 0.7776065771058591 6.544523955080672 6.420838203667582
7.146908742920917 0.4361716966730025 3.141663199699242 3.5690738465486715
2.9880625325885783 0.19774222090886392 1.1799947032276814 1.6103256084520323
0.8388248757490311 0.05512696040612332 0.28090133082364693 0.5027965845192601
0.09381115400203391 0.008719783126553391 0.02128898531035396 0.06380238556512663
-0.0024945887925698204 0.0009309361061302279 -0.0008457598663722167 -0.002579765032327617
0.00079224570833226 0.000789743383663748 1.2244107697319608e-07 2.3798835915387224e-06
0.000793888132060745 0.000793888132060745 0.0 0.0
0.0010805378726503458 0.0010805378726503458 0.0 0.0
0.00047483859748915895 0.00047483859748915895 0.0 0.0
0.000636766591787069 0.000636766591787069 0.0 0.0
0.0008369232510413139 0.0008369232510413139 0.0 0.0
-0.002803549606153936 0.0012959183136821042 -0.00128039378016837 -0.002819074139667491
0.1853945744476035 0.009643815741956753 0.04884716286344673 0.12690359584220015
1.2664108287630214 0.07021120527431408 0.46148110209031523 0.7347185213983927
3.9314001225087543 0.23419217061874392 1.6038940293749064 2.0933139225151
8.883753029238802 0.518567449302863 4.022674837907966 4.342510742027978
16.535468573072638 0.9408130754483548 8.032728668457871 7.561926829166413
27.12636268105462 1.476224852016693 13.922754031557902 11.727383797480025
40.60056501663684 2.100226660533802 21.751548310910387 16.74879004519263
56.780634493636875 2.80753754162643 31.454456890678337 22.51864006133215
75.66343634106278 3.6088585606419565 43.120944458707484 28.93363332171331
96.72138840727021 4.494738975114121 56.31780772300087 35.90884170915528
119.87332763293786 5.380569762539806 71.18523565398606 43.30752221641199
144.1564031656227 6.106791199761814 87.13512941879527 50.91448254706559
167.79054043631882 6.302843416986678 103.18890814381173 58.29878887552045
187.4212696903974 5.6128300725519145 117.23815303116278 64.57028658668261
199.0008822376238 5.4261387227380045 125.45551544993896 68.11922806494687
197.57014169303096 8.307289187435112 122.46840875815248 66.79444374744325
189.3193797477808 10.22494202939776 115.33470924447 63.75972847391304
197.57014169301675 8.307289187451598 122.46840875813078 66.79444374743433
199.00088223753 5.426138722722396 125.45551544988447 68.11922806492326
187.42126969032554 5.612830072583399 117.23815303109112 64.57028658665104
167.79054043617862 6.302843416967835 103.18890814372834 58.29878887548249
144.1564031654873 6.106791199757998 87.13512941870599 50.9144825470233
119.87332763277865 5.380569762514115 71.18523565389636 43.30752221636818
96.72138840715 4.494738975113595 56.31780772292158 35.90884170911487
75.66343634093109 3.608858560628654 43.12094445863046 28.933633321672012
56.78063449352747 2.8075375416201043 31.454456890612896 22.518640061294498
40.60056501654883 2.100226660530787 21.751548310857995 16.74879004516006
27.126362680985984 1.4762248520143912 13.92275403151845 11.72738379745313
16.535468573023188 0.9408130754467009 8.032728668430773 7.5619268291457145
8.883753029204717 0.5185674493004173 4.022674837891145 4.342510742013156
3.9314001224907837 0.234192170617084 1.6038940293671993 2.093313922506502
1.266410828755881 0.07021120527391864 0.46148110208737403 0.7347185213945892
0.1853945744466064 0.009643815741967784 0.04884716286305181 0.12690359584158695
-0.0028035496060786944 0.0012959183136733439 -0.0012803937801571243 -0.0028190741395950907
0.0008369232510443804 0.0008369232510443804 0.0 0.0
0.000636766591789481 0.000636766591789481 0.0 0.0
0.00047483859746992845 0.00047483859746992845 0.0 0.0
0.0002097180080264551 0.0002097180080264551 0.0 0.0
0.0006066925686944931 0.0006066925686944931 0.0 0.0
0.0010334749977573953 0.0010334749977573953 0.0 0.0
0.0048677438644489 0.0015752644683562677 -0.00035992612293307344 0.0036524055190253844
0.33723563786799576 0.011477115302583397 0.1059421789185068 0.219816343646906
1.780914568815079 0.09060266896756136 0.6731915654474249 1.0171203344000916
5.008009066266417 0.28110994494942665 2.122014359759898 2.604884761557095
10.714722401305515 0.6244899000265395 4.956128542151382 5.134103959127592
19.455793046990426 1.140645251184596 9.606119899311388 8.709027896494446
31.495035331083866 1.8043720927376128 16.353955823711765 13.33670741463448
46.86940160817131 2.573070215656481 25.357626313387726 18.93870507912707
65.49509136177946 3.4353948365638725 36.66163874936477 25.398057775850837
86.90421158200417 4.384051615842135 49.91836230494822 32.60179766121381
111.0761199080733 5.3577619079783085 65.3023147467901 40.41604325330486
137.2538238401944 6.254699360224811 82.33909812027079 48.66002635969885
164.3230226609159 6.869696489948575 100.41698820477676 57.0363379661905
190.52456043493243 6.983430887048295 118.46692637781585 65.07420317006826
212.82333115721136 6.173804118082668 134.6053197259686 72.04420731316011
227.08678096000435 5.133717487597297 145.35510727261743 76.59795619978968
230.87331915169406 9.950451216108684 144.62455431815215 76.29831361743301
224.67279216516297 12.044236671052456 138.97880512409003 73.64975037002057
230.87331915161946 9.950451216071526 144.62455431812637 76.29831361742163
227.08678095993426 5.133717487616481 145.35510727255485 76.59795619976293
212.82333115706444 6.173804118054531 134.60531972588552 72.04420731312442
190.52456043480032 6.983430887053546 118.4669263777204 65.0742031700263
164.32302266075442 6.869696489937927 100.41698820467309 57.03633796614349
137.25382384004956 6.254699360226361 82.33909812017122 48.66002635965196
111.0761199079271 5.357761907972806 65.30231474669593 40.41604325325834
86.90421158187641 4.3840516158471425 49.91836230486114 32.60179766116807
65.49509136165638 3.4353948365592437 36.66163874928859 25.398057775808518
46.869401608067825 2.5730702156508864 25.357626313326563 18.93870507909037
31.49503533100661 1.8043720927349147 16.353955823666798 13.336707414604895
19.455793046933056 1.1406452511809806 9.60611989928041 8.709027896471657
10.714722401267304 0.6244899000239235 4.956128542132094 5.1341039591112905
5.008009066244954 0.2811099449476883 2.1220143597501036 2.6048847615471598
1.7809145688070753 0.09060266896727934 0.6731915654439107 1.0171203343958861
0.33723563786576277 0.011477115302537937 0.10594217891763606 0.2198163436455889
0.004867743864380776 0.001575264468318605 -0.0003599261229561099 0.0036524055190183674
0.0010334749977450567 0.0010334749977450567 0.0 0.0
0.0006066925686968599 0.0006066925686968599 0.0 0.0
0.00020971800802859687 0.00020971800802859687 0.0 0.0
0.00018546720803049732 0.00018546720803049732 0.0 0.0
0.0007757063836201666 0.0007757063836201666 0.0 0.0
0.0016876574660061295 0.0016876574660061295 0.0 0.0
0.03349694935417501 0.0048925957278669885 0.006016240691992775 0.022588112934315265
0.5423173770982351 0.03628356198372057 0.1794098200422776 0.3266239950722374
2.3166282455468457 0.16961934637175016 0.8846546765235292 1.262354222651565
6.012784048735664 0.44305120862452585 2.554013010793221 3.0157198293179146
12.377910667458185 0.9226873572183012 5.711096760625631 5.744126549614252
22.04596825002793 1.6538895620457512 10.812048694940808 9.580029993041386
35.39986606426323 2.5973367040587703 18.250118349237994 14.55241101096646
52.462237281240085 3.6760951202720227 28.196277071007472 20.589865089960668
72.90875637422857 4.816559355085188 40.51980365365969 27.572393365483627
96.5741203522136 5.937393723358087 55.27298575493268 35.36374087392286
122.94258973580557 6.922669548433092 72.21236702529026 43.807553162082264
151.09380581397795 7.49783349489736 90.92448658881634 52.67148573026413
179.5602868985405 7.309130315468092 110.65427757869236 61.596879004380064
206.30023914242219 6.128651660987851 130.07822358264903 70.09336389878524
229.1138901629467 4.270008790944102 147.39046024806626 77.45342112393652
243.53268430275207 0.8611146082604488 159.9733825535525 82.69818714093907
245.07517883095565 -1.4387084502735168 162.56889037310913 83.94499690812017
271.15053758387336 27.64584731347436 161.60786086793092 81.8968294024682
245.07517883091595 -1.4387084502683756 162.5688903730774 83.94499690810687
243.5326843026554 0.8611146082564556 159.97338255348666 82.69818714091215
229.11389016281097 4.270008790945186 147.39046024797048 77.45342112389551
206.3002391422927 6.128651661013767 130.07822358254114 70.09336389873786
179.56028689838146 7.309130315476137 110.65427757857614 61.59687900432908
151.0938058138272 7.49783349490201 90.92448658871031 52.671485730214954
122.94258973564871 6.922669548432513 72.21236702518507 43.80755316203109
96.57412035206588 5.93739372335111 55.27298575483947 35.36374087387533
72.90875637409164 4.816559355081404 40.51980365357373 27.57239336543651
52.46223728112482 3.676095120265402 28.19627707093892 20.5898650899205
35.39986606417669 2.5973367040518727 18.250118349189304 14.552411010935515
22.04596824996254 1.6538895620394656 10.812048694906302 9.58002999301678
12.377910667413762 0.9226873572134344 5.711096760603827 5.7441265495965
6.012784048709593 0.443051208621298 2.5540130107816257 3.01571982930667
2.3166282455387055 0.16961934637152826 0.8846546765200201 1.262354222647157
0.5423173770943546 0.03628356198340108 0.17940982004082692 0.32662399507012596
0.03349694935395587 0.004892595727777032 0.00601624069195701 0.02258811293422146
0.0016876574660069001 0.0016876574660069001 0.0 0.0
0.0007757063836226921 0.0007757063836226921 0.0 0.0
0.00018546720803066608 0.00018546720803066608 0.0 0.0
CELL_DATA 800
SCALARS Stress float 6
LOOKUP_TABLE default
-121.6683982110192 231.71052097413695 -38.85520641005556 47.096639326290436 0.0 0.0
-143.73981164785909 -270.78987019861336 -102.68916038309138 -52.569855802621284 0.0 0.0
-30.90074562240817 43.71284178634316 4.417044230815211 13.354333642020956 0.0 0.0
-46.675841490399144 -26.83082426429745 -5.677391228240291 -5.698924487026209 0.0 0.0
-72.59621238990256 -29.411466394385087 29.35318080074405 5.695146276089148 0.0 0.0
-118.20899060870394 -35.76645192143609 59.94824653118555 7.746660510434738 0.0 0.0
-169.4918120901166 -42.13146229032256 69.9319480815682 6.672391438759792 0.0 0.0
-216.46385021516892 -45.062839156933904 75.71152843269002 3.8738409014939235 0.0 0.0
-254.72667586632258 -43.65915228801971 86.16968004023548 0.8981896273678771 0.0 0.0
-285.22722070836335 -39.49392488311136 101.53500260638279 -1.446473823306495 0.0 0.0
-310.9916298876501 -34.666223808272434 119.44412145196293 -3.074408713640243 0.0 0.0
-334.42543957558354 -29.613830725176058 138.5171712244443 -4.171092716059369 0.0 0.0
-356.5764281499396 -23.993943124482286 158.46228881402828 -4.97811064115491 0.0 0.0
-378.51895556676465 -15.97438902801835 179.81315536391023 -5.318451189690559 0.0 0.0
-402.68780593219986 -3.8176954440075974 202.53418417738862 -4.714064346205828 0.0 0.0
-433.50924359164054 12.907749016233353 225.06665908499065 -2.686121541173467 0.0 0.0
-475.7577912424955 33.18329423902576 244.75541253848598 0.6655386401965018 0.0 0.0
-527.9066266640821 56.46777563550543 261.217002061728 3.321581896075905 0.0 0.0
-571.5313119113428 86.54575923289029 281.9118430631537 -1.3182153259098985 0.0 0.0
-527.8680107299438 176.6850133984295 365.2857639916571 -26.369205890173212 0.0 0.0
-527.8680107309162 176.6850133976194 365.28576399111324 26.369205890343945 0.0 0.0
-571.5313119118222 86.54575923311222 281.9118430629805 1.3182153257242177 0.0 0.0
-527.9066266633257 56.46777563611238 261.21700206197704 -3.321581896197399 0.0 0.0
-475.75779124156196 33.18329424010028 244.75541253895494 -0.6655386401852272 0.0 0.0
-433.5092435918175 12.907749017028777 225.06665908490487 2.686121541228914 0.0 0.0
-402.68780593242377 -3.8176954432248067 202.53418417730285 4.714064346020645 0.0 0.0
-378.51895556681995 -15.97438902866179 179.8131553637357 5.318451189758947 0.0 0.0
-356.57642815061223 -23.993943125938415 158.46228881324043 4.978110641146668 0.0 0.0
-334.4254395749204 -29.613830725035996 138.51717122451402 4.171092715965735 0.0 0.0
-310.99162988694724 -34.666223807662334 119.44412145226664 3.0744087135584532 0.0 0.0
-285.2272207082236 -39.493924882862245 101.53500260636795 1.4464738231663157 0.0 0.0
-254.7266758663083 -43.65915228757956 86.16968004022232 -0.8981896273793692 0.0 0.0
-216.463850214512 -45.06283915608614 75.7115284329671 -3.873840901775669 0.0 0.0
-169.49181208935832 -42.13146228922598 69.93194808198129 -6.6723914387894885 0.0 0.0
-118.20899060799546 -35.76645192066672 59.948246531475995 -7.746660510390048 0.0 0.0
-72.59621239019312 -29.41146639468696 29.353180800415462 -5.695146275994755 0.0 0.0
-46.67584149031549 -26.830824264082374 -5.677391228197395 5.698924486887414 0.0 0.0
-30.900745622352478 43.71284178640359 4.417044230846498 -13.354333642267923 0.0 0.0
-143.73981164769 -270.78987019824183 -102.68916038297917 52.56985580256512 0.0 0.0
-121.66839821095212 231.7105209740442 -38.85520640990626 -47.096639326086134 0.0 0.0
-25.874013770963245 178.22899345388873 -54.07005988063949 52.26837632032529 0.0 0.0
-20.29199637215299 -203.80508127685624 -66.58357226192285 -34.660821129117195 0.0 0.0
-37.544962311318876 28.279963652510553 -2.744272658112318 -5.932357235815307 0.0 0.0
-18.692920289897764 -17.866192518643114 -3.0314320118309652 1.9789458613114919 0.0 0.0
-34.18567927661554 -32.09468635379874 25.04731371395217 11.139643473617737 0.0 0.0
-62.19532484965299 -34.003818094757136 66.38286168040929 18.349786983308306 0.0 0.0
-96.46104763526115 -38.68635355326026 87.11697182462748 17.051207659509156 0.0 0.0
-129.06671381442396 -39.722719874305824 99.30364488408924 12.697934964045864 0.0 0.0
-156.26947436115483 -37.73674974081021 112.94748777416737 7.907273878417012 0.0 0.0
-178.32312481261158 -33.94240254945704 129.52375523550168 4.38257383782583 0.0 0.0
-197.3767091541729 -30.058033637473727 147.42405781408476 2.14582455629974 0.0 0.0
-214.70751102536906 -26.33708941722996 165.96825243395023 0.6412293857712408 0.0 0.0
-231.28463414303326 -21.62952265115142 185.34187390421494 -0.3382238321253688 0.0 0.0
-248.03947573758902 -15.014891120392505 205.67857787808944 -0.4215908872490939 0.0 0.0
-267.0545143142668 -5.326537159246499 226.7490063036513 1.2604501658157297 0.0 0.0
-291.32108717883915 8.322532207810745 247.7695437367354 5.46609398832881 0.0 0.0
-322.78118381615917 26.910023254335357 268.2369079358092 11.256880258921555 0.0 0.0
-357.42809685196096 53.31120604059585 290.49263363340515 13.439693918828802 0.0 0.0
-372.6882117599997 99.91074672093515 328.710538493246 2.2084787617186414 0.0 0.0
-371.9338217100098 141.26061261575776 363.3371595885405 -28.55442153543131 0.0 0.0
-371.93382171000036 141.260612615558 363.3371595885265 28.554421535561943 0.0 0.0
-372.68821175956674 99.91074672184959 328.7105384938489 -2.2084787615718895 0.0 0.0
-357.42809685236466 53.3112060404261 290.4926336331268 -13.439693918777246 0.0 0.0
-322.78118381692997 26.91002325229954 268.23690793474367 -11.256880258777613 0.0 0.0
-291.32108717918027 8.32253220761072 247.76954373631673 -5.466093988220713 0.0 0.0
-267.054514313594 -5.326537156977508 226.74900630421746 -1.2604501654528448 0.0 0.0
-248.03947573599604 -15.014891116435535 205.6785778795997 0.4215908868562197 0.0 0.0
-231.28463414195645 -21.629522649879846 185.34187390481873 0.3382238320605211 0.0 0.0
-214.70751102537247 -26.337089416316417 165.96825243405908 -0.6412293859237028 0.0 0.0
-197.3767091546792 -30.058033638371285 147.42405781361964 -2.14582455618301 0.0 0.0
-178.32312481248505 -33.942402549564804 129.52375523548432 -4.382573837871126 0.0 0.0
-156.2694743603892 -37.73674973888063 112.9474877749054 -7.907273878552701 0.0 0.0
-129.06671381395523 -39.72271987265613 99.30364488463692 -12.697934964021009 0.0 0.0
-96.46104763507533 -38.686353552115165 87.11697182491392 -17.05120765960492 0.0 0.0
-62.19532484913979 -34.003818093944915 66.3828616806388 -18.349786983221474 0.0 0.0
-34.185679276580245 -32.09468635339351 25.04731371394498 -11.139643473614427 0.0 0.0
-18.692920290125876 -17.866192519213996 -3.0314320121041547 -1.9789458612769248 0.0 0.0
-37.544962311307344 28.279963652282788 -2.7442726581736365 5.932357236023835 0.0 0.0
-20.291996372042366 -203.80508127638842 -66.583572261738 34.66082112900497 0.0 0.0
-25.874013771029496 178.2289934535006 -54.07005988065221 -52.26837632033963 0.0 0.0
3.5591813829524597 123.05884641535066 -70.21244794974913 47.907405175950636 0.0 0.0
-0.4187321377418698 -130.37427286026843 -39.23790149940309 -16.65985487916752 0.0 0.0
-26.59085956812122 9.659572091615004 -5.0793862429518635 -15.357392727365617 0.0 0.0
-4.468978907327479 -13.672704394536312 -2.8730271963205407 1.3797130587210307 0.0 0.0
-0.5243686184682677 -31.09945123530739 20.96984099070557 13.829397670696952 0.0 0.0
-9.540965473696382 -34.65284954704229 67.78942494232848 23.655440802494752 0.0 0.0
-27.07841793501911 -34.262522951181495 101.83258579329087 23.714824164634635 0.0 0.0
-46.24503444489197 -34.32598144909747 120.3778386018136 18.44351514170768 0.0 0.0
-62.36792026826042 -31.706960725364866 137.4361093484971 12.546806786305229 0.0 0.0
-76.07761510992366 -28.501752368874918 155.09533401189054 8.335854487889414 0.0 0.0
-88.1951871023319 -25.55174948392346 173.10830090478365 5.726104793372781 0.0 0.0
-99.44313490416657 -22.63991220969342 191.38490367775293 4.016417420793007 0.0 0.0
-110.24391062902886 -19.2648842091032 210.07858948591627 2.950799105429442 0.0 0.0
-121.89860735430517 -14.433786136437988 229.16074433151303 3.193580401812958 0.0 0.0
-135.71835529575952 -7.557510662484404 248.41192587755313 5.7631236133831605 0.0 0.0
-152.98103926694543 3.059985221771143 268.1386789778428 11.3024819313858 0.0 0.0
-173.55018988389938 20.676664025320942 289.81020443088136 18.09155380849517 0.0 0.0
-192.1789174372557 51.4935328596321 317.9855897743815 19.581948084489284 0.0 0.0
-204.79308351746423 92.33075235136036 350.41334300375604 5.929824337809022 0.0 0.0
-205.02873715991916 127.76498527418272 378.5826784711587 -29.238492185942217 0.0 0.0
-205.0287371587214 127.76498527441646 378.5826784717163 29.238492185961867 0.0 0.0
-204.79308351636547 92.33075235022363 350.41334300387365 -5.929824337815409 0.0 0.0
-192.17891743593714 51.49353285824645 317.98558977465717 -19.581948084674757 0.0 0.0
-173.5501898832809 20.676664025895718 289.8102044312535 -18.091553808184464 0.0 0.0
-152.9810392651616 3.059985223804688 268.1386789789796 -11.302481931786978 0.0 0.0
-135.71835529414295 -7.557510663028495 248.41192587794643 -5.763123613042537 0.0 0.0
-121.89860735467795 -14.433786139086237 229.16074433049232 -3.19358040218232 0.0 0.0
-110.24391062955885 -19.26488421143887 210.07858948494282 -2.950799105390761 0.0 0.0
-99.44313490427018 -22.639912209181034 191.38490367770243 -4.016417420567745 0.0 0.0
-88.19518710280516 -25.551749484003608 173.10830090440234 -5.726104793382291 0.0 0.0
-76.07761511027513 -28.501752368473745 155.0953340117322 -8.335854487894553 0.0 0.0
-62.36792026843736 -31.706960725806454 137.43610934815328 -12.546806786200694 0.0 0.0
-46.24503444537062 -34.32598145027745 120.37783860118994 -18.443515141551018 0.0 0.0
-27.078417935366915 -34.262522951998534 101.83258579282932 -23.714824164856807 0.0 0.0
-9.540965473886594 -34.65284954710445 67.78942494206424 -23.655440802675386 0.0 0.0
-0.5243686183192509 -31.099451235144645 20.969840990612646 -13.829397670896457 0.0 0.0
-4.468978906903133 -13.672704393830253 -2.8730271959972304 -1.3797130586870412 0.0 0.0
-26.590859567950417 9.659572091615003 -5.079386242900624 15.357392727480908 0.0 0.0
-0.4187321378246054 -130.37427286016967 -39.237901499398276 16.65985487924011 0.0 0.0
3.5591813828577585 123.0588464148277 -70.21244794982387 -47.90740517567327 0.0 0.0
15.202108616370225 78.69430822441338 -76.58650922426007 38.703684966439795 0.0 0.0
16.274780375459653 -72.33943543742468 -16.819396518589507 -0.9367197560864546 0.0 0.0
-10.620373888678744 -3.2621008792025625 -4.164742430364392 -19.394820688066154 0.0 0.0
3.4639782514794932 -11.126893068006707 -1.8588014260711905 -1.6370434714306448 0.0 0.0
23.59660340455731 -30.687160069742117 15.442478433134998 10.840919866088468 0.0 0.0
35.34637538426244 -33.56866376930428 65.06399705099938 24.331103136214445 0.0 0.0
35.98747616932272 -31.183653126166128 110.99254332586293 26.320967292570597 0.0 0.0
31.955041445124095 -28.373674409476386 138.90596278286122 21.12106868629529 0.0 0.0
26.41247285227874 -25.837615144959315 159.14845519177402 14.83488270613104 0.0 0.0
21.23637845722807 -23.146701382417618 178.09551102193547 10.384488556437812 0.0 0.0
16.175081291166833 -20.99883361242368 196.3785830584926 7.640906531892918 0.0 0.0
11.218613660008614 -19.024199710515965 214.4364424535074 5.867308135793335 0.0 0.0
5.95165376280611 -16.809664783363516 232.41334597867314 4.940886042688391 0.0 0.0
-0.24019017422494215 -13.897901791882 250.3488649663406 5.531203963488685 0.0 0.0
-8.639837661524886 -9.975318942804448 267.8130624028188 8.683895835951642 0.0 0.0
-19.186027905798568 -2.343517933727771 286.1261244734019 14.822585309860116 0.0 0.0
-29.76755200868272 14.095829318139742 308.5166395129655 21.880004954937895 0.0 0.0
-39.29666604793914 43.86985944166669 336.6548726555556 23.342243706632395 0.0 0.0
-45.75269533080029 84.72367847661647 368.1377645454409 8.501088334849975 0.0 0.0
-42.30501839956108 121.19165859816835 395.92627931439426 -30.839174607945573 0.0 0.0
-42.30501839980184 121.19165859937095 395.9262793144755 30.839174607986077 0.0 0.0
-45.752695332786914 84.72367847672649 368.1377645444127 -8.50108833453092 0.0 0.0
-39.296666050682404 43.86985944007523 336.65487265360935 -23.34224370676578 0.0 0.0
-29.767552008925577 14.095829318533049 308.5166395125673 -21.8800049544411 0.0 0.0
-19.186027904636205 -2.343517930245639 286.1261244745992 -14.822585310069847 0.0 0.0
-8.639837660063279 -9.975318939126623 267.8130624042028 -8.683895835884687 0.0 0.0
-0.2401901744119641 -13.89790179082928 250.34886496639643 -5.531203963386738 0.0 0.0
5.951653762681474 -16.80966478275201 232.41334597853682 -4.940886042642821 0.0 0.0
11.218613660010988 -19.02419971147407 214.43644245320266 -5.867308135694423 0.0 0.0
16.175081290623382 -20.998833615082958 196.3785830574982 -7.640906531808818 0.0 0.0
21.236378457141484 -23.146701383577465 178.09551102145537 -10.384488556443099 0.0 0.0
26.412472852487184 -25.837615145019527 159.1484551917663 -14.83488270642224 0.0 0.0
31.955041444985483 -28.37367441089694 138.90596278232994 -21.1210686863946 0.0 0.0
35.98747616921693 -31.18365312657088 110.9925433255959 -26.320967292540814 0.0 0.0
35.346375384521025 -33.56866376886103 65.06399705100465 -24.33110313607465 0.0 0.0
23.59660340435761 -30.687160069961333 15.44247843289486 -10.840919866155822 0.0 0.0
3.4639782515313873 -11.126893067980383 -1.8588014260453178 1.637043471366416 0.0 0.0
-10.62037388863551 -3.262100879379237 -4.164742430404423 19.39482068797221 0.0 0.0
16.274780375458587 -72.33943543724213 -16.819396518535065 0.9367197561163451 0.0 0.0
15.20210861623545 78.69430822414847 -76.58650922426182 -38.703684966386014 0.0 0.0
20.93527140785956 42.63967519654355 -74.98032600319986 27.36078326180666 0.0 0.0
30.05864011158287 -26.8160125058831 0.9727882817099303 10.280814033258867 0.0 0.0
5.0232145379417315 -10.705682261205073 -1.7047403169790016 -18.964596159136534 0.0 0.0
9.446538185245394 -10.246954268459005 -0.15737770712822052 -4.667594990945727 0.0 0.0
36.697655896267506 -29.034300033520303 10.453043086902467 3.4096997814761814 0.0 0.0
70.24151756326489 -32.25215689013827 57.812380518668164 19.028414634455487 0.0 0.0
92.2701812119966 -28.46523901632225 114.2240004956358 24.368681518977496 0.0 0.0
103.93289634979399 -22.96997252041141 153.06025568139034 20.649698745018494 0.0 0.0
109.63834261108991 -19.932380583473496 177.82777135087264 14.76230456948096 0.0 0.0
113.08350676433682 -17.924182324680473 198.193750366971 10.454857290506997 0.0 0.0
115.28412797038294 -16.46730941019213 216.94805399993504 7.880055013184119 0.0 0.0
116.39742953874438 -15.46178729146255 234.68529593038477 6.24781227876861 0.0 0.0
116.78644269661544 -14.52743712111483 251.95522469025633 5.494435094219486 0.0 0.0
115.96241879119324 -13.31962586291553 268.78909946016086 6.53932802131549 0.0 0.0
113.3197395357165 -11.845538994280371 284.890572409786 10.12027468923191 0.0 0.0
109.46938645664929 -7.483253664618907 301.67926602045117 16.293461463185665 0.0 0.0
105.86403721154775 5.544268636867372 322.25883476160914 23.304361889801278 0.0 0.0
103.7618357429486 33.6886033681117 349.3518865704677 24.91479351885437 0.0 0.0
103.87208709903905 76.90201559828373 381.45368271838004 9.426598579630287 0.0 0.0
113.29651785128988 118.6772699502364 412.27521885846204 -33.79624969674318 0.0 0.0
113.29651785094575 118.67726994977573 412.2752188581825 33.79624969700563 0.0 0.0
103.87208709879667 76.9020155962192 381.45368271786987 -9.42659857945221 0.0 0.0
103.76183574445707 33.688603370331066 349.3518865717499 -24.914793518901106 0.0 0.0
105.86403721390326 5.544268641482859 322.25883476370296 -23.30436188969616 0.0 0.0
109.4693864572269 -7.483253663631274 301.6792660208848 -16.293461463256385 0.0 0.0
113.31973953490717 -11.845538995178288 284.8905724089369 -10.120274689229209 0.0 0.0
115.9624187905253 -13.319625865141973 268.78909945906696 -6.539328021146086 0.0 0.0
116.78644269599494 -14.527437122063134 251.95522468975483 -5.494435094621474 0.0 0.0
116.3974295396242 -15.46178729082311 234.685295930729 -6.247812278898447 0.0 0.0
115.28412797106469 -16.46730940803772 216.94805400063026 -7.880055013257678 0.0 0.0
113.08350676383034 -17.924182325313637 198.19375036651425 -10.454857290563243 0.0 0.0
109.63834261051939 -19.932380584445383 177.8277713503782 -14.76230456956339 0.0 0.0
103.93289634953986 -22.969972520820534 153.06025568104855 -20.649698744851815 0.0 0.0
92.27018121168109 -28.465239017387916 114.22400049504706 -24.368681518842102 0.0 0.0
70.24151756322979 -32.25215688994692 57.8123805184979 -19.028414634397098 0.0 0.0
36.6976558963319 -29.034300032772684 10.453043087103486 -3.4096997813013536 0.0 0.0
9.446538185308388 -10.246954268246302 -0.15737770703615317 4.667594991061157 0.0 0.0
5.0232145378184345 -10.705682261599522 -1.7047403171343263 18.96459615915788 0.0 0.0
30.058640111800646 -26.81601250537496 0.9727882819277047 -10.280814033284488 0.0 0.0
20.93527140773236 42.63967519622924 -74.98032600320684 -27.36078326179643 0.0 0.0
24.552470095035474 13.603050465439445 -67.09174512876925 15.445351877266704 0.0 0.0
39.51432001172441 8.028666985706373 14.262848600900895 16.7437353037894 0.0 0.0
17.76890222092858 -13.515730312066431 1.2759515726586441 -15.315408778970863 0.0 0.0
15.10216254618079 -11.507741290530198 1.0782760895768169 -7.460611025813497 0.0 0.0
39.772672553335724 -24.530352965516805 7.7302185823453335 -5.002780030145445 0.0 0.0
89.12953268101316 -31.112765935971456 46.17941833384173 6.94485926403642 0.0 0.0
136.24885183897948 -24.933144095905412 109.52820590900916 17.09281966774022 0.0 0.0
166.59141294436154 -18.77472867851743 159.98837035948142 16.475663768085273 0.0 0.0
185.86390895139027 -14.43869384747238 192.18655464306875 12.04508345132185 0.0 0.0
198.44417510103958 -12.779543197501091 214.80739506473503 8.531543320969769 0.0 0.0
207.809813923808 -12.088897276269517 234.04867860222672 6.415316323145361 0.0 0.0
215.0910409545089 -11.93887618403617 251.62100276740549 5.147332417455159 0.0 0.0
220.80847532378422 -12.27703981851015 268.04218447985005 4.705106247612051 0.0 0.0
225.51533235982308 -12.833510301941345 283.82019039742573 6.03340530039855 0.0 0.0
229.20036712235282 -13.209574814888143 299.1459315227922 9.979508585830072 0.0 0.0
231.0586722127951 -11.944748600783484 314.06629748480526 16.258043196188076 0.0 0.0
232.8232810420529 -3.8055836393450733 331.39187488160263 22.88844903399584 0.0 0.0
236.14027387947286 21.354749507898532 355.87116220603343 24.413764587745217 0.0 0.0
242.30851285572973 68.16607468525237 389.0505931664678 8.528299847617891 0.0 0.0
259.3292835371889 118.53838931794058 425.3845567134018 -38.566848327262804 0.0 0.0
259.3292835374644 118.53838931900049 425.384556713847 38.5668483274701 0.0 0.0
242.3085128570607 68.16607468789522 389.050593167688 -8.528299847835747 0.0 0.0
236.14027388078472 21.35474951195914 355.8711622076316 -24.413764587470865 0.0 0.0
232.82328104289888 -3.805583637075074 331.3918748824924 -22.88844903433324 0.0 0.0
231.05867221223502 -11.944748601820265 314.06629748424325 -16.258043195752997 0.0 0.0
229.20036712052553 -13.209574817961595 299.1459315212068 -9.979508585991201 0.0 0.0
225.51533235971772 -12.833510302693696 283.8201903972797 -6.0334053003771 0.0 0.0
220.80847532396325 -12.277039818216963 268.04218448005383 -4.705106247512138 0.0 0.0
215.09104095340965 -11.938876185464125 251.62100276652262 -5.147332417473139 0.0 0.0
207.8098139226052 -12.088897277838072 234.04867860132933 -6.415316323309527 0.0 0.0
198.44417510112493 -12.7795431961884 214.80739506505688 -8.531543321038322 0.0 0.0
185.8639089511778 -14.438693846719929 192.186554643097 -12.045083451313927 0.0 0.0
166.59141294398967 -18.774728678087598 159.98837035936955 -16.475663768190774 0.0 0.0
136.24885183886147 -24.933144095489737 109.52820590889152 -17.092819667767355 0.0 0.0
89.12953268033695 -31.11276593667728 46.1794183332948 -6.944859264236893 0.0 0.0
39.77267255297099 -24.530352966052234 7.730218582045057 5.002780029844714 0.0 0.0
15.102162546276052 -11.507741290145079 1.0782760897278754 7.460611025540571 0.0 0.0
17.768902221130343 -13.515730311638356 1.2759515728475952 15.315408778812868 0.0 0.0
39.514320011599835 8.028666985580054 14.262848600825667 -16.743735303969714 0.0 0.0
24.552470094886004 13.603050465158162 -67.09174512876598 -15.4453518773429 0.0 0.0
28.00149522139413 -8.468062725206039 -54.00374384175612 3.5315268334641257 0.0 0.0
44.854050796179074 32.82379146761572 23.30355487468006 19.55996639775949 0.0 0.0
26.27815338152236 -13.133148787167212 3.9428834111324056 -9.766566803192744 0.0 0.0
18.565918721942502 -12.808920168027166 1.7325143375494805 -9.659097847407756 0.0 0.0
36.40956369201889 -19.10893590223289 6.589363924604321 -11.9575261220471 0.0 0.0
91.6357144690626 -27.583411864691467 33.72336725140532 -10.314820984033805 0.0 0.0
162.34191551837512 -22.33344372258903 95.00078464031704 2.70360942323068 0.0 0.0
216.51662841144372 -14.479290817862775 157.3759431141138 7.873927944767071 0.0 0.0
251.3081611436324 -9.911696478510116 199.08596569993168 6.311143305254579 0.0 0.0
274.770654627148 -7.958488488733423 226.24010058892537 4.384608995476047 0.0 0.0
291.4635679141934 -7.981184297182796 246.3713675480895 3.215153697885037 0.0 0.0
304.9535432720848 -8.424125006684054 264.03050944554303 2.582832215855295 0.0 0.0
315.8360000693933 -10.010319168517952 279.5857784989123 2.5469398250965245 0.0 0.0
325.46063460517354 -12.336209949600118 294.0382500669889 4.056253412125897 0.0 0.0
335.14142337717993 -14.531035510876578 308.42650402359186 8.20761969898136 0.0 0.0
344.2218955008507 -15.294319075290247 322.8144077444582 14.775349857268113 0.0 0.0
349.81943451959 -12.38309901837485 336.10108692453025 21.29227369254737 0.0 0.0
355.2293307343485 7.572077177743125 355.3014057856999 22.35862507038641 0.0 0.0
365.89748311612857 57.11865444857679 388.3462122816768 5.678408228020961 0.0 0.0
392.4060285005135 119.23116789019181 432.60987583293866 -45.90096082681063 0.0 0.0
392.406028500301 119.23116788896397 432.60987583244946 45.90096082705243 0.0 0.0
365.897483116721 57.11865445161703 388.3462122825911 -5.6784082282769 0.0 0.0
355.22933073509853 7.572077180259441 355.3014057866668 -22.358625070299173 0.0 0.0
349.8194345191017 -12.38309901932547 336.1010869240868 -21.292273693251033 0.0 0.0
344.22189550065997 -15.294319076056865 322.8144077440872 -14.77534985694075 0.0 0.0
335.14142337680465 -14.53103551138878 308.42650402322903 -8.207619698937258 0.0 0.0
325.4606346055465 -12.336209946804445 294.038250067776 -4.056253412013306 0.0 0.0
315.8360000689475 -10.01031916924859 279.58577849845847 -2.546939824983901 0.0 0.0
304.95354327066195 -8.424125008998374 264.03050944427514 -2.5828322156953334 0.0 0.0
291.4635679138007 -7.981184297719352 246.37136754764612 -3.2151536979548925 0.0 0.0
274.77065462743855 -7.958488488927912 226.2401005888712 -4.3846089955907575 0.0 0.0
251.30816114299785 -9.911696480890143 199.08596569893837 -6.311143305400362 0.0 0.0
216.51662841097655 -14.479290819851286 157.3759431132264 -7.873927944713695 0.0 0.0
162.3419155176101 -22.333443723904914 95.00078463948248 -2.7036094233296835 0.0 0.0
91.63571446898239 -27.583411864473447 33.72336725132281 10.314820983949787 0.0 0.0
36.409563692257024 -19.10893590134488 6.589363924935341 11.957526122034594 0.0 0.0
18.565918722146 -12.808920167433762 1.7325143377934114 9.659097847236344 0.0 0.0
26.278153381515207 -13.133148787192582 3.9428834111232893 9.766566803036737 0.0 0.0
44.85405079611654 32.82379146743285 23.303554874606274 -19.55996639774952 0.0 0.0
28.00149522129304 -8.468062725274109 -54.003743841665255 -3.5315268335605126 0.0 0.0
30.681262898483183 -23.880627193266175 -38.56498284605021 -8.597102702112291 0.0 0.0
45.47802679261541 48.30308590268153 28.13384852654201 20.906099569533502 0.0 0.0
30.293967704748795 -10.652234240119995 5.895013547357798 -3.7520228764642862 0.0 0.0
19.315224330035996 -12.393160154342137 2.11224840965762 -10.399786869349985 0.0 0.0
30.59523181881677 -15.133358328215861 5.4247706337617885 -17.95593125936078 0.0 0.0
75.7877044956187 -20.2129985174319 22.849538687011567 -26.698426459380315 0.0 0.0
160.01940051086456 -18.994832233908827 71.38175949317295 -19.900338450365 0.0 0.0
243.80478567834467 -10.999876427351847 139.34830767361044 -7.511132863619522 0.0 0.0
300.00884595256275 -5.848860185522431 193.4699003650451 -3.1932658537978202 0.0 0.0
335.68751205523984 -3.8595634459863426 227.87974107549348 -2.235919292704914 0.0 0.0
360.9375056161849 -4.314538875709861 250.761424185885 -1.9845664499005709 0.0 0.0
380.3368324753652 -5.1489422794334985 268.8308346759916 -1.5493650557145844 0.0 0.0
396.16645425457233 -7.5099838085790225 283.804077035818 -0.8737009707312726 0.0 0.0
410.09875417884496 -11.617611362684158 296.7152388109473 0.7320985820268735 0.0 0.0
424.85209390331204 -16.170776750067077 309.5039526914046 4.6063835774330855 0.0 0.0
441.66704040966647 -18.4007367201296 323.837839824073 11.62696486828979 0.0 0.0
454.58792865728554 -17.57913153948141 336.54368225948406 19.034193320315957 0.0 0.0
457.76701396986533 -5.988126214507247 346.9876026855531 19.82538562829258 0.0 0.0
466.7428332175309 41.94962308930516 374.48411648104553 1.1805528017011053 0.0 0.0
504.2854424132682 118.45264928018074 428.5022289962487 -56.9684671769019 0.0 0.0
504.2854424134583 118.45264928026836 428.5022289964269 56.96846717715547 0.0 0.0
466.7428332176475 41.94962308885704 374.4841164810381 -1.1805528018320524 0.0 0.0
457.7670139681696 -5.9881262179046075 346.9876026838878 -19.8253856280146 0.0 0.0
454.58792865664833 -17.57913153838689 336.5436822593637 -19.034193320403595 0.0 0.0
441.6670404082146 -18.400736719862948 323.8378398235154 -11.626964868215296 0.0 0.0
424.8520939023956 -16.170776751674964 309.50395269058686 -4.606383577593948 0.0 0.0
410.0987541787765 -11.617611362412305 296.71523881090474 -0.7320985819088444 0.0 0.0
396.16645425419426 -7.509983809616813 283.80407703524656 0.8737009706428349 0.0 0.0
380.3368324756601 -5.14894227933172 268.83083467605263 1.5493650555101217 0.0 0.0
360.9375056157525 -4.314538876307751 250.76142418555332 1.984566450126802 0.0 0.0
335.6875120550045 -3.8595634457698793 227.87974107538437 2.2359192927649123 0.0 0.0
300.00884595259527 -5.848860184926323 193.4699003651399 3.193265853887875 0.0 0.0
243.8047856782432 -10.999876426678888 139.3483076736084 7.51113286363586 0.0 0.0
160.01940051057707 -18.994832233187957 71.38175949316955 19.90033845050746 0.0 0.0
75.78770449540139 -20.21299851748818 22.849538686896604 26.698426459311484 0.0 0.0
30.595231818419116 -15.133358328832326 5.424770633457502 17.955931259337373 0.0 0.0
19.315224329825696 -12.39316015477678 2.112248409469893 10.399786869133802 0.0 0.0
30.293967704912514 -10.6522342396993 5.895013547536667 3.7520228764255212 0.0 0.0
45.47802679265974 48.3030859027343 28.133848526569814 -20.906099569644418 0.0 0.0
30.681262898334662 -23.880627193412394 -38.56498284600827 8.597102702002717 0.0 0.0
30.826700327921923 -32.66147432896835 -23.991917255387463 -19.615319374662242 0.0 0.0
40.27595498165168 54.6882921760879 28.4799135687484 20.90256035294065 0.0 0.0
30.213111035516047 -6.573417937204264 7.1009235657982 2.0804554807647504 0.0 0.0
17.983983448171596 -10.12611928228035 2.406094423493646 -9.727321794812939 0.0 0.0
21.776958297398213 -11.56788127938389 3.549048617226603 -22.59659183945061 0.0 0.0
48.752950305598965 -12.760564737556983 13.293466155756754 -38.34196624512072 0.0 0.0
119.5665171225865 -11.245305022372165 43.49834282690114 -44.4760273937965 0.0 0.0
223.90345005844392 -7.4108474881355715 99.55474930021028 -33.101260673636084 0.0 0.0
311.49994480772006 -2.1566673071275275 161.9253780835192 -19.260314405869913 0.0 0.0
365.1896698282937 -0.6817763971080453 207.2057886239506 -12.263027631959474 0.0 0.0
399.56672828756825 -0.6169750083621892 236.6935766945267 -9.328836816297299 0.0 0.0
424.49593056782504 -2.315968313801477 256.52929115082355 -7.506629340469216 0.0 0.0
444.7755790180989 -5.026270674860157 271.8023199190016 -5.775989918287745 0.0 0.0
462.38935859825006 -10.239821285944743 283.6235267226251 -3.77120584538541 0.0 0.0
480.42318046669 -17.56478726761125 293.96646511123777 -0.4749663040191141 0.0 0.0
503.20275090782354 -23.186530852060002 306.448052090459 5.883484099237456 0.0 0.0
529.3484605252119 -20.96563935123018 323.021198139143 15.451165484530902 0.0 0.0
538.1706259392922 -10.930944072408579 332.52783177785255 18.908390011238208 0.0 0.0
529.7955797460733 21.039607916138493 339.4630309521841 -3.2292490835500027 0.0 0.0
576.4125799195673 110.30309051594458 400.67141104479765 -74.08254211332934 0.0 0.0
576.4125799201979 110.30309051752221 400.67141104541815 74.08254211339693 0.0 0.0
529.7955797465512 21.039607916479497 339.4630309524564 3.2292490835565886 0.0 0.0
538.170625939566 -10.930944073907654 332.5278317775474 -18.908390011167015 0.0 0.0
529.3484605261876 -20.965639351854122 323.0211981393834 -15.45116548441501 0.0 0.0
503.2027509081312 -23.18653085269898 306.44805209034524 -5.883484099256837 0.0 0.0
480.42318046501686 -17.564787271123436 293.9664651097015 0.4749663039442531 0.0 0.0
462.3893585971371 -10.239821288265745 283.6235267215434 3.771205845491915 0.0 0.0
444.77557901806057 -5.026270674067376 271.8023199190684 5.77598991843373 0.0 0.0
424.49593056900636 -2.3159683114337497 256.52929115178796 7.506629340646559 0.0 0.0
399.56672828788595 -0.6169750080784411 236.69357669462096 9.328836816238617 0.0 0.0
365.1896698276732 -0.6817763986635867 207.20578862318382 12.263027631753461 0.0 0.0
311.4999448076366 -2.1566673074222606 161.92537808324494 19.260314406040067 0.0 0.0
223.90345005813668 -7.410847488071777 99.55474930002357 33.101260673634314 0.0 0.0
119.56651712197458 -11.245305022778087 43.498342826531385 44.47602739383815 0.0 0.0
48.752950305598446 -12.760564737181703 13.29346615586769 38.34196624502733 0.0 0.0
21.776958297379846 -11.567881279046492 3.5490486173239004 22.59659183952676 0.0 0.0
17.98398344800443 -10.126119282638182 2.4060944233386268 9.727321794767946 0.0 0.0
30.213111035501775 -6.573417937233575 7.1009235657862675 -2.0804554808191087 0.0 0.0
40.27595498159989 54.688292176109925 28.47991356873653 -20.902560352827415 0.0 0.0
30.826700327957067 -32.6614743289215 -23.991917255253938 19.61531937480617 0.0 0.0
27.9336343424904 -35.04189190719948 -11.797963688958163 -27.71422762281578 0.0 0.0
29.408628724175266 52.58196575167192 24.58003769197115 19.248222738939177 0.0 0.0
26.93728995355296 -1.30598452254691 7.686814568314383 6.7655435053628565 0.0 0.0
15.142613089204804 -6.6963484657651176 2.5568207021774225 -7.874912880548833 0.0 0.0
10.903213692586206 -6.973373194171884 1.341943823472033 -24.36734583483142 0.0 0.0
16.966957078516923 -7.006197961642343 3.7262026991122323 -44.6858233867389 0.0 0.0
42.06247524219596 -4.630480852641207 13.614419116618027 -59.210716110637385 0.0 0.0
103.97657957820158 -0.03812808099146103 37.630162630491526 -59.97585557309165 0.0 0.0
192.9650490634347 4.324597740808883 76.15054801977404 -45.355603419483515 0.0 0.0
270.0450586305559 4.511011223662145 118.25733041696478 -30.11446658387312 0.0 0.0
320.70853755164603 3.8304334471001624 154.1592881023128 -20.41692753820182 0.0 0.0
351.0144032782642 1.6242352748921292 179.33667301230074 -15.621847663223344 0.0 0.0
372.5483848830829 -1.621282230135705 197.53203051629941 -12.538071546164286 0.0 0.0
391.5479358026597 -8.042351813225366 210.4689244441629 -9.96235724371224 0.0 0.0
413.100344269731 -18.50589876993581 220.31779414049026 -7.009619262044449 0.0 0.0
442.43494684524956 -29.31667140955659 230.8975903093358 -2.450140255549144 0.0 0.0
484.21738061036376 -29.50488767992084 249.7769586734628 6.5263875341029305 0.0 0.0
529.3214041069809 -7.150754918034693 279.32042468566476 16.90622206997981 0.0 0.0
526.0998728868458 19.044930753417077 282.50277056847744 -0.3818881329653969 0.0 0.0
538.1540940170803 69.91652459684684 301.7709624935902 -96.89025545394617 0.0 0.0
538.1540940166715 69.91652459625152 301.77096249332686 96.89025545414736 0.0 0.0
526.0998728870887 19.044930754590496 282.5027705688653 0.38188813310078373 0.0 0.0
529.3214041064584 -7.150754918176517 279.3204246853729 -16.906222070223894 0.0 0.0
484.2173806102105 -29.50488768054572 249.77695867309106 -6.52638753384284 0.0 0.0
442.4349468461781 -29.316671408037223 230.89759031013426 2.450140255632146 0.0 0.0
413.1003442715123 -18.505898766476776 220.31779414210837 7.00961926182185 0.0 0.0
391.54793580343727 -8.042351811986066 210.4689244448108 9.962357243876891 0.0 0.0
372.5483848834565 -1.621282230499773 197.53203051634432 12.538071545947098 0.0 0.0
351.0144032773375 1.6242352733436007 179.33667301151485 15.62184766330574 0.0 0.0
320.7085375507395 3.8304334447276887 154.1592881012628 20.416927538403215 0.0 0.0
270.0450586304857 4.511011224187108 118.2573304170238 30.11446658366861 0.0 0.0
192.96504906333172 4.324597741206528 76.15054801982639 45.35560341941414 0.0 0.0
103.97657957764255 -0.03812808169787374 37.63016263009154 59.97585557292466 0.0 0.0
42.06247524231394 -4.6304808519468175 13.614419116860349 59.210716110541625 0.0 0.0
16.966957078439357 -7.006197961734799 3.7262026990602237 44.6858233865972 0.0 0.0
10.903213692271317 -6.9733731947437985 1.341943823206976 24.367345834664246 0.0 0.0
15.142613089100124 -6.6963484659597885 2.5568207020881957 7.874912880488033 0.0 0.0
26.937289953581484 -1.3059845224681164 7.686814568345843 -6.7655435053814506 0.0 0.0
29.40862872407948 52.58196575152633 24.580037691893345 -19.24822273903472 0.0 0.0
27.933634342463193 -35.04189190702797 -11.797963688860914 27.714227622729197 0.0 0.0
16.887654775081728 -32.6989676655453 -6.615691406382495 -30.965674006090932 0.0 0.0
15.986163436074374 44.806607158916194 18.209985567400683 14.836929166074707 0.0 0.0
21.51182500602085 4.004487812047429 7.614129524933491 9.816506055474928 0.0 0.0
11.216213069738924 -2.7854449192986372 2.4622474140656583 -5.063262840698283 0.0 0.0
-0.4261256920147849 -1.5467028633404025 -0.8045988361513626 -22.895538818988914 0.0 0.0
-16.06653796817469 -1.4142347417665913 -6.073309338227596 -44.11627627059072 0.0 0.0
-44.850178027791074 -0.6974500227778027 -16.1774049559855 -58.98051374887624 0.0 0.0
-106.14364514486243 -1.3657598260742283 -38.81717829071287 -60.18917681270527 0.0 0.0
-193.75671582107762 -4.111106790505218 -76.34777980989908 -45.5429381977518 0.0 0.0
-270.38651407100855 -3.5152038027044696 -118.01738038014076 -30.129220284946932 0.0 0.0
-321.5665462820183 -1.8182554386032876 -153.61242466920896 -20.224821012955136 0.0 0.0
-353.6590869618655 -0.48618007346421166 -179.79984979673497 -15.188199475514669 0.0 0.0
-377.1420245982372 -2.3944096334638516 -200.9750447023208 -12.502179700069949 0.0 0.0
-393.3253863278109 -8.520216217474143 -218.95877347476417 -11.593773388854387 0.0 0.0
-398.51319365228414 -19.195811585402225 -233.48387092589257 -12.25753858384694 0.0 0.0
-387.1192369640367 -32.44730645162031 -242.6850497373547 -13.395697805765092 0.0 0.0
-350.84565500290074 -37.787515937844205 -241.02924136736124 -11.88971258318334 0.0 0.0
-269.94899056382656 -2.0233912460868737 -208.10954577910996 -8.189065475225949 0.0 0.0
-107.15127546743304 68.06771242454042 -126.01453965339084 -29.3226983770447 0.0 0.0
52.283729653716506 35.95258761311149 14.446244529261378 -121.33939677460559 0.0 0.0
52.28372965440212 35.95258761454096 14.446244529989144 121.339396774622 0.0 0.0
-107.15127546684158 68.06771242466482 -126.01453965320474 29.322698376973303 0.0 0.0
-269.9489905632542 -2.0233912448643423 -208.1095457783248 8.189065475208022 0.0 0.0
-350.845655001341 -37.787515935006354 -241.02924136591736 11.889712583530233 0.0 0.0
-387.11923696301926 -32.44730644912099 -242.68504973626386 13.395697806098333 0.0 0.0
-398.51319365120736 -19.195811583895733 -233.48387092510262 12.257538583735858 0.0 0.0
-393.32538632707326 -8.520216216409949 -218.9587734741677 11.593773388878347 0.0 0.0
-377.14202459762737 -2.3944096319990535 -200.97504470164824 12.502179700132224 0.0 0.0
-353.65908696096767 -0.48618007220291304 -179.7998497959935 15.18819947538898 0.0 0.0
-321.5665462826307 -1.8182554412360616 -153.61242467001588 20.22482101310456 0.0 0.0
-270.38651407146267 -3.5152038051047327 -118.01738038088034 30.129220284966713 0.0 0.0
-193.75671582073215 -4.111106791184639 -76.34777980991205 45.542938197732454 0.0 0.0
-106.14364514486357 -1.3657598273161433 -38.81717829103796 60.18917681290353 0.0 0.0
-44.85017802772015 -0.6974500227975406 -16.177404955939544 58.980513748905906 0.0 0.0
-16.066537967959356 -1.414234741549224 -6.073309338091321 44.116276270426084 0.0 0.0
-0.42612569230828967 -1.5467028639881915 -0.8045988364313041 22.895538818833277 0.0 0.0
11.216213069651854 -2.785444919553231 2.4622474139632327 5.0632628406832305 0.0 0.0
21.511825006086234 4.00448781243177 7.614129525066632 -9.81650605550525 0.0 0.0
15.986163436049608 44.806607158798656 18.209985567348703 -14.83692916607587 0.0 0.0
16.887654774924677 -32.69896766553265 -6.615691406417211 30.965674006057746 0.0 0.0
2.393078419940368 -28.558143936120146 -7.860566009644935 -30.074648046623004 0.0 0.0
4.556622690720352 35.77845360506344 12.071985541283759 8.87646342513747 0.0 0.0
14.879982441470364 7.849941508702973 6.736545541000584 11.02682116004768 0.0 0.0
6.699409752807288 1.2668960140098968 2.2090011709091972 -1.7135221703675143 0.0 0.0
-11.205867427834825 3.7356598229328046 -2.9426964784630165 -18.271449117292647 0.0 0.0
-47.16569019805786 4.654074279168034 -15.673849020158034 -36.29562270972218 0.0 0.0
-120.13324295182849 6.171219618167726 -45.63089567508333 -44.313032590882365 0.0 0.0
-224.13418099713928 6.029763997801002 -100.20321588285626 -33.63537411384106 0.0 0.0
-311.82950869129314 2.3750281864119103 -161.90678276667867 -19.59323894029934 0.0 0.0
-365.305108704446 1.673362628940211 -206.8083611033611 -12.313200397517232 0.0 0.0
-399.5699927957962 2.254228676527873 -235.91609795452865 -8.965564211714444 0.0 0.0
-425.33110100379935 3.3158017862343456 -256.25439079567025 -6.64198018393861 0.0 0.0
-447.49240965126205 1.4650393969760103 -274.33254153902385 -5.295899089256931 0.0 0.0
-466.4755235044242 -4.72151908145932 -292.2075987391462 -6.011814984796507 0.0 0.0
-480.4903870343293 -15.995790524766733 -310.1047576832782 -9.178007877325054 0.0 0.0
-484.8588826324334 -30.264298765794962 -325.43871629483147 -14.128895730714298 0.0 0.0
-473.8121341825664 -38.588514789298245 -332.2048465032553 -18.472961832408973 0.0 0.0
-455.88256978166476 -21.10871938839165 -326.63786708786324 -19.184927309708318 0.0 0.0
-491.04568994653636 16.930377978542765 -343.81794215304524 -33.188940762870104 0.0 0.0
-559.9055168918399 45.73642919322475 -382.4548775430981 -139.15823036710896 0.0 0.0
-559.9055168928363 45.73642919075331 -382.4548775442003 139.15823036735787 0.0 0.0
-491.04568994618324 16.930377979423838 -343.8179421527292 33.18894076280893 0.0 0.0
-455.88256977928626 -21.108719383348102 -326.63786708566226 19.184927309928963 0.0 0.0
-473.8121341817353 -38.58851478789899 -332.20484650251626 18.4729618323978 0.0 0.0
-484.85888263271835 -30.264298765735674 -325.43871629477206 14.128895730601824 0.0 0.0
-480.4903870344977 -15.995790524576961 -310.10475768315155 9.178007877219668 0.0 0.0
-466.47552350404567 -4.7215190806386715 -292.2075987387217 6.011814984649904 0.0 0.0
-447.49240965070453 1.4650393966862794 -274.3325415388409 5.29589908926102 0.0 0.0
-425.3311010033492 3.31580178694135 -256.2543907951907 6.6419801836335495 0.0 0.0
-399.56999279544686 2.2542286777743215 -235.91609795391807 8.965564211856021 0.0 0.0
-365.3051087045767 1.673362628640998 -206.80836110332098 12.313200397630471 0.0 0.0
-311.829508690999 2.375028186779609 -161.90678276631496 19.593238940281495 0.0 0.0
-224.1341809971857 6.0297639971724575 -100.20321588284767 33.63537411390451 0.0 0.0
-120.13324295237373 6.1712196161912996 -45.630895675739694 44.313032590895816 0.0 0.0
-47.16569019773845 4.654074279155026 -15.673849020048106 36.29562270966029 0.0 0.0
-11.205867427793455 3.7356598229891107 -2.9426964784357885 18.271449117138268 0.0 0.0
6.699409752715643 1.2668960137186729 2.209001170792471 1.713522170418132 0.0 0.0
14.87998244126144 7.849941508231099 6.736545540793206 -11.026821159985914 0.0 0.0
4.556622690498994 35.77845360455211 12.071985541058869 -8.8764634250065 0.0 0.0
2.393078419778381 -28.558143936151566 -7.860566009719108 30.074648046493685 0.0 0.0
-5.200862336298595 -23.803172139575686 -8.701210342762284 -26.94598474892814 0.0 0.0
-3.225039000810105 27.36061475600947 7.238964221448038 3.0652797306625694 0.0 0.0
8.110732985021802 9.809254746663507 5.286235435519464 10.819956845305784 0.0 0.0
2.123266079165817 4.895052580951827 1.800794695256237 1.998415103426256 0.0 0.0
-20.53966407143705 8.48287424080259 -5.009349091582632 -11.427647002376982 0.0 0.0
-71.80323102065594 12.400354251877252 -25.063255241684644 -23.314291012260377 0.0 0.0
-158.1761619214097 14.485727844255571 -72.57890631760515 -19.671966298924303 0.0 0.0
-243.60964074128765 9.813421103285897 -139.5549218160353 -7.935730687362783 0.0 0.0
-300.4029682119263 5.981342617531666 -193.47764859492935 -3.4789456431610493 0.0 0.0
-335.83841934666145 4.650782275871819 -227.57285811478687 -2.3558341590208967 0.0 0.0
-360.97317775287206 5.540440138514043 -250.1676870228457 -1.5629641250603772 0.0 0.0
-380.86768616979674 5.941689039254129 -268.5319696522879 -0.3389736413831974 0.0 0.0
-398.21997941411564 4.614729266649391 -285.773328223406 0.2044200734699091 0.0 0.0
-413.8611860233001 -1.0601773599297815 -304.06573834746166 -1.3465955601605426 0.0 0.0
-426.46538228903864 -12.509554324047429 -323.8103625702168 -6.1504033259554705 0.0 0.0
-431.0703577077401 -28.042814707717696 -342.1994767749668 -14.185812069480397 0.0 0.0
-423.6771332847697 -42.18023660811292 -355.75132851017526 -21.137713477082237 0.0 0.0
-419.0592699906836 -43.2771493674872 -369.13503382894373 -17.263351235431333 0.0 0.0
-456.47942436183644 7.112819928813963 -384.7492716008369 -10.840602070243094 0.0 0.0
-612.5489544553619 29.78400172473046 -474.97229567837235 -89.75037568043383 0.0 0.0
-612.5489544555514 29.784001724387394 -474.97229567875286 89.75037568028291 0.0 0.0
-456.47942436393856 7.112819924382109 -384.74927160309767 10.840602070394016 0.0 0.0
-419.05926999228615 -43.27714937084153 -369.13503383044787 17.263351235263595 0.0 0.0
-423.6771332855866 -42.18023661020979 -355.7513285110501 21.137713477136277 0.0 0.0
-431.0703577080913 -28.042814709751383 -342.19947677575993 14.185812069194167 0.0 0.0
-426.46538229005887 -12.509554328180542 -323.8103625717338 6.150403325909669 0.0 0.0
-413.8611860219029 -1.0601773601665485 -304.06573834694257 1.3465955600490525 0.0 0.0
-398.2199794132881 4.614729267446194 -285.77332822284416 -0.20442007318958433 0.0 0.0
-380.8676861694117 5.941689040206462 -268.5319696518491 0.3389736415760849 0.0 0.0
-360.9731777518143 5.540440139937495 -250.16768702208685 1.5629641251116344 0.0 0.0
-335.83841934550327 4.650782276337279 -227.57285811424669 2.355834158905203 0.0 0.0
-300.40296821170097 5.981342616896528 -193.47764859496266 3.478945643166055 0.0 0.0
-243.6096407406933 9.813421103048693 -139.55492181575417 7.935730687523021 0.0 0.0
-158.17616192101607 14.485727843512723 -72.57890631754702 19.671966299266742 0.0 0.0
-71.80323102038577 12.400354251907547 -25.063255241527145 23.31429101227661 0.0 0.0
-20.539664071230707 8.482874241025367 -5.009349091456613 11.42764700213053 0.0 0.0
2.1232660795316596 4.895052581615635 1.800794695558869 -1.9984151034479987 0.0 0.0
8.110732985200315 9.809254747129305 5.2862354357078125 -10.81995684530115 0.0 0.0
-3.2250390008189322 27.360614756159244 7.238964221487504 -3.0652797307783417 0.0 0.0
-5.200862336167358 -23.80317213934063 -8.701210342652397 26.945984748765877 0.0 0.0
-7.053083732109305 -18.86175408310828 -7.774451344565274 -23.059621618624583 0.0 0.0
-7.74250309539296 19.982805023201184 3.672673797060602 -1.390042585978297 0.0 0.0
2.1403873021575768 10.099780870920139 3.5948727908685627 9.660449813099376 0.0 0.0
-1.9292599954719987 7.389367273156575 1.197173217741121 5.7148340139279314 0.0 0.0
-27.10219333103926 13.728111821118434 -6.621124296334974 -3.538559510103694 0.0 0.0
-85.42611122846361 20.219601689352213 -35.43573798579002 -6.068836974441113 0.0 0.0
-160.13666522517894 18.908968205470288 -95.20919010561519 3.4032094140721085 0.0 0.0
-216.7109393638657 13.281563423563028 -157.65315656011407 7.84641482351416 0.0 0.0
-251.72448644061353 9.968259012910579 -199.16691856305337 6.002725832025336 0.0 0.0
-274.9632823772576 8.509239102790644 -226.063783608758 4.219081612671516 0.0 0.0
-291.6327675629067 8.694362986325302 -246.0902498021167 3.679048137386493 0.0 0.0
-305.32957366656484 8.832345537622473 -263.8917828685171 4.016992511053661 0.0 0.0
-316.8794294074712 8.022633756144756 -280.70798775729907 4.062296375941873 0.0 0.0
-327.38530997898715 3.1696308265696302 -298.8138314407341 2.062891755765609 0.0 0.0
-336.2100503850105 -7.793062729918233 -319.14263713998525 -3.842701485939076 0.0 0.0
-341.16989143379396 -26.233215245197357 -341.61097190784676 -13.840973763146408 0.0 0.0
-338.9290969034718 -51.67037260916612 -365.6359812939605 -22.85757250718762 0.0 0.0
-334.208522460947 -67.49001154286759 -389.06332010193 -14.551935807216106 0.0 0.0
-382.32281746631475 -32.614208255823485 -423.1805499046199 16.18297604933604 0.0 0.0
-531.7089688959636 53.85595493849996 -486.8365960938038 -40.36889555358478 0.0 0.0
-531.7089688957208 53.855954938226034 -486.8365960936136 40.36889555343472 0.0 0.0
-382.32281746705337 -32.61420825633053 -423.180549904771 -16.182976049379075 0.0 0.0
-334.20852246029136 -67.49001154068077 -389.0633201010112 14.55193580759241 0.0 0.0
-338.9290969010183 -51.6703726046741 -365.6359812916573 22.85757250707913 0.0 0.0
-341.1698914326972 -26.23321524243559 -341.61097190656426 13.840973762799301 0.0 0.0
-336.2100503850987 -7.793062729020335 -319.1426371397872 3.842701485657384 0.0 0.0
-327.38530998080466 3.1696308256617485 -298.8138314417187 -2.062891755501731 0.0 0.0
-316.8794294078935 8.02263375640809 -280.70798775734863 -4.062296375940505 0.0 0.0
-305.32957366577375 8.832345538150893 -263.8917828680031 -4.016992511095828 0.0 0.0
-291.6327675633679 8.694362985135502 -246.09024980248455 -3.6790481374533135 0.0 0.0
-274.96328237848434 8.509239100529307 -226.06378360969705 -4.21908161259749 0.0 0.0
-251.72448644112586 9.96825901185657 -199.16691856342038 -6.002725832030107 0.0 0.0
-216.71093936277137 13.281563424660092 -157.65315655925218 -7.846414823378268 0.0 0.0
-160.136665224527 18.908968206056887 -95.20919010503624 -3.403209413974213 0.0 0.0
-85.42611122806737 20.21960168952614 -35.43573798552753 6.06883697438804 0.0 0.0
-27.102193330945507 13.728111820999924 -6.621124296337954 3.5385595102431853 0.0 0.0
-1.9292599952843446 7.389367273273697 1.197173217824914 -5.714834014014173 0.0 0.0
2.1403873023636955 10.099780871339476 3.594872791048017 -9.660449813042622 0.0 0.0
-7.742503095432511 19.982805023220035 3.6726737970535437 1.3900425862499814 0.0 0.0
-7.05308373205206 -18.861754083017402 -7.774451344520838 23.059621618594694 0.0 0.0
-7.074585052130747 -14.181885017031743 -6.376941020748746 -19.2456064261326 0.0 0.0
-10.206980732052035 13.906416548203268 1.1098675928078956 -4.297447630133447 0.0 0.0
-2.700544418560657 9.043508094305324 1.8587271737017708 8.26237196208128 0.0 0.0
-5.372551877751784 9.126294945625393 0.6549551324408045 8.6946607513789 0.0 0.0
-31.226929795667324 19.511571537559007 -8.48804273373894 4.949650179452545 0.0 0.0
-84.25044599069639 25.316419467866176 -47.052927454013954 11.714592276755237 0.0 0.0
-135.15118350966802 22.131945759926836 -109.57596340215233 18.93987699295696 0.0 0.0
-167.03698681462413 17.657056301532236 -160.41004714189555 16.631847786570194 0.0 0.0
-186.1809457831969 14.459462320333799 -192.28089944375898 11.680531872019959 0.0 0.0
-198.66813724295915 13.071869927689193 -214.78068267668658 8.359651494778465 0.0 0.0
-208.108385559505 12.233555137100268 -234.11981902299274 6.905572940670526 0.0 0.0
-215.29388974658636 11.84020944331283 -251.69926272473518 6.609047627216508 0.0 0.0
-220.49564766303627 11.332673601342037 -268.08272168037513 6.306244946115333 0.0 0.0
-224.91222507295026 7.913225194759718 -285.2855248265066 4.168368000358925 0.0 0.0
-230.14259055848208 -2.827242809401639 -306.45224836043803 -1.876866292282915 0.0 0.0
-236.26200126417476 -25.33589922421953 -334.0471666945659 -12.47594213404049 0.0 0.0
-239.61563250551907 -62.06733353597167 -368.445469611676 -23.43435063920343 0.0 0.0
-236.93169630110862 -101.31751830558352 -406.9185442891776 -13.424347197568434 0.0 0.0
-267.221585269843 -71.13048795784835 -440.7680598953715 38.53074651410577 0.0 0.0
-404.14027542645476 89.31615857197642 -472.4007088829627 6.503683078049303 0.0 0.0
-404.14027542651127 89.3161585719377 -472.40070888292695 -6.503683078074589 0.0 0.0
-267.22158526976483 -71.13048795782885 -440.7680598952092 -38.53074651409082 0.0 0.0
-236.93169630114494 -101.31751830707759 -406.9185442894237 13.424347198083712 0.0 0.0
-239.6156325065836 -62.067333538950834 -368.4454696127149 23.434350639015612 0.0 0.0
-236.26200126386556 -25.335899226035195 -334.0471666946084 12.475942134170465 0.0 0.0
-230.1425905573165 -2.827242809817619 -306.4522483597451 1.8768662921656203 0.0 0.0
-224.91222507253076 7.913225193004955 -285.2855248265776 -4.168367999910066 0.0 0.0
-220.49564766321367 11.332673600349302 -268.082721680552 -6.3062449464066335 0.0 0.0
-215.2938897470569 11.84020944331976 -251.69926272480467 -6.609047627299241 0.0 0.0
-208.10838555967334 12.233555137439321 -234.11981902284538 -6.905572940801665 0.0 0.0
-198.668137241821 13.07186993040738 -214.7806826754514 -8.359651494659353 0.0 0.0
-186.18094578283313 14.45946232093329 -192.28089944332686 -11.680531872324053 0.0 0.0
-167.03698681443024 17.657056302101132 -160.41004714147135 -16.631847786754825 0.0 0.0
-135.15118350983542 22.131945760723266 -109.57596340174727 -18.93987699278118 0.0 0.0
-84.25044599064526 25.316419468381564 -47.05292745362262 -11.7145922764302 0.0 0.0
-31.22692979582056 19.5115715371455 -8.488042733859071 -4.949650179312464 0.0 0.0
-5.372551877790369 9.126294945248592 0.6549551323149558 -8.694660751330245 0.0 0.0
-2.700544418764352 9.043508093877444 1.8587271735076192 -8.262371962059028 0.0 0.0
-10.206980732105265 13.90641654809614 1.1098675927600874 4.297447630081163 0.0 0.0
-7.0745850520972535 -14.181885016882422 -6.376941020693902 19.24560642619238 0.0 0.0
-6.659436432130489 -9.946900552177691 -4.981901095292454 -15.737413776439036 0.0 0.0
-11.782789307899733 9.063226079566785 -0.8158689684998834 -5.840696053463277 0.0 0.0
-6.607422307224548 6.967872101133068 0.11032204399304046 6.771126963435725 0.0 0.0
-6.997308941337954 10.475958516144095 0.37706891351528427 10.896021494385748 0.0 0.0
-30.38503506600637 24.82428456614935 -11.426512968275214 13.608660532332712 0.0 0.0
-67.75637126279945 28.12654302885369 -58.07616302207957 24.97686589362413 0.0 0.0
-92.48793846926233 26.053085249492867 -114.6298382017709 26.811033408580712 0.0 0.0
-104.26943261589429 22.142810751729087 -153.4292716632788 20.796424338632132 0.0 0.0
-109.79340433682216 19.90136301482488 -177.9169805561528 14.366617268295053 0.0 0.0
-113.26849621685645 17.952732344495445 -198.29665642043935 10.313684523173947 0.0 0.0
-115.59687710847203 16.116196551215495 -217.290315768853 8.37210302626258 0.0 0.0
-116.321671519825 14.904266319003511 -234.9022464733766 7.515007086470773 0.0 0.0
-115.24669985971113 14.37223960014802 -251.0891856570727 6.821435151276295 0.0 0.0
-113.31116895514418 12.020785943926853 -267.4832719966896 5.017823773069779 0.0 0.0
-114.11353902787397 1.773943428395853 -288.94754810535136 -0.12521623896909606 0.0 0.0
-121.32041938064975 -24.11567084709111 -321.3432048819849 -9.872694953131946 0.0 0.0
-132.08312467239608 -72.58991623741173 -367.02469668875835 -22.427436799370188 0.0 0.0
-128.25897214935327 -134.70575453010497 -417.67756658841927 -17.04168212197171 0.0 0.0
-126.92304037834873 -113.74166581333424 -446.75643665691274 51.681845228336776 0.0 0.0
-251.05852547624897 130.4046004890168 -445.98680673445506 56.51347545753775 0.0 0.0
-251.0585254755751 130.4046004901329 -445.98680673395467 -56.513475457629085 0.0 0.0
-126.92304037834168 -113.74166581282321 -446.75643665707616 -51.68184522856256 0.0 0.0
-128.2589721493984 -134.7057545302739 -417.6775665886781 17.04168212205965 0.0 0.0
-132.08312467246705 -72.5899162393728 -367.02469668932133 22.427436798792794 0.0 0.0
-121.3204193821783 -24.11567085049269 -321.3432048834888 9.872694953144089 0.0 0.0
-114.11353902886444 1.773943427075956 -288.9475481060403 0.125216239244617 0.0 0.0
-113.31116895583708 12.020785943676344 -267.48327199695416 -5.017823772485176 0.0 0.0
-115.24669985986083 14.372239599237737 -251.08918565726168 -6.821435151285335 0.0 0.0
-116.32167151897733 14.904266320046375 -234.90224647262866 -7.515007086586398 0.0 0.0
-115.5968771082385 16.11619655185922 -217.290315768531 -8.37210302632423 0.0 0.0
-113.26849621726694 17.952732343576756 -198.29665642073186 -10.313684523159 0.0 0.0
-109.79340433657907 19.90136301455133 -177.91698055602407 -14.366617268455414 0.0 0.0
-104.26943261507098 22.142810753698377 -153.42927166232735 -20.796424338833987 0.0 0.0
-92.48793846904856 26.053085249911916 -114.62983820138372 -26.81103340843578 0.0 0.0
-67.75637126295359 28.126543027811497 -58.07616302224275 -24.976865893550535 0.0 0.0
-30.38503506637167 24.82428456537769 -11.426512968539896 -13.608660532249797 0.0 0.0
-6.997308941360243 10.475958515590305 0.3770689133350529 -10.896021494504478 0.0 0.0
-6.607422307288919 6.967872100979247 0.1103220439267405 -6.7711269633295466 0.0 0.0
-11.782789307967523 9.063226079501133 -0.815868968539917 5.840696053608459 0.0 0.0
-6.65943643203975 -9.946900552193705 -4.981901095270037 15.737413776486006 0.0 0.0
-6.353784676643713 -6.259795872015637 -3.784074164597805 -12.48752642232573 0.0 0.0
-13.301669091512714 5.32994817416148 -2.39151627520537 -6.282915616610924 0.0 0.0
-9.953390044482049 4.1086721767635765 -1.7526548762264222 5.350444221779735 0.0 0.0
-8.328728393942121 12.484672236426198 0.27941926808238304 11.577354305835607 0.0 0.0
-24.216203401186576 28.204968641747573 -16.36779116466409 20.92148010457271 0.0 0.0
-37.16059364789154 30.65321496034312 -65.69606887854005 31.22022424791156 0.0 0.0
-36.92127351621689 29.394233495458465 -111.68026119622031 28.71458071060624 0.0 0.0
-32.00764799237288 27.835796326703274 -139.12940451142447 21.17371232641575 0.0 0.0
-26.33260518773818 25.746311706299792 -159.20967936152235 14.446786077661804 0.0 0.0
-21.303565019121663 22.927990463860255 -178.2918235758467 10.290963533380408 0.0 0.0
-16.310920779623217 20.331382388663172 -196.81844709682002 8.092759626337234 0.0 0.0
-10.734654376007882 18.213077230122565 -214.6185562879956 6.804552471038246 0.0 0.0
-3.78716589645677 16.80389150887305 -231.2284669058192 5.795066977524298 0.0 0.0
3.701870679441015 14.44396503336202 -247.79526785868597 4.4371738767676145 0.0 0.0
8.313105736852947 5.11301691794057 -268.87003909975283 1.0478626111054892 0.0 0.0
3.6059836711394837 -21.97533414885504 -303.2565223929953 -6.106324281415269 0.0 0.0
-14.276559240093377 -78.08343034514758 -358.097590022169 -19.337056738765707 0.0 0.0
-14.670770791424388 -162.8499670883693 -421.59760661522415 -25.913263274553003 0.0 0.0
24.94723788039687 -167.83855605001025 -450.1156615497344 50.96724318158823 0.0 0.0
-75.19257142445483 175.41594224173326 -411.48665881592075 113.75194433626632 0.0 0.0
-75.19257142522474 175.4159422401126 -411.48665881667193 -113.75194433632569 0.0 0.0
24.947237880948535 -167.83855604921854 -450.1156615491593 -50.96724318143431 0.0 0.0
-14.670770790118866 -162.8499670880619 -421.5976066143441 25.913263274658085 0.0 0.0
-14.276559239909687 -78.08343034538547 -358.09759002185524 19.3370567388351 0.0 0.0
3.6059836707451165 -21.975334148444574 -303.25652239281226 6.1063242815250565 0.0 0.0
8.313105736063413 5.113016916753944 -268.8700391002471 -1.0478626113088518 0.0 0.0
3.7018706787142506 14.443965031059712 -247.79526785931932 -4.437173876253737 0.0 0.0
-3.7871658964855612 16.80389150904547 -231.2284669057546 -5.7950669775510875 0.0 0.0
-10.734654376917874 18.213077229099653 -214.61855628851305 -6.804552470936599 0.0 0.0
-16.310920779138556 20.33138238928977 -196.81844709628336 -8.092759626261257 0.0 0.0
-21.303565018531685 22.92799046650353 -178.29182357476657 -10.290963533341428 0.0 0.0
-26.33260518755411 25.74631170738047 -159.20967936111222 -14.446786077444298 0.0 0.0
-32.00764799185076 27.83579632824535 -139.12940451068172 -21.17371232643111 0.0 0.0
-36.92127351597409 29.39423349598276 -111.68026119579903 -28.71458071063132 0.0 0.0
-37.1605936478407 30.653214959775845 -65.6960688785023 -31.220224247980866 0.0 0.0
-24.21620340130793 28.204968641365205 -16.367791164708372 -20.921480104387484 0.0 0.0
-8.328728393795103 12.484672236423092 0.2794192681188876 -11.577354305589004 0.0 0.0
-9.95339004427793 4.108672177115253 -1.7526548760605758 -5.3504442217875585 0.0 0.0
-13.301669091591176 5.329948174127853 -2.3915162752389962 6.282915616546873 0.0 0.0
-6.353784676471642 -6.259795871834759 -3.78407416449192 12.487526422244601 0.0 0.0
-6.381526868879467 -3.2120147372651267 -2.878062481843378 -9.33406330685735 0.0 0.0
-15.346007253961805 2.619130012036039 -3.8180631725777285 -5.7624423224852315 0.0 0.0
-13.72560836075996 0.8902705115012067 -3.8506013547776248 3.722149506856488 0.0 0.0
-9.6924921467704 15.802410614377877 0.09030160331021042 10.894123739282534 0.0 0.0
-9.563203210391087 29.768676056529713 -22.668771727704996 24.175142869877398 0.0 0.0
4.375278283460787 32.46119489904399 -69.38410892076638 30.034911615497524 0.0 0.0
26.175140161820252 33.26148494382022 -102.45901335438123 25.555285500774946 0.0 0.0
46.607163450681654 33.993509944697934 -120.43079910125579 18.406352906036304 0.0 0.0
62.75934963012514 31.54320919890128 -137.44614449680603 12.198464424309178 0.0 0.0
76.22467393357152 28.093316455781178 -155.31603629649126 8.287417454596891 0.0 0.0
88.40039777427438 24.760584251156615 -173.47214049108345 6.086296449475425 0.0 0.0
100.39389067507352 21.766498151899327 -191.4035594025701 4.619932520321056 0.0 0.0
112.48387505110952 18.87184507376105 -209.0944285413327 3.360404877624293 0.0 0.0
124.79952909147124 14.665580796646623 -227.12942371421823 2.461251719767085 0.0 0.0
134.8072015181341 5.1846117597117996 -248.4256984188761 1.0635869390199888 0.0 0.0
137.0526887615875 -19.46168469237972 -280.70710128872514 -2.661620573488671 0.0 0.0
120.93552876660914 -71.99224722876977 -335.3878280574799 -12.791890972191602 0.0 0.0
98.00918488465675 -180.57785008262982 -418.98676863092345 -36.283222669975906 0.0 0.0
172.80758963736972 -239.80515280867633 -458.35120214846046 28.54008536909151 0.0 0.0
128.99555899890996 221.36662687565297 -370.7283807758444 179.4797564726424 0.0 0.0
128.99555899819848 221.36662687404163 -370.72838077633617 -179.47975647274836 0.0 0.0
172.8075896366716 -239.80515280913312 -458.3512021488088 -28.54008536900578 0.0 0.0
98.00918488358619 -180.57785008261249 -418.98676863121085 36.283222669767255 0.0 0.0
120.9355287653548 -71.9922472288348 -335.38782805797337 12.791890972594228 0.0 0.0
137.05268876250588 -19.461684688781844 -280.7071012873513 2.6616205735854646 0.0 0.0
134.80720151982 5.184611765011823 -248.42569841688396 -1.0635869390540496 0.0 0.0
124.79952909195393 14.665580799073808 -227.12942371338738 -2.4612517195162846 0.0 0.0
112.48387505188043 18.87184507457951 -209.09442854055268 -3.360404877602309 0.0 0.0
100.39389067619378 21.76649815382136 -191.40355940137775 -4.619932520284525 0.0 0.0
88.40039777393554 24.760584250279635 -173.47214049133 -6.086296449594554 0.0 0.0
76.22467393199858 28.093316453090623 -155.31603629766633 -8.28741745488168 0.0 0.0
62.759349629863436 31.54320919823394 -137.44614449694794 -12.198464424371721 0.0 0.0
46.60716345046066 33.99350994522693 -120.43079910109253 -18.406352905973083 0.0 0.0
26.175140161479803 33.261484943836074 -102.45901335434793 -25.555285500870426 0.0 0.0
4.375278283450427 32.461194898985 -69.38410892057863 -30.0349116154366 0.0 0.0
-9.563203210499513 29.76867605630714 -22.668771727655134 -24.17514286973871 0.0 0.0
-9.692492146716514 15.802410614503753 0.09030160335942083 -10.894123739244847 0.0 0.0
-13.725608360789849 0.8902705114883962 -3.8506013547904354 -3.722149506847948 0.0 0.0
-15.34600725406482 2.619130011930889 -3.818063172640178 5.76244232244253 0.0 0.0
-6.381526868774785 -3.2120147373731465 -2.878062481844379 9.334063306665197 0.0 0.0
-6.840853208804299 -0.9080246659597639 -2.3246633624292183 -6.062267928866114 0.0 0.0
-18.27378015146507 0.7894270758927853 -5.245305922671686 -4.283792007286902 0.0 0.0
-18.616237592199266 -1.6092343603395318 -6.067641585761638 1.6996878213301119 0.0 0.0
-10.69450398836416 19.77135204700172 -1.203378718135094 8.391264961326677 0.0 0.0
14.839017905036254 30.72168526446656 -28.64105602677024 20.434488660166835 0.0 0.0
55.71866552568782 33.141139856001004 -68.38271947572089 22.530295251490188 0.0 0.0
95.98222510156106 38.100144650674636 -87.61336146434617 18.204652838584455 0.0 0.0
130.1096797420725 39.57161218474667 -99.094664625491 12.583813513492647 0.0 0.0
157.0337908222648 37.49026669097009 -112.88343454244061 7.644021585383464 0.0 0.0
178.7469894848275 33.41273473986047 -129.7060111577222 4.363052626603323 0.0 0.0
197.9962225861729 29.28179220064726 -147.60462428859992 2.3804067050532263 0.0 0.0
216.07787838793303 25.445002993353057 -165.81951518004587 0.972211984202719 0.0 0.0
233.4174139305938 20.639333231205853 -184.77247415844892 -0.13097062428154604 0.0 0.0
249.54618069597325 13.322117349517839 -205.33688159904 -0.818898460113636 0.0 0.0
264.0761875919714 1.8403074389977974 -228.46801526333752 -0.6119500062477155 0.0 0.0
273.620363196395 -21.19483285450667 -258.39208289691425 -1.9275924948659284 0.0 0.0
274.9030778324292 -58.591623755219246 -300.6326278357799 -3.4778516148193397 0.0 0.0
231.8999688868136 -157.93207093284167 -386.56013870938466 -36.10287834795086 0.0 0.0
272.2964178035283 -346.7196832095584 -493.22280801593536 -27.177168256415918 0.0 0.0
380.12418745902914 263.40633184426304 -312.4962630557783 242.46787864116618 0.0 0.0
380.1241874596162 263.4063318454158 -312.4962630551779 -242.46787864111508 0.0 0.0
272.2964178038257 -346.7196832083942 -493.2228080154652 27.17716825655663 0.0 0.0
231.89996888754058 -157.93207092993046 -386.560138708429 36.1028783475943 0.0 0.0
274.90307783264666 -58.59162375612693 -300.6326278356277 3.4778516149413043 0.0 0.0
273.62036319615515 -21.19483285570069 -258.39208289707904 1.9275924948568974 0.0 0.0
264.07618759177944 1.8403074398820678 -228.46801526310813 0.6119500061412886 0.0 0.0
249.54618069507382 13.322117348549625 -205.33688159954315 0.8188984600168485 0.0 0.0
233.41741392933244 20.639333230504946 -184.77247415895272 0.1309706243607689 0.0 0.0
216.07787838706463 25.44500299230009 -165.8195151805319 -0.9722119841655363 0.0 0.0
197.9962225866505 29.281792199838975 -147.60462428848044 -2.3804067049798467 0.0 0.0
178.74698948435906 33.41273473916553 -129.70601115795358 -4.363052626340634 0.0 0.0
157.03379082193376 37.49026669022203 -112.88343454268039 -7.644021585213544 0.0 0.0
130.10967974230635 39.5716121845185 -99.09466462535642 -12.583813513516564 0.0 0.0
95.98222510116166 38.100144650482335 -87.6133614644021 -18.204652838543417 0.0 0.0
55.71866552515815 33.14113985500453 -68.38271947597674 -22.53029525136524 0.0 0.0
14.839017904856416 30.72168526419394 -28.641056026743136 -20.434488660089883 0.0 0.0
-10.694503988115637 19.771352047274988 -1.203378717982035 -8.391264961250691 0.0 0.0
-18.61623759213708 -1.60923436019088 -6.067641585698388 -1.6996878213557325 0.0 0.0
-18.273780151499096 0.7894270758294016 -5.245305922700908 4.283792007252741 0.0 0.0
-6.840853208685004 -0.9080246659162625 -2.3246633623803796 6.062267928981406 0.0 0.0
-7.84747017610204 0.4815405383478825 -2.209778891326247 -2.444767923962617 0.0 0.0
-22.077879129186805 -0.2652971484354902 -6.702952883286686 -1.73548293502374 0.0 0.0
-25.897422455330485 -1.685889344629122 -8.274993539987879 -0.8466817084491657 0.0 0.0
-6.2067214433735 23.487550116088723 -4.25127897912132 2.3767450890993045 0.0 0.0
47.380565021247776 30.862165254190867 -33.64711397952652 9.009140120242195 0.0 0.0
111.61956646230028 34.60320525518888 -62.61622632929646 9.30290942611828 0.0 0.0
170.233738404423 41.98068611423237 -69.94753768904185 6.9994545626359015 0.0 0.0
218.29043448540074 44.98689247744872 -75.24276344552568 3.7743148787141987 0.0 0.0
255.8948391335949 43.34622233380202 -86.01270242783124 0.7794750754997701 0.0 0.0
285.9328647291196 38.904557904425985 -101.63997024573445 -1.4496355615490568 0.0 0.0
311.9802110729099 33.93989550343895 -119.43998747508158 -2.98145893309968 0.0 0.0
336.13418613730585 28.65825246712751 -138.26817407334158 -4.022587978174265 0.0 0.0
358.5940504214442 22.161837588962044 -158.43110235012608 -4.754888394563269 0.0 0.0
378.94601389523314 12.13103279919693 -181.21898599338522 -4.988691245922754 0.0 0.0
396.802012629093 -4.263372351654709 -207.85126368307692 -4.491371994169775 0.0 0.0
412.46481855431256 -25.563965230594818 -237.49096020237704 -2.6972124343994537 0.0 0.0
422.59936806273555 -66.17220923802171 -275.2413656253053 -4.568216350447873 0.0 0.0
425.4748304070524 -77.05390810292931 -310.6642482424645 0.934329006501839 0.0 0.0
321.1631036605884 -410.27131351580437 -493.4436979169416 -121.97075706742267 0.0 0.0
637.9318593458348 228.5575951660534 -248.92655557039404 252.36943081319367 0.0 0.0
637.9318593452558 228.55759516519123 -248.92655557071834 -252.36943081315738 0.0 0.0
321.1631036611379 -410.2713135143795 -493.44369791619715 121.97075706759016 0.0 0.0
425.47483040730265 -77.05390810170759 -310.6642482417327 -0.9343290068134245 0.0 0.0
422.5993680612887 -66.17220923994178 -275.24136562607646 4.568216350190767 0.0 0.0
412.46481855284935 -25.563965231775953 -237.4909602032138 2.6972124348014113 0.0 0.0
396.8020126284142 -4.2633723532056536 -207.85126368353417 4.491371994135044 0.0 0.0
378.94601389508665 12.131032799294928 -181.21898599322657 4.9886912459327135 0.0 0.0
358.59405042133085 22.161837589096905 -158.43110235002825 4.754888394613859 0.0 0.0
336.13418613705676 28.658252467703534 -138.26817407319615 4.022587978183162 0.0 0.0
311.980211072373 33.939895503504175 -119.43998747516467 2.981458932957139 0.0 0.0
285.9328647287548 38.90455790502537 -101.63997024556328 1.4496355613469802 0.0 0.0
255.89483913380062 43.34622233458492 -86.0127024274162 -0.7794750755587092 0.0 0.0
218.29043448555683 44.986892478385556 -75.24276344512286 -3.7743148786822043 0.0 0.0
170.23373840447778 41.980686114948064 -69.94753768873332 -6.999454562641774 0.0 0.0
111.61956646194132 34.60320525444746 -62.6162263295079 -9.302909426060653 0.0 0.0
47.38056502114101 30.862165253877958 -33.64711397945209 -9.00914012023163 0.0 0.0
-6.206721443381891 23.487550115912065 -4.25127897912529 -2.3767450889032795 0.0 0.0
-25.89742245538713 -1.6858893447266 -8.274993540034117 0.8466817085132169 0.0 0.0
-22.07787912911881 -0.2652971486015572 -6.70295288331611 1.7354829351304921 0.0 0.0
-7.847470176122455 0.4815405384150029 -2.2097788913122356 2.4447679241035303 0.0 0.0
SCALARS Strain float 6
LOOKUP_TABLE default
0.01112491217062847 -0.010982538337922343 0.0 -0.006370812428832473 0.0 0.0
0.0007326758208196782 -0.0017671135052788056 0.0 5.9385016674851077e-05 0.0 0.0
-0.0002151511555824777 0.0002496094363719781 0.0 0.0001726393790253411 0.0 0.0
0.0002268029043377244 -0.00038517101830359834 0.0 -0.0001340124790408792 0.0 0.0
0.0016834053446399648 -0.0018287143406070516 0.0 -0.00014497035312754925 0.0 0.0
0.005122495437748859 -0.005310549829746769 0.0 -0.0003698910972249614 0.0 0.0
0.011108326338165848 -0.011391708990763583 0.0 -0.0007799253962217367 0.0 0.0
0.020124306702749666 -0.020495937024628486 0.0 -0.0014429349288772597 0.0 0.0
0.03238910161176248 -0.03281353390799069 0.0 -0.002370949228541086 0.0 0.0
0.047817773691953426 -0.04826414597792361 0.0 -0.0034723143038019044 0.0 0.0
0.06612562199976058 -0.0665780494642485 0.0 -0.004609966605670368 0.0 0.0
0.08695898923096795 -0.08741003342912057 0.0 -0.005710702004870116 0.0 0.0
0.10994291576669853 -0.1103871319316192 0.0 -0.006777698669947485 0.0 0.0
0.13464203591194232 -0.135071396290404 0.0 -0.007782867463062282 0.0 0.0
0.1604464278969828 -0.1608543705313803 0.0 -0.008645212264916047 0.0 0.0
0.18645832646878946 -0.18684939613977036 0.0 -0.009170733237137407 0.0 0.0
0.2114677404213723 -0.21186337859030235 0.0 -0.009085439300438591 0.0 0.0
0.23402082976150412 -0.23444127345943766 0.0 -0.00825355863262378 0.0 0.0
0.25245346750568665 -0.25285961492491715 0.0 -0.007453658191897805 0.0 0.0
0.26413280520258 -0.2641045996692597 0.0 -0.010147398694790755 0.0 0.0
0.264132805202561 -0.2641045996692455 0.0 0.010147398694803633 0.0 0.0
0.25245346750562986 -0.2528596149248612 0.0 0.0074536581919297795 0.0 0.0
0.23402082976141225 -0.23444127345934263 0.0 0.008253558632640878 0.0 0.0
0.21146774042125566 -0.21186337859018067 0.0 0.009085439300444031 0.0 0.0
0.18645832646866173 -0.18684939613964158 0.0 0.00917073323712514 0.0 0.0
0.16044642789685037 -0.16085437053124707 0.0 0.00864521226491144 0.0 0.0
0.13464203591180773 -0.1350713962902712 0.0 0.0077828674630630035 0.0 0.0
0.10994291576656601 -0.11038713193149263 0.0 0.006777698669946264 0.0 0.0
0.08695898923084316 -0.087410033428994 0.0 0.005710702004858681 0.0 0.0
0.06612562199964744 -0.06657804946413215 0.0 0.004609966605660154 0.0 0.0
0.047817773691860466 -0.04826414597782991 0.0 0.003472314303785806 0.0 0.0
0.032389101611691395 -0.032813533907918746 0.0 0.0023709492285380884 0.0 0.0
0.020124306702697714 -0.020495937024572974 0.0 0.0014429349288694882 0.0 0.0
0.01110832633812997 -0.01139170899072317 0.0 0.0007799253962186836 0.0 0.0
0.005122495437729524 -0.0053105498297238984 0.0 0.00036989109722329605 0.0 0.0
0.0016834053446314612 -0.0018287143406003903 0.0 0.0001449703531278268 0.0 0.0
0.0002268029043365205 -0.00038517101830171097 0.0 0.00013401247903893632 0.0 0.0
-0.00021515115558240483 0.0002496094363722001 0.0 -0.00017263937902856075 0.0 0.0
0.0007326758208170969 -0.0017671135052749198 0.0 -5.93850166729637e-05 0.0 0.0
0.011124912170616508 -0.010982538337910143 0.0 0.006370812428801387 0.0 0.0
0.008255306511298507 -0.008058736671693933 0.0 -0.007571866055275156 0.0 0.0
0.0003477666781277755 -0.0009291279779496397 0.0 -0.00042272917298946666 0.0 0.0
-0.00022530083234234555 0.00020128228970850426 0.0 -7.73717354706216e-05 0.0 0.0
0.00012944431173237542 -0.00020862540137311925 0.0 -3.9569067260269986e-05 0.0 0.0
0.00123894457194592 -0.0013214106757788446 0.0 -0.0002249639467088449 0.0 0.0
0.004179648243708589 -0.004239280806236589 0.0 -0.0007430027577386422 0.0 0.0
0.009532794769451826 -0.009628855628179611 0.0 -0.0017501418489046516 0.0 0.0
0.017700167693122486 -0.017839139270731774 0.0 -0.0032753064286258904 0.0 0.0
0.028814311672718432 -0.028976429145374016 0.0 -0.005303463983264423 0.0 0.0
0.04273833912888839 -0.04290382267314152 0.0 -0.007625820301792208 0.0 0.0
0.05919134312735538 -0.05935136449731049 0.0 -0.009988026607769762 0.0 0.0
0.07787137437283986 -0.07802152706885712 0.0 -0.012254733215611768 0.0 0.0
0.09847851336937516 -0.09861365793515509 0.0 -0.014466326048287348 0.0 0.0
0.12064639530335605 -0.1207611468813159 0.0 -0.01659177993925548 0.0 0.0
0.14385435550470532 -0.14394561959504504 0.0 -0.018441651581754426 0.0 0.0
0.1673478164750544 -0.167418274497523 0.0 -0.019649231582582805 0.0 0.0
0.19008444049908527 -0.1901397090043373 0.0 -0.019733467911988933 0.0 0.0
0.2106975745934687 -0.21072482310782448 0.0 -0.01857798249454168 0.0 0.0
0.22730542763395445 -0.22719356148704595 0.0 -0.016910914993332193 0.0 0.0
0.23729343073097175 -0.2370281028299832 0.0 -0.01467901537762506 0.0 0.0
0.23729343073095438 -0.23702810282996634 0.0 0.014679015377658144 0.0 0.0
0.22730542763390227 -0.22719356148699 0.0 0.01691091499339059 0.0 0.0
0.21069757459338706 -0.21072482310774454 0.0 0.018577982494579315 0.0 0.0
0.19008444049898537 -0.19013970900424493 0.0 0.01973346791200581 0.0 0.0
0.16734781647493896 -0.16741827449740931 0.0 0.01964923158257048 0.0 0.0
0.14385435550458625 -0.14394561959491892 0.0 0.018441651581753593 0.0 0.0
0.12064639530323618 -0.12076114688118178 0.0 0.016591779939246654 0.0 0.0
0.09847851336925673 -0.09861365793503074 0.0 0.014466326048280131 0.0 0.0
0.07787137437272823 -0.07802152706874343 0.0 0.012254733215593228 0.0 0.0
0.05919134312725438 -0.05935136449721323 0.0 0.009988026607755884 0.0 0.0
0.042738339128804925 -0.042903822673058034 0.0 0.007625820301770725 0.0 0.0
0.028814311672653803 -0.028976429145302518 0.0 0.0053034639832540975 0.0 0.0
0.01770016769307542 -0.01783913927067937 0.0 0.003275306428616731 0.0 0.0
0.009532794769420427 -0.009628855628144972 0.0 0.0017501418488973797 0.0 0.0
0.004179648243691936 -0.0042392808062168275 0.0 0.0007430027577357001 0.0 0.0
0.0012389445719387937 -0.001321410675770851 0.0 0.00022496394670701303 0.0 0.0
0.00012944431173156357 -0.0002086254013744515 0.0 3.956906726043652e-05 0.0 0.0
-0.00022530083234179044 0.00020128228970739404 0.0 7.737173547334164e-05 0.0 0.0
0.00034776667812730366 -0.0009291279779476413 0.0 0.0004227291729881344 0.0 0.0
0.008255306511283644 -0.008058736671680014 0.0 0.007571866055246401 0.0 0.0
0.0062109313722900905 -0.006098120212592983 0.0 -0.00673859952315059 0.0 0.0
0.0002523246008507979 -0.0005923864138456247 0.0 -0.00021657811342917777 0.0 0.0
-0.00013982457661360082 9.580322917468465e-05 0.0 -0.000199646105455753 0.0 0.0
6.273899330481308e-05 -0.00010476841430118178 0.0 -1.9711940940303485e-05 0.0 0.0
0.000886348203973493 -0.0009076561616996326 0.0 -0.0002262768298950668 0.0 0.0
0.003296702768209127 -0.0032495115483659465 0.0 -0.0009553127300279685 0.0 0.0
0.007974565438996079 -0.0078935821491819 0.0 -0.0024065886199926 0.0 0.0
0.01523797241399806 -0.015158358768582403 0.0 -0.004623854992603316 0.0 0.0
0.02515322821352553 -0.025066505756815793 0.0 -0.00750571565647884 0.0 0.0
0.03754152474487235 -0.03744049281180617 0.0 -0.010760092530409215 0.0 0.0
0.05212765346623589 -0.052008930737598824 0.0 -0.014071098556667827 0.0 0.0
0.0686490873446518 -0.06851048363152401 0.0 -0.01726608374059263 0.0 0.0
0.0868609907221845 -0.08669985113288892 0.0 -0.02036554856939371 0.0 0.0
0.10647561532969976 -0.10628995862801816 0.0 -0.023357112840684813 0.0 0.0
0.12708125845097565 -0.12687098633113703 0.0 -0.026011656136534778 0.0 0.0
0.14807272024850404 -0.14783628499863877 0.0 -0.02784524997524096 0.0 0.0
0.16856163219522616 -0.16828775883808156 0.0 -0.028301378012364764 0.0 0.0
0.18723760980914186 -0.18688300939874836 0.0 -0.027108087903024547 0.0 0.0
0.20225180335820644 -0.20177590133453105 0.0 -0.023919979107236866 0.0 0.0
0.21158983900681264 -0.21098720115364156 0.0 -0.01771947494508941 0.0 0.0
0.2115898390067968 -0.21098720115362202 0.0 0.017719474945138036 0.0 0.0
0.20225180335816023 -0.20177590133448486 0.0 0.023919979107309808 0.0 0.0
0.18723760980907056 -0.18688300939867641 0.0 0.02710808790307251 0.0 0.0
0.16856163219513848 -0.16828775883799096 0.0 0.028301378012389966 0.0 0.0
0.14807272024840223 -0.14783628499852686 0.0 0.02784524997522353 0.0 0.0
0.12708125845086932 -0.12687098633102778 0.0 0.026011656136529115 0.0 0.0
0.10647561532959393 -0.10628995862792046 0.0 0.023357112840672878 0.0 0.0
0.08686099072208048 -0.08669985113279255 0.0 0.020365548569384773 0.0 0.0
0.068649087344553 -0.06851048363142453 0.0 0.01726608374057348 0.0 0.0
0.05212765346614745 -0.05200893073751223 0.0 0.0140710985566469 0.0 0.0
0.03754152474479844 -0.03744049281173245 0.0 0.010760092530383458 0.0 0.0
0.025153228213468104 -0.025066505756760282 0.0 0.007505715656465295 0.0 0.0
0.015237972413955747 -0.015158358768544655 0.0 0.0046238549925922134 0.0 0.0
0.007974565438968628 -0.007893582149157696 0.0 0.0024065886199808872 0.0 0.0
0.0032967027681954364 -0.00324951154835329 0.0 0.0009553127300201969 0.0 0.0
0.0008863482039679349 -0.0009076561616936374 0.0 0.00022627682988968223 0.0 0.0
6.273899330494492e-05 -0.00010476841429840622 0.0 1.9711940940414507e-05 0.0 0.0
-0.00013982457661282366 9.580322917435158e-05 0.0 0.0001996461054572518 0.0 0.0
0.0002523246008502289 -0.0005923864138450141 0.0 0.00021657811343012145 0.0 0.0
0.006210931372276074 -0.006098120212580356 0.0 0.006738599523130218 0.0 0.0
0.0046768240727417115 -0.004642204257508664 0.0 -0.005415866392356861 0.0 0.0
0.00021511214981131954 -0.00036088025297242865 0.0 -1.2177356829123909e-05 0.0 0.0
-4.196160447904329e-05 5.867170082551887e-06 0.0 -0.00025213266894485997 0.0 0.0
4.709054519498601e-05 -6.613397768018281e-05 0.0 -3.192480927133312e-05 0.0 0.0
0.0006150787684488929 -0.0005983749249129922 0.0 -0.00020835271988717263 0.0 0.0
0.002511265896216447 -0.0023775824788845323 0.0 -0.0010229778302006665 0.0 0.0
0.006454528704374851 -0.0062229359716368116 0.0 -0.0027609539455404897 0.0 0.0
0.012775601569007325 -0.012490626909370306 0.0 -0.005481523159541146 0.0 0.0
0.021452253586061384 -0.021132806960263206 0.0 -0.008969533917304595 0.0 0.0
0.03227871766485038 -0.03192634728865684 0.0 -0.012884125442401861 0.0 0.0
0.044982472435856846 -0.04459936277438237 0.0 -0.016864699558816365 0.0 0.0
0.05933440277762915 -0.05892114106482316 0.0 -0.020732933621744887 0.0 0.0
0.07514283924703297 -0.07469972857711671 0.0 -0.024499261781767423 0.0 0.0
0.0921907834816874 -0.09171836193568694 0.0 -0.028100029600253373 0.0 0.0
0.11017319372128648 -0.10967479790968948 0.0 -0.031318545025511124 0.0 0.0
0.12863711680847303 -0.12810792365120527 0.0 -0.03371881247386199 0.0 0.0
0.14685126093350528 -0.14626557109986038 0.0 -0.034670954512713514 0.0 0.0
0.1636465618532493 -0.1629641057211506 0.0 -0.03348745864183933 0.0 0.0
0.1774229175970222 -0.17660870010163965 0.0 -0.02910460643606194 0.0 0.0
0.18650848846663642 -0.18555886262761057 0.0 -0.02015299807770754 0.0 0.0
0.18650848846662163 -0.1855588626275937 0.0 0.020152998077773376 0.0 0.0
0.1774229175969818 -0.176608700101605 0.0 0.029104606436151093 0.0 0.0
0.16364656185318785 -0.16296410572110176 0.0 0.033487458641898726 0.0 0.0
0.14685126093342749 -0.1462655710997831 0.0 0.03467095451274438 0.0 0.0
0.12863711680838436 -0.1281079236511049 0.0 0.03371881247384989 0.0 0.0
0.11017319372119388 -0.10967479790958379 0.0 0.031318545025498024 0.0 0.0
0.09219078348159598 -0.09171836193559368 0.0 0.02810002960024449 0.0 0.0
0.07514283924694304 -0.07469972857702611 0.0 0.024499261781756543 0.0 0.0
0.05933440277754315 -0.05892114106473967 0.0 0.02073293362171913 0.0 0.0
0.04498247243578096 -0.044599362774314866 0.0 0.01686469955879022 0.0 0.0
0.03227871766478563 -0.03192634728859556 0.0 0.01288412544236961 0.0 0.0
0.021452253586010606 -0.021132806960212136 0.0 0.008969533917280614 0.0 0.0
0.012775601568971173 -0.012490626909338332 0.0 0.00548152315952255 0.0 0.0
0.006454528704352203 -0.006222935971615717 0.0 0.00276095394553022 0.0 0.0
0.002511265896204984 -0.0023775824788716537 0.0 0.001022977830195615 0.0 0.0
0.000615078768445132 -0.0005983749249105497 0.0 0.0002083527198840085 0.0 0.0
4.709054519519418e-05 -6.613397768018281e-05 0.0 3.1924809270500454e-05 0.0 0.0
-4.196160447850206e-05 5.8671700816637085e-06 0.0 0.0002521326689436387 0.0 0.0
0.00021511214981095872 -0.000360880252971596 0.0 1.2177356829512487e-05 0.0 0.0
0.004676824072728958 -0.004642204257496715 0.0 0.005415866392338542 0.0 0.0
0.0034565193797008453 -0.0034793301384984376 0.0 -0.004125471861981256 0.0 0.0
0.0001890580368941741 -0.0001806272051193547 0.0 0.00013365058243236527 0.0 0.0
4.373170655698477e-05 -5.850612263746946e-05 0.0 -0.00024653975006877493 0.0 0.0
6.466497790467984e-05 -6.658056548536351e-05 0.0 -6.342914646412234e-05 0.0 0.0
0.0004238473488739902 -0.0003876145509746909 0.0 -0.0001948528199231525 0.0 0.0
0.0018409657339134855 -0.0016493622515298956 0.0 -0.0010086910878702726 0.0 0.0
0.005021459600893841 -0.004665401715511219 0.0 -0.002833248057928228 0.0 0.0
0.010345162522494969 -0.00987711616347342 0.0 -0.0058084822417843185 0.0 0.0
0.017756217830156185 -0.017221150363399218 0.0 -0.00969046178256816 0.0 0.0
0.026998658781781926 -0.026411952632168667 0.0 -0.014000320998042104 0.0 0.0
0.03780558357671257 -0.037174053831592335 0.0 -0.01838210996498424 0.0 0.0
0.04997615867757586 -0.04930491680122051 0.0 -0.022653070769594164 0.0 0.0
0.06337181761623353 -0.06266338915570202 0.0 -0.026820608788611644 0.0 0.0
0.07784662793746036 -0.0771037641526835 0.0 -0.030819277614054008 0.0 0.0
0.09318530842531303 -0.09241257887941057 0.0 -0.03440581010534627 0.0 0.0
0.10906450418954905 -0.10825717339192398 0.0 -0.037199668350615944 0.0 0.0
0.12494551259787032 -0.12407817831665024 0.0 -0.03862030322272125 0.0 0.0
0.1399209792307315 -0.13894737457936834 0.0 -0.03768013385290825 0.0 0.0
0.15267433502337086 -0.1515498794525394 0.0 -0.03275624457211179 0.0 0.0
0.16175755451635976 -0.16046905650303955 0.0 -0.022177121789521803 0.0 0.0
0.16175755451634682 -0.1604690565030289 0.0 0.022177121789594967 0.0 0.0
0.15267433502333588 -0.15154987945251008 0.0 0.032756244572204274 0.0 0.0
0.13992097923067753 -0.1389473745793044 0.0 0.03768013385297597 0.0 0.0
0.12494551259780318 -0.12407817831656498 0.0 0.03862030322274834 0.0 0.0
0.10906450418947294 -0.10825717339184404 0.0 0.03719966835060551 0.0 0.0
0.09318530842523409 -0.09241257887933685 0.0 0.034405810105331724 0.0 0.0
0.07784662793738306 -0.07710376415261422 0.0 0.03081927761404346 0.0 0.0
0.06337181761615662 -0.06266338915562919 0.0 0.02682060878859227 0.0 0.0
0.049976158677504545 -0.04930491680114546 0.0 0.02265307076956391 0.0 0.0
0.037805583576648594 -0.03717405383152128 0.0 0.018382109964953486 0.0 0.0
0.026998658781726748 -0.02641195263211671 0.0 0.014000320998006854 0.0 0.0
0.017756217830113052 -0.017221150363360138 0.0 0.00969046178254429 0.0 0.0
0.010345162522465423 -0.009877116163445887 0.0 0.0058084822417693305 0.0 0.0
0.0050214596008759105 -0.0046654017154972305 0.0 0.0028332480579184027 0.0 0.0
0.001840965733904576 -0.0016493622515210138 0.0 0.001008691087864222 0.0 0.0
0.0004238473488715755 -0.00038761455097025 0.0 0.00019485281992387415 0.0 0.0
6.466497790474923e-05 -6.658056548469737e-05 0.0 6.342914646595421e-05 0.0 0.0
4.373170655719294e-05 -5.850612263902377e-05 0.0 0.0002465397500690525 0.0 0.0
0.0001890580368941741 -0.00018062720511746733 0.0 -0.00013365058243269834 0.0 0.0
0.003456519379690326 -0.0034793301384888186 0.0 0.004125471861966157 0.0 0.0
0.0024732604196526647 -0.0025311328687892543 0.0 -0.003027669330683491 0.0 0.0
0.00016413267213931382 -4.052100094265043e-05 0.0 0.0002176837069365889 0.0 0.0
0.00010720417921375458 -9.6145932250713e-05 0.0 -0.00019910031412662121 0.0 0.0
9.115052614729058e-05 -8.180513145683577e-05 0.0 -9.696447010110187e-05 0.0 0.0
0.00030506786496183047 -0.00025912278862150195 0.0 -0.00020256138734919826 0.0 0.0
0.0012867322141106585 -0.0010783398439528913 0.0 -0.0009510643323542567 0.0 0.0
0.0037245182438912228 -0.003282830416587057 0.0 -0.002732311490172168 0.0 0.0
0.008001465953840714 -0.007385855844590061 0.0 -0.005687406775515047 0.0 0.0
0.014106877154718173 -0.013379653615224196 0.0 -0.009648135571217575 0.0 0.0
0.021749427916577815 -0.020948483862641254 0.0 -0.01410114865474077 0.0 0.0
0.03064657863320086 -0.029787039442701335 0.0 -0.01861131067323718 0.0 0.0
0.04062670394147477 -0.039717157606399045 0.0 -0.02301787821394652 0.0 0.0
0.05160077554653847 -0.050647628306568215 0.0 -0.027332199209631702 0.0 0.0
0.06349206525236292 -0.0624990612274523 0.0 -0.031472812149289875 0.0 0.0
0.07616805285707548 -0.07513777940941502 0.0 -0.03521779425897675 0.0 0.0
0.08940601977838145 -0.08833965933618781 0.0 -0.038239525704439226 0.0 0.0
0.10287007723553043 -0.1017492580909618 0.0 -0.04002467261989806 0.0 0.0
0.11599750830038777 -0.11477077592920093 0.0 -0.03956300571935556 0.0 0.0
0.12782556601676937 -0.12642651565535434 0.0 -0.034882649561478796 0.0 0.0
0.13708293585773193 -0.13547643139859478 0.0 -0.023849600812838823 0.0 0.0
0.13708293585772122 -0.13547643139858057 0.0 0.023849600812914207 0.0 0.0
0.12782556601673967 -0.12642651565531438 0.0 0.03488264956156828 0.0 0.0
0.11599750830034128 -0.11477077592914053 0.0 0.03956300571942739 0.0 0.0
0.10287007723547453 -0.10174925809089785 0.0 0.04002467261992115 0.0 0.0
0.08940601977831852 -0.0883396593361292 0.0 0.03823952570443301 0.0 0.0
0.07616805285701017 -0.07513777940936262 0.0 0.03521779425895932 0.0 0.0
0.06349206525229872 -0.06249906122739013 0.0 0.03147281214927533 0.0 0.0
0.051600775546476296 -0.05064762830650471 0.0 0.02733219920961627 0.0 0.0
0.04062670394141782 -0.03971715760634886 0.0 0.023017878213921206 0.0 0.0
0.03064657863314868 -0.029787039442656482 0.0 0.01861131067320565 0.0 0.0
0.021749427916532837 -0.020948483862592848 0.0 0.01410114865470613 0.0 0.0
0.01410687715468334 -0.013379653615188225 0.0 0.009648135571194594 0.0 0.0
0.008001465953817066 -0.0073858558445665246 0.0 0.005687406775497839 0.0 0.0
0.0037245182438769286 -0.003282830416572402 0.0 0.0027323114901612877 0.0 0.0
0.001286732214103914 -0.0010783398439500047 0.0 0.0009510643323452084 0.0 0.0
0.0003050678649603178 -0.00025912278862239013 0.0 0.00020256138734364715 0.0 0.0
9.115052614711017e-05 -8.180513145539248e-05 0.0 9.696447009788223e-05 0.0 0.0
0.00010720417921383785 -9.614593224915868e-05 0.0 0.0001991003141245673 0.0 0.0
0.00016413267213899463 -4.05210009429835e-05 0.0 -0.00021768370693892036 0.0 0.0
0.002473260419644685 -0.002531132868782129 0.0 0.0030276693306712787 0.0 0.0
0.0016887028309244823 -0.0017576434536156205 0.0 -0.0021401068133675705 0.0 0.0
0.0001400688632362257 6.189393104072405e-05 0.0 0.00025441451592855824 0.0 0.0
0.0001451653119491081 -0.00011098953593813299 0.0 -0.00012689120425557476 0.0 0.0
0.00010954969322649055 -9.457066744356091e-05 0.0 -0.00012589566499987548 0.0 0.0
0.00023587156577745128 -0.00018809158234867063 0.0 -0.00024516200468266414 0.0 0.0
0.0008551432908172063 -0.0006595919511056536 0.0 -0.000866882258510171 0.0 0.0
0.002582670156672795 -0.0021126516438005893 0.0 -0.0024602941830560443 0.0 0.0
0.0058136527807254035 -0.005094826219310011 0.0 -0.005192280180343456 0.0 0.0
0.010565441891810107 -0.009684477031079997 0.0 -0.008898781182499205 0.0 0.0
0.016578486229979567 -0.015592381696524882 0.0 -0.013162957058801328 0.0 0.0
0.02355400325150514 -0.022494295749174942 0.0 -0.017542965784474118 0.0 0.0
0.031339386393403 -0.030218266537981098 0.0 -0.021816050787692443 0.0 0.0
0.03988458127100594 -0.03871375835220636 0.0 -0.025999216550757764 0.0 0.0
0.04917851381312746 -0.04796418846368233 0.0 -0.030050572888579485 0.0 0.0
0.05917081054736947 -0.057912736763589656 0.0 -0.03374216579990996 0.0 0.0
0.0697273398088506 -0.06842385584051058 0.0 -0.036743763319994294 0.0 0.0
0.08066839159492145 -0.07932131675006993 0.0 -0.03873771893836053 0.0 0.0
0.091811261287297 -0.09037505565990145 0.0 -0.03897319448918035 0.0 0.0
0.1026717191298955 -0.10104899443020265 0.0 -0.03535666964558304 0.0 0.0
0.11221822618848173 -0.1103297320440344 0.0 -0.02515022960521196 0.0 0.0
0.11221822618847346 -0.11032973204402996 0.0 0.02515022960528257 0.0 0.0
0.10267171912987066 -0.1010489944301689 0.0 0.03535666964567019 0.0 0.0
0.09181126128725939 -0.09037505565985526 0.0 0.03897319448924852 0.0 0.0
0.08066839159487679 -0.07932131675002907 0.0 0.03873771893837974 0.0 0.0
0.06972733980880089 -0.06842385584046351 0.0 0.03674376331998741 0.0 0.0
0.05917081054731724 -0.05791273676353992 0.0 0.033742165799890644 0.0 0.0
0.04917851381307675 -0.047964188463623714 0.0 0.03005057288856805 0.0 0.0
0.039884581270960506 -0.038713758352164174 0.0 0.025999216550745108 0.0 0.0
0.0313393863933592 -0.030218266537947347 0.0 0.021816050787670682 0.0 0.0
0.023554003251463784 -0.022494295749136306 0.0 0.017542965784443254 0.0 0.0
0.016578486229945455 -0.015592381696490687 0.0 0.013162957058763691 0.0 0.0
0.010565441891783434 -0.009684477031061345 0.0 0.008898781182473559 0.0 0.0
0.005813652780708056 -0.005094826219299353 0.0 0.005192280180325581 0.0 0.0
0.0025826701566618593 -0.0021126516437954823 0.0 0.0024602941830433878 0.0 0.0
0.0008551432908128764 -0.0006595919511012127 0.0 0.000866882258502788 0.0 0.0
0.00023587156577659085 -0.00018809158234489587 0.0 0.000245162004681887 0.0 0.0
0.00010954969322635177 -9.457066744134046e-05 0.0 0.0001258956649979881 0.0 0.0
0.00014516531194913584 -0.00011098953593824401 0.0 0.00012689120425363187 0.0 0.0
0.00014006886323630896 6.18939310400024e-05 0.0 -0.0002544145159282807 0.0 0.0
0.001688702830918376 -0.0017576434536096695 0.0 0.002140106813358078 0.0 0.0
0.0010825507888667651 -0.0011460794831484322 0.0 -0.0014566873848845807 0.0 0.0
0.00011287069080348489 0.00013095923164019307 0.0 0.0002688142919493042 0.0 0.0
0.00015864176744559422 -0.00010756827342162101 0.0 -4.9170979406931714e-05 0.0 0.0
0.00011275807030283747 -9.468944513213451e-05 0.0 -0.00014001773302940723 0.0 0.0
0.0001867141899918323 -0.00014494090174310692 0.0 -0.0003106084654273533 0.0 0.0
0.0005397222507006472 -0.0003828737613702504 0.0 -0.000826282762619035 0.0 0.0
0.0016194208029503832 -0.0011946081474101256 0.0 -0.0020970132981534273 0.0 0.0
0.003827481777198549 -0.0030831753433493425 0.0 -0.00437099448447531 0.0 0.0
0.007209206370967974 -0.006233946598703799 0.0 -0.0075364883388850945 0.0 0.0
0.011549402782373097 -0.010429987403003604 0.0 -0.011243339226118976 0.0 0.0
0.016581253465769052 -0.015366484683916326 0.0 -0.015144246322785437 0.0 0.0
0.022166361072589874 -0.02087832362284603 0.0 -0.01900461658113428 0.0 0.0
0.028279421418165834 -0.026934500323202215 0.0 -0.02279929005368575 0.0 0.0
0.03495798684818094 -0.03356759408492671 0.0 -0.026493947297888676 0.0 0.0
0.042239441519694665 -0.04080307098000535 0.0 -0.02992953468265591 0.0 0.0
0.05009212247440015 -0.048597914187372915 0.0 -0.032749643562084096 0.0 0.0
0.05842817616867496 -0.056881071209920364 0.0 -0.034646517054473636 0.0 0.0
0.0673318705508005 -0.06573433756991864 0.0 -0.035503732320766423 0.0 0.0
0.07698125885911983 -0.07521490571354406 0.0 -0.03377569730957586 0.0 0.0
0.08684255798781526 -0.08474007734643596 0.0 -0.02596273780310976 0.0 0.0
0.08684255798780915 -0.08474007734642885 0.0 0.02596273780317304 0.0 0.0
0.07698125885910051 -0.0752149057135254 0.0 0.03377569730965768 0.0 0.0
0.06733187055077366 -0.06573433756990532 0.0 0.035503732320832926 0.0 0.0
0.05842817616864096 -0.056881071209885725 0.0 0.0346465170544934 0.0 0.0
0.050092122474363815 -0.04859791418734005 0.0 0.03274964356207344 0.0 0.0
0.042239441519655974 -0.04080307097997338 0.0 0.02992953468263515 0.0 0.0
0.03495798684814572 -0.033567594084891184 0.0 0.02649394729787513 0.0 0.0
0.028279421418136108 -0.026934500323176458 0.0 0.022799290053675203 0.0 0.0
0.02216636107255926 -0.0208783236228145 0.0 0.019004616581108524 0.0 0.0
0.01658125346574013 -0.015366484683890125 0.0 0.015144246322762012 0.0 0.0
0.01154940278234931 -0.010429987402980068 0.0 0.011243339226090998 0.0 0.0
0.007209206370949878 -0.006233946598684259 0.0 0.00753648833886722 0.0 0.0
0.0038274817771868086 -0.003083175343336464 0.0 0.004370994484463431 0.0 0.0
0.0016194208029428059 -0.0011946081474016879 0.0 0.002097013298146655 0.0 0.0
0.0005397222506987598 -0.0003828737613691402 0.0 0.0008262827626150937 0.0 0.0
0.00018671418999119394 -0.00014494090174510532 0.0 0.00031060846542690923 0.0 0.0
0.00011275807030283747 -9.468944513379984e-05 0.0 0.00014001773302735332 0.0 0.0
0.00015864176744556646 -0.0001075682734200667 0.0 4.917097940709825e-05 0.0 0.0
0.00011287069080362366 0.0001309592316403041 0.0 -0.0002688142919498038 0.0 0.0
0.001082550788862352 -0.0011460794831445239 0.0 0.0014566873848771422 0.0 0.0
0.0006433447663023728 -0.0006949981488152401 0.0 -0.0009635120527253793 0.0 0.0
7.67607176871965e-05 0.0001701276037657795 0.0 0.00026667807723407266 0.0 0.0
0.00015035347973341162 -8.887224640519165e-05 0.0 2.221453253603567e-05 0.0 0.0
0.00010233553627747582 -8.180761909870604e-05 0.0 -0.00013837602659172443 0.0 0.0
0.00013222061219039793 -0.00010470436091991608 0.0 -0.00038004776818389985 0.0 0.0
0.0003079103280640705 -0.000209338624616473 0.0 -0.0008509093561581138 0.0 0.0
0.0008551011173644485 -0.0005514620075102172 0.0 -0.0017435960162263675 0.0 0.0
0.0020873119253630446 -0.0014552172216220072 0.0 -0.00332753193967128 0.0 0.0
0.0041060254656364314 -0.003163488154468208 0.0 -0.005640236686004996 0.0 0.0
0.006740471731857378 -0.005597044367747106 0.0 -0.008442677256916498 0.0 0.0
0.009795192228752136 -0.008523905568804668 0.0 -0.011506286286389722 0.0 0.0
0.013158321887004387 -0.011800903380194683 0.0 -0.014642427632410748 0.0 0.0
0.016834327795694243 -0.015411224539169766 0.0 -0.017804008828466777 0.0 0.0
0.020885809553911283 -0.019414263425841405 0.0 -0.020918449203654488 0.0 0.0
0.025412891080843575 -0.023899241364222945 0.0 -0.023896827312152036 0.0 0.0
0.030520168091279637 -0.02894723954698719 0.0 -0.026487721347938975 0.0 0.0
0.03624447623639465 -0.03458166819776842 0.0 -0.028228290491555397 0.0 0.0
0.042691260737905384 -0.040971725710615914 0.0 -0.02916988444998525 0.0 0.0
0.0505454387692936 -0.048764842332064795 0.0 -0.029461836744380965 0.0 0.0
0.06050026499177549 -0.058325490828814885 0.0 -0.02593705802984947 0.0 0.0
0.060500264991771385 -0.058325490828805115 0.0 0.025937058029903093 0.0 0.0
0.0505454387692825 -0.04876484233205147 0.0 0.029461836744454573 0.0 0.0
0.04269126073788812 -0.0409717257106017 0.0 0.029169884450039096 0.0 0.0
0.036244476236371864 -0.03458166819774444 0.0 0.02822829049156672 0.0 0.0
0.030520168091257432 -0.028947239546965875 0.0 0.02648772134791899 0.0 0.0
0.02541289108082037 -0.023899241364213175 0.0 0.023896827312133162 0.0 0.0
0.020885809553892465 -0.019414263425831635 0.0 0.020918449203646827 0.0 0.0
0.016834327795679005 -0.01541122453915289 0.0 0.017804008828464113 0.0 0.0
0.013158321886986762 -0.011800903380168037 0.0 0.014642427632394206 0.0 0.0
0.009795192228737093 -0.008523905568788237 0.0 0.011506286286366962 0.0 0.0
0.0067404717318435 -0.005597044367739112 0.0 0.008442677256890518 0.0 0.0
0.004106025465626689 -0.0031634881544597704 0.0 0.005640236685992672 0.0 0.0
0.002087311925356411 -0.001455217221616234 0.0 0.0033275319396605108 0.0 0.0
0.0008551011173607848 -0.0005514620075093291 0.0 0.0017435960162215935 0.0 0.0
0.00030791032806326557 -0.00020933862461469666 0.0 0.0008509093561561709 0.0 0.0
0.0001322206121896763 -0.00010470436091836177 0.0 0.0003800477681850656 0.0 0.0
0.00010233553627744807 -8.180761910003831e-05 0.0 0.00013837602659172443 0.0 0.0
0.00015035347973341162 -8.887224640530267e-05 0.0 -2.221453253603567e-05 0.0 0.0
7.67607176869467e-05 0.00017012760376594604 0.0 -0.0002666780772316857 0.0 0.0
0.000643344766299847 -0.0006949981488122842 0.0 0.0009635120527231034 0.0 0.0
0.0003485059524848122 -0.0003863183949921467 0.0 -0.0006222513056398093 0.0 0.0
3.1296665174374017e-05 0.00018184459916126272 0.0 0.00024350152215546483 0.0 0.0
0.00012471956249288096 -5.8083322494240086e-05 0.0 7.554169624723883e-05 0.0 0.0
8.169245541983505e-05 -5.968628476860083e-05 0.0 -0.00012692898204436087 0.0 0.0
6.56452433396848e-05 -5.5101674695912095e-05 0.0 -0.0004145862094432906 0.0 0.0
0.00010794988370635417 -8.05759600743805e-05 0.0 -0.0009186284497955666 0.0 0.0
0.0002603465437371888 -0.00015825371672484323 0.0 -0.00159149174131884 0.0 0.0
0.0006398115546199512 -0.00035667432636454777 0.0 -0.002388945269830134 0.0 0.0
0.0013112450785961738 -0.0007643646889481381 0.0 -0.003547874724764921 0.0 0.0
0.002199245654498777 -0.001413618853956411 0.0 -0.005236939026204368 0.0 0.0
0.0032242090710379034 -0.002266812552835784 0.0 -0.007402830029541119 0.0 0.0
0.0043340533108586765 -0.0032701026877277606 0.0 -0.009828117245081702 0.0 0.0
0.005551408578178207 -0.004414490311839714 0.0 -0.01241671943435052 0.0 0.0
0.006950548924205935 -0.005762599907338739 0.0 -0.01512882224821388 0.0 0.0
0.0086809627702438 -0.007451138290963222 0.0 -0.017901117120201482 0.0 0.0
0.010978335124465666 -0.009690303392975608 0.0 -0.02051839754277629 0.0 0.0
0.014096801866318481 -0.012687822963110662 0.0 -0.022459419704581762 0.0 0.0
0.018170666270006075 -0.016567684122256843 0.0 -0.023124661921271272 0.0 0.0
0.023640897356562968 -0.021985602208145494 0.0 -0.02360212947440632 0.0 0.0
0.032593645520240244 -0.03077396235802521 0.0 -0.024848209834813395 0.0 0.0
0.032593645520239495 -0.030773962358026985 0.0 0.024848209834855473 0.0 0.0
0.02364089735655947 -0.02198560220813839 0.0 0.023602129474464717 0.0 0.0
0.018170666269997054 -0.016567684122249737 0.0 0.02312466192130469 0.0 0.0
0.014096801866309072 -0.012687822963103557 0.0 0.022459419704582984 0.0 0.0
0.010978335124459726 -0.009690303392963173 0.0 0.020518397542755973 0.0 0.0
0.008680962770237083 -0.007451138290942794 0.0 0.017901117120182386 0.0 0.0
0.006950548924202382 -0.005762599907329857 0.0 0.015128822248203999 0.0 0.0
0.005551408578177874 -0.00441449031183927 0.0 0.012416719434339751 0.0 0.0
0.004334053310855263 -0.003270102687730869 0.0 0.009828117245066936 0.0 0.0
0.003224209071036349 -0.0022668125528428895 0.0 0.007402830029529461 0.0 0.0
0.002199245654495363 -0.00141361885395197 0.0 0.005236939026188714 0.0 0.0
0.0013112450785942031 -0.0007643646889454736 0.0 0.0035478747247580378 0.0 0.0
0.0006398115546183969 -0.0003566743263663241 0.0 0.0023889452698240277 0.0 0.0
0.0002603465437361896 -0.0001582537167217346 0.0 0.0015914917413150653 0.0 0.0
0.00010794988370613212 -8.057596007460255e-05 0.0 0.0009186284497924024 0.0 0.0
6.564524333937949e-05 -5.5101674697910497e-05 0.0 0.0004145862094412367 0.0 0.0
8.169245541972403e-05 -5.968628476926696e-05 0.0 0.00012692898204430536 0.0 0.0
0.00012471956249282545 -5.808332249390702e-05 0.0 -7.554169624668372e-05 0.0 0.0
3.129666517423524e-05 0.00018184459916076312 0.0 -0.00024350152215568688 0.0 0.0
0.00034850595248334115 -0.00038631839499019254 0.0 0.0006222513056369783 0.0 0.0
0.00016578059699398628 -0.00021063460558767844 0.0 -0.00044855271724231205 0.0 0.0
-1.4788232212709085e-05 0.00017279374453749163 0.0 0.0001861071979780693 0.0 0.0
8.869138637881968e-05 -2.243050169281613e-05 0.0 0.00010934389915595588 0.0 0.0
5.361917464241639e-05 -3.1833143513404494e-05 0.0 -0.00010217115585225978 0.0 0.0
-6.342185947944001e-06 7.873311649309045e-07 0.0 -0.00040947605514879415 0.0 0.0
-9.284997071254408e-05 4.5741806616206304e-05 0.0 -0.0009234597368392161 0.0 0.0
-0.00026694599605903147 0.00014349593004592265 0.0 -0.0016038137935434071 0.0 0.0
-0.0006497599767463502 0.00035710681022305124 0.0 -0.002403843527555183 0.0 0.0
-0.0013164900180926697 0.0007680588132497057 0.0 -0.003555422977017164 0.0 0.0
-0.002203508767870427 0.001419670571362719 0.0 -0.005238962827079807 0.0 0.0
-0.0032454348699348934 0.0022914404171552327 0.0 -0.007410417801078095 0.0 0.0
-0.004402848336376136 0.0033349581027120045 0.0 -0.009844290543685186 0.0 0.0
-0.005656582001423854 0.004495559043555808 0.0 -0.01242874226093793 0.0 0.0
-0.006925397166157532 0.00568378841411743 0.0 -0.015127290448794906 0.0 0.0
-0.008009997291838211 0.006707611539511049 0.0 -0.01791525760243784 0.0 0.0
-0.008577192258915928 0.007252689072609897 0.0 -0.02072209093220101 0.0 0.0
-0.00819129802635743 0.006931973201741215 0.0 -0.02349633841276466 0.0 0.0
-0.006570871238639975 0.0056107073834619214 0.0 -0.02634642354118033 0.0 0.0
-0.0034442636054266285 0.0031140674000340596 0.0 -0.02919524606080237 0.0 0.0
0.004354510859174848 -0.004149145735582671 0.0 -0.030091133725093866 0.0 0.0
0.004354510859175209 -0.004149145735577342 0.0 0.03009113372510852 0.0 0.0
-0.0034442636054257125 0.0031140674000349478 0.0 0.029195246060816804 0.0 0.0
-0.006570871238636589 0.005610707383463698 0.0 0.026346423541181774 0.0 0.0
-0.008191298026349297 0.006931973201744768 0.0 0.02349633841275467 0.0 0.0
-0.008577192258904048 0.007252689072607232 0.0 0.02072209093218269 0.0 0.0
-0.008009997291828802 0.006707611539508385 0.0 0.017915257602421297 0.0 0.0
-0.006925397166146513 0.005683788414111213 0.0 0.015127290448781694 0.0 0.0
-0.005656582001409921 0.00449555904354737 0.0 0.012428742260926162 0.0 0.0
-0.004402848336363674 0.003334958102705343 0.0 0.00984429054366276 0.0 0.0
-0.00324543486992257 0.0022914404171348046 0.0 0.0074104178010593325 0.0 0.0
-0.0022035087678629606 0.001419670571348064 0.0 0.005238962827063598 0.0 0.0
-0.0013164900180875905 0.0007680588132439325 0.0 0.0035554229770101697 0.0 0.0
-0.0006497599767428253 0.0003571068102163899 0.0 0.002403843527551963 0.0 0.0
-0.00026694599605817104 0.00014349593004525651 0.0 0.0016038137935385222 0.0 0.0
-9.28499707118502e-05 4.574180661665039e-05 0.0 0.0009234597368349973 0.0 0.0
-6.342185947944001e-06 7.873311624884138e-07 0.0 0.0004094760551456855 0.0 0.0
5.361917464252741e-05 -3.1833143514403694e-05 0.0 0.0001021711558518712 0.0 0.0
8.869138637832008e-05 -2.2430501691150795e-05 0.0 -0.00010934389915584486 0.0 0.0
-1.4788232212598063e-05 0.00017279374453699203 0.0 -0.00018610719797684805 0.0 0.0
0.00016578059699315362 -0.000210634605587204 0.0 0.00044855271724192347 0.0 0.0
6.67107872531214e-05 -0.00013476205030477084 0.0 -0.00039121395991181807 0.0 0.0
-4.929414703913615e-05 0.00015410827071327127 0.0 0.00010962520260632269 0.0 0.0
5.00422721886884e-05 8.890666793659463e-06 0.0 0.0001234783247920923 0.0 0.0
2.2192520092556567e-05 -1.8419062171037837e-06 0.0 -6.275707127179064e-05 0.0 0.0
-7.833992215119934e-05 5.751411398446926e-05 0.0 -0.00036392095140386216 0.0 0.0
-0.0002988629507182927 0.000182492020840197 0.0 -0.0008737472435975668 0.0 0.0
-0.0008618828801608691 0.0005426970421433808 0.0 -0.0017809943580762155 0.0 0.0
-0.0020931961296672685 0.0014565808639028788 0.0 -0.0033553674414006363 0.0 0.0
-0.0041082726932940294 0.003165550166750908 0.0 -0.005649937511770009 0.0 0.0
-0.006745743071615767 0.005604862857258031 0.0 -0.008446595063753337 0.0 0.0
-0.009819092042752192 0.008552628318604594 0.0 -0.01150676775590087 0.0 0.0
-0.013222249028694094 0.011865709648667622 0.0 -0.014618116065159503 0.0 0.0
-0.016923202136017945 0.015482482312431323 0.0 -0.017732030579961422 0.0 0.0
-0.020835351110776085 0.019308541828126025 0.0 -0.020838679670584837 0.0 0.0
-0.02472559728550383 0.023112415415019072 0.0 -0.02399442584796707 0.0 0.0
-0.028180833554506318 0.026499709759120194 0.0 -0.027235035770115656 0.0 0.0
-0.03066641731818845 0.028977206327238214 0.0 -0.030634211815984358 0.0 0.0
-0.03167114530126866 0.03006388698875284 0.0 -0.03403342155423095 0.0 0.0
-0.030242062304868034 0.028606195796625933 0.0 -0.035853736841768735 0.0 0.0
-0.022748389817236286 0.02095514188675285 0.0 -0.035122319416234005 0.0 0.0
-0.022748389817235648 0.02095514188674308 0.0 0.03512231941627919 0.0 0.0
-0.03024206230486315 0.028606195796624156 0.0 0.03585373684182913 0.0 0.0
-0.03167114530125212 0.030063886988755506 0.0 0.03403342155426903 0.0 0.0
-0.030666417318163858 0.028977206327219562 0.0 0.03063421181598458 0.0 0.0
-0.02818083355447734 0.026499709759090884 0.0 0.027235035770090454 0.0 0.0
-0.024725597285478657 0.023112415414994203 0.0 0.023994425847945533 0.0 0.0
-0.020835351110749745 0.019308541828102932 0.0 0.02083867967056241 0.0 0.0
-0.01692320213599041 0.015482482312404677 0.0 0.017732030579948432 0.0 0.0
-0.013222249028666838 0.01186570964864364 0.0 0.014618116065131304 0.0 0.0
-0.009819092042726907 0.008552628318583722 0.0 0.011506767755870562 0.0 0.0
-0.006745743071595672 0.005604862857237158 0.0 0.008446595063725804 0.0 0.0
-0.0041082726932817615 0.0031655501667406938 0.0 0.005649937511754688 0.0 0.0
-0.002093196129659275 0.001456580863893553 0.0 0.003355367441389312 0.0 0.0
-0.000861882880156789 0.0005426970421329447 0.0 0.0017809943580677778 0.0 0.0
-0.00029886295071634983 0.00018249202083908678 0.0 0.0008737472435944027 0.0 0.0
-7.833992215117158e-05 5.7514113984691306e-05 0.0 0.0003639209514020858 0.0 0.0
2.219252009266759e-05 -1.8419062182140067e-06 0.0 6.275707127267882e-05 0.0 0.0
5.0042272188577375e-05 8.890666791994128e-06 0.0 -0.00012347832479064902 0.0 0.0
-4.9294147039163905e-05 0.0001541082707113839 0.0 -0.00010962520260399122 0.0 0.0
6.671078725264956e-05 -0.00013476205030483416 0.0 0.0003912139599105968 0.0 0.0
2.275226204201397e-05 -9.816275167928712e-05 0.0 -0.00035029780173606584 0.0 0.0
-6.807128697017273e-05 0.00013082036692346755 0.0 3.9279644285739046e-05 0.0 0.0
1.536647147593051e-05 3.104597485847904e-05 0.0 0.00012587091663018857 0.0 0.0
-8.53777186238247e-06 2.6175998573130244e-05 0.0 -1.4087631263759448e-05 0.0 0.0
-0.00014698578883265423 0.00011285351098822005 0.0 -0.0002896404570127409 0.0 0.0
-0.0005396601624280128 0.0003707278984070861 0.0 -0.0008662190702412031 0.0 0.0
-0.0016220976486078786 0.0011895589678183605 0.0 -0.0021389034686201125 0.0 0.0
-0.003825925331761293 0.003079223048853219 0.0 -0.004391623216903007 0.0 0.0
-0.0072095721026818604 0.0062337735543032124 0.0 -0.007540935892243361 0.0 0.0
-0.011557042041316523 0.010439521050945366 0.0 -0.01124817137003542 0.0 0.0
-0.016603327729765693 0.015392126880491297 0.0 -0.015132848546911326 0.0 0.0
-0.022211005395543437 0.02092408946197777 0.0 -0.018921374479869857 0.0 0.0
-0.028327433485970027 0.02696867632922828 0.0 -0.02258950476912891 0.0 0.0
-0.03486645631199295 0.033428482108531554 0.0 -0.02625193657095526 0.0 0.0
-0.041576263692386956 0.04005069309402032 0.0 -0.030147533901864643 0.0 0.0
-0.04797322111731511 0.04637059581893421 0.0 -0.034570411539983525 0.0 0.0
-0.05336392211400229 0.05172070471719614 0.0 -0.039582188214391745 0.0 0.0
-0.056773647441006686 0.055110704534632404 0.0 -0.044173298268495254 0.0 0.0
-0.056450203654009073 0.05478197190194134 0.0 -0.04632554567467562 0.0 0.0
-0.0481978523876497 0.046082377890831694 0.0 -0.042976949525977304 0.0 0.0
-0.048197852387647094 0.04608237789082725 0.0 0.04297694952603193 0.0 0.0
-0.05645020365399825 0.05478197190191292 0.0 0.046325545674752555 0.0 0.0
-0.05677364744098051 0.055110704534593324 0.0 0.04417329826854233 0.0 0.0
-0.05336392211396451 0.051720704717150845 0.0 0.03958218821439785 0.0 0.0
-0.047973221117271675 0.046370595818884475 0.0 0.034570411539960766 0.0 0.0
-0.0415762636923461 0.04005069309396614 0.0 0.03014753390184377 0.0 0.0
-0.03486645631195051 0.033428482108492474 0.0 0.0262519365709335 0.0 0.0
-0.028327433485928366 0.026968676329190977 0.0 0.022589504769115254 0.0 0.0
-0.022211005395503025 0.02092408946194091 0.0 0.018921374479844988 0.0 0.0
-0.01660332772972814 0.01539212688046021 0.0 0.01513284854687924 0.0 0.0
-0.011557042041284216 0.010439521050917389 0.0 0.011248171370003668 0.0 0.0
-0.007209572102660988 0.006233773554281452 0.0 0.007540935892226264 0.0 0.0
-0.0038259253317475816 0.0030792230488407846 0.0 0.004391623216892904 0.0 0.0
-0.001622097648600468 0.0011895589678103669 0.0 0.0021389034686177255 0.0 0.0
-0.0005396601624250985 0.0003707278984050877 0.0 0.0008662190702367067 0.0 0.0
-0.00014698578883221014 0.00011285351098888619 0.0 0.00028964045700963226 0.0 0.0
-8.537771862160426e-06 2.6175998575572734e-05 0.0 1.4087631264092515e-05 0.0 0.0
1.5366471475708465e-05 3.104597486036642e-05 0.0 -0.0001258709166293559 0.0 0.0
-6.807128697053355e-05 0.0001308203669241892 0.0 -3.927964428679376e-05 0.0 0.0
2.275226204215275e-05 -9.816275167847353e-05 0.0 0.0003502978017339564 0.0 0.0
4.688889480963798e-06 -7.206746780052953e-05 0.0 -0.0002997750810421196 0.0 0.0
-7.418689495403141e-05 0.00010601284640376907 0.0 -1.7990182205995797e-05 0.0 0.0
-1.1940476011884638e-05 4.3610557939777195e-05 0.0 0.00011624409550414772 0.0 0.0
-3.500967025327206e-05 4.832423124412344e-05 0.0 3.411052781976398e-05 0.0 0.0
-0.00021752982031542079 0.00017753940870290918 0.0 -0.0002207840097882552 0.0 0.0
-0.0008610664495669051 0.0006597819545171024 0.0 -0.0009072069391208304 0.0 0.0
-0.0025763394362968706 0.002103465662046222 0.0 -0.002486785346035636 0.0 0.0
-0.005806356391746037 0.005084191326745202 0.0 -0.005196190328917383 0.0 0.0
-0.010566767732071547 0.009684921440090033 0.0 -0.00890082062519204 0.0 0.0
-0.01658853238493513 0.015603496731168676 0.0 -0.013168515001577785 0.0 0.0
-0.023568549230298275 0.022510491921540865 0.0 -0.017519062660764195 0.0 0.0
-0.03134813862307151 0.03022736060107656 0.0 -0.021678719734081087 0.0 0.0
-0.03986201958750607 0.03868289002068881 0.0 -0.025659802469342297 0.0 0.0
-0.04902987990474378 0.04778382088355748 0.0 -0.029643620831204753 0.0 0.0
-0.05859974586586447 0.05727345436535458 0.0 -0.0340205951667103 0.0 0.0
-0.06801913289037842 0.06660110473320469 0.0 -0.039261668190109456 0.0 0.0
-0.07629575099795408 0.07478328009634083 0.0 -0.04531584934419286 0.0 0.0
-0.08182562051803613 0.08024409680982458 0.0 -0.05075472544898829 0.0 0.0
-0.08206963742380474 0.0803934022725512 0.0 -0.052536944904647664 0.0 0.0
-0.07204441233268935 0.07011503311258682 0.0 -0.04886092594821756 0.0 0.0
-0.07204441233268463 0.07011503311258238 0.0 0.048860925948279066 0.0 0.0
-0.08206963742378709 0.08039340227253078 0.0 0.052536944904727045 0.0 0.0
-0.08182562051800105 0.08024409680979705 0.0 0.05075472544905002 0.0 0.0
-0.07629575099790448 0.07478328009630975 0.0 0.045315849344206516 0.0 0.0
-0.06801913289032277 0.06660110473315939 0.0 0.03926166819008847 0.0 0.0
-0.05859974586580827 0.0572734543653004 0.0 0.034020595166683654 0.0 0.0
-0.049029879904685464 0.04778382088349176 0.0 0.029643620831177442 0.0 0.0
-0.03986201958744964 0.038682890020631966 0.0 0.02565980246931787 0.0 0.0
-0.03134813862301766 0.030227360601026376 0.0 0.021678719734054552 0.0 0.0
-0.02356854923024901 0.022510491921487574 0.0 0.01751906266072778 0.0 0.0
-0.016588532384892024 0.015603496731116717 0.0 0.013168515001540482 0.0 0.0
-0.010566767732041654 0.009684921440056282 0.0 0.008900820625167172 0.0 0.0
-0.005806356391725276 0.005084191326730547 0.0 0.005196190328903394 0.0 0.0
-0.0025763394362865732 0.002103465662039561 0.0 0.002486785346026865 0.0 0.0
-0.0008610664495625753 0.0006597819545144379 0.0 0.0009072069391152793 0.0 0.0
-0.00021752982031458812 0.000177539408702021 0.0 0.00022078400978958745 0.0 0.0
-3.5009670252827974e-05 4.8324231244456506e-05 0.0 -3.411052782031909e-05 0.0 0.0
-1.1940476011940149e-05 4.361055794144253e-05 0.0 -0.0001162440955025934 0.0 0.0
-7.418689495425346e-05 0.0001060128464039356 0.0 1.7990182209604022e-05 0.0 0.0
4.688889481047065e-06 -7.206746780022769e-05 0.0 0.000299775081041731 0.0 0.0
-4.534686203983007e-06 -5.0732135975839476e-05 0.0 -0.0002501928835397238 0.0 0.0
-7.3558594074985e-05 8.317720089290326e-05 0.0 -5.586166014248661e-05 0.0 0.0
-3.103833606682427e-05 4.744171776571715e-05 0.0 0.00010328075896393063 0.0 0.0
-5.428204445906415e-05 6.309944085969299e-05 0.0 8.234988234395724e-05 0.0 0.0
-0.00030757002394987687 0.00026716322196618236 0.0 -0.00016754362131971012 0.0 0.0
-0.0012918836220011665 0.0010799097140474778 0.0 -0.0009631127976129639 0.0 0.0
-0.0037114615303162624 0.0032662711280124768 0.0 -0.0027292361473917337 0.0 0.0
-0.007993008758689746 0.007373428803379767 0.0 -0.005681659867092459 0.0 0.0
-0.014110700659269892 0.013382695893456642 0.0 -0.00964975825914205 0.0 0.0
-0.021760221550917835 0.020959467650933927 0.0 -0.014104188916469695 0.0 0.0
-0.03064795556625538 0.029787966267364574 0.0 -0.0185730937780465 0.0 0.0
-0.04058704890975595 0.039676743023699945 0.0 -0.022843928768242372 0.0 0.0
-0.05148596722432608 0.0505314758328419 0.0 -0.026919176501673525 0.0 0.0
-0.06327096728086357 0.06226639823145419 0.0 -0.030960593664687064 0.0 0.0
-0.07571164170486316 0.0746327975414065 0.0 -0.035416794865734236 0.0 0.0
-0.08815749756785529 0.08696620743348937 0.0 -0.040831660685596516 0.0 0.0
-0.09924949966740826 0.09790924279610191 0.0 -0.04719518580905213 0.0 0.0
-0.10667253845114374 0.10518220293335201 0.0 -0.052927722141470346 0.0 0.0
-0.10703768588439733 0.10547944561815115 0.0 -0.055109608124183085 0.0 0.0
-0.09533044588518177 0.0937559962337069 0.0 -0.053769690452710184 0.0 0.0
-0.09533044588517481 0.09375599623369979 0.0 0.05376969045277402 0.0 0.0
-0.10703768588437196 0.10547944561812628 0.0 0.05510960812426313 0.0 0.0
-0.10667253845109942 0.10518220293330405 0.0 0.052927722141537514 0.0 0.0
-0.09924949966734833 0.09790924279603175 0.0 0.047195185809065676 0.0 0.0
-0.0881574975677874 0.08696620743341832 0.0 0.04083166068558575 0.0 0.0
-0.07571164170479189 0.07463279754133811 0.0 0.035416794865714696 0.0 0.0
-0.0632709672807909 0.062266398231378695 0.0 0.030960593664668856 0.0 0.0
-0.05148596722425548 0.050531475832768624 0.0 0.026919176501646547 0.0 0.0
-0.04058704890968731 0.03967674302363022 0.0 0.02284392876821051 0.0 0.0
-0.030647955566194804 0.029787966267304622 0.0 0.01857309377800692 0.0 0.0
-0.02176022155086503 0.020959467650891295 0.0 0.014104188916433391 0.0 0.0
-0.014110700659231118 0.01338269589342067 0.0 0.009649758259114183 0.0 0.0
-0.007993008758662504 0.007373428803354898 0.0 0.005681659867070699 0.0 0.0
-0.003711461530301316 0.003266271127999598 0.0 0.0027292361473786886 0.0 0.0
-0.0012918836219943663 0.0010799097140425928 0.0 0.000963112797608412 0.0 0.0
-0.0003075700239483642 0.0002671632219632958 0.0 0.00016754362131921052 0.0 0.0
-5.428204445848128e-05 6.309944085802766e-05 0.0 -8.234988234340213e-05 0.0 0.0
-3.1038336067032435e-05 4.744171776427386e-05 0.0 -0.00010328075896320899 0.0 0.0
-7.355859407501275e-05 8.317720089251468e-05 0.0 5.586166014176497e-05 0.0 0.0
-4.534686204121785e-06 -5.0732135975225384e-05 0.0 0.00025019288354050095 0.0 0.0
-1.090397968944723e-05 -3.227249646975405e-05 0.0 -0.00020458637909370747 0.0 0.0
-7.128498220609902e-05 6.421411781243336e-05 0.0 -7.59290486950226e-05 0.0 0.0
-4.3598100216368785e-05 4.453964389217191e-05 0.0 8.818146507527658e-05 0.0 0.0
-6.862386887351857e-05 7.633530585016146e-05 0.0 0.00011012299922308344 0.0 0.0
-0.00043921038259858713 0.00040523585566232256 0.0 -0.00015004585131545012 0.0 0.0
-0.0018414680091460855 0.0016460560266340352 0.0 -0.0009987642646441808 0.0 0.0
-0.005008479438955327 0.004646350056112247 0.0 -0.0028131325677877572 0.0 0.0
-0.010339278489434778 0.009868166702379888 0.0 -0.005796413211256901 0.0 0.0
-0.017762490540115417 0.017226872496359125 0.0 -0.00969283972397772 0.0 0.0
-0.027007134562076818 0.02641990972149122 0.0 -0.01399916186307526 0.0 0.0
-0.03778860280480695 0.037155060812154694 0.0 -0.01833076707523984 0.0 0.0
-0.04988375554033753 0.04921111623698904 0.0 -0.022468541046839263 0.0 0.0
-0.06316085827982848 0.06245693098799521 0.0 -0.02641753187714313 0.0 0.0
-0.07753430739416767 0.07679676008415193 0.0 -0.030286237075907607 0.0 0.0
-0.09278296125026825 0.0919803869628586 0.0 -0.034373951416301285 0.0 0.0
-0.10817871834004683 0.1072451597498274 0.0 -0.039236813424019745 0.0 0.0
-0.12200795605013573 0.12086456057493855 0.0 -0.04518147903659797 0.0 0.0
-0.13122210902407963 0.12986082443754388 0.0 -0.05118072884297953 0.0 0.0
-0.13172338048420756 0.13034853819851033 0.0 -0.055056085189967297 0.0 0.0
-0.11869926793407645 0.1175659864706331 0.0 -0.05810469406337493 0.0 0.0
-0.1186992679340666 0.11756598647062777 0.0 0.05810469406344021 0.0 0.0
-0.1317233804841749 0.13034853819847836 0.0 0.055056085190044235 0.0 0.0
-0.1312221090240264 0.1298608244374897 0.0 0.051180728843040146 0.0 0.0
-0.12200795605006548 0.12086456057486306 0.0 0.04518147903660874 0.0 0.0
-0.10817871833996559 0.10724515974973325 0.0 0.03923681342401064 0.0 0.0
-0.09278296125018193 0.09198038696276623 0.0 0.03437395141628907 0.0 0.0
-0.07753430739408317 0.07679676008406489 0.0 0.030286237075892564 0.0 0.0
-0.06316085827974356 0.06245693098790772 0.0 0.02641753187712198 0.0 0.0
-0.049883755540255786 0.049211116236912655 0.0 0.02246854104681212 0.0 0.0
-0.037788602804733895 0.037155060812084084 0.0 0.01833076707520276 0.0 0.0
-0.027007134562014784 0.026419909721425938 0.0 0.013999161863039733 0.0 0.0
-0.01776249054006772 0.017226872496311607 0.0 0.009692839723952462 0.0 0.0
-0.010339278489401096 0.009868166702353687 0.0 0.005796413211235252 0.0 0.0
-0.005008479438935079 0.00464635005609404 0.0 0.002813132567776877 0.0 0.0
-0.0018414680091368152 0.0016460560266220448 0.0 0.0009987642646385186 0.0 0.0
-0.00043921038259650547 0.0004052358556574376 0.0 0.0001500458513138958 0.0 0.0
-6.862386887269978e-05 7.633530584782999e-05 0.0 -0.00011012299922430469 0.0 0.0
-4.359810021638266e-05 4.45396438916168e-05 0.0 -8.818146507383329e-05 0.0 0.0
-7.128498220627943e-05 6.421411781226682e-05 0.0 7.592904869690997e-05 0.0 0.0
-1.090397968900314e-05 -3.227249647000385e-05 0.0 0.0002045863790943181 0.0 0.0
-1.6703118328298405e-05 -1.6092191098215913e-05 0.0 -0.0001623378434902345 0.0 0.0
-7.091599330599774e-05 5.0189518920884524e-05 0.0 -8.167790301594202e-05 0.0 0.0
-5.328194133574771e-05 3.808719584785791e-05 0.0 6.959536939665778e-05 0.0 0.0
-8.548664711338638e-05 9.435737333451932e-05 0.0 0.00011751521116998287 0.0 0.0
-0.0006321541319265211 0.0006073960800783151 0.0 -0.00014526042134360706 0.0 0.0
-0.0025107078556074747 0.0023663009604752983 0.0 -0.0009874832150550406 0.0 0.0
-0.006446475872780966 0.0062080612703470095 0.0 -0.002729469768317283 0.0 0.0
-0.01277460609662956 0.012488003584275376 0.0 -0.005468205954329952 0.0 0.0
-0.0214599706824678 0.021140378736781873 0.0 -0.008972049901259993 0.0 0.0
-0.03228102648349063 0.03192769168722842 0.0 -0.012877627910665268 0.0 0.0
-0.044943097968652534 0.04455750199767694 0.0 -0.016804756461899273 0.0 0.0
-0.05919347279669801 0.058779192529830215 0.0 -0.02056461755143335 0.0 0.0
-0.0748494443880871 0.07441302090550028 0.0 -0.024175692966797224 0.0 0.0
-0.0917673313830712 0.09130803251877939 0.0 -0.02763927049609216 0.0 0.0
-0.10969269802396281 0.10918181019107287 0.0 -0.031014771825965903 0.0 0.0
-0.12786333008803263 0.1272200783422912 0.0 -0.034676526529495266 0.0 0.0
-0.1443553305234816 0.14345441536426673 0.0 -0.039430894246875514 0.0 0.0
-0.15552421687485055 0.15432598018586052 0.0 -0.04571742606252782 0.0 0.0
-0.15651115347244832 0.15532513951300952 0.0 -0.052595906488426714 0.0 0.0
-0.1426256493928908 0.14200312281689342 0.0 -0.061837007999777316 0.0 0.0
-0.14262564939287828 0.14200312281687477 0.0 0.06183700799983871 0.0 0.0
-0.1565111534724089 0.155325139512974 0.0 0.05259590648850143 0.0 0.0
-0.15552421687478885 0.15432598018580368 0.0 0.045717426062583 0.0 0.0
-0.14435533052340027 0.1434544153641859 0.0 0.03943089424688906 0.0 0.0
-0.12786333008793904 0.12722007834219795 0.0 0.03467652652948705 0.0 0.0
-0.1096926980238612 0.10918181019096629 0.0 0.03101477182595125 0.0 0.0
-0.09176733138297372 0.09130803251867459 0.0 0.027639270496080448 0.0 0.0
-0.0748494443879885 0.07441302090540214 0.0 0.024175692966778017 0.0 0.0
-0.05919347279660382 0.058779192529731183 0.0 0.02056461755140887 0.0 0.0
-0.04494309796856705 0.044557501997594784 0.0 0.016804756461867243 0.0 0.0
-0.03228102648341895 0.03192769168716536 0.0 0.012877627910632516 0.0 0.0
-0.021459970682411594 0.021140378736729026 0.0 0.008972049901241341 0.0 0.0
-0.01277460609658887 0.012488003584240293 0.0 0.005468205954311689 0.0 0.0
-0.006446475872756166 0.006208061270324583 0.0 0.002729469768305459 0.0 0.0
-0.0025107078555953316 0.0023663009604621976 0.0 0.000987483215047824 0.0 0.0
-0.0006321541319231766 0.0006073960800738742 0.0 0.00014526042134360706 0.0 0.0
-8.548664711280352e-05 9.435737333429728e-05 0.0 -0.0001175152111666522 0.0 0.0
-5.328194133552566e-05 3.808719584907916e-05 0.0 -6.959536939671329e-05 0.0 0.0
-7.091599330628917e-05 5.0189518920884524e-05 0.0 8.167790301510935e-05 0.0 0.0
-1.6703118327868194e-05 -1.6092191097728456e-05 0.0 0.0001623378434891798 0.0 0.0
-2.2772518515734586e-05 -2.170689660241365e-06 0.0 -0.00012134282298914556 0.0 0.0
-7.493163652899648e-05 4.184175569998949e-05 0.0 -7.4911750192308e-05 0.0 0.0
-6.418754553888517e-05 3.081566713081241e-05 0.0 4.838794358913434e-05 0.0 0.0
-0.00011686304889146903 0.00012926348903330442 0.0 0.0001001954322760179 0.0 0.0
-0.0009013545406851287 0.0008964279429219957 0.0 -0.00014602240658057042 0.0 0.0
-0.0033000666601439854 0.0032349713886674625 0.0 -0.0009135176934119693 0.0 0.0
-0.007974444688125637 0.007888399911628152 0.0 -0.0023749595027841575 0.0 0.0
-0.015242462698324799 0.015162802446913037 0.0 -0.004611822343171035 0.0 0.0
-0.025160681323059764 0.02507439415172419 0.0 -0.0075079741354182605 0.0 0.0
-0.0375339445070173 0.03743194841520303 0.0 -0.01074909297093718 0.0 0.0
-0.05206418192298179 0.05194355960605046 0.0 -0.014012096080249448 0.0 0.0
-0.06846861490065737 0.06833012855950615 0.0 -0.01713408064237032 0.0 0.0
-0.08650616635175795 0.08635068893492504 0.0 -0.020149151637739227 0.0 0.0
-0.1059314125607051 0.10575608393305291 0.0 -0.02303248779928091 0.0 0.0
-0.12637018620628543 0.1261533184360033 0.0 -0.025549285391549104 0.0 0.0
-0.14701858213088237 0.1466923499364432 0.0 -0.027593884384895295 0.0 0.0
-0.1660315442286936 0.16545865513565428 0.0 -0.03026478806312216 0.0 0.0
-0.17960095174191862 0.17859784087426078 0.0 -0.036393533109394416 0.0 0.0
-0.18176304766324833 0.1807123501326089 0.0 -0.04732776147726603 0.0 0.0
-0.16759561969745387 0.16755488730765133 0.0 -0.06459947880311656 0.0 0.0
-0.16759561969744002 0.1675548873076318 0.0 0.0645994788031633 0.0 0.0
-0.18176304766320164 0.18071235013255915 0.0 0.0473277614773292 0.0 0.0
-0.1796009517418476 0.17859784087418706 0.0 0.03639353310943649 0.0 0.0
-0.1660315442286003 0.16545865513555746 0.0 0.03026478806313526 0.0 0.0
-0.1470185821307754 0.14669234993634817 0.0 0.02759388438488758 0.0 0.0
-0.12637018620617052 0.1261533184359065 0.0 0.025549285391540777 0.0 0.0
-0.10593141256059284 0.10575608393294811 0.0 0.023032487799268475 0.0 0.0
-0.08650616635164614 0.08635068893481801 0.0 0.02014915163772585 0.0 0.0
-0.06846861490055031 0.06833012855940757 0.0 0.017134080642352723 0.0 0.0
-0.052064181922885235 0.051943559605950984 0.0 0.014012096080220582 0.0 0.0
-0.037533944506935805 0.03743194841511066 0.0 0.01074909297090626 0.0 0.0
-0.025160681322995725 0.02507439415165802 0.0 0.00750797413539972 0.0 0.0
-0.015242462698277212 0.015162802446866408 0.0 0.004611822343156158 0.0 0.0
-0.007974444688096681 0.00788839991159862 0.0 0.0023749595027724446 0.0 0.0
-0.0033000666601284284 0.0032349713886521414 0.0 0.0009135176934063627 0.0 0.0
-0.0009013545406801396 0.0008964279429164446 0.0 0.00014602240657973775 0.0 0.0
-0.00011686304889145516 0.0001292634890337485 0.0 -0.00010019543227557381 0.0 0.0
-6.41875455389962e-05 3.081566713081241e-05 0.0 -4.838794358902332e-05 0.0 0.0
-7.493163652926016e-05 4.1841755699711936e-05 0.0 7.491175019175289e-05 0.0 0.0
-2.2772518515047635e-05 -2.170689660936989e-06 0.0 0.00012134282298664756 0.0 0.0
-2.9355234001438024e-05 9.208151527051456e-06 0.0 -7.880948307525948e-05 0.0 0.0
-8.4685082487157e-05 3.922576449066906e-05 0.0 -5.568929609472972e-05 0.0 0.0
-8.156587404184457e-05 2.897964696524369e-05 0.0 2.2095941677291453e-05 0.0 0.0
-0.00018129556746848685 0.00019704250614949181 0.0 5.295367011548535e-05 0.0 0.0
-0.0012571037375527228 0.0012909430318381876 0.0 -0.00014928496815186376 0.0 0.0
-0.004187500341643724 0.0042284545134556595 0.0 -0.0007109002577038726 0.0 0.0
-0.009541292977937654 0.009634230994513437 0.0 -0.00172458373529788 0.0 0.0
-0.017709106704037303 0.01785027995863997 0.0 -0.003267507288696958 0.0 0.0
-0.028819340468411836 0.028982621714353396 0.0 -0.005303999024993122 0.0 0.0
-0.04271859055528909 0.04288349798142299 0.0 -0.0076137296415083044 0.0 0.0
-0.059104598470097525 0.05926394525109391 0.0 -0.009942108619443113 0.0 0.0
-0.07766007204786146 0.07781147878026395 0.0 -0.012170331794926326 0.0 0.0
-0.09807782960105738 0.09821639814706407 0.0 -0.014346284352697691 0.0 0.0
-0.11998081543511308 0.12009587826800594 0.0 -0.016394708675400604 0.0 0.0
-0.1428020978950263 0.14287699485456162 0.0 -0.017979375570677192 0.0 0.0
-0.16560951816050268 0.16559758505539257 0.0 -0.01865448597228836 0.0 0.0
-0.1867382708278173 0.18656962848030023 0.0 -0.018795198113979783 0.0 0.0
-0.20305348529281586 0.20242830081130503 0.0 -0.022618014892884397 0.0 0.0
-0.20792274174430497 0.20678744959746087 0.0 -0.0375751714627921 0.0 0.0
-0.19427349757197876 0.1949355660844736 0.0 -0.06560385908960298 0.0 0.0
-0.1942734975719634 0.19493556608446294 0.0 0.06560385908964161 0.0 0.0
-0.2079227417442521 0.20678744959741202 0.0 0.03757517146284439 0.0 0.0
-0.20305348529273373 0.2024283008112322 0.0 0.02261801489291304 0.0 0.0
-0.1867382708277118 0.18656962848019365 0.0 0.018795198113984835 0.0 0.0
-0.16560951816038066 0.16559758505526734 0.0 0.018654485972281865 0.0 0.0
-0.14280209789489923 0.1428769948544364 0.0 0.017979375570674694 0.0 0.0
-0.11998081543498636 0.12009587826787449 0.0 0.016394708675391 0.0 0.0
-0.0980778296009317 0.0982163981469335 0.0 0.014346284352688865 0.0 0.0
-0.07766007204774195 0.07781147878013961 0.0 0.012170331794916056 0.0 0.0
-0.05910459846998999 0.059263945250985994 0.0 0.009942108619426016 0.0 0.0
-0.042718590555199026 0.042883497981330176 0.0 0.007613729641492095 0.0 0.0
-0.02881934046834029 0.028982621714279233 0.0 0.005303999024983963 0.0 0.0
-0.0177091067039842 0.017850279958587123 0.0 0.0032675072886872436 0.0 0.0
-0.009541292977903869 0.009634230994478354 0.0 0.001724583735290719 0.0 0.0
-0.004187500341625083 0.004228454513433455 0.0 0.0007109002577009305 0.0 0.0
-0.0012571037375462453 0.0012909430318308601 0.0 0.00014928496815080905 0.0 0.0
-0.0001812955674679144 0.00019704250615026897 0.0 -5.295367011443064e-05 0.0 0.0
-8.15658740418515e-05 2.89796469657988e-05 0.0 -2.209594167762452e-05 0.0 0.0
-8.468508248718823e-05 3.922576449044701e-05 0.0 5.5689296094285634e-05 0.0 0.0
-2.9355234000980057e-05 9.208151527016761e-06 0.0 7.880948307675828e-05 0.0 0.0
-3.6644993351042654e-05 1.749357629288184e-05 0.0 -3.1781983011514026e-05 0.0 0.0
-9.993702059835075e-05 4.1844762276532776e-05 0.0 -2.2561278155308617e-05 0.0 0.0
-0.00011454578794972692 4.282917726983193e-05 0.0 -1.1006862209839152e-05 0.0 0.0
-0.0003004303759666649 0.00032648947535385275 0.0 -2.5877970475929324e-05 0.0 0.0
-0.0016977009983227265 0.0017868922309145496 0.0 -0.00012055052335907535 0.0 0.0
-0.005135037665563225 0.00530225075633961 0.0 -0.00034921016835021135 0.0 0.0
-0.01112360304225124 0.011408136815910463 0.0 -0.0007710704599673268 0.0 0.0
-0.020134823245085365 0.020510892372120004 0.0 -0.00143831660636351 0.0 0.0
-0.032390004375231485 0.0328164610933106 0.0 -0.002368384539743529 0.0 0.0
-0.047785681103017785 0.048232076007793445 0.0 -0.003464424021373036 0.0 0.0
-0.06601822737895696 0.06647118761715953 0.0 -0.004588757066206539 0.0 0.0
-0.08672176308256918 0.08717481161163132 0.0 -0.005677413467913062 0.0 0.0
-0.10949894676286143 0.10994359633418194 0.0 -0.006724867864392636 0.0 0.0
-0.13384678633563063 0.13426650245703264 0.0 -0.007646640196489418 0.0 0.0
-0.15900138914674478 0.15937076389993354 0.0 -0.00823076278998136 0.0 0.0
-0.18379044766932823 0.18408926745557075 0.0 -0.008064572722491281 0.0 0.0
-0.2065156719682137 0.2066780435546125 0.0 -0.00686831653961506 0.0 0.0
-0.2248456436718687 0.22492115701999182 0.0 -0.00619797207713102 0.0 0.0
-0.23426810840282422 0.23310300458727973 0.0 -0.018694924420964987 0.0 0.0
-0.22460688571193604 0.22584201150981897 0.0 -0.059654058096494156 0.0 0.0
-0.22460688571191842 0.22584201150979766 0.0 0.059654058096511364 0.0 0.0
-0.2342681084027664 0.23310300458722732 0.0 0.01869492442099241 0.0 0.0
-0.2248456436717753 0.224921157019903 0.0 0.006197972077143232 0.0 0.0
-0.20651567196809317 0.20667804355448371 0.0 0.0068683165396085655 0.0 0.0
-0.18379044766919134 0.18408926745542686 0.0 0.008064572722490448 0.0 0.0
-0.1590013891466046 0.15937076389978788 0.0 0.008230762789980306 0.0 0.0
-0.13384678633549008 0.1342665024568923 0.0 0.007646640196485088 0.0 0.0
-0.10949894676272175 0.10994359633404249 0.0 0.006724867864387807 0.0 0.0
-0.08672176308243676 0.08717481161149987 0.0 0.0056774134679095645 0.0 0.0
-0.06601822737883822 0.06647118761703963 0.0 0.004588757066193827 0.0 0.0
-0.04778568110291931 0.048232076007695746 0.0 0.00346442402135938 0.0 0.0
-0.03239000437515317 0.032816461093235105 0.0 0.002368384539737478 0.0 0.0
-0.020134823245026873 0.020510892372064493 0.0 0.001438316606358958 0.0 0.0
-0.011123603042211995 0.011408136815873382 0.0 0.0007710704599643847 0.0 0.0
-0.0051350376655420905 0.005302250756315852 0.0 0.0003492101683489346 0.0 0.0
-0.0016977009983140893 0.0017868922309052238 0.0 0.00012055052335879779 0.0 0.0
-0.0003004303759648226 0.0003264894753516323 0.0 2.5877970478038748e-05 0.0 0.0
-0.00011454578794979457 4.2829177269498864e-05 0.0 1.100686221067182e-05 0.0 0.0
-9.993702059771757e-05 4.18447622756446e-05 0.0 2.2561278156696396e-05 0.0 0.0
-3.664499335126643e-05 1.749357629322705e-05 0.0 3.1781983013345894e-05 0.0 0.0
SCALARS Statev float 8
LOOKUP_TABLE default
0.0 0.01554729436711625 0.012022537133529687 -0.012381876349724638 0.00035933921619495443 -0.006983068740074249 0.0 0.0
0.0 0.001206870772408705 0.0008911563331864164 -0.0007828076123321645 -0.00010834872085425167 0.0007427931421089278 0.0 0.0
0.0 5.0563385571955986e-05 1.15474015553007e-05 -8.680324647127156e-06 -2.8670769081735762e-06 -9.669583209313295e-07 0.0 0.0
0.0 0.0005081857617468635 0.0004114197885509135 -0.0003295467460600703 -8.187304249084341e-05 -5.992646070953851e-05 0.0 0.0
0.0 0.002426490741846607 0.002046298978199016 -0.001746521556018864 -0.0002997774221801517 -0.00021900725471670813 0.0 0.0
0.0 0.006422459520544457 0.005749813082707003 -0.0052191086862558664 -0.0005307043964511379 -0.00047059768386061295 0.0 0.0
0.0 0.01359398180068859 0.011997486127303298 -0.011330391475324792 -0.0006670946519784997 -0.0008666664849256141 0.0 0.0
0.0 0.02426173484169087 0.021252598987739145 -0.020481751311517537 -0.0007708476762216043 -0.0014932948605966808 0.0 0.0
0.0 0.038666987548278964 0.033726500782722414 -0.03284807364028972 -0.0008784271424326906 -0.002382625693696869 0.0 0.0
0.0 0.056720086075917095 0.04933697141208015 -0.04834221468066102 -0.0009947567314191259 -0.00345351014409892 0.0 0.0
0.0 0.07812612305771585 0.06780774699566436 -0.06669203960786066 -0.0011157073878036985 -0.0045699992923930455 0.0 0.0
0.0 0.10220066469709815 0.08879447143959478 -0.0875558266780214 -0.001238644761573361 -0.005656477799561344 0.0 0.0
0.0 0.12882534261578255 0.11192750042598254 -0.11056433342500066 -0.0013631670009817743 -0.006712983231612472 0.0 0.0
0.0 0.1575045058114411 0.13678038883927998 -0.13528958304556818 -0.0014908057937117252 -0.007713727597596304 0.0 0.0
0.0 0.18748620180083886 0.16275794165974386 -0.16113551248679248 -0.0016224291729512541 -0.008583929428415371 0.0 0.0
0.0 0.2177904796319044 0.1889828342988995 -0.1872265987616115 -0.0017562355372880644 -0.009135813657102152 0.0 0.0
0.0 0.24700661078520456 0.21426343743775106 -0.2123757986295535 -0.0018876388081976343 -0.009094091302761145 0.0 0.0
0.0 0.27342770735624305 0.23713689006137037 -0.23512364677451872 -0.002013243286851505 -0.008296739197272767 0.0 0.0
0.0 0.295059254561991 0.2558638104686874 -0.2537267729243539 -0.0021370375443334473 -0.007436521392660976 0.0 0.0
0.0 0.30846188995508333 0.2675851014223148 -0.2652318981063593 -0.0023532033159555563 -0.009804599018218504 0.0 0.0
0.0 0.308461889955065 0.26758510142229874 -0.2652318981063433 -0.0023532033159555116 0.009804599018229162 0.0 0.0
0.0 0.29505925456192894 0.2558638104686331 -0.2537267729243 -0.002137037544332967 0.007436521392695365 0.0 0.0
0.0 0.2734277073561344 0.237136890061276 -0.2351236467744252 -0.002013243286850705 0.008296739197291444 0.0 0.0
0.0 0.24700661078506733 0.21426343743763204 -0.2123757986294351 -0.0018876388081969678 0.009094091302766439 0.0 0.0
0.0 0.21779047963175954 0.18898283429877372 -0.1872265987614871 -0.0017562355372867074 0.009135813657089164 0.0 0.0
0.0 0.1874862018006892 0.1627579416596136 -0.16113551248666363 -0.0016224291729499871 0.00858392942841317 0.0 0.0
0.0 0.15750450581128436 0.13678038883914445 -0.1352895830454325 -0.0014908057937119009 0.007713727597596138 0.0 0.0
0.0 0.12882534261562978 0.11192750042585002 -0.11056433342486899 -0.001363167000981027 0.006712983231611357 0.0 0.0
0.0 0.1022006646969508 0.08879447143946699 -0.08755582667789444 -0.0012386447615725044 0.005656477799551127 0.0 0.0
0.0 0.0781261230575831 0.06780774699554909 -0.06669203960774586 -0.0011157073878032475 0.004569999292383894 0.0 0.0
0.0 0.05672008607580925 0.04933697141198684 -0.048342214680568374 -0.0009947567314184688 0.0034535101440846443 0.0 0.0
0.0 0.038666987548198396 0.0337265007826519 -0.03284807364021998 -0.0008784271424319436 0.0023826256936940204 0.0 0.0
0.0 0.024261734841630266 0.021252598987685594 -0.02048175131146486 -0.0007708476762207327 0.0014932948605925719 0.0 0.0
0.0 0.013593981800646431 0.011997486127265894 -0.011330391475288104 -0.000667094651977783 0.0008666664849229469 0.0 0.0
0.0 0.00642245952052083 0.005749813082685715 -0.005219108686235344 -0.0005307043964503732 0.00047059768385836664 0.0 0.0
0.0 0.0024264907418370023 0.0020462989781910197 -0.001746521556011622 -0.00029977742217939744 0.00021900725471575862 0.0 0.0
0.0 0.0005081857617444865 0.00041141978854967835 -0.00032954674605906837 -8.187304249060982e-05 5.992646070939994e-05 0.0 0.0
0.0 5.0563385571288246e-05 1.1547401555232679e-05 -8.680324647076815e-06 -2.8670769081558174e-06 9.669583209222681e-07 0.0 0.0
0.0 0.0012068707724044358 0.0008911563331837155 -0.0007828076123297143 -0.00010834872085400175 -0.0007427931421063103 0.0 0.0
0.0 0.015547294367096015 0.012022537133517476 -0.012381876349711652 0.00035933921619416947 0.006983068740040507 0.0 0.0
0.0 0.011746832640040185 0.008570914980513197 -0.009069797749440781 0.0004988827689275859 -0.008251354947439385 0.0 0.0
0.0 5.3581167244729175e-05 4.364367968037182e-05 -4.041592451647227e-05 -3.2277551638995337e-06 2.786150168905686e-05 0.0 0.0
0.0 1.3453383311279895e-06 7.275157058461782e-07 -5.513810081952868e-07 -1.7613469765089312e-07 -2.510914050226022e-07 0.0 0.0
0.0 0.0002390595955999965 0.00019156247638615315 -0.00015188096723249675 -3.9681509153656494e-05 -6.529536345731937e-05 0.0 0.0
0.0 0.0017003127345244157 0.0013993019093692279 -0.001174644792353846 -0.00022465711701538226 -0.0003697793118658755 0.0 0.0
0.0 0.005068023785905881 0.004539193433335332 -0.004062980410516669 -0.0004762130228186616 -0.0009815499885216501 0.0 0.0
0.0 0.011447120790127083 0.010087745935035182 -0.00944943997412926 -0.0006383059609059195 -0.0019718075484782705 0.0 0.0
0.0 0.02109589770076531 0.01843487264970928 -0.01768517027475575 -0.000749702374953541 -0.0034403795831584867 0.0 0.0
0.0 0.03414178352497477 0.029708475151574244 -0.028852728376550448 -0.0008557467750237844 -0.005406258543683843 0.0 0.0
0.0 0.050429460247336834 0.04377332678198052 -0.0428073097147599 -0.0009660170672206115 -0.007682793761683944 0.0 0.0
0.0 0.06963861328354184 0.06035427570939116 -0.05927600330613325 -0.0010782724032578938 -0.010015922327001658 0.0 0.0
0.0 0.09146775637984954 0.07915435867249179 -0.0779629505096581 -0.0011914081628336497 -0.012263069197626795 0.0 0.0
0.0 0.11528385081522549 0.09988050506696992 -0.09857442446225756 -0.0013060806047123519 -0.014461929138469718 0.0 0.0
0.0 0.14096979159377723 0.12217258821218055 -0.12074961377250318 -0.0014229744396774197 -0.016586299257721242 0.0 0.0
0.0 0.16793163988304388 0.14552176177999326 -0.14397944517126474 -0.001542316608728526 -0.01845803743391003 0.0 0.0
0.0 0.1952351170352238 0.16918856002486543 -0.1675252144737252 -0.001663345551140219 -0.01972029080443108 0.0 0.0
0.0 0.22169792156776402 0.19214106681495127 -0.19035607553442951 -0.0017849912805217817 -0.01987980735535491 0.0 0.0
0.0 0.24574735076205867 0.2130004208372395 -0.2110917823328553 -0.001908638504384073 -0.018752698515486454 0.0 0.0
0.0 0.26511732458670123 0.2298118006205757 -0.22775908173055076 -0.002052718890024827 -0.016939625217234532 0.0 0.0
0.0 0.2767247778997233 0.23990999649782824 -0.2377473008862442 -0.00216269561158408 -0.014307807897664454 0.0 0.0
0.0 0.2767247778997033 0.2399099964978105 -0.23774730088622636 -0.002162695611584296 0.01430780789769584 0.0 0.0
0.0 0.26511732458664183 0.22981180062052367 -0.22775908173049783 -0.00205271889002582 0.016939625217291025 0.0 0.0
0.0 0.24574735076196708 0.2130004208371592 -0.21109178233277553 -0.001908638504383542 0.01875269851552342 0.0 0.0
0.0 0.2216979215676484 0.19214106681485058 -0.1903560755343297 -0.001784991280520664 0.01987980735536992 0.0 0.0
0.0 0.19523511703509133 0.16918856002475074 -0.16752521447361166 -0.001663345551138938 0.01972029080441735 0.0 0.0
0.0 0.16793163988290816 0.14552176177987508 -0.14397944517114808 -0.001542316608726945 0.01845803743390448 0.0 0.0
0.0 0.1409697915936393 0.12217258821206091 -0.12074961377238419 -0.0014229744396766458 0.016586299257717523 0.0 0.0
0.0 0.11528385081508585 0.09988050506684892 -0.09857442446213704 -0.0013060806047118481 0.014461929138463343 0.0 0.0
0.0 0.09146775637972254 0.07915435867238171 -0.07796295050954882 -0.001191408162832829 0.012263069197610235 0.0 0.0
0.0 0.06963861328342556 0.06035427570929065 -0.059276003306032964 -0.001078272403257674 0.010015922326986263 0.0 0.0
0.0 0.0504294602472392 0.04377332678189623 -0.04280730971467571 -0.0009660170672204963 0.00768279376166305 0.0 0.0
0.0 0.03414178352490113 0.02970847515150979 -0.02885272837648634 -0.0008557467750234318 0.0054062585436752825 0.0 0.0
0.0 0.02109589770071254 0.01843487264966317 -0.017685170274710067 -0.0007497023749531016 0.0034403795831490043 0.0 0.0
0.0 0.011447120790092979 0.010087745935005003 -0.009449439974099638 -0.0006383059609053551 0.0019718075484722437 0.0 0.0
0.0 0.005068023785885687 0.0045391934333176755 -0.0040629804104998545 -0.000476213022817821 0.0009815499885175794 0.0 0.0
0.0 0.0017003127345158854 0.001399301909362522 -0.0011746447923478365 -0.0002246571170146855 0.0003697793118640006 0.0 0.0
0.0 0.0002390595955982758 0.00019156247638521572 -0.00015188096723172659 -3.9681509153489025e-05 6.529536345703654e-05 0.0 0.0
0.0 1.3453383309733704e-06 7.275157059100347e-07 -5.513810082413796e-07 -1.7613469766865715e-07 2.5109140503179367e-07 0.0 0.0
0.0 5.358116724428095e-05 4.364367968032591e-05 -4.0415924516369715e-05 -3.227755163956189e-06 -2.7861501688930236e-05 0.0 0.0
0.0 0.011746832640016983 0.008570914980498064 -0.00906979774942504 0.0004988827689269676 0.008251354947410815 0.0 0.0
0.0 0.00906078451483077 0.00627240506307373 -0.006813394344519932 0.0005409892814462004 -0.007361395790437948 0.0 0.0
0.0 0.0 0.0 0.0 0.0 0.0 0.0 0.0
0.0 0.0 0.0 0.0 0.0 0.0 0.0 0.0
0.0 7.048674650263758e-05 6.0265290455165195e-05 -4.741790148397223e-05 -1.2847388971192985e-05 -3.764821070367689e-05 0.0 0.0
0.0 0.0010507980968357305 0.0008737756316989316 -0.0007214906969647397 -0.00015228493473419132 -0.0004060589996141272 0.0 0.0
0.0 0.003987294854247364 0.003394112458670538 -0.0029888746114277867 -0.00040523784724275037 -0.0012628334604604004 0.0 0.0
0.0 0.009371753990937861 0.008211312622934338 -0.007610138282638584 -0.0006011743402957553 -0.0027148813341328504 0.0 0.0
0.0 0.01795402601129442 0.015598275371951595 -0.014875529655101532 -0.0007227457168500521 -0.004863620689445515 0.0 0.0
0.0 0.029629579732418324 0.02562366153780153 -0.024795368669568614 -0.0008282928682329233 -0.007668824144700808 0.0 0.0
0.0 0.04415731276750209 0.0381118031928865 -0.03717945747160885 -0.0009323457212776507 -0.010868458638751776 0.0 0.0
0.0 0.06123923506364747 0.05278996422887884 -0.05175380231947553 -0.0010361619094033012 -0.014145537918981675 0.0 0.0
0.0 0.08048304933412317 0.06939942050637472 -0.06825937141731517 -0.0011400490890595546 -0.01731829716706294 0.0 0.0
0.0 0.10178134960906593 0.08769843083324486 -0.08645377469355807 -0.0012446561396867797 -0.020403908957764293 0.0 0.0
0.0 0.12447307505255083 0.1074071988037639 -0.10605689649187015 -0.0013503023118936798 -0.02339862938590838 0.0 0.0
0.0 0.14836247588319984 0.12812113185027704 -0.12666415842195192 -0.0014569734283251317 -0.02608657674350876 0.0 0.0
0.0 0.17274032171957554 0.1492444234411382 -0.14767884846518128 -0.0015655749759569755 -0.027992182240348974 0.0 0.0
0.0 0.1965043277927649 0.16989511344732997 -0.16821675213638768 -0.0016783613109422747 -0.028536568211875203 0.0 0.0
0.0 0.21813191756752173 0.18875272308027916 -0.18695176705454083 -0.0018009560257383431 -0.02736265322812291 0.0 0.0
0.0 0.23548471361406384 0.20393988491882645 -0.2020191247070584 -0.0019207602117679362 -0.023997066823628385 0.0 0.0
0.0 0.24615554632681766 0.21337450418823023 -0.21136569516804563 -0.0020088090201843987 -0.017339374546672164 0.0 0.0
0.0 0.2461555463267946 0.2133745041882096 -0.21136569516802461 -0.002008809020185039 0.01733937454672053 0.0 0.0
0.0 0.23548471361400466 0.20393988491877318 -0.20201912470700473 -0.0019207602117685813 0.02399706682370141 0.0 0.0
0.0 0.21813191756743094 0.1887527230801996 -0.18695176705445957 -0.0018009560257398222 0.02736265322817328 0.0 0.0
0.0 0.19650432779266294 0.1698951134472406 -0.1682167521362985 -0.0016783613109423454 0.028536568211896367 0.0 0.0
0.0 0.17274032171945258 0.14924442344103223 -0.14767884846507517 -0.0015655749759569335 0.027992182240336762 0.0 0.0
0.0 0.14836247588306703 0.1281211318501624 -0.12666415842183693 -0.0014569734283254889 0.02608657674349867 0.0 0.0
0.0 0.12447307505242479 0.10740719880365443 -0.1060568964917613 -0.001350302311893108 0.023398629385901246 0.0 0.0
0.0 0.10178134960894336 0.08769843083313852 -0.08645377469345228 -0.0012446561396862105 0.020403908957754853 0.0 0.0
0.0 0.08048304933401002 0.06939942050627712 -0.06825937141721848 -0.001140049089058689 0.01731829716704086 0.0 0.0
0.0 0.06123923506354757 0.05278996422879208 -0.05175380231938981 -0.0010361619094022246 0.014145537918960869 0.0 0.0
0.0 0.04415731276741901 0.0381118031928147 -0.03717945747153789 -0.0009323457212767846 0.010868458638726087 0.0 0.0
0.0 0.02962957973235199 0.02562366153774381 -0.024795368669511673 -0.0008282928682321322 0.007668824144685904 0.0 0.0
0.0 0.017954026011245468 0.01559827537190897 -0.014875529655059538 -0.000722745716849422 0.0048636206894323766 0.0 0.0
0.0 0.009371753990906194 0.00821131262290671 -0.0076101382826115095 -0.0006011743402951949 0.002714881334124026 0.0 0.0
0.0 0.003987294854231464 0.003394112458657309 -0.002988874611415501 -0.0004052378472418078 0.0012628334604549768 0.0 0.0
0.0 0.0010507980968279917 0.0008737756316927332 -0.000721490696959474 -0.0001522849347332591 0.00040605899961133614 0.0 0.0
0.0 7.04867465015336e-05 6.0265290454719365e-05 -4.741790148360548e-05 -1.2847388971113932e-05 3.764821070334604e-05 0.0 0.0
0.0 0.0 0.0 0.0 0.0 0.0 0.0 0.0
0.0 0.0 0.0 0.0 0.0 0.0 0.0 0.0
0.0 0.009060784514809617 0.00627240506305929 -0.006813394344504944 0.0005409892814456477 0.00736139579041397 0.0 0.0
0.0 0.0069136268985585244 0.00460397522816009 -0.005127752399542566 0.0005237771713824757 -0.005919014296920579 0.0 0.0
0.0 0.0 0.0 0.0 0.0 0.0 0.0 0.0
0.0 0.0 0.0 0.0 0.0 0.0 0.0 0.0
0.0 1.5304093985500946e-05 1.0292112196471702e-05 -8.091747102036819e-06 -2.200365094434866e-06 -1.0643244142734739e-05 0.0 0.0
0.0 0.0005827679783041219 0.0004742287289711956 -0.0003863805018077431 -8.78482271634522e-05 -0.00034928467814632273 0.0 0.0
0.0 0.002866032426459855 0.0023817770192176776 -0.0020591236013851183 -0.0003226534178325596 -0.0013392821709714542 0.0 0.0
0.0 0.00743915910225279 0.006394304658827783 -0.0058465476767632025 -0.0005477569820645798 -0.003103126520343907 0.0 0.0
0.0 0.0148721344323492 0.012781624794341782 -0.012092467030980946 -0.0006891577633608346 -0.005756097052462985 0.0 0.0
0.0 0.025137675490592218 0.021520157481870215 -0.02072527749247233 -0.000794879989397891 -0.009162387392484298 0.0 0.0
0.0 0.037884118601663144 0.032404958987023516 -0.03151161594752601 -0.0008933430394974618 -0.013019123793635554 0.0 0.0
0.0 0.05280732658355446 0.045164666653570114 -0.044175538109795756 -0.0009891285437743486 -0.01696403134373097 0.0 0.0
0.0 0.06962124583682165 0.059571428073443594 -0.058487537482100296 -0.001083890591343298 -0.020809208627510203 0.0 0.0
0.0 0.08808577474221885 0.07543648650001189 -0.07425813275358767 -0.0011783537464242016 -0.024563493300322373 0.0 0.0
0.0 0.10799391881400218 0.09254666087732022 -0.09127370941453936 -0.0012729514627808636 -0.028171935251778725 0.0 0.0
0.0 0.12894998344522113 0.11060314952478412 -0.10923616147786351 -0.001366988046920588 -0.031431435671378495 0.0 0.0
0.0 0.15020038203996935 0.12915872085781155 -0.12769579591668523 -0.001462924941126299 -0.033911506082890175 0.0 0.0
0.0 0.17127192519915607 0.14748401739679537 -0.14591792661519465 -0.001566090781600642 -0.0349553945771277 0.0 0.0
0.0 0.19061008114141725 0.1644138322816348 -0.16273741770844752 -0.0016764145731871865 -0.033790907810025556 0.0 0.0
0.0 0.20633330593027918 0.17833097323820926 -0.17654874089020076 -0.0017822323480084807 -0.02921512058441499 0.0 0.0
0.0 0.21647720778405316 0.18749569046550307 -0.18563438902922916 -0.0018613014362740604 -0.019752088807804248 0.0 0.0
0.0 0.21647720778404217 0.18749569046549142 -0.18563438902921853 -0.0018613014362730245 0.019752088807869557 0.0 0.0
0.0 0.20633330593024796 0.17833097323817745 -0.1765487408901712 -0.0017822323480061533 0.029215120584499994 0.0 0.0
0.0 0.19061008114136158 0.1644138322815818 -0.16273741770839772 -0.0016764145731839575 0.03379090781008668 0.0 0.0
0.0 0.17127192519907067 0.14748401739671876 -0.14591792661512032 -0.0015660907815984253 0.03495539457715212 0.0 0.0
0.0 0.15020038203986866 0.12915872085772406 -0.12769579591659874 -0.0014629249411253187 0.033911506082880793 0.0 0.0
0.0 0.12894998344511444 0.11060314952469182 -0.10923616147777195 -0.0013669880469197987 0.03143143567136453 0.0 0.0
0.0 0.10799391881390019 0.09254666087723139 -0.09127370941445156 -0.0012729514627798442 0.028171935251768518 0.0 0.0
0.0 0.08808577474211751 0.07543648649992331 -0.07425813275350053 -0.00117835374642279 0.0245634933003109 0.0 0.0
0.0 0.06962124583671925 0.059571428073355685 -0.05848753748201248 -0.0010838905913432076 0.02080920862748316 0.0 0.0
0.0 0.05280732658346279 0.04516466665349147 -0.04417553810971726 -0.0009891285437741806 0.016964031343703733 0.0 0.0
0.0 0.03788411860158449 0.032404958986956736 -0.03151161594745978 -0.0008933430394969307 0.01301912379360337 0.0 0.0
0.0 0.025137675490531624 0.02152015748181829 -0.02072527749242066 -0.00079487998939763 0.009162387392464104 0.0 0.0
0.0 0.014872134432304271 0.012781624794303396 -0.012092467030942874 -0.0006891577633605171 0.00575609705244568 0.0 0.0
0.0 0.0074391591022254285 0.006394304658804656 -0.005846547676740643 -0.0005477569820640105 0.0031031265203332508 0.0 0.0
0.0 0.002866032426444503 0.002381777019205594 -0.0020591236013740603 -0.00032265341783153326 0.0013392821709645854 0.0 0.0
0.0 0.0005827679782991304 0.0004742287289677443 -0.0003863805018048643 -8.784822716287991e-05 0.0003492846781440342 0.0 0.0
0.0 1.5304093984764315e-05 1.0292112196498691e-05 -8.09174710205178e-06 -2.200365094446904e-06 1.0643244142737046e-05 0.0 0.0
0.0 0.0 0.0 0.0 0.0 0.0 0.0 0.0
0.0 0.0 0.0 0.0 0.0 0.0 0.0 0.0
0.0 0.006913626898539814 0.004603975228147611 -0.005127752399529498 0.0005237771713818849 0.005919014296901561 0.0 0.0
0.0 0.005129981045941311 0.003303332046451563 -0.003773596096374166 0.00047026404992260394 -0.004481162044384743 0.0 0.0
0.0 0.0 0.0 0.0 0.0 0.0 0.0 0.0
0.0 0.0 0.0 0.0 0.0 0.0 0.0 0.0
0.0 2.836769569875827e-06 1.8257890150720321e-06 -1.4120534258927208e-06 -4.137355891793109e-07 -2.750411581827901e-06 0.0 0.0
0.0 0.00028162141662452266 0.00021248718397272592 -0.0001717170023323344 -4.077018164039152e-05 -0.00023917891708234287 0.0 0.0
0.0 0.0018995851379438173 0.001528098481539956 -0.0012960206199563048 -0.0002320778615836509 -0.0012560604781181942 0.0 0.0
0.0 0.005720281293323896 0.004688746837052828 -0.004213334247868159 -0.00047541258918466756 -0.003150040917674936 0.0 0.0
0.0 0.011926759188960622 0.010020633465487467 -0.009376776572824586 -0.0006438568926628778 -0.006076928325469559 0.0 0.0
0.0 0.0206946350157223 0.017444869203251834 -0.016690289289538907 -0.0007545799137129387 -0.009882371741971412 0.0 0.0
0.0 0.031648982330999914 0.026703645600023675 -0.0258554158348483 -0.0008482297651753706 -0.014136234142818695 0.0 0.0
0.0 0.044414618415458115 0.03752988405374527 -0.0365933690115859 -0.0009365150421593888 -0.018484550680155632 0.0 0.0
0.0 0.05872557743088472 0.04972300679284053 -0.04870098377655951 -0.0010220230162810012 -0.022734292329218156 0.0 0.0
0.0 0.07449493294145579 0.06314402708410416 -0.06203763946901614 -0.0011063876150880308 -0.0268920364448365 0.0 0.0
0.0 0.09134847327019867 0.07765002005390026 -0.07646003874599189 -0.0011899813079083877 -0.030904288878331108 0.0 0.0
0.0 0.10925478561931062 0.09302827727775771 -0.09175603571652091 -0.0012722415612367753 -0.034537373676306285 0.0 0.0
0.0 0.1278068629710451 0.10895845127579955 -0.10760303414488523 -0.00135541713091421 -0.037411483349637356 0.0 0.0
0.0 0.14599634336491263 0.1249078970669103 -0.12346371535187485 -0.0014441817150354231 -0.03892325992728867 0.0 0.0
0.0 0.1630658439662358 0.13997673078692463 -0.13843614701273876 -0.001540583774185748 -0.03800402616865336 0.0 0.0
0.0 0.17741971878811794 0.15284250813535066 -0.15120640087580467 -0.001636107259545917 -0.032878790353646985 0.0 0.0
0.0 0.1873188298394753 0.16198750066031636 -0.1602740852477261 -0.0017134154125900203 -0.021737770543464145 0.0 0.0
0.0 0.18731882983946396 0.16198750066030404 -0.16027408524771408 -0.00171341541258983 0.021737770543533895 0.0 0.0
0.0 0.17741971878807972 0.15284250813531303 -0.1512064008757662 -0.0016361072595468256 0.032878790353737156 0.0 0.0
0.0 0.16306584396617602 0.13997673078686837 -0.13843614701268175 -0.0015405837741865674 0.038004026168721686 0.0 0.0
0.0 0.14599634336483586 0.12490789706684144 -0.12346371535180597 -0.001444181715035435 0.038923259927314394 0.0 0.0
0.0 0.1278068629709565 0.10895845127572269 -0.1076030341448087 -0.0013554171309140303 0.03741148334962784 0.0 0.0
0.0 0.1092547856192217 0.09302827727768019 -0.09175603571644518 -0.0012722415612350909 0.034537373676291706 0.0 0.0
0.0 0.09134847327010806 0.07765002005382132 -0.07646003874591412 -0.0011899813079072601 0.03090428887831836 0.0 0.0
0.0 0.07449493294136826 0.06314402708402819 -0.06203763946894025 -0.0011063876150878764 0.026892036444822347 0.0 0.0
0.0 0.05872557743079784 0.04972300679276628 -0.04870098377648581 -0.0010220230162804435 0.02273429232918959 0.0 0.0
0.0 0.0444146184153839 0.03752988405368216 -0.036593369011523554 -0.0009365150421586105 0.018484550680125833 0.0 0.0
0.0 0.031648982330934564 0.0267036455999694 -0.025855415834794625 -0.0008482297651747961 0.014136234142784178 0.0 0.0
0.0 0.020694635015671783 0.017444869203209354 -0.016690289289496566 -0.0007545799137127801 0.009882371741948615 0.0 0.0
0.0 0.011926759188925362 0.010020633465458065 -0.0093767765727959 -0.000643856892662164 0.006076928325452404 0.0 0.0
0.0 0.005720281293300688 0.004688746837033993 -0.004213334247850199 -0.00047541258918379554 0.0031500409176633496 0.0 0.0
0.0 0.0018995851379324537 0.0015280984815312535 -0.0012960206199486876 -0.00023207786158256524 0.0012560604781113843 0.0 0.0
0.0 0.00028162141662201853 0.0002124871839714122 -0.0001717170023312335 -4.0770181640178604e-05 0.00023917891708079172 0.0 0.0
0.0 2.8367695698324324e-06 1.8257890152836159e-06 -1.4120534260575036e-06 -4.137355892261098e-07 2.750411582159169e-06 0.0 0.0
0.0 0.0 0.0 0.0 0.0 0.0 0.0 0.0
0.0 0.0 0.0 0.0 0.0 0.0 0.0 0.0
0.0 0.005129981045925444 0.003303332046441198 -0.0037735960963631763 0.0004702640499219765 0.00448116204436951 0.0 0.0
0.0 0.0036280505802134978 0.002270265027182493 -0.0026629570336670523 0.0003926920064845585 -0.003228458905087958 0.0 0.0
0.0 7.761818097908707e-08 -1.6545393973634885e-09 1.4170477556670242e-09 2.3749164169630387e-10 1.5147987326691532e-08 0.0 0.0
0.0 0.0 0.0 0.0 0.0 0.0 0.0 0.0
0.0 1.3814681937428104e-06 -4.4843850434374635e-09 4.232949451638718e-09 2.5143559179627493e-10 2.3473234473579155e-08 0.0 0.0
0.0 0.00012958894705904014 8.100430062039465e-05 -6.521668709039633e-05 -1.57876135299983e-05 -0.0001375252469573075 0.0 0.0
0.0 0.0011328326570500065 0.0008636845293023981 -0.0007198125877507517 -0.00014387194155164612 -0.0010413475027867302 0.0 0.0
0.0 0.004002921902165654 0.0031701665774159812 -0.0027894991094855465 -0.00038066746793043475 -0.002954518145852791 0.0 0.0
0.0 0.009116741274987638 0.007380329351640352 -0.00680211252624171 -0.000578216825398641 -0.0059015904045001556 0.0 0.0
0.0 0.01638127803999526 0.013444179401154615 -0.012740384450595147 -0.0007037949505594669 -0.00980472165608476 0.0 0.0
0.0 0.025477510216399355 0.02106024881887347 -0.020264708791405087 -0.0007955400274683675 -0.014212058717913376 0.0 0.0
0.0 0.03604909580005921 0.029940469235570755 -0.029063807217530938 -0.000876662018039826 -0.01869470978543807 0.0 0.0
0.0 0.04787655184713273 0.039910771926577285 -0.03895739515989599 -0.0009533767666813186 -0.023084793535373436 0.0 0.0
0.0 0.06083657823867242 0.05088038088691156 -0.049852967117770215 -0.0010274137691413394 -0.027393365590850663 0.0 0.0
0.0 0.07483241197590632 0.06277096861070704 -0.061670890391806725 -0.0011000782189003063 -0.03155124641819505 0.0 0.0
0.0 0.08972233784107683 0.07545095555652556 -0.07427921208737286 -0.0011717434691527642 -0.035347527870592546 0.0 0.0
0.0 0.10497746205355095 0.0887039087406435 -0.08746224813863748 -0.0012416606020060092 -0.03845088026598967 0.0 0.0
0.0 0.12060707066167287 0.10219734026718355 -0.1008839074388796 -0.0013134328283039517 -0.040322222457340004 0.0 0.0
0.0 0.13557995553429567 0.1153826457985613 -0.11398953252261215 -0.0013931132759491106 -0.03988038465899625 0.0 0.0
0.0 0.14853722628011132 0.1272998484542683 -0.1258203073697473 -0.001479541084520867 -0.03499351745949783 0.0 0.0
0.0 0.1583871292673245 0.13660217385909298 -0.1350420525848086 -0.0015601212742843151 -0.023348231784584405 0.0 0.0
0.0 0.15838712926731663 0.13660217385908316 -0.1350420525847986 -0.0015601212742845385 0.023348231784657097 0.0 0.0
0.0 0.14853722628008342 0.12729984845423772 -0.12582030736971672 -0.0014795410845210057 0.034993517459590145 0.0 0.0
0.0 0.13557995553425134 0.11538264579851673 -0.1139895325225677 -0.0013931132759490421 0.039880384659064516 0.0 0.0
0.0 0.12060707066161276 0.10219734026712815 -0.10088390743882439 -0.001313432828303726 0.04032222245736748 0.0 0.0
0.0 0.10497746205347855 0.08870390874058098 -0.08746224813857537 -0.0012416606020055941 0.038450880265977795 0.0 0.0
0.0 0.08972233784100364 0.07545095555646242 -0.07427921208731021 -0.001171743469152188 0.03534752787057721 0.0 0.0
0.0 0.07483241197583104 0.062770968610642 -0.06167089039174116 -0.0011000782189008623 0.03155124641818023 0.0 0.0
0.0 0.060836578238599726 0.050880380886849236 -0.0498529671177076 -0.0010274137691416506 0.02739336559083393 0.0 0.0
0.0 0.0478765518470678 0.039910771926522357 -0.038957395159841646 -0.0009533767666806949 0.023084793535348355 0.0 0.0
0.0 0.03604909579999922 0.029940469235520892 -0.02906380721748139 -0.000876662018039496 0.018694709785408672 0.0 0.0
0.0 0.025477510216346574 0.021060248818830514 -0.020264708791362634 -0.0007955400274678798 0.014212058717879629 0.0 0.0
0.0 0.01638127803995575 0.013444179401122016 -0.012740384450563212 -0.0007037949505587979 0.009804721656061676 0.0 0.0
0.0 0.009116741274961216 0.007380329351619041 -0.0068021125262210476 -0.0005782168253979948 0.005901590404484318 0.0 0.0
0.0 0.004002921902148801 0.0031701665774027236 -0.002789499109473324 -0.00038066746792939993 0.0029545181458422633 0.0 0.0
0.0 0.0011328326570421807 0.0008636845292971555 -0.0007198125877461708 -0.00014387194155098454 0.001041347502780288 0.0 0.0
0.0 0.00012958894705674803 8.100430061945205e-05 -6.521668708960488e-05 -1.5787613529847142e-05 0.00013752524695566587 0.0 0.0
0.0 1.3814681934965904e-06 -4.484384895905387e-09 4.232949338808579e-09 2.514355570842634e-10 -2.3473234145188233e-08 0.0 0.0
0.0 0.0 0.0 0.0 0.0 0.0 0.0 0.0
0.0 7.761818091499395e-08 -1.6545393959844891e-09 1.4170477544857094e-09 2.374916414986896e-10 -1.5147987314084823e-08 0.0 0.0
0.0 0.0036280505802013512 0.002270265027174843 -0.0026629570336587395 0.00039269200648389625 0.0032284589050767362 0.0 0.0
0.0 0.0024257718395431973 0.0014549876449670685 -0.0017543065129201332 0.0002993188679530627 -0.002186016662202604 0.0 0.0
0.0 6.808126749334917e-07 -1.0371231226033877e-08 1.1382208934150606e-08 -1.010977708115995e-09 1.3495275768488005e-07 0.0 0.0
0.0 3.7869285625906513e-07 -1.0853022555903305e-08 7.76318668522007e-09 3.0898358706842675e-09 7.416418593090768e-08 0.0 0.0
0.0 1.7228195024648e-06 1.0549087106151062e-07 -7.841701418710205e-08 -2.7073856874398466e-08 -3.273929835746491e-07 0.0 0.0
0.0 6.847165941298465e-05 3.504438935091392e-05 -2.8048511412571345e-05 -6.995877938342606e-06 -8.971416509605184e-05 0.0 0.0
0.0 0.0006439434429336558 0.000406174651551964 -0.00033363626920149443 -7.25383823504699e-05 -0.0007327895857177316 0.0 0.0
0.0 0.0025721644246336503 0.0018799615904575113 -0.001614970374949606 -0.000264991215507906 -0.002495441105558043 0.0 0.0
0.0 0.006439398130321315 0.004945414617112561 -0.004461590907932361 -0.0004838237091801976 -0.005294641243625428 0.0 0.0
0.0 0.012190960841863113 0.009592662489924077 -0.0089593273584221 -0.000633335131501975 -0.008980826045467516 0.0 0.0
0.0 0.019406147906486364 0.015532055374994113 -0.014801073121257105 -0.000730982253737005 -0.013219956975742516 0.0 0.0
0.0 0.02776779365333998 0.022454270686810534 -0.021647637424495603 -0.0008066332623149317 -0.01758476278254662 0.0 0.0
0.0 0.0370802662101859 0.030198028253700864 -0.02932266983387124 -0.0008753584198296141 -0.02184962760649856 0.0 0.0
0.0 0.047287731786420706 0.03870976445965457 -0.03777057408851131 -0.0009391903711432484 -0.02603232676848402 0.0 0.0
0.0 0.05828790223463648 0.04797376370027768 -0.046973259086926095 -0.0010005046133515843 -0.03010330418293712 0.0 0.0
0.0 0.07006348445065627 0.05793594663325265 -0.056874729694934116 -0.0010612169383185039 -0.03384886485599672 0.0 0.0
0.0 0.08238421973462173 0.0684675104643501 -0.06734682979026617 -0.0011206806740839505 -0.03693584286813879 0.0 0.0
0.0 0.09496626901483532 0.07940487140418273 -0.07823052047281187 -0.0011743509313708288 -0.03901451849636365 0.0 0.0
0.0 0.10761514797620997 0.09057942485807041 -0.08934711994101008 -0.0012323049170603617 -0.03926385661509538 0.0 0.0
0.0 0.11963473357354357 0.10151042901441025 -0.10020322215934883 -0.001307206855061326 -0.035430488952547315 0.0 0.0
0.0 0.12964736167666724 0.11108395761156385 -0.10968836402698517 -0.0013955935845786358 -0.024553517114463422 0.0 0.0
0.0 0.12964736167666016 0.11108395761155408 -0.10968836402697565 -0.0013955935845783509 0.02455351711453089 0.0 0.0
0.0 0.1196347335735278 0.10151042901438836 -0.10020322215932802 -0.0013072068550604489 0.03543048895263779 0.0 0.0
0.0 0.10761514797617669 0.09057942485803429 -0.08934711994097391 -0.001232304917060297 0.03926385661516241 0.0 0.0
0.0 0.09496626901478905 0.07940487140413843 -0.07823052047276766 -0.0011743509313707696 0.03901451849639201 0.0 0.0
0.0 0.08238421973456346 0.06846751046429964 -0.06734682979021611 -0.0011206806740835318 0.036935842868127636 0.0 0.0
0.0 0.07006348445059551 0.05793594663320098 -0.05687472969488292 -0.001061216938318021 0.03384886485597683 0.0 0.0
0.0 0.058287902234582 0.04797376370023047 -0.04697325908687971 -0.001000504613350767 0.030103304182924222 0.0 0.0
0.0 0.04728773178636845 0.03870976445960959 -0.037770574088466825 -0.0009391903711427442 0.026032326768469897 0.0 0.0
0.0 0.03708026621013558 0.03019802825365881 -0.02932266983382995 -0.0008753584198288804 0.02184962760647472 0.0 0.0
0.0 0.027767793653289834 0.02245427068676967 -0.02164763742445554 -0.0008066332623141085 0.017584762782516666 0.0 0.0
0.0 0.019406147906439863 0.015532055374958179 -0.014801073121221583 -0.00073098225373659 0.013219956975706371 0.0 0.0
0.0 0.012190960841826814 0.009592662489895517 -0.00895932735839399 -0.0006333351315015303 0.008980826045443762 0.0 0.0
0.0 0.006439398130296018 0.004945414617093236 -0.004461590907913792 -0.0004838237091794442 0.00529464124360686 0.0 0.0
0.0 0.0025721644246196954 0.0018799615904471752 -0.0016149703749403189 -0.00026499121550685467 0.0024954411055466735 0.0 0.0
0.0 0.0006439434429272561 0.00040617465154823857 -0.0003336362691983877 -7.253838234985066e-05 0.0007327895857114407 0.0 0.0
0.0 6.847165941136917e-05 3.5044389350691416e-05 -2.8048511412382924e-05 -6.995877938308494e-06 8.971416509543726e-05 0.0 0.0
0.0 1.7228195022306637e-06 1.0549087116123398e-07 -7.841701426253912e-08 -2.707385689869294e-08 3.273929839156363e-07 0.0 0.0
0.0 3.786928558295237e-07 -1.0853022544114866e-08 7.763186676628835e-09 3.0898358674860974e-09 -7.416418584570931e-08 0.0 0.0
0.0 6.808126741997652e-07 -1.0371231215047161e-08 1.1382208922371451e-08 -1.0109777073237724e-09 -1.34952757536912e-07 0.0 0.0
0.0 0.0024257718395337144 0.001454987644961502 -0.0017543065129138574 0.00029931886795235465 0.0021860166621943647 0.0 0.0
0.0 0.001475994745526409 0.0008354760593153746 -0.001038501927103452 0.0002030258677880766 -0.0013449250497571208 0.0 0.0
0.0 2.5487188251360655e-06 1.3595848424314016e-07 -1.3838489447848604e-07 2.4264102353446374e-09 -2.965002454631353e-06 0.0 0.0
0.0 9.358929896336263e-07 3.6097882706931294e-08 -2.3630342861144467e-08 -1.2467539845786303e-08 -3.9468201289598783e-07 0.0 0.0
0.0 3.870553638130383e-06 7.605810356307204e-07 -5.824352508834e-07 -1.781457847473185e-07 -4.82050372785744e-06 0.0 0.0
0.0 5.304915572640741e-05 1.9175149356067334e-05 -1.524410642315977e-05 -3.93104293290758e-06 -7.718135905566316e-05 0.0 0.0
0.0 0.0003497241212269527 0.00016473853847692312 -0.00013385290400914554 -3.0885634467777646e-05 -0.0004792032186470909 0.0 0.0
0.0 0.0014816936538990819 0.0008979041912849566 -0.0007525322462345253 -0.0001453719450504312 -0.0018383088982986825 0.0 0.0
0.0 0.004049178470304206 0.0028009804956762134 -0.0024534463211846507 -0.0003475341744915629 -0.004273349757248256 0.0 0.0
0.0 0.00820336671360319 0.005990593701474444 -0.005464484178299775 -0.000526109523174665 -0.007494975882785723 0.0 0.0
0.0 0.013434960663870663 0.010206995488541159 -0.009565338706077573 -0.0006416567824635872 -0.011214272275313813 0.0 0.0
0.0 0.01966087599543176 0.015146236265653392 -0.014427363594834671 -0.0007188726708187127 -0.015118446958936731 0.0 0.0
0.0 0.026418790241435643 0.020660199748807884 -0.019878827410721826 -0.0007813723380860606 -0.018984474835409992 0.0 0.0
0.0 0.033819092662858825 0.026713030286733833 -0.025876994607223733 -0.0008360356795101 -0.022787931941066243 0.0 0.0
0.0 0.041877836015699985 0.03333513951845911 -0.0324492850386286 -0.0008858544798304956 -0.026503464579455027 0.0 0.0
0.0 0.050616446380448155 0.04055518081409011 -0.039620683026362936 -0.0009344977877271554 -0.029989417669162542 0.0 0.0
0.0 0.059821916241124956 0.04834194292700773 -0.04735765318342165 -0.0009842897435860599 -0.03290079410537186 0.0 0.0
0.0 0.06950024041922534 0.05663368335146854 -0.0556064781358478 -0.001027205215620714 -0.034893961567637743 0.0 0.0
0.0 0.07958079336391057 0.06555453469565774 -0.06449726501386299 -0.0010572696817947283 -0.03576146233393422 0.0 0.0
0.0 0.09012155529017042 0.0752721953023877 -0.07416281340444272 -0.0011093818979449736 -0.03379104449599798 0.0 0.0
0.0 0.10026591815251033 0.08514156309316356 -0.08393315908572259 -0.0012084040074410698 -0.025222147729810036 0.0 0.0
0.0 0.10026591815250731 0.08514156309315692 -0.08393315908571536 -0.001208404007441544 0.02522214772987002 0.0 0.0
0.0 0.0901215552901566 0.07527219530236712 -0.07416281340442166 -0.0011093818979454333 0.0337910444960815 0.0 0.0
0.0 0.07958079336389047 0.06555453469563179 -0.0644972650138377 -0.0010572696817940414 0.035761462333997115 0.0 0.0
0.0 0.06950024041919634 0.05663368335143919 -0.05560647813581977 -0.0010272052156194266 0.03489396156765864 0.0 0.0
0.0 0.059821916241090164 0.04834194292697823 -0.04735765318339314 -0.0009842897435850496 0.03290079410536024 0.0 0.0
0.0 0.050616446380402545 0.04055518081405236 -0.03962068302632553 -0.0009344977877268536 0.02998941766914387 0.0 0.0
0.0 0.04187783601565874 0.033335139518424574 -0.0324492850385946 -0.0008858544798299778 0.026503464579439945 0.0 0.0
0.0 0.03381909266282385 0.02671303028670358 -0.025876994607194212 -0.0008360356795093669 0.022787931941056848 0.0 0.0
0.0 0.026418790241395967 0.020660199748776042 -0.01987882741069027 -0.0007813723380857708 0.018984474835386893 0.0 0.0
0.0 0.01966087599539535 0.015146236265625238 -0.014427363594806626 -0.0007188726708185993 0.015118446958910361 0.0 0.0
0.0 0.013434960663839392 0.01020699548851871 -0.009565338706055635 -0.00064165678246307 0.011214272275285054 0.0 0.0
0.0 0.008203366713579808 0.005990593701457221 -0.005464484178283025 -0.0005261095231741962 0.0074949758827666775 0.0 0.0
0.0 0.004049178470290253 0.0028009804956659868 -0.0024534463211752923 -0.00034753417449069553 0.0042733497572361645 0.0 0.0
0.0 0.0014816936538907693 0.000897904191279893 -0.0007525322462301282 -0.00014537194504976426 0.001838308898290058 0.0 0.0
0.0 0.00034972412122387023 0.0001647385384758655 -0.00013385290400825232 -3.088563446761324e-05 0.00047920321864404437 0.0 0.0
0.0 5.3049155724931797e-05 1.9175149356036116e-05 -1.5244106423128765e-05 -3.931042932907331e-06 7.718135905552336e-05 0.0 0.0
0.0 3.870553637989727e-06 7.605810357486475e-07 -5.824352509725618e-07 -1.7814578477608864e-07 4.8205037286139e-06 0.0 0.0
0.0 9.358929893628866e-07 3.609788275994792e-08 -2.363034289643009e-08 -1.2467539863516878e-08 3.9468201356647116e-07 0.0 0.0
0.0 2.5487188245675184e-06 1.3595848428110378e-07 -1.3838489452308913e-07 2.4264102419852818e-09 2.9650024555736362e-06 0.0 0.0
0.0 0.0014759947455190716 0.0008354760593115478 -0.0010385019270989725 0.00020302586778742475 0.001344925049751107 0.0 0.0
0.0 0.0007296696773641977 0.00040423117728622944 -0.0005214386025615967 0.00011720742527536763 -0.0007085129008547701 0.0 0.0
0.0 5.250112753425976e-06 1.3325139619256208e-07 -1.800542890599041e-07 4.6802892867342135e-08 -5.055207354155794e-06 0.0 0.0
0.0 4.301712006592694e-06 7.918299872228925e-08 -3.410481719895723e-08 -4.507818152333221e-08 -4.831388713906085e-06 0.0 0.0
0.0 8.500991351992887e-06 8.35581748437798e-07 -5.919058798064279e-07 -2.436758686313667e-07 -1.1920843259156214e-05 0.0 0.0
0.0 5.576375425981242e-05 1.1307571710170935e-05 -8.87594415105941e-06 -2.4316275591115304e-06 -8.629207427104195e-05 0.0 0.0
0.0 0.00023463128647440335 6.494492866337528e-05 -5.2466176236654524e-05 -1.247875242672079e-05 -0.0003524637949715445 0.0 0.0
0.0 0.000783326759038986 0.0003056480884583094 -0.000250638192474125 -5.500989598418415e-05 -0.0011654076601070131 0.0 0.0
0.0 0.002106161079131998 0.001106010527788937 -0.000932975685143348 -0.00017303484264558894 -0.002897215550914011 0.0 0.0
0.0 0.0045460377444175885 0.0027881788077624187 -0.0024425668335957117 -0.0003456119741667074 -0.005389852598728687 0.0 0.0
0.0 0.007843235836612025 0.005224309401056173 -0.0047350422980832 -0.0004892671029729746 -0.008283257897701025 0.0 0.0
0.0 0.011709537345002761 0.008151473489843542 -0.007566430236289715 -0.0005850432535538245 -0.011385011407777857 0.0 0.0
0.0 0.0160678241936917 0.011417162218420795 -0.010767785706047703 -0.0006493765123730823 -0.014544841450984648 0.0 0.0
0.0 0.020772836332682232 0.01501061397446996 -0.014311226337389814 -0.0006993876370801499 -0.017728920959529035 0.0 0.0
0.0 0.025915274651876347 0.018983938319075053 -0.018244044991430366 -0.0007398933276446681 -0.02086942352766448 0.0 0.0
0.0 0.03154919738996585 0.023425377695275564 -0.022649832959517998 -0.0007755447357575709 -0.02389065275019979 0.0 0.0
0.0 0.037698664567412825 0.028429046618598117 -0.02761683068822947 -0.0008122159303686497 -0.026564206641229063 0.0 0.0
0.0 0.04436791154033688 0.03405081727195046 -0.033198285513015735 -0.0008525317589347432 -0.028429155642854295 0.0 0.0
0.0 0.05175214729623594 0.04048280293976709 -0.039611023303678154 -0.000871779636088937 -0.029415693520131347 0.0 0.0
0.0 0.06059864671192962 0.04843721482886571 -0.0475661524555981 -0.0008710623732676032 -0.029419856506294813 0.0 0.0
0.0 0.07077014364030204 0.05838466384451877 -0.057411380294948064 -0.0009732835495707207 -0.024973984982376185 0.0 0.0
0.0 0.07077014364030361 0.0583846638445148 -0.0574113802949443 -0.0009732835495705109 0.024973984982428934 0.0 0.0
0.0 0.06059864671192576 0.048437214828853145 -0.04756615245558536 -0.0008710623732677368 0.029419856506368337 0.0 0.0
0.0 0.05175214729622083 0.04048280293974575 -0.0396110233036565 -0.0008717796360892498 0.029415693520184267 0.0 0.0
0.0 0.04436791154030654 0.034050817271922225 -0.033198285512986814 -0.0008525317589354169 0.028429155642864117 0.0 0.0
0.0 0.037698664567380136 0.028429046618573244 -0.027616830688204665 -0.0008122159303685782 0.02656420664120933 0.0 0.0
0.0 0.031549197389936175 0.023425377695253154 -0.02264983295949548 -0.0007755447357576674 0.023890652750181887 0.0 0.0
0.0 0.025915274651853507 0.018983938319056697 -0.018244044991412287 -0.0007398933276444098 0.02086942352765543 0.0 0.0
0.0 0.020772836332665995 0.015010613974456204 -0.014311226337376859 -0.0006993876370793525 0.017728920959524472 0.0 0.0
0.0 0.01606782419366637 0.011417162218402263 -0.010767785706029678 -0.0006493765123725811 0.014544841450965802 0.0 0.0
0.0 0.01170953734497915 0.008151473489827477 -0.007566430236274084 -0.0005850432535533938 0.01138501140775586 0.0 0.0
0.0 0.007843235836589735 0.005224309401041915 -0.004735042298069509 -0.0004892671029724047 0.008283257897677723 0.0 0.0
0.0 0.0045460377444027185 0.00278817880775224 -0.002442566833586337 -0.0003456119741659031 0.005389852598714152 0.0 0.0
0.0 0.0021061610791228377 0.0011060105277836553 -0.0009329756851386348 -0.00017303484264502054 0.0028972155509032647 0.0 0.0
0.0 0.0007833267590346366 0.00030564808845654184 -0.0002506381924726797 -5.50098959838622e-05 0.0011654076601016975 0.0 0.0
0.0 0.00023463128647279054 6.494492866330231e-05 -5.2466176236588944e-05 -1.247875242671334e-05 0.00035246379497081565 0.0 0.0
0.0 5.576375425891752e-05 1.1307571710193168e-05 -8.87594415107369e-06 -2.4316275591194743e-06 8.62920742712177e-05 0.0 0.0
0.0 8.500991351780268e-06 8.355817484765706e-07 -5.919058798328099e-07 -2.4367586864375765e-07 1.1920843259741151e-05 0.0 0.0
0.0 4.301712005756528e-06 7.918299873176743e-08 -3.4104817202722405e-08 -4.5078181529044315e-08 4.8313887146127466e-06 0.0 0.0
0.0 5.250112753165411e-06 1.332513962168992e-07 -1.800542890989648e-07 4.680289288206523e-08 5.0552073550706985e-06 0.0 0.0
0.0 0.0007296696773589737 0.00040423117728379855 -0.0005214386025586219 0.00011720742527482301 0.0007085129008506232 0.0 0.0
0.0 0.0002613352263130395 0.00013857799737812375 -0.00018690542947585095 4.832743209772719e-05 -0.00026196634654320416 0.0 0.0
0.0 6.507483554038815e-06 -3.4732810377314054e-09 -8.222997287728938e-08 8.570325391502195e-08 -6.7253734507444726e-06 0.0 0.0
0.0 9.006474273305035e-06 -3.956422062326352e-07 3.8275690129547733e-07 1.2885304937158444e-08 -1.2410369322478305e-05 0.0 0.0
0.0 1.5830483651234784e-05 -2.2990167157051318e-07 3.4460824729809727e-07 -1.147065757275848e-07 -2.4555114597226034e-05 0.0 0.0
0.0 6.357510432581189e-05 2.682030820703991e-06 -1.8670724509653148e-06 -8.149583697386814e-07 -9.781071359048217e-05 0.0 0.0
0.0 0.00021145975733913948 1.819510541997438e-05 -1.4505230599725061e-05 -3.689874820249291e-06 -0.00033771274576796084 0.0 0.0
0.0 0.0004992153093076594 6.35100749221742e-05 -5.158597092341622e-05 -1.1924103998757995e-05 -0.000821752431880554 0.0 0.0
0.0 0.0010065960393985727 0.00017631670855319345 -0.00014407357264655083 -3.22431359066425e-05 -0.0016092591473799423 0.0 0.0
0.0 0.001847691100375716 0.0004671325519198748 -0.00038231428202736953 -8.481826989250496e-05 -0.002958251880311635 0.0 0.0
0.0 0.003228440499240132 0.0010331728738069378 -0.0008537203265034407 -0.0001794525473034969 -0.004845450960614017 0.0 0.0
0.0 0.004915042206598641 0.0018576509656037929 -0.0015736629815903467 -0.0002839879840134448 -0.007137409971544495 0.0 0.0
0.0 0.006979793856160228 0.002850422656898145 -0.002482697249666374 -0.0003677254072317693 -0.009625033225459798 0.0 0.0
0.0 0.009278514531400365 0.003982532776192038 -0.003551263277589962 -0.0004312694986020765 -0.012253724504250385 0.0 0.0
0.0 0.01185708271500366 0.005296449104139043 -0.004819362857902378 -0.00047708624623666305 -0.01499931160404562 0.0 0.0
0.0 0.014734505030742254 0.006918178891950975 -0.00640848158949821 -0.0005096973024527582 -0.017809992069794903 0.0 0.0
0.0 0.018060349091855485 0.009068531768589088 -0.008533721230195947 -0.0005348105383931398 -0.020486545719454147 0.0 0.0
0.0 0.021845516979929647 0.012006123069756975 -0.011439307015785318 -0.0005668160539716499 -0.0225442627425251 0.0 0.0
0.0 0.02616811380460455 0.015932313754122615 -0.015318967604477702 -0.000613346149644904 -0.02334444280818101 0.0 0.0
0.0 0.03215897093004669 0.02146271954411158 -0.020867922896729594 -0.0005947966473819929 -0.02359716492867777 0.0 0.0
0.0 0.04142657396441942 0.0304604062807905 -0.02986365739624344 -0.0005967488845470604 -0.023588636513912097 0.0 0.0
0.0 0.04142657396442491 0.0304604062807905 -0.02986365739624325 -0.0005967488845472496 0.023588636513951558 0.0 0.0
0.0 0.03215897093005391 0.021462719544109207 -0.02086792289672741 -0.0005947966473818076 0.023597164928734406 0.0 0.0
0.0 0.026168113804603592 0.015932313754115558 -0.015318967604471108 -0.0006133461496444423 0.0233444428082176 0.0 0.0
0.0 0.021845516979915776 0.012006123069746839 -0.011439307015775876 -0.0005668160539709586 0.02254426274252294 0.0 0.0
0.0 0.01806034909183802 0.00906853176858198 -0.008533721230188519 -0.0005348105383934602 0.020486545719432755 0.0 0.0
0.0 0.014734505030725912 0.006918178891942969 -0.006408481589489979 -0.0005096973024529888 0.0178099920697787 0.0 0.0
0.0 0.011857082714992289 0.005296449104134432 -0.004819362857897555 -0.00047708624623687723 0.014999311604033599 0.0 0.0
0.0 0.00927851453139248 0.003982532776189358 -0.00355126327758707 -0.00043126949860228616 0.01225372450424244 0.0 0.0
0.0 0.006979793856149674 0.0028504226568958624 -0.0024826972496643086 -0.00036772540723155274 0.009625033225443962 0.0 0.0
0.0 0.004915042206589273 0.001857650965601637 -0.0015736629815885244 -0.0002839879840131132 0.00713740997153022 0.0 0.0
0.0 0.0032284404992310826 0.001033172873804751 -0.0008537203265016413 -0.00017945254730310993 0.004845450960601022 0.0 0.0
0.0 0.0018476911003721202 0.0004671325519190938 -0.00038231428202676904 -8.481826989232465e-05 0.002958251880305654 0.0 0.0
0.0 0.001006596039396193 0.00017631670855277454 -0.0001440735726462336 -3.2243135906540724e-05 0.001609259147376007 0.0 0.0
0.0 0.0004992153093052418 6.351007492199021e-05 -5.1585970923239094e-05 -1.1924103998751073e-05 0.0008217524318780243 0.0 0.0
0.0 0.00021145975733733748 1.8195105419923453e-05 -1.4505230599679177e-05 -3.68987482024428e-06 0.00033771274576663887 0.0 0.0
0.0 6.357510432469763e-05 2.682030820717671e-06 -1.8670724509740675e-06 -8.149583697436048e-07 9.78107135906015e-05 0.0 0.0
0.0 1.583048365035636e-05 -2.2990167158397857e-07 3.4460824731445914e-07 -1.1470657573048054e-07 2.455511459796093e-05 0.0 0.0
0.0 9.006474272642062e-06 -3.9564220626538333e-07 3.8275690132454915e-07 1.2885304940833293e-08 1.241036932327514e-05 0.0 0.0
0.0 6.507483553871375e-06 -3.4732810326462158e-09 -8.222997290933022e-08 8.570325394197894e-08 6.725373451764483e-06 0.0 0.0
0.0 0.0002613352263104626 0.00013857799737719187 -0.00018690542947464933 4.832743209745741e-05 0.0002619663465414987 0.0 0.0
0.0 4.520814269186146e-05 2.237033451068597e-05 -3.173182220690312e-05 9.361487696217128e-06 -4.599895516312998e-05 0.0 0.0
0.0 6.054046217106691e-06 -1.9416030360565077e-07 5.493224812322141e-08 1.3922805548243418e-07 -6.772881180901926e-06 0.0 0.0
0.0 1.253525672607089e-05 -1.4398126458131895e-06 1.235991043378231e-06 2.0382160243495861e-07 -1.827067956521817e-05 0.0 0.0
0.0 2.329946987760628e-05 -2.9466869641277015e-06 2.611771808795566e-06 3.3491515533213643e-07 -3.634873892318209e-05 0.0 0.0
0.0 7.348069051339249e-05 -7.738510037107724e-06 6.674758689383697e-06 1.0637513477240322e-06 -0.0001118340505019383 0.0 0.0
0.0 0.00022393186553033395 -2.374859699166192e-05 1.9603209365435838e-05 4.145387626226069e-06 -0.0003499481453215368 0.0 0.0
0.0 0.0005085406586625396 -6.800738838822101e-05 5.54418056841468e-05 1.2565582704074204e-05 -0.0008370671148080161 0.0 0.0
0.0 0.001013577926748555 -0.00017931615819721875 0.0001464943742000595 3.28217839971594e-05 -0.0016213842289900143 0.0 0.0
0.0 0.0018496896745085925 -0.000468394768887888 0.00038345760375576676 8.493716513212118e-05 -0.0029633647804463907 0.0 0.0
0.0 0.003229420275630026 -0.001033875073789652 0.0008546407486995174 0.00017923432509013435 -0.004847282963375497 0.0 0.0
0.0 0.004938737263386882 -0.0018707481586865203 0.0015877632379214083 0.0002829849207651126 -0.007147495127909679 0.0 0.0
0.0 0.007025643174650478 -0.0029049819463721075 0.002537200597941425 0.00036778134843068043 -0.009646843950503496 0.0 0.0
0.0 0.00934954259921616 -0.0040759260599363455 0.0036403554877722905 0.0004355705721640526 -0.012266213924837021 0.0 0.0
0.0 0.011841350189201695 -0.005299988719056835 0.004807963255500938 0.0004920254635558934 -0.0149765713947398 0.0 0.0
0.0 0.014290238547506532 -0.006396450847343733 0.005855595000570795 0.0005408558467729335 -0.01775590960084783 0.0 0.0
0.0 0.01649017790803156 -0.007054294608379206 0.006470219174815911 0.0005840754335632881 -0.02054794686072606 0.0 0.0
0.0 0.018074307822968087 -0.006855294887300734 0.0062330984368750425 0.0006221964504256891 -0.02334177214918328 0.0 0.0
0.0 0.01896754238750896 -0.005536325691358637 0.00490373653517795 0.0006325891561806802 -0.026239965690002396 0.0 0.0
0.0 0.019184838092645172 -0.002995427468932739 0.0024239801152301215 0.0005714473537026158 -0.02881405098190079 0.0 0.0
0.0 0.01926779691108827 0.0041686904591198256 -0.004228813712373762 6.012325325393485e-05 -0.028513721567023993 0.0 0.0
0.0 0.019267796911093288 0.004168690459119994 -0.004228813712373459 6.0123253253468794e-05 0.028513721567038436 0.0 0.0
0.0 0.01918483809264898 -0.0029954274689343143 0.0024239801152315544 0.0005714473537027583 0.028814050981916153 0.0 0.0
0.0 0.01896754238750259 -0.005536325691355102 0.004903736535175651 0.0006325891561794465 0.026239965690004072 0.0 0.0
0.0 0.018074307822953002 -0.0068552948872939775 0.006233098436868912 0.0006221964504250657 0.023341772149168775 0.0 0.0
0.0 0.01649017790800966 -0.007054294608367029 0.006470219174803912 0.0005840754335631092 0.020547946860703412 0.0 0.0
0.0 0.014290238547492836 -0.0063964508473362625 0.005855595000563398 0.0005408558467728583 0.01775590960083273 0.0 0.0
0.0 0.01184135018918559 -0.005299988719047013 0.004807963255491401 0.0004920254635556139 0.014976571394726275 0.0 0.0
0.0 0.009349542599196105 -0.004075926059922255 0.0036403554877584518 0.0004355705721638017 0.012266213924824444 0.0 0.0
0.0 0.007025643174630244 -0.00290498194636113 0.0025372005979309165 0.00036778134843021184 0.009646843950482702 0.0 0.0
0.0 0.004938737263368078 -0.0018707481586762939 0.001587763237912015 0.00028298492076427923 0.007147495127888973 0.0 0.0
0.0 0.0032294202756163884 -0.0010338750737846247 0.0008546407486950731 0.0001792343250895507 0.004847282963359031 0.0 0.0
0.0 0.001849689674503499 -0.0004683947688855746 0.0003834576037538894 8.49371651316851e-05 0.002963364780439648 0.0 0.0
0.0 0.001013577926744612 -0.00017931615819603857 0.00014649437419911833 3.282178399692027e-05 0.0016213842289842172 0.0 0.0
0.0 0.0005085406586585897 -6.800738838767596e-05 5.5441805683754704e-05 1.256558270392122e-05 0.0008370671148027454 0.0 0.0
0.0 0.0002239318655280014 -2.3748596991514227e-05 1.9603209365320503e-05 4.14538762619374e-06 0.00034994814531945806 0.0 0.0
0.0 7.348069051141184e-05 -7.738510037031795e-06 6.6747586893199815e-06 1.0637513477117998e-06 0.0001118340505008529 0.0 0.0
0.0 2.3299469876874265e-05 -2.946686964116864e-06 2.61177180878509e-06 3.349151553317713e-07 3.634873892298921e-05 0.0 0.0
0.0 1.2535256725341804e-05 -1.4398126458634868e-06 1.2359910434196512e-06 2.0382160244383618e-07 1.8270679565723402e-05 0.0 0.0
0.0 6.054046216941117e-06 -1.9416030362506714e-07 5.493224809618883e-08 1.3922805552888308e-07 6.7728811821382634e-06 0.0 0.0
0.0 4.520814269083267e-05 2.237033451060545e-05 -3.1731822206779554e-05 9.361487696174095e-06 4.599895516317277e-05 0.0 0.0
0.0 2.082951981211534e-06 1.1733023477195418e-07 -1.7256200872694772e-07 5.523177395501195e-08 -2.4353530571897907e-07 0.0 0.0
0.0 4.224223852905908e-06 -3.016017732171179e-07 1.5891503596022089e-07 1.4268673725689542e-07 -5.7688219204644075e-06 0.0 0.0
0.0 1.391752704887767e-05 -2.4779094441081026e-06 2.065751223851018e-06 4.1215822025708086e-07 -1.9870350288527535e-05 0.0 0.0
0.0 2.9775361509995186e-05 -6.090682894101231e-06 5.1862300984214575e-06 9.044527956797889e-07 -4.048128305701295e-05 0.0 0.0
0.0 8.382191211590877e-05 -2.1121139995320532e-05 1.761296901035848e-05 3.5081709849620536e-06 -0.00012639211287905774 0.0 0.0
0.0 0.00026659403243442444 -7.956416183948844e-05 6.496234061703301e-05 1.4601821222455445e-05 -0.0004019041483711784 0.0 0.0
0.0 0.0008167140772918046 -0.00032040617948710006 0.00026319473611217443 5.7211443374925524e-05 -0.0012049249343947448 0.0 0.0
0.0 0.0021216465006382856 -0.0011137854025091549 0.0009399259485938804 0.0001738594539152739 -0.0029181075779207023 0.0 0.0
0.0 0.00454684341538212 -0.0027884227817079636 0.0024430705886318905 0.00034535219307607146 -0.005395225405546117 0.0 0.0
0.0 0.007846231332823856 -0.005226920025805168 0.004738325839401619 0.0004885941864035469 -0.008286523458585613 0.0 0.0
0.0 0.011730615823089144 -0.008171734882690213 0.007588128039096468 0.0005836068435937408 -0.011390215421148583 0.0 0.0
0.0 0.016119061190435643 -0.011475001407189251 0.010826752402037246 0.0006482490051520039 -0.014531770322768301 0.0 0.0
0.0 0.020834380552182112 -0.015095041340974707 0.014392419688661014 0.0007026216523136901 -0.017663183891801083 0.0 0.0
0.0 0.025845044887140636 -0.01894836716998487 0.018194124740167964 0.0007542424298169057 -0.020760526075782482 0.0 0.0
0.0 0.030925784415830222 -0.02281229617264425 0.022006501650566494 0.0008057945220777471 -0.023875111745561846 0.0 0.0
0.0 0.03566286018206597 -0.026290093663935088 0.025435584854558272 0.0008545088093768147 -0.027051360125616368 0.0 0.0
0.0 0.039576254628135916 -0.028853546689214447 0.027961123430155974 0.0008924232590584796 -0.03039406331216304 0.0 0.0
0.0 0.041977326400480436 -0.02991335233207472 0.028995649930390506 0.0009177024016842318 -0.03378401749920474 0.0 0.0
0.0 0.041106725648060366 -0.028277165201397107 0.027269248458583844 0.001007916742813236 -0.035422280611851424 0.0 0.0
0.0 0.033835239667124914 -0.020453939905301897 0.019312919149134317 0.0011410207561675673 -0.03331326242146159 0.0 0.0
0.0 0.033835239667135565 -0.020453939905301637 0.019312919149133755 0.001141020756167877 0.03331326242150354 0.0 0.0
0.0 0.04110672564806982 -0.028277165201392188 0.027269248458578667 0.001007916742813507 0.03542228061191262 0.0 0.0
0.0 0.04197732640047158 -0.029913352332059204 0.028995649930374824 0.0009177024016843599 0.033784017499239954 0.0 0.0
0.0 0.03957625462810982 -0.028853546689190806 0.027961123430132677 0.0008924232590581305 0.03039406331216341 0.0 0.0
0.0 0.03566286018202718 -0.026290093663904508 0.025435584854528327 0.0008545088093761795 0.02705136012559263 0.0 0.0
0.0 0.030925784415796555 -0.02281229617261776 0.022006501650540612 0.0008057945220771458 0.023875111745541674 0.0 0.0
0.0 0.02584504488710676 -0.018948367169958555 0.018194124740141975 0.0007542424298165821 0.02076052607576196 0.0 0.0
0.0 0.020834380552152736 -0.015095041340950122 0.014392419688636927 0.0007026216523131773 0.017663183891788038 0.0 0.0
0.0 0.016119061190400692 -0.011475001407162465 0.010826752402011124 0.0006482490051513419 0.014531770322744067 0.0 0.0
0.0 0.01173061582305217 -0.008171734882663888 0.0075881280390708026 0.0005836068435930816 0.011390215421116434 0.0 0.0
0.0 0.007846231332793935 -0.005226920025784809 0.004738325839382107 0.0004885941864027014 0.008286523458556608 0.0 0.0
0.0 0.004546843415365581 -0.0027884227816960695 0.002443070588620825 0.00034535219307524584 0.005395225405531029 0.0 0.0
0.0 0.0021216465006272346 -0.0011137854025018595 0.0009399259485876406 0.00017385945391421866 0.002918107577908553 0.0 0.0
0.0 0.0008167140772849702 -0.000320406179484243 0.0002631947361098181 5.721144337442486e-05 0.0012049249343861323 0.0 0.0
0.0 0.0002665940324317391 -7.95641618389972e-05 6.496234061663183e-05 1.4601821222365404e-05 0.0004019041483688189 0.0 0.0
0.0 8.382191211506751e-05 -2.1121139995374325e-05 1.7612969010401887e-05 3.508170984972428e-06 0.0001263921128792883 0.0 0.0
0.0 2.9775361509178054e-05 -6.090682894143916e-06 5.1862300984548e-06 9.04452795689118e-07 4.0481283057243105e-05 0.0 0.0
0.0 1.391752704819605e-05 -2.4779094441933755e-06 2.0657512239206e-06 4.1215822027277437e-07 1.9870350289167885e-05 0.0 0.0
0.0 4.224223852542282e-06 -3.016017732424138e-07 1.5891503596009775e-07 1.426867372823163e-07 5.768821921093282e-06 0.0 0.0
0.0 2.082951980841469e-06 1.1733023495165351e-07 -1.7256200898740183e-07 5.52317740357485e-08 2.435353061788942e-07 0.0 0.0
0.0 0.0 0.0 0.0 0.0 0.0 0.0 0.0
0.0 2.060654234345154e-06 -4.672349993595659e-08 3.818097437710195e-08 8.542525558851944e-09 -5.689922128743589e-07 0.0 0.0
0.0 1.246622275640704e-05 -2.5439581759040502e-06 2.0951537559734e-06 4.488044199306446e-07 -1.4788522358786627e-05 0.0 0.0
0.0 3.324352676382793e-05 -9.11033134389946e-06 7.5868268300041895e-06 1.5235045138952796e-06 -4.006702760830078e-05 0.0 0.0
0.0 0.00010185026773558984 -3.9077180751639044e-05 3.211562003967758e-05 6.961560711961476e-06 -0.0001410810459818401 0.0 0.0
0.0 0.00041407293774983414 -0.00019963835880944426 0.00016342639775418898 3.621196105525522e-05 -0.0005631332870818183 0.0 0.0
0.0 0.001522374419078001 -0.0009183566067108547 0.0007709977262385604 0.00014735888047229457 -0.0018831679067340965 0.0 0.0
0.0 0.004056397821881368 -0.0028024893791239788 0.002455409099500805 0.00034708027962317394 -0.004288458717967291 0.0 0.0
0.0 0.008200559654661349 -0.005988801720588325 0.0054630459160052705 0.0005257558045830548 -0.007495709598882267 0.0 0.0
0.0 0.0134406607769225 -0.010212233058341588 0.009571150223373834 0.00064108283496775 -0.011217545525968148 0.0 0.0
0.0 0.019679037936625045 -0.015165402711327831 0.01444771338263515 0.0007176893286926917 -0.01511253001328554 0.0 0.0
0.0 0.026443655968673242 -0.020700552385614003 0.01992028153304837 0.0007802708525656256 -0.018916967822531876 0.0 0.0
0.0 0.03381738026330701 -0.026758071487334584 0.02591961272143875 0.0008384587658958305 -0.02259216223008402 0.0 0.0
0.0 0.041727281710996 -0.033254839255437534 0.032356892608775056 0.0008979466466624638 -0.02623443082867317 0.0 0.0
0.0 0.049982944973387095 -0.03994841665628316 0.03898782724835167 0.000960589407931455 -0.030067578658627223 0.0 0.0
0.0 0.05802146226043628 -0.04637323276600044 0.04535090514074874 0.0010223276252516475 -0.03438599598308028 0.0 0.0
0.0 0.0652059739738058 -0.05184243379525587 0.05076246320754428 0.0010799705877115526 -0.03930739793918968 0.0 0.0
0.0 0.0699500055233443 -0.055296969365847916 0.0541447988257404 0.0011521705401074628 -0.043948874702434644 0.0 0.0
0.0 0.07004346381459335 -0.05473426120970793 0.05348456475835326 0.001249696451354651 -0.046184617847762455 0.0 0.0
0.0 0.059668219728164905 -0.04580289005630336 0.044302176007007435 0.001500714049295915 -0.04181019464213166 0.0 0.0
0.0 0.059668219728173946 -0.045802890056300886 0.04430217600700386 0.001500714049297018 0.04181019464218825 0.0 0.0
0.0 0.07004346381459566 -0.05473426120969663 0.05348456475834045 0.001249696451356154 0.046184617847837436 0.0 0.0
0.0 0.06995000552332437 -0.055296969365821014 0.05414479882571343 0.0011521705401075482 0.0439488747024839 0.0 0.0
0.0 0.06520597397376546 -0.051842433795218475 0.050762463207506936 0.0010799705877115556 0.03930739793919508 0.0 0.0
0.0 0.05802146226038718 -0.046373232765959484 0.045350905140707456 0.0010223276252520357 0.03438599598306124 0.0 0.0
0.0 0.04998294497334176 -0.039948416656245676 0.03898782724831435 0.0009605894079313098 0.030067578658606944 0.0 0.0
0.0 0.041727281710952774 -0.03325483925540166 0.03235689260874004 0.0008979466466616088 0.02623443082865286 0.0 0.0
0.0 0.03381738026326043 -0.026758071487295025 0.025919612721399546 0.0008384587658954582 0.022592162230066718 0.0 0.0
0.0 0.02644365596862335 -0.02070055238557343 0.019920281533007983 0.0007802708525654377 0.0189169678225045 0.0 0.0
0.0 0.019679037936579304 -0.015165402711292294 0.014447713382599672 0.0007176893286926191 0.01511253001325279 0.0 0.0
0.0 0.013440660776885008 -0.010212233058313563 0.009571150223346078 0.0006410828349674845 0.0112175455259379 0.0 0.0
0.0 0.008200559654637247 -0.005988801720569583 0.0054630459159869735 0.0005257558045826066 0.007495709598865105 0.0 0.0
0.0 0.0040563978218667 -0.002802489379113173 0.00245540909949087 0.000347080279622304 0.004288458717955104 0.0 0.0
0.0 0.0015223744190706778 -0.0009183566067064389 0.0007709977262349587 0.00014735888047148017 0.0018831679067272578 0.0 0.0
0.0 0.0004140729377452325 -0.0001996383588075991 0.0001634263977526806 3.621196105491842e-05 0.0005631332870771107 0.0 0.0
0.0 0.00010185026773451572 -3.907718075170348e-05 3.211562003972837e-05 6.9615607119750635e-06 0.00014108104598193537 0.0 0.0
0.0 3.324352676317725e-05 -9.110331344056968e-06 7.586826830130352e-06 1.5235045139265936e-06 4.00670276089165e-05 0.0 0.0
0.0 1.2466222755955673e-05 -2.543958176037441e-06 2.0951537560820866e-06 4.4880441995536125e-07 1.478852235955902e-05 0.0 0.0
0.0 2.060654233986944e-06 -4.672349996877113e-08 3.8180974395827246e-08 8.542525572940166e-09 5.68992213324692e-07 0.0 0.0
0.0 0.0 0.0 0.0 0.0 0.0 0.0 0.0
0.0 0.0 0.0 0.0 0.0 0.0 0.0 0.0
0.0 4.063806097121623e-07 8.83875332606981e-09 -5.922659735395461e-09 -2.916093590674856e-09 8.037141172206253e-08 0.0 0.0
0.0 8.189892150413384e-06 -2.10043202998947e-06 1.7145437247157092e-06 3.858883052737554e-07 -9.341752066144193e-06 0.0 0.0
0.0 3.2481442336637624e-05 -1.2483559539565528e-05 1.0279264711744255e-05 2.2042948278212554e-06 -4.018231436129911e-05 0.0 0.0
0.0 0.0001406699527811705 -7.135837237304928e-05 5.831387315625567e-05 1.3044499216793633e-05 -0.00017478273615690717 0.0 0.0
0.0 0.0007153362785789735 -0.0004567600978692438 0.00037739117224896095 7.9368925620283e-05 -0.0008283120584530959 0.0 0.0
0.0 0.0026055104643699038 -0.0018901064430211932 0.0016259020380226794 0.000264204404998513 -0.0025310270684185737 0.0 0.0
0.0 0.006435505146932943 -0.004939359084631535 0.004456237365741417 0.0004831217188901165 -0.0052981937216230665 0.0 0.0
0.0 0.012189000393642369 -0.009591943289193694 0.00895874303751998 0.0006332002516737125 -0.00897885606100837 0.0 0.0
0.0 0.01941270469388904 -0.015540047789807792 0.0148094099366757 0.0007306378531320896 -0.013223363062542515 0.0 0.0
0.0 0.02777688723572242 -0.02246647922270743 0.0216604355805617 0.0008060436421457115 -0.01756689028655022 0.0 0.0
0.0 0.03706139902373593 -0.030204079910735027 0.02932936683858582 0.0008747130721491722 -0.021730940636724785 0.0 0.0
0.0 0.04719817437302095 -0.03868665047147045 0.03774639572616093 0.0009402547453095057 -0.025712612322229544 0.0 0.0
0.0 0.05805569168817615 -0.04783641965577009 0.04682867401729505 0.0010077456384750445 -0.029670438424029708 0.0 0.0
0.0 0.06950696996880934 -0.05740909916374427 0.05632939064771668 0.0010797085160275336 -0.03397064004739309 0.0 0.0
0.0 0.0809780029207077 -0.06686504971393903 0.06570809951441821 0.0011569501995207468 -0.03908173553118855 0.0 0.0
0.0 0.0912875053338425 -0.07522706504429141 0.0739847843420905 0.001242280702200846 -0.04501870090159942 0.0 0.0
0.0 0.09848107985516316 -0.0808394079031986 0.0794966391036946 0.0013427687995039282 -0.05056555028349448 0.0 0.0
0.0 0.0988659426048132 -0.08084171547371384 0.07934821826277391 0.0014934972109398926 -0.052747323593289035 0.0 0.0
0.0 0.08625381998216497 -0.07003533844994249 0.06831793499040967 0.001717403459532824 -0.04833613030602096 0.0 0.0
0.0 0.08625381998217323 -0.07003533844993912 0.06831793499040725 0.001717403459531826 0.04833613030608441 0.0 0.0
0.0 0.09886594260480455 -0.08084171547369348 0.0793482182627547 0.0014934972109387793 0.05274732359336898 0.0 0.0
0.0 0.09848107985513196 -0.08083940790316213 0.0794966391036585 0.001342768799503598 0.05056555028355132 0.0 0.0
0.0 0.09128750533379225 -0.07522706504424388 0.0739847843420441 0.001242280702199748 0.045018700901614486 0.0 0.0
0.0 0.08097800292064262 -0.06686504971388278 0.06570809951436268 0.0011569501995201221 0.039081735531172085 0.0 0.0
0.0 0.06950696996874028 -0.05740909916368599 0.05632939064765817 0.0010797085160277576 0.033970640047370104 0.0 0.0
0.0 0.05805569168809854 -0.04783641965570552 0.04682867401722966 0.0010077456384758794 0.029670438423998965 0.0 0.0
0.0 0.047198174372951304 -0.038686650471411586 0.03774639572610206 0.0009402547453095152 0.0257126123222051 0.0 0.0
0.0 0.037061399023674946 -0.030204079910683572 0.029329366838534956 0.0008747130721485808 0.0217309406366988 0.0 0.0
0.0 0.027776887235662028 -0.02246647922265819 0.021660435580513122 0.0008060436421450742 0.017566890286514675 0.0 0.0
0.0 0.019412704693833112 -0.015540047789763353 0.014809409936631799 0.0007306378531315527 0.013223363062504248 0.0 0.0
0.0 0.012189000393603922 -0.00959194328916337 0.00895874303749018 0.0006332002516731981 0.008978856060983562 0.0 0.0
0.0 0.0064355051469097615 -0.004939359084613307 0.004456237365724211 0.00048312171888909407 0.005298193721607311 0.0 0.0
0.0 0.002605510464357646 -0.0018901064430124075 0.0016259020380149317 0.0002642044049974761 0.00253102706840853 0.0 0.0
0.0 0.0007153362785734182 -0.00045676009786624046 0.00037739117224641486 7.936892561982583e-05 0.0008283120584482346 0.0 0.0
0.0 0.00014066995277979826 -7.135837237286762e-05 5.831387315609619e-05 1.3044499216771402e-05 0.00017478273615642603 0.0 0.0
0.0 3.2481442336000825e-05 -1.2483559539758333e-05 1.0279264711898871e-05 2.2042948278594587e-06 4.0182314361865155e-05 0.0 0.0
0.0 8.189892150047827e-06 -2.1004320301773905e-06 1.7145437248627184e-06 3.85888305314671e-07 9.341752066960666e-06 0.0 0.0
0.0 4.063806093257621e-07 8.838753319458759e-09 -5.922659733024222e-09 -2.916093586432878e-09 -8.037141164573473e-08 0.0 0.0
0.0 0.0 0.0 0.0 0.0 0.0 0.0 0.0
0.0 0.0 0.0 0.0 0.0 0.0 0.0 0.0
0.0 2.6899561045647454e-08 7.357967919331515e-10 -5.515569793030163e-10 -1.842398126303369e-10 5.159049248195317e-09 0.0 0.0
0.0 3.8631558158065414e-06 -1.1822610720103426e-06 9.614514269022013e-07 2.2080964510814476e-07 -4.130076543126017e-06 0.0 0.0
0.0 3.133868303655958e-05 -1.2747409953205934e-05 1.0391571013599559e-05 2.355838939606388e-06 -3.0680707423968455e-05 0.0 0.0
0.0 0.00022589658400345208 -0.00013490008176581019 0.00011003290548427796 2.4867176281532223e-05 -0.0002318890736525932 0.0 0.0
0.0 0.0012110586850179184 -0.0009032361540269061 0.0007563725565410815 0.0001468635974858244 -0.0011154024972107818 0.0 0.0
0.0 0.0040148371644515325 -0.0031668716392312603 0.002788520678845112 0.0003783509603861499 -0.002975454548300174 0.0 0.0
0.0 0.009108396357162258 -0.00737195331087717 0.006793972970937326 0.0005779803399398399 -0.005897873888317871 0.0 0.0
0.0 0.016382952059907824 -0.013446528086039047 0.01274270581401454 0.0007038222720245003 -0.00980160517347831 0.0 0.0
0.0 0.025487623911377814 -0.021069444083826536 0.020273935071416012 0.0007955090124105281 -0.014212864385901814 0.0 0.0
0.0 0.03604243579127285 -0.029940243034286693 0.029063456184805325 0.0008767868494813567 -0.018662866226275217 0.0 0.0
0.0 0.04780425861814548 -0.03987036804094515 0.0389170522477764 0.0009533157931687655 -0.02292984638739619 0.0 0.0
0.0 0.06064857042085761 -0.05076861405812945 0.04974194491082007 0.0010266691473093345 -0.027001157685973026 0.0 0.0
0.0 0.07452020818806929 -0.06256246460494644 0.06146153548063121 0.0011009291243152472 -0.03101478244869173 0.0 0.0
0.0 0.08925431237188586 -0.07502484798882551 0.07384204149707513 0.0011828064917503646 -0.035392395603934555 0.0 0.0
0.0 0.10393997969146741 -0.0875152621604126 0.08623742317767236 0.001277838982740238 -0.04066947343785399 0.0 0.0
0.0 0.1175010998247066 -0.09869719070960215 0.09730748781060598 0.001389702898996144 -0.046890539250742484 0.0 0.0
0.0 0.126816068924429 -0.10625023406353035 0.1047230151639945 0.0015272188995358498 -0.05275320562790196 0.0 0.0
0.0 0.1273856291104312 -0.10646942577982793 0.10477311359019256 0.001696312189635321 -0.05561050782886646 0.0 0.0
0.0 0.11308230722883889 -0.09388437133351599 0.09199460396438289 0.0018897673691330957 -0.053854238332724826 0.0 0.0
0.0 0.11308230722884104 -0.09388437133350874 0.09199460396437595 0.0018897673691327741 0.05385423833278899 0.0 0.0
0.0 0.12738562911041434 -0.10646942577980269 0.10477311359016796 0.0016963121896346556 0.05561050782894632 0.0 0.0
0.0 0.1268160689243903 -0.10625023406348845 0.10472301516395359 0.0015272188995347847 0.05275320562796243 0.0 0.0
0.0 0.11750109982464224 -0.09869719070954291 0.09730748781054756 0.001389702898995273 0.04689053925075847 0.0 0.0
0.0 0.10393997969139511 -0.08751526216034904 0.0862374231776108 0.001277838982738191 0.04066947343784153 0.0 0.0
0.0 0.08925431237181042 -0.07502484798875965 0.07384204149701162 0.0011828064917480245 0.03539239560391654 0.0 0.0
0.0 0.07452020818799063 -0.0625624646048786 0.06146153548056501 0.0011009291243135996 0.031014782448667687 0.0 0.0
0.0 0.06064857042077653 -0.05076861405805972 0.04974194491075123 0.0010266691473084636 0.027001157685949836 0.0 0.0
0.0 0.04780425861806194 -0.03987036804087425 0.038917052247705836 0.0009533157931684178 0.0229298463873654 0.0 0.0
0.0 0.03604243579119808 -0.029940243034224545 0.029063456184743645 0.000876786849480876 0.01866286622623734 0.0 0.0
0.0 0.025487623911313383 -0.02106944408377349 0.020273935071363353 0.0007955090124101367 0.014212864385863963 0.0 0.0
0.0 0.01638295205986151 -0.013446528086000543 0.012742705813976764 0.0007038222720237846 0.009801605173454395 0.0 0.0
0.0 0.009108396357128217 -0.0073719533108494075 0.00679397297091054 0.0005779803399388632 0.005897873888298511 0.0 0.0
0.0 0.004014837164428764 -0.003166871639213675 0.002788520678828608 0.0003783509603850682 0.002975454548284844 0.0 0.0
0.0 0.0012110586850067049 -0.0009032361540190016 0.0007563725565342832 0.00014686359748471752 0.0011154024972020045 0.0 0.0
0.0 0.00022589658400023484 -0.00013490008176433171 0.00011003290548304884 2.486717628128276e-05 0.00023188907365027256 0.0 0.0
0.0 3.1338683035644284e-05 -1.2747409953184116e-05 1.0391571013571575e-05 2.3558389396125546e-06 3.0680707423891064e-05 0.0 0.0
0.0 3.863155815715766e-06 -1.182261072133082e-06 9.614514270015388e-07 2.208096451315408e-07 4.130076543558364e-06 0.0 0.0
0.0 2.6899561263630976e-08 7.357967979177983e-10 -5.515569837912453e-10 -1.8423981412668988e-10 -5.159049290155655e-09 0.0 0.0
0.0 0.0 0.0 0.0 0.0 0.0 0.0 0.0
0.0 0.0 0.0 0.0 0.0 0.0 0.0 0.0
0.0 0.0 0.0 0.0 0.0 0.0 0.0 0.0
0.0 9.159772724021529e-07 5.630253744311479e-08 -4.536700834069255e-08 -1.0935529102421052e-08 1.5681455061216043e-07 0.0 0.0
0.0 2.9940310849392167e-05 -1.7357783022339734e-05 1.4025153227706973e-05 3.3326297946327933e-06 -3.1525280203931286e-05 0.0 0.0
0.0 0.00036875841543571237 -0.0002671885498717441 0.00021839711078015345 4.8791439091590535e-05 -0.00032695843823577533 0.0 0.0
0.0 0.0019347042191718447 -0.001547610582821927 0.001316674510062448 0.0002309360727594792 -0.0013234635212612945 0.0 0.0
0.0 0.005718093453953651 -0.004678904876037432 0.004205407964858233 0.00047349691117920024 -0.0031616760020993064 0.0 0.0
0.0 0.011919757828338064 -0.01001486101772263 0.009370904592202483 0.0006439564255201462 -0.006066766727659119 0.0 0.0
0.0 0.02070059789863721 -0.0174505469447433 0.016695800103945536 0.0007547468407977681 -0.009879605748465557 0.0 0.0
0.0 0.03165677091729307 -0.026711307967106447 0.0258627983308128 0.0008485096362936554 -0.014133239761876523 0.0 0.0
0.0 0.04438741787946371 -0.03751237959809105 0.03657514904008263 0.0009372305580083802 -0.018439604414581253 0.0 0.0
0.0 0.0585991001623173 -0.04963214415296996 0.04860975902840421 0.0010223851245656506 -0.022566236138963382 0.0 0.0
0.0 0.07421497788243427 -0.06293970019961531 0.0618355659617193 0.001104134237896019 -0.02650621053410972 0.0 0.0
0.0 0.09094587382475167 -0.0773509452784711 0.07616546449300454 0.0011854807854666223 -0.030351468784957515 0.0 0.0
0.0 0.10880075054709609 -0.09264315396214431 0.09136692561501678 0.0012762283471275393 -0.03437232360519469 0.0 0.0
0.0 0.1269916777932793 -0.1080903045567372 0.10670174266766891 0.001388561889068313 -0.03910846838962903 0.0 0.0
0.0 0.1432778624467187 -0.122006962346163 0.12047884842408388 0.00152811392207908 -0.04488992235820616 0.0 0.0
0.0 0.15450762246778538 -0.13140938914501063 0.12971544840208776 0.001693940742922909 -0.0509591869753939 0.0 0.0
0.0 0.1556223876553643 -0.1319295124360212 0.1300567273120241 0.0018727851239970393 -0.05572794917793568 0.0 0.0
0.0 0.1404823184110883 -0.11791734861606336 0.11586839546987196 0.002048953146191427 -0.058839369244322925 0.0 0.0
0.0 0.14048231841108705 -0.11791734861605446 0.11586839546986281 0.0020489531461916097 0.058839369244389386 0.0 0.0
0.0 0.1556223876553351 -0.13192951243598805 0.13005672731198933 0.0018727851239986335 0.055727949178015546 0.0 0.0
0.0 0.15450762246773111 -0.13140938914495784 0.12971544840203394 0.0016939407429238823 0.050959186975453374 0.0 0.0
0.0 0.14327786244664456 -0.12200696234609618 0.12047884842401724 0.001528113922078847 0.044889922358224435 0.0 0.0
0.0 0.12699167779318524 -0.10809030455665566 0.10670174266758721 0.0013885618890684378 0.03910846838961977 0.0 0.0
0.0 0.1088007505469939 -0.09264315396205605 0.0913669256149285 0.001276228347127519 0.03437232360517889 0.0 0.0
0.0 0.09094587382465016 -0.0773509452783839 0.07616546449291732 0.00118548078546653 0.03035146878493487 0.0 0.0
0.0 0.07421497788233727 -0.0629397001995313 0.06183556596163585 0.0011041342378953739 0.02650621053408869 0.0 0.0
0.0 0.05859910016222453 -0.04963214415288977 0.04860975902832502 0.0010223851245647468 0.022566236138937743 0.0 0.0
0.0 0.04438741787937684 -0.03751237959801771 0.036575149040009636 0.0009372305580080861 0.018439604414544973 0.0 0.0
0.0 0.031656770917218816 -0.026711307967044177 0.025862798330751058 0.0008485096362931242 0.0141332397618408 0.0 0.0
0.0 0.020700597898582772 -0.017450546944697033 0.016695800103899944 0.0007547468407970789 0.009879605748442382 0.0 0.0
0.0 0.011919757828297602 -0.010014861017688684 0.009370904592169098 0.000643956425519578 0.0060667667276400935 0.0 0.0
0.0 0.005718093453928536 -0.004678904876017044 0.004205407964838832 0.0004734969111782136 0.0031616760020865423 0.0 0.0
0.0 0.0019347042191608945 -0.001547610582813694 0.0013166745100551928 0.0002309360727585006 0.0013234635212546757 0.0 0.0
0.0 0.0003687584154316251 -0.00026718854986939044 0.00021839711077818177 4.879143909120852e-05 0.00032695843823314316 0.0 0.0
0.0 2.994031084904229e-05 -1.735778302251053e-05 1.402515322784068e-05 3.3326297946698264e-06 3.152528020425352e-05 0.0 0.0
0.0 9.159772720464821e-07 5.630253742091469e-08 -4.5367008322703315e-08 -1.0935529098212496e-08 -1.5681455054918204e-07 0.0 0.0
0.0 0.0 0.0 0.0 0.0 0.0 0.0 0.0
0.0 0.0 0.0 0.0 0.0 0.0 0.0 0.0
0.0 0.0 0.0 0.0 0.0 0.0 0.0 0.0
0.0 0.0 0.0 0.0 0.0 0.0 0.0 0.0
0.0 2.633745482838499e-07 1.9034837468267232e-08 -1.5232417022672714e-08 -3.80242044559584e-09 3.959451352121644e-08 0.0 0.0
0.0 3.5491525244835265e-05 -2.4696867886912902e-05 1.9860048463598724e-05 4.836819423314198e-06 -3.299039480588003e-05 0.0 0.0
0.0 0.0006205023987197209 -0.0004933173487049631 0.00040549524502080125 8.782210368416196e-05 -0.00041723966270305234 0.0 0.0
0.0 0.002881297759501733 -0.0023774691682453123 0.0020587498918839355 0.0003187192763613776 -0.0013933461302778906 0.0 0.0
0.0 0.007431049273143812 -0.006385298546751024 0.005838187800801062 0.0005471107459499639 -0.003102759317555164 0.0 0.0
0.0 0.014872046052507387 -0.012781508268944777 0.012092119023886162 0.0006893892450586179 -0.005743464214573357 0.0 0.0
0.0 0.02514731464894486 -0.021528502708011946 0.020733333751426483 0.0007951689565854543 -0.009159858120269598 0.0 0.0
0.0 0.03788569681932255 -0.032407554408063 0.03151365865201666 0.0008938957560463415 -0.013011410436599214 0.0 0.0
0.0 0.052756492651830446 -0.045126273961816656 0.04413615103391896 0.0009901229278976601 -0.016909962337041656 0.0 0.0
0.0 0.06944793005545992 -0.059434407743404784 0.0583500973276836 0.0010843104157211502 -0.02065307673355685 0.0 0.0
0.0 0.08773158112075727 -0.07515214542170023 0.0739764779987525 0.0011756674229477207 -0.02425102883750504 0.0 0.0
0.0 0.1074826650542283 -0.09213586769070639 0.09086967259784372 0.0012661950928626344 -0.027696953756490138 0.0 0.0
0.0 0.12837075390495803 -0.11012989908591979 0.10876540970643882 0.001364489379480954 -0.031028394039910274 0.0 0.0
0.0 0.14933721014763085 -0.12836920779120112 0.1268804792049527 0.001488728586248403 -0.03459714431383687 0.0 0.0
0.0 0.16864278821685816 -0.14493821925783212 0.1432862712920991 0.001651947965732984 -0.039179512509271555 0.0 0.0
0.0 0.18213088817973358 -0.1563275343814488 0.1544858274551924 0.00184170692625643 -0.04538055363995863 0.0 0.0
0.0 0.18422770759006493 -0.15756282098824992 0.15552657965775557 0.002036241330494252 -0.05325848064978736 0.0 0.0
0.0 0.16860690256840588 -0.1426037926106298 0.1403960242603242 0.0022077683503055213 -0.06331578327614878 0.0 0.0
0.0 0.1686069025683991 -0.142603792610617 0.14039602426031136 0.0022077683503056917 0.06331578327621094 0.0 0.0
0.0 0.18422770759002816 -0.1575628209882112 0.15552657965771777 0.002036241330493392 0.05325848064986008 0.0 0.0
0.0 0.1821308881796736 -0.15632753438139185 0.15448582745513728 0.0018417069262544488 0.04538055364001245 0.0 0.0
0.0 0.16864278821676762 -0.14493821925775158 0.1432862712920202 0.0016519479657313334 0.039179512509284205 0.0 0.0
0.0 0.14933721014751988 -0.12836920779110464 0.12688047920485707 0.001488728586247512 0.034597144313827224 0.0 0.0
0.0 0.1283707539048392 -0.11012989908581676 0.10876540970633625 0.0013644893794804618 0.03102839403989826 0.0 0.0
0.0 0.1074826650541167 -0.09213586769060968 0.09086967259774839 0.0012661950928612579 0.02769695375647175 0.0 0.0
0.0 0.08773158112064253 -0.07515214542160115 0.07397647799865355 0.001175667422947613 0.024251028837486182 0.0 0.0
0.0 0.0694479300553481 -0.059434407743308354 0.05835009732758754 0.0010843104157208382 0.020653076733531044 0.0 0.0
0.0 0.052756492651731775 -0.04512627396173185 0.044136151033835204 0.0009901229278966438 0.016909962337008637 0.0 0.0
0.0 0.03788569681923548 -0.03240755440798869 0.031513658651942895 0.0008938957560457908 0.013011410436565955 0.0 0.0
0.0 0.025147314648877987 -0.02152850270795442 0.020733333751369123 0.0007951689565853007 0.009159858120248117 0.0 0.0
0.0 0.014872046052459103 -0.01278150826890327 0.012092119023845266 0.0006893892450580005 0.005743464214555294 0.0 0.0
0.0 0.0074310492731144585 -0.00638529854672602 0.00583818780077701 0.0005471107459490084 0.0031027593175436663 0.0 0.0
0.0 0.002881297759487471 -0.0023774691682342175 0.002058749891873804 0.0003187192763604142 0.0013933461302715754 0.0 0.0
0.0 0.0006205023987146713 -0.0004933173487016517 0.00040549524501802374 8.782210368362778e-05 0.0004172396627006444 0.0 0.0
0.0 3.549152524420041e-05 -2.469686788701503e-05 1.986004846366749e-05 4.836819423347546e-06 3.299039480600486e-05 0.0 0.0
0.0 2.633745479801639e-07 1.90348374459991e-08 -1.5232417004860948e-08 -3.802420441135515e-09 -3.959451347502403e-08 0.0 0.0
0.0 0.0 0.0 0.0 0.0 0.0 0.0 0.0
0.0 0.0 0.0 0.0 0.0 0.0 0.0 0.0
0.0 0.0 0.0 0.0 0.0 0.0 0.0 0.0
0.0 0.0 0.0 0.0 0.0 0.0 0.0 0.0
0.0 0.0 0.0 0.0 0.0 0.0 0.0 0.0
0.0 5.6561672128699624e-05 -4.456151983108491e-05 3.5848150146224765e-05 8.713369684860162e-06 -4.142817633465504e-05 0.0 0.0
0.0 0.0010208727815660644 -0.0008428886681399361 0.0006992366002322029 0.00014365206790773296 -0.0004602992638889766 0.0 0.0
0.0 0.003973010928719597 -0.003377327422593873 0.0029751521682162847 0.00040217525437758915 -0.001303971544413437 0.0 0.0
0.0 0.009368418756375289 -0.008209116681550579 0.00760766667712021 0.0006014500044303668 -0.002707178214294232 0.0 0.0
0.0 0.01796275149521469 -0.015605154449313043 0.014882099443713685 0.0007230550055993483 -0.004851104930949506 0.0 0.0
0.0 0.029640844925592637 -0.02563333247415725 0.02480464791342966 0.00082868456072757 -0.0076665541729342805 0.0 0.0
0.0 0.04414913933075439 -0.038105901956446225 0.037172844789379746 0.0009330571670664855 -0.01085682939784694 0.0 0.0
0.0 0.06116428304224245 -0.05272925124621305 0.051692149070719465 0.001037102175493564 -0.01409121793409263 0.0 0.0
0.0 0.08027318593609307 -0.06922503994590874 0.06808478156565541 0.0011402583802533099 -0.017194139765134495 0.0 0.0
0.0 0.10137199875488974 -0.08735391960221485 0.08611141387932089 0.0012425057228939692 -0.020192836901148346 0.0 0.0
0.0 0.12383922652168976 -0.10687410597053881 0.10552926118713557 0.001344844783403268 -0.023064484071637883 0.0 0.0
0.0 0.14750451365686612 -0.12740908384386485 0.12595696763185363 0.0014521162120111493 -0.025563112021756366 0.0 0.0
0.0 0.17143521367994877 -0.14815409875366198 0.1465741767411144 0.0015799220125474376 -0.027559283317439943 0.0 0.0
0.0 0.19349068932858066 -0.16724729198545601 0.16549693792286183 0.0017503540625941581 -0.030098493480483667 0.0 0.0
0.0 0.20957160820143217 -0.18099034459441224 0.17901926374905452 0.001971080845357658 -0.035921851214684726 0.0 0.0
0.0 0.21343081059608943 -0.18367432014387086 0.18148306047788565 0.0021912596659853425 -0.04769878258706422 0.0 0.0
0.0 0.19822797387265811 -0.1684646401232987 0.16608545494060767 0.0023791851826910656 -0.06693271563726091 0.0 0.0
0.0 0.19822797387264782 -0.1684646401232845 0.16608545494059437 0.002379185182690041 0.06693271563730903 0.0 0.0
0.0 0.21343081059603766 -0.18367432014382193 0.18148306047783663 0.002191259665985352 0.04769878258712627 0.0 0.0
0.0 0.20957160820134738 -0.18099034459433627 0.1790192637489787 0.001971080845357515 0.03592185121472952 0.0 0.0
0.0 0.19349068932846683 -0.16724729198535732 0.1654969379227627 0.0017503540625946475 0.03009849348049154 0.0 0.0
0.0 0.17143521367982167 -0.14815409875355215 0.1465741767410048 0.0015799220125473424 0.027559283317430967 0.0 0.0
0.0 0.14750451365673026 -0.12740908384374744 0.12595696763173583 0.0014521162120116676 0.02556311202174848 0.0 0.0
0.0 0.12383922652155663 -0.10687410597042407 0.10552926118702059 0.0013448447834034786 0.023064484071622187 0.0 0.0
0.0 0.10137199875476308 -0.0873539196021045 0.0861114138792121 0.0012425057228924534 0.02019283690113468 0.0 0.0
0.0 0.0802731859359708 -0.06922503994580262 0.06808478156555069 0.0011402583802519112 0.01719413976511642 0.0 0.0
0.0 0.06116428304213076 -0.052729251246116486 0.05169214907062349 0.0010371021754929726 0.01409121793406531 0.0 0.0
0.0 0.04414913933065762 -0.03810590195636266 0.03717284478929671 0.0009330571670659654 0.010856829397819722 0.0 0.0
0.0 0.02964084492551893 -0.025633332474093114 0.024804647913366222 0.0008286845607268858 0.007666554172916552 0.0 0.0
0.0 0.017962751495157372 -0.015605154449263314 0.014882099443664327 0.0007230550055989943 0.004851104930933808 0.0 0.0
0.0 0.009368418756339956 -0.008209116681519848 0.007607666677090138 0.0006014500044297134 0.00270717821428376 0.0 0.0
0.0 0.003973010928700654 -0.003377327422578071 0.002975152168201524 0.00040217525437654625 0.0013039715444070385 0.0 0.0
0.0 0.0010208727815589954 -0.000842888668134664 0.0006992366002276769 0.00014365206790698713 0.000460299263886341 0.0 0.0
0.0 5.6561672127839526e-05 -4.4561519831077823e-05 3.584815014619411e-05 8.71336968488375e-06 4.1428176334609184e-05 0.0 0.0
0.0 0.0 0.0 0.0 0.0 0.0 0.0 0.0
0.0 0.0 0.0 0.0 0.0 0.0 0.0 0.0
0.0 0.0 0.0 0.0 0.0 0.0 0.0 0.0
0.0 0.0 0.0 0.0 0.0 0.0 0.0 0.0
0.0 0.0 0.0 0.0 0.0 0.0 0.0 0.0
0.0 0.0 0.0 0.0 0.0 0.0 0.0 0.0
0.0 0.00011959363260166878 -9.99710875333661e-05 8.033892185473434e-05 1.9632165678631802e-05 -5.6132774381761444e-05 0.0 0.0
0.0 0.0015949220907769048 -0.0013281778832213596 0.001116631548333254 0.00021154633488810543 -0.00041493332073403263 0.0 0.0
0.0 0.005048512465091551 -0.0045189560387017425 0.004043752733250605 0.0004752033054511377 -0.0010037940959732449 0.0 0.0
0.0 0.011454498921389689 -0.010095473928665968 0.009456283566715887 0.0006391903619500843 -0.001961244222199478 0.0 0.0
0.0 0.021104285842423957 -0.01844893968140878 0.01769894442039111 0.0007499952610176839 -0.003431096864372362 0.0 0.0
0.0 0.03415279886335494 -0.029717599174300363 0.02886139591531828 0.0008562032589820552 -0.005403371305603108 0.0 0.0
0.0 0.0504093811767308 -0.04375676541734003 0.04278999577521435 0.0009667696421256429 -0.007670449325654147 0.0 0.0
0.0 0.06954102371416983 -0.06027206383116032 0.059193123687537035 0.00107894014362323 -0.009973053906608804 0.0 0.0
0.0 0.09122949712725854 -0.07895102320808117 0.07775964131010901 0.0011913818979721585 -0.012182970550720961 0.0 0.0
0.0 0.11483027201252818 -0.0994911163821012 0.09818616889056625 0.0013049474915349441 -0.014344581734582031 0.0 0.0
0.0 0.14020368372235031 -0.12151656848496724 0.12009558162990375 0.0014209868550634367 -0.01638406299541913 0.0 0.0
0.0 0.16668014660964012 -0.14446242039472265 0.14292120557585958 0.0015412148188631417 -0.01797142022059597 0.0 0.0
0.0 0.19309625085787438 -0.1673970003501118 0.16572640164011432 0.0016705987099974039 -0.0186294272698551 0.0 0.0
0.0 0.21756091483066237 -0.18865162259436594 0.18682399227407132 0.0018276303202947146 -0.01874998604298713 0.0 0.0
0.0 0.23654342010515605 -0.20502972345171327 0.20298597091123538 0.0020437525404778814 -0.02214867747436104 0.0 0.0
0.0 0.24360783146778497 -0.21054413757016086 0.20818965842819004 0.002354479141970632 -0.037221868275458696 0.0 0.0
0.0 0.23009318512490062 -0.19624775340609119 0.19371997631185717 0.00252777709423383 -0.06875594151193815 0.0 0.0
0.0 0.2300931851248865 -0.19624775340607614 0.1937199763118425 0.002527777094233438 0.0687559415119761 0.0 0.0
0.0 0.24360783146772566 -0.21054413757010704 0.20818965842813653 0.002354479141970473 0.037221868275509155 0.0 0.0
0.0 0.23654342010505933 -0.20502972345162898 0.2029859709111505 0.0020437525404785606 0.022148677474394314 0.0 0.0
0.0 0.21756091483054438 -0.18865162259426266 0.1868239922739698 0.0018276303202929178 0.0187499860429906 0.0 0.0
0.0 0.19309625085773477 -0.1673970003499906 0.16572640163999447 0.0016705987099960768 0.018629427269848724 0.0 0.0
0.0 0.1666801466094906 -0.14446242039459298 0.14292120557573 0.0015412148188630329 0.017971420220594857 0.0 0.0
0.0 0.1402036837222012 -0.12151656848483822 0.12009558162977503 0.0014209868550631509 0.016384062995410783 0.0 0.0
0.0 0.11483027201237794 -0.09949111638197103 0.09818616889043655 0.0013049474915345198 0.014344581734572176 0.0 0.0
0.0 0.09122949712711861 -0.07895102320795962 0.07775964130998791 0.0011913818979717068 0.012182970550710208 0.0 0.0
0.0 0.06954102371404991 -0.060272063831056204 0.059193123687434054 0.0010789401436221363 0.009973053906590753 0.0 0.0
0.0 0.050409381176625856 -0.04375676541724901 0.04278999577512396 0.0009667696421250549 0.007670449325634523 0.0 0.0
0.0 0.03415279886327291 -0.029717599174228646 0.028861395915247 0.0008562032589816357 0.005403371305591739 0.0 0.0
0.0 0.021104285842364935 -0.01844893968135699 0.017698944420339955 0.0007499952610170194 0.0034310968643629586 0.0 0.0
0.0 0.011454498921349521 -0.010095473928630557 0.009456283566681082 0.0006391903619494765 0.001961244222191783 0.0 0.0
0.0 0.005048512465069618 -0.004518956038682332 0.004043752733232204 0.00047520330545012775 0.0010037940959686784 0.0 0.0
0.0 0.00159492209076795 -0.0013281778832143513 0.0011166315483270603 0.00021154633488729125 0.0004149333207319775 0.0 0.0
0.0 0.0001195936326007329 -9.997108753339679e-05 8.033892185474751e-05 1.9632165678649203e-05 5.6132774381828325e-05 0.0 0.0
0.0 0.0 0.0 0.0 0.0 0.0 0.0 0.0
0.0 0.0 0.0 0.0 0.0 0.0 0.0 0.0
0.0 0.0 0.0 0.0 0.0 0.0 0.0 0.0
0.0 0.0 0.0 0.0 0.0 0.0 0.0 0.0
0.0 0.0 0.0 0.0 0.0 0.0 0.0 0.0
0.0 0.0 0.0 0.0 0.0 0.0 0.0 0.0
0.0 0.0002735359859793407 -0.0002405423620443463 0.00019336472413966692 4.717763790467943e-05 -5.677565663422028e-05 0.0 0.0
0.0 0.002344401307176335 -0.0019387812465169688 0.0016531815812061772 0.0002855996653107906 -0.00023766934492222387 0.0 0.0
0.0 0.006405853761413118 -0.005735155029485886 0.005202739740263172 0.000532415289222716 -0.000470147990889749 0.0 0.0
0.0 0.013607237398670553 -0.01201672201163557 0.011348662686412372 0.0006680593252231923 -0.0008620633692815935 0.0 0.0
0.0 0.02428553146377243 -0.021271659223964484 0.02050052941629257 0.0007711298076719026 -0.0014873826997867945 0.0 0.0
0.0 0.03867575855667515 -0.0337334782910405 0.03285455318670023 0.0008789251043402517 -0.002378517715725026 0.0 0.0
0.0 0.056687944508069465 -0.04930944854517535 0.04831399255999639 0.0009954559851789906 -0.0034455787590728978 0.0 0.0
0.0 0.07800816812390968 -0.06770637857227899 0.06659029847503908 0.0011160800972399316 -0.004549998100076243 0.0 0.0
0.0 0.10193677436308161 -0.08856684889566503 0.08732831936739162 0.001238529528273358 -0.005625119824196796 0.0 0.0
0.0 0.1283256308890234 -0.1114963209121104 0.1101330315683441 0.0013632893437662396 -0.0066630543152633144 0.0 0.0
0.0 0.15659101248796237 -0.13599514833489806 0.13450243783488944 0.0014927105000085712 -0.007581787210292422 0.0 0.0
0.0 0.18578288055719527 -0.16130357116394234 0.15967550688511084 0.0016280642788315425 -0.008172374954057156 0.0 0.0
0.0 0.21456573611463353 -0.18624735415024923 0.18447954806925163 0.0017678060809974616 -0.008029508960844088 0.0 0.0
0.0 0.24096508821787443 -0.20914078917082235 0.20722994160445873 0.0019108475663635975 -0.006808929727059237 0.0 0.0
0.0 0.2621813129618027 -0.22755459505842204 0.22547864243375335 0.002075952624668507 -0.006210118354215543 0.0 0.0
0.0 0.27364113534901446 -0.2372294964382763 0.23489594026347424 0.0023335561748018844 -0.01710930457908849 0.0 0.0
0.0 0.2664279227576556 -0.22782709844927174 0.2252827314896519 0.002544366959619803 -0.06293486069706568 0.0 0.0
0.0 0.2664279227576357 -0.227827098449253 0.2252827314896335 0.002544366959619262 0.0629348606970824 0.0 0.0
0.0 0.27364113534894813 -0.23722949643821797 0.23489594026341662 0.0023335561748011233 0.017109304579113735 0.0 0.0
0.0 0.26218131296169384 -0.22755459505832698 0.2254786424336599 0.0020759526246670558 0.006210118354231807 0.0 0.0
0.0 0.24096508821773202 -0.20914078917069864 0.20722994160433622 0.001910847566362403 0.0068089297270560855 0.0 0.0
0.0 0.21456573611447022 -0.18624735415010807 0.18447954806911018 0.0017678060809976793 0.00802950896083803 0.0 0.0
0.0 0.18578288055703343 -0.16130357116380178 0.15967550688497123 0.0016280642788304837 0.00817237495405655 0.0 0.0
0.0 0.15659101248779905 -0.1359951483347564 0.13450243783474863 0.0014927105000077053 0.007581787210287963 0.0 0.0
0.0 0.12832563088886115 -0.1114963209119698 0.11013303156820398 0.0013632893437657825 0.006663054315257827 0.0 0.0
0.0 0.10193677436292589 -0.08856684889553029 0.08732831936725714 0.001238529528273121 0.005625119824193184 0.0 0.0
0.0 0.07800816812376948 -0.06770637857215757 0.06659029847491793 0.0011160800972396393 0.004549998100065384 0.0 0.0
0.0 0.056687944507952226 -0.04930944854507389 0.04831399255989541 0.0009954559851784867 0.0034455787590618697 0.0 0.0
0.0 0.038675758556584616 -0.03373347829096142 0.032854553186621754 0.0008789251043396593 0.0023785177157197414 0.0 0.0
0.0 0.024285531463704435 -0.021271659223904765 0.020500529416233218 0.0007711298076715279 0.0014873826997818267 0.0 0.0
0.0 0.013607237398624562 -0.012016722011595062 0.01134866268637226 0.0006680593252228054 0.0008620633692787278 0.0 0.0
0.0 0.00640585376138917 -0.005735155029464388 0.005202739740242265 0.0005324152892221228 0.0004701479908877231 0.0 0.0
0.0 0.0023444013071654115 -0.0019387812465081556 0.0016531815811983673 0.00028559966530978886 0.00023766934492180897 0.0 0.0
0.0 0.0002735359859768168 -0.00024054236204273298 0.00019336472413831123 4.717763790442171e-05 5.677565663378138e-05 0.0 0.0
0.0 0.0 0.0 0.0 0.0 0.0 0.0 0.0
0.0 0.0 0.0 0.0 0.0 0.0 0.0 0.0
0.0 0.0 0.0 0.0 0.0 0.0 0.0 0.0