# vtk DataFile Version 3.0
Some data
ASCII
DATASET UNSTRUCTURED_GRID
POINTS 861 float
0.0 0.0 0.0
0.4 0.0 0.0
0.8 0.0 0.0
1.2000000000000002 0.0 0.0
1.6 0.0 0.0
2.0 0.0 0.0
2.4000000000000004 0.0 0.0
2.8000000000000003 0.0 0.0
3.2 0.0 0.0
3.6 0.0 0.0
4.0 0.0 0.0
4.4 0.0 0.0
4.800000000000001 0.0 0.0
5.2 0.0 0.0
5.6000000000000005 0.0 0.0
6.0 0.0 0.0
6.4 0.0 0.0
6.800000000000001 0.0 0.0
7.2 0.0 0.0
7.6000000000000005 0.0 0.0
8.0 0.0 0.0
8.4 0.0 0.0
8.8 0.0 0.0
9.200000000000001 0.0 0.0
9.600000000000001 0.0 0.0
10.0 0.0 0.0
10.4 0.0 0.0
10.8 0.0 0.0
11.200000000000001 0.0 0.0
11.600000000000001 0.0 0.0
12.0 0.0 0.0
12.4 0.0 0.0
12.8 0.0 0.0
13.200000000000001 0.0 0.0
13.600000000000001 0.0 0.0
14.0 0.0 0.0
14.4 0.0 0.0
14.8 0.0 0.0
15.200000000000001 0.0 0.0
15.600000000000001 0.0 0.0
16.0 0.0 0.0
0.0 0.1 0.0
0.4 0.1 0.0
0.8 0.1 0.0
1.2000000000000002 0.1 0.0
1.6 0.1 0.0
2.0 0.1 0.0
2.4000000000000004 0.1 0.0
2.8000000000000003 0.1 0.0
3.2 0.1 0.0
3.6 0.1 0.0
4.0 0.1 0.0
4.4 0.1 0.0
4.800000000000001 0.1 0.0
5.2 0.1 0.0
5.6000000000000005 0.1 0.0
6.0 0.1 0.0
6.4 0.1 0.0
6.800000000000001 0.1 0.0
7.2 0.1 0.0
7.6000000000000005 0.1 0.0
8.0 0.1 0.0
8.4 0.1 0.0
8.8 0.1 0.0
9.200000000000001 0.1 0.0
9.600000000000001 0.1 0.0
10.0 0.1 0.0
10.4 0.1 0.0
10.8 0.1 0.0
11.200000000000001 0.1 0.0
11.600000000000001 0.1 0.0
12.0 0.1 0.0
12.4 0.1 0.0
12.8 0.1 0.0
13.200000000000001 0.1 0.0
13.600000000000001 0.1 0.0
14.0 0.1 0.0
14.4 0.1 0.0
14.8 0.1 0.0
15.200000000000001 0.1 0.0
15.600000000000001 0.1 0.0
16.0 0.1 0.0
0.0 0.2 0.0
0.4 0.2 0.0
0.8 0.2 0.0
1.2000000000000002 0.2 0.0
1.6 0.2 0.0
2.0 0.2 0.0
2.4000000000000004 0.2 0.0
2.8000000000000003 0.2 0.0
3.2 0.2 0.0
3.6 0.2 0.0
4.0 0.2 0.0
4.4 0.2 0.0
4.800000000000001 0.2 0.0
5.2 0.2 0.0
5.6000000000000005 0.2 0.0
6.0 0.2 0.0
6.4 0.2 0.0
6.800000000000001 0.2 0.0
7.2 0.2 0.0
7.6000000000000005 0.2 0.0
8.0 0.2 0.0
8.4 0.2 0.0
8.8 0.2 0.0
9.200000000000001 0.2 0.0
9.600000000000001 0.2 0.0
10.0 0.2 0.0
10.4 0.2 0.0
10.8 0.2 0.0
11.200000000000001 0.2 0.0
11.600000000000001 0.2 0.0
12.0 0.2 0.0
12.4 0.2 0.0
12.8 0.2 0.0
13.200000000000001 0.2 0.0
13.600000000000001 0.2 0.0
14.0 0.2 0.0
14.4 0.2 0.0
14.8 0.2 0.0
15.200000000000001 0.2 0.0
15.600000000000001 0.2 0.0
16.0 0.2 0.0
0.0 0.30000000000000004 0.0
0.4 0.30000000000000004 0.0
0.8 0.30000000000000004 0.0
1.2000000000000002 0.30000000000000004 0.0
1.6 0.30000000000000004 0.0
2.0 0.30000000000000004 0.0
2.4000000000000004 0.30000000000000004 0.0
2.8000000000000003 0.30000000000000004 0.0
3.2 0.30000000000000004 0.0
3.6 0.30000000000000004 0.0
4.0 0.30000000000000004 0.0
4.4 0.30000000000000004 0.0
4.800000000000001 0.30000000000000004 0.0
5.2 0.30000000000000004 0.0
5.6000000000000005 0.30000000000000004 0.0
6.0 0.30000000000000004 0.0
6.4 0.30000000000000004 0.0
6.800000000000001 0.30000000000000004 0.0
7.2 0.30000000000000004 0.0
7.6000000000000005 0.30000000000000004 0.0
8.0 0.30000000000000004 0.0
8.4 0.30000000000000004 0.0
8.8 0.30000000000000004 0.0
9.200000000000001 0.30000000000000004 0.0
9.600000000000001 0.30000000000000004 0.0
10.0 0.30000000000000004 0.0
10.4 0.30000000000000004 0.0
10.8 0.30000000000000004 0.0
11.200000000000001 0.30000000000000004 0.0
11.600000000000001 0.30000000000000004 0.0
12.0 0.30000000000000004 0.0
12.4 0.30000000000000004 0.0
12.8 0.30000000000000004 0.0
13.200000000000001 0.30000000000000004 0.0
13.600000000000001 0.30000000000000004 0.0
14.0 0.30000000000000004 0.0
14.4 0.30000000000000004 0.0
14.8 0.30000000000000004 0.0
15.200000000000001 0.30000000000000004 0.0
15.600000000000001 0.30000000000000004 0.0
16.0 0.30000000000000004 0.0
0.0 0.4 0.0
0.4 0.4 0.0
0.8 0.4 0.0
1.2000000000000002 0.4 0.0
1.6 0.4 0.0
2.0 0.4 0.0
2.4000000000000004 0.4 0.0
2.8000000000000003 0.4 0.0
3.2 0.4 0.0
3.6 0.4 0.0
4.0 0.4 0.0
4.4 0.4 0.0
4.800000000000001 0.4 0.0
5.2 0.4 0.0
5.6000000000000005 0.4 0.0
6.0 0.4 0.0
6.4 0.4 0.0
6.800000000000001 0.4 0.0
7.2 0.4 0.0
7.6000000000000005 0.4 0.0
8.0 0.4 0.0
8.4 0.4 0.0
8.8 0.4 0.0
9.200000000000001 0.4 0.0
9.600000000000001 0.4 0.0
10.0 0.4 0.0
10.4 0.4 0.0
10.8 0.4 0.0
11.200000000000001 0.4 0.0
11.600000000000001 0.4 0.0
12.0 0.4 0.0
12.4 0.4 0.0
12.8 0.4 0.0
13.200000000000001 0.4 0.0
13.600000000000001 0.4 0.0
14.0 0.4 0.0
14.4 0.4 0.0
14.8 0.4 0.0
15.200000000000001 0.4 0.0
15.600000000000001 0.4 0.0
16.0 0.4 0.0
0.0 0.5 0.0
0.4 0.5 0.0
0.8 0.5 0.0
1.2000000000000002 0.5 0.0
1.6 0.5 0.0
2.0 0.5 0.0
2.4000000000000004 0.5 0.0
2.8000000000000003 0.5 0.0
3.2 0.5 0.0
3.6 0.5 0.0
4.0 0.5 0.0
4.4 0.5 0.0
4.800000000000001 0.5 0.0
5.2 0.5 0.0
5.6000000000000005 0.5 0.0
6.0 0.5 0.0
6.4 0.5 0.0
6.800000000000001 0.5 0.0
7.2 0.5 0.0
7.6000000000000005 0.5 0.0
8.0 0.5 0.0
8.4 0.5 0.0
8.8 0.5 0.0
9.200000000000001 0.5 0.0
9.600000000000001 0.5 0.0
10.0 0.5 0.0
10.4 0.5 0.0
10.8 0.5 0.0
11.200000000000001 0.5 0.0
11.600000000000001 0.5 0.0
12.0 0.5 0.0
12.4 0.5 0.0
12.8 0.5 0.0
13.200000000000001 0.5 0.0
13.600000000000001 0.5 0.0
14.0 0.5 0.0
14.4 0.5 0.0
14.8 0.5 0.0
15.200000000000001 0.5 0.0
15.600000000000001 0.5 0.0
16.0 0.5 0.0
0.0 0.6000000000000001 0.0
0.4 0.6000000000000001 0.0
0.8 0.6000000000000001 0.0
1.2000000000000002 0.6000000000000001 0.0
1.6 0.6000000000000001 0.0
2.0 0.6000000000000001 0.0
2.4000000000000004 0.6000000000000001 0.0
2.8000000000000003 0.6000000000000001 0.0
3.2 0.6000000000000001 0.0
3.6 0.6000000000000001 0.0
4.0 0.6000000000000001 0.0
4.4 0.6000000000000001 0.0
4.800000000000001 0.6000000000000001 0.0
5.2 0.6000000000000001 0.0
5.6000000000000005 0.6000000000000001 0.0
6.0 0.6000000000000001 0.0
6.4 0.6000000000000001 0.0
6.800000000000001 0.6000000000000001 0.0
7.2 0.6000000000000001 0.0
7.6000000000000005 0.6000000000000001 0.0
8.0 0.6000000000000001 0.0
8.4 0.6000000000000001 0.0
8.8 0.6000000000000001 0.0
9.200000000000001 0.6000000000000001 0.0
9.600000000000001 0.6000000000000001 0.0
10.0 0.6000000000000001 0.0
10.4 0.6000000000000001 0.0
10.8 0.6000000000000001 0.0
11.200000000000001 0.6000000000000001 0.0
11.600000000000001 0.6000000000000001 0.0
12.0 0.6000000000000001 0.0
12.4 0.6000000000000001 0.0
12.8 0.6000000000000001 0.0
13.200000000000001 0.6000000000000001 0.0
13.600000000000001 0.6000000000000001 0.0
14.0 0.6000000000000001 0.0
14.4 0.6000000000000001 0.0
14.8 0.6000000000000001 0.0
15.200000000000001 0.6000000000000001 0.0
15.600000000000001 0.6000000000000001 0.0
16.0 0.6000000000000001 0.0
0.0 0.7000000000000001 0.0
0.4 0.7000000000000001 0.0
0.8 0.7000000000000001 0.0
1.2000000000000002 0.7000000000000001 0.0
1.6 0.7000000000000001 0.0
2.0 0.7000000000000001 0.0
2.4000000000000004 0.7000000000000001 0.0
2.8000000000000003 0.7000000000000001 0.0
3.2 0.7000000000000001 0.0
3.6 0.7000000000000001 0.0
4.0 0.7000000000000001 0.0
4.4 0.7000000000000001 0.0
4.800000000000001 0.7000000000000001 0.0
5.2 0.7000000000000001 0.0
5.6000000000000005 0.7000000000000001 0.0
6.0 0.7000000000000001 0.0
6.4 0.7000000000000001 0.0
6.800000000000001 0.7000000000000001 0.0
7.2 0.7000000000000001 0.0
7.6000000000000005 0.7000000000000001 0.0
8.0 0.7000000000000001 0.0
8.4 0.7000000000000001 0.0
8.8 0.7000000000000001 0.0
9.200000000000001 0.7000000000000001 0.0
9.600000000000001 0.7000000000000001 0.0
10.0 0.7000000000000001 0.0
10.4 0.7000000000000001 0.0
10.8 0.7000000000000001 0.0
11.200000000000001 0.7000000000000001 0.0
11.600000000000001 0.7000000000000001 0.0
12.0 0.7000000000000001 0.0
12.4 0.7000000000000001 0.0
12.8 0.7000000000000001 0.0
13.200000000000001 0.7000000000000001 0.0
13.600000000000001 0.7000000000000001 0.0
14.0 0.7000000000000001 0.0
14.4 0.7000000000000001 0.0
14.8 0.7000000000000001 0.0
15.200000000000001 0.7000000000000001 0.0
15.600000000000001 0.7000000000000001 0.0
16.0 0.7000000000000001 0.0
0.0 0.8 0.0
0.4 0.8 0.0
0.8 0.8 0.0
1.2000000000000002 0.8 0.0
1.6 0.8 0.0
2.0 0.8 0.0
2.4000000000000004 0.8 0.0
2.8000000000000003 0.8 0.0
3.2 0.8 0.0
3.6 0.8 0.0
4.0 0.8 0.0
4.4 0.8 0.0
4.800000000000001 0.8 0.0
5.2 0.8 0.0
5.6000000000000005 0.8 0.0
6.0 0.8 0.0
6.4 0.8 0.0
6.800000000000001 0.8 0.0
7.2 0.8 0.0
7.6000000000000005 0.8 0.0
8.0 0.8 0.0
8.4 0.8 0.0
8.8 0.8 0.0
9.200000000000001 0.8 0.0
9.600000000000001 0.8 0.0
10.0 0.8 0.0
10.4 0.8 0.0
10.8 0.8 0.0
11.200000000000001 0.8 0.0
11.600000000000001 0.8 0.0
12.0 0.8 0.0
12.4 0.8 0.0
12.8 0.8 0.0
13.200000000000001 0.8 0.0
13.600000000000001 0.8 0.0
14.0 0.8 0.0
14.4 0.8 0.0
14.8 0.8 0.0
15.200000000000001 0.8 0.0
15.600000000000001 0.8 0.0
16.0 0.8 0.0
0.0 0.9 0.0
0.4 0.9 0.0
0.8 0.9 0.0
1.2000000000000002 0.9 0.0
1.6 0.9 0.0
2.0 0.9 0.0
2.4000000000000004 0.9 0.0
2.8000000000000003 0.9 0.0
3.2 0.9 0.0
3.6 0.9 0.0
4.0 0.9 0.0
4.4 0.9 0.0
4.800000000000001 0.9 0.0
5.2 0.9 0.0
5.6000000000000005 0.9 0.0
6.0 0.9 0.0
6.4 0.9 0.0
6.800000000000001 0.9 0.0
7.2 0.9 0.0
7.6000000000000005 0.9 0.0
8.0 0.9 0.0
8.4 0.9 0.0
8.8 0.9 0.0
9.200000000000001 0.9 0.0
9.600000000000001 0.9 0.0
10.0 0.9 0.0
10.4 0.9 0.0
10.8 0.9 0.0
11.200000000000001 0.9 0.0
11.600000000000001 0.9 0.0
12.0 0.9 0.0
12.4 0.9 0.0
12.8 0.9 0.0
13.200000000000001 0.9 0.0
13.600000000000001 0.9 0.0
14.0 0.9 0.0
14.4 0.9 0.0
14.8 0.9 0.0
15.200000000000001 0.9 0.0
15.600000000000001 0.9 0.0
16.0 0.9 0.0
0.0 1.0 0.0
0.4 1.0 0.0
0.8 1.0 0.0
1.2000000000000002 1.0 0.0
1.6 1.0 0.0
2.0 1.0 0.0
2.4000000000000004 1.0 0.0
2.8000000000000003 1.0 0.0
3.2 1.0 0.0
3.6 1.0 0.0
4.0 1.0 0.0
4.4 1.0 0.0
4.800000000000001 1.0 0.0
5.2 1.0 0.0
5.6000000000000005 1.0 0.0
6.0 1.0 0.0
6.4 1.0 0.0
6.800000000000001 1.0 0.0
7.2 1.0 0.0
7.6000000000000005 1.0 0.0
8.0 1.0 0.0
8.4 1.0 0.0
8.8 1.0 0.0
9.200000000000001 1.0 0.0
9.600000000000001 1.0 0.0
10.0 1.0 0.0
10.4 1.0 0.0
10.8 1.0 0.0
11.200000000000001 1.0 0.0
11.600000000000001 1.0 0.0
12.0 1.0 0.0
12.4 1.0 0.0
12.8 1.0 0.0
13.200000000000001 1.0 0.0
13.600000000000001 1.0 0.0
14.0 1.0 0.0
14.4 1.0 0.0
14.8 1.0 0.0
15.200000000000001 1.0 0.0
15.600000000000001 1.0 0.0
16.0 1.0 0.0
0.0 1.1 0.0
0.4 1.1 0.0
0.8 1.1 0.0
1.2000000000000002 1.1 0.0
1.6 1.1 0.0
2.0 1.1 0.0
2.4000000000000004 1.1 0.0
2.8000000000000003 1.1 0.0
3.2 1.1 0.0
3.6 1.1 0.0
4.0 1.1 0.0
4.4 1.1 0.0
4.800000000000001 1.1 0.0
5.2 1.1 0.0
5.6000000000000005 1.1 0.0
6.0 1.1 0.0
6.4 1.1 0.0
6.800000000000001 1.1 0.0
7.2 1.1 0.0
7.6000000000000005 1.1 0.0
8.0 1.1 0.0
8.4 1.1 0.0
8.8 1.1 0.0
9.200000000000001 1.1 0.0
9.600000000000001 1.1 0.0
10.0 1.1 0.0
10.4 1.1 0.0
10.8 1.1 0.0
11.200000000000001 1.1 0.0
11.600000000000001 1.1 0.0
12.0 1.1 0.0
12.4 1.1 0.0
12.8 1.1 0.0
13.200000000000001 1.1 0.0
13.600000000000001 1.1 0.0
14.0 1.1 0.0
14.4 1.1 0.0
14.8 1.1 0.0
15.200000000000001 1.1 0.0
15.600000000000001 1.1 0.0
16.0 1.1 0.0
0.0 1.2000000000000002 0.0
0.4 1.2000000000000002 0.0
0.8 1.2000000000000002 0.0
1.2000000000000002 1.2000000000000002 0.0
1.6 1.2000000000000002 0.0
2.0 1.2000000000000002 0.0
2.4000000000000004 1.2000000000000002 0.0
2.8000000000000003 1.2000000000000002 0.0
3.2 1.2000000000000002 0.0
3.6 1.2000000000000002 0.0
4.0 1.2000000000000002 0.0
4.4 1.2000000000000002 0.0
4.800000000000001 1.2000000000000002 0.0
5.2 1.2000000000000002 0.0
5.6000000000000005 1.2000000000000002 0.0
6.0 1.2000000000000002 0.0
6.4 1.2000000000000002 0.0
6.800000000000001 1.2000000000000002 0.0
7.2 1.2000000000000002 0.0
7.6000000000000005 1.2000000000000002 0.0
8.0 1.2000000000000002 0.0
8.4 1.2000000000000002 0.0
8.8 1.2000000000000002 0.0
9.200000000000001 1.2000000000000002 0.0
9.600000000000001 1.2000000000000002 0.0
10.0 1.2000000000000002 0.0
10.4 1.2000000000000002 0.0
10.8 1.2000000000000002 0.0
11.200000000000001 1.2000000000000002 0.0
11.600000000000001 1.2000000000000002 0.0
12.0 1.2000000000000002 0.0
12.4 1.2000000000000002 0.0
12.8 1.2000000000000002 0.0
13.200000000000001 1.2000000000000002 0.0
13.600000000000001 1.2000000000000002 0.0
14.0 1.2000000000000002 0.0
14.4 1.2000000000000002 0.0
14.8 1.2000000000000002 0.0
15.200000000000001 1.2000000000000002 0.0
15.600000000000001 1.2000000000000002 0.0
16.0 1.2000000000000002 0.0
0.0 1.3 0.0
0.4 1.3 0.0
0.8 1.3 0.0
1.2000000000000002 1.3 0.0
1.6 1.3 0.0
2.0 1.3 0.0
2.4000000000000004 1.3 0.0
2.8000000000000003 1.3 0.0
3.2 1.3 0.0
3.6 1.3 0.0
4.0 1.3 0.0
4.4 1.3 0.0
4.800000000000001 1.3 0.0
5.2 1.3 0.0
5.6000000000000005 1.3 0.0
6.0 1.3 0.0
6.4 1.3 0.0
6.800000000000001 1.3 0.0
7.2 1.3 0.0
7.6000000000000005 1.3 0.0
8.0 1.3 0.0
8.4 1.3 0.0
8.8 1.3 0.0
9.200000000000001 1.3 0.0
9.600000000000001 1.3 0.0
10.0 1.3 0.0
10.4 1.3 0.0
10.8 1.3 0.0
11.200000000000001 1.3 0.0
11.600000000000001 1.3 0.0
12.0 1.3 0.0
12.4 1.3 0.0
12.8 1.3 0.0
13.200000000000001 1.3 0.0
13.600000000000001 1.3 0.0
14.0 1.3 0.0
14.4 1.3 0.0
14.8 1.3 0.0
15.200000000000001 1.3 0.0
15.600000000000001 1.3 0.0
16.0 1.3 0.0
0.0 1.4000000000000001 0.0
0.4 1.4000000000000001 0.0
0.8 1.4000000000000001 0.0
1.2000000000000002 1.4000000000000001 0.0
1.6 1.4000000000000001 0.0
2.0 1.4000000000000001 0.0
2.4000000000000004 1.4000000000000001 0.0
2.8000000000000003 1.4000000000000001 0.0
3.2 1.4000000000000001 0.0
3.6 1.4000000000000001 0.0
4.0 1.4000000000000001 0.0
4.4 1.4000000000000001 0.0
4.800000000000001 1.4000000000000001 0.0
5.2 1.4000000000000001 0.0
5.6000000000000005 1.4000000000000001 0.0
6.0 1.4000000000000001 0.0
6.4 1.4000000000000001 0.0
6.800000000000001 1.4000000000000001 0.0
7.2 1.4000000000000001 0.0
7.6000000000000005 1.4000000000000001 0.0
8.0 1.4000000000000001 0.0
8.4 1.4000000000000001 0.0
8.8 1.4000000000000001 0.0
9.200000000000001 1.4000000000000001 0.0
9.600000000000001 1.4000000000000001 0.0
10.0 1.4000000000000001 0.0
10.4 1.4000000000000001 0.0
10.8 1.4000000000000001 0.0
11.200000000000001 1.4000000000000001 0.0
11.600000000000001 1.4000000000000001 0.0
12.0 1.4000000000000001 0.0
12.4 1.4000000000000001 0.0
12.8 1.4000000000000001 0.0
13.200000000000001 1.4000000000000001 0.0
13.600000000000001 1.4000000000000001 0.0
14.0 1.4000000000000001 0.0
14.4 1.4000000000000001 0.0
14.8 1.4000000000000001 0.0
15.200000000000001 1.4000000000000001 0.0
15.600000000000001 1.4000000000000001 0.0
16.0 1.4000000000000001 0.0
0.0 1.5 0.0
0.4 1.5 0.0
0.8 1.5 0.0
1.2000000000000002 1.5 0.0
1.6 1.5 0.0
2.0 1.5 0.0
2.4000000000000004 1.5 0.0
2.8000000000000003 1.5 0.0
3.2 1.5 0.0
3.6 1.5 0.0
4.0 1.5 0.0
4.4 1.5 0.0
4.800000000000001 1.5 0.0
5.2 1.5 0.0
5.6000000000000005 1.5 0.0
6.0 1.5 0.0
6.4 1.5 0.0
6.800000000000001 1.5 0.0
7.2 1.5 0.0
7.6000000000000005 1.5 0.0
8.0 1.5 0.0
8.4 1.5 0.0
8.8 1.5 0.0
9.200000000000001 1.5 0.0
9.600000000000001 1.5 0.0
10.0 1.5 0.0
10.4 1.5 0.0
10.8 1.5 0.0
11.200000000000001 1.5 0.0
11.600000000000001 1.5 0.0
12.0 1.5 0.0
12.4 1.5 0.0
12.8 1.5 0.0
13.200000000000001 1.5 0.0
13.600000000000001 1.5 0.0
14.0 1.5 0.0
14.4 1.5 0.0
14.8 1.5 0.0
15.200000000000001 1.5 0.0
15.600000000000001 1.5 0.0
16.0 1.5 0.0
0.0 1.6 0.0
0.4 1.6 0.0
0.8 1.6 0.0
1.2000000000000002 1.6 0.0
1.6 1.6 0.0
2.0 1.6 0.0
2.4000000000000004 1.6 0.0
2.8000000000000003 1.6 0.0
3.2 1.6 0.0
3.6 1.6 0.0
4.0 1.6 0.0
4.4 1.6 0.0
4.800000000000001 1.6 0.0
5.2 1.6 0.0
5.6000000000000005 1.6 0.0
6.0 1.6 0.0
6.4 1.6 0.0
6.800000000000001 1.6 0.0
7.2 1.6 0.0
7.6000000000000005 1.6 0.0
8.0 1.6 0.0
8.4 1.6 0.0
8.8 1.6 0.0
9.200000000000001 1.6 0.0
9.600000000000001 1.6 0.0
10.0 1.6 0.0
10.4 1.6 0.0
10.8 1.6 0.0
11.200000000000001 1.6 0.0
11.600000000000001 1.6 0.0
12.0 1.6 0.0
12.4 1.6 0.0
12.8 1.6 0.0
13.200000000000001 1.6 0.0
13.600000000000001 1.6 0.0
14.0 1.6 0.0
14.4 1.6 0.0
14.8 1.6 0.0
15.200000000000001 1.6 0.0
15.600000000000001 1.6 0.0
16.0 1.6 0.0
0.0 1.7000000000000002 0.0
0.4 1.7000000000000002 0.0
0.8 1.7000000000000002 0.0
1.2000000000000002 1.7000000000000002 0.0
1.6 1.7000000000000002 0.0
2.0 1.7000000000000002 0.0
2.4000000000000004 1.7000000000000002 0.0
2.8000000000000003 1.7000000000000002 0.0
3.2 1.7000000000000002 0.0
3.6 1.7000000000000002 0.0
4.0 1.7000000000000002 0.0
4.4 1.7000000000000002 0.0
4.800000000000001 1.7000000000000002 0.0
5.2 1.7000000000000002 0.0
5.6000000000000005 1.7000000000000002 0.0
6.0 1.7000000000000002 0.0
6.4 1.7000000000000002 0.0
6.800000000000001 1.7000000000000002 0.0
7.2 1.7000000000000002 0.0
7.6000000000000005 1.7000000000000002 0.0
8.0 1.7000000000000002 0.0
8.4 1.7000000000000002 0.0
8.8 1.7000000000000002 0.0
9.200000000000001 1.7000000000000002 0.0
9.600000000000001 1.7000000000000002 0.0
10.0 1.7000000000000002 0.0
10.4 1.7000000000000002 0.0
10.8 1.7000000000000002 0.0
11.200000000000001 1.7000000000000002 0.0
11.600000000000001 1.7000000000000002 0.0
12.0 1.7000000000000002 0.0
12.4 1.7000000000000002 0.0
12.8 1.7000000000000002 0.0
13.200000000000001 1.7000000000000002 0.0
13.600000000000001 1.7000000000000002 0.0
14.0 1.7000000000000002 0.0
14.4 1.7000000000000002 0.0
14.8 1.7000000000000002 0.0
15.200000000000001 1.7000000000000002 0.0
15.600000000000001 1.7000000000000002 0.0
16.0 1.7000000000000002 0.0
0.0 1.8 0.0
0.4 1.8 0.0
0.8 1.8 0.0
1.2000000000000002 1.8 0.0
1.6 1.8 0.0
2.0 1.8 0.0
2.4000000000000004 1.8 0.0
2.8000000000000003 1.8 0.0
3.2 1.8 0.0
3.6 1.8 0.0
4.0 1.8 0.0
4.4 1.8 0.0
4.800000000000001 1.8 0.0
5.2 1.8 0.0
5.6000000000000005 1.8 0.0
6.0 1.8 0.0
6.4 1.8 0.0
6.800000000000001 1.8 0.0
7.2 1.8 0.0
7.6000000000000005 1.8 0.0
8.0 1.8 0.0
8.4 1.8 0.0
8.8 1.8 0.0
9.200000000000001 1.8 0.0
9.600000000000001 1.8 0.0
10.0 1.8 0.0
10.4 1.8 0.0
10.8 1.8 0.0
11.200000000000001 1.8 0.0
11.600000000000001 1.8 0.0
12.0 1.8 0.0
12.4 1.8 0.0
12.8 1.8 0.0
13.200000000000001 1.8 0.0
13.600000000000001 1.8 0.0
14.0 1.8 0.0
14.4 1.8 0.0
14.8 1.8 0.0
15.200000000000001 1.8 0.0
15.600000000000001 1.8 0.0
16.0 1.8 0.0
0.0 1.9000000000000001 0.0
0.4 1.9000000000000001 0.0
0.8 1.9000000000000001 0.0
1.2000000000000002 1.9000000000000001 0.0
1.6 1.9000000000000001 0.0
2.0 1.9000000000000001 0.0
2.4000000000000004 1.9000000000000001 0.0
2.8000000000000003 1.9000000000000001 0.0
3.2 1.9000000000000001 0.0
3.6 1.9000000000000001 0.0
4.0 1.9000000000000001 0.0
4.4 1.9000000000000001 0.0
4.800000000000001 1.9000000000000001 0.0
5.2 1.9000000000000001 0.0
5.6000000000000005 1.9000000000000001 0.0
6.0 1.9000000000000001 0.0
6.4 1.9000000000000001 0.0
6.800000000000001 1.9000000000000001 0.0
7.2 1.9000000000000001 0.0
7.6000000000000005 1.9000000000000001 0.0
8.0 1.9000000000000001 0.0
8.4 1.9000000000000001 0.0
8.8 1.9000000000000001 0.0
9.200000000000001 1.9000000000000001 0.0
9.600000000000001 1.9000000000000001 0.0
10.0 1.9000000000000001 0.0
10.4 1.9000000000000001 0.0
10.8 1.9000000000000001 0.0
11.200000000000001 1.9000000000000001 0.0
11.600000000000001 1.9000000000000001 0.0
12.0 1.9000000000000001 0.0
12.4 1.9000000000000001 0.0
12.8 1.9000000000000001 0.0
13.200000000000001 1.9000000000000001 0.0
13.600000000000001 1.9000000000000001 0.0
14.0 1.9000000000000001 0.0
14.4 1.9000000000000001 0.0
14.8 1.9000000000000001 0.0
15.200000000000001 1.9000000000000001 0.0
15.600000000000001 1.9000000000000001 0.0
16.0 1.9000000000000001 0.0
0.0 2.0 0.0
0.4 2.0 0.0
0.8 2.0 0.0
1.2000000000000002 2.0 0.0
1.6 2.0 0.0
2.0 2.0 0.0
2.4000000000000004 2.0 0.0
2.8000000000000003 2.0 0.0
3.2 2.0 0.0
3.6 2.0 0.0
4.0 2.0 0.0
4.4 2.0 0.0
4.800000000000001 2.0 0.0
5.2 2.0 0.0
5.6000000000000005 2.0 0.0
6.0 2.0 0.0
6.4 2.0 0.0
6.800000000000001 2.0 0.0
7.2 2.0 0.0
7.6000000000000005 2.0 0.0
8.0 2.0 0.0
8.4 2.0 0.0
8.8 2.0 0.0
9.200000000000001 2.0 0.0
9.600000000000001 2.0 0.0
10.0 2.0 0.0
10.4 2.0 0.0
10.8 2.0 0.0
11.200000000000001 2.0 0.0
11.600000000000001 2.0 0.0
12.0 2.0 0.0
12.4 2.0 0.0
12.8 2.0 0.0
13.200000000000001 2.0 0.0
13.600000000000001 2.0 0.0
14.0 2.0 0.0
14.4 2.0 0.0
14.8 2.0 0.0
15.200000000000001 2.0 0.0
15.600000000000001 2.0 0.0
16.0 2.0 0.0
CELLS 800 4000
4 0 1 42 41
4 1 2 43 42
4 2 3 44 43
4 3 4 45 44
4 4 5 46 45
4 5 6 47 46
4 6 7 48 47
4 7 8 49 48
4 8 9 50 49
4 9 10 51 50
4 10 11 52 51
4 11 12 53 52
4 12 13 54 53
4 13 14 55 54
4 14 15 56 55
4 15 16 57 56
4 16 17 58 57
4 17 18 59 58
4 18 19 60 59
4 19 20 61 60
4 20 21 62 61
4 21 22 63 62
4 22 23 64 63
4 23 24 65 64
4 24 25 66 65
4 25 26 67 66
4 26 27 68 67
4 27 28 69 68
4 28 29 70 69
4 29 30 71 70
4 30 31 72 71
4 31 32 73 72
4 32 33 74 73
4 33 34 75 74
4 34 35 76 75
4 35 36 77 76
4 36 37 78 77
4 37 38 79 78
4 38 39 80 79
4 39 40 81 80
4 41 42 83 82
4 42 43 84 83
4 43 44 85 84
4 44 45 86 85
4 45 46 87 86
4 46 47 88 87
4 47 48 89 88
4 48 49 90 89
4 49 50 91 90
4 50 51 92 91
4 51 52 93 92
4 52 53 94 93
4 53 54 95 94
4 54 55 96 95
4 55 56 97 96
4 56 57 98 97
4 57 58 99 98
4 58 59 100 99
4 59 60 101 100
4 60 61 102 101
4 61 62 103 102
4 62 63 104 103
4 63 64 105 104
4 64 65 106 105
4 65 66 107 106
4 66 67 108 107
4 67 68 109 108
4 68 69 110 109
4 69 70 111 110
4 70 71 112 111
4 71 72 113 112
4 72 73 114 113
4 73 74 115 114
4 74 75 116 115
4 75 76 117 116
4 76 77 118 117
4 77 78 119 118
4 78 79 120 119
4 79 80 121 120
4 80 81 122 121
4 82 83 124 123
4 83 84 125 124
4 84 85 126 125
4 85 86 127 126
4 86 87 128 127
4 87 88 129 128
4 88 89 130 129
4 89 90 131 130
4 90 91 132 131
4 91 92 133 132
4 92 93 134 133
4 93 94 135 134
4 94 95 136 135
4 95 96 137 136
4 96 97 138 137
4 97 98 139 138
4 98 99 140 139
4 99 100 141 140
4 100 101 142 141
4 101 102 143 142
4 102 103 144 143
4 103 104 145 144
4 104 105 146 145
4 105 106 147 146
4 106 107 148 147
4 107 108 149 148
4 108 109 150 149
4 109 110 151 150
4 110 111 152 151
4 111 112 153 152
4 112 113 154 153
4 113 114 155 154
4 114 115 156 155
4 115 116 157 156
4 116 117 158 157
4 117 118 159 158
4 118 119 160 159
4 119 120 161 160
4 120 121 162 161
4 121 122 163 162
4 123 124 165 164
4 124 125 166 165
4 125 126 167 166
4 126 127 168 167
4 127 128 169 168
4 128 129 170 169
4 129 130 171 170
4 130 131 172 171
4 131 132 173 172
4 132 133 174 173
4 133 134 175 174
4 134 135 176 175
4 135 136 177 176
4 136 137 178 177
4 137 138 179 178
4 138 139 180 179
4 139 140 181 180
4 140 141 182 181
4 141 142 183 182
4 142 143 184 183
4 143 144 185 184
4 144 145 186 185
4 145 146 187 186
4 146 147 188 187
4 147 148 189 188
4 148 149 190 189
4 149 150 191 190
4 150 151 192 191
4 151 152 193 192
4 152 153 194 193
4 153 154 195 194
4 154 155 196 195
4 155 156 197 196
4 156 157 198 197
4 157 158 199 198
4 158 159 200 199
4 159 160 201 200
4 160 161 202 201
4 161 162 203 202
4 162 163 204 203
4 164 165 206 205
4 165 166 207 206
4 166 167 208 207
4 167 168 209 208
4 168 169 210 209
4 169 170 211 210
4 170 171 212 211
4 171 172 213 212
4 172 173 214 213
4 173 174 215 214
4 174 175 216 215
4 175 176 217 216
4 176 177 218 217
4 177 178 219 218
4 178 179 220 219
4 179 180 221 220
4 180 181 222 221
4 181 182 223 222
4 182 183 224 223
4 183 184 225 224
4 184 185 226 225
4 185 186 227 226
4 186 187 228 227
4 187 188 229 228
4 188 189 230 229
4 189 190 231 230
4 190 191 232 231
4 191 192 233 232
4 192 193 234 233
4 193 194 235 234
4 194 195 236 235
4 195 196 237 236
4 196 197 238 237
4 197 198 239 238
4 198 199 240 239
4 199 200 241 240
4 200 201 242 241
4 201 202 243 242
4 202 203 244 243
4 203 204 245 244
4 205 206 247 246
4 206 207 248 247
4 207 208 249 248
4 208 209 250 249
4 209 210 251 250
4 210 211 252 251
4 211 212 253 252
4 212 213 254 253
4 213 214 255 254
4 214 215 256 255
4 215 216 257 256
4 216 217 258 257
4 217 218 259 258
4 218 219 260 259
4 219 220 261 260
4 220 221 262 261
4 221 222 263 262
4 222 223 264 263
4 223 224 265 264
4 224 225 266 265
4 225 226 267 266
4 226 227 268 267
4 227 228 269 268
4 228 229 270 269
4 229 230 271 270
4 230 231 272 271
4 231 232 273 272
4 232 233 274 273
4 233 234 275 274
4 234 235 276 275
4 235 236 277 276
4 236 237 278 277
4 237 238 279 278
4 238 239 280 279
4 239 240 281 280
4 240 241 282 281
4 241 242 283 282
4 242 243 284 283
4 243 244 285 284
4 244 245 286 285
4 246 247 288 287
4 247 248 289 288
4 248 249 290 289
4 249 250 291 290
4 250 251 292 291
4 251 252 293 292
4 252 253 294 293
4 253 254 295 294
4 254 255 296 295
4 255 256 297 296
4 256 257 298 297
4 257 258 299 298
4 258 259 300 299
4 259 260 301 300
4 260 261 302 301
4 261 262 303 302
4 262 263 304 303
4 263 264 305 304
4 264 265 306 305
4 265 266 307 306
4 266 267 308 307
4 267 268 309 308
4 268 269 310 309
4 269 270 311 310
4 270 271 312 311
4 271 272 313 312
4 272 273 314 313
4 273 274 315 314
4 274 275 316 315
4 275 276 317 316
4 276 277 318 317
4 277 278 319 318
4 278 279 320 319
4 279 280 321 320
4 280 281 322 321
4 281 282 323 322
4 282 283 324 323
4 283 284 325 324
4 284 285 326 325
4 285 286 327 326
4 287 288 329 328
4 288 289 330 329
4 289 290 331 330
4 290 291 332 331
4 291 292 333 332
4 292 293 334 333
4 293 294 335 334
4 294 295 336 335
4 295 296 337 336
4 296 297 338 337
4 297 298 339 338
4 298 299 340 339
4 299 300 341 340
4 300 301 342 341
4 301 302 343 342
4 302 303 344 343
4 303 304 345 344
4 304 305 346 345
4 305 306 347 346
4 306 307 348 347
4 307 308 349 348
4 308 309 350 349
4 309 310 351 350
4 310 311 352 351
4 311 312 353 352
4 312 313 354 353
4 313 314 355 354
4 314 315 356 355
4 315 316 357 356
4 316 317 358 357
4 317 318 359 358
4 318 319 360 359
4 319 320 361 360
4 320 321 362 361
4 321 322 363 362
4 322 323 364 363
4 323 324 365 364
4 324 325 366 365
4 325 326 367 366
4 326 327 368 367
4 328 329 370 369
4 329 330 371 370
4 330 331 372 371
4 331 332 373 372
4 332 333 374 373
4 333 334 375 374
4 334 335 376 375
4 335 336 377 376
4 336 337 378 377
4 337 338 379 378
4 338 339 380 379
4 339 340 381 380
4 340 341 382 381
4 341 342 383 382
4 342 343 384 383
4 343 344 385 384
4 344 345 386 385
4 345 346 387 386
4 346 347 388 387
4 347 348 389 388
4 348 349 390 389
4 349 350 391 390
4 350 351 392 391
4 351 352 393 392
4 352 353 394 393
4 353 354 395 394
4 354 355 396 395
4 355 356 397 396
4 356 357 398 397
4 357 358 399 398
4 358 359 400 399
4 359 360 401 400
4 360 361 402 401
4 361 362 403 402
4 362 363 404 403
4 363 364 405 404
4 364 365 406 405
4 365 366 407 406
4 366 367 408 407
4 367 368 409 408
4 369 370 411 410
4 370 371 412 411
4 371 372 413 412
4 372 373 414 413
4 373 374 415 414
4 374 375 416 415
4 375 376 417 416
4 376 377 418 417
4 377 378 419 418
4 378 379 420 419
4 379 380 421 420
4 380 381 422 421
4 381 382 423 422
4 382 383 424 423
4 383 384 425 424
4 384 385 426 425
4 385 386 427 426
4 386 387 428 427
4 387 388 429 428
4 388 389 430 429
4 389 390 431 430
4 390 391 432 431
4 391 392 433 432
4 392 393 434 433
4 393 394 435 434
4 394 395 436 435
4 395 396 437 436
4 396 397 438 437
4 397 398 439 438
4 398 399 440 439
4 399 400 441 440
4 400 401 442 441
4 401 402 443 442
4 402 403 444 443
4 403 404 445 444
4 404 405 446 445
4 405 406 447 446
4 406 407 448 447
4 407 408 449 448
4 408 409 450 449
4 410 411 452 451
4 411 412 453 452
4 412 413 454 453
4 413 414 455 454
4 414 415 456 455
4 415 416 457 456
4 416 417 458 457
4 417 418 459 458
4 418 419 460 459
4 419 420 461 460
4 420 421 462 461
4 421 422 463 462
4 422 423 464 463
4 423 424 465 464
4 424 425 466 465
4 425 426 467 466
4 426 427 468 467
4 427 428 469 468
4 428 429 470 469
4 429 430 471 470
4 430 431 472 471
4 431 432 473 472
4 432 433 474 473
4 433 434 475 474
4 434 435 476 475
4 435 436 477 476
4 436 437 478 477
4 437 438 479 478
4 438 439 480 479
4 439 440 481 480
4 440 441 482 481
4 441 442 483 482
4 442 443 484 483
4 443 444 485 484
4 444 445 486 485
4 445 446 487 486
4 446 447 488 487
4 447 448 489 488
4 448 449 490 489
4 449 450 491 490
4 451 452 493 492
4 452 453 494 493
4 453 454 495 494
4 454 455 496 495
4 455 456 497 496
4 456 457 498 497
4 457 458 499 498
4 458 459 500 499
4 459 460 501 500
4 460 461 502 501
4 461 462 503 502
4 462 463 504 503
4 463 464 505 504
4 464 465 506 505
4 465 466 507 506
4 466 467 508 507
4 467 468 509 508
4 468 469 510 509
4 469 470 511 510
4 470 471 512 511
4 471 472 513 512
4 472 473 514 513
4 473 474 515 514
4 474 475 516 515
4 475 476 517 516
4 476 477 518 517
4 477 478 519 518
4 478 479 520 519
4 479 480 521 520
4 480 481 522 521
4 481 482 523 522
4 482 483 524 523
4 483 484 525 524
4 484 485 526 525
4 485 486 527 526
4 486 487 528 527
4 487 488 529 528
4 488 489 530 529
4 489 490 531 530
4 490 491 532 531
4 492 493 534 533
4 493 494 535 534
4 494 495 536 535
4 495 496 537 536
4 496 497 538 537
4 497 498 539 538
4 498 499 540 539
4 499 500 541 540
4 500 501 542 541
4 501 502 543 542
4 502 503 544 543
4 503 504 545 544
4 504 505 546 545
4 505 506 547 546
4 506 507 548 547
4 507 508 549 548
4 508 509 550 549
4 509 510 551 550
4 510 511 552 551
4 511 512 553 552
4 512 513 554 553
4 513 514 555 554
4 514 515 556 555
4 515 516 557 556
4 516 517 558 557
4 517 518 559 558
4 518 519 560 559
4 519 520 561 560
4 520 521 562 561
4 521 522 563 562
4 522 523 564 563
4 523 524 565 564
4 524 525 566 565
4 525 526 567 566
4 526 527 568 567
4 527 528 569 568
4 528 529 570 569
4 529 530 571 570
4 530 531 572 571
4 531 532 573 572
4 533 534 575 574
4 534 535 576 575
4 535 536 577 576
4 536 537 578 577
4 537 538 579 578
4 538 539 580 579
4 539 540 581 580
4 540 541 582 581
4 541 542 583 582
4 542 543 584 583
4 543 544 585 584
4 544 545 586 585
4 545 546 587 586
4 546 547 588 587
4 547 548 589 588
4 548 549 590 589
4 549 550 591 590
4 550 551 592 591
4 551 552 593 592
4 552 553 594 593
4 553 554 595 594
4 554 555 596 595
4 555 556 597 596
4 556 557 598 597
4 557 558 599 598
4 558 559 600 599
4 559 560 601 600
4 560 561 602 601
4 561 562 603 602
4 562 563 604 603
4 563 564 605 604
4 564 565 606 605
4 565 566 607 606
4 566 567 608 607
4 567 568 609 608
4 568 569 610 609
4 569 570 611 610
4 570 571 612 611
4 571 572 613 612
4 572 573 614 613
4 574 575 616 615
4 575 576 617 616
4 576 577 618 617
4 577 578 619 618
4 578 579 620 619
4 579 580 621 620
4 580 581 622 621
4 581 582 623 622
4 582 583 624 623
4 583 584 625 624
4 584 585 626 625
4 585 586 627 626
4 586 587 628 627
4 587 588 629 628
4 588 589 630 629
4 589 590 631 630
4 590 591 632 631
4 591 592 633 632
4 592 593 634 633
4 593 594 635 634
4 594 595 636 635
4 595 596 637 636
4 596 597 638 637
4 597 598 639 638
4 598 599 640 639
4 599 600 641 640
4 600 601 642 641
4 601 602 643 642
4 602 603 644 643
4 603 604 645 644
4 604 605 646 645
4 605 606 647 646
4 606 607 648 647
4 607 608 649 648
4 608 609 650 649
4 609 610 651 650
4 610 611 652 651
4 611 612 653 652
4 612 613 654 653
4 613 614 655 654
4 615 616 657 656
4 616 617 658 657
4 617 618 659 658
4 618 619 660 659
4 619 620 661 660
4 620 621 662 661
4 621 622 663 662
4 622 623 664 663
4 623 624 665 664
4 624 625 666 665
4 625 626 667 666
4 626 627 668 667
4 627 628 669 668
4 628 629 670 669
4 629 630 671 670
4 630 631 672 671
4 631 632 673 672
4 632 633 674 673
4 633 634 675 674
4 634 635 676 675
4 635 636 677 676
4 636 637 678 677
4 637 638 679 678
4 638 639 680 679
4 639 640 681 680
4 640 641 682 681
4 641 642 683 682
4 642 643 684 683
4 643 644 685 684
4 644 645 686 685
4 645 646 687 686
4 646 647 688 687
4 647 648 689 688
4 648 649 690 689
4 649 650 691 690
4 650 651 692 691
4 651 652 693 692
4 652 653 694 693
4 653 654 695 694
4 654 655 696 695
4 656 657 698 697
4 657 658 699 698
4 658 659 700 699
4 659 660 701 700
4 660 661 702 701
4 661 662 703 702
4 662 663 704 703
4 663 664 705 704
4 664 665 706 705
4 665 666 707 706
4 666 667 708 707
4 667 668 709 708
4 668 669 710 709
4 669 670 711 710
4 670 671 712 711
4 671 672 713 712
4 672 673 714 713
4 673 674 715 714
4 674 675 716 715
4 675 676 717 716
4 676 677 718 717
4 677 678 719 718
4 678 679 720 719
4 679 680 721 720
4 680 681 722 721
4 681 682 723 722
4 682 683 724 723
4 683 684 725 724
4 684 685 726 725
4 685 686 727 726
4 686 687 728 727
4 687 688 729 728
4 688 689 730 729
4 689 690 731 730
4 690 691 732 731
4 691 692 733 732
4 692 693 734 733
4 693 694 735 734
4 694 695 736 735
4 695 696 737 736
4 697 698 739 738
4 698 699 740 739
4 699 700 741 740
4 700 701 742 741
4 701 702 743 742
4 702 703 744 743
4 703 704 745 744
4 704 705 746 745
4 705 706 747 746
4 706 707 748 747
4 707 708 749 748
4 708 709 750 749
4 709 710 751 750
4 710 711 752 751
4 711 712 753 752
4 712 713 754 753
4 713 714 755 754
4 714 715 756 755
4 715 716 757 756
4 716 717 758 757
4 717 718 759 758
4 718 719 760 759
4 719 720 761 760
4 720 721 762 761
4 721 722 763 762
4 722 723 764 763
4 723 724 765 764
4 724 725 766 765
4 725 726 767 766
4 726 727 768 767
4 727 728 769 768
4 728 729 770 769
4 729 730 771 770
4 730 731 772 771
4 731 732 773 772
4 732 733 774 773
4 733 734 775 774
4 734 735 776 775
4 735 736 777 776
4 736 737 778 777
4 738 739 780 779
4 739 740 781 780
4 740 741 782 781
4 741 742 783 782
4 742 743 784 783
4 743 744 785 784
4 744 745 786 785
4 745 746 787 786
4 746 747 788 787
4 747 748 789 788
4 748 749 790 789
4 749 750 791 790
4 750 751 792 791
4 751 752 793 792
4 752 753 794 793
4 753 754 795 794
4 754 755 796 795
4 755 756 797 796
4 756 757 798 797
4 757 758 799 798
4 758 759 800 799
4 759 760 801 800
4 760 761 802 801
4 761 762 803 802
4 762 763 804 803
4 763 764 805 804
4 764 765 806 805
4 765 766 807 806
4 766 767 808 807
4 767 768 809 808
4 768 769 810 809
4 769 770 811 810
4 770 771 812 811
4 771 772 813 812
4 772 773 814 813
4 773 774 815 814
4 774 775 816 815
4 775 776 817 816
4 776 777 818 817
4 777 778 819 818
4 779 780 821 820
4 780 781 822 821
4 781 782 823 822
4 782 783 824 823
4 783 784 825 824
4 784 785 826 825
4 785 786 827 826
4 786 787 828 827
4 787 788 829 828
4 788 789 830 829
4 789 790 831 830
4 790 791 832 831
4 791 792 833 832
4 792 793 834 833
4 793 794 835 834
4 794 795 836 835
4 795 796 837 836
4 796 797 838 837
4 797 798 839 838
4 798 799 840 839
4 799 800 841 840
4 800 801 842 841
4 801 802 843 842
4 802 803 844 843
4 803 804 845 844
4 804 805 846 845
4 805 806 847 846
4 806 807 848 847
4 807 808 849 848
4 808 809 850 849
4 809 810 851 850
4 810 811 852 851
4 811 812 853 852
4 812 813 854 853
4 813 814 855 854
4 814 815 856 855
4 815 816 857 856
4 816 817 858 857
4 817 818 859 858
4 818 819 860 859
CELL_TYPES 800
9
9
9
9
9
9
9
9
9
9
9
9
9
9
9
9
9
9
9
9
9
9
9
9
9
9
9
9
9
9
9
9
9
9
9
9
9
9
9
9
9
9
9
9
9
9
9
9
9
9
9
9
9
9
9
9
9
9
9
9
9
9
9
9
9
9
9
9
9
9
9
9
9
9
9
9
9
9
9
9
9
9
9
9
9
9
9
9
9
9
9
9
9
9
9
9
9
9
9
9
9
9
9
9
9
9
9
9
9
9
9
9
9
9
9
9
9
9
9
9
9
9
9
9
9
9
9
9
9
9
9
9
9
9
9
9
9
9
9
9
9
9
9
9
9
9
9
9
9
9
9
9
9
9
9
9
9
9
9
9
9
9
9
9
9
9
9
9
9
9
9
9
9
9
9
9
9
9
9
9
9
9
9
9
9
9
9
9
9
9
9
9
9
9
9
9
9
9
9
9
9
9
9
9
9
9
9
9
9
9
9
9
9
9
9
9
9
9
9
9
9
9
9
9
9
9
9
9
9
9
9
9
9
9
9
9
9
9
9
9
9
9
9
9
9
9
9
9
9
9
9
9
9
9
9
9
9
9
9
9
9
9
9
9
9
9
9
9
9
9
9
9
9
9
9
9
9
9
9
9
9
9
9
9
9
9
9
9
9
9
9
9
9
9
9
9
9
9
9
9
9
9
9
9
9
9
9
9
9
9
9
9
9
9
9
9
9
9
9
9
9
9
9
9
9
9
9
9
9
9
9
9
9
9
9
9
9
9
9
9
9
9
9
9
9
9
9
9
9
9
9
9
9
9
9
9
9
9
9
9
9
9
9
9
9
9
9
9
9
9
9
9
9
9
9
9
9
9
9
9
9
9
9
9
9
9
9
9
9
9
9
9
9
9
9
9
9
9
9
9
9
9
9
9
9
9
9
9
9
9
9
9
9
9
9
9
9
9
9
9
9
9
9
9
9
9
9
9
9
9
9
9
9
9
9
9
9
9
9
9
9
9
9
9
9
9
9
9
9
9
9
9
9
9
9
9
9
9
9
9
9
9
9
9
9
9
9
9
9
9
9
9
9
9
9
9
9
9
9
9
9
9
9
9
9
9
9
9
9
9
9
9
9
9
9
9
9
9
9
9
9
9
9
9
9
9
9
9
9
9
9
9
9
9
9
9
9
9
9
9
9
9
9
9
9
9
9
9
9
9
9
9
9
9
9
9
9
9
9
9
9
9
9
9
9
9
9
9
9
9
9
9
9
9
9
9
9
9
9
9
9
9
9
9
9
9
9
9
9
9
9
9
9
9
9
9
9
9
9
9
9
9
9
9
9
9
9
9
9
9
9
9
9
9
9
9
9
9
9
9
9
9
9
9
9
9
9
9
9
9
9
9
9
9
9
9
9
9
9
9
9
9
9
9
9
9
9
9
9
9
9
9
9
9
9
9
9
9
9
9
9
9
9
9
9
9
9
9
9
9
9
9
9
9
9
9
9
9
9
9
9
9
9
9
9
9
9
9
9
9
9
9
9
9
9
9
9
9
9
9
9
9
9
9
9
9
9
9
9
9
9
9
9
9
9
9
9
9
9
9
9
9
9
9
9
9
9
9
9
9
9
9
9
9
9
9
9
9
9
9
9
9
9
9
9
9
9
9
9
9
9
9
9
9
9
9
9
9
9
9
9
9
9
9
9
9
9
9
9
9
9
9
9
9
9
9
9
9
9
9
9
9
9
9
9
9
9
9
9
9
9
9
9
9
9
9
9
9
9
9
9
9
9
9
9
9
9
9
9
9
9
9
9
9
9
9
9
9
9
9
POINT_DATA 861
SCALARS Disp float 2
LOOKUP_TABLE default
0.0 0.0
0.022327642382562133 -0.40805436491689345
0.03976917192686435 -0.7528455034299114
0.053759632894765604 -1.091718278389613
0.06974318011811154 -1.4240734595296343
0.08896622759668131 -1.749763259107575
0.11204172374290225 -2.067231329836537
0.13921566820102893 -2.374796156394078
0.17056858920035353 -2.6707201357209933
0.20611915084499063 -2.9532870283265527
0.24586456202906656 -3.220800469179256
0.28979838818433734 -3.4715796492883078
0.3379166693402452 -3.7039540960809596
0.3902237890523776 -3.9162613451687367
0.4467450772538361 -4.106841419818809
0.5075498984075996 -4.274014003796115
0.5727748866554678 -4.416013296507429
0.6426009717471443 -4.530856839688804
0.7170843500656467 -4.616176109914226
0.79574034058089 -4.669194992934772
0.8770140384299037 -4.687268952099112
0.9582877362789171 -4.669194992934771
1.0369437267941604 -4.616176109914226
1.1114271051126634 -4.530856839688804
1.18125319020434 -4.416013296507428
1.2464781784522077 -4.274014003796113
1.3072829996059707 -4.106841419818808
1.3638042878074297 -3.9162613451687354
1.4161114075195615 -3.7039540960809587
1.46422968867547 -3.471579649288306
1.5081635148307402 -3.220800469179255
1.547908926014816 -2.9532870283265518
1.583459487659453 -2.6707201357209924
1.6148124086587778 -2.3747961563940767
1.6419863531169048 -2.067231329836535
1.6650618492631255 -1.7497632591075754
1.6842848967416952 -1.424073459529634
1.700268443965041 -1.091718278389614
1.7142589049329422 -0.7528455034299103
1.7317004344772446 -0.4080543649168922
1.7540280768598067 0.0
0.1010805776733268 -0.013865898179050564
0.11498404976035201 -0.40697347018580976
0.12460732017917929 -0.7548034116171868
0.13757081027869017 -1.0930833284258987
0.15178603821307798 -1.4258719455263216
0.1691417156880139 -1.7519055006268545
0.18993835247728563 -2.069788421280277
0.21441424832790937 -2.377774471776823
0.242640636391416 -2.6741253492212325
0.27463941454301416 -2.9571192709134495
0.3104113616942906 -3.225059313556154
0.3499527604903545 -3.4762645511187413
0.3932615831603011 -3.7090649997306695
0.4403430302993878 -3.9217994474193327
0.49121966802052097 -4.11281085512217
0.5459478960376741 -4.280424307665033
0.6046299449550417 -4.4228802822061875
0.6673814021808463 -4.538194820655529
0.7341765054150102 -4.623969963538013
0.8045098808006184 -4.677348432019481
0.8770140384299033 -4.695564981897768
0.949518196059189 -4.67734843201948
1.019851571444797 -4.623969963538013
1.086646674678961 -4.538194820655527
1.1493981319047655 -4.422880282206187
1.2080801808221333 -4.280424307665031
1.2628084088392861 -4.112810855122169
1.313685046560419 -3.9217994474193305
1.360766493699506 -3.709064999730669
1.4040753163694526 -3.476264551118739
1.4436167151655164 -3.225059313556153
1.4793886623167924 -2.9571192709134486
1.5113874404683905 -2.674125349221231
1.5396138285318972 -2.3777744717768217
1.5640897243825214 -2.0697884212802755
1.584886361171793 -1.751905500626855
1.6022420386467289 -1.4258719455263213
1.6164572665811165 -1.0930833284258994
1.6294207566806276 -0.7548034116171857
1.6390440270994546 -0.4069734701858085
1.6529474991864799 -0.013865898179050658
0.19527859614318055 -0.025776326222500597
0.20525095451038805 -0.40618074469154986
0.21043014616358025 -0.7558821914186671
0.22080957001275325 -1.0944122447382536
0.23341467438424499 -1.4274289859685165
0.24877396668747248 -1.753829460338289
0.26727601463991596 -2.0720747533221493
0.28904174261694726 -2.380440627529392
0.3141397115282976 -2.6771726019071265
0.3425868560346585 -2.960548471321819
0.37438606116804724 -3.2288700536613546
0.4095354630494802 -3.480456504319448
0.4480342933817594 -3.7136381340212217
0.48988710241706745 -3.9267546102429134
0.5351109792977272 -4.118150953867982
0.5837465403448735 -4.286156154036833
0.6358643060533173 -4.429015467491966
0.6915355593153748 -4.544744197587736
0.75070655478908 -4.630921902644036
0.8129244368551245 -4.684624294435896
0.8770140384299034 -4.7029741623743435
0.9411036400046828 -4.6846242944358965
1.0033215220707272 -4.630921902644035
1.0624925175444324 -4.544744197587735
1.1181637708064895 -4.429015467491965
1.1702815365149337 -4.286156154036832
1.2189170975620798 -4.118150953867981
1.2641409744427394 -3.9267546102429116
1.3059937834780477 -3.713638134021221
1.344492613810327 -3.4804565043194464
1.3796420156917597 -3.2288700536613537
1.4114412208251481 -2.9605484713218178
1.439888365331509 -2.677172601907125
1.4649863342428595 -2.380440627529391
1.486752062219891 -2.072074753322148
1.5052541101723342 -1.7538294603382893
1.520613402475562 -1.427428985968516
1.5332185068470534 -1.0944122447382543
1.5435979306962264 -0.755882191418666
1.5487771223494189 -0.4061807446915485
1.558749480716626 -0.02577632622250071
0.2854099627421666 -0.035956084087232346
0.2933313699074198 -0.4059476600047098
0.29607762996124004 -0.7563599123094394
0.30380305042047023 -1.0955102437264
0.31458140595675865 -1.428783916688692
0.3279434249113168 -1.7555125478243543
0.34411384544713847 -2.0740913810639348
0.36316390002399274 -2.3827927433033076
0.3851300222479487 -2.679861991656935
0.4100254640655723 -2.9635746620419328
0.43785223852670024 -3.2322328012268846
0.4686098261787623 -3.4841555088993466
0.5022980218641874 -3.717673242388805
0.5389196142925701 -3.9311259752022365
0.5784844202463324 -4.122859756155604
0.6210159977727272 -4.291206314774354
0.6665570915151683 -4.434416079869391
0.7151537138076969 -4.550508976543476
0.7667676012759158 -4.6370548381763825
0.8210504728721647 -4.69107413868164
0.8770140384299036 -4.709564183952592
0.9329776039876425 -4.69107413868164
0.9872604755838913 -4.6370548381763825
1.0388743630521102 -4.550508976543476
1.0874709853446387 -4.434416079869391
1.1330120790870797 -4.291206314774353
1.1755436566134745 -4.122859756155603
1.215108462567237 -3.9311259752022347
1.2517300549956196 -3.717673242388804
1.2854182506810448 -3.4841555088993443
1.3161758383331068 -3.2322328012268837
1.3440026127942344 -2.9635746620419314
1.368898054611858 -2.679861991656934
1.3908641768358143 -2.3827927433033067
1.4099142314126685 -2.0740913810639334
1.42608465194849 -1.7555125478243552
1.439446670903048 -1.4287839166886915
1.4502250264393364 -1.0955102437264004
1.4579504468985667 -0.7563599123094384
1.4606967069523868 -0.4059476600047084
1.46861811411764 -0.03595608408723249
0.3729428522110635 -0.04462645037816389
0.3796286930095364 -0.40624556336121237
0.3810793841355224 -0.7564938901181398
0.3865238895663143 -1.0963216617828315
0.3953523908344803 -1.4299248377671336
0.4066943513353919 -1.7569536437481001
0.4205183263901485 -2.075834120968707
0.43684384307751956 -2.3848305991133683
0.45567606526255855 -2.682193146876226
0.4770190841486802 -2.9661979100660525
0.5008735138449895 -3.2351475894606723
0.5272392447477604 -3.48736154151709
0.5561161647654607 -3.7211700978301954
0.5875045430903939 -3.934912891742957
0.6214059881852353 -4.126935904749194
0.6578268703226651 -4.295572779959421
0.6967862958640271 -4.43908102818006
0.7383205606610331 -4.555494094979105
0.7824402513242498 -4.642389094733009
0.828940206575618 -4.696740970201855
0.8770140384299036 -4.7153914618477195
0.9250878702841893 -4.696740970201855
0.9715878255355572 -4.642389094733008
1.0157075161987739 -4.555494094979105
1.05724178099578 -4.439081028180058
1.0962012065371418 -4.2955727799594206
1.1326220886745715 -4.126935904749193
1.166523533769413 -3.9349128917429557
1.1979119120943462 -3.7211700978301945
1.2267888321120464 -3.4873615415170884
1.2531545630148173 -3.2351475894606714
1.2770089927111266 -2.966197910066051
1.2983520115972482 -2.6821931468762252
1.3171842337822877 -2.3848305991133674
1.3335097504696585 -2.0758341209687052
1.3473337255244149 -1.756953643748101
1.3586756860253264 -1.4299248377671332
1.3675041872934923 -1.096321661782832
1.3729486927242844 -0.7564938901181388
1.3743993838502704 -0.40624556336121104
1.3810852246487433 -0.04462645037816404
0.4587206640160337 -0.05199089693394245
0.4645306297550457 -0.40695222472817955
0.4652969757309502 -0.7564620351439449
0.4688971501960333 -1.0968604763423988
0.4757807440038454 -1.4308380027608714
0.48507945697657745 -1.7581522037857233
0.4965507238558259 -2.077301038795121
0.510145640673443 -2.3865534842238314
0.5258417503714272 -2.6841659105479687
0.5436316216589933 -2.968418161862638
0.5635134901190015 -3.2376144274405356
0.585487179095778 -3.4900745572089353
0.6095522515897637 -3.7241285316660098
0.6357061113454159 -3.9381149538565468
0.6639419886718184 -4.130378658259955
0.694249774284003 -4.29925462109865
0.7266285271546875 -4.443010359438893
0.761115920339717 -4.559704267712292
0.7977954333613656 -4.6469412893046576
0.8366360346607421 -4.701660411200363
0.8770140384299034 -4.720504512560718
0.917392042199065 -4.701660411200362
0.9562326434984414 -4.6469412893046576
0.9929121565200899 -4.559704267712291
1.0273995497051194 -4.443010359438892
1.0597783025758039 -4.299254621098648
1.0900860881879886 -4.130378658259954
1.118321965514391 -3.9381149538565454
1.1444758252700433 -3.7241285316660084
1.1685408977640288 -3.4900745572089336
1.1905145867408051 -3.237614427440535
1.2103964552008137 -2.968418161862637
1.2281863264883799 -2.684165910547968
1.2438824361863638 -2.386553484223831
1.257477353003981 -2.0773010387951194
1.2689486198832294 -1.7581522037857238
1.2782473328559614 -1.430838002760871
1.2851309266637736 -1.0968604763423992
1.2887311011288565 -0.7564620351439438
1.289497447104761 -0.40695222472817827
1.295307412843773 -0.051990896933942606
0.5432693324147972 -0.058226346199009314
0.5483616454746424 -0.4079319664261811
0.5487491698648004 -0.7563703152440469
0.550879495287763 -1.0971665268455826
0.5559033643490969 -1.431520101557103
0.5631549836034729 -1.759107247992144
0.5722712637298558 -2.0784916924330075
0.5831328560101903 -2.3879608447673606
0.5956909478075764 -2.6857801269444925
0.6099268779474843 -2.9702353462638276
0.625835788923957 -3.2396332822431244
0.6434171298888337 -3.4922945078461054
0.6626699051843982 -3.726548446119544
0.6835886625242888 -3.9407320131451216
0.7061587758517985 -4.1331878722510735
0.7303549991827768 -4.302251857416262
0.756158946488886 -4.4462048365641085
0.7836156996143339 -4.563143146134852
0.8128969938453845 -4.6507236017904425
0.8441734059765534 -4.70586153471926
0.8770140384299033 -4.7249464886204375
0.9098546708832537 -4.705861534719259
0.9411310830144225 -4.650723601790443
0.9704123772454731 -4.563143146134851
0.9978691303709212 -4.446204836564108
1.02367307767703 -4.302251857416261
1.0478693010080085 -4.133187872251073
1.0704394143355183 -3.9407320131451202
1.0913581716754086 -3.726548446119543
1.110610946970973 -3.492294507846104
1.1281922879358501 -3.239633282243124
1.1441011989123226 -2.9702353462638267
1.1583371290522306 -2.685780126944492
1.1708952208496166 -2.3879608447673597
1.181756813129951 -2.0784916924330052
1.1908730932563338 -1.7591072479921446
1.19812471251071 -1.4315201015571024
1.2031485815720437 -1.0971665268455832
1.2052789069950063 -0.7563703152440457
1.2056664313851642 -0.4079319664261799
1.2107587444450092 -0.058226346199009495
0.626940490783279 -0.06348154203210221
0.6313838128468168 -0.40906456208314607
0.6315254293057311 -0.7562728742441757
0.6324699107847189 -1.0972831719853424
0.6357535157289186 -1.4319775457388275
0.6409768397250452 -1.7598190875001671
0.6477405886726112 -2.0794063700079435
0.6558685956144549 -2.3890524981058165
0.6652874482143833 -2.687035647752427
0.6759685933240314 -2.9716493790748992
0.6879040245408361 -3.241204094068154
0.7010926295703002 -3.4940213466596797
0.7155327969075325 -3.7284298195551027
0.731216545809331 -3.942764168350601
0.7481225160876391 -4.135363955074828
0.7662122227337292 -4.3045653411956835
0.7854513322532193 -4.448665660029021
0.8058930057516176 -4.5658127715602115
0.8278040258038178 -4.653743218796679
0.8515828399568054 -4.709367338096462
0.8770140384299034 -4.728757301545407
0.9024452369030016 -4.709367338096463
0.926224051055989 -4.653743218796678
0.9481350711081894 -4.5658127715602115
0.9685767446065876 -4.44866566002902
0.9878158541260776 -4.304565341195683
1.0059055607721676 -4.135363955074825
1.022811531050476 -3.9427641683505996
1.0384952799522742 -3.7284298195551013
1.052935447289507 -3.494021346659679
1.0661240523189706 -3.2412040940681535
1.0780594835357757 -2.971649379074898
1.0887406286454238 -2.687035647752427
1.0981594812453521 -2.389052498105815
1.1062874881871958 -2.0794063700079417
1.1130512371347618 -1.7598190875001674
1.1182745611308882 -1.431977545738827
1.1215581660750877 -1.097283171985343
1.1225026475540758 -0.7562728742441747
1.1226442640129901 -0.40906456208314473
1.127087586076528 -0.06348154203210243
0.7099840649209616 -0.0678797111231195
0.7138088094620527 -0.41025321230777395
0.7137432904944968 -0.7561902662174657
0.7137019908807638 -1.0972477123918478
0.7153693555049883 -1.4322226280456638
0.7186005002753758 -1.7602901658530512
0.7230197953905602 -2.08004591190574
0.7284158435870374 -2.389828581202192
0.734694924287248 -2.6879323768117787
0.7418204635502128 -2.972660161926623
0.7497817961460803 -3.24232678623979
0.7585772271169093 -3.4952550321316207
0.7682046081058114 -3.7297727013371906
0.778654015599412 -3.9442117353078143
0.7898989789901742 -4.1369078008993725
0.8018902532863681 -4.306196668186032
0.8145781899683306 -4.4503943488442905
0.8280193220633327 -4.567713302217004
0.842573042777372 -4.656001831964456
0.8588914789305233 -4.712194825318238
0.8770140384299036 -4.731975616337435
0.8951365979292835 -4.712194825318238
0.9114550340824349 -4.656001831964455
0.9260087547964743 -4.567713302217003
0.939449886891476 -4.45039434884429
0.9521378235734387 -4.306196668186031
0.9641290978696325 -4.136907800899372
0.9753740612603949 -3.9442117353078125
0.9858234687539954 -3.7297727013371897
0.9954508497428978 -3.4952550321316194
1.0042462807137267 -3.2423267862397895
1.0122076133095943 -2.972660161926622
1.019333152572559 -2.6879323768117778
1.0256122332727695 -2.3898285812021913
1.0310082814692467 -2.080045911905738
1.0354275765844312 -1.7602901658530516
1.0386587213548184 -1.4322226280456634
1.0403260859790429 -1.0972477123918483
1.04028478636531 -0.7561902662174645
1.0402192673977542 -0.4102532123077727
1.0440440119388454 -0.06787971112311972
0.7925876878729559 -0.07152305581479337
0.795810190005689 -0.41142429353824833
0.795527766264176 -0.7561229404564742
0.7946334720467356 -1.0970884664410934
0.794797421925591 -1.4322699595430692
0.7960822784029568 -1.7605249096511015
0.7981703719363803 -2.080411716502578
0.8008376527658791 -2.390289462335033
0.8039769611835119 -2.6884702821827258
0.8075461360474789 -2.973267588941436
0.8115326857311372 -3.2430012702388127
0.8159344740961821 -3.4959955297893237
0.8207489979738056 -3.730577199239572
0.8259651534227794 -3.945075200237476
0.8315533616654711 -4.137820699517032
0.8374567730564929 -4.307148107912661
0.8436108166271955 -4.451392786169217
0.8500656755480562 -4.56884301814935
0.857260157856777 -4.657495137425444
0.8661244407847963 -4.714354627172224
0.8770140384299037 -4.734640947342608
0.8879036360750104 -4.7143546271722245
0.8967679190030297 -4.657495137425444
0.9039624013117508 -4.568843018149349
0.9104172602326112 -4.451392786169216
0.9165713038033139 -4.307148107912661
0.9224747151943357 -4.1378206995170315
0.9280629234370276 -3.9450752002374747
0.9332790788860011 -3.7305771992395713
0.9380936027636247 -3.495995529789322
0.9424953911286698 -3.243001270238813
0.9464819408123282 -2.9732675889414346
0.9500511156762952 -2.6884702821827244
0.9531904240939277 -2.390289462335032
0.9558577049234265 -2.0804117165025757
0.95794579845685 -1.760524909651102
0.9592306549342158 -1.4322699595430686
0.9593946048130713 -1.097088466441094
0.9585003105956309 -0.7561229404564731
0.9582178868541178 -0.41142429353824705
0.9614403889868511 -0.07152305581479355
0.8748991752938383 -0.07449763498599961
0.8775332597499992 -0.41252426897278827
0.8770018178969639 -0.7560603852505584
0.8753374416623014 -1.096824969615725
0.874093045176938 -1.4321340174240376
0.8734805449192263 -1.7605290781614389
0.873254315438113 -2.0805056899622665
0.8731972200623997 -2.3904356706158314
0.873197099126557 -2.6886493827423745
0.8732092079430018 -2.9734715531136158
0.8732202550631111 -3.243227449663137
0.8732279145024059 -3.4962428111836084
0.8732295792197281 -3.730843461962859
0.8732138171790503 -3.945355160963631
0.873150157841397 -4.138104220323402
0.8729780635164945 -4.307422535161516
0.8726192153884476 -4.451663423225328
0.872103719183443 -4.569198643764483
0.871923453141094 -4.6582123396605075
0.8733062134921851 -4.715850023816313
0.8770140384299036 -4.736796080145633
0.8807218633676218 -4.715850023816313
0.8821046237187126 -4.6582123396605075
0.8819243576763638 -4.569198643764482
0.8814088614713592 -4.451663423225327
0.8810500133433122 -4.307422535161515
0.8808779190184097 -4.138104220323402
0.8808142596807566 -3.9453551609636293
0.8807984976400788 -3.730843461962858
0.8808001623574011 -3.496242811183607
0.8808078217966961 -3.243227449663137
0.8808188689168052 -2.973471553113615
0.8808309777332501 -2.688649382742373
0.8808308567974071 -2.39043567061583
0.8807737614216938 -2.080505689962264
0.8805475319405803 -1.7605290781614398
0.8799350316828688 -1.432134017424037
0.8786906351975055 -1.0968249696157257
0.877026258962843 -0.7560603852505573
0.8764948171098077 -0.4125242689727871
0.8791289015659686 -0.0744976349859998
0.9570397087965513 -0.07687794040608642
0.9591023170683618 -0.4135160062603604
0.9582823479547421 -0.7559870228551575
0.9558959990740883 -1.0964694370252457
0.9533193434018304 -1.431827746634507
0.9508564498265395 -1.7603089938968821
0.9483343374162116 -2.080330088052102
0.9455579178552858 -2.390267832092196
0.9424188597174166 -2.6884697252956906
0.9388732281677162 -2.97327194888672
0.9349080428355668 -3.243005224042621
0.9305210786455843 -3.4959968507412893
0.9257099021767748 -3.730571658830134
0.9204636190082351 -3.945052262583344
0.9147530901878405 -4.137760068815033
0.9085187153806957 -4.307023328044594
0.9016717411261276 -4.4512096155698035
0.8942065981856524 -4.568776069286296
0.8866257530068156 -4.6581357344728564
0.880462388376741 -4.71667514147651
0.8770140384299034 -4.738490069040359
0.873565688483066 -4.71667514147651
0.867402323852991 -4.6581357344728564
0.8598214786741544 -4.568776069286296
0.8523563357336793 -4.451209615569803
0.8455093614791112 -4.307023328044593
0.8392749866719662 -4.137760068815033
0.8335644578515718 -3.945052262583342
0.828318174683032 -3.7305716588301334
0.8235069982142227 -3.4959968507412884
0.8191200340242403 -3.243005224042621
0.8151548486920906 -2.973271948886719
0.8116092171423904 -2.6884697252956893
0.808470159004521 -2.3902678320921944
0.8056937394435952 -2.0803300880520994
0.8031716270332674 -1.7603089938968826
0.8007087334579762 -1.4318277466345066
0.7981320777857185 -1.0964694370252461
0.7957457289050648 -0.7559870228551566
0.7949257597914452 -0.41351600626035917
0.7969883680632555 -0.07687794040608664
1.0391115795502692 -0.07873090738507242
1.0406256564573917 -0.4143753735422858
1.0394788985635937 -0.7558858863212684
1.0363960863029915 -1.0960285760595738
1.0325457932174156 -1.4313619260758403
1.0282741488968878 -1.759870848759871
1.023474031330772 -2.0798872806498534
1.0179833088745522 -2.3897865981682207
1.0117057535278953 -2.6879313603853916
1.0046016996520486 -2.9726686719557933
0.9966595633411309 -3.242334492535819
0.9878774818815859 -3.495257621468805
0.9782534476035865 -3.7297619579616472
0.9677779267623002 -3.9441671357773265
0.9564251274752218 -4.136789920558054
0.9441413673707919 -4.305954182235333
0.9308343482280398 -4.450036026908708
0.91644934788832 -4.567571595936373
0.9014380429887437 -4.657240561796494
0.8876221926495066 -4.716811961313322
0.8770140384299036 -4.739782101664419
0.8664058842103003 -4.716811961313323
0.852590033871063 -4.657240561796494
0.8375787289714868 -4.567571595936373
0.8231937286317671 -4.450036026908707
0.809886709489015 -4.305954182235333
0.797602949384585 -4.136789920558052
0.7862501500975065 -3.944167135777325
0.7757746292562203 -3.7297619579616463
0.7661505949782211 -3.495257621468804
0.7573685135186761 -3.242334492535819
0.7494263772077584 -2.9726686719557924
0.7423223233319117 -2.6879313603853903
0.7360447679852545 -2.3897865981682194
0.730554045529035 -2.0798872806498507
0.725753927962919 -1.7598708487598713
0.7214822836423911 -1.4313619260758397
0.7176319905568153 -1.0960285760595743
0.7145491782962131 -0.7558858863212673
0.7134024204024152 -0.4143753735422846
0.7149164973095377 -0.07873090738507266
1.1212025164798143 -0.08011931128996551
1.1221987886905407 -0.4150883961849819
1.1206936506381335 -0.7557408857593704
1.1169270130394433 -1.0955053384631246
1.111846871270568 -1.4307450051266737
1.10580066858438 -1.7592201490706834
1.0987379311002028 -2.0791794866657596
1.0905371419949847 -2.3889925642021628
1.0811212736719662 -2.6870343196921675
1.070458079278617 -2.9716616184398945
1.058538306592857 -3.2412151577741755
1.045360628760986 -3.494025090843127
1.0309236306205252 -3.7284145028979436
1.0152198761658804 -3.942700345219849
0.9982285974567898 -4.135195252696499
0.9799065878872187 -4.304218783003315
0.9601693404495306 -4.448148960355567
0.9389083354042808 -4.565583862265172
0.9164437725315008 -4.655495528649866
0.8948226413811549 -4.716225588124839
0.8770140384299036 -4.740746558157688
0.8592054354786521 -4.716225588124838
0.8375843043283059 -4.655495528649866
0.815119741455526 -4.565583862265172
0.7938587364102763 -4.448148960355566
0.7741214889725883 -4.304218783003315
0.7557994794030172 -4.135195252696498
0.7388082006939265 -3.942700345219848
0.7231044462392819 -3.7284145028979427
0.7086674480988209 -3.494025090843126
0.6954897702669497 -3.2412151577741755
0.68356999758119 -2.971661618439894
0.6729068031878407 -2.6870343196921667
0.6634909348648221 -2.388992564202161
0.6552901457596041 -2.079179486665757
0.6482274082754271 -1.7592201490706836
0.6421812055892386 -1.430745005126673
0.6371010638203635 -1.095505338463125
0.6333344262216732 -0.7557408857593694
0.6318292881692662 -0.41508839618498067
0.6328255603799926 -0.08011931128996576
1.2033876563732469 -0.08110458381924411
1.2039062457808902 -0.41564902729621583
1.2020220762272265 -0.7555382622663884
1.1975792756491996 -1.0949004487536655
1.191300966703739 -1.4299831706642
1.1835055378064183 -1.758361293244001
1.1741914397660491 -2.07820851891167
1.1632833189607272 -2.3878861855830853
1.1507288789842638 -2.6857785966385
1.1365057756188248 -2.9702506852380908
1.1206077395965826 -3.2396471300876772
1.1030340208073002 -3.4922992190488618
1.0837838227412686 -3.726529387228299
1.0628523796684635 -3.9406523481576783
1.0402253621707784 -4.1329772164317875
1.015873105323189 -4.301820297718323
0.9897336718291984 -4.44555634211912
0.961658833245104 -4.562816588987576
0.9317441329528514 -4.652864796330643
0.9021158961145861 -4.7148569673392275
0.8770140384299032 -4.7414795586262475
0.8519121807452208 -4.714856967339227
0.8222839439069553 -4.652864796330642
0.7923692436147028 -4.562816588987576
0.7642944050306085 -4.4455563421191195
0.738154971536618 -4.301820297718322
0.7138027146890285 -4.1329772164317875
0.6911756971913431 -3.940652348157677
0.6702442541185384 -3.7265293872282985
0.6509940560525066 -3.492299219048861
0.6334203372632243 -3.239647130087677
0.6175223012409821 -2.97025068523809
0.6032991978755432 -2.685778596638499
0.5907447578990797 -2.3878861855830835
0.5798366370937579 -2.0782085189116675
0.5705225390533887 -1.7583612932440011
0.562727110156068 -1.4299831706641992
0.5564488012106074 -1.0949004487536662
0.5520060006325804 -0.7555382622663874
0.5501218310789168 -0.41564902729621467
0.55064042048656 -0.08110458381924435
1.2857296320941292 -0.08174908761684037
1.2858222253109484 -0.41605753333408296
1.2835540417404774 -0.755267673288399
1.2784444035339055 -1.0942136479189744
1.270989591904723 -1.4290804595856672
1.2614602693378139 -1.7572972495712198
1.2499006377444146 -2.076975565904473
1.2362858260176461 -2.386467702340034
1.220591968707339 -2.6841641322780405
1.2028081453045607 -2.9684357730618713
1.1829313100751897 -3.2376303318048887
1.1609611623476332 -3.4900799616872087
1.1368973984310107 -3.724106631375523
1.1107381449741438 -3.938023445302893
1.0824769273802948 -4.1301366111148985
1.0520986372871153 -4.298760749109867
1.0195773133905897 -4.442266870555667
0.9847691207651297 -4.559282085405436
0.9474637572059754 -4.64931297945706
0.9095831059182371 -4.712611930835673
0.8770140384299033 -4.742107012028037
0.8444449709415697 -4.712611930835672
0.8065643196538312 -4.649312979457059
0.7692589560946773 -4.559282085405435
0.734450763469217 -4.442266870555666
0.7019294395726918 -4.298760749109866
0.6715511494795121 -4.130136611114898
0.6432899318856626 -3.938023445302892
0.6171306784287961 -3.724106631375523
0.5930669145121737 -3.4900799616872074
0.5710967667846173 -3.2376303318048887
0.5512199315552461 -2.9684357730618705
0.533436108152468 -2.68416413227804
0.5177422508421605 -2.3864677023400325
0.5041274391153923 -2.0769755659044704
0.4925678075219933 -1.75729724957122
0.48303848495508395 -1.4290804595856665
0.4755836733259015 -1.0942136479189748
0.4704740351193295 -0.7552676732883981
0.4682058515488585 -0.41605753333408174
0.4682984447656779 -0.0817490876168406
1.3682768212438088 -0.08211783842012713
1.368010235925287 -0.41631955280386523
1.3653754886355023 -0.7549232507390715
1.3596156807209507 -1.0934446015241188
1.350996804238769 -1.4280387727634034
1.3397377294966761 -1.7560293031160183
1.3259319951796156 -2.075481027725028
1.3096086304546193 -2.384737083014136
1.290773850892776 -2.682190809174063
1.269428488259043 -2.9662167933400965
1.245572455257607 -3.235164701803269
1.2192055620554982 -3.4873672743950492
1.190327785655932 -3.721146179426507
1.1589397950652158 -3.934813687820005
1.1250442625325818 -4.126673976944042
1.0886413040290421 -4.295040587096524
1.049743369599555 -4.438287607430539
1.0082886688146413 -4.5550047517057815
0.9637540046237093 -4.644816161502776
0.9173619454160813 -4.7093452525537165
0.8770140384299033 -4.7427931440694735
0.8366661314437254 -4.709345252553715
0.7902740722360971 -4.644816161502776
0.7457394080451655 -4.55500475170578
0.7042847072602518 -4.438287607430539
0.6653867728307652 -4.295040587096524
0.628983814327225 -4.126673976944041
0.5950882817945908 -3.9348136878200033
0.5637002912038747 -3.7211461794265066
0.5348225148043088 -3.4873672743950483
0.5084556216021998 -3.235164701803269
0.48459958860076374 -2.9662167933400965
0.46325422596703103 -2.6821908091740623
0.4444194464051875 -2.3847370830141346
0.4280960816801912 -2.075481027725025
0.41429034736313103 -1.7560293031160186
0.4030312726210379 -1.4280387727634027
0.39441239613885637 -1.0934446015241195
0.38865258822430454 -0.7549232507390705
0.38601784093452 -0.41631955280386407
0.3857512556159983 -0.08211783842012736
1.451059341616363 -0.08227956187024808
1.450521862492031 -0.41644604909905997
1.4475711729235976 -0.7545049006019083
1.4411896309210928 -1.0925933565580974
1.4314086508618193 -1.4268576815409595
1.4184114165628778 -1.7545568608412503
1.4023520172027084 -2.073724415242666
1.3833155464830225 -2.3826939965213425
1.3613377083060374 -2.679858456652512
1.3364300437698646 -2.963593678200367
1.3085946095267444 -3.2322502049875714
1.2778307563866904 -3.4841611064078633
1.244138435991725 -3.717647941507276
1.2075202349346694 -3.9310227496994696
1.167987354370133 -4.122589589420793
1.1255603467270134 -4.290659248005933
1.0802739061689317 -4.433619419357583
1.0322283870837676 -4.550021646801825
0.9807832461892484 -4.639384743185766
0.9257049709496213 -4.70483898010225
0.8770140384299033 -4.743745188194565
0.8283231059101853 -4.70483898010225
0.7732448306705582 -4.639384743185766
0.7217996897760391 -4.550021646801824
0.6737541706908752 -4.433619419357583
0.6284677301327936 -4.290659248005933
0.586040722489674 -4.122589589420791
0.5465078419251373 -3.9310227496994683
0.5098896408680819 -3.717647941507275
0.4761973204731167 -3.4841611064078624
0.4454334673330624 -3.232250204987571
0.4175980330899424 -2.963593678200367
0.39269036855376954 -2.6798584566525117
0.3707125303767843 -2.3826939965213407
0.3516760596570984 -2.073724415242663
0.33561666029692916 -1.7545568608412503
0.3226194259979876 -1.4268576815409586
0.31283844593871424 -1.0925933565580979
0.3064569039362094 -0.7545049006019073
0.3035062143677758 -0.41644604909905886
0.30296873524344403 -0.08227956187024832
1.5340816922096518 -0.08230679828897415
1.533394830219349 -0.41645471098417336
1.530229495602222 -0.7540200215909997
1.5232680001172945 -1.0916600803843624
1.5123123640444869 -1.4255339789560733
1.497554694593293 -1.752877331915628
1.4792268375024047 -2.0717043127830777
1.4574700826934015 -2.380337819851563
1.432346563452774 -2.677166871296506
1.403875998533235 -2.9605663899267496
1.3720611876540547 -3.228886851564817
1.3369003913799011 -3.4804613870759913
1.2983927161013298 -3.713611819268433
1.2565429135431838 -3.9266500439359118
1.2113660863291094 -4.117882623547734
1.1629118358711492 -4.285617688504624
1.111226933047996 -4.428251914009156
1.0565405635062128 -4.544370982332108
0.9986767784351858 -4.63310915381802
0.9351131703577107 -4.698778321318634
0.8770140384299033 -4.7451996548003965
0.8189149065020958 -4.698778321318633
0.755351298424621 -4.63310915381802
0.6974875133535937 -4.544370982332107
0.6428011438118106 -4.428251914009157
0.5911162409886578 -4.285617688504624
0.5426619905306976 -4.117882623547734
0.4974851633166229 -3.9266500439359104
0.4556353607584769 -3.7136118192684324
0.41712768547990575 -3.4804613870759904
0.3819668892057521 -3.2288868515648166
0.3501520783265719 -2.9605663899267496
0.3216815134070328 -2.6771668712965053
0.2965579941664051 -2.380337819851561
0.27480123935740225 -2.0717043127830745
0.2564733822665139 -1.7528773319156281
0.2417157128153202 -1.4255339789560728
0.2307600767425125 -1.0916600803843628
0.22379858125758506 -0.7540200215909987
0.22063324664045805 -0.4164547109841722
0.21994638465015504 -0.0823067982889744
1.617309637792745 -0.08227447226841758
1.6166508297698825 -0.4163740320838097
1.6134515458220742 -0.7534855895410855
1.6059592349110288 -1.0906435456315655
1.5937951440051596 -1.4240610955427304
1.5772400609765638 -1.7509860970769022
1.5566217419645265 -2.0694183985122754
1.5321352987282626 -2.37766769439939
1.5038632520668407 -2.67411584596956
1.4718294796785683 -2.957134947372171
1.436035642771698 -3.2250746738075424
1.396478051603035 -3.4762681456854208
1.3531545891961443 -3.709037386562975
1.3060698663818906 -3.9216956534275673
1.25524628854786 -4.1125492242514
1.2007365812158353 -4.279920135739697
1.1426908578028367 -4.4221705930152275
1.0811643023174695 -4.538042157223627
1.0172717989096227 -4.626247574115511
0.9466719424495845 -4.6907461691777
0.8770140384299033 -4.747342396629274
0.8073561344102219 -4.690746169177699
0.7367562779501838 -4.626247574115509
0.6728637745423373 -4.538042157223627
0.6113372190569699 -4.4221705930152275
0.5532914956439715 -4.279920135739698
0.49878178831194714 -4.112549224251399
0.4479582104779162 -3.9216956534275655
0.40087348766366243 -3.7090373865629744
0.35755002525677165 -3.47626814568542
0.3179924340881088 -3.225074673807542
0.2821985971812385 -2.9571349473721704
0.250164824792966 -2.6741158459695593
0.22189277813154412 -2.3776676943993884
0.19740633489528023 -2.069418398512272
0.17678801588324336 -1.7509860970769022
0.1602329328546473 -1.42406109554273
0.1480688419487783 -1.0906435456315657
0.1405765310377327 -0.7534855895410846
0.13737724708992438 -0.41637403208380847
0.1367184390670622 -0.08227447226841784
1.7006463436346386 -0.08225576504418756
1.700294172087263 -0.41625277648974696
1.697369155188747 -0.752929839792616
1.689375724703396 -1.0895374099944477
1.675943676566936 -1.4224289794320464
1.6575380589231297 -1.748876384968597
1.634600750950163 -2.066863597084762
1.6073736645336227 -2.3746826119139053
1.575950406456073 -2.670705221319152
1.540353577368767 -2.9532994321271064
1.500581425002954 -3.2208137848873286
1.456627491866757 -3.471581331902658
1.408487709787785 -3.703924644005231
1.356165625212389 -3.9161577265223033
1.299685329390441 -4.106591625982508
1.2391134861078685 -4.273545631765263
1.1746149683975937 -4.415433432013358
1.1064977495155648 -4.530814895197555
1.0351777545550822 -4.619377693914959
0.9629962029529939 -4.680331249398785
0.8770140384299031 -4.75
0.7910318739068123 -4.680331249398784
0.7188503223047246 -4.6193776939149584
0.6475303273442418 -4.530814895197553
0.5794131084622134 -4.415433432013357
0.5149145907519385 -4.2735456317652645
0.4543427474693655 -4.1065916259825075
0.39786245164741785 -3.916157726522302
0.34554036707202207 -3.7039246440052302
0.29740058499304983 -3.4715813319026565
0.25344665185685267 -3.220813784887328
0.21367449949103973 -2.953299432127106
0.1780776704037336 -2.6707052213191513
0.14665441232618365 -2.3746826119139026
0.11942732590964375 -2.066863597084758
0.09649001793667752 -1.748876384968597
0.07808440029287116 -1.4224289794320462
0.06465235215641078 -1.0895374099944484
0.056658921671059945 -0.752929839792615
0.053733904772543965 -0.4162527764897457
0.05338173322516859 -0.08225576504418781
SCALARS Stress float 6
LOOKUP_TABLE default
-970.8924491030486 -30890.598256320107 -9558.447211626948 -717.7027353050371 0.0 0.0
14631.042165098908 8646.039457753634 6983.124486855763 -1114.8311930377276 0.0 0.0
8318.948898597046 -737.8311034039957 2274.335338557915 -476.80071674998993 0.0 0.0
8512.348868647825 648.0395452762143 2748.1165241772123 -71.01317580059278 0.0 0.0
9773.197066966899 235.79655246397584 3002.6980858292627 -163.66499598372425 0.0 0.0
11763.2696591745 333.1781632079822 3628.934346714742 -168.6505361770657 0.0 0.0
13960.379306762603 363.0385078642459 4297.025344388053 -178.83340494570112 0.0 0.0
16260.023510398118 422.83341051141696 5004.857076272859 -182.70816052046405 0.0 0.0
18586.502620288473 481.6582653130635 5720.448265680464 -184.08600038217705 0.0 0.0
20918.17248631992 542.4198855714251 6438.177711567403 -184.44460327637324 0.0 0.0
23247.23059278264 603.001293834662 7155.069565985191 -184.44458076557177 0.0 0.0
25573.418617684933 663.5490110220815 7871.090288612103 -184.48542822754757 0.0 0.0
27899.813388617204 724.3076067476229 8587.236298609445 -184.84474230601649 0.0 0.0
30234.826989463756 786.129697472475 9306.28700608087 -185.90324632383644 0.0 0.0
32596.93837528245 850.4784171833073 10034.225037739727 -188.07043210572266 0.0 0.0
35017.37369987544 918.8659396889504 10780.871891869318 -191.14381230977665 0.0 0.0
37526.43541377886 990.4817734682483 11555.075156174136 -192.53552847077594 0.0 0.0
40098.78368604968 1057.7623122064892 12346.963799476853 -184.55480165187964 0.0 0.0
42544.37956083251 1103.9569023619192 13094.50093895833 -153.93369721729914 0.0 0.0
44414.67694792284 1115.2152090909665 13658.96764710414 -90.05004106336702 0.0 0.0
45131.10839992503 1108.8710754486167 13871.993842612097 -9.038103598868474e-11 0.0 0.0
44414.676947922846 1115.2152090914337 13658.967647104284 90.05004106358047 0.0 0.0
42544.37956083253 1103.956902361625 13094.50093895825 153.93369721739327 0.0 0.0
40098.78368605152 1057.7623122103282 12346.963799478552 184.55480165170178 0.0 0.0
37526.43541377909 990.481773469055 11555.075156174446 192.5355284707739 0.0 0.0
35017.37369987463 918.8659396876437 10780.87189186868 191.1438123101433 0.0 0.0
32596.938375283244 850.4784171853189 10034.22503774057 188.07043210577456 0.0 0.0
30234.826989464316 786.1296974738307 9306.28700608145 185.9032463236049 0.0 0.0
27899.813388617258 724.3076067476057 8587.236298609461 184.8447423062509 0.0 0.0
25573.418617684823 663.5490110218763 7871.090288612011 184.48542822733327 0.0 0.0
23247.230592782125 603.0012938339679 7155.069565984827 184.4445807658704 0.0 0.0
20918.17248632005 542.4198855719336 6438.177711567597 184.44460327641286 0.0 0.0
18586.502620289055 481.65826531439245 5720.448265681035 184.0860003822716 0.0 0.0
16260.023510398367 422.8334105119162 5004.857076273083 182.70816052013913 0.0 0.0
13960.37930676269 363.0385078644624 4297.025344388146 178.83340494569777 0.0 0.0
11763.269659174191 333.1781632072878 3628.934346714443 168.65053617730538 0.0 0.0
9773.197066966834 235.79655246385835 3002.698085829208 163.66499598357007 0.0 0.0
8512.348868648012 648.0395452768615 2748.116524177462 71.01317580079764 0.0 0.0
8318.948898597106 -737.8311034040499 2274.335338557916 476.80071675028506 0.0 0.0
14631.042165099112 8646.039457753779 6983.124486855867 1114.831193037474 0.0 0.0
-970.8924491031848 -30890.598256320423 -9558.447211627084 717.7027353049813 0.0 0.0
-5512.851223637217 -30688.283735955036 -10860.340487877678 -490.45763853809945 0.0 0.0
8998.588473321584 5915.461241691079 4474.214914503799 -888.8716275800605 0.0 0.0
5849.378257850953 -830.1433716414773 1505.7704658628427 -333.2655089639645 0.0 0.0
7592.472598730944 293.5142471037913 2365.79605375042 -275.84475357537667 0.0 0.0
8688.943298013277 36.44115092601852 2617.6153346817887 -397.7110708097923 0.0 0.0
10493.83582119655 29.005208299885787 3156.8523088489305 -450.5307106529022 0.0 0.0
12441.665704418983 9.69905396774403 3735.4094275160187 -474.21226556866617 0.0 0.0
14479.919893035792 2.9644208461130406 4344.865294164572 -483.9067574309796 0.0 0.0
16545.508138083576 0.30987661501203556 4963.745404409577 -486.5682523894052 0.0 0.0
18618.16159504406 -0.39557494503780255 5585.329806029708 -486.84072848556485 0.0 0.0
20690.30806952851 -0.4003681131890424 6206.972310424599 -486.4695816700855 0.0 0.0
22761.023552326496 -0.0613689371655326 6828.288655016797 -486.28718403308716 0.0 0.0
24832.857374042265 0.8532259490895697 7450.113179997406 -486.96155139755433 0.0 0.0
26912.85640054919 3.020793448157189 8074.763158199205 -489.6732627635817 0.0 0.0
29015.367864323263 7.098261442485612 8706.739837729725 -496.27423751311954 0.0 0.0
31161.83344485717 12.049233820076154 9352.164803603173 -507.9672437425362 0.0 0.0
33365.79284556539 11.525522234622155 10013.195510340007 -520.4649422210182 0.0 0.0
35585.46290541275 -9.920182221664113 10672.662816957329 -514.5510633560802 0.0 0.0
37641.819114455626 -71.95964304706594 11270.95784142257 -448.5377375210833 0.0 0.0
39168.80351397999 -168.6462974398354 11700.047164962049 -274.86858296321645 0.0 0.0
39740.177091692574 -226.96836205764353 11853.962618890475 -8.412825991399586e-12 0.0 0.0
39168.803513978986 -168.64629744241407 11700.04716496097 274.8685829633447 0.0 0.0
37641.81911445638 -71.95964304530469 11270.957841423324 448.5377375212952 0.0 0.0
35585.46290541278 -9.920182221781218 10672.662816957296 514.5510633560784 0.0 0.0
33365.79284556561 11.525522234797279 10013.195510340123 520.4649422207187 0.0 0.0
31161.833444856686 12.049233819107627 9352.16480360274 507.96724374232804 0.0 0.0
29015.367864323103 7.098261442631625 8706.739837729723 496.27423751312534 0.0 0.0
26912.856400549215 3.0207934479275877 8074.7631581991445 489.6732627634726 0.0 0.0
24832.857374042866 0.8532259500375261 7450.1131799978675 486.9615513977682 0.0 0.0
22761.02355232598 -0.06136893839762081 6828.288655016277 486.28718403314616 0.0 0.0
20690.3080695283 -0.4003681134153396 6206.972310424466 486.46958166997547 0.0 0.0
18618.161595044337 -0.39557494402095017 5585.329806030097 486.84072848558833 0.0 0.0
16545.508138083886 0.30987661569679403 4963.745404409877 486.5682523895655 0.0 0.0
14479.91989303608 2.964420846376427 4344.865294164737 483.90675743084336 0.0 0.0
12441.665704419394 9.699053968426917 3735.4094275163466 474.21226556857863 0.0 0.0
10493.835821196351 29.00520829939674 3156.8523088487245 450.53071065292596 0.0 0.0
8688.943298013448 36.44115092632839 2617.615334681933 397.71107080983614 0.0 0.0
7592.472598731143 293.514247104199 2365.7960537506033 275.84475357554834 0.0 0.0
5849.378257850777 -830.1433716415585 1505.7704658627654 333.265508963981 0.0 0.0
8998.588473321626 5915.461241691355 4474.214914503894 888.871627579995 0.0 0.0
-5512.851223637146 -30688.2837359552 -10860.340487877706 490.4576385380716 0.0 0.0
-6032.173738330589 -26860.146885857917 -9867.696187256552 -2258.7785252634 0.0 0.0
5690.892899807575 3566.2180351922343 2777.1332804999424 -1607.3639046053156 0.0 0.0
4338.091356227051 148.7416886546643 1346.0499134645142 -225.9866267750691 0.0 0.0
6335.034323972936 48.07481961330893 1914.932743075874 -636.3301906470286 0.0 0.0
7731.111671855169 113.36526335485817 2353.343080563008 -791.898521664706 0.0 0.0
9314.654587485391 28.206694087093673 2802.858384471746 -907.5894673481703 0.0 0.0
11069.178562616975 15.406434904458933 3325.37549925643 -952.807241508887 0.0 0.0
12876.27980292592 3.8215347875895214 3864.0304013140517 -971.0809423696073 0.0 0.0
14710.388687285755 0.4496179544668877 4413.251491572067 -975.9904198362239 0.0 0.0
16550.949708483116 -0.5722441481246481 4965.113239300498 -976.2743907688556 0.0 0.0
18392.23062764319 -0.5689296156804033 5517.498509408255 -975.4351603837163 0.0 0.0
20232.987121573293 -0.10198152904791158 6069.865542013273 -974.9824621380856 0.0 0.0
22075.12325362888 1.1597920652814473 6622.88491370825 -976.1876065307819 0.0 0.0
23923.96480850603 4.1961455089246975 7178.448286204488 -981.3926801953527 0.0 0.0
25789.86793718492 10.052156119827501 7739.9760279914235 -994.474508718722 0.0 0.0
27686.98086429196 17.489481046598705 8311.341103601564 -1018.4717965165169 0.0 0.0
29619.882732454913 17.534727971029504 8891.225238127783 -1046.1016644612398 0.0 0.0
31544.51300456644 -12.962435346628403 9459.465170765945 -1040.1142927564845 0.0 0.0
33303.05995758718 -106.2431372643046 9959.045046096862 -914.9724427439429 0.0 0.0
34588.64930480099 -259.4872893255856 10298.748604642622 -566.3357157810386 0.0 0.0
35060.76910524112 -357.6946195389186 10410.922345710664 -7.793232725816779e-11 0.0 0.0
34588.649304800565 -259.487289326657 10298.748604642173 566.3357157810925 0.0 0.0
33303.059957587255 -106.24313726414528 9959.045046096933 914.972442744058 0.0 0.0
31544.513004564997 -12.962435349942453 9459.465170764513 1040.114292756529 0.0 0.0
29619.882732454626 17.53472797012971 8891.225238127425 1046.1016644612012 0.0 0.0
27686.980864291843 17.489481046251512 8311.341103601433 1018.4717965162619 0.0 0.0
25789.86793718378 10.052156117568686 7739.976027990406 994.4745087187163 0.0 0.0
23923.964808505523 4.196145507849806 7178.448286204011 981.3926801954129 0.0 0.0
22075.123253629412 1.1597920663247692 6622.884913708722 976.1876065307412 0.0 0.0
20232.987121573286 -0.10198152912468572 6069.86554201325 974.9824621382027 0.0 0.0
18392.230627642984 -0.5689296159084449 5517.498509408124 975.4351603837183 0.0 0.0
16550.949708483215 -0.572244147730359 4965.113239300644 976.2743907688289 0.0 0.0
14710.388687285807 0.4496179546100194 4413.251491572123 975.9904198362029 0.0 0.0
12876.279802925472 3.821534786574219 3864.030401313613 971.0809423696834 0.0 0.0
11069.178562617331 15.406434905367298 3325.37549925681 952.8072415088072 0.0 0.0
9314.65458748518 28.20669408664681 2802.8583844715477 907.5894673481844 0.0 0.0
7731.111671855362 113.36526335534052 2353.3430805632106 791.8985216646886 0.0 0.0
6335.034323973051 48.07481961370989 1914.9327430760286 636.3301906471435 0.0 0.0
4338.091356227092 148.7416886546635 1346.049913464527 225.98662677498254 0.0 0.0
5690.892899807702 3566.2180351925585 2777.133280500079 1607.3639046052913 0.0 0.0
-6032.173738330842 -26860.146885858136 -9867.696187256692 2258.778525263411 0.0 0.0
-5543.355267039191 -23090.145834954485 -8590.050330598102 -2819.819958021461 0.0 0.0
3552.6849277674964 1451.3499474360908 1501.2104625610764 -2201.237906309031 0.0 0.0
3171.2201537345745 686.8979785534913 1157.4354396864198 -669.772291723227 0.0 0.0
5125.645549696812 98.44474703704986 1567.2270890201592 -919.8775158662083 0.0 0.0
6684.2499929096675 121.98428419530117 2041.8702831314904 -1178.0229131743497 0.0 0.0
8136.388245909612 53.85495175073136 2457.072959298103 -1310.1851714965865 0.0 0.0
9684.178559136804 19.189001655130284 2911.0102682375805 -1376.0527382714447 0.0 0.0
11270.845124901743 6.217598610351967 3383.118817053629 -1400.2123798760545 0.0 0.0
12874.250416435676 0.45350913223096434 3862.4111776703708 -1407.356134767462 0.0 0.0
14483.761972137683 -0.8478847246139338 4344.874226223921 -1407.8747224868364 0.0 0.0
16094.235826948072 -0.8613481403930798 4828.012343642304 -1406.830399004369 0.0 0.0
17704.809470706863 -0.1774769962379601 5311.389598113187 -1406.2802277691942 0.0 0.0
19316.584186970184 1.6527735664669017 5795.471088160995 -1407.9789200081937 0.0 0.0
20932.95243627365 6.120824289133839 6281.721978168833 -1415.072218605222 0.0 0.0
22560.34970127664 14.929123390859903 6772.583647400249 -1432.7215405852105 0.0 0.0
24207.17249090381 26.56192182946011 7270.120323819982 -1464.90421179049 0.0 0.0
25873.907884021533 27.761963377434363 7770.5009542196885 -1501.4137044503818 0.0 0.0
27522.826905231956 -17.576811348227068 8251.575028165118 -1490.2647042652168 0.0 0.0
29022.644633826836 -163.03371624242533 8657.883275275328 -1310.6130766811398 0.0 0.0
30111.77648492305 -409.98124927435686 8910.538570694609 -812.1410475225807 0.0 0.0
30503.95789076125 -572.2592263505943 8979.509599323197 -2.6147972675971687e-12 0.0 0.0
30111.776484923594 -409.98124927291656 8910.538570695204 812.1410475226517 0.0 0.0
29022.644633826556 -163.03371624298595 8657.883275275071 1310.6130766809906 0.0 0.0
27522.826905231304 -17.576811349715655 8251.575028164478 1490.26470426514 0.0 0.0
25873.907884022614 27.761963380000537 7770.500954220787 1501.4137044504666 0.0 0.0
24207.172490903242 26.561921828201477 7270.120323819434 1464.9042117903978 0.0 0.0
22560.34970127646 14.929123390480314 6772.583647400081 1432.7215405850338 0.0 0.0
20932.9524362732 6.120824288119579 6281.721978168399 1415.07221860526 0.0 0.0
19316.584186969914 1.6527735659003326 5795.471088160747 1407.9789200080154 0.0 0.0
17704.809470706994 -0.17747699607434697 5311.389598113277 1406.2802277690532 0.0 0.0
16094.235826948125 -0.8613481402443455 4828.012343642363 1406.8303990042123 0.0 0.0
14483.761972137581 -0.847884724693003 4344.874226223868 1407.8747224868298 0.0 0.0
12874.250416435814 0.4535091323682394 3862.4111776704544 1407.3561347673967 0.0 0.0
11270.845124901414 6.217598609405023 3383.1188170532455 1400.212379876143 0.0 0.0
9684.178559137177 19.189001655956503 2911.01026823794 1376.0527382713879 0.0 0.0
8136.388245909487 53.85495175050474 2457.072959297997 1310.185171496733 0.0 0.0
6684.249992909579 121.98428419528992 2041.870283131461 1178.0229131742599 0.0 0.0
5125.645549696965 98.44474703761337 1567.2270890203731 919.8775158662839 0.0 0.0
3171.220153734388 686.8979785533479 1157.4354396863207 669.7722917232666 0.0 0.0
3552.6849277674683 1451.3499474361615 1501.2104625610887 2201.237906308929 0.0 0.0
-5543.3552670392155 -23090.14583495456 -8590.050330598133 2819.8199580214846 0.0 0.0
-4750.76841259139 -19656.71706331951 -7322.24564277327 -2884.175083714282 0.0 0.0
2158.699364883421 -178.7604078738909 593.9816871028592 -2602.9231105261524 0.0 0.0
2261.5818213162634 857.0264569316096 935.5824834743619 -1269.1072444979268 0.0 0.0
4024.4353606114355 240.98590619727491 1279.6263800426127 -1255.2450525713173 0.0 0.0
5603.0865152592005 144.08535029863182 1724.1515596673494 -1522.5605554732304 0.0 0.0
6946.4267958291075 76.31921868572351 2106.8238043544484 -1669.7264365894805 0.0 0.0
8294.737952916485 27.791286210442728 2496.7587717380784 -1743.2155510114435 0.0 0.0
9662.273127912624 8.291867430686722 2901.169498602993 -1772.3137797805575 0.0 0.0
11037.483692582571 0.7689550255844235 3311.4757942824463 -1780.807544112499 0.0 0.0
12416.352991757361 -1.2331361756974957 3724.5359566745005 -1781.7127125733232 0.0 0.0
13796.231232199312 -1.2044319709069846 4138.508040068524 -1780.6370270993127 0.0 0.0
15176.441188857329 -0.2596109169734149 4552.854473382106 -1780.1054520634793 0.0 0.0
16557.38543615337 2.2978493363635977 4967.904985646921 -1782.1568580348323 0.0 0.0
17940.433658014437 8.560958588286699 5384.69838498082 -1790.3671834245536 0.0 0.0
19328.33968142692 21.044364181178054 5804.815213682429 -1810.5398571655141 0.0 0.0
20725.119127883852 37.90124788817262 6228.906112731607 -1847.1170563233618 0.0 0.0
22130.98449685339 40.444378319530266 6651.428662551877 -1888.0358136160328 0.0 0.0
23520.874720950716 -24.340689719245688 7048.960209369442 -1871.0808100835552 0.0 0.0
24793.27441648033 -238.54297345926537 7366.419432906319 -1647.6487385530506 0.0 0.0
25720.25189975499 -610.3014041960531 7532.985148667682 -1025.011534653987 0.0 0.0
26045.658781849583 -859.913937589085 7555.723453278151 -1.383000380883459e-10 0.0 0.0
25720.25189975511 -610.3014041955153 7532.985148667876 1025.0115346541643 0.0 0.0
24793.274416480217 -238.5429734593575 7366.419432906258 1647.6487385530274 0.0 0.0
23520.874720951047 -24.34068971848491 7048.960209369768 1871.080810083577 0.0 0.0
22130.98449685379 40.444378320509514 6651.428662552291 1888.0358136161547 0.0 0.0
20725.11912788495 37.901247890803575 6228.906112732727 1847.1170563232288 0.0 0.0
19328.339681426693 21.044364180807115 5804.815213682252 1810.5398571654534 0.0 0.0
17940.433658013957 8.560958587212994 5384.698384980348 1790.3671834245597 0.0 0.0
16557.38543615315 2.297849335991387 4967.904985646743 1782.1568580349028 0.0 0.0
15176.441188856994 -0.2596109176032684 4552.854473381815 1780.1054520634332 0.0 0.0
13796.23123219949 -1.2044319704147597 4138.508040068724 1780.637027099137 0.0 0.0
12416.352991757323 -1.2331361756349608 3724.5359566745074 1781.7127125734291 0.0 0.0
11037.483692582951 0.7689550262193237 3311.4757942827514 1780.8075441125654 0.0 0.0
9662.27312791229 8.291867429957371 2901.169498602675 1772.3137797804277 0.0 0.0
8294.737952916335 27.791286210568742 2496.758771738072 1743.2155510112257 0.0 0.0
6946.426795829432 76.31921868670537 2106.823804354842 1669.7264365894603 0.0 0.0
5603.086515259083 144.08535029850415 1724.1515596672762 1522.5605554732738 0.0 0.0
4024.435360611644 240.98590619752522 1279.6263800427507 1255.2450525713955 0.0 0.0
2261.581821316495 857.0264569318115 935.5824834744922 1269.1072444978586 0.0 0.0
2158.699364883478 -178.76040787386586 593.981687102884 2602.9231105262465 0.0 0.0
-4750.768412591318 -19656.71706331948 -7322.24564277324 2884.1750837143018 0.0 0.0
-3935.5398799988525 -16631.600411038427 -6170.142087311185 -2751.6091128403455 0.0 0.0
1240.2569819610967 -1321.6514747295628 -24.418347830539815 -2840.320033613349 0.0 0.0
1540.7952680782323 796.137394113637 701.0797986575608 -1848.9527593372673 0.0 0.0
3040.769094098733 374.76360873344646 1024.6598108496541 -1630.1485318395755 0.0 0.0
4525.624133854542 186.51606838867744 1413.6420606729662 -1835.3685946979201 0.0 0.0
5747.433078621929 96.5875347457529 1753.2061840103045 -1982.7410540313108 0.0 0.0
6902.520591656377 37.814908181838575 2082.1006499514656 -2056.6856806998653 0.0 0.0
8051.646046216323 10.875059375709101 2418.75633167761 -2087.386540592738 0.0 0.0
9199.908946136826 1.0817810178439622 2760.2972181464015 -2096.6487941091423 0.0 0.0
10348.69922402511 -1.5862641813406846 3104.13388795313 -2097.821317052921 0.0 0.0
11498.10522442635 -1.573346072289315 3448.959563506219 -2096.8552913872004 0.0 0.0
12647.871843613426 -0.3256153905346295 3794.263868466867 -2096.40035203659 0.0 0.0
13797.708955542454 3.0309926517445795 4140.22198445826 -2098.599516525186 0.0 0.0
14947.05301675031 11.2409608438889 4487.488193278259 -2107.0816209967275 0.0 0.0
16095.289930171566 27.687440536687504 4836.893211212476 -2127.7419784472168 0.0 0.0
17243.117302788465 50.261858513366704 5188.013748390551 -2165.3063210088208 0.0 0.0
18393.140470260656 54.41362566344827 5534.266228777235 -2207.6003955968336 0.0 0.0
19537.48699893163 -32.342006773693726 5851.54349764738 -2187.5359665925157 0.0 0.0
20607.05363259456 -327.2045502441456 6083.954724705123 -1935.4974426473243 0.0 0.0
21398.2433303323 -851.9226577745319 6163.896201767332 -1214.46400503054 0.0 0.0
21664.98709113606 -1215.0349529408256 6134.985641458569 -1.949729266925715e-11 0.0 0.0
21398.24333033261 -851.9226577737943 6163.896201767644 1214.4640050306978 0.0 0.0
20607.053632593597 -327.20455024626267 6083.954724704201 1935.4974426473357 0.0 0.0
19537.48699893214 -32.342006772445615 5851.543497647911 2187.5359665924993 0.0 0.0
18393.14047025969 54.413625660948206 5534.266228776191 2207.6003955968754 0.0 0.0
17243.117302789575 50.26185851577979 5188.013748391606 2165.3063210086284 0.0 0.0
16095.289930170587 27.68744053452616 4836.893211211534 2127.741978447157 0.0 0.0
14947.05301675005 11.24096084331832 4487.48819327801 2107.081620996885 0.0 0.0
13797.708955542681 3.0309926522212436 4140.2219844584715 2098.5995165252557 0.0 0.0
12647.871843613128 -0.32561539119556926 3794.263868466579 2096.400352036574 0.0 0.0
11498.105224426537 -1.5733460720976495 3448.9595635063315 2096.8552913874196 0.0 0.0
10348.699224024685 -1.58626418261413 3104.133887952622 2097.821317053104 0.0 0.0
9199.908946136697 1.0817810177533005 2760.2972181463347 2096.6487941092087 0.0 0.0
8051.646046216122 10.875059375501188 2418.7563316774863 2087.386540592594 0.0 0.0
6902.520591656581 37.81490818214398 2082.1006499516175 2056.6856806999276 0.0 0.0
5747.4330786224 96.58753474672068 1753.206184010736 1982.7410540314067 0.0 0.0
4525.624133854667 186.5160683890128 1413.642060673104 1835.3685946979354 0.0 0.0
3040.7690940984676 374.76360873304804 1024.659810849455 1630.1485318395803 0.0 0.0
1540.7952680781834 796.1373941137209 701.0797986575714 1848.952759337186 0.0 0.0
1240.2569819609741 -1321.6514747296897 -24.418347830614664 2840.320033613271 0.0 0.0
-3935.5398799990585 -16631.60041103855 -6170.142087311282 2751.6091128401013 0.0 0.0
-3201.6999201963395 -13999.239634105847 -5160.281866290657 -2551.1474409002894 0.0 0.0
625.5198985780862 -2053.1698840890804 -428.2949956532982 -2954.9266036493796 0.0 0.0
956.4845908208918 617.7910881200779 472.2827036822909 -2338.5332807959076 0.0 0.0
2163.7987343631116 462.8416081956031 787.9921027676144 -2005.6484575301351 0.0 0.0
3473.745311273666 236.5029598245177 1113.074481329455 -2120.1571390642885 0.0 0.0
4546.763994807183 116.87279508919531 1399.0910369689132 -2248.2749886570605 0.0 0.0
5508.708283324472 47.324195245947365 1666.809743571126 -2316.743991161132 0.0 0.0
6439.885671164564 13.781900845158706 1936.1002716029168 -2345.828341099819 0.0 0.0
7361.601303247759 1.4146195690863763 2208.904776845054 -2354.9721273695604 0.0 0.0
8280.734676323955 -1.901855488141127 2483.6498462507443 -2356.275830623046 0.0 0.0
9199.796348943875 -1.9187379447409754 2759.3632832997396 -2355.4830668210843 0.0 0.0
10119.102904526939 -0.37287689946617775 3035.619008288242 -2355.130959454876 0.0 0.0
11037.753547070979 3.7758178738433017 3312.458809483447 -2357.2426949943506 0.0 0.0
11953.438497266925 13.875296571289923 3590.1941381514644 -2365.1623342182734 0.0 0.0
12862.538213026462 34.168228800238516 3869.011932548012 -2384.397558447846 0.0 0.0
13763.103523808482 62.51678818938466 4147.68609359936 -2419.920241743363 0.0 0.0
14661.600766315814 68.92715245685292 4419.1583756318 -2461.5450311984414 0.0 0.0
15570.398332714298 -39.613734242478856 4659.235379541545 -2443.3099594933697 0.0 0.0
16455.80724188802 -422.1589754789717 4810.0944799227145 -2181.1556552498773 0.0 0.0
17131.54756434817 -1127.0586219817644 4801.346682709922 -1388.0447736289962 0.0 0.0
17343.04742935767 -1636.2642716912262 4712.034947299934 7.213429853436537e-11 0.0 0.0
17131.547564347413 -1127.0586219836784 4801.34668270912 1388.0447736289768 0.0 0.0
16455.807241888375 -422.1589754781445 4810.0944799230665 2181.1556552498428 0.0 0.0
15570.398332713798 -39.613734243939845 4659.235379540957 2443.3099594936293 0.0 0.0
14661.600766316016 68.92715245731611 4419.158375631999 2461.545031198379 0.0 0.0
13763.103523807617 62.51678818748423 4147.68609359853 2419.9202417431948 0.0 0.0
12862.538213026954 34.16822880131175 3869.0119325484807 2384.3975584476148 0.0 0.0
11953.438497266798 13.87529657122608 3590.194138151408 2365.1623342183434 0.0 0.0
11037.753547070679 3.7758178734936507 3312.4588094832516 2357.242694994212 0.0 0.0
10119.102904526506 -0.37287690063357104 3035.619008287762 2355.130959454971 0.0 0.0
9199.796348943903 -1.9187379448113973 2759.3632832997287 2355.483066821193 0.0 0.0
8280.734676323726 -1.9018554885219885 2483.6498462505615 2356.2758306230016 0.0 0.0
7361.601303247201 1.4146195678960822 2208.904776844529 2354.9721273694267 0.0 0.0
6439.885671164975 13.781900846393548 1936.1002716034109 2345.8283410999256 0.0 0.0
5508.708283324079 47.32419524532896 1666.8097435708228 2316.743991161122 0.0 0.0
4546.763994807436 116.87279508983998 1399.0910369691828 2248.274988657184 0.0 0.0
3473.745311273642 236.50295982442313 1113.07448132942 2120.157139064254 0.0 0.0
2163.798734362935 462.8416081951914 787.9921027674378 2005.648457530088 0.0 0.0
956.4845908209516 617.7910881202588 472.28270368236315 2338.533280796043 0.0 0.0
625.5198985779875 -2053.1698840890604 -428.2949956533216 2954.92660364933 0.0 0.0
-3201.6999201965837 -13999.239634106043 -5160.281866290789 2551.1474409001826 0.0 0.0
-2578.5514519131675 -11713.186802589398 -4287.52147635077 -2337.222122829844 0.0 0.0
203.8278402908785 -2463.4648614059433 -677.8911063345196 -2981.0265636954105 0.0 0.0
469.38816751387776 399.02243067205546 260.52317945578 -2715.589171481769 0.0 0.0
1376.0758849582146 500.53192183359266 562.9823420375423 -2347.5662617931325 0.0 0.0
2457.6050345938643 281.2521702534421 821.6571614541919 -2372.3029703134243 0.0 0.0
3351.6584747578418 136.51532334996136 1046.452139432341 -2466.034382836968 0.0 0.0
4114.9835362057665 55.6308861406174 1251.1843267039158 -2523.0080733491377 0.0 0.0
4827.652864155041 16.536463943751695 1453.256798429638 -2547.8199458745034 0.0 0.0
5522.739690365549 1.778694457813831 1657.3555154470087 -2555.8629856150073 0.0 0.0
6212.415689020388 -2.1687297554440477 1863.074087779483 -2557.12537546274 0.0 0.0
6901.25989249486 -2.2116907612347134 2069.714460520087 -2556.532566950571 0.0 0.0
7590.149766379171 -0.402062228358794 2276.924311245243 -2556.282362946691 0.0 0.0
8277.709185647273 4.452049182775568 2484.648370449013 -2558.077885121972 0.0 0.0
8960.161937905461 16.19889350590954 2692.9082494234112 -2564.6849249262427 0.0 0.0
9631.278590923313 39.85714523245248 2901.3407208467293 -2580.8038741903733 0.0 0.0
10286.729996241194 73.64167996013514 3108.111502860399 -2611.6046672910693 0.0 0.0
10937.083353991964 83.46178887338141 3306.163542859604 -2651.005427571972 0.0 0.0
11616.681820594717 -43.57161771394202 3471.933060864233 -2640.6797088136386 0.0 0.0
12331.253718660719 -515.4299161940161 3544.747140740011 -2389.458731567512 0.0 0.0
12907.240442060485 -1427.9855237086397 3443.7764755055537 -1552.095282004741 0.0 0.0
13061.886827857019 -2126.364674869686 3280.6566458962016 2.6147972675971687e-12 0.0 0.0
12907.24044206031 -1427.9855237089546 3443.7764755054063 1552.0952820047612 0.0 0.0
12331.253718661723 -515.4299161918105 3544.7471407409735 2389.4587315675494 0.0 0.0
11616.681820594722 -43.57161771399463 3471.933060864219 2640.6797088138046 0.0 0.0
10937.083353992371 83.46178887430206 3306.163542860002 2651.0054275720568 0.0 0.0
10286.72999624096 73.64167995957139 3108.1115028601594 2611.6046672913335 0.0 0.0
9631.278590922837 39.857145231306454 2901.3407208462436 2580.8038741902633 0.0 0.0
8960.161937906063 16.19889350727989 2692.908249424003 2564.684924926001 0.0 0.0
8277.709185646876 4.452049181555623 2484.64837044853 2558.0778851220393 0.0 0.0
7590.149766379586 -0.40206222761689503 2276.92431124559 2556.2823629469244 0.0 0.0
6901.259892494986 -2.2116907609440233 2069.714460520213 2556.532566950759 0.0 0.0
6212.415689020581 -2.1687297552010705 1863.0740877796147 2557.125375462735 0.0 0.0
5522.73969036595 1.7786944586613274 1657.3555154473838 2555.8629856148873 0.0 0.0
4827.652864155227 16.53646394415667 1453.2567984298148 2547.8199458745853 0.0 0.0
4114.983536205198 55.630886139324254 1251.1843267033566 2523.008073349221 0.0 0.0
3351.658474757867 136.51532335010623 1046.452139432392 2466.0343828371297 0.0 0.0
2457.6050345937447 281.2521702532243 821.6571614540906 2372.302970313227 0.0 0.0
1376.0758849583697 500.5319218337591 562.9823420376387 2347.5662617930802 0.0 0.0
469.38816751412435 399.02243067236276 260.5231794559461 2715.5891714818345 0.0 0.0
203.82784029097957 -2463.4648614058738 -677.8911063344683 2981.0265636954296 0.0 0.0
-2578.551451913049 -11713.186802589342 -4287.521476350718 2337.2221228299595 0.0 0.0
-2064.987587356559 -9721.823012923318 -3536.0431800839633 -2130.597501019334 0.0 0.0
-96.25954069617765 -2634.3655779931996 -819.1875356068134 -2942.792928736343 0.0 0.0
50.551701124771704 186.42741883532568 71.09373598802917 -2979.341562528349 0.0 0.0
659.5635386746116 496.632224541062 346.858728964702 -2632.5112288588125 0.0 0.0
1479.8365438164396 312.881810820396 537.8155063910507 -2583.348911010926 0.0 0.0
2167.4621821054584 153.2836264692144 696.223742572402 -2634.7624181183023 0.0 0.0
2723.232944520464 62.3234656364324 835.6669230470692 -2674.930989813904 0.0 0.0
3215.496707991156 18.76866692300746 970.2796124742492 -2693.2919519559464 0.0 0.0
3683.4964701272984 2.11999236407199 1105.6849387474113 -2699.377773838054 0.0 0.0
4143.730029489561 -2.3683022372866773 1242.4085181756825 -2700.407551367462 0.0 0.0
4602.463024950384 -2.434715305768883 1380.0084928933848 -2700.0216772877943 0.0 0.0
5061.032988576306 -0.4178726366402401 1518.1845347818999 -2699.8593263339085 0.0 0.0
5517.738613648166 4.987225113265772 1656.8177516284297 -2701.1441260674815 0.0 0.0
5967.702574424984 17.99133752824262 1795.7081735859679 -2705.8335681142703 0.0 0.0
6402.53512030005 44.224455728309785 1934.0278728085082 -2717.4567852779164 0.0 0.0
6815.445973238607 82.70023361033356 2069.443862054682 -2741.1871782561248 0.0 0.0
7220.09460367348 97.48434641465289 2195.2736850264396 -2776.7977437565114 0.0 0.0
7673.1255093091195 -41.45894561286211 2289.499969108878 -2780.46191677028 0.0 0.0
8225.099736786284 -597.9447598003278 2288.146493095787 -2563.1725855190402 0.0 0.0
8713.437531662781 -1746.2070751789404 2090.1691369451532 -1712.2481789437268 0.0 0.0
8803.465549275421 -2692.6310252549215 1833.2503572061498 9.902123565552756e-11 0.0 0.0
8713.43753166279 -1746.207075178635 2090.169136945247 1712.248178943758 0.0 0.0
8225.099736786062 -597.9447598010104 2288.1464930955153 2563.1725855189256 0.0 0.0
7673.125509310041 -41.45894561065394 2289.4999691098155 2780.461916770232 0.0 0.0
7220.094603672928 97.48434641354487 2195.273685025942 2776.797743756367 0.0 0.0
6815.445973238063 82.70023360903674 2069.44386205413 2741.18717825605 0.0 0.0
6402.535120298894 44.224455725505685 1934.0278728073204 2717.456785277978 0.0 0.0
5967.702574425226 17.991337528846984 1795.708173586222 2705.8335681142394 0.0 0.0
5517.738613647505 4.987225111621775 1656.8177516277385 2701.1441260674396 0.0 0.0
5061.032988577194 -0.4178726347664252 1518.184534782728 2699.8593263338844 0.0 0.0
4602.463024949862 -2.434715307006691 1380.0084928928568 2700.0216772878334 0.0 0.0
4143.730029489747 -2.368302237024686 1242.408518175817 2700.4075513674766 0.0 0.0
3683.496470127884 2.1199923655585025 1105.684938748033 2699.3777738379986 0.0 0.0
3215.4967079906223 18.768666922041 970.279612473799 2693.291951955737 0.0 0.0
2723.232944520478 62.3234656363862 835.6669230470594 2674.930989813744 0.0 0.0
2167.4621821051464 153.2836264685204 696.2237425720999 2634.7624181181513 0.0 0.0
1479.8365438165488 312.8818108208699 537.8155063912259 2583.348911010855 0.0 0.0
659.563538674621 496.6322245410148 346.8587289646906 2632.5112288588607 0.0 0.0
50.55170112487154 186.42741883539023 71.09373598807849 2979.3415625283446 0.0 0.0
-96.25954069617642 -2634.3655779932424 -819.1875356068261 2942.7929287361894 0.0 0.0
-2064.9875873565684 -9721.823012923258 -3536.0431800839474 2130.5975010193843 0.0 0.0
-1649.0411777066151 -7979.175738665586 -2888.4650749116604 -1936.7340341733186 0.0 0.0
-320.7755404630016 -2633.1418964778986 -886.1752310822703 -2855.969566336065 0.0 0.0
-321.0795245090123 5.120826756704393 -94.78760932569239 -3137.506085863144 0.0 0.0
-1.8988969527787418 463.73868825444504 138.55193739049986 -2846.655380811976 0.0 0.0
538.7005746663792 328.2459843362373 260.083967700785 -2744.392742520059 0.0 0.0
997.2933834075033 164.87045180383507 348.6491505634016 -2752.074844625568 0.0 0.0
1335.1098010645405 66.93930317472949 420.6147312717811 -2771.776201319157 0.0 0.0
1603.8967195311336 20.25308459081282 487.2449412365839 -2782.024978721052 0.0 0.0
1844.0053751946614 2.369412890233342 553.9124364254685 -2785.5218508814282 0.0 0.0
2074.6816148783105 -2.4894035053573376 621.6576634118859 -2786.1548543202034 0.0 0.0
2303.3848683057677 -2.575082096387611 690.2429358628137 -2785.9716519004883 0.0 0.0
2531.771013213035 -0.4267657519855206 759.4032742383147 -2785.882640266642 0.0 0.0
2757.96287394989 5.3240606283535215 828.9860803734731 -2786.5178838928614 0.0 0.0
2976.4152871082397 19.094841928497793 898.653038711021 -2788.8744191256974 0.0 0.0
3177.1300167137383 46.88053020799411 967.2031640765198 -2795.018487528385 0.0 0.0
3350.5663954926426 88.85046017236236 1031.8250566995014 -2809.6967049691393 0.0 0.0
3511.2223494479467 110.2223464276567 1086.433408762681 -2839.5008227134354 0.0 0.0
3736.6004825638747 -30.843251954562803 1111.7271691827941 -2861.996420748497 0.0 0.0
4129.0992454117395 -659.5153740009167 1040.8751614232472 -2702.881496921808 0.0 0.0
4539.172213220521 -2071.342126284606 740.3490260807745 -1873.7376606264704 0.0 0.0
4548.500064091982 -3347.8558057174405 360.193277512362 -9.350742402602918e-11 0.0 0.0
4539.172213220309 -2071.342126284671 740.3490260806907 1873.7376606265889 0.0 0.0
4129.099245411318 -659.5153740020311 1040.8751614227858 2702.88149692184 0.0 0.0
3736.600482564292 -30.843251953484398 1111.727169183242 2861.9964207488165 0.0 0.0
3511.222349447125 110.22234642590999 1086.4334087619106 2839.5008227135195 0.0 0.0
3350.5663954925926 88.85046017219105 1031.825056699435 2809.6967049689333 0.0 0.0
3177.130016713328 46.88053020692115 967.2031640760753 2795.01848752841 0.0 0.0
2976.4152871083015 19.09484192860525 898.653038711072 2788.8744191256915 0.0 0.0
2757.9628739499003 5.324060628415992 828.9860803734952 2786.517883892925 0.0 0.0
2531.7710132129682 -0.42676575226274593 759.4032742382119 2785.8826402665973 0.0 0.0
2303.3848683054152 -2.5750820972587505 690.242935862447 2785.971651900606 0.0 0.0
2074.681614878258 -2.4894035055212527 621.657663411821 2786.154854320322 0.0 0.0
1844.0053751946452 2.369412890333379 553.9124364254934 2785.5218508813437 0.0 0.0
1603.8967195310781 20.253084590948536 487.244941236608 2782.02497872092 0.0 0.0
1335.109801064809 66.93930317534677 420.6147312720468 2771.7762013192246 0.0 0.0
997.2933834071493 164.870451803012 348.6491505630484 2752.07484462547 0.0 0.0
538.7005746665266 328.2459843365517 260.08396770092355 2744.3927425200345 0.0 0.0
-1.8988969528569868 463.73868825416025 138.55193739039098 2846.655380812087 0.0 0.0
-321.0795245090024 5.12082675682629 -94.78760932565285 3137.506085863216 0.0 0.0
-320.7755404630778 -2633.1418964780914 -886.1752310823509 2855.9695663359744 0.0 0.0
-1649.0411777064808 -7979.175738665493 -2888.4650749115926 1936.7340341732884 0.0 0.0
-1316.4150340992605 -6448.666433617354 -2329.524440314984 -1754.3446422303716 0.0 0.0
-499.13723285891444 -2512.5013658538464 -903.4915796138282 -2730.2155782565 0.0 0.0
-660.563240292516 -133.73853010704252 -238.29053111986747 -3200.2282577569854 0.0 0.0
-621.7815408656896 413.77430209927013 -62.40217162992587 -2983.0311600065875 0.0 0.0
-369.7943412875611 327.46496204382083 -12.698813773122112 -2847.7329462265066 0.0 0.0
-157.69803467019483 169.68518758037138 3.5961458730529685 -2814.9025811440056 0.0 0.0
-48.256374618869074 69.02029052176923 6.229174770870095 -2812.5702437564682 0.0 0.0
-6.776503214358655 20.865281958853156 4.226633623348349 -2813.714656007876 0.0 0.0
4.355663876768801 2.4786768649821056 2.050302222525275 -2814.2584963620084 0.0 0.0
5.277510214891834 -2.5293585716577027 0.824445492970213 -2814.394080751197 0.0 0.0
4.0144360637378895 -2.624366751250264 0.4170207937463317 -2814.4066973341273 0.0 0.0
2.3758496506277993 -0.4333742876130131 0.5827426089044963 -2814.384048280195 0.0 0.0
-1.5479014535158058 5.424975682586734 1.1631222687213096 -2814.301246937143 0.0 0.0
-13.495086477756445 19.42260484105435 1.778255508989389 -2814.1246171847074 0.0 0.0
-44.36092374452352 47.615320593409706 0.9763190546657938 -2814.2750104238057 0.0 0.0
-106.69417085919213 91.39466091156214 -4.589852984288996 -2818.4070774148972 0.0 0.0
-188.5751508837509 120.46845117609195 -20.43200991229773 -2839.654866080755 0.0 0.0
-195.52641225187534 -10.226854643099998 -61.725980068492646 -2883.1947966149855 0.0 0.0
35.110365011799274 -688.9055000635108 -196.13854051551368 -2806.634562661203 0.0 0.0
374.4194889532144 -2389.5502237306864 -604.539220433242 -2041.5336651295086 0.0 0.0
275.00426706890426 -4111.945091862777 -1151.0822474381619 -1.6984813555609435e-10 0.0 0.0
374.4194889536219 -2389.5502237293313 -604.5392204327127 2041.5336651295497 0.0 0.0
35.110365011837985 -688.9055000633607 -196.1385405154567 2806.6345626611146 0.0 0.0
-195.52641225193508 -10.22685464340887 -61.72598006860329 2883.194796614838 0.0 0.0
-188.5751508839905 120.46845117551787 -20.432009912541787 2839.654866080714 0.0 0.0
-106.69417085825302 91.39466091375976 -4.589852983348038 2818.4070774147435 0.0 0.0
-44.36092374516329 47.61532059184491 0.9763190540043922 2814.2750104237916 0.0 0.0
-13.49508647737656 19.422604841841057 1.778255509339374 2814.1246171847697 0.0 0.0
-1.5479014536385307 5.42497568213404 1.1631222685486762 2814.301246937154 0.0 0.0
2.375849650425721 -0.43337428840684566 0.5827426086055425 2814.3840482800756 0.0 0.0
4.014436064098646 -2.624366750486132 0.4170207940838111 2814.406697334167 0.0 0.0
5.277510214595793 -2.5293585723131713 0.8244454926847737 2814.3940807512854 0.0 0.0
4.355663876555326 2.4786768645833845 2.0503022223415996 2814.2584963620193 0.0 0.0
-6.776503213861645 20.865281960118462 4.226633623877099 2813.714656007813 0.0 0.0
-48.256374618475945 69.02029052278172 6.229174771291703 2812.5702437563855 0.0 0.0
-157.69803467038676 169.68518758007784 3.5961458729073 2814.90258114399 0.0 0.0
-369.7943412876061 327.4649620435545 -12.698813773215498 2847.7329462264606 0.0 0.0
-621.7815408654203 413.7743020997614 -62.402171629697676 2983.0311600065993 0.0 0.0
-660.5632402925578 -133.73853010712878 -238.29053111990603 3200.2282577569454 0.0 0.0
-499.13723285899033 -2512.501365854028 -903.4915796139054 2730.215578256497 0.0 0.0
-1316.41503409925 -6448.66643361731 -2329.5244403149677 1754.344642230321 0.0 0.0
-1053.9785088234075 -5103.652766498863 -1847.2893825966812 -1579.4725656562603 0.0 0.0
-649.7490733958927 -2312.6447341999433 -888.7181422787507 -2571.10534802905 0.0 0.0
-978.3768657900922 -227.54730589898523 -361.77725150672325 -3177.414240227569 0.0 0.0
-1210.7840959886762 356.25028430309055 -256.360143505676 -3039.0524246719506 0.0 0.0
-1250.5648343497933 312.4956734072952 -281.42074828274946 -2887.3619913198554 0.0 0.0
-1297.8985134864063 167.08679264632414 -339.2435162520246 -2819.992837206643 0.0 0.0
-1426.3851947027058 68.26273239485386 -407.43673869235556 -2796.1514062190986 0.0 0.0
-1616.3208903962984 20.55747291838618 -478.7290252433738 -2788.007884132606 0.0 0.0
-1835.4115158265543 2.430621769846951 -549.8942682170122 -2785.5287681895315 0.0 0.0
-2064.478090340528 -2.489337813996798 -620.0902284463576 -2785.147299109977 0.0 0.0
-2295.6519772645206 -2.579278917298815 -689.4693768545463 -2785.352763701029 0.0 0.0
-2527.1494247067435 -0.4379789362339537 -758.2762210928931 -2785.400506807076 0.0 0.0
-2760.7773772552064 5.275630859103572 -826.6505239188309 -2784.6094525597136 0.0 0.0
-3001.989504177013 18.95525239106837 -894.9102755357831 -2781.9203511441647 0.0 0.0
-3261.6696254135977 46.42704553463245 -964.5727739636895 -2776.0756659567573 0.0 0.0
-3555.25039989535 89.89590134220407 -1039.6063495659437 -2768.878013228922 0.0 0.0
-3877.6954118198164 126.47813847376257 -1125.3651820038162 -2778.0971041665107 0.0 0.0
-4124.8722547055795 20.162251399746623 -1231.4130009917506 -2840.731161879208 0.0 0.0
-4064.814148760207 -674.1754439587954 -1421.6968778157006 -2869.299307655236 0.0 0.0
-3789.675577043282 -2681.2208484137614 -1941.2689276371134 -2220.232494059197 0.0 0.0
-4043.709494286012 -5014.360683029628 -2717.421053194692 2.7966962079517543e-11 0.0 0.0
-3789.6755770438085 -2681.2208484147513 -1941.2689276375672 2220.232494059257 0.0 0.0
-4064.814148760198 -674.17544395864 -1421.6968778156524 2869.2993076552893 0.0 0.0
-4124.872254706003 20.162251398631774 -1231.4130009922114 2840.731161879532 0.0 0.0
-3877.6954118203303 126.47813847267966 -1125.3651820042953 2778.097104166808 0.0 0.0
-3555.2503998953066 89.89590134244364 -1039.6063495658589 2768.8780132289394 0.0 0.0
-3261.6696254123062 46.42704553745192 -964.5727739624568 2776.0756659569315 0.0 0.0
-3001.9895041771792 18.955252390587017 -894.9102755359779 2781.920351144191 0.0 0.0
-2760.7773772555065 5.275630858512763 -826.6505239190983 2784.609452559751 0.0 0.0
-2527.149424706723 -0.43797893630986806 -758.27622109291 2785.400506806987 0.0 0.0
-2295.651977264362 -2.5792789168307166 -689.4693768543582 2785.3527637008942 0.0 0.0
-2064.478090340637 -2.4893378141103852 -620.0902284464245 2785.14729910999 0.0 0.0
-1835.411515826592 2.430621769790328 -549.8942682170406 2785.5287681894547 0.0 0.0
-1616.320890396299 20.55747291838115 -478.72902524337553 2788.0078841325976 0.0 0.0
-1426.38519470264 68.26273239491765 -407.4367386923167 2796.1514062190804 0.0 0.0
-1297.898513486285 167.0867926467337 -339.24351625186546 2819.992837206703 0.0 0.0
-1250.564834349765 312.4956734075554 -281.42074828266306 2887.361991319752 0.0 0.0
-1210.78409598846 356.25028430346305 -256.3601435054991 3039.052424671992 0.0 0.0
-978.3768657900395 -227.54730589906046 -361.77725150673 3177.4142402273987 0.0 0.0
-649.7490733959218 -2312.6447341998855 -888.7181422787424 2571.1053480289243 0.0 0.0
-1053.9785088235622 -5103.652766498918 -1847.289382596744 1579.4725656562605 0.0 0.0
-850.9314378285343 -3926.6309281672907 -1433.268709798747 -1407.4713059014457 0.0 0.0
-783.5310577974298 -2063.700040837912 -854.1693295906023 -2381.6435045653766 0.0 0.0
-1281.4108620843904 -278.6957587095598 -468.0319862381852 -3077.691517665696 0.0 0.0
-1777.0458979709554 297.857870233361 -443.7564083212782 -3014.613835879949 0.0 0.0
-2108.6857571505316 286.10336543341185 -546.774717515136 -2858.861656283353 0.0 0.0
-2424.817081351826 157.3254554635256 -680.2474877664905 -2764.276879101098 0.0 0.0
-2799.454976934514 64.63070916279136 -820.4472803315167 -2721.2860261908563 0.0 0.0
-3224.7466317179874 19.35901501487094 -961.6162850109351 -2704.5368439175077 0.0 0.0
-3675.3075632331074 2.2369822660534737 -1101.9211742901164 -2699.270958593569 0.0 0.0
-4134.584901223434 -2.3710600570572353 -1241.0867883841474 -2698.4353564253283 0.0 0.0
-4595.611979417706 -2.4422016780499973 -1379.4162543287268 -2698.8360080625034 0.0 0.0
-5056.812085810654 -0.4360607733062878 -1517.1744439751883 -2698.9677850213866 0.0 0.0
-5519.760319649928 4.889458820430001 -1654.4612582488498 -2697.557743607701 0.0 0.0
-5989.193871952724 17.727201574855542 -1791.4400011133612 -2692.5898044063447 0.0 0.0
-6474.909726833779 43.51793963675633 -1929.4175361591074 -2681.2516713663745 0.0 0.0
-6994.274722833182 84.37131799303933 -2072.9710214520424 -2662.9438773617744 0.0 0.0
-7553.667009925844 126.07151688574858 -2228.278647912028 -2656.4438853295246 0.0 0.0
-8051.329443345209 57.35004199959553 -2398.193820403684 -2730.5371166606637 0.0 0.0
-8178.250807491345 -603.6395515738375 -2634.567107719555 -2881.566084443123 0.0 0.0
-7960.25921595344 -2917.5249918143218 -3263.3352623303276 -2413.5122932951813 0.0 0.0
-8441.924446268598 -6097.625990520133 -4361.86513103662 -7.383960110018961e-11 0.0 0.0
-7960.259215952847 -2917.5249918127442 -3263.3352623296787 2413.512293295198 0.0 0.0
-8178.250807491284 -603.639551573555 -2634.5671077194534 2881.5660844433082 0.0 0.0
-8051.329443345287 57.350041999428726 -2398.1938204037574 2730.5371166608857 0.0 0.0
-7553.667009926579 126.07151688391377 -2228.2786479128004 2656.4438853294914 0.0 0.0
-6994.274722833903 84.37131799140727 -2072.9710214527486 2662.9438773618117 0.0 0.0
-6474.909726833197 43.51793963818989 -1929.4175361585017 2681.2516713665095 0.0 0.0
-5989.193871953281 17.72720157351924 -1791.4400011139287 2692.5898044062724 0.0 0.0
-5519.760319649503 4.889458821222981 -1654.461258248484 2697.557743607817 0.0 0.0
-5056.812085810945 -0.4360607741737965 -1517.174443975536 2698.967785021202 0.0 0.0
-4595.611979417501 -2.442201677557165 -1379.4162543285174 2698.8360080625735 0.0 0.0
-4134.584901223897 -2.3710600581087817 -1241.0867883846015 2698.4353564255007 0.0 0.0
-3675.307563233267 2.2369822658432525 -1101.921174290227 2699.270958593647 0.0 0.0
-3224.746631718129 19.359015014548635 -961.6162850110741 2704.536843917587 0.0 0.0
-2799.4549769344735 64.63070916285119 -820.4472803314866 2721.286026190827 0.0 0.0
-2424.817081352101 157.3254554630567 -680.2474877667131 2764.276879101068 0.0 0.0
-2108.685757150149 286.1033654341558 -546.7747175147979 2858.861656283352 0.0 0.0
-1777.0458979708264 297.8578702333756 -443.7564083212352 3014.6138358799526 0.0 0.0
-1281.410862084206 -278.69575870935785 -468.0319862380692 3077.6915176654275 0.0 0.0
-783.5310577973696 -2063.700040837887 -854.169329590577 2381.6435045653266 0.0 0.0
-850.931437828552 -3926.6309281673007 -1433.268709798756 1407.4713059014891 0.0 0.0
-698.8608778793508 -2907.947446752374 -1082.0424973895174 -1234.0252402040167 0.0 0.0
-906.0531701406435 -1787.9280113019586 -808.1943544327805 -2163.3862668663255 0.0 0.0
-1573.6029278425217 -292.3967988776351 -559.7999180160468 -2908.0991945780997 0.0 0.0
-2326.4388414452014 242.6551184006061 -625.1351169133784 -2910.7078829298716 0.0 0.0
-2949.007031046294 251.2556808042249 -809.325405072621 -2759.049679063881 0.0 0.0
-3540.765144332158 141.3814390999442 -1019.8151115696639 -2645.0890289388244 0.0 0.0
-4168.247368632871 58.40138946882118 -1232.9537937492148 -2586.805902920133 0.0 0.0
-4832.2909123090085 17.383658610101293 -1444.4721761096723 -2562.960834779588 0.0 0.0
-5515.397790955449 1.9325367242566358 -1654.0395762693577 -2555.4377319477317 0.0 0.0
-6205.044660641007 -2.176593348900809 -1862.1663761969724 -2554.282136048316 0.0 0.0
-6895.855973351764 -2.221298313725967 -2069.4231814996465 -2554.881478983158 0.0 0.0
-7586.62994072106 -0.4211614695679202 -2276.115330657188 -2555.1143673952706 0.0 0.0
-8278.577854113304 4.313593675115598 -2482.2792781314556 -2553.2455601916517 0.0 0.0
-8975.374072614488 15.81508937082355 -2687.8676949730993 -2546.4363628752467 0.0 0.0
-9684.6427132411 39.223591323111876 -2893.6257365753963 -2530.528750119176 0.0 0.0
-10423.470425321833 75.52862762028576 -3104.3825393104635 -2502.572677834595 0.0 0.0
-11213.055283919026 117.13541632854977 -3328.7759602771425 -2477.6716208867233 0.0 0.0
-11972.062117337748 94.39859674381458 -3563.29905617818 -2548.906429534751 0.0 0.0
-12312.0515659466 -468.0600493075398 -3834.033484576242 -2828.5928849266843 0.0 0.0
-12141.740914521339 -3055.2582226028476 -4559.099741137257 -2622.7130430291595 0.0 0.0
-12965.861772089735 -7422.135223015235 -6116.399098531491 -7.065636964398436e-11 0.0 0.0
-12141.740914520498 -3055.258222600578 -4559.099741136322 2622.713043029198 0.0 0.0
-12312.05156594615 -468.0600493063347 -3834.0334845757448 2828.59288492639 0.0 0.0
-11972.062117337755 94.39859674365815 -3563.299056178229 2548.9064295349276 0.0 0.0
-11213.055283919115 117.13541632830683 -3328.775960277242 2477.671620886799 0.0 0.0
-10423.470425321288 75.52862762157886 -3104.382539309913 2502.5726778345725 0.0 0.0
-9684.642713242632 39.22359131954741 -2893.625736576926 2530.5287501192493 0.0 0.0
-8975.374072614273 15.81508937132277 -2687.8676949728842 2546.4363628751976 0.0 0.0
-8278.577854113371 4.313593674990081 -2482.2792781315143 2553.2455601918195 0.0 0.0
-7586.6299407218185 -0.42116147123601877 -2276.1153306579163 2555.11436739511 0.0 0.0
-6895.855973351287 -2.2212983126682317 -2069.4231814991867 2554.8814789832504 0.0 0.0
-6205.0446606411 -2.1765933491891296 -1862.1663761970867 2554.2821360483144 0.0 0.0
-5515.3977909558635 1.9325367233410766 -1654.0395762697563 2555.437731947888 0.0 0.0
-4832.29091230867 17.383658610846993 -1444.472176109347 2562.960834779609 0.0 0.0
-4168.24736863264 58.401389469291274 -1232.9537937490054 2586.805902920168 0.0 0.0
-3540.7651443325544 141.38143909928937 -1019.8151115699793 2645.089028938713 0.0 0.0
-2949.007031046308 251.25568080449423 -809.3254050725445 2759.0496790640145 0.0 0.0
-2326.438841445326 242.65511840032573 -625.1351169135002 2910.7078829299217 0.0 0.0
-1573.602927842431 -292.39679887757006 -559.7999180160003 2908.0991945779365 0.0 0.0
-906.053170140653 -1787.9280113020984 -808.1943544328253 2163.3862668663455 0.0 0.0
-698.8608778793276 -2907.9474467523214 -1082.0424973894944 1234.0252402040019 0.0 0.0
-591.2050103601488 -2044.3365724344198 -790.6624748383705 -1055.8100477579562 0.0 0.0
-1018.6878274688843 -1501.5663756196545 -756.0762609265619 -1917.301150530124 0.0 0.0
-1856.261599527688 -275.5269811477457 -639.5365742026303 -2674.024716160963 0.0 0.0
-2862.859621856225 192.50032046844743 -801.1077904163335 -2728.398694226992 0.0 0.0
-3776.0393465091447 210.86834710771808 -1069.5512998204283 -2585.5732647803075 0.0 0.0
-4648.648777416548 120.79832557283339 -1358.3551355531145 -2460.28319555131 0.0 0.0
-5534.061672326579 50.150229757751646 -1645.1734327706486 -2391.737092522747 0.0 0.0
-6439.403034949691 14.829317031036474 -1927.3721153755964 -2363.013618863841 0.0 0.0
-7355.795885759185 1.5681523969127227 -2206.2683200086813 -2354.0114916839566 0.0 0.0
-8275.857268148653 -1.910941268987635 -2483.330462825291 -2352.7182062885954 0.0 0.0
-9196.364040828474 -1.9296776222538625 -2759.4881155352186 -2353.511527061486 0.0 0.0
-10116.628274816321 -0.391067318783513 -3035.1058026405303 -2353.857960964664 0.0 0.0
-11037.35719725025 3.6288082345824506 -3310.1185167047 -2351.7363333532417 0.0 0.0
-11960.885816825486 13.3565366959254 -3584.258784038869 -2343.7263433109615 0.0 0.0
-12891.885646043997 33.85294466302129 -3857.409810414293 -2324.4836410216953 0.0 0.0
-13843.530080272953 64.89798037604675 -4133.589629969072 -2289.5123161295624 0.0 0.0
-14851.674372490348 98.83164244882983 -4425.852819012456 -2246.576875482313 0.0 0.0
-15880.069702768631 119.28535786472413 -4728.2353034711705 -2294.7416123198946 0.0 0.0
-16471.633153843333 -265.261249661434 -5021.068321051431 -2688.503812860888 0.0 0.0
-16333.979528396492 -3029.2249746249645 -5808.961350906437 -2843.548475699516 0.0 0.0
-17680.35836681493 -9072.300696051885 -8025.797718860045 3.9108272176235914e-11 0.0 0.0
-16333.979528396221 -3029.2249746245197 -5808.961350906224 2843.5484756995434 0.0 0.0
-16471.633153843395 -265.2612496615519 -5021.068321051486 2688.503812860935 0.0 0.0
-15880.069702768218 119.28535786564694 -4728.23530347077 2294.7416123199846 0.0 0.0
-14851.674372489886 98.83164244975768 -4425.852819012037 2246.5768754821743 0.0 0.0
-13843.5300802725 64.89798037696764 -4133.589629968662 2289.5123161294205 0.0 0.0
-12891.8856460446 33.8529446618456 -3857.409810414827 2324.4836410215703 0.0 0.0
-11960.885816824717 13.356536697519253 -3584.2587840381593 2343.7263433108656 0.0 0.0
-11037.35719725099 3.6288082326364943 -3310.118516705507 2351.7363333531916 0.0 0.0
-10116.628274815806 -0.3910673175785817 -3035.105802640016 2353.857960964712 0.0 0.0
-9196.364040828234 -1.9296776219161842 -2759.4881155350454 2353.511527061631 0.0 0.0
-8275.85726814838 -1.9109412686005918 -2483.330462825095 2352.7182062885286 0.0 0.0
-7355.795885759612 1.5681523958083545 -2206.2683200091415 2354.011491684014 0.0 0.0
-6439.403034949554 14.82931703132253 -1927.3721153754705 2363.0136188637607 0.0 0.0
-5534.061672326811 50.150229757321135 -1645.173432770847 2391.737092522644 0.0 0.0
-4648.648777416589 120.79832557283831 -1358.3551355531256 2460.2831955512984 0.0 0.0
-3776.039346509302 210.86834710741724 -1069.5512998205659 2585.5732647802997 0.0 0.0
-2862.859621856266 192.5003204684669 -801.10779041634 2728.398694227133 0.0 0.0
-1856.261599527813 -275.5269811478639 -639.5365742027029 2674.024716160967 0.0 0.0
-1018.6878274690683 -1501.5663756198398 -756.0762609266723 1917.301150530029 0.0 0.0
-591.205010360218 -2044.3365724344176 -790.6624748383907 1055.8100477579687 0.0 0.0
-522.2476045735193 -1337.2869963370317 -557.8603802731654 -871.1761492536414 0.0 0.0
-1119.0114695844552 -1216.4175613047385 -700.6287092667583 -1644.4831821126218 0.0 0.0
-2128.106447668175 -236.20877722381857 -709.2945674675984 -2379.0831684411223 0.0 0.0
-3388.5087546019836 147.6140826944161 -972.2684015722699 -2467.9967317560368 0.0 0.0
-4594.046373224932 167.82397279027737 -1327.8667201303967 -2336.562645396722 0.0 0.0
-5751.865268575231 97.54139916309559 -1696.2971608236405 -2208.301880555202 0.0 0.0
-6898.6158173781005 40.693426225426705 -2057.3767173458014 -2135.4068379373502 0.0 0.0
-8046.704443853122 11.964654775904421 -2410.4219367231644 -2104.55003826898 0.0 0.0
-9196.649779728827 1.202253123413385 -2758.6342579816233 -2095.017604595002 0.0 0.0
-10347.01479082267 -1.5866707982559802 -3104.5804384862768 -2093.7835544207505 0.0 0.0
-11497.102946422683 -1.5844666995034942 -3449.606223936656 -2094.7428828114457 0.0 0.0
-12646.829118438089 -0.3502223946213121 -3794.1538022498135 -2095.2052478693863 0.0 0.0
-13796.280191967233 2.921458159398483 -4138.007620142351 -2093.0415343299346 0.0 0.0
-14946.123716487522 10.628668398354776 -4480.648514426752 -2084.645976189037 0.0 0.0
-16097.965382512275 27.508778643658538 -4821.136981160585 -2063.6252268999983 0.0 0.0
-17256.767810881403 54.47381929284025 -5160.688197476571 -2024.7562132073658 0.0 0.0
-18465.47112456333 73.8471978045231 -5517.487178027644 -1969.475501359892 0.0 0.0
-19762.15605340253 114.94112194174853 -5894.164479438233 -1973.727559927323 0.0 0.0
-20659.542595857765 -9.436026942089825 -6200.693586839957 -2431.7652641158734 0.0 0.0
-20529.204519537278 -2741.401073745893 -6981.18167798495 -3058.6380158651027 0.0 0.0
-22679.32548823955 -11163.21141059264 -10152.761069649658 1.6302692529279739e-10 0.0 0.0
-20529.20451953625 -2741.4010737435765 -6981.181677983948 3058.6380158650913 0.0 0.0
-20659.54259585849 -9.436026943942565 -6200.693586840732 2431.7652641158093 0.0 0.0
-19762.15605340146 114.94112194423917 -5894.164479437168 1973.7275599272557 0.0 0.0
-18465.47112456359 73.84719780385448 -5517.487178027921 1969.4755013599079 0.0 0.0
-17256.767810882327 54.473819290537094 -5160.688197477537 2024.7562132073917 0.0 0.0
-16097.965382511791 27.50877864509078 -4821.136981160012 2063.625226899919 0.0 0.0
-14946.123716486614 10.628668400527314 -4480.648514425828 2084.6459761890746 0.0 0.0
-13796.280191967717 2.921458157948649 -4138.007620142931 2093.0415343298596 0.0 0.0
-12646.829118437407 -0.35022239314674053 -3794.153802249166 2095.205247869537 0.0 0.0
-11497.102946423012 -1.5844667000388668 -3449.606223936914 2094.7428828114926 0.0 0.0
-10347.01479082337 -1.586670799917183 -3104.580438486986 2093.7835544207173 0.0 0.0
-9196.6497797286 1.2022531239476884 -2758.634257981395 2095.017604595065 0.0 0.0
-8046.704443853213 11.964654775629441 -2410.4219367232754 2104.550038269219 0.0 0.0
-6898.615817377763 40.69342622578313 -2057.3767173455944 2135.406837937187 0.0 0.0
-5751.865268575208 97.54139916318982 -1696.297160823606 2208.3018805552506 0.0 0.0
-4594.046373225223 167.82397278972903 -1327.8667201306475 2336.5626453965724 0.0 0.0
-3388.5087546019577 147.61408269444743 -972.2684015722532 2467.996731756098 0.0 0.0
-2128.106447668165 -236.2087772238332 -709.2945674675994 2379.0831684411123 0.0 0.0
-1119.0114695843727 -1216.417561304826 -700.62870926676 1644.483182112591 0.0 0.0
-522.2476045733096 -1337.2869963369194 -557.8603802730688 871.1761492535854 0.0 0.0
-485.4752644326761 -790.9995676225069 -382.942449616555 -681.2106421674578 0.0 0.0
-1200.5537229745025 -941.4634252054655 -642.6051444539904 -1346.8138071744274 0.0 0.0
-2385.029528484085 -183.9437688112855 -770.6919891886108 -2024.6657680551127 0.0 0.0
-3904.1968483947076 107.31273626708585 -1139.0652336382861 -2128.3281226522818 0.0 0.0
-5407.323174684119 125.18901822080886 -1584.6402469389932 -2010.429400337983 0.0 0.0
-6854.278781463368 73.86813758134718 -2034.1231931646062 -1888.2371212855592 0.0 0.0
-8263.936795803274 31.005836751807998 -2469.8792877154406 -1817.5251985522345 0.0 0.0
-9654.929816518454 9.102406866892203 -2893.7482228954673 -1787.586498800923 0.0 0.0
-11038.119608783698 0.8889869255356047 -3311.1691865574476 -1778.5338395353926 0.0 0.0
-12418.491880198644 -1.227441508888333 -3725.9157965122595 -1777.5287276915487 0.0 0.0
-13798.02700081758 -1.2128714303215844 -4139.771961674372 -1778.5849277628608 0.0 0.0
-15177.231916326033 -0.2913934308021453 -4553.25699292705 -1779.1443718279495 0.0 0.0
-16555.58127466423 2.212275964460133 -4966.01069960993 -1777.140690586528 0.0 0.0
-17931.55358761401 8.120554125174948 -5377.02991004665 -1769.176699560883 0.0 0.0
-19304.09504441984 20.2468426189579 -5785.154460540265 -1748.5760881890396 0.0 0.0
-20667.70371557628 45.161159185404145 -6186.762766917263 -1708.3454545100099 0.0 0.0
-22052.838082874605 51.47730303661125 -6600.4082339514 -1651.7109130662805 0.0 0.0
-23596.167864787432 63.66278719183809 -7059.751523278676 -1604.9508459313536 0.0 0.0
-24872.510987231057 250.50218271715238 -7386.602641354172 -2025.2447033502438 0.0 0.0
-24706.94012286392 -2046.9845214222664 -8026.177393285858 -3220.1463885731264 0.0 0.0
-28102.346721385995 -13844.056470185267 -12583.920957471382 9.958966984413564e-11 0.0 0.0
-24706.940122864475 -2046.9845214233837 -8026.177393286362 3220.1463885731455 0.0 0.0
-24872.510987231588 250.50218271600048 -7386.602641354676 2025.2447033502615 0.0 0.0
-23596.16786478718 63.662787192255145 -7059.751523278476 1604.9508459312656 0.0 0.0
-22052.838082874794 51.47730303587657 -6600.408233951675 1651.71091306631 0.0 0.0
-20667.703715577052 45.161159183477125 -6186.762766918072 1708.3454545102445 0.0 0.0
-19304.095044419882 20.246842619148744 -5785.154460540218 1748.5760881892757 0.0 0.0
-17931.55358761351 8.120554126424668 -5377.029910046128 1769.1766995609469 0.0 0.0
-16555.581274663866 2.2122759651582484 -4966.010699609614 1777.1406905865367 0.0 0.0
-15177.231916326535 -0.29139343177190113 -4553.256992927491 1779.1443718279395 0.0 0.0
-13798.027000817227 -1.2128714291688247 -4139.771961673919 1778.5849277629077 0.0 0.0
-12418.491880199199 -1.2274415104582292 -3725.9157965128966 1777.5287276915503 0.0 0.0
-11038.1196087834 0.8889869260898289 -3311.169186557192 1778.5338395353601 0.0 0.0
-9654.929816518259 9.102406867516303 -2893.748222895224 1787.586498801112 0.0 0.0
-8263.936795803067 31.00583675216601 -2469.87928771527 1817.525198552167 0.0 0.0
-6854.278781463147 73.8681375817747 -2034.1231931644127 1888.237121285402 0.0 0.0
-5407.323174684024 125.1890182210224 -1584.6402469389006 2010.429400338011 0.0 0.0
-3904.1968483947667 107.31273626691774 -1139.0652336383546 2128.3281226522786 0.0 0.0
-2385.0295284839576 -183.94376881105524 -770.691989188504 2024.6657680551934 0.0 0.0
-1200.5537229744887 -941.4634252057078 -642.6051444540591 1346.813807174433 0.0 0.0
-485.4752644325031 -790.9995676224124 -382.9424496164747 681.2106421674398 0.0 0.0
-470.7801041736677 -409.41110931293707 -264.05736404598144 -491.6817879088633 0.0 0.0
-1251.8787987045257 -685.044958025062 -581.0771270188764 -1027.592457251188 0.0 0.0
-2619.5611163319622 -130.10954648100687 -824.9011988438906 -1608.7768838615245 0.0 0.0
-4409.778882469641 71.10700614645413 -1301.6015628969562 -1706.1060916996646 0.0 0.0
-6220.671866323943 86.51843897157823 -1840.2460282057095 -1605.890871181 0.0 0.0
-7960.2298658217 52.1775304616234 -2372.4157006080227 -1499.8916649268958 0.0 0.0
-9632.23611805717 22.135006492141386 -2883.0303334695095 -1438.2467681669805 0.0 0.0
-11264.8559772031 6.559704905056407 -3377.4888816894127 -1412.330043722762 0.0 0.0
-12880.34925295303 0.6611746209616314 -3863.9064234996204 -1404.6953306763855 0.0 0.0
-14490.233196869629 -0.8654213541844484 -4347.329585467142 -1404.0103113744378 0.0 0.0
-16099.077347153594 -0.8680515800067923 -4829.9836196200795 -1405.0479443947243 0.0 0.0
-17707.815717137044 -0.17671497391124547 -5312.397729633285 -1405.6172328935247 0.0 0.0
-19315.448474387616 1.467311057722597 -5794.194348998969 -1404.0309144245095 0.0 0.0
-20917.97330490496 6.191533165519232 -6273.534531521834 -1397.0359616966193 0.0 0.0
-22510.720033552356 13.376465080514407 -6749.203070541553 -1379.7310692648766 0.0 0.0
-24082.661264693394 33.69307545970622 -7214.690456770108 -1341.125246957898 0.0 0.0
-25619.97098298654 48.246964855587024 -7671.517205439287 -1291.1677886661246 0.0 0.0
-27347.56670065862 -34.92487866294168 -8214.747473796466 -1226.7062559517167 0.0 0.0
-29095.18368855542 395.47917166946854 -8609.911355065786 -1454.445966780748 0.0 0.0
-28826.023052617275 -741.9975334498462 -8870.406175820137 -3207.2639656039687 0.0 0.0
-34161.11461765013 -17284.994980006624 -15433.832879297024 -3.0468072509393096e-11 0.0 0.0
-28826.023052617566 -741.9975334505206 -8870.406175820426 3207.263965603897 0.0 0.0
-29095.18368855567 395.47917166896843 -8609.911355066011 1454.4459667809483 0.0 0.0
-27347.56670065887 -34.92487866364028 -8214.747473796755 1226.706255951588 0.0 0.0
-25619.970982987186 48.24696485402276 -7671.517205439949 1291.1677886659973 0.0 0.0
-24082.6612646933 33.69307546005097 -7214.690456769975 1341.1252469579038 0.0 0.0
-22510.720033554106 13.376465076439484 -6749.203070543301 1379.7310692649062 0.0 0.0
-20917.97330490476 6.191533165977555 -6273.534531521636 1397.0359616966412 0.0 0.0
-19315.448474387667 1.467311057511754 -5794.194348999047 1404.030914424654 0.0 0.0
-17707.81571713686 -0.17671497344321985 -5312.397729633092 1405.617232893534 0.0 0.0
-16099.077347153296 -0.8680515792493253 -4829.983619619765 1405.0479443948036 0.0 0.0
-14490.233196869602 -0.8654213541810014 -4347.329585467137 1404.0103113742239 0.0 0.0
-12880.349252953165 0.6611746208830804 -3863.9064234996845 1404.6953306762882 0.0 0.0
-11264.855977202438 6.559704906515527 -3377.4888816887787 1412.3300437229911 0.0 0.0
-9632.236118056971 22.13500649219875 -2883.0303334694327 1438.246768167035 0.0 0.0
-7960.229865821567 52.17753046176787 -2372.4157006079395 1499.891664926725 0.0 0.0
-6220.671866324188 86.51843897102714 -1840.246028205948 1605.8908711810132 0.0 0.0
-4409.7788824696945 71.10700614642994 -1301.6015628969792 1706.1060916995928 0.0 0.0
-2619.561116332015 -130.10954648089444 -824.9011988438726 1608.7768838614872 0.0 0.0
-1251.8787987045923 -685.0449580252374 -581.0771270189492 1027.5924572512097 0.0 0.0
-470.780104173514 -409.41110931285095 -264.05736404590954 491.68178790875504 0.0 0.0
-459.374646263237 -191.2818793540254 -195.19695768517872 -316.7923735453396 0.0 0.0
-1254.8640417791344 -458.65929785003584 -514.0570018887511 -692.0532875595541 0.0 0.0
-2820.0037492551683 -88.45099053479514 -872.5364219369892 -1123.4497890656498 0.0 0.0
-4904.9129704693405 40.54381104281771 -1459.3107478279567 -1195.725135127746 0.0 0.0
-7040.101283137556 55.98516242383752 -2095.2348362141156 -1122.2383613370062 0.0 0.0
-9074.496183769175 34.846431514368234 -2711.8949256764427 -1043.82270887121 0.0 0.0
-11005.773198776755 15.126574579278682 -3297.193987259244 -998.2297008330523 0.0 0.0
-12877.225619422437 4.597945469946524 -3861.7883021857465 -979.1874550449274 0.0 0.0
-14723.426006045509 0.5214731802174271 -4416.871359859588 -973.6918299974427 0.0 0.0
-16562.15676214818 -0.5607791667174098 -4968.815262394471 -973.2919839902007 0.0 0.0
-18400.138265047237 -0.5744432296052508 -5520.213812483051 -974.1215547525811 0.0 0.0
-20238.642894219785 -0.12088604810482195 -6071.6291340803655 -974.5948882920317 0.0 0.0
-22075.75411179874 1.110813955193791 -6622.392989353064 -973.4657732925389 0.0 0.0
-23906.791016476942 3.7887642592194055 -7170.900675665319 -968.4883163861111 0.0 0.0
-25717.94046497754 11.393833023444728 -7711.963989586231 -954.9911401736916 0.0 0.0
-27505.034892931446 13.350173617317651 -8247.505415794236 -929.2646640513926 0.0 0.0
-29192.932232994328 69.87117745934567 -8736.918316660496 -873.6045472945214 0.0 0.0
-30966.211891888815 -106.95940619569494 -9321.951389425356 -876.3056609669532 0.0 0.0
-33285.852076753145 171.0843520004138 -9934.430317425822 -812.8007793296728 0.0 0.0
-32813.723506846014 1423.581051514753 -9417.042736599376 -2713.7129790888866 0.0 0.0
-41180.497509894165 -21601.760948974184 -18834.677537660507 1.1300471669528633e-10 0.0 0.0
-32813.72350684498 1423.5810515169896 -9417.042736598398 2713.712979088784 0.0 0.0
-33285.85207675221 171.08435200259342 -9934.430317424882 812.8007793297677 0.0 0.0
-30966.211891889612 -106.9594061973004 -9321.951389426076 876.3056609669763 0.0 0.0
-29192.932232994423 69.87117745909404 -8736.918316660602 873.6045472944456 0.0 0.0
-27505.034892931322 13.350173617300321 -8247.505415794207 929.2646640513133 0.0 0.0
-25717.940464978317 11.393833021617237 -7711.963989587016 954.9911401736879 0.0 0.0
-23906.79101647679 3.788764259831595 -7170.900675665087 968.4883163864313 0.0 0.0
-22075.754111798582 1.1108139554092205 -6622.392989352953 973.4657732925964 0.0 0.0
-20238.642894219432 -0.12088604735929742 -6071.629134080038 974.5948882919333 0.0 0.0
-18400.138265047375 -0.5744432298455981 -5520.213812483167 974.1215547526335 0.0 0.0
-16562.156762147868 -0.5607791660092427 -4968.815262394162 973.2919839898983 0.0 0.0
-14723.42600604517 0.5214731809972593 -4416.871359859251 973.6918299975229 0.0 0.0
-12877.225619422225 4.597945470205131 -3861.7883021856046 979.1874550450635 0.0 0.0
-11005.773198776502 15.126574580002757 -3297.19398725895 998.2297008328406 0.0 0.0
-9074.496183769086 34.84643151455707 -2711.894925676359 1043.822708871176 0.0 0.0
-7040.101283137709 55.98516242317333 -2095.2348362143616 1122.238361336958 0.0 0.0
-4904.9129704693505 40.54381104278844 -1459.310747827969 1195.7251351278912 0.0 0.0
-2820.0037492552015 -88.45099053493115 -872.53642193704 1123.449789065561 0.0 0.0
-1254.8640417791235 -458.6592978500073 -514.0570018887391 692.0532875595632 0.0 0.0
-459.37464626326073 -191.28187935402673 -195.1969576851863 316.7923735452866 0.0 0.0
-413.98622031906064 -121.34217707451599 -160.59851921807302 -186.58787796503682 0.0 0.0
-1181.895666422035 -284.6206763496621 -439.9549028315091 -347.4759424049198 0.0 0.0
-2969.1818476620433 -74.50452989502419 -913.1059132671206 -549.1226155435951 0.0 0.0
-5390.517694203068 22.382955138137817 -1610.4404217194788 -590.8276593497135 0.0 0.0
-7873.760733314034 37.61850333465637 -2350.8426689938146 -559.355899571121 0.0 0.0
-10202.04090961836 24.341749757944996 -3053.3097479581247 -521.5236202113417 0.0 0.0
-12386.766699919335 10.853500381268034 -3712.77395986142 -498.64841648594864 0.0 0.0
-14492.641059226149 3.3823346810794703 -4346.777617363521 -488.7615477308128 0.0 0.0
-16567.35257786586 0.4202988862321888 -4970.079683693888 -485.75778457533517 0.0 0.0
-18634.12362837894 -0.38507189530112385 -5590.352610082274 -485.43389383212457 0.0 0.0
-20701.115211483935 -0.40467581284421783 -6210.4559661890335 -485.7931651588431 0.0 0.0
-22769.553507157936 -0.07768621842102164 -6830.889358012907 -485.99142384710825 0.0 0.0
-24837.076605268823 0.7861397218761113 -7450.887139664087 -485.3397111850115 0.0 0.0
-26896.648825706347 2.883924816356398 -8068.129470266996 -482.7875972695192 0.0 0.0
-28934.66468171579 7.119054237186106 -8678.26368824358 -475.72212180821805 0.0 0.0
-30914.583381866687 16.889253223269662 -9269.308238593025 -462.9584439374771 0.0 0.0
-32845.392708605 9.647076309831107 -9850.72368968855 -439.4115466863228 0.0 0.0
-34387.517626820336 159.29149460761965 -10268.467839663817 -408.4843329687351 0.0 0.0
-37339.85578069538 -913.278957593688 -11475.94042148672 -644.2411033160694 0.0 0.0
-36559.5894384547 4603.112130605484 -9586.943192354764 -919.489628137435 0.0 0.0
-49654.557628402916 -26555.629312835794 -22863.056082371615 -4.001776687800884e-11 0.0 0.0
-36559.58943845442 4603.112130605927 -9586.943192354549 919.4896281374685 0.0 0.0
-37339.85578069461 -913.2789575921554 -11475.940421486035 644.2411033159923 0.0 0.0
-34387.51762681993 159.29149460861083 -10268.467839663399 408.48433296859105 0.0 0.0
-32845.392708603766 9.64707631287165 -9850.723689687267 439.4115466864282 0.0 0.0
-30914.583381867746 16.8892532206288 -9269.308238594136 462.95844393750315 0.0 0.0
-28934.66468171476 7.119054239379418 -8678.263688242616 475.72212180798624 0.0 0.0
-26896.648825706576 2.883924815896691 -8068.129470267204 482.7875972696377 0.0 0.0
-24837.07660526832 0.7861397230317699 -7450.887139663588 485.3397111852081 0.0 0.0
-22769.553507157252 -0.07768621708788892 -6830.889358012302 485.9914238469961 0.0 0.0
-20701.11521148391 -0.4046758129538772 -6210.45596618906 485.7931651587837 0.0 0.0
-18634.12362837859 -0.3850718944545104 -5590.352610081916 485.4338938319826 0.0 0.0
-16567.352577866168 0.4202988855789265 -4970.079683694176 485.7577845754156 0.0 0.0
-14492.64105922607 3.3823346812767205 -4346.777617363438 488.7615477307509 0.0 0.0
-12386.766699918884 10.853500382124697 -3712.773959861028 498.6484164858713 0.0 0.0
-10202.040909618298 24.341749757965474 -3053.309747958101 521.5236202112382 0.0 0.0
-7873.760733314127 37.6185033343642 -2350.842668993929 559.3558995711116 0.0 0.0
-5390.51769420324 22.38295513766971 -1610.4404217196716 590.8276593496901 0.0 0.0
-2969.1818476621593 -74.50452989510958 -913.1059132671805 549.1226155436166 0.0 0.0
-1181.8956664218974 -284.6206763494676 -439.95490283140947 347.47594240483687 0.0 0.0
-413.9862203188259 -121.34217707443561 -160.59851921797843 186.5878779650991 0.0 0.0
-215.45328277571954 -51.222342662039964 -80.00268763132783 -125.03616884302521 0.0 0.0
-962.989656910314 -146.2140418347028 -332.76110962350515 -146.85925090220135 0.0 0.0
-3033.227775182775 -78.52674217825245 -933.526355208308 -186.89986262639513 0.0 0.0
-5934.187262588886 -112.1557782129401 -1813.9029122405482 -208.38666350865813 0.0 0.0
-8831.388163723323 -197.81226646574942 -2708.7601290567213 -206.79946922471615 0.0 0.0
-11479.201380677068 -282.9278262127147 -3528.6387620669348 -197.1763538641718 0.0 0.0
-13934.40031087612 -356.93765518103044 -4287.401389817145 -189.82260194354507 0.0 0.0
-16293.770759951532 -422.423764188182 -5014.858357241915 -186.028633798873 0.0 0.0
-18619.500891547697 -483.907743831933 -5731.022590613888 -184.57549032116953 0.0 0.0
-20938.966552417613 -544.1389728726047 -6444.931657587067 -184.20981217145948 0.0 0.0
-23260.63771292928 -604.2537006748763 -7159.4674240812465 -184.1963389905892 0.0 0.0
-25585.215178840514 -664.4025870582942 -7874.8853297696405 -184.1670200121638 0.0 0.0
-27909.96371128457 -724.6161889153393 -8590.373970059973 -183.79133524196084 0.0 0.0
-30226.270050724495 -782.8478123671011 -9302.735358927479 -182.77993589313235 0.0 0.0
-32518.394965300984 -842.832416137875 -10008.368214431659 -180.34408676065902 0.0 0.0
-34735.7899790145 -876.8682889523798 -10683.797480390065 -175.63143217130528 0.0 0.0
-36856.64865871446 -988.7593111647955 -11353.622390963777 -180.42102636870482 0.0 0.0
-38586.836936147825 -653.123464786357 -11771.98812028025 -122.75810738804444 0.0 0.0
-40367.004861765934 -2201.507137344293 -12770.553599733066 -602.7604843801519 0.0 0.0
-41210.95856645644 5228.094194409012 -10794.859311614226 -2.713659400497363 0.0 0.0
-60939.07616445701 -31957.633456693347 -27869.012886345114 -1.546140993013978e-10 0.0 0.0
-41210.958566456065 5228.094194409095 -10794.859311614091 2.7136594003860637 0.0 0.0
-40367.004861766334 -2201.507137345646 -12770.553599733596 602.7604843804697 0.0 0.0
-38586.836936145286 -653.1234647806357 -11771.988120277778 122.75810738815994 0.0 0.0
-36856.64865871305 -988.759311161617 -11353.622390962402 180.4210263688094 0.0 0.0
-34735.78997901615 -876.8682889556462 -10683.797480391539 175.63143217145875 0.0 0.0
-32518.39496530065 -842.8324161371071 -10008.368214431328 180.3440867604304 0.0 0.0
-30226.270050724415 -782.8478123675364 -9302.735358927586 182.77993589333846 0.0 0.0
-27909.963711284247 -724.6161889144822 -8590.37397005962 183.79133524234157 0.0 0.0
-25585.215178839953 -664.402587056429 -7874.885329768915 184.16702001218266 0.0 0.0
-23260.637712929463 -604.253700675011 -7159.467424081344 184.19633899045266 0.0 0.0
-20938.96655241753 -544.13897287233 -6444.931657586958 184.20981217154042 0.0 0.0
-18619.500891548396 -483.90774383346917 -5731.022590614561 184.57549032130305 0.0 0.0
-16293.770759950818 -422.423764186738 -5014.858357241268 186.028633798653 0.0 0.0
-13934.400310875817 -356.9376551806367 -4287.401389816936 189.8226019435166 0.0 0.0
-11479.201380677518 -282.9278262137672 -3528.638762067385 197.17635386391441 0.0 0.0
-8831.388163723728 -197.8122664664495 -2708.7601290570533 206.7994692247783 0.0 0.0
-5934.18726258942 -112.15577821427456 -1813.9029122411084 208.3866635084603 0.0 0.0
-3033.227775182515 -78.52674217794191 -933.5263552081371 186.89986262656072 0.0 0.0
-962.9896569101961 -146.21404183447203 -332.76110962340044 146.85925090213976 0.0 0.0
-215.45328277568615 -51.22234266202819 -80.0026876313143 125.03616884299642 0.0 0.0
SCALARS Strain float 6
LOOKUP_TABLE default
0.05581910595640538 -0.13865898179050556 0.0 -0.009330135558965478 0.0 0.0
0.04971146490858045 0.010808947310836158 0.0 -0.014492805509490465 0.0 0.0
0.03928998814025434 -0.019579081872752424 0.0 -0.006198409317749872 0.0 0.0
0.03746751023905898 -0.013650500362856484 0.0 -0.0009231712854077057 0.0 0.0
0.04400824337739465 -0.017984859966874364 0.0 -0.002127644947788416 0.0 0.0
0.0528731795309884 -0.021422415192793955 0.0 -0.0021924569703018525 0.0 0.0
0.06281180075543456 -0.025570914437404765 0.0 -0.0023248342642941114 0.0 0.0
0.07315858182181416 -0.029783153827449366 0.0 -0.0023752060867660322 0.0 0.0
0.08362935330495214 -0.03405213500238811 0.0 -0.002393118004968301 0.0 0.0
0.09411996603589136 -0.03832242586897386 0.0 -0.0023977798425928506 0.0 0.0
0.10459904667418343 -0.04258844376897844 0.0 -0.0023977795499524343 0.0 0.0
0.11506513413897337 -0.04684901830433516 0.0 -0.002398310566958118 0.0 0.0
0.1255317510850504 -0.05110903649710184 0.0 -0.002402981649978213 0.0 0.0
0.13603550989198876 -0.055381022505954586 0.0 -0.002416742202209876 0.0 0.0
0.14665763669402768 -0.059694353033616754 0.0 -0.002444915617374399 0.0 0.0
0.15753726175203983 -0.06410303868917239 0.0 -0.002484869560027098 0.0 0.0
0.16881384167443078 -0.06866985698758825 0.0 -0.0025029618701200877 0.0 0.0
0.18038682926272342 -0.07337980966725738 0.0 -0.0023992124214744313 0.0 0.0
0.19142421104218219 -0.0779385362378767 0.0 -0.002001138063824889 0.0 0.0
0.19991211045532156 -0.08153439084708566 0.0 -0.0011706505338237782 0.0 0.0
0.20318424462253418 -0.08296029798656265 0.0 -1.169203622808368e-15 0.0 0.0
0.1999121104553207 -0.08153439084708354 0.0 0.0011706505338265547 0.0 0.0
0.19142421104218285 -0.07793853623787805 0.0 0.0020011380638261106 0.0 0.0
0.18038682926272429 -0.07337980966724346 0.0 0.002399212421472119 0.0 0.0
0.1688138416744302 -0.06866985698758504 0.0 0.002502961870120061 0.0 0.0
0.15753726175203872 -0.06410303868917679 0.0 0.0024848695600318644 0.0 0.0
0.14665763669402745 -0.05969435303360915 0.0 0.00244491561737507 0.0 0.0
0.1360355098919887 -0.05538102250594952 0.0 0.0024167422022068636 0.0 0.0
0.1255317510850507 -0.051109036497102064 0.0 0.0024029816499812574 0.0 0.0
0.11506513413897332 -0.04684901830433589 0.0 0.002398310566955334 0.0 0.0
0.10459904667418246 -0.042588443768980605 0.0 0.0023977795499563167 0.0 0.0
0.09411996603589097 -0.038322425868971804 0.0 0.0023977798425933667 0.0 0.0
0.08362935330495216 -0.03405213500238318 0.0 0.0023931180049695288 0.0 0.0
0.07315858182181433 -0.02978315382744759 0.0 0.002375206086761809 0.0 0.0
0.06281180075543455 -0.025570914437403947 0.0 0.002324834264294071 0.0 0.0
0.05287317953098836 -0.02142241519279652 0.0 0.0021924569703049685 0.0 0.0
0.04400824337739458 -0.01798485996687477 0.0 0.002127644947786413 0.0 0.0
0.03746751023905858 -0.013650500362853903 0.0 0.0009231712854103696 0.0 0.0
0.03928998814025473 -0.01957908187275279 0.0 0.0061984093177537055 0.0 0.0
0.049711464908581096 0.010808947310836429 0.0 0.01449280550948716 0.0 0.0
0.055819105956405365 -0.13865898179050676 0.0 0.009330135558964756 0.0 0.0
0.034758680217563 -0.1288816311125029 0.0 -0.006375949300995297 0.0 0.0
0.02940842813231561 0.009368101126717326 0.0 -0.01155533115854079 0.0 0.0
0.028233450647922716 -0.015183439943778087 0.0 -0.0043324516165315395 0.0 0.0
0.0339733975423734 -0.013469831743203093 0.0 -0.003585981796479896 0.0 0.0
0.03946363176165468 -0.01677763219441251 0.0 -0.005170243920527303 0.0 0.0
0.04769039283025953 -0.020331006153568795 0.0 -0.005856899238487728 0.0 0.0
0.056590665799869294 -0.02421711742806379 0.0 -0.00616475945239266 0.0 0.0
0.06587785489266297 -0.02822235567657 0.0 -0.006290787846602733 0.0 0.0
0.07528145776888101 -0.03226233093066467 0.0 -0.006325387281062266 0.0 0.0
0.08471340662859332 -0.03630721497633586 0.0 -0.006328929470312343 0.0 0.0
0.09414168243417546 -0.04034792241049562 0.0 -0.006324104561711113 0.0 0.0
0.10356277683251305 -0.04438427515570077 0.0 -0.006321733392430133 0.0 0.0
0.1129878372612916 -0.048420189701314086 0.0 -0.006330500168168209 0.0 0.0
0.12244760607527491 -0.05246632537088182 0.0 -0.006365752415926561 0.0 0.0
0.13200608217285806 -0.05654767024586707 0.0 -0.006451565087670553 0.0 0.0
0.14176284616815102 -0.06071075120359014 0.0 -0.006603574168652965 0.0 0.0
0.151791882678965 -0.06501085492268499 0.0 -0.006766044248873237 0.0 0.0
0.16193320057496036 -0.06943678949466349 0.0 -0.006689163823629041 0.0 0.0
0.1714105982747149 -0.07372896364905267 0.0 -0.005830990587774084 0.0 0.0
0.17854691626861666 -0.07714650750561225 0.0 -0.0035732915785218135 0.0 0.0
0.18126039407321357 -0.0785260513761628 0.0 -1.1188966420050406e-16 0.0 0.0
0.17854691626861707 -0.077146507505622 0.0 0.003573291578523481 0.0 0.0
0.1714105982747149 -0.07372896364904609 0.0 0.005830990587776838 0.0 0.0
0.16193320057496058 -0.06943678949466403 0.0 0.00668916382362902 0.0 0.0
0.15179188267896565 -0.06501085492268462 0.0 0.006766044248869347 0.0 0.0
0.1417628461681507 -0.06071075120359362 0.0 0.006603574168650264 0.0 0.0
0.13200608217285703 -0.056547670245866086 0.0 0.006451565087670628 0.0 0.0
0.1224476060752755 -0.05246632537088291 0.0 0.006365752415925143 0.0 0.0
0.11298783726129247 -0.04842018970131092 0.0 0.006330500168170988 0.0 0.0
0.1035627768325131 -0.044384275155705366 0.0 0.006321733392430901 0.0 0.0
0.09414168243417494 -0.04034792241049623 0.0 0.006324104561709681 0.0 0.0
0.08471340662859259 -0.03630721497633176 0.0 0.006328929470312652 0.0 0.0
0.07528145776888107 -0.032262330930662164 0.0 0.006325387281064351 0.0 0.0
0.06587785489266373 -0.028222355676569354 0.0 0.006290787846600962 0.0 0.0
0.056590665799869835 -0.02421711742806149 0.0 0.006164759452391522 0.0 0.0
0.04769039283025958 -0.020331006153570638 0.0 0.005856899238488039 0.0 0.0
0.03946363176165484 -0.01677763219441143 0.0 0.005170243920527871 0.0 0.0
0.033973397542373523 -0.013469831743201627 0.0 0.0035859817964821288 0.0 0.0
0.028233450647922077 -0.015183439943778115 0.0 0.0043324516165317555 0.0 0.0
0.029408428132315263 0.009368101126718492 0.0 0.011555331158539937 0.0 0.0
0.03475868021756364 -0.12888163111250378 0.0 0.0063759493009949274 0.0 0.0
0.02493089591801876 -0.11045092954090888 0.0 -0.029364120828424198 0.0 0.0
0.01893943752549961 0.005129050905499897 0.0 -0.020895730759869103 0.0 0.0
0.019448269377956486 -0.007782503461264025 0.0 -0.0029378261480758985 0.0 0.0
0.028730660275830926 -0.012134576502506678 0.0 -0.00827229247841137 0.0 0.0
0.03495549584339905 -0.014559855811852974 0.0 -0.01029468078164118 0.0 0.0
0.042326675319588704 -0.018035235987500238 0.0 -0.011798663075526215 0.0 0.0
0.05033471991184356 -0.021514798918287815 0.0 -0.01238649413961554 0.0 0.0
0.05857962111047714 -0.025091357632422012 0.0 -0.012624052250804898 0.0 0.0
0.066931391772139 -0.028683212178514404 0.0 -0.012687875457870914 0.0 0.0
0.07530793704968705 -0.03227695564241606 0.0 -0.012691567079995122 0.0 0.0
0.0836857587685271 -0.035867438353655585 0.0 -0.012680657084988311 0.0 0.0
0.09206029026714013 -0.0394547889030251 0.0 -0.012674772007795107 0.0 0.0
0.10043954920948414 -0.04304121329067931 0.0 -0.012690438884900158 0.0 0.0
0.10884585739496004 -0.04663263891452117 0.0 -0.012758104842539584 0.0 0.0
0.11732429740975775 -0.05024450516716538 0.0 -0.012928168613343387 0.0 0.0
0.12594165844448757 -0.0539100355466073 0.0 -0.01324013335471472 0.0 0.0
0.13473627371312635 -0.05767898831601889 0.0 -0.013599321637996114 0.0 0.0
0.14355281091970323 -0.06157077943973173 0.0 -0.013521485805834304 0.0 0.0
0.1517360969246871 -0.0654243731918476 0.0 -0.011894641755671254 0.0 0.0
0.15788435455102945 -0.06862853331079337 0.0 -0.007362364305153498 0.0 0.0
0.16022400393694802 -0.06999601027412229 0.0 -1.0139458717084437e-15 0.0 0.0
0.1578843545510296 -0.06862853331079742 0.0 0.007362364305154199 0.0 0.0
0.1517360969246871 -0.06542437319184703 0.0 0.011894641755672744 0.0 0.0
0.1435528109197031 -0.061570779439744 0.0 0.013521485805834881 0.0 0.0
0.1347362737131268 -0.05767898831602243 0.0 0.01359932163799562 0.0 0.0
0.12594165844448774 -0.05391003554660866 0.0 0.013240133354711407 0.0 0.0
0.11732429740975694 -0.05024450516717344 0.0 0.01292816861334331 0.0 0.0
0.10884585739495982 -0.04663263891452506 0.0 0.012758104842540367 0.0 0.0
0.1004395492094845 -0.043041213290675576 0.0 0.012690438884899635 0.0 0.0
0.09206029026714027 -0.03945478890302544 0.0 0.01267477200779664 0.0 0.0
0.08368575876852662 -0.03586743835365621 0.0 0.012680657084988334 0.0 0.0
0.0753079370496867 -0.032276955642414444 0.0 0.012691567079994779 0.0 0.0
0.06693139177213894 -0.028683212178513863 0.0 0.012687875457870642 0.0 0.0
0.058579621110477056 -0.025091357632425752 0.0 0.01262405225080588 0.0 0.0
0.0503347199118434 -0.02151479891828438 0.0 0.012386494139614491 0.0 0.0
0.04232667531958861 -0.018035235987501858 0.0 0.011798663075526399 0.0 0.0
0.034955495843398986 -0.01455985581185116 0.0 0.010294680781640952 0.0 0.0
0.028730660275830648 -0.012134576502505066 0.0 0.008272292478412865 0.0 0.0
0.01944826937795669 -0.007782503461264113 0.0 0.0029378261480747726 0.0 0.0
0.018939437525499557 0.005129050905501124 0.0 0.020895730759868794 0.0 0.0
0.024930895918018035 -0.11045092954090935 0.0 0.029364120828424337 0.0 0.0
0.019803517913132933 -0.09425062077831647 0.0 -0.03665765945427899 0.0 0.0
0.013334584023841734 -0.000324093348312407 0.0 -0.02861609278201741 0.0 0.0
0.013089600641313013 -0.003058493497364038 0.0 -0.00870703979240195 0.0 0.0
0.02312971999439825 -0.009547085222890212 0.0 -0.011958407706260709 0.0 0.0
0.030175468113558153 -0.012479258993085234 0.0 -0.01531429787126655 0.0 0.0
0.03691554936297482 -0.015620917049057922 0.0 -0.017032407229455628 0.0 0.0
0.04402559389084497 -0.018796838232785933 0.0 -0.017888685597528774 0.0 0.0
0.05127022100101275 -0.021949857919881303 0.0 -0.018202760938388705 0.0 0.0
0.058576955051974466 -0.025102724845497915 0.0 -0.018295629751977 0.0 0.0
0.06590277034843947 -0.028247193721165485 0.0 -0.01830237139232887 0.0 0.0
0.07323045264148752 -0.03138767899658754 0.0 -0.018288795187056794 0.0 0.0
0.0805572291718589 -0.03452518598821128 0.0 -0.018281642960999527 0.0 0.0
0.08788723514225974 -0.037659819044864436 0.0 -0.01830372596010652 0.0 0.0
0.0952329979776813 -0.040791407500218056 0.0 -0.018395938841867885 0.0 0.0
0.10262047935019654 -0.04392475440606104 0.0 -0.01862538002760774 0.0 0.0
0.11009083908604489 -0.0470831296129384 0.0 -0.019043754753276375 0.0 0.0
0.11767214504371198 -0.05032780344047466 0.0 -0.01951837815785497 0.0 0.0
0.1252631372009345 -0.05374948695683675 0.0 -0.019373441155447823 0.0 0.0
0.13237094883058487 -0.057335960444865414 0.0 -0.017037969996854817 0.0 0.0
0.1378080464424849 -0.06058337882979828 0.0 -0.010557833617793546 0.0 0.0
0.13990891389434737 -0.062086497366879656 0.0 -3.0357660829594124e-17 0.0 0.0
0.13780804644248454 -0.06058337882979278 0.0 0.010557833617794474 0.0 0.0
0.1323709488305847 -0.0573359604448674 0.0 0.01703796999685289 0.0 0.0
0.1252631372009344 -0.05374948695684224 0.0 0.01937344115544682 0.0 0.0
0.11767214504371196 -0.05032780344046511 0.0 0.019518378157856068 0.0 0.0
0.11009083908604476 -0.04708312961294301 0.0 0.019043754753275174 0.0 0.0
0.10262047935019647 -0.043924754406062416 0.0 0.01862538002760544 0.0 0.0
0.09523299797768126 -0.04079140750022181 0.0 0.01839593884186838 0.0 0.0
0.08788723514225961 -0.0376598190448665 0.0 0.0183037259601042 0.0 0.0
0.08055722917185917 -0.03452518598821079 0.0 0.0182816429609977 0.0 0.0
0.07323045264148745 -0.03138767899658696 0.0 0.018288795187054764 0.0 0.0
0.06590277034843915 -0.028247193721165645 0.0 0.018302371392328785 0.0 0.0
0.05857695505197483 -0.025102724845497564 0.0 0.018295629751976163 0.0 0.0
0.051270221001013104 -0.021949857919884963 0.0 0.018202760938389854 0.0 0.0
0.04402559389084506 -0.0187968382327829 0.0 0.017888685597528042 0.0 0.0
0.03691554936297468 -0.015620917049058707 0.0 0.01703240722945753 0.0 0.0
0.03017546811355777 -0.012479258993085112 0.0 0.015314297871265377 0.0 0.0
0.023129719994397842 -0.009547085222887941 0.0 0.011958407706261694 0.0 0.0
0.013089600641312435 -0.0030584934973643227 0.0 0.008707039792402465 0.0 0.0
0.013334584023841469 -0.0003240933483120304 0.0 0.02861609278201608 0.0 0.0
0.019803517913132968 -0.0942506207783168 0.0 0.036657659454279304 0.0 0.0
0.016714601996182223 -0.08017406423355057 0.0 -0.037494276088285663 0.0 0.0
0.010170664905573655 -0.0050228236173488795 0.0 -0.03383800043683998 0.0 0.0
0.00861899569597236 -0.0005106141725278895 0.0 -0.01649839417847305 0.0 0.0
0.017841258373697346 -0.0067511630799947 0.0 -0.016318185683427123 0.0 0.0
0.025213077211347024 -0.010270430360896664 0.0 -0.019793287221151992 0.0 0.0
0.03145741944458527 -0.01319827980684672 0.0 -0.021706443675663243 0.0 0.0
0.03768686467765965 -0.016048288655929638 0.0 -0.022661802163148774 0.0 0.0
0.04394717359051259 -0.018803704602619997 0.0 -0.023040079137147246 0.0 0.0
0.05021905133895081 -0.021519594455169606 0.0 -0.023150498073462495 0.0 0.0
0.056496810728038624 -0.02421749910352629 0.0 -0.023162265263453205 0.0 0.0
0.06277520074885017 -0.026908131068256298 0.0 -0.023148281352291075 0.0 0.0
0.06905331365058896 -0.029595241547944025 0.0 -0.02314137087682523 0.0 0.0
0.07533162292829196 -0.03227644638601864 0.0 -0.023168039154452827 0.0 0.0
0.08161227927471856 -0.03494489327155147 0.0 -0.023274773384519203 0.0 0.0
0.08790290904033919 -0.03759451052175814 0.0 -0.023537018143151695 0.0 0.0
0.0942253845984896 -0.04024153162148233 0.0 -0.0240125217322037 0.0 0.0
0.10061711292295984 -0.04297139784751026 0.0 -0.02454446557700843 0.0 0.0
0.10706744432527832 -0.04597645584407648 0.0 -0.024324050531086213 0.0 0.0
0.11327455739323108 -0.04943225564137631 0.0 -0.021419433601189666 0.0 0.0
0.11821723388206756 -0.052931362593614285 0.0 -0.013325149950501833 0.0 0.0
0.12018457963571436 -0.05470164304063704 0.0 -1.80107664893292e-15 0.0 0.0
0.11821723388206701 -0.05293136259361206 0.0 0.013325149950504142 0.0 0.0
0.11327455739323075 -0.049432255641376516 0.0 0.021419433601189357 0.0 0.0
0.10706744432527832 -0.04597645584407366 0.0 0.0243240505310865 0.0 0.0
0.10061711292295977 -0.04297139784750658 0.0 0.02454446557701001 0.0 0.0
0.0942253845984895 -0.0402415316214725 0.0 0.02401252173220197 0.0 0.0
0.08790290904033893 -0.03759451052175938 0.0 0.0235370181431509 0.0 0.0
0.08161227927471842 -0.03494489327155539 0.0 0.02327477338451928 0.0 0.0
0.07533162292829164 -0.03227644638601989 0.0 0.023168039154453743 0.0 0.0
0.06905331365058864 -0.02959524154794624 0.0 0.023141370876824635 0.0 0.0
0.06277520074885 -0.026908131068254397 0.0 0.023148281352288778 0.0 0.0
0.056496810728038326 -0.024217499103525927 0.0 0.02316226526345458 0.0 0.0
0.0502190513389513 -0.02151959445516746 0.0 0.023150498073463352 0.0 0.0
0.04394717359051251 -0.018803704602622665 0.0 0.02304007913714557 0.0 0.0
0.037686864677658714 -0.01604828865592877 0.0 0.022661802163145936 0.0 0.0
0.031457419444584855 -0.01319827980684289 0.0 0.021706443675662983 0.0 0.0
0.02521307721134675 -0.010270430360897018 0.0 0.019793287221152554 0.0 0.0
0.01784125837369781 -0.006751163079993966 0.0 0.016318185683428143 0.0 0.0
0.008618995695973021 -0.0005106141725274231 0.0 0.016498394178472164 0.0 0.0
0.010170664905573865 -0.005022823617348871 0.0 0.03383800043684121 0.0 0.0
0.016714601996182507 -0.08017406423355057 0.0 0.03749427608828591 0.0 0.0
0.014524914347530164 -0.0679994791042271 0.0 -0.03577091846692449 0.0 0.0
0.008220389643645637 -0.00843201532484365 0.0 -0.03692416043697354 0.0 0.0
0.0054581505512343665 0.000617874370464495 0.0 -0.024036385871384482 0.0 0.0
0.01310471034111902 -0.004224325313755351 0.0 -0.021191930913914477 0.0 0.0
0.020227883475680247 -0.007976318949847877 0.0 -0.02385979173107295 0.0 0.0
0.025962474814975562 -0.010768021220219587 0.0 -0.02577563370240705 0.0 0.0
0.03133272962108194 -0.013287857321502576 0.0 -0.026736913849098248 0.0 0.0
0.03661378314450165 -0.015651228269962358 0.0 -0.027136025027705606 0.0 0.0
0.04185747623193777 -0.017934900341335627 0.0 -0.027256434323418857 0.0 0.0
0.04708967468446787 -0.02018718098887407 0.0 -0.02727167712168797 0.0 0.0
0.05231944679598087 -0.022428463912260305 0.0 -0.027259118788033613 0.0 0.0
0.05754845183845264 -0.024664831645073115 0.0 -0.027253204576475672 0.0 0.0
0.06277366531204727 -0.02689174144674235 0.0 -0.027281793714827425 0.0 0.0
0.06798717135256835 -0.02909560701082342 0.0 -0.027392061072957455 0.0 0.0
0.07317957867323409 -0.031259837509392624 0.0 -0.02766064571981381 0.0 0.0
0.07835817310358646 -0.0333953872842017 0.0 -0.02814898217311467 0.0 0.0
0.08358268256964231 -0.03561904192023961 0.0 -0.028698805142758837 0.0 0.0
0.0889586327583476 -0.038245255778736977 0.0 -0.028437967565702705 0.0 0.0
0.0944001429012813 -0.04167253528717026 0.0 -0.025161466754415215 0.0 0.0
0.09902325633567235 -0.04560282258702213 0.0 -0.01578803206539703 0.0 0.0
0.10094500942290369 -0.047775133863596074 0.0 -2.5847379792054426e-16 0.0 0.0
0.09902325633567229 -0.04560282258701937 0.0 0.01578803206539907 0.0 0.0
0.09440014290128111 -0.041672535287178014 0.0 0.025161466754415357 0.0 0.0
0.08895863275834755 -0.03824525577873232 0.0 0.0284379675657025 0.0 0.0
0.08358268256964271 -0.03561904192024908 0.0 0.028698805142759375 0.0 0.0
0.0783581731035868 -0.03339538728419287 0.0 0.02814898217311218 0.0 0.0
0.07317957867323384 -0.03125983750940056 0.0 0.027660645719813047 0.0 0.0
0.06798717135256828 -0.029095607010825503 0.0 0.027392061072959495 0.0 0.0
0.06277366531204738 -0.02689174144674063 0.0 0.02728179371482832 0.0 0.0
0.05754845183845257 -0.02466483164507554 0.0 0.027253204576475468 0.0 0.0
0.05231944679598135 -0.022428463912259795 0.0 0.02725911878803646 0.0 0.0
0.04708967468446844 -0.020187180988879037 0.0 0.02727167712169036 0.0 0.0
0.04185747623193735 -0.017934900341335783 0.0 0.02725643432341971 0.0 0.0
0.03661378314450112 -0.015651228269962906 0.0 0.027136025027703722 0.0 0.0
0.031332729621082266 -0.013287857321501579 0.0 0.026736913849099056 0.0 0.0
0.02596247481497582 -0.0107680212202161 0.0 0.025775633702408297 0.0 0.0
0.02022788347568016 -0.007976318949846593 0.0 0.02385979173107317 0.0 0.0
0.013104710341118585 -0.004224325313756645 0.0 0.021191930913914536 0.0 0.0
0.005458150551233979 0.0006178743704649731 0.0 0.024036385871383414 0.0 0.0
0.00822038964364533 -0.008432015324843991 0.0 0.036924160436972525 0.0 0.0
0.014524914347529446 -0.06799947910422723 0.0 0.035770918466921306 0.0 0.0
0.01273078264961307 -0.05745322549079876 0.0 -0.03316491673170376 0.0 0.0
0.006849796812504001 -0.010561686774832588 0.0 -0.03841404584744192 0.0 0.0
0.0031473122664009067 0.0009458044988456156 0.0 -0.030400932650346803 0.0 0.0
0.008942743105370738 -0.0021134782147180756 0.0 -0.02607342994789176 0.0 0.0
0.015344360394637373 -0.005697714889782095 0.0 -0.027562042807835745 0.0 0.0
0.020459874225948752 -0.008334418572218167 0.0 -0.029227574852541793 0.0 0.0
0.024972340508396758 -0.010526656064113661 0.0 -0.030117671885094725 0.0 0.0
0.02927460509715072 -0.012495069409925431 0.0 -0.030495768434297667 0.0 0.0
0.0334925274216176 -0.014348686022293791 0.0 -0.03061463765580428 0.0 0.0
0.037681051395475874 -0.016156086061302758 0.0 -0.030631585798099596 0.0 0.0
0.04186281492668688 -0.017948333138089127 0.0 -0.030621279868674113 0.0 0.0
0.04604264532555154 -0.019733947253720106 0.0 -0.03061670247291339 0.0 0.0
0.05021441579431895 -0.021506439445462426 0.0 -0.030644155034926568 0.0 0.0
0.05436108833425049 -0.02324607247027114 0.0 -0.030747110344837562 0.0 0.0
0.05845792082310995 -0.02492648407436052 0.0 -0.03099716825982201 0.0 0.0
0.0625002132963593 -0.026553600485164842 0.0 -0.03145896314266373 0.0 0.0
0.06657587553944609 -0.028276502950637168 0.0 -0.03200008540557974 0.0 0.0
0.07092255919562289 -0.030542519239596166 0.0 -0.031763029473413806 0.0 0.0
0.0756971329527745 -0.03400964746011096 0.0 -0.028355023518248403 0.0 0.0
0.08014630573064863 -0.038534634480495954 0.0 -0.018044582057176954 0.0 0.0
0.08210158113337529 -0.04126394492344254 0.0 9.419548474554063e-16 0.0 0.0
0.0801463057306489 -0.038534634480503184 0.0 0.018044582057176697 0.0 0.0
0.07569713295277447 -0.03400964746010788 0.0 0.02835502351824796 0.0 0.0
0.07092255919562349 -0.030542519239601836 0.0 0.03176302947341718 0.0 0.0
0.06657587553944612 -0.028276502950635447 0.0 0.03200008540557892 0.0 0.0
0.06250021329635906 -0.026553600485171806 0.0 0.031458963142661535 0.0 0.0
0.058457920823110104 -0.0249264840743566 0.0 0.030997168259819005 0.0 0.0
0.05436108833425004 -0.02324607247027118 0.0 0.03074711034483848 0.0 0.0
0.050214415794318276 -0.021506439445463432 0.0 0.030644155034924757 0.0 0.0
0.04604264532555185 -0.019733947253724574 0.0 0.030616702472914627 0.0 0.0
0.04186281492668714 -0.017948333138089502 0.0 0.030621279868675515 0.0 0.0
0.037681051395475576 -0.016156086061304045 0.0 0.03063158579809902 0.0 0.0
0.033492527421617374 -0.014348686022298118 0.0 0.030614637655802544 0.0 0.0
0.02927460509715018 -0.012495069409920618 0.0 0.030495768434299027 0.0 0.0
0.024972340508396168 -0.01052665606411571 0.0 0.03011767188509458 0.0 0.0
0.020459874225948645 -0.00833441857221573 0.0 0.029227574852543396 0.0 0.0
0.015344360394637453 -0.005697714889782481 0.0 0.027562042807835294 0.0 0.0
0.008942743105370732 -0.002113478214719603 0.0 0.026073429947891143 0.0 0.0
0.003147312266400824 0.0009458044988463236 0.0 0.03040093265034856 0.0 0.0
0.006849796812503511 -0.010561686774832298 0.0 0.03841404584744129 0.0 0.0
0.012730782649612343 -0.05745322549079918 0.0 0.033164916731702375 0.0 0.0
0.011108305158844416 -0.048266824620551096 0.0 -0.03038388759678797 0.0 0.0
0.005731173153065087 -0.011606229407964255 0.0 -0.03875334532804034 0.0 0.0
0.0013576224223776363 0.0009002451329057904 0.0 -0.035302659229263005 0.0 0.0
0.0052851080289843715 -0.0004059277313256719 0.0 -0.03051836140331074 0.0 0.0
0.01063366117540787 -0.003512632442804875 0.0 -0.03083993861407453 0.0 0.0
0.014983841179615754 -0.005914589304535469 0.0 -0.03205844697688059 0.0 0.0
0.018614694861762048 -0.007771097363661441 0.0 -0.0327991049535388 0.0 0.0
0.021933574427215122 -0.009338682174158262 0.0 -0.033121659296368545 0.0 0.0
0.025124997136970504 -0.010761249336429768 0.0 -0.033226218812995104 0.0 0.0
0.028270720408065886 -0.01212407831397703 0.0 -0.033242629881015624 0.0 0.0
0.03140504530783603 -0.013467519983328596 0.0 -0.03323492337035743 0.0 0.0
0.03453596545837054 -0.014802621427578419 0.0 -0.033231670718306974 0.0 0.0
0.03765489529878868 -0.01612127608823055 0.0 -0.03325501250658565 0.0 0.0
0.04073714897513333 -0.01739861081346376 0.0 -0.03334090402404116 0.0 0.0
0.04374459615549779 -0.018599643241492804 0.0 -0.03355045036447485 0.0 0.0
0.046661020206975184 -0.01972405384885172 0.0 -0.0339508606747839 0.0 0.0
0.04960097877236037 -0.020947561400910454 0.0 -0.03446307055843563 0.0 0.0
0.05294086693824817 -0.02285078041075815 0.0 -0.034328836214577295 0.0 0.0
0.05711229275648462 -0.026391150870071184 0.0 -0.031062963510377656 0.0 0.0
0.061512515782607066 -0.031666452994892264 0.0 -0.020177238666061637 0.0 0.0
0.06357799618274534 -0.03514563858497827 0.0 2.862293735361732e-17 0.0 0.0
0.061512515782606886 -0.03166645299489336 0.0 0.0201772386660619 0.0 0.0
0.05711229275648487 -0.0263911508700631 0.0 0.03106296351037814 0.0 0.0
0.052940866938248295 -0.022850780410758394 0.0 0.03432883621457947 0.0 0.0
0.0496009787723604 -0.020947561400907054 0.0 0.03446307055843675 0.0 0.0
0.04666102020697521 -0.019724053848853822 0.0 0.03395086067478733 0.0 0.0
0.04374459615549787 -0.018599643241497096 0.0 0.03355045036447342 0.0 0.0
0.0407371489751334 -0.017398610813458705 0.0 0.03334090402403801 0.0 0.0
0.03765489529878926 -0.01612127608823533 0.0 0.033255012506586516 0.0 0.0
0.034535965458370975 -0.014802621427575852 0.0 0.033231670718310014 0.0 0.0
0.031405045307836034 -0.013467519983327523 0.0 0.033234923370359874 0.0 0.0
0.0282707204080663 -0.012124078313976305 0.0 0.03324262988101554 0.0 0.0
0.025124997136970688 -0.010761249336426698 0.0 0.03322621881299353 0.0 0.0
0.02193357442721518 -0.009338682174156784 0.0 0.033121659296369614 0.0 0.0
0.018614694861761965 -0.007771097363666213 0.0 0.03279910495353988 0.0 0.0
0.014983841179615591 -0.005914589304534858 0.0 0.03205844697688268 0.0 0.0
0.01063366117540775 -0.0035126324428056336 0.0 0.030839938614071957 0.0 0.0
0.005285108028984753 -0.000405927731325217 0.0 0.030518361403310053 0.0 0.0
0.001357622422378159 0.0009002451329067074 0.0 0.03530265922926385 0.0 0.0
0.005731173153065413 -0.011606229407964139 0.0 0.03875334532804059 0.0 0.0
0.01110830515884485 -0.048266824620551076 0.0 0.030383887596789474 0.0 0.0
0.009561861352728128 -0.04020756891345581 0.0 -0.027697767513251342 0.0 0.0
0.0046990319669191335 -0.011798657275511513 0.0 -0.03825630807357247 0.0 0.0
-0.0001335232266111736 0.0007496689385074271 0.0 -0.03873144031286854 0.0 0.0
0.002032581263114412 0.0009735277212463399 0.0 -0.03422264597516456 0.0 0.0
0.00612313674326503 -0.001462069021209256 0.0 -0.03358353584314204 0.0 0.0
0.009563049856964871 -0.0035291107546707194 0.0 -0.03425191143553793 0.0 0.0
0.012269179139577069 -0.00502673247316914 0.0 -0.034774102867580765 0.0 0.0
0.014593911120859896 -0.006184821146083072 0.0 -0.0350127953754273 0.0 0.0
0.01675577495396927 -0.0071731721514917066 0.0 -0.0350919110598947 0.0 0.0
0.018858589823540214 -0.0080910493326843 0.0 -0.03510529816777701 0.0 0.0
0.0209459544583705 -0.008985880853294497 0.0 -0.03510028180474132 0.0 0.0
0.023028514949663646 -0.009870915648220511 0.0 -0.0350981712423408 0.0 0.0
0.02509598560312829 -0.010736898422348566 0.0 -0.03511487363887726 0.0 0.0
0.027117963605453602 -0.011555159434375217 0.0 -0.035175836385485514 0.0 0.0
0.02904529710869503 -0.012283722211021291 0.0 -0.03532693820861292 0.0 0.0
0.030849013722695516 -0.012913833584888268 0.0 -0.03563543331732963 0.0 0.0
0.032661335971205775 -0.013635630700976618 0.0 -0.03609837066883465 0.0 0.0
0.03499356601130159 -0.01515123294569131 0.0 -0.03614600491801364 0.0 0.0
0.03859019608398823 -0.018759593143824745 0.0 -0.03332124361174752 0.0 0.0
0.0430512445656646 -0.024936445378806613 0.0 -0.02225922632626845 0.0 0.0
0.04530639874845028 -0.02941822898599697 0.0 1.2915016278647329e-15 0.0 0.0
0.043051244565664046 -0.024936445378805242 0.0 0.022259226326268852 0.0 0.0
0.03859019608398856 -0.018759593143827424 0.0 0.033321243611746036 0.0 0.0
0.03499356601130146 -0.015151232945683053 0.0 0.03614600491801302 0.0 0.0
0.03266133597120541 -0.013635630700980585 0.0 0.03609837066883277 0.0 0.0
0.03084901372269557 -0.012913833584893113 0.0 0.03563543331732866 0.0 0.0
0.029045297108695245 -0.0122837222110318 0.0 0.03532693820861371 0.0 0.0
0.027117963605453536 -0.01155515943437294 0.0 0.03517583638548511 0.0 0.0
0.025095985603128493 -0.010736898422354759 0.0 0.03511487363887671 0.0 0.0
0.023028514949664028 -0.009870915648213716 0.0 0.03509817124234049 0.0 0.0
0.02094595445837054 -0.008985880853299117 0.0 0.035100281804741826 0.0 0.0
0.018858589823540547 -0.00809104933268347 0.0 0.03510529816777719 0.0 0.0
0.016755774953969037 -0.007173172151486083 0.0 0.035091911059893975 0.0 0.0
0.014593911120859358 -0.0061848211460864295 0.0 0.03501279537542458 0.0 0.0
0.012269179139577226 -0.005026732473169378 0.0 0.03477410286757866 0.0 0.0
0.009563049856964803 -0.0035291107546732673 0.0 0.03425191143553598 0.0 0.0
0.0061231367432646065 -0.0014620690212073144 0.0 0.03358353584314111 0.0 0.0
0.002032581263114546 0.0009735277212461067 0.0 0.034222645975165195 0.0 0.0
-0.0001335232266108454 0.0007496689385075262 0.0 0.03873144031286848 0.0 0.0
0.004699031966919223 -0.011798657275511715 0.0 0.03825630807357046 0.0 0.0
0.009561861352727968 -0.04020756891345552 0.0 0.027697767513251988 0.0 0.0
0.008056255331832797 -0.03308961931440053 0.0 -0.025177542444253145 0.0 0.0
0.0036750979890252467 -0.011355283325071588 0.0 -0.037127604362368845 0.0 0.0
-0.0014708974486915796 0.0006494048345355793 0.0 -0.04078757911622087 0.0 0.0
-0.0009129304232313111 0.0021137138806156435 0.0 -0.03700651995055569 0.0 0.0
0.0018110079452763632 0.0004430531081304405 0.0 -0.03567710565276078 0.0 0.0
0.004216187513486662 -0.001194561541937182 0.0 -0.03577697298013238 0.0 0.0
0.005944217953652941 -0.0022988902826308363 0.0 -0.03603309061714904 0.0 0.0
0.007258236558914576 -0.003035447068197513 0.0 -0.03616632472337367 0.0 0.0
0.008385604101999755 -0.0035850296529790293 0.0 -0.036211784061458564 0.0 0.0
0.009444655684531759 -0.004056955934962082 0.0 -0.03622001310616265 0.0 0.0
0.0104854225608792 -0.004503317116734811 0.0 -0.036217631474706344 0.0 0.0
0.011520390303335681 -0.004938895259936953 0.0 -0.03621647432346635 0.0 0.0
0.012538349158246715 -0.00535380312834328 0.0 -0.03622473249060721 0.0 0.0
0.013505454614581925 -0.005717128279086405 0.0 -0.03625536744863407 0.0 0.0
0.014364524542141923 -0.005982097120145419 0.0 -0.036335240337869 0.0 0.0
0.015071818702155423 -0.006129334877426408 0.0 -0.03652605716459882 0.0 0.0
0.015761128114454227 -0.0063453719051776575 0.0 -0.03691351069527467 0.0 0.0
0.01706167653697703 -0.00742670773739282 0.0 -0.03720595346973045 0.0 0.0
0.020073456545925208 -0.011052538480257067 0.0 -0.0351374594599835 0.0 0.0
0.024692350716408355 -0.018275992490374975 0.0 -0.024358589588144117 0.0 0.0
0.027223994112767536 -0.024102319040993723 0.0 -1.2212453270876722e-15 0.0 0.0
0.02469235071640751 -0.018275992490374853 0.0 0.024358589588145664 0.0 0.0
0.02007345654592546 -0.011052538480261312 0.0 0.03513745945998392 0.0 0.0
0.017061676536976825 -0.007426707737388724 0.0 0.03720595346973461 0.0 0.0
0.015761128114453897 -0.006345371905184007 0.0 0.03691351069527576 0.0 0.0
0.015071818702155529 -0.0061293348774270895 0.0 0.03652605716459612 0.0 0.0
0.014364524542142156 -0.005982097120149503 0.0 0.036335240337869334 0.0 0.0
0.013505454614581998 -0.0057171282790860365 0.0 0.03625536744863398 0.0 0.0
0.012538349158246637 -0.005353803128343015 0.0 0.036224732490608036 0.0 0.0
0.011520390303335917 -0.0049388952599380845 0.0 0.03621647432346576 0.0 0.0
0.010485422560879296 -0.0045033171167380886 0.0 0.03621763147470787 0.0 0.0
0.009444655684531842 -0.004056955934962726 0.0 0.036220013106164184 0.0 0.0
0.008385604101999487 -0.003585029652978541 0.0 0.036211784061457475 0.0 0.0
0.007258236558914058 -0.0030354470681967873 0.0 0.03616632472337196 0.0 0.0
0.005944217953652957 -0.0022988902826285513 0.0 0.036033090617149925 0.0 0.0
0.0042161875134866566 -0.0011945615419402368 0.0 0.035776972980131126 0.0 0.0
0.0018110079452764206 0.00044305310813158306 0.0 0.03567710565276045 0.0 0.0
-0.0009129304232311123 0.0021137138806145007 0.0 0.03700651995055712 0.0 0.0
-0.0014708974486917722 0.0006494048345361144 0.0 0.04078757911622181 0.0 0.0
0.0036750979890252744 -0.011355283325072314 0.0 0.037127604362367665 0.0 0.0
0.008056255331833231 -0.033089619314400374 0.0 0.025177542444252746 0.0 0.0
0.006585211140402206 -0.026774422956465406 0.0 -0.022806480348994834 0.0 0.0
0.002628303253906942 -0.01045856361056012 0.0 -0.0354928025173345 0.0 0.0
-0.002744772609622215 0.0006795880065833634 0.0 -0.041602967350840805 0.0 0.0
-0.0036359659000324675 0.0030951470792397757 0.0 -0.03877940508008564 0.0 0.0
-0.002321120928843854 0.002211064542810129 0.0 -0.037020528300944586 0.0 0.0
-0.0010484121735311112 0.0010795787710975698 0.0 -0.03659373355487208 0.0 0.0
-0.00035415607103330413 0.0004081422523808448 0.0 -0.03656341316883408 0.0 0.0
-7.152038944509569e-05 0.00010815121418078152 0.0 -0.0365782905281024 0.0 0.0
1.4984850752584053e-05 2.784435175969132e-06 0.0 -0.03658536045270612 0.0 0.0
2.894492069249071e-05 -2.1799726420081882e-05 0.0 -0.03658712304976556 0.0 0.0
2.3383199254946177e-05 -1.9769019042478308e-05 0.0 -0.03658728706534366 0.0 0.0
1.1655195771202156e-05 -6.604759827363524e-06 0.0 -0.03658699262764254 0.0 0.0
-1.7621654194541637e-05 2.7702047190125722e-05 0.0 -0.03658591621018285 0.0 0.0
-9.927672291384763e-05 0.00011468827065842292 0.0 -0.0365836200234012 0.0 0.0
-0.000294692078194732 0.0003031535100018346 0.0 -0.03658557513550948 0.0 0.0
-0.0006636780661868702 0.0006238993403230323 0.0 -0.03663929200639366 0.0 0.0
-0.0010929304163144454 0.0009158529970745315 0.0 -0.03691551325904982 0.0 0.0
-0.0008697028091919877 0.00033474431526505147 0.0 -0.037481532355994815 0.0 0.0
0.0015031178859275319 -0.003202985237061984 0.0 -0.036486249314595647 0.0 0.0
0.006363231611011967 -0.011602571521433397 0.0 -0.026539937646683602 0.0 0.0
0.00926956234429593 -0.019245608488760002 0.0 -2.211772431870429e-15 0.0 0.0
0.006363231611011179 -0.011602571521428021 0.0 0.02653993764668415 0.0 0.0
0.0015031178859274182 -0.0032029852370613772 0.0 0.036486249314594495 0.0 0.0
-0.0008697028091916572 0.000334744315263763 0.0 0.03748153235599289 0.0 0.0
-0.0010929304163144159 0.0009158529970723883 0.0 0.03691551325904928 0.0 0.0
-0.0006636780661868819 0.0006238993403311996 0.0 0.03663929200639167 0.0 0.0
-0.0002946920781945908 0.0003031535099959639 0.0 0.036585575135509286 0.0 0.0
-9.927672291365399e-05 0.00011468827066126109 0.0 0.036583620023402 0.0 0.0
-1.7621654194217027e-05 2.7702047188305618e-05 0.0 0.036585916210183006 0.0 0.0
1.1655195771829692e-05 -6.604759830581273e-06 0.0 0.03658699262764099 0.0 0.0
2.3383199255097532e-05 -1.9769019039704702e-05 0.0 0.036587287065344164 0.0 0.0
2.894492069242154e-05 -2.1799726422486968e-05 0.0 0.036587123049766704 0.0 0.0
1.4984850752389005e-05 2.7844351745715955e-06 0.0 0.03658536045270625 0.0 0.0
-7.152038944530136e-05 0.0001081512141855693 0.0 0.03657829052810157 0.0 0.0
-0.00035415607103348996 0.00040814225238468494 0.0 0.03656341316883299 0.0 0.0
-0.0010484121735314118 0.001079578771096608 0.0 0.03659373355487186 0.0 0.0
-0.0023211209288435397 0.0022110645428090056 0.0 0.037020528300943996 0.0 0.0
-0.0036359659000321986 0.0030951470792414844 0.0 0.03877940508008579 0.0 0.0
-0.002744772609622237 0.0006795880065830519 0.0 0.04160296735084029 0.0 0.0
0.002628303253906949 -0.010458563610560799 0.0 0.035492802517334464 0.0 0.0
0.006585211140402167 -0.02677442295646522 0.0 0.022806480348994164 0.0 0.0
0.0051565206795262785 -0.02116636199536418 0.0 -0.020533143353531385 0.0 0.0
0.0015532989477385763 -0.009255522847487749 0.0 -0.033424369524377655 0.0 0.0
-0.004007897492841901 0.0008724946464502977 0.0 -0.041306385122958394 0.0 0.0
-0.006203755691139508 0.003981967780756982 0.0 -0.03950768152073536 0.0 0.0
-0.006299436559435787 0.0038604567409852913 0.0 -0.037535705887158106 0.0 0.0
-0.0062312574820234815 0.0032911470078392678 0.0 -0.03665990688368635 0.0 0.0
-0.006623164964067278 0.0030920465620668624 0.0 -0.03634996828084829 0.0 0.0
-0.007394347123494014 0.0032453622380514404 0.0 -0.03624410249372387 0.0 0.0
-0.008355862109462028 0.0035901117849145864 0.0 -0.03621187398646391 0.0 0.0
-0.00938852110231211 0.004014405789110345 0.0 -0.03620691488842972 0.0 0.0
-0.010440186902664845 0.0044647856365921095 0.0 -0.03620958592811338 0.0 0.0
-0.011497675823490032 0.004925948574018287 0.0 -0.03621020658849201 0.0 0.0
-0.012571824546686441 0.005407520006056574 0.0 -0.03619992288327628 0.0 0.0
-0.013696014986167994 0.005940125931524536 0.0 -0.03616496456487414 0.0 0.0
-0.014931129534424402 0.006571498826739095 0.0 -0.03608898365743786 0.0 0.0
-0.01635168632714114 0.0073417646309029624 0.0 -0.035995414171975985 0.0 0.0
-0.017890146493804 0.008136981583104264 0.0 -0.03611526235416465 0.0 0.0
-0.018807485149139904 0.00813523914054473 0.0 -0.03692950510442971 0.0 0.0
-0.0171802622611393 0.0048588893200698854 0.0 -0.037300890999518076 0.0 0.0
-0.012014643221140101 -0.004809687485048214 0.0 -0.02886302242276956 0.0 0.0
-0.008620874867093585 -0.01493010759392708 0.0 3.616898447411643e-16 0.0 0.0
-0.012014643221140566 -0.0048096874850516915 0.0 0.02886302242277034 0.0 0.0
-0.01718026226113957 0.0048588893200705785 0.0 0.03730089099951876 0.0 0.0
-0.01880748514913965 0.008135239140540484 0.0 0.03692950510443392 0.0 0.0
-0.017890146493804236 0.008136981583100342 0.0 0.03611526235416851 0.0 0.0
-0.016351686327141412 0.007341764630903969 0.0 0.035995414171976214 0.0 0.0
-0.014931129534424038 0.006571498826749407 0.0 0.0360889836574401 0.0 0.0
-0.013696014986167817 0.005940125931522673 0.0 0.03616496456487448 0.0 0.0
-0.012571824546686655 0.0054075200060544745 0.0 0.03619992288327676 0.0 0.0
-0.01149767582348979 0.004925948574017902 0.0 0.03621020658849082 0.0 0.0
-0.010440186902665032 0.004464785636593929 0.0 0.03620958592811162 0.0 0.0
-0.00938852110231239 0.0040144057891100425 0.0 0.03620691488842987 0.0 0.0
-0.008355862109462086 0.0035901117849144017 0.0 0.03621187398646291 0.0 0.0
-0.007394347123494009 0.0032453622380514188 0.0 0.03624410249372377 0.0 0.0
-0.006623164964067105 0.0030920465620670246 0.0 0.036349968280848036 0.0 0.0
-0.006231257482023729 0.003291147007840894 0.0 0.03665990688368714 0.0 0.0
-0.006299436559436166 0.0038604567409864215 0.0 0.03753570588715676 0.0 0.0
-0.006203755691139247 0.003981967780758255 0.0 0.03950768152073589 0.0 0.0
-0.004007897492841512 0.0008724946464498521 0.0 0.04130638512295617 0.0 0.0
0.0015532989477383343 -0.009255522847487437 0.0 0.03342436952437601 0.0 0.0
0.0051565206795256835 -0.021166361995364133 0.0 0.020533143353531385 0.0 0.0
0.003785192267806388 -0.016206854419395532 0.0 -0.018297126976718793 0.0 0.0
0.0004591487666556211 -0.00786194962310751 0.0 -0.030961365559349904 0.0 0.0
-0.005286962693000334 0.001230685478936064 0.0 -0.040009989729654055 0.0 0.0
-0.0086663816827229 0.004820492810605156 0.0 -0.039189979866439344 0.0 0.0
-0.010152421757630078 0.005413707539165564 0.0 -0.03716520153168359 0.0 0.0
-0.011339702358304686 0.005444224130995103 0.0 -0.03593559942831428 0.0 0.0
-0.012863550027919482 0.005753006931713002 0.0 -0.03537671834048114 0.0 0.0
-0.014710347253595844 0.006376339450167741 0.0 -0.0351589789709276 0.0 0.0
-0.016727011528129446 0.007177028017615104 0.0 -0.03509052246171639 0.0 0.0
-0.01880773773345537 0.00805165223412609 0.0 -0.03507965963352926 0.0 0.0
-0.020905272213078366 0.008950331342229403 0.0 -0.03508486810481255 0.0 0.0
-0.023007644671930536 0.009858799490812236 0.0 -0.03508658120527802 0.0 0.0
-0.02512444389910701 0.01078577966095032 0.0 -0.035068250666900114 0.0 0.0
-0.027285400160455872 0.01175958681747341 0.0 -0.03500366745728248 0.0 0.0
-0.02954569923938538 0.012824080592673112 0.0 -0.03485627172776288 0.0 0.0
-0.031988474058977416 0.014022725206393041 0.0 -0.03461827040570308 0.0 0.0
-0.034615024353089816 0.015303276071185562 0.0 -0.034533770509283815 0.0 0.0
-0.03674538154911993 0.01596103510562132 0.0 -0.03549698251658864 0.0 0.0
-0.03603394404851665 0.013201029114947166 0.0 -0.037460359097760604 0.0 0.0
-0.03053000569855023 0.0022477667583540406 0.0 -0.03137565981283736 0.0 0.0
-0.02652038554900786 -0.011282445586642842 0.0 -9.593020822151743e-16 0.0 0.0
-0.030530005698550605 0.002247766758360063 0.0 0.03137565981283758 0.0 0.0
-0.03603394404851693 0.013201029114948337 0.0 0.03746035909776301 0.0 0.0
-0.036745381549119945 0.015961035105620712 0.0 0.035496982516591516 0.0 0.0
-0.03461502435308959 0.015303276071178644 0.0 0.03453377050928339 0.0 0.0
-0.031988474058977506 0.014022725206387015 0.0 0.03461827040570355 0.0 0.0
-0.029545699239385513 0.012824080592678498 0.0 0.034856271727764614 0.0 0.0
-0.027285400160455803 0.011759586817468418 0.0 0.035003667457281534 0.0 0.0
-0.02512444389910663 0.010785779660953102 0.0 0.03506825066690162 0.0 0.0
-0.023007644671930165 0.009858799490808857 0.0 0.03508658120527562 0.0 0.0
-0.020905272213078394 0.008950331342231246 0.0 0.03508486810481346 0.0 0.0
-0.018807737733455426 0.008051652234122207 0.0 0.035079659633531504 0.0 0.0
-0.01672701152812977 0.007177028017614459 0.0 0.0350905224617174 0.0 0.0
-0.014710347253595862 0.00637633945016655 0.0 0.035158978970928616 0.0 0.0
-0.012863550027919415 0.005753006931713196 0.0 0.035376718340480756 0.0 0.0
-0.011339702358305021 0.005444224130993506 0.0 0.03593559942831388 0.0 0.0
-0.010152421757629784 0.0054137075391682 0.0 0.03716520153168358 0.0 0.0
-0.008666381682722345 0.004820492810604973 0.0 0.039189979866439385 0.0 0.0
-0.00528696269299989 0.001230685478936624 0.0 0.040009989729650544 0.0 0.0
0.0004591487666558496 -0.007861949623107517 0.0 0.03096136555934923 0.0 0.0
0.003785192267806326 -0.016206854419395546 0.0 0.018297126976719355 0.0 0.0
0.002490680526816082 -0.011868382170858567 0.0 -0.01604232812265222 0.0 0.0
-0.0006360823021011095 -0.006368268769649658 0.0 -0.02812402146926224 0.0 0.0
-0.006589719563872085 0.0017381202743996763 0.0 -0.03780528952951529 0.0 0.0
-0.011058474209456848 0.005640636529540902 0.0 -0.03783920247808832 0.0 0.0
-0.013907930568828882 0.006893777058199499 0.0 -0.03586764582783046 0.0 0.0
-0.016386175212956204 0.0075477775793524535 0.0 -0.03438615737620473 0.0 0.0
-0.019079408236743766 0.008393808690917237 0.0 -0.03362847673796173 0.0 0.0
-0.022020821785295693 0.009502062925678532 0.0 -0.03331849085213463 0.0 0.0
-0.0250988283954596 0.010763818734458497 0.0 -0.03322069051532051 0.0 0.0
-0.028228708848886237 0.01208993358851247 0.0 -0.0332056677686281 0.0 0.0
-0.03137181314703876 0.013436812240708489 0.0 -0.03321345922678107 0.0 0.0
-0.03451834496541518 0.014792012099719535 0.0 -0.03321648677613852 0.0 0.0
-0.037675940743882 0.01616285366674272 0.0 -0.033192192282491484 0.0 0.0
-0.04086879145466904 0.017573938098235504 0.0 -0.03310367271737821 0.0 0.0
-0.04414161034832709 0.019063520631340314 0.0 -0.03289687375154929 0.0 0.0
-0.047574071259073904 0.02066942258504988 0.0 -0.03253344481184975 0.0 0.0
-0.05124781560367225 0.022398423947937007 0.0 -0.032209731071527394 0.0 0.0
-0.0546569598975372 0.023775034743992972 0.0 -0.03313578358395177 0.0 0.0
-0.055107117528907346 0.021878827329246578 0.0 -0.03677170750404691 0.0 0.0
-0.049287167626996545 0.009774969870473658 0.0 -0.034095269559379075 0.0 0.0
-0.044521507378128586 -0.008487284809144336 0.0 -9.211381657436846e-16 0.0 0.0
-0.04928716762699714 0.009774969870482347 0.0 0.034095269559379575 0.0 0.0
-0.05510711752890764 0.021878827329251175 0.0 0.03677170750404308 0.0 0.0
-0.05465695989753694 0.023775034743992274 0.0 0.03313578358395406 0.0 0.0
-0.05124781560367217 0.02239842394793607 0.0 0.0322097310715284 0.0 0.0
-0.047574071259073945 0.020669422585054702 0.0 0.032533444811849443 0.0 0.0
-0.04414161034832711 0.01906352063132708 0.0 0.03289687375155024 0.0 0.0
-0.040868791454669026 0.017573938098237353 0.0 0.03310367271737757 0.0 0.0
-0.03767594074388208 0.01616285366674228 0.0 0.03319219228249365 0.0 0.0
-0.034518344965415386 0.014792012099713429 0.0 0.03321648677613643 0.0 0.0
-0.03137181314703866 0.013436812240712373 0.0 0.033213459226782246 0.0 0.0
-0.028228708848886078 0.012089933588511336 0.0 0.0332056677686281 0.0 0.0
-0.025098828395459693 0.010763818734455137 0.0 0.03322069051532254 0.0 0.0
-0.0220208217852956 0.009502062925681263 0.0 0.03331849085213492 0.0 0.0
-0.01907940823674364 0.008393808690918927 0.0 0.03362847673796218 0.0 0.0
-0.01638617521295674 0.00754777757935025 0.0 0.03438615737620328 0.0 0.0
-0.013907930568829469 0.006893777058200753 0.0 0.03586764582783218 0.0 0.0
-0.011058474209456869 0.0056406365295398695 0.0 0.03783920247808899 0.0 0.0
-0.006589719563871799 0.001738120274399797 0.0 0.03780528952951317 0.0 0.0
-0.0006360823021008805 -0.006368268769650274 0.0 0.02812402146926249 0.0 0.0
0.002490680526816084 -0.011868382170858371 0.0 0.016042328122652015 0.0 0.0
0.0012964735191084414 -0.00814888163437432 0.0 -0.01372553062085343 0.0 0.0
-0.001706975182525097 -0.004845685745505107 0.0 -0.024924914956891624 0.0 0.0
-0.007908712664612877 0.0023660623548567494 0.0 -0.03476232131009252 0.0 0.0
-0.013401386904359304 0.006458452720751077 0.0 -0.0354691830249509 0.0 0.0
-0.017592172303476664 0.008322727705032954 0.0 -0.03361245244214399 0.0 0.0
-0.02138690867211232 0.009614497497318662 0.0 -0.03198368154216705 0.0 0.0
-0.025277773557113557 0.011019603806434599 0.0 -0.03109258220279572 0.0 0.0
-0.02932820097723162 0.012624309310643117 0.0 -0.030719177045229938 0.0 0.0
-0.03347192917737827 0.014350937070636362 0.0 -0.03060214939189143 0.0 0.0
-0.037651424234601855 0.016129226890115977 0.0 -0.030585336681751736 0.0 0.0
-0.041839693514406175 0.01792412984643427 0.0 -0.030595649851799328 0.0 0.0
-0.04602989606914262 0.01972564577959136 0.0 -0.030600153492540645 0.0 0.0
-0.05022705142354609 0.02153935761210534 0.0 -0.030572572333592153 0.0 0.0
-0.054448075713113026 0.023384499584776168 0.0 -0.030468442463042505 0.0 0.0
-0.0587240929315931 0.02529320790800255 0.0 -0.030218287333282044 0.0 0.0
-0.06311461292697525 0.027290169467243282 0.0 -0.029763660109684297 0.0 0.0
-0.06776784009760634 0.029410448999498365 0.0 -0.029205499381270084 0.0 0.0
-0.07248692359543348 0.03150888429868333 0.0 -0.029831640960158636 0.0 0.0
-0.07442867141314741 0.03091274596403499 0.0 -0.03495054956719155 0.0 0.0
-0.06841261815368536 0.018068286445829577 0.0 -0.03696613018409371 0.0 0.0
-0.06275464421170676 -0.006802269351746959 0.0 5.091413401991929e-16 0.0 0.0
-0.06841261815368502 0.018068286445831066 0.0 0.03696613018409406 0.0 0.0
-0.07442867141314746 0.030912745964034573 0.0 0.03495054956719216 0.0 0.0
-0.07248692359543339 0.031508884298686715 0.0 0.0298316409601598 0.0 0.0
-0.06776784009760599 0.029410448999501675 0.0 0.029205499381268277 0.0 0.0
-0.063114612926975 0.0272901694672466 0.0 0.029763660109682476 0.0 0.0
-0.05872409293159356 0.025293207907998376 0.0 0.03021828733328042 0.0 0.0
-0.05444807571311264 0.023384499584781917 0.0 0.03046844246304125 0.0 0.0
-0.050227051423545666 0.02153935761209794 0.0 0.030572572333591494 0.0 0.0
-0.04602989606914265 0.019725645779595853 0.0 0.030600153492541263 0.0 0.0
-0.041839693514405724 0.017924129846435342 0.0 0.03059564985180121 0.0 0.0
-0.03765142423460137 0.01612922689011721 0.0 0.030585336681750855 0.0 0.0
-0.03347192917737807 0.014350937070632178 0.0 0.030602149391892174 0.0 0.0
-0.02932820097723156 0.012624309310644155 0.0 0.030719177045228883 0.0 0.0
-0.025277773557113768 0.011019603806433095 0.0 0.031092582202794386 0.0 0.0
-0.021386908672112515 0.009614497497318766 0.0 0.031983681542166874 0.0 0.0
-0.0175921723034768 0.00832272770503189 0.0 0.0336124524421439 0.0 0.0
-0.013401386904359524 0.006458452720751247 0.0 0.035469183024952736 0.0 0.0
-0.007908712664613213 0.002366062354856453 0.0 0.03476232131009258 0.0 0.0
-0.0017069751825255722 -0.004845685745505589 0.0 0.024924914956890372 0.0 0.0
0.0012964735191081222 -0.008148881634374177 0.0 0.013725530620853592 0.0 0.0
0.0002314830420476995 -0.005066273004415134 0.0 -0.011325289940297339 0.0 0.0
-0.0027194879420650324 -0.0033526275382468737 0.0 -0.021378281367464082 0.0 0.0
-0.009222277221303758 0.0030750576365845693 0.0 -0.030928081189734585 0.0 0.0
-0.015705562294693134 0.007279236147733462 0.0 -0.03208395751282848 0.0 0.0
-0.02123016774511449 0.009721989503984382 0.0 -0.0303753143901574 0.0 0.0
-0.026361192700385342 0.01165995063991379 0.0 -0.028707924447217627 0.0 0.0
-0.031468054150209944 0.013637455933212988 0.0 -0.027760288893185558 0.0 0.0
-0.036635836296344725 0.01574551284474396 0.0 -0.027359150497496747 0.0 0.0
-0.04184710089135682 0.017938937322182744 0.0 -0.027235228859735026 0.0 0.0
-0.047075823290186544 0.020169459489972143 0.0 -0.02721918620746976 0.0 0.0
-0.05230872869615918 0.0224121414220415 0.0 -0.027231657476548807 0.0 0.0
-0.0575423895552238 0.02465972326905875 0.0 -0.027237668222302027 0.0 0.0
-0.06277877171686175 0.026916039008961373 0.0 -0.02720953994628915 0.0 0.0
-0.06802558881339504 0.02919330168836319 0.0 -0.027100397690457485 0.0 0.0
-0.07329938460878599 0.031516197438727585 0.0 -0.026827127949699978 0.0 0.0
-0.07862451748713145 0.033898553109001174 0.0 -0.02632183077169575 0.0 0.0
-0.08416189565248204 0.0363436734429091 0.0 -0.025603181517678594 0.0 0.0
-0.0901419452307679 0.03905918640896988 0.0 -0.025658458279055198 0.0 0.0
-0.09398251855861578 0.04024317413933616 0.0 -0.03161294843350635 0.0 0.0
-0.08806214847009013 0.02755857392755388 0.0 -0.03976229420624633 0.0 0.0
-0.0814226687208343 -0.006567927216129394 0.0 2.112893193739751e-15 0.0 0.0
-0.08806214847008997 0.02755857392756241 0.0 0.0397622942062462 0.0 0.0
-0.09398251855861547 0.040243174139329124 0.0 0.031612948433505525 0.0 0.0
-0.09014194523076793 0.03905918640897915 0.0 0.025658458279054327 0.0 0.0
-0.08416189565248186 0.03634367344290655 0.0 0.025603181517678812 0.0 0.0
-0.07862451748713112 0.03389855310899248 0.0 0.026321830771696093 0.0 0.0
-0.0732993846087866 0.031516197438733164 0.0 0.026827127949698965 0.0 0.0
-0.06802558881339514 0.02919330168837131 0.0 0.027100397690457974 0.0 0.0
-0.06277877171686114 0.02691603900895572 0.0 0.027209539946288178 0.0 0.0
-0.05754238955522356 0.024659723269064127 0.0 0.02723766822230398 0.0 0.0
-0.05230872869615962 0.0224121414220397 0.0 0.027231657476549397 0.0 0.0
-0.04707582329018651 0.02016945948996596 0.0 0.027219186207469326 0.0 0.0
-0.04184710089135681 0.01793893732218474 0.0 0.027235228859735845 0.0 0.0
-0.036635836296344614 0.015745512844742886 0.0 0.027359150497499853 0.0 0.0
-0.03146805415020911 0.013637455933213955 0.0 0.02776028889318343 0.0 0.0
-0.026361192700385422 0.011659950639914173 0.0 0.028707924447218258 0.0 0.0
-0.021230167745114735 0.009721989503982453 0.0 0.030375314390155443 0.0 0.0
-0.015705562294693082 0.007279236147733554 0.0 0.03208395751282928 0.0 0.0
-0.009222277221303676 0.0030750576365844813 0.0 0.030928081189734467 0.0 0.0
-0.0027194879420644846 -0.0033526275382474323 0.0 0.021378281367463683 0.0 0.0
0.00023148304204843455 -0.0050662730044150305 0.0 0.011325289940296617 0.0 0.0
-0.000666463296304788 -0.0026523712670386886 0.0 -0.008855738348176951 0.0 0.0
-0.0036266657603833278 -0.001942578824884589 0.0 -0.017508579493267555 0.0 0.0
-0.010493194005420581 0.003813863432452617 0.0 -0.026320654984716464 0.0 0.0
-0.01797335549591674 0.008101456804384921 0.0 -0.027668265594479664 0.0 0.0
-0.024847439030343324 0.011113890223538711 0.0 -0.026135582204393777 0.0 0.0
-0.03133101132394197 0.013701943649848704 0.0 -0.02454708257671227 0.0 0.0
-0.037661373802570945 0.016255753309037124 0.0 -0.02362782758117905 0.0 0.0
-0.04394768035854942 0.018868529093455346 0.0 -0.023238624484411996 0.0 0.0
-0.05022517774447061 0.021528378127639396 0.0 -0.02312093991396011 0.0 0.0
-0.05650174454396151 0.024210474307521927 0.0 -0.02310787345999013 0.0 0.0
-0.06277865775443087 0.026900634086586325 0.0 -0.023121604060917192 0.0 0.0
-0.06905583700209339 0.029594276396725627 0.0 -0.023128876833763346 0.0 0.0
-0.07533220873785297 0.03229344934123355 0.0 -0.02310282897762487 0.0 0.0
-0.08160440390418784 0.03500347801711687 0.0 -0.022999297094291476 0.0 0.0
-0.08787311379521724 0.037735108470534955 0.0 -0.022731489146457513 0.0 0.0
-0.09412611616628364 0.04050750551966734 0.0 -0.022208490908630137 0.0 0.0
-0.10044079401800088 0.04323725599042209 0.0 -0.02147224186986165 0.0 0.0
-0.10748670621980692 0.04630219301805835 0.0 -0.020864360997107596 0.0 0.0
-0.11365840424819978 0.04964118135646362 0.0 -0.026328181143553165 0.0 0.0
-0.10842495774225744 0.03886475366711334 0.0 -0.04186190305145064 0.0 0.0
-0.10086976746544504 -0.008190880832640258 0.0 1.2836953722228372e-15 0.0 0.0
-0.1084249577422578 0.038864753667109356 0.0 0.04186190305145089 0.0 0.0
-0.11365840424819995 0.04964118135645942 0.0 0.026328181143553397 0.0 0.0
-0.10748670621980658 0.046302193018059774 0.0 0.02086436099710645 0.0 0.0
-0.10044079401800027 0.04323725599041909 0.0 0.02147224186986203 0.0 0.0
-0.09412611616628334 0.040507505519660064 0.0 0.022208490908633183 0.0 0.0
-0.08787311379521778 0.0377351084705359 0.0 0.022731489146460587 0.0 0.0
-0.08160440390418802 0.0350034780171216 0.0 0.02299929709429231 0.0 0.0
-0.07533220873785265 0.03229344934123602 0.0 0.023102828977624976 0.0 0.0
-0.06905583700209378 0.02959427639672217 0.0 0.023128876833763214 0.0 0.0
-0.0627786577544315 0.02690063408659088 0.0 0.023121604060917803 0.0 0.0
-0.05650174454396095 0.024210474307515856 0.0 0.023107873459990155 0.0 0.0
-0.05022517774447034 0.021528378127641336 0.0 0.023120939913959686 0.0 0.0
-0.04394768035854974 0.01886852909345781 0.0 0.02323862448441446 0.0 0.0
-0.037661373802570695 0.016255753309038334 0.0 0.02362782758117816 0.0 0.0
-0.03133101132394179 0.013701943649850216 0.0 0.024547082576710236 0.0 0.0
-0.024847439030343314 0.0111138902235395 0.0 0.026135582204394145 0.0 0.0
-0.017973355495916683 0.008101456804384273 0.0 0.027668265594479633 0.0 0.0
-0.010493194005420453 0.0038138634324534166 0.0 0.026320654984717508 0.0 0.0
-0.0036266657603827943 -0.001942578824885717 0.0 0.017508579493267618 0.0 0.0
-0.0006664632963041847 -0.002652371267038596 0.0 0.008855738348176722 0.0 0.0
-0.0013436978108299614 -0.0009447993442352118 0.0 -0.006391863242815222 0.0 0.0
-0.004360210865956722 -0.0006757909015402071 0.0 -0.013358701944265442 0.0 0.0
-0.011665289463672464 0.004516145740358745 0.0 -0.020914099490199813 0.0 0.0
-0.02020315257722246 0.00892260569878217 0.0 -0.022179379192095637 0.0 0.0
-0.02847276794776852 0.01252396903665237 0.0 -0.020876581325353 0.0 0.0
-0.03632079207388891 0.015759856001952708 0.0 -0.019498591644049646 0.0 0.0
-0.043869837599819814 0.01888357470975073 0.0 -0.018697207986170743 0.0 0.0
-0.05126788612083897 0.021996315812864056 0.0 -0.018360290568395905 0.0 0.0
-0.058606878391447154 0.025119689387783785 0.0 -0.018261039298793014 0.0 0.0
-0.06592887347411612 0.028252017066734234 0.0 -0.018252134047867696 0.0 0.0
-0.07324910922896788 0.03138925119226048 0.0 -0.01826562327713141 0.0 0.0
-0.08057021691877442 0.03452943659528594 0.0 -0.01827302402761582 0.0 0.0
-0.08788815181502627 0.037671800790368505 0.0 -0.018252401887518623 0.0 0.0
-0.09518885202699036 0.04081821942046781 0.0 -0.01816146750205605 0.0 0.0
-0.10244986025957023 0.04395676698154344 0.0 -0.01793650390044339 0.0 0.0
-0.10964181025150141 0.04711449295949379 0.0 -0.017434628210452677 0.0 0.0
-0.11666494955405715 0.05017846710691669 0.0 -0.016785181252659622 0.0 0.0
-0.12436332497460398 0.05316884686836791 0.0 -0.015947181327372318 0.0 0.0
-0.13315427016768264 0.05853503842377916 0.0 -0.018907797568149726 0.0 0.0
-0.12971150969918147 0.052834656175406905 0.0 -0.04169443155285159 0.0 0.0
-0.12172733129929522 -0.012032553654612378 0.0 -3.937822290467352e-16 0.0 0.0
-0.12971150969918144 0.05283465617540438 0.0 0.041694431552850665 0.0 0.0
-0.13315427016768283 0.0585350384237774 0.0 0.018907797568152328 0.0 0.0
-0.12436332497460378 0.05316884686836526 0.0 0.015947181327370656 0.0 0.0
-0.11666494955405704 0.05017846710691083 0.0 0.016785181252657967 0.0 0.0
-0.10964181025150163 0.04711449295949518 0.0 0.01743462821045275 0.0 0.0
-0.10244986025957026 0.04395676698152831 0.0 0.017936503900443785 0.0 0.0
-0.09518885202699032 0.040818219420469495 0.0 0.018161467502056338 0.0 0.0
-0.08788815181502603 0.037671800790367645 0.0 0.0182524018875205 0.0 0.0
-0.08057021691877449 0.034529436595287705 0.0 0.018273024027615943 0.0 0.0
-0.07324910922896798 0.03138925119226335 0.0 0.01826562327713245 0.0 0.0
-0.06592887347411606 0.028252017066734213 0.0 0.01825213404786491 0.0 0.0
-0.05860687839144764 0.02511968938778369 0.0 0.018261039298791745 0.0 0.0
-0.051267886120838824 0.02199631581286941 0.0 0.01836029056839888 0.0 0.0
-0.04386983759981902 0.01888357470975061 0.0 0.018697207986171454 0.0 0.0
-0.03632079207388857 0.015759856001953104 0.0 0.01949859164404743 0.0 0.0
-0.02847276794776856 0.012523969036650342 0.0 0.020876581325353166 0.0 0.0
-0.020203152577222647 0.008922605698782162 0.0 0.022179379192094707 0.0 0.0
-0.011665289463672924 0.004516145740359359 0.0 0.02091409949019933 0.0 0.0
-0.004360210865956685 -0.0006757909015408747 0.0 0.013358701944265722 0.0 0.0
-0.0013436978108294297 -0.0009447993442351195 0.0 0.006391863242813816 0.0 0.0
-0.0017171549757573792 2.5448009152496677e-05 0.0 -0.004118300856089415 0.0 0.0
-0.004815245759287494 0.0003600850762516498 0.0 -0.008996692738274205 0.0 0.0
-0.012658537627568167 0.005096555304114262 0.0 -0.014604847257853451 0.0 0.0
-0.022396414447169003 0.009749054632660037 0.0 -0.015544426756660693 0.0 0.0
-0.03214163190500237 0.013982929991146698 0.0 -0.014589098697381078 0.0 0.0
-0.04135690817760277 0.017853818821740274 0.0 -0.013569695215325724 0.0 0.0
-0.05010576487486384 0.0215300836519504 0.0 -0.012976986110829675 0.0 0.0
-0.0586003425620385 0.025131510609762018 0.0 -0.012729436915584058 0.0 0.0
-0.06699260520020851 0.028713053414758737 0.0 -0.012657993789966755 0.0 0.0
-0.07535671974839914 0.03229365414098039 0.0 -0.012652795791872609 0.0 0.0
-0.0837195089416672 0.035877655900147416 0.0 -0.012663580211783551 0.0 0.0
-0.09208558944090622 0.03946480361220971 0.0 -0.01266973354779641 0.0 0.0
-0.10044684729589688 0.04305277472150367 0.0 -0.012655055052803005 0.0 0.0
-0.1087832872152756 0.04663548135950951 0.0 -0.012590348113019439 0.0 0.0
-0.11703884709004356 0.0502018258469629 0.0 -0.012414884822257994 0.0 0.0
-0.12517394160139184 0.05369556133117511 0.0 -0.0120804406326681 0.0 0.0
-0.13296409045616991 0.05724413171177897 0.0 -0.011356859114828784 0.0 0.0
-0.14068769326601252 0.059897447890992814 0.0 -0.011391973592570388 0.0 0.0
-0.15178424143562766 0.06568584535127053 0.0 -0.010566410131285744 0.0 0.0
-0.1520784250066031 0.07046405462274186 0.0 -0.03527826872815553 0.0 0.0
-0.1452478298195188 -0.01798604217353893 0.0 1.457167719820518e-15 0.0 0.0
-0.1520784250066028 0.07046405462275002 0.0 0.035278268728154184 0.0 0.0
-0.1517842414356276 0.06568584535127862 0.0 0.010566410131286983 0.0 0.0
-0.14068769326601302 0.05989744789098704 0.0 0.011391973592570694 0.0 0.0
-0.1329640904561699 0.057244131711778015 0.0 0.011356859114827797 0.0 0.0
-0.12517394160139128 0.05369556133117481 0.0 0.012080440632667076 0.0 0.0
-0.1170388470900436 0.050201825846956115 0.0 0.012414884822257943 0.0 0.0
-0.10878328721527608 0.04663548135951198 0.0 0.012590348113023609 0.0 0.0
-0.10044684729589662 0.04305277472150435 0.0 0.012655055052803756 0.0 0.0
-0.09208558944090608 0.03946480361221241 0.0 0.012669733547795135 0.0 0.0
-0.08371950894166738 0.035877655900146604 0.0 0.012663580211784235 0.0 0.0
-0.0753567197483991 0.032293654140982994 0.0 0.012652795791868683 0.0 0.0
-0.06699260520020849 0.028713053414761623 0.0 0.012657993789967797 0.0 0.0
-0.058600342562038034 0.025131510609762778 0.0 0.012729436915585824 0.0 0.0
-0.050105764874864095 0.021530083651953195 0.0 0.012976986110826934 0.0 0.0
-0.041356908177602736 0.01785381882174096 0.0 0.013569695215325292 0.0 0.0
-0.03214163190500178 0.013982929991143974 0.0 0.01458909869738045 0.0 0.0
-0.02239641444716899 0.009749054632659923 0.0 0.01554442675666258 0.0 0.0
-0.012658537627568052 0.005096555304113707 0.0 0.014604847257852292 0.0 0.0
-0.004815245759287498 0.00036008507625175687 0.0 0.008996692738274326 0.0 0.0
-0.0017171549757574846 2.5448009152536914e-05 0.0 0.004118300856088725 0.0 0.0
-0.0016470200571564201 0.00025516622393312067 0.0 -0.002425642413545479 0.0 0.0
-0.004822614963338419 0.001009672472132006 0.0 -0.004517187251263958 0.0 0.0
-0.013364493573567005 0.005450908991918627 0.0 -0.007138594002066738 0.0 0.0
-0.02457050227114333 0.010613351949574511 0.0 -0.007680759571546275 0.0 0.0
-0.03589896741808145 0.015524997620135067 0.0 -0.007271626694424576 0.0 0.0
-0.04646675255079154 0.020004734735154454 0.0 -0.006779807062747444 0.0 0.0
-0.056380952810376445 0.024203578491577477 0.0 -0.0064824294143173335 0.0 0.0
-0.0659481123721071 0.028276039688289907 0.0 -0.006353900120500568 0.0 0.0
-0.07538227381211783 0.032308249886770786 0.0 -0.006314851199479357 0.0 0.0
-0.08478451161892835 0.03633478899821533 0.0 -0.006310640619817621 0.0 0.0
-0.09418928509441686 0.04036533338744524 0.0 -0.006315311147064961 0.0 0.0
-0.10360131696944273 0.04440027586666418 0.0 -0.006317888510012409 0.0 0.0
-0.11301023152643086 0.048435876316008764 0.0 -0.00630941624540515 0.0 0.0
-0.12238537581035575 0.0524615870680418 0.0 -0.00627623876450375 0.0 0.0
-0.13166660645756936 0.056454987826125014 0.0 -0.006184387583506833 0.0 0.0
-0.14069428843127882 0.06036028369680592 0.0 -0.006018459771187201 0.0 0.0
-0.14946534862295696 0.0640924099789895 0.0 -0.005712350106922198 0.0 0.0
-0.15677382361651743 0.06778043567276437 0.0 -0.005310296328593555 0.0 0.0
-0.16811544983485635 0.06865729951530475 0.0 -0.0083751343431089 0.0 0.0
-0.17532220059964954 0.09223535959924162 0.0 -0.011953365165786656 0.0 0.0
-0.17414476004920346 -0.02400172599801718 0.0 -5.342948306008566e-16 0.0 0.0
-0.17532220059964918 0.0922353595992431 0.0 0.011953365165787082 0.0 0.0
-0.16811544983485582 0.06865729951531022 0.0 0.008375134343107903 0.0 0.0
-0.1567738236165175 0.06778043567276808 0.0 0.005310296328591684 0.0 0.0
-0.1494653486229572 0.06409240997900091 0.0 0.005712350106923565 0.0 0.0
-0.1406942884312785 0.06036028369679597 0.0 0.0060184597711875395 0.0 0.0
-0.13166660645756897 0.056454987826132966 0.0 0.006184387583503821 0.0 0.0
-0.122385375810356 0.05246158706804016 0.0 0.006276238764505292 0.0 0.0
-0.11301023152643082 0.04843587631601304 0.0 0.006309416245407706 0.0 0.0
-0.10360131696944218 0.0444002758666689 0.0 0.0063178885100109525 0.0 0.0
-0.09418928509441653 0.0403653333874447 0.0 0.006315311147064186 0.0 0.0
-0.08478451161892843 0.0363347889982185 0.0 0.006310640619815774 0.0 0.0
-0.07538227381211797 0.03230824988676842 0.0 0.006314851199480404 0.0 0.0
-0.06594811237210713 0.02827603968829065 0.0 0.006353900120499761 0.0 0.0
-0.05638095281037607 0.0242035784915805 0.0 0.00648242941431633 0.0 0.0
-0.046466752550791315 0.02000473473515443 0.0 0.006779807062746095 0.0 0.0
-0.035898967418081296 0.015524997620133912 0.0 0.0072716266944244535 0.0 0.0
-0.024570502271143203 0.01061335194957272 0.0 0.007680759571545971 0.0 0.0
-0.01336449357356736 0.005450908991918463 0.0 0.007138594002067016 0.0 0.0
-0.0048226149633381725 0.001009672472132623 0.0 0.004517187251262879 0.0 0.0
-0.0016470200571555087 0.0002551662239330285 0.0 0.0024256424135462888 0.0 0.0
-0.0008804288684385461 0.00018707224230037132 0.0 -0.0016254701949593277 0.0 0.0
-0.004096485557364259 0.0012125559406272154 0.0 -0.001909170261728618 0.0 0.0
-0.013648059229834034 0.005557497484695363 0.0 -0.0024296982141431374 0.0 0.0
-0.026781848277264205 0.011061356371179455 0.0 -0.002709026625612556 0.0 0.0
-0.039797082225332917 0.016321161106841325 0.0 -0.0026883930999213115 0.0 0.0
-0.051678657020965885 0.021097121083052436 0.0 -0.002563292600234235 0.0 0.0
-0.06270549298688335 0.025548014275134756 0.0 -0.0024676938252660855 0.0 0.0
-0.07331293061761254 0.029850824854849276 0.0 -0.002418372239385347 0.0 0.0
-0.08377510895606975 0.03410624650408272 0.0 -0.002399481374175204 0.0 0.0
-0.09421122681639856 0.038355152450644 0.0 -0.002394727558228972 0.0 0.0
-0.10465760687751223 0.042608889202141405 0.0 -0.002394552406877661 0.0 0.0
-0.11511714401896067 0.04686813782762377 0.0 -0.00239417126015813 0.0 0.0
-0.1255773333179599 0.051127425577440135 0.0 -0.002389287358145493 0.0 0.0
-0.13600297549668064 0.05537926905264247 0.0 -0.0023761391666107193 0.0 0.0
-0.14631517388065066 0.0595759826889096 0.0 -0.002344473127888571 0.0 0.0
-0.15633795124105884 0.06374503974434496 0.0 -0.0022832086182269715 0.0 0.0
-0.1657696707403795 0.06737161001869339 0.0 -0.0023454733427931643 0.0 0.0
-0.1742965173031392 0.07227262026071035 0.0 -0.0015958553960445758 0.0 0.0
-0.17937693320321366 0.06869880200552705 0.0 -0.007835886296941975 0.0 0.0
-0.19770464515647437 0.10414919778915108 0.0 -3.527757220646993e-05 0.0 0.0
-0.21495541130772738 -0.026576033707263563 0.0 -2.040034807748725e-15 0.0 0.0
-0.19770464515647287 0.10414919778915073 0.0 3.527757220502317e-05 0.0 0.0
-0.17937693320321285 0.0686988020055217 0.0 0.0078358862969461 0.0 0.0
-0.17429651730313886 0.07227262026073145 0.0 0.001595855396046078 0.0 0.0
-0.1657696707403793 0.06737161001870512 0.0 0.002345473342794519 0.0 0.0
-0.15633795124106 0.06374503974433332 0.0 0.0022832086182289664 0.0 0.0
-0.14631517388065063 0.05957598268891244 0.0 0.002344473127885594 0.0 0.0
-0.13600297549667945 0.055379269052640324 0.0 0.0023761391666133995 0.0 0.0
-0.12557733331796012 0.0511274255774434 0.0 0.0023892873581504437 0.0 0.0
-0.11511714401896175 0.04686813782763116 0.0 0.0023941712601583728 0.0 0.0
-0.1046576068775128 0.042608889202141155 0.0 0.002394552406875883 0.0 0.0
-0.09421122681639875 0.0383551524506451 0.0 0.0023947275582300274 0.0 0.0
-0.08377510895606995 0.034106246504077106 0.0 0.0023994813741769396 0.0 0.0
-0.07331293061761211 0.029850824854854453 0.0 0.0024183722393824898 0.0 0.0
-0.06270549298688272 0.02554801427513595 0.0 0.002467693825265717 0.0 0.0
-0.05167865702096586 0.021097121083048512 0.0 0.0025632926002308867 0.0 0.0
-0.039797082225333395 0.016321161106838927 0.0 0.002688393099922119 0.0 0.0
-0.026781848277264028 0.011061356371174422 0.0 0.0027090266256099838 0.0 0.0
-0.013648059229833458 0.00555749748469627 0.0 0.0024296982141452893 0.0 0.0
-0.004096485557364173 0.0012125559406280348 0.0 0.0019091702617278173 0.0 0.0
-0.000880428868438417 0.00018707224230035983 0.0 0.0016254701949589537 0.0 0.0