# vtk DataFile Version 3.0
Some data
ASCII
DATASET UNSTRUCTURED_GRID
POINTS 861 float
0.0 0.0 0.0
0.4 0.0 0.0
0.8 0.0 0.0
1.2000000000000002 0.0 0.0
1.6 0.0 0.0
2.0 0.0 0.0
2.4000000000000004 0.0 0.0
2.8000000000000003 0.0 0.0
3.2 0.0 0.0
3.6 0.0 0.0
4.0 0.0 0.0
4.4 0.0 0.0
4.800000000000001 0.0 0.0
5.2 0.0 0.0
5.6000000000000005 0.0 0.0
6.0 0.0 0.0
6.4 0.0 0.0
6.800000000000001 0.0 0.0
7.2 0.0 0.0
7.6000000000000005 0.0 0.0
8.0 0.0 0.0
8.4 0.0 0.0
8.8 0.0 0.0
9.200000000000001 0.0 0.0
9.600000000000001 0.0 0.0
10.0 0.0 0.0
10.4 0.0 0.0
10.8 0.0 0.0
11.200000000000001 0.0 0.0
11.600000000000001 0.0 0.0
12.0 0.0 0.0
12.4 0.0 0.0
12.8 0.0 0.0
13.200000000000001 0.0 0.0
13.600000000000001 0.0 0.0
14.0 0.0 0.0
14.4 0.0 0.0
14.8 0.0 0.0
15.200000000000001 0.0 0.0
15.600000000000001 0.0 0.0
16.0 0.0 0.0
0.0 0.1 0.0
0.4 0.1 0.0
0.8 0.1 0.0
1.2000000000000002 0.1 0.0
1.6 0.1 0.0
2.0 0.1 0.0
2.4000000000000004 0.1 0.0
2.8000000000000003 0.1 0.0
3.2 0.1 0.0
3.6 0.1 0.0
4.0 0.1 0.0
4.4 0.1 0.0
4.800000000000001 0.1 0.0
5.2 0.1 0.0
5.6000000000000005 0.1 0.0
6.0 0.1 0.0
6.4 0.1 0.0
6.800000000000001 0.1 0.0
7.2 0.1 0.0
7.6000000000000005 0.1 0.0
8.0 0.1 0.0
8.4 0.1 0.0
8.8 0.1 0.0
9.200000000000001 0.1 0.0
9.600000000000001 0.1 0.0
10.0 0.1 0.0
10.4 0.1 0.0
10.8 0.1 0.0
11.200000000000001 0.1 0.0
11.600000000000001 0.1 0.0
12.0 0.1 0.0
12.4 0.1 0.0
12.8 0.1 0.0
13.200000000000001 0.1 0.0
13.600000000000001 0.1 0.0
14.0 0.1 0.0
14.4 0.1 0.0
14.8 0.1 0.0
15.200000000000001 0.1 0.0
15.600000000000001 0.1 0.0
16.0 0.1 0.0
0.0 0.2 0.0
0.4 0.2 0.0
0.8 0.2 0.0
1.2000000000000002 0.2 0.0
1.6 0.2 0.0
2.0 0.2 0.0
2.4000000000000004 0.2 0.0
2.8000000000000003 0.2 0.0
3.2 0.2 0.0
3.6 0.2 0.0
4.0 0.2 0.0
4.4 0.2 0.0
4.800000000000001 0.2 0.0
5.2 0.2 0.0
5.6000000000000005 0.2 0.0
6.0 0.2 0.0
6.4 0.2 0.0
6.800000000000001 0.2 0.0
7.2 0.2 0.0
7.6000000000000005 0.2 0.0
8.0 0.2 0.0
8.4 0.2 0.0
8.8 0.2 0.0
9.200000000000001 0.2 0.0
9.600000000000001 0.2 0.0
10.0 0.2 0.0
10.4 0.2 0.0
10.8 0.2 0.0
11.200000000000001 0.2 0.0
11.600000000000001 0.2 0.0
12.0 0.2 0.0
12.4 0.2 0.0
12.8 0.2 0.0
13.200000000000001 0.2 0.0
13.600000000000001 0.2 0.0
14.0 0.2 0.0
14.4 0.2 0.0
14.8 0.2 0.0
15.200000000000001 0.2 0.0
15.600000000000001 0.2 0.0
16.0 0.2 0.0
0.0 0.30000000000000004 0.0
0.4 0.30000000000000004 0.0
0.8 0.30000000000000004 0.0
1.2000000000000002 0.30000000000000004 0.0
1.6 0.30000000000000004 0.0
2.0 0.30000000000000004 0.0
2.4000000000000004 0.30000000000000004 0.0
2.8000000000000003 0.30000000000000004 0.0
3.2 0.30000000000000004 0.0
3.6 0.30000000000000004 0.0
4.0 0.30000000000000004 0.0
4.4 0.30000000000000004 0.0
4.800000000000001 0.30000000000000004 0.0
5.2 0.30000000000000004 0.0
5.6000000000000005 0.30000000000000004 0.0
6.0 0.30000000000000004 0.0
6.4 0.30000000000000004 0.0
6.800000000000001 0.30000000000000004 0.0
7.2 0.30000000000000004 0.0
7.6000000000000005 0.30000000000000004 0.0
8.0 0.30000000000000004 0.0
8.4 0.30000000000000004 0.0
8.8 0.30000000000000004 0.0
9.200000000000001 0.30000000000000004 0.0
9.600000000000001 0.30000000000000004 0.0
10.0 0.30000000000000004 0.0
10.4 0.30000000000000004 0.0
10.8 0.30000000000000004 0.0
11.200000000000001 0.30000000000000004 0.0
11.600000000000001 0.30000000000000004 0.0
12.0 0.30000000000000004 0.0
12.4 0.30000000000000004 0.0
12.8 0.30000000000000004 0.0
13.200000000000001 0.30000000000000004 0.0
13.600000000000001 0.30000000000000004 0.0
14.0 0.30000000000000004 0.0
14.4 0.30000000000000004 0.0
14.8 0.30000000000000004 0.0
15.200000000000001 0.30000000000000004 0.0
15.600000000000001 0.30000000000000004 0.0
16.0 0.30000000000000004 0.0
0.0 0.4 0.0
0.4 0.4 0.0
0.8 0.4 0.0
1.2000000000000002 0.4 0.0
1.6 0.4 0.0
2.0 0.4 0.0
2.4000000000000004 0.4 0.0
2.8000000000000003 0.4 0.0
3.2 0.4 0.0
3.6 0.4 0.0
4.0 0.4 0.0
4.4 0.4 0.0
4.800000000000001 0.4 0.0
5.2 0.4 0.0
5.6000000000000005 0.4 0.0
6.0 0.4 0.0
6.4 0.4 0.0
6.800000000000001 0.4 0.0
7.2 0.4 0.0
7.6000000000000005 0.4 0.0
8.0 0.4 0.0
8.4 0.4 0.0
8.8 0.4 0.0
9.200000000000001 0.4 0.0
9.600000000000001 0.4 0.0
10.0 0.4 0.0
10.4 0.4 0.0
10.8 0.4 0.0
11.200000000000001 0.4 0.0
11.600000000000001 0.4 0.0
12.0 0.4 0.0
12.4 0.4 0.0
12.8 0.4 0.0
13.200000000000001 0.4 0.0
13.600000000000001 0.4 0.0
14.0 0.4 0.0
14.4 0.4 0.0
14.8 0.4 0.0
15.200000000000001 0.4 0.0
15.600000000000001 0.4 0.0
16.0 0.4 0.0
0.0 0.5 0.0
0.4 0.5 0.0
0.8 0.5 0.0
1.2000000000000002 0.5 0.0
1.6 0.5 0.0
2.0 0.5 0.0
2.4000000000000004 0.5 0.0
2.8000000000000003 0.5 0.0
3.2 0.5 0.0
3.6 0.5 0.0
4.0 0.5 0.0
4.4 0.5 0.0
4.800000000000001 0.5 0.0
5.2 0.5 0.0
5.6000000000000005 0.5 0.0
6.0 0.5 0.0
6.4 0.5 0.0
6.800000000000001 0.5 0.0
7.2 0.5 0.0
7.6000000000000005 0.5 0.0
8.0 0.5 0.0
8.4 0.5 0.0
8.8 0.5 0.0
9.200000000000001 0.5 0.0
9.600000000000001 0.5 0.0
10.0 0.5 0.0
10.4 0.5 0.0
10.8 0.5 0.0
11.200000000000001 0.5 0.0
11.600000000000001 0.5 0.0
12.0 0.5 0.0
12.4 0.5 0.0
12.8 0.5 0.0
13.200000000000001 0.5 0.0
13.600000000000001 0.5 0.0
14.0 0.5 0.0
14.4 0.5 0.0
14.8 0.5 0.0
15.200000000000001 0.5 0.0
15.600000000000001 0.5 0.0
16.0 0.5 0.0
0.0 0.6000000000000001 0.0
0.4 0.6000000000000001 0.0
0.8 0.6000000000000001 0.0
1.2000000000000002 0.6000000000000001 0.0
1.6 0.6000000000000001 0.0
2.0 0.6000000000000001 0.0
2.4000000000000004 0.6000000000000001 0.0
2.8000000000000003 0.6000000000000001 0.0
3.2 0.6000000000000001 0.0
3.6 0.6000000000000001 0.0
4.0 0.6000000000000001 0.0
4.4 0.6000000000000001 0.0
4.800000000000001 0.6000000000000001 0.0
5.2 0.6000000000000001 0.0
5.6000000000000005 0.6000000000000001 0.0
6.0 0.6000000000000001 0.0
6.4 0.6000000000000001 0.0
6.800000000000001 0.6000000000000001 0.0
7.2 0.6000000000000001 0.0
7.6000000000000005 0.6000000000000001 0.0
8.0 0.6000000000000001 0.0
8.4 0.6000000000000001 0.0
8.8 0.6000000000000001 0.0
9.200000000000001 0.6000000000000001 0.0
9.600000000000001 0.6000000000000001 0.0
10.0 0.6000000000000001 0.0
10.4 0.6000000000000001 0.0
10.8 0.6000000000000001 0.0
11.200000000000001 0.6000000000000001 0.0
11.600000000000001 0.6000000000000001 0.0
12.0 0.6000000000000001 0.0
12.4 0.6000000000000001 0.0
12.8 0.6000000000000001 0.0
13.200000000000001 0.6000000000000001 0.0
13.600000000000001 0.6000000000000001 0.0
14.0 0.6000000000000001 0.0
14.4 0.6000000000000001 0.0
14.8 0.6000000000000001 0.0
15.200000000000001 0.6000000000000001 0.0
15.600000000000001 0.6000000000000001 0.0
16.0 0.6000000000000001 0.0
0.0 0.7000000000000001 0.0
0.4 0.7000000000000001 0.0
0.8 0.7000000000000001 0.0
1.2000000000000002 0.7000000000000001 0.0
1.6 0.7000000000000001 0.0
2.0 0.7000000000000001 0.0
2.4000000000000004 0.7000000000000001 0.0
2.8000000000000003 0.7000000000000001 0.0
3.2 0.7000000000000001 0.0
3.6 0.7000000000000001 0.0
4.0 0.7000000000000001 0.0
4.4 0.7000000000000001 0.0
4.800000000000001 0.7000000000000001 0.0
5.2 0.7000000000000001 0.0
5.6000000000000005 0.7000000000000001 0.0
6.0 0.7000000000000001 0.0
6.4 0.7000000000000001 0.0
6.800000000000001 0.7000000000000001 0.0
7.2 0.7000000000000001 0.0
7.6000000000000005 0.7000000000000001 0.0
8.0 0.7000000000000001 0.0
8.4 0.7000000000000001 0.0
8.8 0.7000000000000001 0.0
9.200000000000001 0.7000000000000001 0.0
9.600000000000001 0.7000000000000001 0.0
10.0 0.7000000000000001 0.0
10.4 0.7000000000000001 0.0
10.8 0.7000000000000001 0.0
11.200000000000001 0.7000000000000001 0.0
11.600000000000001 0.7000000000000001 0.0
12.0 0.7000000000000001 0.0
12.4 0.7000000000000001 0.0
12.8 0.7000000000000001 0.0
13.200000000000001 0.7000000000000001 0.0
13.600000000000001 0.7000000000000001 0.0
14.0 0.7000000000000001 0.0
14.4 0.7000000000000001 0.0
14.8 0.7000000000000001 0.0
15.200000000000001 0.7000000000000001 0.0
15.600000000000001 0.7000000000000001 0.0
16.0 0.7000000000000001 0.0
0.0 0.8 0.0
0.4 0.8 0.0
0.8 0.8 0.0
1.2000000000000002 0.8 0.0
1.6 0.8 0.0
2.0 0.8 0.0
2.4000000000000004 0.8 0.0
2.8000000000000003 0.8 0.0
3.2 0.8 0.0
3.6 0.8 0.0
4.0 0.8 0.0
4.4 0.8 0.0
4.800000000000001 0.8 0.0
5.2 0.8 0.0
5.6000000000000005 0.8 0.0
6.0 0.8 0.0
6.4 0.8 0.0
6.800000000000001 0.8 0.0
7.2 0.8 0.0
7.6000000000000005 0.8 0.0
8.0 0.8 0.0
8.4 0.8 0.0
8.8 0.8 0.0
9.200000000000001 0.8 0.0
9.600000000000001 0.8 0.0
10.0 0.8 0.0
10.4 0.8 0.0
10.8 0.8 0.0
11.200000000000001 0.8 0.0
11.600000000000001 0.8 0.0
12.0 0.8 0.0
12.4 0.8 0.0
12.8 0.8 0.0
13.200000000000001 0.8 0.0
13.600000000000001 0.8 0.0
14.0 0.8 0.0
14.4 0.8 0.0
14.8 0.8 0.0
15.200000000000001 0.8 0.0
15.600000000000001 0.8 0.0
16.0 0.8 0.0
0.0 0.9 0.0
0.4 0.9 0.0
0.8 0.9 0.0
1.2000000000000002 0.9 0.0
1.6 0.9 0.0
2.0 0.9 0.0
2.4000000000000004 0.9 0.0
2.8000000000000003 0.9 0.0
3.2 0.9 0.0
3.6 0.9 0.0
4.0 0.9 0.0
4.4 0.9 0.0
4.800000000000001 0.9 0.0
5.2 0.9 0.0
5.6000000000000005 0.9 0.0
6.0 0.9 0.0
6.4 0.9 0.0
6.800000000000001 0.9 0.0
7.2 0.9 0.0
7.6000000000000005 0.9 0.0
8.0 0.9 0.0
8.4 0.9 0.0
8.8 0.9 0.0
9.200000000000001 0.9 0.0
9.600000000000001 0.9 0.0
10.0 0.9 0.0
10.4 0.9 0.0
10.8 0.9 0.0
11.200000000000001 0.9 0.0
11.600000000000001 0.9 0.0
12.0 0.9 0.0
12.4 0.9 0.0
12.8 0.9 0.0
13.200000000000001 0.9 0.0
13.600000000000001 0.9 0.0
14.0 0.9 0.0
14.4 0.9 0.0
14.8 0.9 0.0
15.200000000000001 0.9 0.0
15.600000000000001 0.9 0.0
16.0 0.9 0.0
0.0 1.0 0.0
0.4 1.0 0.0
0.8 1.0 0.0
1.2000000000000002 1.0 0.0
1.6 1.0 0.0
2.0 1.0 0.0
2.4000000000000004 1.0 0.0
2.8000000000000003 1.0 0.0
3.2 1.0 0.0
3.6 1.0 0.0
4.0 1.0 0.0
4.4 1.0 0.0
4.800000000000001 1.0 0.0
5.2 1.0 0.0
5.6000000000000005 1.0 0.0
6.0 1.0 0.0
6.4 1.0 0.0
6.800000000000001 1.0 0.0
7.2 1.0 0.0
7.6000000000000005 1.0 0.0
8.0 1.0 0.0
8.4 1.0 0.0
8.8 1.0 0.0
9.200000000000001 1.0 0.0
9.600000000000001 1.0 0.0
10.0 1.0 0.0
10.4 1.0 0.0
10.8 1.0 0.0
11.200000000000001 1.0 0.0
11.600000000000001 1.0 0.0
12.0 1.0 0.0
12.4 1.0 0.0
12.8 1.0 0.0
13.200000000000001 1.0 0.0
13.600000000000001 1.0 0.0
14.0 1.0 0.0
14.4 1.0 0.0
14.8 1.0 0.0
15.200000000000001 1.0 0.0
15.600000000000001 1.0 0.0
16.0 1.0 0.0
0.0 1.1 0.0
0.4 1.1 0.0
0.8 1.1 0.0
1.2000000000000002 1.1 0.0
1.6 1.1 0.0
2.0 1.1 0.0
2.4000000000000004 1.1 0.0
2.8000000000000003 1.1 0.0
3.2 1.1 0.0
3.6 1.1 0.0
4.0 1.1 0.0
4.4 1.1 0.0
4.800000000000001 1.1 0.0
5.2 1.1 0.0
5.6000000000000005 1.1 0.0
6.0 1.1 0.0
6.4 1.1 0.0
6.800000000000001 1.1 0.0
7.2 1.1 0.0
7.6000000000000005 1.1 0.0
8.0 1.1 0.0
8.4 1.1 0.0
8.8 1.1 0.0
9.200000000000001 1.1 0.0
9.600000000000001 1.1 0.0
10.0 1.1 0.0
10.4 1.1 0.0
10.8 1.1 0.0
11.200000000000001 1.1 0.0
11.600000000000001 1.1 0.0
12.0 1.1 0.0
12.4 1.1 0.0
12.8 1.1 0.0
13.200000000000001 1.1 0.0
13.600000000000001 1.1 0.0
14.0 1.1 0.0
14.4 1.1 0.0
14.8 1.1 0.0
15.200000000000001 1.1 0.0
15.600000000000001 1.1 0.0
16.0 1.1 0.0
0.0 1.2000000000000002 0.0
0.4 1.2000000000000002 0.0
0.8 1.2000000000000002 0.0
1.2000000000000002 1.2000000000000002 0.0
1.6 1.2000000000000002 0.0
2.0 1.2000000000000002 0.0
2.4000000000000004 1.2000000000000002 0.0
2.8000000000000003 1.2000000000000002 0.0
3.2 1.2000000000000002 0.0
3.6 1.2000000000000002 0.0
4.0 1.2000000000000002 0.0
4.4 1.2000000000000002 0.0
4.800000000000001 1.2000000000000002 0.0
5.2 1.2000000000000002 0.0
5.6000000000000005 1.2000000000000002 0.0
6.0 1.2000000000000002 0.0
6.4 1.2000000000000002 0.0
6.800000000000001 1.2000000000000002 0.0
7.2 1.2000000000000002 0.0
7.6000000000000005 1.2000000000000002 0.0
8.0 1.2000000000000002 0.0
8.4 1.2000000000000002 0.0
8.8 1.2000000000000002 0.0
9.200000000000001 1.2000000000000002 0.0
9.600000000000001 1.2000000000000002 0.0
10.0 1.2000000000000002 0.0
10.4 1.2000000000000002 0.0
10.8 1.2000000000000002 0.0
11.200000000000001 1.2000000000000002 0.0
11.600000000000001 1.2000000000000002 0.0
12.0 1.2000000000000002 0.0
12.4 1.2000000000000002 0.0
12.8 1.2000000000000002 0.0
13.200000000000001 1.2000000000000002 0.0
13.600000000000001 1.2000000000000002 0.0
14.0 1.2000000000000002 0.0
14.4 1.2000000000000002 0.0
14.8 1.2000000000000002 0.0
15.200000000000001 1.2000000000000002 0.0
15.600000000000001 1.2000000000000002 0.0
16.0 1.2000000000000002 0.0
0.0 1.3 0.0
0.4 1.3 0.0
0.8 1.3 0.0
1.2000000000000002 1.3 0.0
1.6 1.3 0.0
2.0 1.3 0.0
2.4000000000000004 1.3 0.0
2.8000000000000003 1.3 0.0
3.2 1.3 0.0
3.6 1.3 0.0
4.0 1.3 0.0
4.4 1.3 0.0
4.800000000000001 1.3 0.0
5.2 1.3 0.0
5.6000000000000005 1.3 0.0
6.0 1.3 0.0
6.4 1.3 0.0
6.800000000000001 1.3 0.0
7.2 1.3 0.0
7.6000000000000005 1.3 0.0
8.0 1.3 0.0
8.4 1.3 0.0
8.8 1.3 0.0
9.200000000000001 1.3 0.0
9.600000000000001 1.3 0.0
10.0 1.3 0.0
10.4 1.3 0.0
10.8 1.3 0.0
11.200000000000001 1.3 0.0
11.600000000000001 1.3 0.0
12.0 1.3 0.0
12.4 1.3 0.0
12.8 1.3 0.0
13.200000000000001 1.3 0.0
13.600000000000001 1.3 0.0
14.0 1.3 0.0
14.4 1.3 0.0
14.8 1.3 0.0
15.200000000000001 1.3 0.0
15.600000000000001 1.3 0.0
16.0 1.3 0.0
0.0 1.4000000000000001 0.0
0.4 1.4000000000000001 0.0
0.8 1.4000000000000001 0.0
1.2000000000000002 1.4000000000000001 0.0
1.6 1.4000000000000001 0.0
2.0 1.4000000000000001 0.0
2.4000000000000004 1.4000000000000001 0.0
2.8000000000000003 1.4000000000000001 0.0
3.2 1.4000000000000001 0.0
3.6 1.4000000000000001 0.0
4.0 1.4000000000000001 0.0
4.4 1.4000000000000001 0.0
4.800000000000001 1.4000000000000001 0.0
5.2 1.4000000000000001 0.0
5.6000000000000005 1.4000000000000001 0.0
6.0 1.4000000000000001 0.0
6.4 1.4000000000000001 0.0
6.800000000000001 1.4000000000000001 0.0
7.2 1.4000000000000001 0.0
7.6000000000000005 1.4000000000000001 0.0
8.0 1.4000000000000001 0.0
8.4 1.4000000000000001 0.0
8.8 1.4000000000000001 0.0
9.200000000000001 1.4000000000000001 0.0
9.600000000000001 1.4000000000000001 0.0
10.0 1.4000000000000001 0.0
10.4 1.4000000000000001 0.0
10.8 1.4000000000000001 0.0
11.200000000000001 1.4000000000000001 0.0
11.600000000000001 1.4000000000000001 0.0
12.0 1.4000000000000001 0.0
12.4 1.4000000000000001 0.0
12.8 1.4000000000000001 0.0
13.200000000000001 1.4000000000000001 0.0
13.600000000000001 1.4000000000000001 0.0
14.0 1.4000000000000001 0.0
14.4 1.4000000000000001 0.0
14.8 1.4000000000000001 0.0
15.200000000000001 1.4000000000000001 0.0
15.600000000000001 1.4000000000000001 0.0
16.0 1.4000000000000001 0.0
0.0 1.5 0.0
0.4 1.5 0.0
0.8 1.5 0.0
1.2000000000000002 1.5 0.0
1.6 1.5 0.0
2.0 1.5 0.0
2.4000000000000004 1.5 0.0
2.8000000000000003 1.5 0.0
3.2 1.5 0.0
3.6 1.5 0.0
4.0 1.5 0.0
4.4 1.5 0.0
4.800000000000001 1.5 0.0
5.2 1.5 0.0
5.6000000000000005 1.5 0.0
6.0 1.5 0.0
6.4 1.5 0.0
6.800000000000001 1.5 0.0
7.2 1.5 0.0
7.6000000000000005 1.5 0.0
8.0 1.5 0.0
8.4 1.5 0.0
8.8 1.5 0.0
9.200000000000001 1.5 0.0
9.600000000000001 1.5 0.0
10.0 1.5 0.0
10.4 1.5 0.0
10.8 1.5 0.0
11.200000000000001 1.5 0.0
11.600000000000001 1.5 0.0
12.0 1.5 0.0
12.4 1.5 0.0
12.8 1.5 0.0
13.200000000000001 1.5 0.0
13.600000000000001 1.5 0.0
14.0 1.5 0.0
14.4 1.5 0.0
14.8 1.5 0.0
15.200000000000001 1.5 0.0
15.600000000000001 1.5 0.0
16.0 1.5 0.0
0.0 1.6 0.0
0.4 1.6 0.0
0.8 1.6 0.0
1.2000000000000002 1.6 0.0
1.6 1.6 0.0
2.0 1.6 0.0
2.4000000000000004 1.6 0.0
2.8000000000000003 1.6 0.0
3.2 1.6 0.0
3.6 1.6 0.0
4.0 1.6 0.0
4.4 1.6 0.0
4.800000000000001 1.6 0.0
5.2 1.6 0.0
5.6000000000000005 1.6 0.0
6.0 1.6 0.0
6.4 1.6 0.0
6.800000000000001 1.6 0.0
7.2 1.6 0.0
7.6000000000000005 1.6 0.0
8.0 1.6 0.0
8.4 1.6 0.0
8.8 1.6 0.0
9.200000000000001 1.6 0.0
9.600000000000001 1.6 0.0
10.0 1.6 0.0
10.4 1.6 0.0
10.8 1.6 0.0
11.200000000000001 1.6 0.0
11.600000000000001 1.6 0.0
12.0 1.6 0.0
12.4 1.6 0.0
12.8 1.6 0.0
13.200000000000001 1.6 0.0
13.600000000000001 1.6 0.0
14.0 1.6 0.0
14.4 1.6 0.0
14.8 1.6 0.0
15.200000000000001 1.6 0.0
15.600000000000001 1.6 0.0
16.0 1.6 0.0
0.0 1.7000000000000002 0.0
0.4 1.7000000000000002 0.0
0.8 1.7000000000000002 0.0
1.2000000000000002 1.7000000000000002 0.0
1.6 1.7000000000000002 0.0
2.0 1.7000000000000002 0.0
2.4000000000000004 1.7000000000000002 0.0
2.8000000000000003 1.7000000000000002 0.0
3.2 1.7000000000000002 0.0
3.6 1.7000000000000002 0.0
4.0 1.7000000000000002 0.0
4.4 1.7000000000000002 0.0
4.800000000000001 1.7000000000000002 0.0
5.2 1.7000000000000002 0.0
5.6000000000000005 1.7000000000000002 0.0
6.0 1.7000000000000002 0.0
6.4 1.7000000000000002 0.0
6.800000000000001 1.7000000000000002 0.0
7.2 1.7000000000000002 0.0
7.6000000000000005 1.7000000000000002 0.0
8.0 1.7000000000000002 0.0
8.4 1.7000000000000002 0.0
8.8 1.7000000000000002 0.0
9.200000000000001 1.7000000000000002 0.0
9.600000000000001 1.7000000000000002 0.0
10.0 1.7000000000000002 0.0
10.4 1.7000000000000002 0.0
10.8 1.7000000000000002 0.0
11.200000000000001 1.7000000000000002 0.0
11.600000000000001 1.7000000000000002 0.0
12.0 1.7000000000000002 0.0
12.4 1.7000000000000002 0.0
12.8 1.7000000000000002 0.0
13.200000000000001 1.7000000000000002 0.0
13.600000000000001 1.7000000000000002 0.0
14.0 1.7000000000000002 0.0
14.4 1.7000000000000002 0.0
14.8 1.7000000000000002 0.0
15.200000000000001 1.7000000000000002 0.0
15.600000000000001 1.7000000000000002 0.0
16.0 1.7000000000000002 0.0
0.0 1.8 0.0
0.4 1.8 0.0
0.8 1.8 0.0
1.2000000000000002 1.8 0.0
1.6 1.8 0.0
2.0 1.8 0.0
2.4000000000000004 1.8 0.0
2.8000000000000003 1.8 0.0
3.2 1.8 0.0
3.6 1.8 0.0
4.0 1.8 0.0
4.4 1.8 0.0
4.800000000000001 1.8 0.0
5.2 1.8 0.0
5.6000000000000005 1.8 0.0
6.0 1.8 0.0
6.4 1.8 0.0
6.800000000000001 1.8 0.0
7.2 1.8 0.0
7.6000000000000005 1.8 0.0
8.0 1.8 0.0
8.4 1.8 0.0
8.8 1.8 0.0
9.200000000000001 1.8 0.0
9.600000000000001 1.8 0.0
10.0 1.8 0.0
10.4 1.8 0.0
10.8 1.8 0.0
11.200000000000001 1.8 0.0
11.600000000000001 1.8 0.0
12.0 1.8 0.0
12.4 1.8 0.0
12.8 1.8 0.0
13.200000000000001 1.8 0.0
13.600000000000001 1.8 0.0
14.0 1.8 0.0
14.4 1.8 0.0
14.8 1.8 0.0
15.200000000000001 1.8 0.0
15.600000000000001 1.8 0.0
16.0 1.8 0.0
0.0 1.9000000000000001 0.0
0.4 1.9000000000000001 0.0
0.8 1.9000000000000001 0.0
1.2000000000000002 1.9000000000000001 0.0
1.6 1.9000000000000001 0.0
2.0 1.9000000000000001 0.0
2.4000000000000004 1.9000000000000001 0.0
2.8000000000000003 1.9000000000000001 0.0
3.2 1.9000000000000001 0.0
3.6 1.9000000000000001 0.0
4.0 1.9000000000000001 0.0
4.4 1.9000000000000001 0.0
4.800000000000001 1.9000000000000001 0.0
5.2 1.9000000000000001 0.0
5.6000000000000005 1.9000000000000001 0.0
6.0 1.9000000000000001 0.0
6.4 1.9000000000000001 0.0
6.800000000000001 1.9000000000000001 0.0
7.2 1.9000000000000001 0.0
7.6000000000000005 1.9000000000000001 0.0
8.0 1.9000000000000001 0.0
8.4 1.9000000000000001 0.0
8.8 1.9000000000000001 0.0
9.200000000000001 1.9000000000000001 0.0
9.600000000000001 1.9000000000000001 0.0
10.0 1.9000000000000001 0.0
10.4 1.9000000000000001 0.0
10.8 1.9000000000000001 0.0
11.200000000000001 1.9000000000000001 0.0
11.600000000000001 1.9000000000000001 0.0
12.0 1.9000000000000001 0.0
12.4 1.9000000000000001 0.0
12.8 1.9000000000000001 0.0
13.200000000000001 1.9000000000000001 0.0
13.600000000000001 1.9000000000000001 0.0
14.0 1.9000000000000001 0.0
14.4 1.9000000000000001 0.0
14.8 1.9000000000000001 0.0
15.200000000000001 1.9000000000000001 0.0
15.600000000000001 1.9000000000000001 0.0
16.0 1.9000000000000001 0.0
0.0 2.0 0.0
0.4 2.0 0.0
0.8 2.0 0.0
1.2000000000000002 2.0 0.0
1.6 2.0 0.0
2.0 2.0 0.0
2.4000000000000004 2.0 0.0
2.8000000000000003 2.0 0.0
3.2 2.0 0.0
3.6 2.0 0.0
4.0 2.0 0.0
4.4 2.0 0.0
4.800000000000001 2.0 0.0
5.2 2.0 0.0
5.6000000000000005 2.0 0.0
6.0 2.0 0.0
6.4 2.0 0.0
6.800000000000001 2.0 0.0
7.2 2.0 0.0
7.6000000000000005 2.0 0.0
8.0 2.0 0.0
8.4 2.0 0.0
8.8 2.0 0.0
9.200000000000001 2.0 0.0
9.600000000000001 2.0 0.0
10.0 2.0 0.0
10.4 2.0 0.0
10.8 2.0 0.0
11.200000000000001 2.0 0.0
11.600000000000001 2.0 0.0
12.0 2.0 0.0
12.4 2.0 0.0
12.8 2.0 0.0
13.200000000000001 2.0 0.0
13.600000000000001 2.0 0.0
14.0 2.0 0.0
14.4 2.0 0.0
14.8 2.0 0.0
15.200000000000001 2.0 0.0
15.600000000000001 2.0 0.0
16.0 2.0 0.0
CELLS 800 4000
4 0 1 42 41
4 1 2 43 42
4 2 3 44 43
4 3 4 45 44
4 4 5 46 45
4 5 6 47 46
4 6 7 48 47
4 7 8 49 48
4 8 9 50 49
4 9 10 51 50
4 10 11 52 51
4 11 12 53 52
4 12 13 54 53
4 13 14 55 54
4 14 15 56 55
4 15 16 57 56
4 16 17 58 57
4 17 18 59 58
4 18 19 60 59
4 19 20 61 60
4 20 21 62 61
4 21 22 63 62
4 22 23 64 63
4 23 24 65 64
4 24 25 66 65
4 25 26 67 66
4 26 27 68 67
4 27 28 69 68
4 28 29 70 69
4 29 30 71 70
4 30 31 72 71
4 31 32 73 72
4 32 33 74 73
4 33 34 75 74
4 34 35 76 75
4 35 36 77 76
4 36 37 78 77
4 37 38 79 78
4 38 39 80 79
4 39 40 81 80
4 41 42 83 82
4 42 43 84 83
4 43 44 85 84
4 44 45 86 85
4 45 46 87 86
4 46 47 88 87
4 47 48 89 88
4 48 49 90 89
4 49 50 91 90
4 50 51 92 91
4 51 52 93 92
4 52 53 94 93
4 53 54 95 94
4 54 55 96 95
4 55 56 97 96
4 56 57 98 97
4 57 58 99 98
4 58 59 100 99
4 59 60 101 100
4 60 61 102 101
4 61 62 103 102
4 62 63 104 103
4 63 64 105 104
4 64 65 106 105
4 65 66 107 106
4 66 67 108 107
4 67 68 109 108
4 68 69 110 109
4 69 70 111 110
4 70 71 112 111
4 71 72 113 112
4 72 73 114 113
4 73 74 115 114
4 74 75 116 115
4 75 76 117 116
4 76 77 118 117
4 77 78 119 118
4 78 79 120 119
4 79 80 121 120
4 80 81 122 121
4 82 83 124 123
4 83 84 125 124
4 84 85 126 125
4 85 86 127 126
4 86 87 128 127
4 87 88 129 128
4 88 89 130 129
4 89 90 131 130
4 90 91 132 131
4 91 92 133 132
4 92 93 134 133
4 93 94 135 134
4 94 95 136 135
4 95 96 137 136
4 96 97 138 137
4 97 98 139 138
4 98 99 140 139
4 99 100 141 140
4 100 101 142 141
4 101 102 143 142
4 102 103 144 143
4 103 104 145 144
4 104 105 146 145
4 105 106 147 146
4 106 107 148 147
4 107 108 149 148
4 108 109 150 149
4 109 110 151 150
4 110 111 152 151
4 111 112 153 152
4 112 113 154 153
4 113 114 155 154
4 114 115 156 155
4 115 116 157 156
4 116 117 158 157
4 117 118 159 158
4 118 119 160 159
4 119 120 161 160
4 120 121 162 161
4 121 122 163 162
4 123 124 165 164
4 124 125 166 165
4 125 126 167 166
4 126 127 168 167
4 127 128 169 168
4 128 129 170 169
4 129 130 171 170
4 130 131 172 171
4 131 132 173 172
4 132 133 174 173
4 133 134 175 174
4 134 135 176 175
4 135 136 177 176
4 136 137 178 177
4 137 138 179 178
4 138 139 180 179
4 139 140 181 180
4 140 141 182 181
4 141 142 183 182
4 142 143 184 183
4 143 144 185 184
4 144 145 186 185
4 145 146 187 186
4 146 147 188 187
4 147 148 189 188
4 148 149 190 189
4 149 150 191 190
4 150 151 192 191
4 151 152 193 192
4 152 153 194 193
4 153 154 195 194
4 154 155 196 195
4 155 156 197 196
4 156 157 198 197
4 157 158 199 198
4 158 159 200 199
4 159 160 201 200
4 160 161 202 201
4 161 162 203 202
4 162 163 204 203
4 164 165 206 205
4 165 166 207 206
4 166 167 208 207
4 167 168 209 208
4 168 169 210 209
4 169 170 211 210
4 170 171 212 211
4 171 172 213 212
4 172 173 214 213
4 173 174 215 214
4 174 175 216 215
4 175 176 217 216
4 176 177 218 217
4 177 178 219 218
4 178 179 220 219
4 179 180 221 220
4 180 181 222 221
4 181 182 223 222
4 182 183 224 223
4 183 184 225 224
4 184 185 226 225
4 185 186 227 226
4 186 187 228 227
4 187 188 229 228
4 188 189 230 229
4 189 190 231 230
4 190 191 232 231
4 191 192 233 232
4 192 193 234 233
4 193 194 235 234
4 194 195 236 235
4 195 196 237 236
4 196 197 238 237
4 197 198 239 238
4 198 199 240 239
4 199 200 241 240
4 200 201 242 241
4 201 202 243 242
4 202 203 244 243
4 203 204 245 244
4 205 206 247 246
4 206 207 248 247
4 207 208 249 248
4 208 209 250 249
4 209 210 251 250
4 210 211 252 251
4 211 212 253 252
4 212 213 254 253
4 213 214 255 254
4 214 215 256 255
4 215 216 257 256
4 216 217 258 257
4 217 218 259 258
4 218 219 260 259
4 219 220 261 260
4 220 221 262 261
4 221 222 263 262
4 222 223 264 263
4 223 224 265 264
4 224 225 266 265
4 225 226 267 266
4 226 227 268 267
4 227 228 269 268
4 228 229 270 269
4 229 230 271 270
4 230 231 272 271
4 231 232 273 272
4 232 233 274 273
4 233 234 275 274
4 234 235 276 275
4 235 236 277 276
4 236 237 278 277
4 237 238 279 278
4 238 239 280 279
4 239 240 281 280
4 240 241 282 281
4 241 242 283 282
4 242 243 284 283
4 243 244 285 284
4 244 245 286 285
4 246 247 288 287
4 247 248 289 288
4 248 249 290 289
4 249 250 291 290
4 250 251 292 291
4 251 252 293 292
4 252 253 294 293
4 253 254 295 294
4 254 255 296 295
4 255 256 297 296
4 256 257 298 297
4 257 258 299 298
4 258 259 300 299
4 259 260 301 300
4 260 261 302 301
4 261 262 303 302
4 262 263 304 303
4 263 264 305 304
4 264 265 306 305
4 265 266 307 306
4 266 267 308 307
4 267 268 309 308
4 268 269 310 309
4 269 270 311 310
4 270 271 312 311
4 271 272 313 312
4 272 273 314 313
4 273 274 315 314
4 274 275 316 315
4 275 276 317 316
4 276 277 318 317
4 277 278 319 318
4 278 279 320 319
4 279 280 321 320
4 280 281 322 321
4 281 282 323 322
4 282 283 324 323
4 283 284 325 324
4 284 285 326 325
4 285 286 327 326
4 287 288 329 328
4 288 289 330 329
4 289 290 331 330
4 290 291 332 331
4 291 292 333 332
4 292 293 334 333
4 293 294 335 334
4 294 295 336 335
4 295 296 337 336
4 296 297 338 337
4 297 298 339 338
4 298 299 340 339
4 299 300 341 340
4 300 301 342 341
4 301 302 343 342
4 302 303 344 343
4 303 304 345 344
4 304 305 346 345
4 305 306 347 346
4 306 307 348 347
4 307 308 349 348
4 308 309 350 349
4 309 310 351 350
4 310 311 352 351
4 311 312 353 352
4 312 313 354 353
4 313 314 355 354
4 314 315 356 355
4 315 316 357 356
4 316 317 358 357
4 317 318 359 358
4 318 319 360 359
4 319 320 361 360
4 320 321 362 361
4 321 322 363 362
4 322 323 364 363
4 323 324 365 364
4 324 325 366 365
4 325 326 367 366
4 326 327 368 367
4 328 329 370 369
4 329 330 371 370
4 330 331 372 371
4 331 332 373 372
4 332 333 374 373
4 333 334 375 374
4 334 335 376 375
4 335 336 377 376
4 336 337 378 377
4 337 338 379 378
4 338 339 380 379
4 339 340 381 380
4 340 341 382 381
4 341 342 383 382
4 342 343 384 383
4 343 344 385 384
4 344 345 386 385
4 345 346 387 386
4 346 347 388 387
4 347 348 389 388
4 348 349 390 389
4 349 350 391 390
4 350 351 392 391
4 351 352 393 392
4 352 353 394 393
4 353 354 395 394
4 354 355 396 395
4 355 356 397 396
4 356 357 398 397
4 357 358 399 398
4 358 359 400 399
4 359 360 401 400
4 360 361 402 401
4 361 362 403 402
4 362 363 404 403
4 363 364 405 404
4 364 365 406 405
4 365 366 407 406
4 366 367 408 407
4 367 368 409 408
4 369 370 411 410
4 370 371 412 411
4 371 372 413 412
4 372 373 414 413
4 373 374 415 414
4 374 375 416 415
4 375 376 417 416
4 376 377 418 417
4 377 378 419 418
4 378 379 420 419
4 379 380 421 420
4 380 381 422 421
4 381 382 423 422
4 382 383 424 423
4 383 384 425 424
4 384 385 426 425
4 385 386 427 426
4 386 387 428 427
4 387 388 429 428
4 388 389 430 429
4 389 390 431 430
4 390 391 432 431
4 391 392 433 432
4 392 393 434 433
4 393 394 435 434
4 394 395 436 435
4 395 396 437 436
4 396 397 438 437
4 397 398 439 438
4 398 399 440 439
4 399 400 441 440
4 400 401 442 441
4 401 402 443 442
4 402 403 444 443
4 403 404 445 444
4 404 405 446 445
4 405 406 447 446
4 406 407 448 447
4 407 408 449 448
4 408 409 450 449
4 410 411 452 451
4 411 412 453 452
4 412 413 454 453
4 413 414 455 454
4 414 415 456 455
4 415 416 457 456
4 416 417 458 457
4 417 418 459 458
4 418 419 460 459
4 419 420 461 460
4 420 421 462 461
4 421 422 463 462
4 422 423 464 463
4 423 424 465 464
4 424 425 466 465
4 425 426 467 466
4 426 427 468 467
4 427 428 469 468
4 428 429 470 469
4 429 430 471 470
4 430 431 472 471
4 431 432 473 472
4 432 433 474 473
4 433 434 475 474
4 434 435 476 475
4 435 436 477 476
4 436 437 478 477
4 437 438 479 478
4 438 439 480 479
4 439 440 481 480
4 440 441 482 481
4 441 442 483 482
4 442 443 484 483
4 443 444 485 484
4 444 445 486 485
4 445 446 487 486
4 446 447 488 487
4 447 448 489 488
4 448 449 490 489
4 449 450 491 490
4 451 452 493 492
4 452 453 494 493
4 453 454 495 494
4 454 455 496 495
4 455 456 497 496
4 456 457 498 497
4 457 458 499 498
4 458 459 500 499
4 459 460 501 500
4 460 461 502 501
4 461 462 503 502
4 462 463 504 503
4 463 464 505 504
4 464 465 506 505
4 465 466 507 506
4 466 467 508 507
4 467 468 509 508
4 468 469 510 509
4 469 470 511 510
4 470 471 512 511
4 471 472 513 512
4 472 473 514 513
4 473 474 515 514
4 474 475 516 515
4 475 476 517 516
4 476 477 518 517
4 477 478 519 518
4 478 479 520 519
4 479 480 521 520
4 480 481 522 521
4 481 482 523 522
4 482 483 524 523
4 483 484 525 524
4 484 485 526 525
4 485 486 527 526
4 486 487 528 527
4 487 488 529 528
4 488 489 530 529
4 489 490 531 530
4 490 491 532 531
4 492 493 534 533
4 493 494 535 534
4 494 495 536 535
4 495 496 537 536
4 496 497 538 537
4 497 498 539 538
4 498 499 540 539
4 499 500 541 540
4 500 501 542 541
4 501 502 543 542
4 502 503 544 543
4 503 504 545 544
4 504 505 546 545
4 505 506 547 546
4 506 507 548 547
4 507 508 549 548
4 508 509 550 549
4 509 510 551 550
4 510 511 552 551
4 511 512 553 552
4 512 513 554 553
4 513 514 555 554
4 514 515 556 555
4 515 516 557 556
4 516 517 558 557
4 517 518 559 558
4 518 519 560 559
4 519 520 561 560
4 520 521 562 561
4 521 522 563 562
4 522 523 564 563
4 523 524 565 564
4 524 525 566 565
4 525 526 567 566
4 526 527 568 567
4 527 528 569 568
4 528 529 570 569
4 529 530 571 570
4 530 531 572 571
4 531 532 573 572
4 533 534 575 574
4 534 535 576 575
4 535 536 577 576
4 536 537 578 577
4 537 538 579 578
4 538 539 580 579
4 539 540 581 580
4 540 541 582 581
4 541 542 583 582
4 542 543 584 583
4 543 544 585 584
4 544 545 586 585
4 545 546 587 586
4 546 547 588 587
4 547 548 589 588
4 548 549 590 589
4 549 550 591 590
4 550 551 592 591
4 551 552 593 592
4 552 553 594 593
4 553 554 595 594
4 554 555 596 595
4 555 556 597 596
4 556 557 598 597
4 557 558 599 598
4 558 559 600 599
4 559 560 601 600
4 560 561 602 601
4 561 562 603 602
4 562 563 604 603
4 563 564 605 604
4 564 565 606 605
4 565 566 607 606
4 566 567 608 607
4 567 568 609 608
4 568 569 610 609
4 569 570 611 610
4 570 571 612 611
4 571 572 613 612
4 572 573 614 613
4 574 575 616 615
4 575 576 617 616
4 576 577 618 617
4 577 578 619 618
4 578 579 620 619
4 579 580 621 620
4 580 581 622 621
4 581 582 623 622
4 582 583 624 623
4 583 584 625 624
4 584 585 626 625
4 585 586 627 626
4 586 587 628 627
4 587 588 629 628
4 588 589 630 629
4 589 590 631 630
4 590 591 632 631
4 591 592 633 632
4 592 593 634 633
4 593 594 635 634
4 594 595 636 635
4 595 596 637 636
4 596 597 638 637
4 597 598 639 638
4 598 599 640 639
4 599 600 641 640
4 600 601 642 641
4 601 602 643 642
4 602 603 644 643
4 603 604 645 644
4 604 605 646 645
4 605 606 647 646
4 606 607 648 647
4 607 608 649 648
4 608 609 650 649
4 609 610 651 650
4 610 611 652 651
4 611 612 653 652
4 612 613 654 653
4 613 614 655 654
4 615 616 657 656
4 616 617 658 657
4 617 618 659 658
4 618 619 660 659
4 619 620 661 660
4 620 621 662 661
4 621 622 663 662
4 622 623 664 663
4 623 624 665 664
4 624 625 666 665
4 625 626 667 666
4 626 627 668 667
4 627 628 669 668
4 628 629 670 669
4 629 630 671 670
4 630 631 672 671
4 631 632 673 672
4 632 633 674 673
4 633 634 675 674
4 634 635 676 675
4 635 636 677 676
4 636 637 678 677
4 637 638 679 678
4 638 639 680 679
4 639 640 681 680
4 640 641 682 681
4 641 642 683 682
4 642 643 684 683
4 643 644 685 684
4 644 645 686 685
4 645 646 687 686
4 646 647 688 687
4 647 648 689 688
4 648 649 690 689
4 649 650 691 690
4 650 651 692 691
4 651 652 693 692
4 652 653 694 693
4 653 654 695 694
4 654 655 696 695
4 656 657 698 697
4 657 658 699 698
4 658 659 700 699
4 659 660 701 700
4 660 661 702 701
4 661 662 703 702
4 662 663 704 703
4 663 664 705 704
4 664 665 706 705
4 665 666 707 706
4 666 667 708 707
4 667 668 709 708
4 668 669 710 709
4 669 670 711 710
4 670 671 712 711
4 671 672 713 712
4 672 673 714 713
4 673 674 715 714
4 674 675 716 715
4 675 676 717 716
4 676 677 718 717
4 677 678 719 718
4 678 679 720 719
4 679 680 721 720
4 680 681 722 721
4 681 682 723 722
4 682 683 724 723
4 683 684 725 724
4 684 685 726 725
4 685 686 727 726
4 686 687 728 727
4 687 688 729 728
4 688 689 730 729
4 689 690 731 730
4 690 691 732 731
4 691 692 733 732
4 692 693 734 733
4 693 694 735 734
4 694 695 736 735
4 695 696 737 736
4 697 698 739 738
4 698 699 740 739
4 699 700 741 740
4 700 701 742 741
4 701 702 743 742
4 702 703 744 743
4 703 704 745 744
4 704 705 746 745
4 705 706 747 746
4 706 707 748 747
4 707 708 749 748
4 708 709 750 749
4 709 710 751 750
4 710 711 752 751
4 711 712 753 752
4 712 713 754 753
4 713 714 755 754
4 714 715 756 755
4 715 716 757 756
4 716 717 758 757
4 717 718 759 758
4 718 719 760 759
4 719 720 761 760
4 720 721 762 761
4 721 722 763 762
4 722 723 764 763
4 723 724 765 764
4 724 725 766 765
4 725 726 767 766
4 726 727 768 767
4 727 728 769 768
4 728 729 770 769
4 729 730 771 770
4 730 731 772 771
4 731 732 773 772
4 732 733 774 773
4 733 734 775 774
4 734 735 776 775
4 735 736 777 776
4 736 737 778 777
4 738 739 780 779
4 739 740 781 780
4 740 741 782 781
4 741 742 783 782
4 742 743 784 783
4 743 744 785 784
4 744 745 786 785
4 745 746 787 786
4 746 747 788 787
4 747 748 789 788
4 748 749 790 789
4 749 750 791 790
4 750 751 792 791
4 751 752 793 792
4 752 753 794 793
4 753 754 795 794
4 754 755 796 795
4 755 756 797 796
4 756 757 798 797
4 757 758 799 798
4 758 759 800 799
4 759 760 801 800
4 760 761 802 801
4 761 762 803 802
4 762 763 804 803
4 763 764 805 804
4 764 765 806 805
4 765 766 807 806
4 766 767 808 807
4 767 768 809 808
4 768 769 810 809
4 769 770 811 810
4 770 771 812 811
4 771 772 813 812
4 772 773 814 813
4 773 774 815 814
4 774 775 816 815
4 775 776 817 816
4 776 777 818 817
4 777 778 819 818
4 779 780 821 820
4 780 781 822 821
4 781 782 823 822
4 782 783 824 823
4 783 784 825 824
4 784 785 826 825
4 785 786 827 826
4 786 787 828 827
4 787 788 829 828
4 788 789 830 829
4 789 790 831 830
4 790 791 832 831
4 791 792 833 832
4 792 793 834 833
4 793 794 835 834
4 794 795 836 835
4 795 796 837 836
4 796 797 838 837
4 797 798 839 838
4 798 799 840 839
4 799 800 841 840
4 800 801 842 841
4 801 802 843 842
4 802 803 844 843
4 803 804 845 844
4 804 805 846 845
4 805 806 847 846
4 806 807 848 847
4 807 808 849 848
4 808 809 850 849
4 809 810 851 850
4 810 811 852 851
4 811 812 853 852
4 812 813 854 853
4 813 814 855 854
4 814 815 856 855
4 815 816 857 856
4 816 817 858 857
4 817 818 859 858
4 818 819 860 859
CELL_TYPES 800
9
9
9
9
9
9
9
9
9
9
9
9
9
9
9
9
9
9
9
9
9
9
9
9
9
9
9
9
9
9
9
9
9
9
9
9
9
9
9
9
9
9
9
9
9
9
9
9
9
9
9
9
9
9
9
9
9
9
9
9
9
9
9
9
9
9
9
9
9
9
9
9
9
9
9
9
9
9
9
9
9
9
9
9
9
9
9
9
9
9
9
9
9
9
9
9
9
9
9
9
9
9
9
9
9
9
9
9
9
9
9
9
9
9
9
9
9
9
9
9
9
9
9
9
9
9
9
9
9
9
9
9
9
9
9
9
9
9
9
9
9
9
9
9
9
9
9
9
9
9
9
9
9
9
9
9
9
9
9
9
9
9
9
9
9
9
9
9
9
9
9
9
9
9
9
9
9
9
9
9
9
9
9
9
9
9
9
9
9
9
9
9
9
9
9
9
9
9
9
9
9
9
9
9
9
9
9
9
9
9
9
9
9
9
9
9
9
9
9
9
9
9
9
9
9
9
9
9
9
9
9
9
9
9
9
9
9
9
9
9
9
9
9
9
9
9
9
9
9
9
9
9
9
9
9
9
9
9
9
9
9
9
9
9
9
9
9
9
9
9
9
9
9
9
9
9
9
9
9
9
9
9
9
9
9
9
9
9
9
9
9
9
9
9
9
9
9
9
9
9
9
9
9
9
9
9
9
9
9
9
9
9
9
9
9
9
9
9
9
9
9
9
9
9
9
9
9
9
9
9
9
9
9
9
9
9
9
9
9
9
9
9
9
9
9
9
9
9
9
9
9
9
9
9
9
9
9
9
9
9
9
9
9
9
9
9
9
9
9
9
9
9
9
9
9
9
9
9
9
9
9
9
9
9
9
9
9
9
9
9
9
9
9
9
9
9
9
9
9
9
9
9
9
9
9
9
9
9
9
9
9
9
9
9
9
9
9
9
9
9
9
9
9
9
9
9
9
9
9
9
9
9
9
9
9
9
9
9
9
9
9
9
9
9
9
9
9
9
9
9
9
9
9
9
9
9
9
9
9
9
9
9
9
9
9
9
9
9
9
9
9
9
9
9
9
9
9
9
9
9
9
9
9
9
9
9
9
9
9
9
9
9
9
9
9
9
9
9
9
9
9
9
9
9
9
9
9
9
9
9
9
9
9
9
9
9
9
9
9
9
9
9
9
9
9
9
9
9
9
9
9
9
9
9
9
9
9
9
9
9
9
9
9
9
9
9
9
9
9
9
9
9
9
9
9
9
9
9
9
9
9
9
9
9
9
9
9
9
9
9
9
9
9
9
9
9
9
9
9
9
9
9
9
9
9
9
9
9
9
9
9
9
9
9
9
9
9
9
9
9
9
9
9
9
9
9
9
9
9
9
9
9
9
9
9
9
9
9
9
9
9
9
9
9
9
9
9
9
9
9
9
9
9
9
9
9
9
9
9
9
9
9
9
9
9
9
9
9
9
9
9
9
9
9
9
9
9
9
9
9
9
9
9
9
9
9
9
9
9
9
9
9
9
9
9
9
9
9
9
9
9
9
9
9
9
9
9
9
9
9
9
9
9
9
9
9
9
9
9
9
9
9
9
9
9
9
9
9
9
9
9
9
9
9
9
9
9
9
9
9
9
9
9
9
9
9
9
9
9
9
9
9
9
9
9
9
9
9
9
9
9
9
9
9
9
9
9
9
9
9
9
9
9
9
9
9
9
9
9
9
9
9
9
9
9
9
9
9
9
9
9
9
9
9
9
9
9
9
9
9
9
9
9
9
9
9
9
9
9
9
9
9
9
9
9
9
9
9
9
9
POINT_DATA 861
SCALARS Disp float 2
LOOKUP_TABLE default
0.0 0.0
0.015276807945963514 -0.2791950917852429
0.02721048605522294 -0.5151048181362551
0.03678290671747114 -0.7469651378455247
0.04771901797554985 -0.9743660512571181
0.06087162940825546 -1.1972064404420248
0.07666012677145925 -1.4144214362039464
0.09525282561123015 -1.6248605280591064
0.1167048241897154 -1.8273348297038385
0.14102889268341484 -2.0206700720129045
0.16822312138830867 -2.2037055841752804
0.19828310770507288 -2.3752913389867367
0.2312061421801676 -2.534284381529077
0.2669952240884685 -2.679547236168083
0.3056676844368349 -2.8099441293497125
0.3472709831209888 -2.9243253710183947
0.3918986066590039 -3.021482781820873
0.4396743490901509 -3.1000599429449713
0.49063666057123173 -3.1584362857307866
0.5444539172395564 -3.1947123635869485
0.60006223682046 -3.207078756699392
0.6556705564013644 -3.1947123635869485
0.7094878130696889 -3.1584362857307853
0.7604501245507693 -3.100059942944971
0.8082258669819162 -3.0214827818208723
0.8528534905199314 -2.924325371018394
0.8944567892040853 -2.8099441293497116
0.9331292495524516 -2.6795472361680814
0.9689183314607525 -2.534284381529077
1.0018413659358476 -2.3752913389867354
1.0319013522526117 -2.2037055841752804
1.0590955809575056 -2.020670072012904
1.0834196494512047 -1.8273348297038379
1.10487164802969 -1.6248605280591057
1.1234643468694612 -1.4144214362039453
1.1392528442326648 -1.197206440442026
1.1524054556653704 -0.974366051257118
1.163341566923449 -0.7469651378455253
1.1729139875856973 -0.5151048181362545
1.1848476656949567 -0.279195091785242
1.2001244736409202 0.0
0.06916039525017094 -0.009487193490929335
0.07867329720445135 -0.2784555322323961
0.0852576401225963 -0.5164444395275488
0.09412739650647216 -0.747899119449299
0.10385360509315847 -0.9755965943074831
0.1157285423128515 -1.1986721846394268
0.12995782011603735 -1.4161710250865054
0.1467044856980432 -1.6268983227946687
0.16601727753096865 -1.8296647126250545
0.187911178371536 -2.0232921327302553
0.21238672115925145 -2.206619530327895
0.23944136244076877 -2.3784967981338756
0.26907371479389003 -2.5377813156051947
0.30128733652063355 -2.683336464023754
0.3360976675929877 -2.8140284798204327
0.37354329728893454 -2.9287113684023915
0.4136941728639757 -3.0261812457200232
0.45662938043952617 -3.105080666764309
0.5023312931786909 -3.163768922420746
0.550454128968844 -3.200291032434382
0.6000622368204601 -3.2127549876142627
0.6496703446720766 -3.200291032434382
0.6977931804622297 -3.1637689224207453
0.7434950932013941 -3.1050806667643087
0.7864303007769445 -3.026181245720023
0.8265811763519857 -2.928711368402391
0.8640268060479326 -2.814028479820432
0.8988371371202867 -2.683336464023752
0.93105075884703 -2.5377813156051943
0.9606831112001516 -2.3784967981338747
0.9877377524816688 -2.2066195303278944
1.0122132952693843 -2.023292132730255
1.0341071961099515 -1.8296647126250536
1.0534199879428772 -1.626898322794668
1.070166653524883 -1.4161710250865043
1.0843959313280687 -1.1986721846394275
1.0962708685477618 -0.9755965943074831
1.105997077134448 -0.7478991194492997
1.114866833518324 -0.5164444395275483
1.121451176436469 -0.27845553223239533
1.1309640783907493 -0.009487193490929363
0.13361167104533403 -0.017636433731184623
0.1404348636123707 -0.2779131411047446
0.14397852105929168 -0.5171825520232985
0.15108023211398902 -0.748808377978805
0.15970477721027274 -0.9766619377679323
0.17021376668090213 -1.1999885781261979
0.18287306264836337 -1.417735357536208
0.19776540284317434 -1.6287225346253733
0.2149376973614666 -1.831749674989087
0.2344015330763452 -2.0256384277465083
0.2561588839570848 -2.209226878820927
0.28020847471806526 -2.381364976639622
0.3065497796822562 -2.5409103022250465
0.3351859121800988 -2.6867268385872567
0.3661285647826552 -2.8176822315938828
0.3994055276043867 -2.9326331580252023
0.43506505151016445 -3.0303790040734504
0.4731559090052563 -3.109561819402136
0.5136413269609491 -3.1685255123353935
0.5562114567956115 -3.205269254087719
0.60006223682046 -3.217824426887709
0.6439130168453093 -3.2052692540877192
0.6864831466799712 -3.1685255123353926
0.7269685646356641 -3.109561819402135
0.765059422130756 -3.03037900407345
0.8007189460365334 -2.932633158025202
0.833995908858265 -2.817682231593882
0.8649385614608217 -2.6867268385872554
0.893574693958664 -2.540910302225046
0.919915998922855 -2.381364976639621
0.9439655896838354 -2.2092268788209264
0.9657229405645749 -2.0256384277465074
0.9851867762794535 -1.8317496749890865
1.0023590707977459 -1.628722534625373
1.017251410992557 -1.4177353575362064
1.0299107069600182 -1.1999885781261983
1.0404196964306474 -0.9766619377679324
1.0490442415269312 -0.7488083779788056
1.0561459525816286 -0.5171825520232979
1.0596896100285496 -0.2779131411047438
1.0665128025955863 -0.017636433731184665
0.19528050082358764 -0.02460153121758005
0.2007004109892872 -0.27775366210848557
0.20257943102611153 -0.5175094136854059
0.2078652450245322 -0.7495596404443787
0.21523990933883475 -0.977588995629105
0.22438234336037458 -1.2011401643008741
0.23544631530593663 -1.4191151554647978
0.24848056317431066 -1.6303318769969999
0.26351001522228046 -1.833589783765272
0.2805437385711809 -2.027708979291849
0.2995831105709 -2.211527706102605
0.32062777580652135 -2.3838958745100793
0.34367759390707553 -2.543671165844972
0.3687344729370215 -2.689717772506793
0.39580512964222725 -2.820904043685414
0.42490568268660256 -2.936088531161401
0.456065378405115 -3.0340741599106367
0.48931569892105564 -3.1135061418455368
0.5246304640308894 -3.1727217313838407
0.5617713761756915 -3.2096823054137547
0.6000622368204601 -3.222333389020195
0.6383530974652291 -3.2096823054137547
0.6754940096100308 -3.1727217313838403
0.7108087747198647 -3.1135061418455363
0.7440590952358054 -3.0340741599106362
0.7752187909543177 -2.9360885311614
0.8043193439986929 -2.820904043685413
0.831390000703899 -2.6897177725067922
0.8564468797338447 -2.5436711658449718
0.8794966978343989 -2.3838958745100784
0.9005413630700201 -2.2115277061026046
0.9195807350697391 -2.0277089792918486
0.9366144584186397 -1.8335897837652717
0.9516439104666097 -1.6303318769969997
0.9646781583349835 -1.4191151554647965
0.9757421302805456 -1.2011401643008748
0.9848845643020855 -0.977588995629105
0.9922592286163879 -0.7495596404443793
0.9975450426148087 -0.5175094136854054
0.9994240626516331 -0.27775366210848484
1.0048439728173326 -0.024601531217580106
0.2551714251970434 -0.030533887100848988
0.2597459478486301 -0.27795749072082954
0.26073852598746267 -0.5176010827124113
0.26446371391379386 -0.750114821219832
0.2705042674130654 -0.9783696258406703
0.278264556176847 -1.2021261773013319
0.28772306542483833 -1.4203075564522736
0.2988931557898816 -1.6317261993933576
0.311778360442803 -1.8351847847047864
0.32638147862804423 -2.0295038332030892
0.3427029305255191 -2.2135220348941442
0.3607426411432043 -2.3860894757748516
0.3805005337868941 -2.5460637511469755
0.4019767926407958 -2.692308820666234
0.425172518232003 -2.8236929874599754
0.4500920691681391 -2.939076112603815
0.4767485182227552 -3.037265966649515
0.5051666993996542 -3.1169170123541243
0.5353538561692234 -3.1763714858699537
0.5671696150254225 -3.213559611190744
0.6000622368204602 -3.2263204738958082
0.6329548586154978 -3.213559611190743
0.664770617471697 -3.176371485869953
0.6949577742412663 -3.1169170123541243
0.723375955418165 -3.0372659666495148
0.7500324044727811 -2.9390761126038147
0.7749519554089174 -2.823692987459975
0.7981476810001246 -2.692308820666233
0.8196239398540262 -2.546063751146975
0.8393818324977159 -2.3860894757748508
0.8574215431154011 -2.213522034894144
0.8737429950128759 -2.029503833203089
0.8883461131981172 -1.8351847847047866
0.9012313178510386 -1.631726199393357
0.9124014082160818 -1.420307556452272
0.9218599174640731 -1.2021261773013325
0.9296202062278548 -0.9783696258406701
0.9356607597271263 -0.7501148212198326
0.9393859476534576 -0.5176010827124109
0.9403785257922901 -0.2779574907208288
0.9449530484438768 -0.03053388710084906
0.3138615069583387 -0.035572718954802754
0.3178367466745049 -0.27844099586664917
0.3183610886580185 -0.5175792872037517
0.32082436592360164 -0.75048348381322
0.3255341932657889 -0.978994422941649
0.33189647056292126 -1.2029462446954948
0.3397452321118808 -1.4213112370703465
0.34904701730288196 -1.6329050155215694
0.35978646078044996 -1.8365345703749258
0.3719584779772058 -2.0310229528533843
0.3855618616603694 -2.215209871406682
0.40059649096026895 -2.3879457496692718
0.4170620668772065 -2.5480879427188485
0.43495681302581085 -2.694499705270269
0.45427609751229675 -2.826048555651548
0.4750130034574757 -2.941595267067498
0.49716688700057543 -3.0399544564581906
0.5207635244429641 -3.1197976568557793
0.5458600333525131 -3.179486145313714
0.5724351816099812 -3.2169255445055125
0.60006223682046 -3.229818877015229
0.6276892920309393 -3.2169255445055116
0.6542644402884071 -3.1794861453137138
0.6793609491979561 -3.1197976568557784
0.7029575866403447 -3.03995445645819
0.7251114701834446 -2.9415952670674974
0.7458483761286236 -2.826048555651548
0.7651676606151095 -2.694499705270268
0.7830624067637137 -2.548087942718848
0.7995279826806513 -2.387945749669271
0.8145626119805508 -2.215209871406682
0.8281659956637143 -2.0310229528533843
0.8403380128604703 -1.8365345703749258
0.8510774563380382 -1.6329050155215685
0.8603792415290394 -1.421311237070345
0.8682280030779987 -1.2029462446954955
0.8745902803751313 -0.9789944229416487
0.8793001077173185 -0.7504834838132206
0.8817633849829017 -0.5175792872037511
0.8822877269664152 -0.27844099586664844
0.8862629666825813 -0.035572718954802816
0.371710595862756 -0.03983907897826958
0.3751948100615974 -0.2791113454494923
0.3754599583285476 -0.5175165314827689
0.3769175494074168 -0.7506928867890827
0.3803549335020136 -0.979461122118018
0.3853165677286919 -1.2035996959946247
0.3915540225520066 -1.4221258948225843
0.3989856383227617 -1.6338679464197734
0.40757801692097306 -1.8376390342251794
0.4173183901745944 -2.032266289548935
0.4282034345269177 -2.2165911931137168
0.44023277308183345 -2.389464663263125
0.45340572459985123 -2.5497436736607404
0.4677185585692502 -2.696290324783505
0.48316126768807266 -2.827970649434945
0.49971657838821576 -2.9436460077058637
0.5173719107555533 -3.042140151333338
0.5361581102624388 -3.122150573671215
0.5561926799994734 -3.182074043330304
0.57759233040501 -3.2197999974394937
0.6000622368204599 -3.2328581237929326
0.6225321432359103 -3.2197999974394937
0.6439317936414467 -3.1820740433303034
0.6639663633784815 -3.1221505736712145
0.6827525628853668 -3.042140151333338
0.7004078952527044 -2.9436460077058637
0.7169632059528477 -2.8279706494349446
0.7324059150716701 -2.6962903247835035
0.746718749041069 -2.54974367366074
0.7598917005590868 -2.3894646632631242
0.7719210391140023 -2.2165911931137168
0.7828060834663257 -2.0322662895489345
0.7925464567199471 -1.8376390342251792
0.8011388353181584 -1.6338679464197727
0.8085704510889135 -1.4221258948225828
0.8148079059122282 -1.2035996959946251
0.8197695401389066 -0.9794611221180177
0.8232069242335035 -0.7506928867890834
0.8246645153123726 -0.5175165314827683
0.8249296635793227 -0.2791113454494916
0.8284138777781642 -0.039839078978269646
0.42895928316750653 -0.04343473928512263
0.4319994508951903 -0.2798862793200472
0.4320963463670791 -0.5174498613249622
0.4327425705369129 -0.7507726966215501
0.4349892476039968 -0.9797741102423556
0.4385631008645044 -1.2040867440790617
0.44319092909178653 -1.4227517268475403
0.44875219699936375 -1.6346148671250327
0.45519667509405165 -1.8384980747779769
0.4625048270111792 -2.0332337856828264
0.47067117468583514 -2.217665959099264
0.4796949570744157 -2.3906461845566236
0.48957507156831154 -2.551030929169281
0.5003060576590159 -2.697680746766201
0.5118733004810162 -2.8294595482090923
0.5242504681862357 -2.9452289176602044
0.537414069436413 -3.0438238726514357
0.5514004776195276 -3.1239771594885664
0.5663922281815595 -3.1841400970714124
0.5826619431283404 -3.2221987050133696
0.6000622368204599 -3.235465522110016
0.6174625305125798 -3.22219870501337
0.6337322454593608 -3.184140097071412
0.6487239960213926 -3.1239771594885664
0.6627104042045071 -3.0438238726514353
0.6758740054546845 -2.945228917660205
0.688251173159904 -2.8294595482090914
0.6998184159819043 -2.6976807467662005
0.7105494020726086 -2.55103092916928
0.7204295165665046 -2.3906461845566227
0.729453298955085 -2.217665959099264
0.7376196466297409 -2.033233785682826
0.7449277985468685 -1.8384980747779764
0.7513722766415563 -1.6346148671250316
0.7569335445491336 -1.422751726847539
0.7615613727764158 -1.2040867440790621
0.7651352260369233 -0.9797741102423554
0.7673819031040073 -0.7507726966215508
0.7680281272738412 -0.5174498613249616
0.7681250227457299 -0.27988627932004656
0.7711651904734137 -0.04343473928512268
0.4857785707353945 -0.046444012873713414
0.4883955012108781 -0.28069956631584525
0.48835067244360303 -0.5173933400435291
0.48832241481315414 -0.750748434794422
0.4894632432402551 -0.979941798136507
0.49167402650420433 -1.2044090608468248
0.4946977547409095 -1.423189308146033
0.49838978771744646 -1.6351458713488685
0.5026860008281169 -1.839111626239638
0.5075613697975139 -2.033925373949795
0.5130085973631074 -2.2184341169009096
0.5190265238168325 -2.391490285142688
0.5256136792302919 -2.551949743020183
0.5327632738311767 -2.6986711873158735
0.5404571961511718 -2.830515863773255
0.5486617522485676 -2.9463450887588634
0.5573429720835946 -3.045006659735568
0.5665395361485959 -3.12527752256953
0.5764973450582017 -3.1856854639756813
0.5876625908472001 -3.2241333015335316
0.60006223682046 -3.2376675269677193
0.61246188279372 -3.224133301533532
0.6236271285827184 -3.1856854639756813
0.6335849374923244 -3.125277522569529
0.6427815015573256 -3.0450066597355674
0.6514627213923525 -2.946345088758864
0.6596672774897485 -2.830515863773254
0.6673611998097435 -2.6986711873158726
0.6745107944106283 -2.5519497430201827
0.6810979498240878 -2.3914902851426874
0.6871158762778128 -2.218434116900909
0.6925631038434062 -2.033925373949795
0.6974384728128031 -1.8391116262396376
0.7017346859234735 -1.6351458713488676
0.7054267189000106 -1.4231893081460316
0.7084504471367158 -1.204409060846825
0.7106612304006651 -0.9799417981365067
0.7118020588277661 -0.7507484347944228
0.7117738011973171 -0.5173933400435284
0.7117289724300422 -0.2806995663158446
0.7143459029055256 -0.046444012873713476
0.5422968390709696 -0.048936827662753424
0.5445017089512607 -0.2815008324209067
0.5443084716544362 -0.5173472750491666
0.5436965861372401 -0.7506394770386428
0.5438087623701412 -0.9799741828452581
0.5446878746967597 -1.2045696750244381
0.5461165702722601 -1.4234395955017638
0.5479415518924436 -1.6354612110713387
0.5500894997571396 -1.8394796667566016
0.5525315667693275 -2.0343409819072984
0.5552592060265673 -2.2188956059528726
0.5582709559605454 -2.3919969414348
0.5615651038768142 -2.5525001889533923
0.5651340523419016 -2.6992619791098527
0.5689575632447958 -2.8311404786169168
0.5729967394597058 -2.946996073834979
0.5772074008501865 -3.045689801063149
0.5816238832697224 -3.1260504861021876
0.586546423796742 -3.186707199291095
0.5926114594843341 -3.2256110606967856
0.60006223682046 -3.239491174497575
0.6075130141565859 -3.2256110606967856
0.6135780498441781 -3.1867071992910945
0.6185005903711978 -3.126050486102187
0.6229170727907337 -3.045689801063149
0.6271277341812144 -2.946996073834979
0.6311669103961244 -2.831140478616916
0.6349904212990184 -2.6992619791098513
0.6385593697641059 -2.552500188953392
0.6418535176803747 -2.3919969414347997
0.6448652676143528 -2.2188956059528726
0.6475929068715927 -2.0343409819072984
0.6500349738837806 -1.8394796667566014
0.6521829217484766 -1.635461211071338
0.65400790336866 -1.4234395955017625
0.6554365989441604 -1.2045696750244383
0.656315711270779 -0.9799741828452577
0.6564278875036801 -0.7506394770386434
0.655816001986484 -0.5173472750491661
0.6556227646896594 -0.28150083242090596
0.6578276345699505 -0.048936827662753514
0.598615225201047 -0.050972066043052405
0.6004174935131572 -0.28225344719190776
0.6000538754031857 -0.5173044741188031
0.59891509166368 -0.7504591897370751
0.5980636624894838 -0.9798811698164467
0.5976445833657863 -1.20457252716309
0.5974897947734455 -1.4235038931320771
0.5974507295163788 -1.6355612483160953
0.597450646770802 -1.839602209244782
0.5974589317504748 -2.034480536340895
0.5974664903063388 -2.2190503602958307
0.59747173097533 -2.392166133967732
0.5974728699924454 -2.5526823687114306
0.5974620854382975 -2.699453531185643
0.5974185290493768 -2.8313344665370654
0.5973007803007595 -2.947183839847353
0.597055252634201 -3.0458749737857502
0.5967025447044609 -3.1262938088914884
0.5965792047807484 -3.1871979166098217
0.597525303968337 -3.2266342268216883
0.60006223682046 -3.2409657390470135
0.6025991696725831 -3.226634226821688
0.6035452688601716 -3.1871979166098217
0.6034219289364593 -3.1262938088914884
0.6030692210067192 -3.04587497378575
0.6028236933401606 -2.9471838398473533
0.6027059445915434 -2.8313344665370646
0.6026623882026225 -2.699453531185642
0.6026516036484748 -2.55268236871143
0.60265274266559 -2.3921661339677316
0.6026579833345813 -2.219050360295831
0.6026655418904453 -2.034480536340895
0.6026738268701183 -1.8396022092447817
0.6026737441245413 -1.6355612483160944
0.6026346788674746 -1.4235038931320758
0.6024798902751337 -1.2045725271630903
0.6020608111514364 -0.9798811698164467
0.6012093819772403 -0.7504591897370756
0.6000705982377345 -0.5173044741188026
0.5997069801277629 -0.28225344719190704
0.6015092484398731 -0.050972066043052516
0.6548166428607981 -0.05260069606732236
0.6562279011520368 -0.2829320042834044
0.6556668696532444 -0.5172542787956341
0.6540341046296393 -0.7502159305962207
0.6522711296959893 -0.979671616118347
0.6505859919865794 -1.2044219431926035
0.6488603361268814 -1.4233837444567012
0.646960680637827 -1.6354464114315026
0.6448129040171796 -1.8394792857286304
0.6423869455884375 -2.0343439650277553
0.6396739240453876 -2.2188983111870564
0.6366723169680311 -2.3919978452440405
0.633380459384109 -2.5524963981469346
0.6297908972161607 -2.699246284925447
0.6258836932864169 -2.831098994452392
0.6216180684183705 -2.946910698135775
0.6169332965599819 -3.0455644738109178
0.6118255671796569 -3.126004678985361
0.6066386731099265 -3.1871455025340603
0.6024216341525068 -3.2271987810102445
0.60006223682046 -3.242124784080246
0.5977028394884134 -3.227198781010244
0.5934858005309936 -3.1871455025340603
0.5882989064612633 -3.1260046789853604
0.5831911770809383 -3.0455644738109178
0.5785064052225495 -2.946910698135775
0.574240780354503 -2.831098994452391
0.5703335764247593 -2.699246284925446
0.5667440142568111 -2.5524963981469337
0.563452156672889 -2.39199784524404
0.5604505495955325 -2.2188983111870564
0.5577375280524828 -2.0343439650277553
0.5553115696237405 -1.83947928572863
0.5531637930030932 -1.6354464114315017
0.5512641375140386 -1.4233837444567
0.5495384816543406 -1.2044219431926042
0.5478533439449309 -0.9796716161183469
0.5460903690112808 -0.7502159305962212
0.5444576039876757 -0.5172542787956337
0.5438965724888832 -0.2829320042834037
0.545307830780122 -0.05260069606732245
0.710971080744921 -0.05386851557926016
0.7120070281024258 -0.2835199924236692
0.7112224042803534 -0.517185080114552
0.7091131116809941 -0.7499142888828663
0.7064787006224422 -0.9793528967887328
0.70355599661366 -1.2041221596778064
0.7002717056473701 -1.423080770970952
0.6965148955457462 -1.6351171461150988
0.6922197260980335 -1.8391109307900044
0.6873590576566648 -2.0339311966013325
0.6819249643912999 -2.2184393896297707
0.6759161718137163 -2.3914920567944464
0.6693313062550855 -2.5519423922895488
0.6621638446268368 -2.6986406718476452
0.6543961398514674 -2.830435208802879
0.6459914618852786 -2.946179177318913
0.6368866593139219 -3.044761492095432
0.6270442906604293 -3.1251805656406773
0.6167733978344035 -3.1865330159660226
0.6073204476022939 -3.2272923945828005
0.60006223682046 -3.2430088064019706
0.5928040260386263 -3.2272923945828
0.5833510758065165 -3.1865330159660226
0.5730801829804907 -3.125180565640677
0.5632378143269983 -3.044761492095432
0.5541330117556414 -2.9461791773189123
0.5457283337894527 -2.8304352088028786
0.5379606290140833 -2.698640671847644
0.5307931673858346 -2.551942392289548
0.5242083018272038 -2.391492056794445
0.5181995092496202 -2.218439389629771
0.5127654159842554 -2.0339311966013325
0.5079047475428866 -1.839110930790004
0.5036095780951739 -1.6351171461150982
0.49985276799355005 -1.423080770970951
0.49656847702726015 -1.2041221596778073
0.4936457730184779 -0.9793528967887325
0.491011361959926 -0.7499142888828669
0.4889020693605667 -0.5171850801145514
0.48811744553849434 -0.2835199924236685
0.4891533928959992 -0.05386851557926026
0.7671385639072412 -0.05481847614576596
0.7678202238408961 -0.28400785002130335
0.7667903925418806 -0.5170858692037797
0.7642132194480402 -0.7495562842116115
0.7607373329745991 -0.9789307929814083
0.7566004574524703 -1.2036769441009938
0.7517680581211913 -1.4225964908765723
0.7461569918913051 -1.6345738597172692
0.7397145556702925 -1.8384971661051677
0.7324186858222114 -2.0332421599851913
0.7242630518793233 -2.2176735290033833
0.7152467459943586 -2.3906487463663506
0.7053687998982539 -2.5510204493512254
0.6946241257977074 -2.6976370783083183
0.6829985140493823 -2.8293441202660254
0.6704624022386232 -2.944991798897005
0.6569579697812576 -3.043470341295915
0.6424109663292447 -3.123820537339329
0.6270404759426056 -3.1853390459183304
0.6122470704186846 -3.226891191874891
0.60006223682046 -3.2436686976868394
0.5878774032222354 -3.22689119187489
0.5730839976983143 -3.18533904591833
0.5577135073116755 -3.123820537339329
0.5431665038596625 -3.0434703412959148
0.5296620714022969 -2.944991798897005
0.5171259595915378 -2.829344120266025
0.5055003478432126 -2.6976370783083174
0.49475567374266627 -2.551020449351225
0.48487772764656134 -2.3906487463663497
0.475861421761597 -2.2176735290033833
0.4677057878187087 -2.033242159985191
0.46040991797062747 -1.838497166105167
0.4539674817496149 -1.6345738597172685
0.4483564155197289 -1.422596490876571
0.44352401618844994 -1.2036769441009945
0.439387140666321 -0.9789307929814082
0.43591125419288 -0.749556284211612
0.43333408109903937 -0.5170858692037793
0.432304249800024 -0.28400785002130263
0.4329859097336789 -0.05481847614576607
0.8233705017290636 -0.05549260998158812
0.8237253260606089 -0.2843914397289898
0.8224361574186285 -0.5169472320770025
0.8193963464968206 -0.7491424123051397
0.8151006614288737 -0.9784095378228737
0.8097669469201808 -1.20308930590379
0.8033941429978227 -1.4219321445185111
0.7959306919204974 -1.6338168638200061
0.7873408119366012 -1.8376379871737107
0.7776092148970903 -2.032276784636588
0.7667316113029249 -2.2166006679547268
0.7547074879207842 -2.3894678867176427
0.7415362997703414 -2.549730633366732
0.7272147860889487 -2.696235817160517
0.7117331425379008 -2.82782651650596
0.6950710720632344 -2.9433507300178
0.6771861965147146 -3.0416964446078194
0.6579770964308604 -3.121927139833604
0.6375091435993193 -3.1835390711735982
0.6172371920784008 -3.2259547671268405
0.60006223682046 -3.2441702243232227
0.5828872815625192 -3.2259547671268405
0.5626153300416008 -3.183539071173598
0.5421473772100596 -3.1219271398336046
0.5229382771262056 -3.041696444607819
0.5050534015776857 -2.9433507300177997
0.4883913311030193 -2.8278265165059597
0.4729096875519713 -2.6962358171605163
0.4585881738705786 -2.549730633366731
0.4454169857201358 -2.3894678867176418
0.43339286233799534 -2.2166006679547263
0.42251525874382967 -2.0322767846365872
0.4127836617043187 -1.8376379871737103
0.4041937817204227 -1.6338168638200052
0.39673033064309726 -1.4219321445185098
0.3903575267207393 -1.2030893059037906
0.3850238122120464 -0.9784095378228737
0.38072812714409954 -0.7491424123051401
0.37768831622229165 -0.5169472320770021
0.37639914758031123 -0.28439143972898906
0.3767539719118566 -0.055492609981588274
0.8797097482749302 -0.05593358626415393
0.8797731015285435 -0.28467094386016206
0.8782211864540107 -0.5167620922499572
0.8747251182074087 -0.7486724959445615
0.8696244576190207 -0.9777918934007195
0.8631043948100829 -1.2023612760224136
0.8551951731935467 -1.4210885450925343
0.845879775696284 -1.6328463226537073
0.8351418733260737 -1.836533353663923
0.8229739941557518 -2.0310350026212807
0.8093740542619717 -2.215220753340187
0.7943418479220646 -2.387949447470196
0.7778771673475334 -2.5480729583095694
0.7599787307717826 -2.6944370941546114
0.7406421082075699 -2.8258829444470357
0.7198569623543418 -2.94125735465412
0.6976055302146139 -3.0394457535380877
0.6737893984182464 -3.1195087952774037
0.6482646759830357 -3.1811088806811463
0.6223463356282674 -3.224418689519145
0.60006223682046 -3.2445995345455
0.5777781380126527 -3.224418689519145
0.5518597976578843 -3.1811088806811463
0.5263350752226736 -3.1195087952774037
0.5025189434263062 -3.039445753538087
0.48026751128657835 -2.9412573546541196
0.45948236543335025 -2.8258829444470357
0.44014574286913744 -2.694437094154611
0.4222473062933866 -2.5480729583095685
0.4057826257188553 -2.3879494474701946
0.3907504193789484 -2.215220753340187
0.37715047948516817 -2.0310350026212802
0.36498260031484636 -1.8365333536639223
0.354244697944636 -1.6328463226537067
0.34492930044737335 -1.421088545092533
0.33702007883083734 -1.202361276022414
0.3305000160218993 -0.9777918934007195
0.32539935543351134 -0.7486724959445619
0.32190328718690947 -0.5167620922499567
0.32035137211237663 -0.28467094386016123
0.3204147253659899 -0.05593358626415413
0.9361894040089216 -0.05618588944535013
0.9360070035278277 -0.2848502203394868
0.9342042816979751 -0.5165264347162069
0.9302633604932818 -0.7481463063059761
0.9243662344791576 -0.9770791603118022
0.9166626570240413 -1.2014937337109601
0.9072166282807894 -1.420065966338177
0.8960480103110551 -1.6316622146938828
0.8831610558740043 -1.8351831852243594
0.8685563340719766 -2.0295167533379606
0.8522337851762574 -2.2135337433390796
0.8341932793011302 -2.3860933982702974
0.8144348007119534 -2.5460473859234
0.7929588071498842 -2.6922409442978985
0.7697671269959768 -2.823513773698555
0.744859839598818 -2.9387119806449906
0.7182454634102216 -3.0367230998208954
0.6898817207679123 -3.116582198535535
0.6594106347425378 -3.1780321105019
0.6276686994952135 -3.222183593852543
0.60006223682046 -3.2450689933106927
0.5724557741457067 -3.222183593852543
0.5407138388983821 -3.1780321105019
0.5102427528730078 -3.1165821985355344
0.48187901023069846 -3.036723099820895
0.4552646340421021 -2.93871198064499
0.4303573466449433 -2.8235137736985547
0.4071656664910357 -2.6922409442978976
0.38568967292896666 -2.5460473859233996
0.3659311943397897 -2.3860933982702965
0.34789068846466276 -2.2135337433390796
0.3315681395689433 -2.0295167533379606
0.3169634177669158 -1.8351831852243587
0.30407646332986493 -1.631662214693882
0.2929078453601306 -1.4200659663381758
0.28346181661687886 -1.2014937337109606
0.27575823916176256 -0.9770791603118022
0.26986111314763833 -0.7481463063059766
0.26592019194294503 -0.5165264347162062
0.2641174701130924 -0.2848502203394859
0.2639350696319986 -0.05618588944535033
0.9928300758427745 -0.056296542332275
0.9924623269682317 -0.284936770436199
0.9904434341056192 -0.5162401951486741
0.9860771158933792 -0.7475638755397508
0.9793848663791395 -0.976271045264867
0.970492021858811 -1.2004862732071713
0.959504011770274 -1.4188640735870872
0.9464790581199626 -1.6302643134093397
0.9314415898936043 -1.833587365078035
0.9143995036320124 -2.0277219903476196
0.8953542065182988 -2.2115396139388652
0.8743052543698404 -2.3838997043843277
0.8512526140996011 -2.543653854715505
0.8261980554816155 -2.6896471445312162
0.799149242463775 -2.820719192761596
0.7701202372342721 -2.935714222319849
0.7391347779050582 -3.0335290764025573
0.706261528004683 -3.113172705706513
0.671062221076854 -3.174315876916578
0.633377085386583 -3.219100354806803
0.60006223682046 -3.2457203919225974
0.5667473882543371 -3.2191003548068027
0.5290622525640659 -3.1743158769165776
0.493862945636237 -3.113172705706512
0.46098969573586185 -3.033529076402557
0.4300042364066479 -2.9357142223198496
0.4009752311771451 -2.8207191927615947
0.3739264181593042 -2.689647144531215
0.34887185954131905 -2.5436538547155045
0.3258192192710795 -2.3838997043843273
0.30477026712262134 -2.211539613938865
0.28572497000890773 -2.0277219903476196
0.2686828837473158 -1.8335873650780345
0.25364541552095754 -1.630264313409339
0.240620461870646 -1.4188640735870859
0.22963245178210917 -1.2004862732071715
0.22073960726178074 -0.9762710452648667
0.21404735774754108 -0.7475638755397513
0.20968103953530096 -0.5162401951486735
0.20766214667268845 -0.2849367704361982
0.20729439779814562 -0.056296542332275205
1.0496348420381827 -0.05631517777666655
1.0491648838342913 -0.28494269698917135
1.0469991285699412 -0.5159084358254208
1.0422360000802542 -0.7469253181577217
1.034740038556754 -0.9753653540225764
1.0246426857743582 -1.1993371218370084
1.012102573027961 -1.4174818982200006
0.9972163723691693 -1.6286521925300166
0.9800265960466346 -1.831745754044978
0.9605467358385291 -2.0256506878446183
0.9387787073422479 -2.2092383721232958
0.9147213204178268 -2.381368317473047
0.8883739636482783 -2.5408922973941914
0.8597398882137572 -2.6866552932193084
0.8288294274883377 -2.8174986371642405
0.7956765192802596 -2.932264734240006
0.7603131647170498 -3.029856572743108
0.7228961750305666 -3.1093064615956534
0.6833051641924951 -3.170022052612331
0.6398142744552756 -3.2149535882706446
0.60006223682046 -3.246715553284482
0.5603101991856443 -3.214953588270645
0.5168193094484247 -3.17002205261233
0.4772282986103533 -3.109306461595653
0.4398113089238703 -3.0298565727431077
0.4044479543606604 -2.9322647342400057
0.37129504615258224 -2.817498637164239
0.3403845854271626 -2.6866552932193075
0.31175050999264187 -2.5408922973941905
0.2854031532230931 -2.3813683174730462
0.26134576629867223 -2.2092383721232958
0.23957773780239108 -2.0256506878446183
0.2200978775942854 -1.831745754044978
0.20290810127175068 -1.628652192530016
0.18802190061295912 -1.417481898219999
0.17548178786656188 -1.199337121837009
0.1653844350841662 -0.9753653540225762
0.15788847356066618 -0.7469253181577223
0.153125345070979 -0.5159084358254202
0.1509595898066289 -0.28494269698917046
0.1504896316027374 -0.056315177776666746
1.1065802784897727 -0.05629305997312787
1.1061295151057091 -0.2848874956362909
1.1039405313519455 -0.515542771791269
1.0988142133601773 -0.746229794379492
1.0904914143193196 -0.9743575916871313
1.0791642522471225 -1.198043119052617
1.0650569813441495 -1.415917851613662
1.0483030991298636 -1.626825264589056
1.0289590672036277 -1.8296582104002255
1.0070412229379677 -2.0233028587283273
0.9825507029490566 -2.2066300399735814
0.9554849826757609 -2.378499257574236
0.9258426136605197 -2.537762422385194
0.893626750682346 -2.6832654470820207
0.858852723743272 -2.813849469224643
0.8215566082003082 -2.9283664086640044
0.7818411132335197 -3.025695668905157
0.7397439963224788 -3.1049762128372196
0.6960280729381626 -3.1653272875527185
0.6477229079918206 -3.2094579052268477
0.6000622368204601 -3.248181639798977
0.5524015656490991 -3.2094579052268477
0.5040964007027572 -3.165327287552718
0.460380477318441 -3.104976212837219
0.4182833604074003 -3.0256956689051564
0.3785678654406119 -2.928366408664004
0.34127174989764775 -2.813849469224642
0.3064977229585738 -2.6832654470820194
0.27428185998040033 -2.5377624223851933
0.24463949096515927 -2.378499257574235
0.21757377069186365 -2.2066300399735814
0.19308325070295246 -2.0233028587283273
0.17116540643729233 -1.8296582104002252
0.1518213745110563 -1.6268252645890555
0.13506749229677043 -1.4159178516136603
0.12096022139379779 -1.198043119052618
0.10963305932160047 -0.9743575916871311
0.10131026028074279 -0.7462297943794928
0.09618394228897471 -0.5155427717912684
0.09399495853521114 -0.28488749563628996
0.09354419515114758 -0.056293059973128036
1.1636001298552787 -0.05628026029339152
1.1633591703754955 -0.28480453128245853
1.1613578430238796 -0.5151625219633688
1.1558886537444286 -0.745472964733043
1.1466983050194823 -0.9732408806640319
1.1341049876842466 -1.196599631820619
1.1184110401237954 -1.4141698295843106
1.0997819809966893 -1.6247828397305664
1.078281857048892 -1.8273246251131043
1.053926131883893 -2.0206785588238096
1.0267136065809686 -2.2037146949229087
0.9966398628562022 -2.375292490249187
0.963702117223221 -2.534264230108843
0.9279027961979501 -2.679476339199471
0.8892583832671436 -2.809773217777507
0.8478144904948572 -2.924004905944655
0.8036839257457217 -3.0210860324301927
0.7570774075632809 -3.1000312440825386
0.7082795162745296 -3.1606268432049727
0.6588921388625744 -3.20233190748338
0.6000622368204602 -3.25
0.5412323347783453 -3.2023319074833796
0.49184495736639017 -3.1606268432049722
0.44304706607763883 -3.100031244082538
0.3964405478951982 -3.0210860324301927
0.3523099831460628 -2.924004905944654
0.3108660903737762 -2.8097732177775057
0.2722216774429697 -2.67947633919947
0.236422356417699 -2.534264230108842
0.203484610784718 -2.375292490249186
0.17341086705995162 -2.2037146949229087
0.14619834175702695 -2.0206785588238096
0.12184261659202807 -1.8273246251131041
0.10034249264423081 -1.6247828397305657
0.08171343351712441 -1.414169829584309
0.06601948595667365 -1.1965996318206198
0.05342616862143779 -0.9732408806640316
0.04423581989649132 -0.7454729647330438
0.038766630617040665 -0.5151625219633681
0.03676530326542459 -0.2848045312824576
0.036524343785641435 -0.05628026029339168
SCALARS Stress float 6
LOOKUP_TABLE default
-664.2948335968684 -21135.672491166442 -6539.990197428992 -491.05976626137596 0.0 0.0
10010.71306033091 5915.711207936898 4777.927280480343 -762.7792373415751 0.0 0.0
5691.912404303193 -504.8318075923133 1556.1241790132642 -326.23206935524416 0.0 0.0
5824.238699600968 443.39547834654013 1880.2902533842528 -48.58796238987151 0.0 0.0
6686.9243089773345 161.3344832648482 2054.4776376726545 -111.9813130414777 0.0 0.0
8048.552924697893 227.96400640444548 2482.9550793307026 -115.39247212114839 0.0 0.0
9551.83847304853 248.3947685397261 2940.0699724764777 -122.35969812084738 0.0 0.0
11125.279243956402 289.3070703494352 3424.375894291752 -125.01084667190909 0.0 0.0
12717.080740197678 329.5556552146431 3913.9909186236964 -125.95357920883554 0.0 0.0
14312.433806429755 371.1293953916777 4405.06896054643 -126.19893908390523 0.0 0.0
15905.999879272098 412.5798326232959 4895.573913568617 -126.19892368172599 0.0 0.0
17497.602212099933 454.0072180671729 5385.482829050131 -126.22687194512127 0.0 0.0
19089.346002737795 495.57888882683966 5875.477467469389 -126.47271841992485 0.0 0.0
20686.986887527826 537.8782140601814 6367.459530476404 -127.19695801106258 0.0 0.0
22303.168362036507 581.9062854438639 6865.5223942441135 -128.67976933551637 0.0 0.0
23959.25568938727 628.6977482054918 7376.386031277827 -130.78260842249736 0.0 0.0
25675.982125217903 677.6980555327781 7906.104054225204 -131.73483526933785 0.0 0.0
27436.00989045573 723.7321083531984 8447.922599642681 -126.27433797215721 0.0 0.0
29109.312331096487 755.3389331959714 8959.395379287747 -105.32305599080917 0.0 0.0
30388.989490682892 763.0419851648991 9345.60944275434 -61.61318599075014 0.0 0.0
30879.179431526594 758.7012621466168 9491.364208101966 6.17319528828375e-11 0.0 0.0
30388.989490682863 763.0419851646203 9345.609442754247 61.61318599080863 0.0 0.0
29109.3123310964 755.3389331960077 8959.395379287724 105.32305599077029 0.0 0.0
27436.009890455443 723.7321083527822 8447.922599642467 126.27433797214496 0.0 0.0
25675.982125217277 677.6980555312879 7906.104054224568 131.73483526959825 0.0 0.0
23959.25568938658 628.6977482038578 7376.386031277131 130.78260842252848 0.0 0.0
22303.168362036653 581.9062854444023 6865.522394244315 128.6797693356549 0.0 0.0
20686.986887527575 537.8782140597484 6367.4595304762 127.19695801118132 0.0 0.0
19089.346002738894 495.5788888291198 5875.477467470405 126.4727184197402 0.0 0.0
17497.602212099395 454.0072180656633 5385.482829049516 126.2268719450415 0.0 0.0
15905.999879272258 412.5798326236161 4895.573913568762 126.19892368157431 0.0 0.0
14312.43380642928 371.129395390844 4405.068960546038 126.19893908395633 0.0 0.0
12717.080740197784 329.55565521509305 3913.990918623862 125.95357920889018 0.0 0.0
11125.279243956626 289.3070703496779 3424.3758942918926 125.01084667200601 0.0 0.0
9551.838473048638 248.3947685396704 2940.0699724764913 122.35969812067685 0.0 0.0
8048.552924698577 227.96400640581794 2482.9550793313183 115.39247212098007 0.0 0.0
6686.924308977243 161.33448326449653 2054.4776376725213 111.9813130415403 0.0 0.0
5824.2386996013165 443.39547834724544 1880.2902533845693 48.587962389984355 0.0 0.0
5691.912404303064 -504.8318075926709 1556.124179013118 326.23206935529777 0.0 0.0
10010.713060330825 5915.7112079365725 4777.927280480219 762.7792373417518 0.0 0.0
-664.2948335967341 -21135.672491166402 -6539.9901974289405 491.0597662615646 0.0 0.0
-3771.950837225474 -20997.24676670613 -7430.759281179482 -335.57627899974057 0.0 0.0
6156.928955430657 4047.420849578345 3061.304941502701 -608.175324133716 0.0 0.0
4002.206176424297 -567.9928332284371 1030.2640029587587 -228.02376929114075 0.0 0.0
5194.84967281581 200.82553749192581 1618.7025630923208 -188.7358840252823 0.0 0.0
5945.066467061795 24.933419054872967 1790.9999658350007 -272.1181010804238 0.0 0.0
7179.992930292025 19.845668835952146 2159.9515797383933 -308.2578546572397 0.0 0.0
8512.718639865734 6.636194820242137 2555.806450405793 -324.46102381010786 0.0 0.0
9907.31361102471 2.028287947866569 2972.8025696917725 -331.0940971896421 0.0 0.0
11320.610831320602 0.21202084243718777 3396.246855648911 -332.9151200559175 0.0 0.0
12738.742143977788 -0.270656540804314 3821.5414462310964 -333.1015510691598 0.0 0.0
14156.526573888072 -0.2739360770451631 4246.875791343306 -332.8476085111598 0.0 0.0
15573.331904223165 -0.04198927322840973 4671.986974484978 -332.72281012794423 0.0 0.0
16990.90241381842 0.5837861758357068 5097.445859998276 -333.1842193773353 0.0 0.0
18414.05964248093 2.066858674924843 5524.837950346755 -335.0396008381706 0.0 0.0
19852.62011769559 4.856705199264013 5957.243046868457 -339.5560572458804 0.0 0.0
21321.25446227028 8.244212612693305 6398.849602464892 -347.556535192239 0.0 0.0
22829.22668380856 7.885883635711055 6851.133770233282 -356.10759204571235 0.0 0.0
24347.948303702888 -6.787493100333158 7302.348243180766 -352.0612538751675 0.0 0.0
25754.928867785587 -49.23554524245569 7711.707996762938 -306.89424146183666 0.0 0.0
26799.707667458806 -115.38957193543423 8005.295428657011 -188.06797781684304 0.0 0.0
27190.64748378936 -155.29414246118841 8110.606002398449 1.84456894203322e-11 0.0 0.0
26799.707667458722 -115.38957193571754 8005.295428656901 188.0679778170223 0.0 0.0
25754.92886778556 -49.23554524228554 7711.707996762981 306.8942414617669 0.0 0.0
24347.94830370326 -6.787493099376761 7302.3482431811635 352.0612538751626 0.0 0.0
22829.226683808294 7.8858836348867385 6851.133770232953 356.107592045803 0.0 0.0
21321.254462270103 8.244212612266523 6398.849602464709 347.5565351921321 0.0 0.0
19852.620117695456 4.856705199063995 5957.243046868355 339.5560572459761 0.0 0.0
18414.059642480606 2.0668586742932575 5524.83795034647 335.0396008383467 0.0 0.0
16990.90241381897 0.5837861769600465 5097.445859998779 333.18421937719756 0.0 0.0
15573.331904223052 -0.041989273744917455 4671.986974484795 332.7228101277688 0.0 0.0
14156.526573888168 -0.27393607677845466 4246.875791343418 332.84760851099645 0.0 0.0
12738.742143977799 -0.27065654074672096 3821.541446231116 333.1015510690265 0.0 0.0
11320.610831320517 0.2120208421231311 3396.2468556487925 332.9151200559502 0.0 0.0
9907.31361102454 2.0282879474250777 2972.8025696915893 331.0940971897222 0.0 0.0
8512.71863986579 6.6361948206566055 2555.8064504059344 324.4610238100557 0.0 0.0
7179.99293029239 19.845668837077536 2159.9515797388412 308.2578546571498 0.0 0.0
5945.066467061483 24.933419054285075 1790.999965834731 272.11810108040294 0.0 0.0
5194.849672816 200.8255374923831 1618.7025630925148 188.73588402535233 0.0 0.0
4002.2061764242985 -567.9928332284368 1030.2640029587587 228.02376929104787 0.0 0.0
6156.928955430439 4047.4208495779844 3061.304941502527 608.1753241338221 0.0 0.0
-3771.9508372255655 -20997.246766706172 -7430.759281179522 335.5762789999927 0.0 0.0
-4127.276768331536 -18377.995237692357 -6751.581601807167 -1545.4800436012843 0.0 0.0
3893.7688261841704 2440.0439188158693 1900.1438235000123 -1099.7753031510117 0.0 0.0
2968.167770050136 101.77062907959784 920.9815197389198 -154.62242884609802 0.0 0.0
4334.497169034132 32.893297630239914 1310.2171399993117 -435.38381465323994 0.0 0.0
5289.707986006334 77.56570650637214 1610.1821077538123 -541.8253042969174 0.0 0.0
6373.184717753151 19.299317006953835 1917.7452104280308 -620.9822671330111 0.0 0.0
7573.648490211576 10.541244934578206 2275.2569205438463 -651.9207441902186 0.0 0.0
8810.086180949455 2.6147343287196962 2643.8102745834535 -664.4238026739805 0.0 0.0
10065.00278603777 0.30763333758755396 3019.593125812607 -667.782918835353 0.0 0.0
11324.334011067516 -0.3915354695055582 3397.182742679404 -667.9772147365792 0.0 0.0
12584.157797861544 -0.3892676307626495 3775.130559069235 -667.4030044730747 0.0 0.0
13843.622767391937 -0.06977683634459453 4153.065897166678 -667.093263568213 0.0 0.0
15104.031699851399 0.7935419394446974 4531.447572537254 -667.9178360473701 0.0 0.0
16369.028553188708 2.8710469280920456 4911.569880035043 -671.4792022388497 0.0 0.0
17645.699114915562 6.877791028619518 5295.773071783254 -680.429927018071 0.0 0.0
18943.723749252295 11.966487031504196 5686.707070885141 -696.8491239322964 0.0 0.0
20266.235553785024 11.997445453832082 6083.469899771655 -715.7537704207656 0.0 0.0
21583.087845228805 -8.869034712692105 6472.265643154835 -711.6571476754282 0.0 0.0
22786.304181507196 -72.69267286475753 6814.083452592731 -626.0337766141984 0.0 0.0
23665.917945389523 -177.54393480332033 7046.512203175859 -387.49285816594755 0.0 0.0
23988.947282533285 -244.73842389535235 7123.262657591376 -1.0473399925103877e-10 0.0 0.0
23665.91794539 -177.54393480221734 7046.512203176335 387.4928581659254 0.0 0.0
22786.304181506635 -72.69267286580352 6814.08345259225 626.0337766142904 0.0 0.0
21583.08784522883 -8.869034712742732 6472.265643154827 711.6571476755049 0.0 0.0
20266.235553784863 11.997445453585826 6083.469899771535 715.7537704208144 0.0 0.0
18943.723749252902 11.966487032980623 5686.707070885764 696.8491239322508 0.0 0.0
17645.69911491546 6.8777910282199315 5295.773071783105 680.4299270181245 0.0 0.0
16369.02855318835 2.8710469273095214 4911.569880034697 671.4792022389946 0.0 0.0
15104.031699851354 0.7935419394025587 4531.447572537226 667.9178360474409 0.0 0.0
13843.622767391838 -0.06977683664872814 4153.065897166557 667.0932635681078 0.0 0.0
12584.157797861544 -0.3892676307401217 3775.130559069242 667.4030044730291 0.0 0.0
11324.334011067329 -0.3915354698999849 3397.1827426792283 667.9772147363774 0.0 0.0
10065.002786037587 0.30763333706394036 3019.5931258123956 667.7829188352464 0.0 0.0
8810.086180949254 2.6147343281218625 2643.810274583213 664.4238026740268 0.0 0.0
7573.648490211589 10.541244934475479 2275.2569205438203 651.9207441900573 0.0 0.0
6373.184717753245 19.299317007303642 1917.745210428165 620.9822671328886 0.0 0.0
5289.707986006134 77.56570650607128 1610.1821077536615 541.8253042970292 0.0 0.0
4334.497169034321 32.89329763048792 1310.217139999443 435.383814653248 0.0 0.0
2968.1677700502846 101.77062907986091 920.9815197390438 154.62242884597154 0.0 0.0
3893.768826184044 2440.0439188155474 1900.143823499877 1099.7753031510242 0.0 0.0
-4127.2767683314705 -18377.995237692336 -6751.58160180714 1545.4800436013663 0.0 0.0
-3792.8220248162515 -15798.520834442526 -5877.402857777633 -1929.3504975936285 0.0 0.0
2430.7844242619417 993.0289114035528 1027.1440006996484 -1506.1101464219726 0.0 0.0
2169.7822104500538 469.9828274315325 791.9295113644761 -458.26525223166686 0.0 0.0
3507.020639266229 67.35693218325218 1072.3132714348446 -629.3898792769091 0.0 0.0
4573.434205675147 83.46293129176692 1397.0691410900743 -806.0156774351169 0.0 0.0
5567.002484043388 36.84812488207179 1681.155182677638 -896.442485760911 0.0 0.0
6626.016908883067 13.129316921977185 1991.7438677415132 -941.5097682909513 0.0 0.0
7711.630874932451 4.25414641685727 2314.765506404792 -958.040049388932 0.0 0.0
8808.697653350844 0.3102957223225369 2642.7023847219507 -962.9278816830231 0.0 0.0
9909.942401988723 -0.5801316542332771 2972.808681100347 -963.2827048593497 0.0 0.0
11011.84556580672 -0.5893434641244859 3303.376866702779 -962.5681677397479 0.0 0.0
12113.817006272715 -0.12143163008270896 3634.1086723927892 -962.1917347895027 0.0 0.0
13216.610233189875 1.1308450711547273 3965.3223234783086 -963.3539979002979 0.0 0.0
14322.5464037665 4.187932409193605 4298.02030085271 -968.207307466799 0.0 0.0
15436.028742978646 10.214663372505473 4633.873021905345 -980.2831593478313 0.0 0.0
16562.802230618032 18.173946513999837 4974.292853139611 -1002.3028817512748 0.0 0.0
17703.20013117266 18.99502757404994 5316.658547624013 -1027.28306093964 0.0 0.0
18831.40788252714 -12.026239343312561 5645.814492955146 -1019.6547976550971 0.0 0.0
19857.5989599871 -111.54938479670092 5923.814872557119 -896.7352629924612 0.0 0.0
20602.794437052653 -280.51348634560287 6096.684285212116 -555.6754535683033 0.0 0.0
20871.12908315234 -391.54578645067807 6143.8749890105 1.1354472917446401e-10 0.0 0.0
20602.794437053697 -280.51348634298677 6096.684285213215 555.6754535681767 0.0 0.0
19857.598959986477 -111.549384797938 5923.814872556564 896.7352629924919 0.0 0.0
18831.407882526444 -12.02623934506795 5645.814492954414 1019.6547976550708 0.0 0.0
17703.20013117255 18.99502757378798 5316.658547623902 1027.2830609396256 0.0 0.0
16562.80223061831 18.173946514800143 4974.292853139931 1002.3028817512813 0.0 0.0
15436.028742978531 10.214663372135334 4633.8730219051995 980.2831593478123 0.0 0.0
14322.546403766408 4.18793240889093 4298.0203008525905 968.2073074666566 0.0 0.0
13216.610233189886 1.130845071310766 3965.32232347836 963.3539979003416 0.0 0.0
12113.817006272597 -0.12143163019901237 3634.1086723927197 962.1917347895504 0.0 0.0
11011.845565806629 -0.5893434641602653 3303.376866702741 962.5681677397534 0.0 0.0
9909.94240198842 -0.580131654923747 2972.808681100049 963.2827048592187 0.0 0.0
8808.69765335073 0.3102957218791076 2642.702384721783 962.9278816830129 0.0 0.0
7711.6308749326645 4.254146417351386 2314.765506405005 958.0400493890016 0.0 0.0
6626.01690888288 13.12931692155373 1991.7438677413295 941.5097682908767 0.0 0.0
5567.002484043386 36.848124881906195 1681.1551826775876 896.4424857608117 0.0 0.0
4573.434205675289 83.46293129210372 1397.0691410902184 806.0156774351985 0.0 0.0
3507.020639266195 67.35693218321647 1072.3132714348233 629.3898792768643 0.0 0.0
2169.782210450028 469.98282743140436 791.9295113644297 458.26525223163145 0.0 0.0
2430.7844242618794 993.0289114033408 1027.1440006995665 1506.1101464219241 0.0 0.0
-3792.822024816251 -15798.520834442552 -5877.402857777641 1929.3504975935582 0.0 0.0
-3250.525755983564 -13449.332727534365 -5009.957545055378 -1973.3829520150684 0.0 0.0
1477.0048286044164 -122.30975275589797 406.40852275455563 -1780.9473914126718 0.0 0.0
1547.3980882690257 586.3865231637922 640.1353834298454 -868.3365357091093 0.0 0.0
2753.561036207827 164.88509371396145 875.5338389765369 -858.8518780751461 0.0 0.0
3833.6907735982654 98.58471336190524 1179.682646088051 -1041.751959008025 0.0 0.0
4752.8183339884245 52.218412785233056 1441.5110240320976 -1142.4444039823295 0.0 0.0
5675.347020416312 19.015090564589254 1708.30863329427 -1192.726429639347 0.0 0.0
6611.028982255703 5.673382978288966 1985.0107095701985 -1212.635744060351 0.0 0.0
7551.962526504403 0.5261271240161687 2265.7465960885256 -1218.4472670243824 0.0 0.0
8495.399415413043 -0.8437247516704769 2548.366707198412 -1219.0665928132983 0.0 0.0
9439.526632557618 -0.8240850322394913 2831.6107642576144 -1218.3305974889195 0.0 0.0
10383.880813428459 -0.1776285226302292 3115.1109554717486 -1217.9668882539577 0.0 0.0
11328.737403683795 1.572212703573424 3399.0928849162124 -1219.3704818133313 0.0 0.0
12275.033555483635 5.857497981688809 3684.2673160395975 -1224.9880728694147 0.0 0.0
13224.653466240072 14.398775493912355 3971.715672520195 -1238.790428586852 0.0 0.0
14180.344666447136 25.932432766267986 4261.883129764024 -1263.8169332737377 0.0 0.0
15142.252550478719 27.67246937661138 4550.977505956598 -1291.8139777372166 0.0 0.0
16093.23007222928 -16.6541561240361 4822.9727748315745 -1280.21318584664 0.0 0.0
16963.81933759148 -163.21361341999858 5040.181717251446 -1127.3386105888728 0.0 0.0
17598.067089305965 -417.5746449763784 5154.147733298876 -701.3236816053471 0.0 0.0
17820.713903371165 -588.3621678233156 5169.7055206643545 3.709033080667723e-11 0.0 0.0
17598.06708930667 -417.5746449746107 5154.147733299616 701.323681605388 0.0 0.0
16963.819337591627 -163.21361341979025 5040.181717251552 1127.3386105888308 0.0 0.0
16093.230072229493 -16.654156123445517 4822.972774831816 1280.2131858466248 0.0 0.0
15142.252550478715 27.672469376774938 4550.977505956648 1291.8139777371596 0.0 0.0
14180.344666447174 25.93243276623514 4261.8831297640245 1263.8169332738128 0.0 0.0
13224.6534662396 14.398775492764635 3971.71567251971 1238.7904285869872 0.0 0.0
12275.03355548372 5.857497982060522 3684.2673160397344 1224.9880728695107 0.0 0.0
11328.737403683346 1.5722127025858228 3399.0928849157795 1219.3704818132746 0.0 0.0
10383.880813428756 -0.1776285220227578 3115.1109554720206 1217.9668882540027 0.0 0.0
9439.526632557183 -0.8240850332762122 2831.610764257172 1218.3305974889186 0.0 0.0
8495.399415412938 -0.8437247519186357 2548.366707198306 1219.0665928132312 0.0 0.0
7551.962526504334 0.5261271237912339 2265.7465960884374 1218.4472670244706 0.0 0.0
6611.028982256014 5.67338297902225 1985.010709570511 1212.6357440603642 0.0 0.0
5675.347020416454 19.01509056488983 1708.308633294403 1192.726429639366 0.0 0.0
4752.818333988413 52.21841278510746 1441.5110240320562 1142.4444039823236 0.0 0.0
3833.6907735984128 98.58471336226945 1179.6826460882044 1041.7519590080171 0.0 0.0
2753.561036207866 164.88509371395548 875.5338389765465 858.8518780750935 0.0 0.0
1547.398088269045 586.3865231637666 640.1353834298434 868.3365357090665 0.0 0.0
1477.0048286043614 -122.3097527559429 406.4085227545254 1780.9473914125956 0.0 0.0
-3250.525755983567 -13449.332727534384 -5009.957545055386 1973.3829520149054 0.0 0.0
-2692.7378126307826 -11379.516070710539 -4221.676165002397 -1882.6799193117781 0.0 0.0
848.5968823944625 -904.2878511307264 -16.707290620878922 -1943.3768651038395 0.0 0.0
1054.2283413166278 544.7255854459839 479.68617802878344 -1265.0729405991462 0.0 0.0
2080.5262222780493 256.4172059753946 701.0830284760333 -1115.3647849428498 0.0 0.0
3096.4796705319413 127.61625731836207 967.228778355091 -1255.7785121617494 0.0 0.0
3932.4542116889684 66.08620798458357 1199.5621259020656 -1356.6123001267233 0.0 0.0
4722.777246922842 25.873358229753702 1424.5951815457788 -1407.2059920578401 0.0 0.0
5509.020978990164 7.440830099375805 1654.9385427268621 -1428.2118435633977 0.0 0.0
6294.674542093855 0.7401659601284667 1888.6244124161958 -1434.5491749168045 0.0 0.0
7080.688942754277 -1.085338649909886 2123.88108123131 -1435.351427457337 0.0 0.0
7867.124627239039 -1.0764999442502265 2359.814438188436 -1434.6904625281745 0.0 0.0
8653.807050893058 -0.22278947843604513 2596.0752784243864 -1434.3791882355515 0.0 0.0
9440.537706423871 2.0738370775504684 2832.7834630504267 -1435.883879727734 0.0 0.0
10226.9310114607 7.6911837350340235 3070.38665855872 -1441.6874248925208 0.0 0.0
11012.566794327668 18.94403826138429 3309.453249776715 -1455.8234589375527 0.0 0.0
11797.922365065539 34.38969266656321 3549.693617319632 -1481.5253775323295 0.0 0.0
12584.78032175672 37.23037545262487 3786.603209162804 -1510.4634285662125 0.0 0.0
13367.754262426794 -22.128741476916012 4003.687656284964 -1496.7351350370393 0.0 0.0
14099.563011775053 -223.87679753568102 4162.705864271811 -1324.2877239166633 0.0 0.0
14640.90333128025 -582.8944500556745 4217.402664367372 -830.9490560735329 0.0 0.0
14823.412220250884 -831.3397046441421 4197.6217546820235 -7.787548383930698e-11 0.0 0.0
14640.903331279786 -582.8944500568383 4217.402664366883 830.9490560735883 0.0 0.0
14099.563011775215 -223.8767975353099 4162.705864271971 1324.287723916525 0.0 0.0
13367.754262427108 -22.128741476235973 4003.687656285261 1496.735135037073 0.0 0.0
12584.780321756774 37.23037545262526 3786.6032091628203 1510.4634285662016 0.0 0.0
11797.922365065628 34.389692666631674 3549.6936173196787 1481.525377532324 0.0 0.0
11012.566794327637 18.94403826128304 3309.4532497766763 1455.8234589375102 0.0 0.0
10226.931011461038 7.691183735883143 3070.3866585590767 1441.6874248924958 0.0 0.0
9440.537706423547 2.0738370768359573 2832.7834630501143 1435.8838797277833 0.0 0.0
8653.807050893201 -0.2227894781773685 2596.075278424508 1434.3791882355856 0.0 0.0
7867.124627238518 -1.0764999454061766 2359.8144381879333 1434.690462528035 0.0 0.0
7080.688942754336 -1.0853386497950694 2123.8810812313627 1435.351427457309 0.0 0.0
6294.674542094221 0.7401659609093585 1888.6244124165394 1434.5491749168166 0.0 0.0
5509.020978990007 7.440830099043453 1654.9385427267152 1428.2118435633981 0.0 0.0
4722.777246922794 25.87335822970848 1424.5951815457506 1407.2059920577685 0.0 0.0
3932.4542116890966 66.08620798486501 1199.5621259021887 1356.6123001267224 0.0 0.0
3096.479670531978 127.6162573184611 967.2287783551319 1255.7785121617649 0.0 0.0
2080.526222277956 256.41720597534663 701.0830284759907 1115.3647849429021 0.0 0.0
1054.2283413165997 544.7255854460732 479.68617802880175 1265.0729405991485 0.0 0.0
848.5968823944125 -904.2878511307109 -16.70729062088958 1943.3768651038179 0.0 0.0
-2692.7378126308236 -11379.516070710564 -4221.676165002416 1882.6799193117267 0.0 0.0
-2190.6367875028063 -9578.42711807249 -3530.719171672589 -1745.52193324751 0.0 0.0
427.98729902713654 -1404.800447008269 -293.0439443943397 -2021.7918867074607 0.0 0.0
654.4368252984748 422.69916555579573 323.14079725628113 -1600.049086860388 0.0 0.0
1480.4938708798468 316.6811003439959 539.152491367153 -1372.285786731132 0.0 0.0
2376.7731077137696 161.81781461727468 761.5772766993133 -1450.6338319913984 0.0 0.0
3110.9437859208083 79.96559664017056 957.2728147682934 -1538.2934132916976 0.0 0.0
3769.1161938539412 32.37971253753422 1140.4487719174426 -1585.1406255313575 0.0 0.0
4406.237564481022 9.429721631073187 1324.7001858336287 -1605.040443910381 0.0 0.0
5036.885102222038 0.9678975996551689 1511.3558999465074 -1611.2967187263473 0.0 0.0
5665.765831168723 -1.3012695452045016 1699.3393684870557 -1612.1887262158227 0.0 0.0
6294.597501908326 -1.3128207004961503 1887.9854043623495 -1611.6463088776677 0.0 0.0
6923.596724149652 -0.25512630055198926 2077.00247935473 -1611.4053933111834 0.0 0.0
7552.147163784855 2.58345433339327 2266.419185435475 -1612.8502649960856 0.0 0.0
8178.668445498269 9.493623969421982 2456.448620840308 -1618.2689655177649 0.0 0.0
8800.684040491582 23.378261810132646 2647.2186906905154 -1631.429908411659 0.0 0.0
9416.860305763465 42.77464455018209 2837.8904850940935 -1655.7349022455392 0.0 0.0
10031.621576952835 47.16068325986249 3023.634678063809 -1684.2150213461405 0.0 0.0
10653.430438172787 -27.104133955796115 3187.8978912650978 -1671.7383933377268 0.0 0.0
11259.23653392423 -288.8456147994334 3291.1172757374393 -1492.3696588551586 0.0 0.0
11721.585175606686 -771.1453729348209 3285.1319408015597 -949.7148451145599 0.0 0.0
11866.29560956019 -1119.5492385264245 3224.0239113101297 -3.362288225616794e-11 0.0 0.0
11721.585175605793 -771.1453729369235 3285.1319408006602 949.7148451145774 0.0 0.0
11259.236533924266 -288.8456147992289 3291.1172757375116 1492.3696588551375 0.0 0.0
10653.430438172429 -27.10413395662441 3187.8978912647417 1671.7383933376339 0.0 0.0
10031.621576952704 47.160683259602955 3023.6346780636923 1684.2150213461287 0.0 0.0
9416.860305763177 42.77464454940004 2837.890485093773 1655.7349022455219 0.0 0.0
8800.684040492095 23.37826181130689 2647.2186906910206 1631.4299084117738 0.0 0.0
8178.668445497835 9.493623968487618 2456.4486208398966 1618.2689655177646 0.0 0.0
7552.147163785339 2.58345433456045 2266.4191854359697 1612.8502649961463 0.0 0.0
6923.596724149476 -0.2551263007826847 2077.0024793546086 1611.4053933111913 0.0 0.0
6294.597501908366 -1.3128207003509544 1887.9854043624046 1611.6463088775715 0.0 0.0
5665.765831168921 -1.3012695447622988 1699.3393684872472 1612.1887262157486 0.0 0.0
5036.885102222366 0.9678976004318258 1511.3558999468394 1611.2967187264035 0.0 0.0
4406.237564481028 9.429721631037722 1324.7001858336203 1605.0404439103322 0.0 0.0
3769.11619385376 32.379712537045094 1140.448771917241 1585.140625531353 0.0 0.0
3110.943785920922 79.96559664044027 957.2728147684088 1538.2934132917949 0.0 0.0
2376.773107713749 161.8178146172328 761.5772766992945 1450.6338319913352 0.0 0.0
1480.4938708798618 316.6811003439356 539.1524913671392 1372.2857867311723 0.0 0.0
654.436825298538 422.69916555602344 323.1407972563685 1600.0490868604343 0.0 0.0
427.9872990270539 -1404.8004470083413 -293.0439443943863 2021.7918867074893 0.0 0.0
-2190.6367875028104 -9578.427118072472 -3530.7191716725843 1745.5219332476731 0.0 0.0
-1764.2720460458295 -8014.2857070348555 -2933.567325924205 -1599.1519787784025 0.0 0.0
139.46115388330492 -1685.5285893829082 -463.82023064988095 -2039.6497541073682 0.0 0.0
321.160325141108 273.01534730197966 178.25270173292628 -1858.0346962770639 0.0 0.0
941.5256054976747 342.469209675572 385.19844455197415 -1606.2295475426788 0.0 0.0
1681.5192341957973 192.435695436677 562.1864788897423 -1623.1546638986413 0.0 0.0
2293.2400090446104 93.40522123891512 715.9935690850577 -1687.2866829936956 0.0 0.0
2815.515051087994 38.0632378852342 856.0734866919685 -1726.2686817653314 0.0 0.0
3303.1309070537236 11.314422698958595 994.333598925805 -1743.245226124731 0.0 0.0
3778.7166302503647 1.2170014716993194 1133.980089516619 -1748.7483585786754 0.0 0.0
4250.6002082771365 -1.483867727389793 1274.7349021649236 -1749.6120990008694 0.0 0.0
4721.914663285451 -1.5132621009049885 1416.1204203553639 -1749.2064931767297 0.0 0.0
5193.260366470337 -0.27509520788393615 1557.8955813787363 -1749.0353009635246 0.0 0.0
5663.695758600271 3.0461389133171934 1700.0225692540769 -1750.2638161360662 0.0 0.0
6130.637115409189 11.083453451754927 1842.5161706582833 -1754.78442231785 0.0 0.0
6589.82219378968 27.270678317075387 1985.1278616320271 -1765.8131770776286 0.0 0.0
7038.2889447968855 50.38641260506912 2126.6026072205864 -1786.8874039361249 0.0 0.0
7483.267557994863 57.1054344932665 2262.1118977464403 -1813.8458188650511 0.0 0.0
7948.255982511548 -29.81215949007904 2375.533146906441 -1806.7808533989478 0.0 0.0
8437.1735969789 -352.6625742370485 2425.353306822556 -1634.8928163356647 0.0 0.0
8831.26977614672 -977.0427267477229 2356.2681148196993 -1061.9599297926466 0.0 0.0
8937.080461164966 -1454.8810933326824 2244.6598103496863 -4.723688107333146e-11 0.0 0.0
8831.269776146271 -977.0427267490134 2356.2681148191778 1061.9599297926313 0.0 0.0
8437.173596978842 -352.6625742371533 2425.353306822507 1634.8928163356347 0.0 0.0
7948.255982511846 -29.81215948925299 2375.533146906778 1806.780853398887 0.0 0.0
7483.267557995015 57.105434493690495 2262.111897746611 1813.8458188650611 0.0 0.0
7038.288944796751 50.38641260469515 2126.6026072204345 1786.8874039361974 0.0 0.0
6589.822193789823 27.270678317408823 1985.1278616321704 1765.8131770776727 0.0 0.0
6130.637115408902 11.083453451120825 1842.5161706580072 1754.78442231783 0.0 0.0
5663.69575860035 3.0461389134494397 1700.02256925414 1750.2638161360517 0.0 0.0
5193.260366470065 -0.27509520858409786 1557.895581378444 1749.0353009635755 0.0 0.0
4721.914663285649 -1.513262100433785 1416.120420355564 1749.2064931768732 0.0 0.0
4250.6002082769555 -1.4838677278184136 1274.7349021647408 1749.6120990008665 0.0 0.0
3778.7166302502405 1.2170014715175341 1133.9800895165274 1748.7483585787163 0.0 0.0
3303.130907053692 11.31442269892919 994.3335989257865 1743.2452261247329 0.0 0.0
2815.5150510879594 38.063237884984034 856.0734866918833 1726.268681765302 0.0 0.0
2293.240009044737 93.40522123916023 715.9935690851689 1687.2866829937004 0.0 0.0
1681.519234195886 192.43569543678302 562.1864788898006 1623.154663898647 0.0 0.0
941.5256054976957 342.46920967548976 385.1984445519558 1606.229547542619 0.0 0.0
321.160325141241 273.0153473022739 178.25270173305452 1858.034696277041 0.0 0.0
139.46115388328437 -1685.528589382961 -463.8202306499031 2039.6497541073757 0.0 0.0
-1764.2720460458227 -8014.285707034839 -2933.567325924199 1599.1519787783595 0.0 0.0
-1412.886243980711 -6651.77364042117 -2419.3979653205643 -1457.777237539603 0.0 0.0
-65.86179100259217 -1802.4606586268994 -560.4967348888478 -2013.4898986090684 0.0 0.0
34.58800603281713 127.55560236112454 48.643082518182524 -2038.4968585719866 0.0 0.0
451.28031593522286 339.80099573849026 237.32439350211394 -1801.1918934297298 0.0 0.0
1012.5197405059164 214.0770284559835 367.97903068857 -1767.554518060118 0.0 0.0
1483.0004403876392 104.87827074141121 476.36361333871525 -1802.7321808177608 0.0 0.0
1863.2646462505168 42.64237122419988 571.772105242415 -1830.215940398973 0.0 0.0
2200.076694941431 12.841719474038934 663.875524324641 -1842.778703969771 0.0 0.0
2520.287058508607 1.450521092301127 756.5212738802722 -1846.9426873629295 0.0 0.0
2835.1837043878513 -1.6204173197761307 850.0689861204223 -1847.647271988266 0.0 0.0
3149.053648650261 -1.66585784085704 944.216337242821 -1847.3832528811654 0.0 0.0
3462.812044816067 -0.285912855177088 1038.7578395882672 -1847.2721706494324 0.0 0.0
3775.2948409171104 3.4123119192274665 1133.6121458509015 -1848.1512441514 0.0 0.0
4083.164919343457 12.309862519456658 1228.6424345588744 -1851.359809762393 0.0 0.0
4380.681924415564 30.25883812932992 1323.2822287634683 -1859.3125372953425 0.0 0.0
4663.199876425905 56.58437036374113 1415.9352740368938 -1875.5491219646658 0.0 0.0
4940.064728829122 66.69981596779573 1502.029363439076 -1899.9142457281591 0.0 0.0
5250.033243210878 -28.366646999621764 1566.4999788633768 -1902.421311474424 0.0 0.0
5627.699819905921 -409.1200988118925 1565.5739163282087 -1753.7496637761456 0.0 0.0
5961.8256795585885 -1194.7732619647452 1430.1157252781531 -1171.5382276984208 0.0 0.0
6023.423796871641 -1842.3264909661016 1254.329191771662 -7.847233973734546e-11 0.0 0.0
5961.825679558525 -1194.7732619648934 1430.1157252780893 1171.5382276982928 0.0 0.0
5627.6998199060945 -409.1200988115688 1565.5739163283579 1753.749663776167 0.0 0.0
5250.033243211255 -28.366646998913566 1566.4999788637022 1902.4213114744307 0.0 0.0
4940.064728829075 66.69981596768018 1502.0293634390266 1899.9142457280225 0.0 0.0
4663.199876426348 56.58437036467769 1415.9352740373074 1875.5491219646556 0.0 0.0
4380.681924415625 30.25883812934171 1323.2822287634906 1859.3125372954307 0.0 0.0
4083.164919344061 12.30986252090237 1228.642434559489 1851.3598097624167 0.0 0.0
3775.2948409165656 3.4123119179485144 1133.6121458503542 1848.1512441514058 0.0 0.0
3462.812044816089 -0.2859128551181058 1038.7578395882913 1847.27217064952 0.0 0.0
3149.0536486499045 -1.6658578416227243 944.2163372424847 1847.383252881271 0.0 0.0
2835.183704387478 -1.6204173204882082 850.068986120097 1847.6472719883227 0.0 0.0
2520.2870585082246 1.4505210914986293 756.5212738799169 1846.9426873629536 0.0 0.0
2200.0766949410818 12.841719473163227 663.8755243242736 1842.7787039698917 0.0 0.0
1863.2646462506411 42.64237122445793 571.7721052425298 1830.2159403989353 0.0 0.0
1483.0004403877947 104.87827074170882 476.36361333885094 1802.7321808177396 0.0 0.0
1012.5197405060824 214.07702845620463 367.9790306886862 1767.5545180602203 0.0 0.0
451.2803159351198 339.8009957382273 237.3243935020041 1801.191893429611 0.0 0.0
34.58800603270375 127.55560236079376 48.64308251804926 2038.4968585720158 0.0 0.0
-65.86179100257809 -1802.4606586268428 -560.4967348888265 2013.489898609012 0.0 0.0
-1412.886243980899 -6651.773640421307 -2419.397965320661 1457.7772375395307 0.0 0.0
-1128.2913321150359 -5459.436031718498 -1976.3182091500603 -1325.1338128554144 0.0 0.0
-219.47800136947714 -1801.6234028534825 -606.3304212668879 -1954.084440124715 0.0 0.0
-219.6859904534607 3.5037235705219523 -64.85468006488162 -2146.7146903274493 0.0 0.0
-1.2992452837892436 317.29489196284874 94.79869400371788 -1947.7115763450365 0.0 0.0
368.5846037193359 224.58935770434863 177.95218842710534 -1877.7424027769875 0.0 0.0
682.3586307523477 112.8060986022637 238.54941880638344 -1882.998577901761 0.0 0.0
913.4961796757497 45.800575856239604 287.78902665959686 -1896.4784535341817 0.0 0.0
1097.4030186264642 13.857373667281426 333.37811768812367 -1903.4907749142812 0.0 0.0
1261.6878882914707 1.621177241867386 378.9927196600015 -1905.8833716556546 0.0 0.0
1419.518999653399 -1.7032760828734936 425.3447170711577 -1906.3164792718646 0.0 0.0
1576.0001730518186 -1.7618982752566055 472.27148243296864 -1906.1911302477686 0.0 0.0
1732.2643774613202 -0.29199762034448185 519.5917139522927 -1906.130227550951 0.0 0.0
1887.0272295446296 3.6427783245720136 567.2010023607604 -1906.5648679268163 0.0 0.0
2036.494670126944 13.064891846389049 614.8678685919998 -1908.1772341386347 0.0 0.0
2173.8258009083256 32.076152244916045 661.7705859459726 -1912.3810704141088 0.0 0.0
2292.4927969162804 60.7924201183309 705.9855651103834 -1922.4240612946107 0.0 0.0
2402.4152917275223 75.41528966131074 743.3491744166499 -1942.8163523829887 0.0 0.0
2556.6213828067844 -21.10327765307386 760.6554315461133 -1958.2080773543364 0.0 0.0
2825.1731679135723 -451.2473611579667 712.177742026682 -1849.3399715779547 0.0 0.0
3105.749409045884 -1417.2340864044643 506.554596792426 -1282.0310309549918 0.0 0.0
3112.131622799283 -2290.638182860438 246.44803198165312 4.391154106997419e-11 0.0 0.0
3105.7494090461632 -1417.2340864038904 506.55459679268176 1282.0310309550944 0.0 0.0
2825.173167913545 -451.24736115811055 712.1777420266303 1849.3399715780156 0.0 0.0
2556.6213828063915 -21.103277654060335 760.6554315456993 1958.208077354369 0.0 0.0
2402.4152917275915 75.41528966139398 743.3491744166956 1942.8163523829803 0.0 0.0
2292.492796916432 60.79242011868535 705.9855651105352 1922.424061294739 0.0 0.0
2173.82580090822 32.07615224486122 661.7705859459246 1912.381070414075 0.0 0.0
2036.4946701272888 13.064891847367718 614.8678685923969 1908.177234138435 0.0 0.0
1887.0272295442583 3.642778323634559 567.2010023603679 1906.5648679267283 0.0 0.0
1732.2643774614867 -0.29199761995634077 519.591713952459 1906.1302275508588 0.0 0.0
1576.000173051225 -1.7618982766217464 472.27148243238094 1906.1911302477038 0.0 0.0
1419.5189996532692 -1.703276083312403 425.3447170709871 1906.316479271857 0.0 0.0
1261.687888291312 1.6211772413217567 378.99271965979005 1905.8833716558083 0.0 0.0
1097.4030186265302 13.857373667478772 333.37811768820274 1903.4907749143865 0.0 0.0
913.4961796758477 45.80057585651255 287.7890266597081 1896.4784535342071 0.0 0.0
682.3586307524083 112.80609860242556 238.5494188064503 1882.9985779017352 0.0 0.0
368.5846037190761 224.58935770377718 177.95218842685603 1877.7424027769666 0.0 0.0
-1.299245283739623 317.2948919629703 94.79869400376924 1947.7115763449287 0.0 0.0
-219.68599045360813 3.5037235702593463 -64.85468006500469 2146.714690327509 0.0 0.0
-219.47800136949112 -1801.623402853453 -606.3304212668835 1954.0844401246338 0.0 0.0
-1128.2913321150465 -5459.436031718564 -1976.318209150083 1325.1338128553555 0.0 0.0
-900.7050233309801 -4412.245454580215 -1593.885143373358 -1200.3410709996576 0.0 0.0
-341.51494879821644 -1719.0798819000865 -618.1784492094911 -1868.0422377544944 0.0 0.0
-451.96432230539847 -91.50531007334617 -163.04088971362341 -2189.629860570633 0.0 0.0
-425.4294753292967 283.10873301487396 -42.69622269432686 -2041.0213200044925 0.0 0.0
-253.01718088081157 224.05497403051075 -8.688662055090266 -1948.4488579444828 0.0 0.0
-107.8986553006984 116.10039150243463 2.460520860520873 -1925.9859765722622 0.0 0.0
-33.01751947605587 47.224409304343865 4.262066948486378 -1924.390166780705 0.0 0.0
-4.636554830488777 14.276245551679297 2.8919072163571826 -1925.173185689615 0.0 0.0
2.9801910733303885 1.6959368018173677 1.4028383625443084 -1925.5452869845062 0.0 0.0
3.6109280422254244 -1.7306137583876513 0.5640942851513557 -1925.6380552508797 0.0 0.0
2.7467194127871153 -1.7956193542560328 0.2853300175593745 -1925.646687649554 0.0 0.0
1.6255813392847074 -0.29651925107100396 0.3987186264640741 -1925.6311909285876 0.0 0.0
-1.059090467973789 3.711825467335501 0.7958204998085279 -1925.5745373780173 0.0 0.0
-9.233480221444552 13.289150681139983 1.2167011379086432 -1925.4536854421817 0.0 0.0
-30.352210984227213 32.57890356110595 0.6680077730635787 -1925.5565860793904 0.0 0.0
-73.00127479717895 62.53318904743309 -3.1404257249236878 -1928.383789810165 0.0 0.0
-129.0251032362114 82.42578238381229 -13.979796255719663 -1942.921750476426 0.0 0.0
-133.7812294349322 -6.997321596507561 -42.23356530943187 -1972.7122292627496 0.0 0.0
24.02288132422251 -471.3563947793497 -134.20005403653818 -1920.3289112944547 0.0 0.0
256.1817556002107 -1634.9554162350757 -413.6320981904597 -1396.838823509651 0.0 0.0
188.16081431078578 -2813.4361154837848 -787.5825903518999 1.949729266925715e-11 0.0 0.0
256.1817556000673 -1634.9554162353634 -413.63209819058886 1396.8388235097575 0.0 0.0
24.022881323970353 -471.35639478011 -134.20005403684186 1920.328911294486 0.0 0.0
-133.78122943468975 -6.997321596149938 -42.23356530925187 1972.7122292628087 0.0 0.0
-129.0251032363281 82.42578238367282 -13.979796255796586 1942.9217504763708 0.0 0.0
-73.00127479693265 62.53318904809464 -3.1404257246513794 1928.383789810229 0.0 0.0
-30.352210984448277 32.578903560673105 0.6680077728674263 1925.5565860794284 0.0 0.0
-9.233480221497274 13.289150680961399 1.2167011378392374 1925.4536854420865 0.0 0.0
-1.0590904677248716 3.711825467975501 0.7958205000751946 1925.5745373780421 0.0 0.0
1.6255813390587264 -0.2965192514749688 0.39871862627509813 1925.6311909286062 0.0 0.0
2.7467194129758354 -1.7956193539526026 0.2853300177069684 1925.646687649656 0.0 0.0
3.6109280420754715 -1.7306137588471664 0.5640942849684336 1925.6380552509004 0.0 0.0
2.98019107325932 1.695936801760162 1.4028383625058751 1925.545286984574 0.0 0.0
-4.636554830167498 14.276245552503173 2.8919072167006803 1925.1731856895722 0.0 0.0
-33.01751947607842 47.224409304320474 4.262066948472604 1924.3901667806947 0.0 0.0
-107.89865530072255 116.10039150228924 2.460520860469998 1925.9859765722283 0.0 0.0
-253.01718088094873 224.0549740300287 -8.688662055275994 1948.4488579444264 0.0 0.0
-425.4294753292346 283.10873301510617 -42.69622269423855 2041.0213200044527 0.0 0.0
-451.9643223054268 -91.50531007332225 -163.04088971362472 2189.6298605705733 0.0 0.0
-341.51494879820007 -1719.0798819000481 -618.1784492094745 1868.0422377544178 0.0 0.0
-900.7050233309625 -4412.245454580227 -1593.8851433733566 1200.341070999628 0.0 0.0
-721.1431902476917 -3491.9729454992703 -1263.9348407240884 -1080.6917554489369 0.0 0.0
-444.56515548144154 -1582.3358707683956 -608.0703078749513 -1759.1773433882393 0.0 0.0
-669.4157502773539 -155.6902619308316 -247.53180366245573 -2174.0202696293964 0.0 0.0
-828.4312235711814 243.7501945230281 -175.40430871444593 -2079.351658986158 0.0 0.0
-855.6496235024181 213.81282917373372 -192.55103829860525 -1975.5634677451983 0.0 0.0
-888.0358250168508 114.32254233756885 -232.11398480378455 -1929.4687833518442 0.0 0.0
-975.947764796382 46.70608006005516 -278.77250542089814 -1913.1562253077527 0.0 0.0
-1105.9037671132062 14.0656393652596 -327.5514383243841 -1907.5843417749788 0.0 0.0
-1255.8078792498118 1.663057000117643 -376.2434466749082 -1905.8881045505887 0.0 0.0
-1412.5376407590097 -1.7032311351580063 -424.2722615682503 -1905.627099390984 0.0 0.0
-1570.7092476022083 -1.7647697856185616 -471.7422052163478 -1905.7676804270632 0.0 0.0
-1729.1022379579786 -0.29966980026063084 -518.8205723274718 -1905.800346762833 0.0 0.0
-1888.952942332107 3.609642167662315 -565.6029900493337 -1905.2590991197815 0.0 0.0
-2053.9928186477805 12.96938321425231 -612.3070306300585 -1903.4191876249715 0.0 0.0
-2231.668691071375 31.765873263006903 -659.9708453425105 -1899.420192496649 0.0 0.0
-2432.539747296737 61.50772197109277 -711.309607597693 -1894.4954827356748 0.0 0.0
-2653.1600186139717 86.53767369148905 -769.9867034767447 -1900.803281798321 0.0 0.0
-2822.28101637736 13.79522464205926 -842.5457375205904 -1943.6581633912162 0.0 0.0
-2781.188628099081 -461.27793534022317 -972.7399690317915 -1963.2047894484226 0.0 0.0
-2592.935921135503 -1834.5195278633498 -1328.236634699656 -1519.1064433036263 0.0 0.0
-2766.7486013527136 -3430.8783620707472 -1859.2880890270383 8.22524270915892e-11 0.0 0.0
-2592.9359211353753 -1834.5195278630647 -1328.2366346995323 1519.106443303671 0.0 0.0
-2781.1886280991457 -461.2779353402506 -972.7399690318189 1963.204789448455 0.0 0.0
-2822.281016377179 13.795224642577779 -842.5457375203805 1943.6581633911105 0.0 0.0
-2653.160018614367 86.53767369056675 -769.9867034771404 1900.8032817982926 0.0 0.0
-2432.53974729588 61.50772197316223 -711.3096075968153 1894.495482735595 0.0 0.0
-2231.668691071751 31.765873262187444 -659.970845342869 1899.420192496731 0.0 0.0
-2053.9928186476873 12.969383214341285 -612.3070306300036 1903.4191876250266 0.0 0.0
-1888.952942331911 3.6096421681100637 -565.6029900491402 1905.2590991197885 0.0 0.0
-1729.1022379574626 -0.299669799044203 -518.820572326952 1905.8003467627489 0.0 0.0
-1570.7092476021664 -1.7647697856544298 -471.74220521634635 1905.7676804270343 0.0 0.0
-1412.5376407590618 -1.703231135311455 -424.2722615683121 1905.6270993909484 0.0 0.0
-1255.8078792498798 1.6630569999884557 -376.2434466749675 1905.8881045506578 0.0 0.0
-1105.9037671131828 14.06563936531677 -327.5514383243597 1907.5843417749386 0.0 0.0
-975.9477647965394 46.70608005959732 -278.7725054210826 1913.1562253078068 0.0 0.0
-888.0358250170673 114.32254233681175 -232.11398480407672 1929.4687833519208 0.0 0.0
-855.6496235021856 213.81282917427387 -192.55103829837347 1975.563467745156 0.0 0.0
-828.4312235713999 243.7501945227142 -175.40430871460578 2079.351658986135 0.0 0.0
-669.4157502773434 -155.69026193069303 -247.53180366241094 2174.0202696293563 0.0 0.0
-444.5651554813608 -1582.335870768306 -608.0703078749001 1759.1773433882154 0.0 0.0
-721.1431902475252 -3491.972945499218 -1263.934840724023 1080.6917554489305 0.0 0.0
-582.2162469354225 -2686.642214009254 -980.6575382834034 -963.006682985202 0.0 0.0
-536.1001974404176 -1412.005291099705 -584.4316465620368 -1629.5455557552123 0.0 0.0
-876.7548003734531 -190.68657174853718 -320.232411636597 -2105.7889331396545 0.0 0.0
-1215.8735091379256 203.797490159748 -303.62280569345336 -2062.6305192862224 0.0 0.0
-1442.7849917343833 195.7549342442636 -374.10901724703575 -1956.0632385097128 0.0 0.0
-1659.085371451315 107.64373268551053 -465.43249162974143 -1891.3473383322446 0.0 0.0
-1915.416563165773 44.221011532301475 -561.3586654900413 -1861.9325442358468 0.0 0.0
-2206.4055901229704 13.245641851920805 -657.9479844813147 -1850.4725774172216 0.0 0.0
-2514.6841222121093 1.5305668136465655 -753.9460666195387 -1846.8696032482892 0.0 0.0
-2828.926511363819 -1.6223042505007257 -849.1646446842954 -1846.297875449079 0.0 0.0
-3144.366091181148 -1.6709800968019195 -943.8111213833851 -1846.572005516419 0.0 0.0
-3459.9240587125773 -0.2983573714315355 -1038.0667248252023 -1846.6621686988171 0.0 0.0
-3776.6781134443063 3.3454191937748448 -1131.9998082751595 -1845.6974035211304 0.0 0.0
-4097.86949133599 12.129137919927246 -1225.7221060248194 -1842.2982872253103 0.0 0.0
-4430.201392043407 29.775432384747063 -1320.1277878975984 -1834.5406172506107 0.0 0.0
-4785.5563893068775 57.72774389002508 -1418.3485936250559 -1822.014231879104 0.0 0.0
-5168.298480476427 86.2594589199134 -1524.6117064669543 -1817.566868909655 0.0 0.0
-5508.804355973146 39.2395024206136 -1640.8694560657596 -1868.2622377153127 0.0 0.0
-5595.645289336096 -413.0165352871503 -1802.5985473869735 -1971.597847250671 0.0 0.0
-5446.49314775793 -1996.2013101893494 -2232.808337384184 -1651.3505164651292 0.0 0.0
-5776.053568499535 -4172.059888250418 -2984.434037024986 1.5290879673557356e-11 0.0 0.0
-5446.493147757492 -1996.201310188225 -2232.8083373837153 1651.3505164650035 0.0 0.0
-5595.645289335769 -413.01653528630436 -1802.5985473866224 1971.59784725059 0.0 0.0
-5508.8043559734915 39.239502419709005 -1640.8694560661352 1868.262237715298 0.0 0.0
-5168.298480476275 86.25945892029927 -1524.611706466793 1817.5668689097495 0.0 0.0
-4785.556389306941 57.72774388995711 -1418.3485936250954 1822.0142318791009 0.0 0.0
-4430.201392043613 29.77543238422857 -1320.1277878978156 1834.5406172506653 0.0 0.0
-4097.869491335889 12.129137920162506 -1225.7221060247184 1842.2982872253936 0.0 0.0
-3776.678113444479 3.345419193371036 -1131.9998082753327 1845.6974035211094 0.0 0.0
-3459.9240587121976 -0.2983573704872846 -1038.066724824806 1846.6621686987082 0.0 0.0
-3144.3660911810102 -1.6709800964629729 -943.8111213832422 1846.5720055165114 0.0 0.0
-2828.9265113636097 -1.6223042499654916 -849.164644684073 1846.2978754491053 0.0 0.0
-2514.684122212209 1.5305668135166677 -753.9460666196074 1846.8696032482508 0.0 0.0
-2206.405590122895 13.245641852070651 -657.9479844812473 1850.472577417191 0.0 0.0
-1915.4165631657397 44.221011532384345 -561.3586654900068 1861.9325442359018 0.0 0.0
-1659.0853714513382 107.64373268545354 -465.4324916297654 1891.3473383323626 0.0 0.0
-1442.7849917341932 195.75493424462832 -374.10901724686954 1956.0632385097338 0.0 0.0
-1215.8735091379358 203.79749015964262 -303.6228056934878 2062.630519286273 0.0 0.0
-876.7548003734186 -190.68657174848454 -320.232411636571 2105.7889331395804 0.0 0.0
-536.100197440391 -1412.0052910996903 -584.4316465620245 1629.5455557552723 0.0 0.0
-582.2162469353729 -2686.6422140092527 -980.6575382833875 963.0066829851789 0.0 0.0
-478.16796907533103 -1989.6482530410385 -740.3448666349107 -844.3330590870031 0.0 0.0
-619.9311164120767 -1223.319165627841 -552.9750846119754 -1480.2116562770036 0.0 0.0
-1076.675687471036 -200.06096765295416 -383.020996537197 -1989.7520805007464 0.0 0.0
-1591.773944146732 166.02718627401418 -427.72402736181533 -1991.5369725309988 0.0 0.0
-2017.741652821143 171.91178160316417 -553.7489613653937 -1887.7708330437815 0.0 0.0
-2422.6287829643115 96.73466885750162 -697.7682342320429 -1809.797756642294 0.0 0.0
-2851.9587259067985 39.95884542587025 -843.5999641442785 -1769.9198283138844 0.0 0.0
-3306.3043084221054 11.894082206635318 -988.3230678646413 -1753.6047816913608 0.0 0.0
-3773.6932253908763 1.3222619686201966 -1131.7112890266765 -1748.457395543368 0.0 0.0
-4245.556873069872 -1.4892480801441508 -1274.113836345005 -1747.666724664754 0.0 0.0
-4718.217244924823 -1.519835688163198 -1415.9211241838955 -1748.076801409457 0.0 0.0
-5190.852064703814 -0.2881631105386262 -1557.3420683443062 -1748.2361461125197 0.0 0.0
-5664.290110709504 2.951406197774574 -1698.40161135352 -1746.9574885523134 0.0 0.0
-6141.045418103977 10.820850623715891 -1839.0673702440781 -1742.2985640723011 0.0 0.0
-6626.334488007991 26.837194060960925 -1979.8491881841105 -1731.4144079762666 0.0 0.0
-7131.848185745815 51.67748205762861 -2124.0512111064563 -1712.2865690448568 0.0 0.0
-7672.090457418284 80.14528485635083 -2277.5835517685787 -1695.2490037647185 0.0 0.0
-8191.41092238848 64.5885135627764 -2438.046722647711 -1743.9886096817943 0.0 0.0
-8424.035281962793 -320.2516126824614 -2623.286068393577 -1935.353026528742 0.0 0.0
-8307.506941514286 -2090.4398365169473 -3119.38403340937 -1794.4878715463005 0.0 0.0
-8871.379107219946 -5078.303047327644 -4184.904646364277 8.526512829121202e-11 0.0 0.0
-8307.506941514472 -2090.4398365172683 -3119.384033409522 1794.4878715463267 0.0 0.0
-8424.035281962617 -320.25161268207734 -2623.2860683934073 1935.3530265287159 0.0 0.0
-8191.410922389121 64.58851356118132 -2438.0467226483825 1743.9886096817772 0.0 0.0
-7672.090457418144 80.14528485672201 -2277.5835517684263 1695.2490037646842 0.0 0.0
-7131.848185745835 51.67748205746392 -2124.051211106511 1712.2865690448584 0.0 0.0
-6626.334488007846 26.83719406132232 -1979.8491881839573 1731.4144079762566 0.0 0.0
-6141.045418104039 10.820850623689243 -1839.067370244105 1742.2985640723296 0.0 0.0
-5664.290110709305 2.951406198327355 -1698.4016113532934 1746.957488552282 0.0 0.0
-5190.852064703894 -0.288163110809176 -1557.3420683444108 1748.2361461125304 0.0 0.0
-4718.217244924193 -1.519835686783484 -1415.9211241832934 1748.0768014095665 0.0 0.0
-4245.556873069644 -1.4892480794739917 -1274.1138363447353 1747.6667246647335 0.0 0.0
-3773.6932253909176 1.322261968514793 -1131.7112890267206 1748.4573955432525 0.0 0.0
-3306.304308421768 11.894082207253328 -988.3230678643544 1753.6047816913613 0.0 0.0
-2851.958725906596 39.95884542620981 -843.5999641441158 1769.9198283137994 0.0 0.0
-2422.628782964214 96.73466885777401 -697.7682342319322 1809.7977566423613 0.0 0.0
-2017.7416528212786 171.91178160287566 -553.748961365521 1887.7708330438659 0.0 0.0
-1591.773944146606 166.02718627435814 -427.7240273616746 1991.5369725309574 0.0 0.0
-1076.6756874711116 -200.06096765311787 -383.02099653726884 1989.7520805006925 0.0 0.0
-619.9311164120381 -1223.3191656278098 -552.9750846119545 1480.2116562770398 0.0 0.0
-478.16796907535996 -1989.6482530410847 -740.3448666349334 844.3330590869542 0.0 0.0
-404.5086912990962 -1398.7566021918522 -540.9795880472846 -722.3963484661061 0.0 0.0
-696.9969345842042 -1027.3875201611038 -517.3153364235925 -1311.8376293100423 0.0 0.0
-1270.0737259927369 -188.5184607853503 -437.5776560334262 -1829.5958584258651 0.0 0.0
-1958.7986886387014 131.71074558325287 -548.1263829166345 -1866.7991065765837 0.0 0.0
-2583.605868664107 144.2783427579202 -731.7982577718566 -1769.0764443233545 0.0 0.0
-3180.654426653617 82.65148591787464 -929.4008822207228 -1683.351660114069 0.0 0.0
-3786.463249486856 34.31331509704789 -1125.6449803169423 -1636.4516948840405 0.0 0.0
-4405.907339702173 10.146374811310245 -1318.7282894672592 -1616.798791854219 0.0 0.0
-5032.912974467017 1.0729463763296891 -1509.5520084272061 -1610.6394416785108 0.0 0.0
-5662.4286571542125 -1.3074861314283126 -1699.1208429856927 -1609.7545621975362 0.0 0.0
-6292.249080566321 -1.3203057405828176 -1888.070815892072 -1610.2973606211754 0.0 0.0
-6921.903556453312 -0.2675723760065196 -2076.6513386487964 -1610.5343943442754 0.0 0.0
-7551.875977066437 2.48286879083345 -2264.8179324826815 -1609.0827543995654 0.0 0.0
-8183.763979932957 9.138683003050538 -2452.3875890789723 -1603.602234896847 0.0 0.0
-8820.763863083117 23.162541084565817 -2639.280396599566 -1590.4361754358315 0.0 0.0
-9471.88900229241 44.40388130887253 -2828.245536295061 -1566.508426825444 0.0 0.0
-10161.671939071422 67.62165009865001 -3028.2150866918323 -1537.1315463825106 0.0 0.0
-10865.310849262576 81.61629748682954 -3235.1083655327234 -1570.086366324179 0.0 0.0
-11270.064789471551 -181.49453924147568 -3435.467798613908 -1839.5026087995107 0.0 0.0
-11175.88072995518 -2072.6276142163088 -3974.552503251446 -1945.5857991627702 0.0 0.0
-12097.08730361053 -6207.363634141506 -5491.3352813256115 7.219114195322618e-11 0.0 0.0
-11175.880729955383 -2072.627614216924 -3974.552503251692 1945.5857991628434 0.0 0.0
-11270.064789471624 -181.494539241712 -3435.4677986140014 1839.502608799659 0.0 0.0
-10865.31084926281 81.61629748628513 -3235.1083655329576 1570.0863663242353 0.0 0.0
-10161.67193907159 67.62165009820922 -3028.215086692014 1537.1315463826897 0.0 0.0
-9471.889002292222 44.40388130932107 -2828.245536294871 1566.508426825479 0.0 0.0
-8820.763863083093 23.162541084561312 -2639.2803965995595 1590.436175435809 0.0 0.0
-8183.7639799330545 9.138683002827431 -2452.387589079068 1603.6022348969425 0.0 0.0
-7551.875977066204 2.482868791377431 -2264.8179324824473 1609.0827543996259 0.0 0.0
-6921.9035564529195 -0.26757237521180954 -2076.6513386484394 1610.53439434423 0.0 0.0
-6292.24908056668 -1.320305741358549 -1888.0708158924117 1610.2973606211199 0.0 0.0
-5662.428657154251 -1.307486131324893 -1699.1208429856733 1609.7545621974011 0.0 0.0
-5032.912974466897 1.0729463765724931 -1509.552008427097 1610.6394416785108 0.0 0.0
-4405.90733970215 10.14637481126433 -1318.728289467266 1616.798791854174 0.0 0.0
-3786.463249486898 34.3133150968567 -1125.6449803170124 1636.451694883961 0.0 0.0
-3180.6544266534174 82.65148591822059 -929.400882220559 1683.351660114101 0.0 0.0
-2583.605868664161 144.2783427578082 -731.7982577719059 1769.0764443234157 0.0 0.0
-1958.798688638562 131.7107455835745 -548.1263829164963 1866.7991065765004 0.0 0.0
-1270.0737259926677 -188.51846078527097 -437.5776560333817 1829.5958584258842 0.0 0.0
-696.996934584043 -1027.3875201608378 -517.3153364234643 1311.8376293100337 0.0 0.0
-404.508691299092 -1398.756602191977 -540.9795880473208 722.3963484660102 0.0 0.0
-357.32730839214184 -914.9858395988048 -381.693944397284 -596.0678915946366 0.0 0.0
-765.6394265577156 -832.2856998401952 -479.37753791937325 -1125.1727035508366 0.0 0.0
-1456.072832615173 -161.616531784935 -485.30680932003247 -1627.7937468281598 0.0 0.0
-2318.4533584118462 100.99910921202574 -665.2362747599462 -1688.6293427804817 0.0 0.0
-3143.294886943492 114.82692875088996 -908.5403874577808 -1598.7007573765814 0.0 0.0
-3935.4867627096496 66.73885205828245 -1160.6243731954107 -1510.94339195898 0.0 0.0
-4720.105559258719 27.842870575113977 -1407.6788066050813 -1461.067836483303 0.0 0.0
-5505.639882636107 8.186342742032174 -1649.236061968223 -1439.9552893421278 0.0 0.0
-6292.44458613031 0.8225942422807933 -1887.4865975664086 -1433.4330978808205 0.0 0.0
-7079.536435826321 -1.0856168626835156 -2124.1866158067014 -1432.5887477614328 0.0 0.0
-7866.438858079084 -1.0841087953537354 -2360.2568900623314 -1433.2451303446992 0.0 0.0
-8653.093607352152 -0.23962584841169132 -2595.999969960171 -1433.5614853845275 0.0 0.0
-9439.56013134594 1.99889242490908 -2831.2683716763086 -1432.0810498045817 0.0 0.0
-10226.295174438508 7.27224679955534 -3065.706878291685 -1426.3367205504678 0.0 0.0
-11014.397366982146 18.821795913994904 -3298.6726713204444 -1411.9541026158518 0.0 0.0
-11807.262186393247 37.27156056705608 -3530.9971877478583 -1385.3595142997438 0.0 0.0
-12634.269716806628 50.527030076483406 -3775.1228060190424 -1347.5358693514622 0.0 0.0
-13521.475194433613 78.64392553836826 -4032.8493806685747 -1350.4451725818271 0.0 0.0
-14135.476512955584 -6.4562289610802 -4242.579822574999 -1663.8393912372248 0.0 0.0
-14046.297829157113 -1875.695471510262 -4776.597990200213 -2092.7523266444928 0.0 0.0
-15517.433228795402 -7637.98675461564 -6946.625995023313 4.4849457481177524e-11 0.0 0.0
-14046.297829156758 -1875.6954715095785 -4776.597990199902 2092.752326644516 0.0 0.0
-14135.476512955489 -6.456228960850957 -4242.579822574901 1663.839391237159 0.0 0.0
-13521.475194433217 78.64392553931869 -4032.8493806681713 1350.4451725818526 0.0 0.0
-12634.269716806737 50.527030076196475 -3775.1228060191615 1347.535869351436 0.0 0.0
-11807.262186393496 37.271560566447064 -3530.9971877481153 1385.3595142996576 0.0 0.0
-11014.397366982146 18.82179591404897 -3298.67267132043 1411.954102615797 0.0 0.0
-10226.295174438426 7.272246799884025 -3065.706878291562 1426.3367205504633 0.0 0.0
-9439.560131346372 1.9988924239398926 -2831.2683716767297 1432.0810498046849 0.0 0.0
-8653.093607352166 -0.23962584849198798 -2595.999969960198 1433.561485384264 0.0 0.0
-7866.438858079619 -1.0841087965741352 -2360.2568900628576 1433.2451303446708 0.0 0.0
-7079.536435826616 -1.0856168634139802 -2124.1866158070097 1432.588747761439 0.0 0.0
-6292.444586130057 0.8225942427781492 -1887.4865975661835 1433.4330978808803 0.0 0.0
-5505.639882636024 8.186342742212684 -1649.2360619681435 1439.9552893420396 0.0 0.0
-4720.105559258971 27.84287057436812 -1407.6788066053805 1461.0678364833857 0.0 0.0
-3935.4867627094063 66.7388520588764 -1160.6243731951593 1510.9433919589017 0.0 0.0
-3143.2948869435413 114.82692875095 -908.5403874577775 1598.70075737662 0.0 0.0
-2318.4533584118562 100.99910921195108 -665.2362747599718 1688.6293427805085 0.0 0.0
-1456.0728326150675 -161.6165317847228 -485.3068093199372 1627.7937468281261 0.0 0.0
-765.639426557636 -832.2856998398995 -479.37753791926065 1125.1727035507224 0.0 0.0
-357.3273083922438 -914.9858395989139 -381.6939443973473 596.0678915945934 0.0 0.0
-332.16728619073695 -541.2102304785452 -262.0132550007846 -466.0914920093698 0.0 0.0
-821.4314946668081 -644.1591856670387 -439.67720410015414 -921.5041838563036 0.0 0.0
-1631.8623089627818 -125.85626287090057 -527.3155715501048 -1385.2976307746003 0.0 0.0
-2671.2925804803936 73.42450376212726 -779.3604230154799 -1456.2245049725122 0.0 0.0
-3699.7474353102493 85.65564404567233 -1084.2275373793732 -1375.556958125915 0.0 0.0
-4689.769692580322 50.541357292119194 -1391.7685005864605 -1291.9517145637935 0.0 0.0
-5654.272544497083 21.214519882613004 -1689.917407384341 -1243.5698726936193 0.0 0.0
-6606.004611302351 6.227962592649682 -1979.932994612911 -1223.085499179681 0.0 0.0
-7552.397627062034 0.608254213184324 -2265.536811854655 -1216.8915744188248 0.0 0.0
-8496.862865399002 -0.8398284009251782 -2549.3108081399787 -1216.2038663152289 0.0 0.0
-9440.755316349196 -0.829859400389644 -2832.475552724875 -1216.9265295219504 0.0 0.0
-10384.421837486158 -0.19937445225649242 -3115.3863635815237 -1217.3093070401367 0.0 0.0
-11327.502977401684 1.513662502502548 -3397.7967944697552 -1215.9383672432944 0.0 0.0
-12268.957717840869 5.556168612693526 -3679.0204647684523 -1210.4893207522562 0.0 0.0
-13208.065030393725 13.85310284171706 -3958.263578265603 -1196.3941656031138 0.0 0.0
-14141.060436972892 30.899740496135294 -4233.048208943027 -1168.8679425595592 0.0 0.0
-15088.783951441206 35.22131260229218 -4516.068791651675 -1130.1179931506967 0.0 0.0
-16144.74643380281 43.558749129091645 -4830.356305402115 -1098.1242630055863 0.0 0.0
-17018.03383336884 171.39623027961443 -5053.991280926771 -1385.6937443976462 0.0 0.0
-16904.74850511748 -1400.568356762708 -5491.595058564057 -2203.25805533943 0.0 0.0
-19227.92144094792 -9472.249163809982 -8610.051181427372 4.644107320928015e-11 0.0 0.0
-16904.74850511715 -1400.5683567618569 -5491.595058563703 2203.258055339512 0.0 0.0
-17018.033833368543 171.39623028037684 -5053.99128092645 1385.6937443975887 0.0 0.0
-16144.746433802473 43.5587491299118 -4830.356305401767 1098.1242630055988 0.0 0.0
-15088.783951441275 35.22131260230421 -4516.068791651691 1130.1179931506927 0.0 0.0
-14141.060436973568 30.899740494500595 -4233.048208943718 1168.8679425595221 0.0 0.0
-13208.065030393056 13.853102843327674 -3958.263578264918 1196.394165603139 0.0 0.0
-12268.957717840094 5.556168614608643 -3679.0204647676455 1210.489320752193 0.0 0.0
-11327.50297740224 1.5136625012263671 -3397.7967944703055 1215.9383672434342 0.0 0.0
-10384.421837486594 -0.19937445336072024 -3115.386363581988 1217.309307040196 0.0 0.0
-9440.755316348956 -0.8298593998247785 -2832.475552724634 1216.9265295220557 0.0 0.0
-8496.862865399276 -0.8398284015349899 -2549.3108081402434 1216.2038663153553 0.0 0.0
-7552.397627062335 0.6082542124837889 -2265.5368118549554 1216.8915744188903 0.0 0.0
-6606.004611302238 6.227962592979229 -1979.9329946127777 1223.0854991796875 0.0 0.0
-5654.272544497078 21.21451988258098 -1689.9174073843492 1243.5698726936073 0.0 0.0
-4689.769692580115 50.54135729261499 -1391.7685005862497 1291.9517145637137 0.0 0.0
-3699.7474353101725 85.65564404582985 -1084.2275373793027 1375.5569581260424 0.0 0.0
-2671.292580480555 73.42450376175006 -779.3604230156413 1456.2245049726187 0.0 0.0
-1631.8623089626724 -125.8562628706468 -527.3155715499958 1385.2976307746085 0.0 0.0
-821.4314946667649 -644.1591856670323 -439.67720410013925 921.504183856187 0.0 0.0
-332.16728619068476 -541.2102304784871 -262.0132550007516 466.09149200930153 0.0 0.0
-322.11270285559795 -280.1233905825472 -180.67082803144353 -336.4138548850724 0.0 0.0
-856.5486517452223 -468.71497128037106 -397.57908690767806 -703.0895760140002 0.0 0.0
-1792.3312901218653 -89.02232127636441 -564.406083419469 -1100.7420784315577 0.0 0.0
-3017.2171301108497 48.65216210024968 -890.5694904031797 -1167.335746952344 0.0 0.0
-4256.2491716954855 59.196826664533496 -1259.1157035092856 -1098.767438176438 0.0 0.0
-5446.473066088416 35.70041557916445 -1623.231795152776 -1026.241665476158 0.0 0.0
-6590.477343933668 15.145004442152665 -1972.5997018474552 -984.0635782195029 0.0 0.0
-7707.533037033443 4.488219146184811 -2310.9134453661777 -966.3310825472291 0.0 0.0
-8812.870541493827 0.4523826363444172 -2643.7254476572457 -961.1073315153037 0.0 0.0
-9914.370082068941 -0.5921304009592916 -2974.48866374097 -960.6386340981612 0.0 0.0
-11015.15818489384 -0.5939300265990326 -3304.7256344761327 -961.3485935332319 0.0 0.0
-12115.873911724964 -0.1209102443104797 -3634.798446590782 -961.7381067166915 0.0 0.0
-13215.83316668644 1.0039496706431592 -3964.448765104739 -960.6527309220285 0.0 0.0
-14312.297524408928 4.236312165179918 -4292.418363673126 -955.8667106345422 0.0 0.0
-15402.071601905142 9.15231821074218 -4617.875785108319 -944.0265210759254 0.0 0.0
-16477.61033900015 23.053156894997898 -4936.367154631545 -917.6120110763933 0.0 0.0
-17529.453830465332 33.01108121491854 -5248.932824775122 -883.4305922452363 0.0 0.0
-18711.493005713914 -23.89596961189052 -5620.61669259774 -839.3253330195387 0.0 0.0
-19907.23094480161 270.5910121936504 -5890.9919797823895 -995.1472404289179 0.0 0.0
-19723.068404422174 -507.68252288627485 -6069.225278192536 -2194.443765939616 0.0 0.0
-23373.394212076364 -11826.575512635834 -10559.990917413661 3.979039320256561e-11 0.0 0.0
-19723.06840442212 -507.6825228861949 -6069.225278192496 2194.4437659395217 0.0 0.0
-19907.230944800973 270.5910121952038 -5890.99197978173 995.1472404289207 0.0 0.0
-18711.493005714106 -23.895969612373662 -5620.616692597942 839.32533301956 0.0 0.0
-17529.45383046505 33.0110812155382 -5248.932824774855 883.4305922452136 0.0 0.0
-16477.61033900016 23.053156894976475 -4936.3671546315545 917.612011076522 0.0 0.0
-15402.071601904769 9.152318211717304 -4617.875785107915 944.0265210760579 0.0 0.0
-14312.297524408534 4.236312166055683 -4292.418363672745 955.8667106344764 0.0 0.0
-13215.83316668611 1.0039496713929115 -3964.4487651044155 960.6527309220203 0.0 0.0
-12115.873911725033 -0.12091024446596066 -3634.7984465908507 961.7381067167478 0.0 0.0
-11015.158184893746 -0.5939300265691125 -3304.725634476094 961.3485935332843 0.0 0.0
-9914.370082068855 -0.5921304007442396 -2974.488663740881 960.6386340982391 0.0 0.0
-8812.870541494434 0.45238263490389385 -2643.725447657859 961.1073315152893 0.0 0.0
-7707.533037033573 4.488219145851089 -2310.9134453663173 966.3310825472273 0.0 0.0
-6590.477343933302 15.145004443038124 -1972.5997018470794 984.0635782195295 0.0 0.0
-5446.473066088547 35.70041557881879 -1623.2317951529185 1026.2416654762064 0.0 0.0
-4256.249171695347 59.19682666474601 -1259.1157035091808 1098.767438176438 0.0 0.0
-3017.2171301109547 48.65216209995423 -890.5694904033003 1167.3357469523344 0.0 0.0
-1792.3312901219376 -89.02232127643583 -564.4060834195118 1100.742078431516 0.0 0.0
-856.5486517453031 -468.7149712804904 -397.57908690773803 703.0895760139733 0.0 0.0
-322.11270285561636 -280.1233905825484 -180.67082803144942 336.41385488496013 0.0 0.0
-314.30896849585736 -130.8770753475317 -133.55581315301671 -216.7526766363136 0.0 0.0
-858.5911864803865 -313.8195195815204 -351.723211818572 -473.5101441196764 0.0 0.0
-1929.476249490202 -60.51909878686606 -596.9986044831206 -768.6761714658817 0.0 0.0
-3355.993085057835 27.740502292545173 -998.4757748295868 -818.1277240351014 0.0 0.0
-4816.911404252057 38.30563744767346 -1433.5817300413155 -767.8472998620998 0.0 0.0
-6208.865809947118 23.842295247188858 -1855.507054409979 -714.1944850170323 0.0 0.0
-7530.265872846874 10.349761555326332 -2255.9748333874645 -682.9992689910059 0.0 0.0
-8810.733318551773 3.1459626908879486 -2642.2762067582657 -669.9703639781794 0.0 0.0
-10073.923056767357 0.35679744031583027 -3022.0698777981115 -666.2101994718918 0.0 0.0
-11332.00199515396 -0.38369100887572216 -3399.7157058488524 -665.9366206247457 0.0 0.0
-12589.568286610915 -0.3930401035842124 -3776.9883980143495 -666.5042216727933 0.0 0.0
-13847.492506571087 -0.08271150597823151 -4154.27256542312 -666.8280814629397 0.0 0.0
-15104.463339651556 0.7600306011956306 -4531.110992715109 -666.0555290949637 0.0 0.0
-16357.278063905876 2.5923123866814564 -4906.405725455758 -662.6499006853829 0.0 0.0
-17596.485581300105 7.795780490575979 -5276.606940242858 -653.414990645099 0.0 0.0
-18819.23440042681 9.134329316834865 -5643.030021332992 -635.8126648772513 0.0 0.0
-19974.111527838686 47.80659510251422 -5977.8914798208525 -597.7294270962811 0.0 0.0
-21187.40813655565 -73.18275160768609 -6378.177266449002 -599.5775575037202 0.0 0.0
-22774.53036830404 117.05771452829943 -6797.241796132723 -556.1268490150525 0.0 0.0
-22451.49503099923 974.0291405114688 -6443.23976714633 -1856.7509856924332 0.0 0.0
-28176.129875191 -14780.152228246006 -12886.88463103111 -5.127276381244883e-11 0.0 0.0
-22451.495030999067 974.0291405119588 -6443.239767146133 1856.7509856923127 0.0 0.0
-22774.530368304193 117.05771452803259 -6797.241796132848 556.1268490150675 0.0 0.0
-21187.40813655609 -73.18275160884392 -6378.17726644948 599.577557503654 0.0 0.0
-19974.111527838515 47.806595103082714 -5977.89147982063 597.7294270962725 0.0 0.0
-18819.234400426307 9.134329318211353 -5643.030021332428 635.8126648774291 0.0 0.0
-17596.48558130056 7.79578048955599 -5276.606940243302 653.4149906450212 0.0 0.0
-16357.278063905535 2.59231238735652 -4906.405725455455 662.6499006852962 0.0 0.0
-15104.463339651631 0.7600306010351918 -4531.110992715178 666.0555290949065 0.0 0.0
-13847.492506570969 -0.08271150552594353 -4154.272565422949 666.8280814629614 0.0 0.0
-12589.568286611102 -0.39304010406343437 -3776.9883980145496 666.5042216728335 0.0 0.0
-11332.001995153867 -0.38369100852446203 -3399.7157058487173 665.9366206246598 0.0 0.0
-10073.923056767826 0.35679743940157493 -3022.0698777985276 666.2101994719433 0.0 0.0
-8810.733318551975 3.1459626903932314 -2642.276206758474 669.9703639782018 0.0 0.0
-7530.265872846785 10.349761555494924 -2255.974833387387 682.9992689909659 0.0 0.0
-6208.865809947521 23.842295246179628 -1855.507054410402 714.1944850171816 0.0 0.0
-4816.911404251944 38.3056374478313 -1433.5817300412343 767.847299862118 0.0 0.0
-3355.9930850580645 27.740502292201946 -998.4757748297593 818.1277240348552 0.0 0.0
-1929.476249490385 -60.51909878702476 -596.9986044832233 768.6761714659035 0.0 0.0
-858.5911864804098 -313.819519581484 -351.7232118185681 473.51014411969476 0.0 0.0
-314.3089684959147 -130.87707534753602 -133.55581315303525 216.7526766362548 0.0 0.0
-283.2537296919588 -83.02359484048118 -109.88319735973198 -127.66539018676764 0.0 0.0
-808.6654559730073 -194.74046276552187 -301.02177562155873 -237.74669743491694 0.0 0.0
-2031.5454747163444 -50.97678361254601 -624.7566774986673 -375.7154737929902 0.0 0.0
-3688.248948665144 15.3146535157777 -1101.88028854481 -404.25050376579867 0.0 0.0
-5387.3099754254345 25.738975965346924 -1608.4712998380264 -382.71719444333235 0.0 0.0
-6980.343780265088 16.6548814135893 -2089.10666965545 -356.8319506708631 0.0 0.0
-8475.156163102423 7.426079209122669 -2540.3190251679907 -341.1804954902929 0.0 0.0
-9916.01756683903 2.3142289921237023 -2974.111001354072 -334.4157958156489 0.0 0.0
-11335.557026960829 0.2875729221295984 -3400.5808362116095 -332.36058944624 0.0 0.0
-12749.66353520662 -0.2634702440413861 -3824.978101635199 -332.13897999038323 0.0 0.0
-14163.920934173046 -0.27688345057583064 -4249.259345287089 -332.38479721386716 0.0 0.0
-15579.16818910757 -0.05315372736352231 -4673.76640285048 -332.5204478951855 0.0 0.0
-16993.78925623661 0.5378850728293827 -5097.975411349134 -332.0745392320681 0.0 0.0
-18402.970249167425 1.9732117168837533 -5520.299111235162 -330.3283560266588 0.0 0.0
-19797.40215064753 4.870931846741584 -5937.759365640238 -325.4940833423277 0.0 0.0
-21152.083366540766 11.555804835899771 -6342.158268511462 -316.76104058878127 0.0 0.0
-22473.163432203015 6.600631160548602 -6739.96884031274 -300.65000562762935 0.0 0.0
-23528.30153414017 108.98891736334028 -7025.793785033049 -279.4892804522499 0.0 0.0
-25548.322376264667 -624.8750762469377 -7851.959235753481 -440.7965443740286 0.0 0.0
-25014.455931573648 3149.4977735734956 -6559.487447400051 -629.1244824099415 0.0 0.0
-33974.1710089074 -18169.641108782827 -15643.143635307068 1.0049916454590857e-10 0.0 0.0
-25014.455931572935 3149.4977735752573 -6559.4874473993 629.1244824098856 0.0 0.0
-25548.32237626529 -624.875076248404 -7851.9592357541105 440.7965443740187 0.0 0.0
-23528.30153414024 108.98891736309238 -7025.793785033147 279.48928045229644 0.0 0.0
-22473.163432203117 6.600631160087929 -6739.968840312907 300.6500056275636 0.0 0.0
-21152.083366540588 11.555804836388496 -6342.158268511261 316.7610405887955 0.0 0.0
-19797.402150647362 4.87093184720334 -5937.759365640049 325.49408334230657 0.0 0.0
-18402.97024916741 1.9732117167409786 -5520.299111235203 330.3283560266548 0.0 0.0
-16993.789256236647 0.537885072556624 -5097.975411349228 332.0745392320055 0.0 0.0
-15579.168189107457 -0.05315372718320832 -4673.766402850393 332.52044789530555 0.0 0.0
-14163.920934173078 -0.27688345072250764 -4249.259345287141 332.3847972139309 0.0 0.0
-12749.663535206662 -0.26347024422858123 -3824.978101635267 332.13897999028717 0.0 0.0
-11335.557026960865 0.28757292215587515 -3400.5808362116127 332.3605894462952 0.0 0.0
-9916.017566838993 2.314228992227255 -2974.111001354031 334.41579581575525 0.0 0.0
-8475.156163102381 7.4260792088852305 -2540.319025168049 341.18049549031286 0.0 0.0
-6980.3437802652525 16.654881413136476 -2089.1066696556354 356.8319506708689 0.0 0.0
-5387.3099754254545 25.73897596560343 -1608.4712998379555 382.7171944433796 0.0 0.0
-3688.2489486652785 15.314653515480764 -1101.8802885449393 404.2505037655833 0.0 0.0
-2031.5454747162166 -50.9767836124477 -624.7566774985993 375.7154737930187 0.0 0.0
-808.6654559728563 -194.74046276541858 -301.02177562148245 237.74669743491447 0.0 0.0
-283.2537296917979 -83.02359484038234 -109.88319735965406 127.66539018663902 0.0 0.0
-147.4154040043888 -35.04686603187845 -54.73868101088016 -85.551062892782 0.0 0.0
-658.8876599911438 -100.04118651849501 -227.67865395289166 -100.48264535415947 0.0 0.0
-2075.3663724934486 -53.7288235956396 -638.7285588267265 -127.87885337608944 0.0 0.0
-4060.233390192596 -76.73816404068444 -1241.091466269984 -142.5803487162756 0.0 0.0
-6042.528743600513 -135.34523495114445 -1853.3621935654967 -141.49437367996413 0.0 0.0
-7854.190418358084 -193.58219688259922 -2414.331784572205 -134.9101368544431 0.0 0.0
-9534.063370599286 -244.220500913048 -2933.4851614536997 -129.87862238243397 0.0 0.0
-11148.369467335608 -289.02678602430916 -3431.2188760079753 -127.28274944109842 0.0 0.0
-12739.658504743598 -331.09477209659167 -3921.225983052058 -126.28849337770293 0.0 0.0
-14326.661325338242 -372.3056130181949 -4409.690081506933 -126.03829253855218 0.0 0.0
-15915.17317200365 -413.4367425656451 -4898.58297437079 -126.02907404606856 0.0 0.0
-17505.67354341656 -454.59124377471915 -5388.079436157385 -126.00901369247475 0.0 0.0
-19096.290960353253 -495.7900239960536 -5877.624295304793 -125.75196621847306 0.0 0.0
-20681.132139968522 -535.632713723063 -6365.029456107475 -125.05995613745552 0.0 0.0
-22249.42813415391 -576.6748110431528 -6847.8308835591215 -123.39332252038707 0.0 0.0
-23766.593143536502 -599.9625134942241 -7309.966697109217 -120.1688746434985 0.0 0.0
-25217.706977014204 -676.5195286894395 -7768.267951711093 -123.44596541022702 0.0 0.0
-26401.520008942025 -446.8739495878203 -8054.518187558955 -83.99238926550333 0.0 0.0
-27619.529642261463 -1506.2943571315946 -8737.747199817919 -412.4150682601821 0.0 0.0
-28196.971650732907 3577.117080385564 -7385.956371104201 -1.856714326753945 0.0 0.0
-41695.15737568071 -21865.749207210767 -19068.271974867443 7.73070496506989e-11 0.0 0.0
-28196.971650732445 3577.11708038706 -7385.9563711036135 1.8567143266418498 0.0 0.0
-27619.529642261718 -1506.2943571321484 -8737.74719981816 412.4150682600708 0.0 0.0
-26401.520008941887 -446.87394958751065 -8054.518187558819 83.99238926556995 0.0 0.0
-25217.70697701479 -676.5195286909011 -7768.267951711707 123.44596541032888 0.0 0.0
-23766.593143536025 -599.9625134930375 -7309.966697108721 120.16887464363958 0.0 0.0
-22249.42813415286 -576.6748110406633 -6847.8308835580565 123.39332252026293 0.0 0.0
-20681.13213996927 -535.6327137249411 -6365.029456108264 125.05995613749201 0.0 0.0
-19096.290960352424 -495.79002399429373 -5877.624295304015 125.75196621847397 0.0 0.0
-17505.67354341643 -454.5912437746063 -5388.079436157309 126.00901369255837 0.0 0.0
-15915.173172004015 -413.4367425663342 -4898.582974371105 126.02907404609903 0.0 0.0
-14326.661325338751 -372.3056130189459 -4409.6900815073095 126.0382925383575 0.0 0.0
-12739.658504743555 -331.0947720964566 -3921.225983052004 126.28849337771743 0.0 0.0
-11148.369467335167 -289.0267860233653 -3431.2188760075596 127.2827494412902 0.0 0.0
-9534.063370599486 -244.2205009134055 -2933.485161453868 129.87862238243986 0.0 0.0
-7854.190418358214 -193.58219688282492 -2414.3317845723122 134.91013685419466 0.0 0.0
-6042.528743600413 -135.34523495076405 -1853.3621935653532 141.49437368010393 0.0 0.0
-4060.2333901925285 -76.73816404082501 -1241.0914662700063 142.5803487163142 0.0 0.0
-2075.3663724933504 -53.72882359557144 -638.7285588266764 127.87885337603369 0.0 0.0
-658.8876599912348 -100.04118651850106 -227.67865395292077 100.4826453541371 0.0 0.0
-147.41540400440337 -35.046866031871375 -54.73868101088243 85.55106289256369 0.0 0.0
SCALARS Strain float 6
LOOKUP_TABLE default
0.03819201986490882 -0.09487193490929341 0.0 -0.006383776961397888 0.0 0.0
0.03401310756902869 0.007395595528467606 0.0 -0.009916130085440478 0.0 0.0
0.026882623464384546 -0.013396213912936258 0.0 -0.004241016901618174 0.0 0.0
0.02563566490040866 -0.009339816037745136 0.0 -0.0006316435110683303 0.0 0.0
0.03011090336348042 -0.012305430503650745 0.0 -0.0014557570695392101 0.0 0.0
0.036176385994886755 -0.014657441974020666 0.0 -0.001500102137574929 0.0 0.0
0.04297649525371838 -0.017495888825588893 0.0 -0.0015906760755710165 0.0 0.0
0.05005587177282024 -0.020377947355625058 0.0 -0.0016251410067348183 0.0 0.0
0.057220083840230904 -0.023298829212158853 0.0 -0.0016373965297148607 0.0 0.0
0.06439787149824162 -0.02622060717350589 0.0 -0.0016405862080907676 0.0 0.0
0.0715677687770726 -0.029139461526144585 0.0 -0.0016405860078624389 0.0 0.0
0.07872877598982371 -0.03205459147138923 0.0 -0.0016409493352865772 0.0 0.0
0.0858901454792446 -0.034969340761176575 0.0 -0.0016441453394590226 0.0 0.0
0.09307692782083427 -0.03789227855670544 0.0 -0.0016535604541438134 0.0 0.0
0.10034469879065058 -0.04084350470720161 0.0 -0.0016728370013617167 0.0 0.0
0.10778865277771138 -0.04385997383997019 0.0 -0.0017001739094924663 0.0 0.0
0.11550420746145254 -0.04698463899150078 0.0 -0.0017125528585013932 0.0 0.0
0.12342256739028487 -0.05020723819338163 0.0 -0.0016415663936380433 0.0 0.0
0.13097446018675699 -0.05332636689959652 0.0 -0.0013691997278805178 0.0 0.0
0.13678197031153563 -0.05578668847433137 0.0 -0.0008009714178797509 0.0 0.0
0.13902079895226013 -0.056762309148709764 0.0 8.023096076392733e-16 0.0 0.0
0.13678197031153608 -0.055786688474332574 0.0 0.0008009714178805064 0.0 0.0
0.13097446018675643 -0.053326366899596175 0.0 0.0013691997278800138 0.0 0.0
0.12342256739028434 -0.050207238193382964 0.0 0.0016415663936378833 0.0 0.0
0.11550420746145257 -0.046984638991506324 0.0 0.001712552858504776 0.0 0.0
0.10778865277771141 -0.04385997383997628 0.0 0.0017001739094928726 0.0 0.0
0.10034469879065018 -0.04084350470719944 0.0 0.0016728370013635117 0.0 0.0
0.093076927820834 -0.03789227855670695 0.0 0.001653560454145356 0.0 0.0
0.08589014547924523 -0.03496934076116836 0.0 0.001644145339456624 0.0 0.0
0.07872877598982421 -0.032054591471395055 0.0 0.0016409493352855403 0.0 0.0
0.07156776877707273 -0.029139461526143447 0.0 0.0016405860078604656 0.0 0.0
0.06439787149824108 -0.026220607173508756 0.0 0.0016405862080914346 0.0 0.0
0.05722008384023049 -0.02329882921215701 0.0 0.0016373965297155724 0.0 0.0
0.050055871772820795 -0.02037794735562439 0.0 0.0016251410067360792 0.0 0.0
0.04297649525371893 -0.017495888825589348 0.0 0.0015906760755687991 0.0 0.0
0.03617638599488719 -0.014657441974015757 0.0 0.001500102137572741 0.0 0.0
0.030110903363480684 -0.012305430503652164 0.0 0.0014557570695400248 0.0 0.0
0.025635664900408868 -0.009339816037742607 0.0 0.0006316435110697962 0.0 0.0
0.026882623464384657 -0.013396213912937636 0.0 0.004241016901618873 0.0 0.0
0.03401310756902894 0.007395595528466296 0.0 0.009916130085442771 0.0 0.0
0.03819201986490936 -0.0948719349092935 0.0 0.006383776961400337 0.0 0.0
0.02378225488570106 -0.08818216865592325 0.0 -0.004362491626996632 0.0 0.0
0.020121556090531723 0.006409753402491682 0.0 -0.007906279213738307 0.0 0.0
0.019317624127526013 -0.010388669435216772 0.0 -0.00296430900078483 0.0 0.0
0.023244956213202685 -0.009216200666402571 0.0 -0.00245356649232867 0.0 0.0
0.027001432257974172 -0.011479432554070832 0.0 -0.003537535314045509 0.0 0.0
0.032630268778598606 -0.01391068842086587 0.0 -0.004007352110544116 0.0 0.0
0.03871992923148962 -0.016569606661306083 0.0 -0.004217993309531402 0.0 0.0
0.0450743217686641 -0.019310032831335394 0.0 -0.004304223263465347 0.0 0.0
0.051508365841865994 -0.022074226426242086 0.0 -0.004327896560726926 0.0 0.0
0.05796180453535352 -0.024841778668017355 0.0 -0.004330320163899076 0.0 0.0
0.06441273008654094 -0.027606473228232297 0.0 -0.004327018910645077 0.0 0.0
0.07085874204329819 -0.03036818826442836 0.0 -0.004325396531663275 0.0 0.0
0.07730746759983094 -0.033129603479845886 0.0 -0.0043313948519053585 0.0 0.0
0.08377994099887215 -0.03589801209586691 0.0 -0.0043555148108962135 0.0 0.0
0.09031995096037639 -0.03869051122084975 0.0 -0.004414228744196445 0.0 0.0
0.09699563158873506 -0.0415389350340393 0.0 -0.004518234957499106 0.0 0.0
0.10385760393823935 -0.044481111262884225 0.0 -0.00462939869659426 0.0 0.0
0.11079640039339379 -0.04750938228582715 0.0 -0.004576796300377179 0.0 0.0
0.11728093566164721 -0.05044613302303507 0.0 -0.0039896251390038745 0.0 0.0
0.12216367955221169 -0.052784452503850915 0.0 -0.002444883711618958 0.0 0.0
0.12402026962904089 -0.05372835094158766 0.0 2.419939248987646e-16 0.0 0.0
0.12216367955221186 -0.05278445250385204 0.0 0.002444883711621293 0.0 0.0
0.11728093566164677 -0.05044613302303424 0.0 0.0039896251390029724 0.0 0.0
0.11079640039339363 -0.04750938228582353 0.0 0.004576796300377117 0.0 0.0
0.10385760393823973 -0.04448111126288744 0.0 0.004629398696595439 0.0 0.0
0.09699563158873507 -0.04153893503404089 0.0 0.004518234957497714 0.0 0.0
0.09031995096037615 -0.0386905112208504 0.0 0.0044142287441976905 0.0 0.0
0.08377994099887189 -0.03589801209586915 0.0 0.004355514810898506 0.0 0.0
0.07730746759983126 -0.03312960347984183 0.0 0.004331394851903567 0.0 0.0
0.07085874204329874 -0.030368188264430503 0.0 0.004325396531660995 0.0 0.0
0.0644127300865409 -0.027606473228231284 0.0 0.004327018910642955 0.0 0.0
0.05796180453535345 -0.024841778668017116 0.0 0.004330320163897346 0.0 0.0
0.05150836584186623 -0.022074226426243355 0.0 0.004327896560727353 0.0 0.0
0.045074321768664175 -0.01931003283133707 0.0 0.004304223263466389 0.0 0.0
0.038719929231489064 -0.016569606661304307 0.0 0.004217993309530722 0.0 0.0
0.03263026877859808 -0.013910688420861461 0.0 0.0040073521105429485 0.0 0.0
0.027001432257973898 -0.011479432554072898 0.0 0.0035375353140452356 0.0 0.0
0.023244956213202658 -0.009216200666400859 0.0 0.0024535664923295807 0.0 0.0
0.019317624127526016 -0.010388669435216772 0.0 0.0029643090007836228 0.0 0.0
0.02012155609053143 0.006409753402490477 0.0 0.007906279213739681 0.0 0.0
0.023782254885700717 -0.08818216865592325 0.0 0.004362491626999912 0.0 0.0
0.017057981417591614 -0.07557168863325375 0.0 -0.0200912405668167 0.0 0.0
0.012958562517447036 0.0035093506195530704 0.0 -0.01429707894096315 0.0 0.0
0.0133067106270229 -0.005324870789285592 0.0 -0.0020100915749992738 0.0 0.0
0.019657820188726336 -0.008302604975398966 0.0 -0.00565998959049212 0.0 0.0
0.023916918208641412 -0.009962006608108366 0.0 -0.0070437289558599285 0.0 0.0
0.02896035679761328 -0.012339898307237007 0.0 -0.008072769472729143 0.0 0.0
0.034439545202840254 -0.014720651891460244 0.0 -0.008474969674472841 0.0 0.0
0.04008079339137905 -0.017167771011655772 0.0 -0.008637509434761747 0.0 0.0
0.04579516279146356 -0.019625355701087633 0.0 -0.00868117794485959 0.0 0.0
0.051526483244522754 -0.022084232807967917 0.0 -0.008683703791575532 0.0 0.0
0.057258677052150014 -0.024540878873549984 0.0 -0.008676239058149971 0.0 0.0
0.06298861965646421 -0.026995381881019652 0.0 -0.008672212426386766 0.0 0.0
0.068721796827542 -0.029449251198885758 0.0 -0.00868293186861581 0.0 0.0
0.07447348137549888 -0.03190654241519518 0.0 -0.008729229629105049 0.0 0.0
0.08027451928036002 -0.03437781932490514 0.0 -0.008845589051234925 0.0 0.0
0.08617060840938653 -0.036885813795048655 0.0 -0.009059038611119855 0.0 0.0
0.09218797675108686 -0.03946457095306585 0.0 -0.00930479901546995 0.0 0.0
0.09822034431348083 -0.04212737540613893 0.0 -0.009251542919780566 0.0 0.0
0.10381943473794406 -0.04476404481547368 0.0 -0.00813843909598458 0.0 0.0
0.10802613732438879 -0.046956364896864666 0.0 -0.005037407156157319 0.0 0.0
0.10962695006212238 -0.04789200702966375 0.0 -1.3621916095107878e-15 0.0 0.0
0.10802613732438886 -0.04695636489686061 0.0 0.005037407156157028 0.0 0.0
0.1038194347379435 -0.04476404481547735 0.0 0.008138439095985776 0.0 0.0
0.09822034431348105 -0.042127375406139214 0.0 0.009251542919781561 0.0 0.0
0.09218797675108666 -0.03946457095306667 0.0 0.009304799015470589 0.0 0.0
0.0861706084093864 -0.0368858137950431 0.0 0.009059038611119258 0.0 0.0
0.0802745192803603 -0.03437781932490675 0.0 0.008845589051235623 0.0 0.0
0.07447348137549875 -0.03190654241519804 0.0 0.008729229629106931 0.0 0.0
0.06872179682754184 -0.029449251198885862 0.0 0.008682931868616735 0.0 0.0
0.06298861965646434 -0.026995381881020842 0.0 0.008672212426385401 0.0 0.0
0.05725867705214999 -0.024540878873549884 0.0 0.008676239058149376 0.0 0.0
0.05152648324452266 -0.02208423280796934 0.0 0.008683703791572905 0.0 0.0
0.04579516279146374 -0.019625355701089652 0.0 0.008681177944858202 0.0 0.0
0.04008079339137927 -0.017167771011658093 0.0 0.00863750943476235 0.0 0.0
0.03443954520284052 -0.01472065189146074 0.0 0.008474969674470747 0.0 0.0
0.028960356797613024 -0.0123398983072356 0.0 0.008072769472727554 0.0 0.0
0.023916918208641065 -0.009962006608109336 0.0 0.007043728955861379 0.0 0.0
0.01965782018872671 -0.008302604975398208 0.0 0.005659989590492225 0.0 0.0
0.013306710627023068 -0.0053248707892846895 0.0 0.0020100915749976305 0.0 0.0
0.012958562517447087 0.0035093506195518565 0.0 0.014297078940963315 0.0 0.0
0.01705798141759186 -0.07557168863325374 0.0 0.02009124056681776 0.0 0.0
0.013549775414248979 -0.0644872668483218 0.0 -0.025081556468717167 0.0 0.0
0.009123662753154908 -0.00022174808042462146 0.0 -0.019579431903485645 0.0 0.0
0.00895604254405626 -0.002092653445564133 0.0 -0.0059574482790116685 0.0 0.0
0.015825597890904007 -0.0065322162051353536 0.0 -0.008182068430599815 0.0 0.0
0.020646372919802973 -0.008538440363688997 0.0 -0.010478203806656518 0.0 0.0
0.02525800745887738 -0.010687995875671184 0.0 -0.011653752314891838 0.0 0.0
0.030122774767420105 -0.012860994580326988 0.0 -0.012239626987782372 0.0 0.0
0.03507962489542979 -0.01501832383992158 0.0 -0.01245452064205612 0.0 0.0
0.04007896924608781 -0.017175548578497582 0.0 -0.0125180624618793 0.0 0.0
0.045091369185774444 -0.019327027282904773 0.0 -0.012522675163171553 0.0 0.0
0.05010504654417563 -0.021475780366084878 0.0 -0.012513386180616724 0.0 0.0
0.05511810417021952 -0.02362249567614868 0.0 -0.012508492552263535 0.0 0.0
0.060133371413125206 -0.02576724460964652 0.0 -0.012523601972703871 0.0 0.0
0.06515941966893969 -0.027909910394882855 0.0 -0.012586694997068389 0.0 0.0
0.07021401218697644 -0.030053779330463465 0.0 -0.012743681071521806 0.0 0.0
0.07532531095360977 -0.03221477289306648 0.0 -0.013029937462766572 0.0 0.0
0.08051252029306621 -0.034434812880324774 0.0 -0.013354679792215317 0.0 0.0
0.08570635703221792 -0.03677596475993999 0.0 -0.01325551236951626 0.0 0.0
0.09056959656829487 -0.03922986767279983 0.0 -0.011657558418901995 0.0 0.0
0.09428971598696352 -0.04145178551512519 0.0 -0.007223780896387939 0.0 0.0
0.09572715161192198 -0.042480235040497645 0.0 1.476683358925257e-15 0.0 0.0
0.09428971598696317 -0.04145178551511531 0.0 0.0072237808963862985 0.0 0.0
0.09056959656829448 -0.039229867672804265 0.0 0.011657558418902394 0.0 0.0
0.08570635703221821 -0.036775964759946635 0.0 0.013255512369515922 0.0 0.0
0.08051252029306624 -0.03443481288032576 0.0 0.013354679792215132 0.0 0.0
0.07532531095360945 -0.03221477289306337 0.0 0.013029937462766657 0.0 0.0
0.07021401218697665 -0.030053779330464922 0.0 0.01274368107152156 0.0 0.0
0.06515941966893986 -0.027909910394884056 0.0 0.012586694997066536 0.0 0.0
0.060133371413124956 -0.02576724460964582 0.0 0.01252360197270444 0.0 0.0
0.055118104170219215 -0.023622495676148977 0.0 0.012508492552264158 0.0 0.0
0.05010504654417528 -0.021475780366084853 0.0 0.012513386180616795 0.0 0.0
0.04509136918577442 -0.019327027282907323 0.0 0.012522675163169844 0.0 0.0
0.04007896924608817 -0.01717554857849938 0.0 0.012518062461879172 0.0 0.0
0.03507962489542979 -0.015018323839919748 0.0 0.012454520642057028 0.0 0.0
0.03012277476742007 -0.012860994580328543 0.0 0.012239626987781398 0.0 0.0
0.025258007458877692 -0.010687995875671931 0.0 0.01165375231489055 0.0 0.0
0.02064637291980297 -0.008538440363687743 0.0 0.010478203806657583 0.0 0.0
0.015825597890903917 -0.006532216205135449 0.0 0.008182068430599236 0.0 0.0
0.008956042544056391 -0.0020926534455646658 0.0 0.005957448279011209 0.0 0.0
0.00912366275315504 -0.0002217480804254648 0.0 0.019579431903485014 0.0 0.0
0.013549775414249036 -0.06448726684832191 0.0 0.02508155646871626 0.0 0.0
0.011436306628966796 -0.05485593868611341 0.0 -0.025653978376195895 0.0 0.0
0.006958875988024098 -0.003436668790817948 0.0 -0.02315231608836474 0.0 0.0
0.005897207581454672 -0.00034936759172934527 0.0 -0.01128837496421842 0.0 0.0
0.012207176782003391 -0.00461921684420674 0.0 -0.011165074414976899 0.0 0.0
0.017251052828816393 -0.00702713656271995 0.0 -0.01354277546710433 0.0 0.0
0.021523497514716137 -0.00903040197310462 0.0 -0.014851777251770289 0.0 0.0
0.02578574951629327 -0.010980408027742932 0.0 -0.015505443585311515 0.0 0.0
0.030069118772455793 -0.012865692622847416 0.0 -0.015764264672784568 0.0 0.0
0.0343604035477032 -0.01472393304826931 0.0 -0.015839814471316965 0.0 0.0
0.03865571260339511 -0.016569867807675543 0.0 -0.015847865706572872 0.0 0.0
0.04295145314395005 -0.018410826520384053 0.0 -0.015838297767355954 0.0 0.0
0.04724700407671863 -0.020249375795963465 0.0 -0.015833569547301453 0.0 0.0
0.051542689371989345 -0.02208388436938216 0.0 -0.015851816263573303 0.0 0.0
0.05583998055638625 -0.023909663817376414 0.0 -0.01592484494730239 0.0 0.0
0.060144095659179206 -0.025722559830670847 0.0 -0.016104275571629075 0.0 0.0
0.06446999998844025 -0.0275336795304854 0.0 -0.01642962013255859 0.0 0.0
0.06884328778939376 -0.02940148273776992 0.0 -0.01679358171058382 0.0 0.0
0.07325667243308513 -0.03145757505121147 0.0 -0.01664277141600632 0.0 0.0
0.07750364453221024 -0.03382206964936439 0.0 -0.01465540193765534 0.0 0.0
0.08088547581404609 -0.03621619545878917 0.0 -0.009117207860869513 0.0 0.0
0.08223155448759427 -0.037427439975169854 0.0 4.826868071905466e-16 0.0 0.0
0.08088547581404586 -0.036216195458782484 0.0 0.009117207860870048 0.0 0.0
0.0775036445322105 -0.03382206964936374 0.0 0.014655401937654796 0.0 0.0
0.07325667243308494 -0.031457575051209205 0.0 0.016642771416006123 0.0 0.0
0.06884328778939346 -0.02940148273776918 0.0 0.016793581710583077 0.0 0.0
0.0644699999884405 -0.027533679530485626 0.0 0.016429620132559573 0.0 0.0
0.0601440956591793 -0.025722559830675146 0.0 0.01610427557163083 0.0 0.0
0.05583998055638592 -0.023909663817374888 0.0 0.01592484494730364 0.0 0.0
0.051542689371989164 -0.02208388436938576 0.0 0.015851816263572575 0.0 0.0
0.04724700407671879 -0.02024937579596128 0.0 0.015833569547302036 0.0 0.0
0.042951453143950075 -0.018410826520387915 0.0 0.01583829776735594 0.0 0.0
0.03865571260339513 -0.01656986780767647 0.0 0.01584786570657201 0.0 0.0
0.03436040354770334 -0.014723933048270205 0.0 0.015839814471318117 0.0 0.0
0.030069118772455765 -0.012865692622844675 0.0 0.01576426467278473 0.0 0.0
0.025785749516293324 -0.010980408027741837 0.0 0.015505443585311755 0.0 0.0
0.021523497514716324 -0.009030401973105168 0.0 0.014851777251770205 0.0 0.0
0.01725105282881635 -0.007027136562718578 0.0 0.01354277546710422 0.0 0.0
0.012207176782003577 -0.004619216844206841 0.0 0.011165074414976214 0.0 0.0
0.00589720758145481 -0.00034936759172949977 0.0 0.01128837496421786 0.0 0.0
0.006958875988023937 -0.0034366687908180473 0.0 0.023152316088363746 0.0 0.0
0.011436306628966823 -0.0548559386861135 0.0 0.025653978376193768 0.0 0.0
0.009938099290415496 -0.046525959387102925 0.0 -0.02447483895105312 0.0 0.0
0.005624477124599721 -0.005769273643314004 0.0 -0.02526389924634992 0.0 0.0
0.0037345240613709885 0.00042275614821180236 0.0 -0.016445948227788904 0.0 0.0
0.008966380759713106 -0.0028903278462541508 0.0 -0.014499742204257045 0.0 0.0
0.013840130799149534 -0.005457481386738741 0.0 -0.016325120658102744 0.0 0.0
0.01776379855761487 -0.0073675934664636355 0.0 -0.017635959901647406 0.0 0.0
0.021438183424950914 -0.009091691851554165 0.0 -0.018293677896751927 0.0 0.0
0.02505153583571146 -0.010708735132078661 0.0 -0.018566753966324172 0.0 0.0
0.0286393258429048 -0.012271247601964436 0.0 -0.01864913927391846 0.0 0.0
0.03221925109989929 -0.013812281729227929 0.0 -0.018659568556945384 0.0 0.0
0.03579751622882892 -0.015345791097862466 0.0 -0.018650976012866277 0.0 0.0
0.03937525652104637 -0.016875937441368356 0.0 -0.018646929447062175 0.0 0.0
0.04295040258192741 -0.018399612568823703 0.0 -0.018666490436460542 0.0 0.0
0.04651753829386286 -0.019907520586353956 0.0 -0.018741936523602773 0.0 0.0
0.05007023803958119 -0.021388309874849656 0.0 -0.018925704966188187 0.0 0.0
0.053613486860348426 -0.02284947551024495 0.0 -0.01925982990792028 0.0 0.0
0.057188151231860496 -0.02437092341911617 0.0 -0.019636024571360766 0.0 0.0
0.060866432939921916 -0.026167806585452223 0.0 -0.019457556755481505 0.0 0.0
0.06458957145877109 -0.028512787301748707 0.0 -0.01721574041091662 0.0 0.0
0.0677527543349337 -0.0312019312437498 0.0 -0.010802337728955926 0.0 0.0
0.06906763802619763 -0.03268824948562008 0.0 -1.0135121908394495e-15 0.0 0.0
0.06775275433493387 -0.0312019312437542 0.0 0.01080233772895665 0.0 0.0
0.06458957145877108 -0.028512787301747326 0.0 0.017215740410914823 0.0 0.0
0.06086643293992201 -0.026167806585449736 0.0 0.01945755675548195 0.0 0.0
0.057188151231860704 -0.02437092341911627 0.0 0.019636024571360624 0.0 0.0
0.05361348686034868 -0.022849475510244806 0.0 0.01925982990792021 0.0 0.0
0.05007023803958126 -0.02138830987485006 0.0 0.018925704966187635 0.0 0.0
0.046517538293862765 -0.019907520586350765 0.0 0.01874193652360245 0.0 0.0
0.04295040258192732 -0.018399612568826315 0.0 0.018666490436461184 0.0 0.0
0.039375256521046516 -0.01687593744136746 0.0 0.01864692944706261 0.0 0.0
0.035797516228828805 -0.015345791097866712 0.0 0.018650976012864452 0.0 0.0
0.032219251099899336 -0.013812281729227525 0.0 0.018659568556945016 0.0 0.0
0.028639325842904934 -0.012271247601961594 0.0 0.01864913927391862 0.0 0.0
0.0250515358357114 -0.010708735132079867 0.0 0.01856675396632418 0.0 0.0
0.02143818342495078 -0.009091691851554277 0.0 0.01829367789675099 0.0 0.0
0.017763798557614906 -0.007367593466462603 0.0 0.017635959901647395 0.0 0.0
0.013840130799149508 -0.005457481386738362 0.0 0.016325120658102946 0.0 0.0
0.008966380759712777 -0.002890327846254188 0.0 0.014499742204257728 0.0 0.0
0.003734524061370685 0.0004227561482122638 0.0 0.016445948227788932 0.0 0.0
0.005624477124599464 -0.0057692736433138415 0.0 0.025263899246349638 0.0 0.0
0.009938099290415357 -0.046525959387102966 0.0 0.024474838951052444 0.0 0.0
0.00871053549710359 -0.039310101651599365 0.0 -0.022691785132217635 0.0 0.0
0.004686703082239597 -0.007226417266990541 0.0 -0.02628329452719699 0.0 0.0
0.0021534241822742588 0.0006471293939468448 0.0 -0.020800638129185044 0.0 0.0
0.006118718966832513 -0.0014460640416505204 0.0 -0.017839715227504716 0.0 0.0
0.010498772901593968 -0.0038984365035332515 0.0 -0.018858239815888175 0.0 0.0
0.013998861312491343 -0.005702496917832799 0.0 -0.019997814372792064 0.0 0.0
0.017086338242587245 -0.007202448885969407 0.0 -0.020606828131907652 0.0 0.0
0.020029992961208058 -0.00854925801731661 0.0 -0.020865525770834954 0.0 0.0
0.022915939814790946 -0.009817522015254541 0.0 -0.020946857343442517 0.0 0.0
0.025781772007430835 -0.011054164147209692 0.0 -0.0209584534408057 0.0 0.0
0.028642978634048855 -0.0122804384629085 0.0 -0.020951402015409678 0.0 0.0
0.031502862591167 -0.013502174436759334 0.0 -0.020948270113045384 0.0 0.0
0.03435723185927099 -0.014714932252163533 0.0 -0.020967053444949115 0.0 0.0
0.037194428860276775 -0.015905207479660767 0.0 -0.02103749655173094 0.0 0.0
0.03999752477370696 -0.01705496278772249 0.0 -0.02120858880935157 0.0 0.0
0.0427633038343509 -0.018168252963535428 0.0 -0.02152455372919201 0.0 0.0
0.04555191484277867 -0.019347080966225658 0.0 -0.02189479527749983 0.0 0.0
0.048525961554899986 -0.020897513163935812 0.0 -0.021732599113390448 0.0 0.0
0.051792775178214144 -0.023269758788489674 0.0 -0.019400805565117068 0.0 0.0
0.054836946026233326 -0.026365802539286477 0.0 -0.01234629298648928 0.0 0.0
0.0561747660386254 -0.028233225473937612 0.0 -4.349819116011844e-16 0.0 0.0
0.05483694602623337 -0.0263658025392943 0.0 0.012346292986489506 0.0 0.0
0.05179277517821392 -0.023269758788488814 0.0 0.019400805565116794 0.0 0.0
0.04852596155489997 -0.020897513163938883 0.0 0.021732599113389237 0.0 0.0
0.04555191484277859 -0.019347080966226584 0.0 0.021894795277499685 0.0 0.0
0.042763303834351125 -0.018168252963538425 0.0 0.021524553729191785 0.0 0.0
0.03999752477370698 -0.01705496278771814 0.0 0.02120858880935305 0.0 0.0
0.0371944288602766 -0.015905207479664167 0.0 0.021037496551730935 0.0 0.0
0.0343572318592709 -0.014714932252159165 0.0 0.0209670534449499 0.0 0.0
0.03150286259116666 -0.013502174436760044 0.0 0.020948270113045488 0.0 0.0
0.02864297863404875 -0.012280438462907913 0.0 0.02095140201540843 0.0 0.0
0.02578177200743088 -0.011054164147208067 0.0 0.02095845344080473 0.0 0.0
0.02291593981479093 -0.009817522015251655 0.0 0.020946857343443245 0.0 0.0
0.020029992961208155 -0.008549258017316787 0.0 0.020865525770834316 0.0 0.0
0.01708633824258737 -0.007202448885971277 0.0 0.020606828131907593 0.0 0.0
0.01399886131249134 -0.005702496917831798 0.0 0.01999781437279334 0.0 0.0
0.010498772901593956 -0.0038984365035334024 0.0 0.018858239815887353 0.0 0.0
0.006118718966832697 -0.0014460640416508238 0.0 0.017839715227505236 0.0 0.0
0.0021534241822741026 0.0006471293939477573 0.0 0.020800638129185648 0.0 0.0
0.004686703082239362 -0.00722641726699071 0.0 0.026283294527197357 0.0 0.0
0.008710535497103534 -0.03931010165159927 0.0 0.02269178513221976 0.0 0.0
0.007600419319209444 -0.03302466947721923 0.0 -0.02078897572411923 0.0 0.0
0.00392132899946571 -0.007941104331764681 0.0 -0.026515446803395782 0.0 0.0
0.0009288995521531813 0.0006159571961988469 0.0 -0.024154451051601827 0.0 0.0
0.003616126546147057 -0.00027774002669661416 0.0 -0.02088098411805482 0.0 0.0
0.007275662909489359 -0.002403380092444924 0.0 -0.021101010630682333 0.0 0.0
0.010252101859737095 -0.004046824260999928 0.0 -0.021934726878918044 0.0 0.0
0.012736370168574165 -0.005317066617243772 0.0 -0.02244149286294932 0.0 0.0
0.015007182502831482 -0.006389624645474504 0.0 -0.022662187939621506 0.0 0.0
0.017190787514769355 -0.007362960072291981 0.0 -0.022733728661522786 0.0 0.0
0.019343124489729382 -0.008295422004300041 0.0 -0.022744957287011303 0.0 0.0
0.02148766257904557 -0.009214618935965747 0.0 -0.02273968441129749 0.0 0.0
0.023629871103095418 -0.010128109397813034 0.0 -0.02273745891252582 0.0 0.0
0.02576387573075028 -0.01103034679721494 0.0 -0.022753429609768863 0.0 0.0
0.027872786140880897 -0.011904312661842437 0.0 -0.02281219749013205 0.0 0.0
0.029930513159024744 -0.012726071691547183 0.0 -0.022955571302009176 0.0 0.0
0.03192596119424594 -0.013495405265000869 0.0 -0.02322953625116963 0.0 0.0
0.03393751179161476 -0.014332542011145626 0.0 -0.02357999564524567 0.0 0.0
0.036222698431433206 -0.015634744491577382 0.0 -0.023488151094186324 0.0 0.0
0.03907683188601624 -0.01805710322688743 0.0 -0.02125360661236364 0.0 0.0
0.04208751079862565 -0.02166652047018825 0.0 -0.013805479087304406 0.0 0.0
0.043500734230299334 -0.024047015873935394 0.0 -6.132247487578013e-16 0.0 0.0
0.04208751079862611 -0.021666520470193247 0.0 0.013805479087304205 0.0 0.0
0.03907683188601619 -0.018057103226887798 0.0 0.02125360661236326 0.0 0.0
0.036222698431432956 -0.015634744491574207 0.0 0.02348815109418553 0.0 0.0
0.03393751179161463 -0.014332542011143989 0.0 0.023579995645245797 0.0 0.0
0.03192596119424607 -0.013495405265002309 0.0 0.02322953625117057 0.0 0.0
0.029930513159024758 -0.012726071691545951 0.0 0.02295557130200974 0.0 0.0
0.027872786140880824 -0.011904312661844765 0.0 0.022812197490131792 0.0 0.0
0.025763875730750372 -0.011030346797214487 0.0 0.02275342960976867 0.0 0.0
0.02362987110309553 -0.010128109397815683 0.0 0.022737458912526487 0.0 0.0
0.021487662579045542 -0.00921461893596399 0.0 0.02273968441129935 0.0 0.0
0.019343124489729396 -0.008295422004301637 0.0 0.022744957287011272 0.0 0.0
0.017190787514769136 -0.007362960072292564 0.0 0.022733728661523317 0.0 0.0
0.015007182502831388 -0.006389624645474574 0.0 0.02266218793962153 0.0 0.0
0.012736370168574498 -0.005317066617244845 0.0 0.02244149286294893 0.0 0.0
0.01025210185973719 -0.004046824260999058 0.0 0.021934726878918103 0.0 0.0
0.007275662909489555 -0.0024033800924446154 0.0 0.02110101063068242 0.0 0.0
0.0036161265461473113 -0.00027774002669702866 0.0 0.020880984118054044 0.0 0.0
0.0009288995521532128 0.000615957196199926 0.0 0.024154451051601522 0.0 0.0
0.0039213289994657185 -0.007941104331764877 0.0 0.026515446803395876 0.0 0.0
0.007600419319209448 -0.03302466947721917 0.0 0.020788975724118672 0.0 0.0
0.0065423261887090495 -0.027510441888153943 0.0 -0.018951104088014835 0.0 0.0
0.00321512713526066 -0.008072765504297343 0.0 -0.026175368681917888 0.0 0.0
-9.135799715487487e-05 0.0005129313789791231 0.0 -0.026500459161435827 0.0 0.0
0.0013907134958152081 0.000666097914536446 0.0 -0.023415494614586484 0.0 0.0
0.004189514613812753 -0.0010003630145118127 0.0 -0.022978208734781538 0.0 0.0
0.0065431393758180086 -0.002414654726882476 0.0 -0.023435518350630888 0.0 0.0
0.008394701516552664 -0.003439343271118399 0.0 -0.02379280722518666 0.0 0.0
0.009985307609009135 -0.004231719731528915 0.0 -0.02395612315160703 0.0 0.0
0.011464477600084177 -0.004907959893121815 0.0 -0.02401025493571808 0.0 0.0
0.01290324566873829 -0.005535981122361291 0.0 -0.02401941453584746 0.0 0.0
0.014331442524148362 -0.006148234268043911 0.0 -0.024015982287455155 0.0 0.0
0.015756352333980705 -0.0067537843908823895 0.0 -0.024014538218442624 0.0 0.0
0.01717093751793036 -0.007346298920555883 0.0 -0.024025966173968207 0.0 0.0
0.01855439615109979 -0.007906161718256215 0.0 -0.024067677526911104 0.0 0.0
0.01987309802173863 -0.0084046520391219 0.0 -0.02417106298483945 0.0 0.0
0.021107219915528573 -0.008835780873875494 0.0 -0.024382138585540652 0.0 0.0
0.022347229875035315 -0.009329642058563322 0.0 -0.024698885194466075 0.0 0.0
0.02394296621825876 -0.010366633068109492 0.0 -0.024731477049167516 0.0 0.0
0.026403818373255138 -0.01283551109841066 0.0 -0.02279874562908989 0.0 0.0
0.02945611470282284 -0.017061778417078847 0.0 -0.01522999696007947 0.0 0.0
0.030999114933149864 -0.020128261937795468 0.0 -1.023053169957322e-15 0.0 0.0
0.029456114702822833 -0.017061778417079395 0.0 0.015229996960077805 0.0 0.0
0.026403818373255304 -0.012835511098409526 0.0 0.022798745629090168 0.0 0.0
0.023942966218259094 -0.010366633068107005 0.0 0.024731477049167595 0.0 0.0
0.02234722987503531 -0.00932964205856375 0.0 0.024698885194464292 0.0 0.0
0.021107219915528764 -0.008835780873872098 0.0 0.024382138585540516 0.0 0.0
0.01987309802173888 -0.008404652039121966 0.0 0.02417106298484061 0.0 0.0
0.01855439615109972 -0.007906161718250815 0.0 0.024067677526911423 0.0 0.0
0.017170937517930373 -0.007346298920560639 0.0 0.024025966173968277 0.0 0.0
0.01575635233398068 -0.006753784390882163 0.0 0.024014538218443755 0.0 0.0
0.014331442524148235 -0.006148234268046699 0.0 0.024015982287456526 0.0 0.0
0.012903245668737979 -0.005535981122363805 0.0 0.024019414535848188 0.0 0.0
0.011464477600083999 -0.00490795989312472 0.0 0.024010254935718397 0.0 0.0
0.009985307609009257 -0.004231719731532219 0.0 0.023956123151608597 0.0 0.0
0.008394701516552727 -0.0034393432711174675 0.0 0.02379280722518616 0.0 0.0
0.006543139375818137 -0.0024146547268814253 0.0 0.023435518350630624 0.0 0.0
0.004189514613813077 -0.0010003630145111301 0.0 0.022978208734782866 0.0 0.0
0.001390713495815252 0.0006660979145354508 0.0 0.02341549461458494 0.0 0.0
-9.135799715474589e-05 0.0005129313789778397 0.0 0.0265004591614362 0.0 0.0
0.003215127135260615 -0.008072765504297114 0.0 0.026175368681917152 0.0 0.0
0.006542326188708459 -0.027510441888154203 0.0 0.018951104088013895 0.0 0.0
0.005512174700727659 -0.022640265846694846 0.0 -0.01722673956712039 0.0 0.0
0.0025145407293331703 -0.007769404380312865 0.0 -0.025403097721621297 0.0 0.0
-0.0010064035175257641 0.00044432962363012305 0.0 -0.02790729097425684 0.0 0.0
-0.0006246366053687961 0.001446225286734351 0.0 -0.02532025049248548 0.0 0.0
0.001239110699399499 0.00030314160030208125 0.0 -0.024410651236100846 0.0 0.0
0.0028847598776487685 -0.0008173315813267783 0.0 -0.024478981512722892 0.0 0.0
0.004067096494604994 -0.0015729249302218224 0.0 -0.024654219895944365 0.0 0.0
0.004966161856099214 -0.0020768848361354744 0.0 -0.024745380073885652 0.0 0.0
0.005737518596104553 -0.0024529150257178722 0.0 -0.024776483831523515 0.0 0.0
0.00646213283678457 -0.0027758119555012038 0.0 -0.024782114230534242 0.0 0.0
0.007174236489022527 -0.0030812169746034655 0.0 -0.024780484693220986 0.0 0.0
0.00788237231280868 -0.003379244125222143 0.0 -0.024779692958162375 0.0 0.0
0.00857887047669515 -0.0036631284562352253 0.0 -0.024785343283048614 0.0 0.0
0.00924057420997714 -0.003911719348846472 0.0 -0.024806304043802258 0.0 0.0
0.009828358897255298 -0.004093013819056868 0.0 -0.02486095391538342 0.0 0.0
0.01031229700673833 -0.004193755442448342 0.0 -0.024991512796829943 0.0 0.0
0.010783929762520673 -0.004341570250909706 0.0 -0.025256612580978857 0.0 0.0
0.011673778683194365 -0.005081431609794718 0.0 -0.025456705005606376 0.0 0.0
0.013734470268264794 -0.007562263170700216 0.0 -0.024041419630513414 0.0 0.0
0.01689476627964748 -0.012504626440779789 0.0 -0.01666640340241489 0.0 0.0
0.0186269433403146 -0.016491060396473602 0.0 5.711577044653637e-16 0.0 0.0
0.016894766279647633 -0.01250462644077772 0.0 0.01666640340241623 0.0 0.0
0.013734470268264949 -0.007562263170700818 0.0 0.0240414196305142 0.0 0.0
0.0116737786831945 -0.005081431609798438 0.0 0.0254567050056068 0.0 0.0
0.010783929762520827 -0.004341570250909463 0.0 0.025256612580978745 0.0 0.0
0.010312297006738328 -0.004193755442447025 0.0 0.02499151279683162 0.0 0.0
0.009828358897254922 -0.004093013819056912 0.0 0.02486095391538298 0.0 0.0
0.009240574209976796 -0.00391171934884269 0.0 0.024806304043799656 0.0 0.0
0.00857887047669529 -0.0036631284562387684 0.0 0.02478534328304748 0.0 0.0
0.007882372312808682 -0.0033792441252207014 0.0 0.024779692958161174 0.0 0.0
0.007174236489022488 -0.003081216974608519 0.0 0.024780484693220157 0.0 0.0
0.006462132836784836 -0.0027758119555029476 0.0 0.02478211423053414 0.0 0.0
0.005737518596104892 -0.002452915025720044 0.0 0.0247764838315255 0.0 0.0
0.00496616185609913 -0.002076884836134706 0.0 0.02474538007388703 0.0 0.0
0.004067096494604908 -0.0015729249302207714 0.0 0.02465421989594469 0.0 0.0
0.00288475987764873 -0.000817331581326161 0.0 0.02447898151272256 0.0 0.0
0.0012391106993994312 0.0003031416002999878 0.0 0.024410651236100558 0.0 0.0
-0.0006246366053688074 0.0014462252867348078 0.0 0.025320250492484073 0.0 0.0
-0.001006403517525923 0.0004443296236292161 0.0 0.027907290974257613 0.0 0.0
0.0025145407293330497 -0.0077694043803127055 0.0 0.025403097721620235 0.0 0.0
0.00551217470072774 -0.02264026584669513 0.0 0.017226739567119616 0.0 0.0
0.004505670780275458 -0.018319342022844562 0.0 -0.015604433922995552 0.0 0.0
0.0017983127526732846 -0.007155859312488876 0.0 -0.02428454909080843 0.0 0.0
-0.0018780023118465392 0.0004649812676618026 0.0 -0.02846518818741823 0.0 0.0
-0.0024877661421273053 0.0021177322121098056 0.0 -0.026533277160058405 0.0 0.0
-0.0015881353723671888 0.001512833634556407 0.0 -0.025329835153278277 0.0 0.0
-0.0007173346450479258 0.0007386591591724396 0.0 -0.02503781769543941 0.0 0.0
-0.0002423173117595248 0.0002792552253130738 0.0 -0.02501707216814917 0.0 0.0
-4.893500330449823e-05 7.399819917959372e-05 0.0 -0.025027251413964988 0.0 0.0
1.025279262010907e-05 1.9051398552748114e-06 0.0 -0.025032088730798586 0.0 0.0
1.9804419420981238e-05 -1.4915602283003393e-05 0.0 -0.025033294718261444 0.0 0.0
1.5999031068981637e-05 -1.352617091680052e-05 0.0 -0.025033406939444214 0.0 0.0
7.974607633333842e-06 -4.519046203978227e-06 0.0 -0.025033205482071635 0.0 0.0
-1.2056921290585143e-05 1.8954032288925448e-05 0.0 -0.02503246898591423 0.0 0.0
-6.792617883579519e-05 7.847092203100322e-05 0.0 -0.025030897910748355 0.0 0.0
-0.00020163142192239163 0.00020742082262227508 0.0 -0.025032235619032082 0.0 0.0
-0.0004540955189696581 0.0004268784960203197 0.0 -0.025068989267532146 0.0 0.0
-0.0007477944953731945 0.0006266362611569574 0.0 -0.02525798275619355 0.0 0.0
-0.0005950598168157515 0.00022903558413400938 0.0 -0.025645258980415746 0.0 0.0
0.0010284490798449452 -0.002191516214828276 0.0 -0.024964275846827918 0.0 0.0
0.004353790049639357 -0.007938601567290008 0.0 -0.018158904705625468 0.0 0.0
0.006342332130307458 -0.013168047913357251 0.0 2.5240226575462543e-16 0.0 0.0
0.0043537900496392655 -0.007938601567291035 0.0 0.018158904705626852 0.0 0.0
0.0010284490798452809 -0.0021915162148312436 0.0 0.02496427584682832 0.0 0.0
-0.000595059816815345 0.00022903558413516205 0.0 0.025645258980416513 0.0 0.0
-0.0007477944953734547 0.0006266362611565512 0.0 0.025257982756192815 0.0 0.0
-0.00045409551896982746 0.00042687849602284937 0.0 0.025068989267532985 0.0 0.0
-0.0002016314219225521 0.00020742082262073682 0.0 0.025032235619032568 0.0 0.0
-6.792617883568709e-05 7.84709220302941e-05 0.0 0.02503089791074712 0.0 0.0
-1.2056921290700393e-05 1.895403229135211e-05 0.0 0.025032468985914547 0.0 0.0
7.974607633093366e-06 -4.519046205375709e-06 0.0 0.025033205482071896 0.0 0.0
1.599903106924781e-05 -1.3526170915787361e-05 0.0 0.025033406939445536 0.0 0.0
1.98044194211945e-05 -1.4915602284801597e-05 0.0 0.0250332947182617 0.0 0.0
1.0252792619897867e-05 1.9051398551530555e-06 0.0 0.025032088730799464 0.0 0.0
-4.8935003304643294e-05 7.39981991827163e-05 0.0 0.02502725141396444 0.0 0.0
-0.00024231731175958172 0.00027925522531301126 0.0 0.025017072168149034 0.0 0.0
-0.0007173346450477521 0.000738659159171825 0.0 0.02503781769543897 0.0 0.0
-0.001588135372366873 0.0015128336345544811 0.0 0.025329835153277552 0.0 0.0
-0.0024877661421274753 0.0021177322121107415 0.0 0.02653327716005789 0.0 0.0
-0.0018780023118467135 0.0004649812676619661 0.0 0.02846518818741746 0.0 0.0
0.0017983127526732842 -0.00715585931248873 0.0 0.02428454909080743 0.0 0.0
0.004505670780275562 -0.018319342022844656 0.0 0.015604433922995164 0.0 0.0
0.003528145728096581 -0.014482247681038684 0.0 -0.01404899282083618 0.0 0.0
0.001062783490557813 -0.00633272615880739 0.0 -0.02286930546404711 0.0 0.0
-0.0027422456529968406 0.000596970021255557 0.0 -0.028262263505182156 0.0 0.0
-0.00424467494656878 0.002724504271043582 0.0 -0.027031571566820053 0.0 0.0
-0.004310140803824783 0.0026413651385702045 0.0 -0.025682325080687584 0.0 0.0
-0.004263491961384933 0.002251837426418798 0.0 -0.025083094183573972 0.0 0.0
-0.004531639185940647 0.002115610805626197 0.0 -0.024871030929000785 0.0 0.0
-0.005059290137127346 0.002220511004982684 0.0 -0.024798596443074725 0.0 0.0
-0.005717168811736874 0.0024563922738876694 0.0 -0.02477654535915765 0.0 0.0
-0.006423724964739936 0.0027466986978151005 0.0 -0.024773152292082788 0.0 0.0
-0.007143285775508089 0.003054853330299743 0.0 -0.02477497984555183 0.0 0.0
-0.007866830826598295 0.003370385866426873 0.0 -0.02477540450791683 0.0 0.0
-0.008601774689838037 0.0036998821094104753 0.0 -0.024768368288557163 0.0 0.0
-0.009370957622115199 0.004064296689988022 0.0 -0.024744449439124634 0.0 0.0
-0.01021603599723762 0.004496288670935864 0.0 -0.02469246250245644 0.0 0.0
-0.011187995908043785 0.005023312642197109 0.0 -0.024628441275563774 0.0 0.0
-0.012240626548391977 0.005567408451593521 0.0 -0.02471044266337817 0.0 0.0
-0.012868279312569009 0.0055662162540572255 0.0 -0.02526755612408581 0.0 0.0
-0.011754916283937386 0.0033245032189951947 0.0 -0.025521662262829498 0.0 0.0
-0.008220545361833009 -0.003290838805564012 0.0 -0.019748383762947137 0.0 0.0
-0.005898493330116892 -0.010215336774784109 0.0 1.0685896612017132e-15 0.0 0.0
-0.008220545361832986 -0.0032908388055629617 0.0 0.01974838376294772 0.0 0.0
-0.011754916283937624 0.003324503218995193 0.0 0.02552166226282991 0.0 0.0
-0.012868279312569196 0.00556621625405923 0.0 0.02526755612408444 0.0 0.0
-0.01224062654839198 0.005567408451590095 0.0 0.0247104426633778 0.0 0.0
-0.01118799590804392 0.0050233126422048555 0.0 0.02462844127556274 0.0 0.0
-0.010216035997237737 0.0044962886709328685 0.0 0.024692462502457508 0.0 0.0
-0.009370957622114944 0.004064296689988245 0.0 0.024744449439125342 0.0 0.0
-0.00860177468983801 0.0036998821094121276 0.0 0.024768368288557264 0.0 0.0
-0.007866830826598321 0.0033703858664314006 0.0 0.024775404507915738 0.0 0.0
-0.0071432857755078325 0.003054853330299499 0.0 0.02477497984555144 0.0 0.0
-0.006423724964739876 0.002746698697814504 0.0 0.02477315229208233 0.0 0.0
-0.005717168811736933 0.0024563922738872136 0.0 0.02477654535915855 0.0 0.0
-0.005059290137127349 0.002220511004982897 0.0 0.0247985964430742 0.0 0.0
-0.00453163918594047 0.0021156108056244204 0.0 0.024871030929001482 0.0 0.0
-0.00426349196138444 0.002251837426415776 0.0 0.02508309418357496 0.0 0.0
-0.004310140803824779 0.0026413651385722085 0.0 0.025682325080687022 0.0 0.0
-0.004244674946569163 0.0027245042710425794 0.0 0.02703157156681975 0.0 0.0
-0.002742245652997061 0.000596970021256166 0.0 0.02826226350518163 0.0 0.0
0.0010627834905580055 -0.006332726158807139 0.0 0.0228693054640468 0.0 0.0
0.0035281457280972373 -0.014482247681038776 0.0 0.014048992820836095 0.0 0.0
0.0025898683937618746 -0.011088900392218035 0.0 -0.012519086878807626 0.0 0.0
0.0003141544192905249 -0.005379228689494843 0.0 -0.021184092224817756 0.0 0.0
-0.003617395526789565 0.0008420479592723899 0.0 -0.027375256130815512 0.0 0.0
-0.005929629572389072 0.003298231923045809 0.0 -0.026814196750720894 0.0 0.0
-0.0069463938341677595 0.003704115684693448 0.0 -0.02542882210062627 0.0 0.0
-0.007758743718840232 0.0037249954580491386 0.0 -0.024587515398319177 0.0 0.0
-0.00880137633489225 0.003936267900645227 0.0 -0.024205123075066 0.0 0.0
-0.010064974436670763 0.004362758571166033 0.0 -0.024056143506423884 0.0 0.0
-0.011444797361351709 0.004910598117315707 0.0 -0.024009304842227762 0.0 0.0
-0.012868452133416898 0.005509025212819669 0.0 -0.02400187238083803 0.0 0.0
-0.014303607303685462 0.006123910918362792 0.0 -0.02400543607171345 0.0 0.0
-0.01574207267026793 0.006745494388449512 0.0 -0.02400660819308462 0.0 0.0
-0.017190408983599463 0.007379743978548075 0.0 -0.023994066245774687 0.0 0.0
-0.018668958004522618 0.008046033085640853 0.0 -0.023949877733929037 0.0 0.0
-0.02021547842694777 0.008774370931835251 0.0 -0.023849028024257944 0.0 0.0
-0.021886850671931843 0.009594496193848029 0.0 -0.02368618501442835 0.0 0.0
-0.02368396403106159 0.010470662575014644 0.0 -0.023628369295825517 0.0 0.0
-0.02514157684939801 0.010920708230161431 0.0 -0.024287409090299066 0.0 0.0
-0.02465480382266929 0.009032283078648853 0.0 -0.02563077201425873 0.0 0.0
-0.020888951267429352 0.001537945676766424 0.0 -0.021467556714046685 0.0 0.0
-0.018145526954584573 -0.007719568032965311 0.0 1.964574336543734e-16 0.0 0.0
-0.020888951267429554 0.0015379456767706879 0.0 0.021467556714045044 0.0 0.0
-0.024654803822669463 0.009032283078652068 0.0 0.02563077201425767 0.0 0.0
-0.02514157684939783 0.010920708230157991 0.0 0.02428740909029888 0.0 0.0
-0.023683964031061648 0.010470662575016105 0.0 0.02362836929582675 0.0 0.0
-0.021886850671932006 0.009594496193847843 0.0 0.02368618501442831 0.0 0.0
-0.02021547842694769 0.00877437093183329 0.0 0.02384902802425865 0.0 0.0
-0.018668958004522618 0.008046033085641726 0.0 0.02394987773393012 0.0 0.0
-0.01719040898359946 0.0073797439785465765 0.0 0.02399406624577442 0.0 0.0
-0.015742072670268056 0.00674549438845307 0.0 0.02400660819308321 0.0 0.0
-0.014303607303685496 0.006123910918364064 0.0 0.02400543607171465 0.0 0.0
-0.012868452133416999 0.005509025212821698 0.0 0.024001872380838372 0.0 0.0
-0.011444797361351906 0.004910598117315308 0.0 0.024009304842227262 0.0 0.0
-0.010064974436670713 0.004362758571166569 0.0 0.02405614350642348 0.0 0.0
-0.00880137633489227 0.003936267900645544 0.0 0.024205123075066726 0.0 0.0
-0.007758743718840227 0.0037249954580489244 0.0 0.024587515398320707 0.0 0.0
-0.006946393834167607 0.0037041156846947367 0.0 0.02542882210062654 0.0 0.0
-0.005929629572388912 0.003298231923045349 0.0 0.02681419675072155 0.0 0.0
-0.003617395526789511 0.0008420479592725618 0.0 0.02737525613081454 0.0 0.0
0.000314154419290617 -0.005379228689494829 0.0 0.021184092224818533 0.0 0.0
0.002589868393762096 -0.01108890039221812 0.0 0.012519086878807324 0.0 0.0
0.001704149834137269 -0.00812047201163983 0.0 -0.010976329768131041 0.0 0.0
-0.0004352142067006595 -0.004357236526603127 0.0 -0.01924275153160105 0.0 0.0
-0.004508755491069954 0.001189240187747579 0.0 -0.0258667770465097 0.0 0.0
-0.007566324459101959 0.003859382888632892 0.0 -0.025889980642902988 0.0 0.0
-0.009515952494462371 0.004716794829295627 0.0 -0.02454102082956916 0.0 0.0
-0.011211593566759744 0.005164268870082041 0.0 -0.023527370836349818 0.0 0.0
-0.01305433195145638 0.005743132262205966 0.0 -0.0230089577680805 0.0 0.0
-0.015066878063623522 0.006501411475463298 0.0 -0.022796862161987695 0.0 0.0
-0.017172882586367295 0.007364718081469431 0.0 -0.02272994614206379 0.0 0.0
-0.019314379738711637 0.008272059823721594 0.0 -0.022719667420641805 0.0 0.0
-0.02146492478481602 0.009193608375222265 0.0 -0.022724998418322945 0.0 0.0
-0.02361781497633681 0.01012085038401949 0.0 -0.02272706989946276 0.0 0.0
-0.02577827524581392 0.011058794614083413 0.0 -0.02271044735118008 0.0 0.0
-0.027962857311089336 0.012024273435640664 0.0 -0.022649881332939912 0.0 0.0
-0.030202154448855247 0.01304346148459296 0.0 -0.02250838730369147 0.0 0.0
-0.032550680335155825 0.014142236505566553 0.0 -0.022259725397583138 0.0 0.0
-0.03506429488672307 0.015325237438062047 0.0 -0.022038237048941343 0.0 0.0
-0.037396867298315005 0.016267129035368172 0.0 -0.02267185192586333 0.0 0.0
-0.037704869888199925 0.01496972396212225 0.0 -0.02515958934487365 0.0 0.0
-0.033722798902681955 0.006688137279800747 0.0 -0.023328342330101903 0.0 0.0
-0.030462083995561842 -0.0058070896062618815 0.0 1.1119577481011333e-15 0.0 0.0
-0.03372279890268218 0.0066881372797996524 0.0 0.02332834233010225 0.0 0.0
-0.03770486988819985 0.014969723962123649 0.0 0.025159589344873307 0.0 0.0
-0.03739686729831482 0.016267129035362166 0.0 0.022671851925863105 0.0 0.0
-0.03506429488672316 0.015325237438063462 0.0 0.0220382370489409 0.0 0.0
-0.03255068033515561 0.014142236505565842 0.0 0.022259725397583162 0.0 0.0
-0.030202154448855274 0.013043461484594315 0.0 0.02250838730369134 0.0 0.0
-0.02796285731108958 0.012024273435640663 0.0 0.02264988133294028 0.0 0.0
-0.025778275245814084 0.011058794614085538 0.0 0.022710447351179663 0.0 0.0
-0.023617814976336637 0.010120850384018413 0.0 0.022727069899462896 0.0 0.0
-0.021464924784815858 0.009193608375227319 0.0 0.022724998418324368 0.0 0.0
-0.019314379738711918 0.0082720598237242 0.0 0.02271966742064153 0.0 0.0
-0.01717288258636728 0.007364718081469032 0.0 0.02272994614206228 0.0 0.0
-0.015066878063623196 0.006501411475465451 0.0 0.022796862161987688 0.0 0.0
-0.013054331951456123 0.005743132262207117 0.0 0.02300895776807939 0.0 0.0
-0.011211593566759836 0.005164268870083093 0.0 0.023527370836350706 0.0 0.0
-0.009515952494462429 0.004716794829294579 0.0 0.024541020829570253 0.0 0.0
-0.0075663244591020595 0.0038593828886342137 0.0 0.02588998064290245 0.0 0.0
-0.004508755491069978 0.0011892401877469819 0.0 0.02586677704650901 0.0 0.0
-0.00043521420670054444 -0.004357236526603062 0.0 0.019242751531601522 0.0 0.0
0.001704149834137227 -0.008120472011639982 0.0 0.010976329768130406 0.0 0.0
0.0008870608288632241 -0.005575550591939691 0.0 -0.00939115253005938 0.0 0.0
-0.0011679303880439773 -0.003315469194293824 0.0 -0.017053889181030554 0.0 0.0
-0.005411224454735522 0.0016188847691124934 0.0 -0.023784746159536244 0.0 0.0
-0.009169369987193435 0.004418941335249269 0.0 -0.02426838838549559 0.0 0.0
-0.012036749470799638 0.005694497903443549 0.0 -0.022997993776203603 0.0 0.0
-0.014633148038813815 0.006578340392900886 0.0 -0.021883571581482894 0.0 0.0
-0.017295318749604445 0.00753972892019094 0.0 -0.021273872033492527 0.0 0.0
-0.020066663826526946 0.008637685317810702 0.0 -0.021018384294104853 0.0 0.0
-0.022901846279258772 0.009819062206222987 0.0 -0.020938312741820644 0.0 0.0
-0.025761500792095385 0.01103578681955272 0.0 -0.02092680930856797 0.0 0.0
-0.028627158720382635 0.01226387831598468 0.0 -0.020933865688075277 0.0 0.0
-0.03149413941572936 0.013496494480773131 0.0 -0.020936947126475577 0.0 0.0
-0.03436587728979442 0.014737455208277853 0.0 -0.02091807580719435 0.0 0.0
-0.037253946540550927 0.015999920768533158 0.0 -0.020846829053659012 0.0 0.0
-0.040179642532143116 0.017305879094946866 0.0 -0.020675670280665817 0.0 0.0
-0.04318368252898278 0.01867222121442557 0.0 -0.02036460954873077 0.0 0.0
-0.046367469540467346 0.020122938789138137 0.0 -0.01998271010297264 0.0 0.0
-0.04959631614424404 0.021558710309627103 0.0 -0.020411122762214323 0.0 0.0
-0.05092488044057469 0.021150826185920815 0.0 -0.023913533914393634 0.0 0.0
-0.04680863347357427 0.012362511778728403 0.0 -0.025292615389116015 0.0 0.0
-0.04293738814485197 -0.004654184293303321 0.0 9.419548474554063e-16 0.0 0.0
-0.04680863347357399 0.012362511778725998 0.0 0.02529261538911697 0.0 0.0
-0.050924880440574576 0.021150826185919895 0.0 0.02391353391439557 0.0 0.0
-0.049596316144244056 0.02155871030962508 0.0 0.020411122762215062 0.0 0.0
-0.046367469540467256 0.02012293878913646 0.0 0.01998271010297497 0.0 0.0
-0.04318368252898281 0.018672221214427253 0.0 0.020364609548731226 0.0 0.0
-0.04017964253214297 0.01730587909494678 0.0 0.02067567028066552 0.0 0.0
-0.03725394654055094 0.015999920768532322 0.0 0.020846829053660254 0.0 0.0
-0.03436587728979443 0.014737455208279866 0.0 0.02091807580719513 0.0 0.0
-0.03149413941572912 0.013496494480775983 0.0 0.02093694712647499 0.0 0.0
-0.028627158720382746 0.012263878315981849 0.0 0.020933865688074555 0.0 0.0
-0.02576150079209577 0.011035786819553264 0.0 0.020926809308566215 0.0 0.0
-0.022901846279258703 0.009819062206223856 0.0 0.020938312741820637 0.0 0.0
-0.020066663826526752 0.00863768531781045 0.0 0.021018384294104266 0.0 0.0
-0.017295318749604258 0.007539728920190149 0.0 0.021273872033491494 0.0 0.0
-0.01463314803881358 0.006578340392902069 0.0 0.021883571581483314 0.0 0.0
-0.012036749470799659 0.005694497903443143 0.0 0.022997993776204408 0.0 0.0
-0.009169369987193431 0.004418941335250461 0.0 0.024268388385494506 0.0 0.0
-0.0054112244547353605 0.0016188847691127198 0.0 0.023784746159536498 0.0 0.0
-0.0011679303880437625 -0.0033154691942929287 0.0 0.017053889181030433 0.0 0.0
0.0008870608288634871 -0.005575550591940267 0.0 0.009391152530058131 0.0 0.0
0.00015838313403342423 -0.003466397318809885 0.0 -0.0077488825907302775 0.0 0.0
-0.001860702276149226 -0.0022939030524853432 0.0 -0.014627245146160872 0.0 0.0
-0.006309979151418416 0.0021039868039781336 0.0 -0.021161318708766082 0.0 0.0
-0.010745911043737353 0.004980529995817818 0.0 -0.021952181456146257 0.0 0.0
-0.014525904246657124 0.006651887555356361 0.0 -0.020783109845895553 0.0 0.0
-0.018036605531842564 0.007977860964149007 0.0 -0.01964226409546674 0.0 0.0
-0.02153077389224865 0.009330890901671272 0.0 -0.018993881874282945 0.0 0.0
-0.02506662483434126 0.010773245630616657 0.0 -0.018719418761447663 0.0 0.0
-0.02863222692566536 0.012274009746756485 0.0 -0.018634630272450665 0.0 0.0
-0.03220977383012753 0.01380015649313612 0.0 -0.018623653720898626 0.0 0.0
-0.03579018279210889 0.015334623078235354 0.0 -0.01863218669448109 0.0 0.0
-0.0393711086430479 0.016872442236726435 0.0 -0.018636299309998862 0.0 0.0
-0.0429538964378526 0.01841623721665792 0.0 -0.01861705364745957 0.0 0.0
-0.04654382392495433 0.01997436431309307 0.0 -0.018542377367156082 0.0 0.0
-0.05015221052180106 0.02156371403702387 0.0 -0.018355403334006076 0.0 0.0
-0.05379572249119505 0.023193746864046943 0.0 -0.01800967368589667 0.0 0.0
-0.05758445492011931 0.024866723934620926 0.0 -0.017517966301569005 0.0 0.0
-0.06167606778947275 0.02672470649034513 0.0 -0.017555787243563752 0.0 0.0
-0.0643038284874738 0.027534803358490477 0.0 -0.021629912086083922 0.0 0.0
-0.06025304895321987 0.018855866371484682 0.0 -0.027205780246378406 0.0 0.0
-0.0557102470195186 -0.004493844937350119 0.0 5.811323644522304e-16 0.0 0.0
-0.060253048953219604 0.01885586637148711 0.0 0.027205780246378708 0.0 0.0
-0.06430382848747385 0.027534803358491344 0.0 0.021629912086083065 0.0 0.0
-0.06167606778947282 0.02672470649034869 0.0 0.017555787243564085 0.0 0.0
-0.057584454920119224 0.024866723934619833 0.0 0.017517966301568672 0.0 0.0
-0.053795722491194985 0.02319374686404466 0.0 0.01800967368589555 0.0 0.0
-0.05015221052180117 0.02156371403702411 0.0 0.018355403334005357 0.0 0.0
-0.04654382392495462 0.019974364313094413 0.0 0.018542377367156027 0.0 0.0
-0.0429538964378527 0.018416237216654367 0.0 0.018617053647460902 0.0 0.0
-0.0393711086430478 0.016872442236726085 0.0 0.01863629930999543 0.0 0.0
-0.03579018279210896 0.015334623078230844 0.0 0.01863218669448072 0.0 0.0
-0.03220977383012746 0.013800156493133372 0.0 0.01862365372089871 0.0 0.0
-0.02863222692566518 0.012274009746758255 0.0 0.018634630272451443 0.0 0.0
-0.025066624834341224 0.010773245630617316 0.0 0.018719418761446515 0.0 0.0
-0.021530773892248334 0.00933089090166837 0.0 0.01899388187428401 0.0 0.0
-0.018036605531842616 0.007977860964151231 0.0 0.019642264095465718 0.0 0.0
-0.014525904246657464 0.00665188755535673 0.0 0.020783109845896056 0.0 0.0
-0.010745911043737255 0.0049805299958175 0.0 0.02195218145614661 0.0 0.0
-0.0063099791514183495 0.0021039868039788934 0.0 0.02116131870876564 0.0 0.0
-0.0018607022761494396 -0.0022939030524841524 0.0 0.01462724514615939 0.0 0.0
0.0001583831340331736 -0.0034663973188101844 0.0 0.007748882590729716 0.0 0.0
-0.00045600120273469035 -0.0018147803406054434 0.0 -0.006059189396121808 0.0 0.0
-0.0024814028886832526 -0.00132913288018475 0.0 -0.011979554390131946 0.0 0.0
-0.007179553793182403 0.002609485506414828 0.0 -0.018008869200069808 0.0 0.0
-0.012297559023521937 0.005543102024054447 0.0 -0.018930918564642657 0.0 0.0
-0.017000879336550704 0.007604240679262797 0.0 -0.017882240455636897 0.0 0.0
-0.021437007747960098 0.009375014076210771 0.0 -0.016795372289329317 0.0 0.0
-0.025768308391232824 0.011122357527235203 0.0 -0.016166408345017046 0.0 0.0
-0.03006946550848138 0.012910046221836145 0.0 -0.015900111489335855 0.0 0.0
-0.03436459529884798 0.014729942929440961 0.0 -0.015819590467444727 0.0 0.0
-0.038659088372183674 0.016565061368303848 0.0 -0.015810650262097974 0.0 0.0
-0.04295381846355807 0.018405697006609156 0.0 -0.015820044883785352 0.0 0.0
-0.04724873058038011 0.020248715429340248 0.0 -0.015825020991521773 0.0 0.0
-0.051543090189057554 0.02209551797031968 0.0 -0.01580719877416283 0.0 0.0
-0.05583459214497072 0.02394974811697746 0.0 -0.015736361169779327 0.0 0.0
-0.060123709438832815 0.025818758427197584 0.0 -0.015553124152840478 0.0 0.0
-0.06440207948219415 0.027715661671354565 0.0 -0.015195283253274268 0.0 0.0
-0.06872264853863198 0.02958338567765078 0.0 -0.01469153391095906 0.0 0.0
-0.07354353583460452 0.03168044785445285 0.0 -0.014275615419072624 0.0 0.0
-0.07776627659087351 0.0339650188228415 0.0 -0.018014018677169407 0.0 0.0
-0.07418549740259726 0.026591673561708773 0.0 -0.028642354719412583 0.0 0.0
-0.06901615668688363 -0.005604286885486963 0.0 6.010816844259637e-16 0.0 0.0
-0.07418549740259743 0.026591673561712006 0.0 0.028642354719413655 0.0 0.0
-0.07776627659087364 0.03396501882284439 0.0 0.01801401867716865 0.0 0.0
-0.07354353583460459 0.03168044785445591 0.0 0.014275615419072785 0.0 0.0
-0.06872264853863229 0.029583385677650974 0.0 0.014691533910959002 0.0 0.0
-0.064402079482194 0.02771566167134843 0.0 0.015195283253273791 0.0 0.0
-0.06012370943883291 0.025818758427203603 0.0 0.015553124152840814 0.0 0.0
-0.055834592144970926 0.02394974811698466 0.0 0.01573636116977851 0.0 0.0
-0.051543090189057617 0.022095517970314966 0.0 0.015807198774164647 0.0 0.0
-0.04724873058037997 0.020248715429336085 0.0 0.015825020991522547 0.0 0.0
-0.04295381846355809 0.018405697006611266 0.0 0.015820044883786726 0.0 0.0
-0.03865908837218371 0.01656506136830161 0.0 0.015810650262099622 0.0 0.0
-0.034364595298847986 0.014729942929438362 0.0 0.015819590467445573 0.0 0.0
-0.030069465508481504 0.012910046221837421 0.0 0.015900111489335938 0.0 0.0
-0.025768308391232737 0.011122357527235047 0.0 0.016166408345016894 0.0 0.0
-0.021437007747960115 0.00937501407621262 0.0 0.01679537228932828 0.0 0.0
-0.01700087933655066 0.007604240679263361 0.0 0.01788224045563855 0.0 0.0
-0.012297559023521937 0.005543102024053045 0.0 0.01893091856464404 0.0 0.0
-0.007179553793182401 0.0026094855064157686 0.0 0.018008869200069905 0.0 0.0
-0.0024814028886830683 -0.001329132880184805 0.0 0.011979554390130431 0.0 0.0
-0.0004560012027345657 -0.0018147803406052812 0.0 0.00605918939612092 0.0 0.0
-0.0009193721863570039 -0.0006464416565821736 0.0 -0.004373380113505942 0.0 0.0
-0.002983302171444039 -0.00046238324842250503 0.0 -0.009140164488182004 0.0 0.0
-0.00798151384356558 0.003089994453930181 0.0 -0.014309647019610253 0.0 0.0
-0.013823209658099852 0.006104940741272292 0.0 -0.015175364710380466 0.0 0.0
-0.019481367543210306 0.008569031446129827 0.0 -0.014283976696293695 0.0 0.0
-0.024851068261081667 0.010783059369757613 0.0 -0.013341141651190058 0.0 0.0
-0.030016204673560393 0.01292034059088245 0.0 -0.012792826516853543 0.0 0.0
-0.03507802734583723 0.015050110819330359 0.0 -0.012562304073113978 0.0 0.0
-0.040099443109937793 0.017187155896908335 0.0 -0.012494395309698945 0.0 0.0
-0.04510922921913181 0.019330327466710078 0.0 -0.012488302243276097 0.0 0.0
-0.05011781157771512 0.021476856078921965 0.0 -0.012497531715932016 0.0 0.0
-0.055126990523372194 0.023625403986252073 0.0 -0.01250259538731699 0.0 0.0
-0.06013399861028107 0.02577544264603999 0.0 -0.01248848550198637 0.0 0.0
-0.06512921454478274 0.027928255392948992 0.0 -0.012426267238249045 0.0 0.0
-0.07009727280917936 0.030075682671573907 0.0 -0.012272344773987032 0.0 0.0
-0.07501808069839595 0.03223623202492255 0.0 -0.011928956143993112 0.0 0.0
-0.07982338653698634 0.03433263538893527 0.0 -0.011484597699188073 0.0 0.0
-0.08509069603525513 0.03637868469940804 0.0 -0.010911229329254006 0.0 0.0
-0.09110555327262497 0.040050289447844264 0.0 -0.012936914125575934 0.0 0.0
-0.08874998032049268 0.0361500279094907 0.0 -0.028527768957214997 0.0 0.0
-0.08328712141530759 -0.008232799868944141 0.0 5.169475958410885e-16 0.0 0.0
-0.08874998032049257 0.03615002790949096 0.0 0.028527768957213775 0.0 0.0
-0.09110555327262507 0.04005028944785009 0.0 0.012936914125575969 0.0 0.0
-0.08509069603525506 0.036378684699406215 0.0 0.010911229329254283 0.0 0.0
-0.07982338653698628 0.03433263538893756 0.0 0.011484597699187773 0.0 0.0
-0.07501808069839593 0.03223623202492246 0.0 0.011928956143994786 0.0 0.0
-0.07009727280917959 0.030075682671577626 0.0 0.012272344773988756 0.0 0.0
-0.06512921454478267 0.027928255392952205 0.0 0.012426267238248195 0.0 0.0
-0.06013399861028103 0.025775442646042764 0.0 0.012488485501986269 0.0 0.0
-0.055126990523372214 0.023625403986251504 0.0 0.012502595387317721 0.0 0.0
-0.05011781157771473 0.02147685607892191 0.0 0.012497531715932698 0.0 0.0
-0.04510922921913185 0.01933032746671089 0.0 0.01248830224327711 0.0 0.0
-0.04009944310993775 0.017187155896902964 0.0 0.012494395309698762 0.0 0.0
-0.035078027345837176 0.0150501108193291 0.0 0.012562304073113956 0.0 0.0
-0.030016204673560462 0.012920340590885766 0.0 0.01279282651685388 0.0 0.0
-0.024851068261081598 0.010783059369756298 0.0 0.013341141651190679 0.0 0.0
-0.019481367543210087 0.008569031446130526 0.0 0.014283976696293693 0.0 0.0
-0.013823209658099756 0.006104940741271154 0.0 0.015175364710380349 0.0 0.0
-0.007981513843565765 0.0030899944539299956 0.0 0.014309647019609704 0.0 0.0
-0.0029833021714441733 -0.0004623832484228899 0.0 0.009140164488181654 0.0 0.0
-0.000919372186357085 -0.0006464416565821431 0.0 0.0043733801135044815 0.0 0.0
-0.0011748955097284643 1.7411795735652514e-05 0.0 -0.0028177847962720767 0.0 0.0
-0.003294641835301795 0.00024637399954083577 0.0 -0.0061556318735557945 0.0 0.0
-0.008661104692546035 0.0034871167870256558 0.0 -0.009992790229056463 0.0 0.0
-0.01532386251648361 0.006670405801293858 0.0 -0.01063566041245632 0.0 0.0
-0.021991642882369832 0.009567267888678429 0.0 -0.009982014898207301 0.0 0.0
-0.02829683191099141 0.012215770772771594 0.0 -0.00928452830522142 0.0 0.0
-0.034282891756486175 0.014731109867128143 0.0 -0.008878990496883078 0.0 0.0
-0.04009497122665779 0.017195244101419496 0.0 -0.008709614731716336 0.0 0.0
-0.04583704566330009 0.019645773389049787 0.0 -0.008660732593134594 0.0 0.0
-0.05155986088048324 0.02209565809645985 0.0 -0.008657176068121698 0.0 0.0
-0.05728176927587769 0.024547869826419984 0.0 -0.008664554881746313 0.0 0.0
-0.0630059296174618 0.027002234050461434 0.0 -0.008668765059018218 0.0 0.0
-0.06872679025508692 0.029457161651555985 0.0 -0.008658721878234528 0.0 0.0
-0.07443067019992579 0.03190848724597586 0.0 -0.008614448708909976 0.0 0.0
-0.08007921116687211 0.03434861768476733 0.0 -0.008494394878386286 0.0 0.0
-0.08564532846410981 0.03673906827922388 0.0 -0.008265564643404269 0.0 0.0
-0.09097543031211594 0.0391670374870019 0.0 -0.007770482552251652 0.0 0.0
-0.0962600006556932 0.04098246434646855 0.0 -0.007794508247548361 0.0 0.0
-0.10385237571911357 0.04494294681929665 0.0 -0.00722964903719568 0.0 0.0
-0.1040536592150439 0.048212247899775705 0.0 -0.024137762814001637 0.0 0.0
-0.09938009408703936 -0.01230623938189688 0.0 -6.74807432154978e-16 0.0 0.0
-0.1040536592150441 0.0482122478997776 0.0 0.024137762814000065 0.0 0.0
-0.10385237571911377 0.04494294681929574 0.0 0.007229649037195876 0.0 0.0
-0.09626000065569296 0.040982464346464145 0.0 0.0077945082475475 0.0 0.0
-0.09097543031211625 0.03916703748700415 0.0 0.007770482552251542 0.0 0.0
-0.0856453284641102 0.03673906827922917 0.0 0.00826556464340658 0.0 0.0
-0.08007921116687218 0.03434861768476357 0.0 0.008494394878385278 0.0 0.0
-0.07443067019992555 0.03190848724597828 0.0 0.008614448708908855 0.0 0.0
-0.06872679025508693 0.02945716165155539 0.0 0.008658721878233784 0.0 0.0
-0.06300592961746214 0.02700223405046325 0.0 0.008668765059018497 0.0 0.0
-0.0572817692758776 0.02454786982641816 0.0 0.008664554881746835 0.0 0.0
-0.051559860880483484 0.02209565809646126 0.0 0.00865717606812058 0.0 0.0
-0.045837045663300456 0.019645773389046547 0.0 0.008660732593135264 0.0 0.0
-0.040094971226657755 0.01719524410141764 0.0 0.008709614731716626 0.0 0.0
-0.0342828917564861 0.014731109867128736 0.0 0.008878990496882557 0.0 0.0
-0.028296831910991273 0.012215770772767785 0.0 0.009284528305223359 0.0 0.0
-0.021991642882369624 0.009567267888678926 0.0 0.009982014898207532 0.0 0.0
-0.015323862516483992 0.006670405801292749 0.0 0.010635660412453118 0.0 0.0
-0.00866110469254656 0.0034871167870252897 0.0 0.009992790229056747 0.0 0.0
-0.0032946418353019713 0.00024637399954104697 0.0 0.006155631873556032 0.0 0.0
-0.001174895509728717 1.7411795735745027e-05 0.0 0.002817784796271312 0.0 0.0
-0.0011269084601594746 0.00017458741637513037 0.0 -0.0016596500724279793 0.0 0.0
-0.003299683922284416 0.0006908285335642397 0.0 -0.00309070706665392 0.0 0.0
-0.009144127181914907 0.0037295693102597895 0.0 -0.004884301159308872 0.0 0.0
-0.01681139629078218 0.007261767123393822 0.0 -0.005255256548955381 0.0 0.0
-0.024562451391318164 0.010622366792721927 0.0 -0.00497532352776332 0.0 0.0
-0.03179304121896266 0.013687450081948757 0.0 -0.00463881535872122 0.0 0.0
-0.038576441396573825 0.016560343178451245 0.0 -0.004435346441373806 0.0 0.0
-0.045122392675652226 0.01934676399725028 0.0 -0.004347405345603436 0.0 0.0
-0.051577345239869926 0.022105644659369313 0.0 -0.00432068766280112 0.0 0.0
-0.05801045531821426 0.02486064510404253 0.0 -0.004317806739874983 0.0 0.0
-0.06444530032775876 0.027618386001937334 0.0 -0.004321002363780273 0.0 0.0
-0.0708851116106711 0.030379136119300265 0.0 -0.0043227658226374106 0.0 0.0
-0.07732278999176859 0.033140336426742766 0.0 -0.004316969010016886 0.0 0.0
-0.0837373623965597 0.03589477009918831 0.0 -0.004294268628346563 0.0 0.0
-0.09008767810254743 0.03862709693366538 0.0 -0.00423142308345026 0.0 0.0
-0.09626451313719049 0.041299141476757846 0.0 -0.004117893527654154 0.0 0.0
-0.1022657648472868 0.043852701564576387 0.0 -0.0039084500731591835 0.0 0.0
-0.10726630036919631 0.04637608756557654 0.0 -0.0036333606458792446 0.0 0.0
-0.1150263604133227 0.046976047036792534 0.0 -0.005730355076862368 0.0 0.0
-0.11995729514712847 0.06310840393632804 0.0 -0.008178618271329246 0.0 0.0
-0.11915167792840217 -0.016422233577592437 0.0 1.3166551182663966e-15 0.0 0.0
-0.11995729514712858 0.06310840393633464 0.0 0.008178618271328512 0.0 0.0
-0.11502636041332272 0.0469760470367871 0.0 0.00573035507686224 0.0 0.0
-0.10726630036919617 0.04637608756557555 0.0 0.003633360645879854 0.0 0.0
-0.10226576484728636 0.043852701564574485 0.0 0.003908450073158326 0.0 0.0
-0.09626451313719067 0.04129914147675973 0.0 0.004117893527654341 0.0 0.0
-0.09008767810254754 0.03862709693366714 0.0 0.004231423083449986 0.0 0.0
-0.08373736239655938 0.03589477009918765 0.0 0.004294268628346509 0.0 0.0
-0.07732278999176824 0.03314033642674161 0.0 0.00431696901001607 0.0 0.0
-0.07088511161067093 0.030379136119300862 0.0 0.004322765822638971 0.0 0.0
-0.06444530032775861 0.027618386001936723 0.0 0.004321002363781102 0.0 0.0
-0.05801045531821408 0.02486064510404176 0.0 0.004317806739873734 0.0 0.0
-0.05157734523987015 0.022105644659369497 0.0 0.004320687662801837 0.0 0.0
-0.04512239267565227 0.019346763997250677 0.0 0.004347405345604817 0.0 0.0
-0.03857644139657318 0.016560343178450083 0.0 0.004435346441374067 0.0 0.0
-0.03179304121896252 0.013687450081947015 0.0 0.004638815358721297 0.0 0.0
-0.024562451391318744 0.010622366792723137 0.0 0.004975323527763934 0.0 0.0
-0.01681139629078221 0.007261767123392734 0.0 0.005255256548952581 0.0 0.0
-0.009144127181914517 0.0037295693102599873 0.0 0.004884301159309243 0.0 0.0
-0.00329968392228393 0.0006908285335644151 0.0 0.003090707066653888 0.0 0.0
-0.001126908460158935 0.00017458741637526638 0.0 0.001659650072426307 0.0 0.0
-0.000602398699457806 0.00012799679736351122 0.0 -0.001112163817606166 0.0 0.0
-0.0028028585392486398 0.0008296435383235782 0.0 -0.0013062743896040735 0.0 0.0
-0.009338145788833699 0.0038024982790020663 0.0 -0.0016624250938891629 0.0 0.0
-0.018324422505496978 0.007568296464490449 0.0 -0.0018535445333115828 0.0 0.0
-0.027229582575227597 0.01116711023099329 0.0 -0.0018394268578395328 0.0 0.0
-0.03535908111960821 0.014434872319982436 0.0 -0.0017538317791077592 0.0 0.0
-0.04290375835944631 0.017480220293514242 0.0 -0.0016884220909716423 0.0 0.0
-0.05016147884362962 0.020424248584893834 0.0 -0.0016546757427342786 0.0 0.0
-0.05731981139099504 0.02333585287121054 0.0 -0.0016417504139101405 0.0 0.0
-0.06446031308490355 0.02624299904517679 0.0 -0.0016384978030011786 0.0 0.0
-0.0716078362846136 0.029153450506733437 0.0 -0.0016383779625988902 0.0 0.0
-0.07876436169718468 0.03206767325048733 0.0 -0.0016381171780021717 0.0 0.0
-0.08592133332281501 0.03498192276350681 0.0 -0.0016347755608401519 0.0 0.0
-0.09305466744509681 0.03789107882549869 0.0 -0.0016257794297869204 0.0 0.0
-0.10011038212886618 0.04076251447135379 0.0 -0.0016041131927650339 0.0 0.0
-0.10696807190177737 0.04361502719349746 0.0 -0.0015621953703654785 0.0 0.0
-0.11342135366447022 0.04609636474964076 0.0 -0.001604797550332951 0.0 0.0
-0.11925551183898998 0.04944968754681238 0.0 -0.0010919010604515406 0.0 0.0
-0.12273158587588308 0.04700444347746112 0.0 -0.005361395887382365 0.0 0.0
-0.1352715993175866 0.0712599774346835 0.0 -2.4137286247800233e-05 0.0 0.0
-0.14707475510528623 -0.01818360201023161 0.0 9.992007221626409e-16 0.0 0.0
-0.13527159931758737 0.07125997743468938 0.0 2.4137286246346534e-05 0.0 0.0
-0.12273158587588315 0.04700444347745909 0.0 0.00536139588738092 0.0 0.0
-0.11925551183898996 0.049449687546813524 0.0 0.001091901060452408 0.0 0.0
-0.11342135366447005 0.04609636474963525 0.0 0.0016047975503342745 0.0 0.0
-0.10696807190177753 0.04361502719350195 0.0 0.0015621953703673138 0.0 0.0
-0.10011038212886621 0.04076251447136306 0.0 0.001604113192763417 0.0 0.0
-0.09305466744509658 0.03789107882549161 0.0 0.0016257794297873975 0.0 0.0
-0.08592133332281468 0.034981922763513196 0.0 0.0016347755608401623 0.0 0.0
-0.07876436169718425 0.032067673250487566 0.0 0.0016381171780032577 0.0 0.0
-0.07160783628461392 0.029153450506731012 0.0 0.0016383779625992884 0.0 0.0
-0.06446031308490438 0.026242999045174367 0.0 0.001638497802998646 0.0 0.0
-0.057319811390995096 0.023335852871211062 0.0 0.0016417504139103287 0.0 0.0
-0.05016147884362946 0.02042424858489727 0.0 0.0016546757427367727 0.0 0.0
-0.042903758359446535 0.017480220293513007 0.0 0.001688422090971719 0.0 0.0
-0.03535908111960837 0.014434872319981668 0.0 0.0017538317791045309 0.0 0.0
-0.027229582575227895 0.011167110230994828 0.0 0.0018394268578413517 0.0 0.0
-0.0183244225054964 0.00756829646448968 0.0 0.001853544533312085 0.0 0.0
-0.00933814578883338 0.003802498279002183 0.0 0.0016624250938884382 0.0 0.0
-0.0028028585392490413 0.0008296435383237282 0.0 0.0013062743896037827 0.0 0.0
-0.0006023986994578862 0.00012799679736357183 0.0 0.0011121638176033277 0.0 0.0