# vtk DataFile Version 3.0
Some data
ASCII
DATASET UNSTRUCTURED_GRID
POINTS 861 float
0.0 0.0 0.0
0.4 0.0 0.0
0.8 0.0 0.0
1.2000000000000002 0.0 0.0
1.6 0.0 0.0
2.0 0.0 0.0
2.4000000000000004 0.0 0.0
2.8000000000000003 0.0 0.0
3.2 0.0 0.0
3.6 0.0 0.0
4.0 0.0 0.0
4.4 0.0 0.0
4.800000000000001 0.0 0.0
5.2 0.0 0.0
5.6000000000000005 0.0 0.0
6.0 0.0 0.0
6.4 0.0 0.0
6.800000000000001 0.0 0.0
7.2 0.0 0.0
7.6000000000000005 0.0 0.0
8.0 0.0 0.0
8.4 0.0 0.0
8.8 0.0 0.0
9.200000000000001 0.0 0.0
9.600000000000001 0.0 0.0
10.0 0.0 0.0
10.4 0.0 0.0
10.8 0.0 0.0
11.200000000000001 0.0 0.0
11.600000000000001 0.0 0.0
12.0 0.0 0.0
12.4 0.0 0.0
12.8 0.0 0.0
13.200000000000001 0.0 0.0
13.600000000000001 0.0 0.0
14.0 0.0 0.0
14.4 0.0 0.0
14.8 0.0 0.0
15.200000000000001 0.0 0.0
15.600000000000001 0.0 0.0
16.0 0.0 0.0
0.0 0.1 0.0
0.4 0.1 0.0
0.8 0.1 0.0
1.2000000000000002 0.1 0.0
1.6 0.1 0.0
2.0 0.1 0.0
2.4000000000000004 0.1 0.0
2.8000000000000003 0.1 0.0
3.2 0.1 0.0
3.6 0.1 0.0
4.0 0.1 0.0
4.4 0.1 0.0
4.800000000000001 0.1 0.0
5.2 0.1 0.0
5.6000000000000005 0.1 0.0
6.0 0.1 0.0
6.4 0.1 0.0
6.800000000000001 0.1 0.0
7.2 0.1 0.0
7.6000000000000005 0.1 0.0
8.0 0.1 0.0
8.4 0.1 0.0
8.8 0.1 0.0
9.200000000000001 0.1 0.0
9.600000000000001 0.1 0.0
10.0 0.1 0.0
10.4 0.1 0.0
10.8 0.1 0.0
11.200000000000001 0.1 0.0
11.600000000000001 0.1 0.0
12.0 0.1 0.0
12.4 0.1 0.0
12.8 0.1 0.0
13.200000000000001 0.1 0.0
13.600000000000001 0.1 0.0
14.0 0.1 0.0
14.4 0.1 0.0
14.8 0.1 0.0
15.200000000000001 0.1 0.0
15.600000000000001 0.1 0.0
16.0 0.1 0.0
0.0 0.2 0.0
0.4 0.2 0.0
0.8 0.2 0.0
1.2000000000000002 0.2 0.0
1.6 0.2 0.0
2.0 0.2 0.0
2.4000000000000004 0.2 0.0
2.8000000000000003 0.2 0.0
3.2 0.2 0.0
3.6 0.2 0.0
4.0 0.2 0.0
4.4 0.2 0.0
4.800000000000001 0.2 0.0
5.2 0.2 0.0
5.6000000000000005 0.2 0.0
6.0 0.2 0.0
6.4 0.2 0.0
6.800000000000001 0.2 0.0
7.2 0.2 0.0
7.6000000000000005 0.2 0.0
8.0 0.2 0.0
8.4 0.2 0.0
8.8 0.2 0.0
9.200000000000001 0.2 0.0
9.600000000000001 0.2 0.0
10.0 0.2 0.0
10.4 0.2 0.0
10.8 0.2 0.0
11.200000000000001 0.2 0.0
11.600000000000001 0.2 0.0
12.0 0.2 0.0
12.4 0.2 0.0
12.8 0.2 0.0
13.200000000000001 0.2 0.0
13.600000000000001 0.2 0.0
14.0 0.2 0.0
14.4 0.2 0.0
14.8 0.2 0.0
15.200000000000001 0.2 0.0
15.600000000000001 0.2 0.0
16.0 0.2 0.0
0.0 0.30000000000000004 0.0
0.4 0.30000000000000004 0.0
0.8 0.30000000000000004 0.0
1.2000000000000002 0.30000000000000004 0.0
1.6 0.30000000000000004 0.0
2.0 0.30000000000000004 0.0
2.4000000000000004 0.30000000000000004 0.0
2.8000000000000003 0.30000000000000004 0.0
3.2 0.30000000000000004 0.0
3.6 0.30000000000000004 0.0
4.0 0.30000000000000004 0.0
4.4 0.30000000000000004 0.0
4.800000000000001 0.30000000000000004 0.0
5.2 0.30000000000000004 0.0
5.6000000000000005 0.30000000000000004 0.0
6.0 0.30000000000000004 0.0
6.4 0.30000000000000004 0.0
6.800000000000001 0.30000000000000004 0.0
7.2 0.30000000000000004 0.0
7.6000000000000005 0.30000000000000004 0.0
8.0 0.30000000000000004 0.0
8.4 0.30000000000000004 0.0
8.8 0.30000000000000004 0.0
9.200000000000001 0.30000000000000004 0.0
9.600000000000001 0.30000000000000004 0.0
10.0 0.30000000000000004 0.0
10.4 0.30000000000000004 0.0
10.8 0.30000000000000004 0.0
11.200000000000001 0.30000000000000004 0.0
11.600000000000001 0.30000000000000004 0.0
12.0 0.30000000000000004 0.0
12.4 0.30000000000000004 0.0
12.8 0.30000000000000004 0.0
13.200000000000001 0.30000000000000004 0.0
13.600000000000001 0.30000000000000004 0.0
14.0 0.30000000000000004 0.0
14.4 0.30000000000000004 0.0
14.8 0.30000000000000004 0.0
15.200000000000001 0.30000000000000004 0.0
15.600000000000001 0.30000000000000004 0.0
16.0 0.30000000000000004 0.0
0.0 0.4 0.0
0.4 0.4 0.0
0.8 0.4 0.0
1.2000000000000002 0.4 0.0
1.6 0.4 0.0
2.0 0.4 0.0
2.4000000000000004 0.4 0.0
2.8000000000000003 0.4 0.0
3.2 0.4 0.0
3.6 0.4 0.0
4.0 0.4 0.0
4.4 0.4 0.0
4.800000000000001 0.4 0.0
5.2 0.4 0.0
5.6000000000000005 0.4 0.0
6.0 0.4 0.0
6.4 0.4 0.0
6.800000000000001 0.4 0.0
7.2 0.4 0.0
7.6000000000000005 0.4 0.0
8.0 0.4 0.0
8.4 0.4 0.0
8.8 0.4 0.0
9.200000000000001 0.4 0.0
9.600000000000001 0.4 0.0
10.0 0.4 0.0
10.4 0.4 0.0
10.8 0.4 0.0
11.200000000000001 0.4 0.0
11.600000000000001 0.4 0.0
12.0 0.4 0.0
12.4 0.4 0.0
12.8 0.4 0.0
13.200000000000001 0.4 0.0
13.600000000000001 0.4 0.0
14.0 0.4 0.0
14.4 0.4 0.0
14.8 0.4 0.0
15.200000000000001 0.4 0.0
15.600000000000001 0.4 0.0
16.0 0.4 0.0
0.0 0.5 0.0
0.4 0.5 0.0
0.8 0.5 0.0
1.2000000000000002 0.5 0.0
1.6 0.5 0.0
2.0 0.5 0.0
2.4000000000000004 0.5 0.0
2.8000000000000003 0.5 0.0
3.2 0.5 0.0
3.6 0.5 0.0
4.0 0.5 0.0
4.4 0.5 0.0
4.800000000000001 0.5 0.0
5.2 0.5 0.0
5.6000000000000005 0.5 0.0
6.0 0.5 0.0
6.4 0.5 0.0
6.800000000000001 0.5 0.0
7.2 0.5 0.0
7.6000000000000005 0.5 0.0
8.0 0.5 0.0
8.4 0.5 0.0
8.8 0.5 0.0
9.200000000000001 0.5 0.0
9.600000000000001 0.5 0.0
10.0 0.5 0.0
10.4 0.5 0.0
10.8 0.5 0.0
11.200000000000001 0.5 0.0
11.600000000000001 0.5 0.0
12.0 0.5 0.0
12.4 0.5 0.0
12.8 0.5 0.0
13.200000000000001 0.5 0.0
13.600000000000001 0.5 0.0
14.0 0.5 0.0
14.4 0.5 0.0
14.8 0.5 0.0
15.200000000000001 0.5 0.0
15.600000000000001 0.5 0.0
16.0 0.5 0.0
0.0 0.6000000000000001 0.0
0.4 0.6000000000000001 0.0
0.8 0.6000000000000001 0.0
1.2000000000000002 0.6000000000000001 0.0
1.6 0.6000000000000001 0.0
2.0 0.6000000000000001 0.0
2.4000000000000004 0.6000000000000001 0.0
2.8000000000000003 0.6000000000000001 0.0
3.2 0.6000000000000001 0.0
3.6 0.6000000000000001 0.0
4.0 0.6000000000000001 0.0
4.4 0.6000000000000001 0.0
4.800000000000001 0.6000000000000001 0.0
5.2 0.6000000000000001 0.0
5.6000000000000005 0.6000000000000001 0.0
6.0 0.6000000000000001 0.0
6.4 0.6000000000000001 0.0
6.800000000000001 0.6000000000000001 0.0
7.2 0.6000000000000001 0.0
7.6000000000000005 0.6000000000000001 0.0
8.0 0.6000000000000001 0.0
8.4 0.6000000000000001 0.0
8.8 0.6000000000000001 0.0
9.200000000000001 0.6000000000000001 0.0
9.600000000000001 0.6000000000000001 0.0
10.0 0.6000000000000001 0.0
10.4 0.6000000000000001 0.0
10.8 0.6000000000000001 0.0
11.200000000000001 0.6000000000000001 0.0
11.600000000000001 0.6000000000000001 0.0
12.0 0.6000000000000001 0.0
12.4 0.6000000000000001 0.0
12.8 0.6000000000000001 0.0
13.200000000000001 0.6000000000000001 0.0
13.600000000000001 0.6000000000000001 0.0
14.0 0.6000000000000001 0.0
14.4 0.6000000000000001 0.0
14.8 0.6000000000000001 0.0
15.200000000000001 0.6000000000000001 0.0
15.600000000000001 0.6000000000000001 0.0
16.0 0.6000000000000001 0.0
0.0 0.7000000000000001 0.0
0.4 0.7000000000000001 0.0
0.8 0.7000000000000001 0.0
1.2000000000000002 0.7000000000000001 0.0
1.6 0.7000000000000001 0.0
2.0 0.7000000000000001 0.0
2.4000000000000004 0.7000000000000001 0.0
2.8000000000000003 0.7000000000000001 0.0
3.2 0.7000000000000001 0.0
3.6 0.7000000000000001 0.0
4.0 0.7000000000000001 0.0
4.4 0.7000000000000001 0.0
4.800000000000001 0.7000000000000001 0.0
5.2 0.7000000000000001 0.0
5.6000000000000005 0.7000000000000001 0.0
6.0 0.7000000000000001 0.0
6.4 0.7000000000000001 0.0
6.800000000000001 0.7000000000000001 0.0
7.2 0.7000000000000001 0.0
7.6000000000000005 0.7000000000000001 0.0
8.0 0.7000000000000001 0.0
8.4 0.7000000000000001 0.0
8.8 0.7000000000000001 0.0
9.200000000000001 0.7000000000000001 0.0
9.600000000000001 0.7000000000000001 0.0
10.0 0.7000000000000001 0.0
10.4 0.7000000000000001 0.0
10.8 0.7000000000000001 0.0
11.200000000000001 0.7000000000000001 0.0
11.600000000000001 0.7000000000000001 0.0
12.0 0.7000000000000001 0.0
12.4 0.7000000000000001 0.0
12.8 0.7000000000000001 0.0
13.200000000000001 0.7000000000000001 0.0
13.600000000000001 0.7000000000000001 0.0
14.0 0.7000000000000001 0.0
14.4 0.7000000000000001 0.0
14.8 0.7000000000000001 0.0
15.200000000000001 0.7000000000000001 0.0
15.600000000000001 0.7000000000000001 0.0
16.0 0.7000000000000001 0.0
0.0 0.8 0.0
0.4 0.8 0.0
0.8 0.8 0.0
1.2000000000000002 0.8 0.0
1.6 0.8 0.0
2.0 0.8 0.0
2.4000000000000004 0.8 0.0
2.8000000000000003 0.8 0.0
3.2 0.8 0.0
3.6 0.8 0.0
4.0 0.8 0.0
4.4 0.8 0.0
4.800000000000001 0.8 0.0
5.2 0.8 0.0
5.6000000000000005 0.8 0.0
6.0 0.8 0.0
6.4 0.8 0.0
6.800000000000001 0.8 0.0
7.2 0.8 0.0
7.6000000000000005 0.8 0.0
8.0 0.8 0.0
8.4 0.8 0.0
8.8 0.8 0.0
9.200000000000001 0.8 0.0
9.600000000000001 0.8 0.0
10.0 0.8 0.0
10.4 0.8 0.0
10.8 0.8 0.0
11.200000000000001 0.8 0.0
11.600000000000001 0.8 0.0
12.0 0.8 0.0
12.4 0.8 0.0
12.8 0.8 0.0
13.200000000000001 0.8 0.0
13.600000000000001 0.8 0.0
14.0 0.8 0.0
14.4 0.8 0.0
14.8 0.8 0.0
15.200000000000001 0.8 0.0
15.600000000000001 0.8 0.0
16.0 0.8 0.0
0.0 0.9 0.0
0.4 0.9 0.0
0.8 0.9 0.0
1.2000000000000002 0.9 0.0
1.6 0.9 0.0
2.0 0.9 0.0
2.4000000000000004 0.9 0.0
2.8000000000000003 0.9 0.0
3.2 0.9 0.0
3.6 0.9 0.0
4.0 0.9 0.0
4.4 0.9 0.0
4.800000000000001 0.9 0.0
5.2 0.9 0.0
5.6000000000000005 0.9 0.0
6.0 0.9 0.0
6.4 0.9 0.0
6.800000000000001 0.9 0.0
7.2 0.9 0.0
7.6000000000000005 0.9 0.0
8.0 0.9 0.0
8.4 0.9 0.0
8.8 0.9 0.0
9.200000000000001 0.9 0.0
9.600000000000001 0.9 0.0
10.0 0.9 0.0
10.4 0.9 0.0
10.8 0.9 0.0
11.200000000000001 0.9 0.0
11.600000000000001 0.9 0.0
12.0 0.9 0.0
12.4 0.9 0.0
12.8 0.9 0.0
13.200000000000001 0.9 0.0
13.600000000000001 0.9 0.0
14.0 0.9 0.0
14.4 0.9 0.0
14.8 0.9 0.0
15.200000000000001 0.9 0.0
15.600000000000001 0.9 0.0
16.0 0.9 0.0
0.0 1.0 0.0
0.4 1.0 0.0
0.8 1.0 0.0
1.2000000000000002 1.0 0.0
1.6 1.0 0.0
2.0 1.0 0.0
2.4000000000000004 1.0 0.0
2.8000000000000003 1.0 0.0
3.2 1.0 0.0
3.6 1.0 0.0
4.0 1.0 0.0
4.4 1.0 0.0
4.800000000000001 1.0 0.0
5.2 1.0 0.0
5.6000000000000005 1.0 0.0
6.0 1.0 0.0
6.4 1.0 0.0
6.800000000000001 1.0 0.0
7.2 1.0 0.0
7.6000000000000005 1.0 0.0
8.0 1.0 0.0
8.4 1.0 0.0
8.8 1.0 0.0
9.200000000000001 1.0 0.0
9.600000000000001 1.0 0.0
10.0 1.0 0.0
10.4 1.0 0.0
10.8 1.0 0.0
11.200000000000001 1.0 0.0
11.600000000000001 1.0 0.0
12.0 1.0 0.0
12.4 1.0 0.0
12.8 1.0 0.0
13.200000000000001 1.0 0.0
13.600000000000001 1.0 0.0
14.0 1.0 0.0
14.4 1.0 0.0
14.8 1.0 0.0
15.200000000000001 1.0 0.0
15.600000000000001 1.0 0.0
16.0 1.0 0.0
0.0 1.1 0.0
0.4 1.1 0.0
0.8 1.1 0.0
1.2000000000000002 1.1 0.0
1.6 1.1 0.0
2.0 1.1 0.0
2.4000000000000004 1.1 0.0
2.8000000000000003 1.1 0.0
3.2 1.1 0.0
3.6 1.1 0.0
4.0 1.1 0.0
4.4 1.1 0.0
4.800000000000001 1.1 0.0
5.2 1.1 0.0
5.6000000000000005 1.1 0.0
6.0 1.1 0.0
6.4 1.1 0.0
6.800000000000001 1.1 0.0
7.2 1.1 0.0
7.6000000000000005 1.1 0.0
8.0 1.1 0.0
8.4 1.1 0.0
8.8 1.1 0.0
9.200000000000001 1.1 0.0
9.600000000000001 1.1 0.0
10.0 1.1 0.0
10.4 1.1 0.0
10.8 1.1 0.0
11.200000000000001 1.1 0.0
11.600000000000001 1.1 0.0
12.0 1.1 0.0
12.4 1.1 0.0
12.8 1.1 0.0
13.200000000000001 1.1 0.0
13.600000000000001 1.1 0.0
14.0 1.1 0.0
14.4 1.1 0.0
14.8 1.1 0.0
15.200000000000001 1.1 0.0
15.600000000000001 1.1 0.0
16.0 1.1 0.0
0.0 1.2000000000000002 0.0
0.4 1.2000000000000002 0.0
0.8 1.2000000000000002 0.0
1.2000000000000002 1.2000000000000002 0.0
1.6 1.2000000000000002 0.0
2.0 1.2000000000000002 0.0
2.4000000000000004 1.2000000000000002 0.0
2.8000000000000003 1.2000000000000002 0.0
3.2 1.2000000000000002 0.0
3.6 1.2000000000000002 0.0
4.0 1.2000000000000002 0.0
4.4 1.2000000000000002 0.0
4.800000000000001 1.2000000000000002 0.0
5.2 1.2000000000000002 0.0
5.6000000000000005 1.2000000000000002 0.0
6.0 1.2000000000000002 0.0
6.4 1.2000000000000002 0.0
6.800000000000001 1.2000000000000002 0.0
7.2 1.2000000000000002 0.0
7.6000000000000005 1.2000000000000002 0.0
8.0 1.2000000000000002 0.0
8.4 1.2000000000000002 0.0
8.8 1.2000000000000002 0.0
9.200000000000001 1.2000000000000002 0.0
9.600000000000001 1.2000000000000002 0.0
10.0 1.2000000000000002 0.0
10.4 1.2000000000000002 0.0
10.8 1.2000000000000002 0.0
11.200000000000001 1.2000000000000002 0.0
11.600000000000001 1.2000000000000002 0.0
12.0 1.2000000000000002 0.0
12.4 1.2000000000000002 0.0
12.8 1.2000000000000002 0.0
13.200000000000001 1.2000000000000002 0.0
13.600000000000001 1.2000000000000002 0.0
14.0 1.2000000000000002 0.0
14.4 1.2000000000000002 0.0
14.8 1.2000000000000002 0.0
15.200000000000001 1.2000000000000002 0.0
15.600000000000001 1.2000000000000002 0.0
16.0 1.2000000000000002 0.0
0.0 1.3 0.0
0.4 1.3 0.0
0.8 1.3 0.0
1.2000000000000002 1.3 0.0
1.6 1.3 0.0
2.0 1.3 0.0
2.4000000000000004 1.3 0.0
2.8000000000000003 1.3 0.0
3.2 1.3 0.0
3.6 1.3 0.0
4.0 1.3 0.0
4.4 1.3 0.0
4.800000000000001 1.3 0.0
5.2 1.3 0.0
5.6000000000000005 1.3 0.0
6.0 1.3 0.0
6.4 1.3 0.0
6.800000000000001 1.3 0.0
7.2 1.3 0.0
7.6000000000000005 1.3 0.0
8.0 1.3 0.0
8.4 1.3 0.0
8.8 1.3 0.0
9.200000000000001 1.3 0.0
9.600000000000001 1.3 0.0
10.0 1.3 0.0
10.4 1.3 0.0
10.8 1.3 0.0
11.200000000000001 1.3 0.0
11.600000000000001 1.3 0.0
12.0 1.3 0.0
12.4 1.3 0.0
12.8 1.3 0.0
13.200000000000001 1.3 0.0
13.600000000000001 1.3 0.0
14.0 1.3 0.0
14.4 1.3 0.0
14.8 1.3 0.0
15.200000000000001 1.3 0.0
15.600000000000001 1.3 0.0
16.0 1.3 0.0
0.0 1.4000000000000001 0.0
0.4 1.4000000000000001 0.0
0.8 1.4000000000000001 0.0
1.2000000000000002 1.4000000000000001 0.0
1.6 1.4000000000000001 0.0
2.0 1.4000000000000001 0.0
2.4000000000000004 1.4000000000000001 0.0
2.8000000000000003 1.4000000000000001 0.0
3.2 1.4000000000000001 0.0
3.6 1.4000000000000001 0.0
4.0 1.4000000000000001 0.0
4.4 1.4000000000000001 0.0
4.800000000000001 1.4000000000000001 0.0
5.2 1.4000000000000001 0.0
5.6000000000000005 1.4000000000000001 0.0
6.0 1.4000000000000001 0.0
6.4 1.4000000000000001 0.0
6.800000000000001 1.4000000000000001 0.0
7.2 1.4000000000000001 0.0
7.6000000000000005 1.4000000000000001 0.0
8.0 1.4000000000000001 0.0
8.4 1.4000000000000001 0.0
8.8 1.4000000000000001 0.0
9.200000000000001 1.4000000000000001 0.0
9.600000000000001 1.4000000000000001 0.0
10.0 1.4000000000000001 0.0
10.4 1.4000000000000001 0.0
10.8 1.4000000000000001 0.0
11.200000000000001 1.4000000000000001 0.0
11.600000000000001 1.4000000000000001 0.0
12.0 1.4000000000000001 0.0
12.4 1.4000000000000001 0.0
12.8 1.4000000000000001 0.0
13.200000000000001 1.4000000000000001 0.0
13.600000000000001 1.4000000000000001 0.0
14.0 1.4000000000000001 0.0
14.4 1.4000000000000001 0.0
14.8 1.4000000000000001 0.0
15.200000000000001 1.4000000000000001 0.0
15.600000000000001 1.4000000000000001 0.0
16.0 1.4000000000000001 0.0
0.0 1.5 0.0
0.4 1.5 0.0
0.8 1.5 0.0
1.2000000000000002 1.5 0.0
1.6 1.5 0.0
2.0 1.5 0.0
2.4000000000000004 1.5 0.0
2.8000000000000003 1.5 0.0
3.2 1.5 0.0
3.6 1.5 0.0
4.0 1.5 0.0
4.4 1.5 0.0
4.800000000000001 1.5 0.0
5.2 1.5 0.0
5.6000000000000005 1.5 0.0
6.0 1.5 0.0
6.4 1.5 0.0
6.800000000000001 1.5 0.0
7.2 1.5 0.0
7.6000000000000005 1.5 0.0
8.0 1.5 0.0
8.4 1.5 0.0
8.8 1.5 0.0
9.200000000000001 1.5 0.0
9.600000000000001 1.5 0.0
10.0 1.5 0.0
10.4 1.5 0.0
10.8 1.5 0.0
11.200000000000001 1.5 0.0
11.600000000000001 1.5 0.0
12.0 1.5 0.0
12.4 1.5 0.0
12.8 1.5 0.0
13.200000000000001 1.5 0.0
13.600000000000001 1.5 0.0
14.0 1.5 0.0
14.4 1.5 0.0
14.8 1.5 0.0
15.200000000000001 1.5 0.0
15.600000000000001 1.5 0.0
16.0 1.5 0.0
0.0 1.6 0.0
0.4 1.6 0.0
0.8 1.6 0.0
1.2000000000000002 1.6 0.0
1.6 1.6 0.0
2.0 1.6 0.0
2.4000000000000004 1.6 0.0
2.8000000000000003 1.6 0.0
3.2 1.6 0.0
3.6 1.6 0.0
4.0 1.6 0.0
4.4 1.6 0.0
4.800000000000001 1.6 0.0
5.2 1.6 0.0
5.6000000000000005 1.6 0.0
6.0 1.6 0.0
6.4 1.6 0.0
6.800000000000001 1.6 0.0
7.2 1.6 0.0
7.6000000000000005 1.6 0.0
8.0 1.6 0.0
8.4 1.6 0.0
8.8 1.6 0.0
9.200000000000001 1.6 0.0
9.600000000000001 1.6 0.0
10.0 1.6 0.0
10.4 1.6 0.0
10.8 1.6 0.0
11.200000000000001 1.6 0.0
11.600000000000001 1.6 0.0
12.0 1.6 0.0
12.4 1.6 0.0
12.8 1.6 0.0
13.200000000000001 1.6 0.0
13.600000000000001 1.6 0.0
14.0 1.6 0.0
14.4 1.6 0.0
14.8 1.6 0.0
15.200000000000001 1.6 0.0
15.600000000000001 1.6 0.0
16.0 1.6 0.0
0.0 1.7000000000000002 0.0
0.4 1.7000000000000002 0.0
0.8 1.7000000000000002 0.0
1.2000000000000002 1.7000000000000002 0.0
1.6 1.7000000000000002 0.0
2.0 1.7000000000000002 0.0
2.4000000000000004 1.7000000000000002 0.0
2.8000000000000003 1.7000000000000002 0.0
3.2 1.7000000000000002 0.0
3.6 1.7000000000000002 0.0
4.0 1.7000000000000002 0.0
4.4 1.7000000000000002 0.0
4.800000000000001 1.7000000000000002 0.0
5.2 1.7000000000000002 0.0
5.6000000000000005 1.7000000000000002 0.0
6.0 1.7000000000000002 0.0
6.4 1.7000000000000002 0.0
6.800000000000001 1.7000000000000002 0.0
7.2 1.7000000000000002 0.0
7.6000000000000005 1.7000000000000002 0.0
8.0 1.7000000000000002 0.0
8.4 1.7000000000000002 0.0
8.8 1.7000000000000002 0.0
9.200000000000001 1.7000000000000002 0.0
9.600000000000001 1.7000000000000002 0.0
10.0 1.7000000000000002 0.0
10.4 1.7000000000000002 0.0
10.8 1.7000000000000002 0.0
11.200000000000001 1.7000000000000002 0.0
11.600000000000001 1.7000000000000002 0.0
12.0 1.7000000000000002 0.0
12.4 1.7000000000000002 0.0
12.8 1.7000000000000002 0.0
13.200000000000001 1.7000000000000002 0.0
13.600000000000001 1.7000000000000002 0.0
14.0 1.7000000000000002 0.0
14.4 1.7000000000000002 0.0
14.8 1.7000000000000002 0.0
15.200000000000001 1.7000000000000002 0.0
15.600000000000001 1.7000000000000002 0.0
16.0 1.7000000000000002 0.0
0.0 1.8 0.0
0.4 1.8 0.0
0.8 1.8 0.0
1.2000000000000002 1.8 0.0
1.6 1.8 0.0
2.0 1.8 0.0
2.4000000000000004 1.8 0.0
2.8000000000000003 1.8 0.0
3.2 1.8 0.0
3.6 1.8 0.0
4.0 1.8 0.0
4.4 1.8 0.0
4.800000000000001 1.8 0.0
5.2 1.8 0.0
5.6000000000000005 1.8 0.0
6.0 1.8 0.0
6.4 1.8 0.0
6.800000000000001 1.8 0.0
7.2 1.8 0.0
7.6000000000000005 1.8 0.0
8.0 1.8 0.0
8.4 1.8 0.0
8.8 1.8 0.0
9.200000000000001 1.8 0.0
9.600000000000001 1.8 0.0
10.0 1.8 0.0
10.4 1.8 0.0
10.8 1.8 0.0
11.200000000000001 1.8 0.0
11.600000000000001 1.8 0.0
12.0 1.8 0.0
12.4 1.8 0.0
12.8 1.8 0.0
13.200000000000001 1.8 0.0
13.600000000000001 1.8 0.0
14.0 1.8 0.0
14.4 1.8 0.0
14.8 1.8 0.0
15.200000000000001 1.8 0.0
15.600000000000001 1.8 0.0
16.0 1.8 0.0
0.0 1.9000000000000001 0.0
0.4 1.9000000000000001 0.0
0.8 1.9000000000000001 0.0
1.2000000000000002 1.9000000000000001 0.0
1.6 1.9000000000000001 0.0
2.0 1.9000000000000001 0.0
2.4000000000000004 1.9000000000000001 0.0
2.8000000000000003 1.9000000000000001 0.0
3.2 1.9000000000000001 0.0
3.6 1.9000000000000001 0.0
4.0 1.9000000000000001 0.0
4.4 1.9000000000000001 0.0
4.800000000000001 1.9000000000000001 0.0
5.2 1.9000000000000001 0.0
5.6000000000000005 1.9000000000000001 0.0
6.0 1.9000000000000001 0.0
6.4 1.9000000000000001 0.0
6.800000000000001 1.9000000000000001 0.0
7.2 1.9000000000000001 0.0
7.6000000000000005 1.9000000000000001 0.0
8.0 1.9000000000000001 0.0
8.4 1.9000000000000001 0.0
8.8 1.9000000000000001 0.0
9.200000000000001 1.9000000000000001 0.0
9.600000000000001 1.9000000000000001 0.0
10.0 1.9000000000000001 0.0
10.4 1.9000000000000001 0.0
10.8 1.9000000000000001 0.0
11.200000000000001 1.9000000000000001 0.0
11.600000000000001 1.9000000000000001 0.0
12.0 1.9000000000000001 0.0
12.4 1.9000000000000001 0.0
12.8 1.9000000000000001 0.0
13.200000000000001 1.9000000000000001 0.0
13.600000000000001 1.9000000000000001 0.0
14.0 1.9000000000000001 0.0
14.4 1.9000000000000001 0.0
14.8 1.9000000000000001 0.0
15.200000000000001 1.9000000000000001 0.0
15.600000000000001 1.9000000000000001 0.0
16.0 1.9000000000000001 0.0
0.0 2.0 0.0
0.4 2.0 0.0
0.8 2.0 0.0
1.2000000000000002 2.0 0.0
1.6 2.0 0.0
2.0 2.0 0.0
2.4000000000000004 2.0 0.0
2.8000000000000003 2.0 0.0
3.2 2.0 0.0
3.6 2.0 0.0
4.0 2.0 0.0
4.4 2.0 0.0
4.800000000000001 2.0 0.0
5.2 2.0 0.0
5.6000000000000005 2.0 0.0
6.0 2.0 0.0
6.4 2.0 0.0
6.800000000000001 2.0 0.0
7.2 2.0 0.0
7.6000000000000005 2.0 0.0
8.0 2.0 0.0
8.4 2.0 0.0
8.8 2.0 0.0
9.200000000000001 2.0 0.0
9.600000000000001 2.0 0.0
10.0 2.0 0.0
10.4 2.0 0.0
10.8 2.0 0.0
11.200000000000001 2.0 0.0
11.600000000000001 2.0 0.0
12.0 2.0 0.0
12.4 2.0 0.0
12.8 2.0 0.0
13.200000000000001 2.0 0.0
13.600000000000001 2.0 0.0
14.0 2.0 0.0
14.4 2.0 0.0
14.8 2.0 0.0
15.200000000000001 2.0 0.0
15.600000000000001 2.0 0.0
16.0 2.0 0.0
CELLS 800 4000
4 0 1 42 41
4 1 2 43 42
4 2 3 44 43
4 3 4 45 44
4 4 5 46 45
4 5 6 47 46
4 6 7 48 47
4 7 8 49 48
4 8 9 50 49
4 9 10 51 50
4 10 11 52 51
4 11 12 53 52
4 12 13 54 53
4 13 14 55 54
4 14 15 56 55
4 15 16 57 56
4 16 17 58 57
4 17 18 59 58
4 18 19 60 59
4 19 20 61 60
4 20 21 62 61
4 21 22 63 62
4 22 23 64 63
4 23 24 65 64
4 24 25 66 65
4 25 26 67 66
4 26 27 68 67
4 27 28 69 68
4 28 29 70 69
4 29 30 71 70
4 30 31 72 71
4 31 32 73 72
4 32 33 74 73
4 33 34 75 74
4 34 35 76 75
4 35 36 77 76
4 36 37 78 77
4 37 38 79 78
4 38 39 80 79
4 39 40 81 80
4 41 42 83 82
4 42 43 84 83
4 43 44 85 84
4 44 45 86 85
4 45 46 87 86
4 46 47 88 87
4 47 48 89 88
4 48 49 90 89
4 49 50 91 90
4 50 51 92 91
4 51 52 93 92
4 52 53 94 93
4 53 54 95 94
4 54 55 96 95
4 55 56 97 96
4 56 57 98 97
4 57 58 99 98
4 58 59 100 99
4 59 60 101 100
4 60 61 102 101
4 61 62 103 102
4 62 63 104 103
4 63 64 105 104
4 64 65 106 105
4 65 66 107 106
4 66 67 108 107
4 67 68 109 108
4 68 69 110 109
4 69 70 111 110
4 70 71 112 111
4 71 72 113 112
4 72 73 114 113
4 73 74 115 114
4 74 75 116 115
4 75 76 117 116
4 76 77 118 117
4 77 78 119 118
4 78 79 120 119
4 79 80 121 120
4 80 81 122 121
4 82 83 124 123
4 83 84 125 124
4 84 85 126 125
4 85 86 127 126
4 86 87 128 127
4 87 88 129 128
4 88 89 130 129
4 89 90 131 130
4 90 91 132 131
4 91 92 133 132
4 92 93 134 133
4 93 94 135 134
4 94 95 136 135
4 95 96 137 136
4 96 97 138 137
4 97 98 139 138
4 98 99 140 139
4 99 100 141 140
4 100 101 142 141
4 101 102 143 142
4 102 103 144 143
4 103 104 145 144
4 104 105 146 145
4 105 106 147 146
4 106 107 148 147
4 107 108 149 148
4 108 109 150 149
4 109 110 151 150
4 110 111 152 151
4 111 112 153 152
4 112 113 154 153
4 113 114 155 154
4 114 115 156 155
4 115 116 157 156
4 116 117 158 157
4 117 118 159 158
4 118 119 160 159
4 119 120 161 160
4 120 121 162 161
4 121 122 163 162
4 123 124 165 164
4 124 125 166 165
4 125 126 167 166
4 126 127 168 167
4 127 128 169 168
4 128 129 170 169
4 129 130 171 170
4 130 131 172 171
4 131 132 173 172
4 132 133 174 173
4 133 134 175 174
4 134 135 176 175
4 135 136 177 176
4 136 137 178 177
4 137 138 179 178
4 138 139 180 179
4 139 140 181 180
4 140 141 182 181
4 141 142 183 182
4 142 143 184 183
4 143 144 185 184
4 144 145 186 185
4 145 146 187 186
4 146 147 188 187
4 147 148 189 188
4 148 149 190 189
4 149 150 191 190
4 150 151 192 191
4 151 152 193 192
4 152 153 194 193
4 153 154 195 194
4 154 155 196 195
4 155 156 197 196
4 156 157 198 197
4 157 158 199 198
4 158 159 200 199
4 159 160 201 200
4 160 161 202 201
4 161 162 203 202
4 162 163 204 203
4 164 165 206 205
4 165 166 207 206
4 166 167 208 207
4 167 168 209 208
4 168 169 210 209
4 169 170 211 210
4 170 171 212 211
4 171 172 213 212
4 172 173 214 213
4 173 174 215 214
4 174 175 216 215
4 175 176 217 216
4 176 177 218 217
4 177 178 219 218
4 178 179 220 219
4 179 180 221 220
4 180 181 222 221
4 181 182 223 222
4 182 183 224 223
4 183 184 225 224
4 184 185 226 225
4 185 186 227 226
4 186 187 228 227
4 187 188 229 228
4 188 189 230 229
4 189 190 231 230
4 190 191 232 231
4 191 192 233 232
4 192 193 234 233
4 193 194 235 234
4 194 195 236 235
4 195 196 237 236
4 196 197 238 237
4 197 198 239 238
4 198 199 240 239
4 199 200 241 240
4 200 201 242 241
4 201 202 243 242
4 202 203 244 243
4 203 204 245 244
4 205 206 247 246
4 206 207 248 247
4 207 208 249 248
4 208 209 250 249
4 209 210 251 250
4 210 211 252 251
4 211 212 253 252
4 212 213 254 253
4 213 214 255 254
4 214 215 256 255
4 215 216 257 256
4 216 217 258 257
4 217 218 259 258
4 218 219 260 259
4 219 220 261 260
4 220 221 262 261
4 221 222 263 262
4 222 223 264 263
4 223 224 265 264
4 224 225 266 265
4 225 226 267 266
4 226 227 268 267
4 227 228 269 268
4 228 229 270 269
4 229 230 271 270
4 230 231 272 271
4 231 232 273 272
4 232 233 274 273
4 233 234 275 274
4 234 235 276 275
4 235 236 277 276
4 236 237 278 277
4 237 238 279 278
4 238 239 280 279
4 239 240 281 280
4 240 241 282 281
4 241 242 283 282
4 242 243 284 283
4 243 244 285 284
4 244 245 286 285
4 246 247 288 287
4 247 248 289 288
4 248 249 290 289
4 249 250 291 290
4 250 251 292 291
4 251 252 293 292
4 252 253 294 293
4 253 254 295 294
4 254 255 296 295
4 255 256 297 296
4 256 257 298 297
4 257 258 299 298
4 258 259 300 299
4 259 260 301 300
4 260 261 302 301
4 261 262 303 302
4 262 263 304 303
4 263 264 305 304
4 264 265 306 305
4 265 266 307 306
4 266 267 308 307
4 267 268 309 308
4 268 269 310 309
4 269 270 311 310
4 270 271 312 311
4 271 272 313 312
4 272 273 314 313
4 273 274 315 314
4 274 275 316 315
4 275 276 317 316
4 276 277 318 317
4 277 278 319 318
4 278 279 320 319
4 279 280 321 320
4 280 281 322 321
4 281 282 323 322
4 282 283 324 323
4 283 284 325 324
4 284 285 326 325
4 285 286 327 326
4 287 288 329 328
4 288 289 330 329
4 289 290 331 330
4 290 291 332 331
4 291 292 333 332
4 292 293 334 333
4 293 294 335 334
4 294 295 336 335
4 295 296 337 336
4 296 297 338 337
4 297 298 339 338
4 298 299 340 339
4 299 300 341 340
4 300 301 342 341
4 301 302 343 342
4 302 303 344 343
4 303 304 345 344
4 304 305 346 345
4 305 306 347 346
4 306 307 348 347
4 307 308 349 348
4 308 309 350 349
4 309 310 351 350
4 310 311 352 351
4 311 312 353 352
4 312 313 354 353
4 313 314 355 354
4 314 315 356 355
4 315 316 357 356
4 316 317 358 357
4 317 318 359 358
4 318 319 360 359
4 319 320 361 360
4 320 321 362 361
4 321 322 363 362
4 322 323 364 363
4 323 324 365 364
4 324 325 366 365
4 325 326 367 366
4 326 327 368 367
4 328 329 370 369
4 329 330 371 370
4 330 331 372 371
4 331 332 373 372
4 332 333 374 373
4 333 334 375 374
4 334 335 376 375
4 335 336 377 376
4 336 337 378 377
4 337 338 379 378
4 338 339 380 379
4 339 340 381 380
4 340 341 382 381
4 341 342 383 382
4 342 343 384 383
4 343 344 385 384
4 344 345 386 385
4 345 346 387 386
4 346 347 388 387
4 347 348 389 388
4 348 349 390 389
4 349 350 391 390
4 350 351 392 391
4 351 352 393 392
4 352 353 394 393
4 353 354 395 394
4 354 355 396 395
4 355 356 397 396
4 356 357 398 397
4 357 358 399 398
4 358 359 400 399
4 359 360 401 400
4 360 361 402 401
4 361 362 403 402
4 362 363 404 403
4 363 364 405 404
4 364 365 406 405
4 365 366 407 406
4 366 367 408 407
4 367 368 409 408
4 369 370 411 410
4 370 371 412 411
4 371 372 413 412
4 372 373 414 413
4 373 374 415 414
4 374 375 416 415
4 375 376 417 416
4 376 377 418 417
4 377 378 419 418
4 378 379 420 419
4 379 380 421 420
4 380 381 422 421
4 381 382 423 422
4 382 383 424 423
4 383 384 425 424
4 384 385 426 425
4 385 386 427 426
4 386 387 428 427
4 387 388 429 428
4 388 389 430 429
4 389 390 431 430
4 390 391 432 431
4 391 392 433 432
4 392 393 434 433
4 393 394 435 434
4 394 395 436 435
4 395 396 437 436
4 396 397 438 437
4 397 398 439 438
4 398 399 440 439
4 399 400 441 440
4 400 401 442 441
4 401 402 443 442
4 402 403 444 443
4 403 404 445 444
4 404 405 446 445
4 405 406 447 446
4 406 407 448 447
4 407 408 449 448
4 408 409 450 449
4 410 411 452 451
4 411 412 453 452
4 412 413 454 453
4 413 414 455 454
4 414 415 456 455
4 415 416 457 456
4 416 417 458 457
4 417 418 459 458
4 418 419 460 459
4 419 420 461 460
4 420 421 462 461
4 421 422 463 462
4 422 423 464 463
4 423 424 465 464
4 424 425 466 465
4 425 426 467 466
4 426 427 468 467
4 427 428 469 468
4 428 429 470 469
4 429 430 471 470
4 430 431 472 471
4 431 432 473 472
4 432 433 474 473
4 433 434 475 474
4 434 435 476 475
4 435 436 477 476
4 436 437 478 477
4 437 438 479 478
4 438 439 480 479
4 439 440 481 480
4 440 441 482 481
4 441 442 483 482
4 442 443 484 483
4 443 444 485 484
4 444 445 486 485
4 445 446 487 486
4 446 447 488 487
4 447 448 489 488
4 448 449 490 489
4 449 450 491 490
4 451 452 493 492
4 452 453 494 493
4 453 454 495 494
4 454 455 496 495
4 455 456 497 496
4 456 457 498 497
4 457 458 499 498
4 458 459 500 499
4 459 460 501 500
4 460 461 502 501
4 461 462 503 502
4 462 463 504 503
4 463 464 505 504
4 464 465 506 505
4 465 466 507 506
4 466 467 508 507
4 467 468 509 508
4 468 469 510 509
4 469 470 511 510
4 470 471 512 511
4 471 472 513 512
4 472 473 514 513
4 473 474 515 514
4 474 475 516 515
4 475 476 517 516
4 476 477 518 517
4 477 478 519 518
4 478 479 520 519
4 479 480 521 520
4 480 481 522 521
4 481 482 523 522
4 482 483 524 523
4 483 484 525 524
4 484 485 526 525
4 485 486 527 526
4 486 487 528 527
4 487 488 529 528
4 488 489 530 529
4 489 490 531 530
4 490 491 532 531
4 492 493 534 533
4 493 494 535 534
4 494 495 536 535
4 495 496 537 536
4 496 497 538 537
4 497 498 539 538
4 498 499 540 539
4 499 500 541 540
4 500 501 542 541
4 501 502 543 542
4 502 503 544 543
4 503 504 545 544
4 504 505 546 545
4 505 506 547 546
4 506 507 548 547
4 507 508 549 548
4 508 509 550 549
4 509 510 551 550
4 510 511 552 551
4 511 512 553 552
4 512 513 554 553
4 513 514 555 554
4 514 515 556 555
4 515 516 557 556
4 516 517 558 557
4 517 518 559 558
4 518 519 560 559
4 519 520 561 560
4 520 521 562 561
4 521 522 563 562
4 522 523 564 563
4 523 524 565 564
4 524 525 566 565
4 525 526 567 566
4 526 527 568 567
4 527 528 569 568
4 528 529 570 569
4 529 530 571 570
4 530 531 572 571
4 531 532 573 572
4 533 534 575 574
4 534 535 576 575
4 535 536 577 576
4 536 537 578 577
4 537 538 579 578
4 538 539 580 579
4 539 540 581 580
4 540 541 582 581
4 541 542 583 582
4 542 543 584 583
4 543 544 585 584
4 544 545 586 585
4 545 546 587 586
4 546 547 588 587
4 547 548 589 588
4 548 549 590 589
4 549 550 591 590
4 550 551 592 591
4 551 552 593 592
4 552 553 594 593
4 553 554 595 594
4 554 555 596 595
4 555 556 597 596
4 556 557 598 597
4 557 558 599 598
4 558 559 600 599
4 559 560 601 600
4 560 561 602 601
4 561 562 603 602
4 562 563 604 603
4 563 564 605 604
4 564 565 606 605
4 565 566 607 606
4 566 567 608 607
4 567 568 609 608
4 568 569 610 609
4 569 570 611 610
4 570 571 612 611
4 571 572 613 612
4 572 573 614 613
4 574 575 616 615
4 575 576 617 616
4 576 577 618 617
4 577 578 619 618
4 578 579 620 619
4 579 580 621 620
4 580 581 622 621
4 581 582 623 622
4 582 583 624 623
4 583 584 625 624
4 584 585 626 625
4 585 586 627 626
4 586 587 628 627
4 587 588 629 628
4 588 589 630 629
4 589 590 631 630
4 590 591 632 631
4 591 592 633 632
4 592 593 634 633
4 593 594 635 634
4 594 595 636 635
4 595 596 637 636
4 596 597 638 637
4 597 598 639 638
4 598 599 640 639
4 599 600 641 640
4 600 601 642 641
4 601 602 643 642
4 602 603 644 643
4 603 604 645 644
4 604 605 646 645
4 605 606 647 646
4 606 607 648 647
4 607 608 649 648
4 608 609 650 649
4 609 610 651 650
4 610 611 652 651
4 611 612 653 652
4 612 613 654 653
4 613 614 655 654
4 615 616 657 656
4 616 617 658 657
4 617 618 659 658
4 618 619 660 659
4 619 620 661 660
4 620 621 662 661
4 621 622 663 662
4 622 623 664 663
4 623 624 665 664
4 624 625 666 665
4 625 626 667 666
4 626 627 668 667
4 627 628 669 668
4 628 629 670 669
4 629 630 671 670
4 630 631 672 671
4 631 632 673 672
4 632 633 674 673
4 633 634 675 674
4 634 635 676 675
4 635 636 677 676
4 636 637 678 677
4 637 638 679 678
4 638 639 680 679
4 639 640 681 680
4 640 641 682 681
4 641 642 683 682
4 642 643 684 683
4 643 644 685 684
4 644 645 686 685
4 645 646 687 686
4 646 647 688 687
4 647 648 689 688
4 648 649 690 689
4 649 650 691 690
4 650 651 692 691
4 651 652 693 692
4 652 653 694 693
4 653 654 695 694
4 654 655 696 695
4 656 657 698 697
4 657 658 699 698
4 658 659 700 699
4 659 660 701 700
4 660 661 702 701
4 661 662 703 702
4 662 663 704 703
4 663 664 705 704
4 664 665 706 705
4 665 666 707 706
4 666 667 708 707
4 667 668 709 708
4 668 669 710 709
4 669 670 711 710
4 670 671 712 711
4 671 672 713 712
4 672 673 714 713
4 673 674 715 714
4 674 675 716 715
4 675 676 717 716
4 676 677 718 717
4 677 678 719 718
4 678 679 720 719
4 679 680 721 720
4 680 681 722 721
4 681 682 723 722
4 682 683 724 723
4 683 684 725 724
4 684 685 726 725
4 685 686 727 726
4 686 687 728 727
4 687 688 729 728
4 688 689 730 729
4 689 690 731 730
4 690 691 732 731
4 691 692 733 732
4 692 693 734 733
4 693 694 735 734
4 694 695 736 735
4 695 696 737 736
4 697 698 739 738
4 698 699 740 739
4 699 700 741 740
4 700 701 742 741
4 701 702 743 742
4 702 703 744 743
4 703 704 745 744
4 704 705 746 745
4 705 706 747 746
4 706 707 748 747
4 707 708 749 748
4 708 709 750 749
4 709 710 751 750
4 710 711 752 751
4 711 712 753 752
4 712 713 754 753
4 713 714 755 754
4 714 715 756 755
4 715 716 757 756
4 716 717 758 757
4 717 718 759 758
4 718 719 760 759
4 719 720 761 760
4 720 721 762 761
4 721 722 763 762
4 722 723 764 763
4 723 724 765 764
4 724 725 766 765
4 725 726 767 766
4 726 727 768 767
4 727 728 769 768
4 728 729 770 769
4 729 730 771 770
4 730 731 772 771
4 731 732 773 772
4 732 733 774 773
4 733 734 775 774
4 734 735 776 775
4 735 736 777 776
4 736 737 778 777
4 738 739 780 779
4 739 740 781 780
4 740 741 782 781
4 741 742 783 782
4 742 743 784 783
4 743 744 785 784
4 744 745 786 785
4 745 746 787 786
4 746 747 788 787
4 747 748 789 788
4 748 749 790 789
4 749 750 791 790
4 750 751 792 791
4 751 752 793 792
4 752 753 794 793
4 753 754 795 794
4 754 755 796 795
4 755 756 797 796
4 756 757 798 797
4 757 758 799 798
4 758 759 800 799
4 759 760 801 800
4 760 761 802 801
4 761 762 803 802
4 762 763 804 803
4 763 764 805 804
4 764 765 806 805
4 765 766 807 806
4 766 767 808 807
4 767 768 809 808
4 768 769 810 809
4 769 770 811 810
4 770 771 812 811
4 771 772 813 812
4 772 773 814 813
4 773 774 815 814
4 774 775 816 815
4 775 776 817 816
4 776 777 818 817
4 777 778 819 818
4 779 780 821 820
4 780 781 822 821
4 781 782 823 822
4 782 783 824 823
4 783 784 825 824
4 784 785 826 825
4 785 786 827 826
4 786 787 828 827
4 787 788 829 828
4 788 789 830 829
4 789 790 831 830
4 790 791 832 831
4 791 792 833 832
4 792 793 834 833
4 793 794 835 834
4 794 795 836 835
4 795 796 837 836
4 796 797 838 837
4 797 798 839 838
4 798 799 840 839
4 799 800 841 840
4 800 801 842 841
4 801 802 843 842
4 802 803 844 843
4 803 804 845 844
4 804 805 846 845
4 805 806 847 846
4 806 807 848 847
4 807 808 849 848
4 808 809 850 849
4 809 810 851 850
4 810 811 852 851
4 811 812 853 852
4 812 813 854 853
4 813 814 855 854
4 814 815 856 855
4 815 816 857 856
4 816 817 858 857
4 817 818 859 858
4 818 819 860 859
CELL_TYPES 800
9
9
9
9
9
9
9
9
9
9
9
9
9
9
9
9
9
9
9
9
9
9
9
9
9
9
9
9
9
9
9
9
9
9
9
9
9
9
9
9
9
9
9
9
9
9
9
9
9
9
9
9
9
9
9
9
9
9
9
9
9
9
9
9
9
9
9
9
9
9
9
9
9
9
9
9
9
9
9
9
9
9
9
9
9
9
9
9
9
9
9
9
9
9
9
9
9
9
9
9
9
9
9
9
9
9
9
9
9
9
9
9
9
9
9
9
9
9
9
9
9
9
9
9
9
9
9
9
9
9
9
9
9
9
9
9
9
9
9
9
9
9
9
9
9
9
9
9
9
9
9
9
9
9
9
9
9
9
9
9
9
9
9
9
9
9
9
9
9
9
9
9
9
9
9
9
9
9
9
9
9
9
9
9
9
9
9
9
9
9
9
9
9
9
9
9
9
9
9
9
9
9
9
9
9
9
9
9
9
9
9
9
9
9
9
9
9
9
9
9
9
9
9
9
9
9
9
9
9
9
9
9
9
9
9
9
9
9
9
9
9
9
9
9
9
9
9
9
9
9
9
9
9
9
9
9
9
9
9
9
9
9
9
9
9
9
9
9
9
9
9
9
9
9
9
9
9
9
9
9
9
9
9
9
9
9
9
9
9
9
9
9
9
9
9
9
9
9
9
9
9
9
9
9
9
9
9
9
9
9
9
9
9
9
9
9
9
9
9
9
9
9
9
9
9
9
9
9
9
9
9
9
9
9
9
9
9
9
9
9
9
9
9
9
9
9
9
9
9
9
9
9
9
9
9
9
9
9
9
9
9
9
9
9
9
9
9
9
9
9
9
9
9
9
9
9
9
9
9
9
9
9
9
9
9
9
9
9
9
9
9
9
9
9
9
9
9
9
9
9
9
9
9
9
9
9
9
9
9
9
9
9
9
9
9
9
9
9
9
9
9
9
9
9
9
9
9
9
9
9
9
9
9
9
9
9
9
9
9
9
9
9
9
9
9
9
9
9
9
9
9
9
9
9
9
9
9
9
9
9
9
9
9
9
9
9
9
9
9
9
9
9
9
9
9
9
9
9
9
9
9
9
9
9
9
9
9
9
9
9
9
9
9
9
9
9
9
9
9
9
9
9
9
9
9
9
9
9
9
9
9
9
9
9
9
9
9
9
9
9
9
9
9
9
9
9
9
9
9
9
9
9
9
9
9
9
9
9
9
9
9
9
9
9
9
9
9
9
9
9
9
9
9
9
9
9
9
9
9
9
9
9
9
9
9
9
9
9
9
9
9
9
9
9
9
9
9
9
9
9
9
9
9
9
9
9
9
9
9
9
9
9
9
9
9
9
9
9
9
9
9
9
9
9
9
9
9
9
9
9
9
9
9
9
9
9
9
9
9
9
9
9
9
9
9
9
9
9
9
9
9
9
9
9
9
9
9
9
9
9
9
9
9
9
9
9
9
9
9
9
9
9
9
9
9
9
9
9
9
9
9
9
9
9
9
9
9
9
9
9
9
9
9
9
9
9
9
9
9
9
9
9
9
9
9
9
9
9
9
9
9
9
9
9
9
9
9
9
9
9
9
9
9
9
9
9
9
9
9
9
9
9
9
9
9
9
9
9
9
9
9
9
9
9
9
9
9
9
9
9
9
9
9
9
9
9
9
9
9
9
9
9
9
9
9
9
9
9
9
9
9
9
9
9
9
9
9
9
9
9
9
9
9
9
9
9
9
9
9
9
9
9
9
9
9
9
9
9
9
9
9
9
9
9
9
9
9
9
9
9
9
9
9
9
9
9
9
9
9
9
POINT_DATA 861
SCALARS Disp float 2
LOOKUP_TABLE default
0.0 0.0
0.006489264174474909 -0.32428159611804075
0.008001088141555104 -0.6383858018069484
0.008826034233985081 -0.9512472606093842
0.009948022837990197 -1.2636754312289071
0.01190949850043885 -1.5751431803389535
0.015530298647640507 -1.8849379912820468
0.021838141915624488 -2.1921599709569892
0.0320473467197874 -2.495672364987224
0.04747535411556742 -2.793969011799336
0.06941886250652601 -3.085004242972354
0.09906713723389829 -3.3661204172977346
0.1374633561955026 -3.6341140260931226
0.18549199925773657 -3.8853843996503383
0.24386502967596926 -4.116033865551159
0.3130472094045212 -4.321959166990644
0.393133725841828 -4.498977044106862
0.48371474074353477 -4.64301753539878
0.5837704501986561 -4.750406885889814
0.6916408165897052 -4.818127138357454
0.8047128790465436 -4.8441915118442385
0.9177849415033763 -4.818127138357301
1.0256553078944017 -4.750406885889502
1.125711017349484 -4.643017535398329
1.2162920322511406 -4.498977044106297
1.2963785486883919 -4.32195916699
1.3655607284168878 -4.116033865550452
1.4239337588350642 -3.8853843996495896
1.4719624018972421 -3.6341140260923557
1.5103586208587931 -3.3661204172969743
1.5400068955861186 -3.0850042429716207
1.5619504039770378 -2.7939690117986467
1.5773784113727871 -2.4956723649865884
1.587587616176928 -2.1921599709564163
1.593895459444897 -1.8849379912815434
1.5975162595920893 -1.5751431803385278
1.599477735254534 -1.2636754312285592
1.6005997238585379 -0.9512472606091187
1.6014246699509673 -0.6383858018067633
1.602936493918046 -0.3242815961179399
1.6094257580925173 0.0
0.08088384248760372 -0.0026552108635423143
0.08549315584563666 -0.32461558917923355
0.08626728350818758 -0.6384513854484177
0.08699162468640648 -0.9513436128916176
0.08796349831079846 -1.263853497484321
0.08961596328255328 -1.5755648472307044
0.09272047980830063 -1.8858339343728707
0.09824690436195303 -2.1938066021329417
0.1073324529807679 -2.498378430246924
0.12117651507979267 -2.798047843228944
0.14093511400507291 -3.090749575185021
0.16765564916263512 -3.373794573674596
0.20226369874223926 -3.6439454244355494
0.245561310410253 -3.897565113690731
0.2981967614816763 -4.130709877267434
0.3606044448942855 -4.339206794971528
0.4328990633734316 -4.518771044213842
0.5147549381387244 -4.665200628330471
0.6052924810216865 -4.774664917242778
0.7028944496839526 -4.843956049687382
0.8047128790465249 -4.8706750490762305
0.906531308409091 -4.8439560496872245
1.0041332770713358 -4.7746649172424585
1.094670819954263 -4.66520062833001
1.1765266947195123 -4.518771044213264
1.2488213131986092 -4.33920679497087
1.3112289966111677 -4.130709877266714
1.36386444768254 -3.897565113689969
1.4071620593505034 -3.6439454244347695
1.4417701089300599 -3.373794573673824
1.4684906440875798 -3.0907495751842777
1.4882492430128242 -2.798047843228247
1.5020933051118215 -2.4983784302462824
1.5111788537306161 -2.1938066021323652
1.516705278284255 -1.8858339343723647
1.5198097948099942 -1.5755648472302772
1.5214622597817458 -1.2638534974839726
1.5224341334061369 -0.9513436128913519
1.5231584745843554 -0.6384513854482328
1.5239326022469062 -0.3246155891791323
1.5285419156049334 -0.0026552108635397244
0.1606984970421933 -0.004781832233343366
0.16411479168139217 -0.32478500514601855
0.16455288615228053 -0.6384814855235933
0.16514083720821998 -0.9514275166299114
0.16597485845877416 -1.263992527695138
0.16734932443029082 -1.5758987843432373
0.16995199787586862 -1.8865795969745025
0.17469974588111953 -2.195225601299407
0.1826401269721179 -2.5007559226150393
0.19485797925688075 -2.8016654995132257
0.21237610907311355 -3.0958664804372154
0.23611070666332012 -3.3806408153882934
0.26687114750472024 -3.652723804476773
0.30536675733579194 -3.908449546757416
0.35218701602320734 -4.143834410656893
0.4077409870654037 -4.354646660821957
0.47217676330136865 -4.536515601664727
0.5452668309247134 -4.685121771730024
0.6262463132159719 -4.796478395077009
0.7135552381860506 -4.867139565076889
0.8047128790465067 -4.89443907632146
0.8958705199069567 -4.867139565076728
0.9831794448770161 -4.796478395076682
1.0641589271682437 -4.685121771729554
1.1372489947915503 -4.536515601664139
1.2016847710274723 -4.354646660821288
1.2572387420696234 -4.143834410656161
1.304059000756993 -3.9084495467566422
1.34255461058802 -3.6527238044759818
1.3733150514293782 -3.380640815387511
1.3970496490195468 -3.0958664804364626
1.414567778835748 -2.8016654995125214
1.4267856311204863 -2.500755922614392
1.4347260122114662 -2.195225601298827
1.4394737602167051 -1.886579596973994
1.4420764336622764 -1.575898784342809
1.4434508996337903 -1.2639925276947894
1.4442849208843438 -0.9514275166296458
1.4448728719402832 -0.6384814855234083
1.4453109664111718 -0.3247850051459169
1.4487272610503648 -0.004781832233337864
0.23994427490528406 -0.00650016589303294
0.24255018685518667 -0.3249002194913694
0.24281534955541192 -0.6384974302849028
0.24327397300278095 -0.9514936889551429
0.24397776468140064 -1.2641022200292202
0.24510673254719975 -1.5761546457165072
0.24723639023462907 -1.8871799315550242
0.25121534393188577 -2.196417489881315
0.25800277792143544 -2.5027997766647796
0.2685703132245728 -2.8048131271090124
0.2838130585926206 -3.100344042726249
0.30452045537293887 -3.3866479145774964
0.331389745417454 -3.6604370613301196
0.3650367920670409 -3.9180229768870984
0.40598378708020205 -4.155391135067544
0.454621554874288 -4.368262783023642
0.5111356701404194 -4.552197166221655
0.5753931072480568 -4.702770009266606
0.6467584746829376 -4.8158360747657465
0.7238951354824315 -4.887741382070078
0.8047128790464887 -4.915626561708792
0.8855306226105406 -4.887741382069914
0.9626672834100171 -4.815836074765415
1.034032650844871 -4.7027700092661275
1.0982900879524746 -4.552197166221058
1.1548042032185688 -4.368262783022963
1.2034419710126147 -4.155391135066801
1.244388966025736 -3.9180229768863146
1.2780360126752837 -3.660437061329319
1.304905302719762 -3.386647914576705
1.3256126995000472 -3.1003440427254882
1.3408554448680674 -2.804813127108302
1.3514229801711832 -2.502799776664128
1.3582104141607168 -2.196417489880731
1.362189367857963 -1.8871799315545137
1.364319025545387 -1.5761546457160782
1.365447993411184 -1.2641022200288716
1.3661517850898033 -0.951493688954877
1.3666104085371726 -0.6384974302847181
1.3668755712373977 -0.3249002194912674
1.369481483187295 -0.0065001658930247605
0.31886736248234293 -0.007895140293749115
0.3208616378376953 -0.32498877977428975
0.3210337602070231 -0.6385064418209333
0.321384637832856 -0.9515443961459045
0.32196814093263604 -1.2641885857673536
0.32288096072044303 -1.5763459774090014
0.32458188021369805 -1.8876442488870635
0.327810977315663 -2.1973854442655996
0.33345311018741547 -2.5045094790015496
0.34236364321046087 -2.8074867470697744
0.3553149831049308 -3.104176534224613
0.372973845398792 -3.3918088055347253
0.39592486452651565 -3.667077396261911
0.4246929510986543 -3.926276826152296
0.45973688313823674 -4.165369422308115
0.5014161615486648 -4.380042349921695
0.5499470468008418 -4.565800355328228
0.6052954406075054 -4.718128263151654
0.6670082791576405 -4.832741481597359
0.7340434467246146 -4.905809803774846
0.8047128790464713 -4.934313523760026
0.8753823113683226 -4.90580980377468
0.9424174789352812 -4.832741481597022
1.0041303174853928 -4.718128263151168
1.0594787112920279 -4.565800355327624
1.1080095965441723 -4.3800423499210055
1.1496888749545657 -4.165369422307363
1.1847328069941143 -3.9262768261515033
1.2135008935662193 -3.6670773962611025
1.236451912693911 -3.3918088055339255
1.2541107749877445 -3.1041765342238454
1.267062114882191 -2.807486747069058
1.2759726479052178 -2.5045094790008933
1.2816147807769562 -2.1973854442650125
1.2848438778789126 -1.8876442488865512
1.2865447973721635 -1.576345977408572
1.287457617159969 -1.2641885857670043
1.2880411202597488 -0.9515443961456388
1.2883919978855818 -0.6385064418207486
1.2885641202549096 -0.3249887797741874
1.2905583956102573 -0.0078951402937386
0.3975784096614608 -0.0090210868509595
0.39908733483045683 -0.3250597043388978
0.39920592920563464 -0.6385131902465602
0.3994689785462688 -0.9515820113420471
0.3999396130187077 -1.264256647721399
0.40066593888452773 -1.5764859211792723
0.4019826516196994 -1.8879874582996137
0.4045101385594914 -2.198136682365978
0.4090237368857265 -2.5058884124949636
0.41628764241529853 -2.8096873284853916
0.42695012295458884 -3.1073630129234013
0.4415574557916979 -3.3961215294147
0.4605842473977548 -3.6726418166950623
0.48446361470010946 -3.9332073689961944
0.5135890851527576 -4.173765001744725
0.5482914139118681 -4.389977257809397
0.5887961631315303 -4.577310044187529
0.6351629322077519 -4.731180174918868
0.6871629126219647 -4.847193043334527
0.7441024105153203 -4.9213700971483005
0.8047128790464536 -4.950545148040663
0.8653233475775823 -4.921370097148132
0.9222628454709244 -4.847193043334186
0.974262825885117 -4.731180174918376
1.0206295949613147 -4.577310044186918
1.0611343441809493 -4.3899772578087
1.0958366729400308 -4.173765001743966
1.1249621433926504 -3.9332073689953937
1.148841510694977 -3.6726418166942465
1.167868302301008 -3.396121529413894
1.1824756351380938 -3.1073630129226286
1.1931381156773648 -2.80968732848467
1.200402021206921 -2.5058884124943037
1.204915619533145 -2.1981366823653885
1.20744310647293 -1.8879874582991003
1.2087598192080986 -1.5764859211788422
1.2094861450739178 -1.2642566477210497
1.2099567795463566 -0.9515820113417814
1.2102198288869908 -0.6385131902463755
1.2103384232621686 -0.32505970433879516
1.2118473484311607 -0.009021086850946925
0.476134325143133 -0.009919489952531297
0.4772529974973265 -0.3251167200783815
0.47733762611069125 -0.6385200014112543
0.47752675386159527 -0.9516081917414098
0.47788878784715383 -1.2643097657798377
0.4784526754024541 -1.5765866027762194
0.47943047048327264 -1.8882280118768204
0.48131433545584684 -2.198687198079715
0.4847498763663762 -2.50694460600363
0.49039245927549446 -2.8114204866876924
0.49878704595671675 -3.1099077602723675
0.5103595437672286 -3.39958930890075
0.5254752827360816 -3.6771328239866894
0.5444765562211711 -3.938816422747684
0.5676919101014223 -4.180578362383362
0.5954145959227027 -4.3980651109749385
0.6278723049263552 -4.586716408922134
0.66520180171974 -4.741908823944841
0.7074006178652072 -4.859177510429118
0.7541717567852221 -4.934425046449126
0.8047128790464356 -4.964341600456108
0.8552540013076457 -4.934425046448955
0.902025140227649 -4.859177510428774
0.9442239563730995 -4.741908823944344
0.9815534531664648 -4.586716408921517
1.014011162170095 -4.398065110974236
1.041733847991352 -4.1805783623825965
1.0649492018715798 -3.9388164227468776
1.0839504753566478 -3.6771328239858674
1.0990662143254801 -3.3995893088999387
1.1106387121359735 -3.1099077602715903
1.1190332988171803 -2.8114204866869668
1.1246758817262865 -2.5069446060029668
1.128111422636807 -2.1986871980791234
1.129995287609376 -1.8882280118763064
1.1309730826901923 -1.576586602775789
1.131536970245492 -1.2643097657794882
1.1318990042310506 -0.9516081917411442
1.1320881319819545 -0.6385200014110695
1.1321727605953191 -0.32511672007827874
1.1332914329495098 -0.009919489952517036
0.5545723903709869 -0.010624009467943124
0.5553776580096117 -0.32516259349352056
0.5554372211937842 -0.6385273510534595
0.5555601603625566 -0.9516241780630376
0.5558153911705591 -1.2643491967970752
0.5562308371602476 -1.5766580121554363
0.5569193870393329 -1.8883853816755911
0.5582224986351029 -2.1990591528268846
0.5606512656396219 -2.5076953479047397
0.5647305494512896 -2.81269756093528
0.5708961902712578 -3.1118202495429443
0.5794680547172966 -3.402220959237475
0.5907077459074849 -3.680558985236407
0.6048636785362239 -3.9431116581281342
0.6221939373871077 -4.185815896901471
0.6429569699694327 -4.4043097668159845
0.6673756875506249 -4.594016676994858
0.6956298812544626 -4.7502986410165695
0.7279166565267049 -4.868668729702051
0.7643630067934128 -4.944952991018797
0.8047128790464173 -4.9756981392630415
0.845062751299419 -4.944952991018624
0.881509101566118 -4.868668729701703
0.9137958768383478 -4.750298641016069
0.94205007054217 -4.594016676994236
0.9664687881233447 -4.404309766815277
0.9872318207056517 -4.1858158969007
1.0045620795565187 -3.9431116581273224
1.0187180121852422 -3.6805589852355807
1.0299577033754155 -3.4022209592366597
1.0385295678214401 -3.111820249542163
1.044695208641397 -2.8126975609345517
1.048774492453056 -2.5076953479040744
1.0512032594575684 -2.199059152826292
1.052506371053335 -1.888385381675076
1.0531949209324192 -1.576658012155006
1.053610366922107 -1.264349196796726
1.0538655977301097 -0.9516241780627719
1.053988536898882 -0.6385273510532745
1.0540481000830544 -0.3251625934934177
1.054853367721677 -0.010624009467927473
0.6329160573411862 -0.011165875148260186
0.6334785738089574 -0.3251998776066841
0.6335124029355442 -0.638534393791071
0.6335728241522135 -0.9516309026233195
0.6337229101622049 -1.2643745969449496
0.6339932428711942 -1.5767065222875185
0.6344326992914557 -1.8884806625825705
0.6352310388063619 -2.199280638331913
0.6367390935191071 -2.5081674987656783
0.6393411782491135 -2.8135398135444993
0.6433481849574968 -3.113117016984634
0.6489771721256389 -3.4040319646800548
0.6563939091972861 -3.6829357708641113
0.665758439900914 -3.9461079820406426
0.6772526347484136 -4.189490202239514
0.6910896057331496 -4.408721762323969
0.7074972002324161 -4.5992184854640294
0.7266882797860719 -4.756340486354543
0.7489514505357611 -4.875629086732196
0.7748177159086619 -4.952904039372933
0.8047128790463985 -4.984581803026466
0.834608042184133 -4.952904039372759
0.8604743075570284 -4.875629086731846
0.8827374783067083 -4.7563404863540395
0.901928557860353 -4.599218485463404
0.9183361523596072 -4.408721762323258
0.9321731233443319 -4.18949020223874
0.9436673181918205 -3.946107982039828
0.9530318488954388 -3.682935770863282
0.9604485859670763 -3.404031964679236
0.9660775731352095 -3.1131170169838507
0.9700845798435853 -2.813539813543769
0.9726866645735863 -2.508167498765012
0.9741947192863278 -2.1992806383313197
0.9749930588012318 -1.8884806625820554
0.9754325152214928 -1.576706522287088
0.9757028479304817 -1.2643745969446003
0.975852933940473 -0.9516309026230536
0.9759133551571424 -0.6385343937908861
0.9759471842837291 -0.32519987760658114
0.9765097007514989 -0.011165875148243508
0.7111829902479131 -0.011575697836260241
0.7115672113082568 -0.32523168518703793
0.711570516912754 -0.6385392328435786
0.7115688007808432 -0.9516290823625276
0.7116165088832641 -1.264385439224103
0.7117381838779389 -1.5767341454257637
0.7119522408085687 -1.888531653486007
0.7123239704859868 -2.1993871194090375
0.7130167533500085 -2.5084007939474495
0.714252889576778 -2.813982463046761
0.7162017403074389 -3.113827695154902
0.7189741337435093 -3.405048553096272
0.7226418429528639 -3.6842882578280594
0.7272851441727181 -3.947830522179201
0.7330110718383115 -4.191624297538297
0.7399731004808521 -4.411319224937007
0.74839308630303 -4.6023386092168455
0.7585540005208897 -4.760045655459003
0.7707853630819378 -4.880024524019036
0.7857517951453186 -4.958193734967362
0.804712879046379 -4.99091990243693
0.8236739629474384 -4.958193734967187
0.838640395010817 -4.880024524018684
0.8508717575718592 -4.760045655458497
0.8610326717897128 -4.602338609216218
0.8694526576118848 -4.411319224936293
0.87641468625442 -4.19162429753752
0.8821406139200091 -3.947830522178386
0.8867839151398594 -3.6842882578272285
0.8904516243492098 -3.405048553095452
0.8932240177852763 -3.113827695154118
0.895172868515934 -2.8139824630460297
0.8964090047427014 -2.508400793946782
0.8971017876067213 -2.199387119408444
0.8974735172841388 -1.8885316534854915
0.8976875742147683 -1.5767341454253332
0.8978092492094429 -1.2643854392237537
0.8978569573118639 -0.9516290823622616
0.8978552411799531 -0.6385392328433938
0.8978585467844501 -0.325231685186935
0.898242767844793 -0.011575697836242798
0.789391972701649 -0.011880318967762298
0.789649316324103 -0.3252615431653249
0.7896169467038133 -0.6385396801600333
0.7895529510817879 -0.9516191189211656
0.7895007092163211 -1.2643816969013075
0.789473551667216 -1.576740271754494
0.7894624374843143 -1.888547426628045
0.7894578225349724 -2.1994170583943644
0.7894557987910297 -2.508459577132065
0.7894553266388461 -2.8140936158258105
0.7894552469377548 -3.1140134465404956
0.7894522595479239 -3.4053260850855844
0.7894393791471006 -3.6846696598581277
0.7894169486309497 -3.9483306065705763
0.7894137180110304 -4.192266764376055
0.7895249050138557 -4.412144367933538
0.7899592201497925 -4.603411983800589
0.7910843633022849 -4.761457630329278
0.7933866328128142 -4.881881976196705
0.7974138416189013 -4.9607332732109155
0.8047128790463589 -4.994584851016558
0.812011916473817 -4.9607332732107405
0.8160391252799037 -4.881881976196352
0.8183413947904311 -4.761457630328771
0.8194665379429232 -4.603411983799961
0.819900853078861 -4.412144367932823
0.8200120400816869 -4.192266764375279
0.8200088094617697 -3.948330606569761
0.8199863789456208 -3.6846696598572963
0.8199734985447994 -3.405326085084764
0.8199705111549702 -3.114013446539711
0.8199704314538798 -2.8140936158250796
0.8199699593016972 -2.5084595771313976
0.8199679355577547 -2.1994170583937707
0.819963320608413 -1.8885474266275297
0.8199522064255115 -1.5767402717540633
0.8199250488764064 -1.264381696900958
0.8198728070109396 -0.9516191189208996
0.8198088113889143 -0.6385396801598485
0.8197764417686244 -0.325261543165222
0.8200337853910779 -0.011880318967744337
0.867554848584417 -0.012106442900191645
0.867723785636024 -0.3252913945869176
0.867656500007803 -0.6385344634794914
0.8675307471941264 -0.9516011865869437
0.8673811800829917 -1.2643636827407712
0.8672073277194803 -1.5767245887143242
0.8669713570930491 -1.888529084957232
0.8665899902771591 -2.199386087879341
0.8658937643758772 -2.508400403515014
0.8646575918195378 -2.8139824056946314
0.8627085696379427 -3.113827183944841
0.8599284332692717 -3.4050448258843162
0.8562345111745111 -3.6842793299948973
0.8515489566574765 -3.9478214447337003
0.845823447441333 -4.191641006893098
0.8390921090231557 -4.411428678924423
0.831531609908206 -4.602670423899317
0.8235187322368825 -4.760800601089456
0.8156031363635041 -4.881421139761338
0.8085814237645914 -4.960637277940263
0.8047128790463383 -4.995653850007077
0.8008443343280841 -4.960637277940087
0.7938226217291724 -4.881421139760986
0.7859070258557985 -4.76080060108895
0.7778941481844821 -4.60267042389869
0.7703336490695409 -4.41142867892371
0.7636023106513706 -4.191641006892324
0.7578768014352345 -3.947821444732886
0.753191246918208 -3.6842793299940673
0.7494973248234553 -3.405044825883497
0.7467171884547916 -3.1138271839440574
0.7447681662732023 -2.813982405693901
0.7435319937168666 -2.5084004035143472
0.7428357678155869 -2.199386087878747
0.7424544009996981 -1.888529084956717
0.7422184303732673 -1.5767245887138934
0.742044578009756 -1.2643636827404217
0.7418950108986216 -0.9516011865866778
0.741769258084945 -0.6385344634793066
0.741701972456724 -0.3252913945868148
0.7418709095083307 -0.012106442900173351
0.9456815107140125 -0.012277043538199613
0.9457914272634135 -0.3253202551132738
0.94569309036357 -0.638523740703644
0.9455079356861159 -0.951575397873628
0.9452644366731023 -1.2643319917763014
0.9449474927702476 -1.576687463868131
0.9444857413151856 -1.8884750629498894
0.9436791294687137 -2.199278281586687
0.9421701383263009 -2.5081669106499036
0.9395692707363886 -2.8135398240973704
0.9355611968113197 -3.1131155107738793
0.9299239052235398 -3.4040241533472484
0.922484851031043 -3.6829181912371065
0.913087957578191 -3.9460913499544112
0.9016073595489642 -4.189527168359976
0.8880077104290178 -4.408946087619483
0.8724281330174116 -4.59988136525528
0.8552372155872011 -4.757822453544381
0.8371015588543341 -4.878433419096235
0.8193497990314863 -4.9580292140314715
0.8047128790463185 -4.994308734852634
0.7900759590611505 -4.958029214031296
0.7723241992383056 -4.878433419095885
0.7541885425054471 -4.757822453543875
0.7369976250752496 -4.599881365254657
0.7214180476636581 -4.408946087618772
0.707818398543725 -4.189527168359203
0.6963378005145117 -3.946091349953599
0.6869409070616733 -3.682918191236279
0.6795018528691901 -3.4040241533464313
0.6738645612814232 -3.113115510773098
0.6698564873563643 -2.8135398240966407
0.6672556197664591 -2.508166910649238
0.6657466286240507 -2.1992782815860936
0.6649400167775811 -1.888475062949374
0.6644782653225203 -1.5766874638677
0.6641613214196658 -1.2643319917759521
0.6639178224066525 -0.9515753978733622
0.6637326677291984 -0.6385237407034592
0.6636343308293551 -0.32532025511317103
0.663744247378756 -0.012277043538181098
1.0237891447268817 -0.012404259699585167
1.0238566472225699 -0.3253464163733697
1.0237313040246379 -0.6385081866288743
1.0234901825787708 -0.9515420597371078
1.023156537492931 -1.2642874553492962
1.0227008118074479 -1.5766293594258807
1.0219918408829871 -1.8883760718876348
1.0206842722285534 -2.1990560649853914
1.0182579344028444 -2.50769511925595
1.014179777102063 -2.8126975082318775
1.0080117251241127 -3.1118174804364753
0.9994329350825693 -3.4022098096428346
0.9881813314521016 -3.680535584388176
0.974014881852002 -3.943091875674126
0.9567188696638919 -4.185875632405463
0.9361736416903996 -4.404640962436507
0.912455234768625 -4.594977429154923
0.8859558155762007 -4.752452861333709
0.8576000343659665 -4.872871655925783
0.8292404481460308 -4.952812683617227
0.8047128790462992 -4.99063429493361
0.7801853099465688 -4.9528126836170525
0.7518257237266387 -4.872871655925435
0.7234699425164157 -4.752452861333207
0.6969705233240097 -4.594977429154304
0.6732521164022551 -4.4046409624358
0.6527068884287826 -4.185875632404694
0.635410876240692 -3.943091875673318
0.6212444266406119 -3.680535584387353
0.6099928230101632 -3.4022098096420215
0.6014140329686374 -3.111817480435697
0.5952459809907018 -2.812697508231151
0.5911678236899313 -2.507695119255286
0.5887414858642289 -2.1990560649847986
0.587433917209799 -1.8883760718871199
0.5867249462853401 -1.57662935942545
0.5862692205998575 -1.264287455348947
0.585935575514018 -0.951542059736842
0.5856944540681511 -0.6385081866286896
0.5855691108702193 -0.3253464163732671
0.5856366133659076 -0.012404259699566463
1.101892859572728 -0.012495101520960016
1.1019254738684272 -0.3253683892860541
1.101775587212452 -0.6384882941254902
1.1014822671085123 -0.9515017294747052
1.1010629370536626 -1.264231137261033
1.1004676107750797 -1.5765483282063106
1.0994740688423454 -1.8882153680074028
1.0975917998198703 -2.198684682047153
1.0941599710618064 -2.5069449465115317
1.088517365788882 -2.8114200212312874
1.0801191784323667 -3.1099036504582345
1.0685432464772493 -3.399576530150125
1.0534319425415737 -3.6771088155350777
1.034453302972073 -3.938801048219262
1.011299994579335 -4.1806623274200465
0.983753694963712 -4.39848191653097
0.95182160870076 -4.58791996120622
0.9159654314325518 -4.744668091414901
0.8774248573755826 -4.864738880742734
0.8387635664130846 -4.945087183445661
0.8047128790462802 -4.984746193352126
0.7706621916794788 -4.945087183445488
0.732000900716989 -4.8647388807423875
0.6934603266600347 -4.744668091414404
0.6576041493918486 -4.587919961205606
0.6256720631289217 -4.398481916530269
0.5981257635133246 -4.180662327419284
0.5749724551206119 -3.93880104821846
0.5559938155511367 -3.67710881553426
0.5408825116154856 -3.399576530149317
0.5293065796603909 -3.109903650457461
0.520908392303894 -2.811420021230564
0.515265787030984 -2.50694494651087
0.5118339582729295 -2.198684682046561
0.50995168925046 -1.888215368006888
0.5089581473177285 -1.5765483282058799
0.5083628210391464 -1.2642311372606838
0.5079434909842971 -0.9515017294744393
0.5076501708803576 -0.6384882941253054
0.5075002842243825 -0.3253683892859515
0.5075328985200817 -0.012495101520941184
1.1800017587355232 -0.01255579464627922
1.1800044877247313 -0.32538486297379315
1.1798311355687578 -0.6384643266135622
1.1794893805278268 -0.9514551657057049
1.1789892126178114 -1.2641640352055785
1.178243947563762 -1.5764392452495994
1.1769203861701396 -1.8879732058979695
1.1743970384975293 -2.19813553256034
1.1698868062445626 -2.5058891271712063
1.1626213339059206 -2.8096860809982287
1.1519549526432074 -3.107357789097497
1.137349647474319 -3.3961095928267557
1.1183470440899315 -3.672624075833449
1.0945290255955926 -3.933206293123075
1.0654997178812038 -4.1738748387209395
1.030939451751378 -4.390454639714815
0.990798610678881 -4.578697313949041
0.945623798598074 -4.734467943160488
0.8970220125268985 -4.854070614189594
0.8482302941787883 -4.934910654608537
0.8047128790462615 -4.976664998820369
0.7611954639137385 -4.934910654608364
0.71240374556564 -4.854070614189251
0.6638019594944833 -4.734467943159996
0.6186271474137025 -4.578697313948433
0.5784863063412354 -4.390454639714122
0.543926040211441 -4.173874838720183
0.5148967324970832 -3.9332062931222795
0.4910787140027753 -3.6726240758326383
0.47207611061841814 -3.396109592825954
0.4574708054495571 -3.107357789096729
0.4468044241868666 -2.80968608099751
0.43953895184824204 -2.5058891271705472
0.4350287195952876 -2.1981355325597502
0.43250537192268496 -1.8879732058974559
0.4311818105290661 -1.5764392452491693
0.43043654547501814 -1.2641640352052292
0.429936377565003 -0.9514551657054391
0.4295946225240722 -0.6384643266133774
0.42942127036809874 -0.3253848629736905
0.4294239993573071 -0.01255579464626032
1.2581219351657593 -0.012592255803433764
1.258099491178853 -0.3253949922997513
1.2579036011491087 -0.6384363481153462
1.2575164096601747 -0.9514032178653912
1.2569370788316123 -1.2640857935323226
1.2560223127740713 -1.5762934992621636
1.2543229225231942 -1.8876301284126753
1.2510985296395163 -2.197385572703724
1.245457749700174 -2.5045101859606063
1.2365442612437327 -2.807484471135888
1.2235900016006773 -3.104170822500038
1.2059405393543263 -3.3918006593526164
1.1830333139353868 -3.667073053521342
1.1543624841905573 -3.9263006146139126
1.119456852924174 -4.1655103583515185
1.077926079578449 -4.3805638259795145
1.0296637815674408 -4.567321717683807
0.9752937088657884 -4.721875009318669
0.9167524064642615 -4.84089466769951
0.8578490489254949 -4.9222868423931345
0.804712879046243 -4.966354951076505
0.7515767091669963 -4.922286842392965
0.692673351628244 -4.840894667699172
0.6341320492267396 -4.7218750093181825
0.5797619765251181 -4.567321717683207
0.5314996785141443 -4.38056382597883
0.48996890516845637 -4.165510358350771
0.4550632739021096 -3.9263006146131256
0.4263924441573171 -3.66707305352054
0.40348521873841287 -3.391800659351822
0.3858357564920938 -3.104170822499277
0.3728814968490653 -2.807484471135175
0.3639680083926446 -2.5045101859599512
0.35832722845331744 -2.1973855727031375
0.355102835569649 -1.887630128412163
0.35340344531877677 -1.576293499261734
0.3524886792612375 -1.2640857935319736
0.3519093484326755 -0.9514032178651255
0.35152215694374184 -0.6384363481151614
0.35132626691399765 -0.3253949922996487
0.3513038229270913 -0.012592255803414816
1.3362573142452265 -0.012610319338636614
1.3362153078656114 -0.3253984786896185
1.3359987603093775 -0.6384043822278584
1.3355682909820061 -0.9513465642241609
1.3349076891459115 -1.263994904642002
1.3337960516881138 -1.5761003479861908
1.33167327737032 -1.8871668478074772
1.3276968139964258 -2.196418255360823
1.320908014807539 -2.5027999861404697
1.310336495824113 -2.804809798324339
1.2950933693039286 -3.1003389171458826
1.2744039951146808 -3.38664664742501
1.2475951250978048 -3.660452120526587
1.2140727760502155 -3.918081202752434
1.1733114646461906 -4.155574590246918
1.1248894736105937 -4.36883140853554
1.0686796785752497 -4.553830213988727
1.0053225190494623 -4.706926333182038
0.936948204738825 -4.825219619871087
0.867810187421273 -4.907173270510523
0.8047128790462246 -4.95373467256606
0.7416155706711824 -4.907173270510356
0.672477553353647 -4.8252196198707535
0.6041032390430363 -4.706926333181558
0.5407460795172843 -4.553830213988135
0.4845362844819805 -4.368831408534865
0.4361142934464253 -4.155574590246179
0.39535298204244307 -3.9180812027516567
0.3618306329948958 -3.6604521205257945
0.3350217629780606 -3.386646647424224
0.3143323887888492 -3.1003389171451285
0.2990892622686956 -2.804809798323632
0.28851774328529367 -2.502799986139819
0.28172894409642446 -2.1964182553602396
0.27775248072254155 -1.8871668478069668
0.2756297064047543 -1.5761003479857618
0.2745180689469586 -1.2639949046416532
0.27385746711086456 -0.9513465642238952
0.2734269977834936 -0.6384043822276736
0.2732104502272599 -0.32539847868951594
0.27316844384764477 -0.012610319338617618
1.414409675551284 -0.012615866834049081
1.414355678730109 -0.3253956478237508
1.414122848014986 -0.6383685913776156
1.4136505386809808 -0.9512857098771368
1.4128995393483257 -1.2638875259950295
1.411557817462349 -1.5758465421204237
1.4089638219659775 -1.886567303867337
1.4042150287800634 -2.1952261104578312
1.396270178611352 -2.5007551297048503
1.3840480409902483 -2.8016613622589235
1.3665333540806772 -3.0958633764616232
1.3428256330629063 -3.380649320099472
1.3121384360103452 -3.652762617845114
1.2737864075857719 -3.9085497813515198
1.2271981029635137 -4.1440769997037155
1.1719807996923841 -4.355291395270144
1.108059281081915 -4.538285851034758
1.0360372130189779 -4.689676192659039
0.9579599597257935 -4.807039299514306
0.8783554974639906 -4.889482342927703
0.804712879046206 -4.93866766177447
0.7310702606284285 -4.889482342927538
0.651465798366645 -4.807039299513979
0.5733885450734911 -4.689676192658569
0.5013664770105944 -4.538285851034177
0.43744495840017106 -4.35529139526948
0.38222765512908846 -4.144076999702987
0.3356393505068781 -3.9085497813507533
0.2972873220823528 -3.6527626178443318
0.26660012502983743 -3.380649320098696
0.24289240401210768 -3.095863376460878
0.22537771710257096 -2.8016613622582236
0.2131555794814942 -2.500755129704205
0.20521072931280307 -2.1952261104572517
0.20046193612690252 -1.8865673038668285
0.1978679406305384 -1.5758465421199956
0.19652621874456463 -1.2638875259946807
0.19577521941191048 -0.9512857098768713
0.1953029100779058 -0.6383685913774307
0.19507007936278276 -0.32539564782364816
0.1950160825416078 -0.012615866834030084
1.4925780415974796 -0.012614852106445647
1.492523177386682 -0.3253876517223718
1.492283214291346 -0.6383296014581826
1.4917685051245422 -0.9512200262569971
1.4909083492008728 -1.2637576046479022
1.489298694674471 -1.5755169058497729
1.4862020563380183 -1.8858216647974062
1.4806698306325947 -2.1938058072631503
1.471577190914707 -2.498376245489221
1.457729340798433 -2.7980433771151407
1.4379785627452073 -3.09075007805761
1.4112930928384064 -3.3738153564255975
1.376768213884495 -3.644011042956392
1.333628738052168 -3.897713294125108
1.2812701985096018 -4.131030557370635
1.2193451054264515 -4.3399776158022
1.1479126627989982 -4.520763684750292
1.0676507108185398 -4.670223689891146
0.9803008853601992 -4.786360684183424
0.8898704926855305 -4.869064170531206
0.8047128790461875 -4.9209327833500405
0.719555265406852 -4.869064170531044
0.6291248727322051 -4.786360684183103
0.5417750472738992 -4.670223689890685
0.46151309529348716 -4.520763684749721
0.39008065266608577 -4.339977615801548
0.32815555958298737 -4.13103055736992
0.275797020040474 -3.8977132941243537
0.23265754420820092 -3.6440110429556225
0.1981326652543405 -3.3738153564248323
0.17144719534758515 -3.0907500780568746
0.1516964172943969 -2.798043377114449
0.13784856717815352 -2.498376245488582
0.12875592746028824 -2.193805807262575
0.12322370175487989 -1.8858216647969004
0.1201270634184358 -1.575516905849346
0.11851740889203807 -1.2637576046475538
0.11765725296836944 -0.9512200262567317
0.117142543801566 -0.6383296014579978
0.11690258070623023 -0.3253876517222691
0.11684771649543274 -0.012614852106426665
1.570757337325036 -0.012613112177389951
1.5707190549760583 -0.32537704786719673
1.5704897346820372 -0.6382887471616561
1.5699263560717691 -0.9511465935223962
1.5689277186456827 -1.263595142189875
1.5670158334038278 -1.575100580710662
1.5633978675756388 -1.8849243764855772
1.5570797343930518 -2.192157007470306
1.5468618786509682 -2.4956685944076265
1.5314310814403422 -2.793964807185716
1.5094995424681006 -3.085009854200107
1.4798933266292036 -3.3661555935152907
1.4415891763496667 -3.6342089959035326
1.3937346456405961 -3.8855863748303903
1.3356888330810428 -4.116452938606413
1.2671438318536867 -4.322914931956922
1.1883087292136674 -4.501320094485533
1.1001069875110574 -4.648697397000287
1.0043063272092356 -4.7633440448091315
0.9037326151227228 -4.845728647181557
0.8047128790461683 -4.899999999999991
0.7056931429696219 -4.845728647181399
0.605119430883133 -4.763344044808818
0.5093187705813513 -4.648697396999836
0.42111702887879376 -4.501320094484975
0.3422819262388324 -4.322914931956284
0.27373692501153335 -4.116452938605712
0.21569111245203845 -3.8855863748296486
0.16783658174302762 -3.634208995902777
0.12953243146354654 -3.3661555935145384
0.09992621562470008 -3.0850098541993822
0.07799467665249898 -2.7939648071850334
0.062563879441906 -2.4956685944069945
0.0523460236998476 -2.1921570074697354
0.04602789051727736 -1.8849243764850745
0.042409924689098384 -1.5751005807102365
0.04049803944724832 -1.263595142189527
0.03949940202116329 -0.9511465935221309
0.038936023410895325 -0.6382887471614713
0.03870670311687459 -0.3253770478670941
0.038668420767896984 -0.012613112177371008
SCALARS Stress float 6
LOOKUP_TABLE default
-1342.1962223479443 -2150.9931236291836 -1671.28475364087 -32.38369920197314 0.0 0.0
1416.9275883760438 839.0584463520694 1074.7287477796601 -18.72191984239209 0.0 0.0
657.1913314811748 192.62326059360737 282.7484877727852 -43.20156144068569 0.0 0.0
517.3031929813053 40.62912256050998 177.1404585634553 -0.12435751451176014 0.0 0.0
653.6074811607488 97.95077521708559 285.27563308739957 3.7330340837202005 0.0 0.0
790.7535336562997 160.3259472783106 429.5084413417133 1.5800562789758104 0.0 0.0
935.3119381449245 228.54472812030588 561.830014105899 0.04396948813980561 0.0 0.0
1086.4068694188516 315.4247909064659 688.1675050053286 -1.5187550517772894 0.0 0.0
1249.6029143190103 419.93217843160545 823.3962337132009 -3.4430666970037263 0.0 0.0
1433.2000835015224 549.7355895106527 980.1045456596024 -5.5442461779695975 0.0 0.0
1642.9850389329022 710.3228338157776 1164.8955128725538 -7.443866467044445 0.0 0.0
1878.2656865102992 901.2297546675545 1377.531230124413 -8.819076726084125 0.0 0.0
2132.623813512158 1114.8538063801411 1611.069432872771 -9.662781876976759 0.0 0.0
2397.724495287233 1342.6506522798998 1857.1005757582125 -10.295316373188506 0.0 0.0
2663.0396820665924 1573.9078722516342 2105.000206043309 -10.66498179877903 0.0 0.0
2916.1663154567614 1796.235012589622 2342.39387119399 -10.648364952444101 0.0 0.0
3144.002397833469 1996.838512990697 2556.365641164189 -10.083911450644589 0.0 0.0
3334.11128141485 2163.6922872351397 2734.6844959178416 -8.997811702815095 0.0 0.0
3487.3236352767794 2298.070217903132 2878.246785853978 -8.054951606992429 0.0 0.0
3587.8539616631997 2384.972288404762 2971.6351302209673 -11.43989966030772 0.0 0.0
3580.5979445424186 2377.4392521863956 2964.3547143551386 2.1081802970002173e-11 0.0 0.0
3587.853961666665 2384.9722884083285 2971.6351302234207 11.439899660260211 0.0 0.0
3487.3236352755766 2298.0702179019627 2878.2467858527534 8.054951607286295 0.0 0.0
3334.1112814104877 2163.6922872308496 2734.68449591446 8.997811702660794 0.0 0.0
3144.0023978297736 1996.8385129870683 2556.3656411614074 10.08391145037793 0.0 0.0
2916.166315458823 1796.2350125918767 2342.3938711953256 10.648364952535994 0.0 0.0
2663.039682066418 1573.907872251623 2105.000206042933 10.664981798773326 0.0 0.0
2397.724495286162 1342.650652279024 1857.1005757571704 10.29531637289355 0.0 0.0
2132.623813510445 1114.853806378646 1611.0694328712566 9.662781876963374 0.0 0.0
1878.265686509487 901.2297546669961 1377.5312301234917 8.819076726023136 0.0 0.0
1642.985038931292 710.3228338144334 1164.8955128711104 7.443866467024947 0.0 0.0
1433.2000834995256 549.7355895089015 980.1045456581223 5.544246177741673 0.0 0.0
1249.6029143182886 419.93217843120397 823.3962337125292 3.443066697161905 0.0 0.0
1086.406869416194 315.42479090399695 688.1675050034572 1.518755051558836 0.0 0.0
935.3119381445563 228.54472812025074 561.8300141054488 -0.043969488062453266 0.0 0.0
790.7535336557077 160.32594727804423 429.5084413411077 -1.5800562791271755 0.0 0.0
653.6074811601527 97.95077521673284 285.27563308688127 -3.7330340837278904 0.0 0.0
517.3031929810307 40.62912256053069 177.140458563315 0.12435751441395482 0.0 0.0
657.1913314801062 192.62326059252842 282.7484877721132 43.20156144054709 0.0 0.0
1416.9275883758019 839.058446351874 1074.7287477792765 18.72191984236394 0.0 0.0
-1342.1962223450773 -2150.9931236263733 -1671.2847536380411 32.383699201383834 0.0 0.0
-1708.9523018400942 -2489.5954947714695 -1994.391089205617 -35.71735336630003 0.0 0.0
966.8161757885226 461.94714095186316 677.3647511798329 -26.174999075968024 0.0 0.0
461.62064134799476 74.89194489396658 160.82114762722492 -38.281479872563665 0.0 0.0
454.5765103953095 10.846775700735995 144.07091421760447 -15.476167985606052 0.0 0.0
576.0298781599764 44.674493703383206 226.76608515183045 -17.69705346271966 0.0 0.0
684.8199837327452 64.90966383127086 334.3737776642216 -23.986017700101318 0.0 0.0
779.2320657944599 87.81840257317855 423.27347511776065 -24.989101514597895 0.0 0.0
868.8180883019666 111.57008985062717 488.01919859557205 -25.266645329310577 0.0 0.0
949.2178148877688 132.7982289087662 540.096585315564 -26.150938172812783 0.0 0.0
1021.9519907555687 152.10383266583858 586.3880320447049 -27.198841727147173 0.0 0.0
1090.6513456814005 172.31814554571787 630.8956483968491 -27.790561693719148 0.0 0.0
1157.9880769294152 195.31127158663304 676.070885815042 -27.84024396107256 0.0 0.0
1223.5989810239198 221.17127242390674 721.8220671858267 -27.478555180879493 0.0 0.0
1284.9032094183594 245.6587809284481 764.7344541076293 -26.908476664966773 0.0 0.0
1336.7820627903486 263.9636658400858 799.8505595510388 -26.094528871680634 0.0 0.0
1375.170123882242 271.9627189000983 823.0712612793856 -24.775684773165334 0.0 0.0
1397.823870787492 267.6031630482778 832.2373492769773 -22.735020662292925 0.0 0.0
1405.3137702773345 251.86221745581267 828.119214317404 -20.162386569157132 0.0 0.0
1389.0186187419777 216.82238279186285 802.5807462458737 -18.14197961728358 0.0 0.0
1294.6961704947214 109.50082920967577 702.4849672296081 -19.931660855820695 0.0 0.0
1143.143156280676 -41.350752957274125 552.3331068367016 7.184830508322193e-11 0.0 0.0
1294.6961704971025 109.50082921211238 702.4849672313777 19.931660855857835 0.0 0.0
1389.018618742428 216.82238279234653 802.5807462462345 18.141979617375615 0.0 0.0
1405.3137702759125 251.86221745449572 828.1192143163668 20.162386568952503 0.0 0.0
1397.823870786736 267.6031630475942 832.2373492764636 22.73502066205181 0.0 0.0
1375.1701238843932 271.962718902471 823.0712612810079 24.775684773301094 0.0 0.0
1336.7820627923206 263.96366584222545 799.8505595524173 26.094528871813576 0.0 0.0
1284.9032094174095 245.658780927659 764.7344541070129 26.908476664790328 0.0 0.0
1223.5989810241263 221.17127242433236 721.8220671860352 27.478555180804833 0.0 0.0
1157.988076929742 195.3112715871708 676.0708858152946 27.84024396097425 0.0 0.0
1090.6513456809007 172.3181455454537 630.8956483965245 27.790561693492265 0.0 0.0
1021.9519907548017 152.10383266535024 586.3880320442161 27.19884172699735 0.0 0.0
949.2178148871877 132.79822890846305 540.0965853151446 26.15093817294558 0.0 0.0
868.8180883002701 111.57008984918292 488.0191985944769 25.26664532918348 0.0 0.0
779.2320657944409 87.81840257348935 423.2734751176558 24.98910151469814 0.0 0.0
684.8199837329122 64.9096638318336 334.3737776641255 23.986017700150363 0.0 0.0
576.0298781592275 44.67449370282653 226.76608515127543 17.697053462650214 0.0 0.0
454.57651039519476 10.846775701003756 144.07091421763008 15.47616798549539 0.0 0.0
461.62064134755457 74.89194489340167 160.82114762693845 38.281479872432634 0.0 0.0
966.8161757880722 461.947140951484 677.3647511792539 26.174999076006358 0.0 0.0
-1708.9523018379184 -2489.595494769261 -1994.3910892034346 35.71735336583704 0.0 0.0
-1446.1616043182742 -2191.5689958739085 -1704.2886745356811 -74.32553449100419 0.0 0.0
792.3563693633857 369.3226274288633 535.7384166724119 -93.96807499432212 0.0 0.0
318.74075167395813 85.94967425531043 121.47593712558188 -43.256784038378136 0.0 0.0
390.75617623338326 3.7870039523745813 118.99935255938676 -37.47133109968394 0.0 0.0
530.588570513511 34.14858327760353 193.76099775490133 -40.31006582641143 0.0 0.0
650.5350877631923 58.51792151728603 302.16291189566425 -44.55472089822679 0.0 0.0
748.1567969965993 81.37532410268638 399.4883302851132 -46.025942687981264 0.0 0.0
836.5796798120131 100.86476605782542 465.41686835185754 -46.88896602140667 0.0 0.0
913.2301302379021 117.94642159504808 514.3532633800294 -48.57487187311908 0.0 0.0
981.8711429360928 133.26677611911933 556.6411938954 -49.97359789329647 0.0 0.0
1047.488703449992 150.960423046989 598.3366494584512 -50.35535723175637 0.0 0.0
1112.1684110702072 172.4385087138212 641.4398427190183 -49.87305633020316 0.0 0.0
1175.3629229366798 195.81503020407217 684.7614807260486 -48.975163921780315 0.0 0.0
1233.8114457870306 218.56204015849357 725.3863471913015 -47.77442107619067 0.0 0.0
1284.6600297791483 236.3627403550226 759.7263105982279 -46.18175941937994 0.0 0.0
1323.9569377262392 245.63819554142685 784.0267852957288 -43.86797736978709 0.0 0.0
1348.9649225387261 243.7596130942488 795.6228569021096 -40.56750064344739 0.0 0.0
1354.4515840171161 225.98236860582276 789.5824036636752 -36.71049551040056 0.0 0.0
1324.4596282340653 177.3411574605912 750.5599452218366 -33.54926141304186 0.0 0.0
1272.630756541546 112.87169878623126 692.7702320142718 -32.32124364787503 0.0 0.0
1101.4760071788348 -56.743192520871304 523.5366795074307 1.0913403514223319e-10 0.0 0.0
1272.6307565423833 112.8716987871376 692.7702320149001 32.321243648088725 0.0 0.0
1324.4596282322198 177.34115745876073 750.5599452207001 33.549261413114834 0.0 0.0
1354.4515840180518 225.9823686068936 789.582403664506 36.71049551049599 0.0 0.0
1348.9649225381702 243.75961309373795 795.6228569017547 40.56750064346237 0.0 0.0
1323.9569377271835 245.63819554253558 784.0267852964195 43.867977369697094 0.0 0.0
1284.6600297796303 236.36274035561573 759.7263105985462 46.18175941923178 0.0 0.0
1233.8114457858107 218.56204015748585 725.386347190469 47.77442107628784 0.0 0.0
1175.362922936772 195.8150302043384 684.7614807262104 48.975163921711854 0.0 0.0
1112.1684110700296 172.43850871385638 641.4398427189808 49.873056330119326 0.0 0.0
1047.4887034497262 150.96042304690252 598.3366494583419 50.35535723150332 0.0 0.0
981.8711429359377 133.26677611922452 556.6411938952756 49.973597893153695 0.0 0.0
913.230130236506 117.94642159388798 514.3532633790991 48.57487187310002 0.0 0.0
836.5796798120791 100.8647660582299 465.4168683518893 46.88896602140218 0.0 0.0
748.1567969965269 81.37532410294841 399.48833028496193 46.0259426879918 0.0 0.0
650.535087763163 58.51792151763349 302.1629118954525 44.55472089827948 0.0 0.0
530.5885705126934 34.14858327697795 193.76099775434275 40.31006582639453 0.0 0.0
390.7561762334729 3.7870039528632073 118.99935255955245 37.47133109956478 0.0 0.0
318.7407516738334 85.9496742549314 121.47593712542651 43.256784038400546 0.0 0.0
792.356369362655 369.32262742840726 535.7384166716896 93.96807499420748 0.0 0.0
-1446.1616043162314 -2191.5689958718735 -1704.2886745335209 74.32553449063698 0.0 0.0
-1191.2419362949677 -1905.9317257602752 -1428.7065515808115 -88.18541901514658 0.0 0.0
610.000091142378 274.33972737465496 400.64526713480166 -146.03131252641535 0.0 0.0
229.18401274424446 70.79721717613971 89.99436897611524 -64.4205043079729 0.0 0.0
325.01249657325997 9.32353562903414 99.97463155814212 -61.067333288071524 0.0 0.0
474.3385630267904 21.074013429168232 159.91695826637954 -65.5134648997081 0.0 0.0
604.34464738632 50.543579108002255 263.77007986371666 -66.26920298055512 0.0 0.0
713.1838006486441 73.13990948372961 369.928623893496 -68.3493382470577 0.0 0.0
799.4875935608056 90.3578457991411 439.53944941181294 -68.63391601503088 0.0 0.0
873.0931771695706 103.40660875083978 486.4650557335368 -70.52770249089532 0.0 0.0
938.0032681337304 115.07535306820577 525.2279069172524 -71.90045762332105 0.0 0.0
1000.130679638128 129.8549828640085 563.7187117332004 -71.95003041651638 0.0 0.0
1062.1733347936347 148.95561550798698 604.3249491391265 -71.05694609912045 0.0 0.0
1122.5361569796298 170.7326686280432 645.4621453590734 -69.6223588273558 0.0 0.0
1178.5920813729524 190.8859349299583 683.5995357129166 -67.8667897037284 0.0 0.0
1228.0704544106156 207.98557627019062 716.8915957937302 -65.56359577545649 0.0 0.0
1268.7463556613673 219.1386047087204 742.8192029231308 -62.43529693594558 0.0 0.0
1295.4266368848782 218.83687039600105 756.0725675711972 -58.36133620009133 0.0 0.0
1299.6477812520034 199.62209718701433 748.7544065579417 -53.66655518875878 0.0 0.0
1278.3543068883516 159.4350360197518 718.2620027024974 -48.69101797271125 0.0 0.0
1248.2188276562144 116.00248498902315 681.6846696804623 -42.942106986562806 0.0 0.0
1009.9231138895981 -120.11314881404655 446.2508935787745 5.823252990921901e-11 0.0 0.0
1248.218827655143 116.00248498796037 681.6846696797114 42.94210698659465 0.0 0.0
1278.3543068869901 159.43503601847556 718.2620027015646 48.691017972742536 0.0 0.0
1299.6477812538026 199.62209718897947 748.7544065593972 53.666555188956025 0.0 0.0
1295.4266368836204 218.83687039481873 756.0725675705447 58.361336200238476 0.0 0.0
1268.7463556620962 219.13860470960415 742.8192029235361 62.435296935793865 0.0 0.0
1228.0704544094472 207.98557626910906 716.8915957930747 65.56359577522552 0.0 0.0
1178.5920813726248 190.88593492987397 683.5995357126635 67.86678970391046 0.0 0.0
1122.5361569782804 170.73266862681584 645.4621453582164 69.6223588272418 0.0 0.0
1062.1733347946076 148.95561550921542 604.3249491397863 71.05694609907623 0.0 0.0
1000.1306796370276 129.85498286303104 563.7187117324544 71.95003041625318 0.0 0.0
938.0032681338902 115.07535306862223 525.2279069173354 71.90045762320865 0.0 0.0
873.0931771686614 103.40660875026285 486.46505573296884 70.5277024909165 0.0 0.0
799.4875935612513 90.357845799888 439.5394494120611 68.63391601513342 0.0 0.0
713.1838006488333 73.13990948429489 369.92862389343065 68.34933824695509 0.0 0.0
604.344647385448 50.54357910726173 263.7700798629861 66.26920298032827 0.0 0.0
474.33856302676355 21.074013429745932 159.91695826644676 65.51346489970517 0.0 0.0
325.0124965732638 9.323535629163144 99.97463155818399 61.06733328804371 0.0 0.0
229.1840127441879 70.79721717597312 89.99436897604829 64.42050430786007 0.0 0.0
610.0000911417757 274.3397273743508 400.645267134212 146.03131252614855 0.0 0.0
-1191.2419362929393 -1905.9317257582218 -1428.7065515787426 88.18541901482328 0.0 0.0
-967.4037887976322 -1656.7685959863973 -1185.285815841998 -86.51012225285795 0.0 0.0
474.0779855947327 188.15882524176976 293.0496482677539 -179.79033012054649 0.0 0.0
166.9173281844209 54.21735860935473 66.34040603813271 -95.50940103112065 0.0 0.0
263.67702281547764 15.728976593299263 83.77598683858959 -86.86555225337086 0.0 0.0
407.8587324571573 12.038328528620745 129.23551330892093 -92.55046547597681 0.0 0.0
548.1257412091742 37.39528577135068 219.87736677111187 -91.40622098042908 0.0 0.0
667.280817700101 63.62377806291488 331.53891477551554 -90.97301414664867 0.0 0.0
756.5915702638052 80.35940282341066 409.5865488293836 -90.74275424724618 0.0 0.0
828.2343241319677 89.50679036968545 456.08549428707295 -91.92006966975998 0.0 0.0
889.439370013783 97.25147985132523 491.4762826347574 -92.94813989553663 0.0 0.0
948.3177621670047 108.85297585911111 526.7801368002671 -92.59196719920303 0.0 0.0
1007.2172304901193 125.3768598412259 564.5447051477702 -91.29060690187893 0.0 0.0
1064.8887920665782 144.58754292137766 603.0763150683391 -89.48351914517484 0.0 0.0
1118.4788566345978 163.60966609663072 639.4428368540053 -87.14441862824494 0.0 0.0
1166.581760346168 179.37453225585898 671.3835457022392 -84.17162881307078 0.0 0.0
1207.3490725219538 190.49258887686088 697.3236633435133 -80.5081419765615 0.0 0.0
1236.3795597782998 192.86754916678123 713.1073881438642 -76.04963061756438 0.0 0.0
1246.6668392880374 179.4533114037795 711.7359416520184 -70.67350911783207 0.0 0.0
1235.5225646315744 148.59379011778185 690.9660464915763 -63.61158958415335 0.0 0.0
1215.7113957795468 113.96760488502171 663.9082342962608 -53.79204330745781 0.0 0.0
895.5593863777001 -203.14217571164457 347.9073619749447 -2.9885427466069814e-11 0.0 0.0
1215.7113957789463 113.96760488446904 663.9082342959796 53.79204330741999 0.0 0.0
1235.522564633545 148.59379011987474 690.9660464931052 63.611589584291934 0.0 0.0
1246.6668392889721 179.45331140477552 711.7359416525557 70.67350911787038 0.0 0.0
1236.3795597779338 192.86754916657944 713.1073881436517 76.04963061769655 0.0 0.0
1207.3490725223792 190.4925888774309 697.3236633437991 80.5081419766642 0.0 0.0
1166.58176034586 179.37453225571977 671.3835457020376 84.17162881306814 0.0 0.0
1118.478856634743 163.60966609694572 639.4428368540493 87.14441862828662 0.0 0.0
1064.8887920648492 144.58754291975862 603.0763150672138 89.48351914491958 0.0 0.0
1007.2172304913131 125.37685984274447 564.54470514864 91.29060690211524 0.0 0.0
948.3177621656466 108.85297585791898 526.7801367993095 92.59196719910798 0.0 0.0
889.4393700145246 97.25147985244399 491.4762826352795 92.9481398956875 0.0 0.0
828.234324131752 89.50679036969498 456.0854942869376 91.92006966963935 0.0 0.0
756.5915702632727 80.35940282314931 409.58654882896786 90.74275424720203 0.0 0.0
667.2808177000292 63.62377806317332 331.5389147752938 90.97301414661048 0.0 0.0
548.1257412083644 37.395285770791375 219.87736677047923 91.40622098025965 0.0 0.0
407.85873245706006 12.03832852923585 129.23551330902595 92.55046547592161 0.0 0.0
263.67702281533457 15.728976593081558 83.77598683848056 86.86555225343238 0.0 0.0
166.91732818444035 54.217358609245466 66.34040603810574 95.50940103091246 0.0 0.0
474.07798559422184 188.15882524157522 293.04964826727513 179.79033012039503 0.0 0.0
-967.4037887960355 -1656.7685959846667 -1185.285815840217 86.51012225270966 0.0 0.0
-769.831123393172 -1436.7554038885032 -968.1311584288085 -81.2079501781532 0.0 0.0
367.2755208585223 120.69566250457397 209.37777151628268 -200.03156649670393 0.0 0.0
120.61542339188662 36.79106523343577 47.221857954509396 -125.6601924712258 0.0 0.0
210.09634025275355 19.949183130138156 69.01787102415433 -112.97289653807718 0.0 0.0
335.39641055178384 7.241657689138473 102.51211196018751 -120.17490570206422 0.0 0.0
476.8236007652221 23.78515701556899 174.7269497945871 -118.12069601311148 0.0 0.0
605.9881972269229 53.327693437346426 283.9014317957427 -114.73322445650449 0.0 0.0
706.2216757451878 68.23876812589641 371.8333121088553 -113.71021951015553 0.0 0.0
775.9316879902522 75.87307299918707 421.3176436885706 -112.7680308391157 0.0 0.0
835.3366402545346 79.59425554585913 454.7113524441405 -113.10287553663346 0.0 0.0
890.84735349398 87.91072299376724 486.8101643756989 -112.23906140013928 0.0 0.0
946.5831787485765 101.79306303770544 521.6931201281179 -110.50618528626507 0.0 0.0
1001.2839172493581 118.8254183565234 557.6706702062188 -108.34278818263671 0.0 0.0
1052.2694863042127 135.28052810118197 591.4820940004074 -105.63571947133875 0.0 0.0
1098.4319160771654 149.75900368677668 621.833399470558 -102.08219071618805 0.0 0.0
1138.8166062082207 161.03996453009532 647.6645328829426 -97.86683018372936 0.0 0.0
1171.4203876719457 166.4393774320078 666.7051850571521 -93.31526113315616 0.0 0.0
1191.0966369639214 162.14445538512476 674.5753562061067 -87.60328508620373 0.0 0.0
1191.142121237696 141.44319608052012 664.516545511843 -78.92227288488007 0.0 0.0
1177.5199278617856 110.62653673168049 642.4758650112112 -65.67788337498047 0.0 0.0
761.4052808519136 -300.9620924587692 232.4507353178442 3.674927029351238e-11 0.0 0.0
1177.5199278616844 110.62653673169581 642.4758650112981 65.67788337523379 0.0 0.0
1191.1421212377866 141.4431960806649 664.5165455122755 78.92227288511587 0.0 0.0
1191.0966369629557 162.1444553842396 674.5753562055497 87.60328508631298 0.0 0.0
1171.4203876719655 166.4393774322134 666.7051850570016 93.31526113331047 0.0 0.0
1138.816606207613 161.0399645295635 647.6645328826954 97.86683018376763 0.0 0.0
1098.4319160763948 149.7590036861779 621.8333994700236 102.0821907162398 0.0 0.0
1052.2694863046365 135.28052810176007 591.4820940007322 105.6357194713884 0.0 0.0
1001.283917248909 118.82541835621443 557.6706702059473 108.34278818248178 0.0 0.0
946.5831787486965 101.79306303815194 521.6931201282647 110.5061852864602 0.0 0.0
890.847353492916 87.91072299282477 486.81016437502643 112.23906140003763 0.0 0.0
835.3366402549236 79.59425554651189 454.7113524443897 113.10287553659757 0.0 0.0
775.9316879898585 75.87307299902356 421.3176436883151 112.7680308390102 0.0 0.0
706.2216757447582 68.23876812577842 371.83331210848667 113.710219510092 0.0 0.0
605.9881972260823 53.32769343680512 283.90143179504446 114.73322445646428 0.0 0.0
476.8236007648394 23.78515701543337 174.72694979428212 118.12069601303462 0.0 0.0
335.3964105516945 7.241657689768085 102.51211196036635 120.17490570185024 0.0 0.0
210.09634025263952 19.94918312999873 69.01787102407401 112.97289653805814 0.0 0.0
120.61542339189441 36.79106523358541 47.22185795455669 125.66019247095399 0.0 0.0
367.27552085777535 120.6956625041803 209.3777715157306 200.03156649664237 0.0 0.0
-769.8311233918612 -1436.7554038870503 -968.13115842726 81.20795017801628 0.0 0.0
-597.9967248705648 -1236.9131092535172 -774.0562655930623 -75.84134590402903 0.0 0.0
282.50829794535935 67.70249609587134 144.62942412598278 -213.07367405493872 0.0 0.0
83.95961213193594 20.4215866112028 31.314511676439857 -150.6080436746861 0.0 0.0
161.16808923253865 22.725799089983184 55.16539449012506 -137.0408421323754 0.0 0.0
260.8908455360802 6.792353851340402 79.64507445805282 -144.63733130009075 0.0 0.0
393.3505929011992 9.399624696562272 130.5739895674473 -148.2605431606548 0.0 0.0
529.0255841027101 38.04046638390125 226.66304294023848 -141.32824753222738 0.0 0.0
639.0145302044607 56.82839488617877 322.6095995823155 -136.51654616339286 0.0 0.0
716.6975449179016 60.00295639333397 379.7883615271046 -134.48980489907714 0.0 0.0
772.6722184488845 61.98829733628786 412.9893534568406 -132.24374644732106 0.0 0.0
826.3081979502131 67.1212492587375 442.90681126742567 -130.77614166821277 0.0 0.0
878.7203855906029 78.1104102987854 474.7426342748365 -128.61733678373372 0.0 0.0
929.9829475346168 92.5132025111914 507.7152803072928 -126.14540001639128 0.0 0.0
978.2275282710762 107.15856332467223 539.2831818919868 -123.19066930824935 0.0 0.0
1021.8952481938333 119.6752420678765 567.4664313302187 -119.28965927555166 0.0 0.0
1060.827303539774 129.03498243063729 591.6119631422118 -114.6654134485787 0.0 0.0
1096.907402042286 138.94066355157483 614.5735392325191 -109.73273831448316 0.0 0.0
1128.8060483578697 146.02706556242964 634.1972286095581 -104.24913045058969 0.0 0.0
1142.6973150331526 137.2342521115255 637.0744299705344 -95.09543852739796 0.0 0.0
1134.6580635486816 109.02757900359666 619.2429194765213 -79.47446352970329 0.0 0.0
606.078179452559 -412.113404594901 99.95999571489656 -3.4496849821152864e-11 0.0 0.0
1134.6580635469127 109.02757900183177 619.2429194752111 79.47446352971622 0.0 0.0
1142.6973150330828 137.2342521116016 637.0744299707032 95.09543852751388 0.0 0.0
1128.8060483571319 146.02706556197336 634.1972286092858 104.24913045103091 0.0 0.0
1096.907402043525 138.9406635529523 614.5735392331286 109.73273831472409 0.0 0.0
1060.8273035392967 129.03498243016733 591.6119631418985 114.66541344836597 0.0 0.0
1021.8952481938351 119.67524206810697 567.4664313302876 119.28965927554154 0.0 0.0
978.2275282710407 107.15856332488397 539.2831818919391 123.19066930843474 0.0 0.0
929.9829475345637 92.51320251141823 507.7152803072863 126.14540001651406 0.0 0.0
878.7203855907972 78.11041029924256 474.74263427497203 128.61733678385562 0.0 0.0
826.3081979497193 67.12124925850634 442.9068112671305 130.77614166820757 0.0 0.0
772.6722184483411 61.98829733583313 412.9893534564587 132.24374644716875 0.0 0.0
716.6975449175061 60.00295639334688 379.7883615268643 134.48980489914572 0.0 0.0
639.0145302042929 56.828394886343446 322.6095995821088 136.51654616336648 0.0 0.0
529.0255841023929 38.0404663842556 226.66304293997274 141.32824753231668 0.0 0.0
393.35059290019285 9.399624695649555 130.57398956681456 148.26054316068755 0.0 0.0
260.8908455361478 6.792353852069253 79.64507445830847 144.63733129976197 0.0 0.0
161.168089232438 22.725799089909803 55.16539449007192 137.04084213225792 0.0 0.0
83.9596121321507 20.42158661171912 31.314511676659148 150.608043674469 0.0 0.0
282.5082979449302 67.70249609559883 144.62942412562103 213.07367405480136 0.0 0.0
-597.9967248692623 -1236.9131092520713 -774.0562655916237 75.8413459038654 0.0 0.0
-446.2920678929952 -1061.7860872546914 -601.3002858935793 -77.5412444263059 0.0 0.0
210.99215632013508 27.60861058621579 94.02467658551154 -218.41856249701257 0.0 0.0
53.0965973996984 6.968049464979514 18.018374184062747 -169.27485809841247 0.0 0.0
114.16882475551866 23.969502831082835 41.440703123255645 -157.42746919653024 0.0 0.0
189.61551500946086 8.404742674887421 59.07482809237352 -165.2718286024016 0.0 0.0
297.8648203314258 0.6546399018832423 91.6791795028677 -177.1242271095401 0.0 0.0
429.6362362567375 19.98435339529139 163.54106775818005 -170.3814572994554 0.0 0.0
551.2917307942316 40.498041684540155 257.03372220454 -160.5347619378685 0.0 0.0
639.1200361517393 45.546847139274455 325.63297170469696 -155.010492469743 0.0 0.0
699.5470856795469 42.32824018707232 362.88542688832354 -151.4215060414921 0.0 0.0
750.4009184300273 45.62688776037955 391.77120439680266 -148.0193299391528 0.0 0.0
799.8473483495734 54.42444193112293 421.31103409932365 -145.3429252526773 0.0 0.0
847.5959336763514 66.08954093895659 451.2122186601339 -142.59651826790213 0.0 0.0
892.1217698942628 78.18137588801802 479.66829658651466 -139.55579148109135 0.0 0.0
933.5788904130153 89.1262953232242 506.00231963834506 -135.7257027566894 0.0 0.0
970.6213978510838 97.52120370036432 528.8228780697947 -130.78062451717705 0.0 0.0
1007.0964657382087 106.68374660363371 551.59798606591 -125.31881670226237 0.0 0.0
1050.7779659783782 125.41947991193956 582.7521399031262 -120.10803177724294 0.0 0.0
1085.9052801560176 136.89703381807624 606.4603901761619 -112.15000299525197 0.0 0.0
1088.1900971454838 114.80515611550547 597.1615120448884 -96.28281219351453 0.0 0.0
424.09402361778507 -535.5745387467771 -51.6855945114371 -2.4780177909633494e-11 0.0 0.0
1088.1900971450607 114.8051561151955 597.1615120445827 96.2828121934697 0.0 0.0
1085.9052801558425 136.8970338179987 606.4603901760049 112.1500029954512 0.0 0.0
1050.7779659786547 125.41947991256308 582.7521399034013 120.10803177768808 0.0 0.0
1007.0964657383631 106.68374660396465 551.5979860658823 125.31881670262123 0.0 0.0
970.6213978509727 97.52120370027718 528.8228780697298 130.78062451711455 0.0 0.0
933.5788904126783 89.12629532305213 506.0023196381425 135.7257027566738 0.0 0.0
892.1217698938653 78.18137588770026 479.6682965861819 139.5557914811539 0.0 0.0
847.5959336755436 66.08954093836866 451.21221865962104 142.59651826790594 0.0 0.0
799.8473483495468 54.424441931315194 421.31103409934025 145.34292525268097 0.0 0.0
750.4009184301053 45.626887760659244 391.7712043968023 148.01932993920317 0.0 0.0
699.5470856790837 42.328240186687204 362.88542688800743 151.42150604123364 0.0 0.0
639.1200361509042 45.54684713854308 325.63297170408845 155.01049246958837 0.0 0.0
551.2917307943665 40.498041685446864 257.03372220461284 160.5347619380208 0.0 0.0
429.63623625611586 19.984353394964238 163.5410677577567 170.38145729948715 0.0 0.0
297.86482033090186 0.6546399017683942 91.6791795026494 177.12422710939177 0.0 0.0
189.61551500918924 8.404742674654832 59.074828092229055 165.2718286022113 0.0 0.0
114.16882475573132 23.969502831509317 41.44070312345279 157.42746919626123 0.0 0.0
53.09659739968515 6.968049465082829 18.01837418408819 169.27485809820988 0.0 0.0
210.99215631969497 27.60861058612627 94.02467658525237 218.41856249690778 0.0 0.0
-446.2920678920445 -1061.7860872534393 -601.3002858924242 77.54124442632543 0.0 0.0
-325.13506155836774 -894.9270080070401 -456.0132665132412 -80.84594784610375 0.0 0.0
149.76140128653668 -4.813307840972243 55.038669234683205 -217.53136409612975 0.0 0.0
24.852313251507418 -2.3869630267844038 6.736639012409784 -182.34044313576115 0.0 0.0
68.05363937146032 23.728070146635456 27.524558419927487 -173.67329294777886 0.0 0.0
121.17795819237153 11.363462622080645 39.61421097870608 -181.23507200416788 0.0 0.0
195.6032728555668 -0.8405755193580635 58.52233262697502 -199.4382762249837 0.0 0.0
304.72629155005393 2.495818189790964 100.72082370013324 -202.83530601073775 0.0 0.0
431.3051307561084 17.247016406636995 173.02778973578822 -188.4542232500413 0.0 0.0
533.3360592724722 25.351814770152096 246.53417090321759 -175.01559090752014 0.0 0.0
601.8404617756945 22.664151908848535 293.9222566060963 -168.24166421125608 0.0 0.0
653.9618161105035 23.828705846693374 326.09162097619253 -163.29998043513183 0.0 0.0
700.6878712881309 29.865388097759784 354.039743490213 -160.1450407616339 0.0 0.0
744.4648014060706 39.35795860386527 381.28812040624223 -157.2098280445782 0.0 0.0
784.5239586707652 48.749717664833284 406.2696654526503 -154.24657168646397 0.0 0.0
822.659533970587 58.096865268394296 430.220653845017 -150.90030196345677 0.0 0.0
859.3224701080971 66.73280490767871 453.1528499307585 -146.42735967571448 0.0 0.0
894.7620554722071 74.4984890295922 475.08018360817016 -140.45627831077948 0.0 0.0
940.3851936449062 93.61413433698027 507.37100552250934 -134.46244317303658 0.0 0.0
1003.3190926003539 130.59107309261648 557.501618461904 -129.39126925976237 0.0 0.0
1036.75544352848 134.68131391316288 577.5961902942865 -118.01626538451534 0.0 0.0
205.71350431229553 -666.5411883708739 -224.62632849626857 1.7527668205730151e-10 0.0 0.0
1036.7554435290813 134.6813139140134 577.5961902947861 118.0162653848914 0.0 0.0
1003.319092601126 130.59107309387244 557.5016184624624 129.39126926027666 0.0 0.0
940.3851936458404 93.61413433800305 507.371005523269 134.462443173364 0.0 0.0
894.7620554706542 74.49848902814198 475.0801836070847 140.45627831088655 0.0 0.0
859.3224701070521 66.7328049067218 453.15284993011795 146.4273596758665 0.0 0.0
822.6595339696569 58.09686526764191 430.2206538444138 150.90030196352458 0.0 0.0
784.5239586692437 48.74971766318446 406.2696654516199 154.24657168646056 0.0 0.0
744.4648014055012 39.35795860369184 381.2881204058668 157.20982804467914 0.0 0.0
700.6878712875464 29.86538809711931 354.0397434898501 160.14504076150897 0.0 0.0
653.961816109753 23.828705845820007 326.0916209756676 163.29998043493543 0.0 0.0
601.8404617752888 22.664151908565792 293.92225660581903 168.2416642111223 0.0 0.0
533.336059271922 25.351814769818578 246.53417090278805 175.01559090736708 0.0 0.0
431.3051307564497 17.247016408017778 173.0277897361262 188.45422325033186 0.0 0.0
304.7262915493945 2.4958181893428235 100.72082369971923 202.83530601059306 0.0 0.0
195.60327285536061 -0.8405755192911308 58.522332626938955 199.43827622469368 0.0 0.0
121.17795819223907 11.363462622201936 39.61421097871158 181.2350720039195 0.0 0.0
68.05363937155559 23.728070146940457 27.524558420046464 173.67329294761024 0.0 0.0
24.85231325146381 -2.3869630269496174 6.736639012346865 182.3404431354624 0.0 0.0
149.76140128623788 -4.8133078410317225 55.03866923451161 217.5313640960625 0.0 0.0
-325.13506155766413 -894.9270080060048 -456.01326651236207 80.84594784619108 0.0 0.0
-225.62961931826104 -745.3834643523805 -334.8201396550036 -92.279572706498 0.0 0.0
94.90454897226478 -31.073123875764807 24.20884382719865 -210.6148462454806 0.0 0.0
-2.5326785076563896 -6.850623621504708 -2.839199910006303 -189.80779786682487 0.0 0.0
22.318719049370657 22.457587197144594 13.427930707246498 -184.7437350180648 0.0 0.0
53.17329571056358 14.643052858261413 20.298196220522335 -192.43378578082627 0.0 0.0
94.0600834134175 2.475447658319095 28.92325480481465 -213.33865120186726 0.0 0.0
155.28075295605845 -2.8581361082670704 46.7838994950324 -227.616328166393 0.0 0.0
252.59834716882816 -7.322608346176602 78.9944434482547 -223.04300302157145 0.0 0.0
365.65743979789437 -13.211262800793147 122.93233878013194 -199.6593303202614 0.0 0.0
448.1841876603218 -10.382732059798496 168.3096895151116 -177.88630351810906 0.0 0.0
504.5198917650752 -2.1060959376167148 207.28991872523176 -172.15764442250264 0.0 0.0
546.9023572165513 5.142814531335368 237.7179678179425 -170.88994300845133 0.0 0.0
583.5147269172679 12.766337336353835 263.3779689603557 -170.16893660353904 0.0 0.0
617.3345861750408 20.49302180459476 286.37912059045414 -169.2078160941566 0.0 0.0
650.6035556724562 28.705196899308262 309.2585986609308 -167.66261839181382 0.0 0.0
685.8605547407685 37.567056368713395 333.8174054169456 -164.90417117481462 0.0 0.0
723.731131828018 45.77195846113827 359.81359333906045 -159.62019991113468 0.0 0.0
763.6135017098859 52.64584763610266 386.05370063431474 -152.1720234425163 0.0 0.0
835.7211324839174 89.77187057524377 440.9049759359462 -147.22363720155218 0.0 0.0
942.6133047369322 157.62521996675906 531.3743581163496 -147.63827083538612 0.0 0.0
-82.58771411122405 -795.1434424314364 -428.5339423628703 -4.730082991954987e-11 0.0 0.0
942.6133047355892 157.62521996545172 531.3743581155384 147.63827083547096 0.0 0.0
835.7211324848819 89.77187057627046 440.9049759367819 147.2236372019919 0.0 0.0
763.6135017111259 52.645847637527254 386.0537006351648 152.17202344274156 0.0 0.0
723.7311318267209 45.771958459811145 359.8135933381375 159.6201999111445 0.0 0.0
685.860554740981 37.56705636932957 333.8174054169638 164.90417117484827 0.0 0.0
650.6035556716772 28.705196897891994 309.2585986604622 167.6626183915996 0.0 0.0
617.3345861739829 20.493021803712296 286.3791205899066 169.2078160940551 0.0 0.0
583.51472691788 12.766337337542929 263.3779689607468 170.16893660385705 0.0 0.0
546.9023572161169 5.142814530908268 237.71796781760418 170.88994300837274 0.0 0.0
504.51989176465435 -2.106095938188549 207.28991872486574 172.15764442230304 0.0 0.0
448.18418765981306 -10.38273206017754 168.30968951482205 177.8863035180088 0.0 0.0
365.6574397979105 -13.211262800004306 122.93233878031666 199.65933032044077 0.0 0.0
252.5983471686012 -7.322608346064771 78.9944434482004 223.04300302160553 0.0 0.0
155.2807529560698 -2.8581361077011023 46.783899495195996 227.6163281663129 0.0 0.0
94.06008341313407 2.475447658049316 28.923254804660036 213.33865120159163 0.0 0.0
53.17329571094895 14.643052859220813 20.298196220928386 192.4337857806313 0.0 0.0
22.318719049462548 22.457587197216796 13.427930707295777 184.74373501792104 0.0 0.0
-2.5326785077736975 -6.850623621781001 -2.8391999101260543 189.80779786665877 0.0 0.0
94.9045489718923 -31.073123876035613 24.208843826972004 210.61484624528518 0.0 0.0
-225.6296193177528 -745.383464351511 -334.82013965435243 92.27957270651451 0.0 0.0
-155.4348668722601 -606.8746815742032 -242.8735833145386 -105.44451674245008 0.0 0.0
43.786787048468355 -51.78679525676942 -0.6647401380217977 -196.95743812741446 0.0 0.0
-29.710893656479946 -7.4405170065011275 -11.15345556590545 -193.64310504792297 0.0 0.0
-22.930500364306443 20.70778428335694 -0.6862746416386312 -191.07960331714202 0.0 0.0
-14.03083931200329 17.700173038160408 1.097240495637139 -198.1543450387946 0.0 0.0
-7.047163829072224 7.014028084583445 0.005081838822397877 -218.52642887342967 0.0 0.0
-3.4061992595194397 0.7860815239102372 -0.7892679794929673 -235.34342837065088 0.0 0.0
-1.3708359634163543 0.16421731206876444 -0.36374041137511703 -238.12714386011186 0.0 0.0
-0.4145703896810744 -0.030631940698581772 -0.13865166086094405 -233.0055197122694 0.0 0.0
-0.15416515142398168 -0.0012524124300732353 -0.04611040870059924 -227.57077751010826 0.0 0.0
-0.5402067337818153 -0.007999919105394326 -0.09070002044471437 -214.922880860187 0.0 0.0
-1.162792875807554 0.24698843657888148 0.3164651685294615 -202.13792860111477 0.0 0.0
-1.6244331719113632 1.2438435911677885 0.6308493768537744 -193.57797099693406 0.0 0.0
1.70021796595762 3.657393562603872 1.2977921794158078 -187.02627892158523 0.0 0.0
13.908049527643527 8.712112250023395 3.0791905351576645 -182.26424221725821 0.0 0.0
41.78447846335993 17.611067171355586 7.908322549565298 -177.98615677652555 0.0 0.0
94.71437010631442 32.19266146701388 18.21769251633384 -172.30429499203174 0.0 0.0
186.0024144066009 43.42582591510717 25.340597933515227 -163.18075742901698 0.0 0.0
412.4717317700819 5.186373077819354 46.72648728357751 -159.79779298834967 0.0 0.0
655.5663173309305 44.70778910700756 269.77235727744534 -208.51237626472687 0.0 0.0
-801.0221019081065 -1058.6174270014906 -851.4326121340146 3.736744247362367e-11 0.0 0.0
655.5663173297082 44.707789105555406 269.77235727667005 208.51237626449608 0.0 0.0
412.47173176912327 5.186373075540104 46.7264872823236 159.79779298899342 0.0 0.0
186.0024144072934 43.42582591630756 25.340597933970855 163.18075742949154 0.0 0.0
94.71437010571677 32.19266146688882 18.2176925158426 172.30429499217695 0.0 0.0
41.78447846406846 17.611067171662086 7.908322550007256 177.9861567767952 0.0 0.0
13.90804952687779 8.712112248438373 3.0791905344116373 182.26424221713995 0.0 0.0
1.7002179657999363 3.65739356258905 1.2977921792380016 187.02627892153657 0.0 0.0
-1.6244331709907556 1.2438435918719577 0.6308493774194375 193.5779709972276 0.0 0.0
-1.1627928751619834 0.2469884370990556 0.31646516886952725 202.13792860107395 0.0 0.0
-0.5402067339304182 -0.007999919814839274 -0.09070002078203032 214.9228808602722 0.0 0.0
-0.15416515097228256 -0.0012524128694444414 -0.046110408711069084 227.57077750970313 0.0 0.0
-0.4145703893384578 -0.030631940835485594 -0.13865166080955937 233.00551971245937 0.0 0.0
-1.37083596298449 0.16421731278365037 -0.3637404110221194 238.12714386005996 0.0 0.0
-3.406199259408435 0.7860815238556911 -0.7892679794750954 235.3434283705379 0.0 0.0
-7.047163828884544 7.014028084948144 0.00508183898662784 218.52642887313803 0.0 0.0
-14.030839311791272 17.70017303870971 1.0972404958650719 198.1543450384636 0.0 0.0
-22.930500364359382 20.70778428322017 -0.6862746416966001 191.07960331692195 0.0 0.0
-29.710893656565084 -7.440517006552962 -11.15345556594804 193.64310504777205 0.0 0.0
43.78678704805553 -51.78679525706063 -0.6647401382537335 196.95743812713766 0.0 0.0
-155.43486687202412 -606.8746815734612 -242.87358331415038 105.44451674254915 0.0 0.0
-116.47970462292511 -483.22942768646044 -180.9309792752153 -115.40746140026629 0.0 0.0
0.6121604306524482 -64.76620188155586 -19.093688804881673 -179.32427289200223 0.0 0.0
-55.8060489398148 -6.332530664542985 -18.661805608879813 -192.57084747924307 0.0 0.0
-67.3102228521249 19.04844206153148 -14.510553372296862 -192.4380042022086 0.0 0.0
-79.98519237890595 20.09179529788957 -17.98096205707154 -198.04533102626982 0.0 0.0
-106.70075514940049 11.29184013272732 -28.710737789693617 -214.58046616290997 0.0 0.0
-161.0739045722344 4.392926078344873 -48.245727568497585 -228.56616677266905 0.0 0.0
-254.15657329562228 7.30964377454778 -79.70649951792689 -223.46380426214313 0.0 0.0
-365.9701529100532 13.072802853942118 -123.18548055498323 -199.79846850156235 0.0 0.0
-448.2290167115903 10.323712445149397 -168.36208584198243 -177.83797482930257 0.0 0.0
-505.0971375482644 1.9467422106832757 -207.7342820380687 -172.16756586301977 0.0 0.0
-547.840013997985 -4.915337876929684 -238.70184193016865 -170.63798826088416 0.0 0.0
-584.1930477646044 -10.732590143434976 -263.57569191122957 -169.41703409731738 0.0 0.0
-613.5412051955806 -13.82848978906523 -281.40359783887845 -168.56403560236657 0.0 0.0
-633.050804985051 -13.009635166886326 -290.4792911015263 -168.8136874261511 0.0 0.0
-640.8438577752627 -7.113599538007236 -288.7402157515811 -170.78628844630455 0.0 0.0
-635.8859746868843 3.502742795486455 -274.4308962579271 -175.30534425882144 0.0 0.0
-627.472205471767 11.321085031859639 -251.20288275783824 -184.5173159245262 0.0 0.0
-599.8494558755265 68.39952351645522 -182.97511164858318 -197.95438896940468 0.0 0.0
-321.15501628944173 205.60599334829737 69.28614832375922 -174.52297132627672 0.0 0.0
-1389.192637562188 -1347.8508618236883 -1408.3469886201815 -7.919709332782077e-11 0.0 0.0
-321.1550162893092 205.60599334813983 69.28614832370559 174.5229713269234 0.0 0.0
-599.8494558770092 68.39952351446217 -182.97511164945226 197.95438896959837 0.0 0.0
-627.4722054695987 11.321085034406508 -251.20288275608198 184.51731592455602 0.0 0.0
-635.8859746873717 3.5027427947709953 -274.43089625831226 175.3053442589968 0.0 0.0
-640.8438577755393 -7.113599538718319 -288.7402157517526 170.78628844644126 0.0 0.0
-633.0508049842701 -13.009635166182207 -290.47929110089774 168.81368742590715 0.0 0.0
-613.5412051950582 -13.828489788674752 -281.4035978385261 168.56403560241733 0.0 0.0
-584.1930477637106 -10.732590142496704 -263.57569191062714 169.41703409725918 0.0 0.0
-547.8400139974278 -4.915337876624488 -238.7018419297327 170.63798826072463 0.0 0.0
-505.09713754826055 1.9467422100405614 -207.73428203803581 172.16756586302665 0.0 0.0
-448.2290167108906 10.323712445695179 -168.36208584145814 177.83797482927886 0.0 0.0
-365.9701529098698 13.072802853207275 -123.18548055501785 199.79846850177876 0.0 0.0
-254.15657329485327 7.309643774946647 -79.70649951753825 223.4638042622231 0.0 0.0
-161.07390457122722 4.392926079844025 -48.245727567734704 228.5661667724022 0.0 0.0
-106.70075514917342 11.291840132936422 -28.710737789567723 214.58046616261313 0.0 0.0
-79.9851923789334 20.091795297475453 -17.980962057207307 198.04533102595218 0.0 0.0
-67.31022285222267 19.048442061086746 -14.51055337246268 192.43800420195433 0.0 0.0
-55.80604893969032 -6.332530664195274 -18.66180560873871 192.57084747899853 0.0 0.0
0.6121604304284642 -64.76620188194488 -19.09368880506426 179.32427289192242 0.0 0.0
-116.47970462290645 -483.22942768561745 -180.93097927503376 115.40746140023563 0.0 0.0
-97.79733341758364 -369.257515275076 -140.0914630398732 -110.54897376435073 0.0 0.0
-27.863807336075425 -72.38537674474432 -30.068001076091395 -165.01773180662298 0.0 0.0
-80.34835586003058 -5.4233860956042585 -25.718367312972447 -188.295946510108 0.0 0.0
-110.00198200637848 17.65660334051796 -27.746053286897745 -188.71234271655874 0.0 0.0
-144.67470346288016 21.798963711955953 -36.83260397875988 -192.944855390734 0.0 0.0
-204.55021116308885 13.844344093244747 -57.90551051937314 -203.2950670166648 0.0 0.0
-306.5447186911181 -1.7787903100833198 -101.87088046474622 -202.92917526623165 0.0 0.0
-431.4119347920457 -17.439913621674307 -173.34278476580315 -189.18629128363247 0.0 0.0
-533.2949476192674 -25.536320565431822 -246.61979185911525 -175.1536299514541 0.0 0.0
-601.7526268260362 -22.676704405965502 -293.91545874657714 -168.25815802313343 0.0 0.0
-654.0856475350629 -23.812292485940745 -326.19673459556407 -163.17473192315734 0.0 0.0
-701.2313479678567 -29.632780874672008 -354.3113801257713 -159.48952609949134 0.0 0.0
-744.5231415343743 -37.815862840543076 -380.7642571652307 -155.94486832576746 0.0 0.0
-780.140437814473 -42.90033988437142 -401.46874966406176 -153.32247498836492 0.0 0.0
-805.4169199902929 -42.3060948677535 -413.995234288181 -152.57018723778387 0.0 0.0
-817.6823943049824 -34.076300696646086 -415.9666674277969 -154.00316678551883 0.0 0.0
-818.6350026833836 -20.995212401849727 -409.44220006630064 -157.82388155810492 0.0 0.0
-808.6948971856137 -5.109292781746689 -395.95527258674815 -163.82627695346315 0.0 0.0
-756.3654339738987 44.7364438662228 -344.29676832552764 -170.71693259687066 0.0 0.0
-622.2073470430512 161.2116331453533 -220.44335852005793 -178.35221110651023 0.0 0.0
-2202.6193323750736 -1648.033791861072 -1896.609173553867 8.517986316292081e-11 0.0 0.0
-622.2073470448249 161.21163314314725 -220.4433585214551 178.35221110698797 0.0 0.0
-756.3654339747038 44.73644386513243 -344.29676832610653 170.71693259720578 0.0 0.0
-808.6948971850275 -5.109292780949602 -395.95527258646723 163.82627695356098 0.0 0.0
-818.6350026845756 -20.99521240366593 -409.4422000673219 157.8238815584729 0.0 0.0
-817.682394304054 -34.07630069565971 -415.96666742710687 154.0031667854577 0.0 0.0
-805.4169199892465 -42.30609486665383 -413.9952342874259 152.57018723763048 0.0 0.0
-780.1404378140946 -42.90033988414485 -401.46874966386935 153.32247498850512 0.0 0.0
-744.5231415338284 -37.815862839911205 -380.76425716494936 155.94486832556245 0.0 0.0
-701.2313479674699 -29.63278087450899 -354.31138012549593 159.4895260993968 0.0 0.0
-654.0856475337829 -23.812292484649745 -326.1967345947411 163.17473192278777 0.0 0.0
-601.7526268260684 -22.676704406315952 -293.915458746619 168.2581580231483 0.0 0.0
-533.2949476190944 -25.53632056579374 -246.61979185894995 175.1536299515399 0.0 0.0
-431.4119347911569 -17.43991362125837 -173.34278476517596 189.1862912836053 0.0 0.0
-306.5447186898521 -1.7787903087251495 -101.87088046389843 202.92917526611615 0.0 0.0
-204.55021116274318 13.844344093145605 -57.90551051929022 203.29506701649336 0.0 0.0
-144.67470346282408 21.798963711463795 -36.832603978906434 192.94485539047486 0.0 0.0
-110.00198200646214 17.656603340154074 -27.746053287033348 188.71234271621785 0.0 0.0
-80.3483558598579 -5.423386095372799 -25.71836731285704 188.2959465099274 0.0 0.0
-27.86380733608849 -72.38537674500904 -30.068001076174895 165.0177318065938 0.0 0.0
-97.79733341727326 -369.2575152745416 -140.09146303960432 110.54897376436018 0.0 0.0
-80.36831026401126 -274.0677184212644 -106.33080860558269 -99.89595314500477 0.0 0.0
-47.23425150142782 -73.13981505279258 -36.11180429926147 -150.73902324061228 0.0 0.0
-103.0187369647054 -5.027316187130255 -32.37790383830359 -179.7740464888181 0.0 0.0
-151.0894122351974 16.408050675320855 -40.37672345045951 -180.92224276586745 0.0 0.0
-207.0831500859906 21.606194255070488 -55.7434880745994 -180.84458219545786 0.0 0.0
-298.79711380808624 9.492404234118336 -90.791517090416 -180.42922835740654 0.0 0.0
-429.4609818158924 -18.324608217308466 -163.31429055845908 -173.09578396926597 0.0 0.0
-551.3676290367102 -41.072466905800496 -257.2526053127218 -161.18215166441902 0.0 0.0
-639.012557557123 -45.702477697006294 -325.6840728723994 -155.10968142517254 0.0 0.0
-699.3751134308118 -42.2115489247074 -362.7869716452577 -151.4717610279203 0.0 0.0
-750.2118283244632 -45.34251965489784 -391.57112509317545 -147.8734922971068 0.0 0.0
-799.8888430035323 -53.91632660949698 -421.1328825839911 -144.57938644912926 0.0 0.0
-847.4534292830629 -64.79181447757625 -450.5987702717976 -141.01930804499278 0.0 0.0
-888.7163838159953 -73.65537527873872 -475.91252066207755 -138.18273615506467 0.0 0.0
-919.647515800772 -76.17151271480748 -492.8537226633757 -137.3442137622823 0.0 0.0
-936.4325558085809 -69.7716380299129 -498.1398944215633 -139.31231814431567 0.0 0.0
-938.1676153949737 -53.54245349060287 -490.9211298380495 -143.84361301070365 0.0 0.0
-915.836429293875 -19.90150748859304 -462.85699117953834 -149.10287713649257 0.0 0.0
-854.6413002777598 44.39269809780913 -400.5101579233855 -152.76644577690854 0.0 0.0
-678.2885056660555 210.4788717401093 -231.58597633921943 -151.91089252776706 0.0 0.0
-2641.87706371178 -1874.3640412120728 -2236.8665184697456 2.6609825454215752e-11 0.0 0.0
-678.2885056681534 210.47887173752724 -231.58597634054223 151.91089252833493 0.0 0.0
-854.6413002764747 44.392698098983445 -400.51015792254145 152.76644577707341 0.0 0.0
-915.8364292949592 -19.901507489880544 -462.85699118027486 149.10287713676712 0.0 0.0
-938.1676153956939 -53.54245349161893 -490.9211298386832 143.84361301094648 0.0 0.0
-936.4325558081769 -69.7716380293792 -498.13989442133993 139.31231814412484 0.0 0.0
-919.6475158006546 -76.17151271493094 -492.85372266327624 137.34421376229542 0.0 0.0
-888.7163838168631 -73.65537527996898 -475.9125206626584 138.18273615531035 0.0 0.0
-847.4534292825845 -64.79181447725472 -450.59877027160314 141.0193080449767 0.0 0.0
-799.8888430036487 -53.91632660996181 -421.13288258407863 144.5793864492572 0.0 0.0
-750.2118283231 -45.34251965347436 -391.5711250923697 147.8734922967996 0.0 0.0
-699.375113430537 -42.21154892464776 -362.78697164507196 151.47176102774762 0.0 0.0
-639.0125575567092 -45.70247769701817 -325.6840728720685 155.10968142518527 0.0 0.0
-551.3676290353649 -41.07246690444373 -257.2526053116778 161.18215166426333 0.0 0.0
-429.4609818153036 -18.324608217163814 -163.31429055803298 173.09578396921927 0.0 0.0
-298.79711380761034 9.492404233999117 -90.79151709026084 180.4292283573585 0.0 0.0
-207.08315008577011 21.6061942548152 -55.743488074620956 180.84458219537652 0.0 0.0
-151.08941223482583 16.408050675671596 -40.37672345025224 180.92224276555245 0.0 0.0
-103.01873696449837 -5.027316187028342 -32.377903838207814 179.77404648890598 0.0 0.0
-47.23425150136133 -73.13981505292026 -36.11180429928223 150.73902324058926 0.0 0.0
-80.3683102637902 -274.0677184208264 -106.33080860538496 99.89595314475788 0.0 0.0
-65.47207791054765 -194.58138140568116 -78.01603779486864 -86.16533611733514 0.0 0.0
-61.64693404829049 -68.66962132071447 -39.09517086177805 -134.78940844691985 0.0 0.0
-123.95057475522854 -4.802745050235625 -38.600866861073825 -166.9328006863188 0.0 0.0
-189.85921513520162 14.322180904518595 -52.63423650522461 -167.9053820958835 0.0 0.0
-269.400923049387 19.226232270581075 -75.43515832182703 -164.07306861585255 0.0 0.0
-389.28701234932765 -0.1442109322712728 -128.32596808853586 -154.40800397804492 0.0 0.0
-527.0342115664629 -37.33429716084435 -225.84836411562463 -142.3954338953112 0.0 0.0
-639.2999545199588 -57.67752546181564 -323.0025702261535 -136.85826486984712 0.0 0.0
-716.612215221654 -60.07960837597976 -379.84923391094225 -134.58246249165325 0.0 0.0
-772.4072780701713 -61.74145071709013 -412.778580491693 -132.2921321727972 0.0 0.0
-825.766095177522 -66.47729292201103 -442.3528342249102 -130.6203169684628 0.0 0.0
-878.0201492819464 -77.05862824023694 -473.9016140259739 -127.83990317024171 0.0 0.0
-929.4137225686463 -91.20819361556656 -506.8213877341635 -124.49884003134815 0.0 0.0
-976.5166358824863 -104.69287702780488 -537.301585860236 -121.58000304059618 0.0 0.0
-1013.5814688280119 -111.99884810135163 -559.6904769857472 -120.54966811018878 0.0 0.0
-1034.0851235663667 -106.65880487307516 -567.4404414408557 -122.57116229358193 0.0 0.0
-1030.2530877873548 -83.19578224148148 -553.9278222384962 -126.74881520028512 0.0 0.0
-993.5064355020459 -32.03225766601267 -510.13545201561067 -131.1108706579957 0.0 0.0
-900.7362032587946 67.035915887243 -414.86100932283705 -132.22937612355048 0.0 0.0
-710.2329537609061 249.8167045361164 -229.4976848636938 -128.6699750189137 0.0 0.0
-2991.702544601822 -2112.4740047766977 -2535.9423760233303 -4.1175951537297806e-11 0.0 0.0
-710.2329537608462 249.8167045359594 -229.49768486356186 128.6699750191528 0.0 0.0
-900.7362032576657 67.0359158883399 -414.861009321967 132.22937612367238 0.0 0.0
-993.5064355012123 -32.03225766532185 -510.135452014984 131.11087065815283 0.0 0.0
-1030.2530877868442 -83.19578224115892 -553.927822238275 126.74881520036185 0.0 0.0
-1034.0851235669443 -106.6588048737458 -567.4404414411911 122.57116229367541 0.0 0.0
-1013.5814688277005 -111.99884810137885 -559.6904769853969 120.54966811032745 0.0 0.0
-976.5166358822274 -104.6928770277417 -537.3015858600405 121.58000304067096 0.0 0.0
-929.4137225680984 -91.20819361504228 -506.82138773385634 124.49884003114897 0.0 0.0
-878.0201492812171 -77.05862823979506 -473.9016140254659 127.83990317017923 0.0 0.0
-825.7660951781329 -66.47729292296644 -442.35283422536065 130.6203169685834 0.0 0.0
-772.4072780694117 -61.74145071653539 -412.77858049124524 132.29213217267898 0.0 0.0
-716.6122152206254 -60.07960837529157 -379.84923391022187 134.58246249163687 0.0 0.0
-639.2999545194893 -57.67752546166914 -323.00257022571816 136.85826486983964 0.0 0.0
-527.0342115656719 -37.334297160522325 -225.8483641150329 142.3954338953334 0.0 0.0
-389.2870123490017 -0.1442109324992238 -128.32596808837826 154.40800397804568 0.0 0.0
-269.4009230489843 19.22623227063817 -75.43515832170142 164.0730686156774 0.0 0.0
-189.85921513497863 14.322180904716745 -52.634236505108454 167.90538209583312 0.0 0.0
-123.9505747552135 -4.802745050169343 -38.60086686105421 166.93280068620467 0.0 0.0
-61.64693404836817 -68.6696213207355 -39.09517086180733 134.78940844671249 0.0 0.0
-65.472077910482 -194.5813814054363 -78.01603779477549 86.16533611729965 0.0 0.0
-54.21372792176345 -129.9974025969949 -55.2633391556275 -71.33021950970745 0.0 0.0
-72.76915056370338 -60.420859798861386 -39.95700310876943 -116.58295438271611 0.0 0.0
-143.4174789685557 -4.340954288412714 -44.31853944845247 -149.88516331838153 0.0 0.0
-227.1236250670181 11.68605164227658 -64.48524763161005 -150.89448265986624 0.0 0.0
-330.39958792576545 12.572112746721565 -97.20880558575003 -140.4911509350671 0.0 0.0
-470.32878617184736 -14.97563795022543 -170.63974530446217 -125.17531476103625 0.0 0.0
-605.1545764545542 -53.017226803465434 -283.0473763189482 -115.7543101994449 0.0 0.0
-706.7246142486205 -69.06581837933503 -372.42366228478113 -113.88089324577582 0.0 0.0
-775.8046572013286 -75.81722199116578 -421.2921132494404 -112.85526705212098 0.0 0.0
-834.9586242789316 -79.20359844180147 -454.3710396291782 -113.13664563611069 0.0 0.0
-889.9290554725811 -86.91223850908605 -485.89283027626794 -112.05054428159283 0.0 0.0
-945.0586633311526 -100.09705904734312 -520.1101296479676 -109.77792726275061 0.0 0.0
-999.9981770238422 -117.24579420036815 -556.2396686411747 -106.89650053929311 0.0 0.0
-1052.222846824282 -134.95242385100406 -591.3195964051584 -104.1301976036859 0.0 0.0
-1096.0204743524941 -147.74765418200815 -619.7928527771339 -102.74043314917056 0.0 0.0
-1119.2217429121472 -143.99350266126186 -629.7503772392511 -103.98523649673369 0.0 0.0
-1108.3746958234358 -110.49906511395596 -607.8006538445018 -107.6188934759396 0.0 0.0
-1049.8429089860792 -36.168641498606405 -541.6570539228501 -111.06742314992486 0.0 0.0
-930.7009865819969 89.85701115687546 -419.5636785682716 -111.64374696301003 0.0 0.0
-737.4005649527237 275.6729094570142 -230.62813858509196 -110.09212814825368 0.0 0.0
-3286.7018528005597 -2334.2226187234683 -2797.7387550787707 4.973799150320701e-12 0.0 0.0
-737.4005649526864 275.6729094569404 -230.62813858535566 110.09212814836549 0.0 0.0
-930.7009865830353 89.85701115566997 -419.56367856906473 111.64374696331068 0.0 0.0
-1049.8429089850501 -36.1686414977699 -541.6570539221499 111.06742315010047 0.0 0.0
-1108.3746958235058 -110.49906511413133 -607.8006538447222 107.618893476117 0.0 0.0
-1119.2217429131463 -143.99350266249797 -629.7503772400105 103.98523649687968 0.0 0.0
-1096.0204743522809 -147.74765418203302 -619.7928527769641 102.74043314928188 0.0 0.0
-1052.222846823436 -134.9524238503514 -591.3195964045648 104.13019760375659 0.0 0.0
-999.9981770241077 -117.24579420080596 -556.2396686413946 106.89650053931295 0.0 0.0
-945.058663329128 -100.09705904543668 -520.1101296466563 109.77792726252952 0.0 0.0
-889.9290554738799 -86.91223851073994 -485.892830277205 112.0505442816026 0.0 0.0
-834.9586242783969 -79.20359844158298 -454.37103962886425 113.13664563613486 0.0 0.0
-775.804657200573 -75.8172219907005 -421.29211324891736 112.85526705209398 0.0 0.0
-706.7246142489922 -69.0658183801366 -372.42366228494666 113.8808932458464 0.0 0.0
-605.1545764542099 -53.01722680348536 -283.04737631850287 115.75431019934003 0.0 0.0
-470.328786171715 -14.975637950685057 -170.6397453043408 125.17531476100874 0.0 0.0
-330.399587925146 12.57211274724128 -97.20880558539824 140.49115093482305 0.0 0.0
-227.1236250670231 11.686051641905921 -64.48524763173293 150.89448265975173 0.0 0.0
-143.41747896838223 -4.340954288280839 -44.31853944835961 149.88516331821708 0.0 0.0
-72.76915056354059 -60.420859798840475 -39.95700310871431 116.58295438249873 0.0 0.0
-54.2137279214666 -129.99740259669545 -55.2633391554486 71.33021950971317 0.0 0.0
-46.563082931734414 -79.87285131955628 -37.9307802753872 -56.081822482959275 0.0 0.0
-81.33301473365198 -49.81933139723446 -39.34570383926592 -96.23189888391558 0.0 0.0
-161.64414423312382 -3.4054537792037105 -49.515386902171784 -128.62508999643742 0.0 0.0
-263.28927228369423 7.350767997625082 -76.6342402888464 -128.83121678869927 0.0 0.0
-392.8330197965533 3.4517349056611604 -121.60285998382047 -113.7548533227397 0.0 0.0
-537.7658141022042 -33.02949979989675 -215.80922033654707 -94.94615696432243 0.0 0.0
-666.9616564827719 -63.572440312831006 -330.93513606994145 -91.50028447443471 0.0 0.0
-756.8559522869632 -80.75488884845993 -409.92917445974905 -90.79835103094521 0.0 0.0
-828.1241918634053 -89.40823493279058 -456.03274372791304 -91.9896804304284 0.0 0.0
-888.9305935868006 -96.7112859922649 -490.9939978827083 -92.96006579041554 0.0 0.0
-947.0618515058986 -107.54652126474477 -525.5379290704764 -92.3719185572973 0.0 0.0
-1005.0248308427765 -123.17285612465008 -562.368599474309 -90.66464675565564 0.0 0.0
-1062.7965335671684 -142.58467069340222 -601.0150059405756 -88.42938985669295 0.0 0.0
-1118.732282188444 -164.05169546774488 -639.7782277486847 -86.01939949658643 0.0 0.0
-1167.9601941666556 -181.11389437140085 -673.0576089753716 -84.17456654184225 0.0 0.0
-1195.726699115885 -180.15381545731745 -686.7111351966317 -84.21537371296222 0.0 0.0
-1179.100570345221 -139.82746485062682 -658.5537594296347 -86.64986525435849 0.0 0.0
-1100.2986057694666 -43.82736241554565 -571.4585251764397 -89.91633617961195 0.0 0.0
-957.1970624068756 106.7186093583441 -424.94821336492294 -92.25920422986458 0.0 0.0
-755.0383037722708 300.85195846475875 -227.05804591679794 -94.58941165169364 0.0 0.0
-3538.233579313786 -2531.540337596207 -3024.622796381639 1.1180389947185176e-11 0.0 0.0
-755.0383037727182 300.8519584641554 -227.05804591732874 94.58941165190043 0.0 0.0
-957.1970624089003 106.71860935623288 -424.948213366377 92.25920423007976 0.0 0.0
-1100.2986057686953 -43.82736241486944 -571.4585251759844 89.91633617962049 0.0 0.0
-1179.1005703470282 -139.82746485259943 -658.5537594311219 86.64986525447829 0.0 0.0
-1195.7266991160573 -180.1538154576919 -686.7111351966976 84.21537371316887 0.0 0.0
-1167.9601941661344 -181.1138943710266 -673.057608975042 84.17456654172317 0.0 0.0
-1118.7322821879688 -164.05169546749966 -639.7782277483458 86.019399496659 0.0 0.0
-1062.7965335673823 -142.58467069397136 -601.0150059408279 88.42938985695837 0.0 0.0
-1005.0248308409482 -123.17285612297513 -562.3685994731499 90.66464675559698 0.0 0.0
-947.0618515057395 -107.54652126487022 -525.537929070425 92.37191855724501 0.0 0.0
-888.9305935861915 -96.71128599192494 -490.9939978823372 92.9600657904069 0.0 0.0
-828.1241918622999 -89.40823493189227 -456.03274372720546 91.98968043026592 0.0 0.0
-756.8559522872754 -80.75488884920779 -409.92917445986745 90.79835103101077 0.0 0.0
-666.9616564827513 -63.57244031314393 -330.935136069685 91.5002844742224 0.0 0.0
-537.7658141017836 -33.02949980008129 -215.80922033621368 94.94615696449996 0.0 0.0
-392.8330197958958 3.451734906084499 -121.60285998345587 113.75485332258785 0.0 0.0
-263.2892722836681 7.350767997153522 -76.63424028898864 128.83121678859754 0.0 0.0
-161.64414423298655 -3.4054537790531936 -49.51538690208538 128.62508999627428 0.0 0.0
-81.33301473363615 -49.81933139737219 -39.345703839302494 96.23189888395821 0.0 0.0
-46.563082931546155 -79.87285131932548 -37.93078027526148 56.08182248285272 0.0 0.0
-41.89527317282479 -43.90130456342675 -25.738973320875466 -40.899726910194985 0.0 0.0
-87.39153071815309 -38.173869208337294 -37.669619977947114 -73.97237348056045 0.0 0.0
-178.6548221819204 -2.109398932909019 -54.22948681215308 -102.98937722004965 0.0 0.0
-300.3507058724233 1.6289158564821367 -89.42771651369004 -101.98736075599666 0.0 0.0
-452.2273060052467 -9.914320238318622 -149.83908920694924 -82.99467350119568 0.0 0.0
-598.1330033947462 -46.49369181681243 -259.4878101830936 -69.41001468670628 0.0 0.0
-712.6024277309452 -72.95444778766202 -369.40531843985605 -68.46807899684718 0.0 0.0
-799.5732829535397 -90.42957297786936 -439.63063107535834 -68.62742614151844 0.0 0.0
-872.9583659673431 -103.23996976008125 -486.3598825785078 -70.5783690582073 0.0 0.0
-937.3663466007044 -114.4038039869585 -524.6110967563517 -71.88755909265319 0.0 0.0
-998.6191274004577 -128.34081636660292 -562.2379035906763 -71.72083289763712 0.0 0.0
-1059.6395670055658 -146.5450901268495 -601.8698388347881 -70.57756604326087 0.0 0.0
-1119.7628852513458 -168.30474967516895 -642.855089793297 -68.99409218724495 0.0 0.0
-1177.3689710862418 -190.19722337763162 -682.6384318120428 -67.22189746830145 0.0 0.0
-1228.836032574036 -209.31918355487431 -718.0121891290141 -65.19474446089676 0.0 0.0
-1262.625254357773 -213.80148537265092 -737.3627811816915 -63.70096861091089 0.0 0.0
-1250.4730030070682 -176.3132305134573 -712.8937445629007 -64.44120458220708 0.0 0.0
-1158.0389518612988 -65.48886784334493 -611.601678986839 -68.04608620445607 0.0 0.0
-985.8592802487924 114.7096338459534 -435.6371582046915 -73.38660720892852 0.0 0.0
-758.3344323939348 334.5190038642584 -212.01446576431138 -80.66576059730289 0.0 0.0
-3746.2888387270195 -2694.897448817246 -3212.2259261782356 -1.9884538460246404e-11 0.0 0.0
-758.3344323927074 334.5190038654552 -212.01446576356784 80.6657605972235 0.0 0.0
-985.8592802494807 114.70963384511244 -435.6371582051591 73.38660720911754 0.0 0.0
-1158.0389518621982 -65.48886784435004 -611.6016789875275 68.04608620461777 0.0 0.0
-1250.4730030069115 -176.3132305134052 -712.8937445628951 64.44120458213965 0.0 0.0
-1262.6252543583091 -213.80148537338437 -737.362781181957 63.70096861104657 0.0 0.0
-1228.83603257142 -209.31918355236485 -718.0121891273275 65.19474446076677 0.0 0.0
-1177.368971085679 -190.19722337723016 -682.6384318116613 67.22189746817294 0.0 0.0
-1119.7628852513853 -168.3047496754513 -642.8550897933828 68.99409218726832 0.0 0.0
-1059.6395670042498 -146.54509012570014 -601.8698388338634 70.57756604310978 0.0 0.0
-998.6191273997927 -128.34081636615895 -562.2379035902593 71.72083289751745 0.0 0.0
-937.3663466006377 -114.40380398713086 -524.6110967563118 71.88755909249385 0.0 0.0
-872.9583659662165 -103.23996975918506 -486.35988257783447 70.5783690580335 0.0 0.0
-799.5732829532521 -90.42957297792651 -439.6306310751087 68.6274261415271 0.0 0.0
-712.6024277306493 -72.95444778774419 -369.405318439487 68.46807899674 0.0 0.0
-598.133003394134 -46.49369181664988 -259.48781018253663 69.41001468682693 0.0 0.0
-452.2273060045957 -9.914320237748605 -149.83908920650805 82.99467350096693 0.0 0.0
-300.3507058723607 1.6289158557689989 -89.42771651390642 101.98736075604106 0.0 0.0
-178.65482218154577 -2.109398932592421 -54.22948681194545 102.98937721996572 0.0 0.0
-87.39153071807718 -38.17386920829976 -37.66961997791308 73.97237348057712 0.0 0.0
-41.89527317286086 -43.90130456339737 -25.738973320877466 40.899726910117586 0.0 0.0
-38.9590726037165 -21.67780892797431 -18.19106445950724 -26.601208691385313 0.0 0.0
-90.28217053492972 -26.79459259551035 -35.123028939132006 -50.11985185422803 0.0 0.0
-194.16399556677112 -1.0364709838103532 -58.56013996517444 -72.33135822231053 0.0 0.0
-339.82265936328423 -5.050315734676801 -103.35002365492919 -69.75656461121584 0.0 0.0
-506.70221230139214 -26.048927173335386 -181.9496369204567 -51.99122443101912 0.0 0.0
-645.7651603767548 -56.391030426500066 -299.0618321201512 -46.17200583278699 0.0 0.0
-747.1652541034839 -80.53982057135721 -398.5803265752484 -45.971468801455075 0.0 0.0
-836.4966331612707 -100.64852529848605 -465.2616940005672 -46.85302194935039 0.0 0.0
-913.0724430258141 -117.73379193020752 -514.2095055554278 -48.61279698414951 0.0 0.0
-981.1006608164281 -132.47247034495675 -555.8891775151344 -49.94157026163415 0.0 0.0
-1045.8267817697647 -149.3546839383784 -596.7257681991413 -50.156185946259924 0.0 0.0
-1109.5682133299733 -170.06208174382513 -638.9660003528595 -49.56152218966868 0.0 0.0
-1172.085576462548 -193.00742237858412 -681.7289988804147 -48.68071380416924 0.0 0.0
-1230.1689152481222 -215.63827315635652 -722.1293975480132 -47.513267317851906 0.0 0.0
-1280.0850771824703 -232.66949943993933 -755.6681660390606 -45.78327269130103 0.0 0.0
-1314.5910567260594 -237.3303897041444 -775.3603962202094 -43.472855856210245 0.0 0.0
-1317.8798901374653 -214.64755739330087 -765.8911272587857 -42.11241685794935 0.0 0.0
-1246.645143638967 -123.64585833705524 -685.1766183708376 -44.895623878277846 0.0 0.0
-1034.0850346883892 98.50062504132495 -468.14859306418396 -53.65013101161776 0.0 0.0
-731.8706201681287 394.28069013623553 -169.08554641864262 -67.13591296532624 0.0 0.0
-3897.0314866964786 -2806.5365221917336 -3344.9819732914193 1.978737174113121e-10 0.0 0.0
-731.8706201664957 394.28069013790116 -169.085546417486 67.13591296540707 0.0 0.0
-1034.085034687615 98.50062504202009 -468.14859306367595 53.6501310116126 0.0 0.0
-1246.6451436402037 -123.64585833839931 -685.1766183717009 44.895623878280716 0.0 0.0
-1317.8798901360433 -214.64755739199157 -765.8911272579104 42.11241685800062 0.0 0.0
-1314.5910567259816 -237.33038970424334 -775.3603962201229 43.4728558563116 0.0 0.0
-1280.0850771811893 -232.66949943880653 -755.6681660383439 45.783272691355904 0.0 0.0
-1230.1689152478027 -215.6382731562107 -722.1293975477345 47.513267317713954 0.0 0.0
-1172.0855764624444 -193.00742237873166 -681.7289988803938 48.68071380426824 0.0 0.0
-1109.568213329188 -170.06208174327134 -638.9660003523134 49.56152218961728 0.0 0.0
-1045.8267817694054 -149.35468393825033 -596.7257681989549 50.1561859461557 0.0 0.0
-981.1006608160181 -132.4724703448759 -555.8891775148222 49.94157026161088 0.0 0.0
-913.0724430260829 -117.73379193077581 -514.2095055556352 48.61279698420693 0.0 0.0
-836.4966331600123 -100.64852529757246 -465.26169399972645 46.85302194931458 0.0 0.0
-747.1652541033513 -80.53982057161232 -398.58032657504043 45.97146880158397 0.0 0.0
-645.7651603756244 -56.39103042564308 -299.06183211922917 46.17200583267955 0.0 0.0
-506.7022123009232 -26.048927173193395 -181.94963692012294 51.99122443093722 0.0 0.0
-339.8226593630834 -5.050315735091248 -103.35002365499918 69.75656461116031 0.0 0.0
-194.16399556644464 -1.0364709834213044 -58.56013996495977 72.33135822221983 0.0 0.0
-90.28217053479986 -26.794592595323937 -35.12302893903713 50.11985185414841 0.0 0.0
-38.95907260375666 -21.6778089280547 -18.191064459543405 26.60120869137845 0.0 0.0
-35.338609194961016 -12.118022996586737 -14.236989657464322 -14.899243927245811 0.0 0.0
-88.48998385990838 -17.484766100375154 -31.792424988085067 -25.119650763294104 0.0 0.0
-207.91227132052222 -1.364362478659471 -62.78299013975449 -35.07960254035289 0.0 0.0
-380.5820261368768 -11.93786922382558 -118.97989933346517 -32.1278630922423 0.0 0.0
-557.5605872851444 -39.53540470991533 -215.57602641288852 -23.93659021112879 0.0 0.0
-680.7496475509699 -63.55870290867034 -332.221164420082 -24.484418114884882 0.0 0.0
-777.6617530970366 -86.30791933867988 -421.7518993364022 -24.906893539636307 0.0 0.0
-868.6445718295697 -111.3262145561226 -487.8126343719275 -25.254931648227146 0.0 0.0
-949.0463634293965 -132.52018479540436 -539.9013550648508 -26.17154966908188 0.0 0.0
-1021.0496007341354 -151.19764345643787 -585.507678729007 -27.162225769184055 0.0 0.0
-1088.9189204393124 -170.6966472985676 -629.2337534894314 -27.662624881264506 0.0 0.0
-1155.4342775479226 -193.04266689831317 -673.6746330444303 -27.685985438971542 0.0 0.0
-1219.8566009334193 -217.9446261984194 -718.3656603139607 -27.381796804591243 0.0 0.0
-1278.6366827320037 -240.18424616960465 -758.9223775833177 -26.82216847233645 0.0 0.0
-1325.0097351856914 -253.34466308122694 -788.7632495503233 -25.754612873414313 0.0 0.0
-1353.2876274952112 -251.80715448904732 -802.2067540882872 -23.797716268153152 0.0 0.0
-1362.0033624055657 -234.6138329193219 -797.9880615559618 -21.36936959514893 0.0 0.0
-1344.2381259575802 -196.13033698604977 -770.0032894223809 -21.43833076921151 0.0 0.0
-1204.9542779414314 -44.438327160004945 -625.1069650946029 -30.154823849588148 0.0 0.0
-697.9759698371709 459.59516466544784 -119.88377571994306 -51.28636842835542 0.0 0.0
-3824.6463700558397 -2697.41345407762 -3255.8027888446513 2.5446311724408588e-11 0.0 0.0
-697.9759698380191 459.59516466458507 -119.88377572044351 51.2863684284592 0.0 0.0
-1204.954277940054 -44.43832715873282 -625.1069650935384 30.154823849653628 0.0 0.0
-1344.2381259578412 -196.1303369864189 -770.0032894225956 21.43833076932811 0.0 0.0
-1362.003362405771 -234.61383291964881 -797.9880615561815 21.36936959526394 0.0 0.0
-1353.2876274940563 -251.80715448809258 -802.2067540874086 23.797716268391795 0.0 0.0
-1325.0097351867041 -253.344663082384 -788.7632495508435 25.754612873533354 0.0 0.0
-1278.6366827295556 -240.18424616736155 -758.9223775816421 26.82216847216202 0.0 0.0
-1219.8566009337314 -217.94462619900582 -718.3656603143611 27.381796804911737 0.0 0.0
-1155.434277547508 -193.04266689813727 -673.6746330442511 27.685985438979934 0.0 0.0
-1088.9189204383465 -170.69664729788576 -629.2337534888435 27.662624881356386 0.0 0.0
-1021.0496007338414 -151.19764345644143 -585.5076787287368 27.162225769247826 0.0 0.0
-949.0463634305818 -132.5201847969218 -539.9013550656238 26.171549669136223 0.0 0.0
-868.6445718285045 -111.32621455539345 -487.81263437124363 25.25493164841868 0.0 0.0
-777.6617530973181 -86.3079193393051 -421.7518993364598 24.90689353961161 0.0 0.0
-680.7496475500092 -63.55870290804666 -332.22116441930507 24.484418114901647 0.0 0.0
-557.5605872848226 -39.535404709984626 -215.5760264125778 23.936590211132742 0.0 0.0
-380.5820261366007 -11.937869223982593 -118.97989933342534 32.12786309231962 0.0 0.0
-207.9122713201778 -1.364362478362752 -62.78299013956215 35.079602540196674 0.0 0.0
-88.48998385984673 -17.48476610037954 -31.792424988067882 25.11965076330182 0.0 0.0
-35.33860919499862 -12.118022996684589 -14.23698965750496 14.899243927201546 0.0 0.0
-23.759355209252426 -6.358560901337654 -9.035374833177022 -8.990919150172289 0.0 0.0
-77.82336426878805 -10.047694192041321 -26.361317538248805 -10.443679735774516 0.0 0.0
-219.63409679744785 -4.339235931795013 -67.19199981877283 -11.286781698923297 0.0 0.0
-430.1047381870061 -34.70509228841188 -144.28651924141755 -6.236977834295919 0.0 0.0
-636.4595449828078 -95.55701605188564 -274.7478162919105 1.3264061071573323 0.0 0.0
-791.3311577473797 -156.07319169432753 -427.1268737808815 1.3855417630121707 0.0 0.0
-934.5992357763585 -227.91250531381536 -561.1085814994135 0.09167096596077684 0.0 0.0
-1086.8436737924183 -315.6614473403718 -688.4889925663208 -1.5398498902595676 0.0 0.0
-1249.370260934443 -419.6151353172171 -823.1672912176349 -3.4706438338944388 0.0 0.0
-1431.7024982318007 -548.2505508039974 -978.6574181322148 -5.542679883633605 0.0 0.0
-1640.1639928348502 -707.6432353819248 -1162.1702412325744 -7.400733151636569 0.0 0.0
-1874.1491357307407 -897.4242513171816 -1373.5908854371487 -8.786331164103105 0.0 0.0
-2125.8052367912514 -1108.5600618138044 -1604.5750549754785 -9.704122833827302 0.0 0.0
-2382.466329306222 -1328.2172906497715 -1842.4344493490087 -10.365273719656335 0.0 0.0
-2625.3189809790088 -1537.5156397712858 -2068.3301749594016 -10.538301559213739 0.0 0.0
-2829.609548122293 -1711.9228332087537 -2257.613309388398 -9.92361943836173 0.0 0.0
-2969.42671407748 -1826.1103895201463 -2384.5392867534197 -8.341744877305562 0.0 0.0
-3043.2648875726404 -1879.2801558986255 -2447.491754998483 -7.6176069719758885 0.0 0.0
-3144.4493956903443 -1966.251544118381 -2540.0849314423863 -15.783211288830703 0.0 0.0
-3284.9687622796196 -2105.4379620207 -2677.881629369417 -41.481777812565525 0.0 0.0
-6955.67267531209 -5800.370760947806 -6354.709909180103 -5.3930193644191604e-11 0.0 0.0
-3284.9687622808815 -2105.4379620220475 -2677.8816293701093 41.48177781279311 0.0 0.0
-3144.449395687574 -1966.2515441156954 -2540.0849314399975 15.783211289073225 0.0 0.0
-3043.2648875719633 -1879.2801558980443 -2447.49175499764 7.617606972055469 0.0 0.0
-2969.426714077147 -1826.110389519916 -2384.5392867528526 8.34174487709496 0.0 0.0
-2829.6095481205884 -1711.9228332071973 -2257.6133093869457 9.923619438170668 0.0 0.0
-2625.318980978662 -1537.5156397711867 -2068.3301749585303 10.538301559207788 0.0 0.0
-2382.4663293004633 -1328.217290644098 -1842.4344493447966 10.365273719509283 0.0 0.0
-2125.8052367907226 -1108.5600618135547 -1604.575054974917 9.704122833953242 0.0 0.0
-1874.1491357297582 -897.424251316442 -1373.5908854362692 8.78633116399709 0.0 0.0
-1640.1639928327263 -707.6432353800558 -1162.1702412309546 7.400733151676427 0.0 0.0
-1431.7024982318753 -548.2505508044096 -978.6574181319298 5.542679883664995 0.0 0.0
-1249.370260935421 -419.6151353185103 -823.1672912180429 3.4706438337985652 0.0 0.0
-1086.8436737917173 -315.66144734002586 -688.4889925657109 1.5398498903909825 0.0 0.0
-934.5992357759452 -227.91250531372657 -561.1085814989466 -0.0916709661488504 0.0 0.0
-791.3311577467439 -156.07319169404838 -427.1268737802133 -1.3855417628714548 0.0 0.0
-636.4595449820382 -95.55701605143645 -274.7478162912652 -1.3264061072457807 0.0 0.0
-430.10473818681874 -34.70509228855462 -144.28651924135315 6.236977834645856 0.0 0.0
-219.63409679735548 -4.339235931849437 -67.19199981876145 11.286781698765054 0.0 0.0
-77.82336426871478 -10.047694192170804 -26.361317538265677 10.443679735940352 0.0 0.0
-23.75935520917939 -6.358560901412023 -9.03537483317742 8.990919150004164 0.0 0.0
SCALARS Strain float 6
LOOKUP_TABLE default
0.016223160436187274 -0.026552108635423254 0.0 -0.0018655654190648458 0.0 0.0
0.010001360176943884 -0.0033399306119283314 0.0 -0.007943335547068 0.0 0.0
0.0029209625743877228 -0.0006558364146925866 0.0 -0.0010451269478544425 0.0 0.0
0.0024336683705438677 -0.0009635228223333259 0.0 4.386774676590604e-05 0.0 0.0
0.0038543303330672097 -0.0017806625541367397 0.0 0.0002848550661213974 0.0 0.0
0.0069778447620628785 -0.004216668917510233 0.0 0.00048644775472032604 0.0 0.0
0.012410804268982036 -0.008959430908239766 0.0 0.0006308233340571026 0.0 0.0
0.02064631009018363 -0.016466311759522317 0.0 0.0006696573318143739 0.0 0.0
0.03204651524992868 -0.027060652597001043 0.0 0.0005897615568716142 0.0 0.0
0.0467143947334233 -0.04078831429607975 0.0 0.0003467621608398485 0.0 0.0
0.06448972889791363 -0.05745332212667115 0.0 -2.674188752895164e-05 0.0 0.0
0.08505561711122078 -0.07674156376861614 0.0 -0.0005021096135920705 0.0 0.0
0.1080310775297979 -0.09831398342426778 0.0 -0.001076552473387045 0.0 0.0
0.13300209185058354 -0.12180714040393265 0.0 -0.0017066877973808269 0.0 0.0
0.15944401268348116 -0.14676011716275794 0.0 -0.0024011411183126195 0.0 0.0
0.18658587020732356 -0.17247627980884256 0.0 -0.0031066182969869986 0.0 0.0
0.21333441417376675 -0.19794000106979026 0.0 -0.0036695851941331665 0.0 0.0
0.23829590544603513 -0.2218309293168993 0.0 -0.003885328276792335 0.0 0.0
0.25990759480771297 -0.2425803135296446 0.0 -0.0036666954680378196 0.0 0.0
0.2761780360598599 -0.2582891132992825 0.0 -0.004694451500556818 0.0 0.0
0.28268015614208947 -0.2648353723199211 0.0 3.812922200197022e-15 0.0 0.0
0.27617803605982244 -0.258289113299226 0.0 0.00469445150056755 0.0 0.0
0.25990759480763476 -0.24258031352957354 0.0 0.0036666954680572 0.0 0.0
0.23829590544592377 -0.2218309293168122 0.0 0.003885328276793559 0.0 0.0
0.21333441417363513 -0.19794000106967885 0.0 0.0036695851941259683 0.0 0.0
0.1865858702071845 -0.17247627980869218 0.0 0.0031066182969802982 0.0 0.0
0.15944401268334046 -0.14676011716261844 0.0 0.00240114111831217 0.0 0.0
0.13300209185044296 -0.12180714040379831 0.0 0.0017066877973756717 0.0 0.0
0.10803107752966137 -0.09831398342414047 0.0 0.0010765524733823044 0.0 0.0
0.085055617111096 -0.07674156376849596 0.0 0.0005021096135865355 0.0 0.0
0.06448972889780612 -0.05745332212657242 0.0 2.6741887520772417e-05 0.0 0.0
0.04671439473333553 -0.0407883142960025 0.0 -0.0003467621608458124 0.0 0.0
0.032046515249862594 -0.02706065259693853 0.0 -0.0005897615568683137 0.0 0.0
0.02064631009013749 -0.016466311759490163 0.0 -0.0006696573318176322 0.0 0.0
0.012410804268951747 -0.008959430908211238 0.0 -0.0006308233340558435 0.0 0.0
0.006977844762046137 -0.0042166689174964285 0.0 -0.0004864477547212706 0.0 0.0
0.0038543303330609725 -0.0017806625541334363 0.0 -0.0002848550661203056 0.0 0.0
0.0024336683705415744 -0.0009635228223318197 0.0 -4.386774676697014e-05 0.0 0.0
0.0029209625743848644 -0.0006558364146953656 0.0 0.0010451269478512198 0.0 0.0
0.010001360176937615 -0.003339930611923715 0.0 0.00794333554705751 0.0 0.0
0.016223160436178396 -0.026552108635397396 0.0 0.0018655654190105995 0.0 0.0
0.011523283395082391 -0.023909161166716753 0.0 -0.0014084605782614926 0.0 0.0
0.0067293012757298366 -0.002517045139889397 0.0 -0.006617580696508036 0.0 0.0
0.001873086050962266 -0.00047841858322389354 0.0 -0.0006510395868527896 0.0 0.0
0.0021202685032636072 -0.0009012801026363072 0.0 -0.00017862517370430646 0.0 0.0
0.0032804232451835113 -0.0015854823311531297 0.0 -0.00014236481993908562 0.0 0.0
0.005946226871877719 -0.0037780200214212484 0.0 -0.00027641646142716924 0.0 0.0
0.010788676349249711 -0.008208028462278912 0.0 -0.0006936974866556706 0.0 0.0
0.0182649664655841 -0.015328151712087783 0.0 -0.0013726000150917732 0.0 0.0
0.028662013397299534 -0.02541778813907532 0.0 -0.002337650108350366 0.0 0.0
0.04200332628038129 -0.0384824385694491 0.0 -0.00355080546605503 0.0 0.0
0.05809891760355305 -0.054311187324305156 0.0 -0.004897180224128088 0.0 0.0
0.0766607309214579 -0.07260199045279564 0.0 -0.006276964416051179 0.0 0.0
0.09738207655952237 -0.09304889191825502 0.0 -0.0076742184740813 0.0 0.0
0.11991632842429639 -0.11532573553538752 0.0 -0.009081775649580912 0.0 0.0
0.14380391810504078 -0.13900272552867773 0.0 -0.010442169864805506 0.0 0.0
0.16837787736469417 -0.1634374691565708 0.0 -0.011607570378596898 0.0 0.0
0.19268811655554835 -0.18769278778932277 0.0 -0.012277104400975807 0.0 0.0
0.21549177206031855 -0.21052118165621747 0.0 -0.012106890380277041 0.0 0.0
0.23517438943153526 -0.23035754593597557 0.0 -0.011064961609559987 0.0 0.0
0.24927549753104822 -0.2450621335971801 0.0 -0.01044055681008915 0.0 0.0
0.2545460734064231 -0.25123782238610315 0.0 1.1085750373229786e-14 0.0 0.0
0.2492754975310135 -0.24506213359713214 0.0 0.010440556810115907 0.0 0.0
0.23517438943146504 -0.2303575459359029 0.0 0.011064961609590732 0.0 0.0
0.21549177206022083 -0.21052118165612715 0.0 0.012106890380290572 0.0 0.0
0.19268811655543283 -0.18769278778921142 0.0 0.01227710440097118 0.0 0.0
0.16837787736456902 -0.1634374691564329 0.0 0.011607570378589144 0.0 0.0
0.14380391810491325 -0.13900272552853934 0.0 0.010442169864805034 0.0 0.0
0.11991632842417022 -0.11532573553526607 0.0 0.009081775649574107 0.0 0.0
0.0973820765594003 -0.09304889191813137 0.0 0.007674218474071153 0.0 0.0
0.07666073092134544 -0.07260199045268109 0.0 0.00627696441604004 0.0 0.0
0.05809891760345563 -0.05431118732420987 0.0 0.004897180224111834 0.0 0.0
0.04200332628030225 -0.038482438569373466 0.0 0.003550805466044151 0.0 0.0
0.02866201339723972 -0.025417788139018127 0.0 0.0023376501083477563 0.0 0.0
0.018264966465541668 -0.01532815171205383 0.0 0.001372600015085437 0.0 0.0
0.010788676349222658 -0.008208028462251474 0.0 0.0006936974866538465 0.0 0.0
0.00594622687186339 -0.003778020021405642 0.0 0.00027641646142693115 0.0 0.0
0.003280423245178263 -0.0015854823311516055 0.0 0.00014236481993882522 0.0 0.0
0.0021202685032622915 -0.0009012801026346336 0.0 0.000178625173703008 0.0 0.0
0.0018730860509619278 -0.0004784185832261388 0.0 0.0006510395868507911 0.0 0.0
0.006729301275722669 -0.002517045139885047 0.0 0.006617580696496844 0.0 0.0
0.011523283395068105 -0.02390916116668934 0.0 0.0014084605782199288 0.0 0.0
0.008540736597997145 -0.01922477514745287 0.0 -0.004705770193286135 0.0 0.0
0.004817986387609021 -0.0014231515606797011 0.0 -0.006839411565062489 0.0 0.0
0.0012825569085347535 -0.0002302241824250525 0.0 -0.0005628091187442581 0.0 0.0
0.0017774653831170348 -0.0007503803176267455 0.0 -0.0004770611325583885 0.0 0.0
0.0027606090275885667 -0.0012436127244965349 0.0 -0.0005177527886464687 0.0 0.0
0.004971424271368071 -0.0029489924290157835 0.0 -0.0007799902759728739 0.0 0.0
0.009188026813535869 -0.006729985910767072 0.0 -0.001578969063569532 0.0 0.0
0.01586016137031161 -0.01305443874186821 0.0 -0.002878209201007631 0.0 0.0
0.02519779171970155 -0.022106732089275556 0.0 -0.0046982480639356835 0.0 0.0
0.03716997762624457 -0.03382641940034336 0.0 -0.006919206553819416 0.0 0.0
0.05156590925804922 -0.04797233770613831 0.0 -0.00932942190609639 0.0 0.0
0.0681187980395084 -0.06426670451450235 0.0 -0.011747623997928506 0.0 0.0
0.08657006334058977 -0.08245818447285612 0.0 -0.014130680835329238 0.0 0.0
0.10664483564810895 -0.10228931598183527 0.0 -0.016510849441210382 0.0 0.0
0.12796778716201487 -0.12340628900055026 0.0 -0.018811264588049183 0.0 0.0
0.14998718409770162 -0.14527994026057472 0.0 -0.020765938859780213 0.0 0.0
0.17190730482413677 -0.16713061003906687 0.0 -0.02191085480014479 0.0 0.0
0.19258693739325378 -0.18784690468068063 0.0 -0.0217626462186899 0.0 0.0
0.2103605090766714 -0.20585578761483822 0.0 -0.020192273377326053 0.0 0.0
0.22308320728816888 -0.21892666191348426 0.0 -0.017447422563168617 0.0 0.0
0.22789410215113307 -0.22475756316280238 0.0 2.1506234293422466e-14 0.0 0.0
0.22308320728813663 -0.2189266619134478 0.0 0.01744742256321996 0.0 0.0
0.21036050907660866 -0.2058557876147855 0.0 0.02019227337737469 0.0 0.0
0.19258693739316793 -0.1878469046805888 0.0 0.021762646218720434 0.0 0.0
0.1719073048240362 -0.16713061003896904 0.0 0.021910854800145464 0.0 0.0
0.14998718409759149 -0.14527994026045926 0.0 0.020765938859769795 0.0 0.0
0.12796778716190077 -0.12340628900043302 0.0 0.018811264588041412 0.0 0.0
0.10664483564799598 -0.10228931598172844 0.0 0.016510849441205577 0.0 0.0
0.0865700633404815 -0.08245818447274683 0.0 0.014130680835315879 0.0 0.0
0.06811879803940862 -0.06426670451440282 0.0 0.011747623997910139 0.0 0.0
0.051565909257962415 -0.0479723377060525 0.0 0.009329421906074007 0.0 0.0
0.03716997762617448 -0.033826419400273575 0.0 0.006919206553802397 0.0 0.0
0.02519779171964784 -0.02210673208922886 0.0 0.0046982480639261165 0.0 0.0
0.015860161370273483 -0.013054438741829053 0.0 0.0028782092009988257 0.0 0.0
0.0091880268135128 -0.006729985910743933 0.0 0.001578969063564209 0.0 0.0
0.004971424271356293 -0.0029489924290037927 0.0 0.0007799902759715877 0.0 0.0
0.002760609027584158 -0.0012436127244961292 0.0 0.0005177527886465118 0.0 0.0
0.0017774653831163583 -0.0007503803176245815 0.0 0.0004770611325568666 0.0 0.0
0.0012825569085348869 -0.00023022418242650436 0.0 0.0005628091187444953 0.0 0.0
0.004817986387601445 -0.0014231515606759298 0.0 0.006839411565046492 0.0 0.0
0.0085407365979818 -0.019224775147425082 0.0 0.004705770193257745 0.0 0.0
0.00651477987475654 -0.015566540302028677 0.0 -0.005155806795093034 0.0 0.0
0.0035888433126598325 -0.0010188731413561557 0.0 -0.006262349708322024 0.0 0.0
0.0009047326844928401 -0.00012478148669984102 0.0 -0.0008374665560036478 0.0 0.0
0.0014530189074858965 -0.000584397579965024 0.0 -0.0007869840572167552 0.0 0.0
0.0022909494305234793 -0.0009802903610788018 0.0 -0.0008597835823961812 0.0 0.0
0.004073281941535536 -0.002235965328819455 0.0 -0.0011889579564942558 0.0 0.0
0.007635764230857531 -0.005323259562805787 0.0 -0.0021791435168629987 0.0 0.0
0.013457984608507998 -0.010799214830964474 0.0 -0.003968649214476796 0.0 0.0
0.02169371161585887 -0.01876778193255096 0.0 -0.006429630458133516 0.0 0.0
0.032262850838981526 -0.029106237782743134 0.0 -0.009402012808936823 0.0 0.0
0.044937677685457575 -0.0415502689369868 0.0 -0.012599114176519254 0.0 0.0
0.05947085853104163 -0.05583995073216014 0.0 -0.015800579577479115 0.0 0.0
0.07564542086762761 -0.0717679589256941 0.0 -0.018950242778025893 0.0 0.0
0.09324255207843515 -0.08913639697440345 0.0 -0.022061623357468745 0.0 0.0
0.11198095350905898 -0.10767505825610985 0.0 -0.025050422095534115 0.0 0.0
0.1314398538252717 -0.12697844549868528 0.0 -0.027631666526333417 0.0 0.0
0.1509644404672108 -0.1464237683175067 0.0 -0.0292826153063378 0.0 0.0
0.16952850567814753 -0.16503245710815342 0.0 -0.029405587266153773 0.0 0.0
0.18562753529296805 -0.18131543260174685 0.0 -0.027404386295995706 0.0 0.0
0.19744300545443913 -0.1933511934897882 0.0 -0.022297065985987612 0.0 0.0
0.20204435891013658 -0.19937223719282796 0.0 2.847635321989728e-14 0.0 0.0
0.19744300545441013 -0.1933511934897646 0.0 0.022297065986051294 0.0 0.0
0.18562753529291284 -0.18131543260169863 0.0 0.02740438629605805 0.0 0.0
0.1695285056780717 -0.16503245710806733 0.0 0.029405587266191996 0.0 0.0
0.15096444046712207 -0.1464237683174242 0.0 0.029282615306344115 0.0 0.0
0.13143985382517515 -0.12697844549858447 0.0 0.02763166652632032 0.0 0.0
0.11198095350895865 -0.1076750582560155 0.0 0.025050422095520664 0.0 0.0
0.09324255207833626 -0.08913639697430605 0.0 0.022061623357461205 0.0 0.0
0.07564542086753288 -0.07176795892560618 0.0 0.018950242778008372 0.0 0.0
0.05947085853095449 -0.055839950732067364 0.0 0.015800579577454694 0.0 0.0
0.044937677685381844 -0.041550268936916754 0.0 0.012599114176492936 0.0 0.0
0.032262850838919825 -0.02910623778268011 0.0 0.009402012808914215 0.0 0.0
0.021693711615811375 -0.018767781932507575 0.0 0.0064296304581200414 0.0 0.0
0.013457984608474917 -0.01079921483092851 0.0 0.0039686492144666114 0.0 0.0
0.007635764230838104 -0.005323259562784985 0.0 0.0021791435168546465 0.0 0.0
0.004073281941526601 -0.002235965328815208 0.0 0.001188957956489564 0.0 0.0
0.002290949430520634 -0.0009802903610747209 0.0 0.0008597835823958336 0.0 0.0
0.0014530189074857124 -0.0005843975799644906 0.0 0.0007869840572164597 0.0 0.0
0.0009047326844929071 -0.00012478148670048847 0.0 0.000837466556002181 0.0 0.0
0.00358884331265314 -0.0010188731413524666 0.0 0.0062623497083057365 0.0 0.0
0.006514779874743849 -0.015566540302003676 0.0 0.005155806795072345 0.0 0.0
0.004985688388380895 -0.012604604789632944 0.0 -0.004563424920467935 0.0 0.0
0.002707997155850253 -0.00079742423764174 0.0 -0.005578387032629152 0.0 0.0
0.0006537499939508736 -7.879980828705677e-05 0.0 -0.0012416222134045685 0.0 0.0
0.001167975907016137 -0.000441611934521404 0.0 -0.0011276522155857847 0.0 0.0
0.0018704036094838415 -0.0007721384608944431 0.0 -0.0011927348923361587 0.0 0.0
0.0032671741013275027 -0.0016563773138242284 0.0 -0.0015235472129975203 0.0 0.0
0.006162520744024943 -0.004037633722947876 0.0 -0.0025680266453951156 0.0 0.0
0.011089037467146779 -0.008595962423313586 0.0 -0.004607564505079065 0.0 0.0
0.018190832368497258 -0.015443179150919823 0.0 -0.007521833683763086 0.0 0.0
0.027327341146894175 -0.024371006881894423 0.0 -0.010997173075199774 0.0 0.0
0.03826275273541392 -0.03509485098576115 0.0 -0.01471725127134687 0.0 0.0
0.050762351776980956 -0.047368074186022735 0.0 -0.018441075452827502 0.0 0.0
0.0646488821248278 -0.0610237768247152 0.0 -0.022112515870459787 0.0 0.0
0.07976502326465144 -0.07592196054548103 0.0 -0.025730919392412302 0.0 0.0
0.0959040130625132 -0.09186933338590464 0.0 -0.02918041434897136 0.0 0.0
0.11276270457825638 -0.10857237392877174 0.0 -0.03218937108724147 0.0 0.0
0.1298490988235507 -0.1255643898293728 0.0 -0.034304926581894796 0.0 0.0
0.14632654044599838 -0.1420508282613106 0.0 -0.03482728303793893 0.0 0.0
0.16093500764638663 -0.15678484284390448 0.0 -0.032579736083854 0.0 0.0
0.17213074986103877 -0.16814357539111724 0.0 -0.025928677538891054 0.0 0.0
0.17667358080463513 -0.17459293165935297 0.0 3.045393798251084e-14 0.0 0.0
0.17213074986101218 -0.16814357539109337 0.0 0.025928677538962573 0.0 0.0
0.1609350076463379 -0.15678484284384472 0.0 0.03257973608392665 0.0 0.0
0.14632654044593352 -0.14205082826124085 0.0 0.03482728303797833 0.0 0.0
0.1298490988234743 -0.12556438982929796 0.0 0.0343049265819042 0.0 0.0
0.11276270457817208 -0.10857237392868488 0.0 0.032189371087230266 0.0 0.0
0.09590401306242716 -0.09186933338582001 0.0 0.029180414348957164 0.0 0.0
0.07976502326456684 -0.07592196054539538 0.0 0.025730919392400027 0.0 0.0
0.0646488821247458 -0.06102377682464201 0.0 0.022112515870438228 0.0 0.0
0.050762351776906404 -0.047368074185940946 0.0 0.018441075452802977 0.0 0.0
0.03826275273535002 -0.03509485098570427 0.0 0.01471725127131866 0.0 0.0
0.0273273411468417 -0.024371006881837198 0.0 0.010997173075176352 0.0 0.0
0.018190832368456766 -0.015443179150879977 0.0 0.007521833683744096 0.0 0.0
0.011089037467118893 -0.008595962423288127 0.0 0.004607564505066361 0.0 0.0
0.006162520744009156 -0.004037633722932158 0.0 0.002568026645387436 0.0 0.0
0.003267174101320084 -0.0016563773138208145 0.0 0.0015235472129930786 0.0 0.0
0.0018704036094813288 -0.0007721384608906842 0.0 0.0011927348923353102 0.0 0.0
0.001167975907015902 -0.0004416119345221081 0.0 0.0011276522155865586 0.0 0.0
0.0006537499939511752 -7.879980828759175e-05 0.0 0.0012416222134018619 0.0 0.0
0.002707997155844598 -0.0007974242376384504 0.0 0.005578387032616342 0.0 0.0
0.004985688388369078 -0.012604604789610927 0.0 0.004563424920454114 0.0 0.0
0.003772312922490033 -0.010121748293911006 0.0 -0.003761730415895827 0.0 0.0
0.002034399430217309 -0.0006397015204585494 0.0 -0.004908330946344573 0.0 0.0
0.0004770546447649685 -6.779795160530478e-05 0.0 -0.0016335542355967677 0.0 0.0
0.0009171047663413152 -0.0003189779775272229 0.0 -0.0014687416998520107 0.0 0.0
0.0014962004228237127 -0.0006059000624214927 0.0 -0.0015266527239432626 0.0 0.0
0.002553798251239666 -0.00120312683608891 0.0 -0.0018049398127128655 0.0 0.0
0.004805249593704595 -0.0029188149487845687 0.0 -0.002820500135508954 0.0 0.0
0.008801356582533911 -0.006508769070574021 0.0 -0.004859402043268665 0.0 0.0
0.014721879819758941 -0.012175635010402938 0.0 -0.007954476754464134 0.0 0.0
0.022407982586077877 -0.019668698089588814 0.0 -0.011699170210379488 0.0 0.0
0.03158726672049918 -0.02865613023877226 0.0 -0.015682436902706567 0.0 0.0
0.042042655553957406 -0.03890251683012856 0.0 -0.019670012872393235 0.0 0.0
0.05363269863551445 -0.05027713862389028 0.0 -0.02360520842903873 0.0 0.0
0.06625604719375353 -0.06269798297694186 0.0 -0.02748595569949491 0.0 0.0
0.07978474901469834 -0.07604470037622943 0.0 -0.03118722620057616 0.0 0.0
0.0940088474734659 -0.09011380526622324 0.0 -0.03443913118331522 0.0 0.0
0.10858939786985466 -0.10458026796953244 0.0 -0.036877355759271646 0.0 0.0
0.12295843686304286 -0.11890280396593264 0.0 -0.03782194337257301 0.0 0.0
0.13617434788446037 -0.13218014415880025 0.0 -0.03577570924895628 0.0 0.0
0.14693745803061123 -0.14307621337140194 0.0 -0.028548580579633036 0.0 0.0
0.1515261713278276 -0.15014038348040532 0.0 3.291898004187388e-14 0.0 0.0
0.14693745803058839 -0.14307621337137902 0.0 0.028548580579713573 0.0 0.0
0.13617434788441835 -0.1321801441587569 0.0 0.03577570924903433 0.0 0.0
0.1229584368629876 -0.11890280396588199 0.0 0.03782194337261897 0.0 0.0
0.1085893978697899 -0.10458026796946752 0.0 0.03687735575928063 0.0 0.0
0.09400884747339501 -0.09011380526615542 0.0 0.034439131183303315 0.0 0.0
0.0797847490146262 -0.07604470037616098 0.0 0.031187226200562426 0.0 0.0
0.06625604719368272 -0.06269798297686846 0.0 0.027485955699479814 0.0 0.0
0.05363269863544704 -0.050277138623824914 0.0 0.02360520842901765 0.0 0.0
0.04204265555389635 -0.03890251683006613 0.0 0.019670012872368966 0.0 0.0
0.031587266720446504 -0.02865613023872498 0.0 0.01568243690267632 0.0 0.0
0.02240798258603418 -0.019668698089542518 0.0 0.011699170210351622 0.0 0.0
0.014721879819725166 -0.012175635010370781 0.0 0.00795447675444365 0.0 0.0
0.008801356582510833 -0.006508769070552787 0.0 0.004859402043255185 0.0 0.0
0.004805249593691952 -0.0029188149487760855 0.0 0.0028205001355022757 0.0 0.0
0.0025537982512351775 -0.0012031268360860672 0.0 0.0018049398127098406 0.0 0.0
0.0014962004228225236 -0.0006059000624188659 0.0 0.001526652723941405 0.0 0.0
0.0009171047663409781 -0.0003189779775275536 0.0 0.0014687416998515675 0.0 0.0
0.00047705464476471425 -6.779795160464135e-05 0.0 0.0016335542355932575 0.0 0.0
0.0020343994302119365 -0.0006397015204565619 0.0 0.004908330946335064 0.0 0.0
0.0037723129224799257 -0.010121748293892271 0.0 0.0037617304158853245 0.0 0.0
0.002796680885483985 -0.008014613084918281 0.0 -0.0030231717669953395 0.0 0.0
0.0015041262094478481 -0.0005144457731134206 0.0 -0.004299023427629793 0.0 0.0
0.0003421954553358311 -7.080403449667377e-05 0.0 -0.0019578796380375863 0.0 0.0
0.0006889521705782182 -0.00021083360495292416 0.0 -0.0017812963792898928 0.0 0.0
0.0011574019260735175 -0.00046274537838257026 0.0 -0.0018441230342553213 0.0 0.0
0.0019271032951484312 -0.0008604548808180133 0.0 -0.0020733162426285743 0.0 0.0
0.003577075066740907 -0.0019896168798872074 0.0 -0.0029420670312020982 0.0 0.0
0.006649257353879357 -0.004612352304533444 0.0 -0.004833942280454393 0.0 0.0
0.011347654774559525 -0.009034677048882844 0.0 -0.0077789669904952605 0.0 0.0
0.017546461987925803 -0.01505116224944178 0.0 -0.011489407655966961 0.0 0.0
0.024958855614667666 -0.022286183097714924 0.0 -0.015480691182978144 0.0 0.0
0.03336029597420591 -0.030497149113877485 0.0 -0.019478335014910003 0.0 0.0
0.04264626556742809 -0.039585842706721816 0.0 -0.023416399760016852 0.0 0.0
0.05277078420667606 -0.04952144565970064 0.0 -0.02730660381526995 0.0 0.0
0.0636725496269148 -0.06025447578373089 0.0 -0.031036599112318486 0.0 0.0
0.07522549353116605 -0.07166254503294085 0.0 -0.03434477788564291 0.0 0.0
0.08723400724629626 -0.08353316403664351 0.0 -0.03690701911690401 0.0 0.0
0.09941039117356508 -0.09559233048850521 0.0 -0.038241631650174905 0.0 0.0
0.1112124438318526 -0.10737843183762233 0.0 -0.03687655860665615 0.0 0.0
0.12164032647653564 -0.11791446935247801 0.0 -0.03015213114327465 0.0 0.0
0.12635280565302995 -0.1257649561118849 0.0 3.2253713588836774e-14 0.0 0.0
0.12164032647651662 -0.1179144693524688 0.0 0.030152131143351545 0.0 0.0
0.11121244383181723 -0.10737843183758652 0.0 0.036876558606731384 0.0 0.0
0.09941039117351991 -0.09559233048846316 0.0 0.038241631650225864 0.0 0.0
0.08723400724624444 -0.0835331640365852 0.0 0.03690701911691247 0.0 0.0
0.07522549353110941 -0.07166254503288673 0.0 0.0343447778856263 0.0 0.0
0.0636725496268562 -0.060254475783671727 0.0 0.03103659911230181 0.0 0.0
0.05277078420661951 -0.04952144565964377 0.0 0.027306603815255577 0.0 0.0
0.0426462655673753 -0.03958584270666877 0.0 0.023416399759999436 0.0 0.0
0.03336029597415721 -0.030497149113827213 0.0 0.019478335014885523 0.0 0.0
0.024958855614625096 -0.022286183097674377 0.0 0.015480691182948505 0.0 0.0
0.017546461987891122 -0.015051162249409847 0.0 0.011489407655939332 0.0 0.0
0.011347654774533181 -0.009034677048857754 0.0 0.00777896699047833 0.0 0.0
0.006649257353861518 -0.004612352304516022 0.0 0.004833942280441465 0.0 0.0
0.003577075066731435 -0.0019896168798781933 0.0 0.0029420670311964604 0.0 0.0
0.0019271032951448338 -0.0008604548808195197 0.0 0.0020733162426288475 0.0 0.0
0.0011574019260727289 -0.0004627453783796778 0.0 0.0018441230342518037 0.0 0.0
0.0006889521705778835 -0.00021083360495304353 0.0 0.0017812963792883134 0.0 0.0
0.0003421954553358023 -7.080403449474432e-05 0.0 0.001957879638034814 0.0 0.0
0.001504126209444563 -0.0005144457731122629 0.0 0.004299023427621453 0.0 0.0
0.0027966808854769203 -0.008014613084902839 0.0 0.0030231717669869846 0.0 0.0
0.002013169096561954 -0.0062319259786444885 0.0 -0.0024377990736774015 0.0 0.0
0.0010810385284967586 -0.0004157876415130334 0.0 -0.0037512954237404724 0.0 0.0
0.0002281279411812278 -7.196189908374643e-05 0.0 -0.0022030965876312448 0.0 0.0
0.00047271247096850543 -0.00011355440954879115 0.0 -0.0020469557264283776 0.0 0.0
0.0008383459971137177 -0.00032415582556027386 0.0 -0.0021216810402424225 0.0 0.0
0.0013799948359672356 -0.000599597556494882 0.0 -0.0023423937544436594 0.0 0.0
0.0024895768435691315 -0.0012632535287487123 0.0 -0.002990281798393767 0.0 0.0
0.004664848250361357 -0.002967201260994732 0.0 -0.004553941033860864 0.0 0.0
0.008135063520233429 -0.006114463810242006 0.0 -0.007101924371838981 0.0 0.0
0.012806155789544858 -0.010596634284034965 0.0 -0.010412532179661028 0.0 0.0
0.01842188158250865 -0.016046283561334213 0.0 -0.01409855287384355 0.0 0.0
0.024764444545283957 -0.022213278896523938 0.0 -0.017835277824776383 0.0 0.0
0.03174452977365926 -0.029014734387108373 0.0 -0.021520241307300802 0.0 0.0
0.03935773934952847 -0.036457796464790825 0.0 -0.025161721182615237 0.0 0.0
0.047616614291511046 -0.044559199280761866 0.0 -0.02869401262485747 0.0 0.0
0.056477187704396616 -0.05328325674515412 0.0 -0.031875926064499585 0.0 0.0
0.06584113910628733 -0.06251038270947179 0.0 -0.03436161622042521 0.0 0.0
0.07567621122009988 -0.07215831204851282 0.0 -0.03588267555233105 0.0 0.0
0.08591640692368777 -0.08225788151538721 0.0 -0.03556377415001523 0.0 0.0
0.09599527814964065 -0.09239496461902881 0.0 -0.030556966334040255 0.0 0.0
0.10087468063250765 -0.10120101285178855 0.0 2.849543517813302e-14 0.0 0.0
0.09599527814962558 -0.0923949646190159 0.0 0.030556966334109023 0.0 0.0
0.08591640692366113 -0.08225788151536141 0.0 0.035563774150090904 0.0 0.0
0.07567621122006525 -0.07215831204847588 0.0 0.03588267555237999 0.0 0.0
0.06584113910624617 -0.06251038270942973 0.0 0.03436161622043162 0.0 0.0
0.05647718770435216 -0.05328325674511025 0.0 0.03187592606448097 0.0 0.0
0.047616614291467456 -0.04455919928071967 0.0 0.028694012624841017 0.0 0.0
0.03935773934948824 -0.036457796464752744 0.0 0.02516172118260351 0.0 0.0
0.03174452977362107 -0.029014734387073998 0.0 0.021520241307283947 0.0 0.0
0.024764444545247313 -0.022213278896486895 0.0 0.01783527782475237 0.0 0.0
0.018421881582476995 -0.016046283561301833 0.0 0.014098552873815472 0.0 0.0
0.012806155789520062 -0.010596634284012502 0.0 0.010412532179635763 0.0 0.0
0.00813506352021432 -0.006114463810227253 0.0 0.007101924371821817 0.0 0.0
0.004664848250348858 -0.0029672012609800063 0.0 0.004553941033851953 0.0 0.0
0.002489576843563498 -0.0012632535287458238 0.0 0.002990281798389148 0.0 0.0
0.0013799948359648584 -0.000599597556494219 0.0 0.002342393754441691 0.0 0.0
0.0008383459971130376 -0.00032415582556089137 0.0 0.002121681040240434 0.0 0.0
0.00047271247096871295 -0.00011355440954732607 0.0 0.0020469557264259364 0.0 0.0
0.00022812794118096612 -7.196189908325377e-05 0.0 0.002203096587628812 0.0 0.0
0.0010810385284937656 -0.0004157876415116183 0.0 0.0037512954237343367 0.0 0.0
0.0020131690965565483 -0.006231925978632365 0.0 0.002437799073673326 0.0 0.0
0.0014062911694282707 -0.004758441841585569 0.0 -0.0020320067614287285 0.0 0.0
0.0007454319929475191 -0.0003454584675870235 0.0 -0.003262881810287543 0.0 0.0
0.00011781292906996537 -5.940895059569978e-05 0.0 -0.0023723026759457644 0.0 0.0
0.0002631340333260406 -2.4521497449994003e-05 0.0 -0.0022570518509157935 0.0 0.0
0.0005255233987260148 -0.00018121213513969822 0.0 -0.0023389360167237914 0.0 0.0
0.0008872364115634491 -0.00038066635163708137 0.0 -0.0025958484585692438 0.0 0.0
0.0015472449189595143 -0.0007313590520795581 0.0 -0.0030533762093145835 0.0 0.0
0.002882992784564189 -0.0016398329107671214 0.0 -0.004101185974465331 0.0 0.0
0.005137674303439782 -0.0035272302135480977 0.0 -0.005996530463798953 0.0 0.0
0.0082613642979873 -0.006424510557406022 0.0 -0.008575197146253467 0.0 0.0
0.012044992345656626 -0.01003722805978984 0.0 -0.01158743873853998 0.0 0.0
0.016307155299736524 -0.014137969293984311 0.0 -0.014743047218282863 0.0 0.0
0.020976584719093964 -0.018646362958261605 0.0 -0.017924536473840732 0.0 0.0
0.026073406938909582 -0.023594320255333093 0.0 -0.021085711036782702 0.0 0.0
0.03166395729029468 -0.029042003184126676 0.0 -0.02418155309814097 0.0 0.0
0.03780570685500311 -0.03504729060510999 0.0 -0.027079701473547452 0.0 0.0
0.0444983425661527 -0.04160966110993277 0.0 -0.029436411276189744 0.0 0.0
0.051817812879181004 -0.04873507221217229 0.0 -0.030892655253070063 0.0 0.0
0.06016179515323726 -0.056778971584927465 0.0 -0.03136090849682132 0.0 0.0
0.06970178563829689 -0.06620371974282506 0.0 -0.02924695360830768 0.0 0.0
0.074737907844339 -0.07610881586944875 0.0 2.8261247508876153e-14 0.0 0.0
0.06970178563828722 -0.0662037197428114 0.0 0.029246953608374184 0.0 0.0
0.060161795153219136 -0.05677897158490422 0.0 0.03136090849689556 0.0 0.0
0.05181781287915566 -0.04873507221214142 0.0 0.030892655253108955 0.0 0.0
0.044498342566123596 -0.04160966110991187 0.0 0.029436411276189615 0.0 0.0
0.03780570685497381 -0.035047290605086004 0.0 0.027079701473533106 0.0 0.0
0.03166395729026656 -0.029042003184103132 0.0 0.024181553098128767 0.0 0.0
0.02607340693888359 -0.02359432025531551 0.0 0.021085711036775787 0.0 0.0
0.02097658471906977 -0.01864636295823963 0.0 0.017924536473828228 0.0 0.0
0.01630715529971326 -0.014137969293964226 0.0 0.014743047218260953 0.0 0.0
0.012044992345636243 -0.010037228059773756 0.0 0.01158743873851569 0.0 0.0
0.008261364297971028 -0.006424510557391687 0.0 0.008575197146232833 0.0 0.0
0.0051376743034282 -0.003527230213539141 0.0 0.005996530463786682 0.0 0.0
0.0028829927845567833 -0.0016398329107555956 0.0 0.004101185974459511 0.0 0.0
0.0015472449189560256 -0.0007313590520791119 0.0 0.00305337620930976 0.0 0.0
0.0008872364115624213 -0.00038066635163640434 0.0 0.002595848458565671 0.0 0.0
0.0005255233987253483 -0.00018121213513904303 0.0 0.002338936016721847 0.0 0.0
0.00026313403332584696 -2.4521497448761864e-05 0.0 0.0022570518509135934 0.0 0.0
0.00011781292907012344 -5.940895059640129e-05 0.0 0.0023723026759429914 0.0 0.0
0.0007454319929457511 -0.0003454584675863147 0.0 0.003262881810284039 0.0 0.0
0.0014062911694246293 -0.004758441841576694 0.0 0.0020320067614266464 0.0 0.0
0.000960552650859347 -0.003572219097510638 0.0 -0.001760391574630075 0.0 0.0
0.000484408331051051 -0.0003083277932036539 0.0 -0.002850706183420269 0.0 0.0
1.9868407327818217e-06 -2.643184481111664e-05 0.0 -0.002474027628016516 0.0 0.0
5.748996313753162e-05 5.8918510769991915e-05 0.0 -0.0024071233277833406 0.0 0.0
0.00021172887136953206 -3.549978179083738e-05 0.0 -0.00249233355846423 0.0 0.0
0.00041966490663070913 -0.00016874733487760654 0.0 -0.002781223847269722 0.0 0.0
0.0007322332600600244 -0.0003338202273743766 0.0 -0.0031675265147998117 0.0 0.0
0.0013306406767997544 -0.0006821003122579419 0.0 -0.003702506933749606 0.0 0.0
0.0024111488634889376 -0.0014603918319344702 0.0 -0.004660653187540905 0.0 0.0
0.003981233696787892 -0.002769011406556623 0.0 -0.006212884560653352 0.0 0.0
0.005901555208413981 -0.004482147779308595 0.0 -0.008297302660599354 0.0 0.0
0.008050128306781432 -0.006470602027649779 0.0 -0.01070026623002115 0.0 0.0
0.010388763036511036 -0.008669444970083082 0.0 -0.013250111604588055 0.0 0.0
0.012961536106809324 -0.011113122649669141 0.0 -0.01587750598761832 0.0 0.0
0.01585994538516747 -0.01388281068270208 0.0 -0.018555462134173705 0.0 0.0
0.01922751808089815 -0.01711302804784531 0.0 -0.02121639319465649 0.0 0.0
0.023226125050047043 -0.02096749168279061 0.0 -0.02359793856561364 0.0 0.0
0.0279903459736347 -0.025585719873674074 0.0 -0.025126975921673563 0.0 0.0
0.03399724328053608 -0.03126444732254587 0.0 -0.025509188000184167 0.0 0.0
0.04240939495555161 -0.039146169189911505 0.0 -0.02563859447117281 0.0 0.0
0.04740270975264974 -0.0500152399504608 0.0 1.882001499087238e-14 0.0 0.0
0.04240939495554736 -0.03914616918991426 0.0 0.025638594471227398 0.0 0.0
0.033997243280525974 -0.03126444732253007 0.0 0.025509188000239637 0.0 0.0
0.027990345973619716 -0.025585719873652057 0.0 0.025126975921696118 0.0 0.0
0.023226125050031986 -0.020967491682782672 0.0 0.0235979385656052 0.0 0.0
0.019227518080884024 -0.017113028047829472 0.0 0.021216393194642084 0.0 0.0
0.0158599453851554 -0.01388281068269534 0.0 0.01855546213415817 0.0 0.0
0.012961536106799398 -0.011113122649664202 0.0 0.015877505987611285 0.0 0.0
0.010388763036500947 -0.008669444970068614 0.0 0.01325011160457868 0.0 0.0
0.008050128306771116 -0.00647060202764185 0.0 0.01070026623000434 0.0 0.0
0.005901555208405427 -0.004482147779302762 0.0 0.008297302660582099 0.0 0.0
0.0039812336967813425 -0.002769011406552426 0.0 0.006212884560641829 0.0 0.0
0.00241114886348413 -0.001460391831927684 0.0 0.004660653187535776 0.0 0.0
0.0013306406767968869 -0.0006821003122554131 0.0 0.003702506933744903 0.0 0.0
0.0007322332600587275 -0.0003338202273715981 0.0 0.003167526514796772 0.0 0.0
0.0004196649066301766 -0.00016874733487848962 0.0 0.002781223847267724 0.0 0.0
0.00021172887136944543 -3.549978178724908e-05 0.0 0.002492333558462499 0.0 0.0
5.7489963137793306e-05 5.8918510770156985e-05 0.0 0.002407123327782136 0.0 0.0
1.9868407327882575e-06 -2.6431844812149786e-05 0.0 0.0024740276280149306 0.0 0.0
0.00048440833104967376 -0.0003083277932040164 0.0 0.002850706183416236 0.0 0.0
0.0009605526508570314 -0.0035722190975042635 0.0 0.0017603915746279356 0.0 0.0
0.0006433590561350145 -0.002653725319657019 0.0 -0.0015937688113869426 0.0 0.0
0.00028121750270543886 -0.0002985469993980845 0.0 -0.0025413298515027894 0.0 0.0
-0.0001204565528936772 2.3846820435904085e-05 0.0 -0.0025170542195553404 0.0 0.0
-0.00014529685936506826 0.000139478877919892 0.0 -0.0024927888601767242 0.0 0.0
-9.924926821483165e-05 0.00010878241665842014 0.0 -0.002578085043023901 0.0 0.0
-4.783966500857693e-05 4.778355719724421e-05 0.0 -0.002861442950714228 0.0 0.0
-1.9661415304619742e-05 1.2842643874415444e-05 0.0 -0.0032504018774356675 0.0 0.0
-8.298366605946508e-06 5.1576484805009514e-06 0.0 -0.0035600891741645996 0.0 0.0
-3.119870157986405e-06 1.952162175505214e-06 0.0 -0.003960641659963472 0.0 0.0
-6.898165935274501e-07 2.8676064841852314e-07 0.0 -0.004918825546739487 0.0 0.0
-3.833863652747695e-06 2.5560503060839722e-06 0.0 -0.006506439922197836 0.0 0.0
-1.983473831785275e-05 1.863605977645336e-05 0.0 -0.008548769018228437 0.0 0.0
-4.413864621777676e-05 4.46391658099971e-05 0.0 -0.010792310748003964 0.0 0.0
-3.2076420087722443e-05 4.538722750367934e-05 0.0 -0.013177318223618287 0.0 0.0
0.0001349454786324822 -8.354677400683388e-05 0.0 -0.01570532368859546 0.0 0.0
0.0006818776734525752 -0.0005472699370840186 0.0 -0.01833648156914898 0.0 0.0
0.0019493228605364891 -0.0016590734123571615 0.0 -0.02094895996879301 0.0 0.0
0.004284265828777004 -0.003774728152266554 0.0 -0.023263831915180718 0.0 0.0
0.00791184789577034 -0.006983078711507381 0.0 -0.025005687194215146 0.0 0.0
0.014157807791930946 -0.01221771486450018 0.0 -0.026730450428452637 0.0 0.0
0.01824759356864473 -0.023669737850731953 0.0 1.4741680098850907e-14 0.0 0.0
0.014157807791931017 -0.012217714864507132 0.0 0.026730450428485 0.0 0.0
0.0079118478957677 -0.00698307871151373 0.0 0.02500568719423761 0.0 0.0
0.004284265828774566 -0.003774728152259426 0.0 0.023263831915185752 0.0 0.0
0.0019493228605373413 -0.0016590734123604481 0.0 0.020948959968780864 0.0 0.0
0.0006818776734545163 -0.0005472699370830431 0.0 0.018336481569134505 0.0 0.0
0.00013494547863586665 -8.354677401640857e-05 0.0 0.01570532368858042 0.0 0.0
-3.207642008260956e-05 4.5387227497861835e-05 0.0 0.013177318223605732 0.0 0.0
-4.4138646212795395e-05 4.4639165809396883e-05 0.0 0.010792310747989767 0.0 0.0
-1.9834738313271347e-05 1.863605977488425e-05 0.0 0.008548769018210937 0.0 0.0
-3.833863649500184e-06 2.556050300445633e-06 0.0 0.006506439922183508 0.0 0.0
-6.89816591103174e-07 2.867606459979876e-07 0.0 0.004918825546732923 0.0 0.0
-3.119870156421603e-06 1.9521621744544594e-06 0.0 0.003960641659960885 0.0 0.0
-8.298366605362666e-06 5.157648482916683e-06 0.0 0.0035600891741619867 0.0 0.0
-1.966141530398341e-05 1.284264387392778e-05 0.0 0.003250401877433198 0.0 0.0
-4.783966500841649e-05 4.778355719851694e-05 0.0 0.002861442950711582 0.0 0.0
-9.924926821495454e-05 0.00010878241666052157 0.0 0.002578085043019957 0.0 0.0
-0.00014529685936509775 0.0001394788779194261 0.0 0.0024927888601747094 0.0 0.0
-0.00012045655289397405 2.3846820435841875e-05 0.0 0.002517054219554041 0.0 0.0
0.0002812175027043991 -0.00029854699939891666 0.0 0.002541329851500185 0.0 0.0
0.0006433590561334397 -0.0026537253196527114 0.0 0.0015937688113868069 0.0 0.0
0.00042234262901736774 -0.0019836228521865704 0.0 -0.0015146891549975366 0.0 0.0
0.00012706427923254006 -0.00029355973974411014 0.0 -0.0023244710275717832 0.0 0.0
-0.00024129805237186556 7.969728194539035e-05 0.0 -0.002506521701250265 0.0 0.0
-0.0003441499060140824 0.0002186052376883019 0.0 -0.002511601054960285 0.0 0.0
-0.0004042743433075348 0.00024852562503135895 0.0 -0.0025856153753206945 0.0 0.0
-0.0005122787374281488 0.00026403943181541533 0.0 -0.002837047255418406 0.0 0.0
-0.0007716718029014344 0.00036181839077665975 0.0 -0.003210354801913662 0.0 0.0
-0.001346990896464902 0.0006938840383868991 0.0 -0.003732613528521933 0.0 0.0
-0.0024154980720266176 0.0014633324108044281 0.0 -0.004673699592756382 0.0 0.0
-0.003981493422418178 0.002768958642201331 0.0 -0.006213755049572033 0.0 0.0
-0.005911448187832772 0.004489678833081466 0.0 -0.00829827586928122 0.0 0.0
-0.008092573079289466 0.006509658691679295 0.0 -0.010706954184491309 0.0 0.0
-0.010474345764743914 0.008757343105105364 0.0 -0.013243414142017526 0.0 0.0
-0.013013829666472562 0.011196283080825532 0.0 -0.015847051386545522 0.0 0.0
-0.015571059542901052 0.013697980080394124 0.0 -0.018540835048736052 0.0 0.0
-0.01786479691640875 0.01599140157027902 0.0 -0.02137274418196523 0.0 0.0
-0.01946672098284138 0.01765309272654275 0.0 -0.02437033836819522 0.0 0.0
-0.019910591930877356 0.018175883924481863 0.0 -0.027674133402946343 0.0 0.0
-0.018671635590363833 0.017242785502348534 0.0 -0.031221215855908167 0.0 0.0
-0.013612821646457295 0.01352029589722253 0.0 -0.03311110074424731 0.0 0.0
-0.009671361795634204 0.0013805808196220752 0.0 1.7447848721374726e-14 0.0 0.0
-0.013612821646457308 0.013520295897222374 0.0 0.03311110074428043 0.0 0.0
-0.018671635590357026 0.01724278550233302 0.0 0.03122121585593174 0.0 0.0
-0.019910591930862857 0.018175883924480312 0.0 0.027674133402952286 0.0 0.0
-0.01946672098282192 0.017653092726520124 0.0 0.024370338368182774 0.0 0.0
-0.017864796916389328 0.01599140157025729 0.0 0.021372744181945263 0.0 0.0
-0.01557105954288291 0.013697980080380204 0.0 0.018540835048719072 0.0 0.0
-0.013013829666453269 0.011196283080808752 0.0 0.01584705138653205 0.0 0.0
-0.010474345764724037 0.00875734310509037 0.0 0.01324341414199924 0.0 0.0
-0.00809257307927046 0.006509658691662886 0.0 0.010706954184466495 0.0 0.0
-0.005911448187816183 0.004489678833063676 0.0 0.008298275869261556 0.0 0.0
-0.003981493422406287 0.0027689586421929795 0.0 0.006213755049558787 0.0 0.0
-0.0024154980720192632 0.0014633324107959037 0.0 0.004673699592751427 0.0 0.0
-0.001346990896460598 0.0006938840383857075 0.0 0.003732613528517053 0.0 0.0
-0.0007716718028996375 0.0003618183907814018 0.0 0.0032103548019092125 0.0 0.0
-0.0005122787374276096 0.0002640394318160003 0.0 0.002837047255415002 0.0 0.0
-0.00040427434330696173 0.00024852562502963117 0.0 0.0025856153753172693 0.0 0.0
-0.00034414990601374154 0.00021860523768654446 0.0 0.002511601054957692 0.0 0.0
-0.00024129805237199317 7.969728194674455e-05 0.0 0.002506521701247464 0.0 0.0
0.00012706427923216774 -0.00029355973974532916 0.0 0.0023244710275711804 0.0 0.0
0.0004223426290167394 -0.001983622852183855 0.0 0.0015146891549990761 0.0 0.0
0.0002747913735025298 -0.0014890839969675957 0.0 -0.0014365482253635266 0.0 0.0
1.447456194679654e-05 -0.00027510893226061884 0.0 -0.002144063524075715 0.0 0.0
-0.00035436447162217146 0.00013138425308495684 0.0 -0.0024449083662690836 0.0 0.0
-0.0005358171130847578 0.0002956342491792413 0.0 -0.0024631369176006668 0.0 0.0
-0.0007005536448356175 0.00038113695737624926 0.0 -0.0025132954434318624 0.0 0.0
-0.0009733691973961645 0.00047614644221772955 0.0 -0.0027114185271466746 0.0 0.0
-0.0015854541269175607 0.0007650653479856661 0.0 -0.0031361031985034397 0.0 0.0
-0.002894503736105912 0.0016501144697468645 0.0 -0.004143399868045576 0.0 0.0
-0.005137323415406333 0.0035264212953187027 0.0 -0.006006078003517635 0.0 0.0
-0.008261176893726482 0.006424487313769318 0.0 -0.00857482374234343 0.0 0.0
-0.012056706891060826 0.010048517541827694 0.0 -0.011589634131497427 0.0 0.0
-0.01634543222534573 0.014175081207409148 0.0 -0.014730841512547138 0.0 0.0
-0.021044934556686202 0.018718728033605893 0.0 -0.017849894371001183 0.0 0.0
-0.026096864352598656 0.023647845297872807 0.0 -0.0209315954309596 0.0 0.0
-0.03135030893646647 0.028826872438173987 0.0 -0.024091310968545925 0.0 0.0
-0.03647403316444083 0.033938582439581984 0.0 -0.027535082782909483 0.0 0.0
-0.040963118552270916 0.03846497372196783 0.0 -0.0314773331040252 0.0 0.0
-0.044158217703846925 0.04173869877873876 0.0 -0.036004650604603054 0.0 0.0
-0.044859270694643724 0.04274741917777727 0.0 -0.04027396059655107 0.0 0.0
-0.04048584976001963 0.039122971615184104 0.0 -0.04154902278830136 0.0 0.0
-0.0365922999629197 0.02509777536733964 0.0 2.3897550605056495e-14 0.0 0.0
-0.04048584976001607 0.03912297161516981 0.0 0.04154902278835966 0.0 0.0
-0.044859270694629375 0.042747419177758005 0.0 0.04027396059660624 0.0 0.0
-0.04415821770382024 0.04173869877871537 0.0 0.03600465060462071 0.0 0.0
-0.04096311855223633 0.03846497372192517 0.0 0.03147733310401771 0.0 0.0
-0.036474033164405756 0.03393858243955208 0.0 0.02753508278288838 0.0 0.0
-0.03135030893643305 0.02882687243814642 0.0 0.02409131096852481 0.0 0.0
-0.026096864352564572 0.02364784529784031 0.0 0.02093159543094324 0.0 0.0
-0.021044934556651986 0.018718728033574605 0.0 0.01784989437097887 0.0 0.0
-0.016345432225312696 0.014175081207377753 0.0 0.014730841512516094 0.0 0.0
-0.012056706891032352 0.010048517541806001 0.0 0.011589634131467847 0.0 0.0
-0.008261176893705254 0.006424487313747249 0.0 0.008574823742322013 0.0 0.0
-0.005137323415392103 0.003526421295304426 0.0 0.006006078003506504 0.0 0.0
-0.002894503736097569 0.001650114469742386 0.0 0.00414339986803798 0.0 0.0
-0.0015854541269128871 0.0007650653479879358 0.0 0.0031361031984987573 0.0 0.0
-0.0009733691973940889 0.00047614644221631326 0.0 0.0027114185271431813 0.0 0.0
-0.000700553644834814 0.0003811369573742806 0.0 0.002513295443430049 0.0 0.0
-0.0005358171130844756 0.00029563424917779257 0.0 0.002463136917596621 0.0 0.0
-0.00035436447162189754 0.00013138425308572202 0.0 0.002444908366267764 0.0 0.0
1.4474561947290483e-05 -0.0002751089322618354 0.0 0.0021440635240750515 0.0 0.0
0.00027479137350271186 -0.0014890839969655507 0.0 0.0014365482253632558 0.0 0.0
0.00016875623922021424 -0.0010902899138019312 0.0 -0.001298647390885062 0.0 0.0
-7.230087780508195e-05 -0.0002406708639018819 0.0 -0.001959675636541384 0.0 0.0
-0.0004580808047490684 0.00017723289076878985 0.0 -0.0023320699602611818 0.0 0.0
-0.0007184581646336506 0.0003683419946129784 0.0 -0.002352428788546316 0.0 0.0
-0.000986713464153819 0.0005042725763427802 0.0 -0.0023666227081630326 0.0 0.0
-0.001455870762430049 0.0006956783091012813 0.0 -0.00251018064876012 0.0 0.0
-0.0025206744736180303 0.0012984747124347093 0.0 -0.0030917443135879226 0.0 0.0
-0.004667383100178267 0.0029679976976678007 0.0 -0.004585457454610822 0.0 0.0
-0.008130618908112825 0.006109820691859755 0.0 -0.0071026403805788015 0.0 0.0
-0.012807761598414659 0.010599014330413112 0.0 -0.01041247621318956 0.0 0.0
-0.018433552524367403 0.01605930157822232 0.0 -0.014100468658460624 0.0 0.0
-0.024787992090013915 0.022238115985619856 0.0 -0.01780092367107829 0.0 0.0
-0.0317725665382091 0.02904687851014425 0.0 -0.02136712498646063 0.0 0.0
-0.03932807723526234 0.03645150867574869 0.0 -0.024848333052197462 0.0 0.0
-0.04730155020200309 0.04432420469964525 0.0 -0.028473183301122872 0.0 0.0
-0.055329543619083515 0.05232085544256336 0.0 -0.03264732326335407 0.0 0.0
-0.06277228264274849 0.05980702024530116 0.0 -0.03779749520475874 0.0 0.0
-0.068569000503323 0.06577181064739897 0.0 -0.04372670423681979 0.0 0.0
-0.07089420928771228 0.0684726917675055 0.0 -0.048833285248154876 0.0 0.0
-0.06610894414958415 0.06471015292905385 0.0 -0.05013446185179193 0.0 0.0
-0.06131892274932767 0.047812707502540505 0.0 2.6856988855072927e-14 0.0 0.0
-0.0661089441495756 0.06471015292903327 0.0 0.050134461851861385 0.0 0.0
-0.07089420928769131 0.06847269176749123 0.0 0.04883328524822408 0.0 0.0
-0.06856900050328625 0.065771810647356 0.0 0.043726704236851405 0.0 0.0
-0.0627722826427008 0.05980702024524891 0.0 0.03779749520475498 0.0 0.0
-0.05532954361903407 0.05232085544251625 0.0 0.032647323263330225 0.0 0.0
-0.0473015502019539 0.04432420469959617 0.0 0.028473183301099048 0.0 0.0
-0.03932807723521346 0.036451508675694466 0.0 0.02484833305217833 0.0 0.0
-0.03177256653816105 0.02904687851009815 0.0 0.021367124986438217 0.0 0.0
-0.02478799208996799 0.022238115985572595 0.0 0.01780092367104847 0.0 0.0
-0.01843355252432682 0.016059301578188943 0.0 0.01410046865842569 0.0 0.0
-0.01280776159838252 0.010599014330382 0.0 0.010412476213161334 0.0 0.0
-0.008130618908091 0.006109820691839402 0.0 0.007102640380563373 0.0 0.0
-0.0046673831001654556 0.0029679976976624838 0.0 0.004585457454599491 0.0 0.0
-0.0025206744736110073 0.0012984747124300056 0.0 0.003091744313581528 0.0 0.0
-0.0014558707624268055 0.0006956783090990609 0.0 0.00251018064875802 0.0 0.0
-0.0009867134641525887 0.000504272576341437 0.0 0.0023666227081627516 0.0 0.0
-0.000718458164632864 0.0003683419946140509 0.0 0.0023524287885432708 0.0 0.0
-0.000458080804748271 0.00017723289076880194 0.0 0.0023320699602619403 0.0 0.0
-7.230087780454e-05 -0.00024067086390258772 0.0 0.0019596756365412795 0.0 0.0
0.00016875623922036584 -0.001090289913800369 0.0 0.0012986473908818525 0.0 0.0
8.153573924808646e-05 -0.0007576747334702815 0.0 -0.001120149369525357 0.0 0.0
-0.00014659045034459738 -0.00019223300211696875 0.0 -0.0017522882448543875 0.0 0.0
-0.000554008449893106 0.00021930007656002976 0.0 -0.0021675175152129603 0.0 0.0
-0.000890812698486331 0.0004344701570145155 0.0 -0.002182564174146566 0.0 0.0
-0.0012683204167904477 0.0006171007185891815 0.0 -0.0021448727901040025 0.0 0.0
-0.001986085264146457 0.0009505708814061863 0.0 -0.002264609651388244 0.0 0.0
-0.003594763694011926 0.0020143299483260622 0.0 -0.0030277158652895725 0.0 0.0
-0.0066426222256739526 0.004602662125258094 0.0 -0.004848141785280904 0.0 0.0
-0.011343042538735637 0.009029960423718484 0.0 -0.007774814771574004 0.0 0.0
-0.01755099078679995 0.015057136168242048 0.0 -0.011490595914090075 0.0 0.0
-0.02496764913954094 0.02229845669489205 0.0 -0.015479498553073713 0.0 0.0
-0.03335904486349118 0.030501084080394827 0.0 -0.019422894387304605 0.0 0.0
-0.042612429381470016 0.039557542773633256 0.0 -0.023202084397273188 0.0 0.0
-0.052664934952798094 0.04942791275525704 0.0 -0.026871171138258005 0.0 0.0
-0.06337451001045143 0.06000396842262121 0.0 -0.0306968443030756 0.0 0.0
-0.0743479823482188 0.07093161360845812 0.0 -0.03524299192782495 0.0 0.0
-0.08473532941395008 0.08140057602941538 0.0 -0.0410158390536341 0.0 0.0
-0.09299593915647167 0.08992459086610431 0.0 -0.04768373431127562 0.0 0.0
-0.09650233127433398 0.09400520868094511 0.0 -0.053413974233791225 0.0 0.0
-0.09088997291162816 0.08951014504345123 0.0 -0.055059910597952934 0.0 0.0
-0.08512671841700739 0.06984648056620359 0.0 2.8466812240779404e-14 0.0 0.0
-0.09088997291161391 0.08951014504343703 0.0 0.05505991059802144 0.0 0.0
-0.09650233127430513 0.09400520868092241 0.0 0.053413974233860476 0.0 0.0
-0.09299593915642541 0.08992459086606217 0.0 0.04768373431131353 0.0 0.0
-0.08473532941389121 0.08140057602935864 0.0 0.04101583905363328 0.0 0.0
-0.07434798234815496 0.07093161360839118 0.0 0.03524299192780366 0.0 0.0
-0.06337451001038698 0.060003968422558035 0.0 0.03069684430305321 0.0 0.0
-0.05266493495273491 0.04942791275519485 0.0 0.026871171138236574 0.0 0.0
-0.0426124293814079 0.03955754277357388 0.0 0.023202084397245908 0.0 0.0
-0.033359044863432386 0.03050108408033944 0.0 0.019422894387274084 0.0 0.0
-0.024967649139489755 0.022298456694836804 0.0 0.01547949855303972 0.0 0.0
-0.01755099078675858 0.015057136168204206 0.0 0.011490595914060868 0.0 0.0
-0.011343042538705465 0.009029960423693193 0.0 0.007774814771555838 0.0 0.0
-0.006642622225655091 0.0046026621252413386 0.0 0.004848141785267703 0.0 0.0
-0.0035947636940014474 0.0020143299483189932 0.0 0.003027715865282994 0.0 0.0
-0.0019860852641419187 0.0009505708814021598 0.0 0.0022646096513853744 0.0 0.0
-0.001268320416789087 0.0006171007185889923 0.0 0.002144872790102659 0.0 0.0
-0.0008908126984859333 0.0004344701570151925 0.0 0.0021825641741467553 0.0 0.0
-0.0005540084498932288 0.00021930007656035473 0.0 0.0021675175152117555 0.0 0.0
-0.0001465904503449085 -0.0001922330021169136 0.0 0.0017522882448516677 0.0 0.0
8.153573924790765e-05 -0.0007576747334692955 0.0 0.001120149369524895 0.0 0.0
6.822473020116313e-06 -0.00048577141236888824 0.0 -0.000927292853626197 0.0 0.0
-0.00021327895845707072 -0.00013301506848559786 0.0 -0.0015155784069753094 0.0 0.0
-0.0006438839961308894 0.00025973005072004764 0.0 -0.001947808731606361 0.0 0.0
-0.0010524036886828713 0.000492558046570168 0.0 -0.001953922981706666 0.0 0.0
-0.0015567912050807413 0.0007267186435511536 0.0 -0.0018593905401211083 0.0 0.0
-0.0025860330595894867 0.0012741447207364187 0.0 -0.0019879533705294563 0.0 0.0
-0.004808636332790604 0.002926197973636667 0.0 -0.0028760907341827957 0.0 0.0
-0.008791974906971289 0.00649554671714582 0.0 -0.004861252493315869 0.0 0.0
-0.014719630739511096 0.012173802754627221 0.0 -0.00794929235552186 0.0 0.0
-0.02241481700169398 0.019677750476994174 0.0 -0.011701350133610232 0.0 0.0
-0.031589608039502 0.028664139790986087 0.0 -0.015675273944106678 0.0 0.0
-0.04200988569159498 0.03887935398754207 0.0 -0.01959639403455383 0.0 0.0
-0.053525777348407966 0.05017881006867705 0.0 -0.0233640184013344 0.0 0.0
-0.06605915776090958 0.06250216802674881 0.0 -0.02701754751694045 0.0 0.0
-0.07948696730526836 0.07575984534264506 0.0 -0.03077614151548172 0.0 0.0
-0.09337638400290338 0.08959045275727805 0.0 -0.03516617096143997 0.0 0.0
-0.1066445664416297 0.1029912176120659 0.0 -0.040805764973685967 0.0 0.0
-0.11722074768997795 0.11396541048116268 0.0 -0.047575238134508625 0.0 0.0
-0.12174188052410703 0.11922106521612022 0.0 -0.05391564386666648 0.0 0.0
-0.11538641685079629 0.11400170526263473 0.0 -0.05781556822641714 0.0 0.0
-0.10879353783131235 0.09195621137810675 0.0 2.988581604412843e-14 0.0 0.0
-0.11538641685077689 0.11400170526261474 0.0 0.05781556822648619 0.0 0.0
-0.12174188052406915 0.11922106521607642 0.0 0.05391564386673654 0.0 0.0
-0.117220747689922 0.11396541048111197 0.0 0.047575238134547615 0.0 0.0
-0.1066445664415599 0.10299121761199509 0.0 0.04080576497368955 0.0 0.0
-0.09337638400282697 0.08959045275719549 0.0 0.03516617096142516 0.0 0.0
-0.07948696730519025 0.07575984534256763 0.0 0.030776141515462083 0.0 0.0
-0.0660591577608324 0.06250216802667578 0.0 0.027017547516919933 0.0 0.0
-0.053525777348331596 0.05017881006859894 0.0 0.023364018401310045 0.0 0.0
-0.04200988569152276 0.038879353987480256 0.0 0.01959639403452231 0.0 0.0
-0.03158960803943938 0.028664139790915727 0.0 0.015675273944069958 0.0 0.0
-0.0224148170016438 0.019677750476946098 0.0 0.011701350133582835 0.0 0.0
-0.014719630739473723 0.012173802754593335 0.0 0.007949292355502749 0.0 0.0
-0.008791974906946259 0.006495546717118107 0.0 0.004861252493301509 0.0 0.0
-0.00480863633277684 0.0029261979736244417 0.0 0.0028760907341733063 0.0 0.0
-0.0025860330595835613 0.001274144720730079 0.0 0.0019879533705256616 0.0 0.0
-0.0015567912050788572 0.0007267186435522507 0.0 0.0018593905401180755 0.0 0.0
-0.0010524036886823873 0.0004925580465686864 0.0 0.0019539229817057855 0.0 0.0
-0.0006438839961303287 0.00025973005072028323 0.0 0.0019478087316041255 0.0 0.0
-0.00021327895845637076 -0.0001330150684858201 0.0 0.001515578406972484 0.0 0.0
6.822473020883036e-06 -0.00048577141236810464 0.0 0.0009272928536262714 0.0 0.0
-5.6109967266256885e-05 -0.00027262346178709895 0.0 -0.0007290636922784706 0.0 0.0
-0.00027291752081350936 -6.807857912679544e-05 0.0 -0.0012510146854909027 0.0 0.0
-0.0007288518983476753 0.0002997219285186766 0.0 -0.001672158253953526 0.0 0.0
-0.0012081528968704033 0.0005430074077205722 0.0 -0.0016672545003245545 0.0 0.0
-0.0018676211076292673 0.0008456528178798414 0.0 -0.0015204691054662787 0.0 0.0
-0.0032676953855225537 0.001694486317045258 0.0 -0.0016698979786807398 0.0 0.0
-0.006154728918193928 0.004031790452462838 0.0 -0.0026006358010511052 0.0 0.0
-0.01108146602877533 0.008586385997584984 0.0 -0.004601194440432069 0.0 0.0
-0.018192835494729435 0.015445705153681197 0.0 -0.007517580225325315 0.0 0.0
-0.027334685124370837 0.024381413369447318 0.0 -0.01099998608332866 0.0 0.0
-0.0382546523617578 0.035094359758075566 0.0 -0.01470315196730437 0.0 0.0
-0.050695859581613094 0.04731472700872959 0.0 -0.0183560505748213 0.0 0.0
-0.06447256895471139 0.06085977653430906 0.0 -0.021884539037253913 0.0 0.0
-0.0794705762640161 0.07562545185320636 0.0 -0.025327878764607837 0.0 0.0
-0.09554550576513571 0.09150124237010895 0.0 -0.028770280382071006 0.0 0.0
-0.11224133919591689 0.10811615589637716 0.0 -0.03251408986928168 0.0 0.0
-0.12829046339082575 0.12433549980157482 0.0 -0.03723363969209898 0.0 0.0
-0.14113921887897396 0.13770804989225108 0.0 -0.043472585262687734 0.0 0.0
-0.14680582492536687 0.14425497159253983 0.0 -0.05088383028344979 0.0 0.0
-0.1400494092725233 0.13868692049007475 0.0 -0.05892588800881751 0.0 0.0
-0.13284042469812346 0.1146516312715403 0.0 2.8362728832220796e-14 0.0 0.0
-0.1400494092724988 0.13868692049004694 0.0 0.058925888008886304 0.0 0.0
-0.14680582492532077 0.14425497159248254 0.0 0.05088383028351306 0.0 0.0
-0.1411392188789073 0.13770804989218824 0.0 0.04347258526272092 0.0 0.0
-0.1282904633907442 0.12433549980148259 0.0 0.037233639692100313 0.0 0.0
-0.1122413391958272 0.10811615589628626 0.0 0.03251408986927209 0.0 0.0
-0.09554550576504331 0.0915012423700189 0.0 0.0287702803820528 0.0 0.0
-0.07947057626392427 0.0756254518531165 0.0 0.025327878764589612 0.0 0.0
-0.06447256895462106 0.06085977653421665 0.0 0.021884539037235144 0.0 0.0
-0.0506958595815292 0.0473147270086551 0.0 0.01835605057479319 0.0 0.0
-0.03825465236168453 0.03509435975800252 0.0 0.014703151967271812 0.0 0.0
-0.027334685124311472 0.024381413369390533 0.0 0.010999986083303057 0.0 0.0
-0.018192835494684815 0.015445705153642023 0.0 0.007517580225305525 0.0 0.0
-0.01108146602874446 0.008586385997551753 0.0 0.004601194440418487 0.0 0.0
-0.0061547289181758955 0.004031790452444734 0.0 0.0026006358010400325 0.0 0.0
-0.0032676953855144434 0.0016944863170382848 0.0 0.0016698979786803556 0.0 0.0
-0.0018676211076265035 0.0008456528178799691 0.0 0.0015204691054640882 0.0 0.0
-0.0012081528968695425 0.0005430074077185357 0.0 0.0016672545003234937 0.0 0.0
-0.000728851898347343 0.0002997219285190925 0.0 0.0016721582539514013 0.0 0.0
-0.0002729175208131688 -6.807857912745299e-05 0.0 0.0012510146854914567 0.0 0.0
-5.610996726585032e-05 -0.000272623461786416 0.0 0.0007290636922770853 0.0 0.0
-0.00010501594903767069 -0.00011805515307658341 0.0 -0.000531696449832535 0.0 0.0
-0.00032319241981133894 -3.277619997536205e-06 0.0 -0.0009616408552472859 0.0 0.0
-0.0008087711045068586 0.0003387836886528934 0.0 -0.001338872588793418 0.0 0.0
-0.0013638389543324384 0.0005875399412731757 0.0 -0.0013175079136486846 0.0 0.0
-0.0022152991173651155 0.000991337686464086 0.0 -0.0011299271189730423 0.0 0.0
-0.004043014719489162 0.0022347857086998575 0.0 -0.0012874055154536237 0.0 0.0
-0.00762404711460982 0.005314122726692891 0.0 -0.0021928870043765357 0.0 0.0
-0.013456578203476302 0.01079731122946276 0.0 -0.003958927213505204 0.0 0.0
-0.0217003977153909 0.018775281278779025 0.0 -0.0064272841485071685 0.0 0.0
-0.03226830687951276 0.029115544384824735 0.0 -0.009404765024189498 0.0 0.0
-0.04491562588679014 0.041537230192074635 0.0 -0.012579298975839471 0.0 0.0
-0.05937280525765465 0.05575669626572029 0.0 -0.01571603568298269 0.0 0.0
-0.07541402383058157 0.07155217838114195 0.0 -0.01876758378448929 0.0 0.0
-0.09285457556451782 0.08875416631196598 0.0 -0.021783470174342352 0.0 0.0
-0.11147912804952767 0.10716679323901178 0.0 -0.0247315070321852 0.0 0.0
-0.1307897325886764 0.1263621535468522 0.0 -0.027545929107586593 0.0 0.0
-0.14945869320141397 0.14517933324524723 0.0 -0.030641158235751493 0.0 0.0
-0.16466434229553076 0.1609940832981477 0.0 -0.03551923658700334 0.0 0.0
-0.17189041453523665 0.16927684092602155 0.0 -0.04427090535294731 0.0 0.0
-0.1652941571157506 0.1640224973271629 0.0 -0.05811157317623794 0.0 0.0
-0.1577432709376133 0.1384364465101681 0.0 2.3528054504673435e-14 0.0 0.0
-0.16529415711572185 0.16402249732714025 0.0 0.058111573176292466 0.0 0.0
-0.17189041453518278 0.16927684092596368 0.0 0.04427090535300333 0.0 0.0
-0.16466434229545351 0.16099408329806536 0.0 0.03551923658703176 0.0 0.0
-0.1494586932013198 0.1451793332451532 0.0 0.030641158235750914 0.0 0.0
-0.13078973258857368 0.12636215354674646 0.0 0.027545929107580018 0.0 0.0
-0.11147912804942163 0.10716679323891923 0.0 0.024731507032170773 0.0 0.0
-0.0928545755644119 0.08875416631186281 0.0 0.02178347017432439 0.0 0.0
-0.0754140238304782 0.07155217838103792 0.0 0.018767583784470604 0.0 0.0
-0.059372805257558274 0.05575669626563069 0.0 0.01571603568295671 0.0 0.0
-0.044915625886706306 0.041537230191993894 0.0 0.012579298975811457 0.0 0.0
-0.03226830687944446 0.02911554438475629 0.0 0.00940476502416528 0.0 0.0
-0.021700397715338812 0.01877528127873235 0.0 0.006427284148488812 0.0 0.0
-0.013456578203440026 0.010797311229427448 0.0 0.0039589272134935875 0.0 0.0
-0.007624047114587595 0.005314122726671825 0.0 0.0021928870043677086 0.0 0.0
-0.004043014719478576 0.0022347857086919367 0.0 0.0012874055154530513 0.0 0.0
-0.0022152991173621218 0.0009913376864644171 0.0 0.0011299271189698476 0.0 0.0
-0.0013638389543311799 0.0005875399412701834 0.0 0.0013175079136496762 0.0 0.0
-0.0008087711045057652 0.00033878368865359763 0.0 0.0013388725887923127 0.0 0.0
-0.0003231924198110667 -3.2776199975134165e-06 0.0 0.0009616408552475025 0.0 0.0
-0.00010501594903789205 -0.00011805515307637939 0.0 0.0005316964498315286 0.0 0.0
-0.00013499205293736015 -2.266383904503598e-05 0.0 -0.0003458157129880092 0.0 0.0
-0.00035853442037268505 5.4134836233540794e-05 0.0 -0.0006515580741049646 0.0 0.0
-0.0008814250614103787 0.0003739038483788666 0.0 -0.0009403076568900372 0.0 0.0
-0.0015291358333251418 0.0006326898358193611 0.0 -0.0008975975590869319 0.0 0.0
-0.0026159015232895466 0.001186499970499178 0.0 -0.0006977400293043628 0.0 0.0
-0.004919646727935495 0.0029172106820886815 0.0 -0.0008365074085977456 0.0 0.0
-0.009178485852857122 0.006725915050356938 0.0 -0.001580565583268715 0.0 0.0
-0.01586705419328183 0.0130622404883612 0.0 -0.0028696991160471557 0.0 0.0
-0.02520873473726928 0.02211870325624636 0.0 -0.004698184215525506 0.0 0.0
-0.03717103066334352 0.03383210604599049 0.0 -0.006921083574365386 0.0 0.0
-0.05152800990917709 0.047944195441362476 0.0 -0.00930898009429313 0.0 0.0
-0.0679936475879149 0.0641564549970615 0.0 -0.011678563110736074 0.0 0.0
-0.08629903184641831 0.08220538785097531 0.0 -0.014010132631608252 0.0 0.0
-0.10617541630853944 0.10183954313663436 0.0 -0.016363167313489146 0.0 0.0
-0.12725700986673477 0.12272016438141176 0.0 -0.018633348081224667 0.0 0.0
-0.1489235273519986 0.14426896366669775 0.0 -0.020482905084516185 0.0 0.0
-0.16992948334175773 0.1653326461921785 0.0 -0.021816075617376286 0.0 0.0
-0.18762415169515184 0.1835132164544581 0.0 -0.02430085175404777 0.0 0.0
-0.19710214444373422 0.19429467843831166 0.0 -0.032994284728958635 0.0 0.0
-0.19155885084948476 0.19054549989658348 0.0 -0.054233926503916 0.0 0.0
-0.1841065460444528 0.16400944608009374 0.0 2.211252014827636e-14 0.0 0.0
-0.19155885084945118 0.1905454998965587 0.0 0.05423392650396047 0.0 0.0
-0.19710214444367183 0.19429467843825365 0.0 0.03299428472900182 0.0 0.0
-0.1876241516950632 0.18351321645436242 0.0 0.024300851754067355 0.0 0.0
-0.16992948334165012 0.16533264619207855 0.0 0.02181607561737536 0.0 0.0
-0.1489235273518827 0.14426896366658207 0.0 0.020482905084513624 0.0 0.0
-0.12725700986661617 0.12272016438129954 0.0 0.01863334808121888 0.0 0.0
-0.10617541630841974 0.10183954313651628 0.0 0.016363167313475823 0.0 0.0
-0.08629903184630103 0.0822053878508578 0.0 0.01401013263159806 0.0 0.0
-0.06799364758780646 0.06415645499695688 0.0 0.011678563110717965 0.0 0.0
-0.05152800990908316 0.04794419544126986 0.0 0.009308980094271517 0.0 0.0
-0.03717103066326683 0.03383210604591537 0.0 0.006921083574348029 0.0 0.0
-0.025208734737209835 0.02211870325618487 0.0 0.004698184215513602 0.0 0.0
-0.015867054193239572 0.013062240488324947 0.0 0.0028696991160382154 0.0 0.0
-0.009178485852830839 0.006725915050330843 0.0 0.001580565583264438 0.0 0.0
-0.004919646727922341 0.002917210682081343 0.0 0.0008365074085947505 0.0 0.0
-0.002615901523284885 0.0011864999704964047 0.0 0.0006977400293030301 0.0 0.0
-0.0015291358333236016 0.000632689835817254 0.0 0.0008975975590863412 0.0 0.0
-0.0008814250614096516 0.00037390384838 0.0 0.0009403076568888576 0.0 0.0
-0.0003585344203724578 5.413483623413578e-05 0.0 0.0006515580741039296 0.0 0.0
-0.0001349920529373862 -2.266383904532337e-05 0.0 0.00034581571298791987 0.0 0.0
-0.00013716052699372852 1.3773283295704312e-05 0.0 -0.00019369017105419552 0.0 0.0
-0.0003685341326668516 9.299978277011437e-05 0.0 -0.00032655545992282337 0.0 0.0
-0.0009433403276749904 0.00039922107979711765 0.0 -0.0004560348330245874 0.0 0.0
-0.0017185813630916165 0.0006955817737032808 0.0 -0.0004059170332062694 0.0 0.0
-0.003087263062588949 0.0014619190257730526 0.0 -0.000230203004184682 0.0 0.0
-0.005882866078568276 0.00372980704880883 0.0 -0.00028999547948434885 0.0 0.0
-0.010786080052345461 0.008214636908801223 0.0 -0.0006908987184146548 0.0 0.0
-0.018281081779139004 0.01534551493762374 0.0 -0.001369697799824538 0.0 0.0
-0.02867561229270197 0.02543267648612268 0.0 -0.0023384621169060646 0.0 0.0
-0.04199828521187488 0.03848277536603571 0.0 -0.0035520884600140214 0.0 0.0
-0.05804530995003364 0.05426761130757904 0.0 -0.004884032200952308 0.0 0.0
-0.07651293607589056 0.07246863292090927 0.0 -0.006237738291990673 0.0 0.0
-0.09708044348279798 0.09276810970790628 0.0 -0.007618720427777148 0.0 0.0
-0.11937251921861661 0.11481703260564669 0.0 -0.009033202743682979 0.0 0.0
-0.1428545407821457 0.13812030548651133 0.0 -0.01037675150871853 0.0 0.0
-0.1666969196382542 0.16188231656610882 0.0 -0.011351248418056549 0.0 0.0
-0.18961799325988907 0.18482878274612763 0.0 -0.011560351952417598 0.0 0.0
-0.2095147217984986 0.20489397829376654 0.0 -0.01164737683101553 0.0 0.0
-0.2222252726662617 0.21847627352586954 0.0 -0.01681876338286334 0.0 0.0
-0.21948500789251513 0.21876847873073157 0.0 -0.04132953566460991 0.0 0.0
-0.21289403409834856 0.19333830887239215 0.0 1.2495213197460942e-14 0.0 0.0
-0.2194850078924779 0.21876847873069005 0.0 0.04132953566463821 0.0 0.0
-0.22222527266619105 0.21847627352580642 0.0 0.016818763382888204 0.0 0.0
-0.20951472179839764 0.20489397829366393 0.0 0.011647376831028223 0.0 0.0
-0.189617993259767 0.1848287827460037 0.0 0.011560351952417919 0.0 0.0
-0.16669691963812472 0.1618823165659854 0.0 0.011351248418058242 0.0 0.0
-0.1428545407820145 0.1381203054863748 0.0 0.010376751508716009 0.0 0.0
-0.11937251921848317 0.11481703260552598 0.0 0.009033202743673929 0.0 0.0
-0.09708044348266703 0.09276810970777292 0.0 0.007618720427775836 0.0 0.0
-0.07651293607576978 0.07246863292079006 0.0 0.006237738291980653 0.0 0.0
-0.058045309949929624 0.05426761130747949 0.0 0.00488403220094206 0.0 0.0
-0.04199828521178953 0.0384827753659515 0.0 0.0035520884600043793 0.0 0.0
-0.028675612292635804 0.025432676486049553 0.0 0.0023384621168997467 0.0 0.0
-0.01828108177909199 0.015345514937581694 0.0 0.0013696977998223624 0.0 0.0
-0.010786080052315532 0.008214636908769354 0.0 0.0006908987184110823 0.0 0.0
-0.005882866078552301 0.003729807048797577 0.0 0.00028999547948382334 0.0 0.0
-0.0030872630625829716 0.0014619190257682002 0.0 0.00023020300418525577 0.0 0.0
-0.001718581363090088 0.0006955817737020705 0.0 0.000405917033207397 0.0 0.0
-0.0009433403276740016 0.00039922107979779614 0.0 0.0004560348330225569 0.0 0.0
-0.0003685341326665626 9.29997827699742e-05 0.0 0.0003265554599229236 0.0 0.0
-0.00013716052699370878 1.3773283295332405e-05 0.0 0.00019369017105362005 0.0 0.0
-9.570587244449013e-05 1.7399290556955897e-05 0.0 -0.00011688194895223978 0.0 0.0
-0.0003345033037485051 0.00010603855175034867 0.0 -0.0001357678365650687 0.0 0.0
-0.0009908736303613874 0.00040854296526535584 0.0 -0.00014672816208600287 0.0 0.0
-0.0019525200454430691 0.000734327346009398 0.0 -5.448431299971758e-05 0.0 0.0
-0.003638153334926489 0.001624624580273281 0.0 0.0002512104627685072 0.0 0.0
-0.006912313837554824 0.0041632513911096436 0.0 0.0005098444239443983 0.0 0.0
-0.012420123763470091 0.00897288311829093 0.0 0.0006375789266511668 0.0 0.0
-0.020669986155838083 0.016487997928439874 0.0 0.0006687652020129196 0.0 0.0
-0.03206081619088657 0.027076510815947953 0.0 0.0005871277183527239 0.0 0.0
-0.04670292022858461 0.04078569929424851 0.0 0.00034083167849479745 0.0 0.0
-0.06442219351392352 0.05740223857502485 0.0 -2.8685683032099278e-05 0.0 0.0
-0.08488795764804243 0.07659762910307213 0.0 -0.0004965892213080175 0.0 0.0
-0.10769835123575927 0.09802047052859815 0.0 -0.0010788519921531015 0.0 0.0
-0.13237542908577984 0.12126919294716984 0.0 -0.0017458524943190085 0.0 0.0
-0.15823851723363708 0.14577618764221767 0.0 -0.002474350693752618 0.0 0.0
-0.18422512983421943 0.17062683845278043 0.0 -0.0030966805765460965 0.0 0.0
-0.20879605542828628 0.19443590264758387 0.0 -0.003267417157511391 0.0 0.0
-0.23000300250553912 0.21526292890859938 0.0 -0.00296717097932098 0.0 0.0
-0.24546796548541772 0.2301663937429154 0.0 -0.006234644236220574 0.0 0.0
-0.24949181020383426 0.23335523349649492 0.0 -0.03219871961665101 0.0 0.0
-0.24754934019137628 0.20932783350049586 0.0 4.1772141301521515e-15 0.0 0.0
-0.24949181020379368 0.23335523349644752 0.0 0.032198719616665164 0.0 0.0
-0.24546796548533822 0.23016639374285142 0.0 0.006234644236233017 0.0 0.0
-0.23000300250542413 0.21526292890848908 0.0 0.0029671709793229924 0.0 0.0
-0.20879605542814866 0.19443590264744876 0.0 0.0032674171575045666 0.0 0.0
-0.18422512983407552 0.1706268384526455 0.0 0.0030966805765416383 0.0 0.0
-0.15823851723349228 0.14577618764207553 0.0 0.002474350693750401 0.0 0.0
-0.13237542908563227 0.12126919294705335 0.0 0.0017458524943120349 0.0 0.0
-0.10769835123561505 0.0980204705284565 0.0 0.0010788519921521925 0.0 0.0
-0.08488795764790945 0.07659762910294445 0.0 0.0004965892213014793 0.0 0.0
-0.0644221935138095 0.05740223857492201 0.0 2.868568302877121e-05 0.0 0.0
-0.046702920228492525 0.04078569929415605 0.0 -0.0003408316784975036 0.0 0.0
-0.03206081619081418 0.02707651081587023 0.0 -0.0005871277183561248 0.0 0.0
-0.020669986155785768 0.016487997928390855 0.0 -0.000668765202010924 0.0 0.0
-0.012420123763436533 0.008972883118259282 0.0 -0.0006375789266526931 0.0 0.0
-0.006912313837536316 0.004163251391094308 0.0 -0.0005098444239409322 0.0 0.0
-0.003638153334918849 0.0016246245802693713 0.0 -0.00025121046276834445 0.0 0.0
-0.001952520045441237 0.0007343273460077844 0.0 5.448431300452214e-05 0.0 0.0
-0.0009908736303608611 0.000408542965264928 0.0 0.00014672816208394565 0.0 0.0
-0.00033450330374791933 0.00010603855174961667 0.0 0.00013576783656722453 0.0 0.0
-9.570587244401272e-05 1.7399290556475087e-05 0.0 0.00011688194895005411 0.0 0.0
SCALARS Statev float 8
LOOKUP_TABLE default
0.0 0.021343088801867936 0.017200724732021916 -0.020317364481260557 0.003116639749238658 -0.0014445773294391932 0.0 0.0
0.0 0.007745385540659068 0.005787403026261259 -0.003797738339455121 -0.001989664686806132 -0.0076999505891169025 0.0 0.0
0.0 0.0002881237581556379 0.00034806353953143674 -0.00020904298877968389 -0.00013902055075175286 -0.0004835066491255286 0.0 0.0
0.0 0.0002614297671190509 0.00017380677732328726 -0.0001250029578187344 -4.880381950455355e-05 4.5484394454558955e-05 0.0 0.0
0.0 0.0015005634647780978 0.0011611325397201922 -0.000862091758849945 -0.0002990407808702464 0.0002363256230330348 0.0 0.0
0.0 0.004057086709412064 0.003908828676711413 -0.003187905691404768 -0.0007209229853066521 0.00046590702309364055 0.0 0.0
0.0 0.00981173472138392 0.008919806691596723 -0.007856441620465063 -0.0010633650711316493 0.0006302517307112848 0.0 0.0
0.0 0.01866134429825926 0.01671966418695706 -0.015381574152418379 -0.0013380900345386674 0.0006894011474874786 0.0 0.0
0.0 0.03115652794079303 0.027663493296550844 -0.026050814767110735 -0.001612678529440081 0.0006345214239326623 0.0 0.0
0.0 0.04743810610880954 0.04184315451867107 -0.03991703529989131 -0.0019261192187797502 0.00041883736115345385 0.0 0.0
0.0 0.06730152394878633 0.0590876312232816 -0.05679311546804184 -0.002294515755239749 7.002837654262399e-05 0.0 0.0
0.0 0.09005248262939701 0.07908243015585723 -0.07636401716700184 -0.002718412988855283 -0.0003874616161529777 0.0 0.0
0.0 0.11562267416220068 0.10145684332111651 -0.09827271258659112 -0.003184130734525408 -0.0009509363089863449 0.0 0.0
0.0 0.1434954286715 0.1258130962162045 -0.12213815605876405 -0.0036749401574403635 -0.0015728486845293771 0.0 0.0
0.0 0.17309707887568615 0.1516471763905906 -0.14747759669185123 -0.004169579698739207 -0.0022624963549284925 0.0 0.0
0.0 0.20361447306475974 0.17821298195571514 -0.17356961459181458 -0.004643367363900374 -0.0029681895526052263 0.0 0.0
0.0 0.2337842691282364 0.20444420841583177 -0.19937364157624726 -0.005070566839584701 -0.0035384943452747885 0.0 0.0
0.0 0.262015019691999 0.22897291421369034 -0.22354619708707602 -0.005426717126614224 -0.003768356724655735 0.0 0.0
0.0 0.2864785235580738 0.25023545213696485 -0.24452230898746408 -0.005713143149500027 -0.0035619810971469212 0.0 0.0
0.0 0.30467678748075644 0.2662736773794825 -0.26037474110348 -0.005898936276002895 -0.004545732804972821 0.0 0.0
0.0 0.31269399674665554 0.27278985736918954 -0.26690513959250667 -0.005884717776682472 3.54230533794464e-15 0.0 0.0
0.0 0.30467678748070304 0.26627367737943675 -0.2603747411034325 -0.0058989362760046155 0.004545732804984165 0.0 0.0
0.0 0.2864785235579881 0.25023545213688897 -0.24452230898739083 -0.005713143149497456 0.003561981097162485 0.0 0.0
0.0 0.26201501969188423 0.22897291421358928 -0.223546197086979 -0.0054267171266103005 0.0037683567246589653 0.0 0.0
0.0 0.2337842691280953 0.20444420841570893 -0.19937364157612744 -0.005070566839581777 0.0035384943452710545 0.0 0.0
0.0 0.20361447306459415 0.17821298195557114 -0.1735696145916703 -0.004643367363900576 0.0029681895525973303 0.0 0.0
0.0 0.17309707887552445 0.15164717639045017 -0.14747759669171256 -0.004169579698737602 0.002262496354928121 0.0 0.0
0.0 0.14349542867134166 0.12581309621606646 -0.12213815605862845 -0.0036749401574380763 0.0015728486845280549 0.0 0.0
0.0 0.11562267416204867 0.101456843320984 -0.09827271258646114 -0.003184130734522647 0.0009509363089817797 0.0 0.0
0.0 0.0900524826292565 0.0790824301557343 -0.07636401716688145 -0.0027184129888527344 0.00038746161614823483 0.0 0.0
0.0 0.06730152394866787 0.05908763122317797 -0.05679311546794102 -0.002294515755236964 -7.002837655055265e-05 0.0 0.0
0.0 0.047438106108715065 0.04184315451858845 -0.039917035299810555 -0.0019261192187779723 -0.00041883736115645395 0.0 0.0
0.0 0.031156527940720158 0.027663493296486746 -0.026050814767048316 -0.0016126785294384074 -0.0006345214239314189 0.0 0.0
0.0 0.018661344298215362 0.016719664186917706 -0.01538157415238067 -0.0013380900345369995 -0.000689401147487897 0.0 0.0
0.0 0.00981173472135198 0.008919806691567514 -0.007856441620437483 -0.0010633650711300336 -0.0006302517307110318 0.0 0.0
0.0 0.004057086709396424 0.003908828676696325 -0.003187905691391427 -0.0007209229853049103 -0.0004659070230926172 0.0 0.0
0.0 0.0015005634647721657 0.0011611325397156316 -0.0008620917588465502 -0.00029904078086907804 -0.0002363256230318429 0.0 0.0
0.0 0.0002614297671170608 0.00017380677732218815 -0.00012500295781795465 -4.8803819504232676e-05 -4.5484394454351595e-05 0.0 0.0
0.0 0.0002881237581553347 0.00034806353953129417 -0.00020904298877967857 -0.0001390205507516141 0.00048350664912410796 0.0 0.0
0.0 0.007745385540647465 0.0057874030262553364 -0.0037977383394504653 -0.0019896646868048716 0.007699950589106778 0.0 0.0
0.0 0.021343088801845482 0.01720072473200716 -0.020317364481240205 0.0031166397492330307 0.0014445773293926085 0.0 0.0
0.0 0.017619777002471394 0.013342065028317232 -0.017016198779427973 0.003674133751110741 -0.0009441349844995913 0.0 0.0
0.0 0.004998592103750635 0.003604188234984768 -0.0023605094541961796 -0.0012436787807885861 -0.006277305708520452 0.0 0.0
0.0 -0.00010424160656207516 -8.14475169959206e-05 8.078437576910308e-05 6.631412268174583e-07 -0.000153380348509462 0.0 0.0
0.0 8.896793290448858e-05 7.976248616457068e-05 -5.754284422061647e-05 -2.2219641943954152e-05 2.256501010857216e-05 0.0 0.0
0.0 0.0009337793514783201 0.0008074347226664489 -0.0006046608547023353 -0.00020277386796411297 8.769687507626992e-05 0.0 0.0
0.0 0.003512957946952815 0.0031210521154572293 -0.0025737776984821516 -0.0005472744169750837 3.540176867414834e-05 0.0 0.0
0.0 0.008461886812714266 0.007659153836813817 -0.006843362163776473 -0.0008157916730373458 -0.0003688391669658979 0.0 0.0
0.0 0.01668547493706138 0.014820259956743567 -0.013850746230994608 -0.00096951372574897 -0.001044133625810736 0.0 0.0
0.0 0.028346444093828256 0.02492526654419719 -0.023847807683314147 -0.0010774588608830173 -0.0019976879121038 0.0 0.0
0.0 0.04344990755314624 0.03800130412366926 -0.036830447698577885 -0.0011708564250914148 -0.0031972205236021163 0.0 0.0
0.0 0.06179998575992471 0.053850481566059906 -0.05259045756091637 -0.0012600240051435676 -0.004535902922109738 0.0 0.0
0.0 0.08315238126613866 0.07217786377291334 -0.07082745836661211 -0.001350405406301137 -0.005915041244557239 0.0 0.0
0.0 0.10656198949469813 0.09267857166381736 -0.09123661670805994 -0.0014419549557573932 -0.007316997256729867 0.0 0.0
0.0 0.13237287069026896 0.11500740222975872 -0.11347957294474081 -0.0015278292850179358 -0.008731965452936342 0.0 0.0
0.0 0.15976806967133655 0.13871572912917574 -0.13711759492436604 -0.0015981342048095428 -0.010102940989473657 0.0 0.0
0.0 0.18801894687819315 0.16314457771555224 -0.16149992067332886 -0.0016446570422234176 -0.01128548647654575 0.0 0.0
0.0 0.2160559749277075 0.18734875797009884 -0.18568571177446744 -0.0016630461956312326 -0.011981549132366 0.0 0.0
0.0 0.24242966915578865 0.2100851753565917 -0.20843034326660442 -0.0016548320899872986 -0.011844779354878003 0.0 0.0
0.0 0.2652472654070076 0.22975840103138198 -0.2281542588024532 -0.0016041422289286092 -0.010829115874535299 0.0 0.0
0.0 0.28189486329370217 0.24401999537323343 -0.24261386603664195 -0.0014061293365914443 -0.010181445218963484 0.0 0.0
0.0 0.28931620360858645 0.24959683115583894 -0.2484878542266407 -0.0011089769291984049 1.0146397610988345e-14 0.0 0.0
0.0 0.2818948632936555 0.24401999537319316 -0.24261386603659993 -0.0014061293365930658 0.01018144521898976 0.0 0.0
0.0 0.26524726540692517 0.22975840103131076 -0.22815425880238166 -0.0016041422289290105 0.010829115874564844 0.0 0.0
0.0 0.24242966915568004 0.21008517535649754 -0.20843034326651122 -0.0016548320899862233 0.01184477935489418 0.0 0.0
0.0 0.21605597492757572 0.1873487579699852 -0.18568571177435458 -0.0016630461956308202 0.011981549132364504 0.0 0.0
0.0 0.18801894687804172 0.16314457771542223 -0.16149992067319713 -0.0016446570422247431 0.011285486476536231 0.0 0.0
0.0 0.15976806967118393 0.1387157291290436 -0.13711759492423337 -0.0015981342048102692 0.01010294098947146 0.0 0.0
0.0 0.13237287069012627 0.11500740222963521 -0.11347957294461768 -0.001527829285017461 0.008731965452931832 0.0 0.0
0.0 0.10656198949455634 0.09267857166369524 -0.0912366167079378 -0.0014419549557574893 0.00731699725672069 0.0 0.0
0.0 0.08315238126600848 0.07217786377280043 -0.0708274583664994 -0.0013504054063011028 0.005915041244547375 0.0 0.0
0.0 0.0617999857598138 0.0538504815659641 -0.052590457560820994 -0.0012600240051430906 0.0045359029220964344 0.0 0.0
0.0 0.04344990755305848 0.038001304123592594 -0.036830447698501675 -0.0011708564250908528 0.003197220523593185 0.0 0.0
0.0 0.028346444093762482 0.024925266544139197 -0.023847807683256946 -0.0010774588608822465 0.001997687912099463 0.0 0.0
0.0 0.01668547493701883 0.014820259956705805 -0.013850746230957625 -0.0009695137257482052 0.001044133625806052 0.0 0.0
0.0 0.008461886812684494 0.007659153836787171 -0.006843362163750776 -0.0008157916730363834 0.0003688391669627706 0.0 0.0
0.0 0.0035129579469363875 0.003121052115442768 -0.0025737776984692544 -0.0005472744169735092 -3.5401768675023476e-05 0.0 0.0
0.0 0.0009337793514741225 0.0008074347226632799 -0.0006046608546999844 -0.00020277386796329684 -8.769687507562756e-05 0.0 0.0
0.0 8.896793290355581e-05 7.97624861642684e-05 -5.754284422041538e-05 -2.2219641943852894e-05 -2.256501010843207e-05 0.0 0.0
0.0 -0.00010424160656215637 -8.14475169953347e-05 8.078437576859212e-05 6.63141226742158e-07 0.00015338034850916676 0.0 0.0
0.0 0.004998592103738986 0.003604188234978412 -0.002360509454191479 -0.001243678780786935 0.006277305708508762 0.0 0.0
0.0 0.01761977700244695 0.013342065028298657 -0.017016198779405068 0.003674133751106406 0.0009441349844640478 0.0 0.0
0.0 0.013391258804491496 0.009927758113974134 -0.012992605586364257 0.003064847472390132 -0.0037395382449030806 0.0 0.0
0.0 0.0034417531336752064 0.0022137961069440036 -0.0012776225187703224 -0.0009361735881736848 -0.005617826590136303 0.0 0.0
0.0 -1.5050789982771395e-06 -8.43276369883198e-09 3.524794977053333e-07 -3.440467340064955e-07 -4.7092624534237435e-07 0.0 0.0
0.0 9.104061854559572e-06 7.864036717760296e-06 -4.682044199463234e-06 -3.1819925182971865e-06 1.0066171737502474e-05 0.0 0.0
0.0 0.0004926018355224108 0.0004495305465697692 -0.0003278312884819341 -0.00012169925808783514 6.278067096879969e-06 0.0 0.0
0.0 0.0025914458459238253 0.0022597700826715345 -0.0018125350371139284 -0.00044723504555760406 -0.0002007789042959259 0.0 0.0
0.0 0.006739371617996859 0.006168538310134572 -0.005415394840357935 -0.0007531434697766373 -0.000980631808625775 0.0 0.0
0.0 0.014111091123288028 0.012526685422866063 -0.011605767749911535 -0.0009209176729545296 -0.002268652642729344 0.0 0.0
0.0 0.024567495943670754 0.021580090595974644 -0.020555089106823896 -0.0010250014891507217 -0.004066774729585136 0.0 0.0
0.0 0.03819651053650649 0.03329548386658589 -0.03218498477569172 -0.0011104990908941815 -0.006269549781206561 0.0 0.0
0.0 0.05466037393609027 0.0474524113495574 -0.046258401792010594 -0.0011940095575467837 -0.008674802262083557 0.0 0.0
0.0 0.07352307252274948 0.06377877351130663 -0.06249848467738761 -0.001280288833919049 -0.011099274265635868 0.0 0.0
0.0 0.09483172572325994 0.08201411349230157 -0.08064707301838238 -0.0013670404739191168 -0.013494003704346093 0.0 0.0
0.0 0.1175754116324814 0.10189170100019848 -0.10044332949316023 -0.0014483715070382215 -0.015889781967219904 0.0 0.0
0.0 0.14206070415582853 0.12303862058954898 -0.12152152319175927 -0.001517097397789884 -0.01821090171559724 0.0 0.0
0.0 0.16737386685904956 0.14491189688032619 -0.14334615565374897 -0.0015657412265771458 -0.02019565515397298 0.0 0.0
0.0 0.19261126964281836 0.16672155391643773 -0.16513252643537685 -0.0015890274810610868 -0.021383477291779977 0.0 0.0
0.0 0.2164534488915737 0.18733802663157242 -0.1857607655421885 -0.0015772610893839674 -0.0212854097770547 0.0 0.0
0.0 0.23706697603829857 0.2051300625895247 -0.20362996404195735 -0.0015000985475672002 -0.019756132978956505 0.0 0.0
0.0 0.25195597853809215 0.2179285164016619 -0.21654291892458172 -0.0013855974770796912 -0.01702724639574624 0.0 0.0
0.0 0.2589361176939024 0.22308691234571873 -0.22203632817016863 -0.0010505841755502085 2.009069993702539e-14 0.0 0.0
0.0 0.2519559785380547 0.2179285164016278 -0.21654291892454758 -0.0013855974770802203 0.017027246395794803 0.0 0.0
0.0 0.2370669760382325 0.20513006258946684 -0.2036299640419 -0.0015000985475670308 0.019756132979004196 0.0 0.0
0.0 0.21645344889147178 0.18733802663148474 -0.18576076554209947 -0.0015772610893851108 0.021285409777083986 0.0 0.0
0.0 0.19261126964270295 0.1667215539163386 -0.1651325264352778 -0.0015890274810609136 0.021383477291780452 0.0 0.0
0.0 0.16737386685891975 0.14491189688021405 -0.14334615565363654 -0.001565741226577521 0.020195655153963734 0.0 0.0
0.0 0.14206070415569536 0.12303862058943384 -0.12152152319164389 -0.001517097397789862 0.0182109017155914 0.0 0.0
0.0 0.11757541163235505 0.1018917010000889 -0.10044332949305144 -0.001448371507037402 0.015889781967213832 0.0 0.0
0.0 0.09483172572313428 0.0820141134921935 -0.08064707301827401 -0.001367040473919387 0.013494003704333618 0.0 0.0
0.0 0.07352307252263446 0.06377877351120775 -0.062498484677288586 -0.001280288833919077 0.011099274265618589 0.0 0.0
0.0 0.05466037393599099 0.04745241134947165 -0.046258401791924905 -0.001194009557546767 0.008674802262064464 0.0 0.0
0.0 0.038196510536427294 0.03329548386651653 -0.03218498477562287 -0.0011104990908936342 0.006269549781191401 0.0 0.0
0.0 0.024567495943613817 0.021580090595924792 -0.020555089106774886 -0.0010250014891499042 0.004066774729575814 0.0 0.0
0.0 0.014111091123244528 0.012526685422828273 -0.011605767749874254 -0.0009209176729539839 0.0022686526427205976 0.0 0.0
0.0 0.00673937161797172 0.006168538310112031 -0.005415394840336441 -0.0007531434697755964 0.0009806318086203155 0.0 0.0
0.0 0.0025914458459105707 0.0022597700826601052 -0.0018125350371040372 -0.00044723504555606823 0.00020077890429395448 0.0 0.0
0.0 0.0004926018355194492 0.000449530546567672 -0.00032783128848046467 -0.00012169925808720725 -6.2780670966170205e-06 0.0 0.0
0.0 9.104061854224865e-06 7.864036717617878e-06 -4.6820441993596825e-06 -3.181992518258166e-06 -1.006617173747541e-05 0.0 0.0
0.0 -1.5050789981387839e-06 -8.43276374300273e-09 3.5247949772839795e-07 -3.4404673398539426e-07 4.7092624528822544e-07 0.0 0.0
0.0 0.0034417531336654213 0.002213796106938315 -0.0012776225187664486 -0.0009361735881718552 0.0056178265901217946 0.0 0.0
0.0 0.013391258804465456 0.009927758113954863 -0.012992605586340342 0.0030648474723854492 0.0037395382448794636 0.0 0.0
0.0 0.010323952026167189 0.007469032140219748 -0.00996680440504097 0.0024977722648211946 -0.004009396347896129 0.0 0.0
0.0 0.0025637697154114866 0.0015513203487121266 -0.0008746037408136622 -0.0006767166078984593 -0.0043639426454786245 0.0 0.0
0.0 0.0 0.0 0.0 0.0 0.0 0.0 0.0
0.0 -9.131698942616545e-06 -8.096324599638994e-06 6.465434086908631e-06 1.630890512730359e-06 6.891275528174603e-06 0.0 0.0
0.0 0.00021543694856013417 0.0001907430729328489 -0.00013427714628488828 -5.646592664795987e-05 -8.108538699975852e-06 0.0 0.0
0.0 0.00168527879490241 0.001523029193061514 -0.0011865111334844118 -0.0003365180595770997 -0.00032745831774703873 0.0 0.0
0.0 0.00535348301465116 0.004734448027680148 -0.004064290473411224 -0.0006701575542689197 -0.0012906021196512495 0.0 0.0
0.0 0.011594918178390529 0.0102553925835204 -0.009392463495501251 -0.000862929088019145 -0.003076408306281395 0.0 0.0
0.0 0.020860896007177193 0.018213053226737577 -0.0172454776269505 -0.0009675755997870687 -0.005512770325751877 0.0 0.0
0.0 0.0329322812695435 0.028533289388291055 -0.027486767785507692 -0.001046521602783357 -0.008467306859833646 0.0 0.0
0.0 0.04741996958760796 0.040977384829162744 -0.039853769764249855 -0.0011236150649127975 -0.011663763781104536 0.0 0.0
0.0 0.06415367023146108 0.05528991270404414 -0.05408498138380094 -0.0012049313202432007 -0.014876839278190548 0.0 0.0
0.0 0.08257559415181247 0.07125703230371014 -0.06996962481532626 -0.0012874074883838576 -0.018045152113270266 0.0 0.0
0.0 0.10301780336169851 0.08866131987753473 -0.08729753922342445 -0.0013637806541102163 -0.02117935509132027 0.0 0.0
0.0 0.12445067313098974 0.10722791699510176 -0.10579754306215428 -0.001430373932947441 -0.024198095350453176 0.0 0.0
0.0 0.1466399607729395 0.12653905875841265 -0.12505679018435215 -0.0014822685740605243 -0.02682000766616613 0.0 0.0
0.0 0.16917804185016788 0.1459496714397372 -0.1444407038628026 -0.0015089675769346664 -0.02852391793573661 0.0 0.0
0.0 0.19056832558085035 0.16445283152750492 -0.16295796431237367 -0.0014948672151311828 -0.028707922048699912 0.0 0.0
0.0 0.20914641316479549 0.18055230931660968 -0.17911768331745936 -0.0014346259991503308 -0.02677140306235046 0.0 0.0
0.0 0.22276914028301315 0.19239844204816234 -0.19103635066872823 -0.0013620913794344556 -0.021738818595162312 0.0 0.0
0.0 0.22977056728131143 0.19748394995783564 -0.19658741043755515 -0.0008965395202805439 2.7720881146109377e-14 0.0 0.0
0.0 0.22276914028298586 0.19239844204813591 -0.19103635066870212 -0.0013620913794339037 0.021738818595225563 0.0 0.0
0.0 0.20914641316473856 0.18055230931655805 -0.17911768331740818 -0.0014346259991496247 0.026771403062412394 0.0 0.0
0.0 0.19056832558075826 0.16445283152742524 -0.16295796431229248 -0.0014948672151328135 0.028707922048735568 0.0 0.0
0.0 0.16917804185006885 0.14594967143965207 -0.1444407038627171 -0.0015089675769350637 0.028523917935741005 0.0 0.0
0.0 0.14663996077282548 0.12653905875831437 -0.12505679018425403 -0.0014822685740601307 0.026820007666154992 0.0 0.0
0.0 0.12445067313087782 0.10722791699500471 -0.10579754306205727 -0.00143037393294754 0.024198095350442726 0.0 0.0
0.0 0.10301780336158618 0.08866131987743699 -0.08729753922332746 -0.0013637806541095705 0.021179355091310362 0.0 0.0
0.0 0.08257559415170611 0.07125703230361902 -0.06996962481523553 -0.001287407488383437 0.018045152113254227 0.0 0.0
0.0 0.06415367023135768 0.05528991270395496 -0.05408498138371185 -0.0012049313202431963 0.014876839278166704 0.0 0.0
0.0 0.047419969587523314 0.040977384829089934 -0.039853769764177684 -0.0011236150649121843 0.011663763781081643 0.0 0.0
0.0 0.03293228126947191 0.028533289388229313 -0.027486767785446384 -0.001046521602782909 0.0084673068598125 0.0 0.0
0.0 0.02086089600712552 0.01821305322669291 -0.017245477626906446 -0.0009675755997864579 0.005512770325738128 0.0 0.0
0.0 0.011594918178352094 0.010255392583486584 -0.009392463495467978 -0.0008629290880185971 0.003076408306269875 0.0 0.0
0.0 0.005353483014627915 0.004734448027660527 -0.0040642904733930625 -0.0006701575542674615 0.0012906021196442304 0.0 0.0
0.0 0.0016852787948940632 0.0015230291930547317 -0.0011865111334788648 -0.00033651805957586595 0.00032745831774529647 0.0 0.0
0.0 0.00021543694855753935 0.00019074307293110568 -0.00013427714628363538 -5.6465926647469886e-05 8.108538699666617e-06 0.0 0.0
0.0 -9.131698942836055e-06 -8.096324599585512e-06 6.465434086865339e-06 1.630890512720203e-06 -6.891275528108546e-06 0.0 0.0
0.0 0.0 0.0 0.0 0.0 0.0 0.0 0.0
0.0 0.0025637697154028954 0.0015513203487071054 -0.0008746037408102386 -0.0006767166078968708 0.004363942645465806 0.0 0.0
0.0 0.010323952026145694 0.007469032140203099 -0.009966804405020083 0.0024977722648169705 0.00400939634787964 0.0 0.0
0.0 0.007731805655780305 0.005559625714626466 -0.007549796216660402 0.0019901705020339473 -0.0034387933311807828 0.0 0.0
0.0 0.0020579036993567286 0.0010594199381408756 -0.000587526913056859 -0.0004718930250840162 -0.0032411127410620468 0.0 0.0
0.0 0.0 0.0 0.0 0.0 0.0 0.0 0.0
0.0 -1.2486785423734592e-06 -1.1517619134179385e-06 9.226969932005505e-07 2.2906492021739084e-07 1.5999637080364614e-06 0.0 0.0
0.0 2.988217236053714e-05 4.302070995436714e-05 -2.6688734888429684e-05 -1.6331975065937504e-05 1.0421158851539545e-05 0.0 0.0
0.0 0.001046156253880461 0.000912454374095325 -0.000691349080710553 -0.00022110529338477218 -0.00033526634025194253 0.0 0.0
0.0 0.0040180910877008055 0.0034188606947820836 -0.002857523014549025 -0.0005613376802330544 -0.001385377461488683 0.0 0.0
0.0 0.00917926528322836 0.008040998543306942 -0.007248492258790855 -0.0007925062845160948 -0.003427908699864862 0.0 0.0
0.0 0.017202797604193302 0.014868049174822557 -0.01396423337513969 -0.000903815799682885 -0.006326872778056207 0.0 0.0
0.0 0.02766563118242075 0.023763235940554378 -0.02278589080217824 -0.0009773451383761245 -0.009788847256557797 0.0 0.0
0.0 0.04025955631001929 0.03447461359356797 -0.033426469016605814 -0.0010481445769621612 -0.013513555697757232 0.0 0.0
0.0 0.05468578563034366 0.046761147972013875 -0.04563731558177202 -0.0011238323902418336 -0.01725429756310308 0.0 0.0
0.0 0.07078852324478555 0.0604459339514795 -0.0592447668786197 -0.0012011670728597627 -0.020949230121572505 0.0 0.0
0.0 0.08799525991908769 0.0753772077359044 -0.0741031263357313 -0.0012740814001731846 -0.024598041950245127 0.0 0.0
0.0 0.10669461880743085 0.09134724137771955 -0.09000925808811132 -0.0013379832896081565 -0.02808618317440145 0.0 0.0
0.0 0.1261971034408896 0.10805768359397716 -0.10666782776935785 -0.001389855824619346 -0.031142765241546168 0.0 0.0
0.0 0.14570105458594707 0.12502616343062517 -0.12360449715332349 -0.0014216662773016996 -0.03331628138386646 0.0 0.0
0.0 0.16462619731119715 0.14142999012914192 -0.14001049064691942 -0.0014194994822223676 -0.03390852741940713 0.0 0.0
0.0 0.18139615360860395 0.15601673457814277 -0.15463807887780873 -0.001378655700333847 -0.03175278541926001 0.0 0.0
0.0 0.19416217090946816 0.16721900664091294 -0.16589398397042868 -0.0013250226704844535 -0.025229380975894108 0.0 0.0
0.0 0.20145206670231272 0.1724129316521416 -0.17171202065826574 -0.0007009109938756396 3.0851189658509526e-14 0.0 0.0
0.0 0.19416217090944346 0.1672190066408881 -0.16589398397040334 -0.0013250226704847746 0.025229380975966113 0.0 0.0
0.0 0.1813961536085457 0.15601673457808965 -0.15463807887775416 -0.0013786557003353974 0.03175278541933084 0.0 0.0
0.0 0.1646261973111212 0.14142999012907462 -0.14001049064685245 -0.0014194994822221568 0.03390852741944601 0.0 0.0
0.0 0.14570105458585964 0.12502616343054995 -0.12360449715324845 -0.0014216662773014893 0.033316281383874144 0.0 0.0
0.0 0.12619710344079116 0.10805768359389203 -0.10666782776927279 -0.001389855824619281 0.031142765241533615 0.0 0.0
0.0 0.10669461880733243 0.09134724137763449 -0.09000925808802679 -0.0013379832896078174 0.028086183174387283 0.0 0.0
0.0 0.08799525991898975 0.07537720773581962 -0.07410312633564689 -0.0012740814001727134 0.0245980419502323 0.0 0.0
0.0 0.07078852324469556 0.06044593395140203 -0.05924476687854271 -0.0012011670728591592 0.020949230121554266 0.0 0.0
0.0 0.05468578563025326 0.04676114797193691 -0.04563731558169474 -0.0011238323902421138 0.017254297563075484 0.0 0.0
0.0 0.0402595563099484 0.034474613593507626 -0.03342646901654644 -0.0010481445769612004 0.01351355569773026 0.0 0.0
0.0 0.027665631182357472 0.023763235940500657 -0.022785890802124717 -0.0009773451383759454 0.009788847256532413 0.0 0.0
0.0 0.017202797604146978 0.014868049174782953 -0.013964233375100422 -0.0009038157996825179 0.0063268727780387835 0.0 0.0
0.0 0.009179265283197955 0.008040998543280707 -0.00724849225876551 -0.0007925062845152063 0.0034279086998527347 0.0 0.0
0.0 0.004018091087681917 0.0034188606947667104 -0.0028575230145350414 -0.0005613376802316657 0.0013853774614814994 0.0 0.0
0.0 0.001046156253873765 0.000912454374090168 -0.0006913490807065061 -0.00022110529338366264 0.0003352663402497029 0.0 0.0
0.0 2.9882172359009843e-05 4.302070995342002e-05 -2.6688734887734517e-05 -1.6331975065685552e-05 -1.0421158851670847e-05 0.0 0.0
0.0 -1.2486785424447443e-06 -1.1517619134282443e-06 9.226969932068296e-07 2.2906492022139688e-07 -1.5999637080619882e-06 0.0 0.0
0.0 0.0 0.0 0.0 0.0 0.0 0.0 0.0
0.0 0.0020579036993486357 0.0010594199381367634 -0.0005875269130540813 -0.00047189302508268054 0.003241112741051205 0.0 0.0
0.0 0.007731805655761775 0.005559625714611931 -0.007549796216641973 0.0019901705020300337 0.003438793331168889 0.0 0.0
0.0 0.005746052071123832 0.004014138695979925 -0.005544914697201461 0.0015307760012215294 -0.0027060270635798356 0.0 0.0
0.0 0.0013407097255764046 0.0006931319769559821 -0.0003781998944192117 -0.00031493208253676895 -0.0023079205818874217 0.0 0.0
0.0 1.4483749750251462e-07 -3.087412547042466e-09 2.644247110450392e-09 4.4316543659177474e-10 2.8266529167811133e-08 0.0 0.0
0.0 -3.864526520668521e-07 7.364630898595947e-08 -5.257626255185828e-08 -2.1070046434101054e-08 -9.40448570063553e-08 0.0 0.0
0.0 -2.541718033467865e-05 -1.6150975461217974e-05 1.475443290077192e-05 1.3965425604460436e-06 3.562105018357263e-05 0.0 0.0
0.0 0.0005140539098490386 0.00046744840762878953 -0.0003447267953270411 -0.0001227216123017491 -0.00026937076454241576 0.0 0.0
0.0 0.002595016830990108 0.002281152295419614 -0.001850618972437303 -0.00043053332298230977 -0.0013289682175743952 0.0 0.0
0.0 0.0071705456879916415 0.0059303563241601 -0.005232880429422438 -0.0006974758947376505 -0.0033811691896366426 0.0 0.0
0.0 0.01349595002213132 0.01158800745483932 -0.010759126377880643 -0.0008288810769586946 -0.0064884923535556294 0.0 0.0
0.0 0.022489042286088484 0.01903275779679021 -0.018131597378270095 -0.0009011604185201129 -0.010228832828403252 0.0 0.0
0.0 0.03311095699739576 0.02799511128408348 -0.027029197576936587 -0.000965913707146875 -0.014223329104504757 0.0 0.0
0.0 0.045215912486257955 0.03824496893496326 -0.037209067697002045 -0.0010359012379611678 -0.018233432463671786 0.0 0.0
0.0 0.05864096287133704 0.04964102318211177 -0.04853283383448954 -0.0011081893476222713 -0.02219675218266445 0.0 0.0
0.0 0.07334608846398319 0.06208484369538484 -0.060908758246990845 -0.0011760854483939451 -0.026112691346367494 0.0 0.0
0.0 0.08894351285123939 0.07544997803904849 -0.07421309742134173 -0.0012368806177068755 -0.029860157721265705 0.0 0.0
0.0 0.10522374522984719 0.08952782118854433 -0.08823928338023701 -0.001288537808307239 -0.03316686239092674 0.0 0.0
0.0 0.12229833773908114 0.10398201277522866 -0.10265527649759883 -0.0013267362776298308 -0.03566425736454062 0.0 0.0
0.0 0.13869302813815065 0.11825803339561015 -0.11691501825310321 -0.0013430151425069643 -0.03668310066645236 0.0 0.0
0.0 0.15358969277335754 0.13142757689066045 -0.1301038721390785 -0.0013237047515818892 -0.03474971970145284 0.0 0.0
0.0 0.165784599955667 0.14217951199391662 -0.14089935236575085 -0.0012801596281658565 -0.02769476809575829 0.0 0.0
0.0 0.17361565556836603 0.14761637788785664 -0.14714478899385686 -0.0004715888939995039 3.243412483033836e-14 0.0 0.0
0.0 0.16578459995564673 0.14217951199389448 -0.14089935236572804 -0.001280159628166419 0.02769476809583554 0.0 0.0
0.0 0.153589692773314 0.1314275768906188 -0.1301038721390351 -0.0013237047515836996 0.034749719701527834 0.0 0.0
0.0 0.13869302813809245 0.11825803339555747 -0.11691501825305042 -0.001343015142506957 0.03668310066649688 0.0 0.0
0.0 0.12229833773900646 0.10398201277516389 -0.10265527649753513 -0.001326736277628739 0.03566425736454759 0.0 0.0
0.0 0.10522374522976671 0.08952782118847531 -0.08823928338016777 -0.001288537808307713 0.033166862390914334 0.0 0.0
0.0 0.08894351285115867 0.07544997803897853 -0.07421309742127222 -0.0012368806177062597 0.02986015772125132 0.0 0.0
0.0 0.07334608846390024 0.062084843695313266 -0.06090875824691921 -0.001176085448394066 0.026112691346351767 0.0 0.0
0.0 0.05864096287125947 0.04964102318204573 -0.04853283383442371 -0.0011081893476220515 0.022196752182645385 0.0 0.0
0.0 0.04521591248618587 0.038244968934902486 -0.03720906769694146 -0.0010359012379610507 0.018233432463644984 0.0 0.0
0.0 0.033110956997335704 0.027995111284033702 -0.02702919757688719 -0.000965913707146521 0.014223329104475832 0.0 0.0
0.0 0.022489042286035696 0.019032757796745913 -0.01813159737822611 -0.0009011604185197949 0.010228832828375854 0.0 0.0
0.0 0.013495950022093202 0.011588007454806884 -0.010759126377848642 -0.0008288810769582525 0.006488492353536516 0.0 0.0
0.0 0.007170545687964899 0.00593035632413844 -0.0052328804294018115 -0.0006974758947366285 0.0033811691896239882 0.0 0.0
0.0 0.0025950168309773593 0.0022811522954093136 -0.0018506189724284213 -0.00043053332298089076 0.0013289682175682408 0.0 0.0
0.0 0.0005140539098446024 0.0004674484076255532 -0.0003447267953245514 -0.0001227216123010016 0.0002693707645403912 0.0 0.0
0.0 -2.541718033496332e-05 -1.615097546074647e-05 1.4754432900384581e-05 1.3965425603618467e-06 -3.5621050182647666e-05 0.0 0.0
0.0 -3.864526520539934e-07 7.364630888953803e-08 -5.257626247685105e-08 -2.1070046412683823e-08 9.404485681169071e-08 0.0 0.0
0.0 1.4483749738291524e-07 -3.0874125444692183e-09 2.6442471082460284e-09 4.431654362230215e-10 -2.8266529144286692e-08 0.0 0.0
0.0 0.0013407097255700125 0.000693131976952926 -0.0003781998944172045 -0.00031493208253571966 0.0023079205818787125 0.0 0.0
0.0 0.005746052071108306 0.0040141386959677665 -0.005544914697185701 0.0015307760012179324 0.002706027063571114 0.0 0.0
0.0 0.003957408141231272 0.002770210447566939 -0.0038881270243461335 0.0011179165767791887 -0.0020372342702429623 0.0 0.0
0.0 0.0008827596500600935 0.00041008260005383234 -0.00021225167048576432 -0.0001978309295680679 -0.001529065664915589 0.0 0.0
0.0 1.1853683892268223e-07 1.5421076153843974e-09 -7.818401241691979e-10 -7.602674912153491e-10 2.4929733331571593e-08 0.0 0.0
0.0 2.8786990124072594e-08 -5.148521431281968e-08 3.7625181155430145e-08 1.3860033157386698e-08 2.3456843098678013e-07 0.0 0.0
0.0 -2.7080403404077488e-05 -1.7396159142794108e-05 1.4096732351927293e-05 3.2994267908668714e-06 3.616227264585825e-05 0.0 0.0
0.0 0.00019874482454559033 0.0001703107520384494 -0.00012156613059785497 -4.874462144059449e-05 -0.000145929181540062 0.0 0.0
0.0 0.0016076704000145862 0.0013290024102135664 -0.0010462862712422912 -0.0002827161389712756 -0.0011047998132831425 0.0 0.0
0.0 0.004804627313556492 0.0040233416945597966 -0.0034540580842841737 -0.000569283610275619 -0.0030592271803302857 0.0 0.0
0.0 0.01047045243620865 0.008423854026850674 -0.0076899629711820044 -0.0007338910556686695 -0.006030599526807255 0.0 0.0
0.0 0.01725685201966689 0.01439556737187107 -0.01358261137826463 -0.0008129559936064449 -0.009770238952151783 0.0 0.0
0.0 0.026037200986225393 0.021592356715705842 -0.020717966830182153 -0.0008743898855237027 -0.013780601341291377 0.0 0.0
0.0 0.0358486083997083 0.029795973613113338 -0.02885750663557324 -0.0009384669775401005 -0.017806309636721467 0.0 0.0
0.0 0.04666328280087392 0.03889669355398274 -0.037891861377514914 -0.0010048321764677523 -0.02177650955980377 0.0 0.0
0.0 0.058462769132778335 0.04884930918314566 -0.04778097241107941 -0.0010683367720663124 -0.025705125114262706 0.0 0.0
0.0 0.07110422964258521 0.05959378589604279 -0.05846880947478418 -0.0011249764212585298 -0.029485833541736308 0.0 0.0
0.0 0.08474475882125426 0.07100232743182644 -0.06982906104507108 -0.0011732663867554426 -0.03285412751081138 0.0 0.0
0.0 0.09823912761626763 0.08287974154026095 -0.08166064594248917 -0.001219095597771804 -0.03548049351881572 0.0 0.0
0.0 0.1123940023261183 0.09493669737303373 -0.09367796090086623 -0.0012587364721673424 -0.03688639295431724 0.0 0.0
0.0 0.1259587562520052 0.10666042027980992 -0.10539494548067445 -0.0012654747991356523 -0.03564031790579997 0.0 0.0
0.0 0.13756104790183576 0.1170594419065124 -0.11582875577295818 -0.0012306861335541893 -0.02911896311738851 0.0 0.0
0.0 0.14624006654741223 0.12285418464244711 -0.12264533182615919 -0.00020885281628799644 3.271081322475666e-14 0.0 0.0
0.0 0.13756104790182688 0.11705944190649763 -0.11582875577294481 -0.001230686133552941 0.029118963117465244 0.0 0.0
0.0 0.1259587562519708 0.10666042027977529 -0.10539494548063888 -0.0012654747991364896 0.0356403179058737 0.0 0.0
0.0 0.11239400232607263 0.09493669737299112 -0.09367796090082338 -0.0012587364721677726 0.03688639295436245 0.0 0.0
0.0 0.09823912761620371 0.08287974154020594 -0.081660645942435 -0.0012190955977709275 0.03548049351882105 0.0 0.0
0.0 0.0847447588211894 0.07100232743177104 -0.06982906104501577 -0.001173266386755297 0.03285412751079755 0.0 0.0
0.0 0.07110422964251796 0.059593785895984616 -0.05846880947472609 -0.0011249764212585254 0.029485833541719762 0.0 0.0
0.0 0.05846276913271301 0.04884930918308955 -0.04778097241102373 -0.0010683367720658089 0.02570512511424592 0.0 0.0
0.0 0.04666328280081197 0.038896693553930536 -0.03789186137746309 -0.001004832176467459 0.021776509559784746 0.0 0.0
0.0 0.0358486083996494 0.029795973613064554 -0.028857506635524773 -0.0009384669775398006 0.017806309636695397 0.0 0.0
0.0 0.026037200986174888 0.02159235671566495 -0.02071796683014163 -0.0008743898855233147 0.013780601341261809 0.0 0.0
0.0 0.017256852019626276 0.014395567371837855 -0.013582611378231814 -0.0008129559936060331 0.009770238952126139 0.0 0.0
0.0 0.010470452436177098 0.008423854026825968 -0.00768996297115793 -0.000733891055668043 0.006030599526789437 0.0 0.0
0.0 0.004804627313535192 0.004023341694542732 -0.0034540580842681353 -0.0005692836102745892 0.0030592271803177007 0.0 0.0
0.0 0.0016076704000040577 0.0013290024102058132 -0.0010462862712359226 -0.0002827161389698909 0.001104799813276343 0.0 0.0
0.0 0.00019874482454390632 0.0001703107520375658 -0.00012156613059725658 -4.874462144030925e-05 0.00014592918153990945 0.0 0.0
0.0 -2.7080403404167467e-05 -1.7396159142443453e-05 1.4096732351660291e-05 3.299426790783162e-06 -3.6162272645101154e-05 0.0 0.0
0.0 2.878698985771378e-08 -5.1485214334424704e-08 3.762518117236194e-08 1.3860033162064126e-08 -2.3456843103949364e-07 0.0 0.0
0.0 1.1853683869198745e-07 1.5421076161875886e-09 -7.818401251826872e-10 -7.602674910048665e-10 -2.492973328350805e-08 0.0 0.0
0.0 0.000882759650055144 0.00041008260005174146 -0.00021225167048443018 -0.00019783092956731152 0.001529065664909035 0.0 0.0
0.0 0.0039574081412193755 0.00277021044755769 -0.0038881270243338096 0.0011179165767761182 0.002037234270236736 0.0 0.0
0.0 0.00299248718556231 0.001749999876304524 -0.0024943840730508936 0.000744384196746367 -0.0014297628961354243 0.0 0.0
0.0 0.0004286685555110862 0.00020852767765367383 -9.630544508564249e-05 -0.00011222223256803133 -0.0009118541112793097 0.0 0.0
0.0 1.6693983999979286e-06 1.2458965629913437e-07 -1.2968903300227098e-07 5.099376703136982e-09 -2.523432351883223e-06 0.0 0.0
0.0 -6.516492603726123e-07 -1.6343877580142065e-08 1.2368113956122183e-08 3.9757636240196535e-09 -3.986268734845082e-07 0.0 0.0
0.0 -1.4626064346977056e-05 -8.512221782695305e-06 6.855975718040579e-06 1.6562460646547238e-06 2.6852731588799547e-05 0.0 0.0
0.0 3.847459927883905e-05 2.9171463417232806e-05 -1.855475625285793e-05 -1.0616707164374845e-05 -3.9778802019637556e-05 0.0 0.0
0.0 0.0008149319982398276 0.0006166837940156505 -0.000473409339702793 -0.00014327445431285682 -0.0007753228535008462 0.0 0.0
0.0 0.002953309696508976 0.0023546872422238172 -0.0019572032899192755 -0.0003974839523045423 -0.002466989128668572 0.0 0.0
0.0 0.00691048735249725 0.00549623306774069 -0.004895068534153725 -0.0006011645335869643 -0.005086787969732322 0.0 0.0
0.0 0.012655231257384044 0.009916240861760217 -0.009214626716118522 -0.0007016141456416888 -0.00844405260112163 0.0 0.0
0.0 0.019075197603625547 0.015325974128594285 -0.014561159815895862 -0.0007648143126984031 -0.01217430158463456 0.0 0.0
0.0 0.02651242422144335 0.021478811017581756 -0.020653663532506205 -0.0008251474850755738 -0.015945819796491578 0.0 0.0
0.0 0.034777246928264276 0.028282502744676134 -0.027396969863298433 -0.0008855328813777083 -0.01966648656981808 0.0 0.0
0.0 0.04373585344158484 0.03573390500876895 -0.034791018244509746 -0.0009428867642591525 -0.023347495893361048 0.0 0.0
0.0 0.05352489948046982 0.043841412761888326 -0.042845458942300935 -0.000995953819587367 -0.026929578489020518 0.0 0.0
0.0 0.06384997827401889 0.05256359683779645 -0.05152169634977462 -0.0010419004880218015 -0.03017577794577629 0.0 0.0
0.0 0.07488057121142304 0.0617930793766006 -0.0607057597647838 -0.0010873196118167865 -0.032732471603295794 0.0 0.0
0.0 0.08607761568136996 0.07148457881993062 -0.07033511428925027 -0.001149464530680154 -0.0343212711392269 0.0 0.0
0.0 0.09751809665230467 0.08160191665889903 -0.08040381817897933 -0.0011980984799196688 -0.03410582411107695 0.0 0.0
0.0 0.10888526803631836 0.0916222776661538 -0.09044096298582079 -0.0011813146803329585 -0.029305289775524566 0.0 0.0
0.0 0.11884391492144666 0.0978733203145314 -0.09796452751439515 9.120719986369688e-05 2.881549165945074e-14 0.0 0.0
0.0 0.10888526803631156 0.09162227766613996 -0.09044096298580742 -0.0011813146803325287 0.02930528977559392 0.0 0.0
0.0 0.09751809665228232 0.08160191665887293 -0.08040381817895366 -0.0011980984799192613 0.034105824111150033 0.0 0.0
0.0 0.0860776156813337 0.07148457881989594 -0.0703351142892156 -0.0011494645306801812 0.03432127113927005 0.0 0.0
0.0 0.07488057121137395 0.061793079376559146 -0.06070575976474318 -0.0010873196118159206 0.03273247160329754 0.0 0.0
0.0 0.06384997827396624 0.052563596837752316 -0.05152169634973059 -0.0010419004880217746 0.03017577794575848 0.0 0.0
0.0 0.05352489948041969 0.043841412761845874 -0.042845458942258705 -0.0009959538195871169 0.026929578489004256 0.0 0.0
0.0 0.04373585344153903 0.03573390500872974 -0.034791018244471186 -0.0009428867642585607 0.023347495893348506 0.0 0.0
0.0 0.03477724692822075 0.028282502744640343 -0.0273969698632631 -0.000885532881377236 0.019666486569801172 0.0 0.0
0.0 0.02651242422139891 0.021478811017545563 -0.02065366353247014 -0.0008251474850754082 0.015945819796467524 0.0 0.0
0.0 0.019075197603584795 0.015325974128562654 -0.014561159815864769 -0.000764814312697865 0.012174301584605831 0.0 0.0
0.0 0.012655231257353699 0.009916240861736684 -0.0092146267160953 -0.0007016141456413809 0.008444052601099726 0.0 0.0
0.0 0.00691048735247518 0.005496233067723746 -0.00489506853413748 -0.0006011645335862718 0.005086787969717167 0.0 0.0
0.0 0.0029533096964938516 0.0023546872422121144 -0.0019572032899087717 -0.0003974839523033441 0.002466989128657684 0.0 0.0
0.0 0.000814931998234369 0.0006166837940120002 -0.0004734093396998361 -0.00014327445431216364 0.0007753228534958141 0.0 0.0
0.0 3.847459927757784e-05 2.9171463416975915e-05 -1.8554756252733954e-05 -1.06167071642419e-05 3.9778802019597135e-05 0.0 0.0
0.0 -1.462606434814621e-05 -8.512221782582568e-06 6.855975717961849e-06 1.6562460646206892e-06 -2.685273158831318e-05 0.0 0.0
0.0 -6.516492604289159e-07 -1.6343877500511842e-08 1.2368113903493591e-08 3.975763597017607e-09 3.9862687453944056e-07 0.0 0.0
0.0 1.669398399705997e-06 1.2458965629686282e-07 -1.2968903300787008e-07 5.09937671100777e-09 2.523432352083343e-06 0.0 0.0
0.0 0.0004286685555078073 0.00020852767765235853 -9.630544508482859e-05 -0.00011222223256753 0.0009118541112745358 0.0 0.0
0.0 0.002992487185551942 0.0017499998762979757 -0.0024943840730418717 0.0007443841967438959 0.0014297628961310962 0.0 0.0
0.0 0.0016365461630859358 0.0010055560654396876 -0.0014555292936577822 0.00044997322821809497 -0.0009810094394293797 0.0 0.0
0.0 0.00018737747664809414 7.196302860540213e-05 -1.419182260033241e-05 -5.777120600506939e-05 -0.0004349740770378564 0.0 0.0
0.0 4.147414156899114e-06 7.58767908663671e-08 -9.070706590196707e-08 1.4830275035601003e-08 -1.8769151808694033e-06 0.0 0.0
0.0 1.3147556215590449e-06 -2.552206814166538e-07 2.0544850391042823e-07 4.9772177506225605e-08 7.009574053318907e-07 0.0 0.0
0.0 -8.960355829904347e-06 -3.899881834662818e-06 3.158805506514984e-06 7.410763281478359e-07 1.7119919330391415e-05 0.0 0.0
0.0 -7.535274730429516e-06 -4.257317052959415e-06 4.724934183521547e-06 -4.6761713056209834e-07 -3.150867644454613e-06 0.0 0.0
0.0 0.0003318223444253731 0.0001784384240441305 -0.0001356674701532322 -4.27709538908988e-05 -0.0004165172311749929 0.0 0.0
0.0 0.0015509668235256556 0.001011879339997284 -0.0008195686120624612 -0.00019231072793482291 -0.0016512810722147933 0.0 0.0
0.0 0.00396683297854192 0.002878822985587475 -0.002484183942135324 -0.00039463904345215134 -0.003721327782001192 0.0 0.0
0.0 0.0077325995494866295 0.005727041601881243 -0.005194187239377579 -0.0005328543625036671 -0.006388055511507139 0.0 0.0
0.0 0.012171937363726598 0.009300063755338433 -0.008686291433393264 -0.0006137723219451674 -0.009464538992883265 0.0 0.0
0.0 0.01738169569892639 0.013379573640677824 -0.01270520481230559 -0.000674368828372229 -0.01266116168838162 0.0 0.0
0.0 0.02304898975915676 0.017885229830578775 -0.01715452336856246 -0.0007307064620163069 -0.015880808709261205 0.0 0.0
0.0 0.029212795204341762 0.022833316220231978 -0.022051878407472133 -0.000781437812759854 -0.019080505604858675 0.0 0.0
0.0 0.03599492689290556 0.02828313589911185 -0.02745316722874524 -0.0008299686703666135 -0.02221984917261603 0.0 0.0
0.0 0.04342103079045254 0.03428892298672029 -0.03341224164959009 -0.0008766813371301283 -0.025176145797763175 0.0 0.0
0.0 0.05137311312169791 0.04084890029774831 -0.03992739019646017 -0.0009215101012881526 -0.027610479658149608 0.0 0.0
0.0 0.05967271351484955 0.0480173646207457 -0.04703150858510606 -0.000985856035639718 -0.029144643491820582 0.0 0.0
0.0 0.06905730874292633 0.05617733872756727 -0.05509069588379716 -0.0010866428437700634 -0.029678821996444418 0.0 0.0
0.0 0.07998855413645826 0.06558642467696564 -0.06445559886165672 -0.001130825815308968 -0.027712742158308983 0.0 0.0
0.0 0.091537710291216 0.07237258904747679 -0.07280447916387035 0.0004318901163934752 2.5979218776228663e-14 0.0 0.0
0.0 0.07998855413645635 0.06558642467695501 -0.06445559886164569 -0.0011308258153092895 0.0277127421583706 0.0 0.0
0.0 0.0690573087429126 0.056177338727548015 -0.05509069588377818 -0.0010866428437698154 0.029678821996511964 0.0 0.0
0.0 0.059672713514819654 0.04801736462071836 -0.04703150858507778 -0.0009858560356405806 0.02914464349185522 0.0 0.0
0.0 0.05137311312166619 0.04084890029772318 -0.03992739019643597 -0.0009215101012872299 0.027610479658148092 0.0 0.0
0.0 0.04342103079041943 0.03428892298669381 -0.033412241649563856 -0.0008766813371299286 0.025176145797746838 0.0 0.0
0.0 0.03599492689287474 0.028283135899086362 -0.027453167228720238 -0.000829968670366121 0.022219849172602946 0.0 0.0
0.0 0.02921279520431525 0.02283331622020958 -0.022051878407450133 -0.0007814378127594571 0.0190805056048518 0.0 0.0
0.0 0.02304898975912888 0.017885229830556605 -0.017154523368541043 -0.0007307064620155444 0.015880808709247397 0.0 0.0
0.0 0.017381695698896745 0.013379573640655985 -0.012705204812283733 -0.0006743688283722516 0.012661161688361334 0.0 0.0
0.0 0.012171937363701023 0.009300063755319709 -0.008686291433374725 -0.0006137723219449789 0.009464538992861525 0.0 0.0
0.0 0.007732599549465238 0.005727041601866161 -0.0051941872393628545 -0.0005328543625033133 0.006388055511488243 0.0 0.0
0.0 0.003966832978528364 0.0028788229855775003 -0.0024841839421261684 -0.00039463904345132973 0.00372132778199091 0.0 0.0
0.0 0.0015509668235157445 0.0010118793399907498 -0.0008195686120568209 -0.00019231072793392988 0.0016512810722051966 0.0 0.0
0.0 0.00033182234442136974 0.00017843842404264578 -0.00013566747015215537 -4.277095389049018e-05 0.0004165172311720502 0.0 0.0
0.0 -7.535274731256145e-06 -4.257317052910022e-06 4.724934183500554e-06 -4.6761713059058765e-07 3.150867644653107e-06 0.0 0.0
0.0 -8.960355830900002e-06 -3.899881834476935e-06 3.1588055063733395e-06 7.410763281036033e-07 -1.7119919329106328e-05 0.0 0.0
0.0 1.3147556213734763e-06 -2.5522068145061503e-07 2.0544850393888853e-07 4.9772177511727475e-08 -7.009574053399276e-07 0.0 0.0
0.0 4.147414156177967e-06 7.587679090025917e-08 -9.070706593721247e-08 1.4830275036954032e-08 1.876915181979125e-06 0.0 0.0
0.0 0.0001873774766454286 7.196302860478132e-05 -1.4191822600031898e-05 -5.777120600474879e-05 0.00043497407703522664 0.0 0.0
0.0 0.0016365461630786285 0.0010055560654354007 -0.001455529293651709 0.0004499732282163068 0.0009810094394261625 0.0 0.0
0.0 0.0008388765282034239 0.0004683953414395761 -0.000685976414208631 0.0002175810727690556 -0.000560757129445601 0.0 0.0
0.0 2.4635636839126386e-05 -4.1083388312206527e-07 2.5707915374365255e-05 -2.5297081491243304e-05 -0.00011271318222902185 0.0 0.0
0.0 4.992528201388916e-06 1.1549797379726594e-07 -2.36544330087135e-07 1.2104635628986942e-07 -6.526255747792262e-06 0.0 0.0
0.0 4.0539064895363264e-06 -2.7535525273503924e-07 2.505494191946531e-07 2.4805833540381553e-08 -5.454772548498095e-06 0.0 0.0
0.0 -3.6747230148676163e-06 -1.7257335651101782e-06 1.4921918144844082e-06 2.3354175062577765e-07 9.305656686510696e-06 0.0 0.0
0.0 5.9893708455582114e-06 -3.5374567416778755e-06 3.350434158146238e-06 1.8702258353161272e-07 -7.821381645447933e-06 0.0 0.0
0.0 0.0001357219026945099 2.1718140359879966e-05 -1.6432568156404954e-05 -5.285572203474947e-06 -0.00020851424863670254 0.0 0.0
0.0 0.0005324428321435427 0.00017515669360873058 -0.00014809808460143468 -2.7058609007296325e-05 -0.0008029478944691766 0.0 0.0
0.0 0.0015432783889453325 0.0007474432784684743 -0.0006614508500634652 -8.599242840500812e-05 -0.002065081893377507 0.0 0.0
0.0 0.0033941804362825016 0.0019772031946692524 -0.0017923569304944802 -0.0001848462641747731 -0.0039003626149179326 0.0 0.0
0.0 0.006000997252340124 0.003686731483770025 -0.003403902583885049 -0.00028282889988497084 -0.006059253283106821 0.0 0.0
0.0 0.008757604549063111 0.005679907694222594 -0.005319385612754715 -0.00036052208146788284 -0.008478696970911285 0.0 0.0
0.0 0.01195436066921219 0.00788540586136976 -0.007462937612948416 -0.000422468248421346 -0.011037915428742048 0.0 0.0
0.0 0.015503344574022328 0.010335171389526693 -0.00986001719854387 -0.000475154190982818 -0.013677804378394283 0.0 0.0
0.0 0.019426388695225713 0.013113873300145545 -0.012586543435698537 -0.0005273298644470075 -0.016375848095080123 0.0 0.0
0.0 0.023867420629316547 0.016355291999872797 -0.015771346389452306 -0.000583945610420506 -0.019072638969383895 0.0 0.0
0.0 0.02897681965669882 0.02021584771860725 -0.019571034387345684 -0.0006448133312615682 -0.021522875966768894 0.0 0.0
0.0 0.03476933514713707 0.024830327787490895 -0.02412444830833828 -0.0007058794791525902 -0.023148739616920853 0.0 0.0
0.0 0.04145492833896713 0.030614652887883276 -0.029798367512792297 -0.0008162853750909894 -0.023595280716563995 0.0 0.0
0.0 0.050556333253884 0.03872982779899161 -0.037723313795465375 -0.0010065140035262112 -0.023719296950312784 0.0 0.0
0.0 0.06553663543815444 0.04598013224601441 -0.04680620522301477 0.0008260729770003606 1.9429770292678228e-14 0.0 0.0
0.0 0.05055633325389581 0.038729827798990896 -0.037723313795464834 -0.0010065140035261312 0.023719296950366276 0.0 0.0
0.0 0.04145492833895856 0.03061465288787113 -0.029798367512778933 -0.0008162853750921815 0.02359528071661374 0.0 0.0
0.0 0.0347693351471143 0.024830327787473124 -0.024124448308320254 -0.0007058794791528452 0.02314873961694048 0.0 0.0
0.0 0.028976819656677685 0.020215847718595307 -0.01957103438733444 -0.0006448133312608902 0.021522875966760318 0.0 0.0
0.0 0.023867420629297035 0.016355291999858558 -0.0157713463894392 -0.0005839456104193541 0.019072638969369057 0.0 0.0
0.0 0.019426388695209098 0.013113873300134542 -0.012586543435686591 -0.0005273298644479571 0.016375848095067373 0.0 0.0
0.0 0.015503344574011623 0.010335171389519917 -0.009860017198536929 -0.00047515419098299037 0.013677804378388565 0.0 0.0
0.0 0.011954360669194601 0.00788540586135898 -0.007462937612938391 -0.0004224682484206001 0.011037915428728538 0.0 0.0
0.0 0.008757604549047077 0.005679907694213303 -0.005319385612745812 -0.0003605220814674831 0.008478696970895493 0.0 0.0
0.0 0.006000997252326336 0.00368673148376217 -0.003403902583877539 -0.00028282889988463 0.00605925328309216 0.0 0.0
0.0 0.003394180436273018 0.0019772031946642442 -0.0017923569304895855 -0.00018484626417465707 0.0039003626149077143 0.0 0.0
0.0 0.0015432783889391365 0.0007474432784650454 -0.0006614508500603218 -8.599242840472406e-05 0.002065081893370048 0.0 0.0
0.0 0.0005324428321394956 0.00017515669360708462 -0.00014809808459988687 -2.7058609007197486e-05 0.0008029478944640312 0.0 0.0
0.0 0.00013572190269233649 2.171814035962109e-05 -1.6432568156194043e-05 -5.2855722034270926e-06 0.00020851424863470563 0.0 0.0
0.0 5.989370845480514e-06 -3.537456741429875e-06 3.350434157954948e-06 1.8702258347493803e-07 7.821381647033084e-06 0.0 0.0
0.0 -3.6747230158694877e-06 -1.72573356507553e-06 1.4921918144628343e-06 2.3354175061268917e-07 -9.30565668570784e-06 0.0 0.0
0.0 4.053906489340784e-06 -2.7535525275057573e-07 2.505494192104622e-07 2.4805833540114745e-08 5.454772549161872e-06 0.0 0.0
0.0 4.99252820111357e-06 1.1549797379617397e-07 -2.3654433009440562e-07 1.2104635629822808e-07 6.526255748366566e-06 0.0 0.0
0.0 2.463563683762928e-05 -4.108338833831775e-07 2.5707915374458127e-05 -2.5297081491075e-05 0.00011271318222753039 0.0 0.0
0.0 0.0008388765281984222 0.00046839534143700056 -0.0006859764142048675 0.00021758107276786666 0.000560757129443247 0.0 0.0
0.0 0.0002526064748537477 0.00014591099316320252 -0.0002168145870662011 7.090359390299821e-05 -0.00022299009373509188 0.0 0.0
0.0 -2.6050161449762816e-05 -1.639373562908976e-05 2.5070047251432458e-05 -8.676311622342622e-06 1.911684415359853e-05 0.0 0.0
0.0 4.940094360351949e-06 2.0695653011272834e-07 -2.4711836516836675e-07 4.0161835055634483e-08 3.061460676589107e-07 0.0 0.0
0.0 6.076055223350383e-06 -6.120930809585582e-07 5.147939941896557e-07 9.729908676890595e-08 -8.754017053878703e-06 0.0 0.0
0.0 1.7579270169745244e-06 -8.989513541188002e-07 8.811532430688238e-07 1.779811104997412e-08 -2.0785575195720294e-06 0.0 0.0
0.0 1.639745567486612e-05 -2.075180978107079e-06 2.1502937889522326e-06 -7.511281084515632e-08 -2.0599375359642627e-05 0.0 0.0
0.0 0.00012356780245878865 -2.6351986903966557e-06 2.619035396345614e-06 1.616329405103701e-08 -0.0001909373086172055 0.0 0.0
0.0 0.00026660239622479224 -1.743471437824219e-06 1.7346973579700045e-06 8.7740798542085e-09 -0.0004644363039831449 0.0 0.0
0.0 0.0005530994661957144 -1.3009436119203424e-06 1.2754888031850725e-06 2.545480873521907e-08 -0.0009315699037039698 0.0 0.0
0.0 0.0009819442502735413 9.964931895839685e-09 -7.390629617602977e-09 -2.5743022780605257e-09 -0.00196040543910808 0.0 0.0
0.0 0.0020040075439981295 -1.2808798931640683e-06 1.6496897702710086e-06 -3.688098771071843e-07 -0.003712442471015404 0.0 0.0
0.0 0.003288839190588177 -1.3175593531152214e-05 1.613162603264273e-05 -2.9560325014905026e-06 -0.005920975946413945 0.0 0.0
0.0 0.004896706226681114 -3.3204440906187214e-05 3.6929572161573e-05 -3.7251312553842697e-06 -0.00827579712504382 0.0 0.0
0.0 0.006697793575243994 -3.314473130448098e-05 3.1597274908718906e-05 1.547456395763349e-06 -0.010745976597637675 0.0 0.0
0.0 0.008659751318300898 8.309218517203558e-05 -0.00010162647516274829 1.8534289990711954e-05 -0.013335888539771102 0.0 0.0
0.0 0.010730473862858629 0.0005112343657171564 -0.0005607860714214076 4.9551705704246776e-05 -0.01602266153105415 0.0 0.0
0.0 0.012939201757629892 0.0015513665409799377 -0.0016506386257582612 9.927208477832338e-05 -0.0187090041338966 0.0 0.0
0.0 0.015205513491209266 0.0034574033925169325 -0.0036748427633319153 0.00021743937081498515 -0.0211424820686035 0.0 0.0
0.0 0.0182669850596239 0.005927358527462029 -0.006320213248315989 0.00039285472085396397 -0.022928315885366618 0.0 0.0
0.0 0.026091935986653204 0.011351696424852972 -0.011053245798122653 -0.00029845062673031816 -0.0240197895370112 0.0 0.0
0.0 0.04691921527775257 0.019387629019482006 -0.02085533278678768 0.0014677037673056768 1.42559575255774e-14 0.0 0.0
0.0 0.02609193598666826 0.011351696424855817 -0.011053245798125343 -0.00029845062673045477 0.024019789537046546 0.0 0.0
0.0 0.01826698505961854 0.0059273585274588775 -0.006320213248314257 0.0003928547208553769 0.02292831588538069 0.0 0.0
0.0 0.015205513491192748 0.003457403392513517 -0.003674842763329067 0.0002174393708155472 0.02114248206860236 0.0 0.0
0.0 0.012939201757615497 0.0015513665409828542 -0.001650638625762551 9.9272084779695e-05 0.018709004133882566 0.0 0.0
0.0 0.010730473862842985 0.0005112343657166787 -0.0005607860714202399 4.955170570355942e-05 0.016022661531036164 0.0 0.0
0.0 0.008659751318291543 8.309218517575266e-05 -0.00010162647516666671 1.8534289990915865e-05 0.0133358885397576 0.0 0.0
0.0 0.006697793575235098 -3.3144731298868934e-05 3.159727490247466e-05 1.5474563963934873e-06 0.010745976597625755 0.0 0.0
0.0 0.00489670622666733 -3.320444090390464e-05 3.6929572159680906e-05 -3.725131255775531e-06 0.008275797125025804 0.0 0.0
0.0 0.0032888391905748545 -1.3175593528508983e-05 1.613162602995006e-05 -2.956032501441944e-06 0.005920975946396975 0.0 0.0
0.0 0.002004007543986778 -1.280879890743587e-06 1.6496897674513511e-06 -3.688098767076558e-07 0.0037124424709999698 0.0 0.0
0.0 0.0009819442502717636 9.964931387077816e-09 -7.390629179788587e-09 -2.5743022071808086e-09 0.0019604054391067823 0.0 0.0
0.0 0.0005530994661929277 -1.300943612196814e-06 1.275488803409726e-06 2.545480878691688e-08 0.0009315699036989127 0.0 0.0
0.0 0.00026660239622369394 -1.743471437797817e-06 1.7346973579884707e-06 8.774079809303048e-09 0.00046443630398120667 0.0 0.0
0.0 0.00012356780245723878 -2.635198690370337e-06 2.619035396323996e-06 1.6163294046373775e-08 0.0001909373086162055 0.0 0.0
0.0 1.639745567445224e-05 -2.0751809780916167e-06 2.1502937889293505e-06 -7.511281083774567e-08 2.0599375360787595e-05 0.0 0.0
0.0 1.757927016079397e-06 -8.989513541359542e-07 8.811532430836557e-07 1.779811105230393e-08 2.0785575199304408e-06 0.0 0.0
0.0 6.076055222556423e-06 -6.120930810154937e-07 5.147939942413107e-07 9.729908677418319e-08 8.754017054724462e-06 0.0 0.0
0.0 4.940094359568007e-06 2.0695653009987663e-07 -2.471183651630042e-07 4.0161835063136145e-08 -3.0614606699525624e-07 0.0 0.0
0.0 -2.605016144985159e-05 -1.6393735628850122e-05 2.5070047251089118e-05 -8.676311622239043e-06 -1.9116844152605054e-05 0.0 0.0
0.0 0.00025260647485101067 0.00014591099316214315 -0.00021681458706466716 7.090359390252427e-05 0.0002229900937336684 0.0 0.0
0.0 1.8244394001305726e-05 8.50054168947986e-06 -1.3591739601477956e-05 5.0911979119980735e-06 -1.4392156794074728e-05 0.0 0.0
0.0 -3.894760003715784e-06 -1.786358950378479e-06 2.5489771023251495e-06 -7.626181519466729e-07 6.744520024245833e-06 0.0 0.0
0.0 1.7130717636091746e-06 2.4068791707428175e-07 -3.418465549366503e-07 1.0115863786236846e-07 -3.1006840201049197e-06 0.0 0.0
0.0 8.352486671141013e-06 -7.919587196060826e-07 6.318630440118771e-07 1.6009567559420242e-07 -9.907000331573375e-06 0.0 0.0
0.0 6.497138726678623e-06 -1.1821315517779886e-06 1.1174168879448414e-06 6.471466383314858e-08 -1.1026071979186408e-05 0.0 0.0
0.0 2.499904135328754e-05 -4.903308166595963e-06 4.462991743137661e-06 4.403164234583544e-07 -4.750119530057574e-05 0.0 0.0
0.0 0.0001750882322471217 -3.2081482275491034e-05 2.5874312173837365e-05 6.207170101653608e-06 -0.00023899463386896374 0.0 0.0
0.0 0.0005546575540922355 -0.00018480331360185942 0.00015654121029383633 2.826210330802277e-05 -0.000827584073114072 0.0 0.0
0.0 0.0015502340610866112 -0.0007508163240279129 0.000664234946337163 8.658137769074949e-05 -0.0020763195022360705 0.0 0.0
0.0 0.0033940709956972056 -0.0019774058989554745 0.0017924534261452233 0.0001849524728102506 -0.0039018613767911 0.0 0.0
0.0 0.006021655159713392 -0.003694643809832528 0.003410697992648551 0.00028394581718397215 -0.006060097513061963 0.0 0.0
0.0 0.00881226264107078 -0.005718798779010189 0.005354422597171712 0.0003643761818384718 -0.008488660337099814 0.0 0.0
0.0 0.012038454203294765 -0.007964842949002886 0.007539352946308792 0.0004254900026940889 -0.011040992698752401 0.0 0.0
0.0 0.015541969167245345 -0.01038897177193657 0.009923008325219166 0.0004659634467174237 -0.013655718923714756 0.0 0.0
0.0 0.01909512992973255 -0.012861038907378414 0.012377733112098683 0.0004833057952797255 -0.016346257112196082 0.0 0.0
0.0 0.02247021472975263 -0.015104358350466819 0.014632593457678793 0.00047176489278800065 -0.019152522432163272 0.0 0.0
0.0 0.025199928087815054 -0.016693683339600623 0.016270103706148103 0.00042357963345253846 -0.02209136889283054 0.0 0.0
0.0 0.02705099776413463 -0.01713305360010749 0.01680126586697816 0.0003317877331293309 -0.025275408295927504 0.0 0.0
0.0 0.02703364246294139 -0.0158442516931844 0.0157265510334801 0.00011770065970430886 -0.028647808799305896 0.0 0.0
0.0 0.0221140493810841 -0.011594708352501993 0.012114462628532519 -0.0005197542760305123 -0.030842302117005695 0.0 0.0
0.0 0.04547155298637606 -0.006859695383489071 0.003923525689466965 0.0029361696940220948 1.8480009189580926e-14 0.0 0.0
0.0 0.022114049381093334 -0.011594708352502989 0.012114462628533275 -0.0005197542760302823 0.030842302117030422 0.0 0.0
0.0 0.027033642462933393 -0.015844251693174466 0.015726551033471012 0.0001177006597034403 0.028647808799326956 0.0 0.0
0.0 0.02705099776412136 -0.017133053600097384 0.016801265866969763 0.0003317877331276209 0.02527540829593306 0.0 0.0
0.0 0.02519992808778648 -0.016693683339580375 0.01627010370612774 0.00042357963345266114 0.022091368892815814 0.0 0.0
0.0 0.02247021472972551 -0.015104358350447333 0.014632593457659944 0.00047176489278737653 0.019152522432141526 0.0 0.0
0.0 0.019095129929712625 -0.01286103890736218 0.01237773311208336 0.0004833057952788101 0.01634625711218228 0.0 0.0
0.0 0.015541969167222567 -0.010388971771918776 0.00992300832520175 0.00046596344671703057 0.013655718923700627 0.0 0.0
0.0 0.012038454203269964 -0.007964842948985168 0.007539352946291346 0.00042549000269382514 0.011040992698734868 0.0 0.0
0.0 0.008812262641045338 -0.005718798778992855 0.0053544225971552655 0.00036437618183758494 0.008488660337077077 0.0 0.0
0.0 0.006021655159689877 -0.0036946438098168733 0.003410697992634028 0.0002839458171828489 0.006060097513042209 0.0 0.0
0.0 0.0033940709956820766 -0.001977405898945478 0.0017924534261359807 0.00018495247280949755 0.003901861376778161 0.0 0.0
0.0 0.001550234061078546 -0.0007508163240226303 0.0006642349463325358 8.658137769009542e-05 0.0020763195022283024 0.0 0.0
0.0 0.000554657554087581 -0.00018480331360021918 0.0001565412102923872 2.8262103307831536e-05 0.0008275840731081527 0.0 0.0
0.0 0.000175088232245228 -3.2081482275337416e-05 2.587431217373879e-05 6.207170101598689e-06 0.00023899463386798354 0.0 0.0
0.0 2.4999041352256928e-05 -4.903308166689547e-06 4.462991743206421e-06 4.403164234831224e-07 4.750119530103144e-05 0.0 0.0
0.0 6.497138726123646e-06 -1.182131551892463e-06 1.1174168880428249e-06 6.471466384962749e-08 1.1026071979892062e-05 0.0 0.0
0.0 8.352486670508882e-06 -7.919587196921848e-07 6.318630440826453e-07 1.6009567560953755e-07 9.907000332285723e-06 0.0 0.0
0.0 1.7130717630669206e-06 2.4068791705741463e-07 -3.418465549225657e-07 1.0115863786514629e-07 3.1006840204828497e-06 0.0 0.0
0.0 -3.894760004130042e-06 -1.7863589504882939e-06 2.5489771024415738e-06 -7.626181519532827e-07 -6.744520023811757e-06 0.0 0.0
0.0 1.8244394001064447e-05 8.500541690294969e-06 -1.3591739602677951e-05 5.091197912382995e-06 1.4392156796012825e-05 0.0 0.0
0.0 1.885957742900578e-06 -2.4542688197576984e-07 3.7038472159922037e-07 -1.2495783962337307e-07 5.884335730329668e-07 0.0 0.0
0.0 2.430446086570529e-08 1.1353189592003429e-07 -7.976115514745233e-08 -3.3770740772596607e-08 1.166989410383763e-06 0.0 0.0
0.0 -1.1163629065255405e-06 6.646775651163799e-07 -5.989011965263648e-07 -6.577636859002481e-08 2.9389383623204346e-06 0.0 0.0
0.0 5.11683718619401e-06 -9.413779724352002e-07 7.29179536737195e-07 2.1219843569799765e-07 -9.876462285402399e-06 0.0 0.0
0.0 1.1822020617221871e-05 2.6941207857764973e-07 -1.1882234599056166e-07 -1.5058973258702568e-07 -5.012323352320523e-06 0.0 0.0
0.0 6.493944959396444e-05 -1.6709891219912517e-05 1.3241139227812838e-05 3.468751992099583e-06 -6.858265593003137e-05 0.0 0.0
0.0 0.0003643331501904297 -0.00020820503962421509 0.00016133590080228647 4.6869138821929105e-05 -0.0004980239200424277 0.0 0.0
0.0 0.0015772019340824274 -0.0010236181097268995 0.0008301819585184631 0.00019343615120843573 -0.0016839780813583548 0.0 0.0
0.0 0.003969100901850308 -0.0028790828459468163 0.0024842307889282877 0.0003948520570185276 -0.0037290808141487324 0.0 0.0
0.0 0.0077321045337017495 -0.005727302004325111 0.0051943687074402275 0.0005329332968848832 -0.006387467688042694 0.0 0.0
0.0 0.012185235918078813 -0.009311292194007767 0.008697155431061457 0.0006141367629463149 -0.009468362616496381 0.0 0.0
0.0 0.017421830069446816 -0.013415191727007109 0.012739931019642065 0.0006752607073650641 -0.01265747767325375 0.0 0.0
0.0 0.023109357341826505 -0.017950189029022994 0.0172198762497592 0.0007303127792637769 -0.01582261108276621 0.0 0.0
0.0 0.029207576606652928 -0.022862715797848945 0.02208993321607687 0.0007727825817720427 -0.018938403256110854 0.0 0.0
0.0 0.035634993372423984 -0.0280076763302489 0.02720928468109503 0.0007983916491538354 -0.022107898534454735 0.0 0.0
0.0 0.04204870739808437 -0.03306068564510259 0.03225849035046603 0.0008021952946365421 -0.025533041614697737 0.0 0.0
0.0 0.047856753066468354 -0.03751559965755622 0.03672783397985255 0.000787765677703654 -0.029425622643769845 0.0 0.0
0.0 0.05218773658821496 -0.04071634006597159 0.03995726998798895 0.0007590700779827003 -0.03387490900420803 0.0 0.0
0.0 0.05423331441594337 -0.0415267840114632 0.040872743654997004 0.0006540403564661251 -0.03805464047279174 0.0 0.0
0.0 0.050784435751033676 -0.037463660612866406 0.037052937391112664 0.0004107232217537432 -0.03923044404391672 0.0 0.0
0.0 0.05580523221965397 -0.03089616774916674 0.027189101567751586 0.00370706618141512 2.2796001197811222e-14 0.0 0.0
0.0 0.05078443575103937 -0.0374636606128594 0.03705293739110464 0.00041072322175475864 0.03923044404396881 0.0 0.0
0.0 0.05423331441593507 -0.04152678401144731 0.04087274365498114 0.0006540403564661754 0.03805464047284256 0.0 0.0
0.0 0.05218773658818592 -0.04071634006594624 0.03995726998796287 0.0007590700779833706 0.03387490900422441 0.0 0.0
0.0 0.04785675306642324 -0.03751559965751993 0.036727833979815654 0.0007877656777042467 0.02942562264375756 0.0 0.0
0.0 0.042048707398043575 -0.03306068564506962 0.03225849035043363 0.0008021952946359635 0.025533041614677426 0.0 0.0
0.0 0.03563499337238609 -0.02800767633021793 0.027209284681064677 0.0007983916491532791 0.022107898534435615 0.0 0.0
0.0 0.029207576606614043 -0.022862715797816114 0.022089933216044084 0.0007727825817719889 0.018938403256092674 0.0 0.0
0.0 0.023109357341785382 -0.01795018902899014 0.017219876249725992 0.0007303127792641377 0.015822611082746553 0.0 0.0
0.0 0.017421830069404926 -0.013415191726975358 0.012739931019610845 0.0006752607073645117 0.012657477673223935 0.0 0.0
0.0 0.01218523591804584 -0.009311292193982525 0.008697155431036467 0.0006141367629460567 0.009468362616471604 0.0 0.0
0.0 0.007732104533673725 -0.005727302004304314 0.0051943687074197985 0.0005329332968845184 0.006387467688021087 0.0 0.0
0.0 0.003969100901833016 -0.0028790828459337465 0.002484230788916328 0.0003948520570174184 0.0037290808141364836 0.0 0.0
0.0 0.001577201934074443 -0.0010236181097214368 0.0008301819585141788 0.00019343615120725704 0.0016839780813511116 0.0 0.0
0.0 0.0003643331501863698 -0.0002082050396225614 0.0001613359008009357 4.686913882162603e-05 0.0004980239200392472 0.0 0.0
0.0 6.493944959194536e-05 -1.6709891219589954e-05 1.3241139227535102e-05 3.4687519920547747e-06 6.858265592876828e-05 0.0 0.0
0.0 1.1822020616850383e-05 2.6941207814224976e-07 -1.1882234563403517e-07 -1.505897325082183e-07 5.012323353875548e-06 0.0 0.0
0.0 5.116837185653649e-06 -9.413779724833934e-07 7.291795367788473e-07 2.1219843570455157e-07 9.876462285789076e-06 0.0 0.0
0.0 -1.1163629068125468e-06 6.646775650471891e-07 -5.989011964863827e-07 -6.577636856080102e-08 -2.9389383612918406e-06 0.0 0.0
0.0 2.430446062842701e-08 1.1353189595707698e-07 -7.976115518522145e-08 -3.3770740771852786e-08 -1.1669894106678598e-06 0.0 0.0
0.0 1.8859577427044558e-06 -2.454268821405552e-07 3.7038472184105907e-07 -1.2495783970054476e-07 -5.88433573426526e-07 0.0 0.0
0.0 0.0 0.0 0.0 0.0 0.0 0.0 0.0
0.0 2.2583499879611264e-07 -7.0493260239052025e-09 9.127661047091093e-09 -2.0783350231903382e-09 -6.833441342432144e-08 0.0 0.0
0.0 -1.5594691233629805e-06 9.050500363078534e-07 -7.25489500072377e-07 -1.79560536235469e-07 4.992644093453835e-06 0.0 0.0
0.0 2.839994753215791e-06 1.035887379628227e-06 -8.97462292111115e-07 -1.3842508751711324e-07 -4.396325900390169e-07 0.0 0.0
0.0 1.3595208520245642e-05 -2.5036544531594778e-06 2.001647826542706e-06 5.020066266167253e-07 -1.5643139622080816e-05 0.0 0.0
0.0 0.00011587696755841666 -8.383386267406429e-05 6.383334158293643e-05 2.0000521091128124e-05 -0.00016460068011383546 0.0 0.0
0.0 0.0009096504361996471 -0.0006458279127022188 0.0005009348449597241 0.00014489306774249412 -0.0008414991219874644 0.0 0.0
0.0 0.002971482610558681 -0.0023580325633225 0.001960429680672655 0.0003976028826498431 -0.0024900894829733753 0.0 0.0
0.0 0.006907084633561324 -0.005492635946181316 0.004891288134700502 0.000601347811480803 -0.005086214522051556 0.0 0.0
0.0 0.012658140975213613 -0.009918383812115551 0.009216828947422546 0.0007015548646930099 -0.008443343319826595 0.0 0.0
0.0 0.019085375756910657 -0.015337863849867192 0.014573339746370349 0.0007645241034968358 -0.012178113258598236 0.0 0.0
0.0 0.026535935246944364 -0.02150112168878649 0.020676165030286058 0.0008249566585004113 -0.01592139164723961 0.0 0.0
0.0 0.034786012380244626 -0.028308385268917838 0.027423759283199834 0.0008846259857180294 -0.019533873981875723 0.0 0.0
0.0 0.043652683793934915 -0.03570884716009358 0.03477284219542526 0.0009360049646682864 -0.023051957482181626 0.0 0.0
0.0 0.053133174317082796 -0.043556850476066514 0.04258631040552306 0.0009705400705435103 -0.0266877085222132 0.0 0.0
0.0 0.06267161723424636 -0.05149924813871784 0.050517854957367714 0.0009813931813500761 -0.03083626312747797 0.0 0.0
0.0 0.071966453020688 -0.058898139940766585 0.05793109939490462 0.0009670405458618834 -0.03592752823561959 0.0 0.0
0.0 0.07941100940743653 -0.06471395610485584 0.06380327805413179 0.0009106780507239884 -0.04178836683404539 0.0 0.0
0.0 0.08310535828510913 -0.06715517897606182 0.06636800108971475 0.0007871778863470023 -0.046847321453055056 0.0 0.0
0.0 0.07874768983088656 -0.06274916227815251 0.06229294684734537 0.00045621543080717736 -0.04815962024893096 0.0 0.0
0.0 0.07698449413056117 -0.05427638327029149 0.04986641233532858 0.004409970934962951 2.6520452500733427e-14 0.0 0.0
0.0 0.07874768983088572 -0.06274916227813934 0.062292946847332595 0.0004562154308067726 0.04815962024899304 0.0 0.0
0.0 0.08310535828510084 -0.06715517897604427 0.06636800108969776 0.0007871778863464713 0.04684732145312213 0.0 0.0
0.0 0.07941100940739468 -0.06471395610481667 0.06380327805409255 0.0009106780507241148 0.04178836683407343 0.0 0.0
0.0 0.0719664530206301 -0.058898139940717784 0.057931099394855405 0.0009670405458624475 0.03592752823561267 0.0 0.0
0.0 0.06267161723418796 -0.051499248138669296 0.05051785495731888 0.0009813931813503656 0.030836263127456597 0.0 0.0
0.0 0.053133174317024454 -0.04355685047601794 0.04258631040547492 0.0009705400705430034 0.026687708522189206 0.0 0.0
0.0 0.04365268379387517 -0.03570884716004307 0.03477284219537503 0.0009360049646680444 0.023051957482159293 0.0 0.0
0.0 0.0347860123801885 -0.028308385268871417 0.027423759283153135 0.0008846259857182574 0.01953387398185352 0.0 0.0
0.0 0.02653593524688743 -0.021501121688740805 0.020676165030240806 0.0008249566584999779 0.015921391647208124 0.0 0.0
0.0 0.01908537575686354 -0.015337863849830087 0.014573339746333108 0.0007645241034969867 0.012178113258567295 0.0 0.0
0.0 0.012658140975174242 -0.00991838381208441 0.009216828947391821 0.0007015548646925829 0.008443343319800616 0.0 0.0
0.0 0.006907084633535564 -0.005492635946161082 0.0048912881346813274 0.0006013478114797519 0.0050862145220359626 0.0 0.0
0.0 0.0029714826105458995 -0.002358032563312813 0.001960429680664138 0.00039760288264867636 0.0024900894829640676 0.0 0.0
0.0 0.0009096504361922911 -0.0006458279126972841 0.0005009348449558199 0.00014489306774146405 0.000841499121981678 0.0 0.0
0.0 0.00011587696755586744 -8.383386267314568e-05 6.383334158225831e-05 2.000052109088738e-05 0.00016460068011235976 0.0 0.0
0.0 1.3595208519892851e-05 -2.5036544534470412e-06 2.0016478267745423e-06 5.020066266724985e-07 1.5643139622856556e-05 0.0 0.0
0.0 2.8399947526970212e-06 1.0358873793941163e-06 -8.974622919240806e-07 -1.3842508747003134e-07 4.396325910885672e-07 0.0 0.0
0.0 -1.5594691238563537e-06 9.050500363665752e-07 -7.254895001156145e-07 -1.7956053625096748e-07 -4.992644093836755e-06 0.0 0.0
0.0 2.2583499807621862e-07 -7.0493260370957745e-09 9.127661048288372e-09 -2.0783350111896292e-09 6.83344136194633e-08 0.0 0.0
0.0 0.0 0.0 0.0 0.0 0.0 0.0 0.0
0.0 0.0 0.0 0.0 0.0 0.0 0.0 0.0
0.0 -1.3075163678298636e-07 -2.968376883690807e-09 1.9471215008150875e-09 1.0212553828761417e-09 -2.5935044429845048e-08 0.0 0.0
0.0 -1.0332404473374668e-06 6.390060160726373e-07 -5.133606132455927e-07 -1.2564540282704695e-07 2.608893709184605e-06 0.0 0.0
0.0 -2.5185496108913835e-06 1.0152937886183732e-06 -8.809249687168631e-07 -1.3436881990150046e-07 2.0579309991921705e-07 0.0 0.0
0.0 1.9261236275717928e-05 -5.629190620381719e-06 3.7154351794552657e-06 1.9137554409264833e-06 -1.1922898097919243e-05 0.0 0.0
0.0 0.00032883840843858105 -0.00023235547093102845 0.00017487246541074717 5.7483005520280954e-05 -0.00025730559967366065 0.0 0.0
0.0 0.0016321444656099767 -0.0013543666280943154 0.0010716775706071536 0.0002826890574871622 -0.0011765752246505267 0.0 0.0
0.0 0.004806988718923194 -0.004017142596606112 0.003447595965448005 0.000569546631158106 -0.003068984341972891 0.0 0.0
0.0 0.010465348523903129 -0.00841987472605775 0.00768566629189949 0.0007342084341582607 -0.006025242759182513 0.0 0.0
0.0 0.017262107098502892 -0.014400734443262269 0.0135880646339847 0.0008126698092775736 -0.009770798195843708 0.0 0.0
0.0 0.026050354224634434 -0.021602063854373712 0.020728664765398454 0.0008733990889752516 -0.013781434432483695 0.0 0.0
0.0 0.035844495547704566 -0.02979538448048075 0.028858494576634128 0.0009368899038465947 -0.017760975646091456 0.0 0.0
0.0 0.04660115242684784 -0.03886240514065137 0.037859231076256876 0.0010031740643944983 -0.021583599476865663 0.0 0.0
0.0 0.058284583692680234 -0.048745343467717736 0.04768064980778199 0.0010646936599357432 -0.025290631098730258 0.0 0.0
0.0 0.07070888412007066 -0.059314136653942015 0.05820405474440732 0.0011100819095346908 -0.02912969861764314 0.0 0.0
0.0 0.08384190686943174 -0.07018870559985788 0.06906261928531268 0.0011260863145451155 -0.033649566818008375 0.0 0.0
0.0 0.09593973433369603 -0.08053974938173326 0.07944028357558401 0.0010994658061492272 -0.0393681044560304 0.0 0.0
0.0 0.10644041179262598 -0.0888416585434839 0.08782928932315791 0.0010123692203259657 -0.04597929299272167 0.0 0.0
0.0 0.11169229254596348 -0.09252038789819343 0.09169663328263644 0.0008237546155568573 -0.05169499234418507 0.0 0.0
0.0 0.106276034667044 -0.087308329613315 0.08685146556283373 0.0004568640504812857 -0.053387200922707045 0.0 0.0
0.0 0.10032736558409378 -0.07714083026519836 0.07211738320914934 0.005023447056048871 2.900631124180819e-14 0.0 0.0
0.0 0.10627603466704044 -0.0873083296133011 0.08685146556282063 0.00045686405048048077 0.05338720092277245 0.0 0.0
0.0 0.1116922925459439 -0.09252038789816724 0.09169663328261124 0.0008237546155558459 0.051694992344252746 0.0 0.0
0.0 0.10644041179257945 -0.08884165854343981 0.08782928932311448 0.0010123692203251196 0.04597929299275754 0.0 0.0
0.0 0.09593973433362964 -0.08053974938167616 0.07944028357552675 0.0010994658061493708 0.03936810445602858 0.0 0.0
0.0 0.08384190686935489 -0.07018870559979264 0.06906261928524769 0.0011260863145449202 0.03364956681798588 0.0 0.0
0.0 0.07070888411999672 -0.05931413665387864 0.058204054744345285 0.0011100819095333652 0.02912969861761895 0.0 0.0
0.0 0.0582845836926075 -0.04874534346765545 0.04768064980772017 0.0010646936599352501 0.02529063109870785 0.0 0.0
0.0 0.04660115242677572 -0.03886240514059075 0.03785923107619617 0.0010031740643945714 0.02158359947684097 0.0 0.0
0.0 0.03584449554763703 -0.029795384480424195 0.02885849457657839 0.0009368899038458113 0.017760975646061758 0.0 0.0
0.0 0.02605035422457087 -0.02160206385432159 0.020728664765346398 0.0008733990889751547 0.013781434432448137 0.0 0.0
0.0 0.017262107098455645 -0.014400734443223194 0.013588064633945894 0.0008126698092773057 0.00977079819581604 0.0 0.0
0.0 0.010465348523869036 -0.008419874726030606 0.007685666291873381 0.0007342084341572343 0.00602524275916456 0.0 0.0
0.0 0.004806988718901128 -0.004017142596588725 0.0034475959654318737 0.0005695466311568531 0.003068984341959787 0.0 0.0
0.0 0.0016321444655992199 -0.0013543666280864221 0.0010716775706005478 0.0002826890574858737 0.0011765752246436592 0.0 0.0
0.0 0.00032883840843405234 -0.0002323554709282258 0.00017487246540858593 5.748300551963987e-05 0.00025730559967077993 0.0 0.0
0.0 1.9261236275102935e-05 -5.629190620760473e-06 3.71543517977269e-06 1.913755440987784e-06 1.1922898098852982e-05 0.0 0.0
0.0 -2.5185496110104433e-06 1.0152937883722604e-06 -8.809249685217896e-07 -1.343688198504523e-07 -2.0579309907538854e-07 0.0 0.0
0.0 -1.0332404473389773e-06 6.390060160032015e-07 -5.133606132000239e-07 -1.2564540280317817e-07 -2.6088937089053628e-06 0.0 0.0
0.0 -1.3075163665647826e-07 -2.9683768817357188e-09 1.947121500571764e-09 1.0212553811632798e-09 2.5935044404943458e-08 0.0 0.0
0.0 0.0 0.0 0.0 0.0 0.0 0.0 0.0
0.0 0.0 0.0 0.0 0.0 0.0 0.0 0.0
0.0 0.0 0.0 0.0 0.0 0.0 0.0 0.0
0.0 -6.528350537812336e-07 2.1415810659124683e-07 -1.6920546340101578e-07 -4.495264319023234e-08 6.98391532598772e-07 0.0 0.0
0.0 -5.2339201710949045e-06 4.0156426682192735e-06 -3.2855206891572005e-06 -7.301219790620471e-07 7.705292871595351e-06 0.0 0.0
0.0 2.8843754867762836e-05 -3.1748304710457057e-05 2.2445489550272525e-05 9.302815160184411e-06 -3.300557796523546e-05 0.0 0.0
0.0 0.0006467604168735224 -0.0005128122036122829 0.0003875701132730816 0.00012524209033920188 -0.00036067427863598485 0.0 0.0
0.0 0.002633447083285113 -0.002286960355201452 0.0018589811784937404 0.00042797917670771166 -0.0013712847015900124 0.0 0.0
0.0 0.007164270198003475 -0.005920586056724362 0.005222153394242392 0.0006984326624819727 -0.0033808008811207825 0.0 0.0
0.0 0.013494210509521954 -0.011586271456365364 0.010757243708906898 0.0008290277474584609 -0.006482173883844289 0.0 0.0
0.0 0.02249779660254152 -0.019040385837405787 0.018139773973341013 0.000900611864064792 -0.010230573740340792 0.0 0.0
0.0 0.03311637247238769 -0.02799917036531712 0.027034968154908235 0.0009642022104088385 -0.014218616868445973 0.0 0.0
0.0 0.04517736400244906 -0.03821490315798218 0.03718208609331011 0.0010328170646720944 -0.018169280980138074 0.0 0.0
0.0 0.058499914086691925 -0.04953601465755106 0.04843068227118137 0.0011053323863695571 -0.021974363894323588 0.0 0.0
0.0 0.07306836418685968 -0.06188745155717241 0.06071161648115965 0.001175835076012863 -0.025663854948092535 0.0 0.0
0.0 0.08853908679798686 -0.0751581756939446 0.07392486362286066 0.0012333120710839168 -0.029440515884542506 0.0 0.0
0.0 0.1045551164830732 -0.08894089110819342 0.08768696209035727 0.0012539290178361418 -0.03381436288698243 0.0 0.0
0.0 0.12050730479522168 -0.10218014254095019 0.1009694499131338 0.0012106926278164223 -0.03940671935849876 0.0 0.0
0.0 0.13331050264958777 -0.11283827168817975 0.11175900374429229 0.0010792679438872221 -0.046131361633559596 0.0 0.0
0.0 0.13933259987223107 -0.11758293559231416 0.11674638316261048 0.0008365524297036764 -0.052464275156147364 0.0 0.0
0.0 0.13341241333348403 -0.11163184686972477 0.11117129766004294 0.0004605492096818959 -0.05638437056048984 0.0 0.0
0.0 0.12530841081505253 -0.10005797062801289 0.09450066355990507 0.005557307068107815 2.9814692381613384e-14 0.0 0.0
0.0 0.1334124133334724 -0.11163184686970606 0.11117129766002296 0.00046054920968315906 0.05638437056055745 0.0 0.0
0.0 0.13933259987219274 -0.11758293559227408 0.11674638316256994 0.0008365524297042758 0.0524642751562135 0.0 0.0
0.0 0.13331050264953018 -0.1128382716881266 0.11175900374424001 0.0010792679438865198 0.04613136163359631 0.0 0.0
0.0 0.12050730479514116 -0.10218014254088063 0.10096944991306342 0.0012106926278171548 0.039406719358500014 0.0 0.0
0.0 0.10455511648298145 -0.08894089110811497 0.08768696209027828 0.0012539290178365853 0.033814362886965724 0.0 0.0
0.0 0.08853908679789663 -0.07515817569386733 0.07392486362278392 0.0012333120710833502 0.029440515884521415 0.0 0.0
0.0 0.07306836418677316 -0.06188745155709759 0.06071161648108555 0.001175835076012143 0.025663854948071094 0.0 0.0
0.0 0.05849991408660212 -0.04953601465747437 0.048430682271104725 0.0011053323863696029 0.021974363894298975 0.0 0.0
0.0 0.045177364002369956 -0.03821490315791526 0.03718208609324375 0.001032817064671436 0.018169280980109434 0.0 0.0
0.0 0.0331163724723092 -0.0279991703652519 0.027034968154842805 0.0009642022104090958 0.014218616868409122 0.0 0.0
0.0 0.02249779660248392 -0.019040385837357482 0.018139773973293118 0.0009006118640643521 0.01023057374031308 0.0 0.0
0.0 0.013494210509481594 -0.011586271456330281 0.010757243708872601 0.0008290277474576773 0.006482173883825528 0.0 0.0
0.0 0.007164270197971762 -0.005920586056698922 0.005222153394217881 0.0006984326624810406 0.0033808008811055043 0.0 0.0
0.0 0.002633447083269522 -0.0022869603551887723 0.0018589811784827995 0.0004279791767059718 0.0013712847015818854 0.0 0.0
0.0 0.0006467604168667278 -0.0005128122036075241 0.00038757011326942043 0.00012524209033810363 0.0003606742786325482 0.0 0.0
0.0 2.8843754866731157e-05 -3.174830471036211e-05 2.2445489550227995e-05 9.302815160134097e-06 3.300557796537607e-05 0.0 0.0
0.0 -5.233920171442785e-06 4.015642667988234e-06 -3.2855206889771277e-06 -7.301219790111045e-07 -7.705292870987632e-06 0.0 0.0
0.0 -6.528350536064111e-07 2.141581066216619e-07 -1.6920546342521644e-07 -4.4952643196444014e-08 -6.983915326962794e-07 0.0 0.0
0.0 0.0 0.0 0.0 0.0 0.0 0.0 0.0
0.0 0.0 0.0 0.0 0.0 0.0 0.0 0.0
0.0 0.0 0.0 0.0 0.0 0.0 0.0 0.0
0.0 0.0 0.0 0.0 0.0 0.0 0.0 0.0
0.0 -1.9259891853480113e-07 -1.2438204119640457e-08 9.900711751953166e-09 2.537492367688598e-09 -3.208399983975565e-08 0.0 0.0
0.0 -7.437257281625762e-06 4.368256111235757e-06 -3.6317011263641237e-06 -7.365549848716609e-07 7.551317928536348e-06 0.0 0.0
0.0 0.00010436105835203003 -8.068269626373899e-05 5.6740323680974854e-05 2.3942372582764156e-05 -4.165601227066225e-05 0.0 0.0
0.0 0.0010193730984799918 -0.0009521243952161987 0.0007292712643866147 0.00022285313082958408 -0.0004355979381445486 0.0 0.0
0.0 0.0040415821079029905 -0.0034116820003542267 0.002852807465197924 0.0005588745351563036 -0.0014111321028834544 0.0 0.0
0.0 0.009170679300857092 -0.008033212362302823 0.007239982751707214 0.0007932296105956108 -0.003420815877029781 0.0 0.0
0.0 0.01720571799853559 -0.01487037600340346 0.01396651092495817 0.0009038650784452713 -0.006321714379729748 0.0 0.0
0.0 0.027676024146699556 -0.023771590082249293 0.02279508291220438 0.0009765071700449428 -0.00979150522805326 0.0 0.0
0.0 0.0402537249263587 -0.03446896977973113 0.03342319269353472 0.001045777086196417 -0.013502317026059505 0.0 0.0
0.0 0.054610793659503096 -0.04669904761079766 0.045579501143877224 0.0011195464669204072 -0.01717741016699777 0.0 0.0
0.0 0.0705760321701221 -0.06027398580182649 0.059076982578514445 0.0011970032233120226 -0.020734956969116904 0.0 0.0
0.0 0.08762263698083757 -0.07508265973789852 0.07380794456563941 0.0012747151722591397 -0.02420962657115221 0.0 0.0
0.0 0.10622914336045787 -0.09098696204932256 0.08964528513725294 0.001341676912069775 -0.027676011017027057 0.0 0.0
0.0 0.12560210713793746 -0.10756300312631839 0.10619326822219495 0.0013697349041233552 -0.031419290011013165 0.0 0.0
0.0 0.1441906235802368 -0.12359253237552009 0.12227815563116566 0.001314376744354403 -0.03610719144379231 0.0 0.0
0.0 0.15957492795041284 -0.1365606546815146 0.13541955100791 0.0011411036736046804 -0.04230367289235279 0.0 0.0
0.0 0.16710294003201698 -0.14249718401934236 0.14164816063209043 0.0008490233872518178 -0.049684460628461546 0.0 0.0
0.0 0.16077662393625433 -0.13616352688484 0.13570951617321733 0.00045401071162272215 -0.057696225657345515 0.0 0.0
0.0 0.1510409526203299 -0.1234835015025213 0.11746504839597821 0.006018453106543205 2.821354261328679e-14 0.0 0.0
0.0 0.16077662393623354 -0.13616352688481492 0.13570951617319107 0.00045401071162379984 0.05769622565741159 0.0 0.0
0.0 0.16710294003196383 -0.14249718401929148 0.14164816063203844 0.0008490233872528849 0.049684460628522026 0.0 0.0
0.0 0.15957492795034023 -0.13656065468145004 0.13541955100784556 0.0011411036736045763 0.04230367289238587 0.0 0.0
0.0 0.1441906235801372 -0.12359253237543465 0.12227815563107836 0.0013143767443561675 0.03610719144379209 0.0 0.0
0.0 0.12560210713783393 -0.1075630031262285 0.1061932682221056 0.001369734904122864 0.03141929001100089 0.0 0.0
0.0 0.10622914336035219 -0.09098696204923172 0.08964528513716227 0.0013416769120694675 0.027676011017010393 0.0 0.0
0.0 0.08762263698073286 -0.07508265973780817 0.07380794456554951 0.0012747151722585274 0.024209626571133052 0.0 0.0
0.0 0.07057603217001754 -0.06027398580173634 0.05907698257842419 0.001197003223312109 0.020734956969094685 0.0 0.0
0.0 0.054610793659410586 -0.046699047610718664 0.04557950114379883 0.001119546466919864 0.017177410166970424 0.0 0.0
0.0 0.040253724926273646 -0.03446896977965878 0.03342319269346262 0.0010457770861962107 0.013502317026027631 0.0 0.0
0.0 0.02767602414663251 -0.0237715900821919 0.022795082912147366 0.0009765071700445111 0.009791505228027768 0.0 0.0
0.0 0.017205717998487424 -0.014870376003361963 0.013966510924917231 0.0009038650784447389 0.006321714379712065 0.0 0.0
0.0 0.009170679300820706 -0.008033212362271693 0.0072399827516770755 0.0007932296105946127 0.0034208158770153456 0.0 0.0
0.0 0.0040415821078810515 -0.003411682000336382 0.0028528074651818 0.0005588745351545822 0.0014111321028751416 0.0 0.0
0.0 0.0010193730984721155 -0.000952124395209967 0.0007292712643816953 0.0002228531308282711 0.00043559793814185594 0.0 0.0
0.0 0.00010436105835018345 -8.068269626308153e-05 5.6740323680519123e-05 2.394237258256244e-05 4.165601227044588e-05 0.0 0.0
0.0 -7.4372572816520446e-06 4.3682561110455965e-06 -3.63170112621704e-06 -7.365549848285546e-07 -7.5513179282738015e-06 0.0 0.0
0.0 -1.9259891850927365e-07 -1.243820411784055e-08 9.900711750511593e-09 2.5374923673294314e-09 3.208399983580417e-08 0.0 0.0
0.0 0.0 0.0 0.0 0.0 0.0 0.0 0.0
0.0 0.0 0.0 0.0 0.0 0.0 0.0 0.0
0.0 0.0 0.0 0.0 0.0 0.0 0.0 0.0
0.0 0.0 0.0 0.0 0.0 0.0 0.0 0.0
0.0 -7.18462332870173e-08 -5.322214849680892e-09 4.219826328331633e-09 1.102388521349622e-09 -1.0684932772376604e-08 0.0 0.0
0.0 -8.722683050749451e-06 6.2163740438664786e-06 -5.272271588404918e-06 -9.44102455461549e-07 8.327776179272077e-06 0.0 0.0
0.0 0.00022787019140261812 -0.0001937927015067832 0.00013780969483738527 5.598300666939824e-05 -5.0996363457498653e-05 0.0 0.0
0.0 0.0017028493557941617 -0.00151132195551529 0.0011808229474171601 0.00033049900809813007 -0.0003850753245264422 0.0 0.0
0.0 0.005350209084748188 -0.00472457462529637 0.004055883346375 0.0006686912789213696 -0.001302801977417522 0.0 0.0
0.0 0.01159409348754836 -0.010253802094788442 0.009390653223308763 0.0008631488714796786 -0.0030667706736654636 0.0 0.0
0.0 0.020869273460568716 -0.01822000566406207 0.017252503754760656 0.0009675019093014026 -0.005509765350750473 0.0 0.0
0.0 0.032941224060198185 -0.0285399974976242 0.027494597239723938 0.0010454002579002634 -0.008470226755985008 0.0 0.0
0.0 0.04739892426743893 -0.04095839832972376 0.039837648727420946 0.0011207496023027909 -0.01164692814817019 0.0 0.0
0.0 0.06404468787823901 -0.05519722981606929 0.053997157607594 0.001200072208475318 -0.014798527324420295 0.0 0.0
0.0 0.08230842229006365 -0.07103194916352754 0.06974977516695086 0.0012821739965767137 -0.017870660586055104 0.0 0.0
0.0 0.10255946927456347 -0.08827698419187112 0.0869151413245067 0.0013618428673644045 -0.020909585507254434 0.0 0.0
0.0 0.12384593491964012 -0.10672594494568333 0.10529311682423159 0.0014328281214517065 -0.02388397535419354 0.0 0.0
0.0 0.14587530078030897 -0.125903352716719 0.12443117892040625 0.0014721737963128206 -0.026717816515644754 0.0 0.0
0.0 0.16757037825374502 -0.14454013864899318 0.14311584927645954 0.0014242893725337161 -0.0298034225761828 0.0 0.0
0.0 0.18555605519344057 -0.1598897833564695 0.1586670666910922 0.001222716665377229 -0.03463463746634541 0.0 0.0
0.0 0.19484623195872858 -0.16744250942053085 0.16657104809911155 0.0008714613214192001 -0.04331687945923123 0.0 0.0
0.0 0.1889883261758501 -0.161318728146631 0.16089437896060418 0.0004243491860270425 -0.057062918288473014 0.0 0.0
0.0 0.17856960487525658 -0.14787251180647146 0.1414731616068964 0.0063993501995747775 2.38073449843057e-14 0.0 0.0
0.0 0.18898832617582698 -0.16131872814660542 0.16089437896057857 0.00042434918602696214 0.05706291828852855 0.0 0.0
0.0 0.1948462319586686 -0.16744250942047548 0.16657104809905618 0.0008714613214192424 0.043316879459284786 0.0 0.0
0.0 0.1855560551933498 -0.15988978335639042 0.15866706669101255 0.0012227166653778162 0.034634637466371715 0.0 0.0
0.0 0.16757037825363652 -0.14454013864889967 0.1431158492763655 0.0014242893725340009 0.02980342257618309 0.0 0.0
0.0 0.14587530078018926 -0.12590335271661518 0.12443117892030296 0.0014721737963122447 0.02671781651563641 0.0 0.0
0.0 0.12384593491952525 -0.10672594494558404 0.10529311682413292 0.0014328281214509597 0.023883975354180804 0.0 0.0
0.0 0.1025594692744431 -0.08827698419176684 0.08691514132440292 0.0013618428673639437 0.020909585507238142 0.0 0.0
0.0 0.08230842228994384 -0.07103194916342453 0.06974977516684802 0.0012821739965766588 0.01787066058603612 0.0 0.0
0.0 0.06404468787813175 -0.055197229815976384 0.05399715760750202 0.001200072208474393 0.014798527324396286 0.0 0.0
0.0 0.04739892426734383 -0.04095839832964199 0.03983764872733961 0.00112074960230237 0.011646928148143727 0.0 0.0
0.0 0.032941224060119484 -0.028539997497556428 0.02749459723965652 0.001045400257899906 0.008470226755962857 0.0 0.0
0.0 0.02086927346051233 -0.018220005664013255 0.017252503754712194 0.0009675019093010698 0.005509765350734374 0.0 0.0
0.0 0.011594093487508497 -0.010253802094753316 0.009390653223274537 0.0008631488714787751 0.0030667706736537356 0.0 0.0
0.0 0.005350209084723328 -0.004724574625275193 0.004055883346355342 0.0006686912789198451 0.0013028019774100883 0.0 0.0
0.0 0.0017028493557837085 -0.0015113219555066854 0.0011808229474101802 0.0003304990080965079 0.0003850753245243011 0.0 0.0
0.0 0.00022787019140041028 -0.00019379270150552866 0.00013780969483650444 5.598300666902436e-05 5.0996363457277544e-05 0.0 0.0
0.0 -8.72268305109356e-06 6.216374043417989e-06 -5.272271588062445e-06 -9.441024553555401e-07 -8.327776178857998e-06 0.0 0.0
0.0 -7.184623319621463e-08 -5.322214842869262e-09 4.219826322927047e-09 1.1023885199412321e-09 1.0684932758656047e-08 0.0 0.0
0.0 0.0 0.0 0.0 0.0 0.0 0.0 0.0
0.0 0.0 0.0 0.0 0.0 0.0 0.0 0.0
0.0 0.0 0.0 0.0 0.0 0.0 0.0 0.0
0.0 0.0 0.0 0.0 0.0 0.0 0.0 0.0
0.0 0.0 0.0 0.0 0.0 0.0 0.0 0.0
0.0 -8.709391381625648e-06 7.376954406870537e-06 -6.817610034575033e-06 -5.593443722955409e-07 9.237780858873845e-06 0.0 0.0
0.0 0.0004029436023533574 -0.00039438830792327354 0.0002837668325330815 0.00011062147539019213 -2.185411170111442e-05 0.0 0.0
0.0 0.0025506018109179907 -0.0022240002198716967 0.0017819253454758226 0.00044207487439587394 -0.0002362713327715148 0.0 0.0
0.0 0.006733113331994757 -0.006161339803059614 0.005409995782195625 0.0007513440208639809 -0.0009829364888497985 0.0 0.0
0.0 0.014127500695658808 -0.012533436356424052 0.011612845624110874 0.0009205907323132013 -0.002260609830705601 0.0 0.0
0.0 0.02457974559299721 -0.021591287468368667 0.02056644929302553 0.0010248381753431065 -0.004066217854731564 0.0 0.0
0.0 0.038201078165593406 -0.033298069831051526 0.032188983640217925 0.0011090861908335952 -0.006271843160964142 0.0 0.0
0.0 0.054621980722194624 -0.04741799667853454 0.04622714003610101 0.001190856642433492 -0.00865694967699175 0.0 0.0
0.0 0.0733850811077364 -0.06365934864441007 0.062383964085256385 0.0012753845591536009 -0.011034263322270383 0.0 0.0
0.0 0.09452621178954607 -0.08175070859599404 0.0803897030998538 0.0013610054961403755 -0.01337728335215405 0.0 0.0
0.0 0.11704232562629435 -0.10143122323835535 0.09998928703322194 0.001441936205133349 -0.015745494838357067 0.0 0.0
0.0 0.14125067033542735 -0.1223390909790409 0.12082988201377914 0.0015092089652616876 -0.01803816553623776 0.0 0.0
0.0 0.16615688191310546 -0.14386960824725478 0.14232068843579906 0.0015489198114557413 -0.019917757958385445 0.0 0.0
0.0 0.1903729575400405 -0.16481089191804854 0.1632802274530506 0.0015306644649977787 -0.021268614198222947 0.0 0.0
0.0 0.21099540553505475 -0.18260415969201885 0.18123371310312877 0.0013704465888901558 -0.023717208643630163 0.0 0.0
0.0 0.22281348385197572 -0.19248619122232657 0.19154882487147618 0.000937366350850323 -0.0322968330258076 0.0 0.0
0.0 0.21842050307054656 -0.18756170503306763 0.1872226621960221 0.00033904283704537286 -0.05336115963536676 0.0 0.0
0.0 0.20808930856566663 -0.17384866635419516 0.1671791085010705 0.006669557853124777 1.9545129403830686e-14 0.0 0.0
0.0 0.21842050307051664 -0.1875617050330381 0.18722266219599323 0.0003390428370445394 0.05336115963541019 0.0 0.0
0.0 0.2228134838519089 -0.19248619122226626 0.19154882487141664 0.0009373663508499867 0.03229683302585087 0.0 0.0
0.0 0.21099540553494828 -0.18260415969192736 0.18123371310303657 0.001370446588890599 0.023717208643649706 0.0 0.0
0.0 0.1903729575399205 -0.16481089191794476 0.16328022745294754 0.0015306644649975014 0.021268614198221347 0.0 0.0
0.0 0.16615688191297234 -0.1438696082471393 0.1423206884356841 0.001548919811455276 0.01991775795838157 0.0 0.0
0.0 0.14125067033529418 -0.12233909097892594 0.12082988201366425 0.001509208965261728 0.018038165536231242 0.0 0.0
0.0 0.11704232562615731 -0.10143122323823667 0.09998928703310404 0.0014419362051326515 0.015745494838345538 0.0 0.0
0.0 0.09452621178941124 -0.08175070859587752 0.0803897030997372 0.0013610054961402057 0.013377283352142576 0.0 0.0
0.0 0.07338508110761341 -0.0636593486443039 0.06238396408515097 0.0012753845591528803 0.011034263322252942 0.0 0.0
0.0 0.05462198072208791 -0.04741799667844195 0.046227140036008585 0.0011908566424332911 0.008656949676971493 0.0 0.0
0.0 0.038201078165507434 -0.03329806983097629 0.0321889836401435 0.001109086190832771 0.00627184316094709 0.0 0.0
0.0 0.024579745592928907 -0.021591287468309045 0.020566449292966166 0.001024838175342888 0.0040662178547189115 0.0 0.0
0.0 0.014127500695615202 -0.012533436356385458 0.011612845624073206 0.0009205907323122549 0.002260609830697125 0.0 0.0
0.0 0.006733113331966085 -0.00616133980303406 0.005409995782171315 0.0007513440208627572 0.0009829364888438471 0.0 0.0
0.0 0.0025506018109061742 -0.0022240002198615255 0.001781925345467279 0.00044207487439424476 0.00023627133276991614 0.0 0.0
0.0 0.0004029436023491229 -0.0003943883079202434 0.00028376683253080305 0.00011062147538944005 2.1854111700846243e-05 0.0 0.0
0.0 -8.709391381763e-06 7.37695440667958e-06 -6.817610034413577e-06 -5.593443722660422e-07 -9.2377808587429e-06 0.0 0.0
0.0 0.0 0.0 0.0 0.0 0.0 0.0 0.0
0.0 0.0 0.0 0.0 0.0 0.0 0.0 0.0
0.0 0.0 0.0 0.0 0.0 0.0 0.0 0.0
0.0 0.0 0.0 0.0 0.0 0.0 0.0 0.0
0.0 0.0 0.0 0.0 0.0 0.0 0.0 0.0
0.0 0.0 0.0 0.0 0.0 0.0 0.0 0.0
0.0 9.471225256426536e-06 -1.2047885243168383e-05 5.928231616895891e-06 6.119653626272516e-06 1.1745186992880466e-05 0.0 0.0
0.0 0.0007730213960600546 -0.0006821272728474328 0.00049989112877558 0.00018223614407185314 8.097266855999233e-05 0.0 0.0
0.0 0.003410564868496798 -0.0030727876418065545 0.002528144345395604 0.0005446432964109495 2.8301956009154597e-05 0.0 0.0
0.0 0.008456124986669224 -0.007659861014872902 0.0068470560268444666 0.0008128049880284371 -0.0003671091023993829 0.0 0.0
0.0 0.01669248809279198 -0.014836567193383233 0.013867460201102109 0.0009691069922810987 -0.0010413836883975851 0.0 0.0
0.0 0.028368624440598268 -0.024939012785345372 0.023861855832358326 0.0010771569529870535 -0.0019982319712080004 0.0 0.0
0.0 0.043447909530633634 -0.03799809519148238 0.03682892766412319 0.0011691675273591733 -0.0031989795250146292 0.0 0.0
0.0 0.06174421875917632 -0.05380061094901908 0.05254386553317876 0.0012567454158403375 -0.004524418077495868 0.0 0.0
0.0 0.08299008226889158 -0.07203584063806506 0.07069018288951232 0.0013456577485527984 -0.005877820481284042 0.0 0.0
0.0 0.10622605424431342 -0.09238562590789946 0.09095049944702732 0.0014351264608720442 -0.007262757069317463 0.0 0.0
0.0 0.13176739473235716 -0.11447799574058598 0.11296161524602173 0.0015163804945641768 -0.008684514553542605 0.0 0.0
0.0 0.15871409316841578 -0.13779265397516458 0.1362163693248134 0.0015762846503512393 -0.010041941541364145 0.0 0.0
0.0 0.18614514377239544 -0.16151150236364414 0.15990811076617883 0.0016033915974650475 -0.011041878106570558 0.0 0.0
0.0 0.2125808866706893 -0.18435687928957417 0.18276186477478196 0.001595014514792478 -0.011282550147680663 0.0 0.0
0.0 0.2355799873431469 -0.20424273160832335 0.2027032678556268 0.0015394637526964605 -0.011368678531015778 0.0 0.0
0.0 0.25063383174908915 -0.2172048192149365 0.21595337329711553 0.0012514459178208604 -0.016426750672818693 0.0 0.0
0.0 0.2496394196975259 -0.21548556095991092 0.21524371328906866 0.00024184767084213044 -0.04066281287504129 0.0 0.0
0.0 0.24098545910546507 -0.20270062661245278 0.19620470240442955 0.006495924208023066 1.2189901865689023e-14 0.0 0.0
0.0 0.24963941969748288 -0.2154855609598716 0.21524371328902941 0.00024184767084206745 0.04066281287506825 0.0 0.0
0.0 0.25063383174901266 -0.21720481921486917 0.2159533732970497 0.0012514459178195126 0.01642675067284271 0.0 0.0
0.0 0.2355799873430296 -0.20424273160822193 0.20270326785552537 0.0015394637526965885 0.011368678531026955 0.0 0.0
0.0 0.21258088667054723 -0.18435687928945185 0.18276186477465906 0.001595014514792777 0.011282550147679489 0.0 0.0
0.0 0.1861451437722505 -0.16151150236351772 0.15990811076605366 0.001603391597463819 0.01104187810656915 0.0 0.0
0.0 0.15871409316826135 -0.13779265397503077 0.13621636932468043 0.0015762846503505853 0.010041941541360073 0.0 0.0
0.0 0.1317673947322108 -0.1144779957404589 0.112961615245896 0.0015163804945628368 0.008684514553535822 0.0 0.0
0.0 0.1062260542441617 -0.09238562590776843 0.0909504994468958 0.0014351264608727008 0.007262757069311985 0.0 0.0
0.0 0.08299008226875353 -0.07203584063794585 0.07069018288939309 0.0013456577485527873 0.005877820481273914 0.0 0.0
0.0 0.061744218759059485 -0.053800610948917985 0.052543865533078125 0.0012567454158398687 0.0045244180774844265 0.0 0.0
0.0 0.04344790953053727 -0.037998095191398094 0.036828927664039834 0.0011691675273582602 0.0031989795250041576 0.0 0.0
0.0 0.028368624440519855 -0.024939012785276722 0.02386185583228985 0.0010771569529868642 0.001998231971200975 0.0 0.0
0.0 0.01669248809274254 -0.014836567193339423 0.013867460201059048 0.0009691069922803722 0.0010413836883929196 0.0 0.0
0.0 0.00845612498663541 -0.007659861014842587 0.006847056026815213 0.0008128049880273651 0.0003671091023961313 0.0 0.0
0.0 0.003410564868481647 -0.0030727876417932826 0.0025281443453838404 0.0005446432964094424 -2.8301956009898075e-05 0.0 0.0
0.0 0.000773021396054068 -0.000682127272842702 0.000499891128772023 0.00018223614407067803 -8.097266855946998e-05 0.0 0.0
0.0 9.471225255970758e-06 -1.204788524319595e-05 5.928231616944265e-06 6.11965362625177e-06 -1.1745186992758187e-05 0.0 0.0
0.0 0.0 0.0 0.0 0.0 0.0 0.0 0.0
0.0 0.0 0.0 0.0 0.0 0.0 0.0 0.0
0.0 0.0 0.0 0.0 0.0 0.0 0.0 0.0
0.0 0.0 0.0 0.0 0.0 0.0 0.0 0.0
0.0 0.0 0.0 0.0 0.0 0.0 0.0 0.0
0.0 0.0 0.0 0.0 0.0 0.0 0.0 0.0
0.0 7.184802316841468e-05 -7.04837718027826e-05 4.626592130882203e-05 2.4217850493960637e-05 2.6596398846129335e-05 0.0 0.0
0.0 0.001199126596723985 -0.0010113128585281452 0.0007355986186206322 0.0002757142399075128 0.00023396718337546186 0.0 0.0
0.0 0.004245634209128975 -0.0038304581470307375 0.0031159303022888895 0.0007145278447418467 0.0004918323810252402 0.0 0.0
0.0 0.009805250448167628 -0.00893065921480814 0.00786888391894635 0.001061775295861808 0.0006363872040936767 0.0 0.0
0.0 0.018693165905681042 -0.01674199344673603 0.015403306165603623 0.0013386872811324197 0.0006887832505862934 0.0 0.0
0.0 0.031175194482602725 -0.02767813852601663 0.026065780164305927 0.0016123583617106846 0.0006322460881933523 0.0 0.0
0.0 0.0474306787571793 -0.04183476969082993 0.039911412173722474 0.0019233575171073779 0.0004128865169820352 0.0 0.0
0.0 0.06723356582853375 -0.059026093764671016 0.05673695340083334 0.002289140363837711 6.752384793917449e-05 0.0 0.0
0.0 0.08987306177357954 -0.07892373467452023 0.07621314032790623 0.0027105943466138598 -0.0003823669161746755 0.0 0.0
0.0 0.11526230617950978 -0.10113902772698692 0.0979677004000171 0.003171327326969809 -0.0009526983953133464 0.0 0.0
0.0 0.14282548814138585 -0.12521907504924693 0.12157292823243585 0.0036461468168110514 -0.0016111039359634743 0.0 0.0
0.0 0.17183361721364473 -0.15052069105083804 0.14642329210716648 0.004097398943671567 -0.002337352773482843 0.0 0.0
0.0 0.20117448420879044 -0.1760313863075037 0.17155561833255817 0.004475767974945422 -0.0029676735238473965 0.0 0.0
0.0 0.22910446024191594 -0.20026489637230918 0.19553550559393829 0.004729390778370657 -0.0031589744741064123 0.0 0.0
0.0 0.25331998948554746 -0.2212768359340216 0.21642319472423582 0.004853641209785516 -0.0028681420886852993 0.0 0.0
0.0 0.27057937638484036 -0.23650522322030715 0.23147084997280823 0.005034373247498844 -0.006029462489465778 0.0 0.0
0.0 0.2742774387309327 -0.24024194577952135 0.23493814771912488 0.005303798060396605 -0.03165945650508767 0.0 0.0
0.0 0.27050742094940483 -0.2310035978200077 0.21836411342849663 0.01263948439151067 4.85722573273506e-15 0.0 0.0
0.0 0.27427743873088295 -0.2402419457794775 0.23493814771908128 0.0053037980603961535 0.031659456505098854 0.0 0.0
0.0 0.27057937638475754 -0.23650522322023387 0.23147084997273853 0.005034373247495085 0.006029462489475064 0.0 0.0
0.0 0.2533199894854168 -0.22127683593390784 0.21642319472412488 0.004853641209783193 0.002868142088686274 0.0 0.0
0.0 0.22910446024175898 -0.20026489637217204 0.1955355055938033 0.00472939077836867 0.0031589744741023287 0.0 0.0
0.0 0.20117448420862985 -0.1760313863073638 0.17155561833242014 0.004475767974943053 0.002967673523845419 0.0 0.0
0.0 0.17183361721348 -0.15052069105069354 0.1464232921070257 0.00409739894366788 0.002337352773480697 0.0 0.0
0.0 0.14282548814123364 -0.12521907504911328 0.12157292823230595 0.0036461468168071443 0.0016111039359584124 0.0 0.0
0.0 0.1152623061793455 -0.10113902772684413 0.09796770039987582 0.0031713273269681694 0.0009526983953107998 0.0 0.0
0.0 0.08987306177342938 -0.07892373467438973 0.07621314032777762 0.0027105943466120466 0.00038236691616951556 0.0 0.0
0.0 0.0672335658284094 -0.05902609376456238 0.05673695340072675 0.0022891403638356012 -6.752384794302124e-05 0.0 0.0
0.0 0.04743067875707371 -0.04183476969073767 0.039911412173632387 0.001923357517105222 -0.0004128865169851486 0.0 0.0
0.0 0.031175194482517404 -0.02767813852594191 0.026065780164232583 0.0016123583617093191 -0.0006322460881955064 0.0 0.0
0.0 0.018693165905624583 -0.01674199344668579 0.01540330616555484 0.00133868728113094 -0.0006887832505860069 0.0 0.0
0.0 0.009805250448131866 -0.008930659214775816 0.007868883918915576 0.0010617752958602257 -0.0006363872040927581 0.0 0.0
0.0 0.00424563420911093 -0.003830458147013988 0.003115930302274113 0.0007145278447398784 -0.0004918323810236035 0.0 0.0
0.0 0.0011991265967173112 -0.0010113128585227103 0.0007355986186165987 0.00027571423990611443 -0.00023396718337414933 0.0 0.0
0.0 7.184802316741221e-05 -7.04837718020057e-05 4.626592130829989e-05 2.4217850493705886e-05 -2.659639884587395e-05 0.0 0.0
0.0 0.0 0.0 0.0 0.0 0.0 0.0 0.0
0.0 0.0 0.0 0.0 0.0 0.0 0.0 0.0
0.0 0.0 0.0 0.0 0.0 0.0 0.0 0.0
SCALARS Wm float 4
LOOKUP_TABLE default
14.854714009906086 2.1116862224993036 6.454391458150264 6.28863632925651
7.900585237594475 3.700257235189172 1.9273288833531697 2.2729991190521366
0.9271473568821336 0.8056197633422105 0.02839170355787303 0.09313588998204991
0.6530284884616572 0.577410486861464 0.021537636614725637 0.0540803649854671
1.5055624847929765 0.9274082544810426 0.2149993485931804 0.3631548817187533
3.528274623442016 1.4376741530682557 0.8369023633172219 1.253698107056541
7.5720443308368655 2.1646030958900493 2.4737644588154244 2.9336767761313896
14.274767229643263 3.156372271298167 5.523987548797297 5.594407409547794
24.31201584327036 4.489142971587978 10.47920382175365 9.34366904992872
38.09955451740133 6.173868829894367 17.715540480973015 14.210145206533955
55.728257366990064 8.182998980837304 27.41441672593468 20.130841660218085
76.92885784292005 10.4716464198633 39.462336055721075 26.99487536733565
101.5913537427713 12.980473944647029 53.934218787112265 34.67666101101206
129.3213274943144 15.63571811682515 70.64191752352865 43.04369185396064
159.4352428139053 18.217723632116485 89.30174405346061 51.91577512832815
190.83029317997637 20.395989891606334 109.39997762189046 61.03432566647963
221.89897672025813 21.83019359010432 130.00949094607475 70.05929218407911
250.7380341353109 22.324438688593528 149.90862083821727 78.50497460849994
275.4832891349873 22.065084236628614 167.59263194843717 85.82557294992168
292.8101591662114 20.463459509717058 180.99721405756966 91.34948559892435
298.1254877801444 17.326566091607756 186.97055151332847 93.82837017520842
292.8101591662297 20.4634595097907 180.99721405752985 91.34948559890913
275.4832891348956 22.065084236626227 167.59263194837405 85.8255729498953
250.73803413514767 22.32443868854767 149.9086208381352 78.50497460846476
221.89897672007592 21.83019359006187 130.00949094597695 70.05929218403715
190.83029317984585 20.3959898916372 109.39997762177879 61.03432566642997
159.43524281375352 18.217723632117682 89.3017440533566 51.91577512827924
129.3213274941632 15.635718116818952 70.6419175234312 43.04369185391305
101.59135374262789 12.980473944637707 53.934218787023696 34.67666101096649
76.92885784278728 10.471646419849797 39.46233605564405 26.9948753672935
55.72825736688286 8.182998980825873 27.41441672587431 20.13084166018268
38.09955451731415 6.173868829879626 17.71554048092893 14.21014520650559
24.312015843209622 4.489142971579849 10.479203821723019 9.343669049906765
14.274767229599997 3.156372271284522 5.523987548781066 5.5944074095344085
7.572044330813509 2.1646030958866582 2.4737644588053236 2.9336767761215286
3.528274623429582 1.4376741530647799 0.836902363313458 1.253698107051343
1.5055624847889488 0.927408254479476 0.21499934859214256 0.3631548817173309
0.6530284884604984 0.5774104868608232 0.021537636614553376 0.05408036498512225
0.9271473568800456 0.8056197633401219 0.02839170355786766 0.09313588998205474
7.9005852375891905 3.7002572351909606 1.9273288833496407 2.27299911904859
14.854714009874423 2.1116862224829713 6.4543914581416555 6.288636329249807
18.018344796864696 7.709504941586579 5.083461168395083 5.2253786868830385
3.4005080347583485 0.7491994829283354 1.149903052282071 1.5014054995479396
0.3159131849850525 0.3763846462491372 -0.02273753744822152 -0.037733923815863143
0.49466250332686446 0.4634817156611415 0.0069492543953304535 0.024231533270392687
1.1210707219484024 0.7447232676772941 0.12495864583530367 0.25138880843580497
2.804527930066726 1.1360434309631031 0.6667503795954504 1.001734119508172
6.213671432181857 1.6258421803920802 2.0531470958036913 2.5346821559860873
12.07027176396245 2.2736303333028354 4.7977024192220865 4.998939011437523
20.875569342413407 3.0784640726354695 9.30557762878645 8.491527640991487
32.90176371601604 4.0135117274245955 15.868993988773461 13.019257999817995
48.20264310117745 5.04397092443383 24.646497774662894 18.512174402080724
66.72770378613207 6.16467040854996 35.70044624570395 24.862587131878175
88.03532312672345 7.364157238901874 48.70492923186118 31.966236655960426
112.1524284883052 8.582490399717374 63.86642590085296 39.70351218773489
138.439464665129 9.727437534380659 80.7866738393086 47.92535329143984
166.04635638620016 10.634306942442866 99.01426404246901 56.39778540128822
193.7091814103722 11.121584491936474 117.80935811779955 64.77823880063612
219.77696162291267 11.07269320621098 136.04952866589306 72.65473975080859
242.05174479910283 10.34229100459646 152.2308049718377 79.47864882266859
257.79764523287685 9.089745491279432 164.26011076361382 84.44778897798369
264.0120560361404 7.672451769809684 169.68146256606875 86.65814170026198
257.797645232829 9.089745491279555 164.26011076358 84.44778897796945
242.0517447990397 10.342291004617639 152.2308049717787 79.47864882264352
219.77696162281856 11.072693206225381 136.04952866581672 72.65473975077659
193.70918141024777 11.12158449194132 117.80935811770962 64.77823880059677
166.04635638605288 10.634306942440437 99.0142640423693 56.39778540124311
138.43946466500444 9.727437534398565 80.78667383921196 47.92535329139398
112.15242848816045 8.582490399701427 63.866425900766856 39.70351218769215
88.03532312660302 7.3641572389051735 48.704929231780184 31.966236655917655
66.72770378601345 6.164670408540502 35.70044624563402 24.862587131838886
48.20264310108495 5.043970924429987 24.646497774607607 18.51217440204737
32.90176371594237 4.013511727417399 15.868993988733346 13.019257999791625
20.87556934236063 3.0784640726298034 9.305577628759393 8.491527640971427
12.07027176392741 2.2736303332960786 4.797702419206787 4.998939011424549
6.213671432161399 1.6258421803897365 2.053147095794691 2.5346821559769666
2.8045279300572865 1.1360434309623368 0.6667503795915225 1.0017341195034293
1.1210707219452734 0.7447232676757952 0.12495864583464818 0.2513888084348301
0.49466250332624706 0.4634817156606893 0.006949254395257047 0.024231533270300767
0.3159131849851108 0.37638464624885853 -0.022737537448116484 -0.03773392381563113
3.400508034750322 0.7491994829270358 1.149903052278746 1.5014054995445416
18.01834479683494 7.709504941573084 5.0834611683861946 5.225378686875643
13.823208560387314 6.216238950116437 3.612681918324853 3.994287691946015
2.1539390134608256 0.3501780584952388 0.7717991613092207 1.031961793656368
0.19174361341811177 0.19180678949783825 6.696580133303752e-05 -0.00013014188105950927
0.3593363881347485 0.3577251375674677 -0.0003161226370724965 0.0019273732043533563
0.83590769187935 0.641229173314998 0.05665815014319959 0.1380203684211524
2.186159252305205 1.0140181292780588 0.4515343008559055 0.7206068221712407
5.061398073620757 1.4757138211793448 1.5501446340975273 2.0355396183438854
10.172753848111775 2.0577174141928376 3.8871729956848435 4.227863438234092
17.907139121363148 2.757904209598265 7.779026448053589 7.370208463711286
28.499724779171345 3.5535925808826168 13.502755731673513 11.443376466615208
41.92810496460541 4.430802493478643 21.131853334429852 16.36544913669693
58.0492615941652 5.390543934522047 30.61970631080288 22.039011348840265
76.87779468866792 6.437914191654185 42.07194670516364 28.367933791850092
97.8778111489655 7.541470385719102 55.066901716962164 35.26943904628421
120.97628060248532 8.614593478028322 69.75263354913034 42.60905357532672
145.3588340393852 9.541282838033133 85.61448546716933 50.203065734182765
169.9600519359242 10.151058471886365 102.02904794022805 57.779945523809744
193.21045672257696 10.234346888461198 118.05751192742683 64.918597906689
213.0050785007662 9.648534345532857 132.28208617505163 71.07445798018165
226.96590677080493 8.70116305521816 142.75954906035238 75.50519465523439
232.14176023911952 6.829611023214862 147.7162407156407 77.5959085002639
226.9659067707737 8.70116305522556 142.75954906032564 75.50519465522245
213.0050785006569 9.648534345489802 132.28208617500556 71.07445798016153
193.21045672248596 10.234346888470064 118.05751192735752 64.91859790665838
169.96005193579592 10.15105847186982 102.02904794015151 57.77994552377455
145.35883403925862 9.541282838028414 85.61448546708624 50.20306573414396
120.97628060235878 8.614593478023318 69.75263354904848 42.60905357528699
97.87781114884999 7.541470385715339 55.066901716888175 35.26943904624641
76.87779468855119 6.437914191644968 42.07194670509387 28.36793379181239
58.04926159406439 5.390543934515639 30.61970631074303 22.039011348805758
41.92810496452059 4.430802493471942 21.131853334381805 16.365449136666832
28.499724779107297 3.5535925808777065 13.502755731638443 11.44337646659115
17.907139121316035 2.7579042095909787 7.779026448031056 7.370208463693997
10.172753848081218 2.057717414190343 3.8871729956699066 4.227863438220972
5.061398073603603 1.4757138211771303 1.550144634090408 2.035539618336062
2.1861592522977085 1.0140181292772203 0.4515343008530016 0.7206068221674865
0.8359076918768621 0.6412291733135254 0.05665815014281921 0.13802036842051715
0.3593363881344438 0.3577251375672244 -0.000316122637090899 0.0019273732043102528
0.19174361341812093 0.19180678949785956 6.696580133319729e-05 -0.00013014188107175574
2.1539390134536025 0.350178058493764 0.771799161306472 1.031961793653365
13.823208560359323 6.216238950105266 3.612681918315948 3.994287691938109
10.557833827814392 4.864287379498107 2.609228576914693 3.084317871401593
1.4695688171529542 0.15798730067879382 0.535583840306821 0.7759976761673378
0.1330990451188121 0.1330990451188121 0.0 0.0
0.2633007942365057 0.26686485910994573 -0.0007205927015877192 -0.0028434721718523025
0.6147441258900961 0.5391149451296848 0.018613039107671148 0.05701614165273963
1.6308852641839318 0.8787110775201927 0.2671936414224335 0.48498054524130546
4.027181829956369 1.3252360291841105 1.1379777987698283 1.5639680020024274
8.351066173348501 1.84095089975918 3.0364596541988096 3.4736556193905175
15.034165165501664 2.4443014499706455 6.334310954828927 6.255552760702088
24.194975920717233 3.1157744016240883 11.212227598292982 9.86697392080016
35.76057746325089 3.8529319154130586 17.69074581014676 14.216899737691087
49.694482378758565 4.674576877221555 25.80894390679464 19.21096159474237
65.75714306066328 5.582715618545088 35.401310923176254 24.773116518941915
84.04657702824137 6.563286196032691 46.65641007073176 30.826880761476925
103.96560466305462 7.577692762907973 59.10086091603703 37.28705098410962
125.10112467271038 8.523716838797805 72.57335073958657 44.00405709432597
146.73974833498954 9.235718501369973 86.76230860168798 50.74172123193165
167.31943205326866 9.4862770717706 100.67713938096999 57.156015600527994
184.95280109014118 9.139245647887043 113.07964780973457 62.733907632519575
197.54902246339512 8.367194612849506 122.35598579213071 66.82584205841493
202.24669910413425 6.14069444601853 127.19727764569637 68.90872701241933
197.54902246335223 8.367194612832954 122.35598579211197 66.8258420584072
184.95280109012018 9.139245647922134 113.07964780969589 62.73390763250209
167.31943205318834 9.486277071778648 100.67713938090905 57.15601560050063
146.73974833489558 9.235718501369728 86.7623086016244 50.741721231901494
125.1011246726094 8.523716838801054 72.57335073951609 44.00405709429222
103.96560466295783 7.577692762911608 59.1008609159705 37.287050984075634
84.04657702813748 6.563286196026449 46.65641007066798 30.826880761443054
65.7571430605592 5.582715618529911 35.40131092311928 24.77311651890999
49.6944823786828 4.674576877229233 25.808943906742563 19.21096159471101
35.760577463175906 3.852931915403272 17.690745810107217 14.21689973766543
24.194975920661527 3.1157744016204507 11.2122275982625 9.866973920778564
15.034165165463135 2.44430144996736 6.3343109548093155 6.2555527606864585
8.35106617332137 1.8409508997564745 3.0364596541862667 3.4736556193786248
4.027181829943088 1.3252360291836975 1.1379777987636572 1.5639680019957334
1.6308852641780558 0.8787110775181195 0.267193641420828 0.48498054523910855
0.6147441258887463 0.5391149451291518 0.01861303910738951 0.057016141652204574
0.263300794236355 0.2668648591097638 -0.0007205927015759019 -0.0028434721718328605
0.13309904511877232 0.13309904511877232 0.0 0.0
1.469568817147751 0.15798730067846842 0.5355838403045097 0.775997676164772
10.557833827789857 4.864287379487371 2.6092285769077774 3.084317871394717
7.9505065267253725 3.777108953814501 1.829079957127953 2.3443176157829226
1.0778895589706872 0.12826288239388317 0.3902275436577517 0.5593991329190516
0.12081685414742419 0.12081685414742419 0.0 0.0
0.20935689580608338 0.20987544496672542 -6.020149997317157e-05 -0.00045834766066887243
0.4491544470804909 0.4386741910777964 -0.0005178765659910768 0.010998132568685526
1.1852845182357428 0.7520324660286618 0.14140336178064009 0.2918486904264411
3.077891650013262 1.155475061157615 0.7865168255483459 1.1358997633073016
6.633030367062566 1.6273669671800162 2.2607874317283723 2.7448759681541786
12.263737686885515 2.1395254365157665 4.970055466871173 5.154156783498577
20.009253713827917 2.7000039235317503 9.012358550499192 8.296891239796981
29.795843271843815 3.31564279153592 14.41003704632747 12.070163433980412
41.524330885680534 4.00821277891454 21.13299779620696 16.383120310559033
55.14560164294309 4.796704938873522 29.175368060563116 21.17352864350645
70.38158436178257 5.672223465554651 38.31819090706256 26.391169989165363
87.31567453193159 6.603455384649349 48.75005235923305 31.962166788049203
105.4625535799586 7.551371877599101 60.12698521809399 37.78419648426551
124.03661734631997 8.37260482131833 71.97514408412798 43.68886844087359
142.0532012940879 8.832678907403043 83.84892900929333 49.371593377391505
157.78869984210849 8.731166086519286 94.65686140213731 54.40067235345189
169.4027798339691 8.119989741544494 103.05444146949915 58.22834862292546
173.84700883754033 5.5186440219573365 107.91323411066938 60.415130704913686
169.40277983396928 8.119989741568496 103.05444146948298 58.228348622917764
157.7886998420556 8.731166086522395 94.65686140209898 54.40067235343428
142.05320129400695 8.8326789073938 83.84892900924491 49.37159337736825
124.03661734623925 8.372604821317388 71.9751440840741 43.6888684408478
105.46255357986303 7.551371877592224 60.12698521803513 37.78419648423565
87.3156745318441 6.60345538464774 48.750052359176735 31.962166788019644
70.38158436170254 5.672223465557216 38.31819090700928 26.39116998913601
55.1456016428645 4.796704938868508 29.175368060516618 21.173528643479358
41.52433088560109 4.008212778906135 21.13299779616321 16.383120310531744
29.795843271784193 3.315642791529482 14.41003704629576 12.070163433958953
20.00925371378159 2.7000039235303017 9.012358550473417 8.296891239777873
12.26373768685171 2.139525436512742 4.970055466854489 5.1541567834844795
6.633030367040933 1.627366967176994 2.2607874317189753 2.7448759681449624
3.0778916500017695 1.1554750611560831 0.7865168255437031 1.135899763301985
1.1852845182314395 0.7520324660271526 0.1414033617795343 0.2918486904247527
0.44915444707912394 0.4386741910768335 -0.0005178765661144915 0.01099813256840513
0.20935689580610733 0.2098754449667528 -6.020149997153216e-05 -0.0004583476606739148
0.12081685414719771 0.12081685414719771 0.0 0.0
1.0778895589661905 0.12826288239343336 0.3902275436558193 0.5593991329169394
7.95050652670632 3.7771089538069567 1.8290799571223733 2.3443176157769865
5.882667900253658 2.906409636695531 1.2529333318837428 1.7233249316743862
0.7676709286452887 0.14766934059614387 0.2324352754892524 0.3875663125598924
0.1371065065618747 0.13711150110418055 -1.966034484966458e-07 -4.797938857358676e-06
0.1865832775023236 0.1865522452024509 4.116037697894036e-06 2.6916262174803034e-05
0.34352123539843976 0.35550354401658785 -0.004067364758874231 -0.007914943859273785
0.8308815018730761 0.6219605568910338 0.05648722318635471 0.15243372179568765
2.2056630888145894 0.9749069805299002 0.45935394699042753 0.771402161294261
5.089766227351527 1.4050172111533883 1.6308698148023675 2.0538792013957714
9.59625489712639 1.8453707289924324 3.6779569032108763 4.0729272649230825
15.993188304086294 2.3081759740013212 6.94546064752206 6.739551682562912
24.02436006765844 2.8153594693810855 11.27852268029053 9.930477917986822
33.61371542606984 3.3964473229367833 16.657242638242874 13.560025464890181
44.70954569972822 4.07425217685713 23.057822362059888 17.577471160811207
57.30380679766648 4.851537364348601 30.49895759624867 21.953311837069197
71.17148534822373 5.715134164745583 38.815618534388676 26.640732649089454
86.10794992690236 6.626063606038311 47.91970257759856 31.562183743265493
101.93067702964854 7.528308823362349 57.8086934954068 36.59367471087939
117.44062781303793 8.22721160236801 67.66173035705657 41.55168585361339
131.3775846715511 8.404590998529752 76.8869344880556 46.0860591849657
142.26650257103182 7.956469205674731 84.59158626679447 49.71844709856257
146.64739910981092 4.964160805205394 89.6172984861276 52.06593981847798
142.26650257099521 7.956469205657099 84.59158626678146 49.718447098556645
131.37758467149828 8.404590998517428 76.88693448802829 46.08605918495266
117.44062781297346 8.227211602356478 67.66173035702082 41.55168585359612
101.93067702958862 7.528308823368746 57.80869349536259 36.593674710857215
86.10794992682104 6.6260636060273175 47.91970257755279 31.56218374324094
71.17148534814775 5.715134164737816 38.81561853434455 26.64073264906542
57.30380679759546 4.851537364345884 30.498957596205447 21.95331183704412
44.70954569966773 4.074252176858151 23.05782236202174 17.57747116078786
33.613715426011225 3.396447322933153 16.657242638209656 13.560025464868417
24.024360067607294 2.815359469373691 11.278522680264945 9.930477917968666
15.993188304047637 2.3081759739990915 6.945460647501663 6.739551682546881
9.59625489709885 1.8453707289896348 3.6779569031978596 4.072927264911357
5.089766227334886 1.4050172111520967 1.6308698147947311 2.053879201388057
2.205663088805768 0.9749069805274726 0.4593539469876212 0.7714021612906733
0.8308815018702947 0.6219605568899585 0.056487223185727506 0.1524337217946091
0.34352123539785173 0.3555035440157417 -0.004067364758834901 -0.007914943859055142
0.18658327750212927 0.18655224520230734 4.1160376921381926e-06 2.691626212976295e-05
0.1371065065613984 0.13711150110370007 -1.9660344829240563e-07 -4.797938853403843e-06
0.7676709286419089 0.14766934059580344 0.23243527548786055 0.3875663125582448
5.8826679002389115 2.906409636690062 1.2529333318794358 1.7233249316694144
4.210660033839002 2.20340790835377 0.7950248399591741 1.21222728552606
0.5694481061930028 0.18958833498699504 0.1337279987137423 0.24613177249226528
0.1655189278120099 0.1655230876956353 -2.3246729076969345e-07 -3.92741633463526e-06
0.18391028063071874 0.1839595767196055 -5.666679379186474e-06 -4.3629409507615973e-05
0.28312765469022677 0.29419032578120563 -0.002676754464493832 -0.008385916626485176
0.5804206205707562 0.5094061456889682 0.012903278888655303 0.058111195993132976
1.514903753863106 0.8024519410601046 0.24431301650205514 0.46813879630094624
3.5943025064365126 1.1663011532557397 0.9952180851703473 1.4327832680104278
7.216518938808745 1.5584321544627187 2.62784925945898 3.0302375248870472
12.130043436133754 1.9372428562102042 4.992668277394509 5.200132302529037
18.49696858099226 2.3525271213659544 8.339786868836503 7.804654590789796
26.033546641834644 2.835158994833561 12.451420104882192 10.74696754211889
34.725116240599604 3.4140988173712468 17.320263579253393 13.990753843974971
44.59216998323369 4.103582584051759 22.965497461983084 17.523089937198847
55.55944333231653 4.891112806964348 29.34395225217185 21.324378273180354
67.61999643979432 5.760104900678065 36.521736999942426 25.3381545391738
80.1697223798684 6.697758070193544 43.97535626997246 29.496608039702437
93.30962761487224 7.608021156195443 52.02680974074567 33.67479671793111
105.81372745801538 8.122445235407097 59.98361143648498 37.70767078612331
116.07977580527711 7.889627674186426 66.97866099146418 41.21148713962654
120.60632861894203 4.491602258481185 72.30485531417823 43.80987104628258
116.079775805264 7.889627674181567 66.97866099145865 41.21148713962375
105.81372745799851 8.122445235421054 59.983611436464486 37.70767078611301
93.30962761482796 7.608021156191413 52.026809740719166 33.6747967179174
80.16972237982444 6.697758070204739 43.975356269936654 29.49660803968304
67.61999643974046 5.760104900678473 36.521736999907446 25.338154539154566
55.55944333226714 4.891112806970068 29.343952252137047 21.32437827316004
44.592169983176454 4.1035825840463565 22.965497461950942 17.523089937179147
34.72511624054794 3.414098817367078 17.320263579224584 13.990753843956298
26.033546641790448 2.835158994832712 12.45142010485657 10.746967542101155
18.496968580955127 2.3525271213643295 8.33978686881629 7.8046545907745095
12.13004343610305 1.9372428562064719 4.992668277379785 5.20013230251679
7.216518938787189 1.558432154460203 2.6278492594490404 3.0302375248779447
3.594302506423351 1.166301153254351 0.9952180851647847 1.432783268004216
1.5149037538570533 0.8024519410588694 0.24431301650006348 0.4681387962981199
0.5804206205692386 0.5094061456878 0.012903278888541713 0.05811119599289731
0.28312765468941126 0.29419032578018534 -0.0026767544644639638 -0.008385916626310342
0.183910280630489 0.18395957671938898 -5.666679381034674e-06 -4.3629409518972286e-05
0.16551892781161487 0.165523087695232 -2.3246729021856114e-07 -3.927416326937905e-06
0.5694481061907259 0.18958833498681965 0.13372799871281638 0.24613177249108967
4.210660033827302 2.2034079083489297 0.7950248399561675 1.2122272855222072
2.977788614142806 1.6757692048901958 0.516123513138095 0.7858958961145152
0.41446637852207946 0.22073842079735775 0.05497826226637318 0.13874969545834864
0.19492382203753494 0.19442510845146224 5.922157951030824e-05 0.0004394920065623378
0.19290226352839143 0.19283971772147787 -1.945793587203663e-06 6.449160050078732e-05
0.25372850860732826 0.26058146307286467 -0.00148272740391372 -0.005370227061622737
0.42427752730417945 0.4160747749129696 -0.0031154119231574517 0.011318164314367067
0.9721021834802324 0.6338801873316389 0.09831263646882311 0.23990935967977003
2.3543378099233903 0.9293248203708294 0.5356287923695042 0.8893841971830573
4.881122356798136 1.255596688473462 1.5678287004631615 2.0576969678615136
8.62421931020102 1.5803374311519658 3.3427476100649938 3.70113426898406
13.254323980699414 1.9181144865453896 5.63664384717715 5.699565646976877
18.804807027948563 2.31798242888504 8.532629698393059 7.954194900670467
25.21606362835576 2.8076691742935624 11.984391763116179 10.42400269094602
32.49359494803112 3.409713241922889 15.970898454451296 13.112983251656926
40.71824267279352 4.134963353994409 20.559745473603737 16.023533845195395
49.72693943670644 4.9522315508750445 25.641098563079673 19.13360932275172
59.53350197813858 5.8566824216482845 31.292906251099094 22.383913305391204
69.93140834632983 6.915711023935602 37.24594068140861 25.76975664098563
80.65334180761718 7.827727790132665 43.56839629985164 29.257217717632855
90.57334247329968 7.932378371820648 50.00745390086016 32.633510200618844
95.51627940464269 4.121399342857738 55.798185132871296 35.59669492891364
90.57334247331143 7.932378371838218 50.00745390085629 32.63351020061693
80.65334180757701 7.8277277901118 43.56839629983896 29.25721771762625
69.93140834630063 6.9157110239372095 37.24594068138887 25.76975664097456
59.53350197808183 5.856682421631968 31.29290625107332 22.383913305376545
49.72693943666056 4.952231550871448 25.641098563053188 19.133609322735907
40.71824267273691 4.134963353977009 20.55974547357955 16.023533845180353
32.49359494799021 3.4097132419166876 15.970898454430358 13.112983251643154
25.216063628315247 2.8076691742849844 11.984391763097333 10.424002690932905
18.804807027914727 2.3179824288826234 8.532629698375118 7.954194900656984
13.254323980668783 1.9181144865422195 5.636643847162031 5.699565646964535
8.624219310180917 1.5803374311508558 3.3427476100549276 3.7011342689751383
4.881122356782479 1.2555966884705487 1.56782870045686 2.057696967855071
2.354337809914918 0.9293248203702213 0.5356287923660407 0.889384197178656
0.9721021834761474 0.6338801873299246 0.09831263646796194 0.2399093596782609
0.4242775273032991 0.41607477491220035 -0.0031154119232107173 0.011318164314309175
0.25372850860676194 0.26058146307218377 -0.001482727403886753 -0.00537022706153491
0.19290226352805015 0.1928397177209407 -1.945793575108329e-06 6.449160068455287e-05
0.19492382203712322 0.19442510845101532 5.9221579511846247e-05 0.00043949200659607177
0.4144663785206035 0.22073842079723166 0.054978262265844124 0.1387496954575271
2.977788614134248 1.6757692048866322 0.5161235131358507 0.7858958961117644
1.9646534278632284 1.2412874957190185 0.25420274176502944 0.4691631903791803
0.3161895938769509 0.24048966114405315 0.016750925312568582 0.058949007420329165
0.21906080647759157 0.21866308412476743 6.376864746724284e-05 0.00033395370535685605
0.20825507036202576 0.20839818465587853 -1.5750745116678153e-05 -0.00012736354873607843
0.2421978152848817 0.24643080296055384 -0.001049699469088091 -0.003183288206584083
0.34374370095842727 0.3481671510865097 -0.004349035416058001 -7.44147120244661e-05
0.6112742460361551 0.4934719186509705 0.024491101798932914 0.09331122558625149
1.367671298551544 0.6974942576663901 0.22487692876436435 0.4453001121207894
2.89923328727696 0.945985509599062 0.7721498876146363 1.1810978900632614
5.286769202637696 1.2065463913916847 1.7994211743897657 2.280801636856246
8.347645842541931 1.4841897712913372 3.2118285035643908 3.651627567686204
12.04313569800172 1.8163100076029548 5.021263172980144 5.205562517418621
16.296243434828284 2.229305984285796 7.159774077078388 6.90716337346409
21.1440366612837 2.744772075609349 9.63903604735797 8.76022853831638
26.69485141645908 3.3933098981487175 12.518333926657046 10.783207591653307
32.99034355352168 4.175733855299048 15.82694026166431 12.987669436558336
39.918074010357365 5.033097630069463 19.529331197220166 15.355645183067745
47.47581125642187 6.024545445602029 23.57208839708586 17.879177413733963
56.33674956082745 7.332527256369459 28.296045740443233 20.708176564014767
66.01907887329081 8.112680402012005 33.98298254465309 23.923415926625662
71.66438190391527 3.922128480190163 40.25025800648899 27.491995417236115
66.01907887328235 8.112680402005259 33.982982544652 23.923415926625093
56.33674956085002 7.3325272564032735 28.296045740436195 20.708176564010536
47.475811256402906 6.0245454456067264 23.57208839707106 17.879177413725113
39.91807401032334 5.033097630060151 19.529331197205 15.355645183058183
32.99034355348063 4.175733855283093 15.826940261649124 12.987669436548433
26.694851416439434 3.39330989815162 12.518333926643693 10.783207591644109
21.144036661257047 2.7447720756016016 9.639036047347004 8.76022853830845
16.29624343480785 2.2293059842848577 7.159774077067454 6.907163373455536
12.043135697976066 1.8163100075968668 5.021263172969376 5.2055625174098274
8.347645842521667 1.484189771287462 3.211828503555839 3.65162756767836
5.286769202623024 1.2065463913894474 1.799421174383506 2.2808016368500734
2.8992332872686504 0.945985509597979 0.7721498876113129 1.1810978900593587
1.367671298546688 0.6974942576662448 0.224876928762464 0.44530011211797915
0.6112742460342607 0.49347191865019546 0.024491101798529223 0.09331122558553634
0.3437437009573528 0.3481671510854182 -0.004349035416075134 -7.441471198996272e-05
0.24219781528450832 0.2464308029599216 -0.001049699469057393 -0.003183288206355942
0.2082550703616517 0.20839818465550175 -1.5750745110441432e-05 -0.00012736354873960922
0.21906080647709703 0.2186630841240658 6.37686474852942e-05 0.00033395370554590713
0.3161895938761607 0.24048966114395315 0.0167509253122888 0.058949007419918605
1.9646534278574728 1.2412874957165139 0.2542027417636613 0.4691631903772982
1.2591094512671857 0.9232059131850487 0.1066028657678297 0.22930067231430779
0.2482204400699904 0.24142273921038304 -0.0018830866409556455 0.008680787500562965
0.23558995562521415 0.234273073943482 0.00018308379212970483 0.0011337978896024865
0.2259800822578765 0.2248992015159712 0.00013481717025972846 0.000946063571645446
0.2435498216788418 0.24600234163492868 -0.0008006825210202003 -0.001651837435066703
0.3122083777865117 0.31312609503281247 -0.0020392650470396918 0.0011215478007388978
0.43268083864335005 0.38967606930297777 0.006325028242379486 0.0366797410979927
0.6851999274001794 0.47741402747009953 0.054715942604111466 0.15306995732596862
1.2960906692395475 0.6116198336129783 0.22935886314321444 0.4551119724833543
2.4196186329202414 0.7767267239906389 0.6348836862392127 1.0080082226903888
4.0394466740010735 0.9808978888782071 1.3082774532075834 1.750271331915283
5.976596995550299 1.2285316884071467 2.1299161847956265 2.618149122347526
8.283358845974858 1.548793792247375 3.1554440931821484 3.5791209605453345
10.977721224370358 1.967058185710077 4.373690201405113 4.636972837255166
14.131543417888032 2.512684659510475 5.8043606638690255 5.81449809450853
17.87975928577409 3.2194563279268245 7.509671237591153 7.150631720256116
22.303932065428633 4.063105062987262 9.563846818752689 8.676980183688675
27.28028191894605 4.898343471490713 12.001028198730157 10.380910248725185
33.36852703844149 6.067436913079958 14.929240533433756 12.371849591927756
42.3081937445392 8.040333213051738 19.135773014179616 15.13208751730787
50.22312512344503 4.130175825354124 26.463838145823026 19.629111152267875
42.30819374452192 8.04033321302548 19.13577301418509 15.132087517311364
33.36852703840706 6.067436913052172 14.929240533429681 12.371849591925205
27.280281918929038 4.898343471490422 12.001028198720274 10.38091024871835
22.30393206541007 4.063105062983728 9.563846818743889 8.676980183682446
17.87975928577685 3.219456327943069 7.509671237583592 7.150631720250187
14.131543417862266 2.512684659496107 5.8043606638627185 5.814498094503449
10.977721224364716 1.967058185711165 4.3736902014014385 4.636972837252109
8.28335884596447 1.5487937922482076 3.1554440931762304 3.579120960540027
5.976596995541558 1.2285316884081405 2.1299161847906984 2.618149122342723
4.039446673993445 0.9808978888785507 1.3082774532037373 1.7502713319111582
2.4196186329142044 0.7767267239893377 0.6348836862370371 1.0080082226878293
1.296090669236335 0.6116198336128262 0.22935886314198417 0.4551119724815247
0.6851999273978931 0.47741402746950257 0.054715942603506484 0.15306995732488438
0.43268083864228907 0.38967606930244403 0.0063250282422134 0.036679741097631446
0.3122083777861212 0.31312609503209293 -0.002039265046994617 0.0011215478010228597
0.24354982167854566 0.24600234163447954 -0.000800682521003032 -0.0016518374349310915
0.22598008225764415 0.22489920151561762 0.00013481717026745692 0.0009460635717590109
0.23558995562491508 0.2342730739430759 0.00018308379213859846 0.0011337978897005383
0.2482204400693023 0.24142273921001328 -0.0018830866410544504 0.00868078750034361
1.259109451263549 0.9232059131833498 0.1066028657670777 0.2293006723131214
0.7754641029054741 0.6744215218936487 0.02426888509711316 0.07677369591471199
0.21019327111663405 0.22155641118454686 -0.0032969637731454175 -0.008066176294767588
0.24482395760411357 0.2448615157641474 7.767852770249234e-06 -4.532601280407329e-05
0.24293452433742538 0.2411585360316328 0.0002456022666080019 0.0015303860391845366
0.2558076571171374 0.25583277020818557 -0.00040584101394464946 0.0003807279228963556
0.3088446753259034 0.30621978973219643 -0.0009597032538409512 0.003584588847548212
0.39171408428014715 0.3506413203014168 0.008074946163940423 0.032997817814790165
0.45102280234666364 0.34317309038716715 0.02853779447239038 0.07931191748710588
0.5261113922038523 0.2988332924903234 0.07677932868403373 0.15049877102949566
0.7531842975416849 0.2967004856531962 0.16602684274384882 0.29045696914464075
1.2607360459797277 0.3115259102845488 0.37894747750684166 0.5702626581883351
1.9929224909580023 0.31562375389287417 0.6929868634373497 0.9843118736277787
2.943278361772852 0.35235306708497194 1.1242598709051341 1.4666654237827446
4.100769115143985 0.44899403794349535 1.6483297002158825 2.003445376984612
5.486952022153783 0.6325163600897551 2.2639943904621784 2.5904412716018483
7.09710500609991 0.9259547253971568 2.952943632728411 3.218206647974341
8.973770217538394 1.353022210752325 3.744941188517576 3.8758068182684884
11.055093917397935 1.8620607458569562 4.637348908746588 4.555684262794394
13.857253405092184 2.5901071810191274 5.81764249401805 5.449503730055013
21.399462043521137 5.2559479220467855 8.346821008659713 7.796693112814647
35.72258611193084 4.638645496665843 17.05059767483464 14.033342940430334
21.399462043546812 5.255947922062167 8.346821008665747 7.796693112818893
13.857253405086098 2.5901071810160055 5.817642494016403 5.449503730053694
11.055093917380631 1.8620607458498704 4.637348908740959 4.555684262789796
8.973770217529403 1.3530222107525927 3.744941188512465 3.875806818264336
7.0971050060728125 0.9259547253800603 2.9529436327232976 3.218206647969451
5.486952022153736 0.6325163600953094 2.263994390459115 2.590441271599313
4.100769115136891 0.44899403794171283 1.6483297002131747 2.0034453769820013
2.9432783617625438 0.352353067082601 1.1242598709012133 1.4666654237787293
1.9929224909506122 0.3156237538920701 0.692986863434175 0.9843118736243687
1.2607360459728352 0.31152591028274346 0.3789474775045895 0.5702626581855015
0.7531842975411235 0.2967004856525491 0.1660268427438572 0.2904569691447181
0.5261113922024427 0.2988332924902388 0.07677932868346682 0.15049877102873668
0.4510228023466529 0.34317309038764693 0.02853779447223513 0.07931191748677116
0.3917140842795098 0.3506413203010984 0.008074946163796667 0.03299781781461481
0.30884467532530807 0.3062197897313788 -0.0009597032538124629 0.0035845888477418104
0.2558076571163387 0.2558327702073328 -0.00040584101395043775 0.0003807279229563658
0.24293452433702228 0.2411585360310698 0.0002456022666226864 0.0015303860393297136
0.24482395760389022 0.24486151576379075 7.767852792226262e-06 -4.5326012692717746e-05
0.21019327111632552 0.2215564111839803 -0.00329696377310534 -0.00806617629454948
0.7754641029035411 0.6744215218925608 0.02426888509680673 0.07677369591417378
0.48555248693482267 0.4800468931185569 0.0006715340554525496 0.004834059760813176
0.191620610437639 0.19340665408037386 -0.00023801685767209623 -0.0015480267850628328
0.24711772560905707 0.246581714165733 1.531119464366289e-05 0.0005207002486804662
0.25694571482835643 0.2549367509652381 0.000271487675428353 0.0017374761876900412
0.2746826122398911 0.2728341834585112 -9.919161770600696e-05 0.0019476203990860944
0.33310056320287007 0.3250808496441234 -0.0003262869757396537 0.0083460005344863
0.44987997370211524 0.3970089386507484 0.010133433430071993 0.042737601621295085
0.6963264153535837 0.4798979191978101 0.05818252091050257 0.15824597524527095
1.3000222679233282 0.6117141051917254 0.2310061225310588 0.4573020402005431
2.4197501623622886 0.776453060295562 0.6349641699091668 1.0083329321575596
4.0491103468201635 0.9836025052851494 1.3121635400998604 1.7533443014351564
6.011119410366906 1.2340299361315963 2.146091375875516 2.630998098359793
8.340431830025011 1.5546040019114935 3.182459723422125 3.6033681046913943
10.990192413289142 1.9564366973387552 4.387861459110621 4.6458942568397665
13.84534677168078 2.440439938531205 5.690056777403385 5.7148500557461865
16.720691681777684 3.0033023445593914 6.9899667590527175 6.727422578165576
19.265738861979994 3.6192493130892363 8.095160669183294 7.551328879707459
21.29302921748134 4.3503059522503795 8.892713198989696 8.050010066241272
21.97271330469178 4.850812091136255 9.051763912916844 8.070137300638681
18.213122793494687 3.809392396943548 7.763755059829039 6.639975336722102
36.201516044768354 6.736581697263878 15.898243078327972 13.566691269176495
18.213122793501988 3.809392396942997 7.7637550598336365 6.639975336725354
21.97271330468384 4.850812091134057 9.051763912913517 8.070137300636265
21.29302921747777 4.350305952256452 8.892713198984078 8.050010066237228
19.265738861947515 3.6192493130771313 8.095160669171639 7.551328879698759
16.720691681763657 3.0033023445640774 6.98996675904217 6.7274225781574035
13.845346771668297 2.44043993853251 5.6900567773958795 5.714850055739908
10.990192413275604 1.9564366973400609 4.387861459102551 4.645894256832994
8.340431830007644 1.554604001909945 3.182459723413797 3.6033681046838995
6.0111194103486865 1.234029936128935 2.146091375867585 2.630998098352169
4.049110346807899 0.9836025052860373 1.312163540093417 1.7533443014284456
2.419750162353183 0.7764530602940616 0.6349641699057239 1.0083329321533976
1.3000222679192694 0.6117141051914186 0.2310061225295812 0.45730204019826914
0.6963264153504144 0.47989791919656416 0.058182520909780634 0.15824597524406914
0.44987997370109023 0.39700893865000897 0.010133433429968445 0.042737601621112425
0.3331005632020455 0.3250808496432526 -0.0003262869757736796 0.008346000534566578
0.2746826122390812 0.2728341834575761 -9.919161770606359e-05 0.001947620399211292
0.25694571482778716 0.25493675096453705 0.00027148767543602736 0.001737476187814127
0.2471177256085052 0.24658171416511518 1.531119464508264e-05 0.0005207002487447216
0.19162061043776984 0.19340665408044733 -0.00023801685766798562 -0.0015480267850093638
0.48555248693402414 0.4800468931172215 0.0006715340554971544 0.004834059761305423
0.3108374219858317 0.3110004059232691 -1.5581503590921387e-05 -0.00014740243384641554
0.1767156848043549 0.17693236207752713 -2.1499650380652497e-05 -0.00019517762279160365
0.243025262136691 0.24370963068433432 -0.00014257641941475507 -0.0005417921282286206
0.2665460151550765 0.26465066578254187 0.00017698018524895968 0.0017183691872855976
0.2984375358316297 0.2979774627014992 -0.00035154690067560305 0.0008116200308061529
0.3865461826104595 0.37234984751201766 0.0010048695990014594 0.01319146549943976
0.6373411996372921 0.4955371858146538 0.03137141499394855 0.11043259882868986
1.3802244804809665 0.6981835132656266 0.23007748050552457 0.45196348670981584
2.900329700579224 0.9454932631385737 0.7728250869861824 1.1820113504544678
5.28710471746913 1.2067675370932647 1.7993138417424939 2.281023338633369
8.358286415293847 1.486228785870916 3.2162261845131868 3.655831444909742
12.07377773697223 1.8204315624705734 5.0357616335483835 5.217584540953271
16.338195858980214 2.229839647820013 7.183329226394002 6.925026984766207
21.11552488853437 2.7199163173280803 9.637626510917894 8.757982060288382
26.33181566681126 3.2935600918878545 12.36476766205204 10.673487912871375
31.72412300225258 3.9383676740340023 15.211760920984815 12.573994407233764
36.86587240117323 4.666976773524491 17.89319085942099 14.305704768227736
41.147694532781884 5.486308552280021 19.991725099969575 15.669660880532255
43.23309974533391 5.939913150468608 21.01798169361352 16.275204901251787
40.45153901345925 5.834178721124188 19.483164828531894 15.134195463803154
49.97382399589618 11.618427682054964 21.60391745608394 16.751478857757274
40.45153901343866 5.834178721099118 19.483164828534736 15.134195463804817
43.23309974533633 5.93991315047753 21.017981693609542 16.275204901249253
41.14769453272103 5.486308552242005 19.991725099955378 15.669660880523663
36.8658724011396 4.66697677352552 17.893190859399795 14.305704768214275
31.724123002218015 3.9383676740301867 15.211760920966318 12.573994407221516
26.331815666774272 3.2935600918787977 12.364767662035518 10.673487912859951
21.115524888497696 2.7199163173194147 9.637626510901715 8.757982060276571
16.338195858944307 2.2298396478125544 7.183329226377904 6.925026984753852
12.073777736940778 1.8204315624668548 5.0357616335331645 5.217584540940756
8.358286415270946 1.4862287858689305 3.216226184502248 3.6558314448997704
5.287104717449936 1.2067675370904254 1.799313841734247 2.281023338625263
2.9003297005690967 0.9454932631376705 0.7728250869819429 1.182011350449484
1.3802244804762664 0.698183513264636 0.23007748050405136 0.4519634867075796
0.6373411996342897 0.4955371858129135 0.031371414993472894 0.11043259882790356
0.3865461826091356 0.372349847511052 0.0010048695988918968 0.013191465499191712
0.2984375358311577 0.29797746270068015 -0.00035154690062805987 0.0008116200311054506
0.26654601515423615 0.2646506657816385 0.00017698018524579245 0.0017183691873520466
0.24302526213642475 0.24370963068387014 -0.00014257641939425205 -0.0005417921280510915
0.17671568480439517 0.17693236207761662 -2.1499650383744946e-05 -0.00019517762283770824
0.3108374219851959 0.311000405922746 -1.5581503603645973e-05 -0.00014740243394652477
0.19370337856672337 0.19370337856672337 0.0 0.0
0.1576237696882405 0.15760952951786655 2.089882395017598e-06 1.215028797897005e-05
0.23239905075105188 0.23347267945254221 -0.00016316381368380043 -0.0009104648878064332
0.27242938193224037 0.2726315293127758 -0.00014565701718915745 -5.649036334631611e-05
0.32640681650111836 0.3239196020530979 -0.00030558186155746293 0.0027927963095779485
0.4762263792413564 0.43126304302669827 0.005635075899873761 0.039328260314784695
1.0064343728417549 0.6397413560265 0.1117055488455937 0.25498746796966093
2.3612329617414107 0.9292062443793443 0.5394279170849259 0.8925988002771414
4.879291506205652 1.2557221962719618 1.5667976379643718 2.0567716719693157
8.626774785996055 1.5810820128441851 3.3439542026650146 3.7017385704868566
13.264336488107944 1.9194714391585674 5.640122873486482 5.704742175462898
18.82250807619805 2.319124846953475 8.542237807341616 7.961145421902966
25.21696986398997 2.8017692297999424 11.988562831314686 10.426637802875334
32.39443444822891 3.3729435791626057 15.933568584343897 13.08792228472241
40.30171029557888 4.023389003033758 20.372741257526272 15.905580035018843
48.57074900627062 4.738732338459025 25.05306241437198 18.778954253439593
56.79939300208149 5.505928885085139 29.78481998981204 21.508644127184322
63.607476999665636 6.136729533707184 33.69728870193302 23.77345876402546
66.97863835590391 6.359594166643189 35.71876046412947 24.900283725131246
62.84988700446419 5.74463959224763 33.48980414567137 23.6154432665452
70.17936052729567 14.714206507318874 32.40232403635229 23.062829983624493
62.84988700448713 5.7446395922710325 33.48980414567114 23.61544326654492
66.97863835590583 6.3595941666520766 35.71876046412505 24.900283725128737
63.60747699964764 6.136729533724067 33.69728870191073 23.77345876401285
56.79939300203739 5.505928885088427 29.784819989782044 21.5086441271669
48.57074900621248 4.738732338447659 25.053062414342712 18.778954253422114
40.30171029552604 4.023389003026448 20.372741257498237 15.905580035001359
32.39443444818399 3.3729435791629583 15.933568584316543 13.087922284704486
25.216969863948606 2.8017692297996715 11.988562831290448 10.426637802858508
18.822508076154367 2.319124846949801 8.542237807318653 7.961145421885901
13.264336488069889 1.9194714391521184 5.640122873468996 5.704742175448777
8.62677478597108 1.5810820128439036 3.3439542026519207 3.701738570475255
4.879291506189089 1.2557221962701552 1.5667976379570767 2.056771671961857
2.3612329617312566 0.9292062443757896 0.5394279170820105 0.8925988002734554
1.0064343728376968 0.6397413560255026 0.1117055488444309 0.2549874679677635
0.47622637923982847 0.43126304302577534 0.0056350758996582245 0.03932826031439486
0.3264068165007186 0.323919602052518 -0.0003055818615377376 0.0027927963097383905
0.27242938193157673 0.27263152931189677 -0.00014565701716727494 -5.649036315287395e-05
0.2323990507511143 0.23347267945268046 -0.00016316381368969678 -0.000910464887876495
0.15762376968824393 0.15760952951783494 2.089882397191582e-06 1.2150288011807883e-05
0.19370337856601383 0.19370337856601383 0.0 0.0
0.11391672819428128 0.11391672819428128 0.0 0.0
0.13368150328542844 0.13367691764373102 2.4297873496715517e-07 4.342662962442389e-06
0.215990829558681 0.21656675559289387 -8.104494017923058e-05 -0.0004948810940335803
0.27472986322454435 0.27520724163297344 -0.00027706058424482974 -0.00020031782418428992
0.36072842102182506 0.3588729052005737 -0.0009612194290335533 0.002816735250284803
0.6365431951218649 0.5222399015165088 0.028051043343356032 0.08625225026199966
1.5330237179595265 0.7988138082542607 0.2520585963256483 0.48215131337961764
3.594366629664525 1.167074715458232 0.9953883719300202 1.4319035422762736
7.214361837014527 1.5593711888548065 2.626185232596333 3.0288054155633852
12.134730153962128 1.9381590732026037 4.994529823025556 5.202041257733969
18.505328175035405 2.3519354693979033 8.345193157047156 7.808199548590344
26.025153994419817 2.829564325236508 12.449866140446103 10.74572352873721
34.66072881519276 3.3968092824525913 17.291879143279132 13.972040389461064
44.40922185134313 4.061250267255607 22.8785242544611 17.469447329626394
55.15175671830435 4.805601694229542 29.140454567699877 21.20570045637493
66.69696411320126 5.592826194425601 36.03629320658746 25.067844712188183
77.78720608064019 6.28578549568318 42.69460867395418 28.806811911002875
87.16193841950184 6.6573981396702635 48.614635267632764 31.889905012198774
91.41856665523873 6.3471174795475305 51.64992133841255 33.42152783727867
86.24067569057331 5.802594805230913 48.605002597281455 31.833078288060968
93.11292822174661 17.871091703162204 45.15046142368223 30.091375094902215
86.24067569057013 5.802594805230995 48.605002597279444 31.833078288059696
91.41856665519919 6.347117479525274 51.64992133840109 33.4215278372728
87.1619384194642 6.657398139673269 48.614635267606126 31.889905012184766
77.78720608058833 6.285785495688144 42.69460867391717 28.806811910983033
66.696964113133 5.592826194421994 36.036293206546056 25.067844712164927
55.1517567182444 4.805601694230066 29.14045456766172 21.20570045635261
44.4092218512922 4.061250267262315 22.87852425442538 17.469447329604513
34.66072881512993 3.396809282444896 17.291879143245602 13.972040389439423
26.025153994370683 2.8295643252372167 12.449866140416727 10.74572352871675
18.505328174985554 2.3519354693928496 8.345193157021628 7.808199548571064
12.13473015392736 1.938159073199306 4.994529823008408 5.202041257719648
7.214361836990167 1.5593711888509931 2.6261852325856 3.0288054155535775
3.5943666296496555 1.1670747154554555 0.995388371924288 1.4319035422699116
1.5330237179525619 0.7988138082522251 0.25205859632358774 0.48215131337674816
0.63654319511936 0.5222399015155408 0.02805104334284188 0.08625225026097737
0.3607284210212622 0.3588729051997708 -0.0009612194289919845 0.0028167352504834707
0.27472986322443244 0.27520724163268495 -0.00027706058423325865 -0.0002003178240194458
0.21599082955848387 0.21656675559264107 -8.104494017638293e-05 -0.0004948810939807806
0.13368150328509978 0.13367691764340675 2.4297873480463597e-07 4.342662958242992e-06
0.11391672819408553 0.11391672819408553 0.0 0.0
0.06293918160789537 0.06293918160789537 0.0 0.0
0.10701443583357499 0.10701443583357499 0.0 0.0
0.19483399575479193 0.1949939936617469 -2.092636858740428e-05 -0.00013907153836754824
0.2748216869055735 0.2771726686773038 -0.0005087484653372448 -0.001842233306393098
0.4089991014780844 0.397872430481172 -0.0002935173032746633 0.01142018830018713
0.8749430897340389 0.62884897815968 0.07251727004562535 0.17357684152873343
2.2174018208184765 0.9741930151796869 0.46620267047624275 0.7770061351625482
5.086287766085425 1.4068264239054176 1.628469306643941 2.0509920355360647
9.596312504367523 1.846857889875525 3.6773406080827975 4.072114006409205
15.999930752305694 2.3087373298337583 6.9488760374670315 6.742317385004892
24.02448518986659 2.8114220897990796 11.280919436002222 9.932143664065304
33.568607356205376 3.380417909269381 16.639709780359354 13.548479666576636
44.565464766175666 4.041497456448938 22.988878769061415 17.53508854066529
57.03699241815246 4.8120589441575055 30.355046060633306 21.869887413361642
70.79011420775187 5.675145494394515 38.59540262489101 26.519566088466355
85.40083382081511 6.499718645560084 47.53903914505104 31.362076030204037
99.86996754256761 7.060885506566074 56.75204635218762 36.057035683813915
111.34459618761375 7.01149337229729 64.397251857781 39.93585095753547
116.16973682082124 6.262317819704807 68.09051862212544 41.816900378990965
110.5774095306597 6.058630765185693 64.54041288560833 39.97836587986562
118.15765382751047 21.037688604755033 59.61461372065437 37.50535150210111
110.5774095306428 6.058630765179483 64.54041288560131 39.978365879862
116.16973682077676 6.2623178196953635 68.09051862210191 41.81690037897947
111.34459618755406 7.011493372289688 64.39725185774614 39.935850957518234
99.86996754248207 7.060885506552451 56.75204635214003 36.05703568378961
85.40083382073728 6.499718645561575 47.53903914499888 31.36207603017685
70.79011420766416 5.675145494383292 38.59540262484178 26.51956608843907
57.03699241807095 4.81205894414713 30.35504606058827 21.869887413335544
44.56546476610246 4.041497456447046 22.988878769017244 17.535088540638192
33.56860735613754 3.380417909261915 16.639709780322832 13.548479666552794
24.024485189808164 2.811422089797804 11.280919435968755 9.9321436640416
15.999930752263634 2.30873732983124 6.948876037444819 6.742317384987572
9.596312504337217 1.8468578898716013 3.6773406080689517 4.0721140063966645
5.086287766065455 1.4068264239036554 1.6284693066348581 2.0509920355269418
2.2174018208088726 0.9741930151779611 0.46620267047280506 0.7770061351581082
0.8749430897307477 0.628848978158973 0.07251727004466876 0.1735768415271058
0.4089991014768975 0.39787243048002435 -0.0002935173033035856 0.011420188300176668
0.27482168690533126 0.27717266867691476 -0.000508748465317151 -0.001842233306266455
0.19483399575437696 0.1949939936613525 -2.0926368589102768e-05 -0.00013907153838646204
0.10701443583320329 0.10701443583320329 0.0 0.0
0.06293918160779384 0.06293918160779384 0.0 0.0
0.032567513275658676 0.032567513275658676 0.0 0.0
0.08085782984861725 0.08085782984861725 0.0 0.0
0.17134542421793325 0.1713386074542653 3.960330448053176e-07 6.420730623111643e-06
0.27578663806514464 0.27828004629549485 -0.0005708106764165497 -0.0019225975539336835
0.48841142581917996 0.45720755206357144 0.005534110030524552 0.02566976372508406
1.192945109454188 0.7392109684415888 0.14349230230886686 0.3102418387037325
3.081371845946911 1.1560880612994302 0.789405407362005 1.1358783772854757
6.62980298277887 1.6294506058063873 2.2579134292082523 2.742438947764226
12.26696269023157 2.1411687609556944 4.971165431614024 5.1546284976618475
20.016119166339312 2.6995324810501025 9.016616329840785 8.299970355448426
29.782812365309386 3.306886028261723 14.407505841745147 12.068420495302501
41.438134440284244 3.980609348765242 21.096922138584354 16.36060295293463
54.92456178646834 4.748713053542817 29.06612094777963 21.109727785145893
70.02700290078019 5.631816573590052 38.11585013654023 26.27933619064997
86.90290504552607 6.595532341468823 48.48468478057697 31.82268792348023
104.84397625779165 7.464280202182318 59.773029697917245 37.606666357692035
122.10539178321932 7.8256593384860835 71.04312758491723 43.23660485981604
135.80766492923578 7.307445236381438 80.64447673305853 47.855742959795876
141.7787718128073 6.231734652671706 85.43522860753968 50.11180855259587
136.08399528323042 6.400240179875607 81.45918549234442 48.22456961101049
144.8040653714131 24.17894880389066 75.3093752880086 45.31574127951378
136.08399528320552 6.400240179869655 81.45918549233129 48.224569611004526
141.77877181276023 6.231734652674908 85.43522860750569 50.11180855257968
135.80766492916726 7.307445236380618 80.6444767330126 47.855742959773956
122.10539178312638 7.825659338484431 71.04312758485565 43.236604859786326
104.8439762577111 7.4642802021947725 59.77302969785554 37.606666357660814
86.90290504543617 6.595532341470796 48.4846847805167 31.822687923448683
70.02700290068803 5.631816573586057 38.11585013648325 26.279336190618693
54.9245617863811 4.7487130535411195 29.06612094772566 21.1097277851143
41.43813444020273 3.980609348756456 21.096922138539654 16.360602952906614
29.782812365244013 3.306886028260231 14.407505841707025 12.068420495276747
20.01611916628597 2.699532481044378 9.016616329813449 8.299970355428153
12.266962690195067 2.141168760951316 4.9711654315966785 5.154628497647068
6.629802982755618 1.629450605805335 2.257913429196966 2.7424389477533175
3.0813718459340156 1.156088061298039 0.7894054073566398 1.135878377279335
1.1929451094496322 0.7392109684404256 0.14349230230751958 0.31024183870168687
0.48841142581771363 0.45720755206241703 0.005534110030414185 0.025669763724882562
0.27578663806472997 0.2782800462949955 -0.0005708106764070694 -0.0019225975538584574
0.17134542421761034 0.17133860745394336 3.960330447626668e-07 6.4207306222634735e-06
0.0808578298486764 0.0808578298486764 0.0 0.0
0.03256751327550746 0.03256751327550746 0.0 0.0
0.01594040814141927 0.01594040814141927 0.0 0.0
0.05798616019827528 0.05798616019827528 0.0 0.0
0.1486700124216795 0.1486675100970078 1.22441077168008e-07 2.379883594554421e-06
0.28248360356953645 0.28573613976586487 -0.0007844329242677611 -0.002468103272060789
0.6077210670500506 0.5281961224869604 0.019674479316742228 0.05985046524634802
1.6272731668579634 0.8743315560493978 0.2684680621082183 0.48447354870034665
4.024922479802774 1.326048964790553 1.1365896486909213 1.5622838663212997
8.35195977730417 1.8427391812032172 3.0362601847471584 3.472960411353795
15.040944049931094 2.4456624015955857 6.337462188664472 6.257819459671035
24.19879129935474 3.1132127532252 11.216034774358175 9.869543771771367
35.73004918239765 3.838538735827398 17.680971456879256 14.210538989691027
49.56994062157621 4.637508345182341 25.75420416922274 19.17822810717113
65.47430871490326 5.523024193044598 35.25834278164735 24.692941740211353
83.59368173583128 6.506994145054627 46.39724660421282 30.689440986563774
103.40219999960482 7.553792308948902 58.742557742098924 37.10584994855701
124.30728267710558 8.431325485081747 72.10124940250576 43.77470778951811
144.6037181147883 8.61082546873407 85.73314540043279 50.259747245621405
160.68905478945103 7.661937218810118 97.37558384053746 55.6515337301035
168.20690565792577 6.267918350491344 103.49205987762278 58.44692742981164
163.10721983064167 6.759941230064513 99.66826978485034 56.67900881572691
173.64889365677413 27.258938373743558 92.83861686092565 53.55133842210489
163.10721983063274 6.759941230077789 99.66826978483508 56.67900881571995
168.20690565788513 6.267918350508679 103.49205987758288 58.44692742979347
160.68905478935378 7.661937218799827 97.37558384047757 55.65153373007644
144.60371811470648 8.610825468753792 85.7331454003635 50.25974724558913
124.30728267698667 8.431325485072444 72.10124940243182 43.77470778948228
103.40219999949976 7.553792308946414 58.742557742030755 37.105849948522604
83.59368173571877 6.50699414504666 46.39724660414465 30.689440986527526
65.47430871479988 5.523024193041374 35.258342781583224 24.692941740175236
49.56994062147775 4.637508345170422 25.754204169168684 19.178228107138644
35.73004918231802 3.838538735820971 17.680971456834843 14.210538989662219
24.19879129929376 3.1132127532214806 11.216034774324635 9.86954377174764
15.040944049885299 2.4456624015884136 6.337462188643017 6.257819459653872
8.351959777276084 1.8427391812004623 3.036260184734228 3.472960411341398
4.024922479787607 1.326048964789239 1.13658964868429 1.5622838663140795
1.627273166851254 0.8743315560474958 0.26846806210619245 0.48447354869756437
0.6077210670482691 0.5281961224857645 0.019674479316536205 0.05985046524596848
0.28248360356925845 0.2857361397654161 -0.0007844329242544608 -0.0024681032719030167
0.14867001242134853 0.14866751009668006 1.2244107697319608e-07 2.3798835915387224e-06
0.05798616019823912 0.05798616019823912 0.0 0.0
0.01594040814137361 0.01594040814137361 0.0 0.0
0.007673755026059222 0.007673755026059222 0.0 0.0
0.04022745694785828 0.04022745694785828 0.0 0.0
0.13024480056877824 0.13024480056877824 0.0 0.0
0.3032432880543191 0.3073151570965102 -0.001221943601484352 -0.0028499254407065694
0.7786122056794453 0.6119123249214938 0.045923029770326196 0.1207768509876252
2.164289570042171 1.010526261488504 0.4432582081207615 0.7105051004329064
5.0592232372386725 1.4763861091021748 1.547915514477702 2.0349216136587933
10.181898771376037 2.0592857485064977 3.8927673814797155 4.229845641389827
17.91616793202889 2.7581481178748186 7.783982563027271 7.374037251126804
28.497312380571262 3.5480394619872118 13.504729860745218 11.444543057838834
41.87802654006849 4.410921555231749 21.113277323409026 16.353827661427704
57.89281584430686 5.347375832655587 30.547884980074365 21.997555031576958
76.54891927810036 6.370183778443886 41.90251355632821 28.276221943328217
97.32070129095034 7.456105034193856 54.755095570589 35.10950068616752
120.12745564840502 8.505181415224818 69.25620640760565 42.36606782557451
143.9941646274784 9.318187443413567 84.83803687812363 49.83794030594118
167.10123080227066 9.443431129270813 100.5530789353492 57.104720737650645
185.84757809667036 8.220433539203276 114.33758518691806 63.289559370549036
195.5207362675869 6.315586740850081 122.4117087128906 66.79344081384622
191.99861123776284 7.096370652180214 119.4320172856451 65.47022329993742
204.9841026800699 30.1845401955198 112.38314774823183 62.416414736318266
191.99861123769853 7.096370652144685 119.43201728562471 65.47022329992912
195.5207362675174 6.315586740847414 122.4117087128442 66.79344081382588
185.84757809658882 8.220433539225583 114.33758518684625 63.28955937051703
167.10123080214 9.443431129255744 100.55307893526984 57.104720737614436
143.99416462736573 9.318187443426314 84.83803687803868 49.837940305900815
120.12745564826213 8.505181415203682 69.25620640752389 42.36606782553454
97.32070129083002 7.45610503419482 54.75509557050881 35.10950068612644
76.54891927797969 6.370183778438399 41.902513556253446 28.276221943287855
57.89281584419733 5.347375832647104 30.547884980010327 21.99755503153989
41.878026539978734 4.410921555225961 21.113277323357355 16.35382766139541
28.49731238050392 3.5480394619840743 13.504729860707121 11.44454305781272
17.916167931976737 2.758148117870516 7.783982563000219 7.3740372511059995
10.18189877134279 2.0592857485016234 3.892767381464686 4.22984564137648
5.05922323721925 1.4763861090997394 1.5479155144696664 2.0349216136498445
2.1642895700332816 1.0105262614854547 0.4432582081182176 0.7105051004296092
0.778612205676671 0.6119123249202296 0.045923029769769044 0.12077685098667232
0.3032432880537951 0.307315157095904 -0.0012219436014678665 -0.0028499254406412107
0.13024480056856103 0.13024480056856103 0.0 0.0
0.040227456947763425 0.040227456947763425 0.0 0.0
0.007673755026049669 0.007673755026049669 0.0 0.0
0.003646566519853021 0.003646566519853021 0.0 0.0
0.028087970000359317 0.028087970000359317 0.0 0.0
0.12095985207194405 0.12095985207194405 0.0 0.0
0.3515084045703987 0.348932604888374 -0.00046604015589244677 0.0030418398379167856
1.0282551804784792 0.7167539074895422 0.10080086835099936 0.21070040463793788
2.768212333952186 1.1332851024977644 0.6484041600259722 0.9865230714284488
6.213722730676777 1.626365545645988 2.051711927904551 2.5356452571262387
12.079239322511107 2.273980861368214 4.800528343927097 5.0047301172157965
20.88762262555624 3.077144190883941 9.314147220801384 8.496331213870912
32.891056657127855 4.004635575053706 15.86800744015168 13.018413641922468
48.13323640138188 5.01928720160353 24.6186310923647 18.495318107413606
66.54481671376062 6.117782184353805 35.61323412980257 24.813800399604236
87.6674517408719 7.28897349752366 48.51303176684049 31.865446476507742
111.48151054662021 8.458202686364396 63.50144610951086 39.52186175074493
137.21505215116576 9.484877510803392 80.1213481291474 47.608826511215
163.74398087245396 10.125129413835763 97.78252880259636 55.83632265602178
189.30013336105947 10.113884213277492 115.44410152663919 63.742147621142884
210.95296579731132 9.082150353862964 131.26245273127452 70.60836271217383
223.36601974764855 6.450641258562966 141.8147778559171 75.10060063316851
223.09135693070866 7.2029984685297075 141.12068797970318 74.76767048247565
239.52283552162405 32.23932760202083 135.04849988957767 72.23500803002557
223.09135693064727 7.202998468512297 141.12068797967277 74.76767048246231
223.36601974757352 6.450641258565179 141.81477785586304 75.1006006331452
210.95296579719508 9.082150353864025 131.26245273119255 70.60836271213853
189.30013336091943 10.113884213276465 115.44410152654274 63.74214762110024
163.7439808722991 10.125129413819991 97.78252880250093 55.83632265597824
137.2150521510325 9.484877510813776 80.12134812904989 47.608826511168814
111.48151054649068 8.458202686366752 63.50144610942273 39.52186175070119
87.66745174073193 7.288973497516147 48.51303176675372 31.86544647646199
66.54481671363538 6.117782184344023 35.613234129728525 24.813800399562844
48.13323640127909 5.019287201594129 24.618631092306472 18.49531810737848
32.891056657047 4.004635575046082 15.868007440107611 13.01841364189332
20.88762262549671 3.0771441908804804 9.314147220769168 8.496331213847059
12.079239322472027 2.2739808613619945 4.800528343909354 5.004730117200678
6.213722730654677 1.62636554564446 2.0517119278943663 2.535645257115848
2.768212333941295 1.1332851024947905 0.6484041600223875 0.9865230714241182
1.0282551804748574 0.7167539074883355 0.10080086835005765 0.21070040463646408
0.35150840456986177 0.34893260488783834 -0.00046604015590708783 0.003041839837930629
0.12095985207160781 0.12095985207160781 0.0 0.0
0.028087970000310512 0.028087970000310512 0.0 0.0
0.003646566519856847 0.003646566519856847 0.0 0.0
0.0012128398894050239 0.0012128398894050239 0.0 0.0
0.020894566241452993 0.020894566241452993 0.0 0.0
0.12917698235754638 0.12917698235754638 0.0 0.0
0.45035529004848246 0.4238210880541666 0.005478515742742135 0.021055686251573752
1.3819647018833903 0.8953837233238128 0.17186803890126642 0.31471293965831143
3.5345523576968194 1.4540168202401378 0.8539667535074202 1.2265687839492605
7.575733246390638 2.165482855627226 2.4721495618869547 2.938100828876453
14.293544825273255 3.1561117067458833 5.535305636689606 5.602127481837766
24.32015938289608 4.484448848433763 10.486920959058395 9.34878957540393
38.07529570156233 6.155697567448451 17.711948303846377 14.207649830267513
55.63158767396052 8.141601749526478 27.379672874633023 20.110313049801075
76.7033650969373 10.398388252459434 39.36395705990132 26.94101978457648
101.13644652188088 12.84390839111457 53.72399382960009 34.56854430116626
128.39493628892143 15.322626478707013 70.22961224702804 42.84269756318639
157.4854248213045 17.46054035468817 88.48636545494617 51.53851901167006
186.79711046123043 18.728483220298966 107.76333911889242 60.3052881220391
214.10159624457395 18.676251133814368 126.7650111720428 68.6603339387167
237.06317607284956 17.44182577162804 143.71733076996628 75.90401953125539
252.677491770472 15.559323752658527 156.0485936019274 81.06957441588604
248.3614129434294 7.398609451907738 158.7098436784996 82.2529598130222
336.23367415224493 99.30127360968177 155.97722540457266 80.9551751379906
248.3614129434099 7.39860945193862 158.70984367846364 82.25295981300764
252.67749177036174 15.55932375263254 156.04859360186765 81.0695744158615
237.06317607271995 17.441825771630832 143.71733076987383 75.90401953121548
214.10159624442747 18.67625113382455 126.76501117193408 68.66033393866887
186.7971104610624 18.728483220285742 107.76333911878486 60.30528812199169
157.48542482116022 17.460540354700022 88.48636545483993 51.53851901162033
128.39493628873572 15.322626478660835 70.22961224693435 42.842697563140526
101.136446521724 12.843908391102362 53.72399382950441 34.56854430111727
76.70336509679845 10.398388252448072 39.36395705981925 26.94101978453113
55.631587673840045 8.141601749506597 27.37967287456963 20.110313049763818
38.07529570147486 6.15569756744177 17.711948303797083 14.207649830236
24.320159382832735 4.48444884843199 10.486920959022566 9.348789575378193
14.293544825229677 3.1561117067403 5.535305636668744 5.602127481820631
7.575733246364566 2.1654828556232815 2.4721495618757654 2.93810082886552
3.5345523576840088 1.4540168202373789 0.85396675350295 1.2265687839436787
1.3819647018783456 0.8953837233216239 0.17186803890011254 0.31471293965660885
0.450355290047669 0.42382108805368046 0.005478515742649733 0.021055686251338298
0.12917698235741246 0.12917698235741246 0.0 0.0
0.020894566241437946 0.020894566241437946 0.0 0.0
0.0012128398893845804 0.0012128398893845804 0.0 0.0
CELL_DATA 800
SCALARS Stress float 6
LOOKUP_TABLE default
173.60214009032092 -527.8335116495522 -182.1674824611505 -111.3999755250528 0.0 0.0
405.67030460265937 -91.4847045506846 115.59241181214621 53.816984184421756 0.0 0.0
426.48627226583847 6.575475445218885 130.40298718783737 -2.4914792438541165 0.0 0.0
485.6390532345648 -18.842337850115985 155.82083324612154 -16.145856788455273 0.0 0.0
564.9899947420572 -26.085736730928268 220.47577045444666 -11.665156826539889 0.0 0.0
641.7468148166253 -23.289103046913255 290.8402523859236 -10.632610548949689 0.0 0.0
715.892777265377 -18.21394288814058 342.30288720450994 -11.88099139495755 0.0 0.0
791.7383589430488 -4.325684025654937 390.0671253132892 -14.07150418459038 0.0 0.0
871.4006291501414 18.991577237277852 442.40950459601777 -16.056624687130938 0.0 0.0
953.779870985466 50.026030899375655 499.60206507676764 -17.25705380377297 0.0 0.0
1036.5340936409705 85.94851266815328 559.3020979527353 -17.726909519539078 0.0 0.0
1118.2568333464037 125.37788682192215 620.1463198669887 -17.72800210938655 0.0 0.0
1199.2065027058293 167.5332400439466 681.888506604125 -17.558067234386343 0.0 0.0
1280.233993419017 212.9900254270348 745.2625205154409 -17.210442220565497 0.0 0.0
1361.7385752231912 262.13946699963367 810.6871781032445 -16.519880878393895 0.0 0.0
1442.7512642020315 314.1227260976584 877.2651128273149 -15.290367332254695 0.0 0.0
1520.7764012563905 366.8421218645994 942.7049220797248 -13.457551918924564 0.0 0.0
1593.82850750097 418.86368861657036 1005.2798035470756 -11.507483510878647 0.0 0.0
1663.4370610840217 472.54357141567345 1066.872068591097 -11.606327212998558 0.0 0.0
1775.4761416645706 575.8730704987366 1174.0867701690004 -19.75802714540718 0.0 0.0
1775.4761416663698 575.8730705005637 1174.0867701702475 19.758027145320643 0.0 0.0
1663.4370610846715 472.5435714163705 1066.8720685914427 11.606327213264372 0.0 0.0
1593.8285074992364 418.8636886149178 1005.2798035455995 11.507483510765756 0.0 0.0
1520.7764012539797 366.8421218622855 942.7049220780034 13.457551918856744 0.0 0.0
1442.7512642017912 314.1227260975289 877.2651128272905 15.29036733198768 0.0 0.0
1361.7385752243135 262.1394670009344 810.6871781041215 16.519880878566 0.0 0.0
1280.233993419714 212.9900254279152 745.2625205159674 17.210442220384035 0.0 0.0
1199.2065027059843 167.53324004429209 681.888506604178 17.558067234273167 0.0 0.0
1118.25683334555 125.37788682129627 620.1463198663068 17.728002109294017 0.0 0.0
1036.534093640868 85.9485126682934 559.3020979525405 17.726909519424076 0.0 0.0
953.779870984306 50.02603089847116 499.6020650760012 17.257053803624004 0.0 0.0
871.4006291492116 18.991577236609174 442.4095045954293 16.056624687079932 0.0 0.0
791.7383589417286 -4.325684026708558 390.06712531242823 14.071504184620972 0.0 0.0
715.8927772645504 -18.213942888700643 342.30288720393753 11.880991394859185 0.0 0.0
641.7468148161188 -23.289103047112583 290.8402523855597 10.632610548877402 0.0 0.0
564.9899947420747 -26.085736730611544 220.47577045438132 11.665156826484344 0.0 0.0
485.63905323443953 -18.842337849986396 155.82083324606853 16.145856788408143 0.0 0.0
426.48627226540094 6.575475444915589 130.40298718761701 2.4914792437237328 0.0 0.0
405.6703046024936 -91.48470455083013 115.59241181203299 -53.81698418449088 0.0 0.0
173.6021400909476 -527.8335116489823 -182.16748246058694 111.39997552466755 0.0 0.0
72.88722014038811 -553.1661159030133 -243.809447432717 -163.1591615397701 0.0 0.0
286.881114745833 -88.22527313326965 60.192886885478785 7.376499164222945 0.0 0.0
375.766838615671 35.880914100106544 123.52535995979937 -9.501999230331556 0.0 0.0
451.2622652835727 -17.558744675163336 137.64590345551915 -36.83800383565986 0.0 0.0
537.9356164193764 -25.934935974144416 197.41285072404938 -33.934792057309444 0.0 0.0
618.8663518202006 -23.66379433423303 272.791889179407 -31.402756270777395 0.0 0.0
696.6107840610862 -17.70159836161629 330.7942433726064 -33.14350136687751 0.0 0.0
773.3494613623104 -3.7974850423965734 380.4252558623267 -36.46165925657485 0.0 0.0
851.3158505862693 17.988450143886553 431.5205581454077 -39.337642746561706 0.0 0.0
930.0604964200093 45.974543014314605 485.516582821555 -40.66648808755948 0.0 0.0
1007.9429673333452 77.83765635860317 540.8099289337781 -40.698816244839136 0.0 0.0
1084.536111389692 112.49045995166992 596.725554482464 -40.11756248810707 0.0 0.0
1160.0876035212066 150.11596262209085 653.527101014517 -39.28583679007793 0.0 0.0
1235.3369753392963 190.541969585605 711.5235139907466 -38.19644656069314 0.0 0.0
1310.4386166272693 233.78334712830778 770.8139707731514 -36.55287632284198 0.0 0.0
1384.900973427013 279.5294639124435 831.0080063146513 -33.98991553546269 0.0 0.0
1457.9950011049807 327.41563257206263 891.551233124606 -30.575411170052895 0.0 0.0
1530.0260408660683 378.47653358403426 953.0850749764317 -27.48721368329929 0.0 0.0
1609.589844486171 442.49583161735933 1024.739784766354 -26.63327407480148 0.0 0.0
1668.7799283293361 492.9419162345273 1079.465457989251 -28.318207933801453 0.0 0.0
1668.7799283294378 492.9419162346578 1079.4654579893534 28.318207933917144 0.0 0.0
1609.5898444871107 442.4958316183748 1024.7397847670832 26.633274075049044 0.0 0.0
1530.0260408666043 378.47653358465124 953.0850749767775 27.487213683192568 0.0 0.0
1457.9950011047988 327.4156325719917 891.5512331242417 30.575411170093165 0.0 0.0
1384.9009734281644 279.5294639136919 831.0080063152511 33.9899155351839 0.0 0.0
1310.4386166295442 233.78334713078425 770.8139707746722 36.552876323064204 0.0 0.0
1235.33697533868 190.54196958516803 711.5235139902949 38.1964465607676 0.0 0.0
1160.0876035208862 150.11596262197372 653.5271010142898 39.28583679006134 0.0 0.0
1084.5361113892195 112.49045995140523 596.725554482156 40.117562488034345 0.0 0.0
1007.9429673338157 77.83765635931536 540.8099289341584 40.698816244744876 0.0 0.0
930.0604964196941 45.974543014221666 485.5165828213808 40.66648808733461 0.0 0.0
851.3158505859036 17.988450143790118 431.52055814516643 39.337642746619665 0.0 0.0
773.3494613614853 -3.797485042957078 380.42525586182876 36.46165925649238 0.0 0.0
696.6107840607676 -17.70159836161241 330.7942433723969 33.14350136691658 0.0 0.0
618.8663518208355 -23.663794333186324 272.79188917973124 31.402756270944685 0.0 0.0
537.9356164192804 -25.934935973862885 197.41285072396042 33.93479205745254 0.0 0.0
451.262265283369 -17.558744675137714 137.64590345544033 36.838003835600546 0.0 0.0
375.7668386154746 35.88091409984076 123.52535995966488 9.501999230381758 0.0 0.0
286.88111474607103 -88.2252731327871 60.192886885705256 -7.376499164266898 0.0 0.0
72.88722014062645 -553.1661159026836 -243.80944743241514 163.1591615396093 0.0 0.0
16.217656858917906 -563.9348837495033 -272.2736675220964 -179.48370045785927 0.0 0.0
161.0043710514949 -75.12901313216167 25.762607375799966 -48.29392917354847 0.0 0.0
304.83733099361666 40.40601378737375 103.5730034342971 -34.60509478737404 0.0 0.0
407.46087510001075 -8.16979146627665 122.1803488154697 -57.818679862913086 0.0 0.0
502.54398908452197 -24.63452404142548 172.8524148992371 -58.18974125590687 0.0 0.0
592.2224460350296 -25.02452926526311 250.01915688011272 -53.69591449113507 0.0 0.0
673.3149703558529 -16.31822206636543 316.6339097028365 -54.78376878312904 0.0 0.0
750.4490698510772 -3.1964934138244985 368.27526978393774 -58.639683455562015 0.0 0.0
826.8722290050086 16.934178570239553 418.3567210449901 -61.98274245666162 0.0 0.0
901.9360277874487 41.605093597101245 469.0311567400874 -63.2211851126223 0.0 0.0
975.2006054979483 69.36288248442325 520.029298004847 -62.83096163906984 0.0 0.0
1046.6715277986166 99.73891404939307 571.2812554733034 -61.69599539079646 0.0 0.0
1117.001015510305 132.4152860603245 623.0265412670819 -60.30745466876549 0.0 0.0
1186.25794747826 167.50066472327973 675.3885998267078 -58.5085445126487 0.0 0.0
1254.7710776993622 204.60610084227784 728.3430632943537 -55.994893816194036 0.0 0.0
1322.9540448905618 244.19083501298098 782.3204123744614 -52.444294603763424 0.0 0.0
1391.6535853154799 287.6180803688067 838.4135574034846 -48.05752534298664 0.0 0.0
1463.2197798302473 338.11259277550886 899.4056429327038 -43.84005861138701 0.0 0.0
1530.8404271631514 389.8654162545289 959.0435577509573 -39.89663762588569 0.0 0.0
1579.5513662272192 428.93622183482125 1002.8717259558003 -35.43956779692015 0.0 0.0
1579.5513662278656 428.93622183550394 1002.87172595618 35.4395677970731 0.0 0.0
1530.840427160006 389.8654162514387 959.0435577485996 39.89663762603094 0.0 0.0
1463.2197798278287 338.11259277315423 899.4056429310481 43.840058611438465 0.0 0.0
1391.653585315355 287.61808036883485 838.4135574037209 48.057525343314225 0.0 0.0
1322.9540448897988 244.19083501230523 782.3204123739526 52.444294603496516 0.0 0.0
1254.77107769935 204.60610084240164 728.343063294383 55.99489381607872 0.0 0.0
1186.2579474764623 167.50066472158136 675.3885998253862 58.50854451247504 0.0 0.0
1117.001015509116 132.4152860593507 623.0265412662669 60.30745466884081 0.0 0.0
1046.671527798573 99.7389140495331 571.2812554733049 61.695995390631964 0.0 0.0
975.200605496605 69.36288248325167 520.0292980039353 62.83096163882002 0.0 0.0
901.9360277870945 41.605093596911786 469.03115673981245 63.2211851123087 0.0 0.0
826.872229004081 16.934178569523908 418.35672104437765 61.98274245654901 0.0 0.0
750.4490698505822 -3.1964934140274295 368.27526978359583 58.63968345550385 0.0 0.0
673.3149703564548 -16.318222065429737 316.633909703191 54.78376878311637 0.0 0.0
592.222446034974 -25.024529264978042 250.01915687998758 53.69591449113733 0.0 0.0
502.543989083878 -24.634524041917004 172.85241489877 58.189741255698934 0.0 0.0
407.46087509985244 -8.169791466043677 122.18034881548532 57.81867986281861 0.0 0.0
304.8373309938606 40.40601378772231 103.57300343447486 34.60509478737405 0.0 0.0
161.00437105155365 -75.12901313195349 25.762607375880044 48.29392917332642 0.0 0.0
16.217656859148462 -563.9348837493642 -272.2736675218773 179.4837004575549 0.0 0.0
-6.075830512543575 -554.9791906838636 -272.6646221105453 -181.4991317926712 0.0 0.0
90.87181055102039 -68.27671740216718 6.778527944655962 -95.71406766323713 0.0 0.0
237.97513417828148 36.36436872248495 82.30185087022993 -69.02991042939676 0.0 0.0
352.72250374336136 2.26245821586115 106.8919523034082 -80.85762231222124 0.0 0.0
457.4820787165637 -22.833765922606375 147.2253941416394 -85.08070316938691 0.0 0.0
556.6953363683506 -24.587033785065803 222.87987401027266 -77.69169159658765 0.0 0.0
643.4846719542409 -16.01401374845811 296.8818004977811 -77.04487560702496 0.0 0.0
722.8652686893835 -2.0567913891827416 353.52900837716027 -80.66891722161938 0.0 0.0
797.3924650293361 15.671419270197077 402.4230757341794 -83.96721661414759 0.0 0.0
869.0157541702401 37.0300220752016 449.978865014713 -84.93605965829933 0.0 0.0
937.8333135899563 60.777012325096635 496.84545646531876 -84.1299814207329 0.0 0.0
1004.4265735353987 86.71577749480645 543.4861590667307 -82.52361186351226 0.0 0.0
1069.2655093404562 114.60568172871649 590.1265800346017 -80.55128984778128 0.0 0.0
1132.8133287009252 144.23284938332944 636.9419654578653 -78.11270503020056 0.0 0.0
1194.8684374001978 175.08100570968966 683.5690881522181 -74.9014996801643 0.0 0.0
1256.540148279028 208.48684051419468 731.2083235842128 -70.70446381637565 0.0 0.0
1320.5278611905635 247.01945281300215 782.4895283811119 -65.6840833644736 0.0 0.0
1386.243549323928 291.10971780010027 837.373681859299 -60.000162775529894 0.0 0.0
1447.4166870480287 335.3530512976333 890.0516497443981 -52.734617489405224 0.0 0.0
1492.4789666700087 369.1295271982847 929.4170448227809 -42.92486871671015 0.0 0.0
1492.478966668992 369.1295271972701 929.4170448220716 42.92486871665961 0.0 0.0
1447.4166870474307 335.35305129705864 890.0516497440248 52.73461748936129 0.0 0.0
1386.24354932581 291.1097178021037 837.3736818605289 60.00016277569935 0.0 0.0
1320.527861191079 247.01945281366517 782.4895283814183 65.68408336472602 0.0 0.0
1256.5401482794468 208.4868405147738 731.2083235844948 70.70446381642887 0.0 0.0
1194.86843740006 175.0810057097088 683.569088152105 74.901499680175 0.0 0.0
1132.8133287003209 144.23284938287696 636.941965457491 78.1127050302014 0.0 0.0
1069.2655093393425 114.60568172779028 590.1265800338258 80.55128984776883 0.0 0.0
1004.4265735353931 86.71577749500221 543.4861590666796 82.5236118634729 0.0 0.0
937.8333135902476 60.77701232566551 496.8454564654954 84.12998142081378 0.0 0.0
869.0157541694831 37.030022074619836 449.97886501413797 84.93605965811743 0.0 0.0
797.3924650299373 15.671419271178678 402.423075734562 83.96721661432836 0.0 0.0
722.8652686894102 -2.0567913887763893 353.52900837720296 80.668917221775 0.0 0.0
643.4846719544832 -16.014013747913552 296.88180049785495 77.0448756068699 0.0 0.0
556.695336368162 -24.58703378493976 222.8798740100847 77.69169159650377 0.0 0.0
457.4820787163796 -22.833765922330866 147.22539414155506 85.08070316936903 0.0 0.0
352.72250374340723 2.2624582163991906 106.8919523035807 80.85762231214105 0.0 0.0
237.9751341783429 36.364368722364844 82.3018508702123 69.02991042927295 0.0 0.0
90.87181055123601 -68.27671740163554 6.77852794488014 95.71406766294677 0.0 0.0
-6.075830512387938 -554.9791906836115 -272.664622110307 181.4991317925141 0.0 0.0
-11.795198224689713 -533.72827188012 -257.1540067235609 -178.47872210146656 0.0 0.0
53.02602541925413 -62.62949485870843 -2.88104083183629 -132.66192200132116 0.0 0.0
181.01563961703738 28.826898550641417 62.952761450303626 -103.91697811159048 0.0 0.0
293.54574831686995 9.97023312575145 91.12712572370995 -105.1599844149944 0.0 0.0
400.8798290345828 -18.767121455461318 122.33901514737117 -113.48856670362368 0.0 0.0
510.64493751973265 -23.751392853217695 191.24364104795154 -104.64554106141748 0.0 0.0
606.5373630761995 -15.910684398576606 271.1195650991008 -100.5844022004437 0.0 0.0
688.9429036938915 -1.3882594666014683 334.34837003497717 -102.6185066339321 0.0 0.0
762.3337546798948 14.463598781405054 383.43946934726466 -105.30741694981097 0.0 0.0
830.6604516167297 32.30208627086725 428.02494719741446 -105.86378455312581 0.0 0.0
895.2885583030693 52.10831076959328 470.9686408743136 -104.59476888337545 0.0 0.0
956.8248609393265 73.54416362119557 512.9019012375221 -102.54112973145962 0.0 0.0
1016.2982123577781 96.50846443207107 554.4438021448263 -100.11645361726926 0.0 0.0
1073.985952961818 120.86140937412094 595.7234940382554 -97.01841010951382 0.0 0.0
1129.9428613198834 145.90637480644622 636.4369340543662 -93.19827374723354 0.0 0.0
1185.3204754237565 172.77082095721227 677.6883810112321 -88.67771836972517 0.0 0.0
1242.1290653489139 204.06703748249822 721.7791326841825 -83.20433096585043 0.0 0.0
1301.3230960186136 240.7833591162672 769.7216366263397 -76.20825242285385 0.0 0.0
1358.2630149448792 278.99743045334924 817.2676907501864 -65.97903036489862 0.0 0.0
1403.711072825908 310.6735474827409 855.7592775792399 -51.416291383294244 0.0 0.0
1403.711072826734 310.6735474835988 855.7592775798953 51.41629138335712 0.0 0.0
1358.2630149462984 278.9974304548944 817.2676907512854 65.97903036517233 0.0 0.0
1301.3230960188866 240.7833591166655 769.721636626487 76.20825242301056 0.0 0.0
1242.1290653487733 204.06703748243297 721.7791326839229 83.20433096581206 0.0 0.0
1185.3204754227968 172.77082095638735 677.6883810105504 88.67771836982148 0.0 0.0
1129.9428613205562 145.9063748073042 636.4369340547353 93.19827374733997 0.0 0.0
1073.9859529618032 120.8614093743177 595.7234940380655 97.01841010961694 0.0 0.0
1016.2982123573405 96.508464431746 554.4438021445702 100.1164536170848 0.0 0.0
956.8248609377023 73.54416361969857 512.9019012364611 102.54112973138508 0.0 0.0
895.2885583024774 52.108310769288295 470.96864087393516 104.59476888349364 0.0 0.0
830.6604516171504 32.30208627153294 428.02494719762524 105.86378455309085 0.0 0.0
762.3337546797684 14.4635987814749 383.43946934719355 105.30741694961426 0.0 0.0
688.9429036934183 -1.3882594668664439 334.34837003464196 102.61850663378422 0.0 0.0
606.5373630755738 -15.910684398881187 271.1195650986375 100.58440220043957 0.0 0.0
510.64493751926614 -23.751392853392282 191.2436410475657 104.64554106129732 0.0 0.0
400.8798290341964 -18.767121455498824 122.33901514719824 113.48856670358313 0.0 0.0
293.5457483166866 9.970233125757403 91.12712572366529 105.15998441496689 0.0 0.0
181.01563961696638 28.826898550440188 62.952761450221956 103.9169781115435 0.0 0.0
53.02602541933847 -62.629494858440495 -2.881040831730607 132.66192200114182 0.0 0.0
-11.7951982246894 -533.7282718798717 -257.1540067233508 178.47872210140991 0.0 0.0
-10.019615653536533 -504.1589628272108 -232.1200721644491 -174.21549080721968 0.0 0.0
31.56939250910206 -56.610042591623085 -7.5122425230846455 -160.3212568481228 0.0 0.0
133.14138808099582 20.806128895316768 46.18425509289377 -134.531013856768 0.0 0.0
234.4859898176808 13.340632868027676 74.34501905902823 -129.6669372267244 0.0 0.0
333.87096288273307 -11.614315302008619 99.62760215507427 -140.35701801613905 0.0 0.0
448.323246104373 -22.76709756894642 155.42330107369625 -135.2001347005253 0.0 0.0
556.8837485038443 -14.86627378326467 237.40424314942243 -126.22833637957693 0.0 0.0
645.460233078133 -1.8380650657434678 307.81679895682174 -125.05685646993362 0.0 0.0
720.1491139815927 12.939077966069753 360.0878048162035 -126.26357592697845 0.0 0.0
785.7521837270727 27.571505399998976 402.5794455263814 -126.00791936400145 0.0 0.0
846.1309431838495 43.32342565137887 441.62269838801467 -124.23800537092626 0.0 0.0
902.7661028701533 60.33253325211196 479.01602900419414 -121.75323965273684 0.0 0.0
956.5846902024241 78.34185572814118 515.3213384292419 -118.9117575910693 0.0 0.0
1008.5790328547567 97.30802551030769 551.0921743806043 -115.37964063415876 0.0 0.0
1059.0772751642598 117.0574807384378 586.4648463937244 -110.99347320788584 0.0 0.0
1107.4676968881488 137.465872595299 621.0580697202905 -106.03766012767201 0.0 0.0
1156.0105745059034 159.96118407281696 656.660008478693 -100.43444911317421 0.0 0.0
1207.5075008307044 187.68842433015823 696.261623228563 -92.74363513931738 0.0 0.0
1261.090844634177 220.24261557585928 739.2735596058019 -80.26359293806266 0.0 0.0
1309.997319053803 251.83437447427164 779.4082610126895 -61.62936279774213 0.0 0.0
1309.9973190534913 251.8343744739687 779.4082610125043 61.6293627978113 0.0 0.0
1261.090844632393 220.24261557415042 739.2735596047669 80.2635929382853 0.0 0.0
1207.507500828605 187.68842432811988 696.261623227455 92.74363513942183 0.0 0.0
1156.0105745065605 159.96118407366185 656.6600084792542 100.43444911343974 0.0 0.0
1107.4676968871263 137.46587259442197 621.0580697195602 106.037660127744 0.0 0.0
1059.0772751628062 117.05748073701727 586.4648463927281 110.9934732077437 0.0 0.0
1008.579032854019 97.30802550977825 551.0921743802611 115.37964063430377 0.0 0.0
956.5846902027813 78.3418557286812 515.3213384295212 118.91175759107668 0.0 0.0
902.7661028698614 60.33253325208375 479.0160290039929 121.75323965285591 0.0 0.0
846.130943183134 43.32342565088203 441.62269838758596 124.23800537090628 0.0 0.0
785.752183726464 27.571505399549693 402.5794455259869 126.00791936386989 0.0 0.0
720.1491139813987 12.939077966154215 360.0878048160349 126.2635759270043 0.0 0.0
645.4602330782934 -1.8380650651413788 307.8167989569067 125.05685647002623 0.0 0.0
556.8837485031911 -14.866273783605038 237.40424314893036 126.22833637952851 0.0 0.0
448.3232461038428 -22.76709756909659 155.42330107336338 135.20013470051214 0.0 0.0
333.8709628826219 -11.61431530151027 99.62760215518675 140.35701801604432 0.0 0.0
234.48598981777812 13.340632868533888 74.34501905921577 129.66693722647872 0.0 0.0
133.1413880810535 20.80612889553667 46.18425509297703 134.53101385652033 0.0 0.0
31.56939250928439 -56.61004259115427 -7.51224252288926 160.32125684784853 0.0 0.0
-10.019615653612846 -504.158962827095 -232.12007216428574 174.21549080710744 0.0 0.0
-4.672742264603244 -467.93576826526134 -200.91132033574422 -170.3555011131571 0.0 0.0
17.822071277430908 -50.85128058146779 -9.90856059566944 -179.91581476014832 0.0 0.0
91.56113468315081 13.594660072370775 31.546120459482335 -158.94907066004626 0.0 0.0
175.75352399720822 14.434385938960979 57.059238876035394 -152.54131392093234 0.0 0.0
260.60013186933634 -3.930175843568328 78.31251845647463 -163.40698170238647 0.0 0.0
369.62526823504527 -19.095578595726735 118.98796533158105 -167.60653370523136 0.0 0.0
489.04882868631466 -14.518587448846294 194.01874912648043 -155.7290047786709 0.0 0.0
588.8957993829605 -2.062695956774972 271.617722779205 -148.74940112854705 0.0 0.0
666.9099789012109 10.575065447214282 329.1412843993064 -147.2001171362823 0.0 0.0
731.6328077763669 22.683583973454606 371.9170010817408 -145.56993420358899 0.0 0.0
787.9712346344965 34.41198096592589 407.49417648822146 -143.07591628625707 0.0 0.0
839.7952309855901 47.21131343375735 440.60833887363117 -140.1357353799098 0.0 0.0
887.8717482741679 60.22287424625362 471.6676232031177 -136.97101749272252 0.0 0.0
933.66179657139 73.741269857345 501.68014413259925 -133.17496576333716 0.0 0.0
978.4331424878992 88.13556152228041 531.5294003546801 -128.36263927694256 0.0 0.0
1021.5855195663224 103.04175847088409 560.829553068919 -122.83874073070199 0.0 0.0
1060.8997473587578 116.35384071580148 587.3401115583747 -117.0294576819607 0.0 0.0
1102.0976244942162 132.69537913056692 616.1107707916364 -109.54255766284238 0.0 0.0
1151.7965592099251 157.8209758452864 653.403600138798 -96.22974173856578 0.0 0.0
1207.2903612998994 190.89557012662777 697.4771984534433 -74.62303978236334 0.0 0.0
1207.290361298093 190.89557012478105 697.477198452047 74.62303978224693 0.0 0.0
1151.7965592091957 157.82097584453794 653.4036001381656 96.22974173848043 0.0 0.0
1102.0976244942035 132.6953791307393 616.110770791521 109.54255766320948 0.0 0.0
1060.8997473601344 116.35384071754987 587.3401115592342 117.02945768247375 0.0 0.0
1021.5855195668161 103.04175847158939 560.8295530691412 122.83874073079956 0.0 0.0
978.4331424883983 88.13556152281495 531.5294003549238 128.36263927673917 0.0 0.0
933.6617965718383 73.74126985802633 501.6801441328645 133.17496576347602 0.0 0.0
887.8717482739102 60.22287424620407 471.6676232029219 136.97101749278505 0.0 0.0
839.7952309859888 47.21131343453331 440.6083388739018 140.13573538014475 0.0 0.0
787.971234634054 34.41198096575985 407.49417648786084 143.07591628633068 0.0 0.0
731.6328077765578 22.683583973922737 371.9170010818447 145.5699342035716 0.0 0.0
666.9099789004974 10.575065446593626 329.1412843988119 147.20011713610805 0.0 0.0
588.8957993823606 -2.0626959570827097 271.6177227787541 148.74940112848765 0.0 0.0
489.04882868605114 -14.518587448651651 194.01874912627073 155.7290047787181 0.0 0.0
369.62526823507216 -19.09557859486424 118.98796533176008 167.60653370538017 0.0 0.0
260.6001318687407 -3.9301758440512824 78.31251845616548 163.4069817022932 0.0 0.0
175.75352399718994 14.434385938922203 57.05923887602305 152.54131392074 0.0 0.0
91.56113468329632 13.594660072801247 31.54612045965577 158.94907065994576 0.0 0.0
17.82207127750928 -50.85128058123646 -9.908560595576686 179.9158147599576 0.0 0.0
-4.672742264521645 -467.93576826500987 -200.91132033549326 170.35550111302507 0.0 0.0
0.920138453137838 -426.3995169147382 -167.53003874250933 -167.85036600354854 0.0 0.0
5.8382145906918845 -46.18171692644645 -12.103430377441427 -191.61028220594665 0.0 0.0
53.76081711087616 7.91613175010125 18.5050473060867 -177.08794042540723 0.0 0.0
117.7697726078186 15.292130297804757 39.94933794983786 -171.59830298328552 0.0 0.0
185.3732534179591 1.6219184376286098 56.84081492659381 -182.96909705152933 0.0 0.0
272.78460585580217 -11.490940022979636 84.23267360483472 -195.75307690935404 0.0 0.0
392.6339403027735 -13.048488310918726 141.9054621609118 -190.02555718938703 0.0 0.0
509.255642410124 -2.8645945235640466 220.03161048521824 -176.0671606878738 0.0 0.0
596.498904643645 7.894961324632436 285.4527971831842 -168.90682564504118 0.0 0.0
661.763756150983 17.280586145481962 331.3102356512155 -164.79025150014954 0.0 0.0
715.4001159849546 25.304620094678434 365.3953121095109 -161.33860510306602 0.0 0.0
762.1564460792837 34.05337729701215 394.5801645612129 -157.7656893295624 0.0 0.0
804.3644476845832 42.45791167539478 420.6933728404724 -154.20186068839573 0.0 0.0
843.5279771269501 50.41330832145495 444.76914966301814 -150.34458084576823 0.0 0.0
881.8670525773791 58.88336650921808 468.49969525783166 -145.51915030316184 0.0 0.0
920.2911464232177 68.7327490382055 492.9112119338589 -139.29311621496032 0.0 0.0
954.3028937136878 75.95532455450001 513.9030498019001 -132.70850036259444 0.0 0.0
981.7763825719711 77.74144605831677 528.6925147818166 -126.0294041231118 0.0 0.0
1022.1007735734665 90.03259042813474 554.7379500530143 -114.21462920236537 0.0 0.0
1086.8786087439125 125.20857701773949 604.2796395499901 -91.98861368217626 0.0 0.0
1086.8786087443557 125.20857701832176 604.2796395504396 91.98861368242527 0.0 0.0
1022.100773573333 90.03259042824845 554.7379500529632 114.21462920285887 0.0 0.0
981.7763825712442 77.74144605779827 528.6925147811914 126.02940412348609 0.0 0.0
954.3028937126076 75.95532455357466 513.9030498011175 132.70850036279353 0.0 0.0
920.2911464225286 68.73274903765827 492.91121193346527 139.2931162150177 0.0 0.0
881.8670525764315 58.88336650843007 468.499695257198 145.51915030326006 0.0 0.0
843.527977125815 50.41330832052151 444.7691496622459 150.3445808459009 0.0 0.0
804.364447682791 42.45791167352178 420.69337283923755 154.20186068816727 0.0 0.0
762.1564460786547 34.05337729649486 394.58016456077723 157.76568932946302 0.0 0.0
715.4001159851878 25.304620095088495 365.3953121096701 161.33860510303566 0.0 0.0
661.7637561507379 17.280586145235148 331.3102356509561 164.79025149986867 0.0 0.0
596.4989046430635 7.894961324074686 285.4527971827294 168.906825644796 0.0 0.0
509.25564240960307 -2.864594523754299 220.03161048481917 176.06716068791388 0.0 0.0
392.63394030227664 -13.048488310790955 141.9054621606979 190.02555718945663 0.0 0.0
272.7846058554933 -11.490940023193298 84.23267360463556 195.7530769090514 0.0 0.0
185.37325341777958 1.6219184377685698 56.840814926577835 182.96909705133774 0.0 0.0
117.76977260784048 15.292130297981428 39.94933794990299 171.59830298295998 0.0 0.0
53.76081711107207 7.916131750511151 18.505047306271916 177.08794042505355 0.0 0.0
5.838214590718319 -46.18171692627971 -12.103430377384797 191.61028220577847 0.0 0.0
0.920138453125432 -426.39951691430633 -167.53003874226386 167.8503660036178 0.0 0.0
3.726623635108453 -380.28450899480265 -135.80683045304949 -165.4113565390324 0.0 0.0
-8.662561106958137 -43.9522602749724 -15.792553844120569 -197.26243217956102 0.0 0.0
18.004506109514125 4.407746905966374 6.731445669458095 -189.09828403650442 0.0 0.0
61.2443080101967 16.465091542649304 23.356874800385434 -185.87838226677627 0.0 0.0
108.0888377712021 6.049539474459301 34.70289404780917 -198.18749472702402 0.0 0.0
165.10470279740179 -3.920755900463272 50.72679320559198 -215.89895066720894 0.0 0.0
258.34993710950334 -6.7181676668565 85.98152435699089 -222.6590354345122 0.0 0.0
381.99960575058134 -3.0590800805570897 147.14231256958942 -210.32509109894147 0.0 0.0
488.2116644048629 5.089635607440634 215.72508788981094 -194.2579262414921 0.0 0.0
559.917648978163 11.134789211816447 268.03927988790963 -184.6439117793034 0.0 0.0
611.5871196900729 16.50137426903568 304.6079174601187 -179.12180526828172 0.0 0.0
653.0103843541942 20.738446665818785 331.34164419129644 -174.7881448895089 0.0 0.0
688.961463558711 24.90146050340448 353.46427184927865 -170.69120718447047 0.0 0.0
721.0705056257693 27.814239433008638 372.1032322713923 -166.67135624885503 0.0 0.0
751.6048219935766 29.873438173845898 389.0017273309545 -162.10706538504192 0.0 0.0
783.620413730327 32.85404654488832 406.79732599581837 -156.0519634258299 0.0 0.0
817.9046761746913 37.36707670708256 426.4922111264345 -147.91060517424228 0.0 0.0
840.5334830866238 31.52749174387671 435.5063661267476 -140.49316308995554 0.0 0.0
856.7447570569284 15.50310468210344 435.3558327604533 -133.32740101762613 0.0 0.0
930.1186061111893 48.29731057548406 487.250970327261 -116.63433425563787 0.0 0.0
930.1186061107027 48.29731057499083 487.25097032692446 116.6343342556931 0.0 0.0
856.7447570591639 15.503104684623622 435.3558327619965 133.3274010180233 0.0 0.0
840.533483088163 31.527491745963232 435.5063661279978 140.49316309051937 0.0 0.0
817.9046761745142 37.367076707069145 426.49221112649116 147.91060517441375 0.0 0.0
783.6204137285652 32.85404654317642 406.79732599462704 156.05196342595934 0.0 0.0
751.6048219928318 29.873438173112817 389.0017273304318 162.10706538501591 0.0 0.0
721.0705056251334 27.814239432417367 372.1032322710022 166.6713562488979 0.0 0.0
688.9614635571003 24.901460501667003 353.4642718481307 170.69120718442863 0.0 0.0
653.0103843537335 20.738446665874903 331.3416441910809 174.78814488974274 0.0 0.0
611.5871196892049 16.50137426810352 304.60791745952014 179.121805268103 0.0 0.0
559.9176489770992 11.134789210484882 268.0392798871122 184.64391177903923 0.0 0.0
488.21166440461417 5.089635607478023 215.72508788962003 194.25792624151595 0.0 0.0
381.9996057507608 -3.059080079584639 147.1423125697838 210.32509109906152 0.0 0.0
258.3499371096312 -6.718167665720731 85.98152435729564 222.65903543456403 0.0 0.0
165.10470279712746 -3.9207559006121837 50.726793205460055 215.89895066700694 0.0 0.0
108.08883777101897 6.049539474332169 34.702894047716924 198.1874947268576 0.0 0.0
61.24430801039434 16.465091543228873 23.356874800621284 185.87838226665988 0.0 0.0
18.004506109537694 4.407746905856213 6.7314456694336675 189.09828403638386 0.0 0.0
-8.66256110709942 -43.952260275159844 -15.792553844222049 197.26243217937372 0.0 0.0
3.7266236350642643 -380.2845089945696 -135.8068304528929 165.41135653892988 0.0 0.0
2.6713513449983104 -330.3253397332241 -107.56585933563801 -160.96202576351592 0.0 0.0
-27.263985230712088 -44.9772395135914 -21.687021980108284 -198.7285311071183 0.0 0.0
-16.5680787046587 3.2780686463671946 -3.9895238830668847 -195.94720029258195 0.0 0.0
6.414818625037194 17.74645234218102 7.269537522694646 -194.9295511626761 0.0 0.0
30.0438235565547 10.693650220960008 12.375914866276506 -207.20426496852554 0.0 0.0
52.990625297131714 1.9203699022693579 17.179545209174773 -227.27162721847276 0.0 0.0
87.83303020112636 -1.0016183606446498 28.334974794048087 -241.92294684568543 0.0 0.0
155.37494688936894 1.3512020750565181 53.19287622777277 -242.44201890533301 0.0 0.0
249.15453842519466 5.610563641795004 92.68503538615539 -226.82610697694716 0.0 0.0
332.0596063323618 7.166538292471131 136.49533724848425 -209.72958666215942 0.0 0.0
389.30899084446656 8.482723974279935 174.8786268157209 -197.7818960670358 0.0 0.0
425.63762894495994 8.623351460548136 202.67197647480901 -190.76631581230697 0.0 0.0
452.4163551232611 8.406093757861498 223.5056873234779 -185.59004585808526 0.0 0.0
475.35401771544906 5.974996620420455 238.97856637788792 -181.08611339808627 0.0 0.0
498.7650398459033 1.6220945127121524 251.34805827054714 -176.7159536837359 0.0 0.0
527.4434260574185 -3.632497268206265 263.8332193447553 -171.77078466298147 0.0 0.0
565.6617171657601 -6.362371165443449 281.1128754274851 -164.36447647128335 0.0 0.0
611.7310906179002 -5.8492461829094395 304.0705804445578 -153.42060959903506 0.0 0.0
625.3068900704341 -40.80923458604792 294.0518348797322 -146.54974202788924 0.0 0.0
667.2889229627654 -65.23082270169567 299.3006721115444 -149.25334225527098 0.0 0.0
667.2889229615577 -65.23082270288052 299.30067211082667 149.25334225550205 0.0 0.0
625.3068900692997 -40.80923458747401 294.05183487886734 146.54974202823678 0.0 0.0
611.731090617315 -5.849246183843377 304.07058044399565 153.42060959920275 0.0 0.0
565.6617171652605 -6.362371165797185 281.1128754270636 164.36447647141978 0.0 0.0
527.4434260586527 -3.6324972666895974 263.83321934558364 171.77078466301282 0.0 0.0
498.7650398454058 1.6220945126279958 251.3480582703958 176.715953683728 0.0 0.0
475.35401771477655 5.974996618965349 238.97856637728194 181.08611339785864 0.0 0.0
452.4163551243457 8.406093759324705 223.5056873242877 185.59004585831985 0.0 0.0
425.6376289453937 8.623351461205203 202.67197647507845 190.76631581230404 0.0 0.0
389.30899084486754 8.482723974934459 174.87862681595686 197.78189606702043 0.0 0.0
332.0596063321924 7.166538292376998 136.4953372483316 209.72958666200833 0.0 0.0
249.1545384251653 5.610563641959711 92.68503538614499 226.82610697709077 0.0 0.0
155.37494688920614 1.3512020752597884 53.19287622776008 242.44201890536624 0.0 0.0
87.83303020087008 -1.0016183610805776 28.33497479383822 241.92294684554008 0.0 0.0
52.9906252972413 1.9203699025976606 17.17954520930588 227.27162721822617 0.0 0.0
30.04382355680758 10.693650221656451 12.375914866562304 207.20426496838826 0.0 0.0
6.414818625269552 17.74645234271688 7.26953752292563 194.92955116245534 0.0 0.0
-16.568078704719902 3.2780686461406976 -3.9895238831538897 195.94720029233403 0.0 0.0
-27.263985230868613 -44.97723951375094 -21.687021980208556 198.7285311069428 0.0 0.0
2.6713513448879915 -330.32533973301247 -107.56585933555284 160.96202576338098 0.0 0.0
-7.376028666703249 -278.61234218250036 -87.52459291773006 -152.2180463690761 0.0 0.0
-47.72275979300619 -47.54367550526465 -28.604947648026403 -198.09887486908204 0.0 0.0
-50.29480368837149 3.616440651505338 -14.041872367593868 -198.376238520671 0.0 0.0
-46.75075576982812 18.903839803895572 -8.417457514433266 -198.52292467319663 0.0 0.0
-47.075017049268425 15.39358541547683 -9.706761986137362 -209.3740984793289 0.0 0.0
-60.03665882936649 7.28737852284207 -16.61694806951713 -228.16746839385638 0.0 0.0
-91.4493199740127 2.5631732583529825 -29.071991963978803 -242.09437666997962 0.0 0.0
-156.64691205441176 -0.8630281029823053 -53.53575792270658 -242.68353707535874 0.0 0.0
-249.0452620548764 -5.313171987885433 -92.58513820850064 -226.96247142374415 0.0 0.0
-331.76060108100864 -6.562408625802412 -136.1838498881668 -209.70419393576833 0.0 0.0
-389.6074920490581 -6.7789395604091 -174.26142514808032 -197.56322474924883 0.0 0.0
-427.7371338533781 -7.1668162374705275 -202.87494840210215 -190.2901909653933 0.0 0.0
-457.1462422420818 -10.29864855913371 -226.31650467395013 -185.4034391741809 0.0 0.0
-480.14633036436527 -16.536963810744993 -246.48080378264538 -182.33139638499074 0.0 0.0
-494.6803272573915 -25.823103063357763 -263.4749740947967 -180.90935752141795 0.0 0.0
-497.31935856040565 -37.078683237943096 -276.34466911993286 -180.5925344753948 0.0 0.0
-479.27770570218337 -47.40396440716262 -281.6795514291428 -180.32355259561726 0.0 0.0
-411.3078041467757 -39.38121240734887 -262.97577225603084 -179.9606191422436 0.0 0.0
-230.66731370440834 -43.05363587325098 -205.76465588950373 -183.03481439561156 0.0 0.0
-37.41643328116038 -175.42199882406362 -75.61292430773852 -182.67561478446686 0.0 0.0
-37.416433281341654 -175.42199882416907 -75.61292430780111 182.67561478471163 0.0 0.0
-230.6673137046543 -43.05363587402633 -205.76465588985627 183.03481439602257 0.0 0.0
-411.30780414765104 -39.381212408995 -262.9757722567441 179.9606191425861 0.0 0.0
-479.2777057018361 -47.403964406664045 -281.67955142879674 180.32355259562334 0.0 0.0
-497.3193585597297 -37.07868323690556 -276.3446691193565 180.59253447536557 0.0 0.0
-494.6803272582269 -25.823103064930223 -263.4749740955101 180.90935752150796 0.0 0.0
-480.14633036440443 -16.536963811357595 -246.48080378278672 182.3313963850892 0.0 0.0
-457.1462422417029 -10.298648559165116 -226.31650467378492 185.40343917433654 0.0 0.0
-427.73713385323333 -7.1668162378017115 -202.87494840204093 190.29019096532465 0.0 0.0
-389.607492048806 -6.778939560726926 -174.2614251479312 197.56322474921052 0.0 0.0
-331.760601080628 -6.562408626611983 -136.18384988814003 209.7041939357419 0.0 0.0
-249.04526205444964 -5.313171988570026 -92.58513820847878 226.96247142395526 0.0 0.0
-156.64691205369243 -0.8630281025151554 -53.53575792232482 242.6835370753746 0.0 0.0
-91.44931997309399 2.5631732597224826 -29.071991963269404 242.09437666980045 0.0 0.0
-60.03665882938195 7.2873785225119985 -16.616948069615695 228.16746839357785 0.0 0.0
-47.075017049137244 15.39358541578239 -9.7067619860051 209.37409847901304 0.0 0.0
-46.750755769760175 18.903839803827804 -8.417457514433448 198.5229246729508 0.0 0.0
-50.29480368839377 3.616440651433333 -14.041872367624476 198.37623852045795 0.0 0.0
-47.72275979308597 -47.5436755052841 -28.60494764806598 198.098874868981 0.0 0.0
-7.376028666896579 -278.612342182366 -87.52459291774917 152.21804636895172 0.0 0.0
-21.234108574768896 -228.27821820681822 -74.85708349881071 -139.51070403393277 0.0 0.0
-66.1597756103505 -48.32659377122333 -34.372086931040556 -194.74859977373023 0.0 0.0
-83.20887477001054 4.00837044381209 -23.83795472257247 -196.95349617236278 0.0 0.0
-98.23939115766349 19.934042545738162 -23.661784516341434 -196.81272647120397 0.0 0.0
-122.38586674024698 19.276931315569634 -31.599204396072103 -204.48034966173145 0.0 0.0
-170.6256243531776 12.598283322451984 -50.181826063752325 -218.07868422355003 0.0 0.0
-259.70775068191153 8.167432470796578 -86.37559577396115 -223.6716313324527 0.0 0.0
-381.4452880310371 3.4542006531336327 -147.02167052052621 -210.9729689903636 0.0 0.0
-487.7164703511175 -4.80503096010343 -215.4424341678673 -194.47084990006064 0.0 0.0
-559.4430551410719 -10.520835010895482 -267.58425595676135 -184.59555585969056 0.0 0.0
-611.0846548321865 -15.165861110825034 -303.77768676464194 -178.73718821593314 0.0 0.0
-653.3436187777032 -19.423360380854973 -330.81496323105495 -173.90647339529136 0.0 0.0
-691.7144473803327 -26.39481668346332 -355.3368744166714 -169.92076624953626 0.0 0.0
-727.6753816913296 -36.76020280657954 -379.54816283058045 -167.80268519877845 0.0 0.0
-761.1545736060597 -50.59719581725702 -404.04084674607753 -167.83927362223437 0.0 0.0
-789.8226137579134 -66.44657966351656 -427.15376323156875 -169.92783390299363 0.0 0.0
-808.6755018453822 -80.90014494154002 -444.7808188900028 -174.59965928454352 0.0 0.0
-816.9535060403955 -94.12530627395239 -456.28354114407523 -181.85829039364012 0.0 0.0
-847.771280632906 -146.74727545918427 -499.4402727715867 -191.5547782269169 0.0 0.0
-874.8024091367774 -244.72156745949871 -563.4438049532178 -209.95986017557212 0.0 0.0
-874.8024091374023 -244.72156746047796 -563.4438049536843 209.95986017590943 0.0 0.0
-847.7712806336763 -146.74727546021944 -499.4402727721766 191.55477822720388 0.0 0.0
-816.9535060390419 -94.12530627279955 -456.28354114334235 181.8582903938801 0.0 0.0
-808.6755018446563 -80.90014494057579 -444.78081888943046 174.59965928448258 0.0 0.0
-789.8226137574414 -66.44657966354913 -427.1537632312829 169.92783390328225 0.0 0.0
-761.1545736057697 -50.597195817054484 -404.040846745827 167.83927362215093 0.0 0.0
-727.6753816898076 -36.76020280492102 -379.54816282958325 167.8026851986732 0.0 0.0
-691.7144473788397 -26.394816681840425 -355.33687441564496 169.92076624930266 0.0 0.0
-653.343618776541 -19.42336037949083 -330.814963230168 173.90647339494416 0.0 0.0
-611.084654831933 -15.165861110858636 -303.77768676441775 178.7371882158735 0.0 0.0
-559.443055140182 -10.52083501029 -267.5842559561487 184.59555585963895 0.0 0.0
-487.7164703506844 -4.805030959947725 -215.44243416751368 194.47084990003776 0.0 0.0
-381.44528803059256 3.45420065295961 -147.02167052026942 210.97296899043423 0.0 0.0
-259.7077506811807 8.16743247126924 -86.37559577352715 223.67163133231645 0.0 0.0
-170.62562435204663 12.598283324099897 -50.18182606290915 218.07868422327303 0.0 0.0
-122.38586674028724 19.276931315214465 -31.59920439619013 204.48034966148504 0.0 0.0
-98.2393911578137 19.934042544938876 -23.66178451662705 196.81272647100866 0.0 0.0
-83.20887477019804 4.008370443478105 -23.837954722731013 196.95349617207887 0.0 0.0
-66.15977561019037 -48.32659377105903 -34.372086930948655 194.74859977358363 0.0 0.0
-21.234108574774513 -228.27821820662058 -74.85708349877027 139.51070403392094 0.0 0.0
-28.77864144976361 -180.8803204911365 -62.897688582270035 -124.41849622669868 0.0 0.0
-81.39084283801074 -46.54529026228609 -38.381891324941364 -187.61255798328057 0.0 0.0
-114.88698083360731 4.034360361295597 -33.33942837887652 -191.60441112351202 0.0 0.0
-147.98827593952706 20.494159291518137 -38.53453632223698 -189.8574342316888 0.0 0.0
-195.1338874670125 22.058369506596396 -53.24080161212312 -193.1551852143283 0.0 0.0
-274.33027665294264 18.879055127615842 -83.51150441403547 -198.9595062502609 0.0 0.0
-391.2752595048612 14.419653420311644 -141.4880481056847 -191.66980969865483 0.0 0.0
-508.3067806773826 3.28330641571646 -219.5371426925567 -176.7156577660211 0.0 0.0
-596.1723891750753 -7.716928044017223 -285.2330908486738 -169.00840817264458 0.0 0.0
-661.4122068064721 -16.838372566814613 -330.9626027719637 -164.76059932996185 0.0 0.0
-715.0197687534078 -24.336692535906053 -364.75945249267534 -160.9172981617159 0.0 0.0
-762.2905308385009 -32.937009817248196 -394.057215336584 -156.61850938413332 0.0 0.0
-806.4557834052645 -43.389908862187156 -422.04089278769095 -152.8117998028267 0.0 0.0
-849.4304439394579 -57.44196059247983 -450.98339430826394 -150.69565732477128 0.0 0.0
-891.6245461005585 -75.67492331889281 -481.5958702584644 -151.06365615317125 0.0 0.0
-930.4806061728154 -96.31719076383607 -511.78920309572135 -154.17161128216958 0.0 0.0
-964.5356661752573 -118.05161764837965 -540.0523277514242 -159.49365825736538 0.0 0.0
-1002.2327706876372 -150.8683180189077 -575.6591729197573 -165.34126124443551 0.0 0.0
-1047.8480240445228 -201.93012466564784 -624.0791662856645 -170.06962085149485 0.0 0.0
-1157.7975107075063 -343.2065416319773 -749.375792548185 -172.61081575503843 0.0 0.0
-1157.7975107095924 -343.2065416342867 -749.375792549771 172.61081575537202 0.0 0.0
-1047.8480240463277 -201.93012466801468 -624.0791662872332 170.0696208521157 0.0 0.0
-1002.2327706891735 -150.8683180208542 -575.6591729208774 165.341261244906 0.0 0.0
-964.5356661760131 -118.0516176493839 -540.0523277519944 159.49365825758434 0.0 0.0
-930.4806061729557 -96.31719076430878 -511.78920309604166 154.17161128232746 0.0 0.0
-891.6245461000567 -75.6749233183154 -481.5958702581253 151.06365615295164 0.0 0.0
-849.4304439395885 -57.44196059281326 -450.983394308342 150.6956573248996 0.0 0.0
-806.4557834050788 -43.38990886236377 -422.04089278763786 152.81179980300263 0.0 0.0
-762.2905308380189 -32.937009816926455 -394.05721533630344 156.618509384072 0.0 0.0
-715.0197687524218 -24.33669253501686 -364.7594524921278 160.91729816144735 0.0 0.0
-661.4122068060751 -16.838372566438032 -330.9626027716835 164.7605993297258 0.0 0.0
-596.1723891750188 -7.716928044374715 -285.2330908486634 169.00840817269506 0.0 0.0
-508.30678067627093 3.2833064165058112 -219.53714269183502 176.7156577660316 0.0 0.0
-391.2752595042877 14.419653420473278 -141.48804810528162 191.66980969859992 0.0 0.0
-274.33027665238995 18.879055127510107 -83.51150441384405 198.9595062501847 0.0 0.0
-195.13388746687812 22.058369506384583 -53.2408016121428 193.15518521410763 0.0 0.0
-147.98827593938614 20.49415929135979 -38.534536322247305 189.8574342314297 0.0 0.0
-114.88698083353694 4.034360361334436 -33.339428378846975 191.60441112329625 0.0 0.0
-81.39084283793409 -46.545290262477984 -38.38189132497878 187.61255798325817 0.0 0.0
-28.778641449670605 -180.8803204910334 -62.89768858221118 124.41849622652789 0.0 0.0
-31.39227254804796 -137.42606632198027 -50.64550166100847 -108.19985308290032 0.0 0.0
-93.82702754637896 -42.496253347107285 -40.89640104932773 -175.89423628680558 0.0 0.0
-144.81982811474697 3.744234245468105 -42.39346029344262 -182.21000430095586 0.0 0.0
-195.83614572455232 20.0108674725096 -53.16330801445029 -177.9367517971697 0.0 0.0
-264.14156109411135 24.855035850221398 -74.24768271393177 -176.37749776329142 0.0 0.0
-366.69258112814487 24.740169190193903 -117.78037430363909 -171.69283354509497 0.0 0.0
-486.8378446437119 16.136966981677865 -192.73062422959703 -157.44670797685978 0.0 0.0
-588.4038042451859 2.2218868640263167 -271.2829908354271 -149.04430931625575 0.0 0.0
-666.7653944799058 -10.50892296573825 -329.05292860059626 -147.25776288327205 0.0 0.0
-731.4534496957367 -22.432403527811772 -371.7212837420839 -145.54744419480932 0.0 0.0
-787.8661533271713 -33.87624374006302 -407.1851734681742 -142.63983455828082 0.0 0.0
-839.9604888381523 -46.44275760654503 -440.29311787332546 -138.85742598430815 0.0 0.0
-889.0236426573065 -60.4123889569662 -472.25392948164995 -135.18035409603257 0.0 0.0
-937.19321227917 -77.9227798509516 -505.37827019788875 -132.96293072745527 0.0 0.0
-985.4712227428887 -100.03548390121651 -540.820809169154 -133.47709698902776 0.0 0.0
-1034.0279421924538 -127.27779361599897 -578.9678690435085 -136.85561910847338 0.0 0.0
-1084.0378210400838 -161.373256758068 -621.2420413192956 -141.80950254922033 0.0 0.0
-1138.7941423910515 -206.35370602594327 -671.2114389440454 -145.70835665358726 0.0 0.0
-1214.4773107008698 -281.43307052113965 -746.4494712643782 -145.0862734512348 0.0 0.0
-1314.7534190142992 -404.462377219894 -858.1901127277135 -141.79358382474973 0.0 0.0
-1314.7534190142796 -404.4623772199119 -858.1901127275327 141.79358382493982 0.0 0.0
-1214.4773106996452 -281.4330705201755 -746.449471263351 145.08627345154653 0.0 0.0
-1138.794142390147 -206.35370602508323 -671.2114389433154 145.70835665369344 0.0 0.0
-1084.0378210394751 -161.37325675751117 -621.2420413188249 141.80950254917644 0.0 0.0
-1034.0279421927116 -127.27779361646407 -578.9678690436117 136.85561910859903 0.0 0.0
-985.4712227433145 -100.0354839016645 -540.8208091694477 133.47709698885683 0.0 0.0
-937.1932122800816 -77.92277985221457 -505.3782701985348 132.96293072771604 0.0 0.0
-889.0236426564654 -60.41238895633374 -472.25392948110107 135.1803540960633 0.0 0.0
-839.9604888379608 -46.44275760649908 -440.29311787315714 138.8574259842049 0.0 0.0
-787.8661533272109 -33.87624374048126 -407.18517346816833 142.63983455839147 0.0 0.0
-731.4534496947371 -22.432403526952026 -371.7212837413765 145.54744419460098 0.0 0.0
-666.7653944786938 -10.508922964558986 -329.05292859974304 147.25776288298198 0.0 0.0
-588.4038042444407 2.221886864427436 -271.2829908348801 149.04430931627257 0.0 0.0
-486.83784464295684 16.136966982230813 -192.73062422899017 157.44670797672617 0.0 0.0
-366.6925811273369 24.74016919054318 -117.78037430320045 171.6928335450707 0.0 0.0
-264.14156109389575 24.855035849896865 -74.24768271396165 176.37749776325126 0.0 0.0
-195.83614572430938 20.010867472562957 -53.16330801437193 177.93675179714688 0.0 0.0
-144.8198281144696 3.7442342458167563 -42.39346029326371 182.21000430085252 0.0 0.0
-93.82702754625089 -42.496253346967805 -40.89640104924832 175.89423628678261 0.0 0.0
-31.3922725480086 -137.42606632183148 -50.645501660952014 108.19985308283627 0.0 0.0
-32.62494049750924 -98.78081302445673 -39.42172605658979 -91.41384771248313 0.0 0.0
-104.45893237372907 -36.53314223823072 -42.297622383587935 -159.7230412274536 0.0 0.0
-172.8721843102478 3.2152709106134765 -50.93684982375795 -168.33163112828075 0.0 0.0
-242.04885103515707 18.90746538873076 -67.38028125664994 -161.72202312770722 0.0 0.0
-329.9734989093192 27.890307252630528 -95.3238608238197 -154.50876539914577 0.0 0.0
-444.1001151711971 27.413104886631256 -153.38990332723392 -139.77992111986472 0.0 0.0
-555.2608872530752 16.117893078220973 -236.08844963759265 -127.05304314435392 0.0 0.0
-645.3634922155891 1.7596522067709088 -307.7622240392336 -125.13879571558869 0.0 0.0
-720.1211044725767 -12.941508437082888 -360.0869608589142 -126.31814704983395 0.0 0.0
-785.7795439916761 -27.510092154895034 -402.56176637976574 -125.9706284921131 0.0 0.0
-846.3444992527952 -43.24635487655985 -441.68563810879937 -123.80279578558537 0.0 0.0
-903.0136437494883 -60.00626012072169 -478.97960867532663 -120.5176270766574 0.0 0.0
-956.5191781798483 -77.70108205614633 -514.9540351243442 -117.08080932588555 0.0 0.0
-1008.9004890494184 -98.07757183201997 -551.5475178351078 -114.79758102148311 0.0 0.0
-1063.2888569832692 -124.37213172241923 -592.028814044918 -115.03604059376238 0.0 0.0
-1121.930345117246 -159.69539913645758 -639.1436570678125 -118.01868933214035 0.0 0.0
-1186.74617966639 -205.88268893639838 -694.7506955484284 -122.26871419689604 0.0 0.0
-1261.3488228948 -268.3100996692639 -763.2791386415565 -124.48764853686208 0.0 0.0
-1346.4194385323458 -352.04072251422525 -847.6821824204047 -122.74508172473205 0.0 0.0
-1432.4274273984697 -459.02081141344036 -944.3074010670573 -120.47943721434132 0.0 0.0
-1432.427427397803 -459.02081141277716 -944.3074010667017 120.47943721435078 0.0 0.0
-1346.4194385319192 -352.04072251387765 -847.6821824202163 122.74508172490285 0.0 0.0
-1261.3488228946733 -268.3100996693678 -763.2791386414212 124.48764853717987 0.0 0.0
-1186.7461796656387 -205.88268893593437 -694.7506955478386 122.26871419725559 0.0 0.0
-1121.9303451161136 -159.69539913548127 -639.1436570669043 118.01868933226326 0.0 0.0
-1063.2888569825816 -124.37213172191969 -592.0288140442804 115.03604059384804 0.0 0.0
-1008.9004890484357 -98.07757183130573 -551.5475178344175 114.7975810216509 0.0 0.0
-956.5191781792539 -77.70108205573504 -514.9540351239166 117.08080932584335 0.0 0.0
-903.0136437486647 -60.006260119967045 -478.97960867473597 120.51762707639833 0.0 0.0
-846.3444992518627 -43.246354875841135 -441.6856381081599 123.80279578551854 0.0 0.0
-785.7795439925931 -27.51009215626975 -402.5617663803977 125.9706284923086 0.0 0.0
-720.1211044719973 -12.941508436868823 -360.0869608585599 126.31814704989397 0.0 0.0
-645.3634922147586 1.7596522072434908 -307.76222403865546 125.13879571562893 0.0 0.0
-555.2608872527875 16.117893078086684 -236.08844963732957 127.05304314435996 0.0 0.0
-444.10011517132494 27.41310488583605 -153.38990332730302 139.7799211198762 0.0 0.0
-329.9734989090313 27.89030725244716 -95.32386082375073 154.50876539903555 0.0 0.0
-242.04885103492796 18.907465388839736 -67.38028125655785 161.7220231276288 0.0 0.0
-172.87218431013252 3.2152709106668635 -50.93684982371147 168.33163112808938 0.0 0.0
-104.45893237361057 -36.533142238082334 -42.29762238350787 159.7230412271632 0.0 0.0
-32.62494049735285 -98.7808130242982 -39.42172605649532 91.41384771232087 0.0 0.0
-33.51397986734108 -65.561467319711 -29.722634156115618 -74.14281599999333 0.0 0.0
-113.96659773704955 -29.228352592923592 -42.958485098991936 -139.5137805264141 0.0 0.0
-199.21585648167957 2.463608829846647 -59.02348718972938 -149.986100291671 0.0 0.0
-285.70385275685817 17.555246372935986 -81.064321303409 -141.19355061958362 0.0 0.0
-390.4841770181962 30.28585405757441 -117.3519700545667 -127.83527529034404 0.0 0.0
-506.09709961824717 27.403499490597845 -188.59249585889197 -108.21875108441179 0.0 0.0
-605.8323823046086 16.448960988129045 -270.36107158751224 -100.74059631508256 0.0 0.0
-688.9814613411854 1.2675060614974996 -334.41599687384405 -102.62264044303656 0.0 0.0
-762.4168336880546 -14.536471170676208 -383.51950971750944 -105.351829185269 0.0 0.0
-830.865933316167 -32.41996453133814 -428.1735187586285 -105.79341675412807 0.0 0.0
-895.7434595571028 -52.404608471278806 -471.3313875001066 -104.17928360683112 0.0 0.0
-957.083561993727 -73.59818161011992 -513.0717928582151 -101.52104788049046 0.0 0.0
-1015.1907633669916 -95.2817059087881 -553.3056270310209 -98.5920190517463 0.0 0.0
-1071.6020634012307 -118.85407690012278 -593.4835262213074 -96.16366513814306 0.0 0.0
-1131.2450888990766 -148.9853048190809 -638.4340166958152 -95.67222243454404 0.0 0.0
-1199.7539234208612 -191.96832351495277 -694.2146789179006 -97.79680485993165 0.0 0.0
-1279.1869985988374 -251.3718310295699 -763.6688917760146 -101.17765620611166 0.0 0.0
-1368.2425139678842 -327.6242429858471 -846.3627087279829 -103.36521942370479 0.0 0.0
-1457.9852228459 -416.37186953207197 -935.6685732051492 -103.48623145703495 0.0 0.0
-1535.8504520164945 -514.2855702380757 -1023.7047119413039 -104.75303717038479 0.0 0.0
-1535.8504520164447 -514.2855702380537 -1023.7047119413473 104.75303717044004 0.0 0.0
-1457.9852228471245 -416.3718695334835 -935.6685732062193 103.48623145738463 0.0 0.0
-1368.242513968497 -327.62424298653536 -846.3627087284844 103.36521942370653 0.0 0.0
-1279.1869985983824 -251.37183102925894 -763.6688917758495 101.17765620628646 0.0 0.0
-1199.7539234222934 -191.96832351659197 -694.2146789190671 97.79680486009715 0.0 0.0
-1131.245088898974 -148.9853048191518 -638.4340166959065 95.67222243451593 0.0 0.0
-1071.6020634017418 -118.85407690089487 -593.4835262216423 96.16366513832847 0.0 0.0
-1015.1907633668777 -95.28170590893826 -553.3056270309044 98.59201905192874 0.0 0.0
-957.0835619928733 -73.59818160954475 -513.0717928576861 101.5210478805804 0.0 0.0
-895.7434595561404 -52.40460847048463 -471.3313874995457 104.17928360663558 0.0 0.0
-830.8659333160124 -32.419964531476445 -428.17351875855127 105.79341675414534 0.0 0.0
-762.4168336878467 -14.536471170774654 -383.51950971734044 105.35182918525152 0.0 0.0
-688.9814613414469 1.2675060609060225 -334.41599687397286 102.6226404429668 0.0 0.0
-605.8323823049657 16.44896098736139 -270.3610715876294 100.74059631501864 0.0 0.0
-506.097099618046 27.40349949042012 -188.592495858672 108.21875108432815 0.0 0.0
-390.4841770177161 30.28585405765298 -117.35197005434131 127.8352752902756 0.0 0.0
-285.70385275680394 17.555246372620523 -81.06432130348776 141.19355061939177 0.0 0.0
-199.21585648161476 2.4636088297237864 -59.02348718974764 149.98610029150387 0.0 0.0
-113.96659773700844 -29.228352592991378 -42.95848509899994 139.51378052631162 0.0 0.0
-33.51397986720217 -65.56146731962173 -29.722634156047164 74.14281599993782 0.0 0.0
-34.12267627366708 -38.305240458039385 -21.728375019511937 -56.3569983075829 0.0 0.0
-122.37063126939343 -21.14840502706177 -43.05571088893655 -115.70730439695545 0.0 0.0
-224.05059043266954 1.3660143714704276 -66.8046123342706 -127.01168207287574 0.0 0.0
-328.65744426714264 16.960088096612278 -94.40423036292228 -116.97593233535342 0.0 0.0
-445.7240912632285 30.686696988517628 -141.36438707867188 -97.75095422013818 0.0 0.0
-554.0117257992038 26.85742025741977 -220.61884694935424 -79.55755011406409 0.0 0.0
-643.3813929474665 16.04820844352635 -296.7071062303175 -76.86441741433975 0.0 0.0
-722.9818853409713 1.9351214820202784 -353.6472836908363 -80.65136551153996 0.0 0.0
-797.5696545499791 -15.805936394204906 -402.5724797594193 -83.98841300727346 0.0 0.0
-869.3545698093195 -37.30038712744428 -450.2659808258152 -84.8342327894532 0.0 0.0
-938.3611467416013 -61.27289403030619 -497.34552707097015 -83.76489409009744 0.0 0.0
-1004.5635712933606 -86.94760349035613 -543.6861666973391 -81.81106340131763 0.0 0.0
-1067.7466969918923 -113.3518273308506 -588.7760803559189 -79.51939415337439 0.0 0.0
-1129.222858580727 -141.097534919596 -633.5688603079026 -77.18526065243354 0.0 0.0
-1193.251938053278 -174.46215292118563 -682.2997759132775 -75.67389939183734 0.0 0.0
-1268.2928193208895 -222.949611603604 -744.0128754075652 -76.28145913871307 0.0 0.0
-1360.2574591517239 -293.53031561953026 -825.2827880984485 -79.14326126243743 0.0 0.0
-1461.5231339936613 -381.47651847055636 -919.9508799997452 -82.67323749747933 0.0 0.0
-1559.0150048953158 -478.16753950157914 -1017.1274632103516 -86.22516506795095 0.0 0.0
-1634.9073648651147 -573.5023654797883 -1102.888195950765 -92.20469056111014 0.0 0.0
-1634.9073648653352 -573.5023654799746 -1102.888195951022 92.20469056097483 0.0 0.0
-1559.015004896557 -478.167539502938 -1017.1274632111463 86.22516506816407 0.0 0.0
-1461.5231339947504 -381.47651847180026 -919.9508800004523 82.67323749771339 0.0 0.0
-1360.2574591516545 -293.53031561959517 -825.2827880984338 79.14326126249932 0.0 0.0
-1268.2928193214061 -222.94961160425095 -744.0128754077016 76.28145913875224 0.0 0.0
-1193.2519380523943 -174.4621529205004 -682.299775912379 75.67389939193983 0.0 0.0
-1129.2228585787238 -141.09753491771335 -633.5688603065284 77.18526065231698 0.0 0.0
-1067.7466969914767 -113.35182733066591 -588.7760803557076 79.51939415343601 0.0 0.0
-1004.5635712924716 -86.94760348975935 -543.686166696782 81.81106340145307 0.0 0.0
-938.3611467405331 -61.27289402942902 -497.34552707019117 83.76489408994439 0.0 0.0
-869.3545698083027 -37.3003871266702 -450.265980825137 84.83423278935267 0.0 0.0
-797.5696545487546 -15.80593639318974 -402.5724797586837 83.98841300711484 0.0 0.0
-722.9818853401714 1.935121482545874 -353.6472836902845 80.65136551143934 0.0 0.0
-643.3813929476265 16.048208442981704 -296.7071062303258 76.86441741424291 0.0 0.0
-554.0117257990578 26.857420257104764 -220.61884694917785 79.55755011416353 0.0 0.0
-445.72409126288323 30.686696988354935 -141.36438707852824 97.75095422024505 0.0 0.0
-328.6574442669853 16.960088096360053 -94.40423036295921 116.97593233520669 0.0 0.0
-224.0505904324836 1.366014371423931 -66.80461233422965 127.01168207285511 0.0 0.0
-122.37063126917671 -21.14840502688349 -43.055710888818055 115.70730439685724 0.0 0.0
-34.122676273629516 -38.30524045802291 -21.728375019495722 56.35699830756582 0.0 0.0
-33.876055772439 -17.50361680877063 -15.413901774362888 -38.17419792905969 0.0 0.0
-128.9513127967938 -12.823402066149004 -42.53241445888284 -88.55892420003627 0.0 0.0
-248.0628972322711 -0.10915676213556758 -74.45161619832199 -99.41912283562858 0.0 0.0
-371.6832527145929 17.792216747070476 -107.77720950892063 -88.76329036881285 0.0 0.0
-492.8842184963919 29.33806750671134 -166.84215702047393 -66.91139657698501 0.0 0.0
-591.1863195487924 25.51691943783608 -248.93721897473847 -54.320020059364744 0.0 0.0
-673.463702250069 16.177123335721745 -316.7766631365272 -54.543165742014516 0.0 0.0
-750.6463065665303 3.056533386796474 -368.4377287907757 -58.601806174199226 0.0 0.0
-827.1182282343569 -17.12371110739892 -418.5621859020275 -61.98246204628094 0.0 0.0
-902.3290024277466 -41.96830805027494 -469.394208931796 -63.10825909867362 0.0 0.0
-975.6367285663854 -69.87902141768456 -520.4987299094365 -62.552355477416086 0.0 0.0
-1046.618323279285 -99.96864824714555 -571.3799293443781 -61.279062189663264 0.0 0.0
-1115.6548085826357 -131.5702327979355 -621.950672751898 -59.74797254127513 0.0 0.0
-1183.2166663037315 -165.09798645791733 -672.6655033739639 -57.75715493853278 0.0 0.0
-1252.0021053942128 -202.65505800490308 -725.8922568097336 -55.47109697520445 0.0 0.0
-1329.3987896908538 -252.35978899688484 -789.3719015339417 -54.28071378358929 0.0 0.0
-1425.4666446209953 -326.098674099749 -874.1932318158069 -56.28227117245429 0.0 0.0
-1542.624809009099 -429.1165471085524 -984.3361968248471 -61.72369075793431 0.0 0.0
-1653.2513552385417 -538.3199541042368 -1094.3585787538584 -69.72687971754434 0.0 0.0
-1737.9783692481378 -641.2812355142623 -1188.348704733096 -81.39438643450352 0.0 0.0
-1737.978369247154 -641.281235513365 -1188.3487047325225 81.39438643472943 0.0 0.0
-1653.2513552372573 -538.319954102948 -1094.3585787530117 69.72687971744031 0.0 0.0
-1542.624809009014 -429.11654710856556 -984.3361968247725 61.72369075802888 0.0 0.0
-1425.4666446201163 -326.09867409898004 -874.1932318151032 56.28227117246962 0.0 0.0
-1329.398789690389 -252.35978899654367 -789.371901533635 54.28071378354893 0.0 0.0
-1252.0021053931819 -202.65505800403184 -725.8922568092455 55.47109697523921 0.0 0.0
-1183.2166663027656 -165.09798645710455 -672.6655033733633 57.75715493837437 0.0 0.0
-1115.6548085812153 -131.57023279668388 -621.9506727508091 59.74797254116228 0.0 0.0
-1046.6183232783274 -99.96864824641537 -571.3799293436147 61.27906218962758 0.0 0.0
-975.6367285661717 -69.87902141769757 -520.4987299092667 62.55235547728633 0.0 0.0
-902.3290024276927 -41.96830805044718 -469.3942089317196 63.10825909844982 0.0 0.0
-827.1182282340437 -17.123711107357437 -418.5621859017971 61.98246204618761 0.0 0.0
-750.6463065663328 3.056533386726059 -368.4377287906589 58.60180617398227 0.0 0.0
-673.4637022494604 16.17712333598996 -316.7766631361162 54.54316574206229 0.0 0.0
-591.186319547933 25.51691943835847 -248.93721897409364 54.3200200593401 0.0 0.0
-492.88421849587394 29.338067506975108 -166.8421570201142 66.91139657685362 0.0 0.0
-371.68325271429273 17.792216746966645 -107.77720950886368 88.76329036865552 0.0 0.0
-248.06289723215502 -0.10915676245183015 -74.45161619838206 99.41912283570545 0.0 0.0
-128.95131279658324 -12.823402065924554 -42.53241445875233 88.55892419999358 0.0 0.0
-33.87605577244621 -17.503616808723393 -15.41390177435088 38.174197929025524 0.0 0.0
-31.43736903932855 -3.571148288927364 -10.502555198476774 -20.10786486093071 0.0 0.0
-132.005981897667 -4.941002338620496 -41.084095270886245 -58.02245749452462 0.0 0.0
-271.78110724968 -1.4517497305495874 -81.96985709406889 -66.75119410098479 0.0 0.0
-415.09262470572725 19.473764663326413 -122.34075699286751 -56.77426664383883 0.0 0.0
-531.099102316863 27.61243228421635 -192.22954325847303 -38.33641118277815 0.0 0.0
-618.9242852230975 23.19687935684391 -272.73038819455235 -31.496567830384766 0.0 0.0
-696.9951326106183 17.39566634599963 -331.1816792912449 -32.931281292913944 0.0 0.0
-773.5390158705142 3.657290255698257 -380.58092773372164 -36.40948545224427 0.0 0.0
-851.5963336983052 -18.21354306309385 -431.7590605701101 -39.3266096692795 0.0 0.0
-930.4394726274561 -46.37192144383695 -485.8953381868972 -40.57294457540865 0.0 0.0
-1008.1947661727995 -78.25321285160447 -541.1411541136406 -40.52954594041263 0.0 0.0
-1084.3320391231432 -112.6594395428748 -596.7096188890381 -39.92439001770097 0.0 0.0
-1159.2224577022803 -149.85196787832928 -652.9604471473123 -39.03044344481373 0.0 0.0
-1233.9507767116547 -189.973352478055 -710.5295750942076 -37.68022232209283 0.0 0.0
-1309.3775730944926 -233.81837909949797 -770.2472666707143 -35.5289962017792 0.0 0.0
-1387.685798582366 -284.1274487159982 -834.5481453759379 -33.009966170523406 0.0 0.0
-1477.4136173465376 -350.7941050062588 -912.6321738670165 -32.89467319413387 0.0 0.0
-1592.9777434441908 -450.8185374149259 -1020.332691905063 -39.1153827122692 0.0 0.0
-1749.8953128642129 -604.26568219323 -1175.6540217895197 -52.40645843674615 0.0 0.0
-1854.3064965614324 -724.8767423857583 -1288.3347444439078 -71.27832319551541 0.0 0.0
-1854.3064965614858 -724.8767423858853 -1288.3347444439678 71.27832319574841 0.0 0.0
-1749.8953128634287 -604.2656821924716 -1175.6540217888673 52.406458436616624 0.0 0.0
-1592.977743443474 -450.8185374143055 -1020.3326919043587 39.115382712376004 0.0 0.0
-1477.4136173458533 -350.79410500569634 -912.6321738665241 32.89467319434115 0.0 0.0
-1387.6857985807378 -284.12744871452054 -834.5481453746714 33.009966170662366 0.0 0.0
-1309.3775730944162 -233.81837909962456 -770.247266670463 35.528996202076655 0.0 0.0
-1233.9507767113164 -189.97335247789715 -710.5295750938556 37.68022232200578 0.0 0.0
-1159.2224577018178 -149.85196787807595 -652.9604471469418 39.03044344485845 0.0 0.0
-1084.3320391224056 -112.65943954240512 -596.7096188885687 39.924390017842306 0.0 0.0
-1008.1947661717438 -78.2532128508155 -541.1411541129405 40.52954594043789 0.0 0.0
-930.4394726269813 -46.3719214436356 -485.8953381865599 40.572944575366165 0.0 0.0
-851.5963336977894 -18.213543062915022 -431.7590605698035 39.326609669469285 0.0 0.0
-773.5390158700292 3.6572902558680482 -380.5809277334339 36.4094854523231 0.0 0.0
-696.9951326104178 17.395666345805175 -331.1816792910865 32.93128129309715 0.0 0.0
-618.924285222646 23.196879356951953 -272.730388194214 31.496567830386375 0.0 0.0
-531.0991023165976 27.612432284066486 -192.2295432582348 38.33641118290567 0.0 0.0
-415.092624705581 19.473764662979217 -122.34075699290942 56.774266643713034 0.0 0.0
-271.78110724927853 -1.4517497302799165 -81.96985709386752 66.75119410080545 0.0 0.0
-132.00598189742308 -4.9410023383573485 -41.08409527073412 58.02245749441787 0.0 0.0
-31.43736903928798 -3.571148288823815 -10.50255519843354 20.107864860862392 0.0 0.0
-24.225985945122066 3.1820326506931265 -6.31318598832868 -3.465580576921513 0.0 0.0
-128.2445146673254 1.5854845948092642 -37.997709021754844 -23.467029807484774 0.0 0.0
-296.8831762487548 -1.6455028675711816 -89.55860373489779 -27.960173834525783 0.0 0.0
-454.53873188945585 21.412664705612876 -138.8817948428425 -22.519476356834197 0.0 0.0
-562.4616454072136 25.480865532660836 -217.01258244007764 -12.899840384423545 0.0 0.0
-642.7545385548858 22.016882053182528 -291.85631904898173 -10.614163300076816 0.0 0.0
-716.3492797985916 17.841620235717556 -342.7463837611815 -11.742083390802339 0.0 0.0
-791.9514053551432 4.232664545924536 -390.21373557528705 -14.02815941875099 0.0 0.0
-871.6939448317734 -19.240898686151297 -442.6672082464253 -16.03860020221369 0.0 0.0
-954.1030003890553 -50.40979852869748 -499.95087468062025 -17.213627151921088 0.0 0.0
-1036.611789946792 -86.23932703898441 -559.4855545505678 -17.670266171805277 0.0 0.0
-1118.0029984360413 -125.52859487699055 -620.0867696758974 -17.666175633498472 0.0 0.0
-1198.9674982854267 -167.92665609083645 -681.9440650550198 -17.409159368095075 0.0 0.0
-1280.7313169804138 -214.44277614768077 -746.2008233490631 -16.771636936906024 0.0 0.0
-1363.8216351852075 -265.7500589970241 -813.4807261354325 -15.49340200361693 0.0 0.0
-1447.2659997431933 -321.2572164830691 -883.0073008531182 -13.381831401212771 0.0 0.0
-1530.0638630766884 -380.8489078214353 -954.1878919723016 -11.300206570191019 0.0 0.0
-1620.729693787061 -454.6923046382239 -1036.300938797692 -14.06930194458162 0.0 0.0
-1752.7515328593472 -579.7567430580218 -1164.6503899681538 -30.070136529143856 0.0 0.0
-2061.3979477494872 -899.4896076614857 -1479.1892677783894 -59.46093529266446 0.0 0.0
-2061.3979477498733 -899.4896076618967 -1479.189267778665 59.460935292786495 0.0 0.0
-1752.7515328587283 -579.7567430574605 -1164.6503899674985 30.070136529201633 0.0 0.0
-1620.7296937860433 -454.69230463731185 -1036.3009387967013 14.069301944826748 0.0 0.0
-1530.0638630769486 -380.8489078218238 -954.1878919724016 11.300206570234621 0.0 0.0
-1447.2659997431172 -321.25721648312424 -883.0073008530865 13.38183140100641 0.0 0.0
-1363.8216351854223 -265.7500589974151 -813.4807261353831 15.493402003662766 0.0 0.0
-1280.731316978551 -214.44277614599616 -746.2008233476744 16.7716369370222 0.0 0.0
-1198.9674982827944 -167.9266560883951 -681.9440650532962 17.409159367949492 0.0 0.0
-1118.0029984356731 -125.52859487689157 -620.0867696756554 17.666175633650315 0.0 0.0
-1036.6117899462758 -86.2393270387252 -559.4855545502428 17.67026617179126 0.0 0.0
-954.1030003888337 -50.40979852877763 -499.95087468039094 17.213627151931334 0.0 0.0
-871.6939448323507 -19.24089868705684 -442.66720824676435 16.038600202280595 0.0 0.0
-791.9514053559055 4.232664544847367 -390.2137355757815 14.028159418712857 0.0 0.0
-716.3492797985384 17.841620235414652 -342.74638376116314 11.74208339087258 0.0 0.0
-642.7545385549528 22.016882052795722 -291.8563190489673 10.614163300030407 0.0 0.0
-562.4616454068076 25.480865532712702 -217.012582439748 12.89984038443852 0.0 0.0
-454.5387318893742 21.412664705318797 -138.88179484285115 22.519476356878833 0.0 0.0
-296.883176248661 -1.6455028677750043 -89.5586037349308 27.960173834670965 0.0 0.0
-128.24451466723568 1.5854845947135168 -37.99770902175665 23.467029807489048 0.0 0.0
-24.225985945090507 3.1820326506128627 -6.313185988343292 3.4655805769087022 0.0 0.0
SCALARS Strain float 6
LOOKUP_TABLE default
0.013873221915634826 -0.014946019623675588 0.0 -0.00836379724833769 0.0 0.0
0.0028574395370388923 -0.00199788351331065 0.0 0.0014254327413562584 0.0 0.0
0.0019366090883110934 -0.0008096796185133037 0.0 -3.317871177482834e-05 0.0 0.0
0.002617327785496379 -0.001372092688235238 0.0 -0.0002672393891346436 0.0 0.0
0.004517425792754343 -0.0029986657358231916 0.0 -0.0003641722959237814 0.0 0.0
0.008406645841186253 -0.0065880499128749825 0.0 -0.0005966428927010048 0.0 0.0
0.014792834777045492 -0.012712871333881992 0.0 -0.0009985912588232337 0.0 0.0
0.024118441778722226 -0.02176348217826085 0.0 -0.0016359341437264252 0.0 0.0
0.03659008686850597 -0.03392448344653909 0.0 -0.002526238616635923 0.0 0.0
0.052127634145298585 -0.04912081821137537 0.0 -0.003584141597509083 0.0 0.0
0.07046101235616803 -0.0670974429476443 0.0 -0.004677648882275398 0.0 0.0
0.09125533567651059 -0.08752777359643993 0.0 -0.005736302068059196 0.0 0.0
0.11415781841280966 -0.11006056191410174 0.0 -0.006764310019231667 0.0 0.0
0.13876060186207018 -0.1342836287833471 0.0 -0.007737572055788455 0.0 0.0
0.16448732892645165 -0.1596181984857994 0.0 -0.008582937452117245 0.0 0.0
0.19047641864556594 -0.185208140439312 0.0 -0.009114792841325492 0.0 0.0
0.21554611208374905 -0.20988546519334772 0.0 -0.009059919626716373 0.0 0.0
0.23824156542260447 -0.23220562142327505 0.0 -0.008255908163076864 0.0 0.0
0.25684041881664366 -0.250434713414462 0.0 -0.00738591155391477 0.0 0.0
0.2686131147742642 -0.2615622428095996 0.0 -0.009711050623399053 0.0 0.0
0.2686131147742482 -0.26156224280957385 0.0 0.009711050623408601 0.0 0.0
0.25684041881658753 -0.2504347134144025 0.0 0.007385911553950519 0.0 0.0
0.23824156542251207 -0.23220562142319245 0.0 0.008255908163092185 0.0 0.0
0.21554611208363234 -0.2098854651932438 0.0 0.009059919626722923 0.0 0.0
0.19047641864543546 -0.18520814043918232 0.0 0.009114792841308672 0.0 0.0
0.1644873289263178 -0.15961819848565906 0.0 0.008582937452116912 0.0 0.0
0.13876060186193578 -0.13428362878320854 0.0 0.007737572055785291 0.0 0.0
0.11415781841267741 -0.11006056191396851 0.0 0.00676431001922817 0.0 0.0
0.09125533567638416 -0.0875277735963178 0.0 0.0057363020680475385 0.0 0.0
0.07046101235605712 -0.06709744294753373 0.0 0.004677648882265406 0.0 0.0
0.05212763414520455 -0.049120818211287 0.0 0.0035841415974930957 0.0 0.0
0.03659008686843318 -0.0339244834464707 0.0 0.0025262386166324813 0.0 0.0
0.02411844177866912 -0.021763482178214222 0.0 0.0016359341437224284 0.0 0.0
0.014792834777010044 -0.012712871333850462 0.0 0.0009985912588198476 0.0 0.0
0.00840664584116435 -0.006588049912855221 0.0 0.0005966428926980627 0.0 0.0
0.004517425792745111 -0.0029986657358134217 0.0 0.00036417229592194955 0.0 0.0
0.0026173277854940613 -0.0013720926882330176 0.0 0.00026723938913375545 0.0 0.0
0.0019366090883097264 -0.0008096796185138588 0.0 3.3178711773107494e-05 0.0 0.0
0.0028574395370369876 -0.001997883513309595 0.0 -0.0014254327413549261 0.0 0.0
0.01387322191562329 -0.014946019623660538 0.0 0.008363797248298832 0.0 0.0
0.010032009996539755 -0.011480186682930438 0.0 -0.010272987083732421 0.0 0.0
0.0015152776667990905 -0.0009975802098030062 0.0 0.00012084659079369953 0.0 0.0
0.0016403652926979262 -0.000570019067346772 0.0 -0.00012374735736464526 0.0 0.0
0.00225736859368271 -0.0011146697455548527 0.0 -0.0005407562234663321 0.0 0.0
0.0037836636790893607 -0.0023648366167507984 0.0 -0.0007984015145373058 0.0 0.0
0.00713398746415643 -0.0053979985708256795 0.0 -0.0013629786402609145 0.0 0.0
0.012842715698629145 -0.01082330884048499 0.0 -0.0023515421725470165 0.0 0.0
0.021282412137266553 -0.018982457672902076 0.0 -0.003825109234436075 0.0 0.0
0.03257739297973452 -0.02997574326198338 0.0 -0.005778046508067125 0.0 0.0
0.04659591092689134 -0.04367280768237958 0.0 -0.00801609487444066 0.0 0.0
0.06306891593471092 -0.059815734829459455 0.0 -0.010293903957187545 0.0 0.0
0.0817106130262554 -0.07812310877460771 0.0 -0.01247976849596133 0.0 0.0
0.10224152687385676 -0.09831406553954114 0.0 -0.01461731097968122 0.0 0.0
0.12431963719854854 -0.12004483228071727 0.0 -0.016683527009876076 0.0 0.0
0.14745206806850714 -0.14282199619944969 0.0 -0.01850247627320195 0.0 0.0
0.17091299339388868 -0.1659221165065805 0.0 -0.01972027711107821 0.0 0.0
0.19368242798579646 -0.18832850425219316 0.0 -0.019846729157777854 0.0 0.0
0.21439628146777584 -0.20867310616892265 0.0 -0.018697515422742783 0.0 0.0
0.23113861704043076 -0.2249849661186909 0.0 -0.016867274573687863 0.0 0.0
0.24122008777878626 -0.23473771317368008 0.0 -0.014219195781375316 0.0 0.0
0.24122008777876996 -0.2347377131736632 0.0 0.014219195781408733 0.0 0.0
0.23113861704038008 -0.22498496611863494 0.0 0.016867274573744595 0.0 0.0
0.21439628146769363 -0.20867310616883739 0.0 0.018697515422777533 0.0 0.0
0.19368242798569507 -0.1883285042520928 0.0 0.019846729157793952 0.0 0.0
0.17091299339377408 -0.16592211650645972 0.0 0.019720277111060946 0.0 0.0
0.1474520680683865 -0.14282199619931646 0.0 0.018502476273197344 0.0 0.0
0.12431963719842748 -0.12004483228059915 0.0 0.016683527009872856 0.0 0.0
0.10224152687373866 -0.09831406553942434 0.0 0.014617310979675002 0.0 0.0
0.08171061302614319 -0.07812310877449757 0.0 0.012479768495943344 0.0 0.0
0.063068915934611 -0.059815734829356426 0.0 0.010293903957171446 0.0 0.0
0.04659591092680715 -0.04367280768229653 0.0 0.008016094874416568 0.0 0.0
0.032577392979669606 -0.029975743261919874 0.0 0.0057780465080592425 0.0 0.0
0.021282412137217932 -0.018982457672857223 0.0 0.0038251092344254722 0.0 0.0
0.01284271569859724 -0.010823308840454127 0.0 0.0023515421725415764 0.0 0.0
0.007133987464138236 -0.005397998570803475 0.0 0.0013629786402587496 0.0 0.0
0.0037836636790815614 -0.0023648366167428048 0.0 0.0007984015145371393 0.0 0.0
0.002257368593681086 -0.0011146697455537424 0.0 0.0005407562234653884 0.0 0.0
0.0016403652926976209 -0.0005700190673476602 0.0 0.0001237473573653114 0.0 0.0
0.0015152776667990975 -0.0009975802098011188 0.0 -0.0001208465907940881 0.0 0.0
0.010032009996524927 -0.011480186682913882 0.0 0.010272987083702001 0.0 0.0
0.007527758236376844 -0.009167740025202209 0.0 -0.009598167954338543 0.0 0.0
0.0008790714638920172 -0.0006557955333017507 0.0 -0.0006278210792561301 0.0 0.0
0.0013082181291355771 -0.0004105854327050018 0.0 -0.00044986623223586264 0.0 0.0
0.0019222661614673314 -0.0008793232965689235 0.0 -0.0007867175881931532 0.0 0.0
0.0031292922966447007 -0.0018277685367600327 0.0 -0.001146781221556148 0.0 0.0
0.0059154139162588965 -0.004280979768959137 0.0 -0.0019236207088805801 0.0 0.0
0.010908377128134514 -0.008961115812149867 0.0 -0.0033545012663613316 0.0 0.0
0.0184097688506851 -0.016178713158242708 0.0 -0.005499515123452259 0.0 0.0
0.028481734484875287 -0.025957408227634815 0.0 -0.008278734592975678 0.0 0.0
0.040951093980350795 -0.038125949424101524 0.0 -0.011418453240538362 0.0 0.0
0.05555249296315595 -0.052423307391181506 0.0 -0.014614267357277555 0.0 0.0
0.07203716360739407 -0.06860178021275143 0.0 -0.01769843668961707 0.0 0.0
0.09017832060082331 -0.08643343491514788 0.0 -0.020696409077113398 0.0 0.0
0.10970906712572079 -0.10565077270166423 0.0 -0.023607248658685465 0.0 0.0
0.13023967354535304 -0.12586423306168104 0.0 -0.02621817832205947 0.0 0.0
0.15118736437762026 -0.1464884337930643 0.0 -0.028056781811301335 0.0 0.0
0.1716843809137273 -0.16664901046755176 0.0 -0.02854785057583986 0.0 0.0
0.19043106215767402 -0.18502958612659715 0.0 -0.027336172106109724 0.0 0.0
0.2055569822119655 -0.1997974834096281 0.0 -0.023947802813531482 0.0 0.0
0.21496923053064254 -0.2089465119026066 0.0 -0.01728137712229172 0.0 0.0
0.21496923053062705 -0.20894651190258795 0.0 0.01728137712234412 0.0 0.0
0.20555698221191968 -0.19979748340959969 0.0 0.023947802813604424 0.0 0.0
0.19043106215760192 -0.18502958612653764 0.0 0.027336172106162904 0.0 0.0
0.17168438091363764 -0.16664901046746206 0.0 0.028547850575864286 0.0 0.0
0.15118736437752062 -0.1464884337929684 0.0 0.028056781811287568 0.0 0.0
0.13023967354524585 -0.12586423306157357 0.0 0.026218178322048313 0.0 0.0
0.1097090671256134 -0.10565077270156653 0.0 0.023607248658677582 0.0 0.0
0.09017832060071879 -0.08643343491504929 0.0 0.02069640907710657 0.0 0.0
0.07203716360729562 -0.06860178021265284 0.0 0.0176984366895927 0.0 0.0
0.05555249296306741 -0.052423307391099794 0.0 0.014614267357254351 0.0 0.0
0.0409510939802768 -0.03812594942402914 0.0 0.011418453240507609 0.0 0.0
0.0284817344848175 -0.025957408227581524 0.0 0.008278734592960135 0.0 0.0
0.018409768850641717 -0.016178713158201408 0.0 0.005499515123438492 0.0 0.0
0.010908377128106772 -0.008961115812118337 0.0 0.0033545012663517837 0.0 0.0
0.005915413916244228 -0.00428097976894426 0.0 0.001923620708874807 0.0 0.0
0.0031292922966386083 -0.0018277685367571461 0.0 0.0011467812215513185 0.0 0.0
0.0019222661614659575 -0.0008793232965673692 0.0 0.0007867175881917654 0.0 0.0
0.0013082181291360073 -0.0004105854327038916 0.0 0.00044986623223586264 0.0 0.0
0.0008790714638918784 -0.000655795533300918 0.0 0.0006278210792532435 0.0 0.0
0.007527758236362869 -0.009167740025187061 0.0 0.009598167954310455 0.0 0.0
0.005750234131568707 -0.007417673418182613 0.0 -0.00819442355075889 0.0 0.0
0.0005466063369413687 -0.0004878590947543504 0.0 -0.0012442828796220828 0.0 0.0
0.0010118763415023352 -0.00029859363396034233 0.0 -0.000897388835582158 0.0 0.0
0.0016091184729997016 -0.0006853646444744399 0.0 -0.0010606954628559762 0.0 0.0
0.0025522345670076357 -0.0013884871531364418 0.0 -0.0014392495387752224 0.0 0.0
0.004788221475855392 -0.0032782451226682774 0.0 -0.002305855884161989 0.0 0.0
0.009010063499027055 -0.0071613585816199254 0.0 -0.004017825316802337 0.0 0.0
0.015536958576627721 -0.013388283605273 0.0 -0.006653073650481844 0.0 0.0
0.02434758540772841 -0.021916611487660997 0.0 -0.010019961881230888 0.0 0.0
0.035242606578147276 -0.03253055729562693 0.0 -0.013799605974103013 0.0 0.0
0.047957823842724207 -0.044966912277963456 0.0 -0.01764360626088235 0.0 0.0
0.0622753864652984 -0.05900612944510453 0.0 -0.021379626175187627 0.0 0.0
0.07801891652715702 -0.07447092098494945 0.0 -0.02502529110582935 0.0 0.0
0.09498865881592958 -0.09116068252884535 0.0 -0.028529667472090514 0.0 0.0
0.11289630775564262 -0.10878927069311839 0.0 -0.031692205800041395 0.0 0.0
0.13130625064788548 -0.12691378002313058 0.0 -0.03408556908168614 0.0 0.0
0.14950728864287596 -0.14480721495810656 0.0 -0.035057388486116614 0.0 0.0
0.1663477574812698 -0.161318303583303 0.0 -0.03383841576029789 0.0 0.0
0.1802147854580848 -0.17486914268190468 0.0 -0.029226458267843314 0.0 0.0
0.18935896985739312 -0.18377691878001112 0.0 -0.01974456831904081 0.0 0.0
0.18935896985737874 -0.18377691878000224 0.0 0.019744568319102873 0.0 0.0
0.18021478545804362 -0.17486914268186649 0.0 0.02922645826792536 0.0 0.0
0.16634775748120714 -0.16131830358323018 0.0 0.03383841576035751 0.0 0.0
0.14950728864279805 -0.14480721495802573 0.0 0.03505738848614248 0.0 0.0
0.13130625064779833 -0.12691378002304088 0.0 0.0340855690816777 0.0 0.0
0.11289630775554893 -0.10878927069302513 0.0 0.03169220580002663 0.0 0.0
0.09498865881583701 -0.09116068252875564 0.0 0.028529667472079412 0.0 0.0
0.0780189165270661 -0.07447092098486419 0.0 0.025025291105816527 0.0 0.0
0.06227538646521252 -0.059006129445018374 0.0 0.02137962617516087 0.0 0.0
0.04795782384264857 -0.04496691227788574 0.0 0.017643606260856592 0.0 0.0
0.03524260657808348 -0.032530557295566975 0.0 0.01379960597407015 0.0 0.0
0.024347585407678174 -0.02191661148760682 0.0 0.010019961881213457 0.0 0.0
0.015536958576590043 -0.013388283605234363 0.0 0.0066530736504671895 0.0 0.0
0.009010063499003684 -0.007161358581594834 0.0 0.004017825316789847 0.0 0.0
0.004788221475843568 -0.003278245122656953 0.0 0.002305855884154273 0.0 0.0
0.0025522345670032087 -0.0013884871531320009 0.0 0.0014392495387729465 0.0 0.0
0.0016091184729987718 -0.0006853646444719974 0.0 0.0010606954628548104 0.0 0.0
0.0010118763415028487 -0.00029859363396100846 0.0 0.0008973888355805482 0.0 0.0
0.0005466063369413132 -0.000487859094752352 0.0 0.001244282879618308 0.0 0.0
0.005750234131556342 -0.007417673418168957 0.0 0.008194423550737906 0.0 0.0
0.004379000655435478 -0.005984355609092218 0.0 -0.0067316003512012945 0.0 0.0
0.00036339593063208775 -0.00038836495117466896 0.0 -0.0017246049860171753 0.0 0.0
0.0007674087080837694 -0.0002218181088478044 0.0 -0.0013509207154506764 0.0 0.0
0.0013176719652737146 -0.0005283857509410517 0.0 -0.0013694685035792187 0.0 0.0
0.0020489320670337985 -0.001040028621580813 0.0 -0.00170108012362008 0.0 0.0
0.0037720402855333512 -0.0024157659141044174 0.0 -0.0025710128975731106 0.0 0.0
0.007195730052196217 -0.005472237564642768 0.0 -0.0043633610569761005 0.0 0.0
0.012694663997484465 -0.010650857968959926 0.0 -0.007245766370472917 0.0 0.0
0.020218048190771734 -0.017897574545154615 0.0 -0.010997100557571915 0.0 0.0
0.029517275542200336 -0.026935300572030307 0.0 -0.015161144218582279 0.0 0.0
0.04033274391371282 -0.037496012893818875 0.0 -0.019394733538943554 0.0 0.0
0.05247226341722559 -0.04938572156562948 0.0 -0.02352113118871041 0.0 0.0
0.06580931734311667 -0.06247481638524732 0.0 -0.02755599537592468 0.0 0.0
0.08021175311528828 -0.0766306114025399 0.0 -0.031448458050557515 0.0 0.0
0.09547700896192327 -0.09165243662156186 0.0 -0.034969207709194206 0.0 0.0
0.111294543089799 -0.10722298373501449 0.0 -0.037741646261372996 0.0 0.0
0.12714395360360634 -0.12280800313257512 0.0 -0.03916450853878106 0.0 0.0
0.14214102370543488 -0.13751736752191235 0.0 -0.038171983253850406 0.0 0.0
0.15496833182541203 -0.15005927555311516 0.0 -0.03298873371392741 0.0 0.0
0.16409987606623797 -0.15895958827046197 0.0 -0.021803644643488274 0.0 0.0
0.1640998760662248 -0.1589595882704442 0.0 0.021803644643556663 0.0 0.0
0.15496833182537573 -0.15005927555307075 0.0 0.032988733714019225 0.0 0.0
0.1421410237053805 -0.1375173675218564 0.0 0.03817198325391824 0.0 0.0
0.12714395360354058 -0.12280800313251028 0.0 0.0391645085388066 0.0 0.0
0.11129454308972375 -0.10722298373494432 0.0 0.037741646261366446 0.0 0.0
0.09547700896184347 -0.09165243662147837 0.0 0.03496920770917966 0.0 0.0
0.08021175311521006 -0.07663061140246175 0.0 0.0314484580505463 0.0 0.0
0.06580931734303963 -0.06247481638517227 0.0 0.027555995375907694 0.0 0.0
0.052472263417153275 -0.04938572156556553 0.0 0.023521131188684374 0.0 0.0
0.04033274391364944 -0.037496012893758035 0.0 0.019394733538915743 0.0 0.0
0.029517275542146948 -0.026935300571974352 0.0 0.015161144218547307 0.0 0.0
0.020218048190728866 -0.017897574545111983 0.0 0.010997100557546657 0.0 0.0
0.012694663997453004 -0.010650857968930616 0.0 0.007245766370453044 0.0 0.0
0.007195730052176552 -0.0054722375646258925 0.0 0.004363361056965387 0.0 0.0
0.003772040285524414 -0.002415765914097534 0.0 0.0025710128975656166 0.0 0.0
0.0020489320670308286 -0.0010400286215790366 0.0 0.0017010801236179707 0.0 0.0
0.0013176719652730484 -0.0005283857509408296 0.0 0.0013694685035791632 0.0 0.0
0.0007674087080838388 -0.00022181810884858155 0.0 0.0013509207154500658 0.0 0.0
0.00036339593063194897 -0.00038836495117361425 0.0 0.0017246049860148438 0.0 0.0
0.00437900065542457 -0.005984355609080396 0.0 0.006731600351185696 0.0 0.0
0.0032844969039870497 -0.0047770942052774434 0.0 -0.005436918774526844 0.0 0.0
0.0002540287356781745 -0.0003191345208893859 0.0 -0.0020841611910382696 0.0 0.0
0.0005652213644226634 -0.00016495782028425054 0.0 -0.001748903180137984 0.0 0.0
0.0010408355724968732 -0.00039649228900739963 0.0 -0.0016855123033621133 0.0 0.0
0.0016127667764003761 -0.0007689982769287784 0.0 -0.0019530813359565635 0.0 0.0
0.0028681347699877346 -0.0017061758707694885 0.0 -0.002755905868679853 0.0 0.0
0.005514189890457738 -0.003955346454717734 0.0 -0.004500434036930179 0.0 0.0
0.009936424045955544 -0.00803354611201712 0.0 -0.0073597406811015675 0.0 0.0
0.016133110548362917 -0.013946758554835181 0.0 -0.01118871413888567 0.0 0.0
0.023821334025640767 -0.021389527756333848 0.0 -0.015494998216738276 0.0 0.0
0.032724788309526076 -0.030062634175079594 0.0 -0.019855026511309326 0.0 0.0
0.042678163218637266 -0.03979393388838437 0.0 -0.024114136388590834 0.0 0.0
0.05360080098430531 -0.050500305215585684 0.0 -0.0282915545307173 0.0 0.0
0.0654260304161243 -0.06211207195063295 0.0 -0.03232063313163036 0.0 0.0
0.07803126822548886 -0.07450606902089607 0.0 -0.03599372102281473 0.0 0.0
0.09120307277914305 -0.08747108950073557 0.0 -0.0389834863783628 0.0 0.0
0.10462033233700785 -0.10067506880289301 0.0 -0.040753125658489986 0.0 0.0
0.11774849569960016 -0.11356558060282129 0.0 -0.040219069848766664 0.0 0.0
0.1296382960167129 -0.12519708197708113 0.0 -0.03524547972650505 0.0 0.0
0.13893948849043403 -0.13425700858135237 0.0 -0.023517774774762135 0.0 0.0
0.13893948849042342 -0.13425700858134348 0.0 0.023517774774833855 0.0 0.0
0.12963829601668153 -0.12519708197705892 0.0 0.03524547972659908 0.0 0.0
0.11774849569955412 -0.11356558060278577 0.0 0.040219069848835165 0.0 0.0
0.10462033233695339 -0.10067506880283439 0.0 0.04075312565852052 0.0 0.0
0.09120307277908096 -0.08747108950067872 0.0 0.038983486378354026 0.0 0.0
0.07803126822542344 -0.07450606902083834 0.0 0.0359937210227983 0.0 0.0
0.06542603041605888 -0.06211207195057078 0.0 0.032320633131618814 0.0 0.0
0.053600800984243246 -0.05050030521552129 0.0 0.028291554530700314 0.0 0.0
0.04267816321857898 -0.03979393388832708 0.0 0.02411413638856641 0.0 0.0
0.032724788309474395 -0.03006263417503119 0.0 0.01985502651127935 0.0 0.0
0.023821334025596996 -0.021389527756292992 0.0 0.015494998216703415 0.0 0.0
0.016133110548328167 -0.013946758554800986 0.0 0.011188714138862466 0.0 0.0
0.009936424045930148 -0.008033546111990031 0.0 0.007359740681084026 0.0 0.0
0.005514189890442334 -0.0039553464547053 0.0 0.004500434036918521 0.0 0.0
0.0028681347699810456 -0.0017061758707648256 0.0 0.002755905868673969 0.0 0.0
0.0016127667763987108 -0.0007689982769261139 0.0 0.0019530813359549537 0.0 0.0
0.0010408355724964569 -0.00039649228900540123 0.0 0.0016855123033592267 0.0 0.0
0.0005652213644224968 -0.00016495782028336237 0.0 0.0017489031801347643 0.0 0.0
0.00025402873567809126 -0.0003191345208876095 0.0 0.002084161191034717 0.0 0.0
0.0032844969039784178 -0.0047770942052684055 0.0 0.005436918774514132 0.0 0.0
0.002404924991022961 -0.0037519646527541806 0.0 -0.004356138988589109 0.0 0.0
0.00018023974692163436 -0.000266115286721047 0.0 -0.0023387706391242435 0.0 0.0
0.0003900836495954185 -0.00011667981916541059 0.0 -0.0020662637543946705 0.0 0.0
0.0007715809919513206 -0.00027708669432691124 0.0 -0.0019831918437485663 0.0 0.0
0.0012241669312360037 -0.0005542019822715183 0.0 -0.002208240037434306 0.0 0.0
0.002082931199879706 -0.001143895889937907 0.0 -0.0028755817066753453 0.0 0.0
0.003983720710430294 -0.002646622729702397 0.0 -0.004430798016153148 0.0 0.0
0.007330384893810438 -0.005613483241399653 0.0 -0.0070692414897041145 0.0 0.0
0.012152333400982596 -0.010139080743487128 0.0 -0.010650219898048818 0.0 0.0
0.0182002843764881 -0.015947817590824975 0.0 -0.014776280288744115 0.0 0.0
0.025180452820688176 -0.02272069803651089 0.0 -0.019014546580595537 0.0 0.0
0.03294428769880167 -0.0302890579322157 0.0 -0.02314705574873266 0.0 0.0
0.041446507642285746 -0.03860698315083866 0.0 -0.027197412133620813 0.0 0.0
0.0506820159139188 -0.04766384949279612 0.0 -0.031136975007578505 0.0 0.0
0.060607148004507005 -0.057410951795777265 0.0 -0.03475376647053585 0.0 0.0
0.07109553323105569 -0.06772461956884346 0.0 -0.03771897680258751 0.0 0.0
0.08197961312152793 -0.07845042572226202 0.0 -0.03968566301055909 0.0 0.0
0.09310698927213695 -0.08940518172330414 0.0 -0.03982787798109788 0.0 0.0
0.10402186148340334 -0.10009581921301525 0.0 -0.035878303322500305 0.0 0.0
0.1136137431427729 -0.10942241688301291 0.0 -0.02487087777317243 0.0 0.0
0.1136137431427646 -0.10942241688301468 0.0 0.0248708777732376 0.0 0.0
0.10402186148337764 -0.10009581921299393 0.0 0.035878303322588456 0.0 0.0
0.09310698927210073 -0.08940518172326772 0.0 0.03982787798116749 0.0 0.0
0.08197961312148433 -0.0784504257222105 0.0 0.0396856630105934 0.0 0.0
0.07109553323100615 -0.06772461956879106 0.0 0.037718976802576076 0.0 0.0
0.06060714800445538 -0.057410951795723086 0.0 0.03475376647051509 0.0 0.0
0.050682015913868284 -0.04766384949274283 0.0 0.031136975007563406 0.0 0.0
0.04144650764223945 -0.03860698315079336 0.0 0.027197412133606935 0.0 0.0
0.03294428769875701 -0.030289057932168184 0.0 0.02314705574870979 0.0 0.0
0.025180452820647625 -0.022720698036472253 0.0 0.01901454658056756 0.0 0.0
0.018200284376454545 -0.015947817590789892 0.0 0.01477628028870992 0.0 0.0
0.012152333400956727 -0.010139080743464923 0.0 0.010650219898026725 0.0 0.0
0.007330384893790842 -0.005613483241382777 0.0 0.007069241489687128 0.0 0.0
0.003983720710419525 -0.002646622729692183 0.0 0.0044307980161431 0.0 0.0
0.002082931199875404 -0.0011438958899314677 0.0 0.0028755817066720146 0.0 0.0
0.0012241669312345604 -0.0005542019822728506 0.0 0.0022082400374339173 0.0 0.0
0.0007715809919514038 -0.0002770866943271333 0.0 0.0019831918437464013 0.0 0.0
0.000390083649595252 -0.00011667981916374526 0.0 0.0020662637543934492 0.0 0.0
0.0001802397469215511 -0.00026611528672015883 0.0 0.002338770639121912 0.0 0.0
0.0024049249910167436 -0.003751964652746794 0.0 0.004356138988578673 0.0 0.0
0.0017097301329950798 -0.0028957489674033 0.0 -0.003492819257275681 0.0 0.0
0.00011674038844916579 -0.0002216342538755578 0.0 -0.002493604474878397 0.0 0.0
0.00022920048180199992 -6.883648946787169e-05 0.0 -0.002302442145198591 0.0 0.0
0.0005066460224925351 -0.00016062354078161256 0.0 -0.0022349774130713262 0.0 0.0
0.000857223373347149 -0.00036955139978278595 0.0 -0.002451302363200125 0.0 0.0
0.0014100078741834943 -0.0007189551953081796 0.0 -0.0029982974536599816 0.0 0.0
0.002626813888345181 -0.0015838320600396472 0.0 -0.004232921508885545 0.0 0.0
0.004921027146580326 -0.0034681818298367695 0.0 -0.006421979135804334 0.0 0.0
0.008351710677092866 -0.006572017350789938 0.0 -0.009475876375155234 0.0 0.0
0.01271580941043926 -0.010695100254543899 0.0 -0.013061747639435684 0.0 0.0
0.017751064517725956 -0.015538864421347665 0.0 -0.0168390112645318 0.0 0.0
0.023320535327294445 -0.02093895535141943 0.0 -0.020575886738018023 0.0 0.0
0.029400579165458657 -0.026865547701057757 0.0 -0.024251481812866627 0.0 0.0
0.03603056712297939 -0.03335314625275654 0.0 -0.027840780085282013 0.0 0.0
0.0432500044588264 -0.04043150423013753 0.0 -0.031200121873597886 0.0 0.0
0.0510328901005733 -0.048069019885782716 0.0 -0.033983799421125616 0.0 0.0
0.05930659157186666 -0.056218269035726465 0.0 -0.035855400073277366 0.0 0.0
0.06818743252741424 -0.06501101184059 0.0 -0.03660739862558893 0.0 0.0
0.07789076954951077 -0.07455702692140154 0.0 -0.0345015018253263 0.0 0.0
0.08780629423842676 -0.08417356058780356 0.0 -0.0257550942960717 0.0 0.0
0.08780629423842001 -0.0841735605877938 0.0 0.025755094296132985 0.0 0.0
0.07789076954949287 -0.07455702692138377 0.0 0.03450150182541578 0.0 0.0
0.0681874325273874 -0.0650110118405669 0.0 0.03660739862565643 0.0 0.0
0.05930659157183352 -0.05621826903569893 0.0 0.03585540007330146 0.0 0.0
0.0510328901005363 -0.048069019885748965 0.0 0.033983799421110406 0.0 0.0
0.043250004458789654 -0.04043150423010555 0.0 0.031200121873581566 0.0 0.0
0.03603056712294439 -0.03335314625272723 0.0 0.0278407800852718 0.0 0.0
0.029400579165427543 -0.02686554770103644 0.0 0.024251481812854858 0.0 0.0
0.023320535327263303 -0.020938955351391453 0.0 0.020575886737995264 0.0 0.0
0.017751064517697368 -0.015538864421317466 0.0 0.016839011264504933 0.0 0.0
0.012715809410416001 -0.010695100254522139 0.0 0.013061747639403376 0.0 0.0
0.00835171067707502 -0.006572017350775283 0.0 0.009475876375133918 0.0 0.0
0.004921027146567447 -0.0034681818298261113 0.0 0.006421979135791456 0.0 0.0
0.002626813888338242 -0.001583832060033874 0.0 0.004232921508877996 0.0 0.0
0.0014100078741813848 -0.0007189551953075135 0.0 0.0029982974536528206 0.0 0.0
0.0008572233733459278 -0.0003695513997816757 0.0 0.002451302363197072 0.0 0.0
0.0005066460224923963 -0.00016062354078094643 0.0 0.002234977413067829 0.0 0.0
0.0002292004818021387 -6.88364894664284e-05 0.0 0.0023024421451946497 0.0 0.0
0.00011674038844899925 -0.00022163425387489166 0.0 0.0024936044748771202 0.0 0.0
0.0017097301329905834 -0.002895748967397473 0.0 0.00349281925727124 0.0 0.0
0.0011834219101438392 -0.0022081513417693266 0.0 -0.0028346352313711187 0.0 0.0
4.641841385480405e-05 -0.00018323316430690628 0.0 -0.0025688224186145026 0.0 0.0
7.338135594800455e-05 -1.5093958578127342e-05 0.0 -0.002462494909799773 0.0 0.0
0.0002472426405155381 -4.5110091809075215e-05 0.0 -0.002427187230562511 0.0 0.0
0.0004900096295799572 -0.00019232708699301604 0.0 -0.002658090791267831 0.0 0.0
0.0008168916886142352 -0.00039307020840917417 0.0 -0.00314214782483091 0.0 0.0
0.001462586490405371 -0.0007873599028060951 0.0 -0.004006936106777825 0.0 0.0
0.0027510469709585983 -0.0016988812944793708 0.0 -0.005522711162589622 0.0 0.0
0.004797776195970022 -0.003379723420165792 0.0 -0.007745624054836253 0.0 0.0
0.0074448217988051235 -0.005766638362649346 0.0 -0.010451711047313461 0.0 0.0
0.010501725755265506 -0.008636332932427049 0.0 -0.013417172206926287 0.0 0.0
0.013855557851252392 -0.011845376900829763 0.0 -0.016454911777563863 0.0 0.0
0.017509789904352563 -0.01537513551252978 0.0 -0.01951990427268191 0.0 0.0
0.02152515314136627 -0.019283177186705913 0.0 -0.022544287638950555 0.0 0.0
0.025998749534095783 -0.02365778955909903 0.0 -0.025448450165955427 0.0 0.0
0.03103447540180551 -0.028587931829263447 0.0 -0.02799823018329195 0.0 0.0
0.036689992214394285 -0.03412646428637789 0.0 -0.029728274888680573 0.0 0.0
0.04311816663842144 -0.04050303195650695 0.0 -0.03058616976713313 0.0 0.0
0.051040871795351966 -0.048425664406352986 0.0 -0.030465245572162125 0.0 0.0
0.06107030879849659 -0.05813897502446874 0.0 -0.025834517720691785 0.0 0.0
0.06107030879849218 -0.058138975024466966 0.0 0.02583451772074352 0.0 0.0
0.05104087179534239 -0.04842566440633078 0.0 0.030465245572240396 0.0 0.0
0.04311816663840279 -0.04050303195647853 0.0 0.030586169767189975 0.0 0.0
0.03668999221437272 -0.03412646428635657 0.0 0.029728274888694783 0.0 0.0
0.031034475401782863 -0.028587931829250124 0.0 0.027998230183278516 0.0 0.0
0.02599874953407491 -0.023657789559082154 0.0 0.025448450165942216 0.0 0.0
0.021525153141347037 -0.019283177186689926 0.0 0.022544287638940896 0.0 0.0
0.01750978990433602 -0.015375135512522231 0.0 0.019519904272678357 0.0 0.0
0.013855557851234712 -0.011845376900813331 0.0 0.01645491177754943 0.0 0.0
0.010501725755249602 -0.008636332932415947 0.0 0.013417172206903638 0.0 0.0
0.007444821798792078 -0.005766638362642684 0.0 0.010451711047290035 0.0 0.0
0.004797776195960335 -0.0033797234201569104 0.0 0.0077456240548232635 0.0 0.0
0.0027510469709519647 -0.0016988812944700449 0.0 0.005522711162580407 0.0 0.0
0.001462586490401624 -0.0007873599027992118 0.0 0.004006936106771497 0.0 0.0
0.000816891688613125 -0.00039307020840917417 0.0 0.0031421478248270795 0.0 0.0
0.0004900096295793743 -0.00019232708699323808 0.0 0.002658090791265666 0.0 0.0
0.00024724264051534384 -4.511009180685477e-05 0.0 0.0024271872305616227 0.0 0.0
7.338135594833761e-05 -1.5093958578682454e-05 0.0 0.0024624949097991067 0.0 0.0
4.641841385455425e-05 -0.0001832331643075169 0.0 0.0025688224186129482 0.0 0.0
0.0011834219101408139 -0.002208151341765611 0.0 0.0028346352313660117 0.0 0.0
0.0008019558534971549 -0.0016723955489448827 0.0 -0.0023410770875141873 0.0 0.0
-3.633001974073791e-05 -0.0001515264737080857 0.0 -0.0025894317795337463 0.0 0.0
-8.21396924201856e-05 4.758062453746881e-05 0.0 -0.002558709890080668 0.0 0.0
-5.667203807291354e-06 6.852882078711708e-05 0.0 -0.0025569153821378143 0.0 0.0
0.00011814680696201063 -1.1920029674428179e-05 0.0 -0.0027862607068877554 0.0 0.0
0.0002536784346600651 -0.00010949735384291337 0.0 -0.0032780063421278816 0.0 0.0
0.0004588934100952513 -0.00022856063682619165 0.0 -0.003936128488030766 0.0 0.0
0.0008634489000985124 -0.0004436108497141156 0.0 -0.004705754145105878 0.0 0.0
0.0015445800932324671 -0.0008496798183261767 0.0 -0.005812222225874075 0.0 0.0
0.0024359637869618977 -0.001484520823215263 0.0 -0.007426610066612382 0.0 0.0
0.003461757557799372 -0.002316416874530436 0.0 -0.00950870843442031 0.0 0.0
0.004568536010664287 -0.0032946700969036513 0.0 -0.011850789387156113 0.0 0.0
0.005776088379629035 -0.004407432107219833 0.0 -0.014357310567145731 0.0 0.0
0.007153371307092649 -0.005712756145665132 0.0 -0.0169901633009657 0.0 0.0
0.008841519556707311 -0.007338049171448979 0.0 -0.019693410166628622 0.0 0.0
0.01106787619764335 -0.009492587901375416 0.0 -0.02226905828478054 0.0 0.0
0.014107571712940137 -0.012426747270084526 0.0 -0.02420838282276927 0.0 0.0
0.018167040089471537 -0.01634713523971243 0.0 -0.024845855472966805 0.0 0.0
0.02374205108683486 -0.021984952106106626 0.0 -0.024959053930876496 0.0 0.0
0.03282515166064767 -0.031022434115902442 0.0 -0.024911949226201435 0.0 0.0
0.032825151660646784 -0.03102243411590777 0.0 0.024911949226241847 0.0 0.0
0.023742051086831556 -0.021984952106110178 0.0 0.02495905393094 0.0 0.0
0.018167040089462044 -0.0163471352397071 0.0 0.024845855473003664 0.0 0.0
0.014107571712932254 -0.012426747270079197 0.0 0.02420838282277138 0.0 0.0
0.011067876197637189 -0.009492587901362093 0.0 0.022269058284762333 0.0 0.0
0.0088415195567014 -0.007338049171444538 0.0 0.01969341016661197 0.0 0.0
0.007153371307089845 -0.005712756145667797 0.0 0.016990163300950933 0.0 0.0
0.00577608837962687 -0.004407432107210951 0.0 0.014357310567138626 0.0 0.0
0.004568536010661234 -0.003294670096897878 0.0 0.01185078938713946 0.0 0.0
0.003461757557796624 -0.002316416874525107 0.0 0.0095087084344041 0.0 0.0
0.0024359637869592887 -0.0014845208232134866 0.0 0.007426610066597172 0.0 0.0
0.0015445800932309406 -0.0008496798183244003 0.0 0.005812222225869412 0.0 0.0
0.0008634489000967915 -0.0004436108497123392 0.0 0.004705754145100882 0.0 0.0
0.00045889341009477946 -0.00022856063682752392 0.0 0.003936128488026824 0.0 0.0
0.00025367843465987083 -0.0001094973538415811 0.0 0.003278006342123385 0.0 0.0
0.00011814680696181634 -1.1920029671763643e-05 0.0 0.002786260706886312 0.0 0.0
-5.667203807291354e-06 6.852882078911549e-05 0.0 0.002556915382135483 0.0 0.0
-8.213969242004682e-05 4.758062453658063e-05 0.0 0.0025587098900780036 0.0 0.0
-3.6330019741126485e-05 -0.00015152647370852979 0.0 0.0025894317795325805 0.0 0.0
0.000801955853495212 -0.0016723955489425669 0.0 0.00234107708751069 0.0 0.0
0.0005328508425762324 -0.0012798767701101 0.0 -0.002020993881916233 0.0 0.0
-0.00012456906063820772 -0.00012317370525438687 0.0 -0.002581394279549565 0.0 0.0
-0.00023718554462742736 0.0001157450738185073 0.0 -0.0025959552540896214 0.0 0.0
-0.0002522612207518371 0.00017973247379110546 0.0 -0.002615007772417799 0.0 0.0
-0.0002512623907705569 0.00016848600353069898 0.0 -0.00282811643875136 0.0 0.0
-0.0003088560116661643 0.00017012355491408115 0.0 -0.003301085590578512 0.0 0.0
-0.0004824772065399052 0.0002465609291806281 0.0 -0.003952856605929367 0.0 0.0
-0.0008728120565309749 0.00045072066037077363 0.0 -0.00472037633154665 0.0 0.0
-0.0015458058856536172 0.000851918741151092 0.0 -0.005818897264007861 0.0 0.0
-0.0024363773533580824 0.0014873636341681262 0.0 -0.0074278218017206354 0.0 0.0
-0.003478904698127422 0.002337608984612327 0.0 -0.00951536849802681 0.0 0.0
-0.004633503119479798 0.0033579453224938938 0.0 -0.01186606986011396 0.0 0.0
-0.00588498129148185 0.004497458500531515 0.0 -0.014368126544379023 0.0 0.0
-0.007160924795078433 0.005674596599162918 0.0 -0.016985962671950183 0.0 0.0
-0.008275189269190075 0.006707232460358981 0.0 -0.019696927287999655 0.0 0.0
-0.008907729973766071 0.007286244551929499 0.0 -0.022438732213862944 0.0 0.0
-0.008609668148538807 0.006992945705461828 0.0 -0.025185986183480003 0.0 0.0
-0.007016657953561489 0.005589328375941172 0.0 -0.028051743247698213 0.0 0.0
-0.003743129741031942 0.0027841585300976135 0.0 -0.030663865509518162 0.0 0.0
0.0042881158865056 -0.004865018599331528 0.0 -0.030247276612223595 0.0 0.0
0.004288115886504906 -0.004865018599331528 0.0 0.03024727661224136 0.0 0.0
-0.003743129741031137 0.0027841585300940608 0.0 0.030663865509540256 0.0 0.0
-0.007016657953558186 0.005589328375931402 0.0 0.028051743247702654 0.0 0.0
-0.008609668148530203 0.006992945705455611 0.0 0.02518598618346901 0.0 0.0
-0.008907729973754386 0.007286244551922394 0.0 0.02243873221384296 0.0 0.0
-0.008275189269180333 0.006707232460342993 0.0 0.019696927287982335 0.0 0.0
-0.007160924795066692 0.005674596599149595 0.0 0.01698596267193664 0.0 0.0
-0.005884981291469277 0.0044974585005199685 0.0 0.014368126544367477 0.0 0.0
-0.0046335031194676135 0.0033579453224814593 0.0 0.01186606986009342 0.0 0.0
-0.003478904698116153 0.002337608984601225 0.0 0.00951536849800616 0.0 0.0
-0.0024363773533495614 0.0014873636341588004 0.0 0.007427821801704426 0.0 0.0
-0.0015458058856478718 0.0008519187411448748 0.0 0.005818897264003642 0.0 0.0
-0.0008728120565278386 0.00045072066037077363 0.0 0.004720376331542098 0.0 0.0
-0.00048247720653812887 0.00024656092918484696 0.0 0.003952856605924038 0.0 0.0
-0.00030885601166549814 0.00017012355491252684 0.0 0.0033010855905734604 0.0 0.0
-0.00025126239077052914 0.0001684860035318092 0.0 0.002828116438746864 0.0 0.0
-0.000252261220751393 0.00017973247379066137 0.0 0.0026150077724145238 0.0 0.0
-0.00023718554462745511 0.00011574507381828525 0.0 0.002595955254087623 0.0 0.0
-0.00012456906063854079 -0.00012317370525433136 0.0 0.0025813942795496203 0.0 0.0
0.0005328508425751222 -0.0012798767701091458 0.0 0.0020209938819148454 0.0 0.0
0.0003485670012599307 -0.0009973058218207265 0.0 -0.0018136852923247848 0.0 0.0
-0.00020702816008064118 -9.068875254458764e-05 0.0 -0.00253703318789833 0.0 0.0
-0.00038863436391339823 0.0001825574458158563 0.0 -0.0025790811080130815 0.0 0.0
-0.0004913326551854169 0.00028739838892888336 0.0 -0.0025966371601256477 0.0 0.0
-0.0006134953329577364 0.00034407905331623745 0.0 -0.002778364377339415 0.0 0.0
-0.0008721526018665993 0.00045573426767764325 0.0 -0.0032173727913127337 0.0 0.0
-0.001484973327952388 0.0008091414999822355 0.0 -0.004057659880176534 0.0 0.0
-0.002756521304618398 0.0017064957888215382 0.0 -0.005551115163719866 0.0 0.0
-0.004796300182814572 0.0033803723118563944 0.0 -0.007753380197482285 0.0 0.0
-0.007446370133330105 0.005771273841112645 0.0 -0.010454050707259355 0.0 0.0
-0.01052178494556355 0.008661728540148239 0.0 -0.01341736000283067 0.0 0.0
-0.013916220359071751 0.011909056474292523 0.0 -0.01643161844654839 0.0 0.0
-0.01760305996235842 0.015456167685397482 0.0 -0.01944738793390366 0.0 0.0
-0.021507634056712854 0.01921966656205587 0.0 -0.022454660564476092 0.0 0.0
-0.025413734422654738 0.022982149190315937 0.0 -0.02551067154607367 0.0 0.0
-0.02892509565819487 0.026358249744888873 0.0 -0.028660655688023673 0.0 0.0
-0.031504743876917374 0.02883603094556353 0.0 -0.0320140495514285 0.0 0.0
-0.032564065757806904 0.02982934105089008 0.0 -0.035454851073928095 0.0 0.0
-0.030966840527200723 0.027978922869473344 0.0 -0.03718092760407554 0.0 0.0
-0.023131830879276227 0.01976589531617723 0.0 -0.03527823977559652 0.0 0.0
-0.0231318308792777 0.019765895316174564 0.0 0.03527823977564315 0.0 0.0
-0.030966840527195727 0.027978922869463574 0.0 0.03718092760413749 0.0 0.0
-0.032564065757790694 0.02982934105088031 0.0 0.03545485107396673 0.0 0.0
-0.03150474387689242 0.0288360309455431 0.0 0.032014049551428614 0.0 0.0
-0.028925095658165895 0.02635824974486134 0.0 0.028660655688006464 0.0 0.0
-0.02541373442262926 0.022982149190291956 0.0 0.025510671546051356 0.0 0.0
-0.021507634056686736 0.019219666562038107 0.0 0.02245466056445866 0.0 0.0
-0.017603059962331052 0.015456167685378386 0.0 0.019447387933886895 0.0 0.0
-0.01391622035904494 0.011909056474272539 0.0 0.01643161844652119 0.0 0.0
-0.010521784945538237 0.008661728540123814 0.0 0.013417360002799805 0.0 0.0
-0.007446370133310343 0.005771273841097102 0.0 0.010454050707234375 0.0 0.0
-0.004796300182801139 0.003380372311844848 0.0 0.0077533801974666305 0.0 0.0
-0.0027565213046102377 0.0017064957888144328 0.0 0.0055511151637104295 0.0 0.0
-0.0014849733279480026 0.0008091414999811253 0.0 0.004057659880167874 0.0 0.0
-0.0008721526018644621 0.00045573426768275027 0.0 0.0032173727913080152 0.0 0.0
-0.000613495332957209 0.00034407905331468314 0.0 0.002778364377336029 0.0 0.0
-0.0004913326551845565 0.0002873983889255527 0.0 0.0025966371601232052 0.0 0.0
-0.00038863436391364803 0.0001825574458147461 0.0 0.002579081108009751 0.0 0.0
-0.0002070281600802526 -9.068875254414355e-05 0.0 0.0025370331878971086 0.0 0.0
0.0003485670012597364 -0.0009973058218200673 0.0 0.0018136852923251179 0.0 0.0
0.00022177380636129174 -0.0007668871074076322 0.0 -0.001617440450947083 0.0 0.0
-0.00027960012221950326 -5.303592663097323e-05 0.0 -0.002439401706222366 0.0 0.0
-0.0005328451541515289 0.0002444610564491523 0.0 -0.002504610079158587 0.0 0.0
-0.0007214301235667908 0.00038937281762629894 0.0 -0.0025057483311597406 0.0 0.0
-0.0009658369854225191 0.0005132043462774405 0.0 -0.0026446209253723763 0.0 0.0
-0.0014634029744036159 0.0007854775225248911 0.0 -0.0031207964043800107 0.0 0.0
-0.002642725626131881 0.0016060383177514126 0.0 -0.0042978030299857806 0.0 0.0
-0.004919161210152179 0.003470039976243733 0.0 -0.0064449099853027825 0.0 0.0
-0.00834878111336701 0.006570536297231477 0.0 -0.00947761581815254 0.0 0.0
-0.012720157378774188 0.010701731014483684 0.0 -0.013064400209045979 0.0 0.0
-0.017770102036654023 0.015561870209090056 0.0 -0.016828423865547948 0.0 0.0
-0.023363322278705523 0.02098475276672085 0.0 -0.02049721439355978 0.0 0.0
-0.02945417881618967 0.026910405646079383 0.0 -0.024044789029719182 0.0 0.0
-0.03597076277167127 0.03325505117399086 0.0 -0.02758229697743464 0.0 0.0
-0.04268109636679823 0.03978330568744237 0.0 -0.03134310473164137 0.0 0.0
-0.049122480416726066 0.04604530641666127 0.0 -0.03562451537979017 0.0 0.0
-0.05461292077829333 0.05136764155514317 0.0 -0.04054214188379068 0.0 0.0
-0.05811429742887653 0.05465677690562387 0.0 -0.0452018226767501 0.0 0.0
-0.05763918255347933 0.053891467923487646 0.0 -0.04747540515246418 0.0 0.0
-0.048955611356124334 0.04445485166634899 0.0 -0.04317316959930728 0.0 0.0
-0.048955611356122974 0.04445485166633567 0.0 0.04317316959936601 0.0 0.0
-0.057639182553468615 0.05389146792346544 0.0 0.04747540515254256 0.0 0.0
-0.05811429742885196 0.05465677690559012 0.0 0.04520182267680506 0.0 0.0
-0.054612920778254415 0.05136764155509965 0.0 0.04054214188379601 0.0 0.0
-0.049122480416682573 0.04604530641661597 0.0 0.03562451537977207 0.0 0.0
-0.04268109636675718 0.03978330568740418 0.0 0.03134310473161628 0.0 0.0
-0.03597076277162972 0.033255051173948225 0.0 0.027582296977413656 0.0 0.0
-0.029454178816148258 0.026910405646038082 0.0 0.02404478902970353 0.0 0.0
-0.023363322278664722 0.020984752766682213 0.0 0.020497214393532248 0.0 0.0
-0.017770102036615887 0.01556187020905675 0.0 0.01682842386551109 0.0 0.0
-0.012720157378743213 0.010701731014454818 0.0 0.013064400209011895 0.0 0.0
-0.0083487811133445 0.006570536297208385 0.0 0.009477615818132556 0.0 0.0
-0.004919161210138495 0.003470039976235295 0.0 0.006444909985291014 0.0 0.0
-0.002642725626124498 0.0016060383177463056 0.0 0.00429780302997651 0.0 0.0
-0.0014634029743994525 0.0007854775225220045 0.0 0.0031207964043751812 0.0 0.0
-0.0009658369854213811 0.0005132043462761082 0.0 0.0026446209253689346 0.0 0.0
-0.0007214301235659581 0.00038937281762541076 0.0 0.002505748331156854 0.0 0.0
-0.0005328451541513624 0.0002444610564492633 0.0 0.0025046100791562553 0.0 0.0
-0.00027960012221880937 -5.303592663197243e-05 0.0 0.0024394017062225326 0.0 0.0
0.00022177380636151378 -0.0007668871074073443 0.0 0.0016174404509448626 0.0 0.0
0.00012514598923424325 -0.0005640736702963167 0.0 -0.0014065980900777042 0.0 0.0
-0.0003440373173839162 -1.0402046501711837e-05 0.0 -0.0022865447003167505 0.0 0.0
-0.0006680519372582738 0.0003011138289328308 0.0 -0.0023772969840312186 0.0 0.0
-0.0009412189258616865 0.00048324175332870034 0.0 -0.0023510837957779196 0.0 0.0
-0.0013138149550825373 0.0006867465391668937 0.0 -0.002457876135507353 0.0 0.0
-0.002128141071493783 0.001208675499010603 0.0 -0.0030220556936046417 0.0 0.0
-0.0039872970961361 0.002660434092352837 0.0 -0.004487856168506721 0.0 0.0
-0.007322708229716257 0.005607778413283082 0.0 -0.007076327167275465 0.0 0.0
-0.012150953217132276 0.010138298725039796 0.0 -0.010648702890698192 0.0 0.0
-0.01820779916808224 0.01595658489415097 0.0 -0.014779291814066786 0.0 0.0
-0.02519340249582608 0.022735547354755248 0.0 -0.018992687608141767 0.0 0.0
-0.03295363445767907 0.030300241729042998 0.0 -0.023017962742107656 0.0 0.0
-0.041431361462000105 0.03858798153980825 0.0 -0.0268654939149513 0.0 0.0
-0.05056165072606039 0.047520662201404384 0.0 -0.030708564737581545 0.0 0.0
-0.06011440948639418 0.0568617544547676 0.0 -0.034925257983681846 0.0 0.0
-0.06956311648090813 0.06608256927120415 0.0 -0.03998600321484558 0.0 0.0
-0.07794449557579039 0.07421118933755544 0.0 -0.04589950404190324 0.0 0.0
-0.08362044408400421 0.07958772550928206 0.0 -0.051439785570046914 0.0 0.0
-0.08377609647804199 0.07929137677306919 0.0 -0.053621956609614774 0.0 0.0
-0.07322282058317034 0.06806800876524655 0.0 -0.0492351851933861 0.0 0.0
-0.0732228205831647 0.06806800876524122 0.0 0.04923518519345016 0.0 0.0
-0.08377609647802486 0.07929137677305853 0.0 0.05362195660969871 0.0 0.0
-0.08362044408397165 0.07958772550925453 0.0 0.05143978557010931 0.0 0.0
-0.07794449557574001 0.07421118933750837 0.0 0.04589950404191567 0.0 0.0
-0.06956311648085198 0.06608256927114642 0.0 0.0399860032148297 0.0 0.0
-0.060114409486337006 0.05686175445470809 0.0 0.03492525798365531 0.0 0.0
-0.050561650726003854 0.04752066220134221 0.0 0.030708564737558453 0.0 0.0
-0.04143136146194454 0.03858798153975673 0.0 0.026865493914931204 0.0 0.0
-0.03295363445762453 0.030300241728989263 0.0 0.023017962742078013 0.0 0.0
-0.025193402495775896 0.022735547354704178 0.0 0.01899268760810613 0.0 0.0
-0.01820779916804069 0.015956584894114556 0.0 0.014779291814029594 0.0 0.0
-0.012150953217100469 0.010138298725014483 0.0 0.010648702890671546 0.0 0.0
-0.0073227082296959956 0.005607778413266207 0.0 0.0070763271672600325 0.0 0.0
-0.003987297096124498 0.0026604340923450653 0.0 0.004487856168493731 0.0 0.0
-0.0021281410714879267 0.0012086754990079385 0.0 0.0030220556935994236 0.0 0.0
-0.0013138149550808165 0.0006867465391648953 0.0 0.002457876135506576 0.0 0.0
-0.0009412189258609371 0.00048324175332870034 0.0 0.002351083795778419 0.0 0.0
-0.0006680519372578853 0.00030111382893405203 0.0 0.0023772969840307745 0.0 0.0
-0.0003440373173836109 -1.0402046501323259e-05 0.0 0.0022865447003165285 0.0 0.0
0.00012514598923413223 -0.0005640736702957165 0.0 0.0014065980900768715 0.0 0.0
4.417910613402354e-05 -0.0003858340652911352 0.0 -0.0011883800202622807 0.0 0.0
-0.0004040485149359174 3.746912094482191e-05 0.0 -0.0020763995359568965 0.0 0.0
-0.0007938439310882228 0.0003526564046414382 0.0 -0.0021920341735935933 0.0 0.0
-0.0011493724560810437 0.000568329122274891 0.0 -0.002130901690433895 0.0 0.0
-0.0016757391657902798 0.0008809250608292629 0.0 -0.002227439472466175 0.0 0.0
-0.002896379157945772 0.001756225330722172 0.0 -0.002887979979444455 0.0 0.0
-0.005507020868856849 0.003956557981231956 0.0 -0.004531770850384476 0.0 0.0
-0.009927576263788374 0.008024844135692266 0.0 -0.007356954541977712 0.0 0.0
-0.0161350970144582 0.013948797866921048 0.0 -0.011186019184496465 0.0 0.0
-0.023830710774035646 0.021399007968982975 0.0 -0.015495460018372875 0.0 0.0
-0.03272654640500722 0.0300639934205309 0.0 -0.01981997823688264 0.0 0.0
-0.04264238415007893 0.03975838512498786 0.0 -0.02395094776242035 0.0 0.0
-0.05349582257979918 0.050397473989078456 0.0 -0.027888941607875917 0.0 0.0
-0.06522827013390853 0.061911218976475446 0.0 -0.03178505137136933 0.0 0.0
-0.07763320718181121 0.07407382757630998 0.0 -0.03607183718332507 0.0 0.0
-0.09009115916931087 0.08624962036666783 0.0 -0.041287104807908204 0.0 0.0
-0.10128873668626881 0.09711397755796636 0.0 -0.04747160355694313 0.0 0.0
-0.10892795016018086 0.10434207403776963 0.0 -0.05331421386198254 0.0 0.0
-0.10931626163826025 0.10422397695132624 0.0 -0.05616601431724089 0.0 0.0
-0.09696012812416419 0.09128861684440626 0.0 -0.054433053819445854 0.0 0.0
-0.0969601281241555 0.09128861684440093 0.0 0.05443305381950947 0.0 0.0
-0.10931626163823524 0.10422397695130314 0.0 0.056166014317321156 0.0 0.0
-0.1089279501601389 0.10434207403772788 0.0 0.05331421386204582 0.0 0.0
-0.10128873668620841 0.09711397755790951 0.0 0.04747160355696356 0.0 0.0
-0.09009115916924273 0.08624962036660566 0.0 0.04128710480789788 0.0 0.0
-0.07763320718173916 0.07407382757624159 0.0 0.03607183718330553 0.0 0.0
-0.06522827013383803 0.06191121897640972 0.0 0.03178505137134702 0.0 0.0
-0.053495822579729235 0.0503974739890114 0.0 0.027888941607853157 0.0 0.0
-0.042642384150010204 0.03975838512492347 0.0 0.023950947762388153 0.0 0.0
-0.03272654640494492 0.030063993420473167 0.0 0.019819978236846614 0.0 0.0
-0.023830710773984215 0.021399007968925687 0.0 0.015495460018337293 0.0 0.0
-0.016135097014418148 0.0139487978668833 0.0 0.011186019184473095 0.0 0.0
-0.009927576263761076 0.00802484413566873 0.0 0.007356954541961169 0.0 0.0
-0.005507020868840251 0.003956557981216191 0.0 0.0045317708503715415 0.0 0.0
-0.0028963791579379866 0.001756225330712402 0.0 0.0028879799794366834 0.0 0.0
-0.0016757391657874904 0.0008809250608268204 0.0 0.002227439472462789 0.0 0.0
-0.0011493724560804053 0.000568329122275113 0.0 0.00213090169043334 0.0 0.0
-0.0007938439310879036 0.00035265640464154924 0.0 0.002192034173591484 0.0 0.0
-0.0004040485149356676 3.7469120945266e-05 0.0 0.0020763995359531218 0.0 0.0
4.4179106134425994e-05 -0.00038583406529071884 0.0 0.0011883800202601713 0.0 0.0
-2.4643747122965465e-05 -0.00023295241556336999 0.0 -0.0009638566079999134 0.0 0.0
-0.00046155273214737447 8.924586128944423e-05 0.0 -0.0018136791468433833 0.0 0.0
-0.0009111831623311306 0.0003996316926480059 0.0 -0.0019496624892411107 0.0 0.0
-0.001349373423222222 0.0006509475678475596 0.0 -0.0018648297277634174 0.0 0.0
-0.0020750388894878458 0.0011199383034574684 0.0 -0.0019724875967760958 0.0 0.0
-0.003778689555624215 0.0024441173636511326 0.0 -0.0026837294317829663 0.0 0.0
-0.007184675695360299 0.0054651867095523166 0.0 -0.0043770762165680765 0.0 0.0
-0.012688765240386368 0.010644505336079302 0.0 -0.007235586846695119 0.0 0.0
-0.020223700993854232 0.01790275536470176 0.0 -0.010994694785763759 0.0 0.0
-0.029525801132210594 0.026942882298998327 0.0 -0.015157692852863947 0.0 0.0
-0.0403184592690492 0.03747950035799219 0.0 -0.019347346539909993 0.0 0.0
-0.05238728600415882 0.049299778931234606 0.0 -0.02334778784196012 0.0 0.0
-0.06561106029896036 0.062283504106346754 0.0 -0.027163580775645735 0.0 0.0
-0.07991867372596528 0.07635079439292003 0.0 -0.030894893479664454 0.0 0.0
-0.09511379934443881 0.09127647052361088 0.0 -0.034822771427134525 0.0 0.0
-0.11050392385438151 0.1063320500026741 0.0 -0.03949171384499173 0.0 0.0
-0.12443110597807389 0.119842650535265 0.0 -0.04522949527651465 0.0 0.0
-0.13392886059087794 0.1288444016595145 0.0 -0.05127639073704848 0.0 0.0
-0.134618844858596 0.1289987935274297 0.0 -0.05604452547035943 0.0 0.0
-0.12081698126472362 0.11466929979633189 0.0 -0.05918429238556211 0.0 0.0
-0.12081698126471208 0.11466929979632035 0.0 0.05918429238562739 0.0 0.0
-0.13461884485856343 0.12899879352738974 0.0 0.05604452547044281 0.0 0.0
-0.13392886059082648 0.12884440165945943 0.0 0.05127639073710655 0.0 0.0
-0.12443110597800278 0.11984265053519572 0.0 0.04522949527653397 0.0 0.0
-0.11050392385430122 0.10633205000258528 0.0 0.039491713844982734 0.0 0.0
-0.09511379934435282 0.09127647052352472 0.0 0.034822771427119315 0.0 0.0
-0.0799186737258807 0.0763507943928321 0.0 0.030894893479644747 0.0 0.0
-0.06561106029887588 0.06228350410626238 0.0 0.027163580775628027 0.0 0.0
-0.05238728600407666 0.049299778931156446 0.0 0.023347787841935252 0.0 0.0
-0.040318459268975246 0.03747950035792291 0.0 0.019347346539872468 0.0 0.0
-0.029525801132148685 0.0269428822989366 0.0 0.015157692852828586 0.0 0.0
-0.020223700993806618 0.017902755364654688 0.0 0.010994694785740111 0.0 0.0
-0.012688765240351924 0.010644505336042887 0.0 0.007235586846675024 0.0 0.0
-0.007184675695338802 0.005465186709528336 0.0 0.004377076216553477 0.0 0.0
-0.0037786895556139594 0.0024441173636413627 0.0 0.002683729431774251 0.0 0.0
-0.002075038889484057 0.001119938303455248 0.0 0.001972487596773098 0.0 0.0
-0.0013493734232213478 0.0006509475678460053 0.0 0.0018648297277609194 0.0 0.0
-0.0009111831623306171 0.0003996316926473398 0.0 0.0019496624892390013 0.0 0.0
-0.0004615527321470553 8.924586128905565e-05 0.0 0.001813679146842051 0.0 0.0
-2.4643747122507498e-05 -0.00023295241556323468 0.0 0.0009638566079991917 0.0 0.0
-8.056295815200842e-05 -0.00010774962535042842 0.0 -0.0007326409779985776 0.0 0.0
-0.0005155469824729697 0.0001423974881021861 0.0 -0.0015041949571604207 0.0 0.0
-0.0010220760203816792 0.00044309764359073966 0.0 -0.0016511122724338634 0.0 0.0
-0.001549915830821036 0.0007377126577541304 0.0 -0.001551186925314696 0.0 0.0
-0.0025330043941733105 0.0014202008314665449 0.0 -0.0016696902008296322 0.0 0.0
-0.004777705710838576 0.0032821594058562997 0.0 -0.0023834424089071438 0.0 0.0
-0.009001070321965232 0.007152989740496718 0.0 -0.00401536878531894 0.0 0.0
-0.015536973910286411 0.013387585815186842 0.0 -0.006640182724291455 0.0 0.0
-0.024356259299833927 0.02192436315842672 0.0 -0.01001762326021527 0.0 0.0
-0.035246732704049655 0.03253289082852451 0.0 -0.013791326313959629 0.0 0.0
-0.04792354554449818 0.044929586408812394 0.0 -0.017587841596604648 0.0 0.0
-0.06214511929476946 0.058874724611807316 0.0 -0.02122099947401701 0.0 0.0
-0.07774147349052346 0.07420172428116611 0.0 -0.02471028903764272 0.0 0.0
-0.09458367833801051 0.09077589983039402 0.0 -0.02805439613174121 0.0 0.0
-0.11244095547665278 0.10834092774287729 0.0 -0.03129782862496833 0.0 0.0
-0.13059011630794037 0.12611960569527625 0.0 -0.03479941624708238 0.0 0.0
-0.14715904028429938 0.14220089915855993 0.0 -0.03933822757780159 0.0 0.0
-0.1586445208902053 0.1531186198252774 0.0 -0.04551813904617752 0.0 0.0
-0.16005171857039813 0.1539430985551835 0.0 -0.05339759781461606 0.0 0.0
-0.14529184781787577 0.13866925196528435 0.0 -0.06348119594483614 0.0 0.0
-0.14529184781786095 0.13866925196526836 0.0 0.06348119594489332 0.0 0.0
-0.16005171857035955 0.1539430985551382 0.0 0.05339759781469011 0.0 0.0
-0.15864452089014403 0.1531186198252099 0.0 0.04551813904623048 0.0 0.0
-0.14715904028421678 0.14220089915847733 0.0 0.03933822757781358 0.0 0.0
-0.13059011630784711 0.12611960569518033 0.0 0.03479941624707328 0.0 0.0
-0.11244095547655375 0.10834092774278314 0.0 0.031297828624958446 0.0 0.0
-0.09458367833791118 0.0907758998303052 0.0 0.028054396131721893 0.0 0.0
-0.077741473490425 0.0742017242810693 0.0 0.024710289037624844 0.0 0.0
-0.062145119294674284 0.05887472461171628 0.0 0.021220999473994306 0.0 0.0
-0.04792354554441321 0.0449295864087329 0.0 0.017587841596570675 0.0 0.0
-0.03524673270397767 0.03253289082845745 0.0 0.013791326313927599 0.0 0.0
-0.024356259299778235 0.02192436315837698 0.0 0.010017623260193509 0.0 0.0
-0.01553697391024536 0.013387585815149539 0.0 0.006640182724273358 0.0 0.0
-0.009001070321939128 0.0071529897404691845 0.0 0.0040153687853059505 0.0 0.0
-0.004777705710824351 0.003282159405842089 0.0 0.002383442408900982 0.0 0.0
-0.0025330043941686614 0.001420200831462548 0.0 0.001669690200828855 0.0 0.0
-0.0015499158308199673 0.0007377126577527982 0.0 0.001551186925312975 0.0 0.0
-0.0010220760203807633 0.00044309764359018455 0.0 0.0016511122724336413 0.0 0.0
-0.0005155469824723313 0.0001423974881025747 0.0 0.001504194957159144 0.0 0.0
-8.056295815186965e-05 -0.00010774962535042669 0.0 0.0007326409779983556 0.0 0.0
-0.00012000400098749475 -1.3583147723650324e-05 0.0 -0.0004962645730777759 0.0 0.0
-0.0005617228391964213 0.00019310858055276992 0.0 -0.0011512660146004716 0.0 0.0
-0.0011284733267206692 0.00048322598633521174 0.0 -0.0012924485968631716 0.0 0.0
-0.0017645014609368737 0.0008411649699839874 0.0 -0.0011922061627236413 0.0 0.0
-0.0030666991797178023 0.001805922563697493 0.0 -0.0013124944537316052 0.0 0.0
-0.005895962267706778 0.004266749029535388 0.0 -0.001972525110784884 0.0 0.0
-0.010906570699760032 0.008958444215658279 0.0 -0.0033439707833245458 0.0 0.0
-0.018417061696997916 0.01618500669305689 0.0 -0.0054865445960784465 0.0 0.0
-0.028492070755662124 0.025966462505174537 0.0 -0.008276511072687343 0.0 0.0
-0.040947266787194125 0.038119883748374495 0.0 -0.01140626656588628 0.0 0.0
-0.055496369008773194 0.05236434004898616 0.0 -0.014558978771349262 0.0 0.0
-0.07187008383679655 0.06843415003505493 0.0 -0.017573719255194686 0.0 0.0
-0.0898429718402034 0.08610462041193845 0.0 -0.020485594924832262 0.0 0.0
-0.10918702003285374 0.10514505972058252 0.0 -0.023274408043951533 0.0 0.0
-0.12954911788340856 0.12518801904299082 0.0 -0.025699195323246826 0.0 0.0
-0.15016414205726636 0.14542188109682286 0.0 -0.027636933579972878 0.0 0.0
-0.16922403448590523 0.1639725173848321 0.0 -0.030136593641085785 0.0 0.0
-0.18306445950477734 0.1771523043988923 0.0 -0.035938247147975444 0.0 0.0
-0.1859280994741936 0.1793562396980004 0.0 -0.04771054241761086 0.0 0.0
-0.1709249084910417 0.16378969187205072 0.0 -0.0669568509143833 0.0 0.0
-0.1709249084910244 0.1637896918720383 0.0 0.06695685091443238 0.0 0.0
-0.1859280994741486 0.17935623969796222 0.0 0.0477105424176707 0.0 0.0
-0.18306445950470598 0.17715230439882124 0.0 0.03593824714802163 0.0 0.0
-0.16922403448581072 0.1639725173847424 0.0 0.030136593641093667 0.0 0.0
-0.1501641420571592 0.14542188109671805 0.0 0.027636933579964773 0.0 0.0
-0.1295491178832971 0.12518801904288424 0.0 0.025699195323240775 0.0 0.0
-0.10918702003274064 0.10514505972047417 0.0 0.0232744080439356 0.0 0.0
-0.08984297184009102 0.08610462041183364 0.0 0.020485594924816775 0.0 0.0
-0.07187008383668819 0.06843415003495146 0.0 0.017573719255176312 0.0 0.0
-0.05549636900867652 0.052364340048890234 0.0 0.014558978771320952 0.0 0.0
-0.04094726678711294 0.038119883748293226 0.0 0.011406266565857082 0.0 0.0
-0.02849207075559832 0.02596646250511192 0.0 0.008276511072668635 0.0 0.0
-0.018417061696950343 0.016185006693009818 0.0 0.005486544596060794 0.0 0.0
-0.010906570699729251 0.00895844421563008 0.0 0.003343970783315664 0.0 0.0
-0.005895962267689181 0.0042667490295218435 0.0 0.0019725251107786668 0.0 0.0
-0.0030666991797117446 0.0018059225636937182 0.0 0.001312494453727664 0.0 0.0
-0.001764501460935257 0.0008411649699828772 0.0 0.001192206162721532 0.0 0.0
-0.0011284733267195243 0.0004832259863335464 0.0 0.0012924485968641708 0.0 0.0
-0.0005617228391959009 0.00019310858055338054 0.0 0.0011512660145999165 0.0 0.0
-0.00012000400098761965 -1.358314772342134e-05 0.0 0.0004962645730773318 0.0 0.0
-0.00013607628996553656 4.505414491207116e-05 0.0 -0.00026140224319209926 0.0 0.0
-0.0005909922630740749 0.00023493010405972736 0.0 -0.0007542919474288201 0.0 0.0
-0.0012337731260114726 0.0005233676978628754 0.0 -0.0008677655233128023 0.0 0.0
-0.002013944070405449 0.000978024836334912 0.0 -0.0007903616554568171 0.0 0.0
-0.003689220515473046 0.0022977880888908064 0.0 -0.000899461335736651 0.0 0.0
-0.007113292291030748 0.005376376702909136 0.0 -0.001386342947369723 0.0 0.0
-0.012851273614171932 0.01082971132306021 0.0 -0.002338505197438445 0.0 0.0
-0.021296862358248847 0.01899593705155178 0.0 -0.0038152510619314794 0.0 0.0
-0.032587484671722344 0.029984346797059303 0.0 -0.005775144667291787 0.0 0.0
-0.04658183120349618 0.04365641773897977 0.0 -0.00800335156788734 0.0 0.0
-0.06299148865571474 0.05973631038943861 0.0 -0.010250685307144458 0.0 0.0
-0.08151509500809073 0.07792769281298062 0.0 -0.012400042097296393 0.0 0.0
-0.10186438032112538 0.09794031057566954 0.0 -0.014501226641172371 0.0 0.0
-0.12368355520603058 0.11941464779746269 0.0 -0.01648347193473354 0.0 0.0
-0.1464279954428499 0.14180110900512055 0.0 -0.0180198110967158 0.0 0.0
-0.16919245154740276 0.1641797287620541 0.0 -0.018637218635129127 0.0 0.0
-0.19035502505424406 0.18487334526180454 0.0 -0.01872853587319212 0.0 0.0
-0.2067838484394064 0.20065559049387804 0.0 -0.022103009264592632 0.0 0.0
-0.21254356867058952 0.2054839386368954 0.0 -0.03715355792174513 0.0 0.0
-0.19850029007141023 0.19076525410462786 0.0 -0.06874243847439487 0.0 0.0
-0.19850029007139117 0.19076525410460832 0.0 0.06874243847443406 0.0 0.0
-0.2125435686705379 0.20548393863684833 0.0 0.0371535579217922 0.0 0.0
-0.20678384843932496 0.20065559049380077 0.0 0.022103009264626494 0.0 0.0
-0.19035502505413587 0.18487334526169974 0.0 0.01872853587320028 0.0 0.0
-0.16919245154728124 0.1641797287619413 0.0 0.018637218635125796 0.0 0.0
-0.1464279954427261 0.1418011090049971 0.0 0.018019811096718963 0.0 0.0
-0.12368355520590452 0.11941464779733835 0.0 0.016483471934724436 0.0 0.0
-0.1018643803209984 0.09794031057554475 0.0 0.0145012266411646 0.0 0.0
-0.08151509500796969 0.07792769281286294 0.0 0.012400042097287844 0.0 0.0
-0.0629914886556066 0.05973631038933558 0.0 0.010250685307125806 0.0 0.0
-0.046581831203406185 0.04365641773889184 0.0 0.008003351567867523 0.0 0.0
-0.03258748467165016 0.029984346796989136 0.0 0.0057751446672833495 0.0 0.0
-0.021296862358195473 0.018995937051500267 0.0 0.0038152510619225977 0.0 0.0
-0.012851273614136079 0.010829711323024682 0.0 0.0023385051974336712 0.0 0.0
-0.007113292291010299 0.005376376702890484 0.0 0.0013863429473648936 0.0 0.0
-0.003689220515464345 0.002297788088882813 0.0 0.0008994613357364845 0.0 0.0
-0.002013944070403492 0.0009780248363324695 0.0 0.0007903616554548187 0.0 0.0
-0.0012337731260101716 0.0005233676978633195 0.0 0.0008677655233104709 0.0 0.0
-0.0005909922630734782 0.000234930104060449 0.0 0.0007542919474274323 0.0 0.0
-0.0001360762899655539 4.5054144912463207e-05 0.0 0.0002614022431912111 0.0 0.0
-0.000116433199719157 6.171892115364175e-05 0.0 -4.505254749997967e-05 0.0 0.0
-0.0005866042366962088 0.0002572907585076667 0.0 -0.0003050713874973021 0.0 0.0
-0.0013476097213400706 0.0005714351556376229 0.0 -0.0003634822598488352 0.0 0.0
-0.0023234916871945344 0.0011794759631411633 0.0 -0.00034655686279283504 0.0 0.0
-0.004401924710320859 0.002893937985691597 0.0 -0.00039838378248641115 0.0 0.0
-0.008393255205802197 0.006568067254700827 0.0 -0.0005959435682965641 0.0 0.0
-0.014812948610013366 0.01273044052336525 0.0 -0.0009923918227002226 0.0 0.0
-0.024138119324963847 0.02178225437219483 0.0 -0.001629573970644116 0.0 0.0
-0.03659830915862483 0.03393110505509611 0.0 -0.00252203861415623 0.0 0.0
-0.05210289628183462 0.04909396893463791 0.0 -0.0035760831220599254 0.0 0.0
-0.07036460718212234 0.06699993383904967 0.0 -0.004657704535507956 0.0 0.0
-0.09103628654181056 0.08730904981583265 0.0 -0.005705379868948146 0.0 0.0
-0.1137425081767468 0.1096448317378842 0.0 -0.00671518735146559 0.0 0.0
-0.1380054401276497 0.13352269029469532 0.0 -0.00760707297758989 0.0 0.0
-0.16308761788813314 0.15820151304749785 0.0 -0.00817450973420919 0.0 0.0
-0.18783443158434054 0.18253137055018165 0.0 -0.0080150751363528 0.0 0.0
-0.21057961710383488 0.204849415778094 0.0 -0.006784919033574255 0.0 0.0
-0.22893810720020286 0.22271466132575668 0.0 -0.006170959918630814 0.0 0.0
-0.23875513095147657 0.23176081361970535 0.0 -0.01702228946911466 0.0 0.0
-0.23022168714487287 0.22134153349849406 0.0 -0.06336434486072184 0.0 0.0
-0.23022168714485208 0.22134153349847097 0.0 0.06336434486073939 0.0 0.0
-0.23875513095141962 0.23176081361965206 0.0 0.017022289469140972 0.0 0.0
-0.2289381072001098 0.22271466132566964 0.0 0.006170959918649355 0.0 0.0
-0.21057961710371198 0.20484941577796967 0.0 0.006784919033573367 0.0 0.0
-0.18783443158420368 0.18253137055004487 0.0 0.008015075136345029 0.0 0.0
-0.16308761788799672 0.1582015130473602 0.0 0.008174509734209467 0.0 0.0
-0.13800544012751015 0.13352269029456565 0.0 0.007607072977586504 0.0 0.0
-0.11374250817660532 0.1096448317377563 0.0 0.006715187351459151 0.0 0.0
-0.09103628654167678 0.08730904981570031 0.0 0.005705379868946314 0.0 0.0
-0.0703646071820025 0.06699993383893199 0.0 0.004657704535497187 0.0 0.0
-0.05210289628173666 0.049093968934540655 0.0 0.0035760831220503775 0.0 0.0
-0.03659830915854542 0.03393110505501307 0.0 0.0025220386141519002 0.0 0.0
-0.024138119324904585 0.021782254372130883 0.0 0.0016295739706385648 0.0 0.0
-0.014812948609973188 0.012730440523324615 0.0 0.0009923918226982242 0.0 0.0
-0.008393255205778874 0.006568067254676624 0.0 0.0005959435682940661 0.0 0.0
-0.004401924710309734 0.002893937985682049 0.0 0.000398383782485745 0.0 0.0
-0.00232349168719209 0.0011794759631382767 0.0 0.0003465568627930571 0.0 0.0
-0.0013476097213392466 0.0005714351556365127 0.0 0.0003634822598507226 0.0 0.0
-0.0005866042366956137 0.00025729075850705607 0.0 0.0003050713874973576 0.0 0.0
-0.00011643319971885689 6.1718921153215e-05 0.0 4.5052547499813134e-05 0.0 0.0
SCALARS Statev float 8
LOOKUP_TABLE default
0.0 0.015333341788125003 0.01194020972401717 -0.012319700078984072 0.0003794903549669054 -0.006915597566512003 0.0 0.0
0.0 0.001174181862176989 0.0008652495749177876 -0.0007585659159350185 -0.00010668365898276891 0.0007258119469587758 0.0 0.0
0.0 4.856152080871536e-05 9.645420931485378e-06 -7.2231065588844496e-06 -2.422314372600957e-06 -7.894816047248338e-07 0.0 0.0
0.0 0.0004900483449267533 0.00039460026241756283 -0.0003156911692636286 -7.890909315393438e-05 -5.734325088472505e-05 0.0 0.0
0.0 0.002356903047038176 0.001984060869629335 -0.0016900384043737947 -0.0002940224652555401 -0.0002125252571787629 0.0 0.0
0.0 0.006249576668100392 0.005599238491111642 -0.005072723796836594 -0.0005265146942750501 -0.00045841895556465885 0.0 0.0
0.0 0.013249339272087969 0.01169950430719316 -0.011034508122736458 -0.0006649961844566951 -0.0008441383706887857 0.0 0.0
0.0 0.023666596467319303 0.02073836214593843 -0.01996914553174807 -0.0007692166141903552 -0.00145300458932675 0.0 0.0
0.0 0.037739771551913576 0.032925185345505203 -0.03204872613210624 -0.0008764592133989603 -0.0023175024957032206 0.0 0.0
0.0 0.055385168462532164 0.048183176934335464 -0.04719087546177889 -0.0009923014725565765 -0.0033597998980600344 0.0 0.0
0.0 0.07631961767857397 0.06624621780389452 -0.06513343122359451 -0.0011127865802999916 -0.00444719905852139 0.0 0.0
0.0 0.09987305538838925 0.08678233781981193 -0.08554705830072945 -0.0012352795190824551 -0.005505838040637171 0.0 0.0
0.0 0.12594331949880827 0.10943591851925262 -0.10807658560035655 -0.0013593329188959623 -0.0065360551451846445 0.0 0.0
0.0 0.15405362913948462 0.1337968107138888 -0.1323103341395806 -0.0014864765743081276 -0.0075138363069211025 0.0 0.0
0.0 0.18347296018943277 0.15928787601799002 -0.1576702571908079 -0.0016176188271819852 -0.008368179000698124 0.0 0.0
0.0 0.2132421913292979 0.18504974408294325 -0.1832987295042563 -0.0017510145786870403 -0.008916018066006181 0.0 0.0
0.0 0.24196884551301262 0.2099065506433836 -0.20802445381766654 -0.0018820968257171398 -0.008884971451770354 0.0 0.0
0.0 0.2679611404471554 0.23240863812334506 -0.23040127739978583 -0.002007360723559068 -0.008106310877435442 0.0 0.0
0.0 0.2892420007891626 0.25083235697123374 -0.24870196757702767 -0.002130389394205944 -0.007235029300145789 0.0 0.0
0.0 0.3024193017766024 0.262360673826943 -0.2600172637943429 -0.002343410032600042 -0.00945419627050876 0.0 0.0
0.0 0.30241930177657866 0.2623606738269225 -0.2600172637943218 -0.0023434100326008376 0.009454196270519433 0.0 0.0
0.0 0.28924200078909634 0.2508323569711759 -0.24870196757697016 -0.002130389394205652 0.0072350293001780825 0.0 0.0
0.0 0.2679611404470545 0.23240863812325666 -0.2304012773996998 -0.0020073607235567676 0.008106310877452231 0.0 0.0
0.0 0.24196884551288556 0.20990655064327288 -0.20802445381755727 -0.001882096825715621 0.008884971451777786 0.0 0.0
0.0 0.21324219132914773 0.18504974408281374 -0.18329872950412635 -0.0017510145786874733 0.008916018065992832 0.0 0.0
0.0 0.18347296018927517 0.15928787601785382 -0.1576702571906711 -0.0016176188271827354 0.008368179000695555 0.0 0.0
0.0 0.15405362913932752 0.13379681071375304 -0.1323103341394446 -0.0014864765743083934 0.0075138363069202985 0.0 0.0
0.0 0.12594331949865545 0.1094359185191202 -0.10807658560022473 -0.0013593329188954758 0.006536055145182619 0.0 0.0
0.0 0.09987305538824633 0.08678233781968782 -0.0855470583006065 -0.0012352795190812655 0.005505838040626716 0.0 0.0
0.0 0.0763196176784471 0.06624621780378404 -0.06513343122348508 -0.001112786580298961 0.004447199058512893 0.0 0.0
0.0 0.055385168462427345 0.04818317693424473 -0.04719087546168889 -0.0009923014725558407 0.0033597998980459836 0.0 0.0
0.0 0.03773977155183346 0.03292518534543518 -0.032048726132036784 -0.0008764592133984159 0.002317502495700442 0.0 0.0
0.0 0.023666596467263445 0.020738362145889054 -0.019969145531699442 -0.0007692166141896113 0.0014530045893223558 0.0 0.0
0.0 0.013249339272050941 0.011699504307160147 -0.011034508122704227 -0.000664996184455913 0.0008441383706866781 0.0 0.0
0.0 0.006249576668078014 0.005599238491091427 -0.00507272379681714 -0.0005265146942742895 0.00045841895556265644 0.0 0.0
0.0 0.0023569030470275065 0.001984060869620392 -0.00169003840436568 -0.0002940224652547119 0.0002125252571776531 0.0 0.0
0.0 0.000490048344923997 0.0003946002624159868 -0.0003156911692623236 -7.890909315366303e-05 5.7343250884449605e-05 0.0 0.0
0.0 4.85615208081549e-05 9.645420931520198e-06 -7.2231065589098606e-06 -2.4223143726102903e-06 7.894816046989924e-07 0.0 0.0
0.0 0.0011741818621741988 0.0008652495749163237 -0.0007585659159336547 -0.00010668365898266976 -0.0007258119469565448 0.0 0.0
0.0 0.015333341788105252 0.011940209724004199 -0.012319700078970087 0.0003794903549658825 0.006915597566478154 0.0 0.0
0.0 0.011615747347196222 0.00847211055083422 -0.008970739444353865 0.0004986288935196473 -0.00815191798371541 0.0 0.0
0.0 4.778506393828207e-05 3.882351369823937e-05 -3.5842841689690323e-05 -2.9806720085490288e-06 2.495210165880127e-05 0.0 0.0
0.0 1.2529170724999464e-06 6.405107094297719e-07 -4.853399840992098e-07 -1.5517072533056362e-07 -2.2136737033502638e-07 0.0 0.0
0.0 0.00022780664565024962 0.00018118800543537997 -0.00014351376907039825 -3.7674236364981866e-05 -6.186217360275396e-05 0.0 0.0
0.0 0.0016466624597782772 0.0013512024691173363 -0.0011321392361649378 -0.000219063232952399 -0.00035724921779228304 0.0 0.0
0.0 0.004923518875236247 0.004413347847323187 -0.003942192237655103 -0.0004711556096680838 -0.0009547428087408084 0.0 0.0
0.0 0.011147245261479234 0.0098293007458402 -0.009193693307526372 -0.0006356074383138275 -0.0019206766547776087 0.0 0.0
0.0 0.020568039463971663 0.017980606486684897 -0.017232808171853138 -0.0007477983148317631 -0.0033511076641006016 0.0 0.0
0.0 0.03331288567937513 0.028995077239237114 -0.028141430899605295 -0.0008536463396318049 -0.005266657152361824 0.0 0.0
0.0 0.0492325381067123 0.04274284513354509 -0.0417793147785888 -0.0009635303549562896 -0.007487430529302386 0.0 0.0
0.0 0.06801657224671247 0.05895717247598276 -0.05788179376685179 -0.0010753787091309687 -0.009764819346004636 0.0 0.0
0.0 0.08937586634417843 0.07735175649095814 -0.07616366857555781 -0.001188087915400277 -0.011958240183615939 0.0 0.0
0.0 0.11269240816496551 0.09764655345170564 -0.09634422329584802 -0.0013023301558576393 -0.014106595101410208 0.0 0.0
0.0 0.13786605500698232 0.11949605054721657 -0.11807725139465022 -0.001418799152566381 -0.016186973204587066 0.0 0.0
0.0 0.16432086566575216 0.14240677096222298 -0.1408690340539906 -0.0015377369082323908 -0.018027288881005007 0.0 0.0
0.0 0.19114019131487409 0.16565429473209428 -0.16399590035653022 -0.0016583943755640721 -0.019278408209117196 0.0 0.0
0.0 0.21715807160082323 0.18822090327881655 -0.1864412630637091 -0.0017796402151074658 -0.019449248812567165 0.0 0.0
0.0 0.24081929991388684 0.2087434936762862 -0.20684082216307909 -0.001902671513207005 -0.01834018164485989 0.0 0.0
0.0 0.2598850250151618 0.22529152124257548 -0.2232459508328989 -0.002045570409676476 -0.016521042010715442 0.0 0.0
0.0 0.2713127621967477 0.23523479919847523 -0.23308005467537485 -0.0021547445231004615 -0.013851059078235896 0.0 0.0
0.0 0.2713127621967292 0.2352347991984588 -0.2330800546753583 -0.0021547445231006237 0.013851059078267811 0.0 0.0
0.0 0.2598850250151017 0.22529152124252272 -0.2232459508328455 -0.0020455704096771876 0.01652104201076896 0.0 0.0
0.0 0.24081929991379125 0.20874349367620276 -0.20684082216299554 -0.0019026715132070045 0.01834018164489603 0.0 0.0
0.0 0.21715807160070733 0.18822090327871543 -0.1864412630636092 -0.0017796402151060231 0.01944924881258274 0.0 0.0
0.0 0.19114019131473786 0.16565429473197668 -0.16399590035641304 -0.0016583943755634715 0.019278408209103558 0.0 0.0
0.0 0.1643208656656061 0.14240677096209697 -0.14086903405386406 -0.0015377369082328679 0.018027288880997507 0.0 0.0
0.0 0.13786605500684473 0.11949605054709728 -0.11807725139453154 -0.0014187991525657026 0.01618697320458288 0.0 0.0
0.0 0.11269240816483048 0.09764655345158862 -0.09634422329573145 -0.0013023301558571592 0.014106595101404204 0.0 0.0
0.0 0.08937586634405048 0.07735175649084743 -0.07616366857544754 -0.0011880879153998425 0.011958240183598898 0.0 0.0
0.0 0.06801657224659588 0.058957172475882134 -0.05788179376675104 -0.0010753787091310957 0.009764819345989762 0.0 0.0
0.0 0.049232538106616194 0.04274284513346208 -0.04177931477850603 -0.0009635303549560309 0.0074874305292812185 0.0 0.0
0.0 0.03331288567930257 0.02899507723917352 -0.02814143089954222 -0.0008536463396312914 0.005266657152353187 0.0 0.0
0.0 0.020568039463918913 0.017980606486638812 -0.017232808171807466 -0.0007477983148313516 0.003351107664091071 0.0 0.0
0.0 0.011147245261444623 0.009829300745809578 -0.00919369330749632 -0.0006356074383132521 0.001920676654771661 0.0 0.0
0.0 0.004923518875214156 0.004413347847303876 -0.003942192237636694 -0.0004711556096671823 0.0009547428087364687 0.0 0.0
0.0 0.0016466624597693761 0.0013512024691103052 -0.001132139236158629 -0.00021906323295167583 0.00035724921779025623 0.0 0.0
0.0 0.00022780664564880796 0.0001811880054346948 -0.00014351376906983988 -3.7674236364854825e-05 6.186217360258126e-05 0.0 0.0
0.0 1.2529170723585975e-06 6.405107095061248e-07 -4.853399841547842e-07 -1.5517072535134288e-07 2.2136737034853737e-07 0.0 0.0
0.0 4.778506393774451e-05 3.882351369811925e-05 -3.584284168951894e-05 -2.980672008600306e-06 -2.4952101658618414e-05 0.0 0.0
0.0 0.011615747347173125 0.008472110550819145 -0.008970739444338146 0.0004986288935189899 0.008151917983687081 0.0 0.0
0.0 0.00894943422476859 0.006192357125174855 -0.00673214962244946 0.0005397924972746042 -0.007264879848386373 0.0 0.0
0.0 0.0 0.0 0.0 0.0 0.0 0.0 0.0
0.0 0.0 0.0 0.0 0.0 0.0 0.0 0.0
0.0 6.56946487757763e-05 5.597762199106693e-05 -4.401250336431962e-05 -1.1965118626747327e-05 -3.507474997528308e-05 0.0 0.0
0.0 0.001011570199243107 0.0008388991875088079 -0.0006915013105772668 -0.00014739787693154074 -0.00039031458522935874 0.0 0.0
0.0 0.0038693327036586917 0.003291793627506023 -0.0028924947182601074 -0.0003992989092459141 -0.0012255738204958245 0.0 0.0
0.0 0.009115830625693303 0.007992275807809956 -0.007394601381730006 -0.0005976744260799516 -0.0026423122721806543 0.0 0.0
0.0 0.01749359127448325 0.015205141665984884 -0.014484644181721063 -0.0007204974842638102 -0.004737199238529952 0.0 0.0
0.0 0.028899717142052188 0.02500030968927309 -0.024174235695411016 -0.0008260739938620782 -0.007472958941039077 0.0 0.0
0.0 0.04309934178937204 0.037207368216919334 -0.03627752411529572 -0.0009298441016236125 -0.010596577834074273 0.0 0.0
0.0 0.0598028517948347 0.051560578206400115 -0.05052727694834943 -0.0010333012580506782 -0.013797464855969646 0.0 0.0
0.0 0.07862851737047281 0.06781033622268504 -0.06667354560809051 -0.0011367906145945033 -0.016896388749536716 0.0 0.0
0.0 0.09948226260851042 0.0857264782642629 -0.08448547001028342 -0.0012410082539794655 -0.019912412166419445 0.0 0.0
0.0 0.12171812806578813 0.10504211128515448 -0.10369580620432317 -0.00134630508083123 -0.022846637580021034 0.0 0.0
0.0 0.14515528187948837 0.12536524190306117 -0.12391259235440186 -0.0014526495486593084 -0.025490244702448945 0.0 0.0
0.0 0.1690990467080802 0.14611236102424863 -0.1445514762822317 -0.001560884742016993 -0.02737500598145241 0.0 0.0
0.0 0.1924627211392545 0.16641516044380833 -0.16474200015531734 -0.0016731602884909932 -0.02792310274638103 0.0 0.0
0.0 0.21374377321712368 0.1849712406120851 -0.18317621095633024 -0.001795029655754884 -0.026766251344161694 0.0 0.0
0.0 0.23083016211864685 0.19992614353715799 -0.19801198451352958 -0.0019141590236282666 -0.02342914652439497 0.0 0.0
0.0 0.2413400441141896 0.20921918562119238 -0.20721755837350617 -0.0020016272476859414 -0.016820662740931757 0.0 0.0
0.0 0.24134004411417107 0.20921918562117525 -0.2072175583734894 -0.0020016272476858473 0.01682066274098217 0.0 0.0
0.0 0.23083016211860666 0.1999261435371197 -0.19801198451349394 -0.0019141590236258317 0.02342914652446602 0.0 0.0
0.0 0.2137437732170501 0.18497124061201908 -0.1831762109562651 -0.001795029655753767 0.026766251344214204 0.0 0.0
0.0 0.19246272113915258 0.1664151604437197 -0.1647420001552276 -0.0016731602884923202 0.027923102746401203 0.0 0.0
0.0 0.16909904670796722 0.146112361024151 -0.14455147628213427 -0.0015608847420166094 0.027375005981442112 0.0 0.0
0.0 0.1451552818793647 0.12536524190295428 -0.12391259235429498 -0.0014526495486592884 0.02549024470243929 0.0 0.0
0.0 0.12171812806567016 0.10504211128505153 -0.10369580620422167 -0.0013463050808298664 0.022846637580015407 0.0 0.0
0.0 0.09948226260839393 0.08572647826416165 -0.08448547001018297 -0.0012410082539786342 0.01991241216641164 0.0 0.0
0.0 0.07862851737035874 0.067810336222587 -0.0666735456079927 -0.0011367906145943662 0.016896388749514483 0.0 0.0
0.0 0.059802851794736815 0.05156057820631516 -0.05052727694826524 -0.001033301258049892 0.01379746485594969 0.0 0.0
0.0 0.043099341789287385 0.03720736821684641 -0.036277524115223336 -0.0009298441016230527 0.010596577834047596 0.0 0.0
0.0 0.02889971714198878 0.02500030968921795 -0.024174235695356455 -0.000826073993861481 0.007472958941024998 0.0 0.0
0.0 0.01749359127443535 0.015205141665943158 -0.014484644181680004 -0.0007204974842631471 0.0047371992385169415 0.0 0.0
0.0 0.009115830625660206 0.00799227580778114 -0.0073946013817017195 -0.0005976744260794176 0.0026423122721712707 0.0 0.0
0.0 0.0038693327036417114 0.0032917936274918717 -0.002892494718246927 -0.0003992989092449441 0.0012255738204900216 0.0 0.0
0.0 0.001011570199237455 0.000838899187504498 -0.0006915013105735893 -0.0001473978769309087 0.00039031458522723213 0.0 0.0
0.0 6.569464877494272e-05 5.5977621990857754e-05 -4.401250336414422e-05 -1.1965118626713568e-05 3.507474997512351e-05 0.0 0.0
0.0 0.0 0.0 0.0 0.0 0.0 0.0 0.0
0.0 0.0 0.0 0.0 0.0 0.0 0.0 0.0
0.0 0.008949434224747237 0.006192357125160265 -0.006732149622434333 0.000539792497274063 0.007264879848362242 0.0 0.0
0.0 0.00682084748615812 0.004539147564939812 -0.005060888143697928 0.0005217405787581154 -0.005834934837454163 0.0 0.0
0.0 0.0 0.0 0.0 0.0 0.0 0.0 0.0
0.0 0.0 0.0 0.0 0.0 0.0 0.0 0.0
0.0 1.4022785044256031e-05 9.237570061798711e-06 -7.255251483591364e-06 -1.98231857820733e-06 -9.546372797100025e-06 0.0 0.0
0.0 0.0005563414415351896 0.0004514116157533667 -0.0003672571142361053 -8.415450151726115e-05 -0.00033320039757319254 0.0 0.0
0.0 0.0027731706737723506 0.002302184054351449 -0.001985947138175014 -0.0003162369161764363 -0.00129586389340635 0.0 0.0
0.0 0.0072259347465202664 0.006213941819379834 -0.0056707388041996026 -0.0005432030151802313 -0.0030162419339110126 0.0 0.0
0.0 0.014478690370636359 0.012449840558662769 -0.011763408232727271 -0.0006864323259355001 -0.005604377726600792 0.0 0.0
0.0 0.024506949353828546 0.020987764825088295 -0.02019524527286671 -0.0007925195522215973 -0.008928388065246968 0.0 0.0
0.0 0.036965623216856855 0.03162804113793095 -0.030737215477225504 -0.0008908256607054021 -0.012695437198545122 0.0 0.0
0.0 0.05155759462983114 0.04410509097796005 -0.04311877918450603 -0.0009863117934540144 -0.01654991650241282 0.0 0.0
0.0 0.06800550054072163 0.05819855650246371 -0.05711783923367536 -0.001080717268788346 -0.020306819220961968 0.0 0.0
0.0 0.0860808383746931 0.0737296873730997 -0.07255486125953045 -0.0011748261135692498 -0.023978124337808195 0.0 0.0
0.0 0.10558960638929783 0.09049635439468674 -0.08922721383452381 -0.0012691405601629444 -0.027514202306697908 0.0 0.0
0.0 0.12614829981097425 0.10820994070943449 -0.10684701943333821 -0.0013629212760962598 -0.03071848630419926 0.0 0.0
0.0 0.14701507984932008 0.12643309265263797 -0.12497459151790669 -0.001458501134731231 -0.033166411052073255 0.0 0.0
0.0 0.16773105996475599 0.14444891280871433 -0.14288778613781405 -0.0015611266709002107 -0.03420349540237846 0.0 0.0
0.0 0.18676112639520087 0.16110926483413926 -0.15943842632552868 -0.0016708385086104528 -0.033058413644216 0.0 0.0
0.0 0.20224590910425752 0.1748158090744077 -0.17303970543320418 -0.0017761036412034976 -0.028540908240481045 0.0 0.0
0.0 0.21223913564922417 0.18384439488207466 -0.18198972239876335 -0.0018546724833114646 -0.01918654502572358 0.0 0.0
0.0 0.21223913564921262 0.1838443948820628 -0.181989722398752 -0.0018546724833109658 0.019186545025786296 0.0 0.0
0.0 0.20224590910421592 0.17481580907436808 -0.1730397054331646 -0.0017761036412033892 0.028540908240563663 0.0 0.0
0.0 0.18676112639512674 0.16110926483407204 -0.1594384263254612 -0.0016708385086107744 0.03305841364427342 0.0 0.0
0.0 0.16773105996466658 0.14444891280863528 -0.1428877861377353 -0.0015611266708999757 0.03420349540240104 0.0 0.0
0.0 0.14701507984921836 0.12643309265254998 -0.12497459151781883 -0.0014585011347311434 0.033166411052064124 0.0 0.0
0.0 0.12614829981086628 0.10820994070934135 -0.10684701943324543 -0.0013629212760958725 0.030718486304184354 0.0 0.0
0.0 0.1055896063891931 0.09049635439459597 -0.08922721383443331 -0.0012691405601626597 0.027514202306686796 0.0 0.0
0.0 0.0860808383745921 0.07372968737301182 -0.07255486125944338 -0.0011748261135684304 0.02397812433779553 0.0 0.0
0.0 0.06800550054062218 0.05819855650237808 -0.057117839233590276 -0.0010807172687878055 0.020306819220935725 0.0 0.0
0.0 0.05155759462974268 0.04410509097788408 -0.04311877918443045 -0.0009863117934536074 0.016549916502386013 0.0 0.0
0.0 0.03696562321678431 0.0316280411378692 -0.03073721547716464 -0.0008908256607045356 0.012695437198514624 0.0 0.0
0.0 0.024506949353768927 0.020987764825037097 -0.020195245272815965 -0.0007925195522211363 0.008928388065227187 0.0 0.0
0.0 0.014478690370592979 0.012449840558625632 -0.011763408232690563 -0.0006864323259350642 0.005604377726584115 0.0 0.0
0.0 0.007225934746492463 0.006213941819356181 -0.00567073880417676 -0.0005432030151794204 0.0030162419339005387 0.0 0.0
0.0 0.0027731706737581926 0.0023021840543404753 -0.0019859471381648845 -0.0003162369161755903 0.001295863893399724 0.0 0.0
0.0 0.000556341441530492 0.0004514116157501468 -0.0003672571142334447 -8.415450151670217e-05 0.00033320039757114904 0.0 0.0
0.0 1.40227850433733e-05 9.237570061705421e-06 -7.2552514835115114e-06 -1.9823185781939027e-06 9.546372796976767e-06 0.0 0.0
0.0 0.0 0.0 0.0 0.0 0.0 0.0 0.0
0.0 0.0 0.0 0.0 0.0 0.0 0.0 0.0
0.0 0.006820847486139505 0.004539147564927405 -0.005060888143684943 0.000521740578757536 0.005834934837435223 0.0 0.0
0.0 0.005054260283636795 0.003251653228653405 -0.0037191380571139935 0.00046748482846058995 -0.004411376963882229 0.0 0.0
0.0 0.0 0.0 0.0 0.0 0.0 0.0 0.0
0.0 0.0 0.0 0.0 0.0 0.0 0.0 0.0
0.0 2.511988505030503e-06 1.589261963556915e-06 -1.227605508939097e-06 -3.6165645461781723e-07 -2.388706184291445e-06 0.0 0.0
0.0 0.0002659956423777126 0.0001998907623987491 -0.00016136474803057552 -3.85260143681736e-05 -0.00022572875647297217 0.0 0.0
0.0 0.0018299169340436413 0.0014700539702267885 -0.0012441760819868028 -0.00022587788823998534 -0.0012106208637746834 0.0 0.0
0.0 0.005548124361572334 0.004545856557866005 -0.0040761987503869345 -0.00046965780747906967 -0.003055763828370332 0.0 0.0
0.0 0.011599225897213527 0.009749389644867571 -0.009108979761033616 -0.0006404098838339512 -0.005911725784231799 0.0 0.0
0.0 0.020162617261469014 0.01700323401956526 -0.016251232703020903 -0.0007520013165443736 -0.009628104137224373 0.0 0.0
0.0 0.03086998421781808 0.02605446383431911 -0.02520878290516343 -0.0008456809291556768 -0.013784915019391643 0.0 0.0
0.0 0.04335216821035169 0.03664091654966333 -0.03570716864890077 -0.0009337479007625745 -0.018035001543459675 0.0 0.0
0.0 0.05734988368546639 0.048567808209817036 -0.04754885224047019 -0.0010189559693468274 -0.022188096502201434 0.0 0.0
0.0 0.07278570409139304 0.061704254681193116 -0.060601245685653775 -0.0011030089955393581 -0.02625448147890018 0.0 0.0
0.0 0.08929667957751374 0.07591670070559775 -0.0747303542789104 -0.0011863464266873686 -0.030187218719133838 0.0 0.0
0.0 0.10686127952017824 0.09100080961861506 -0.08973239880253273 -0.001268410816082337 -0.03375763015048017 0.0 0.0
0.0 0.12508121884620657 0.10664362951563287 -0.10529232455514806 -0.0013513049604847067 -0.03658883592256657 0.0 0.0
0.0 0.1429595815179225 0.12232207753211179 -0.12088247602293796 -0.0014396015091737943 -0.038082852236225005 0.0 0.0
0.0 0.15975552412747646 0.13715016571895572 -0.13561471721852625 -0.0015354485004293772 -0.0371812759723533 0.0 0.0
0.0 0.17389274308684735 0.14982141443249294 -0.1481909666468393 -0.001630447785653589 -0.032131006319183725 0.0 0.0
0.0 0.18364632353992066 0.1588309699397014 -0.15712375048226795 -0.0017072194574332253 -0.02113523285550545 0.0 0.0
0.0 0.18364632353990565 0.1588309699396864 -0.15712375048225224 -0.0017072194574339768 0.02113523285557302 0.0 0.0
0.0 0.1738927430868068 0.1498214144324535 -0.14819096664679884 -0.0016304477856546385 0.03213100631927198 0.0 0.0
0.0 0.1597555241274186 0.13715016571890082 -0.13561471721847168 -0.001535448500429107 0.0371812759724191 0.0 0.0
0.0 0.1429595815178501 0.12232207753204624 -0.1208824760228734 -0.001439601509172805 0.03808285223625104 0.0 0.0
0.0 0.12508121884612322 0.10664362951556018 -0.10529232455507623 -0.001351304960483976 0.036588835922558766 0.0 0.0
0.0 0.10686127952008417 0.09100080961853374 -0.08973239880245194 -0.0012684108160818863 0.03375763015046424 0.0 0.0
0.0 0.0892966795774241 0.07591670070551962 -0.07473035427883354 -0.0011863464266861463 0.03018721871912128 0.0 0.0
0.0 0.07278570409130578 0.061704254681117406 -0.060601245685578134 -0.0011030089955392215 0.02625448147888559 0.0 0.0
0.0 0.05734988368538702 0.048567808209749 -0.047548852240402784 -0.0010189559693462049 0.022188096502176367 0.0 0.0
0.0 0.043352168210279284 0.03664091654960189 -0.03570716864883986 -0.0009337479007620275 0.018035001543430327 0.0 0.0
0.0 0.030869984217752833 0.026054463834264935 -0.025208782905109854 -0.0008456809291551012 0.013784915019357125 0.0 0.0
0.0 0.020162617261418846 0.017003234019523028 -0.016251232702978916 -0.000752001316544103 0.009628104137201672 0.0 0.0
0.0 0.011599225897177396 0.009749389644837575 -0.009108979761004193 -0.0006404098838333819 0.005911725784213849 0.0 0.0
0.0 0.005548124361550582 0.004545856557848317 -0.00407619875037017 -0.00046965780747814875 0.0030557638283596725 0.0 0.0
0.0 0.0018299169340337729 0.0014700539702193433 -0.001244176081980325 -0.00022587788823901774 0.0012106208637687513 0.0 0.0
0.0 0.0002659956423751654 0.0001998907623973956 -0.0001613647480294506 -3.8526014367944934e-05 0.0002257287564713899 0.0 0.0
0.0 2.511988504960733e-06 1.5892619637491712e-06 -1.2276055090887583e-06 -3.616564546604101e-07 2.3887061845935987e-06 0.0 0.0
0.0 0.0 0.0 0.0 0.0 0.0 0.0 0.0
0.0 0.0 0.0 0.0 0.0 0.0 0.0 0.0
0.0 0.005054260283621167 0.0032516532286431827 -0.0037191380571030973 0.00046748482845991265 0.004411376963867367 0.0 0.0
0.0 0.0035677024104932946 0.0022301764297672426 -0.0026195089228683677 0.00038933249310112443 -0.0031721173940329884 0.0 0.0
0.0 7.761818097908707e-08 -1.6545393973634885e-09 1.4170477556670242e-09 2.3749164169630387e-10 1.5147987326691532e-08 0.0 0.0
0.0 0.0 0.0 0.0 0.0 0.0 0.0 0.0
0.0 1.280770808259817e-06 -6.589870094707455e-08 5.1059967525528736e-08 1.4838733421543324e-08 1.5788058530397406e-07 0.0 0.0
0.0 0.00012164347540732882 7.543189226630913e-05 -6.0678852862024375e-05 -1.475303940428472e-05 -0.000128440101746756 0.0 0.0
0.0 0.0010840082170694995 0.0008255028447229943 -0.0006867205621576527 -0.00013878228256534151 -0.0009983041175730247 0.0 0.0
0.0 0.003870143286347469 0.0030635781019877524 -0.002689583098321511 -0.0003739950036662426 -0.0028594656639956786 0.0 0.0
0.0 0.008853596694426012 0.007168090981401497 -0.00659444023863597 -0.0005736507427655243 -0.0057340015469924295 0.0 0.0
0.0 0.015946856325975037 0.013091905302628363 -0.012391098566468835 -0.0007008067361595242 -0.009547287651834949 0.0 0.0
0.0 0.02483752305596086 0.020537799533394973 -0.019744887839453662 -0.0007929116939412997 -0.013856895265006256 0.0 0.0
0.0 0.035174044064825466 0.029221552779665916 -0.028347620840978693 -0.0008739319386872309 -0.018239932441487285 0.0 0.0
0.0 0.04674179379127939 0.03897335554767096 -0.0380229233568334 -0.0009504321908375728 -0.022531344273105255 0.0 0.0
0.0 0.05942454997636338 0.049708372324529265 -0.04868415545127889 -0.0010242168732503617 -0.0267457016820334 0.0 0.0
0.0 0.07313481159180873 0.061355735551686885 -0.06025910526733145 -0.0010966302843554256 -0.030820697803386296 0.0 0.0
0.0 0.08773955739068157 0.07379116534036581 -0.07262304324225129 -0.0011681220981145754 -0.034550805871112214 0.0 0.0
0.0 0.10271574317480703 0.0868035202081757 -0.08556563021379941 -0.0012378899943762808 -0.03760499679670306 0.0 0.0
0.0 0.11807886895154496 0.1000652112533056 -0.0987558688487802 -0.0013093424045253843 -0.03944747782001872 0.0 0.0
0.0 0.13281007246641846 0.11303688326678472 -0.11164836903838318 -0.0013885142284015212 -0.039013402591955536 0.0 0.0
0.0 0.14556797803834146 0.1247721160563145 -0.12329774844860046 -0.001474367607713955 -0.03420205301831023 0.0 0.0
0.0 0.15527369022787674 0.13393636584839547 -0.132382072083624 -0.0015542937647713354 -0.022716593058391486 0.0 0.0
0.0 0.15527369022786894 0.13393636584838567 -0.13238207208361433 -0.0015542937647713318 0.022716593058462308 0.0 0.0
0.0 0.14556797803831809 0.12477211605628794 -0.12329774844857394 -0.001474367607714021 0.034202053018401374 0.0 0.0
0.0 0.13281007246637855 0.11303688326674446 -0.11164836903834227 -0.0013885142284021876 0.03901340259202268 0.0 0.0
0.0 0.11807886895148409 0.10006521125324996 -0.09875586884872399 -0.0013093424045259375 0.039447477820045804 0.0 0.0
0.0 0.10271574317473861 0.0868035202081163 -0.0855656302137408 -0.0012378899943754785 0.03760499679669335 0.0 0.0
0.0 0.08773955739061012 0.07379116534030403 -0.07262304324219013 -0.0011681220981139052 0.03455080587109763 0.0 0.0
0.0 0.07313481159173606 0.06135573555162384 -0.060259105267268256 -0.0010966302843556097 0.030820697803372866 0.0 0.0
0.0 0.05942454997629048 0.04970837232446664 -0.048684155451216245 -0.0010242168732504126 0.026745701682016315 0.0 0.0
0.0 0.04674179379121175 0.03897335554761379 -0.03802292335677672 -0.0009504321908370471 0.022531344273079283 0.0 0.0
0.0 0.03517404406476582 0.029221552779616425 -0.028347620840929517 -0.0008739319386869061 0.01823993244145757 0.0 0.0
0.0 0.02483752305590919 0.02053779953335298 -0.019744887839412063 -0.000792911693940914 0.013856895264973107 0.0 0.0
0.0 0.015946856325934025 0.013091905302594457 -0.012391098566435606 -0.0007008067361588454 0.00954728765181141 0.0 0.0
0.0 0.008853596694394826 0.007168090981376328 -0.006594440238611525 -0.0005736507427648056 0.005734001546973685 0.0 0.0
0.0 0.0038701432863303287 0.0030635781019743655 -0.0026895830983090924 -0.0003739950036652726 0.0028594656639846505 0.0 0.0
0.0 0.001084008217062359 0.0008255028447182313 -0.0006867205621535334 -0.0001387822825646976 0.0009983041175673113 0.0 0.0
0.0 0.00012164347540612213 7.543189226611608e-05 -6.0678852861849656e-05 -1.4753039404266426e-05 0.0001284401017463776 0.0 0.0
0.0 1.2807708079978296e-06 -6.589870080920138e-08 5.105996742007668e-08 1.4838733389112143e-08 -1.5788058499657824e-07 0.0 0.0
0.0 0.0 0.0 0.0 0.0 0.0 0.0 0.0
0.0 7.761818091499395e-08 -1.6545393959844891e-09 1.4170477544857094e-09 2.374916414986896e-10 -1.5147987314084823e-08 0.0 0.0
0.0 0.003567702410480912 0.0022301764297594107 -0.002619508922859778 0.00038933249310036706 0.0031721173940217353 0.0 0.0
0.0 0.0023790428948713043 0.0014250180694444687 -0.0017206619053283948 0.0002956438358839242 -0.0021415174741180668 0.0 0.0
0.0 6.808126749334917e-07 -1.0371231226033877e-08 1.1382208934150606e-08 -1.010977708115995e-09 1.3495275768488005e-07 0.0 0.0
0.0 3.7869285625906513e-07 -1.0853022555903305e-08 7.76318668522007e-09 3.0898358706842675e-09 7.416418593090768e-08 0.0 0.0
0.0 1.6095348361292159e-06 5.380918777394959e-08 -3.947971185072889e-08 -1.4329475923210652e-08 -1.547627764460538e-07 0.0 0.0
0.0 6.43346415853449e-05 3.273978580868142e-05 -2.6182127564960244e-05 -6.557658243721202e-06 -8.394927530328194e-05 0.0 0.0
0.0 0.0006125483140914259 0.0003846434388082614 -0.00031549814660933393 -6.914529219892764e-05 -0.0006966967685073377 0.0 0.0
0.0 0.002476068339792989 0.0018077268095151719 -0.001549428425738973 -0.00025829838377619963 -0.0024063209540304263 0.0 0.0
0.0 0.006238871901423748 0.00479023843712928 -0.00431239947837253 -0.00047783895875674713 -0.005135499275033003 0.0 0.0
0.0 0.011852494890854775 0.009327358031246322 -0.008697879175772423 -0.0006294788554738945 -0.00873661837527715 0.0 0.0
0.0 0.018903963243100553 0.01513402121518906 -0.014405910797405086 -0.0007281104177839718 -0.012883871144097458 0.0 0.0
0.0 0.027079584307724745 0.021903455883696916 -0.02109955982465644 -0.0008038960590404741 -0.017154559668874195 0.0 0.0
0.0 0.036186671057345514 0.029477041022334803 -0.02860450914459566 -0.0008725318777391348 -0.021325291188793834 0.0 0.0
0.0 0.04617397166581467 0.037804984647088966 -0.036868788464853995 -0.0009361961822349569 -0.02541678890621542 0.0 0.0
0.0 0.05694608576764251 0.04687683905204676 -0.04587954293102686 -0.000997296121019894 -0.02940570045265512 0.0 0.0
0.0 0.06849327069685446 0.05664447973488295 -0.0555866857891248 -0.001057793945758132 -0.033085052159935596 0.0 0.0
0.0 0.0805897234234921 0.06698341260053378 -0.06586620575224501 -0.0011172068482887857 -0.03612207317308838 0.0 0.0
0.0 0.09295206690515513 0.07773065531314541 -0.07655983513746534 -0.0011708201756800351 -0.038164280060693605 0.0 0.0
0.0 0.10539071937164493 0.08871971037454918 -0.08749134602602819 -0.0012283643485210079 -0.03840382473148093 0.0 0.0
0.0 0.1172248677705373 0.09947971555132984 -0.0981771238532186 -0.001302591698111173 -0.03462731667989895 0.0 0.0
0.0 0.1270911027196774 0.1089098504891435 -0.10751974339401604 -0.0013901070951274255 -0.023900778256001707 0.0 0.0
0.0 0.1270911027196775 0.10890985048913937 -0.10751974339401338 -0.0013901070951259243 0.023900778256068386 0.0 0.0
0.0 0.11722486777051885 0.09947971555130572 -0.09817712385319557 -0.0013025916981102281 0.03462731667998821 0.0 0.0
0.0 0.10539071937161183 0.08871971037451311 -0.08749134602599283 -0.0012283643485201906 0.03840382473154577 0.0 0.0
0.0 0.0929520669051064 0.07773065531309883 -0.07655983513741921 -0.0011708201756796455 0.03816428006072124 0.0 0.0
0.0 0.08058972342343355 0.06698341260048316 -0.06586620575219507 -0.0011172068482880977 0.03612207317307568 0.0 0.0
0.0 0.06849327069679245 0.05664447973483 -0.05558668578907218 -0.0010577939457578 0.03308505215991748 0.0 0.0
0.0 0.05694608576758254 0.04687683905199543 -0.0458795429309759 -0.0009972961210195264 0.029405700452638215 0.0 0.0
0.0 0.0461739716657619 0.037804984647043585 -0.036868788464809135 -0.0009361961822344386 0.025416788906200728 0.0 0.0
0.0 0.0361866710572913 0.02947704102228972 -0.028604509144551014 -0.0008725318777387263 0.021325291188767907 0.0 0.0
0.0 0.02707958430767672 0.021903455883657788 -0.02109955982461818 -0.0008038960590395839 0.01715455966884526 0.0 0.0
0.0 0.018903963243057036 0.015134021215155407 -0.014405910797371902 -0.0007281104177835032 0.012883871144063488 0.0 0.0
0.0 0.011852494890824296 0.009327358031222348 -0.008697879175748928 -0.0006294788554734232 0.00873661837525732 0.0 0.0
0.0 0.00623887190140079 0.004790238437111546 -0.004312399478355692 -0.000477838958755854 0.005135499275016789 0.0 0.0
0.0 0.002476068339780058 0.0018077268095056977 -0.0015494284257304418 -0.00025829838377525464 0.002406320954019765 0.0 0.0
0.0 0.0006125483140861037 0.00038464343880538704 -0.0003154981466068983 -6.914529219848862e-05 0.0006966967685020724 0.0 0.0
0.0 6.433464158475829e-05 3.2739785809028375e-05 -2.618212756523498e-05 -6.557658243793392e-06 8.394927530410573e-05 0.0 0.0
0.0 1.6095348358912305e-06 5.380918787188883e-08 -3.9479711924807146e-08 -1.4329475947079775e-08 1.5476277678121653e-07 0.0 0.0
0.0 3.786928558295237e-07 -1.0853022544114866e-08 7.763186676628835e-09 3.0898358674860974e-09 -7.416418584570931e-08 0.0 0.0
0.0 6.808126741997652e-07 -1.0371231215047161e-08 1.1382208922371451e-08 -1.0109777073237724e-09 -1.34952757536912e-07 0.0 0.0
0.0 0.002379042894861329 0.0014250180694385971 -0.0017206619053217668 0.00029564383588316916 0.002141517474109347 0.0 0.0
0.0 0.0014413272293480892 0.0008142351072435194 -0.0010136662332636663 0.00019943112602014627 -0.0013107644992295497 0.0 0.0
0.0 2.3780212352195535e-06 1.2159453987455794e-07 -1.234929234498526e-07 1.8983835752933634e-09 -2.6708062010907196e-06 0.0 0.0
0.0 8.800177885767418e-07 2.816483190107035e-08 -1.8351592933668526e-08 -9.813238967401307e-09 -2.9891966829706477e-07 0.0 0.0
0.0 3.4965478684165288e-06 6.593618249060005e-07 -5.055264341516901e-07 -1.5383539075430832e-07 -4.1994742886146775e-06 0.0 0.0
0.0 5.0200888021702315e-05 1.8051206303687174e-05 -1.4339889454099674e-05 -3.7113168495875156e-06 -7.270410153024363e-05 0.0 0.0
0.0 0.0003316368581534481 0.000155197445277266 -0.00012597457600232618 -2.922286927493986e-05 -0.0004535074538383793 0.0 0.0
0.0 0.0014185130843478505 0.0008569296476063027 -0.0007167805147895257 -0.0001401491328167769 -0.0017625892654235143 0.0 0.0
0.0 0.0039087160402045094 0.002700499458472187 -0.002359927977875936 -0.0003405714805962514 -0.004133106046861975 0.0 0.0
0.0 0.007958941096117458 0.005809237791636366 -0.005288564604672856 -0.0005206731869635052 -0.007280087641769699 0.0 0.0
0.0 0.013068665703458781 0.00992987686237939 -0.009291892197568012 -0.0006379846648113803 -0.01091947436993374 0.0 0.0
0.0 0.019157853630930505 0.014760113836107468 -0.014044194379679359 -0.0007159194564281052 -0.014741609398191944 0.0 0.0
0.0 0.025765314456668294 0.020152703409685363 -0.019374117321943746 -0.0007785860877416209 -0.018524932776733713 0.0 0.0
0.0 0.03300352229683978 0.026073483853809542 -0.02524025052864715 -0.0008332333251623952 -0.022246857623917482 0.0 0.0
0.0 0.04089256230982825 0.03255570092432135 -0.03167276710417886 -0.0008829338201424834 -0.025886300534287025 0.0 0.0
0.0 0.04945933261529679 0.03963174378859008 -0.0387003709409308 -0.0009313728476592626 -0.02930837291965678 0.0 0.0
0.0 0.058495312107589334 0.04727390030991531 -0.04629288009343813 -0.0009810202164771604 -0.032172988910331136 0.0 0.0
0.0 0.06800410109965421 0.05541986466483281 -0.054395736743225585 -0.0010241279216072186 -0.03413018956856364 0.0 0.0
0.0 0.07790944992905284 0.06418820155581459 -0.0631340157248509 -0.0010541858309636514 -0.03496901637198847 0.0 0.0
0.0 0.08827749669292055 0.07374742149236516 -0.07264193178810249 -0.0011054897042626702 -0.03301671164569555 0.0 0.0
0.0 0.09826945602593808 0.08346613351955878 -0.08226286610045142 -0.0012032674191074734 -0.02455924231820341 0.0 0.0
0.0 0.09826945602593384 0.08346613351955137 -0.0822628661004432 -0.0012032674191081822 0.024559242318261457 0.0 0.0
0.0 0.08827749669291099 0.07374742149234802 -0.07264193178808558 -0.0011054897042624442 0.033016711645778615 0.0 0.0
0.0 0.07790944992903416 0.06418820155578966 -0.06313401572482724 -0.0010541858309623942 0.03496901637205111 0.0 0.0
0.0 0.06800410109962407 0.05541986466480252 -0.05439573674319621 -0.0010241279216063148 0.03413018956858514 0.0 0.0
0.0 0.058495312107547215 0.04727390030988034 -0.046292880093403266 -0.000981020216477046 0.03217298891031518 0.0 0.0
0.0 0.04945933261525557 0.03963174378855594 -0.03870037094089726 -0.0009313728476586978 0.029308372919639183 0.0 0.0
0.0 0.04089256230979068 0.03255570092428947 -0.031672767104147743 -0.0008829338201417254 0.025886300534275087 0.0 0.0
0.0 0.03300352229680873 0.026073483853782727 -0.025240250528621007 -0.0008332333251617189 0.022246857623908683 0.0 0.0
0.0 0.02576531445663168 0.02015270340965594 -0.01937411732191478 -0.0007785860877411623 0.018524932776712244 0.0 0.0
0.0 0.019157853630893278 0.014760113836078568 -0.014044194379650623 -0.0007159194564279365 0.01474160939816547 0.0 0.0
0.0 0.01306866570342721 0.0099298768623566 -0.009291892197545773 -0.0006379846648108212 0.010919474369905084 0.0 0.0
0.0 0.00795894109609517 0.005809237791619908 -0.005288564604656968 -0.0005206731869629398 0.0072800876417515705 0.0 0.0
0.0 0.003908716040189253 0.0027004994584610286 -0.0023599279778657068 -0.0003405714805953228 0.0041331060468485755 0.0 0.0
0.0 0.0014185130843399696 0.0008569296476017192 -0.0007167805147854575 -0.0001401491328162611 0.0017625892654150599 0.0 0.0
0.0 0.00033163685815020525 0.00015519744527608178 -0.00012597457600135384 -2.922286927472794e-05 0.0004535074538351524 0.0 0.0
0.0 5.020088801995775e-05 1.805120630354951e-05 -1.4339889453982492e-05 -3.7113168495669996e-06 7.270410152968143e-05 0.0 0.0
0.0 3.4965478682627876e-06 6.593618250204699e-07 -5.055264342383605e-07 -1.538353907821124e-07 4.199474289349384e-06 0.0 0.0
0.0 8.800177882979658e-07 2.8164831952940246e-08 -1.835159296818458e-08 -9.813238984754714e-09 2.989196689537768e-07 0.0 0.0
0.0 2.3780212346318104e-06 1.2159453991090214e-07 -1.2349292349281022e-07 1.8983835819080232e-09 2.6708062019999138e-06 0.0 0.0
0.0 0.001441327229341415 0.000814235107240101 -0.0010136662332596489 0.00019943112601954812 0.0013107644992242091 0.0 0.0
0.0 0.0007062401153904745 0.0003906517827965187 -0.0005048491070222246 0.00011419732422570626 -0.0006842875963636974 0.0 0.0
0.0 4.876953172768201e-06 1.1399821095529345e-07 -1.5453535866233747e-07 4.0537147707044154e-08 -4.4108002802091e-06 0.0 0.0
0.0 3.94686387744192e-06 6.761426357062131e-08 -2.8765439500891846e-08 -3.884882406972967e-08 -4.217217325214938e-06 0.0 0.0
0.0 7.829944386604372e-06 7.540499791067556e-07 -5.337753064485614e-07 -2.2027467265819096e-07 -1.0768261094419359e-05 0.0 0.0
0.0 5.300611465830406e-05 1.0694091007349427e-05 -8.387186636795665e-06 -2.3069043705537663e-06 -8.165335981651843e-05 0.0 0.0
0.0 0.00022415731099868885 6.157723058491937e-05 -4.97191849023672e-05 -1.1858045682552195e-05 -0.00033546146615719347 0.0 0.0
0.0 0.0007479777602956491 0.00028973183989305576 -0.00023727187227207133 -5.2459967620984254e-05 -0.001112368646129167 0.0 0.0
0.0 0.002022203161982781 0.00105717379093924 -0.0008898730165963292 -0.00016730077434291076 -0.002788484978303383 0.0 0.0
0.0 0.004393246678389848 0.002687939959191584 -0.002349266469760985 -0.00033867348943059935 -0.005220271013696856 0.0 0.0
0.0 0.007610048983698927 0.005063994657563898 -0.004580376915409319 -0.00048361774215457915 -0.008051340194182516 0.0 0.0
0.0 0.011388127663332779 0.007925454094408873 -0.0073445472480469405 -0.000580906846361931 -0.011088588738438623 0.0 0.0
0.0 0.0156501635349755 0.011118626065767094 -0.01047254109134062 -0.000646084974426463 -0.014182665894000246 0.0 0.0
0.0 0.020251098881507182 0.014632531185088032 -0.013936004211934819 -0.00069652697315322 -0.017300918579283793 0.0 0.0
0.0 0.025282814339362865 0.018519676820794025 -0.017782487777025215 -0.0007371890437687949 -0.020377560007715442 0.0 0.0
0.0 0.030801506394349563 0.0228690381723851 -0.02209624692598146 -0.000772791246403639 -0.023341058315949882 0.0 0.0
0.0 0.03683420371499626 0.027775850391964937 -0.02696657545239867 -0.0008092749395662688 -0.025969554658756163 0.0 0.0
0.0 0.043385554176998964 0.033296257765271106 -0.03244670433896161 -0.0008495534263095119 -0.02780543702141542 0.0 0.0
0.0 0.05063848303832693 0.039616050009794256 -0.03874660964140628 -0.0008694403683879874 -0.028759758646963708 0.0 0.0
0.0 0.05933000286553484 0.04743343641623116 -0.04656502904503743 -0.0008684073711937196 -0.028731989358932987 0.0 0.0
0.0 0.0693393439145478 0.05722303818929476 -0.05625440721268849 -0.0009686309766062939 -0.024318271375368492 0.0 0.0
0.0 0.06933934391454995 0.05722303818929154 -0.05625440721268549 -0.0009686309766060816 0.02431827137541951 0.0 0.0
0.0 0.05933000286552831 0.0474334364162165 -0.046565029045022154 -0.0008684073711943011 0.028731989359006095 0.0 0.0
0.0 0.05063848303831099 0.03961605000977291 -0.0387466096413841 -0.0008694403683888 0.028759758647013224 0.0 0.0
0.0 0.04338555417697776 0.03329625776525049 -0.03244670433894041 -0.0008495534263100814 0.027805437021427404 0.0 0.0
0.0 0.03683420371497231 0.027775850391946744 -0.02696657545238122 -0.0008092749395655228 0.025969554658741047 0.0 0.0
0.0 0.03080150639432503 0.022869038172366067 -0.022096246925962824 -0.0007727912464032417 0.02334105831593701 0.0 0.0
0.0 0.02528281433934057 0.018519676820776498 -0.01778248777700781 -0.0007371890437686847 0.02037756000770522 0.0 0.0
0.0 0.020251098881492374 0.014632531185075216 -0.013936004211922719 -0.0006965269731525026 0.01730091857928078 0.0 0.0
0.0 0.01565016353495365 0.011118626065751478 -0.010472541091325484 -0.0006460849744259918 0.014182665893982774 0.0 0.0
0.0 0.011388127663311919 0.007925454094395013 -0.007344547248033377 -0.0005809068463616383 0.011088588738418299 0.0 0.0
0.0 0.007610048983680968 0.005063994657552977 -0.004580376915398792 -0.0004836177421541849 0.008051340194162525 0.0 0.0
0.0 0.004393246678376782 0.0026879399591829113 -0.0023492664697529492 -0.0003386734894299621 0.005220271013683556 0.0 0.0
0.0 0.002022203161973254 0.0010571737909334594 -0.0008898730165913047 -0.0001673007743421549 0.0027884849782926074 0.0 0.0
0.0 0.0007479777602902014 0.00028973183989083044 -0.00023727187227021794 -5.245996762061256e-05 0.0011123686461221647 0.0 0.0
0.0 0.00022415731099678697 6.157723058475939e-05 -4.971918490223199e-05 -1.1858045682527364e-05 0.00033546146615598947 0.0 0.0
0.0 5.300611465730496e-05 1.0694091007352956e-05 -8.38718663679507e-06 -2.3069043705578833e-06 8.165335981651725e-05 0.0 0.0
0.0 7.829944386414768e-06 7.540499791473253e-07 -5.337753064757116e-07 -2.202746726716109e-07 1.0768261095044063e-05 0.0 0.0
0.0 3.946863876718414e-06 6.761426358396887e-08 -2.8765439506483444e-08 -3.884882407748471e-08 4.2172173261165174e-06 0.0 0.0
0.0 4.8769531724879494e-06 1.1399821097851858e-07 -1.545353586998633e-07 4.053714772134432e-08 4.4108002810900615e-06 0.0 0.0
0.0 0.0007062401153856131 0.000390651782794299 -0.0005048491070195058 0.00011419732422520658 0.0006842875963599233 0.0 0.0
0.0 0.00024889464762907184 0.00013176229816887027 -0.00017811061226472168 4.634831409585143e-05 -0.0002485707525884801 0.0 0.0
0.0 6.065571827652154e-06 -6.485827726992707e-09 -6.678695635919148e-08 7.327278408618537e-08 -5.960875141208439e-06 0.0 0.0
0.0 8.419929070222592e-06 -3.664817519416324e-07 3.538774240444594e-07 1.2604327897173562e-08 -1.1396286277102995e-05 0.0 0.0
0.0 1.4834531141650834e-05 -2.1731213516381868e-07 3.230932978097322e-07 -1.0578116264591412e-07 -2.2831217023025102e-05 0.0 0.0
0.0 6.05635097248366e-05 2.532036810091888e-06 -1.7586731449814136e-06 -7.733636651104805e-07 -9.260526229692374e-05 0.0 0.0
0.0 0.000203182722994255 1.7375180841572734e-05 -1.3843947594800442e-05 -3.53123324677227e-06 -0.0003234751882877355 0.0 0.0
0.0 0.0004812311906722672 6.0728293739724566e-05 -4.930053753020671e-05 -1.1427756209517878e-05 -0.0007911301790368552 0.0 0.0
0.0 0.0009732724094060906 0.0001683902831059115 -0.00013751512541368562 -3.087515769222572e-05 -0.0015540078993365493 0.0 0.0
0.0 0.0017865750472880768 0.00044625079964841967 -0.00036497327581812674 -8.127752383029262e-05 -0.002863482835173762 0.0 0.0
0.0 0.0031263004169878733 0.0009911585686115214 -0.0008175210993063494 -0.00017363746930517193 -0.00470012544000431 0.0 0.0
0.0 0.00476417027049832 0.0017902546297620403 -0.0015125490679115544 -0.00027770556185048476 -0.006937543785548844 0.0 0.0
0.0 0.006778298725853703 0.002757290857842523 -0.002395322446076739 -0.0003619684117657832 -0.009370827281596123 0.0 0.0
0.0 0.009023624851605091 0.003861874275634739 -0.003435579512339032 -0.0004262947632957056 -0.011944639970990623 0.0 0.0
0.0 0.011544914467680724 0.005144031563012865 -0.004671132252627229 -0.00047289931038563564 -0.014636043826790577 0.0 0.0
0.0 0.01436074808692338 0.006727149586652683 -0.0062209899968378645 -0.0005061595898148126 -0.017396102768740054 0.0 0.0
0.0 0.017608908888990672 0.008820960150471081 -0.008287510446931124 -0.0005334497035399584 -0.02003603808416178 0.0 0.0
0.0 0.021313507531512503 0.011691388883504399 -0.011124773525367442 -0.0005666153581369506 -0.022071644628642584 0.0 0.0
0.0 0.02557129698290769 0.015555716637774507 -0.014944186502204197 -0.0006115301355703018 -0.022851387548179346 0.0 0.0
0.0 0.03145672052141903 0.020995380536923215 -0.020401867845751133 -0.000593512691172082 -0.023053907284513935 0.0 0.0
0.0 0.0405599997355615 0.02983981181994862 -0.0292463956097825 -0.0005934162101661173 -0.022971655776882913 0.0 0.0
0.0 0.04055999973556935 0.02983981181995092 -0.029246395609784794 -0.0005934162101661172 0.02297165577692032 0.0 0.0
0.0 0.03145672052142855 0.020995380536922147 -0.020401867845750557 -0.0005935126911715982 0.023053907284572923 0.0 0.0
0.0 0.02557129698290444 0.015555716637765699 -0.01494418650219592 -0.0006115301355697718 0.02285138754821403 0.0 0.0
0.0 0.021313507531503354 0.011691388883497852 -0.011124773525361724 -0.0005666153581361233 0.022071644628642924 0.0 0.0
0.0 0.017608908888972673 0.008820960150462267 -0.00828751044692229 -0.0005334497035399738 0.020036038084143167 0.0 0.0
0.0 0.014360748086911904 0.0067271495866489065 -0.006220989996833976 -0.0005061595898149285 0.017396102768723505 0.0 0.0
0.0 0.011544914467671828 0.005144031563010333 -0.004671132252624536 -0.00047289931038579697 0.014636043826778772 0.0 0.0
0.0 0.009023624851594726 0.0038618742756305596 -0.003435579512334624 -0.0004262947632959329 0.011944639970980466 0.0 0.0
0.0 0.006778298725841271 0.0027572908578386906 -0.002395322446073196 -0.00036196841176549394 0.009370827281579508 0.0 0.0
0.0 0.004764170270487058 0.0017902546297586233 -0.0015125490679085425 -0.0002777055618500813 0.006937543785532836 0.0 0.0
0.0 0.003126300416978767 0.0009911585686093892 -0.0008175210993045854 -0.00017363746930480403 0.004700125439991064 0.0 0.0
0.0 0.001786575047283974 0.00044625079964727096 -0.0003649732758172334 -8.127752383003745e-05 0.002863482835167232 0.0 0.0
0.0 0.0009732724094028151 0.00016839028310529063 -0.00013751512541318892 -3.0875157692101495e-05 0.001554007899331121 0.0 0.0
0.0 0.00048123119067012724 6.072829373956552e-05 -4.9300537530058596e-05 -1.1427756209506875e-05 0.0007911301790348032 0.0 0.0
0.0 0.0002031827229924708 1.7375180841519597e-05 -1.3843947594748644e-05 -3.531233246770958e-06 0.000323475188286445 0.0 0.0
0.0 6.05635097238505e-05 2.5320368101065665e-06 -1.7586731449910823e-06 -7.733636651154867e-07 9.260526229726496e-05 0.0 0.0
0.0 1.4834531140658965e-05 -2.173121351753717e-07 3.230932978238813e-07 -1.0578116264850954e-07 2.2831217023563507e-05 0.0 0.0
0.0 8.419929069421409e-06 -3.6648175196711197e-07 3.53877424066462e-07 1.2604327900649325e-08 1.139628627766095e-05 0.0 0.0
0.0 6.065571827539823e-06 -6.4858277226597284e-09 -6.678695639080454e-08 7.327278411346677e-08 5.96087514232411e-06 0.0 0.0
0.0 0.00024889464762646466 0.00013176229816792414 -0.00017811061226350155 4.634831409557743e-05 0.0002485707525867374 0.0 0.0
0.0 4.169666241723102e-05 2.0525583259403046e-05 -2.9165991574247932e-05 8.640408314844865e-06 -4.2159279118243845e-05 0.0 0.0
0.0 5.670095530975382e-06 -1.781964031132889e-07 5.311111038753467e-08 1.2508529272575904e-07 -6.108906251498099e-06 0.0 0.0
0.0 1.1831701692611623e-05 -1.349673759702703e-06 1.1578564770325718e-06 1.918172826701313e-07 -1.7064153320898632e-05 0.0 0.0
0.0 2.2050213484935263e-05 -2.777868468503034e-06 2.4609548452355114e-06 3.169136232675238e-07 -3.42097516662428e-05 0.0 0.0
0.0 7.022989550379962e-05 -7.3570703802055715e-06 6.345407900206152e-06 1.0116624799994264e-06 -0.00010625315852008481 0.0 0.0
0.0 0.00021515913390407994 -2.2667071839344435e-05 1.8706251951545385e-05 3.96081988779904e-06 -0.0003349085014583788 0.0 0.0
0.0 0.0004900470513628551 -6.499383472828044e-05 5.2963094981875956e-05 1.2030739746404464e-05 -0.0008056297092196317 0.0 0.0
0.0 0.0009798287984058335 -0.00017117567529744947 0.0001397617959200077 3.141387937744188e-05 -0.0015654903495669864 0.0 0.0
0.0 0.001788425530670625 -0.00044742704067381433 0.0003660390006954537 8.138803997836051e-05 -0.0028683851354991867 0.0 0.0
0.0 0.00312702655867711 -0.000991693735723993 0.0008182590008433753 0.00017343473488061755 -0.004701667280555648 0.0 0.0
0.0 0.0047869337918352425 -0.0018024277849448653 0.0015257003066186652 0.00027672747832620085 -0.006947046576286576 0.0 0.0
0.0 0.006822593704356572 -0.0028098800971722666 0.002447861280298026 0.000362018816874238 -0.009392297377563847 0.0 0.0
0.0 0.009094335242404418 -0.003954172810121066 0.003523757622953136 0.0004304151871679275 -0.011957881835114672 0.0 0.0
0.0 0.011536025319566918 -0.005154719794646692 0.004667340716996126 0.00048737907765056184 -0.014615654518945302 0.0 0.0
0.0 0.013941752704180117 -0.006235734748640349 0.005699115023647487 0.0005366197249928598 -0.017345105640221223 0.0 0.0
0.0 0.01611009900484162 -0.006891268209500857 0.006311141926598707 0.0005801262829021412 -0.020091029265682812 0.0 0.0
0.0 0.017676506778910597 -0.006706904893782348 0.006088529641800651 0.0006183752519816951 -0.02284177999973698 0.0 0.0
0.0 0.01854549630976317 -0.00541365440982268 0.004774809073373706 0.0006388453364489676 -0.025712255198849045 0.0 0.0
0.0 0.018726763102852737 -0.002963020610154032 0.0023447787550730007 0.0006182418550810295 -0.028284412922375213 0.0 0.0
0.0 0.018836063977496292 0.004098645668213699 -0.004157452641594558 5.8806973380856866e-05 -0.027872493620025526 0.0 0.0
0.0 0.018836063977501313 0.0040986456682136595 -0.004157452641594396 5.880697338073973e-05 0.027872493620040108 0.0 0.0
0.0 0.018726763102854805 -0.0029630206101536895 0.0023447787550724265 0.0006182418550812606 0.028284412922391963 0.0 0.0
0.0 0.0185454963097536 -0.005413654409818539 0.004774809073369783 0.0006388453364487515 0.025712255198849034 0.0 0.0
0.0 0.017676506778894905 -0.006706904893774213 0.006088529641792982 0.0006183752519812335 0.022841779999725906 0.0 0.0
0.0 0.016110099004822742 -0.006891268209490129 0.006311141926588292 0.0005801262829018295 0.02009102926566321 0.0 0.0
0.0 0.013941752704161477 -0.006235734748629859 0.00569911502363704 0.0005366197249928152 0.01734510564020273 0.0 0.0
0.0 0.011536025319549146 -0.005154719794635887 0.004667340716985597 0.00048737907765029057 0.01461565451893048 0.0 0.0
0.0 0.009094335242387466 -0.003954172810110187 0.0035237576229425627 0.00043041518716762273 0.011957881835101101 0.0 0.0
0.0 0.006822593704336697 -0.0028098800971612108 0.0024478612802875566 0.00036201881687365225 0.0093922973775442 0.0 0.0
0.0 0.004786933791817091 -0.00180242778493511 0.0015257003066097537 0.0002767274783253566 0.006947046576266424 0.0 0.0
0.0 0.003127026558663404 -0.0009916937357185493 0.0008182590008387083 0.00017343473487984023 0.004701667280539782 0.0 0.0
0.0 0.00178842553066524 -0.0004474270406711969 0.0003660390006933324 8.138803997786453e-05 0.0028683851354922235 0.0 0.0
0.0 0.0009798287984025965 -0.00017117567529663626 0.00013976179591932358 3.141387937731274e-05 0.0015654903495622282 0.0 0.0
0.0 0.0004900470513602483 -6.499383472797929e-05 5.2963094981689466e-05 1.2030739746289796e-05 0.0008056297092166322 0.0 0.0
0.0 0.00021515913390212577 -2.2667071839243933e-05 1.870625195147039e-05 3.9608198877735555e-06 0.00033490850145694853 0.0 0.0
0.0 7.022989550222368e-05 -7.357070380176964e-06 6.345407900183734e-06 1.011662479993217e-06 0.0001062531585196945 0.0 0.0
0.0 2.205021348426938e-05 -2.7778684685006016e-06 2.4609548452319102e-06 3.1691362326868966e-07 3.420975166616327e-05 0.0 0.0
0.0 1.1831701692037346e-05 -1.3496737597729529e-06 1.1578564770912135e-06 1.9181728268173994e-07 1.7064153321669405e-05 0.0 0.0
0.0 5.6700955308865e-06 -1.7819640313601988e-07 5.311111036120486e-08 1.2508529277481977e-07 6.108906252867002e-06 0.0 0.0
0.0 4.1696662416396667e-05 2.0525583259432337e-05 -2.916599157428448e-05 8.640408314852134e-06 4.21592791184729e-05 0.0 0.0
0.0 1.9147322145762325e-06 3.459157533178601e-08 -5.151889700463742e-08 1.6927321672869913e-08 -4.613988365883754e-08 0.0 0.0
0.0 3.95312870337908e-06 -2.773030822845343e-07 1.4642249944245758e-07 1.3088058284207506e-07 -5.301390839836983e-06 0.0 0.0
0.0 1.3216278835017862e-05 -2.3343664814860257e-06 1.9453493579213517e-06 3.890171235646706e-07 -1.868565777236545e-05 0.0 0.0
0.0 2.8329396529725524e-05 -5.727312353004373e-06 4.876412689185175e-06 8.508996638192114e-07 -3.807171599999568e-05 0.0 0.0
0.0 8.00188538260912e-05 -2.00494088772552e-05 1.6716790033910684e-05 3.332618843344518e-06 -0.00012011983173690585 0.0 0.0
0.0 0.0002544281035409062 -7.539979421266165e-05 6.153167543998846e-05 1.3868118772673191e-05 -0.00038234989640658344 0.0 0.0
0.0 0.0007799771237587789 -0.00030374681949757703 0.00024917931794444354 5.4567501553133336e-05 -0.0011499286728546487 0.0 0.0
0.0 0.0020370818455047375 -0.0010646460692643016 0.0008965243477285251 0.00016812172153577609 -0.0028084665668451393 0.0 0.0
0.0 0.004393830353920369 -0.002688089028750941 0.0023496591098784345 0.0003384299188725052 -0.005225259148781496 0.0 0.0
0.0 0.0076126569413770065 -0.0050663124940762295 0.004583337049520373 0.0004829754445558559 -0.008054308481083378 0.0 0.0
0.0 0.011408307686690097 -0.007944776993215817 0.007365264333307122 0.0005795126599086925 -0.011093776556023538 0.0 0.0
0.0 0.015700286789646516 -0.011174859750601101 0.01052993540318366 0.0006449243474174375 -0.014170834292409604 0.0 0.0
0.0 0.02031387404505766 -0.014717085262106957 0.014017564786119293 0.000699520475987663 -0.017238417972659688 0.0 0.0
0.0 0.025223626143526537 -0.018493719696711947 0.017742632259305904 0.0007510874374060391 -0.02027322565689197 0.0 0.0
0.0 0.03021308218226326 -0.02228991861846944 0.021487342038874018 0.0008025765795954126 -0.023328760988984624 0.0 0.0
0.0 0.03487681175064191 -0.025716383103747933 0.024865018077722234 0.0008513650260256992 -0.026451593847284755 0.0 0.0
0.0 0.03873924091169664 -0.028249887813437777 0.027360347189168154 0.0008895406242696308 -0.029744253980729433 0.0 0.0
0.0 0.041117356016075524 -0.02930491149873197 0.028390112011483136 0.0009147994872488546 -0.03309069329881077 0.0 0.0
0.0 0.04025751345963802 -0.027697265446382346 0.026691841916662528 0.0010054235297197985 -0.03469071548712562 0.0 0.0
0.0 0.03305677729261772 -0.019970066892211417 0.01883213383233973 0.001137933059871675 -0.03254876159331408 0.0 0.0
0.0 0.03305677729262963 -0.01997006689221193 0.018832133832340326 0.0011379330598716019 0.032548761593356325 0.0 0.0
0.0 0.04025751345964504 -0.027697265446375942 0.02669184191665589 0.00100542352972004 0.03469071548718384 0.0 0.0
0.0 0.041117356016070465 -0.029304911498719697 0.028390112011470733 0.0009147994872489496 0.03309069329884629 0.0 0.0
0.0 0.038739240911670636 -0.02824988781341415 0.027360347189144853 0.0008895406242693046 0.029744253980730342 0.0 0.0
0.0 0.03487681175060785 -0.025716383103720937 0.024865018077695998 0.0008513650260249286 0.026451593847263796 0.0 0.0
0.0 0.030213082182231173 -0.022289918618444732 0.021487342038849833 0.0008025765795948989 0.023328760988963394 0.0 0.0
0.0 0.025223626143497956 -0.018493719696689455 0.017742632259283624 0.0007510874374058237 0.02027322565687591 0.0 0.0
0.0 0.020313874045028837 -0.014717085262083082 0.014017564786095862 0.0006995204759872048 0.01723841797264596 0.0 0.0
0.0 0.015700286789614545 -0.011174859750576721 0.01052993540315993 0.0006449243474167924 0.014170834292386917 0.0 0.0
0.0 0.011408307686655808 -0.007944776993191488 0.007365264333283581 0.0005795126599079015 0.011093776555993449 0.0 0.0
0.0 0.007612656941351807 -0.00506631249405909 0.004583337049504055 0.00048297544455503565 0.008054308481059067 0.0 0.0
0.0 0.0043938303539036334 -0.0026880890287389087 0.0023496591098672893 0.0003384299188716202 0.0052252591487661395 0.0 0.0
0.0 0.0020370818454953877 -0.0010646460692582394 0.0008965243477233418 0.0001681217215348977 0.0028084665668347848 0.0 0.0
0.0 0.0007799771237532336 -0.00030374681949548593 0.0002491793179427174 5.456750155276858e-05 0.0011499286728477603 0.0 0.0
0.0 0.000254428103538997 -7.539979421244279e-05 6.153167543981717e-05 1.3868118772625656e-05 0.00038234989640546584 0.0 0.0
0.0 8.001885382499913e-05 -2.0049408877236306e-05 1.6716790033894794e-05 3.332618843341511e-06 0.00012011983173672327 0.0 0.0
0.0 2.83293965288264e-05 -5.7273123530202284e-06 4.876412689197196e-06 8.508996638230343e-07 3.807171600009256e-05 0.0 0.0
0.0 1.3216278834170058e-05 -2.334366481537178e-06 1.9453493579619872e-06 3.8901712357518933e-07 1.868565777272518e-05 0.0 0.0
0.0 3.953128703047466e-06 -2.773030823122963e-07 1.4642249944305252e-07 1.3088058286924404e-07 5.3013908405210544e-06 0.0 0.0
0.0 1.914732214228996e-06 3.4591575522732305e-08 -5.151889728151619e-08 1.6927321758784062e-08 4.613988414553497e-08 0.0 0.0
0.0 0.0 0.0 0.0 0.0 0.0 0.0 0.0
0.0 1.9845944375430816e-06 -3.66804102906832e-08 3.142343602910223e-08 5.25697426157831e-09 -4.384524397189001e-07 0.0 0.0
0.0 1.1839203996444992e-05 -2.3678520098636023e-06 1.9496408239485485e-06 4.182111859150481e-07 -1.3752734552930244e-05 0.0 0.0
0.0 3.169748407641985e-05 -8.54930941523376e-06 7.117802776062227e-06 1.43150663917154e-06 -3.760168614778629e-05 0.0 0.0
0.0 9.695938825535204e-05 -3.6941196245746695e-05 3.0350465125755144e-05 6.590731119991548e-06 -0.00013360351758610854 0.0 0.0
0.0 0.0003936299998291492 -0.00018870026506853196 0.00015431957528634475 3.4380689782187165e-05 -0.0005343228231266189 0.0 0.0
0.0 0.001458309841317223 -0.0008769519206356344 0.0007347950892340355 0.00014215683140159926 -0.0018060955039032678 0.0 0.0
0.0 0.003915741847270138 -0.0027020080611805256 0.002361857559110242 0.00034015050207028444 -0.004147606434344508 0.0 0.0
0.0 0.007955934017274936 -0.00580734419583067 0.00528701271741594 0.0005203314784147301 -0.007280506511908162 0.0 0.0
0.0 0.013073968448235194 -0.009934797807749994 0.009297360662950104 0.0006374371447998885 -0.010922512417756476 0.0 0.0
0.0 0.019175591500449923 -0.014778647410429854 0.014063884839900462 0.0007147625705294059 -0.01473649898944564 0.0 0.0
0.0 0.025790457633960824 -0.020192360962243767 0.019414916196544466 0.0007774447656992966 -0.018461173771566048 0.0 0.0
0.0 0.033005216195318994 -0.02612004610163816 0.025284610176100886 0.0008354359255372775 -0.022058235632282434 0.0 0.0
0.0 0.040754944749575764 -0.0324862485843251 0.03159164021958167 0.0008946083647434134 -0.025623253432212615 0.0 0.0
0.0 0.048860326666213455 -0.03905887982666148 0.0381018496794983 0.0009570301471631452 -0.029379277201650143 0.0 0.0
0.0 0.05676927288594536 -0.04538223697665132 0.044363487656577646 0.0010187493200736295 -0.03362028443312196 0.0 0.0
0.0 0.0638549911822737 -0.05077739836551674 0.049701017652495044 0.0010763807130216656 -0.03846872432644493 0.0 0.0
0.0 0.06854136980594056 -0.054192924811846344 0.05304428058030732 0.0011486442315389697 -0.04305238628057244 0.0 0.0
0.0 0.06863656369543182 -0.05363895636968368 0.052393227761320604 0.001245728608363067 -0.045264500081394744 0.0 0.0
0.0 0.05837176008049112 -0.04480549730385705 0.04331012441962534 0.001495372884231701 -0.040929228994491786 0.0 0.0
0.0 0.05837176008049581 -0.0448054973038511 0.043310124419618054 0.0014953728842330369 0.04092922899454618 0.0 0.0
0.0 0.0686365636954302 -0.05363895636966985 0.05239322776130517 0.0012457286083646527 0.045264500081465056 0.0 0.0
0.0 0.06854136980591964 -0.05419292481181869 0.05304428058027931 0.0011486442315393457 0.04305238628062128 0.0 0.0
0.0 0.0638549911822294 -0.050777398365476414 0.04970101765245456 0.0010763807130218766 0.03846872432644742 0.0 0.0
0.0 0.05676927288589362 -0.045382236976608314 0.044363487656534015 0.0010187493200743117 0.03362028443310182 0.0 0.0
0.0 0.048860326666164924 -0.039058879826621554 0.03810184967945848 0.0009570301471630682 0.029379277201627908 0.0 0.0
0.0 0.04075494474952557 -0.03248624858428351 0.0315916402195404 0.0008946083647431075 0.025623253432189963 0.0 0.0
0.0 0.03300521619527137 -0.026120046101597866 0.025284610176060828 0.0008354359255370255 0.022058235632264493 0.0 0.0
0.0 0.025790457633912484 -0.020192360962204472 0.019414916196505365 0.0007774447656990996 0.01846117377153931 0.0 0.0
0.0 0.019175591500404123 -0.014778647410394495 0.01406388483986501 0.0007147625705294813 0.014736498989412272 0.0 0.0
0.0 0.013073968448195456 -0.00993479780772002 0.00929736066292037 0.0006374371447996479 0.010922512417725459 0.0 0.0
0.0 0.007955934017246829 -0.005807344195808963 0.0052870127173947346 0.0005203314784142268 0.007280506511887521 0.0 0.0
0.0 0.003915741847255922 -0.0027020080611701346 0.002361857559100607 0.00034015050206952766 0.004147606434332603 0.0 0.0
0.0 0.0014583098413084462 -0.0008769519206302719 0.0007347950892295853 0.00014215683140068663 0.0018060955038947113 0.0 0.0
0.0 0.0003936299998251564 -0.0001887002650670037 0.000154319575285103 3.43806897819006e-05 0.0005343228231227802 0.0 0.0
0.0 9.695938825384473e-05 -3.694119624562774e-05 3.035046512565392e-05 6.590731119973767e-06 0.00013360351758553554 0.0 0.0
0.0 3.1697484075684476e-05 -8.54930941535869e-06 7.1178027761616755e-06 1.4315066391969955e-06 3.760168614826827e-05 0.0 0.0
0.0 1.183920399581289e-05 -2.3678520099464243e-06 1.9496408240152722e-06 4.1821118593115803e-07 1.3752734553403925e-05 0.0 0.0
0.0 1.98459443718876e-06 -3.668041032402845e-08 3.142343604820021e-08 5.2569742758245436e-09 4.3845244017591495e-07 0.0 0.0
0.0 0.0 0.0 0.0 0.0 0.0 0.0 0.0
0.0 0.0 0.0 0.0 0.0 0.0 0.0 0.0
0.0 4.063806097121623e-07 8.83875332606981e-09 -5.922659735395461e-09 -2.916093590674856e-09 8.037141172206253e-08 0.0 0.0
0.0 7.705720566137783e-06 -1.9266357565007633e-06 1.5727250932059028e-06 3.5391066329485555e-07 -8.566928118792165e-06 0.0 0.0
0.0 3.095979696912466e-05 -1.176685805183583e-05 9.68823535764843e-06 2.0786226941873872e-06 -3.790602241471368e-05 0.0 0.0
0.0 0.00013345355847168742 -6.719611990754589e-05 5.4887494203721984e-05 1.2308625703823919e-05 -0.00016496866458456466 0.0 0.0
0.0 0.0006822758879405553 -0.0004342384735232268 0.00035826521991195776 7.597325361126915e-05 -0.0007900488575184071 0.0 0.0
0.0 0.0025092715657156757 -0.0018179983587894189 0.0015603965541344843 0.0002576018046549342 -0.0024410489648075437 0.0 0.0
0.0 0.006235002151407333 -0.004784280864447428 0.004307138786342031 0.0004771420781053958 -0.00513875114616414 0.0 0.0
0.0 0.011850275579472071 -0.00932646902208225 0.008697115855247736 0.0006293531668345152 -0.008734351973215655 0.0 0.0
0.0 0.018910230309576132 -0.0151417624505084 0.0144139848116333 0.0007277776388750971 -0.012887175039534265 0.0 0.0
0.0 0.02708907472136743 -0.021915663855002578 0.021112351583262544 0.0008033122717400193 -0.017138369758884116 0.0 0.0
0.0 0.03617006483120629 -0.029483935826708114 0.028612075107008507 0.0008718607196995812 -0.02121281620431165 0.0 0.0
0.0 0.046090320931147045 -0.0377852427263715 0.03684812712638465 0.000937115599986841 -0.025108149311702875 0.0 0.0
0.0 0.0567273887350558 -0.0467506362397378 0.045746418876943556 0.0010042173627942616 -0.028980046638124625 0.0 0.0
0.0 0.06796739128720138 -0.0561483378122853 0.055072493826405625 0.001075843985879612 -0.033190055722824484 0.0 0.0
0.0 0.07925183766532629 -0.06545234526393512 0.0642994645224302 0.0011528807415048632 -0.03820688016643542 0.0 0.0
0.0 0.08941567817785484 -0.07369822941770601 0.07246013582780671 0.0012380935898992501 -0.04405598050876338 0.0 0.0
0.0 0.0965229531741071 -0.07924282108950394 0.07790448566740914 0.0013383354220947348 -0.04954557693355027 0.0 0.0
0.0 0.09690917521800814 -0.07924553373721592 0.07775715195272702 0.0014883817844888773 -0.05173583505474873 0.0 0.0
0.0 0.08442071352747076 -0.06854303222302024 0.066830905353733 0.0017121268692872776 -0.04739186860366436 0.0 0.0
0.0 0.08442071352747588 -0.06854303222301447 0.06683090535372806 0.0017121268692863764 0.04739186860372594 0.0 0.0
0.0 0.09690917521800699 -0.07924553373720193 0.0777571519527149 0.0014883817844870248 0.051735835054828594 0.0 0.0
0.0 0.09652295317408367 -0.07924282108947352 0.07790448566737974 0.0013383354220937323 0.04954557693361129 0.0 0.0
0.0 0.08941567817780255 -0.07369822941765714 0.07246013582775847 0.0012380935898986456 0.04405598050877638 0.0 0.0
0.0 0.07925183766526063 -0.06545234526387854 0.06429946452237426 0.0011528807415042953 0.03820688016641792 0.0 0.0
0.0 0.06796739128713226 -0.0561483378122271 0.055072493826347275 0.0010758439858797701 0.03319005572280017 0.0 0.0
0.0 0.056727388734986436 -0.046750636239679566 0.04574641887688535 0.0010042173627942304 0.028980046638098146 0.0 0.0
0.0 0.04609032093108472 -0.03778524272631836 0.03684812712633205 0.0009371155999863069 0.025108149311682385 0.0 0.0
0.0 0.03617006483114214 -0.029483935826654213 0.028612075106955084 0.000871860719699096 0.02121281620428335 0.0 0.0
0.0 0.027089074721306197 -0.021915663854952815 0.021112351583213514 0.0008033122717393035 0.01713836975884704 0.0 0.0
0.0 0.0189102303095271 -0.015141762450469498 0.014413984811595146 0.0007277776388743488 0.012887175039499781 0.0 0.0
0.0 0.011850275579435778 -0.009326469022053453 0.008697115855219623 0.0006293531668338363 0.008734351973192781 0.0 0.0
0.0 0.006235002151384455 -0.004784280864429471 0.004307138786325089 0.0004771420781043807 0.00513875114614849 0.0 0.0
0.0 0.0025092715657022897 -0.0018179983587798528 0.0015603965541259909 0.0002576018046538618 0.002441048964796291 0.0 0.0
0.0 0.0006822758879349894 -0.00043423847352022817 0.0003582652199094166 7.59732536108117e-05 0.0007900488575135047 0.0 0.0
0.0 0.0001334535584704649 -6.719611990743488e-05 5.488749420362487e-05 1.230862570380997e-05 0.00016496866458430944 0.0 0.0
0.0 3.0959796968643016e-05 -1.1766858052103693e-05 9.688235357863628e-06 2.078622694240057e-06 3.7906022415510047e-05 0.0 0.0
0.0 7.70572056582407e-06 -1.926635756707561e-06 1.5727250933683057e-06 3.5391066333925405e-07 8.566928119691467e-06 0.0 0.0
0.0 4.063806093257621e-07 8.838753319458759e-09 -5.922659733024222e-09 -2.916093586432878e-09 -8.037141164573473e-08 0.0 0.0
0.0 0.0 0.0 0.0 0.0 0.0 0.0 0.0
0.0 0.0 0.0 0.0 0.0 0.0 0.0 0.0
0.0 0.0 0.0 0.0 0.0 0.0 0.0 0.0
0.0 3.597253944692402e-06 -1.0653779067005493e-06 8.664988873622404e-07 1.9887901933831277e-07 -3.7229689259432457e-06 0.0 0.0
0.0 2.9756005377182882e-05 -1.183742470713685e-05 9.64809689352664e-06 2.189327813610226e-06 -2.851538977370129e-05 0.0 0.0
0.0 0.00021455750735239454 -0.00012702200160046758 0.00010352748496640196 2.3494516634065622e-05 -0.00021882552227727982 0.0 0.0
0.0 0.0011615653739887638 -0.0008648437797506905 0.0007229247785413692 0.000141919001209321 -0.0010708410048862137 0.0 0.0
0.0 0.003882382196285509 -0.0030606722674305304 0.0026889445105048497 0.00037172775692568194 -0.0028800812895078748 0.0 0.0
0.0 0.008845272809370438 -0.0071597626604591215 0.006586357300276178 0.0005734053601829409 -0.005730150197675059 0.0 0.0
0.0 0.015948229550648074 -0.01309403419603931 0.012393193311109225 0.0007008408849300817 -0.009543883272848623 0.0 0.0
0.0 0.02484759698081355 -0.020546920841879257 0.019754046464200287 0.0007928743776789719 -0.013857841847975404 0.0 0.0
0.0 0.0351688534537336 -0.029222221898221278 0.028348179988871305 0.0008740419093499646 -0.018210541891670033 0.0 0.0
0.0 0.04667402999155395 -0.03893579473452556 0.03798542654695425 0.0009503681875713185 -0.022384218610423806 0.0 0.0
0.0 0.0592449445183486 -0.04960220936467068 0.0485787695794029 0.001023439785267729 -0.026366891086639404 0.0 0.0
0.0 0.07283609624536838 -0.06115820532316213 0.06006093482530876 0.0010972704978533816 -0.03029268281809005 0.0 0.0
0.0 0.08729817448760573 -0.07339136431554588 0.07221271172837979 0.0011786525871660578 -0.03457636865560616 0.0 0.0
0.0 0.10174135698675017 -0.08567976602803104 0.08440648635907252 0.0012732796689585077 -0.03975286184659038 0.0 0.0
0.0 0.11511347177963818 -0.0967059558646641 0.09532114568982612 0.0013848101748379599 -0.04588211027238348 0.0 0.0
0.0 0.12431943426862072 -0.1041685899031731 0.1026466825938114 0.001521907309361687 -0.05169587443100333 0.0 0.0
0.0 0.12488616303466529 -0.10438374880300046 0.10269302813246822 0.0016907206705321677 -0.054570328254819375 0.0 0.0
0.0 0.11070502095666712 -0.09190298330589258 0.09001861865877517 0.0018843646471174212 -0.05286682113565942 0.0 0.0
0.0 0.1107050209566693 -0.0919029833058857 0.09001861865876806 0.0018843646471176385 0.052866821135722906 0.0 0.0
0.0 0.12488616303464953 -0.1043837488029768 0.10269302813244433 0.0016907206705323863 0.054570328254897424 0.0 0.0
0.0 0.12431943426858222 -0.10416858990313171 0.10264668259377058 0.0015219073093610449 0.05169587443106248 0.0 0.0
0.0 0.11511347177957504 -0.09670595586460588 0.09532114568976897 0.0013848101748368336 0.04588211027239924 0.0 0.0
0.0 0.10174135698667554 -0.08567976602796573 0.08440648635900855 0.0012732796689571301 0.039752861846578454 0.0 0.0
0.0 0.08729817448752442 -0.07339136431547555 0.0722127117283109 0.0011786525871646499 0.034576368655585506 0.0 0.0
0.0 0.07283609624528942 -0.06115820532309443 0.06006093482524197 0.0010972704978524758 0.030292682818065554 0.0 0.0
0.0 0.059244944518269275 -0.04960220936460244 0.04857876957933532 0.0010234397852671 0.026366891086617196 0.0 0.0
0.0 0.046674029991475616 -0.038935794734458934 0.037985426546888204 0.0009503681875707329 0.022384218610394975 0.0 0.0
0.0 0.035168853453662136 -0.029222221898161607 0.028348179988812342 0.0008740419093492443 0.018210541891634874 0.0 0.0
0.0 0.024847596980749065 -0.02054692084182625 0.01975404646414755 0.0007928743776786947 0.01385784184793728 0.0 0.0
0.0 0.015948229550602176 -0.013094034196001303 0.012393193311071807 0.0007008408849295002 0.009543883272824474 0.0 0.0
0.0 0.008845272809340159 -0.007159762660434401 0.006586357300252391 0.0005734053601820047 0.005730150197657993 0.0 0.0
0.0 0.003882382196265667 -0.003060672267415178 0.0026889445104905816 0.00037172775692459687 0.0028800812894948617 0.0 0.0
0.0 0.0011615653739785502 -0.0008648437797435624 0.0007229247785352801 0.0001419190012082819 0.0010708410048782928 0.0 0.0
0.0 0.00021455750734955797 -0.00012702200159928938 0.00010352748496541167 2.34945166338776e-05 0.00021882552227532641 0.0 0.0
0.0 2.9756005376663667e-05 -1.1837424707342493e-05 9.64809689368558e-06 2.1893278136569252e-06 2.8515389774165476e-05 0.0 0.0
0.0 3.59725394456631e-06 -1.065377906807758e-06 8.664988874489105e-07 1.9887901935884544e-07 3.7229689263215455e-06 0.0 0.0
0.0 0.0 0.0 0.0 0.0 0.0 0.0 0.0
0.0 0.0 0.0 0.0 0.0 0.0 0.0 0.0
0.0 0.0 0.0 0.0 0.0 0.0 0.0 0.0
0.0 0.0 0.0 0.0 0.0 0.0 0.0 0.0
0.0 9.159772724021529e-07 5.630253744311479e-08 -4.536700834069255e-08 -1.0935529102421052e-08 1.5681455061216043e-07 0.0 0.0
0.0 2.810397242392771e-05 -1.6117771833640612e-05 1.3019074892478902e-05 3.098696941161738e-06 -2.931356970882999e-05 0.0 0.0
0.0 0.00035098213079203693 -0.0002532171783923529 0.000206754812560452 4.646236583190085e-05 -0.0003106290180016233 0.0 0.0
0.0 0.0018652021084968014 -0.00148998755208542 0.0012650654729824346 0.0002249220791029859 -0.001276885667685613 0.0 0.0
0.0 0.00554634829781064 -0.00453638194973633 0.00406865172377349 0.00046773022596284205 -0.003067448464472004 0.0 0.0
0.0 0.011592165030348489 -0.009743580669898961 0.00910307161844927 0.0006405090514496886 -0.005901492520935644 0.0 0.0
0.0 0.020168313269214547 -0.01700870079674624 0.016256533205446795 0.0007521675912994511 -0.009625121006355262 0.0 0.0
0.0 0.030878133888878334 -0.02606236169056471 0.025216422943542826 0.000845938747021885 -0.013782378435060283 0.0 0.0
0.0 0.043327612749156634 -0.03662534596522076 0.035690911129762776 0.000934434835457961 -0.01799301585302119 0.0 0.0
0.0 0.05723006884081174 -0.04848187315589268 0.047462536807007294 0.0010193363488853054 -0.022028014219513746 0.0 0.0
0.0 0.07251653364756908 -0.061507987481535104 0.060407168050293676 0.001100819431241435 -0.02588188452797303 0.0 0.0
0.0 0.08890841612937186 -0.07562916981364129 0.07444743639298684 0.0011817334206545077 -0.02964476583286859 0.0 0.0
0.0 0.10643191268054672 -0.09063870288221577 0.08936687838931395 0.0012718244929018402 -0.03357903253548545 0.0 0.0
0.0 0.12432592781266161 -0.1058344287409265 0.10445093871674072 0.0013834900241857832 -0.03822035538181262 0.0 0.0
0.0 0.14038211297347242 -0.11955773206928808 0.11803522585485057 0.0015225062144374622 -0.04391418574583521 0.0 0.0
0.0 0.15147899705611093 -0.12884862844860925 0.12716061504039994 0.0016880134082093178 -0.04993264288454032 0.0 0.0
0.0 0.15257927699608603 -0.12935697940847232 0.1274901721810135 0.0018668072274587884 -0.054699204461417975 0.0 0.0
0.0 0.13755185110603368 -0.11544471442791022 0.11340139490158557 0.0020433195263246644 -0.057822502902347105 0.0 0.0
0.0 0.13755185110602944 -0.11544471442789894 0.11340139490157393 0.0020433195263249893 0.05782250290241167 0.0 0.0
0.0 0.15257927699605478 -0.12935697940843735 0.12749017218097713 0.0018668072274601849 0.0546992044614968 0.0 0.0
0.0 0.15147899705605683 -0.12884862844855652 0.12716061504034662 0.0016880134082098738 0.049932642884598366 0.0 0.0
0.0 0.1403821129733947 -0.11955773206921852 0.11803522585478067 0.0015225062144377855 0.04391418574585225 0.0 0.0
0.0 0.1243259278125648 -0.10583442874084324 0.10445093871665619 0.0013834900241870075 0.03822035538180147 0.0 0.0
0.0 0.1064319126804478 -0.09063870288213054 0.08936687838922816 0.0012718244929023445 0.03357903253547061 0.0 0.0
0.0 0.08890841612927244 -0.0756291698135558 0.07444743639290151 0.0011817334206542566 0.029644765832846476 0.0 0.0
0.0 0.07251653364747238 -0.061507987481451254 0.06040716805021039 0.001100819431240798 0.025881884527952953 0.0 0.0
0.0 0.05723006884071939 -0.048481873155813135 0.047462536806928336 0.001019336348884803 0.022028014219487708 0.0 0.0
0.0 0.043327612749072326 -0.03662534596514959 0.035690911129691805 0.0009344348354577912 0.017993015852986204 0.0 0.0
0.0 0.03087813388880538 -0.026062361690503664 0.025216422943482135 0.0008459387470215235 0.013782378435024695 0.0 0.0
0.0 0.020168313269159594 -0.017008700796699555 0.01625653320540078 0.0007521675912987698 0.009625121006331842 0.0 0.0
0.0 0.01159216503030723 -0.009743580669864289 0.009103071618415226 0.000640509051449053 0.005901492520916455 0.0 0.0
0.0 0.005546348297783669 -0.004536381949714375 0.004068651723752636 0.0004677302259617406 0.0030674484644582344 0.0 0.0
0.0 0.0018652021084845077 -0.0014899875520761074 0.0012650654729741853 0.00022492207910192148 0.0012768856676779851 0.0 0.0
0.0 0.0003509821307885738 -0.0002532171783905091 0.00020675481255889698 4.646236583161201e-05 0.0003106290179995155 0.0 0.0
0.0 2.8103972423307555e-05 -1.6117771833628885e-05 1.3019074892465134e-05 3.0986969411637267e-06 2.9313569708826564e-05 0.0 0.0
0.0 9.159772720464821e-07 5.630253742091469e-08 -4.5367008322703315e-08 -1.0935529098212496e-08 -1.5681455054918204e-07 0.0 0.0
0.0 0.0 0.0 0.0 0.0 0.0 0.0 0.0
0.0 0.0 0.0 0.0 0.0 0.0 0.0 0.0
0.0 0.0 0.0 0.0 0.0 0.0 0.0 0.0
0.0 0.0 0.0 0.0 0.0 0.0 0.0 0.0
0.0 2.633745482838499e-07 1.9034837468267232e-08 -1.5232417022672714e-08 -3.80242044559584e-09 3.959451352121644e-08 0.0 0.0
0.0 3.300908040937066e-05 -2.279482288478772e-05 1.831970532597177e-05 4.47511755881597e-06 -3.0499804955101497e-05 0.0 0.0
0.0 0.000593487651889592 -0.000470400472992399 0.0003861346290111061 8.426584398129301e-05 -0.0003989277959678359 0.0 0.0
0.0 0.0027887736585974292 -0.0022982892218804587 0.001985926445446364 0.00031236277643409535 -0.0013491942574243106 0.0 0.0
0.0 0.007218099761337557 -0.006205151703908085 0.00566261594951241 0.0005425357543956776 -0.0030161313589325235 0.0 0.0
0.0 0.014478488647728448 -0.01244963272689478 0.01176296645422903 0.0006866662726657549 -0.0055917149726414355 0.0 0.0
0.0 0.024516440045549058 -0.020995978651314466 0.020203179638933644 0.0007927990123808207 -0.008925773891120713 0.0 0.0
0.0 0.036968090715287866 -0.03163130940693295 0.030739961938209028 0.0008913474687239303 -0.012688481287696736 0.0 0.0
0.0 0.051510518184492586 -0.04406966744244209 0.04308239086824507 0.0009872765741969897 -0.01649889797343338 0.0 0.0
0.0 0.06784054719905495 -0.0580682520935842 0.05698708802227305 0.0010811640713111201 -0.020157455649799882 0.0 0.0
0.0 0.08573977322935383 -0.07345593186709415 0.07228369925179866 0.00117223261529548 -0.023676536913648853 0.0 0.0
0.0 0.10509553276941118 -0.09009956363794813 0.08883719992665906 0.0012623637112890288 -0.027050987743259574 0.0 0.0
0.0 0.12559572957725967 -0.10775983867963809 0.10639991093653338 0.0013599277431046919 -0.03031406793287444 0.0 0.0
0.0 0.14621213340427228 -0.1256990959418527 0.12421589521120159 0.0014832007306510861 -0.03380775727827911 0.0 0.0
0.0 0.1652447082693526 -0.14203597264411771 0.14039024036578232 0.001645732278335361 -0.0383093651813899 0.0 0.0
0.0 0.17857047306808266 -0.15328904631794246 0.1514537913966401 0.0018352549213023995 -0.04444338695871029 0.0 0.0
0.0 0.1806339776892661 -0.15449958604998945 0.1524697225505329 0.0020298634994564166 -0.0522766706687327 0.0 0.0
0.0 0.16511067805189 -0.13963189683569602 0.13743007045145944 0.002201826384236471 -0.062282534967541714 0.0 0.0
0.0 0.16511067805187984 -0.13963189683568078 0.1374300704514437 0.002201826384237146 0.06228253496760065 0.0 0.0
0.0 0.18063397768922537 -0.1544995860499479 0.15246972255049135 0.0020298634994564894 0.05227667066880398 0.0 0.0
0.0 0.17857047306801344 -0.15328904631787865 0.1514537913965761 0.0018352549213024364 0.044443386958760205 0.0 0.0
0.0 0.1652447082692592 -0.14203597264403556 0.1403902403657002 0.0016457322783352947 0.03830936518140109 0.0 0.0
0.0 0.1462121334041635 -0.12569909594175802 0.12421589521110792 0.001483200730650022 0.0338077572782695 0.0 0.0
0.0 0.1255957295771487 -0.10775983867954109 0.10639991093643848 0.0013599277431025538 0.03031406793286323 0.0 0.0
0.0 0.1050955327693023 -0.09009956363785393 0.08883719992656589 0.0012623637112879871 0.027050987743241772 0.0 0.0
0.0 0.08573977322924156 -0.07345593186699717 0.07228369925170186 0.001172232615295324 0.023676536913630176 0.0 0.0
0.0 0.06784054719894794 -0.058068252093491736 0.05698708802218119 0.0010811640713105646 0.02015745564977542 0.0 0.0
0.0 0.05151051818439705 -0.04406966744235997 0.04308239086816396 0.0009872765741960133 0.0164988979734014 0.0 0.0
0.0 0.036968090715207125 -0.031631309406863865 0.030739961938140638 0.0008913474687232258 0.012688481287666014 0.0 0.0
0.0 0.024516440045488516 -0.020995978651262272 0.020203179638881772 0.0007927990123805023 0.008925773891101017 0.0 0.0
0.0 0.014478488647683627 -0.01244963272685611 0.011762966454191127 0.0006866662726649842 0.005591714972624647 0.0 0.0
0.0 0.0072180997613069875 -0.006205151703882012 0.0056626159494873474 0.0005425357543946618 0.003016131358920793 0.0 0.0
0.0 0.0027887736585806137 -0.002298289221867171 0.001985926445434212 0.00031236277643295976 0.001349194257416856 0.0 0.0
0.0 0.0005934876518850062 -0.0004704004729895054 0.00038613462900865636 8.426584398084887e-05 0.00039892779596566934 0.0 0.0
0.0 3.300908040879965e-05 -2.2794822884939394e-05 1.8319705326081136e-05 4.47511755885826e-06 3.0499804955288013e-05 0.0 0.0
0.0 2.633745479801639e-07 1.90348374459991e-08 -1.5232417004860948e-08 -3.802420441135515e-09 -3.959451347502403e-08 0.0 0.0
0.0 0.0 0.0 0.0 0.0 0.0 0.0 0.0
0.0 0.0 0.0 0.0 0.0 0.0 0.0 0.0
0.0 0.0 0.0 0.0 0.0 0.0 0.0 0.0
0.0 0.0 0.0 0.0 0.0 0.0 0.0 0.0
0.0 0.0 0.0 0.0 0.0 0.0 0.0 0.0
0.0 5.2416638791116385e-05 -4.106268650668441e-05 3.301319291336476e-05 8.049493593319658e-06 -3.828338792907433e-05 0.0 0.0
0.0 0.00098194573450071 -0.0008085342215064868 0.0006696426628886377 0.000138891558617849 -0.0004426462982308 0.0 0.0
0.0 0.0038552098578667395 -0.0032751611192681695 0.0028789791245609118 0.000396181994707258 -0.0012663648500131422 0.0 0.0
0.0 0.009112592362689836 -0.007990151498210895 0.007392198050899776 0.0005979534473111156 -0.002634909628678357 0.0 0.0
0.0 0.017502182594250737 -0.015211901957271233 0.01449109797308695 0.0007208039841842778 -0.004724721115813856 0.0 0.0
0.0 0.02891103710930898 -0.02501000846000448 0.024183560439506955 0.000826448020497504 -0.00747073906608569 0.0 0.0
0.0 0.0430926566252864 -0.0372026655505285 0.036272140471586556 0.0009305250789419478 -0.010585859197603523 0.0 0.0
0.0 0.05973259993915662 -0.051503751992931945 0.05046953196836085 0.0010342200245710778 -0.013745798150142853 0.0 0.0
0.0 0.07842826292273442 -0.06764401508678741 0.06650699589735516 0.0011370191894322442 -0.016777091446729064 0.0 0.0
0.0 0.09908838600884323 -0.08539497915561496 0.08415606335392632 0.0012389158016886332 -0.019708871281795683 0.0 0.0
0.0 0.12110650100406016 -0.1045275819360829 0.10318672639835556 0.001340855537727347 -0.02252356502975061 0.0 0.0
0.0 0.14433153218873163 -0.12468192832865946 0.1232344527897094 0.0014474755389499942 -0.024978071062569166 0.0 0.0
0.0 0.16786035785495113 -0.14507974564460832 0.14350552400497008 0.0015742216396381005 -0.026931284300786215 0.0 0.0
0.0 0.18959426544224173 -0.16389713912167359 0.16215352094067564 0.0017436181809979182 -0.02940492411584388 0.0 0.0
0.0 0.2054745598973203 -0.17747151457563196 0.17550744562568413 0.0019640689499477596 -0.035135839168122296 0.0 0.0
0.0 0.20927387838069847 -0.18011086049728803 0.177926424567533 0.0021844359297551246 -0.04680409298128278 0.0 0.0
0.0 0.19414807441664314 -0.16497946155517204 0.16260660743865019 0.00237285411652188 -0.06589872389073476 0.0 0.0
0.0 0.19414807441663184 -0.16497946155515747 0.16260660743863561 0.0023728541165218345 0.06589872389078089 0.0 0.0
0.0 0.20927387838065514 -0.18011086049724626 0.17792642456749155 0.0021844359297547517 0.04680409298134397 0.0 0.0
0.0 0.2054745598972413 -0.17747151457556093 0.17550744562561338 0.001964068949947494 0.03513583916816725 0.0 0.0
0.0 0.18959426544213612 -0.16389713912158127 0.16215352094058447 0.0017436181809968717 0.029404924115851563 0.0 0.0
0.0 0.16786035785482892 -0.14507974564450252 0.14350552400486472 0.0015742216396377763 0.026931284300778638 0.0 0.0
0.0 0.14433153218860628 -0.12468192832855111 0.12323445278960075 0.0014474755389504077 0.024978071062562668 0.0 0.0
0.0 0.12110650100393247 -0.1045275819359725 0.10318672639824548 0.0013408555377270115 0.022523565029736736 0.0 0.0
0.0 0.09908838600871826 -0.08539497915550617 0.08415606335381903 0.001238915801687197 0.019708871281781663 0.0 0.0
0.0 0.07842826292261243 -0.06764401508668161 0.06650699589725062 0.0011370191894309594 0.016777091446711155 0.0 0.0
0.0 0.05973259993904581 -0.051503751992836105 0.05046953196826557 0.00103422002457053 0.013745798150116229 0.0 0.0
0.0 0.04309265662519293 -0.03720266555044773 0.03627214047150634 0.0009305250789413882 0.010585859197577234 0.0 0.0
0.0 0.02891103710923695 -0.025010008459941835 0.024183560439444945 0.0008264480204968836 0.007470739066068197 0.0 0.0
0.0 0.017502182594197023 -0.015211901957224577 0.0144910979730407 0.0007208039841838846 0.004724721115799024 0.0 0.0
0.0 0.009112592362656902 -0.007990151498182137 0.007392198050871764 0.0005979534473103753 0.0026349096286688543 0.0 0.0
0.0 0.0038552098578487634 -0.0032751611192531186 0.0028789791245470114 0.0003961819947061066 0.0012663648500072454 0.0 0.0
0.0 0.0009819457344946195 -0.0008085342215020834 0.0006696426628848604 0.00013889155861722283 0.00044264629822856683 0.0 0.0
0.0 5.241663879021641e-05 -4.106268650663857e-05 3.301319291330937e-05 8.049493593329241e-06 3.8283387929010264e-05 0.0 0.0
0.0 0.0 0.0 0.0 0.0 0.0 0.0 0.0
0.0 0.0 0.0 0.0 0.0 0.0 0.0 0.0
0.0 0.0 0.0 0.0 0.0 0.0 0.0 0.0
0.0 0.0 0.0 0.0 0.0 0.0 0.0 0.0
0.0 0.0 0.0 0.0 0.0 0.0 0.0 0.0
0.0 0.0 0.0 0.0 0.0 0.0 0.0 0.0
0.0 0.00011160601167479407 -9.278143537112421e-05 7.450594047038784e-05 1.8275494900736393e-05 -5.229618908691242e-05 0.0 0.0
0.0 0.0015418465772737643 -0.001280650670350116 0.0010747329591067208 0.00020591771124339525 -0.000401087990360535 0.0 0.0
0.0 0.004903875527270728 -0.004392971128171824 0.003922910295998441 0.00047006083217338165 -0.000976887565574721 0.0 0.0
0.0 0.011154561992905218 -0.009836976970536709 0.009200467773477416 0.0006365091970592966 -0.0019103985406305638 0.0 0.0
0.0 0.020576297863693346 -0.01799455273511331 0.017246470684866934 0.0007480820502463844 -0.003341927751052304 0.0 0.0
0.0 0.03332423234156829 -0.029004461908680626 0.028150381420972148 0.0008540804877084519 -0.005263898741591153 0.0 0.0
0.0 0.04921455290524854 -0.042728034729805 0.04176377512997742 0.0009642595998275465 -0.007475903288407027 0.0 0.0
0.0 0.06792445105104011 -0.05887960637529861 0.057803572573266966 0.0010760338020315973 -0.009723801209919093 0.0 0.0
0.0 0.0891481988701885 -0.07715748840012289 0.07596942752367672 0.001188060876446164 -0.01188102502706628 0.0 0.0
0.0 0.1122567373546354 -0.09727248665515245 0.09597129605778679 0.0013011905973656468 -0.013993830876389791 0.0 0.0
0.0 0.13712880769735208 -0.1188645557138307 0.11744779403214417 0.0014167616816864745 -0.01599362904454633 0.0 0.0
0.0 0.16311646720999914 -0.14138720604603275 0.13985076364097024 0.0015364424050625857 -0.01755793414609267 0.0 0.0
0.0 0.18908290117111193 -0.16393203594562883 0.16226701508969665 0.0016650208559321432 -0.018208089074912323 0.0 0.0
0.0 0.2131730675196268 -0.1848630963858213 0.18304224710001551 0.001820849285805888 -0.01830090512166838 0.0 0.0
0.0 0.2319018810962738 -0.20102568656616543 0.1989897175279288 0.00203596903823664 -0.021594509289333135 0.0 0.0
0.0 0.23886770582022343 -0.2064639716622426 0.20411694304588096 0.002347028616361435 -0.036472273962067425 0.0 0.0
0.0 0.22533644011842124 -0.19224857481884758 0.18967567595504864 0.0025728988637987527 -0.06781582027285318 0.0 0.0
0.0 0.2253364401184027 -0.1922485748188285 0.18967567595502954 0.0025728988637987835 0.06781582027288935 0.0 0.0
0.0 0.23886770582016917 -0.20646397166219274 0.20411694304583225 0.002347028616360487 0.03647227396211619 0.0 0.0
0.0 0.23190188109618337 -0.2010256865660856 0.19898971752785055 0.0020359690382351255 0.021594509289365606 0.0 0.0
0.0 0.2131730675195046 -0.1848630963857149 0.18304224709990966 0.0018208492858052966 0.018300905121673844 0.0 0.0
0.0 0.18908290117097687 -0.1639320359455113 0.1622670150895808 0.0016650208559304699 0.018208089074907185 0.0 0.0
0.0 0.16311646720985734 -0.14138720604590915 0.1398507636408479 0.001536442405061254 0.017557934146091966 0.0 0.0
0.0 0.13712880769720792 -0.11886455571370558 0.11744779403202008 0.001416761681685458 0.01599362904453836 0.0 0.0
0.0 0.11225673735449065 -0.09727248665502683 0.095971296057662 0.0013011905973648685 0.01399383087638144 0.0 0.0
0.0 0.08914819887005189 -0.07715748840000411 0.07596942752355851 0.001188060876445628 0.011881025027055894 0.0 0.0
0.0 0.0679244510509188 -0.05887960637519351 0.057803572573162626 0.0010760338020308637 0.009723801209900114 0.0 0.0
0.0 0.049214552905146626 -0.04272803472971657 0.041763775129889706 0.0009642595998268746 0.007475903288387762 0.0 0.0
0.0 0.03332423234148793 -0.02900446190861029 0.028150381420902322 0.000854080487707961 0.005263898741580249 0.0 0.0
0.0 0.020576297863634352 -0.017994552735061675 0.017246470684815732 0.0007480820502459283 0.0033419277510423973 0.0 0.0
0.0 0.011154561992865892 -0.00983697697050191 0.0092004677734434 0.0006365091970585133 0.0019103985406234082 0.0 0.0
0.0 0.004903875527249331 -0.004392971128152962 0.0039229102959804345 0.000470060832172529 0.0009768875655698705 0.0 0.0
0.0 0.0015418465772643489 -0.0012806506703426093 0.001074732959100232 0.00020591771124237743 0.00040108799035871073 0.0 0.0
0.0 0.00011160601167309457 -9.278143537048239e-05 7.450594046983785e-05 1.827549490064447e-05 5.229618908654931e-05 0.0 0.0
0.0 0.0 0.0 0.0 0.0 0.0 0.0 0.0
0.0 0.0 0.0 0.0 0.0 0.0 0.0 0.0
0.0 0.0 0.0 0.0 0.0 0.0 0.0 0.0
0.0 0.0 0.0 0.0 0.0 0.0 0.0 0.0
0.0 0.0 0.0 0.0 0.0 0.0 0.0 0.0
0.0 0.0 0.0 0.0 0.0 0.0 0.0 0.0
0.0 0.00025890424161349393 -0.0002270017229530996 0.0001822818495146515 4.471987343844819e-05 -5.3803670153990494e-05 0.0 0.0
0.0 0.0022753337447057468 -0.0018769140586459164 0.0015973223162573562 0.0002795917423885591 -0.00023068585748890508 0.0 0.0
0.0 0.006232597115872945 -0.005584241668521467 0.005056066558029112 0.000528175110492354 -0.00045795944539556545 0.0 0.0
0.0 0.013262377300570309 -0.011718559356308602 0.011052588926847002 0.0006659704294615964 -0.0008397447386197922 0.0 0.0
0.0 0.023690300649315706 -0.020757333904732174 0.019987843338069564 0.0007694905666626075 -0.001447207898200353 0.0 0.0
0.0 0.03774919387414577 -0.03293270159486483 0.03205576781890957 0.0008769337759552398 -0.002313536811527452 0.0 0.0
0.0 0.05535568312308246 -0.04815792228970332 0.04716493711467688 0.0009929851750264723 -0.003352305969084952 0.0 0.0
0.0 0.07620780440083835 -0.06615013555477271 0.06503698445749856 0.001113151097274175 -0.004427991075274488 0.0 0.0
0.0 0.09962074569678385 -0.08656469459645968 0.08532955813804968 0.0012351364584099397 -0.005475719585712666 0.0 0.0
0.0 0.1254642466096546 -0.10902247676703845 0.10766309767332771 0.0013593790937107043 -0.006488868279680355 0.0 0.0
0.0 0.15317654905677933 -0.13304274894199275 0.1315545059649395 0.001488242977053174 -0.007389041697410113 0.0 0.0
0.0 0.18183267891984065 -0.15788735588990577 0.15626430980050202 0.0016230460894038155 -0.00797309550816217 0.0 0.0
0.0 0.21012307923912682 -0.18240449836162886 0.18064224668170253 0.0017622516799261974 -0.007841111328137034 0.0 0.0
0.0 0.23609984872589942 -0.20493185298814207 0.2030272826846277 0.0019045703035143224 -0.006638016348161771 0.0 0.0
0.0 0.25699721904754924 -0.2230709485964214 0.22100257690007066 0.002068371696350533 -0.005988058993351253 0.0 0.0
0.0 0.2682896455765332 -0.23260798398671909 0.23028349445075422 0.002324489535964716 -0.01663137769423579 0.0 0.0
0.0 0.26053208886740004 -0.22348271571928524 0.22052810071350964 0.0029546150057754893 -0.06259135270191721 0.0 0.0
0.0 0.2605320888673761 -0.22348271571926356 0.22052810071348766 0.0029546150057756715 0.06259135270193315 0.0 0.0
0.0 0.26828964557647034 -0.2326079839866634 0.23028349445070004 0.00232448953596321 0.016631377694261353 0.0 0.0
0.0 0.25699721904744555 -0.2230709485963306 0.22100257689998207 0.002068371696348474 0.005988058993366607 0.0 0.0
0.0 0.23609984872575693 -0.20493185298801858 0.20302728268450476 0.0019045703035138499 0.006638016348160317 0.0 0.0
0.0 0.21012307923896917 -0.18240449836149242 0.1806422466815662 0.0017622516799260704 0.007841111328131947 0.0 0.0
0.0 0.18183267891968297 -0.15788735588976882 0.15626430980036604 0.001623046089402659 0.007973095508161852 0.0 0.0
0.0 0.15317654905662437 -0.1330427489418579 0.1315545059648063 0.0014882429770515517 0.007389041697405216 0.0 0.0
0.0 0.12546424660949962 -0.10902247676690388 0.10766309767319415 0.0013593790937096967 0.006488868279675808 0.0 0.0
0.0 0.09962074569663094 -0.08656469459632722 0.08532955813791779 0.0012351364584094308 0.00547571958570886 0.0 0.0
0.0 0.07620780440070203 -0.06615013555465457 0.06503698445738085 0.0011131510972737125 0.0044279910752639 0.0 0.0
0.0 0.055355683122970574 -0.04815792228960624 0.0471649371145807 0.0009929851750255384 0.00335230596907527 0.0 0.0
0.0 0.037749193874053635 -0.0329327015947844 0.03205576781882968 0.000876933775954711 0.0023135368115222528 0.0 0.0
0.0 0.0236903006492465 -0.02075733390467146 0.019987843338009115 0.0007694905666623203 0.0014472078981952977 0.0 0.0
0.0 0.013262377300525542 -0.011718559356269118 0.011052588926807988 0.0006659704294611302 0.0008397447386168807 0.0 0.0
0.0 0.0062325971158472306 -0.005584241668498367 0.0050560665580067655 0.0005281751104916011 0.0004579594453936708 0.0 0.0
0.0 0.0022753337446938023 -0.0018769140586362494 0.0015973223162486522 0.0002795917423875979 0.00023068585748804428 0.0 0.0
0.0 0.0002589042416110169 -0.0002270017229515176 0.00018228184951334477 4.47198734381728e-05 5.380367015363227e-05 0.0 0.0
0.0 0.0 0.0 0.0 0.0 0.0 0.0 0.0
0.0 0.0 0.0 0.0 0.0 0.0 0.0 0.0
0.0 0.0 0.0 0.0 0.0 0.0 0.0 0.0