# vtk DataFile Version 3.0
Some data
ASCII
DATASET UNSTRUCTURED_GRID
POINTS 861 float
0.0 0.0 0.0
0.4 0.0 0.0
0.8 0.0 0.0
1.2000000000000002 0.0 0.0
1.6 0.0 0.0
2.0 0.0 0.0
2.4000000000000004 0.0 0.0
2.8000000000000003 0.0 0.0
3.2 0.0 0.0
3.6 0.0 0.0
4.0 0.0 0.0
4.4 0.0 0.0
4.800000000000001 0.0 0.0
5.2 0.0 0.0
5.6000000000000005 0.0 0.0
6.0 0.0 0.0
6.4 0.0 0.0
6.800000000000001 0.0 0.0
7.2 0.0 0.0
7.6000000000000005 0.0 0.0
8.0 0.0 0.0
8.4 0.0 0.0
8.8 0.0 0.0
9.200000000000001 0.0 0.0
9.600000000000001 0.0 0.0
10.0 0.0 0.0
10.4 0.0 0.0
10.8 0.0 0.0
11.200000000000001 0.0 0.0
11.600000000000001 0.0 0.0
12.0 0.0 0.0
12.4 0.0 0.0
12.8 0.0 0.0
13.200000000000001 0.0 0.0
13.600000000000001 0.0 0.0
14.0 0.0 0.0
14.4 0.0 0.0
14.8 0.0 0.0
15.200000000000001 0.0 0.0
15.600000000000001 0.0 0.0
16.0 0.0 0.0
0.0 0.1 0.0
0.4 0.1 0.0
0.8 0.1 0.0
1.2000000000000002 0.1 0.0
1.6 0.1 0.0
2.0 0.1 0.0
2.4000000000000004 0.1 0.0
2.8000000000000003 0.1 0.0
3.2 0.1 0.0
3.6 0.1 0.0
4.0 0.1 0.0
4.4 0.1 0.0
4.800000000000001 0.1 0.0
5.2 0.1 0.0
5.6000000000000005 0.1 0.0
6.0 0.1 0.0
6.4 0.1 0.0
6.800000000000001 0.1 0.0
7.2 0.1 0.0
7.6000000000000005 0.1 0.0
8.0 0.1 0.0
8.4 0.1 0.0
8.8 0.1 0.0
9.200000000000001 0.1 0.0
9.600000000000001 0.1 0.0
10.0 0.1 0.0
10.4 0.1 0.0
10.8 0.1 0.0
11.200000000000001 0.1 0.0
11.600000000000001 0.1 0.0
12.0 0.1 0.0
12.4 0.1 0.0
12.8 0.1 0.0
13.200000000000001 0.1 0.0
13.600000000000001 0.1 0.0
14.0 0.1 0.0
14.4 0.1 0.0
14.8 0.1 0.0
15.200000000000001 0.1 0.0
15.600000000000001 0.1 0.0
16.0 0.1 0.0
0.0 0.2 0.0
0.4 0.2 0.0
0.8 0.2 0.0
1.2000000000000002 0.2 0.0
1.6 0.2 0.0
2.0 0.2 0.0
2.4000000000000004 0.2 0.0
2.8000000000000003 0.2 0.0
3.2 0.2 0.0
3.6 0.2 0.0
4.0 0.2 0.0
4.4 0.2 0.0
4.800000000000001 0.2 0.0
5.2 0.2 0.0
5.6000000000000005 0.2 0.0
6.0 0.2 0.0
6.4 0.2 0.0
6.800000000000001 0.2 0.0
7.2 0.2 0.0
7.6000000000000005 0.2 0.0
8.0 0.2 0.0
8.4 0.2 0.0
8.8 0.2 0.0
9.200000000000001 0.2 0.0
9.600000000000001 0.2 0.0
10.0 0.2 0.0
10.4 0.2 0.0
10.8 0.2 0.0
11.200000000000001 0.2 0.0
11.600000000000001 0.2 0.0
12.0 0.2 0.0
12.4 0.2 0.0
12.8 0.2 0.0
13.200000000000001 0.2 0.0
13.600000000000001 0.2 0.0
14.0 0.2 0.0
14.4 0.2 0.0
14.8 0.2 0.0
15.200000000000001 0.2 0.0
15.600000000000001 0.2 0.0
16.0 0.2 0.0
0.0 0.30000000000000004 0.0
0.4 0.30000000000000004 0.0
0.8 0.30000000000000004 0.0
1.2000000000000002 0.30000000000000004 0.0
1.6 0.30000000000000004 0.0
2.0 0.30000000000000004 0.0
2.4000000000000004 0.30000000000000004 0.0
2.8000000000000003 0.30000000000000004 0.0
3.2 0.30000000000000004 0.0
3.6 0.30000000000000004 0.0
4.0 0.30000000000000004 0.0
4.4 0.30000000000000004 0.0
4.800000000000001 0.30000000000000004 0.0
5.2 0.30000000000000004 0.0
5.6000000000000005 0.30000000000000004 0.0
6.0 0.30000000000000004 0.0
6.4 0.30000000000000004 0.0
6.800000000000001 0.30000000000000004 0.0
7.2 0.30000000000000004 0.0
7.6000000000000005 0.30000000000000004 0.0
8.0 0.30000000000000004 0.0
8.4 0.30000000000000004 0.0
8.8 0.30000000000000004 0.0
9.200000000000001 0.30000000000000004 0.0
9.600000000000001 0.30000000000000004 0.0
10.0 0.30000000000000004 0.0
10.4 0.30000000000000004 0.0
10.8 0.30000000000000004 0.0
11.200000000000001 0.30000000000000004 0.0
11.600000000000001 0.30000000000000004 0.0
12.0 0.30000000000000004 0.0
12.4 0.30000000000000004 0.0
12.8 0.30000000000000004 0.0
13.200000000000001 0.30000000000000004 0.0
13.600000000000001 0.30000000000000004 0.0
14.0 0.30000000000000004 0.0
14.4 0.30000000000000004 0.0
14.8 0.30000000000000004 0.0
15.200000000000001 0.30000000000000004 0.0
15.600000000000001 0.30000000000000004 0.0
16.0 0.30000000000000004 0.0
0.0 0.4 0.0
0.4 0.4 0.0
0.8 0.4 0.0
1.2000000000000002 0.4 0.0
1.6 0.4 0.0
2.0 0.4 0.0
2.4000000000000004 0.4 0.0
2.8000000000000003 0.4 0.0
3.2 0.4 0.0
3.6 0.4 0.0
4.0 0.4 0.0
4.4 0.4 0.0
4.800000000000001 0.4 0.0
5.2 0.4 0.0
5.6000000000000005 0.4 0.0
6.0 0.4 0.0
6.4 0.4 0.0
6.800000000000001 0.4 0.0
7.2 0.4 0.0
7.6000000000000005 0.4 0.0
8.0 0.4 0.0
8.4 0.4 0.0
8.8 0.4 0.0
9.200000000000001 0.4 0.0
9.600000000000001 0.4 0.0
10.0 0.4 0.0
10.4 0.4 0.0
10.8 0.4 0.0
11.200000000000001 0.4 0.0
11.600000000000001 0.4 0.0
12.0 0.4 0.0
12.4 0.4 0.0
12.8 0.4 0.0
13.200000000000001 0.4 0.0
13.600000000000001 0.4 0.0
14.0 0.4 0.0
14.4 0.4 0.0
14.8 0.4 0.0
15.200000000000001 0.4 0.0
15.600000000000001 0.4 0.0
16.0 0.4 0.0
0.0 0.5 0.0
0.4 0.5 0.0
0.8 0.5 0.0
1.2000000000000002 0.5 0.0
1.6 0.5 0.0
2.0 0.5 0.0
2.4000000000000004 0.5 0.0
2.8000000000000003 0.5 0.0
3.2 0.5 0.0
3.6 0.5 0.0
4.0 0.5 0.0
4.4 0.5 0.0
4.800000000000001 0.5 0.0
5.2 0.5 0.0
5.6000000000000005 0.5 0.0
6.0 0.5 0.0
6.4 0.5 0.0
6.800000000000001 0.5 0.0
7.2 0.5 0.0
7.6000000000000005 0.5 0.0
8.0 0.5 0.0
8.4 0.5 0.0
8.8 0.5 0.0
9.200000000000001 0.5 0.0
9.600000000000001 0.5 0.0
10.0 0.5 0.0
10.4 0.5 0.0
10.8 0.5 0.0
11.200000000000001 0.5 0.0
11.600000000000001 0.5 0.0
12.0 0.5 0.0
12.4 0.5 0.0
12.8 0.5 0.0
13.200000000000001 0.5 0.0
13.600000000000001 0.5 0.0
14.0 0.5 0.0
14.4 0.5 0.0
14.8 0.5 0.0
15.200000000000001 0.5 0.0
15.600000000000001 0.5 0.0
16.0 0.5 0.0
0.0 0.6000000000000001 0.0
0.4 0.6000000000000001 0.0
0.8 0.6000000000000001 0.0
1.2000000000000002 0.6000000000000001 0.0
1.6 0.6000000000000001 0.0
2.0 0.6000000000000001 0.0
2.4000000000000004 0.6000000000000001 0.0
2.8000000000000003 0.6000000000000001 0.0
3.2 0.6000000000000001 0.0
3.6 0.6000000000000001 0.0
4.0 0.6000000000000001 0.0
4.4 0.6000000000000001 0.0
4.800000000000001 0.6000000000000001 0.0
5.2 0.6000000000000001 0.0
5.6000000000000005 0.6000000000000001 0.0
6.0 0.6000000000000001 0.0
6.4 0.6000000000000001 0.0
6.800000000000001 0.6000000000000001 0.0
7.2 0.6000000000000001 0.0
7.6000000000000005 0.6000000000000001 0.0
8.0 0.6000000000000001 0.0
8.4 0.6000000000000001 0.0
8.8 0.6000000000000001 0.0
9.200000000000001 0.6000000000000001 0.0
9.600000000000001 0.6000000000000001 0.0
10.0 0.6000000000000001 0.0
10.4 0.6000000000000001 0.0
10.8 0.6000000000000001 0.0
11.200000000000001 0.6000000000000001 0.0
11.600000000000001 0.6000000000000001 0.0
12.0 0.6000000000000001 0.0
12.4 0.6000000000000001 0.0
12.8 0.6000000000000001 0.0
13.200000000000001 0.6000000000000001 0.0
13.600000000000001 0.6000000000000001 0.0
14.0 0.6000000000000001 0.0
14.4 0.6000000000000001 0.0
14.8 0.6000000000000001 0.0
15.200000000000001 0.6000000000000001 0.0
15.600000000000001 0.6000000000000001 0.0
16.0 0.6000000000000001 0.0
0.0 0.7000000000000001 0.0
0.4 0.7000000000000001 0.0
0.8 0.7000000000000001 0.0
1.2000000000000002 0.7000000000000001 0.0
1.6 0.7000000000000001 0.0
2.0 0.7000000000000001 0.0
2.4000000000000004 0.7000000000000001 0.0
2.8000000000000003 0.7000000000000001 0.0
3.2 0.7000000000000001 0.0
3.6 0.7000000000000001 0.0
4.0 0.7000000000000001 0.0
4.4 0.7000000000000001 0.0
4.800000000000001 0.7000000000000001 0.0
5.2 0.7000000000000001 0.0
5.6000000000000005 0.7000000000000001 0.0
6.0 0.7000000000000001 0.0
6.4 0.7000000000000001 0.0
6.800000000000001 0.7000000000000001 0.0
7.2 0.7000000000000001 0.0
7.6000000000000005 0.7000000000000001 0.0
8.0 0.7000000000000001 0.0
8.4 0.7000000000000001 0.0
8.8 0.7000000000000001 0.0
9.200000000000001 0.7000000000000001 0.0
9.600000000000001 0.7000000000000001 0.0
10.0 0.7000000000000001 0.0
10.4 0.7000000000000001 0.0
10.8 0.7000000000000001 0.0
11.200000000000001 0.7000000000000001 0.0
11.600000000000001 0.7000000000000001 0.0
12.0 0.7000000000000001 0.0
12.4 0.7000000000000001 0.0
12.8 0.7000000000000001 0.0
13.200000000000001 0.7000000000000001 0.0
13.600000000000001 0.7000000000000001 0.0
14.0 0.7000000000000001 0.0
14.4 0.7000000000000001 0.0
14.8 0.7000000000000001 0.0
15.200000000000001 0.7000000000000001 0.0
15.600000000000001 0.7000000000000001 0.0
16.0 0.7000000000000001 0.0
0.0 0.8 0.0
0.4 0.8 0.0
0.8 0.8 0.0
1.2000000000000002 0.8 0.0
1.6 0.8 0.0
2.0 0.8 0.0
2.4000000000000004 0.8 0.0
2.8000000000000003 0.8 0.0
3.2 0.8 0.0
3.6 0.8 0.0
4.0 0.8 0.0
4.4 0.8 0.0
4.800000000000001 0.8 0.0
5.2 0.8 0.0
5.6000000000000005 0.8 0.0
6.0 0.8 0.0
6.4 0.8 0.0
6.800000000000001 0.8 0.0
7.2 0.8 0.0
7.6000000000000005 0.8 0.0
8.0 0.8 0.0
8.4 0.8 0.0
8.8 0.8 0.0
9.200000000000001 0.8 0.0
9.600000000000001 0.8 0.0
10.0 0.8 0.0
10.4 0.8 0.0
10.8 0.8 0.0
11.200000000000001 0.8 0.0
11.600000000000001 0.8 0.0
12.0 0.8 0.0
12.4 0.8 0.0
12.8 0.8 0.0
13.200000000000001 0.8 0.0
13.600000000000001 0.8 0.0
14.0 0.8 0.0
14.4 0.8 0.0
14.8 0.8 0.0
15.200000000000001 0.8 0.0
15.600000000000001 0.8 0.0
16.0 0.8 0.0
0.0 0.9 0.0
0.4 0.9 0.0
0.8 0.9 0.0
1.2000000000000002 0.9 0.0
1.6 0.9 0.0
2.0 0.9 0.0
2.4000000000000004 0.9 0.0
2.8000000000000003 0.9 0.0
3.2 0.9 0.0
3.6 0.9 0.0
4.0 0.9 0.0
4.4 0.9 0.0
4.800000000000001 0.9 0.0
5.2 0.9 0.0
5.6000000000000005 0.9 0.0
6.0 0.9 0.0
6.4 0.9 0.0
6.800000000000001 0.9 0.0
7.2 0.9 0.0
7.6000000000000005 0.9 0.0
8.0 0.9 0.0
8.4 0.9 0.0
8.8 0.9 0.0
9.200000000000001 0.9 0.0
9.600000000000001 0.9 0.0
10.0 0.9 0.0
10.4 0.9 0.0
10.8 0.9 0.0
11.200000000000001 0.9 0.0
11.600000000000001 0.9 0.0
12.0 0.9 0.0
12.4 0.9 0.0
12.8 0.9 0.0
13.200000000000001 0.9 0.0
13.600000000000001 0.9 0.0
14.0 0.9 0.0
14.4 0.9 0.0
14.8 0.9 0.0
15.200000000000001 0.9 0.0
15.600000000000001 0.9 0.0
16.0 0.9 0.0
0.0 1.0 0.0
0.4 1.0 0.0
0.8 1.0 0.0
1.2000000000000002 1.0 0.0
1.6 1.0 0.0
2.0 1.0 0.0
2.4000000000000004 1.0 0.0
2.8000000000000003 1.0 0.0
3.2 1.0 0.0
3.6 1.0 0.0
4.0 1.0 0.0
4.4 1.0 0.0
4.800000000000001 1.0 0.0
5.2 1.0 0.0
5.6000000000000005 1.0 0.0
6.0 1.0 0.0
6.4 1.0 0.0
6.800000000000001 1.0 0.0
7.2 1.0 0.0
7.6000000000000005 1.0 0.0
8.0 1.0 0.0
8.4 1.0 0.0
8.8 1.0 0.0
9.200000000000001 1.0 0.0
9.600000000000001 1.0 0.0
10.0 1.0 0.0
10.4 1.0 0.0
10.8 1.0 0.0
11.200000000000001 1.0 0.0
11.600000000000001 1.0 0.0
12.0 1.0 0.0
12.4 1.0 0.0
12.8 1.0 0.0
13.200000000000001 1.0 0.0
13.600000000000001 1.0 0.0
14.0 1.0 0.0
14.4 1.0 0.0
14.8 1.0 0.0
15.200000000000001 1.0 0.0
15.600000000000001 1.0 0.0
16.0 1.0 0.0
0.0 1.1 0.0
0.4 1.1 0.0
0.8 1.1 0.0
1.2000000000000002 1.1 0.0
1.6 1.1 0.0
2.0 1.1 0.0
2.4000000000000004 1.1 0.0
2.8000000000000003 1.1 0.0
3.2 1.1 0.0
3.6 1.1 0.0
4.0 1.1 0.0
4.4 1.1 0.0
4.800000000000001 1.1 0.0
5.2 1.1 0.0
5.6000000000000005 1.1 0.0
6.0 1.1 0.0
6.4 1.1 0.0
6.800000000000001 1.1 0.0
7.2 1.1 0.0
7.6000000000000005 1.1 0.0
8.0 1.1 0.0
8.4 1.1 0.0
8.8 1.1 0.0
9.200000000000001 1.1 0.0
9.600000000000001 1.1 0.0
10.0 1.1 0.0
10.4 1.1 0.0
10.8 1.1 0.0
11.200000000000001 1.1 0.0
11.600000000000001 1.1 0.0
12.0 1.1 0.0
12.4 1.1 0.0
12.8 1.1 0.0
13.200000000000001 1.1 0.0
13.600000000000001 1.1 0.0
14.0 1.1 0.0
14.4 1.1 0.0
14.8 1.1 0.0
15.200000000000001 1.1 0.0
15.600000000000001 1.1 0.0
16.0 1.1 0.0
0.0 1.2000000000000002 0.0
0.4 1.2000000000000002 0.0
0.8 1.2000000000000002 0.0
1.2000000000000002 1.2000000000000002 0.0
1.6 1.2000000000000002 0.0
2.0 1.2000000000000002 0.0
2.4000000000000004 1.2000000000000002 0.0
2.8000000000000003 1.2000000000000002 0.0
3.2 1.2000000000000002 0.0
3.6 1.2000000000000002 0.0
4.0 1.2000000000000002 0.0
4.4 1.2000000000000002 0.0
4.800000000000001 1.2000000000000002 0.0
5.2 1.2000000000000002 0.0
5.6000000000000005 1.2000000000000002 0.0
6.0 1.2000000000000002 0.0
6.4 1.2000000000000002 0.0
6.800000000000001 1.2000000000000002 0.0
7.2 1.2000000000000002 0.0
7.6000000000000005 1.2000000000000002 0.0
8.0 1.2000000000000002 0.0
8.4 1.2000000000000002 0.0
8.8 1.2000000000000002 0.0
9.200000000000001 1.2000000000000002 0.0
9.600000000000001 1.2000000000000002 0.0
10.0 1.2000000000000002 0.0
10.4 1.2000000000000002 0.0
10.8 1.2000000000000002 0.0
11.200000000000001 1.2000000000000002 0.0
11.600000000000001 1.2000000000000002 0.0
12.0 1.2000000000000002 0.0
12.4 1.2000000000000002 0.0
12.8 1.2000000000000002 0.0
13.200000000000001 1.2000000000000002 0.0
13.600000000000001 1.2000000000000002 0.0
14.0 1.2000000000000002 0.0
14.4 1.2000000000000002 0.0
14.8 1.2000000000000002 0.0
15.200000000000001 1.2000000000000002 0.0
15.600000000000001 1.2000000000000002 0.0
16.0 1.2000000000000002 0.0
0.0 1.3 0.0
0.4 1.3 0.0
0.8 1.3 0.0
1.2000000000000002 1.3 0.0
1.6 1.3 0.0
2.0 1.3 0.0
2.4000000000000004 1.3 0.0
2.8000000000000003 1.3 0.0
3.2 1.3 0.0
3.6 1.3 0.0
4.0 1.3 0.0
4.4 1.3 0.0
4.800000000000001 1.3 0.0
5.2 1.3 0.0
5.6000000000000005 1.3 0.0
6.0 1.3 0.0
6.4 1.3 0.0
6.800000000000001 1.3 0.0
7.2 1.3 0.0
7.6000000000000005 1.3 0.0
8.0 1.3 0.0
8.4 1.3 0.0
8.8 1.3 0.0
9.200000000000001 1.3 0.0
9.600000000000001 1.3 0.0
10.0 1.3 0.0
10.4 1.3 0.0
10.8 1.3 0.0
11.200000000000001 1.3 0.0
11.600000000000001 1.3 0.0
12.0 1.3 0.0
12.4 1.3 0.0
12.8 1.3 0.0
13.200000000000001 1.3 0.0
13.600000000000001 1.3 0.0
14.0 1.3 0.0
14.4 1.3 0.0
14.8 1.3 0.0
15.200000000000001 1.3 0.0
15.600000000000001 1.3 0.0
16.0 1.3 0.0
0.0 1.4000000000000001 0.0
0.4 1.4000000000000001 0.0
0.8 1.4000000000000001 0.0
1.2000000000000002 1.4000000000000001 0.0
1.6 1.4000000000000001 0.0
2.0 1.4000000000000001 0.0
2.4000000000000004 1.4000000000000001 0.0
2.8000000000000003 1.4000000000000001 0.0
3.2 1.4000000000000001 0.0
3.6 1.4000000000000001 0.0
4.0 1.4000000000000001 0.0
4.4 1.4000000000000001 0.0
4.800000000000001 1.4000000000000001 0.0
5.2 1.4000000000000001 0.0
5.6000000000000005 1.4000000000000001 0.0
6.0 1.4000000000000001 0.0
6.4 1.4000000000000001 0.0
6.800000000000001 1.4000000000000001 0.0
7.2 1.4000000000000001 0.0
7.6000000000000005 1.4000000000000001 0.0
8.0 1.4000000000000001 0.0
8.4 1.4000000000000001 0.0
8.8 1.4000000000000001 0.0
9.200000000000001 1.4000000000000001 0.0
9.600000000000001 1.4000000000000001 0.0
10.0 1.4000000000000001 0.0
10.4 1.4000000000000001 0.0
10.8 1.4000000000000001 0.0
11.200000000000001 1.4000000000000001 0.0
11.600000000000001 1.4000000000000001 0.0
12.0 1.4000000000000001 0.0
12.4 1.4000000000000001 0.0
12.8 1.4000000000000001 0.0
13.200000000000001 1.4000000000000001 0.0
13.600000000000001 1.4000000000000001 0.0
14.0 1.4000000000000001 0.0
14.4 1.4000000000000001 0.0
14.8 1.4000000000000001 0.0
15.200000000000001 1.4000000000000001 0.0
15.600000000000001 1.4000000000000001 0.0
16.0 1.4000000000000001 0.0
0.0 1.5 0.0
0.4 1.5 0.0
0.8 1.5 0.0
1.2000000000000002 1.5 0.0
1.6 1.5 0.0
2.0 1.5 0.0
2.4000000000000004 1.5 0.0
2.8000000000000003 1.5 0.0
3.2 1.5 0.0
3.6 1.5 0.0
4.0 1.5 0.0
4.4 1.5 0.0
4.800000000000001 1.5 0.0
5.2 1.5 0.0
5.6000000000000005 1.5 0.0
6.0 1.5 0.0
6.4 1.5 0.0
6.800000000000001 1.5 0.0
7.2 1.5 0.0
7.6000000000000005 1.5 0.0
8.0 1.5 0.0
8.4 1.5 0.0
8.8 1.5 0.0
9.200000000000001 1.5 0.0
9.600000000000001 1.5 0.0
10.0 1.5 0.0
10.4 1.5 0.0
10.8 1.5 0.0
11.200000000000001 1.5 0.0
11.600000000000001 1.5 0.0
12.0 1.5 0.0
12.4 1.5 0.0
12.8 1.5 0.0
13.200000000000001 1.5 0.0
13.600000000000001 1.5 0.0
14.0 1.5 0.0
14.4 1.5 0.0
14.8 1.5 0.0
15.200000000000001 1.5 0.0
15.600000000000001 1.5 0.0
16.0 1.5 0.0
0.0 1.6 0.0
0.4 1.6 0.0
0.8 1.6 0.0
1.2000000000000002 1.6 0.0
1.6 1.6 0.0
2.0 1.6 0.0
2.4000000000000004 1.6 0.0
2.8000000000000003 1.6 0.0
3.2 1.6 0.0
3.6 1.6 0.0
4.0 1.6 0.0
4.4 1.6 0.0
4.800000000000001 1.6 0.0
5.2 1.6 0.0
5.6000000000000005 1.6 0.0
6.0 1.6 0.0
6.4 1.6 0.0
6.800000000000001 1.6 0.0
7.2 1.6 0.0
7.6000000000000005 1.6 0.0
8.0 1.6 0.0
8.4 1.6 0.0
8.8 1.6 0.0
9.200000000000001 1.6 0.0
9.600000000000001 1.6 0.0
10.0 1.6 0.0
10.4 1.6 0.0
10.8 1.6 0.0
11.200000000000001 1.6 0.0
11.600000000000001 1.6 0.0
12.0 1.6 0.0
12.4 1.6 0.0
12.8 1.6 0.0
13.200000000000001 1.6 0.0
13.600000000000001 1.6 0.0
14.0 1.6 0.0
14.4 1.6 0.0
14.8 1.6 0.0
15.200000000000001 1.6 0.0
15.600000000000001 1.6 0.0
16.0 1.6 0.0
0.0 1.7000000000000002 0.0
0.4 1.7000000000000002 0.0
0.8 1.7000000000000002 0.0
1.2000000000000002 1.7000000000000002 0.0
1.6 1.7000000000000002 0.0
2.0 1.7000000000000002 0.0
2.4000000000000004 1.7000000000000002 0.0
2.8000000000000003 1.7000000000000002 0.0
3.2 1.7000000000000002 0.0
3.6 1.7000000000000002 0.0
4.0 1.7000000000000002 0.0
4.4 1.7000000000000002 0.0
4.800000000000001 1.7000000000000002 0.0
5.2 1.7000000000000002 0.0
5.6000000000000005 1.7000000000000002 0.0
6.0 1.7000000000000002 0.0
6.4 1.7000000000000002 0.0
6.800000000000001 1.7000000000000002 0.0
7.2 1.7000000000000002 0.0
7.6000000000000005 1.7000000000000002 0.0
8.0 1.7000000000000002 0.0
8.4 1.7000000000000002 0.0
8.8 1.7000000000000002 0.0
9.200000000000001 1.7000000000000002 0.0
9.600000000000001 1.7000000000000002 0.0
10.0 1.7000000000000002 0.0
10.4 1.7000000000000002 0.0
10.8 1.7000000000000002 0.0
11.200000000000001 1.7000000000000002 0.0
11.600000000000001 1.7000000000000002 0.0
12.0 1.7000000000000002 0.0
12.4 1.7000000000000002 0.0
12.8 1.7000000000000002 0.0
13.200000000000001 1.7000000000000002 0.0
13.600000000000001 1.7000000000000002 0.0
14.0 1.7000000000000002 0.0
14.4 1.7000000000000002 0.0
14.8 1.7000000000000002 0.0
15.200000000000001 1.7000000000000002 0.0
15.600000000000001 1.7000000000000002 0.0
16.0 1.7000000000000002 0.0
0.0 1.8 0.0
0.4 1.8 0.0
0.8 1.8 0.0
1.2000000000000002 1.8 0.0
1.6 1.8 0.0
2.0 1.8 0.0
2.4000000000000004 1.8 0.0
2.8000000000000003 1.8 0.0
3.2 1.8 0.0
3.6 1.8 0.0
4.0 1.8 0.0
4.4 1.8 0.0
4.800000000000001 1.8 0.0
5.2 1.8 0.0
5.6000000000000005 1.8 0.0
6.0 1.8 0.0
6.4 1.8 0.0
6.800000000000001 1.8 0.0
7.2 1.8 0.0
7.6000000000000005 1.8 0.0
8.0 1.8 0.0
8.4 1.8 0.0
8.8 1.8 0.0
9.200000000000001 1.8 0.0
9.600000000000001 1.8 0.0
10.0 1.8 0.0
10.4 1.8 0.0
10.8 1.8 0.0
11.200000000000001 1.8 0.0
11.600000000000001 1.8 0.0
12.0 1.8 0.0
12.4 1.8 0.0
12.8 1.8 0.0
13.200000000000001 1.8 0.0
13.600000000000001 1.8 0.0
14.0 1.8 0.0
14.4 1.8 0.0
14.8 1.8 0.0
15.200000000000001 1.8 0.0
15.600000000000001 1.8 0.0
16.0 1.8 0.0
0.0 1.9000000000000001 0.0
0.4 1.9000000000000001 0.0
0.8 1.9000000000000001 0.0
1.2000000000000002 1.9000000000000001 0.0
1.6 1.9000000000000001 0.0
2.0 1.9000000000000001 0.0
2.4000000000000004 1.9000000000000001 0.0
2.8000000000000003 1.9000000000000001 0.0
3.2 1.9000000000000001 0.0
3.6 1.9000000000000001 0.0
4.0 1.9000000000000001 0.0
4.4 1.9000000000000001 0.0
4.800000000000001 1.9000000000000001 0.0
5.2 1.9000000000000001 0.0
5.6000000000000005 1.9000000000000001 0.0
6.0 1.9000000000000001 0.0
6.4 1.9000000000000001 0.0
6.800000000000001 1.9000000000000001 0.0
7.2 1.9000000000000001 0.0
7.6000000000000005 1.9000000000000001 0.0
8.0 1.9000000000000001 0.0
8.4 1.9000000000000001 0.0
8.8 1.9000000000000001 0.0
9.200000000000001 1.9000000000000001 0.0
9.600000000000001 1.9000000000000001 0.0
10.0 1.9000000000000001 0.0
10.4 1.9000000000000001 0.0
10.8 1.9000000000000001 0.0
11.200000000000001 1.9000000000000001 0.0
11.600000000000001 1.9000000000000001 0.0
12.0 1.9000000000000001 0.0
12.4 1.9000000000000001 0.0
12.8 1.9000000000000001 0.0
13.200000000000001 1.9000000000000001 0.0
13.600000000000001 1.9000000000000001 0.0
14.0 1.9000000000000001 0.0
14.4 1.9000000000000001 0.0
14.8 1.9000000000000001 0.0
15.200000000000001 1.9000000000000001 0.0
15.600000000000001 1.9000000000000001 0.0
16.0 1.9000000000000001 0.0
0.0 2.0 0.0
0.4 2.0 0.0
0.8 2.0 0.0
1.2000000000000002 2.0 0.0
1.6 2.0 0.0
2.0 2.0 0.0
2.4000000000000004 2.0 0.0
2.8000000000000003 2.0 0.0
3.2 2.0 0.0
3.6 2.0 0.0
4.0 2.0 0.0
4.4 2.0 0.0
4.800000000000001 2.0 0.0
5.2 2.0 0.0
5.6000000000000005 2.0 0.0
6.0 2.0 0.0
6.4 2.0 0.0
6.800000000000001 2.0 0.0
7.2 2.0 0.0
7.6000000000000005 2.0 0.0
8.0 2.0 0.0
8.4 2.0 0.0
8.8 2.0 0.0
9.200000000000001 2.0 0.0
9.600000000000001 2.0 0.0
10.0 2.0 0.0
10.4 2.0 0.0
10.8 2.0 0.0
11.200000000000001 2.0 0.0
11.600000000000001 2.0 0.0
12.0 2.0 0.0
12.4 2.0 0.0
12.8 2.0 0.0
13.200000000000001 2.0 0.0
13.600000000000001 2.0 0.0
14.0 2.0 0.0
14.4 2.0 0.0
14.8 2.0 0.0
15.200000000000001 2.0 0.0
15.600000000000001 2.0 0.0
16.0 2.0 0.0
CELLS 800 4000
4 0 1 42 41
4 1 2 43 42
4 2 3 44 43
4 3 4 45 44
4 4 5 46 45
4 5 6 47 46
4 6 7 48 47
4 7 8 49 48
4 8 9 50 49
4 9 10 51 50
4 10 11 52 51
4 11 12 53 52
4 12 13 54 53
4 13 14 55 54
4 14 15 56 55
4 15 16 57 56
4 16 17 58 57
4 17 18 59 58
4 18 19 60 59
4 19 20 61 60
4 20 21 62 61
4 21 22 63 62
4 22 23 64 63
4 23 24 65 64
4 24 25 66 65
4 25 26 67 66
4 26 27 68 67
4 27 28 69 68
4 28 29 70 69
4 29 30 71 70
4 30 31 72 71
4 31 32 73 72
4 32 33 74 73
4 33 34 75 74
4 34 35 76 75
4 35 36 77 76
4 36 37 78 77
4 37 38 79 78
4 38 39 80 79
4 39 40 81 80
4 41 42 83 82
4 42 43 84 83
4 43 44 85 84
4 44 45 86 85
4 45 46 87 86
4 46 47 88 87
4 47 48 89 88
4 48 49 90 89
4 49 50 91 90
4 50 51 92 91
4 51 52 93 92
4 52 53 94 93
4 53 54 95 94
4 54 55 96 95
4 55 56 97 96
4 56 57 98 97
4 57 58 99 98
4 58 59 100 99
4 59 60 101 100
4 60 61 102 101
4 61 62 103 102
4 62 63 104 103
4 63 64 105 104
4 64 65 106 105
4 65 66 107 106
4 66 67 108 107
4 67 68 109 108
4 68 69 110 109
4 69 70 111 110
4 70 71 112 111
4 71 72 113 112
4 72 73 114 113
4 73 74 115 114
4 74 75 116 115
4 75 76 117 116
4 76 77 118 117
4 77 78 119 118
4 78 79 120 119
4 79 80 121 120
4 80 81 122 121
4 82 83 124 123
4 83 84 125 124
4 84 85 126 125
4 85 86 127 126
4 86 87 128 127
4 87 88 129 128
4 88 89 130 129
4 89 90 131 130
4 90 91 132 131
4 91 92 133 132
4 92 93 134 133
4 93 94 135 134
4 94 95 136 135
4 95 96 137 136
4 96 97 138 137
4 97 98 139 138
4 98 99 140 139
4 99 100 141 140
4 100 101 142 141
4 101 102 143 142
4 102 103 144 143
4 103 104 145 144
4 104 105 146 145
4 105 106 147 146
4 106 107 148 147
4 107 108 149 148
4 108 109 150 149
4 109 110 151 150
4 110 111 152 151
4 111 112 153 152
4 112 113 154 153
4 113 114 155 154
4 114 115 156 155
4 115 116 157 156
4 116 117 158 157
4 117 118 159 158
4 118 119 160 159
4 119 120 161 160
4 120 121 162 161
4 121 122 163 162
4 123 124 165 164
4 124 125 166 165
4 125 126 167 166
4 126 127 168 167
4 127 128 169 168
4 128 129 170 169
4 129 130 171 170
4 130 131 172 171
4 131 132 173 172
4 132 133 174 173
4 133 134 175 174
4 134 135 176 175
4 135 136 177 176
4 136 137 178 177
4 137 138 179 178
4 138 139 180 179
4 139 140 181 180
4 140 141 182 181
4 141 142 183 182
4 142 143 184 183
4 143 144 185 184
4 144 145 186 185
4 145 146 187 186
4 146 147 188 187
4 147 148 189 188
4 148 149 190 189
4 149 150 191 190
4 150 151 192 191
4 151 152 193 192
4 152 153 194 193
4 153 154 195 194
4 154 155 196 195
4 155 156 197 196
4 156 157 198 197
4 157 158 199 198
4 158 159 200 199
4 159 160 201 200
4 160 161 202 201
4 161 162 203 202
4 162 163 204 203
4 164 165 206 205
4 165 166 207 206
4 166 167 208 207
4 167 168 209 208
4 168 169 210 209
4 169 170 211 210
4 170 171 212 211
4 171 172 213 212
4 172 173 214 213
4 173 174 215 214
4 174 175 216 215
4 175 176 217 216
4 176 177 218 217
4 177 178 219 218
4 178 179 220 219
4 179 180 221 220
4 180 181 222 221
4 181 182 223 222
4 182 183 224 223
4 183 184 225 224
4 184 185 226 225
4 185 186 227 226
4 186 187 228 227
4 187 188 229 228
4 188 189 230 229
4 189 190 231 230
4 190 191 232 231
4 191 192 233 232
4 192 193 234 233
4 193 194 235 234
4 194 195 236 235
4 195 196 237 236
4 196 197 238 237
4 197 198 239 238
4 198 199 240 239
4 199 200 241 240
4 200 201 242 241
4 201 202 243 242
4 202 203 244 243
4 203 204 245 244
4 205 206 247 246
4 206 207 248 247
4 207 208 249 248
4 208 209 250 249
4 209 210 251 250
4 210 211 252 251
4 211 212 253 252
4 212 213 254 253
4 213 214 255 254
4 214 215 256 255
4 215 216 257 256
4 216 217 258 257
4 217 218 259 258
4 218 219 260 259
4 219 220 261 260
4 220 221 262 261
4 221 222 263 262
4 222 223 264 263
4 223 224 265 264
4 224 225 266 265
4 225 226 267 266
4 226 227 268 267
4 227 228 269 268
4 228 229 270 269
4 229 230 271 270
4 230 231 272 271
4 231 232 273 272
4 232 233 274 273
4 233 234 275 274
4 234 235 276 275
4 235 236 277 276
4 236 237 278 277
4 237 238 279 278
4 238 239 280 279
4 239 240 281 280
4 240 241 282 281
4 241 242 283 282
4 242 243 284 283
4 243 244 285 284
4 244 245 286 285
4 246 247 288 287
4 247 248 289 288
4 248 249 290 289
4 249 250 291 290
4 250 251 292 291
4 251 252 293 292
4 252 253 294 293
4 253 254 295 294
4 254 255 296 295
4 255 256 297 296
4 256 257 298 297
4 257 258 299 298
4 258 259 300 299
4 259 260 301 300
4 260 261 302 301
4 261 262 303 302
4 262 263 304 303
4 263 264 305 304
4 264 265 306 305
4 265 266 307 306
4 266 267 308 307
4 267 268 309 308
4 268 269 310 309
4 269 270 311 310
4 270 271 312 311
4 271 272 313 312
4 272 273 314 313
4 273 274 315 314
4 274 275 316 315
4 275 276 317 316
4 276 277 318 317
4 277 278 319 318
4 278 279 320 319
4 279 280 321 320
4 280 281 322 321
4 281 282 323 322
4 282 283 324 323
4 283 284 325 324
4 284 285 326 325
4 285 286 327 326
4 287 288 329 328
4 288 289 330 329
4 289 290 331 330
4 290 291 332 331
4 291 292 333 332
4 292 293 334 333
4 293 294 335 334
4 294 295 336 335
4 295 296 337 336
4 296 297 338 337
4 297 298 339 338
4 298 299 340 339
4 299 300 341 340
4 300 301 342 341
4 301 302 343 342
4 302 303 344 343
4 303 304 345 344
4 304 305 346 345
4 305 306 347 346
4 306 307 348 347
4 307 308 349 348
4 308 309 350 349
4 309 310 351 350
4 310 311 352 351
4 311 312 353 352
4 312 313 354 353
4 313 314 355 354
4 314 315 356 355
4 315 316 357 356
4 316 317 358 357
4 317 318 359 358
4 318 319 360 359
4 319 320 361 360
4 320 321 362 361
4 321 322 363 362
4 322 323 364 363
4 323 324 365 364
4 324 325 366 365
4 325 326 367 366
4 326 327 368 367
4 328 329 370 369
4 329 330 371 370
4 330 331 372 371
4 331 332 373 372
4 332 333 374 373
4 333 334 375 374
4 334 335 376 375
4 335 336 377 376
4 336 337 378 377
4 337 338 379 378
4 338 339 380 379
4 339 340 381 380
4 340 341 382 381
4 341 342 383 382
4 342 343 384 383
4 343 344 385 384
4 344 345 386 385
4 345 346 387 386
4 346 347 388 387
4 347 348 389 388
4 348 349 390 389
4 349 350 391 390
4 350 351 392 391
4 351 352 393 392
4 352 353 394 393
4 353 354 395 394
4 354 355 396 395
4 355 356 397 396
4 356 357 398 397
4 357 358 399 398
4 358 359 400 399
4 359 360 401 400
4 360 361 402 401
4 361 362 403 402
4 362 363 404 403
4 363 364 405 404
4 364 365 406 405
4 365 366 407 406
4 366 367 408 407
4 367 368 409 408
4 369 370 411 410
4 370 371 412 411
4 371 372 413 412
4 372 373 414 413
4 373 374 415 414
4 374 375 416 415
4 375 376 417 416
4 376 377 418 417
4 377 378 419 418
4 378 379 420 419
4 379 380 421 420
4 380 381 422 421
4 381 382 423 422
4 382 383 424 423
4 383 384 425 424
4 384 385 426 425
4 385 386 427 426
4 386 387 428 427
4 387 388 429 428
4 388 389 430 429
4 389 390 431 430
4 390 391 432 431
4 391 392 433 432
4 392 393 434 433
4 393 394 435 434
4 394 395 436 435
4 395 396 437 436
4 396 397 438 437
4 397 398 439 438
4 398 399 440 439
4 399 400 441 440
4 400 401 442 441
4 401 402 443 442
4 402 403 444 443
4 403 404 445 444
4 404 405 446 445
4 405 406 447 446
4 406 407 448 447
4 407 408 449 448
4 408 409 450 449
4 410 411 452 451
4 411 412 453 452
4 412 413 454 453
4 413 414 455 454
4 414 415 456 455
4 415 416 457 456
4 416 417 458 457
4 417 418 459 458
4 418 419 460 459
4 419 420 461 460
4 420 421 462 461
4 421 422 463 462
4 422 423 464 463
4 423 424 465 464
4 424 425 466 465
4 425 426 467 466
4 426 427 468 467
4 427 428 469 468
4 428 429 470 469
4 429 430 471 470
4 430 431 472 471
4 431 432 473 472
4 432 433 474 473
4 433 434 475 474
4 434 435 476 475
4 435 436 477 476
4 436 437 478 477
4 437 438 479 478
4 438 439 480 479
4 439 440 481 480
4 440 441 482 481
4 441 442 483 482
4 442 443 484 483
4 443 444 485 484
4 444 445 486 485
4 445 446 487 486
4 446 447 488 487
4 447 448 489 488
4 448 449 490 489
4 449 450 491 490
4 451 452 493 492
4 452 453 494 493
4 453 454 495 494
4 454 455 496 495
4 455 456 497 496
4 456 457 498 497
4 457 458 499 498
4 458 459 500 499
4 459 460 501 500
4 460 461 502 501
4 461 462 503 502
4 462 463 504 503
4 463 464 505 504
4 464 465 506 505
4 465 466 507 506
4 466 467 508 507
4 467 468 509 508
4 468 469 510 509
4 469 470 511 510
4 470 471 512 511
4 471 472 513 512
4 472 473 514 513
4 473 474 515 514
4 474 475 516 515
4 475 476 517 516
4 476 477 518 517
4 477 478 519 518
4 478 479 520 519
4 479 480 521 520
4 480 481 522 521
4 481 482 523 522
4 482 483 524 523
4 483 484 525 524
4 484 485 526 525
4 485 486 527 526
4 486 487 528 527
4 487 488 529 528
4 488 489 530 529
4 489 490 531 530
4 490 491 532 531
4 492 493 534 533
4 493 494 535 534
4 494 495 536 535
4 495 496 537 536
4 496 497 538 537
4 497 498 539 538
4 498 499 540 539
4 499 500 541 540
4 500 501 542 541
4 501 502 543 542
4 502 503 544 543
4 503 504 545 544
4 504 505 546 545
4 505 506 547 546
4 506 507 548 547
4 507 508 549 548
4 508 509 550 549
4 509 510 551 550
4 510 511 552 551
4 511 512 553 552
4 512 513 554 553
4 513 514 555 554
4 514 515 556 555
4 515 516 557 556
4 516 517 558 557
4 517 518 559 558
4 518 519 560 559
4 519 520 561 560
4 520 521 562 561
4 521 522 563 562
4 522 523 564 563
4 523 524 565 564
4 524 525 566 565
4 525 526 567 566
4 526 527 568 567
4 527 528 569 568
4 528 529 570 569
4 529 530 571 570
4 530 531 572 571
4 531 532 573 572
4 533 534 575 574
4 534 535 576 575
4 535 536 577 576
4 536 537 578 577
4 537 538 579 578
4 538 539 580 579
4 539 540 581 580
4 540 541 582 581
4 541 542 583 582
4 542 543 584 583
4 543 544 585 584
4 544 545 586 585
4 545 546 587 586
4 546 547 588 587
4 547 548 589 588
4 548 549 590 589
4 549 550 591 590
4 550 551 592 591
4 551 552 593 592
4 552 553 594 593
4 553 554 595 594
4 554 555 596 595
4 555 556 597 596
4 556 557 598 597
4 557 558 599 598
4 558 559 600 599
4 559 560 601 600
4 560 561 602 601
4 561 562 603 602
4 562 563 604 603
4 563 564 605 604
4 564 565 606 605
4 565 566 607 606
4 566 567 608 607
4 567 568 609 608
4 568 569 610 609
4 569 570 611 610
4 570 571 612 611
4 571 572 613 612
4 572 573 614 613
4 574 575 616 615
4 575 576 617 616
4 576 577 618 617
4 577 578 619 618
4 578 579 620 619
4 579 580 621 620
4 580 581 622 621
4 581 582 623 622
4 582 583 624 623
4 583 584 625 624
4 584 585 626 625
4 585 586 627 626
4 586 587 628 627
4 587 588 629 628
4 588 589 630 629
4 589 590 631 630
4 590 591 632 631
4 591 592 633 632
4 592 593 634 633
4 593 594 635 634
4 594 595 636 635
4 595 596 637 636
4 596 597 638 637
4 597 598 639 638
4 598 599 640 639
4 599 600 641 640
4 600 601 642 641
4 601 602 643 642
4 602 603 644 643
4 603 604 645 644
4 604 605 646 645
4 605 606 647 646
4 606 607 648 647
4 607 608 649 648
4 608 609 650 649
4 609 610 651 650
4 610 611 652 651
4 611 612 653 652
4 612 613 654 653
4 613 614 655 654
4 615 616 657 656
4 616 617 658 657
4 617 618 659 658
4 618 619 660 659
4 619 620 661 660
4 620 621 662 661
4 621 622 663 662
4 622 623 664 663
4 623 624 665 664
4 624 625 666 665
4 625 626 667 666
4 626 627 668 667
4 627 628 669 668
4 628 629 670 669
4 629 630 671 670
4 630 631 672 671
4 631 632 673 672
4 632 633 674 673
4 633 634 675 674
4 634 635 676 675
4 635 636 677 676
4 636 637 678 677
4 637 638 679 678
4 638 639 680 679
4 639 640 681 680
4 640 641 682 681
4 641 642 683 682
4 642 643 684 683
4 643 644 685 684
4 644 645 686 685
4 645 646 687 686
4 646 647 688 687
4 647 648 689 688
4 648 649 690 689
4 649 650 691 690
4 650 651 692 691
4 651 652 693 692
4 652 653 694 693
4 653 654 695 694
4 654 655 696 695
4 656 657 698 697
4 657 658 699 698
4 658 659 700 699
4 659 660 701 700
4 660 661 702 701
4 661 662 703 702
4 662 663 704 703
4 663 664 705 704
4 664 665 706 705
4 665 666 707 706
4 666 667 708 707
4 667 668 709 708
4 668 669 710 709
4 669 670 711 710
4 670 671 712 711
4 671 672 713 712
4 672 673 714 713
4 673 674 715 714
4 674 675 716 715
4 675 676 717 716
4 676 677 718 717
4 677 678 719 718
4 678 679 720 719
4 679 680 721 720
4 680 681 722 721
4 681 682 723 722
4 682 683 724 723
4 683 684 725 724
4 684 685 726 725
4 685 686 727 726
4 686 687 728 727
4 687 688 729 728
4 688 689 730 729
4 689 690 731 730
4 690 691 732 731
4 691 692 733 732
4 692 693 734 733
4 693 694 735 734
4 694 695 736 735
4 695 696 737 736
4 697 698 739 738
4 698 699 740 739
4 699 700 741 740
4 700 701 742 741
4 701 702 743 742
4 702 703 744 743
4 703 704 745 744
4 704 705 746 745
4 705 706 747 746
4 706 707 748 747
4 707 708 749 748
4 708 709 750 749
4 709 710 751 750
4 710 711 752 751
4 711 712 753 752
4 712 713 754 753
4 713 714 755 754
4 714 715 756 755
4 715 716 757 756
4 716 717 758 757
4 717 718 759 758
4 718 719 760 759
4 719 720 761 760
4 720 721 762 761
4 721 722 763 762
4 722 723 764 763
4 723 724 765 764
4 724 725 766 765
4 725 726 767 766
4 726 727 768 767
4 727 728 769 768
4 728 729 770 769
4 729 730 771 770
4 730 731 772 771
4 731 732 773 772
4 732 733 774 773
4 733 734 775 774
4 734 735 776 775
4 735 736 777 776
4 736 737 778 777
4 738 739 780 779
4 739 740 781 780
4 740 741 782 781
4 741 742 783 782
4 742 743 784 783
4 743 744 785 784
4 744 745 786 785
4 745 746 787 786
4 746 747 788 787
4 747 748 789 788
4 748 749 790 789
4 749 750 791 790
4 750 751 792 791
4 751 752 793 792
4 752 753 794 793
4 753 754 795 794
4 754 755 796 795
4 755 756 797 796
4 756 757 798 797
4 757 758 799 798
4 758 759 800 799
4 759 760 801 800
4 760 761 802 801
4 761 762 803 802
4 762 763 804 803
4 763 764 805 804
4 764 765 806 805
4 765 766 807 806
4 766 767 808 807
4 767 768 809 808
4 768 769 810 809
4 769 770 811 810
4 770 771 812 811
4 771 772 813 812
4 772 773 814 813
4 773 774 815 814
4 774 775 816 815
4 775 776 817 816
4 776 777 818 817
4 777 778 819 818
4 779 780 821 820
4 780 781 822 821
4 781 782 823 822
4 782 783 824 823
4 783 784 825 824
4 784 785 826 825
4 785 786 827 826
4 786 787 828 827
4 787 788 829 828
4 788 789 830 829
4 789 790 831 830
4 790 791 832 831
4 791 792 833 832
4 792 793 834 833
4 793 794 835 834
4 794 795 836 835
4 795 796 837 836
4 796 797 838 837
4 797 798 839 838
4 798 799 840 839
4 799 800 841 840
4 800 801 842 841
4 801 802 843 842
4 802 803 844 843
4 803 804 845 844
4 804 805 846 845
4 805 806 847 846
4 806 807 848 847
4 807 808 849 848
4 808 809 850 849
4 809 810 851 850
4 810 811 852 851
4 811 812 853 852
4 812 813 854 853
4 813 814 855 854
4 814 815 856 855
4 815 816 857 856
4 816 817 858 857
4 817 818 859 858
4 818 819 860 859
CELL_TYPES 800
9
9
9
9
9
9
9
9
9
9
9
9
9
9
9
9
9
9
9
9
9
9
9
9
9
9
9
9
9
9
9
9
9
9
9
9
9
9
9
9
9
9
9
9
9
9
9
9
9
9
9
9
9
9
9
9
9
9
9
9
9
9
9
9
9
9
9
9
9
9
9
9
9
9
9
9
9
9
9
9
9
9
9
9
9
9
9
9
9
9
9
9
9
9
9
9
9
9
9
9
9
9
9
9
9
9
9
9
9
9
9
9
9
9
9
9
9
9
9
9
9
9
9
9
9
9
9
9
9
9
9
9
9
9
9
9
9
9
9
9
9
9
9
9
9
9
9
9
9
9
9
9
9
9
9
9
9
9
9
9
9
9
9
9
9
9
9
9
9
9
9
9
9
9
9
9
9
9
9
9
9
9
9
9
9
9
9
9
9
9
9
9
9
9
9
9
9
9
9
9
9
9
9
9
9
9
9
9
9
9
9
9
9
9
9
9
9
9
9
9
9
9
9
9
9
9
9
9
9
9
9
9
9
9
9
9
9
9
9
9
9
9
9
9
9
9
9
9
9
9
9
9
9
9
9
9
9
9
9
9
9
9
9
9
9
9
9
9
9
9
9
9
9
9
9
9
9
9
9
9
9
9
9
9
9
9
9
9
9
9
9
9
9
9
9
9
9
9
9
9
9
9
9
9
9
9
9
9
9
9
9
9
9
9
9
9
9
9
9
9
9
9
9
9
9
9
9
9
9
9
9
9
9
9
9
9
9
9
9
9
9
9
9
9
9
9
9
9
9
9
9
9
9
9
9
9
9
9
9
9
9
9
9
9
9
9
9
9
9
9
9
9
9
9
9
9
9
9
9
9
9
9
9
9
9
9
9
9
9
9
9
9
9
9
9
9
9
9
9
9
9
9
9
9
9
9
9
9
9
9
9
9
9
9
9
9
9
9
9
9
9
9
9
9
9
9
9
9
9
9
9
9
9
9
9
9
9
9
9
9
9
9
9
9
9
9
9
9
9
9
9
9
9
9
9
9
9
9
9
9
9
9
9
9
9
9
9
9
9
9
9
9
9
9
9
9
9
9
9
9
9
9
9
9
9
9
9
9
9
9
9
9
9
9
9
9
9
9
9
9
9
9
9
9
9
9
9
9
9
9
9
9
9
9
9
9
9
9
9
9
9
9
9
9
9
9
9
9
9
9
9
9
9
9
9
9
9
9
9
9
9
9
9
9
9
9
9
9
9
9
9
9
9
9
9
9
9
9
9
9
9
9
9
9
9
9
9
9
9
9
9
9
9
9
9
9
9
9
9
9
9
9
9
9
9
9
9
9
9
9
9
9
9
9
9
9
9
9
9
9
9
9
9
9
9
9
9
9
9
9
9
9
9
9
9
9
9
9
9
9
9
9
9
9
9
9
9
9
9
9
9
9
9
9
9
9
9
9
9
9
9
9
9
9
9
9
9
9
9
9
9
9
9
9
9
9
9
9
9
9
9
9
9
9
9
9
9
9
9
9
9
9
9
9
9
9
9
9
9
9
9
9
9
9
9
9
9
9
9
9
9
9
9
9
9
9
9
9
9
9
9
9
9
9
9
9
9
9
9
9
9
9
9
9
9
9
9
9
9
9
9
9
9
9
9
9
9
9
9
9
9
9
9
9
9
9
9
9
9
9
9
9
9
9
9
9
9
9
9
9
9
9
9
9
9
9
9
9
9
9
9
9
9
9
9
9
9
9
9
9
9
9
9
9
9
9
9
9
9
9
9
9
9
9
9
9
9
9
9
9
9
9
9
9
9
9
9
9
9
9
POINT_DATA 861
SCALARS Disp float 2
LOOKUP_TABLE default
0.0 0.0
0.0063754183060688975 -0.3112155595073069
0.007854872359019011 -0.6124158088955457
0.008672675238713368 -0.9124068291294584
0.00977488000446531 -1.2119776004208764
0.011677241783513866 -1.5106219170652777
0.015163463866905784 -1.8076568620438347
0.02121277962755564 -2.102219741488972
0.030982340101349922 -2.393222895593196
0.04572945559568935 -2.6792296470715873
0.06669484327152993 -2.9582904919413138
0.0950208456364762 -3.2278679427608434
0.13171455946979843 -3.4848954795450826
0.17763608571420825 -3.725920935024887
0.233486897876723 -3.947203806712775
0.29973675089990665 -4.144801884860308
0.37650150236323987 -4.314689171324216
0.4634056143528486 -4.4529389762018505
0.5594735709211835 -4.555996466672898
0.6630961681949247 -4.620935691351519
0.7717377742928208 -4.645817595157557
0.8803793803907103 -4.620935691351372
0.9840019776644289 -4.555996466672601
1.0800699342327247 -4.45293897620142
1.166974046222286 -4.3146891713236775
1.2437387976855678 -4.144801884859694
1.309988650708697 -3.9472038067121002
1.3658394628711583 -3.7259209350241735
1.4117609891155147 -3.4848954795443503
1.4484547029487862 -3.227867942760118
1.4767807053136877 -2.9582904919406134
1.497746092989491 -2.6792296470709296
1.512493208483801 -2.3932228955925887
1.5222627689575743 -2.1022197414884243
1.5283120847182097 -1.8076568620433529
1.5317983068015923 -1.51062191706487
1.5337006685806367 -1.2119776004205436
1.5348028733463874 -0.9124068291292039
1.5356206762260816 -0.6124158088953686
1.5371001302790304 -0.3112155595072102
1.543475548585096 0.0
0.07762520611051811 -0.0026154966003074723
0.08214274545892125 -0.3115376285708048
0.08290226183148655 -0.6124806239853181
0.08362166339495063 -0.9125019154310535
0.08457845266835048 -1.2121494852559778
0.08618329201210308 -1.511024926694251
0.08917331273725614 -1.8085108909816106
0.09447266027669611 -2.1037883433230684
0.10316569083489284 -2.3958006307034543
0.11639782840192914 -2.683115847933418
0.13527538845692727 -2.963766544575848
0.1608034980590446 -3.2351861800494213
0.19387479383894907 -3.4942770220700536
0.23526951863608384 -3.737553630949227
0.28562663261705235 -3.961232938310014
0.3453848384935517 -4.16130677590689
0.4146763611911827 -4.333651033278532
0.49320464108216056 -4.47420981708473
0.5801298990857936 -4.579273886167348
0.6738920311062849 -4.64573137686484
0.7717377742928027 -4.671245463826439
0.8695835174793142 -4.645731376864689
0.9633456494997847 -4.5792738861670435
1.0502709075033831 -4.474209817084288
1.12879918739432 -4.333651033277982
1.1980907100919047 -4.161306775906262
1.2578489159683555 -3.961232938309327
1.3082060299492755 -3.7375536309485007
1.349600754746362 -3.49427702206931
1.382672050526221 -3.2351861800486845
1.4082001601282979 -2.963766544575139
1.4270777201832627 -2.6831158479327524
1.440309857750272 -2.3958006307028414
1.4490028883084496 -2.1037883433225173
1.4543022358478763 -1.808510890981126
1.4572922565730217 -1.5110249266938423
1.4588970959167709 -1.2121494852556445
1.45985388519017 -0.9125019154307993
1.4605732867536336 -0.6124806239851409
1.461332803126199 -0.3115376285707077
1.4658503424745963 -0.0026154966003048966
0.15419580266404098 -0.004707422708166564
0.15753841166109342 -0.31170030622214834
0.15796915378769424 -0.6125111628318649
0.15855371233335167 -0.912584905512794
0.1593769139773774 -1.2122841118113754
0.1607141507955362 -1.5113439678939065
0.16322164305407344 -1.8092209756260678
0.16777391678540152 -2.1051389950050736
0.1753702161732359 -2.398064207433495
0.18704738910148 -2.6865616337492724
0.203784326590203 -2.9686426621985444
0.2264595284281148 -3.241713687091864
0.2558527233003231 -3.502652113998182
0.2926536711903536 -3.7479464836496073
0.33744358371668787 -3.97377693001839
0.39063441825226014 -4.176079579632858
0.45238804807789995 -4.350647349293299
0.522501575935826 -4.493309661776804
0.6002484966184786 -4.600204687242221
0.6841277217407696 -4.667988856071405
0.7717377742927851 -4.694065113748602
0.8593478268447948 -4.6679888560712515
0.9432270519670669 -4.60020468724191
1.0209739726496891 -4.493309661776354
1.091087500507579 -4.350647349292738
1.152841130333178 -4.176079579632218
1.206031964868707 -3.9737769300176913
1.250821877394998 -3.747946483648869
1.287622825284986 -3.502652113997427
1.3170160201571541 -3.241713687091117
1.3396912219950294 -2.968642662197826
1.3564281594837229 -2.6865616337486
1.3681053324119432 -2.3980642074328764
1.3757016317997597 -2.1051389950045185
1.3802539055310763 -1.809220975625581
1.3827613977896072 -1.5113439678934963
1.3840986346077633 -1.212284111811042
1.3849218362517886 -0.9125849055125397
1.3855063947974458 -0.6125111628316878
1.3859371369240467 -0.3117003062220508
1.3892797459210933 -0.004707422708161207
0.2302060239268945 -0.006396118149999093
0.23275204784652168 -0.3118111176983832
0.23301312389556023 -0.6125274826300571
0.23346935699723753 -0.9126506552366442
0.2341658079555828 -1.2123908805954626
0.23526687494978232 -1.5115884058407743
0.23731969465130648 -1.8097919307549684
0.2411344182448153 -2.1062723473318528
0.2476268100601382 -2.4000089043895003
0.25772614420727474 -2.689558647686278
0.27228927589285024 -2.9729085310179006
0.2920725265165348 -3.2474399739697324
0.3177468188930146 -3.510009514233955
0.34991059502891925 -3.7570856728583073
0.3890783540206167 -3.9848203255057677
0.43564242420313004 -4.189105055294972
0.48979849344476745 -4.365665194994903
0.5514341309742536 -4.510228335607443
0.6199491432007377 -4.618778383537916
0.6940585204972157 -4.687768415704469
0.771737774292768 -4.714412050879776
0.8494170280883151 -4.687768415704312
0.923526405384776 -4.618778383537599
0.9920414176112339 -4.510228335606985
1.0536770551406878 -4.3656651949943335
1.10783312438229 -4.189105055294322
1.1543971945647653 -3.9848203255050594
1.1935649535564246 -3.7570856728575595
1.225728729692292 -3.5100095142331904
1.2514030220687369 -3.247439973968976
1.2711862726923895 -2.972908531017174
1.285749404377939 -2.6895586476855993
1.2958487385250546 -2.4000089043888773
1.3023411303403618 -2.106272347331294
1.3061558539338607 -1.8097919307544796
1.3082086736353797 -1.5115884058403637
1.3093097406295773 -1.212390880595129
1.3100061915879222 -0.91265065523639
1.3104624246895995 -0.61252748262988
1.3107235007386382 -0.3118111176982853
1.31326952465826 -0.0063961181499910804
0.3058981521710363 -0.007766007754842301
0.3078438681330482 -0.31189642578073745
0.3080135062431153 -0.6125367435708833
0.3083626360848955 -0.9127011755382275
0.3089410771931342 -1.2124754457373723
0.3098341445420734 -1.5117714811488785
0.3114754041337601 -1.8102328641136187
0.3145707149803696 -2.107191554393511
0.3199666540059055 -2.4016343393756627
0.3284817671656676 -2.6921031505161124
0.34085578198444005 -2.9765587837417757
0.35772699590437274 -3.25235846343249
0.3796570316602341 -3.5163420307290383
0.4071552763134987 -3.7649632907343404
0.44067343552736304 -3.994353181686444
0.4805711777700199 -4.200371157301994
0.5270717551949399 -4.378690111610036
0.5801569838218171 -4.524949628273296
0.6394021910575102 -4.634998006388968
0.7038074922040591 -4.705115758627436
0.7717377742927513 -4.732358716281501
0.8396680563814386 -4.705115758627276
0.9040733575279721 -4.6349980063886465
0.9633185647636424 -4.524949628272831
1.0164037933904917 -4.378690111609458
1.0629043708153814 -4.200371157301336
1.1028021130580055 -3.9943531816857263
1.1363202722718369 -3.7649632907335837
1.16381851692507 -3.5163420307282656
1.1857485526809013 -3.252358463431726
1.2026197666008072 -2.976558783741043
1.2149937814195568 -2.6921031505154285
1.2235088945793011 -2.4016343393750357
1.2289048336048238 -2.10719155439295
1.2320001444514248 -1.8102328641131284
1.2336414040431076 -1.5117714811484673
1.2345344713920454 -1.2124754457370384
1.235112912500284 -0.9127011755379733
1.2354620423420641 -0.6125367435707063
1.2356316804521312 -0.31189642578063914
1.2375773964141386 -0.007766007754831947
0.3813810662181093 -0.008870858101024557
0.38285126802489566 -0.3119649937317856
0.3829682179807051 -0.6125436252479374
0.3832298663499281 -0.9127386613940808
0.38369676206830305 -1.2125424600821475
0.3844098781987374 -1.5119058729330528
0.3856826595078412 -1.8105584266823338
0.38810563007360865 -2.10790364103555
0.3924208725885313 -2.4029438268925665
0.3993615900804405 -2.6941961198457656
0.4095487642672352 -2.979592575692047
0.4235051067557209 -3.256467434626678
0.4416856732610528 -3.521647029220284
0.4645098166991292 -3.771576021984306
0.4923642529844966 -4.0023717335618185
0.5255793753339398 -4.2098705213457706
0.5643850370825095 -4.38970795908141
0.6088508258961913 -4.537457878964416
0.6587674328397949 -4.648861686372795
0.7134723650443399 -4.720054671687369
0.7717377742927344 -4.747948167016597
0.8300031835411246 -4.7200546716872065
0.8847081157456568 -4.648861686372469
0.9346247226892402 -4.537457878963947
0.9790905115028988 -4.389707959080827
1.0178961732514424 -4.209870521345107
1.0511112956008584 -4.002371733561094
1.0789657318861985 -3.7715760219835417
1.1017898753242485 -3.521647029219505
1.1199704418295557 -3.256467434625908
1.133926784318019 -2.9795925756913095
1.1441139585047946 -2.694196119845077
1.1510546759966889 -2.402943826891936
1.155369918511601 -2.1079036410349863
1.1577928890773617 -1.8105584266818424
1.1590656703864624 -1.5119058729326413
1.159778786516896 -1.2125424600818135
1.1602456822352707 -0.9127386613938265
1.1605073306044937 -0.6125436252477605
1.160624280560303 -0.311964993731687
1.162094482367086 -0.008870858101012215
0.45671096278263706 -0.009751728270532268
0.45779952445216054 -0.3120204080627992
0.45788293742501296 -0.6125504644262334
0.4580708216911103 -0.912764720979634
0.4584298476680615 -1.2125949774357947
0.45898533110680495 -1.5120030918562695
0.45993304369798244 -1.8107866470805347
0.4617399775024894 -2.108424362936115
0.4650234501755309 -2.403945117531951
0.47041349900698826 -2.6958429508377924
0.47843358170942507 -2.9820140344663977
0.48949081568187003 -3.2597700655672064
0.5039347035562287 -3.525927115723508
0.5220955914274812 -3.7769258861988377
0.5442953371401076 -4.00887674114298
0.5708261441337718 -4.217601299159257
0.6019183691120983 -4.398709792085344
0.6377128618236507 -4.547736993395272
0.6782158501599157 -4.660356435298277
0.723148871464019 -4.7325874123605205
0.7717377742927176 -4.761199545798348
0.8203266771214119 -4.732587412360356
0.8652596984255045 -4.660356435297947
0.9057626867617529 -4.547736993394798
0.9415571794732863 -4.398709792084754
0.972649404451592 -4.217601299158586
0.9991802114452337 -4.008876741142248
1.021379957157838 -3.7769258861980677
1.0395408450290702 -3.5259271157227223
1.0539847329034089 -3.2597700655664315
1.065041966875836 -2.9820140344656556
1.073062049578258 -2.695842950837099
1.0784520984097035 -2.403945117531318
1.0817355710827368 -2.1084243629355495
1.0835425048872387 -1.8107866470800424
1.0844902174784141 -1.5120030918558576
1.085045700917157 -1.2125949774354605
1.085404726894108 -0.9127647209793797
1.0855926111602054 -0.6125504644260564
1.0856760241330579 -0.3120204080627005
1.0867645858025783 -0.009751728270518307
0.5319247949960024 -0.010441878568381103
0.5327073843627014 -0.31206534189150914
0.5327658851207018 -0.6125577431586114
0.5328876503151393 -0.9127805969383718
0.5331404865173275 -1.2126339893836897
0.5335506658365935 -1.5120725103841772
0.5342206426433788 -1.8109362397796418
0.5354720115542491 -2.108775475712358
0.5377928499611783 -2.404655127956629
0.5416879559646401 -2.697054530661307
0.5475775591055173 -2.9838322214441035
0.5557678780477222 -3.262274840572509
0.5665085042118015 -3.5291906738677277
0.5800380738189914 -3.7810205493022564
0.5966081338988513 -4.013874699169699
0.6164747872288819 -4.223567544907596
0.6398622556044368 -4.405693438882316
0.6669505919978549 -4.555772451570397
0.6979345513786108 -4.66945708927284
0.7329442857346259 -4.742692789728866
0.7717377742927001 -4.772108104165791
0.8105312628507708 -4.742692789728701
0.8455409972067778 -4.669457089272506
0.8765249565875209 -4.5557724515699185
0.9036132929809243 -4.405693438881723
0.9270007613564629 -4.2235675449069205
0.946867414686476 -4.013874699168963
0.9634374747663199 -3.7810205493014815
0.9769670443734947 -3.5291906738669385
0.9877076705375595 -3.2622748405717306
0.9958979894797512 -2.983832221443358
1.0017875926206172 -2.697054530660611
1.0056826986240708 -2.4046551279559933
1.0080035370309937 -2.1087754757117922
1.009254905941861 -1.8109362397791493
1.009924882748645 -1.5120725103837651
1.0103350620679106 -1.2126339893833555
1.0105878982700987 -0.9127805969381174
1.0107096634645363 -0.6125577431584345
1.0107681642225363 -0.31206534189141033
1.0115507535892334 -0.010441878568365799
0.6070457201496009 -0.010972223385919622
0.6075919229217995 -0.312102251084054
0.6076246313524675 -0.6125646177862883
0.6076839021124962 -0.9127872443322106
0.6078323801749327 -1.2126590553737036
0.6080993243317111 -1.5121199555655211
0.6085290167826447 -1.8110273223499276
0.6092976811701251 -2.1089842863588584
0.6107389136769844 -2.4051002392039664
0.6132222254581807 -2.6978515486187353
0.6170484432953832 -2.9850630177551007
0.6224264739464522 -3.263996628582638
0.6295141040808977 -3.5314526774951216
0.6384642015006767 -3.7838746555887233
0.6494527203377066 -4.017378158690724
0.662688691799967 -4.227779722659245
0.6783983004929582 -4.41066662136315
0.6967934217862988 -4.561556115898065
0.7181536064514679 -4.676127857337495
0.7429945714230564 -4.750322603067315
0.7717377742926819 -4.780642062096204
0.8004809771623052 -4.750322603067148
0.8253219421338884 -4.67612785733716
0.8466821267990485 -4.561556115897583
0.8650772480923783 -4.410666621362554
0.880786856785358 -4.227779722658567
0.8940228282476069 -4.017378158689985
0.9050113470846267 -3.7838746555879457
0.9139614445043964 -3.53145267749433
0.9210490746388332 -3.2639966285818565
0.9264271052898932 -2.9850630177543525
0.9302533231270882 -2.6978515486180377
0.9327366349082794 -2.40510023920333
0.934177867415135 -2.1089842863582913
0.9349465318026136 -1.8110273223494349
0.9353762242535465 -1.512119955565109
0.9356431684103249 -1.2126590553733694
0.9357916464727611 -0.9127872443319562
0.9358509172327899 -0.6125646177861114
0.9358836256634577 -0.3121022510839551
0.9364298284356549 -0.010972223385903302
0.6820909888607102 -0.011373194802933126
0.6824643180706886 -0.312134145920599
0.6824663588708274 -0.6125692077588728
0.6824636621087418 -0.9127853904811647
0.6825105641199419 -1.2126696940542137
0.6826305213748599 -1.5121469906182845
0.682840447827761 -1.8110765606640622
0.6832005689202093 -2.1090849410895607
0.6838636069936828 -2.4053193782046645
0.6850426799043224 -2.698268607885718
0.6869021894511378 -2.985735322119059
0.6895503269370346 -3.264960846382294
0.6930550953597294 -3.5327374244521605
0.6974925735396037 -3.7855127475832213
0.7029651406030364 -4.019409882762767
0.7096209331916863 -4.2302558709198435
0.7176759412525847 -4.413645715065083
0.72740782340642 -4.565099508679115
0.7391392137156674 -4.6803370370585915
0.7535073626441111 -4.755395798569796
0.7717377742926632 -4.786731496436453
0.7899681859412143 -4.75539579856963
0.8043363348696556 -4.680337037058255
0.8160677251788975 -4.565099508678631
0.8257996073327267 -4.413645715064485
0.833854615393619 -4.230255870919163
0.840510407982264 -4.019409882762027
0.8459829750456925 -3.785512747582443
0.8504204532255631 -3.532737424451368
0.8539252216482542 -3.26496084638151
0.856573359134147 -2.9857353221183094
0.8584328686809589 -2.6982686078850193
0.8596119415915969 -2.4053193782040267
0.8602749796650685 -2.109084941088993
0.8606351007575163 -1.8110765606635693
0.8608450272104171 -1.5121469906178724
0.860964984465335 -1.2126696940538795
0.8610118864765351 -0.9127853904809103
0.8610091897144494 -0.6125692077586957
0.861011230514588 -0.3121341459205002
0.8613845597245657 -0.011373194802915997
0.757079045112024 -0.011671443527564232
0.7573296697364632 -0.3121644593175148
0.7572963417813612 -0.6125693720653974
0.7572317095222775 -0.912775456476007
0.7571794826744459 -1.2126659091486856
0.7571524031239527 -1.5121529131891618
0.7571414851560861 -1.811091857641292
0.7571371025394849 -2.109113600992507
0.7571352271474647 -2.4053749319952877
0.7571348602922766 -2.698373242911259
0.7571348428070542 -2.985910044116729
0.7571322454976227 -3.265222421284056
0.7571202346252198 -3.5330976087853845
0.7570982816496924 -3.7859856607081714
0.7570919684906641 -4.020018145562783
0.7571902828284413 -4.231038161418878
0.7575924995041086 -4.414665525612546
0.7586544861077466 -4.566445065522758
0.7608516442800961 -4.682112569609655
0.764717740990439 -4.75782865133324
0.7717377742926439 -4.790254448060911
0.778757807594849 -4.757828651333073
0.7826239043051915 -4.682112569609317
0.7848210624775394 -4.566445065522273
0.7858830490811773 -4.414665525611946
0.7862852657568449 -4.231038161418196
0.7863835800946232 -4.020018145562041
0.7863772669355963 -3.7859856607073925
0.786355313960071 -3.5330976087845913
0.78634330308767 -3.2652224212832723
0.7863407057782401 -2.98591004411598
0.7863406882930181 -2.6983732429105602
0.786340321437831 -2.4053749319946505
0.786338446045811 -2.109113600991939
0.7863340634292101 -1.8110918576407995
0.7863231454613435 -1.51215291318875
0.7862960659108504 -1.2126659091483516
0.786243839063019 -0.9127754564757526
0.7861792068039352 -0.6125693720652201
0.786145878848833 -0.3121644593174161
0.7863965034732717 -0.011671443527546588
0.8320215446602236 -0.011893429944738534
0.8321867542968067 -0.31219486388914813
0.8321193074071432 -0.6125639641080612
0.8319934460257721 -0.9127576132485037
0.8318447163879452 -1.2126480382259226
0.8316727811016248 -1.5121374170524464
0.8314413949676911 -1.811074009811937
0.8310721265530369 -2.109083979739915
0.8304059420097412 -2.4053190407432288
0.8292268992740539 -2.698268571336031
0.8273674134194782 -2.9857349160223268
0.8247123659388719 -3.2649574384055793
0.8211830208294707 -3.5327289350964044
0.8167038736301864 -3.78550337074278
0.8112249775610947 -4.019423409088561
0.8047736133525122 -4.230355520867374
0.7975143602489432 -4.413955898685378
0.789808124648629 -4.5658152018734715
0.7821887847156205 -4.681671294177928
0.7754281406874359 -4.7577360056499325
0.7717377742926241 -4.791292709487736
0.7680474078978115 -4.7577360056497655
0.7612867638696277 -4.68167129417759
0.7536674239366234 -4.565815201872987
0.7459611883363163 -4.4139558986847796
0.7387019352327545 -4.230355520866693
0.7322505710241792 -4.019423409087821
0.7267716749550946 -3.7855033707420023
0.722292527755818 -3.5327289350956117
0.7187631826464246 -3.264957438404797
0.7161081351658249 -2.9857349160215776
0.7142486493112543 -2.698268571335333
0.7130696065755707 -2.4053190407425915
0.7124034220322771 -2.109083979739347
0.712034153617624 -1.8110740098114444
0.7118027674836908 -1.5121374170520345
0.7116308321973706 -1.2126480382255884
0.7114821025595438 -0.9127576132482492
0.7113562411781726 -0.6125639641078839
0.7112887942885092 -0.31219486388904943
0.7114540039250921 -0.011893429944720648
0.9069287231395429 -0.012061348689693451
0.9070369044214237 -0.31222416686338206
0.9069391204201053 -0.6125532097648552
0.9067545227347877 -0.9127319788246686
0.9065127078756634 -1.2126166825132578
0.9061995435200854 -1.5121009055742758
0.9057481994897617 -1.8110218290874054
0.9049715626146859 -2.1089820928018352
0.9035294365559152 -2.4050997288656184
0.9010473834676874 -2.697851609580031
0.8972203419056811 -2.985061739759995
0.8918347380994336 -3.263989440304027
0.8847259929997101 -3.5314358653707227
0.8757433259980387 -3.78385717999113
0.8647606416516884 -4.01740835165715
0.8517348040857022 -4.227984001888498
0.836790171990938 -4.411286281551232
0.8202762820357812 -4.562960276680556
0.80283556253253 -4.678804808064078
0.7857660755456274 -4.755239759843867
0.7717377742926053 -4.790026788875573
0.757709473039583 -4.7552397598436995
0.7406399860526832 -4.678804808063742
0.7231992665494402 -4.562960276680074
0.7066853765942959 -4.411286281550636
0.6917407444995449 -4.22798400188782
0.6787149069335718 -4.017408351656413
0.6677322225872343 -3.783857179990355
0.6587495555855758 -3.531435865369933
0.6516408104858655 -3.263989440303247
0.6462552066796298 -2.9850617397592476
0.6424281651176332 -2.6978516095793346
0.6399461120294125 -2.405099728864982
0.6385039859706458 -2.108982092801268
0.6377273490955723 -1.811021829086913
0.6372760050652495 -1.5121009055738641
0.6369628407096719 -1.2126166825129236
0.6367210258505476 -0.9127319788244143
0.6365364281652303 -0.612553209764678
0.6364386441639118 -0.3122241668632833
0.6365468254457926 -0.01206134868967533
0.981817998241326 -0.012186594640746057
0.9818846626360866 -0.3122506721742354
0.9817604114541 -0.6125377461953013
0.9815205594330592 -0.9126988813181693
0.9811894622963272 -1.2125726668914434
0.9807397614945674 -1.512043995666202
0.9800498850435433 -1.8109271384895878
0.9787940044901541 -2.1087725628269847
0.9764755129464345 -2.404654980336735
0.9725816224720232 -2.6970545751255717
0.9666898624512746 -2.983829790227033
0.9584929957517344 -3.2622645066271643
0.9477406881900757 -3.52916814297946
0.9341991035015456 -3.7809991179430216
0.9176549380838697 -4.013923944691137
0.897980613136373 -4.223868749251189
0.8752351016313203 -4.406590219353363
0.8497853086237619 -4.557810225578977
0.8225232983861454 -4.673466501227259
0.7952561351304217 -4.750238700576974
0.7717377742925867 -4.786534979210808
0.7482194134547532 -4.750238700576807
0.7209522501990349 -4.673466501226925
0.6936902399614298 -4.557810225578498
0.6682404469538876 -4.40659021935277
0.6454949354488542 -4.223868749250514
0.6258206105013763 -4.0139239446904025
0.609276445083719 -3.780999117942251
0.5957348603952076 -3.5291681429786745
0.584982552833567 -3.262264506626388
0.5767856861340435 -2.9838297902262894
0.5708939261133087 -2.6970545751248776
0.5670000356389079 -2.4046549803361006
0.5646815440951948 -2.1087725628264185
0.5634256635418093 -1.8109271384890953
0.5627357870907866 -1.5120439956657903
0.5622860862890277 -1.2125726668911092
0.5619549891522959 -0.9126988813179149
0.5617151371312551 -0.6125377461951241
0.5615908859492685 -0.3122506721741367
0.5616575503440291 -0.012186594640727777
1.0567038552104193 -0.012276010743681587
1.0567361283987777 -0.3122728899655755
1.056587691363097 -0.6125180297689007
1.0562962921289294 -0.9126588729566644
1.0558803503551035 -1.2125170571533452
1.05529439042159 -1.5119651322281191
1.0543310618900277 -1.8107742175170964
1.052525448023767 -2.108421967777001
1.0492456041734444 -2.403945553081056
1.0438556906110075 -2.695842643373207
1.0358321988135168 -2.982010325261277
1.0247713170803734 -3.25975808589674
1.010330614953149 -3.5259037025726165
0.9921890929958597 -3.776907764645121
0.9700430702847088 -4.008946761252434
0.943666938578185 -4.217979246511898
0.9130476131559573 -4.399829760588239
0.8786140635395143 -4.550341495456102
0.8415607334553908 -4.6656576176989715
0.8043872586826143 -4.742828226608697
0.7717377742925687 -4.780928134024406
0.7390882899025256 -4.74282822660853
0.7019148151297576 -4.66565761769864
0.6648614850456488 -4.550341495455627
0.6304279354292259 -4.399829760587652
0.5998086100070226 -4.217979246511229
0.5734324783005228 -4.008946761251705
0.5512864555893963 -3.7769077646443554
0.5331449336321314 -3.5259037025718363
0.5187042315049303 -3.2597580858959683
0.5076433497718077 -2.9820103252605374
0.4996198579743354 -2.6958426433725164
0.494229944411912 -2.4039455530804235
0.4909501005615987 -2.1084219677764358
0.4891444866953433 -1.8107742175166044
0.4881811581637835 -1.5119651322277075
0.48759519823027064 -1.212517057153011
0.48717925645644516 -0.9126588729564097
0.4868878572222779 -0.6125180297687234
0.486739420186597 -0.31227288996547686
0.48677169337495546 -0.012276010743663184
1.1315950885721755 -0.01233571884358286
1.1315978174315595 -0.312289535194547
1.1314261788931592 -0.6124942943682403
1.1310868848733537 -0.9126126822103723
1.1305910861090707 -1.2124509266779173
1.1298598364785883 -1.511859649269732
1.1285799786964614 -1.8105442817519883
1.1261608412571096 -2.1079025556814854
1.1218489465852837 -2.4029446674983137
1.1149068540558174 -2.694195093715658
1.1047158120249387 -2.979587735477865
1.09076051821032 -3.2564559984327075
1.0726011483802202 -3.521629118347375
1.0498330475750641 -3.7715707782832326
1.0220664879212018 -4.002464637222574
0.9889754077670674 -4.21030145994081
0.9504866357813072 -4.390993348063608
0.907104723393024 -4.540553100182587
0.8603764811500456 -4.655411391193211
0.813462631629911 -4.733064341240629
0.771737774292551 -4.773226233863713
0.7300129169551942 -4.733064341240464
0.6830990674350712 -4.655411391192883
0.6363708251921107 -4.540553100182116
0.5929889128038519 -4.390993348063028
0.5545001408181208 -4.2103014599401485
0.5214090606640157 -4.002464637221851
0.4936425010101832 -3.771570778282474
0.470874400205057 -3.5216291183466018
0.4527150303749859 -3.256455998431942
0.4387597365603923 -2.9795877354771307
0.428568694529536 -2.694195093714972
0.4216266020000867 -2.402944667497684
0.4173147073282722 -2.107902555680922
0.4148955698889275 -1.8105442817514972
0.4136157121068043 -1.5118596492693208
0.41288446247632316 -1.2124509266775831
0.41238866371204036 -0.9126126822101177
0.4120493696922352 -0.6124942943680629
0.41187773115383497 -0.31228953519444835
0.4118804600132189 -0.012335718843564355
1.206497622217449 -0.01237154904782594
1.2064754460135945 -0.3122997946605963
1.2062814902004813 -0.6124665852823198
1.2058972196512243 -0.9125611287870725
1.2053235724924019 -1.212374057372023
1.204428962733 -1.5117194703201347
1.2027889344283318 -1.8102187039569102
1.1996981036941792 -2.1071917190549976
1.194303563533897 -2.4016352137822126
1.1857856712901045 -2.692101143537846
1.1734084946403747 -2.976553327523773
1.1565448663698716 -3.2523502142471887
1.1346540122158522 -3.5163362442825643
1.1072456234621588 -3.76498108364498
1.0738563309366902 -3.9944744442390827
1.0340908657883463 -4.200839678433383
0.9878164281947515 -4.380092581594198
0.9356050148014058 -4.528466449671933
0.8793204353354576 -4.642754561633939
0.8226856692788329 -4.720950803977463
0.7717377742925333 -4.763394319643231
0.7207898793062381 -4.7209508039773
0.664155113249628 -4.642754561633616
0.6078705337837009 -4.528466449671469
0.5556591203903845 -4.380092581593625
0.5093846827968228 -4.20083967843273
0.4696192176485137 -3.9944744442383686
0.4362299251230798 -3.764981083644229
0.4088215363694218 -3.5163362442817987
0.38693068221543575 -3.2523502142464307
0.37006705394496314 -2.9765533275230456
0.3576898772952588 -2.6921011435371645
0.34917198505148683 -2.401635213781587
0.3437774448912187 -2.1071917190544363
0.3406866141570749 -1.8102187039564201
0.33904658585241154 -1.5117194703197239
0.33815197609301123 -1.212374057371689
0.33757832893418926 -0.9125611287868179
0.33719405838493255 -0.6124665852821425
0.33700010257181945 -0.3122997946604977
0.3369779263679649 -0.012371549047807386
1.2814152763207722 -0.012389257875248123
1.2813737570476977 -0.31230339676079955
1.281159361808873 -0.6124349202516561
1.280732297548542 -0.9125048897261101
1.280079193269018 -1.212285140508767
1.2789955010734535 -1.5115344855683677
1.2769494378925872 -1.8097787171281263
1.2731370871137355 -2.106273137394619
1.2666434190731795 -2.400009328463519
1.2565402012369151 -2.6895555968407536
1.2419760665643984 -2.9729033979579302
1.2222082301993291 -3.247437726785884
1.1965885082382233 -3.5100214251454522
1.1645400571095441 -3.7571355257605337
1.1255456136026039 -3.984981009973588
1.079178973734697 -4.189614586731255
1.025286165198796 -4.3671632805542195
0.9644494907725225 -4.514117829474576
0.8987155517796723 -4.627695915115005
0.8322422788203281 -4.706446442937395
0.7717377742925158 -4.751352915734116
0.7112332697647088 -4.706446442937234
0.6447599968053812 -4.6276959151146855
0.5790260578125563 -4.5141178294741175
0.5181893833863165 -4.3671632805536555
0.46429657485045345 -4.1896145867306105
0.4179299349825867 -3.9849810099728833
0.3789354914756864 -3.7571355257597925
0.34688704034704726 -3.5100214251446964
0.32126731838598044 -3.247437726785134
0.3014994820209458 -2.9729033979572104
0.2869353473484585 -2.689555596840078
0.27683212951221736 -2.4000093284628976
0.27033846147167795 -2.1062731373940613
0.2665261106928374 -1.8097787171276378
0.2644800475119769 -1.5115344855679573
0.26339635531641453 -1.2122851405084332
0.262743251036891 -0.9125048897258555
0.2623161867765604 -0.6124349202514789
0.2621017915377359 -0.3123033967607009
0.26206027226466155 -0.012389257875229565
1.3563497627571455 -0.012394651722674907
1.3562964224829615 -0.31230068929762733
1.3560659780261977 -0.6123994583541079
1.3555976181334832 -0.9124444942970591
1.354856783868825 -1.2121806055496962
1.3535523254870854 -1.5112920387728794
1.3510535820009322 -1.809208526930381
1.3465002467373008 -2.105139529469805
1.3388995921571936 -2.3980636727982745
1.3272180913636638 -2.6865577230619784
1.3104835341643428 -2.96863914425513
1.2878319266486737 -3.241720120542208
1.2585052616511232 -3.502685753027362
1.2218367754863486 -3.7480353180621453
1.1772621529281773 -3.973992529108336
1.1243824616266662 -4.1766580960453386
1.0630968062033765 -4.352266709913824
0.9939522136575348 -4.497561218327693
0.9189026179334093 -4.6102305622834825
0.8423690239030712 -4.6894661776477164
0.7717377742924981 -4.736968622390804
0.7011065246819309 -4.689466177647558
0.6245729306516119 -4.610230562283169
0.5495233349275161 -4.4975612183272435
0.48037874238171274 -4.35226670991327
0.4190930869584663 -4.176658096044704
0.3662133956570002 -3.9739925291076417
0.32163877309887406 -3.7480353180614143
0.2849702869341445 -3.502685753026616
0.25564362193663803 -3.241720120541468
0.232992014421008 -2.9686391442544187
0.21625745722172024 -2.68655772306131
0.20457595642821622 -2.3980636727976585
0.1969753018481282 -2.1051395294692505
0.19242196658451002 -1.8092085269298948
0.18992322309836374 -1.51129203877247
0.18861876471662709 -1.2121806055493627
0.18787793045196952 -0.9124444942968043
0.18740957055925547 -0.6123994583539307
0.18717912610249177 -0.3123006892975287
0.18712578582830783 -0.012394651722656361
1.4313000698947749 -0.012393608366978526
1.431245957684229 -0.312292840306787
1.4310086096053192 -0.6123608168805567
1.430498611364125 -0.9123794151718104
1.4296524398882895 -1.212054808177963
1.4280904840164503 -1.5109773256896954
1.4251085702533481 -1.808498480268526
1.4198035048712494 -2.1037875905015313
1.411103503747438 -2.3957987327830033
1.3978673341948944 -2.6831114811845618
1.3789960915390733 -2.9637660913930364
1.3534992190364552 -3.235203640952758
1.3205037166540858 -3.494335193069156
1.2792543332954942 -3.7376866983857124
1.2291525625822248 -3.961520724655475
1.1698407423699644 -4.162001622822768
1.1013506267364312 -4.335475030237282
1.0243112119084647 -4.4788950094781255
0.9403805797739223 -4.5903679057809095
0.8534442036041678 -4.669864218479467
0.7717377742924804 -4.7200249350018515
0.6900313449807997 -4.669864218479312
0.6030949688110657 -4.590367905780603
0.5191643366765581 -4.478895009477685
0.4421249218486352 -4.335475030236738
0.3736348062151504 -4.162001622822146
0.31432298600294 -3.961520724654793
0.2642212152897213 -3.7376866983849935
0.22297183193117975 -3.494335193068422
0.18997632954885926 -3.2352036409520277
0.1644794570462846 -2.9637660913923343
0.14560821439050017 -2.683111481183901
0.13237204483798526 -2.395798732782393
0.12367204371419496 -2.103787590500981
0.11836697833211117 -1.808498480268042
0.1153850645690173 -1.510977325689287
0.11382310869718172 -1.2120548081776297
0.1129769372213474 -0.9123794151715557
0.11246693898015357 -0.6123608168803796
0.1122295909012441 -0.3122928403066883
0.11217547869069805 -0.012393608366959994
1.5062611255183542 -0.012391889020456551
1.5062235711377674 -0.3122824085945652
1.505996999050118 -0.6123203210519287
1.5054396456994268 -0.9123069384203851
1.5044598754625151 -1.2118981680724796
1.5026070182991478 -1.5105797538563392
1.4991239874369078 -1.8076431500277785
1.493064587093002 -2.1022168556040994
1.4832864474348169 -2.393219412289086
1.46853607374176 -2.67922533550313
1.447580764488503 -2.9582944864674596
1.4192925201576807 -3.2278984153845522
1.3826828139501646 -3.4849804905526165
1.3369207273693544 -3.7261033506552383
1.2813702806780496 -3.9475821616422566
1.215709756898419 -4.1456682377905265
1.140115662605612 -4.316841237011936
1.055463148133095 -4.458244246153951
0.9634574044165488 -4.568270061223271
0.8668250935065647 -4.647457724185053
0.7717377742924623 -4.699999999999991
0.6766504550783664 -4.647457724184903
0.5800181441684047 -4.568270061222971
0.48801240045189914 -4.458244246153521
0.403359885979432 -4.316841237011404
0.3277657916866783 -4.145668237789918
0.26210526790710276 -3.947582161641588
0.20655482121585417 -3.7261033506545322
0.1607927346350992 -3.4849804905518957
0.1241830284276371 -3.227898415383834
0.09589478409686253 -2.958294486466768
0.07493947484364515 -2.679225335502477
0.06018910115061966 -2.3932194122884827
0.0504109614924581 -2.102216855603554
0.044351561148568704 -1.8076431500272976
0.040868530286338405 -1.5105797538559322
0.03901567312297531 -1.2118981680721468
0.03803590288606508 -0.9123069384201308
0.037478549535374384 -0.6123203210517515
0.037251977447725244 -0.3122824085944666
0.03721442306713828 -0.012391889020437974
SCALARS Stress float 6
LOOKUP_TABLE default
-1324.1832693148185 -2131.6228972053486 -1652.4039524310974 -31.338689719906306 0.0 0.0
1405.2304471573902 830.825621917772 1062.8938378220937 -19.109705377808716 0.0 0.0
648.8082796917226 186.63131220036433 276.27054214894815 -42.90226054506724 0.0 0.0
512.4033938955756 38.203585866077056 173.96629066702437 -0.341082471670203 0.0 0.0
646.1844448156704 94.04177139391966 278.20369878381223 3.550983816706392 0.0 0.0
779.9028400163568 154.05478545813202 418.8591436845202 1.65553698031062 0.0 0.0
921.1910363249574 219.2960941223747 549.0793332008755 0.15694231488200794 0.0 0.0
1068.3590881355244 302.8495884205603 672.5797994863444 -1.3850065899355508 0.0 0.0
1227.0255077609024 403.4224433588409 803.7989776712496 -3.251502296086164 0.0 0.0
1405.309993455748 528.4532108225383 955.5469679307572 -5.292252420238211 0.0 0.0
1608.9704806383857 683.3934444599812 1134.491677722504 -7.16226952039046 0.0 0.0
1837.5164195321308 867.996696139344 1340.6230653542898 -8.53386011370234 0.0 0.0
2084.7487200938335 1074.8470607955367 1567.216642836993 -9.372106249896751 0.0 0.0
2342.541175462997 1295.612676690352 1806.078030474672 -10.003105902967775 0.0 0.0
2600.608162861271 1519.8243314110102 2046.8252605942819 -10.381385181918237 0.0 0.0
2846.8595022712007 1735.4109751343585 2277.402093762892 -10.391432908091891 0.0 0.0
3068.538837167751 1929.941876685452 2485.2491726563335 -9.869003285991594 0.0 0.0
3253.3976211724166 2091.6014848638456 2658.339328278262 -8.82154416235321 0.0 0.0
3401.5845328354053 2221.0069460242744 2796.9072001868176 -7.838190699843217 0.0 0.0
3497.540235226391 2303.390321055724 2885.7689843858657 -10.931621345127137 0.0 0.0
3489.70476737444 2295.113987890032 2877.845522690749 -5.4223292522692645e-11 0.0 0.0
3497.54023522806 2303.3903210574304 2885.768984387097 10.93162134523116 0.0 0.0
3401.58453283659 2221.006946025536 2796.9072001876752 7.838190699781453 0.0 0.0
3253.3976211729946 2091.601484864543 2658.3393282782195 8.821544162404725 0.0 0.0
3068.5388371651716 1929.9418766829551 2485.249172654018 9.86900328594489 0.0 0.0
2846.8595022701384 1735.4109751334718 2277.4020937620644 10.391432907853732 0.0 0.0
2600.608162858885 1519.8243314087701 2046.8252605921357 10.381385182019962 0.0 0.0
2342.5411754619327 1295.6126766895102 1806.078030473721 10.003105903078588 0.0 0.0
2084.74872009141 1074.847060793275 1567.216642835077 9.372106249744872 0.0 0.0
1837.5164195314076 867.9966961388955 1340.623065353462 8.533860113560744 0.0 0.0
1608.9704806360423 683.3934444578363 1134.4916777206333 7.162269520268534 0.0 0.0
1405.309993455274 528.4532108223723 955.5469679302194 5.292252420313488 0.0 0.0
1227.0255077593142 403.4224433575232 803.798977670027 3.25150229599115 0.0 0.0
1068.3590881353427 302.84958842065106 672.5797994860286 1.3850065898761361 0.0 0.0
921.19103632393 219.2960941216414 549.0793332000333 -0.15694231518969026 0.0 0.0
779.9028400153812 154.05478545742733 418.8591436836757 -1.6555369803903446 0.0 0.0
646.1844448151819 94.04177139375565 278.2036987833718 -3.550983816574041 0.0 0.0
512.4033938945654 38.20358586484447 173.96629066636658 0.34108247166399064 0.0 0.0
648.8082796916029 186.6313122005362 276.27054214888966 42.90226054491327 0.0 0.0
1405.2304471570333 830.8256219173918 1062.8938378216312 19.10970537778647 0.0 0.0
-1324.1832693118815 -2131.622897202501 -1652.403952428247 31.33868971919695 0.0 0.0
-1686.0613544138807 -2465.285040709212 -1970.2861897893822 -34.37306813078179 0.0 0.0
959.0547992202379 457.743858868445 669.4943804129879 -26.660668637477663 0.0 0.0
455.183094174242 72.77662647183814 157.97914857445738 -37.852047777335656 0.0 0.0
450.5709129055915 9.827346892970791 142.03005490245826 -15.50332149611951 0.0 0.0
570.307614320295 42.74222566059925 221.6895694920488 -17.427604972547638 0.0 0.0
677.6921918946994 62.010197541663565 326.95808205791957 -23.609043101369107 0.0 0.0
770.6702118666267 84.07077767149653 415.8302202507043 -24.75963027581443 0.0 0.0
859.1294707938728 107.28761055388553 480.68543941904994 -25.045256906319008 0.0 0.0
938.8809858097634 128.43023193038943 532.6392597823008 -25.866059220373604 0.0 0.0
1011.441175438974 148.0796841822745 579.0734599372788 -26.860083546141098 0.0 0.0
1080.2657476526274 168.8893451314482 623.962799838029 -27.4259372154966 0.0 0.0
1147.9464971599677 192.63060181916268 669.6904372314493 -27.467494648498416 0.0 0.0
1214.1049956002253 219.39974919941568 716.171983101015 -27.095805395350652 0.0 0.0
1276.157120635934 244.9048849075745 759.9656689715516 -26.519108092148247 0.0 0.0
1328.9172173354896 264.29032154997344 796.0591079952891 -25.71631269010976 0.0 0.0
1368.227973504049 273.34824478797304 820.2672091672487 -24.432967028785217 0.0 0.0
1391.714785416244 269.90919625697035 830.3077134988017 -22.442526978263317 0.0 0.0
1399.905611815766 254.92541276703705 826.916222162436 -19.899956292875043 0.0 0.0
1384.9906857329438 221.30542567964827 802.7712303566115 -17.81134196131963 0.0 0.0
1295.5515086855296 118.89115588007512 707.5675401011322 -19.326108372311733 0.0 0.0
1150.40295840337 -25.757965650275224 563.7375127775681 -7.65609797781508e-12 0.0 0.0
1295.5515086856885 118.89115588029962 707.5675401012807 19.326108372606527 0.0 0.0
1384.990685733884 221.30542568064715 802.7712303574982 17.811341961467658 0.0 0.0
1399.905611816676 254.92541276799471 826.9162221632023 19.899956292881853 0.0 0.0
1391.7147854160619 269.9091962569114 830.3077134987675 22.442526978137746 0.0 0.0
1368.2279735042116 273.3482447882869 820.267209167364 24.432967028633474 0.0 0.0
1328.9172173348077 264.290321549449 796.0591079947345 25.716312690146463 0.0 0.0
1276.1571206356484 244.90488490750704 759.9656689713564 26.51910809217908 0.0 0.0
1214.1049955998003 219.3997491992122 716.171983100799 27.095805395399136 0.0 0.0
1147.9464971600166 192.63060181943598 669.690437231503 27.467494648504953 0.0 0.0
1080.2657476519269 168.88934513100003 623.9627998375743 27.42593721542551 0.0 0.0
1011.4411754383808 148.0796841819386 579.0734599369139 26.860083546204763 0.0 0.0
938.8809858094562 128.43023193035887 532.6392597820346 25.866059220325397 0.0 0.0
859.1294707944663 107.28761055477749 480.6854394194018 25.045256906246188 0.0 0.0
770.670211865825 84.07077767094614 415.8302202500845 24.759630275602046 0.0 0.0
677.6921918944537 62.01019754176811 326.9580820575721 23.609043101270448 0.0 0.0
570.3076143195367 42.74222566008078 221.68956949150675 17.427604972468956 0.0 0.0
450.5709129049288 9.82734689236922 142.03005490208866 15.50332149618264 0.0 0.0
455.1830941741612 72.7766264719229 157.97914857446693 37.85204777722339 0.0 0.0
959.0547992197319 457.7438588679856 669.4943804123619 26.660668637408786 0.0 0.0
-1686.0613544117828 -2465.2850407071405 -1970.2861897872597 34.37306813014579 0.0 0.0
-1424.089926903462 -2168.164842075178 -1681.0378589348675 -72.89360976056889 0.0 0.0
782.1662957520757 365.24000240792475 527.2153351772773 -94.55908336861717 0.0 0.0
314.5242350330758 83.43894997555093 119.45312330559887 -42.427519526876104 0.0 0.0
387.1448632874526 3.263272463015423 117.59246882477028 -37.44437403505719 0.0 0.0
524.9560008935869 32.389553332654124 189.44013592731898 -39.999241785379596 0.0 0.0
643.5648450814354 55.808735102331156 294.88422644313385 -44.03911708637358 0.0 0.0
739.8734508353406 77.93010088335731 391.95075855324336 -45.664793612603006 0.0 0.0
827.4289170242914 97.02251430799046 458.39674618287904 -46.51964260152287 0.0 0.0
903.599216054365 114.13854914824674 507.49821723202444 -48.12462379727148 0.0 0.0
972.0854057874785 129.77941056670815 549.954812100441 -49.4792645083786 0.0 0.0
1037.7350027863492 147.95539453469667 591.9305766958341 -49.850152028897895 0.0 0.0
1102.6683740273616 170.0979820758219 635.496786943217 -49.364509670333 0.0 0.0
1166.3494043702976 194.28791710221154 679.4714951740823 -48.461656808822134 0.0 0.0
1225.4092395067241 217.9259585966388 720.8477894253447 -47.25784391788581 0.0 0.0
1276.936962707402 236.60063161663297 755.9613299844992 -45.681986641333275 0.0 0.0
1316.905958765165 246.6865995829621 780.9991972043222 -43.41323512672069 0.0 0.0
1342.620024871406 245.60628210864863 793.3429543183329 -40.163492640642026 0.0 0.0
1349.164380389249 228.9393578135051 788.3802928738053 -36.3099253297948 0.0 0.0
1321.2537132195846 182.39915023841039 751.4448382114495 -33.051106392905126 0.0 0.0
1271.8197892442 120.32965326397462 696.0520048616274 -31.588022862618434 0.0 0.0
1106.7373730475563 -43.4485893475574 532.8092729731997 -7.453593298123451e-12 0.0 0.0
1271.8197892443452 120.32965326418804 696.0520048616175 31.588022862756155 0.0 0.0
1321.2537132197133 182.39915023863597 751.4448382116205 33.05110639306312 0.0 0.0
1349.1643803892514 228.93935781358164 788.3802928740195 36.309925329915615 0.0 0.0
1342.6200248717437 245.60628210911577 793.3429543185377 40.1634926405936 0.0 0.0
1316.905958766445 246.68659958439443 780.9991972050609 43.413235126758146 0.0 0.0
1276.936962706356 236.6006316157655 755.9613299837747 45.6819866414071 0.0 0.0
1225.4092395060977 217.92595859620783 720.8477894248242 47.257843917941464 0.0 0.0
1166.3494043701435 194.28791710228143 679.4714951740613 48.46165680899056 0.0 0.0
1102.6683740275348 170.09798207625963 635.4967869434081 49.364509670455966 0.0 0.0
1037.7350027863672 147.95539453490207 591.9305766958535 49.85015202879246 0.0 0.0
972.0854057870446 129.77941056653873 549.9548121001473 49.47926450819027 0.0 0.0
903.599216053674 114.1385491478326 507.49821723157953 48.124623797414614 0.0 0.0
827.428917025122 97.02251430913586 458.39674618337483 46.519642601420514 0.0 0.0
739.8734508346334 77.93010088291999 391.95075855265907 45.66479361248603 0.0 0.0
643.5648450812492 55.80873510245751 294.8842264428229 44.03911708626485 0.0 0.0
524.9560008928419 32.38955333214763 189.44013592682845 39.999241785203154 0.0 0.0
387.1448632870256 3.2632724628187684 117.59246882459341 37.44437403511368 0.0 0.0
314.5242350329337 83.43894997532516 119.45312330548438 42.42751952678069 0.0 0.0
782.1662957514341 365.24000240757323 527.2153351766228 94.55908336851496 0.0 0.0
-1424.0899269014456 -2168.1648420731767 -1681.037858932738 72.89360976013351 0.0 0.0
-1171.4627582181072 -1884.8156525274467 -1407.6543064097932 -86.7221014580545 0.0 0.0
600.9817006627146 270.1032545532196 393.05362872725163 -145.9638315903509 0.0 0.0
226.64399936495664 69.02244036705235 88.69993191960269 -63.66612659390566 0.0 0.0
321.9291892745406 8.871355736637458 98.95192891912282 -60.805238138026645 0.0 0.0
468.8959862323112 19.695740436312626 156.52217867935778 -65.15829489404244 0.0 0.0
597.4307230088298 48.05246084840937 256.9128635400651 -65.64219634787376 0.0 0.0
705.2793896656851 69.96759904035783 362.2463518126188 -67.86473502413669 0.0 0.0
790.8693228758464 86.9478053963483 432.7315311544749 -68.13977362488589 0.0 0.0
864.1778052614119 100.14208159129407 480.17898426532247 -69.93648207085421 0.0 0.0
928.9593623573603 112.11941842706443 519.1704475612988 -71.26985014835269 0.0 0.0
991.0396919300097 127.28574176110973 557.8596515177326 -71.31079091827769 0.0 0.0
1053.2514068833661 146.94198898370914 598.830127671794 -70.41738027052541 0.0 0.0
1114.008063246837 169.45579026724567 640.5371395871896 -68.9839837368717 0.0 0.0
1170.553884880053 190.34733134700912 679.2905266903862 -67.23733358656555 0.0 0.0
1220.49987372855 208.1154929317044 713.1486970866056 -64.95557774767633 0.0 0.0
1261.6442412117929 219.88478116737275 739.6139448766833 -61.865625355265195 0.0 0.0
1288.995010447205 220.34144379269017 753.5744858679071 -57.82593465801375 0.0 0.0
1294.4096536280342 202.3644586638303 747.4657439570343 -53.122188818440975 0.0 0.0
1274.670668845431 163.74332800964837 718.531588130572 -48.07526074824274 0.0 0.0
1245.8136216844389 121.59341844859344 683.2310023106445 -42.12675256357063 0.0 0.0
1015.7286673153357 -106.59261011317469 455.92485498565384 6.408917840872164e-11 0.0 0.0
1245.8136216844023 121.5934184485761 683.2310023106556 42.12675256367203 0.0 0.0
1274.6706688439644 163.74332800819067 718.5315881294936 48.07526074821928 0.0 0.0
1294.409653628417 202.36445866431345 747.4657439575969 53.12218881848637 0.0 0.0
1288.9950104472894 220.34144379290365 753.574485867872 57.825934657990246 0.0 0.0
1261.6442412112033 219.88478116681415 739.6139448762456 61.86562535515525 0.0 0.0
1220.4998737276119 208.11549293093103 713.1486970859874 64.95557774762545 0.0 0.0
1170.5538848803142 190.34733134750883 679.2905266904661 67.23733358660917 0.0 0.0
1114.0080632458044 169.45579026647624 640.5371395865029 68.98398373713502 0.0 0.0
1053.2514068826783 146.94198898324643 598.8301276713765 70.41738027057222 0.0 0.0
991.0396919296638 127.2857417609944 557.8596515174522 71.31079091835416 0.0 0.0
928.9593623568035 112.11941842669619 519.170447560935 71.26985014810393 0.0 0.0
864.1778052602441 100.14208159046069 480.1789842646324 69.93648207093739 0.0 0.0
790.8693228755604 86.94780539634402 432.73153115428084 68.13977362494236 0.0 0.0
705.2793896651738 69.96759904009548 362.24635181210147 67.86473502397781 0.0 0.0
597.4307230084993 48.05246084846122 256.9128635397189 65.64219634784946 0.0 0.0
468.89598623218615 19.695740436763522 156.52217867937026 65.15829489406568 0.0 0.0
321.92918927438615 8.871355736531571 98.95192891904766 60.8052381379934 0.0 0.0
226.64399936493933 69.0224403669999 88.69993191958174 63.666126593844595 0.0 0.0
600.9817006619828 270.10325455287506 393.0536287266127 145.96383159030387 0.0 0.0
-1171.4627582163178 -1884.8156525256327 -1407.6543064078458 86.72210145777132 0.0 0.0
-950.1578507574085 -1638.0398895965889 -1166.5071846946737 -85.08833005638098 0.0 0.0
466.4749803700523 184.25298090104337 286.6782502722466 -179.41870719908482 0.0 0.0
165.27231963300557 53.09185360054834 65.50925197006616 -94.65129008753728 0.0 0.0
261.5198416281648 15.210976302966632 82.98563223911789 -86.3090990080038 0.0 0.0
402.689000523815 11.23995418677639 126.81511431295026 -91.98938350562727 0.0 0.0
541.4627819003324 35.041217496183805 213.7826077979975 -90.79932488306125 0.0 0.0
659.6275842657117 60.71522694999878 323.7738943055397 -90.34774511835177 0.0 0.0
748.5031410531457 77.40876259209226 402.88500720362634 -90.14174841438097 0.0 0.0
820.0274619250023 86.77482355031215 450.2990726694393 -91.217185418797 0.0 0.0
881.1528338299687 94.82775556447525 486.0439984706135 -92.1985043871703 0.0 0.0
939.934939930052 106.72870587422716 521.4926305182969 -91.82869465255628 0.0 0.0
998.9097771004941 123.69942208235045 559.520205825024 -90.52547835250382 0.0 0.0
1056.867945123688 143.51609010646473 598.5037546521601 -88.72824381070963 0.0 0.0
1110.8221723032184 163.1804925359473 635.3769371181759 -86.41402657716517 0.0 0.0
1159.2406897981111 179.44996360105418 667.727616799524 -83.46916578851369 0.0 0.0
1200.2909242850596 190.98236453274615 694.0113764246518 -79.82522802288227 0.0 0.0
1229.8598994693334 193.9876742284744 710.3709924071582 -75.37540372169823 0.0 0.0
1241.1092497060233 181.5785004369796 709.9762715294796 -69.99685374458852 0.0 0.0
1231.099113392803 151.86716803908212 690.3443702716552 -62.899155860884406 0.0 0.0
1212.0488098894602 118.00767044357866 664.0430844450144 -52.898072259949636 0.0 0.0
902.6163923328123 -188.72962207858777 358.6754985560531 6.460609824898711e-11 0.0 0.0
1212.0488098888998 118.00767044309862 664.0430844448458 52.89807226004379 0.0 0.0
1231.099113391855 151.86716803823487 690.3443702709324 62.89915586116707 0.0 0.0
1241.1092497048494 181.57850043584327 709.9762715288558 69.99685374458161 0.0 0.0
1229.8598994685387 193.98767422782367 710.3709924066135 75.37540372174509 0.0 0.0
1200.2909242808894 190.98236452848235 694.011376421854 79.82522802251167 0.0 0.0
1159.240689797564 179.44996360071994 667.7276167991146 83.46916578856636 0.0 0.0
1110.8221723044114 163.18049253739645 635.3769371189371 86.41402657733663 0.0 0.0
1056.8679451224027 143.51609010534094 598.5037546513349 88.7282438107347 0.0 0.0
998.9097770994222 123.69942208147674 559.5202058242796 90.52547835243898 0.0 0.0
939.9349399293377 106.72870587373777 521.4926305177905 91.82869465260723 0.0 0.0
881.1528338294719 94.82775556415046 486.0439984702891 92.19850438693983 0.0 0.0
820.0274619248995 86.7748235505056 450.2990726693775 91.21718541873899 0.0 0.0
748.5031410521666 77.40876259148833 402.88500720296565 90.14174841449068 0.0 0.0
659.6275842653578 60.715226949954804 323.77389430512096 90.34774511831831 0.0 0.0
541.4627819001528 35.04121749639495 213.78260779776366 90.79932488296308 0.0 0.0
402.6890005238011 11.239954187501201 126.81511431312238 91.98938350564597 0.0 0.0
261.5198416280431 15.2109763027725 82.98563223902158 86.30909900784944 0.0 0.0
165.2723196328994 53.091853600447486 65.50925197000409 94.65129008742248 0.0 0.0
466.47498036950844 184.25298090083209 286.67825027176013 179.418707198952 0.0 0.0
-950.1578507557341 -1638.039889594798 -1166.5071846928633 85.08833005620954 0.0 0.0
-754.9539829276179 -1420.1156760090212 -951.4793718053088 -80.01027396003471 0.0 0.0
360.76880962619896 117.14182498252495 204.10351185939285 -199.41872261234533 0.0 0.0
119.49701976084056 36.13514544677217 46.68964956228383 -124.6098975677545 0.0 0.0
208.50619119776383 19.548531802894132 68.42172823193651 -112.1120505324774 0.0 0.0
330.84485176820306 6.920910723357454 100.91239695792783 -119.2116364277793 0.0 0.0
470.5069334393951 21.847772608874237 169.80442518545362 -117.47829944357093 0.0 0.0
598.3804359336282 50.67737440490964 276.32969416575867 -113.99866096606198 0.0 0.0
698.6487106724524 65.67491216074362 365.0381960893389 -113.04026588173757 0.0 0.0
768.3956408416626 73.70418349259829 415.92978921361964 -111.97853292389728 0.0 0.0
827.8343307941541 77.70809060522816 449.88907359037165 -112.2539146466324 0.0 0.0
883.2132081902322 86.24337961330751 482.11452269134156 -111.36534234509467 0.0 0.0
938.9365654880957 100.46128848858766 517.1649303660772 -109.62569606774544 0.0 0.0
993.7962315016733 117.96791726750085 553.4670796872339 -107.47441542226107 0.0 0.0
1045.029608260737 134.9331322773169 587.66092537034 -104.81065130230515 0.0 0.0
1091.4091492525554 149.8330322007554 618.3333239635731 -101.30061325724655 0.0 0.0
1131.9149752665714 161.36928878390495 644.3511540526914 -97.08296655764819 0.0 0.0
1164.7513572517917 167.05967068755612 663.6443852001468 -92.50845087095794 0.0 0.0
1185.0324198191106 163.41872248891954 672.1334010530005 -86.7976913744701 0.0 0.0
1185.9033712361827 143.5758645508546 662.9104585328337 -78.11074082464923 0.0 0.0
1172.7532353818838 113.24015328799612 641.3356867073693 -64.69960263601793 0.0 0.0
770.1816740117316 -285.251871819975 244.75796618416035 2.0895285501865146e-10 0.0 0.0
1172.7532353811837 113.24015328719375 641.3356867070186 64.69960263594771 0.0 0.0
1185.9033712367957 143.57586455153006 662.9104585333499 78.1107408246556 0.0 0.0
1185.032419817658 163.418722487546 672.1334010519815 86.79769137438444 0.0 0.0
1164.7513572500256 167.05967068586966 663.644385198906 92.50845087097494 0.0 0.0
1131.9149752657333 161.3692887833062 644.3511540523018 97.08296655773755 0.0 0.0
1091.4091492532643 149.83303220172206 618.3333239639952 101.30061325751437 0.0 0.0
1045.0296082617867 134.93313227856873 587.6609253710553 104.8106513023571 0.0 0.0
993.7962315009307 117.96791726697808 553.467079686746 107.47441542226339 0.0 0.0
938.9365654877626 100.46128848841437 517.1649303658825 109.62569606768292 0.0 0.0
883.2132081889682 86.24337961218966 482.1145226905914 111.36534234499996 0.0 0.0
827.8343307948214 77.70809060627202 449.88907359075597 112.25391464673069 0.0 0.0
768.395640841454 73.70418349257054 415.9297892134481 111.97853292377799 0.0 0.0
698.6487106720695 65.67491216071838 365.0381960890279 113.04026588171914 0.0 0.0
598.3804359332818 50.67737440501229 276.3296941653789 113.99866096611427 0.0 0.0
470.5069334392623 21.84777260915807 169.8044251853012 117.47829944345355 0.0 0.0
330.844851768151 6.920910724159814 100.91239695816284 119.21163642760014 0.0 0.0
208.50619119759799 19.54853180270224 68.42172823182744 112.11205053231618 0.0 0.0
119.4970197608301 36.1351454468397 46.689649562300936 124.60989756761734 0.0 0.0
360.76880962564337 117.14182498218602 204.1035118589287 199.41872261223614 0.0 0.0
-754.9539829261407 -1420.1156760074794 -951.4793718037221 80.01027395982324 0.0 0.0
-585.3446697321508 -1222.0382712171374 -759.4661405377803 -74.95661949510765 0.0 0.0
276.9126620181637 64.38933571674603 140.3117544414028 -212.23526111416172 0.0 0.0
83.15689697489893 20.124540989765954 30.984559693733537 -149.3913807528531 0.0 0.0
159.86398049669017 22.428835709268654 54.687224972031736 -135.90826039445736 0.0 0.0
257.3939376948832 6.727887726949587 78.62330553133154 -143.2433825501255 0.0 0.0
387.71643229232916 8.118065306186566 127.06939329174662 -147.45270153088956 0.0 0.0
521.6768936076782 35.62218606562671 219.8221743589795 -140.57479957364777 0.0 0.0
631.6002127110287 54.67283423791107 315.64430949839624 -135.77025026349293 0.0 0.0
709.8481248152392 58.30834508959023 374.54181025059927 -133.70372110533455 0.0 0.0
765.9348571973698 60.66375870425114 408.7065539285227 -131.31648947349484 0.0 0.0
819.4715852109914 65.92396962546864 438.81298682434635 -129.80876931280721 0.0 0.0
871.8018050549433 77.13872950516351 470.7457551121816 -127.63871681522431 0.0 0.0
923.0923645041175 91.86949142785002 503.9113664670207 -125.17481922994982 0.0 0.0
971.4504536904293 106.89697433717963 535.7302670208155 -122.27022390776082 0.0 0.0
1015.2541152456652 119.76637412558253 564.1609323563855 -118.43509823709931 0.0 0.0
1054.2022346466067 129.25235717873298 588.381486105496 -113.81675324126763 0.0 0.0
1090.153072374355 139.10174646855174 611.2442350703332 -108.8148377788861 0.0 0.0
1122.1725831596236 146.33643840361168 630.9851183667987 -103.3055294939071 0.0 0.0
1136.5586634264112 138.07693796612978 634.3631737246325 -94.16899420442816 0.0 0.0
1128.8399192425557 110.21643339692422 616.8511266196787 -78.39463146408356 0.0 0.0
616.9618985653736 -394.82790792734664 114.15167224902062 1.7791634832065029e-10 0.0 0.0
1128.8399192403463 110.21643339468162 616.8511266181645 78.39463146406555 0.0 0.0
1136.5586634281083 138.07693796805745 634.3631737258125 94.16899420467954 0.0 0.0
1122.1725831611234 146.33643840545687 630.9851183679077 103.30552949436732 0.0 0.0
1090.1530723714222 139.10174646564616 611.244235068307 108.81483777900985 0.0 0.0
1054.2022346482502 129.25235718079497 588.3814861067843 113.81675324178329 0.0 0.0
1015.2541152467127 119.76637412677152 564.1609323570628 118.4350982372799 0.0 0.0
971.4504536906616 106.8969743377069 535.7302670209396 122.27022390783125 0.0 0.0
923.0923645030717 91.86949142679637 503.9113664662962 125.17481922985698 0.0 0.0
871.8018050550825 77.13872950529772 470.7457551122395 127.63871681485679 0.0 0.0
819.4715852101335 65.92396962485891 438.8129868238171 129.80876931269688 0.0 0.0
765.9348571979249 60.66375870512944 408.7065539288994 131.31648947361742 0.0 0.0
709.8481248147287 58.30834508936202 374.541810250208 133.70372110526114 0.0 0.0
631.6002127100143 54.6728342370676 315.6443094976918 135.77025026337316 0.0 0.0
521.6768936072493 35.62218606576384 219.82217435864914 140.5747995737941 0.0 0.0
387.71643229214845 8.118065306489118 127.06939329168637 147.45270153084005 0.0 0.0
257.3939376949519 6.727887727649453 78.62330553158658 143.24338254989556 0.0 0.0
159.86398049671638 22.428835709240364 54.68722497202913 135.90826039445182 0.0 0.0
83.15689697486091 20.124540989714898 30.984559693706796 149.39138075276313 0.0 0.0
276.91266201761255 64.38933571635353 140.31175444097607 212.23526111407998 0.0 0.0
-585.344669730983 -1222.0382712157293 -759.4661405364157 74.95661949501182 0.0 0.0
-435.65494671669586 -1048.6107545126856 -588.7353788653185 -77.15905158576868 0.0 0.0
206.1041277574839 24.474833113636095 90.494813928943 -217.26560496632771 0.0 0.0
52.48495454831657 6.963891745457921 17.83397384247502 -167.96106067082425 0.0 0.0
113.07480016186057 23.708290571037775 41.03440071672611 -156.1245360937883 0.0 0.0
187.3158519165407 8.442126172471411 58.43187804775157 -163.56006623294743 0.0 0.0
293.2036054628628 0.17585595631853645 89.55884423371378 -175.79273196391728 0.0 0.0
422.8906864281795 18.066017793967752 158.19619583001895 -169.59323683328725 0.0 0.0
543.9559022891775 38.65814241530529 250.2069720608805 -159.77110485760232 0.0 0.0
632.5839928395545 44.37259565861221 320.20448795774945 -154.21082510880203 0.0 0.0
693.5627223659626 41.49741508435943 358.8886254036522 -150.50287496884684 0.0 0.0
744.3802329855544 44.89862351337971 388.2142236701628 -146.98747601563772 0.0 0.0
793.7273568247723 53.836430621214625 417.86936540160144 -144.28688459425115 0.0 0.0
841.4092013155237 65.68958950740489 447.8691371864478 -141.5381044962809 0.0 0.0
885.9021664486232 78.01113025240701 476.43178299125486 -138.54476299373863 0.0 0.0
927.3561940525777 89.17074555625786 502.8750722120005 -134.79428752415262 0.0 0.0
964.356874123329 97.67423747599389 525.7362044206321 -129.88960236871606 0.0 0.0
1000.5209098295719 106.56103717149801 548.2228390923439 -124.35125930779607 0.0 0.0
1043.7065326364273 124.80964368908619 578.8624255529828 -119.02607864612597 0.0 0.0
1078.7472852516764 136.26795810953323 602.4882440738266 -111.06358741523673 0.0 0.0
1081.2310200132863 114.41649151878437 593.3900427871579 -95.06750713847626 0.0 0.0
437.4389134194261 -516.5430384142232 -35.32592205383213 2.936673126896494e-11 0.0 0.0
1081.231020012993 114.41649151871157 593.3900427870824 95.06750713866387 0.0 0.0
1078.7472852528833 136.26795811087072 602.4882440746185 111.06358741567992 0.0 0.0
1043.7065326374282 124.80964369015653 578.862425553657 119.02607864631688 0.0 0.0
1000.520909827594 106.56103716969167 548.2228390907537 124.35125930784271 0.0 0.0
964.356874122777 97.67423747554892 525.7362044202639 129.88960236877546 0.0 0.0
927.356194051496 89.17074555520095 502.87507221127333 134.79428752414253 0.0 0.0
885.9021664482492 78.01113025223019 476.4317829909684 138.5447629938163 0.0 0.0
841.4092013143303 65.68958950619911 447.8691371856356 141.53810449600041 0.0 0.0
793.7273568249118 53.83643062169941 417.86936540175486 144.28688459443896 0.0 0.0
744.3802329852916 44.898623513376265 388.21422366993517 146.98747601571216 0.0 0.0
693.5627223658149 41.49741508428865 358.88862540357087 150.50287496865536 0.0 0.0
632.583992839154 44.37259565844327 320.20448795740776 154.21082510869547 0.0 0.0
543.9559022884724 38.65814241495901 250.2069720603352 159.77110485754682 0.0 0.0
422.890686427766 18.066017794066507 158.1961958297696 169.59323683336405 0.0 0.0
293.2036054625162 0.17585595635568785 89.55884423359457 175.79273196368 0.0 0.0
187.3158519164083 8.4421261725316 58.4318780477393 163.5600662327958 0.0 0.0
113.07480016173923 23.70829057080576 41.034400716625534 156.12453609356382 0.0 0.0
52.48495454821861 6.963891745382499 17.833973842421404 167.96106067065932 0.0 0.0
206.1041277570698 24.47483311342071 90.49481392865617 217.26560496621283 0.0 0.0
-435.65494671562533 -1048.610754511332 -588.7353788641203 77.1590515858276 0.0 0.0
-316.6727939461857 -883.1483008660045 -445.7160263197069 -80.9049573343188 0.0 0.0
145.473747296906 -7.833112044467875 52.16879381438549 -216.0359419943695 0.0 0.0
24.332746445600915 -2.15796878196512 6.650715868453816 -180.98606877136575 0.0 0.0
67.18333052313223 23.48461255870754 27.191213976315762 -172.22141410794234 0.0 0.0
119.75211671066799 11.413345866697824 39.21174812223821 -179.3561840188214 0.0 0.0
192.46222165153426 -0.7388914374878779 57.47396433719085 -197.40229410825788 0.0 0.0
299.1638843082049 1.5159834988136454 97.49094515085092 -201.8389744386993 0.0 0.0
424.28307147193266 15.831865139011207 167.40717934373095 -187.9144026406837 0.0 0.0
526.8097994100681 24.523128059803966 240.88163247479872 -174.29129723116066 0.0 0.0
596.245309160469 22.326631767374586 289.6910095426328 -167.32419592628864 0.0 0.0
648.6305958077822 23.540267658721124 322.7327543150226 -162.24545212255387 0.0 0.0
695.3880501332312 29.61968034343062 351.01573600791494 -159.04035634833826 0.0 0.0
739.0890324346427 39.20431205613224 378.40991581750495 -156.08488081615056 0.0 0.0
779.02035712788 48.69684177187181 403.42225919347453 -153.1573410243814 0.0 0.0
816.9630177860021 58.07475072117807 427.3096858791798 -149.88579912635387 0.0 0.0
853.4017473181128 66.66033528055806 450.1104838134745 -145.4865811122404 0.0 0.0
888.6160846116371 74.2827914942068 471.86690843276085 -139.4980446804653 0.0 0.0
933.4532217440792 92.6044852678296 503.3657452665675 -133.3142587323238 0.0 0.0
995.1970272301057 128.40154679944197 552.2504845650739 -128.0731053681465 0.0 0.0
1028.3205552736356 132.23879290979863 572.0234502519149 -116.59242752197481 0.0 0.0
221.99599527497662 -645.6863228042939 -205.7867620944117 -4.6352255367310136e-11 0.0 0.0
1028.3205552722563 132.23879290829635 572.0234502512902 116.59242752208924 0.0 0.0
995.1970272291053 128.4015467985221 552.2504845643874 128.07310536831324 0.0 0.0
933.453221743058 92.60448526657453 503.3657452660488 133.31425873236992 0.0 0.0
888.6160846119927 74.28279149490922 471.8669084328818 139.49804468068015 0.0 0.0
853.4017473175012 66.66033527978007 450.1104838130692 145.48658111199097 0.0 0.0
816.9630177851288 58.074750720484644 427.30968587863055 149.88579912636024 0.0 0.0
779.0203571271062 48.69684177102596 403.42225919296595 153.15734102432697 0.0 0.0
739.0890324334335 39.20431205487856 378.40991581670835 156.0848808159852 0.0 0.0
695.3880501332752 29.6196803437658 351.0157360079534 159.04035634845536 0.0 0.0
648.6305958073374 23.54026765836216 322.73275431472723 162.2454521225285 0.0 0.0
596.2453091601387 22.326631767069266 289.69100954234017 167.32419592602884 0.0 0.0
526.8097994103223 24.52312806066666 240.88163247495135 174.29129723120434 0.0 0.0
424.2830714721137 15.83186513998141 167.40717934390057 187.9144026409079 0.0 0.0
299.1638843078227 1.515983498748061 97.49094515064698 201.83897443857626 0.0 0.0
192.46222165139906 -0.7388914372651656 57.47396433722702 197.4022941080012 0.0 0.0
119.75211671057401 11.413345866711076 39.21174812222241 179.35618401850343 0.0 0.0
67.18333052306339 23.48461255862925 27.191213976270227 172.22141410776243 0.0 0.0
24.332746445634474 -2.1579687818428583 6.650715868500272 180.98606877109924 0.0 0.0
145.4737472965492 -7.833112044718888 52.16879381414114 216.03594199422855 0.0 0.0
-316.67279394536126 -883.1483008648498 -445.71602631875305 80.90495733431709 0.0 0.0
-219.3116610173044 -735.1306315785515 -326.9465490425214 -92.78730622673788 0.0 0.0
91.11246389499063 -33.90091948624798 21.87412826270226 -208.76754029485494 0.0 0.0
-2.978198288899005 -6.4640138156479185 -2.8534618848785556 -188.45308858702327 0.0 0.0
21.712530915712275 22.211947339726073 13.173442949685631 -183.23748558021845 0.0 0.0
52.44044704393825 14.634428569252888 20.077728255133543 -190.46267804173146 0.0 0.0
92.59914917424372 2.6710258398350932 28.513083270954102 -210.91969781457684 0.0 0.0
152.12919352327856 -2.7963870703334153 45.60868097914362 -225.7223845879518 0.0 0.0
246.73245069569202 -7.0932287617602725 76.54867264465797 -222.30118442755287 0.0 0.0
358.66610915766836 -13.273756025953372 119.19503363621686 -200.26067779041307 0.0 0.0
442.23487734927687 -11.334080951878814 163.97750820151322 -178.00226387199308 0.0 0.0
499.17617350186697 -2.699205887350793 203.236523760717 -171.21803039803447 0.0 0.0
542.0478069433137 4.825449791196455 234.21118258939563 -169.6481346137528 0.0 0.0
578.7743786187913 12.524052369484025 260.2774699617138 -168.89669263501906 0.0 0.0
612.5007439013056 20.292935191037742 283.4717993541592 -167.98709781459604 0.0 0.0
645.4867626601374 28.456588979585618 306.3142507638697 -166.540925434812 0.0 0.0
680.3365673256513 37.15574154048622 330.6611980180946 -163.91601296107385 0.0 0.0
717.8773766481091 45.19778472244428 356.47059935107114 -158.69814995451657 0.0 0.0
757.603424646943 51.93079300463096 382.6370100420165 -151.10701200800293 0.0 0.0
827.7980564563828 87.09649608413487 435.5367906187508 -145.74375661867495 0.0 0.0
932.5064067946357 152.75890665578473 523.7143823622098 -145.81827369235714 0.0 0.0
-62.803256044174816 -772.9880062806145 -407.1590887541654 -1.4457413044510758e-10 0.0 0.0
932.5064067926703 152.75890665407115 523.7143823609453 145.81827369227824 0.0 0.0
827.7980564552539 87.09649608285193 435.53679061803314 145.74375661921323 0.0 0.0
757.603424647735 51.93079300583014 382.63701004259116 151.10701200818528 0.0 0.0
717.8773766477252 45.19778472226143 356.4705993508166 158.69814995472723 0.0 0.0
680.3365673257283 37.15574154080764 330.6611980181599 163.91601296105407 0.0 0.0
645.4867626606974 28.456588980294335 306.31425076430816 166.54092543511774 0.0 0.0
612.5007439004617 20.292935190040886 283.4717993536308 167.98709781449162 0.0 0.0
578.7743786172417 12.524052367733468 260.2774699606529 168.89669263481065 0.0 0.0
542.0478069438814 4.825449791739864 234.2111825896212 169.64813461372452 0.0 0.0
499.17617350022306 -2.699205889435543 203.2365237597171 171.21803039786346 0.0 0.0
442.2348773492856 -11.334080951723651 163.9775082015227 178.00226387183443 0.0 0.0
358.666109157111 -13.273756026352958 119.19503363593296 200.2606777905274 0.0 0.0
246.73245069590408 -7.093228760541066 76.54867264503991 222.30118442760406 0.0 0.0
152.1291935228216 -2.7963870709456 45.60868097881757 225.72238458780956 0.0 0.0
92.59914917415493 2.671025839873244 28.51308327094942 210.91969781431237 0.0 0.0
52.44044704388802 14.634428569133192 20.077728255086097 190.46267804145816 0.0 0.0
21.71253091573845 22.2119473398468 13.17344294972961 183.23748558004797 0.0 0.0
-2.9781982887655563 -6.46401381523342 -2.853461884716597 188.45308858679977 0.0 0.0
91.11246389453683 -33.90091948668227 21.87412826240482 208.7675402947249 0.0 0.0
-219.3116610167502 -735.1306315776189 -326.94654904183517 92.78730622676166 0.0 0.0
-151.49171863642778 -598.2147509707586 -237.60060435727672 -106.0307392014003 0.0 0.0
40.55906642997874 -54.06912864047048 -2.474440826420653 -194.78262961728487 0.0 0.0
-29.97180776162219 -7.037210020185527 -11.106989055458707 -192.31490904687766 0.0 0.0
-23.222895768844445 20.47137498405562 -0.8423393850983021 -189.58161937761705 0.0 0.0
-14.079887802876014 17.599845122894262 1.0531144536170185 -196.17023312171622 0.0 0.0
-6.983528355173467 7.116706169374739 0.05228780649081877 -216.02872293412918 0.0 0.0
-3.3032594208851833 0.8544305307199318 -0.7369060892330852 -233.03084391986124 0.0 0.0
-1.2974782409035726 0.1397049287248553 -0.35010796123899013 -235.77309012117098 0.0 0.0
-0.38098951369450873 -0.04362492652414218 -0.1331364748532664 -230.02698673692058 0.0 0.0
-0.1173538377324519 0.0018878268812478893 -0.03337252884085018 -225.44417900400825 0.0 0.0
-0.5150988839875197 -0.0020150482948722015 -0.10189089552655162 -214.28343004676924 0.0 0.0
-1.1229452793382677 0.21853288904424062 0.2942405313083327 -201.26317328295778 0.0 0.0
-1.7302158909684238 1.1363386140571947 0.5898617128000581 -192.54861081389816 0.0 0.0
1.1605719342239809 3.3853660549019935 1.2298290164088996 -185.90111936395198 0.0 0.0
12.58505177142851 8.195548109388568 2.9043223526401505 -181.10051567397213 0.0 0.0
39.45215898242901 16.761410973291504 7.49344462110156 -176.84180469579712 0.0 0.0
91.25886596855267 30.950025568282797 17.459107295951952 -171.23867427158117 0.0 0.0
181.58362181344486 41.89784920579925 24.25102807947573 -162.06852253144504 0.0 0.0
406.67729136530136 2.9230016960346603 44.29121028163499 -158.23451002902092 0.0 0.0
646.8121767635744 41.999487672190625 264.5018930670044 -206.75856447484384 0.0 0.0
-771.7286094841714 -1032.6330841860802 -823.6293067815366 -6.303935151663609e-11 0.0 0.0
646.8121767635884 41.999487672040544 264.501893067123 206.7585644745772 0.0 0.0
406.6772913645529 2.9230016944398187 44.29121028065333 158.23451002985456 0.0 0.0
181.58362181420392 41.89784920685892 24.251028079822788 162.0685225320599 0.0 0.0
91.25886596753992 30.95002556696099 17.45910729500737 171.2386742717266 0.0 0.0
39.452158981871406 16.76141097229481 7.49344462052089 176.8418046957934 0.0 0.0
12.585051771798987 8.195548109709051 2.9043223528948943 181.10051567388467 0.0 0.0
1.1605719342716583 3.3853660547119233 1.2298290163560353 185.9011193640212 0.0 0.0
-1.7302158914541508 1.1363386130679487 0.5898617122090144 192.5486108140392 0.0 0.0
-1.122945278889162 0.21853288900600631 0.294240531431619 201.26317328306544 0.0 0.0
-0.5150988842335238 -0.002015048687496801 -0.1018908958163749 214.28343004646527 0.0 0.0
-0.11735383728854742 0.0018878266318296255 -0.033372528780517996 225.44417900377582 0.0 0.0
-0.380989513820154 -0.043624927856948936 -0.133136475315899 230.02698673685296 0.0 0.0
-1.2974782405697773 0.13970492917413235 -0.350107960994011 235.77309012127634 0.0 0.0
-3.3032594207736157 0.8544305307703749 -0.7369060891854655 233.0308439195577 0.0 0.0
-6.983528355200651 7.116706169233085 0.052287806440415974 216.0287229338138 0.0 0.0
-14.079887802559144 17.599845123404386 1.0531144538642632 196.1702331214108 0.0 0.0
-23.222895768635453 20.47137498435127 -0.8423393849481422 189.58161937738214 0.0 0.0
-29.971807761464166 -7.037210019787307 -11.1069890552927 192.3149090467345 0.0 0.0
40.559066429709546 -54.06912864064269 -2.474440826573763 194.7826296170239 0.0 0.0
-151.49171863612074 -598.2147509700856 -237.600604356902 106.03073920141 0.0 0.0
-114.6191614310852 -475.7901016133302 -177.84159654985012 -115.0805964524565 0.0 0.0
-1.3575284495085356 -66.54837624050845 -20.261243153155217 -177.47249806154161 0.0 0.0
-55.7640555947895 -6.0775840793411895 -18.570278366850825 -191.29508945377725 0.0 0.0
-67.22578363473748 18.842606491446354 -14.542081509811016 -190.97497153566394 0.0 0.0
-79.35836912280985 19.868419421761853 -17.859039322210158 -196.09880651660006 0.0 0.0
-105.18064128103752 11.324279389268796 -28.20048855159967 -212.27403426134353 0.0 0.0
-157.85853069852368 4.493803326695669 -46.972980779446985 -226.70384497525137 0.0 0.0
-248.26202799431428 7.096301689555007 -77.22189573321964 -222.7130724179672 0.0 0.0
-358.9654176052548 13.135755037728604 -119.42956262333333 -200.37794305270435 0.0 0.0
-442.2661493909512 11.284136971760958 -164.0150284251028 -177.95515654513167 0.0 0.0
-499.7303299454577 2.545696946869775 -203.6378096549456 -171.23122424754223 0.0 0.0
-542.953832736034 -4.651413126148142 -235.18767281903666 -169.42353347164183 0.0 0.0
-579.5971324985015 -10.686844267362034 -260.66517950719674 -168.16467135663228 0.0 0.0
-609.3418378447623 -14.080816328830934 -279.1525959571229 -167.2908003261949 0.0 0.0
-629.3863073496804 -13.610492410681886 -288.9311097053028 -167.51224685847535 0.0 0.0
-637.7826950251662 -8.070264218531918 -287.8840348990558 -169.4807474310563 0.0 0.0
-633.3658632710408 2.244113289668178 -274.1985366583289 -173.97820313999605 0.0 0.0
-625.1796684375622 9.916701968572738 -251.24963635392217 -183.22299198247418 0.0 0.0
-598.9890937041196 65.35861474695267 -184.455632848514 -196.79479811601686 0.0 0.0
-321.12191918504357 198.30146559310606 63.16766265184043 -170.56663102069837 0.0 0.0
-1354.5481366641998 -1316.0841011542236 -1373.177792354039 -7.610623242726433e-11 0.0 0.0
-321.12191918443796 198.30146559328813 63.167662652067264 170.56663102115354 0.0 0.0
-598.9890937041171 65.35861474670779 -184.45563284840065 196.79479811645786 0.0 0.0
-625.1796684381521 9.916701967479895 -251.24963635421065 183.2229919827038 0.0 0.0
-633.3658632705469 2.2441132899882064 -274.1985366580716 173.9782031399373 0.0 0.0
-637.7826950273445 -8.070264221833213 -287.88403490069186 169.48074743160586 0.0 0.0
-629.3863073498114 -13.610492411128135 -288.9311097052912 167.51224685859927 0.0 0.0
-609.3418378451731 -14.080816329607913 -279.1525959575382 167.29080032639746 0.0 0.0
-579.5971324988799 -10.686844268091171 -260.6651795074721 168.16467135668972 0.0 0.0
-542.9538327356473 -4.65141312600311 -235.1876728186281 169.4235334716018 0.0 0.0
-499.73032994444054 2.545696948289674 -203.63780965415145 171.23122424731253 0.0 0.0
-442.26614939067383 11.284136971493908 -164.01502842498408 177.955156545211 0.0 0.0
-358.9654176051358 13.135755036950837 -119.42956262341667 200.37794305303254 0.0 0.0
-248.26202799424073 7.096301688613499 -77.2218957334169 222.71307241808722 0.0 0.0
-157.8585306977289 4.493803327725142 -46.97298077888887 226.70384497503355 0.0 0.0
-105.18064128093305 11.324279389024989 -28.200488551648306 212.2740342610033 0.0 0.0
-79.3583691224011 19.868419422451506 -17.85903932188224 196.0988065163907 0.0 0.0
-67.22578363455415 18.84260649172819 -14.542081509674679 190.97497153537 0.0 0.0
-55.76405559489854 -6.077584079542758 -18.57027836694496 191.29508945371927 0.0 0.0
-1.3575284496255897 -66.54837624059516 -20.26124315322094 177.4724980613229 0.0 0.0
-114.61916143099042 -475.79010161263835 -177.8415965496442 115.08059645239902 0.0 0.0
-96.30037080867201 -363.46783576257764 -137.91693109664965 -109.6207834711822 0.0 0.0
-28.71020768025919 -73.61983339889434 -30.692371287474785 -163.5557193476572 0.0 0.0
-80.00106160604588 -5.351132418543067 -25.591578223016178 -187.09822563715034 0.0 0.0
-109.4880117757197 17.45788342760805 -27.647886092176414 -187.307566484974 0.0 0.0
-143.42804684416518 21.51723524264736 -36.5228613894477 -191.23071570179255 0.0 0.0
-201.60544814482296 14.072691844096557 -56.73151927670286 -201.5140260280477 0.0 0.0
-301.0224574553098 -0.6928540271687122 -98.59444851974935 -201.80777324571537 0.0 0.0
-424.4232296289946 -16.030998686762164 -167.73032301239343 -188.61252837196355 0.0 0.0
-526.7773086407113 -24.712788046922604 -240.97085395205647 -174.42558428295774 0.0 0.0
-596.1622191012913 -22.344504966318105 -289.68690618001364 -167.335857798085 0.0 0.0
-648.7365287772759 -23.52492253227433 -322.8274156152594 -162.13487058936477 0.0 0.0
-695.9198883218447 -29.42320241039336 -351.29552946241324 -158.42468193699548 0.0 0.0
-739.2884575160163 -37.828566307388826 -378.0352471880766 -154.8366588366449 0.0 0.0
-775.2282686483832 -43.32505824450058 -399.15926622378197 -152.14542003466818 0.0 0.0
-801.0812570920957 -43.29450496424673 -412.28943959414005 -151.3263374829162 0.0 0.0
-814.0245517017672 -35.66219786915855 -414.92774793282365 -152.727189303988 0.0 0.0
-815.4915873478099 -22.995809344329444 -408.89055446911675 -156.5591337150328 0.0 0.0
-805.9435913751732 -7.46953803660557 -395.777045857276 -162.64389715700085 0.0 0.0
-754.089056064352 41.910461264955075 -344.71808487358936 -169.64279448642515 0.0 0.0
-623.459505027577 155.07841387165647 -224.47387639876683 -177.33643845436322 0.0 0.0
-2164.1563919688692 -1616.2930621447767 -1860.6014198461557 6.181011258377112e-11 0.0 0.0
-623.459505026942 155.07841387211744 -224.47387639848105 177.3364384545984 0.0 0.0
-754.0890560649314 41.91046126417183 -344.7180848740959 169.64279448691667 0.0 0.0
-805.9435913753957 -7.469538037111434 -395.77704585754043 162.64389715721734 0.0 0.0
-815.4915873473495 -22.995809343605814 -408.8905544689386 156.55913371493085 0.0 0.0
-814.0245517025721 -35.66219787030532 -414.9277479332074 152.72718930403767 0.0 0.0
-801.0812570907888 -43.29450496306804 -412.28943959318707 151.32633748268756 0.0 0.0
-775.2282686496508 -43.32505824620308 -399.1592662246617 152.14542003489882 0.0 0.0
-739.2884575159724 -37.82856630757409 -378.0352471881237 154.83665883667015 0.0 0.0
-695.9198883215382 -29.42320241017507 -351.2955294621614 158.42468193687355 0.0 0.0
-648.7365287773362 -23.524922532422153 -322.8274156152977 162.13487058923718 0.0 0.0
-596.162219101017 -22.34450496643337 -289.68690617986096 167.33585779793498 0.0 0.0
-526.7773086407301 -24.7127880476605 -240.9708539520342 174.4255842831393 0.0 0.0
-424.4232296286598 -16.03099868704003 -167.73032301213024 188.61252837200794 0.0 0.0
-301.0224574542882 -0.6928540262718346 -98.59444851912195 201.80777324564082 0.0 0.0
-201.60544814449003 14.072691844076001 -56.73151927660484 201.51402602782508 0.0 0.0
-143.42804684392976 21.51723524268853 -36.52286138938268 191.23071570153377 0.0 0.0
-109.48801177561472 17.457883427678148 -27.647886092126196 187.30756648481025 0.0 0.0
-80.00106160602186 -5.351132418604593 -25.59157822303313 187.09822563700823 0.0 0.0
-28.710207680306933 -73.6198333989465 -30.692371287502937 163.55571934755497 0.0 0.0
-96.30037080842662 -363.46783576202085 -137.9169310964081 109.62078347100295 0.0 0.0
-78.9732269811657 -269.7380357261238 -104.61337881218685 -98.81026764163724 0.0 0.0
-47.48894898035964 -73.89572544167248 -36.414823077901495 -149.44489194714998 0.0 0.0
-102.35726203444128 -5.062145729119755 -32.195104242074535 -178.58811982892786 0.0 0.0
-150.14437211442316 16.212576604333464 -40.14675808752087 -179.64312827809295 0.0 0.0
-205.11645981042864 21.352607717518147 -55.171459683371424 -179.3765092767827 0.0 0.0
-294.45308076647507 10.246258392963757 -88.59559522496922 -179.17957190765415 0.0 0.0
-422.7807326621348 -16.30570589861874 -157.98276342534115 -172.30122701507912 0.0 0.0
-544.0402777060838 -39.21078332834708 -250.41893757340424 -160.4165855756847 0.0 0.0
-632.4914992830434 -44.542837766347844 -320.2649628754474 -154.3018411180134 0.0 0.0
-693.4096414317522 -41.398793843260194 -358.80760714065536 -150.5484892922302 0.0 0.0
-744.1968041942478 -44.632914204729886 -388.0257349870088 -146.85943993231285 0.0 0.0
-793.771731245644 -53.366066131005 -417.71009765595414 -143.57315401679787 0.0 0.0
-841.3765703991223 -64.52580784404822 -447.3732828608357 -139.99313971784548 0.0 0.0
-883.0028012570126 -73.91376107564554 -473.1388890242946 -137.08021232607297 0.0 0.0
-914.62614601538 -77.15566686855902 -490.7986535593237 -136.13423660595848 0.0 0.0
-932.1770788216429 -71.4865667211036 -496.84569580053926 -138.0316422856502 0.0 0.0
-934.5976562571549 -55.87698984719654 -490.2882667940393 -142.59071674191227 0.0 0.0
-912.6716030593532 -22.61646527092165 -462.63589877121797 -147.97487553635295 0.0 0.0
-852.3402920387036 40.78562558280447 -401.2028541111158 -151.8246558392316 0.0 0.0
-679.4121139740962 203.26566559439726 -235.9730221688914 -151.456867438588 0.0 0.0
-2604.5302427476768 -1844.2878703540437 -2202.4958062740297 9.86126735824655e-11 0.0 0.0
-679.4121139733368 203.26566559491147 -235.97302216837926 151.45686743879497 0.0 0.0
-852.3402920406936 40.78562558024561 -401.20285411248244 151.82465584000906 0.0 0.0
-912.6716030578572 -22.616465269518613 -462.63589877010145 147.9748755364776 0.0 0.0
-934.597656258212 -55.876989848286016 -490.28826679479437 142.59071674189187 0.0 0.0
-932.177078821396 -71.48656672088316 -496.8456958002835 138.03164228556935 0.0 0.0
-914.6261460136986 -77.15566686679911 -490.79865355818174 136.13423660573358 0.0 0.0
-883.0028012566376 -73.91376107554684 -473.1388890239706 137.08021232603278 0.0 0.0
-841.3765703987226 -64.52580784379572 -447.3732828606814 139.99313971791688 0.0 0.0
-793.7717312449457 -53.3660661304271 -417.7100976554324 143.57315401660128 0.0 0.0
-744.1968041943117 -44.632914204929904 -388.0257349871247 146.85943993218302 0.0 0.0
-693.4096414318478 -41.398793843688516 -358.80760714075507 150.54848929212048 0.0 0.0
-632.4914992821036 -44.542837765577715 -320.2649628747232 154.30184111785223 0.0 0.0
-544.0402777052934 -39.21078332792803 -250.41893757276586 160.4165855756389 0.0 0.0
-422.780732661171 -16.30570589797413 -157.98276342470368 172.3012270151086 0.0 0.0
-294.4530807659171 10.246258393116092 -88.59559522471511 179.17957190749692 0.0 0.0
-205.11645980985892 21.352607718037365 -55.171459683056014 179.37650927656009 0.0 0.0
-150.1443721141143 16.212576604745284 -40.146758087316975 179.6431282778546 0.0 0.0
-102.35726203446738 -5.06214572915624 -32.19510424209122 178.58811982891203 0.0 0.0
-47.488948980428866 -73.89572544171955 -36.414823077938784 149.4448919470964 0.0 0.0
-78.97322698113335 -269.73803572583313 -104.61337881208992 98.81026764139214 0.0 0.0
-64.31085562619823 -191.43454563850645 -76.72362037941139 -85.13433849884359 0.0 0.0
-61.514119047621435 -69.07030487885913 -39.175531429020744 -133.59414377799803 0.0 0.0
-123.03748992547501 -4.877754417121217 -38.35285666001404 -165.8369478040954 0.0 0.0
-188.4637720753828 14.142919357415323 -52.26950778532847 -166.74159159216362 0.0 0.0
-266.56330975838654 19.1709655778042 -74.44568909177502 -162.9763177171874 0.0 0.0
-383.9187291921194 1.3197237048313193 -124.84029401088576 -153.67508807191317 0.0 0.0
-519.6135305270865 -34.81845723855176 -219.01516687477513 -141.6300754984612 0.0 0.0
-631.8745040646885 -55.50709017818304 -316.01161487324896 -136.10922889757873 0.0 0.0
-709.786040605809 -58.408233378314094 -374.6220129371386 -133.78719310430034 0.0 0.0
-765.7011675709755 -60.44760152784555 -408.52605607175417 -131.3618916734221 0.0 0.0
-818.9686184858776 -65.32627200355603 -438.3016932356337 -129.67292779553725 0.0 0.0
-871.1327858841222 -76.13918931981127 -469.9474513861923 -126.9131541471262 0.0 0.0
-922.589719123701 -90.64817188081412 -503.0905816035121 -123.57045097088297 0.0 0.0
-970.0832242632202 -104.72287173902961 -534.0601723013151 -120.58017859008702 0.0 0.0
-1007.9263151604496 -112.88369969196035 -557.2678247869189 -119.41774493143744 0.0 0.0
-1029.4265699970244 -108.50609317360025 -566.0047663530285 -121.34587374096469 0.0 0.0
-1026.5175099917437 -85.938505078254 -553.4126597127495 -125.55044017921374 0.0 0.0
-990.557541030782 -35.52869799941024 -510.400082849113 -130.07672122030078 0.0 0.0
-899.286089212349 61.99207668708151 -416.68393791628785 -131.48080367587144 0.0 0.0
-711.3552695267579 242.00807555563753 -234.1039419308336 -128.38939836708752 0.0 0.0
-2954.6539706530943 -2083.122709349975 -2502.215439815188 1.2351719647085702e-10 0.0 0.0
-711.3552695252436 242.00807555718944 -234.1039419298383 128.38939836710304 0.0 0.0
-899.2860892133046 61.99207668571401 -416.6839379168825 131.4808036763505 0.0 0.0
-990.557541030527 -35.528697999222075 -510.4000828488909 130.0767212205114 0.0 0.0
-1026.5175099925361 -85.93850507924274 -553.4126597133371 125.55044017933682 0.0 0.0
-1029.4265699977932 -108.5060931746525 -566.0047663536016 121.34587374111746 0.0 0.0
-1007.9263151595558 -112.8836996911575 -557.267824786166 119.41774493145807 0.0 0.0
-970.0832242628089 -104.72287173886673 -534.0601723010518 120.5801785900967 0.0 0.0
-922.5897191240884 -90.64817188150795 -503.0905816038734 123.57045097110299 0.0 0.0
-871.1327858830967 -76.13918931902131 -469.9474513855067 126.91315414720569 0.0 0.0
-818.9686184858414 -65.3262720036873 -438.3016932356176 129.672927795416 0.0 0.0
-765.7011675711119 -60.44760152843125 -408.5260560719165 131.36189167350116 0.0 0.0
-709.7860406046865 -58.40823337740059 -374.6220129363271 133.78719310422926 0.0 0.0
-631.8745040636732 -55.50709017735902 -316.0116148724187 136.1092288974261 0.0 0.0
-519.6135305266467 -34.8184572386076 -219.01516687440017 141.63007549846895 0.0 0.0
-383.91872919145186 1.3197237051700519 -124.84029401047897 153.67508807185322 0.0 0.0
-266.56330975782424 19.170965578131792 -74.44568909152328 162.97631771701356 0.0 0.0
-188.46377207503932 14.142919357580947 -52.269507785187145 166.7415915920355 0.0 0.0
-123.03748992537369 -4.877754417028221 -38.35285665995483 165.83694780398156 0.0 0.0
-61.51411904758897 -69.07030487884283 -39.175531429005765 133.59414377793826 0.0 0.0
-64.31085562595914 -191.43454563812492 -76.7236203792252 85.1343384987839 0.0 0.0
-53.281520113286746 -127.8220846027985 -54.331081414825576 -70.43891094307627 0.0 0.0
-72.36654295010901 -60.57983161681676 -39.88391237007774 -115.51010244128123 0.0 0.0
-142.2950584107531 -4.419405579043802 -44.00716843655381 -148.8840958299535 0.0 0.0
-225.2411198816388 11.613202143727099 -63.944648337482235 -149.89256010530738 0.0 0.0
-326.5868320248485 12.819204375365214 -95.63816577279528 -139.76406359891297 0.0 0.0
-464.1112154535616 -12.89058504927098 -165.7855624173946 -124.71904096259622 0.0 0.0
-597.4490867164209 -50.22206398538825 -275.4169622563308 -115.05405563945568 0.0 0.0
-699.153564428642 -66.5075694981755 -365.61213055046517 -113.20473254219935 0.0 0.0
-768.2937199414292 -73.67225767801928 -415.9277760799664 -112.05761193248422 0.0 0.0
-827.5021651210708 -77.36351938442684 -449.59382730711627 -112.28809800307427 0.0 0.0
-882.3695114081088 -85.32243978422777 -481.27360848290033 -111.19758860267645 0.0 0.0
-937.4838032766622 -98.84283142013203 -515.6590193750962 -108.94171370224724 0.0 0.0
-992.5384823112006 -116.41900298554148 -552.0659366056893 -106.06567276505947 0.0 0.0
-1045.1261108074225 -134.7157827493909 -587.6183929780262 -103.25036944349492 0.0 0.0
-1089.7696121179806 -148.47165706369813 -616.9910774372022 -101.73556292610546 0.0 0.0
-1114.2479325168774 -146.0030777797036 -628.2363808512955 -102.86327666323716 0.0 0.0
-1104.7730985428789 -113.81908785999971 -607.6380622732219 -106.51978214787701 0.0 0.0
-1047.5857575773268 -40.807908420356796 -542.8385181171832 -110.15302470299275 0.0 0.0
-929.9813639057957 83.64607207514689 -422.33189753626334 -110.99508795998914 0.0 0.0
-738.2392812691271 267.7159324058344 -235.1118589839014 -109.89093844484934 0.0 0.0
-3250.4617788697133 -2305.9976653537515 -2765.076274535825 8.323297606693814e-11 0.0 0.0
-738.2392812690643 267.7159324057848 -235.11185898408496 109.89093844510126 0.0 0.0
-929.9813639061306 83.6460720746276 -422.3318975366555 110.9950879602944 0.0 0.0
-1047.5857575791385 -40.807908422239706 -542.8385181183213 110.15302470308296 0.0 0.0
-1104.77309854319 -113.81908786050528 -607.6380622735558 106.51978214800215 0.0 0.0
-1114.2479325166273 -146.00307777960975 -628.2363808511558 102.86327666323848 0.0 0.0
-1089.7696121181943 -148.47165706402205 -616.991077437278 101.73556292608504 0.0 0.0
-1045.126110806338 -134.71578274853087 -587.618392977204 103.250369443482 0.0 0.0
-992.5384823119368 -116.41900298651062 -552.065936606215 106.06567276506448 0.0 0.0
-937.4838032767472 -98.84283142048241 -515.6590193751398 108.94171370222443 0.0 0.0
-882.3695114084333 -85.32243978484028 -481.27360848313015 111.19758860274426 0.0 0.0
-827.5021651202625 -77.36351938393153 -449.5938273066783 112.28809800303254 0.0 0.0
-768.2937199411658 -73.67225767814317 -415.92777607973716 112.05761193260886 0.0 0.0
-699.1535644277607 -66.50756949745049 -365.6121305497792 113.2047325420378 0.0 0.0
-597.4490867160889 -50.222063985502245 -275.4169622559227 115.05405563937242 0.0 0.0
-464.11121545257276 -12.890585048563516 -165.78556241672055 124.71904096252916 0.0 0.0
-326.58683202473406 12.819204374838609 -95.63816577289984 139.76406359880926 0.0 0.0
-225.2411198815767 11.613202143503116 -63.94464833754181 149.89256010532569 0.0 0.0
-142.2950584106328 -4.419405578838153 -44.00716843645455 148.88409582966534 0.0 0.0
-72.36654295016868 -60.57983161685459 -39.883912370106984 115.51010244121204 0.0 0.0
-53.281520113274965 -127.82208460263281 -54.331081414772335 70.4389109430806 0.0 0.0
-45.814193939780665 -78.4687552766743 -37.284884764936486 -55.35963761105204 0.0 0.0
-80.73379393290736 -49.83268778720292 -39.16994451603309 -95.31517018652596 0.0 0.0
-160.33919881386387 -3.472860818816814 -49.144125388277736 -127.7477688867599 0.0 0.0
-260.7841391880322 7.436697023289712 -75.86991472965583 -127.99581002094878 0.0 0.0
-388.1769135904231 4.213940787654196 -119.23217821107328 -113.44661541620671 0.0 0.0
-530.8429572083581 -30.63189481688521 -209.76468460765776 -94.50487434383379 0.0 0.0
-659.2200525026074 -60.560598867464535 -323.0946882383476 -90.89721324930392 0.0 0.0
-748.7751326185683 -77.81258608800006 -403.22337314840195 -90.18693084671463 0.0 0.0
-819.9458296336976 -86.70355813271685 -450.2732777928844 -91.2809774077939 0.0 0.0
-880.7048725822531 -94.34888354783507 -485.6221150595437 -92.21511531061013 0.0 0.0
-938.7820758162117 -105.52384856365191 -520.35335092915 -91.62852914703527 0.0 0.0
-996.8253535722474 -121.59593491538553 -557.4511097795595 -89.92923315611502 0.0 0.0
-1054.8023987990823 -141.52710365037726 -596.4643100633318 -87.6955666059382 0.0 0.0
-1111.0913951634768 -163.61678300188092 -635.7113145630653 -85.26448861334154 0.0 0.0
-1161.1376852806745 -181.64330171136731 -669.8744366762671 -83.33692907427046 0.0 0.0
-1190.4378443197859 -182.24247276650433 -685.0758727427753 -83.25774742969286 0.0 0.0
-1175.7768528628917 -143.83707767521275 -658.8741628283154 -85.67611000556789 0.0 0.0
-1098.7407442217404 -49.545234880640265 -573.5327879290629 -89.08879035563193 0.0 0.0
-957.0463019201135 99.59658172379372 -428.45103589853613 -91.66390064013449 0.0 0.0
-755.674650793983 292.73700485806916 -231.47974780612896 -94.44487284225343 0.0 0.0
-3503.2606881392144 -2504.864708141574 -2993.448012598642 -4.335021230872371e-11 0.0 0.0
-755.6746507927999 292.7370048591679 -231.47974780534292 94.44487284235541 0.0 0.0
-957.0463019194835 99.59658172427396 -428.4510358981546 91.66390064037074 0.0 0.0
-1098.7407442215374 -49.545234880541756 -573.5327879288416 89.08879035583577 0.0 0.0
-1175.776852863867 -143.83707767631617 -658.8741628291006 85.67611000558978 0.0 0.0
-1190.4378443176136 -182.2424727644352 -685.075872741091 83.25774742956355 0.0 0.0
-1161.1376852810831 -181.64330171203005 -669.8744366766109 83.33692907444001 0.0 0.0
-1111.0913951627394 -163.6167830013337 -635.7113145624396 85.26448861345025 0.0 0.0
-1054.802398799999 -141.52710365141854 -596.4643100639472 87.69556660575665 0.0 0.0
-996.8253535716794 -121.59593491504944 -557.451109779245 89.92923315598684 0.0 0.0
-938.7820758164555 -105.52384856422859 -520.353350929321 91.62852914717378 0.0 0.0
-880.7048725819303 -94.34888354778776 -485.6221150594112 92.2151153105915 0.0 0.0
-819.9458296336223 -86.70355813295559 -450.27327779281666 91.28097740774358 0.0 0.0
-748.7751326192633 -77.81258608907409 -403.22337314876376 90.18693084674526 0.0 0.0
-659.2200525015877 -60.56059886676637 -323.0946882375089 90.8972132492292 0.0 0.0
-530.8429572073967 -30.63189481624821 -209.76468460695497 94.50487434378576 0.0 0.0
-388.17691359013725 4.213940787412909 -119.23217821101959 113.44661541617613 0.0 0.0
-260.78413918767933 7.436697023479392 -75.86991472950396 127.99581002079529 0.0 0.0
-160.33919881380612 -3.472860818953918 -49.14412538830147 127.74776888657101 0.0 0.0
-80.73379393291495 -49.832687787275965 -39.16994451605727 95.3151701865468 0.0 0.0
-45.81419393972232 -78.46875527662168 -37.2848847649032 55.35963761099444 0.0 0.0
-41.27413082844279 -43.07646799128687 -25.305179645918894 -40.35727041509622 0.0 0.0
-86.64121286859249 -38.11506598872735 -37.426883657195944 -73.24581720577774 0.0 0.0
-177.14790021441584 -2.1556736046671707 -53.79129262342915 -102.2627994710498 0.0 0.0
-297.0990921803051 1.9451239290287257 -88.3651441245725 -101.40410484252511 0.0 0.0
-446.7749469579985 -8.59878635358404 -146.4945078016898 -82.92346270217004 0.0 0.0
-591.0587549837288 -43.87180541516692 -252.58768173295164 -68.9986066885781 0.0 0.0
-704.6394214294902 -69.74535609380386 -361.6813809786969 -67.98935683401332 0.0 0.0
-790.9552028318852 -87.0160622667957 -432.81653404908445 -68.12200560729468 0.0 0.0
-864.0803039964053 -100.01168226750768 -480.1092269049583 -69.98382208065621 0.0 0.0
-928.3961647111537 -111.5210743908381 -518.6268892169162 -71.26523544290342 0.0 0.0
-989.645868046853 -125.883403859357 -556.4944549768068 -71.09800242091215 0.0 0.0
-1050.846767483049 -144.64463267163802 -596.4982912541336 -69.95200014648027 0.0 0.0
-1111.3083597972086 -167.07853427489383 -637.9931490361588 -68.36065704176255 0.0 0.0
-1169.368686666108 -189.67426795326776 -678.3522355572446 -66.58837185795528 0.0 0.0
-1221.5879944225358 -209.73682109109882 -714.5644668987461 -64.54164716458234 0.0 0.0
-1256.902267697627 -215.82160844492932 -735.4754061313901 -62.96485288537113 0.0 0.0
-1247.1561761033277 -180.69172759346458 -713.3997467277577 -63.61786997015208 0.0 0.0
-1157.0450962124974 -72.10243450829063 -614.4074956300533 -67.27279070791009 0.0 0.0
-986.3056775727375 106.68251494096575 -439.88593134697584 -72.82350660633873 0.0 0.0
-759.0093107032167 326.0621114369725 -216.5979058410226 -80.55779992078858 0.0 0.0
-3713.1132579001332 -2670.2465443451674 -3183.0277264487277 -3.0517810500896303e-12 0.0 0.0
-759.0093107017461 326.0621114384689 -216.5979058399417 80.55779992072635 0.0 0.0
-986.3056775725863 106.68251494102536 -439.88593134698453 72.82350660639476 0.0 0.0
-1157.0450962131135 -72.10243450896849 -614.4074956306039 67.27279070799989 0.0 0.0
-1247.1561761039804 -180.69172759422523 -713.3997467283092 63.617869970010645 0.0 0.0
-1256.9022676952152 -215.8216084426326 -735.4754061296478 62.9648528853281 0.0 0.0
-1221.5879944221688 -209.73682109084643 -714.5644668984595 64.54164716450784 0.0 0.0
-1169.3686866657679 -189.67426795315757 -678.3522355569421 66.58837185802456 0.0 0.0
-1111.3083597976613 -167.07853427552973 -637.9931490365234 68.36065704155021 0.0 0.0
-1050.8467674817355 -144.64463267052565 -596.4982912532881 69.95200014644665 0.0 0.0
-989.6458680469457 -125.88340385972296 -556.4944549769168 71.09800242086419 0.0 0.0
-928.3961647111809 -111.52107439116551 -518.626889216908 71.26523544292188 0.0 0.0
-864.0803039963423 -100.01168226770005 -480.10922690494033 69.98382208049723 0.0 0.0
-790.9552028318416 -87.01606226711863 -432.8165340489883 68.12200560725628 0.0 0.0
-704.6394214283237 -69.74535609297496 -361.6813809778171 67.98935683409248 0.0 0.0
-591.0587549829371 -43.87180541470239 -252.5876817322959 68.99860668853387 0.0 0.0
-446.77494695753614 -8.598786353536235 -146.49450780144724 82.92346270219096 0.0 0.0
-297.0990921797332 1.9451239295214542 -88.36514412427664 101.40410484237144 0.0 0.0
-177.14790021432523 -2.1556736048883933 -53.791292623468095 102.26279947104018 0.0 0.0
-86.6412128684595 -38.11506598868238 -37.426883657142554 73.24581720575674 0.0 0.0
-41.274130828303434 -43.07646799123754 -25.30517964586229 40.357270415100054 0.0 0.0
-38.412006699118315 -21.243048728641398 -17.896516628327905 -26.240466720438103 0.0 0.0
-89.41421483101757 -26.71987886983641 -34.84022811025619 -49.615777433578096 0.0 0.0
-192.42259582469006 -1.034550848412668 -58.03714400193081 -71.80902054304322 0.0 0.0
-335.71751079035744 -4.4550776546995925 -101.88737416358141 -69.49439283286742 0.0 0.0
-500.61943674751024 -24.279278135401373 -177.57836210513182 -51.94365875937093 0.0 0.0
-638.6805591490913 -53.67917103011174 -291.7417405737037 -45.78753900754519 0.0 0.0
-738.8505773068183 -77.0770403172761 -391.0294519914368 -45.610271232027614 0.0 0.0
-827.3435594602354 -96.79873835196071 -458.23412180460014 -46.474791014091096 0.0 0.0
-903.487804107861 -113.97092438438067 -507.3991787433629 -48.161577859145495 0.0 0.0
-971.3977327671771 -129.0649918848615 -549.2843803999311 -49.45642659988928 0.0 0.0
-1036.192316733397 -146.45924868050406 -590.434969218483 -49.6620692572233 0.0 0.0
-1100.2085993835071 -167.8425105318552 -633.1546280338457 -49.0556323528997 0.0 0.0
-1163.218097282976 -191.59967208044014 -676.5715163484456 -48.16327362114043 0.0 0.0
-1221.9536926223077 -215.1602278425549 -717.7605943250328 -47.00080678780167 0.0 0.0
-1272.7342844416696 -233.2452349975893 -752.2533475801895 -45.29705345220424 0.0 0.0
-1308.4697729346035 -239.23861403240608 -773.2235448142443 -42.97915040768965 0.0 0.0
-1313.8309583235985 -218.62179869697718 -765.8264313422841 -41.50863419385571 0.0 0.0
-1245.6329664892316 -130.5655964777239 -688.1191146345908 -44.18197772279414 0.0 0.0
-1035.3939661515124 89.32355239572094 -473.3998475426487 -53.07284038659984 0.0 0.0
-733.1108821088723 384.9939063866658 -174.3491550265359 -67.04980647861535 0.0 0.0
-3866.2711374556684 -2784.4917832043925 -3318.3472618909104 2.192077630525091e-10 0.0 0.0
-733.1108821095323 384.99390638600084 -174.3491550268874 67.04980647876509 0.0 0.0
-1035.3939661536704 89.32355239347 -473.39984754444583 53.072840386570974 0.0 0.0
-1245.6329664899308 -130.5655964785344 -688.1191146350666 44.181977722923584 0.0 0.0
-1313.830958323788 -218.6217986973054 -765.8264313425304 41.50863419397364 0.0 0.0
-1308.4697729350937 -239.23861403301075 -773.2235448146691 42.97915040764009 0.0 0.0
-1272.734284442159 -233.24523499825446 -752.2533475805094 45.297053452104024 0.0 0.0
-1221.9536926214814 -215.16022784192572 -717.7605943243891 47.00080678791996 0.0 0.0
-1163.2180972828803 -191.59967208052942 -676.5715163484273 48.163273621003015 0.0 0.0
-1100.208599381406 -167.84251052997575 -633.1546280324586 49.055632352757584 0.0 0.0
-1036.192316733929 -146.45924868127886 -590.4349692188978 49.66206925716334 0.0 0.0
-971.3977327665843 -129.06499188458884 -549.284380399468 49.456426599939455 0.0 0.0
-903.4878041075199 -113.9709243843625 -507.3991787431458 48.1615778591916 0.0 0.0
-827.3435594594696 -96.7987383514841 -458.23412180407786 46.47479101403315 0.0 0.0
-738.8505773058984 -77.07704031665459 -391.0294519907083 45.61027123198439 0.0 0.0
-638.6805591487081 -53.6791710300987 -291.7417405732508 45.787539007461476 0.0 0.0
-500.6194367470576 -24.27927813544359 -177.5783621048566 51.94365875940983 0.0 0.0
-335.71751078984653 -4.455077654332689 -101.88737416333612 69.49439283284836 0.0 0.0
-192.4225958246391 -1.034550848655431 -58.03714400198835 71.80902054294458 0.0 0.0
-89.41421483084926 -26.719878869641324 -34.84022811014719 49.615777433489235 0.0 0.0
-38.41200669905015 -21.24304872865563 -17.896516628311733 26.240466720494673 0.0 0.0
-34.827813510830346 -11.890269286665562 -14.015424839248771 -14.712772575084172 0.0 0.0
-87.54103795410224 -17.42890301095653 -31.49098228951763 -24.866720610932248 0.0 0.0
-205.85464493155322 -1.2593509274412145 -62.13419875769831 -34.85488166740503 0.0 0.0
-375.7760400844915 -10.972480515103056 -116.96786085907925 -32.14506380963753 0.0 0.0
-551.2748013812414 -37.427755553867 -210.2833423197512 -23.790922594759788 0.0 0.0
-673.5997213236627 -60.77800354128845 -324.8285056231833 -24.168873651490877 0.0 0.0
-769.0749486609491 -82.54201164249037 -414.30274894138455 -24.67745206976966 0.0 0.0
-858.9572261443539 -107.04510472290528 -480.4795710608681 -25.0293946968181 0.0 0.0
-938.761416305575 -128.20045092576885 -532.4935325211477 -25.88755539789624 0.0 0.0
-1010.6275468034065 -147.25652661185237 -578.2796596889436 -26.830203033420812 0.0 0.0
-1078.6476444367688 -167.37004315847753 -622.4098172537795 -27.303754102281374 0.0 0.0
-1145.5435293647183 -190.4929806727107 -667.4348989409027 -27.311574763894473 0.0 0.0
-1210.592041976298 -216.37520218287696 -712.9301570769226 -26.995320672596 0.0 0.0
-1270.2685690564228 -239.7725383430068 -754.5116702471039 -26.442026854404215 0.0 0.0
-1317.7658381828674 -254.24339622277336 -785.566428852192 -25.41091023022809 0.0 0.0
-1347.2554828459672 -254.0300010277856 -800.2787827147965 -23.497603329015135 0.0 0.0
-1357.0857767085474 -237.99072631144202 -797.1977806955191 -21.035326866194442 0.0 0.0
-1341.2751316171498 -201.4261667217046 -771.1476188712605 -20.922994101714078 0.0 0.0
-1206.2443222714605 -53.90770377547514 -630.4755136098356 -29.527955865796603 0.0 0.0
-701.2973587820921 448.0070991924692 -127.32950965457275 -51.10127359067208 0.0 0.0
-3798.1519053732886 -2679.768438355299 -3233.5603188444024 1.6013679271509318e-10 0.0 0.0
-701.2973587837321 448.0070991907882 -127.32950965560144 51.101273590849516 0.0 0.0
-1206.2443222720958 -53.90770377617524 -630.4755136102507 29.527955865668005 0.0 0.0
-1341.2751316173917 -201.42616672204926 -771.1476188714526 20.92299410177786 0.0 0.0
-1357.0857767096688 -237.9907263126846 -797.1977806963159 21.03532686619433 0.0 0.0
-1347.255482846813 -254.030001028778 -800.2787827152797 23.49760332890938 0.0 0.0
-1317.7658381835167 -254.24339622358013 -785.5664288526532 25.410910230025515 0.0 0.0
-1270.2685690554633 -239.77253834227307 -754.5116702464138 26.442026854447413 0.0 0.0
-1210.5920419772215 -216.37520218404563 -712.9301570775798 26.995320672681473 0.0 0.0
-1145.543529362884 -190.49298067110678 -667.4348989397885 27.31157476394371 0.0 0.0
-1078.6476444370085 -167.37004315901675 -622.4098172539609 27.303754102381475 0.0 0.0
-1010.6275468028489 -147.25652661159017 -578.2796596885474 26.830203033479442 0.0 0.0
-938.7614163051264 -128.20045092562668 -532.4935325208628 25.887555398011678 0.0 0.0
-858.9572261448437 -107.04510472377049 -480.47957106111903 25.02939469690582 0.0 0.0
-769.0749486602627 -82.54201164206867 -414.30274894083743 24.677452069637127 0.0 0.0
-673.5997213231717 -60.778003541164516 -324.8285056226777 24.168873651380167 0.0 0.0
-551.2748013805833 -37.42775555362031 -210.28334231927784 23.790922594810695 0.0 0.0
-375.7760400841569 -10.972480515381129 -116.96786085904509 32.14506380965655 0.0 0.0
-205.85464493136195 -1.2593509274877541 -62.13419875765488 34.85488166733041 0.0 0.0
-87.5410379540243 -17.428903010984232 -31.490982289502544 24.866720610919277 0.0 0.0
-34.82781351076117 -11.890269286587609 -14.015424839204629 14.712772574976583 0.0 0.0
-23.293125561975422 -6.203984533205065 -8.849133028554148 -8.903284575151806 0.0 0.0
-76.85212424667657 -10.009784629230642 -26.058572662772157 -10.338884919316799 0.0 0.0
-217.09510487074408 -4.038938069748138 -66.34021288214765 -11.28983340640642 0.0 0.0
-424.3197395393953 -32.70053671253862 -141.29820887333656 -6.557595191157399 0.0 0.0
-628.3524759339285 -91.44503848168915 -267.39408334180894 1.1319963492080234 0.0 0.0
-780.7099486481467 -149.86690081654768 -416.4939997593266 1.4228570386931274 0.0 0.0
-920.4265385733431 -218.61856553713412 -548.3231959938303 0.2077708294483216 0.0 0.0
-1068.7998444014597 -303.0863041544246 -672.9018655902396 -1.402783701065168 0.0 0.0
-1226.8787146547425 -403.1875152385802 -803.6521450487335 -3.27910221309223 0.0 0.0
-1403.963710347759 -527.111903549151 -954.2478203867685 -5.294151127784405 0.0 0.0
-1606.3445834813615 -680.8958244006187 -1131.9559542856668 -7.121417870888699 0.0 0.0
-1833.6823995190373 -864.4542552083013 -1336.9545907062789 -8.497372972328995 0.0 0.0
-2078.496447854405 -1069.091830372824 -1561.2696317764878 -9.40852447480285 0.0 0.0
-2328.5467335735984 -1282.4020846165988 -1792.6458245128779 -10.080400907430153 0.0 0.0
-2565.443436394604 -1485.9270749680568 -2012.6709668774636 -10.286788110988144 0.0 0.0
-2764.742193951179 -1655.4512007724716 -2197.0177393437434 -9.724861984862503 0.0 0.0
-2900.1977391111636 -1765.3347075838185 -2319.63190489983 -8.165342132697276 0.0 0.0
-2968.1681404869337 -1812.660081786615 -2376.7665250154173 -7.275861266462261 0.0 0.0
-3059.7763848213967 -1890.0145821743845 -2459.770386394024 -15.169131806911253 0.0 0.0
-3188.7277312312726 -2017.6405682503776 -2585.929056007126 -41.22737633905396 0.0 0.0
-6825.835656121523 -5679.426658697473 -6229.21169350285 9.973177839128766e-11 0.0 0.0
-3188.727731233027 -2017.640568252188 -2585.9290560081163 41.22737633917029 0.0 0.0
-3059.7763848192512 -1890.0145821723158 -2459.7703863920356 15.169131806883179 0.0 0.0
-2968.1681404870515 -1812.6600817868166 -2376.76652501545 7.275861266603371 0.0 0.0
-2900.197739112091 -1765.3347075849072 -2319.6319049000476 8.165342132683179 0.0 0.0
-2764.7421939491533 -1655.4512007705962 -2197.0177393417325 9.7248619848415 0.0 0.0
-2565.443436394222 -1485.9270749678494 -2012.6709668768347 10.286788110787771 0.0 0.0
-2328.546733570289 -1282.4020846134742 -1792.6458245103618 10.080400907537367 0.0 0.0
-2078.4964478544757 -1069.0918303731605 -1561.2696317762088 9.408524474825679 0.0 0.0
-1833.6823995171544 -864.4542552066447 -1336.9545907048282 8.497372972496528 0.0 0.0
-1606.344583480467 -680.8958244000189 -1131.9559542848267 7.121417871050355 0.0 0.0
-1403.9637103465786 -527.1119035482495 -954.2478203857848 5.294151127706801 0.0 0.0
-1226.8787146541488 -403.18751523832344 -803.6521450481576 3.2791022132534238 0.0 0.0
-1068.7998444013333 -303.08630415463824 -672.9018655899847 1.4027837012020825 0.0 0.0
-920.4265385727947 -218.61856553691848 -548.3231959932549 -0.20777082946517922 0.0 0.0
-780.7099486473429 -149.8669008160738 -416.4939997585702 -1.4228570387550477 0.0 0.0
-628.352475933357 -91.44503848147346 -267.3940833412991 -1.1319963491065366 0.0 0.0
-424.3197395391702 -32.70053671286916 -141.29820887329578 6.557595191254116 0.0 0.0
-217.09510487041456 -4.038938069525312 -66.34021288198193 11.289833406405275 0.0 0.0
-76.85212424678016 -10.009784629588845 -26.058572662910713 10.338884919368684 0.0 0.0
-23.29312556195297 -6.203984533043668 -8.84913302849899 8.90328457491078 0.0 0.0
SCALARS Strain float 6
LOOKUP_TABLE default
0.015938545765172243 -0.026154966003074785 0.0 -0.0017868376630862863 0.0 0.0
0.009818590448773763 -0.003220690634979247 0.0 -0.007846489590908622 0.0 0.0
0.0028715711658055896 -0.000648150897723519 0.0 -0.0010151923030137773 0.0 0.0
0.0024000095568078705 -0.0009508630159505167 0.0 3.7642155709398415e-05 0.0 0.0
0.0037557081810006207 -0.001718848351013815 0.0 0.0002668667190773622 0.0 0.0
0.0067357298280505944 -0.0040300962897325794 0.0 0.0004614252571945107 0.0 0.0
0.011919422305052222 -0.008540289377755802 0.0 0.000601208173886035 0.0 0.0
0.01977359529305519 -0.015686018340970328 0.0 0.0006412645547031681 0.0 0.0
0.030645844960167146 -0.025777351102585166 0.0 0.0005711253571602033 0.0 0.0
0.044640628962725026 -0.03886200861830696 0.0 0.00034923262725012206 0.0 0.0
0.06161423755098355 -0.0547605263453418 0.0 7.582242403497133e-06 0.0 0.0
0.08127464524783568 -0.07318237288578405 0.0 -0.0004297102790268893 0.0 0.0
0.10326905009716517 -0.0938154252497124 0.0 -0.0009638966385485497 0.0 0.0
0.12721542300865585 -0.1163269592433997 0.0 -0.0015510797408597532 0.0 0.0
0.15262583148212325 -0.14029131597239003 0.0 -0.0022038398909834307 0.0 0.0
0.17876825560814624 -0.1650489104658091 0.0 -0.002875829827851417 0.0 0.0
0.20458607931617728 -0.18961861954315845 0.0 -0.003422775897500228 0.0 0.0
0.22871508569742943 -0.21270840882880038 0.0 -0.003643851892733709 0.0 0.0
0.24961319230259515 -0.23277419494450152 0.0 -0.0034326122909858836 0.0 0.0
0.265330254214547 -0.24795685513321142 0.0 -0.004317781492220299 0.0 0.0
0.2716040152447326 -0.2542786866888218 0.0 1.9272777818102327e-15 0.0 0.0
0.2653302542145101 -0.24795685513316507 0.0 0.004317781492232203 0.0 0.0
0.24961319230251833 -0.2327741949444181 0.0 0.003432612290998187 0.0 0.0
0.22871508569732174 -0.2127084088286902 0.0 0.0036438518927417313 0.0 0.0
0.20458607931605433 -0.18961861954305026 0.0 0.0034227758974980007 0.0 0.0
0.17876825560801407 -0.16504891046568249 0.0 0.0028758298278395277 0.0 0.0
0.152625831481988 -0.1402913159722685 0.0 0.0022038398909849776 0.0 0.0
0.12721542300852248 -0.11632695924327222 0.0 0.0015510797408594098 0.0 0.0
0.10326905009703524 -0.09381542524959553 0.0 0.0009638966385415362 0.0 0.0
0.08127464524771612 -0.07318237288566848 0.0 0.00042971027901997534 0.0 0.0
0.06161423755088101 -0.054760526345251984 0.0 -7.582242412222141e-06 0.0 0.0
0.04464062896264198 -0.03886200861822633 0.0 -0.00034923262725227995 0.0 0.0
0.03064584496010426 -0.025777351102530502 0.0 -0.0005711253571607787 0.0 0.0
0.019773595293010753 -0.015686018340926672 0.0 -0.0006412645547043786 0.0 0.0
0.01191942230502289 -0.008540289377731686 0.0 -0.0006012081738897822 0.0 0.0
0.006735729828034221 -0.00403009628972126 0.0 -0.0004614252571943161 0.0 0.0
0.003755708180994126 -0.0017188483510095038 0.0 -0.0002668667190744315 0.0 0.0
0.0024000095568062086 -0.0009508630159546548 0.0 -3.7642155709231875e-05 0.0 0.0
0.002871571165803753 -0.000648150897721694 0.0 0.0010151923030102294 0.0 0.0
0.009818590448767935 -0.0032206906349758198 0.0 0.00784648959089837 0.0 0.0
0.015938545765163698 -0.026154966003048983 0.0 0.0017868376630313517 0.0 0.0
0.011293848371007869 -0.02353711354083282 0.0 -0.0013263166060384329 0.0 0.0
0.006596319651210569 -0.002423733574207223 0.0 -0.006516442456140669 0.0 0.0
0.0018486474200367286 -0.00047676968159565344 0.0 -0.0006339514319345265 0.0 0.0
0.0020952385460799214 -0.0008903819166778796 0.0 -0.00018089111513281637 0.0 0.0
0.00320203577144057 -0.0015325569524946828 0.0 -0.0001435942144366518 0.0 0.0
0.0057435750861320675 -0.003610254143143506 0.0 -0.0002672120969290021 0.0 0.0
0.010361710330741306 -0.007820567911163647 0.0 -0.0006633748501830473 0.0 0.0
0.017490472622045877 -0.014596267580512263 0.0 -0.0013064888630758044 0.0 0.0
0.027406460156541267 -0.024206559201496353 0.0 -0.002220000403507351 0.0 0.0
0.04013712202754306 -0.036659933388426026 0.0 -0.0033677248115390724 0.0 0.0
0.05550708707139432 -0.051760851286150156 0.0 -0.004640498551638159 0.0 0.0
0.07324925672752723 -0.06922872165510599 0.0 -0.005944682909563386 0.0 0.0
0.09308252572129905 -0.08878317226549771 0.0 -0.007268494472133879 0.0 0.0
0.11468979847262924 -0.1101277431235991 0.0 -0.008606967919224606 0.0 0.0
0.1376441498218351 -0.13286561652807335 0.0 -0.009908001997254038 0.0 0.0
0.16131216071766288 -0.15638847386274454 0.0 -0.011034281948879385 0.0 0.0
0.18477475323576076 -0.17979088984541666 0.0 -0.011696072899000737 0.0 0.0
0.2068169223682635 -0.201853427874773 0.0 -0.011548758196134793 0.0 0.0
0.22585923753015538 -0.22104110284661685 0.0 -0.01052732123866263 0.0 0.0
0.2395098440087617 -0.23526582359942827 0.0 -0.009806704344636322 0.0 0.0
0.24461435796628686 -0.24123759295522557 0.0 9.776901510605285e-15 0.0 0.0
0.23950984400872735 -0.23526582359939258 0.0 0.009806704344666833 0.0 0.0
0.22585923753008635 -0.22104110284654202 0.0 0.010527321238692967 0.0 0.0
0.20681692236816934 -0.20185342787467353 0.0 0.011548758196150217 0.0 0.0
0.18477475323565226 -0.17979088984530892 0.0 0.011696072898999085 0.0 0.0
0.16131216071754456 -0.15638847386262447 0.0 0.01103428194886925 0.0 0.0
0.13764414982171344 -0.1328656165279555 0.0 0.009908001997251878 0.0 0.0
0.11468979847250824 -0.11012774312347919 0.0 0.008606967919219947 0.0 0.0
0.09308252572118207 -0.08878317226538245 0.0 0.007268494472126674 0.0 0.0
0.07324925672741985 -0.06922872165499791 0.0 0.005944682909554737 0.0 0.0
0.055507087071302176 -0.05176085128606117 0.0 0.004640498551625237 0.0 0.0
0.04013712202746744 -0.03665993338835294 0.0 0.0033677248115311746 0.0 0.0
0.027406460156483375 -0.02420655920143967 0.0 0.002220000403502221 0.0 0.0
0.01749047262200553 -0.01459626758046826 0.0 0.0013064888630697417 0.0 0.0
0.010361710330715194 -0.007820567911141474 0.0 0.0006633748501777649 0.0 0.0
0.005743575086118238 -0.0036102541431306447 0.0 0.0002672120969270897 0.0 0.0
0.003202035771435098 -0.0015325569524928496 0.0 0.00014359421443610853 0.0 0.0
0.0020952385460784395 -0.0008903819166796658 0.0 0.00018089111513381787 0.0 0.0
0.0018486474200364563 -0.0004767696815953542 0.0 0.0006339514319327865 0.0 0.0
0.006596319651203493 -0.0024237335742033324 0.0 0.00651644245612772 0.0 0.0
0.011293848370993708 -0.02353711354080608 0.0 0.0013263166059955477 0.0 0.0
0.008356522492631137 -0.01890310774845815 0.0 -0.0045781197030728155 0.0 0.0
0.004716688904566591 -0.0013674456378920394 0.0 -0.00670816321662102 0.0 0.0
0.0012691258403228118 -0.00023429322369436045 0.0 -0.0005514387929387935 0.0 0.0
0.0017597002371039657 -0.0007436990279534891 0.0 -0.0004777182129536556 0.0 0.0
0.002700548077730656 -0.0012069766974235358 0.0 -0.0005120515402290296 0.0 0.0
0.004805911345870035 -0.002817395732616233 0.0 -0.0007531650799689016 0.0 0.0
0.008824707487331626 -0.006405198866787741 0.0 -0.0015118743187070086 0.0 0.0
0.015185716398953053 -0.012420020043922723 0.0 -0.0027452499186887826 0.0 0.0
0.024091840395098096 -0.021041368430228795 0.0 -0.004472702304021119 0.0 0.0
0.0355176380212089 -0.032213998764299645 0.0 -0.006581489429583671 0.0 0.0
0.04926517415829349 -0.0457099322102597 0.0 -0.008870629498624218 0.0 0.0
0.06508549588765013 -0.061268969601557324 0.0 -0.011166672462095566 0.0 0.0
0.08274267845279858 -0.07866246081950529 0.0 -0.013430870426851226 0.0 0.0
0.10198857552045601 -0.09766020954539867 0.0 -0.01570063806108271 0.0 0.0
0.12247593382738328 -0.11793693597876648 0.0 -0.01790776296124142 0.0 0.0
0.14368058045151513 -0.1389913969404101 0.0 -0.019800095545744162 0.0 0.0
0.16483394710445712 -0.1600708085818605 0.0 -0.020926941412007013 0.0 0.0
0.18482556067572298 -0.18009259261357002 0.0 -0.02079922297568674 0.0 0.0
0.20203268225617943 -0.19752248685284027 0.0 -0.019252772293529393 0.0 0.0
0.2143615970928835 -0.21018519419814344 0.0 -0.016493086178320394 0.0 0.0
0.21902513138003168 -0.21583293526668543 0.0 1.8044593597110747e-14 0.0 0.0
0.21436159709285202 -0.21018519419811166 0.0 0.016493086178368192 0.0 0.0
0.20203268225611803 -0.19752248685277826 0.0 0.01925277229357846 0.0 0.0
0.1848255606756403 -0.18009259261348645 0.0 0.02079922297571759 0.0 0.0
0.16483394710436103 -0.16007080858176226 0.0 0.02092694141200785 0.0 0.0
0.1436805804514099 -0.13899139694029805 0.0 0.01980009554573581 0.0 0.0
0.12247593382727454 -0.1179369359786627 0.0 0.017907762961236803 0.0 0.0
0.10198857552034868 -0.09766020954529438 0.0 0.01570063806107594 0.0 0.0
0.08274267845269566 -0.0786624608194027 0.0 0.013430870426841834 0.0 0.0
0.0650854958875547 -0.061268969601460194 0.0 0.011166672462082063 0.0 0.0
0.04926517415821103 -0.04570993221017681 0.0 0.008870629498605277 0.0 0.0
0.03551763802114223 -0.032213998764234746 0.0 0.00658148942956701 0.0 0.0
0.024091840395046055 -0.02104136843017989 0.0 0.004472702304013514 0.0 0.0
0.015185716398916142 -0.012420020043880849 0.0 0.0027452499186784215 0.0 0.0
0.008824707487309241 -0.006405198866768817 0.0 0.0015118743187010372 0.0 0.0
0.004805911345858772 -0.0028173957326057117 0.0 0.0007531650799655228 0.0 0.0
0.002700548077726542 -0.0012069766974229057 0.0 0.0005120515402269102 0.0 0.0
0.0017597002371026235 -0.0007436990279537479 0.0 0.0004777182129544967 0.0 0.0
0.0012691258403225297 -0.00023429322369504307 0.0 0.0005514387929375219 0.0 0.0
0.004716688904559432 -0.0013674456378881634 0.0 0.006708163216605466 0.0 0.0
0.00835652249261618 -0.018903107748430924 0.0 0.004578119703044126 0.0 0.0
0.006365059799067981 -0.015292925233378708 0.0 -0.005025751335984112 0.0 0.0
0.00350887496083216 -0.0009805977929457797 0.0 -0.00613692324029871 0.0 0.0
0.0008966364383948008 -0.00012790369509157722 0.0 -0.0008276596457207735 0.0 0.0
0.0014408550750282516 -0.0005813501271676499 0.0 -0.0007846286990379069 0.0 0.0
0.0022468974406810033 -0.0009566696299850399 0.0 -0.0008513721763785492 0.0 0.0
0.003942358369654597 -0.0021375662748599846 0.0 -0.001151343966695735 0.0 0.0
0.007334429118791246 -0.00505944243775392 0.0 -0.0020861214654144034 0.0 0.0
0.012883894261039678 -0.01026279694218633 0.0 -0.003787226068324475 0.0 0.0
0.0207396574530743 -0.017850659710838237 0.0 -0.00612568627968323 0.0 0.0
0.03082808229089004 -0.02770758383419858 0.0 -0.00895264296456238 0.0 0.0
0.04293297788657513 -0.03958060771615736 0.0 -0.011994380883132406 0.0 0.0
0.05682192875020553 -0.053223881703127765 0.0 -0.01503889163877812 0.0 0.0
0.07229758564048056 -0.06844958365427795 0.0 -0.018035581811163482 0.0 0.0
0.08916441890950262 -0.0850840354236677 0.0 -0.021005488474040407 0.0 0.0
0.10716478646776367 -0.10288125834026987 0.0 -0.02387496899245484 0.0 0.0
0.1259001742801886 -0.12145788834567686 0.0 -0.026372289272619406 0.0 0.0
0.1447396334639044 -0.14021381158368879 0.0 -0.02798556480538803 0.0 0.0
0.16268831219496277 -0.15819983248246486 0.0 -0.028114446248812708 0.0 0.0
0.17828048690370243 -0.1739665957337311 0.0 -0.026156627926127052 0.0 0.0
0.18973578886503806 -0.18563451278015106 0.0 -0.021143231860878953 0.0 0.0
0.1941981344888746 -0.19146801266449898 0.0 2.6205600189843636e-14 0.0 0.0
0.18973578886500989 -0.1856345127801227 0.0 0.021143231860940574 0.0 0.0
0.17828048690364845 -0.173966595733685 0.0 0.026156627926184874 0.0 0.0
0.16268831219488952 -0.1581998324823888 0.0 0.028114446248847867 0.0 0.0
0.14473963346382016 -0.1402138115836041 0.0 0.02798556480539155 0.0 0.0
0.1259001742800969 -0.12145788834558824 0.0 0.026372289272607215 0.0 0.0
0.10716478646766779 -0.1028812583401788 0.0 0.02387496899244347 0.0 0.0
0.08916441890940864 -0.0850840354235722 0.0 0.02100548847403168 0.0 0.0
0.0722975856403906 -0.06844958365419294 0.0 0.018035581811152408 0.0 0.0
0.05682192875012152 -0.05322388170304701 0.0 0.015038891638757535 0.0 0.0
0.04293297788650271 -0.03958060771608644 0.0 0.011994380883111179 0.0 0.0
0.030828082290831428 -0.027707583834142534 0.0 0.008952642964539603 0.0 0.0
0.020739657453028595 -0.01785065971079791 0.0 0.0061256862796717874 0.0 0.0
0.012883894261007738 -0.010262796942155362 0.0 0.0037872260683145557 0.0 0.0
0.007334429118772497 -0.005059442437737755 0.0 0.002086121465406419 0.0 0.0
0.003942358369645918 -0.002137566274852558 0.0 0.0011513439666931133 0.0 0.0
0.002246897440678233 -0.000956669629981593 0.0 0.0008513721763787655 0.0 0.0
0.0014408550750278264 -0.0005813501271678953 0.0 0.0007846286990375312 0.0 0.0
0.000896636438394824 -0.0001279036950917819 0.0 0.0008276596457199798 0.0 0.0
0.0035088749608252097 -0.0009805977929422702 0.0 0.006136923240285663 0.0 0.0
0.006365059799053957 -0.015292925233353565 0.0 0.005025751335963452 0.0 0.0
0.004864289905029828 -0.01237369975512716 0.0 -0.004450833608663589 0.0 0.0
0.002644192590098831 -0.0007693801670121467 0.0 -0.005467318878181511 0.0 0.0
0.0006484599398091061 -8.071308940186585e-05 0.0 -0.0012304667711379846 0.0 0.0
0.0011594636875235428 -0.0004400307871830439 0.0 -0.0011208309446582093 0.0 0.0
0.0018393855714723896 -0.0007578974334253064 0.0 -0.0011831114497123285 0.0 0.0
0.00316790867578246 -0.001587335461393433 0.0 -0.0014817567255319452 0.0 0.0
0.005920713047870292 -0.0038324796368277847 0.0 -0.0024602672731164526 0.0 0.0
0.010614062340181729 -0.008156468518484008 0.0 -0.004395784933587884 0.0 0.0
0.017388815231622553 -0.014674612515333058 0.0 -0.00716918251128666 0.0 0.0
0.026111409973168267 -0.023187360797438133 0.0 -0.01047832609181264 0.0 0.0
0.036556535923381435 -0.033420223370736295 0.0 -0.014021699273547149 0.0 0.0
0.04850156209474257 -0.04513730328472683 0.0 -0.017566157538147796 0.0 0.0
0.06178535051140749 -0.05818757493164284 0.0 -0.02106176228712318 0.0 0.0
0.07627050483391119 -0.07245174562999655 0.0 -0.024517830345707946 0.0 0.0
0.09176987682065162 -0.0877570402802542 0.0 -0.027830338390168158 0.0 0.0
0.10799789958447112 -0.1038273302539862 0.0 -0.030736406750439496 0.0 0.0
0.12448225756474635 -0.12021382043253645 0.0 -0.03279037052541437 0.0 0.0
0.14041304482821262 -0.13614771678486753 0.0 -0.03330139386397669 0.0 0.0
0.1545631354778023 -0.15041651417439494 0.0 -0.03111621474738773 0.0 0.0
0.16541947904405155 -0.16143127991449546 0.0 -0.02463166463004464 0.0 0.0
0.16982570522172458 -0.1676805806841039 0.0 3.09951717070156e-14 0.0 0.0
0.16541947904402604 -0.16143127991447231 0.0 0.024631664630116512 0.0 0.0
0.1545631354777549 -0.15041651417435264 0.0 0.031116214747459507 0.0 0.0
0.14041304482814945 -0.13614771678481033 0.0 0.03330139386401751 0.0 0.0
0.12448225756467371 -0.12021382043246773 0.0 0.03279037052542329 0.0 0.0
0.10799789958439236 -0.10382733025392989 0.0 0.030736406750424543 0.0 0.0
0.09176987682056928 -0.08775704028017454 0.0 0.027830338390154717 0.0 0.0
0.07627050483383051 -0.07245174562990896 0.0 0.024517830345697156 0.0 0.0
0.06178535051133047 -0.058187574931572214 0.0 0.021061762287106035 0.0 0.0
0.04850156209467159 -0.04513730328466115 0.0 0.01756615753812298 0.0 0.0
0.03655653592331957 -0.03342022337067786 0.0 0.014021699273520448 0.0 0.0
0.026111409973117367 -0.023187360797389527 0.0 0.010478326091786536 0.0 0.0
0.017388815231583782 -0.014674612515294214 0.0 0.007169182511269681 0.0 0.0
0.010614062340154683 -0.008156468518461444 0.0 0.004395784933578119 0.0 0.0
0.005920713047854718 -0.003832479636813847 0.0 0.002460267273109371 0.0 0.0
0.0031679086757755263 -0.0015873354613869044 0.0 0.0014817567255276975 0.0 0.0
0.001839385571470354 -0.0007578974334215043 0.0 0.0011831114497127286 0.0 0.0
0.0011594636875233374 -0.0004400307871836628 0.0 0.0011208309446561512 0.0 0.0
0.0006484599398088202 -8.071308940211784e-05 0.0 0.001230466771136492 0.0 0.0
0.00264419259009316 -0.0007693801670089562 0.0 0.005467318878169167 0.0 0.0
0.00486428990501878 -0.012373699755105584 0.0 0.004450833608650025 0.0 0.0
0.0036755045169658534 -0.009928602578449758 0.0 -0.003671286018898506 0.0 0.0
0.001983939703244682 -0.0006199114103084466 0.0 -0.004812677338080324 0.0 0.0
0.00047324790629061904 -6.860427675082574e-05 0.0 -0.0016199286683808085 0.0 0.0
0.0009106801094975726 -0.0003177272070323835 0.0 -0.0014576155116885366 0.0 0.0
0.0014750148110116656 -0.0005976584921126891 0.0 -0.0015151620490790683 0.0 0.0
0.002482371799422697 -0.001158053536955251 0.0 -0.0017640254265745862 0.0 0.0
0.0046196898435890855 -0.0027689148345804906 0.0 -0.0027090123070095335 0.0 0.0
0.008422766350862696 -0.0061640427130176196 0.0 -0.004635437652192057 0.0 0.0
0.014069950008539753 -0.011553890781444 0.0 -0.007581617664643148 0.0 0.0
0.02140986459837984 -0.01869900160840033 0.0 -0.011152276792747573 0.0 0.0
0.030179395844100634 -0.027276253623110855 0.0 -0.014950144851214806 0.0 0.0
0.04017113624227206 -0.03705801067358646 0.0 -0.018748968022809093 0.0 0.0
0.051255887429260384 -0.04792542497234759 0.0 -0.02249737471706259 0.0 0.0
0.0633482246543048 -0.059812977322488 0.0 -0.026204304857006144 0.0 0.0
0.07633694829351337 -0.07261779728267968 0.0 -0.029758616138109546 0.0 0.0
0.09002598012251618 -0.08615070928630979 0.0 -0.032895450080732275 0.0 0.0
0.10408931320281416 -0.10009840237653508 0.0 -0.03525112743751538 0.0 0.0
0.1179779946966065 -0.11393682560988447 0.0 -0.03616276910506508 0.0 0.0
0.13077692393518567 -0.12679214454654586 0.0 -0.03417769539166608 0.0 0.0
0.14121292681617467 -0.1373582686654201 0.0 -0.02715120450495477 0.0 0.0
0.1456635231209811 -0.14420414758422911 0.0 3.507437396077506e-14 0.0 0.0
0.1412129268161528 -0.13735826866540196 0.0 0.02715120450502677 0.0 0.0
0.13077692393514453 -0.12679214454650115 0.0 0.03417769539173479 0.0 0.0
0.11797799469655254 -0.11393682560983806 0.0 0.03616276910510717 0.0 0.0
0.10408931320275286 -0.10009840237648322 0.0 0.03525112743752307 0.0 0.0
0.09002598012244957 -0.086150709286247 0.0 0.03289545008072134 0.0 0.0
0.07633694829344517 -0.07261779728260719 0.0 0.029758616138098617 0.0 0.0
0.06334822465423808 -0.059812977322415264 0.0 0.02620430485699081 0.0 0.0
0.051255887429196914 -0.047925424972287634 0.0 0.02249737471704484 0.0 0.0
0.04017113624221333 -0.037058010673529186 0.0 0.018748968022782937 0.0 0.0
0.030179395844048718 -0.027276253623065225 0.0 0.014950144851185301 0.0 0.0
0.021409864598337394 -0.018699001608353694 0.0 0.011152276792722383 0.0 0.0
0.014069950008508117 -0.011553890781413183 0.0 0.0075816176646236 0.0 0.0
0.008422766350841007 -0.006164042712997376 0.0 0.004635437652179777 0.0 0.0
0.0046196898435764645 -0.002768914834569118 0.0 0.0027090123070031 0.0 0.0
0.002482371799417609 -0.0011580535369501658 0.0 0.0017640254265700235 0.0 0.0
0.001475014811010208 -0.000597658492109261 0.0 0.0015151620490774188 0.0 0.0
0.0009106801094971522 -0.00031772720703289686 0.0 0.0014576155116863643 0.0 0.0
0.0004732479062904396 -6.86042767504981e-05 0.0 0.0016199286683790252 0.0 0.0
0.0019839397032401906 -0.0006199114103066722 0.0 0.0048126773380706145 0.0 0.0
0.0036755045169571824 -0.009928602578431868 0.0 0.0036712860188876355 0.0 0.0
0.002721404173808701 -0.007855102336782844 0.0 -0.0029530555912014402 0.0 0.0
0.0014649683029698737 -0.0005017407986172477 0.0 -0.004217838505598543 0.0 0.0
0.0003391215486871621 -7.058955337036521e-05 0.0 -0.0019420554460600954 0.0 0.0
0.000683637803810607 -0.00020967772145462574 0.0 -0.0017667214358955017 0.0 0.0
0.0011431367696182505 -0.00045764650771192147 0.0 -0.001829341350672194 0.0 0.0
0.0018789950374011747 -0.0008331872556206492 0.0 -0.002035648866644378 0.0 0.0
0.00344330799460564 -0.0018890654865410706 0.0 -0.0028366731721185287 0.0 0.0
0.006363008096935561 -0.004359173384040885 0.0 -0.004616180661068376 0.0 0.0
0.010841901880623558 -0.008556505320312702 0.0 -0.007413348013862384 0.0 0.0
0.016762664417367748 -0.014292054077707464 0.0 -0.010954316747060067 0.0 0.0
0.02384664584360216 -0.021198228760280553 0.0 -0.01476491922035687 0.0 0.0
0.03187640230850458 -0.02903702972916003 0.0 -0.01857749511138182 0.0 0.0
0.04075596968201406 -0.03771822323721603 0.0 -0.022330621035796187 0.0 0.0
0.05045079197984876 -0.04722263658975199 0.0 -0.026045746175029288 0.0 0.0
0.0609131908828634 -0.057514828039408036 0.0 -0.02962486162875117 0.0 0.0
0.07202878996498835 -0.06848511780912674 0.0 -0.032814254203245685 0.0 0.0
0.08360839711234853 -0.07992739900452207 0.0 -0.03528352518538216 0.0 0.0
0.09537185130977173 -0.09157286302991152 0.0 -0.036559473507847 0.0 0.0
0.10679501205046014 -0.10297701450022599 0.0 -0.035227431012480256 0.0 0.0
0.11690240516600245 -0.11319059020748409 0.0 -0.028694284673658327 0.0 0.0
0.12147225707174139 -0.12079968574596733 0.0 3.389823144406279e-14 0.0 0.0
0.11690240516598349 -0.11319059020747715 0.0 0.028694284673731786 0.0 0.0
0.10679501205042594 -0.10297701450018204 0.0 0.03522743101255263 0.0 0.0
0.09537185130972718 -0.09157286302985823 0.0 0.03655947350789635 0.0 0.0
0.08360839711229887 -0.07992739900448809 0.0 0.035283525185392246 0.0 0.0
0.07202878996493416 -0.06848511780906259 0.0 0.03281425420323676 0.0 0.0
0.06091319088280736 -0.0575148280393462 0.0 0.029624861628736295 0.0 0.0
0.05045079197979557 -0.04722263658969692 0.0 0.026045746175014154 0.0 0.0
0.040755969681963766 -0.03771822323717146 0.0 0.022330621035777605 0.0 0.0
0.03187640230845745 -0.02903702972911224 0.0 0.018577495111351258 0.0 0.0
0.023846645843561547 -0.021198228760243912 0.0 0.014764919220327948 0.0 0.0
0.016762664417334303 -0.014292054077670393 0.0 0.01095431674703469 0.0 0.0
0.010841901880598448 -0.008556505320289856 0.0 0.007413348013845439 0.0 0.0
0.006363008096919038 -0.004359173384029485 0.0 0.00461618066105638 0.0 0.0
0.003443307994596775 -0.00188906548653345 0.0 0.002836673172114382 0.0 0.0
0.0018789950373979585 -0.0008331872556173105 0.0 0.0020356488666416718 0.0 0.0
0.0011431367696177275 -0.0004576465077093516 0.0 0.0018293413506704679 0.0 0.0
0.0006836378038107412 -0.00020967772145476943 0.0 0.0017667214358953218 0.0 0.0
0.00033912154868709035 -7.058955337052506e-05 0.0 0.0019420554460589795 0.0 0.0
0.0014649683029663363 -0.0005017407986164517 0.0 0.004217838505591162 0.0 0.0
0.002721404173801657 -0.007855102336767918 0.0 0.0029530555911944896 0.0 0.0
0.0019564734167473318 -0.006102475576936734 0.0 -0.0023848714730006306 0.0 0.0
0.0010513626558741784 -0.0004092151062740524 0.0 -0.003682838389592851 0.0 0.0
0.00022533244054745856 -7.076680027495952e-05 0.0 -0.0021855991713052077 0.0 0.0
0.0004682517457821663 -0.00011261676288291735 0.0 -0.0020299056744183318 0.0 0.0
0.0008287694018177222 -0.00032038968954419493 0.0 -0.0021022292729007096 0.0 0.0
0.0013501951575640998 -0.0005843185462583089 0.0 -0.002307846870409535 0.0 0.0
0.002401682147069434 -0.0012033763469651007 0.0 -0.002898841236914477 0.0 0.0
0.004465259147249426 -0.0027996171137186976 0.0 -0.0043600918830549095 0.0 0.0
0.00776993051298883 -0.005775608360076996 0.0 -0.006771501178918686 0.0 0.0
0.01223088643042377 -0.010042988904715819 0.0 -0.009927734603381538 0.0 0.0
0.017599902603852656 -0.015244916443514448 0.0 -0.01345107945921199 0.0 0.0
0.023663681382855222 -0.021132815077160066 0.0 -0.017019774206617815 0.0 0.0
0.0303377447140864 -0.027627808858067652 0.0 -0.020535133288838842 0.0 0.0
0.03762453710881215 -0.03474384694942754 0.0 -0.024011981261487285 0.0 0.0
0.0455458917623632 -0.042507087738721513 0.0 -0.027396828518679618 0.0 0.0
0.05406765213198188 -0.05089211749994195 0.0 -0.03046068630979433 0.0 0.0
0.06309475596121623 -0.059784146389029416 0.0 -0.03285647642420115 0.0 0.0
0.07259036971771761 -0.06909561251396046 0.0 -0.034301763174914186 0.0 0.0
0.08249211717096377 -0.07885711019609361 0.0 -0.03396164124032427 0.0 0.0
0.09225402864261177 -0.0886759535339733 0.0 -0.02908526882100087 0.0 0.0
0.0969837213951813 -0.09721258148927857 0.0 2.741470245259947e-14 0.0 0.0
0.09225402864259703 -0.08867595353395942 0.0 0.029085268821071653 0.0 0.0
0.08249211717093773 -0.07885711019606093 0.0 0.033961641240397675 0.0 0.0
0.07259036971768319 -0.0690956125139206 0.0 0.03430176317495674 0.0 0.0
0.06309475596117758 -0.05978414638900148 0.0 0.0328564764242068 0.0 0.0
0.05406765213193982 -0.05089211749990269 0.0 0.0304606863097793 0.0 0.0
0.04554589176232123 -0.04250708773868524 0.0 0.02739682851866465 0.0 0.0
0.03762453710877329 -0.03474384694939041 0.0 0.024011981261474927 0.0 0.0
0.030337744714049444 -0.0276278088580371 0.0 0.02053513328882027 0.0 0.0
0.02366368138282065 -0.021132815077123904 0.0 0.017019774206597473 0.0 0.0
0.017599902603822198 -0.015244916443484972 0.0 0.013451079459186263 0.0 0.0
0.012230886430399471 -0.010042988904692117 0.0 0.009927734603356343 0.0 0.0
0.0077699305129705475 -0.005775608360060544 0.0 0.006771501178902538 0.0 0.0
0.004465259147237663 -0.002799617113710131 0.0 0.00436009188304522 0.0 0.0
0.0024016821470639275 -0.0012033763469607218 0.0 0.0028988412369105247 0.0 0.0
0.0013501951575620127 -0.0005843185462570796 0.0 0.0023078468704057996 0.0 0.0
0.0008287694018171797 -0.0003203896895438212 0.0 0.002102229272899452 0.0 0.0
0.00046825174578213856 -0.00011261676288379755 0.0 0.0020299056744164834 0.0 0.0
0.0002253324405471616 -7.076680027511661e-05 0.0 0.002185599171303297 0.0 0.0
0.0010513626558714575 -0.0004092151062731641 0.0 0.003682838389586371 0.0 0.0
0.0019564734167427447 -0.006102475576924901 0.0 0.002384871472997418 0.0 0.0
0.0013655069304963092 -0.004656581172760105 0.0 -0.0019940999217971296 0.0 0.0
0.0007236390035830673 -0.0003440201454494195 0.0 -0.0032058244605244826 0.0 0.0
0.00011497398837082834 -5.732300130664908e-05 0.0 -0.002353872809567226 0.0 0.0
0.00025968602808151413 -2.3967713965202978e-05 0.0 -0.0022379880162564834 0.0 0.0
0.0005192777740187349 -0.00017852335261952677 0.0 -0.0023155010285658617 0.0 0.0
0.0008707957596401929 -0.00037240117053771813 0.0 -0.0025610560289475674 0.0 0.0
0.0014979460480175697 -0.000701604422101831 0.0 -0.0029813875697605368 0.0 0.0
0.002762371117924595 -0.0015473268860152448 0.0 -0.003948359237747491 0.0 0.0
0.00490568036006955 -0.0033212512401802055 0.0 -0.005730292662324386 0.0 0.0
0.007886912022998589 -0.006070386122057638 0.0 -0.00817985349050713 0.0 0.0
0.01150531061033926 -0.009515503374776203 0.0 -0.011058198226776233 0.0 0.0
0.015582075981893026 -0.013430029048923868 0.0 -0.014074830228464771 0.0 0.0
0.020047159442780668 -0.017733752922164094 0.0 -0.017114578017967966 0.0 0.0
0.024923270321011153 -0.022460991404824715 0.0 -0.020134352891442612 0.0 0.0
0.030280612874112933 -0.027675917965340205 0.0 -0.023096300317228462 0.0 0.0
0.036181975194064527 -0.033441630061240187 0.0 -0.025879848526512525 0.0 0.0
0.04263091248291462 -0.03976138091383741 0.0 -0.02815206330778418 0.0 0.0
0.04969413244813703 -0.04663528554358015 0.0 -0.029540387925106302 0.0 0.0
0.05775143704594696 -0.05439973892875767 0.0 -0.029934797276280192 0.0 0.0
0.06698020980151753 -0.06351504420464689 0.0 -0.02782737140095995 0.0 0.0
0.07185800717406113 -0.07311696135330865 0.0 2.4010307630994987e-14 0.0 0.0
0.06698020980150826 -0.06351504420464454 0.0 0.02782737140102385 0.0 0.0
0.057751437045929305 -0.054399738928745243 0.0 0.029934797276346833 0.0 0.0
0.04969413244811236 -0.04663528554356097 0.0 0.029540387925140056 0.0 0.0
0.042630912482886696 -0.03976138091380715 0.0 0.028152063307783026 0.0 0.0
0.03618197519403571 -0.03344163006121499 0.0 0.025879848526491965 0.0 0.0
0.03028061287408587 -0.02767591796531739 0.0 0.023096300317216194 0.0 0.0
0.02492327032098696 -0.02246099140480479 0.0 0.02013435289143294 0.0 0.0
0.02004715944275825 -0.017733752922148183 0.0 0.0171145780179544 0.0 0.0
0.015582075981871061 -0.01343002904890107 0.0 0.014074830228447018 0.0 0.0
0.011505310610318696 -0.009515503374757837 0.0 0.011058198226753656 0.0 0.0
0.007886912022982678 -0.00607038612204359 0.0 0.008179853490485844 0.0 0.0
0.004905680360058642 -0.0033212512401667575 0.0 0.0057302926623135075 0.0 0.0
0.002762371117917878 -0.0015473268860058866 0.0 0.003948359237741766 0.0 0.0
0.001497946048014515 -0.0007016044221000792 0.0 0.002981387569755727 0.0 0.0
0.0008707957596393188 -0.00037240117053659696 0.0 0.0025610560289448876 0.0 0.0
0.0005192777740184471 -0.0001785233526194321 0.0 0.0023155010285629907 0.0 0.0
0.00025968602808131713 -2.396771396539129e-05 0.0 0.0022379880162540435 0.0 0.0
0.0001149739883707806 -5.73230013061968e-05 0.0 0.0023538728095649736 0.0 0.0
0.000723639003581347 -0.0003440201454494033 0.0 0.0032058244605198748 0.0 0.0
0.0013655069304930362 -0.004656581172750965 0.0 0.0019940999217939984 0.0 0.0
0.0009333230249463523 -0.003496100708223107 0.0 -0.0017357529820496197 0.0 0.0
0.00046921251264663623 -0.00031104116730374634 0.0 -0.0028062821216059057 0.0 0.0
-8.199524335829631e-07 -2.3771395545268014e-05 0.0 -0.002455503556238096 0.0 0.0
5.5256561393101786e-05 5.893928101714621e-05 0.0 -0.0023865708202696324 0.0 0.0
0.00020857408264749816 -3.426887491084872e-05 0.0 -0.0024664876738335908 0.0 0.0
0.00041235463477367164 -0.00016478811820360573 0.0 -0.0027431893011016692 0.0 0.0
0.0007125594316867103 -0.00032267645682253264 0.0 -0.003110096221888159 0.0 0.0
0.0012789489574022434 -0.0006465731682450639 0.0 -0.003606415078954495 0.0 0.0
0.002302638730141368 -0.0013734639566055028 0.0 -0.004498016142795469 0.0 0.0
0.003798228071818733 -0.0026084714626209123 0.0 -0.005956755722514058 0.0 0.0
0.00563455879089025 -0.004235131808139778 0.0 -0.0079333005623656 0.0 0.0
0.007691132385739541 -0.006128963507091735 0.0 -0.010223770160524656 0.0 0.0
0.009927808253211394 -0.008224656451311417 0.0 -0.01265922377954873 0.0 0.0
0.012387556554133696 -0.01055502559724069 0.0 -0.015170172143180253 0.0 0.0
0.01516044956510314 -0.013199934360295955 0.0 -0.01773266340599069 0.0 0.0
0.018388500811935368 -0.016292193798166904 0.0 -0.02028683523552338 0.0 0.0
0.02223361276841701 -0.019994521246973762 0.0 -0.022583552143336058 0.0 0.0
0.026829090578853222 -0.02444474812346604 0.0 -0.024058830884647203 0.0 0.0
0.032624424047113895 -0.029923561360795346 0.0 -0.02438017322020979 0.0 0.0
0.04074820072124497 -0.03753024132961967 0.0 -0.024377226385413335 0.0 0.0
0.045576029121379015 -0.04806192982353692 0.0 1.7780915628762273e-14 0.0 0.0
0.04074820072124041 -0.03753024132962508 0.0 0.02437722638546752 0.0 0.0
0.03262442404710396 -0.029923561360791683 0.0 0.0243801732202655 0.0 0.0
0.026829090578838765 -0.02444474812344644 0.0 0.024058830884667468 0.0 0.0
0.02223361276840194 -0.01999452124696036 0.0 0.02258355214333089 0.0 0.0
0.0183885008119216 -0.016292193798152207 0.0 0.020286835235508754 0.0 0.0
0.015160449565091761 -0.01319993436028117 0.0 0.01773266340598191 0.0 0.0
0.01238755655412397 -0.01055502559723571 0.0 0.015170172143171533 0.0 0.0
0.009927808253202162 -0.008224656451310909 0.0 0.012659223779537293 0.0 0.0
0.007691132385729712 -0.006128963507079223 0.0 0.010223770160506917 0.0 0.0
0.005634558790880863 -0.00423513180813985 0.0 0.00793330056234876 0.0 0.0
0.0037982280718124747 -0.0026084714626143043 0.0 0.005956755722502068 0.0 0.0
0.002302638730136974 -0.0013734639566035918 0.0 0.004498016142789802 0.0 0.0
0.0012789489573991485 -0.0006465731682383424 0.0 0.0036064150789501545 0.0 0.0
0.0007125594316857129 -0.00032267645682432575 0.0 0.0031100962218849203 0.0 0.0
0.0004123546347734281 -0.00016478811820347294 0.0 0.0027431893010996735 0.0 0.0
0.0002085740826475347 -3.4268874911320046e-05 0.0 0.0024664876738309345 0.0 0.0
5.5256561392969086e-05 5.893928101766065e-05 0.0 0.002386570820268081 0.0 0.0
-8.199524337786108e-07 -2.377139554365256e-05 0.0 0.0024555035562357904 0.0 0.0
0.0004692125126453568 -0.0003110411673048379 0.0 0.0028062821216028318 0.0 0.0
0.0009333230249440051 -0.003496100708216415 0.0 0.001735752982047196 0.0 0.0
0.000626561561098018 -0.0026011757090269446 0.0 -0.0015797604773096848 0.0 0.0
0.0002716208366715116 -0.00030358984274533646 0.0 -0.002510229541701349 0.0 0.0
-0.00012245026773217695 2.6218254057644096e-05 0.0 -0.0024990037665356267 0.0 0.0
-0.0001460738836441428 0.00013888616330436857 0.0 -0.0024717517689590188 0.0 0.0
-9.913299790597594e-05 0.00010827914145324647 0.0 -0.002551059551427365 0.0 0.0
-4.749689794971233e-05 4.78678291910965e-05 0.0 -0.0028211369819334258 0.0 0.0
-1.912573058478145e-05 1.2754260625984736e-05 0.0 -0.003196124054532284 0.0 0.0
-7.822510776756334e-06 4.806748229920955e-06 0.0 -0.0034960547783571953 0.0 0.0
-2.80280901039751e-06 1.6873071802534146e-06 0.0 -0.0038628773181480225 0.0 0.0
-4.804255132348587e-07 1.8274843385069446e-07 0.0 -0.0047477933031438565 0.0 0.0
-3.26849331728368e-06 2.0304836616659807e-06 0.0 -0.0062353531242944895 0.0 0.0
-1.826022729275686e-05 1.703988357478484e-05 0.0 -0.008174260826632859 0.0 0.0
-4.245480991281209e-05 4.244677878459044e-05 0.0 -0.010314421931438791 0.0 0.0
-3.533266819470563e-05 4.6884202205776286e-05 0.0 -0.012594170518833912 0.0 0.0
0.00011500147343602258 -6.763162896910712e-05 0.0 -0.015016441098093039 0.0 0.0
0.0006256637668055165 -0.0004982497376518755 0.0 -0.017545824258075257 0.0 0.0
0.0018302540991316364 -0.0015509181014660587 0.0 -0.020066535148056182 0.0 0.0
0.004073930969984619 -0.0035784659717871736 0.0 -0.022307298785339567 0.0 0.0
0.007579068603365619 -0.0066712855966796665 0.0 -0.023981627263336174 0.0 0.0
0.013607662515684675 -0.011701035400679148 0.0 -0.025573457847448203 0.0 0.0
0.017550083255512595 -0.02280606525641617 0.0 1.3279308208602458e-14 0.0 0.0
0.013607662515684581 -0.011701035400679063 0.0 0.025573457847478637 0.0 0.0
0.00757906860336304 -0.006671285596683752 0.0 0.02398162726336018 0.0 0.0
0.00407393096998235 -0.0035784659717805756 0.0 0.022307298785342496 0.0 0.0
0.0018302540991319105 -0.0015509181014728944 0.0 0.02006653514804277 0.0 0.0
0.0006256637668073468 -0.0004982497376579749 0.0 0.017545824258058416 0.0 0.0
0.00011500147343927996 -6.763162897047235e-05 0.0 0.01501644109808024 0.0 0.0
-3.533266819023546e-05 4.688420220091375e-05 0.0 0.012594170518823871 0.0 0.0
-4.245480990784981e-05 4.244677877549669e-05 0.0 0.010314421931424594 0.0 0.0
-1.82602272885649e-05 1.7039883571660008e-05 0.0 0.008174260826616753 0.0 0.0
-3.268493314920824e-06 2.030483657447025e-06 0.0 0.006235353124281546 0.0 0.0
-4.804255113770783e-07 1.8274843250240774e-07 0.0 0.0047477933031394364 0.0 0.0
-2.8028090087203847e-06 1.687307174734175e-06 0.0 0.003862877318144807 0.0 0.0
-7.822510776108835e-06 4.806748231329408e-06 0.0 0.003496054778354727 0.0 0.0
-1.91257305843512e-05 1.2754260625973836e-05 0.0 0.003196124054526906 0.0 0.0
-4.749689794953329e-05 4.786782919047897e-05 0.0 0.002821136981929744 0.0 0.0
-9.913299790556063e-05 0.00010827914145497959 0.0 0.0025510595514243277 0.0 0.0
-0.00014607388364382696 0.0001388861633053623 0.0 0.0024717517689568907 0.0 0.0
-0.00012245026773224362 2.6218254059155253e-05 0.0 0.0024990037665342615 0.0 0.0
0.0002716208366709343 -0.00030358984274594827 0.0 0.0025102295416992567 0.0 0.0
0.000626561561097085 -0.0026011757090233017 0.0 0.0015797604773085928 0.0 0.0
0.0004130240914576528 -0.0019495258106461844 0.0 -0.0015051947234299987 0.0 0.0
0.0001222034336495685 -0.00029853772933591293 0.0 -0.002301994279350962 0.0 0.0
-0.00024163533879323405 8.081150271127094e-05 0.0 -0.002489543505473468 0.0 0.0
-0.0003432387739976189 0.00021738825669141454 0.0 -0.002491026584776647 0.0 0.0
-0.00040083115518409684 0.0002461331771375806 0.0 -0.002558628748840967 0.0 0.0
-0.0005041517753175714 0.0002600380744308347 0.0 -0.002796762501855218 0.0 0.0
-0.000750818185734807 0.00035014276943225734 0.0 -0.0031496316909580824 0.0 0.0
-0.0012943161974373414 0.0006575409533613836 0.0 -0.0036339882881107734 0.0 0.0
-0.0023065340987286713 0.0013760156483469518 0.0 -0.004509692452893043 0.0 0.0
-0.003798160737828628 0.0026081666561400415 0.0 -0.005957228221818426 0.0 0.0
-0.005643166668977484 0.004241521783670414 0.0 -0.007933588343801042 0.0 0.0
-0.00773049073750939 0.0061649049001469515 0.0 -0.010230060833542304 0.0 0.0
-0.010010615385856972 0.00830871707331084 0.0 -0.012653623549049508 0.0 0.0
-0.012447554085470026 0.010642403585208604 0.0 -0.015142870748464765 0.0 0.0
-0.0149128253470927 0.013048969528161373 0.0 -0.017721821850621995 0.0 0.0
-0.01713827164018935 0.015270797651903815 0.0 -0.020443005709715314 0.0 0.0
-0.01870686087985393 0.016896220306574533 0.0 -0.02333623882347304 0.0 0.0
-0.0191569694166535 0.017423944211007663 0.0 -0.026535264725514766 0.0 0.0
-0.0179749799514914 0.01653880772788005 0.0 -0.029981413458407675 0.0 0.0
-0.013063763028745436 0.012944457446865242 0.0 -0.031785096361317614 0.0 0.0
-0.009225915987030795 0.0011382959266858493 0.0 1.5829351718288365e-14 0.0 0.0
-0.01306376302874565 0.012944457446867477 0.0 0.031785096361351774 0.0 0.0
-0.017974979951484914 0.01653880772787327 0.0 0.029981413458432617 0.0 0.0
-0.019156969416639212 0.01742394421098945 0.0 0.026535264725519064 0.0 0.0
-0.018706860879836355 0.016896220306559122 0.0 0.023336238823460642 0.0 0.0
-0.0171382716401716 0.015270797651871858 0.0 0.020443005709699997 0.0 0.0
-0.01491282534707495 0.013048969528142471 0.0 0.01772182185060771 0.0 0.0
-0.012447554085451564 0.010642403585186925 0.0 0.01514287074845264 0.0 0.0
-0.010010615385837677 0.008308717073288794 0.0 0.012653623549032829 0.0 0.0
-0.007730490737491366 0.006164904900130802 0.0 0.010230060833522094 0.0 0.0
-0.00564316666896277 0.004241521783662168 0.0 0.007933588343778383 0.0 0.0
-0.0037981607378178303 0.0026081666561295026 0.0 0.005957228221808213 0.0 0.0
-0.002306534098721614 0.0013760156483384111 0.0 0.004509692452889125 0.0 0.0
-0.0012943161974334606 0.0006575409533553718 0.0 0.003633988288106061 0.0 0.0
-0.0007508181857329786 0.0003501427694351933 0.0 0.0031496316909536675 0.0 0.0
-0.0005041517753167313 0.0002600380744296185 0.0 0.002796762501851453 0.0 0.0
-0.0004008311551836301 0.00024613317713996643 0.0 0.0025586287488387283 0.0 0.0
-0.00034323877399742604 0.0002173882566924247 0.0 0.002491026584773638 0.0 0.0
-0.00024163533879335283 8.081150271058029e-05 0.0 0.0024895435054731684 0.0 0.0
0.0001222034336491712 -0.0002985377293360546 0.0 0.002301994279348666 0.0 0.0
0.0004130240914570801 -0.0019495258106436266 0.0 0.0015051947234298976 0.0 0.0
0.00027045320470187663 -0.0014658234800376756 0.0 -0.0014247775287103345 0.0 0.0
1.2996600702976892e-05 -0.0002790414254362336 0.0 -0.0021252846475519763 0.0 0.0
-0.00035297710829484063 0.0001310895637996304 0.0 -0.002429244716824284 0.0 0.0
-0.0005330156805522362 0.00029365965167166 0.0 -0.0024437738990681327 0.0 0.0
-0.0006937240183778553 0.00037685667239592443 0.0 -0.002487428895099201 0.0 0.0
-0.0009556354823770704 0.0004671069312222112 0.0 -0.002671531252970669 0.0 0.0
-0.0015349761317493612 0.0007343566117449056 0.0 -0.003059033655187606 0.0 0.0
-0.0027734536673082043 0.0015570845646519025 0.0 -0.003987985037180442 0.0 0.0
-0.00490522393374814 0.0033203020324687567 0.0 -0.005739041289277673 0.0 0.0
-0.007886368312792602 0.006069981052297352 0.0 -0.008178897628124853 0.0 0.0
-0.011515806710317296 0.009525628976467679 0.0 -0.011060043246013868 0.0 0.0
-0.015617936132463851 0.013464658892074568 0.0 -0.014064507949098488 0.0 0.0
-0.02011426512674363 0.017803960584720658 0.0 -0.017046337805853264 0.0 0.0
-0.024956689185027206 0.022521263998793853 0.0 -0.019989458501238136 0.0 0.0
-0.030010652390420764 0.02749732198711978 0.0 -0.02300872475783716 0.0 0.0
-0.03496308707593801 0.0324338580809305 0.0 -0.026312413448299137 0.0 0.0
-0.03932315256240104 0.036828396660078526 0.0 -0.03011663657818682 0.0 0.0
-0.04244326182300987 0.040024881472471824 0.0 -0.03451223826539453 0.0 0.0
-0.04313775811269233 0.04102396475334631 0.0 -0.03867678560151569 0.0 0.0
-0.038872235299905994 0.0374865253647966 0.0 -0.039887503799440005 0.0 0.0
-0.035070753132555484 0.023788651384635852 0.0 2.1479346079544825e-14 0.0 0.0
-0.0388722352999025 0.03748652536479591 0.0 0.03988750379949751 0.0 0.0
-0.0431377581126785 0.0410239647533288 0.0 0.0386767856015679 0.0 0.0
-0.042443261822984184 0.040024881472444075 0.0 0.034512238265414726 0.0 0.0
-0.039323152562369075 0.03682839666004926 0.0 0.030116636578175267 0.0 0.0
-0.034963087075904904 0.03243385808089271 0.0 0.026312413448276645 0.0 0.0
-0.030010652390388227 0.02749732198709417 0.0 0.023008724757815766 0.0 0.0
-0.024956689184995072 0.022521263998753992 0.0 0.019989458501221892 0.0 0.0
-0.02011426512671088 0.01780396058468754 0.0 0.017046337805834706 0.0 0.0
-0.015617936132432505 0.013464658892044755 0.0 0.014064507949070326 0.0 0.0
-0.011515806710290415 0.009525628976440298 0.0 0.011060043245984077 0.0 0.0
-0.007886368312771466 0.006069981052276844 0.0 0.00817889762810335 0.0 0.0
-0.00490522393373416 0.00332030203245331 0.0 0.005739041289267321 0.0 0.0
-0.002773453667300307 0.0015570845646446453 0.0 0.00398798503717268 0.0 0.0
-0.0015349761317454181 0.0007343566117460541 0.0 0.0030590336551841865 0.0 0.0
-0.0009556354823754207 0.00046710693122138257 0.0 0.002671531252967342 0.0 0.0
-0.0006937240183773349 0.00037685667239608695 0.0 0.0024874288950976703 0.0 0.0
-0.0005330156805519726 0.00029365965167184684 0.0 0.0024437738990666417 0.0 0.0
-0.00035297710829466125 0.00013108956379934196 0.0 0.0024292447168234115 0.0 0.0
1.2996600702875072e-05 -0.00027904142543638783 0.0 0.0021252846475503084 0.0 0.0
0.0002704532047018976 -0.0014658234800356091 0.0 0.0014247775287079874 0.0 0.0
0.00016666098690163765 -0.0010733102699405908 0.0 -0.0012845334793412841 0.0 0.0
-7.19834840323963e-05 -0.000243615510967471 0.0 -0.0019428195564228615 0.0 0.0
-0.00045512900378429793 0.0001758999797730266 0.0 -0.0023174067149588106 0.0 0.0
-0.0007136864472159941 0.0003655293400207731 0.0 -0.0023348038994689996 0.0 0.0
-0.000975997423114644 0.0004981267995620801 0.0 -0.002343180537840199 0.0 0.0
-0.0014244715659800064 0.0006788667307830457 0.0 -0.002468854990157082 0.0 0.0
-0.002432196255516821 0.0012380578515446307 0.0 -0.0029963969496467516 0.0 0.0
-0.004467965121385918 0.0028006251241702454 0.0 -0.00439037526352937 0.0 0.0
-0.007765477522663638 0.005770878922813953 0.0 -0.006771677285587219 0.0 0.0
-0.012232063118949971 0.010044831034118637 0.0 -0.009926976646272316 0.0 0.0
-0.01761078340036094 0.015257072493588958 0.0 -0.013453129837811408 0.0 0.0
-0.02368646782649853 0.021156772036433312 0.0 -0.01699004603583496 0.0 0.0
-0.030367365312736087 0.02766081399052809 0.0 -0.020395154377626144 0.0 0.0
-0.037607187632757694 0.03474707673004375 0.0 -0.02371591715049046 0.0 0.0
-0.045273112956465716 0.04230795202357923 0.0 -0.027174895970107353 0.0 0.0
-0.053024795565686594 0.050023776882999964 0.0 -0.031172170865368824 0.0 0.0
-0.06024413064076381 0.05728260481496694 0.0 -0.0361396395846382 0.0 0.0
-0.0658897540564687 0.06309390612226572 0.0 -0.04190644482370476 0.0 0.0
-0.06816146686667529 0.06573595182554118 0.0 -0.04690973913319081 0.0 0.0
-0.06348190511694844 0.0620576661758513 0.0 -0.048229681794500455 0.0 0.0
-0.058795902094585656 0.04549327425583417 0.0 2.572074497830812e-14 0.0 0.0
-0.06348190511693963 0.06205766617584603 0.0 0.04822968179456603 0.0 0.0
-0.06816146686665417 0.06573595182550825 0.0 0.04690973913325956 0.0 0.0
-0.065889754056434 0.06309390612223909 0.0 0.041906444823736594 0.0 0.0
-0.06024413064071951 0.057282604814916996 0.0 0.036139639584630345 0.0 0.0
-0.053024795565639216 0.050023776882954056 0.0 0.031172170865347175 0.0 0.0
-0.04527311295641888 0.042307952023541526 0.0 0.02717489597008304 0.0 0.0
-0.03760718763271078 0.03474707672999846 0.0 0.02371591715046926 0.0 0.0
-0.03036736531268998 0.027660813990483556 0.0 0.020395154377606434 0.0 0.0
-0.02368646782645526 0.02115677203639364 0.0 0.0169900460358048 0.0 0.0
-0.017610783400323023 0.015257072493550294 0.0 0.013453129837777866 0.0 0.0
-0.012232063118919504 0.010044831034086918 0.0 0.009926976646245589 0.0 0.0
-0.007765477522642341 0.005770878922797528 0.0 0.006771677285569667 0.0 0.0
-0.004467965121373077 0.002800625124161104 0.0 0.00439037526351931 0.0 0.0
-0.0024321962555099814 0.0012380578515422832 0.0 0.002996396949642259 0.0 0.0
-0.0014244715659769572 0.0006788667307819241 0.0 0.002468854990153744 0.0 0.0
-0.0009759974231133468 0.0004981267995635912 0.0 0.0023431805378380786 0.0 0.0
-0.0007136864472156804 0.00036552934002230856 0.0 0.0023348038994672926 0.0 0.0
-0.00045512900378430314 0.0001758999797728735 0.0 0.002317406714958265 0.0 0.0
-7.198348403262884e-05 -0.00024361551096754565 0.0 0.0019428195564223563 0.0 0.0
0.0001666609869012178 -0.001073310269939331 0.0 0.0012845334793380979 0.0 0.0
8.068297089588556e-05 -0.0007456210141841179 0.0 -0.0011067464004849666 0.0 0.0
-0.00014520480915317086 -0.00019431510155783172 0.0 -0.001736749804158404 0.0 0.0
-0.0005497953373105437 0.00021725913530532307 0.0 -0.002153641543564793 0.0 0.0
-0.000884176259991934 0.000430995538985342 0.0 -0.002167157029080684 0.0 0.0
-0.0012523771341745014 0.0006087010676297864 0.0 -0.0021247050256004672 0.0 0.0
-0.0019366105813448898 0.0009217319823485416 0.0 -0.0022210755345829203 0.0 0.0
-0.003461177997278745 0.0019142836879979174 0.0 -0.0029205761715096886 0.0 0.0
-0.006356822145729052 0.004350035727496809 0.0 -0.004629985620171283 0.0 0.0
-0.010837196765949252 0.008551564192106724 0.0 -0.007408676301011543 0.0 0.0
-0.01676675669990936 0.01429740704956822 0.0 -0.010954807306303372 0.0 0.0
-0.023855466913292524 0.02121027374584239 0.0 -0.014764555286094196 0.0 0.0
-0.03187697982545957 0.029042540972279277 0.0 -0.01852910934624401 0.0 0.0
-0.04072778010564206 0.037695123160426 0.0 -0.022134797484751077 0.0 0.0
-0.05035943083555016 0.047141698298943026 0.0 -0.025634102982178938 0.0 0.0
-0.060652693022093376 0.05729653734281476 0.0 -0.029281603146811077 0.0 0.0
-0.0712443214109394 0.06783644655189208 0.0 -0.03362977601628332 0.0 0.0
-0.08131609379833815 0.07798435644877257 0.0 -0.039195140430320005 0.0 0.0
-0.08935859962570804 0.08628562698194937 0.0 -0.04568774754210243 0.0 0.0
-0.09278350607112487 0.0902755501702417 0.0 -0.05134250012124108 0.0 0.0
-0.08727869895352755 0.08587179668172366 0.0 -0.053055662909348225 0.0 0.0
-0.08162371097511105 0.06654372673547441 0.0 2.888835004544177e-14 0.0 0.0
-0.08727869895351383 0.08587179668171804 0.0 0.053055662909411716 0.0 0.0
-0.09278350607109605 0.09027555017020698 0.0 0.05134250012131058 0.0 0.0
-0.08935859962566471 0.08628562698190725 0.0 0.045687747542139875 0.0 0.0
-0.08131609379828274 0.07798435644871253 0.0 0.039195140430318784 0.0 0.0
-0.07124432141087897 0.06783644655182686 0.0 0.03362977601626614 0.0 0.0
-0.06065269302203284 0.05729653734275908 0.0 0.029281603146789043 0.0 0.0
-0.050359430835489355 0.04714169829888387 0.0 0.025634102982157073 0.0 0.0
-0.0407277801055827 0.03769512316036374 0.0 0.02213479748473062 0.0 0.0
-0.03187697982540476 0.02904254097222951 0.0 0.01852910934621829 0.0 0.0
-0.023855466913243615 0.021210273745793307 0.0 0.014764555286058904 0.0 0.0
-0.016766756699869566 0.014297407049526648 0.0 0.010954807306277226 0.0 0.0
-0.010837196765920848 0.008551564192084023 0.0 0.0074086763009933426 0.0 0.0
-0.0063568221457108755 0.004350035727483974 0.0 0.004629985620158199 0.0 0.0
-0.003461177997268978 0.0019142836879896697 0.0 0.002920576171502667 0.0 0.0
-0.0019366105813407855 0.0009217319823472635 0.0 0.002221075534580403 0.0 0.0
-0.0012523771341729465 0.0006087010676305149 0.0 0.0021247050255990964 0.0 0.0
-0.0008841762599909458 0.0004309955389856547 0.0 0.0021671570290799583 0.0 0.0
-0.000549795337310233 0.00021725913530551937 0.0 0.002153641543563185 0.0 0.0
-0.00014520480915305374 -0.00019431510155782153 0.0 0.0017367498041576022 0.0 0.0
8.06829708962295e-05 -0.0007456210141828482 0.0 0.0011067464004841908 0.0 0.0
6.822148460002333e-06 -0.0004776915207218241 0.0 -0.0009157058422599911 0.0 0.0
-0.0002111370987702033 -0.00013452347510380382 0.0 -0.0015016313317366562 0.0 0.0
-0.0006386656977569012 0.0002572224329041998 0.0 -0.001934939582861831 0.0 0.0
-0.0010438659801104303 0.0004887208479596422 0.0 -0.0019411527756189257 0.0 0.0
-0.0015338104934567696 0.0007149989066122126 0.0 -0.0018425981377087888 0.0 0.0
-0.0025138842657615934 0.0012283095399211383 0.0 -0.0019438322855370662 0.0 0.0
-0.004623744026848434 0.002777567800932156 0.0 -0.0027642703231709727 0.0 0.0
-0.00841379013897237 0.006151243610017807 0.0 -0.004637203830845655 0.0 0.0
-0.0140674840016152 0.01155169649421636 0.0 -0.007575875740452617 0.0 0.0
-0.021416418200430883 0.018707499176805673 0.0 -0.011153931578951547 0.0 0.0
-0.0301829198068716 0.0272849886875211 0.0 -0.01494465176202335 0.0 0.0
-0.04014332955589803 0.03703935824775429 0.0 -0.018683982139394886 0.0 0.0
-0.051159338294069906 0.047837291450264885 0.0 -0.022276488499641187 0.0 0.0
-0.06316832557377344 0.05963340500070388 0.0 -0.025761746262502185 0.0 0.0
-0.07607204975999614 0.07236158506675834 0.0 -0.029347048812066838 0.0 0.0
-0.0894748151748684 0.08569784039257262 0.0 -0.03354125250048847 0.0 0.0
-0.10233835546755443 0.09868589497020228 0.0 -0.03897047510825018 0.0 0.0
-0.112637693289077 0.10937522892084703 0.0 -0.04556779760254552 0.0 0.0
-0.11705261470389133 0.11451528032515748 0.0 -0.051840541922218666 0.0 0.0
-0.11079838357186853 0.10938711315617416 0.0 -0.05577650035703312 0.0 0.0
-0.10431214334339606 0.08766907190587746 0.0 2.85344664563425e-14 0.0 0.0
-0.11079838357184965 0.10938711315615503 0.0 0.05577650035709987 0.0 0.0
-0.11705261470385442 0.11451528032511818 0.0 0.05184054192228707 0.0 0.0
-0.1126376932890242 0.1093752289207847 0.0 0.045567797602579174 0.0 0.0
-0.10233835546748749 0.09868589497013291 0.0 0.038970475108252314 0.0 0.0
-0.08947481517479527 0.08569784039250038 0.0 0.03354125250047354 0.0 0.0
-0.07607204975992198 0.07236158506668293 0.0 0.02934704881204632 0.0 0.0
-0.0631683255736985 0.059633405000634396 0.0 0.02576174626247968 0.0 0.0
-0.051159338293996756 0.047837291450187384 0.0 0.022276488499617438 0.0 0.0
-0.04014332955583097 0.03703935824768618 0.0 0.01868398213936633 0.0 0.0
-0.030182919806812404 0.02728498868745958 0.0 0.014944651761990908 0.0 0.0
-0.02141641820038196 0.018707499176760203 0.0 0.011153931578924848 0.0 0.0
-0.014067484001579762 0.011551696494181678 0.0 0.007575875740435651 0.0 0.0
-0.008413790138948978 0.006151243609998999 0.0 0.004637203830831352 0.0 0.0
-0.004623744026834807 0.002777567800919777 0.0 0.002764270323161486 0.0 0.0
-0.0025138842657553583 0.0012283095399196443 0.0 0.0019438322855341223 0.0 0.0
-0.0015338104934548842 0.0007149989066092932 0.0 0.001842598137707212 0.0 0.0
-0.00104386598010995 0.0004887208479587188 0.0 0.0019411527756198407 0.0 0.0
-0.0006386656977567212 0.0002572224329048702 0.0 0.0019349395828579699 0.0 0.0
-0.00021113709877040106 -0.00013452347510385952 0.0 0.0015016313317357565 0.0 0.0
6.822148459732843e-06 -0.0004776915207210931 0.0 0.0009157058422600477 0.0 0.0
-5.5440509636487137e-05 -0.0002676951583262959 0.0 -0.0007196752889436764 0.0 0.0
-0.00027016502120968277 -6.930783126260406e-05 0.0 -0.0012390972124248377 0.0 0.0
-0.0007227829529627972 0.0002968705829208802 0.0 -0.0016607530795277187 0.0 0.0
-0.0011973971350992835 0.0005389624213104863 0.0 -0.0016572767361880752 0.0 0.0
-0.0018353211477801891 0.0008289308457525046 0.0 -0.0015073911165916678 0.0 0.0
-0.0031682975800874764 0.001625818506821674 0.0 -0.0016274852567830628 0.0 0.0
-0.005913573798525904 0.0038278231193090637 0.0 -0.0024930149379509704 0.0 0.0
-0.010606713618043582 0.008147091434333642 0.0 -0.004389407998500109 0.0 0.0
-0.01739054050509348 0.01467669517397487 0.0 -0.007164418164082736 0.0 0.0
-0.02611883611690296 0.02319748437452372 0.0 -0.01048090627146205 0.0 0.0
-0.03655100615029099 0.03342168759967297 0.0 -0.014010065689381469 0.0 0.0
-0.048443103030653065 0.04509135823411862 0.0 -0.01749008600344431 0.0 0.0
-0.061624053634640824 0.05803846600961518 0.0 -0.02085178745722636 0.0 0.0
-0.07599710159895216 0.07217626261349532 0.0 -0.024137702273248463 0.0 0.0
-0.09144344709226578 0.08741813624492924 0.0 -0.027427615078494016 0.0 0.0
-0.10754987842742321 0.10343436604776501 0.0 -0.031004841855747763 0.0 0.0
-0.1231073137336752 0.11915033754694232 0.0 -0.03553581696074529 0.0 0.0
-0.13561999107411724 0.1321763535400544 0.0 -0.041603638152183486 0.0 0.0
-0.14114918190321593 0.13857738039102604 0.0 -0.04891008973377755 0.0 0.0
-0.13447832630365542 0.13308949151617128 0.0 -0.05690146155952697 0.0 0.0
-0.12736973746574387 0.10936659064798507 0.0 2.6553412246776986e-14 0.0 0.0
-0.13447832630363157 0.13308949151615354 0.0 0.05690146155959129 0.0 0.0
-0.14114918190317136 0.1385773803909844 0.0 0.04891008973384066 0.0 0.0
-0.13561999107405434 0.13217635353999252 0.0 0.041603638152217653 0.0 0.0
-0.12310731373359754 0.11915033754685889 0.0 0.035535816960746376 0.0 0.0
-0.10754987842733847 0.10343436604769218 0.0 0.031004841855735404 0.0 0.0
-0.09144344709217878 0.08741813624483931 0.0 0.02742761507848083 0.0 0.0
-0.07599710159886493 0.07217626261341183 0.0 0.02413770227323102 0.0 0.0
-0.06162405363455517 0.05803846600952438 0.0 0.02085178745720132 0.0 0.0
-0.048443103030573365 0.045091358234041444 0.0 0.017490086003415613 0.0 0.0
-0.0365510061502212 0.03342168759960125 0.0 0.014010065689352938 0.0 0.0
-0.026118836116845373 0.023197484374467097 0.0 0.010480906271437062 0.0 0.0
-0.017390540505050133 0.014676695173931349 0.0 0.007164418164063843 0.0 0.0
-0.010606713618014872 0.008147091434300672 0.0 0.0043894079984866585 0.0 0.0
-0.005913573798508919 0.003827823119297194 0.0 0.0024930149379434326 0.0 0.0
-0.0031682975800795916 0.0016258185068183898 0.0 0.0016274852567802526 0.0 0.0
-0.001835321147777807 0.0008289308457503194 0.0 0.0015073911165909319 0.0 0.0
-0.0011973971350982657 0.0005389624213108575 0.0 0.0016572767361864099 0.0 0.0
-0.0007227829529622651 0.0002968705829201422 0.0 0.001660753079525259 0.0 0.0
-0.0002701650212095749 -6.930783126292153e-05 0.0 0.001239097212425108 0.0 0.0
-5.5440509636324317e-05 -0.0002676951583261702 0.0 0.0007196752889429274 0.0 0.0
-0.00010379818268640531 -0.00011551337424489183 0.0 -0.0005246445153962509 0.0 0.0
-0.0003198931398740776 -4.473185154954121e-06 0.0 -0.0009521956236751106 0.0 0.0
-0.0008018243739447846 0.00033563464105976 0.0 -0.0013294270780564198 0.0 0.0
-0.0013502106748188819 0.0005831724500671836 0.0 -0.0013107829100953493 0.0 0.0
-0.0021709955938608106 0.0009672591116342661 0.0 -0.001120937920706905 0.0 0.0
-0.0039121942205387955 0.002137157736275101 0.0 -0.0012501570037725708 0.0 0.0
-0.007323017449647482 0.005050885132643499 0.0 -0.0021000769198128906 0.0 0.0
-0.012882523524259764 0.010260947925964232 0.0 -0.003777548953634114 0.0 0.0
-0.020746107346025527 0.017857704919687776 0.0 -0.006122931191186193 0.0 0.0
-0.030834190635976304 0.027717102379338478 0.0 -0.008955486500219267 0.0 0.0
-0.04291496379698247 0.0395709163432164 0.0 -0.011977464811572254 0.0 0.0
-0.056734447907718755 0.053150468524901164 0.0 -0.014962232590392602 0.0 0.0
-0.0720852163622314 0.06825245627601488 0.0 -0.0178660015419586 0.0 0.0
-0.08880361829452442 0.08472882791417112 0.0 -0.02074372091422078 0.0 0.0
-0.10670135421855881 0.10240957565373404 0.0 -0.023569716255967935 0.0 0.0
-0.12532431050475973 0.12090791194021186 0.0 -0.026269859034190234 0.0 0.0
-0.14341185370271764 0.13912935840186863 0.0 -0.029227163386025906 0.0 0.0
-0.15821326677390413 0.1545261567212024 0.0 -0.03392979892033682 0.0 0.0
-0.16525901494024306 0.1626199967522855 0.0 -0.04249985383876453 0.0 0.0
-0.15872222185894597 0.15742313164873167 0.0 -0.05615447765269803 0.0 0.0
-0.15126126131952425 0.13212848626213608 0.0 2.420459666030439e-14 0.0 0.0
-0.1587222218589181 0.15742313164871174 0.0 0.05615447765275218 0.0 0.0
-0.1652590149401906 0.16261999675223357 0.0 0.04249985383881535 0.0 0.0
-0.1582132667738311 0.1545261567211257 0.0 0.03392979892036289 0.0 0.0
-0.1434118537026289 0.13912935840177573 0.0 0.029227163386025434 0.0 0.0
-0.12532431050466236 0.12090791194012743 0.0 0.026269859034183073 0.0 0.0
-0.10670135421845879 0.10240957565363566 0.0 0.023569716255954273 0.0 0.0
-0.08880361829442443 0.08472882791407275 0.0 0.020743720914206242 0.0 0.0
-0.0720852163621326 0.06825245627591335 0.0 0.017866001541937588 0.0 0.0
-0.05673444790762692 0.053150468524815836 0.0 0.014962232590369884 0.0 0.0
-0.042914963796902496 0.039570916343135316 0.0 0.011977464811545567 0.0 0.0
-0.030834190635910516 0.027717102379272 0.0 0.00895548650019801 0.0 0.0
-0.0207461073459757 0.01785770491963774 0.0 0.006122931191168393 0.0 0.0
-0.012882523524224981 0.010260947925929083 0.0 0.003777548953621996 0.0 0.0
-0.007323017449626393 0.005050885132628156 0.0 0.002100076919807848 0.0 0.0
-0.003912194220528666 0.0021371577362687974 0.0 0.001250157003769649 0.0 0.0
-0.0021709955938573585 0.0009672591116323193 0.0 0.0011209379207069942 0.0 0.0
-0.0013502106748176936 0.0005831724500687164 0.0 0.0013107829100937852 0.0 0.0
-0.0008018243739439345 0.000335634641058571 0.0 0.0013294270780562808 0.0 0.0
-0.00031989313987356013 -4.47318515500888e-06 0.0 0.0009521956236748378 0.0 0.0
-0.00010379818268586738 -0.00011551337424493919 0.0 0.0005246445153963007 0.0 0.0
-0.00013335068546013764 -2.1752458652037652e-05 0.0 -0.0003411260673656954 0.0 0.0
-0.000354730913684949 5.2782270062728606e-05 0.0 -0.0006450051066365154 0.0 0.0
-0.0008735054368479349 0.00037051685549786796 0.0 -0.000933517267059562 0.0 0.0
-0.001511492696715778 0.0006273727714985008 0.0 -0.0008948649165714898 0.0 0.0
-0.002556615807997429 0.0011516616540213416 0.0 -0.0006931974984178399 0.0 0.0
-0.00475400233486614 0.002785799393360326 0.0 -0.0008099870108724357 0.0 0.0
-0.00881509843723086 0.006401184297999792 0.0 -0.0015137015673524603 0.0 0.0
-0.015192487304673475 0.0124277344654399 0.0 -0.0027368435472982225 0.0 0.0
-0.02410269421704628 0.021052978402575046 0.0 -0.004472318618923373 0.0 0.0
-0.035520072491063245 0.03222057828095931 0.0 -0.006583674531173898 0.0 0.0
-0.049232705893737405 0.045686532824472596 0.0 -0.008852871976912716 0.0 0.0
-0.0649728406415248 0.06117042916562632 0.0 -0.011103316779658663 0.0 0.0
-0.08249393895290638 0.07843116038148279 0.0 -0.013317954820610873 0.0 0.0
-0.10155388590368204 0.09724413687410223 0.0 -0.015562089171466448 0.0 0.0
-0.12181789232460297 0.117301426590564 0.0 -0.017743727580888487 0.0 0.0
-0.142706683406001 0.13806481954243854 0.0 -0.019533882830525824 0.0 0.0
-0.16303780996141398 0.1584412515846882 0.0 -0.020806595164765646 0.0 0.0
-0.18024273533745863 0.17611409998225558 0.0 -0.02314620978236196 0.0 0.0
-0.1894789871930793 0.18664004667048234 0.0 -0.03155605917877951 0.0 0.0
-0.18395605455113917 0.18291112228964151 0.0 -0.052412951214953915 0.0 0.0
-0.17657812402642567 0.1566399036613238 0.0 2.165628787409446e-14 0.0 0.0
-0.18395605455110772 0.18291112228960668 0.0 0.052412951214998116 0.0 0.0
-0.1894789871930186 0.18664004667040954 0.0 0.03155605917881774 0.0 0.0
-0.18024273533737406 0.17611409998216676 0.0 0.023146209782383517 0.0 0.0
-0.16303780996131234 0.15844125158458544 0.0 0.020806595164768127 0.0 0.0
-0.14270668340589077 0.13806481954232525 0.0 0.019533882830520048 0.0 0.0
-0.12181789232449017 0.11730142659044837 0.0 0.017743727580879432 0.0 0.0
-0.1015538859035697 0.09724413687399411 0.0 0.0155620891714582 0.0 0.0
-0.0824939389527952 0.07843116038137136 0.0 0.013317954820596632 0.0 0.0
-0.06497284064142071 0.06117042916553299 0.0 0.011103316779641152 0.0 0.0
-0.04923270589364738 0.04568653282437909 0.0 0.008852871976891934 0.0 0.0
-0.0355200724909897 0.032220578280888396 0.0 0.006583674531157699 0.0 0.0
-0.02410269421699004 0.02105297840252 0.0 0.004472318618913068 0.0 0.0
-0.015192487304632747 0.012427734465402683 0.0 0.002736843547288899 0.0 0.0
-0.008815098437205569 0.0064011842979790545 0.0 0.0015137015673466838 0.0 0.0
-0.004754002334853697 0.0027857993933495776 0.0 0.0008099870108692756 0.0 0.0
-0.0025566158079927846 0.001151661654018068 0.0 0.0006931974984184096 0.0 0.0
-0.0015114926967145295 0.000627372771499499 0.0 0.000894864916571439 0.0 0.0
-0.00087350543684723 0.00037051685549666406 0.0 0.00093351726705828 0.0 0.0
-0.0003547309136845637 5.2782270063288075e-05 0.0 0.0006450051066353604 0.0 0.0
-0.00013335068545979978 -2.17524586522353e-05 0.0 0.0003411260673664309 0.0 0.0
-0.00013528052636528027 1.381351109179086e-05 0.0 -0.00019126604347609422 0.0 0.0
-0.00036432536181980007 9.140351531064713e-05 0.0 -0.0003232673679421192 0.0 0.0
-0.0009341829001300568 0.00039568651089667123 0.0 -0.00045311346167626536 0.0 0.0
-0.0016952121462874242 0.0006877793833700762 0.0 -0.00040735129203843616 0.0 0.0
-0.003010159184593675 0.0014121873860839557 0.0 -0.00023193017890369306 0.0 0.0
-0.0056798370436769085 0.0035614245827006374 0.0 -0.0002811260528915792 0.0 0.0
-0.010358723931500943 0.0078268845130113 0.0 -0.0006608038349162321 0.0 0.0
-0.017506333132387576 0.014613369328531304 0.0 -0.0013036138645896047 0.0 0.0
-0.02742021334544377 0.02422130254593879 0.0 -0.0022205869656692578 0.0 0.0
-0.04013426526045597 0.03666193779424756 0.0 -0.003369286372058924 0.0 0.0
-0.05546014394804932 0.05172328893835129 0.0 -0.004629048089442116 0.0 0.0
-0.07311546860623432 0.0691085257882777 0.0 -0.005908409550113295 0.0 0.0
-0.09280610717620105 0.08852631237372877 0.0 -0.007216060295987098 0.0 0.0
-0.11418894258982629 0.10965983703453316 0.0 -0.008562155067868862 0.0 0.0
-0.13676698865691242 0.13205183733039685 0.0 -0.009853016796958484 0.0 0.0
-0.15975241980724186 0.15494929127406457 0.0 -0.01080640561849441 0.0 0.0
-0.18191191307687438 0.17712736450944366 0.0 -0.011022451308020306 0.0 0.0
-0.20121255870313623 0.19658486086871588 0.0 -0.011061422051733258 0.0 0.0
-0.21358376038037122 0.20980250530105746 0.0 -0.015937578835978645 0.0 0.0
-0.21080350685180269 0.21004226731331407 0.0 -0.03979093850870874 0.0 0.0
-0.20426607327921045 0.18484311195406442 0.0 1.2779707847521138e-14 0.0 0.0
-0.2108035068517681 0.21004226731327086 0.0 0.03979093850873658 0.0 0.0
-0.21358376038030186 0.20980250530098485 0.0 0.015937578835998292 0.0 0.0
-0.20121255870303817 0.19658486086861637 0.0 0.011061422051743371 0.0 0.0
-0.1819119130767596 0.17712736450932226 0.0 0.011022451308018752 0.0 0.0
-0.15975241980711907 0.1549492912739371 0.0 0.010806405618489487 0.0 0.0
-0.13676698865678627 0.13205183733026693 0.0 0.009853016796952148 0.0 0.0
-0.11418894258970042 0.10965983703441197 0.0 0.008562155067864816 0.0 0.0
-0.09280610717607772 0.08852631237360012 0.0 0.0072160602959807744 0.0 0.0
-0.073115468606119 0.0691085257881715 0.0 0.005908409550105288 0.0 0.0
-0.055460143947948924 0.051723288938248985 0.0 0.004629048089431497 0.0 0.0
-0.04013426526037416 0.036661937794168195 0.0 0.003369286372049708 0.0 0.0
-0.02742021334538149 0.02422130254587826 0.0 0.002220586965665278 0.0 0.0
-0.017506333132342577 0.0146133693284831 0.0 0.001303613864586064 0.0 0.0
-0.010358723931472084 0.007826884512985738 0.0 0.0006608038349115344 0.0 0.0
-0.00567983704366181 0.0035614245826877796 0.0 0.00028112605288941 0.0 0.0
-0.003010159184587362 0.001412187386080398 0.0 0.00023193017890470625 0.0 0.0
-0.001695212146285168 0.000687779383368002 0.0 0.0004073512920388039 0.0 0.0
-0.0009341829001290958 0.0003956865108960863 0.0 0.00045311346167529516 0.0 0.0
-0.00036432536181939127 9.140351531036907e-05 0.0 0.0003232673679419507 0.0 0.0
-0.00013528052636511747 1.3813511092010634e-05 0.0 0.00019126604347469554 0.0 0.0
-9.388595146723832e-05 1.7193465219769036e-05 0.0 -0.0001157426994769735 0.0 0.0
-0.0003301580852953786 0.00010431712221801983 0.0 -0.00013440550395111842 0.0 0.0
-0.0009799067979258766 0.00040495828628059685 0.0 -0.00014676783428328348 0.0 0.0
-0.0019214044845038752 0.0007247675142533338 0.0 -6.196542266589098e-05 0.0 0.0
-0.0035407842503489186 0.001566401054834065 0.0 0.00023333644731714004 0.0 0.0
-0.006669860032009186 0.003975718333561142 0.0 0.00048411538285174046 0.0 0.0
-0.011928039007682223 0.00855330240747362 0.0 0.000607794650898901 0.0 0.0
-0.0197969250026139 0.01570734897432166 0.0 0.0006404943908937869 0.0 0.0
-0.030660641689052973 0.02579320493916884 0.0 0.0005688370000059128 0.0 0.0
-0.044632103682892665 0.03886145681432523 0.0 0.00034355274569208534 0.0 0.0
-0.061554441980099066 0.05471604925576378 0.0 5.379642524581084e-06 0.0 0.0
-0.08112243817292296 0.07305225568205566 0.0 -0.00042449389418714855 0.0 0.0
-0.10296474098540814 0.09354702516540063 0.0 -0.0009651961275691356 0.0 0.0
-0.126640666590144 0.11583347730473795 0.0 -0.0015881481234446947 0.0 0.0
-0.15151371308866962 0.13938563013218921 0.0 -0.0022789279608632987 0.0 0.0
-0.17656827259054705 0.16333385032241238 0.0 -0.0028836989275505057 0.0 0.0
-0.2003082609566546 0.18633793225346476 0.0 -0.0030696517624736706 0.0 0.0
-0.22082282273632864 0.2065076332417504 0.0 -0.0027666680178631414 0.0 0.0
-0.23579756828316262 0.22097844557638305 0.0 -0.005748601112611785 0.0 0.0
-0.23964953765510852 0.22406494294413098 0.0 -0.03085352444693043 0.0 0.0
-0.2377182980352482 0.20024935001860397 0.0 6.744604874597826e-15 0.0 0.0
-0.23964953765507163 0.2240649429440848 0.0 0.03085352444694165 0.0 0.0
-0.23579756828308418 0.2209784455763167 0.0 0.005748601112617338 0.0 0.0
-0.2208228227362161 0.2065076332416377 0.0 0.002766668017865983 0.0 0.0
-0.2003082609565261 0.18633793225333178 0.0 0.0030696517624708985 0.0 0.0
-0.17656827259041155 0.16333385032228798 0.0 0.0028836989275485107 0.0 0.0
-0.15151371308852996 0.13938563013205216 0.0 0.0022789279608571335 0.0 0.0
-0.12664066659000456 0.11583347730461624 0.0 0.001588148123442646 0.0 0.0
-0.10296474098527145 0.09354702516526368 0.0 0.0009651961275655065 0.0 0.0
-0.08112243817279582 0.07305225568193846 0.0 0.00042449389418596634 0.0 0.0
-0.06155444197999 0.054716049255659385 0.0 -5.379642526062538e-06 0.0 0.0
-0.04463210368280354 0.038861456814242266 0.0 -0.0003435527456961806 0.0 0.0
-0.030660641688983782 0.025793204939102508 0.0 -0.0005688370000052952 0.0 0.0
-0.01979692500256366 0.015707348974271743 0.0 -0.0006404943908919283 0.0 0.0
-0.011928039007649636 0.008553302407443689 0.0 -0.0006077946508979181 0.0 0.0
-0.006669860031991775 0.003975718333547804 0.0 -0.0004841153828510974 0.0 0.0
-0.0035407842503416558 0.0015664010548293971 0.0 -0.0002333364473147524 0.0 0.0
-0.0019214044845011773 0.0007247675142505068 0.0 6.196542266745923e-05 0.0 0.0
-0.0009799067979248115 0.000404958286280968 0.0 0.00014676783428326865 0.0 0.0
-0.0003301580852951517 0.00010431712221659211 0.0 0.00013440550395179288 0.0 0.0
-9.388595146745085e-05 1.7193465220459584e-05 0.0 0.00011574269947384014 0.0 0.0
SCALARS Statev float 8
LOOKUP_TABLE default
0.0 0.020961286782984593 0.016883421837291673 -0.01996173234966691 0.0030783105123752363 -0.0013794346967275046 0.0 0.0
0.0 0.0075514612695299225 0.005633017402596609 -0.003672632317098881 -0.0019603850854977255 -0.007598063420997109 0.0 0.0
0.0 0.0002632513487625942 0.00032188254887094506 -0.0001936892259643348 -0.00012819332290661025 -0.0004574629159279032 0.0 0.0
0.0 0.00024335692339775002 0.00015624740212964435 -0.00011232641843700187 -4.392098369264312e-05 4.207622784111106e-05 0.0 0.0
0.0 0.00141868175073957 0.001083154162188866 -0.0008024749925841898 -0.0002806791696046763 0.0002207039294601791 0.0 0.0
0.0 0.0038241204692241685 0.003695586521682789 -0.003002227241471925 -0.000693359280210868 0.0004399032764504725 0.0 0.0
0.0 0.009301981078563542 0.008466030264412311 -0.007431364294078927 -0.0010346659703333785 0.000599167923792569 0.0 0.0
0.0 0.017724992173750877 0.015894943934237925 -0.014588857951640324 -0.0013060859825975949 0.0006592696403723303 0.0 0.0
0.0 0.029626630618201824 0.026321549552907768 -0.02474822659123113 -0.0015733229616766327 0.0006133948870093238 0.0 0.0
0.0 0.04514933597732879 0.03984007926357624 -0.03796298923033988 -0.0018770900332363578 0.00041803190871321836 0.0 0.0
0.0 0.06410759265903077 0.056296212831065374 -0.054062300330100385 -0.0022339125009649716 0.00010069174616857417 0.0 0.0
0.0 0.08583533547020147 0.07539999279241544 -0.07275514713915111 -0.0026448456532642372 -0.00031877009754875945 0.0 0.0
0.0 0.11029613562839412 0.09680840205214475 -0.0937117125092938 -0.0030966895428509137 -0.0008420592572998924 0.0 0.0
0.0 0.1370094994677363 0.12015525319208843 -0.11658209381794492 -0.0035731593741433368 -0.0014210393641211744 0.0 0.0
0.0 0.16544331893266673 0.14497276505582485 -0.14091928749426175 -0.004053477561562988 -0.002068881883618496 0.0 0.0
0.0 0.19482847088309724 0.17055317770013612 -0.16603957294742977 -0.0045136047527061214 -0.00274074120004622 0.0 0.0
0.0 0.22394305087780103 0.19586617170435122 -0.1909376469118496 -0.004928524792501865 -0.0032944788547823404 0.0 0.0
0.0 0.2512296193796576 0.2195730088112806 -0.21429881082894356 -0.005274197982336918 -0.0035291718186231174 0.0 0.0
0.0 0.27488720165554337 0.2401321408577347 -0.23458149207508952 -0.005550648782644564 -0.0033307158118879177 0.0 0.0
0.0 0.2924668129462272 0.2556262919965775 -0.24989884290907163 -0.005727449087506157 -0.004175670414733644 0.0 0.0
0.0 0.3001671360338349 0.2619149306737315 -0.2562029311931742 -0.005711999480557037 2.6315755130568164e-15 0.0 0.0
0.0 0.2924668129461795 0.2556262919965366 -0.24989884290902953 -0.005727449087507253 0.004175670414744197 0.0 0.0
0.0 0.2748872016554521 0.24013214085765514 -0.23458149207500945 -0.0055506487826451935 0.0033307158119010305 0.0 0.0
0.0 0.251229619379532 0.21957300881117098 -0.21429881082883606 -0.00527419798233479 0.0035291718186304666 0.0 0.0
0.0 0.22394305087766675 0.19586617170423387 -0.19093764691173623 -0.004928524792497898 0.0032944788547807167 0.0 0.0
0.0 0.19482847088294933 0.17055317770000666 -0.16603957294730157 -0.004513604752704904 0.0027407412000374325 0.0 0.0
0.0 0.16544331893251846 0.1449727650556949 -0.1409192874941358 -0.004053477561559196 0.0020688818836187162 0.0 0.0
0.0 0.13700949946758634 0.12015525319195763 -0.11658209381781628 -0.003573159374141439 0.001421039364119389 0.0 0.0
0.0 0.11029613562825172 0.09680840205202075 -0.0937117125091722 -0.0030966895428483554 0.000842059257294853 0.0 0.0
0.0 0.0858353354700667 0.07539999279229764 -0.07275514713903566 -0.002644845653261856 0.0003187700975436879 0.0 0.0
0.0 0.06410759265892015 0.0562962128309685 -0.05406230033000617 -0.0022339125009623495 -0.00010069174617571234 0.0 0.0
0.0 0.045149335977235285 0.039840079263494504 -0.03796298923025995 -0.001877090033234626 -0.00041803190871635555 0.0 0.0
0.0 0.02962663061813515 0.026321549552849016 -0.024748226591174115 -0.0015733229616748793 -0.0006133948870086637 0.0 0.0
0.0 0.01772499217370166 0.015894943934194057 -0.014588857951597872 -0.001306085982596152 -0.0006592696403727686 0.0 0.0
0.0 0.009301981078534634 0.00846603026438575 -0.007431364294053947 -0.0010346659703318077 -0.0005991679237923164 0.0 0.0
0.0 0.0038241204692099798 0.00369558652166897 -0.003002227241459812 -0.0006933592802091661 -0.00043990327644924165 0.0 0.0
0.0 0.0014186817507331987 0.0010831541621839078 -0.0008024749925804523 -0.0002806791696034532 -0.00022070392945896893 0.0 0.0
0.0 0.00024335692339749325 0.00015624740213019854 -0.0001123264184374795 -4.3920983692718285e-05 -4.2076227840863765e-05 0.0 0.0
0.0 0.0002632513487613068 0.00032188254886987664 -0.00019368922596363586 -0.00012819332290623953 0.00045746291592635685 0.0 0.0
0.0 0.007551461269519135 0.005633017402591303 -0.0036726323170947813 -0.001960385085496518 0.007598063420987147 0.0 0.0
0.0 0.020961286782962302 0.016883421837276983 -0.01996173234964667 0.003078310512369663 0.0013794346966817927 0.0 0.0
0.0 0.017280065347800314 0.013070798297329381 -0.01669520965359166 0.0036244113562622737 -0.0008794667203382699 0.0 0.0
0.0 0.0048456968126675565 0.0034919030140315283 -0.0022696290990996083 -0.0012222739149319159 -0.006169853763853461 0.0 0.0
0.0 -0.00010139235391160276 -8.113438826503784e-05 7.909055016820473e-05 2.043838096833143e-06 -0.00014187481082916296 0.0 0.0
0.0 7.922504460853239e-05 7.01700842451072e-05 -5.061719943065903e-05 -1.955288481444804e-05 2.0652064316737227e-05 0.0 0.0
0.0 0.0008708716811873347 0.0007471453925680661 -0.0005582723050791632 -0.00018887308748890243 8.29646502064674e-05 0.0 0.0
0.0 0.0033130724400149926 0.0029385665460579446 -0.002413329719922894 -0.0005252368261350534 3.970546338879634e-05 0.0 0.0
0.0 0.008007415694435974 0.007258210768291471 -0.0064611711513451325 -0.0007970396169463364 -0.00034149965659746 0.0 0.0
0.0 0.015832776864223887 0.014076784843035914 -0.013122983267962308 -0.000953801575073613 -0.000980900523293658 0.0 0.0
0.0 0.02693986213995293 0.023703659465061484 -0.022641429992760205 -0.0010622294723012743 -0.0018837416336424946 0.0 0.0
0.0 0.04133747449101835 0.036170645866527525 -0.03501455985627302 -0.0011560860102545216 -0.003018543725439236 0.0 0.0
0.0 0.05884727468400278 0.0512950365505854 -0.05004895519057142 -0.0012460813600140314 -0.004283961367836704 0.0 0.0
0.0 0.07924981704141071 0.06880300580030328 -0.06746541926261468 -0.001337586537688551 -0.005587605479132908 0.0 0.0
0.0 0.10162983974109265 0.08841535834174857 -0.08698475554344293 -0.0014306027983056126 -0.006916249001994317 0.0 0.0
0.0 0.12636533020549334 0.10981631870026823 -0.10829808336372573 -0.0015182353365424952 -0.008262219514026677 0.0 0.0
0.0 0.152677343582154 0.13259008787947554 -0.13099960364782703 -0.0015904842316482519 -0.009573689932282612 0.0 0.0
0.0 0.17987659803758513 0.1561114440310755 -0.15447247231267744 -0.0016389717183982082 -0.01071665337750518 0.0 0.0
0.0 0.20693037336155218 0.17946650467331315 -0.17780740207832896 -0.0016591025949841871 -0.01140432004828331 0.0 0.0
0.0 0.23242208194406472 0.20144015676157884 -0.19978782218764088 -0.0016523345739379762 -0.011290058764327425 0.0 0.0
0.0 0.2544966699489143 0.22047039908554508 -0.21886598710088076 -0.001604411984664169 -0.010295773793165474 0.0 0.0
0.0 0.2706087853743606 0.23427177450930597 -0.23285560080564865 -0.0014161737036572548 -0.00955546493579627 0.0 0.0
0.0 0.277755910714838 0.23966931249496096 -0.23853759242020278 -0.0011317200747581998 9.872311301784009e-15 0.0 0.0
0.0 0.27060878537432115 0.2342717745092713 -0.23285560080561357 -0.0014161737036574216 0.009555464935822943 0.0 0.0
0.0 0.2544966699488316 0.22047039908547414 -0.2188659871008082 -0.0016044119846656958 0.010295773793193888 0.0 0.0
0.0 0.23242208194395253 0.20144015676148275 -0.19978782218754365 -0.0016523345739390062 0.011290058764342753 0.0 0.0
0.0 0.206930373361427 0.17946650467320543 -0.1778074020782213 -0.0016591025949843775 0.011404320048283293 0.0 0.0
0.0 0.17987659803744763 0.156111444030957 -0.1544724723125585 -0.0016389717183980732 0.010716653377497012 0.0 0.0
0.0 0.15267734358201665 0.1325900878793557 -0.13099960364770846 -0.0015904842316472874 0.009573689932279974 0.0 0.0
0.0 0.1263653302053547 0.10981631870014834 -0.10829808336360625 -0.0015182353365420492 0.008262219514021622 0.0 0.0
0.0 0.10162983974095882 0.08841535834163307 -0.08698475554332766 -0.0014306027983054768 0.006916249001986488 0.0 0.0
0.0 0.07924981704128725 0.06880300580019616 -0.0674654192625078 -0.0013375865376883355 0.005587605479124173 0.0 0.0
0.0 0.058847274683898665 0.051295036550495395 -0.05004895519048193 -0.0012460813600134824 0.004283961367824705 0.0 0.0
0.0 0.04133747449093391 0.03617064586645382 -0.03501455985619969 -0.0011560860102540916 0.0030185437254305137 0.0 0.0
0.0 0.026939862139888564 0.023703659465004686 -0.022641429992704222 -0.0010622294723004514 0.0018837416336379906 0.0 0.0
0.0 0.015832776864176883 0.014076784842994466 -0.013122983267921346 -0.0009538015750731433 0.0009809005232885417 0.0 0.0
0.0 0.008007415694409506 0.007258210768267616 -0.006461171151322338 -0.0007970396169452656 0.0003414996565949383 0.0 0.0
0.0 0.0033130724400002834 0.0029385665460449806 -0.002413329719911448 -0.000525236826133528 -3.97054633894261e-05 0.0 0.0
0.0 0.0008708716811829992 0.0007471453925647962 -0.0005582723050766889 -0.00018887308748810782 -8.296465020598785e-05 0.0 0.0
0.0 7.922504460831331e-05 7.017008424548232e-05 -5.061719943098575e-05 -1.955288481449637e-05 -2.0652064316556433e-05 0.0 0.0
0.0 -0.0001013923539120371 -8.113438826476489e-05 7.909055016797342e-05 2.0438380967912545e-06 0.00014187481082888247 0.0 0.0
0.0 0.0048456968126561585 0.0034919030140253544 -0.00226962909909512 -0.0012222739149302345 0.006169853763841406 0.0 0.0
0.0 0.017280065347776184 0.01307079829731102 -0.01669520965356894 0.003624411356257916 0.0008794667203036519 0.0 0.0
0.0 0.01310251757896921 0.00970316807563338 -0.01271997521683975 0.003016807141206378 -0.0036305027761854196 0.0 0.0
0.0 0.0033388482017936948 0.002144540432184015 -0.001229573203537633 -0.0009149672286463861 -0.005478895132828998 0.0 0.0
0.0 -3.699932274728599e-07 8.427750791573119e-07 -5.219360641031102e-07 -3.208390150541956e-07 1.1896091059571692e-07 0.0 0.0
0.0 6.617419788457242e-06 5.25953259838134e-06 -2.9093921002320347e-06 -2.3501404981494402e-06 9.05864950208791e-06 0.0 0.0
0.0 0.00045030501152062085 0.0004085126071526815 -0.00029733025885544793 -0.00011118234829723339 7.938602980905301e-06 0.0 0.0
0.0 0.0024333495101068153 0.0021141265627810557 -0.0016887658008410346 -0.00042536076194001966 -0.0001806565578460448 0.0 0.0
0.0 0.006356355189943547 0.005830161522309821 -0.005097113057121652 -0.0007330484651881705 -0.0009182320017431691 0.0 0.0
0.0 0.013369013807165701 0.011881700704567899 -0.010976394120651918 -0.0009053065839159727 -0.002140494564868985 0.0 0.0
0.0 0.023325721100333964 0.020506299464396676 -0.019495415026040446 -0.001010884438356205 -0.00384708219465659 0.0 0.0
0.0 0.036320291298223 0.031676812326272216 -0.030579835490301306 -0.001096976835970925 -0.005938258990974749 0.0 0.0
0.0 0.052030800910808826 0.04518632810120753 -0.04400521081370991 -0.0011811172874976027 -0.008222577522248543 0.0 0.0
0.0 0.07004231232181407 0.06078054617104185 -0.059512211770480564 -0.0012683344005613095 -0.010524933836381237 0.0 0.0
0.0 0.09042814516391696 0.07822157054936155 -0.07686516905569979 -0.0013564014936616486 -0.01280086888833654 0.0 0.0
0.0 0.11220863570364054 0.09726968994495538 -0.09583045379498373 -0.0014392361499716792 -0.015086286090150195 0.0 0.0
0.0 0.13572307727325683 0.117580091956248 -0.11607059169781175 -0.001509500258436444 -0.01731389713490409 0.0 0.0
0.0 0.16009042753205105 0.13863757935287022 -0.13707797220437065 -0.0015596071484994226 -0.019235723489096794 0.0 0.0
0.0 0.18443907406082044 0.1596792708347406 -0.15809489552361916 -0.0015843753111215828 -0.02040481600767866 0.0 0.0
0.0 0.20748420384042465 0.17960571824980767 -0.178030972392743 -0.001574745857064894 -0.020327193946399418 0.0 0.0
0.0 0.22743800437162645 0.19682717967275629 -0.1953254347768858 -0.001501744895870255 -0.018823107910421633 0.0 0.0
0.0 0.24186440846195134 0.20922707063385093 -0.2078350347733045 -0.0013920358605458761 -0.016082441881106364 0.0 0.0
0.0 0.24858935541899368 0.21422548554023244 -0.21315637235091647 -0.0010691131893160008 1.8143472835241425e-14 0.0 0.0
0.0 0.24186440846191706 0.20922707063381907 -0.20783503477327367 -0.0013920358605452896 0.016082441881152355 0.0 0.0
0.0 0.22743800437155617 0.19682717967269484 -0.19532543477682446 -0.0015017448958705784 0.018823107910468644 0.0 0.0
0.0 0.20748420384032928 0.17960571824972538 -0.1780309723926595 -0.0015747458570658482 0.020327193946428686 0.0 0.0
0.0 0.18443907406070764 0.1596792708346438 -0.15809489552352246 -0.0015843753111214006 0.02040481600768013 0.0 0.0
0.0 0.16009042753192607 0.13863757935276186 -0.13707797220426282 -0.001559607148499046 0.019235723489087947 0.0 0.0
0.0 0.13572307727313476 0.11758009195614208 -0.11607059169770632 -0.0015095002584356912 0.01731389713489851 0.0 0.0
0.0 0.11220863570351872 0.0972696899448497 -0.09583045379487906 -0.001439236149970662 0.0150862860901427 0.0 0.0
0.0 0.09042814516379849 0.07822157054925945 -0.07686516905559777 -0.0013564014936616692 0.012800868888324957 0.0 0.0
0.0 0.0700423123217033 0.06078054617094652 -0.059512211770385084 -0.0012683344005613496 0.010524933836366136 0.0 0.0
0.0 0.05203080091071389 0.04518632810112533 -0.044005210813627994 -0.0011811172874973633 0.008222577522230974 0.0 0.0
0.0 0.03632029129814862 0.03167681232620703 -0.03057983549023666 -0.0010969768359703615 0.005938258990960536 0.0 0.0
0.0 0.023325721100276874 0.020506299464346806 -0.019495415025991173 -0.0010108844383556375 0.0038470821946471243 0.0 0.0
0.0 0.013369013807121211 0.011881700704529296 -0.010976394120613782 -0.0009053065839154879 0.0021404945648599545 0.0 0.0
0.0 0.006356355189921057 0.005830161522289442 -0.005097113057102479 -0.000733048465186966 0.0009182320017387189 0.0 0.0
0.0 0.0024333495100944654 0.0021141265627704457 -0.001688765800831892 -0.00042536076193855463 0.00018065655784407967 0.0 0.0
0.0 0.00045030501151786806 0.00040851260715079604 -0.00029733025885413794 -0.00011118234829665797 -7.938602980730902e-06 0.0 0.0
0.0 6.617419788517109e-06 5.259532598614169e-06 -2.909392100413447e-06 -2.3501404982007124e-06 -9.058649501981202e-06 0.0 0.0
0.0 -3.699932273831747e-07 8.427750790754232e-07 -5.219360640417974e-07 -3.2083901503362523e-07 -1.1896091062713441e-07 0.0 0.0
0.0 0.0033388482017842917 0.0021445404321785546 -0.0012295732035339448 -0.0009149672286446032 0.0054788951328147715 0.0 0.0
0.0 0.013102517578943741 0.009703168075614537 -0.012719975216816313 0.0030168071412017545 0.003630502776162392 0.0 0.0
0.0 0.01008079193098281 0.007283668651752658 -0.009737522567683328 0.0024538539159306354 -0.003898364017029403 0.0 0.0
0.0 0.0024804032017642103 0.0014987017824392931 -0.0008400610716269277 -0.0006586407108123567 -0.0042393934296241454 0.0 0.0
0.0 0.0 0.0 0.0 0.0 0.0 0.0 0.0
0.0 -7.875439353743453e-06 -7.055944360810716e-06 5.614771439657866e-06 1.4411729211528452e-06 5.839396756439545e-06 0.0 0.0
0.0 0.00019095058555486805 0.00016674438819295416 -0.00011702108479909993 -4.972330339385356e-05 -4.314342755997243e-06 0.0 0.0
0.0 0.0015659805828931428 0.001412652741193159 -0.0010963131992786897 -0.0003163395419144671 -0.0002979954141733765 0.0 0.0
0.0 0.005038429899054874 0.004456353096742285 -0.0038079918207382527 -0.00064836127600403 -0.0012038799101006259 0.0 0.0
0.0 0.01096233530241367 0.009709066651486681 -0.00886213468812259 -0.0008469319633640838 -0.002901409011200958 0.0 0.0
0.0 0.019784190792050054 0.01728925002555217 -0.016334834934504605 -0.0009544150910475534 -0.005216512012762124 0.0 0.0
0.0 0.03129346241450038 0.027130220278085784 -0.026095986211455906 -0.0010342340666298568 -0.008026134912633797 0.0 0.0
0.0 0.04511550164383568 0.039005497516843346 -0.0378936874097913 -0.0011118101070519836 -0.011067340601194795 0.0 0.0
0.0 0.06109743971361713 0.052674329890771955 -0.05148046934621358 -0.001193860544558357 -0.014123465695261293 0.0 0.0
0.0 0.0787043145166077 0.06794253471902802 -0.06666504480136315 -0.0012774899176648227 -0.017138790022584147 0.0 0.0
0.0 0.09829550033911902 0.08461610627215846 -0.08326100546304711 -0.0013551008091113377 -0.02013140313741506 0.0 0.0
0.0 0.11886958616396914 0.10244418338414837 -0.10102136294870565 -0.0014228204354426479 -0.023030546481735057 0.0 0.0
0.0 0.14021864888530036 0.12103120116319568 -0.11955542497238104 -0.001475776190814669 -0.025568036143000957 0.0 0.0
0.0 0.16196265820493908 0.13975553230615925 -0.13825166455817955 -0.0015038677479796937 -0.027233827654833856 0.0 0.0
0.0 0.18263997652401354 0.15764100923075391 -0.1561488416794064 -0.0014921675513473766 -0.027423857794172977 0.0 0.0
0.0 0.2006300992718096 0.1732305459336856 -0.17179550898831533 -0.001435036945370241 -0.025531649536399907 0.0 0.0
0.0 0.213836388468572 0.1847139573877548 -0.18334891293640143 -0.0013650444513536736 -0.020595584077552534 0.0 0.0
0.0 0.22058070474288127 0.1896434895196066 -0.18872756933048163 -0.0009159201891250279 2.5379004453540688e-14 0.0 0.0
0.0 0.21383638846854236 0.18471395738772675 -0.183348912936373 -0.0013650444513538117 0.02059558407761284 0.0 0.0
0.0 0.2006300992717541 0.17323054593363515 -0.17179550898826584 -0.001435036945369235 0.02553164953645803 0.0 0.0
0.0 0.18263997652392855 0.15764100923068025 -0.15614884167933138 -0.0014921675513488903 0.027423857794207536 0.0 0.0
0.0 0.16196265820484157 0.13975553230607488 -0.1382516645580959 -0.001503867747979071 0.027233827654837676 0.0 0.0
0.0 0.1402186488851957 0.12103120116310548 -0.11955542497229114 -0.001475776190814202 0.025568036142990185 0.0 0.0
0.0 0.11886958616386188 0.10244418338405512 -0.10102136294861308 -0.0014228204354421225 0.023030546481724347 0.0 0.0
0.0 0.09829550033901069 0.08461610627206408 -0.08326100546295358 -0.0013551008091105962 0.020131403137405756 0.0 0.0
0.0 0.07870431451650646 0.06794253471894102 -0.06666504480127687 -0.001277489917664095 0.01713879002256965 0.0 0.0
0.0 0.06109743971352241 0.05267432989069007 -0.05148046934613216 -0.0011938605445579945 0.014123465695240095 0.0 0.0
0.0 0.045115501643753 0.03900549751677206 -0.037893687409720746 -0.0011118101070512751 0.011067340601172575 0.0 0.0
0.0 0.0312934624144344 0.027130220278028864 -0.026095986211399417 -0.001034234066629425 0.008026134912614249 0.0 0.0
0.0 0.019784190792001298 0.017289250025510017 -0.016334834934462902 -0.0009544150910471051 0.0052165120127495995 0.0 0.0
0.0 0.010962335302378775 0.009709066651455874 -0.008862134688092322 -0.0008469319633635482 0.0029014090111903054 0.0 0.0
0.0 0.005038429899034315 0.004456353096724924 -0.003807991820722318 -0.000648361276002604 0.0012038799100947076 0.0 0.0
0.0 0.0015659805828839742 0.0014126527411856924 -0.0010963131992725366 -0.0003163395419131543 0.0002979954141710702 0.0 0.0
0.0 0.00019095058555260795 0.0001667443881915031 -0.00011702108479807601 -4.972330339342676e-05 4.314342755911815e-06 0.0 0.0
0.0 -7.875439353943824e-06 -7.055944360736187e-06 5.614771439597749e-06 1.4411729211384657e-06 -5.839396756383027e-06 0.0 0.0
0.0 0.0 0.0 0.0 0.0 0.0 0.0 0.0
0.0 0.0024804032017559977 0.0014987017824345267 -0.0008400610716237523 -0.000658640710810777 0.004239393429611712 0.0 0.0
0.0 0.010080791930960394 0.007283668651735329 -0.009737522567661649 0.002453853915926305 0.0038983640170124237 0.0 0.0
0.0 0.007530665425889276 0.005408258547379976 -0.007358497860322339 0.0019502393129423744 -0.003344685317930636 0.0 0.0
0.0 0.0019893655724627863 0.001018214535008505 -0.0005609152255539158 -0.00045729930945458976 -0.003134875684593408 0.0 0.0
0.0 0.0 0.0 0.0 0.0 0.0 0.0 0.0
0.0 -8.419517046581847e-07 -8.406078041547532e-07 6.725421030470631e-07 1.6806570110769361e-07 1.1873424458400546e-06 0.0 0.0
0.0 1.99687057455029e-05 3.302317160290464e-05 -1.984103210404035e-05 -1.3182139498864327e-05 1.2750535860826127e-05 0.0 0.0
0.0 0.0009606475717897159 0.0008338305042220697 -0.0006296734643268572 -0.00020415703989521292 -0.0003013655020521489 0.0 0.0
0.0 0.003768103220229081 0.0031993088084250406 -0.0026609535537209014 -0.000538355254704133 -0.0012857465865778793 0.0 0.0
0.0 0.008653957863931746 0.007591987289609579 -0.006816430109059309 -0.0007755571805502751 -0.00322394220420093 0.0 0.0
0.0 0.016290303280732357 0.014094288766327161 -0.013202996831192951 -0.0008912919351342245 -0.005983359100842299 0.0 0.0
0.0 0.026264339885460876 0.02257695343507106 -0.02161070432680964 -0.0009662491082614022 -0.009279745534779425 0.0 0.0
0.0 0.038281347466727116 0.03279919322831995 -0.03176172554443491 -0.0010374676838850664 -0.012827926243063916 0.0 0.0
0.0 0.05205651904152735 0.044531842651101175 -0.04341815542075031 -0.001113687230350854 -0.01638932631956525 0.0 0.0
0.0 0.06745270099059728 0.057614040552926994 -0.05642209783251139 -0.001191942720415572 -0.019908295117583956 0.0 0.0
0.0 0.08392124373976649 0.07191423011687628 -0.0706483494285442 -0.0012658806883321305 -0.023394448000204807 0.0 0.0
0.0 0.1018744473352488 0.08724443974226193 -0.08591383763836302 -0.0013306021038988717 -0.026745239234917475 0.0 0.0
0.0 0.12064365343384112 0.10332393557448188 -0.10194078862558537 -0.0013831469488965503 -0.029698678786142026 0.0 0.0
0.0 0.1394493421920397 0.11968949606735309 -0.1182734124658641 -0.0014160836014890802 -0.0318104902770323 0.0 0.0
0.0 0.15774172140788223 0.1355448307376322 -0.13412898100519915 -0.001415849732432894 -0.03239143476529704 0.0 0.0
0.0 0.1739832906215199 0.1496709572183044 -0.14829368478909366 -0.0013772724292104481 -0.030298525721196252 0.0 0.0
0.0 0.18636375198890667 0.16053231112693714 -0.15920718042521168 -0.0013251307017255142 -0.023943989690665312 0.0 0.0
0.0 0.19338385465133437 0.16556754207477678 -0.1648449947373777 -0.0007225473373989301 3.015209609769087e-14 0.0 0.0
0.0 0.18636375198888291 0.1605323111269135 -0.15920718042518722 -0.0013251307017262339 0.02394398969073594 0.0 0.0
0.0 0.1739832906214723 0.14967095721825938 -0.14829368478904964 -0.0013772724292095279 0.03029852572126434 0.0 0.0
0.0 0.15774172140781442 0.13554483073757226 -0.13412898100513904 -0.0014158497324332404 0.03239143476533795 0.0 0.0
0.0 0.1394493421919579 0.11968949606728264 -0.1182734124657941 -0.0014160836014885222 0.0318104902770406 0.0 0.0
0.0 0.12064365343376274 0.10332393557441344 -0.1019407886255182 -0.0013831469488952133 0.029698678786131888 0.0 0.0
0.0 0.1018744473351556 0.08724443974218123 -0.08591383763828316 -0.0013306021038981466 0.02674523923490335 0.0 0.0
0.0 0.08392124373966998 0.07191423011679296 -0.07064834942846092 -0.0012658806883319741 0.023394448000191782 0.0 0.0
0.0 0.0674527009905119 0.05761404055285346 -0.05642209783243831 -0.0011919427204150602 0.01990829511756648 0.0 0.0
0.0 0.05205651904144817 0.044531842651033125 -0.04341815542068299 -0.00111368723035005 0.01638932631954127 0.0 0.0
0.0 0.03828134746665668 0.03279919322826018 -0.031761725544375854 -0.0010374676838843405 0.012827926243036547 0.0 0.0
0.0 0.02626433988540292 0.022576953435021672 -0.021610704326760637 -0.0009662491082610132 0.00927974553475632 0.0 0.0
0.0 0.016290303280687986 0.014094288766289107 -0.013202996831155327 -0.0008912919351337789 0.0059833591008260755 0.0 0.0
0.0 0.00865395786390393 0.00759198728958553 -0.00681643010903619 -0.0007755571805493464 0.0032239422041897402 0.0 0.0
0.0 0.0037681032202113154 0.003199308808410541 -0.0026609535537079026 -0.0005383552547026358 0.0012857465865712325 0.0 0.0
0.0 0.0009606475717819156 0.000833830504216 -0.0006296734643220045 -0.0002041570398939964 0.00030136550204917735 0.0 0.0
0.0 1.9968705744368855e-05 3.302317160228357e-05 -1.98410321036252e-05 -1.3182139498658486e-05 -1.275053586066882e-05 0.0 0.0
0.0 -8.419517047574009e-07 -8.406078041871134e-07 6.725421030716584e-07 1.6806570111543822e-07 -1.1873424458915945e-06 0.0 0.0
0.0 0.0 0.0 0.0 0.0 0.0 0.0 0.0
0.0 0.0019893655724548638 0.0010182145350045057 -0.000560915225551214 -0.00045729930945328997 0.0031348756845827903 0.0 0.0
0.0 0.007530665425871438 0.00540825854736596 -0.007358497860304489 0.0019502393129385198 0.003344685317919301 0.0 0.0
0.0 0.005582731095022245 0.003892881859882448 -0.005387674230504039 0.0014947923706215855 -0.0026311524574180547 0.0 0.0
0.0 0.001286243417268573 0.0006619636603765643 -0.0003583120529926838 -0.00030365160738387843 -0.002220233944119833 0.0 0.0
0.0 0.0 0.0 0.0 0.0 0.0 0.0 0.0
0.0 -3.368114688446012e-07 1.0454356099941062e-07 -7.798690230381457e-08 -2.655665869559594e-08 -1.588547663305884e-07 0.0 0.0
0.0 -2.6119643049147075e-05 -1.74594863074214e-05 1.537282735971992e-05 2.0866589477014696e-06 3.458922448206264e-05 0.0 0.0
0.0 0.0004581833446478267 0.00041731542891721313 -0.00030682536206234933 -0.00011049006685486448 -0.0002368075338081632 0.0 0.0
0.0 0.002406885533954422 0.0021182982667769467 -0.0017102365114559594 -0.0004080617553209866 -0.0012270297144507277 0.0 0.0
0.0 0.0067490111503762055 0.0055755924598755585 -0.004896886913678651 -0.0006787055461969006 -0.003165914195729468 0.0 0.0
0.0 0.01274574686891015 0.01096242276339077 -0.010145923553824071 -0.0008164992095667072 -0.006125896736632486 0.0 0.0
0.0 0.02132435264742133 0.018062088690702468 -0.01717095695484969 -0.0008911317358527849 -0.009692975902341347 0.0 0.0
0.0 0.03145920715176995 0.026615866656606445 -0.025659478924855036 -0.0009563877317513986 -0.01350239540072857 0.0 0.0
0.0 0.04301529710083694 0.03640289274311357 -0.03537616487224815 -0.0010267278708653617 -0.017323833973928403 0.0 0.0
0.0 0.05584374615315886 0.047294058767184115 -0.04619436959190174 -0.0010996891752824089 -0.021100207316573198 0.0 0.0
0.0 0.06992379957955289 0.0592069676994726 -0.05803860718342798 -0.0011683605160446194 -0.02484176639007618 0.0 0.0
0.0 0.08488864365070733 0.07203215208149709 -0.07080234873385925 -0.001229803347637899 -0.02844170816576533 0.0 0.0
0.0 0.10054533122994776 0.08557498591043822 -0.08429315653625043 -0.0012818293741877428 -0.031633371515482844 0.0 0.0
0.0 0.11701922784637356 0.09951161250038675 -0.09819110711629497 -0.0013205053840917112 -0.03404851757619293 0.0 0.0
0.0 0.13285805010878074 0.11330616078282382 -0.11196817049102092 -0.0013379902918029588 -0.03503439911719697 0.0 0.0
0.0 0.14727672531488256 0.1260571365636303 -0.12473680312464665 -0.0013203334389836122 -0.03316225576094564 0.0 0.0
0.0 0.15910637492467872 0.13648102439925827 -0.13520333604872625 -0.0012776883505320267 -0.02631010967068654 0.0 0.0
0.0 0.1666447121617703 0.14175187389246868 -0.1412554787648354 -0.0004963951276331662 3.235779699739538e-14 0.0 0.0
0.0 0.1591063749246606 0.1364810243992382 -0.13520333604870563 -0.001277688350532525 0.026310109670759453 0.0 0.0
0.0 0.14727672531483804 0.12605713656358783 -0.12473680312460358 -0.0013203334389842599 0.03316225576101427 0.0 0.0
0.0 0.13285805010872595 0.11330616078277353 -0.11196817049097135 -0.0013379902918021012 0.03503439911724017 0.0 0.0
0.0 0.11701922784630774 0.09951161250032989 -0.09819110711623918 -0.0013205053840906868 0.0340485175762004 0.0 0.0
0.0 0.10054533122987369 0.08557498591037432 -0.0842931565361865 -0.0012818293741879514 0.031633371515470736 0.0 0.0
0.0 0.08488864365062673 0.07203215208142742 -0.0708023487337899 -0.0012298033476374971 0.02844170816575093 0.0 0.0
0.0 0.0699237995794728 0.05920696769940359 -0.05803860718335885 -0.001168360516044744 0.02484176639006016 0.0 0.0
0.0 0.05584374615308703 0.04729405876712285 -0.04619436959184099 -0.0010996891752818676 0.021100207316555417 0.0 0.0
0.0 0.04301529710076873 0.03640289274305596 -0.03537616487219079 -0.0010267278708651468 0.01732383397390306 0.0 0.0
0.0 0.03145920715171144 0.026615866656558046 -0.025659478924806835 -0.0009563877317512195 0.0135023954007003 0.0 0.0
0.0 0.021324352647369642 0.01806208869065883 -0.017170956954806686 -0.0008911317358521402 0.009692975902314882 0.0 0.0
0.0 0.012745746868873961 0.010962422763359871 -0.010145923553793684 -0.0008164992095662043 0.006125896736614487 0.0 0.0
0.0 0.0067490111503510425 0.005575592459855281 -0.0048968869136593205 -0.0006787055461959583 0.003165914195717429 0.0 0.0
0.0 0.0024068855339404336 0.0021182982667656424 -0.0017102365114461892 -0.0004080617553194532 0.0012270297144436142 0.0 0.0
0.0 0.00045818334464218006 0.000417315428912987 -0.000306825362059111 -0.00011049006685387571 0.00023680753380512766 0.0 0.0
0.0 -2.6119643049620573e-05 -1.7459486307062602e-05 1.5372827359410804e-05 2.0866589476517797e-06 -3.4589224481383e-05 0.0 0.0
0.0 -3.368114687433486e-07 1.045435609569461e-07 -7.798690226997326e-08 -2.6556658686969642e-08 1.5885476625382163e-07 0.0 0.0
0.0 0.0 0.0 0.0 0.0 0.0 0.0 0.0
0.0 0.001286243417262391 0.000661963660373645 -0.00035831205299074434 -0.00030365160738289967 0.0022202339441115453 0.0 0.0
0.0 0.005582731095007789 0.0038928818598710836 -0.005387674230489268 0.0014947923706181809 0.002631152457409933 0.0 0.0
0.0 0.003827984225505895 0.0026758709048370784 -0.003762127196102054 0.0010862562912649701 -0.001978619537765041 0.0 0.0
0.0 0.0008406555382325553 0.00038745662811627796 -0.00019785085251162825 -0.0001896057756046495 -0.0014587801111144393 0.0 0.0
0.0 1.5734592941222573e-07 7.148379167026532e-10 -7.331624633568543e-11 -6.415216703671971e-10 3.250372699491736e-08 0.0 0.0
0.0 1.2571708127348112e-07 -8.007650893369477e-09 4.908202113872983e-09 3.0994487794936646e-09 8.594923244395147e-08 0.0 0.0
0.0 -2.4506424516381292e-05 -1.5806128968744044e-05 1.2739918492652643e-05 3.0662104760914616e-06 3.2822622479437657e-05 0.0 0.0
0.0 0.0001663560248334182 0.00014319406383642757 -0.00010159884377546817 -4.1595220060959436e-05 -0.00011876374674281406 0.0 0.0
0.0 0.0014749867300289472 0.001218090067204157 -0.0009549278149192173 -0.0002631622522849399 -0.0010092007776611076 0.0 0.0
0.0 0.004484355267318038 0.003760482748984879 -0.003211670771916303 -0.0005488119770685717 -0.002851167407642967 0.0 0.0
0.0 0.00987861828136196 0.007941936489557648 -0.007221462143161897 -0.0007204743463957527 -0.005675199639493033 0.0 0.0
0.0 0.016326708894223312 0.013637045600330057 -0.01283341075453988 -0.0008036348457901822 -0.009247202383904635 0.0 0.0
0.0 0.02471100436123471 0.02050639335222193 -0.019640421750354888 -0.0008659716018670422 -0.013077405219290367 0.0 0.0
0.0 0.03407716500454294 0.02833922001015589 -0.02740890203643516 -0.0009303179737207481 -0.0169181917927839 0.0 0.0
0.0 0.044406959095598046 0.03703417914633579 -0.03603706509789857 -0.0009971140484371526 -0.020703348385806834 0.0 0.0
0.0 0.055695898612225826 0.04655748057343361 -0.045496350380371024 -0.0010611301930626646 -0.024456233264228393 0.0 0.0
0.0 0.06781862632005516 0.05686281126635801 -0.05574453733863289 -0.001118273927725056 -0.02808520535166887 0.0 0.0
0.0 0.08094710988127053 0.06783422955668165 -0.06666750401389226 -0.0011667255427894707 -0.031334636411109215 0.0 0.0
0.0 0.09394260441580743 0.0792831507227851 -0.07807081177569779 -0.0012123389470873058 -0.03386893229425665 0.0 0.0
0.0 0.10761894141093788 0.09092697072912923 -0.08967480866963995 -0.001252162059489141 -0.035216501624426216 0.0 0.0
0.0 0.1207498968552063 0.10227087890086424 -0.10101101643433008 -0.0012598624665343516 -0.03400323408782269 0.0 0.0
0.0 0.13199832100173625 0.11234880690981455 -0.11112313580567537 -0.001225671104139175 -0.027675154464625238 0.0 0.0
0.0 0.1403489657926029 0.11796643322539702 -0.11772887585010902 -0.00023755737528806208 3.15936513062276e-14 0.0 0.0
0.0 0.13199832100172823 0.11234880690980102 -0.11112313580566278 -0.001225671104138282 0.027675154464698933 0.0 0.0
0.0 0.12074989685516777 0.10227087890082621 -0.10101101643429145 -0.0012598624665348134 0.0340032340878918 0.0 0.0
0.0 0.10761894141088618 0.09092697072908161 -0.08967480866959199 -0.0012521620594896697 0.03521650162446958 0.0 0.0
0.0 0.09394260441575845 0.07928315072274268 -0.07807081177565674 -0.0012123389470859315 0.03386893229426512 0.0 0.0
0.0 0.08094710988120281 0.06783422955662428 -0.066667504013834 -0.0011667255427903552 0.03133463641109358 0.0 0.0
0.0 0.06781862631998736 0.05686281126629953 -0.0557445373385744 -0.001118273927725089 0.028085205351651658 0.0 0.0
0.0 0.05569589861216366 0.04655748057338022 -0.045496350380318046 -0.0010611301930621457 0.024456233264212347 0.0 0.0
0.0 0.04440695909554148 0.03703417914628804 -0.03603706509785137 -0.0009971140484366793 0.02070334838578947 0.0 0.0
0.0 0.034077165004485425 0.02833922001010834 -0.02740890203638775 -0.0009303179737206274 0.01691819179275812 0.0 0.0
0.0 0.02471100436118778 0.020506393352183894 -0.01964042175031729 -0.0008659716018665978 0.013077405219262893 0.0 0.0
0.0 0.01632670889418118 0.01363704560029572 -0.012833410754505802 -0.000803634845789916 0.009247202383877662 0.0 0.0
0.0 0.009878618281332203 0.007941936489534162 -0.0072214621431392605 -0.0007204743463949043 0.005675199639477042 0.0 0.0
0.0 0.0044843552673006284 0.003760482748971105 -0.0032116707719032646 -0.0005488119770678362 0.0028511674076325284 0.0 0.0
0.0 0.0014749867300193314 0.0012180900671971476 -0.0009549278149134217 -0.0002631622522837259 0.0010092007776550571 0.0 0.0
0.0 0.00016635602483014035 0.00014319406383447964 -0.000101598843774004 -4.1595220060475726e-05 0.0001187637467407513 0.0 0.0
0.0 -2.450642451609811e-05 -1.5806128968177474e-05 1.2739918492208646e-05 3.0662104759688286e-06 -3.282262247817445e-05 0.0 0.0
0.0 1.2571708096831635e-07 -8.007650936226899e-09 4.9082021469254655e-09 3.0994487893028066e-09 -8.59492325514282e-08 0.0 0.0
0.0 1.5734592914948445e-07 7.148379181953433e-10 -7.331624793983198e-11 -6.415216702555217e-10 -3.250372694055046e-08 0.0 0.0
0.0 0.000840655538227758 0.0003874566281142681 -0.00019785085251033634 -0.00018960577560393137 0.001458780111108122 0.0 0.0
0.0 0.0038279842254947266 0.0026758709048283554 -0.003762127196090368 0.001086256291262011 0.001978619537759337 0.0 0.0
0.0 0.0028917892307954453 0.0016787289502638051 -0.0023960072927463275 0.0007172783424825204 -0.0013818038023856376 0.0 0.0
0.0 0.00039793497834679026 0.0001932964876506278 -8.669085931259275e-05 -0.00010660562833803504 -0.0008583855250305912 0.0 0.0
0.0 1.426914712400415e-06 1.0446618777511066e-07 -1.0786641606171606e-07 3.4002282866057806e-09 -2.1053825844923258e-06 0.0 0.0
0.0 -7.135427049348362e-07 -8.218095490768502e-09 5.585579773814085e-09 2.632515716954193e-09 -2.8670519908338685e-07 0.0 0.0
0.0 -1.2691617156729266e-05 -7.498851434646672e-06 6.02127453988638e-06 1.4775768947602914e-06 2.4051588127608254e-05 0.0 0.0
0.0 2.369326587811115e-05 1.877918053483369e-05 -1.1054151495036618e-05 -7.725029039797054e-06 -2.254135487860968e-05 0.0 0.0
0.0 0.0007303029658146524 0.0005516220353645161 -0.00042207611254764174 -0.00012954592281687395 -0.0006941291580817421 0.0 0.0
0.0 0.0027287108012851798 0.002178777307517816 -0.0018016635142701371 -0.0003771137932476788 -0.0022830675199060793 0.0 0.0
0.0 0.006474565753788099 0.0051538761742155985 -0.004568288617174102 -0.0005855875570414972 -0.00476676045250426 0.0 0.0
0.0 0.011955715998040847 0.009363651879325974 -0.008671798958483194 -0.000691852920842778 -0.007971197228786529 0.0 0.0
0.0 0.01807214199711502 0.014527670709700194 -0.013770517876097772 -0.0007571528336024137 -0.011540242271008702 0.0 0.0
0.0 0.025169080213759437 0.020402603292765584 -0.019584602146926575 -0.0008180011458390268 -0.015144044706892549 0.0 0.0
0.0 0.033062538392417094 0.026901036797549568 -0.026022339297851717 -0.0008786974996978457 -0.018695137930387195 0.0 0.0
0.0 0.04162718954263056 0.03402669064643452 -0.033090401676529754 -0.0009362889699047289 -0.022210899342568684 0.0 0.0
0.0 0.051011973217423234 0.0417971795187527 -0.040807594567105934 -0.0009895849516467488 -0.025644502780865625 0.0 0.0
0.0 0.06093600415640119 0.05018098342421017 -0.049145349069505975 -0.001035634354704177 -0.028772121479001024 0.0 0.0
0.0 0.07157330488283604 0.05907432722646414 -0.05799383595150405 -0.0010804912749601148 -0.031239910053199798 0.0 0.0
0.0 0.08237663564806734 0.06842734515839857 -0.06728580729512178 -0.0011415378632766433 -0.03275442415251456 0.0 0.0
0.0 0.09342735197431246 0.07820651504798043 -0.07701659669265304 -0.0011899183553273189 -0.0325178146039262 0.0 0.0
0.0 0.10444362698216189 0.08790958334400427 -0.08673610439736658 -0.0011734789466376846 -0.02784939122820067 0.0 0.0
0.0 0.11401847561223932 0.09396872338738207 -0.09402669681015904 5.79734227769653e-05 2.7036532734836527e-14 0.0 0.0
0.0 0.10444362698215495 0.08790958334399078 -0.08673610439735285 -0.0011734789466378553 0.027849391228269012 0.0 0.0
0.0 0.09342735197428614 0.07820651504795155 -0.07701659669262405 -0.0011899183553274613 0.032517814603993826 0.0 0.0
0.0 0.08237663564802802 0.06842734515836178 -0.06728580729508477 -0.001141537863276907 0.03275442415255462 0.0 0.0
0.0 0.07157330488279694 0.05907432722643028 -0.05799383595147242 -0.0010804912749578404 0.03123991005320483 0.0 0.0
0.0 0.060936004156353085 0.050180983424169656 -0.049145349069465875 -0.001035634354703832 0.028772121478985217 0.0 0.0
0.0 0.051011973217377056 0.04179717951871346 -0.04080759456706709 -0.0009895849516463214 0.025644502780850793 0.0 0.0
0.0 0.041627189542586415 0.03402669064639685 -0.033090401676492735 -0.0009362889699041227 0.022210899342555317 0.0 0.0
0.0 0.03306253839237589 0.026901036797515536 -0.026022339297818147 -0.0008786974996973834 0.018695137930372266 0.0 0.0
0.0 0.02516908021371732 0.020402603292731275 -0.0195846021468924 -0.0008180011458388579 0.015144044706869766 0.0 0.0
0.0 0.018072141997077202 0.014527670709670705 -0.013770517876069017 -0.0007571528336016741 0.011540242270982003 0.0 0.0
0.0 0.011955715998009882 0.009363651879302184 -0.008671798958459482 -0.000691852920842699 0.007971197228763823 0.0 0.0
0.0 0.006474565753766119 0.005153876174198557 -0.004568288617157919 -0.0005855875570406429 0.0047667604524894965 0.0 0.0
0.0 0.0027287108012727353 0.002178777307508242 -0.0018016635142617146 -0.00037711379324652884 0.002283067519897112 0.0 0.0
0.0 0.0007303029658092408 0.0005516220353608512 -0.0004220761125447511 -0.00012954592281609958 0.0006941291580767915 0.0 0.0
0.0 2.3693265876416293e-05 1.87791805343574e-05 -1.1054151494691992e-05 -7.725029039665358e-06 2.2541354877959026e-05 0.0 0.0
0.0 -1.2691617157740581e-05 -7.498851434455509e-06 6.021274539742206e-06 1.4775768947132768e-06 -2.405158812689364e-05 0.0 0.0
0.0 -7.135427049819117e-07 -8.218095410519e-09 5.5855797207588365e-09 2.632515689759655e-09 2.8670520015424593e-07 0.0 0.0
0.0 1.4269147121276047e-06 1.0446618777442308e-07 -1.0786641606906637e-07 3.4002282946437527e-09 2.1053825847253945e-06 0.0 0.0
0.0 0.0003979349783433298 0.00019329648764922366 -8.669085931167883e-05 -0.0001066056283375451 0.0008583855250256045 0.0 0.0
0.0 0.0028917892307857105 0.0016787289502576933 -0.002396007292737859 0.0007172783424801653 0.001381803802381659 0.0 0.0
0.0 0.0015633429509688784 0.0009555744094486708 -0.0013844228988289199 0.00042884848938024917 -0.0009423354764509861 0.0 0.0
0.0 0.00016658089782926904 6.27737897534136e-05 -8.390773560142927e-06 -5.438301619327021e-05 -0.00039735721459767956 0.0 0.0
0.0 3.671184278993167e-06 4.9376772556752896e-08 -5.7963925741362624e-08 8.587153184610791e-09 -1.0539155394714775e-06 0.0 0.0
0.0 1.2109736056131045e-06 -2.168847316121143e-07 1.710399904312795e-07 4.584474118083475e-08 8.903671467671191e-07 0.0 0.0
0.0 -8.308239067379804e-06 -3.5451685512010406e-06 2.855715296343388e-06 6.894532548576538e-07 1.61293636788167e-05 0.0 0.0
0.0 -1.2879063891582637e-05 -6.412739267924139e-06 6.197565632808918e-06 2.1517363511525486e-07 5.173794459785199e-06 0.0 0.0
0.0 0.0002862007770701478 0.00015063701945104192 -0.00011420209540731546 -3.64349240437269e-05 -0.00035748090205744645 0.0 0.0
0.0 0.0014135363787249517 0.000915814327289045 -0.0007389508354868055 -0.00017686349180223905 -0.0015054720034186032 0.0 0.0
0.0 0.003682021751976112 0.002669738503821112 -0.002292329732651925 -0.0003774087711691854 -0.003464505798319297 0.0 0.0
0.0 0.0072605555870656185 0.005373711939161256 -0.004853114802839859 -0.0005205971363213989 -0.0060046389434653775 0.0 0.0
0.0 0.011488002366021915 0.008781567164260963 -0.008176159687885603 -0.0006054074763753574 -0.008949007349183035 0.0 0.0
0.0 0.016462287710252595 0.01267608885575389 -0.012008521771429302 -0.0006675670843245824 -0.012007305595936376 0.0 0.0
0.0 0.021872485766880136 0.016978135622417907 -0.016253526060066532 -0.0007246095623513628 -0.015085474567358006 0.0 0.0
0.0 0.027760801215803464 0.021706347186819772 -0.020930811689202043 -0.0007755354976177451 -0.018143307458125653 0.0 0.0
0.0 0.03425481165732845 0.026923874440083456 -0.026099882663448322 -0.0008239917766351291 -0.021147784928585867 0.0 0.0
0.0 0.04138857151426881 0.032690122686115014 -0.0318196633909456 -0.0008704592951693655 -0.023988522972053408 0.0 0.0
0.0 0.04905118869814106 0.0390070566097469 -0.038092070381741845 -0.0009149862280050383 -0.026338588726938134 0.0 0.0
0.0 0.057054176908560156 0.04592082168521822 -0.04494307951940332 -0.0009777421658149748 -0.02780730256158609 0.0 0.0
0.0 0.06610726740568586 0.0537964299568432 -0.052720575395062114 -0.0010758545617810481 -0.028269846906494277 0.0 0.0
0.0 0.07668587218756512 0.06289500038989196 -0.061775722160907556 -0.0011192782289844235 -0.026311669843174276 0.0 0.0
0.0 0.08775909497292177 0.06947081757033818 -0.06986421588951634 0.00039339831917808174 2.4609654591944974e-14 0.0 0.0
0.0 0.07668587218756873 0.06289500038988635 -0.0617757221609007 -0.0011192782289856217 0.02631166984323669 0.0 0.0
0.0 0.06610726740567638 0.053796429956828144 -0.05272057539504762 -0.0010758545617804971 0.028269846906558756 0.0 0.0
0.0 0.05705417690853606 0.045920821685196 -0.044943079519380175 -0.000977742165815796 0.027807302561619257 0.0 0.0
0.0 0.04905118869810535 0.03900705660971842 -0.03809207038171439 -0.0009149862280040559 0.026338588726934183 0.0 0.0
0.0 0.04138857151423444 0.03269012268608749 -0.03181966339091804 -0.0008704592951694241 0.023988522972036075 0.0 0.0
0.0 0.03425481165729871 0.0269238744400589 -0.026099882663424175 -0.000823991776634732 0.02114778492857351 0.0 0.0
0.0 0.027760801215776596 0.02170634718679742 -0.020930811689179814 -0.0007755354976176326 0.018143307458116688 0.0 0.0
0.0 0.021872485766855475 0.016978135622398464 -0.01625352606004736 -0.0007246095623510735 0.015085474567346591 0.0 0.0
0.0 0.01646228771022373 0.012676088855732267 -0.012008521771408057 -0.0006675670843242058 0.012007305595917103 0.0 0.0
0.0 0.011488002365995632 0.008781567164241643 -0.008176159687866549 -0.0006054074763750871 0.00894900734916078 0.0 0.0
0.0 0.007260555587044484 0.005373711939146103 -0.004853114802825219 -0.0005205971363208889 0.006004638943447467 0.0 0.0
0.0 0.003682021751961536 0.0026697385038104557 -0.002292329732642181 -0.0003774087711682731 0.003464505798307852 0.0 0.0
0.0 0.0014135363787159691 0.0009158143272831318 -0.000738950835481772 -0.00017686349180136008 0.0015054720034099619 0.0 0.0
0.0 0.0002862007770659685 0.00015063701944949433 -0.00011420209540611517 -3.643492404337885e-05 0.0003574809020542352 0.0 0.0
0.0 -1.2879063892103146e-05 -6.412739267733487e-06 6.197565632667762e-06 2.1517363506566146e-07 -5.1737944591270006e-06 0.0 0.0
0.0 -8.308239068389882e-06 -3.5451685510227288e-06 2.8557152962071597e-06 6.894532548155792e-07 -1.61293636775534e-05 0.0 0.0
0.0 1.2109736053738276e-06 -2.1688473165062144e-07 1.7103999046283767e-07 4.584474118778456e-08 -8.903671468676573e-07 0.0 0.0
0.0 3.6711842783310286e-06 4.93767725943665e-08 -5.796392578042665e-08 8.58715318606088e-09 1.0539155406829976e-06 0.0 0.0
0.0 0.00016658089782649029 6.277378975273407e-05 -8.390773559773403e-06 -5.4383016192960165e-05 0.000397357214594904 0.0 0.0
0.0 0.0015633429509616442 0.0009555744094444386 -0.0013844228988228891 0.00042884848937844875 0.0009423354764478761 0.0 0.0
0.0 0.0007899386567198188 0.00043676555910126467 -0.000639834865420087 0.00020306930631882317 -0.0005295180011020271 0.0 0.0
0.0 1.4071962262983125e-05 -4.3899936636355744e-06 2.7943318364032822e-05 -2.35533247003974e-05 -9.230409777279168e-05 0.0 0.0
0.0 4.465021216346528e-06 9.482546012237138e-08 -1.9881672769476714e-07 1.0399126757239609e-07 -5.613404606792195e-06 0.0 0.0
0.0 2.7785465049304656e-06 -2.2800775134208115e-07 2.085051166127069e-07 1.9502634729372145e-08 -4.483507726792768e-06 0.0 0.0
0.0 -3.5939729800523437e-06 -1.55991733561351e-06 1.336245191494529e-06 2.2367214411898755e-07 9.527140708918506e-06 0.0 0.0
0.0 2.200403033248125e-06 -3.864947431363214e-06 3.525101265015498e-06 3.398461663476945e-07 -1.2332295121698612e-06 0.0 0.0
0.0 0.00011582869691346456 1.613190493353283e-05 -1.2087709717232376e-05 -4.0441952163004305e-06 -0.00017570522224478503 0.0 0.0
0.0 0.0004740020554840756 0.0001494698697481297 -0.00012618533942573756 -2.32845303223922e-05 -0.000716499681396307 0.0 0.0
0.0 0.0014050882320275852 0.000668190100768421 -0.0005903034622849082 -7.78866384835118e-05 -0.0018946273315200992 0.0 0.0
0.0 0.003144096019088467 0.0018160188259467996 -0.0016424824795353325 -0.0001735363464114689 -0.003642726292178147 0.0 0.0
0.0 0.005628299070249225 0.0034394839001909644 -0.003168016732809148 -0.0002714671673818109 -0.00570746616719115 0.0 0.0
0.0 0.008248550706463752 0.005339448299593861 -0.004988702271748653 -0.00035074602784521304 -0.008018344410545865 0.0 0.0
0.0 0.011296447117459313 0.007443138643614235 -0.007028698940288079 -0.00041443970332615584 -0.010463566775293483 0.0 0.0
0.0 0.01468381817060217 0.009780699936444964 -0.009312531458312682 -0.00046816847813228185 -0.0129863398715905 0.0 0.0
0.0 0.01843246060772094 0.012435172011417632 -0.01191451578505787 -0.0005206562263597642 -0.015567631375338132 0.0 0.0
0.0 0.022687437666200235 0.015538543384644977 -0.014961475857853719 -0.0005770675267912667 -0.01815592706702942 0.0 0.0
0.0 0.027602830199614396 0.019246728461286736 -0.018608988206587213 -0.0006377402546995261 -0.02052047619392735 0.0 0.0
0.0 0.0331963645047988 0.023692925160188474 -0.022994041436455746 -0.0006988837237327227 -0.02209443972854316 0.0 0.0
0.0 0.03964578289430999 0.029269383694886304 -0.028464041570603327 -0.0008053421242829783 -0.022485504384167014 0.0 0.0
0.0 0.04841780172111681 0.037100378620798784 -0.036109704679163336 -0.0009906739416354188 -0.022481588827412687 0.0 0.0
0.0 0.0627525537856875 0.044119824759047736 -0.04490193330933136 0.0007821085502836434 1.9661355876721132e-14 0.0 0.0
0.0 0.04841780172113101 0.03710037862079958 -0.03610970467916502 -0.0009906739416346132 0.0224815888274679 0.0 0.0
0.0 0.03964578289430765 0.02926938369487902 -0.028464041570596007 -0.0008053421242830082 0.022485504384215732 0.0 0.0
0.0 0.033196364504778364 0.023692925160172722 -0.0229940414364401 -0.0006988837237326082 0.02209443972856106 0.0 0.0
0.0 0.027602830199591588 0.01924672846127293 -0.01860898820657385 -0.0006377402546991024 0.020520476193919432 0.0 0.0
0.0 0.022687437666181 0.015538543384631405 -0.014961475857840412 -0.0005770675267909953 0.018155927067015045 0.0 0.0
0.0 0.018432460607703247 0.01243517201140518 -0.011914515785045132 -0.0005206562263600531 0.015567631375325377 0.0 0.0
0.0 0.014683818170589702 0.009780699936437168 -0.009312531458304773 -0.0004681684781324003 0.012986339871583142 0.0 0.0
0.0 0.011296447117448698 0.0074431386436085295 -0.007028698940282734 -0.00041443970332580207 0.01046356677528475 0.0 0.0
0.0 0.008248550706444995 0.005339448299582347 -0.00498870227173767 -0.00035074602784467403 0.008018344410528499 0.0 0.0
0.0 0.005628299070237292 0.00343948390018517 -0.0031680167328027612 -0.0002714671673824041 0.005707466167176538 0.0 0.0
0.0 0.0031440960190781938 0.0018160188259407452 -0.0016424824795294732 -0.00017353634641127078 0.0036427262921682195 0.0 0.0
0.0 0.0014050882320220655 0.0006681901007657891 -0.0005903034622822611 -7.788663848352798e-05 0.0018946273315129467 0.0 0.0
0.0 0.0004740020554800956 0.00014946986974637608 -0.0001261853394242211 -2.3284530322154954e-05 0.0007164996813913015 0.0 0.0
0.0 0.00011582869691167103 1.613190493341281e-05 -1.2087709717138995e-05 -4.044195216273837e-06 0.0001757052222433948 0.0 0.0
0.0 2.200403033090882e-06 -3.864947431112409e-06 3.5251012648172935e-06 3.39846166295122e-07 1.233229513612759e-06 0.0 0.0
0.0 -3.5939729811061573e-06 -1.5599173355765139e-06 1.336245191475177e-06 2.2367214410133056e-07 -9.527140708022438e-06 0.0 0.0
0.0 2.7785465051290618e-06 -2.2800775135859702e-07 2.0850511662875994e-07 1.950263472983767e-08 4.483507727458339e-06 0.0 0.0
0.0 4.465021216087066e-06 9.482546012414552e-08 -1.9881672770867892e-07 1.0399126758452982e-07 5.613404607393374e-06 0.0 0.0
0.0 1.4071962261601899e-05 -4.389993663743587e-06 2.7943318363985927e-05 -2.3553324700242313e-05 9.230409777140754e-05 0.0 0.0
0.0 0.0007899386567145703 0.00043676555909857563 -0.0006398348654161977 0.00020306930631762182 0.0005295180010992952 0.0 0.0
0.0 0.00022617774757878662 0.00013029712128810426 -0.00019374043866370852 6.344331737560389e-05 -0.00020136086769148074 0.0 0.0
0.0 -2.6397327128621553e-05 -1.598984967871876e-05 2.3882738862353152e-05 -7.89288918363433e-06 2.1944643323353968e-05 0.0 0.0
0.0 4.489521694698162e-06 1.9247246246761477e-07 -2.1389106704958854e-07 2.1418604581969598e-08 1.0900510737825818e-06 0.0 0.0
0.0 5.359164823072753e-06 -5.158514014845984e-07 4.314356531763139e-07 8.441574830828786e-08 -7.190717049997375e-06 0.0 0.0
0.0 9.85714386083781e-07 -7.541195268289112e-07 7.397558148866345e-07 1.4363711942276006e-08 -8.46520845053732e-07 0.0 0.0
0.0 1.1878707458462515e-05 -1.8257652100466194e-06 1.8874375211988162e-06 -6.167231115220203e-08 -1.2763583789746092e-05 0.0 0.0
0.0 0.00010968621603144374 -2.433146818125261e-06 2.4218597072076913e-06 1.1287110917570505e-08 -0.0001667230835740863 0.0 0.0
0.0 0.0002480444624608296 -1.6507241210097966e-06 1.6368442830828974e-06 1.3879837926909008e-08 -0.00043100460678197316 0.0 0.0
0.0 0.0005252373848505775 -1.1630035439908883e-06 1.1342428300524828e-06 2.8760713938314028e-08 -0.0008725264905680539 0.0 0.0
0.0 0.0009127927507819424 5.911662248786508e-08 -5.2780250415389914e-08 -6.33637207248872e-09 -0.00181701897609175 0.0 0.0
0.0 0.001847482818251886 -8.488578130783986e-07 1.115074233869396e-06 -2.662164207908077e-07 -0.0034496685336864895 0.0 0.0
0.0 0.0030513696307420935 -1.1876340765536793e-05 1.4704162007518878e-05 -2.8278212419827485e-06 -0.005557839573954409 0.0 0.0
0.0 0.004577360176887823 -3.121442996768342e-05 3.505455444705193e-05 -3.840124479367342e-06 -0.007811289990858117 0.0 0.0
0.0 0.006292903959559995 -3.4212735258859484e-05 3.3542973357216454e-05 6.697619016446561e-07 -0.010177455967102539 0.0 0.0
0.0 0.008168061343010754 6.872602027192202e-05 -8.537530832994746e-05 1.6649288058024573e-05 -0.012662134394331401 0.0 0.0
0.0 0.010153642675243402 0.00046478525528496147 -0.000511638387113039 4.685313182807322e-05 -0.0152468807970299 0.0 0.0
0.0 0.012281865822124972 0.001446573468585225 -0.0015425912694107158 9.601780082549332e-05 -0.01784043238252564 0.0 0.0
0.0 0.014473718245940903 0.0032652361768453065 -0.003479203242976788 0.0002139670661314874 -0.020200407992430777 0.0 0.0
0.0 0.017441557615600428 0.005616503464505618 -0.006009447852689436 0.0003929443881838284 -0.021924578632958894 0.0 0.0
0.0 0.024987183101004826 0.010833353702975595 -0.010544061734294232 -0.000289291968681374 -0.022885596509275238 0.0 0.0
0.0 0.0448337392896093 0.01862433271648203 -0.020035936709884333 0.0014116039934023057 1.4090291433621616e-14 0.0 0.0
0.0 0.024987183101015276 0.010833353702975383 -0.010544061734293196 -0.0002892919686821718 0.022885596509309134 0.0 0.0
0.0 0.01744155761559592 0.005616503464502914 -0.006009447852688141 0.0003929443881852222 0.02192457863297207 0.0 0.0
0.0 0.014473718245920753 0.003265236176841352 -0.0034792032429738296 0.00021396706613248005 0.020200407992425715 0.0 0.0
0.0 0.012281865822109486 0.0014465734685871635 -0.0015425912694138784 9.601780082671424e-05 0.01784043238251032 0.0 0.0
0.0 0.01015364267523051 0.00046478525528721444 -0.0005116383871158609 4.6853131828645134e-05 0.015246880797013099 0.0 0.0
0.0 0.00816806134299927 6.872602027419039e-05 -8.537530833197654e-05 1.6649288057787512e-05 0.012662134394319735 0.0 0.0
0.0 0.006292903959552322 -3.421273525499181e-05 3.3542973353295437e-05 6.697619016950715e-07 0.010177455967091596 0.0 0.0
0.0 0.004577360176876107 -3.1214429962663675e-05 3.5054554441289396e-05 -3.840124478624447e-06 0.0078112899908420845 0.0 0.0
0.0 0.003051369630727885 -1.1876340763462606e-05 1.4704162005444094e-05 -2.827821241982708e-06 0.005557839573936904 0.0 0.0
0.0 0.0018474828182462105 -8.4885781050949e-07 1.115074230809669e-06 -2.662164202997725e-07 0.0034496685336774984 0.0 0.0
0.0 0.000912792750780321 5.9116621842751236e-08 -5.2780249760382724e-08 -6.336372082443051e-09 0.0018170189760903517 0.0 0.0
0.0 0.0005252373848491798 -1.1630035443787142e-06 1.1342428303148292e-06 2.87607140637901e-08 0.0008725264905657177 0.0 0.0
0.0 0.00024804446245867465 -1.6507241209897016e-06 1.6368442831130983e-06 1.387983787657704e-08 0.0004310046067781347 0.0 0.0
0.0 0.00010968621602964272 -2.433146818105729e-06 2.4218597071833124e-06 1.1287110922458944e-08 0.00016672308357265547 0.0 0.0
0.0 1.1878707457628369e-05 -1.825765210019786e-06 1.887437521173196e-06 -6.167231115342214e-08 1.2763583790164627e-05 0.0 0.0
0.0 9.85714385549315e-07 -7.541195268619088e-07 7.397558149153715e-07 1.4363711946542874e-08 8.465208459870098e-07 0.0 0.0
0.0 5.359164822219452e-06 -5.158514015450099e-07 4.314356532305759e-07 8.441574831443413e-08 7.190717050922245e-06 0.0 0.0
0.0 4.489521693817045e-06 1.924724624571987e-07 -2.1389106704349892e-07 2.1418604586308915e-08 -1.0900510732868323e-06 0.0 0.0
0.0 -2.6397327128530663e-05 -1.5989849678438078e-05 2.3882738861968925e-05 -7.892889183530888e-06 -2.194464332205387e-05 0.0 0.0
0.0 0.00022617774757630854 0.00013029712128720758 -0.0001937404386624082 6.344331737520094e-05 0.0002013608676902628 0.0 0.0
0.0 1.286861654627851e-05 5.672351368308263e-06 -9.266439550935655e-06 3.594088182627357e-06 -9.146969548064031e-06 0.0 0.0
0.0 -2.599451700952359e-06 -1.2233531933842395e-06 1.7759944626336427e-06 -5.526412692494041e-07 5.148195449078652e-06 0.0 0.0
0.0 1.492121589470196e-06 2.1314551142548526e-07 -3.020778344836024e-07 8.893232305811736e-08 -2.707342574363854e-06 0.0 0.0
0.0 7.444313901594278e-06 -6.590683514784428e-07 5.234265173600564e-07 1.35641834118385e-07 -8.351954813015796e-06 0.0 0.0
0.0 5.513446059605328e-06 -1.0252394207200267e-06 9.649673612412337e-07 6.0272059478792e-08 -9.344264125166067e-06 0.0 0.0
0.0 1.888725316635631e-05 -3.5628826558802147e-06 3.3449827355349266e-06 2.1789992034533955e-07 -3.720005645775154e-05 0.0 0.0
0.0 0.00015273332225439537 -2.5244298421316024e-05 2.0426485581823053e-05 4.817812839492902e-06 -0.000202481706279814 0.0 0.0
0.0 0.0004945217162930728 -0.00015819444853126748 0.00013383355932230787 2.4360889208959388e-05 -0.0007387183466772 0.0 0.0
0.0 0.0014112934646112818 -0.0006711477220808042 0.0005927444028154265 7.840331926537731e-05 -0.0019047791932078873 0.0 0.0
0.0 0.003143536575800029 -0.001815926328053884 0.0016423242045571558 0.00017360212349672882 -0.0036438111867317146 0.0 0.0
0.0 0.005647405474235874 -0.0034461531883123123 0.0031737410895354623 0.0002724120987768463 -0.005707582428582992 0.0 0.0
0.0 0.008300000375954561 -0.005375480202746998 0.005020949707445086 0.00035453049530191096 -0.008027554898410958 0.0 0.0
0.0 0.011378266507089077 -0.007519657759026301 0.007101757826639106 0.000417899932387189 -0.010467482821413293 0.0 0.0
0.0 0.014731691139544546 -0.00984069501467515 0.009380066016149931 0.0004606289985252249 -0.012968090344224236 0.0 0.0
0.0 0.01814489725279747 -0.012219706213518275 0.011739545864632306 0.0004801603488859708 -0.015544162641461814 0.0 0.0
0.0 0.021405149503317872 -0.014393289613739892 0.013922648878110141 0.0004706407356297316 -0.01823975599311158 0.0 0.0
0.0 0.024058197904507812 -0.01594796319855172 0.015523653140232137 0.00042431005831958626 -0.021074522182653085 0.0 0.0
0.0 0.02587342168216062 -0.016393070476043707 0.016059716743977572 0.0003333537320661266 -0.024153365829742594 0.0 0.0
0.0 0.02587941276801455 -0.015158680010123143 0.015036847564316337 0.00012183244580681951 -0.02742308108289945 0.0 0.0
0.0 0.021140824294274194 -0.011065949740452797 0.01156601873409991 -0.0005000689936471086 -0.029567730158048533 0.0 0.0
0.0 0.04341895487472189 -0.00648706814397219 0.0036271275389296092 0.002859940605042562 1.6824215631761064e-14 0.0 0.0
0.0 0.021140824294286598 -0.011065949740455423 0.01156601873410248 -0.0005000689936470618 0.02956773015807678 0.0 0.0
0.0 0.025879412768010153 -0.015158680010116863 0.015036847564310955 0.0001218324458058896 0.027423081082918674 0.0 0.0
0.0 0.025873421682140393 -0.016393070476028553 0.01605971674396351 0.00033335373206504497 0.02415336582974392 0.0 0.0
0.0 0.02405819790448542 -0.015947963198535742 0.01552365314021625 0.0004243100583195204 0.021074522182641456 0.0 0.0
0.0 0.02140514950328855 -0.01439328961371866 0.01392264887808897 0.0004706407356296926 0.018239755993089125 0.0 0.0
0.0 0.018144897252775 -0.012219706213500518 0.011739545864615456 0.0004801603488850465 0.015544162641445917 0.0 0.0
0.0 0.01473169113952029 -0.009840695014656418 0.009380066016130898 0.0004606289985255194 0.012968090344209473 0.0 0.0
0.0 0.011378266507062324 -0.0075196577590066205 0.007101757826619722 0.00041789993238690353 0.010467482821395861 0.0 0.0
0.0 0.00830000037593065 -0.005375480202730078 0.0050209497074294035 0.00035453049530066467 0.008027554898391276 0.0 0.0
0.0 0.005647405474214893 -0.0034461531882993583 0.0031737410895228304 0.00027241209877653093 0.005707582428563321 0.0 0.0
0.0 0.003143536575786302 -0.0018159263280446954 0.0016423242045485462 0.0001736021234961505 0.0036438111867204692 0.0 0.0
0.0 0.0014112934646031093 -0.0006711477220756335 0.0005927444028108285 7.840331926480582e-05 0.0019047791931997018 0.0 0.0
0.0 0.0004945217162881852 -0.00015819444852946168 0.0001338335593208176 2.4360889208643736e-05 0.0007387183466709278 0.0 0.0
0.0 0.0001527333222521444 -2.52442984210795e-05 2.04264855816409e-05 4.817812839438642e-06 0.00020248170627823188 0.0 0.0
0.0 1.8887253165447326e-05 -3.562882656000881e-06 3.3449827356214764e-06 2.1789992037939875e-07 3.720005645841124e-05 0.0 0.0
0.0 5.5134460589078165e-06 -1.0252394207707506e-06 9.649673612839258e-07 6.027205948681382e-08 9.34426412564979e-06 0.0 0.0
0.0 7.4443139010208365e-06 -6.590683515749689e-07 5.23426517440467e-07 1.3564183413449978e-07 8.351954813827777e-06 0.0 0.0
0.0 1.492121588971862e-06 2.131455114082004e-07 -3.020778344711401e-07 8.893232306293526e-08 2.70734257481852e-06 0.0 0.0
0.0 -2.5994517012594295e-06 -1.223353193425124e-06 1.7759944626515357e-06 -5.526412692264146e-07 -5.148195448532269e-06 0.0 0.0
0.0 1.2868616544970249e-05 5.672351368608357e-06 -9.266439551386087e-06 3.5940881827777505e-06 9.146969548709782e-06 0.0 0.0
0.0 2.137443724680375e-06 -1.220915436041711e-07 1.897459172304093e-07 -6.765437362616072e-08 2.9265641503399196e-07 0.0 0.0
0.0 1.4588160425576366e-07 7.933207471921123e-08 -4.612689336286192e-08 -3.320518135636396e-08 9.397039675675071e-07 0.0 0.0
0.0 -1.1581955719682316e-06 6.141337730498266e-07 -5.437338512473434e-07 -7.039992180249304e-08 3.032216458670451e-06 0.0 0.0
0.0 4.485067752732998e-06 -8.606256704902709e-07 6.663877317756162e-07 1.9423793871464647e-07 -8.775534763470083e-06 0.0 0.0
0.0 9.642203169302725e-06 9.077766227700803e-07 -6.558661677317989e-07 -2.519104550382207e-07 -1.4295909758971127e-06 0.0 0.0
0.0 5.380331759307096e-05 -1.1596482801864332e-05 9.23802086943969e-06 2.358461932424561e-06 -5.1848914606049e-05 0.0 0.0
0.0 0.0003160712886284976 -0.00017879479829318906 0.0001383955229181603 4.039927537502896e-05 -0.0004355326029933056 0.0 0.0
0.0 0.0014385005994270172 -0.0009269795017119639 0.0007490092291236313 0.00017797027258833196 -0.0015360221683449157 0.0 0.0
0.0 0.0036838967543725803 -0.002669862853543051 0.0022922437288142167 0.0003776191247288318 -0.003471508693599222 0.0 0.0
0.0 0.007259481350100662 -0.005373604334005641 0.004852929889206987 0.0005206744447986543 -0.006003531476749749 0.0 0.0
0.0 0.01149984590515616 -0.008791652573652218 0.008185907672540247 0.0006057449011119718 -0.008952289928352127 0.0 0.0
0.0 0.016500127293715007 -0.012709414788663834 0.012040951777450147 0.000668463011213709 -0.012004987083917546 0.0 0.0
0.0 0.021932756761153624 -0.017041618559406745 0.016317117859201466 0.0007245007002052759 -0.015033461240976886 0.0 0.0
0.0 0.02776801471526637 -0.021744274328487717 0.020976307987708113 0.0007679663407795848 -0.018011568040787445 0.0 0.0
0.0 0.03394201499445365 -0.026688622021797864 0.02589373846691166 0.0007948835548861872 -0.021041482370559254 0.0 0.0
0.0 0.04013257998782958 -0.031568849236132145 0.03076874062082442 0.0008001086153077304 -0.02432695998734729 0.0 0.0
0.0 0.0457641892867185 -0.03589352417138216 0.03510680249407477 0.000786721677307374 -0.02808136783989139 0.0 0.0
0.0 0.04997853233486731 -0.03901841374197484 0.038259648206806156 0.0007587655351687134 -0.03239786760235352 0.0 0.0
0.0 0.05198633440328902 -0.03982152426778352 0.03916620173561463 0.0006553225321688515 -0.036471429273192156 0.0 0.0
0.0 0.048627055593585246 -0.03585903096855876 0.03543923322329881 0.0004197977452599536 -0.037582130099533276 0.0 0.0
0.0 0.05327485653680472 -0.029465312895697517 0.0258329799776372 0.003632332918060311 2.0679638557119517e-14 0.0 0.0
0.0 0.04862705559359793 -0.03585903096855733 0.03543923322329716 0.0004197977452601692 0.03758213009958772 0.0 0.0
0.0 0.051986334403280536 -0.03982152426776873 0.039166201735599385 0.0006553225321693413 0.03647142927323798 0.0 0.0
0.0 0.04997853233483891 -0.039018413741949184 0.03825964820678023 0.0007587655351689411 0.032397867602370886 0.0 0.0
0.0 0.04576418928667934 -0.035893524171351124 0.03510680249404284 0.0007867216773082605 0.02808136783988115 0.0 0.0
0.0 0.04013257998778657 -0.031568849236097304 0.03076874062079056 0.000800108615306721 0.02432695998732415 0.0 0.0
0.0 0.033942014994418034 -0.026688622021768665 0.025893738466883538 0.0007948835548851503 0.02104148237054083 0.0 0.0
0.0 0.02776801471522528 -0.02174427432845312 0.020976307987673536 0.0007679663407795278 0.018011568040768214 0.0 0.0
0.0 0.021932756761113538 -0.017041618559374562 0.016317117859169263 0.0007245007002052998 0.015033461240957995 0.0 0.0
0.0 0.01650012729367525 -0.012709414788633317 0.012040951777420077 0.0006684630112132373 0.012004987083890967 0.0 0.0
0.0 0.011499845905120439 -0.008791652573625314 0.00818590767251346 0.0006057449011118516 0.008952289928323994 0.0 0.0
0.0 0.007259481350074264 -0.005373604333985821 0.004852929889187694 0.0005206744447981298 0.006003531476730195 0.0 0.0
0.0 0.0036838967543552526 -0.0026698628535300503 0.0022922437288024657 0.00037761912472758535 0.0034715086935865097 0.0 0.0
0.0 0.0014385005994179889 -0.0009269795017057634 0.0007490092291186604 0.00017797027258710155 0.001536022168336577 0.0 0.0
0.0 0.0003160712886251422 -0.0001787947982920681 0.0001383955229172983 4.039927537477004e-05 0.00043553260299085536 0.0 0.0
0.0 5.38033175915937e-05 -1.1596482801763499e-05 9.23802086936028e-06 2.358461932403141e-06 5.184891460561646e-05 0.0 0.0
0.0 9.642203169105776e-06 9.077766222727452e-07 -6.558661673243699e-07 -2.5191045494837593e-07 1.4295909777311983e-06 0.0 0.0
0.0 4.485067752341637e-06 -8.606256705708767e-07 6.663877318447548e-07 1.9423793872612753e-07 8.775534764108812e-06 0.0 0.0
0.0 -1.158195572287841e-06 6.141337729916964e-07 -5.437338512176171e-07 -7.03999217740747e-08 -3.0322164576952233e-06 0.0 0.0
0.0 1.4588160397339083e-07 7.933207473568289e-08 -4.612689337024671e-08 -3.320518136543342e-08 -9.397039679059588e-07 0.0 0.0
0.0 2.1374437248040467e-06 -1.2209154361244184e-07 1.8974591724285808e-07 -6.765437363045714e-08 -2.926564150508065e-07 0.0 0.0
0.0 0.0 0.0 0.0 0.0 0.0 0.0 0.0
0.0 2.0697306415487977e-07 -4.561909959061803e-09 7.45815349968917e-09 -2.896243540631813e-09 -3.5961109911724836e-08 0.0 0.0
0.0 -1.1004397725734317e-06 7.714314311171912e-07 -6.178409961483861e-07 -1.535904349687979e-07 4.2388428172522445e-06 0.0 0.0
0.0 2.2710704961559217e-06 1.1341411313404356e-06 -9.702383038102895e-07 -1.6390282753014653e-07 5.567681462083971e-07 0.0 0.0
0.0 1.0674554386039588e-05 -1.1434020112807153e-06 9.318817337893346e-07 2.1152027749133277e-07 -1.1285917242023266e-05 0.0 0.0
0.0 9.499763536367336e-05 -6.973016739563937e-05 5.306242483106032e-05 1.66677425645793e-05 -0.00013952055535757868 0.0 0.0
0.0 0.0008226985989494775 -0.0005797252961920858 0.00044844113690651027 0.000131284159285575 -0.0007564809984507241 0.0 0.0
0.0 0.002746603794559093 -0.0021822083142081267 0.0018049902178927488 0.00037721809631537556 -0.002304959651045469 0.0 0.0
0.0 0.006470946278343979 -0.005150231727211114 0.004564458418407955 0.0005857733088031507 -0.004765753351053047 0.0 0.0
0.0 0.011957921249512433 -0.009365324513267083 0.008673499130476329 0.0006918253827907578 -0.007969846285473323 0.0 0.0
0.0 0.018081325804164213 -0.014538787353177306 0.013781903255840722 0.0007568840973365782 -0.011543957118691342 0.0 0.0
0.0 0.02519237445882363 -0.020424223415950744 0.019606379623735938 0.0008178437922147978 -0.015123595033616594 0.0 0.0
0.0 0.03307516671659582 -0.026928331096797795 0.026050318249858394 0.0008780128469394224 -0.018575243561294152 0.0 0.0
0.0 0.04156039310308086 -0.03401275260162254 0.03308243300000002 0.0009303196016224856 -0.021933874390251507 0.0 0.0
0.0 0.050666598738326865 -0.04155191370703063 0.04058559315855997 0.000966320548470711 -0.025405150894229903 0.0 0.0
0.0 0.05986330230416429 -0.049216408565360845 0.04823767555467221 0.0009787330106885758 -0.02937775951565537 0.0 0.0
0.0 0.06887363057227758 -0.0563903902444399 0.05542466087962614 0.0009657293648136702 -0.03428596026699334 0.0 0.0
0.0 0.07611648180914084 -0.06205427458723514 0.06114402719587446 0.0009102473913606775 -0.039982771441732165 0.0 0.0
0.0 0.07972406299835483 -0.06444039124927424 0.06365170897840243 0.0007886822708717312 -0.04493601860728079 0.0 0.0
0.0 0.07547093994993695 -0.0601339055819397 0.059668260143664824 0.0004656454382749089 -0.04626074251779882 0.0 0.0
0.0 0.07356501763766599 -0.05184342639578937 0.04750417453407182 0.004339251861717567 2.4430110712181374e-14 0.0 0.0
0.0 0.07547093994994372 -0.06013390558193313 0.05966826014365889 0.00046564543827425824 0.04626074251786168 0.0 0.0
0.0 0.07972406299833601 -0.06444039124924908 0.06365170897837724 0.0007886822708717413 0.04493601860733944 0.0 0.0
0.0 0.07611648180910939 -0.06205427458720414 0.06114402719584475 0.0009102473913594443 0.03998277144176239 0.0 0.0
0.0 0.06887363057222189 -0.056390390244393074 0.05542466087957891 0.0009657293648142244 0.03428596026698575 0.0 0.0
0.0 0.05986330230410832 -0.04921640856531398 0.04823767555462596 0.0009787330106879996 0.029377759515634774 0.0 0.0
0.0 0.050666598738275524 -0.041551913706987846 0.04058559315851771 0.0009663205484701618 0.025405150894208493 0.0 0.0
0.0 0.041560393103027164 -0.034012752601576865 0.03308243299995529 0.0009303196016215768 0.02193387439023083 0.0 0.0
0.0 0.03307516671654181 -0.02692833109675307 0.026050318249813426 0.000878012846939629 0.018575243561273512 0.0 0.0
0.0 0.025192374458772333 -0.02042422341590933 0.01960637962369521 0.0008178437922141033 0.01512359503358898 0.0 0.0
0.0 0.018081325804116165 -0.014538787353139545 0.013781903255802787 0.0007568840973367616 0.011543957118659482 0.0 0.0
0.0 0.011957921249474174 -0.009365324513236926 0.008673499130446457 0.0006918253827904703 0.007969846285448022 0.0 0.0
0.0 0.006470946278319701 -0.005150231727192276 0.0045644584183901745 0.0005857733088020942 0.00476575335103759 0.0 0.0
0.0 0.002746603794545592 -0.002182208314197651 0.0018049902178836545 0.00037721809631399727 0.0023049596510360034 0.0 0.0
0.0 0.0008226985989432589 -0.0005797252961881431 0.0004484411369033418 0.00013128415928480088 0.0007564809984458478 0.0 0.0
0.0 9.499763536123492e-05 -6.973016739476974e-05 5.306242483039566e-05 1.6667742564374046e-05 0.00013952055535628493 0.0 0.0
0.0 1.0674554385693265e-05 -1.1434020115796705e-06 9.318817340320004e-07 2.1152027754766586e-07 1.1285917242797666e-05 0.0 0.0
0.0 2.271070495849743e-06 1.1341411310334333e-06 -9.702383035647935e-07 -1.6390282746863566e-07 -5.567681448167324e-07 0.0 0.0
0.0 -1.1004397730378207e-06 7.714314311626305e-07 -6.178409961832816e-07 -1.535904349793555e-07 -4.238842817590788e-06 0.0 0.0
0.0 2.0697306343298728e-07 -4.561909971992588e-09 7.458153500713229e-09 -2.8962435287176733e-09 3.596111010343835e-08 0.0 0.0
0.0 0.0 0.0 0.0 0.0 0.0 0.0 0.0
0.0 0.0 0.0 0.0 0.0 0.0 0.0 0.0
0.0 -1.3075163678298636e-07 -2.968376883690807e-09 1.9471215008150875e-09 1.0212553828761417e-09 -2.5935044429845048e-08 0.0 0.0
0.0 -7.978562332066406e-07 5.461957011284838e-07 -4.3761248730438296e-07 -1.0858321382410332e-07 2.2387778884476598e-06 0.0 0.0
0.0 -2.622855881207669e-06 9.527177431103947e-07 -8.189775928015948e-07 -1.3374015030878982e-07 4.836616174426981e-07 0.0 0.0
0.0 1.4451537085427013e-05 -2.4726706535247066e-06 1.3327414655230851e-06 1.139929188001645e-06 -6.0128952770312066e-06 0.0 0.0
0.0 0.0002914008218385319 -0.0002022977908433744 0.0001519948290198775 5.030296182349672e-05 -0.00022329938964804976 0.0 0.0
0.0 0.0014993400165892517 -0.0012438607808133027 0.0009804329280878837 0.00026342785272541843 -0.0010793851900296931 0.0 0.0
0.0 0.004487070597470687 -0.003754727682982756 0.003205741999980818 0.0005489856830019377 -0.0028605656445027596 0.0 0.0
0.0 0.009873229066755144 -0.007937811932393384 0.007216993278683875 0.0007208186537095082 -0.0056694427906556375 0.0 0.0
0.0 0.016331230842828958 -0.013641711348453881 0.012838304221743351 0.0008034071267105402 -0.009247102714548878 0.0 0.0
0.0 0.024724061330383587 -0.020516065768721933 0.019650999638277905 0.0008650661304440189 -0.013078807224752206 0.0 0.0
0.0 0.03407584362224258 -0.028340445857097954 0.02741161656297286 0.0009288292941250615 -0.016879238342331366 0.0 0.0
0.0 0.04435370340524704 -0.037005439640250035 0.036009843568739264 0.0009955960715107882 -0.020528381622129593 0.0 0.0
0.0 0.05553745037613933 -0.04646718928029458 0.045409097562791365 0.0010580917175032007 -0.02406656066050781 0.0 0.0
0.0 0.06746501129156551 -0.05661828873300947 0.055513164631353515 0.00110512410165598 -0.027729172462702404 0.0 0.0
0.0 0.08013645782022294 -0.06710895485024422 0.06598583001323502 0.0011231248370092062 -0.032052279657650784 0.0 0.0
0.0 0.09184510836822064 -0.07714253299556594 0.07604415371960707 0.0010983792759587507 -0.037562984707990216 0.0 0.0
0.0 0.10206869843648794 -0.08522470509182692 0.08421183403612656 0.0010128710557002762 -0.04399675016623851 0.0 0.0
0.0 0.10720732114450698 -0.08881911341690693 0.08799163474611332 0.0008274786707935383 -0.049633249673454734 0.0 0.0
0.0 0.10191071076344223 -0.08371006640545658 0.0832435674867591 0.0004664989186974874 -0.051386600730576076 0.0 0.0
0.0 0.09591652135916841 -0.07372844834559332 0.06877403616652188 0.004954412179071335 2.7276791936259315e-14 0.0 0.0
0.0 0.10191071076344246 -0.08371006640544656 0.08324356748674946 0.0004664989186971112 0.051386600730639366 0.0 0.0
0.0 0.10720732114448142 -0.08881911341687627 0.08799163474608314 0.000827478670793027 0.049633249673518016 0.0 0.0
0.0 0.10206869843644274 -0.08522470509178426 0.08421183403608423 0.0010128710556998306 0.04399675016627323 0.0 0.0
0.0 0.09184510836815439 -0.07714253299550895 0.07604415371954991 0.001098379275959018 0.0375629847079874 0.0 0.0
0.0 0.08013645782015008 -0.06710895485018238 0.065985830013173 0.001123124837009339 0.03205227965763161 0.0 0.0
0.0 0.06746501129149737 -0.05661828873295103 0.05551316463129631 0.0011051241016547604 0.027729172462680078 0.0 0.0
0.0 0.05553745037606985 -0.04646718928023518 0.04540909756273242 0.0010580917175027453 0.024066560660485816 0.0 0.0
0.0 0.044353703405176116 -0.03700543964019033 0.036009843568679326 0.0009955960715109715 0.020528381622106278 0.0 0.0
0.0 0.034075843622180704 -0.02834044585704607 0.027411616562921702 0.000928829294124356 0.01687923834230462 0.0 0.0
0.0 0.024724061330324433 -0.02051606576867336 0.019650999638229555 0.0008650661304437958 0.013078807224718492 0.0 0.0
0.0 0.016331230842781493 -0.013641711348414525 0.012838304221704257 0.0008034071267102678 0.009247102714521711 0.0 0.0
0.0 0.009873229066723058 -0.007937811932368003 0.007216993278659504 0.000720818653708505 0.005669442790638361 0.0 0.0
0.0 0.004487070597451124 -0.003754727682967177 0.0032057419999666306 0.0005489856830005455 0.0028605656444916604 0.0 0.0
0.0 0.001499340016578268 -0.0012438607808052573 0.0009804329280811374 0.0002634278527241195 0.0010793851900225695 0.0 0.0
0.0 0.0002914008218352134 -0.0002022977908414898 0.00015199482901851743 5.030296182297251e-05 0.000223299389646311 0.0 0.0
0.0 1.4451537084795831e-05 -2.4726706539126947e-06 1.332741465834803e-06 1.13992918807789e-06 6.01289527792011e-06 0.0 0.0
0.0 -2.6228558812670715e-06 9.527177428414806e-07 -8.189775925897562e-07 -1.3374015025170642e-07 -4.836616165038301e-07 0.0 0.0
0.0 -7.978562334653824e-07 5.461957011608716e-07 -4.376124873322431e-07 -1.0858321382862879e-07 -2.238777888575075e-06 0.0 0.0
0.0 -1.3075163665647826e-07 -2.9683768817357188e-09 1.947121500571764e-09 1.0212553811632798e-09 2.5935044404943458e-08 0.0 0.0
0.0 0.0 0.0 0.0 0.0 0.0 0.0 0.0
0.0 0.0 0.0 0.0 0.0 0.0 0.0 0.0
0.0 0.0 0.0 0.0 0.0 0.0 0.0 0.0
0.0 -5.570201560709832e-07 1.6973327346785395e-07 -1.3387947154155427e-07 -3.585380192630109e-08 5.536629275645254e-07 0.0 0.0
0.0 -5.004555486433128e-06 3.842450007131127e-06 -3.1238150876747594e-06 -7.18634919456341e-07 7.450505750070221e-06 0.0 0.0
0.0 2.0684145808162413e-05 -2.510477542867288e-05 1.7565388038921062e-05 7.539387389751725e-06 -2.5665310922919937e-05 0.0 0.0
0.0 0.0005878960066981308 -0.00046134240969378324 0.00034791729836105884 0.00011342511133272432 -0.0003224847530233149 0.0 0.0
0.0 0.0024459208116846937 -0.00212495713262891 0.001719379047399969 0.000405578085228941 -0.0012685675998580493 0.0 0.0
0.0 0.006743142850217911 -0.005566201866902118 0.004886632915040024 0.0006795689518620995 -0.0031655423077970625 0.0 0.0
0.0 0.012743599802744435 -0.010960415452545029 0.010143725538574361 0.000816689913970659 -0.006119126785330323 0.0 0.0
0.0 0.021332536107740323 -0.018069343394862842 0.017178672785085527 0.000890670609777335 -0.009694186304911579 0.0 0.0
0.0 0.03146582044691838 -0.02662096632223175 0.025666136206605728 0.0009548301156259966 -0.013499083110188558 0.0 0.0
0.0 0.0429830154184277 -0.03637766331570756 0.03535385817087729 0.0010238051448302893 -0.017267739861265664 0.0 0.0
0.0 0.055716784753341644 -0.04719937329190075 0.04610247983681726 0.0010968934550833335 -0.02089763475369541 0.0 0.0
0.0 0.06966876124979059 -0.059026196283327434 0.05785786715877264 0.001168329124554912 -0.024419491459736754 0.0 0.0
0.0 0.08452156918261193 -0.0717713958011576 0.07054380231774404 0.0012275934834134936 -0.028024486494027463 0.0 0.0
0.0 0.09995822273196446 -0.08506493470023051 0.08381412931141888 0.0012508053888116064 -0.03220402990386637 0.0 0.0
0.0 0.1154209650570478 -0.09789667570003989 0.0966863736682781 0.0012103020317617915 -0.03758571794032778 0.0 0.0
0.0 0.1278820625809548 -0.10827523414099666 0.10719363204940707 0.001081602091589391 -0.044135808281406605 0.0 0.0
0.0 0.13376658171786082 -0.112910736622554 0.11206858007261863 0.000842156549935344 -0.0503976057787388 0.0 0.0
0.0 0.12795987157809213 -0.10705828105538996 0.10658850678376545 0.00046977427162456627 -0.05434791815725009 0.0 0.0
0.0 0.1198521452305999 -0.09566644535888183 0.09017575315253791 0.005490692206343932 2.744852956038102e-14 0.0 0.0
0.0 0.12795987157808067 -0.10705828105537178 0.10658850678374635 0.00046977427162550546 0.05434791815731354 0.0 0.0
0.0 0.13376658171782552 -0.1129107366225168 0.11206858007258089 0.0008421565499360233 0.05039760577880324 0.0 0.0
0.0 0.12788206258089152 -0.10827523414093936 0.10719363204934973 0.0010816020915895403 0.044135808281439086 0.0 0.0
0.0 0.11542096505697005 -0.09789667569997264 0.0966863736682103 0.0012103020317622345 0.03758571794032828 0.0 0.0
0.0 0.09995822273188043 -0.08506493470015829 0.08381412931134677 0.0012508053888114236 0.03220402990385143 0.0 0.0
0.0 0.08452156918252458 -0.07177139580108292 0.07054380231766982 0.001227593483413066 0.02802448649400721 0.0 0.0
0.0 0.06966876124970749 -0.0590261962832554 0.05785786715870174 0.001168329124553718 0.024419491459714414 0.0 0.0
0.0 0.05571678475325437 -0.04719937329182615 0.04610247983674272 0.001096893455083403 0.0208976347536716 0.0 0.0
0.0 0.04298301541834852 -0.03637766331564068 0.03535385817081075 0.001023805144829855 0.01726773986123741 0.0 0.0
0.0 0.03146582044684702 -0.026620966322172205 0.025666136206546446 0.0009548301156257407 0.013499083110155234 0.0 0.0
0.0 0.021332536107685107 -0.01806934339481657 0.017178672785039446 0.000890670609777101 0.009694186304885426 0.0 0.0
0.0 0.01274359980270509 -0.010960415452510754 0.01014372553854104 0.0008166899139697228 0.0061191267853117366 0.0 0.0
0.0 0.0067431428501915905 -0.005566201866881022 0.004886632915019941 0.0006795689518610791 0.0031655423077848605 0.0 0.0
0.0 0.0024459208116693184 -0.0021249571326164996 0.0017193790473892707 0.0004055780852272269 0.0012685675998496445 0.0 0.0
0.0 0.0005878960066930375 -0.00046134240969041983 0.0003479172983585217 0.0001134251113318981 0.0003224847530212434 0.0 0.0
0.0 2.0684145806769714e-05 -2.510477542830565e-05 1.7565388038649473e-05 7.539387389656151e-06 2.5665310922692055e-05 0.0 0.0
0.0 -5.00455548673306e-06 3.842450006875892e-06 -3.123815087474428e-06 -7.186349194014619e-07 -7.450505749393598e-06 0.0 0.0
0.0 -5.570201559082122e-07 1.6973327350386182e-07 -1.3387947157017278e-07 -3.585380193368766e-08 -5.536629276802415e-07 0.0 0.0
0.0 0.0 0.0 0.0 0.0 0.0 0.0 0.0
0.0 0.0 0.0 0.0 0.0 0.0 0.0 0.0
0.0 0.0 0.0 0.0 0.0 0.0 0.0 0.0
0.0 0.0 0.0 0.0 0.0 0.0 0.0 0.0
0.0 -1.9259891853480113e-07 -1.2438204119640457e-08 9.900711751953166e-09 2.537492367688598e-09 -3.208399983975565e-08 0.0 0.0
0.0 -6.698962424011188e-06 3.873734281328776e-06 -3.202144682494298e-06 -6.715895988345064e-07 6.66879408425884e-06 0.0 0.0
0.0 8.919806996372638e-05 -6.696393596320206e-05 4.6747504111989164e-05 2.0216431851212902e-05 -3.258511618098083e-05 0.0 0.0
0.0 0.0009342643622672661 -0.0008746776631825002 0.0006680665181820766 0.00020661114500042404 -0.0003989218903132234 0.0 0.0
0.0 0.003792369524806029 -0.0031929564666715845 0.0026571540025349533 0.00053580246413663 -0.0013113511657100194 0.0 0.0
0.0 0.008645613621436987 -0.0075843918938053425 0.006808156606123188 0.0007762352876821571 -0.0032169778974928172 0.0 0.0
0.0 0.01629275691636373 -0.014096276610813393 0.013204884303498577 0.0008913923073148007 -0.005977765457781416 0.0 0.0
0.0 0.02627456694453647 -0.022585268251902765 0.021619738310800198 0.0009655299411025864 -0.009282109772424116 0.0 0.0
0.0 0.03827827672306533 -0.03279591157044914 0.03176060370237319 0.0010353078680759547 -0.01281889481047001 0.0 0.0
0.0 0.05199109209083087 -0.04447754682983424 0.04336792321366785 0.0011096236161663492 -0.016321005972414815 0.0 0.0
0.0 0.06725893577230423 -0.057457028761215945 0.056269201464573426 0.00118782729664247 -0.019711745091349164 0.0 0.0
0.0 0.08357520453204784 -0.07164063676948221 0.07037414246391491 0.0012664943055672902 -0.023029263921275023 0.0 0.0
0.0 0.10144639796816125 -0.08691503527344384 0.08557983457055066 0.0013352007028932724 -0.026344235000528494 0.0 0.0
0.0 0.12012547352431144 -0.10289866672408818 0.10153230783600371 0.001366358888084442 -0.02992249113916175 0.0 0.0
0.0 0.13812776480894556 -0.11843249633011603 0.1171175464117816 0.0013149499183344204 -0.03442202753067291 0.0 0.0
0.0 0.1531043634117792 -0.13106090438722307 0.1299156694162314 0.0011452349709917447 -0.040445483877560265 0.0 0.0
0.0 0.16045868131935895 -0.13685723207487746 0.13600115147567907 0.0008560805991982013 -0.047718459025455795 0.0 0.0
0.0 0.15422339166323576 -0.13060806716410758 0.13014507489398075 0.00046299227012677464 -0.05567367821257767 0.0 0.0
0.0 0.14449835475588504 -0.11810090310615809 0.11214585113758616 0.005955051968572031 2.712760571732531e-14 0.0 0.0
0.0 0.15422339166322058 -0.13060806716408682 0.1301450748939605 0.0004629922701262655 0.05567367821264066 0.0 0.0
0.0 0.16045868131931584 -0.13685723207483474 0.13600115147563657 0.0008560805991979583 0.04771845902551583 0.0 0.0
0.0 0.15310436341170924 -0.1310609043871607 0.12991566941616967 0.00114523497099109 0.04044548387759178 0.0 0.0
0.0 0.13812776480885328 -0.11843249633003632 0.11711754641170104 0.001314949918335228 0.03442202753067371 0.0 0.0
0.0 0.12012547352422072 -0.1028986667240087 0.10153230783592629 0.001366358888082381 0.029922491139151075 0.0 0.0
0.0 0.10144639796805924 -0.0869150352733563 0.08557983457046293 0.0013352007028933845 0.026344235000513107 0.0 0.0
0.0 0.08357520453194929 -0.07164063676939689 0.07037414246383072 0.0012664943055660889 0.023029263921256163 0.0 0.0
0.0 0.06725893577220224 -0.05745702876112821 0.05626920146448556 0.0011878272966426092 0.019711745091326477 0.0 0.0
0.0 0.051991092090739655 -0.04447754682975642 0.0433679232135903 0.001109623616166132 0.016321005972387784 0.0 0.0
0.0 0.03827827672298331 -0.03279591157037925 0.031760603702303714 0.0010353078680755785 0.01281889481043968 0.0 0.0
0.0 0.02627456694447066 -0.02258526825184652 0.02161973831074402 0.0009655299411024786 0.009282109772399372 0.0 0.0
0.0 0.016292756916314162 -0.014096276610770678 0.013204884303456468 0.0008913923073142167 0.005977765457763176 0.0 0.0
0.0 0.00864561362140183 -0.0075843918937753135 0.006808156606094001 0.0007762352876813127 0.0032169778974789694 0.0 0.0
0.0 0.0037923695247884105 -0.0031929564666573922 0.0026571540025223796 0.0005358024641350131 0.0013113511657034521 0.0 0.0
0.0 0.0009342643622606422 -0.0008746776631774119 0.0006680665181781035 0.00020661114499930766 0.00039892189031103773 0.0 0.0
0.0 8.91980699618332e-05 -6.696393596253134e-05 4.6747504111519826e-05 2.0216431851011546e-05 3.2585116180641836e-05 0.0 0.0
0.0 -6.6989624239772205e-06 3.87373428109454e-06 -3.2021446823143965e-06 -6.715895987801439e-07 -6.668794083928742e-06 0.0 0.0
0.0 -1.9259891850927365e-07 -1.243820411784055e-08 9.900711750511593e-09 2.5374923673294314e-09 3.208399983580417e-08 0.0 0.0
0.0 0.0 0.0 0.0 0.0 0.0 0.0 0.0
0.0 0.0 0.0 0.0 0.0 0.0 0.0 0.0
0.0 0.0 0.0 0.0 0.0 0.0 0.0 0.0
0.0 0.0 0.0 0.0 0.0 0.0 0.0 0.0
0.0 -7.18462332870173e-08 -5.322214849680892e-09 4.219826328331633e-09 1.102388521349622e-09 -1.0684932772376604e-08 0.0 0.0
0.0 -7.93590980563175e-06 5.654755789328689e-06 -4.749524035276483e-06 -9.052317540521982e-07 7.470452857477418e-06 0.0 0.0
0.0 0.00020266709524630814 -0.00016976080030372902 0.00012034886126265384 4.941193904107533e-05 -4.29329055786944e-05 0.0 0.0
0.0 0.0015836699830216092 -0.001401589676342329 0.0010910471082759149 0.00031054256806641457 -0.0003531751168210552 0.0 0.0
0.0 0.0050356258137984845 -0.004446960448108784 0.0038001307095002373 0.0006468297386085437 -0.0012162152809707181 0.0 0.0
0.0 0.010961573863538186 -0.009707496404574155 0.008860370631976755 0.0008471257725974001 -0.0028919628807392832 0.0 0.0
0.0 0.019792139970793442 -0.017295887189802198 0.01634147903467327 0.0009544081551289217 -0.005213141504137662 0.0 0.0
0.0 0.03130288505972171 -0.02713743175783217 0.026104173170400556 0.0010332585874315925 -0.008029038439461523 0.0 0.0
0.0 0.04509886529630813 -0.03899030124500244 0.037881122877977694 0.001109178367024719 -0.0110531907801004 0.0 0.0
0.0 0.061000671614096 -0.052591928456192163 0.05140267410015358 0.001189254356038638 -0.01405285658848836 0.0 0.0
0.0 0.07845961669028241 -0.06773628208821193 0.0664638966841393 0.0012723854040726408 -0.016977313000415686 0.0 0.0
0.0 0.09786953788168329 -0.08425881461645965 0.08290561787060241 0.00135319674585716 -0.019878072080067352 0.0 0.0
0.0 0.11830976195306961 -0.10197986617843091 0.10055403106720759 0.0014258351112232791 -0.022730674842828362 0.0 0.0
0.0 0.13953628196602177 -0.12046674468813612 0.11899845347169298 0.0014682912164431165 -0.025451315946680406 0.0 0.0
0.0 0.1605462950954849 -0.13851721003368286 0.13709198315558932 0.0014252268780936012 -0.028400131076413933 0.0 0.0
0.0 0.1780476314196442 -0.15345780618804916 0.15222949000598002 0.0012283161820690848 -0.03305525264113398 0.0 0.0
0.0 0.18711267128458237 -0.16082729167698848 0.1599472967642011 0.0008799949127872225 -0.04155314825288212 0.0 0.0
0.0 0.18130968864243988 -0.15476297899703595 0.15432941026673042 0.00043356873030574785 -0.055107226253727784 0.0 0.0
0.0 0.17089877409014093 -0.1414756064362144 0.13513550750733855 0.0063400989288756844 2.4260107811535647e-14 0.0 0.0
0.0 0.1813096886424186 -0.15476297899701155 0.15432941026670685 0.0004335687303047927 0.055107226253782726 0.0 0.0
0.0 0.18711267128452602 -0.16082729167693666 0.15994729676414904 0.0008799949127875818 0.04155314825293221 0.0 0.0
0.0 0.17804763141955884 -0.1534578061879749 0.152229490005905 0.0012283161820698966 0.03305525264115888 0.0 0.0
0.0 0.16054629509538032 -0.1385172100335928 0.13709198315549836 0.001425226878094239 0.028400131076415282 0.0 0.0
0.0 0.13953628196591703 -0.12046674468804473 0.11899845347160329 0.0014682912164414685 0.025451315946673807 0.0 0.0
0.0 0.11830976195295484 -0.10197986617833192 0.10055403106710892 0.0014258351112227743 0.022730674842815664 0.0 0.0
0.0 0.09786953788156934 -0.08425881461636074 0.08290561787050446 0.0013531967458563217 0.01987807208005192 0.0 0.0
0.0 0.07845961669016654 -0.06773628208811236 0.06646389668403974 0.0012723854040728308 0.016977313000397433 0.0 0.0
0.0 0.06100067161399406 -0.05259192845610396 0.051402674100065916 0.0011892543560380496 0.014052856588466082 0.0 0.0
0.0 0.04509886529621534 -0.038990301244922726 0.03788112287789814 0.0011091783670245823 0.011053190780074332 0.0 0.0
0.0 0.031302885059645846 -0.02713743175776673 0.026104173170335702 0.0010332585874310203 0.008029038439440025 0.0 0.0
0.0 0.019792139970736585 -0.01729588718975295 0.01634147903462431 0.0009544081551286395 0.005213141504121929 0.0 0.0
0.0 0.01096157386349934 -0.009707496404539936 0.008860370631943431 0.0008471257725965009 0.002891962880727664 0.0 0.0
0.0 0.0050356258137775394 -0.004446960448090963 0.003800130709483819 0.0006468297386071376 0.0012162152809646455 0.0 0.0
0.0 0.0015836699830118685 -0.0014015896763344788 0.0010910471082694597 0.0003105425680650206 0.0003531751168187091 0.0 0.0
0.0 0.00020266709524379247 -0.00016976080030215305 0.00012034886126152548 4.941193904062773e-05 4.29329055785116e-05 0.0 0.0
0.0 -7.935909805934073e-06 5.654755788839803e-06 -4.749524034905423e-06 -9.052317539343722e-07 -7.470452857043039e-06 0.0 0.0
0.0 -7.184623319621463e-08 -5.322214842869262e-09 4.219826322927047e-09 1.1023885199412321e-09 1.0684932758656047e-08 0.0 0.0
0.0 0.0 0.0 0.0 0.0 0.0 0.0 0.0
0.0 0.0 0.0 0.0 0.0 0.0 0.0 0.0
0.0 0.0 0.0 0.0 0.0 0.0 0.0 0.0
0.0 0.0 0.0 0.0 0.0 0.0 0.0 0.0
0.0 0.0 0.0 0.0 0.0 0.0 0.0 0.0
0.0 -8.70711156052465e-06 7.5811795085876885e-06 -6.759167658909407e-06 -8.220118496783079e-07 8.562190255786305e-06 0.0 0.0
0.0 0.0003635945279942968 -0.0003563050846206773 0.0002557613464193856 0.00010054373820129174 -1.7929934546017694e-05 0.0 0.0
0.0 0.002392629564224209 -0.0020787309065264073 0.0016585617989266915 0.00042016910759971426 -0.0002147490037743482 0.0 0.0
0.0 0.006350097792927681 -0.005823005289159835 0.0050917494556387876 0.0007312558335210427 -0.0009207680413361009 0.0 0.0
0.0 0.01338530439044328 -0.011888318797607135 0.01098336163530245 0.0009049571623047067 -0.002132671264115038 0.0 0.0
0.0 0.02333769685919234 -0.020517310351198588 0.019506502550220114 0.001010807800978452 -0.0038462181067544796 0.0 0.0
0.0 0.03632616692540167 -0.03168060788565455 0.03058488007063296 0.0010957278150215979 -0.005940740985375338 0.0 0.0
0.0 0.05199837168866933 -0.045157085636918885 0.04397888813894729 0.0011781974979715635 -0.008207265076568816 0.0 0.0
0.0 0.06991848897682784 -0.0606732933524558 0.059409596877159576 0.0012636964752961856 -0.010465593559070969 0.0 0.0
0.0 0.09014813016462472 -0.07798010524913482 0.07662947432143784 0.0013506309276971043 -0.012691832263536044 0.0 0.0
0.0 0.11171534867158892 -0.0968434986738219 0.09541036658289398 0.0014331320909278709 -0.014951078683225023 0.0 0.0
0.0 0.13497353493324515 -0.11693246877626123 0.1154301713175192 0.0015022974587420585 -0.01715486588600983 0.0 0.0
0.0 0.15897596108063303 -0.13768302777959793 0.13613847263597725 0.0015445551436207084 -0.01897515387522586 0.0 0.0
0.0 0.18240492301530442 -0.1579453275148549 0.15641487449367428 0.0015304530211805575 -0.020266982920245525 0.0 0.0
0.0 0.20244758435263221 -0.175242597571681 0.17386629984295843 0.0013762977287225205 -0.022571844071965635 0.0 0.0
0.0 0.21396761949579035 -0.18487813180504215 0.1839302381879625 0.0009478936170795554 -0.030866112253753717 0.0 0.0
0.0 0.20957888759347898 -0.17997453301355468 0.17962496270200512 0.0003495703115493705 -0.051541303730731916 0.0 0.0
0.0 0.1992394508739482 -0.16640102690679034 0.15978543497832587 0.006615591928464464 1.8816545543920427e-14 0.0 0.0
0.0 0.20957888759344426 -0.1799745330135214 0.17962496270197204 0.000349570311549141 0.05154130373077417 0.0 0.0
0.0 0.21396761949571586 -0.18487813180497667 0.183930238187895 0.0009478936170819277 0.03086611225379232 0.0 0.0
0.0 0.20244758435253216 -0.17524259757159477 0.173866299842872 0.001376297728722636 0.022571844071985512 0.0 0.0
0.0 0.18240492301518652 -0.15794532751475313 0.15641487449357244 0.0015304530211810118 0.020266982920246472 0.0 0.0
0.0 0.1589759610805041 -0.13768302777948682 0.13613847263586562 0.0015445551436211896 0.018975153875220727 0.0 0.0
0.0 0.13497353493311348 -0.11693246877614757 0.11543017131740564 0.0015022974587419284 0.017154865886002086 0.0 0.0
0.0 0.11171534867146202 -0.09684349867371177 0.09541036658278493 0.0014331320909268354 0.01495107868321524 0.0 0.0
0.0 0.09014813016449669 -0.07798010524902423 0.07662947432132704 0.0013506309276970208 0.012691832263523595 0.0 0.0
0.0 0.06991848897671399 -0.060673293352357334 0.05940959687706207 0.0012636964752952204 0.010465593559055304 0.0 0.0
0.0 0.051998371688564436 -0.045157085636828 0.04397888813885626 0.001178197497971676 0.008207265076548809 0.0 0.0
0.0 0.03632616692531984 -0.031680607885582864 0.030584880070562266 0.00109572781502058 0.005940740985358482 0.0 0.0
0.0 0.023337696859129807 -0.02051731035114371 0.019506502550165814 0.0010108078009779056 0.003846218106743576 0.0 0.0
0.0 0.0133853043903998 -0.01188831879756875 0.010983361635264784 0.000904957162303959 0.0021326712641064676 0.0 0.0
0.0 0.006350097792902377 -0.005823005289137122 0.005091749455617418 0.0007312558335197118 0.0009207680413308871 0.0 0.0
0.0 0.0023926295642111555 -0.0020787309065151806 0.0016585617989171336 0.0004201691075980444 0.00021474900377227644 0.0 0.0
0.0 0.00036359452799044527 -0.0003563050846179462 0.00025576134641741463 0.00010054373820053113 1.792993454608185e-05 0.0 0.0
0.0 -8.707111560458557e-06 7.581179508199477e-06 -6.75916765861148e-06 -8.220118495880336e-07 -8.562190255589671e-06 0.0 0.0
0.0 0.0 0.0 0.0 0.0 0.0 0.0 0.0
0.0 0.0 0.0 0.0 0.0 0.0 0.0 0.0
0.0 0.0 0.0 0.0 0.0 0.0 0.0 0.0
0.0 0.0 0.0 0.0 0.0 0.0 0.0 0.0
0.0 0.0 0.0 0.0 0.0 0.0 0.0 0.0
0.0 0.0 0.0 0.0 0.0 0.0 0.0 0.0
0.0 5.8301893022283356e-06 -8.242457926239856e-06 3.525934530235382e-06 4.716523396004477e-06 1.0534537486851634e-05 0.0 0.0
0.0 0.000714037040627707 -0.0006253518244978946 0.00045698894830180174 0.00016836287619609338 7.735181482818401e-05 0.0 0.0
0.0 0.0032104998277342435 -0.0028902482008053014 0.0023676722599868098 0.00052257594081849 3.306930457780225e-05 0.0 0.0
0.0 0.008001264694867966 -0.007258616329072011 0.00646452802482025 0.0007940883042517634 -0.0003399969580092264 0.0 0.0
0.0 0.01583949618448484 -0.01409283401534147 0.013139439656337994 0.0009533943590034524 -0.0009782317335309697 0.0 0.0
0.0 0.02696204035493479 -0.023717447239086274 0.022655422377327546 0.0010620248617587231 -0.001884048745496607 0.0 0.0
0.0 0.04133769553649916 -0.036169431805890134 0.03501485961756829 0.0011545721883218305 -0.0030204937326244533 0.0 0.0
0.0 0.058798845171882975 -0.05125157551648386 0.05000855296160786 0.0012430225548760272 -0.0042740992861124575 0.0 0.0
0.0 0.07910322594281886 -0.06867464277883113 0.06734152304918282 0.0013331197296483706 -0.005553359078182666 0.0 0.0
0.0 0.1013222461813112 -0.08814710500520925 0.0867229050860633 0.001424199919145852 -0.006865121127243356 0.0 0.0
0.0 0.12580817419584084 -0.10932902605742933 0.10782152936729289 0.0015074966901363748 -0.00821840871876161 0.0 0.0
0.0 0.15170494273802773 -0.13173787420361055 0.13016805591095815 0.0015698182926525 -0.009522674963965517 0.0 0.0
0.0 0.178140882245196 -0.15459760556862587 0.15299813988086233 0.001599465687763353 -0.010500936775217214 0.0 0.0
0.0 0.20369342194833817 -0.17667926695384215 0.17508589280489478 0.0015933741489476119 -0.010748992058759777 0.0 0.0
0.0 0.2259984070082773 -0.19596504372343987 0.19442335757659185 0.0015416861468480216 -0.01078942312841097 0.0 0.0
0.0 0.2406434053647997 -0.20857911359509185 0.20731696406611286 0.0012621495289787752 -0.015553715409723284 0.0 0.0
0.0 0.2395774039155258 -0.2068160036735854 0.2065592915146967 0.00025671215888842925 -0.03912662195203001 0.0 0.0
0.0 0.23088593531354648 -0.1941453068881436 0.18769438580951434 0.006450921078629132 1.0706713293728853e-14 0.0 0.0
0.0 0.2395774039154831 -0.20681600367354663 0.20655929151465793 0.0002567121588885914 0.03912662195205554 0.0 0.0
0.0 0.24064340536471826 -0.20857911359502107 0.20731696406604222 0.0012621495289788479 0.015553715409744607 0.0 0.0
0.0 0.22599840700816323 -0.19596504372334142 0.19442335757649334 0.0015416861468481023 0.01078942312842026 0.0 0.0
0.0 0.20369342194820184 -0.17667926695372485 0.17508589280477674 0.0015933741489480508 0.010748992058758226 0.0 0.0
0.0 0.17814088224505245 -0.15459760556850116 0.15299813988073788 0.0015994656877630128 0.010500936775213663 0.0 0.0
0.0 0.1517049427378801 -0.131737874203483 0.13016805591083058 0.0015698182926526206 0.009522674963961815 0.0 0.0
0.0 0.1258081741956987 -0.10932902605730613 0.10782152936717054 0.0015074966901354656 0.008218408718757 0.0 0.0
0.0 0.10132224618116639 -0.08814710500508406 0.08672290508593815 0.0014241999191459997 0.006865121127235915 0.0 0.0
0.0 0.07910322594269142 -0.06867464277872094 0.06734152304907302 0.001333119729647956 0.00555335907817402 0.0 0.0
0.0 0.05879884517176673 -0.051251575516383346 0.05000855296150761 0.0012430225548757667 0.0042740992861005364 0.0 0.0
0.0 0.04133769553640765 -0.03616943180581012 0.03501485961748904 0.0011545721883210785 0.003020493732614475 0.0 0.0
0.0 0.026962040354865845 -0.02371744723902559 0.02265542237726741 0.0010620248617581839 0.0018840487454911262 0.0 0.0
0.0 0.015839496184433154 -0.014092834015295692 0.013139439656293009 0.0009533943590026745 0.0009782317335262879 0.0 0.0
0.0 0.008001264694838134 -0.007258616329045133 0.006464528024794432 0.0007940883042506898 0.00033999695800625165 0.0 0.0
0.0 0.0032104998277187736 -0.0028902482007917133 0.0023676722599748285 0.000522575940816885 -3.30693045785322e-05 0.0 0.0
0.0 0.000714037040622359 -0.0006253518244937917 0.00045698894829870776 0.00016836287619508383 -7.735181482783278e-05 0.0 0.0
0.0 5.830189301520619e-06 -8.242457926023217e-06 3.5259345301047323e-06 4.716523395918582e-06 -1.0534537486731295e-05 0.0 0.0
0.0 0.0 0.0 0.0 0.0 0.0 0.0 0.0
0.0 0.0 0.0 0.0 0.0 0.0 0.0 0.0
0.0 0.0 0.0 0.0 0.0 0.0 0.0 0.0
0.0 0.0 0.0 0.0 0.0 0.0 0.0 0.0
0.0 0.0 0.0 0.0 0.0 0.0 0.0 0.0
0.0 0.0 0.0 0.0 0.0 0.0 0.0 0.0
0.0 6.214807080749283e-05 -6.080390518571152e-05 3.984327519692932e-05 2.0960629988782207e-05 2.3283314819155148e-05 0.0 0.0
0.0 0.0011217026932046916 -0.0009372805534145238 0.0006800064083289048 0.0002572741450856186 0.00021862049477743584 0.0 0.0
0.0 0.004011281206443564 -0.0036158516396322636 0.0029292469150326702 0.0006866047245995921 0.00046561824134872963 0.0 0.0
0.0 0.009294835214566106 -0.008476318957111952 0.00744327063330853 0.0010330483238034363 0.0006050936301160732 0.0 0.0
0.0 0.017756399308268046 -0.0159169080352236 0.014610227930106235 0.0013066801051173727 0.0006587305790076339 0.0 0.0
0.0 0.02964558683585671 -0.02633650760621023 0.024763346225806525 0.001573161380403684 0.0006114653287761121 0.0 0.0
0.0 0.045144798634655876 -0.03983432471705775 0.037959699035969185 0.0018746256810884781 0.0004123767103532839 0.0 0.0
0.0 0.06404790093264959 -0.05624199673072169 0.05401307757111634 0.002228919159605364 9.795807484613318e-05 0.0 0.0
0.0 0.08567278070488288 -0.07525613944419964 0.07261857147275919 0.002637567971440387 -0.00031402804554687275 0.0 0.0
0.0 0.10996660916881024 -0.09651780093936006 0.09343283519781842 0.0030849657415415953 -0.0008428853093967016 0.0 0.0
0.0 0.13639513770593567 -0.11961050478597023 0.11606369889069121 0.003546805895279093 -0.001457102911648099 0.0 0.0
0.0 0.16427903425020787 -0.14393439296946486 0.1399480939021214 0.003986299067343326 -0.0021451997154204507 0.0 0.0
0.0 0.19255939468455105 -0.16852326503096549 0.16416846642633237 0.004354798604633243 -0.002757275721747294 0.0 0.0
0.0 0.2195442090577291 -0.1919347221798243 0.18733486132536736 0.004599860854456676 -0.0029635023147486037 0.0 0.0
0.0 0.2429825072797796 -0.212266121944097 0.20755353165242998 0.004712590291666766 -0.002672081821399129 0.0 0.0
0.0 0.25971400541438383 -0.2270233638119082 0.22214919833043187 0.00487416548147645 -0.005551402399121941 0.0 0.0
0.0 0.26323933016113116 -0.23061125343533836 0.2254911606045253 0.005120092830813156 -0.03031756855452273 0.0 0.0
0.0 0.2593969704018997 -0.22145207728294103 0.2090639122876548 0.012388164995285755 5.440092820663267e-15 0.0 0.0
0.0 0.26323933016108375 -0.23061125343529693 0.22549116060448404 0.005120092830812762 0.03031756855453244 0.0 0.0
0.0 0.25971400541430023 -0.2270233638118344 0.22214919833036134 0.00487416548147283 0.00555140239912786 0.0 0.0
0.0 0.24298250727964915 -0.21226612194398423 0.20755353165231802 0.004712590291666447 0.0026720818214001386 0.0 0.0
0.0 0.21954420905757885 -0.19193472217969307 0.18733486132523813 0.00459986085445474 0.0029635023147460207 0.0 0.0
0.0 0.19255939468440125 -0.16852326503083426 0.16416846642620464 0.004354798604629038 0.0027572757217455696 0.0 0.0
0.0 0.1642790342500488 -0.1439343929693259 0.13994809390198482 0.003986299067341068 0.0021451997154168893 0.0 0.0
0.0 0.13639513770578543 -0.11961050478583887 0.11606369889056263 0.003546805895276165 0.0014571029116446574 0.0 0.0
0.0 0.10996660916865303 -0.0965178009392231 0.09343283519768346 0.0030849657415395887 0.0008428853093927716 0.0 0.0
0.0 0.08567278070474221 -0.07525613944407726 0.07261857147263871 0.0026375679714384435 0.0003140280455435126 0.0 0.0
0.0 0.06404790093252735 -0.05624199673061493 0.05401307757101155 0.0022289191596034067 -9.795807484971712e-05 0.0 0.0
0.0 0.045144798634557205 -0.03983432471697171 0.037959699035884975 0.0018746256810866825 -0.0004123767103563691 0.0 0.0
0.0 0.02964558683577991 -0.026336507606142763 0.024763346225740668 0.0015731613804020803 -0.0006114653287775896 0.0 0.0
0.0 0.017756399308212215 -0.01591690803517393 0.014610227930057954 0.0013066801051159669 -0.0006587305790075556 0.0 0.0
0.0 0.009294835214531923 -0.008476318957080922 0.007443270633279207 0.0010330483238017046 -0.000605093630114871 0.0 0.0
0.0 0.004011281206427218 -0.0036158516396170267 0.002929246915019303 0.0006866047245977264 -0.0004656182413472821 0.0 0.0
0.0 0.0011217026931979312 -0.0009372805534090285 0.0006800064083247806 0.00025727414508425 -0.00021862049477636738 0.0 0.0
0.0 6.214807080612128e-05 -6.0803905184573625e-05 3.98432751961537e-05 2.0960629988419975e-05 -2.328331481884427e-05 0.0 0.0
0.0 0.0 0.0 0.0 0.0 0.0 0.0 0.0
0.0 0.0 0.0 0.0 0.0 0.0 0.0 0.0
0.0 0.0 0.0 0.0 0.0 0.0 0.0 0.0
SCALARS Wm float 4
LOOKUP_TABLE default
14.58246808733997 2.0992338312026875 6.309138533770499 6.174095722366776
7.701422179960233 3.617895556627162 1.868704756560983 2.2148218667720916
0.8970929156087126 0.7863830216604608 0.025035728413959735 0.0856741655342922
0.6357557067071509 0.567882795630563 0.01921439977576281 0.04865851130082465
1.4427801944350702 0.9054650977756264 0.19872472353240644 0.3385903731270363
3.3538346055107136 1.3918272502256444 0.7781990860140828 1.1838082692709866
7.177122484357973 2.0823461539808727 2.314025621398807 2.780750708978295
13.50805870270742 3.0148928375816753 5.179664083298305 5.313501781827436
22.98653898066581 4.261892459451849 9.839946661970503 8.884699859243455
36.01549281328279 5.83857810653871 16.653400532112226 13.523514174631874
52.695015411744514 7.725418224848035 25.796934903194227 19.172662283702255
72.7801676283268 9.884939146897926 37.16549725011121 25.72973123131767
96.18890379107681 12.264184083215387 50.84602024343833 33.07869946442311
122.56892384997721 14.798335986266167 66.67267475565747 41.09791310805364
151.2929686377768 17.28079459643982 84.3925268803984 49.619647160938484
181.32348152432175 19.39455988807134 103.53039661128457 58.398525024965785
211.11623723013562 20.806234493020032 123.20307601924581 67.10692671786987
238.8176395585386 21.315608182831365 142.232676853668 75.26935452203904
262.5925721794322 21.08814622142999 159.15624956136446 82.34817639663797
279.25767017750985 19.598823784891522 171.97235304185867 87.68649335075946
284.40752844285294 16.686010755970035 177.65120550912084 90.07031217776216
279.2576701774994 19.59882378492973 171.97235304182342 87.68649335074619
262.5925721793798 21.08814622147211 159.15624956129778 82.34817639660977
238.817639558438 21.31560818285791 142.2326768535791 75.26935452200087
211.11623722997587 20.806234492992285 123.20307601915366 67.1069267178299
181.32348152417302 19.394559888065697 103.53039661118615 58.39852502492127
151.29296863761206 17.28079459641435 84.39252688030408 49.619647160893614
122.56892384983409 14.798335986259463 66.67267475556613 41.09791310800849
96.1889037909315 12.264184083194726 50.84602024335635 33.078699464380435
72.78016762820266 9.88493914688711 37.16549725003822 25.729731231277334
52.69501541163309 7.725418224825409 25.796934903138517 19.17266228366914
36.01549281320481 5.838578106531831 16.653400532069135 13.52351417460385
22.986538980608756 4.261892459442611 9.839946661942783 8.88469985922337
13.508058702669697 3.0148928375768844 5.179664083280341 5.313501781812475
7.177122484334863 2.082346153975699 2.314025621389824 2.7807507089693386
3.3538346054992565 1.3918272502223323 0.7781990860106991 1.183808269266224
1.4427801944309033 0.9054650977741249 0.19872472353129603 0.3385903731254825
0.6357557067060593 0.5678827956292627 0.01921439977579697 0.04865851130099945
0.8970929156076592 0.7863830216598472 0.02503572841380909 0.0856741655340015
7.701422179954903 3.6178955566284174 1.8687047565576882 2.214821866768801
14.582468087308591 2.099233831186504 6.309138533761994 6.174095722360104
17.65452957748684 7.570698343658585 4.960366026773245 5.12346520705502
3.287637850134442 0.7241200060682594 1.1079809171119768 1.455536926954205
0.30913756835481215 0.3676212582648606 -0.021604539523266242 -0.03687915038678212
0.48340697017270606 0.45612485895003924 0.005973445293062199 0.021308665929604727
1.0759956154803603 0.7295210930881706 0.11395801197605351 0.23251651041613636
2.66712983601852 1.107011898172943 0.6183494333663204 0.9417685044792563
5.888842471264423 1.5744115998939818 1.9160900241215453 2.3983408472488965
11.422750976788473 2.1865906767039984 4.493030702130469 4.743129597954004
19.743744689084146 2.942340721750494 8.73185090837985 8.069553058953804
31.114758543031932 3.818926042756646 14.910304414860502 12.385528085414792
45.59478164567404 4.785372160552692 23.18304840051889 17.626361084602454
63.1483835429095 5.839452848802967 33.617112823395125 23.691817870711414
83.36328776767253 6.973322405830952 45.903373623875204 30.486591737966375
106.29648625842214 8.131719082502002 60.26351712313832 37.90125005278183
131.35497678785774 9.227997353738385 76.32884395801824 45.7981354761012
157.74038035209034 10.103402079620016 93.68189751383707 53.95508075863313
184.24199731493832 10.580559877481358 111.6208790998093 62.040558337647596
209.26065773983856 10.54439655087636 129.06379759385732 69.6524635951049
230.6674012934621 9.858932142750012 144.55499894056135 76.25347021015068
245.8010833047699 8.66125753498201 156.07786004388743 81.06196572590042
251.73609512127027 7.3004086929066805 161.24563237226326 83.19005405610038
245.80108330471572 8.661257534968051 156.07786004385912 81.06196572588851
230.66740129338072 9.858932142752492 144.55499894050257 76.25347021012578
209.26065773972243 10.544396550871689 129.0637975937793 69.65246359507167
184.2419973148271 10.580559877491995 111.62087909972487 62.040558337610136
157.74038035196386 10.103402079623892 93.68189751374751 53.95508075859244
131.35497678772214 9.227997353730188 76.32884395793224 45.79813547605976
106.29648625828997 8.131719082494062 60.26351712305567 37.90125005274026
83.36328776755833 6.973322405832661 45.90337362379961 30.48659173792604
63.14838354280083 5.839452848797061 33.61711282332958 23.69181787067418
45.59478164558344 4.785372160544687 23.18304840046761 17.62636108457115
31.114758542962765 3.8189260427509715 14.910304414822376 12.385528085389415
19.743744689034365 2.9423407217465214 8.731850908353676 8.069553058934156
11.422750976756605 2.1865906767031067 4.493030702113808 4.743129597939692
5.888842471245171 1.5744115998907204 1.9160900241136836 2.3983408472407644
2.6671298360096833 1.1070118981718104 0.6183494333628473 0.9417685044750275
1.075995615476985 0.7295210930864721 0.11395801197539245 0.23251651041512048
0.4834069701720326 0.4561248589492366 0.005973445293069407 0.02130866592972684
0.3091375683547642 0.36762125826462516 -0.02160453952320485 -0.03687915038665597
3.287637850126509 0.7241200060669415 1.1079809171086867 1.4555369269508818
17.654529577458074 7.570698343645835 4.960366026764508 5.123465207047722
13.516112031699 6.0934415433493525 3.51500514021049 3.907665348139152
2.0766752610255157 0.33236627636848126 0.743218671878247 1.0010903127787898
0.18878270406652006 0.18845074784065502 0.00012157251866884447 0.00021038370719615544
0.3522932417325486 0.35153682903581907 -0.00042496751000297144 0.0011813802067325873
0.803628213847137 0.6278934753757905 0.05040341758936102 0.1253313208819855
2.0779400199445246 0.9886572447070261 0.41610482235936086 0.6731779528781376
4.7923011821636 1.4305218219831033 1.4411446333559617 1.9206347268245363
9.621369580148784 1.9830267941109905 3.6331025314690453 4.005240254568746
16.931142070772594 2.6428715345948786 7.290594521822053 6.99767601435566
26.949508111353545 3.3904068273758567 12.678590585563658 10.880510698414032
39.65880744055703 4.213896904324038 19.86833330354667 15.576577232686342
54.929703966117984 5.116607546643898 28.818313127003925 20.99478329247015
72.79605731789127 6.106280680088207 39.64291700883177 27.046859628971326
92.75638161234109 7.154224383318318 51.94275095481904 33.65940627420368
114.76950907068597 8.177688915663307 65.88405463730419 40.70776551771847
138.06558441330526 9.065784545615324 80.98176592602285 48.018033941667156
161.62757330718762 9.65488610416027 96.64440034887748 55.32828685414986
183.94406315038194 9.7444063967411 111.97183235224462 62.227824401396305
202.97614908934023 9.192706666000944 125.5976759085021 68.18576651483714
216.4111308001543 8.287548813777462 135.64585822037387 72.47772376600291
221.37415712683003 6.50977559934975 140.37250147399254 74.4918800534877
216.41113080013994 8.287548813798052 135.64585822034977 72.47772376599208
202.97614908927366 9.192706666004474 125.59767590845362 68.18576651481563
183.9440631502852 9.744406396737233 111.9718323521803 62.22782440136765
161.6275733070749 9.654886104155626 96.64440034880349 55.32828685411576
138.06558441320902 9.065784545635712 80.98176592594379 48.018033941629575
114.76950907056123 8.177688915648968 65.88405463723008 40.70776551768216
92.7563816122208 7.154224383304993 51.94275095474855 33.65940627416719
72.79605731778328 6.106280680080833 39.64291700876677 27.046859628935707
54.92970396602895 5.116607546645105 28.818313126946958 20.994783292436907
39.658807440477446 4.213896904318666 19.868333303501252 15.576577232657517
26.949508111295216 3.390406827372666 12.678590585531127 10.880510698391419
16.931142070725752 2.6428715345877114 7.2905945217997115 6.997676014338327
9.621369580119557 1.9830267941102862 3.6331025314539533 4.005240254555322
4.792301182148356 1.430521821981165 1.44114463334968 1.9206347268175072
2.0779400199368716 0.9886572447055085 0.4161048223567085 0.6731779528746547
0.80362821384481 0.627893475374358 0.05040341758903892 0.12533132088141313
0.35229324173200977 0.35153682903518707 -0.00042496750998528854 0.0011813802068079732
0.18878270406637782 0.18845074784054294 0.00012157251866562405 0.00021038370716931063
2.076675261018717 0.3323662763672144 0.7432186718755986 1.001090312775902
13.516112031671751 6.093441543338529 3.5150051402018203 3.9076653481314017
10.307661560785075 4.7641274398316185 2.532164253818943 3.0113698671345173
1.4143345987999647 0.1498494019217357 0.5134974777614382 0.7509877191167895
0.1312152608959364 0.1312152608959364 0.0 0.0
0.25907042014802323 0.2621264587792853 -0.0005894442269579565 -0.0024665944043041283
0.5928542446124404 0.5274784412022252 0.015705571885886078 0.04967023152432895
1.5491901838819169 0.8567192520399478 0.24327983012615464 0.44919110171581456
3.8094304171222504 1.2864565863270507 1.0535217139392334 1.4694521168559638
7.892386881961439 1.7780205134114144 2.8304855953513073 3.2838807731987227
14.209642107154824 2.3490323223673344 5.928068585483234 5.932541199304264
22.875791147489657 2.981561335090571 10.518901545926955 9.375328266472122
33.822300711636416 3.6742363464536814 16.622505008276125 13.525559356906625
47.02206628266468 4.447274380743491 24.280699460077372 18.29409244184383
62.255431174390914 5.304660079665565 33.33903846356517 23.611732631160145
79.64126631356949 6.233837068489012 43.99723938700866 29.410189858071863
98.61589502987924 7.197727038513142 55.80544309363215 35.61272489773396
118.79865047912519 8.098683659526014 68.62230328804364 42.077663531555494
139.517902091677 8.780560495895875 82.16023545226574 48.57710614351545
159.27040733081995 9.026261250732146 95.46663518453093 54.77751089555683
176.22940136160832 8.700209893266935 107.35017796917174 60.17901349916962
188.36172044090281 7.965611620253997 116.25009217928645 64.14601664136245
192.8672609047371 5.848813626915199 120.86667877964148 66.15176849818035
188.36172044085905 7.96561162023885 116.2500921792662 64.1460166413539
176.22940136153395 8.700209893246779 107.35017796913434 60.179013499152816
159.27040733074296 9.026261250735926 95.46663518447532 54.77751089553169
139.51790209158386 8.7805604958943 82.16023545220386 48.577106143485736
118.79865047901022 8.098683659506117 68.62230328797962 42.077663531524486
98.61589502978194 7.197727038511359 55.805443093569124 35.612724897701376
79.64126631347837 6.233837068491287 43.99723938694788 29.41018985803922
62.25543117429831 5.304660079656854 33.33903846351161 23.6117326311298
47.02206628258143 4.447274380736184 24.280699460030192 18.29409244181508
33.822300711566186 3.6742363464466647 16.622505008237955 13.525559356881576
22.875791147435983 2.9815613350845647 10.518901545899212 9.375328266452202
14.209642107117912 2.349032322363449 5.928068585464959 5.932541199289503
7.892386881935538 1.778020513407593 2.8304855953400563 3.2838807731878865
3.8094304171091484 1.2864565863252488 1.053521713933825 1.469452116850076
1.5491901838764253 0.8567192520386386 0.24327983012441654 0.44919110171337073
0.5928542446111008 0.5274784412015481 0.015705571885658146 0.04967023152389436
0.2590704201478833 0.2621264587791099 -0.000589444226947659 -0.0024665944042789713
0.13121526089591642 0.13121526089591642 0.0 0.0
1.4143345987945142 0.14984940192092264 0.5134974777592527 0.7509877191143388
10.307661560762007 4.7641274398228655 2.5321642538117892 3.0113698671273563
7.750903776682998 3.6971188582622574 1.7698093504444115 2.2839755679763325
1.0370516898050575 0.12515342839429944 0.37306056854428915 0.5388376928664684
0.11919608695313237 0.11919608695313237 0.0 0.0
0.20637073628967312 0.20674654575169357 -3.9479844947256286e-05 -0.00033632961707322256
0.4353201118859538 0.4284783921007377 -0.0011823717845804728 0.008024091569796672
1.1262294179835484 0.7337136344938137 0.12631968889282771 0.26619609459690663
2.908047482742896 1.1228826668214855 0.7242613590339919 1.0609034568874196
6.2621829480773545 1.5751929123756827 2.0997062655195116 2.587283770182162
11.585082784252041 2.062380365406403 4.642293928914832 4.880408489930803
18.91377962422815 2.592096098291258 8.445179674053682 7.876503851883216
28.17847422296143 3.1715375921661626 13.53023584837936 11.476700782415895
39.287539067403934 3.823014857535364 19.870183874453613 15.594340335414959
52.20522922632846 4.566516324259796 27.465930933337557 20.172781968731112
66.67658379112206 5.394347652301134 36.11327100221113 25.168965136609753
82.80362537638968 6.275618562711657 46.01189146590782 30.51611534777019
100.1279661054383 7.173534161407872 56.83627045937696 36.118161484653484
117.90170553115523 7.954026490104586 68.13432431239197 41.81335472865869
135.18861109084474 8.395021027944953 79.48733944381125 47.30625061908852
150.32354649222864 8.302396084601495 89.84433691955117 52.17681348807605
161.51519948445767 7.722335224298872 97.90404119503336 55.888823065125415
165.77641708827855 5.246603443611482 102.53514629587205 57.99466734879506
161.51519948445187 7.7223352243159455 97.90404119501794 55.88882306511793
150.32354649219906 8.302396084617342 89.8443369195202 52.176813488061555
135.18861109075476 8.395021027918323 79.48733944376862 47.30625061906781
117.9017055310642 7.954026490087671 68.13432431234203 41.81335472863452
100.12796610534642 7.173534161386057 56.83627045933059 36.11816148462974
82.80362537629573 6.2756185626985 46.01189146585506 30.516115347742183
66.67658379104122 5.394347652301144 36.11327100215924 25.16896513658083
52.20522922625216 4.566516324252819 27.465930933293983 20.17278196870536
39.28753906733959 3.823014857532814 19.870183874415748 15.594340335391008
28.178474222902093 3.1715375921593125 13.530235848348209 11.476700782394577
18.913779624184684 2.5920960982885997 8.44517967403038 7.876503851865713
11.585082784220955 2.062380365404616 4.642293928899057 4.880408489917282
6.26218294805748 1.5751929123726998 2.0997062655110543 2.587283770173727
2.9080474827318445 1.1228826668197018 0.7242613590297047 1.0609034568824387
1.1262294179792192 0.7337136344927838 0.12631968889154863 0.266196094594887
0.435320111885047 0.4284783921000619 -0.0011823717846489617 0.008024091569634262
0.2063707362894263 0.2067465457514603 -3.947984494739411e-05 -0.0003363296170866451
0.11919608695294322 0.11919608695294322 0.0 0.0
1.0370516898009459 0.12515342839412497 0.3730605685424161 0.5388376928644059
7.7509037766638 3.697118858254118 1.7698093504390702 2.2839755679706064
5.725954743448145 2.843365239376216 1.2082608498737368 1.6743286541981925
0.7380692371771629 0.14667402608979818 0.22018171997850414 0.3712134911088607
0.13516612339160572 0.13516612339160572 0.0 0.0
0.18381767257043283 0.18377047383511882 5.391671695534375e-06 4.180706361851356e-05
0.3349427636812258 0.3468538801269556 -0.003785438965648069 -0.00812567748008172
0.7910373185294282 0.6069608798805373 0.04840388439125664 0.13567255425763428
2.080281290799508 0.9477226763223215 0.4175957982124129 0.7149628162647732
4.800097661057305 1.3630988042867676 1.5095799700679045 1.927418886702633
9.056824685918992 1.784248370999149 3.4247099888791572 3.84786632604069
15.112098048432188 2.2236937757594464 6.498259481128188 6.39014479154455
22.716376896157687 2.702013004714535 10.579410926416893 9.43495296502626
31.79833808582358 3.248623255492283 15.649873980214382 12.89984085011693
42.31558859638966 3.8864330770287334 21.690849373271586 16.73830614608934
54.27541037868762 4.619099406167374 28.72968580048609 20.926625172034154
67.47357938236999 5.434146214261936 36.61516127882207 25.42427188928598
81.72222320513083 6.292419215365691 45.27114444471188 30.158659545053297
96.85808216888239 7.143423077416058 54.70471734176566 35.00994174970069
111.72888724709743 7.807217151918564 64.12047763711642 39.80119245806248
125.12732778686667 7.979424320717722 72.95573449097891 44.19216897517005
135.6226656329422 7.555727128218947 80.35195880698855 47.71497969773466
139.82044448331797 4.705473597044901 85.14031381743058 49.97465706884259
135.6226656329099 7.555727128203593 80.35195880697707 47.71497969772921
125.12732778682347 7.979424320715467 72.95573449095133 44.19216897515669
111.72888724706031 7.807217151930855 64.1204776370832 39.8011924580462
96.85808216881553 7.143423077407192 54.70471734172714 35.00994174968112
81.72222320509415 6.29241921539304 45.27114444467033 30.158659545030797
67.47357938230826 5.434146214267762 36.615161278778565 25.42427188926196
54.2754103786219 4.6190994061670105 28.729685800444894 20.926625172009963
42.31558859633045 3.886433077026038 21.69084937323671 16.738306146067707
31.79833808577038 3.248623255490731 15.649873980183312 12.899840850096329
22.716376896107565 2.7020130047067585 10.579410926392256 9.43495296500856
15.112098048396478 2.223693775759154 6.498259481108474 6.390144791528849
9.056824685892913 1.7842483709964088 3.4247099888669603 3.8478663260295445
4.800097661041201 1.3630988042849717 1.509579970060835 1.9274188866953945
2.080281290791084 0.9477226763208929 0.41759579820937637 0.7149628162608133
0.7910373185262959 0.6069608798796184 0.048403884390485256 0.13567255425619262
0.3349427636805551 0.3468538801260736 -0.0037854389655988894 -0.008125677479919768
0.18381767257012638 0.18377047383483294 5.391671693421099e-06 4.180706360001141e-05
0.13516612339139789 0.13516612339139789 0.0 0.0
0.7380692371741769 0.14667402608970964 0.22018171997718025 0.3712134911072873
5.7259547434333395 2.843365239370047 1.208260849869753 1.6743286541935405
4.090591654724504 2.154391255760054 0.7628002785987689 1.173400120365683
0.5479237940196229 0.18919648568955377 0.1252233047843272 0.23350400354574133
0.16304468815333276 0.16305018632053558 -2.8514702602354354e-07 -5.213020176798422e-06
0.18092257744430432 0.18093862043750963 -1.4930271074752752e-06 -1.4549966097786164e-05
0.2773680024190704 0.2872851447167052 -0.00230343236509348 -0.007613709932541547
0.5553234139382447 0.4975115807202724 0.009417281097117473 0.04839455212085529
1.4277729734597497 0.7810071939507437 0.2184320586869045 0.42833372082210097
3.3817457641187922 1.1328128137993838 0.9122312338057298 1.3367017165136796
6.805224890473377 1.5118316821428819 2.4407059077622457 2.852687300568249
11.453007002955534 1.8730583157019494 4.658859320900497 4.921089366353087
17.484351502771453 2.2658660224467275 7.811689876652744 7.406795603671979
24.62221473638906 2.7199378381790384 11.68674237419228 10.215534524017738
32.85654897377837 3.2633291800742676 16.279363060982295 13.313856732721794
42.21814018985331 3.9106537175515133 21.614457691177765 16.693028781124028
52.6481902788253 4.650999692807204 27.658493309020074 20.33869727699803
64.15167125578661 5.46734160229965 34.485469794720736 24.198859858766212
76.13784055444546 6.346005761353815 41.58418370683697 28.20765108625471
88.72368024288417 7.203819449924012 49.27758233418691 32.24227845877323
100.73731900882541 7.695170944587588 56.897135069559766 36.14501299467804
110.629087484321 7.478064144434381 63.60835417072785 39.54266916915881
114.96301788380379 4.240013797923642 68.68046297713624 42.04254110874385
110.62908748430533 7.47806414442605 63.60835417072289 39.542669169156355
100.73731900881359 7.695170944610034 56.89713506953705 36.145012994666565
88.72368024285487 7.203819449939804 49.27758233415731 32.24227845875772
76.13784055438096 6.3460057613313205 41.58418370680977 28.207651086239856
64.15167125571779 5.467341602287227 34.485469794684526 24.198859858746044
52.64819027876121 4.650999692798299 27.658493308985385 20.338697276977545
42.21814018979741 3.910653717544534 21.614457691147578 16.693028781105294
32.85654897372578 3.2633291800647752 16.279363060956292 13.313856732704728
24.622214736347768 2.719937838179777 11.686742374167572 10.215534524000413
17.484351502735674 2.2658660224437397 7.8116898766341825 7.40679560365775
11.453007002926165 1.8730583157003464 4.6588593208854245 4.92108936634039
6.805224890453827 1.5118316821410946 2.4407059077530455 2.852687300559686
3.3817457641056925 1.1328128137957822 0.9122312338012762 1.3367017165086341
1.4277729734539362 0.7810071939492819 0.21843205868510557 0.42833372081954874
0.5553234139363883 0.49751158071943385 0.009417281096813276 0.04839455212014164
0.27736800241869675 0.2872851447159794 -0.002303432365028134 -0.007613709932254747
0.18092257744430462 0.18093862043753642 -1.4930271109956265e-06 -1.4549966120789468e-05
0.16304468815317252 0.16305018632036594 -2.851470254176852e-07 -5.213020168041371e-06
0.5479237940175219 0.18919648568947106 0.12522330478344157 0.23350400354460887
4.090591654713672 2.154391255755666 0.7628002785959601 1.1734001203620479
2.8873165701377372 1.6389020716192721 0.49272798338306256 0.7556865151354032
0.3991092249189999 0.21981257377517432 0.04976702786926903 0.12952962327455653
0.1919221761150201 0.19150805588149167 4.737333118325389e-05 0.00036674690234517264
0.18963808610556587 0.1895935693160209 -1.4067775116989048e-06 4.592356705667585e-05
0.24886080511201486 0.2549261439610413 -0.001275441925408455 -0.004789896923617869
0.40927209046505425 0.40634838436531123 -0.003960058658942473 0.006883764758685209
0.9173233328294785 0.6180901842460063 0.08471248687052782 0.2145206617129443
2.2102273873773783 0.9037375412075552 0.48448525851289864 0.8220045876569259
4.591618693448161 1.2205959492079412 1.4441022037760487 1.926920540464171
8.135831137881992 1.533671980839203 3.1108794547106955 3.4912797023320925
12.520322126782936 1.8540657656337725 5.267607395005341 5.39864896614383
17.776872527333616 2.2303153833658254 7.995365445103374 7.551191698864423
23.848252615053354 2.688776958105736 11.249885526529727 9.909590130417895
30.745346643893452 3.2511916216654906 15.013770940075075 12.480384082152879
38.55855880800029 3.929499816190748 19.359403024286436 15.269655967523121
47.140292706610495 4.695078998771185 24.18579661745412 18.259417090385192
56.5050142147857 5.5399602927226725 29.573320508816806 21.391733413246207
66.44311304006912 6.530751000422759 35.25289938925281 24.65946265039355
76.71904820698617 7.394037949782904 41.295015908714596 28.02999434848865
86.27048317210262 7.500055704733869 47.469409489665466 31.301017977703268
90.99859380680842 3.869647627924094 52.97988272983443 34.149063449049876
86.27048317211695 7.500055704754082 47.469409489661544 31.301017977701363
76.71904820694249 7.394037949761853 41.295015908699824 28.02999434848082
66.44311304002248 6.530751000409302 35.25289938923163 24.659462650381585
56.50501421476614 5.539960292735019 29.57332050879664 21.391733413234487
47.14029270656358 4.695078998762589 24.18579661743019 18.259417090370782
38.55855880794923 3.9294998161755452 19.35940302426444 15.269655967509259
30.745346643854926 3.2511916216601695 15.013770940055148 12.480384082139604
23.848252615022712 2.688776958105059 11.249885526512163 9.909590130405473
17.776872527301308 2.230315383363108 7.99536544508656 7.5511916988516345
12.520322126755712 1.8540657656318413 5.267607394991498 5.398648966132371
8.135831137859954 1.5336719808364323 3.1108794547005383 3.491279702322986
4.591618693434427 1.2205959492067648 1.4441022037699065 1.9269205404577558
2.2102273873694473 0.903737541205974 0.48448525851014423 0.8220045876533282
0.9173233328261753 0.6180901842450268 0.08471248686969922 0.21452066171144946
0.40927209046366675 0.4063483843642061 -0.003960058659036552 0.006883764758497108
0.24886080511175535 0.2549261439606077 -0.001275441925369581 -0.004789896923482647
0.18963808610520153 0.1895935693154577 -1.4067774993853344e-06 4.59235672432154e-05
0.1919221761147047 0.19150805588113418 4.73733311858399e-05 0.0003667469023846404
0.39910922491761963 0.219812573775226 0.04976702786871255 0.12952962327368078
2.887316570129233 1.6389020716154055 0.4927279833809859 0.7556865151328416
1.9006237698052795 1.2138190756285243 0.23960246379137337 0.44720223038538104
0.3052235091910537 0.23861028643714696 0.01390318815621801 0.05271003459768891
0.2156874184097332 0.21545820877302277 3.8124889311465766e-05 0.00019108474739895157
0.20470539099882554 0.20488386786239723 -1.9978711648892035e-05 -0.00015849815192267098
0.2373699827756847 0.24129322934729233 -0.0009355933808528078 -0.0029876531907549273
0.3340017150046685 0.33997515122373534 -0.004295884343436815 -0.0016775518756301064
0.5813837761126966 0.4826946193933434 0.019064396081302316 0.07962476063805095
1.2830519883557874 0.6802439445885538 0.19873702019111827 0.40407102357611546
2.719153521984958 0.9212074362402483 0.7022914890911217 1.0956545966535873
4.974469210455936 1.1736883971493564 1.6615923205875736 2.1391884927190064
7.872353771346096 1.4385340409445775 2.9873726508141902 3.4464470795873297
11.371917544631764 1.7514131929415804 4.690764228021707 4.929740123668473
15.396756108775785 2.1371819390454636 6.705361992986891 6.554212176743429
19.984325088714595 2.616250112708395 9.04344463344119 8.324630342565015
25.24561354551574 3.218674984616671 11.765765537808015 10.261173023091056
31.230963735983572 3.947845206459083 14.905186870264188 12.377931659260321
37.83939234415206 4.749705117486288 18.43061936139709 14.659067865268694
45.05135884378163 5.67232228637492 22.285420103215902 17.093616454190798
53.51292531680563 6.897440371571636 26.792320726946258 19.823164218287733
62.81343234833688 7.644619790749123 32.23620111852888 22.93261143905883
68.20270669532111 3.6605041074144626 38.18379141452888 26.358411173377775
62.81343234829851 7.644619790708007 32.23620111853062 22.932611439059894
53.512925316792895 6.8974403715667325 26.79232072694135 19.823164218284802
45.05135884375531 5.672322286367595 22.285420103204036 17.09361645418368
37.83939234412648 4.749705117488293 18.430619361380234 14.659067865257947
31.230963735956166 3.947845206457474 14.905186870248665 12.37793165925004
25.24561354549708 3.2186749846195917 11.76576553779531 10.261173023082165
19.98432508868865 2.6162501127014806 9.043444633430187 8.324630342556986
15.396756108748136 2.137181939035017 6.705361992977287 6.554212176735834
11.371917544613154 1.7514131929418528 4.690764228011392 4.92974012365991
7.872353771327293 1.4385340409424932 2.9873726508055176 3.4464470795792774
4.974469210442365 1.1736883971479575 1.6615923205815004 2.1391884927129112
2.7191535219776197 0.921207436240637 0.7022914890876039 1.095654596649379
1.2830519883512834 0.6802439445882525 0.19873702018944692 0.4040710235735837
0.5813837761106422 0.4826946193924811 0.01906439608087803 0.07962476063728299
0.33400171500391607 0.33997515122284205 -0.004295884343422225 -0.0016775518755037778
0.23736998277516572 0.2412932293465218 -0.0009355933808249869 -0.0029876531905311064
0.2047053909983886 0.20488386786197615 -1.9978711645261682e-05 -0.0001584981519423177
0.2156874184093321 0.21545820877239374 3.812488933272574e-05 0.00019108474760568718
0.30522350919014585 0.23861028643697058 0.013903188155930545 0.05271003459724465
1.9006237697994088 1.213819075625858 0.2396024637900303 0.4472022303835208
1.2166412986106765 0.9036637069421594 0.09835827707780254 0.2146193145907151
0.24109708671811927 0.23839864982938486 -0.002813250558592504 0.005511687447326765
0.23209198452911187 0.230961713315761 0.00015472597073285869 0.000975545242618014
0.22216693005177568 0.22128525400613092 0.00010499332041274067 0.0007766827252318435
0.2386205404508351 0.24104459833317637 -0.0007393114154450428 -0.001684746466896138
0.3038901138989204 0.305999989616063 -0.002094733122133421 -1.5142595009278906e-05
0.4174171518103291 0.38202768168263546 0.004677691064990008 0.03071177906270367
0.6501220885664785 0.46795256703690996 0.04663177568642205 0.1355377458431464
1.2153016110575114 0.5983046471887565 0.20334194993800478 0.41365501393074977
2.266680944821779 0.7574871404621685 0.576210806448688 0.9329829979109229
3.7955196770444215 0.9511526276295313 1.2059051393331255 1.6384619100817643
5.624285133824774 1.1832361767461912 1.9756159624569634 2.4654329946216205
7.801649626946742 1.4804950294845651 2.9394076847910324 3.381746912671145
10.343760209699404 1.866532987547981 4.0861122928432945 4.39111492930813
13.32068595852499 2.3693361422658024 5.435030134170204 5.516319682088979
16.867695618944243 3.02320343324781 7.0478553340882595 6.796636851608168
21.073722137413238 3.809594028077067 8.99934473357275 8.264783375763422
25.8263451086385 4.592471832366623 11.324854184506858 9.909019091765023
31.620200156566376 5.673742020267978 14.117352098708935 11.829106037589447
40.15045212943395 7.53213161952646 18.127792313693284 14.490528196214228
47.694119207342894 3.833911611730291 25.06632053677483 18.793887058837765
40.15045212947144 7.532131619553011 18.12779231370007 14.490528196218367
31.620200156557793 5.6737420202612086 14.117352098707777 11.829106037588796
25.82634510864368 4.592471832386683 11.324854184498127 9.909019091758871
21.073722137383484 3.809594028063446 8.999344733563342 8.264783375756696
16.867695618929943 3.023203433246838 7.047855334080783 6.79663685160232
13.320685958511193 2.369336142263976 5.435030134163653 5.516319682083574
10.343760209689432 1.8665329875458652 4.086112292839022 4.3911149293045435
7.801649626938963 1.480495029483537 2.9394076847874917 3.3817469126679307
5.624285133813949 1.1832361767466961 1.9756159624512548 2.4654329946159987
3.795519677031287 0.9511526276233705 1.205905139329721 1.6384619100781967
2.2666809448158194 0.7574871404612797 0.576210806446413 0.9329829979081257
1.2153016110529542 0.5983046471869975 0.2033419499368335 0.41365501392912274
0.6501220885647551 0.4679525670367709 0.04663177568590168 0.13553774584208264
0.4174171518093087 0.3820276816819934 0.004677691064858805 0.03071177906245645
0.3038901138984299 0.30599998961527974 -0.002094733122100562 -1.5142594749174062e-05
0.2386205404503242 0.2410445983324916 -0.0007393114154227588 -0.001684746466744718
0.22216693005149882 0.22128525400572951 0.00010499332042271404 0.0007766827253465947
0.232091984528657 0.23096171331519522 0.00015472597074090542 0.0009755452427208247
0.24109708671771451 0.2383986498292242 -0.002813250558651838 0.005511687447142372
1.216641298606822 0.9036637069403337 0.09835827707703364 0.21461931458945427
0.7504002053602086 0.6604975628655785 0.021057561759289113 0.0688450807353408
0.2063089701452307 0.21754799497489427 -0.003068697998380601 -0.008170326831282883
0.24136683749171467 0.24156248022691212 -1.5145076167096223e-05 -0.0001804976590304033
0.2389783406601367 0.23752416369366125 0.00019599206900635505 0.001258184897469148
0.2506596826877184 0.2508943989974159 -0.0003990894660234784 0.00016437315632589832
0.30052478447751396 0.2994421987093419 -0.0011463786185986577 0.0022289643867708683
0.3798640832535017 0.3442341998122058 0.006796541813396292 0.02883334162789974
0.43810330119150875 0.3382238114251204 0.02613495820592119 0.07374453156046704
0.5073877092505547 0.2935973933561186 0.07165011279266566 0.14214020310177078
0.7131673445421997 0.29016851175598646 0.15328732325097993 0.2697115095352343
1.1802404939772617 0.31084699078142053 0.34608820997815476 0.523305293217685
1.8612034025224355 0.31313959587656326 0.63499276638466 0.9130710402612129
2.749337522831949 0.3412449913187324 1.0372308953498044 1.3708616361634118
3.8316815627890417 0.42124386880482123 1.5284591809177543 1.8819785130664697
5.130003409261507 0.5788269011566604 2.108242206160258 2.442934301944586
6.641267220582723 0.8367768903244696 2.759332993928423 3.04515733632983
8.409975861468974 1.2194234739956449 3.5119462744695475 3.6786061130037817
10.382443350779178 1.6821781172214108 4.364119465319962 4.336145768237808
13.051631591358031 2.3548207150953866 5.494935307357102 5.201875568905539
20.234318933402598 4.865003062235077 7.90404857426162 7.465267296905908
33.80271398949213 4.285919177236861 16.109094173877583 13.407700638377666
20.23431893339876 4.865003062224291 7.904048574265676 7.465267296908793
13.051631591354372 2.3548207150941387 5.494935307355763 5.20187556890448
10.382443350742465 1.682178117197163 4.364119465313179 4.336145768232122
8.409975861457825 1.2194234739943963 3.511946274464126 3.6786061129992946
6.641267220563632 0.8367768903137093 2.759332993924161 3.045157336325762
5.130003409252493 0.5788269011541718 2.1082422061569086 2.4429343019414103
3.8316815627858736 0.4212438688062229 1.5284591809154222 1.8819785130642286
2.7493375228243178 0.341244991317867 1.0372308953464349 1.3708616361600166
1.861203402513329 0.3131395958742712 0.6349927663815218 0.913071040257537
1.180240493979389 0.3108469907860212 0.34608820997681466 0.5233052932165521
0.7131673445412285 0.2901685117549818 0.15328732325088895 0.2697115095353587
0.5073877092507938 0.29359739335695356 0.07165011279241126 0.14214020310142855
0.4381033011904647 0.3382238114251036 0.026134958205546406 0.07374453155981506
0.37986408325246135 0.34423419981155706 0.00679654181325531 0.028833341627648976
0.30052478447668163 0.29944219870845895 -0.0011463786186156244 0.002228964386838398
0.25065968268722294 0.2508943989967367 -0.00039908946599938224 0.0001643731564856853
0.23897834065975326 0.23752416369310236 0.00019599206902295345 0.0012581848976278504
0.241366837491412 0.24156248022651017 -1.5145076150011723e-05 -0.0001804976589481905
0.20630897014500194 0.21754799497434418 -0.003068697998331473 -0.008170326831010901
0.7504002053583287 0.6604975628644252 0.02105756175902356 0.06884508073488024
0.47193792036810656 0.4683649149685997 0.00035164789801534987 0.00322135750149166
0.18930547743925624 0.19062329734455724 -0.00015838144239187566 -0.0011594384629091286
0.24384683389740588 0.2433807214342301 1.1697270558317722e-05 0.00045441519261748534
0.25295986823647487 0.25127385001497216 0.00022099385004548537 0.0014650243714573342
0.2692114992822256 0.26767808393370884 -0.00011910077890161058 0.0016525161274184674
0.32401267610571644 0.31809596187942996 -0.0005957488405541104 0.006512463066840599
0.4334467704410678 0.389366816635183 0.008048825507947693 0.03603112829793747
0.6603012182657104 0.47036765708786843 0.04972831520795819 0.14020524596988343
1.2188104359318945 0.5983956712599786 0.20479479185796373 0.41561997281395274
2.2665420411822095 0.7571823304245824 0.5761870102307665 0.9331727005268594
3.804018346393295 0.9536612317243254 1.2092876846434195 1.6410694300255508
5.656305985672456 1.1883896130146998 1.9905969264169263 2.4773194462408306
7.857092815107805 1.486528594366514 2.965252407872911 3.405311812868378
10.36436444509559 1.8585170009025194 4.1030365899565115 4.402810854236558
13.072458602151581 2.305180335606137 5.337498014740587 5.429780251804853
15.809320306127702 2.824244360741751 6.577172934438696 6.407903010947259
18.238043479977875 3.3912137947166 7.638019852372821 7.208809832888446
20.170973037024353 4.064357048337193 8.409878733432983 7.696737255254184
20.824655588836297 4.529048415978158 8.571738768795685 7.723868404062444
17.18162566331973 3.4830891450272636 7.35052852822684 6.348007990065625
34.25145719403661 6.3016479440370645 14.998896916712791 12.950912333286746
17.181625663346008 3.483089145043369 7.350528528232779 6.348007990069853
20.824655588839548 4.529048415984715 8.57173876879374 7.723868404061105
20.170973037010206 4.064357048337513 8.409878733424609 7.696737255248072
18.238043479967605 3.391213794722169 7.638019852363823 7.208809832881625
15.809320306103684 2.824244360737911 6.577172934427342 6.4079030109384245
13.07245860213171 2.305180335601719 5.337498014732189 5.429780251797815
10.364364445073225 1.8585170008959278 4.10303658994796 4.402810854229342
7.857092815091002 1.4865285943666304 2.9652524078640696 3.405311812860299
5.656305985658344 1.1883896130150018 1.9905969264096794 2.477319446233665
3.8040183463759947 0.953661231718756 1.2092876846376392 1.6410694300195996
2.266542041174481 0.7571823304236196 0.5761870102277431 0.9331727005231178
1.2188104359270895 0.5983956712589902 0.2047947918564531 0.4156199728116462
0.6603012182633328 0.47036765708746947 0.04972831520725113 0.14020524596861184
0.4334467704397023 0.3893668166342543 0.008048825507800159 0.03603112829764761
0.3240126761047549 0.3180959618783748 -0.0005957488405774537 0.006512463066957506
0.2692114992817204 0.2676780839331173 -0.00011910077889759634 0.0016525161275007024
0.25295986823588856 0.25127385001423236 0.0002209938500572713 0.0014650243715990203
0.24384683389734926 0.24338072143409253 1.169727056157895e-05 0.00045441519269493787
0.18930547743897494 0.19062329734418348 -0.00015838144238492812 -0.0011594384628234996
0.47193792036713755 0.46836491496744964 0.00035164789802436924 0.003221357501663707
0.3028427685041778 0.30292002139701235 -5.288107123057896e-06 -7.196478571146139e-05
0.1746834645672487 0.1748587833754678 -1.6615419405462565e-05 -0.0001587033888136914
0.23995896522027718 0.2406451700586787 -0.0001318629091514455 -0.0005543419292500587
0.2625916349751289 0.26091143633217484 0.0001513602802245685 0.0015288383627294494
0.2925206125587904 0.29278424691061244 -0.00042130819971604244 0.00015767384789411743
0.37502405937457955 0.3648772534443921 0.00029618018649908793 0.009850625743687886
0.6059286424402986 0.4846059810068653 0.025368616947904894 0.09595404448552834
1.2949097338292148 0.6809949368102626 0.20356166737893017 0.41035312964002213
2.720063255915628 0.9207542185684963 0.7028588565424387 1.0964501808046927
4.974403736350677 1.1738470952814672 1.661320212891491 2.1392364281777168
7.881796915890275 1.4403508586522618 2.991231604447859 3.4502144527901546
11.400629554674722 1.7553169750784998 4.7042388677443 4.941073711851921
15.439019319786766 2.1384316690067937 6.728540839171928 6.572046811608054
19.96843989852925 2.595316005594338 9.047010399677736 8.326113493257168
24.92897993292857 3.1293618210670937 11.63402370958028 10.165594402281204
30.076591278839075 3.7285696801077415 14.34886540692389 11.999156191807435
35.000758669774925 4.404036023750196 16.91878700171626 13.67793564430846
39.11343705623893 5.167500653218137 18.939036792048284 15.006899610972471
41.11293333125324 5.576858092078144 19.934964337117698 15.601110902057407
38.4128167466522 5.469559922537624 18.456275428110423 14.48698139600415
47.45010077625801 11.071909273116827 20.38582494055749 15.992366562583697
38.41281674663808 5.469559922513679 18.456275428116534 14.48698139600787
41.112933331229826 5.57685809206149 19.93496433711347 15.601110902054852
39.1134370562164 5.167500653217637 18.939036792034727 15.006899610964032
35.00075866972981 4.404036023735038 16.918787001698007 13.67793564429676
30.076591278823017 3.728569680123818 14.348865406904677 11.999156191794519
24.928979932907385 3.129361821071883 11.634023709565003 10.165594402270493
19.968439898501835 2.595316005596238 9.047010399660898 8.326113493244701
15.439019319758863 2.138431669006376 6.728540839156476 6.5720468115960085
11.400629554643537 1.75531697507345 4.704238867730034 4.941073711840051
7.881796915866016 1.440350858650536 2.9912316044361216 3.4502144527793575
4.974403736334305 1.1738470952803144 1.6613202128838904 2.139236428170101
2.720063255906492 0.9207542185685308 0.7028588565382635 1.0964501807996982
1.294909733824427 0.680994936809676 0.20356166737727877 0.4103531296374725
0.605928642438171 0.48460598100565266 0.025368616947565138 0.09595404448495362
0.3750240593735841 0.36487725344352123 0.0002961801864603086 0.009850625743602378
0.2925206125583947 0.29278424690981336 -0.0004213081996644688 0.00015767384824580941
0.2625916349748003 0.26091143633172786 0.00015136028023184832 0.0015288383628406224
0.23995896522009516 0.2406451700583112 -0.00013186290913363993 -0.0005543419290823215
0.17468346456709286 0.17485878337537655 -1.661541941040989e-05 -0.00015870338887332785
0.3028427685032517 0.3029200213960907 -5.288107123425113e-06 -7.196478571559829e-05
0.18854576369456616 0.18854576369456616 0.0 0.0
0.1556418127366507 0.15563400773654754 1.3132924944346226e-06 6.491707608768217e-06
0.22946100443540735 0.23036914174940476 -0.00013538119882622275 -0.0007727561151711738
0.26848748513820164 0.2688714152548113 -0.0001567624843205828 -0.00022716763228911176
0.31990468135210476 0.31837589423445656 -0.00038781290086077396 0.0019166000185090214
0.4591344562543891 0.4222594205742666 0.003810575766972449 0.03306445991315041
0.9504770965016283 0.6242622347172352 0.09731293512556434 0.22890192665882844
2.216991155984367 0.9037129939525439 0.4881429481286555 0.8251352139031676
4.589650935920576 1.2206920927719367 1.4430286253664393 1.925930217782198
8.13785726387416 1.534344970362858 3.111839629626834 3.4916726638844673
12.529493487067715 1.8553012912859244 5.270665004774692 5.4035271910070986
17.794381518380657 2.2315584643983937 8.004745867579144 7.558077186403128
23.853283527074755 2.6842798191887214 11.255619603774907 9.913384104111117
30.664096190019738 3.219628308110284 14.984232803681133 12.460235078228335
38.191412304221835 3.8293004435743545 19.196504492703543 15.165607367943926
46.09128629421084 4.498210077853708 23.656616426413244 17.936459789943896
53.98754462170267 5.215044011598804 28.19170320224879 20.58079740785509
60.54084160245364 5.79890225276616 31.95683885865613 22.78510049103135
63.79206374988958 5.995662514092695 33.91050609082469 23.885895144972196
59.787020131666324 5.39592467515903 31.758677090009677 22.632418366497607
66.8074640712472 14.158032779992006 30.612443883588618 22.036987407666604
59.787020131686305 5.395924675173221 31.758677090013407 22.632418366499667
63.7920637498773 5.99566251409613 33.910506090814664 23.885895144966533
60.540841602440146 5.79890225277863 31.956838858639603 22.785100491021925
53.98754462165351 5.215044011594982 28.191703202220197 20.580797407838322
46.09128629415397 4.498210077841345 23.656616426385508 17.93645978992712
38.19141230416621 3.8293004435585734 19.196504492679146 15.165607367928487
30.664096189984402 3.21962830811528 14.984232803656889 12.460235078212232
23.85328352703337 2.684279819186603 11.25561960375186 9.913384104094922
17.794381518346803 2.231558464400279 8.004745867558752 7.558077186387761
12.52949348703351 1.8553012912837248 5.2706650047570935 5.403527190992697
8.137857263848575 1.5343449703610825 3.1118396296142907 3.4916726638732003
4.589650935903415 1.2206920927685365 1.4430286253596936 1.9259302177751854
2.216991155975528 0.9037129939506137 0.4881429481256475 0.8251352138992655
0.9504770964973892 0.6242622347154954 0.09731293512462103 0.22890192665727244
0.4591344562527544 0.4222594205731821 0.003810575766778521 0.0330644599127938
0.3199046813514583 0.3183758942336278 -0.0003878129008408708 0.0019166000186713417
0.26848748513788895 0.2688714152542059 -0.00015676248428514276 -0.0002271676320318764
0.22946100443529857 0.23036914174936474 -0.00013538119883364503 -0.0007727561152325299
0.15564181273663233 0.15563400773649477 1.3132924965308297e-06 6.491707641006967e-06
0.18854576369398976 0.18854576369398976 0.0 0.0
0.11080699959729312 0.11080699959729312 0.0 0.0
0.13177335719353314 0.13176877155183572 2.4297873496715517e-07 4.342662962442389e-06
0.21314813655600753 0.21363944273743976 -6.704047206945682e-05 -0.0004242657093627435
0.2708192657528655 0.2712988877024152 -0.0002480122074904027 -0.00023160974205948723
0.3529375614726293 0.3527013575100506 -0.0011376213578645352 0.0013738253204432097
0.6095863798943782 0.5112075991554123 0.023357806711933146 0.0750209740270329
1.4458190819801624 0.7774748786164005 0.22603420125578283 0.44231000210797894
3.3819412409985667 1.1335248583091255 0.9124882141588695 1.3359281685305722
6.802848557127558 1.5127007810831272 2.438978175283955 2.851169600760473
11.457142493214072 1.8739324815383587 4.660431629190754 4.92277838248496
17.49273950221065 2.2654480182636134 7.816979803120649 7.410311680826392
24.616664264131305 2.7151505984760753 11.686385714057575 10.215127951597653
32.8014864041546 3.248311714643821 16.2553690063234 13.29780568318741
42.05694822430727 3.873560903135087 21.53807998522188 16.645307335950267
52.2862857107249 4.575133332807503 27.478613759465368 20.232538618452026
63.328531080527256 5.317797901854517 34.054523155852955 23.9562100228198
73.97556859470122 5.9684966943739255 40.42864775529622 27.57842414503107
83.0188948729975 6.3100544725025145 46.13044938783151 30.57839101266347
87.14606211278807 6.000918459926051 49.0691072261763 32.076036426685704
82.10687391666355 5.460629792202439 46.122762906977094 30.523481217484004
88.72936936282812 17.27917576283145 42.68207137320961 28.768122226787064
82.10687391664567 5.460629792184589 46.122762906977194 30.52348121748389
87.1460621127795 6.000918459939683 49.06910722616162 32.07603642667812
83.01889487292357 6.310054472467906 46.1304493878058 30.578391012649842
73.97556859465088 5.968496694380011 40.42864775525969 27.57842414501123
63.32853108046775 5.317797901855742 34.05452315581414 23.956210022797862
52.286285710668835 4.575133332806809 27.4786137594306 20.232538618431416
42.05694822424277 3.8735609031253198 21.538079985188077 16.645307335929367
32.80148640409559 3.2483117146386458 16.255369006290813 13.297805683166136
24.616664264078516 2.7151505984686772 11.686385714030955 10.215127951578891
17.492739502167062 2.2654480182614356 7.816979803097199 7.410311680808425
11.457142493181635 1.8739324815372944 4.660431629173766 4.9227783824705735
6.802848557104806 1.5127007810795132 2.4389781752740265 2.851169600751269
3.381941240985186 1.1335248583063429 0.9124882141538802 1.335928168524962
1.4458190819734926 0.7774748786147438 0.22603420125370702 0.44231000210504134
0.6095863798923526 0.5112075991543662 0.023357806711612764 0.07502097402637375
0.3529375614719475 0.3527013575091401 -0.0011376213578295857 0.0013738253206371691
0.2708192657525008 0.27129888770185484 -0.0002480122074773775 -0.00023160974187675588
0.21314813655570256 0.21363944273716187 -6.704047207214618e-05 -0.0004242657093871722
0.13177335719346903 0.131768771551776 2.4297873480463597e-07 4.342662958242992e-06
0.11080699959699868 0.11080699959699868 0.0 0.0
0.06119298113036427 0.06119298113036427 0.0 0.0
0.1053221100416412 0.1053221100416412 0.0 0.0
0.19213486712545125 0.19226133988260474 -1.6145687984471458e-05 -0.00011032706916899054
0.27085884812864974 0.2730877860500804 -0.0004555140096233018 -0.0017734239118071791
0.39864185696320353 0.39041113812844586 -0.0007415864651935391 0.008972305299951012
0.8340532960723678 0.6146622883477729 0.06347348735509113 0.15591752036950363
2.092232118213982 0.9470519613095486 0.42443186114449627 0.7207482957599369
4.7967775791621925 1.3647965748992839 1.5073271252669012 1.9246538789960064
9.05654007057893 1.7856428355954606 3.4239664334725517 3.84693080151092
15.118453920915291 2.2243051335210464 6.501409550186523 6.3927392372077145
22.717988956603044 2.6987382736287917 10.58227262582618 9.436978057148078
31.760042459209203 3.2344755091766393 15.635391858166468 12.8901750918661
42.18649725552897 3.85678866957739 21.629558845010116 16.700149740941463
54.03267901647706 4.583558919950356 28.59911356247137 20.85000653405534
67.13361422283778 5.401673520638993 36.41762988591827 25.31431081628052
81.10988426409861 6.186277764442689 44.94059856206445 29.983007937591495
95.02276521248056 6.719682470651311 53.77194894741277 34.531133794416505
106.10673815619229 6.665218134316386 61.13420107560668 38.30731894626921
110.78239612800539 5.928932788031578 64.70636839640504 40.1470949435687
105.31289166052048 5.7100114060420095 61.26027678991767 38.342603464560725
112.66466115179486 20.41013050324959 56.386058388482546 35.86847226006272
105.31289166050003 5.710011406031981 61.26027678991083 38.34260346455721
110.7823961279652 5.9289327880234906 64.70636839638361 40.147094943558095
106.10673815615219 6.66521813433314 61.13420107556879 38.30731894625025
95.02276521241053 6.719682470650094 53.77194894736735 34.531133794393085
81.10988426402803 6.186277764444264 44.94059856201726 29.98300793756651
67.1336142227522 5.401673520626915 36.417629885871136 25.31431081625415
54.032679016414 4.583558919955134 28.599113562428645 20.850006534030236
42.18649725545949 3.856788669576675 21.629558844967715 16.700149740915116
31.76004245914593 3.2344755091732886 15.635391858130376 12.890175091842252
22.717988956551057 2.6987382736283787 10.582272625796143 9.436978057126534
15.1184539208748 2.224305133518212 6.501409550165487 6.392739237191107
9.056540070549715 1.7856428355917902 3.423966433459239 3.846930801498686
4.796777579144262 1.3647965748962567 1.507327125259503 1.9246538789885017
2.092232118204272 0.9470519613075339 0.4244318611411773 0.720748295755562
0.834053296068896 0.6146622883460797 0.06347348735443002 0.1559175203683861
0.39864185696215043 0.3904111381275782 -0.0007415864652597628 0.008972305299832117
0.27085884812872707 0.27308778604999434 -0.0004555140096011694 -0.0017734239116661413
0.19213486712482278 0.1922613398820011 -1.6145687986787774e-05 -0.00011032706919151955
0.10532211004155556 0.10532211004155556 0.0 0.0
0.061192981130297884 0.061192981130297884 0.0 0.0
0.03165602478092568 0.03165602478092568 0.0 0.0
0.07947869751436748 0.07947869751436748 0.0 0.0
0.16885069210223094 0.16884387533856302 3.960330448053176e-07 6.420730623111643e-06
0.27153235017069177 0.2737169144828116 -0.000483455186883505 -0.0017011091252362583
0.47346746662007444 0.4482198156491648 0.0041267838387981075 0.021120867132111473
1.1340890374006372 0.7208024994163238 0.1285773123184175 0.28470922566589574
2.9117588995856276 1.1233853112523837 0.7272589326754011 1.061114655657842
6.259021921744578 1.5771561367677083 2.0969465122818414 2.5849192726950254
11.587900024936134 2.063937047446779 4.643222800959692 4.88074017652966
18.92070590335316 2.591859628159236 8.449313079187386 7.879533196006543
28.168806350711094 3.1640703672105492 13.528949947947213 11.475786035553329
39.212208620038496 3.798413618282658 19.83910251847463 15.574692483281204
52.004527650100854 4.522420038071283 27.36750874522044 20.114598866809143
66.34970237514658 5.357010165996749 35.92758575059052 25.06510645855936
82.43211423203059 6.273564739943145 45.77068517550656 30.38786431658083
99.60442390166713 7.109243899010749 56.531503696648564 35.963676306007805
116.20901874847564 7.463678195252008 67.32759328503217 41.41774726819146
129.4530333133527 6.962386489219085 76.57607320844514 45.91457361568856
135.22955689608514 5.902940372581663 81.20808557438362 48.118530949119894
129.6258825314116 6.037635283891925 77.32964720470144 46.258600042818244
138.12207492180056 23.516377166321135 71.25273537420844 43.35296238127092
129.62588253140612 6.037635283900078 77.32964720469202 46.25860004281394
135.22955689605823 5.902940372594981 81.20808557435636 48.11853094910695
129.45303331329788 6.962386489229058 76.5760732084013 45.914573615667464
116.20901874839228 7.463678195252563 67.32759328497578 41.41774726816398
99.60442390158441 7.1092438990088755 56.531503696595074 35.963676305980464
82.4321142319485 6.2735647399491405 45.770685175449046 30.387864316550314
66.3497023750474 5.357010165980014 35.92758575053749 25.0651064585299
52.00452765001466 4.522420038067902 27.3675087451684 20.114598866778344
39.21220861996604 3.7984136182813732 19.839102518431087 15.574692483253582
28.16880635064812 3.1640703672087516 13.528949947910888 11.475786035528476
18.92070590330209 2.591859628154597 8.449313079160863 7.879533195986639
11.587900024899927 2.0639370474434102 4.6432228009420635 4.880740176514448
6.259021921721885 1.5771561367662876 2.096946512271116 2.584919272684483
2.9117588995742847 1.1233853112500236 0.7272589326712623 1.0611146556529965
1.134089037395721 0.7208024994141663 0.12857731231732872 0.2847092256642262
0.47346746661892736 0.4482198156483425 0.004126783838688735 0.021120867131896058
0.2715323501702308 0.27371691448224506 -0.00048345518687121375 -0.0017011091251429686
0.16885069210176912 0.1688438753381021 3.960330447626668e-07 6.4207306222634735e-06
0.07947869751440109 0.07947869751440109 0.0 0.0
0.03165602478085709 0.03165602478085709 0.0 0.0
0.015496573231220187 0.015496573231220187 0.0 0.0
0.05693978844747515 0.05693978844747515 0.0 0.0
0.1463741978837904 0.1463716955591187 1.22441077168008e-07 2.379883594554421e-06
0.2775002822913107 0.28039960836225813 -0.0006672547014977065 -0.002232071369449993
0.5858674289836171 0.5169265811686643 0.016651311198825527 0.052289536616127535
1.545557541689807 0.8523074293971141 0.24453035655480312 0.4487197557378895
3.8073082959190754 1.2871238696344964 1.0522754910097982 1.467908935274781
7.893186952532797 1.7796720377723318 2.8303103735346458 3.2832045412258175
14.21606517400766 2.3503692911743608 5.931016466859508 5.934679415973788
22.880432658293838 2.979530716171048 10.522859868400891 9.378042073721902
33.79716075490686 3.661760827516023 16.61487862702916 13.520521300361711
46.91174081037377 4.414032139069166 24.23268544132865 18.265023229975967
61.99775551119289 5.249797554473224 33.20965789369583 23.538300063023886
79.2234542363708 6.181805031509679 43.75918763214389 29.282461572717175
98.10300226397267 7.180450254996592 55.47755394262097 35.444998066355126
118.11070614463586 8.031940147419588 68.20576382985223 41.873002167364035
137.64186355174394 8.225965452588374 81.26337575686826 48.15252234228734
153.18683758254053 7.314769720084392 92.47306122672866 53.39900663572745
160.4440546968006 5.937707885546653 98.37948757015155 56.12685924110244
155.38276107265455 6.3767941596200615 94.63054924980395 54.37541766323061
165.68904518611242 26.56006435738811 87.87889116325896 51.250089665465325
155.3827610726052 6.376794159590975 94.63054924978995 54.375417663224304
160.44405469672313 5.937707885523481 98.37948757011439 56.12685924108521
153.18683758244464 7.3147697200696715 92.473061226673 53.39900663570204
137.64186355165634 8.225965452597917 81.26337575680216 48.152522342256155
118.11070614452046 8.031940147399384 68.20576382978831 41.87300216733268
98.1030022638574 7.180450254983005 55.477553942553634 35.44499806632078
79.22345423627952 6.181805031516516 43.75918763208016 29.282461572682855
61.997755511104685 5.249797554481192 33.209657893634514 23.53830006298893
46.91174081028249 4.414032139059536 24.232685441277873 18.265023229945083
33.79716075483125 3.6617608275112947 16.614878626986375 13.520521300333591
22.88043265823678 2.979530716168752 10.522859868368998 9.378042073699026
14.216065173966177 2.350369291171521 5.931016466838163 5.934679415956496
7.893186952507398 1.7796720377713484 2.830310373522324 3.2832045412137285
3.8073082959035043 1.2871238696304468 1.052275491004326 1.4679089352687336
1.5455575416831169 0.8523074293948317 0.24453035655296265 0.4487197557353215
0.5858674289819105 0.5169265811676816 0.016651311198573302 0.05228953661565563
0.2775002822907831 0.28039960836154804 -0.0006672547014851825 -0.0022320713692796923
0.14637419788360612 0.14637169555893761 1.2244107697319608e-07 2.3798835915387224e-06
0.05693978844742467 0.05693978844742467 0.0 0.0
0.015496573231200525 0.015496573231200525 0.0 0.0
0.0074653105725063056 0.0074653105725063056 0.0 0.0
0.03946313982426161 0.03946313982426161 0.0 0.0
0.12808839261950716 0.12808839261950716 0.0 0.0
0.2967347546425757 0.3006818628015115 -0.0010978664946736099 -0.0028492416642620817
0.7472232663744653 0.5978603284163904 0.04039080864022336 0.10897212931785144
2.0560078881611705 0.9848855145667754 0.4080089162448429 0.6631134573495531
4.790053110483786 1.4310920228138766 1.4389440984327702 1.920016989237138
9.630214231174188 1.9844488365376294 3.638578633238106 4.007186761398454
16.940034500344325 2.643231962138241 7.29537990347429 7.001422634731794
26.94893602539191 3.385756627008212 12.681109709542161 10.882069688841533
39.61601041282454 4.196434357679521 19.852831100576257 15.566744954568737
54.78997841698515 5.0777607224361745 28.754640298376057 20.957577396172944
72.49674953079287 6.044498328269462 39.4894537412629 26.962797461260443
92.24560856807372 7.07663346732246 51.65756749449337 33.511407606257926
113.99418604835522 8.081341805607554 65.42991703143186 40.48292721131579
136.83613859367213 8.873817898146058 80.27865662938092 47.68366406614511
159.05728462719873 9.025062245850235 95.31791196926187 54.71431041208659
177.16750774908922 7.868176271978006 108.57411839447468 60.72521308263651
186.488137258737 5.983918621866635 116.36453709432914 64.13968154254124
182.9171374546136 6.6815172734393595 113.41788143242835 62.817738748745775
195.64250976159204 29.443344593165286 106.43770725649078 59.76145791193596
182.91713745456244 6.681517273421399 113.41788143240504 62.817738748735906
186.48813725866694 5.9839186218702505 116.36453709427795 64.13968154251883
177.167507749012 7.86817627199756 108.57411839440799 60.72521308260643
159.05728462708348 9.025062245847634 95.31791196918476 54.71431041205112
136.83613859353065 8.873817898124866 80.27865662929952 47.6836640661062
113.9941860482358 8.081341805607378 65.42991703135199 40.482927211276426
92.24560856795304 7.076633467313299 51.65756749441999 33.5114076062198
72.4967495306832 6.044498328268287 39.489453741192754 26.962797461222163
54.78997841688062 5.077760722424522 28.75464029831745 20.957577396138646
39.61601041273712 4.196434357674029 19.852831100526096 15.566744954536993
26.948936025323363 3.3857566270002843 12.681109709506403 10.882069688816676
16.94003450029803 2.6432319621354763 7.295379903449836 7.001422634712715
9.630214231141572 1.9844488365331356 3.6385786332232892 4.007186761385143
4.7900531104649025 1.4310920228098982 1.4389440984258046 1.9200169892292036
2.056007888153106 0.9848855145651674 0.4080089162420548 0.6631134573458844
0.7472232663720226 0.5978603284152785 0.04039080863973108 0.10897212931701347
0.2967347546420912 0.3006818628008745 -0.0010978664946478286 -0.002849241664135676
0.12808839261925822 0.12808839261925822 0.0 0.0
0.03946313982417442 0.03946313982417442 0.0 0.0
0.0074653105725118905 0.0074653105725118905 0.0 0.0
0.003546406988169409 0.003546406988169409 0.0 0.0
0.027510567347130553 0.027510567347130553 0.0 0.0
0.11875886374633686 0.11875886374633686 0.0 0.0
0.34214686239700326 0.34083013128869644 -0.0006327975528883432 0.0019495286611949944
0.9842979444295463 0.7003325118882616 0.09096033172361642 0.19300510081766825
2.6307828813656045 1.1039597707933808 0.6003195136034705 0.926503596968753
5.888555339757503 1.5748024336852362 1.914565710022094 2.399187196050174
11.431407663667361 2.186852771787882 4.495722338367958 4.748832553511516
19.756003657280132 2.9413411204719053 8.740306544421635 8.074355992386588
31.107002126830878 3.8113214629351795 14.910331216219388 12.38534944767631
45.53430340750072 4.7634621461534525 23.159135225118252 17.611706036228988
62.984253981905624 5.79723564031488 33.53927483333692 23.64774350825381
83.02957440452799 6.905540498935976 45.7297298393642 30.394304066227818
105.68594040930017 8.020309945137143 59.931534864751114 37.734095599411866
130.23823698077405 9.010198647628611 75.72195694326761 45.50608138987788
155.62914105476096 9.640610809541833 92.55348604221065 53.43504420300842
180.1723318298495 9.655255139678914 109.44116847489146 61.07590821527917
201.0558614168611 8.700581889919203 124.62139086063851 67.73388866630333
213.03345604633225 6.148489157271367 134.7814940733386 72.10347281572234
212.53828973616066 6.745113087824569 134.04411084512975 71.74906580320626
228.62780762799642 31.413238582411417 128.0094176946106 69.20515135097442
212.5382897361078 6.745113087814964 134.0441108450999 71.74906580319298
213.03345604627623 6.148489157297061 134.78149407328164 72.10347281569749
201.05586141674092 8.70058188991247 124.62139086055964 67.73388866626885
180.17233182970963 9.655255139671254 109.44116847479985 61.07590821523844
155.629141054638 9.640610809555538 92.55348604211719 53.4350442029653
130.23823698064055 9.01019864763156 75.72195694317548 45.50608138983349
105.68594040917219 8.020309945136235 59.93153486466651 37.734095599369425
83.02957440440323 6.9055404989365385 45.729729839282435 30.39430406618419
62.984253981783645 5.797235640298689 33.539274833269396 23.647743508215566
45.53430340740367 4.76346214614859 23.159135225061036 17.611706036194043
31.107002126754395 3.8113214629276886 14.910331216178077 12.385349447648634
19.75600365722472 2.9413411204655198 8.740306544393619 8.074355992365572
11.431407663632642 2.1868527717873105 4.495722338349613 4.748832553495722
5.8885553397360315 1.5748024336818292 1.91456571001322 2.3991871960409803
2.6307828813556173 1.1039597707914433 0.6003195135998499 0.9265035969643249
0.984297944425875 0.7003325118866679 0.09096033172282186 0.19300510081638544
0.34214686239604386 0.3408301312878325 -0.0006327975529219626 0.0019495286611334109
0.11875886374607526 0.11875886374607526 0.0 0.0
0.027510567347093205 0.027510567347093205 0.0 0.0
0.003546406988159178 0.003546406988159178 0.0 0.0
0.0011678294064325799 0.0011678294064325799 0.0 0.0
0.020408621852178063 0.020408621852178063 0.0 0.0
0.12642831637817234 0.12642831637817234 0.0 0.0
0.4359783189243145 0.4133455749350808 0.004487043127905101 0.01814570086132873
1.3205926226624793 0.8717730690121283 0.15733378101313905 0.29148577263721265
3.3588447666670964 1.408280791034947 0.794301054266989 1.1562629213651585
7.180248169822218 2.0830368866728612 2.3122349990867055 2.7849762840626475
13.526569329076821 3.014788818190415 5.190682998213577 5.321097512672834
22.995642971903113 4.258047504027339 9.8476881803143 8.889907287561487
35.99581644580451 5.822742968210875 16.651187676786957 13.521885800806661
52.60977393176377 7.688386573936533 25.76677376662043 19.15461359120686
72.57762670902535 9.819268448610265 37.07742278428362 25.680935476131424
95.77904961481887 12.143180416215163 50.65603398640056 32.9798352122032
121.7323537149857 14.519849885254427 66.29891138299881 40.91359244673252
149.51619701677967 16.59456402316902 83.64948885993283 49.2721441336777
177.59949455532603 17.853709722053967 102.02502356235296 57.720761270919134
203.82069290961016 17.842495032934078 120.18593929102467 65.79225858565134
225.89256042271654 16.668113843590564 136.42167168027913 72.80277489884696
240.94660297545815 14.884088892421214 148.2525508293709 77.80996325366601
236.6368851082194 6.93226120083194 150.76309664545613 78.94152726193134
321.4291475384384 95.80010129024512 148.00700582917338 77.62204041901987
236.63688510820663 6.932261200866678 150.7630966454223 78.94152726191766
240.94660297535629 14.884088892403614 148.25255082931125 77.80996325364137
225.892560422602 16.66811384360748 136.42167168018767 72.802774898807
203.82069290947948 17.842495032951938 120.18593929092174 65.79225858560585
177.59949455516949 17.85370972204027 102.02502356225378 57.72076127087532
149.51619701663589 16.594564023174996 83.6494888598314 49.27214413362954
121.73235371481424 14.519849885219553 66.29891138290748 40.91359244668723
95.77904961468461 12.143180416218424 50.65603398631007 32.97983521215618
72.57762670888691 9.819268448590394 37.07742278420762 25.68093547608887
52.609773931652 7.688386573922833 25.766773766558913 19.15461359117025
35.99581644571932 5.822742968200626 16.651187676741493 13.521885800777202
22.995642971842052 4.258047504021352 9.847688180282393 8.889907287538325
13.526569329035016 3.0147888181859575 5.19068299819318 5.321097512655881
7.180248169798236 2.083036886669934 2.312234999076123 2.7849762840521795
3.358844766654709 1.4082807910316237 0.7943010542629969 1.1562629213600881
1.3205926226578248 0.8717730690103418 0.1573337810119984 0.29148577263548425
0.43597831892318184 0.4133455749344246 0.00448704312777431 0.018145700860982536
0.12642831637788515 0.12642831637788515 0.0 0.0
0.020408621852148975 0.020408621852148975 0.0 0.0
0.0011678294064233147 0.0011678294064233147 0.0 0.0
CELL_DATA 800
SCALARS Stress float 6
LOOKUP_TABLE default
172.66735922505887 -526.4224842579135 -182.0605004355574 -111.14659683667884 0.0 0.0
405.1200766687492 -88.58346055302484 115.60951665587258 54.07137600504917 0.0 0.0
424.1490685688223 7.146419583951014 129.70381040238584 -2.542453926915785 0.0 0.0
483.23560739621826 -17.980597414029983 154.18842274701382 -15.983147076448208 0.0 0.0
562.1816307725308 -25.02322612881177 217.6061369206814 -11.677592603039958 0.0 0.0
638.5054659687739 -21.94665834885155 288.4965308476012 -10.557635732270032 0.0 0.0
712.2560070004207 -16.686688573188043 340.7683144474888 -11.689011448056693 0.0 0.0
787.5085068873861 -2.80659473952187 388.57512195817606 -13.800461860873348 0.0 0.0
866.400202712925 20.297609392337463 440.49542103181216 -15.748534339503117 0.0 0.0
947.9890621509337 51.05079487186575 497.1687338382168 -16.945624557070346 0.0 0.0
1030.0208951712284 86.69645513463522 556.3778213280059 -17.41342874763552 0.0 0.0
1111.075325763742 125.84998662443002 616.7561620047929 -17.404936979979837 0.0 0.0
1191.3766918765696 167.67220417921644 678.0118816316843 -17.230038021021784 0.0 0.0
1271.7724785887438 212.73592671806438 740.8766304225142 -16.889483107380606 0.0 0.0
1352.697500146957 261.474787244685 805.8079153596445 -16.22456938546147 0.0 0.0
1433.2340128119772 313.09033336371607 871.9645021850289 -15.037537559630653 0.0 0.0
1510.8973266970474 365.51400602366334 937.0764996565176 -13.24975967670062 0.0 0.0
1583.584602052746 417.2133721959347 999.3101899071104 -11.305622117349806 0.0 0.0
1652.4118520712605 470.14187985438554 1060.1395575412207 -11.259948883443215 0.0 0.0
1761.2622588442512 570.2877306937038 1164.157857712427 -19.015662889543165 0.0 0.0
1761.262258845421 570.2877306948865 1164.1578577133494 19.015662889568056 0.0 0.0
1652.4118520730206 470.14187985620856 1060.139557542568 11.259948883591935 0.0 0.0
1583.5846020533536 417.2133721966321 999.310189907444 11.305622117426935 0.0 0.0
1510.8973266967841 365.5140060235035 937.0764996561052 13.249759676637835 0.0 0.0
1433.2340128111814 313.0903333630485 871.96450218439 15.037537559383354 0.0 0.0
1352.6975001461906 261.474787244065 805.8079153591164 16.224569385502335 0.0 0.0
1271.7724785881455 212.73592671764033 740.8766304220851 16.88948310732109 0.0 0.0
1191.3766918755773 167.67220417843987 678.0118816310113 17.230038021124383 0.0 0.0
1111.0753257628685 125.84998662377399 616.7561620041253 17.40493697979339 0.0 0.0
1030.0208951703191 86.69645513395915 556.3778213273301 17.413428747614287 0.0 0.0
947.9890621507283 51.05079487192131 497.168733838049 16.94562455704993 0.0 0.0
866.4002027123724 20.29760939207449 440.4954210314681 15.748534339517114 0.0 0.0
787.5085068867053 -2.8065947399276467 388.5751219576881 13.800461860829781 0.0 0.0
712.2560070000687 -16.68668857325899 340.7683144472435 11.689011447835599 0.0 0.0
638.5054659684378 -21.94665834891059 288.49653084732637 10.557635732138646 0.0 0.0
562.1816307720783 -25.023226129004406 217.60613692032223 11.677592603000981 0.0 0.0
483.2356073956863 -17.98059741438571 154.18842274671658 15.983147076539082 0.0 0.0
424.1490685684769 7.146419583641004 129.70381040220863 2.5424539268679522 0.0 0.0
405.1200766688227 -88.58346055285678 115.60951665590565 -54.07137600511591 0.0 0.0
172.66735922565456 -526.4224842574064 -182.06050043502037 111.14659683622821 0.0 0.0
71.89982742724882 -552.1331932495378 -243.68331627454535 -162.44027447992337 0.0 0.0
284.47144152168835 -84.18685484086134 60.5857305721848 7.7639290642974625 0.0 0.0
373.2605780310519 35.30034034383111 122.59182910772392 -9.532290969331292 0.0 0.0
448.6851667485967 -16.608880275902685 136.37644407315256 -36.58941709779388 0.0 0.0
534.9924736167987 -24.93537309117025 194.57111303686452 -33.831708873644445 0.0 0.0
615.5098825782322 -22.4165247098623 270.03764665671423 -31.21553401644526 0.0 0.0
692.861711191194 -16.355759846981137 328.91652672897897 -32.80848879121429 0.0 0.0
769.0294912596453 -2.4945802212923383 378.72527511554904 -36.00606734066619 0.0 0.0
846.3007453744638 19.118631074177188 429.49331836374864 -38.85281307977969 0.0 0.0
924.3463301709698 46.895369865121694 483.0606684136522 -40.201846830359756 0.0 0.0
1001.5615609821627 78.52796617320197 537.9184600165282 -40.24557182493376 0.0 0.0
1077.514177266117 112.90973713978562 593.3853167372351 -39.659170671622206 0.0 0.0
1152.4563985417717 150.23906012844913 649.7383995365092 -38.822368609206606 0.0 0.0
1227.14430551544 190.34092636011792 707.2953132990613 -37.7439788909387 0.0 0.0
1301.743458609803 233.24832222027433 766.1698908577279 -36.13917588532679 0.0 0.0
1375.7680298608352 278.66888119114026 825.9840641526928 -33.6326499716486 0.0 0.0
1448.4228710605623 326.18179284851817 886.1234120497918 -30.25364066090473 0.0 0.0
1519.8190169102709 376.63791529668754 947.0403293519767 -27.12006532447545 0.0 0.0
1598.184531913604 439.4655123390853 1017.4974663920058 -26.106817964495313 0.0 0.0
1656.5676032806912 489.08251652213977 1071.399394962149 -27.451004586505306 0.0 0.0
1656.5676032803792 489.0825165218479 1071.3993949618725 27.45100458665876 0.0 0.0
1598.1845319124386 439.4655123379849 1017.4974663912753 26.106817964672555 0.0 0.0
1519.819016909668 376.6379152961678 947.0403293517675 27.120065324605186 0.0 0.0
1448.4228710610537 326.18179284910383 886.12341205023 30.25364066073951 0.0 0.0
1375.7680298614328 278.6688811918764 825.9840641530179 33.63264997167571 0.0 0.0
1301.7434586083937 233.24832221900408 766.1698908565356 36.139175885292985 0.0 0.0
1227.1443055152681 190.34092636012974 707.295313298879 37.74397889094587 0.0 0.0
1152.4563985427064 150.2390601296267 649.7383995371753 38.82236860946406 0.0 0.0
1077.5141772656605 112.90973713957811 593.385316736894 39.65917067179468 0.0 0.0
1001.5615609815516 78.52796617284577 537.9184600161161 40.245571824947035 0.0 0.0
924.3463301707475 46.89536986511496 483.06066841349946 40.201846830170766 0.0 0.0
846.300745374187 19.11863107417716 429.4933183635701 38.85281307978457 0.0 0.0
769.0294912602533 -2.4945802203668563 378.7252751159644 36.00606734065964 0.0 0.0
692.861711191558 -16.3557598463143 328.9165267291992 32.80848879114271 0.0 0.0
615.5098825781264 -22.41652470964832 270.0376466565582 31.215534016289197 0.0 0.0
534.99247361629 -24.935373091443587 194.57111303650134 33.83170887347771 0.0 0.0
448.6851667481793 -16.60888027615823 136.37644407293374 36.589417097810006 0.0 0.0
373.26057803083995 35.30034034385062 122.59182910767012 9.532290969368795 0.0 0.0
284.4714415219246 -84.18685484045498 60.58573057238874 -7.7639290644561 0.0 0.0
71.89982742750266 -552.1331932493224 -243.68331627428267 162.44027447961125 0.0 0.0
15.808063765851216 -562.6680364207035 -271.5117495888814 -178.4987462431284 0.0 0.0
159.47845847846378 -71.35678639600066 26.43650162473894 -47.7688815590174 0.0 0.0
302.9186185978423 39.63597715475953 102.76637872578054 -34.4669423566394 0.0 0.0
404.51274684578334 -7.262210909591136 121.23607070219853 -57.41164826101434 0.0 0.0
499.35271503675165 -23.664437870002736 170.234778169878 -58.003001796121104 0.0 0.0
588.7897047141196 -23.92962076103721 246.85220166533094 -53.41910293296415 0.0 0.0
669.4431645014247 -15.163203435275584 314.32472775824823 -54.30371223237446 0.0 0.0
746.0659746847043 -2.1017588404675394 366.34457916820844 -58.019467613902954 0.0 0.0
821.889908106788 17.908822939556828 416.24095854030725 -61.341282387134996 0.0 0.0
896.334749850099 42.42912370900312 466.5724694739818 -62.614041757731854 0.0 0.0
968.9777931967858 69.98734436144089 517.1784078783777 -62.241795758808465 0.0 0.0
1039.8344884824357 100.11808625889881 568.0091715841287 -61.10631056567148 0.0 0.0
1109.6038910296438 132.52892148052405 619.3460925180298 -59.71991762923343 0.0 0.0
1178.3740765423568 167.36523073703776 671.3436512971966 -57.937916228162074 0.0 0.0
1246.4606916649632 204.21595605742465 723.9609273524618 -55.46763896668989 0.0 0.0
1314.2111679310233 243.48131004659973 777.5660297726411 -51.969418074544436 0.0 0.0
1382.362657745782 286.4218727420316 833.1450060341654 -47.597032819998155 0.0 0.0
1453.1851118106356 336.1936894651944 893.4039511003325 -43.32945892485395 0.0 0.0
1520.1234351483392 387.2592305615872 952.3540241228055 -39.26316458670996 0.0 0.0
1568.259976207895 425.72511334651904 995.5894670807737 -34.485213418436466 0.0 0.0
1568.259976207739 425.7251133463802 995.5894670804901 34.485213418460816 0.0 0.0
1520.123435149281 387.25923056259865 952.3540241232735 39.263164586864235 0.0 0.0
1453.185111809767 336.19368946442785 893.4039510996085 43.32945892502479 0.0 0.0
1382.362657745965 286.4218727423169 833.1450060340499 47.597032819943436 0.0 0.0
1314.2111679325894 243.48131004833 777.5660297734985 51.96941807472642 0.0 0.0
1246.4606916644316 204.21595605704465 723.9609273520202 55.46763896671045 0.0 0.0
1178.3740765405794 167.36523073542907 671.3436512958253 57.937916228171446 0.0 0.0
1109.6038910286868 132.5289214797652 619.346092517336 59.71991762931232 0.0 0.0
1039.834488482868 100.11808625957872 568.0091715844757 61.10631056576092 0.0 0.0
968.9777931964725 69.98734436139537 517.1784078781841 62.241795758896664 0.0 0.0
896.3347498499941 42.429123709086355 466.57246947385534 62.61404175746847 0.0 0.0
821.8899081058872 17.908822938880746 416.24095853971414 61.34128238705766 0.0 0.0
746.065974684514 -2.1017588403376806 366.34457916804627 58.01946761386222 0.0 0.0
669.4431645016483 -15.16320343473241 314.32472775834265 54.30371223232268 0.0 0.0
588.7897047133481 -23.929620761578377 246.85220166475273 53.419102932829276 0.0 0.0
499.352715036315 -23.664437870179047 170.23477816956478 58.003001796006714 0.0 0.0
404.5127468456169 -7.262210909510107 121.236070702173 57.41164826096944 0.0 0.0
302.91861859765845 39.63597715458311 102.76637872567244 34.46694235654545 0.0 0.0
159.47845847872426 -71.35678639553524 26.43650162495672 47.76888155887222 0.0 0.0
15.80806376591434 -562.6680364205652 -271.51174958869774 178.4987462429528 0.0 0.0
-6.087682988830608 -553.2651876623142 -271.3039213181146 -180.50589120438468 0.0 0.0
90.39282863337189 -65.18221979499167 7.563182651514065 -94.98771014358006 0.0 0.0
236.54642765797033 35.68336744714483 81.66893853153454 -68.55373394988061 0.0 0.0
349.98972186904155 2.915932993323871 106.18827802003844 -80.21694568365368 0.0 0.0
454.02622118365787 -21.830073165907834 145.0366914086987 -84.78677268297068 0.0 0.0
553.0036397682936 -23.647722572402174 219.42197417461975 -77.34987889071857 0.0 0.0
639.4672645619498 -15.074324577768039 294.02753431790427 -76.43589255518907 0.0 0.0
718.439783657677 -1.1567228599779398 351.31859518764014 -79.90924840076829 0.0 0.0
792.4696622101455 16.498061619097328 400.2173029896011 -83.18701083476188 0.0 0.0
863.5504922231237 37.7546281797178 447.5225605405492 -84.19648050916224 0.0 0.0
931.7989798430372 61.33729625282761 494.04859708455047 -83.40908382039255 0.0 0.0
997.8210696598976 87.0614472713591 540.3076711814484 -81.80877625471757 0.0 0.0
1062.1322723498633 114.7206600049723 586.5741330854214 -79.8496262301635 0.0 0.0
1125.263609150344 144.1595926835239 633.0905348679901 -77.43807633797879 0.0 0.0
1186.9654355414132 174.82008115996058 679.4517797859862 -74.26550669851983 0.0 0.0
1248.2108213909662 207.91753389893185 726.7292559208361 -70.1007640028784 0.0 0.0
1311.6215341080795 245.9311848970951 777.4654262565587 -65.08482172661283 0.0 0.0
1376.7083168541583 289.41114114536583 831.7289135982304 -59.372545530443375 0.0 0.0
1437.3262533287134 333.0891268018162 883.8442117166878 -52.01442443242467 0.0 0.0
1481.9006890493608 366.3387795546066 922.6996473194413 -41.880633166794915 0.0 0.0
1481.900689048869 366.3387795541407 922.699647319138 41.88063316691845 0.0 0.0
1437.3262533262355 333.08912679940335 883.8442117150644 52.01442443260859 0.0 0.0
1376.7083168530216 289.41114114424846 831.7289135975253 59.37254553034363 0.0 0.0
1311.6215341079978 245.93118489710827 777.4654262567169 65.08482172655158 0.0 0.0
1248.2108213898287 207.91753389790392 726.7292559200482 70.1007640028404 0.0 0.0
1186.9654355394546 174.82008115799772 679.451779784557 74.26550669812394 0.0 0.0
1125.2636091507065 144.15959268406647 633.0905348682121 77.43807633799722 0.0 0.0
1062.1322723496069 114.72066000498313 586.5741330851517 79.84962623045213 0.0 0.0
997.8210696587 87.06144727041459 540.3076711805511 81.80877625481278 0.0 0.0
931.7989798413993 61.337296251409356 494.0485970833807 83.40908382042322 0.0 0.0
863.5504922221353 37.75462817893674 447.522560539856 84.19648050902124 0.0 0.0
792.4696622096918 16.498061618896458 400.21730298932306 83.18701083474137 0.0 0.0
718.4397836565777 -1.1567228607468394 351.31859518701947 79.90924840089565 0.0 0.0
639.4672645611995 -15.074324578180764 294.0275343173887 76.43589255519763 0.0 0.0
553.003639768032 -23.647722572309153 219.42197417437131 77.3498788907229 0.0 0.0
454.0262211837187 -21.83007316523624 145.03669140880595 84.78677268308743 0.0 0.0
349.98972186916365 2.915932993924761 106.18827802025916 80.21694568364147 0.0 0.0
236.5464276579687 35.68336744729055 81.66893853157777 68.55373394989343 0.0 0.0
90.39282863352828 -65.18221979461964 7.563182651672588 94.98771014347331 0.0 0.0
-6.087682988713908 -553.2651876620292 -271.30392131786783 180.5058912042552 0.0 0.0
-11.614694767162732 -531.6573361108244 -255.32510669911372 -177.55973844252892 0.0 0.0
52.91927518787792 -60.23198986709727 -2.1938144037658027 -131.7791142835427 0.0 0.0
179.95370587188103 28.367486134863412 62.49635760202332 -103.04808682671123 0.0 0.0
291.326359200998 10.235897931538798 90.52275792987317 -104.32701054351828 0.0 0.0
397.27786002754794 -17.656470103333696 120.72796230981642 -112.86120997374144 0.0 0.0
506.59186870273714 -22.958754745918526 187.75656681351145 -104.28857671641278 0.0 0.0
602.3469921880289 -15.202477801658471 267.658341464354 -99.90044894360636 0.0 0.0
684.4810176846595 -0.6835532597893064 331.7556010052988 -101.73946185816258 0.0 0.0
757.4882755204505 15.148696037231552 381.11506934342594 -104.40777161180628 0.0 0.0
825.3519450465047 32.9205646584828 425.56741896140363 -105.0025067680894 0.0 0.0
889.476891862332 52.601249914632426 468.23675233487666 -103.75009665982562 0.0 0.0
950.4952815970585 73.8657149442794 509.84120311861955 -101.70617244126922 0.0 0.0
1009.4811460235699 96.63631517598265 551.050742859395 -99.30902959953087 0.0 0.0
1066.774988415749 120.83141807723621 592.0579671763708 -96.25164655989488 0.0 0.0
1122.4412511578919 145.7445525385479 632.5647684905489 -92.46243717829708 0.0 0.0
1177.477388908944 172.36346364156194 673.5298430041171 -87.95012406147777 0.0 0.0
1233.7772520467404 203.21529684752198 717.1479452204613 -82.47261433165457 0.0 0.0
1292.3961413940538 239.3831986644461 764.5278346328703 -75.47036966730808 0.0 0.0
1348.811285884214 277.0610814932819 811.5408676565389 -65.17287221436898 0.0 0.0
1393.7424450458138 308.16846532401445 849.4866877372343 -50.27297213717273 0.0 0.0
1393.742445047164 308.1684653254222 849.4866877381896 50.27297213733361 0.0 0.0
1348.8112858832906 277.06108149239685 811.5408676558352 65.17287221448217 0.0 0.0
1292.3961413928944 239.3831986634184 764.5278346319449 75.47036966741923 0.0 0.0
1233.7772520438245 203.21529684463843 717.1479452183271 82.47261433156439 0.0 0.0
1177.477388906294 172.36346363902567 673.5298430022538 87.950124061473 0.0 0.0
1122.4412511548276 145.74455253550826 632.5647684883692 92.46243717813235 0.0 0.0
1066.7749884154848 120.83141807718869 592.0579671760951 96.25164656003784 0.0 0.0
1009.4811460234337 96.63631517608059 551.0507428593639 99.30902959962103 0.0 0.0
950.4952815963841 73.86571494378836 509.8412031182041 101.70617244127209 0.0 0.0
889.4768918611564 52.60124991369585 468.23675233409296 103.75009665987612 0.0 0.0
825.3519450465259 32.920564658721474 425.567418961356 105.0025067679907 0.0 0.0
757.4882755204301 15.14869603742207 381.1150693433773 104.40777161165373 0.0 0.0
684.4810176847346 -0.683553259457085 331.75560100527485 101.73946185807277 0.0 0.0
602.3469921877621 -15.20247780150082 267.65834146411737 99.90044894368377 0.0 0.0
506.5918687025785 -22.958754745714856 187.75656681332072 104.28857671628703 0.0 0.0
397.2778600274007 -17.656470103029157 120.72796230979786 112.86120997359447 0.0 0.0
291.32635920092923 10.23589793166536 90.52275792989862 104.32701054331247 0.0 0.0
179.95370587168992 28.367486134488715 62.49635760185358 103.04808682644222 0.0 0.0
52.919275187965994 -60.231989866742325 -2.1938144036328993 131.77911428332067 0.0 0.0
-11.614694767000756 -531.6573361105064 -255.3251066988454 177.5597384424338 0.0 0.0
-9.740786548190542 -501.80094354208245 -229.9423485191725 -173.38247088182297 0.0 0.0
31.514345621031914 -54.90430166746489 -7.016986813929894 -159.3061916630445 0.0 0.0
132.30496543520107 20.5496402972613 45.85638171973871 -133.32630361381982 0.0 0.0
232.63496896602112 13.336329523216369 73.78741308818769 -128.6591189986096 0.0 0.0
330.5432548522413 -10.564018828804057 98.55480255309168 -139.25936568075485 0.0 0.0
443.91091827210226 -22.00266007478055 152.30212593483327 -134.72407715852893 0.0 0.0
552.2951651552763 -14.372870966627787 233.41219031820827 -125.56085783573981 0.0 0.0
640.8755440716278 -1.3559809393291573 304.64607947119526 -124.11165258075278 0.0 0.0
715.3871482617657 13.478063409645067 357.5596619040111 -125.26482109753381 0.0 0.0
780.6258169043244 28.081147511254514 400.10417541135143 -125.03606412679832 0.0 0.0
840.5689871156633 43.737953034257934 438.954060734225 -123.2797110066713 0.0 0.0
896.7626821594621 60.63285132366623 476.09484444131925 -120.80784274560625 0.0 0.0
950.1438594538308 78.49997388279182 512.1239406047132 -118.00041231453886 0.0 0.0
1001.7453124553314 97.31190050962587 547.6270465473983 -114.52834046276277 0.0 0.0
1051.9799386265204 116.94820242827412 582.8142117687033 -110.17874901537297 0.0 0.0
1100.161424637417 137.23950401740493 617.2512321084783 -105.20437932462266 0.0 0.0
1148.3484703515667 159.42917485677208 652.5297210883475 -99.57647428643601 0.0 0.0
1199.312855272878 186.65876373268574 691.61704006631 -91.88933167906647 0.0 0.0
1252.317371450873 218.6330373573499 734.0465375143269 -79.35840900672416 0.0 0.0
1300.6002150976367 249.52918095023037 773.5170148819969 -60.36658194378306 0.0 0.0
1300.6002150959644 249.52918094865578 773.5170148809003 60.36658194411292 0.0 0.0
1252.3173714500213 218.63303735649572 734.0465375138282 79.35840900664633 0.0 0.0
1199.3128552725227 186.65876373236534 691.6170400662724 91.88933167907086 0.0 0.0
1148.3484703514296 159.4291748568312 652.5297210883487 99.57647428670445 0.0 0.0
1100.1614246377078 137.23950401786362 617.251232108747 105.20437932483127 0.0 0.0
1051.9799386285865 116.94820243081426 582.8142117701846 110.17874901598248 0.0 0.0
1001.7453124569276 97.3119005114687 547.6270465485276 114.52834046283186 0.0 0.0
950.1438594540998 78.4999738833034 512.1239406049003 118.00041231466008 0.0 0.0
896.7626821597034 60.63285132410124 476.0948444414129 120.80784274550615 0.0 0.0
840.5689871146609 43.73795303325724 438.95406073356344 123.27971100635057 0.0 0.0
780.625816903963 28.08114751111657 400.10417541110337 125.03606412677209 0.0 0.0
715.3871482618594 13.478063410088296 357.559661904042 125.26482109759468 0.0 0.0
640.8755440712538 -1.3559809394193678 304.64607947091116 124.11165258071492 0.0 0.0
552.2951651549978 -14.372870966412876 233.4121903179731 125.56085783585635 0.0 0.0
443.9109182719112 -22.002660074424448 152.30212593473073 134.72407715856838 0.0 0.0
330.54325485234614 -10.564018827998547 98.55480255334714 139.25936568059387 0.0 0.0
232.6349689663483 13.336329524094422 73.78741308855068 128.65911899848433 0.0 0.0
132.30496543527207 20.54964029746252 45.85638171982036 133.3263036137088 0.0 0.0
31.514345621121052 -54.904301667207086 -7.016986813825811 159.30619166300178 0.0 0.0
-9.740786548179514 -501.8009435419881 -229.94234851898588 173.38247088161165 0.0 0.0
-4.356277455590586 -465.35143057267743 -198.53321072969035 -169.58165486258684 0.0 0.0
17.638392829524328 -49.81956446985798 -9.654149296558472 -178.78222767537932 0.0 0.0
90.8521471166832 13.490009046440262 31.3020288817629 -157.50619092674614 0.0 0.0
174.25503030068046 14.357126624197129 56.58193845535796 -151.33682152098044 0.0 0.0
258.04375236043654 -3.1872450730865576 77.60652696182791 -161.93873518547275 0.0 0.0
365.23018050683345 -18.289593949912657 116.58721963238025 -166.71415641851647 0.0 0.0
483.9621052955945 -14.160738423461192 189.8741418624477 -155.10748767357438 0.0 0.0
583.9848020510204 -1.801885791726292 267.7035064199232 -147.84098823424586 0.0 0.0
662.1402199128362 10.930660507556432 326.1752709226911 -146.14380038723343 0.0 0.0
726.7063841394427 23.078447173796878 369.35181770686705 -144.50228976458328 0.0 0.0
782.6990633648816 34.7400906188162 404.8764601502419 -142.0154842890209 0.0 0.0
834.1687221166437 47.48338819754322 437.83628990332886 -139.0928270514852 0.0 0.0
881.8781063308132 60.410429177655075 468.69426942198925 -135.96067545550756 0.0 0.0
927.2953229287293 73.80795903538147 498.4725129936362 -132.23668090326916 0.0 0.0
971.7544771384752 88.05427085654253 528.09451666651 -127.48760727088151 0.0 0.0
1014.8130161347564 102.92937624238252 557.3345905213062 -121.94210560523013 0.0 0.0
1054.0367167789923 116.18599041020688 583.7830531757421 -116.0594399500574 0.0 0.0
1094.7896079410236 132.13196574955768 612.1403752254384 -108.5526586089606 0.0 0.0
1143.8127892166592 156.57902389289848 648.7521171903841 -95.19762349154831 0.0 0.0
1198.4862175044777 188.725641545617 691.9434182113218 -73.20406440474757 0.0 0.0
1198.4862175030382 188.7256415442261 691.9434182103757 73.20406440483444 0.0 0.0
1143.812789217629 156.57902389395156 648.7521171908704 95.19762349177034 0.0 0.0
1094.7896079431991 132.13196575206695 612.1403752267813 108.55265860948403 0.0 0.0
1054.0367167781521 116.18599040967064 583.7830531751415 116.05943995047014 0.0 0.0
1014.8130161331475 102.92937624087546 557.3345905199858 121.94210560532632 0.0 0.0
971.7544771373382 88.0542708556028 528.0945166656929 127.48760727098554 0.0 0.0
927.2953229283103 73.80795903505964 498.4725129933156 132.23668090321075 0.0 0.0
881.8781063306084 60.410429177708465 468.69426942183446 135.9606754555693 0.0 0.0
834.1687221159331 47.48338819677852 437.8362899028032 139.0928270512005 0.0 0.0
782.6990633645252 34.74009061862148 404.87646014992316 142.01548428895148 0.0 0.0
726.7063841392968 23.078447173953975 369.35181770677275 144.50228976461318 0.0 0.0
662.1402199128767 10.930660507824868 326.175270922719 146.14380038716274 0.0 0.0
583.9848020497159 -1.8018857928520475 267.7035064190516 147.84098823413265 0.0 0.0
483.96210529465645 -14.160738424159568 189.8741418618073 155.10748767355756 0.0 0.0
365.2301805065714 -18.289593949584596 116.58721963231412 166.71415641851843 0.0 0.0
258.04375236033485 -3.1872450728210007 77.60652696187229 161.93873518527155 0.0 0.0
174.25503030060992 14.35712662411407 56.58193845531733 151.33682152098518 0.0 0.0
90.85214711660879 13.490009046215272 31.30202888167372 157.50619092668836 0.0 0.0
17.638392829363575 -49.81956446998534 -9.654149296645063 178.782227675274 0.0 0.0
-4.35627745552658 -465.35143057233785 -198.53321072943422 169.5816548626005 0.0 0.0
1.190464588306945 -423.66585904822216 -165.16454393766708 -167.0884184431235 0.0 0.0
5.420825760731485 -45.76976989104088 -12.104863506489233 -190.37743249272958 0.0 0.0
53.12215213744443 7.909667158178776 18.310598456219928 -175.51735556751663 0.0 0.0
116.68848737339152 15.246966144420362 39.60250224065981 -170.20861812422433 0.0 0.0
183.59663595547764 1.9928539515245096 56.33475422618815 -181.33395892604784 0.0 0.0
269.04814427018067 -10.769592911072776 82.69535564063956 -194.15220597361701 0.0 0.0
387.17579748652554 -12.682868414367443 138.2948404315531 -189.23372202417391 0.0 0.0
503.72309633277786 -2.758153844670169 215.52464403505616 -175.3267331581892 0.0 0.0
591.4820507844324 8.025512331486826 281.68054037985127 -167.89701155831463 0.0 0.0
656.9530602195273 17.523581840386537 328.3757981759604 -163.66420976190358 0.0 0.0
710.4728983503436 25.53955165855612 362.74524297259677 -160.1943138295774 0.0 0.0
756.970349275439 34.27840005177803 391.9323434432322 -156.63882416819973 0.0 0.0
798.8964690475773 42.663909193821965 417.956728961725 -153.1044056233304 0.0 0.0
837.7537994129489 50.56352178244698 441.87998313314245 -149.31789811577616 0.0 0.0
875.7650311079274 58.893731043705074 465.3885513469031 -144.58223274518252 0.0 0.0
913.9985575323713 68.62817694519048 489.64585215564153 -138.3807374847176 0.0 0.0
948.201380267707 76.02064902112562 510.82200368247595 -131.68485209796805 0.0 0.0
975.6227352739281 77.78819142105411 525.5981212020554 -124.88465147419905 0.0 0.0
1015.1250034965731 89.27718253775396 550.8313859582274 -112.99443017345227 0.0 0.0
1078.750351825865 123.13371510173812 599.1199032316789 -90.34420746595025 0.0 0.0
1078.7503518260833 123.13371510197345 599.1199032319348 90.34420746604344 0.0 0.0
1015.1250034968239 89.2771825382278 550.831385958525 112.99443017385732 0.0 0.0
975.6227352733104 77.78819142055607 525.5981212016063 124.88465147444433 0.0 0.0
948.2013802671612 76.02064902053343 510.8220036818266 131.6848520978682 0.0 0.0
913.9985575313182 68.62817694433045 489.6458521549185 138.3807374847769 0.0 0.0
875.7650311063077 58.89373104205646 465.3885513457972 144.5822327450707 0.0 0.0
837.7537994118592 50.563521781316865 441.8799831323546 149.31789811562058 0.0 0.0
798.8964690471137 42.66390919335598 417.95672896141946 153.10440562316387 0.0 0.0
756.9703492753914 34.278400052014405 391.9323434431834 156.63882416839112 0.0 0.0
710.4728983500938 25.539551658700873 362.7452429724612 160.1943138297492 0.0 0.0
656.9530602188604 17.523581839827685 328.3757981754626 163.6642097617242 0.0 0.0
591.482050784151 8.025512331221435 281.6805403795672 167.89701155807833 0.0 0.0
503.72309633241116 -2.758153844671746 215.52464403475844 175.32673315821904 0.0 0.0
387.1757974866356 -12.682868413612866 138.2948404316737 189.23372202418847 0.0 0.0
269.04814426997683 -10.769592910859384 82.69535564060217 194.15220597340598 0.0 0.0
183.5966359553421 1.9928539514049524 56.3347542261102 181.33395892579915 0.0 0.0
116.68848737327957 15.246966144420693 39.60250224063268 170.20861812400608 0.0 0.0
53.1221521375729 7.9096671583891744 18.31059845632514 175.5173555672002 0.0 0.0
5.420825760694603 -45.769769890864175 -12.104863506448629 190.37743249259648 0.0 0.0
1.1904645884579779 -423.66585904787803 -165.16454393739244 167.08841844298613 0.0 0.0
3.7653837248027813 -377.4819846534722 -133.74154410694146 -164.55179106212952 0.0 0.0
-9.366632020469275 -44.085663101976024 -16.0414584467794 -195.99706378665277 0.0 0.0
17.453577795105346 4.479448360494274 6.585418712367433 -187.53703053747273 0.0 0.0
60.59208348147863 16.419582883396917 23.138805997211612 -184.36984977864185 0.0 0.0
107.00953790786298 6.233738909424029 34.38577230873202 -196.39769168455354 0.0 0.0
162.7498479776246 -3.5650094161969506 49.89355909045738 -213.82508954383184 0.0 0.0
253.49198484182062 -6.373280310278495 83.63960833037505 -221.13841457343526 0.0 0.0
375.63994423052407 -2.9248756121425536 142.9697155867243 -209.6112283918459 0.0 0.0
482.37245928749667 5.04261573630545 211.07968817067132 -193.50899291653656 0.0 0.0
554.8847719745512 11.148914092115788 264.1368515920057 -183.58930016097787 0.0 0.0
606.9413708212328 16.62627820997878 301.4820275378202 -177.93837235302615 0.0 0.0
648.352892948727 20.89459124719879 328.58972227890706 -173.59969183710186 0.0 0.0
684.156563763896 25.102317186632447 350.8784899909478 -169.52725428170334 0.0 0.0
716.054266076852 28.043338728929584 369.54091662831695 -165.57062137628108 0.0 0.0
746.3081469230888 30.03835194625941 386.325201343404 -161.09122044202257 0.0 0.0
778.0181234711645 32.85590288350028 403.9065384970945 -155.11819159005182 0.0 0.0
812.2802305570983 37.32191580237722 423.55880066840444 -146.94133838150307 0.0 0.0
835.5669850255982 32.038527063796465 433.19759155608176 -139.26060898098777 0.0 0.0
851.4074448450168 15.63699214712409 432.7136915855156 -131.81453885606746 0.0 0.0
922.9867632199795 46.3271535392399 482.62055027959997 -114.61399000163532 0.0 0.0
922.9867632171939 46.327153536326534 482.6205502777695 114.61399000160907 0.0 0.0
851.4074448424612 15.636992144419082 432.71369158381947 131.8145388562502 0.0 0.0
835.566985024344 32.03852706251155 433.1975915553238 139.26060898108767 0.0 0.0
812.2802305570319 37.321915802085584 423.55880066844594 146.9413383813474 0.0 0.0
778.0181234709056 32.855902883508065 403.9065384970413 155.1181915901597 0.0 0.0
746.3081469228528 30.038351946083452 386.325201343313 161.09122044210986 0.0 0.0
716.0542660763873 28.043338728666356 369.54091662812004 165.57062137635194 0.0 0.0
684.1565637623586 25.10231718496516 350.87848998990785 169.52725428154514 0.0 0.0
648.3528929485587 20.89459124694642 328.589722278666 173.59969183697945 0.0 0.0
606.9413708206284 16.626278209319494 301.4820275373794 177.93837235285213 0.0 0.0
554.8847719742814 11.148914091798616 264.1368515917447 183.58930016072844 0.0 0.0
482.3724592878143 5.0426157369594975 211.07968817082406 193.50899291658925 0.0 0.0
375.6399442308467 -2.924875610578553 142.96971558714156 209.6112283921364 0.0 0.0
253.49198484167223 -6.373280309925928 83.6396083303792 221.1384145733844 0.0 0.0
162.74984797730082 -3.5650094164046537 49.893559090295 213.82508954361526 0.0 0.0
107.0095379080359 6.233738909794344 34.385772308896534 196.39769168433668 0.0 0.0
60.59208348149363 16.419582883604363 23.138805997280606 184.3698497784347 0.0 0.0
17.453577795083273 4.479448360461915 6.585418712352482 187.53703053722177 0.0 0.0
-9.366632020591561 -44.08566310211836 -16.04145844686172 195.99706378644416 0.0 0.0
3.7653837247919313 -377.4819846531931 -133.74154410676445 164.55179106207362 0.0 0.0
2.1909615754846286 -327.5344309367074 -106.09068799489967 -159.82702411141122 0.0 0.0
-28.111159679908884 -45.53373617399925 -22.103834599074332 -197.5930382447084 0.0 0.0
-16.974674249378698 3.394648241154529 -4.076365640230387 -194.47660519548626 0.0 0.0
6.152283932563973 17.65630149942645 7.160668387133754 -193.3844485860604 0.0 0.0
29.67866527921572 10.756722760851991 12.269013852119107 -205.29910268030255 0.0 0.0
52.298435123388344 2.0749788402777702 16.9580189149635 -224.9896040482316 0.0 0.0
85.82957150389927 -0.9462743390114783 27.561049798989682 -239.81951794396196 0.0 0.0
150.33144384584315 1.238303474404706 51.122694665398846 -240.93755482203522 0.0 0.0
241.77706888411765 5.410373566144823 89.03180179710837 -225.9729651625733 0.0 0.0
324.71086980467896 7.147612858342953 131.93149780507957 -208.99523733391447 0.0 0.0
383.6587009487583 8.486205324793659 170.57545543711154 -196.87033914572874 0.0 0.0
421.0140420183625 8.681779981349308 198.87955946687404 -189.65305706246858 0.0 0.0
448.18460353126113 8.59282112873467 220.1821826224968 -184.42203167825906 0.0 0.0
471.15793635641705 6.282456675587213 236.02848480727772 -179.9421190109646 0.0 0.0
494.35104496901357 1.962122124553332 248.6204142994508 -175.62735652061988 0.0 0.0
522.7469150955983 -3.395977808440307 261.1619068256329 -170.76095980888755 0.0 0.0
560.7425456975795 -6.34556393885012 278.35251389841454 -163.42357623538123 0.0 0.0
607.0105299375622 -5.839798929673606 301.44858322392054 -152.38160833208804 0.0 0.0
622.1231135979797 -39.59628221212864 292.91340659111165 -144.8108537578158 0.0 0.0
662.4350496207132 -66.52128442732467 296.1033592756345 -146.51253981571816 0.0 0.0
662.4350496210315 -66.52128442712007 296.103359275793 146.51253981570505 0.0 0.0
622.1231135973223 -39.59628221270941 292.9134065907014 144.81085375840766 0.0 0.0
607.0105299378663 -5.839798929372876 301.448583224053 152.38160833227374 0.0 0.0
560.7425456984946 -6.345563937115401 278.35251389909797 163.4235762357782 0.0 0.0
522.7469150952045 -3.3959778087330506 261.16190682533266 170.7609598088569 0.0 0.0
494.3510449694885 1.962122125343285 248.62041429978464 175.62735652079215 0.0 0.0
471.15793635610385 6.282456675270282 236.02848480708948 179.94211901100175 0.0 0.0
448.18460353099056 8.592821128326719 220.18218262230047 184.4220316782466 0.0 0.0
421.01404201882616 8.681779981842283 198.87955946711105 189.65305706251212 0.0 0.0
383.6587009473356 8.486205322841542 170.57545543604627 196.87033914557657 0.0 0.0
324.71086980341624 7.1476128566514845 131.93149780409252 208.99523733373957 0.0 0.0
241.7770688837567 5.410373565420645 89.0318017967641 225.97296516258763 0.0 0.0
150.33144384499855 1.2383034732506104 51.122694664760765 240.93755482196804 0.0 0.0
85.82957150392814 -0.9462743388379682 27.56104979905097 239.8195179438006 0.0 0.0
52.29843512315577 2.074978839827141 16.958018914758537 224.9896040479679 0.0 0.0
29.678665279100407 10.756722760508405 12.269013851981269 205.29910268002698 0.0 0.0
6.152283932653608 17.65630149948596 7.1606683871789 193.38444858588986 0.0 0.0
-16.97467424923191 3.3946482415527486 -4.076365640067627 194.47660519531746 0.0 0.0
-28.111159679859554 -45.533736173768155 -22.103834598993934 197.59303824453764 0.0 0.0
2.1909615754173473 -327.5344309365273 -106.09068799480963 159.82702411123424 0.0 0.0
-8.295396962101812 -276.0315699444217 -86.75409197363638 -150.77843582114866 0.0 0.0
-48.313058683695516 -48.19170319463313 -28.971051842872754 -197.10893114336238 0.0 0.0
-50.51344016828928 3.669685431797504 -14.086808449021031 -197.03116741943694 0.0 0.0
-46.648380282103155 18.759075198443572 -8.423122787797578 -197.01378937793854 0.0 0.0
-46.708606079961946 15.335771019993766 -9.593789253053153 -207.46419749836653 0.0 0.0
-59.13578576468828 7.3218896345730595 -16.266252318330885 -225.91074670932738 0.0 0.0
-89.24123234789941 2.582168174673262 -28.20012549378697 -239.98511476813712 0.0 0.0
-151.54226027745352 -0.7755418103245031 -51.438395856535095 -241.1597610179577 0.0 0.0
-241.65630018958814 -5.1380912951415425 -88.92953459517352 -226.07933000444137 0.0 0.0
-324.4238118226168 -6.6159880573954055 -131.65061341905113 -208.96974357997559 0.0 0.0
-383.9350983283738 -6.837695591744307 -169.97776765480623 -196.66494467349887 0.0 0.0
-423.0318432112718 -7.141732564471923 -199.03249420737848 -189.17082169748082 0.0 0.0
-452.9029014452152 -10.076830087279319 -222.7987417942125 -184.16906568110238 0.0 0.0
-476.3247011035072 -16.120737980697953 -243.24422945896967 -181.0386340095263 0.0 0.0
-491.3666871947786 -25.30965063983095 -260.5372671037793 -179.61897911124518 0.0 0.0
-494.65001302747964 -36.5939341898746 -273.73512354076064 -179.376545654696 0.0 0.0
-477.3662529544241 -47.139629335135 -279.4232994965635 -179.19922472337802 0.0 0.0
-410.2831696525391 -39.53018256452691 -261.20254566104484 -178.85404375128672 0.0 0.0
-229.1750985208293 -41.85075113911137 -203.2634364058568 -181.92001896846287 0.0 0.0
-33.36839952589975 -175.58135889988657 -74.04778324580212 -179.57813532054897 0.0 0.0
-33.36839952681339 -175.58135890139562 -74.04778324650493 179.5781353207631 0.0 0.0
-229.1750985214765 -41.85075114051318 -203.263436406653 181.92001896908295 0.0 0.0
-410.28316965371863 -39.53018256639831 -261.20254566203346 178.8540437515847 0.0 0.0
-477.3662529546354 -47.13962933607115 -279.4232994968307 179.19922472342864 0.0 0.0
-494.650013028772 -36.59393419154853 -273.7351235416796 179.3765456547434 0.0 0.0
-491.366687195675 -25.309650641719855 -260.5372671046421 179.61897911138038 0.0 0.0
-476.3247011032346 -16.120737980730667 -243.24422945882253 181.03863400962865 0.0 0.0
-452.90290144528115 -10.076830087816546 -222.79874179431766 184.1690656812712 0.0 0.0
-423.0318432111496 -7.141732565034786 -199.0324942074101 189.17082169756526 0.0 0.0
-383.9350983271752 -6.837695590958575 -169.97776765408423 196.66494467336588 0.0 0.0
-324.42381182173983 -6.615988056637718 -131.6506134184093 208.96974357975668 0.0 0.0
-241.6563001887144 -5.138091295021059 -88.9295345947939 226.07933000452286 0.0 0.0
-151.54226027696086 -0.7755418102454925 -51.43839585632958 241.15976101799265 0.0 0.0
-89.24123234735893 2.582168175214017 -28.200125493438776 239.98511476789406 0.0 0.0
-59.1357857644778 7.321889634828203 -16.266252318185888 225.91074670906502 0.0 0.0
-46.708606079580775 15.335771020700612 -9.593789252725625 207.46419749809735 0.0 0.0
-46.648380281691175 18.759075199153024 -8.423122787461839 197.01378937767615 0.0 0.0
-50.51344016821985 3.669685431911321 -14.086808448968352 197.03116741927147 0.0 0.0
-48.31305868377102 -48.19170319469963 -28.971051842925043 197.10893114321112 0.0 0.0
-8.295396962196985 -276.0315699441541 -86.7540919735928 150.77843582101275 0.0 0.0
-21.761549085433522 -226.07925796147683 -74.34416688520824 -137.99398193965553 0.0 0.0
-66.27207613082723 -48.81959546959328 -34.54921283270984 -193.7263534555923 0.0 0.0
-83.17168804473256 3.9438169295073093 -23.837127962664514 -195.74480385850558 0.0 0.0
-97.77935096178199 19.729285760128782 -23.564904143492463 -195.3913127274455 0.0 0.0
-121.32518644151482 19.079817978292294 -31.273930634342214 -202.68738877062563 0.0 0.0
-168.19907098194204 12.44586872233683 -49.22264364611134 -216.05451532048204 0.0 0.0
-254.91629062281174 7.889326366540688 -83.99468529679376 -222.1268133808327 0.0 0.0
-375.1365695467975 3.3046187574748487 -142.8651362761929 -210.22461479788083 0.0 0.0
-481.89954907077754 -4.783789368756992 -210.81746748036863 -193.71546606817648 0.0 0.0
-554.4365641107386 -10.582284747354834 -263.71574067542247 -183.544792577964 0.0 0.0
-606.444849238083 -15.340198997103371 -300.6860963386727 -177.57483021525266 0.0 0.0
-648.6132792326289 -19.512278655647606 -328.01125472927464 -172.72804663480758 0.0 0.0
-686.7266698067575 -26.254767425803067 -352.5012450354506 -168.68322960301472 0.0 0.0
-722.4544649672522 -36.35958773954326 -376.55324929136503 -166.49638392354592 0.0 0.0
-755.8391953293044 -50.02738405160835 -400.9435040056595 -166.50642321416177 0.0 0.0
-784.6080451479103 -65.8661486316334 -424.1137726211414 -168.61408378124642 0.0 0.0
-803.7415194588644 -80.49436015377734 -441.9867749030377 -173.3284496125856 0.0 0.0
-811.9613657500903 -93.6042488210905 -453.4432661801734 -180.68217861357337 0.0 0.0
-843.4139518105864 -146.54324753043676 -497.044885301497 -190.27378216262846 0.0 0.0
-867.1294959099505 -242.9304113078439 -558.6913271092517 -208.90666635882593 0.0 0.0
-867.129495909851 -242.93041130806472 -558.6913271092469 208.9066663591035 0.0 0.0
-843.413951809235 -146.5432475290574 -497.0448853006478 190.2737821629575 0.0 0.0
-811.9613657499449 -93.60424882089768 -453.4432661801461 180.68217861368905 0.0 0.0
-803.7415194575409 -80.49436015263058 -441.98677490232024 173.32844961274165 0.0 0.0
-784.6080451486293 -65.86614863241513 -424.1137726215434 168.6140837812932 0.0 0.0
-755.8391953307646 -50.02738405371326 -400.94350400670925 166.50642321440586 0.0 0.0
-722.4544649687194 -36.359587741655446 -376.5532492924181 166.4963839239092 0.0 0.0
-686.7266698073392 -26.254767426814198 -352.501245035877 168.68322960311096 0.0 0.0
-648.613279232289 -19.51227865549795 -328.0112547290141 172.72804663471805 0.0 0.0
-606.4448492375891 -15.340198996731623 -300.68609633824803 177.57483021513923 0.0 0.0
-554.4365641106181 -10.582284747298296 -263.7157406751846 183.54479257777695 0.0 0.0
-481.89954907086894 -4.783789369813974 -210.817467480512 193.71546606855827 0.0 0.0
-375.1365695468632 3.3046187562681624 -142.86513627639184 210.22461479813137 0.0 0.0
-254.91629062239898 7.889326366293364 -83.9946852966678 222.126813380811 0.0 0.0
-168.19907098148008 12.445868722687763 -49.222643645855676 216.05451532022394 0.0 0.0
-121.32518644140453 19.07981797810625 -31.27393063436358 202.68738877046934 0.0 0.0
-97.7793509617414 19.729285760142144 -23.56490414347702 195.39131272717975 0.0 0.0
-83.17168804464664 3.9438169295302656 -23.837127962634618 195.74480385831865 0.0 0.0
-66.27207613093287 -48.81959546973925 -34.5492128327913 193.72635345547022 0.0 0.0
-21.76154908540085 -226.0792579611959 -74.34416688511675 137.993981939472 0.0 0.0
-28.70650992220928 -179.06241843477733 -62.330678507095975 -122.95792705711102 0.0 0.0
-81.09082757981196 -46.89110504323493 -38.39441019130916 -186.51562269792032 0.0 0.0
-114.51574737424875 3.8952843223822007 -33.257913289300035 -190.49911443175483 0.0 0.0
-147.17036047179545 20.219151765969396 -38.33596792004072 -188.56383074647982 0.0 0.0
-193.44473921978732 21.6760026146127 -52.708162010341866 -191.55065826817628 0.0 0.0
-270.7652783636562 18.389201964266164 -81.8854597144877 -197.40371368356668 0.0 0.0
-385.94082325278714 14.080702173621297 -137.91184004103752 -190.8220395198095 0.0 0.0
-502.7976602853249 3.162259496519461 -215.05434143357974 -175.96765061038744 0.0 0.0
-591.170346389761 -7.862590416957957 -281.4743314869203 -167.99162289141094 0.0 0.0
-656.6219906730294 -17.11433949524327 -328.0546905009729 -163.63824881715544 0.0 0.0
-710.0947001197376 -24.608734443268276 -362.13260699333125 -159.80377382332696 0.0 0.0
-757.0388597247667 -33.11608795912079 -391.3627953669745 -155.52525002537595 0.0 0.0
-800.7981757219984 -43.318881041535036 -419.0791511853437 -151.6662408610352 0.0 0.0
-843.3841362343045 -57.04455917988557 -447.6798717984967 -149.45908917939738 0.0 0.0
-885.3537786722084 -75.03898186111553 -478.0598020864502 -149.75477434275575 0.0 0.0
-924.1999129110834 -95.6281015756424 -508.224647452284 -152.84883321791804 0.0 0.0
-958.2389543606907 -117.31248776931014 -536.4671609451798 -158.24498416521953 0.0 0.0
-996.0117140069553 -150.16370569127395 -572.1358223464504 -164.17774601804874 0.0 0.0
-1041.078717870506 -200.81078160124218 -620.1016428850393 -169.07913324062298 0.0 0.0
-1149.2073929792389 -341.26442115070745 -744.0196635076154 -172.3934644333728 0.0 0.0
-1149.2073929799403 -341.26442115152514 -744.0196635082261 172.39346443357542 0.0 0.0
-1041.0787178717922 -200.81078160306794 -620.1016428861092 169.07913324129635 0.0 0.0
-996.0117140082792 -150.16370569312267 -572.1358223474308 164.17774601854342 0.0 0.0
-958.2389543612137 -117.31248777011311 -536.4671609455513 158.24498416537807 0.0 0.0
-924.1999129102478 -95.62810157465239 -508.2246474516784 152.84883321763004 0.0 0.0
-885.3537786704387 -75.03898185923032 -478.0598020852377 149.75477434244183 0.0 0.0
-843.384136233416 -57.044559178852396 -447.679871797856 149.45908917913383 0.0 0.0
-800.7981757221452 -43.31888104205865 -419.0791511855256 151.66624086126197 0.0 0.0
-757.0388597248866 -33.11608795949842 -391.36279536707247 155.52525002535612 0.0 0.0
-710.0947001195428 -24.608734443353427 -362.1326069932816 159.80377382334564 0.0 0.0
-656.6219906729876 -17.11433949523702 -328.0546905009376 163.63824881680407 0.0 0.0
-591.1703463889419 -7.86259041633423 -281.4743314863919 167.99162289127509 0.0 0.0
-502.79766028493134 3.1622594965931654 -215.054341433256 175.9676506103391 0.0 0.0
-385.9408232517456 14.080702174263246 -137.9118400404033 190.82203951982183 0.0 0.0
-270.76527836316757 18.38920196445215 -81.88545971423252 197.40371368336025 0.0 0.0
-193.44473921934778 21.67600261482776 -52.708162010149955 191.55065826799216 0.0 0.0
-147.17036047169412 20.219151765979998 -38.33596792001384 188.56383074636307 0.0 0.0
-114.51574737406493 3.895284322554842 -33.25791328919853 190.49911443162964 0.0 0.0
-81.09082757984234 -46.891105043277165 -38.39441019133367 186.51562269783162 0.0 0.0
-28.706509922180388 -179.06241843459603 -62.33067850703292 122.95792705691034 0.0 0.0
-31.107867763212003 -136.00655242120325 -50.13432605532457 -106.8909450235471 0.0 0.0
-93.21452821903 -42.69634224973548 -40.772677921911495 -174.739945650659 0.0 0.0
-144.08395337822049 3.575265721873971 -42.21137708505745 -181.17752573114927 0.0 0.0
-194.64493292709102 19.65505659583599 -52.86419376001057 -176.79528667266607 0.0 0.0
-261.83140651124836 24.1981177106084 -73.47173029284268 -175.02475835099258 0.0 0.0
-362.5042825449202 24.097234024198674 -115.38503916067671 -170.78210482987853 0.0 0.0
-481.8019577968256 15.791410377032001 -188.63340867405935 -156.82493005592494 0.0 0.0
-583.4934987493575 1.9608745238764271 -267.3712328927951 -148.13436575200063 0.0 0.0
-662.0074557134075 -10.875331392856936 -326.0972158140217 -146.19257458523347 0.0 0.0
-726.5322754272036 -22.841473531588832 -369.1668421387669 -144.4846756167392 0.0 0.0
-782.584649889099 -34.221334446128225 -404.57254564226855 -141.61567883233624 0.0 0.0
-834.2913951820608 -46.69359006601135 -437.4932271365365 -137.86496079417438 0.0 0.0
-882.9044979056112 -60.41932164171615 -469.13357223128514 -134.14434899272086 0.0 0.0
-930.6079227834817 -77.56689772640897 -501.85091849849897 -131.81593169707992 0.0 0.0
-978.5317259793651 -99.34290602797103 -536.9453317733153 -132.22152915931574 0.0 0.0
-1026.8827609853513 -126.35901453778322 -574.8775429890702 -135.57526331559203 0.0 0.0
-1076.7749483690454 -160.3139914455936 -617.0279801908673 -140.61048445409978 0.0 0.0
-1131.2563672782248 -205.04855831693737 -666.7486475874945 -144.69599284781688 0.0 0.0
-1206.1876857590596 -279.5178900710898 -741.2994505719687 -144.3694705494746 0.0 0.0
-1305.9379632092378 -402.78819697081235 -852.8792205492044 -141.83644450815345 0.0 0.0
-1305.9379632089076 -402.78819697062033 -852.879220548966 141.83644450835848 0.0 0.0
-1206.1876857584734 -279.5178900705709 -741.2994505714519 144.36947054973237 0.0 0.0
-1131.256367277208 -205.04855831627725 -666.7486475867224 144.6959928482048 0.0 0.0
-1076.7749483682346 -160.31399144485943 -617.0279801900563 140.61048445411987 0.0 0.0
-1026.882760986657 -126.35901453933252 -574.8775429898046 135.57526331573726 0.0 0.0
-978.5317259795632 -99.3429060283789 -536.9453317734278 132.22152915942624 0.0 0.0
-930.6079227828734 -77.56689772591095 -501.8509184980403 131.81593169694486 0.0 0.0
-882.9044979041785 -60.41932164048352 -469.13357223029163 134.144348992808 0.0 0.0
-834.291395180691 -46.693590064779194 -437.4932271356259 137.86496079410082 0.0 0.0
-782.5846498877814 -34.22133444482142 -404.5725456413182 141.615678832029 0.0 0.0
-726.5322754271609 -22.84147353168925 -369.1668421386551 144.4846756165372 0.0 0.0
-662.0074557127235 -10.875331392529354 -326.09721581359327 146.1925745852514 0.0 0.0
-583.4934987488803 1.9608745241032501 -267.3712328923608 148.13436575190227 0.0 0.0
-481.80195779618276 15.791410377256572 -188.63340867358067 156.82493005593471 0.0 0.0
-362.50428254430517 24.097234024431522 -115.38503916033119 170.78210482976667 0.0 0.0
-261.8314065107232 24.198117710965835 -73.47173029257348 175.02475835079838 0.0 0.0
-194.64493292658102 19.655056596475127 -52.8641937596748 176.79528667242667 0.0 0.0
-144.08395337792913 3.575265722312814 -42.21137708484397 181.1775257309967 0.0 0.0
-93.21452821905675 -42.696342249772144 -40.77267792193137 174.73994565069586 0.0 0.0
-31.107867763144814 -136.00655242107496 -50.134326055265916 106.8909450233464 0.0 0.0
-32.270462128682375 -97.73495505816817 -39.00162515605516 -90.28903795235047 0.0 0.0
-103.62725761060094 -36.62028437283939 -42.074262595032096 -158.5762236194264 0.0 0.0
-171.78028126411812 3.060003480124635 -50.6476385674715 -167.35975432697106 0.0 0.0
-240.4808764126575 18.434230111505045 -66.98813571662492 -160.73192158508928 0.0 0.0
-327.0479452813788 27.00890650806248 -94.18335418726393 -153.55553711016563 0.0 0.0
-439.81718302341096 26.71495374892686 -150.34240804307188 -139.33246104534211 0.0 0.0
-550.6564667988156 15.659152890025752 -232.1026005401922 -126.40790721378676 0.0 0.0
-640.780513455405 1.2765406409454698 -304.5884078839362 -124.18707101494746 0.0 0.0
-715.3648201852577 -13.4858548685703 -357.56503165775496 -125.3115956821539 0.0 0.0
-780.6417895658175 -28.013978836479964 -400.07927192596003 -125.00580298713433 0.0 0.0
-840.7605314910955 -43.65374601556144 -439.00232123283405 -122.88021958558261 0.0 0.0
-897.0010181434682 -60.30932667775349 -476.05540532019336 -119.62580933700153 0.0 0.0
-950.0601246111171 -77.80365788541144 -511.7239762070898 -116.15995596424872 0.0 0.0
-1001.9200479980118 -97.79533098525917 -547.8726197786167 -113.76650418088705 0.0 0.0
-1055.782566258131 -123.60272730547598 -587.8456169774867 -113.87697235067634 0.0 0.0
-1114.010642670405 -158.50923853624448 -634.5432594908407 -116.81719839266533 0.0 0.0
-1178.4917275909822 -204.34244064899625 -689.8100893474289 -121.17708840866369 0.0 0.0
-1252.6635194807668 -266.35019038416385 -757.914546382931 -123.62055479705396 0.0 0.0
-1337.402491766078 -349.8601102970512 -842.0353964349997 -122.16666710701854 0.0 0.0
-1423.265399523449 -457.3775718466402 -938.8567863539316 -120.63654129445894 0.0 0.0
-1423.265399523309 -457.37757184662354 -938.856786353947 120.63654129468891 0.0 0.0
-1337.402491766577 -349.8601102976785 -842.0353964354397 122.16666710723484 0.0 0.0
-1252.6635194818973 -266.3501903855127 -757.9145463837243 123.62055479736901 0.0 0.0
-1178.4917275921266 -204.342440650302 -689.810089348181 121.17708840875011 0.0 0.0
-1114.0106426703428 -158.50923853631986 -634.5432594908258 116.81719839266918 0.0 0.0
-1055.7825662578132 -123.60272730538543 -587.8456169772761 113.87697235079432 0.0 0.0
-1001.9200479977612 -97.79533098511327 -547.8726197784177 113.76650418079309 0.0 0.0
-950.0601246117267 -77.80365788637064 -511.72397620755316 116.159955964499 0.0 0.0
-897.0010181440772 -60.309326678725824 -476.0554053205566 119.6258093371977 0.0 0.0
-840.7605314912952 -43.65374601617953 -439.00232123292005 122.88021958579719 0.0 0.0
-780.6417895654215 -28.013978836324277 -400.0792719256977 125.00580298705933 0.0 0.0
-715.3648201848713 -13.485854868620535 -357.56503165755504 125.31159568231658 0.0 0.0
-640.7805134541152 1.2765406420020682 -304.5884078830492 124.18707101485315 0.0 0.0
-550.6564667978248 15.65915289089251 -232.10260053940627 126.40790721352116 0.0 0.0
-439.8171830231758 26.714953748576328 -150.34240804292855 139.33246104537074 0.0 0.0
-327.0479452808672 27.00890650818249 -94.18335418705588 153.55553711009503 0.0 0.0
-240.48087641255623 18.43423011118762 -66.98813571670023 160.7319215850395 0.0 0.0
-171.7802812640188 3.060003479970605 -50.64763856749312 167.35975432689165 0.0 0.0
-103.62725761056197 -36.62028437262749 -42.074262594956835 158.57622361931539 0.0 0.0
-32.27046212860458 -97.73495505801513 -39.001625155985906 90.28903795235047 0.0 0.0
-33.134973788599794 -64.84869238454482 -29.395099851943378 -73.21279370190533 0.0 0.0
-112.96947221820591 -29.240081641598202 -42.66286615794124 -138.44136903738809 0.0 0.0
-197.7875981209558 2.3462367982036447 -58.63022129100516 -149.08389016874418 0.0 0.0
-283.697500092591 16.91660787150247 -80.56598673404073 -140.3618474528738 0.0 0.0
-387.11055286419446 29.29936014264538 -115.73028722660933 -127.34183591949301 0.0 0.0
-502.0211538338817 26.647466513992132 -185.1632552381314 -107.98063708639191 0.0 0.0
-601.6057964623399 15.784205894770622 -266.87246395774736 -100.07100175137433 0.0 0.0
-684.5266635584884 0.5572973541527659 -331.82654738971087 -101.73217679913643 0.0 0.0
-757.567990360812 -15.219243346178217 -381.19351479666176 -104.44826753608862 0.0 0.0
-825.5321435661547 -33.0159109891101 -425.69329106525896 -104.94129770969775 0.0 0.0
-889.903174848943 -52.871496347292975 -468.5712829776078 -103.3639924091285 0.0 0.0
-950.7759627089031 -73.93875382433868 -510.0296477169419 -100.72784720822516 0.0 0.0
-1008.4484745604204 -95.45847690566063 -549.9772651564108 -97.78827585366288 0.0 0.0
-1064.3141371267577 -118.66487880078361 -589.7095417954794 -95.27633489450837 0.0 0.0
-1123.253491837308 -148.1602708293147 -633.9908240865218 -94.65442996642595 0.0 0.0
-1191.0872270357092 -190.4605040102736 -689.0883139583689 -96.72127444277582 0.0 0.0
-1269.9864282616747 -249.30530788812632 -757.9944272103571 -100.20108287347706 0.0 0.0
-1358.7273490461173 -325.2240461293554 -840.3619980908535 -102.5911199466929 0.0 0.0
-1448.3750994923976 -413.9724789731501 -929.6201009134505 -102.98823219604895 0.0 0.0
-1526.2796816619668 -512.548375985718 -1018.0134355188928 -104.97886224466043 0.0 0.0
-1526.2796816623782 -512.5483759861607 -1018.0134355192287 104.97886224477642 0.0 0.0
-1448.3750994929333 -413.97247897381493 -929.6201009140141 102.98823219629901 0.0 0.0
-1358.7273490473958 -325.22404613082074 -840.3619980917531 102.59111994698213 0.0 0.0
-1269.9864282614753 -249.3053078880083 -757.9944272101148 100.20108287350641 0.0 0.0
-1191.0872270349435 -190.46050400970532 -689.0883139578048 96.7212744428741 0.0 0.0
-1123.2534918380538 -148.16027083024895 -633.9908240869102 94.65442996653174 0.0 0.0
-1064.314137126021 -118.66487880024259 -589.7095417949217 95.2763348945447 0.0 0.0
-1008.4484745587914 -95.4584769041969 -549.977265155248 97.78827585356544 0.0 0.0
-950.7759627093302 -73.93875382490519 -510.0296477171381 100.72784720798981 0.0 0.0
-889.9031748493763 -52.87149634801282 -468.57128297787375 103.36399240921848 0.0 0.0
-825.5321435655853 -33.01591098882426 -425.69329106488357 104.94129770965911 0.0 0.0
-757.5679903600264 -15.219243345683388 -381.1935147961038 104.44826753605689 0.0 0.0
-684.5266635588247 0.557297353375489 -331.8265473899202 101.73217679926002 0.0 0.0
-601.6057964617917 15.784205895019525 -266.872463957288 100.07100175128896 0.0 0.0
-502.02115383326355 26.64746651426236 -185.1632552376593 107.98063708628678 0.0 0.0
-387.11055286393525 29.299360142376685 -115.73028722654422 127.34183591943159 0.0 0.0
-283.69750009262657 16.916607870996785 -80.5659867342003 140.36184745273476 0.0 0.0
-197.78759812065883 2.346236798473094 -58.630221290836076 149.08389016856 0.0 0.0
-112.96947221824863 -29.240081641726313 -42.662866157992475 138.4413690371618 0.0 0.0
-33.13497378858598 -64.84869238449124 -29.395099851923163 73.21279370183274 0.0 0.0
-33.73074375042127 -37.87463482205573 -21.481613571743097 -55.627302751569935 0.0 0.0
-121.23568259805016 -21.119764563531064 -42.706634148474365 -114.76764832697182 0.0 0.0
-222.33439803288763 1.315330793315506 -66.30495968778251 -126.22563769042883 0.0 0.0
-326.14100461484895 16.087420026819693 -93.77625383227046 -116.31680136648826 0.0 0.0
-442.2038087545726 29.71713455786191 -139.19801010012742 -97.63910582755527 0.0 0.0
-550.2332245453615 25.99379101730368 -217.1387935541438 -79.3570106580958 0.0 0.0
-639.3532897763165 15.122868573669223 -293.83680151849455 -76.25112396156938 0.0 0.0
-718.5585249158407 1.0346430747646593 -351.43879600207725 -79.88074493106217 0.0 0.0
-792.635067774351 -16.622070414332455 -400.35662238158636 -83.20824840902628 0.0 0.0
-863.8577524045063 -37.99268630407795 -447.7784803570156 -84.10490625158191 0.0 0.0
-932.3024349230296 -61.80111542444433 -494.519279016303 -83.06328701095875 0.0 0.0
-997.9945980012046 -87.31442848722077 -540.5345494231149 -81.11943594359298 0.0 0.0
-1060.7165682344253 -113.54823799669356 -585.31756635433 -78.82873886885673 0.0 0.0
-1121.672247653935 -140.97943314294878 -629.7029646047639 -76.45911372736805 0.0 0.0
-1184.9070047364892 -173.64927610798293 -677.6944352605502 -74.84897115722467 0.0 0.0
-1258.9622015247676 -221.16300977995417 -738.4217643684399 -75.36685444798931 0.0 0.0
-1350.252197186258 -291.01691735262943 -818.9826793841568 -78.26812586211973 0.0 0.0
-1451.3007774646767 -378.69813831947033 -913.4083302361172 -81.95900063848124 0.0 0.0
-1548.828582846771 -475.51090504112517 -1010.6659995891899 -85.78315253138355 0.0 0.0
-1624.8754679279384 -571.5809304823727 -1096.8809249535389 -92.47123998388889 0.0 0.0
-1624.8754679265999 -571.58093048102 -1096.8809249526003 92.47123998386459 0.0 0.0
-1548.8285828435758 -475.5109050379308 -1010.6659995867935 85.78315253133539 0.0 0.0
-1451.3007774631483 -378.6981383180682 -913.40833023484 81.95900063874704 0.0 0.0
-1350.252197185607 -291.0169173520561 -818.9826793837435 78.2681258619648 0.0 0.0
-1258.9622015236564 -221.16300977891763 -738.4217643675208 75.36685444786494 0.0 0.0
-1184.9070047339399 -173.64927610554264 -677.694435258689 74.8489711571676 0.0 0.0
-1121.6722476546017 -140.97943314381084 -629.7029646051157 76.45911372740463 0.0 0.0
-1060.7165682357577 -113.54823799825331 -585.3175663551878 78.82873886884295 0.0 0.0
-997.9945980006905 -87.31442848690617 -540.5345494227686 81.11943594354901 0.0 0.0
-932.3024349223142 -61.80111542397052 -494.519279015831 83.06328701091002 0.0 0.0
-863.8577524048909 -37.99268630476829 -447.7784803572438 84.10490625160591 0.0 0.0
-792.6350677742233 -16.62207041447965 -400.3566223815823 83.20824840892001 0.0 0.0
-718.5585249163285 1.0346430739647943 -351.4387960023462 79.88074493099182 0.0 0.0
-639.3532897764719 15.122868573128436 -293.8368015185672 76.25112396164715 0.0 0.0
-550.2332245443371 25.993791018039396 -217.13879355343303 79.35701065807362 0.0 0.0
-442.20380875394073 29.717134558126517 -139.1980100997817 97.63910582757877 0.0 0.0
-326.14100461457775 16.08742002677419 -93.77625383221864 116.31680136640743 0.0 0.0
-222.33439803264028 1.3153307933197156 -66.30495968770794 126.2256376902929 0.0 0.0
-121.23568259810673 -21.11976456376271 -42.70663414856083 114.76764832696757 0.0 0.0
-33.73074375034693 -37.87463482204599 -21.48161357171788 55.62730275163826 0.0 0.0
-33.47372316659039 -17.29795196652642 -15.23150253993504 -37.65086288027169 0.0 0.0
-127.68488175354166 -12.777739739933967 -42.13878644804269 -87.8044170176929 0.0 0.0
-246.04236308306545 -0.10900549796558234 -73.84541057430931 -98.77482772523683 0.0 0.0
-368.6406962774301 16.69995187952033 -106.9448754113696 -88.34356278308229 0.0 0.0
-489.4196493737211 28.45086966109774 -164.17094470520445 -66.9830524802919 0.0 0.0
-587.6736541356934 24.472163606470083 -245.7101932749524 -54.12975332278001 0.0 0.0
-669.6005683882622 15.015330137871842 -314.47323190401863 -54.05541638323295 0.0 0.0
-746.258206110914 1.9683762208209998 -366.50283288002163 -57.97348717460235 0.0 0.0
-822.1172185196251 -18.079790388346908 -416.4285246649923 -61.343598258073044 0.0 0.0
-896.6993621402152 -42.75933584326134 -466.90501797675023 -62.51024675106565 0.0 0.0
-969.4002777712135 -70.47595138677863 -517.6263301136964 -61.97237707355369 0.0 0.0
-1039.8119695503358 -100.3570390361455 -568.126936158774 -60.69759921773928 0.0 0.0
-1108.327291073468 -131.72984607794672 -618.3291300599576 -59.17107334077633 0.0 0.0
-1175.3557233748138 -164.955592316295 -668.633565903532 -57.18710464841681 0.0 0.0
-1243.4100647153211 -201.91502689987152 -721.2030113504102 -54.8681154590795 0.0 0.0
-1319.7222265307394 -250.5572382911182 -783.6071938935485 -53.57433070059764 0.0 0.0
-1414.7645101832195 -323.2120476407121 -867.360831551813 -55.50865273896985 0.0 0.0
-1531.6714975358564 -425.9130008270898 -977.2147537305564 -61.044217967831834 0.0 0.0
-1642.4611603342166 -535.3456078454062 -1087.4397973675261 -69.32317152842408 0.0 0.0
-1727.4286578455976 -639.0759142431468 -1181.9451819253209 -81.67902762797893 0.0 0.0
-1727.4286578457813 -639.075914243414 -1181.9451819254818 81.67902762820711 0.0 0.0
-1642.4611603344333 -535.3456078456633 -1087.4397973678656 69.32317152841794 0.0 0.0
-1531.6714975374985 -425.9130008288558 -977.2147537319283 61.04421796801683 0.0 0.0
-1414.7645101839425 -323.21204764154515 -867.3608315523775 55.50865273898134 0.0 0.0
-1319.7222265295468 -250.55723829007633 -783.6071938926741 53.57433070068167 0.0 0.0
-1243.4100647149971 -201.91502689970542 -721.2030113501229 54.86811545906437 0.0 0.0
-1175.3557233741208 -164.95559231575317 -668.6335659030199 57.18710464841549 0.0 0.0
-1108.327291072398 -131.72984607709196 -618.329130059189 59.17107334075051 0.0 0.0
-1039.811969548498 -100.35703903448467 -568.1269361575252 60.697599217580134 0.0 0.0
-969.4002777705077 -70.47595138629875 -517.6263301132238 61.97237707345991 0.0 0.0
-896.6993621397168 -42.75933584301406 -466.9050179763677 62.51024675095914 0.0 0.0
-822.1172185199151 -18.07979038894652 -416.42852466512073 61.343598258058876 0.0 0.0
-746.2582061098243 1.9683762216414067 -366.50283287938043 57.97348717453313 0.0 0.0
-669.6005683872494 15.01533013858554 -314.47323190333606 54.05541638320231 0.0 0.0
-587.6736541353513 24.47216360641299 -245.71019327462284 54.12975332280472 0.0 0.0
-489.4196493735318 28.450869660826736 -164.17094470505697 66.98305248028754 0.0 0.0
-368.64069627701326 16.699951879656446 -106.9448754112183 88.34356278313399 0.0 0.0
-246.04236308261122 -0.10900549745370292 -73.84541057401947 98.7748277251002 0.0 0.0
-127.68488175346505 -12.777739739986544 -42.138786448035475 87.8044170176203 0.0 0.0
-33.47372316646702 -17.297951966466307 -15.231502539879996 37.65086288023326 0.0 0.0
-31.031693974539966 -3.5274880366420422 -10.367754603354602 -19.79809222828733 0.0 0.0
-130.60875851040618 -4.886759810367277 -40.64865549623204 -57.50754891296147 0.0 0.0
-269.4163342193092 -1.4854632369015874 -81.2705392368632 -66.26298030313424 0.0 0.0
-411.76739456165876 18.27113141344851 -121.19108220527134 -56.62189603403016 0.0 0.0
-527.7908532074496 26.777528903105946 -189.21944688913928 -38.421195766286466 0.0 0.0
-615.5352549772108 21.953345546187535 -269.9295087564726 -31.341499955613802 0.0 0.0
-693.2578065496477 16.039315754503917 -329.3178374640022 -32.593970635675774 0.0 0.0
-769.2074177265913 2.365804098360769 -378.8707424580107 -35.949043678790154 0.0 0.0
-846.5596687850166 -19.32004479546157 -429.70952099555103 -38.84486060179677 0.0 0.0
-924.7062249626108 -47.265695372624776 -483.4161403514549 -40.114223760589915 0.0 0.0
-1001.8090079192713 -78.92293843153777 -538.2369362187158 -40.07862989723299 0.0 0.0
-1077.3205400510392 -113.06644273872149 -593.3687605215084 -39.46746736547896 0.0 0.0
-1151.598164677305 -149.95489980676143 -649.1663010245078 -38.576696389153206 0.0 0.0
-1225.725741348521 -189.7055178623708 -706.2542122047507 -37.25036599648308 0.0 0.0
-1300.519973792965 -233.06376978345605 -765.4167639501827 -35.12629483470788 0.0 0.0
-1377.9856905146498 -282.5841996976376 -828.9047725170096 -32.55894371119474 0.0 0.0
-1466.5093082206076 -348.012942026092 -905.7610431083258 -32.28965660585526 0.0 0.0
-1581.0824910046024 -446.97582213527903 -1012.4207181749307 -38.44864888407787 0.0 0.0
-1738.3268516220542 -600.7778277142486 -1168.0875186641942 -51.9976757325396 0.0 0.0
-1843.1803032332016 -722.2934680763731 -1281.4591620971387 -71.56868152792207 0.0 0.0
-1843.1803032346797 -722.2934680779662 -1281.459162098237 71.56868152827246 0.0 0.0
-1738.3268516237713 -600.7778277160232 -1168.0875186653861 51.99767573248796 0.0 0.0
-1581.0824910044375 -446.97582213519433 -1012.4207181745585 38.44864888413288 0.0 0.0
-1466.5093082196013 -348.01294202519676 -905.7610431074397 32.289656605881675 0.0 0.0
-1377.985690515659 -282.5841996987908 -828.9047725177119 32.55894371115973 0.0 0.0
-1300.5199737947394 -233.06376978538532 -765.4167639514576 35.1262948346011 0.0 0.0
-1225.7257413492894 -189.70551786332106 -706.2542122051701 37.25036599641295 0.0 0.0
-1151.5981646771797 -149.95489980684857 -649.166301024276 38.57669638917663 0.0 0.0
-1077.3205400494896 -113.06644273739963 -593.3687605204285 39.46746736543969 0.0 0.0
-1001.8090079183161 -78.92293843083075 -538.2369362180291 40.078629897150456 0.0 0.0
-924.7062249622547 -47.26569537254751 -483.41614035124127 40.11422376062339 0.0 0.0
-846.5596687845501 -19.320044795317315 -429.70952099525346 38.84486060194254 0.0 0.0
-769.2074177269736 2.3658040976138466 -378.87074245819366 35.94904367886815 0.0 0.0
-693.2578065489355 16.039315754894616 -329.3178374635351 32.59397063562437 0.0 0.0
-615.5352549768295 21.95334554627562 -269.9295087561266 31.34149995539422 0.0 0.0
-527.7908532070051 26.77752890321048 -189.2194468887985 38.421195766229076 0.0 0.0
-411.76739456129536 18.27113141327508 -121.19108220520286 56.62189603408615 0.0 0.0
-269.41633421917425 -1.485463237136583 -81.27053923689323 66.26298030296769 0.0 0.0
-130.60875851028914 -4.886759810426921 -40.64865549621482 57.50754891298709 0.0 0.0
-31.031693974458626 -3.5274880365679167 -10.367754603307963 19.79809222823182 0.0 0.0
-23.83910735605339 3.13605151088931 -6.210916753549223 -3.372615908048271 0.0 0.0
-126.74570556321544 1.6447425057635137 -37.53028891723557 -23.257445940475602 0.0 0.0
-294.0283741615304 -1.8664679886840432 -88.76845264506431 -27.646205702361957 0.0 0.0
-451.3781840627065 20.278727716978608 -137.3219718494592 -22.526942845664358 0.0 0.0
-559.3882991870424 24.576743631161698 -213.91674434947313 -12.950620874645626 0.0 0.0
-639.5030227383587 20.659621432420195 -289.4918042745685 -10.54004871646944 0.0 0.0
-712.7176587903771 16.30856325725793 -341.21913777007325 -11.553821420262992 0.0 0.0
-787.7122396630978 2.725301257514701 -388.712571970045 -13.755475207565013 0.0 0.0
-866.6725902427706 -20.52156115327125 -440.7299387308068 -15.731952087845418 0.0 0.0
-948.3020504644996 -51.41436875607815 -497.50200643077795 -16.90409447080091 0.0 0.0
-1030.0981891521271 -86.97049603383363 -556.5531012594248 -17.356964014182264 0.0 0.0
-1110.8043926395367 -125.96123380683758 -616.6695303682899 -17.345933267684227 0.0 0.0
-1191.0766753918747 -167.9739954366819 -677.9924237628913 -17.094592215961548 0.0 0.0
-1272.1539254945715 -214.02754995813137 -741.6775431753736 -16.479130729860714 0.0 0.0
-1354.6071205787612 -264.84296595612346 -808.39479474665 -15.237204343452758 0.0 0.0
-1437.4681637677168 -319.8409011078782 -877.3764951162983 -13.151902481640576 0.0 0.0
-1519.5277393812166 -378.7095351803097 -947.8271644373569 -10.990149521008838 0.0 0.0
-1608.8849025968202 -451.2180856105962 -1028.6122141893354 -13.528089998301978 0.0 0.0
-1739.3942193935982 -574.7595511050918 -1155.4285242098222 -29.540823479067093 0.0 0.0
-2049.5456427874715 -896.3163466998137 -1471.6575984478873 -59.632428918314424 0.0 0.0
-2049.5456427882605 -896.3163467006636 -1471.6575984483768 59.63242891851279 0.0 0.0
-1739.3942193935638 -574.7595511051126 -1155.4285242095561 29.540823479039105 0.0 0.0
-1608.8849025966751 -451.2180856105345 -1028.6122141892333 13.528089998388115 0.0 0.0
-1519.5277393817805 -378.70953518099765 -947.8271644377073 10.990149520951961 0.0 0.0
-1437.4681637684648 -319.84090110877344 -877.3764951165922 13.15190248162276 0.0 0.0
-1354.6071205785352 -264.84296595606185 -808.3947947462776 15.237204343351511 0.0 0.0
-1272.1539254932995 -214.02754995701935 -741.6775431744331 16.479130729801717 0.0 0.0
-1191.0766753916657 -167.97399543670383 -677.9924237627336 17.09459221606727 0.0 0.0
-1110.8043926388495 -125.9612338063942 -616.6695303678509 17.34593326786145 0.0 0.0
-1030.0981891515034 -86.97049603348144 -556.553101259002 17.35696401426798 0.0 0.0
-948.3020504643284 -51.414368756210465 -497.5020064306828 16.90409447087837 0.0 0.0
-866.6725902426535 -20.52156115345332 -440.7299387307204 15.731952087854918 0.0 0.0
-787.7122396631004 2.725301257175545 -388.71257197003393 13.755475207697101 0.0 0.0
-712.7176587906254 16.30856325664373 -341.219137770228 11.553821420399878 0.0 0.0
-639.5030227379849 20.659621432475078 -289.49180427427723 10.540048716372539 0.0 0.0
-559.3882991866867 24.57674363119507 -213.91674434916587 12.950620874683242 0.0 0.0
-451.3781840626042 20.27872771649121 -137.32197184949217 22.526942845784717 0.0 0.0
-294.0283741612222 -1.866467988673966 -88.76845264496883 27.646205702310713 0.0 0.0
-126.74570556313711 1.644742505638483 -37.530288917249585 23.25744594050976 0.0 0.0
-23.839107356099223 3.1360515107850264 -6.210916753594259 3.3726159079329783 0.0 0.0
SCALARS Strain float 6
LOOKUP_TABLE default
0.013616197068090051 -0.014687828319026874 0.0 -0.008209448030403022 0.0 0.0
0.00279871303189428 -0.001934420766351086 0.0 0.0013945271231591283 0.0 0.0
0.0019215055539480441 -0.0007995069568377255 0.0 -3.350145603564503e-05 0.0 0.0
0.002573742548939755 -0.0013348556834813508 0.0 -0.0002601222948158677 0.0 0.0
0.004384001403501436 -0.002874472320372634 0.0 -0.0003515831409715564 0.0 0.0
0.008095303510681225 -0.006285192833746178 0.0 -0.0005716410876970279 0.0 0.0
0.014185829125112296 -0.012113153859362846 0.0 -0.0009517671357899826 0.0 0.0
0.023078238789988752 -0.020731684721776666 0.0 -0.0015531449423456523 0.0 0.0
0.03497406632671964 -0.03231967986044548 0.0 -0.002393843186530187 0.0 0.0
0.049803684663548425 -0.0468112674818264 0.0 -0.0033948369320104255 0.0 0.0
0.06731763995882942 -0.06397144961556167 0.0 -0.004430369826549152 0.0 0.0
0.08720626201653338 -0.08349889906774743 0.0 -0.005433539547494037 0.0 0.0
0.10914531380193074 -0.1050711922465557 0.0 -0.006409243993591884 0.0 0.0
0.13275990767935428 -0.12830913760789553 0.0 -0.007336885499819423 0.0 0.0
0.15751007362460398 -0.1526701132191013 0.0 -0.008150783010638873 0.0 0.0
0.18257034270120506 -0.17733376500448372 0.0 -0.008674697686498978 0.0 0.0
0.2067904898507328 -0.20116351418597844 0.0 -0.008641308068517928 0.0 0.0
0.22874151821495997 -0.2227413018866482 0.0 -0.007875174972473475 0.0 0.0
0.24673091161779037 -0.24036552503885655 0.0 -0.0069849388402883905 0.0 0.0
0.25810918660551824 -0.2511177709110175 0.0 -0.009015673902834864 0.0 0.0
0.258109186605501 -0.2511177709109935 0.0 0.00901567390284641 0.0 0.0
0.24673091161773628 -0.2403655250387926 0.0 0.006984938840318922 0.0 0.0
0.2287415182148681 -0.22274130188655317 0.0 0.007875174972493904 0.0 0.0
0.20679048985062287 -0.20116351418587008 0.0 0.008641308068523923 0.0 0.0
0.18257034270108363 -0.17733376500436648 0.0 0.008674697686483324 0.0 0.0
0.15751007362447483 -0.15267011321897606 0.0 0.008150783010637097 0.0 0.0
0.13275990767922652 -0.12830913760777074 0.0 0.0073368854998180355 0.0 0.0
0.10914531380180409 -0.10507119224643402 0.0 0.006409243993591329 0.0 0.0
0.08720626201641313 -0.08349889906763153 0.0 0.005433539547481714 0.0 0.0
0.06731763995872275 -0.06397144961545953 0.0 0.004430369826540437 0.0 0.0
0.0498036846634603 -0.046811267481738916 0.0 0.0033948369319972693 0.0 0.0
0.0349740663266489 -0.03231967986037709 0.0 0.0023938431865269116 0.0 0.0
0.023078238789938532 -0.020731684721729593 0.0 0.0015531449423410448 0.0 0.0
0.014185829125077654 -0.01211315385932954 0.0 0.0009517671357847646 0.0 0.0
0.008095303510660345 -0.006285192833726638 0.0 0.0005716410876933087 0.0 0.0
0.004384001403492099 -0.0028744723203653066 0.0 0.00035158314097027965 0.0 0.0
0.0025737425489370525 -0.0013348556834810177 0.0 0.00026012229481675586 0.0 0.0
0.001921505553947489 -0.0007995069568388358 0.0 3.3501456035089916e-05 0.0 0.0
0.0027987130318926634 -0.001934420766348921 0.0 -0.0013945271231580736 0.0 0.0
0.013616197068078706 -0.014687828319012254 0.0 0.008209448030364053 0.0 0.0
0.009825185431819497 -0.011273018796013168 0.0 -0.010062455577123597 0.0 0.0
0.001487823123957649 -0.0009660824894516251 0.0 0.00012047576161200446 0.0 0.0
0.001629950136401874 -0.0005676446414366598 0.0 -0.00012408818528658605 0.0 0.0
0.002224988646782007 -0.001088083185690314 0.0 -0.0005309189172420514 0.0 0.0
0.0036775952023892083 -0.0022683387752642226 0.0 -0.0007725214387053758 0.0 0.0
0.006871891229612889 -0.00514562922056272 0.0 -0.0013077695231478725 0.0 0.0
0.012314526588460044 -0.010303681632313655 0.0 -0.0022464055229663438 0.0 0.0
0.020361662432538882 -0.018071142060231082 0.0 -0.003642965525767039 0.0 0.0
0.031136638119100474 -0.02854681272947568 0.0 -0.00549537424270613 0.0 0.0
0.04451812192965146 -0.041609517192751966 0.0 -0.00762216220049472 0.0 0.0
0.06025413930003635 -0.05701812332569256 0.0 -0.009788482946885058 0.0 0.0
0.07808061331514099 -0.07451299485285467 0.0 -0.011866787006466428 0.0 0.0
0.09774459085895662 -0.09383972314254319 0.0 -0.0139033130850294 0.0 0.0
0.11893378313412858 -0.11468422204377937 0.0 -0.015881673892435555 0.0 0.0
0.14118630051508976 -0.1365839771717141 0.0 -0.017637954722459492 0.0 0.0
0.16380644065408834 -0.15884559870367898 0.0 -0.01883370056297423 0.0 0.0
0.18580225968612957 -0.1804808035342118 0.0 -0.018983261660215134 0.0 0.0
0.2058402233578569 -0.20015322883473896 0.0 -0.017871206253292304 0.0 0.0
0.22205169642847783 -0.21594140140718832 0.0 -0.01603063357249468 0.0 0.0
0.23181974467316732 -0.2253856456436374 0.0 -0.013309477626159083 0.0 0.0
0.23181974467315125 -0.22538564564362318 0.0 0.013309477626190835 0.0 0.0
0.2220516964284282 -0.2159414014071448 0.0 0.01603063357254786 0.0 0.0
0.2058402233577762 -0.2001532288346608 0.0 0.01787120625333083 0.0 0.0
0.1858022596860333 -0.18048080353411233 0.0 0.018983261660227235 0.0 0.0
0.16380644065397987 -0.15884559870356707 0.0 0.018833700562963518 0.0 0.0
0.14118630051497455 -0.13658397717160664 0.0 0.017637954722451887 0.0 0.0
0.11893378313401337 -0.1146842220436648 0.0 0.015881673892431114 0.0 0.0
0.09774459085884363 -0.09383972314242461 0.0 0.013903313085025792 0.0 0.0
0.07808061331503419 -0.07451299485274987 0.0 0.011866787006453716 0.0 0.0
0.060254139299940335 -0.0570181233255993 0.0 0.00978848294687229 0.0 0.0
0.044518121929572996 -0.04160951719267425 0.0 0.007622162200472848 0.0 0.0
0.03113663811903694 -0.028546812729413062 0.0 0.005495374242697748 0.0 0.0
0.0203616624324926 -0.0180711420601809 0.0 0.003642965525757491 0.0 0.0
0.01231452658842902 -0.010303681632280126 0.0 0.002246405522958961 0.0 0.0
0.006871891229595473 -0.0051456292205454 0.0 0.0013077695231420994 0.0 0.0
0.0036775952023815894 -0.0022683387752588935 0.0 0.000772521438701379 0.0 0.0
0.0022249886467801128 -0.001088083185690203 0.0 0.0005309189172420514 0.0 0.0
0.0016299501364009372 -0.0005676446414362157 0.0 0.00012408818528708565 0.0 0.0
0.0014878231239580098 -0.0009660824894502928 0.0 -0.00012047576161400286 0.0 0.0
0.009825185431804773 -0.011273018795996986 0.0 0.010062455577091123 0.0 0.0
0.00736079114584956 -0.00899753459033703 0.0 -0.009390566586548965 0.0 0.0
0.0008647727195492116 -0.0006356563721348074 0.0 -0.0006209954602672263 0.0 0.0
0.0013009895591684015 -0.00041034761021163657 0.0 -0.0004480702506363121 0.0 0.0
0.0018995657529637944 -0.0008625925396870127 0.0 -0.0007765963612936799 0.0 0.0
0.003047879765447868 -0.0017560336547746136 0.0 -0.00111363599754577 0.0 0.0
0.005700389950076774 -0.004076965378839947 0.0 -0.0018467870505479156 0.0 0.0
0.010458746656046125 -0.008521537278397329 0.0 -0.003205279661629201 0.0 0.0
0.017610864003946625 -0.015390246413921727 0.0 -0.00524173512600612 0.0 0.0
0.027220633844225794 -0.02470855446505249 0.0 -0.00788221705220804 0.0 0.0
0.039125086467873174 -0.036314413781807 0.0 -0.010870117683909386 0.0 0.0
0.053073065576995454 -0.04996077848612224 0.0 -0.013913347851102265 0.0 0.0
0.06883435906086019 -0.06541843556820925 0.0 -0.016849490557618918 0.0 0.0
0.08620590503241891 -0.08248294722236249 0.0 -0.01970806318843621 0.0 0.0
0.10494708939753973 -0.1009129234803865 0.0 -0.02249790305783217 0.0 0.0
0.12469363089760722 -0.1203443557474575 0.0 -0.02502034298059691 0.0 0.0
0.14488712383409644 -0.14021660681859593 0.0 -0.02681763011177607 0.0 0.0
0.16468645673426505 -0.15968259766122106 0.0 -0.02731681434358102 0.0 0.0
0.18282741613642062 -0.1774618506316683 0.0 -0.02614033364142987 0.0 0.0
0.19748575302346114 -0.19176627964379556 0.0 -0.022810524551145184 0.0 0.0
0.20661163293446047 -0.20063248382118992 0.0 -0.016245872283484952 0.0 0.0
0.20661163293444582 -0.2006324838211766 0.0 0.016245872283533247 0.0 0.0
0.19748575302341606 -0.19176627964374582 0.0 0.02281052455121424 0.0 0.0
0.18282741613635037 -0.17746185063160258 0.0 0.026140333641482272 0.0 0.0
0.16468645673417937 -0.1596825976611349 0.0 0.027316814343600004 0.0 0.0
0.14488712383400182 -0.1402166068184929 0.0 0.026817630111767965 0.0 0.0
0.12469363089750501 -0.12034435574735802 0.0 0.025020342980587307 0.0 0.0
0.10494708939743735 -0.10091292348029368 0.0 0.022497903057827062 0.0 0.0
0.08620590503231995 -0.08248294722226834 0.0 0.01970806318842966 0.0 0.0
0.06883435906076624 -0.06541843556811244 0.0 0.016849490557599878 0.0 0.0
0.053073065576909995 -0.04996077848603786 0.0 0.013913347851084001 0.0 0.0
0.039125086467803605 -0.03631441378173772 0.0 0.01087011768388113 0.0 0.0
0.02722063384416995 -0.024708554465000976 0.0 0.007882217052193163 0.0 0.0
0.01761086400390488 -0.015390246413880426 0.0 0.005241735125993019 0.0 0.0
0.010458746656019202 -0.008521537278368685 0.0 0.003205279661619709 0.0 0.0
0.0057003899500625566 -0.004076965378829511 0.0 0.0018467870505411987 0.0 0.0
0.0030478797654420187 -0.0017560336547706168 0.0 0.0011136359975421062 0.0 0.0
0.0018995657529627952 -0.0008625925396862355 0.0 0.0007765963612929583 0.0 0.0
0.0013009895591679088 -0.00041034761021208066 0.0 0.00044807025063509087 0.0 0.0
0.0008647727195494892 -0.0006356563721331976 0.0 0.0006209954602653389 0.0 0.0
0.007360791145835266 -0.00899753459032197 0.0 0.009390566586523486 0.0 0.0
0.005614674852048904 -0.007275988435987424 0.0 -0.008012029314507507 0.0 0.0
0.0005383926988820759 -0.0004728451159022873 0.0 -0.0012348402318665408 0.0 0.0
0.0010067036793218326 -0.00029890621204853307 0.0 -0.000891198541348448 0.0 0.0
0.0015936150832299711 -0.0006754272174651632 0.0 -0.0010503778214072668 0.0 0.0
0.0024926679289234283 -0.0013382022500705304 0.0 -0.001404256671809656 0.0 0.0
0.004617599116513604 -0.003120043333772582 0.0 -0.002216239474943593 0.0 0.0
0.008637543050147883 -0.00680070210154371 0.0 -0.0038388524809306324 0.0 0.0
0.01486041355107351 -0.012723210239102833 0.0 -0.00634347414314107 0.0 0.0
0.023268059133623314 -0.020849689079985634 0.0 -0.009545858525732698 0.0 0.0
0.03367143313043497 -0.03097377776854815 0.0 -0.013146250446694707 0.0 0.0
0.04581808067952159 -0.04284371093316075 0.0 -0.016809025906042496 0.0 0.0
0.05950541016542647 -0.05625502978920105 0.0 -0.020367973675677165 0.0 0.0
0.07457752598646154 -0.071050671855581 0.0 -0.023847303028072697 0.0 0.0
0.09085739775695233 -0.08705237028354862 0.0 -0.027206865542826364 0.0 0.0
0.10807726553146292 -0.10399479093848818 0.0 -0.030259206387762028 0.0 0.0
0.1258208083331967 -0.12145509311077518 0.0 -0.03258879092465161 0.0 0.0
0.14340108269545407 -0.1387310464049305 0.0 -0.03354774860607057 0.0 0.0
0.1597002743277213 -0.15470457758452572 0.0 -0.03236852903600318 0.0 0.0
0.1731433480537835 -0.16783482887008905 0.0 -0.02787463268819601 0.0 0.0
0.18201191985530618 -0.17647004162345947 0.0 -0.018613382502583153 0.0 0.0
0.18201191985529297 -0.17647004162344881 0.0 0.018613382502645437 0.0 0.0
0.173143348053743 -0.16783482887006151 0.0 0.027874632688277057 0.0 0.0
0.15970027432766035 -0.15470457758447065 0.0 0.03236852903605847 0.0 0.0
0.1434010826953787 -0.138731046404855 0.0 0.03354774860609333 0.0 0.0
0.12582080833311526 -0.12145509311069969 0.0 0.03258879092464184 0.0 0.0
0.10807726553137409 -0.10399479093841002 0.0 0.030259206387744264 0.0 0.0
0.09085739775686308 -0.08705237028345714 0.0 0.02720686554281515 0.0 0.0
0.07457752598637613 -0.07105067185549663 0.0 0.02384730302806448 0.0 0.0
0.059505410165344885 -0.056255029789125555 0.0 0.02036797367565435 0.0 0.0
0.045818080679448314 -0.04284371093309591 0.0 0.016809025906018626 0.0 0.0
0.03367143313037407 -0.030973777768492194 0.0 0.013146250446663843 0.0 0.0
0.023268059133574825 -0.020849689079939004 0.0 0.00954585852571499 0.0 0.0
0.014860413551037455 -0.012723210239071747 0.0 0.006343474143128192 0.0 0.0
0.008637543050124763 -0.006800702101523948 0.0 0.0038388524809215285 0.0 0.0
0.0046175991165023356 -0.003120043333762146 0.0 0.002216239474937931 0.0 0.0
0.0024926679289191123 -0.0013382022500645352 0.0 0.001404256671808768 0.0 0.0
0.001593615083229416 -0.0006754272174627207 0.0 0.0010503778214071557 0.0 0.0
0.0010067036793215411 -0.00029890621204786694 0.0 0.0008911985413486145 0.0 0.0
0.000538392698882062 -0.0004728451159008995 0.0 0.001234840231865153 0.0 0.0
0.005614674852036428 -0.007275988435973652 0.0 0.008012029314487246 0.0 0.0
0.004269897210997853 -0.005867091486152054 0.0 -0.006579122376217883 0.0 0.0
0.00035823508234568424 -0.00037724814051165456 0.0 -0.0017131284856860551 0.0 0.0
0.000763472763754075 -0.00022183766453653941 0.0 -0.001339625128747246 0.0 0.0
0.0013066710332670373 -0.0005225010031422173 0.0 -0.0013580104080069821 0.0 0.0
0.0020077293492170023 -0.0010070306447489408 0.0 -0.001667217668849641 0.0 0.0
0.003642551125988172 -0.0022997717644475113 0.0 -0.0024774757388001944 0.0 0.0
0.006897851765471225 -0.005188246053769774 0.0 -0.004169028454784618 0.0 0.0
0.012138976925573211 -0.01010787079471287 0.0 -0.006908045169636723 0.0 0.0
0.019319788314589095 -0.01701228423278689 0.0 -0.010481172630067148 0.0 0.0
0.028201486256958994 -0.025633806399626202 0.0 -0.01445108535209172 0.0 0.0
0.03853444551052303 -0.03571381572229937 0.0 -0.0184877076109633 0.0 0.0
0.050138252826491606 -0.04706984842717166 0.0 -0.022420190101859194 0.0 0.0
0.06290298511417629 -0.0595886487060584 0.0 -0.026271906029409597 0.0 0.0
0.07671574437403975 -0.07315641562670105 0.0 -0.03000521394820077 0.0 0.0
0.09139108074012528 -0.08758957959575131 0.0 -0.033400879144111495 0.0 0.0
0.10663279896686201 -0.10258605757575268 0.0 -0.03608809279715308 0.0 0.0
0.12193877180069851 -0.11763049081246901 0.0 -0.03747617587311314 0.0 0.0
0.13645226772412067 -0.13185965337473782 0.0 -0.03651981262177084 0.0 0.0
0.14888779168886723 -0.14401296521879914 0.0 -0.031487848828474885 0.0 0.0
0.15774461417135888 -0.15264181897514462 0.0 -0.020596202027798105 0.0 0.0
0.15774461417134678 -0.15264181897512508 0.0 0.02059620202786594 0.0 0.0
0.148887791688832 -0.14401296521876894 0.0 0.03148784882856093 0.0 0.0
0.13645226772406732 -0.13185965337469074 0.0 0.03651981262183457 0.0 0.0
0.12193877180063467 -0.11763049081242105 0.0 0.03747617587314078 0.0 0.0
0.10663279896679184 -0.10258605757569672 0.0 0.036088092797143645 0.0 0.0
0.09139108074005003 -0.08758957959569269 0.0 0.033400879144099394 0.0 0.0
0.07671574437396439 -0.07315641562662689 0.0 0.030005213948190335 0.0 0.0
0.06290298511410425 -0.05958864870598646 0.0 0.026271906029396552 0.0 0.0
0.050138252826423146 -0.047069848427106376 0.0 0.02242019010183438 0.0 0.0
0.03853444551046176 -0.03571381572224386 0.0 0.018487707610936654 0.0 0.0
0.02820148625690655 -0.025633806399573356 0.0 0.014451085352056858 0.0 0.0
0.01931978831454806 -0.01701228423274559 0.0 0.010481172630043667 0.0 0.0
0.012138976925543776 -0.010107870794682672 0.0 0.006908045169618071 0.0 0.0
0.006897851765452101 -0.005188246053751344 0.0 0.004169028454774848 0.0 0.0
0.003642551125979221 -0.0022997717644388516 0.0 0.002477475738791979 0.0 0.0
0.002007729349213949 -0.00100703064474561 0.0 0.0016672176688455886 0.0 0.0
0.0013066710332666487 -0.0005225010031416621 0.0 0.0013580104080045952 0.0 0.0
0.0007634727637539362 -0.00022183766453787168 0.0 0.0013396251287437488 0.0 0.0
0.0003582350823453928 -0.00037724814051021127 0.0 0.0017131284856831686 0.0 0.0
0.004269897210987972 -0.005867091486140679 0.0 0.006579122376202173 0.0 0.0
0.0031984543453872777 -0.0046814225026061695 0.0 -0.0053127543198225324 0.0 0.0
0.00025045366082725173 -0.0003112675465479775 0.0 -0.0020709804916195784 0.0 0.0
0.0005619157941505054 -0.00016449381924610318 0.0 -0.0017332419469796578 0.0 0.0
0.0010324021191576993 -0.0003928846960028487 0.0 -0.0016723642255818127 0.0 0.0
0.001585749461472219 -0.0007486813843191609 0.0 -0.0019217165500957645 0.0 0.0
0.0027756173753516328 -0.0016271966070873223 0.0 -0.0026659507258882664 0.0 0.0
0.0052873804628430915 -0.003744711493829378 0.0 -0.00430500466588557 0.0 0.0
0.009498393984955167 -0.007610062699748177 0.0 -0.007016550486665385 0.0 0.0
0.015413457904208144 -0.013240608157057299 0.0 -0.010665225256063948 0.0 0.0
0.022759071111539464 -0.0203414488318856 0.0 -0.014775792499921114 0.0 0.0
0.031266970576163344 -0.028620448574395052 0.0 -0.01893598070260405 0.0 0.0
0.04078056797461324 -0.037913587218764366 0.0 -0.022997109830760643 0.0 0.0
0.05123128913666117 -0.04814975358877849 0.0 -0.026985678931550683 0.0 0.0
0.06256772749749237 -0.05927435897846767 0.0 -0.0308489137322544 0.0 0.0
0.07468241167888442 -0.07117892697323747 0.0 -0.03438991747307285 0.0 0.0
0.08737235840862012 -0.08366305408709351 0.0 -0.037281909180055584 0.0 0.0
0.10032535190654254 -0.09640473717394915 0.0 -0.03899456170592552 0.0 0.0
0.11302449409983564 -0.10886931678169187 0.0 -0.03847679540132998 0.0 0.0
0.12454744188581013 -0.12013744799316495 0.0 -0.033655334272022164 0.0 0.0
0.13356789009636694 -0.1289205972745071 0.0 -0.02224950386050839 0.0 0.0
0.13356789009635553 -0.12892059727450444 0.0 0.022249503860582 0.0 0.0
0.12454744188578076 -0.12013744799314008 0.0 0.03365533427210743 0.0 0.0
0.11302449409978976 -0.10886931678164746 0.0 0.03847679540139204 0.0 0.0
0.10032535190649003 -0.09640473717389675 0.0 0.03899456170595561 0.0 0.0
0.08737235840856178 -0.08366305408703312 0.0 0.0372819091800467 0.0 0.0
0.07468241167882206 -0.07117892697316286 0.0 0.03438991747306486 0.0 0.0
0.06256772749743045 -0.05927435897839661 0.0 0.030848913732238525 0.0 0.0
0.05123128913660313 -0.048149753588718536 0.0 0.026985678931536805 0.0 0.0
0.040780567974557536 -0.03791358721870708 0.0 0.02299710983073311 0.0 0.0
0.03126697057611316 -0.0286204485743502 0.0 0.01893598070257141 0.0 0.0
0.02275907111149711 -0.020341448831844744 0.0 0.014775792499888585 0.0 0.0
0.015413457904174643 -0.01324060815702266 0.0 0.010665225256041855 0.0 0.0
0.009498393984931908 -0.0076100626997264165 0.0 0.007016550486648621 0.0 0.0
0.005287380462828062 -0.003744711493814945 0.0 0.004305004665875967 0.0 0.0
0.0027756173753450963 -0.001627196607080661 0.0 0.0026659507258827153 0.0 0.0
0.0015857494614705536 -0.0007486813843151641 0.0 0.0019217165500925448 0.0 0.0
0.001032402119157505 -0.00039288469599951803 0.0 0.0016723642255802584 0.0 0.0
0.000561915794150436 -0.00016449381924532602 0.0 0.0017332419469782145 0.0 0.0
0.0002504536608271546 -0.0003112675465469783 0.0 0.0020709804916190233 0.0 0.0
0.003198454345379409 -0.004681422502597716 0.0 0.005312754319809099 0.0 0.0
0.002338938795277995 -0.003675420632793913 0.0 -0.004256718274712523 0.0 0.0
0.00017739216356602028 -0.00026106280543980454 0.0 -0.0023240340070222465 0.0 0.0
0.0003870618256685554 -0.0001157734555787826 0.0 -0.002047506317861769 0.0 0.0
0.0007648277239242218 -0.0002744395331637506 0.0 -0.0019672237603732823 0.0 0.0
0.0012070784475118057 -0.0005421523790134497 0.0 -0.002178426380930132 0.0 0.0
0.002022111747453481 -0.0010950561350748789 0.0 -0.0027944373987372484 0.0 0.0
0.003822878394221574 -0.0025035273767524124 0.0 -0.004248024749590018 0.0 0.0
0.007005388849963434 -0.005305616004604996 0.0 -0.006743339363097789 0.0 0.0
0.011606443543648981 -0.009607951240962809 0.0 -0.010152261296652587 0.0 0.0
0.017387107304142557 -0.01514883400610234 0.0 -0.01409379624553242 0.0 0.0
0.024059441143312266 -0.021614809915044386 0.0 -0.018143113976794578 0.0 0.0
0.03148064254804753 -0.028841665747612488 0.0 -0.022086789207274915 0.0 0.0
0.03961307184805296 -0.03679110623819204 0.0 -0.02595439215190809 0.0 0.0
0.04846225724060796 -0.04546310565069245 0.0 -0.02972986026321245 0.0 0.0
0.05799682540461862 -0.05482101887529556 0.0 -0.03321455542344842 0.0 0.0
0.06809961669235165 -0.0647494627265548 0.0 -0.03608033568876612 0.0 0.0
0.07860353638121312 -0.07509552486048321 0.0 -0.0379746841647971 0.0 0.0
0.08935868464627614 -0.0856805607484441 0.0 -0.03809794254231247 0.0 0.0
0.0999284445751478 -0.09603015671454784 0.0 -0.03426276945132567 0.0 0.0
0.10922798923346644 -0.10506967867894357 0.0 -0.023557238490494403 0.0 0.0
0.10922798923345625 -0.1050696786789409 0.0 0.023557238490558685 0.0 0.0
0.09992844457512423 -0.09603015671451942 0.0 0.0342627694514146 0.0 0.0
0.08935868464623944 -0.08568056074839525 0.0 0.038097942542379526 0.0 0.0
0.07860353638117093 -0.07509552486044502 0.0 0.037974684164829076 0.0 0.0
0.06809961669230549 -0.06474946272651749 0.0 0.036080335688758236 0.0 0.0
0.057996825404568436 -0.05482101887525115 0.0 0.03321455542343532 0.0 0.0
0.04846225724056008 -0.04546310565064671 0.0 0.02972986026319724 0.0 0.0
0.03961307184800883 -0.03679110623814852 0.0 0.025954392151894434 0.0 0.0
0.03148064254800442 -0.02884166574757341 0.0 0.022086789207247604 0.0 0.0
0.024059441143273685 -0.021614809915007527 0.0 0.01814311397676538 0.0 0.0
0.017387107304109972 -0.015148834006069922 0.0 0.014093796245500556 0.0 0.0
0.01160644354362389 -0.009607951240937052 0.0 0.010152261296630827 0.0 0.0
0.007005388849945282 -0.00530561600459345 0.0 0.006743339363082357 0.0 0.0
0.003822878394211471 -0.0025035273767468613 0.0 0.004248024749581525 0.0 0.0
0.0020221117474492623 -0.00109505613507066 0.0 0.002794437398732863 0.0 0.0
0.0012070784475106677 -0.0005421523790118954 0.0 0.0021784263809270787 0.0 0.0
0.0007648277239241663 -0.00027443953316408365 0.0 0.0019672237603737264 0.0 0.0
0.0003870618256686664 -0.00011577345557967078 0.0 0.002047506317861103 0.0 0.0
0.00017739216356554843 -0.0002610628054400821 0.0 0.0023240340070210252 0.0 0.0
0.0023389387952721385 -0.0036754206327867366 0.0 0.004256718274704752 0.0 0.0
0.0016609901736218124 -0.002836270050416978 0.0 -0.003414545213094755 0.0 0.0
0.0001140114858354524 -0.00021891910110904966 0.0 -0.0024770360073509967 0.0 0.0
0.0002262949430828498 -6.761010757916353e-05 0.0 -0.0022818602614893546 0.0 0.0
0.0005016428307808019 -0.00015856691926385835 0.0 -0.002215777083702908 0.0 0.0
0.000846404345055618 -0.0003625558567892373 0.0 -0.0024215157267672427 0.0 0.0
0.0013745865721486727 -0.0006926387581491777 0.0 -0.0029287070529208092 0.0 0.0
0.0025250416229383454 -0.0014994660839309226 0.0 -0.004075031151349273 0.0 0.0
0.004702588642235633 -0.003269609469189305 0.0 -0.006135839703313106 0.0 0.0
0.00797302223082269 -0.006210646023831146 0.0 -0.0090367241025755 0.0 0.0
0.01214477622259963 -0.010139071342127881 0.0 -0.01246068148192081 0.0 0.0
0.016960436991592304 -0.014762921605629309 0.0 -0.016072887001948533 0.0 0.0
0.02228532037315603 -0.019918958187615132 0.0 -0.019643873920496824 0.0 0.0
0.028099583783711135 -0.02558054956930489 0.0 -0.023156179156256007 0.0 0.0
0.03444822364611222 -0.03178782903745514 0.0 -0.02659349560910207 0.0 0.0
0.041378280990363836 -0.03857818636336674 0.0 -0.02982555708332124 0.0 0.0
0.04887134633568252 -0.0459268011624161 0.0 -0.032516243550248625 0.0 0.0
0.05685432210844829 -0.05378423404250565 0.0 -0.03431626064391724 0.0 0.0
0.06543018005740633 -0.06227216196161223 0.0 -0.0350110496208369 0.0 0.0
0.07481337415950443 -0.07150290701551931 0.0 -0.03294135392586839 0.0 0.0
0.08442086428462489 -0.08081885634430641 0.0 -0.02441703839020759 0.0 0.0
0.08442086428461751 -0.08081885634429753 0.0 0.0244170383902641 0.0 0.0
0.07481337415948783 -0.07150290701550066 0.0 0.032941353925953876 0.0 0.0
0.06543018005737922 -0.062272161961588246 0.0 0.035011049620898405 0.0 0.0
0.05685432210841626 -0.05378423404247723 0.0 0.03431626064393556 0.0 0.0
0.048871346335647936 -0.04592680116238679 0.0 0.03251624355023475 0.0 0.0
0.041378280990327504 -0.038578186363339206 0.0 0.029825557083303256 0.0 0.0
0.03444822364607955 -0.031787829037428494 0.0 0.026593495609088302 0.0 0.0
0.028099583783680687 -0.02558054956927691 0.0 0.02315617915624324 0.0 0.0
0.022285320373127 -0.019918958187585822 0.0 0.019643873920478172 0.0 0.0
0.016960436991564742 -0.01476292160560222 0.0 0.016072887001927327 0.0 0.0
0.012144776222576203 -0.010139071342107897 0.0 0.0124606814818915 0.0 0.0
0.007973022230805926 -0.006210646023816047 0.0 0.00903672410255496 0.0 0.0
0.004702588642223199 -0.003269609469178203 0.0 0.006135839703299895 0.0 0.0
0.0025250416229323225 -0.001499466083922929 0.0 0.004075031151340058 0.0 0.0
0.0013745865721461747 -0.0006926387581467353 0.0 0.002928707052914592 0.0 0.0
0.0008464043450551739 -0.00036255585678945934 0.0 0.0024215157267637455 0.0 0.0
0.0005016428307804133 -0.00015856691926374733 0.0 0.0022157770837009094 0.0 0.0
0.00022629494308307185 -6.761010757849739e-05 0.0 0.002281860261485913 0.0 0.0
0.00011401148583498055 -0.000218919101108217 0.0 0.0024770360073502196 0.0 0.0
0.0016609901736178712 -0.0028362700504114963 0.0 0.0034145452130868725 0.0 0.0
0.001149414977721308 -0.0021643312677925297 0.0 -0.002775404219758304 0.0 0.0
4.343653850838458e-05 -0.000182424045646834 0.0 -0.002551172339390617 0.0 0.0
7.071749742884603e-05 -1.3680607692911906e-05 0.0 -0.002441074012240141 0.0 0.0
0.0002442250920457467 -4.392414732157235e-05 0.0 -0.0024054235619033193 0.0 0.0
0.0004836267646204373 -0.00018836866636839922 0.0 -0.0026258410040701508 0.0 0.0
0.0007995236297934083 -0.00038136683448963815 0.0 -0.0030830305964044125 0.0 0.0
0.0014109818499108973 -0.0007494652241870625 0.0 -0.00388508656703479 0.0 0.0
0.002630338225415918 -0.001598968657005706 0.0 -0.005300082116352689 0.0 0.0
0.004577980864794939 -0.003180991338405992 0.0 -0.007399935055578011 0.0 0.0
0.007107159230022281 -0.0054468181547049355 0.0 -0.009976726202653441 0.0 0.0
0.010032710171207215 -0.008182610818069147 0.0 -0.012810923131781227 0.0 0.0
0.013240498196425365 -0.011244823783475688 0.0 -0.01571656238086816 0.0 0.0
0.016734469499566612 -0.014614194757683663 0.0 -0.018649809942035578 0.0 0.0
0.020576357375578197 -0.01834908033270999 0.0 -0.021546836330650354 0.0 0.0
0.02486470506363786 -0.022539361663212354 0.0 -0.024336131871753208 0.0 0.0
0.02970577094236196 -0.027276209812658436 0.0 -0.02679651780470116 0.0 0.0
0.0351587543089697 -0.03261243241491396 0.0 -0.028468898287444477 0.0 0.0
0.04136446871802063 -0.03876286251072969 0.0 -0.02926154285203164 0.0 0.0
0.04901139237504021 -0.04641187611788489 0.0 -0.029074891625007315 0.0 0.0
0.05871701814772229 -0.055813149213644664 0.0 -0.024504990014253103 0.0 0.0
0.058717018147717875 -0.05581314921365532 0.0 0.024504990014301842 0.0 0.0
0.04901139237503077 -0.04641187611788933 0.0 0.029074891625086363 0.0 0.0
0.041364468718002506 -0.038762862510718143 0.0 0.02926154285208349 0.0 0.0
0.03515875430894866 -0.03261243241489353 0.0 0.028468898287455136 0.0 0.0
0.029705770942340032 -0.02727620981263712 0.0 0.026796517804685616 0.0 0.0
0.02486470506361732 -0.022539361663192814 0.0 0.024336131871739664 0.0 0.0
0.02057635737556035 -0.018349080332694 0.0 0.02154683633064136 0.0 0.0
0.01673446949955057 -0.014614194757676113 0.0 0.01864980994202836 0.0 0.0
0.013240498196409822 -0.011244823783461477 0.0 0.015716562380851173 0.0 0.0
0.010032710171190923 -0.008182610818056268 0.0 0.012810923131758023 0.0 0.0
0.007107159230008597 -0.005446818154692945 0.0 0.009976726202627795 0.0 0.0
0.0045779808647865294 -0.0031809913383953337 0.0 0.007399935055565465 0.0 0.0
0.002630338225408979 -0.0015989686569941597 0.0 0.0053000821163454725 0.0 0.0
0.001410981849907983 -0.0007494652241837318 0.0 0.0038850865670287393 0.0 0.0
0.0007995236297922426 -0.0003813668344898602 0.0 0.003083030596400693 0.0 0.0
0.00048362676462052057 -0.00018836866636706695 0.0 0.0026258410040674862 0.0 0.0
0.0002442250920454414 -4.392414732068417e-05 0.0 0.0024054235619011544 0.0 0.0
7.071749742881828e-05 -1.3680607693022928e-05 0.0 0.0024410740122376984 0.0 0.0
4.343653850813478e-05 -0.0001824240456472781 0.0 0.002551172339388841 0.0 0.0
0.0011494149777185603 -0.002164331267788892 0.0 0.0027754042197542517 0.0 0.0
0.0007799422930221678 -0.001642810607734413 0.0 -0.0023004190490784615 0.0 0.0
-3.9108943704069254e-05 -0.00015238851720189572 0.0 -0.002573295351153415 0.0 0.0
-8.416127646168614e-05 4.884849316477702e-05 0.0 -0.002537682295778332 0.0 0.0
-6.656045789310561e-06 6.859455342755894e-05 0.0 -0.0025336154669607924 0.0 0.0
0.00011609713053092885 -1.0688326746555177e-05 0.0 -0.002751374237699722 0.0 0.0
0.00024876060629308583 -0.00010609774053582655 0.0 -0.0032210477352939137 0.0 0.0
0.00044467309480886175 -0.00021978440088110673 0.0 -0.003849799982888813 0.0 0.0
0.0008264533518166917 -0.000421068467845398 0.0 -0.0045789412820673725 0.0 0.0
0.0014733825693143965 -0.0008009440808196544 0.0 -0.005615423037598877 0.0 0.0
0.002324365076991214 -0.0013967851160550104 0.0 -0.007130225579160987 0.0 0.0
0.003306925220581708 -0.0021814844971603797 0.0 -0.009099517205678365 0.0 0.0
0.004365946937865045 -0.0031087961749318715 0.0 -0.011329417833600863 0.0 0.0
0.005519406505433505 -0.004165487290868519 0.0 -0.01372498193941385 0.0 0.0
0.006832817380505424 -0.005405879624826859 0.0 -0.016249345054114572 0.0 0.0
0.008442633658033827 -0.006952766495247786 0.0 -0.01885161739455188 0.0 0.0
0.010571530920707173 -0.009010505232481592 0.0 -0.021341970982239333 0.0 0.0
0.013492335946841516 -0.01182683695552722 0.0 -0.02322556214105087 0.0 0.0
0.01741068560199635 -0.015605446973532722 0.0 -0.023835824254190174 0.0 0.0
0.02279280704848316 -0.021041926572529235 0.0 -0.02385450948970369 0.0 0.0
0.03156305618844649 -0.029779021939508432 0.0 -0.023649976511368243 0.0 0.0
0.03156305618844518 -0.029779021939505768 0.0 0.023649976511404658 0.0 0.0
0.022792807048479857 -0.021041926572529235 0.0 0.023854509489766196 0.0 0.0
0.017410685601987164 -0.015605446973522064 0.0 0.02383582425422459 0.0 0.0
0.013492335946833967 -0.01182683695551301 0.0 0.023225562141052314 0.0 0.0
0.010571530920699873 -0.009010505232476262 0.0 0.02134197098222168 0.0 0.0
0.008442633658029025 -0.006952766495239793 0.0 0.018851617394539888 0.0 0.0
0.00683281738050201 -0.005405879624825083 0.0 0.016249345054104136 0.0 0.0
0.0055194065054317565 -0.004165487290868519 0.0 0.013724981939404635 0.0 0.0
0.004365946937862547 -0.0031087961749269866 0.0 0.011329417833586986 0.0 0.0
0.0033069252205785993 -0.002181484497166153 0.0 0.009099517205662822 0.0 0.0
0.002324365076987328 -0.0013967851160590072 0.0 0.007130225579148219 0.0 0.0
0.001473382569313758 -0.0008009440808218748 0.0 0.005615423037593992 0.0 0.0
0.0008264533518145267 -0.0004210684678485066 0.0 0.004578941282062043 0.0 0.0
0.0004446730948085009 -0.00021978440088021856 0.0 0.003849799982884372 0.0 0.0
0.0002487606062928638 -0.00010609774053738086 0.0 0.0032210477352893063 0.0 0.0
0.00011609713053106763 -1.0688326747887444e-05 0.0 0.002751374237695614 0.0 0.0
-6.656045789033005e-06 6.859455342766996e-05 0.0 0.0025336154669592936 0.0 0.0
-8.416127646182492e-05 4.884849316633133e-05 0.0 0.0025376822957768885 0.0 0.0
-3.91089437042913e-05 -0.00015238851720095203 0.0 0.002573295351151972 0.0 0.0
0.000779942293020558 -0.0016428106077323971 0.0 0.0023004190490746868 0.0 0.0
0.0005197928262778706 -0.0012619549440381905 0.0 -0.0019951416252352305 0.0 0.0
-0.00012596855595672918 -0.00012498307148567367 0.0 -0.0025672652778675475 0.0 0.0
-0.00023811705056864252 0.00011625592419761688 0.0 -0.0025761562924318526 0.0 0.0
-0.0002511956070731236 0.00017857075133020928 0.0 -0.002591245977653367 0.0 0.0
-0.0002487685460169642 0.0001668352973909215 0.0 -0.0027924201278941574 0.0 0.0
-0.00030288012725032676 0.00016671983035343452 0.0 -0.003242982568141317 0.0 0.0
-0.00046706378906932744 0.00023734540973530116 0.0 -0.0038649724732083834 0.0 0.0
-0.0008350749191447793 0.00042756252325615307 0.0 -0.004591795628477335 0.0 0.0
-0.0014742619885942665 0.0008028141364344599 0.0 -0.005621032665698911 0.0 0.0
-0.0023243791747476206 0.0013989983481494939 0.0 -0.0071308843937023525 0.0 0.0
-0.0033220559875471456 0.002200554864397297 0.0 -0.009105169169858596 0.0 0.0
-0.004426694977255008 0.0031682828372887606 0.0 -0.01134382201269224 0.0 0.0
-0.005626375218514779 0.00425481827186136 0.0 -0.013736218537729328 0.0 0.0
-0.006856511535149934 0.00538513219806358 0.0 -0.016247648745868704 0.0 0.0
-0.007941312338506729 0.006386885128629949 0.0 -0.018858461571128915 0.0 0.0
-0.008571295534877038 0.0069613373933608 0.0 -0.021508721170060308 0.0 0.0
-0.008305311245845215 0.0066974528822729695 0.0 -0.024171057444295707 0.0 0.0
-0.006777727200823758 0.005355695405067529 0.0 -0.026950600607158037 0.0 0.0
-0.0036181841473020837 0.002669605575170486 0.0 -0.029488290831881647 0.0 0.0
0.004162083634241337 -0.004728078717584516 0.0 -0.02892612722195731 0.0 0.0
0.004162083634240421 -0.004728078717589845 0.0 0.028926127221973963 0.0 0.0
-0.0036181841473015564 0.002669605575164269 0.0 0.029488290831907182 0.0 0.0
-0.006777727200820288 0.005355695405055982 0.0 0.026950600607162367 0.0 0.0
-0.0083053112458365 0.006697452882261423 0.0 0.02417105744428316 0.0 0.0
-0.008571295534867934 0.006961337393343925 0.0 0.021508721170040546 0.0 0.0
-0.007941312338496265 0.006386885128612185 0.0 0.018858461571112817 0.0 0.0
-0.006856511535139387 0.00538513219805381 0.0 0.01624764874585638 0.0 0.0
-0.005626375218502427 0.0042548182718475935 0.0 0.013736218537719003 0.0 0.0
-0.004426694977243073 0.003168282837275882 0.0 0.011343822012675586 0.0 0.0
-0.0033220559875368483 0.002200554864392412 0.0 0.009105169169839278 0.0 0.0
-0.002324379174740848 0.0013989983481472734 0.0 0.007130884393685699 0.0 0.0
-0.00147426198858841 0.0008028141364313512 0.0 0.005621032665693804 0.0 0.0
-0.0008350749191418927 0.0004275625232548208 0.0 0.00459179562847345 0.0 0.0
-0.00046706378906757884 0.00023734540973641138 0.0 0.0038649724732011115 0.0 0.0
-0.00030288012724977165 0.00016671983035410065 0.0 0.003242982568136321 0.0 0.0
-0.0002487685460165756 0.000166835297393364 0.0 0.0027924201278901606 0.0 0.0
-0.00025119560707265176 0.00017857075133265177 0.0 0.0025912459776501473 0.0 0.0
-0.00023811705056861476 0.00011625592419806097 0.0 0.002576156292430465 0.0 0.0
-0.00012596855595695122 -0.0001249830714858402 0.0 0.002567265277866937 0.0 0.0
0.0005197928262770379 -0.001261954944036926 0.0 0.0019951416252338428 0.0 0.0
0.00034173864807982013 -0.0009861085959440574 0.0 -0.0017936721279411816 0.0 0.0
-0.0002065386137271863 -9.27431551390745e-05 0.0 -0.002522863212587101 0.0 0.0
-0.0003880738333608691 0.0001819438352050895 0.0 -0.0025610741404314963 0.0 0.0
-0.0004881806211889661 0.0002849506824986747 0.0 -0.002573569848841828 0.0 0.0
-0.0006063745523730291 0.0003393359541778995 0.0 -0.002743232828533282 0.0 0.0
-0.00085341270532166 0.0004434610135102268 0.0 -0.0031540606381184055 0.0 0.0
-0.0014323816121625255 0.0007703383130563957 0.0 -0.003931589134411273 0.0 0.0
-0.0026353882525831096 0.0016059940784520776 0.0 -0.005326218294755658 0.0 0.0
-0.00457636977989373 0.003181368168053922 0.0 -0.007406870434980228 0.0 0.0
-0.007108159270727471 0.005450690091660437 0.0 -0.009978530183643697 0.0 0.0
-0.010050814108567285 0.008205871819419563 0.0 -0.012811275425282265 0.0 0.0
-0.013297612761405925 0.011305339136170822 0.0 -0.01569568054289583 0.0 0.0
-0.01682726775119467 0.014696302386658644 0.0 -0.01858256514302037 0.0 0.0
-0.020576975519302626 0.018306240915306304 0.0 -0.02146343022252184 0.0 0.0
-0.024346502218210886 0.02193288205143773 0.0 -0.02440042839378409 0.0 0.0
-0.027754856497916452 0.025205680565115074 0.0 -0.027443309474996735 0.0 0.0
-0.03027515694433852 0.027622711635307162 0.0 -0.030696777251037366 0.0 0.0
-0.0313250742953248 0.028607056533822117 0.0 -0.03405110358966612 0.0 0.0
-0.029787663768858885 0.026813659599573825 0.0 -0.035701015689237114 0.0 0.0
-0.022148334559792537 0.01881083209113843 0.0 -0.03373999179602272 0.0 0.0
-0.022148334559793648 0.018810832091139318 0.0 0.03373999179606668 0.0 0.0
-0.02978766376885439 0.02681365959957649 0.0 0.03570101568930162 0.0 0.0
-0.03132507429530901 0.028607056533807018 0.0 0.03405110358970076 0.0 0.0
-0.030275156944314374 0.0276227116352894 0.0 0.030696777251039475 0.0 0.0
-0.027754856497890945 0.025205680565085764 0.0 0.027443309474978084 0.0 0.0
-0.024346502218185462 0.02193288205140309 0.0 0.024400428393763662 0.0 0.0
-0.0205769755192777 0.01830624091527211 0.0 0.021463430222506408 0.0 0.0
-0.016827267751168967 0.01469630238662889 0.0 0.01858256514300549 0.0 0.0
-0.013297612761379557 0.011305339136145953 0.0 0.015695680542870738 0.0 0.0
-0.010050814108544276 0.008205871819399135 0.0 0.012811275425255175 0.0 0.0
-0.007108159270708875 0.005450690091642674 0.0 0.009978530183615164 0.0 0.0
-0.004576369779880324 0.0031813681680379347 0.0 0.007406870434970236 0.0 0.0
-0.0026353882525753936 0.0016059940784414195 0.0 0.005326218294748775 0.0 0.0
-0.0014323816121583899 0.000770338313052843 0.0 0.003931589134404889 0.0 0.0
-0.0008534127053199669 0.0004434610135106709 0.0 0.0031540606381136316 0.0 0.0
-0.0006063745523721131 0.0003393359541767893 0.0 0.0027432328285308394 0.0 0.0
-0.0004881806211888273 0.0002849506824986747 0.0 0.0025735698488384973 0.0 0.0
-0.00038807383336059154 0.0001819438352050895 0.0 0.002561074140429609 0.0 0.0
-0.00020653861372740834 -9.274315513951858e-05 0.0 0.0025228632125863237 0.0 0.0
0.0003417386480794593 -0.0009861085959428865 0.0 0.0017936721279389056 0.0 0.0
0.00021855709580176352 -0.0007587563095299288 0.0 -0.0015984530517424433 0.0 0.0
-0.00027754397913126727 -5.5208706497444915e-05 0.0 -0.002424899909885647 0.0 0.0
-0.0005305621329479981 0.0002428053802656649 0.0 -0.0024882415670214875 0.0 0.0
-0.0007161399948202862 0.00038556564156855266 0.0 -0.0024841559826530024 0.0 0.0
-0.0009535814466721804 0.0005046276494411472 0.0 -0.002609577818990849 0.0 0.0
-0.0014265256016848804 0.0007580025294571247 0.0 -0.00304556527932609 0.0 0.0
-0.0025406467855812465 0.0015211028633408397 0.0 -0.004136472918534417 0.0 0.0
-0.0047007720031128075 0.003271392518668037 0.0 -0.006157475636979437 0.0 0.0
-0.007969929453298996 0.006208914916711716 0.0 -0.00903776740478579 0.0 0.0
-0.012148501978443582 0.01014491993710509 0.0 -0.012462883852136564 0.0 0.0
-0.016978088132234614 0.014784416049121951 0.0 -0.01606413019073194 0.0 0.0
-0.022326315826727727 0.019963280340626 0.0 -0.01957281256040777 0.0 0.0
-0.028155314612751947 0.025628922196854198 0.0 -0.02296299851059702 0.0 0.0
-0.03440856220503277 0.031712345070607384 0.0 -0.02634462833923057 0.0 0.0
-0.04087520314185361 0.03799829801661403 0.0 -0.02995004107499033 0.0 0.0
-0.04711267949977099 0.044056574175892926 0.0 -0.03407599375086856 0.0 0.0
-0.05245460370339383 0.049230566497243444 0.0 -0.038847720551858034 0.0 0.0
-0.05587841217608472 0.05244178969199531 0.0 -0.04339219658177573 0.0 0.0
-0.05542081280328279 0.051696830518569215 0.0 -0.045619961719830404 0.0 0.0
-0.046933327613571524 0.042464344658296405 0.0 -0.041403836658046034 0.0 0.0
-0.04693332761356958 0.04246434465829019 0.0 0.04140383665810066 0.0 0.0
-0.05542081280327252 0.05169683051855056 0.0 0.04561996171990845 0.0 0.0
-0.055878412176060155 0.05244178969196245 0.0 0.04339219658182558 0.0 0.0
-0.05245460370335811 0.049230566497204364 0.0 0.03884772055186503 0.0 0.0
-0.04711267949973055 0.0440565741758574 0.0 0.03407599375084669 0.0 0.0
-0.04087520314181364 0.03799829801658383 0.0 0.029950041074965128 0.0 0.0
-0.03440856220499344 0.03171234507057319 0.0 0.02634462833920681 0.0 0.0
-0.028155314612712368 0.025628922196812898 0.0 0.022962998510582255 0.0 0.0
-0.02232631582668851 0.019963280340585587 0.0 0.019572812560381125 0.0 0.0
-0.016978088132199226 0.014784416049086868 0.0 0.01606413019070041 0.0 0.0
-0.012148501978414106 0.01014491993707578 0.0 0.012462883852100703 0.0 0.0
-0.007969929453276847 0.006208914916693509 0.0 0.009037767404764918 0.0 0.0
-0.004700772003099679 0.0032713925186564907 0.0 0.006157475636965004 0.0 0.0
-0.0025406467855737247 0.001521102863337953 0.0 0.004136472918527034 0.0 0.0
-0.0014265256016816885 0.0007580025294557924 0.0 0.0030455652793197063 0.0 0.0
-0.0009535814466707093 0.0005046276494413693 0.0 0.0026095778189887398 0.0 0.0
-0.0007161399948200087 0.00038556564156855266 0.0 0.0024841559826521697 0.0 0.0
-0.0005305621329476373 0.00024280538026622 0.0 0.0024882415670207103 0.0 0.0
-0.00027754397913135054 -5.520870649755594e-05 0.0 0.0024248999098849255 0.0 0.0
0.00021855709580154148 -0.0007587563095291603 0.0 0.0015984530517398343 0.0 0.0
0.00012367197889873172 -0.0005581694713782115 0.0 -0.0013895822853061124 0.0 0.0
-0.00034086027208435343 -1.2506824697000596e-05 0.0 -0.002271538922046845 0.0 0.0
-0.0006640640690104282 0.00029862393952762023 0.0 -0.0023624098639528635 0.0 0.0
-0.0009337986381973695 0.00047809049801483816 0.0 -0.0023318584392097996 0.0 0.0
-0.0012945759190916561 0.0006723658809046906 0.0 -0.0024216698829210292 0.0 0.0
-0.002066506228233067 0.0011589220528702704 0.0 -0.0029362562729169928 0.0 0.0
-0.003826868024562391 0.0025175801123746844 0.0 -0.004303366346139981 0.0 0.0
-0.006997919242552553 0.005300111528315998 0.0 -0.006749829714143396 0.0 0.0
-0.011604755046060233 0.009606795040219662 0.0 -0.010150059521262578 0.0 0.0
-0.017394064772798923 0.0151569835906038 0.0 -0.014096598730780618 0.0 0.0
-0.02407218554085455 0.02162942848089955 0.0 -0.01812480784008552 0.0 0.0
-0.031491262111103646 0.028854305686334403 0.0 -0.02197032582665226 0.0 0.0
-0.039603883307274435 0.036778968523717204 0.0 -0.02564421500814351 0.0 0.0
-0.0483627351610334 0.04534268368301664 0.0 -0.029314170718519383 0.0 0.0
-0.05756307081752571 0.05433343088996434 0.0 -0.03334932406113866 0.0 0.0
-0.06670604615910022 0.06324980752207576 0.0 -0.03822079539089851 0.0 0.0
-0.07485417828000174 0.07114594443999067 0.0 -0.043958344164898966 0.0 0.0
-0.08039417540217497 0.07638806825580957 0.0 -0.049384547438948045 0.0 0.0
-0.08055079753562516 0.0760967874828209 0.0 -0.051585717217109694 0.0 0.0
-0.07020980653485087 0.06508659577339238 0.0 -0.04733961480105631 0.0 0.0
-0.07020980653484585 0.06508659577338882 0.0 0.04733961480111759 0.0 0.0
-0.08055079753560768 0.07609678748280668 0.0 0.05158571721719063 0.0 0.0
-0.0803941754021425 0.07638806825578204 0.0 0.049384547439008775 0.0 0.0
-0.07485417827995614 0.07114594443994982 0.0 0.04395834416491373 0.0 0.0
-0.06670604615904607 0.06324980752201448 0.0 0.038220795390882745 0.0 0.0
-0.057563070817472056 0.05433343088990927 0.0 0.03334932406111757 0.0 0.0
-0.048362735160979636 0.04534268368296601 0.0 0.029314170718493848 0.0 0.0
-0.03960388330722048 0.036778968523670574 0.0 0.025644215008126414 0.0 0.0
-0.031491262111052215 0.028854305686289994 0.0 0.021970325826626724 0.0 0.0
-0.024072185540807867 0.021629428480860025 0.0 0.018124807840049884 0.0 0.0
-0.017394064772758844 0.015156983590563833 0.0 0.014096598730743315 0.0 0.0
-0.011604755046030257 0.009606795040192573 0.0 0.010150059521240484 0.0 0.0
-0.006997919242532957 0.005300111528298679 0.0 0.0067498297141259656 0.0 0.0
-0.003826868024551039 0.0025175801123660246 0.0 0.004303366346129656 0.0 0.0
-0.0020665062282280156 0.0011589220528676059 0.0 0.0029362562729109976 0.0 0.0
-0.0012945759190897965 0.0006723658809051347 0.0 0.0024216698829180316 0.0 0.0
-0.0009337986381965091 0.0004780904980169476 0.0 0.002331858439207357 0.0 0.0
-0.0006640640690100952 0.00029862393952917454 0.0 0.002362409863951531 0.0 0.0
-0.00034086027208440894 -1.2506824697111618e-05 0.0 0.0022715389220474003 0.0 0.0
0.00012367197889878723 -0.0005581694713777587 0.0 0.0013895822853035034 0.0 0.0
4.375255967792313e-05 -0.00038176664436373464 0.0 -0.0011737574933805561 0.0 0.0
-0.0004000944676011975 3.545085844425255e-05 0.0 -0.0020614909070525433 0.0 0.0
-0.00078836656746617 0.0003496307347632399 0.0 -0.0021786374149346255 0.0 0.0
-0.0011396756726362312 0.0005616061086006763 0.0 -0.0021138933383242353 0.0 0.0
-0.0016465119549950447 0.0008580671690738839 0.0 -0.0021900880284071444 0.0 0.0
-0.0028039828921114784 0.0016770936174763662 0.0 -0.0027953328968790547 0.0 0.0
-0.005280939132015827 0.003746739303117863 0.0 -0.00433598003786978 0.0 0.0
-0.00948967315268573 0.007601488391288935 0.0 -0.007013443175192813 0.0 0.0
-0.015415007614878795 0.013242176201455624 0.0 -0.010661866353621763 0.0 0.0
-0.022768167285461605 0.02035069720480509 0.0 -0.014776521281685495 0.0 0.0
-0.031270219434702595 0.028623386237223603 0.0 -0.018905957781037208 0.0 0.0
-0.040750089946654855 0.03788335844637203 0.0 -0.02284974795308936 0.0 0.0
-0.051137028453056954 0.04805785293564968 0.0 -0.02660971247907329 0.0 0.0
-0.0623907279562666 0.05909555195874283 0.0 -0.030329208354831994 0.0 0.0
-0.07433401482582291 0.07079955300474072 0.0 -0.03442720084524842 0.0 0.0
-0.0863851217599848 0.08257099547858981 0.0 -0.039440543677762285 0.0 0.0
-0.09726932750590772 0.09312403899073285 0.0 -0.04544094633925433 0.0 0.0
-0.10472696540887727 0.10017310889638154 0.0 -0.051185978826043255 0.0 0.0
-0.10510915536613885 0.10005055936914253 0.0 -0.0540738454866726 0.0 0.0
-0.0929679271592572 0.08732892764380917 0.0 -0.05245038531209645 0.0 0.0
-0.09296792715924984 0.08732892764380207 0.0 0.052450385312160064 0.0 0.0
-0.10510915536611357 0.10005055936911411 0.0 0.05407384548674932 0.0 0.0
-0.10472696540883683 0.10017310889633446 0.0 0.05118597882610343 0.0 0.0
-0.09726932750585199 0.09312403899067068 0.0 0.04544094633926821 0.0 0.0
-0.08638512175991822 0.0825709954785232 0.0 0.039440543677749296 0.0 0.0
-0.07433401482575594 0.070799553004675 0.0 0.03442720084523143 0.0 0.0
-0.062390727956198794 0.05909555195867622 0.0 0.03032920835480646 0.0 0.0
-0.051137028452989064 0.04805785293557774 0.0 0.026609712479053693 0.0 0.0
-0.040750089946590365 0.03788335844630364 0.0 0.022849747953063992 0.0 0.0
-0.03127021943464535 0.02862338623716454 0.0 0.01890595778100579 0.0 0.0
-0.022768167285410687 0.020350697204755797 0.0 0.01477652128164908 0.0 0.0
-0.015415007614840853 0.013242176201418765 0.0 0.01066186635360089 0.0 0.0
-0.009489673152659722 0.007601488391269395 0.0 0.007013443175175882 0.0 0.0
-0.005280939132000104 0.003746739303107427 0.0 0.0043359800378554025 0.0 0.0
-0.0028039828921036514 0.0016770936174685946 0.0 0.0027953328968719493 0.0 0.0
-0.0016465119549924773 0.0008580671690729957 0.0 0.002190088028405479 0.0 0.0
-0.0011396756726353707 0.000561606108599233 0.0 0.0021138933383241243 0.0 0.0
-0.0007883665674655455 0.00034963073476246276 0.0 0.0021786374149340704 0.0 0.0
-0.0004000944676014334 3.545085844514073e-05 0.0 0.0020614909070511 0.0 0.0
4.375255967797864e-05 -0.00038176664436318994 0.0 0.0011737574933805561 0.0 0.0
-2.43091805882667e-05 -0.00023044835146190934 0.0 -0.0009517663181247693 0.0 0.0
-0.0004569929393917205 8.724809935622968e-05 0.0 -0.0017997377974860451 0.0 0.0
-0.0009044557113281337 0.00039631254610061895 0.0 -0.0019379337576430622 0.0 0.0
-0.0013368074038818123 0.0006421136459715537 0.0 -0.001849860509611112 0.0 0.0
-0.002032324237355443 0.0010852412774591258 0.0 -0.0019346062361940142 0.0 0.0
-0.0036498576084939005 0.0023287837233778585 0.0 -0.0025894227173795525 0.0 0.0
-0.006887460216880581 0.005182072107829949 0.0 -0.004183020439781804 0.0 0.0
-0.01213304354013528 0.010101451712947185 0.0 -0.00689761125163979 0.0 0.0
-0.019324980966573313 0.01701701946956602 0.0 -0.010478274051719416 0.0 0.0
-0.028210273350760484 0.025641790659519437 0.0 -0.014448532936553127 0.0 0.0
-0.038523652606402004 0.035700960698054285 0.0 -0.018446283222884996 0.0 0.0
-0.050062779980149075 0.04699329125164864 0.0 -0.022262877461637243 0.0 0.0
-0.06272061194856171 0.05941284351531673 0.0 -0.025905925509207783 0.0 0.0
-0.0764448152241638 0.0728994381087178 0.0 -0.029471929903889693 0.0 0.0
-0.09107068162809795 0.08725987245459166 0.0 -0.03322606595683597 0.0 0.0
-0.10595401197419352 0.10181273988418482 0.0 -0.03770473693090137 0.0 0.0
-0.11949165722703589 0.11493708490031551 0.0 -0.043266606136761476 0.0 0.0
-0.12876602713615817 0.12371740034962553 0.0 -0.04921177574681834 0.0 0.0
-0.12943576947094906 0.12385183411219103 0.0 -0.05397653131700586 0.0 0.0
-0.1158409404045749 0.10972725741824174 0.0 -0.05714157211654314 0.0 0.0
-0.11584094040456491 0.10972725741822931 0.0 0.057141572116604755 0.0 0.0
-0.1294357694709162 0.12385183411215461 0.0 0.05397653131708391 0.0 0.0
-0.12876602713610955 0.12371740034956957 0.0 0.049211775746878406 0.0 0.0
-0.11949165722696906 0.11493708490024979 0.0 0.04326660613677713 0.0 0.0
-0.10595401197411602 0.1018127398841111 0.0 0.03770473693089371 0.0 0.0
-0.09107068162801774 0.08725987245450728 0.0 0.03322606595682387 0.0 0.0
-0.07644481522408295 0.07289943810864052 0.0 0.029471929903868377 0.0 0.0
-0.06272061194848043 0.059412843515243896 0.0 0.025905925509188188 0.0 0.0
-0.050062779980071456 0.0469932912515687 0.0 0.022262877461607766 0.0 0.0
-0.038523652606332864 0.03570096069798234 0.0 0.018446283222852022 0.0 0.0
-0.02821027335070074 0.02564179065946215 0.0 0.014448532936518876 0.0 0.0
-0.019324980966526573 0.017017019469522943 0.0 0.010478274051697045 0.0 0.0
-0.012133043540103292 0.010101451712912546 0.0 0.006897611251623248 0.0 0.0
-0.0068874602168605276 0.005182072107812408 0.0 0.004183020439769369 0.0 0.0
-0.003649857608483187 0.002328783723369865 0.0 0.002589422717371004 0.0 0.0
-0.002032324237351779 0.001085241277455573 0.0 0.0019346062361909055 0.0 0.0
-0.0013368074038808825 0.0006421136459692223 0.0 0.0018498605096091136 0.0 0.0
-0.0009044557113273288 0.0003963125461012851 0.0 0.0019379337576407307 0.0 0.0
-0.00045699293939166497 8.724809935573008e-05 0.0 0.001799737797483103 0.0 0.0
-2.4309180588308332e-05 -0.0002304483514616925 0.0 0.0009517663181238256 0.0 0.0
-7.961934616140809e-05 -0.00010655463812703214 0.0 -0.0007231549357704092 0.0 0.0
-0.0005104388149222427 0.00014031465230213147 0.0 -0.0014919794282506338 0.0 0.0
-0.0010141685119852695 0.00043952045813056007 0.0 -0.0016408936954620534 0.0 0.0
-0.0015334392979328149 0.0007257796210922152 0.0 -0.0015379808398408024 0.0 0.0
-0.0024728774437080547 0.0013695080751143784 0.0 -0.001632651924292905 0.0 0.0
-0.004607614356918033 0.0031248579027536305 0.0 -0.0022941224721240716 0.0 0.0
-0.008628976891255302 0.006792842445813019 0.0 -0.003836859786668867 0.0 0.0
-0.014860260251048085 0.012722334895361787 0.0 -0.006330412450951339 0.0 0.0
-0.023276387600071002 0.02085716007893046 0.0 -0.009543320235621433 0.0 0.0
-0.033676639152808385 0.0309773813146772 0.0 -0.013139472024709331 0.0 0.0
-0.04578933079446523 0.04281208513573764 0.0 -0.016759340671807066 0.0 0.0
-0.05938822014390688 0.056136532992083765 0.0 -0.020222861234538536 0.0 0.0
-0.07432104985296545 0.0708018851077945 0.0 -0.023554026623091362 0.0 0.0
-0.09047967004051116 0.08669496074970784 0.0 -0.026754974442454227 0.0 0.0
-0.10766513127031341 0.10359262983810336 0.0 -0.02986156062863854 0.0 0.0
-0.12520905766186968 0.12077196371052334 0.0 -0.033212771477749925 0.0 0.0
-0.1413101097745233 0.13638960618667717 0.0 -0.037589456371810215 0.0 0.0
-0.15252314807349804 0.1470363335814575 0.0 -0.04363478492638573 0.0 0.0
-0.15388504876996098 0.1478150377950067 0.0 -0.0514248327788408 0.0 0.0
-0.13931549939264043 0.13272882474591263 0.0 -0.061404437870723916 0.0 0.0
-0.13931549939262766 0.1327288247459073 0.0 0.06140443787078198 0.0 0.0
-0.15388504876992198 0.1478150377949854 0.0 0.05142483277891119 0.0 0.0
-0.15252314807343997 0.14703633358140777 0.0 0.043634784926438686 0.0 0.0
-0.1413101097744454 0.13638960618660256 0.0 0.03758945637181854 0.0 0.0
-0.125209057661781 0.12077196371044074 0.0 0.03321277147774082 0.0 0.0
-0.10766513127021982 0.10359262983802342 0.0 0.029861560628628603 0.0 0.0
-0.09047967004041768 0.08669496074961058 0.0 0.026754974442435964 0.0 0.0
-0.07432104985287166 0.07080188510769325 0.0 0.02355402662307199 0.0 0.0
-0.0593882201438161 0.05613653299199539 0.0 0.020222861234514 0.0 0.0
-0.04578933079438416 0.04281208513565993 0.0 0.01675934067177609 0.0 0.0
-0.03367663915273951 0.0309773813146057 0.0 0.013139472024679466 0.0 0.0
-0.023276387600016407 0.020857160078875836 0.0 0.009543320235599895 0.0 0.0
-0.014860260251009463 0.012722334895320042 0.0 0.00633041245093352 0.0 0.0
-0.00862897689123042 0.0067928424457865955 0.0 0.0038368597866578202 0.0 0.0
-0.004607614356904877 0.003124857902745415 0.0 0.0022941224721179654 0.0 0.0
-0.00247287744370335 0.001369508075112158 0.0 0.0016326519242913506 0.0 0.0
-0.0015334392979318157 0.0007257796210917711 0.0 0.0015379808398401917 0.0 0.0
-0.0010141685119841731 0.000439520458130116 0.0 0.0016408936954603326 0.0 0.0
-0.0005104388149220485 0.00014031465230118778 0.0 0.0014919794282505783 0.0 0.0
-7.96193461610889e-05 -0.00010655463812713276 0.0 0.0007231549357712974 0.0 0.0
-0.00011857443407325974 -1.3431921272843983e-05 0.0 -0.000489461217443532 0.0 0.0
-0.0005560496194857434 0.00019084680360270667 0.0 -0.0011414574212300077 0.0 0.0
-0.001119280191306915 0.0004792866329962342 0.0 -0.0012840727604280788 0.0 0.0
-0.00174242318022777 0.0008246519406092112 0.0 -0.0011808966203770144 0.0 0.0
-0.0029851882216305747 0.0017349087727949186 0.0 -0.0012788977862864814 0.0 0.0
-0.00568100833377444 0.004063184966166089 0.0 -0.001896057036690213 0.0 0.0
-0.01045710755310375 0.00851899061279493 0.0 -0.0031952598478454663 0.0 0.0
-0.017617903275829405 0.015396317950289173 0.0 -0.005228754458814766 0.0 0.0
-0.027230898287242455 0.024717647220096506 0.0 -0.007880082247359366 0.0 0.0
-0.039123364839797004 0.036310637407876545 0.0 -0.010859739254445944 0.0 0.0
-0.05302430485092274 0.04990929973237934 0.0 -0.013863311147343849 0.0 0.0
-0.0686829836983206 0.0652663918088301 0.0 -0.01673441424468003 0.0 0.0
-0.08589617161681701 0.08217939908239424 0.0 -0.019512223113808624 0.0 0.0
-0.10446133258138945 0.10044344281820017 0.0 -0.02218708056216734 0.0 0.0
-0.1240579139617724 0.11972485775584119 0.0 -0.02452379353062506 0.0 0.0
-0.1439730799489884 0.13926530663155745 0.0 -0.02637599013156189 0.0 0.0
-0.16247658371514323 0.1572659089363917 0.0 -0.028744502219816948 0.0 0.0
-0.1759794183962196 0.17010981989203255 0.0 -0.034360341801526584 0.0 0.0
-0.17875858373710277 0.17222809060600852 0.0 -0.04591362280087907 0.0 0.0
-0.1639196926729823 0.15682279316495418 0.0 -0.06487742151113374 0.0 0.0
-0.16391969267296758 0.1568227931649382 0.0 0.06487742151118192 0.0 0.0
-0.17875858373705825 0.17222809060596234 0.0 0.04591362280093625 0.0 0.0
-0.17597941839615103 0.1701098198919544 0.0 0.034360341801570216 0.0 0.0
-0.1624765837150541 0.15726590893629844 0.0 0.02874450221982494 0.0 0.0
-0.14397307994888703 0.13926530663146242 0.0 0.02637599013155889 0.0 0.0
-0.124057913961666 0.11972485775573638 0.0 0.02452379353061873 0.0 0.0
-0.10446133258128294 0.10044344281809714 0.0 0.02218708056215335 0.0 0.0
-0.08589617161671119 0.08217939908229388 0.0 0.01951222311379469 0.0 0.0
-0.06868298369821654 0.0652663918087355 0.0 0.01673441424466149 0.0 0.0
-0.05302430485083105 0.04990929973229097 0.0 0.013863311147317203 0.0 0.0
-0.0391233648397188 0.036310637407800606 0.0 0.010859739254419742 0.0 0.0
-0.027230898287181407 0.024717647220033445 0.0 0.007880082247341935 0.0 0.0
-0.01761790327578433 0.015396317950249205 0.0 0.005228754458800444 0.0 0.0
-0.010457107553073393 0.008518990612769395 0.0 0.0031952598478361405 0.0 0.0
-0.005681008333758557 0.004063184966151434 0.0 0.001896057036684884 0.0 0.0
-0.0029851882216237816 0.0017349087727882573 0.0 0.0012788977862836504 0.0 0.0
-0.0017424231802263615 0.0008246519406092112 0.0 0.001180896620377847 0.0 0.0
-0.0011192801913058464 0.0004792866329976775 0.0 0.0012840727604263025 0.0 0.0
-0.0005560496194852924 0.0001908468036023181 0.0 0.001141457421229064 0.0 0.0
-0.00011857443407281565 -1.3431921272811023e-05 0.0 0.0004894612174430324 0.0 0.0
-0.00013431560591270486 4.446173268363163e-05 0.0 -0.0002573751989677353 0.0 0.0
-0.000584740669592132 0.00023245232195812093 0.0 -0.0007475981358684991 0.0 0.0
-0.0012229476673858986 0.0005186029939997505 0.0 -0.000861418743940745 0.0 0.0
-0.0019837571756172734 0.00095438248491031 0.0 -0.0007811340729558247 0.0 0.0
-0.0035830178169737326 0.0022025522745867665 0.0 -0.0008733656744979723 0.0 0.0
-0.006850821561569187 0.005123798725194195 0.0 -0.0013313195115116083 0.0 0.0
-0.012323000807162532 0.010309928150644243 0.0 -0.0022339090337145096 0.0 0.0
-0.02037581962989854 0.018084394917726065 0.0 -0.00363325839146178 0.0 0.0
-0.031147087932591633 0.028555909463439555 0.0 -0.005492726224202715 0.0 0.0
-0.044507249818927674 0.04159647369755426 0.0 -0.007611038222228417 0.0 0.0
-0.06018560002285894 0.056947662257719855 0.0 -0.009748908495939457 0.0 0.0
-0.07790270922489989 0.07433519773827735 0.0 -0.011792743798220706 0.0 0.0
-0.09739733690420749 0.09349589817319037 0.0 -0.013796273878635579 0.0 0.0
-0.11834549158930097 0.11410212064646963 0.0 -0.015699209328977504 0.0 0.0
-0.14023938939221442 0.13564138837716122 0.0 -0.017189629393642658 0.0 0.0
-0.1622197138210284 0.15724076449556978 0.0 -0.017792020221986116 0.0 0.0
-0.1827300092172599 0.17728944263055002 0.0 -0.017829015648467728 0.0 0.0
-0.19872528482333485 0.1926443267607052 0.0 -0.02099299986600278 0.0 0.0
-0.20433746275011544 0.19732307835411422 0.0 -0.03564920237044156 0.0 0.0
-0.1904220986528263 0.1827282327860127 0.0 -0.06670305307644497 0.0 0.0
-0.19042209865280976 0.18272823278598782 0.0 0.06670305307648439 0.0 0.0
-0.20433746275006598 0.1973230783540556 0.0 0.03564920237048663 0.0 0.0
-0.19872528482325444 0.19264432676062615 0.0 0.020992999866033646 0.0 0.0
-0.1827300092171577 0.1772894426304532 0.0 0.017829015648472113 0.0 0.0
-0.16221971382091427 0.15724076449544988 0.0 0.017792020221980287 0.0 0.0
-0.14023938939209557 0.13564138837703243 0.0 0.01718962939363816 0.0 0.0
-0.11834549158918085 0.11410212064634528 0.0 0.015699209328969566 0.0 0.0
-0.09739733690408929 0.09349589817307269 0.0 0.013796273878627474 0.0 0.0
-0.07790270922478362 0.07433519773816899 0.0 0.011792743798210381 0.0 0.0
-0.06018560002275609 0.05694766225762171 0.0 0.009748908495919917 0.0 0.0
-0.044507249818840196 0.041596473697468106 0.0 0.007611038222210265 0.0 0.0
-0.03114708793252363 0.028555909463373386 0.0 0.005492726224194111 0.0 0.0
-0.020375819629847892 0.018084394917672775 0.0 0.0036332583914538974 0.0 0.0
-0.012323000807127421 0.010309928150612269 0.0 0.002233909033706627 0.0 0.0
-0.006850821561550237 0.005123798725176876 0.0 0.001331319511504503 0.0 0.0
-0.0035830178169652914 0.002202552274580105 0.0 0.0008733656744953078 0.0 0.0
-0.001983757175614869 0.0009543824849084226 0.0 0.0007811340729563243 0.0 0.0
-0.0012229476673848265 0.0005186029939984182 0.0 0.0008614187439385801 0.0 0.0
-0.0005847406695914832 0.00023245232195762133 0.0 0.0007475981358688322 0.0 0.0
-0.00013431560591247935 4.4461732683810304e-05 0.0 0.00025737519896701366 0.0 0.0
-0.00011458323891627709 6.075529371885047e-05 0.0 -4.384400680462752e-05 0.0 0.0
-0.0005799002081988691 0.00025463770424949406 0.0 -0.00030234679722618285 0.0 0.0
-0.0013341894898570295 0.0005648629002664718 0.0 -0.0003594006741307054 0.0 0.0
-0.0022824271409341845 0.0011455842845438102 0.0 -0.0003409287751676704 0.0 0.0
-0.004268516294008373 0.002771059694197664 0.0 -0.0003852798348726316 0.0 0.0
-0.0080811807816778 0.006264510370516785 0.0 -0.0005709311065497102 0.0 0.0
-0.014205582157505503 0.012130325690899113 0.0 -0.0009460227350939765 0.0 0.0
-0.023097675977495957 0.020750276956744695 0.0 -0.0015469941624125516 0.0 0.0
-0.0349831790570006 0.032327330876746885 0.0 -0.002389923348275813 0.0 0.0
-0.049783189886347945 0.04678875303504526 0.0 -0.003387638984525654 0.0 0.0
-0.0672313960418005 0.06388415246890977 0.0 -0.004411977742736939 0.0 0.0
-0.08700651073735699 0.08329964042372762 0.0 -0.005405042019054673 0.0 0.0
-0.10876433742425229 0.10469025123506936 0.0 -0.006365499924275375 0.0 0.0
-0.13206527175571803 0.12760955371846183 0.0 -0.007220485722549852 0.0 0.0
-0.15621542998986404 0.15135974022730103 0.0 -0.007775054773055956 0.0 0.0
-0.18010526240792496 0.17483589128794108 0.0 -0.007637756306726029 0.0 0.0
-0.20211491162560413 0.19642278274760638 0.0 -0.006443875009518152 0.0 0.0
-0.21992046981386087 0.21374303940906714 0.0 -0.005729584878843896 0.0 0.0
-0.2294608588496731 0.22252169426025592 0.0 -0.01606639685030775 0.0 0.0
-0.22099218565723827 0.21215714648136785 0.0 -0.06147429090975831 0.0 0.0
-0.2209921856572205 0.21215714648134565 0.0 0.061474290909776186 0.0 0.0
-0.22946085884961928 0.22252169426020263 0.0 0.016066396850330178 0.0 0.0
-0.21992046981376684 0.21374303940897388 0.0 0.005729584878858329 0.0 0.0
-0.2021149116254874 0.19642278274748648 0.0 0.006443875009515931 0.0 0.0
-0.18010526240779837 0.17483589128781052 0.0 0.0076377563067208665 0.0 0.0
-0.1562154299897323 0.15135974022717047 0.0 0.007775054773054513 0.0 0.0
-0.13206527175558397 0.12760955371833438 0.0 0.007220485722544523 0.0 0.0
-0.10876433742412105 0.1046902512349388 0.0 0.0063654999242716 0.0 0.0
-0.08700651073722813 0.08329964042360194 0.0 0.005405042019053674 0.0 0.0
-0.06723139604168675 0.06388415246879875 0.0 0.0044119777427277795 0.0 0.0
-0.049783189886252216 0.04678875303494978 0.0 0.003387638984517327 0.0 0.0
-0.034983179056925495 0.032327330876671834 0.0 0.0023899233482714277 0.0 0.0
-0.02309767597743979 0.020750276956687852 0.0 0.001546994162409998 0.0 0.0
-0.014205582157466451 0.012130325690858035 0.0 0.0009460227350930328 0.0 0.0
-0.008081180781655267 0.006264510370495691 0.0 0.0005709311065466571 0.0 0.0
-0.004268516293998319 0.0027710596941890042 0.0 0.00038527983487235407 0.0 0.0
-0.002282427140930691 0.0011455842845394804 0.0 0.0003409287751687806 0.0 0.0
-0.0013341894898556469 0.0005648629002659167 0.0 0.0003594006741300393 0.0 0.0
-0.0005799002081982689 0.0002546377042487724 0.0 0.00030234679722662694 0.0 0.0
-0.00011458323891628229 6.075529371846536e-05 0.0 4.384400680312872e-05 0.0 0.0
SCALARS Statev float 8
LOOKUP_TABLE default
0.0 0.015025572293556833 0.01169013579492455 -0.012069805609553055 0.00037966981462850497 -0.006764542271526197 0.0 0.0
0.0 0.0011090854435251245 0.0008136517327048056 -0.0007104090735990292 -0.00010324265910577629 0.0006915992350934889 0.0 0.0
0.0 4.4763293818588205e-05 6.035556083437738e-06 -4.459736300668449e-06 -1.5758197827693166e-06 -4.4955498573982523e-07 0.0 0.0
0.0 0.00045480103474060396 0.0003618762499581396 -0.000288816651196353 -7.305959876178681e-05 -5.2341382822040946e-05 0.0 0.0
0.0 0.002220622262969848 0.0018619676158265859 -0.0015796745381887571 -0.0002822930776378286 -0.00019977443713203692 0.0 0.0
0.0 0.005909311371724643 0.005302600989585481 -0.004784956546777358 -0.0005176444428081227 -0.0004343918231775175 0.0 0.0
0.0 0.012568471941990369 0.011110671528921643 -0.010450183934325043 -0.0006604875945965952 -0.0007998099869652456 0.0 0.0
0.0 0.022487338844382056 0.019719349046379803 -0.018953526304810713 -0.0007658227415690846 -0.0013737389381542988 0.0 0.0
0.0 0.03589778859732229 0.031333254858791244 -0.030460824471790066 -0.000872430387001167 -0.002189112240116646 0.0 0.0
0.0 0.05272755028479775 0.045886068645858875 -0.04489878476220201 -0.0009872838836568851 -0.003174543812768511 0.0 0.0
0.0 0.07271712007684214 0.06313214689766725 -0.06202533381648599 -0.001106813081181234 -0.00420399525282989 0.0 0.0
0.0 0.09522575676148692 0.0827647946106585 -0.08153640176921678 -0.0012283928414417065 -0.0052072753667543 0.0 0.0
0.0 0.12018429820237833 0.10445695647126424 -0.1031054704071894 -0.0013514860640747427 -0.006185253499318602 0.0 0.0
0.0 0.14715414669634225 0.12783146412212143 -0.12635384357796894 -0.0014776205441523584 -0.007117322219423476 0.0 0.0
0.0 0.1754463825101026 0.1523475101777757 -0.1507397290320648 -0.0016077811457107598 -0.007939863608627876 0.0 0.0
0.0 0.20414368640433506 0.17718175489046828 -0.1754414188988068 -0.0017403359916616048 -0.008479209698223779 0.0 0.0
0.0 0.23189012020121577 0.20118988897576784 -0.19931912347656638 -0.0018707654992015225 -0.00846906119272082 0.0 0.0
0.0 0.257023811734461 0.22294838054785082 -0.22095302655968807 -0.001995353988162531 -0.007728201884947928 0.0 0.0
0.0 0.27760172189296534 0.2407642745135275 -0.23864740732370976 -0.0021168671898176357 -0.006838559504803629 0.0 0.0
0.0 0.29032622166975985 0.25190454369390614 -0.24958107938965102 -0.002323464304255204 -0.008768470285270802 0.0 0.0
0.0 0.2903262216697363 0.2519045436938862 -0.2495810793896298 -0.002323464304256286 0.008768470285282026 0.0 0.0
0.0 0.27760172189289767 0.24076427451346935 -0.23864740732365028 -0.002116867189818996 0.0068385595048322265 0.0 0.0
0.0 0.2570238117343533 0.22294838054775745 -0.22095302655959514 -0.0019953539881622418 0.007728201884967353 0.0 0.0
0.0 0.23189012020109004 0.20118988897565837 -0.19931912347645828 -0.0018707654992000944 0.00846906119272763 0.0 0.0
0.0 0.20414368640419747 0.17718175489034887 -0.1754414188986884 -0.0017403359916606056 0.008479209698211341 0.0 0.0
0.0 0.1754463825099563 0.15234751017764867 -0.15073972903193844 -0.0016077811457101982 0.007939863608625567 0.0 0.0
0.0 0.14715414669619692 0.1278314641219954 -0.12635384357784357 -0.001477620544151746 0.0071173222194228615 0.0 0.0
0.0 0.12018429820223554 0.10445695647114038 -0.10310547040706633 -0.001351486064074032 0.006185253499316712 0.0 0.0
0.0 0.09522575676135113 0.08276479461054063 -0.0815364017690999 -0.0012283928414406628 0.0052072753667443995 0.0 0.0
0.0 0.07271712007672254 0.0631321468975631 -0.06202533381638285 -0.001106813081180233 0.004203995252821451 0.0 0.0
0.0 0.0527275502846969 0.04588606864577162 -0.044898784762115354 -0.0009872838836562702 0.00317454381275562 0.0 0.0
0.0 0.03589778859724345 0.03133325485872235 -0.030460824471721704 -0.0008724303870006703 0.0021891122401131893 0.0 0.0
0.0 0.022487338844327652 0.019719349046331647 -0.018953526304763366 -0.0007658227415682745 0.0013737389381502578 0.0 0.0
0.0 0.01256847194195282 0.011110671528888286 -0.010450183934292277 -0.0006604875945960025 0.0007998099869629018 0.0 0.0
0.0 0.005909311371702871 0.005302600989565781 -0.004784956546758439 -0.0005176444428073413 0.0004343918231755063 0.0 0.0
0.0 0.0022206222629603933 0.0018619676158186846 -0.0015796745381816838 -0.00028229307763700043 0.00019977443713126687 0.0 0.0
0.0 0.0004548010347384354 0.000361876249957117 -0.00028881665119548486 -7.3059598761632e-05 5.23413828217478e-05 0.0 0.0
0.0 4.4763293818458257e-05 6.035556083879125e-06 -4.4597363010126955e-06 -1.575819782866381e-06 4.495549858065422e-07 0.0 0.0
0.0 0.0011090854435221603 0.0008136517327031232 -0.0007104090735975447 -0.00010324265910557943 -0.0006915992350915665 0.0 0.0
0.0 0.015025572293537414 0.011690135794911792 -0.012069805609539273 0.0003796698146274747 0.006764542271493087 0.0 0.0
0.0 0.011350161089993541 0.008271961530397129 -0.008770028063036424 0.0004980665326392936 -0.007950732008884593 0.0 0.0
0.0 3.727614981554624e-05 3.0064229946192264e-05 -2.7562457106508675e-05 -2.5017728396835727e-06 1.9544683776137475e-05 0.0 0.0
0.0 1.088273383475301e-06 4.855004239468772e-07 -3.6773244765170604e-07 -1.1776797629517323e-07 -1.6840268527927515e-07 0.0 0.0
0.0 0.0002061614157649902 0.0001612141587348983 -0.00012744636807817672 -3.3767790656721766e-05 -5.525649497073107e-05 0.0 0.0
0.0 0.00154186032007766 0.001257086444223756 -0.0010493165298278765 -0.0002077699143958801 -0.00033270922334799807 0.0 0.0
0.0 0.004639572205901998 0.004165773499642005 -0.0037052253031609884 -0.0004605481964810164 -0.0009019675809340841 0.0 0.0
0.0 0.010555435242511454 0.00931905918282707 -0.00868923547619849 -0.0006298237066285756 -0.001819895168680558 0.0 0.0
0.0 0.019522645690178416 0.01708086101858204 -0.01633703700956183 -0.0007438240090202161 -0.0031748866503383787 0.0 0.0
0.0 0.03166654836095187 0.027578052316385042 -0.026728714789239248 -0.000849337527145782 -0.004990287672668994 0.0 0.0
0.0 0.046849784357780824 0.04069132433621477 -0.03973288354420064 -0.0009584407920141241 -0.007099538191700043 0.0 0.0
0.0 0.06478196147610468 0.056171001134410134 -0.055101543125060534 -0.0010694580093495946 -0.009265290513160919 0.0 0.0
0.0 0.08519914482758364 0.07375248500962595 -0.07257119429754857 -0.0011812907120773222 -0.011351217787735339 0.0 0.0
0.0 0.10751393431575033 0.0931822750557452 -0.091887626246068 -0.0012946488096772153 -0.013398622293109714 0.0 0.0
0.0 0.13166059068144084 0.11414451596604015 -0.11273426724735822 -0.0014102487186819696 -0.015391002166853353 0.0 0.0
0.0 0.15709943525949482 0.13617671054165775 -0.13464834875861417 -0.0015283617830435243 -0.017168145435950247 0.0 0.0
0.0 0.18294914685069624 0.1585845799227999 -0.1569363149686144 -0.0016482649541855001 -0.0183964761133428 0.0 0.0
0.0 0.2080762551536642 0.18037860313817422 -0.17860989307378888 -0.001768710064385338 -0.01858996433162337 0.0 0.0
0.0 0.230959952105834 0.20022664564027853 -0.19833612939182904 -0.0018905162484494456 -0.01751864540407412 0.0 0.0
0.0 0.249415285962769 0.21624621823700643 -0.21421520597142532 -0.002031012265580996 -0.01569124493895624 0.0 0.0
0.0 0.2604815090871327 0.22587762952399032 -0.22373910772888383 -0.0021385217951065 -0.012952614566534515 0.0 0.0
0.0 0.26048150908711576 0.22587762952397494 -0.22373910772886904 -0.002138521795106023 0.012952614566564272 0.0 0.0
0.0 0.24941528596271645 0.21624621823695991 -0.21421520597137916 -0.002031012265580742 0.015691244939007115 0.0 0.0
0.0 0.23095995210574344 0.20022664564019976 -0.1983361293917495 -0.0018905162484500852 0.017518645404110963 0.0 0.0
0.0 0.20807625515355177 0.18037860313807705 -0.1786098930736909 -0.0017687100643859126 0.01858996433163762 0.0 0.0
0.0 0.18294914685056896 0.15858457992269004 -0.15693631496850477 -0.0016482649541851265 0.018396476113331735 0.0 0.0
0.0 0.15709943525936654 0.13617671054154587 -0.1346483487585043 -0.0015283617830415819 0.017168145435943076 0.0 0.0
0.0 0.13166059068130864 0.11414451596592555 -0.11273426724724422 -0.0014102487186812987 0.015391002166848817 0.0 0.0
0.0 0.10751393431561732 0.09318227505563029 -0.09188762624595292 -0.001294648809677377 0.01339862229310276 0.0 0.0
0.0 0.08519914482746214 0.0737524850095206 -0.07257119429744394 -0.0011812907120766123 0.011351217787720386 0.0 0.0
0.0 0.06478196147599612 0.056171001134316015 -0.05510154312496703 -0.001069458009348985 0.009265290513147978 0.0 0.0
0.0 0.04684978435769116 0.040691324336137175 -0.03973288354412346 -0.0009584407920137037 0.007099538191680629 0.0 0.0
0.0 0.031666548360880654 0.027578052316322627 -0.026728714789177314 -0.0008493375271453042 0.004990287672660548 0.0 0.0
0.0 0.019522645690124147 0.017080861018534732 -0.01633703700951474 -0.0007438240090199922 0.0031748866503289157 0.0 0.0
0.0 0.0105554352424757 0.009319059182795556 -0.008689235476167418 -0.0006298237066281302 0.0018198951686741057 0.0 0.0
0.0 0.004639572205882867 0.004165773499625206 -0.0037052253031451318 -0.00046054819648007404 0.0009019675809303398 0.0 0.0
0.0 0.001541860320069889 0.0012570864442177257 -0.0010493165298224886 -0.00020776991439523722 0.0003327092233461688 0.0 0.0
0.0 0.00020616141576371678 0.00016121415873437942 -0.0001274463680777422 -3.376779065663712e-05 5.525649497052132e-05 0.0 0.0
0.0 1.0882733833291838e-06 4.855004240187219e-07 -3.6773244770387766e-07 -1.1776797631484655e-07 1.684026852913044e-07 0.0 0.0
0.0 3.727614981526939e-05 3.0064229946287304e-05 -2.7562457106547978e-05 -2.5017728397393198e-06 -1.954468377607357e-05 0.0 0.0
0.0 0.01135016108997021 0.00827196153038185 -0.008770028063020545 0.0004980665326386836 0.007950732008856176 0.0 0.0
0.0 0.008724261735907096 0.006030481148005927 -0.006567749936968058 0.0005372687889621285 -0.007070082885388296 0.0 0.0
0.0 0.0 0.0 0.0 0.0 0.0 0.0 0.0
0.0 0.0 0.0 0.0 0.0 0.0 0.0 0.0
0.0 5.673937302827853e-05 4.796280842378854e-05 -3.76582588170842e-05 -1.030454960670435e-05 -3.0244933900493397e-05 0.0 0.0
0.0 0.0009352772087056324 0.0007709717007139227 -0.0006333302256146555 -0.00013764147509926682 -0.00035959697419619545 0.0 0.0
0.0 0.003637965895027293 0.0030908252978626167 -0.0027038544154655854 -0.0003869708823970312 -0.0011523387124193817 0.0 0.0
0.0 0.008611365401217074 0.007560273120023462 -0.0069700694228314415 -0.0005902036971920177 -0.0024993314026083334 0.0 0.0
0.0 0.01658228302103266 0.014426898361014713 -0.01371112178894002 -0.0007157765720746873 -0.004487482047025381 0.0 0.0
0.0 0.02745043609556904 0.023762408975911652 -0.022940902279779633 -0.0008215066961320195 -0.0070847803811752855 0.0 0.0
0.0 0.0409933848094869 0.03540691510839716 -0.03448219857136589 -0.0009247165370312562 -0.010056135141058872 0.0 0.0
0.0 0.05693855424361836 0.04910892523937126 -0.0480814809063167 -0.0010274443330545492 -0.013104204506237754 0.0 0.0
0.0 0.07492571477511874 0.06463737750521255 -0.0635072605094039 -0.0011301169958086417 -0.016055108520265187 0.0 0.0
0.0 0.09488794781079671 0.08178569809826852 -0.08055216685444361 -0.0012335312438248977 -0.018931704259256176 0.0 0.0
0.0 0.11621003498391261 0.10031328233787931 -0.09897517304231236 -0.0013381092955668922 -0.021744710146866065 0.0 0.0
0.0 0.1387412597306587 0.11985359276439725 -0.11840980309921847 -0.0014437896651787274 -0.02429926367402994 0.0 0.0
0.0 0.16181598589863802 0.13984763900417016 -0.13829634757227344 -0.0015512914318967703 -0.026142027676806994 0.0 0.0
0.0 0.18437824643128065 0.15945399376370045 -0.1577914455292613 -0.0016625482344391073 -0.026698052916921042 0.0 0.0
0.0 0.20496500291262693 0.17740588703821572 -0.17562293548462782 -0.001782951553587917 -0.02557705067540677 0.0 0.0
0.0 0.22151673177095105 0.19189455572974604 -0.1899938596076968 -0.0019006961220491387 -0.022300103411517953 0.0 0.0
0.0 0.23170251663332814 0.20090230492406191 -0.19891533522298951 -0.001986969701072248 -0.01579756450904528 0.0 0.0
0.0 0.23170251663331304 0.20090230492404743 -0.19891533522297616 -0.001986969701071272 0.015797564509093257 0.0 0.0
0.0 0.22151673177089887 0.19189455572969843 -0.18999385960764997 -0.0019006961220485485 0.022300103411585004 0.0 0.0
0.0 0.2049650029125509 0.17740588703814758 -0.17562293548456065 -0.0017829515535867516 0.02557705067545695 0.0 0.0
0.0 0.18437824643118286 0.15945399376361408 -0.15779144552917648 -0.001662548234437828 0.02669805291694074 0.0 0.0
0.0 0.1618159858985241 0.1398476390040716 -0.13829634757217543 -0.0015512914318961128 0.02614202767679652 0.0 0.0
0.0 0.13874125973054258 0.11985359276429645 -0.11840980309911857 -0.0014437896651778876 0.02429926367402007 0.0 0.0
0.0 0.11621003498380063 0.10031328233778133 -0.09897517304221623 -0.0013381092955651141 0.021744710146860836 0.0 0.0
0.0 0.09488794781068591 0.08178569809817217 -0.08055216685434813 -0.0012335312438240028 0.018931704259248595 0.0 0.0
0.0 0.07492571477500866 0.06463737750511798 -0.06350726050930933 -0.001130116995808708 0.016055108520244984 0.0 0.0
0.0 0.056938554243521115 0.049108925239287 -0.04808148090623285 -0.0010274443330541194 0.013104204506218345 0.0 0.0
0.0 0.04099338480940681 0.03540691510832805 -0.034482198571297376 -0.0009247165370306565 0.010056135141034041 0.0 0.0
0.0 0.027450436095507826 0.023762408975858407 -0.022940902279726977 -0.0008215066961314188 0.007084780381161414 0.0 0.0
0.0 0.016582283020985848 0.014426898360973873 -0.013711121788899897 -0.000715776572073967 0.0044874820470128095 0.0 0.0
0.0 0.008611365401186094 0.007560273119996376 -0.006970069422805036 -0.0005902036971913392 0.002499331402599514 0.0 0.0
0.0 0.003637965895012792 0.0030908252978505777 -0.002703854415454468 -0.0003869708823961093 0.0011523387124144182 0.0 0.0
0.0 0.0009352772086998801 0.0007709717007095222 -0.000633330225610902 -0.00013764147509862006 0.0003595969741940189 0.0 0.0
0.0 5.6739373027574785e-05 4.796280842370501e-05 -3.765825881700024e-05 -1.030454960670482e-05 3.024493390035565e-05 0.0 0.0
0.0 0.0 0.0 0.0 0.0 0.0 0.0 0.0
0.0 0.0 0.0 0.0 0.0 0.0 0.0 0.0
0.0 0.008724261735886453 0.0060304811479918 -0.006567749936953318 0.0005372687889615125 0.007070082885365099 0.0 0.0
0.0 0.006633484858139645 0.004408259603522414 -0.00492574990413627 0.000517490300613856 -0.0056654527288505065 0.0 0.0
0.0 0.0 0.0 0.0 0.0 0.0 0.0 0.0
0.0 0.0 0.0 0.0 0.0 0.0 0.0 0.0
0.0 1.1698199310921363e-05 7.322790404806749e-06 -5.739882598162635e-06 -1.5829078066440985e-06 -7.557527519768963e-06 0.0 0.0
0.0 0.0005053455796048968 0.00040734675036932527 -0.00033045751535245655 -7.688923501686854e-05 -0.0003020286269310374 0.0 0.0
0.0 0.0025915010226895416 0.0021462422950754624 -0.001843166299996201 -0.00030307599507926165 -0.001210691049364252 0.0 0.0
0.0 0.0068062351161561905 0.005858636541948339 -0.005325088280335088 -0.0005335482616132489 -0.0028451858777131744 0.0 0.0
0.0 0.013700543480798116 0.011793457441276618 -0.011112789056534967 -0.0006806683847416524 -0.005304653913931082 0.0 0.0
0.0 0.023254903946052556 0.019930783869485633 -0.0191431489402815 -0.0007876349292041415 -0.008464427384880792 0.0 0.0
0.0 0.03513751464976116 0.03008159645239975 -0.02919594133030123 -0.000885655122098484 -0.012051696200075597 0.0 0.0
0.0 0.04906562209395099 0.04199216462031247 -0.04101162604903351 -0.0009805385712789555 -0.015724707816377394 0.0 0.0
0.0 0.06477952965288147 0.055457358494806194 -0.05438314391429582 -0.0010742145805103574 -0.019304459584365836 0.0 0.0
0.0 0.08207435382813637 0.07031880681434782 -0.06915121554745295 -0.0011675912668948534 -0.022809257887080575 0.0 0.0
0.0 0.10078261340572207 0.08639695490252788 -0.08513563703093874 -0.0012613178715891486 -0.02620017055043264 0.0 0.0
0.0 0.12054551031514964 0.10342384614517477 -0.10206926552129689 -0.001354580623877871 -0.02929375480068127 0.0 0.0
0.0 0.14064453784858028 0.12098172441097152 -0.11953227066430214 -0.0014494537466693334 -0.03167748099261419 0.0 0.0
0.0 0.16064882407246267 0.13837806994164414 -0.136827071888869 -0.0015509980527750311 -0.0327016459236246 0.0 0.0
0.0 0.17906157778288675 0.1544984428255659 -0.15283897744457395 -0.0016594653809918665 -0.03159668594410742 0.0 0.0
0.0 0.1940676879000553 0.16778211679491772 -0.16601851880653 -0.0017635979883876452 -0.02719844517057449 0.0 0.0
0.0 0.2037570327576217 0.17653597405037044 -0.1746948350166793 -0.0018411390336912554 -0.01806893427141482 0.0 0.0
0.0 0.20375703275760962 0.17653597405035854 -0.1746948350166675 -0.0018411390336911767 0.018068934271475497 0.0 0.0
0.0 0.19406768790002016 0.16778211679488353 -0.16601851880649657 -0.0017635979883868635 0.027198445170653146 0.0 0.0
0.0 0.1790615777828233 0.1544984428255079 -0.15283897744451608 -0.0016594653809917216 0.031596685944164 0.0 0.0
0.0 0.1606488240723777 0.13837806994156945 -0.13682707188879348 -0.0015509980527759252 0.03270164592364816 0.0 0.0
0.0 0.14064453784848985 0.12098172441089304 -0.1195322706642244 -0.0014494537466686423 0.031677480992604916 0.0 0.0
0.0 0.12054551031505266 0.10342384614509065 -0.102069265521214 -0.0013545806238766066 0.029293754800668655 0.0 0.0
0.0 0.10078261340561827 0.08639695490243797 -0.08513563703084909 -0.0012613178715889014 0.026200170550421186 0.0 0.0
0.0 0.08207435382803938 0.0703188068142633 -0.06915121554736942 -0.0011675912668938741 0.022809257887068606 0.0 0.0
0.0 0.06477952965279096 0.05545735849472783 -0.05438314391421875 -0.001074214580509084 0.019304459584341783 0.0 0.0
0.0 0.049065622093871275 0.04199216462024351 -0.04101162604896579 -0.0009805385712776905 0.015724707816353125 0.0 0.0
0.0 0.03513751464969283 0.030081596452341586 -0.02919594133024389 -0.0008856551220976717 0.012051696200046567 0.0 0.0
0.0 0.02325490394599801 0.019930783869438695 -0.019143148940234965 -0.0007876349292037333 0.008464427384863353 0.0 0.0
0.0 0.013700543480760028 0.011793457441243974 -0.011112789056502618 -0.0006806683847413511 0.005304653913916548 0.0 0.0
0.0 0.006806235116131827 0.005858636541927577 -0.005325088280315162 -0.0005335482616124157 0.002845185877703959 0.0 0.0
0.0 0.002591501022676463 0.0021462422950652683 -0.0018431662999869951 -0.00030307599507827226 0.0012106910493585332 0.0 0.0
0.0 0.0005053455795998784 0.0004073467503658731 -0.00033045751534956704 -7.688923501630615e-05 0.0003020286269286312 0.0 0.0
0.0 1.1698199310234692e-05 7.32279040487378e-06 -5.739882598210409e-06 -1.5829078066633656e-06 7.557527519816544e-06 0.0 0.0
0.0 0.0 0.0 0.0 0.0 0.0 0.0 0.0
0.0 0.0 0.0 0.0 0.0 0.0 0.0 0.0
0.0 0.006633484858121261 0.004408259603510152 -0.004925749904123378 0.0005174903006132246 0.005665452728831928 0.0 0.0
0.0 0.004901550656783172 0.0031474970206187597 -0.003609214507797346 0.0004617174871785879 -0.004270845776465007 0.0 0.0
0.0 0.0 0.0 0.0 0.0 0.0 0.0 0.0
0.0 0.0 0.0 0.0 0.0 0.0 0.0 0.0
0.0 1.946604951510189e-06 1.1772210541652693e-06 -9.068171036045622e-07 -2.7040395056070624e-07 -1.7592709412442652e-06 0.0 0.0
0.0 0.00023627747687332906 0.00017594728738898663 -0.00014173956072622578 -3.420772666276085e-05 -0.00020002193919100206 0.0 0.0
0.0 0.0016941240266713116 0.001356788500575876 -0.001143455337443546 -0.0002133331631323296 -0.0011217242414868285 0.0 0.0
0.0 0.005209857941380454 0.004264800600025123 -0.0038072256642829073 -0.0004575749357422145 -0.002870322618517735 0.0 0.0
0.0 0.0109520212530314 0.009213179908768177 -0.008580098100378986 -0.0006330818083891889 -0.005585432165480609 0.0 0.0
0.0 0.019106930113547207 0.016126742585057828 -0.015380122695677232 -0.0007466198893806066 -0.009123871599113667 0.0 0.0
0.0 0.02931975862675227 0.0247624585071563 -0.02392203017690675 -0.0008404283302495372 -0.013086052764106557 0.0 0.0
0.0 0.04123378523642225 0.03486831805458563 -0.03394025150557672 -0.0009280665490089374 -0.017138956354385566 0.0 0.0
0.0 0.054603322801144855 0.04626133679560066 -0.04524867227481954 -0.0010126645207810911 -0.021098009860122693 0.0 0.0
0.0 0.06937024797312338 0.058827109971111506 -0.05773103244861386 -0.0010960775224976463 -0.024980888644615694 0.0 0.0
0.0 0.08519459571111168 0.07245120350984141 -0.07127232328369906 -0.0011788802261423767 -0.02875394254292214 0.0 0.0
0.0 0.10207498243462321 0.08694633846587947 -0.08568579332897139 -0.0012605451369080854 -0.03219886746079364 0.0 0.0
0.0 0.11963044299775263 0.10201425198228581 -0.1006713640460909 -0.001342887936194826 -0.03494474118435387 0.0 0.0
0.0 0.13688630096999785 0.11715043040356678 -0.11572017950080582 -0.001430250902760914 -0.03640403188680163 0.0 0.0
0.0 0.15313418686226368 0.13149615356709637 -0.12997118340401964 -0.0015249701630766026 -0.03553869781609584 0.0 0.0
0.0 0.16683628438843512 0.14377663818317088 -0.1421577423959544 -0.0016188957872164517 -0.03064060148968809 0.0 0.0
0.0 0.17629579688870042 0.15251238467572167 -0.1508178176025901 -0.0016945670731314296 -0.01994265339001486 0.0 0.0
0.0 0.17629579688868505 0.15251238467570638 -0.15081781760257418 -0.0016945670731320704 0.019942653390080604 0.0 0.0
0.0 0.16683628438840273 0.1437766381831379 -0.14215774239592224 -0.0016188957872156453 0.03064060148977266 0.0 0.0
0.0 0.15313418686221122 0.1314961535670459 -0.1299711834039706 -0.0015249701630752567 0.03553869781615812 0.0 0.0
0.0 0.13688630096993626 0.11715043040351 -0.11572017950075102 -0.001430250902758941 0.036404031886830446 0.0 0.0
0.0 0.11963044299768008 0.1020142519822223 -0.10067136404602903 -0.0013428879361932892 0.0349447411843445 0.0 0.0
0.0 0.10207498243454595 0.08694633846581172 -0.08568579332890544 -0.0012605451369063422 0.032198867460783674 0.0 0.0
0.0 0.08519459571102606 0.0724512035097669 -0.07127232328362547 -0.0011788802261414651 0.028753942542909843 0.0 0.0
0.0 0.06937024797304119 0.058827109971040244 -0.05773103244854266 -0.0010960775224975487 0.02498088864460148 0.0 0.0
0.0 0.054603322801067174 0.046261336795534215 -0.04524867227475344 -0.0010126645207807622 0.02109800986009784 0.0 0.0
0.0 0.04123378523635415 0.034868318054527656 -0.033940251505519464 -0.0009280665490081863 0.017138956354358265 0.0 0.0
0.0 0.029319758626689334 0.024762458507104037 -0.02392203017685514 -0.0008404283302489093 0.01308605276407298 0.0 0.0
0.0 0.019106930113499055 0.016126742585017107 -0.015380122695636989 -0.0007466198893801084 0.009123871599092169 0.0 0.0
0.0 0.010952021252996137 0.00921317990873883 -0.008580098100350372 -0.000633081808388458 0.005585432165463125 0.0 0.0
0.0 0.005209857941358482 0.004264800600007216 -0.0038072256642660207 -0.00045757493574119534 0.002870322618506959 0.0 0.0
0.0 0.0016941240266605782 0.0013567885005677368 -0.0011434553374364284 -0.00021333316313130803 0.0011217242414802474 0.0 0.0
0.0 0.0002362774768701245 0.00017594728738709858 -0.00014173956072466645 -3.4207726662432056e-05 0.00020002193918886035 0.0 0.0
0.0 1.9466049514282133e-06 1.1772210543485376e-06 -9.068171037472471e-07 -2.7040395060128806e-07 1.7592709415330456e-06 0.0 0.0
0.0 0.0 0.0 0.0 0.0 0.0 0.0 0.0
0.0 0.0 0.0 0.0 0.0 0.0 0.0 0.0
0.0 0.004901550656768099 0.003147497020608948 -0.003609214507786916 0.0004617174871779664 0.004270845776450535 0.0 0.0
0.0 0.003446184681641977 0.0021495433400363483 -0.0025319424874968017 0.0003823991474604531 -0.003058782198358834 0.0 0.0
0.0 0.0 0.0 0.0 0.0 0.0 0.0 0.0
0.0 0.0 0.0 0.0 0.0 0.0 0.0 0.0
0.0 1.2459832782016668e-06 -8.711175530045244e-08 6.722946238267231e-08 1.9882292917777628e-08 2.0432140011233723e-07 0.0 0.0
0.0 0.00010675893889151466 6.50193627974438e-05 -5.221420406714116e-05 -1.2805158730302633e-05 -0.00011134479624595118 0.0 0.0
0.0 0.0009894019300263851 0.0007515119827812003 -0.0006228637404030162 -0.00012864824237818388 -0.0009145377228273902 0.0 0.0
0.0 0.003609901546900665 0.00285446361609408 -0.0024942861057860124 -0.0003601775103080685 -0.0026727135140209527 0.0 0.0
0.0 0.008334242411866482 0.006748951412394826 -0.006185000359737297 -0.0005639510526575284 -0.005403099003115599 0.0 0.0
0.0 0.01508527734712796 0.012393078750869799 -0.011698578258856859 -0.0006945004920129395 -0.009036782581796009 0.0 0.0
0.0 0.023564201252540242 0.01949822001140175 -0.018710759580968357 -0.000787460430433389 -0.013150323666272735 0.0 0.0
0.0 0.03342947498583976 0.027788163661237753 -0.02691985376779151 -0.0008683098934462433 -0.01733334445951732 0.0 0.0
0.0 0.04447642751210399 0.03710184610746341 -0.036157465185481526 -0.000944380921981904 -0.02142660787506776 0.0 0.0
0.0 0.056603189297498795 0.047366505711123275 -0.04634885175810463 -0.0010176539530186324 -0.025451673571461678 0.0 0.0
0.0 0.06974104749998354 0.05852640935580125 -0.0574368599425117 -0.001089549413289556 -0.029360045306238484 0.0 0.0
0.0 0.08377477499088326 0.07047215560704728 -0.06931147675978601 -0.001160678847261325 -0.032957593735873 0.0 0.0
0.0 0.09819313922561075 0.08300328738962186 -0.08177313262206169 -0.0012301547675601595 -0.03591425224883549 0.0 0.0
0.0 0.11302343115598015 0.09580154789870239 -0.09450056576107313 -0.0013009821376292294 -0.03770006754020185 0.0 0.0
0.0 0.12727061960715216 0.10834534352916975 -0.10696621575734651 -0.0013791277718232045 -0.03728223408950211 0.0 0.0
0.0 0.13962792902037863 0.11971487439086329 -0.1182510673165039 -0.0014638070743593003 -0.03262367495493475 0.0 0.0
0.0 0.14904166941642924 0.1285994583146271 -0.12705706733428881 -0.0015423909803381848 -0.021464738295239212 0.0 0.0
0.0 0.14904166941642488 0.12859945831462005 -0.12705706733428243 -0.0015423909803375711 0.02146473829530853 0.0 0.0
0.0 0.13962792902035415 0.11971487439083614 -0.11825106731647678 -0.0014638070743593664 0.032623674955021026 0.0 0.0
0.0 0.12727061960710667 0.1083453435291251 -0.1069662157573011 -0.0013791277718240302 0.03728223408956412 0.0 0.0
0.0 0.11302343115592392 0.09580154789865064 -0.09450056576102123 -0.001300982137629353 0.03770006754022845 0.0 0.0
0.0 0.09819313922554235 0.08300328738956314 -0.08177313262200275 -0.0012301547675603783 0.0359142522488239 0.0 0.0
0.0 0.08377477499080553 0.07047215560698063 -0.06931147675971877 -0.001160678847261822 0.032957593735857084 0.0 0.0
0.0 0.06974104749990752 0.0585264093557358 -0.057436859942445774 -0.0010895494132900435 0.02936004530622171 0.0 0.0
0.0 0.0566031892974311 0.04736650571106494 -0.04634885175804655 -0.0010176539530183976 0.025451673571446225 0.0 0.0
0.0 0.04447642751203751 0.03710184610740729 -0.03615746518542591 -0.0009443809219813575 0.02142660787504153 0.0 0.0
0.0 0.033429474985782345 0.02778816366119009 -0.026919853767744147 -0.00086830989344594 0.01733334445948885 0.0 0.0
0.0 0.023564201252489755 0.019498220011360624 -0.018710759580927726 -0.0007874604304328975 0.013150323666240547 0.0 0.0
0.0 0.01508527734708777 0.012393078750836542 -0.011698578258824248 -0.0006945004920122886 0.009036782581773125 0.0 0.0
0.0 0.008334242411839308 0.006748951412372877 -0.006185000359716072 -0.0005639510526568044 0.005403099003099326 0.0 0.0
0.0 0.0036099015468832574 0.0028544636160804135 -0.0024942861057734244 -0.00036017751030698833 0.002672713514009834 0.0 0.0
0.0 0.0009894019300187486 0.0007515119827759997 -0.000622863740398576 -0.00012864824237742367 0.0009145377228213265 0.0 0.0
0.0 0.00010675893888969785 6.50193627968459e-05 -5.2214204066631525e-05 -1.28051587302144e-05 0.00011134479624482437 0.0 0.0
0.0 1.245983277765114e-06 -8.711175526903953e-08 6.722946235833695e-08 1.9882292910690027e-08 -2.0432140003799813e-07 0.0 0.0
0.0 0.0 0.0 0.0 0.0 0.0 0.0 0.0
0.0 0.0 0.0 0.0 0.0 0.0 0.0 0.0
0.0 0.003446184681630095 0.0021495433400288456 -0.002531942487488524 0.000382399147459678 0.0030587821983481473 0.0 0.0
0.0 0.0022851535219701423 0.0013648932206023964 -0.0016529977122084474 0.0002881044916060498 -0.0020521567614988937 0.0 0.0
0.0 6.808126749334917e-07 -1.0371231226033877e-08 1.1382208934150606e-08 -1.010977708115995e-09 1.3495275768488005e-07 0.0 0.0
0.0 3.7869285625906513e-07 -1.0853022555903305e-08 7.76318668522007e-09 3.0898358706842675e-09 7.416418593090768e-08 0.0 0.0
0.0 1.406353363244644e-06 -3.882995984793597e-08 3.028684932137628e-08 8.543110526569726e-09 1.5491939946334783e-07 0.0 0.0
0.0 5.666311888093305e-05 2.8488608542734866e-05 -2.274073466462026e-05 -5.7478738781146315e-06 -7.322282351898618e-05 0.0 0.0
0.0 0.0005523046137402763 0.000343407283443015 -0.000280882065116495 -6.252521832652009e-05 -0.0006271533652965342 0.0 0.0
0.0 0.002288399947220311 0.0016666379729020813 -0.0014219693138980433 -0.0002446686590040386 -0.002231627409833551 0.0 0.0
0.0 0.0058437862307262976 0.004484317270650628 -0.00401907411293995 -0.0004652431577106749 -0.004821406516052593 0.0 0.0
0.0 0.011181727221131414 0.008801401341230171 -0.0081801313072473 -0.0006212700339828667 -0.008252391891618553 0.0 0.0
0.0 0.017905125259256506 0.01434222078076634 -0.01362013893920186 -0.0007220818415644762 -0.012215266478592836 0.0 0.0
0.0 0.025707708638435852 0.020805370652641444 -0.020007147082865783 -0.0007982235697756627 -0.016296912681037307 0.0 0.0
0.0 0.03440294212828135 0.02803777845461562 -0.027171075170570245 -0.0008667032840453638 -0.020278582455605605 0.0 0.0
0.0 0.043948869314090463 0.03599733836429836 -0.03506729982045111 -0.000930038543847244 -0.024186903370986487 0.0 0.0
0.0 0.05426391954805943 0.04468420133400784 -0.0436934936919858 -0.0009907076420220154 -0.028010783411469953 0.0 0.0
0.0 0.06535370364178683 0.05406227620021082 -0.05301151673887079 -0.0010507594613400235 -0.031557216528926964 0.0 0.0
0.0 0.07700172513521766 0.0640159475618234 -0.06290588819778262 -0.0011100593640408227 -0.03449508831589813 0.0 0.0
0.0 0.08892522290622716 0.07438330636269708 -0.07321972515760214 -0.0011635812050949125 -0.03646591144544635 0.0 0.0
0.0 0.10094321796152367 0.08500114511803351 -0.0837808256024422 -0.0012203195155913215 -0.03668675798039599 0.0 0.0
0.0 0.11240460520934341 0.09541737734068942 -0.09412420447440177 -0.0012931728662875833 -0.03302520034593554 0.0 0.0
0.0 0.12197381723555162 0.10455656173557945 -0.10317766243309795 -0.001378899302481468 -0.022605585653232684 0.0 0.0
0.0 0.12197381723554812 0.10455656173557296 -0.10317766243309191 -0.0013788993024809824 0.02260558565329584 0.0 0.0
0.0 0.11240460520932216 0.09541737734066331 -0.09412420447437644 -0.0012931728662869812 0.033025200346021584 0.0 0.0
0.0 0.1009432179614832 0.08500114511799173 -0.0837808256024006 -0.0012203195155910083 0.03668675798045623 0.0 0.0
0.0 0.08892522290618642 0.07438330636265739 -0.07321972515756342 -0.001163581205093973 0.03646591144547297 0.0 0.0
0.0 0.07700172513516954 0.06401594756178104 -0.06290588819774218 -0.0011100593640388954 0.034495088315888996 0.0 0.0
0.0 0.06535370364173229 0.05406227620016369 -0.053011516738824614 -0.0010507594613390538 0.03155721652891251 0.0 0.0
0.0 0.05426391954800507 0.044684201333961095 -0.04369349369193956 -0.0009907076420215231 0.0280107834114555 0.0 0.0
0.0 0.04394886931404012 0.0359973383642551 -0.0350672998204084 -0.0009300385438466974 0.024186903370972034 0.0 0.0
0.0 0.03440294212823154 0.02803777845457413 -0.027171075170529198 -0.0008667032840449489 0.020278582455581996 0.0 0.0
0.0 0.0257077086383896 0.020805370652603877 -0.020007147082828962 -0.0007982235697748959 0.01629691268100901 0.0 0.0
0.0 0.017905125259215435 0.014342220780734577 -0.013620138939170587 -0.0007220818415639878 0.012215266478560584 0.0 0.0
0.0 0.011181727221099688 0.008801401341205321 -0.008180131307222782 -0.0006212700339825427 0.00825239189159771 0.0 0.0
0.0 0.005843786230707082 0.004484317270636001 -0.004019074112926038 -0.00046524315770996234 0.004821406516038632 0.0 0.0
0.0 0.002288399947210058 0.0016666379728946601 -0.0014219693138913681 -0.0002446686590032911 0.002231627409825277 0.0 0.0
0.0 0.0005523046137355877 0.00034340728344049926 -0.00028088206511440875 -6.252521832609038e-05 0.0006271533652921236 0.0 0.0
0.0 5.666311887943616e-05 2.8488608542570524e-05 -2.2740734664479787e-05 -5.747873878090739e-06 7.322282351854864e-05 0.0 0.0
0.0 1.4063533630374962e-06 -3.882995973601772e-08 3.0286849236791693e-08 8.543110499227926e-09 -1.5491939908110566e-07 0.0 0.0
0.0 3.786928558295237e-07 -1.0853022544114866e-08 7.763186676628835e-09 3.0898358674860974e-09 -7.416418584570931e-08 0.0 0.0
0.0 6.808126741997652e-07 -1.0371231215047161e-08 1.1382208922371451e-08 -1.0109777073237724e-09 -1.34952757536912e-07 0.0 0.0
0.0 0.002285153521961049 0.0013648932205971131 -0.0016529977122024886 0.00028810449160537465 0.0020521567614909452 0.0 0.0
0.0 0.0013719352915492753 0.0007717922462014439 -0.0009639018741999072 0.00019210962799846276 -0.0012423957733341496 0.0 0.0
0.0 2.0639060147906454e-06 9.540693549982257e-08 -9.630827248190456e-08 9.01336982080666e-10 -2.129384945511941e-06 0.0 0.0
0.0 7.841675822345229e-07 1.4580817225728137e-08 -9.317479560881716e-09 -5.263337664845893e-09 -1.346391116384902e-07 0.0 0.0
0.0 2.8134068424271003e-06 4.7459649146438243e-07 -3.6526556488316773e-07 -1.0933092658121255e-07 -3.0650480879913986e-06 0.0 0.0
0.0 4.477628895341094e-05 1.591257754479874e-05 -1.2623041274361173e-05 -3.2895362704375887e-06 -6.417426072862096e-05 0.0 0.0
0.0 0.00029740491183574745 0.00013723449489211968 -0.00011117554372758363 -2.605895116453608e-05 -0.0004047283752637884 0.0 0.0
0.0 0.0012958749813706026 0.000777580593531496 -0.0006478457849819674 -0.0001297348085495284 -0.001614992765035012 0.0 0.0
0.0 0.0036327229961292894 0.0025031228958573228 -0.0021769470894142033 -0.00032617580644311937 -0.0038565921722566467 0.0 0.0
0.0 0.007475149009911024 0.0054501710559675355 -0.004941029698742155 -0.0005091413572253776 -0.006854062952317409 0.0 0.0
0.0 0.012340500927032651 0.009378859991526513 -0.008748695963736583 -0.0006301640277899315 -0.010333046755016064 0.0 0.0
0.0 0.018155366933439915 0.013990499691787315 -0.013280792151937679 -0.0007097075398496345 -0.013990360922164026 0.0 0.0
0.0 0.02446112195191722 0.019139784742021347 -0.018366996148796014 -0.0007727885932253356 -0.01760756920631023 0.0 0.0
0.0 0.031374497709365234 0.024796032395706567 -0.023968589318260045 -0.000827443077446526 -0.021165821883152712 0.0 0.0
0.0 0.038923566756803404 0.03099811990642086 -0.030121195972548236 -0.0008769239338726193 -0.024652362933596978 0.0 0.0
0.0 0.04714618899923655 0.03778587925841011 -0.03686092464490302 -0.000924954613507067 -0.027945988057633868 0.0 0.0
0.0 0.05584319179963153 0.04513876459167191 -0.044164475432610026 -0.000974289159061865 -0.030717293962947295 0.0 0.0
0.0 0.06501367532924804 0.05299357918616516 -0.051975802211686004 -0.001017776974479131 -0.032604357566643656 0.0 0.0
0.0 0.0745690543103052 0.061457145849971355 -0.06040927163400352 -0.0010478742159678032 -0.03338754915167231 0.0 0.0
0.0 0.08458999151442187 0.07069791199476554 -0.06960035834402589 -0.0010975536507396473 -0.03147242633361351 0.0 0.0
0.0 0.0942722704442437 0.08011049295299569 -0.07891771953722879 -0.0011927734157669897 -0.02324256369315024 0.0 0.0
0.0 0.09427227044423878 0.08011049295298796 -0.07891771953722038 -0.0011927734157675895 0.023242563693205535 0.0 0.0
0.0 0.08458999151441221 0.07069791199474884 -0.06960035834400878 -0.0010975536507400472 0.03147242633369373 0.0 0.0
0.0 0.07456905431028497 0.06145714584994591 -0.06040927163397865 -0.0010478742159672322 0.033387549151730624 0.0 0.0
0.0 0.06501367532921684 0.052993579186133996 -0.051975802211656416 -0.001017776974477591 0.03260435756666327 0.0 0.0
0.0 0.05584319179959364 0.04513876459164022 -0.044164475432579085 -0.0009742891590611201 0.030717293962932646 0.0 0.0
0.0 0.04714618899919758 0.037785879258377744 -0.03686092464487133 -0.0009249546135064401 0.02794598805761734 0.0 0.0
0.0 0.038923566756767836 0.03099811990639076 -0.030121195972518756 -0.0008769239338720092 0.024652362933585234 0.0 0.0
0.0 0.03137449770933084 0.02479603239567728 -0.02396858931823089 -0.000827443077446393 0.02116582188314211 0.0 0.0
0.0 0.024461121951881687 0.01913978474199284 -0.01836699614876803 -0.0007727885932248083 0.017607569206289087 0.0 0.0
0.0 0.01815536693340635 0.013990499691761017 -0.01328079215191189 -0.0007097075398491142 0.013990360922140588 0.0 0.0
0.0 0.012340500927002737 0.009378859991504836 -0.00874869596371555 -0.0006301640277892812 0.010333046754989085 0.0 0.0
0.0 0.007475149009889229 0.005450171055951353 -0.004941029698726576 -0.0005091413572247776 0.006854062952299943 0.0 0.0
0.0 0.0036327229961140807 0.0025031228958462726 -0.00217694708940409 -0.00032617580644218316 0.003856592172243047 0.0 0.0
0.0 0.0012958749813618252 0.0007775805935262358 -0.0006478457849774009 -0.00012973480854883455 0.0016149927650256084 0.0 0.0
0.0 0.00029740491183236664 0.0001372344948909047 -0.0001111755437265699 -2.6058951164334727e-05 0.00040472837526031396 0.0 0.0
0.0 4.4776288951856114e-05 1.591257754473617e-05 -1.2623041274305682e-05 -3.289536270430474e-06 6.417426072835637e-05 0.0 0.0
0.0 2.8134068423359892e-06 4.7459649159546104e-07 -3.6526556498243936e-07 -1.0933092661302467e-07 3.0650480888303073e-06 0.0 0.0
0.0 7.841675819643587e-07 1.4580817278820331e-08 -9.31747959621842e-09 -5.263337682600949e-09 1.3463911230997758e-07 0.0 0.0
0.0 2.0639060142285658e-06 9.540693553833804e-08 -9.630827252712483e-08 9.013369887867069e-10 2.1293849464653384e-06 0.0 0.0
0.0 0.001371935291541974 0.0007717922461976756 -0.0009639018741955076 0.00019210962799783222 0.001242395773328053 0.0 0.0
0.0 0.0006597549620843696 0.0003637527659566737 -0.00047188558509837655 0.00010813281914170319 -0.0006362309359506204 0.0 0.0
0.0 4.181970026534094e-06 7.901628759782276e-08 -1.0786583782689762e-07 2.8849550229075044e-08 -3.2105101641311237e-06 0.0 0.0
0.0 3.297119717587874e-06 4.690906261184348e-08 -1.9354734174105814e-08 -2.7554328437737887e-08 -3.092615252995522e-06 0.0 0.0
0.0 6.576658179513245e-06 6.022579592663307e-07 -4.2572752052157456e-07 -1.7653043874475298e-07 -8.615514780975146e-06 0.0 0.0
0.0 4.766696145627154e-05 9.508341908356509e-06 -7.444395590626898e-06 -2.063946317729617e-06 -7.267101217095513e-05 0.0 0.0
0.0 0.0002043719370397286 5.526721441667585e-05 -4.457667680653043e-05 -1.069053761014544e-05 -0.00030330443233459847 0.0 0.0
0.0 0.0006801440491244873 0.00025942141773193885 -0.00021190143287737657 -4.751998485456209e-05 -0.0010102871775801317 0.0 0.0
0.0 0.0018582200556029286 0.0009622057642251702 -0.0008064297892191208 -0.00015577597500604926 -0.0025751361472586922 0.0 0.0
0.0 0.004091637460312703 0.002490302024217921 -0.002166026195900267 -0.0003242758283176533 -0.004884318147663036 0.0 0.0
0.0 0.007147052599018864 0.004745664018675707 -0.004274030289815679 -0.00047163372886002794 -0.007590065300560728 0.0 0.0
0.0 0.010747967107677664 0.00747516577572275 -0.006903107111580461 -0.0005720586641422837 -0.010497724291191887 0.0 0.0
0.0 0.014816941902241568 0.01052296020197089 -0.009883882816870231 -0.0006390773851006468 -0.013459766386985837 0.0 0.0
0.0 0.019209407903469453 0.013877657891513502 -0.01318715376298456 -0.0006905041285289468 -0.016445955636373435 0.0 0.0
0.0 0.024019488243152306 0.017592462428229805 -0.016860904252296884 -0.0007315581759329127 -0.019394418252758703 0.0 0.0
0.0 0.029307564416728504 0.02175770965895691 -0.02099060340054391 -0.0007671062584129979 -0.022241946006006916 0.0 0.0
0.0 0.03510663121618604 0.02647082398707703 -0.02566760233412355 -0.0008032216529534752 -0.024779981314030485 0.0 0.0
0.0 0.04142264789568759 0.03178867423089038 -0.030945283447087597 -0.0008433907838028087 -0.02655866088848494 0.0 0.0
0.0 0.048413907634162145 0.03788448797082246 -0.03701990828117615 -0.0008645796896463175 -0.0274511549352788 0.0 0.0
0.0 0.056794532910214496 0.04542688117641408 -0.04456387937397471 -0.0008630018024393662 -0.027361302619878437 0.0 0.0
0.0 0.06647432315652048 0.05489550588735065 -0.05393637401109149 -0.0009591318762591709 -0.023015008144231845 0.0 0.0
0.0 0.06647432315652911 0.05489550588735305 -0.05393637401109451 -0.0009591318762585673 0.023015008144280924 0.0 0.0
0.0 0.05679453291022229 0.04542688117641083 -0.04456387937397201 -0.0008630018024387767 0.027361302619955112 0.0 0.0
0.0 0.04841390763415407 0.03788448797080754 -0.037019908281161196 -0.0008645796896463361 0.027451154935329347 0.0 0.0
0.0 0.04142264789566595 0.0317886742308693 -0.030945283447065746 -0.0008433907838035536 0.02655866088849762 0.0 0.0
0.0 0.03510663121615852 0.026470823987056327 -0.02566760233410274 -0.0008032216529535862 0.02477998131401354 0.0 0.0
0.0 0.029307564416702646 0.021757709658937148 -0.020990603400523982 -0.0007671062584131607 0.022241946005992237 0.0 0.0
0.0 0.02401948824313147 0.017592462428213593 -0.01686090425228057 -0.0007315581759330199 0.019394418252748787 0.0 0.0
0.0 0.019209407903454413 0.013877657891501086 -0.01318715376297254 -0.0006905041285285538 0.016445955636368276 0.0 0.0
0.0 0.014816941902220535 0.010522960201955445 -0.009883882816855372 -0.0006390773851000725 0.01345976638697044 0.0 0.0
0.0 0.010747967107655555 0.007475165775707829 -0.006903107111565854 -0.0005720586641419749 0.010497724291170945 0.0 0.0
0.0 0.007147052598997879 0.004745664018662505 -0.0042740302898028985 -0.00047163372885960337 0.007590065300538325 0.0 0.0
0.0 0.004091637460299589 0.002490302024209133 -0.0021660261958921737 -0.0003242758283169595 0.004884318147649805 0.0 0.0
0.0 0.0018582200555934663 0.00096220576421959 -0.0008064297892142845 -0.00015577597500530566 0.002575136147247699 0.0 0.0
0.0 0.0006801440491201754 0.00025942141773030165 -0.00021190143287602513 -4.75199848542766e-05 0.0010102871775747421 0.0 0.0
0.0 0.00020437193703801122 5.5267214416574066e-05 -4.457667680644325e-05 -1.06905376101308e-05 0.0003033044323336947 0.0 0.0
0.0 4.7666961455364265e-05 9.508341908377385e-06 -7.444395590640043e-06 -2.063946317737343e-06 7.267101217110962e-05 0.0 0.0
0.0 6.576658179267371e-06 6.02257959300696e-07 -4.2572752054464445e-07 -1.7653043875604883e-07 8.615514781503e-06 0.0 0.0
0.0 3.2971197168171324e-06 4.6909062623508364e-08 -1.935473417887483e-08 -2.7554328444632828e-08 3.092615253815376e-06 0.0 0.0
0.0 4.18197002628546e-06 7.901628762248608e-08 -1.0786583786621014e-07 2.88495502437237e-08 3.2105101650667317e-06 0.0 0.0
0.0 0.0006597549620798844 0.0003637527659546644 -0.00047188558509588544 0.00010813281914122069 0.0006362309359472944 0.0 0.0
0.0 0.00022477560681617476 0.0001185498067473341 -0.00016098804267999825 4.243823593266417e-05 -0.0002226677356301153 0.0 0.0
0.0 5.270926187582833e-06 -9.501464135184534e-09 -4.2327750374279984e-08 5.1829214509465717e-08 -4.585853972205926e-06 0.0 0.0
0.0 7.3152045561923085e-06 -3.104813134064361e-07 2.9869212459075096e-07 1.1789188815685784e-08 -9.486428237010775e-06 0.0 0.0
0.0 1.2594754946433786e-05 -1.9201062229013921e-07 2.824744099732739e-07 -9.046378768313378e-08 -1.9617635342007587e-05 0.0 0.0
0.0 5.470910782007583e-05 2.2424090543068567e-06 -1.5504218538128916e-06 -6.919872004939715e-07 -8.248590285578886e-05 0.0 0.0
0.0 0.00018731842896314467 1.581792730900602e-05 -1.2587953679687633e-05 -3.2299736293183645e-06 -0.00029618288266690314 0.0 0.0
0.0 0.0004466082589170901 5.5447400479332605e-05 -4.49670972317159e-05 -1.048030324761671e-05 -0.0007321462496173074 0.0 0.0
0.0 0.0009087114168653267 0.00015333762979718115 -0.00012507877745055856 -2.825885234662243e-05 -0.0014467530693809145 0.0 0.0
0.0 0.00166735228952687 0.00040616048793868785 -0.0003317826426285395 -7.437784531014816e-05 -0.0026777744904854235 0.0 0.0
0.0 0.002925738058955796 0.0009094293939629529 -0.0007475596289320875 -0.00016186976503086508 -0.0044132874938200995 0.0 0.0
0.0 0.004465276935300845 0.0016572242069807744 -0.0013925642892055434 -0.00026465991777523004 -0.006540202796783891 0.0 0.0
0.0 0.006377310557008507 0.0025722187369455673 -0.002222364672610763 -0.0003498540643348024 -0.008863928091788771 0.0 0.0
0.0 0.008515503801999657 0.0036216459934040467 -0.0032059012172815557 -0.00041574477612249034 -0.011327495527596482 0.0 0.0
0.0 0.010922141857884277 0.0048404941109476355 -0.004376512276459254 -0.00046398183448838245 -0.013910097506972032 0.0 0.0
0.0 0.013614821278116399 0.006346752237824766 -0.005848119916967856 -0.0004986323208569039 -0.016568461759783822 0.0 0.0
0.0 0.016730475023634565 0.008344445238754971 -0.007817662110557544 -0.0005267831281974276 -0.019122078504723795 0.0 0.0
0.0 0.020295063544197293 0.011096633643292966 -0.010536466546438979 -0.000560167096853979 -0.021101055649990916 0.0 0.0
0.0 0.024399238548969006 0.01481904612874991 -0.014213559309142133 -0.0006054868196077694 -0.021854863345873027 0.0 0.0
0.0 0.030054692359777084 0.020062167167061738 -0.019471390381184953 -0.0005907767858767819 -0.021971968390852085 0.0 0.0
0.0 0.038824903450953734 0.028595254052615385 -0.02800860790402729 -0.0005866461485880903 -0.021745313493763904 0.0 0.0
0.0 0.03882490345095609 0.028595254052613036 -0.02800860790402493 -0.0005866461485880987 0.02174531349380049 0.0 0.0
0.0 0.03005469235978526 0.020062167167060233 -0.019471390381183652 -0.0005907767858765881 0.0219719683909069 0.0 0.0
0.0 0.024399238548963656 0.014819046128739853 -0.01421355930913232 -0.0006054868196075247 0.021854863345905032 0.0 0.0
0.0 0.020295063544184686 0.011096633643284467 -0.010536466546431042 -0.0005601670968534211 0.021101055649987197 0.0 0.0
0.0 0.016730475023620184 0.00834444523874875 -0.007817662110551791 -0.0005267831281969566 0.01912207850470654 0.0 0.0
0.0 0.01361482127810364 0.0063467522378192745 -0.005848119916962599 -0.0004986323208566759 0.016568461759769587 0.0 0.0
0.0 0.01092214185787576 0.00484049411094503 -0.004376512276456645 -0.0004639818344883863 0.013910097506961113 0.0 0.0
0.0 0.008515503801993014 0.0036216459934027448 -0.003205901217280216 -0.00041574477612252704 0.011327495527587429 0.0 0.0
0.0 0.0063773105569971626 0.002572218736941846 -0.002222364672607292 -0.0003498540643345525 0.008863928091774328 0.0 0.0
0.0 0.004465276935293406 0.0016572242069802527 -0.001392564289205288 -0.00026465991777496566 0.006540202796770327 0.0 0.0
0.0 0.002925738058948424 0.0009094293939613628 -0.0007475596289310016 -0.0001618697650303611 0.004413287493809604 0.0 0.0
0.0 0.00166735228952395 0.00040616048793825157 -0.00033178264262819683 -7.437784531005458e-05 0.0026777744904803533 0.0 0.0
0.0 0.0009087114168625878 0.000153337629796551 -0.0001250787774501207 -2.825885234643011e-05 0.0014467530693764588 0.0 0.0
0.0 0.00044660825891478526 5.5447400479179705e-05 -4.4967097231560075e-05 -1.0480303247619598e-05 0.0007321462496149645 0.0 0.0
0.0 0.00018731842896142542 1.5817927308963454e-05 -1.2587953679645107e-05 -3.229973629318346e-06 0.00029618288266572375 0.0 0.0
0.0 5.470910781858847e-05 2.2424090543000868e-06 -1.5504218538069547e-06 -6.919872004931349e-07 8.248590285526336e-05 0.0 0.0
0.0 1.259475494575618e-05 -1.920106223037795e-07 2.824744099889315e-07 -9.046378768515197e-08 1.961763534272534e-05 0.0 0.0
0.0 7.315204555502618e-06 -3.104813134376731e-07 2.9869212461827827e-07 1.178918881939423e-08 9.486428237761431e-06 0.0 0.0
0.0 5.270926187274138e-06 -9.501464136652933e-09 -4.2327750391468334e-08 5.182921452812379e-08 4.585853972982729e-06 0.0 0.0
0.0 0.00022477560681374392 0.0001185498067464659 -0.00016098804267884907 4.243823593238321e-05 0.00022266773562864162 0.0 0.0
0.0 3.515957878088282e-05 1.709131821129258e-05 -2.4371327719689274e-05 7.280009508396682e-06 -3.502195956029805e-05 0.0 0.0
0.0 4.941619091190385e-06 -1.4739509451039622e-07 4.927869763957657e-08 9.811639687082452e-08 -4.849173003836666e-06 0.0 0.0
0.0 1.0482724465962283e-05 -1.1755342530313926e-06 1.007124112663892e-06 1.68410140367501e-07 -1.4751115979172079e-05 0.0 0.0
0.0 1.9630348619749097e-05 -2.4497770466388227e-06 2.168120733140313e-06 2.816563134985116e-07 -3.0066715740165994e-05 0.0 0.0
0.0 6.389943956734036e-05 -6.6125429667435365e-06 5.7028492914300454e-06 9.096936753134995e-07 -9.53855604153924e-05 0.0 0.0
0.0 0.00019838340832047864 -2.061774245252212e-05 1.7007325056040487e-05 3.6104173964816214e-06 -0.0003061428609200608 0.0 0.0
0.0 0.0004544985428927399 -5.928456330850099e-05 4.827253209940532e-05 1.1012031209095667e-05 -0.000745165981222601 0.0 0.0
0.0 0.0009142858622698817 -0.00015568452425780116 0.00012696924810679273 2.871527615100851e-05 -0.0014567187352438852 0.0 0.0
0.0 0.0016687260679036902 -0.00040708192648179856 0.00033262584073302516 7.445608574877319e-05 -0.0026820013756411725 0.0 0.0
0.0 0.002925990446930993 -0.0009096600178492066 0.0007479666505739692 0.00016169336727523743 -0.00441427772716267 0.0 0.0
0.0 0.004486205715547353 -0.0016676036907751022 0.001403874043381249 0.00026372964739385406 -0.00654852488910311 0.0 0.0
0.0 0.006418381559730927 -0.0026207971013564244 0.002270894993983145 0.000349902107373277 -0.008884601330624988 0.0 0.0
0.0 0.0085850260847462 -0.0037111740691109403 0.003291649957438615 0.0004195241116723207 -0.011342020683874996 0.0 0.0
0.0 0.010925642828765667 -0.004863935480791899 0.0043863824921233545 0.00047755298866854066 -0.013894146503744861 0.0 0.0
0.0 0.013244214785041777 -0.005913249279148251 0.005385577450381267 0.0005276718287669825 -0.01652341484268273 0.0 0.0
0.0 0.015348774811374635 -0.006563539056335593 0.005991729359457813 0.000571809696877772 -0.01917682607654926 0.0 0.0
0.0 0.01687968520932815 -0.006408324374320642 0.005797966700272163 0.0006103576740484788 -0.021841467522891792 0.0 0.0
0.0 0.017736161557516457 -0.00517741044489942 0.004546117744919788 0.0006312926999796251 -0.024625498038391307 0.0 0.0
0.0 0.01792732213787958 -0.0028399799360153896 0.0022302015284760136 0.0006097784075393734 -0.02712333058529163 0.0 0.0
0.0 0.01797368425813896 0.003954481918652303 -0.0040112961972426356 5.681427859033134e-05 -0.026591611462790172 0.0 0.0
0.0 0.017973684258143947 0.003954481918652636 -0.004011296197242845 5.681427859021164e-05 0.026591611462804043 0.0 0.0
0.0 0.01792732213788248 -0.002839979936014923 0.002230201528474641 0.0006097784075402807 0.027123330585309104 0.0 0.0
0.0 0.017736161557506177 -0.005177410444894342 0.004546117744914346 0.000631292699979992 0.024625498038391765 0.0 0.0
0.0 0.0168796852093119 -0.0064083243743126754 0.005797966700264581 0.0006103576740480934 0.02184146752287859 0.0 0.0
0.0 0.015348774811354323 -0.006563539056323916 0.00599172935944599 0.0005718096968779174 0.01917682607652888 0.0 0.0
0.0 0.013244214785022886 -0.0059132492791374325 0.005385577450370309 0.0005276718287671185 0.016523414842664872 0.0 0.0
0.0 0.010925642828749966 -0.004863935480782544 0.004386382492114378 0.00047755298866816487 0.013894146503731207 0.0 0.0
0.0 0.008585026084728647 -0.003711174069099223 0.0032916499574272783 0.00041952411167194193 0.011342020683862477 0.0 0.0
0.0 0.00641838155971245 -0.0026207971013459926 0.0022708949939732165 0.0003499021073727741 0.008884601330607238 0.0 0.0
0.0 0.004486205715533277 -0.0016676036907685367 0.0014038740433753162 0.0002637296473932207 0.006548524889085521 0.0 0.0
0.0 0.0029259904469189973 -0.0009096600178447195 0.0007479666505702384 0.0001616933672744802 0.004414277727148862 0.0 0.0
0.0 0.0016687260678989384 -0.0004070819264795605 0.0003326258407311941 7.445608574836644e-05 0.0026820013756350064 0.0 0.0
0.0 0.0009142858622668618 -0.00015568452425695096 0.00012696924810611264 2.8715276150838343e-05 0.0014567187352395453 0.0 0.0
0.0 0.0004544985428894837 -5.928456330812128e-05 4.827253209914476e-05 1.1012031208976501e-05 0.0007451659812184886 0.0 0.0
0.0 0.00019838340831843562 -2.0617742452419127e-05 1.7007325055964104e-05 3.6104173964550483e-06 0.00030614286091847564 0.0 0.0
0.0 6.389943956570215e-05 -6.6125429667092385e-06 5.70284929140135e-06 9.096936753078767e-07 9.538556041489495e-05 0.0 0.0
0.0 1.9630348619241717e-05 -2.44977704665911e-06 2.1681207331571303e-06 2.816563135019789e-07 3.0066715740357332e-05 0.0 0.0
0.0 1.0482724465383831e-05 -1.1755342531010265e-06 1.0071241127220595e-06 1.6841014037896777e-07 1.4751115979935537e-05 0.0 0.0
0.0 4.941619091093911e-06 -1.4739509453313424e-07 4.92786976138516e-08 9.811639691928746e-08 4.849173005192431e-06 0.0 0.0
0.0 3.515957878019526e-05 1.709131821140252e-05 -2.4371327719839853e-05 7.280009508437322e-06 3.502195956067689e-05 0.0 0.0
0.0 1.6632462327964354e-06 -8.87437630398127e-08 1.291199073641736e-07 -4.037614432434241e-08 2.496372743401371e-07 0.0 0.0
0.0 3.442301246915877e-06 -2.314455265047701e-07 1.2288876358628468e-07 1.0855676291848388e-07 -4.420617664401066e-06 0.0 0.0
0.0 1.1858193671230206e-05 -2.055359686942063e-06 1.711526546457344e-06 3.4383314048471575e-07 -1.6391690270923587e-05 0.0 0.0
0.0 2.5576275999774922e-05 -5.037293955101624e-06 4.287871040119127e-06 7.494229149825092e-07 -3.348278338503651e-05 0.0 0.0
0.0 7.285417667499327e-05 -1.8039789149529826e-05 1.5038188672652538e-05 3.001600476877288e-06 -0.00010829677451514831 0.0 0.0
0.0 0.00023143659068189336 -6.758251279761143e-05 5.509909795646262e-05 1.2483414841148836e-05 -0.0003453519389521391 0.0 0.0
0.0 0.0007093772002143999 -0.0002719581974438462 0.00022252521734428393 4.943298009956226e-05 -0.001043940560460448 0.0 0.0
0.0 0.0018718643832722015 -0.0009690461811271988 0.0008124684259302179 0.00015657775519698058 -0.002593298302383208 0.0 0.0
0.0 0.004091800437346316 -0.0024902739198135303 0.002166211590070988 0.0003240623297425415 -0.0048885693760939335 0.0 0.0
0.0 0.00714891305293428 -0.004747423488307943 0.0042763730582179695 0.0004710504300899723 -0.0075924478801301645 0.0 0.0
0.0 0.010766336666182744 -0.007492629305380536 0.006921876396039947 0.0005707529093405843 -0.01050280263248398 0.0 0.0
0.0 0.01486462099583474 -0.010575831665320163 0.009937963728506204 0.0006378679368139587 -0.01345021593664333 0.0 0.0
0.0 0.019273885056402217 -0.013961768420852762 0.013268734351524347 0.0006930340693284123 -0.01638968315818118 0.0 0.0
0.0 0.023980684896532805 -0.017584072450012728 0.016839527282616097 0.0007445451673966322 -0.01929897723151574 0.0 0.0
0.0 0.02878632822254413 -0.021243762573650266 0.020447844922693324 0.0007959176509569285 -0.022235844891999985 0.0 0.0
0.0 0.03330243227180955 -0.024566786154056063 0.023721928581619665 0.0008448575724363918 -0.02525132638584053 0.0 0.0
0.0 0.03706257658515853 -0.02704017104962942 0.026156590994533196 0.0008835800550962262 -0.028443507406073754 0.0 0.0
0.0 0.03939476333505012 -0.028085838739076247 0.027176970830032177 0.0009088679090440956 -0.031702235267689664 0.0 0.0
0.0 0.03855791045422505 -0.026535976209053853 0.025535687581557883 0.0010002886274959502 -0.033227456521122946 0.0 0.0
0.0 0.03151570295390263 -0.01901511968786843 0.017886752913148847 0.001128366774719567 -0.031024205133357977 0.0 0.0
0.0 0.03151570295391562 -0.019015119687870362 0.017886752913150995 0.001128366774719361 0.031024205133398333 0.0 0.0
0.0 0.03855791045423871 -0.02653597620905277 0.025535687581556953 0.0010002886274958008 0.03322745652118317 0.0 0.0
0.0 0.039394763335040765 -0.02808583873906085 0.02717697083001637 0.000908867909044467 0.0317022352677228 0.0 0.0
0.0 0.03706257658513597 -0.027040171049609096 0.026156590994512757 0.0008835800550963438 0.028443507406073834 0.0 0.0
0.0 0.033302432271775304 -0.024566786154028738 0.023721928581592583 0.0008448575724361503 0.025251326385821272 0.0 0.0
0.0 0.028786328222507696 -0.021243762573622274 0.020447844922665447 0.0007959176509568298 0.022235844891976386 0.0 0.0
0.0 0.02398068489649762 -0.017584072449985215 0.01683952728258868 0.0007445451673965286 0.01929897723149559 0.0 0.0
0.0 0.019273885056369885 -0.013961768420826307 0.013268734351498137 0.0006930340693281551 0.01638968315816505 0.0 0.0
0.0 0.014864620995801416 -0.010575831665294879 0.009937963728481488 0.0006378679368133907 0.013450215936619403 0.0 0.0
0.0 0.010766336666152468 -0.0074926293053588 0.006921876396019037 0.0005707529093397593 0.010502802632458366 0.0 0.0
0.0 0.007148913052907246 -0.004747423488289508 0.004276373058200461 0.00047105043008904824 0.007592447880104064 0.0 0.0
0.0 0.004091800437329755 -0.0024902739198014675 0.002166211590059933 0.00032406232974153563 0.004888569376078979 0.0 0.0
0.0 0.0018718643832630584 -0.000969046181121263 0.0008124684259251962 0.00015657775519606674 0.0025932983023730666 0.0 0.0
0.0 0.0007093772002093642 -0.0002719581974419566 0.000222525217342776 4.943298009918064e-05 0.0010439405604543465 0.0 0.0
0.0 0.00023143659067979217 -6.758251279731837e-05 5.509909795622848e-05 1.2483414841089928e-05 0.0003453519389507201 0.0 0.0
0.0 7.285417667376437e-05 -1.803978914947642e-05 1.503818867260591e-05 3.0016004768705053e-06 0.00010829677451473802 0.0 0.0
0.0 2.5576275998892385e-05 -5.037293955122623e-06 4.287871040136403e-06 7.494229149862213e-07 3.348278338516024e-05 0.0 0.0
0.0 1.1858193670490627e-05 -2.05535968701484e-06 1.7115265465163047e-06 3.4383314049853435e-07 1.6391690271466423e-05 0.0 0.0
0.0 3.4423012466571618e-06 -2.3144552653977394e-07 1.2288876359146545e-07 1.0855676294830886e-07 4.42061766521087e-06 0.0 0.0
0.0 1.663246232129405e-06 -8.874376300538105e-08 1.291199073166848e-07 -4.0376144311303564e-08 -2.496372742301845e-07 0.0 0.0
0.0 0.0 0.0 0.0 0.0 0.0 0.0 0.0
0.0 1.843807040722833e-06 -1.8114084023565985e-08 1.896206204805486e-08 -8.479780244915275e-10 -1.9681481268318317e-07 0.0 0.0
0.0 1.062855848621913e-05 -2.0273395271311215e-06 1.6684676584307262e-06 3.5887186870039056e-07 -1.1753079408674778e-05 0.0 0.0
0.0 2.8703182872780042e-05 -7.463416692416031e-06 6.210390150951467e-06 1.2530265414645734e-06 -3.282618294876431e-05 0.0 0.0
0.0 8.769113845623901e-05 -3.290598966683731e-05 2.701828452288995e-05 5.887705143947372e-06 -0.00011941926150455761 0.0 0.0
0.0 0.0003546922008140396 -0.00016794359649193152 0.00013708041251857795 3.086318397335349e-05 -0.00047931700143972306 0.0 0.0
0.0 0.001333856627460813 -0.000796689376118435 0.0006649203575319962 0.00013176901858643895 -0.0016557864047768937 0.0 0.0
0.0 0.0036393594089817703 -0.0025046218245917727 0.002178803218607083 0.00032581860598469045 -0.0038698961790444007 0.0 0.0
0.0 0.007471758131723041 -0.005448083104206008 0.0049392608519814845 0.0005088222522245232 -0.006853876307197448 0.0 0.0
0.0 0.012344996892645841 -0.00938314557007276 0.008753476612820303 0.000629668957252456 -0.010335586617513545 0.0 0.0
0.0 0.01817216083959701 -0.014007726643790826 0.01329911876066869 0.0007086078831221478 -0.013986681131028689 0.0 0.0
0.0 0.02448651301903668 -0.019177839853093036 0.01840625829778399 0.0007715815553090417 -0.017550984310077882 0.0 0.0
0.0 0.03138221697998676 -0.024844920782482273 0.024015700611700858 0.0008292201707814185 -0.020991337379403563 0.0 0.0
0.0 0.03881019136712144 -0.030948728170328822 0.03006097185445761 0.0008877563158711985 -0.0244016601798984 0.0 0.0
0.0 0.04661346915168817 -0.03727808242441392 0.03632837255478162 0.0009497098696322655 -0.028003229008534507 0.0 0.0
0.0 0.054262012785465746 -0.043397459058757464 0.04238607784322609 0.0010113812155313315 -0.032088958919035626 0.0 0.0
0.0 0.06114941692268038 -0.04864407840466211 0.047575069763131195 0.001069008641530898 -0.03679053575771018 0.0 0.0
0.0 0.06572060211174102 -0.05198180289810653 0.05084038691592157 0.0011414159821849085 -0.0412578858835411 0.0 0.0
0.0 0.06582060159570723 -0.05144678785065968 0.05020911388544211 0.001237673965217575 -0.043421932987702305 0.0 0.0
0.0 0.05578260383272483 -0.042815216775662815 0.041330826179319664 0.0014843905963431573 -0.039162721620412184 0.0 0.0
0.0 0.05578260383273219 -0.042815216775659505 0.04133082617931556 0.0014843905963439325 0.03916272162046418 0.0 0.0
0.0 0.06582060159570743 -0.05144678785064732 0.05020911388542905 0.0012376739652182561 0.0434219329877716 0.0 0.0
0.0 0.06572060211171989 -0.05198180289807959 0.0508403869158945 0.0011414159821850512 0.04125788588358452 0.0 0.0
0.0 0.061149416922640865 -0.048644078404625535 0.04757506976309478 0.0010690086415307666 0.03679053575771511 0.0 0.0
0.0 0.0542620127854197 -0.04339745905871881 0.04238607784318777 0.0010113812155310418 0.0320889589190175 0.0 0.0
0.0 0.046613469151644785 -0.03727808242437815 0.03632837255474647 0.0009497098696316851 0.028003229008513382 0.0 0.0
0.0 0.03881019136707629 -0.03094872817029143 0.030060971854420547 0.0008877563158708773 0.02440166017987807 0.0 0.0
0.0 0.03138221697994022 -0.02484492078244302 0.024015700611661684 0.0008292201707813223 0.02099133737938585 0.0 0.0
0.0 0.02448651301898865 -0.01917783985305393 0.018406258297745143 0.000771581555308785 0.017550984310051497 0.0 0.0
0.0 0.018172160839552733 -0.014007726643756463 0.0132991187606344 0.0007086078831220639 0.013986681130996916 0.0 0.0
0.0 0.012344996892606618 -0.00938314557004343 0.008753476612791078 0.0006296689572523514 0.010335586617482252 0.0 0.0
0.0 0.007471758131697329 -0.005448083104186227 0.004939260851962179 0.0005088222522240455 0.006853876307178342 0.0 0.0
0.0 0.0036393594089656695 -0.0025046218245800165 0.002178803218596244 0.00032581860598377294 0.0038698961790305957 0.0 0.0
0.0 0.0013338566274533155 -0.0007966893761142065 0.0006649203575284136 0.00013176901858579285 0.0016557864047693507 0.0 0.0
0.0 0.00035469220081018704 -0.00016794359649052114 0.0001370804125174315 3.086318397308954e-05 0.0004793170014360227 0.0 0.0
0.0 8.769113845528737e-05 -3.290598966695376e-05 2.701828452298393e-05 5.8877051439697885e-06 0.00011941926150484175 0.0 0.0
0.0 2.870318287217295e-05 -7.463416692588795e-06 6.21039015109074e-06 1.2530265414980373e-06 3.282618294944997e-05 0.0 0.0
0.0 1.0628558485814885e-05 -2.027339527278131e-06 1.6684676585506004e-06 3.5887186872753686e-07 1.1753079409524794e-05 0.0 0.0
0.0 1.8438070403535945e-06 -1.811408405497216e-08 1.8962062065859907e-08 -8.47978010891459e-10 1.9681481311460834e-07 0.0 0.0
0.0 0.0 0.0 0.0 0.0 0.0 0.0 0.0
0.0 0.0 0.0 0.0 0.0 0.0 0.0 0.0
0.0 4.063806097121623e-07 8.83875332606981e-09 -5.922659735395461e-09 -2.916093590674856e-09 8.037141172206253e-08 0.0 0.0
0.0 6.79046888338936e-06 -1.598469164101071e-06 1.304615223333502e-06 2.938539407675645e-07 -7.102029447922631e-06 0.0 0.0
0.0 2.8028857768014197e-05 -1.03876793081762e-05 8.551525005005842e-06 1.8361543031703445e-06 -3.351971246514079e-05 0.0 0.0
0.0 0.00011978488048795947 -5.932930540876559e-05 4.8420587145512115e-05 1.0908718263253509e-05 -0.00014634802435812595 0.0 0.0
0.0 0.0006185887054079055 -0.0003909165232131831 0.00032160190019088177 6.931462302230141e-05 -0.0007160889101285716 0.0 0.0
0.0 0.002321275961348243 -0.001677121233023804 0.0014329700107831972 0.0002441512222406064 -0.0022646422554129563 0.0 0.0
0.0 0.00583998162162097 -0.004478567286359143 0.004014010058233387 0.0004645572281257542 -0.004824082959367387 0.0 0.0
0.0 0.01117899960813241 -0.008800176588303513 0.008179014689892804 0.000621161898410712 -0.008249556051654542 0.0 0.0
0.0 0.017910747560738304 -0.01434941586916844 0.01362764228191279 0.0007217735872556463 -0.01221829794776301 0.0 0.0
0.0 0.025717792718128112 -0.02081745311154165 0.02001979935983314 0.0007976537517085018 -0.01628380401526515 0.0 0.0
0.0 0.03439046610184749 -0.02804608536099716 0.027180096703186562 0.0008659886578105746 -0.020178081336327994 0.0 0.0
0.0 0.04387631583406211 -0.03598369015855588 0.03505300802672044 0.000930682131835435 -0.023900338471238142 0.0 0.0
0.0 0.054070856924118185 -0.04457882227145335 0.043581829909725714 0.0009969923617276588 -0.027600563606457344 0.0 0.0
0.0 0.06488644541084117 -0.053624844544330814 0.05255692983347518 0.0010679147108555724 -0.031630444182067556 0.0 0.0
0.0 0.07579599432338394 -0.06262348719046375 0.06147896213880305 0.0011445250516606495 -0.03645831696779581 0.0 0.0
0.0 0.08566739940296263 -0.0706363164956112 0.06940681000437876 0.0012295064912323786 -0.04213040786699567 0.0 0.0
0.0 0.0926018957198329 -0.0760455893746405 0.07471630352509567 0.0013292858495447292 -0.04750349953192643 0.0 0.0
0.0 0.09299275604895685 -0.07605108511779446 0.0745731462286798 0.0014779388891146194 -0.04970891409996652 0.0 0.0
0.0 0.08075899890319588 -0.06556361784508472 0.06386231098260878 0.001701306862475947 -0.04549574102245031 0.0 0.0
0.0 0.08075899890320226 -0.06556361784508069 0.06386231098260511 0.001701306862475539 0.04549574102250893 0.0 0.0
0.0 0.09299275604895244 -0.07605108511777835 0.07457314622866465 0.0014779388891136935 0.049708914100044105 0.0 0.0
0.0 0.09260189571980981 -0.07604558937461095 0.07471630352506753 0.0013292858495433841 0.047503499531982116 0.0 0.0
0.0 0.08566739940291676 -0.07063631649556733 0.06940681000433668 0.0012295064912306404 0.042130407867010174 0.0 0.0
0.0 0.07579599432331748 -0.06262348719040649 0.06147896213874645 0.0011445250516600397 0.03645831696777816 0.0 0.0
0.0 0.06488644541077744 -0.05362484454427695 0.05255692983342169 0.0010679147108552263 0.031630444182045026 0.0 0.0
0.0 0.05407085692405642 -0.0445788222714012 0.0435818299096742 0.000996992361727025 0.027600563606433565 0.0 0.0
0.0 0.04387631583400372 -0.03598369015850575 0.03505300802667129 0.0009306821318344651 0.02390033847121991 0.0 0.0
0.0 0.034390466101790855 -0.028046085360949366 0.027180096703139416 0.0008659886578099244 0.020178081336303416 0.0 0.0
0.0 0.02571779271807488 -0.020817453111498168 0.02001979935979048 0.0007976537517076867 0.016283804015233508 0.0 0.0
0.0 0.01791074756068811 -0.014349415869128556 0.013627642281873555 0.0007217735872550005 0.01221829794772833 0.0 0.0
0.0 0.01117899960809739 -0.008800176588275824 0.008179014689865744 0.0006211618984100873 0.008249556051632216 0.0 0.0
0.0 0.005839981621597757 -0.0044785672863409415 0.004014010058216301 0.00046455722812463853 0.004824082959351236 0.0 0.0
0.0 0.002321275961335481 -0.0016771212330146112 0.0014329700107750967 0.0002441512222395141 0.0022646422554025046 0.0 0.0
0.0 0.0006185887054026116 -0.00039091652321033936 0.00032160190018849387 6.931462302184559e-05 0.0007160889101240308 0.0 0.0
0.0 0.00011978488048659637 -5.932930540859205e-05 4.84205871453606e-05 1.0908718263231425e-05 0.00014634802435765267 0.0 0.0
0.0 2.8028857767447318e-05 -1.038767930840343e-05 8.551525005188232e-06 1.8361543032151945e-06 3.351971246581044e-05 0.0 0.0
0.0 6.790468882918687e-06 -1.598469164246288e-06 1.3046152234508784e-06 2.938539407954086e-07 7.102029448573604e-06 0.0 0.0
0.0 4.063806093257621e-07 8.838753319458759e-09 -5.922659733024222e-09 -2.916093586432878e-09 -8.037141164573473e-08 0.0 0.0
0.0 0.0 0.0 0.0 0.0 0.0 0.0 0.0
0.0 0.0 0.0 0.0 0.0 0.0 0.0 0.0
0.0 0.0 0.0 0.0 0.0 0.0 0.0 0.0
0.0 3.0993867218164275e-06 -8.466137765997262e-07 6.888376152323529e-07 1.577761613673768e-07 -2.960608684001714e-06 0.0 0.0
0.0 2.6734682834888152e-05 -1.0102148980623505e-05 8.231439849227468e-06 1.87070913139605e-06 -2.4378357718074576e-05 0.0 0.0
0.0 0.00019295337367764603 -0.00011203390010695253 9.117568733060737e-05 2.0858212776345167e-05 -0.00019386604597499123 0.0 0.0
0.0 0.0010655216976509646 -0.0007903381584356411 0.0006582794621320077 0.0001320586963036334 -0.0009840109032896076 0.0 0.0
0.0 0.003622767732777427 -0.002852321969496999 0.002494304937659223 0.0003580170318377763 -0.0026926772440905517 0.0 0.0
0.0 0.008325989784057252 -0.00674073838627319 0.006177052306075197 0.000563686080197992 -0.005399011251998496 0.0 0.0
0.0 0.015086041162563537 -0.012394759843741993 0.011700210698033958 0.0006945491457080325 -0.009032815609753763 0.0 0.0
0.0 0.023574067806119123 -0.019507098213776178 0.018719685506749826 0.0007874127070263542 -0.01315144584285275 0.0 0.0
0.0 0.03342691337777889 -0.02779040087811971 0.026922010688215516 0.0008683901899041847 -0.017308514926424635 0.0 0.0
0.0 0.04441726081327141 -0.03706963195393444 0.036125320444565304 0.0009443115093691343 -0.02129461243170834 0.0 0.0
0.0 0.05643979940459308 -0.04727101928114012 0.046254195073849425 0.0010168242072906566 -0.025099633051538055 0.0 0.0
0.0 0.06946817628798335 -0.05834962964242235 0.05725983961200419 0.0010897900304181769 -0.02885024380048046 0.0 0.0
0.0 0.08338398885948196 -0.0701222745109567 0.06895212436641468 0.0011701501445420233 -0.032946800204689625 0.0 0.0
0.0 0.09733991273464485 -0.0820046472936734 0.08074071081802917 0.0012639364756442295 -0.037921920098657635 0.0 0.0
0.0 0.11033230928049666 -0.09271809766294743 0.0913432984685702 0.0013747991943771768 -0.0438656441899417 0.0 0.0
0.0 0.1193200322998928 -0.10000004491662409 0.09848899274950682 0.0015110521671172598 -0.04957891161368155 0.0 0.0
0.0 0.11988407146854384 -0.10020998616740653 0.09853070308832618 0.0016792830790803054 -0.05248567881428136 0.0 0.0
0.0 0.10595558013056111 -0.08794595169894082 0.0860726322242263 0.001873319474714525 -0.05088211027526848 0.0 0.0
0.0 0.10595558013056305 -0.08794595169893414 0.08607263222421929 0.001873319474714836 0.0508821102753291 0.0 0.0
0.0 0.11988407146852448 -0.10020998616738035 0.09853070308829948 0.0016792830790808148 0.052485678814355265 0.0 0.0
0.0 0.11932003229985164 -0.1000000449165812 0.0984889927494636 0.0015110521671175075 0.04957891161373763 0.0 0.0
0.0 0.1103323092804323 -0.09271809766288908 0.09134329846851173 0.0013747991943772624 0.04386564418995445 0.0 0.0
0.0 0.09733991273456842 -0.08200464729360724 0.08074071081796305 0.0012639364756441354 0.0379219200986446 0.0 0.0
0.0 0.08338398885940547 -0.07012227451089087 0.06895212436634929 0.0011701501445415831 0.03294680020467111 0.0 0.0
0.0 0.06946817628790483 -0.05834962964235529 0.05725983961193752 0.001089790030417777 0.02885024380045615 0.0 0.0
0.0 0.05643979940451264 -0.047271019281071316 0.04625419507378067 0.0010168242072906206 0.025099633051515205 0.0 0.0
0.0 0.044417260813194435 -0.037069631953868906 0.036125320444500314 0.0009443115093685787 0.021294612431680425 0.0 0.0
0.0 0.03342691337771039 -0.027790400878062522 0.026922010688159113 0.0008683901899033885 0.017308514926390427 0.0 0.0
0.0 0.023574067806059033 -0.019507098213726613 0.01871968550670074 0.0007874127070258701 0.013151445842817308 0.0 0.0
0.0 0.015086041162519773 -0.01239475984370576 0.011700210697998228 0.0006945491457075376 0.009032815609730776 0.0 0.0
0.0 0.008325989784029679 -0.006740738386250717 0.00617705230605364 0.0005636860801970764 0.005399011251982791 0.0 0.0
0.0 0.003622767732760339 -0.00285232196948375 0.0024943049376471176 0.00035801703183663286 0.0026926772440796273 0.0 0.0
0.0 0.0010655216976416105 -0.0007903381584293005 0.0006582794621265565 0.0001320586963027437 0.00098401090328213 0.0 0.0
0.0 0.00019295337367582145 -0.00011203390010645109 9.117568733019865e-05 2.0858212776252356e-05 0.00019386604597424368 0.0 0.0
0.0 2.673468283442106e-05 -1.010214898085858e-05 8.231439849410276e-06 1.8707091314483165e-06 2.4378357718610985e-05 0.0 0.0
0.0 3.0993867217548986e-06 -8.466137767352363e-07 6.888376153418908e-07 1.577761613933433e-07 2.960608684478993e-06 0.0 0.0
0.0 0.0 0.0 0.0 0.0 0.0 0.0 0.0
0.0 0.0 0.0 0.0 0.0 0.0 0.0 0.0
0.0 0.0 0.0 0.0 0.0 0.0 0.0 0.0
0.0 0.0 0.0 0.0 0.0 0.0 0.0 0.0
0.0 9.159772724021529e-07 5.630253744311479e-08 -4.536700834069255e-08 -1.0935529102421052e-08 1.5681455061216043e-07 0.0 0.0
0.0 2.4658319007540575e-05 -1.3793971712664788e-05 1.1135376374093846e-05 2.658595338570978e-06 -2.5156492723752208e-05 0.0 0.0
0.0 0.000316865269341877 -0.00022641786366041632 0.00018448321660969322 4.193464705072311e-05 -0.00027916236924060506 0.0 0.0
0.0 0.0017296868008783034 -0.0013775255224107005 0.0011647697771998782 0.0002127557452108227 -0.0011856744352564579 0.0 0.0
0.0 0.005208905138654566 -0.004256063621663347 0.0038004336877259653 0.00045562993393738303 -0.0028820974170139374 0.0 0.0
0.0 0.0109448656715993 -0.009207314097396176 0.008574135409754123 0.0006331786876420509 -0.0055750929532510166 0.0 0.0
0.0 0.019112058497404445 -0.01613176015198351 0.015384973428560699 0.0007467867234228235 -0.009120446573750265 0.0 0.0
0.0 0.029328437851863558 -0.024770676436011264 0.023930032062517866 0.0008406443734933979 -0.013084296066327055 0.0 0.0
0.0 0.04121411789715544 -0.03485630090114464 0.033927606493050926 0.0009286944080936855 -0.017102551321566326 0.0 0.0
0.0 0.054496319129149734 -0.046184852768916485 0.04517177660513157 0.001013076163784847 -0.020953415447930314 0.0 0.0
0.0 0.06912214147154945 -0.05864652318885271 0.05755249729026979 0.0010940258985829327 -0.024634677923110165 0.0 0.0
0.0 0.08483404985799407 -0.07218580616942441 0.07101172698433836 0.001174079185086085 -0.028233337550261087 0.0 0.0
0.0 0.10169225696254386 -0.08662764081128517 0.08536480733485248 0.0012628334764326753 -0.031995558367272435 0.0 0.0
0.0 0.11898948756507133 -0.10131789906596794 0.09994477909274507 0.0013731199732228703 -0.03644736036314529 0.0 0.0
0.0 0.13458338896606917 -0.11465267468837524 0.11314164015654808 0.001511034531827084 -0.04196399205940627 0.0 0.0
0.0 0.145414526828059 -0.1237207694572579 0.12204488655956686 0.0016758828976910587 -0.04787809118751134 0.0 0.0
0.0 0.14648976568864303 -0.12420928284331698 0.122354703706448 0.0018545791368689318 -0.05263768429845722 0.0 0.0
0.0 0.13169630280259015 -0.11050538471352199 0.10847355962239905 0.0020318250911229374 -0.05577684690736255 0.0 0.0
0.0 0.13169630280258585 -0.1105053847135111 0.10847355962238771 0.0020318250911233356 0.05577684690742266 0.0 0.0
0.0 0.14648976568861288 -0.12420928284328328 0.12235470370641326 0.0018545791368699482 0.05263768429853202 0.0 0.0
0.0 0.1454145268280062 -0.12372076945720642 0.12204488655951495 0.0016758828976914412 0.04787809118756764 0.0 0.0
0.0 0.1345833889659955 -0.11465267468830886 0.11314164015648245 0.0015110345318263495 0.04196399205942154 0.0 0.0
0.0 0.11898948756498492 -0.10131789906589257 0.09994477909267052 0.0013731199732220508 0.03644736036313635 0.0 0.0
0.0 0.10169225696244938 -0.08662764081120321 0.08536480733477107 0.001262833476432097 0.03199555836725896 0.0 0.0
0.0 0.08483404985790269 -0.07218580616934558 0.07101172698426032 0.0011740791850852138 0.028233337550239296 0.0 0.0
0.0 0.06912214147146094 -0.05864652318877564 0.05755249729019382 0.0010940258985817578 0.02463467792309184 0.0 0.0
0.0 0.05449631912905836 -0.04618485276883787 0.045171776605053525 0.0010130761637843376 0.0209534154479039 0.0 0.0
0.0 0.041214117897072855 -0.034856300901074805 0.03392760649298153 0.0009286944080932851 0.017102551321532183 0.0 0.0
0.0 0.02932843785179454 -0.024770676435953373 0.02393003206246057 0.0008406443734928035 0.01308429606629331 0.0 0.0
0.0 0.019112058497352397 -0.016131760151939123 0.015384973428517164 0.0007467867234219542 0.009120446573728305 0.0 0.0
0.0 0.010944865671560968 -0.009207314097363986 0.008574135409722551 0.0006331786876414276 0.005575092953232868 0.0 0.0
0.0 0.005208905138631993 -0.004256063621644972 0.0038004336877086905 0.00045562993393628176 0.002882097417002613 0.0 0.0
0.0 0.0017296868008667096 -0.0013775255224019645 0.0011647697771921689 0.0002127557452097948 0.0011856744352492757 0.0 0.0
0.0 0.0003168652693381567 -0.00022641786365835395 0.00018448321660797054 4.1934647050383266e-05 0.000279162369238295 0.0 0.0
0.0 2.4658319006769846e-05 -1.3793971712555133e-05 1.113537637399817e-05 2.6585953385569425e-06 2.51564927235617e-05 0.0 0.0
0.0 9.159772720464821e-07 5.630253742091469e-08 -4.5367008322703315e-08 -1.0935529098212496e-08 -1.5681455054918204e-07 0.0 0.0
0.0 0.0 0.0 0.0 0.0 0.0 0.0 0.0
0.0 0.0 0.0 0.0 0.0 0.0 0.0 0.0
0.0 0.0 0.0 0.0 0.0 0.0 0.0 0.0
0.0 0.0 0.0 0.0 0.0 0.0 0.0 0.0
0.0 2.633745482838499e-07 1.9034837468267232e-08 -1.5232417022672714e-08 -3.80242044559584e-09 3.959451352121644e-08 0.0 0.0
0.0 2.8400596584264444e-05 -1.9267525566745923e-05 1.546663328743755e-05 3.800892279308393e-06 -2.586242207645497e-05 0.0 0.0
0.0 0.0005412624243559466 -0.00042607971324859007 0.00034881967404301893 7.726003920557126e-05 -0.0003633435485346864 0.0 0.0
0.0 0.002607755754717215 -0.002143165737996485 0.0018438309205178543 0.0002993348174786323 -0.0012624813335688262 0.0 0.0
0.0 0.006798954366177081 -0.005850281341790957 0.005317442966002456 0.0005328383757885022 -0.0028455951751684655 0.0 0.0
0.0 0.01370012534606446 -0.011793073855859851 0.011112165698611088 0.0006809081572487723 -0.0052919627668475315 0.0 0.0
0.0 0.023264029541338514 -0.019938680300393127 0.019150782895768218 0.0007878974046249068 -0.00846161300630409 0.0 0.0
0.0 0.035141510539268686 -0.030086007140777495 0.029199890397055308 0.0008861167437222016 -0.012046108243438765 0.0 0.0
0.0 0.0490256001957936 -0.041962299211511206 0.04098085814195086 0.0009814410695603043 -0.015679517940664602 0.0 0.0
0.0 0.06463074145751255 -0.05534002062076636 0.054265311413383394 0.0010747092073829369 -0.01916830856727183 0.0 0.0
0.0 0.0817590009340908 -0.07006576571831985 0.06890057509589484 0.0011651906224249722 -0.022529253017796225 0.0 0.0
0.0 0.1003219731486634 -0.08602733239886305 0.08477279509703453 0.0012545373018284939 -0.025761005963998444 0.0 0.0
0.0 0.12004365223340065 -0.10301761181368375 0.10166697405864772 0.0013506377550360435 -0.02888852400359462 0.0 0.0
0.0 0.13995645433844278 -0.12035362381546844 0.1188817028105833 0.0014719210048851174 -0.032233002369926066 0.0 0.0
0.0 0.15844022564882526 -0.13622384818369718 0.1345908384585847 0.0016330097251124529 -0.036571970735602664 0.0 0.0
0.0 0.17144152587646258 -0.14720480388900803 0.14538276061150368 0.0018220432775043658 -0.04256931791808547 0.0 0.0
0.0 0.17344299302014451 -0.1483701712126726 0.1463533504465584 0.002016820766114105 -0.05030965179593282 0.0 0.0
0.0 0.1581234095841782 -0.1336938148361546 0.13150409480900227 0.002189720027152228 -0.06020231175093336 0.0 0.0
0.0 0.15812340958417537 -0.1336938148361451 0.13150409480899358 0.002189720027151572 0.06020231175099174 0.0 0.0
0.0 0.17344299302011681 -0.14837017121264118 0.1463533504465295 0.0020168207661117083 0.05030965179600383 0.0 0.0
0.0 0.1714415258764052 -0.14720480388895357 0.14538276061145114 0.0018220432775023759 0.04256931791813497 0.0 0.0
0.0 0.1584402256487388 -0.1362238481836211 0.13459083845850883 0.0016330097251122235 0.036571970735613 0.0 0.0
0.0 0.13995645433834417 -0.1203536238153824 0.11888170281049858 0.0014719210048837444 0.03223300236991858 0.0 0.0
0.0 0.12004365223330077 -0.10301761181359648 0.10166697405856219 0.0013506377550342214 0.028888524003585422 0.0 0.0
0.0 0.10032197314855325 -0.08602733239876806 0.08477279509694007 0.0012545373018279593 0.0257610059639797 0.0 0.0
0.0 0.08175900093397859 -0.07006576571822304 0.06890057509579811 0.0011651906224249228 0.02252925301777703 0.0 0.0
0.0 0.06463074145740924 -0.055340020620677166 0.05426531141329473 0.0010747092073824483 0.019168308567247862 0.0 0.0
0.0 0.049025600195701693 -0.04196229921143229 0.040980858141872564 0.0009814410695597282 0.01567951794063426 0.0 0.0
0.0 0.03514151053918749 -0.03008600714070807 0.02919989039698634 0.0008861167437217304 0.012046108243408588 0.0 0.0
0.0 0.02326402954127602 -0.019938680300339382 0.01915078289571453 0.0007878974046248575 0.008461613006283935 0.0 0.0
0.0 0.013700125346018617 -0.011793073855820393 0.011112165698572207 0.000680908157248186 0.005291962766830627 0.0 0.0
0.0 0.006798954366147792 -0.005850281341766217 0.005317442965978395 0.0005328383757878209 0.002845595175156407 0.0 0.0
0.0 0.002607755754704004 -0.0021431657379862813 0.0018438309205085627 0.0002993348174777186 0.0012624813335630081 0.0 0.0
0.0 0.0005412624243518652 -0.0004260797132461293 0.00034881967404094187 7.72600392051872e-05 0.0003633435485328266 0.0 0.0
0.0 2.8400596583948335e-05 -1.926752556709359e-05 1.5466633287705632e-05 3.8008922793879648e-06 2.5862422076895127e-05 0.0 0.0
0.0 2.633745479801639e-07 1.90348374459991e-08 -1.5232417004860948e-08 -3.802420441135515e-09 -3.959451347502403e-08 0.0 0.0
0.0 0.0 0.0 0.0 0.0 0.0 0.0 0.0
0.0 0.0 0.0 0.0 0.0 0.0 0.0 0.0
0.0 0.0 0.0 0.0 0.0 0.0 0.0 0.0
0.0 0.0 0.0 0.0 0.0 0.0 0.0 0.0
0.0 0.0 0.0 0.0 0.0 0.0 0.0 0.0
0.0 4.4740309905165246e-05 -3.4587084138393355e-05 2.7773823678410044e-05 6.813260459983323e-06 -3.2430304196944455e-05 0.0 0.0
0.0 0.0009062675015769386 -0.000741670087328129 0.0006122685333710416 0.0001294015539570873 -0.0004081181040426866 0.0 0.0
0.0 0.003624157421654268 -0.0030744971075986967 0.00269074837701777 0.00038374873058092724 -0.0011923702434940727 0.0 0.0
0.0 0.008608321810829288 -0.00755829156381166 0.00696780326166715 0.0005904883021445078 -0.002492539434863438 0.0 0.0
0.0 0.01659059743738344 -0.014433413930263636 0.013717334510698665 0.0007160794195649688 -0.004475099125544936 0.0 0.0
0.0 0.02746175748465088 -0.023772074667224335 0.022950227557261317 0.0008218471099630041 -0.007082615470004416 0.0 0.0
0.0 0.040989383382059784 -0.03540436455982594 0.03447902751691741 0.0009253370429085365 -0.01004710604668209 0.0 0.0
0.0 0.05687721505626871 -0.04905945688431739 0.048031139577485865 0.0010283173068314942 -0.013057670245387652 0.0 0.0
0.0 0.07474406333006947 -0.0644866498133613 0.06335626864544716 0.0011303811679141485 -0.015945345454849418 0.0 0.0
0.0 0.09452430524505336 -0.08147962362565653 0.08024806368108384 0.0012315599445726663 -0.018742999160378533 0.0 0.0
0.0 0.1156417349160259 -0.09983493770184512 0.09850223684586412 0.001332700855980997 -0.02144364820173792 0.0 0.0
0.0 0.137983437831171 -0.11922554069557123 0.11778751327624196 0.0014380274193292624 -0.023810508029657024 0.0 0.0
0.0 0.16070492003384879 -0.1389257154646117 0.13736309869237662 0.0015626167722349563 -0.02567952383245412 0.0 0.0
0.0 0.18179247559154094 -0.1571886204830159 0.15545878116199272 0.0017298393210231678 -0.02802288973421034 0.0 0.0
0.0 0.19727153441714318 -0.17042575254037678 0.1684760555192684 0.0019496970211083627 -0.03356676696794477 0.0 0.0
0.0 0.20095599586272406 -0.17298045604325107 0.17080996720868294 0.0021704888345681966 -0.045012421571009556 0.0 0.0
0.0 0.1859927056441857 -0.15801408102800701 0.15565411197651352 0.0023599690514934882 -0.06381559415197001 0.0 0.0
0.0 0.1859927056441737 -0.15801408102799203 0.15565411197649837 0.0023599690514936158 0.06381559415201524 0.0 0.0
0.0 0.20095599586267632 -0.17298045604320636 0.17080996720863723 0.0021704888345691845 0.045012421571066816 0.0 0.0
0.0 0.19727153441706152 -0.1704257525403047 0.16847605551919453 0.0019496970211101104 0.033566766967985995 0.0 0.0
0.0 0.1817924755914364 -0.15718862048292526 0.15545878116190168 0.001729839321023656 0.02802288973421818 0.0 0.0
0.0 0.1607049200337358 -0.13892571546451343 0.13736309869227947 0.0015626167722339363 0.02567952383245003 0.0 0.0
0.0 0.1379834378310496 -0.11922554069546576 0.11778751327613723 0.0014380274193285614 0.023810508029650894 0.0 0.0
0.0 0.11564173491590504 -0.0998349377017405 0.0985022368457602 0.0013327008559802893 0.021443648201723946 0.0 0.0
0.0 0.09452430524493495 -0.08147962362555362 0.08024806368098195 0.0012315599445717107 0.018742999160364933 0.0 0.0
0.0 0.07474406332995498 -0.06448664981326206 0.06335626864534889 0.0011303811679131519 0.01594534545483295 0.0 0.0
0.0 0.05687721505616519 -0.049059456884227796 0.04803113957739687 0.0010283173068309096 0.013057670245362224 0.0 0.0
0.0 0.04098938338197128 -0.03540436455974929 0.03447902751684155 0.0009253370429077427 0.010047106046657272 0.0 0.0
0.0 0.02746175748458032 -0.02377207466716293 0.022950227557200623 0.0008218471099623113 0.007082615469987169 0.0 0.0
0.0 0.016590597437335368 -0.014433413930221817 0.013717334510657191 0.0007160794195646279 0.004475099125531514 0.0 0.0
0.0 0.008608321810798016 -0.007558291563784273 0.006967803261640589 0.000590488302143685 0.0024925394348545103 0.0 0.0
0.0 0.0036241574216368875 -0.0030744971075841155 0.0026907483770044083 0.0003837487305797069 0.0011923702434884225 0.0 0.0
0.0 0.0009062675015694649 -0.0007416700873224678 0.0006122685333662405 0.00012940155395622726 0.0004081181040399124 0.0 0.0
0.0 4.474030990459863e-05 -3.458708413863817e-05 2.7773823678581727e-05 6.8132604600564604e-06 3.24303041971053e-05 0.0 0.0
0.0 0.0 0.0 0.0 0.0 0.0 0.0 0.0
0.0 0.0 0.0 0.0 0.0 0.0 0.0 0.0
0.0 0.0 0.0 0.0 0.0 0.0 0.0 0.0
0.0 0.0 0.0 0.0 0.0 0.0 0.0 0.0
0.0 0.0 0.0 0.0 0.0 0.0 0.0 0.0
0.0 0.0 0.0 0.0 0.0 0.0 0.0 0.0
0.0 9.663051144182651e-05 -7.930012899671366e-05 6.358911269267227e-05 1.5711016304041426e-05 -4.5049424513432614e-05 0.0 0.0
0.0 0.001438234916225811 -0.001187726427915535 0.0009931491799263538 0.00019457724798918122 -0.0003738901295362481 0.0 0.0
0.0 0.004619657167885225 -0.00414510953149856 0.0036858348518627325 0.0004592746796358281 -0.0009238800120886289 0.0 0.0
0.0 0.010562625602660577 -0.009326629556978541 0.008695868105851249 0.0006307614511272952 -0.0018101874154507244 0.0 0.0
0.0 0.01953061314967823 -0.017094539948805058 0.01635044865695736 0.000744091291847708 -0.003165920823637508 0.0 0.0
0.0 0.0316784100305367 -0.027587833937353066 0.02673810590274601 0.0008497280346070382 -0.004987743036379358 0.0 0.0
0.0 0.046835665857851046 -0.040679741447700736 0.03972061862644628 0.0009591228212544214 -0.0070895533133407485 0.0 0.0
0.0 0.0647002769861235 -0.05610229479523797 0.055032208033670565 0.0010700867615673656 -0.009227886307275427 0.0 0.0
0.0 0.08499197211203001 -0.07357575932953503 0.07239449600111214 0.0011812633284229012 -0.011279666722469479 0.0 0.0
0.0 0.10711310712651605 -0.09283802788206787 0.09154452597367145 0.00129350190839644 -0.013294776825576587 0.0 0.0
0.0 0.13097955862875008 -0.11356080247765904 0.11215267830545157 0.001408124172207416 -0.015214954571023223 0.0 0.0
0.0 0.15598667086928003 -0.13523451032385003 0.1337078021194638 0.001526708204386283 -0.016732987560791453 0.0 0.0
0.0 0.18105058810627442 -0.15699701882677713 0.15534334979951048 0.001653669027266617 -0.017368753953740584 0.0 0.0
0.0 0.2043886767714667 -0.1772781236538585 0.17547110181368708 0.0018070218401715797 -0.01740925011259161 0.0 0.0
0.0 0.22260935312372762 -0.19300896717877716 0.1909889510576123 0.002020016121164832 -0.02049316743050977 0.0 0.0
0.0 0.22938240720637937 -0.19829912651157283 0.1959673459372561 0.0023317805743165183 -0.034973232585918536 0.0 0.0
0.0 0.21596045516782314 -0.18421182608192055 0.18165274092839906 0.002559085153521331 -0.06577266021658199 0.0 0.0
0.0 0.21596045516780304 -0.18421182608190068 0.18165274092837827 0.0025590851535222175 0.06577266021661685 0.0 0.0
0.0 0.2293824072063197 -0.19829912651151924 0.19596734593720197 0.002331780574317239 0.034973232585964284 0.0 0.0
0.0 0.22260935312363656 -0.19300896717869687 0.19098895105753363 0.0020200161211633458 0.02049316743053992 0.0 0.0
0.0 0.2043886767713524 -0.17727812365375867 0.17547110181358863 0.0018070218401700017 0.01740925011259565 0.0 0.0
0.0 0.18105058810613958 -0.15699701882666073 0.1553433497993938 0.0016536690272668858 0.01736875395373521 0.0 0.0
0.0 0.15598667086913764 -0.13523451032372716 0.13370780211934008 0.0015267082043871009 0.016732987560788348 0.0 0.0
0.0 0.13097955862860935 -0.11356080247753714 0.11215267830533021 0.0014081241722069353 0.015214954571016195 0.0 0.0
0.0 0.1071131071263805 -0.09283802788195007 0.09154452597355475 0.0012935019083953378 0.013294776825568178 0.0 0.0
0.0 0.08499197211190132 -0.07357575932942291 0.07239449600100112 0.001181263328421809 0.011279666722459666 0.0 0.0
0.0 0.06470027698600803 -0.0561022947951378 0.05503220803357135 0.0010700867615664252 0.00922788630725696 0.0 0.0
0.0 0.04683566585775167 -0.040679741447614604 0.0397206186263606 0.0009591228212540032 0.00708955331332216 0.0 0.0
0.0 0.031678410030461 -0.027587833937286733 0.026738105902680265 0.0008497280346064661 0.004987743036368859 0.0 0.0
0.0 0.019530613149620027 -0.017094539948753894 0.016350448656906956 0.0007440912918469288 0.0031659208236286115 0.0 0.0
0.0 0.010562625602623464 -0.009326629556945704 0.00869586810581909 0.0006307614511266143 0.0018101874154435099 0.0 0.0
0.0 0.004619657167865297 -0.0041451095314808655 0.003685834851846063 0.0004592746796348023 0.000923880012084378 0.0 0.0
0.0 0.0014382349162170374 -0.0011877264279086478 0.0009931491799203473 0.00019457724798830072 0.00037389012953432975 0.0 0.0
0.0 9.663051144036832e-05 -7.930012899628409e-05 6.35891126923e-05 1.5711016303984027e-05 4.504942451320433e-05 0.0 0.0
0.0 0.0 0.0 0.0 0.0 0.0 0.0 0.0
0.0 0.0 0.0 0.0 0.0 0.0 0.0 0.0
0.0 0.0 0.0 0.0 0.0 0.0 0.0 0.0
0.0 0.0 0.0 0.0 0.0 0.0 0.0 0.0
0.0 0.0 0.0 0.0 0.0 0.0 0.0 0.0
0.0 0.0 0.0 0.0 0.0 0.0 0.0 0.0
0.0 0.00023094318396070385 -0.00020110108681937284 0.00016114041209066874 3.996067472870419e-05 -4.807851817403371e-05 0.0 0.0
0.0 0.002140111814843455 -0.0017555847991506282 0.0014882184107370823 0.0002673663884135447 -0.00021692176350223848 0.0 0.0
0.0 0.005891573796910028 -0.005286913942249228 0.004767720022835293 0.0005191939194139348 -0.0004339104732356075 0.0 0.0
0.0 0.012581067566686633 -0.01112935972532284 0.010467877679772149 0.0006614820455506876 -0.0007958230566305576 0.0 0.0
0.0 0.022510800153298805 -0.019738095685249264 0.018972013233007408 0.0007660824522418511 -0.0013681729847142064 0.0 0.0
0.0 0.035908332423027794 -0.03134169335561286 0.030468834889052877 0.0008728584665599711 -0.0021854079711338226 0.0 0.0
0.0 0.05270303469104752 -0.045865054196805734 0.04487711879348274 0.0009879354033230233 -0.003167885756405242 0.0 0.0
0.0 0.07261707339583126 -0.06304619049197975 0.061939028013461614 0.0011071624785181826 -0.004186337210552569 0.0 0.0
0.0 0.09499582213812599 -0.082566434920422 0.08133823570825006 0.0012281992121718878 -0.005179544886574778 0.0 0.0
0.0 0.11974523061133686 -0.10407790367609228 0.10272651756352062 0.0013513861125716222 -0.0061432702254678746 0.0 0.0
0.0 0.14634790100210845 -0.12713805976794543 0.12565894426524757 0.0014791155026978133 -0.007006257023061662 0.0 0.0
0.0 0.1739293349603633 -0.15105225102802441 0.14943945218409355 0.0016127988439309227 -0.00757697111659107 0.0 0.0
0.0 0.20123211021107695 -0.17471374768342263 0.17296282880515446 0.0017509188782681004 -0.007466781574464702 0.0 0.0
0.0 0.22636164814606327 -0.19650707797812456 0.19461529806778005 0.0018917799103444959 -0.0063010030657450365 0.0 0.0
0.0 0.2466203659873209 -0.21409579075057666 0.2120428841619409 0.0020529065886355532 -0.0055537197088659715 0.0 0.0
0.0 0.25758040408416616 -0.22335916986567747 0.22105325790037625 0.0023059119653010755 -0.01568236614507988 0.0 0.0
0.0 0.24984653561577985 -0.21429641836102245 0.2113569233530139 0.002939495008008509 -0.06069906933382022 0.0 0.0
0.0 0.24984653561575831 -0.21429641836100277 0.211356923352994 0.0029394950080084982 0.06069906933383552 0.0 0.0
0.0 0.257580404084105 -0.22335916986562349 0.22105325790032354 0.0023059119652997662 0.01568236614510267 0.0 0.0
0.0 0.24662036598721299 -0.21409579075048313 0.2120428841618477 0.002052906588635352 0.005553719708879284 0.0 0.0
0.0 0.22636164814592688 -0.19650707797800654 0.19461529806766226 0.0018917799103443697 0.006301003065743556 0.0 0.0
0.0 0.20123211021092888 -0.1747137476832941 0.17296282880502678 0.0017509188782671038 0.00746678157445977 0.0 0.0
0.0 0.17392933496021246 -0.15105225102789316 0.14943945218396354 0.0016127988439294918 0.007576971116590943 0.0 0.0
0.0 0.14634790100195783 -0.12713805976781464 0.12565894426511787 0.0014791155026966875 0.007006257023057101 0.0 0.0
0.0 0.11974523061118639 -0.10407790367596187 0.10272651756339073 0.0013513861125711132 0.006143270225462726 0.0 0.0
0.0 0.09499582213797965 -0.08256643492029525 0.08133823570812385 0.0012281992121713889 0.005179544886571475 0.0 0.0
0.0 0.07261707339570238 -0.06304619049186796 0.0619390280133504 0.0011071624785175327 0.0041863372105422954 0.0 0.0
0.0 0.05270303469093795 -0.045865054196710914 0.04487711879338832 0.000987935403322606 0.003167885756395908 0.0 0.0
0.0 0.035908332422942654 -0.03134169335553849 0.030468834888979043 0.0008728584665594415 0.002185407971129314 0.0 0.0
0.0 0.022510800153235602 -0.01973809568519358 0.01897201323295227 0.0007660824522412826 0.0013681729847099357 0.0 0.0
0.0 0.012581067566642306 -0.0111293597252837 0.010467877679733536 0.0006614820455501675 0.0007958230566278343 0.0 0.0
0.0 0.0058915737968865765 -0.0052869139422280454 0.004767720022814922 0.0005191939194131215 0.00043391047323381414 0.0 0.0
0.0 0.002140111814832527 -0.001755584799141841 0.00148821841072925 0.0002673663884125919 0.0002169217635014719 0.0 0.0
0.0 0.00023094318395756994 -0.00020110108681717132 0.00016114041208887988 3.996067472829143e-05 4.807851817357932e-05 0.0 0.0
0.0 0.0 0.0 0.0 0.0 0.0 0.0 0.0
0.0 0.0 0.0 0.0 0.0 0.0 0.0 0.0
0.0 0.0 0.0 0.0 0.0 0.0 0.0 0.0