# vtk DataFile Version 3.0
Some data
ASCII
DATASET UNSTRUCTURED_GRID
POINTS 861 float
0.0 0.0 0.0
0.4 0.0 0.0
0.8 0.0 0.0
1.2000000000000002 0.0 0.0
1.6 0.0 0.0
2.0 0.0 0.0
2.4000000000000004 0.0 0.0
2.8000000000000003 0.0 0.0
3.2 0.0 0.0
3.6 0.0 0.0
4.0 0.0 0.0
4.4 0.0 0.0
4.800000000000001 0.0 0.0
5.2 0.0 0.0
5.6000000000000005 0.0 0.0
6.0 0.0 0.0
6.4 0.0 0.0
6.800000000000001 0.0 0.0
7.2 0.0 0.0
7.6000000000000005 0.0 0.0
8.0 0.0 0.0
8.4 0.0 0.0
8.8 0.0 0.0
9.200000000000001 0.0 0.0
9.600000000000001 0.0 0.0
10.0 0.0 0.0
10.4 0.0 0.0
10.8 0.0 0.0
11.200000000000001 0.0 0.0
11.600000000000001 0.0 0.0
12.0 0.0 0.0
12.4 0.0 0.0
12.8 0.0 0.0
13.200000000000001 0.0 0.0
13.600000000000001 0.0 0.0
14.0 0.0 0.0
14.4 0.0 0.0
14.8 0.0 0.0
15.200000000000001 0.0 0.0
15.600000000000001 0.0 0.0
16.0 0.0 0.0
0.0 0.1 0.0
0.4 0.1 0.0
0.8 0.1 0.0
1.2000000000000002 0.1 0.0
1.6 0.1 0.0
2.0 0.1 0.0
2.4000000000000004 0.1 0.0
2.8000000000000003 0.1 0.0
3.2 0.1 0.0
3.6 0.1 0.0
4.0 0.1 0.0
4.4 0.1 0.0
4.800000000000001 0.1 0.0
5.2 0.1 0.0
5.6000000000000005 0.1 0.0
6.0 0.1 0.0
6.4 0.1 0.0
6.800000000000001 0.1 0.0
7.2 0.1 0.0
7.6000000000000005 0.1 0.0
8.0 0.1 0.0
8.4 0.1 0.0
8.8 0.1 0.0
9.200000000000001 0.1 0.0
9.600000000000001 0.1 0.0
10.0 0.1 0.0
10.4 0.1 0.0
10.8 0.1 0.0
11.200000000000001 0.1 0.0
11.600000000000001 0.1 0.0
12.0 0.1 0.0
12.4 0.1 0.0
12.8 0.1 0.0
13.200000000000001 0.1 0.0
13.600000000000001 0.1 0.0
14.0 0.1 0.0
14.4 0.1 0.0
14.8 0.1 0.0
15.200000000000001 0.1 0.0
15.600000000000001 0.1 0.0
16.0 0.1 0.0
0.0 0.2 0.0
0.4 0.2 0.0
0.8 0.2 0.0
1.2000000000000002 0.2 0.0
1.6 0.2 0.0
2.0 0.2 0.0
2.4000000000000004 0.2 0.0
2.8000000000000003 0.2 0.0
3.2 0.2 0.0
3.6 0.2 0.0
4.0 0.2 0.0
4.4 0.2 0.0
4.800000000000001 0.2 0.0
5.2 0.2 0.0
5.6000000000000005 0.2 0.0
6.0 0.2 0.0
6.4 0.2 0.0
6.800000000000001 0.2 0.0
7.2 0.2 0.0
7.6000000000000005 0.2 0.0
8.0 0.2 0.0
8.4 0.2 0.0
8.8 0.2 0.0
9.200000000000001 0.2 0.0
9.600000000000001 0.2 0.0
10.0 0.2 0.0
10.4 0.2 0.0
10.8 0.2 0.0
11.200000000000001 0.2 0.0
11.600000000000001 0.2 0.0
12.0 0.2 0.0
12.4 0.2 0.0
12.8 0.2 0.0
13.200000000000001 0.2 0.0
13.600000000000001 0.2 0.0
14.0 0.2 0.0
14.4 0.2 0.0
14.8 0.2 0.0
15.200000000000001 0.2 0.0
15.600000000000001 0.2 0.0
16.0 0.2 0.0
0.0 0.30000000000000004 0.0
0.4 0.30000000000000004 0.0
0.8 0.30000000000000004 0.0
1.2000000000000002 0.30000000000000004 0.0
1.6 0.30000000000000004 0.0
2.0 0.30000000000000004 0.0
2.4000000000000004 0.30000000000000004 0.0
2.8000000000000003 0.30000000000000004 0.0
3.2 0.30000000000000004 0.0
3.6 0.30000000000000004 0.0
4.0 0.30000000000000004 0.0
4.4 0.30000000000000004 0.0
4.800000000000001 0.30000000000000004 0.0
5.2 0.30000000000000004 0.0
5.6000000000000005 0.30000000000000004 0.0
6.0 0.30000000000000004 0.0
6.4 0.30000000000000004 0.0
6.800000000000001 0.30000000000000004 0.0
7.2 0.30000000000000004 0.0
7.6000000000000005 0.30000000000000004 0.0
8.0 0.30000000000000004 0.0
8.4 0.30000000000000004 0.0
8.8 0.30000000000000004 0.0
9.200000000000001 0.30000000000000004 0.0
9.600000000000001 0.30000000000000004 0.0
10.0 0.30000000000000004 0.0
10.4 0.30000000000000004 0.0
10.8 0.30000000000000004 0.0
11.200000000000001 0.30000000000000004 0.0
11.600000000000001 0.30000000000000004 0.0
12.0 0.30000000000000004 0.0
12.4 0.30000000000000004 0.0
12.8 0.30000000000000004 0.0
13.200000000000001 0.30000000000000004 0.0
13.600000000000001 0.30000000000000004 0.0
14.0 0.30000000000000004 0.0
14.4 0.30000000000000004 0.0
14.8 0.30000000000000004 0.0
15.200000000000001 0.30000000000000004 0.0
15.600000000000001 0.30000000000000004 0.0
16.0 0.30000000000000004 0.0
0.0 0.4 0.0
0.4 0.4 0.0
0.8 0.4 0.0
1.2000000000000002 0.4 0.0
1.6 0.4 0.0
2.0 0.4 0.0
2.4000000000000004 0.4 0.0
2.8000000000000003 0.4 0.0
3.2 0.4 0.0
3.6 0.4 0.0
4.0 0.4 0.0
4.4 0.4 0.0
4.800000000000001 0.4 0.0
5.2 0.4 0.0
5.6000000000000005 0.4 0.0
6.0 0.4 0.0
6.4 0.4 0.0
6.800000000000001 0.4 0.0
7.2 0.4 0.0
7.6000000000000005 0.4 0.0
8.0 0.4 0.0
8.4 0.4 0.0
8.8 0.4 0.0
9.200000000000001 0.4 0.0
9.600000000000001 0.4 0.0
10.0 0.4 0.0
10.4 0.4 0.0
10.8 0.4 0.0
11.200000000000001 0.4 0.0
11.600000000000001 0.4 0.0
12.0 0.4 0.0
12.4 0.4 0.0
12.8 0.4 0.0
13.200000000000001 0.4 0.0
13.600000000000001 0.4 0.0
14.0 0.4 0.0
14.4 0.4 0.0
14.8 0.4 0.0
15.200000000000001 0.4 0.0
15.600000000000001 0.4 0.0
16.0 0.4 0.0
0.0 0.5 0.0
0.4 0.5 0.0
0.8 0.5 0.0
1.2000000000000002 0.5 0.0
1.6 0.5 0.0
2.0 0.5 0.0
2.4000000000000004 0.5 0.0
2.8000000000000003 0.5 0.0
3.2 0.5 0.0
3.6 0.5 0.0
4.0 0.5 0.0
4.4 0.5 0.0
4.800000000000001 0.5 0.0
5.2 0.5 0.0
5.6000000000000005 0.5 0.0
6.0 0.5 0.0
6.4 0.5 0.0
6.800000000000001 0.5 0.0
7.2 0.5 0.0
7.6000000000000005 0.5 0.0
8.0 0.5 0.0
8.4 0.5 0.0
8.8 0.5 0.0
9.200000000000001 0.5 0.0
9.600000000000001 0.5 0.0
10.0 0.5 0.0
10.4 0.5 0.0
10.8 0.5 0.0
11.200000000000001 0.5 0.0
11.600000000000001 0.5 0.0
12.0 0.5 0.0
12.4 0.5 0.0
12.8 0.5 0.0
13.200000000000001 0.5 0.0
13.600000000000001 0.5 0.0
14.0 0.5 0.0
14.4 0.5 0.0
14.8 0.5 0.0
15.200000000000001 0.5 0.0
15.600000000000001 0.5 0.0
16.0 0.5 0.0
0.0 0.6000000000000001 0.0
0.4 0.6000000000000001 0.0
0.8 0.6000000000000001 0.0
1.2000000000000002 0.6000000000000001 0.0
1.6 0.6000000000000001 0.0
2.0 0.6000000000000001 0.0
2.4000000000000004 0.6000000000000001 0.0
2.8000000000000003 0.6000000000000001 0.0
3.2 0.6000000000000001 0.0
3.6 0.6000000000000001 0.0
4.0 0.6000000000000001 0.0
4.4 0.6000000000000001 0.0
4.800000000000001 0.6000000000000001 0.0
5.2 0.6000000000000001 0.0
5.6000000000000005 0.6000000000000001 0.0
6.0 0.6000000000000001 0.0
6.4 0.6000000000000001 0.0
6.800000000000001 0.6000000000000001 0.0
7.2 0.6000000000000001 0.0
7.6000000000000005 0.6000000000000001 0.0
8.0 0.6000000000000001 0.0
8.4 0.6000000000000001 0.0
8.8 0.6000000000000001 0.0
9.200000000000001 0.6000000000000001 0.0
9.600000000000001 0.6000000000000001 0.0
10.0 0.6000000000000001 0.0
10.4 0.6000000000000001 0.0
10.8 0.6000000000000001 0.0
11.200000000000001 0.6000000000000001 0.0
11.600000000000001 0.6000000000000001 0.0
12.0 0.6000000000000001 0.0
12.4 0.6000000000000001 0.0
12.8 0.6000000000000001 0.0
13.200000000000001 0.6000000000000001 0.0
13.600000000000001 0.6000000000000001 0.0
14.0 0.6000000000000001 0.0
14.4 0.6000000000000001 0.0
14.8 0.6000000000000001 0.0
15.200000000000001 0.6000000000000001 0.0
15.600000000000001 0.6000000000000001 0.0
16.0 0.6000000000000001 0.0
0.0 0.7000000000000001 0.0
0.4 0.7000000000000001 0.0
0.8 0.7000000000000001 0.0
1.2000000000000002 0.7000000000000001 0.0
1.6 0.7000000000000001 0.0
2.0 0.7000000000000001 0.0
2.4000000000000004 0.7000000000000001 0.0
2.8000000000000003 0.7000000000000001 0.0
3.2 0.7000000000000001 0.0
3.6 0.7000000000000001 0.0
4.0 0.7000000000000001 0.0
4.4 0.7000000000000001 0.0
4.800000000000001 0.7000000000000001 0.0
5.2 0.7000000000000001 0.0
5.6000000000000005 0.7000000000000001 0.0
6.0 0.7000000000000001 0.0
6.4 0.7000000000000001 0.0
6.800000000000001 0.7000000000000001 0.0
7.2 0.7000000000000001 0.0
7.6000000000000005 0.7000000000000001 0.0
8.0 0.7000000000000001 0.0
8.4 0.7000000000000001 0.0
8.8 0.7000000000000001 0.0
9.200000000000001 0.7000000000000001 0.0
9.600000000000001 0.7000000000000001 0.0
10.0 0.7000000000000001 0.0
10.4 0.7000000000000001 0.0
10.8 0.7000000000000001 0.0
11.200000000000001 0.7000000000000001 0.0
11.600000000000001 0.7000000000000001 0.0
12.0 0.7000000000000001 0.0
12.4 0.7000000000000001 0.0
12.8 0.7000000000000001 0.0
13.200000000000001 0.7000000000000001 0.0
13.600000000000001 0.7000000000000001 0.0
14.0 0.7000000000000001 0.0
14.4 0.7000000000000001 0.0
14.8 0.7000000000000001 0.0
15.200000000000001 0.7000000000000001 0.0
15.600000000000001 0.7000000000000001 0.0
16.0 0.7000000000000001 0.0
0.0 0.8 0.0
0.4 0.8 0.0
0.8 0.8 0.0
1.2000000000000002 0.8 0.0
1.6 0.8 0.0
2.0 0.8 0.0
2.4000000000000004 0.8 0.0
2.8000000000000003 0.8 0.0
3.2 0.8 0.0
3.6 0.8 0.0
4.0 0.8 0.0
4.4 0.8 0.0
4.800000000000001 0.8 0.0
5.2 0.8 0.0
5.6000000000000005 0.8 0.0
6.0 0.8 0.0
6.4 0.8 0.0
6.800000000000001 0.8 0.0
7.2 0.8 0.0
7.6000000000000005 0.8 0.0
8.0 0.8 0.0
8.4 0.8 0.0
8.8 0.8 0.0
9.200000000000001 0.8 0.0
9.600000000000001 0.8 0.0
10.0 0.8 0.0
10.4 0.8 0.0
10.8 0.8 0.0
11.200000000000001 0.8 0.0
11.600000000000001 0.8 0.0
12.0 0.8 0.0
12.4 0.8 0.0
12.8 0.8 0.0
13.200000000000001 0.8 0.0
13.600000000000001 0.8 0.0
14.0 0.8 0.0
14.4 0.8 0.0
14.8 0.8 0.0
15.200000000000001 0.8 0.0
15.600000000000001 0.8 0.0
16.0 0.8 0.0
0.0 0.9 0.0
0.4 0.9 0.0
0.8 0.9 0.0
1.2000000000000002 0.9 0.0
1.6 0.9 0.0
2.0 0.9 0.0
2.4000000000000004 0.9 0.0
2.8000000000000003 0.9 0.0
3.2 0.9 0.0
3.6 0.9 0.0
4.0 0.9 0.0
4.4 0.9 0.0
4.800000000000001 0.9 0.0
5.2 0.9 0.0
5.6000000000000005 0.9 0.0
6.0 0.9 0.0
6.4 0.9 0.0
6.800000000000001 0.9 0.0
7.2 0.9 0.0
7.6000000000000005 0.9 0.0
8.0 0.9 0.0
8.4 0.9 0.0
8.8 0.9 0.0
9.200000000000001 0.9 0.0
9.600000000000001 0.9 0.0
10.0 0.9 0.0
10.4 0.9 0.0
10.8 0.9 0.0
11.200000000000001 0.9 0.0
11.600000000000001 0.9 0.0
12.0 0.9 0.0
12.4 0.9 0.0
12.8 0.9 0.0
13.200000000000001 0.9 0.0
13.600000000000001 0.9 0.0
14.0 0.9 0.0
14.4 0.9 0.0
14.8 0.9 0.0
15.200000000000001 0.9 0.0
15.600000000000001 0.9 0.0
16.0 0.9 0.0
0.0 1.0 0.0
0.4 1.0 0.0
0.8 1.0 0.0
1.2000000000000002 1.0 0.0
1.6 1.0 0.0
2.0 1.0 0.0
2.4000000000000004 1.0 0.0
2.8000000000000003 1.0 0.0
3.2 1.0 0.0
3.6 1.0 0.0
4.0 1.0 0.0
4.4 1.0 0.0
4.800000000000001 1.0 0.0
5.2 1.0 0.0
5.6000000000000005 1.0 0.0
6.0 1.0 0.0
6.4 1.0 0.0
6.800000000000001 1.0 0.0
7.2 1.0 0.0
7.6000000000000005 1.0 0.0
8.0 1.0 0.0
8.4 1.0 0.0
8.8 1.0 0.0
9.200000000000001 1.0 0.0
9.600000000000001 1.0 0.0
10.0 1.0 0.0
10.4 1.0 0.0
10.8 1.0 0.0
11.200000000000001 1.0 0.0
11.600000000000001 1.0 0.0
12.0 1.0 0.0
12.4 1.0 0.0
12.8 1.0 0.0
13.200000000000001 1.0 0.0
13.600000000000001 1.0 0.0
14.0 1.0 0.0
14.4 1.0 0.0
14.8 1.0 0.0
15.200000000000001 1.0 0.0
15.600000000000001 1.0 0.0
16.0 1.0 0.0
0.0 1.1 0.0
0.4 1.1 0.0
0.8 1.1 0.0
1.2000000000000002 1.1 0.0
1.6 1.1 0.0
2.0 1.1 0.0
2.4000000000000004 1.1 0.0
2.8000000000000003 1.1 0.0
3.2 1.1 0.0
3.6 1.1 0.0
4.0 1.1 0.0
4.4 1.1 0.0
4.800000000000001 1.1 0.0
5.2 1.1 0.0
5.6000000000000005 1.1 0.0
6.0 1.1 0.0
6.4 1.1 0.0
6.800000000000001 1.1 0.0
7.2 1.1 0.0
7.6000000000000005 1.1 0.0
8.0 1.1 0.0
8.4 1.1 0.0
8.8 1.1 0.0
9.200000000000001 1.1 0.0
9.600000000000001 1.1 0.0
10.0 1.1 0.0
10.4 1.1 0.0
10.8 1.1 0.0
11.200000000000001 1.1 0.0
11.600000000000001 1.1 0.0
12.0 1.1 0.0
12.4 1.1 0.0
12.8 1.1 0.0
13.200000000000001 1.1 0.0
13.600000000000001 1.1 0.0
14.0 1.1 0.0
14.4 1.1 0.0
14.8 1.1 0.0
15.200000000000001 1.1 0.0
15.600000000000001 1.1 0.0
16.0 1.1 0.0
0.0 1.2000000000000002 0.0
0.4 1.2000000000000002 0.0
0.8 1.2000000000000002 0.0
1.2000000000000002 1.2000000000000002 0.0
1.6 1.2000000000000002 0.0
2.0 1.2000000000000002 0.0
2.4000000000000004 1.2000000000000002 0.0
2.8000000000000003 1.2000000000000002 0.0
3.2 1.2000000000000002 0.0
3.6 1.2000000000000002 0.0
4.0 1.2000000000000002 0.0
4.4 1.2000000000000002 0.0
4.800000000000001 1.2000000000000002 0.0
5.2 1.2000000000000002 0.0
5.6000000000000005 1.2000000000000002 0.0
6.0 1.2000000000000002 0.0
6.4 1.2000000000000002 0.0
6.800000000000001 1.2000000000000002 0.0
7.2 1.2000000000000002 0.0
7.6000000000000005 1.2000000000000002 0.0
8.0 1.2000000000000002 0.0
8.4 1.2000000000000002 0.0
8.8 1.2000000000000002 0.0
9.200000000000001 1.2000000000000002 0.0
9.600000000000001 1.2000000000000002 0.0
10.0 1.2000000000000002 0.0
10.4 1.2000000000000002 0.0
10.8 1.2000000000000002 0.0
11.200000000000001 1.2000000000000002 0.0
11.600000000000001 1.2000000000000002 0.0
12.0 1.2000000000000002 0.0
12.4 1.2000000000000002 0.0
12.8 1.2000000000000002 0.0
13.200000000000001 1.2000000000000002 0.0
13.600000000000001 1.2000000000000002 0.0
14.0 1.2000000000000002 0.0
14.4 1.2000000000000002 0.0
14.8 1.2000000000000002 0.0
15.200000000000001 1.2000000000000002 0.0
15.600000000000001 1.2000000000000002 0.0
16.0 1.2000000000000002 0.0
0.0 1.3 0.0
0.4 1.3 0.0
0.8 1.3 0.0
1.2000000000000002 1.3 0.0
1.6 1.3 0.0
2.0 1.3 0.0
2.4000000000000004 1.3 0.0
2.8000000000000003 1.3 0.0
3.2 1.3 0.0
3.6 1.3 0.0
4.0 1.3 0.0
4.4 1.3 0.0
4.800000000000001 1.3 0.0
5.2 1.3 0.0
5.6000000000000005 1.3 0.0
6.0 1.3 0.0
6.4 1.3 0.0
6.800000000000001 1.3 0.0
7.2 1.3 0.0
7.6000000000000005 1.3 0.0
8.0 1.3 0.0
8.4 1.3 0.0
8.8 1.3 0.0
9.200000000000001 1.3 0.0
9.600000000000001 1.3 0.0
10.0 1.3 0.0
10.4 1.3 0.0
10.8 1.3 0.0
11.200000000000001 1.3 0.0
11.600000000000001 1.3 0.0
12.0 1.3 0.0
12.4 1.3 0.0
12.8 1.3 0.0
13.200000000000001 1.3 0.0
13.600000000000001 1.3 0.0
14.0 1.3 0.0
14.4 1.3 0.0
14.8 1.3 0.0
15.200000000000001 1.3 0.0
15.600000000000001 1.3 0.0
16.0 1.3 0.0
0.0 1.4000000000000001 0.0
0.4 1.4000000000000001 0.0
0.8 1.4000000000000001 0.0
1.2000000000000002 1.4000000000000001 0.0
1.6 1.4000000000000001 0.0
2.0 1.4000000000000001 0.0
2.4000000000000004 1.4000000000000001 0.0
2.8000000000000003 1.4000000000000001 0.0
3.2 1.4000000000000001 0.0
3.6 1.4000000000000001 0.0
4.0 1.4000000000000001 0.0
4.4 1.4000000000000001 0.0
4.800000000000001 1.4000000000000001 0.0
5.2 1.4000000000000001 0.0
5.6000000000000005 1.4000000000000001 0.0
6.0 1.4000000000000001 0.0
6.4 1.4000000000000001 0.0
6.800000000000001 1.4000000000000001 0.0
7.2 1.4000000000000001 0.0
7.6000000000000005 1.4000000000000001 0.0
8.0 1.4000000000000001 0.0
8.4 1.4000000000000001 0.0
8.8 1.4000000000000001 0.0
9.200000000000001 1.4000000000000001 0.0
9.600000000000001 1.4000000000000001 0.0
10.0 1.4000000000000001 0.0
10.4 1.4000000000000001 0.0
10.8 1.4000000000000001 0.0
11.200000000000001 1.4000000000000001 0.0
11.600000000000001 1.4000000000000001 0.0
12.0 1.4000000000000001 0.0
12.4 1.4000000000000001 0.0
12.8 1.4000000000000001 0.0
13.200000000000001 1.4000000000000001 0.0
13.600000000000001 1.4000000000000001 0.0
14.0 1.4000000000000001 0.0
14.4 1.4000000000000001 0.0
14.8 1.4000000000000001 0.0
15.200000000000001 1.4000000000000001 0.0
15.600000000000001 1.4000000000000001 0.0
16.0 1.4000000000000001 0.0
0.0 1.5 0.0
0.4 1.5 0.0
0.8 1.5 0.0
1.2000000000000002 1.5 0.0
1.6 1.5 0.0
2.0 1.5 0.0
2.4000000000000004 1.5 0.0
2.8000000000000003 1.5 0.0
3.2 1.5 0.0
3.6 1.5 0.0
4.0 1.5 0.0
4.4 1.5 0.0
4.800000000000001 1.5 0.0
5.2 1.5 0.0
5.6000000000000005 1.5 0.0
6.0 1.5 0.0
6.4 1.5 0.0
6.800000000000001 1.5 0.0
7.2 1.5 0.0
7.6000000000000005 1.5 0.0
8.0 1.5 0.0
8.4 1.5 0.0
8.8 1.5 0.0
9.200000000000001 1.5 0.0
9.600000000000001 1.5 0.0
10.0 1.5 0.0
10.4 1.5 0.0
10.8 1.5 0.0
11.200000000000001 1.5 0.0
11.600000000000001 1.5 0.0
12.0 1.5 0.0
12.4 1.5 0.0
12.8 1.5 0.0
13.200000000000001 1.5 0.0
13.600000000000001 1.5 0.0
14.0 1.5 0.0
14.4 1.5 0.0
14.8 1.5 0.0
15.200000000000001 1.5 0.0
15.600000000000001 1.5 0.0
16.0 1.5 0.0
0.0 1.6 0.0
0.4 1.6 0.0
0.8 1.6 0.0
1.2000000000000002 1.6 0.0
1.6 1.6 0.0
2.0 1.6 0.0
2.4000000000000004 1.6 0.0
2.8000000000000003 1.6 0.0
3.2 1.6 0.0
3.6 1.6 0.0
4.0 1.6 0.0
4.4 1.6 0.0
4.800000000000001 1.6 0.0
5.2 1.6 0.0
5.6000000000000005 1.6 0.0
6.0 1.6 0.0
6.4 1.6 0.0
6.800000000000001 1.6 0.0
7.2 1.6 0.0
7.6000000000000005 1.6 0.0
8.0 1.6 0.0
8.4 1.6 0.0
8.8 1.6 0.0
9.200000000000001 1.6 0.0
9.600000000000001 1.6 0.0
10.0 1.6 0.0
10.4 1.6 0.0
10.8 1.6 0.0
11.200000000000001 1.6 0.0
11.600000000000001 1.6 0.0
12.0 1.6 0.0
12.4 1.6 0.0
12.8 1.6 0.0
13.200000000000001 1.6 0.0
13.600000000000001 1.6 0.0
14.0 1.6 0.0
14.4 1.6 0.0
14.8 1.6 0.0
15.200000000000001 1.6 0.0
15.600000000000001 1.6 0.0
16.0 1.6 0.0
0.0 1.7000000000000002 0.0
0.4 1.7000000000000002 0.0
0.8 1.7000000000000002 0.0
1.2000000000000002 1.7000000000000002 0.0
1.6 1.7000000000000002 0.0
2.0 1.7000000000000002 0.0
2.4000000000000004 1.7000000000000002 0.0
2.8000000000000003 1.7000000000000002 0.0
3.2 1.7000000000000002 0.0
3.6 1.7000000000000002 0.0
4.0 1.7000000000000002 0.0
4.4 1.7000000000000002 0.0
4.800000000000001 1.7000000000000002 0.0
5.2 1.7000000000000002 0.0
5.6000000000000005 1.7000000000000002 0.0
6.0 1.7000000000000002 0.0
6.4 1.7000000000000002 0.0
6.800000000000001 1.7000000000000002 0.0
7.2 1.7000000000000002 0.0
7.6000000000000005 1.7000000000000002 0.0
8.0 1.7000000000000002 0.0
8.4 1.7000000000000002 0.0
8.8 1.7000000000000002 0.0
9.200000000000001 1.7000000000000002 0.0
9.600000000000001 1.7000000000000002 0.0
10.0 1.7000000000000002 0.0
10.4 1.7000000000000002 0.0
10.8 1.7000000000000002 0.0
11.200000000000001 1.7000000000000002 0.0
11.600000000000001 1.7000000000000002 0.0
12.0 1.7000000000000002 0.0
12.4 1.7000000000000002 0.0
12.8 1.7000000000000002 0.0
13.200000000000001 1.7000000000000002 0.0
13.600000000000001 1.7000000000000002 0.0
14.0 1.7000000000000002 0.0
14.4 1.7000000000000002 0.0
14.8 1.7000000000000002 0.0
15.200000000000001 1.7000000000000002 0.0
15.600000000000001 1.7000000000000002 0.0
16.0 1.7000000000000002 0.0
0.0 1.8 0.0
0.4 1.8 0.0
0.8 1.8 0.0
1.2000000000000002 1.8 0.0
1.6 1.8 0.0
2.0 1.8 0.0
2.4000000000000004 1.8 0.0
2.8000000000000003 1.8 0.0
3.2 1.8 0.0
3.6 1.8 0.0
4.0 1.8 0.0
4.4 1.8 0.0
4.800000000000001 1.8 0.0
5.2 1.8 0.0
5.6000000000000005 1.8 0.0
6.0 1.8 0.0
6.4 1.8 0.0
6.800000000000001 1.8 0.0
7.2 1.8 0.0
7.6000000000000005 1.8 0.0
8.0 1.8 0.0
8.4 1.8 0.0
8.8 1.8 0.0
9.200000000000001 1.8 0.0
9.600000000000001 1.8 0.0
10.0 1.8 0.0
10.4 1.8 0.0
10.8 1.8 0.0
11.200000000000001 1.8 0.0
11.600000000000001 1.8 0.0
12.0 1.8 0.0
12.4 1.8 0.0
12.8 1.8 0.0
13.200000000000001 1.8 0.0
13.600000000000001 1.8 0.0
14.0 1.8 0.0
14.4 1.8 0.0
14.8 1.8 0.0
15.200000000000001 1.8 0.0
15.600000000000001 1.8 0.0
16.0 1.8 0.0
0.0 1.9000000000000001 0.0
0.4 1.9000000000000001 0.0
0.8 1.9000000000000001 0.0
1.2000000000000002 1.9000000000000001 0.0
1.6 1.9000000000000001 0.0
2.0 1.9000000000000001 0.0
2.4000000000000004 1.9000000000000001 0.0
2.8000000000000003 1.9000000000000001 0.0
3.2 1.9000000000000001 0.0
3.6 1.9000000000000001 0.0
4.0 1.9000000000000001 0.0
4.4 1.9000000000000001 0.0
4.800000000000001 1.9000000000000001 0.0
5.2 1.9000000000000001 0.0
5.6000000000000005 1.9000000000000001 0.0
6.0 1.9000000000000001 0.0
6.4 1.9000000000000001 0.0
6.800000000000001 1.9000000000000001 0.0
7.2 1.9000000000000001 0.0
7.6000000000000005 1.9000000000000001 0.0
8.0 1.9000000000000001 0.0
8.4 1.9000000000000001 0.0
8.8 1.9000000000000001 0.0
9.200000000000001 1.9000000000000001 0.0
9.600000000000001 1.9000000000000001 0.0
10.0 1.9000000000000001 0.0
10.4 1.9000000000000001 0.0
10.8 1.9000000000000001 0.0
11.200000000000001 1.9000000000000001 0.0
11.600000000000001 1.9000000000000001 0.0
12.0 1.9000000000000001 0.0
12.4 1.9000000000000001 0.0
12.8 1.9000000000000001 0.0
13.200000000000001 1.9000000000000001 0.0
13.600000000000001 1.9000000000000001 0.0
14.0 1.9000000000000001 0.0
14.4 1.9000000000000001 0.0
14.8 1.9000000000000001 0.0
15.200000000000001 1.9000000000000001 0.0
15.600000000000001 1.9000000000000001 0.0
16.0 1.9000000000000001 0.0
0.0 2.0 0.0
0.4 2.0 0.0
0.8 2.0 0.0
1.2000000000000002 2.0 0.0
1.6 2.0 0.0
2.0 2.0 0.0
2.4000000000000004 2.0 0.0
2.8000000000000003 2.0 0.0
3.2 2.0 0.0
3.6 2.0 0.0
4.0 2.0 0.0
4.4 2.0 0.0
4.800000000000001 2.0 0.0
5.2 2.0 0.0
5.6000000000000005 2.0 0.0
6.0 2.0 0.0
6.4 2.0 0.0
6.800000000000001 2.0 0.0
7.2 2.0 0.0
7.6000000000000005 2.0 0.0
8.0 2.0 0.0
8.4 2.0 0.0
8.8 2.0 0.0
9.200000000000001 2.0 0.0
9.600000000000001 2.0 0.0
10.0 2.0 0.0
10.4 2.0 0.0
10.8 2.0 0.0
11.200000000000001 2.0 0.0
11.600000000000001 2.0 0.0
12.0 2.0 0.0
12.4 2.0 0.0
12.8 2.0 0.0
13.200000000000001 2.0 0.0
13.600000000000001 2.0 0.0
14.0 2.0 0.0
14.4 2.0 0.0
14.8 2.0 0.0
15.200000000000001 2.0 0.0
15.600000000000001 2.0 0.0
16.0 2.0 0.0
CELLS 800 4000
4 0 1 42 41
4 1 2 43 42
4 2 3 44 43
4 3 4 45 44
4 4 5 46 45
4 5 6 47 46
4 6 7 48 47
4 7 8 49 48
4 8 9 50 49
4 9 10 51 50
4 10 11 52 51
4 11 12 53 52
4 12 13 54 53
4 13 14 55 54
4 14 15 56 55
4 15 16 57 56
4 16 17 58 57
4 17 18 59 58
4 18 19 60 59
4 19 20 61 60
4 20 21 62 61
4 21 22 63 62
4 22 23 64 63
4 23 24 65 64
4 24 25 66 65
4 25 26 67 66
4 26 27 68 67
4 27 28 69 68
4 28 29 70 69
4 29 30 71 70
4 30 31 72 71
4 31 32 73 72
4 32 33 74 73
4 33 34 75 74
4 34 35 76 75
4 35 36 77 76
4 36 37 78 77
4 37 38 79 78
4 38 39 80 79
4 39 40 81 80
4 41 42 83 82
4 42 43 84 83
4 43 44 85 84
4 44 45 86 85
4 45 46 87 86
4 46 47 88 87
4 47 48 89 88
4 48 49 90 89
4 49 50 91 90
4 50 51 92 91
4 51 52 93 92
4 52 53 94 93
4 53 54 95 94
4 54 55 96 95
4 55 56 97 96
4 56 57 98 97
4 57 58 99 98
4 58 59 100 99
4 59 60 101 100
4 60 61 102 101
4 61 62 103 102
4 62 63 104 103
4 63 64 105 104
4 64 65 106 105
4 65 66 107 106
4 66 67 108 107
4 67 68 109 108
4 68 69 110 109
4 69 70 111 110
4 70 71 112 111
4 71 72 113 112
4 72 73 114 113
4 73 74 115 114
4 74 75 116 115
4 75 76 117 116
4 76 77 118 117
4 77 78 119 118
4 78 79 120 119
4 79 80 121 120
4 80 81 122 121
4 82 83 124 123
4 83 84 125 124
4 84 85 126 125
4 85 86 127 126
4 86 87 128 127
4 87 88 129 128
4 88 89 130 129
4 89 90 131 130
4 90 91 132 131
4 91 92 133 132
4 92 93 134 133
4 93 94 135 134
4 94 95 136 135
4 95 96 137 136
4 96 97 138 137
4 97 98 139 138
4 98 99 140 139
4 99 100 141 140
4 100 101 142 141
4 101 102 143 142
4 102 103 144 143
4 103 104 145 144
4 104 105 146 145
4 105 106 147 146
4 106 107 148 147
4 107 108 149 148
4 108 109 150 149
4 109 110 151 150
4 110 111 152 151
4 111 112 153 152
4 112 113 154 153
4 113 114 155 154
4 114 115 156 155
4 115 116 157 156
4 116 117 158 157
4 117 118 159 158
4 118 119 160 159
4 119 120 161 160
4 120 121 162 161
4 121 122 163 162
4 123 124 165 164
4 124 125 166 165
4 125 126 167 166
4 126 127 168 167
4 127 128 169 168
4 128 129 170 169
4 129 130 171 170
4 130 131 172 171
4 131 132 173 172
4 132 133 174 173
4 133 134 175 174
4 134 135 176 175
4 135 136 177 176
4 136 137 178 177
4 137 138 179 178
4 138 139 180 179
4 139 140 181 180
4 140 141 182 181
4 141 142 183 182
4 142 143 184 183
4 143 144 185 184
4 144 145 186 185
4 145 146 187 186
4 146 147 188 187
4 147 148 189 188
4 148 149 190 189
4 149 150 191 190
4 150 151 192 191
4 151 152 193 192
4 152 153 194 193
4 153 154 195 194
4 154 155 196 195
4 155 156 197 196
4 156 157 198 197
4 157 158 199 198
4 158 159 200 199
4 159 160 201 200
4 160 161 202 201
4 161 162 203 202
4 162 163 204 203
4 164 165 206 205
4 165 166 207 206
4 166 167 208 207
4 167 168 209 208
4 168 169 210 209
4 169 170 211 210
4 170 171 212 211
4 171 172 213 212
4 172 173 214 213
4 173 174 215 214
4 174 175 216 215
4 175 176 217 216
4 176 177 218 217
4 177 178 219 218
4 178 179 220 219
4 179 180 221 220
4 180 181 222 221
4 181 182 223 222
4 182 183 224 223
4 183 184 225 224
4 184 185 226 225
4 185 186 227 226
4 186 187 228 227
4 187 188 229 228
4 188 189 230 229
4 189 190 231 230
4 190 191 232 231
4 191 192 233 232
4 192 193 234 233
4 193 194 235 234
4 194 195 236 235
4 195 196 237 236
4 196 197 238 237
4 197 198 239 238
4 198 199 240 239
4 199 200 241 240
4 200 201 242 241
4 201 202 243 242
4 202 203 244 243
4 203 204 245 244
4 205 206 247 246
4 206 207 248 247
4 207 208 249 248
4 208 209 250 249
4 209 210 251 250
4 210 211 252 251
4 211 212 253 252
4 212 213 254 253
4 213 214 255 254
4 214 215 256 255
4 215 216 257 256
4 216 217 258 257
4 217 218 259 258
4 218 219 260 259
4 219 220 261 260
4 220 221 262 261
4 221 222 263 262
4 222 223 264 263
4 223 224 265 264
4 224 225 266 265
4 225 226 267 266
4 226 227 268 267
4 227 228 269 268
4 228 229 270 269
4 229 230 271 270
4 230 231 272 271
4 231 232 273 272
4 232 233 274 273
4 233 234 275 274
4 234 235 276 275
4 235 236 277 276
4 236 237 278 277
4 237 238 279 278
4 238 239 280 279
4 239 240 281 280
4 240 241 282 281
4 241 242 283 282
4 242 243 284 283
4 243 244 285 284
4 244 245 286 285
4 246 247 288 287
4 247 248 289 288
4 248 249 290 289
4 249 250 291 290
4 250 251 292 291
4 251 252 293 292
4 252 253 294 293
4 253 254 295 294
4 254 255 296 295
4 255 256 297 296
4 256 257 298 297
4 257 258 299 298
4 258 259 300 299
4 259 260 301 300
4 260 261 302 301
4 261 262 303 302
4 262 263 304 303
4 263 264 305 304
4 264 265 306 305
4 265 266 307 306
4 266 267 308 307
4 267 268 309 308
4 268 269 310 309
4 269 270 311 310
4 270 271 312 311
4 271 272 313 312
4 272 273 314 313
4 273 274 315 314
4 274 275 316 315
4 275 276 317 316
4 276 277 318 317
4 277 278 319 318
4 278 279 320 319
4 279 280 321 320
4 280 281 322 321
4 281 282 323 322
4 282 283 324 323
4 283 284 325 324
4 284 285 326 325
4 285 286 327 326
4 287 288 329 328
4 288 289 330 329
4 289 290 331 330
4 290 291 332 331
4 291 292 333 332
4 292 293 334 333
4 293 294 335 334
4 294 295 336 335
4 295 296 337 336
4 296 297 338 337
4 297 298 339 338
4 298 299 340 339
4 299 300 341 340
4 300 301 342 341
4 301 302 343 342
4 302 303 344 343
4 303 304 345 344
4 304 305 346 345
4 305 306 347 346
4 306 307 348 347
4 307 308 349 348
4 308 309 350 349
4 309 310 351 350
4 310 311 352 351
4 311 312 353 352
4 312 313 354 353
4 313 314 355 354
4 314 315 356 355
4 315 316 357 356
4 316 317 358 357
4 317 318 359 358
4 318 319 360 359
4 319 320 361 360
4 320 321 362 361
4 321 322 363 362
4 322 323 364 363
4 323 324 365 364
4 324 325 366 365
4 325 326 367 366
4 326 327 368 367
4 328 329 370 369
4 329 330 371 370
4 330 331 372 371
4 331 332 373 372
4 332 333 374 373
4 333 334 375 374
4 334 335 376 375
4 335 336 377 376
4 336 337 378 377
4 337 338 379 378
4 338 339 380 379
4 339 340 381 380
4 340 341 382 381
4 341 342 383 382
4 342 343 384 383
4 343 344 385 384
4 344 345 386 385
4 345 346 387 386
4 346 347 388 387
4 347 348 389 388
4 348 349 390 389
4 349 350 391 390
4 350 351 392 391
4 351 352 393 392
4 352 353 394 393
4 353 354 395 394
4 354 355 396 395
4 355 356 397 396
4 356 357 398 397
4 357 358 399 398
4 358 359 400 399
4 359 360 401 400
4 360 361 402 401
4 361 362 403 402
4 362 363 404 403
4 363 364 405 404
4 364 365 406 405
4 365 366 407 406
4 366 367 408 407
4 367 368 409 408
4 369 370 411 410
4 370 371 412 411
4 371 372 413 412
4 372 373 414 413
4 373 374 415 414
4 374 375 416 415
4 375 376 417 416
4 376 377 418 417
4 377 378 419 418
4 378 379 420 419
4 379 380 421 420
4 380 381 422 421
4 381 382 423 422
4 382 383 424 423
4 383 384 425 424
4 384 385 426 425
4 385 386 427 426
4 386 387 428 427
4 387 388 429 428
4 388 389 430 429
4 389 390 431 430
4 390 391 432 431
4 391 392 433 432
4 392 393 434 433
4 393 394 435 434
4 394 395 436 435
4 395 396 437 436
4 396 397 438 437
4 397 398 439 438
4 398 399 440 439
4 399 400 441 440
4 400 401 442 441
4 401 402 443 442
4 402 403 444 443
4 403 404 445 444
4 404 405 446 445
4 405 406 447 446
4 406 407 448 447
4 407 408 449 448
4 408 409 450 449
4 410 411 452 451
4 411 412 453 452
4 412 413 454 453
4 413 414 455 454
4 414 415 456 455
4 415 416 457 456
4 416 417 458 457
4 417 418 459 458
4 418 419 460 459
4 419 420 461 460
4 420 421 462 461
4 421 422 463 462
4 422 423 464 463
4 423 424 465 464
4 424 425 466 465
4 425 426 467 466
4 426 427 468 467
4 427 428 469 468
4 428 429 470 469
4 429 430 471 470
4 430 431 472 471
4 431 432 473 472
4 432 433 474 473
4 433 434 475 474
4 434 435 476 475
4 435 436 477 476
4 436 437 478 477
4 437 438 479 478
4 438 439 480 479
4 439 440 481 480
4 440 441 482 481
4 441 442 483 482
4 442 443 484 483
4 443 444 485 484
4 444 445 486 485
4 445 446 487 486
4 446 447 488 487
4 447 448 489 488
4 448 449 490 489
4 449 450 491 490
4 451 452 493 492
4 452 453 494 493
4 453 454 495 494
4 454 455 496 495
4 455 456 497 496
4 456 457 498 497
4 457 458 499 498
4 458 459 500 499
4 459 460 501 500
4 460 461 502 501
4 461 462 503 502
4 462 463 504 503
4 463 464 505 504
4 464 465 506 505
4 465 466 507 506
4 466 467 508 507
4 467 468 509 508
4 468 469 510 509
4 469 470 511 510
4 470 471 512 511
4 471 472 513 512
4 472 473 514 513
4 473 474 515 514
4 474 475 516 515
4 475 476 517 516
4 476 477 518 517
4 477 478 519 518
4 478 479 520 519
4 479 480 521 520
4 480 481 522 521
4 481 482 523 522
4 482 483 524 523
4 483 484 525 524
4 484 485 526 525
4 485 486 527 526
4 486 487 528 527
4 487 488 529 528
4 488 489 530 529
4 489 490 531 530
4 490 491 532 531
4 492 493 534 533
4 493 494 535 534
4 494 495 536 535
4 495 496 537 536
4 496 497 538 537
4 497 498 539 538
4 498 499 540 539
4 499 500 541 540
4 500 501 542 541
4 501 502 543 542
4 502 503 544 543
4 503 504 545 544
4 504 505 546 545
4 505 506 547 546
4 506 507 548 547
4 507 508 549 548
4 508 509 550 549
4 509 510 551 550
4 510 511 552 551
4 511 512 553 552
4 512 513 554 553
4 513 514 555 554
4 514 515 556 555
4 515 516 557 556
4 516 517 558 557
4 517 518 559 558
4 518 519 560 559
4 519 520 561 560
4 520 521 562 561
4 521 522 563 562
4 522 523 564 563
4 523 524 565 564
4 524 525 566 565
4 525 526 567 566
4 526 527 568 567
4 527 528 569 568
4 528 529 570 569
4 529 530 571 570
4 530 531 572 571
4 531 532 573 572
4 533 534 575 574
4 534 535 576 575
4 535 536 577 576
4 536 537 578 577
4 537 538 579 578
4 538 539 580 579
4 539 540 581 580
4 540 541 582 581
4 541 542 583 582
4 542 543 584 583
4 543 544 585 584
4 544 545 586 585
4 545 546 587 586
4 546 547 588 587
4 547 548 589 588
4 548 549 590 589
4 549 550 591 590
4 550 551 592 591
4 551 552 593 592
4 552 553 594 593
4 553 554 595 594
4 554 555 596 595
4 555 556 597 596
4 556 557 598 597
4 557 558 599 598
4 558 559 600 599
4 559 560 601 600
4 560 561 602 601
4 561 562 603 602
4 562 563 604 603
4 563 564 605 604
4 564 565 606 605
4 565 566 607 606
4 566 567 608 607
4 567 568 609 608
4 568 569 610 609
4 569 570 611 610
4 570 571 612 611
4 571 572 613 612
4 572 573 614 613
4 574 575 616 615
4 575 576 617 616
4 576 577 618 617
4 577 578 619 618
4 578 579 620 619
4 579 580 621 620
4 580 581 622 621
4 581 582 623 622
4 582 583 624 623
4 583 584 625 624
4 584 585 626 625
4 585 586 627 626
4 586 587 628 627
4 587 588 629 628
4 588 589 630 629
4 589 590 631 630
4 590 591 632 631
4 591 592 633 632
4 592 593 634 633
4 593 594 635 634
4 594 595 636 635
4 595 596 637 636
4 596 597 638 637
4 597 598 639 638
4 598 599 640 639
4 599 600 641 640
4 600 601 642 641
4 601 602 643 642
4 602 603 644 643
4 603 604 645 644
4 604 605 646 645
4 605 606 647 646
4 606 607 648 647
4 607 608 649 648
4 608 609 650 649
4 609 610 651 650
4 610 611 652 651
4 611 612 653 652
4 612 613 654 653
4 613 614 655 654
4 615 616 657 656
4 616 617 658 657
4 617 618 659 658
4 618 619 660 659
4 619 620 661 660
4 620 621 662 661
4 621 622 663 662
4 622 623 664 663
4 623 624 665 664
4 624 625 666 665
4 625 626 667 666
4 626 627 668 667
4 627 628 669 668
4 628 629 670 669
4 629 630 671 670
4 630 631 672 671
4 631 632 673 672
4 632 633 674 673
4 633 634 675 674
4 634 635 676 675
4 635 636 677 676
4 636 637 678 677
4 637 638 679 678
4 638 639 680 679
4 639 640 681 680
4 640 641 682 681
4 641 642 683 682
4 642 643 684 683
4 643 644 685 684
4 644 645 686 685
4 645 646 687 686
4 646 647 688 687
4 647 648 689 688
4 648 649 690 689
4 649 650 691 690
4 650 651 692 691
4 651 652 693 692
4 652 653 694 693
4 653 654 695 694
4 654 655 696 695
4 656 657 698 697
4 657 658 699 698
4 658 659 700 699
4 659 660 701 700
4 660 661 702 701
4 661 662 703 702
4 662 663 704 703
4 663 664 705 704
4 664 665 706 705
4 665 666 707 706
4 666 667 708 707
4 667 668 709 708
4 668 669 710 709
4 669 670 711 710
4 670 671 712 711
4 671 672 713 712
4 672 673 714 713
4 673 674 715 714
4 674 675 716 715
4 675 676 717 716
4 676 677 718 717
4 677 678 719 718
4 678 679 720 719
4 679 680 721 720
4 680 681 722 721
4 681 682 723 722
4 682 683 724 723
4 683 684 725 724
4 684 685 726 725
4 685 686 727 726
4 686 687 728 727
4 687 688 729 728
4 688 689 730 729
4 689 690 731 730
4 690 691 732 731
4 691 692 733 732
4 692 693 734 733
4 693 694 735 734
4 694 695 736 735
4 695 696 737 736
4 697 698 739 738
4 698 699 740 739
4 699 700 741 740
4 700 701 742 741
4 701 702 743 742
4 702 703 744 743
4 703 704 745 744
4 704 705 746 745
4 705 706 747 746
4 706 707 748 747
4 707 708 749 748
4 708 709 750 749
4 709 710 751 750
4 710 711 752 751
4 711 712 753 752
4 712 713 754 753
4 713 714 755 754
4 714 715 756 755
4 715 716 757 756
4 716 717 758 757
4 717 718 759 758
4 718 719 760 759
4 719 720 761 760
4 720 721 762 761
4 721 722 763 762
4 722 723 764 763
4 723 724 765 764
4 724 725 766 765
4 725 726 767 766
4 726 727 768 767
4 727 728 769 768
4 728 729 770 769
4 729 730 771 770
4 730 731 772 771
4 731 732 773 772
4 732 733 774 773
4 733 734 775 774
4 734 735 776 775
4 735 736 777 776
4 736 737 778 777
4 738 739 780 779
4 739 740 781 780
4 740 741 782 781
4 741 742 783 782
4 742 743 784 783
4 743 744 785 784
4 744 745 786 785
4 745 746 787 786
4 746 747 788 787
4 747 748 789 788
4 748 749 790 789
4 749 750 791 790
4 750 751 792 791
4 751 752 793 792
4 752 753 794 793
4 753 754 795 794
4 754 755 796 795
4 755 756 797 796
4 756 757 798 797
4 757 758 799 798
4 758 759 800 799
4 759 760 801 800
4 760 761 802 801
4 761 762 803 802
4 762 763 804 803
4 763 764 805 804
4 764 765 806 805
4 765 766 807 806
4 766 767 808 807
4 767 768 809 808
4 768 769 810 809
4 769 770 811 810
4 770 771 812 811
4 771 772 813 812
4 772 773 814 813
4 773 774 815 814
4 774 775 816 815
4 775 776 817 816
4 776 777 818 817
4 777 778 819 818
4 779 780 821 820
4 780 781 822 821
4 781 782 823 822
4 782 783 824 823
4 783 784 825 824
4 784 785 826 825
4 785 786 827 826
4 786 787 828 827
4 787 788 829 828
4 788 789 830 829
4 789 790 831 830
4 790 791 832 831
4 791 792 833 832
4 792 793 834 833
4 793 794 835 834
4 794 795 836 835
4 795 796 837 836
4 796 797 838 837
4 797 798 839 838
4 798 799 840 839
4 799 800 841 840
4 800 801 842 841
4 801 802 843 842
4 802 803 844 843
4 803 804 845 844
4 804 805 846 845
4 805 806 847 846
4 806 807 848 847
4 807 808 849 848
4 808 809 850 849
4 809 810 851 850
4 810 811 852 851
4 811 812 853 852
4 812 813 854 853
4 813 814 855 854
4 814 815 856 855
4 815 816 857 856
4 816 817 858 857
4 817 818 859 858
4 818 819 860 859
CELL_TYPES 800
9
9
9
9
9
9
9
9
9
9
9
9
9
9
9
9
9
9
9
9
9
9
9
9
9
9
9
9
9
9
9
9
9
9
9
9
9
9
9
9
9
9
9
9
9
9
9
9
9
9
9
9
9
9
9
9
9
9
9
9
9
9
9
9
9
9
9
9
9
9
9
9
9
9
9
9
9
9
9
9
9
9
9
9
9
9
9
9
9
9
9
9
9
9
9
9
9
9
9
9
9
9
9
9
9
9
9
9
9
9
9
9
9
9
9
9
9
9
9
9
9
9
9
9
9
9
9
9
9
9
9
9
9
9
9
9
9
9
9
9
9
9
9
9
9
9
9
9
9
9
9
9
9
9
9
9
9
9
9
9
9
9
9
9
9
9
9
9
9
9
9
9
9
9
9
9
9
9
9
9
9
9
9
9
9
9
9
9
9
9
9
9
9
9
9
9
9
9
9
9
9
9
9
9
9
9
9
9
9
9
9
9
9
9
9
9
9
9
9
9
9
9
9
9
9
9
9
9
9
9
9
9
9
9
9
9
9
9
9
9
9
9
9
9
9
9
9
9
9
9
9
9
9
9
9
9
9
9
9
9
9
9
9
9
9
9
9
9
9
9
9
9
9
9
9
9
9
9
9
9
9
9
9
9
9
9
9
9
9
9
9
9
9
9
9
9
9
9
9
9
9
9
9
9
9
9
9
9
9
9
9
9
9
9
9
9
9
9
9
9
9
9
9
9
9
9
9
9
9
9
9
9
9
9
9
9
9
9
9
9
9
9
9
9
9
9
9
9
9
9
9
9
9
9
9
9
9
9
9
9
9
9
9
9
9
9
9
9
9
9
9
9
9
9
9
9
9
9
9
9
9
9
9
9
9
9
9
9
9
9
9
9
9
9
9
9
9
9
9
9
9
9
9
9
9
9
9
9
9
9
9
9
9
9
9
9
9
9
9
9
9
9
9
9
9
9
9
9
9
9
9
9
9
9
9
9
9
9
9
9
9
9
9
9
9
9
9
9
9
9
9
9
9
9
9
9
9
9
9
9
9
9
9
9
9
9
9
9
9
9
9
9
9
9
9
9
9
9
9
9
9
9
9
9
9
9
9
9
9
9
9
9
9
9
9
9
9
9
9
9
9
9
9
9
9
9
9
9
9
9
9
9
9
9
9
9
9
9
9
9
9
9
9
9
9
9
9
9
9
9
9
9
9
9
9
9
9
9
9
9
9
9
9
9
9
9
9
9
9
9
9
9
9
9
9
9
9
9
9
9
9
9
9
9
9
9
9
9
9
9
9
9
9
9
9
9
9
9
9
9
9
9
9
9
9
9
9
9
9
9
9
9
9
9
9
9
9
9
9
9
9
9
9
9
9
9
9
9
9
9
9
9
9
9
9
9
9
9
9
9
9
9
9
9
9
9
9
9
9
9
9
9
9
9
9
9
9
9
9
9
9
9
9
9
9
9
9
9
9
9
9
9
9
9
9
9
9
9
9
9
9
9
9
9
9
9
9
9
9
9
9
9
9
9
9
9
9
9
9
9
9
9
9
9
9
9
9
9
9
9
9
9
9
9
9
9
9
9
9
9
9
9
9
9
9
9
9
9
9
9
9
9
9
9
9
9
9
9
9
9
9
9
9
9
9
9
9
9
9
9
9
9
9
9
9
9
9
9
9
9
9
9
9
9
9
9
9
9
9
9
9
9
9
9
9
9
9
9
9
9
9
9
9
9
9
9
9
9
9
9
9
9
9
9
9
9
9
9
9
9
9
9
9
9
9
9
9
9
9
9
9
9
9
9
9
9
9
9
9
9
POINT_DATA 861
SCALARS Disp float 2
LOOKUP_TABLE default
0.0 0.0
0.004700556291065714 -0.085906182087767
0.008372457247760918 -0.15849379019577076
0.011317817451529604 -0.22983542702939222
0.01468277476170769 -0.29980493884834397
0.018729732125617113 -0.36837121244369986
0.0235877313142952 -0.4352065957550601
0.029308561726532383 -0.4999570855566478
0.03590917667375862 -0.5622568706781039
0.04339350544105069 -0.621744637542432
0.051760960427171855 -0.6780632566693168
0.061010186986176204 -0.7308588735343804
0.07114035144005158 -0.7797798097012547
0.08215237664260572 -0.8244760726671022
0.09405159521133391 -0.8645981936460653
0.10685261019107352 -0.8997924218518133
0.12058418666430891 -0.9296870097910377
0.1352844151046619 -0.953864597829222
0.15096512632960973 -0.9718265494556264
0.16752428222755592 -0.9829884195652149
0.1846345344062954 -0.9867934635998127
0.20174478658503514 -0.9829884195652149
0.2183039424829811 -0.9718265494556263
0.23398465370792912 -0.9538645978292217
0.24868488214828202 -0.9296870097910375
0.26241645862151747 -0.8997924218518131
0.2752174736012569 -0.8645981936460647
0.28711669216998514 -0.824476072667102
0.29812871737253926 -0.7797798097012544
0.3082588818264146 -0.7308588735343803
0.317508108385419 -0.6780632566693168
0.3258755633715401 -0.621744637542432
0.3333598921388322 -0.5622568706781038
0.3399605070860585 -0.49995708555664764
0.34568133749829566 -0.4352065957550599
0.35053933668697373 -0.36837121244370014
0.35458629405088316 -0.2998049388483439
0.35795125136106126 -0.22983542702939244
0.36089661156483 -0.15849379019577062
0.36456851252152517 -0.08590618208776678
0.36926906881259086 0.0
0.02128012161543721 -0.0029191364587474885
0.02420716837060042 -0.08567862530227571
0.026233120037721956 -0.1589059813930919
0.0289622758481453 -0.23012280598439963
0.03195495541327956 -0.30018356747922553
0.035608782250108176 -0.368822210658285
0.039987021574165366 -0.4357449307958476
0.04513984175324408 -0.5005840993214362
0.051082239240298095 -0.5629737577307856
0.057818824114318774 -0.6225514254554628
0.06534976035669272 -0.6789598554855057
0.07367426536639037 -0.731845168656577
0.08279191224427387 -0.780855789416983
0.09270379585250264 -0.8256419889303857
0.10341466695168858 -0.8658549168678253
0.11493639916582606 -0.9011419595084278
0.1272905147273772 -0.9311326909907762
0.14050134782754656 -0.9554094359274796
0.15456347482421257 -0.9734673607448447
0.16937050122118286 -0.9847049330567327
0.1846345344062954 -0.9885399961890036
0.19989856759140814 -0.9847049330567327
0.2147055939883783 -0.9734673607448447
0.22876772098504441 -0.9554094359274795
0.24197855408521377 -0.931132690990776
0.2543326696467649 -0.9011419595084276
0.2658544018609023 -0.8658549168678248
0.2765652729600882 -0.8256419889303852
0.28647715656831696 -0.7808557894169829
0.2955948034462005 -0.7318451686565767
0.3039193084558981 -0.6789598554855059
0.31145024469827204 -0.6225514254554628
0.3181868295722928 -0.5629737577307857
0.3241292270593468 -0.5005840993214361
0.32928204723842547 -0.43574493079584725
0.33366028656248264 -0.36882221065828524
0.3373141133993113 -0.30018356747922553
0.34030679296444555 -0.2301228059843999
0.3430359487748689 -0.15890598139309176
0.3450619004419904 -0.08567862530227548
0.3479889471971536 -0.002919136458747496
0.04111128339856431 -0.005426594994210652
0.043210727265344834 -0.08551173572453678
0.04430108340285898 -0.15913309293024563
0.04648622526584279 -0.23040257783963225
0.049139931449314694 -0.300511365467056
0.052373466671046816 -0.3692272548080607
0.0562686346610349 -0.43622626385729446
0.060850893182515194 -0.5011453952693454
0.06613467611122054 -0.5636152846120264
0.07212354863887549 -0.6232733623835407
0.07881811814064148 -0.6797621165602847
0.08621799222094315 -0.7327276851198836
0.09432300913300193 -0.7818185545307835
0.10313412682464575 -0.8266851811037712
0.1126549430100478 -0.866979148182733
0.12289400849365752 -0.9023486640077542
0.13386616969543522 -0.9324243089456768
0.14558643354007886 -0.9567882521237339
0.1580434852187536 -0.9749309268724285
0.171141986706342 -0.9862366935654517
0.18463453440629543 -0.9900998236577564
0.19812708210624894 -0.9862366935654517
0.21122558359383728 -0.9749309268724284
0.22368263527251203 -0.9567882521237339
0.2354028991171557 -0.9324243089456766
0.2463750603189334 -0.902348664007754
0.2566141258025431 -0.8669791481827325
0.26613494198794513 -0.8266851811037708
0.27494605967958896 -0.7818185545307833
0.2830510765916477 -0.7327276851198834
0.2904509506719493 -0.679762116560285
0.29714552017371537 -0.6232733623835407
0.3031343927013703 -0.5636152846120265
0.3084181756300757 -0.5011453952693453
0.313000434151556 -0.4362262638572942
0.316895602141544 -0.3692272548080609
0.32012913736327614 -0.30051136546705604
0.3227828435467481 -0.2304025778396325
0.3249679854097319 -0.15913309293024552
0.326058341547246 -0.08551173572453655
0.3281577854140265 -0.005426594994210668
0.06008630794571927 -0.007569701913101551
0.06175397261208838 -0.08546266526414939
0.06233213262341894 -0.15923366574935563
0.0639585369306253 -0.23063373552134725
0.06622766441194915 -0.3007966140397245
0.06904072103396142 -0.3695815890156534
0.07244502009413435 -0.43665081706609143
0.07645555789978789 -0.5016405775375382
0.08108000468377864 -0.5641814719277758
0.08632115032959416 -0.6239104551667225
0.09217941863720001 -0.6804700634161859
0.09865470024816045 -0.7335064229261781
0.10574695197140786 -0.7826680510292221
0.11345676090369891 -0.8276054684636287
0.12178619373606993 -0.8679704749801272
0.13074021005741623 -0.9034118557419692
0.14032780874003542 -0.9335612799725033
0.15055867659109404 -0.9580018897986265
0.16142475816335064 -0.9762220711950279
0.17285273113098204 -0.9875945555119243
0.18463453440629543 -0.9914871966215982
0.1964163376816089 -0.9875945555119242
0.20784431064924025 -0.9762220711950278
0.21871039222149685 -0.9580018897986265
0.2289412600725555 -0.9335612799725032
0.23852885875517466 -0.903411855741969
0.24748287507652095 -0.8679704749801267
0.255812307908892 -0.8276054684636281
0.263522116841183 -0.7826680510292219
0.27061436856443044 -0.7335064229261777
0.27708965017539083 -0.680470063416186
0.2829479184829967 -0.6239104551667226
0.28818906412881223 -0.5641814719277757
0.29281351091280294 -0.5016405775375381
0.2968240487184565 -0.4366508170660911
0.30022834777862945 -0.3695815890156537
0.3030414044006417 -0.3007966140397245
0.30531053188196555 -0.2306337355213475
0.30693693618917184 -0.1592336657493555
0.30751509620050244 -0.08546266526414915
0.3091827608668715 -0.007569701913101571
0.07851428467601336 -0.009395042184876612
0.07992183010727079 -0.0855253817602552
0.08022723876537312 -0.15926187160381886
0.08137345043501351 -0.23080456037533284
0.08323208228094318 -0.30103680795097537
0.08561986343902986 -0.3698849776311789
0.08853017397687332 -0.4370177096776224
0.09196712485842513 -0.5020695998133405
0.09593180321317019 -0.5646722414476264
0.10042507034709053 -0.6244627179086423
0.10544705554631356 -0.6810837030443518
0.11099773573637058 -0.7341813771614926
0.11707708731904436 -0.7834042311221463
0.12368516696639871 -0.828402714051149
0.13082231330215477 -0.8688286115261462
0.13848986743635053 -0.9043311115704045
0.14669185176084779 -0.9345433743536967
0.1554359075075859 -0.9590513884166536
0.16472426343668417 -0.9773450725753703
0.17451372770013004 -0.9887875726740747
0.1846345344062954 -0.9927139919679407
0.1947553411124609 -0.9887875726740745
0.20454480537590677 -0.9773450725753701
0.21383316130500496 -0.9590513884166535
0.2225772170517431 -0.9345433743536965
0.23077920137624033 -0.9043311115704044
0.23844675551043612 -0.8688286115261457
0.2455839018461922 -0.8284027140511484
0.25219198149354655 -0.7834042311221461
0.2582713330762203 -0.7341813771614923
0.2638220132662773 -0.6810837030443518
0.26884399846550033 -0.6244627179086424
0.2733372655994207 -0.5646722414476265
0.2773019439541657 -0.5020695998133404
0.2807388948357175 -0.43701770967762205
0.28364920537356103 -0.36988497763117917
0.28603698653164766 -0.3010368079509754
0.2878956183775773 -0.2308045603753331
0.28904183004721773 -0.15926187160381874
0.28934723870532003 -0.08552538176025497
0.2907547841365774 -0.009395042184876636
0.09657277137179653 -0.010945451986093145
0.0977959220536938 -0.08567415257435355
0.09795725804862107 -0.15925516529346204
0.09871518951495437 -0.23091799501945226
0.10016436715870428 -0.30122905321281496
0.10212199094243733 -0.37013730606015216
0.1045369944959633 -0.43732653448318326
0.10739908224704062 -0.502432312468175
0.1107035263939846 -0.5650875601153617
0.11444876245452486 -0.6249301393395026
0.11863441897242137 -0.681603037355902
0.12326045875700584 -0.7347525383597758
0.12832678980837128 -0.7840270592981072
0.13383286554640333 -0.8290768323908518
0.1397772607730144 -0.8695534017389378
0.14615784721768485 -0.9051062360207685
0.15297442676940784 -0.9353706019871354
0.16023493059783514 -0.9599377405710088
0.16795693333923487 -0.9783034293272965
0.17613390203384038 -0.9898232444632342
0.18463453440629543 -0.9937904236969934
0.1931351667787505 -0.9898232444632341
0.20131213547335608 -0.9783034293272963
0.20903413821475572 -0.9599377405710088
0.216294642043183 -0.9353706019871352
0.22311122159490596 -0.9051062360207682
0.22949180803957647 -0.8695534017389375
0.23543620326618755 -0.8290768323908515
0.24094227900421963 -0.784027059298107
0.24600861005558505 -0.7347525383597756
0.2506346498401695 -0.6816030373559021
0.25482030635806596 -0.6249301393395026
0.25856554241860624 -0.5650875601153617
0.2618699865655502 -0.5024323124681749
0.26473207431662754 -0.4373265344831829
0.2671470778701535 -0.3701373060601524
0.26910470165388656 -0.30122905321281496
0.27055387929763647 -0.2309179950194525
0.27131181076396976 -0.15925516529346193
0.271473146758897 -0.08567415257435333
0.27269629744079427 -0.010945451986093174
0.11437249103469413 -0.012258178147159857
0.11544455694202994 -0.08588041398445916
0.11552614102416849 -0.1592358558408519
0.11597463058689747 -0.2309824267043331
0.1170322872313888 -0.30137265295939
0.1185589439165206 -0.37033836799834596
0.12047816078523278 -0.4375771984069488
0.12276481179161898 -0.5027285988983916
0.12540862059106866 -0.5654273951462089
0.12840565851525979 -0.625312704476595
0.13175490293135936 -0.682028059419605
0.13545623787133337 -0.7352198963886536
0.13950945372303117 -0.7845365149725355
0.14391340263669233 -0.8296277922410782
0.14866500544248393 -0.8701448152107523
0.1537589471963741 -0.9057372331402657
0.15919135715555488 -0.9360431234871808
0.16497172623459652 -0.9606617149757584
0.1711362092306073 -0.9790997056400933
0.17772071704769538 -0.9907076915198441
0.18463453440629546 -0.9947255765516712
0.19154835176489549 -0.990707691519844
0.19813285958198365 -0.9790997056400931
0.20429734257799428 -0.9606617149757583
0.21007771165703595 -0.9360431234871804
0.21551012161621677 -0.9057372331402654
0.22060406337010696 -0.870144815210752
0.22535566617589853 -0.8296277922410777
0.22975961508955972 -0.7845365149725353
0.23381283094125754 -0.7352198963886535
0.2375141658812315 -0.6820280594196051
0.24086341029733102 -0.625312704476595
0.24386044822152222 -0.5654273951462089
0.24650425702097187 -0.5027285988983915
0.24879090802735804 -0.4375771984069485
0.25071012489607025 -0.3703383679983462
0.25223678158120205 -0.30137265295939003
0.25329443822569336 -0.23098242670433333
0.25374292778842233 -0.15923585584085181
0.2538245118705609 -0.08588041398445893
0.2548965777778967 -0.012258178147159881
0.13198747174384814 -0.013364535164653107
0.13292290796775086 -0.08611885517539913
0.13295272195910124 -0.1592153419461422
0.13315156016520396 -0.2310069835758615
0.1338428454166144 -0.3014689569976478
0.13494249257369367 -0.37048822894740346
0.13636643972054968 -0.43776976210693536
0.1380775990767273 -0.502958420653856
0.14006051541355433 -0.5656917153163002
0.14230917754190126 -0.6256103955947155
0.1448218999033339 -0.682358756645927
0.14759844833058944 -0.7355834414020378
0.15063848355948053 -0.7849325935905478
0.15394032543354336 -0.8300556143896004
0.15749947707108194 -0.8706029379104899
0.16130783636499563 -0.9062242823569859
0.16535817521120402 -0.936561191585057
0.1696616854213931 -0.9612237413810972
0.1742745317481722 -0.9797354144835113
0.17928059788564318 -0.991445755388729
0.18463453440629546 -0.9955278529569278
0.18998847092694762 -0.9914457553887288
0.1949945370644187 -0.9797354144835112
0.1996073833911977 -0.961223741381097
0.20391089360138684 -0.9365611915850567
0.20796123244759523 -0.9062242823569858
0.21176959174150892 -0.8706029379104896
0.21532874337904748 -0.8300556143895998
0.21863058525311035 -0.7849325935905477
0.22167062048200142 -0.7355834414020376
0.22444716890925695 -0.682358756645927
0.22695989127068955 -0.6256103955947155
0.2292085533990365 -0.5656917153163004
0.23119146973586352 -0.5029584206538558
0.23290262909204112 -0.43776976210693497
0.23432657623889716 -0.37048822894740374
0.23542622339597644 -0.3014689569976478
0.23611750864738684 -0.23100698357586172
0.2363163468534896 -0.15921534194614206
0.23634616084483998 -0.08611885517539894
0.2372815970687427 -0.01336453516465313
0.14947032945704444 -0.01429046549960411
0.15027553883411632 -0.08636909732795238
0.15026174536726244 -0.1591979507826243
0.1502530507117397 -0.23099951839828364
0.15060407484315538 -0.3015205532727712
0.15128431584744748 -0.37058740333748436
0.15221469376643368 -0.4379044025064715
0.15335070391306047 -0.5031218065688824
0.15467261563942059 -0.5658805003814269
0.1561727291684658 -0.6258231919845522
0.15784879918864844 -0.6825951128925872
0.1597004688667177 -0.7358431646592883
0.1617272859170129 -0.7852153055446717
0.16392716117882358 -0.830360365327961
0.16629452189266825 -0.8709279580840783
0.16881900069186698 -0.9065677196181118
0.17149014525649064 -0.9369251260724822
0.17431985727649107 -0.9616238530983167
0.1773837984794467 -0.9802109119925171
0.18081925872221544 -0.9920410158564713
0.1846345344062954 -0.9962053929131439
0.18844981009037545 -0.9920410158564711
0.19188527033314412 -0.9802109119925171
0.1949492115360998 -0.9616238530983164
0.19777892355610013 -0.936925126072482
0.2004500681207239 -0.9065677196181117
0.2029745469199226 -0.8709279580840781
0.20534190763376725 -0.8303603653279606
0.20754178289557795 -0.7852153055446716
0.20956859994587318 -0.7358431646592882
0.2114202696239424 -0.6825951128925872
0.21309633964412505 -0.625823191984552
0.21459645317317025 -0.5658805003814268
0.21591836489953034 -0.5031218065688823
0.21705437504615713 -0.43790440250647106
0.21798475296514333 -0.37058740333748463
0.2186649939694354 -0.3015205532727712
0.2190160181008511 -0.2309995183982839
0.2190073234453284 -0.15919795078262416
0.21899352997847454 -0.08636909732795219
0.2197987393555464 -0.014290465499604143
0.1668605658679906 -0.015057485434693348
0.1675389873696187 -0.08661564074489433
0.16747952973982647 -0.15918377693820507
0.1672912572729969 -0.23096599293496697
0.1673257730369665 -0.3015305177985408
0.16759626913746453 -0.37063682308444235
0.16803586777608004 -0.43798141400054263
0.1685974005822903 -0.5032188341757964
0.16925830761758137 -0.5659937436174158
0.17000971285210079 -0.6259510713560915
0.17084898646971305 -0.6827371095239606
0.17177567875709096 -0.7359990589030154
0.17278926273132747 -0.7853846735241204
0.17388740072058517 -0.830542147418416
0.17506386561378331 -0.8711201472667435
0.17630668906452482 -0.9067680227184549
0.17760227718467275 -0.9371353234040457
0.17896119485222234 -0.9618616880314422
0.1804758227066899 -0.9805252920895673
0.1823419875336413 -0.9924957109836262
0.1846345344062954 -0.9967665152300228
0.18692708127894955 -0.9924957109836261
0.18879324610590092 -0.9805252920895673
0.1903078739603685 -0.961861688031442
0.19166679162791805 -0.9371353234040456
0.19296237974806602 -0.9067680227184548
0.1942052031988075 -0.8711201472667432
0.1953816680920057 -0.8305421474184158
0.19647980608126336 -0.7853846735241203
0.19749339005549996 -0.7359990589030151
0.19842008234287778 -0.6827371095239606
0.19925935596049008 -0.6259510713560915
0.20001076119500946 -0.5659937436174156
0.2006716682303005 -0.5032188341757962
0.20123320103651077 -0.4379814140005422
0.2016727996751263 -0.3706368230844425
0.20194329577562434 -0.3015305177985408
0.2019778115395939 -0.23096599293496717
0.20178953907276434 -0.15918377693820493
0.20173008144297216 -0.08661564074489414
0.2024085029446002 -0.015057485434693381
0.18418930006186063 -0.015683712628631497
0.1847438441578945 -0.08684721452058698
0.18463196166251863 -0.15917060742117015
0.18428156666574763 -0.2309105199191
0.1840195884583027 -0.3015018984050604
0.1838906410356266 -0.370637700665566
0.18384301377644477 -0.43800119788679287
0.18383099369734726 -0.5032496148664907
0.18383096823716982 -0.5660314489983945
0.18383351746168455 -0.6259940111818137
0.1838358431711812 -0.6827847262448707
0.183837455684717 -0.7360511181439175
0.18383780615152165 -0.7854407288342861
0.1838344878271685 -0.8306010865186592
0.18382108586134668 -0.8711798358575583
0.18378485547715673 -0.9068257968761086
0.18370930850283104 -0.9371922996263846
0.18360078298598798 -0.9619365565819963
0.18356283224023034 -0.9806762820337911
0.18385393968256528 -0.99281053132975
0.1846345344062954 -0.9972202273990809
0.18541512913002556 -0.99281053132975
0.1857062365723605 -0.980676282033791
0.18566828582660283 -0.9619365565819961
0.18555976030975976 -0.9371922996263846
0.18548421333543408 -0.9068257968761084
0.18544798295124412 -0.8711798358575584
0.18543458098542234 -0.8306010865186589
0.18543126266106918 -0.785440728834286
0.1854316131278739 -0.7360511181439172
0.18543322564140963 -0.6827847262448709
0.18543555135090628 -0.6259940111818137
0.185438100575421 -0.5660314489983942
0.18543807511524352 -0.5032496148664906
0.18542605503614604 -0.43800119788679237
0.18537842777696426 -0.3706377006655663
0.18524948035428812 -0.3015018984050605
0.18498750214684323 -0.2309105199191002
0.18463710715007217 -0.15917060742117
0.1845252246546963 -0.08684721452058679
0.1850797687507302 -0.01568371262863153
0.20148204395716865 -0.01618482955917608
0.20191627727754974 -0.08705600131797059
0.20174365220099827 -0.15915516270634894
0.2012412629629659 -0.23083567095268326
0.20069880913722743 -0.30143742034410664
0.20018030522663985 -0.37059136713618557
0.19964933419288663 -0.4379642290636003
0.19906482481163904 -0.5032142804404621
0.19840397046682448 -0.56599362637804
0.19765752171951914 -0.6259519892393093
0.1968227458601193 -0.6827379419037095
0.1958991744517019 -0.7359993369981661
0.19488629519511044 -0.7853835071221335
0.19378181452804946 -0.8305373184385987
0.19257959793428217 -0.871107382908428
0.19126709797488328 -0.906741753272546
0.18982562971076364 -0.9370967611725901
0.18825402067066363 -0.9618475935339571
0.18665805326459278 -0.9806601546258644
0.18536050281615596 -0.9929842403108442
0.18463453440629543 -0.9975768566400754
0.18390856599643488 -0.9929842403108442
0.18261101554799802 -0.9806601546258643
0.18101504814192715 -0.9618475935339569
0.17944343910182717 -0.9370967611725901
0.17800197083770752 -0.9067417532725459
0.1766894708783087 -0.871107382908428
0.17548725428454134 -0.8305373184385985
0.17438277361748036 -0.7853835071221333
0.17336989436088898 -0.7359993369981659
0.17244632295247156 -0.6827379419037096
0.17161154709307166 -0.6259519892393093
0.17086509834576635 -0.5659936263780397
0.17020424400095174 -0.503214280440462
0.1696197346197042 -0.4379642290635999
0.16908876358595096 -0.37059136713618585
0.1685702596753634 -0.3014374203441067
0.16802780584962493 -0.23083567095268348
0.1675254166115926 -0.1591551627063488
0.16735279153504107 -0.08705600131797037
0.16778702485542218 -0.01618482955917613
0.21876033253689875 -0.016574927870541555
0.21907908556997713 -0.08723692074574435
0.21883766285549333 -0.1591338708044775
0.21818864974799818 -0.23074285811780498
0.2173780617299822 -0.30133935285807156
0.21647876818881845 -0.3704991260547096
0.2154682171222677 -0.4378710064526005
0.2143122755525373 -0.5031129680354148
0.21299068495324106 -0.5658802863969243
0.21149509466358912 -0.6258249835696406
0.20982306596655384 -0.6825967352706986
0.20797420671191275 -0.7358437097829061
0.20594809423233398 -0.7852130437813992
0.20374272142364208 -0.8303509759531214
0.20135265841583613 -0.8709031411701164
0.1987666036570088 -0.9065166699442807
0.19596512594274515 -0.9368496898755175
0.19293670481859365 -0.9615940201971312
0.1897764301028934 -0.9804716972203145
0.18686783003147503 -0.9930130444870152
0.1846345344062954 -0.9978488635082987
0.18240123878111578 -0.9930130444870152
0.1794926387096974 -0.9804716972203142
0.17633236399399715 -0.961594020197131
0.17330394286984563 -0.9368496898755174
0.17050246515558204 -0.9065166699442807
0.1679164103967547 -0.8709031411701165
0.1655263473889487 -0.8303509759531211
0.16332097458025685 -0.7852130437813992
0.1612948621006781 -0.735843709782906
0.15944600284603702 -0.6825967352706985
0.1577739741490017 -0.6258249835696406
0.15627838385934978 -0.5658802863969241
0.15495679326005354 -0.5031129680354147
0.15380085169032312 -0.4378710064526002
0.15279030062377238 -0.37049912605470986
0.15189100708260864 -0.30133935285807156
0.15108041906459269 -0.23074285811780518
0.15043140595709747 -0.15913387080447736
0.1501899832426137 -0.08723692074574413
0.15050873627569208 -0.016574927870541618
0.2360426350483819 -0.01686722342946642
0.23625237656642956 -0.08738703077578562
0.23593550539750177 -0.15910334437039375
0.2351425290609354 -0.23063270283434195
0.23407302553064585 -0.3012094747635102
0.2328001407546062 -0.37036213664645956
0.2313132486526742 -0.4377219971927913
0.2295867667357862 -0.5029458029899289
0.2276044786677823 -0.5656914357246667
0.2253595956376035 -0.6256129723031356
0.22285016980902253 -0.6823610858471948
0.22007592184441804 -0.7355842296511845
0.21703655381484732 -0.784929369031146
0.2137305002454484 -0.8300421779410208
0.21015338893827146 -0.8705674216203153
0.20629612376573023 -0.90615132273754
0.2021409137788485 -0.9364524127064354
0.1976649127166906 -0.9611755499505626
0.19293553105926328 -0.9801043218210245
0.18838371397497994 -0.992889597499966
0.1846345344062954 -0.9980519069805658
0.1808853548376109 -0.9928895974999661
0.1763335377533275 -0.9801043218210244
0.17160415609590016 -0.9611755499505624
0.16712815503374231 -0.9364524127064352
0.16297294504686063 -0.9061513227375398
0.15911567987431935 -0.8705674216203153
0.15553856856714232 -0.8300421779410206
0.1522325149977435 -0.7849293690311457
0.1491931469681728 -0.7355842296511844
0.1464188990035683 -0.6823610858471948
0.14390947317498734 -0.6256129723031355
0.1416645901448085 -0.5656914357246666
0.1396823020768046 -0.5029458029899287
0.13795582015991661 -0.437721997192791
0.1364689280579846 -0.3703621366464598
0.13519604328194496 -0.30120947476351023
0.13412653975165542 -0.23063270283434215
0.1333335634150891 -0.1591033443703936
0.1330166922461613 -0.08738703077578541
0.13322643376420895 -0.016867223429466484
0.25334476976278875 -0.017074649225104023
0.2534539464801873 -0.08750505837815067
0.25305727920573184 -0.15906068679292384
0.2521219527682525 -0.23050535763235058
0.25080020351657656 -0.3010490885608841
0.24915906059082482 -0.3701813248934738
0.24719819784548394 -0.4375175829287726
0.24490175136015302 -0.5027128811753863
0.2422587113651081 -0.5654270729765261
0.23926437381448934 -0.6253159337343346
0.2359174188624384 -0.6820309747553004
0.2322176885910105 -0.735220888220813
0.22816501531395122 -0.7845325025743787
0.22375839571967648 -0.8296110206647743
0.21899481308858487 -0.8701004666172183
0.2138680221733029 -0.9056463784670151
0.20836498354298907 -0.9359065983408674
0.20245449120949546 -0.9605929661026474
0.19615665956902129 -0.97955048343803
0.18991913602412333 -0.9926014668082584
0.1846345344062954 -0.9982062228686834
0.17934993278846748 -0.9926014668082584
0.17311240924356947 -0.9795504834380299
0.1668145776030953 -0.9605929661026473
0.16090408526960173 -0.9359065983408672
0.15540104663928797 -0.9056463784670151
0.15027425572400596 -0.8701004666172182
0.14551067309291427 -0.8296110206647741
0.14110405349863958 -0.7845325025743786
0.1370513802215803 -0.7352208882208128
0.13335164995015245 -0.6820309747553004
0.13000469499810147 -0.6253159337343345
0.12701035744748274 -0.5654270729765261
0.12436731745243779 -0.5027128811753862
0.12207087096710689 -0.4375175829287722
0.120110008221766 -0.370181324893474
0.11846886529601432 -0.3010490885608842
0.11714711604433838 -0.23050535763235086
0.11621178960685902 -0.1590606867929237
0.1158151223324035 -0.08750505837815047
0.11592429904980209 -0.01707464922510408
0.2706799225461324 -0.017210334235124292
0.27069941585493645 -0.08759105964928057
0.27022190352431097 -0.15900372069229451
0.2691461902176642 -0.23036076798294192
0.26757675619046795 -0.3008590441232982
0.265570583018487 -0.36995731569920415
0.2631369763672451 -0.4372580138746258
0.2602707002142412 -0.5024142531242175
0.25696673025417655 -0.5650871857427453
0.2532227674325391 -0.6249338469603939
0.2490381705421451 -0.6816063856431344
0.2444128762837122 -0.7347536761446755
0.23934682072231797 -0.7840224487106364
0.23383960946824076 -0.8290575674321878
0.22788987944848305 -0.8695024444452417
0.2214944499551821 -0.9050022629704982
0.2146478554506504 -0.9352140780117192
0.2073198148979219 -0.9598488600853547
0.19946605414862636 -0.9788027325172757
0.19149118019331302 -0.9921288275443522
0.1846345344062954 -0.998338318321692
0.17777788861927776 -0.9921288275443522
0.1698030146639644 -0.9788027325172753
0.16194925391466888 -0.9598488600853546
0.15462121336194037 -0.9352140780117191
0.14777461885740872 -0.9050022629704981
0.1413791893641078 -0.8695024444452416
0.13542945934434997 -0.8290575674321877
0.12992224809027283 -0.7840224487106363
0.12485619252887864 -0.7347536761446752
0.1202308982704457 -0.6816063856431345
0.11604630138005177 -0.6249338469603938
0.1123023385584143 -0.5650871857427452
0.10899836859834956 -0.5024142531242173
0.10613209244534569 -0.4372580138746255
0.10369848579410383 -0.3699573156992043
0.1016923126221229 -0.30085904412329834
0.10012287859492662 -0.23036076798294217
0.09904716528827986 -0.15900372069229438
0.0985696529576544 -0.08759105964928038
0.09858914626645848 -0.01721033423512434
0.28805827815659124 -0.01728796598318465
0.2880021549316393 -0.08764622164291896
0.28744747129168463 -0.15893121068190974
0.286234880151779 -0.23019886347876184
0.2844203798397407 -0.30063974163440066
0.2820500483150896 -0.36969037960337225
0.27914357793255057 -0.4369433742579005
0.27570708009570927 -0.5020499122135023
0.2717418633458475 -0.5646717492998027
0.2672481027913774 -0.624466693334757
0.2622257800542329 -0.6810873056427935
0.25667485516957855 -0.7341825840831683
0.25059532329598566 -0.7833991956687383
0.24398732527688743 -0.8283818290147378
0.23685142369106976 -0.8687734688303246
0.22918764295348243 -0.9042190709676893
0.22099860412622202 -0.9343763384064291
0.21227129869781916 -0.9589483687801643
0.2028955799207809 -0.9778560340005846
0.19312883061391178 -0.9914411058007822
0.18463453440629538 -0.9984827671725206
0.176140238198679 -0.9914411058007822
0.1663734888918099 -0.9778560340005842
0.15699777011477167 -0.9589483687801641
0.14827046468636879 -0.934376338406429
0.14008142585910838 -0.9042190709676893
0.13241764512152104 -0.8687734688303244
0.1252817435357033 -0.8283818290147376
0.11867374551660517 -0.7833991956687383
0.11259421364301228 -0.734182584083168
0.10704328875835784 -0.6810873056427935
0.10202096602121338 -0.624466693334757
0.09752720546674333 -0.5646717492998026
0.09356198871688158 -0.502049912213502
0.09012549088004021 -0.4369433742579002
0.08721902049750124 -0.3696903796033725
0.08484868897285006 -0.3006397416344007
0.08303418866081183 -0.2301988634787621
0.08182159752090619 -0.15893121068190963
0.08126691388095156 -0.08764622164291877
0.0812107906559996 -0.017287965983184713
0.3054861771823921 -0.017322013025315372
0.3053730236825328 -0.08767285244190734
0.304751825878652 -0.15884313696882277
0.3034083433518089 -0.23001965401223098
0.3013491896551198 -0.30039109085072824
0.29861292980271104 -0.36938039175605253
0.2952320036216227 -0.436573561103719
0.2912243255753731 -0.5016197887413352
0.2865974122749551 -0.5641807277163183
0.28135369342523453 -0.6239144585684983
0.2754936020056303 -0.6804737273658045
0.26901700134456624 -0.7335076013490238
0.2619238812614157 -0.7826627245278475
0.25421478630203553 -0.8275837367788355
0.24589207460423843 -0.8679135977727984
0.23696007299516061 -0.9032966837907227
0.22742608550924867 -0.9333935619700172
0.21731123938605632 -0.9578992940635421
0.20648068340826276 -0.976712577512793
0.19488525704202547 -0.9904924168636315
0.18463453440629538 -0.9986831975146453
0.17438381177056528 -0.9904924168636314
0.162788385404328 -0.9767125775127926
0.15195782942653452 -0.9578992940635419
0.1418429833033421 -0.933393561970017
0.13230899581743022 -0.9032966837907227
0.12337699420835235 -0.8679135977727983
0.11505428251055519 -0.8275837367788353
0.10734518755117511 -0.7826627245278474
0.10025206746802451 -0.7335076013490236
0.09377546680696049 -0.6804737273658045
0.08791537538735625 -0.6239144585684981
0.08267165653763567 -0.5641807277163182
0.07804474323721776 -0.501619788741335
0.07403706519096805 -0.43657356110371864
0.07065613900987981 -0.3693803917560528
0.06791987915747104 -0.30039109085072824
0.0658607254607819 -0.23001965401223123
0.06451724293393878 -0.15884313696882263
0.06389604513005803 -0.08767285244190715
0.06378289163019871 -0.017322013025315438
0.3229645667809793 -0.01732774700820507
0.32281996425670495 -0.08767467599666805
0.3221535780215203 -0.15874105717705253
0.3206880000246935 -0.22982317481776046
0.3183815503251551 -0.3001124166223312
0.31527467254595637 -0.3690268067190794
0.3114161763162956 -0.43614827637538467
0.3068358068828213 -0.5011237515476973
0.30154664493742594 -0.5636140781676854
0.29555284179647046 -0.6232771347214209
0.2888549868745377 -0.679765652961014
0.2814527139747159 -0.7327287130686296
0.2733458349687009 -0.7818130145828278
0.2645353502196176 -0.8266631671444022
0.25502443922718077 -0.8669226575889968
0.244823544393926 -0.9022353028430785
0.23394251222063067 -0.9322635608440328
0.22242959231709747 -0.9567096804909702
0.21024774282846007 -0.9753914008037937
0.19686593060162325 -0.9892164886986597
0.18463453440629538 -0.9989894010106096
0.1724031382109675 -0.9892164886986597
0.1590213259841307 -0.9753914008037936
0.1468394764954934 -0.9567096804909698
0.1353265565919601 -0.9322635608440326
0.12444552441866481 -0.9022353028430785
0.11424462958540998 -0.8669226575889967
0.10473371859297317 -0.8266631671444021
0.09592323384388983 -0.7818130145828277
0.08781635483787487 -0.7327287130686294
0.08041408193805305 -0.6797656529610139
0.07371622701612035 -0.6232771347214208
0.0677224238751648 -0.5636140781676853
0.062433261929769515 -0.5011237515476971
0.057852892496295175 -0.4361482763753844
0.053994396266634485 -0.3690268067190797
0.05088751848743579 -0.3001124166223311
0.04858106878789733 -0.22982317481776068
0.0471154907910705 -0.1587410571770524
0.046449104555885856 -0.08767467599666785
0.04630450203161154 -0.01732774700820514
0.34048623953531465 -0.01732094153019317
0.3403475431094489 -0.08765769096501252
0.33967400964675243 -0.1586285451665443
0.3380966810339007 -0.22960916750138216
0.3355358197905599 -0.2998023359037327
0.33205053915296073 -0.3686286520161897
0.3277098404135845 -0.43566703126574197
0.3225547997322657 -0.5005616198735555
0.3166027899088084 -0.5629717570462229
0.3098588378270669 -0.6225547257625622
0.3023232932150942 -0.6789630892226404
0.29399537928484937 -0.731845925407457
0.28487465035708287 -0.780849976118521
0.2749620771330295 -0.8256201375636981
0.2642623765363914 -0.8657998366845052
0.25278664867701783 -0.9010358180504627
0.24056649637954453 -0.9309832827400479
0.22761353732999356 -0.9553772962576057
0.21416248398097312 -0.9739468577085285
0.19929935630517556 -0.9875255093005684
0.18463453440629538 -0.9994405045535314
0.1699697125074151 -0.9875255093005683
0.1551065848316176 -0.9739468577085285
0.14165553148259727 -0.9553772962576054
0.12870257243304628 -0.9309832827400477
0.11648242013557299 -0.9010358180504627
0.10500669227619938 -0.8657998366845053
0.09430699167956122 -0.825620137563698
0.08439441845550782 -0.7808499761185208
0.07527368952774137 -0.7318459254074567
0.06694577559749655 -0.6789630892226403
0.059410230985523865 -0.622554725762562
0.052666278903782345 -0.5629717570462229
0.04671426908032511 -0.5005616198735554
0.041559228399006345 -0.4356670312657417
0.037218529659630135 -0.3686286520161901
0.03373324902203096 -0.2998023359037326
0.03117238777869013 -0.22960916750138236
0.02959505916583841 -0.15862854516654418
0.02892152570314192 -0.08765769096501233
0.0287828292772762 -0.01732094153019323
0.35803080918623964 -0.01731700316719738
0.3579566678078448 -0.08763216347152562
0.3573408747765783 -0.15851154521949806
0.3556580473059781 -0.22937629684093633
0.3528302476983022 -0.2994587325120097
0.348955380825922 -0.3681845020986519
0.3441264738842448 -0.4351291783336338
0.33839445569128895 -0.4999331814555587
0.33177903293812055 -0.5622537308040318
0.32428496365658244 -0.6217472488688646
0.3159118789479902 -0.6780660599762794
0.30665841934036975 -0.7308592277689804
0.2965237283763756 -0.7797736092642591
0.2855085526762923 -0.8244542582152216
0.273617964082198 -0.8645456054700017
0.2608659970753407 -0.8996938172137396
0.24728736176791433 -0.9295649330554437
0.23294689463485574 -0.9538557674100115
0.2179321588537014 -0.9725005671399912
0.202736042726946 -0.9853328946102706
0.18463453440629535 -1.0
0.1665330260856447 -0.9853328946102704
0.1513369099588893 -0.9725005671399913
0.13632217417773504 -0.9538557674100112
0.12198170704467648 -0.9295649330554433
0.10840307173725025 -0.8996938172137396
0.09565110473039273 -0.8645456054700017
0.08376051613629838 -0.8244542582152212
0.07274534043621511 -0.779773609264259
0.06261064947222096 -0.7308592277689802
0.053357189864600515 -0.6780660599762793
0.04498410515600834 -0.6217472488688641
0.03749003587447029 -0.5622537308040317
0.030874613121301894 -0.49993318145555854
0.025142594928346067 -0.43512917833363346
0.020313687986668858 -0.3681845020986522
0.01643882111428861 -0.2994587325120097
0.013611021506612761 -0.22937629684093655
0.011928194036012559 -0.15851154521949795
0.011312401004746044 -0.08763216347152546
0.011238259626351228 -0.01731700316719743
SCALARS Stress float 6
LOOKUP_TABLE default
-204.39841033748397 -6503.2838434358155 -2012.30467613199 -151.09531269580265 0.0 0.0
3080.2194031786985 1820.2188332112441 1470.1314709169828 -234.70130379741232 0.0 0.0
1751.3576628625171 -155.3328638745703 478.8074396963841 -100.37909826316128 0.0 0.0
1792.07344603121 136.4293779530967 578.5508471952921 -14.950142273811974 0.0 0.0
2057.515171993069 49.64137946619383 632.1469654377789 -34.45578862815293 0.0 0.0
2476.477822984069 70.14277120160575 763.9861782557025 -35.50537603726656 0.0 0.0
2939.027222476295 76.42915955028532 904.6369146079744 -37.649137883319916 0.0 0.0
3423.1628442943706 89.01756010774685 1053.6541213206353 -38.464875899066655 0.0 0.0
3912.9479200607793 101.40174006597806 1204.3048980380274 -38.75494744888309 0.0 0.0
4403.82578659388 114.19366012082476 1355.405834014412 -38.830442795020545 0.0 0.0
4894.15380900685 126.94764080731655 1506.3304349442496 -38.83043805589932 0.0 0.0
5383.877603723037 139.6945286359774 1657.0716397077042 -38.83903752160142 0.0 0.0
5873.64492391982 152.48581194783 1807.8392207602953 -38.91468259072294 0.0 0.0
6365.22673462354 165.50098894059553 1959.2183170692408 -39.13752554185811 0.0 0.0
6862.513342165032 179.04808782876398 2112.468428998139 -39.59377518018003 0.0 0.0
7372.078673657574 193.44546098625904 2269.6572403931505 -40.24080259155687 0.0 0.0
7900.302192374618 208.52247862516208 2432.6474012999342 -40.53379546751309 0.0 0.0
8441.849197063362 222.6868025703953 2599.3607998901275 -38.85364245304144 0.0 0.0
8956.711486491287 232.4119794450534 2756.737039780904 -32.40709415097842 0.0 0.0
9350.458304825706 234.7821492819534 2875.5721362322993 -18.957903381805423 0.0 0.0
9501.285978931326 233.44654219918502 2920.4197563391535 -5.130118552187923e-12 0.0 0.0
9350.458304825659 234.78214928187128 2875.5721362322597 18.95790338179218 0.0 0.0
8956.711486491058 232.41197944451778 2756.7370397806726 32.40709415102391 0.0 0.0
8441.849197063533 222.68680257071935 2599.3607998902758 38.85364245300137 0.0 0.0
7900.3021923747065 208.52247862537405 2432.6474013000247 40.53379546755032 0.0 0.0
7372.078673657519 193.44546098620842 2269.6572403931186 40.24080259152842 0.0 0.0
6862.513342164891 179.04808782854818 2112.4684289980314 39.593775180206734 0.0 0.0
6365.226734623948 165.50098894150557 1959.2183170696362 39.13752554184684 0.0 0.0
5873.644923919514 152.48581194714941 1807.839220759999 38.91468259066322 0.0 0.0
5383.877603723283 139.69452863656295 1657.0716397079543 38.83903752162472 0.0 0.0
4894.153809006778 126.94764080715748 1506.3304349441808 38.83043805587916 0.0 0.0
4403.825786593922 114.19366012094926 1355.405834014461 38.83044279506255 0.0 0.0
3912.9479200605597 101.40174006542838 1204.3048980377962 38.754947448944286 0.0 0.0
3423.162844294278 89.0175601075153 1053.6541213205378 38.46487589906327 0.0 0.0
2939.0272224764585 76.42915955067372 904.6369146081398 37.649137883300604 0.0 0.0
2476.4778229841177 70.1427712017239 763.9861782557525 35.505376037268796 0.0 0.0
2057.5151719930072 49.64137946601822 632.1469654377075 34.45578862819262 0.0 0.0
1792.0734460312185 136.42937795304266 578.5508471952783 14.950142273778347 0.0 0.0
1751.3576628625065 -155.33286387460416 478.8074396963707 100.37909826313351 0.0 0.0
3080.219403178718 1820.2188332112955 1470.1314709170042 234.7013037973886 0.0 0.0
-204.3984103374684 -6503.2838434358255 -2012.3046761319877 151.0953126957827 0.0 0.0
-1160.6002576078301 -6460.6913128326405 -2286.3874711321414 -103.2542396922329 0.0 0.0
1894.4396785940169 1245.360261408639 941.9399820007967 -187.13086896422516 0.0 0.0
1231.4480542844228 -174.76702560870382 317.0043086027158 -70.1611597818888 0.0 0.0
1598.4152839434041 61.79247307460801 498.06232710540365 -58.07257970008201 0.0 0.0
1829.2512206344445 7.671821247755163 551.07691256466 -83.72864648629132 0.0 0.0
2209.2285939361022 6.1063596420518635 664.6004860734464 -94.84857066376615 0.0 0.0
2619.2980430355024 2.0419060982820634 786.4019847401355 -99.83416117233872 0.0 0.0
3048.404188007585 0.624088599283426 914.7084829820608 -101.87510682757753 0.0 0.0
3483.264871175597 0.06523718235850612 1044.9990325073866 -102.43542155566904 0.0 0.0
3919.612967377804 -0.08327893552893306 1175.8589065326823 -102.49278494432198 0.0 0.0
4355.854330427127 -0.08428802361194254 1306.7310127210546 -102.41464877264372 0.0 0.0
4791.7944320687775 -0.012919776139088679 1437.5344536877917 -102.37624927012992 0.0 0.0
5227.969973482748 0.17962651598297263 1568.444879999619 -102.51822134683962 0.0 0.0
5665.86450537851 0.6359565147999935 1699.9501385679928 -103.08910795019882 0.0 0.0
6108.4984977524555 1.4943708304560777 1832.9978605748738 -104.47878684486145 0.0 0.0
6560.385988390841 2.5366808038611186 1968.8768007584104 -106.94047236683733 0.0 0.0
7024.377441171793 2.4264257338853277 2108.041160071704 -109.57156678332362 0.0 0.0
7491.676401139503 -2.088459415084552 2246.876382517326 -108.32653965391997 0.0 0.0
7924.593497780267 -15.149398535969151 2372.833229773289 -94.42899737284583 0.0 0.0
8246.063897679667 -35.5044836723704 2463.1678242021894 -57.86707009756409 0.0 0.0
8366.35307193532 -47.78281306460168 2495.5710776612154 -2.3163693185779266e-12 0.0 0.0
8246.063897679627 -35.50448367243573 2463.1678242021576 57.86707009750708 0.0 0.0
7924.593497780239 -15.14939853599833 2372.833229773272 94.42899737287875 0.0 0.0
7491.676401139572 -2.088459415011627 2246.8763825173683 108.32653965387465 0.0 0.0
7024.377441171758 2.426425733818391 2108.041160071673 109.57156678331826 0.0 0.0
6560.385988390775 2.536680803766533 1968.876800758363 106.94047236680916 0.0 0.0
6108.498497752345 1.494370830291679 1832.997860574791 104.47878684492565 0.0 0.0
5665.864505378718 0.6359565153382363 1699.9501385682163 103.08910795022155 0.0 0.0
5227.969973482696 0.17962651586216793 1568.4448799995675 102.51822134683212 0.0 0.0
4791.794432068818 -0.012919776074806322 1437.5344536878233 102.37624927018524 0.0 0.0
4355.854330427098 -0.08428802371109612 1306.7310127210158 102.41464877262132 0.0 0.0
3919.612967377844 -0.08327893547400222 1175.8589065327114 102.4927849443621 0.0 0.0
3483.264871175519 0.06523718211885665 1044.9990325072913 102.4354215557305 0.0 0.0
3048.404188007494 0.6240885991022473 914.7084829819788 101.87510682755874 0.0 0.0
2619.2980430355747 2.0419060984685498 786.4019847402132 99.83416117235711 0.0 0.0
2209.228593936128 6.106359642104614 664.6004860734699 94.84857066374158 0.0 0.0
1829.2512206343367 7.671821247537482 551.0769125645622 83.72864648630659 0.0 0.0
1598.415283943386 61.79247307455755 498.0623271053831 58.07257970007204 0.0 0.0
1231.448054284388 -174.76702560876268 317.00430860268773 70.16115978187182 0.0 0.0
1894.439678594003 1245.3602614086649 941.9399820008001 187.13086896419892 0.0 0.0
-1160.600257607864 -6460.691312832677 -2286.387471132162 103.25423969223357 0.0 0.0
-1269.9313133327648 -5654.767765443777 -2077.409723632962 -475.53232110807784 0.0 0.0
1198.0827157489698 750.7827442510167 584.659637999996 -338.39240096953705 0.0 0.0
913.2823907846681 31.314039716815824 283.37892915044523 -47.576131952643934 0.0 0.0
1333.6914366258954 10.121014655478795 403.1437353844123 -133.9642506625347 0.0 0.0
1627.6024572327274 23.866371232760336 495.4406485396464 -166.71547824520442 0.0 0.0
1960.979913154853 5.938251386836535 590.075449362507 -191.07146681014225 0.0 0.0
2330.3533816034355 3.2434599795715435 700.0790524749021 -200.5909982123838 0.0 0.0
2710.795747984382 0.8045336394285738 813.4800844871432 -204.43809313044534 0.0 0.0
3096.9239341654834 0.09465641157271054 929.1055771731168 -205.4716673339331 0.0 0.0
3484.4104649438277 -0.12047245218661629 1045.2869977474925 -205.53145068815422 0.0 0.0
3872.0485531880413 -0.11977465588228231 1161.5786335596479 -205.35477060708902 0.0 0.0
4259.576236120755 -0.021469795454218676 1277.8664298975896 -205.25946571333048 0.0 0.0
4647.3943691850045 0.24416675051549497 1394.2915607806558 -205.51318032228087 0.0 0.0
5036.62417021183 0.8833990545934745 1511.2522707799274 -206.60898530427613 0.0 0.0
5429.445881512546 2.116243393502912 1629.4686374718146 -209.36305446708695 0.0 0.0
5828.838076692989 3.681996009644899 1749.7560218107894 -214.41511505606266 0.0 0.0
6235.764785779973 3.691521678064931 1871.8368922374111 -220.2319293602562 0.0 0.0
6640.950106224284 -2.7289337576805774 1991.4663517399804 -218.97143005402353 0.0 0.0
7011.170517386743 -22.366976266287526 2096.6410623361367 -192.62577741975892 0.0 0.0
7281.820906273673 -54.62890301646834 2168.1576009771616 -119.22857174337781 0.0 0.0
7381.214548471869 -75.30413042906639 2191.7731254128407 9.627854069549358e-12 0.0 0.0
7281.820906273729 -54.62890301631344 2168.157600977225 119.22857174336892 0.0 0.0
7011.1705173867995 -22.366976266123785 2096.641062336202 192.62577741978603 0.0 0.0
6640.9501062242925 -2.728933757708127 1991.4663517399758 218.97143005402805 0.0 0.0
6235.764785779961 3.691521677983392 1871.8368922373836 220.23192936028295 0.0 0.0
5828.838076693021 3.681996009709927 1749.7560218108188 214.41511505609583 0.0 0.0
5429.445881512476 2.116243393377477 1629.4686374717562 209.3630544670863 0.0 0.0
5036.624170211868 0.8833990546879811 1511.2522707799667 206.6089853042896 0.0 0.0
4647.3943691850445 0.24416675065105053 1394.2915607807088 205.51318032225265 0.0 0.0
4259.576236120679 -0.021469795526066093 1277.866429897546 205.25946571331758 0.0 0.0
3872.048553188071 -0.11977465584019953 1161.578633559669 205.35477060707734 0.0 0.0
3484.4104649437836 -0.12047245231812553 1045.2869977474397 205.53145068820317 0.0 0.0
3096.9239341655443 0.09465641171634864 929.1055771731781 205.47166733398453 0.0 0.0
2710.7957479843863 0.8045336394282785 813.4800844871443 204.43809313043383 0.0 0.0
2330.3533816034396 3.2434599796317762 700.0790524749217 200.5909982124039 0.0 0.0
1960.9799131548168 5.938251386756494 590.0754493624721 191.071466810145 0.0 0.0
1627.6024572327162 23.866371232687257 495.4406485396211 166.715478245227 0.0 0.0
1333.691436625908 10.121014655505608 403.1437353844242 133.96425066253113 0.0 0.0
913.282390784625 31.314039716756483 283.3789291504144 47.57613195260869 0.0 0.0
1198.0827157489657 750.7827442510204 584.6596379999959 338.3924009695465 0.0 0.0
-1269.931313332764 -5654.767765443796 -2077.4097236329676 475.53232110807255 0.0 0.0
-1167.0221614819275 -4861.0833336746355 -1808.4316485469687 -593.6463069518754 0.0 0.0
747.9336690036968 305.54735735499054 316.0443079076062 -463.41850659137833 0.0 0.0
667.6252955230724 144.61010074811753 243.67061888135692 -141.0046929943514 0.0 0.0
1079.0832736204195 20.72520990263442 329.94254505691606 -193.65842439288085 0.0 0.0
1407.2105248230855 25.680901935831937 429.8674280276753 -248.00482382617136 0.0 0.0
1712.9238412441694 11.33788457921532 517.2785177470154 -275.82845715718787 0.0 0.0
2038.7744335023797 4.039789821919313 612.8442669972898 -289.6953133202933 0.0 0.0
2372.809499979276 1.30896812838361 712.2355404322979 -294.78155365813814 0.0 0.0
2710.3685087232398 0.09547560662223908 813.1391952989584 -296.2855020563101 0.0 0.0
3049.213046765997 -0.17850204688492433 914.7103634157337 -296.39467841825825 0.0 0.0
3388.2601740941104 -0.1813364511015827 1016.4236512929027 -296.1748208429925 0.0 0.0
3727.3283096224786 -0.03736357821808767 1118.187283813278 -296.0589953198446 0.0 0.0
4066.649302520001 0.34795232971027623 1220.099176454914 -296.4166147385399 0.0 0.0
4406.937355004968 1.2885945871822297 1322.4677848776453 -297.9099407589712 0.0 0.0
4749.547305531924 3.142973345418241 1425.8070836632035 -301.62558749163236 0.0 0.0
5096.246840190215 5.591983542877104 1530.5516471199276 -308.40088669269375 0.0 0.0
5447.138501899118 5.844623868605579 1635.8949377303172 -316.0870956737372 0.0 0.0
5794.279348469764 -3.7003813366990244 1737.1736901399197 -313.7399377400479 0.0 0.0
6110.030449226567 -34.322887630318206 1822.7122684788753 -275.9185424591708 0.0 0.0
6339.321365247124 -86.31184195211068 1875.902856988504 -170.9770626363615 0.0 0.0
6421.885871739213 -120.47562660009356 1890.4230735417364 -1.8971491044794675e-12 0.0 0.0
6339.321365247289 -86.31184195170229 1875.9028569886761 170.97706263636763 0.0 0.0
6110.030449226587 -34.32288763024844 1822.7122684789013 275.91854245917125 0.0 0.0
5794.279348469897 -3.700381336427924 1737.173690140041 313.739937740023 0.0 0.0
5447.13850189921 5.844623868793654 1635.894937730401 316.08709567378446 0.0 0.0
5096.246840190188 5.5919835428331055 1530.5516471199062 308.40088669273973 0.0 0.0
4749.5473055318835 3.142973345361 1425.807083663174 301.62558749159524 0.0 0.0
4406.9373550048385 1.288594586935897 1322.4677848775327 297.9099407589441 0.0 0.0
4066.6493025199757 0.34795232965267076 1220.0991764548887 296.4166147385274 0.0 0.0
3727.3283096224773 -0.03736357823956382 1118.187283813271 296.05899531986256 0.0 0.0
3388.2601740942064 -0.18133645087407757 1016.4236512929996 296.174820843011 0.0 0.0
3049.213046765912 -0.17850204709684903 914.7103634156447 296.39467841827377 0.0 0.0
2710.3685087231534 0.09547560647524023 813.1391952988884 296.28550205631814 0.0 0.0
2372.8094999792747 1.30896812840869 712.235540432305 294.7815536581111 0.0 0.0
2038.7744335024138 4.0397898219593085 612.8442669973117 289.69531332023837 0.0 0.0
1712.9238412441225 11.337884579108577 517.2785177469693 275.8284571572275 0.0 0.0
1407.210524823067 25.68090193578338 429.86742802765525 248.0048238261754 0.0 0.0
1079.083273620406 20.725209902641836 329.9425450569144 193.65842439287712 0.0 0.0
667.625295523025 144.61010074805665 243.67061888132457 141.0046929943521 0.0 0.0
747.933669003669 305.54735735494785 316.0443079075851 463.4185065913822 0.0 0.0
-1167.0221614819532 -4861.0833336746455 -1808.4316485469794 593.6463069518488 0.0 0.0
-1000.1617710718905 -4138.256223856749 -1541.5253984785923 -607.1947544661712 0.0 0.0
454.4630241859946 -37.63377007868497 125.04877623219294 -547.9838127423636 0.0 0.0
476.12248869819405 180.4266225119718 196.9647333630498 -267.18047252587274 0.0 0.0
847.2495496024474 50.73387498899402 269.3950273774324 -264.2621163307946 0.0 0.0
1179.5971611071418 30.333757957474056 362.9792757193848 -320.53906431015014 0.0 0.0
1462.4056412272769 16.067203934074143 443.5418535484053 -351.5213550714704 0.0 0.0
1746.260621666551 5.850797096771104 525.6334256289965 -366.9927475813162 0.0 0.0
2034.1627637710203 1.7456563010465875 610.7725260216199 -373.1186904801192 0.0 0.0
2323.680777385831 0.16188526860844332 697.1527987963318 -374.90685139210814 0.0 0.0
2613.969050896337 -0.259607615836559 784.1128329841501 -375.0974131733368 0.0 0.0
2904.4697330945246 -0.2535646256309203 871.264850540668 -374.8709530735516 0.0 0.0
3195.04025028572 -0.0546549299754302 958.4956786067235 -374.7590425396963 0.0 0.0
3485.7653549795887 0.4837577548577885 1045.8747338203339 -375.19091748103324 0.0 0.0
3776.9334016873786 1.8023070715630638 1133.6207126276822 -376.91940703675107 0.0 0.0
4069.1241434584 4.430392459447241 1222.0663607753543 -381.16628571901646 0.0 0.0
4363.182974291463 7.979210081975755 1311.348655312032 -388.8667486996179 0.0 0.0
4659.154630916284 8.514605961498404 1400.3007710633353 -397.48122391916615 0.0 0.0
4951.763099147623 -5.124355730139552 1483.9916230252447 -393.9117494912816 0.0 0.0
5219.63671925881 -50.219573360310235 1550.8251437695499 -346.8734186427024 0.0 0.0
5414.789873632775 -128.48450614613293 1585.8916102459928 -215.79190203240242 0.0 0.0
5483.296585652639 -181.03451317646656 1590.6786217428519 1.9106494164589094e-11 0.0 0.0
5414.789873632762 -128.48450614622615 1585.8916102459607 215.79190203239654 0.0 0.0
5219.636719258909 -50.21957336003222 1550.825143769663 346.87341864271957 0.0 0.0
4951.763099147595 -5.1243557301869735 1483.9916230252222 393.9117494912337 0.0 0.0
4659.154630916385 8.51460596170309 1400.3007710634263 397.4812239191682 0.0 0.0
4363.182974291418 7.979210081890223 1311.3486553119928 388.86674869963224 0.0 0.0
4069.124143458408 4.430392459457412 1222.0663607753597 381.1662857190022 0.0 0.0
3776.9334016871094 1.8023070709151945 1133.6207126274076 376.91940703672515 0.0 0.0
3485.765354979638 0.4837577549865877 1045.8747338203873 375.19091748102164 0.0 0.0
3195.0402502855663 -0.0546549302904662 958.4956786065824 374.7590425396961 0.0 0.0
2904.469733094502 -0.2535646256516202 871.2648505406553 374.8709530735308 0.0 0.0
2613.9690508963563 -0.259607615773886 784.1128329841747 375.09741317329923 0.0 0.0
2323.6807773857386 0.16188526844321238 697.1527987962547 374.90685139209654 0.0 0.0
2034.1627637709835 1.7456563010162593 610.7725260216 373.1186904800954 0.0 0.0
1746.2606216665663 5.850797096761676 525.6334256289985 366.99274758128666 0.0 0.0
1462.405641227284 16.067203934080023 443.54185354840916 351.52135507149023 0.0 0.0
1179.59716110713 30.33375795750258 362.9792757193897 320.5390643101142 0.0 0.0
847.2495496024162 50.73387498893761 269.3950273774061 264.2621163308035 0.0 0.0
476.1224886981645 180.42662251193406 196.96473336302952 267.1804725259296 0.0 0.0
454.4630241859375 -37.633770078758076 125.0487762321539 547.9838127423478 0.0 0.0
-1000.1617710719229 -4138.256223856764 -1541.5253984786063 607.1947544661792 0.0 0.0
-828.5347115787099 -3501.3895602186262 -1298.977281539201 -579.2861290190198 0.0 0.0
261.10673304445237 -278.2424157325172 -5.140704806419439 -597.9621123396553 0.0 0.0
324.37795117438844 167.607872445015 147.59574708582105 -389.2532124920466 0.0 0.0
640.161914547074 78.8976018385593 215.71785491569003 -343.1891645978095 0.0 0.0
952.7629755483613 39.2665407135116 297.60885487856183 -386.39338835745286 0.0 0.0
1209.9859112888971 20.33421784138768 369.0960387390854 -417.4191692697466 0.0 0.0
1453.1622298223444 7.961033301322146 438.33697893709984 -432.98645909471355 0.0 0.0
1695.0833781507852 2.2894861843412158 509.21185930053787 -439.44979801952127 0.0 0.0
1936.82293602878 0.22774337213548668 581.1152038202747 -441.39974612824784 0.0 0.0
2178.6735208472523 -0.33395035433441667 653.5018711478751 -441.6465930637872 0.0 0.0
2420.6537314581537 -0.3312307521123694 726.0967502118125 -441.44321923943113 0.0 0.0
2662.7098618133286 -0.06855060857483775 798.7923933614264 -441.3474425340358 0.0 0.0
2904.7808327457483 0.6381037160508765 871.6256809385402 -441.81042453161547 0.0 0.0
3146.748003526599 2.366518072872406 944.7343564798417 -443.5961307361685 0.0 0.0
3388.482090562298 5.828934849500655 1018.29330762354 -447.9456796730989 0.0 0.0
3630.1299584817843 10.581443897589168 1092.213420713812 -455.8539623176281 0.0 0.0
3872.2400990019887 11.455500139060865 1165.108679742315 -464.7579780203626 0.0 0.0
4113.155157669926 -6.808843531083905 1231.9038942416528 -460.53388770372584 0.0 0.0
4338.327080546145 -68.88516847259746 1280.8325736220638 -407.473145820477 0.0 0.0
4504.893332701596 -179.35213847869346 1297.6623582668706 -255.67663263803385 0.0 0.0
4561.049913923311 -255.79683219825495 1291.5759245175168 2.3561597117804922e-11 0.0 0.0
4504.893332701499 -179.35213847896813 1297.662358266759 255.67663263801364 0.0 0.0
4338.32708054615 -68.88516847259035 1280.832573622068 407.4731458204715 0.0 0.0
4113.155157669819 -6.808843531266341 1231.903894241566 460.53388770370987 0.0 0.0
3872.240099002158 11.455500139492365 1165.1086797424953 464.7579780203967 0.0 0.0
3630.12995848188 10.581443897792681 1092.2134207139018 455.8539623176746 0.0 0.0
3388.4820905621805 5.8289348491966315 1018.2933076234133 447.9456796730738 0.0 0.0
3146.7480035264925 2.36651807261547 944.7343564797324 443.5961307361356 0.0 0.0
2904.780832745804 0.6381037161795433 871.6256809385952 441.8104245316002 0.0 0.0
2662.709861813189 -0.0685506088783896 798.792393361293 441.34744253403414 0.0 0.0
2420.653731458012 -0.33123075242939315 726.0967502116752 441.44321923944307 0.0 0.0
2178.673520847349 -0.33395035410793916 653.5018711479725 441.6465930637605 0.0 0.0
1936.822936028825 0.22774337223478192 581.1152038203181 441.39974612824875 0.0 0.0
1695.083378150802 2.2894861843547556 509.21185930054696 439.44979801953707 0.0 0.0
1453.162229822426 7.961033301464036 438.3369789371671 432.98645909468144 0.0 0.0
1209.9859112889112 20.334217841384383 369.0960387390888 417.41916926975455 0.0 0.0
952.7629755483791 39.26654071354338 297.6088548785768 386.39338835743393 0.0 0.0
640.1619145470943 78.89760183861013 215.7178549157113 343.18916459781167 0.0 0.0
324.377951174379 167.60787244499474 147.59574708581215 389.25321249206 0.0 0.0
261.1067330444265 -278.2424157325629 -5.140704806440919 597.9621123396348 0.0 0.0
-828.5347115787258 -3501.389560218627 -1298.9772815392062 579.2861290190677 0.0 0.0
-674.0420884624067 -2947.208344022317 -1086.3751297454173 -537.0836717684848 0.0 0.0
131.6883997006721 -432.2462913871341 -90.16736750593857 -622.0898112946078 0.0 0.0
201.3651770149251 130.06128170947906 99.42793761732128 -492.3227959570405 0.0 0.0
455.53657565535616 97.4403385674256 165.89307426683456 -422.24178053266877 0.0 0.0
731.3148023734614 49.79009680530185 234.33146975362894 -446.3488713819605 0.0 0.0
957.2134725910114 24.604798966204438 294.54548146716473 -473.32105024359987 0.0 0.0
1159.72805964728 9.96298847288507 350.9073144360494 -487.7355770865471 0.0 0.0
1355.7654044557232 2.901452809577307 407.6000571795902 -493.858598126289 0.0 0.0
1549.8108006837972 0.2978146462854756 465.0325845990248 -495.7836057619843 0.0 0.0
1743.3125634363923 -0.40039062962673544 522.8736518420296 -496.058069604855 0.0 0.0
1936.7992313564937 -0.40394483071615905 580.9185859577332 -495.89117196235463 0.0 0.0
2130.3374535845205 -0.07850040010570591 639.0776859553246 -495.81704409578504 0.0 0.0
2323.7375888569777 0.7949090259150839 697.3597493648681 -496.2616199988199 0.0 0.0
2516.5133678454595 2.921115067132175 755.8303448737773 -497.92891246696763 0.0 0.0
2707.9027816897537 7.193311326230901 814.5288279047952 -501.97843335741965 0.0 0.0
2897.4954786965473 13.161429092614497 873.1970723367488 -509.4568929985951 0.0 0.0
3086.652792908446 14.510979464309795 930.3491317118268 -518.2200065680656 0.0 0.0
3277.9785963608947 -8.339733524862996 980.8916588508091 -514.3810441039284 0.0 0.0
3464.3804719766717 -88.87557378446328 1012.6514694576629 -459.1906642631112 0.0 0.0
3606.6415924942235 -237.27549936486076 1010.8098279388089 -292.21995234294104 0.0 0.0
3651.167879864774 -344.47668877714614 992.007357326288 3.1093350116861984e-11 0.0 0.0
3606.641592494261 -237.27549936479352 1010.8098279388402 292.2199523429399 0.0 0.0
3464.3804719765394 -88.8755737847315 1012.6514694575425 459.1906642630681 0.0 0.0
3277.97859636094 -8.33973352465592 980.8916588508854 514.3810441039067 0.0 0.0
3086.6527929086606 14.510979464776696 930.3491317120315 518.2200065681087 0.0 0.0
2897.4954786964818 13.161429092439537 873.1970723366763 509.45689299860067 0.0 0.0
2707.9027816896314 7.193311325986482 814.5288279046856 501.97843335744653 0.0 0.0
2516.513367845684 2.9211150676598727 755.8303448740033 497.92891246698434 0.0 0.0
2323.7375888569486 0.7949090258209637 697.3597493648308 496.2616199987658 0.0 0.0
2130.337453584491 -0.07850040014716875 639.0776859553032 495.8170440957423 0.0 0.0
1936.7992313564864 -0.4039448306814428 580.9185859577416 495.8911719623739 0.0 0.0
1743.3125634364142 -0.40039062959944793 522.8736518420444 496.0580696048412 0.0 0.0
1549.8108006837022 0.2978146460393827 465.0325845989226 495.7836057619836 0.0 0.0
1355.7654044557444 2.9014528096914773 407.60005717963077 493.85859812629957 0.0 0.0
1159.7280596473474 9.962988473060824 350.9073144361225 487.73557708651936 0.0 0.0
957.2134725909373 24.604798966031634 294.5454814670907 473.32105024360703 0.0 0.0
731.3148023734508 49.79009680528545 234.33146975362095 446.34887138196575 0.0 0.0
455.53657565537765 97.44033856749223 165.89307426686094 422.2417805326536 0.0 0.0
201.36517701494614 130.06128170956026 99.42793761735196 492.3227959570513 0.0 0.0
131.68839970064468 -432.2462913871832 -90.16736750596155 622.0898112946065 0.0 0.0
-674.0420884624051 -2947.2083440223037 -1086.3751297454128 537.0836717685017 0.0 0.0
-542.8529372448568 -2465.9340637030155 -902.6361002843616 -492.04676270104204 0.0 0.0
42.911124271783954 -518.62418134859 -142.71391712304182 -627.5845397253448 0.0 0.0
98.81856158184189 84.00472224667382 54.84698514855472 -571.7029834698562 0.0 0.0
289.70018630700395 105.37514143868351 118.52259832370625 -494.2244761669827 0.0 0.0
517.3905335987013 59.21098321127325 172.98045504299236 -499.4322042765034 0.0 0.0
705.6123104753283 28.74006807368096 220.30571356470278 -519.1651332288474 0.0 0.0
866.3123234116571 11.711765503094956 263.4072266744256 -531.1595943893005 0.0 0.0
1016.3479714010941 3.481360830346754 305.9487996694322 -536.3831464999021 0.0 0.0
1162.6820400770264 0.3744619912851901 348.9169506204935 -538.0764180242143 0.0 0.0
1307.8769871621053 -0.45657468560073955 392.2261237429514 -538.3421843079497 0.0 0.0
1452.8968194726444 -0.4656191075413316 435.729360109531 -538.217382515954 0.0 0.0
1597.9262666061677 -0.08464467957979949 479.35248657797644 -538.16470798878 0.0 0.0
1742.675618030956 0.9372735120352136 523.0838674628973 -538.5427126572738 0.0 0.0
1886.349881664139 3.4102933692584614 566.9280525100194 -539.933668405499 0.0 0.0
2027.637598089167 8.390977943791873 610.8085728098881 -543.3271314084989 0.0 0.0
2165.6273676298806 15.50351157095329 654.3392637602501 -549.8115089034159 0.0 0.0
2302.5438639983 17.570902920721515 696.0344300757065 -558.1064058046315 0.0 0.0
2445.617225388341 -9.172972150378783 730.9332759713884 -555.9325702765501 0.0 0.0
2596.053414455068 -108.51156130359169 746.262555945443 -503.0439434879099 0.0 0.0
2717.313777275698 -300.62853130751944 725.0055737904538 -326.7569014746578 0.0 0.0
2749.8709111279186 -447.6557210248967 690.6645570309068 -1.0942358130705543e-12 0.0 0.0
2717.31377727568 -300.6285313075185 725.0055737904486 326.75690147466287 0.0 0.0
2596.053414454939 -108.51156130391627 746.2625559453068 503.0439434878596 0.0 0.0
2445.6172253884406 -9.172972150150546 730.9332759714868 555.9325702766 0.0 0.0
2302.5438639983304 17.570902920767242 696.0344300757295 558.1064058046342 0.0 0.0
2165.6273676297046 15.503511570534165 654.3392637600714 549.8115089034226 0.0 0.0
2027.6375980891132 8.390977943665357 610.8085728098338 543.3271314084984 0.0 0.0
1886.3498816642416 3.410293369458511 566.9280525101102 539.933668405469 0.0 0.0
1742.6756180308623 0.9372735117851025 523.0838674627943 538.5427126572295 0.0 0.0
1597.9262666062239 -0.08464467945251641 479.35248657803146 538.1647079887863 0.0 0.0
1452.896819472718 -0.4656191073443683 435.72936010961206 538.2173825159233 0.0 0.0
1307.8769871621 -0.45657468557654646 392.2261237429571 538.3421843079584 0.0 0.0
1162.6820400770334 0.3744619913128382 348.916950620504 538.0764180242066 0.0 0.0
1016.3479714010954 3.4813608303692156 305.9487996694395 536.383146499905 0.0 0.0
866.3123234117553 11.711765503305894 263.40722667451837 531.159594389292 0.0 0.0
705.6123104752799 28.740068073536026 220.3057135646447 519.1651332288309 0.0 0.0
517.3905335987292 59.21098321134029 172.9804550430209 499.4322042764892 0.0 0.0
289.7001863070115 105.37514143867807 118.52259832370687 494.22447616697144 0.0 0.0
98.81856158192193 84.00472224682024 54.846985148622636 571.702983469858 0.0 0.0
42.91112427177285 -518.6241813486218 -142.7139171230547 627.584539725365 0.0 0.0
-542.8529372448572 -2465.9340637030286 -902.6361002843659 492.04676270104665 0.0 0.0
-434.7342289171183 -2046.6995816680287 -744.4301431755443 -448.546842319872 0.0 0.0
-20.26516646232216 -554.6032795774875 -172.46053381194284 -619.5353534181676 0.0 0.0
10.64246339467254 39.24787764949957 14.967102313251639 -627.2298026375323 0.0 0.0
138.8554818262018 104.55415253488286 73.02289030832539 -554.2128902860653 0.0 0.0
311.5445355403223 65.86985490962022 113.22431713498275 -543.8629286338885 0.0 0.0
456.30782781162475 32.27023715131545 146.57341948888205 -554.6868248670103 0.0 0.0
573.3121988462805 13.120729607375802 175.92987853609688 -563.1433662765855 0.0 0.0
676.9466753665232 3.95129829951123 204.26939209981032 -567.0088319907044 0.0 0.0
775.472941079294 0.44631418158614977 232.77577657826401 -568.290057650157 0.0 0.0
872.3642167348115 -0.49858994431526416 261.55968803714893 -568.5068529194493 0.0 0.0
968.9395842000074 -0.512571643514276 290.5281037669479 -568.4256162711287 0.0 0.0
1065.4806291740995 -0.08797318639057394 319.61779679631275 -568.3914371229329 0.0 0.0
1161.6291818206673 1.0499421290704838 348.8037371849213 -568.661921277397 0.0 0.0
1256.358436721135 3.7876500061391916 378.04382601818213 -569.6491722345718 0.0 0.0
1347.9021305895094 9.310411732311497 407.1637626965462 -572.0961653216697 0.0 0.0
1434.8307312081415 17.41057549696237 435.67239201153126 -577.0920375276041 0.0 0.0
1520.0199165627057 20.52302029754791 462.16288105807604 -584.5889986855902 0.0 0.0
1615.3948440649838 -8.72819907662084 481.99999349650886 -585.3604035305582 0.0 0.0
1731.599944586368 -125.88310732690445 481.715051177839 -539.6152811618982 0.0 0.0
1834.4079014026665 -367.62254214293637 440.0356077779192 -360.4733008302082 0.0 0.0
1853.3611682683802 -566.8696895276532 385.9474436222181 1.6513013179064728e-11 0.0 0.0
1834.407901402608 -367.62254214310155 440.035607777852 360.4733008302321 0.0 0.0
1731.5999445863063 -125.8831073270463 481.7150511777781 539.6152811618762 0.0 0.0
1615.3948440650277 -8.728199076499582 481.99999349655843 585.3604035305765 0.0 0.0
1520.0199165626252 20.52302029730271 462.1628810579785 584.5889986855404 0.0 0.0
1434.8307312081438 17.410575496907757 435.6723920115154 577.0920375276032 0.0 0.0
1347.9021305893532 9.310411731999464 407.16376269640585 572.0961653216557 0.0 0.0
1256.3584367210317 3.787650005897646 378.0438260180788 569.6491722345677 0.0 0.0
1161.6291818205868 1.0499421288426483 348.8037371848289 568.6619212773409 0.0 0.0
1065.4806291742311 -0.08797318606755056 319.617796796449 568.3914371229399 0.0 0.0
968.9395841999683 -0.5125716435846197 290.5281037669152 568.4256162711117 0.0 0.0
872.3642167348141 -0.4985899443043955 261.55968803715297 568.5068529194698 0.0 0.0
775.4729410794688 0.44631418204898754 232.77577657845544 568.2900576501584 0.0 0.0
676.9466753665122 3.9512982994991024 204.2693920998034 567.0088319907205 0.0 0.0
573.312198846406 13.120729607633319 175.92987853621182 563.1433662765838 0.0 0.0
456.3078278116675 32.27023715140522 146.57341948892187 554.6868248670036 0.0 0.0
311.544535540316 65.86985490959967 113.22431713497471 543.8629286338733 0.0 0.0
138.85548182622526 104.55415253493089 73.02289030834686 554.2128902860621 0.0 0.0
10.64246339470526 39.24787764954649 14.967102313275529 627.2298026375228 0.0 0.0
-20.265166462326214 -554.6032795774817 -172.46053381194235 619.5353534181677 0.0 0.0
-434.73422891717894 -2046.6995816680706 -744.4301431755747 448.54684231987557 0.0 0.0
-347.1665637276585 -1679.826471297982 -608.0979105076921 -407.7334808785712 0.0 0.0
-67.5316927290614 -554.3456624164293 -186.56320654364725 -601.2567508076115 0.0 0.0
-67.59568937032729 1.0780687909115407 -19.955286173824717 -660.527597023812 0.0 0.0
-0.3997677796007775 97.62919752705926 29.16882892423755 -599.2958696446204 0.0 0.0
113.41064729824909 69.10441775510455 54.75451951600611 -577.7668931621384 0.0 0.0
209.95650176993684 34.70956880065078 73.3998211711763 -579.3841778158892 0.0 0.0
281.07574759252674 14.092484878854638 88.55046974141443 -583.5318318566921 0.0 0.0
337.662467269712 4.2638072823070665 102.57788236560575 -585.6894692044008 0.0 0.0
388.211657935609 0.49882376610859236 116.61314451051531 -586.4256528171188 0.0 0.0
436.77507681645557 -0.5240849485909234 130.8752975603594 -586.5589166990121 0.0 0.0
484.9231301696235 -0.5421225466478887 145.31430228689274 -586.5203477685284 0.0 0.0
533.0044238342475 -0.0898454216450908 159.8743735237808 -586.5016084771829 0.0 0.0
580.6237629369091 1.1208548693171938 174.5233853418679 -586.6353439774606 0.0 0.0
626.6137446543854 4.019966721872397 189.19011341287737 -587.1314566580214 0.0 0.0
668.8694772028072 9.869585306765966 203.62171875287197 -588.4249447428061 0.0 0.0
705.3823990511502 18.7053600363695 217.2263277262559 -591.5150957829994 0.0 0.0
739.2047051467795 23.20470451076208 228.72282289726246 -597.7896468870771 0.0 0.0
786.6527331713311 -6.4933162009452055 234.04782509111573 -602.5255622628697 0.0 0.0
869.2840516654542 -138.84534189532494 219.13161293103875 -569.0276835624378 0.0 0.0
955.6152027835195 -436.072026585583 155.862952859381 -394.471086447696 0.0 0.0
957.578960861278 -704.8117485725636 75.83016368661431 6.792788553866558e-12 0.0 0.0
955.6152027833107 -436.07202658606377 155.86295285917402 394.4710864476906 0.0 0.0
869.2840516655779 -138.84534189502722 219.13161293116522 569.0276835624454 0.0 0.0
786.6527331713513 -6.493316200905593 234.04782509113363 602.525562262862 0.0 0.0
739.2047051466361 23.204704510414125 228.72282289711518 597.7896468870942 0.0 0.0
705.3823990512825 18.705360036705684 217.22632772639648 591.515095782984 0.0 0.0
668.8694772025668 9.869585306207338 203.6217187526323 588.4249447427977 0.0 0.0
626.6137446544114 4.019966721905045 189.1901134128949 587.1314566580166 0.0 0.0
580.6237629368615 1.1208548691675784 174.52338534180876 586.6353439774792 0.0 0.0
533.0044238344396 -0.08984542118716377 159.87437352397578 586.5016084772102 0.0 0.0
484.92313016949726 -0.5421225469012345 145.3143022867788 586.5203477685442 0.0 0.0
436.77507681642936 -0.5240849486521615 130.87529756033317 586.5589166990294 0.0 0.0
388.2116579357157 0.4988237664087656 116.61314451063738 586.4256528171379 0.0 0.0
337.6624672696943 4.263807282300889 102.57788236559854 585.6894692044095 0.0 0.0
281.07574759260126 14.092484879012538 88.55046974148412 583.5318318566982 0.0 0.0
209.95650176992777 34.709568800640184 73.39982117117037 579.3841778159031 0.0 0.0
113.41064729818635 69.1044177550088 54.75451951595855 577.7668931621357 0.0 0.0
-0.3997677795936596 97.62919752709452 29.168828924250263 599.2958696446211 0.0 0.0
-67.59568937030338 1.078068790924819 -19.95528617381357 660.5275970238107 0.0 0.0
-67.53169272904698 -554.3456624164008 -186.56320654363435 601.2567508075717 0.0 0.0
-347.166563727702 -1679.8264712980147 -608.0979105077151 407.7334808785633 0.0 0.0
-277.1400071787726 -1357.6139860246715 -490.4261979610334 -369.33571415372876 0.0 0.0
-105.08152270716789 -528.9476559692885 -190.2087536029369 -574.7822270013958 0.0 0.0
-139.0659453247341 -28.15548002254462 -50.16642760418361 -673.7322647909349 0.0 0.0
-130.90137702436238 87.1103793892541 -13.137299290532484 -628.0065600013708 0.0 0.0
-77.85144027103448 68.93999200929805 -2.6734344785209174 -599.5227255213706 0.0 0.0
-33.19958624640462 35.72319738528316 0.7570833416635541 -592.6110697145249 0.0 0.0
-10.159236761861422 14.530587478303794 1.3114052149327105 -592.1200513171513 0.0 0.0
-1.4266322554339013 4.392690939208636 0.8898176051324214 -592.3609802121823 0.0 0.0
0.916981868846662 0.5218267085215169 0.4316425732104534 -592.4754729183129 0.0 0.0
1.111054782039112 -0.532496541519274 0.17356747215596613 -592.5040170002625 0.0 0.0
0.8451444346097574 -0.5524982631132946 0.08779385144893936 -592.5066731229687 0.0 0.0
0.5001788737892312 -0.09123669219988706 0.12268265447680449 -592.5019049011072 0.0 0.0
-0.325873990042723 1.142100144073483 0.24486784620923174 -592.4844730393802 0.0 0.0
-2.841070837545459 4.088969439938053 0.3743695807177829 -592.447287828371 0.0 0.0
-9.339141841110589 10.024278019313975 0.20554085346101303 -592.4789495628861 0.0 0.0
-22.46193070687609 19.240981245271783 -0.9662848384813003 -593.3488584031226 0.0 0.0
-39.70003176511919 25.361779194703946 -4.301475771124586 -597.8220770696155 0.0 0.0
-41.16345521076575 -2.153022029802063 -12.99494317217031 -606.9883782347266 0.0 0.0
7.391655792094255 -145.03273685518772 -41.29232431892807 -590.8704342444436 0.0 0.0
78.82515556914288 -503.0632049957752 -127.2714148279897 -429.79656107990957 0.0 0.0
57.89563517258311 -865.6726509180229 -242.33310472363195 1.1908696251339279e-11 0.0 0.0
78.82515556902878 -503.06320499602657 -127.27141482809932 429.7965610799232 0.0 0.0
7.391655792238211 -145.0327368548082 -41.29232431877101 590.8704342444381 0.0 0.0
-41.16345521080312 -2.1530220298716607 -12.994943172202454 606.9883782346972 0.0 0.0
-39.70003176517797 25.361779194549 -4.3014757711886915 597.8220770696244 0.0 0.0
-22.461930706809753 19.24098124541066 -0.9662848384197176 593.3488584030789 0.0 0.0
-9.339141841269267 10.024278018930206 0.20554085329826677 592.4789495629085 0.0 0.0
-2.8410708374656366 4.088969440107988 0.374369580792699 592.4472878283854 0.0 0.0
-0.32587399008755824 1.1421001439274967 0.24486784615199042 592.4844730393958 0.0 0.0
0.5001788737552886 -0.09123669228195475 0.12268265444199855 592.5019049011053 0.0 0.0
0.8451444345390584 -0.5524982632444608 0.08779385138838691 592.5066731229671 0.0 0.0
1.1110547820062209 -0.5324965415988583 0.1735674721222047 592.504017000276 0.0 0.0
0.9169818688081648 0.5218267084606971 0.43164257318066035 592.4754729183289 0.0 0.0
-1.4266322554855506 4.392690939096614 0.889817605083314 592.3609802121774 0.0 0.0
-10.159236761855166 14.530587478281632 1.3114052149279356 592.1200513171499 0.0 0.0
-33.19958624644751 35.723197385164326 0.7570833416150524 592.6110697144925 0.0 0.0
-77.85144027106415 68.93999200920675 -2.6734344785572173 599.5227255213806 0.0 0.0
-130.9013770243766 87.1103793892517 -13.137299290537452 628.0065600013975 0.0 0.0
-139.06594532476944 -28.155480022577255 -50.16642760420401 673.7322647909455 0.0 0.0
-105.08152270713948 -528.9476559692464 -190.2087536029158 574.7822270013812 0.0 0.0
-277.14000717876314 -1357.6139860246983 -490.4261979610385 369.3357141537263 0.0 0.0
-221.89021238393116 -1074.4532139997757 -388.9030279151119 -332.5205401381444 0.0 0.0
-136.789278609664 -486.872575621004 -187.09855626920037 -541.2853364271448 0.0 0.0
-205.97407700841543 -47.90469597872666 -76.16363189614262 -668.9293137321043 0.0 0.0
-254.90191494496105 75.00005985331646 -53.97055652749341 -639.8005104572582 0.0 0.0
-263.2768072315793 65.7885628225035 -59.24647332272278 -607.8656823831204 0.0 0.0
-273.24179231291265 35.176166872922124 -71.41968763199715 -593.6827025698406 0.0 0.0
-300.29161993736716 14.371101556908958 -85.77615551413741 -588.6634539408489 0.0 0.0
-340.27808218867114 4.327889035504166 -100.78505794595011 -586.9490282384247 0.0 0.0
-386.4024243845066 0.5117098463393983 -115.76721436145013 -586.4271090925125 0.0 0.0
-434.62696638734 -0.5240711184248834 -130.54531125172946 -586.3467998126126 0.0 0.0
-483.2951531084476 -0.5430060881543941 -145.15144775898065 -586.3900555159959 0.0 0.0
-532.0314578329633 -0.09220609174987082 -159.63709917741397 -586.4001066962365 0.0 0.0
-581.2162899482882 1.1106591286407692 -174.03168924589426 -586.2335689599145 0.0 0.0
-631.9977903532224 3.990579450354172 -188.40216327086054 -585.6674423461933 0.0 0.0
-686.6672895605224 9.774114849936756 -203.06795241317568 -584.4369823067144 0.0 0.0
-748.4737683987452 18.9254529148204 -218.86449464517733 -582.9216869955645 0.0 0.0
-816.3569288044298 26.626976520205414 -236.91898568526736 -584.8625482456314 0.0 0.0
-868.3941588854631 4.244684504969893 -259.24484231414806 -598.0486656587934 0.0 0.0
-855.7503471073646 -141.93167241227485 -299.30460585589185 -604.0630121379783 0.0 0.0
-797.82643727246 -564.4675470348683 -408.68819529219854 -467.4173671704018 0.0 0.0
-851.3072619549154 -1055.654880637701 -572.0886427777848 -1.446665010007564e-11 0.0 0.0
-797.8264372724148 -564.4675470347361 -408.68819529214517 467.4173671703887 0.0 0.0
-855.7503471072545 -141.9316724119633 -299.3046058557652 604.0630121379957 0.0 0.0
-868.3941588854855 4.244684504923416 -259.2448423141686 598.0486656587971 0.0 0.0
-816.3569288043087 26.62697652047553 -236.91898568514992 584.8625482456349 0.0 0.0
-748.473768398842 18.92545291454227 -218.86449464528988 582.9216869955666 0.0 0.0
-686.667289560623 9.774114849680256 -203.06795241328277 584.4369823066991 0.0 0.0
-631.9977903531682 3.9905794505143284 -188.40216327079617 585.6674423461881 0.0 0.0
-581.2162899483474 1.1106591284455138 -174.0316892459706 586.2335689599299 0.0 0.0
-532.0314578331107 -0.09220609211184971 -159.63709917756677 586.4001066962181 0.0 0.0
-483.2951531083445 -0.5430060878187426 -145.15144775884897 586.3900555159983 0.0 0.0
-434.6269663874331 -0.5240711186158808 -130.5453112518147 586.3467998126421 0.0 0.0
-386.4024243845685 0.5117098461985661 -115.76721436151095 586.4271090925256 0.0 0.0
-340.27808218869194 4.327889035473287 -100.78505794596558 586.9490282384381 0.0 0.0
-300.2916199374404 14.371101556743753 -85.776155514209 588.6634539408428 0.0 0.0
-273.24179231292516 35.17616687289565 -71.41968763200886 593.6827025698188 0.0 0.0
-263.27680723153065 65.78856282260043 -59.24647332267905 607.8656823831335 0.0 0.0
-254.90191494495798 75.0000598533286 -53.970556527488824 639.8005104572807 0.0 0.0
-205.9740770084158 -47.90469597871609 -76.16363189613958 668.9293137320977 0.0 0.0
-136.78927860966675 -486.87257562102064 -187.09855626920623 541.2853364271646 0.0 0.0
-221.8902123839254 -1074.4532139997991 -388.9030279151174 332.52054013811676 0.0 0.0
-179.14346059550275 -826.6591427720743 -301.74078101027317 -296.30974861082416 0.0 0.0
-164.95390690472192 -434.4631664921619 -179.82512201906516 -501.39863254007673 0.0 0.0
-269.77070780723835 -58.672791307285436 -98.53304973435716 -647.9350563506205 0.0 0.0
-374.1149258885554 62.70692004923603 -93.42240175179577 -634.6555443957784 0.0 0.0
-443.933843610625 60.232287459650486 -115.11046684529232 -601.8656118491218 0.0 0.0
-510.4878066004269 33.12114851855135 -143.2099974245627 -581.9530271791793 0.0 0.0
-589.3589425125056 13.606465086954891 -172.72574322766525 -572.9023213033588 0.0 0.0
-678.8940277302045 4.075582108136562 -202.44553368662034 -569.3761776668507 0.0 0.0
-773.7489606806798 0.47094363490553626 -231.98340511373232 -568.2675702302489 0.0 0.0
-870.4389265733133 -0.49917053824754376 -261.2814291334683 -568.0916539843114 0.0 0.0
-967.4972588249005 -0.5141477219679675 -290.4034219640606 -568.1760016973685 0.0 0.0
-1064.592018065429 -0.09180226815027304 -319.40514610007386 -568.2037442150199 0.0 0.0
-1162.0548041367979 1.02935975174295 -348.30763331551645 -567.9068933911245 0.0 0.0
-1260.8829204111391 3.7320424367405316 -377.1452633923194 -566.8610114539694 0.0 0.0
-1363.1388898595828 9.161671502836807 -406.19316550702376 -564.4740360771202 0.0 0.0
-1472.4788890175903 17.76238273523672 -436.41495188470617 -560.6197636551399 0.0 0.0
-1590.2456863004682 26.541371975296126 -469.11129429755175 -559.2513442799075 0.0 0.0
-1695.0167249148599 12.07369305235854 -504.8829095587505 -574.8499192970119 0.0 0.0
-1721.7370121033737 -127.08201085747322 -554.645706888254 -606.6454914617271 0.0 0.0
-1675.844045463782 -614.2157877501024 -687.0179499641653 -508.10785122003836 0.0 0.0
-1777.2472518460577 -1283.7107348464067 -918.2873960077393 -1.48929757415317e-11 0.0 0.0
-1675.8440454637853 -614.2157877501129 -687.0179499641695 508.1078512200447 0.0 0.0
-1721.737012103446 -127.0820108576552 -554.6457068883302 606.6454914617574 0.0 0.0
-1695.016724914872 12.07369305230454 -504.88290955877017 574.8499192969929 0.0 0.0
-1590.2456863003295 26.54137197559011 -469.1112942974219 559.2513442799094 0.0 0.0
-1472.4788890174332 17.76238273556621 -436.4149518845602 560.6197636551318 0.0 0.0
-1363.1388898597456 9.161671502468957 -406.19316550718304 564.4740360771316 0.0 0.0
-1260.8829204111796 3.73204243662882 -377.1452633923653 566.8610114539812 0.0 0.0
-1162.0548041366692 1.0293597520093876 -348.3076333153979 567.9068933911275 0.0 0.0
-1064.5920180655417 -0.09180226842840078 -319.4051461001909 568.2037442150195 0.0 0.0
-967.4972588248663 -0.5141477218911614 -290.40342196402736 568.1760016973793 0.0 0.0
-870.4389265732996 -0.4991705381793521 -261.2814291334437 568.0916539843275 0.0 0.0
-773.7489606807678 0.4709436347210101 -231.98340511381417 568.2675702302142 0.0 0.0
-678.8940277301867 4.0755821081798125 -202.44553368660212 569.3761776668339 0.0 0.0
-589.3589425125285 13.606465086904068 -172.72574322768727 572.9023213033552 0.0 0.0
-510.48780660040813 33.12114851859424 -143.20999742454418 581.9530271791829 0.0 0.0
-443.933843610607 60.2322874596851 -115.11046684527656 601.8656118491233 0.0 0.0
-374.11492588857783 62.706920049211305 -93.42240175180996 634.6555443957677 0.0 0.0
-269.7707078072284 -58.67279130725793 -98.53304973434592 647.9350563506335 0.0 0.0
-164.95390690472772 -434.4631664922033 -179.82512201907926 501.3986325400751 0.0 0.0
-179.1434605955107 -826.6591427720814 -301.7407810102778 296.30974861083394 0.0 0.0
-147.12860586935153 -612.199462474194 -227.79842050306365 -259.7947874113546 0.0 0.0
-190.74803581907065 -376.4058971162213 -170.1461798805876 -455.44974039295056 0.0 0.0
-331.2848269141831 -61.557220816352356 -117.8526143191607 -612.2314093848056 0.0 0.0
-489.7765981989929 51.08528808434162 -131.6073930343954 -612.7806069326033 0.0 0.0
-620.843585483372 52.89593280109195 -170.38429580468397 -580.8525640134695 0.0 0.0
-745.4242409120626 29.76451349469096 -214.6979182252115 -556.8608481976427 0.0 0.0
-877.5257618174952 12.29502936172917 -259.5692197367298 -544.5907164042524 0.0 0.0
-1017.3244025913973 3.6597176020588877 -304.0994054968015 -539.5707020588856 0.0 0.0
-1161.1363770431165 0.4068498370368463 -348.21885816182385 -537.9868909363769 0.0 0.0
-1306.3251917138086 -0.45823017852014125 -392.03502656769854 -537.7436075891161 0.0 0.0
-1451.7591522845094 -0.46764175010718034 -435.66803821038513 -537.8697850490812 0.0 0.0
-1597.1852506783146 -0.08866557301188394 -479.182174875398 -537.9188141884597 0.0 0.0
-1742.858495602855 0.9081249841248535 -522.585111185619 -537.5253810930017 0.0 0.0
-1889.552436339794 3.32949249939994 -565.8668831521181 -536.0918658684525 0.0 0.0
-2038.8721501562932 8.257598172618565 -609.1843655951022 -532.7428947619267 0.0 0.0
-2194.4148263834413 15.900763709751438 -653.5542188021068 -526.857405859978 0.0 0.0
-2360.6432176670432 24.660087648452674 -700.7949390055769 -521.6150780814165 0.0 0.0
-2520.4341299658972 19.87338878803214 -750.1682223533595 -536.6118799020899 0.0 0.0
-2592.0108559884634 -98.53895774831167 -807.1649441210327 -595.4932389319063 0.0 0.0
-2556.155982004495 -643.2122573900355 -959.8104718183589 -552.1501143219318 0.0 0.0
-2729.655109913426 -1562.5547837921883 -1287.662968111685 -1.0331291377951857e-11 0.0 0.0
-2556.155982004437 -643.2122573899026 -959.8104718183021 552.1501143219471 0.0 0.0
-2592.010855988755 -98.53895774890529 -807.1649441212982 595.4932389319044 0.0 0.0
-2520.434129965922 19.873388787966945 -750.1682223533869 536.6118799020828 0.0 0.0
-2360.643217667015 24.66008764843997 -700.7949390055727 521.6150780814369 0.0 0.0
-2194.414826383355 15.900763709965833 -653.554218802017 526.857405859947 0.0 0.0
-2038.8721501562354 8.257598172819831 -609.1843655950248 532.7428947619455 0.0 0.0
-1889.5524363398038 3.32949249932871 -565.8668831521425 536.0918658684823 0.0 0.0
-1742.8584956027348 0.9081249843309287 -522.5851111855211 537.5253810930138 0.0 0.0
-1597.185250678271 -0.0886655728873249 -479.1821748753474 537.9188141884538 0.0 0.0
-1451.7591522846578 -0.4676417504398689 -435.66803821052946 537.8697850491116 0.0 0.0
-1306.3251917137297 -0.45823017832265744 -392.0350265676158 537.7436075891311 0.0 0.0
-1161.1363770433145 0.4068498365728823 -348.2188581620227 537.9868909363872 0.0 0.0
-1017.324402591386 3.659717602068378 -304.09940549679527 539.5707020588823 0.0 0.0
-877.5257618174955 12.2950293617441 -259.5692197367253 544.590716404278 0.0 0.0
-745.4242409120938 29.764513494655986 -214.69791822523135 556.8608481976432 0.0 0.0
-620.8435854834846 52.89593280085429 -170.38429580478916 580.8525640134853 0.0 0.0
-489.7765981990317 51.08528808423207 -131.60739303443992 612.780606932604 0.0 0.0
-331.28482691417344 -61.55722081634309 -117.85261431915492 612.2314093848444 0.0 0.0
-190.7480358190812 -376.4058971162424 -170.14617988059712 455.44974039291367 0.0 0.0
-147.12860586934303 -612.1994624741823 -227.79842050305763 259.79478741138183 0.0 0.0
-124.46421270743794 -430.38664682832774 -166.4552578607297 -222.27579952797691 0.0 0.0
-214.46059525661462 -316.11923697253917 -159.1739496687462 -403.64234748002696 0.0 0.0
-390.79191569005775 -58.00568024165914 -134.63927877951508 -562.9525718233581 0.0 0.0
-602.7072888118751 40.5263832564452 -168.654271666629 -574.3997251004333 0.0 0.0
-794.9556518966282 44.393336233311814 -225.16869469899493 -544.3312136379573 0.0 0.0
-978.6629005088346 25.431226436202145 -285.9695022217896 -517.9543569581625 0.0 0.0
-1165.0656152266995 10.557943106808773 -346.35230163596725 -503.5235984258182 0.0 0.0
-1355.6637968314835 3.1219614802918123 -405.7625506053576 -497.4765513397578 0.0 0.0
-1548.588607528248 0.33013734671910555 -464.4775410544587 -495.58136667030226 0.0 0.0
-1742.2857406628596 -0.4023034250487072 -522.8064132263725 -495.3090960607504 0.0 0.0
-1936.0766401743504 -0.4062479203903582 -580.9448664284223 -495.47611096039924 0.0 0.0
-2129.8164789087414 -0.08232996195717313 -638.9696426612097 -495.54904441361424 0.0 0.0
-2323.6541467895313 0.76395962828731 -696.8670561483732 -495.10238596911955 0.0 0.0
-2518.0812245947177 2.811902462546934 -754.5807966396515 -493.4160722759926 0.0 0.0
-2714.0811886409933 7.126935718186012 -812.0862758768426 -489.3649770571661 0.0 0.0
-2914.4273853207196 13.662732710500745 -870.2293957830657 -482.0025928693776 0.0 0.0
-3126.6682889450226 20.806661568955082 -931.7584882128203 -472.96355273312884 0.0 0.0
-3343.172569003881 25.112706919038175 -995.417958625453 -483.1034973305087 0.0 0.0
-3467.712242914404 -55.844473613010216 -1057.0670149582245 -566.0008027075494 0.0 0.0
-3438.7325322940187 -637.7315736053541 -1222.9392317698123 -598.6417843578088 0.0 0.0
-3722.180708803154 -1909.9580412741184 -1689.6416250231823 -9.79127889877418e-12 0.0 0.0
-3438.732532293969 -637.7315736052044 -1222.9392317697523 598.6417843578039 0.0 0.0
-3467.7122429143237 -55.84447361278018 -1057.0670149581313 566.000802707565 0.0 0.0
-3343.1725690038675 25.1127069190263 -995.4179586254525 483.1034973305407 0.0 0.0
-3126.668288945072 20.806661568768504 -931.758488212891 472.96355273311246 0.0 0.0
-2914.4273853207233 13.662732710478984 -870.2293957830735 482.00259286936824 0.0 0.0
-2714.0811886409074 7.126935718464551 -812.0862758767325 489.3649770571793 0.0 0.0
-2518.081224594817 2.811902462355393 -754.5807966397383 493.41607227597115 0.0 0.0
-2323.654146789553 0.7639596282050993 -696.8670561484045 495.1023859690683 0.0 0.0
-2129.816478908647 -0.08232996176533813 -638.9696426611237 495.54904441358957 0.0 0.0
-1936.0766401744118 -0.4062479205302134 -580.9448664284827 495.47611096036195 0.0 0.0
-1742.2857406628295 -0.40230342500913174 -522.8064132263518 495.3090960607416 0.0 0.0
-1548.5886075282503 0.33013734668793493 -464.4775410544688 495.581366670308 0.0 0.0
-1355.6637968313842 3.1219614805151066 -405.76255060526057 497.4765513397479 0.0 0.0
-1165.0656152267698 10.557943106639284 -346.35230163603904 503.52359842582837 0.0 0.0
-978.6629005088074 25.431226436223874 -285.96950222177503 517.9543569581803 0.0 0.0
-794.955651896665 44.393336233165286 -225.1686946990499 544.3312136379698 0.0 0.0
-602.7072888118914 40.526383256405566 -168.6542716666458 574.399725100468 0.0 0.0
-390.79191569007463 -58.00568024166732 -134.6392787795226 562.9525718233535 0.0 0.0
-214.46059525664694 -316.1192369725912 -159.17394966877148 403.6423474799935 0.0 0.0
-124.46421270741403 -430.3866468282986 -166.45525786071377 222.2757995279953 0.0 0.0
-109.94686412068896 -281.5341044919738 -117.44429058379883 -183.40550510599815 0.0 0.0
-235.58136201776168 -256.0879076431025 -147.50078089825925 -346.2069857079256 0.0 0.0
-448.02241003540206 -49.72816362605002 -149.3251720984356 -500.8596144086812 0.0 0.0
-713.3702641267483 31.076648988245264 -204.68808454155084 -519.5782593170534 0.0 0.0
-967.1676575211281 35.331362692499155 -279.55088844858875 -491.90792534670186 0.0 0.0
-1210.919003910655 20.53503140259744 -357.1151917524172 -464.90565906425667 0.0 0.0
-1452.3401720795746 8.567037100116693 -433.1319404938373 -449.5593343025469 0.0 0.0
-1694.0430408111786 2.5188746896714793 -507.4572498364521 -443.0631659514052 0.0 0.0
-1936.1367957324094 0.25310592059776127 -580.7651069435434 -441.0563378094721 0.0 0.0
-2178.318903331147 -0.33403595768171357 -653.5958817866488 -440.79653777279475 0.0 0.0
-2420.4427255628107 -0.3335719370328434 -726.2328892499529 -440.99850164455023 0.0 0.0
-2662.4903407237343 -0.07373103029898687 -798.7692215262102 -441.0958416567254 0.0 0.0
-2904.4800404142206 0.6150438228831625 -871.1594989774012 -440.64032301679214 0.0 0.0
-3146.552361365753 2.237614399756108 -943.2944240897989 -438.87283709242445 0.0 0.0
-3389.045343686843 5.791321819590564 -1014.9762065601758 -434.447416189535 0.0 0.0
-3633.0037496595155 11.468172482045311 -1086.460673153241 -426.26446593840035 0.0 0.0
-3887.467605171288 15.54677848505347 -1161.5762480058706 -414.62642133892757 0.0 0.0
-4160.453905979357 24.198130935350946 -1240.8767325132023 -415.52159156362575 0.0 0.0
-4349.377388601899 -1.9865319884964592 -1305.409176177119 -511.9505819191263 0.0 0.0
-4321.9377935866105 -577.1370681566023 -1469.7224585229642 -643.9237928137 0.0 0.0
-4774.594839629477 -2350.149770651302 -2137.4233830842336 -8.100187187665142e-12 0.0 0.0
-4321.937793586626 -577.137068156631 -1469.722458522977 643.9237928137442 0.0 0.0
-4349.377388601655 -1.9865319879051615 -1305.409176176868 511.9505819191719 0.0 0.0
-4160.453905979237 24.198130935657005 -1240.8767325130739 415.52159156364723 0.0 0.0
-3887.4676051713536 15.546778484883435 -1161.5762480059411 414.6264213389219 0.0 0.0
-3633.003749659519 11.468172482006821 -1086.460673153254 426.26446593838284 0.0 0.0
-3389.045343686744 5.791321819870591 -1014.9762065600617 434.44741618947637 0.0 0.0
-3146.552361365863 2.23761439951093 -943.294424089906 438.87283709245025 0.0 0.0
-2904.480040414173 0.6150438229205806 -871.1594989773757 440.64032301682977 0.0 0.0
-2662.490340723794 -0.07373103042406548 -798.7692215262653 441.09584165672743 0.0 0.0
-2420.442725562773 -0.3335719369277461 -726.23288924991 440.99850164452425 0.0 0.0
-2178.3189033312287 -0.334035957873573 -653.5958817867306 440.796537772782 0.0 0.0
-1936.136795732322 0.25310592085817873 -580.7651069434393 441.0563378094984 0.0 0.0
-1694.0430408110446 2.5188746899932886 -507.4572498363152 443.06316595139793 0.0 0.0
-1452.340172079592 8.567037100023553 -433.13194049387056 449.5593343025485 0.0 0.0
-1210.9190039106363 20.53503140262815 -357.1151917524024 464.90565906426275 0.0 0.0
-967.1676575211105 35.33136269255278 -279.5508884485673 491.90792534665786 0.0 0.0
-713.3702641267329 31.076648988295197 -204.68808454153125 519.5782593170743 0.0 0.0
-448.0224100354152 -49.72816362607216 -149.32517209844622 500.85961440865617 0.0 0.0
-235.58136201776625 -256.0879076431208 -147.50078089826616 346.2069857079248 0.0 0.0
-109.94686412069395 -281.53410449198174 -117.44429058380271 183.4055051060168 0.0 0.0
-102.2053188279416 -166.52622476262067 -80.61946307716866 -143.41276677208782 0.0 0.0
-252.7481522051795 -198.20282635912164 -135.2852935692904 -283.5397488788437 0.0 0.0
-502.111479680794 -38.7250039601683 -162.2509450922887 -426.24542485374434 0.0 0.0
-821.9361786094423 22.592155003561693 -239.80320708176419 -448.06907845310906 0.0 0.0
-1138.3838262493368 26.355582783256033 -333.6084730398242 -423.2482948080092 0.0 0.0
-1443.00605925537 15.551186859390599 -428.23646171879386 -397.52360448113393 0.0 0.0
-1739.776167537524 6.527544579331174 -519.9745868874579 -382.63688390572963 0.0 0.0
-2032.6168034775276 1.9162961825743228 -609.2101521884861 -376.33399974759965 0.0 0.0
-2323.814654480708 0.18715514231564434 -697.0882498015178 -374.42817674426664 0.0 0.0
-2614.41934319973 -0.25840873874413717 -784.403325581542 -374.2165742509115 0.0 0.0
-2904.8477896458885 -0.25534135393570523 -871.5309392999475 -374.43893216059615 0.0 0.0
-3195.2067192264676 -0.06134598527772894 -958.5804195635237 -374.5567098585576 0.0 0.0
-3485.3855315082556 0.46574230839938835 -1045.4759367599572 -374.1348822287323 0.0 0.0
-3775.0639131818943 1.7095903422054626 -1132.0062968519069 -372.4582525391535 0.0 0.0
-4064.0200093518165 4.262493182328878 -1217.9272548508463 -368.1212817240706 0.0 0.0
-4351.095519068524 9.507612460466484 -1302.4763719824175 -359.6516746337098 0.0 0.0
-4642.702754289443 10.837326954918042 -1389.5596282003576 -347.72861327714236 0.0 0.0
-4967.614287323879 13.402692039869219 -1486.2634785852024 -337.88438861711046 0.0 0.0
-5236.3181025750155 52.73730162454238 -1555.0742402851422 -426.3673059684672 0.0 0.0
-5201.461078497733 -430.9441097732272 -1689.7215564812882 -677.9255554890492 0.0 0.0
-5916.283520291678 -2914.5382042493006 -2649.246517362294 -1.944044925039634e-11 0.0 0.0
-5201.461078497581 -430.94410977290704 -1689.7215564811465 677.9255554890882 0.0 0.0
-5236.318102574974 52.73730162462201 -1555.0742402851054 426.3673059685068 0.0 0.0
-4967.614287323742 13.402692040175944 -1486.263478585069 337.88438861709517 0.0 0.0
-4642.702754289397 10.83732695505743 -1389.5596282003014 347.72861327708415 0.0 0.0
-4351.095519068702 9.507612460054482 -1302.4763719825944 359.6516746337409 0.0 0.0
-4064.0200093517356 4.262493182557445 -1217.9272548507536 368.12128172402254 0.0 0.0
-3775.0639131819644 1.7095903420111656 -1132.0062968519865 372.4582525391593 0.0 0.0
-3485.385531508135 0.46574230859881904 -1045.475936759861 374.1348822287547 0.0 0.0
-3195.2067192265376 -0.06134598541023406 -958.5804195635842 374.5567098585201 0.0 0.0
-2904.8477896457935 -0.255341353694035 -871.5309392998458 374.4389321606117 0.0 0.0
-2614.4193431997164 -0.25840873876148196 -784.4033255815433 374.2165742508688 0.0 0.0
-2323.814654480662 0.18715514242687936 -697.0882498014704 374.4281767442816 0.0 0.0
-2032.6168034775565 1.9162961825600617 -609.210152188499 376.3339997475949 0.0 0.0
-1739.7761675374827 6.5275445794268645 -519.9745868874168 382.6368839057206 0.0 0.0
-1443.0060592554191 15.55118685926174 -428.2364617188472 397.52360448114376 0.0 0.0
-1138.3838262492611 26.355582783394603 -333.60847303975993 423.2482948080017 0.0 0.0
-821.9361786094119 22.592155003583862 -239.80320708174838 448.0690784530985 0.0 0.0
-502.1114796807901 -38.72500396014188 -162.25094509227958 426.24542485372433 0.0 0.0
-252.74815220515714 -198.20282635910468 -135.2852935692785 283.53974887883777 0.0 0.0
-102.20531882790486 -166.52622476261823 -80.61946307715691 143.41276677208404 0.0 0.0
-99.11160087865568 -86.19181248693877 -55.591024009678335 -103.51195534923288 0.0 0.0
-263.5534313062431 -144.21999116319967 -122.33202674083287 -216.3352541581629 0.0 0.0
-551.4865508067878 -27.391483469721912 -173.66341028295295 -338.68987028665026 0.0 0.0
-928.3745015725358 14.969896030870299 -274.0213816624997 -359.1802298315031 0.0 0.0
-1309.6151297524248 18.21440820448678 -387.42021646438144 -338.0822886696477 0.0 0.0
-1675.837866488713 10.984743255246327 -499.4559369700398 -315.76666630035544 0.0 0.0
-2027.839182748813 4.660001366851562 -606.9537544145884 -302.78879329833404 0.0 0.0
-2371.5486267794786 1.3809905066276595 -711.0502908818553 -297.3326407837721 0.0 0.0
-2711.6524743059617 0.1391946569754623 -813.4539838946959 -295.72533277394086 0.0 0.0
-3050.5754098673483 -0.18219396942117783 -915.227281151031 -295.58111818404484 0.0 0.0
-3389.279441505978 -0.1827477009703138 -1016.8386567620846 -295.79956724099384 0.0 0.0
-3727.9612036075687 -0.03720315190602008 -1118.3995220278425 -295.91941745133227 0.0 0.0
-4066.410205134147 0.3089075912825727 -1219.8303892628592 -295.5854556683461 0.0 0.0
-4403.783853664099 1.3034806665970713 -1320.7441118992506 -294.11283404138027 0.0 0.0
-4739.09895443226 2.816097911228834 -1420.8848569563092 -290.46969879262684 0.0 0.0
-5070.033950461468 7.0932790448960255 -1518.8822014249715 -282.34215725431494 0.0 0.0
-5393.678101681575 10.157255758552354 -1615.056253776907 -271.82479761391807 0.0 0.0
-5757.382463296728 -7.352606034738084 -1729.4205207994398 -258.2539486214161 0.0 0.0
-6125.301829169466 83.25877298331577 -1812.6129168558448 -306.19915090122134 0.0 0.0
-6068.636432130018 -156.21000704222982 -1867.4539317516746 -675.2134664429415 0.0 0.0
-7191.813603715796 -3638.9463115803073 -3249.227974588831 -1.9610979506978765e-12 0.0 0.0
-6068.636432129844 -156.21000704184377 -1867.4539317515066 675.2134664429465 0.0 0.0
-6125.301829169646 83.25877298285985 -1812.612916856036 306.19915090124346 0.0 0.0
-5757.382463296675 -7.352606034608492 -1729.4205207993848 258.2539486214081 0.0 0.0
-5393.678101681457 10.157255758832301 -1615.0562537767873 271.82479761391784 0.0 0.0
-5070.033950461478 7.09327904484076 -1518.882201424991 282.3421572543003 0.0 0.0
-4739.098954432343 2.816097911073906 -1420.8848569563813 290.46969879259484 0.0 0.0
-4403.783853664285 1.3034806661933684 -1320.744111899427 294.11283404142296 0.0 0.0
-4066.4102051340687 0.3089075914598203 -1219.8303892627828 295.5854556683185 0.0 0.0
-3727.961203607588 -0.03720315191672574 -1118.3995220278516 295.91941745128884 0.0 0.0
-3389.279441505895 -0.1827477007580316 -1016.838656761996 295.7995672410051 0.0 0.0
-3050.575409867224 -0.18219396916274144 -915.2272811509159 295.58111818405183 0.0 0.0
-2711.6524743059263 0.13919465699742417 -813.4539838946786 295.72533277395803 0.0 0.0
-2371.5486267795013 1.380990506561201 -711.0502908818819 297.3326407837552 0.0 0.0
-2027.8391827488363 4.660001366786815 -606.953754414615 302.78879329830283 0.0 0.0
-1675.8378664887416 10.984743255122723 -499.45593697008565 315.7666663003576 0.0 0.0
-1309.6151297523893 18.214408204624505 -387.4202164643296 338.0822886696817 0.0 0.0
-928.3745015725276 14.969896030935628 -274.0213816624776 359.18022983149933 0.0 0.0
-551.486550806735 -27.391483469661 -173.66341028291876 338.68987028664156 0.0 0.0
-263.55343130623 -144.21999116321476 -122.33202674083344 216.33525415814668 0.0 0.0
-99.11160087863992 -86.1918124869242 -55.59102400966924 103.51195534919975 0.0 0.0
-96.710451844911 -40.26986933771157 -41.09409635478678 -66.69313127272336 0.0 0.0
-264.1819035324495 -96.55985217894154 -108.22252671341728 -145.69542895990298 0.0 0.0
-593.6849998431815 -18.621261165240355 -183.69187830252662 -236.5157450664135 0.0 0.0
-1032.6132569408878 8.535539166877115 -307.2233153322032 -251.73160739532636 0.0 0.0
-1482.1265859236933 11.786349983876221 -441.102070781945 -236.26070764986554 0.0 0.0
-1910.4202492145353 7.336090845243107 -570.9252475107878 -219.75214923606416 0.0 0.0
-2317.0048839528677 3.1845420170567103 -694.146102580743 -210.1536212279447 0.0 0.0
-2710.994867246696 0.9679885202795369 -813.0080636179249 -206.1447273779299 0.0 0.0
-3099.6686328515607 0.10978382767692985 -929.8676547071653 -204.98775368366503 0.0 0.0
-3486.7698446627655 -0.11805877194732872 -1046.066371030414 -204.90357557684305 0.0 0.0
-3873.7133189573483 -0.12093541681677777 -1162.1502763122494 -205.07822205318615 0.0 0.0
-4260.766925098819 -0.02544969416179299 -1278.237712437895 -205.1778712193693 0.0 0.0
-4647.527181431307 0.23385556943971508 -1394.1879977585609 -204.94016279844675 0.0 0.0
-5033.008635047672 0.7976345811716783 -1509.6633001399496 -203.892277133973 0.0 0.0
-5414.303255784756 2.3987016891818556 -1623.5713662286726 -201.0507663523308 0.0 0.0
-5790.533661669769 2.8105628667357117 -1736.31692964091 -195.63466611609797 0.0 0.0
-6145.880470104293 14.70972156980087 -1839.3512245603479 -183.91674679885494 0.0 0.0
-6519.202503555623 -22.51776972555569 -1962.5160819843525 -184.4854023088266 0.0 0.0
-7007.547805632049 36.01775831637218 -2091.4590141947024 -171.1159535430726 0.0 0.0
-6908.152317230559 299.7012740035116 -1982.5353129681139 -571.3079955976492 0.0 0.0
-8669.578423135668 -4547.739147152595 -3965.19527108648 9.492850949754938e-12 0.0 0.0
-6908.152317230401 299.7012740038235 -1982.535312967974 571.3079955976254 0.0 0.0
-7007.547805632143 36.017758316089115 -2091.459014194817 171.11595354310157 0.0 0.0
-6519.202503555697 -22.517769725720918 -1962.5160819844257 184.4854023088493 0.0 0.0
-6145.880470104297 14.709721569832151 -1839.3512245603397 183.91674679884213 0.0 0.0
-5790.533661669751 2.8105628668120537 -1736.3169296408823 195.63466611605742 0.0 0.0
-5414.3032557848455 2.3987016889625297 -1623.5713662287646 201.0507663523437 0.0 0.0
-5033.008635047833 0.7976345808096488 -1509.6633001401076 203.89227713397295 0.0 0.0
-4647.527181431242 0.23385556962606868 -1394.187997758485 204.94016279844303 0.0 0.0
-4260.766925098779 -0.025449694079064056 -1278.237712437858 205.1778712193568 0.0 0.0
-3873.7133189573015 -0.12093541669237262 -1162.1502763121982 205.0782220531755 0.0 0.0
-3486.769844662697 -0.11805877178149521 -1046.0663710303438 204.90357557680923 0.0 0.0
-3099.668632851601 0.10978382756524896 -929.8676547072107 204.9877536836927 0.0 0.0
-2710.9948672467663 0.9679885201150484 -813.0080636179957 206.14472737789688 0.0 0.0
-2317.0048839529695 3.184542016820349 -694.1461025808446 210.15362122796807 0.0 0.0
-1910.4202492145564 7.336090845139178 -570.9252475108252 219.75214923605574 0.0 0.0
-1482.1265859236587 11.786349983994649 -441.10207078189933 236.26070764988623 0.0 0.0
-1032.6132569408771 8.53553916698923 -307.22331533216624 251.73160739534208 0.0 0.0
-593.6849998432285 -18.621261165313477 -183.69187830256254 236.51574506644502 0.0 0.0
-264.18190353245393 -96.55985217895712 -108.22252671342329 145.69542895990796 0.0 0.0
-96.71045184490576 -40.26986933770152 -41.09409635478219 66.69313127268504 0.0 0.0
-87.15499375133493 -25.54572148936104 -33.81021457220879 -39.28165851897216 0.0 0.0
-248.82014029938153 -59.920142389383955 -92.62208480662967 -73.15282997994464 0.0 0.0
-625.0909152973327 -15.685164188470196 -192.2328238457409 -115.60476116705567 0.0 0.0
-1134.845830358539 4.712201081668683 -339.0400887830609 -124.38477038939513 0.0 0.0
-1657.6338385924307 7.9196849125016495 -494.91424610397877 -117.75913675181361 0.0 0.0
-2147.7980862354634 5.124578896329103 -642.8020522017405 -109.7944463602593 0.0 0.0
-2607.7403578775998 2.284947449071499 -781.6366231285587 -104.97861399697945 0.0 0.0
-3051.082328258176 0.7120704592036482 -915.1110773396916 -102.89716794327461 0.0 0.0
-3487.8637006033323 0.08848397605046898 -1046.3325649881847 -102.26479675266563 0.0 0.0
-3922.973395448345 -0.08106776781118086 -1176.9163389648475 -102.19660922784082 0.0 0.0
-4358.12951820712 -0.08519490793222317 -1307.4644139345155 -102.27224529657224 0.0 0.0
-4793.590212033034 -0.01635499292010323 -1438.0819701077862 -102.31398396778928 0.0 0.0
-5228.858232688277 0.16550309906261518 -1568.6078188767644 -102.17678130213464 0.0 0.0
-5662.452384359182 0.6071420667116492 -1698.553572687741 -101.63949416206175 0.0 0.0
-6091.508354045178 1.4987482610482346 -1827.002881735239 -100.15202564378215 0.0 0.0
-6508.333343551096 3.5556322569819727 -1951.4333133882342 -97.46493556575652 0.0 0.0
-6914.819517600933 2.0309634338643257 -2073.8365662501205 -92.50769403924724 0.0 0.0
-7239.477395119974 33.53505149658594 -2161.7827030870167 -85.99670167763466 0.0 0.0
-7861.022269619979 -192.26925422993986 -2415.9874571549753 -135.62970596126252 0.0 0.0
-7696.755671253617 969.0762380222073 -2018.3038299694228 -193.57676381844198 0.0 0.0
-10453.591079663813 -5590.658802702415 -4813.274964709867 -2.9558577807620168e-12 0.0 0.0
-7696.755671253385 969.0762380227224 -2018.3038299691991 193.57676381841154 0.0 0.0
-7861.022269620016 -192.2692542301264 -2415.9874571550436 135.62970596124853 0.0 0.0
-7239.477395120016 33.5350514964637 -2161.7827030870653 85.9967016776391 0.0 0.0
-6914.819517600912 2.0309634339488536 -2073.836566250089 92.50769403925639 0.0 0.0
-6508.3333435510785 3.55563225703843 -1951.4333133882121 97.46493556577755 0.0 0.0
-6091.5083540452415 1.498748260940113 -1827.0028817352907 100.15202564378488 0.0 0.0
-5662.4523843591805 0.6071420667600176 -1698.553572687726 101.63949416205631 0.0 0.0
-5228.858232688213 0.16550309920828843 -1568.607818876702 102.17678130216052 0.0 0.0
-4793.590212033027 -0.01635499289992437 -1438.0819701077778 102.31398396779073 0.0 0.0
-4358.129518207137 -0.08519490798673071 -1307.4644139345373 102.27224529660987 0.0 0.0
-3922.9733954481558 -0.08106776737304744 -1176.9163389646587 102.19660922780116 0.0 0.0
-3487.863700603273 0.08848397617616621 -1046.3325649881294 102.26479675272438 0.0 0.0
-3051.082328258146 0.7120704591861644 -915.111077339688 102.89716794329273 0.0 0.0
-2607.7403578775766 2.2849474491063324 -781.6366231285415 104.97861399700685 0.0 0.0
-2147.7980862354343 5.1245788964283525 -642.8020522017018 109.7944463602594 0.0 0.0
-1657.6338385924646 7.9196849124596636 -494.9142461040016 117.75913675181711 0.0 0.0
-1134.8458303585694 4.71220108164005 -339.0400887830788 124.3847703894113 0.0 0.0
-625.0909152973356 -15.685164188527088 -192.23282384575884 115.60476116708432 0.0 0.0
-248.82014029936195 -59.92014238940316 -92.62208480662956 73.15282997997163 0.0 0.0
-87.15499375132586 -25.545721489351283 -33.81021457220315 39.281658518971334 0.0 0.0
-45.358585847545214 -10.783651086753975 -16.842671080289758 -26.32340396693793 0.0 0.0
-202.7346646126762 -30.78190354411878 -70.0549704470385 -30.91773703201484 0.0 0.0
-638.5742684594959 -16.531945721762852 -196.53186425437764 -39.34733950034622 0.0 0.0
-1249.302581597674 -23.61174278170158 -381.8742973138127 -43.87087652809943 0.0 0.0
-1859.2396134155156 -41.64468767713974 -570.2652903277966 -43.53673036316444 0.0 0.0
-2416.6739748795717 -59.56375288727827 -742.8713183300547 -41.51081133975671 0.0 0.0
-2933.5579601844292 -75.14476951170836 -902.6108189088413 -39.962653040742445 0.0 0.0
-3430.267528410882 -88.93131877654804 -1055.7596541562293 -39.163922904915964 0.0 0.0
-3919.8949245365957 -101.8753144914382 -1206.5310717084105 -38.85799796232358 0.0 0.0
-4408.203484719837 -114.55557323707833 -1356.8277173870747 -38.781013088803604 0.0 0.0
-4896.976360616661 -127.21130540510215 -1507.256299806529 -38.77817662956488 0.0 0.0
-5386.361090281814 -139.87422885330741 -1657.8705957405368 -38.77200421312267 0.0 0.0
-5875.781833954767 -152.55077661403894 -1808.4997831706419 -38.69291268261952 0.0 0.0
-6363.425273836721 -164.8100657615994 -1958.4706018794957 -38.479986503846646 0.0 0.0
-6845.97788743137 -177.4384033965469 -2107.024887248375 -37.9671761601042 0.0 0.0
-7312.797890318889 -184.6038503058785 -2249.2205221874306 -36.97503835184446 0.0 0.0
-7759.294454465962 -208.15985498158958 -2390.2362928342654 -37.98337397242784 0.0 0.0
-8123.544618136079 -137.49967679647241 -2478.3132884797665 -25.84381208169478 0.0 0.0
-8498.31681300337 -463.47518680936565 -2688.5375999438215 -126.89694408003731 0.0 0.0
-8675.991277148834 1100.6514093489172 -2272.601960339976 -0.5712967159037134 0.0 0.0
-12829.279192517291 -6727.922832988203 -5867.160607651649 -9.322320693172514e-12 0.0 0.0
-8675.991277148541 1100.6514093495596 -2272.6019603396944 0.5712967158867457 0.0 0.0
-8498.316813003621 -463.4751868099804 -2688.5375999440807 126.89694408007341 0.0 0.0
-8123.54461813589 -137.49967679606846 -2478.3132884795878 25.84381208173488 0.0 0.0
-7759.294454465807 -208.1598549812582 -2390.2362928341195 37.983373972406355 0.0 0.0
-7312.797890318895 -184.6038503057863 -2249.220522187404 36.97503835186683 0.0 0.0
-6845.97788743146 -177.43840339659312 -2107.0248872484162 37.96717616007055 0.0 0.0
-6363.425273836494 -164.81006576102982 -1958.4706018792572 38.47998650383528 0.0 0.0
-5875.781833954886 -152.55077661430784 -1808.4997831707583 38.69291268258684 0.0 0.0
-5386.361090281829 -139.87422885336105 -1657.8705957405577 38.77200421307401 0.0 0.0
-4896.976360616688 -127.21130540519404 -1507.2562998065641 38.77817662955644 0.0 0.0
-4408.203484719489 -114.55557323636596 -1356.8277173867564 38.78101308873835 0.0 0.0
-3919.8949245363833 -101.87531449103162 -1206.5310717082243 38.85799796235901 0.0 0.0
-3430.267528410779 -88.93131877630947 -1055.7596541561265 39.16392290498257 0.0 0.0
-2933.5579601843046 -75.14476951142058 -902.6108189087175 39.9626530407688 0.0 0.0
-2416.6739748794535 -59.563752887006025 -742.8713183299378 41.51081133975535 0.0 0.0
-1859.239613415565 -41.64468767728709 -570.2652903278557 43.53673036312411 0.0 0.0
-1249.302581597742 -23.611742781878036 -381.87429731388596 43.87087652809755 0.0 0.0
-638.5742684595319 -16.531945721788077 -196.531864254396 39.34733950031871 0.0 0.0
-202.73466461271298 -30.781903544194662 -70.05497044707231 30.917737032041074 0.0 0.0
-45.35858584751388 -10.78365108674046 -16.8426710802763 26.32340396694996 0.0 0.0
SCALARS Strain float 6
LOOKUP_TABLE default
0.011751390727664297 -0.02919136458747488 0.0 -0.0019642390650454348 0.0 0.0
0.010465571559701157 0.0022755678549126975 0.0 -0.00305111694936636 0.0 0.0
0.008271576450579866 -0.004121911973211203 0.0 -0.0013049282774210962 0.0 0.0
0.007887896892433468 -0.002873789550074269 0.0 -0.00019435184955955584 0.0 0.0
0.009264893342609389 -0.003786286308815304 0.0 -0.0004479252521659879 0.0 0.0
0.011131195690734385 -0.00450998214585163 0.0 -0.00046156988848446525 0.0 0.0
0.013223537001144092 -0.005383350407874981 0.0 -0.000489438792483159 0.0 0.0
0.015401806699329283 -0.006270137647883776 0.0 -0.0005000433866878668 0.0 0.0
0.017606179643147896 -0.007168870526818321 0.0 -0.0005038143168354802 0.0 0.0
0.019814729691766553 -0.008067879130308316 0.0 -0.0005047957563352671 0.0 0.0
0.022020851931406904 -0.008965988161890065 0.0 -0.0005047956947266914 0.0 0.0
0.024224238766099672 -0.009862951221966228 0.0 -0.0005049074877808181 0.0 0.0
0.026427737070536923 -0.010759797157281028 0.0 -0.0005058908736793979 0.0 0.0
0.02863905471410296 -0.011659162632836197 0.0 -0.0005087878320441554 0.0 0.0
0.03087529193558481 -0.012567232217600938 0.0 -0.0005147190773423401 0.0 0.0
0.03316573931621877 -0.013495376566144798 0.0 -0.000523130433690239 0.0 0.0
0.03553975614198545 -0.014456811997386021 0.0 -0.0005269393410776698 0.0 0.0
0.03797617458162603 -0.015448380982578256 0.0 -0.0005050973518895399 0.0 0.0
0.04029983390361753 -0.01640811289218303 0.0 -0.00042129222396271944 0.0 0.0
0.042086760095857184 -0.017165134915177252 0.0 -0.0002464527439634721 0.0 0.0
0.04277563044684914 -0.0174653258919098 0.0 -6.678685382510707e-17 0.0 0.0
0.04208676009585713 -0.01716513491517753 0.0 0.0002464527439632988 0.0 0.0
0.04029983390361752 -0.016408112892185012 0.0 0.00042129222396331207 0.0 0.0
0.037976174581626186 -0.015448380982577115 0.0 0.0005050973518890183 0.0 0.0
0.03553975614198546 -0.014456811997385233 0.0 0.0005269393410781541 0.0 0.0
0.03316573931621861 -0.013495376566144916 0.0 0.00052313043368987 0.0 0.0
0.030875291935584602 -0.012567232217601646 0.0 0.0005147190773426872 0.0 0.0
0.028639054714103038 -0.011659162632832853 0.0 0.0005087878320440096 0.0 0.0
0.026427737070536854 -0.010759797157283526 0.0 0.0005058908736786214 0.0 0.0
0.024224238766099644 -0.009862951221964044 0.0 0.0005049074877811215 0.0 0.0
0.02202085193140689 -0.008965988161890657 0.0 0.0005047956947264287 0.0 0.0
0.019814729691766498 -0.008067879130307832 0.0 0.0005047957563358134 0.0 0.0
0.01760617964314796 -0.007168870526820394 0.0 0.0005038143168362759 0.0 0.0
0.0154018066993293 -0.0062701376478846455 0.0 0.0005000433866878222 0.0 0.0
0.013223537001144071 -0.0053833504078735295 0.0 0.0004894387924829078 0.0 0.0
0.01113119569073438 -0.004509982145851187 0.0 0.0004615698884844944 0.0 0.0
0.009264893342609447 -0.0037862863088159804 0.0 0.0004479252521665044 0.0 0.0
0.00788789689243361 -0.0028737895500745327 0.0 0.00019435184955911858 0.0 0.0
0.008271576450579883 -0.004121911973211339 0.0 0.0013049282774207354 0.0 0.0
0.010465571559701143 0.002275567854912893 0.0 0.0030511169493660493 0.0 0.0
0.01175139072766438 -0.029191364587474948 0.0 0.001964239065045175 0.0 0.0
0.007317616887908026 -0.027132974971053256 0.0 -0.0013423051159990281 0.0 0.0
0.00619124802785593 0.0019722318161509754 0.0 -0.0024327012965349253 0.0 0.0
0.0059438843469310975 -0.0031965136723742277 0.0 -0.0009120950771645542 0.0 0.0
0.007152294219447004 -0.0028357540512001724 0.0 -0.000754943536101066 0.0 0.0
0.0083081330024536 -0.003532133093559882 0.0 -0.001088472404321788 0.0 0.0
0.01004008270110727 -0.0042802118218040665 0.0 -0.00123303141862896 0.0 0.0
0.011913824378919888 -0.00509834051117205 0.0 -0.001297844095240403 0.0 0.0
0.013869022082665916 -0.0059415485634880544 0.0 -0.001324376388758508 0.0 0.0
0.015848727951343365 -0.006792069669612683 0.0 -0.001331660480223697 0.0 0.0
0.017834401395493294 -0.007643624205543377 0.0 -0.0013324062042761855 0.0 0.0
0.01981930156508948 -0.008494299454840332 0.0 -0.001331390434044368 0.0 0.0
0.021802689859476414 -0.009344057927515552 0.0 -0.0013308912405116892 0.0 0.0
0.023786913107640334 -0.010193724147643635 0.0 -0.0013327368775089153 0.0 0.0
0.02577844338426837 -0.011045542183345759 0.0 -0.0013401584033525854 0.0 0.0
0.027790754141654293 -0.011904772683338716 0.0 -0.0013582242289831988 0.0 0.0
0.029844809719610794 -0.012781210779704573 0.0 -0.0013902261407688847 0.0 0.0
0.03195618582715058 -0.01368649577319582 0.0 -0.0014244303681832065 0.0 0.0
0.03409120012104417 -0.014618271472560666 0.0 -0.0014082450155009597 0.0 0.0
0.03608644174204536 -0.015521887084010182 0.0 -0.0012275769658469963 0.0 0.0
0.03758882447760362 -0.01624137000118464 0.0 -0.0007522719112683331 0.0 0.0
0.03816008296278168 -0.01653180028971781 0.0 -3.0357660829594124e-17 0.0 0.0
0.03758882447760356 -0.016241370001184863 0.0 0.0007522719112675921 0.0 0.0
0.0360864417420453 -0.015521887084010266 0.0 0.0012275769658474233 0.0 0.0
0.03409120012104432 -0.014618271472560469 0.0 0.0014082450155003701 0.0 0.0
0.031956185827150554 -0.013686495773196054 0.0 0.0014244303681831374 0.0 0.0
0.029844809719610683 -0.012781210779704878 0.0 0.0013902261407685195 0.0 0.0
0.027790754141654106 -0.01190477268333925 0.0 0.0013582242289840343 0.0 0.0
0.025778443384268254 -0.01104554218334371 0.0 0.0013401584033528799 0.0 0.0
0.023786913107640348 -0.010193724147644086 0.0 0.001332736877508818 0.0 0.0
0.021802689859476473 -0.00934405792751534 0.0 0.0013308912405124076 0.0 0.0
0.01981930156508953 -0.008494299454840728 0.0 0.0013313904340440772 0.0 0.0
0.01783440139549337 -0.007643624205543206 0.0 0.0013324062042767075 0.0 0.0
0.015848727951343483 -0.006792069669613622 0.0 0.0013316604802244966 0.0 0.0
0.013869022082665852 -0.0059415485634887 0.0 0.001324376388758263 0.0 0.0
0.011913824378919856 -0.0050983405111713394 0.0 0.0012978440952406429 0.0 0.0
0.010040082701107282 -0.004280211821803876 0.0 0.0012330314186286403 0.0 0.0
0.008308133002453536 -0.0035321330935606616 0.0 0.0010884724043219854 0.0 0.0
0.007152294219447021 -0.0028357540512003662 0.0 0.0007549435361009363 0.0 0.0
0.005943884346931056 -0.003196513672374429 0.0 0.0009120950771643339 0.0 0.0
0.006191248027855816 0.0019722318161511216 0.0 0.0024327012965345857 0.0 0.0
0.007317616887907939 -0.027132974971053353 0.0 0.0013423051159990366 0.0 0.0
0.005248609666951289 -0.023252827271770304 0.0 -0.006181920174405015 0.0 0.0
0.003987250005368331 0.0010798001906316343 0.0 -0.00439910121260398 0.0 0.0
0.00409437250062245 -0.0016384217813185914 0.0 -0.0006184897153843708 0.0 0.0
0.0060485600580696425 -0.0025546476847380685 0.0 -0.0017415352586129512 0.0 0.0
0.007359051756505029 -0.00306523280249476 0.0 -0.0021673012171876576 0.0 0.0
0.008910879014650252 -0.0037968917868418583 0.0 -0.002483929068531849 0.0 0.0
0.010596783139335467 -0.004529431351219649 0.0 -0.002607682976760989 0.0 0.0
0.012332551812732056 -0.005282391080510147 0.0 -0.002657695210695789 0.0 0.0
0.014090819320450386 -0.006038570984950037 0.0 -0.00267113167534113 0.0 0.0
0.015854302536776187 -0.006795148556297917 0.0 -0.0026719088589460048 0.0 0.0
0.017618054477584563 -0.007551039653400949 0.0 -0.002669612017892157 0.0 0.0
0.019381113740450567 -0.008306271348004789 0.0 -0.0026683730542732963 0.0 0.0
0.021145168254628262 -0.009061308061195915 0.0 -0.0026716713441896516 0.0 0.0
0.02291491734630737 -0.009817397666214672 0.0 -0.002685916808955589 0.0 0.0
0.024699852086264754 -0.010577790561509029 0.0 -0.0027217197080721305 0.0 0.0
0.026514033356734294 -0.011349481167707443 0.0 -0.0027873964957288136 0.0 0.0
0.028365531308026652 -0.012142944908635753 0.0 -0.002863015081683331 0.0 0.0
0.030221644404147964 -0.012962269355734794 0.0 -0.0028466285907023056 0.0 0.0
0.031944441457828945 -0.013773552250915762 0.0 -0.002504135106456866 0.0 0.0
0.03323881148442734 -0.014448112275958595 0.0 -0.0015499714326639115 0.0 0.0
0.033731369249883694 -0.014736002162972401 0.0 1.2544219135657286e-16 0.0 0.0
0.03323881148442728 -0.014448112275958002 0.0 0.0015499714326637959 0.0 0.0
0.03194444145782888 -0.013773552250915125 0.0 0.002504135106457219 0.0 0.0
0.03022164440414806 -0.012962269355734943 0.0 0.002846628590702365 0.0 0.0
0.028365531308026763 -0.012142944908636098 0.0 0.002863015081683679 0.0 0.0
0.026514033356734315 -0.01134948116770721 0.0 0.002787396495729246 0.0 0.0
0.024699852086264684 -0.010577790561509464 0.0 0.002721719708072121 0.0 0.0
0.02291491734630735 -0.009817397666214313 0.0 0.0026859168089557644 0.0 0.0
0.021145168254628186 -0.009061308061195377 0.0 0.0026716713441892834 0.0 0.0
0.019381113740450373 -0.008306271348004969 0.0 0.0026683730542731285 0.0 0.0
0.017618054477584615 -0.007551039653400812 0.0 0.0026696120178920056 0.0 0.0
0.015854302536776235 -0.006795148556298427 0.0 0.0026719088589466414 0.0 0.0
0.014090819320450377 -0.006038570984949501 0.0 0.0026711316753417987 0.0 0.0
0.012332551812732073 -0.005282391080510155 0.0 0.002657695210695641 0.0 0.0
0.010596783139335368 -0.004529431351219386 0.0 0.0026076829767612505 0.0 0.0
0.008910879014650241 -0.0037968917868421515 0.0 0.002483929068531885 0.0 0.0
0.007359051756505119 -0.0030652328024950706 0.0 0.0021673012171879507 0.0 0.0
0.006048560058069645 -0.0025546476847379696 0.0 0.0017415352586129047 0.0 0.0
0.004094372500622369 -0.001638421781318777 0.0 0.0006184897153839131 0.0 0.0
0.003987250005368307 0.0010798001906316597 0.0 0.004399101212604106 0.0 0.0
0.005248609666951328 -0.023252827271770388 0.0 0.00618192017440494 0.0 0.0
0.004169161665922771 -0.019842235953329835 0.0 -0.0077174019903743785 0.0 0.0
0.0028072808471245893 -6.823017859200187e-05 0.0 -0.006024440585687918 0.0 0.0
0.002755705398171151 -0.0006438933678660565 0.0 -0.0018330610089265676 0.0 0.0
0.004869414735662771 -0.002009912678502831 0.0 -0.002517559517107451 0.0 0.0
0.006352730129170167 -0.002627212419596982 0.0 -0.003224062709740227 0.0 0.0
0.007771694602731503 -0.0032886141155907015 0.0 -0.0035857699430434445 0.0 0.0
0.009268546082283086 -0.003957229101639909 0.0 -0.0037660390731638124 0.0 0.0
0.010793730737055359 -0.004621022719975444 0.0 -0.0038321601975557958 0.0 0.0
0.01233199053725783 -0.005284784178000186 0.0 -0.0038517115267320302 0.0 0.0
0.013874267441776715 -0.005946777625507023 0.0 -0.003853130819437358 0.0 0.0
0.015416937398207854 -0.00660793242033603 0.0 -0.0038502726709589022 0.0 0.0
0.016959416667759804 -0.0072684602080447264 0.0 -0.003848766939157979 0.0 0.0
0.018502575819423075 -0.007928382956813824 0.0 -0.003853415991601019 0.0 0.0
0.020049052205827603 -0.008587664736888012 0.0 -0.0038728292298666252 0.0 0.0
0.021604311442146695 -0.009247316717065603 0.0 -0.0039211326373912204 0.0 0.0
0.02317701875495687 -0.00991223781325083 0.0 -0.004009211527005019 0.0 0.0
0.024773083167097212 -0.010595327040101127 0.0 -0.0041091322437585825 0.0 0.0
0.026371186779143997 -0.011315681464598023 0.0 -0.004078619190620622 0.0 0.0
0.02786756817486001 -0.012070728514709757 0.0 -0.003586941051969219 0.0 0.0
0.029012220303681044 -0.012754395543113998 0.0 -0.0022227018142726997 0.0 0.0
0.029454508188283608 -0.013070841550921893 0.0 -2.5045070184415152e-17 0.0 0.0
0.029012220303680995 -0.012754395543112461 0.0 0.002222701814272779 0.0 0.0
0.02786756817485996 -0.012070728514709476 0.0 0.0035869410519692255 0.0 0.0
0.02637118677914407 -0.011315681464597046 0.0 0.004078619190620299 0.0 0.0
0.024773083167097254 -0.010595327040100449 0.0 0.0041091322437591974 0.0 0.0
0.023177018754956837 -0.009912237813250976 0.0 0.004009211527005617 0.0 0.0
0.021604311442146622 -0.009247316717065784 0.0 0.003921132637390738 0.0 0.0
0.020049052205827495 -0.008587664736888883 0.0 0.003872829229866275 0.0 0.0
0.018502575819423068 -0.007928382956814035 0.0 0.0038534159916008576 0.0 0.0
0.016959416667759845 -0.007268460208044822 0.0 0.003848766939158214 0.0 0.0
0.015416937398207847 -0.00660793242033518 0.0 0.0038502726709591433 0.0 0.0
0.013874267441776741 -0.005946777625507821 0.0 0.00385313081943756 0.0 0.0
0.012331990537257722 -0.005284784178000685 0.0 0.003851711526732135 0.0 0.0
0.010793730737055307 -0.0046210227199753266 0.0 0.0038321601975554436 0.0 0.0
0.00926854608228316 -0.003957229101639792 0.0 0.0037660390731630985 0.0 0.0
0.0077716946027314975 -0.0032886141155910958 0.0 0.0035857699430439562 0.0 0.0
0.00635273012917018 -0.0026272124195971668 0.0 0.0032240627097402815 0.0 0.0
0.004869414735662696 -0.0020099126785027713 0.0 0.002517559517107403 0.0 0.0
0.002755705398171053 -0.000643893367866241 0.0 0.0018330610089265778 0.0 0.0
0.0028072808471245455 -6.823017859214169e-05 0.0 0.00602444058568797 0.0 0.0
0.004169161665922672 -0.019842235953329828 0.0 0.007717401990374033 0.0 0.0
0.003518863578143563 -0.016878750364958027 0.0 -0.007893531808060225 0.0 0.0
0.002141192611699711 -0.0010574365510207053 0.0 -0.007123789565650726 0.0 0.0
0.0018145254096784383 -0.0001074977205320068 0.0 -0.003473346142836347 0.0 0.0
0.003756054394462598 -0.0014212974905248499 0.0 -0.0034354075123003303 0.0 0.0
0.005308016255020422 -0.00216219586545242 0.0 -0.004167007836031953 0.0 0.0
0.006622614619912665 -0.002778585222493153 0.0 -0.0045697776159291156 0.0 0.0
0.007934076774244103 -0.0033785870854594665 0.0 -0.004770905718557112 0.0 0.0
0.009252036545371099 -0.003958674653183728 0.0 -0.00485054297624155 0.0 0.0
0.01057243186083175 -0.004530440937930203 0.0 -0.0048737890680974035 0.0 0.0
0.011894065416429216 -0.005098420863899915 0.0 -0.0048762663712533785 0.0 0.0
0.01321583173660007 -0.005664869698580946 0.0 -0.004873322389956172 0.0 0.0
0.014537539715913483 -0.006230577167988544 0.0 -0.004871867553016052 0.0 0.0
0.015859289037535158 -0.006795041344425595 0.0 -0.004877481927253432 0.0 0.0
0.017181532478888026 -0.007356819636114778 0.0 -0.004899952291477763 0.0 0.0
0.018505875587439803 -0.007914633794053397 0.0 -0.004955161714347211 0.0 0.0
0.01983692307336631 -0.008471901393995365 0.0 -0.005055267733095034 0.0 0.0
0.021182550089044173 -0.009046610073161938 0.0 -0.005167255910949159 0.0 0.0
0.022540514594795454 -0.009679253861909999 0.0 -0.00512085274338666 0.0 0.0
0.02384727524068019 -0.010406790661344093 0.0 -0.004509354442355132 0.0 0.0
0.0248878387120141 -0.01114344475654882 0.0 -0.0028052947264212307 0.0 0.0
0.025302016765413625 -0.01151613537697557 0.0 2.489328188026718e-16 0.0 0.0
0.024887838712014217 -0.011143444756549216 0.0 0.002805294726421155 0.0 0.0
0.0238472752406801 -0.01040679066134302 0.0 0.0045093544423553565 0.0 0.0
0.022540514594795422 -0.009679253861910164 0.0 0.005120852743386038 0.0 0.0
0.021182550089044228 -0.009046610073161201 0.0 0.0051672559109491875 0.0 0.0
0.01983692307336627 -0.008471901393995668 0.0 0.00505526773309522 0.0 0.0
0.018505875587439817 -0.007914633794053364 0.0 0.00495516171434703 0.0 0.0
0.017181532478888067 -0.007356819636117203 0.0 0.004899952291477426 0.0 0.0
0.015859289037535133 -0.006795041344425108 0.0 0.0048774819272532815 0.0 0.0
0.014537539715913393 -0.006230577167989677 0.0 0.004871867553016049 0.0 0.0
0.013215831736600007 -0.005664869698580996 0.0 0.0048733223899559 0.0 0.0
0.011894065416429178 -0.005098420863899666 0.0 0.00487626637125289 0.0 0.0
0.010572431860831647 -0.004530440937930776 0.0 0.004873789068097254 0.0 0.0
0.009252036545370995 -0.003958674653183795 0.0 0.00485054297624124 0.0 0.0
0.007934076774244193 -0.00337858708545954 0.0 0.004770905718556726 0.0 0.0
0.006622614619912686 -0.00277858522249314 0.0 0.004569777615929372 0.0 0.0
0.00530801625502031 -0.0021621958654522667 0.0 0.004167007836031485 0.0 0.0
0.0037560543944625668 -0.001421297490525046 0.0 0.0034354075123004457 0.0 0.0
0.001814525409678377 -0.00010749772053212086 0.0 0.0034733461428370846 0.0 0.0
0.0021411926116995943 -0.0010574365510209278 0.0 0.007123789565650521 0.0 0.0
0.003518863578143443 -0.016878750364958027 0.0 0.007893531808060327 0.0 0.0
0.0030578767047431915 -0.014315679811416265 0.0 -0.007530719677247258 0.0 0.0
0.0017306083460306672 -0.0017751611210196352 0.0 -0.007773507460415515 0.0 0.0
0.0011490843265756882 0.00013007881483476075 0.0 -0.005060291762396606 0.0 0.0
0.002758886387603997 -0.0008893316450013498 0.0 -0.004461459139771524 0.0 0.0
0.004258501784353695 -0.001679225042072827 0.0 -0.00502311404864689 0.0 0.0
0.005465784171573776 -0.0022669518358350346 0.0 -0.005426449200506706 0.0 0.0
0.0065963641307540885 -0.002797443646632556 0.0 -0.005628823968231276 0.0 0.0
0.00770816487252661 -0.003294995425255279 0.0 -0.0057128473742537765 0.0 0.0
0.008812100259355285 -0.0037757684929129055 0.0 -0.005738196699667223 0.0 0.0
0.00991361572304595 -0.004249932839764364 0.0 -0.005741405709829233 0.0 0.0
0.011014620378101218 -0.004721781876265513 0.0 -0.005738761850112605 0.0 0.0
0.012115463544937371 -0.005192596135805008 0.0 -0.005737516752942466 0.0 0.0
0.013215508486746859 -0.005661419251946181 0.0 -0.005743535518911 0.0 0.0
0.01431308870580393 -0.006125390949645302 0.0 -0.005766749699570191 0.0 0.0
0.015406227089101932 -0.006581018423031257 0.0 -0.005823293835750286 0.0 0.0
0.016496457495491817 -0.00703060784930545 0.0 -0.005926101510129167 0.0 0.0
0.017596354225187887 -0.007498745667421154 0.0 -0.006041853714264712 0.0 0.0
0.018728133212283785 -0.008051632795522791 0.0 -0.005986940540148437 0.0 0.0
0.019873714295006534 -0.008773165323615304 0.0 -0.005297150895666202 0.0 0.0
0.020847001333825714 -0.00960059422884617 0.0 -0.0033237962242944393 0.0 0.0
0.021251580931137666 -0.010057922918652516 0.0 3.0747973611688906e-16 0.0 0.0
0.02084700133382581 -0.00960059422884723 0.0 0.0033237962242941765 0.0 0.0
0.019873714295006534 -0.008773165323615282 0.0 0.005297150895666129 0.0 0.0
0.01872813321228365 -0.008051632795523412 0.0 0.005986940540148228 0.0 0.0
0.017596354225187807 -0.007498745667419518 0.0 0.006041853714265156 0.0 0.0
0.016496457495491862 -0.00703060784930471 0.0 0.005926101510129773 0.0 0.0
0.015406227089101988 -0.006581018423032408 0.0 0.0058232938357499564 0.0 0.0
0.014313088705803941 -0.006125390949646261 0.0 0.005766749699569765 0.0 0.0
0.013215508486746859 -0.005661419251945704 0.0 0.005743535518910803 0.0 0.0
0.012115463544937323 -0.0051925961358061145 0.0 0.005737516752942446 0.0 0.0
0.011014620378101195 -0.004721781876266679 0.0 0.00573876185011276 0.0 0.0
0.009913615723045952 -0.004249932839763524 0.0 0.005741405709828886 0.0 0.0
0.0088121002593553 -0.003775768492912542 0.0 0.005738196699667233 0.0 0.0
0.0077081648725266586 -0.00329499542525525 0.0 0.0057128473742539786 0.0 0.0
0.006596364130754185 -0.00279744364663207 0.0 0.005628823968230858 0.0 0.0
0.005465784171573846 -0.002266951835835079 0.0 0.005426449200506808 0.0 0.0
0.004258501784353716 -0.0016792250420727172 0.0 0.005023114048646642 0.0 0.0
0.00275888638760399 -0.0008893316450011579 0.0 0.004461459139771552 0.0 0.0
0.0011490843265756852 0.00013007881483468692 0.0 0.005060291762396781 0.0 0.0
0.0017306083460306388 -0.0017751611210197935 0.0 0.00777350746041525 0.0 0.0
0.0030578767047431212 -0.014315679811416241 0.0 0.007530719677247881 0.0 0.0
0.0026801647683395696 -0.012095415892799853 0.0 -0.006982087732990302 0.0 0.0
0.00144206248684297 -0.002223513005227772 0.0 -0.008087167546829902 0.0 0.0
0.0006625920560844252 0.00019911673659902588 0.0 -0.006400196347441531 0.0 0.0
0.0018826827590253908 -0.0004449427820461581 0.0 -0.005489143146924692 0.0 0.0
0.003230391662028911 -0.0011995189241641268 0.0 -0.005802535327965487 0.0 0.0
0.004307341942305002 -0.001754614436256242 0.0 -0.006153173653166799 0.0 0.0
0.005257334843872997 -0.0022161381187605685 0.0 -0.006340562502125114 0.0 0.0
0.006163074757294864 -0.0026305409284050844 0.0 -0.0064201617756417554 0.0 0.0
0.007051058404551019 -0.003020776004692805 0.0 -0.006445186874905796 0.0 0.0
0.007932852925363358 -0.0034012812760657665 0.0 -0.006448754904863116 0.0 0.0
0.008813224195091944 -0.003778596450124922 0.0 -0.006446585235510611 0.0 0.0
0.009693188489589775 -0.0041545152113102975 0.0 -0.006445621573245207 0.0 0.0
0.010571455956698715 -0.0045276714622031955 0.0 -0.006451401059984659 0.0 0.0
0.011444439649315937 -0.004893909993743195 0.0 -0.006473075862070578 0.0 0.0
0.012306930699602231 -0.00524768085776067 0.0 -0.006525719633646455 0.0 0.0
0.0131579396413387 -0.005590231681086875 0.0 -0.006622939608981738 0.0 0.0
0.014015973797778027 -0.00595294798960886 0.0 -0.006736860085384853 0.0 0.0
0.01493106509381556 -0.006430004050441873 0.0 -0.0066869535733510704 0.0 0.0
0.015936238516373564 -0.0071599257810738195 0.0 -0.005969478635420448 0.0 0.0
0.016872906469610194 -0.008112554627473853 0.0 -0.003798859380458235 0.0 0.0
0.01728454339650016 -0.008687146299672325 0.0 4.0440741033709315e-16 0.0 0.0
0.01687290646961024 -0.008112554627473621 0.0 0.0037988593804582195 0.0 0.0
0.015936238516373484 -0.0071599257810747805 0.0 0.0059694786354198845 0.0 0.0
0.014931065093815359 -0.006430004050441019 0.0 0.006686953573350789 0.0 0.0
0.014015973797778096 -0.005952947989607157 0.0 0.006736860085385413 0.0 0.0
0.013157939641338738 -0.005590231681087542 0.0 0.006622939608981809 0.0 0.0
0.012306930699602153 -0.005247680857761545 0.0 0.006525719633646806 0.0 0.0
0.01144443964931593 -0.0048939099937412335 0.0 0.006473075862070796 0.0 0.0
0.010571455956698766 -0.004527671462203565 0.0 0.006451401059983956 0.0 0.0
0.009693188489589721 -0.0041545152113104285 0.0 0.006445621573244652 0.0 0.0
0.008813224195091843 -0.0037785964501247486 0.0 0.006446585235510865 0.0 0.0
0.007932852925363405 -0.003401281276065686 0.0 0.006448754904862936 0.0 0.0
0.007051058404551068 -0.00302077600469374 0.0 0.006445186874905789 0.0 0.0
0.006163074757294738 -0.002630540928404606 0.0 0.006420161775641896 0.0 0.0
0.005257334843872963 -0.002216138118759901 0.0 0.00634056250212475 0.0 0.0
0.004307341942305004 -0.0017546144362568842 0.0 0.006153173653166891 0.0 0.0
0.003230391662028895 -0.0011995189241641806 0.0 0.005802535327965554 0.0 0.0
0.0018826827590253583 -0.0004449427820458968 0.0 0.0054891431469245 0.0 0.0
0.0006625920560843629 0.00019911673659935418 0.0 0.006400196347441669 0.0 0.0
0.0014420624868429403 -0.0022235130052279395 0.0 0.008087167546829883 0.0 0.0
0.0026801647683395496 -0.012095415892799792 0.0 0.006982087732990522 0.0 0.0
0.0023385905597567832 -0.010161436762221253 0.0 -0.006396607915113548 0.0 0.0
0.001206562769066368 -0.0024434167174660643 0.0 -0.008158599016429485 0.0 0.0
0.0002858152468163665 0.00018952529113777438 0.0 -0.007432138785108131 0.0 0.0
0.0011126543218914356 -8.545846975264783e-05 0.0 -0.006424918190170776 0.0 0.0
0.0022386655106121085 -0.0007395015669061746 0.0 -0.006492618655594545 0.0 0.0
0.003154492879919067 -0.0012451766956916423 0.0 -0.006749146731975015 0.0 0.0
0.0039188831287920054 -0.0016360204976136497 0.0 -0.006905074727060907 0.0 0.0
0.0046175946162558025 -0.001966038352454055 0.0 -0.006972980904498728 0.0 0.0
0.005289473081467464 -0.0022655261760898544 0.0 -0.006994993434314786 0.0 0.0
0.005951730612224502 -0.0025524375397855893 0.0 -0.006998448396003348 0.0 0.0
0.006611588485860239 -0.0028352673649109706 0.0 -0.006996825972707403 0.0 0.0
0.007270729570183248 -0.003116341353174117 0.0 -0.006996141203854142 0.0 0.0
0.00792734637869238 -0.0033939528606806045 0.0 -0.007001055264544559 0.0 0.0
0.008576241889501781 -0.0036628654344149462 0.0 -0.0070191376892714905 0.0 0.0
0.00920938866431532 -0.003915714366629624 0.0 -0.0070632527083104866 0.0 0.0
0.0098233726751526 -0.00415243238923043 0.0 -0.007147549615744407 0.0 0.0
0.010442311320496861 -0.0044100129265074025 0.0 -0.00725538327546021 0.0 0.0
0.01114544567121019 -0.00481069061279149 0.0 -0.007227123413595155 0.0 0.0
0.012023640580312566 -0.005556031762118726 0.0 -0.006539571265342829 0.0 0.0
0.012950003322654094 -0.006666621683136826 0.0 -0.004247839719170549 0.0 0.0
0.013384841301630583 -0.00739908180736272 0.0 -1.4094628242311558e-17 0.0 0.0
0.012950003322654006 -0.006666621683136787 0.0 0.004247839719170617 0.0 0.0
0.01202364058031261 -0.00555603176211995 0.0 0.006539571265342176 0.0 0.0
0.011145445671210195 -0.004810690612790644 0.0 0.0072271234135958 0.0 0.0
0.01044231132049691 -0.004410012926507255 0.0 0.0072553832754602456 0.0 0.0
0.009823372675152615 -0.004152432389231993 0.0 0.007147549615744495 0.0 0.0
0.00920938866431532 -0.003915714366630095 0.0 0.007063252708310482 0.0 0.0
0.00857624188950186 -0.0036628654344142367 0.0 0.007019137689271097 0.0 0.0
0.007927346378692446 -0.0033939528606815607 0.0 0.007001055264543983 0.0 0.0
0.007270729570183251 -0.003116341353173647 0.0 0.0069961412038542226 0.0 0.0
0.0066115884858601905 -0.002835267364910218 0.0 0.006996825972707002 0.0 0.0
0.005951730612224431 -0.002552437539785469 0.0 0.006998448396003458 0.0 0.0
0.005289473081467445 -0.002265526176089744 0.0 0.006994993434314686 0.0 0.0
0.004617594616255765 -0.001966038352453957 0.0 0.006972980904498768 0.0 0.0
0.00391888312879204 -0.0016360204976128812 0.0 0.006905074727060794 0.0 0.0
0.003154492879919129 -0.001245176695692207 0.0 0.006749146731974802 0.0 0.0
0.002238665510612105 -0.0007395015669059239 0.0 0.006492618655594358 0.0 0.0
0.0011126543218914805 -8.545846975268745e-05 0.0 0.006424918190170627 0.0 0.0
0.00028581524681644546 0.00018952529113828417 0.0 0.007432138785108155 0.0 0.0
0.0012065627690663792 -0.002443416717466186 0.0 0.008158599016429747 0.0 0.0
0.002338590559756806 -0.01016143676222131 0.0 0.006396607915113607 0.0 0.0
0.002013023442679769 -0.008464751350201152 0.0 -0.005831108950158337 0.0 0.0
0.000989269887772535 -0.00248392784747604 0.0 -0.008053959594436177 0.0 0.0
-2.8110152970764053e-05 0.00015782503968561157 0.0 -0.008153987434287921 0.0 0.0
0.0004279118448661968 0.00020495320447262342 0.0 -0.0072047675737188475 0.0 0.0
0.0012890814196347075 -0.0003078040044648567 0.0 -0.00707021807224055 0.0 0.0
0.002013273654097828 -0.000742970685194183 0.0 -0.007210928723271136 0.0 0.0
0.0025829850820161945 -0.0010582594680366873 0.0 -0.007320863761595613 0.0 0.0
0.003072402341233634 -0.0013020676097019442 0.0 -0.007371114815879156 0.0 0.0
0.0035275315692566947 -0.0015101415055784064 0.0 -0.007387770749452042 0.0 0.0
0.003970229436534809 -0.0017033788068795174 0.0 -0.007390589087952841 0.0 0.0
0.004409674622814887 -0.0018917643901680049 0.0 -0.007389533011524674 0.0 0.0
0.004848108410455616 -0.0020780875048875716 0.0 -0.007389088682598128 0.0 0.0
0.005283365390132349 -0.002260399667863031 0.0 -0.007392604976606159 0.0 0.0
0.005709044969569194 -0.00243266514407828 0.0 -0.007405439239049436 0.0 0.0
0.0061147993913042605 -0.002586046781267526 0.0 -0.007437250149181705 0.0 0.0
0.00649452920477797 -0.0027187018073446976 0.0 -0.00750219648785885 0.0 0.0
0.0068760707307800924 -0.002870659094943433 0.0 -0.007599656982912673 0.0 0.0
0.007367066528695088 -0.0031897332517253443 0.0 -0.007609685245897259 0.0 0.0
0.00812425180715544 -0.003949388030280833 0.0 -0.007014998655104679 0.0 0.0
0.009063419908560863 -0.005249777974485562 0.0 -0.004686152910792705 0.0 0.0
0.009538189210200056 -0.006193311365474165 0.0 2.1380466841414147e-16 0.0 0.0
0.009063419908560915 -0.0052497779744862 0.0 0.004686152910793017 0.0 0.0
0.008124251807155434 -0.003949388030281359 0.0 0.007014998655104392 0.0 0.0
0.007367066528695048 -0.003189733251724878 0.0 0.007609685245897491 0.0 0.0
0.006876070730780208 -0.0028706590949443924 0.0 0.007599656982912029 0.0 0.0
0.006494529204778085 -0.00271870180734495 0.0 0.007502196487858843 0.0 0.0
0.006114799391304159 -0.0025860467812686416 0.0 0.007437250149181524 0.0 0.0
0.005709044969569195 -0.0024326651440791775 0.0 0.007405439239049379 0.0 0.0
0.00528336539013243 -0.0022603996678639115 0.0 0.007392604976605429 0.0 0.0
0.004848108410455584 -0.0020780875048863586 0.0 0.007389088682598218 0.0 0.0
0.004409674622814845 -0.0018917643901682486 0.0 0.007389533011524452 0.0 0.0
0.003970229436534798 -0.001703378806879473 0.0 0.007390589087953108 0.0 0.0
0.003527531569256589 -0.0015101415055766422 0.0 0.007387770749452058 0.0 0.0
0.003072402341233608 -0.0013020676097019784 0.0 0.007371114815879367 0.0 0.0
0.002582985082016263 -0.0010582594680357607 0.0 0.007320863761595589 0.0 0.0
0.0020132736540978474 -0.000742970685193858 0.0 0.007210928723271046 0.0 0.0
0.001289081419634719 -0.0003078040044649379 0.0 0.007070218072240354 0.0 0.0
0.00042791184486620966 0.00020495320447279643 0.0 0.007204767573718809 0.0 0.0
-2.8110152970706703e-05 0.0001578250396857612 0.0 0.008153987434287795 0.0 0.0
0.000989269887772505 -0.002483927847476005 0.0 0.008053959594436177 0.0 0.0
0.002013023442679573 -0.008464751350201222 0.0 0.005831108950158381 0.0 0.0
0.001696053754070219 -0.006966235645136884 0.0 -0.005300535251421425 0.0 0.0
0.0007737048397948081 -0.0023905859631730836 0.0 -0.00781633776049895 0.0 0.0
-0.00030966262077726677 0.0001367168072707858 0.0 -0.008586858761309558 0.0 0.0
-0.00019219587857494927 0.00044499239591834115 0.0 -0.007790846305380064 0.0 0.0
0.00038126483058457955 9.327433855414009e-05 0.0 -0.007510969611107801 0.0 0.0
0.0008876184238919437 -0.0002514866404084158 0.0 -0.00753199431160656 0.0 0.0
0.001251414306032231 -0.00048397690160663885 0.0 -0.007585913814136999 0.0 0.0
0.0015280498018766916 -0.0006390414880414417 0.0 -0.007613963099657211 0.0 0.0
0.0017653903372631102 -0.0007547430848386437 0.0 -0.007623533486622548 0.0 0.0
0.0019883485651646256 -0.0008540959863081773 0.0 -0.007625265917087157 0.0 0.0
0.0022074573812377513 -0.0009480667614180144 0.0 -0.007624764520990871 0.0 0.0
0.002425345327018035 -0.0010397674231452682 0.0 -0.007624520910203379 0.0 0.0
0.0026396524543677684 -0.0011271164480715801 0.0 -0.0076262594717069875 0.0 0.0
0.002843253603069803 -0.0012036059534915322 0.0 -0.007632708936554279 0.0 0.0
0.0030241104299245803 -0.0012593888673996896 0.0 -0.007649524281656481 0.0 0.0
0.003173014463611814 -0.001290386289984262 0.0 -0.0076896962451789945 0.0 0.0
0.0033181322346218615 -0.0013358677695122529 0.0 -0.0077712654095320015 0.0 0.0
0.0035919319025214 -0.0015635174183983964 0.0 -0.007832832309417309 0.0 0.0
0.0042259908517737 -0.002326850206371364 0.0 -0.0073973598863116925 0.0 0.0
0.005198389624506901 -0.003847577366392267 0.0 -0.005128124123820047 0.0 0.0
0.005731367181635315 -0.005074172429684658 0.0 8.771195575407731e-17 0.0 0.0
0.0051983896245068875 -0.0038475773663940458 0.0 0.005128124123819978 0.0 0.0
0.004225990851773684 -0.0023268502063702513 0.0 0.007397359886311789 0.0 0.0
0.003591931902521415 -0.0015635174183982559 0.0 0.007832832309417205 0.0 0.0
0.0033181322346218884 -0.001335867769513557 0.0 0.007771265409532227 0.0 0.0
0.00317301446361176 -0.0012903862899829907 0.0 0.0076896962451787915 0.0 0.0
0.0030241104299245755 -0.0012593888674017626 0.0 0.007649524281656371 0.0 0.0
0.002843253603069858 -0.0012036059534914348 0.0 0.007632708936554218 0.0 0.0
0.0026396524543678434 -0.0011271164480721675 0.0 0.007626259471707227 0.0 0.0
0.002425345327018016 -0.001039767423143559 0.0 0.007624520910203733 0.0 0.0
0.0022074573812376702 -0.0009480667614189203 0.0 0.0076247645209910776 0.0 0.0
0.001988348565164625 -0.0008540959863084048 0.0 0.007625265917087381 0.0 0.0
0.00176539033726301 -0.0007547430848374861 0.0 0.0076235334866227925 0.0 0.0
0.0015280498018766225 -0.0006390414880414349 0.0 0.007613963099657324 0.0 0.0
0.0012514143060322611 -0.0004839769016060654 0.0 0.007585913814137077 0.0 0.0
0.0008876184238919229 -0.00025148664040844625 0.0 0.007531994311606741 0.0 0.0
0.0003812648305844809 9.327433855382656e-05 0.0 0.007510969611107766 0.0 0.0
-0.00019219587857498556 0.00044499239591848784 0.0 0.0077908463053800725 0.0 0.0
-0.00030966262077718404 0.00013671680727079974 0.0 0.00858685876130954 0.0 0.0
0.0007737048397948183 -0.002390585963172983 0.0 0.007816337760498433 0.0 0.0
0.0016960537540700847 -0.0069662356451369485 0.0 0.0053005352514213224 0.0 0.0
0.0013863602400846949 -0.00563672062241365 0.0 -0.004801364283998473 0.0 0.0
0.0005533270008224985 -0.002201802865381285 0.0 -0.007472168951018146 0.0 0.0
-0.0005778468651835781 0.0001430711592806535 0.0 -0.008758519442282151 0.0 0.0
-0.0007654665052698946 0.0006516099114186131 0.0 -0.00816408528001782 0.0 0.0
-0.0004886570376513383 0.0004654872721708234 0.0 -0.007793795431777816 0.0 0.0
-0.00022071835232244323 0.00022727974128352744 0.0 -0.007703943906288823 0.0 0.0
-7.455917284916185e-05 8.59246847119121e-05 0.0 -0.007697560667122969 0.0 0.0
-1.5056924093681106e-05 2.2768676671495437e-05 0.0 -0.007700692742758371 0.0 0.0
3.1547054216352803e-06 5.861968795219398e-07 0.0 -0.007702181147938069 0.0 0.0
6.093667514240752e-06 -4.589416088888977e-06 0.0 -0.007702552221003415 0.0 0.0
4.922778790545377e-06 -4.161898744654453e-06 0.0 -0.0077025867505985945 0.0 0.0
2.453725425530706e-06 -1.3904757533985892e-06 0.0 -0.007702524763714394 0.0 0.0
-3.7098219356377304e-06 5.832009936117705e-06 0.0 -0.0077022981495119425 0.0 0.0
-2.0900362718711098e-05 2.4144899084931726e-05 0.0 -0.007701814741768821 0.0 0.0
-6.204043751471561e-05 6.38217915780442e-05 0.0 -0.0077022263443175185 0.0 0.0
-0.0001397216981445663 0.00013134722954439497 0.0 -0.0077135351592405935 0.0 0.0
-0.00023009061396096504 0.00019281115727788538 0.0 -0.0077716870019050015 0.0 0.0
-0.00018309532825086972 7.047248742539375e-05 0.0 -0.007890848917051448 0.0 0.0
0.0003164458707216448 -0.0006743126814856879 0.0 -0.0076813156451777664 0.0 0.0
0.0013396277075813623 -0.002442646636090606 0.0 -0.005587355294038824 0.0 0.0
0.001951486809325398 -0.004051707050263542 0.0 1.5677563414140394e-16 0.0 0.0
0.0013396277075813326 -0.002442646636091527 0.0 0.0055873552940389985 0.0 0.0
0.00031644587072155974 -0.0006743126814842417 0.0 0.007681315645177697 0.0 0.0
-0.00018309532825090452 7.047248742514977e-05 0.0 0.007890848917051064 0.0 0.0
-0.0002300906139609305 0.0001928111572772952 0.0 0.007771687001905114 0.0 0.0
-0.000139721698144535 0.00013134722954489741 0.0 0.0077135351592400245 0.0 0.0
-6.20404375146891e-05 6.382179157660756e-05 0.0 0.007702226344317812 0.0 0.0
-2.0900362718679277e-05 2.414489908554933e-05 0.0 0.00770181474176901 0.0 0.0
-3.709821935556903e-06 5.832009935540666e-06 0.0 0.007702298149512142 0.0 0.0
2.4537254255364795e-06 -1.390475753705798e-06 0.0 0.00770252476371437 0.0 0.0
4.92277879047962e-06 -4.161898745113402e-06 0.0 0.007702586750598572 0.0 0.0
6.093667514245929e-06 -4.589416089186875e-06 0.0 0.00770255222100359 0.0 0.0
3.1547054215788205e-06 5.861968793202308e-07 0.0 0.007702181147938277 0.0 0.0
-1.5056924093697748e-05 2.2768676671086463e-05 0.0 0.007700692742758308 0.0 0.0
-7.455917284909013e-05 8.592468471179905e-05 0.0 0.00769756066712295 0.0 0.0
-0.00022071835232240658 0.00022727974128307045 0.0 0.0077039439062884015 0.0 0.0
-0.0004886570376512951 0.00046548727217046596 0.0 0.007793795431777946 0.0 0.0
-0.0007654665052699543 0.0006516099114186296 0.0 0.00816408528001817 0.0 0.0
-0.0005778468651836754 0.0001430711592805739 0.0 0.008758519442282288 0.0 0.0
0.0005533270008225459 -0.0022018028653811497 0.0 0.007472168951017953 0.0 0.0
0.0013863602400847896 -0.005636720622413789 0.0 0.004801364283998443 0.0 0.0
0.001085583300952676 -0.004456076209550314 0.0 -0.004322767021795877 0.0 0.0
0.00032701030478698696 -0.0019485311257867238 0.0 -0.0070367093735528834 0.0 0.0
-0.0008437678932297734 0.00018368308346320385 0.0 -0.008696081078517354 0.0 0.0
-0.0013060538297135407 0.0008383090064752642 0.0 -0.008317406635944356 0.0 0.0
-0.0013261971704075684 0.0008127277349439708 0.0 -0.007902253870980563 0.0 0.0
-0.0013118436804259509 0.0006928730542819754 0.0 -0.007717875133407928 0.0 0.0
-0.0013943505187509926 0.0006509571709618016 0.0 -0.007652624901231038 0.0 0.0
-0.001556704657577687 0.0006832341553794529 0.0 -0.007630337367099522 0.0 0.0
-0.0017591288651498667 0.0007558130073506321 0.0 -0.007623552418202667 0.0 0.0
-0.00197653075838147 0.0008451380608664805 0.0 -0.007622508397563966 0.0 0.0
-0.0021979340847715365 0.0009399548708603712 0.0 -0.007623070721707944 0.0 0.0
-0.0024205633312610717 0.001037041805056817 0.0 -0.007623201387051073 0.0 0.0
-0.002646699904565562 0.001138425264434478 0.0 -0.007621036396478891 0.0 0.0
-0.002883371576035353 0.0012505528276878957 0.0 -0.007613676750500514 0.0 0.0
-0.0031433956914577533 0.0013834734372102306 0.0 -0.0075976807699872865 0.0 0.0
-0.0034424602793981917 0.001545634659139986 0.0 -0.007577981930942338 0.0 0.0
-0.0037663466302745594 0.0017130487543355736 0.0 -0.007603213127193212 0.0 0.0
-0.00395947055771355 0.0017126819243242666 0.0 -0.007774632653564314 0.0 0.0
-0.0036168973181345742 0.0010229240673835108 0.0 -0.00785281915779372 0.0 0.0
-0.0025293985728717 -0.0010125657863273544 0.0 -0.006076425773215224 0.0 0.0
-0.0018149210246513488 -0.0031431805460894555 0.0 -1.8713329497099807e-16 0.0 0.0
-0.002529398572871752 -0.0010125657863268398 0.0 0.006076425773215053 0.0 0.0
-0.003616897318134679 0.0010229240673847128 0.0 0.007852819157793945 0.0 0.0
-0.003959470557713562 0.0017126819243240988 0.0 0.007774632653564362 0.0 0.0
-0.0037663466302745342 0.0017130487543365663 0.0 0.007603213127193257 0.0 0.0
-0.0034424602793980885 0.00154563465913891 0.0 0.007577981930942368 0.0 0.0
-0.003143395691457711 0.0013834734372092598 0.0 0.007597680769987089 0.0 0.0
-0.002883371576035419 0.001250552827688519 0.0 0.007613676750500446 0.0 0.0
-0.0026466999045654496 0.001138425264433705 0.0 0.007621036396479089 0.0 0.0
-0.0024205633312610365 0.0010370418050554577 0.0 0.007623201387050835 0.0 0.0
-0.0021979340847717217 0.000939954870861697 0.0 0.007623070721707977 0.0 0.0
-0.0019765307583815197 0.0008451380608657925 0.0 0.007622508397564344 0.0 0.0
-0.001759128865149874 0.0007558130073501122 0.0 0.007623552418202832 0.0 0.0
-0.0015567046575777213 0.0006832341553793528 0.0 0.007630337367099695 0.0 0.0
-0.0013943505187510045 0.000650957170961193 0.0 0.007652624901230955 0.0 0.0
-0.001311843680425956 0.0006928730542818793 0.0 0.007717875133407643 0.0 0.0
-0.0013261971704075352 0.0008127277349443167 0.0 0.007902253870980737 0.0 0.0
-0.0013060538297135502 0.0008383090064753133 0.0 0.008317406635944649 0.0 0.0
-0.0008437678932297958 0.00018368308346325264 0.0 0.00869608107851727 0.0 0.0
0.0003270103047870066 -0.001948531125786795 0.0 0.007036709373553142 0.0 0.0
0.0010855833009527482 -0.004456076209550432 0.0 0.004322767021795518 0.0 0.0
0.0007968825826960078 -0.003411969351451709 0.0 -0.0038520267319407143 0.0 0.0
9.666289824323114e-05 -0.0016551472890751295 0.0 -0.006518182223020999 0.0 0.0
-0.0011130447774737285 0.00025909167977596623 0.0 -0.008423155732558066 0.0 0.0
-0.0018245014068889371 0.0010148405917067068 0.0 -0.008250522077145116 0.0 0.0
-0.002137351948974662 0.0011397279029821286 0.0 -0.007824252954038585 0.0 0.0
-0.0023873057596431177 0.0011461524486302411 0.0 -0.00756538935332933 0.0 0.0
-0.0027081157953514627 0.001211159354045031 0.0 -0.0074477301769436625 0.0 0.0
-0.0030969152112832977 0.0013423872526659205 0.0 -0.0074018903096690625 0.0 0.0
-0.003521476111185159 0.001510953266866146 0.0 -0.007387478412993238 0.0 0.0
-0.003959523733358995 0.001695084680868935 0.0 -0.007385191501796047 0.0 0.0
-0.004401109939595462 0.001884280282573602 0.0 -0.0073862880220657914 0.0 0.0
-0.004843714667774811 0.002075536734907504 0.0 -0.0073866486747952605 0.0 0.0
-0.005289356610338329 0.002270690454937187 0.0 -0.007382789614084619 0.0 0.0
-0.005744294770622327 0.002475702487888891 0.0 -0.007369193148901601 0.0 0.0
-0.0062201472082916345 0.0026998064405640947 0.0 -0.007338162469002566 0.0 0.0
-0.0067344155913637484 0.0029521526750296285 0.0 -0.007288056927516819 0.0 0.0
-0.00728737354801896 0.0032217423307735102 0.0 -0.007270267475638797 0.0 0.0
-0.007735869799814712 0.00336021791697221 0.0 -0.007473048950861157 0.0 0.0
-0.007586093483898278 0.002779164024200076 0.0 -0.007886391389002455 0.0 0.0
-0.006427369620747511 0.0004732140543914101 0.0 -0.006605402065860498 0.0 0.0
-0.005583239062949068 -0.0023752517024513385 0.0 -1.93421667571414e-16 0.0 0.0
-0.006427369620747505 0.0004732140543913695 0.0 0.006605402065860582 0.0 0.0
-0.007586093483898252 0.002779164024199388 0.0 0.007886391389002847 0.0 0.0
-0.007735869799814662 0.0033602179169719866 0.0 0.007473048950860912 0.0 0.0
-0.007287373548018903 0.003221742330774578 0.0 0.00727026747563882 0.0 0.0
-0.006734415591363676 0.002952152675030822 0.0 0.007288056927516714 0.0 0.0
-0.006220147208291659 0.002699806440562739 0.0 0.007338162469002714 0.0 0.0
-0.005744294770622293 0.002475702487888462 0.0 0.007369193148901753 0.0 0.0
-0.005289356610338263 0.0022706904549381485 0.0 0.007382789614084659 0.0 0.0
-0.0048437146677747815 0.0020755367349064575 0.0 0.007386648674795252 0.0 0.0
-0.004401109939595456 0.0018842802825738852 0.0 0.00738628802206593 0.0 0.0
-0.003959523733359063 0.0016950846808692186 0.0 0.007385191501796255 0.0 0.0
-0.0035214761111852007 0.0015109532668654791 0.0 0.0073874784129927835 0.0 0.0
-0.003096915211283301 0.001342387252666083 0.0 0.00740189030966884 0.0 0.0
-0.0027081157953514675 0.0012111593540448443 0.0 0.007447730176943616 0.0 0.0
-0.0023873057596431177 0.0011461524486304005 0.0 0.007565389353329377 0.0 0.0
-0.002137351948974648 0.0011397279029822514 0.0 0.007824252954038602 0.0 0.0
-0.0018245014068889922 0.0010148405917066387 0.0 0.00825052207714498 0.0 0.0
-0.0011130447774737363 0.00025909167977607183 0.0 0.00842315573255824 0.0 0.0
9.666289824328564e-05 -0.0016551472890753063 0.0 0.006518182223020973 0.0 0.0
0.0007968825826959856 -0.0034119693514517253 0.0 0.003852026731940841 0.0 0.0
0.0005243537951191285 -0.002498606772812347 0.0 -0.00337733223634761 0.0 0.0
-0.0001339120636001396 -0.00134068816203162 0.0 -0.005920846625108358 0.0 0.0
-0.0013873093818676466 0.0003659200577682541 0.0 -0.007959008322002472 0.0 0.0
-0.0023280998335698843 0.0011875024272717909 0.0 -0.007966147890123844 0.0 0.0
-0.0029279853829114718 0.0014513214859375437 0.0 -0.007551083332175102 0.0 0.0
-0.003449721097464533 0.0015890058061793662 0.0 -0.007239191026569357 0.0 0.0
-0.004016717523524975 0.001767117619139984 0.0 -0.007079679313255281 0.0 0.0
-0.004635962481114872 0.0020004343001425932 0.0 -0.007014419126765511 0.0 0.0
-0.005283963872728401 0.002266067101992595 0.0 -0.0069938295821728984 0.0 0.0
-0.005942886073449716 0.0025452491765296614 0.0 -0.006990666898658509 0.0 0.0
-0.0066045922414818105 0.002828802576991807 0.0 -0.006992307205638055 0.0 0.0
-0.007267019992718962 0.0031141078104655094 0.0 -0.00699294458444998 0.0 0.0
-0.007931776998712035 0.003402706035103337 0.0 -0.006987829954209023 0.0 0.0
-0.008603956095719891 0.0036997764417348684 0.0 -0.006969194256289883 0.0 0.0
-0.009292970599647744 0.004013372764490188 0.0 -0.006925657631905047 0.0 0.0
-0.010015593949278676 0.00435145738632708 0.0 -0.006849146276179717 0.0 0.0
-0.01078901381129953 0.004715457673251195 0.0 -0.006780996015058412 0.0 0.0
-0.011506728399481496 0.005005270472419048 0.0 -0.006975954438727168 0.0 0.0
-0.011601498427138307 0.004606068911422689 0.0 -0.00774141210611478 0.0 0.0
-0.010376245816209884 0.002057888393784103 0.0 -0.007177951486185114 0.0 0.0
-0.009372948921711324 -0.0017867968019232767 0.0 -1.3509159069169385e-16 0.0 0.0
-0.010376245816209887 0.0020578883937845995 0.0 0.007177951486185311 0.0 0.0
-0.01160149842713847 0.004606068911420554 0.0 0.007741412106114759 0.0 0.0
-0.011506728399481485 0.005005270472418801 0.0 0.00697595443872708 0.0 0.0
-0.010789013811299378 0.004715457673251083 0.0 0.006780996015058681 0.0 0.0
-0.010015593949278706 0.004351457386327888 0.0 0.0068491462761793125 0.0 0.0
-0.009292970599647872 0.00401337276449099 0.0 0.006925657631905292 0.0 0.0
-0.0086039560957198 0.003699776441734563 0.0 0.006969194256290268 0.0 0.0
-0.007931776998711889 0.003402706035104039 0.0 0.006987829954209181 0.0 0.0
-0.007267019992719002 0.0031141078104659904 0.0 0.006992944584449897 0.0 0.0
-0.006604592241481838 0.002828802576990583 0.0 0.006992307205638447 0.0 0.0
-0.0059428860734497425 0.0025452491765304065 0.0 0.006990666898658704 0.0 0.0
-0.005283963872728401 0.0022660671019908716 0.0 0.006993829582173034 0.0 0.0
-0.004635962481114841 0.0020004343001426145 0.0 0.0070144191267654706 0.0 0.0
-0.004016717523525007 0.001767117619140052 0.0 0.007079679313255616 0.0 0.0
-0.003449721097464607 0.0015890058061792682 0.0 0.007239191026569362 0.0 0.0
-0.0029279853829115216 0.0014513214859366826 0.0 0.00755108333217531 0.0 0.0
-0.0023280998335698474 0.001187502427271368 0.0 0.007966147890123855 0.0 0.0
-0.00138730938186762 0.0003659200577682771 0.0 0.007959008322002978 0.0 0.0
-0.00013391206360014674 -0.001340688162031695 0.0 0.005920846625107881 0.0 0.0
0.0005243537951191449 -0.002498606772812311 0.0 0.0033773322363479614 0.0 0.0
0.00027294179349639664 -0.0017155540282893875 0.0 -0.002889585393863701 0.0 0.0
-0.0003593631963211451 -0.001020144367474655 0.0 -0.005247350517240349 0.0 0.0
-0.0016649921399185283 0.0004981183904960635 0.0 -0.007318383433703656 0.0 0.0
-0.0028213446114441006 0.0013596742569999827 0.0 -0.007467196426305634 0.0 0.0
-0.003703615221784617 0.001752153201059994 0.0 -0.007076305777293445 0.0 0.0
-0.004502507088865791 0.0020241047362769466 0.0 -0.006733406640456113 0.0 0.0
-0.005321636538339763 0.002319916590828045 0.0 -0.006545806779535636 0.0 0.0
-0.0061743581004698195 0.0026577493285567214 0.0 -0.006467195167416852 0.0 0.0
-0.007046721932079633 0.0030212499096076554 0.0 -0.006442557766713929 0.0 0.0
-0.007926615628337165 0.003395626713708605 0.0 -0.006439018248789756 0.0 0.0
-0.008808356529348534 0.003773501020302208 0.0 -0.006441189442485191 0.0 0.0
-0.009690504435608961 0.0041527675325451424 0.0 -0.006442137577376987 0.0 0.0
-0.010574116089167532 0.004534601602548295 0.0 -0.006436331017598553 0.0 0.0
-0.011462752781707938 0.004923052544164291 0.0 -0.006414408939587902 0.0 0.0
-0.01236296693296699 0.005324885875367687 0.0 -0.00636174470174316 0.0 0.0
-0.013287286931994756 0.005745298835208184 0.0 -0.00626603370730191 0.0 0.0
-0.01426691370475932 0.006191673473581542 0.0 -0.0061485261855306755 0.0 0.0
-0.015260404967459791 0.0066334493260391935 0.0 -0.0062803454652966125 0.0 0.0
-0.015669193981715172 0.006507946518743893 0.0 -0.007358010435198145 0.0 0.0
-0.014402656453407343 0.003803849778068976 0.0 -0.007782343196651515 0.0 0.0
-0.013211504044569828 -0.0014320567056310867 0.0 -1.2815269678778662e-16 0.0 0.0
-0.014402656453407419 0.003803849778069561 0.0 0.007782343196651451 0.0 0.0
-0.015669193981715256 0.00650794651874478 0.0 0.007358010435198348 0.0 0.0
-0.015260404967459701 0.006633449326039113 0.0 0.006280345465297029 0.0 0.0
-0.014266913704759177 0.006191673473580788 0.0 0.006148526185530461 0.0 0.0
-0.01328728693199473 0.005745298835208094 0.0 0.006266033707301787 0.0 0.0
-0.012362966932967134 0.005324885875368783 0.0 0.00636174470174333 0.0 0.0
-0.01146275278170801 0.004923052544163612 0.0 0.006414408939587624 0.0 0.0
-0.010574116089167467 0.004534601602547962 0.0 0.0064363310175978876 0.0 0.0
-0.009690504435608902 0.0041527675325458285 0.0 0.006442137577376666 0.0 0.0
-0.008808356529348544 0.003773501020301692 0.0 0.006441189442484705 0.0 0.0
-0.007926615628337108 0.0033956267137087268 0.0 0.006439018248789641 0.0 0.0
-0.0070467219320795825 0.0030212499096075197 0.0 0.006442557766714005 0.0 0.0
-0.006174358100469802 0.002657749328557543 0.0 0.006467195167416725 0.0 0.0
-0.005321636538339748 0.0023199165908274096 0.0 0.006545806779535768 0.0 0.0
-0.004502507088865709 0.0020241047362769926 0.0 0.006733406640456344 0.0 0.0
-0.0037036152217844974 0.001752153201059399 0.0 0.007076305777293608 0.0 0.0
-0.0028213446114440967 0.001359674256999834 0.0 0.007467196426306085 0.0 0.0
-0.0016649921399185896 0.0004981183904960595 0.0 0.007318383433703595 0.0 0.0
-0.00035936319632119066 -0.0010201443674748283 0.0 0.0052473505172399145 0.0 0.0
0.0002729417934964483 -0.0017155540282893006 0.0 0.00288958539386394 0.0 0.0
4.873327201021419e-05 -0.0010665837904031375 0.0 -0.002384271566377976 0.0 0.0
-0.000572523777276766 -0.0007058163238414809 0.0 -0.004500690814203032 0.0 0.0
-0.0019415320465902821 0.0006473805550705066 0.0 -0.006511174987312855 0.0 0.0
-0.0033064341673037833 0.0015324707679436756 0.0 -0.006754517371121694 0.0 0.0
-0.0044695089989715085 0.002046734632417072 0.0 -0.006394803029507125 0.0 0.0
-0.0055497247790285455 0.0024547264505075956 0.0 -0.006043773567835337 0.0 0.0
-0.006624853505307293 0.0028710433543607024 0.0 -0.005844271345933112 0.0 0.0
-0.007712807641335723 0.0033148448094198037 0.0 -0.005759821157368269 0.0 0.0
-0.008809915977127629 0.0037766183836169193 0.0 -0.005733732391523137 0.0 0.0
-0.00991069964003924 0.004246201997888287 0.0 -0.005730354991046333 0.0 0.0
-0.011012363936033576 0.004718345562533981 0.0 -0.005732980521379154 0.0 0.0
-0.012114187274783911 0.005191520688223423 0.0 -0.0057342459415374285 0.0 0.0
-0.013216583519339329 0.005666534528201849 0.0 -0.005728324199218298 0.0 0.0
-0.014321176592293702 0.00614595825018211 0.0 -0.005705346882201518 0.0 0.0
-0.015431449391323335 0.006634988934468481 0.0 -0.005647816410463956 0.0 0.0
-0.01655252999729078 0.007136537496629363 0.0 -0.005541438057199207 0.0 0.0
-0.01771829382157522 0.00765129967219101 0.0 -0.005390143477406059 0.0 0.0
-0.018977251627530015 0.008222986612415597 0.0 -0.005401780690327135 0.0 0.0
-0.01978579338076108 0.00847224718722605 0.0 -0.00665535756494864 0.0 0.0
-0.018539399677913716 0.0058018050373813525 0.0 -0.008371009306578102 0.0 0.0
-0.017141614467544086 -0.0013827215191859422 0.0 -1.0581813203458523e-16 0.0 0.0
-0.01853939967791372 0.00580180503738125 0.0 0.008371009306578673 0.0 0.0
-0.01978579338076112 0.00847224718722826 0.0 0.006655357564949236 0.0 0.0
-0.018977251627530067 0.008222986612416754 0.0 0.005401780690327413 0.0 0.0
-0.017718293821575186 0.007651299672190359 0.0 0.005390143477405985 0.0 0.0
-0.016552529997290732 0.0071365374966291945 0.0 0.005541438057198976 0.0 0.0
-0.015431449391323435 0.006634988934469564 0.0 0.005647816410463193 0.0 0.0
-0.014321176592293726 0.006145958250181209 0.0 0.005705346882201855 0.0 0.0
-0.013216583519339183 0.005666534528201927 0.0 0.005728324199218788 0.0 0.0
-0.012114187274783935 0.00519152068822297 0.0 0.005734245941537455 0.0 0.0
-0.011012363936033605 0.004718345562534388 0.0 0.005732980521378817 0.0 0.0
-0.009910699640039239 0.004246201997887573 0.0 0.005730354991046168 0.0 0.0
-0.008809915977127741 0.003776618383617934 0.0 0.005733732391523479 0.0 0.0
-0.007712807641335738 0.0033148448094210067 0.0 0.0057598211573681715 0.0 0.0
-0.00662485350530719 0.002871043354360312 0.0 0.00584427134593313 0.0 0.0
-0.00554972477902852 0.0024547264505076997 0.0 0.006043773567835416 0.0 0.0
-0.004469508998971532 0.002046734632417281 0.0 0.0063948030295065544 0.0 0.0
-0.0033064341673038093 0.0015324707679438723 0.0 0.006754517371121966 0.0 0.0
-0.0019415320465902986 0.0006473805550704316 0.0 0.00651117498731253 0.0 0.0
-0.0005725237772767509 -0.0007058163238415555 0.0 0.004500690814203022 0.0 0.0
4.873327201020704e-05 -0.0010665837904031638 0.0 0.002384271566378218 0.0 0.0
-0.0001403080623800239 -0.0005583939509554379 0.0 -0.001864365968037142 0.0 0.0
-0.0007635085811332799 -0.00040896396313390334 0.0 -0.0036860167354249677 0.0 0.0
-0.002209093474825285 0.000802918617358783 0.0 -0.005541190523098676 0.0 0.0
-0.00378386431492991 0.0017055698535546188 0.0 -0.005824898019890417 0.0 0.0
-0.005231039795861832 0.0023397663628500222 0.0 -0.00550222783250412 0.0 0.0
-0.006596002383987747 0.0028846197157581994 0.0 -0.005167806858254742 0.0 0.0
-0.007928710274225433 0.0034222638545341306 0.0 -0.004974279490774485 0.0 0.0
-0.009252143233378776 0.003972321914411892 0.0 -0.004892341996718796 0.0 0.0
-0.01057372163041474 0.004532290132134918 0.0 -0.004867566297675468 0.0 0.0
-0.011895104114518223 0.005096941959478189 0.0 -0.00486481546526185 0.0 0.0
-0.013216559527248628 0.005663291386649078 0.0 -0.00486770611808775 0.0 0.0
-0.014538070947809137 0.006230373978258599 0.0 -0.00486923722816125 0.0 0.0
-0.015859412365863943 0.006798620913944319 0.0 -0.00486375346897352 0.0 0.0
-0.017179874506144922 0.007369153266761731 0.0 -0.004841957283008996 0.0 0.0
-0.01849960290425631 0.007944233362215641 0.0 -0.004785576662412917 0.0 0.0
-0.019816024456059702 0.008527895898878745 0.0 -0.004675471770238228 0.0 0.0
-0.02114543031957906 0.009102580208509292 0.0 -0.0045204719726028506 0.0 0.0
-0.02262878025680139 0.009747830109062968 0.0 -0.004392497052022435 0.0 0.0
-0.02392808510488418 0.010450775022412952 0.0 -0.005542774977590073 0.0 0.0
-0.022826306893106885 0.008182053403602398 0.0 -0.008813032221357642 0.0 0.0
-0.02123574051904099 -0.0017243959647655492 0.0 -2.5110122314764283e-16 0.0 0.0
-0.02282630689310683 0.008182053403603557 0.0 0.008813032221358147 0.0 0.0
-0.023928085104884148 0.010450775022413232 0.0 0.005542774977590588 0.0 0.0
-0.02262878025680136 0.0097478301090641 0.0 0.004392497052022237 0.0 0.0
-0.021145430319579106 0.009102580208509833 0.0 0.004520471972602094 0.0 0.0
-0.019816024456059705 0.00852789589887722 0.0 0.004675471770238634 0.0 0.0
-0.01849960290425639 0.007944233362216523 0.0 0.004785576662412294 0.0 0.0
-0.01717987450614487 0.007369153266760986 0.0 0.004841957283009072 0.0 0.0
-0.015859412365863787 0.006798620913944992 0.0 0.0048637534689738105 0.0 0.0
-0.0145380709478092 0.006230373978258134 0.0 0.004869237228160761 0.0 0.0
-0.013216559527248655 0.005663291386649987 0.0 0.004867706118087953 0.0 0.0
-0.011895104114518126 0.005096941959478083 0.0 0.004864815465261295 0.0 0.0
-0.01057372163041474 0.004532290132135332 0.0 0.004867566297675659 0.0 0.0
-0.009252143233378876 0.003972321914411886 0.0 0.004892341996718733 0.0 0.0
-0.00792871027422543 0.003422263854534485 0.0 0.004974279490774367 0.0 0.0
-0.0065960023839877185 0.002884619715757709 0.0 0.00516780685825487 0.0 0.0
-0.005231039795861757 0.0023397663628505045 0.0 0.005502227832504021 0.0 0.0
-0.0037838643149298128 0.00170556985355466 0.0 0.00582489801989028 0.0 0.0
-0.002209093474825318 0.0008029186173588951 0.0 0.005541190523098417 0.0 0.0
-0.0007635085811332111 -0.0004089639631338699 0.0 0.0036860167354248905 0.0 0.0
-0.0001403080623798616 -0.0005583939509554985 0.0 0.0018643659680370923 0.0 0.0
-0.0002828837496483529 -0.00019890512510219277 0.0 -0.0013456554195400278 0.0 0.0
-0.0009179391296751669 -0.00014227176874538443 0.0 -0.0028123583040561184 0.0 0.0
-0.0024558504134049282 0.0009507675242860019 0.0 -0.004402968313726454 0.0 0.0
-0.004253295279415236 0.0018784433050069056 0.0 -0.00466934298780954 0.0 0.0
-0.005994266936372286 0.002636625060347645 0.0 -0.0043950697527054185 0.0 0.0
-0.007646482541871374 0.0033178644214643615 0.0 -0.00410496666190462 0.0 0.0
-0.00923575528417246 0.003975489412579361 0.0 -0.003936254312878341 0.0 0.0
-0.010793239183334557 0.004630803329025141 0.0 -0.003865324330189039 0.0 0.0
-0.012338290187673231 0.005288355660585865 0.0 -0.003844429326061231 0.0 0.0
-0.013879762836656068 0.005947793066680463 0.0 -0.003842554536392583 0.0 0.0
-0.015420865100835311 0.006608263408897245 0.0 -0.00384539437413292 0.0 0.0
-0.016962150930268222 0.007269355072693589 0.0 -0.00384695242686732 0.0 0.0
-0.01850276880316337 0.007930905429551922 0.0 -0.003842610923688501 0.0 0.0
-0.020039758321471517 0.008593309351678012 0.0 -0.0038234668425379432 0.0 0.0
-0.021568391633593677 0.009254056206638998 0.0 -0.0037761060843041496 0.0 0.0
-0.023082486368737224 0.009918840623054138 0.0 -0.0036704480443060937 0.0 0.0
-0.024561042011380343 0.010563887811980487 0.0 -0.003533722368980935 0.0 0.0
-0.026181752626232374 0.011193441445970561 0.0 -0.0033573013320784095 0.0 0.0
-0.02803247793003854 0.012323165983954549 0.0 -0.003980588961715878 0.0 0.0
-0.027307686252459242 0.011123085510611393 0.0 -0.008777775063758238 0.0 0.0
-0.02562680658932527 -0.0025331691904446015 0.0 -2.5153490401663703e-17 0.0 0.0
-0.027307686252459197 0.01112308551061281 0.0 0.008777775063758306 0.0 0.0
-0.02803247793003847 0.012323165983952826 0.0 0.003980588961716164 0.0 0.0
-0.026181752626232388 0.011193441445971052 0.0 0.003357301332078305 0.0 0.0
-0.024561042011380353 0.01056388781198153 0.0 0.003533722368980932 0.0 0.0
-0.02308248636873717 0.009918840623053914 0.0 0.0036704480443059033 0.0 0.0
-0.02156839163359376 0.00925405620663846 0.0 0.0037761060843037337 0.0 0.0
-0.020039758321471573 0.008593309351676537 0.0 0.0038234668425385 0.0 0.0
-0.018502768803163358 0.007930905429552576 0.0 0.0038426109236881414 0.0 0.0
-0.016962150930268295 0.007269355072693575 0.0 0.0038469524268667545 0.0 0.0
-0.015420865100835346 0.006608263408898047 0.0 0.003845394374133066 0.0 0.0
-0.013879762836656002 0.005947793066681398 0.0 0.003842554536392675 0.0 0.0
-0.01233829018767311 0.005288355660585895 0.0 0.0038444293260614546 0.0 0.0
-0.010793239183334523 0.004630803329024881 0.0 0.003865324330188818 0.0 0.0
-0.009235755284172446 0.003975489412579114 0.0 0.003936254312877936 0.0 0.0
-0.007646482541871263 0.003317864421463856 0.0 0.00410496666190465 0.0 0.0
-0.005994266936372392 0.0026366250603482013 0.0 0.004395069752705863 0.0 0.0
-0.004253295279415327 0.0018784433050071862 0.0 0.004669342987809491 0.0 0.0
-0.002455850413404805 0.0009507675242861756 0.0 0.00440296831372634 0.0 0.0
-0.0009179391296750779 -0.00014227176874547856 0.0 0.0028123583040559064 0.0 0.0
-0.00028288374964830946 -0.0001989051251021573 0.0 0.001345655419539597 0.0 0.0
-0.00036150631068580764 5.357475610988845e-06 0.0 -0.0008670107065454037 0.0 0.0
-0.001013735949323709 7.580738447409244e-05 0.0 -0.001894040576478739 0.0 0.0
-0.002664955290014258 0.0010729590113923604 0.0 -0.003074704685863376 0.0 0.0
-0.004715034620456451 0.0020524325542440225 0.0 -0.003272510896139243 0.0 0.0
-0.0067666593484213625 0.0029437747349778387 0.0 -0.0030713891994482508 0.0 0.0
-0.008706717511074364 0.0037586986993142007 0.0 -0.002856777940068834 0.0 0.0
-0.010548582078918805 0.004532649189885701 0.0 -0.002731997075963282 0.0 0.0
-0.012336914223587018 0.005290844338898332 0.0 -0.0026798814559130892 0.0 0.0
-0.014103706357938575 0.006044853350476475 0.0 -0.0026648407978876456 0.0 0.0
-0.015864572578610285 0.006798664029680032 0.0 -0.00266374648249896 0.0 0.0
-0.017625159777193145 0.007553190715820316 0.0 -0.0026660168866914197 0.0 0.0
-0.01938643988229602 0.008308379707834263 0.0 -0.002667312325851801 0.0 0.0
-0.021146704693872868 0.009063742046632005 0.0 -0.0026642221163798076 0.0 0.0
-0.02290174467690019 0.009817996075687292 0.0 -0.0026505996027416487 0.0 0.0
-0.024639757282114545 0.010568805441466054 0.0 -0.0026136599625803 0.0 0.0
-0.026352408758187583 0.011304328701299698 0.0 -0.002543250659509274 0.0 0.0
-0.027992440096035645 0.012051396149845968 0.0 -0.0023909177083851147 0.0 0.0
-0.029618461740213244 0.012609989029682184 0.0 -0.002398310230014745 0.0 0.0
-0.03195457714434275 0.01382859902132199 0.0 -0.0022245073960599432 0.0 0.0
-0.0320165105277059 0.014834537815315574 0.0 -0.00742700394276944 0.0 0.0
-0.030578490488319725 -0.003786535194429759 0.0 1.2533377113932431e-16 0.0 0.0
-0.03201651052770579 0.014834537815316687 0.0 0.007427003942769132 0.0 0.0
-0.03195457714434263 0.013828599021320892 0.0 0.0022245073960603205 0.0 0.0
-0.02961846174021327 0.012609989029681586 0.0 0.0023983102300150407 0.0 0.0
-0.02799244009603573 0.012051396149846117 0.0 0.0023909177083849477 0.0 0.0
-0.026352408758187656 0.011304328701300012 0.0 0.0025432506595087466 0.0 0.0
-0.024639757282114524 0.010568805441465231 0.0 0.0026136599625804684 0.0 0.0
-0.022901744676900225 0.009817996075685965 0.0 0.0026505996027416483 0.0 0.0
-0.021146704693872916 0.009063742046632722 0.0 0.00266422211637976 0.0 0.0
-0.01938643988229599 0.008308379707834563 0.0 0.002667312325851638 0.0 0.0
-0.017625159777193172 0.007553190715820788 0.0 0.002666016886691282 0.0 0.0
-0.015864572578610302 0.006798664029680654 0.0 0.0026637464824985197 0.0 0.0
-0.014103706357938542 0.006044853350476044 0.0 0.0026648407978880047 0.0 0.0
-0.01233691422358702 0.005290844338897721 0.0 0.0026798814559126586 0.0 0.0
-0.01054858207891881 0.004532649189884825 0.0 0.002731997075963585 0.0 0.0
-0.008706717511074253 0.0037586986993137696 0.0 0.0028567779400687247 0.0 0.0
-0.006766659348421438 0.002943774734978312 0.0 0.0030713891994485205 0.0 0.0
-0.00471503462045662 0.0020524325542445113 0.0 0.003272510896139447 0.0 0.0
-0.0026649552900143286 0.0010729590113921195 0.0 0.003074704685863784 0.0 0.0
-0.0010137359493236988 7.580738447403016e-05 0.0 0.001894040576478803 0.0 0.0
-0.0003615063106858033 5.357475611024321e-06 0.0 0.0008670107065449058 0.0 0.0
-0.0003467410646643199 5.371920503851037e-05 0.0 -0.000510661560746638 0.0 0.0
-0.0010152873607028878 0.00021256262571209722 0.0 -0.0009509867897392805 0.0 0.0
-0.0028135775944353484 0.0011475597877722602 0.0 -0.0015028618951717235 0.0 0.0
-0.005172737320240607 0.0022343898841207443 0.0 -0.0016170020150621362 0.0 0.0
-0.00755767735117494 0.003268420551607123 0.0 -0.0015308687777735774 0.0 0.0
-0.009782474221219205 0.004211523102137453 0.0 -0.0014273278026833709 0.0 0.0
-0.011869674275868769 0.005095490208754596 0.0 -0.001364721981960733 0.0 0.0
-0.013883813130970153 0.005952850460692821 0.0 -0.0013376631832625705 0.0 0.0
-0.01586995238149846 0.006801736818267529 0.0 -0.001329442357784653 0.0 0.0
-0.017849370867142746 0.007649429262780734 0.0 -0.0013285559199619312 0.0 0.0
-0.019829323177771932 0.008497964923672791 0.0 -0.0013295391888554387 0.0 0.0
-0.021810803572514116 0.009347426498246632 0.0 -0.0013300817915812605 0.0 0.0
-0.02379162768977484 0.010197026592842879 0.0 -0.0013282981569277506 0.0 0.0
-0.025765342275864373 0.011044544645903947 0.0 -0.001321313424106803 0.0 0.0
-0.027719285570014615 0.011885260594975867 0.0 -0.001301976333369168 0.0 0.0
-0.029619850196058603 0.012707428146693907 0.0 -0.0012670441623548337 0.0 0.0
-0.03146638918378029 0.013493138942945907 0.0 -0.001202600022510215 0.0 0.0
-0.033005015498214225 0.014269565404793419 0.0 -0.0011179571218092514 0.0 0.0
-0.035392726281022524 0.014454168319012736 0.0 -0.0017631861774964125 0.0 0.0
-0.03690993696834728 0.019417970441945605 0.0 -0.002516497929639745 0.0 0.0
-0.03666205474720065 -0.005052994946951553 0.0 -4.0332320816460765e-17 0.0 0.0
-0.036909936968347226 0.019417970441947492 0.0 0.00251649792963935 0.0 0.0
-0.03539272628102235 0.014454168319011963 0.0 0.0017631861774962303 0.0 0.0
-0.033005015498214184 0.014269565404792944 0.0 0.001117957121809308 0.0 0.0
-0.031466389183780356 0.01349313894294625 0.0 0.0012026000225103329 0.0 0.0
-0.02961985019605863 0.01270742814669413 0.0 0.0012670441623551074 0.0 0.0
-0.027719285570014688 0.011885260594975503 0.0 0.0013019763333692032 0.0 0.0
-0.02576534227586446 0.011044544645904163 0.0 0.0013213134241067317 0.0 0.0
-0.023791627689774827 0.010197026592843415 0.0 0.0013282981569280859 0.0 0.0
-0.02181080357251411 0.009347426498246708 0.0 0.0013300817915812796 0.0 0.0
-0.019829323177771904 0.008497964923672583 0.0 0.001329539188855928 0.0 0.0
-0.017849370867142736 0.007649429262782358 0.0 0.0013285559199614147 0.0 0.0
-0.01586995238149844 0.006801736818267986 0.0 0.0013294423577854173 0.0 0.0
-0.013883813130969978 0.005952850460692683 0.0 0.0013376631832628055 0.0 0.0
-0.011869674275868733 0.005095490208754711 0.0 0.0013647219819610886 0.0 0.0
-0.009782474221219263 0.0042115231021378485 0.0 0.0014273278026833726 0.0 0.0
-0.007557677351175011 0.0032684205516069972 0.0 0.0015308687777736219 0.0 0.0
-0.005172737320240691 0.0022343898841206728 0.0 0.0016170020150623472 0.0 0.0
-0.0028135775944352513 0.0011475597877720065 0.0 0.0015028618951720963 0.0 0.0
-0.0010152873607027612 0.00021256262571197156 0.0 0.0009509867897396313 0.0 0.0
-0.00034674106466429775 5.3719205038537125e-05 0.0 0.0005106615607466274 0.0 0.0
-0.00018535344598716048 3.938362995798259e-05 0.0 -0.00034220425157019315 0.0 0.0
-0.0008624180120766451 0.0002552749348689782 0.0 -0.00040193058141619275 0.0 0.0
-0.0028732756273332693 0.0011699994704619965 0.0 -0.0005115154135045011 0.0 0.0
-0.0056382838478451006 0.002328706604458723 0.0 -0.0005703213948652925 0.0 0.0
-0.008378333100070176 0.0034360339172292706 0.0 -0.0005659774947211378 0.0 0.0
-0.010879717267571858 0.004441499175378049 0.0 -0.0005396405474168367 0.0 0.0
-0.013201156418291324 0.0053785293210813654 0.0 -0.0005195144895296516 0.0 0.0
-0.015434301182655246 0.0062843841799679265 0.0 -0.0005091309977639073 0.0 0.0
-0.01763686504338321 0.00718026242191032 0.0 -0.000505153973510206 0.0 0.0
-0.019833942487662966 0.008074768936974982 0.0 -0.000504153170154447 0.0 0.0
-0.022033180395265858 0.008970292463609275 0.0 -0.0005041162961843433 0.0 0.0
-0.02423518821451831 0.009866976384766992 0.0 -0.0005040360547705946 0.0 0.0
-0.02643733333009682 0.01076366854261792 0.0 -0.0005030078648740532 0.0 0.0
-0.02863220536772196 0.01165879348476633 0.0 -0.0005002398245500068 0.0 0.0
-0.030803194501189467 0.012542312145036885 0.0 -0.0004935732900813545 0.0 0.0
-0.03291325289285449 0.013420008367230087 0.0 -0.0004806754985739784 0.0 0.0
-0.03489887805060604 0.0141834968460424 0.0 -0.0004937838616415622 0.0 0.0
-0.036694003642766045 0.015215288475941412 0.0 -0.00033596955706203255 0.0 0.0
-0.03776356488488708 0.014462905685373964 0.0 -0.0016496602730404868 0.0 0.0
-0.041622030559257596 0.02192614690297781 0.0 -7.426857306746908e-06 0.0 0.0
-0.04525377080162668 -0.005594954464687607 0.0 -1.249000902703301e-16 0.0 0.0
-0.0416220305592575 0.021926146902980153 0.0 7.42685730652573e-06 0.0 0.0
-0.037763564884887024 0.014462905685371657 0.0 0.0016496602730409556 0.0 0.0
-0.03669400364276597 0.015215288475942878 0.0 0.00033596955706255427 0.0 0.0
-0.03489887805060597 0.014183496846043602 0.0 0.0004937838616412842 0.0 0.0
-0.0329132528928547 0.013420008367230523 0.0 0.0004806754985742681 0.0 0.0
-0.03080319450118979 0.012542312145036852 0.0 0.0004935732900809169 0.0 0.0
-0.02863220536772204 0.011658793484768481 0.0 0.0005002398245498589 0.0 0.0
-0.026437333330096836 0.010763668542616931 0.0 0.0005030078648736286 0.0 0.0
-0.024235188214518283 0.009866976384766779 0.0 0.0005040360547699622 0.0 0.0
-0.0220331803952658 0.00897029246360891 0.0 0.0005041162961842336 0.0 0.0
-0.019833942487662765 0.008074768936977538 0.0 0.000504153170153598 0.0 0.0
-0.017636865043383035 0.007180262421911753 0.0 0.000505153973510667 0.0 0.0
-0.01543430118265524 0.0062843841799688095 0.0 0.0005091309977647731 0.0 0.0
-0.01320115641829132 0.0053785293210824306 0.0 0.0005195144895299944 0.0 0.0
-0.010879717267571852 0.004441499175379058 0.0 0.0005396405474168194 0.0 0.0
-0.008378333100070114 0.003436033917228697 0.0 0.0005659774947206133 0.0 0.0
-0.005638283847845062 0.002328706604458051 0.0 0.0005703213948652681 0.0 0.0
-0.002873275627333384 0.0011699994704619519 0.0 0.0005115154135041432 0.0 0.0
-0.0008624180120766648 0.00025527493486870474 0.0 0.00040193058141653395 0.0 0.0
-0.00018535344598704425 3.9383629957982994e-05 0.0 0.0003422042515703495 0.0 0.0