# vtk DataFile Version 3.0
Some data
ASCII
DATASET UNSTRUCTURED_GRID
POINTS 861 float
0.0 0.0 0.0
0.4 0.0 0.0
0.8 0.0 0.0
1.2000000000000002 0.0 0.0
1.6 0.0 0.0
2.0 0.0 0.0
2.4000000000000004 0.0 0.0
2.8000000000000003 0.0 0.0
3.2 0.0 0.0
3.6 0.0 0.0
4.0 0.0 0.0
4.4 0.0 0.0
4.800000000000001 0.0 0.0
5.2 0.0 0.0
5.6000000000000005 0.0 0.0
6.0 0.0 0.0
6.4 0.0 0.0
6.800000000000001 0.0 0.0
7.2 0.0 0.0
7.6000000000000005 0.0 0.0
8.0 0.0 0.0
8.4 0.0 0.0
8.8 0.0 0.0
9.200000000000001 0.0 0.0
9.600000000000001 0.0 0.0
10.0 0.0 0.0
10.4 0.0 0.0
10.8 0.0 0.0
11.200000000000001 0.0 0.0
11.600000000000001 0.0 0.0
12.0 0.0 0.0
12.4 0.0 0.0
12.8 0.0 0.0
13.200000000000001 0.0 0.0
13.600000000000001 0.0 0.0
14.0 0.0 0.0
14.4 0.0 0.0
14.8 0.0 0.0
15.200000000000001 0.0 0.0
15.600000000000001 0.0 0.0
16.0 0.0 0.0
0.0 0.1 0.0
0.4 0.1 0.0
0.8 0.1 0.0
1.2000000000000002 0.1 0.0
1.6 0.1 0.0
2.0 0.1 0.0
2.4000000000000004 0.1 0.0
2.8000000000000003 0.1 0.0
3.2 0.1 0.0
3.6 0.1 0.0
4.0 0.1 0.0
4.4 0.1 0.0
4.800000000000001 0.1 0.0
5.2 0.1 0.0
5.6000000000000005 0.1 0.0
6.0 0.1 0.0
6.4 0.1 0.0
6.800000000000001 0.1 0.0
7.2 0.1 0.0
7.6000000000000005 0.1 0.0
8.0 0.1 0.0
8.4 0.1 0.0
8.8 0.1 0.0
9.200000000000001 0.1 0.0
9.600000000000001 0.1 0.0
10.0 0.1 0.0
10.4 0.1 0.0
10.8 0.1 0.0
11.200000000000001 0.1 0.0
11.600000000000001 0.1 0.0
12.0 0.1 0.0
12.4 0.1 0.0
12.8 0.1 0.0
13.200000000000001 0.1 0.0
13.600000000000001 0.1 0.0
14.0 0.1 0.0
14.4 0.1 0.0
14.8 0.1 0.0
15.200000000000001 0.1 0.0
15.600000000000001 0.1 0.0
16.0 0.1 0.0
0.0 0.2 0.0
0.4 0.2 0.0
0.8 0.2 0.0
1.2000000000000002 0.2 0.0
1.6 0.2 0.0
2.0 0.2 0.0
2.4000000000000004 0.2 0.0
2.8000000000000003 0.2 0.0
3.2 0.2 0.0
3.6 0.2 0.0
4.0 0.2 0.0
4.4 0.2 0.0
4.800000000000001 0.2 0.0
5.2 0.2 0.0
5.6000000000000005 0.2 0.0
6.0 0.2 0.0
6.4 0.2 0.0
6.800000000000001 0.2 0.0
7.2 0.2 0.0
7.6000000000000005 0.2 0.0
8.0 0.2 0.0
8.4 0.2 0.0
8.8 0.2 0.0
9.200000000000001 0.2 0.0
9.600000000000001 0.2 0.0
10.0 0.2 0.0
10.4 0.2 0.0
10.8 0.2 0.0
11.200000000000001 0.2 0.0
11.600000000000001 0.2 0.0
12.0 0.2 0.0
12.4 0.2 0.0
12.8 0.2 0.0
13.200000000000001 0.2 0.0
13.600000000000001 0.2 0.0
14.0 0.2 0.0
14.4 0.2 0.0
14.8 0.2 0.0
15.200000000000001 0.2 0.0
15.600000000000001 0.2 0.0
16.0 0.2 0.0
0.0 0.30000000000000004 0.0
0.4 0.30000000000000004 0.0
0.8 0.30000000000000004 0.0
1.2000000000000002 0.30000000000000004 0.0
1.6 0.30000000000000004 0.0
2.0 0.30000000000000004 0.0
2.4000000000000004 0.30000000000000004 0.0
2.8000000000000003 0.30000000000000004 0.0
3.2 0.30000000000000004 0.0
3.6 0.30000000000000004 0.0
4.0 0.30000000000000004 0.0
4.4 0.30000000000000004 0.0
4.800000000000001 0.30000000000000004 0.0
5.2 0.30000000000000004 0.0
5.6000000000000005 0.30000000000000004 0.0
6.0 0.30000000000000004 0.0
6.4 0.30000000000000004 0.0
6.800000000000001 0.30000000000000004 0.0
7.2 0.30000000000000004 0.0
7.6000000000000005 0.30000000000000004 0.0
8.0 0.30000000000000004 0.0
8.4 0.30000000000000004 0.0
8.8 0.30000000000000004 0.0
9.200000000000001 0.30000000000000004 0.0
9.600000000000001 0.30000000000000004 0.0
10.0 0.30000000000000004 0.0
10.4 0.30000000000000004 0.0
10.8 0.30000000000000004 0.0
11.200000000000001 0.30000000000000004 0.0
11.600000000000001 0.30000000000000004 0.0
12.0 0.30000000000000004 0.0
12.4 0.30000000000000004 0.0
12.8 0.30000000000000004 0.0
13.200000000000001 0.30000000000000004 0.0
13.600000000000001 0.30000000000000004 0.0
14.0 0.30000000000000004 0.0
14.4 0.30000000000000004 0.0
14.8 0.30000000000000004 0.0
15.200000000000001 0.30000000000000004 0.0
15.600000000000001 0.30000000000000004 0.0
16.0 0.30000000000000004 0.0
0.0 0.4 0.0
0.4 0.4 0.0
0.8 0.4 0.0
1.2000000000000002 0.4 0.0
1.6 0.4 0.0
2.0 0.4 0.0
2.4000000000000004 0.4 0.0
2.8000000000000003 0.4 0.0
3.2 0.4 0.0
3.6 0.4 0.0
4.0 0.4 0.0
4.4 0.4 0.0
4.800000000000001 0.4 0.0
5.2 0.4 0.0
5.6000000000000005 0.4 0.0
6.0 0.4 0.0
6.4 0.4 0.0
6.800000000000001 0.4 0.0
7.2 0.4 0.0
7.6000000000000005 0.4 0.0
8.0 0.4 0.0
8.4 0.4 0.0
8.8 0.4 0.0
9.200000000000001 0.4 0.0
9.600000000000001 0.4 0.0
10.0 0.4 0.0
10.4 0.4 0.0
10.8 0.4 0.0
11.200000000000001 0.4 0.0
11.600000000000001 0.4 0.0
12.0 0.4 0.0
12.4 0.4 0.0
12.8 0.4 0.0
13.200000000000001 0.4 0.0
13.600000000000001 0.4 0.0
14.0 0.4 0.0
14.4 0.4 0.0
14.8 0.4 0.0
15.200000000000001 0.4 0.0
15.600000000000001 0.4 0.0
16.0 0.4 0.0
0.0 0.5 0.0
0.4 0.5 0.0
0.8 0.5 0.0
1.2000000000000002 0.5 0.0
1.6 0.5 0.0
2.0 0.5 0.0
2.4000000000000004 0.5 0.0
2.8000000000000003 0.5 0.0
3.2 0.5 0.0
3.6 0.5 0.0
4.0 0.5 0.0
4.4 0.5 0.0
4.800000000000001 0.5 0.0
5.2 0.5 0.0
5.6000000000000005 0.5 0.0
6.0 0.5 0.0
6.4 0.5 0.0
6.800000000000001 0.5 0.0
7.2 0.5 0.0
7.6000000000000005 0.5 0.0
8.0 0.5 0.0
8.4 0.5 0.0
8.8 0.5 0.0
9.200000000000001 0.5 0.0
9.600000000000001 0.5 0.0
10.0 0.5 0.0
10.4 0.5 0.0
10.8 0.5 0.0
11.200000000000001 0.5 0.0
11.600000000000001 0.5 0.0
12.0 0.5 0.0
12.4 0.5 0.0
12.8 0.5 0.0
13.200000000000001 0.5 0.0
13.600000000000001 0.5 0.0
14.0 0.5 0.0
14.4 0.5 0.0
14.8 0.5 0.0
15.200000000000001 0.5 0.0
15.600000000000001 0.5 0.0
16.0 0.5 0.0
0.0 0.6000000000000001 0.0
0.4 0.6000000000000001 0.0
0.8 0.6000000000000001 0.0
1.2000000000000002 0.6000000000000001 0.0
1.6 0.6000000000000001 0.0
2.0 0.6000000000000001 0.0
2.4000000000000004 0.6000000000000001 0.0
2.8000000000000003 0.6000000000000001 0.0
3.2 0.6000000000000001 0.0
3.6 0.6000000000000001 0.0
4.0 0.6000000000000001 0.0
4.4 0.6000000000000001 0.0
4.800000000000001 0.6000000000000001 0.0
5.2 0.6000000000000001 0.0
5.6000000000000005 0.6000000000000001 0.0
6.0 0.6000000000000001 0.0
6.4 0.6000000000000001 0.0
6.800000000000001 0.6000000000000001 0.0
7.2 0.6000000000000001 0.0
7.6000000000000005 0.6000000000000001 0.0
8.0 0.6000000000000001 0.0
8.4 0.6000000000000001 0.0
8.8 0.6000000000000001 0.0
9.200000000000001 0.6000000000000001 0.0
9.600000000000001 0.6000000000000001 0.0
10.0 0.6000000000000001 0.0
10.4 0.6000000000000001 0.0
10.8 0.6000000000000001 0.0
11.200000000000001 0.6000000000000001 0.0
11.600000000000001 0.6000000000000001 0.0
12.0 0.6000000000000001 0.0
12.4 0.6000000000000001 0.0
12.8 0.6000000000000001 0.0
13.200000000000001 0.6000000000000001 0.0
13.600000000000001 0.6000000000000001 0.0
14.0 0.6000000000000001 0.0
14.4 0.6000000000000001 0.0
14.8 0.6000000000000001 0.0
15.200000000000001 0.6000000000000001 0.0
15.600000000000001 0.6000000000000001 0.0
16.0 0.6000000000000001 0.0
0.0 0.7000000000000001 0.0
0.4 0.7000000000000001 0.0
0.8 0.7000000000000001 0.0
1.2000000000000002 0.7000000000000001 0.0
1.6 0.7000000000000001 0.0
2.0 0.7000000000000001 0.0
2.4000000000000004 0.7000000000000001 0.0
2.8000000000000003 0.7000000000000001 0.0
3.2 0.7000000000000001 0.0
3.6 0.7000000000000001 0.0
4.0 0.7000000000000001 0.0
4.4 0.7000000000000001 0.0
4.800000000000001 0.7000000000000001 0.0
5.2 0.7000000000000001 0.0
5.6000000000000005 0.7000000000000001 0.0
6.0 0.7000000000000001 0.0
6.4 0.7000000000000001 0.0
6.800000000000001 0.7000000000000001 0.0
7.2 0.7000000000000001 0.0
7.6000000000000005 0.7000000000000001 0.0
8.0 0.7000000000000001 0.0
8.4 0.7000000000000001 0.0
8.8 0.7000000000000001 0.0
9.200000000000001 0.7000000000000001 0.0
9.600000000000001 0.7000000000000001 0.0
10.0 0.7000000000000001 0.0
10.4 0.7000000000000001 0.0
10.8 0.7000000000000001 0.0
11.200000000000001 0.7000000000000001 0.0
11.600000000000001 0.7000000000000001 0.0
12.0 0.7000000000000001 0.0
12.4 0.7000000000000001 0.0
12.8 0.7000000000000001 0.0
13.200000000000001 0.7000000000000001 0.0
13.600000000000001 0.7000000000000001 0.0
14.0 0.7000000000000001 0.0
14.4 0.7000000000000001 0.0
14.8 0.7000000000000001 0.0
15.200000000000001 0.7000000000000001 0.0
15.600000000000001 0.7000000000000001 0.0
16.0 0.7000000000000001 0.0
0.0 0.8 0.0
0.4 0.8 0.0
0.8 0.8 0.0
1.2000000000000002 0.8 0.0
1.6 0.8 0.0
2.0 0.8 0.0
2.4000000000000004 0.8 0.0
2.8000000000000003 0.8 0.0
3.2 0.8 0.0
3.6 0.8 0.0
4.0 0.8 0.0
4.4 0.8 0.0
4.800000000000001 0.8 0.0
5.2 0.8 0.0
5.6000000000000005 0.8 0.0
6.0 0.8 0.0
6.4 0.8 0.0
6.800000000000001 0.8 0.0
7.2 0.8 0.0
7.6000000000000005 0.8 0.0
8.0 0.8 0.0
8.4 0.8 0.0
8.8 0.8 0.0
9.200000000000001 0.8 0.0
9.600000000000001 0.8 0.0
10.0 0.8 0.0
10.4 0.8 0.0
10.8 0.8 0.0
11.200000000000001 0.8 0.0
11.600000000000001 0.8 0.0
12.0 0.8 0.0
12.4 0.8 0.0
12.8 0.8 0.0
13.200000000000001 0.8 0.0
13.600000000000001 0.8 0.0
14.0 0.8 0.0
14.4 0.8 0.0
14.8 0.8 0.0
15.200000000000001 0.8 0.0
15.600000000000001 0.8 0.0
16.0 0.8 0.0
0.0 0.9 0.0
0.4 0.9 0.0
0.8 0.9 0.0
1.2000000000000002 0.9 0.0
1.6 0.9 0.0
2.0 0.9 0.0
2.4000000000000004 0.9 0.0
2.8000000000000003 0.9 0.0
3.2 0.9 0.0
3.6 0.9 0.0
4.0 0.9 0.0
4.4 0.9 0.0
4.800000000000001 0.9 0.0
5.2 0.9 0.0
5.6000000000000005 0.9 0.0
6.0 0.9 0.0
6.4 0.9 0.0
6.800000000000001 0.9 0.0
7.2 0.9 0.0
7.6000000000000005 0.9 0.0
8.0 0.9 0.0
8.4 0.9 0.0
8.8 0.9 0.0
9.200000000000001 0.9 0.0
9.600000000000001 0.9 0.0
10.0 0.9 0.0
10.4 0.9 0.0
10.8 0.9 0.0
11.200000000000001 0.9 0.0
11.600000000000001 0.9 0.0
12.0 0.9 0.0
12.4 0.9 0.0
12.8 0.9 0.0
13.200000000000001 0.9 0.0
13.600000000000001 0.9 0.0
14.0 0.9 0.0
14.4 0.9 0.0
14.8 0.9 0.0
15.200000000000001 0.9 0.0
15.600000000000001 0.9 0.0
16.0 0.9 0.0
0.0 1.0 0.0
0.4 1.0 0.0
0.8 1.0 0.0
1.2000000000000002 1.0 0.0
1.6 1.0 0.0
2.0 1.0 0.0
2.4000000000000004 1.0 0.0
2.8000000000000003 1.0 0.0
3.2 1.0 0.0
3.6 1.0 0.0
4.0 1.0 0.0
4.4 1.0 0.0
4.800000000000001 1.0 0.0
5.2 1.0 0.0
5.6000000000000005 1.0 0.0
6.0 1.0 0.0
6.4 1.0 0.0
6.800000000000001 1.0 0.0
7.2 1.0 0.0
7.6000000000000005 1.0 0.0
8.0 1.0 0.0
8.4 1.0 0.0
8.8 1.0 0.0
9.200000000000001 1.0 0.0
9.600000000000001 1.0 0.0
10.0 1.0 0.0
10.4 1.0 0.0
10.8 1.0 0.0
11.200000000000001 1.0 0.0
11.600000000000001 1.0 0.0
12.0 1.0 0.0
12.4 1.0 0.0
12.8 1.0 0.0
13.200000000000001 1.0 0.0
13.600000000000001 1.0 0.0
14.0 1.0 0.0
14.4 1.0 0.0
14.8 1.0 0.0
15.200000000000001 1.0 0.0
15.600000000000001 1.0 0.0
16.0 1.0 0.0
0.0 1.1 0.0
0.4 1.1 0.0
0.8 1.1 0.0
1.2000000000000002 1.1 0.0
1.6 1.1 0.0
2.0 1.1 0.0
2.4000000000000004 1.1 0.0
2.8000000000000003 1.1 0.0
3.2 1.1 0.0
3.6 1.1 0.0
4.0 1.1 0.0
4.4 1.1 0.0
4.800000000000001 1.1 0.0
5.2 1.1 0.0
5.6000000000000005 1.1 0.0
6.0 1.1 0.0
6.4 1.1 0.0
6.800000000000001 1.1 0.0
7.2 1.1 0.0
7.6000000000000005 1.1 0.0
8.0 1.1 0.0
8.4 1.1 0.0
8.8 1.1 0.0
9.200000000000001 1.1 0.0
9.600000000000001 1.1 0.0
10.0 1.1 0.0
10.4 1.1 0.0
10.8 1.1 0.0
11.200000000000001 1.1 0.0
11.600000000000001 1.1 0.0
12.0 1.1 0.0
12.4 1.1 0.0
12.8 1.1 0.0
13.200000000000001 1.1 0.0
13.600000000000001 1.1 0.0
14.0 1.1 0.0
14.4 1.1 0.0
14.8 1.1 0.0
15.200000000000001 1.1 0.0
15.600000000000001 1.1 0.0
16.0 1.1 0.0
0.0 1.2000000000000002 0.0
0.4 1.2000000000000002 0.0
0.8 1.2000000000000002 0.0
1.2000000000000002 1.2000000000000002 0.0
1.6 1.2000000000000002 0.0
2.0 1.2000000000000002 0.0
2.4000000000000004 1.2000000000000002 0.0
2.8000000000000003 1.2000000000000002 0.0
3.2 1.2000000000000002 0.0
3.6 1.2000000000000002 0.0
4.0 1.2000000000000002 0.0
4.4 1.2000000000000002 0.0
4.800000000000001 1.2000000000000002 0.0
5.2 1.2000000000000002 0.0
5.6000000000000005 1.2000000000000002 0.0
6.0 1.2000000000000002 0.0
6.4 1.2000000000000002 0.0
6.800000000000001 1.2000000000000002 0.0
7.2 1.2000000000000002 0.0
7.6000000000000005 1.2000000000000002 0.0
8.0 1.2000000000000002 0.0
8.4 1.2000000000000002 0.0
8.8 1.2000000000000002 0.0
9.200000000000001 1.2000000000000002 0.0
9.600000000000001 1.2000000000000002 0.0
10.0 1.2000000000000002 0.0
10.4 1.2000000000000002 0.0
10.8 1.2000000000000002 0.0
11.200000000000001 1.2000000000000002 0.0
11.600000000000001 1.2000000000000002 0.0
12.0 1.2000000000000002 0.0
12.4 1.2000000000000002 0.0
12.8 1.2000000000000002 0.0
13.200000000000001 1.2000000000000002 0.0
13.600000000000001 1.2000000000000002 0.0
14.0 1.2000000000000002 0.0
14.4 1.2000000000000002 0.0
14.8 1.2000000000000002 0.0
15.200000000000001 1.2000000000000002 0.0
15.600000000000001 1.2000000000000002 0.0
16.0 1.2000000000000002 0.0
0.0 1.3 0.0
0.4 1.3 0.0
0.8 1.3 0.0
1.2000000000000002 1.3 0.0
1.6 1.3 0.0
2.0 1.3 0.0
2.4000000000000004 1.3 0.0
2.8000000000000003 1.3 0.0
3.2 1.3 0.0
3.6 1.3 0.0
4.0 1.3 0.0
4.4 1.3 0.0
4.800000000000001 1.3 0.0
5.2 1.3 0.0
5.6000000000000005 1.3 0.0
6.0 1.3 0.0
6.4 1.3 0.0
6.800000000000001 1.3 0.0
7.2 1.3 0.0
7.6000000000000005 1.3 0.0
8.0 1.3 0.0
8.4 1.3 0.0
8.8 1.3 0.0
9.200000000000001 1.3 0.0
9.600000000000001 1.3 0.0
10.0 1.3 0.0
10.4 1.3 0.0
10.8 1.3 0.0
11.200000000000001 1.3 0.0
11.600000000000001 1.3 0.0
12.0 1.3 0.0
12.4 1.3 0.0
12.8 1.3 0.0
13.200000000000001 1.3 0.0
13.600000000000001 1.3 0.0
14.0 1.3 0.0
14.4 1.3 0.0
14.8 1.3 0.0
15.200000000000001 1.3 0.0
15.600000000000001 1.3 0.0
16.0 1.3 0.0
0.0 1.4000000000000001 0.0
0.4 1.4000000000000001 0.0
0.8 1.4000000000000001 0.0
1.2000000000000002 1.4000000000000001 0.0
1.6 1.4000000000000001 0.0
2.0 1.4000000000000001 0.0
2.4000000000000004 1.4000000000000001 0.0
2.8000000000000003 1.4000000000000001 0.0
3.2 1.4000000000000001 0.0
3.6 1.4000000000000001 0.0
4.0 1.4000000000000001 0.0
4.4 1.4000000000000001 0.0
4.800000000000001 1.4000000000000001 0.0
5.2 1.4000000000000001 0.0
5.6000000000000005 1.4000000000000001 0.0
6.0 1.4000000000000001 0.0
6.4 1.4000000000000001 0.0
6.800000000000001 1.4000000000000001 0.0
7.2 1.4000000000000001 0.0
7.6000000000000005 1.4000000000000001 0.0
8.0 1.4000000000000001 0.0
8.4 1.4000000000000001 0.0
8.8 1.4000000000000001 0.0
9.200000000000001 1.4000000000000001 0.0
9.600000000000001 1.4000000000000001 0.0
10.0 1.4000000000000001 0.0
10.4 1.4000000000000001 0.0
10.8 1.4000000000000001 0.0
11.200000000000001 1.4000000000000001 0.0
11.600000000000001 1.4000000000000001 0.0
12.0 1.4000000000000001 0.0
12.4 1.4000000000000001 0.0
12.8 1.4000000000000001 0.0
13.200000000000001 1.4000000000000001 0.0
13.600000000000001 1.4000000000000001 0.0
14.0 1.4000000000000001 0.0
14.4 1.4000000000000001 0.0
14.8 1.4000000000000001 0.0
15.200000000000001 1.4000000000000001 0.0
15.600000000000001 1.4000000000000001 0.0
16.0 1.4000000000000001 0.0
0.0 1.5 0.0
0.4 1.5 0.0
0.8 1.5 0.0
1.2000000000000002 1.5 0.0
1.6 1.5 0.0
2.0 1.5 0.0
2.4000000000000004 1.5 0.0
2.8000000000000003 1.5 0.0
3.2 1.5 0.0
3.6 1.5 0.0
4.0 1.5 0.0
4.4 1.5 0.0
4.800000000000001 1.5 0.0
5.2 1.5 0.0
5.6000000000000005 1.5 0.0
6.0 1.5 0.0
6.4 1.5 0.0
6.800000000000001 1.5 0.0
7.2 1.5 0.0
7.6000000000000005 1.5 0.0
8.0 1.5 0.0
8.4 1.5 0.0
8.8 1.5 0.0
9.200000000000001 1.5 0.0
9.600000000000001 1.5 0.0
10.0 1.5 0.0
10.4 1.5 0.0
10.8 1.5 0.0
11.200000000000001 1.5 0.0
11.600000000000001 1.5 0.0
12.0 1.5 0.0
12.4 1.5 0.0
12.8 1.5 0.0
13.200000000000001 1.5 0.0
13.600000000000001 1.5 0.0
14.0 1.5 0.0
14.4 1.5 0.0
14.8 1.5 0.0
15.200000000000001 1.5 0.0
15.600000000000001 1.5 0.0
16.0 1.5 0.0
0.0 1.6 0.0
0.4 1.6 0.0
0.8 1.6 0.0
1.2000000000000002 1.6 0.0
1.6 1.6 0.0
2.0 1.6 0.0
2.4000000000000004 1.6 0.0
2.8000000000000003 1.6 0.0
3.2 1.6 0.0
3.6 1.6 0.0
4.0 1.6 0.0
4.4 1.6 0.0
4.800000000000001 1.6 0.0
5.2 1.6 0.0
5.6000000000000005 1.6 0.0
6.0 1.6 0.0
6.4 1.6 0.0
6.800000000000001 1.6 0.0
7.2 1.6 0.0
7.6000000000000005 1.6 0.0
8.0 1.6 0.0
8.4 1.6 0.0
8.8 1.6 0.0
9.200000000000001 1.6 0.0
9.600000000000001 1.6 0.0
10.0 1.6 0.0
10.4 1.6 0.0
10.8 1.6 0.0
11.200000000000001 1.6 0.0
11.600000000000001 1.6 0.0
12.0 1.6 0.0
12.4 1.6 0.0
12.8 1.6 0.0
13.200000000000001 1.6 0.0
13.600000000000001 1.6 0.0
14.0 1.6 0.0
14.4 1.6 0.0
14.8 1.6 0.0
15.200000000000001 1.6 0.0
15.600000000000001 1.6 0.0
16.0 1.6 0.0
0.0 1.7000000000000002 0.0
0.4 1.7000000000000002 0.0
0.8 1.7000000000000002 0.0
1.2000000000000002 1.7000000000000002 0.0
1.6 1.7000000000000002 0.0
2.0 1.7000000000000002 0.0
2.4000000000000004 1.7000000000000002 0.0
2.8000000000000003 1.7000000000000002 0.0
3.2 1.7000000000000002 0.0
3.6 1.7000000000000002 0.0
4.0 1.7000000000000002 0.0
4.4 1.7000000000000002 0.0
4.800000000000001 1.7000000000000002 0.0
5.2 1.7000000000000002 0.0
5.6000000000000005 1.7000000000000002 0.0
6.0 1.7000000000000002 0.0
6.4 1.7000000000000002 0.0
6.800000000000001 1.7000000000000002 0.0
7.2 1.7000000000000002 0.0
7.6000000000000005 1.7000000000000002 0.0
8.0 1.7000000000000002 0.0
8.4 1.7000000000000002 0.0
8.8 1.7000000000000002 0.0
9.200000000000001 1.7000000000000002 0.0
9.600000000000001 1.7000000000000002 0.0
10.0 1.7000000000000002 0.0
10.4 1.7000000000000002 0.0
10.8 1.7000000000000002 0.0
11.200000000000001 1.7000000000000002 0.0
11.600000000000001 1.7000000000000002 0.0
12.0 1.7000000000000002 0.0
12.4 1.7000000000000002 0.0
12.8 1.7000000000000002 0.0
13.200000000000001 1.7000000000000002 0.0
13.600000000000001 1.7000000000000002 0.0
14.0 1.7000000000000002 0.0
14.4 1.7000000000000002 0.0
14.8 1.7000000000000002 0.0
15.200000000000001 1.7000000000000002 0.0
15.600000000000001 1.7000000000000002 0.0
16.0 1.7000000000000002 0.0
0.0 1.8 0.0
0.4 1.8 0.0
0.8 1.8 0.0
1.2000000000000002 1.8 0.0
1.6 1.8 0.0
2.0 1.8 0.0
2.4000000000000004 1.8 0.0
2.8000000000000003 1.8 0.0
3.2 1.8 0.0
3.6 1.8 0.0
4.0 1.8 0.0
4.4 1.8 0.0
4.800000000000001 1.8 0.0
5.2 1.8 0.0
5.6000000000000005 1.8 0.0
6.0 1.8 0.0
6.4 1.8 0.0
6.800000000000001 1.8 0.0
7.2 1.8 0.0
7.6000000000000005 1.8 0.0
8.0 1.8 0.0
8.4 1.8 0.0
8.8 1.8 0.0
9.200000000000001 1.8 0.0
9.600000000000001 1.8 0.0
10.0 1.8 0.0
10.4 1.8 0.0
10.8 1.8 0.0
11.200000000000001 1.8 0.0
11.600000000000001 1.8 0.0
12.0 1.8 0.0
12.4 1.8 0.0
12.8 1.8 0.0
13.200000000000001 1.8 0.0
13.600000000000001 1.8 0.0
14.0 1.8 0.0
14.4 1.8 0.0
14.8 1.8 0.0
15.200000000000001 1.8 0.0
15.600000000000001 1.8 0.0
16.0 1.8 0.0
0.0 1.9000000000000001 0.0
0.4 1.9000000000000001 0.0
0.8 1.9000000000000001 0.0
1.2000000000000002 1.9000000000000001 0.0
1.6 1.9000000000000001 0.0
2.0 1.9000000000000001 0.0
2.4000000000000004 1.9000000000000001 0.0
2.8000000000000003 1.9000000000000001 0.0
3.2 1.9000000000000001 0.0
3.6 1.9000000000000001 0.0
4.0 1.9000000000000001 0.0
4.4 1.9000000000000001 0.0
4.800000000000001 1.9000000000000001 0.0
5.2 1.9000000000000001 0.0
5.6000000000000005 1.9000000000000001 0.0
6.0 1.9000000000000001 0.0
6.4 1.9000000000000001 0.0
6.800000000000001 1.9000000000000001 0.0
7.2 1.9000000000000001 0.0
7.6000000000000005 1.9000000000000001 0.0
8.0 1.9000000000000001 0.0
8.4 1.9000000000000001 0.0
8.8 1.9000000000000001 0.0
9.200000000000001 1.9000000000000001 0.0
9.600000000000001 1.9000000000000001 0.0
10.0 1.9000000000000001 0.0
10.4 1.9000000000000001 0.0
10.8 1.9000000000000001 0.0
11.200000000000001 1.9000000000000001 0.0
11.600000000000001 1.9000000000000001 0.0
12.0 1.9000000000000001 0.0
12.4 1.9000000000000001 0.0
12.8 1.9000000000000001 0.0
13.200000000000001 1.9000000000000001 0.0
13.600000000000001 1.9000000000000001 0.0
14.0 1.9000000000000001 0.0
14.4 1.9000000000000001 0.0
14.8 1.9000000000000001 0.0
15.200000000000001 1.9000000000000001 0.0
15.600000000000001 1.9000000000000001 0.0
16.0 1.9000000000000001 0.0
0.0 2.0 0.0
0.4 2.0 0.0
0.8 2.0 0.0
1.2000000000000002 2.0 0.0
1.6 2.0 0.0
2.0 2.0 0.0
2.4000000000000004 2.0 0.0
2.8000000000000003 2.0 0.0
3.2 2.0 0.0
3.6 2.0 0.0
4.0 2.0 0.0
4.4 2.0 0.0
4.800000000000001 2.0 0.0
5.2 2.0 0.0
5.6000000000000005 2.0 0.0
6.0 2.0 0.0
6.4 2.0 0.0
6.800000000000001 2.0 0.0
7.2 2.0 0.0
7.6000000000000005 2.0 0.0
8.0 2.0 0.0
8.4 2.0 0.0
8.8 2.0 0.0
9.200000000000001 2.0 0.0
9.600000000000001 2.0 0.0
10.0 2.0 0.0
10.4 2.0 0.0
10.8 2.0 0.0
11.200000000000001 2.0 0.0
11.600000000000001 2.0 0.0
12.0 2.0 0.0
12.4 2.0 0.0
12.8 2.0 0.0
13.200000000000001 2.0 0.0
13.600000000000001 2.0 0.0
14.0 2.0 0.0
14.4 2.0 0.0
14.8 2.0 0.0
15.200000000000001 2.0 0.0
15.600000000000001 2.0 0.0
16.0 2.0 0.0
CELLS 800 4000
4 0 1 42 41
4 1 2 43 42
4 2 3 44 43
4 3 4 45 44
4 4 5 46 45
4 5 6 47 46
4 6 7 48 47
4 7 8 49 48
4 8 9 50 49
4 9 10 51 50
4 10 11 52 51
4 11 12 53 52
4 12 13 54 53
4 13 14 55 54
4 14 15 56 55
4 15 16 57 56
4 16 17 58 57
4 17 18 59 58
4 18 19 60 59
4 19 20 61 60
4 20 21 62 61
4 21 22 63 62
4 22 23 64 63
4 23 24 65 64
4 24 25 66 65
4 25 26 67 66
4 26 27 68 67
4 27 28 69 68
4 28 29 70 69
4 29 30 71 70
4 30 31 72 71
4 31 32 73 72
4 32 33 74 73
4 33 34 75 74
4 34 35 76 75
4 35 36 77 76
4 36 37 78 77
4 37 38 79 78
4 38 39 80 79
4 39 40 81 80
4 41 42 83 82
4 42 43 84 83
4 43 44 85 84
4 44 45 86 85
4 45 46 87 86
4 46 47 88 87
4 47 48 89 88
4 48 49 90 89
4 49 50 91 90
4 50 51 92 91
4 51 52 93 92
4 52 53 94 93
4 53 54 95 94
4 54 55 96 95
4 55 56 97 96
4 56 57 98 97
4 57 58 99 98
4 58 59 100 99
4 59 60 101 100
4 60 61 102 101
4 61 62 103 102
4 62 63 104 103
4 63 64 105 104
4 64 65 106 105
4 65 66 107 106
4 66 67 108 107
4 67 68 109 108
4 68 69 110 109
4 69 70 111 110
4 70 71 112 111
4 71 72 113 112
4 72 73 114 113
4 73 74 115 114
4 74 75 116 115
4 75 76 117 116
4 76 77 118 117
4 77 78 119 118
4 78 79 120 119
4 79 80 121 120
4 80 81 122 121
4 82 83 124 123
4 83 84 125 124
4 84 85 126 125
4 85 86 127 126
4 86 87 128 127
4 87 88 129 128
4 88 89 130 129
4 89 90 131 130
4 90 91 132 131
4 91 92 133 132
4 92 93 134 133
4 93 94 135 134
4 94 95 136 135
4 95 96 137 136
4 96 97 138 137
4 97 98 139 138
4 98 99 140 139
4 99 100 141 140
4 100 101 142 141
4 101 102 143 142
4 102 103 144 143
4 103 104 145 144
4 104 105 146 145
4 105 106 147 146
4 106 107 148 147
4 107 108 149 148
4 108 109 150 149
4 109 110 151 150
4 110 111 152 151
4 111 112 153 152
4 112 113 154 153
4 113 114 155 154
4 114 115 156 155
4 115 116 157 156
4 116 117 158 157
4 117 118 159 158
4 118 119 160 159
4 119 120 161 160
4 120 121 162 161
4 121 122 163 162
4 123 124 165 164
4 124 125 166 165
4 125 126 167 166
4 126 127 168 167
4 127 128 169 168
4 128 129 170 169
4 129 130 171 170
4 130 131 172 171
4 131 132 173 172
4 132 133 174 173
4 133 134 175 174
4 134 135 176 175
4 135 136 177 176
4 136 137 178 177
4 137 138 179 178
4 138 139 180 179
4 139 140 181 180
4 140 141 182 181
4 141 142 183 182
4 142 143 184 183
4 143 144 185 184
4 144 145 186 185
4 145 146 187 186
4 146 147 188 187
4 147 148 189 188
4 148 149 190 189
4 149 150 191 190
4 150 151 192 191
4 151 152 193 192
4 152 153 194 193
4 153 154 195 194
4 154 155 196 195
4 155 156 197 196
4 156 157 198 197
4 157 158 199 198
4 158 159 200 199
4 159 160 201 200
4 160 161 202 201
4 161 162 203 202
4 162 163 204 203
4 164 165 206 205
4 165 166 207 206
4 166 167 208 207
4 167 168 209 208
4 168 169 210 209
4 169 170 211 210
4 170 171 212 211
4 171 172 213 212
4 172 173 214 213
4 173 174 215 214
4 174 175 216 215
4 175 176 217 216
4 176 177 218 217
4 177 178 219 218
4 178 179 220 219
4 179 180 221 220
4 180 181 222 221
4 181 182 223 222
4 182 183 224 223
4 183 184 225 224
4 184 185 226 225
4 185 186 227 226
4 186 187 228 227
4 187 188 229 228
4 188 189 230 229
4 189 190 231 230
4 190 191 232 231
4 191 192 233 232
4 192 193 234 233
4 193 194 235 234
4 194 195 236 235
4 195 196 237 236
4 196 197 238 237
4 197 198 239 238
4 198 199 240 239
4 199 200 241 240
4 200 201 242 241
4 201 202 243 242
4 202 203 244 243
4 203 204 245 244
4 205 206 247 246
4 206 207 248 247
4 207 208 249 248
4 208 209 250 249
4 209 210 251 250
4 210 211 252 251
4 211 212 253 252
4 212 213 254 253
4 213 214 255 254
4 214 215 256 255
4 215 216 257 256
4 216 217 258 257
4 217 218 259 258
4 218 219 260 259
4 219 220 261 260
4 220 221 262 261
4 221 222 263 262
4 222 223 264 263
4 223 224 265 264
4 224 225 266 265
4 225 226 267 266
4 226 227 268 267
4 227 228 269 268
4 228 229 270 269
4 229 230 271 270
4 230 231 272 271
4 231 232 273 272
4 232 233 274 273
4 233 234 275 274
4 234 235 276 275
4 235 236 277 276
4 236 237 278 277
4 237 238 279 278
4 238 239 280 279
4 239 240 281 280
4 240 241 282 281
4 241 242 283 282
4 242 243 284 283
4 243 244 285 284
4 244 245 286 285
4 246 247 288 287
4 247 248 289 288
4 248 249 290 289
4 249 250 291 290
4 250 251 292 291
4 251 252 293 292
4 252 253 294 293
4 253 254 295 294
4 254 255 296 295
4 255 256 297 296
4 256 257 298 297
4 257 258 299 298
4 258 259 300 299
4 259 260 301 300
4 260 261 302 301
4 261 262 303 302
4 262 263 304 303
4 263 264 305 304
4 264 265 306 305
4 265 266 307 306
4 266 267 308 307
4 267 268 309 308
4 268 269 310 309
4 269 270 311 310
4 270 271 312 311
4 271 272 313 312
4 272 273 314 313
4 273 274 315 314
4 274 275 316 315
4 275 276 317 316
4 276 277 318 317
4 277 278 319 318
4 278 279 320 319
4 279 280 321 320
4 280 281 322 321
4 281 282 323 322
4 282 283 324 323
4 283 284 325 324
4 284 285 326 325
4 285 286 327 326
4 287 288 329 328
4 288 289 330 329
4 289 290 331 330
4 290 291 332 331
4 291 292 333 332
4 292 293 334 333
4 293 294 335 334
4 294 295 336 335
4 295 296 337 336
4 296 297 338 337
4 297 298 339 338
4 298 299 340 339
4 299 300 341 340
4 300 301 342 341
4 301 302 343 342
4 302 303 344 343
4 303 304 345 344
4 304 305 346 345
4 305 306 347 346
4 306 307 348 347
4 307 308 349 348
4 308 309 350 349
4 309 310 351 350
4 310 311 352 351
4 311 312 353 352
4 312 313 354 353
4 313 314 355 354
4 314 315 356 355
4 315 316 357 356
4 316 317 358 357
4 317 318 359 358
4 318 319 360 359
4 319 320 361 360
4 320 321 362 361
4 321 322 363 362
4 322 323 364 363
4 323 324 365 364
4 324 325 366 365
4 325 326 367 366
4 326 327 368 367
4 328 329 370 369
4 329 330 371 370
4 330 331 372 371
4 331 332 373 372
4 332 333 374 373
4 333 334 375 374
4 334 335 376 375
4 335 336 377 376
4 336 337 378 377
4 337 338 379 378
4 338 339 380 379
4 339 340 381 380
4 340 341 382 381
4 341 342 383 382
4 342 343 384 383
4 343 344 385 384
4 344 345 386 385
4 345 346 387 386
4 346 347 388 387
4 347 348 389 388
4 348 349 390 389
4 349 350 391 390
4 350 351 392 391
4 351 352 393 392
4 352 353 394 393
4 353 354 395 394
4 354 355 396 395
4 355 356 397 396
4 356 357 398 397
4 357 358 399 398
4 358 359 400 399
4 359 360 401 400
4 360 361 402 401
4 361 362 403 402
4 362 363 404 403
4 363 364 405 404
4 364 365 406 405
4 365 366 407 406
4 366 367 408 407
4 367 368 409 408
4 369 370 411 410
4 370 371 412 411
4 371 372 413 412
4 372 373 414 413
4 373 374 415 414
4 374 375 416 415
4 375 376 417 416
4 376 377 418 417
4 377 378 419 418
4 378 379 420 419
4 379 380 421 420
4 380 381 422 421
4 381 382 423 422
4 382 383 424 423
4 383 384 425 424
4 384 385 426 425
4 385 386 427 426
4 386 387 428 427
4 387 388 429 428
4 388 389 430 429
4 389 390 431 430
4 390 391 432 431
4 391 392 433 432
4 392 393 434 433
4 393 394 435 434
4 394 395 436 435
4 395 396 437 436
4 396 397 438 437
4 397 398 439 438
4 398 399 440 439
4 399 400 441 440
4 400 401 442 441
4 401 402 443 442
4 402 403 444 443
4 403 404 445 444
4 404 405 446 445
4 405 406 447 446
4 406 407 448 447
4 407 408 449 448
4 408 409 450 449
4 410 411 452 451
4 411 412 453 452
4 412 413 454 453
4 413 414 455 454
4 414 415 456 455
4 415 416 457 456
4 416 417 458 457
4 417 418 459 458
4 418 419 460 459
4 419 420 461 460
4 420 421 462 461
4 421 422 463 462
4 422 423 464 463
4 423 424 465 464
4 424 425 466 465
4 425 426 467 466
4 426 427 468 467
4 427 428 469 468
4 428 429 470 469
4 429 430 471 470
4 430 431 472 471
4 431 432 473 472
4 432 433 474 473
4 433 434 475 474
4 434 435 476 475
4 435 436 477 476
4 436 437 478 477
4 437 438 479 478
4 438 439 480 479
4 439 440 481 480
4 440 441 482 481
4 441 442 483 482
4 442 443 484 483
4 443 444 485 484
4 444 445 486 485
4 445 446 487 486
4 446 447 488 487
4 447 448 489 488
4 448 449 490 489
4 449 450 491 490
4 451 452 493 492
4 452 453 494 493
4 453 454 495 494
4 454 455 496 495
4 455 456 497 496
4 456 457 498 497
4 457 458 499 498
4 458 459 500 499
4 459 460 501 500
4 460 461 502 501
4 461 462 503 502
4 462 463 504 503
4 463 464 505 504
4 464 465 506 505
4 465 466 507 506
4 466 467 508 507
4 467 468 509 508
4 468 469 510 509
4 469 470 511 510
4 470 471 512 511
4 471 472 513 512
4 472 473 514 513
4 473 474 515 514
4 474 475 516 515
4 475 476 517 516
4 476 477 518 517
4 477 478 519 518
4 478 479 520 519
4 479 480 521 520
4 480 481 522 521
4 481 482 523 522
4 482 483 524 523
4 483 484 525 524
4 484 485 526 525
4 485 486 527 526
4 486 487 528 527
4 487 488 529 528
4 488 489 530 529
4 489 490 531 530
4 490 491 532 531
4 492 493 534 533
4 493 494 535 534
4 494 495 536 535
4 495 496 537 536
4 496 497 538 537
4 497 498 539 538
4 498 499 540 539
4 499 500 541 540
4 500 501 542 541
4 501 502 543 542
4 502 503 544 543
4 503 504 545 544
4 504 505 546 545
4 505 506 547 546
4 506 507 548 547
4 507 508 549 548
4 508 509 550 549
4 509 510 551 550
4 510 511 552 551
4 511 512 553 552
4 512 513 554 553
4 513 514 555 554
4 514 515 556 555
4 515 516 557 556
4 516 517 558 557
4 517 518 559 558
4 518 519 560 559
4 519 520 561 560
4 520 521 562 561
4 521 522 563 562
4 522 523 564 563
4 523 524 565 564
4 524 525 566 565
4 525 526 567 566
4 526 527 568 567
4 527 528 569 568
4 528 529 570 569
4 529 530 571 570
4 530 531 572 571
4 531 532 573 572
4 533 534 575 574
4 534 535 576 575
4 535 536 577 576
4 536 537 578 577
4 537 538 579 578
4 538 539 580 579
4 539 540 581 580
4 540 541 582 581
4 541 542 583 582
4 542 543 584 583
4 543 544 585 584
4 544 545 586 585
4 545 546 587 586
4 546 547 588 587
4 547 548 589 588
4 548 549 590 589
4 549 550 591 590
4 550 551 592 591
4 551 552 593 592
4 552 553 594 593
4 553 554 595 594
4 554 555 596 595
4 555 556 597 596
4 556 557 598 597
4 557 558 599 598
4 558 559 600 599
4 559 560 601 600
4 560 561 602 601
4 561 562 603 602
4 562 563 604 603
4 563 564 605 604
4 564 565 606 605
4 565 566 607 606
4 566 567 608 607
4 567 568 609 608
4 568 569 610 609
4 569 570 611 610
4 570 571 612 611
4 571 572 613 612
4 572 573 614 613
4 574 575 616 615
4 575 576 617 616
4 576 577 618 617
4 577 578 619 618
4 578 579 620 619
4 579 580 621 620
4 580 581 622 621
4 581 582 623 622
4 582 583 624 623
4 583 584 625 624
4 584 585 626 625
4 585 586 627 626
4 586 587 628 627
4 587 588 629 628
4 588 589 630 629
4 589 590 631 630
4 590 591 632 631
4 591 592 633 632
4 592 593 634 633
4 593 594 635 634
4 594 595 636 635
4 595 596 637 636
4 596 597 638 637
4 597 598 639 638
4 598 599 640 639
4 599 600 641 640
4 600 601 642 641
4 601 602 643 642
4 602 603 644 643
4 603 604 645 644
4 604 605 646 645
4 605 606 647 646
4 606 607 648 647
4 607 608 649 648
4 608 609 650 649
4 609 610 651 650
4 610 611 652 651
4 611 612 653 652
4 612 613 654 653
4 613 614 655 654
4 615 616 657 656
4 616 617 658 657
4 617 618 659 658
4 618 619 660 659
4 619 620 661 660
4 620 621 662 661
4 621 622 663 662
4 622 623 664 663
4 623 624 665 664
4 624 625 666 665
4 625 626 667 666
4 626 627 668 667
4 627 628 669 668
4 628 629 670 669
4 629 630 671 670
4 630 631 672 671
4 631 632 673 672
4 632 633 674 673
4 633 634 675 674
4 634 635 676 675
4 635 636 677 676
4 636 637 678 677
4 637 638 679 678
4 638 639 680 679
4 639 640 681 680
4 640 641 682 681
4 641 642 683 682
4 642 643 684 683
4 643 644 685 684
4 644 645 686 685
4 645 646 687 686
4 646 647 688 687
4 647 648 689 688
4 648 649 690 689
4 649 650 691 690
4 650 651 692 691
4 651 652 693 692
4 652 653 694 693
4 653 654 695 694
4 654 655 696 695
4 656 657 698 697
4 657 658 699 698
4 658 659 700 699
4 659 660 701 700
4 660 661 702 701
4 661 662 703 702
4 662 663 704 703
4 663 664 705 704
4 664 665 706 705
4 665 666 707 706
4 666 667 708 707
4 667 668 709 708
4 668 669 710 709
4 669 670 711 710
4 670 671 712 711
4 671 672 713 712
4 672 673 714 713
4 673 674 715 714
4 674 675 716 715
4 675 676 717 716
4 676 677 718 717
4 677 678 719 718
4 678 679 720 719
4 679 680 721 720
4 680 681 722 721
4 681 682 723 722
4 682 683 724 723
4 683 684 725 724
4 684 685 726 725
4 685 686 727 726
4 686 687 728 727
4 687 688 729 728
4 688 689 730 729
4 689 690 731 730
4 690 691 732 731
4 691 692 733 732
4 692 693 734 733
4 693 694 735 734
4 694 695 736 735
4 695 696 737 736
4 697 698 739 738
4 698 699 740 739
4 699 700 741 740
4 700 701 742 741
4 701 702 743 742
4 702 703 744 743
4 703 704 745 744
4 704 705 746 745
4 705 706 747 746
4 706 707 748 747
4 707 708 749 748
4 708 709 750 749
4 709 710 751 750
4 710 711 752 751
4 711 712 753 752
4 712 713 754 753
4 713 714 755 754
4 714 715 756 755
4 715 716 757 756
4 716 717 758 757
4 717 718 759 758
4 718 719 760 759
4 719 720 761 760
4 720 721 762 761
4 721 722 763 762
4 722 723 764 763
4 723 724 765 764
4 724 725 766 765
4 725 726 767 766
4 726 727 768 767
4 727 728 769 768
4 728 729 770 769
4 729 730 771 770
4 730 731 772 771
4 731 732 773 772
4 732 733 774 773
4 733 734 775 774
4 734 735 776 775
4 735 736 777 776
4 736 737 778 777
4 738 739 780 779
4 739 740 781 780
4 740 741 782 781
4 741 742 783 782
4 742 743 784 783
4 743 744 785 784
4 744 745 786 785
4 745 746 787 786
4 746 747 788 787
4 747 748 789 788
4 748 749 790 789
4 749 750 791 790
4 750 751 792 791
4 751 752 793 792
4 752 753 794 793
4 753 754 795 794
4 754 755 796 795
4 755 756 797 796
4 756 757 798 797
4 757 758 799 798
4 758 759 800 799
4 759 760 801 800
4 760 761 802 801
4 761 762 803 802
4 762 763 804 803
4 763 764 805 804
4 764 765 806 805
4 765 766 807 806
4 766 767 808 807
4 767 768 809 808
4 768 769 810 809
4 769 770 811 810
4 770 771 812 811
4 771 772 813 812
4 772 773 814 813
4 773 774 815 814
4 774 775 816 815
4 775 776 817 816
4 776 777 818 817
4 777 778 819 818
4 779 780 821 820
4 780 781 822 821
4 781 782 823 822
4 782 783 824 823
4 783 784 825 824
4 784 785 826 825
4 785 786 827 826
4 786 787 828 827
4 787 788 829 828
4 788 789 830 829
4 789 790 831 830
4 790 791 832 831
4 791 792 833 832
4 792 793 834 833
4 793 794 835 834
4 794 795 836 835
4 795 796 837 836
4 796 797 838 837
4 797 798 839 838
4 798 799 840 839
4 799 800 841 840
4 800 801 842 841
4 801 802 843 842
4 802 803 844 843
4 803 804 845 844
4 804 805 846 845
4 805 806 847 846
4 806 807 848 847
4 807 808 849 848
4 808 809 850 849
4 809 810 851 850
4 810 811 852 851
4 811 812 853 852
4 812 813 854 853
4 813 814 855 854
4 814 815 856 855
4 815 816 857 856
4 816 817 858 857
4 817 818 859 858
4 818 819 860 859
CELL_TYPES 800
9
9
9
9
9
9
9
9
9
9
9
9
9
9
9
9
9
9
9
9
9
9
9
9
9
9
9
9
9
9
9
9
9
9
9
9
9
9
9
9
9
9
9
9
9
9
9
9
9
9
9
9
9
9
9
9
9
9
9
9
9
9
9
9
9
9
9
9
9
9
9
9
9
9
9
9
9
9
9
9
9
9
9
9
9
9
9
9
9
9
9
9
9
9
9
9
9
9
9
9
9
9
9
9
9
9
9
9
9
9
9
9
9
9
9
9
9
9
9
9
9
9
9
9
9
9
9
9
9
9
9
9
9
9
9
9
9
9
9
9
9
9
9
9
9
9
9
9
9
9
9
9
9
9
9
9
9
9
9
9
9
9
9
9
9
9
9
9
9
9
9
9
9
9
9
9
9
9
9
9
9
9
9
9
9
9
9
9
9
9
9
9
9
9
9
9
9
9
9
9
9
9
9
9
9
9
9
9
9
9
9
9
9
9
9
9
9
9
9
9
9
9
9
9
9
9
9
9
9
9
9
9
9
9
9
9
9
9
9
9
9
9
9
9
9
9
9
9
9
9
9
9
9
9
9
9
9
9
9
9
9
9
9
9
9
9
9
9
9
9
9
9
9
9
9
9
9
9
9
9
9
9
9
9
9
9
9
9
9
9
9
9
9
9
9
9
9
9
9
9
9
9
9
9
9
9
9
9
9
9
9
9
9
9
9
9
9
9
9
9
9
9
9
9
9
9
9
9
9
9
9
9
9
9
9
9
9
9
9
9
9
9
9
9
9
9
9
9
9
9
9
9
9
9
9
9
9
9
9
9
9
9
9
9
9
9
9
9
9
9
9
9
9
9
9
9
9
9
9
9
9
9
9
9
9
9
9
9
9
9
9
9
9
9
9
9
9
9
9
9
9
9
9
9
9
9
9
9
9
9
9
9
9
9
9
9
9
9
9
9
9
9
9
9
9
9
9
9
9
9
9
9
9
9
9
9
9
9
9
9
9
9
9
9
9
9
9
9
9
9
9
9
9
9
9
9
9
9
9
9
9
9
9
9
9
9
9
9
9
9
9
9
9
9
9
9
9
9
9
9
9
9
9
9
9
9
9
9
9
9
9
9
9
9
9
9
9
9
9
9
9
9
9
9
9
9
9
9
9
9
9
9
9
9
9
9
9
9
9
9
9
9
9
9
9
9
9
9
9
9
9
9
9
9
9
9
9
9
9
9
9
9
9
9
9
9
9
9
9
9
9
9
9
9
9
9
9
9
9
9
9
9
9
9
9
9
9
9
9
9
9
9
9
9
9
9
9
9
9
9
9
9
9
9
9
9
9
9
9
9
9
9
9
9
9
9
9
9
9
9
9
9
9
9
9
9
9
9
9
9
9
9
9
9
9
9
9
9
9
9
9
9
9
9
9
9
9
9
9
9
9
9
9
9
9
9
9
9
9
9
9
9
9
9
9
9
9
9
9
9
9
9
9
9
9
9
9
9
9
9
9
9
9
9
9
9
9
9
9
9
9
9
9
9
9
9
9
9
9
9
9
9
9
9
9
9
9
9
9
9
9
9
9
9
9
9
9
9
9
9
9
9
9
9
9
9
9
9
9
9
9
9
9
9
9
9
9
9
9
9
9
9
9
9
9
9
9
9
9
9
9
9
9
9
9
9
9
9
9
9
9
9
9
9
9
9
9
9
9
9
9
9
9
9
9
9
9
9
9
9
9
9
9
9
9
9
9
9
9
9
9
9
9
9
9
9
9
9
9
9
9
9
9
9
9
9
9
9
9
9
9
9
9
9
9
9
9
9
9
9
POINT_DATA 861
SCALARS Disp float 2
LOOKUP_TABLE default
0.0 0.0
0.006545301265009461 -0.3308158366710085
0.008073296721973641 -0.6513744415730752
0.008901829825758538 -0.9706736180928789
0.01003386888247296 -1.2895328026831887
0.01202537881130434 -1.6074143516466148
0.01571437165845985 -1.9235909130839295
0.022152885093701332 -2.237144030522553
0.03258378352862268 -2.5469123505335842
0.04835436777512742 -2.8513547766005853
0.07078901906597194 -3.148377347910622
0.10110018816000453 -3.4352622993397777
0.14034893452494945 -3.7087377230272316
0.1894318735552178 -3.965128838143999
0.2490662350516719 -4.200459558990904
0.31971434316996344 -4.410546331883809
0.40146113770943537 -4.591127578125389
0.4938797408595748 -4.738062069731297
0.5959282982338328 -4.847616930404287
0.7059213152090332 -4.916728567513777
0.821206902973189 -4.943387006218666
0.9364924907373393 -4.916728567513622
1.046485507712517 -4.847616930403969
1.1485340650867346 -4.738062069730837
1.2409526682368222 -4.591127578124815
1.3226994627762383 -4.410546331883154
1.3933475708944725 -4.200459558990186
1.4529819323908715 -3.965128838143239
1.5020648714210822 -3.7087377230264527
1.5413136177859734 -3.4352622993390054
1.5716247868799584 -3.1483773479098773
1.594059438170763 -2.8513547765998846
1.6098300224172364 -2.5469123505329376
1.6202609208521355 -2.2371440305219714
1.626699434287362 -1.9235909130834172
1.6303884271345077 -1.6074143516461814
1.6323799370633347 -1.2895328026828343
1.6335119761200478 -0.9706736180926089
1.6343405092238323 -0.6513744415728875
1.6358685046807946 -0.3308158366709063
1.6424138059458009 0.0
0.08251349090440499 -0.00267473366640745
0.08716805290449854 -0.3311557538478255
0.08794952501263884 -0.6514404284964752
0.08867632608721253 -0.9707706119529874
0.08965585782856646 -1.289714029541892
0.09133254017128517 -1.6078455223951684
0.09449513345231664 -1.9245081111937992
0.10013642234453814 -2.2388300955087255
0.10941997848571156 -2.549683090839815
0.12357195208550471 -2.8555304570525326
0.14377294362351478 -3.154257804563513
0.1710912564236921 -3.4431147988858255
0.20646879502421125 -3.7187943076259393
0.25071846801448056 -3.9775836936684805
0.3044932492591294 -4.215459031732101
0.3682254618265316 -4.428165259591462
0.4420211516419355 -4.6113375150529885
0.5255401733490589 -4.760701114840591
0.6178830325861163 -4.872365048351206
0.7174037374285571 -4.943073772847953
0.82120690297317 -4.970397975100756
0.925010068517777 -4.943073772847794
1.024530773360197 -4.872365048350881
1.1168736325972188 -4.760701114840121
1.2003926543042973 -4.611337515052402
1.274188344119651 -4.428165259590794
1.3379205566870023 -4.21545903173137
1.3916953379316006 -3.977583693667707
1.4359450109218184 -3.718794307625147
1.4713225495222895 -3.443114798885041
1.4986408623224237 -3.1542578045627576
1.5188418538603976 -2.855530457051824
1.5329938274601629 -2.5496830908391623
1.5422773836013155 -2.238830095508139
1.5479186724935232 -1.9245081111932838
1.5510812657745465 -1.6078455223947337
1.5527579481172618 -1.2897140295415375
1.5537374798586148 -0.9707706119527174
1.5544642809331881 -0.6514404284962872
1.5552457530413282 -0.33115575384772283
1.5599003150414155 -0.0026747336664048878
0.16395062470033778 -0.0048184300706609964
0.16740332475250427 -0.33132854628207886
0.16784510529840257 -0.6514703160632425
0.16843473212675253 -0.9708549780110501
0.1692742397849348 -1.2898553161909256
0.1706676553035039 -1.6081870602651984
0.1733186629628146 -1.9252718421546224
0.1781653722227501 -2.240283662748938
0.18627940016323552 -2.552118011574989
0.1987693518950402 -2.8592345314617793
0.21667974712528934 -3.159495537508277
0.24094542390960863 -3.4501207481984824
0.27239045164067094 -3.727774555644143
0.3117339040918075 -3.9887140275938706
0.359569455114608 -4.228873853478457
0.4163048286621383 -4.443938607913268
0.4820813338485896 -4.629456102768273
0.5566591879285652 -4.78103278094923
0.6392542402462124 -4.894619671471417
0.7282769462765185 -4.966720013193413
0.8212069029731516 -4.9946338067205724
0.9141368596697784 -4.9667200131932505
1.0031595657000658 -4.8946196714710855
1.0857546180176816 -4.781032780948751
1.1603324720976185 -4.629456102767676
1.2261089772840257 -4.443938607912589
1.2828443508315102 -4.228873853477714
1.3306799018542652 -3.9887140275930846
1.3700233543053564 -3.727774555643339
1.401468382036376 -3.4501207481976874
1.4257340588206568 -3.1594955375075124
1.4436444540508742 -2.859234531461063
1.4561344057826535 -2.552118011574331
1.4642484337231203 -2.240283662748348
1.4690951429830437 -1.9252718421541049
1.4717461506423477 -1.6081870602647623
1.473139566160914 -1.2898553161905708
1.4739790738190957 -0.97085497801078
1.4745687006474455 -0.6514703160630546
1.4750104811933438 -0.3313285462819758
1.4784631812455042 -0.004818430070655521
0.2448146982747874 -0.00655138841216252
0.2474502322684097 -0.3314459451922752
0.24771743654417133 -0.651486074150284
0.24817723567319905 -0.9709213644311813
0.2488847331216733 -1.2899665109617244
0.25002792366504495 -1.608448762857665
0.25219664805849146 -1.925887121817155
0.25625882107776676 -2.241505185016522
0.2631952246627544 -2.554211872341473
0.27399842481082637 -2.862457897654568
0.28958244385039333 -3.164079331113125
0.31075311800615607 -3.4562685531360544
0.33822073598792846 -3.735665934284497
0.37260984249632434 -3.998504670973844
0.4144465456802012 -4.240687260091429
0.4641210451940589 -4.457850026320182
0.5218139545047548 -4.645469472176422
0.5873819394950659 -4.799045707071366
0.660171905598731 -4.9143691794350755
0.738821290109465 -4.987732701601243
0.8212069029731334 -5.016241195839867
0.903592515836796 -4.987732701601076
0.9822419003475131 -4.914369179434737
1.0550318664511513 -4.799045707070879
1.1205998514414284 -4.645469472175815
1.178292760752086 -4.45785002631949
1.227967260265903 -4.240687260090675
1.26980396344974 -3.9985046709730474
1.3041930699580964 -3.735665934283683
1.3316606879398314 -3.45626855313525
1.3528313620955605 -3.1640793311123527
1.3684153811350996 -2.862457897653845
1.3792185812831497 -2.55421187234081
1.3861549848681205 -2.2415051850159284
1.3902171578873854 -1.9258871218166354
1.3923858822808266 -1.6084487628572282
1.3935290728241958 -1.2899665109613692
1.3942365702726698 -0.9709213644309109
1.3946963694016976 -0.6514860741500963
1.3949635736774593 -0.33144594519217174
1.397599107671076 -0.006551388412154341
0.32535380913018297 -0.007958751955724723
0.3273721339763719 -0.3315361211558795
0.3275454926246505 -0.6514949607293772
0.3278972236322734 -0.9709721622374132
0.328483260552959 -1.2900538047059482
0.3294061636881678 -1.6086443280875067
0.3311374587332526 -1.9263633580909107
0.33443441887689696 -2.242497846356625
0.3402009262196207 -2.5559640922342126
0.34931053343965657 -2.8651964564484413
0.3625517993359607 -3.168003278012035
0.38060551610089616 -3.4615509056700975
0.40406773386707917 -3.742460345682196
0.4334710984951282 -4.00694671550965
0.46927799134918763 -4.250888282228436
0.5118479595258316 -4.469886316975337
0.5613938615478672 -4.659361772208257
0.6178736167548157 -4.814722381688211
0.6808198506274337 -4.931617352606342
0.7491691924238019 -5.0061614412832585
0.8212069029731156 -5.035297939658603
0.893244613522424 -5.006161441283089
0.9615939553187768 -4.9316173526060005
1.0245401891913717 -4.814722381687717
1.081019944398291 -4.659361772207642
1.1305658464202935 -4.469886316974637
1.173135814596902 -4.250888282227673
1.2089427074509278 -4.006946715508844
1.2383460720789425 -3.7424603456813736
1.2618082898450935 -3.4615509056692852
1.2798620066100008 -3.168003278011255
1.293103272506281 -2.8651964564477126
1.3022128797262977 -2.555964092233545
1.3079793870690075 -2.242497846356028
1.3112763472126432 -1.9263633580903896
1.3130076422577237 -1.6086443280870693
1.3139305453929309 -1.290053804705593
1.3145165823136165 -0.970972162237143
1.314868313321239 -0.6514949607291897
1.315041671969518 -0.3315361211557757
1.3170599968157022 -0.007958751955714164
0.4056794870532331 -0.009095126622800143
0.4072076185350157 -0.3316082193336106
0.40732702686796174 -0.6515016409039447
0.40759075269184075 -0.971009838030887
0.4080632429484882 -1.2901224088493517
0.4087963109259611 -1.6087871267088556
0.41013543147888987 -1.9267155860007705
0.4127159987435646 -2.243268957279626
0.41732987102937363 -2.557378087435552
0.4247565305030771 -2.8674511725243326
0.43565772322005625 -3.1712663876066074
0.4505914076661352 -3.465965729059591
0.47004190328446993 -3.7481546219850754
0.49444919235856966 -4.014036235297552
0.5242102514252456 -4.259472397034345
0.5596561319939325 -4.480039001058175
0.6010103594840034 -4.6711173818804905
0.6483275304632082 -4.828046101340752
0.7013689550331165 -4.94636277233957
0.7594251429020332 -5.02203223722903
0.8212069029730977 -5.051850280012562
0.8829886630441577 -5.022032237228857
0.941044850913061 -4.946362772339223
0.9940862754829497 -4.828046101340251
1.0414034464621298 -4.671117381879869
1.0827576739521723 -4.480039001057467
1.1182035545208304 -4.259472397033574
1.1479646135874775 -4.014036235296739
1.1723719026615487 -3.7481546219842454
1.1918223982798573 -3.4659657290587718
1.206756082725913 -3.171266387605822
1.2176572754428718 -2.867451172523599
1.2250839349165594 -2.557378087434881
1.2296978072023572 -2.2432689572790263
1.2322783744670247 -1.926715586000248
1.2336174950199505 -1.6087871267084177
1.2343505629974225 -1.2901224088489969
1.2348230532540696 -0.9710098380306168
1.235086779077949 -0.6515016409037572
1.2352061874108948 -0.33160821933350654
1.2367343188926736 -0.009095126622787574
0.48584899313938457 -0.010002204298167658
0.486982625913032 -0.3316660359462028
0.48706785078317394 -0.651508434970191
0.48725757530938324 -0.9710360754952736
0.48762108563493783 -1.2901758373963164
0.4881892589410564 -1.6088895927430467
0.489182427424578 -1.9269624639139544
0.49110542293541337 -2.243834628417556
0.4946179032564104 -2.558462025128275
0.5003877038347186 -2.8692277717870938
0.5089703967252488 -3.1738730185671407
0.5208012078177097 -3.4695162684011027
0.5362533496034242 -3.7527512144287223
0.555675087612321 -4.019774951284307
0.5793983346286593 -4.266439959430471
0.6077169349096474 -4.488305404533156
0.640857369009569 -4.680726034097524
0.6789544033193395 -4.838999533987424
0.7220010786191251 -4.95859206208713
0.7696908597686043 -5.035348136467872
0.8212069029730797 -5.065918888336917
0.8727229461775512 -5.0353481364676975
0.9204127273270192 -4.95859206208678
0.9634594026267889 -4.838999533986919
1.0015564369365384 -4.680726034096896
1.0346968710364373 -4.488305404532442
1.063015471317402 -4.266439959429693
1.086738718333717 -4.0197749512834875
1.1061604563425915 -3.7527512144278865
1.1216125981282856 -3.469516268400278
1.133443409220728 -3.1738730185663506
1.1420261021112421 -2.8692277717863566
1.1477959026895375 -2.5584620251276013
1.151308383010526 -2.2438346284169546
1.153231378521356 -1.926962463913431
1.1542245470048753 -1.6088895927426086
1.1547927203109933 -1.2901758373959613
1.155156230636548 -0.9710360754950033
1.1553459551627574 -0.6515084349700034
1.1554311800328994 -0.33166603594609856
1.1565648128065438 -0.010002204298153397
0.5658997687348599 -0.010713840890411113
0.5667163291492564 -0.3317123832793336
0.5667764091662842 -0.6515158162064454
0.5668999119726966 -0.9710521133052001
0.5671563138811188 -1.2902154813672784
0.5675744200910895 -1.6089620315526738
0.5682724867814752 -1.9271238363895564
0.5696019669458149 -2.244217218477073
0.5720854058410929 -2.559233380514067
0.5762575158298214 -2.8705378206414807
0.5825618221543492 -3.175832851079876
0.591324965803425 -3.472211504333459
0.6028145491942318 -3.756258781804636
0.6172838944660194 -4.024170538936551
0.6349943723708014 -4.271797315912635
0.6562056222197887 -4.494689285510761
0.6811399818417915 -4.688184648850837
0.7099772253698259 -4.8475665831082
0.7429155395324674 -4.968278576963958
0.7800799727211062 -5.046087245260562
0.821206902973061 -5.077499023378562
0.8623338332250129 -5.046087245260386
0.8994982664136429 -4.968278576963605
0.9324365805762723 -4.847566583107691
0.9612738241042906 -4.688184648850204
0.9862081837262758 -4.494689285510041
1.0074194335752453 -4.2717973159118525
1.0251299114800096 -4.024170538935727
1.0395992567517818 -3.756258781803796
1.0510888401425735 -3.4722115043326305
1.0598519837916351 -3.175832851079082
1.0661562901161514 -2.8705378206407404
1.0703284001048705 -2.55923338051339
1.0728118390001422 -2.24421721847647
1.0741413191644784 -1.9271238363890322
1.0748393858548626 -1.6089620315522357
1.0752574920648332 -1.290215481366923
1.0755138939732554 -0.9710521133049298
1.0756373967796677 -0.6515158162062579
1.0756974767966956 -0.33171238327922925
1.07651403721109 -0.010713840890395496
0.6458554067696828 -0.011261422394758379
0.6464260742542614 -0.3317498622299615
0.6464604442199362 -0.6515229382552273
0.6465214225238199 -0.9710588744096013
0.6466722972278148 -1.2902410471922177
0.6469443139213279 -1.6090110916901261
0.6473887773615499 -1.9272212880742143
0.6482022821339156 -2.2444452000165636
0.6497442478460537 -2.559719252685774
0.6524062426414791 -2.8714028716124753
0.6565040786697187 -3.177162751293178
0.6622588729067781 -3.4740672296423156
0.6698404018016891 -3.758693041950496
0.6794123304498582 -4.027238035401095
0.6911595080213595 -4.275557090507993
0.7052970904111273 -4.499201224357302
0.7220537631208093 -4.693500814839055
0.7416429721248149 -4.853737595746882
0.7643579054562685 -4.975383790976573
0.7907368118685811 -5.054198833073066
0.8212069029730419 -5.086557134416811
0.8516769940775004 -5.054198833072888
0.8780559004898075 -4.975383790976217
0.9007708338212526 -4.853737595746369
0.9203600428252466 -4.69350081483842
0.9371167155349165 -4.499201224356578
0.9512542979246724 -4.275557090507206
0.9630014754961626 -4.027238035400268
0.9725734041443226 -3.7586930419496527
0.9801549330392236 -3.4740672296414834
0.9859097272762738 -3.177162751292382
0.990007563304506 -2.871402871611733
0.9926695580999257 -2.5597192526850967
0.9942115238120601 -2.2444452000159596
0.9950250285844237 -1.92722128807369
0.9954694920246451 -1.6090110916896878
0.995741508718158 -1.2902410471918624
0.9958923834221529 -0.971058874409331
0.9959533617260368 -0.6515229382550397
0.9959877316917114 -0.33174986222985703
0.9965583991762885 -0.011261422394741746
0.7257337714319745 -0.011675649913009569
0.7261234625771747 -0.33178163604315786
0.7261273821490141 -0.651527896778361
0.7261261471236127 -0.9710570699767218
0.726174249948018 -1.2902519903744696
0.7262967768042361 -1.6090390139786155
0.7265129241827782 -1.9272731874875264
0.7268905988978412 -2.2445546886209673
0.7275985392755944 -2.5599597695326617
0.7288635203024935 -2.8718584530781417
0.7308572597317303 -3.177892724747985
0.7336919272175242 -3.475110082655021
0.737441220514654 -3.7600794630598564
0.7421875544679929 -4.029002858989866
0.7480403176281494 -4.2777424301440705
0.7551556602571008 -4.501859402907792
0.763758351445249 -4.696691513960141
0.774133987560382 -4.857523735943539
0.7866156109017324 -4.979872456004134
0.8018813878386226 -5.059596753401435
0.8212069029730222 -5.093019157487906
0.8405324181074206 -5.059596753401256
0.8557981950443089 -4.979872456003776
0.8682798183856543 -4.857523735943023
0.8786554545007799 -4.696691513959503
0.8872581456889223 -4.501859402907066
0.8943734883178684 -4.277742430143283
0.9002262514780204 -4.029002858989037
0.904972585431356 -3.7600794630590118
0.9087218787284814 -3.4751100826541865
0.9115565462142714 -3.1778927247471875
0.9135502856435052 -2.871858453077398
0.9148152666704019 -2.559959769531983
0.9155232070481535 -2.244554688620363
0.9159008817632155 -1.927273187487002
0.9161170291417574 -1.6090390139781776
0.9162395559979755 -1.2902519903741143
0.916287658822381 -0.9710570699764517
0.9162864237969797 -0.6515278967781732
0.9162903433688188 -0.3317816360430535
0.916680034514018 -0.01167564991299212
0.8055538229701997 -0.011983454765955661
0.8058145452273545 -0.33181127739707894
0.8057826658744869 -0.6515284822439066
0.8057189843338637 -0.9710470915184714
0.8056667383184496 -1.2902482689625974
0.8056395408526372 -1.609045243471104
0.8056283234427161 -1.927289204570663
0.8056235879067954 -2.2445852875569976
0.8056214726033502 -2.560020216510498
0.8056209690402408 -2.871972945506105
0.8056208559436338 -3.1780840737360414
0.8056176672267922 -3.4753956556725543
0.8056043623241096 -3.760471530599442
0.8055817600706899 -4.02951659155202
0.8055802364701135 -4.278402075573035
0.8056981379948258 -4.5027060636186835
0.8061488612737516 -4.697791767644772
0.8073059445574157 -4.8589690120842395
0.8096610435723467 -4.981770971360726
0.8137690031885997 -5.062189662043964
0.8212069029730017 -5.096754722065424
0.828644802757404 -5.062189662043784
0.8327527623736568 -4.981770971360368
0.8351078613885865 -4.858969012083723
0.8362649446722499 -4.697791767644134
0.8367156679511768 -4.502706063617958
0.8368335694758909 -4.278402075572245
0.8368320458753155 -4.029516591551191
0.8368094436218984 -3.7604715305985965
0.8367961387192177 -3.4753956556717203
0.8367929500023782 -3.178084073735243
0.8367928369057721 -2.8719729455053615
0.8367923333426635 -2.5600202165098196
0.8367902180392185 -2.244585287556393
0.836785482503298 -1.9272892045701389
0.8367742650933769 -1.609045243470666
0.8367470676275648 -1.2902482689622423
0.8366948216121509 -0.9710470915182013
0.8366311400715276 -0.6515284822437187
0.8365992607186599 -0.3318112773969747
0.8368599829758142 -0.011983454765937625
0.885327503370308 -0.012211654246540474
0.8854983285604259 -0.33184085400513114
0.8854311404622323 -0.651523362464909
0.8853054489133537 -0.9710291148860539
0.8851554801443943 -1.290230183154773
0.8849806641310097 -1.6090294660700608
0.8847423639533493 -1.9272706074947938
0.8843547960047801 -2.2445536185726045
0.8836432828123046 -2.5599593590278005
0.8823782315658087 -2.8718583867072063
0.8803842154761159 -3.177892157922765
0.8775413807050163 -3.4751061952386073
0.8737650840864974 -3.7600703313763413
0.8689763465949659 -4.028993983264892
0.8631277119021273 -4.277760836285255
0.8562567433869774 -4.501973917034796
0.8485461085498045 -4.697034330215136
0.8403804143709449 -4.858298480045165
0.8323171235687237 -4.9813004150759825
0.8251652977631532 -5.0620920518202155
0.8212069029729807 -5.097838674518584
0.8172485081828071 -5.062092051820037
0.8100966823772379 -4.981300415075623
0.8020333915750215 -4.85829848004465
0.793867697396169 -4.697034330214497
0.7861570625590049 -4.501973917034071
0.7792860940438627 -4.2777608362844655
0.7734374593510311 -4.028993983264065
0.7686487218595082 -3.760070331375498
0.7648724252409974 -3.4751061952377738
0.7620295904699055 -3.177892157921968
0.7600355743802183 -2.871858386706463
0.758770523133726 -2.559959359027122
0.7580590099412531 -2.2445536185720005
0.757671441992685 -1.9272706074942696
0.757433141815025 -1.6090294660696227
0.7572583258016408 -1.2902301831544178
0.7571083570326815 -0.971029114885784
0.756982665483803 -0.6515233624647212
0.7569154773856096 -0.3318408540050269
0.757086302575727 -0.012211654246522152
0.9650645430790409 -0.01238359518359965
0.9651753443661182 -0.3318694925913307
0.9650767485812526 -0.6515126581615448
0.9648913335823033 -0.9710032501648003
0.9646470026744761 -1.290198323330712
0.9643281640494946 -1.608992027676507
0.9638610789965093 -1.9272156289960705
0.9630391579825096 -2.2444427601316272
0.9614962408177784 -2.5597186321448215
0.9588354419414056 -2.871402857201054
0.9547364134529673 -3.1771611262006294
0.9489729495988786 -3.4740591079986833
0.9413685401280948 -3.7586751129549194
0.9317645020230675 -4.027221933523831
0.9200351465661395 -4.275597657168023
0.9061490382333599 -4.499435887944595
0.8902526085161184 -4.694185675794724
0.8727238522080094 -4.85525884384606
0.8542413682896692 -4.978252191041964
0.8361488093631344 -5.059428121932807
0.8212069029729606 -5.096453493219524
0.8062649965827863 -5.059428121932629
0.7881724376562556 -4.978252191041606
0.7696899537379236 -4.855258843845546
0.7521611974298277 -4.694185675794089
0.7362647677126016 -4.499435887943874
0.7223786593798363 -4.2755976571672365
0.7106493039229212 -4.0272219335230055
0.7010452658179083 -3.7586751129540783
0.6934408563471383 -3.474059107997853
0.6876773924930623 -3.1771611261998345
0.6835783640046347 -2.8714028572003123
0.6809175651282688 -2.559718632144144
0.679374647963542 -2.2444427601310237
0.6785527269495449 -1.9272156289955464
0.6780856418965608 -1.6089920276760692
0.6777668032715796 -1.2901983233303569
0.6775224723637527 -0.9710032501645303
0.6773370573648034 -0.651512658161357
0.6772384615799381 -0.3318694925912265
0.6773492628670152 -0.012383595183581144
1.0447819996769983 -0.012511790299139366
1.0448499261764397 -0.331895481181832
1.0447240561240487 -0.6514970619500233
1.044482320166991 -0.9709697924593574
1.044147418638007 -1.2901535253844174
1.043688638292847 -1.6089333071011445
1.0429698971786971 -1.9271144162348994
1.0416359940270785 -2.244214043535019
1.0391550261959175 -2.559233116846717
1.0349839972949917 -2.8705377193754504
1.0286771562203163 -3.1758299087582107
1.0199069128627505 -3.472199953034139
1.0084053504112167 -3.7562350010667998
0.9939263805455968 -4.024151745416889
0.9762546467446634 -4.271862617537683
0.955274482335265 -4.495035950830637
0.931070388296439 -4.689177966282836
0.9040470344747942 -4.849779653337891
0.8751451774622555 -4.972578842293708
0.8462398825702904 -5.054103889071291
0.8212069029729407 -5.092687252662275
0.7961739233755927 -5.054103889071113
0.7672686284836338 -4.972578842293352
0.7383667714711071 -4.849779653337381
0.71134341764948 -4.689177966282205
0.687139323610675 -4.4950359508299185
0.6661591592012968 -4.271862617536899
0.6484874254003832 -4.0241517454160665
0.6340084555347834 -3.7562350010659635
0.622506893083269 -3.4721999530333125
0.613736649725721 -3.175829908757419
0.6074298086510607 -2.870537719374711
0.6032587797501455 -2.559233116846041
0.6007778119189916 -2.244214043534416
0.599443908767377 -1.9271144162343758
0.5987251676532288 -1.6089333071007066
0.5982663873080694 -1.2901535253840621
0.5979314857790856 -0.9709697924590873
0.5976897498220283 -0.6514970619498355
0.5975638797696373 -0.3318954811817277
0.5976318062690789 -0.012511790299120711
1.1244952792385594 -0.012603340533559675
1.124528066650587 -0.33191733051437844
1.1243774723129465 -0.6514770843304032
1.1240832156193417 -0.9709293027916669
1.1236622070357547 -1.2900968484786393
1.1230621100369425 -1.6088511585523966
1.12205313773285 -1.926949709358886
1.1201318804608003 -2.243832052671423
1.1166231514965979 -2.558462322224664
1.1108532499085015 -2.869227228132901
1.1022668736418282 -3.1738687080375194
1.090432769521425 -3.4695031055175476
1.074985749466764 -3.7527269843985374
1.0555884002334766 -4.019761163525651
1.0319316279013264 -4.266531316812038
1.0038008077703742 -4.488742281389853
0.9712132480129445 -4.681972201767204
0.9346468522139956 -4.841837089313635
0.895363729493487 -4.964284314432521
0.8559591375836365 -5.046220898594282
0.8212069029729215 -5.086657988723148
0.7864546683622096 -5.046220898594105
0.747050076452368 -4.964284314432168
0.707766953731875 -4.841837089313128
0.6712005579329484 -4.681972201766579
0.6386129981755446 -4.488742281389141
0.6104821780446181 -4.26653131681126
0.5868254057124946 -4.019761163524835
0.5674280564792328 -3.7527269843977065
0.551981036424597 -3.469503105516726
0.540146932304216 -3.1738687080367325
0.5315605560375622 -2.8692272281321656
0.5257906544494801 -2.55846232222399
0.5222819254852877 -2.2438320526708213
0.5203606682132436 -1.9269497093583627
0.519351695909154 -1.6088511585519591
0.5187515989103425 -1.290096848478284
0.5183305903267559 -0.9709293027913968
0.5180363336331513 -0.6514770843302155
0.517885739295511 -0.3319173305142742
0.5179185267075384 -0.012603340533540865
1.2042136438857334 -0.012664523490243433
1.2042163753409663 -0.331933717264215
1.2040421829889834 -0.6514530039974176
1.2036992240877424 -0.9708825540192565
1.20319687533561 -1.2900292508157436
1.2024444633710105 -1.608740223958315
1.2010986168306204 -1.9267012789737428
1.198522343320047 -2.2432677749473777
1.1939118428233406 -2.5573787421137837
1.1864835235386506 -2.867449817198864
1.1755784379728322 -3.1712609794436535
1.1606473258727072 -3.4659535722258585
1.1412225902745001 -3.748137062597808
1.1168793957130425 -4.014037493344261
1.0872188504532605 -4.259591208762565
1.0519245796250323 -4.480540428497951
1.0109587532081297 -4.672556693141453
0.9648888473844536 -4.831431357104716
0.9153516125354391 -4.953405267500639
0.8656216190209758 -5.035838051756442
0.8212069029729026 -5.078386584233911
0.7767921869248332 -5.035838051756266
0.7270621934103823 -4.953405267500289
0.6775249585613867 -4.831431357104215
0.6314550527377378 -4.672556693140834
0.5904892263208654 -4.480540428497244
0.5551949554926693 -4.259591208761795
0.5255344102329196 -4.0140374933434515
0.5011912156714934 -3.7481370625969848
0.48176648007331696 -3.4659535722250436
0.46683536797321906 -3.1712609794428723
0.45593028240742434 -2.8674498171981333
0.44850196312275203 -2.557378742113113
0.4438914626260582 -2.243267774946778
0.4413151891154926 -1.926701278973221
0.43996934257510617 -1.608740223957878
0.4392169306105081 -1.2900292508153888
0.438714581858376 -0.9708825540189865
0.4383716229571353 -0.6514530039972296
0.4381974306051524 -0.3319337172641108
0.43820016206038553 -0.012664523490224573
1.2839432721358468 -0.012701298695246716
1.2839206971279769 -0.3319437807905725
1.28372385717527 -0.6514248941763318
1.2833352320233864 -0.9708304097117175
1.282753043976959 -1.2899503063604962
1.28182799890892 -1.6085916183884472
1.2800983857326214 -1.9263492571709908
1.2768062427807623 -2.2424979554252524
1.271041062672777 -2.5559647177241636
1.2619284192742137 -2.8651940526185973
1.2486843905261718 -3.167997457812619
1.2306410531749497 -3.4615428603390255
1.2072250238849607 -3.742456841745787
1.1779226976692498 -4.006973778264779
1.142258986463857 -4.251039640205881
1.0998461456234636 -4.470435283705072
1.050591098518621 -4.660943989138148
0.995143300397835 -4.818585640489702
0.9354751703004781 -4.939970038107434
0.8754382288916381 -5.022959090964446
0.8212069029728839 -5.067836906099569
0.7669755770541344 -5.022959090964272
0.7069386356453096 -4.93997003810709
0.6472705055479757 -4.818585640489206
0.5918227074272211 -4.660943989137537
0.5425676603224141 -4.470435283704374
0.5001548194820585 -4.25103964020512
0.4644911082767034 -4.006973778263979
0.4351887820610299 -3.7424568417449717
0.4117727527710768 -3.4615428603382186
0.3937294154198864 -3.167997457811845
0.3804853866718721 -2.865194052617872
0.37137274327333 -2.5559647177234974
0.36560756316536 -2.2424979554246556
0.36231542021351076 -1.9263492571704701
0.36058580703721693 -1.6085916183880105
0.3596607619691798 -1.2899503063601419
0.35907857392275294 -0.9708304097114474
0.3586899487708694 -0.6514248941761439
0.3584931088181629 -0.3319437807904684
0.35847053381029287 -0.012701298695227793
1.3636881425118312 -0.01271953895324339
1.363645895834733 -0.3319472091954211
1.3634282895116108 -0.6513927811913814
1.362996145310058 -0.9707735487868779
1.3623317487310773 -1.2898584060054348
1.3612058699204646 -1.6083942799943591
1.359044095566613 -1.925874102444906
1.3549844720174233 -2.241505936426768
1.3480466582132495 -2.5542119768660227
1.3372394382150525 -2.8624544422504696
1.321655394820376 -3.1640742434772537
1.3005041295012305 -3.456267848002333
1.2730999562285803 -3.735682707489804
1.238840332411041 -3.9985673845166887
1.1971956559681765 -4.2408827529092505
1.147746559106603 -4.458449396215482
1.0903795208201583 -4.647171733502008
1.0257639139460515 -4.803337352235171
0.9560711279218117 -4.923987097135343
0.885601537446809 -5.00754090107
0.8212069029728654 -5.0549266532568495
0.7568122684989274 -5.007540901069828
0.686342678023942 -4.923987097135003
0.6166498919997296 -4.803337352234682
0.552034285125659 -4.6471717335014056
0.49466724683925456 -4.458449396214794
0.4452181499777252 -4.240882752908498
0.4035734735349035 -3.998567384515898
0.3693138497174074 -3.7356827074889987
0.34190967644479786 -3.456267848001535
0.32075841112568926 -3.1640742434764877
0.3051743677310442 -2.862454442249751
0.29436714773287176 -2.5542119768653615
0.2874293339287159 -2.2415059364261745
0.2833697103795381 -1.925874102444387
0.2812079360256927 -1.608394279993923
0.28008205721508234 -1.2898584060050806
0.279417660636102 -0.970773548786608
0.2789855164345496 -0.6513927811911935
0.27876791011142754 -0.3319472091953169
0.2787256634343294 -0.012719538953224425
1.4434500689185623 -0.012725163144323303
1.4433957466972247 -0.3319443168136953
1.44316174004289 -0.651356829806161
1.4426874821400413 -0.9707124620282651
1.4419313113959868 -1.2897495663190002
1.440570622665186 -1.6081346644964618
1.4379282618689333 -1.9252596266420303
1.433080515607028 -2.240284157079421
1.4249619644892464 -2.5521170933156294
1.4124677700509256 -2.859230301111343
1.3945614020951822 -3.1594926915582313
1.3703243290183587 -3.450130384874162
1.3389560132232114 -3.7278161237858045
1.2997618404794582 -3.9888202968668742
1.2521667846151476 -4.229130656026612
1.195781257694271 -4.44461781273784
1.1305430216408137 -4.631303839156359
1.0570840701725408 -4.785740904766827
0.9774948805595051 -4.905449636504943
0.8963559249589754 -4.989494647087573
0.8212069029728464 -5.039517803545793
0.7460578809867239 -4.9894946470874055
0.6649189253862146 -4.905449636504609
0.5853297357732106 -4.785740904766348
0.5118707843049783 -4.631303839155767
0.4466325482515675 -4.444617812737164
0.3902470213307398 -4.2291306560258715
0.34265196546647825 -3.988820296866095
0.30345779272277373 -3.72781612378501
0.27208947692767205 -3.450130384873374
0.24785240385089025 -3.1594926915574746
0.22994603589518217 -2.8592303011106317
0.2174518414568887 -2.552117093314974
0.2093332903391275 -2.240284157078831
0.20448554407723607 -1.9252596266415134
0.2018431832809911 -1.6081346644960266
0.20048249455019346 -1.2897495663186462
0.1997263238061395 -0.9707124620279952
0.19925206590329136 -0.6513568298059733
0.1990180592489568 -0.33194431681359104
0.1989637370276191 -0.012725163144304316
1.5232280911580136 -0.012724162886086958
1.523172852850595 -0.3319362472592898
1.5229315975912603 -0.6513176707281227
1.5224145525315325 -0.9706464672758757
1.5215472667213517 -1.2896175264947825
1.5199133617476361 -1.6077974132603923
1.5167585361446418 -1.924495912653969
1.5111114045811693 -2.238829277333549
1.5018207042425284 -2.54968076948607
1.4876650931168538 -2.8555259711323964
1.4674727319966812 -3.1542588542451857
1.4401914860457388 -3.4431373642411276
1.4049009317522885 -3.7188638516961054
1.3608159805413067 -3.9777398145450173
1.30732918866952 -4.215796957383868
1.2440981189581224 -4.428975572969233
1.1711956718398666 -4.613416772434835
1.089324123709964 -4.76589571569958
1.0002666602434456 -4.88436343137319
0.9080904949892353 -4.968668422142268
0.8212069029728271 -5.021386936490663
0.7343233109564267 -4.968668422142103
0.6421471457022396 -4.884363431372863
0.5530896822357567 -4.76589571569911
0.4712181341059004 -4.613416772434254
0.3983156869876974 -4.42897557296857
0.33508461727635447 -4.215796957383141
0.281597825404622 -3.9777398145442504
0.23751287419369455 -3.7188638516953243
0.20222231990029493 -3.443137364240351
0.17494107394939873 -3.1542588542444383
0.154748712829265 -2.8555259711316934
0.14059310170362102 -2.5496807694854207
0.13130240136500293 -2.2388292773329637
0.125655269801546 -1.9244959126534544
0.12250044419856078 -1.6077974132599584
0.1208665392248493 -1.2896175264944287
0.11999925341466934 -0.9706464672756059
0.11948220835494198 -0.6513176707279349
0.11924095309560731 -0.3319362472591856
0.11918571478818882 -0.012724162886067942
1.6030171325259839 -0.012722413065584493
1.602978487839239 -0.3319255570290996
1.6027478030592652 -0.6512766427313804
1.6021814202250044 -0.9705725425961647
1.6011731640424054 -1.2894520780725298
1.5992312927979377 -1.607371537606632
1.5955449579611651 -1.9235773473328186
1.5890960535908953 -2.2371410267036604
1.5786564799438667 -2.5469084476141206
1.5628833741638655 -2.8513506665323542
1.5404616994847231 -3.148383854590013
1.5101948304737975 -3.4352999757053326
1.471042326318173 -3.7088379159236045
1.422141079613795 -3.9653410450579267
1.3628477468300881 -4.200899892820701
1.2928612655063427 -4.411548450607266
1.2124068678790578 -4.593568599201973
1.122431954305987 -4.743932051845223
1.0247353958802266 -4.8608877915081194
0.9221924822546188 -4.9448685413769695
0.8212069029728074 -4.999999999999988
0.7202213236910042 -4.944868541376809
0.6176784100654228 -4.8608877915078
0.5199818516397023 -4.743932051844764
0.4300069380666849 -4.593568599201405
0.34955254043945866 -4.411548450606617
0.2795660591157731 -4.2008998928199865
0.2202727263321265 -3.965341045057174
0.17137147962780797 -3.7088379159228366
0.13221897547223965 -3.4352999757045692
0.10195210646136471 -3.148383854589277
0.07953043178226486 -2.8513506665316597
0.06375732600229679 -2.546908447613479
0.05331775235529352 -2.23714102670308
0.04686884798504129 -1.9235773473323072
0.04318251314827894 -1.6073715376061992
0.041240641903815975 -1.2894520780721768
0.040232385721218136 -0.970572542595895
0.039666002886957825 -0.6512766427311927
0.039435318106984425 -0.33192555702899545
0.0393966734202396 -0.012722413065565472
SCALARS Stress float 6
LOOKUP_TABLE default
-1351.0206518926648 -2160.4817011326872 -1680.539397750017 -32.88723974780527 0.0 0.0
1422.6388475811143 843.0903102199499 1080.4954093476438 -18.536316250349614 0.0 0.0
661.3339440796952 195.58591256057557 285.97587682836587 -43.33719888384316 0.0 0.0
519.765224110519 41.86932659664613 178.7537490617919 -0.018774884411504766 0.0 0.0
657.3225496308149 99.92209988797329 288.8391729306511 3.817846363001205 0.0 0.0
796.1640068581411 163.4855170660983 434.81096829958693 1.537866950534132 0.0 0.0
942.3503927129394 233.18722543753117 568.1632589994152 -0.01305942855883524 0.0 0.0
1095.3951838315045 321.72589715127657 695.9364070073063 -1.586048852241987 0.0 0.0
1260.8462547983736 428.2021484262277 833.1767415121864 -3.540291492489178 0.0 0.0
1447.0976466475158 560.400899073131 992.3714053867866 -5.67121739955487 0.0 0.0
1659.943560154631 723.8203873654054 1180.0905285727613 -7.584404670266721 0.0 0.0
1898.587202743573 917.8836877630835 1395.9785411134508 -8.961329305240472 0.0 0.0
2156.501247986753 1134.8940363242727 1632.9850941585519 -9.808020837306735 0.0 0.0
2425.244507800433 1366.1990944078839 1882.5916045851175 -10.441323403656824 0.0 0.0
2694.166021352643 1600.9633172817112 2134.050464593111 -10.806401583587158 0.0 0.0
2950.707652160272 1826.6382683473312 2374.8297023341197 -10.776187044320439 0.0 0.0
3181.59763760757 2030.252686163858 2591.838594236654 -10.190760643975196 0.0 0.0
3374.313276087367 2199.683960658351 2772.752544532749 -9.085930174741824 0.0 0.0
3530.0373320181334 2336.5463931955005 2918.810508603254 -8.16495440456329 0.0 0.0
3632.8797739303277 2425.7336790359286 3014.4878382579786 -11.69361464834175 0.0 0.0
3625.9561559702734 2418.6131011687244 3007.5710376037746 1.4775558554447343e-10 0.0 0.0
3632.8797739286097 2425.7336790342397 3014.487838256611 11.693614648350449 0.0 0.0
3530.037332017516 2336.5463931949207 2918.8105086027185 8.164954404444622 0.0 0.0
3374.313276086704 2199.6839606578 2772.7525445318615 9.085930174550017 0.0 0.0
3181.5976376066515 2030.25268616306 2591.838594235712 10.190760643986215 0.0 0.0
2950.707652154925 1826.6382683420727 2374.829702330244 10.776187043951438 0.0 0.0
2694.166021353174 1600.9633172824513 2134.0504645931205 10.80640158378149 0.0 0.0
2425.244507798803 1366.1990944064257 1882.591604583616 10.441323403507758 0.0 0.0
2156.501247985094 1134.8940363228176 1632.9850941571221 9.808020837325136 0.0 0.0
1898.5872027435732 917.8836877633285 1395.978541113099 8.96132930521027 0.0 0.0
1659.9435601545524 723.8203873656248 1180.0905285723557 7.584404670145474 0.0 0.0
1447.09764664502 560.4008990709187 992.3714053849527 5.671217399658397 0.0 0.0
1260.8462547968657 428.202148424965 833.1767415110328 3.5402914927023748 0.0 0.0
1095.3951838322507 321.7258971523608 695.9364070074919 1.5860488522159262 0.0 0.0
942.3503927128367 233.18722543774575 568.1632589990951 0.01305942828465767 0.0 0.0
796.1640068570376 163.4855170652952 434.8109682986563 -1.537866950726393 0.0 0.0
657.3225496295732 99.92209988684118 288.83917292972717 -3.8178463630019763 0.0 0.0
519.7652241103212 41.86932659673771 178.75374906168705 0.018774884361946853 0.0 0.0
661.3339440794159 195.58591256068925 285.9758768281952 43.337198883736775 0.0 0.0
1422.6388475807385 843.0903102194926 1080.4954093471754 18.536316250538782 0.0 0.0
-1351.0206518896352 -2160.48170112977 -1680.5393977471272 32.887239747153984 0.0 0.0
-1720.1691771435094 -2501.5018051020647 -2006.201694289922 -36.36899235623389 0.0 0.0
970.5744381019649 463.98561180776676 681.1872400605887 -25.940598230154812 0.0 0.0
464.80070894040824 75.94188756140014 162.24191727667915 -38.48053112014524 0.0 0.0
456.5741402817753 11.376111730829669 145.10796251373074 -15.465389734146182 0.0 0.0
578.876196599415 45.650010852447664 229.323825750931 -17.835274768766226 0.0 0.0
688.3595762762794 66.368127495836 338.04801461271825 -24.171081763200764 0.0 0.0
783.4772159906906 89.69489626215247 426.9315692979299 -25.099698871508096 0.0 0.0
873.6070724786732 113.7041942913823 491.6363131389107 -25.37624306441385 0.0 0.0
954.3108668242776 134.96684922100224 543.7757685473176 -26.293236129328008 0.0 0.0
1027.1214767184492 154.10093189080877 589.9936495326324 -27.367261274297544 0.0 0.0
1095.7546645049351 174.0238463524574 634.3127063719131 -27.970391836709986 0.0 0.0
1162.9189881038865 196.65067997058176 679.2153105987153 -28.02378976574009 0.0 0.0
1228.256807374969 222.0636437596765 724.6052508291338 -27.66740260490217 0.0 0.0
1289.1863935710153 246.0456219583055 767.0782566153935 -27.100683846208103 0.0 0.0
1340.6218911851204 263.80931185052003 801.7037106109749 -26.280910600157217 0.0 0.0
1378.545536514597 271.2759179395699 824.4274611545299 -24.944261825520453 0.0 0.0
1400.779251549779 266.45162533145685 833.1522174864405 -22.87911796912775 0.0 0.0
1407.911275364009 250.32349769065064 828.6627722277278 -20.292825699978955 0.0 0.0
1390.908803705104 214.55593047594957 802.4101476788503 -18.30763328378678 0.0 0.0
1294.148286063302 104.78469282889588 699.8718139285369 -20.231135567650668 0.0 0.0
1139.451727338912 -49.11217675990483 546.6161254192145 1.3233503182163986e-10 0.0 0.0
1294.148286063153 104.78469282880212 699.8718139283486 20.231135567748424 0.0 0.0
1390.9088037057106 214.55593047660898 802.4101476794785 18.307633283887466 0.0 0.0
1407.9112753631077 250.32349768978784 828.6627722271044 20.292825699714868 0.0 0.0
1400.779251549829 266.45162533165905 833.1522174866258 22.87911796922106 0.0 0.0
1378.5455365123248 271.27591793745125 824.4274611529383 24.944261825496334 0.0 0.0
1340.6218911855417 263.80931185110694 801.7037106112724 26.280910600360478 0.0 0.0
1289.186393570833 246.04562195830633 767.0782566152335 27.10068384611505 0.0 0.0
1228.2568073745317 222.06364375945796 724.6052508289486 27.667402604963847 0.0 0.0
1162.9189881041789 196.65067997107917 679.2153105989507 28.02378976572392 0.0 0.0
1095.754664505257 174.02384635304443 634.3127063721452 27.97039183658795 0.0 0.0
1027.12147671762 154.100931890269 589.9936495321127 27.367261274397737 0.0 0.0
954.3108668229477 134.96684921993048 543.7757685464375 26.293236129325123 0.0 0.0
873.607072478644 113.70419429164575 491.6363131388421 25.376243064415156 0.0 0.0
783.4772159904395 89.6948962621584 426.931569297655 25.09969887131759 0.0 0.0
688.359576276003 66.36812749589595 338.0480146123564 24.17108176311671 0.0 0.0
578.876196598539 45.650010851706256 229.32382575029197 17.835274768699108 0.0 0.0
456.57414028172866 11.376111731155444 145.10796251379224 15.46538973406378 0.0 0.0
464.80070894031803 75.94188756161431 162.24191727672167 38.480531120094206 0.0 0.0
970.5744381013071 463.98561180711937 681.1872400598741 25.940598230211847 0.0 0.0
-1720.1691771416035 -2501.5018051000206 -2006.2016942878633 36.368992355895266 0.0 0.0
-1457.0015899642692 -2203.0554000338534 -1715.7048091814454 -75.02449553577186 0.0 0.0
797.3155395024554 371.33962758306416 539.9168455807173 -93.68170478737697 0.0 0.0
320.8594720316129 87.17536359241959 122.4806387593201 -43.666620861254 0.0 0.0
392.55713488561884 4.058730317155636 119.71199339496536 -37.48401368706713 0.0 0.0
533.3875326247143 35.039594816760804 195.94630844692432 -40.46947887086412 0.0 0.0
653.9970896485411 59.882353528652274 305.78388675629606 -44.80764193922978 0.0 0.0
752.2593420843017 83.09978733771634 403.18738671769336 -46.20062751396819 0.0 0.0
841.096653982227 102.77531324059117 468.86501354801703 -47.07179381514379 0.0 0.0
917.9704037632172 119.83463213914962 517.7285051355173 -48.79837787610949 0.0 0.0
986.6819022722391 134.99799491278065 559.935449008679 -50.21779956731155 0.0 0.0
1052.279661511028 152.45593218241578 601.4930413826942 -50.60318889102181 0.0 0.0
1116.8303506066395 173.60796724155335 644.3663786945282 -50.12198186657737 0.0 0.0
1179.7828813377348 196.58503550329883 687.3655506388557 -49.22702244740809 0.0 0.0
1237.9258428622365 218.8910005125023 727.6170644270031 -48.028072262974185 0.0 0.0
1288.4331648592806 236.2545906727257 761.5692026034973 -46.4268511659336 0.0 0.0
1327.3900178791714 245.1206431115669 785.4967259459827 -44.09074191257277 0.0 0.0
1352.037092933153 242.83413108397198 796.7105089181129 -40.766215133110265 0.0 0.0
1356.981455177929 224.4873296384858 790.1171367601614 -36.909363444527365 0.0 0.0
1325.9411215130149 174.78716559613062 750.0429706829786 -33.79670392051215 0.0 0.0
1272.9165462022297 109.11929622791195 691.0564786819351 -32.68102317014794 0.0 0.0
1098.8121440281477 -63.330713192566236 518.9125921764804 3.135625092909322e-11 0.0 0.0
1272.9165462040976 109.11929622986088 691.0564786831542 32.681023170212406 0.0 0.0
1325.9411215161206 174.78716559933991 750.0429706852653 33.796703920648255 0.0 0.0
1356.9814551777722 224.4873296384003 790.1171367602909 36.90936344446508 0.0 0.0
1352.0370929320984 242.83413108305103 796.7105089174021 40.766215133306176 0.0 0.0
1327.3900178811932 245.120643113814 785.4967259472954 44.09074191278934 0.0 0.0
1288.4331648595353 236.25459067317442 761.5692026035654 46.42685116605703 0.0 0.0
1237.9258428629487 218.8910005133734 727.6170644274861 48.028072262925996 0.0 0.0
1179.7828813370643 196.58503550279613 687.3655506383973 49.227022447185256 0.0 0.0
1116.8303506061284 173.6079672412428 644.366378694212 50.1219818664351 0.0 0.0
1052.2796615101108 152.4559321817388 601.493041382157 50.60318889095842 0.0 0.0
986.6819022724242 134.99799491320704 559.9354490087999 50.21779956727202 0.0 0.0
917.9704037618457 119.83463213805635 517.7285051345676 48.79837787607126 0.0 0.0
841.096653981736 102.77531324039799 468.86501354769985 47.07179381513356 0.0 0.0
752.2593420836355 83.09978733731319 403.18738671716676 46.20062751389544 0.0 0.0
653.9970896483582 59.88235352877323 305.7838867559835 44.80764193916153 0.0 0.0
533.3875326243666 35.039594816668696 195.94630844662777 40.46947887062705 0.0 0.0
392.55713488560656 4.058730317606376 119.71199339509016 37.48401368692046 0.0 0.0
320.8594720313698 87.17536359207958 122.48063875914096 43.666620861219066 0.0 0.0
797.3155395016514 371.339627582575 539.91684557997 93.68170478726081 0.0 0.0
-1457.0015899622085 -2203.055400031633 -1715.7048091792433 75.02449553569738 0.0 0.0
-1200.9893201976138 -1916.3298596517225 -1439.0680407821694 -88.89847797222099 0.0 0.0
614.4508064988332 276.4289456286413 404.3944817361177 -146.0603337819004 0.0 0.0
230.44653076478303 71.68074820157776 90.6381836899082 -64.79518595330225 0.0 0.0
326.5612294799991 9.550104817292738 100.48846073387035 -61.19525197846168 0.0 0.0
477.03742392464795 21.77995743878089 161.64132598321538 -65.69142982910394 0.0 0.0
607.7779420170324 51.800323149546784 267.1990145739734 -66.57775643761553 0.0 0.0
717.0959643605806 74.7264992710279 373.69857859919784 -68.58410682210229 0.0 0.0
803.735014076034 92.04923412275878 442.86711024831675 -68.87811729640829 0.0 0.0
877.4763564950068 105.02305699214298 489.5512716159491 -70.82035986694623 0.0 0.0
942.4467283039614 116.54306111111316 528.2097362031079 -72.21124314456031 0.0 0.0
1004.5937527921914 131.134119317679 566.6041155779982 -72.26285415472822 0.0 0.0
1066.5488817474438 149.96156731458126 607.0284578607186 -71.36906804301353 0.0 0.0
1126.7155554895267 171.37754622173054 647.8846095102541 -69.93424868312695 0.0 0.0
1182.5277174886667 191.1664130899973 685.7171376441823 -68.17476573159922 0.0 0.0
1231.7713148872751 207.93254029738603 718.7259559512867 -65.86115990117017 0.0 0.0
1272.2072338733624 218.77172525665085 744.3789010424314 -62.71425517817651 0.0 0.0
1298.5406634231892 218.07823753019935 757.266437218485 -58.62467517521549 0.0 0.0
1302.153743174616 198.23230655411027 749.3315365536591 -53.93577106689203 0.0 0.0
1280.0788521003258 157.25716473385015 718.0552798512983 -48.995133844730866 0.0 0.0
1249.296300234774 113.17514466887098 680.8316894859238 -43.341348118311444 0.0 0.0
1007.016885931886 -126.78741553417504 441.454264110639 5.586819895597728e-11 0.0 0.0
1249.2963002352537 113.17514466940293 680.8316894860219 43.34134811848284 0.0 0.0
1280.0788521001627 157.25716473366626 718.0552798511874 48.99513384461848 0.0 0.0
1302.1537431748156 198.23230655442512 749.3315365539463 53.93577106702666 0.0 0.0
1298.5406634221156 218.07823752927843 757.2664372176109 58.6246751753981 0.0 0.0
1272.2072338752887 218.77172525873195 744.3789010437376 62.7142551783859 0.0 0.0
1231.7713148877235 207.93254029796546 718.7259559516318 65.861159901085 0.0 0.0
1182.5277174882713 191.1664130897781 685.7171376438533 68.1747657316074 0.0 0.0
1126.7155554891478 171.37754622152445 647.8846095099353 69.93424868307407 0.0 0.0
1066.5488817475966 149.9615673149107 607.0284578608574 71.36906804282481 0.0 0.0
1004.5937527918014 131.13411931758748 566.60411557772 72.26285415479053 0.0 0.0
942.4467283048616 116.54306111229157 528.209736203666 72.21124314457667 0.0 0.0
877.4763564943001 105.02305699169042 489.5512716154732 70.82035986687852 0.0 0.0
803.7350140763588 92.04923412340631 442.86711024849177 68.87811729636421 0.0 0.0
717.0959643600637 74.72649927078562 373.6985785987153 68.58410682205879 0.0 0.0
607.7779420165305 51.800323149315716 267.19901457348345 66.57775643745265 0.0 0.0
477.0374239247277 21.77995743941024 161.64132598329428 65.69142982894198 0.0 0.0
326.5612294799139 9.550104817330404 100.48846073385772 61.19525197830829 0.0 0.0
230.44653076454028 71.68074820112224 90.63818368969875 64.79518595299585 0.0 0.0
614.4508064980589 276.4289456281169 404.3944817354068 146.0603337817094 0.0 0.0
-1200.989320195705 -1916.3298596497084 -1439.0680407801358 88.89847797202552 0.0 0.0
-975.9121721014523 -1665.9945696296702 -1194.5327271268427 -87.20751691683965 0.0 0.0
477.8296400438833 190.08687024086223 296.2003204189941 -179.97103867648224 0.0 0.0
167.7320455471534 54.77883967315769 66.7532655660933 -95.93074868961023 0.0 0.0
264.7571581595688 15.991860538544902 84.17193723076437 -87.13887623910135 0.0 0.0
410.42353825141237 12.451540726882158 130.46773688663575 -92.82505423340035 0.0 0.0
551.4380200439007 38.58342854332432 222.94278611898108 -91.70865439170126 0.0 0.0
671.0644271675762 65.07631300187235 335.3582937482054 -91.27640407839056 0.0 0.0
760.5707928814722 81.81943519573942 412.8462931438196 -91.0382509243116 0.0 0.0
832.2634200611028 90.85681988939378 458.91362657579526 -92.26770396462274 0.0 0.0
893.5072936480362 98.45506798600071 494.1461616662174 -93.31729306871611 0.0 0.0
952.430250473225 109.91077669748917 529.3819024002444 -92.96508978359078 0.0 0.0
1011.2890812992991 126.21536133672008 567.0148304716886 -91.663520227692 0.0 0.0
1068.8174331024675 145.12890971185286 605.323402132776 -89.85160069164233 0.0 0.0
1122.2258808439315 163.83474443591146 641.4394917682846 -87.50067927471635 0.0 0.0
1170.1709773593568 179.34885701948718 673.1759525213859 -84.51515605621735 0.0 0.0
1210.7906707758075 190.25338127197887 698.9379771463438 -80.84303048845217 0.0 0.0
1239.5399224408397 192.30039325676708 714.4211922465732 -76.38114110593287 0.0 0.0
1249.3356054942724 178.37196093342232 712.5499348394345 -71.00693092201472 0.0 0.0
1237.6177508038115 146.9308647161484 691.2039163617955 -63.962409079699036 0.0 0.0
1217.4106162223168 111.90562028517141 663.7524100756877 -54.22934123865544 0.0 0.0
892.062315487974 -210.23140307185983 342.59684248712847 1.1669776256439945e-10 0.0 0.0
1217.4106162224361 111.90562028535456 663.7524100756589 54.22934123898423 0.0 0.0
1237.6177508012547 146.93086471370088 691.2039163601335 63.96240907980751 0.0 0.0
1249.335605494329 178.37196093362505 712.5499348394865 71.00693092233229 0.0 0.0
1239.5399224409596 192.30039325701438 714.4211922465247 76.3811411060033 0.0 0.0
1210.790670775097 190.25338127130965 698.9379771458291 80.84303048835983 0.0 0.0
1170.1709773589257 179.34885701933575 673.175952521003 84.51515605632879 0.0 0.0
1122.2258808425577 163.83474443462535 641.4394917673274 87.5006792746217 0.0 0.0
1068.8174331029707 145.1289097125939 605.3234021331348 89.85160069177468 0.0 0.0
1011.289081299987 126.21536133766662 567.0148304721814 91.66352022768154 0.0 0.0
952.4302504728909 109.91077669748775 529.3819023999843 92.9650897838132 0.0 0.0
893.5072936492674 98.45506798750668 494.1461616670657 93.31729306876154 0.0 0.0
832.2634200600226 90.85681988839477 458.9136265750924 92.2677039642281 0.0 0.0
760.5707928818865 81.81943519659161 412.84629314403963 91.03825092443239 0.0 0.0
671.0644271667609 65.07631300130264 335.35829374753376 91.27640407829384 0.0 0.0
551.4380200436837 38.58342854347116 222.94278611869487 91.70865439164291 0.0 0.0
410.42353825110763 12.45154072693596 130.46773688652408 92.82505423324662 0.0 0.0
264.75715815935735 15.99186053824854 84.17193723061038 87.13887623895903 0.0 0.0
167.73204554713462 54.778839673033836 66.75326556605053 95.93074868953263 0.0 0.0
477.8296400434592 190.08687024058133 296.20032041851414 179.97103867628806 0.0 0.0
-975.9121720997383 -1665.9945696278462 -1194.532727125005 87.20751691664849 0.0 0.0
-777.1779691421887 -1444.9527935590181 -976.3357411778015 -81.80018993907895 0.0 0.0
370.4864044458369 122.4497113459762 211.98929260513128 -200.32932705808307 0.0 0.0
121.16625421789175 37.12092625489376 47.48606550874833 -126.17391119289135 0.0 0.0
210.88743832060996 20.150682456374863 69.31378490083392 -113.400102614376 0.0 0.0
337.64403966923703 7.4195855589192385 103.32854517704246 -120.63363981375366 0.0 0.0
479.9631025666942 24.773498312126595 177.21959177134485 -118.43889572039713 0.0 0.0
609.744960382407 54.649846648614904 287.6455213625127 -115.09075621110946 0.0 0.0
709.940415692797 69.50210710071255 375.1270439331099 -114.03778874938494 0.0 0.0
779.6239781247306 76.94240825468582 423.93372816060923 -113.15791345512628 0.0 0.0
839.0148548199486 80.5306263736802 457.07379135029817 -113.52109139373425 0.0 0.0
894.5886463336835 88.74093311633231 489.1172596994568 -112.66606214549476 0.0 0.0
950.3287620399577 102.45979995275192 523.9171507530897 -110.93526239053176 0.0 0.0
1004.9492568972954 119.25966443712335 559.7346451206981 -108.76543900822391 0.0 0.0
1055.8099014129496 135.46231984641426 593.3559300815314 -106.03708317890535 0.0 0.0
1101.863890694284 149.7325005401961 623.5478757800591 -102.46409193700468 0.0 0.0
1142.1841030685937 160.88239537944054 649.2821437318808 -98.25189353752785 0.0 0.0
1174.6607621170087 166.1238008567031 668.1847571581795 -93.71204107240686 0.0 0.0
1194.021915512539 161.48787179458935 675.7316828578212 -87.99927338059977 0.0 0.0
1193.6440947194897 140.34621733960228 665.243760235486 -79.32105559515242 0.0 0.0
1179.7638700125706 109.26718263435048 642.9484483061906 -66.15613236941421 0.0 0.0
757.0870219567181 -308.665982186825 226.40735327376254 8.100187187665142e-11 0.0 0.0
1179.763870014188 109.26718263608407 642.948448307442 66.15613236964552 0.0 0.0
1193.6440947193337 140.34621733959042 665.2437602355687 79.3210555954601 0.0 0.0
1194.0219155132513 161.48787179539454 675.7316828584007 87.99927338086616 0.0 0.0
1174.6607621176445 166.1238008574356 668.1847571585325 93.71204107231017 0.0 0.0
1142.184103067203 160.8823953780021 649.2821437309657 98.2518935372581 0.0 0.0
1101.863890694008 149.73250054010714 623.5478757798344 102.4640919370181 0.0 0.0
1055.8099014128218 135.46231984643185 593.355930081515 106.03708317875746 0.0 0.0
1004.9492568974576 119.25966443740802 559.7346451208977 108.76543900827649 0.0 0.0
950.3287620398988 102.45979995297007 523.9171507530957 110.93526239055927 0.0 0.0
894.5886463320375 88.74093311479473 489.11725969835607 112.66606214536758 0.0 0.0
839.014854820561 80.53062637465422 457.0737913507487 113.5210913938083 0.0 0.0
779.6239781228523 76.94240825282029 423.9337281593636 113.15791345481856 0.0 0.0
709.9404156921555 69.50210710032158 375.12704393265415 114.03778874930109 0.0 0.0
609.7449603818661 54.649846648208 287.64552136192367 115.0907562108082 0.0 0.0
479.96310256645916 24.773498312188146 177.21959177111478 118.43889572030375 0.0 0.0
337.6440396685696 7.4195855583611925 103.32854517669 120.63363981333579 0.0 0.0
210.88743832081474 20.150682456797192 69.3137849010175 113.40010261423316 0.0 0.0
121.16625421792531 37.1209262549476 47.48606550877463 126.17391119285861 0.0 0.0
370.4864044452472 122.44971134571098 211.9892926046622 200.32932705792894 0.0 0.0
-777.1779691409517 -1444.9527935574854 -976.335741176275 81.80018993910777 0.0 0.0
-604.2520460518518 -1244.239889493433 -781.2527664228659 -76.28432172086163 0.0 0.0
285.27007488632216 69.33621890126591 146.76986927319902 -213.4791298731216 0.0 0.0
84.35275046675989 20.574145236930036 31.478220764605215 -151.20483649688092 0.0 0.0
161.80585502409042 22.876646628633882 55.401094916558016 -137.596884980104 0.0 0.0
262.6367729381031 6.82313541365712 80.16106662743799 -145.32786044009032 0.0 0.0
396.1484733645765 10.066914962679958 132.3611206517689 -148.65450534493377 0.0 0.0
532.6585888374841 39.246690153825 230.07124551699687 -141.69702213964814 0.0 0.0
642.6442734084441 57.88533542560742 325.9897924452305 -136.8789076830531 0.0 0.0
720.0454105237325 60.83367644086246 382.31377881502004 -134.8782170381688 0.0 0.0
775.9682482200643 62.645928425687856 415.0739485067802 -132.70079130355487 0.0 0.0
829.6529094453888 67.7167426004053 444.91165415195917 -131.2491937142285 0.0 0.0
882.1064291048931 78.59827279083477 476.70266229387244 -129.09463012557347 0.0 0.0
933.3537765202599 92.84046730345518 509.58107890775847 -126.61774478802542 0.0 0.0
981.5387156124177 107.29518836711362 541.0226392937627 -123.6377480319494 0.0 0.0
1025.137587573176 119.63728507735479 569.082492453575 -119.70645062061197 0.0 0.0
1064.0610087551465 128.9338935587357 593.1904542903054 -115.08275614923834 0.0 0.0
1100.197874065533 138.8590526113382 616.1934035162466 -110.18490976811587 0.0 0.0
1132.0202603547432 145.8529808373533 635.7408461605004 -104.7124458965385 0.0 0.0
1145.6475784423756 136.7761378176441 638.3500035600015 -95.54989796494716 0.0 0.0
1137.4198142501152 108.36902684994698 620.3313012887545 -80.00203709384215 0.0 0.0
600.7487320553638 -420.5678429585329 93.01470149644734 1.5843326650610834e-10 0.0 0.0
1137.4198142512087 108.36902685106821 620.3313012895517 80.00203709397059 0.0 0.0
1145.647578441737 136.77613781718617 638.3500035596996 95.54989796517805 0.0 0.0
1132.0202603550213 145.85298083775248 635.7408461607954 104.71244589682674 0.0 0.0
1100.1978740655286 138.85905261144362 616.193403516207 110.1849097681731 0.0 0.0
1064.0610087553937 128.93389355918112 593.1904542904861 115.08275614929839 0.0 0.0
1025.137587571151 119.63728507528492 569.0824924523232 119.70645062037826 0.0 0.0
981.5387156127958 107.29518836766681 541.0226392939857 123.6377480319344 0.0 0.0
933.3537765192191 92.8404673025253 509.58107890708834 126.61774478798442 0.0 0.0
882.1064291042817 78.59827279040366 476.70266229350864 129.0946301255383 0.0 0.0
829.6529094449693 67.71674260012247 444.91165415164426 131.24919371403763 0.0 0.0
775.9682482202148 62.64592842616146 415.0739485069096 132.70079130362126 0.0 0.0
720.0454105234691 60.83367644096283 382.3137788147812 134.8782170381159 0.0 0.0
642.6442734073937 57.885335424737036 325.9897924444755 136.87890768293596 0.0 0.0
532.6585888375664 39.24669015440168 230.07124551690532 141.6970221396302 0.0 0.0
396.14847336409207 10.066914962336257 132.36112065140267 148.65450534473797 0.0 0.0
262.6367729378262 6.823135413794995 80.16106662741802 145.32786043967914 0.0 0.0
161.80585502437674 22.876646629175823 55.401094916805555 137.59688497985732 0.0 0.0
84.35275046676024 20.574145236816097 31.47822076457111 151.20483649663436 0.0 0.0
285.27007488580256 69.33621890101733 146.7698692728215 213.47912987300182 0.0 0.0
-604.2520460507475 -1244.2398894919695 -781.252766421513 76.28432172102751 0.0 0.0
-451.5582099061213 -1068.2779409086925 -607.5085726663137 -77.74298502869937 0.0 0.0
213.4051039945359 29.15314478634767 95.77631146266758 -218.97573356542708 0.0 0.0
53.394594559042865 6.976383816160813 18.110073684023185 -169.91927077688268 0.0 0.0
114.70233973323562 24.100756759316848 41.640064459835465 -158.06716095222382 0.0 0.0
190.7728986446459 8.376610131406785 59.393575466018774 -166.1314153055014 0.0 0.0
300.17063047666176 0.9225673755243473 92.76749717141195 -177.7625939053737 0.0 0.0
432.9785243842508 20.94868462383841 166.2291745457021 -170.76689603887556 0.0 0.0
554.8795488297914 41.395357957922144 260.3705079547597 -160.9049696653726 0.0 0.0
642.2999561276073 46.11650922955162 328.23269339864873 -155.40318354021784 0.0 0.0
702.4647757401635 42.738979746949006 364.80687684437214 -151.87533288528962 0.0 0.0
753.3373032899401 45.98779136071352 393.49932375725825 -148.52485622061897 0.0 0.0
802.837459765498 54.721560455459304 422.99227667388675 -145.8589714296837 0.0 0.0
850.6188615682163 66.29445963011631 452.84828848901805 -143.11198508893204 0.0 0.0
895.1580631069693 78.2708939940197 481.2502362861848 -140.04689024337023 0.0 0.0
936.6147160163841 89.10868018205962 507.528756102547 -136.17924082514173 0.0 0.0
973.6770758607679 97.4501160390852 530.3291671038492 -131.218099850867 0.0 0.0
1010.3056603777202 106.74775991536126 553.2466946534556 -125.79672297110375 0.0 0.0
1054.219595909076 125.70872554071211 584.6408365779581 -120.64013927015742 0.0 0.0
1089.3638752148931 137.16871201973925 608.3622837096215 -112.6819725005854 0.0 0.0
1091.5121443315195 114.92135370007038 598.927139352743 -96.87602518152251 0.0 0.0
417.5806095483897 -544.8621635564315 -59.670830787433715 1.4644641055383545e-10 0.0 0.0
1091.5121443319974 114.92135370056718 598.9271393530828 96.87602518167097 0.0 0.0
1089.3638752150273 137.16871202002616 608.3622837097068 112.68197250071583 0.0 0.0
1054.2195959098913 125.70872554153794 584.6408365786154 120.64013927020352 0.0 0.0
1010.3056603747776 106.74775991247155 553.2466946514105 125.79672297110129 0.0 0.0
973.6770758613222 97.4501160396581 530.3291671042828 131.21809985106222 0.0 0.0
936.6147160155418 89.10868018140638 507.5287561018861 136.17924082491288 0.0 0.0
895.158063105643 78.27089399275559 481.2502362852991 140.04689024338006 0.0 0.0
850.6188615683147 66.29445963053881 452.8482884890302 143.1119850891295 0.0 0.0
802.8374597655907 54.721560455814135 422.9922766739858 145.85897142971166 0.0 0.0
753.3373032896843 45.98779136041692 393.49932375699836 148.52485622040092 0.0 0.0
702.4647757400369 42.738979747062615 364.8068768443598 151.87533288510826 0.0 0.0
642.2999561276366 46.11650923000054 328.23269339867187 155.40318354039982 0.0 0.0
554.8795488293011 41.39535795790023 260.37050795440075 160.90496966542148 0.0 0.0
432.9785243840388 20.94868462413281 166.22917454552913 170.7668960389331 0.0 0.0
300.17063047644126 0.9225673757521995 92.76749717137544 177.7625939051978 0.0 0.0
190.77289864467807 8.376610131692974 59.393575466122684 166.13141530533434 0.0 0.0
114.70233973320174 24.100756759204668 41.64006445979715 158.06716095190282 0.0 0.0
53.394594559105016 6.976383816241823 18.11007368406453 169.91927077672474 0.0 0.0
213.40510399412943 29.153144786153486 95.77631146238426 218.9757335653805 0.0 0.0
-451.558209905154 -1068.277940907482 -607.5085726651656 77.74298502868577 0.0 0.0
-329.3375473306471 -900.7326638182358 -461.11798962414304 -80.83346385336776 0.0 0.0
151.87725906699626 -3.32443783190287 56.463675612788826 -218.25344748661405 0.0 0.0
25.10493105221202 -2.4935063666241826 6.7798139994794315 -183.00690031494753 0.0 0.0
68.47954393430963 23.848782426097888 27.688124759527014 -174.3891963546691 0.0 0.0
121.88414255121675 11.33729461338435 39.81316830042526 -182.16817468133837 0.0 0.0
197.16072561660062 -0.8766022164983058 59.05989532962407 -200.42238700277017 0.0 0.0
307.4870193218609 3.002578691621707 102.36278992834116 -203.313269921907 0.0 0.0
434.74588241426176 17.93739643424159 175.81041423197638 -188.71817503777868 0.0 0.0
536.499407735796 25.744909721094245 249.25845328120764 -175.37293107737372 0.0 0.0
604.550968337134 22.82761146154086 295.93459333949966 -168.69252895823234 0.0 0.0
656.5447458733133 23.96932778141942 327.6956718838393 -163.81759418338228 0.0 0.0
703.2662387708494 29.991078366530868 355.49883644064226 -160.68657752488303 0.0 0.0
747.0839331252376 39.437953478446445 382.6859397699068 -157.7585825743241 0.0 0.0
787.2066252107801 48.77889244709041 407.65573635043745 -154.77628844741594 0.0 0.0
825.4379060201737 58.11142350939505 431.6400676741453 -151.39428720442444 0.0 0.0
862.209375475195 66.7706050694547 454.63596403439743 -146.88791956029687 0.0 0.0
897.7594112052052 74.60639809772941 476.64748849061084 -140.9293990057924 0.0 0.0
943.7688322487058 94.11078119941538 509.3272578671887 -135.02970768003556 0.0 0.0
1007.2648401405337 131.64243881687142 560.0449604563807 -130.03690811759182 0.0 0.0
1040.8017680171668 135.80590910849327 580.2454186759011 -118.70972995048835 0.0 0.0
197.78228162878094 -676.6993791823058 -233.80429523647888 1.389501846915664e-10 0.0 0.0
1040.8017680180963 135.80590910978347 580.2454186765794 118.70972995086467 0.0 0.0
1007.2648401416546 131.64243881840915 560.0449604572107 130.03690811815082 0.0 0.0
943.7688322502692 94.11078120130705 509.32725786836903 135.02970768047757 0.0 0.0
897.7594112043654 74.60639809702074 476.6474884898196 140.92939900582445 0.0 0.0
862.2093754744565 66.77060506882238 454.63596403388027 146.88791956028783 0.0 0.0
825.4379060207734 58.11142351013805 431.6400676746032 151.39428720454924 0.0 0.0
787.2066252092974 48.778892445630035 407.6557363493439 154.7762884472471 0.0 0.0
747.0839331258144 39.43795347932191 382.6859397702864 157.7585825746023 0.0 0.0
703.2662387713779 29.991078367248036 355.4988364409923 160.68657752491998 0.0 0.0
656.5447458727983 23.96932778105689 327.69567188349004 163.8175941832573 0.0 0.0
604.550968337278 22.82761146190566 295.93459333955497 168.69252895817735 0.0 0.0
536.4994077360857 25.74490972201744 249.2584532813453 175.37293107748712 0.0 0.0
434.7458824133386 17.937396433544095 175.8104142313605 188.7181750377956 0.0 0.0
307.4870193214758 3.002578691698313 102.36278992817503 203.31326992189767 0.0 0.0
197.16072561646044 -0.8766022163097618 59.05989532964707 200.42238700261385 0.0 0.0
121.88414255090666 11.337294612887984 39.81316830019174 182.16817468108565 0.0 0.0
68.4795439340563 23.84878242559418 27.68812475929816 174.38919635447715 0.0 0.0
25.10493105221543 -2.493506366364979 6.779813999558096 183.00690031474085 0.0 0.0
151.87725906658184 -3.3244378321674297 56.46367561251553 218.2534474864998 0.0 0.0
-329.3375473297621 -900.7326638171435 -461.11798962316385 80.8334638532379 0.0 0.0
-228.77895683011837 -750.4457198284845 -338.74231983412096 -92.04465991303164 0.0 0.0
96.77382022790212 -29.673158170492627 25.36811829876133 -211.5095334086002 0.0 0.0
-2.3144603098159084 -7.036488598956549 -2.83118126555168 -190.47640555804858 0.0 0.0
22.61672415559506 22.579255530779577 13.553622515328701 -185.4812240432453 0.0 0.0
53.535479040662075 14.646655731930576 20.406989668414536 -193.41406174321693 0.0 0.0
94.783066544437 2.3788351910386902 29.130042544687523 -214.52143360457728 0.0 0.0
156.84557544202303 -2.8805112724279667 47.38250321173341 -228.52319270308695 0.0 0.0
255.50098098364055 -7.434058239783357 80.2236591815785 -223.37445457881563 0.0 0.0
369.04121395200417 -13.158146778177091 124.78324892209758 -199.35654229667287 0.0 0.0
451.0485301254643 -9.941987702327456 170.4090085870929 -177.882523581701 0.0 0.0
507.0729197962571 -1.8473348119445845 209.22262975121265 -172.64429474942443 0.0 0.0
549.2350673027144 5.291795725278391 239.38355070369855 -171.5035942990421 0.0 0.0
585.8076806362042 12.88310322120158 264.8546253213942 -170.78906769113792 0.0 0.0
619.6821848211952 20.59018808817237 287.7729457130985 -169.80002417871427 0.0 0.0
653.0945657766014 28.827816556380128 310.6810732544319 -168.20742691766293 0.0 0.0
688.5528556309318 37.77023552537406 335.3498910742697 -165.3876472954441 0.0 0.0
726.5824683155752 46.052135654557986 361.43794628361513 -160.07512708188148 0.0 0.0
766.5398859707274 52.99300755269098 387.71342338452064 -152.69999451072087 0.0 0.0
839.5811709754817 91.07493379592115 443.518108745617 -147.95191258255923 0.0 0.0
947.484400599984 159.94782592368924 535.0528907879501 -148.5228946364538 0.0 0.0
-92.21974455717142 -805.9192525258528 -438.9362064519124 1.4946976989449468e-10 0.0 0.0
947.4844006007727 159.94782592466754 535.0528907884654 148.52289463696513 0.0 0.0
839.5811709753859 91.07493379599171 443.51810874568287 147.95191258286013 0.0 0.0
766.5398859714511 52.993007553512626 387.7134233851578 152.69999451124212 0.0 0.0
726.5824683180904 46.05213565807476 361.4379462853011 160.07512708208478 0.0 0.0
688.5528556311847 37.77023552539423 335.3498910744652 165.38764729553935 0.0 0.0
653.0945657773103 28.827816558014703 310.68107325510806 168.20742691768868 0.0 0.0
619.6821848209214 20.590188087720477 287.7729457128499 169.80002417883287 0.0 0.0
585.8076806364414 12.883103221767627 264.8546253215212 170.7890676913555 0.0 0.0
549.2350673022289 5.291795724516184 239.3835507033367 171.50359429897833 0.0 0.0
507.0729197963026 -1.8473348114959158 209.22262975136928 172.6442947495412 0.0 0.0
451.04853012560324 -9.941987702006324 170.40900858718993 177.88252358176706 0.0 0.0
369.0412139525424 -13.158146776521402 124.78324892274735 199.35654229699412 0.0 0.0
255.50098098279662 -7.434058240456398 80.2236591811118 223.3744545788547 0.0 0.0
156.84557544150871 -2.880511272994159 47.38250321139898 228.5231927029655 0.0 0.0
94.78306654441725 2.3788351912808157 29.130042544766045 214.5214336042967 0.0 0.0
53.53547904031888 14.646655731092064 20.406989668062604 193.41406174314312 0.0 0.0
22.61672415564042 22.579255530685714 13.553622515314478 185.48122404309063 0.0 0.0
-2.314460309770472 -7.0364885987878605 -2.8311812654890156 190.4764055577999 0.0 0.0
96.77382022736705 -29.6731581709485 25.368118298427433 211.5095334084888 0.0 0.0
-228.77895682964441 -750.4457198275785 -338.74231983344794 92.04465991307148 0.0 0.0
-157.425988011295 -611.1602318128762 -245.52179255969295 -105.15568724552291 0.0 0.0
45.38679198882971 -50.64282664808276 0.23794490542412028 -198.0162397803566 0.0 0.0
-29.577046573266657 -7.6381763961045905 -11.17455183232261 -194.29766804788866 0.0 0.0
-22.784247731865293 20.825678794030644 -0.6084269162321032 -191.81998755842278 0.0 0.0
-14.00479137504646 17.750768056023396 1.1198967938379227 -199.1377454231751 0.0 0.0
-7.08014809760774 6.960096970946056 -0.01947482027469949 -219.75016723962187 0.0 0.0
-3.4587278498374943 0.7534914669302837 -0.8153729362319666 -236.465644826911 0.0 0.0
-1.411731309602139 0.17666989272437306 -0.37159228013722867 -239.29121521310256 0.0 0.0
-0.43635307109434507 -0.02857127017281691 -0.14560510226913692 -234.4656101750479 0.0 0.0
-0.1652367223928195 -0.0036901068835426543 -0.05055815554023013 -228.48893947143685 0.0 0.0
-0.5524479462423812 -0.009674510519992907 -0.08444789755053961 -215.2274737560225 0.0 0.0
-1.180423400636613 0.26281505201953337 0.32763717991244334 -202.57692125058526 0.0 0.0
-1.5635856878346033 1.3001989156006601 0.6506229968803581 -194.0885354118623 0.0 0.0
1.9837382971598743 3.7956181158399147 1.3312972737942204 -187.58194763855974 0.0 0.0
14.581101431636853 8.971754669575375 3.1679935211883787 -182.8362053512271 0.0 0.0
42.95216703017047 18.034726978558112 8.118290753227825 -178.54495328970629 0.0 0.0
96.43235032911991 32.80904456515411 18.5970692360724 -172.82393598047483 0.0 0.0
188.20203494068966 44.172981970873195 25.878665643545077 -163.72885818854542 0.0 0.0
415.3230195751114 6.246500762884409 47.94444453121892 -160.57177212745324 0.0 0.0
659.7038929587733 45.94833000201189 272.26385549663956 -209.3417054671354 0.0 0.0
-815.2641901153995 -1071.208811384534 -864.9448446912248 3.659295089164516e-12 0.0 0.0
659.7038929582591 45.94833000065171 272.2638554961408 209.34170546718343 0.0 0.0
415.3230195756771 6.246500764627484 47.94444453214888 160.57177212778723 0.0 0.0
188.20203493951738 44.17298196897033 25.87866564230555 163.72885818919696 0.0 0.0
96.43235033095189 32.80904456794272 18.597069237637754 172.82393598062635 0.0 0.0
42.95216702972763 18.034726978007228 8.118290752771657 178.54495328959433 0.0 0.0
14.581101434073489 8.971754673240213 3.1679935233034513 182.83620535131013 0.0 0.0
1.9837382971726925 3.7956181151081836 1.3312972736310797 187.58194763858125 0.0 0.0
-1.5635856882037018 1.3001989145906236 0.6506229963329986 194.08853541239597 0.0 0.0
-1.1804234002711098 0.2628150520080794 0.32763717997492847 202.57692125031136 0.0 0.0
-0.5524479465498757 -0.009674511334857527 -0.08444789802562269 215.227473756201 0.0 0.0
-0.16523672143126333 -0.0036901058403842057 -0.05055815492336535 228.4889394709086 0.0 0.0
-0.43635307073411767 -0.0285712701468519 -0.14560510217021516 234.4656101751935 0.0 0.0
-1.4117313098282125 0.17666989187373439 -0.371592280461317 239.29121521320943 0.0 0.0
-3.4587278501408996 0.7534914660531027 -0.8153729365887177 236.46564482665883 0.0 0.0
-7.080148097339372 6.960096971335781 -0.0194748200791226 219.7501672393018 0.0 0.0
-14.004791375028006 17.750768055777776 1.1198967937691946 199.1377454229417 0.0 0.0
-22.78424773180607 20.825678794088184 -0.6084269161983833 191.81998755830864 0.0 0.0
-29.577046573324807 -7.638176396106086 -11.174551832341349 194.29766804766552 0.0 0.0
45.38679198853129 -50.64282664828734 0.23794490525083978 198.01623978018222 0.0 0.0
-157.4259880108936 -611.1602318120877 -245.52179255923247 105.15568724551783 0.0 0.0
-117.4306970403519 -486.90068294772493 -182.4881764745196 -115.53544808488381 0.0 0.0
1.6170658789768133 -63.87947351666219 -18.502395539064242 -180.25341392202796 0.0 0.0
-55.82129686588457 -6.4618141692150255 -18.70646248051269 -193.199780977562 0.0 0.0
-67.34536616754198 19.15311861382489 -14.4920669175767 -193.16003752529392 0.0 0.0
-80.28724302748354 20.201076506436483 -18.04024273039311 -198.99965107043346 0.0 0.0
-107.45602126817619 11.268446989843827 -28.97055863241028 -215.70875805819585 0.0 0.0
-162.6725196478688 4.337019407340863 -48.89314217132133 -229.46019415864382 0.0 0.0
-257.0695244307617 7.415789852246025 -80.95341514681584 -223.79954805173315 0.0 0.0
-369.3646950267294 13.016978185758663 -125.04414332424065 -199.4984815751417 0.0 0.0
-451.1021589964713 9.876104475335453 -170.4702679704241 -177.83537656300942 0.0 0.0
-507.6618036742294 1.6864442150471532 -209.68759000476092 -172.65231664270587 0.0 0.0
-550.1851890324036 -5.0354475850292175 -240.36729721708008 -171.23770825246734 0.0 0.0
-586.4048752369404 -10.748209660356366 -264.9491225771294 -170.02869712134844 0.0 0.0
-615.5585539846779 -13.6959186079295 -282.4580721668319 -169.18508231809713 0.0 0.0
-634.8063329504853 -12.704984298000198 -291.19467521507926 -169.449321672112 0.0 0.0
-642.3071595273336 -6.6344315144021095 -289.121318941058 -171.42644157960342 0.0 0.0
-637.091678161119 4.127416473664226 -274.51174821107566 -175.95909147162845 0.0 0.0
-628.5707030328127 12.020433820612396 -251.14474851627477 -185.15815193437936 0.0 0.0
-600.2210717834164 69.92664308425417 -182.20265426309524 -198.5265722778049 0.0 0.0
-321.2208774427401 209.10291587458522 72.08036711823601 -176.46237318878224 0.0 0.0
-1406.1285132339592 -1363.346152707513 -1425.4467070250562 -4.9539039537194185e-11 0.0 0.0
-321.22087744315354 209.10291587340066 72.08036711783024 176.46237318916536 0.0 0.0
-600.2210717816774 69.92664308650271 -182.20265426201703 198.52657227828294 0.0 0.0
-628.5707030329461 12.020433819809455 -251.14474851624536 185.15815193428455 0.0 0.0
-637.0916781604349 4.127416474639645 -274.51174821070424 175.95909147175496 0.0 0.0
-642.307159527733 -6.634431515581099 -289.12131894142044 171.42644157959083 0.0 0.0
-634.806332949607 -12.704984296689972 -291.1946752144073 169.44932167234174 0.0 0.0
-615.5585539839764 -13.695918607560287 -282.4580721665088 169.1850823180681 0.0 0.0
-586.4048752375354 -10.748209661722399 -264.94912257753464 170.02869712145724 0.0 0.0
-550.1851890321713 -5.035447585183224 -240.3672972169487 171.2377082526613 0.0 0.0
-507.66180367492854 1.686444213785208 -209.6875900051357 172.652316642698 0.0 0.0
-451.10215899548746 9.876104476456604 -170.470267969689 177.8353765629393 0.0 0.0
-369.3646950259591 13.016978186011467 -125.0441433238431 199.49848157527634 0.0 0.0
-257.06952443106405 7.415789850613489 -80.9534151473172 223.799548051872 0.0 0.0
-162.67251964771168 4.337019407012959 -48.89314217134713 229.46019415843438 0.0 0.0
-107.45602126806932 11.268446989646328 -28.97055863244089 215.70875805796328 0.0 0.0
-80.28724302743271 20.20107650621296 -18.040242730448586 198.999651070141 0.0 0.0
-67.34536616733764 19.153118614105903 -14.492066917433403 193.16003752500833 0.0 0.0
-55.82129686578711 -6.461814169200572 -18.706462480479384 193.19978097734008 0.0 0.0
1.6170658788952832 -63.87947351683002 -18.50239553913981 180.25341392188966 0.0 0.0
-117.43069704047151 -486.9006829470587 -182.4881764744151 115.53544808463312 0.0 0.0
-98.52713857554251 -372.14299612361947 -141.1683879513675 -111.00367806704308 0.0 0.0
-27.42870124737543 -71.76062000661481 -29.750181615841385 -165.74043416367797 0.0 0.0
-80.5132037602741 -5.462190527077209 -25.780058382622073 -188.88372001969134 0.0 0.0
-110.24862232129294 17.756012740495105 -27.792515413616872 -189.4015077015914 0.0 0.0
-145.28953282515945 21.939460725545718 -36.98646001671662 -193.7961431260512 0.0 0.0
-206.0102109324803 13.712108374813113 -58.506773880490655 -204.15839441838935 0.0 0.0
-309.28360944532324 -2.3337155644543746 -103.53331711994228 -203.46982201793787 0.0 0.0
-434.8372537455813 -18.128143014425696 -176.12087098246604 -189.46527977039176 0.0 0.0
-536.4505136904799 -25.92576733174851 -249.34079196031223 -175.51434861793234 0.0 0.0
-604.4601184840462 -22.83748884968788 -295.9261662841141 -168.71178727184028 0.0 0.0
-656.6772995147156 -23.951838310502325 -327.80566486740804 -163.68457217477467 0.0 0.0
-703.8128779640124 -29.738332117363967 -355.7641067938505 -160.01156258018543 0.0 0.0
-747.0640886234381 -37.8085150828844 -382.0813573219803 -156.48772671670997 0.0 0.0
-782.5157209352277 -42.684209963849355 -402.5764253154357 -153.89891079156976 0.0 0.0
-807.5054503446779 -41.8088710915504 -414.8036782008545 -153.1788691309681 0.0 0.0
-819.4389408921006 -33.28409649245626 -416.447733480568 -154.6272389724048 0.0 0.0
-820.1434403797286 -20.000761823494543 -409.6872328919166 -158.44272067137007 0.0 0.0
-810.0091241800477 -3.9350787057426544 -396.01417046020424 -164.40599313542816 0.0 0.0
-757.4797647410792 46.10701197668769 -344.0970695951579 -171.2468762313311 0.0 0.0
-621.6856844847147 164.1192268211293 -218.56749296808516 -178.84596156300753 0.0 0.0
-2221.302692915863 -1663.439926138558 -1914.0857278900457 -7.9424467003264e-11 0.0 0.0
-621.685684484991 164.11922682031633 -218.56749296859147 178.84596156335624 0.0 0.0
-757.479764740472 46.10701197707387 -344.0970695948231 171.24687623185685 0.0 0.0
-810.0091241806713 -3.935078706739546 -396.0141704607954 164.4059931358592 0.0 0.0
-820.1434403794161 -20.00076182320798 -409.68723289178956 158.4427206715065 0.0 0.0
-819.4389408910721 -33.28409649169677 -416.4477334799303 154.62723897228423 0.0 0.0
-807.5054503437583 -41.80887109057377 -414.8036782000107 153.17886913084496 0.0 0.0
-782.5157209336788 -42.684209962410975 -402.57642531445316 153.89891079147864 0.0 0.0
-747.064088622953 -37.80851508256117 -382.0813573217846 156.4877267166957 0.0 0.0
-703.8128779644971 -29.738332118379965 -355.7641067941777 160.01156258036775 0.0 0.0
-656.6772995144905 -23.951838310482557 -327.805664867252 163.68457217462856 0.0 0.0
-604.4601184831985 -22.837488849152283 -295.9261662835642 168.71178727174456 0.0 0.0
-536.4505136896847 -25.92576733118952 -249.3407919597085 175.51434861794579 0.0 0.0
-434.8372537447032 -18.128143013910798 -176.12087098177443 189.4652797703302 0.0 0.0
-309.28360944475713 -2.333715564344277 -103.5333171196306 203.46982201787023 0.0 0.0
-206.0102109323027 13.712108374430168 -58.50677388054591 204.15839441823658 0.0 0.0
-145.28953282486125 21.93946072569736 -36.98646001659563 193.79614312578488 0.0 0.0
-110.24862232087816 17.75601274119014 -27.792515413289205 189.40150770132126 0.0 0.0
-80.51320376018052 -5.462190527099164 -25.780058382605745 188.88372001957964 0.0 0.0
-27.428701247269476 -71.76062000649152 -29.750181615772746 165.74043416345683 0.0 0.0
-98.52713857540685 -372.14299612324515 -141.16838795120012 111.00367806700612 0.0 0.0
-81.05640419913043 -276.2168654919684 -107.18198090732963 -100.42664685682116 0.0 0.0
-47.09774440945849 -72.75599085499077 -35.95579294841182 -151.37633214101814 0.0 0.0
-103.34033565525844 -5.01186623559761 -32.46697616058455 -180.35864376504077 0.0 0.0
-151.54939892503378 16.507253887146664 -40.48785090492858 -181.5529474755985 0.0 0.0
-208.056655562845 21.725611332015045 -56.03299692775722 -181.5629892102046 0.0 0.0
-300.9553208337907 9.091727493028987 -91.91450845114788 -181.0360940032676 0.0 0.0
-432.77177019063305 -19.337268195048388 -165.99453475849558 -173.48389306592964 0.0 0.0
-554.9517784891123 -41.98085560244683 -260.59307963534957 -161.55334444368287 0.0 0.0
-642.1825189342915 -46.263136189931814 -328.2775020371144 -155.50696297013351 0.0 0.0
-702.2831744133309 -42.61338628202466 -364.6995036715257 -151.92798015866742 0.0 0.0
-753.1452852655007 -45.693824099448335 -393.29325301084936 -148.36962043890824 0.0 0.0
-802.8758847102803 -54.1932447388854 -422.8032984006353 -145.07082612270017 0.0 0.0
-850.4148727163717 -64.92568764057754 -452.170746909679 -141.52149158969053 0.0 0.0
-891.4881758560018 -73.52316000599251 -477.2534602830676 -138.72342153208177 0.0 0.0
-922.0731577871331 -75.67685207286851 -493.8354816327843 -137.93736230132086 0.0 0.0
-938.4821780779268 -68.91599513079396 -498.7469700752657 -139.9387173408891 0.0 0.0
-939.8834619349727 -52.38196115117239 -491.20442090768404 -144.45554755812785 0.0 0.0
-917.3627481203052 -18.561016063089426 -462.94667611850997 -149.65422440287946 0.0 0.0
-855.7627236470723 46.15461551160709 -400.170308572522 -153.22693448043162 0.0 0.0
-677.7988668872583 213.9421494577065 -229.5064920779041 -152.13625844726033 0.0 0.0
-2659.9948587940553 -1888.9424150449456 -2253.5259819055073 -6.492228976640035e-11 0.0 0.0
-677.7988668870623 213.94214945752964 -229.50649207786284 152.13625844765917 0.0 0.0
-855.7627236475394 46.154615511246035 -400.1703085727993 153.2269344805807 0.0 0.0
-917.3627481204845 -18.56101606350562 -462.94667611863053 149.6542244028903 0.0 0.0
-939.8834619345048 -52.381961150705195 -491.204420907443 144.45554755824153 0.0 0.0
-938.4821780765205 -68.91599512938834 -498.74697007452403 139.93871734069197 0.0 0.0
-922.0731577869244 -75.67685207250514 -493.8354816326006 137.93736230103002 0.0 0.0
-891.4881758563722 -73.52316000654442 -477.2534602833959 138.7234215321653 0.0 0.0
-850.414872715379 -64.9256876396373 -452.1707469090949 141.52149158937075 0.0 0.0
-802.8758847097184 -54.19324473863146 -422.80329840029503 145.07082612275093 0.0 0.0
-753.1452852651923 -45.693824099308074 -393.29325301075573 148.36962043887016 0.0 0.0
-702.283174413398 -42.61338628233944 -364.69950367163926 151.92798015860146 0.0 0.0
-642.1825189329388 -46.263136188747026 -328.2775020361577 155.5069629699649 0.0 0.0
-554.9517784874519 -41.980855600915234 -260.59307963413767 161.55334444365377 0.0 0.0
-432.77177019001545 -19.33726819475139 -165.99453475803432 173.48389306587987 0.0 0.0
-300.9553208335107 9.091727492612025 -91.91450845114724 181.03609400326965 0.0 0.0
-208.05665556233333 21.725611332537987 -56.03299692745959 181.5629892100629 0.0 0.0
-151.54939892464006 16.507253887628117 -40.48785090467722 181.55294747532696 0.0 0.0
-103.34033565525148 -5.0118662357911505 -32.466976160637195 180.35864376506956 0.0 0.0
-47.09774440930457 -72.75599085480748 -35.95579294831305 151.37633214081683 0.0 0.0
-81.05640419878631 -276.2168654914897 -107.1819809070828 100.42664685655649 0.0 0.0
-66.04685215678842 -196.1444653244149 -78.657395244361 -86.67337756690362 0.0 0.0
-61.705326529061125 -68.46337484816344 -39.0508330882252 -135.3773391424658 0.0 0.0
-124.39676751480984 -4.767652621470914 -38.722592877605415 -167.47122733952654 0.0 0.0
-190.5444825850682 14.412707661969126 -52.812923069211465 -168.4787440394362 0.0 0.0
-270.8082508379091 19.24213583832963 -75.93845231513963 -164.605909014925 0.0 0.0
-391.96221274981286 -0.8981140578699964 -130.10013043447125 -154.76671358866673 0.0 0.0
-530.7045747226854 -38.5908534533135 -229.25490402160676 -142.76924373798994 0.0 0.0
-642.9341356175933 -58.7408805883648 -326.3949123475169 -137.2225014177305 0.0 0.0
-719.9465605946048 -60.89720106409746 -382.3635011947649 -134.97560144367984 0.0 0.0
-775.6872597787085 -62.38343774927735 -414.84752023582786 -132.75048119074677 0.0 0.0
-829.0912012372615 -67.04959122471159 -444.3361630673846 -131.0829472249434 0.0 0.0
-881.3902440125138 -77.52021334417032 -475.84013135856287 -128.29145985573902 0.0 0.0
-932.7467766372597 -91.49074303366115 -508.64711281863873 -124.95278391356891 0.0 0.0
-979.6446716334389 -104.67554992178611 -538.8755752720209 -122.07104431775078 0.0 0.0
-1016.3176621079588 -111.55294889141715 -560.8527406436507 -121.10568366714533 0.0 0.0
-1036.3303504081523 -105.73625138914963 -568.1149967284505 -123.17073638297059 0.0 0.0
-1032.0501020170166 -81.8353987056951 -554.1538685564917 -127.3332020690744 0.0 0.0
-994.9225366951368 -30.303381709738773 -509.98257331879006 -131.6141837150332 0.0 0.0
-901.4337796822934 69.5092821807305 -413.96016379714445 -132.59510237767213 0.0 0.0
-709.7237806220621 253.59079701418565 -227.2903046240914 -128.81381325410698 0.0 0.0
-3009.66087414465 -2126.6859913664116 -2552.275326971982 2.022204625973245e-11 0.0 0.0
-709.7237806205296 253.59079701565133 -227.2903046229223 128.8138132541439 0.0 0.0
-901.4337796833372 69.5092821794799 -413.96016379765894 132.59510237793683 0.0 0.0
-994.922536694096 -30.303381708647947 -509.9825733179691 131.61418371493008 0.0 0.0
-1032.0501020165402 -81.83539870544506 -554.1538685562443 127.33320206928457 0.0 0.0
-1036.3303504061994 -105.73625138715197 -568.1149967271048 123.17073638271542 0.0 0.0
-1016.3176621080047 -111.55294889175427 -560.8527406435326 121.10568366725239 0.0 0.0
-979.6446716339993 -104.67554992272386 -538.8755752723781 122.07104431796049 0.0 0.0
-932.7467766368303 -91.49074303340112 -508.64711281843745 124.95278391361698 0.0 0.0
-881.3902440122795 -77.5202133441737 -475.84013135841036 128.29145985571398 0.0 0.0
-829.0912012375902 -67.04959122536499 -444.3361630676658 131.0829472249861 0.0 0.0
-775.6872597791429 -62.383437750198965 -414.84752023615493 132.75048119086648 0.0 0.0
-719.946560593605 -60.89720106335997 -382.36350119405415 134.97560144368313 0.0 0.0
-642.9341356177679 -58.74088058899099 -326.394912347527 137.2225014177751 0.0 0.0
-530.7045747220641 -38.590853453164094 -229.25490402111694 142.76924373800506 0.0 0.0
-391.9622127495947 -0.8981140583184253 -130.10013043439818 154.76671358869078 0.0 0.0
-270.80825083787903 19.242135837656694 -75.93845231533793 164.60590901486435 0.0 0.0
-190.54448258499 14.41270766179779 -52.8129230692507 168.47874403926767 0.0 0.0
-124.39676751467486 -4.767652621386495 -38.72259287754368 167.47122733951457 0.0 0.0
-61.705326529143356 -68.46337484832716 -39.05083308829879 135.37733914231438 0.0 0.0
-66.04685215684749 -196.1444653242375 -78.65739524432551 86.67337756675393 0.0 0.0
-54.6758445665358 -131.0788363384431 -55.72640427149367 -71.77076526856341 0.0 0.0
-72.962976299522 -60.336066693372864 -39.98970796117755 -117.11145678463245 0.0 0.0
-143.96812167840974 -4.304255761204082 -44.47177064664026 -150.3765103551321 0.0 0.0
-228.05397995915536 11.722480423576762 -64.75308394933317 -151.38703659632242 0.0 0.0
-332.2929315884547 12.432142767144546 -98.00936377856505 -140.84082077977595 0.0 0.0
-473.4277368985592 -16.036134421312113 -173.09728442471393 -125.40176231964325 0.0 0.0
-608.9608445080282 -54.41089393717089 -286.82282366968593 -116.09614012467173 0.0 0.0
-710.4410070357787 -70.32536416808266 -375.72426791930764 -114.21201534956232 0.0 0.0
-779.4828085498665 -76.8731609613037 -423.8951426106746 -113.24914911880224 0.0 0.0
-838.6130870443257 -80.11615240236434 -456.7100063620438 -113.55431706012932 0.0 0.0
-893.6328703961285 -87.70365554048308 -488.1614530272907 -112.46690863920719 0.0 0.0
-948.7691875868413 -100.72605699267655 -522.2966205725111 -110.18515025176049 0.0 0.0
-1003.6479605274942 -117.66394863451521 -558.2878087545743 -107.30245863832172 0.0 0.0
-1055.6807479024678 -135.06985945392745 -593.1236287391116 -104.5625884415519 0.0 0.0
-1099.0481873373292 -147.37985776215876 -621.1404945159757 -103.23518472451164 0.0 0.0
-1121.6179446914307 -142.98846608915892 -630.4601554730891 -104.53480986748575 0.0 0.0
-1110.1012337315242 -108.8506956779427 -607.849148313979 -108.15400386281176 0.0 0.0
-1050.915383915058 -33.87510763143331 -541.0503690514513 -111.51165657510748 0.0 0.0
-931.036657154031 92.90584648994653 -418.19610379109736 -111.96143065844032 0.0 0.0
-737.0083263114054 279.54181360593407 -228.45788929243682 -110.19763698091175 0.0 0.0
-3304.26085807412 -2347.879496971369 -2813.548146098761 1.2153833495176514e-10 0.0 0.0
-737.0083263101619 279.5418136072102 -228.45788929176786 110.19763698084631 0.0 0.0
-931.0366571544687 92.90584648946299 -418.1961037914772 111.96143065855648 0.0 0.0
-1050.9153839143435 -33.87510763084032 -541.0503690510171 111.51165657506128 0.0 0.0
-1110.101233730546 -108.85069567715028 -607.8491483134483 108.15400386299427 0.0 0.0
-1121.6179446902236 -142.9884660880097 -630.4601554722758 104.5348098674839 0.0 0.0
-1099.0481873360181 -147.37985776110457 -621.140494515037 103.23518472472604 0.0 0.0
-1055.6807479021454 -135.06985945370812 -593.1236287388234 104.56258844150426 0.0 0.0
-1003.6479605270669 -117.66394863440871 -558.2878087543731 107.30245863841257 0.0 0.0
-948.7691875870504 -100.72605699315925 -522.2966205726159 110.18515025180973 0.0 0.0
-893.6328703961296 -87.7036555407543 -488.16145302737175 112.46690863918136 0.0 0.0
-838.6130870437739 -80.11615240217586 -456.7100063617299 113.55431706019534 0.0 0.0
-779.4828085494808 -76.87316096125691 -423.8951426103726 113.2491491189015 0.0 0.0
-710.4410070364604 -70.32536416921373 -375.7242679196527 114.21201534957828 0.0 0.0
-608.9608445071412 -54.41089393664715 -286.82282366890985 116.09614012457584 0.0 0.0
-473.4277368983285 -16.03613442156157 -173.0972844244999 125.40176231958003 0.0 0.0
-332.29293158857365 12.432142766151902 -98.00936377886815 140.8408207798058 0.0 0.0
-228.0539799589494 11.722480423644228 -64.75308394926095 151.38703659626836 0.0 0.0
-143.9681216783003 -4.304255761197654 -44.47177064660432 150.37651035514392 0.0 0.0
-72.96297629941729 -60.33606669342188 -39.98970796116081 117.11145678453516 0.0 0.0
-54.67584456632533 -131.0788363382704 -55.72640427137873 71.77076526851155 0.0 0.0
-46.934407027841296 -80.57129861628133 -38.25171169323678 -56.43939290977207 0.0 0.0
-81.6253797361056 -49.80860362985576 -39.4301950097884 -96.68399096334952 0.0 0.0
-162.28568545415183 -3.3744436075098814 -49.69854621697204 -129.0554964843225 0.0 0.0
-264.5376280312295 7.3082117027875615 -77.01575166970247 -129.24244368299037 0.0 0.0
-395.1494297846302 3.05147663723059 -122.81071762229027 -113.8999061791343 0.0 0.0
-541.2067849346357 -34.24332740690737 -218.85138047950883 -95.16594663011578 0.0 0.0
-670.7886348645901 -65.07481088070617 -334.7928122612743 -91.79400569355256 0.0 0.0
-760.8304130094864 -82.21019230301914 -413.1900055664884 -91.09932346898944 0.0 0.0
-832.1374666486671 -90.74308224173039 -458.84602329945324 -92.34003669296105 0.0 0.0
-892.9670213744915 -97.88319204789367 -493.6325072193846 -93.32648539207197 0.0 0.0
-951.1225008982989 -108.55349042864637 -528.0879047131399 -92.73509435332444 0.0 0.0
-1009.0440593787952 -123.96274842013119 -564.7867841441248 -91.02318599931796 0.0 0.0
-1066.7123980875167 -143.11991700552113 -603.2521059584257 -88.78794332301122 0.0 0.0
-1122.462575689934 -164.27161001777748 -641.7671335521059 -86.39011910858788 0.0 0.0
-1171.2695002041035 -180.84236576908566 -674.5935293559257 -84.58771000004894 0.0 0.0
-1198.2711461149477 -179.1038723177877 -687.4742411656835 -84.6856129340406 0.0 0.0
-1180.6843906667618 -137.83537486890765 -658.3594018700737 -87.12405597292931 0.0 0.0
-1101.0263277917486 -41.00385874983911 -570.412775933878 -90.31848656569429 0.0 0.0
-957.2483129257932 110.21966500178823 -423.2151302112458 -92.55087457689649 0.0 0.0
-754.7205814161384 304.8229180608374 -224.8927002855698 -94.66714728852662 0.0 0.0
-3555.1770509872445 -2544.4431187078803 -3039.7097860918834 1.5330314795392042e-10 0.0 0.0
-754.7205814163158 304.82291806070646 -224.89270028593938 94.66714728854878 0.0 0.0
-957.2483129246536 110.2196650027922 -423.21513021052465 92.5508745769495 0.0 0.0
-1101.0263277912254 -41.00385874949424 -570.4127759336998 90.31848656605786 0.0 0.0
-1180.6843906651447 -137.8353748674402 -658.3594018690486 87.12405597308876 0.0 0.0
-1198.2711461167387 -179.10387231978729 -687.4742411669218 84.68561293422962 0.0 0.0
-1171.2695002030684 -180.84236576829892 -674.5935293552147 84.58771000024109 0.0 0.0
-1122.4625756896273 -164.27161001772075 -641.7671335519283 86.39011910871382 0.0 0.0
-1066.712398087654 -143.1199170059313 -603.252105958651 88.78794332325484 0.0 0.0
-1009.0440593785089 -123.96274842007846 -564.78678414387 91.02318599923633 0.0 0.0
-951.1225008984895 -108.55349042914341 -528.0879047133022 92.73509435340102 0.0 0.0
-892.9670213744193 -97.88319204816455 -493.6325072193711 93.32648539212805 0.0 0.0
-832.1374666484451 -90.74308224185063 -458.8460232993423 92.3400366930272 0.0 0.0
-760.8304130092993 -82.21019230325679 -413.19000556630215 91.09932346910425 0.0 0.0
-670.7886348635108 -65.07481087990783 -334.7928122603901 91.7940056934715 0.0 0.0
-541.2067849337942 -34.243327406386086 -218.85138047886306 95.16594662999766 0.0 0.0
-395.1494297843162 3.0514766368047663 -122.81071762226497 113.89990617925908 0.0 0.0
-264.5376280309239 7.308211702868591 -77.01575166959528 129.24244368286494 0.0 0.0
-162.28568545404644 -3.374443607610509 -49.698546216970556 129.05549648415126 0.0 0.0
-81.62537973600053 -49.80860362979264 -39.43019500973794 96.68399096331869 0.0 0.0
-46.934407027843164 -80.5712986161768 -38.25171169320598 56.43939290959687 0.0 0.0
-42.20321482162468 -44.311761381348774 -25.95449286089203 -41.16859168218366 0.0 0.0
-87.75977302944594 -38.2003676969548 -37.788042217920214 -74.3311501102834 0.0 0.0
-179.39731728780242 -2.0895534946083107 -54.44628171242749 -103.34611279163235 0.0 0.0
-301.97743183290413 1.4702253349535122 -89.96157270475237 -102.27160414668435 0.0 0.0
-454.9397664401554 -10.59250176291122 -151.53974655256224 -83.02717704541037 0.0 0.0
-601.6458147789834 -47.81415088974594 -262.9385321587875 -69.61526683108355 0.0 0.0
-716.5426013151372 -74.55874761339152 -373.1960180699383 -68.70058027307505 0.0 0.0
-803.8198286900447 -92.12203254610193 -442.9606200362324 -68.87738756642797 0.0 0.0
-877.3213583680514 -104.83679697285388 -489.42694980523635 -70.87245656981693 0.0 0.0
-941.7718108129493 -115.83389656835618 -527.5551450286754 -72.1938651977178 0.0 0.0
-1003.0230208090138 -129.56404573336775 -565.0652436254738 -72.02567906588993 0.0 0.0
-1063.9516443575726 -147.49581972030697 -604.5129936356225 -70.88326800247256 0.0 0.0
-1123.9062720195113 -168.925049297087 -645.2469600935203 -69.3039593143022 0.0 0.0
-1181.2802418773758 -190.46454657017406 -684.7393795446255 -67.53258655596645 0.0 0.0
-1232.3588255714583 -209.10656934969404 -719.6824721765693 -65.51671725739821 0.0 0.0
-1265.3790415569729 -212.78181052602366 -738.2461973476716 -64.06406355189279 0.0 0.0
-1252.0450066737724 -174.13283798603925 -712.600426211558 -64.84399431750366 0.0 0.0
-1158.4872710629434 -62.2241023730582 -610.1948808433178 -68.422044984342 0.0 0.0
-985.6108962035091 118.66120502632025 -433.5316146236982 -73.66207935954294 0.0 0.0
-757.9716482421404 338.68371041090535 -209.7429630766779 -80.72531768936156 0.0 0.0
-3762.3624301165105 -2706.8181595540436 -3226.3561183146835 3.274358562066482e-11 0.0 0.0
-757.9716482433836 338.68371040956777 -209.74296307761205 80.72531768959277 0.0 0.0
-985.6108962020083 118.66120502770801 -433.5316146225298 73.66207935967945 0.0 0.0
-1158.4872710641766 -62.22410237447062 -610.1948808442603 68.4220449848383 0.0 0.0
-1252.045006673396 -174.13283798575793 -712.6004262113847 64.84399431747921 0.0 0.0
-1265.3790415589033 -212.7818105281265 -738.2461973489078 64.0640635519663 0.0 0.0
-1232.358825570706 -209.10656934909758 -719.6824721761208 65.51671725732614 0.0 0.0
-1181.280241875563 -190.46454656856696 -684.7393795434691 67.53258655606533 0.0 0.0
-1123.9062720205086 -168.92504929834584 -645.2469600942136 69.30395931439243 0.0 0.0
-1063.951644357265 -147.4958197201889 -604.5129936353441 70.8832680023043 0.0 0.0
-1003.0230208092012 -129.56404573393655 -565.0652436255999 72.02567906607273 0.0 0.0
-941.7718108126364 -115.83389656842266 -527.5551450285112 72.19386519790552 0.0 0.0
-877.3213583682736 -104.83679697342191 -489.4269498054251 70.87245656992839 0.0 0.0
-803.8198286902682 -92.12203254665232 -442.96062003629345 68.87738756639231 0.0 0.0
-716.5426013144902 -74.55874761303403 -373.1960180693477 68.70058027290602 0.0 0.0
-601.6458147778989 -47.81415088893888 -262.93853215793774 69.61526683101644 0.0 0.0
-454.93976643986014 -10.592501763155834 -151.53974655244272 83.02717704549012 0.0 0.0
-301.9774318326798 1.4702253348584189 -89.96157270473502 102.27160414655182 0.0 0.0
-179.3973172878445 -2.0895534948166925 -54.446281712502326 103.34611279145275 0.0 0.0
-87.75977302946016 -38.20036769686701 -37.78804221789815 74.33115011021499 0.0 0.0
-42.20321482170401 -44.31176138129957 -25.954492860901073 41.168591681967214 0.0 0.0
-39.23068715619789 -21.89439652143961 -18.33752510329125 -26.780072501487272 0.0 0.0
-90.70956231397601 -26.829443045170112 -35.261701607743845 -50.36909599896917 0.0 0.0
-195.02530486441475 -1.043302899294213 -58.820582329112675 -72.58777845887882 0.0 0.0
-341.8733432659086 -5.351678040075133 -104.08910550274997 -69.8801492721673 0.0 0.0
-509.7228728088186 -26.951500796465226 -184.16402154904722 -52.017618153363244 0.0 0.0
-649.2815174035507 -57.755558805963574 -302.70204328186895 -46.36246164142097 0.0 0.0
-751.2829304606897 -82.27318384092797 -402.2863197038066 -46.146550141496 0.0 0.0
-841.01374323167 -102.56175451571922 -468.7126315082629 -47.04030670860639 0.0 0.0
-917.7882288526896 -119.59822536077444 -517.5610684688766 -48.83655066221369 0.0 0.0
-985.8690460178527 -134.1629460197876 -559.1417090701589 -50.18096789416975 0.0 0.0
-1050.5578375033758 -150.79539311828316 -599.8243345625183 -50.39881867020706 0.0 0.0
-1114.1601455311347 -171.17145468922314 -641.8270417470014 -49.80960103196513 0.0 0.0
-1176.4321008560087 -193.71728091486375 -684.2664707960942 -48.93454331648778 0.0 0.0
-1234.1864262355466 -215.8847075718349 -724.2718170560502 -47.76460363442655 0.0 0.0
-1283.6635979203718 -232.384316452046 -757.3275129115664 -46.02235795011689 0.0 0.0
-1317.5476721501566 -236.37249948270875 -776.3735717040122 -43.717439300629636 0.0 0.0
-1319.8057888690532 -212.6607752381696 -765.8729690435432 -42.41098911277321 0.0 0.0
-1247.0887978397163 -120.21843153000111 -683.6896074710726 -45.24419182075789 0.0 0.0
-1033.4059699444265 103.02345852937941 -465.54384168041287 -53.93103219804969 0.0 0.0
-731.2073463958338 398.87550964406387 -166.45683558001303 -67.18422540510026 0.0 0.0
-3911.9309313705535 -2817.1885806229825 -3357.86605520049 -1.5495693617140205e-10 0.0 0.0
-731.2073463949266 398.8755096448451 -166.4568355793105 67.18422540523844 0.0 0.0
-1033.4059699463444 103.02345852736575 -465.54384168188056 53.931032198306866 0.0 0.0
-1247.0887978402238 -120.21843153062068 -683.6896074714904 45.244191820834146 0.0 0.0
-1319.8057888690348 -212.6607752382148 -765.8729690436472 42.410989112524234 0.0 0.0
-1317.5476721507453 -236.37249948351808 -776.3735717043479 43.71743930072666 0.0 0.0
-1283.663597921502 -232.38431645330894 -757.3275129125595 46.02235795010184 0.0 0.0
-1234.1864262336774 -215.88470757016404 -724.2718170547649 47.76460363446332 0.0 0.0
-1176.4321008568095 -193.71728091589793 -684.266470796618 48.934543316487236 0.0 0.0
-1114.160145530855 -171.17145468917627 -641.8270417467861 49.809601031877264 0.0 0.0
-1050.557837502621 -150.7953931178605 -599.8243345620888 50.3988186703217 0.0 0.0
-985.8690460175569 -134.1629460197742 -559.1417090699209 50.18096789426048 0.0 0.0
-917.7882288527578 -119.59822536116633 -517.5610684689276 48.8365506621985 0.0 0.0
-841.0137432317727 -102.561754516133 -468.7126315082634 47.040306708478816 0.0 0.0
-751.2829304598916 -82.27318384044318 -402.2863197031698 46.14655014136024 0.0 0.0
-649.2815174028365 -57.75555880559591 -302.7020432812047 46.362461641420666 0.0 0.0
-509.72287280799554 -26.951500795943968 -184.1640215485154 52.017618153386714 0.0 0.0
-341.8733432656344 -5.351678040175985 -104.08910550270868 69.88014927223203 0.0 0.0
-195.02530486422748 -1.0433028993954963 -58.820582329086875 72.58777845882305 0.0 0.0
-90.70956231395442 -26.829443045190082 -35.26170160774334 50.369095998964866 0.0 0.0
-39.23068715624828 -21.894396521369035 -18.337525103285195 26.78007250128467 0.0 0.0
-35.593046105518425 -12.232098068552892 -14.347543252221397 -14.991761222996816 0.0 0.0
-88.95853615974579 -17.509939018185825 -31.94054255337948 -25.244545574774214 0.0 0.0
-208.93544884944686 -1.426099198451075 -63.108464414369365 -35.18922606573552 0.0 0.0
-382.9782200608697 -12.429322605747895 -120.00067077494994 -32.116142750683046 0.0 0.0
-560.6815516830743 -40.598319058698706 -218.24375301826836 -24.01390286626758 0.0 0.0
-684.2980367292607 -64.95932593229463 -335.88202320768477 -24.640042470645987 0.0 0.0
-781.9186678392041 -88.19313260990577 -425.41315556322934 -25.0178467016247 0.0 0.0
-873.4318641585669 -113.45862133029587 -491.4285139305692 -25.366534072896567 0.0 0.0
-954.1122706686967 -134.66355121984452 -543.5545895369554 -26.31322539374623 0.0 0.0
-1026.1740337736042 -153.15274486339055 -589.0694275454069 -27.327200703507533 0.0 0.0
-1093.9647495604522 -172.35112092674643 -632.5961284138355 -27.839868785351644 0.0 0.0
-1160.2887608661586 -194.3156877765116 -676.7477820286766 -27.870627047398578 0.0 0.0
-1224.3977274082495 -218.73396985542203 -721.0395875067145 -27.572304972098514 0.0 0.0
-1282.7282076450674 -240.39728617302154 -761.0844105430324 -27.00922473080954 0.0 0.0
-1328.5367934324104 -252.90202172882528 -790.3166595504395 -25.923657020596487 0.0 0.0
-1356.2106527169035 -250.70457974469258 -803.1274596365563 -23.946572839350086 0.0 0.0
-1364.3707930498629 -232.9350264418773 -798.3413246428415 -21.537092539127848 0.0 0.0
-1345.6261066368243 -193.48762064913723 -769.3862164663609 -21.694056212847254 0.0 0.0
-1204.2519936860406 -39.74108335992949 -622.4123813496708 -30.46035309476053 0.0 0.0
-696.2675729520818 465.3433490807033 -116.15979375636482 -51.37931057129191 0.0 0.0
-3837.4829318401944 -2705.935398106911 -3266.562826049134 -2.2001955812811502e-11 0.0 0.0
-696.2675729499754 465.343349082813 -116.15979375487427 51.37931057123423 0.0 0.0
-1204.2519936873368 -39.741083361367856 -622.4123813507546 30.460353095013353 0.0 0.0
-1345.6261066368052 -193.48762064911926 -769.3862164663284 21.694056212569386 0.0 0.0
-1364.370793048866 -232.93502644100403 -798.341324642134 21.537092538893262 0.0 0.0
-1356.2106527177655 -250.70457974572338 -803.1274596371095 23.946572839282744 0.0 0.0
-1328.536793432197 -252.90202172883795 -790.3166595504655 25.92365702076662 0.0 0.0
-1282.7282076446486 -240.3972861727593 -761.0844105426504 27.009224730855337 0.0 0.0
-1224.397727408454 -218.73396985587593 -721.039587506981 27.572304971939086 0.0 0.0
-1160.288760866787 -194.315687777416 -676.7477820291526 27.870627047535546 0.0 0.0
-1093.9647495602433 -172.351120926784 -632.5961284137646 27.839868785249195 0.0 0.0
-1026.1740337731378 -153.15274486322863 -589.0694275450368 27.327200703475636 0.0 0.0
-954.1122706684661 -134.6635512199327 -543.5545895368176 26.313225393805162 0.0 0.0
-873.4318641583476 -113.45862133041851 -491.4285139304217 25.36653407295962 0.0 0.0
-781.9186678386045 -88.19313260961957 -425.4131555627668 25.017846701673932 0.0 0.0
-684.2980367280413 -64.95932593138716 -335.8820232067257 24.640042470678615 0.0 0.0
-560.6815516824116 -40.5983190583069 -218.2437530177537 24.01390286620911 0.0 0.0
-382.97822006053053 -12.42932260585992 -120.00067077487383 32.11614275071238 0.0 0.0
-208.93544884933567 -1.4260991984409217 -63.108464414332985 35.18922606569473 0.0 0.0
-88.95853615988162 -17.509939018467794 -31.940542553504816 25.244545574760885 0.0 0.0
-35.593046105414764 -12.232098068418487 -14.347543252149974 14.991761222934214 0.0 0.0
-23.991823190892337 -6.436450592908559 -9.128482135140267 -9.034325314012172 0.0 0.0
-78.30484338770125 -10.064207187668973 -26.51071517261107 -10.495168907919808 0.0 0.0
-220.90391239536643 -4.501683900520447 -67.62167888876607 -11.282867598401486 0.0 0.0
-433.00104096300146 -35.721234626704245 -145.80371139282798 -6.075134528000278 0.0 0.0
-640.5074047716328 -97.62686548002198 -278.4532604021599 1.416367948519028 0.0 0.0
-796.6302860483222 -159.2012044179476 -432.41904150810524 1.3614495827369488 0.0 0.0
-941.6624388164227 -232.57650834385805 -567.458951489346 0.03302198062855766 0.0 0.0
-1095.828467272838 -321.96094505720015 -696.2561990378142 -1.6086653230111558 0.0 0.0
-1260.5685747812638 -427.84208139831014 -832.9046259681976 -3.5677202873323743 0.0 0.0
-1445.5230408828131 -558.8428064808884 -990.8489393892715 -5.667882672323138 0.0 0.0
-1657.0236378959348 -721.0486415491865 -1177.2692509825765 -7.540345374097816 0.0 0.0
-1894.3250566030854 -913.9424169765381 -1391.8980765386823 -8.930608254012098 0.0 0.0
-2149.3887331094716 -1128.3203280838777 -1626.2063638034697 -9.851563533192131 0.0 0.0
-2409.336957796608 -1351.1368845301477 -1867.2909022711183 -10.507009319608514 0.0 0.0
-2655.1499930156833 -1563.3062373534676 -2096.10477095013 -10.663276552147135 0.0 0.0
-2861.9333193870875 -1740.1518376709473 -2287.852377498873 -10.023012208298375 0.0 0.0
-3003.9639736160075 -1856.5229674926086 -2416.9663948001153 -8.43241023687078 0.0 0.0
-3080.793565142606 -1912.6711712954416 -2482.8859910440688 -7.791137124247719 0.0 0.0
-3186.7600499467326 -2004.4426850086134 -2580.267971798062 -16.084180135733707 0.0 0.0
-3332.9147777386693 -2149.2577708113668 -2723.7316920958956 -41.605946611922676 0.0 0.0
-7020.004898556188 -5860.365266127914 -6416.921484200161 -1.1679901490424527e-10 0.0 0.0
-3332.9147777368826 -2149.257770809614 -2723.731692094619 41.60594661178817 0.0 0.0
-3186.7600499452865 -2004.44268500722 -2580.2679717967712 16.08418013592953 0.0 0.0
-3080.7935651427506 -1912.6711712957012 -2482.8859910436004 7.791137123900825 0.0 0.0
-3003.963973614299 -1856.5229674910127 -2416.966394798637 8.432410236755668 0.0 0.0
-2861.9333193877883 -1740.1518376718643 -2287.8523774989376 10.023012208252766 0.0 0.0
-2655.1499930125565 -1563.3062373504722 -2096.1047709477575 10.663276552155025 0.0 0.0
-2409.3369577959356 -1351.1368845296956 -1867.2909022701413 10.507009319574074 0.0 0.0
-2149.388733106963 -1128.3203280815815 -1626.206363801615 9.85156353299232 0.0 0.0
-1894.3250566039947 -913.9424169777446 -1391.8980765390183 8.930608254213226 0.0 0.0
-1657.0236378960885 -721.0486415496379 -1177.2692509824517 7.540345373977807 0.0 0.0
-1445.5230408810803 -558.8428064794182 -990.8489393878586 5.66788267226665 0.0 0.0
-1260.568574780785 -427.84208139817434 -832.9046259676982 3.567720287346173 0.0 0.0
-1095.8284672724517 -321.9609450571645 -696.2561990374218 1.608665323178947 0.0 0.0
-941.6624388158457 -232.57650834362016 -567.4589514887841 -0.0330219805892753 0.0 0.0
-796.6302860460391 -159.2012044158007 -432.41904150645075 -1.3614495826498114 0.0 0.0
-640.5074047715594 -97.62686548044279 -278.45326040194743 -1.4163679486170082 0.0 0.0
-433.00104096244553 -35.72123462626645 -145.80371139250173 6.075134527995125 0.0 0.0
-220.90391239532227 -4.501683900808061 -67.62167888883909 11.282867598263898 0.0 0.0
-78.30484338776671 -10.064207187976455 -26.510715172722954 10.495168907944818 0.0 0.0
-23.991823190775847 -6.436450592807596 -9.128482135075032 9.034325314051133 0.0 0.0
SCALARS Strain float 6
LOOKUP_TABLE default
0.016363253162523662 -0.02674733666407439 0.0 -0.0019046826334711857 0.0 0.0
0.010091620902467052 -0.003399171768169628 0.0 -0.007990535571453199 0.0 0.0
0.0029456607009363395 -0.0006598692339990659 0.0 -0.00105994387068574 0.0 0.0
0.0024507152006241414 -0.0009699386010862282 0.0 4.701122689835219e-05 0.0 0.0
0.003904436231932252 -0.0018122685870333713 0.0 0.0002939725187647195 0.0 0.0
0.007100628469983612 -0.004311707485535966 0.0 0.0004989755988823291 0.0 0.0
0.01265938285299624 -0.009171981098696451 0.0 0.0006455193436449335 0.0 0.0
0.021086764837703553 -0.01686064986172336 0.0 0.0006835756962998648 0.0 0.0
0.03275185335178262 -0.027707403062309052 0.0 0.0005985169733491577 0.0 0.0
0.04775654442168663 -0.04175680451947174 0.0 0.00034459638247525456 0.0 0.0
0.06593227548109641 -0.05880456652891078 0.0 -4.5157848562387554e-05 0.0 0.0
0.08694989432372191 -0.07852499546048161 0.0 -0.0005397862588858855 0.0 0.0
0.11041460674401668 -0.10056584598707746 0.0 -0.0011345685126584533 0.0 0.0
0.13589662565840332 -0.1245485552448162 0.0 -0.001786350361963264 0.0 0.0
0.16285308701843243 -0.1499947274119773 0.0 -0.0025017251001894216 0.0 0.0
0.1904936283222045 -0.17618927707652088 0.0 -0.0032238373524247897 0.0 0.0
0.21770674711201404 -0.20209936927599803 0.0 -0.0037945329843585953 0.0 0.0
0.2430839506554966 -0.22639045109293948 0.0 -0.004007365453783035 0.0 0.0
0.265051967936823 -0.24748117946918863 0.0 -0.0037857787052659134 0.0 0.0
0.28159825592419574 -0.2634520533417477 0.0 -0.0048883725727356196 0.0 0.0
0.2882139694103831 -0.2701096888208973 0.0 5.8043847506183965e-15 0.0 0.0
0.28159825592416 -0.26345205334172145 0.0 0.004888372572748094 0.0 0.0
0.2650519679367445 -0.2474811794691137 0.0 0.0037857787052788614 0.0 0.0
0.24308395065538185 -0.22639045109282918 0.0 0.004007365453783702 0.0 0.0
0.21770674711187982 -0.2020993692758692 0.0 0.0037945329843554945 0.0 0.0
0.1904936283220631 -0.17618927707640844 0.0 0.0032238373524119436 0.0 0.0
0.16285308701829163 -0.14999472741183417 0.0 0.0025017251001906316 0.0 0.0
0.13589662565826255 -0.12454855524468483 0.0 0.0017863503619603895 0.0 0.0
0.1104146067438776 -0.10056584598694729 0.0 0.0011345685126538732 0.0 0.0
0.08694989432359533 -0.07852499546035525 0.0 0.0005397862588804748 0.0 0.0
0.06593227548098694 -0.058804566528801824 0.0 4.5157848552772415e-05 0.0 0.0
0.04775654442159751 -0.04175680451939581 0.0 -0.000344596382476903 0.0 0.0
0.032751853351715814 -0.02770740306225007 0.0 -0.0005985169733452543 0.0 0.0
0.021086764837656997 -0.016860649861672763 0.0 -0.0006835756963005637 0.0 0.0
0.012659382852965324 -0.009171981098665969 0.0 -0.0006455193436482366 0.0 0.0
0.007100628469965949 -0.004311707485523981 0.0 -0.0004989755988835389 0.0 0.0
0.0039044362319250406 -0.0018122685870327541 0.0 -0.0002939725187635612 0.0 0.0
0.0024507152006218525 -0.0009699386010843596 0.0 -4.701122689877993e-05 0.0 0.0
0.0029456607009334134 -0.0006598692339968104 0.0 0.0010599438706823238 0.0 0.0
0.010091620902460706 -0.0033991717681658975 0.0 0.007990535571446904 0.0 0.0
0.016363253162515787 -0.026747336664048858 0.0 0.001904682633415694 0.0 0.0
0.011636405000233883 -0.024092150353304878 0.0 -0.0014494269518560358 0.0 0.0
0.00679504263529232 -0.002563548055351676 0.0 -0.0066670011001106234 0.0 0.0
0.0018853414783924966 -0.0004793724508355214 0.0 -0.0006595297493076092 0.0 0.0
0.002132916019909532 -0.0009067995908568598 0.0 -0.00017748980180115376 0.0 0.0
0.00332026760509081 -0.0016125675386852209 0.0 -0.00014178354041710948 0.0 0.0
0.006049094529687719 -0.0038635430929180566 0.0 -0.0002812196038854062 0.0 0.0
0.011004852716566205 -0.00840464535346466 0.0 -0.000709259870171837 0.0 0.0
0.018656056291743665 -0.01569816113192574 0.0 -0.001406288912276154 0.0 0.0
0.0292944121762082 -0.026028305207023 0.0 -0.002397368756694861 0.0 0.0
0.04294120642225405 -0.0393987743059703 0.0 -0.003643471555058117 0.0 0.0
0.05939913042273426 -0.0555909479882757 0.0 -0.005026786995028798 0.0 0.0
0.07836981425087058 -0.07429224429352413 0.0 -0.0064444500800117325 0.0 0.0
0.09953401448848556 -0.09518416308455797 0.0 -0.007878532899711249 0.0 0.0
0.12253056779364775 -0.1179259472493584 0.0 -0.00932075244975372 0.0 0.0
0.14688374226506404 -0.14207147243777063 0.0 -0.010710857089047225 0.0 0.0
0.17190987797850768 -0.1669613801472904 0.0 -0.011895676690235127 0.0 0.0
0.19664338940315887 -0.19164262321442338 0.0 -0.012568838365638896 0.0 0.0
0.21982735118022584 -0.21485355608966109 0.0 -0.012387181277819275 0.0 0.0
0.23982945509937262 -0.23501370533565252 0.0 -0.0113361124473026 0.0 0.0
0.2541548379838174 -0.24995722839817586 0.0 -0.01076300309951026 0.0 0.0
0.2595079138615252 -0.256234002509529 0.0 1.216995254571529e-14 0.0 0.0
0.2541548379837834 -0.24995722839814266 0.0 0.010763003099539264 0.0 0.0
0.23982945509930245 -0.2350137053355787 0.0 0.011336112447335829 0.0 0.0
0.2198273511801255 -0.21485355608956544 0.0 0.012387181277830893 0.0 0.0
0.19664338940304024 -0.1916426232143041 0.0 0.012568838365638588 0.0 0.0
0.17190987797838136 -0.1669613801471756 0.0 0.011895676690227251 0.0 0.0
0.14688374226493706 -0.14207147243764126 0.0 0.010710857089047891 0.0 0.0
0.12253056779352034 -0.11792594724923153 0.0 0.009320752449748549 0.0 0.0
0.09953401448836095 -0.0951841630844351 0.0 0.007878532899703798 0.0 0.0
0.0783698142507565 -0.07429224429340815 0.0 0.006444450080001269 0.0 0.0
0.05939913042263534 -0.05559094798817444 0.0 0.005026786995013657 0.0 0.0
0.04294120642217385 -0.0393987743058938 0.0 0.003643471555050617 0.0 0.0
0.0292944121761472 -0.026028305206968565 0.0 0.002397368756690739 0.0 0.0
0.018656056291700557 -0.01569816113188231 0.0 0.001406288912270898 0.0 0.0
0.011004852716539022 -0.008404645353438503 0.0 0.0007092598701662786 0.0 0.0
0.006049094529673401 -0.003863543092904885 0.0 0.0002812196038836148 0.0 0.0
0.003320267605085566 -0.001612567538684493 0.0 0.0001417835404168668 0.0 0.0
0.002132916019908338 -0.0009067995908549858 0.0 0.00017748980180018437 0.0 0.0
0.0018853414783919914 -0.00047937245083468365 0.0 0.0006595297493064462 0.0 0.0
0.0067950426352844755 -0.002563548055347872 0.0 0.006667001100099858 0.0 0.0
0.011636405000218567 -0.02409215035327756 0.0 0.0014494269518159379 0.0 0.0
0.008631750130416255 -0.019383273728775387 0.0 -0.0047692536766325965 0.0 0.0
0.00486810074758103 -0.001450956722248561 0.0 -0.00690396067117111 0.0 0.0
0.001289259217810371 -0.00022822826904366557 0.0 -0.0005684820035514571 0.0 0.0
0.0017864181081652941 -0.0007537623909698148 0.0 -0.0004767022296712361 0.0 0.0
0.0027911539709391683 -0.0012624070991623692 0.0 -0.0005207263521515065 0.0 0.0
0.00505552897234973 -0.0030162023124827493 0.0 -0.0007937399858221839 0.0 0.0
0.009372146149057785 -0.006895053116778361 0.0 -0.0016131800738006193 0.0 0.0
0.016200921500526138 -0.01337544753898446 0.0 -0.0029457181093150353 0.0 0.0
0.025754974590362592 -0.0226439075082868 0.0 -0.0048123550058368665 0.0 0.0
0.03800043370256728 -0.034637203010179904 0.0 -0.007089543790001304 0.0 0.0
0.05272009001821054 -0.04910763274805823 0.0 -0.009560269786485902 0.0 0.0
0.069638380644227 -0.06576877125114158 0.0 -0.012039464757512422 0.0 0.0
0.08848560022774862 -0.08435813329278878 0.0 -0.014481894425650356 0.0 0.0
0.1089737543424215 -0.10460488652681803 0.0 -0.016917249883674608 0.0 0.0
0.1307136557129137 -0.1261411417966429 0.0 -0.01926424329388887 0.0 0.0
0.153139848417477 -0.1484238336436034 0.0 -0.021249894774633363 0.0 0.0
0.1754429490830333 -0.1706597856171631 0.0 -0.02240370198085525 0.0 0.0
0.19646613299702828 -0.19172296115387516 0.0 -0.022245630148894222 0.0 0.0
0.21452219793494162 -0.21002065541935708 0.0 -0.020664675242155567 0.0 0.0
0.22744082840867444 -0.2232946437664498 0.0 -0.017929905656905273 0.0 0.0
0.23232489174157514 -0.22921610369555112 0.0 1.9387269567516796e-14 0.0 0.0
0.22744082840864255 -0.2232946437664084 0.0 0.01792990565695403 0.0 0.0
0.21452219793487903 -0.21002065541927778 0.0 0.02066467524220615 0.0 0.0
0.19646613299694116 -0.19172296115378804 0.0 0.02224563014892357 0.0 0.0
0.17544294908293048 -0.17065978561706552 0.0 0.02240370198085765 0.0 0.0
0.15313984841736447 -0.14842383364347994 0.0 0.021249894774626944 0.0 0.0
0.13071365571279928 -0.1261411417965266 0.0 0.01926424329388475 0.0 0.0
0.10897375434230792 -0.10460488652670029 0.0 0.016917249883666424 0.0 0.0
0.08848560022763857 -0.084358133292682 0.0 0.014481894425635335 0.0 0.0
0.06963838064412561 -0.0657687712510424 0.0 0.012039464757492447 0.0 0.0
0.052720090018122535 -0.04910763274797456 0.0 0.009560269786466857 0.0 0.0
0.038000433702495805 -0.034637203010106914 0.0 0.007089543789985192 0.0 0.0
0.02575497459030754 -0.022643907508238605 0.0 0.004812355005827034 0.0 0.0
0.016200921500487502 -0.013375447538947798 0.0 0.002945718109306587 0.0 0.0
0.009372146149034222 -0.0068950531167579964 0.0 0.0016131800737944316 0.0 0.0
0.005055528972337808 -0.003016202312471576 0.0 0.0007937399858191224 0.0 0.0
0.002791153970935026 -0.0012624070991596997 0.0 0.0005207263521484969 0.0 0.0
0.0017864181081642734 -0.0007537623909676671 0.0 0.0004767022296694003 0.0 0.0
0.0012892592178098809 -0.0002282282690447004 0.0 0.0005684820035509562 0.0 0.0
0.004868100747573275 -0.0014509567222448705 0.0 0.0069039606711552605 0.0 0.0
0.008631750130401003 -0.019383273728747204 0.0 0.00476925367660802 0.0 0.0
0.006588834984055759 -0.015701609425318796 0.0 -0.005220469801055827 0.0 0.0
0.003628422836729902 -0.0010378743690027102 0.0 -0.006324311053313991 0.0 0.0
0.0009087542559866862 -0.000123223330674148 0.0 -0.0008423374173929292 0.0 0.0
0.0014591207218774419 -0.0005859211318151174 0.0 -0.000788088486696197 0.0 0.0
0.0023133599898073572 -0.0009924425751140684 0.0 -0.0008641441929838512 0.0 0.0
0.004139893671022701 -0.002286339111541592 0.0 -0.0012082216459688106 0.0 0.0
0.007788621765902228 -0.005457579681440611 0.0 -0.002226548846381324 0.0 0.0
0.013748220755328711 -0.011070918038434489 0.0 -0.004060704884662912 0.0 0.0
0.022174504666324604 -0.019230403296118404 0.0 -0.006583260515631102 0.0 0.0
0.03298402398454873 -0.02980962493331235 0.0 -0.009628415741483267 0.0 0.0
0.045943366494162134 -0.04253870251878631 0.0 -0.012903058298501302 0.0 0.0
0.06079786517191886 -0.05715078735807337 0.0 -0.016182793007776856 0.0 0.0
0.07732090561271035 -0.0734289501902673 0.0 -0.019408736165195915 0.0 0.0
0.09528226211534098 -0.09116343957889526 0.0 -0.022590685242062113 0.0 0.0
0.11438900337216841 -0.11007214374989646 0.0 -0.025639013010025847 0.0 0.0
0.13420926103069208 -0.12973854531034715 0.0 -0.02826211078777381 0.0 0.0
0.15407611787625863 -0.14952834719991498 0.0 -0.029931962442590936 0.0 0.0
0.17294743886747013 -0.16844800369490529 0.0 -0.030052489942063693 0.0 0.0
0.18929918826799888 -0.18498840567462782 0.0 -0.028030691256238752 0.0 0.0
0.20129374671800335 -0.19720714044922466 0.0 -0.02287878976957284 0.0 0.0
0.20596403215916403 -0.20332066469014737 0.0 2.820833844285886e-14 0.0 0.0
0.2012937467179745 -0.1972071404491932 0.0 0.02287878976964021 0.0 0.0
0.18929918826794423 -0.18498840567457395 0.0 0.028030691256300692 0.0 0.0
0.17294743886739425 -0.16844800369482785 0.0 0.030052489942102946 0.0 0.0
0.15407611787616868 -0.14952834719983066 0.0 0.029931962442596723 0.0 0.0
0.13420926103059386 -0.12973854531023812 0.0 0.028262110787765353 0.0 0.0
0.11438900337206748 -0.11007214374979296 0.0 0.025639013010013985 0.0 0.0
0.09528226211524157 -0.09116343957879786 0.0 0.0225906852420526 0.0 0.0
0.07732090561261427 -0.07342895019017301 0.0 0.019408736165178422 0.0 0.0
0.06079786517183047 -0.05715078735798382 0.0 0.016182793007750395 0.0 0.0
0.04594336649408583 -0.04253870251871154 0.0 0.012903058298479209 0.0 0.0
0.03298402398448648 -0.029809624933244808 0.0 0.009628415741461838 0.0 0.0
0.02217450466627623 -0.019230403296073294 0.0 0.006583260515615861 0.0 0.0
0.013748220755294948 -0.01107091803839843 0.0 0.004060704884650969 0.0 0.0
0.007788621765882672 -0.0054575796814235415 0.0 0.002226548846374207 0.0 0.0
0.004139893671013276 -0.002286339111534614 0.0 0.0012082216459642014 0.0 0.0
0.002313359989804116 -0.0009924425751092507 0.0 0.0008641441929813178 0.0 0.0
0.0014591207218770347 -0.0005859211318148305 0.0 0.0007880884866942738 0.0 0.0
0.0009087542559864702 -0.00012322333067574733 0.0 0.0008423374173889457 0.0 0.0
0.003628422836722902 -0.0010378743689997386 0.0 0.006324311053298679 0.0 0.0
0.006588834984042064 -0.015701609425293177 0.0 0.005220469801036216 0.0 0.0
0.005045812115472231 -0.012718691053188154 0.0 -0.004619479108158223 0.0 0.0
0.002739604368084356 -0.0008113707066768767 0.0 -0.005633329634035812 0.0 0.0
0.0006563620698768907 -7.783376830408164e-05 0.0 -0.0012470997329649327 0.0 0.0
0.0011722099103856512 -0.00044236799852789496 0.0 -0.0011309698775054079 0.0 0.0
0.0018861750698679512 -0.0007794894381380902 0.0 -0.0011976581785422568 0.0 0.0
0.0033177477253670145 -0.0016918192559546017 0.0 -0.0015450054266222136 0.0 0.0
0.006285318985911522 -0.004142320918076211 0.0 -0.0026229807344051435 0.0 0.0
0.01132933435796015 -0.008818861315518095 0.0 -0.004715029350137768 0.0 0.0
0.018595143203449502 -0.015831075470396926 0.0 -0.00770003078167473 0.0 0.0
0.027938591395425025 -0.024966374348824507 0.0 -0.011258453761023204 0.0 0.0
0.03911872832654946 -0.03593528246740754 0.0 -0.015066664678755212 0.0 0.0
0.051894918163898046 -0.04848587961768261 0.0 -0.018879886287805524 0.0 0.0
0.06608197799279009 -0.06244343850289587 0.0 -0.02263892581673209 0.0 0.0
0.08151282185263561 -0.07765782161853946 0.0 -0.02633817137157297 0.0 0.0
0.09797107628837934 -0.0939256847145788 0.0 -0.029855973106887874 0.0 0.0
0.11514483774834935 -0.11094487368996113 0.0 -0.032916428475408065 0.0 0.0
0.13253207153622976 -0.12823954852034136 0.0 -0.03506305599484977 0.0 0.0
0.14928248634945795 -0.14500197134692355 0.0 -0.03559152065689448 0.0 0.0
0.1641194695862326 -0.1599679645224689 0.0 -0.03331357732187994 0.0 0.0
0.17548381543210237 -0.17149767813893615 0.0 -0.02658146985248502 0.0 0.0
0.18009427637327788 -0.17804542086347125 0.0 3.4518395086724496e-14 0.0 0.0
0.17548381543207647 -0.1714976781389096 0.0 0.026581469852563273 0.0 0.0
0.16411946958618465 -0.15996796452243434 0.0 0.0333135773219545 0.0 0.0
0.1492824863493927 -0.1450019713468578 0.0 0.035591520656939775 0.0 0.0
0.13253207153615212 -0.12823954852026304 0.0 0.03506305599485745 0.0 0.0
0.11514483774826353 -0.1109448736898791 0.0 0.032916428475395075 0.0 0.0
0.09797107628829263 -0.09392568471449415 0.0 0.0298559731068756 0.0 0.0
0.08151282185255074 -0.07765782161846173 0.0 0.02633817137156047 0.0 0.0
0.0660819779927073 -0.062443438502809756 0.0 0.022638925816713174 0.0 0.0
0.051894918163822856 -0.048485879617603124 0.0 0.018879886287778633 0.0 0.0
0.039118728326484234 -0.0359352824673435 0.0 0.01506666467872984 0.0 0.0
0.027938591395370957 -0.024966374348763278 0.0 0.01125845376099755 0.0 0.0
0.018595143203408028 -0.01583107547036099 0.0 0.00770003078165272 0.0 0.0
0.011329334357931905 -0.00881886131548688 0.0 0.004715029350125816 0.0 0.0
0.006285318985895373 -0.004142320918064175 0.0 0.002622980734397304 0.0 0.0
0.0033177477253595695 -0.0016918192559478699 0.0 0.0015450054266186954 0.0 0.0
0.0018861750698658834 -0.0007794894381367472 0.0 0.0011976581785403638 0.0 0.0
0.0011722099103852377 -0.0004423679985288049 0.0 0.0011309698775035049 0.0 0.0
0.0006563620698770467 -7.783376830460844e-05 0.0 0.0012470997329639248 0.0 0.0
0.002739604368079234 -0.000811370706674123 0.0 0.0056333296340223635 0.0 0.0
0.005045812115460895 -0.012718691053166083 0.0 0.004619479108143934 0.0 0.0
0.0038203287044565083 -0.01021726171221453 0.0 -0.003806811731018554 0.0 0.0
0.0020594247684108604 -0.0006495739516169711 0.0 -0.004955683168130723 0.0 0.0
0.00047891769603144855 -6.737120406838086e-05 0.0 -0.0016402325789784196 0.0 0.0
0.0009202701006581669 -0.000319566289302529 0.0 -0.0014742015462099471 0.0 0.0
0.001506947792650361 -0.0006101634518399633 0.0 -0.0015324854375670497 0.0 0.0
0.002590235663001999 -0.001226323277701667 0.0 -0.001825995174830509 0.0 0.0
0.004899609772004426 -0.002995529115217356 0.0 -0.0028774447568364996 0.0 0.0
0.00899304943810473 -0.006683910304651479 0.0 -0.004973106500894839 0.0 0.0
0.015050664699390589 -0.01248966447031055 0.0 -0.008142883871934898 0.0 0.0
0.022909815238353292 -0.020156576693265434 0.0 -0.011974523238509003 0.0 0.0
0.032293596453822716 -0.029348702775523754 0.0 -0.01605020872263368 0.0 0.0
0.0429802250805172 -0.03982681365502557 0.0 -0.02013183438901839 0.0 0.0
0.054822230865543095 -0.051454343732632885 0.0 -0.024160054115726737 0.0 0.0
0.06771043517596964 -0.06414117887328778 0.0 -0.028127273225622855 0.0 0.0
0.08150867454420374 -0.07775838601017479 0.0 -0.031901740803422916 0.0 0.0
0.09600013507344739 -0.09209543778908748 0.0 -0.035211354138603775 0.0 0.0
0.1108392480865946 -0.10682130944633086 0.0 -0.03769133804471335 0.0 0.0
0.12544824443639124 -0.12138576149606134 0.0 -0.038652805251229244 0.0 0.0
0.13887201554853126 -0.13487354740394208 0.0 -0.03657652990188877 0.0 0.0
0.149797434924977 -0.1459334759230708 0.0 -0.02925104786722946 0.0 0.0
0.1544544001776558 -0.15310474339156813 0.0 3.4459414488541285e-14 0.0 0.0
0.14979743492495393 -0.14593347592303849 0.0 0.02925104786731003 0.0 0.0
0.1388720155484901 -0.1348735474039011 0.0 0.036576529901970224 0.0 0.0
0.12544824443633593 -0.12138576149600169 0.0 0.03865280525127832 0.0 0.0
0.11083924808652791 -0.10682130944626066 0.0 0.03769133804471711 0.0 0.0
0.09600013507337551 -0.09209543778902336 0.0 0.03521135413858795 0.0 0.0
0.0815086745441315 -0.07775838601010351 0.0 0.031901740803408116 0.0 0.0
0.06771043517589811 -0.06414117887321656 0.0 0.02812727322560514 0.0 0.0
0.05482223086547483 -0.05145434373256334 0.0 0.0241600541157071 0.0 0.0
0.042980225080455264 -0.039826813654963315 0.0 0.02013183438899156 0.0 0.0
0.03229359645376821 -0.029348702775477867 0.0 0.01605020872260294 0.0 0.0
0.02290981523830793 -0.020156576693216 0.0 0.011974523238481772 0.0 0.0
0.015050664699356765 -0.012489664470286703 0.0 0.008142883871914215 0.0 0.0
0.008993049438081798 -0.006683910304631532 0.0 0.004973106500880968 0.0 0.0
0.004899609771991637 -0.00299552911520764 0.0 0.0028774447568252113 0.0 0.0
0.0025902356629970845 -0.0012263232776975597 0.0 0.0018259951748264597 0.0 0.0
0.0015069477926488762 -0.0006101634518416346 0.0 0.0015324854375626756 0.0 0.0
0.0009202701006581794 -0.0003195662893009203 0.0 0.0014742015462078824 0.0 0.0
0.00047891769603149875 -6.737120406820361e-05 0.0 0.0016402325789780178 0.0 0.0
0.0020594247684056592 -0.0006495739516144154 0.0 0.004955683168119475 0.0 0.0
0.0038203287044466503 -0.010217261712196082 0.0 0.0038068117310110566 0.0 0.0
0.0028340819341184376 -0.008093571338054746 0.0 -0.0030581707119541803 0.0 0.0
0.0015235720547367014 -0.000520819728615127 0.0 -0.004339235268825326 0.0 0.0
0.000343686745439112 -7.08765125025216e-05 0.0 -0.00196563794472612 0.0 0.0
0.0006915435647048828 -0.00021137637156631804 0.0 -0.0017884566283773561 0.0 0.0
0.001164604539591492 -0.00046536258963309515 0.0 -0.0018515418965641948 0.0 0.0
0.0019516772370502416 -0.0008745242190921908 0.0 -0.0020927373214053554 0.0 0.0
0.0036452049929461237 -0.002041251943929511 0.0 -0.0029960180802102456 0.0 0.0
0.006794344789790454 -0.004741305987231888 0.0 -0.004944610506649066 0.0 0.0
0.0116028511241317 -0.00927646539257247 0.0 -0.007963755153326098 0.0 0.0
0.01794061683604806 -0.015433240585742993 0.0 -0.011758815164860667 0.0 0.0
0.02551687997873866 -0.022832317366343162 0.0 -0.015840126096046216 0.0 0.0
0.03410369109771918 -0.031228876369339985 0.0 -0.019929954140528325 0.0 0.0
0.04359234974326409 -0.04052079909780106 0.0 -0.02396012405519605 0.0 0.0
0.0539312312815439 -0.050671518194997385 0.0 -0.02793742071493804 0.0 0.0
0.06505230912165823 -0.06162459439144996 0.0 -0.0317424618332831 0.0 0.0
0.0768237929761371 -0.0732514222629288 0.0 -0.03511014220453445 0.0 0.0
0.08904683551211497 -0.08533633485172877 0.0 -0.03771955002889501 0.0 0.0
0.10142963701194489 -0.09760240883723952 0.0 -0.03908406045391866 0.0 0.0
0.11342057056158072 -0.1095790231219409 0.0 -0.03770283060380363 0.0 0.0
0.12400728044244352 -0.12027504015766582 0.0 -0.030884383716869145 0.0 0.0
0.12879010801118382 -0.12824371682999733 0.0 3.5246111584896767e-14 0.0 0.0
0.12400728044242415 -0.12027504015764068 0.0 0.030884383716947746 0.0 0.0
0.1134205705615471 -0.10957902312190988 0.0 0.03770283060388277 0.0 0.0
0.10142963701189904 -0.09760240883719194 0.0 0.03908406045396799 0.0 0.0
0.08904683551206048 -0.08533633485167406 0.0 0.037719550028901164 0.0 0.0
0.07682379297607939 -0.07325142226286933 0.0 0.035110142204519676 0.0 0.0
0.06505230912159936 -0.061624594391401805 0.0 0.0317424618332662 0.0 0.0
0.05393123128148668 -0.050671518194937794 0.0 0.027937420714919288 0.0 0.0
0.04359234974321074 -0.040520799097753094 0.0 0.023960124055178778 0.0 0.0
0.0341036910976706 -0.03122887636929423 0.0 0.0199299541405024 0.0 0.0
0.025516879978695606 -0.022832317366302122 0.0 0.015840126096013256 0.0 0.0
0.017940616836011804 -0.015433240585705214 0.0 0.011758815164833543 0.0 0.0
0.011602851124104587 -0.00927646539254617 0.0 0.007963755153307111 0.0 0.0
0.006794344789773046 -0.004741305987219827 0.0 0.004944610506637002 0.0 0.0
0.0036452049929369883 -0.0020412519439192423 0.0 0.0029960180802020863 0.0 0.0
0.001951677237046678 -0.000874524219091016 0.0 0.002092737321400423 0.0 0.0
0.0011646045395904481 -0.0004653625896323694 0.0 0.0018515418965600085 0.0 0.0
0.000691543564705109 -0.0002113763715643925 0.0 0.0017884566283740961 0.0 0.0
0.0003436867454393368 -7.087651250304172e-05 0.0 0.001965637944722963 0.0 0.0
0.0015235720547328493 -0.0005208197286135662 0.0 0.004339235268817117 0.0 0.0
0.002834081934111039 -0.008093571338039503 0.0 0.0030581707119506337 0.0 0.0
0.0020414010359913644 -0.006296090482953622 0.0 -0.0024642878208153028 0.0 0.0
0.0010958005392804242 -0.00041913141879332163 0.0 -0.003785227438895252 0.0 0.0
0.00022947852930015007 -7.251642518169632e-05 0.0 -0.0022116953485219653 0.0 0.0
0.0004748808935431001 -0.0001139945716383241 0.0 -0.002055345378857096 0.0 0.0
0.0008431351479911403 -0.00032604897950699744 0.0 -0.00213133984495789 0.0 0.0
0.0013952161254455638 -0.0006074947353983672 0.0 -0.0023601688764896813 0.0 0.0
0.002534433568406771 -0.001294120801299187 0.0 -0.003037233970639271 0.0 0.0
0.004766148824522159 -0.0030528579950372136 0.0 -0.004652634163125804 0.0 0.0
0.008319436105008121 -0.0062861377874965044 0.0 -0.007269029757292354 0.0 0.0
0.013095520391570355 -0.010875499126907382 0.0 -0.010656644173460317 0.0 0.0
0.01883431246700462 -0.01644866363018878 0.0 -0.014423694892624331 0.0 0.0
0.025315908799853494 -0.022754806206063825 0.0 -0.0182440879606073 0.0 0.0
0.03244866082824301 -0.029709137608868327 0.0 -0.022013532262540363 0.0 0.0
0.04022477897071197 -0.03731542058393756 0.0 -0.025736953447312725 0.0 0.0
0.04865215969221181 -0.04558565538760981 0.0 -0.02934256625426199 0.0 0.0
0.05768201183873782 -0.05447909912073037 0.0 -0.03258338866535211 0.0 0.0
0.06721450393754651 -0.0638739037076534 0.0 -0.03511465144059807 0.0 0.0
0.0772194471133449 -0.07369030879728924 0.0 -0.03667456611402679 0.0 0.0
0.08762843418910042 -0.08395864444721186 0.0 -0.03636669350473552 0.0 0.0
0.097864204300742 -0.09425348302597329 0.0 -0.03129579751837042 0.0 0.0
0.10281732562988347 -0.10319123039947449 0.0 3.1787072973799013e-14 0.0 0.0
0.09786420430072737 -0.09425348302595604 0.0 0.03129579751844324 0.0 0.0
0.08762843418907416 -0.08395864444718462 0.0 0.036366693504812 0.0 0.0
0.0772194471133095 -0.0736903087972493 0.0 0.036674566114069565 0.0 0.0
0.06721450393750442 -0.06387390370762708 0.0 0.03511465144060443 0.0 0.0
0.05768201183869351 -0.05447909912068304 0.0 0.03258338866533438 0.0 0.0
0.048652159692167164 -0.045585655387569445 0.0 0.029342566254242947 0.0 0.0
0.04022477897067059 -0.03731542058390319 0.0 0.025736953447301085 0.0 0.0
0.03244866082820509 -0.029709137608829317 0.0 0.022013532262526284 0.0 0.0
0.025315908799816645 -0.022754806206025848 0.0 0.01824408796058333 0.0 0.0
0.018834312466972102 -0.016448663630157876 0.0 0.014423694892591425 0.0 0.0
0.013095520391543873 -0.010875499126880957 0.0 0.010656644173433327 0.0 0.0
0.008319436104988509 -0.006286137787475892 0.0 0.007269029757278228 0.0 0.0
0.004766148824509906 -0.0030528579950267025 0.0 0.00465263416311659 0.0 0.0
0.0025344335684003233 -0.0012941208012929215 0.0 0.00303723397063333 0.0 0.0
0.0013952161254434175 -0.0006074947353962796 0.0 0.0023601688764864027 0.0 0.0
0.0008431351479908936 -0.0003260489795059061 0.0 0.0021313398449563856 0.0 0.0
0.0004748808935432378 -0.00011399457163883058 0.0 0.002055345378854 0.0 0.0
0.0002294785293002767 -7.251642518145399e-05 0.0 0.0022116953485201494 0.0 0.0
0.0010958005392777857 -0.0004191314187924507 0.0 0.003785227438889811 0.0 0.0
0.002041401035985999 -0.006296090482941604 0.0 0.0024642878208106134 0.0 0.0
0.0014266687114463026 -0.004809045112992354 0.0 -0.0020510861024354435 0.0 0.0
0.0007562968128167813 -0.00034626381912101643 0.0 -0.003291227685994211 0.0 0.0
0.00011918533694847317 -6.040285957833861e-05 0.0 -0.0023814003109003754 0.0 0.0
0.0002648162598483888 -2.4783357608519606e-05 0.0 -0.002266460416657707 0.0 0.0
0.0005286142468848303 -0.00018254503595477762 0.0 -0.002350591266160701 0.0 0.0
0.0008956001671687167 -0.0003849121297092637 0.0 -0.0026135175367627476 0.0 0.0
0.0015724602657346469 -0.0007467554898509989 0.0 -0.0030904484015309066 0.0 0.0
0.0029443381056298307 -0.001687350719468871 0.0 -0.004179296004318719 0.0 0.0
0.005254950634454303 -0.003631945092978108 0.0 -0.0061314223223832304 0.0 0.0
0.008449788529581266 -0.006603162183304921 0.0 -0.008774350895894737 0.0 0.0
0.012315787831623853 -0.010299368340546707 0.0 -0.01185325965039471 0.0 0.0
0.016670403914962946 -0.0144928916078069 0.0 -0.01507805625115077 0.0 0.0
0.021441821928850042 -0.01910340627610285 0.0 -0.018330150596364305 0.0 0.0
0.026648882774588035 -0.02416160026657143 0.0 -0.021561760687004147 0.0 0.0
0.03235594995158657 -0.02972557115717913 0.0 -0.0247242599085186 0.0 0.0
0.038617818874312385 -0.03585058698515423 0.0 -0.027679465227266435 0.0 0.0
0.04543235214210952 -0.042534325546522436 0.0 -0.030078616219687 0.0 0.0
0.052880177919323985 -0.04978576417669345 0.0 -0.03156990921911559 0.0 0.0
0.061367299679707776 -0.05796939520088017 0.0 -0.0320761898114037 0.0 0.0
0.07106124689596693 -0.06754754070436385 0.0 -0.029959603712715038 0.0 0.0
0.0761752277611491 -0.07760067054672917 0.0 2.7919506984108722e-14 0.0 0.0
0.0710612468959569 -0.06754754070434794 0.0 0.029959603712782105 0.0 0.0
0.06136729967969018 -0.0579693952008556 0.0 0.032076189811479576 0.0 0.0
0.05288017791929881 -0.04978576417665891 0.0 0.031569909219155576 0.0 0.0
0.04543235214207991 -0.04253432554649753 0.0 0.030078616219686424 0.0 0.0
0.038617818874282124 -0.0358505869851278 0.0 0.02767946522724856 0.0 0.0
0.03235594995155757 -0.029725571157146538 0.0 0.024724259908504246 0.0 0.0
0.02664888277456288 -0.024161600266554353 0.0 0.021561760686996105 0.0 0.0
0.02144182192882644 -0.01910340627607557 0.0 0.01833015059635251 0.0 0.0
0.01667040391493918 -0.014492891607779945 0.0 0.01507805625112961 0.0 0.0
0.01231578783160298 -0.010299368340528282 0.0 0.0118532596503706 0.0 0.0
0.00844978852956491 -0.006603162183287438 0.0 0.00877435089587456 0.0 0.0
0.005254950634442628 -0.0036319450929637276 0.0 0.006131422322372754 0.0 0.0
0.002944338105622298 -0.0016873507194658118 0.0 0.00417929600431264 0.0 0.0
0.0015724602657311848 -0.000746755489848486 0.0 0.0030904484015276514 0.0 0.0
0.0008956001671678681 -0.0003849121297082724 0.0 0.0026135175367612354 0.0 0.0
0.0005286142468845487 -0.0001825450359565758 0.0 0.0023505912661586606 0.0 0.0
0.0002648162598481799 -2.4783357610282552e-05 0.0 0.0022664604166550265 0.0 0.0
0.00011918533694801954 -6.0402859577202435e-05 0.0 0.002381400310898872 0.0 0.0
0.0007562968128147871 -0.00034626381912092655 0.0 0.0032912276859897276 0.0 0.0
0.0014266687114430053 -0.004809045112983146 0.0 0.0020510861024303404 0.0 0.0
0.0009742278630009476 -0.0036101618559863952 0.0 -0.001772884322786094 0.0 0.0
0.0004920133962996241 -0.0003070758355872824 0.0 -0.0028729537162228663 0.0 0.0
3.3556830473281634e-06 -2.771994339597645e-05 0.0 -0.0024831841442008256 0.0 0.0
5.858474875483592e-05 5.891445564857078e-05 0.0 -0.002417307944916476 0.0 0.0
0.00021328710077935358 -3.610885189733915e-05 0.0 -0.0025052245491928747 0.0 0.0
0.00042334279345038585 -0.00017075890489005942 0.0 -0.002800361734773333 0.0 0.0
0.0007422776170064918 -0.0003395824822438346 0.0 -0.003196862897108329 0.0 0.0
0.0013570188660201228 -0.0007004377021692516 0.0 -0.003751698692019665 0.0 0.0
0.002466151755815171 -0.0015048191236233207 0.0 -0.0047435817849857224 0.0 0.0
0.0040734005701699 -0.002850369468149441 0.0 -0.00634256202534591 0.0 0.0
0.0060355086437883666 -0.004606612214317311 0.0 -0.00848065060152357 0.0 0.0
0.00822995097865465 -0.006642130151191269 0.0 -0.010939451289767765 0.0 0.0
0.010619534063085873 -0.008892443244728276 0.0 -0.01354616780645335 0.0 0.0
0.013248871391869229 -0.011392780754624292 0.0 -0.016231560751108223 0.0 0.0
0.01621013223638497 -0.014224925325210141 0.0 -0.01896703765363853 0.0 0.0
0.019647542271374493 -0.017524196306913358 0.0 -0.021681116851595045 0.0 0.0
0.023722909129101483 -0.02145476402859398 0.0 -0.02410492552997078 0.0 0.0
0.028571574320604278 -0.026157081686788368 0.0 -0.025661315391987582 0.0 0.0
0.034684250347800746 -0.03193590192076671 0.0 -0.026075581241979548 0.0 0.0
0.043239115089112316 -0.039954144854489046 0.0 -0.0262724202546217 0.0 0.0
0.04831378783599763 -0.05098793824306749 0.0 2.3403154414403105e-14 0.0 0.0
0.043239115089108264 -0.03995414485448052 0.0 0.026272420254679865 0.0 0.0
0.03468425034779198 -0.03193590192075785 0.0 0.026075581242037585 0.0 0.0
0.028571574320588652 -0.026157081686768384 0.0 0.02566131539201117 0.0 0.0
0.02372290912908485 -0.02145476402856194 0.0 0.024104925529961956 0.0 0.0
0.01964754227136069 -0.017524196306898596 0.0 0.02168111685157679 0.0 0.0
0.016210132236372583 -0.01422492532519173 0.0 0.018967037653628723 0.0 0.0
0.013248871391859268 -0.011392780754616288 0.0 0.016231560751103328 0.0 0.0
0.010619534063076256 -0.008892443244716806 0.0 0.013546167806443556 0.0 0.0
0.008229950978644263 -0.006642130151184087 0.0 0.010939451289750934 0.0 0.0
0.006035508643779628 -0.004606612214307275 0.0 0.00848065060150946 0.0 0.0
0.004073400570163268 -0.0028503694681416914 0.0 0.006342562025335157 0.0 0.0
0.002466151755810409 -0.0015048191236128729 0.0 0.004743581784981788 0.0 0.0
0.0013570188660168932 -0.0007004377021699891 0.0 0.003751698692017469 0.0 0.0
0.0007422776170049564 -0.0003395824822451292 0.0 0.003196862897104604 0.0 0.0
0.0004233427934500639 -0.00017075890488913568 0.0 0.002800361734771538 0.0 0.0
0.00021328710077944937 -3.610885190050222e-05 0.0 0.0025052245491926253 0.0 0.0
5.8584748755208626e-05 5.891445564807263e-05 0.0 0.0024173079449151596 0.0 0.0
3.355683047205989e-06 -2.7719943395300698e-05 0.0 0.002483184144198049 0.0 0.0
0.0004920133962978698 -0.0003070758355881776 0.0 0.0028729537162199134 0.0 0.0
0.0009742278629981304 -0.003610161855979473 0.0 0.0017728843227840206 0.0 0.0
0.0006518056428867844 -0.002680021667654513 0.0 -0.0016008968861412512 0.0 0.0
0.000286053630358838 -0.00029608980986649584 0.0 -0.0025569544311831605 0.0 0.0
-0.0001194511168635365 2.2671567260148746e-05 0.0 -0.002525976085649457 0.0 0.0
-0.00014490944504647147 0.000139775453338338 0.0 -0.0025032244496580236 0.0 0.0
-9.930435153300467e-05 0.00010903609848263439 0.0 -0.002591538958909837 0.0 0.0
-4.801859466700336e-05 4.77395427731306e-05 0.0 -0.002881732876213991 0.0 0.0
-1.994118230222482e-05 1.2899963663946438e-05 0.0 -0.003277856254512112 0.0 0.0
-8.56354920736354e-06 5.350241813333464e-06 0.0 -0.0035927793900996617 0.0 0.0
-3.273583193357031e-06 2.052524306284112e-06 0.0 -0.004010854752831856 0.0 0.0
-7.708246454238678e-07 3.3185467579084096e-07 0.0 -0.005006265215352776 0.0 0.0
-4.1272668104915975e-06 2.834126101865827e-06 0.0 -0.006643608986132654 0.0 0.0
-2.061702440503822e-05 1.9437082067627566e-05 0.0 -0.008737053641791608 0.0 0.0
-4.4883945127847415e-05 4.565841757714264e-05 0.0 -0.011031851990114833 0.0 0.0
-3.0157317495214204e-05 4.4378624868801966e-05 0.0 -0.013469220582126488 0.0 0.0
0.00014547240516994448 -9.203070592514137e-05 0.0 -0.016049868713441114 0.0 0.0
0.0007107810045478291 -0.0005725706350239215 0.0 -0.01873169944028921 0.0 0.0
0.0020097582032374095 -0.0017140812749767156 0.0 -0.021389900059167074 0.0 0.0
0.004390227873243883 -0.0038737205081336643 0.0 -0.023741870592126863 0.0 0.0
0.008078823288980037 -0.0071397953592416 0.0 -0.025518249114698476 0.0 0.0
0.01443232425081893 -0.012476492093904081 0.0 -0.027310138758220342 0.0 0.0
0.018594749461005547 -0.02409758515338787 0.0 1.588139342256767e-14 0.0 0.0
0.014432324250818864 -0.012476492093908742 0.0 0.027310138758251834 0.0 0.0
0.00807882328897813 -0.007139795359233227 0.0 0.025518249114722155 0.0 0.0
0.004390227873241446 -0.0038737205081398607 0.0 0.02374187059212906 0.0 0.0
0.0020097582032379594 -0.0017140812749648951 0.0 0.021389900059150098 0.0 0.0
0.0007107810045513349 -0.0005725706350303252 0.0 0.018731699440273312 0.0 0.0
0.00014547240517331374 -9.203070591207836e-05 0.0 0.0160498687134293 0.0 0.0
-3.0157317490729077e-05 4.4378624862552517e-05 0.0 0.013469220582117743 0.0 0.0
-4.488394512220772e-05 4.5658417567647305e-05 0.0 0.011031851990100726 0.0 0.0
-2.061702440015465e-05 1.9437082063577312e-05 0.0 0.008737053641772527 0.0 0.0
-4.127266806976289e-06 2.8341260951553746e-06 0.0 0.0066436089861188884 0.0 0.0
-7.708246434198827e-07 3.3185467903003047e-07 0.0 0.005006265215344276 0.0 0.0
-3.2735831920020764e-06 2.052524305899559e-06 0.0 0.004010854752830195 0.0 0.0
-8.563549206790796e-06 5.35024180995921e-06 0.0 0.0035927793900975445 0.0 0.0
-1.9941182301854823e-05 1.2899963660501836e-05 0.0 0.0032778562545071293 0.0 0.0
-4.801859466651222e-05 4.7739542774346774e-05 0.0 0.002881732876210221 0.0 0.0
-9.930435153246442e-05 0.0001090360984815024 0.0 0.002591538958907523 0.0 0.0
-0.00014490944504636828 0.0001397754533385357 0.0 0.0025032244496573735 0.0 0.0
-0.00011945111686380701 2.26715672602625e-05 0.0 0.0025259760856470295 0.0 0.0
0.00028605363035818615 -0.00029608980986719666 0.0 0.0025569544311820364 0.0 0.0
0.0006518056428857281 -0.002680021667650156 0.0 0.0016008968861394661 0.0 0.0
0.0004270629752947487 -0.002000702088219942 0.0 -0.0015193988522710098 0.0 0.0
0.00012954636490525512 -0.0002910759712587543 0.0 -0.0023356395791429394 0.0 0.0
-0.00024109955884027716 7.912041180905245e-05 0.0 -0.0025149125673254126 0.0 0.0
-0.0003445753972974778 0.00021920676835489013 0.0 -0.0025217796201325226 0.0 0.0
-0.00040598097792986243 0.000249728159426982 0.0 -0.002599117199876143 0.0 0.0
-0.0005163952388060552 0.0002660789729845702 0.0 -0.0028574144407392988 0.0 0.0
-0.000782335157787011 0.00036787787296331233 0.0 -0.003241412859214626 0.0 0.0
-0.0013738514263056658 0.0007126371268550021 0.0 -0.003783089037688059 0.0 0.0
-0.002470705548713972 0.0015079218283835481 0.0 -0.004757119096110065 0.0 0.0
-0.004073834170235984 0.002850441525252864 0.0 -0.0063436341128821575 0.0 0.0
-0.006046063575990759 0.004614737677062867 0.0 -0.00848197311758308 0.0 0.0
-0.008273914237023196 0.006682738369354168 0.0 -0.010946304956539088 0.0 0.0
-0.01070629263756311 0.008982088222614242 0.0 -0.013538846012931835 0.0 0.0
-0.013296715230462754 0.011473290140943894 0.0 -0.016199421374253044 0.0 0.0
-0.015899504009985594 0.014022092025058462 0.0 -0.018950366732250347 0.0 0.0
-0.01822700419040345 0.01635087837043784 0.0 -0.021837366219680847 0.0 0.0
-0.01984541127004057 0.01803045925024352 0.0 -0.024886967551127043 0.0 0.0
-0.020286231226351013 0.01855084119089407 0.0 -0.028243067823091595 0.0 0.0
-0.019018895759739786 0.017593901593815287 0.0 -0.03184034113220092 0.0 0.0
-0.01388777574467883 0.013807700555779002 0.0 -0.033773793430579825 0.0 0.0
-0.009895986975432439 0.0015061442294993662 0.0 1.5406079190150024e-14 0.0 0.0
-0.013887775744678442 0.013807700555774592 0.0 0.03377379343061166 0.0 0.0
-0.019018895759732007 0.017593901593817608 0.0 0.03184034113222786 0.0 0.0
-0.02028623122633607 0.018550841190877305 0.0 0.028243067823092993 0.0 0.0
-0.01984541127002075 0.018030459250227778 0.0 0.024886967551111472 0.0 0.0
-0.018227004190382836 0.01635087837041336 0.0 0.021837366219664433 0.0 0.0
-0.015899504009967175 0.014022092025045757 0.0 0.018950366732235574 0.0 0.0
-0.013296715230443169 0.011473290140927083 0.0 0.016199421374239662 0.0 0.0
-0.010706292637542176 0.008982088222588596 0.0 0.01353884601291478 0.0 0.0
-0.008273914237003386 0.006682738369334772 0.0 0.01094630495651686 0.0 0.0
-0.006046063575973956 0.0046147376770414 0.0 0.008481973117560281 0.0 0.0
-0.004073834170224462 0.0028504415252470212 0.0 0.006343634112869199 0.0 0.0
-0.0024707055487065317 0.0015079218283789515 0.0 0.004757119096104265 0.0 0.0
-0.0013738514263011636 0.0007126371268456268 0.0 0.0037830890376811454 0.0 0.0
-0.0007823351577850754 0.00036787787296098373 0.0 0.0032414128592088247 0.0 0.0
-0.00051639523880528 0.0002660789729835522 0.0 0.0028574144407366698 0.0 0.0
-0.00040598097792930867 0.00024972815942597194 0.0 0.002599117199873073 0.0 0.0
-0.0003445753972971711 0.00021920676835584076 0.0 0.002521779620129491 0.0 0.0
-0.0002410995588398729 7.912041180893869e-05 0.0 0.00251491256732281 0.0 0.0
0.00012954636490512285 -0.0002910759712592719 0.0 0.002335639579141601 0.0 0.0
0.0004270629752936403 -0.0020007020882175314 0.0 0.0015193988522693806 0.0 0.0
0.00027700321769335206 -0.0015006802629944113 0.0 -0.001442261985876467 0.0 0.0
1.5256877764655171e-05 -0.00027313588350431846 0.0 -0.0021533406423622187 0.0 0.0
-0.0003550134797687034 0.00013150257442875657 0.0 -0.0024526186577540202 0.0 0.0
-0.0005371823834705528 0.00029661213348172326 0.0 -0.002472725193271926 0.0 0.0
-0.0007039619160107701 0.00038328885177810933 0.0 -0.002526279421568967 0.0 0.0
-0.0009824045974584283 0.00048079484458211225 0.0 -0.0027317612725103607 0.0 0.0
-0.001611257583731132 0.0007809562994716922 0.0 -0.003175749442161684 0.0 0.0
-0.0029560477234136127 0.0016978751879286659 0.0 -0.004222763824445862 0.0 0.0
-0.00525464505138014 0.003631210905415058 0.0 -0.006141404418718912 0.0 0.0
-0.008449784206013873 0.0066033366587781705 0.0 -0.008774288923843972 0.0 0.0
-0.012328115428158606 0.010311245822773353 0.0 -0.011855609776034582 0.0 0.0
-0.016709841656090636 0.014531211022340201 0.0 -0.015064822654191637 0.0 0.0
-0.021510559469763737 0.019176651547707115 0.0 -0.01825220028283851 0.0 0.0
-0.026666741952444055 0.024211189240015002 0.0 -0.021403010513224602 0.0 0.0
-0.03201932973713461 0.029491093737860408 0.0 -0.0246327688132772 0.0 0.0
-0.03722817256252626 0.034689831020796015 0.0 -0.028146328541938114 0.0 0.0
-0.041781482531687945 0.03928181966149765 0.0 -0.03215729614365667 0.0 0.0
-0.045014050283061366 0.04259413353636943 0.0 -0.036750043539801644 0.0 0.0
-0.045718803556093646 0.04360786391137449 0.0 -0.041071328140774285 0.0 0.0
-0.04129308164588584 0.039940813744622466 0.0 -0.04237870368626467 0.0 0.0
-0.03735476597543529 0.025757109281546325 0.0 2.2105581254372453e-14 0.0 0.0
-0.04129308164588142 0.03994081374461489 0.0 0.042378703686325764 0.0 0.0
-0.04571880355607836 0.04360786391136191 0.0 0.041071328140834376 0.0 0.0
-0.045014050283034714 0.04259413353633834 0.0 0.03675004353982488 0.0 0.0
-0.04178148253165254 0.03928181966146369 0.0 0.03215729614364667 0.0 0.0
-0.03722817256248949 0.03468983102076405 0.0 0.02814632854191712 0.0 0.0
-0.032019329737100526 0.029491093737831868 0.0 0.024632768813254994 0.0 0.0
-0.026666741952410013 0.02421118923998889 0.0 0.021403010513208316 0.0 0.0
-0.021510559469728886 0.019176651547674266 0.0 0.01825220028281784 0.0 0.0
-0.016709841656057618 0.014531211022303522 0.0 0.015064822654164284 0.0 0.0
-0.012328115428129444 0.01031124582274499 0.0 0.011855609776003589 0.0 0.0
-0.008449784205991673 0.006603336658759842 0.0 0.008774288923823986 0.0 0.0
-0.005254645051365913 0.003631210905404746 0.0 0.006141404418707582 0.0 0.0
-0.002956047723404825 0.0016978751879240467 0.0 0.004222763824437465 0.0 0.0
-0.0016112575837262588 0.0007809562994687949 0.0 0.0031757494421548915 0.0 0.0
-0.0009824045974566964 0.00048079484457985906 0.0 0.0027317612725080457 0.0 0.0
-0.0007039619160100725 0.0003832888517785535 0.0 0.002526279421566806 0.0 0.0
-0.0005371823834701692 0.00029661213348421486 0.0 0.002472725193269451 0.0 0.0
-0.0003550134797682782 0.0001315025744285073 0.0 0.002452618657753459 0.0 0.0
1.5256877764931809e-05 -0.0002731358835039992 0.0 0.002153340642359071 0.0 0.0
0.0002770032176930642 -0.001500680262992769 0.0 0.0014422619858756194 0.0 0.0
0.0001698162486032949 -0.0010987267498001523 0.0 -0.001305546409138675 0.0 0.0
-7.242944118709255e-05 -0.0002391896152386298 0.0 -0.001967978141260059 0.0 0.0
-0.00045950751181098785 0.0001778691557081066 0.0 -0.002339270438435725 0.0 0.0
-0.0007207968575521588 0.0003697368656665275 0.0 -0.0023611691077998556 0.0 0.0
-0.0009921023426801051 0.0005073742603629305 0.0 -0.002378371495839342 0.0 0.0
-0.00147190182413745 0.0007043456205536308 0.0 -0.0025313836258606206 0.0 0.0
-0.0025658053322102437 0.0013295981859218896 0.0 -0.0031406268606378952 0.0 0.0
-0.004768588728474468 0.003053537301020647 0.0 -0.004684763373317221 0.0 0.0
-0.00831499591510856 0.006281549600785873 0.0 -0.007270041406442074 0.0 0.0
-0.013097337469501445 0.01087814534076769 0.0 -0.01065695005388661 0.0 0.0
-0.01884635554030173 0.016462090815550123 0.0 -0.014425491129054037 0.0 0.0
-0.02533975726137459 0.02278001240567497 0.0 -0.018207265773003273 0.0 0.0
-0.03247566539644209 0.029740642781908862 0.0 -0.021853693785090767 0.0 0.0
-0.04018837958319159 0.03730384999090143 0.0 -0.025415029536558113 0.0 0.0
-0.0483148727629147 0.04533170177992919 0.0 -0.02912285009125108 0.0 0.0
-0.0564803230602806 0.05346803277371257 0.0 -0.033385338246369724 0.0 0.0
-0.06403430982558857 0.06106737013760079 0.0 -0.03862643064993663 0.0 0.0
-0.06990651354272927 0.06710877266212548 0.0 -0.04463609498365884 0.0 0.0
-0.07225893988062969 0.06983938304721365 0.0 -0.04979348864766176 0.0 0.0
-0.06742284311164337 0.06603611669262856 0.0 -0.05108387185819882 0.0 0.0
-0.06258244899337218 0.04897752248188323 0.0 2.6650556761431687e-14 0.0 0.0
-0.06742284311163373 0.06603611669261894 0.0 0.051083871858269916 0.0 0.0
-0.07225893988060704 0.06983938304718883 0.0 0.04979348864772653 0.0 0.0
-0.06990651354269223 0.06710877266208695 0.0 0.04463609498369011 0.0 0.0
-0.06403430982554005 0.06106737013755481 0.0 0.03862643064993238 0.0 0.0
-0.05648032306022896 0.05346803277366806 0.0 0.03338533824634699 0.0 0.0
-0.048314872762864544 0.04533170177988047 0.0 0.029122850091221425 0.0 0.0
-0.04018837958314171 0.03730384999084908 0.0 0.025415029536535415 0.0 0.0
-0.03247566539639287 0.02974064278186462 0.0 0.02185369378506499 0.0 0.0
-0.02533975726132804 0.02278001240563074 0.0 0.01820726577297431 0.0 0.0
-0.018846355540260533 0.01646209081551003 0.0 0.014425491129020244 0.0 0.0
-0.013097337469469367 0.010878145340734615 0.0 0.010656950053859257 0.0 0.0
-0.008314995915086332 0.006281549600770639 0.0 0.007270041406425282 0.0 0.0
-0.004768588728460658 0.0030535373010156484 0.0 0.0046847633733087014 0.0 0.0
-0.0025658053322035555 0.0013295981859179522 0.0 0.0031406268606314724 0.0 0.0
-0.0014719018241346415 0.000704345620550549 0.0 0.002531383625859423 0.0 0.0
-0.0009921023426791196 0.0005073742603646095 0.0 0.00237837149583842 0.0 0.0
-0.0007207968575515631 0.0003697368656681848 0.0 0.0023611691077975463 0.0 0.0
-0.0004595075118105198 0.00017786915570716004 0.0 0.002339270438435688 0.0 0.0
-7.24294411867591e-05 -0.00023918961523809122 0.0 0.001967978141257636 0.0 0.0
0.00016981624860392725 -0.0010987267497986452 0.0 0.0013055464091352345 0.0 0.0
8.196853006922163e-05 -0.0007636659555203504 0.0 -0.0011267539083697471 0.0 0.0
-0.00014725865701600236 -0.00019118041191489723 0.0 -0.0017599339234211095 0.0 0.0
-0.0005560637890565057 0.00022028976302873322 0.0 -0.002174331021934686 0.0 0.0
-0.0008940815964894645 0.0004361922005048434 0.0 -0.0021901855815367292 0.0 0.0
-0.0012763819779988757 0.0006213728433694371 0.0 -0.002155036212896775 0.0 0.0
-0.002011336628630905 0.0009654157141465957 0.0 -0.0022869507094894115 0.0 0.0
-0.0036627869701775975 0.0020656863057823866 0.0 -0.003082519389164633 0.0 0.0
-0.006787482795314893 0.00473134293820794 0.0 -0.004959019617379017 0.0 0.0
-0.0115982881903735 0.00927187366466656 0.0 -0.007959886189730127 0.0 0.0
-0.017945347318462354 0.015439510882934732 0.0 -0.011760351047772642 0.0 0.0
-0.02552560048384577 0.022844646572787047 0.0 -0.01583843796822707 0.0 0.0
-0.03410140521883041 0.03123190404139989 0.0 -0.01987078040148854 0.0 0.0
-0.043555461609935835 0.04048969234495672 0.0 -0.02373637319371091 0.0 0.0
-0.053817651956797344 0.05057126036314286 0.0 -0.027490339679646553 0.0 0.0
-0.06473449057887815 0.06135704387559207 0.0 -0.03140537878726767 0.0 0.0
-0.07589797486047735 0.07247761166342577 0.0 -0.0360506197451223 0.0 0.0
-0.08644244444547335 0.08310636570691489 0.0 -0.04192668534627386 0.0 0.0
-0.09481189814932198 0.0917414811658746 0.0 -0.04868107628334992 0.0 0.0
-0.09835964328794886 0.09586787396535129 0.0 -0.0544475862348924 0.0 0.0
-0.09269603315070697 0.09132918657424306 0.0 -0.056058410609858104 0.0 0.0
-0.08688058652678389 0.07150334214181768 0.0 2.9575300541928584e-14 0.0 0.0
-0.09269603315069191 0.09132918657423632 0.0 0.056058410609925155 0.0 0.0
-0.09835964328791816 0.09586787396531499 0.0 0.05444758623496221 0.0 0.0
-0.09481189814927461 0.09174148116583301 0.0 0.0486810762833854 0.0 0.0
-0.08644244444541312 0.08310636570685666 0.0 0.04192668534627478 0.0 0.0
-0.0758979748604129 0.07247761166337201 0.0 0.036050619745099925 0.0 0.0
-0.06473449057881255 0.06135704387552593 0.0 0.03140537878724306 0.0 0.0
-0.05381765195673185 0.050571260363073633 0.0 0.02749033967962474 0.0 0.0
-0.04355546160987223 0.040489692344894884 0.0 0.023736373193686933 0.0 0.0
-0.03410140521877117 0.03123190404134142 0.0 0.01987078040145761 0.0 0.0
-0.025525600483793515 0.022844646572732243 0.0 0.01583843796819136 0.0 0.0
-0.017945347318419794 0.015439510882888797 0.0 0.011760351047744744 0.0 0.0
-0.011598288190343023 0.009271873664640995 0.0 0.007959886189711388 0.0 0.0
-0.006787482795295754 0.004731342938187182 0.0 0.004959019617365391 0.0 0.0
-0.0036627869701672637 0.002065686305774572 0.0 0.0030825193891573705 0.0 0.0
-0.0020113366286261744 0.0009654157141415511 0.0 0.0022869507094866117 0.0 0.0
-0.00127638197799756 0.0006213728433664395 0.0 0.0021550362128963337 0.0 0.0
-0.000894081596489044 0.00043619220050415816 0.0 0.002190185581535483 0.0 0.0
-0.0005560637890561059 0.00022028976302889571 0.0 0.002174331021934725 0.0 0.0
-0.0001472586570160586 -0.00019118041191548007 0.0 0.0017599339234191374 0.0 0.0
8.19685300686068e-05 -0.0007636659555194281 0.0 0.0011267539083678014 0.0 0.0
6.82863808222613e-06 -0.0004897908084351714 0.0 -0.0009330199484913243 0.0 0.0
-0.00021432612093770644 -0.0001322513809704385 0.0 -0.0015224482470186824 0.0 0.0
-0.0006464390665299771 0.00026095077035746887 0.0 -0.001954121632182757 0.0 0.0
-0.001056634566716665 0.0004944653997468413 0.0 -0.0019602265026835153 0.0 0.0
-0.0015684508959146136 0.0007327105907148626 0.0 -0.001867902717800983 0.0 0.0
-0.002622823131236851 0.0012977008197476803 0.0 -0.0020105908376109698 0.0 0.0
-0.004902650063704571 0.0030022609394748006 0.0 -0.002933198737471248 0.0 0.0
-0.008983467509099785 0.0066704862308534455 0.0 -0.004975017325241344 0.0 0.0
-0.015048524726745591 0.01248802250250189 0.0 -0.008137996933460914 0.0 0.0
-0.022916756063135483 0.020165877571518023 0.0 -0.011976949833774593 0.0 0.0
-0.03229524708242887 0.029356251124501034 0.0 -0.016042109362025856 0.0 0.0
-0.04294480962291498 0.039801225892610925 0.0 -0.020053685675071594 0.0 0.0
-0.054709912699580976 0.05135071326374764 0.0 -0.02390852930701813 0.0 0.0
-0.06750467477654945 0.06393692630435856 0.0 -0.027646195527081214 0.0 0.0
-0.08119352011001277 0.07745838303078184 0.0 -0.03149187612946046 0.0 0.0
-0.09532512155641337 0.09153498842390602 0.0 -0.035980166208162176 0.0 0.0
-0.1087946653007231 0.10514106314527619 0.0 -0.04172440823007345 0.0 0.0
-0.11950892584086314 0.11625724411966706 0.0 -0.048578477029785946 0.0 0.0
-0.12408403545434704 0.12157138162543665 0.0 -0.054951164279702334 0.0 0.0
-0.11768088695317075 0.11630903814917495 0.0 -0.05883118937658255 0.0 0.0
-0.11103679012017831 0.0941054131178898 0.0 3.2345653933063545e-14 0.0 0.0
-0.11768088695315024 0.11630903814916085 0.0 0.058831189376650855 0.0 0.0
-0.12408403545430824 0.12157138162539538 0.0 0.0549511642797714 0.0 0.0
-0.11950892584080555 0.11625724411961302 0.0 0.04857847702982225 0.0 0.0
-0.10879466530065166 0.10514106314520931 0.0 0.04172440823007754 0.0 0.0
-0.09532512155633568 0.09153498842383452 0.0 0.035980166208146286 0.0 0.0
-0.08119352010993225 0.07745838303070786 0.0 0.031491876129442715 0.0 0.0
-0.06750467477647003 0.06393692630428072 0.0 0.027646195527056647 0.0 0.0
-0.05470991269950339 0.05135071326367162 0.0 0.02390852930699532 0.0 0.0
-0.04294480962284294 0.039801225892537255 0.0 0.02005368567504069 0.0 0.0
-0.03229524708236583 0.0293562511244373 0.0 0.01604210936199015 0.0 0.0
-0.02291675606308374 0.020165877571468364 0.0 0.01197694983374756 0.0 0.0
-0.015048524726707636 0.012488022502465416 0.0 0.008137996933442276 0.0 0.0
-0.008983467509074274 0.00667048623082362 0.0 0.004975017325225431 0.0 0.0
-0.004902650063690076 0.0030022609394646793 0.0 0.002933198737462609 0.0 0.0
-0.00262282313123069 0.0012977008197419097 0.0 0.0020105908376064838 0.0 0.0
-0.0015684508959127473 0.0007327105907101671 0.0 0.0018679027178009886 0.0 0.0
-0.001056634566716069 0.0004944653997469363 0.0 0.0019602265026834246 0.0 0.0
-0.0006464390665294638 0.000260950770357259 0.0 0.001954121632182826 0.0 0.0
-0.00021432612093713358 -0.00013225138097086646 0.0 0.0015224482470174115 0.0 0.0
6.8286380828469965e-06 -0.000489790808434796 0.0 0.0009330199484906501 0.0 0.0
-5.643751967492937e-05 -0.0002750773149997895 0.0 -0.0007337121078270368 0.0 0.0
-0.00027426870072106167 -6.745965603043784e-05 0.0 -0.0012568918825235436 0.0 0.0
-0.0007318313807381559 0.0003011140301808883 0.0 -0.001677753538296032 0.0 0.0
-0.0012135164978889696 0.0005450261618926806 0.0 -0.0016721591186293944 0.0 0.0
-0.001884041393083214 0.0008542240515438339 0.0 -0.001527143868575372 0.0 0.0
-0.0033183228054221112 0.0017297198197800067 0.0 -0.0016916557658501132 0.0 0.0
-0.006277195160197445 0.004135882644184301 0.0 -0.002655527616045362 0.0 0.0
-0.01132165382480564 0.008809192603047656 0.0 -0.004708682204584235 0.0 0.0
-0.018597279383185606 0.01583382623880588 0.0 -0.00769604454213769 0.0 0.0
-0.027945840183256514 0.024976874741973 0.0 -0.011261351728560413 0.0 0.0
-0.039109207624080045 0.03593367983199986 0.0 -0.015051225412818153 0.0 0.0
-0.05182420830151383 0.04842862111762767 0.0 -0.01879021177384521 0.0 0.0
-0.06589794438212457 0.062271775540021584 0.0 -0.022401817636792144 0.0 0.0
-0.08120754677637933 0.07735054413785974 0.0 -0.02592381458512514 0.0 0.0
-0.09759569005723288 0.09354227926657475 0.0 -0.029442854225787466 0.0 0.0
-0.11458485993154527 0.11045516141234832 0.0 -0.03327053875747894 0.0 0.0
-0.1308785565320357 0.12692479819722421 0.0 -0.038084107920643026 0.0 0.0
-0.14389491027267842 0.1404700243477275 0.0 -0.04440722840361719 0.0 0.0
-0.149631339382746 0.14709085182647533 0.0 -0.051869236161567404 0.0 0.0
-0.14283533415949295 0.14148575343221137 0.0 -0.05993399286100387 0.0 0.0
-0.1355783147968798 0.11729965488530592 0.0 3.195187170401681e-14 0.0 0.0
-0.1428353341594678 0.14148575343218467 0.0 0.05993399286107036 0.0 0.0
-0.14963133938269849 0.14709085182643353 0.0 0.05186923616163177 0.0 0.0
-0.14389491027261067 0.1404700243476619 0.0 0.044407228403656775 0.0 0.0
-0.13087855653195216 0.12692479819714872 0.0 0.038084107920647155 0.0 0.0
-0.11458485993145326 0.11045516141224632 0.0 0.03327053875746787 0.0 0.0
-0.09759569005713822 0.09354227926648506 0.0 0.029442854225773807 0.0 0.0
-0.08120754677628582 0.07735054413776717 0.0 0.025923814585107084 0.0 0.0
-0.06589794438203336 0.06227177553992888 0.0 0.0224018176367731 0.0 0.0
-0.05182420830142947 0.048428621117544604 0.0 0.018790211773814992 0.0 0.0
-0.03910920762400584 0.03593367983192402 0.0 0.015051225412786317 0.0 0.0
-0.02794584018319541 0.024976874741911473 0.0 0.011261351728534534 0.0 0.0
-0.018597279383140045 0.015833826238760767 0.0 0.007696044542119538 0.0 0.0
-0.011321653824774045 0.008809192603016325 0.0 0.0047086822045718235 0.0 0.0
-0.006277195160178974 0.004135882644171358 0.0 0.0026555276160373817 0.0 0.0
-0.00331832280541379 0.0017297198197757015 0.0 0.0016916557658456823 0.0 0.0
-0.0018840413930800047 0.0008542240515404513 0.0 0.0015271438685766326 0.0 0.0
-0.001213516497887914 0.000545026161892613 0.0 0.0016721591186280196 0.0 0.0
-0.0007318313807374786 0.00030111403018022345 0.0 0.001677753538293802 0.0 0.0
-0.0002742687007207067 -6.74596560303555e-05 0.0 0.0012568918825231435 0.0 0.0
-5.643751967514161e-05 -0.00027507731499931036 0.0 0.0007337121078247593 0.0 0.0
-0.00010561669274476216 -0.00011932224538296885 0.0 -0.0005351916918683874 0.0 0.0
-0.0003248162502749171 -2.680115613724799e-06 0.0 -0.0009663049514336843 0.0 0.0
-0.0008121881558433082 0.0003403218508536316 0.0 -0.0013435101512239925 0.0 0.0
-0.0013706759756667375 0.0005897384172613314 0.0 -0.0013207804342929127 0.0 0.0
-0.002237844236991969 0.0010037002074807118 0.0 -0.001134576914212657 0.0 0.0
-0.004109566455580365 0.00228476945992533 0.0 -0.001306501768009394 0.0 0.0
-0.007776747378801274 0.005448152644804338 0.0 -0.002240189858953747 0.0 0.0
-0.013746796691704189 0.011068991729159426 0.0 -0.004050978895067671 0.0 0.0
-0.02218129225296354 0.019238122042671245 0.0 -0.006581123197280602 0.0 0.0
-0.0329890792410921 0.029818757536272132 0.0 -0.009631079380478262 0.0 0.0
-0.04591913589227762 0.042523831271941905 0.0 -0.012881699344777519 0.0 0.0
-0.060694298239744635 0.057062377324317654 0.0 -0.016094200798643956 0.0 0.0
-0.07707974636273704 0.07320358979991681 0.0 -0.019219473951692555 0.0 0.0
-0.09488037532550511 0.09076740698952074 0.0 -0.022304342723264713 0.0 0.0
-0.11386721663054783 0.10954492089635233 0.0 -0.025313523867040104 0.0 0.0
-0.13352016893502272 0.12908735483616143 0.0 -0.028185665386911675 0.0 0.0
-0.1524783064506893 0.14820074990894663 0.0 -0.03135032941364833 0.0 0.0
-0.16788549112293338 0.16422367861437473 0.0 -0.036315355668138684 0.0 0.0
-0.1752029706240533 0.1726020080124514 0.0 -0.0451558847484004 0.0 0.0
-0.16858028118618318 0.16732221938436764 0.0 -0.0590859648151969 0.0 0.0
-0.1609865861848524 0.1415955127688816 0.0 2.6690455401379154e-14 0.0 0.0
-0.16858028118615395 0.16732221938433114 0.0 0.05908596481525635 0.0 0.0
-0.17520297062399712 0.1726020080124034 0.0 0.04515588474845786 0.0 0.0
-0.16788549112285386 0.16422367861428802 0.0 0.036315355668172566 0.0 0.0
-0.15247830645059393 0.1482007499088526 0.0 0.03135032941364793 0.0 0.0
-0.13352016893491736 0.12908735483604555 0.0 0.0281856653869021 0.0 0.0
-0.1138672166304387 0.10954492089624669 0.0 0.025313523867025577 0.0 0.0
-0.09488037532539734 0.09076740698942219 0.0 0.02230434272325016 0.0 0.0
-0.07707974636263222 0.0732035897998062 0.0 0.019219473951673862 0.0 0.0
-0.060694298239647754 0.05706237732422219 0.0 0.01609420079861638 0.0 0.0
-0.04591913589219214 0.042523831271854655 0.0 0.012881699344751422 0.0 0.0
-0.032989079241021846 0.029818757536202722 0.0 0.009631079380458376 0.0 0.0
-0.022181292252910354 0.01923812204261612 0.0 0.006581123197264691 0.0 0.0
-0.013746796691667033 0.011068991729120606 0.0 0.004050978895054868 0.0 0.0
-0.0077767473787789445 0.0054481526447851935 0.0 0.002240189858944325 0.0 0.0
-0.0041095664555697 0.0022847694599201504 0.0 0.0013065017680063274 0.0 0.0
-0.0022378442369884086 0.0010037002074774922 0.0 0.001134576914213218 0.0 0.0
-0.0013706759756659625 0.0005897384172608496 0.0 0.0013207804342916223 0.0 0.0
-0.0008121881558430867 0.00034032185085275954 0.0 0.0013435101512216442 0.0 0.0
-0.00032481625027515305 -2.6801156132976404e-06 0.0 0.0009663049514327955 0.0 0.0
-0.00010561669274521906 -0.0001193222453825903 0.0 0.0005351916918655738 0.0 0.0
-0.00013580555334389319 -2.311966421796437e-05 0.0 -0.0003481409425193346 0.0 0.0
-0.00036041109459050935 5.480968065672919e-05 0.0 -0.0006547982479865995 0.0 0.0
-0.0008853306964794634 0.00037555231629382005 0.0 -0.0009436411199654248 0.0 0.0
-0.0015380358086288632 0.0006354075550113951 0.0 -0.0008988845336761381 0.0 0.0
-0.002646074343569061 0.0012043975532603987 0.0 -0.000700163133873659 0.0 0.0
-0.005003811908816934 0.0029843336698341678 0.0 -0.0008501162679284696 0.0 0.0
-0.0093626338226974 0.006890948954686544 0.0 -0.00161466283855504 0.0 0.0
-0.01620787172460858 0.013383295466097296 0.0 -0.0029371705232706887 0.0 0.0
-0.025765931945128107 0.022656036899763414 0.0 -0.00481244989350933 0.0 0.0
-0.038000702992580314 0.03464235559036472 0.0 -0.007091223294245327 0.0 0.0
-0.05267930129070843 0.04907694616034004 0.0 -0.009538418821995964 0.0 0.0
-0.06950673608996334 0.06565241880602854 0.0 -0.011967507561924646 0.0 0.0
-0.08820311067362555 0.08409427896849173 0.0 -0.014357512372349845 0.0 0.0
-0.10848653576007959 0.10413784985835264 0.0 -0.016764924649680567 0.0 0.0
-0.12997572848148423 0.1254289776269161 0.0 -0.01907923133199079 0.0 0.0
-0.15202970371791774 0.14736911623124402 0.0 -0.020958679654587094 0.0 0.0
-0.1733714844021624 0.16877480533586076 0.0 -0.022323109937693205 0.0 0.0
-0.1913101763516354 0.18720818267795383 0.0 -0.024881197866167208 0.0 0.0
-0.20091018151695658 0.19811832881076566 0.0 -0.03371451629276222 0.0 0.0
-0.1953599719833235 0.19436239463865967 0.0 -0.0551404210889293 0.0 0.0
-0.1878725549653147 0.16769858383092673 0.0 1.736458199452784e-14 0.0 0.0
-0.19535997198328975 0.19436239463863064 0.0 0.05514042108897611 0.0 0.0
-0.20091018151689183 0.1981183288106905 0.0 0.033714516292809985 0.0 0.0
-0.19131017635154543 0.18720818267786063 0.0 0.02488119786618744 0.0 0.0
-0.1733714844020539 0.16877480533575245 0.0 0.02232310993768675 0.0 0.0
-0.15202970371779828 0.1473691162311212 0.0 0.020958679654583978 0.0 0.0
-0.12997572848136146 0.12542897762678684 0.0 0.01907923133198217 0.0 0.0
-0.10848653575995768 0.10413784985824047 0.0 0.016764924649669905 0.0 0.0
-0.08820311067350788 0.08409427896836914 0.0 0.014357512372337556 0.0 0.0
-0.06950673608985447 0.06565241880592075 0.0 0.011967507561906218 0.0 0.0
-0.05267930129061244 0.04907694616024723 0.0 0.009538418821976999 0.0 0.0
-0.03800070299250185 0.03464235559028733 0.0 0.007091223294228979 0.0 0.0
-0.025765931945068314 0.022656036899702633 0.0 0.004812449893496736 0.0 0.0
-0.016207871724565767 0.013383295466053428 0.0 0.0029371705232593987 0.0 0.0
-0.009362633822670526 0.006890948954663527 0.0 0.0016146628385475413 0.0 0.0
-0.005003811908803274 0.0029843336698239975 0.0 0.0008501162679263792 0.0 0.0
-0.002646074343564478 0.0012043975532595678 0.0 0.0007001631338742492 0.0 0.0
-0.0015380358086276263 0.0006354075550105882 0.0 0.0008988845336770869 0.0 0.0
-0.000885330696478414 0.000375552316292994 0.0 0.0009436411199646999 0.0 0.0
-0.0003604110945903719 5.4809680656596187e-05 0.0 0.0006547982479865434 0.0 0.0
-0.0001358055533442601 -2.3119664217544945e-05 0.0 0.0003481409425167008 0.0 0.0
-0.00013809576854643073 1.3750393693845266e-05 0.0 -0.00019489289589895862 0.0 0.0
-0.00037061695844138105 9.379892297875876e-05 0.0 -0.0003281790924720648 0.0 0.0
-0.0009478753988280038 0.00040093537390346905 0.0 -0.00045745993885456165 0.0 0.0
-0.0017304135873859108 0.0006995971605027755 0.0 -0.00040512928350784866 0.0 0.0
-0.0031264884798704526 0.0014874412323503691 0.0 -0.00022941924855235558 0.0 0.0
-0.005985913220887165 0.0038156344491486836 0.0 -0.000294632035222507 0.0 0.0
-0.011002446458083504 0.008411396546058826 0.0 -0.000706349630285934 0.0 0.0
-0.01867228987764191 0.01571565187880302 0.0 -0.00140338112078934 0.0 0.0
-0.029307889330394396 0.026043228507543398 0.0 -0.002398289975456288 0.0 0.0
-0.04293496530730923 0.03939817289494441 0.0 -0.0036445853841948813 0.0 0.0
-0.05934200883889386 0.05554418484109182 0.0 -0.00501275443820846 0.0 0.0
-0.07821475030549056 0.0741520458441479 0.0 -0.006403739536453104 0.0 0.0
-0.09921938188054007 0.09489103931099917 0.0 -0.007821497405054145 0.0 0.0
-0.12196467885346099 0.11739625904473869 0.0 -0.009270186438019069 0.0 0.0
-0.14589732697898067 0.14115381602955748 0.0 -0.010639886955566048 0.0 0.0
-0.17016689603706658 0.16534681065287002 0.0 -0.011624729753349869 0.0 0.0
-0.19346749406019761 0.18867619977192876 0.0 -0.011830947221712665 0.0 0.0
-0.21366126449552633 0.20904426460802158 0.0 -0.01194390300571283 0.0 0.0
-0.2265420359009109 0.22280922498411948 0.0 -0.0172633064497524 0.0 0.0
-0.22382469658827342 0.22313052855301768 0.0 -0.04209659491862464 0.0 0.0
-0.2172089800410112 0.19758901772901855 0.0 1.2396333959330263e-14 0.0 0.0
-0.22382469658823412 0.22313052855298993 0.0 0.04209659491865184 0.0 0.0
-0.2265420359008375 0.22280922498403855 0.0 0.017263306449781374 0.0 0.0
-0.21366126449542405 0.20904426460791953 0.0 0.011943903005718352 0.0 0.0
-0.19346749406007413 0.1886761997718101 0.0 0.011830947221706925 0.0 0.0
-0.17016689603693255 0.1653468106527311 0.0 0.011624729753346684 0.0 0.0
-0.14589732697884414 0.1411538160294214 0.0 0.010639886955564852 0.0 0.0
-0.1219646788533251 0.1173962590446049 0.0 0.009270186438012551 0.0 0.0
-0.099219381880409 0.09489103931086651 0.0 0.00782149740504566 0.0 0.0
-0.0782147503053698 0.07415204584402314 0.0 0.006403739536445555 0.0 0.0
-0.05934200883878753 0.05554418484098599 0.0 0.005012754438194684 0.0 0.0
-0.04293496530722213 0.039398172894859335 0.0 0.003644585384183799 0.0 0.0
-0.029307889330327585 0.02604322850747714 0.0 0.0023982899754505147 0.0 0.0
-0.018672289877593718 0.015715651878755336 0.0 0.0014033811207850128 0.0 0.0
-0.011002446458052657 0.00841139654603066 0.0 0.0007063496302835448 0.0 0.0
-0.0059859132208708995 0.003815634449138589 0.0 0.00029463203522247573 0.0 0.0
-0.00312648847986429 0.0014874412323473446 0.0 0.00022941924855210725 0.0 0.0
-0.0017304135873841239 0.0006995971605015948 0.0 0.0004051292835083193 0.0 0.0
-0.0009478753988275176 0.00040093537390329835 0.0 0.0004574599388540314 0.0 0.0
-0.00037061695844144924 9.379892297774069e-05 0.0 0.0003281790924718916 0.0 0.0
-0.00013809576854622116 1.375039369425467e-05 0.0 0.0001948928958981448 0.0 0.0
-9.661171686238846e-05 1.7498205024506115e-05 0.0 -0.00011744622908215822 0.0 0.0
-0.00033666183339808636 0.00010690230190212362 0.0 -0.00013643719580295756 0.0 0.0
-0.0009963345177929025 0.0004102799674235965 0.0 -0.00014667727877921933 0.0 0.0
-0.0019682987710746415 0.0007392467971095737 0.0 -5.061724171416307e-05 0.0 0.0
-0.003687659283833371 0.0016544842225257404 0.0 0.0002602294474555995 0.0 0.0
-0.0070352576015506015 0.004258756537601849 0.0 0.0005227239276588076 0.0 0.0
-0.012669049008803132 0.009185653211503891 0.0 0.0006523567939489235 0.0 0.0
-0.021110597521622605 0.01688250629888692 0.0 0.0006826147456360117 0.0 0.0
-0.03276584928378714 0.027723218719491585 0.0 0.0005957072275194516 0.0 0.0
-0.047743475573929904 0.04175304600042388 0.0 0.0003385517502531529 0.0 0.0
-0.06586067961258484 0.058749996551729446 0.0 -4.6961585802181814e-05 0.0 0.0
-0.08677421645818748 0.07837388535795076 0.0 -0.000534132386397857 0.0 0.0
-0.11006718857500353 0.1002593577250098 0.0 -0.001137391031895113 0.0 0.0
-0.13524322436010636 0.12398769487091058 0.0 -0.0018264803964860594 0.0 0.0
-0.16159976763431558 0.14897064563167706 0.0 -0.0025736753309901477 0.0 0.0
-0.1880510986887879 0.1742712236196739 0.0 -0.003204417494387211 0.0 0.0
-0.21303663900044412 0.19848173232862637 0.0 -0.003367541155533022 0.0 0.0
-0.23458933999853868 0.21963663854357426 0.0 -0.0030706844224529864 0.0 0.0
-0.2502993400642099 0.23475639865070302 0.0 -0.0064832555468736265 0.0 0.0
-0.25441061613427407 0.23799880765298226 0.0 -0.03287038796100159 0.0 0.0
-0.25246394820451845 0.21386936490674943 0.0 3.2335245592207684e-15 0.0 0.0
-0.25441061613423044 0.23799880765294798 0.0 0.0328703879610103 0.0 0.0
-0.25029934006412724 0.23475639865062845 0.0 0.006483255546887168 0.0 0.0
-0.2345893399984224 0.21963663854345855 0.0 0.0030706844224473034 0.0 0.0
-0.21303663900030462 0.19848173232849656 0.0 0.0033675411555268257 0.0 0.0
-0.1880510986886397 0.1742712236195219 0.0 0.003204417494383806 0.0 0.0
-0.161599767634165 0.14897064563154344 0.0 0.0025736753309874814 0.0 0.0
-0.13524322435995645 0.1239876948707647 0.0 0.0018264803964805967 0.0 0.0
-0.11006718857485864 0.10025935772487818 0.0 0.0011373910318894804 0.0 0.0
-0.08677421645805411 0.0783738853578125 0.0 0.00053413238639596 0.0 0.0
-0.06586067961246858 0.0587499965516122 0.0 4.696158579547624e-05 0.0 0.0
-0.047743475573834834 0.041753046000338065 0.0 -0.0003385517502571232 0.0 0.0
-0.032765849283714135 0.027723218719420815 0.0 -0.00059570722752146 0.0 0.0
-0.021110597521569335 0.016882506298835243 0.0 -0.0006826147456336961 0.0 0.0
-0.012669049008768227 0.009185653211471712 0.0 -0.0006523567939471582 0.0 0.0
-0.007035257601531665 0.004258756537595087 0.0 -0.0005227239276561406 0.0 0.0
-0.0036876592838260016 0.0016544842225181039 0.0 -0.00026022944745553525 0.0 0.0
-0.001968298771072684 0.0007392467971102568 0.0 5.061724171432719e-05 0.0 0.0
-0.000996334517792141 0.00041027996742220175 0.0 0.00014667727877743067 0.0 0.0
-0.0003366618333977846 0.00010690230190085223 0.0 0.00013643719580328263 0.0 0.0
-9.661171686205529e-05 1.7498205024738337e-05 0.0 0.0001174462290826647 0.0 0.0
SCALARS Statev float 8
LOOKUP_TABLE default
0.0 0.021530983841824745 0.017356824773662936 -0.020492268232874974 0.003135443459212056 -0.0014771485167497165 0.0 0.0
0.0 0.007841331107477935 0.005863805243912869 -0.0038599219338762386 -0.0020038833100366224 -0.007749563460198656 0.0 0.0
0.0 0.0003007524250125139 0.00036133366462127455 -0.000216834065439852 -0.00014449959918142296 -0.0004965602851957785 0.0 0.0
0.0 0.00027070836276955353 0.00018282369355920384 -0.00013150677431099264 -5.131691924821189e-05 4.7255300395701756e-05 0.0 0.0
0.0 0.0015424257367357367 0.001200965393006113 -0.0008926365026310388 -0.0003083288903750735 0.00024434051604570395 0.0 0.0
0.0 0.004175704095327994 0.004017253163741436 -0.0032826726081298654 -0.0007345805556115759 0.00047898332852538527 0.0 0.0
0.0 0.010070136120087522 0.009149656616086962 -0.008072146748315575 -0.0010775098677713703 0.0006456891162161982 0.0 0.0
0.0 0.019134481959703298 0.017136282374783898 -0.01578228196122152 -0.0013540004135623607 0.000704194331379011 0.0 0.0
0.0 0.03192753278791749 0.02833969041269838 -0.026707379309974362 -0.0016323111027240328 0.0006445407627515174 0.0 0.0
0.0 0.04858888839192456 0.04285021464513891 -0.04089960543678594 -0.0019506092083529626 0.0004183222086694676 0.0 0.0
0.0 0.06890437955408957 0.06048842405423051 -0.05816361733264672 -0.0023248067215837524 5.343941215108145e-05 0.0 0.0
0.0 0.09216581662965147 0.08092775165331889 -0.07817256528351149 -0.0027551863698072696 -0.0004232889779177592 0.0 0.0
0.0 0.11828927121299888 0.10378391919980716 -0.10055608665548088 -0.003227832544326219 -0.0010070642417734663 0.0 0.0
0.0 0.14674025265107168 0.12864358916789065 -0.12491779654827731 -0.0037257926196131146 -0.0016506131577157255 0.0 0.0
0.0 0.1769244814769274 0.15498477758448143 -0.15075721926946722 -0.004227558315014026 -0.0023612418796027878 0.0 0.0
0.0 0.20800687917360022 0.18204229201742528 -0.17733416238651592 -0.004708129630909192 -0.0030837469208486266 0.0 0.0
0.0 0.23870344809326888 0.20873189584457688 -0.20359047835905103 -0.00514141748552613 -0.003662053095986913 0.0 0.0
0.0 0.2674057182403276 0.23367103903284644 -0.2281682721653011 -0.0055027668675451695 -0.003889248361511393 0.0 0.0
0.0 0.2922716141960618 0.25528481662943053 -0.24949063967423413 -0.00579417695519582 -0.003679634298006598 0.0 0.0
0.0 0.31077813691206474 0.2715941893304849 -0.2656096703186449 -0.005984519011840512 -0.004736355582307173 0.0 0.0
0.0 0.31895362885910195 0.2782234648386905 -0.2722524635363798 -0.005971001302310382 3.882311139236094e-15 0.0 0.0
0.0 0.3107781369120294 0.2715941893304533 -0.2656096703186148 -0.005984519011838784 0.004736355582319539 0.0 0.0
0.0 0.292271614195974 0.2552848166293535 -0.24949063967415813 -0.005794176955194939 0.0036796342980210863 0.0 0.0
0.0 0.2674057182401975 0.2336710390327329 -0.22816827216519037 -0.005502766867542554 0.0038892483615145523 0.0 0.0
0.0 0.2387034480931166 0.20873189584444468 -0.20359047835892097 -0.005141417485523996 0.0036620530959836726 0.0 0.0
0.0 0.2080068791734546 0.18204229201729694 -0.17733416238639108 -0.004708129630905724 0.003083746920840574 0.0 0.0
0.0 0.17692448147676373 0.1549847775843391 -0.150757219269327 -0.004227558315012164 0.0023612418796014707 0.0 0.0
0.0 0.14674025265091484 0.12864358916775356 -0.12491779654814336 -0.0037257926196102385 0.0016506131577147852 0.0 0.0
0.0 0.11828927121284365 0.10378391919967207 -0.10055608665534807 -0.003227832544323744 0.0010070642417686444 0.0 0.0
0.0 0.09216581662950624 0.08092775165319212 -0.07817256528338688 -0.0027551863698051433 0.0004232889779127425 0.0 0.0
0.0 0.06890437955396425 0.06048842405412114 -0.05816361733253963 -0.002324806721581511 -5.343941215911908e-05 0.0 0.0
0.0 0.04858888839183019 0.04285021464505622 -0.04089960543670544 -0.0019506092083508536 -0.0004183222086724626 0.0 0.0
0.0 0.03192753278784593 0.02833969041263548 -0.026707379309913057 -0.0016323111027224185 -0.0006445407627503847 0.0 0.0
0.0 0.019134481959649074 0.017136282374735527 -0.015782281961174958 -0.001354000413560542 -0.000704194331379371 0.0 0.0
0.0 0.010070136120054106 0.009149656616056403 -0.008072146748286805 -0.0010775098677696018 -0.0006456891162159372 0.0 0.0
0.0 0.004175704095312776 0.0040172531637266895 -0.0032826726081169153 -0.0007345805556097829 -0.0004789833285240956 0.0 0.0
0.0 0.0015424257367303022 0.001200965393002027 -0.0008926365026280093 -0.0003083288903740147 -0.0002443405160445355 0.0 0.0
0.0 0.00027070836276732804 0.00018282369355788312 -0.0001315067743100356 -5.1316919247846755e-05 -4.72553003954852e-05 0.0 0.0
0.0 0.0003007524250107066 0.00036133366461966007 -0.00021683406543883987 -0.0001444995991808188 0.0004965602851937462 0.0 0.0
0.0 0.00784133110746633 0.0058638052439070176 -0.0038599219338714915 -0.00200388331003553 0.007749563460189903 0.0 0.0
0.0 0.02153098384180277 0.017356824773648614 -0.020492268232855156 0.003135443459206528 0.0014771485167026923 0.0 0.0
0.0 0.01778713517120144 0.01347569563686345 -0.017174197634944703 0.003698501998081249 -0.0009766300512249954 0.0 0.0
0.0 0.005074460719791362 0.003659929722585028 -0.00240583359714668 -0.001254096125438348 -0.0063297733231186155 0.0 0.0
0.0 -0.0001054325978568174 -8.138635905242527e-05 8.148205068310873e-05 -9.56916306835026e-08 -0.00015928284474572127 0.0 0.0
0.0 9.405408181075289e-05 8.477142986749536e-05 -6.115699531774917e-05 -2.3614434549746116e-05 2.3560264742746647e-05 0.0 0.0
0.0 0.0009660629019452065 0.0008383473769988017 -0.0006285175594219399 -0.0002098298175768608 9.007503157685156e-05 0.0 0.0
0.0 0.003614854484411453 0.0032139208614691515 -0.002655772344063739 -0.000558148517405418 3.300445903620377e-05 0.0 0.0
0.0 0.008692494438038293 0.007862406334952877 -0.0070375066568424925 -0.0008248996781103849 -0.0003829637848422317 0.0 0.0
0.0 0.01711658142585349 0.01519603169049573 -0.014218817024956275 -0.0009772146655394704 -0.0010763977524387732 0.0 0.0
0.0 0.029055479245385766 0.0255409717687393 -0.024456009500070618 -0.001084962268668669 -0.0020555566870135984 0.0 0.0
0.0 0.04451211931114074 0.03892174091079696 -0.03774360627604771 -0.0011781346347492741 -0.003287697158492249 0.0 0.0
0.0 0.06328182073654551 0.055132861929296145 -0.053865966163722724 -0.001266895765573477 -0.004663171901151569 0.0 0.0
0.0 0.0851080628859277 0.0738690182962051 -0.07251229624532314 -0.0013567220508818758 -0.006080140813057111 0.0 0.0
0.0 0.10903111027795583 0.09481273379349392 -0.09336518821605018 -0.0014475455774437007 -0.0075188566658475195 0.0 0.0
0.0 0.135378328232097 0.11760432164365323 -0.1160717783838703 -0.0015325432597829874 -0.008968443559753016 0.0 0.0
0.0 0.16331393847680697 0.1417789023428306 -0.1401770305943291 -0.0016018717485014149 -0.010369205251245189 0.0 0.0
0.0 0.19208970680094045 0.1666607053645758 -0.16501330024048455 -0.001647405124091398 -0.011571401286503358 0.0 0.0
0.0 0.2206177145295405 0.1912888989096368 -0.18962398413752635 -0.0016649147721103483 -0.012271409832040238 0.0 0.0
0.0 0.24743189688439476 0.2144062742082833 -0.21275031250672674 -0.0016559617015566494 -0.012123374543719544 0.0 0.0
0.0 0.27062027313202835 0.23440036019807925 -0.2327965065609563 -0.001603853637122673 -0.011098113214613375 0.0 0.0
0.0 0.2875344800576172 0.24889108131363696 -0.2474901217123326 -0.0014009596013043874 -0.010499998337130802 0.0 0.0
0.0 0.2950927864437057 0.2545569111478197 -0.2534593398465922 -0.0010975713012275627 1.0451708942760263e-14 0.0 0.0
0.0 0.28753448005757953 0.2488910813136034 -0.2474901217122994 -0.0014009596013038104 0.010499998337158532 0.0 0.0
0.0 0.2706202731319455 0.234400360198008 -0.23279650656088394 -0.001603853637123913 0.011098113214645287 0.0 0.0
0.0 0.24743189688428124 0.2144062742081853 -0.2127503125066291 -0.0016559617015561793 0.012123374543734597 0.0 0.0
0.0 0.2206177145294027 0.19128889890951856 -0.18962398413740764 -0.001664914772110899 0.012271409832038714 0.0 0.0
0.0 0.1920897068008016 0.16666070536445543 -0.16501330024036495 -0.0016474051240900278 0.011571401286495798 0.0 0.0
0.0 0.1633139384766598 0.14177890234270293 -0.1401770305942016 -0.001601871748501389 0.010369205251243204 0.0 0.0
0.0 0.13537832823195062 0.11760432164352647 -0.11607177838374398 -0.0015325432597824587 0.008968443559749052 0.0 0.0
0.0 0.10903111027781308 0.0948127337933709 -0.0933651882159272 -0.001447545577443761 0.007518856665839268 0.0 0.0
0.0 0.08510806288579571 0.07386901829609063 -0.07251229624520886 -0.0013567220508818663 0.006080140813046855 0.0 0.0
0.0 0.0632818207364304 0.05513286192919684 -0.05386596616362359 -0.0012668957655732726 0.004663171901138014 0.0 0.0
0.0 0.04451211931105186 0.038921740910719316 -0.03774360627597055 -0.0011781346347487294 0.003287697158483444 0.0 0.0
0.0 0.029055479245320842 0.025540971768682013 -0.024456009500014145 -0.0010849622686678719 0.002055556687009513 0.0 0.0
0.0 0.017116581425805213 0.015196031690453068 -0.014218817024914314 -0.000977214665538776 0.001076397752433501 0.0 0.0
0.0 0.008692494438008909 0.007862406334926542 -0.007037506656817153 -0.0008248996781093788 0.00038296378483915 0.0 0.0
0.0 0.003614854484396238 0.003213920861455764 -0.0026557723440518263 -0.0005581485174039332 -3.3004459036902386e-05 0.0 0.0
0.0 0.0009660629019412579 0.0008383473769958689 -0.000628517559419778 -0.0002098298175760923 -9.007503157622158e-05 0.0 0.0
0.0 9.405408180973617e-05 8.477142986711776e-05 -6.115699531748198e-05 -2.3614434549635595e-05 -2.3560264742644726e-05 0.0 0.0
0.0 -0.00010543259785714013 -8.138635905209463e-05 8.148205068280426e-05 -9.569163070999019e-08 0.00015928284474522165 0.0 0.0
0.0 0.005074460719779237 0.003659929722578426 -0.002405833597141697 -0.0012540961254367303 0.006329773323107106 0.0 0.0
0.0 0.017787135171176863 0.013475695636844765 -0.017174197634921652 0.00369850199807688 0.0009766300511892994 0.0 0.0
0.0 0.013533811987445356 0.010038617766414654 -0.013127056327324693 0.0030884385609100434 -0.0037939352346675623 0.0 0.0
0.0 0.0034930936486449 0.002248407759814427 -0.0013018062825391236 -0.0009466014772753079 -0.005686098508935209 0.0 0.0
0.0 -2.2235764934955943e-06 -5.541388200839885e-07 9.050791806359306e-07 -3.5094036055193787e-07 -8.159323551552923e-07 0.0 0.0
0.0 1.0467414464728424e-05 9.288519305381772e-06 -5.652350134716769e-06 -3.6361691706651286e-06 1.05899482606367e-05 0.0 0.0
0.0 0.0005144422754686772 0.0004706951627111244 -0.00034360431163871555 -0.00012709085107240903 5.376873169727231e-06 0.0 0.0
0.0 0.002672214583521044 0.0023340428845344484 -0.0018759426155187547 -0.0004581002690156905 -0.00021124064061219626 0.0 0.0
0.0 0.006934018430505458 0.006340280199719392 -0.005577381960263949 -0.0007628982394554402 -0.0010125719161190325 0.0 0.0
0.0 0.01448658226544287 0.012852898720797914 -0.011924381603892049 -0.0009285171169058585 -0.0023337847897181656 0.0 0.0
0.0 0.025193687377877902 0.02212146727745851 -0.021089532305634442 -0.0010319349718240375 -0.004177976093447444 0.0 0.0
0.0 0.039140072917540535 0.034109424357088275 -0.032992266957822425 -0.0011171573992658638 -0.006436712395626253 0.0 0.0
0.0 0.05598010019670315 0.048589615171003075 -0.04738925335462972 -0.001200361816373305 -0.008902428330902616 0.0 0.0
0.0 0.07526739348185055 0.06528119041009793 -0.0639950159933976 -0.001286174416700351 -0.011387878993246918 0.0 0.0
0.0 0.09703620616535685 0.0839126117002732 -0.0825403358223404 -0.0013722758779327274 -0.013841943133834054 0.0 0.0
0.0 0.12026027908193153 0.10420388722551958 -0.1027510271684467 -0.0014528600570729066 -0.016292884944255945 0.0 0.0
0.0 0.14523002451286385 0.12576822557853165 -0.12424741119881239 -0.0015208143797194795 -0.018660694228731723 0.0 0.0
0.0 0.1710154203114713 0.14804882438166744 -0.14648010674342352 -0.0015687176382438058 -0.020676715129769912 0.0 0.0
0.0 0.19669674063277653 0.17024208057837062 -0.16865083486980606 -0.001591245708564878 -0.021873741184124815 0.0 0.0
0.0 0.22093694706161102 0.1912031324207366 -0.1896247499141605 -0.001578382506576186 -0.02176580842411535 0.0 0.0
0.0 0.2418795322271435 0.20927973753179518 -0.20778061510904372 -0.001499122422751175 -0.02022531809118891 0.0 0.0
0.0 0.25699873689326447 0.22227650934002804 -0.22089428071026312 -0.001382228629764464 -0.01750505235569336 0.0 0.0
0.0 0.26410627390050534 0.2275142038399103 -0.22647286302528138 -0.00104134081462903 1.8987415806304142e-14 0.0 0.0
0.0 0.2569987368932245 0.22227650933999163 -0.2208942807102268 -0.0013822286297648326 0.01750505235574127 0.0 0.0
0.0 0.24187953222706235 0.2092797375317253 -0.20778061510897244 -0.0014991224227531362 0.020225318091237725 0.0 0.0
0.0 0.22093694706151085 0.19120313242065032 -0.189624749914073 -0.0015783825065771961 0.021765808424145532 0.0 0.0
0.0 0.19669674063266018 0.17024208057827062 -0.16865083486970664 -0.0015912457085642856 0.02187374118412467 0.0 0.0
0.0 0.17101542031133582 0.1480488243815502 -0.14648010674330628 -0.0015687176382439669 0.020676715129760687 0.0 0.0
0.0 0.14523002451273131 0.12576822557841671 -0.12424741119869787 -0.0015208143797187637 0.01866069422872601 0.0 0.0
0.0 0.12026027908179818 0.1042038872254045 -0.10275102716833152 -0.0014528600570729478 0.01629288494424839 0.0 0.0
0.0 0.09703620616523165 0.08391261170016506 -0.08254033582223282 -0.001372275877932197 0.013841943133821925 0.0 0.0
0.0 0.07526739348173464 0.06528119040999815 -0.0639950159932981 -0.0012861744167000035 0.011387878993228788 0.0 0.0
0.0 0.05598010019660474 0.04858961517091784 -0.04738925335454485 -0.0012003618163730111 0.008902428330884397 0.0 0.0
0.0 0.03914007291745858 0.03410942435701669 -0.032992266957751114 -0.0011171573992655524 0.006436712395610656 0.0 0.0
0.0 0.025193687377819494 0.022121467277407245 -0.021089532305584264 -0.0010319349718229856 0.004177976093438107 0.0 0.0
0.0 0.014486582265400389 0.01285289872076097 -0.011924381603855637 -0.0009285171169052985 0.0023337847897098507 0.0 0.0
0.0 0.006934018430481373 0.006340280199697761 -0.005577381960243361 -0.000762898239454411 0.0010125719161137908 0.0 0.0
0.0 0.002672214583507897 0.00233404288452315 -0.0018759426155089305 -0.0004581002690142201 0.00021124064061002248 0.0 0.0
0.0 0.0005144422754647662 0.00047069516270813774 -0.0003436043116365514 -0.0001270908510715861 -5.376873169654543e-06 0.0 0.0
0.0 1.046741446444885e-05 9.288519305285853e-06 -5.652350134654222e-06 -3.6361691706315755e-06 -1.0589948260565759e-05 0.0 0.0
0.0 -2.2235764933687515e-06 -5.541388201369633e-07 9.050791806677468e-07 -3.509403605307843e-07 8.15932355108253e-07 0.0 0.0
0.0 0.0034930936486352645 0.002248407759808835 -0.0013018062825353146 -0.0009466014772735101 0.00568609850892087 0.0 0.0
0.0 0.013533811987419752 0.010038617766395735 -0.01312705632730122 0.0030884385609054573 0.0037939352346439553 0.0 0.0
0.0 0.010444200015975125 0.007560684734392991 -0.010080046168529854 0.0025193614341368414 -0.004064789587416954 0.0 0.0
0.0 0.002605064315618301 0.0015774039452828746 -0.0008917511647934912 -0.0006856527804893771 -0.004425526714149286 0.0 0.0
0.0 0.0 0.0 0.0 0.0 0.0 0.0 0.0
0.0 -9.778252509577096e-06 -8.627577195808693e-06 6.902879419222967e-06 1.7246977765857254e-06 7.449789023804847e-06 0.0 0.0
0.0 0.00022826914473573806 0.0002033047953171121 -0.00014332423744617783 -5.998055787093349e-05 -1.0155605205500332e-05 0.0 0.0
0.0 0.0017464273685644707 0.0015795029675228197 -0.0012328752924028177 -0.0003466276751199983 -0.0003427108122798085 0.0 0.0
0.0 0.005513860709359383 0.004875779560904663 -0.004195020363356084 -0.0006807591975485763 -0.0013349554576939943 0.0 0.0
0.0 0.011915323528228685 0.010531920201505153 -0.009661261022561755 -0.0008706591789433947 -0.003165289359809603 0.0 0.0
0.0 0.02140409046889073 0.018678984376761708 -0.017704977138912684 -0.0009740072378490211 -0.0056625958373608 0.0 0.0
0.0 0.033756598572041475 0.02923891953900025 -0.02818635554210731 -0.0010525639968929287 -0.008689669580603982 0.0 0.0
0.0 0.048576615660070176 0.0419670050825447 -0.04083757631281942 -0.0011294287697251857 -0.011963641194489835 0.0 0.0
0.0 0.06568528912663933 0.056600605800944614 -0.055390229185234036 -0.001210376615710555 -0.015254995123217678 0.0 0.0
0.0 0.08451360971598104 0.07291622106886068 -0.0716239376738763 -0.001292283394984385 -0.018499590932315256 0.0 0.0
0.0 0.10538025697421703 0.09068494885399891 -0.08931690436164597 -0.001368044492352916 -0.021704413287551315 0.0 0.0
0.0 0.12724173325450852 0.10962013454210505 -0.10818606054512557 -0.0014340739969794418 -0.024782817931310635 0.0 0.0
0.0 0.1498506735562067 0.1292929508007739 -0.12780752473425674 -0.0014854260665171357 -0.027446825470457518 0.0 0.0
0.0 0.1727854705329704 0.14904643157126574 -0.14753502773660349 -0.0015114038346623433 -0.029169841665313133 0.0 0.0
0.0 0.19453177303322466 0.16785801591625876 -0.16636193730808346 -0.0014960786081752082 -0.02935132491819411 0.0 0.0
0.0 0.21340305936850934 0.18421176267437495 -0.1827774903003697 -0.001434272374005229 -0.027393754516257262 0.0 0.0
0.0 0.22723289227159008 0.19623827546806166 -0.19487782418798794 -0.0013604512800741522 -0.02231535224403481 0.0 0.0
0.0 0.23436253471745677 0.20140094800236932 -0.2005140208874127 -0.0008869271149566276 2.7490162923804462e-14 0.0 0.0
0.0 0.2272328922715587 0.19623827546803135 -0.1948778241879583 -0.001360451280073123 0.022315352244099928 0.0 0.0
0.0 0.21340305936844875 0.18421176267432066 -0.1827774903003153 -0.001434272374005193 0.02739375451632066 0.0 0.0
0.0 0.19453177303313735 0.16785801591618266 -0.16636193730800683 -0.0014960786081758717 0.0293513249182316 0.0 0.0
0.0 0.17278547053286963 0.14904643157117847 -0.1475350277365175 -0.0015114038346609642 0.02916984166531654 0.0 0.0
0.0 0.14985067355608706 0.12929295080067113 -0.12780752473415322 -0.001485426066517659 0.027446825470446322 0.0 0.0
0.0 0.12724173325439106 0.10962013454200326 -0.10818606054502374 -0.001434073996979626 0.02478281793129988 0.0 0.0
0.0 0.10538025697410414 0.09068494885390067 -0.08931690436154857 -0.0013680444923521936 0.021704413287541705 0.0 0.0
0.0 0.08451360971587038 0.07291622106876572 -0.07162393767378201 -0.0012922833949836686 0.018499590932298457 0.0 0.0
0.0 0.06568528912653672 0.05660060580085614 -0.05539022918514571 -0.0012103766157105247 0.015254995123193667 0.0 0.0
0.0 0.0485766156599832 0.04196700508246979 -0.04083757631274519 -0.0011294287697245168 0.011963641194466933 0.0 0.0
0.0 0.03375659857196701 0.02923891953893611 -0.02818635554204348 -0.0010525639968926 0.008689669580582345 0.0 0.0
0.0 0.02140409046883724 0.018678984376715477 -0.017704977138867088 -0.0009740072378483802 0.005662595837346442 0.0 0.0
0.0 0.011915323528189912 0.010531920201471 -0.009661261022528188 -0.0008706591789428118 0.003165289359798235 0.0 0.0
0.0 0.005513860709337877 0.004875779560886607 -0.004195020363339302 -0.0006807591975473029 0.001334955457687443 0.0 0.0
0.0 0.0017464273685547026 0.0015795029675148217 -0.0012328752923961726 -0.00034662767511864785 0.00034271081227731705 0.0 0.0
0.0 0.00022826914473227377 0.00020330479531453376 -0.00014332423744426907 -5.9980557870264305e-05 1.015560520507194e-05 0.0 0.0
0.0 -9.778252509792669e-06 -8.627577195752677e-06 6.902879419174906e-06 1.7246977765778014e-06 -7.449789023734152e-06 0.0 0.0
0.0 0.0 0.0 0.0 0.0 0.0 0.0 0.0
0.0 0.002605064315609747 0.001577403945277892 -0.0008917511647901246 -0.0006856527804877701 0.0044255267141364565 0.0 0.0
0.0 0.010444200015952927 0.007560684734375825 -0.010080046168508399 0.002519361434132558 0.004064789587399884 0.0 0.0
0.0 0.007831396267328667 0.005634582030844724 -0.007644385553882247 0.0020098035230375314 -0.0034857813882393086 0.0 0.0
0.0 0.0020919020465440955 0.001079886953854724 -0.0006007601171868716 -0.0004791268366678523 -0.0032937061312415424 0.0 0.0
0.0 0.0 0.0 0.0 0.0 0.0 0.0 0.0
0.0 -1.4816294091191815e-06 -1.330183758228862e-06 1.0663418648802245e-06 2.638418933486406e-07 1.8355136029094964e-06 0.0 0.0
0.0 3.5278977842371755e-05 4.843629503116617e-05 -3.0410229065429234e-05 -1.8026065965736972e-05 9.067526491947685e-06 0.0 0.0
0.0 0.0010901552362349146 0.0009528469471409692 -0.0007231651894269008 -0.00022968175771406825 -0.00035279291953009757 0.0 0.0
0.0 0.004145626742642772 0.00353064876019876 -0.002958068401711902 -0.0005725803584868547 -0.001436387481386066 0.0 0.0
0.0 0.009445662540796594 0.008268478986062125 -0.007467832862458855 -0.0008006461236032808 -0.0035315320881217156 0.0 0.0
0.0 0.017663406455606382 0.015258481772841767 -0.014348593999888547 -0.000909887772953232 -0.0065005506301346345 0.0 0.0
0.0 0.02837063399386868 0.024359956771663176 -0.02337716950578313 -0.0009827872658800317 -0.010045328951129891 0.0 0.0
0.0 0.04125254574967513 0.035315516092829936 -0.034262118121584785 -0.0010533979712451518 -0.013858118511568531 0.0 0.0
0.0 0.056003502629235785 0.04787831804511416 -0.04674950055670973 -0.0011288174884044144 -0.017688260524845532 0.0 0.0
0.0 0.07245853221927423 0.06186356929504469 -0.060657871798602256 -0.0012056974964423993 -0.021470855007740736 0.0 0.0
0.0 0.09003343242507264 0.07710960380272222 -0.07583149728180069 -0.0012781065209216584 -0.025200662541001655 0.0 0.0
0.0 0.10910522226556614 0.09339900861589386 -0.0920574086048551 -0.001341600011038663 -0.028757276078157045 0.0 0.0
0.0 0.12897405142643967 0.11042467143209779 -0.1090315476244378 -0.0013931238076600404 -0.0318654690790582 0.0 0.0
0.0 0.14882696859561031 0.12769445430228055 -0.1262701088145941 -0.0014243454876864553 -0.03407010116047264 0.0 0.0
0.0 0.16806813118337263 0.14437219116564584 -0.1429510028410901 -0.0014211883245556305 -0.034668430554908286 0.0 0.0
0.0 0.18510153868137363 0.15918858300383046 -0.15780938634530123 -0.001379196658529039 -0.03248206600384387 0.0 0.0
0.0 0.19805912936066616 0.17056024939653208 -0.169235461700915 -0.0013247876956172062 -0.025876488416382508 0.0 0.0
0.0 0.20548339314605987 0.17583251295496094 -0.1751422751111493 -0.0006902378438114716 3.300658357741071e-14 0.0 0.0
0.0 0.19805912936064027 0.17056024939650577 -0.16923546170088918 -0.0013247876956166084 0.02587648841645647 0.0 0.0
0.0 0.18510153868133056 0.15918858300378916 -0.15780938634526076 -0.0013791966585282342 0.03248206600391701 0.0 0.0
0.0 0.16806813118329914 0.1443721911655807 -0.14295100284102524 -0.0014211883245555017 0.034668430554949455 0.0 0.0
0.0 0.14882696859551986 0.12769445430220255 -0.12627010881451686 -0.0014243454876856623 0.03407010116047939 0.0 0.0
0.0 0.12897405142634277 0.11042467143201373 -0.10903154762435428 -0.0013931238076595378 0.031865469079046395 0.0 0.0
0.0 0.10910522226546784 0.09339900861580853 -0.09205740860477094 -0.0013416000110376206 0.028757276078143323 0.0 0.0
0.0 0.09003343242497903 0.07710960380264087 -0.07583149728172 -0.0012781065209208629 0.02520066254099039 0.0 0.0
0.0 0.07245853221917666 0.06186356929496106 -0.060657871798518566 -0.0012056974964423266 0.0214708550077201 0.0 0.0
0.0 0.05600350262914624 0.0478783180450377 -0.04674950055663321 -0.0011288174884044274 0.01768826052481877 0.0 0.0
0.0 0.041252545749599835 0.03531551609276597 -0.03426211812152163 -0.0010533979712443534 0.013858118511540273 0.0 0.0
0.0 0.028370633993801794 0.02435995677160649 -0.023377169505726318 -0.0009827872658801679 0.010045328951103652 0.0 0.0
0.0 0.017663406455561234 0.015258481772803145 -0.014348593999850293 -0.0009098877729528356 0.006500550630117754 0.0 0.0
0.0 0.009445662540763164 0.008268478986033417 -0.007467832862430947 -0.0008006461236024809 0.003531532088108195 0.0 0.0
0.0 0.004145626742625527 0.003530648760184824 -0.0029580684016992454 -0.0005725803584855735 0.0014363874813794835 0.0 0.0
0.0 0.0010901552362266684 0.0009528469471343998 -0.0007231651894216583 -0.00022968175771274235 0.00035279291952733713 0.0 0.0
0.0 3.527897784120628e-05 4.843629503053466e-05 -3.0410229064979474e-05 -1.8026065965555196e-05 -9.06752649184253e-06 0.0 0.0
0.0 -1.4816294092182084e-06 -1.3301837582607777e-06 1.0663418649039257e-06 2.638418933568349e-07 -1.835513602962159e-06 0.0 0.0
0.0 0.0 0.0 0.0 0.0 0.0 0.0 0.0
0.0 0.002091902046535942 0.0010798869538505816 -0.0006007601171840699 -0.0004791268366665102 0.003293706131230618 0.0 0.0
0.0 0.007831396267310317 0.0056345820308303105 -0.007644385553863967 0.0020098035230336495 0.003485781388227504 0.0 0.0
0.0 0.005827015698917015 0.004074285748062222 -0.005622768309899426 0.0015484825618371982 -0.0027434092618105277 0.0 0.0
0.0 0.0013677973072979055 0.0007086512521083378 -0.00038810896277039966 -0.0003205422893379369 -0.0023514019163756433 0.0 0.0
0.0 1.4483749750251462e-07 -3.087412547042466e-09 2.644247110450392e-09 4.4316543659177474e-10 2.8266529167811133e-08 0.0 0.0
0.0 -4.5770131099499316e-07 2.9610090929977088e-08 -1.7866752237617204e-08 -1.1743338692359872e-08 -2.1222305920967473e-10 0.0 0.0
0.0 -2.4637208217559434e-05 -1.5150209591881623e-05 1.4197497634859643e-05 9.52711957021973e-07 3.5751880011748006e-05 0.0 0.0
0.0 0.0005430249021321219 0.0004934097852937338 -0.0003644167277552415 -0.0001289930575384928 -0.00028628953046534657 0.0 0.0
0.0 0.0026913024321127597 0.0023643280221090825 -0.0019226926258430511 -0.0004416353962660305 -0.001381264926092076 0.0 0.0
0.0 0.007384641872767713 0.006110291086191477 -0.005403819650716181 -0.0007064714354752846 -0.0034906152471528354 0.0 0.0
0.0 0.013874922419682176 0.011903859013389879 -0.011069039952155968 -0.0008348190612339223 -0.006671830997018254 0.0 0.0
0.0 0.023075186547770056 0.019521147590839512 -0.018615096855878463 -0.0009060507349610482 -0.010498749050390454 0.0 0.0
0.0 0.033940186053251054 0.028687440511377983 -0.027716848582055705 -0.0009705919293222596 -0.014585549914742242 0.0 0.0
0.0 0.04631888810454877 0.03916814669637618 -0.03812774378559977 -0.0010404029107763846 -0.01868967597794148 0.0 0.0
0.0 0.06004142735294639 0.05081597604539335 -0.04970361620179152 -0.0011123598436018627 -0.022746103408619826 0.0 0.0
0.0 0.0750583022584921 0.06352461304379683 -0.06234474172527813 -0.0011798713185186107 -0.026748791144297082 0.0 0.0
0.0 0.09097145900666359 0.07715927565521272 -0.07591893086316427 -0.0012403447920485773 -0.030569707608241854 0.0 0.0
0.0 0.10756327934862595 0.09150446136677143 -0.09021265039578397 -0.001291810970987353 -0.033934079522615915 0.0 0.0
0.0 0.12493823077070623 0.1062174071130319 -0.10488766017170156 -0.0013297469413303309 -0.03647308151077207 0.0 0.0
0.0 0.14161066290251845 0.12073396419080716 -0.11938857045747878 -0.0013453937333284148 -0.03750881469728144 0.0 0.0
0.0 0.15674563099231378 0.13411218004129646 -0.13278694670820762 -0.0013252333330887934 -0.035545356179151784 0.0 0.0
0.0 0.16912180998523532 0.14502693902132496 -0.1437457433587644 -0.0012811956625605712 -0.02839101814642708 0.0 0.0
0.0 0.177098478410112 0.15054557712450262 -0.1500861719177883 -0.0004594052067139734 3.34038352534094e-14 0.0 0.0
0.0 0.16912180998520987 0.1450269390212983 -0.1437457433587364 -0.001281195662561804 0.028391018146504632 0.0 0.0
0.0 0.15674563099227234 0.13411218004125622 -0.13278694670816665 -0.001325233333089459 0.03554535617922924 0.0 0.0
0.0 0.14161066290245516 0.12073396419075039 -0.11938857045742116 -0.001345393733329036 0.03750881469732706 0.0 0.0
0.0 0.12493823077062695 0.10621740711296365 -0.1048876601716336 -0.0013297469413300425 0.03647308151077709 0.0 0.0
0.0 0.10756327934854651 0.09150446136670295 -0.09021265039571615 -0.0012918109709870215 0.03393407952260359 0.0 0.0
0.0 0.09097145900658127 0.07715927565514136 -0.07591893086309333 -0.0012403447920480005 0.030569707608226877 0.0 0.0
0.0 0.07505830225840994 0.06352461304372593 -0.06234474172520721 -0.0011798713185186957 0.026748791144281293 0.0 0.0
0.0 0.0600414273528657 0.050815976045325 -0.04970361620172285 -0.0011123598436021888 0.02274610340859951 0.0 0.0
0.0 0.04631888810447606 0.039168146696314875 -0.038127743785538674 -0.0010404029107761747 0.018689675977914287 0.0 0.0
0.0 0.03394018605319068 0.028687440511327753 -0.02771684858200625 -0.0009705919293215322 0.01458554991471316 0.0 0.0
0.0 0.023075186547714854 0.01952114759079323 -0.0186150968558323 -0.0009060507349609207 0.010498749050362261 0.0 0.0
0.0 0.013874922419648269 0.01190385901336078 -0.011069039952127482 -0.0008348190612333102 0.0066718309970015734 0.0 0.0
0.0 0.007384641872741531 0.006110291086170481 -0.005403819650695927 -0.0007064714354745546 0.003490615247140054 0.0 0.0
0.0 0.002691302432098412 0.002364328022097503 -0.0019226926258329954 -0.0004416353962645071 0.0013812649260847053 0.0 0.0
0.0 0.0005430249021267353 0.0004934097852897426 -0.00036441672775213953 -0.0001289930575376027 0.00028628953046251035 0.0 0.0
0.0 -2.463720821778369e-05 -1.5150209591394915e-05 1.419749763444884e-05 9.527119569460377e-07 -3.5751880010689824e-05 0.0 0.0
0.0 -4.577013109917756e-07 2.9610090827596324e-08 -1.786675215796351e-08 -1.1743338669629626e-08 2.122228518179854e-10 0.0 0.0
0.0 1.4483749738291524e-07 -3.0874125444692183e-09 2.6442471082460284e-09 4.431654362230215e-10 -2.8266529144286692e-08 0.0 0.0
0.0 0.0013677973072910448 0.0007086512521049823 -0.0003881089627681063 -0.0003205422893368738 0.0023514019163663976 0.0 0.0
0.0 0.005827015698902526 0.0040742857480507684 -0.005622768309884495 0.0015484825618337196 0.0027434092618026555 0.0 0.0
0.0 0.0040216679507793455 0.002817103180503249 -0.0039506291092996585 0.0011335259287964027 -0.0020664745295829795 0.0 0.0
0.0 0.0009037272305406299 0.00042138081256678844 -0.0002194409068821749 -0.0002019399056846132 -0.0015640065804747446 0.0 0.0
0.0 1.1853683892268223e-07 1.5421076153843974e-09 -7.818401241691979e-10 -7.602674912153491e-10 2.4929733331571593e-08 0.0 0.0
0.0 -1.4364451483672691e-08 -6.909809778155548e-08 5.08202014851885e-08 1.827789629636411e-08 3.028763639951722e-07 0.0 0.0
0.0 -2.8258282844082824e-05 -1.8103022037381136e-05 1.4718492646930937e-05 3.3845293904502633e-06 3.772028915697908e-05 0.0 0.0
0.0 0.00021579717513117873 0.00018457692364903225 -0.0001320944028810725 -5.2482520767959785e-05 -0.00016022875192121583 0.0 0.0
0.0 0.0016758486666261399 0.0013858889522649362 -0.0010933906431669148 -0.0002924983090980207 -0.0011539567923948197 0.0 0.0
0.0 0.004967675486073303 0.00415693611455449 -0.0035777815655794114 -0.0005791545489750756 -0.003165184706769375 0.0 0.0
0.0 0.010769711293214369 0.008667345254396861 -0.007927094990768655 -0.0007402502636282079 -0.006210338331829901 0.0 0.0
0.0 0.017725164587928083 0.014777355410346431 -0.013959906932781164 -0.000817448477565273 -0.010033704877914452 0.0 0.0
0.0 0.026703119719044363 0.02213755802664026 -0.021259054233949165 -0.000878503792691105 -0.014133886577761243 0.0 0.0
0.0 0.03673657567505657 0.03052611035482177 -0.029583654096196017 -0.0009424562586257716 -0.01825172394889587 0.0 0.0
0.0 0.04779306803431532 0.039829213179979624 -0.03882059915117631 -0.0010086140288032206 -0.022314093372951718 0.0 0.0
0.0 0.059847225985814365 0.04999601444497315 -0.04892415210447367 -0.0010718623404995169 -0.0263301299905227 0.0 0.0
0.0 0.07274756692150894 0.060959700850088755 -0.0598314506967966 -0.0011282501532920786 -0.030186277975215135 0.0 0.0
0.0 0.08664395478560113 0.07258667445413497 -0.07141021453615433 -0.001176459917980704 -0.03361406637459436 0.0 0.0
0.0 0.10038793388062821 0.08467842482597868 -0.0834560431984128 -0.0012223816275659287 -0.036287146201909516 0.0 0.0
0.0 0.11478212632200956 0.09694192645066796 -0.09568003208165345 -0.0012618943690143553 -0.037722798657263655 0.0 0.0
0.0 0.12856317592887317 0.10885502188143537 -0.10758690743802556 -0.0012681144434099777 -0.036460681930259316 0.0 0.0
0.0 0.1403408576300768 0.119413231863401 -0.11818025861860725 -0.0012329732447936813 -0.0298443572346492 0.0 0.0
0.0 0.14918308512874492 0.12529503463871386 -0.12510023246487698 -0.00019480217383698983 3.3186994818912297e-14 0.0 0.0
0.0 0.1403408576300586 0.11941323186337904 -0.11818025861858483 -0.0012329732447943422 0.029844357234726126 0.0 0.0
0.0 0.12856317592884298 0.10885502188140377 -0.10758690743799368 -0.0012681144434101136 0.03646068193033545 0.0 0.0
0.0 0.11478212632195976 0.09694192645062175 -0.09568003208160698 -0.001261894369014819 0.03772279865730924 0.0 0.0
0.0 0.10038793388056468 0.08467842482592432 -0.08345604319835867 -0.0012223816275655761 0.03628714620191491 0.0 0.0
0.0 0.08664395478553312 0.07258667445407693 -0.0714102145360964 -0.0011764599179805682 0.03361406637457879 0.0 0.0
0.0 0.07274756692144706 0.06095970085003501 -0.059831450696743047 -0.0011282501532919624 0.03018627797520128 0.0 0.0
0.0 0.05984722598574664 0.04999601444491517 -0.04892415210441596 -0.001071862340499234 0.026330129990504134 0.0 0.0
0.0 0.04779306803425559 0.039829213179929074 -0.03882059915112626 -0.0010086140288028253 0.02231409337293498 0.0 0.0
0.0 0.036736575675000056 0.030526110354775066 -0.029583654096149558 -0.0009424562586255149 0.018251723948870407 0.0 0.0
0.0 0.026703119718992675 0.02213755802659841 -0.02125905423390782 -0.0008785037926905832 0.014133886577730768 0.0 0.0
0.0 0.01772516458788378 0.014777355410310333 -0.013959906932745335 -0.0008174484775649834 0.010033704877886464 0.0 0.0
0.0 0.010769711293181487 0.008667345254370856 -0.007927094990743608 -0.0007402502636272582 0.006210338331811605 0.0 0.0
0.0 0.004967675486055046 0.004156936114539897 -0.0035777815655657088 -0.0005791545489741816 0.003165184706758834 0.0 0.0
0.0 0.00167584866661423 0.0013858889522561173 -0.0010933906431595435 -0.00029249830909657443 0.0011539567923868942 0.0 0.0
0.0 0.0002157971751275759 0.0001845769236468263 -0.00013209440287945535 -5.248252076737096e-05 0.00016022875191882955 0.0 0.0
0.0 -2.8258282843880678e-05 -1.8103022036863673e-05 1.471849264652192e-05 3.384529390341753e-06 -3.772028915582048e-05 0.0 0.0
0.0 -1.4364451749843682e-08 -6.909809780275856e-08 5.0820201501811265e-08 1.827789630094865e-08 -3.0287636404798544e-07 0.0 0.0
0.0 1.1853683869198745e-07 1.5421076161875886e-09 -7.818401251826872e-10 -7.602674910048665e-10 -2.492973328350805e-08 0.0 0.0
0.0 0.00090372723053554 0.00042138081256459434 -0.0002194409068807168 -0.00020193990568387766 0.0015640065804680932 0.0 0.0
0.0 0.00402166795076825 0.0028171031804945525 -0.003950629109288045 0.0011335259287934894 0.0020664745295772766 0.0 0.0
0.0 0.00304257380027058 0.0017855123151594614 -0.0025433009522688125 0.0007577886371093488 -0.0014536290154422114 0.0 0.0
0.0 0.00044403895237342617 0.00021616920368126732 -0.00010112501953925474 -0.00011504418414201254 -0.0009385429025447001 0.0 0.0
0.0 1.797817183161946e-06 1.352427552117449e-07 -1.4134189790131388e-07 6.099142689569421e-09 -2.7448284224904015e-06 0.0 0.0
0.0 -6.104873930674756e-07 -1.9573294349602897e-08 1.5250854698202828e-08 4.3224396513998734e-09 -4.7228647818595093e-07 0.0 0.0
0.0 -1.5681515960503436e-05 -9.07406683595079e-06 7.317681001965629e-06 1.7563858339851563e-06 2.8368554013628363e-05 0.0 0.0
0.0 4.661152677968368e-05 3.489806988265898e-05 -2.270038080387838e-05 -1.2197689078780568e-05 -4.925515571982348e-05 0.0 0.0
0.0 0.000858706257270193 0.0006503077352398272 -0.0005000526760234497 -0.0001502550592163767 -0.0008172643221338894 0.0 0.0
0.0 0.0030680384503003213 0.002444399879242225 -0.0020369596996499977 -0.00040744017959222815 -0.002560869557475959 0.0 0.0
0.0 0.007131280831985419 0.005669460128312386 -0.0050609213593548795 -0.0006085387689575056 -0.00524878837126952 0.0 0.0
0.0 0.013007650809396134 0.010194515297756522 -0.009488286546765324 -0.0007062287509911926 -0.008682264845951549 0.0 0.0
0.0 0.019579013752442385 0.015726856623231873 -0.014958347646421549 -0.0007685089768103106 -0.012492871761756284 0.0 0.0
0.0 0.027185915640399468 0.022018292256720022 -0.021189669403682047 -0.0008286228530379979 -0.01634792133202141 0.0 0.0
0.0 0.035635981745451344 0.028974280642580633 -0.028085409181933054 -0.0008888714606475908 -0.020153076456384245 0.0 0.0
0.0 0.04479117446680988 0.03658827035059743 -0.03564216260481794 -0.0009461077457794427 -0.02391634387414891 0.0 0.0
0.0 0.054781989201109015 0.04486404226655681 -0.04386498358034171 -0.0009990586862150695 -0.027572236123535144 0.0 0.0
0.0 0.06530739556256585 0.05375529538414839 -0.052710340336478874 -0.0010449550476694677 -0.030877553367290842 0.0 0.0
0.0 0.07653482498499246 0.06315296731751112 -0.06206231397468345 -0.0010906533428276558 -0.03347929404197373 0.0 0.0
0.0 0.08792905805472291 0.0730138734769775 -0.07186056177626225 -0.0011533117007151094 -0.03510624430351473 0.0 0.0
0.0 0.09956403008468458 0.08329991130662001 -0.08209789876892382 -0.001202012537696159 -0.03490182786222791 0.0 0.0
0.0 0.11110492589097776 0.09347741631866364 -0.09229243086894723 -0.0011849854497163314 -0.030036409191010624 0.0 0.0
0.0 0.12125427353452366 0.09982262309062573 -0.0999300549135509 0.00010743182292510649 2.98884181293424e-14 0.0 0.0
0.0 0.11110492589096826 0.09347741631864784 -0.09229243086893128 -0.0011849854497165704 0.03003640919108152 0.0 0.0
0.0 0.09956403008466225 0.08329991130659363 -0.08209789876889767 -0.0012020125376959554 0.0349018278623027 0.0 0.0
0.0 0.08792905805468293 0.07301387347694027 -0.07186056177622423 -0.0011533117007159338 0.03510624430355691 0.0 0.0
0.0 0.07653482498495198 0.06315296731747638 -0.06206231397465016 -0.0010906533428261798 0.03347929404198011 0.0 0.0
0.0 0.06530739556251068 0.053755295384102814 -0.05271034033643294 -0.0010449550476699437 0.030877553367270584 0.0 0.0
0.0 0.054781989201059644 0.04486404226651439 -0.04386498358030033 -0.000999058686214008 0.027572236123519077 0.0 0.0
0.0 0.04479117446676547 0.03658827035055947 -0.035642162604780564 -0.0009461077457788977 0.02391634387413714 0.0 0.0
0.0 0.03563598174540582 0.028974280642542864 -0.028085409181895997 -0.0008888714606468703 0.02015307645636761 0.0 0.0
0.0 0.027185915640354507 0.02201829225668339 -0.021189669403645556 -0.0008286228530378218 0.016347921331997084 0.0 0.0
0.0 0.019579013752400773 0.0157268566231998 -0.014958347646389937 -0.0007685089768098398 0.012492871761726216 0.0 0.0
0.0 0.013007650809362734 0.010194515297730822 -0.009488286546739676 -0.0007062287509911493 0.00868226484592692 0.0 0.0
0.0 0.007131280831960746 0.005669460128293332 -0.005060921359336433 -0.0006085387689569036 0.005248788371253031 0.0 0.0
0.0 0.003068038450286751 0.0024443998792318504 -0.00203695969964065 -0.00040744017959120157 0.002560869557466111 0.0 0.0
0.0 0.0008587062572628151 0.0006503077352346221 -0.0005000526760192336 -0.00015025505921538844 0.0008172643221271996 0.0 0.0
0.0 4.6611526777640136e-05 3.489806988190285e-05 -2.2700380803315645e-05 -1.2197689078587132e-05 4.9255155718830275e-05 0.0 0.0
0.0 -1.5681515961546164e-05 -9.074066835773334e-06 7.317681001830188e-06 1.7563858339431125e-06 -2.836855401296057e-05 0.0 0.0
0.0 -6.104873931102685e-07 -1.957329426825442e-08 1.5250854644392645e-08 4.322439623861126e-09 4.722864792640946e-07 0.0 0.0
0.0 1.7978171828912805e-06 1.3524275521119975e-07 -1.4134189790878413e-07 6.099142697584849e-09 2.7448284227272103e-06 0.0 0.0
0.0 0.00044403895237011626 0.00021616920367994481 -0.00010112501953844782 -0.00011504418414149688 0.0009385429025398661 0.0 0.0
0.0 0.00304257380026006 0.0017855123151527977 -0.0025433009522596735 0.0007577886371068755 0.0014536290154376983 0.0 0.0
0.0 0.0016731084114786703 0.0010305804679359692 -0.0014910650993333607 0.00046048463139739177 -0.0010002510723416628 0.0 0.0
0.0 0.00019788131838925855 7.661937415312894e-05 -1.7130227941824606e-05 -5.948914621130405e-05 -0.0004539328686682284 0.0 0.0
0.0 4.398390609330183e-06 9.014313669589696e-08 -1.0821016768049994e-07 1.8067030984604027e-08 -2.3106068060573364e-06 0.0 0.0
0.0 1.3704848622958622e-06 -2.7609904472213907e-07 2.2423330174591572e-07 5.186574297622337e-08 5.991359529915177e-07 0.0 0.0
0.0 -9.276352241009027e-06 -4.0807715005388615e-06 3.3144572557635263e-06 7.663142447753375e-07 1.7595004696698136e-05 0.0 0.0
0.0 -4.37439828650146e-06 -2.928521244597859e-06 3.8018127925648668e-06 -8.732915479669778e-07 -8.026505726736371e-06 0.0 0.0
0.0 0.0003557501656381388 0.000193073222055286 -0.00014699366943380444 -4.607955262148204e-05 -0.0004473758925461153 0.0 0.0
0.0 0.0016215692560329557 0.001061230409557849 -0.0008612032566707221 -0.00020002715288712717 -0.0017259597288275953 0.0 0.0
0.0 0.0041115262467862216 0.002984958640278776 -0.002582032850058073 -0.00040292579022070305 -0.0038515742183773717 0.0 0.0
0.0 0.007970729830098479 0.005905176995097159 -0.005366571898097673 -0.0005386050969994862 -0.006581348019437715 0.0 0.0
0.0 0.012515679566802737 0.009560561601755176 -0.008942854352818073 -0.0006177072489370976 -0.009723630926010739 0.0 0.0
0.0 0.017842805671334883 0.013732307593319457 -0.013054699386822317 -0.0006776082064971411 -0.012989130743327287 0.0 0.0
0.0 0.023638372943576232 0.01833958810309638 -0.01760594123415236 -0.0007336468689440076 -0.01627928902289809 0.0 0.0
0.0 0.029939730000727385 0.023397501591730426 -0.02261320118646506 -0.000784300405265382 -0.01954966893718774 0.0 0.0
0.0 0.036865745644057944 0.028963387658261005 -0.02813051131418463 -0.0008328763440763726 -0.02275613417486108 0.0 0.0
0.0 0.044437859967771415 0.03508888185059219 -0.034209172001237124 -0.0008797098493550129 -0.02576992227298257 0.0 0.0
0.0 0.05253470934110564 0.041770435915966 -0.040845747187467356 -0.0009246887284986529 -0.028246534032611702 0.0 0.0
0.0 0.060983036511066076 0.049066490816680366 -0.048076673947516683 -0.0009898168691637615 -0.02981452301927512 0.0 0.0
0.0 0.07053340792838987 0.05736850657791497 -0.05627664269406914 -0.0010918638838457978 -0.03038571000587501 0.0 0.0
0.0 0.08163922651141571 0.06693131504755769 -0.06579499946986671 -0.001136315577691015 -0.028416377223358692 0.0 0.0
0.0 0.0934250035322425 0.07382056084137703 -0.0742712066712292 0.0004506458298521067 2.6115394569092842e-14 0.0 0.0
0.0 0.08163922651141292 0.06693131504754597 -0.06579499946985484 -0.0011363155776910792 0.028416377223420858 0.0 0.0
0.0 0.07053340792837554 0.057368506577895335 -0.05627664269404936 -0.0010918638838459589 0.03038571000594361 0.0 0.0
0.0 0.06098303651103489 0.049066490816652 -0.04807667394748749 -0.0009898168691644805 0.02981452301930937 0.0 0.0
0.0 0.05253470934107152 0.041770435915938355 -0.040845747187441356 -0.0009246887284970193 0.028246534032610703 0.0 0.0
0.0 0.0444378599677362 0.0350888818505639 -0.034209172001209404 -0.000879709849354484 0.025769922272964815 0.0 0.0
0.0 0.03686574564402084 0.02896338765823082 -0.028130511314154165 -0.000832876344076649 0.022756134174845108 0.0 0.0
0.0 0.029939730000702318 0.023397501591708857 -0.022613201186444543 -0.0007843004052643278 0.019549668937181894 0.0 0.0
0.0 0.023638372943545056 0.018339588103071784 -0.017605941234128022 -0.0007336468689437283 0.016279289022882677 0.0 0.0
0.0 0.017842805671301733 0.013732307593294652 -0.013054699386797628 -0.0006776082064970227 0.012989130743305648 0.0 0.0
0.0 0.012515679566776365 0.009560561601735807 -0.008942854352799135 -0.0006177072489366674 0.009723630925988254 0.0 0.0
0.0 0.00797072983007555 0.005905176995080712 -0.005366571898081717 -0.0005386050969989998 0.006581348019418254 0.0 0.0
0.0 0.00411152624677069 0.0029849586402672444 -0.0025820328500476696 -0.0004029257902195721 0.0038515742183654203 0.0 0.0
0.0 0.0016215692560257093 0.0010612304095529619 -0.0008612032566664838 -0.00020002715288647881 0.0017259597288212976 0.0 0.0
0.0 0.00035575016563392384 0.00019307322205361542 -0.00014699366943250131 -4.6079552621113824e-05 0.00044737589254298203 0.0 0.0
0.0 -4.374398287103794e-06 -2.9285212444281366e-06 3.801812792437504e-06 -8.732915480094383e-07 8.02650572725422e-06 0.0 0.0
0.0 -9.276352242030493e-06 -4.080771500365145e-06 3.3144572556318754e-06 7.663142447332771e-07 -1.7595004695452828e-05 0.0 0.0
0.0 1.3704848620081618e-06 -2.7609904476309496e-07 2.2423330177819307e-07 5.186574298490283e-08 -5.991359531759952e-07 0.0 0.0
0.0 4.3983906086518816e-06 9.014313673205125e-08 -1.0821016771725025e-07 1.8067030985199673e-08 2.3106068072412115e-06 0.0 0.0
0.0 0.00019788131838637023 7.66193741524001e-05 -1.7130227941443295e-05 -5.9489146210956115e-05 0.00045393286866523067 0.0 0.0
0.0 0.001673108411470901 0.0010305804679313552 -0.0014910650993268182 0.000460484631395461 0.001000251072338248 0.0 0.0
0.0 0.0008634587324423537 0.0004843405876576316 -0.0007092151718403318 0.00022487458418270106 -0.0005763037439166823 0.0 0.0
0.0 3.0174069371053945e-05 1.686735352516513e-06 2.4502863055175805e-05 -2.6189598407692447e-05 -0.00012332978191106425 0.0 0.0
0.0 5.260999241138134e-06 1.2647979964538655e-07 -2.5596276424511253e-07 1.2948296459972638e-07 -6.990871946194153e-06 0.0 0.0
0.0 4.398527449422865e-06 -2.9955495397696005e-07 2.7369800105850496e-07 2.585695291845043e-08 -6.052032354286119e-06 0.0 0.0
0.0 -3.5984617742616586e-06 -1.8098263234392e-06 1.5715725066229043e-06 2.3825381681630273e-07 9.158253468945292e-06 0.0 0.0
0.0 8.161410523950031e-06 -3.3092226682097835e-06 3.2165827884338906e-06 9.263987977587352e-08 -1.1583097913827486e-05 0.0 0.0
0.0 0.00014639731687362122 2.4802727705334638e-05 -1.8837807901060104e-05 -5.964919804274458e-06 -0.00022606139196819852 0.0 0.0
0.0 0.0005629208631081916 0.000188698362514613 -0.0001596804507225064 -2.9017911792106837e-05 -0.0008478307824950613 0.0 0.0
0.0 0.0016142101308879127 0.0007883833392710312 -0.0006982916954212828 -9.009164384974734e-05 -0.002151946735128974 0.0 0.0
0.0 0.0035206984044206997 0.0020588584508697255 -0.001868473221568968 -0.000190385229300759 -0.0040300892187837955 0.0 0.0
0.0 0.0061886708687689095 0.003811206987215982 -0.003522932215936383 -0.0002882747712795946 -0.006236274769781052 0.0 0.0
0.0 0.00901323289130213 0.005850788661784545 -0.0054856612028080405 -0.000365127458976504 -0.008709904563880216 0.0 0.0
0.0 0.012284247908312212 0.008107102252718747 -0.007680865301897885 -0.00042623695082086267 -0.011325909926468555 0.0 0.0
0.0 0.015913979243693387 0.010613005168465157 -0.010134548999263717 -0.0004784561692014409 -0.01402416043678493 0.0 0.0
0.0 0.019924209223790162 0.013453922742218174 -0.01292340094944549 -0.0005305217927726872 -0.016780341103708917 0.0 0.0
0.0 0.02445823190967474 0.0167644581831193 -0.016177193364482426 -0.0005872648186368907 -0.019531077436754272 0.0 0.0
0.0 0.02966454543298798 0.020701231910430874 -0.02005299408496798 -0.000648237825462877 -0.022023948877906322 0.0 0.0
0.0 0.03555666285993213 0.02539993453715646 -0.024690666760518953 -0.0007092677766374759 -0.023676215463348214 0.0 0.0
0.0 0.04236065120169492 0.03128823405673565 -0.030466627670164684 -0.0008216063865709798 -0.02415220637840627 0.0 0.0
0.0 0.05162549667326187 0.03954419416117986 -0.038530078047025594 -0.00101411611415424 -0.024341622624347803 0.0 0.0
0.0 0.0669274875473403 0.04690760337031685 -0.047755075906951855 0.0008474725366350243 2.1459396759571092e-14 0.0 0.0
0.0 0.051625496673267435 0.0395441941611741 -0.03853007804702 -0.001014116114154169 0.024341622624399317 0.0 0.0
0.0 0.042360651201692294 0.031288234056727565 -0.030466627670156208 -0.000821606386571349 0.0241522063784604 0.0 0.0
0.0 0.03555666285990917 0.02539993453713941 -0.024690666760501037 -0.0007092677766383428 0.02367621546336502 0.0 0.0
0.0 0.02966454543295542 0.02070123191040947 -0.020052994084947227 -0.0006482378254622585 0.022023948877894856 0.0 0.0
0.0 0.024458231909652576 0.016764458183104555 -0.016177193364467088 -0.0005872648186374572 0.019531077436734774 0.0 0.0
0.0 0.019924209223773123 0.013453922742205717 -0.012923400949433176 -0.0005305217927725526 0.016780341103698772 0.0 0.0
0.0 0.015913979243679398 0.010613005168455519 -0.010134548999254233 -0.00047845616920128714 0.014024160436778496 0.0 0.0
0.0 0.012284247908295898 0.008107102252708984 -0.0076808653018886975 -0.00042623695082029265 0.011325909926455931 0.0 0.0
0.0 0.009013232891285526 0.005850788661774895 -0.00548566120279832 -0.0003651274589765654 0.008709904563864217 0.0 0.0
0.0 0.006188670868754485 0.003811206987207925 -0.0035229322159282873 -0.00028827477127963655 0.006236274769765423 0.0 0.0
0.0 0.0035206984044091247 0.0020588584508630273 -0.0018684732215624702 -0.00019038522930055443 0.004030089218772184 0.0 0.0
0.0 0.001614210130880924 0.0007883833392670357 -0.0006982916954173311 -9.009164384970528e-05 0.0021519467351208653 0.0 0.0
0.0 0.0005629208631059282 0.00018869836251389312 -0.00015968045072184438 -2.9017911792048687e-05 0.0008478307824923571 0.0 0.0
0.0 0.00014639731687133984 2.4802727705020128e-05 -1.883780790079691e-05 -5.964919804223229e-06 0.00022606139196605236 0.0 0.0
0.0 8.161410524026843e-06 -3.30922266795199e-06 3.216582788235201e-06 9.263987971680285e-08 1.1583097915680908e-05 0.0 0.0
0.0 -3.598461775318255e-06 -1.8098263234131004e-06 1.5715725066096904e-06 2.3825381680340324e-07 -9.158253468235427e-06 0.0 0.0
0.0 4.398527449245121e-06 -2.99554953993215e-07 2.736980010764057e-07 2.585695291681038e-08 6.052032354980723e-06 0.0 0.0
0.0 5.2609992407945685e-06 1.2647979964303437e-07 -2.5596276425062153e-07 1.294829646075836e-07 6.990871946650322e-06 0.0 0.0
0.0 3.0174069369568232e-05 1.686735352252768e-06 2.450286305525651e-05 -2.6189598407509355e-05 0.0001233297819095592 0.0 0.0
0.0 0.0008634587324369747 0.00048434058765481304 -0.000709215171836219 0.00022487458418140563 0.0005763037439140917 0.0 0.0
0.0 0.0002660726068734637 0.0001539125463844059 -0.0002286421794466142 7.472963306220802e-05 -0.0002338729519494531 0.0 0.0
0.0 -2.560361342426815e-05 -1.6487652199298538e-05 2.5561428715298784e-05 -9.07377651600019e-06 1.725668596147582e-05 0.0 0.0
0.0 5.177240814342682e-06 2.1502366015597468e-07 -2.649483677121684e-07 4.9924707556189866e-08 -1.0640102690412701e-07 0.0 0.0
0.0 6.547074059380901e-06 -6.62328570447211e-07 5.58047396038662e-07 1.0428117440855192e-07 -9.564611398526354e-06 0.0 0.0
0.0 2.149506731512389e-06 -9.74397382980379e-07 9.549163307045873e-07 1.9481052275789875e-08 -2.748268408560656e-06 0.0 0.0
0.0 1.8923474910961686e-05 -2.206920952957617e-06 2.2896235415766404e-06 -8.270258861902738e-08 -2.4980702098905823e-05 0.0 0.0
0.0 0.00013094217501461982 -2.7403652569898827e-06 2.721355150190858e-06 1.9010106799028172e-08 -0.00020380287176226806 0.0 0.0
0.0 0.0002763315586404253 -1.797276240472147e-06 1.791906965102621e-06 5.3692753695156e-09 -0.00048199359232932893 0.0 0.0
0.0 0.0005678763174249898 -1.3530823965479506e-06 1.322443397102961e-06 3.063899944496746e-08 -0.0009628018205562336 0.0 0.0
0.0 0.0010194240918349213 -2.6013427095321643e-08 2.6612893308969625e-08 -5.994662135395609e-10 -0.0020359090022240966 0.0 0.0
0.0 0.0020842675318146577 -1.506210691385693e-06 1.927154888776647e-06 -4.209441973907505e-07 -0.0038456518273043603 0.0 0.0
0.0 0.003408789348654911 -1.3829229053957367e-05 1.6843827476444462e-05 -3.014598422487882e-06 -0.006103553665533998 0.0 0.0
0.0 0.0050572795434397945 -3.413978381995293e-05 3.778797896270816e-05 -3.6481951427526544e-06 -0.008508701029760623 0.0 0.0
0.0 0.006900904342931111 -3.238563589656241e-05 3.0373087646033974e-05 2.0125482505284386e-06 -0.011030655262825213 0.0 0.0
0.0 0.008906067945889553 9.077652029790468e-05 -0.00011026583684378114 1.948931654587678e-05 -0.01367299804387516 0.0 0.0
0.0 0.011019188247969856 0.0005352496959946567 -0.0005861385832416151 5.0888887246953876e-05 -0.01641061504752302 0.0 0.0
0.0 0.013268055118832113 0.0016047056222936499 -0.0017055823684546955 0.00010087674616104854 -0.019143188891420897 0.0 0.0
0.0 0.015571632957622211 0.003554295169962061 -0.0037734643671116777 0.00021916919714961924 -0.02161339543567578 0.0 0.0
0.0 0.018680493401012927 0.006083494609045635 -0.006476126666896528 0.00039263205785089873 -0.02343081607704159 0.0 0.0
0.0 0.026643421427431563 0.011611123064273044 -0.011308282121231023 -0.0003028409430420218 -0.024588696587147584 0.0 0.0
0.0 0.047962284263768924 0.019766839927468905 -0.021261854648675135 0.0014950147212062245 1.5841494782620202e-14 0.0 0.0
0.0 0.026643421427441014 0.011611123064272758 -0.0113082821212304 -0.0003028409430423375 0.024588696587178445 0.0 0.0
0.0 0.01868049340101217 0.00608349460904491 -0.006476126666894624 0.00039263205784971234 0.02343081607706092 0.0 0.0
0.0 0.015571632957603988 0.003554295169960772 -0.0037734643671119795 0.00021916919715120412 0.021613395435669494 0.0 0.0
0.0 0.013268055118812504 0.0016047056222915695 -0.001705582368451724 0.00010087674616015354 0.01914318889140195 0.0 0.0
0.0 0.01101918824795959 0.0005352496959988637 -0.000586138583246612 5.088888724774429e-05 0.016410615047508587 0.0 0.0
0.0 0.008906067945879365 9.077652029776157e-05 -0.00011026583684221349 1.9489316544453412e-05 0.013672998043862274 0.0 0.0
0.0 0.006900904342923401 -3.238563589348382e-05 3.0373087643217542e-05 2.012548250265872e-06 0.011030655262816186 0.0 0.0
0.0 0.005057279543422111 -3.413978381480373e-05 3.778797895688871e-05 -3.6481951420846233e-06 0.008508701029739576 0.0 0.0
0.0 0.003408789348643473 -1.3829229050824781e-05 1.6843827473092922e-05 -3.0145984222690358e-06 0.006103553665518477 0.0 0.0
0.0 0.0020842675318032684 -1.5062106882674734e-06 1.9271548849665436e-06 -4.2094419669909725e-07 0.0038456518272882764 0.0 0.0
0.0 0.0010194240918328327 -2.6013427409116857e-08 2.6612893699919375e-08 -5.994662906398879e-10 0.002035909002222464 0.0 0.0
0.0 0.0005678763174229368 -1.3530823968070681e-06 1.3224433972773686e-06 3.063899952959452e-08 0.0009628018205526784 0.0 0.0
0.0 0.00027633155863845797 -1.7972762405311717e-06 1.791906965156227e-06 5.3692753749082355e-09 0.0004819935923258222 0.0 0.0
0.0 0.00013094217501266614 -2.7403652569537526e-06 2.7213551501418925e-06 1.901010681189439e-08 0.00020380287176056488 0.0 0.0
0.0 1.892347491011294e-05 -2.2069209529303905e-06 2.2896235415401586e-06 -8.27025886097763e-08 2.498070209929825e-05 0.0 0.0
0.0 2.149506730825775e-06 -9.743973830039657e-07 9.54916330725279e-07 1.9481052278690957e-08 2.748268409280409e-06 0.0 0.0
0.0 6.547074058580374e-06 -6.623285705031705e-07 5.58047396088092e-07 1.0428117441507843e-07 9.56461139936081e-06 0.0 0.0
0.0 5.177240813448881e-06 2.1502366014589292e-07 -2.649483677063019e-07 4.992470756041775e-08 1.0640102737753864e-07 0.0 0.0
0.0 -2.560361342425428e-05 -1.6487652199025065e-05 2.556142871491333e-05 -9.073776515888295e-06 -1.7256685960332223e-05 0.0 0.0
0.0 0.00026607260687047966 0.00015391254638321626 -0.00022864217944490692 7.472963306169078e-05 0.0002338729519477344 0.0 0.0
0.0 2.1346526784919114e-05 1.0133171363141534e-05 -1.607698375362453e-05 5.943812390482966e-06 -1.743802716752006e-05 0.0 0.0
0.0 -4.634258185543839e-06 -2.1117680732185493e-06 2.993401834425346e-06 -8.816337612067994e-07 7.654801843424068e-06 0.0 0.0
0.0 1.8338993364673052e-06 2.545105145542449e-07 -3.621563644683128e-07 1.0764584991406747e-07 -3.3154146171072035e-06 0.0 0.0
0.0 8.814449411631255e-06 -8.56988915395581e-07 6.850256580877003e-07 1.719632573078803e-07 -1.0699132303701966e-05 0.0 0.0
0.0 7.14351009277607e-06 -1.3035121283795777e-06 1.2315482579845776e-06 7.196387039500013e-08 -1.2121735960507915e-05 0.0 0.0
0.0 2.838677413648214e-05 -5.6682999290242595e-06 5.09686818447138e-06 5.714317445529314e-07 -5.320058598275157e-05 0.0 0.0
0.0 0.00018702097950992186 -3.5806743693637755e-05 2.8844283197822818e-05 6.962460495814824e-06 -0.0002584303351522557 0.0 0.0
0.0 0.0005859942450413878 -0.00019881024209371183 0.00016852376822740558 3.028647386630589e-05 -0.0008736949130155285 0.0 0.0
0.0 0.001621470625653242 -0.0007919228212880476 0.0007012236799283006 9.069914135974716e-05 -0.0021636388356332213 0.0 0.0
0.0 0.003520811290775544 -0.00205921462049626 0.0018687023624258435 0.0001905122580704167 -0.004031774217563035 0.0 0.0
0.0 0.006210123948481311 -0.0038197562763041828 0.0035302813654691473 0.00028947491083503144 -0.006237493001227902 0.0 0.0
0.0 0.009069462195726713 -0.00589109240906434 0.005522086877905085 0.0003690055311592517 -0.008720214749257011 0.0 0.0
0.0 0.01236924443974206 -0.008187814259734636 0.007758798274194923 0.00042901598553970164 -0.011328472950354301 0.0 0.0
0.0 0.015947358093540098 -0.010663153446701504 0.010194744794756273 0.00046840865194524884 -0.014000015304117779 0.0 0.0
0.0 0.019569975667784574 -0.013181321834502784 0.012696615434300118 0.00048470640020266767 -0.01674752555051289 0.0 0.0
0.0 0.023001992859769317 -0.01545910201844997 0.014986907810307261 0.00047219420814268657 -0.019608822479146006 0.0 0.0
0.0 0.02576978399498433 -0.01706552937684109 0.016642417028316907 0.0004231123485241964 -0.022599499361995873 0.0 0.0
0.0 0.027638820051778652 -0.017502064183230442 0.01717116584446738 0.0003308983387630738 -0.025836011847944672 0.0 0.0
0.0 0.02760971585512996 -0.01618620441759097 0.01607063278932425 0.00011557162826673369 -0.029259495692589458 0.0 0.0
0.0 0.022602276975749798 -0.011859896432975896 0.012388475210919313 -0.0005285787779434119 -0.031479782579125655 0.0 0.0
0.0 0.04649843260634405 -0.007048533698861492 0.004075512162648405 0.002973021536213075 1.6042722705833512e-14 0.0 0.0
0.0 0.02260227697575891 -0.011859896432975818 0.012388475210919602 -0.000528578777943781 0.03147978257915251 0.0 0.0
0.0 0.027609715855126775 -0.016186204417586888 0.01607063278931956 0.00011557162826732301 0.029259495692610177 0.0 0.0
0.0 0.027638820051759796 -0.017502064183215996 0.017171165844454467 0.0003308983387615214 0.0258360118479473 0.0 0.0
0.0 0.025769783994956663 -0.017065529376822666 0.01664241702829787 0.0004231123485248283 0.02259949936197865 0.0 0.0
0.0 0.023001992859743227 -0.015459102018429672 0.01498690781028753 0.00047219420814213054 0.019608822479129748 0.0 0.0
0.0 0.019569975667762248 -0.013181321834485789 0.012696615434283184 0.0004847064002025919 0.01674752555049513 0.0 0.0
0.0 0.015947358093518313 -0.01066315344668439 0.010194744794739152 0.0004684086519452399 0.014000015304104774 0.0 0.0
0.0 0.012369244439713406 -0.00818781425971339 0.007758798274174602 0.0004290159855387868 0.011328472950335837 0.0 0.0
0.0 0.009069462195699176 -0.005891092409045724 0.005522086877887011 0.00036900553115871146 0.008720214749232263 0.0 0.0
0.0 0.006210123948454583 -0.003819756276286337 0.0035302813654523764 0.00028947491083396377 0.006237493001205208 0.0 0.0
0.0 0.003520811290761317 -0.0020592146204868726 0.0018687023624169737 0.0001905122580698985 0.0040317742175509895 0.0 0.0
0.0 0.0016214706256457178 -0.0007919228212834829 0.0007012236799241905 9.069914135929395e-05 0.0021636388356256735 0.0 0.0
0.0 0.0005859942450346586 -0.00019881024209089844 0.0001685237682249875 3.0286473865910223e-05 0.0008736949130068091 0.0 0.0
0.0 0.00018702097950671934 -3.5806743693018425e-05 2.8844283197330783e-05 6.9624604956877435e-06 0.0002584303351491794 0.0 0.0
0.0 2.8386774135421418e-05 -5.668299929125087e-06 5.09686818455513e-06 5.714317445699478e-07 5.320058598314708e-05 0.0 0.0
0.0 7.143510092236576e-06 -1.3035121284984986e-06 1.2315482580851697e-06 7.196387041331976e-08 1.2121735961239511e-05 0.0 0.0
0.0 8.814449410979968e-06 -8.569889154740971e-07 6.85025658154668e-07 1.719632573194266e-07 1.0699132304383805e-05 0.0 0.0
0.0 1.8338993358696406e-06 2.545105145427654e-07 -3.6215636445818257e-07 1.0764584991541255e-07 3.315414617389863e-06 0.0 0.0
0.0 -4.634258185925418e-06 -2.1117680733083225e-06 2.9934018345113484e-06 -8.816337612030281e-07 -7.654801842964342e-06 0.0 0.0
0.0 2.1346526784361228e-05 1.0133171363787178e-05 -1.607698375456744e-05 5.943812390780276e-06 1.743802716914968e-05 0.0 0.0
0.0 1.7177379762652765e-06 -3.281655414159381e-07 4.914278333215308e-07 -1.632622919055151e-07 7.858289950931084e-07 0.0 0.0
0.0 -3.7192367748404286e-08 1.3418156784802185e-07 -1.0110776606962339e-07 -3.3073801778413116e-08 1.285001765595339e-06 0.0 0.0
0.0 -1.0824719293053098e-06 6.891656681180574e-07 -6.263661502015557e-07 -6.279951791651138e-08 2.8697025019672493e-06 0.0 0.0
0.0 5.4799419214612134e-06 -9.940258737705466e-07 7.703631768830004e-07 2.2366269688753686e-07 -1.0505593151237235e-05 0.0 0.0
0.0 1.2993503308051326e-05 -8.475082172911932e-08 1.7755888756671337e-07 -9.280806583753105e-08 -6.929560930301459e-06 0.0 0.0
0.0 7.103269231025628e-05 -1.9545541054542772e-05 1.545882548859008e-05 4.086715565952596e-06 -7.770214507129842e-05 0.0 0.0
0.0 0.00038959247580792737 -0.00022364008553111045 0.00017339948744606585 5.024059808504512e-05 -0.0005306417559284905 0.0 0.0
0.0 0.0016484149207370525 -0.0010732349756810442 0.0008720787159087235 0.00020115625977231984 -0.0017597151874307695 0.0 0.0
0.0 0.004114002503045627 -0.0029852923218658314 0.002582152783597612 0.00040313953826821885 -0.0038597178866857924 0.0 0.0
0.0 0.007970537747649031 -0.005905629096294345 0.005366944675874369 0.0005386844204199692 -0.0065810356893100455 0.0 0.0
0.0 0.012529707257638332 -0.009572365185351893 0.008954280567752678 0.0006180846175992137 -0.009727710337762506 0.0 0.0
0.0 0.017884019603001566 -0.013769030924637393 0.013090537205790228 0.0006784937188471882 -0.012984672340649227 0.0 0.0
0.0 0.02369851823948973 -0.018405073835253832 0.01767197595420341 0.0007330978810504177 -0.01621785983552128 0.0 0.0
0.0 0.029927641067550418 -0.023422054300686848 0.02264697207045826 0.000775082230228563 -0.019402324672934197 0.0 0.0
0.0 0.036481079330309765 -0.02866672130934982 0.02786667440049987 0.0008000469088499298 -0.02264144351457462 0.0 0.0
0.0 0.04300573522147698 -0.0338055756030253 0.033002421491699296 0.0008031541113260054 -0.026136174435296856 0.0 0.0
0.0 0.04890161604277399 -0.038325297321862406 0.037537077460707655 0.0007882198611547481 -0.030097540774928874 0.0 0.0
0.0 0.05329080058588108 -0.041563928535910045 0.04080477398793776 0.0007591545479723352 -0.034612765629041094 0.0 0.0
0.0 0.05535550115743541 -0.04237838981881595 0.041724963599986696 0.0006534262188292026 -0.038845118749766996 0.0 0.0
0.0 0.05186351306205002 -0.038266325622682694 0.037859837844337635 0.000406487778345049 -0.040053706185945545 0.0 0.0
0.0 0.05707265171356283 -0.03161454099189888 0.027871226281030243 0.0037433147108685938 2.3137741722578653e-14 0.0 0.0
0.0 0.05186351306206061 -0.03826632562267887 0.037859837844332916 0.00040648777834594594 0.040053706186002125 0.0 0.0
0.0 0.05535550115743035 -0.04237838981880262 0.04172496359997359 0.0006534262188290188 0.03884511874982023 0.0 0.0
0.0 0.05329080058585018 -0.04156392853588267 0.040804773987909826 0.0007591545479728615 0.03461276562905871 0.0 0.0
0.0 0.04890161604273106 -0.03832529732182797 0.03753707746067292 0.000788219861155012 0.030097540774917095 0.0 0.0
0.0 0.043005735221435595 -0.03380557560299156 0.033002421491666024 0.0008031541113254977 0.026136174435277427 0.0 0.0
0.0 0.03648107933027041 -0.028666721309317616 0.027866674400469083 0.0008000469088485554 0.022641443514554008 0.0 0.0
0.0 0.02992764106751565 -0.023422054300656914 0.022646972070428744 0.0007750822302281309 0.019402324672919097 0.0 0.0
0.0 0.02369851823944806 -0.018405073835220637 0.017671975954169965 0.0007330978810506519 0.016217859835500798 0.0 0.0
0.0 0.017884019602957973 -0.013769030924603966 0.013090537205757403 0.0006784937188465725 0.012984672340619502 0.0 0.0
0.0 0.012529707257601046 -0.009572365185323587 0.00895428056772479 0.0006180846175988003 0.009727710337733415 0.0 0.0
0.0 0.00797053774762322 -0.0059056290962747554 0.0053669446758554595 0.0005386844204192953 0.006581035689291304 0.0 0.0
0.0 0.004114002503029554 -0.002985292321853833 0.0025821527835866035 0.0004031395382672309 0.003859717886674285 0.0 0.0
0.0 0.0016484149207283564 -0.0010732349756748364 0.0008720787159038838 0.00020115625977095144 0.0017597151874231734 0.0 0.0
0.0 0.0003895924758019292 -0.0002236400855284353 0.00017339948744393477 5.0240598084500775e-05 0.0005306417559225791 0.0 0.0
0.0 7.103269230878397e-05 -1.9545541054356252e-05 1.5458825488435346e-05 4.086715565920829e-06 7.770214507097078e-05 0.0 0.0
0.0 1.2993503307523287e-05 -8.475082211373803e-08 1.7755888788140962e-07 -9.280806576767339e-08 6.929560931601931e-06 0.0 0.0
0.0 5.479941921313858e-06 -9.940258739270444e-07 7.703631770130522e-07 2.2366269691399815e-07 1.0505593152274576e-05 0.0 0.0
0.0 -1.0824719296736196e-06 6.891656680669765e-07 -6.263661501761989e-07 -6.279951789077239e-08 -2.869702501075311e-06 0.0 0.0
0.0 -3.719236797995281e-08 1.341815678828385e-07 -1.0110776610509455e-07 -3.307380177774122e-08 -1.285001765867886e-06 0.0 0.0
0.0 1.717737976091983e-06 -3.281655415694764e-07 4.914278335469448e-07 -1.632622919775092e-07 -7.858289954598852e-07 0.0 0.0
0.0 0.0 0.0 0.0 0.0 0.0 0.0 0.0
0.0 2.360250793609079e-07 -8.39484490388739e-09 1.0032999518675527e-08 -1.6381546147925883e-09 -8.582342682289502e-08 0.0 0.0
0.0 -1.8026562324886632e-06 9.759028710311149e-07 -7.824808376697942e-07 -1.9342203336131271e-07 5.391930509805417e-06 0.0 0.0
0.0 3.150303848814477e-06 9.792415463370802e-07 -8.552785141493287e-07 -1.2396303218775268e-07 -9.80790617074675e-07 0.0 0.0
0.0 1.5223507445312744e-05 -3.280143259493e-06 2.6117249669517707e-06 6.68418292541172e-07 -1.8052636106681525e-05 0.0 0.0
0.0 0.00012698858661490454 -9.135939140567478e-05 6.95822391610781e-05 2.177715224459698e-05 -0.0001779144038181413 0.0 0.0
0.0 0.0009545530128872977 -0.0006799441856873953 0.000528135069473439 0.0001518091162139561 -0.0008853362507808102 0.0 0.0
0.0 0.0030863392676075017 -0.0024476907388855996 0.002040124291846188 0.0004075664470394089 -0.002584569895549343 0.0 0.0
0.0 0.007128000272251361 -0.00566589427777767 0.005057175250278422 0.000608719027499237 -0.005248450887830338 0.0 0.0
0.0 0.01301091370004908 -0.010196890932365116 0.009490738255050526 0.0007061526773145956 -0.008681886311823928 0.0 0.0
0.0 0.019589656635996024 -0.015739109729639676 0.014970902128632842 0.0007682076010068229 -0.012496686063348235 0.0 0.0
0.0 0.02720941992335899 -0.022040872652532472 0.021212459854703013 0.000828412797829429 -0.016321345033408177 0.0 0.0
0.0 0.03564252508470269 -0.028999235684685615 0.028111392790672676 0.0008878428940129708 -0.0200139143944248 0.0 0.0
0.0 0.04469920836139149 -0.03655710363434516 0.03561835333672278 0.0009387502976223473 -0.023611625056641047 0.0 0.0
0.0 0.05436601576225565 -0.04455877547453751 0.043586223081163666 0.00097255239337392 -0.027329664381333902 0.0 0.0
0.0 0.06407453700160572 -0.052639406617700044 0.051656769027136756 0.0009826375905632474 -0.03156613492093817 0.0 0.0
0.0 0.07351104519777539 -0.06015027208900198 0.05918264811909266 0.0009676239699092015 -0.03674850853168097 0.0 0.0
0.0 0.08105622603593611 -0.06604196134040015 0.06513111360608269 0.0009108477343174586 -0.04269059006642141 0.0 0.0
0.0 0.08479426153831052 -0.0685111498019857 0.06772471042132622 0.0007864393806594119 -0.047801538499416145 0.0 0.0
0.0 0.08038616536723235 -0.0640571952911374 0.06360544790689227 0.0004517473842451923 -0.049106100498384424 0.0 0.0
0.0 0.07869698035645298 -0.05549617729482759 0.05105195329605863 0.004444223998769037 2.7488428200328485e-14 0.0 0.0
0.0 0.08038616536723744 -0.06405719529112892 0.0636054479068839 0.0004517473842450148 0.049106100498450336 0.0 0.0
0.0 0.08479426153829357 -0.06851114980196166 0.06772471042130207 0.0007864393806595571 0.04780153849947898 0.0 0.0
0.0 0.0810562260358973 -0.06604196134036303 0.0651311136060458 0.0009108477343171676 0.042690590066452525 0.0 0.0
0.0 0.07351104519771952 -0.06015027208895472 0.059182648119045396 0.0009676239699093999 0.036748508531675245 0.0 0.0
0.0 0.06407453700154837 -0.05263940661765223 0.05165676902708842 0.000982637590563758 0.03156613492091799 0.0 0.0
0.0 0.054366015762195054 -0.044558775474487576 0.04358622308111369 0.0009725523933738582 0.027329664381308034 0.0 0.0
0.0 0.04469920836133131 -0.03655710363429477 0.03561835333667214 0.0009387502976226039 0.02361162505661726 0.0 0.0
0.0 0.03564252508464672 -0.028999235684639066 0.028111392790626095 0.000887842894012949 0.02001391439440317 0.0 0.0
0.0 0.027209419923303616 -0.02204087265248784 0.02121245985465887 0.0008284127978289506 0.016321345033378544 0.0 0.0
0.0 0.01958965663594517 -0.015739109729599667 0.014970902128592648 0.0007682076010070286 0.012496686063314933 0.0 0.0
0.0 0.013010913700008715 -0.010196890932333348 0.009490738255018758 0.0007061526773145904 0.00868188631179744 0.0 0.0
0.0 0.007128000272227453 -0.005665894277758991 0.0050571752502607285 0.0006087190274982605 0.005248450887815741 0.0 0.0
0.0 0.0030863392675952003 -0.0024476907388759762 0.00204012429183784 0.00040756644703813795 0.002584569895541202 0.0 0.0
0.0 0.0009545530128800892 -0.0006799441856826564 0.0005281350694696344 0.0001518091162130216 0.0008853362507750342 0.0 0.0
0.0 0.00012698858661256283 -9.135939140489029e-05 6.958223916050208e-05 2.1777152244388217e-05 0.00017791440381691802 0.0 0.0
0.0 1.5223507445062954e-05 -3.2801432598351e-06 2.611724967230152e-06 6.684182926049431e-07 1.805263610760232e-05 0.0 0.0
0.0 3.150303848404016e-06 9.79241546063472e-07 -8.552785139316534e-07 -1.2396303213181383e-07 9.807906182964014e-07 0.0 0.0
0.0 -1.8026562329990328e-06 9.759028710951879e-07 -7.824808377172181e-07 -1.9342203337797674e-07 -5.391930510216182e-06 0.0 0.0
0.0 2.3602507864049295e-07 -8.39484491700686e-09 1.0032999519822877e-08 -1.6381546028130493e-09 8.58234270171417e-08 0.0 0.0
0.0 0.0 0.0 0.0 0.0 0.0 0.0 0.0
0.0 0.0 0.0 0.0 0.0 0.0 0.0 0.0
0.0 -1.442014173058101e-07 -3.3362752796573827e-09 2.2228999904665956e-09 1.11337528919131e-09 -2.8514569053942703e-08 0.0 0.0
0.0 -1.0953323019532836e-06 6.84680268929112e-07 -5.510144525351122e-07 -1.3366581639400264e-07 2.7949334791575207e-06 0.0 0.0
0.0 -2.448947081130645e-06 1.0404933250132038e-06 -9.074462864219109e-07 -1.3304703859128124e-07 3.809097594116026e-08 0.0 0.0
0.0 2.1913759659831708e-05 -7.385198524544629e-06 5.04210944821577e-06 2.3430890763288786e-06 -1.515939570275028e-05 0.0 0.0
0.0 0.0003483424444046096 -0.00024802293162035224 0.00018681276965951967 6.121016196083217e-05 -0.0002749834328367447 0.0 0.0
0.0 0.0017003613250989747 -0.0014110327327765508 0.0011187013549325163 0.0002923313778440357 -0.0012265192205707634 0.0 0.0
0.0 0.004969862454299001 -0.004150515806630749 0.0035710537692021 0.0005794620374286473 -0.003175127098948519 0.0 0.0
0.0 0.010764763998655093 -0.008663446440788767 0.007922894577302993 0.0007405518634857715 -0.006205203370962288 0.0 0.0
0.0 0.017730770994496735 -0.01478275745654647 0.013965625901659316 0.0008171315548871611 -0.010034594792292932 0.0 0.0
0.0 0.026716244574740186 -0.022147223109097607 0.021269753482453635 0.0008774696266439633 -0.014134359654302805 0.0 0.0
0.0 0.03673089907240316 -0.030524494515821947 0.029583659545064124 0.0009408349707577886 -0.018202991423363925 0.0 0.0
0.0 0.04772621260428586 -0.03979193451052798 0.03878505522594117 0.001006879284586813 -0.022111987002834513 0.0 0.0
0.0 0.05965867027257292 -0.049884755286420876 0.048816857742393596 0.001067897544027267 -0.025903416103515795 0.0 0.0
0.0 0.07233038860499111 -0.06066151080264094 0.05954905301592175 0.0011124577867191896 -0.029831004899594785 0.0 0.0
0.0 0.08569319117551936 -0.07172709998061297 0.07059962489966659 0.0011274750809462993 -0.034449400172143686 0.0 0.0
0.0 0.09798477867593407 -0.08223617783628155 0.08113623674458309 0.0010999410916983912 -0.04027135371937589 0.0 0.0
0.0 0.10862357801579159 -0.09064771439838909 0.08963564040940246 0.0010120739889866366 -0.04697009189505448 0.0 0.0
0.0 0.11393246321575193 -0.094369150711962 0.09354723663922851 0.0008219140727333783 -0.05272384990398264 0.0 0.0
0.0 0.10845890168493325 -0.08910796350901155 0.0886557114613029 0.00045225204770864226 -0.05438383103755472 0.0 0.0
0.0 0.10253601741154078 -0.07885072413356824 0.07379386779697479 0.005056856336593321 2.9318561467484017e-14 0.0 0.0
0.0 0.10845890168493319 -0.08910796350900019 0.08865571146129286 0.0004522520477072945 0.054383831037621275 0.0 0.0
0.0 0.11393246321572403 -0.09436915071192875 0.09354723663919612 0.0008219140727325078 0.052723849904049006 0.0 0.0
0.0 0.10862357801574415 -0.09064771439834408 0.08963564040935815 0.0010120739889857297 0.04697009189509132 0.0 0.0
0.0 0.09798477867586618 -0.08223617783622296 0.08113623674452469 0.0010999410916982437 0.04027135371937408 0.0 0.0
0.0 0.08569319117544963 -0.07172709998055328 0.07059962489960779 0.001127475080945497 0.034449400172124625 0.0 0.0
0.0 0.07233038860491443 -0.06066151080257545 0.05954905301585739 0.001112457786718025 0.029831004899568782 0.0 0.0
0.0 0.059658670272495315 -0.04988475528635452 0.048816857742327684 0.0010678975440268068 0.025903416103491256 0.0 0.0
0.0 0.04772621260421205 -0.03979193451046583 0.03878505522587901 0.0010068792845868396 0.02211198700280991 0.0 0.0
0.0 0.036730899072333296 -0.03052449451576364 0.02958365954500626 0.0009408349707573719 0.018202991423333332 0.0 0.0
0.0 0.02671624457467611 -0.022147223109045114 0.021269753482401177 0.0008774696266438964 0.014134359654266545 0.0 0.0
0.0 0.01773077099444508 -0.014782757456503606 0.013965625901616848 0.0008171315548867618 0.010034594792263478 0.0 0.0
0.0 0.010764763998620227 -0.008663446440761119 0.007922894577276305 0.0007405518634848231 0.006205203370943508 0.0 0.0
0.0 0.0049698624542748445 -0.004150515806611689 0.0035710537691841936 0.0005794620374274973 0.003175127098934313 0.0 0.0
0.0 0.0017003613250877508 -0.0014110327327683644 0.0011187013549256214 0.0002923313778427427 0.0012265192205633052 0.0 0.0
0.0 0.00034834244439976413 -0.00024802293161727527 0.0001868127696571538 6.121016196012132e-05 0.0002749834328336313 0.0 0.0
0.0 2.1913759658789356e-05 -7.3851985246870405e-06 5.042109448330764e-06 2.343089076356263e-06 1.5159395703097274e-05 0.0 0.0
0.0 -2.448947081177298e-06 1.0404933247264669e-06 -9.074462861917193e-07 -1.3304703853473065e-07 -3.809097499745878e-08 0.0 0.0
0.0 -1.0953323015528521e-06 6.846802688730145e-07 -5.510144524995149e-07 -1.3366581637350047e-07 -2.7949334789639356e-06 0.0 0.0
0.0 -1.4420141728829376e-07 -3.3362752806946183e-09 2.222899992467387e-09 1.113375288226625e-09 2.8514569050021285e-08 0.0 0.0
0.0 0.0 0.0 0.0 0.0 0.0 0.0 0.0
0.0 0.0 0.0 0.0 0.0 0.0 0.0 0.0
0.0 3.6038578294664624e-09 9.857807809594942e-11 -7.389462359199636e-11 -2.4683454503980076e-11 6.911815398831632e-10 0.0 0.0
0.0 -7.173974233010147e-07 2.3750225030506674e-07 -1.877893240856824e-07 -4.971292621938551e-08 7.730024339604367e-07 0.0 0.0
0.0 -5.327689103515783e-06 4.089427790477273e-06 -3.3575982337752534e-06 -7.318295567019953e-07 7.80497306867653e-06 0.0 0.0
0.0 3.32646121949266e-05 -3.535206948947053e-05 2.5096433828610387e-05 1.0255635660860058e-05 -3.697204766389491e-05 0.0 0.0
0.0 0.0006771643207866256 -0.0005393845750130929 0.0004080939598693308 0.00013129061514376253 -0.0003803679274556081 0.0 0.0
0.0 0.0027294065887745536 -0.0023696964175747145 0.0019306399068940844 0.00043905651068063114 -0.001423948915850516 0.0 0.0
0.0 0.007378172170293959 -0.006100336922051973 0.0053928651392612294 0.000707471782790746 -0.0034902611256970337 0.0 0.0
0.0 0.013873396070244959 -0.011902263139354224 0.011067321380567596 0.0008349417587866181 -0.006665757994916483 0.0 0.0
0.0 0.023084190266878284 -0.019528929866060467 0.01862347369342029 0.0009054561726401845 -0.010500743711992909 0.0 0.0
0.0 0.03394487952291107 -0.028690880393299888 0.027722077917068315 0.0009688024762315357 -0.014580039549716164 0.0 0.0
0.0 0.046276989247478806 -0.03913549770132854 0.03809825746533528 0.0010372402359932792 -0.018621278721798702 0.0 0.0
0.0 0.059893065023936626 -0.050705600533027126 0.049596129352997106 0.0011094711800298577 -0.022513597344719943 0.0 0.0
0.0 0.07476884918108093 -0.06331856126932668 0.06213906903666581 0.0011794922326609654 -0.02628688187734104 0.0 0.0
0.0 0.09054746014469615 -0.07685105970174332 0.07561499929681267 0.0012360604049306467 -0.030149818728041816 0.0 0.0
0.0 0.10685192487918566 -0.0908772047652996 0.08962181360410504 0.001255391161194561 -0.03462121367988486 0.0 0.0
0.0 0.12304767045043555 -0.10431920889805332 0.10310839105059766 0.0012108178474556962 -0.0403184061798569 0.0 0.0
0.0 0.1360213131769342 -0.11511673713631218 0.11403867102837448 0.00107806610793752 -0.04712882549430955 0.0 0.0
0.0 0.1421129038721589 -0.11991678755452861 0.11908300325156923 0.0008337843029593607 -0.05349566568114261 0.0 0.0
0.0 0.1361390640645572 -0.11391921943514347 0.1134631297577395 0.00045608967740397787 -0.05739862009583069 0.0 0.0
0.0 0.1280400115200037 -0.1022576272944129 0.09666809709648735 0.005589530197925573 3.0758381952544767e-14 0.0 0.0
0.0 0.13613906406454784 -0.11391921943512624 0.11346312975772194 0.000456089677404412 0.05739862009589985 0.0 0.0
0.0 0.14211290387212122 -0.11991678755448891 0.11908300325152912 0.0008337843029598774 0.05349566568121015 0.0 0.0
0.0 0.13602131317687363 -0.11511673713625663 0.11403867102831916 0.0010780661079373105 0.04712882549434646 0.0 0.0
0.0 0.12304767045035674 -0.10431920889798482 0.10310839105052909 0.0012108178474556958 0.0403184061798586 0.0 0.0
0.0 0.10685192487909886 -0.090877204765225 0.0896218136040308 0.0012553911611940288 0.034621213679869 0.0 0.0
0.0 0.09054746014460666 -0.07685105970166636 0.07561499929673678 0.0012360604049295012 0.030149818728021274 0.0 0.0
0.0 0.07476884918098965 -0.06331856126924808 0.06213906903658783 0.0011794922326603375 0.026286881877317092 0.0 0.0
0.0 0.05989306502384802 -0.05070560053295122 0.0495961293529215 0.0011094711800296528 0.022513597344695956 0.0 0.0
0.0 0.04627698924739326 -0.03913549770125636 0.038098257465263546 0.0010372402359927649 0.018621278721767165 0.0 0.0
0.0 0.03394487952283598 -0.02869088039323736 0.027722077917005827 0.000968802476231534 0.01458003954968079 0.0 0.0
0.0 0.02308419026681909 -0.019528929866010725 0.018623473693370994 0.0009054561726397253 0.01050074371196502 0.0 0.0
0.0 0.013873396070202795 -0.01190226313931768 0.011067321380531922 0.0008349417587857564 0.006665757994896557 0.0 0.0
0.0 0.00737817217026073 -0.006100336922025273 0.005392865139235519 0.0007074717827897526 0.0034902611256809116 0.0 0.0
0.0 0.002729406588759857 -0.0023696964175627046 0.001930639906883838 0.000439056510678867 0.001423948915843123 0.0 0.0
0.0 0.0006771643207795652 -0.0005393845750081397 0.0004080939598654752 0.0001312906151426645 0.0003803679274519438 0.0 0.0
0.0 3.326461219335654e-05 -3.5352069488953243e-05 2.5096433828244987e-05 1.0255635660708274e-05 3.6972047663512966e-05 0.0 0.0
0.0 -5.327689103866214e-06 4.089427790253521e-06 -3.357598233600459e-06 -7.318295566530604e-07 -7.804973068064003e-06 0.0 0.0
0.0 -7.173974232406267e-07 2.3750225033504831e-07 -1.8778932410967472e-07 -4.9712926225371955e-08 -7.730024340451581e-07 0.0 0.0
0.0 3.6038578586707158e-09 9.857807889774004e-11 -7.389462419330502e-11 -2.4683454704453356e-11 -6.911815455047824e-10 0.0 0.0
0.0 0.0 0.0 0.0 0.0 0.0 0.0 0.0
0.0 0.0 0.0 0.0 0.0 0.0 0.0 0.0
0.0 0.0 0.0 0.0 0.0 0.0 0.0 0.0
0.0 -1.9259891853480113e-07 -1.2438204119640457e-08 9.900711751953166e-09 2.537492367688598e-09 -3.208399983975565e-08 0.0 0.0
0.0 -7.802861588784414e-06 4.610332316805761e-06 -3.84496617265534e-06 -7.653661441504477e-07 7.992649249480828e-06 0.0 0.0
0.0 0.00011237581338192457 -8.793310563765224e-05 6.202644724730011e-05 2.590665839035218e-05 -4.644508824662563e-05 0.0 0.0
0.0 0.001063173649559053 -0.0009919309425785565 0.0007608492086933269 0.00023108173388522953 -0.000454498459658608 0.0 0.0
0.0 0.004168720092327059 -0.003523053420587466 0.002952884527899035 0.0005701688926884276 -0.001462205542029179 0.0 0.0
0.0 0.009436963760751352 -0.008260602056562469 0.0074592129366987895 0.0008013891198636832 -0.0035243909994873714 0.0 0.0
0.0 0.0176665609201904 -0.015260975708254045 0.014351066415092352 0.0009099092931616698 -0.006495624065129195 0.0 0.0
0.0 0.02838104976553151 -0.024368278625284973 0.023386391409321656 0.0009818872159633445 -0.010048107418463476 0.0 0.0
0.0 0.041245170981904104 -0.03530855721230123 0.03425763167572594 0.001050925536575282 -0.013845669186224936 0.0 0.0
0.0 0.05592347576414518 -0.047812112303466235 0.046687688594443943 0.001124423709022235 -0.017606910355854075 0.0 0.0
0.0 0.07223641314078837 -0.0616839404261329 0.060482428368980254 0.001201512057152572 -0.021247574373592995 0.0 0.0
0.0 0.08964719090821771 -0.07680429201328448 0.07552555762408554 0.0012787343891989627 -0.024800743036713497 0.0 0.0
0.0 0.10862018863699177 -0.0930224963988999 0.09167769655108016 0.0013447998478198458 -0.028343213995786827 0.0 0.0
0.0 0.12833859862903332 -0.10989337137119574 0.1085220626930163 0.001371308678179313 -0.032169625789336416 0.0 0.0
0.0 0.14721871462300457 -0.12616942674381038 0.1248554093827635 0.0013140173610468639 -0.03695149519299496 0.0 0.0
0.0 0.16280617266039918 -0.13930690358574527 0.13816788498588822 0.0011390185998570088 -0.04323308807826315 0.0 0.0
0.0 0.17042207974578288 -0.14531459101593122 0.14446905833676082 0.0008455326791702221 -0.05066607479206775 0.0 0.0
0.0 0.1640536938874555 -0.1389418359257494 0.1384922189193546 0.0004496170063948962 -0.05870331994625304 0.0 0.0
0.0 0.15431568633091053 -0.12617865889914323 0.12012954022322664 0.006049118675916733 2.995693970664348e-14 0.0 0.0
0.0 0.16405369388743424 -0.13894183592572412 0.13849221891932773 0.00044961700639628197 0.05870331994631923 0.0 0.0
0.0 0.1704220797457384 -0.1453145910158868 0.14446905833671675 0.0008455326791698308 0.05066607479213142 0.0 0.0
0.0 0.16280617266032477 -0.1393069035856793 0.13816788498582194 0.00113901859985742 0.04323308807829803 0.0 0.0
0.0 0.14721871462291355 -0.12616942674373116 0.1248554093826846 0.0013140173610463662 0.036951495192996994 0.0 0.0
0.0 0.12833859862892186 -0.10989337137109961 0.10852206269291977 0.0013713086781798206 0.03216962578932288 0.0 0.0
0.0 0.10862018863688537 -0.09302249639880815 0.09167769655098912 0.0013447998478190234 0.028343213995770673 0.0 0.0
0.0 0.08964719090811057 -0.07680429201319217 0.0755255576239934 0.0012787343891986199 0.0248007430366938 0.0 0.0
0.0 0.07223641314068285 -0.061683940426042 0.0604824283688891 0.0012015120571528775 0.02124757437357079 0.0 0.0
0.0 0.055923475764047624 -0.04781211230338283 0.046687688594361405 0.0011244237090214694 0.01760691035582492 0.0 0.0
0.0 0.04124517098181686 -0.03530855721222707 0.034257631675652045 0.0010509255365750629 0.013845669186192103 0.0 0.0
0.0 0.02838104976546095 -0.024368278625224622 0.02338639140926161 0.0009818872159629804 0.010048107418436869 0.0 0.0
0.0 0.017666560920138664 -0.015260975708209607 0.01435106641504834 0.0009099092931612674 0.0064956240651101805 0.0 0.0
0.0 0.009436963760715674 -0.008260602056531887 0.007459212936669207 0.000801389119862677 0.0035243909994734676 0.0 0.0
0.0 0.004168720092307807 -0.003523053420571869 0.002952884527885046 0.0005701688926868232 0.0014622055420222516 0.0 0.0
0.0 0.0010631736495514748 -0.0009919309425726918 0.0007608492086886463 0.0002310817338840451 0.00045449845965571254 0.0 0.0
0.0 0.00011237581337968983 -8.793310563661403e-05 6.202644724655607e-05 2.590665839005797e-05 4.6445088246264225e-05 0.0 0.0
0.0 -7.802861588813098e-06 4.610332316614994e-06 -3.844966172508579e-06 -7.65366144106413e-07 -7.992649249225146e-06 0.0 0.0
0.0 -1.9259891850927365e-07 -1.243820411784055e-08 9.900711750511593e-09 2.5374923673294314e-09 3.208399983580417e-08 0.0 0.0
0.0 0.0 0.0 0.0 0.0 0.0 0.0 0.0
0.0 0.0 0.0 0.0 0.0 0.0 0.0 0.0
0.0 0.0 0.0 0.0 0.0 0.0 0.0 0.0
0.0 0.0 0.0 0.0 0.0 0.0 0.0 0.0
0.0 -7.18462332870173e-08 -5.322214849680892e-09 4.219826328331633e-09 1.102388521349622e-09 -1.0684932772376604e-08 0.0 0.0
0.0 -9.094889046421729e-06 6.474162443084701e-06 -5.521216219920716e-06 -9.529462231639777e-07 8.750419613984057e-06 0.0 0.0
0.0 0.00024104325961470514 -0.00020634377726440296 0.00014694344680619178 5.940033045821145e-05 -5.522361262232201e-05 0.0 0.0
0.0 0.0017639261741719983 -0.0015674664062582473 0.0012269636939674033 0.00034050271229084335 -0.0004015032992053082 0.0 0.0
0.0 0.005510348303041716 -0.00486566652075058 0.00418633845379368 0.0006793280669568985 -0.0013470823154037711 0.0 0.0
0.0 0.011914471629363457 -0.010530321527127467 0.009659431218800519 0.0008708903083269417 -0.0031555728567041075 0.0 0.0
0.0 0.021412669278889757 -0.01868608108129042 0.017712183565275583 0.0009738975160148239 -0.005659781261872983 0.0 0.0
0.0 0.03376521690633919 -0.029245303749422896 0.028193936585351475 0.0010513671640714184 -0.00869255913290793 0.0 0.0
0.0 0.04855317624387856 -0.041945964722270815 0.040819519103957 0.0011264456183137973 -0.011945365516920948 0.0 0.0
0.0 0.06556992653061851 -0.05650255323799066 0.05529715946592939 0.0012053937720612933 -0.01517271831461181 0.0 0.0
0.0 0.08423490519943294 -0.0726814730167254 0.0713944851982327 0.0012869878184927058 -0.018318522480606628 0.0 0.0
0.0 0.1049053739116151 -0.09028678000529045 0.0889207002902386 0.001366079715051803 -0.021426419098037153 0.0 0.0
0.0 0.12661371411819083 -0.1090986060649799 0.10766239179647875 0.001436214268501118 -0.02446180654269393 0.0 0.0
0.0 0.14904286725622637 -0.1286198157390484 0.12714582603043462 0.0014739897086138629 -0.02735283256073706 0.0 0.0
0.0 0.1710787019289262 -0.14754818131361683 0.14612444594954888 0.0014237353640680723 -0.030507357487520776 0.0 0.0
0.0 0.18930573671460163 -0.1631016832424433 0.1618817758983806 0.0012199073440625871 -0.03542586908334223 0.0 0.0
0.0 0.198709735629161 -0.17074722175743187 0.16987998822107903 0.0008672335363527088 -0.04419827771672632 0.0 0.0
0.0 0.19282799751102206 -0.1645970118239712 0.16417722891533484 0.000419782908636536 -0.0580365356852352 0.0 0.0
0.0 0.18240813326522134 -0.1510745354510729 0.1446465257440051 0.0064280097070675895 2.6244631468053115e-14 0.0 0.0
0.0 0.19282799751099108 -0.16459701182393913 0.16417722891530187 0.0004197829086373361 0.05803653568529164 0.0 0.0
0.0 0.19870973562910532 -0.17074722175737927 0.16987998822102804 0.0008672335363511961 0.04419827771678203 0.0 0.0
0.0 0.18930573671450737 -0.16310168324236107 0.16188177589829775 0.0012199073440633302 0.03542586908336967 0.0 0.0
0.0 0.17107870192881666 -0.14754818131352268 0.14612444594945426 0.0014237353640681942 0.030507357487520696 0.0 0.0
0.0 0.1490428672560992 -0.12861981573893846 0.12714582603032448 0.0014739897086139956 0.027352832560726542 0.0 0.0
0.0 0.12661371411806674 -0.10909860606487301 0.10766239179637198 0.001436214268500898 0.02446180654268034 0.0 0.0
0.0 0.10490537391149657 -0.09028678000518756 0.08892070029013648 0.0013660797150511516 0.02142641909802131 0.0 0.0
0.0 0.0842349051993085 -0.07268147301661852 0.07139448519812586 0.0012869878184927862 0.01831852248058676 0.0 0.0
0.0 0.06556992653050749 -0.05650255323789473 0.05529715946583422 0.0012053937720605393 0.015172718314586426 0.0 0.0
0.0 0.0485531762437792 -0.04194596472218544 0.04081951910387213 0.0011264456183132945 0.011945365516892478 0.0 0.0
0.0 0.03376521690625934 -0.029245303749354058 0.028193936585283113 0.0010513671640709668 0.008692559132885603 0.0 0.0
0.0 0.02141266927882825 -0.018686081081237253 0.01771218356522268 0.0009738975160145829 0.005659781261855621 0.0 0.0
0.0 0.011914471629320954 -0.010530321527090112 0.009659431218764024 0.000870890308326087 0.0031555728566917667 0.0 0.0
0.0 0.0055103483030175884 -0.004865666520730067 0.004186338453774605 0.0006793280669554525 0.0013470823153965467 0.0 0.0
0.0 0.001763926174162433 -0.0015674664062505196 0.0012269636939610902 0.00034050271228943177 0.00040150329920311356 0.0 0.0
0.0 0.00024104325961180984 -0.00020634377726250674 0.00014694344680481718 5.940033045768973e-05 5.522361262184645e-05 0.0 0.0
0.0 -9.094889046746695e-06 6.474162442621504e-06 -5.521216219564509e-06 -9.529462230569895e-07 -8.750419613551245e-06 0.0 0.0
0.0 -7.184623319621463e-08 -5.322214842869262e-09 4.219826322927047e-09 1.1023885199412321e-09 1.0684932758656047e-08 0.0 0.0
0.0 0.0 0.0 0.0 0.0 0.0 0.0 0.0
0.0 0.0 0.0 0.0 0.0 0.0 0.0 0.0
0.0 0.0 0.0 0.0 0.0 0.0 0.0 0.0
0.0 0.0 0.0 0.0 0.0 0.0 0.0 0.0
0.0 0.0 0.0 0.0 0.0 0.0 0.0 0.0
0.0 -8.606554003621077e-06 7.169732386442855e-06 -6.777727941217096e-06 -3.920044452257954e-07 9.557406862036697e-06 0.0 0.0
0.0 0.0004233660865918616 -0.0004141332630432365 0.000298324715705926 0.00011580854733731052 -2.3934097879936772e-05 0.0 0.0
0.0 0.002631313265353281 -0.002298090724930928 0.001845136122835856 0.00045295460209507366 -0.00024740426658999715 0.0 0.0
0.0 0.006927754418041607 -0.006333058425711053 0.00557196099864444 0.0007610974270666067 -0.0010147576867155915 0.0 0.0
0.0 0.014503051048186125 -0.012859714587486207 0.011931514676565993 0.0009281999109202303 -0.0023256465360588056 0.0 0.0
0.0 0.025206044192421923 -0.022132729741609136 0.02110100408058493 0.0010317256610241883 -0.004177574734900551 0.0 0.0
0.0 0.03914388063616559 -0.03411131474512598 0.03299565418783164 0.0011156605572943343 -0.006438870711621123 0.0 0.0
0.0 0.05593852200667829 -0.04855244169471275 0.047355349867832616 0.0011970918268801028 -0.00888323417928327 0.0 0.0
0.0 0.07512203121326681 -0.06515543310696201 0.06387429529855745 0.0012811378084044715 -0.0113199827485091 0.0 0.0
0.0 0.09671758305967813 -0.08363792579691194 0.08227181751558789 0.0013661082813241632 -0.013721363309235509 0.0 0.0
0.0 0.11970679571353002 -0.10372583841584368 0.10227958603127443 0.0014462523845691782 -0.01614398480243302 0.0 0.0
0.0 0.14438885164880821 -0.1250419782359278 0.12352941254292844 0.0015125656929992062 -0.01848094067863927 0.0 0.0
0.0 0.16974535606720562 -0.14696108446394698 0.14541009686287626 0.0015509876010707624 -0.020390352943678913 0.0 0.0
0.0 0.19435318471899224 -0.16824025607423973 0.16670959107518268 0.0015306649990568827 -0.021771767079227157 0.0 0.0
0.0 0.21526449636070913 -0.18628059442093842 0.18491310722763768 0.0013674871933007872 -0.024293023372497356 0.0 0.0
0.0 0.22723277474269613 -0.196286932241961 0.19535478680068147 0.0009321454412794946 -0.03301341287418757 0.0 0.0
0.0 0.2228413117358159 -0.19135530724024824 0.1910215208174756 0.0003337864227724102 -0.05426702615866301 0.0 0.0
0.0 0.21251671091041005 -0.17757548226219716 0.17087983125418507 0.0066956510080121495 1.9383800120564842e-14 0.0 0.0
0.0 0.22284131173578406 -0.1913553072402168 0.191021520817445 0.00033378642277143036 0.05426702615870802 0.0 0.0
0.0 0.22723277474261794 -0.1962869322418919 0.19535478680061133 0.0009321454412809349 0.03301341287423199 0.0 0.0
0.0 0.21526449636060327 -0.18628059442084755 0.18491310722754614 0.0013674871933011855 0.02429302337251659 0.0 0.0
0.0 0.19435318471886673 -0.16824025607413148 0.16670959107507455 0.0015306649990573622 0.02177176707922393 0.0 0.0
0.0 0.16974535606706653 -0.14696108446382633 0.14541009686275613 0.0015509876010703447 0.020390352943674535 0.0 0.0
0.0 0.1443888516486628 -0.1250419782358028 0.12352941254280231 0.0015125656930005814 0.018480940678630847 0.0 0.0
0.0 0.11970679571339515 -0.10372583841572669 0.10227958603115862 0.0014462523845680624 0.016143984802421883 0.0 0.0
0.0 0.0967175830595401 -0.0836379257967926 0.08227181751546851 0.0013661082813240292 0.013721363309223222 0.0 0.0
0.0 0.07512203121314182 -0.06515543310685418 0.06387429529845018 0.0012811378084038837 0.011319982748491816 0.0 0.0
0.0 0.05593852200657064 -0.04855244169461927 0.04735534986773946 0.0011970918268797215 0.008883234179262813 0.0 0.0
0.0 0.03914388063607707 -0.03411131474504861 0.03299565418775499 0.0011156605572936087 0.006438870711603591 0.0 0.0
0.0 0.025206044192353942 -0.022132729741549666 0.021101004080525933 0.0010317256610237516 0.004177574734888155 0.0 0.0
0.0 0.014503051048137601 -0.012859714587443505 0.01193151467652404 0.0009281999109194593 0.002325646536049174 0.0 0.0
0.0 0.006927754418014111 -0.006333058425686487 0.00557196099862115 0.000761097427065346 0.0010147576867098578 0.0 0.0
0.0 0.002631313265339777 -0.002298090724919291 0.001845136122825915 0.0004529546020933744 0.0002474042665879105 0.0 0.0
0.0 0.00042336608658875884 -0.0004141332630411898 0.0002983247157045212 0.00011580854733666788 2.3934097880221857e-05 0.0 0.0
0.0 -8.606554003735003e-06 7.169732386218484e-06 -6.7777279410464665e-06 -3.920044451720499e-07 -9.557406861929755e-06 0.0 0.0
0.0 0.0 0.0 0.0 0.0 0.0 0.0 0.0
0.0 0.0 0.0 0.0 0.0 0.0 0.0 0.0
0.0 0.0 0.0 0.0 0.0 0.0 0.0 0.0
0.0 0.0 0.0 0.0 0.0 0.0 0.0 0.0
0.0 0.0 0.0 0.0 0.0 0.0 0.0 0.0
0.0 0.0 0.0 0.0 0.0 0.0 0.0 0.0
0.0 1.1506443538089206e-05 -1.4167477152608937e-05 7.2754372777855115e-06 6.892039874823482e-06 1.2380572251030967e-05 0.0 0.0
0.0 0.0008034078648456428 -0.0007113438295705318 0.0005220448705918489 0.00018929895897868259 8.276148870912315e-05 0.0 0.0
0.0 0.0035125558060182683 -0.0031656850609508287 0.0026101609889047383 0.0005555240720460909 2.5688516895891014e-05 0.0 0.0
0.0 0.008686923374309681 -0.007863262551147185 0.007041364474004707 0.0008218980771424817 -0.00038111762316481276 0.0 0.0
0.0 0.01712373424590849 -0.015212461259740375 0.014235654418320795 0.0009768068414195523 -0.0010736161778416844 0.0 0.0
0.0 0.02907761338946898 -0.02555465518818611 0.02447004597333414 0.001084609214851965 -0.0020562180453375855 0.0 0.0
0.0 0.044508888779691134 -0.03891742839705441 0.03774107142728284 0.0011763569697715434 -0.003289331775049283 0.0 0.0
0.0 0.06322217533983618 -0.05507960596510248 0.053816099128764124 0.0012635068363383785 -0.004650836143998888 0.0 0.0
0.0 0.084937606867055 -0.07371990170586754 0.0723680694686882 0.0013518322371793782 -0.006041421384836923 0.0 0.0
0.0 0.10868055820748115 -0.09450705357954202 0.09306655318790383 0.0014405003916380648 -0.007463057440416865 0.0 0.0
0.0 0.13474799975656127 -0.11705326036030969 0.11553252654832162 0.0015207338119880283 -0.008919066516518548 0.0 0.0
0.0 0.16221809267600276 -0.1408194710337375 0.13924004595872724 0.0015794250750103427 -0.010302879414298298 0.0 0.0
0.0 0.19014519481498796 -0.16496659083255402 0.16336132638306333 0.0016052644494903901 -0.011313424306438322 0.0 0.0
0.0 0.21702107185313346 -0.1881925546215754 0.1865968067275991 0.0015957478939765978 -0.011550965018704 0.0 0.0
0.0 0.24036613610292226 -0.20837744471801542 0.20683918422661254 0.0015382604914028631 -0.01166188027494582 0.0 0.0
0.0 0.25562501712347563 -0.22151400612954514 0.22026793383836563 0.0012460722911793996 -0.016867321859520522 0.0 0.0
0.0 0.2546697062768204 -0.21981958339052649 0.21958517075755143 0.00023441263297475782 -0.04142866388119784 0.0 0.0
0.0 0.24603661261357673 -0.2069803127180443 0.2004626260827191 0.006517686635325015 1.2687767503294367e-14 0.0 0.0
0.0 0.2546697062767839 -0.21981958339049235 0.21958517075751854 0.00023441263297362754 0.04142866388122579 0.0 0.0
0.0 0.2556250171233876 -0.22151400612946898 0.22026793383828822 0.0012460722911807169 0.016867321859546196 0.0 0.0
0.0 0.24036613610280405 -0.20837744471791322 0.20683918422651043 0.0015382604914027567 0.011661880274954947 0.0 0.0
0.0 0.21702107185299357 -0.1881925546214545 0.18659680672747864 0.0015957478939758662 0.011550965018701311 0.0 0.0
0.0 0.19014519481483136 -0.16496659083241794 0.16336132638292744 0.0016052644494903158 0.011313424306436008 0.0 0.0
0.0 0.1622180926758458 -0.14081947103360212 0.13924004595859155 0.0015794250750107756 0.010302879414294884 0.0 0.0
0.0 0.1347479997564058 -0.11705326036017497 0.11553252654818774 0.0015207338119871405 0.008919066516511427 0.0 0.0
0.0 0.10868055820732964 -0.09450705357941105 0.09306655318777268 0.0014405003916384107 0.0074630574404104515 0.0 0.0
0.0 0.08493760686691393 -0.07371990170574573 0.0723680694685663 0.001351832237179458 0.006041421384827593 0.0 0.0
0.0 0.06322217533971415 -0.05507960596499714 0.05381609912865889 0.001263506836338283 0.0046508361439864445 0.0 0.0
0.0 0.04450888877959331 -0.038917428396968844 0.0377410714271982 0.0011763569697706342 0.003289331775038616 0.0 0.0
0.0 0.029077613389394134 -0.025554655188120376 0.024470045973268885 0.00108460921485149 0.0020562180453310474 0.0 0.0
0.0 0.017123734245855116 -0.015212461259693244 0.014235654418274277 0.000976806841418959 0.0010736161778365373 0.0 0.0
0.0 0.008686923374277372 -0.007863262551118208 0.007041364473976701 0.000821898077141498 0.0003811176231617837 0.0 0.0
0.0 0.0035125558060035305 -0.003165685060937861 0.002610160988893375 0.0005555240720444862 -2.5688516896346352e-05 0.0 0.0
0.0 0.0008034078648401801 -0.0007113438295663228 0.0005220448705886314 0.00018929895897769068 -8.276148870861133e-05 0.0 0.0
0.0 1.1506443537563652e-05 -1.4167477152571386e-05 7.275437277788019e-06 6.892039874783463e-06 -1.2380572250941654e-05 0.0 0.0
0.0 0.0 0.0 0.0 0.0 0.0 0.0 0.0
0.0 0.0 0.0 0.0 0.0 0.0 0.0 0.0
0.0 0.0 0.0 0.0 0.0 0.0 0.0 0.0
0.0 0.0 0.0 0.0 0.0 0.0 0.0 0.0
0.0 0.0 0.0 0.0 0.0 0.0 0.0 0.0
0.0 0.0 0.0 0.0 0.0 0.0 0.0 0.0
0.0 7.695611267674514e-05 -7.558098528893222e-05 4.9645841709350835e-05 2.593514357958141e-05 2.8359507149840495e-05 0.0 0.0
0.0 0.001238830122263958 -0.0010492424487984796 0.0007641775521651617 0.0002850648966333178 0.000241816664124852 0.0 0.0
0.0 0.004364919066184428 -0.00393953654019807 0.003211188568356946 0.0007283479718411213 0.0005050250830832275 0.0 0.0
0.0 0.010063980487849032 -0.009160790004470823 0.008084853667764529 0.0010759363367063084 0.0006519275082007522 0.0 0.0
0.0 0.0191664961471742 -0.017158780901400935 0.015804184024706947 0.001354596876694014 0.0007035273948351572 0.0 0.0
0.0 0.03194599588479228 -0.02835412647093058 0.026722219325358947 0.0016319071455716267 0.0006420875912547725 0.0 0.0
0.0 0.04857988270514557 -0.04284039798832109 0.040892702062420204 0.0019476959259008063 0.000412234224993353 0.0 0.0
0.0 0.0688320726459786 -0.06042303826190282 0.05810380042615761 0.002319237835745203 5.10629040610909e-05 0.0 0.0
0.0 0.09197764039682056 -0.08076135191544488 0.0780142627431208 0.0027470891723239753 -0.0004180344790956983 0.0 0.0
0.0 0.11791296144567147 -0.10345203494728719 0.10023756672005979 0.003214468227227325 -0.001009320705963615 0.0 0.0
0.0 0.14604167349445563 -0.12802418125132523 0.12432843750345972 0.0036957437478654584 -0.0016898892753311467 0.0 0.0
0.0 0.17561017296049886 -0.15381313418169257 0.1496602946724957 0.004152839509196924 -0.002435052735812236 0.0 0.0
0.0 0.20547978716028284 -0.1797834384146072 0.1752473042626997 0.004536134151907312 -0.0030741183356793322 0.0 0.0
0.0 0.23388122678019313 -0.20442705317580318 0.19963295161346528 0.004794101562337657 -0.0032579198224537004 0.0 0.0
0.0 0.25848466151366717 -0.22577870791633492 0.22085447506577147 0.004924232850563272 -0.0029693996398377637 0.0 0.0
0.0 0.2760080856714655 -0.2412426057996863 0.2361280700431289 0.005114535756557292 -0.006274161205109083 0.0 0.0
0.0 0.2797948488871496 -0.2450555264399416 0.23966012680228724 0.005395399637654426 -0.03232951065504659 0.0 0.0
0.0 0.2760625373950857 -0.23577985383722957 0.22301580166325446 0.012764052173974656 4.746203430272544e-15 0.0 0.0
0.0 0.2797948488871053 -0.2450555264399023 0.2396601268022488 0.005395399637653351 0.032329510655057056 0.0 0.0
0.0 0.2760080856713747 -0.2412426057996068 0.23612807004305145 0.005114535756555098 0.006274161205120088 0.0 0.0
0.0 0.25848466151353267 -0.2257787079162176 0.2208544750656575 0.0049242328505603224 0.002969399639836598 0.0 0.0
0.0 0.23388122678003806 -0.20442705317566756 0.19963295161333222 0.004794101562335215 0.0032579198224490027 0.0 0.0
0.0 0.20547978716011028 -0.17978343841445696 0.17524730426255114 0.004536134151905211 0.0030741183356765185 0.0 0.0
0.0 0.17561017296033538 -0.15381313418154957 0.14966029467235534 0.004152839509194245 0.0024350527358094655 0.0 0.0
0.0 0.1460416734942855 -0.12802418125117654 0.12432843750331406 0.003695743747862259 0.0016898892753261334 0.0 0.0
0.0 0.11791296144551235 -0.10345203494714862 0.1002375667199232 0.003214468227225261 0.0010093207059605792 0.0 0.0
0.0 0.09197764039666427 -0.0807613519153093 0.07801426274298671 0.002747089172322484 0.00041803447909118975 0.0 0.0
0.0 0.06883207264584482 -0.06042303826178627 0.05810380042604259 0.0023192378357436714 -5.106290406623609e-05 0.0 0.0
0.0 0.04857988270504178 -0.04284039798823035 0.04089270206233175 0.001947695925898545 -0.0004122342249965891 0.0 0.0
0.0 0.03194599588471074 -0.02835412647085902 0.02672221932528896 0.001631907145570051 -0.0006420875912569609 0.0 0.0
0.0 0.01916649614711565 -0.017158780901348952 0.01580418402465626 0.0013545968766926844 -0.0007035273948350221 0.0 0.0
0.0 0.010063980487812239 -0.009160790004437603 0.008084853667732867 0.0010759363367047223 -0.0006519275081994973 0.0 0.0
0.0 0.004364919066170294 -0.003939536540184846 0.0032111885683453554 0.0007283479718394937 -0.0005050250830816931 0.0 0.0
0.0 0.0012388301222559209 -0.0010492424487917892 0.0007641775521600579 0.00028506489663173383 -0.00024181666412351416 0.0 0.0
0.0 7.695611267621463e-05 -7.5580985288609e-05 4.964584170916816e-05 2.593514357944083e-05 -2.8359507149609438e-05 0.0 0.0
0.0 0.0 0.0 0.0 0.0 0.0 0.0 0.0
0.0 0.0 0.0 0.0 0.0 0.0 0.0 0.0
0.0 0.0 0.0 0.0 0.0 0.0 0.0 0.0
SCALARS Wm float 4
LOOKUP_TABLE default
14.98897830697163 2.11785800036878 6.526115464669035 6.345004841933803
7.999073227448143 3.7408411931024474 1.9564492586121853 2.301782775733515
0.942288967195909 0.8152442104131189 0.03012026602381463 0.09692449075897579
0.6618351367028263 0.5822242342528734 0.022746958486588496 0.05686394396336431
1.5376772052918617 0.9385604126288152 0.22340323234177414 0.3757135603212719
3.617372458705365 1.4609735945770534 0.8671155578819547 1.289283306246357
7.77331288748166 2.2065772849915417 2.5555384183775027 3.011197184112614
14.664777161184656 3.228794020014308 5.699634437655092 5.736348703515249
24.984895519079153 4.605554307519296 10.804370710483093 9.574970501076754
39.155376108039114 6.345521499102366 18.254474721288062 14.5553798876487
57.26216557829912 8.417011466390695 28.233455775274358 20.61169833663407
79.02384709752641 10.771391223081691 40.62358031286985 27.628875561574898
104.31644341372171 13.346041410901215 55.49376188334747 35.47664011947309
132.72435653304473 16.062515880698744 72.64470161213595 44.01713904021005
163.53572004833424 18.694453547229575 91.77727060014088 53.06399590096375
195.61503281322695 20.904613045622572 112.35837227491697 62.352047492687376
227.323270830583 22.349375607176697 133.43884935424904 71.53504586915732
256.732507492744 22.835235333308454 153.77508799005176 80.12218416938359
281.96393130521983 22.559165104994968 171.84126606768206 87.56350013254303
299.62081163815105 20.899739122912703 185.54118214171217 93.1798903735258
305.01787472425815 17.648885002964246 191.66273001436446 95.70625970692976
299.62081163809427 20.899739122892292 185.54118214168548 93.1798903735164
281.96393130514235 22.559165105009093 171.84126606761694 87.56350013251622
256.7325074926294 22.835235333327436 153.7750879899582 80.1221841693437
227.323270830439 22.349375607184115 133.4388493541429 71.53504586911203
195.615032813024 20.904613045562023 112.35837227481831 62.35204749264375
163.53572004816635 18.69445354721743 91.77727060003502 53.06399590091388
132.7243565329008 16.06251588069892 72.64470161203886 44.01713904016299
104.31644341356163 13.346041410878517 55.49376188325654 35.47664011942661
79.02384709739404 10.771391223072962 40.6235803127898 27.628875561531324
57.26216557819559 8.41701146638889 28.23345577521014 20.611698336596557
39.155376107948975 6.345521499084823 18.2544747212438 14.55537988762035
24.98489551901322 4.605554307505226 10.804370710452801 9.574970501055201
14.664777161146128 3.228794020012456 5.699634437634898 5.736348703498764
7.773312887459601 2.2065772849903937 2.555538418366903 3.011197184102302
3.6173724586927234 1.460973594573185 0.8671155578782488 1.2892833062412867
1.5376772052868921 0.9385604126260814 0.22340323234081247 0.37571356031999875
0.6618351367015839 0.5822242342522689 0.022746958486366237 0.05686394396294889
0.9422889671943222 0.8152442104122013 0.030120266023589828 0.09692449075852945
7.9990732274432945 3.7408411931046297 1.9564492586087043 2.3017827757299614
14.988978306938687 2.117858000350845 6.526115464660602 6.3450048419272465
18.197900422310628 7.777989798988816 5.144324493322818 5.275586129999001
3.456628411301858 0.7616621942595971 1.1708001396369188 1.5241660774053403
0.31935414777356935 0.3807311440700546 -0.023285776182871056 -0.03809122011361412
0.5003855083193455 0.467160363434292 0.007467766503012785 0.025757378382040678
1.1441350410296662 0.7523857916062318 0.13067537760613276 0.261073871817302
2.8747384070267357 1.1507432713370531 0.6916920729094438 1.032303062780238
6.379290327819322 1.652021253647015 2.1234046425610638 2.603864431611243
12.399635631427829 2.318127381488935 4.953237295682367 5.128270954256526
21.44988788905709 3.1481357137641313 9.597513990838557 8.7042381844544
33.80657091207398 4.113134610687459 16.35551477630227 13.337921525084266
49.52072852753877 5.176399575853052 25.387604059234615 18.95672489245109
68.53429530390561 6.331239814906684 36.753763874258475 25.449291614740478
90.3910761859648 7.564346935111159 50.11975636391366 32.70697288694001
115.10292128339043 8.813361618067864 65.68441022021452 40.605149445108054
142.00693922606703 9.983156871066178 83.0346684275047 48.98911392749623
170.22710968777187 10.90603442256884 101.70206189171577 57.619013373487114
198.4728150524117 11.398414146548692 120.92764022803783 66.14676067782509
225.06694400138716 11.342925383938754 139.56861055196606 74.15540806548239
247.7765772864405 10.58950168492979 156.09652447375558 81.09055112775509
263.82903913343245 9.309609524612517 168.37975566104265 86.13967394777728
270.1845867641432 7.864795335134089 173.92867498343045 88.39111644557869
263.82903913341465 9.309609524633679 168.3797556610154 86.13967394776564
247.77657728637527 10.589501684949763 156.09652447369578 81.09055112772978
225.06694400126128 11.34292538392689 139.56861055188577 74.15540806544878
198.4728150522786 11.39841414655119 120.92764022794336 66.14676067778393
170.2271096876404 10.906034422570782 101.7020618916239 57.619013373445725
142.00693922590577 9.983156871042832 83.03466842741095 48.989113927452046
115.10292128326199 8.813361618072038 65.6844102201257 40.605149445064235
90.39107618583336 7.564346935104822 50.119756363831605 32.7069728868969
68.53429530378325 6.331239814895459 36.753763874187115 25.44929161470064
49.52072852744165 5.176399575848264 25.38760405917688 18.956724892416528
33.8065709120016 4.113134610682608 16.35551477626143 13.337921525057562
21.44988788900157 3.148135713755307 9.597513990811661 8.704238184434592
12.39963563139093 2.318127381484226 4.953237295664868 5.128270954241839
6.379290327798853 1.6520212536444812 2.123404642552126 2.6038644316022417
2.874738407017457 1.150743271335825 0.691692072905775 1.0323030627758591
1.1441350410264122 0.7523857916045026 0.1306753776055085 0.2610738718164014
0.500385508318755 0.4671603634339011 0.007467766502930295 0.025757378381923594
0.3193541477735859 0.3807311440698236 -0.023285776182782922 -0.03809122011345466
3.456628411292648 0.761662194257407 1.1708001396334429 1.5241660774018009
18.197900422283023 7.777989798977582 5.144324493313853 5.275586129991573
13.975036510749328 6.276881427673433 3.661101447318943 4.037053635756944
2.192535971300756 0.3591116420301788 0.7860603806626496 1.0473639486079314
0.19321121281614886 0.19353116010918672 2.5743748890891033e-05 -0.00034569104192874105
0.3629107455060345 0.3608241886921124 -0.0002498223728183158 0.00233637918674039
0.8524460899503142 0.647932395857129 0.059941193640701045 0.144572500452484
2.2415333897530267 1.026850414809434 0.4698455471105061 0.7448374278330873
5.198739225785938 1.498666865116198 1.6061387153170628 2.0939336453526773
10.453355223644103 2.0958227584857085 4.017021689205348 4.340510775953042
18.40245008021283 2.816685531905051 8.027698656081528 7.558065892226256
29.284601690803218 3.637051350251537 13.921105161277026 11.726445179274647
43.07495428467012 4.541803745985908 21.771783525558195 16.76136701312602
59.623650108920074 5.530784385405374 31.53055808884591 22.562307634668798
78.93568375553008 6.607743517952492 43.29866231551359 29.029277922064047
100.45808124427354 7.739808538508415 56.64337342787864 36.074899277886445
124.10181127127191 8.838360700911908 71.70360089140381 43.55984967895621
149.0301320372217 9.784751025717622 87.94984924429211 51.295531767212026
174.15317431087996 10.404981589080396 104.74260590346519 59.00558681833435
197.8720608280559 10.484940196197746 121.12347327923433 66.26364735262383
218.0486825621155 9.881801834656716 135.64865590771524 72.51822481974358
232.27244437434064 8.913197545812679 146.3412247298324 77.0180220986956
237.55542267500383 6.994876810617467 151.41359061272468 79.14695525166167
232.2724443743149 8.913197545828162 146.34122472980377 77.01802209868293
218.04868256207828 9.881801834701015 135.64865590765845 72.51822481971884
197.87206082798542 10.48494019622583 121.12347327916588 66.26364735259372
174.153174310752 10.404981589065285 104.7426059033876 59.00558681829907
149.03013203712175 9.784751025745093 87.94984924420504 51.29553176717159
124.10181127115781 8.838360700919267 71.70360089132195 43.559849678916564
100.45808124415747 7.739808538510626 56.64337342780015 36.07489927784661
78.93568375541955 6.607743517949448 43.298662315443664 29.029277922026488
59.62365010881738 5.530784385398168 31.53055808878526 22.562307634634003
43.07495428458206 4.5418037459756295 21.77178352551023 16.76136701309618
29.28460169073797 3.637051350247693 13.921105161240506 11.726445179249774
18.402450080165526 2.8166855318987345 8.027698656058265 7.5580658922085195
10.453355223612963 2.0958227584820937 4.017021689190644 4.340510775940225
5.1987392257688585 1.4986668651135102 1.6061387153101783 2.09393364534517
2.2415333897447898 1.0268504148078246 0.4698455471076001 0.7448374278293644
0.852446089948018 0.6479323958562858 0.059941193640168 0.14457250045156403
0.3629107455055976 0.36082418869171423 -0.00024982237283038817 0.002336379186713805
0.19321121281593748 0.1935311601089913 2.5743748890672356e-05 -0.000345691041944429
2.192535971293815 0.35911164202891444 0.7860603806599257 1.0473639486049728
13.975036510720955 6.276881427661641 3.6611014473101595 4.03705363574916
10.681813676953643 4.913913969127376 2.6475074508070198 3.120392257019251
1.497158101318526 0.16218067454199622 0.5465913691490574 0.7883860576274714
0.1340312090313972 0.1340312090313972 0.0 0.0
0.2654329600476367 0.2692619195003203 -0.0007915212720814084 -0.0030374381806022232
0.6259756662816351 0.5449401081723905 0.020169757029273754 0.060865801079970645
1.6727644104098673 0.8898211593815052 0.2796181439975647 0.5033251070307972
4.138432155048023 1.3448947702106626 1.1814560973735118 1.612081287463847
8.584620088182835 1.8729693688841904 3.1418735020793203 3.569777217219329
15.452675627384336 2.4928897849057914 6.541274744702125 6.418511097776417
24.862866247495113 3.1843280429145557 11.5642690941411 10.114269110439459
36.74006214384688 3.94430415071652 18.231864434855254 14.563893558275101
51.04308002688491 4.7908843786688955 26.581748386101623 19.6704472621144
67.52249062552954 5.72506838145354 36.44290105722662 25.354521186849365
86.26594591754422 6.73202941203908 47.9982996619176 31.535616843587558
106.65962679337473 7.7723643047755155 60.762893469245505 38.124369019353686
128.27402216601845 8.741438408954387 74.56531282948524 44.967270927578824
150.37444431663087 9.46871611457199 89.08177836788761 51.823949834171295
171.36913165480235 9.72163324177571 103.3024485828423 58.34504983018421
189.34027842928737 9.363920660080412 115.96545629239772 64.01090147680921
202.1681296129171 8.572851678808773 125.43031033888036 68.16496759522806
206.96253854144462 6.291726064123255 130.3844953500037 70.28631712731764
202.1681296128703 8.572851678792354 125.43031033885867 68.1649675952192
189.34027842917166 9.363920660024814 115.96545629235622 64.01090147679061
171.36913165470142 9.721633241758953 103.30244858278427 58.34504983015825
150.3744443165346 9.468716114571345 89.08177836782265 51.82394983414064
128.27402216589377 8.741438408939743 74.56531282941076 44.967270927543254
106.6596267932623 7.772364304768851 60.76289346917529 38.12436901931812
86.26594591743181 6.732029412025096 47.998299661853125 31.535616843553573
67.52249062543369 5.725068381450545 36.44290105716703 25.354521186816104
51.04308002680126 4.790884378668345 26.58174838604964 19.670447262083286
36.74006214377873 3.9443041507156287 18.231864434814376 14.56389355824875
24.862866247441424 3.184328042915241 11.564269094109177 10.114269110417
15.452675627343766 2.4928897849018306 6.541274744681697 6.41851109776024
8.584620088156564 1.8729693688826285 3.1418735020666015 3.5697772172073305
4.138432155033605 1.3448947702081733 1.1814560973677584 1.612081287457675
1.6727644104039556 0.8898211593801391 0.27961814399564294 0.5033251070281731
0.6259756662798269 0.5449401081717943 0.020169757028857732 0.060865801079174726
0.26543296004735345 0.26926191950000306 -0.0007915212720680065 -0.0030374381805815744
0.13403120903109106 0.13403120903109106 0.0 0.0
1.4971581013128432 0.16218067454117716 0.5465913691467501 0.7883860576249155
10.68181367692971 4.913913969117681 2.6475074507998655 3.120392257012172
8.049542261185987 3.816776752503649 1.8585707194131809 2.3741947892691635
1.0982982264733778 0.12990231472882205 0.398797273700622 0.5695986380439334
0.12161329738794593 0.12161329738794593 0.0 0.0
0.21084233355890608 0.21144334821962685 -7.278174486666683e-05 -0.0005282329158541064
0.4562573893024072 0.44376936270786965 -0.00012914812267449506 0.012617174717212163
1.2156207311066511 0.7612820767234616 0.14929027398028671 0.30504838040290283
3.1647812540539424 1.1719634387635613 0.8186573811281024 1.1741604341622796
6.821987707533155 1.6538209722562427 2.3433716017929624 2.8247951334839483
12.608290887117448 2.1787737839425496 5.1371776656781325 5.292339437496769
20.56388801881715 2.7550320162950017 9.300463919903413 8.508392082618736
30.613104320157078 3.3892515508097962 14.855792504181881 12.368060265165383
42.65303110055624 4.102927846618839 21.771667844430944 16.778435409506454
56.62787503719992 4.914524523089289 30.03881917895892 21.674531335151713
72.24813634488663 5.814540627001756 39.43097397751636 27.00262174036852
89.5879827061614 6.771471577223559 50.131163304124314 32.68534782481355
108.14851408394777 7.745026504046776 61.78620670124104 38.617280878659905
127.12485208390405 8.58699851421649 73.9112109289274 44.62664264076011
145.5076627498342 9.05667613564911 86.04681308142932 50.40417353275578
161.54391649446646 8.95055991904097 97.08106871499456 55.512287860430966
173.3686593518697 8.323489805744021 105.64773344321192 59.39743610291372
177.90500034570528 5.659664883172845 110.62080694598198 61.62452851655046
173.36865935186583 8.323489805765211 105.64773344319491 59.397436102905644
161.54391649444946 8.950559919065576 97.08106871496608 55.51228786041786
145.50766274978199 9.056676135666534 86.04681308138233 50.40417353273314
127.12485208382205 8.586998514217346 73.91121092887133 44.62664264073337
108.14851408386204 7.745026504048655 61.7862067011828 38.61728087863056
89.58798270606799 6.771471577216323 50.131163304067734 32.685347824783975
72.24813634480701 5.814540627001466 39.430973977465094 27.00262174034043
56.62787503711591 4.914524523085324 30.038819178908202 21.674531335122374
42.65303110048372 4.102927846616979 21.771667844387338 16.778435409479396
30.6131043200935 3.389251550802954 14.855792504147933 12.368060265142615
20.563888018770328 2.7550320162958086 9.300463919875977 8.508392082598549
12.608290887081312 2.1787737839365233 5.137177665661753 5.292339437483033
6.821987707511032 1.6538209722546369 2.343371601782568 2.824795133473826
3.164781254042177 1.171963438760847 0.818657381123874 1.1741604341574583
1.2156207311025078 0.7612820767229037 0.14929027397885433 0.30504838040074944
0.45625738930113974 0.44376936270686196 -0.00012914812276267195 0.012617174717040474
0.21084233355863408 0.21144334821936794 -7.27817448664681e-05 -0.0005282329158674774
0.12161329738791707 0.12161329738791707 0.0 0.0
1.0982982264690142 0.12990231472854763 0.39879727369866447 0.5695986380418036
8.049542261166446 3.816776752495532 1.8585707194076342 2.374194789263276
5.960512513701315 2.93770070822049 1.2751977927636726 1.7476140127171522
0.7824761816044673 0.1482115990697467 0.2385719951280065 0.3956925874067134
0.13805910410998967 0.13806409865229552 -1.966034484966458e-07 -4.797938857358676e-06
0.1879494892108428 0.18794245071994864 1.4968261529152803e-06 5.541664741249123e-06
0.3479178634298618 0.3597821063749944 -0.004183291033325966 -0.007680951911806687
0.8514047595577005 0.6295057362210199 0.060774005049961784 0.16112501828671866
2.2699407882758136 0.9886252166048058 0.4810277517717866 0.8002878198992202
5.237472615539921 1.4261965403903962 1.6931680388887198 2.1181080362608053
9.870223582051157 1.8763578151669102 3.8072467854293075 4.186618981454943
16.439304578307482 2.351167078586553 7.172742538937069 6.915394960783856
24.685256572700784 2.873179384592644 11.632830553748915 10.179246634359222
34.52974130392413 3.472003203802054 17.16681995015678 13.890918149965316
45.916402564858174 4.170374514190242 23.74841754571566 17.997610504952274
58.82954343683591 4.97058031344618 31.391987148101958 22.46697597528779
73.03392062979074 5.8591590620615515 39.92564507218668 27.2491164955425
88.31656098692453 6.797180760358725 49.25533624858558 32.26404397798026
104.48484768286453 7.725621044572013 59.37358402129247 37.38564261700005
120.31582489524466 8.442282784657616 69.44656583416409 42.426976276422984
134.52247355147637 8.622132138956417 78.86750077515993 47.03284063736
145.60739959770632 8.161431973849496 86.72635756699115 50.71961005686559
150.08039988846016 5.098515193572489 91.87109815158207 53.11078654330563
145.60739959769091 8.161431973857882 86.72635756697478 50.71961005685827
134.5224735514294 8.622132138947961 78.86750077513392 47.03284063734755
120.31582489518081 8.442282784651583 69.44656583412501 42.426976276404204
104.48484768279882 7.7256210445769335 59.37358402124531 37.38564261697654
88.31656098684111 6.797180760344979 49.25533624854018 32.26404397795595
73.03392062971311 5.859159062053668 39.925645072141435 27.24911649551802
58.82954343677153 4.970580313449588 31.391987148058924 22.46697597526298
45.91640256478644 4.170374514182766 23.748417545675707 17.997610504927973
34.52974130386125 3.4720032037947965 17.16681995012306 13.890918149943387
24.685256572649926 2.873179384585969 11.632830553723009 10.179246634340954
16.439304578267308 2.351167078584607 7.172742538915599 6.915394960767097
9.870223582022545 1.8763578151604174 3.8072467854176506 4.186618981444479
5.237472615521073 1.42619654038665 1.6931680388811614 2.118108036253261
2.269940788266511 0.9886252166027621 0.481027751768596 0.8002878198951514
0.8514047595545878 0.6295057362200392 0.060774005049193974 0.1611250182853551
0.3479178634288364 0.35978210637368097 -0.004183291033274746 -0.007680951911569954
0.18794948921059296 0.18794245071975282 1.4968261468258607e-06 5.541664693314647e-06
0.1380591041100162 0.13806409865231795 -1.9660344829240563e-07 -4.797938853403843e-06
0.7824761816007864 0.14821159906936981 0.2385719951264919 0.39569258740492513
5.960512513686948 2.9377007082148334 1.2751977927596203 1.7476140127124946
4.270387031899135 2.227758312070714 0.8111234960160703 1.2315052238123527
0.5802189586064432 0.18979396202605003 0.1380029501430082 0.2524220464373848
0.1667359563643772 0.16674011624800264 -2.3246729076969345e-07 -3.92741633463526e-06
0.18538239716779867 0.1854466025060257 -7.630496292957966e-06 -5.657484193407931e-05
0.28605637783833615 0.2976651545175797 -0.0028694963463264038 -0.008739280332917182
0.5933861840042985 0.5153493153344851 0.014809967548710005 0.06322690112110363
1.559682725803861 0.8132595809298321 0.2578308816845374 0.48859226318949117
3.702856568227693 1.1831460864147973 1.0380127908028098 1.4816976910100879
7.425479004500134 1.5819597464176647 2.723504085114427 3.120015172968041
12.472895520152017 1.9698028327299273 5.162466614911858 5.340626072510231
19.00861821237147 2.3966556904850567 8.607532311461336 8.004430210425081
26.74569938969016 2.894009624685062 12.838332040498278 11.01335772450682
35.66720256171953 3.4912602458781397 17.846252901987906 14.329689413853494
45.7884348020117 4.202415035594297 23.64759277335604 17.938426993061377
57.02593175569267 5.0142018806712665 30.194350418438678 21.817379456582735
69.36697389080402 5.910333501737773 37.548727061370066 25.90791332769617
82.20070282196251 6.878288438470474 45.181164467910364 30.141249915581692
95.61926800518827 7.815194103199835 53.412839992798204 34.39123390919022
108.3690400214103 8.3411044410233 61.5389389043001 38.488996676086884
118.82123532107224 8.100029193055358 68.67577611612064 42.045430011896286
123.44456420957619 4.622480393842796 74.12930733067199 44.692776485061344
118.82123532105317 8.100029193053109 68.67577611610939 42.04543001189061
108.36904002137709 8.341104441017293 61.53893890428196 38.488996676077896
95.61926800515317 7.8151941032087615 53.412839992769165 34.39123390917525
82.2007028218912 6.87828843845419 45.18116446787455 30.141249915562454
69.36697389076474 5.910333501755498 37.54872706133326 25.907913327676
57.02593175562149 5.014201880651029 30.19435041840641 21.817379456564034
45.788434801952455 4.202415035588984 23.647592773322515 17.938426993040963
35.667202561666635 3.491260245871204 17.846252901959975 14.329689413835458
26.74569938964271 2.8940096246793225 12.838332040473558 11.01335772448982
19.00861821233549 2.3966556904855416 8.607532311440513 8.004430210409435
12.47289552012113 1.9698028327285482 5.162466614895703 5.3406260724968755
7.425479004480232 1.5819597464176218 2.723504085104068 3.1200151729585412
3.7028565682148376 1.1831460864120151 1.0380127907980337 1.4816976910047908
1.5596827257975003 0.8132595809290385 0.2578308816822111 0.4885922631862505
0.5933861840020919 0.5153493153334365 0.01480996754836366 0.0632269011202922
0.286056377837533 0.2976651545164441 -0.0028694963462565486 -0.008739280332654727
0.1853823971673409 0.18544660250558107 -7.630496294785624e-06 -5.657484194537825e-05
0.16673595636400865 0.16674011624762583 -2.3246729021856114e-07 -3.927416326937905e-06
0.5802189586041293 0.18979396202591864 0.13800295014204317 0.25242204643616706
4.270387031888141 2.2277583120661553 0.8111234960132473 1.23150522380874
3.0228703362985265 1.6941146019174564 0.5278338564687368 0.800921877912333
0.4221614324120259 0.2211814974150606 0.05761912093322489 0.1433608140637404
0.19640574695246732 0.19586201097311348 6.571833887267888e-05 0.00047801764048103855
0.19451475542737395 0.1944398221070136 -1.9068403740399031e-06 7.684016073433429e-05
0.25616847651676006 0.26345144047658087 -0.0015961014428991 -0.005686862516921569
0.43204328173105344 0.4208796906226566 -0.002595651734931894 0.013759242843328478
1.000356347476304 0.6418114900903732 0.10550322617584977 0.25304163121008066
2.4281025618358 0.9421538602806103 0.5621459067612734 0.9238027947939181
5.02836097057289 1.2731642346004455 1.6312617470716466 2.123934988900796
8.871574659613223 1.603912099202903 3.460802430121788 3.806860130288533
13.625223082591587 1.9506473123404853 5.823865279057018 5.850710491194085
19.32354978142618 2.362718037013665 8.804589418263975 8.156242326148549
25.905831258379546 2.8685217064454305 12.355686415930638 10.681623136003473
33.37485762010109 3.4909776767082787 16.454300384262094 13.429579559130712
41.80658656715942 4.240356154836452 21.165569651540807 16.400660760782163
51.030321914130056 5.084218797368158 26.37526860879654 19.57083450796537
61.05982248904611 6.019406140809072 32.16022691401667 22.880189434220355
71.68961843516959 7.113324748582905 38.25110434312539 26.325189343461282
82.63524614720401 8.049806452089877 44.714441963878016 29.870997731236113
92.73834091388996 8.153315392008292 51.28561800784764 33.299407514034016
97.78907014241688 4.2524854612720135 57.21678231561742 36.31980236552744
92.73834091388683 8.153315392013363 51.28561800784215 33.29940751403131
82.63524614719162 8.049806452096801 44.71444196386535 29.870997731229494
71.68961843513665 7.113324748583983 38.25110434310356 26.32518934344914
61.05982248898221 6.019406140778648 32.160226913995295 22.880189434208276
51.030321914061496 5.084218797344112 26.37526860876855 19.570834507948792
41.80658656713614 4.240356154851801 21.165569651517004 16.400660760767327
33.37485762004939 3.4909776766904272 16.454300384241627 13.42957955911734
25.90583125835132 2.868521706450661 12.355686415910867 10.68162313598977
19.323549781395297 2.3627180370146545 8.804589418245728 8.15624232613491
13.625223082556756 1.95064731233382 5.8238652790414625 5.850710491181472
8.871574659589893 1.6039120992006022 3.4608024301106033 3.8068601302786917
5.028360970555287 1.273164234597184 1.6312617470645299 2.1239349888935735
2.4281025618275978 0.942153860279468 0.5621459067581465 0.9238027947899834
1.0003563474720742 0.6418114900894587 0.10550322617461999 0.2530416312079954
0.43204328172973694 0.4208796906217738 -0.0025956517350730697 0.013759242843035938
0.2561684765164605 0.2634514404761168 -0.001596101442860313 -0.005686862516795819
0.19451475542686375 0.1944398221063031 -1.9068403615531077e-06 7.684016092215359e-05
0.19640574695219964 0.1958620109728032 6.571833887521487e-05 0.00047801764052115544
0.4221614324106658 0.22118149741506954 0.05761912093268616 0.14336081406290963
3.022870336289947 1.6941146019139561 0.5278338564664554 0.8009218779095357
1.9966614528459465 1.2549730568655595 0.2615565327973708 0.4801318631830158
0.3217033239320341 0.2413854937846725 0.018217670605808433 0.06210015954155328
0.2207345504467115 0.22024771758764403 7.758622062139408e-05 0.0004092466384461313
0.21001636921485237 0.2101403428814187 -1.3328889284210428e-05 -0.00011064477728201393
0.24461273443685516 0.2489994379649016 -0.0011086164051352459 -0.0032780871229112583
0.34874161183080155 0.3522029858397947 -0.004335222441277028 0.0008738484322837434
0.6267626812045773 0.4988332662130419 0.027439845904448795 0.10048956908708653
1.4111576565355475 0.7061214819949908 0.23855535495390875 0.46648081958664767
2.991015833484944 0.9583665869463224 0.8081434105867894 1.2245058359518315
5.445063738602132 1.2230502435501531 1.869772793021378 2.352240702030602
8.587900834830725 1.5072957951795838 3.325854815395537 3.754750224255605
12.381974692874127 1.8493866843103604 5.188692500474029 5.343895508089738
16.750074537778172 2.2764656025089116 7.389630606850957 7.083978328418295
21.729077294444732 2.8107324501549993 9.940035867411463 8.978308976878278
27.42589202456638 3.4830313837254927 12.898407424852477 11.04445321598841
33.877709522893575 4.2928041776400185 16.292187158102813 13.29271818715077
40.966566662518765 5.17874220742315 20.083700410632208 15.704124044463425
48.69928000117896 6.205705133493677 24.221300566102446 18.272274301582833
57.76129184808934 7.555727914365906 29.054557640273185 21.151006293450266
67.63332983078074 8.351852201483712 34.862860034180684 24.418617595116302
73.40695714183681 4.058317434089623 41.29045648484439 28.058183222902816
67.63332983078408 8.351852201489525 34.86286003417913 24.418617595115446
57.76129184808284 7.555727914371261 29.05455764026567 21.151006293445903
48.69928000116817 6.205705133507701 24.22130056608693 18.272274301573542
40.966566662524485 5.178742207455368 20.08370041061598 15.704124044453124
33.8777095228688 4.2928041776419805 16.292187158086634 13.292718187140217
27.42589202452776 3.4830313837142146 12.898407424836199 11.044453215977327
21.729077294428222 2.810732450156359 9.940035867401095 8.978308976870773
16.750074537750432 2.2764656025031 7.38963060683858 7.083978328408753
12.381974692850347 1.8493866843085291 5.18869250046193 5.343895508079894
8.587900834814066 1.507295795179846 3.3258548153866916 3.754750224247526
5.445063738588942 1.2230502435503599 1.8697727930146195 2.352240702023967
2.991015833478567 0.9583665869482453 0.8081434105829854 1.2245058359473364
1.4111576565302728 0.706121481993107 0.2385553549525285 0.46648081958463733
0.6267626812026426 0.4988332662123513 0.0274398459039833 0.10048956908630816
0.3487416118302232 0.35220298583912074 -0.004335222441283034 0.0008738484323855327
0.24461273443639517 0.24899943796419344 -0.0011086164051073843 -0.003278087122690842
0.2100163692143278 0.2101403428809273 -1.3328889283318338e-05 -0.00011064477731618884
0.22073455044641266 0.22024771758712292 7.758622064165153e-05 0.00040924663864804134
0.3217033239311173 0.24138549378454996 0.018217670605491156 0.062100159541075936
1.9966614528396618 1.2549730568627666 0.2615565327958999 0.48013186318099577
1.280428664798139 0.93296197140536 0.11079136154779766 0.23667533184498213
0.2518484685052547 0.24287625236892627 -0.0013701009969305585 0.010342317133258937
0.23732801090600664 0.23591568839114274 0.00019798331750309957 0.0012143391973609963
0.22788061760059075 0.226678862831105 0.00015230491518009558 0.0010494498543055755
0.24602550184333588 0.24848497041184173 -0.0008305095071128332 -0.0016289590613930067
0.31642727591355474 0.3166476846369525 -0.001993568455606033 0.0017731597322083168
0.440544093673691 0.3934072607883981 0.007254467453807312 0.03988236543148558
0.7033357181286318 0.4820755174167737 0.059046845782183784 0.16221335492967448
1.3375749481270394 0.6182115305836102 0.24297197677495486 0.4763914407684741
2.497422279630711 0.7864183696095556 0.6650403373523937 1.0459635726687617
4.162987831893636 0.99595806818966 1.3604563608580682 1.806573402845908
6.154739887232105 1.2516372830767766 2.208264989956206 2.6948376141991224
8.526824101278587 1.5838309093623788 3.264906067046767 3.678087124869443
11.298192521168367 2.018794913017526 4.519234375538652 4.760163232612186
14.54153854456054 2.5865527175049077 5.991141580158104 5.963844246897525
18.39150329472067 3.320559242264045 7.743068957457527 7.3278750949991
22.925803849699548 4.193567995469577 9.848937951211573 8.883297903018395
28.015318328494093 5.055831381237997 12.34237840172314 10.61710854553296
34.25283310796152 6.270191812669492 15.339074882162693 12.643566413129328
43.39704310704438 8.300427277151103 19.643779348943255 15.452836480950035
51.49784466230488 4.2838728269155535 27.167605244018393 20.04636659137094
43.397043107034946 8.300427277137523 19.643779348945824 15.452836480951612
34.25283310793903 6.270191812649046 15.339074882161414 12.643566413128562
28.015318328457948 5.055831381218965 12.342378401712905 10.617108545526085
22.925803849676953 4.193567995470168 9.848937951198032 8.883297903008753
18.39150329469824 3.320559242257204 7.743068957448647 7.327875094992382
14.5415385445591 2.5865527175150125 5.991141580151783 5.963844246892312
11.298192521155917 2.018794913014003 4.519234375533773 4.760163232608143
8.526824101269709 1.583830909363963 3.2649060670412244 3.678087124864518
6.154739887217597 1.2516372830724467 2.2082649899510085 2.694837614194147
4.16298783188339 0.995958068187859 1.36045636085394 1.8065734028415925
2.497422279623775 0.7864183696085099 0.6650403373496894 1.0459635726655752
1.337574948122583 0.618211530582667 0.24297197677350962 0.47639144076640616
0.7033357181276285 0.4820755174166305 0.05904684578187275 0.16221335492912553
0.4405440936723308 0.3934072607876293 0.007254467453609234 0.03988236543109202
0.3164272759132291 0.31664768463623305 -0.001993568455542534 0.0017731597325385505
0.24602550184321514 0.24848497041159018 -0.0008305095071013346 -0.0016289590612738256
0.22788061760033884 0.22667886283072475 0.00015230491518955996 0.0010494498544244989
0.2373280109054534 0.23591568839050725 0.00019798331750754607 0.0012143391974385688
0.251848468504791 0.2428762523687792 -0.001370100997030959 0.010342317133042879
1.2804286647943355 0.9329619714036764 0.11079136154697575 0.23667533184368286
0.7881121408439422 0.6813542991248618 0.025944307649387946 0.0808135340696926
0.2121877618974637 0.2235105784625845 -0.0033906047982712006 -0.00793221176684974
0.2465406973884039 0.24649479930127005 2.00801657955664e-05 2.58179213383457e-05
0.24490836391279908 0.2429641656798713 0.0002725065519745325 0.0016716916809531596
0.2583882597226224 0.2582974528686491 -0.0004073949817896575 0.0004982018357630281
0.3130672133578406 0.3095710191284043 -0.000846200387129784 0.004342394616566396
0.3977435188347068 0.35376489411104406 0.008768494999778565 0.03521012972388441
0.45764574247733597 0.3456118487940297 0.029803224460006866 0.08223066922329941
0.5358518532126707 0.3014705295619048 0.0794494830760339 0.15493184057473247
0.774061945332296 0.2994887654495756 0.17287226938710598 0.30170091049561554
1.3021224692997344 0.3116892825613641 0.3960925563376051 0.5943406304007631
2.0601275348529087 0.3171196305457411 0.722710998458437 1.020296905848731
3.041991306296571 0.3585872802541589 1.1685666190625816 1.5148374069798298
4.237648600095573 0.4641219297376451 1.7091480719991372 2.064378598358796
5.668500188540808 0.661309822779442 2.342854116432571 2.6643362493287928
7.328940464341546 0.9732863215240877 3.0508332006799437 3.3048209421375145
9.260469537252446 1.4233799654935155 3.8626267812490322 3.974462790509894
11.397095803400841 1.9562921954755144 4.775283543743439 4.66552006418189
14.267259883870404 2.7130855934356664 5.980618092705217 5.573556197729519
21.989549509653504 5.457610466733898 8.569800314098032 7.962138728821577
36.6925709157272 4.820945819635116 17.525361703956595 14.346263392135494
21.989549509648853 5.457610466722883 8.56980031410182 7.9621387288241525
14.267259883902398 2.713085593467742 5.980618092705083 5.573556197729577
11.397095803378544 1.956292195464778 4.775283543736984 4.665520064176781
9.260469537230826 1.4233799654846924 3.862626781241943 3.974462790504183
7.3289404643293325 0.9732863215185912 3.050833200676502 3.304820942134236
5.668500188534836 0.661309822779515 2.3428541164293106 2.664336249326009
4.237648600090723 0.4641219297373081 1.7091480719968706 2.0643785983565435
3.0419913062789083 0.3585872802465634 1.1685666190577018 1.5148374069746446
2.0601275348500394 0.3171196305485534 0.7227109984556006 1.0202969058458866
1.302122469293048 0.31168928255992057 0.3960925563352089 0.5943406303979175
0.7740619453326179 0.2994887654499745 0.172872269387045 0.3017009104955998
0.5358518532124681 0.30147052956265374 0.07944948307562058 0.15493184057419335
0.45764574247645684 0.3456118487940948 0.029803224459658575 0.08223066922270386
0.39774351883362014 0.35376489411042045 0.008768494999612051 0.0352101297235878
0.31306721335696647 0.3095710191274835 -0.0008462003871465571 0.004342394616629496
0.2583882597221648 0.25829745286805544 -0.00040739498177619544 0.0004982018358856593
0.2449083639126377 0.2429641656795536 0.00027250655198766125 0.0016716916810963342
0.24654069738793388 0.24649479930070578 2.0080165811334414e-05 2.5817921416749622e-05
0.2121877618974639 0.2235105784622889 -0.0033906047982242794 -0.007932211766600826
0.7881121408415565 0.6813542991234218 0.025944307649054536 0.08081353406908033
0.49242742177412435 0.485796572686648 0.0008661498370705534 0.005764699250405952
0.19277999983457517 0.19483574007462873 -0.0002858640571499438 -0.00176987618290357
0.248740559406711 0.24816591474612315 1.7696138185206602e-05 0.0005569485224026285
0.2589260646373292 0.25675191525131724 0.0002980841215772423 0.0018760652644347325
0.27743760104925447 0.2753791558802819 -8.30865673978667e-05 0.002141531736370485
0.3377324004465538 0.3285323947635684 -0.00016231472373906406 0.009362320406724457
0.4583573921988784 0.40074766161682296 0.011292304693866231 0.04631742588818952
0.7149395186451446 0.48458674281229797 0.06270580525928726 0.1676469705735592
1.3416817615277483 0.6183047508426694 0.24470405551476543 0.4786729551703123
2.4976954673701464 0.7861667008613178 0.6651737863073313 1.046354980201498
4.173251093610327 0.9987631413611531 1.3646030288963893 1.8098849233527852
6.190494157132476 1.2573007459514944 2.2250354582484766 2.7081579529325057
8.58452708194908 1.5894863510486636 3.2924355621950463 3.70260516870537
11.306056515875477 2.0067628737634675 4.531782709354913 4.767510932757093
14.235293170689289 2.5100780937180094 5.8679112992213245 5.857303777749951
17.180471512694858 3.0955784822553474 7.197937013801573 6.886956016637944
19.784421400143923 3.7368364494744375 8.3252993029599 7.722285647709581
21.859796448838217 4.497704864375021 9.135734838404309 8.22635674605889
22.552646333265987 5.016375265329412 9.293311755580207 8.24295931235637
18.737486007766137 3.978664717405764 7.972377764845073 6.786443525515298
37.18707649531433 6.960076146027218 16.352245429682554 13.874754919604554
18.73748600778675 3.9786647174184306 7.972377764849806 6.786443525518515
22.552646333226868 5.016375265293066 9.293311755578411 8.242959312355401
21.85979644883622 4.49770486438668 9.135734838396353 8.226356746053167
19.7844214001069 3.7368364494573325 8.325299302948432 7.722285647701149
17.18047151267612 3.0955784822545525 7.197937013791479 6.886956016630082
14.235293170653673 2.5100780936980236 5.867911299212703 5.857303777742951
11.306056515861947 2.006762873764208 4.531782709347127 4.767510932750617
8.584527081936644 1.5894863510544917 3.2924355621854287 3.70260516869672
6.190494157108673 1.2573007459446364 2.2250354582397813 2.708157952924256
4.173251093595335 0.9987631413612457 1.3646030288889803 1.8098849233451095
2.4976954673591725 0.7861667008574984 0.6651737863040665 1.0463549801976075
1.3416817615231795 0.6183047508416801 0.2447040555132986 0.47867295516820085
0.7149395186420289 0.48458674281204384 0.06270580525824963 0.16764697057173522
0.4583573921972154 0.40074766161598735 0.011292304693613284 0.04631742588761435
0.33773240044578934 0.3285323947627686 -0.00016231472377507545 0.00936232040679566
0.2774376010485179 0.2753791558794133 -8.308656739565971e-05 0.0021415317365003376
0.258926064636742 0.2567519152506034 0.0002980841215856014 0.0018760652645530697
0.24874055940617815 0.2481659147455442 1.7696138183470093e-05 0.0005569485224502734
0.19277999983441832 0.1948357400744016 -0.0002858640571428317 -0.001769876182840303
0.4924274217730522 0.48579657268515636 0.0008661498370926957 0.005764699250803194
0.3148408212606361 0.3150616254176153 -2.2935802323758144e-05 -0.0001978683546554447
0.17771903408459058 0.17795669173208553 -2.4030975118589948e-05 -0.00021362667237633567
0.24453901408579648 0.2452181628779943 -0.0001475239579027375 -0.0005316248342950929
0.2685115375979276 0.26649244302704606 0.0001917949439045037 0.0018272996269769206
0.30142276643713695 0.3005708470058226 -0.000311145671244125 0.0011630651025584466
0.39246974433921056 0.37603049424411933 0.0014198115678433643 0.015019438527247343
0.6536017139959334 0.5009752918623953 0.03461602788117912 0.11801039425235896
1.4240432492480783 0.7067744288977242 0.24394145922317068 0.47332736112718365
2.992211030524762 0.9578526538678218 0.8088765803454216 1.2254817963115194
5.445611367675479 1.223304177154927 1.8697539067113145 2.3525532838092356
8.59914751510469 1.5094477241719915 3.330526948770618 3.759172842162082
12.4135300750612 1.8536042392395293 5.2036844361858225 5.356241399635841
16.79162400612365 2.27658299765963 7.413265754779145 7.101775253684883
21.693600894458243 2.7837771126918653 9.935822383392564 8.9740013983738
27.03842562210283 3.3778469376188465 12.733264985692337 10.927313698791654
32.55376474642462 4.046188332470144 15.646473663483492 12.861102750470977
37.80512185018987 4.802187268075919 18.383770925867935 14.619163656245997
42.17224293071709 5.650108137429177 20.52155471663798 16.000580076649904
44.301656992185514 6.126695172880206 21.56310089769172 16.611860921613584
41.48116306613392 6.022369350742165 20.000875048744533 15.457918666647204
51.24588524957396 11.894887360392989 22.21929337487138 17.131704514309583
41.481163066125795 6.0223693507257305 20.00087504874976 15.45791866665032
44.30165699219317 6.126695172891855 21.563100897689267 16.61186092161205
42.17224293067237 5.650108137408699 20.521554716622923 16.00058007664075
37.805121850159324 4.802187268078466 18.38377092584765 14.619163656233187
32.55376474639844 4.046188332475228 15.646473663464675 12.861102750458539
27.038425622082293 3.377846937627316 12.733264985675168 10.927313698779805
21.69360089443051 2.7837771126892443 9.935822383378053 8.97400139836322
16.7916240060894 2.2765829976543204 7.413265754762717 7.101775253672362
12.413530075033819 1.8536042392411063 5.203684436169895 5.356241399622814
8.599147515081587 1.5094477241725972 3.330526948758172 3.759172842150819
5.445611367659184 1.2233041771536335 1.8697539067037579 2.3525532838017913
2.992211030514494 0.9578526538661591 0.808876580341436 1.2254817963069002
1.4240432492435358 0.7067744288972719 0.24394145922153027 0.47332736112473356
0.6536017139926455 0.5009752918612531 0.034616027880401454 0.11801039425099127
0.3924697443383202 0.37603049424334367 0.0014198115678132257 0.015019438527163361
0.30142276643665455 0.3005708470050584 -0.00031114567121472516 0.0011630651028107734
0.26851153759744495 0.2664924430263613 0.00019179494392252176 0.001827299627161251
0.2445390140856573 0.2452181628776869 -0.00014752395788743513 -0.0005316248341419703
0.17771903408409717 0.17795669173163936 -2.4030975121478713e-05 -0.00021362667242071957
0.3148408212600684 0.31506162541715244 -2.293580233539911e-05 -0.00019786835474870534
0.1962775248344228 0.1962775248344228 0.0 0.0
0.1585991309601019 0.158581399125975 2.5245219889040936e-06 1.5207312138007517e-05
0.23384674307896292 0.23500824744310425 -0.00017808334377061673 -0.000983421020370804
0.2743892388418637 0.2744914177889516 -0.0001387813126540286 3.660236556617107e-05
0.32969035057038387 0.326661958839714 -0.0002528942845838495 0.0032812860152538503
0.4850490802266203 0.435732232719822 0.0066551011020307095 0.04266174640476811
1.0352639794339178 0.6475165137722089 0.11928922994078792 0.2684582357209207
2.435057783993555 0.9419890838534907 0.5660129309775022 0.9270557691625623
5.026605738515233 1.2733025473397326 1.6302568504582364 2.123046340717262
8.874399182913496 1.6046938049163908 3.462134994331721 3.807570383665386
13.635634725334622 1.952062047989355 5.827546238708612 5.856026438636658
19.341242581450267 2.3637873915347924 8.814264365498481 8.16319082441699
25.90436771734746 2.861841861315318 12.358934241957456 10.683591614074679
33.266052150601276 3.4514389045673606 16.41273359150249 13.401879654531427
41.364141853718415 4.122880005750082 20.965829382723484 16.275432465244837
49.81858860659453 4.862155927392086 25.756602503097188 19.19983017610527
58.214188771003855 5.655241761442206 30.58692523651951 21.97202177304217
65.15049091292455 6.310201685535448 34.57326547793572 24.267023749453422
68.58239483072192 6.546530774060421 36.62890935827369 25.40695469838781
64.3935074241792 5.924310969494286 34.362210556345474 24.106985898339456
71.877135868688 14.99430335405065 33.30625683442014 23.576575680217225
64.39350742420247 5.924310969513134 34.36221055634833 24.10698589834097
68.58239483067985 6.546530774032687 36.62890935826447 25.406954698382723
65.15049091291777 6.310201685561036 34.57326547791502 24.267023749441705
58.214188770950386 5.655241761434646 30.586925236490366 21.972021773025368
49.81858860653202 4.862155927375673 25.756602503068258 19.199830176088096
41.36414185364421 4.122880005723411 20.965829382694135 16.27543246522668
33.266052150539366 3.4514389045512575 16.41273359147474 13.401879654513372
25.904367717306837 2.8618418613157957 12.358934241933152 10.683591614057907
19.3412425814088 2.363787391532401 8.814264365476 8.16319082440039
13.635634725295406 1.9520620479844066 5.827546238689591 5.856026438621416
8.874399182882778 1.6046938049111223 3.462134994318162 3.80757038365349
5.0266057384984375 1.2733025473366486 1.6302568504514323 2.1230463407103586
2.4350577839834 0.9419890838497225 0.5660129309746569 0.9270557691590204
1.0352639794295295 0.6475165137708416 0.11928922993962064 0.26845823571906724
0.4850490802253776 0.4357322327190991 0.006655101101837828 0.04266174640444069
0.3296903505699427 0.32666195883905463 -0.00025289428455690347 0.0032812860154452094
0.27438923884136557 0.2744914177881998 -0.0001387813126264004 3.660236579208645e-05
0.23384674307890815 0.23500824744313187 -0.00017808334377777556 -0.000983421020445958
0.1585991309597708 0.15858139912560903 2.5245219910544155e-06 1.5207312170688767e-05
0.1962775248336537 0.1962775248336537 0.0 0.0
0.11547190523104979 0.11547190523104979 0.0 0.0
0.13462128399200465 0.1346162373925671 2.569038201666208e-07 4.789695617374315e-06
0.21739219770478332 0.21801081693601904 -8.838365297937429e-05 -0.0005302355782562724
0.27667084264827246 0.277141509439393 -0.00029122972833300605 -0.0001794370627875427
0.36469089360179824 0.36192856615922336 -0.0008501649143005643 0.0036124923568753805
0.6504330919915587 0.5277701530618131 0.030559477786094948 0.09210346114365042
1.5778254849944044 0.8095667514129476 0.2656423744221497 0.5026163591593076
3.702856904804679 1.1839521743501502 1.0381390964914206 1.4807656339631072
7.423439475595449 1.5829317939169427 2.7218776327901004 3.1186300488884027
12.477847683708685 1.9707374716318902 5.164469786042517 5.342640426034282
19.016895827102335 2.3959634501998095 8.612965723554238 8.007966653348287
26.735714240969735 2.887974434415855 12.83609522064874 11.011644585905142
35.59781559578004 3.472751192839461 17.815505960349192 14.309558442591415
45.59398482759851 4.157310390120675 23.555001134602037 17.881673302875758
56.59416686806616 4.923628950834853 29.97838612077654 21.692151796454755
68.39169806978279 5.73376049661139 37.03470758142097 25.623229991750435
79.70428960833253 6.448474524046821 43.835489881744486 29.420325202541232
89.24523681947666 6.8355301615525415 49.86485178216266 32.544854875761416
93.56732950801589 6.524957423682819 52.94879305068421 34.093579033648865
88.32231233402901 5.9785005733581125 49.85587341201402 32.48793834865686
95.31912885436604 18.168387148151165 46.39677124452237 30.75397046169249
88.32231233401983 5.978500573349212 49.85587341201399 32.48793834865664
93.5673295080102 6.524957423701636 52.94879305066799 34.093579033640545
89.24523681942021 6.835530161537786 49.864851782135325 32.5448548757471
79.70428960827805 6.44847452405063 43.835489881706465 29.420325202520946
68.39169806972889 5.733760496616376 37.03470758138323 25.623229991729264
56.594166868017055 4.923628950848665 29.97838612073678 21.692151796431606
45.59398482754743 4.157310390131288 23.555001134563714 17.881673302852416
35.597815595714266 3.4727511928303345 17.815505960314656 14.309558442569275
26.73571424091175 2.88797443440965 12.836095220618112 11.011644585883992
19.01689582705735 2.395963450200145 8.61296572352835 8.00796665332885
12.477847683675988 1.9707374716337045 5.164469786023647 5.342640426018635
7.423439475570146 1.5829317939127658 2.721877632779022 3.1186300488783614
3.702856904788634 1.1839521743474637 1.0381390964850528 1.4807656339561184
1.5778254849875888 0.8095667514113055 0.265642374419984 0.5026163591562983
0.6504330919890314 0.527770153060967 0.030559477785531124 0.09210346114253314
0.3646908936011708 0.36192856615852154 -0.0008501649142962804 0.003612492356945809
0.2766708426479645 0.27714150943887933 -0.000291229728313944 -0.0001794370626009932
0.217392197704749 0.21801081693594437 -8.838365297694596e-05 -0.0005302355782183795
0.1346212839918054 0.13461623739236844 2.56903820145571e-07 4.789695616782793e-06
0.11547190523074875 0.11547190523074875 0.0 0.0
0.06381352789917634 0.06381352789917634 0.0 0.0
0.10785028108828992 0.10785040460154413 -3.731215333731407e-09 -1.197820388793503e-07
0.19616438069174535 0.1963418808707671 -2.3541896667936418e-05 -0.00015395828235379252
0.276791901350561 0.2791980803904996 -0.0005358150597546674 -0.0018703639801839695
0.41429636707125517 0.4015784149972743 -2.849356662122226e-05 0.012746445640602023
0.8959762952166617 0.6360012450653625 0.07727703854792023 0.18269801160337895
2.2815648293350828 0.9878965655605226 0.48787429777767455 0.805793965996886
5.23392003393537 1.4280620907842736 1.6906953370640616 2.115162606087034
9.870457710540197 1.877889119872839 3.806698918792446 4.185869671874917
16.44620734827629 2.3516935084617474 7.176278355822442 6.918235483992096
24.684512666536634 2.868879783053134 11.634937104638869 10.18069577884464
34.480984799927384 3.4549799867936892 17.14763757328896 13.878367239844751
45.764496215995756 4.136000060952688 23.67546233335262 17.953033821690436
58.550165971043945 4.929011011773255 31.241122048632743 22.38003291063795
72.63061832566636 5.815088187692292 39.69345205185084 27.122078086123246
87.55941387331643 6.660138653128466 48.848156686975614 32.051118533212374
102.30709663170467 7.235593703343254 58.25235756288447 36.81914536547694
113.97740028154635 7.189010406949601 66.0392957631174 40.74909411147935
118.87844329496832 6.433719818355179 69.79373190262534 42.65099157398772
113.22737524459144 6.237622287479438 66.19339190718779 40.79636104992422
120.92149829724127 21.3523763144931 61.24429046420979 38.32483151853842
113.22737524457452 6.237622287471034 66.19339190718213 40.796361049921366
118.87844329492218 6.4337198183437865 69.79373190260206 42.650991573976334
113.97740028149785 7.189010406956019 66.03929576308056 40.74909411146128
102.30709663162861 7.23559370333782 58.25235756283765 36.819145365453146
87.5594138732124 6.660138653099679 48.84815668692593 32.05111853318675
72.63061832557386 5.815088187675957 39.69345205180171 27.122078086096185
58.550165970956456 4.929011011761039 31.241122048584966 22.380032910610453
45.764496215927046 4.136000060954557 23.675462333308804 17.953033821663702
34.48098479985801 3.4549799867897857 17.14763757324925 13.878367239818957
24.684512666481094 2.8688797830524804 11.63493710460665 10.180695778821967
16.44620734823251 2.3516935084588098 7.176278355799405 6.9182354839742946
9.870457710509488 1.877889119869759 3.806698918777892 4.185869671861835
5.233920033916207 1.4280620907842343 1.6906953370545148 2.115162606077456
2.2815648293254274 0.987896565558285 0.4878742977744306 0.8057939659927142
0.8959762952129755 0.6360012450644084 0.07727703854689581 0.1826980116016713
0.4142963670705028 0.40157841499677893 -2.8493566706249188e-05 0.012746445640430077
0.27679190135046944 0.2791980803902607 -0.0005358150597332334 -0.0018703639800580782
0.19616438069167863 0.19634188087071913 -2.3541896669762732e-05 -0.00015395828237073247
0.10785028108814243 0.10785040460139761 -3.731215371638002e-09 -1.1978203984607727e-07
0.06381352789906794 0.06381352789906794 0.0 0.0
0.03302423682200255 0.03302423682200255 0.0 0.0
0.08154052397064887 0.08154052397064887 0.0 0.0
0.1725764470170535 0.17256963025338562 3.960330448053176e-07 6.420730623111643e-06
0.27791226462102114 0.2805614506833569 -0.0006169072318923483 -0.002032278830443384
0.49607372938816585 0.4616960814630089 0.006303457663964777 0.02807419026119214
1.2231755933969042 0.7484992892173372 0.15129430435756328 0.3233819998220031
3.1681418109431587 1.1726360562641276 0.8214860075356704 1.1740197471433602
6.8187331467149335 1.6559663397637867 2.340442533581114 2.8223242733700284
12.611717539605095 2.18045615249791 5.138380014396948 5.292881372710234
20.57066058086364 2.754423195054148 9.304759345334826 8.511478040474671
30.59820926136562 3.3798007190974504 14.8525542309192 12.365854311348963
42.56110059861483 4.073757053634733 21.73293596110941 16.75440758387069
56.3963320709759 4.864537060078533 29.923952935053844 21.607842075843532
71.87922834433859 5.772495573652906 39.2200304031517 26.886702367534053
89.15330272538822 6.760215547266361 49.853085677247236 32.54000150087456
107.47944767227997 7.645733331828161 61.406100551256706 38.427613789195064
125.06946203145887 8.0107964381132 72.91363343922698 44.14503215411865
139.00128870347706 7.484430485787911 82.69174185292397 48.82511636476523
145.07126388165054 6.400919926009982 87.5627934935896 51.107550462050995
139.3339569559048 6.586092506328672 83.54017390334144 49.20769054623469
148.16565494544278 24.510991164068102 77.35650259494419 46.29816118643048
139.33395695586682 6.586092506310175 83.54017390332798 49.20769054622857
145.07126388163007 6.400919926031701 87.56279349356103 51.10755046203743
139.00128870339884 7.484430485779378 82.69174185287667 48.825116364742726
125.0694620313651 8.01079643810302 72.91363343917047 44.14503215409158
107.4794476721781 7.645733331826746 61.40610055118987 38.42761378916148
89.15330272529863 6.760215547269598 49.85308567718623 32.540001500842806
71.879228344248 5.772495573652866 39.22003040309307 26.886702367502036
56.39633207087611 4.864537060065501 29.92395293499901 21.6078420758116
42.5611005985336 4.07375705363043 21.732935961061994 16.754407583841157
30.598209261296144 3.37980071909375 14.852554230879853 12.365854311322543
20.570660580808703 2.754423195049502 9.304759345305861 8.511478040453348
12.611717539566389 2.180456152493815 5.138380014378184 5.2928813726943895
6.818733146691657 1.6559663397623396 2.340442533569987 2.8223242733593303
3.168141810929737 1.1726360562607612 0.8214860075309488 1.1740197471380247
1.2231755933916826 0.748499289215381 0.15129430435625407 0.323381999820047
0.4960737293869362 0.4616960814622616 0.00630345766380027 0.028074190260874266
0.2779122646205106 0.2805614506827637 -0.00061690723188422 -0.0020322788303688793
0.17257644701668923 0.17256963025302224 3.960330447626668e-07 6.4207306222634735e-06
0.08154052397057157 0.08154052397057157 0.0 0.0
0.03302423682184366 0.03302423682184366 0.0 0.0
0.016162838927058623 0.016162838927058623 0.0 0.0
0.05850506895686495 0.05850506895686495 0.0 0.0
0.14980489101906208 0.14980238869439033 1.22441077168008e-07 2.379883594554421e-06
0.2849927526648561 0.2884182775637345 -0.000845759866387378 -0.0025797650324911547
0.6189385115192059 0.5338471406428327 0.021288985310660747 0.06380238556571256
1.6691598599472641 0.8854619446000007 0.2809013308254869 0.5027965845217763
4.13610108811803 1.3457807764248486 1.1799947032341493 1.6103256084590312
8.585565253952524 1.8748282076775367 3.141663199713125 3.5690738465618637
15.459616698839078 2.4942545400485603 6.544523955104227 6.42083820368629
24.8661738279503 3.181470145814537 11.56796205757773 10.116741624558031
36.70661376979462 3.9288895058178372 18.220909682344406 14.556814581632402
50.91108653530194 4.75182634584394 26.523460487570723 19.635799701887297
67.22667968645068 5.662898313858031 36.29289476091737 25.2708866116753
85.79495227917268 6.673486820274874 47.728253083226946 31.393212375670785
106.0696188282679 7.744718315582727 60.388716808544814 37.93618370414038
127.42403099786173 8.635221384236635 74.0638318923788 44.724977721246326
148.10311637573426 8.807478153339973 87.98339389524435 51.31224432714994
164.45925735627543 7.840170406552279 99.84264878071646 56.77643816900668
172.10934176409685 6.43799004562635 106.06537319366475 59.605978524805764
166.9937330066429 6.956080666333758 102.20674217125304 57.830910169056125
177.65285963099777 27.609257271948785 95.3407056332295 54.702896725819386
166.99373300661748 6.956080666338152 102.20674217123249 57.83091016904691
172.10934176401247 6.43799004559619 106.06537319362745 59.60597852478873
164.45925735617703 7.840170406544409 99.84264878065405 56.77643816897866
148.10311637560835 8.807478153316875 87.98339389517405 51.3122443271173
127.42403099775558 8.635221384247288 74.0638318922999 44.72497772120825
106.06961882814237 7.744718315568436 60.38871680847074 37.93618370410319
85.7949522790652 6.673486820270688 47.728253083159444 31.393212375635105
67.22667968634833 5.662898313860033 36.2928947608504 25.270886611637827
50.911086535203246 4.751826345835082 26.523460487514473 19.63579970185368
36.706613769712135 3.9288895058119935 18.220909682297812 14.55681458160233
24.866173827888492 3.1814701458110135 11.567962057543518 10.116741624533951
15.45961669879334 2.494254540045089 6.544523955080672 6.420838203667582
8.58556525392468 1.8748282076767668 3.141663199699242 3.5690738465486715
4.1361010881015 1.3457807764217882 1.1799947032276814 1.6103256084520323
1.6691598599402808 0.8854619445973732 0.28090133082364693 0.5027965845192601
0.618938511517398 0.5338471406419174 0.02128898531035396 0.06380238556512663
0.2849927526644743 0.28841827756317434 -0.0008457598663722167 -0.002579765032327617
0.14980489101875963 0.1498023886940911 1.2244107697319608e-07 2.3798835915387224e-06
0.05850506895679223 0.05850506895679223 0.0 0.0
0.0161628389269405 0.0161628389269405 0.0 0.0
0.00777821361226649 0.00777821361226649 0.0 0.0
0.04060713265515385 0.04060713265515385 0.0 0.0
0.1313133892588073 0.1313133892588073 0.0 0.0
0.30655099985054624 0.3106504677703822 -0.00128039378016837 -0.002819074139667491
0.7947202142425319 0.6189694555368851 0.04884716286344673 0.12690359584220015
2.219693969523187 1.0234943460344792 0.46148110209031523 0.7347185213983927
5.196599284575634 1.499391332685625 1.6038940293749064 2.0933139225151
10.46265016006647 2.09746458013053 4.022674837907966 4.342510742027978
18.411513274556725 2.8168577769324386 8.032728668457871 7.561926829166413
29.28114465336968 3.6310068243317457 13.922754031557902 11.727383797480025
43.020982875062884 4.520644518959861 21.751548310910387 16.74879004519263
59.45846437026321 5.485367418252783 31.454456890678337 22.51864006133215
78.59150301677865 6.536925236357818 43.120944458707484 28.93363332171331
99.87699486529753 7.650345433141389 56.31780772300087 35.90884170915528
123.21469132589206 8.721933455494007 71.18523565398606 43.30752221641199
147.59467103755316 9.54505907169223 87.13512941879527 50.91448254706559
171.14466152233737 9.656964503005263 103.18890814381173 58.29878887552045
190.20978707340802 8.401347455562586 117.23815303116278 64.57028658668261
200.06149343309684 6.486749918211067 125.45551544993896 68.11922806494687
196.56720269126296 7.30859797443464 122.46213885749218 66.79646585933604
209.68259425745237 30.55645061206896 115.38150842011521 63.74463522526816
196.56720269124702 7.308597974449393 122.4621388574705 66.7964658593271
200.06149343300888 6.486749918201242 125.45551544988447 68.11922806492326
190.20978707332986 8.40134745558768 117.23815303109112 64.57028658665104
171.14466152222784 9.65696450301703 103.18890814372834 58.29878887548249
147.5946710374245 9.545059071695217 87.13512941870599 50.9144825470233
123.21469132575463 8.72193345549008 71.18523565389636 43.30752221636818
99.87699486516489 7.65034543312848 56.31780772292158 35.90884170911487
78.59150301665487 6.536925236352421 43.12094445863046 28.933633321672012
59.458464370159206 5.48536741825182 31.454456890612896 22.518640061294498
43.020982874968375 4.5206445189503315 21.751548310857995 16.74879004516006
29.281144653296483 3.6310068243248934 13.92275403151845 11.72738379745313
18.41151327450591 2.8168577769294263 8.032728668430773 7.5619268291457145
10.462650160033345 2.097464580129041 4.022674837891145 4.342510742013156
5.196599284555623 1.4993913326819222 1.6038940293671993 2.093313922506502
2.2196939695139406 1.023494346031978 0.46148110208737403 0.7347185213945892
0.7947202142399712 0.6189694555353327 0.04884716286305181 0.12690359584158695
0.3065509998501764 0.31065046776992844 -0.0012803937801571243 -0.0028190741395950907
0.13131338925851574 0.13131338925851574 0.0 0.0
0.04060713265510368 0.04060713265510368 0.0 0.0
0.0077782136122013755 0.0077782136122013755 0.0 0.0
0.0036968465423151712 0.0036968465423151712 0.0 0.0
0.028375592921145762 0.028375592921145762 0.0 0.0
0.12205588924753599 0.12205588924753599 0.0 0.0
0.35629292824520487 0.3530004488491121 -0.00035992612293307344 0.0036524055190253844
1.0507798910513855 0.7250213684859729 0.1059421789185068 0.219816343646906
2.8384373195595 1.1481254197119826 0.6731915654474249 1.0171203344000916
6.379510948007274 1.6526118266902836 2.122014359759898 2.604884761557095
12.408752015270746 2.3185195139917725 4.956128542151382 5.134103959127592
21.46178372955971 3.1466359337538883 9.606119899311388 8.709027896494446
33.794239730831244 4.103576492484995 16.353955823711765 13.33670741463448
49.446588915764224 5.150257523249383 25.357626313387726 18.93870507912707
68.34160545605434 6.281908930838719 36.66163874936477 25.398057775850837
90.00543519531988 7.485275229157859 49.91836230494822 32.60179766121381
114.4006350266989 8.682277026603927 65.3023147467901 40.41604325330486
140.72670322884503 9.727578748875477 82.33909812027079 48.66002635969885
167.8260128253129 10.37268665434554 100.41698820477676 57.0363379661905
193.88922664209377 10.348097094209693 118.46692637781585 65.07420317006826
215.92707346453443 9.277546425405822 134.6053197259686 72.04420731316011
228.560491269915 6.6074277975079925 145.35510727261743 76.59795619978968
228.39955910337864 7.437326685683169 144.6854759854622 76.27675643223301
245.0023681593722 32.655042141729254 138.59697213836486 73.75035387927808
228.39955910331668 7.437326685658805 144.68547598543626 76.27675643222165
228.5604912698552 6.607427797537459 145.35510727255485 76.59795619976293
215.92707346440883 9.277546425398885 134.60531972588552 72.04420731312442
193.88922664194126 10.348097094194529 118.4669263777204 65.0742031700263
167.82601282515824 10.37268665434172 100.41698820467309 57.03633796614349
140.72670322870187 9.727578748878614 82.33909812017122 48.66002635965196
114.40063502654279 8.682277026588507 65.30231474669593 40.41604325325834
90.005435195189 7.485275229159723 49.91836230486114 32.60179766116807
68.34160545593434 6.281908930837208 36.66163874928859 25.398057775808518
49.4465889156547 5.150257523237756 25.357626313326563 18.93870507909037
33.794239730750284 4.103576492478585 16.353955823666798 13.336707414604895
21.461783729500794 3.1466359337487178 9.60611989928041 8.709027896471657
12.40875201523067 2.3185195139872867 4.956128542132094 5.1341039591112905
6.379510947983973 1.6526118266867071 2.1220143597501036 2.6048847615471598
2.8384373195487482 1.1481254197089519 0.6731915654439107 1.0171203343958861
1.0507798910473864 0.7250213684841618 0.10594217891763606 0.2198163436455889
0.3562929282445365 0.35300044884847437 -0.0003599261229561099 0.0036524055190183674
0.12205588924736288 0.12205588924736288 0.0 0.0
0.028375592921155646 0.028375592921155646 0.0 0.0
0.0036968465422908127 0.0036968465422908127 0.0 0.0
0.0012355057855316163 0.0012355057855316163 0.0 0.0
0.021138156647448985 0.021138156647448985 0.0 0.0
0.13055650435351307 0.13055650435351307 0.0 0.0
0.45772087063064754 0.4291165170043395 0.006016240691992775 0.022588112934315265
1.4133941729957622 0.9073603578812475 0.1794098200422776 0.3266239950722374
3.624281360854423 1.4772724616793276 0.8846546765235292 1.262354222651565
7.77728152410479 2.207548683993652 2.554013010793221 3.0157198293179146
14.683665669753704 3.2284423595138216 5.711096760625631 5.744126549614252
24.992476042619913 4.600397354637732 10.812048694940808 9.580029993041386
39.12864167959821 6.326112319393754 18.250118349237994 14.55241101096646
57.15946752237507 8.373325361407002 28.196277071007472 20.589865089960668
78.78632101821701 10.694123999073614 40.51980365365969 27.572393365483627
103.83793874950933 13.201212120653842 55.27298575493268 35.36374087392286
131.7511414120586 15.731221224686099 72.21236702529026 43.807553162082264
161.4964274099312 17.900455090850592 90.92448658881634 52.67148573026413
191.42337119179993 19.172214608727543 110.65427757869236 61.596879004380064
219.2706869038315 19.099099422397174 130.07822358264903 70.09336389878524
242.67815263065097 17.834271258648414 147.39046024806626 77.45342112393652
258.5730119932408 15.901442298749227 159.9733825535525 82.69818714093907
254.2565055951098 7.636010895582361 162.7123118483181 83.90818285120945
343.67022541794523 101.05524438865635 159.99327115496084 82.62170987432816
254.25650559504527 7.63601089556272 162.71231184828594 83.90818285119659
258.57301199313883 15.901442298739903 159.97338255348666 82.69818714091215
242.67815263053555 17.834271258669695 147.39046024797048 77.45342112389551
219.27068690365917 19.099099422380235 130.07822358254114 70.09336389873786
191.42337119166228 19.172214608757006 110.65427757857614 61.59687900432908
161.49642740974141 17.900455090816262 90.92448658871031 52.671485730214954
131.7511414118954 15.731221224679174 72.21236702518507 43.80755316203109
103.83793874934372 13.20121212062896 55.27298575483947 35.36374087387533
78.78632101808955 10.694123999079327 40.51980365357373 27.57239336543651
57.159467522261494 8.373325361402072 28.19627707093892 20.5898650899205
39.12864167950254 6.326112319377726 18.250118349189304 14.552411010935515
24.992476042553417 4.600397354630345 10.812048694906302 9.58002999301678
14.683665669710019 3.228442359509692 5.711096760603827 5.7441265495965
7.777281524077947 2.2075486839896516 2.5540130107816257 3.01571982930667
3.624281360839722 1.4772724616725446 0.8846546765200201 1.262354222647157
1.4133941729910204 0.9073603578800669 0.17940982004082692 0.32662399507012596
0.45772087062972583 0.42911651700354697 0.00601624069195701 0.02258811293422146
0.13055650435327537 0.13055650435327537 0.0 0.0
0.021138156647446647 0.021138156647446647 0.0 0.0
0.0012355057855317486 0.0012355057855317486 0.0 0.0
CELL_DATA 800
SCALARS Stress float 6
LOOKUP_TABLE default
174.04562523585133 -528.5302062294803 -182.2279863780388 -111.5233857879808 0.0 0.0
405.94824456406496 -92.88114188921438 115.5898749733055 53.69285155898616 0.0 0.0
427.6258731456816 6.265270947417563 130.74075860956447 -2.470019344428696 0.0 0.0
486.8174825660505 -19.274910823715864 156.63738002086905 -16.223094274717596 0.0 0.0
566.3662444004981 -26.619577369425855 221.87948454535203 -11.657191214604758 0.0 0.0
643.3305159407562 -23.962589195697532 291.95125731374515 -10.671103221708233 0.0 0.0
717.6684390560897 -18.976297391682508 343.026572895022 -11.978114118768069 0.0 0.0
793.8077770700615 -5.075974142056495 390.78907612272235 -14.206790571202237 0.0 0.0
873.848717367175 18.352305713281112 443.34573541067493 -16.209101432316135 0.0 0.0
956.6127896762644 49.527717750321614 500.793498511801 -17.41108019786469 0.0 0.0
1039.716754138098 85.58648353296394 560.7324488620584 -17.88221467611351 0.0 0.0
1121.763289157418 125.1511640814931 621.8032882863455 -17.887993857760314 0.0 0.0
1203.0289087667777 167.47017174605008 683.7831243502031 -17.720648069301113 0.0 0.0
1284.3661400898743 213.1203139469057 747.4070949533791 -17.369438996884067 0.0 0.0
1366.155101081029 262.4706464921977 813.0735588622188 -16.665937830065218 0.0 0.0
1447.4012069533865 314.6326593622379 879.8572673523001 -15.415425110571503 0.0 0.0
1525.6052767937877 367.4967862181438 945.4583805431064 -13.560833015874463 0.0 0.0
1598.841894628099 419.680477809516 1008.2053691015855 -11.609178722751173 0.0 0.0
1668.8451851230277 473.73975674150665 1070.18299142605 -11.780596622867126 0.0 0.0
1782.4450968655158 578.627683233052 1178.9624972206816 -20.122390874651977 0.0 0.0
1782.4450968657925 578.6276832333629 1178.9624972208485 20.122390874754394 0.0 0.0
1668.8451851229936 473.739756741529 1070.1829914259504 11.780596623023051 0.0 0.0
1598.8418946281104 419.68047780960836 1008.2053691014562 11.609178722663838 0.0 0.0
1525.605276793088 367.49678621754236 945.4583805425823 13.560833015757638 0.0 0.0
1447.4012069509313 314.6326593599099 879.8572673505939 15.415425110477496 0.0 0.0
1366.1551010789171 262.47064649021934 813.0735588607381 16.665937829986788 0.0 0.0
1284.3661400913477 213.12031394857655 747.4070949543576 17.36943899701224 0.0 0.0
1203.0289087654298 167.4701717448903 683.7831243493015 17.720648069250174 0.0 0.0
1121.7632891575972 125.15116408191398 621.8032882863542 17.887993857807594 0.0 0.0
1039.7167541390386 85.58648353416379 560.7324488626102 17.8822146760061 0.0 0.0
956.6127896756265 49.52771774994466 500.793498511365 17.411080197895313 0.0 0.0
873.8487173659089 18.352305712294083 443.3457354098495 16.209101432454098 0.0 0.0
793.8077770701401 -5.075974141651784 390.78907612269296 14.206790571223667 0.0 0.0
717.6684390568544 -18.976297390583127 343.026572895438 11.978114118768266 0.0 0.0
643.3305159404904 -23.96258919568733 291.9512573135155 10.67110322146683 0.0 0.0
566.3662443998969 -26.619577369812074 221.87948454490493 11.657191214558235 0.0 0.0
486.81748256565265 -19.274910823926767 156.6373800206397 16.223094274604424 0.0 0.0
427.6258731456754 6.265270947817461 130.740758609679 2.4700193444208525 0.0 0.0
405.94824456409197 -92.88114188915993 115.58987497327996 -53.69285155890567 0.0 0.0
174.04562523640297 -528.530206228944 -182.22798637750265 111.52338578762651 0.0 0.0
73.36732529303802 -553.6802174616789 -243.8704214361094 -163.50287107022 0.0 0.0
288.0263841849304 -90.1899571157127 59.99647915354522 7.1802792224386565 0.0 0.0
377.0011428965033 36.15128042105524 123.98095393479775 -9.490310575052106 0.0 0.0
452.52131669038454 -18.035505045604364 138.28204532416532 -36.95841292124303 0.0 0.0
539.3761870322493 -26.43892376840546 198.81260238222958 -33.98318497194656 0.0 0.0
620.5077704558314 -24.287842750739706 274.1085828752598 -31.495396766366643 0.0 0.0
698.4433490650434 -18.372464198416402 331.682457641172 -33.311664963418124 0.0 0.0
775.4634801876041 -4.440682049592212 381.24731443211175 -36.68791035290313 0.0 0.0
853.769956879946 17.434747883889074 432.5107664339073 -39.57628041561448 0.0 0.0
932.8544916992141 45.52622498549414 486.71762844953474 -40.894740662584475 0.0 0.0
1011.0604679026201 77.50365987177625 542.2237189838976 -40.921461553023725 0.0 0.0
1087.963874941011 112.28920007510717 598.3575550715652 -40.34273251616164 0.0 0.0
1163.811468865963 150.05962417383694 655.3774488544102 -39.513837148756025 0.0 0.0
1239.3353621254705 190.64433006990748 713.5887955940972 -38.418924116149846 0.0 0.0
1314.6838601252275 234.04908578392696 773.0832055184515 -36.75592141378438 0.0 0.0
1389.3625234770857 279.95491744885135 833.4643425058249 -34.16552922527735 0.0 0.0
1462.6764814792018 328.02701930865516 894.2093063407134 -30.73509034928954 0.0 0.0
1535.0270893059733 379.3913327618734 956.0532274971683 -27.670794423356448 0.0 0.0
1615.1804103523011 443.9960152501834 1028.2967056857105 -26.894231992829393 0.0 0.0
1674.759774632318 494.84204480602534 1083.419668148319 -28.741737505653298 0.0 0.0
1674.7597746329336 494.84204480667114 1083.4196681487406 28.741737505689997 0.0 0.0
1615.1804103534666 443.9960152514116 1028.2967056866273 26.894231993035923 0.0 0.0
1535.027089304806 379.39133276079076 956.0532274963875 27.670794423348227 0.0 0.0
1462.6764814778153 328.0270193073314 894.2093063396767 30.735090349126036 0.0 0.0
1389.3625234760648 279.9549174479696 833.464342504998 34.16552922530859 0.0 0.0
1314.683860123933 234.04908578281487 773.0832055174135 36.75592141398927 0.0 0.0
1239.3353621253937 190.64433007002572 713.588795593955 38.418924116230954 0.0 0.0
1163.8114688660294 150.05962417409023 655.3774488544054 39.51383714867836 0.0 0.0
1087.9638749397195 112.28920007400473 598.3575550706831 40.34273251603053 0.0 0.0
1011.060467902252 77.50365987162115 542.2237189836967 40.92146155283301 0.0 0.0
932.8544916991551 45.52622498569727 486.717628449555 40.894740662616044 0.0 0.0
853.7699568792456 17.434747883433573 432.51076643349006 39.576280415483055 0.0 0.0
775.4634801864753 -4.440682050481627 381.2473144314184 36.687910352752915 0.0 0.0
698.4433490643416 -18.37246419882294 331.6824576407266 33.311664963429116 0.0 0.0
620.5077704557057 -24.28784275054288 274.10858287511303 31.49539676632964 0.0 0.0
539.3761870319385 -26.438923768441413 198.81260238198618 33.98318497186873 0.0 0.0
452.5213166902429 -18.03550504550379 138.2820453241195 36.958412921145225 0.0 0.0
377.0011428963649 36.151280421153594 123.98095393478927 9.49031057506421 0.0 0.0
288.02638418499197 -90.18995711538794 59.996479153672425 -7.1802792225081795 0.0 0.0
73.36732529316794 -553.6802174613814 -243.87042143585762 163.5028710701843 0.0 0.0
16.425725880333204 -564.540336909168 -272.63223959789053 -179.96461516924148 0.0 0.0
161.77931657521498 -76.99237777317876 25.436081640610873 -48.55227812267958 0.0 0.0
305.78113536400326 40.78036881235177 103.9684512529065 -34.67433267728693 0.0 0.0
408.90444836449484 -8.630804870954432 122.65157084230069 -58.01717395346278 0.0 0.0
504.1053871616815 -25.12200746748612 174.15200085509684 -58.27903628885745 0.0 0.0
593.9027616138409 -25.572510823498213 251.54664468565284 -53.83271650710384 0.0 0.0
675.2092499849983 -16.89253371084773 317.72988294139617 -55.02335803871733 0.0 0.0
752.5934172717991 -3.737282747738817 369.2059837272285 -58.946748202209335 0.0 0.0
829.30878494715 16.45579435658776 419.387947437706 -62.29771374078327 0.0 0.0
904.6736586461709 41.2034800375001 470.23228586063135 -63.5186567781822 0.0 0.0
978.2398336118854 69.06062763560308 521.4225202549068 -63.11914339839464 0.0 0.0
1050.0082420353165 99.55699480728366 572.8793888646908 -61.98433511856883 0.0 0.0
1120.6091253083268 132.36246773135292 624.8227058492598 -60.59523709292664 0.0 0.0
1190.1030461225444 167.56882651615825 677.3620241703467 -58.78803971208899 0.0 0.0
1258.826407220909 204.79930661509283 730.4823998158269 -56.252969106041064 0.0 0.0
1327.2256099824403 244.54325760891328 784.6456554688011 -52.677516021369144 0.0 0.0
1396.2001969774992 288.21390381378376 840.9964924258396 -48.28553997469752 0.0 0.0
1468.134906862464 339.06516520075843 902.3512267666355 -44.09352185777338 0.0 0.0
1536.0887302482363 391.1525136540939 962.324415524286 -40.2090084039544 0.0 0.0
1585.0789997253228 430.5174259217769 1006.4407317310094 -35.90507660893645 0.0 0.0
1585.0789997271781 430.517425923659 1006.4407317322585 35.90507660892193 0.0 0.0
1536.0887302517456 391.15251365769916 962.3244155265497 40.20900840411882 0.0 0.0
1468.1349068653635 339.0651652037591 902.3512267687013 44.0935218579466 0.0 0.0
1396.2001969771432 288.21390381355036 840.996492425677 48.28553997492283 0.0 0.0
1327.2256099839874 244.5432576106502 784.6456554697779 52.677516021625564 0.0 0.0
1258.826407223491 204.79930661789075 730.4823998175123 56.25296910618954 0.0 0.0
1190.1030461236262 167.56882651745178 677.362024170945 58.78803971221069 0.0 0.0
1120.6091253085438 132.36246773177731 624.8227058493384 60.59523709291834 0.0 0.0
1050.0082420344302 99.55699480658228 572.8793888640415 61.984335118439674 0.0 0.0
978.2398336107346 69.06062763464695 521.4225202540595 63.11914339826984 0.0 0.0
904.6736586451785 41.203480036748374 470.232285859935 63.51865677810874 0.0 0.0
829.308784946726 16.45579435643066 419.3879474373733 62.2977137408323 0.0 0.0
752.5934172713835 -3.7372827478182273 369.205983726954 58.94674820228059 0.0 0.0
675.2092499849505 -16.892533710608987 317.72988294134143 55.023358038631805 0.0 0.0
593.9027616133205 -25.57251082375067 251.54664468523248 53.83271650702142 0.0 0.0
504.1053871617944 -25.122007466948396 174.1520008551056 58.279036288743356 0.0 0.0
408.9044483645213 -8.63080487058971 122.65157084240224 58.01717395318079 0.0 0.0
305.78113536394085 40.78036881239821 103.9684512529017 34.6743326770179 0.0 0.0
161.7793165752796 -76.99237777290706 25.436081640711755 48.552278122478896 0.0 0.0
16.425725880452006 -564.5403369089863 -272.6322395976898 179.96461516908755 0.0 0.0
-6.066487376489533 -555.8039424370214 -273.3165632205484 -181.9869508942255 0.0 0.0
91.11490172653804 -69.81069343309915 6.391262488031668 -96.07090170588029 0.0 0.0
238.67780445443535 36.703251002232435 82.61431663700033 -69.2611183383647 0.0 0.0
354.0724624817241 1.919869492408183 107.23777261112666 -81.17431176191154 0.0 0.0
459.17385233496987 -23.3342611688376 148.3215227825301 -85.21901128345665 0.0 0.0
558.5015175504468 -25.057127918846813 224.5640004559919 -77.86158024811853 0.0 0.0
645.4512435522622 -16.479862194031774 298.24281082038505 -77.3477262731184 0.0 0.0
725.0289595179536 -2.502271025155885 354.5895592200062 -81.04405159444329 0.0 0.0
799.7982401638919 15.264752647065123 403.49489572286524 -84.34989139903784 0.0 0.0
871.6854557319707 36.67627123886653 451.17712599074343 -85.2980316972642 0.0 0.0
940.7793249053684 60.50531686388693 498.21110128564624 -84.4817581516525 0.0 0.0
1007.6496740266621 86.54986047059226 545.0379786178358 -82.8721502855162 0.0 0.0
1072.7437477411909 114.55154243634439 591.859336338101 -80.89388122348787 0.0 0.0
1136.4931434799187 144.26881738416364 638.8188808153974 -78.4424003641484 0.0 0.0
1198.723165781758 175.20969327571603 685.5774671013598 -75.212734184172 0.0 0.0
1260.6098240499991 208.77123537793125 733.399306053639 -71.00103108711377 0.0 0.0
1324.8860541786403 247.5622883352786 784.9526590743039 -65.97995209108782 0.0 0.0
1390.911686318855 291.9518523464691 840.1419762370343 -60.31037307771159 0.0 0.0
1452.356516734099 336.4706672150421 893.0946247864382 -53.08894263400596 0.0 0.0
1497.6563650125731 370.5037072819734 932.708308943176 -43.43387600468366 0.0 0.0
1497.6563650113899 370.50370728081987 932.7083089422676 43.43387600486935 0.0 0.0
1452.356516730575 336.4706672115654 893.0946247838727 53.088942634085896 0.0 0.0
1390.9116863149948 291.95185234264227 840.1419762340826 60.310373077731924 0.0 0.0
1324.886054177601 247.5622883343545 784.9526590732717 65.97995209114907 0.0 0.0
1260.6098240494991 208.7712353775779 733.3993060531867 71.00103108722857 0.0 0.0
1198.7231657804468 175.2096932744966 685.5774671004428 75.21273418397422 0.0 0.0
1136.4931434786147 144.26881738298107 638.8188808144475 78.44240036406674 0.0 0.0
1072.7437477398175 114.55154243515176 591.8593363370487 80.89388122350782 0.0 0.0
1007.6496740272163 86.5498604713348 545.0379786182068 82.8721502854016 0.0 0.0
940.7793249061996 60.50531686494 498.21110128617795 84.48175815162557 0.0 0.0
871.6854557329413 36.67627124020947 451.1771259913314 85.29803169748523 0.0 0.0
799.7982401641398 15.264752647509908 403.4948957230209 84.3498913987936 0.0 0.0
725.0289595180808 -2.502271024803278 354.58955922008664 81.0440515942543 0.0 0.0
645.4512435522417 -16.4798621936679 298.2428108203742 77.34772627325066 0.0 0.0
558.5015175506584 -25.057127918228463 224.56400045603561 77.86158024805337 0.0 0.0
459.1738523346068 -23.33426116888281 148.3215227822932 85.219011283274 0.0 0.0
354.0724624817878 1.9198694927323388 107.2377726112454 81.17431176189001 0.0 0.0
238.67780445414766 36.70325100176753 82.61431663677455 69.26111833813411 0.0 0.0
91.11490172672003 -69.81069343292353 6.391262488138953 96.07090170554721 0.0 0.0
-6.06648737644835 -555.8039424369256 -273.3165632203891 181.98695089404868 0.0 0.0
-11.881845698258076 -534.72899818621 -258.03606314986115 -178.93099506554836 0.0 0.0
53.078300047528174 -63.821775033126045 -3.2230424956793637 -133.09480153957858 0.0 0.0
181.53491365475364 29.057855257264634 63.17783067360547 -104.34090610229339 0.0 0.0
294.6388689400944 9.820282230467928 91.42049246900454 -105.5737632065613 0.0 0.0
402.6445011071404 -19.32065709430044 123.1511895319303 -113.78649751023133 0.0 0.0
512.628638012591 -24.145677689666037 192.96046041360762 -104.82317106747553 0.0 0.0
608.5882685259695 -16.261322209380882 272.78060173191005 -100.92465011634923 0.0 0.0
691.1229239464894 -1.7378636004376915 335.58689663639103 -103.05141033229877 0.0 0.0
764.6995230288545 14.125482946206631 384.563484535106 -105.74850160939584 0.0 0.0
833.251746507054 31.999410499469583 429.2213001370311 -106.2851482259049 0.0 0.0
898.1242161697317 51.868313282954325 472.30076726768357 -105.00642015224005 0.0 0.0
959.9122906757873 73.38927173527946 514.3950719795203 -102.94760997013174 0.0 0.0
1019.621930602387 96.44792622190451 556.0984800648935 -100.50969814732792 0.0 0.0
1077.4992378333027 120.87553474355204 597.508693354734 -97.39246104967836 0.0 0.0
1133.599387670466 145.98517519155686 638.323681105962 -93.55862048583484 0.0 0.0
1189.1508385256095 172.97464701734089 679.7210718457271 -89.03536140157638 0.0 0.0
1246.2144611383999 204.4926245579378 724.048468715986 -83.56484810298345 0.0 0.0
1305.6922091492884 241.4780272514118 772.2678257573593 -76.57197362720704 0.0 0.0
1362.8891094167818 279.9534993473021 820.0742345384083 -66.37516805790875 0.0 0.0
1408.5892611959266 311.9071279524993 858.831999262532 -51.973347235817855 0.0 0.0
1408.5892611956178 311.9071279522491 858.831999262326 51.973347236114456 0.0 0.0
1362.88910941761 279.953499348234 820.0742345391184 66.37516805814661 0.0 0.0
1305.692209150676 241.4780272529939 772.2678257584143 76.57197362763 0.0 0.0
1246.2144611390408 204.49262455869524 724.0484687164078 83.56484810301171 0.0 0.0
1189.1508385256705 172.97464701752136 679.7210718457635 89.03536140156545 0.0 0.0
1133.5993876690836 145.98517519021811 638.3236811048088 93.55862048566675 0.0 0.0
1077.499237833728 120.87553474433173 597.5086933548698 97.39246105003565 0.0 0.0
1019.6219306016352 96.44792622129034 556.0984800644529 100.50969814731454 0.0 0.0
959.9122906764062 73.38927173609994 514.3950719798405 102.94760997009158 0.0 0.0
898.1242161694901 51.86831328305374 472.3007672674852 105.00642015246967 0.0 0.0
833.2517465067327 31.999410499403837 429.2213001368002 106.28514822586146 0.0 0.0
764.699523028411 14.12548294597238 384.563484534871 105.7485016092451 0.0 0.0
691.1229239457858 -1.7378636009418358 335.586896635886 103.05141033214946 0.0 0.0
608.588268525765 -16.261322209276557 272.78060173170564 100.92465011624124 0.0 0.0
512.6286380125398 -24.14567768938396 192.96046041345974 104.82317106737165 0.0 0.0
402.64450110653013 -19.32065709467158 123.15118953159329 113.7864975101158 0.0 0.0
294.63886893983715 9.820282230104162 91.4204924688276 105.5737632063906 0.0 0.0
181.53491365478672 29.05785525732761 63.17783067363429 104.34090610215675 0.0 0.0
53.07830004776142 -63.82177503266008 -3.2230424954695955 133.09480153959137 0.0 0.0
-11.881845698122362 -534.7289981859251 -258.0360631496095 178.93099506542194 0.0 0.0
-10.155276658204627 -505.30215330997754 -233.17563028736635 -174.62532481775327 0.0 0.0
31.59180625390239 -57.46172753676471 -7.761023883187036 -160.81803267294538 0.0 0.0
133.54683091469002 20.935970795564355 46.344840513076306 -135.12033855833235 0.0 0.0
235.38587929000113 13.333648237214582 74.61580797104634 -130.16252712762187 0.0 0.0
335.51635813874736 -12.14572225465253 100.16871347122807 -140.8932887008724 0.0 0.0
450.48583619636446 -23.14245847825911 156.97740162576082 -135.430443986476 0.0 0.0
559.1258542056258 -15.109997802651634 239.33825050697916 -126.56160727190316 0.0 0.0
647.6975170464808 -2.078334320690306 309.3291198974654 -125.522006490721 0.0 0.0
722.4712891622827 12.671905979724073 361.30194865449533 -126.75309500176786 0.0 0.0
788.2519400305614 27.321091479665093 403.77991494674137 -126.48341737070342 0.0 0.0
848.8424803564218 43.120252618354385 442.921223500398 -124.70469533915562 0.0 0.0
905.6928000672837 60.18686247045796 480.4392520975862 -122.21329256643372 0.0 0.0
959.7244989438395 78.26634493235298 516.8800069911256 -119.35494274602465 0.0 0.0
1011.9087707819117 97.30638375725219 552.7801901418104 -115.79412689826863 0.0 0.0
1062.5345054599725 117.10946334806053 588.2418844729627 -111.39253399308033 0.0 0.0
1111.031483448437 137.57785755972836 622.9149227036514 -106.44773161243162 0.0 0.0
1159.7562405471522 160.2280522886951 658.6818535115444 -100.85690937524652 0.0 0.0
1211.5174904649057 188.20080014085593 698.5381423715506 -93.16400026596625 0.0 0.0
1265.384626840283 221.03841437974526 741.8351292701818 -80.70802810426252 0.0 0.0
1314.5949914102073 252.96953502492013 782.2936127874012 -62.24439987483509 0.0 0.0
1314.5949914096439 252.96953502444933 782.2936127871354 62.2443998751278 0.0 0.0
1265.3846268403129 221.03841437987847 741.8351292702584 80.70802810451438 0.0 0.0
1211.5174904652054 188.2008001413597 698.5381423717779 93.1640002664114 0.0 0.0
1159.756240546527 160.22805228818748 658.6818535111595 100.8569093752507 0.0 0.0
1111.0314834478781 137.57785755927762 622.9149227032656 106.44773161238845 0.0 0.0
1062.5345054590452 117.10946334712952 588.2418844722899 111.3925339927911 0.0 0.0
1011.9087707817029 97.30638375704103 552.7801901417956 115.79412689798264 0.0 0.0
959.7244989437207 78.2663449324209 516.8800069911725 119.35494274606476 0.0 0.0
905.6928000658984 60.18686246910258 480.43925209663917 122.21329256621075 0.0 0.0
848.8424803557176 43.12025261787784 442.9212234999778 124.70469533914519 0.0 0.0
788.25194002963 27.321091478882778 403.77991494612974 126.4834173706007 0.0 0.0
722.4712891609867 12.671905978645782 361.30194865364933 126.75309500168184 0.0 0.0
647.6975170451514 -2.078334321939664 309.3291198965625 125.5220064904703 0.0 0.0
559.1258542047541 -15.109997803339745 239.3382505063043 126.56160727173082 0.0 0.0
450.4858361960416 -23.142458478325494 156.97740162551173 135.43044398634387 0.0 0.0
335.5163581384781 -12.145722254658999 100.16871347111517 140.8932887003923 0.0 0.0
235.38587928996452 13.333648237469994 74.61580797111894 130.16252712737028 0.0 0.0
133.54683091495366 20.93597079582376 46.34484051323323 135.12033855799072 0.0 0.0
31.591806253913923 -57.461727536552104 -7.761023883119751 160.81803267279068 0.0 0.0
-10.155276658243423 -505.3021533097087 -233.17563028716484 174.62532481779238 0.0 0.0
-4.8276563499160545 -469.1918031251615 -202.0696114331358 -170.73513273039651 0.0 0.0
17.905027187835763 -51.37123578570733 -10.039660383819841 -180.47052268911466 0.0 0.0
91.90372614679103 13.650185702061064 31.665555587481492 -159.65545860490187 0.0 0.0
176.48397578772028 14.466239013943522 57.290479211874015 -153.13542411124558 0.0 0.0
261.86640382841625 -4.313657293844265 78.6649995480401 -164.13236684550867 0.0 0.0
371.7861495016093 -19.489154002554773 120.19677511981031 -168.03483764366268 0.0 0.0
491.53376035258947 -14.693209517628102 196.05040835206958 -156.03656129582697 0.0 0.0
591.2866536279378 -2.193457424712685 273.4927006970071 -149.19801658417953 0.0 0.0
669.2309191998411 10.397140531662398 330.555444219846 -147.71804141513394 0.0 0.0
734.0308124976817 22.488142007713485 373.1521370990195 -146.09249433039673 0.0 0.0
790.5382524930774 34.24940001985632 408.76294821686633 -143.59223098511077 0.0 0.0
842.5358713735817 47.078190692306336 441.95590258568916 -140.6433757216757 0.0 0.0
890.7921325001203 60.13202581118442 473.1153217220411 -137.46219179698073 0.0 0.0
936.7644708680465 73.71000375447228 503.24326505707245 -133.63109543620212 0.0 0.0
981.6861618363017 88.17483366297586 533.2016863134841 -128.7906352768874 0.0 0.0
1024.8833556025372 103.09403985173587 562.529353453072 -123.28058081506185 0.0 0.0
1064.249513566487 116.4380073041102 589.0764425353449 -117.50767493638585 0.0 0.0
1105.6730153806914 132.97885892341117 618.0565457033031 -110.02930846855936 0.0 0.0
1155.7040137738768 158.43707585414086 655.6836979006704 -96.73615883946968 0.0 0.0
1211.59729932588 191.96432183840383 700.1872032650123 -75.31389284051832 0.0 0.0
1211.597299326183 191.9643218387634 700.1872032651538 75.31389284065763 0.0 0.0
1155.7040137725871 158.43707585286086 655.6836978997239 96.73615883946994 0.0 0.0
1105.6730153812364 132.97885892408283 618.056545703655 110.029308468732 0.0 0.0
1064.249513565763 116.43800730344896 589.0764425349173 117.50767493641666 0.0 0.0
1024.883355602687 103.09403985209116 562.5293534531397 123.28058081526112 0.0 0.0
981.686161836346 88.1748336632291 533.2016863134768 128.79063527692296 0.0 0.0
936.7644708663282 73.71000375285809 503.2432650559092 133.63109543620368 0.0 0.0
890.7921324995057 60.13202581077192 473.1153217216321 137.4621917970848 0.0 0.0
842.5358713727119 47.078190691595466 441.9559025850682 140.6433757216136 0.0 0.0
790.5382524930305 34.24940001995597 408.76294821671763 143.59223098498964 0.0 0.0
734.0308124982915 22.488142008534226 373.1521370993657 146.0924943302991 0.0 0.0
669.2309192003114 10.397140532586391 330.5554442201754 147.71804141527 0.0 0.0
591.2866536285767 -2.1934574234943653 273.4927006974135 149.19801658434392 0.0 0.0
491.5337603525877 -14.693209517006395 196.0504083520453 156.03656129594998 0.0 0.0
371.78614950174045 -19.489154001758163 120.1967751199648 168.03483764361283 0.0 0.0
261.8664038281879 -4.313657293888207 78.6649995479516 164.13236684521434 0.0 0.0
176.48397578786185 14.466239014363987 57.29047921204749 153.13542411106135 0.0 0.0
91.90372614693227 13.650185702196898 31.665555587565247 159.65545860456652 0.0 0.0
17.905027187816998 -51.37123578568842 -10.03966038381996 180.47052268905207 0.0 0.0
-4.8276563499599945 -469.1918031249254 -202.0696114329365 170.73513273037696 0.0 0.0
0.7858866978186967 -427.7309074830473 -168.6886797931839 -168.2220793277466 0.0 0.0
6.033789367861828 -46.39592325504475 -12.109125448201944 -192.21310728717012 0.0 0.0
54.069924069823976 7.922627829856137 18.600259077873194 -177.8591431170299 0.0 0.0
118.29708055383524 15.314404255852395 40.11907459985575 -172.27969715721795 0.0 0.0
186.2494373916765 1.4241780787535554 57.08829322771053 -183.7827777232398 0.0 0.0
274.63489066366105 -11.846698770933967 85.01358446137365 -196.52894276926733 0.0 0.0
395.3078103386742 -13.224628754389254 143.6993434853717 -190.40613831973684 0.0 0.0
511.94471785451367 -2.9164357453144634 222.2153195310723 -176.43328155382795 0.0 0.0
598.9305736504573 7.827679199662423 287.24938048996887 -169.4041424435601 0.0 0.0
664.0959949269537 17.157584492523643 332.7074303185606 -165.34221064792524 0.0 0.0
717.7934080267072 25.18569910779978 366.6682663040946 -161.89611160384368 0.0 0.0
764.6789109251953 33.94191535609864 395.8607155016002 -158.3145257488304 0.0 0.0
807.0260191009743 42.35670248437492 422.0219523776248 -154.73564081503494 0.0 0.0
846.3408248123685 50.340811308693205 446.1753868024176 -150.84364248375658 0.0 0.0
884.8406617027164 58.880097474482085 470.0157852985906 -145.9763408190046 0.0 0.0
923.3534104936632 68.78133696005065 494.4983729533261 -139.74237077936894 0.0 0.0
957.2710325375579 75.91759988629914 515.3976328512998 -133.21478606279297 0.0 0.0
984.7837315868246 77.72328318999999 530.206040791993 -126.59312530199126 0.0 0.0
1025.5158816150367 90.4120477760899 556.6547584063326 -114.81293376865355 0.0 0.0
1090.8539128721984 126.2310251179668 606.8062828852635 -92.7889123147542 0.0 0.0
1090.8539128723191 126.23102511821975 606.8062828854704 92.78891231505048 0.0 0.0
1025.5158816162518 90.4120477774789 556.6547584072059 114.81293376894106 0.0 0.0
984.7837315869201 77.72328319029839 530.2060407919739 126.5931253023034 0.0 0.0
957.2710325354392 75.91759988422109 515.3976328497833 133.21478606280783 0.0 0.0
923.3534104905824 68.78133695688632 494.4983729512504 139.74237077930678 0.0 0.0
884.8406617027513 58.88009747445312 470.0157852985318 145.97634081875833 0.0 0.0
846.3408248118262 50.34081130837146 446.17538680205473 150.84364248383193 0.0 0.0
807.026019100907 42.356702484446316 422.0219523774794 154.73564081514292 0.0 0.0
764.6789109256408 33.941915356850586 395.8607155019015 158.31452574894192 0.0 0.0
717.7934080264264 25.185699107754886 366.6682663039743 161.89611160378809 0.0 0.0
664.0959949263083 17.157584491783624 332.70743031804153 165.3422106475924 0.0 0.0
598.930573649878 7.827679199215538 287.24938048956733 169.40414244347934 0.0 0.0
511.9447178536393 -2.9164357460463606 222.215319530417 176.43328155375886 0.0 0.0
395.30781033822757 -13.224628754224568 143.69934348515375 190.40613831981102 0.0 0.0
274.63489066343305 -11.846698770702025 85.01358446134194 196.5289427691857 0.0 0.0
186.24943739168236 1.4241780789932479 57.088293227784156 183.78277772309255 0.0 0.0
118.2970805537178 15.314404255677156 40.1190745997737 172.27969715701457 0.0 0.0
54.06992406973684 7.922627829705706 18.60025907780546 177.85914311685025 0.0 0.0
6.033789367853855 -46.395923254843595 -12.109125448145317 192.21310728699515 0.0 0.0
0.7858866978676033 -427.7309074827471 -168.68867979294876 168.22207932764556 0.0 0.0
3.6997434502677606 -381.65182033643123 -136.82710812092256 -165.82727921607665 0.0 0.0
-8.326330664846374 -43.897145719851 -15.67640349398268 -197.88342179040376 0.0 0.0
18.274061573585428 4.376175180058786 6.804086662397929 -189.86481983472038 0.0 0.0
61.56268484317273 16.48758180720324 23.463815168839066 -186.61992555512506 0.0 0.0
108.61706585343643 5.951946621328856 34.857029254251884 -199.07423367230206 0.0 0.0
166.27843932730855 -4.10016491306609 51.1492328096169 -216.91923466107284 0.0 0.0
260.7464575167175 -6.888645088126866 87.15932292541399 -223.38775068161883 0.0 0.0
385.09824638521775 -3.1207775979311148 149.20020916530376 -210.66618906823842 0.0 0.0
491.0326356145466 5.114835719537599 217.96663623356673 -194.62923374789602 0.0 0.0
562.3355323688039 11.121343895725701 269.89048347395374 -185.16443656556748 0.0 0.0
613.8268885735047 16.433693959065465 306.0868254705359 -179.7005422038729 0.0 0.0
655.266672141688 20.658914308999627 332.6529784098227 -175.3680247485344 0.0 0.0
691.2950535904713 24.800987332129978 354.70633969281033 -171.25785467180162 0.0 0.0
723.5107597298799 27.701724605280248 373.34241082948165 -167.20701339162275 0.0 0.0
754.1850128525015 29.794774168192475 390.30288325772227 -162.60255786709877 0.0 0.0
786.349329152688 32.85457171514386 408.2043563340795 -156.50995571775732 0.0 0.0
820.6359976352499 37.38212030107681 427.9117871678466 -148.3907054724829 0.0 0.0
842.9454140264276 31.269149618303373 436.6202963112067 -141.10355289008552 0.0 0.0
859.3592173500756 15.44942016651521 436.6550659084978 -134.07006026309193 0.0 0.0
933.60570076899 49.2702151644861 489.519484694187 -117.61668886800078 0.0 0.0
933.6057007688486 49.27021516456182 489.5194846941253 117.61668886843559 0.0 0.0
859.3592173516241 15.449420168486085 436.6550659095803 134.07006026369635 0.0 0.0
842.9454140287304 31.269149621382837 436.6202963128839 141.10355289101074 0.0 0.0
820.635997637479 37.382120303918214 427.91178716950253 148.3907054728977 0.0 0.0
786.3493291540781 32.854571717116016 408.20435633507384 156.5099557181308 0.0 0.0
754.1850128527915 29.794774168449834 390.3028832579058 162.60255786696413 0.0 0.0
723.5107597294427 27.70172460500575 373.3424108292164 167.20701339172075 0.0 0.0
691.2950535898244 24.800987331588345 354.70633969229425 171.25785467193055 0.0 0.0
655.2666721421073 20.658914309674202 332.65297841005065 175.36802474863487 0.0 0.0
613.8268885733389 16.433693958946733 306.08682547036443 179.70054220379717 0.0 0.0
562.3355323695264 11.121343896990595 269.89048347443594 185.16443656574577 0.0 0.0
491.03263561513694 5.1148357208003645 217.96663623396176 194.62923374812596 0.0 0.0
385.0982463853205 -3.1207775969108127 149.20020916552699 210.666189068416 0.0 0.0
260.7464575161034 -6.8886450883384995 87.1593229251019 223.38775068156656 0.0 0.0
166.27843932706574 -4.1001649131850755 51.149232809506856 216.91923466087272 0.0 0.0
108.61706585305829 5.951946620584853 34.857029253916835 199.07423367213914 0.0 0.0
61.56268484288921 16.48758180650273 23.463815168546333 186.6199255548751 0.0 0.0
18.274061573574357 4.376175179908844 6.80408666235077 189.86481983445253 0.0 0.0
-8.3263306649953 -43.897145719870615 -15.676403494036187 197.88342179027785 0.0 0.0
3.699743450269679 -381.6518203362057 -136.8271081207454 165.8272792159302 0.0 0.0
2.8889299264011754 -331.69020244679535 -108.3058681756637 -161.50951254006435 0.0 0.0
-26.847557033586703 -44.70995924218243 -21.48439553351374 -199.29036352494757 0.0 0.0
-16.367018973814048 3.222561325720757 -3.9459143554154186 -196.6702340934085 0.0 0.0
6.544797584577157 17.791540577617983 7.323842763804058 -195.68763725625445 0.0 0.0
30.222416673952438 10.660410855950817 12.427839932918712 -208.1480640815679 0.0 0.0
53.333006514498145 1.8414676095443543 17.29031720126261 -228.395305624892 0.0 0.0
88.84373962688213 -1.0267255914003837 28.729925010396116 -242.94510564442672 0.0 0.0
157.88514838352808 1.4050513033722059 54.235687087398574 -243.1647308125332 0.0 0.0
252.75217359562498 5.698785166697284 94.49894160719766 -227.23872834845048 0.0 0.0
335.53529519195166 7.174249718937986 138.70337293396625 -210.08262814282782 0.0 0.0
391.9617416185213 8.47796593513003 176.92950906878434 -198.23720977180105 0.0 0.0
427.83074873220187 8.589460718459534 204.47114428155226 -191.31744965965606 0.0 0.0
454.4430670551476 8.309362468407642 225.07962857748186 -186.16227217076712 0.0 0.0
477.3799947303071 5.821926572233735 240.37782563809486 -181.6450108979732 0.0 0.0
500.9068722657305 1.4568092022380768 252.64856493094211 -177.24815719030397 0.0 0.0
529.7274478204082 -3.7452504804135174 265.1158557704555 -172.26583279395464 0.0 0.0
568.053116116821 -6.37101254740719 282.4429573461752 -164.82762202100534 0.0 0.0
614.0139204819405 -5.866075297225734 305.3248842589642 -153.93812218343632 0.0 0.0
626.8444875670286 -41.409088770293806 294.5899491154189 -147.41000531073064 0.0 0.0
669.6598890636877 -64.58181427489572 300.8731993460496 -150.58591317074064 0.0 0.0
669.6598890633493 -64.5818142750706 300.8731993459334 150.58591317112118 0.0 0.0
626.8444875668358 -41.40908877047849 294.58994911526867 147.41000531088312 0.0 0.0
614.0139204809296 -5.866075298773978 305.32488425808316 153.93812218350817 0.0 0.0
568.0531161170652 -6.3710125474335655 282.44295734615406 164.82762202080195 0.0 0.0
529.7274478209476 -3.7452504791347963 265.1158557710093 172.2658327941516 0.0 0.0
500.9068722673773 1.4568092042730143 252.64856493209285 177.24815719043153 0.0 0.0
477.379994731233 5.821926574317445 240.37782563904057 181.64501089841116 0.0 0.0
454.4430670558329 8.309362469055543 225.07962857792376 186.1622721709855 0.0 0.0
427.8307487318774 8.589460718145105 204.47114428131732 191.31744965960178 0.0 0.0
391.961741618093 8.477965934328964 176.92950906834926 198.23720977175475 0.0 0.0
335.5352951918334 7.174249719051957 138.70337293388758 210.08262814276847 0.0 0.0
252.75217359502466 5.698785165905729 94.49894160674401 227.23872834858605 0.0 0.0
157.8851483835327 1.4050513039809935 54.23568708756224 243.16473081267367 0.0 0.0
88.84373962640656 -1.0267255920339924 28.729925010061976 242.9451056442712 0.0 0.0
53.333006514329846 1.8414676091690012 17.290317201098507 228.39530562465637 0.0 0.0
30.222416674025055 10.66041085598419 12.427839932951496 208.1480640815203 0.0 0.0
6.544797584504501 17.791540577241832 7.323842763669994 195.68763725621068 0.0 0.0
-16.367018973726815 3.2225613259223174 -3.9459143553295144 196.67023409321484 0.0 0.0
-26.847557033756157 -44.70995924237179 -21.484395533626778 199.2903635248008 0.0 0.0
2.888929926302797 -331.6902024465764 -108.30586817557355 161.50951253996496 0.0 0.0
-6.926250152369256 -279.88203408440944 -87.91478281027702 -152.9200281601442 0.0 0.0
-47.41984582276593 -47.219680284049986 -28.419703443141255 -198.58301138413668 0.0 0.0
-50.18496582051838 3.587744219829842 -14.019930800693551 -199.03735414582874 0.0 0.0
-46.794461991772465 18.97818768552936 -8.41186532293936 -199.2635673046514 0.0 0.0
-47.258298838828836 15.421643408505947 -9.76374689864167 -210.3201698197279 0.0 0.0
-60.48720575712824 7.269342347820782 -16.79443654803745 -229.27777423198714 0.0 0.0
-92.5628858382135 2.5541084468314885 -29.515749758229436 -243.11980171435445 0.0 0.0
-159.1956807750866 -0.9099233968741167 -54.59603805102009 -243.41238439883892 0.0 0.0
-252.64543402118863 -5.388119045155872 -94.39749894632757 -227.38210697745131 0.0 0.0
-335.23118855159294 -6.53600066537107 -138.37702178311608 -210.05623486489807 0.0 0.0
-392.2718913994646 -6.748937640078282 -176.30323286488536 -198.01260646176988 0.0 0.0
-429.96887189638335 -7.1815422920942495 -204.70139394267935 -190.8456674781129 0.0 0.0
-459.1694567366535 -10.410889871714176 -227.98821841532083 -186.01043794272968 0.0 0.0
-481.9698679826742 -16.741596175592036 -248.0185319586585 -182.96462504106017 0.0 0.0
-496.25941161350374 -26.072142618708455 -264.8706356242504 -181.54017479330093 0.0 0.0
-498.58798070292374 -37.31171420497566 -277.5849951850274 -181.18740817592783 0.0 0.0
-480.17783665752273 -47.52896921558761 -282.75133184707084 -180.87578767510237 0.0 0.0
-411.7725286670456 -39.308763141207635 -263.8177657033271 -180.50727414260874 0.0 0.0
-231.37850923601496 -43.662588809360614 -206.95899904952114 -183.58415959321218 0.0 0.0
-39.393329928790536 -175.32997890616292 -76.44164330127296 -184.18530462311503 0.0 0.0
-39.39332992927598 -175.32997890679712 -76.44164330151574 184.18530462343034 0.0 0.0
-231.37850923496268 -43.66258880827996 -206.95899904878172 183.5841595937623 0.0 0.0
-411.77252866623036 -39.30876313960266 -263.81776570255664 180.5072741427587 0.0 0.0
-480.1778366574427 -47.52896921611682 -282.75133184708096 180.87578767530408 0.0 0.0
-498.58798070257666 -37.311714204325284 -277.5849951846924 181.18740817573158 0.0 0.0
-496.2594116121142 -26.072142617653526 -264.87063562350204 181.54017479343753 0.0 0.0
-481.96986798198566 -16.741596174158502 -248.01853195796602 182.964625040845 0.0 0.0
-459.1694567371786 -10.410889872883075 -227.98821841577876 186.01043794296277 0.0 0.0
-429.9688718964804 -7.181542293211365 -204.7013939429499 190.84566747818366 0.0 0.0
-392.2718913990608 -6.74893764022589 -176.3032328646418 198.01260646179117 0.0 0.0
-335.2311885506593 -6.53600066493172 -138.37702178258743 210.05623486465313 0.0 0.0
-252.64543401978744 -5.388119043528388 -94.39749894533175 227.38210697740632 0.0 0.0
-159.19568077477285 -0.9099233973954526 -54.59603805103454 243.412384398892 0.0 0.0
-92.56288583861121 2.5541084453908764 -29.51574975875034 243.11980171417062 0.0 0.0
-60.487205756989766 7.269342347858801 -16.794436547978037 229.2777742316987 0.0 0.0
-47.258298838808486 15.421643408334274 -9.763746898684623 210.32016981943133 0.0 0.0
-46.794461991584114 18.978187685661208 -8.411865322843225 199.26356730436734 0.0 0.0
-50.184965820570426 3.587744219797849 -14.01993080072054 199.03735414557207 0.0 0.0
-47.41984582269462 -47.21968028402874 -28.419703443122778 198.58301138396473 0.0 0.0
-6.926250152503531 -279.88203408418707 -87.91478281024199 152.92002815997864 0.0 0.0
-20.95886516777237 -229.3651452514947 -75.10824948057112 -140.25771926694625 0.0 0.0
-66.09295431557662 -48.07788926346679 -34.2797904211644 -195.24646861589122 0.0 0.0
-83.22058794037447 4.038588552913455 -23.837031460289722 -197.54586464322637 0.0 0.0
-98.45735617636262 20.038091448890484 -23.706669977377597 -197.51227039032702 0.0 0.0
-122.90462544225616 19.376186407893798 -31.760165907301115 -205.36382466465918 0.0 0.0
-171.83118217821774 12.674894319730887 -50.667250602037136 -219.07303644415927 0.0 0.0
-262.0711388082582 8.30501290201052 -87.57212644685939 -224.41290214361328 0.0 0.0
-384.513236775976 3.525719406634387 -149.06814599385723 -211.33139165774824 0.0 0.0
-490.52506197311857 -4.8171806035807165 -217.67311138822402 -194.84604681907783 0.0 0.0
-561.8477511963767 -10.48375136600022 -269.4182880494225 -185.11423446856685 0.0 0.0
-613.3226541820708 -15.075704951329527 -305.24087645876824 -179.30570135795284 0.0 0.0
-655.6379897097613 -19.383049843441 -332.1561128963615 -174.48318210739285 0.0 0.0
-694.1384103362652 -26.469290570336796 -356.7066407347186 -170.52687165630002 0.0 0.0
-730.2120098504522 -36.95969161591148 -380.9999964032902 -168.4418687956025 0.0 0.0
-763.7351775891665 -50.8752893024903 -405.5420444830465 -168.4907777006083 0.0 0.0
-792.3533667772783 -66.72725484144195 -428.62594836097895 -170.5705460758923 0.0 0.0
-811.0729119757909 -81.09659091084848 -446.13550267768767 -175.22269405004465 0.0 0.0
-819.3929222983211 -94.39026016670562 -457.67543507635435 -182.43634570358014 0.0 0.0
-849.8998761127098 -146.84805114581098 -500.6077267402034 -192.18440979696308 0.0 0.0
-878.5511572087424 -245.59822683088382 -565.7608875062526 -210.4678210910762 0.0 0.0
-878.551157209334 -245.59822683173104 -565.7608875066649 210.467821091271 0.0 0.0
-849.8998761124283 -146.84805114593638 -500.60772674021075 192.18440979762784 0.0 0.0
-819.3929222982196 -94.39026016693248 -457.6754350764176 182.43634570382642 0.0 0.0
-811.0729119753303 -81.09659091058381 -446.13550267740027 175.22269405022993 0.0 0.0
-792.3533667775794 -66.72725484197505 -428.6259483611022 170.5705460758738 0.0 0.0
-763.7351775892794 -50.87528930325283 -405.5420444831888 168.4907777011007 0.0 0.0
-730.2120098511924 -36.95969161713185 -380.9999964038137 168.4418687957804 0.0 0.0
-694.1384103348462 -26.4692905690861 -356.7066407338151 170.5268716563383 0.0 0.0
-655.6379897097062 -19.383049843684105 -332.15611289628544 174.48318210748917 0.0 0.0
-613.3226541828476 -15.075704952810575 -305.24087645931377 179.3057013580688 0.0 0.0
-561.847751196659 -10.483751366852417 -269.4182880495937 185.11423446864592 0.0 0.0
-490.52506197310504 -4.817180604309375 -217.6731113882735 194.84604681932473 0.0 0.0
-384.5132367758953 3.525719406060304 -149.06814599379422 211.33139165777754 0.0 0.0
-262.0711388079612 8.305012901615095 -87.57212644678879 224.41290214353276 0.0 0.0
-171.83118217801896 12.674894319422176 -50.66725060205211 219.07303644403333 0.0 0.0
-122.90462544239094 19.376186407240205 -31.7601659075397 205.3638246645176 0.0 0.0
-98.45735617613295 20.03809144907858 -23.70666997725413 197.51227039007873 0.0 0.0
-83.22058794029518 4.038588553028719 -23.83703146023449 197.54586464303617 0.0 0.0
-66.0929543154126 -48.07788926352014 -34.27979042113628 195.24646861565498 0.0 0.0
-20.958865167924976 -229.36514525139037 -75.10824948060176 140.2577192667486 0.0 0.0
-28.803363791411822 -181.77694276884688 -63.174091968077605 -125.13794781814187 0.0 0.0
-81.52980256513209 -46.3704953040114 -38.371797865854816 -188.14747424653052 0.0 0.0
-115.06101068824742 4.103476680740851 -33.377021086238095 -192.1456908428574 0.0 0.0
-148.38491233312985 20.633802517048153 -38.630033847603556 -190.4944496163111 0.0 0.0
-195.96459387986053 22.254409223442018 -53.505367539317845 -193.94811521177783 0.0 0.0
-276.09328766120734 19.119733111514414 -84.33445857595889 -199.71481937420822 0.0 0.0
-393.88825598575045 14.584461393942075 -143.2629144720014 -192.0776156982102 0.0 0.0
-510.98299141827954 3.342737782185516 -221.70813201546298 -177.0858326621785 0.0 0.0
-598.5957428229326 -7.641480735667471 -287.0223279841909 -169.50932489987758 0.0 0.0
-663.7345162902241 -16.699129784418247 -332.3466608159427 -165.31052671347206 0.0 0.0
-717.4131212395722 -24.20082040602898 -366.0220482322187 -161.45941716054256 0.0 0.0
-764.8477687642489 -32.85311529470644 -395.3644357308117 -157.1523598938569 0.0 0.0
-809.2128410732593 -43.43195955911767 -423.4851933688791 -153.37306849315615 0.0 0.0
-852.3753048197534 -57.64170566248205 -452.59443247716337 -151.30156709958553 0.0 0.0
-894.6757194016009 -75.98637408130233 -483.31650963116186 -151.70423277966543 0.0 0.0
-933.5366313032512 -96.65202860018809 -513.5221230213613 -154.81836413086367 0.0 0.0
-967.6049289796158 -118.41404287566706 -541.7998090988954 -160.104669866995 0.0 0.0
-1005.2698782858172 -151.21537765004632 -577.3796848022516 -165.91063772017927 0.0 0.0
-1051.1712279403594 -202.4944042591506 -626.0389799307832 -170.55325685072495 0.0 0.0
-1161.9842647743521 -344.15218555558874 -751.9837449581651 -172.71983994730775 0.0 0.0
-1161.9842647747457 -344.1521855558241 -751.9837449585744 172.71983994734472 0.0 0.0
-1051.1712279403137 -202.4944042595386 -626.0389799311863 170.5532568512431 0.0 0.0
-1005.2698782864368 -151.2153776506368 -577.3796848026316 165.9106377202165 0.0 0.0
-967.6049289795434 -118.41404287601637 -541.799809098979 160.10466986736503 0.0 0.0
-933.5366313014022 -96.65202859815551 -513.5221230202744 154.81836413043226 0.0 0.0
-894.6757193993809 -75.98637407897158 -483.3165096297677 151.70423277937198 0.0 0.0
-852.3753048172426 -57.641705659508816 -452.59443247534716 151.30156709899578 0.0 0.0
-809.2128410719502 -43.43195955772403 -423.4851933679939 153.37306849283868 0.0 0.0
-764.8477687640486 -32.85311529471171 -395.3644357307156 157.15235989383626 0.0 0.0
-717.4131212386937 -24.200820405365555 -366.02204823174156 161.4594171604828 0.0 0.0
-663.734516288561 -16.69912978276038 -332.34666081489326 165.31052671320265 0.0 0.0
-598.5957428216248 -7.641480734374689 -287.0223279833211 169.50932489966056 0.0 0.0
-510.98299141692723 3.342737783346739 -221.70813201453495 177.0858326621423 0.0 0.0
-393.88825598441633 14.584461395066317 -143.26291447110103 192.07761569813843 0.0 0.0
-276.0932876607951 19.11973311160557 -84.33445857574054 199.71481937398107 0.0 0.0
-195.9645938793756 22.254409223930622 -53.5053675390285 193.9481152115613 0.0 0.0
-148.3849123326786 20.63380251779736 -38.630033847249685 190.49444961605877 0.0 0.0
-115.06101068796642 4.103476681104166 -33.377021086049744 192.145690842798 0.0 0.0
-81.52980256492529 -46.370495303757004 -38.37179786571927 188.14747424647453 0.0 0.0
-28.803363791222875 -181.7769427684914 -63.17409196791428 125.13794781785577 0.0 0.0
-31.528722274898747 -138.12721830107233 -50.89678217279132 -108.846223142022 0.0 0.0
-94.12209468010761 -42.39337401535489 -40.95405738992061 -176.45886818881695 0.0 0.0
-145.17402521216948 3.8278631150552513 -42.481026290189014 -182.7143273028486 0.0 0.0
-196.41464018482057 20.19423424683835 -53.306980746958914 -178.49974616821248 0.0 0.0
-265.28313278360434 25.186360611276253 -74.63793149505713 -177.04086867158702 0.0 0.0
-368.754640258505 25.05576381715653 -118.9834480564611 -172.13087504668835 0.0 0.0
-489.2985323411166 16.306197903307392 -194.73858133104534 -157.75394292509634 0.0 0.0
-590.7933975448886 2.35305969774366 -273.15644513216677 -149.49432211831544 0.0 0.0
-669.0800251201671 -10.325239338761534 -330.461629672421 -147.77999340394007 0.0 0.0
-733.8492741905543 -22.23023320472052 -372.95142284500037 -146.06718242851002 0.0 0.0
-790.4384608524389 -33.70604075949146 -408.4520789127214 -143.1378082661625 0.0 0.0
-842.7236351332392 -46.32328010401969 -441.65668900101207 -139.34149494052912 0.0 0.0
-892.008147578504 -60.416536269503894 -473.77835421630346 -135.68833131824795 0.0 0.0
-940.4042610820011 -78.10394143384798 -507.10158844976354 -133.52608555636579 0.0 0.0
-988.8525221790931 -100.37687662188773 -542.7105228458008 -134.0922563237398 0.0 0.0
-1037.5100967404483 -127.72735842671415 -580.9612764542981 -137.48142289802706 0.0 0.0
-1087.581573257611 -161.89229036470005 -623.2982995268624 -142.39462090181215 0.0 0.0
-1142.4831834505153 -207.00055473752434 -673.3988813571975 -146.20141982472458 0.0 0.0
-1218.533559542011 -282.3771815787548 -748.9726645242082 -145.4369121540825 0.0 0.0
-1319.0559337983357 -405.2841798892973 -860.7827260128547 -141.78167516601653 0.0 0.0
-1319.0559337972593 -405.2841798882379 -860.7827260120142 141.78167516607996 0.0 0.0
-1218.5335595426184 -282.37718157959597 -748.97266452442 145.43691215440668 0.0 0.0
-1142.483183451364 -207.00055473851955 -673.3988813576846 146.20141982480197 0.0 0.0
-1087.5815732565975 -161.8922903637533 -623.2982995260547 142.39462090189156 0.0 0.0
-1037.5100967395394 -127.72735842598493 -580.9612764536818 137.48142289812404 0.0 0.0
-988.8525221795998 -100.37687662253566 -542.7105228461921 134.09225632369723 0.0 0.0
-940.4042610847187 -78.10394143689845 -507.101588451661 133.52608555660402 0.0 0.0
-892.0081475795528 -60.416536270973104 -473.77835421706084 135.68833131846282 0.0 0.0
-842.7236351315215 -46.32328010241096 -441.6566889998959 139.34149494041864 0.0 0.0
-790.438460852377 -33.706040759773856 -408.45207891266006 143.13780826626646 0.0 0.0
-733.8492741911352 -22.2302332056314 -372.9514228453405 146.06718242849013 0.0 0.0
-669.0800251201231 -10.325239339186817 -330.4616296724326 147.77999340407194 0.0 0.0
-590.7933975436875 2.3530596986912684 -273.15644513131764 149.49432211826345 0.0 0.0
-489.2985323401646 16.306197903924954 -194.73858133036708 157.75394292509174 0.0 0.0
-368.7546402578856 25.05576381718206 -118.98344805617623 172.13087504675482 0.0 0.0
-265.2831327834722 25.186360610735 -74.63793149517542 177.04086867163684 0.0 0.0
-196.41464018463827 20.194234246928772 -53.30698074688473 178.49974616802805 0.0 0.0
-145.17402521203277 3.8278631149568394 -42.4810262901857 182.71432730268754 0.0 0.0
-94.12209468014713 -42.393374015592244 -40.95405739000452 176.45886818876414 0.0 0.0
-31.52872227483563 -138.12721830089663 -50.89678217271967 108.84622314169748 0.0 0.0
-32.79828881828393 -99.29784523018957 -39.628840214542045 -91.97023120932197 0.0 0.0
-104.86472039071981 -36.487402678672225 -42.40560007285508 -160.28530873079706 0.0 0.0
-173.40272421811102 3.2928616339469245 -51.077120704270854 -168.80652347266886 0.0 0.0
-242.8150199284163 19.152651642844766 -67.56987827359274 -162.21065812462257 0.0 0.0
-331.4180480050784 28.330336902537884 -95.8997485870686 -154.96975208779241 0.0 0.0
-446.2017532594509 27.758206918755366 -154.90578339937355 -139.99558623020332 0.0 0.0
-557.5110058922193 16.34464120709024 -238.02010148276867 -127.3757518714859 0.0 0.0
-647.5991159831169 2.0008407781675572 -309.27555054945276 -125.60777548410118 0.0 0.0
-722.4405622679964 -12.671729111712324 -361.2981418188126 -126.81125259278639 0.0 0.0
-788.2854530943529 -27.26302618869994 -403.7663462670214 -126.4421919301717 0.0 0.0
-849.0669811209996 -43.04690660656166 -442.9915362145396 -124.25139923737245 0.0 0.0
-905.9447466362096 -59.860171335400594 -480.4046340252361 -120.95226028359824 0.0 0.0
-959.670086142849 -77.65767305398018 -516.5321572209156 -117.53255534414613 0.0 0.0
-1012.3075787189008 -98.22480046539084 -553.3455386183368 -115.30486728244527 0.0 0.0
-1066.951531419876 -124.75477450531133 -594.073190127629 -115.6048272774626 0.0 0.0
-1125.7945238063899 -160.2783748688811 -641.3896661506287 -118.60558376884315 0.0 0.0
-1190.7793784429552 -206.64050437826523 -697.1665446455949 -122.7998698583463 0.0 0.0
-1265.5963602762863 -269.27429283223455 -765.9049758397261 -124.90943873536806 0.0 0.0
-1350.8274152916401 -353.1102985242853 -850.4437520718417 -123.02925358707475 0.0 0.0
-1436.9062701613502 -459.83401462797497 -946.9755592634167 -120.41405681479417 0.0 0.0
-1436.9062701606113 -459.8340146272826 -946.975559262923 120.41405681487136 0.0 0.0
-1350.8274152912054 -353.11029852391795 -850.4437520714682 123.0292535872434 0.0 0.0
-1265.5963602757142 -269.2742928317111 -765.9049758391844 124.9094387353453 0.0 0.0
-1190.7793784419894 -206.64050437744618 -697.1665446448852 122.79986985851716 0.0 0.0
-1125.7945238038003 -160.278374866401 -641.3896661486986 118.6055837687596 0.0 0.0
-1066.951531417094 -124.75477450249701 -594.0731901254821 115.60482727728552 0.0 0.0
-1012.3075787165278 -98.22480046318505 -553.3455386166337 115.3048672824415 0.0 0.0
-959.6700861423169 -77.65767305359529 -516.5321572204664 117.53255534409395 0.0 0.0
-905.944746636805 -59.86017133632557 -480.4046340256226 120.95226028371195 0.0 0.0
-849.0669811214934 -43.046906607338144 -442.9915362148247 124.25139923738651 0.0 0.0
-788.2854530941296 -27.263026188813917 -403.7663462669103 126.44219193021823 0.0 0.0
-722.4405622675254 -12.671729111652482 -361.2981418185102 126.81125259292212 0.0 0.0
-647.5991159831087 2.000840777876011 -309.2755505493424 125.60777548398488 0.0 0.0
-557.5110058928207 16.344641206041462 -238.02010148304737 127.37575187143109 0.0 0.0
-446.2017532597472 27.75820691775541 -154.90578339954104 139.99558623020812 0.0 0.0
-331.4180480052189 28.33033690164185 -95.89974858732964 154.9697520877489 0.0 0.0
-242.81501992870844 19.152651641798098 -67.56987827399561 162.21065812451752 0.0 0.0
-173.40272421800034 3.292861633946589 -51.07712070424243 168.80652347266124 0.0 0.0
-104.86472039047412 -36.48740267839505 -42.405600072697915 160.28530873084298 0.0 0.0
-32.79828881825884 -99.29784523014527 -39.628840214521226 91.97023120920667 0.0 0.0
-33.700463691800515 -65.91418923146621 -29.88439587698001 -74.60343469248073 0.0 0.0
-114.45531711966433 -29.22118565752161 -43.10295083315578 -140.04002170894174 0.0 0.0
-199.91437483145063 2.524452718626457 -59.214789528026756 -150.42908857143465 0.0 0.0
-286.68978513521097 17.88434961575768 -81.30815661476251 -141.60258780099 0.0 0.0
-392.14401766801086 30.77686782779274 -118.16843277038352 -128.06747143264982 0.0 0.0
-508.0930615553453 27.78023322573959 -190.28106305077753 -108.33704051163681 0.0 0.0
-607.9001795761161 16.778952967116254 -272.03575021854 -101.074997630027 0.0 0.0
-691.157790153015 1.6198567188215947 -335.65266513428725 -103.06142717142764 0.0 0.0
-764.7846596613338 -14.199866613521323 -384.6447260420101 -105.79452314836513 0.0 0.0
-833.4702003206951 -32.1290232575885 -429.3816943322161 -106.20985324042552 0.0 0.0
-898.5927514964314 -52.17724913517952 -472.6771117911593 -104.576187944162 0.0 0.0
-960.1586568089568 -73.43302247991522 -514.5545286997917 -101.90761699321037 0.0 0.0
-1018.4795011241329 -95.2003522568555 -554.9308035935003 -98.98620879673024 0.0 0.0
-1075.1618620735178 -118.95740194722822 -595.3319362995481 -96.60100617552287 0.0 0.0
-1135.1504234005652 -149.40015318019874 -640.610842399737 -96.17272252981249 0.0 0.0
-1203.9881979061765 -192.71301964533245 -696.7227430791153 -98.32212780599987 0.0 0.0
-1283.682725177328 -252.38699411219918 -766.4437002026741 -101.65232045764661 0.0 0.0
-1372.8921760548046 -328.80007190711774 -849.2958229731585 -103.7418576595513 0.0 0.0
-1462.6837714159285 -417.5484126336848 -938.6266800142917 -103.73146419819204 0.0 0.0
-1540.5341865554747 -515.1491089735814 -1026.4956178970024 -104.65507063070311 0.0 0.0
-1540.5341865545279 -515.1491089727383 -1026.4956178965017 104.65507063091067 0.0 0.0
-1462.683771415745 -417.5484126334886 -938.6266800144967 103.7314641981456 0.0 0.0
-1372.8921760551839 -328.80007190762507 -849.2958229736191 103.74185765971609 0.0 0.0
-1283.6827251750194 -252.38699411001716 -766.4437002012803 101.65232045773536 0.0 0.0
-1203.9881979061936 -192.71301964554846 -696.7227430792101 98.32212780625969 0.0 0.0
-1135.1504234009622 -149.40015318087382 -640.6108424000545 96.17272253009655 0.0 0.0
-1075.161862073605 -118.95740194760941 -595.3319362996702 96.60100617577868 0.0 0.0
-1018.4795011236421 -95.20035225661293 -554.9308035931512 98.98620879685782 0.0 0.0
-960.1586568078629 -73.43302247905972 -514.5545286990262 101.90761699319722 0.0 0.0
-898.5927514966693 -52.17724913571385 -472.6771117913321 104.57618794420709 0.0 0.0
-833.4702003201578 -32.12902325732007 -429.3816943318681 106.20985324038496 0.0 0.0
-764.784659660558 -14.199866613078584 -384.6447260415067 105.79452314843961 0.0 0.0
-691.1577901529138 1.6198567185293413 -335.6526651342309 103.06142717151616 0.0 0.0
-607.9001795755693 16.778952967287665 -272.03575021812713 101.07499763003102 0.0 0.0
-508.0930615545072 27.780233226293852 -190.2810630501641 108.33704051152682 0.0 0.0
-392.1440176678392 30.77686782734879 -118.16843277038882 128.06747143267293 0.0 0.0
-286.68978513506136 17.884349615448375 -81.30815661481785 141.60258780105062 0.0 0.0
-199.91437483130733 2.524452718708024 -59.21478952796015 150.42908857138707 0.0 0.0
-114.45531711960882 -29.221185657705227 -43.10295083319421 140.04002170890757 0.0 0.0
-33.70046369172112 -65.91418923137346 -29.884395876928373 74.60343469237398 0.0 0.0
-34.316141774854714 -38.5186353158023 -21.850433127197103 -56.71884678298395 0.0 0.0
-122.92831584526095 -21.162047338382983 -43.22710895509318 -116.16934705137413 0.0 0.0
-224.89228211806153 1.3947191126014724 -67.0485084175489 -127.39733792746024 0.0 0.0
-329.9003385484067 17.404317592383595 -94.71617017146974 -117.29705657039165 0.0 0.0
-447.45128100551807 31.16964212308302 -142.4489124015629 -97.79723308303937 0.0 0.0
-555.8602851246162 27.290630786554416 -222.31475157369405 -79.65970641596309 0.0 0.0
-645.3521857167623 16.5078760685239 -298.07544208446427 -77.17004802599126 0.0 0.0
-725.1448387011417 2.3804506058058053 -354.70716544032433 -81.03194788216913 0.0 0.0
-799.9817498294578 -15.404993235889094 -403.64981423669485 -84.37075552114992 0.0 0.0
-872.0401178511404 -36.96309696082463 -451.4801156528578 -85.19087801501448 0.0 0.0
-941.3183629837138 -61.016562596878316 -498.7250632537096 -84.10718268397596 0.0 0.0
-1007.7670215127266 -86.76992988319878 -545.2231685630076 -82.14854113326828 0.0 0.0
-1071.1754247317542 -113.25940296561936 -590.4639328987561 -79.85789752212693 0.0 0.0
-1132.911749561917 -141.16567334998933 -635.4622454460988 -77.54330231051289 0.0 0.0
-1197.3360290466103 -174.8764496301843 -684.561619499229 -76.08073304426892 0.0 0.0
-1272.8565047308239 -223.83567832957965 -746.7533721678018 -76.72924325256967 0.0 0.0
-1365.1445505351599 -294.762220221201 -828.3616243735049 -79.56891137345384 0.0 0.0
-1466.5169284173803 -382.8354748076381 -923.1471062187915 -83.02066612859868 0.0 0.0
-1563.996424329016 -479.4704948694995 -1020.288341858405 -86.44303517505313 0.0 0.0
-1639.8208436963087 -574.4597197350714 -1105.8378390905182 -92.08716158127164 0.0 0.0
-1639.820843696025 -574.459719734874 -1105.837839090408 92.08716158150263 0.0 0.0
-1563.9964243282677 -479.4704948688186 -1020.2883418578043 86.44303517512165 0.0 0.0
-1466.516928414889 -382.8354748052607 -923.1471062169346 83.02066612887455 0.0 0.0
-1365.1445505336642 -294.76222021990054 -828.3616243723359 79.56891137376236 0.0 0.0
-1272.8565047315458 -223.8356783304807 -746.7533721681102 76.72924325265384 0.0 0.0
-1197.336029046808 -174.87644963053188 -684.5616194992942 76.0807330442748 0.0 0.0
-1132.91174956026 -141.16567334853718 -635.4622454448906 77.54330231059976 0.0 0.0
-1071.175424731533 -113.25940296563282 -590.4639328986723 79.85789752221545 0.0 0.0
-1007.7670215131482 -86.7699298839147 -545.2231685632864 82.14854113334431 0.0 0.0
-941.3183629835479 -61.01656259697382 -498.72506325348525 84.10718268399215 0.0 0.0
-872.0401178514338 -36.96309696148801 -451.48011565303466 85.19087801516876 0.0 0.0
-799.9817498298834 -15.404993236728913 -403.64981423704376 84.37075552136315 0.0 0.0
-725.1448387013802 2.3804506051674963 -354.7071654404639 81.0319478822947 0.0 0.0
-645.3521857161298 16.50787606877598 -298.0754420840078 77.17004802603024 0.0 0.0
-555.8602851237595 27.290630787113393 -222.31475157307665 79.65970641588098 0.0 0.0
-447.45128100492525 31.169642123299532 -142.44891240121325 97.79723308299829 0.0 0.0
-329.900338548369 17.404317591748 -94.7161701716558 117.29705657039486 0.0 0.0
-224.89228211798394 1.3947191125085387 -67.04850841755439 127.39733792725173 0.0 0.0
-122.92831584508482 -21.16204733818549 -43.22710895498109 116.16934705119904 0.0 0.0
-34.31614177491009 -38.51863531573225 -21.850433127192698 56.718846782821686 0.0 0.0
-34.0751923700866 -17.605642174097678 -15.50425036325528 -38.4341187171404 0.0 0.0
-129.57527109826276 -12.846800859468589 -42.72662158731941 -88.93071282141716 0.0 0.0
-249.05562523131556 -0.10280220558794362 -74.74752823107104 -99.73561274523313 0.0 0.0
-373.18543544323643 18.342519795712427 -108.1955486312292 -88.96355660120034 0.0 0.0
-494.5801365319868 29.782952707147878 -168.16956872899823 -66.87222276444679 0.0 0.0
-592.9039754399166 26.041540050248074 -250.49378149241835 -54.41645888622401 0.0 0.0
-675.3535333665862 16.75487529701985 -317.86959830694326 -54.786757703650466 0.0 0.0
-752.7935309133005 3.5936611054455057 -369.37096206222617 -58.91281425937218 0.0 0.0
-829.5644646195194 -16.65506374894602 -419.60277065605356 -62.29590330117523 0.0 0.0
-905.0806006979731 -41.583257167685076 -470.61059077299444 -63.40112621891667 0.0 0.0
-978.6819335372948 -69.58994676858794 -521.9019991904776 -62.836185192102796 0.0 0.0
-1049.9391183474795 -99.78158234199748 -572.967886257505 -61.56351345848155 0.0 0.0
-1119.2296613558751 -131.49597071810626 -623.7188342009881 -60.03080142713769 0.0 0.0
-1187.0563776472457 -165.17624094548592 -674.6387422584729 -58.03783013814243 0.0 0.0
-1256.2083583368676 -203.0345039134972 -728.1961010773391 -55.76937129784832 0.0 0.0
-1334.1380042355 -253.26007399575622 -792.2038259788643 -54.628790173082635 0.0 0.0
-1430.6957824656145 -327.5146917549435 -877.5339547849989 -56.659747179361716 0.0 0.0
-1547.9725756674006 -430.68000692160194 -987.8119438482322 -62.05386632772028 0.0 0.0
-1658.5299381935492 -539.7799325337083 -1097.7448944152457 -69.92575463423238 0.0 0.0
-1743.1491588541946 -642.3808544546132 -1191.4960405308552 -81.26789294908473 0.0 0.0
-1743.1491588534232 -642.3808544538324 -1191.4960405301847 81.26789294908124 0.0 0.0
-1658.5299381943325 -539.7799325345923 -1097.7448944157477 69.92575463439496 0.0 0.0
-1547.9725756683538 -430.68000692270556 -987.8119438488206 62.05386632806674 0.0 0.0
-1430.6957824669284 -327.51469175640057 -877.533954785928 56.65974717935441 0.0 0.0
-1334.1380042361998 -253.2600739965609 -792.2038259792967 54.62879017300436 0.0 0.0
-1256.208358337383 -203.03450391421586 -728.1961010778131 55.769371297955175 0.0 0.0
-1187.0563776472004 -165.17624094558877 -674.6387422585324 58.0378301380986 0.0 0.0
-1119.2296613542917 -131.49597071674435 -623.7188341998014 60.030801427155396 0.0 0.0
-1049.9391183467826 -99.78158234152573 -572.9678862568746 61.56351345843696 0.0 0.0
-978.6819335369739 -69.58994676849925 -521.9019991902366 62.836185192043445 0.0 0.0
-905.0806006981227 -41.58325716820411 -470.61059077309113 63.401126219165654 0.0 0.0
-829.5644646193788 -16.65506374914817 -419.6027706559352 62.29590330124933 0.0 0.0
-752.7935309141593 3.5936611042371283 -369.37096206277545 58.91281425929876 0.0 0.0
-675.3535333661498 16.75487529722224 -317.8695983066209 54.786757703307316 0.0 0.0
-592.9039754394473 26.04154005044345 -250.49378149201038 54.41645888610558 0.0 0.0
-494.5801365314504 29.782952707348034 -168.16956872862812 66.87222276439331 0.0 0.0
-373.1854354431673 18.342519795308004 -108.19554863133453 88.96355660119532 0.0 0.0
-249.05562523111303 -0.10280220557432962 -74.74752823100619 99.73561274514772 0.0 0.0
-129.57527109827828 -12.84680085968263 -42.726621587388266 88.93071282137447 0.0 0.0
-34.075192370144045 -17.605642174060915 -15.504250363261487 38.43411871702511 0.0 0.0
-31.63874757644996 -3.5926361680465684 -10.569415123348957 -20.261968393117883 0.0 0.0
-132.69662530573078 -4.970386181776156 -41.30010344625208 -58.27708214774988 0.0 0.0
-272.945902543291 -1.4231555647366783 -82.3107174324083 -66.99202023185114 0.0 0.0
-416.72468655073277 20.072785209453787 -122.92200353811003 -56.84177141471868 0.0 0.0
-532.7160568203229 28.03594326058079 -193.7133010455437 -38.29429377161427 0.0 0.0
-620.5799414091973 23.820112092493602 -274.06860988523863 -31.57431055113082 0.0 0.0
-698.8222787841897 18.071329832441563 -332.06335707554126 -33.100648058894905 0.0 0.0
-775.6591494845134 4.294403728257265 -381.4084759304136 -36.63807572490068 0.0 0.0
-854.0613407756646 -17.67197032858087 -432.76064512768465 -39.56356929975859 0.0 0.0
-933.2426294240252 -45.936996762179916 -487.10781628099005 -40.79829129285666 0.0 0.0
-1011.3141145044727 -77.92934582652589 -542.5610668239456 -40.75119914118287 0.0 0.0
-1087.754984688575 -112.46472219261801 -598.3422916587896 -40.148817328403844 0.0 0.0
-1162.944342391635 -149.80715338657996 -654.8149470404533 -39.253478712949246 0.0 0.0
-1237.9684339220855 -190.1123757291776 -712.6216139080661 -37.891840131821304 0.0 0.0
-1313.7101070485944 -234.2005875855089 -772.6161721628592 -35.728350694471345 0.0 0.0
-1392.4376538496172 -284.9015884549671 -837.3215146908559 -33.23444390575661 0.0 0.0
-1482.7517028856266 -352.16884548117935 -916.0022285689846 -33.19279758835936 0.0 0.0
-1598.7849097783283 -452.69368185560916 -1024.1940855857574 -39.439667959757514 0.0 0.0
-1755.5502324019526 -605.9724700378813 -1179.3526391260762 -52.60652639794506 0.0 0.0
-1859.766337172844 -726.1675635704166 -1291.719849757276 -71.14854124682546 0.0 0.0
-1859.7663371713622 -726.16756356891 -1291.7198497562158 71.14854124673457 0.0 0.0
-1755.5502324017343 -605.9724700377269 -1179.352639125933 52.60652639808578 0.0 0.0
-1598.7849097786825 -452.6936818560895 -1024.1940855861435 39.43966795997314 0.0 0.0
-1482.751702883501 -352.16884547912196 -916.0022285673704 33.19279758810982 0.0 0.0
-1392.4376538486035 -284.90158845406245 -837.321514690015 33.23444390554262 0.0 0.0
-1313.7101070486503 -234.2005875857375 -772.6161721629229 35.72835069459122 0.0 0.0
-1237.968433922059 -190.11237572935852 -712.6216139080553 37.89184013196791 0.0 0.0
-1162.944342392394 -149.80715338755363 -654.8149470408883 39.25347871286621 0.0 0.0
-1087.7549846891475 -112.46472219344663 -598.3422916591196 40.14881732845384 0.0 0.0
-1011.3141145025694 -77.92934582486863 -542.5610668226586 40.75119914113242 0.0 0.0
-933.2426294233455 -45.93699676179722 -487.10781628055366 40.79829129287168 0.0 0.0
-854.0613407755329 -17.67197032874016 -432.76064512760905 39.563569299727824 0.0 0.0
-775.6591494838299 4.294403728612252 -381.40847592996914 36.63807572501767 0.0 0.0
-698.8222787838072 18.071329832486818 -332.06335707529144 33.100648059004264 0.0 0.0
-620.5799414088083 23.820112092525292 -274.0686098849104 31.574310551157552 0.0 0.0
-532.7160568196289 28.035943260975504 -193.71330104505424 38.29429377163998 0.0 0.0
-416.72468655033276 20.072785209523566 -122.92200353797259 56.84177141478185 0.0 0.0
-272.94590254305643 -1.4231555649045369 -82.31071743238827 66.99202023190237 0.0 0.0
-132.69662530567018 -4.970386181652585 -41.30010344619683 58.277082147707176 0.0 0.0
-31.63874757650614 -3.592636168138508 -10.56941512339339 20.26196839307945 0.0 0.0
-24.41828609772284 3.2054056204109074 -6.36386414319358 -3.5118182941534366 0.0 0.0
-128.9885361522452 1.5524152012673653 -38.23083628529334 -23.571860049625542 0.0 0.0
-298.29630483078796 -1.5196510226876931 -89.94478675604267 -28.115746791068656 0.0 0.0
-456.08563304584834 21.97373843237706 -139.66909596497726 -22.510972294150868 0.0 0.0
-563.9636839555558 25.940596824390234 -218.52685920150776 -12.87474407222096 0.0 0.0
-644.3430425522661 22.69705814194903 -292.9768531676383 -10.651851899031456 0.0 0.0
-718.1225810814103 18.606645737905026 -343.46664564769003 -11.83750480741402 0.0 0.0
-794.0258827377681 4.976632803514207 -390.9407365146567 -14.16423643195752 0.0 0.0
-874.1524107933724 -18.61440859140717 -443.61506668348414 -16.19032678632419 0.0 0.0
-956.94058596443 -49.92136749527265 -501.14978307370893 -17.36673297831379 0.0 0.0
-1039.794952411956 -85.88608935726745 -560.9203319787532 -17.82547757647816 0.0 0.0
-1121.5192777806246 -125.32291781613168 -621.7585643336985 -17.824599818906442 0.0 0.0
-1202.8218929647578 -167.91093731796326 -683.8777178380642 -17.56480553176103 0.0 0.0
-1284.9225631573688 -214.6548860996857 -748.4153347788306 -16.916528957986184 0.0 0.0
-1368.326270181362 -266.20390548153983 -815.9719084651789 -15.620632070248714 0.0 0.0
-1452.0592692317605 -321.96208668151337 -885.7676229734744 -13.49716749867222 0.0 0.0
-1535.2241119010355 -381.9115288957371 -957.3102055117511 -11.456306297211354 0.0 0.0
-1626.5290589359065 -456.4046788877566 -1040.0706462808002 -14.336127107459852 0.0 0.0
-1759.2748072990505 -582.1955688585742 -1169.1523478076642 -30.327439038451757 0.0 0.0
-2067.217652373595 -901.0721441464048 -1482.8991249344267 -59.385316209803875 0.0 0.0
-2067.2176523726384 -901.0721441454443 -1482.89912493374 59.385316209727144 0.0 0.0
-1759.2748072976 -582.1955688571536 -1169.1523478066506 30.327439038431372 0.0 0.0
-1626.5290589361643 -456.40467888811907 -1040.070646280696 14.336127107464252 0.0 0.0
-1535.2241119007488 -381.9115288955477 -957.3102055113694 11.456306296949975 0.0 0.0
-1452.0592692328178 -321.9620866827159 -885.7676229741959 13.497167498480632 0.0 0.0
-1368.3262701802028 -266.2039054805463 -815.9719084643214 15.620632070316468 0.0 0.0
-1284.922563156738 -214.65488609925467 -748.4153347783389 16.916528958021765 0.0 0.0
-1202.8218929642387 -167.910937317655 -683.8777178377245 17.56480553161947 0.0 0.0
-1121.5192777812167 -125.3229178169715 -621.7585643340806 17.82459981893242 0.0 0.0
-1039.7949524124683 -85.88608935807015 -560.9203319790894 17.82547757648934 0.0 0.0
-956.9405859643368 -49.92136749545308 -501.1497830736342 17.366732978244087 0.0 0.0
-874.152410793172 -18.61440859150497 -443.61506668333493 16.190326786260982 0.0 0.0
-794.0258827378941 4.976632803061207 -390.94073651475543 14.164236432019411 0.0 0.0
-718.122581081217 18.6066457377529 -343.46664564760033 11.837504807549061 0.0 0.0
-644.343042551375 22.697058142572942 -292.97685316706514 10.651851899063463 0.0 0.0
-563.9636839548419 25.9405968247706 -218.5268592009792 12.874744072099153 0.0 0.0
-456.0856330457728 21.973738432089924 -139.66909596498922 22.510972294163277 0.0 0.0
-298.29630483050823 -1.5196510226898212 -89.94478675595941 28.11574679097471 0.0 0.0
-128.9885361523234 1.5524152010386416 -38.23083628538542 23.571860049570034 0.0 0.0
-24.41828609772411 3.2054056202540475 -6.363864143241019 3.5118182941406264 0.0 0.0
SCALARS Strain float 6
LOOKUP_TABLE default
0.013999829081378767 -0.0150732542161221 0.0 -0.0084398583460627 0.0 0.0
0.0028868344563806048 -0.002029520501084292 0.0 0.001440800212375748 0.0 0.0
0.0019441677229482361 -0.0008149039175429085 0.0 -3.307720979850437e-05 0.0 0.0
0.0026394634975854363 -0.0013911035940590288 0.0 -0.00027082668628086726 0.0 0.0
0.004585240339437618 -0.0030619880362847685 0.0 -0.00037055074050657 0.0 0.0
0.008564482660233713 -0.006741844292116106 0.0 -0.00060932202574282 0.0 0.0
0.015099752909328738 -0.013016315480209872 0.0 -0.001022381968469599 0.0 0.0
0.024643068220118455 -0.022284026462016993 0.0 -0.0016779831380223098 0.0 0.0
0.03740319730787235 -0.03473210379089009 0.0 -0.002593344012316978 0.0 0.0
0.05329455353606829 -0.050280685524191515 0.0 -0.003679854186671161 0.0 0.0
0.07203685236776233 -0.06866478099469608 0.0 -0.004802468083182521 0.0 0.0
0.09328285620683012 -0.08954542072377958 0.0 -0.0058890217197122285 0.0 0.0
0.11666576502567205 -0.11255720061594587 0.0 -0.006943351656513386 0.0 0.0
0.14176142842637893 -0.13727164132839853 0.0 -0.007939530304555797 0.0 0.0
0.16797540085711737 -0.16309200224424636 0.0 -0.008800586620206219 0.0 0.0
0.19442810544359462 -0.18914432317625884 0.0 -0.009336214183539582 0.0 0.0
0.2199220310715781 -0.21424491018446812 0.0 -0.009270382131967514 0.0 0.0
0.24298927076414423 -0.23693581528106566 0.0 -0.008447658520668533 0.0 0.0
0.2618921522720512 -0.25546661640546997 0.0 -0.007589669148758249 0.0 0.0
0.27386094163596175 -0.2667808710813233 0.0 -0.010066190099588979 0.0 0.0
0.2738609416359463 -0.26678087108130644 0.0 0.010066190099600969 0.0 0.0
0.26189215227199686 -0.2554666164054158 0.0 0.007589669148794664 0.0 0.0
0.24298927076404997 -0.23693581528097152 0.0 0.008447658520686074 0.0 0.0
0.2199220310714573 -0.21424491018435088 0.0 0.009270382131971289 0.0 0.0
0.19442810544346262 -0.18914432317613983 0.0 0.009336214183525371 0.0 0.0
0.16797540085698176 -0.16309200224412201 0.0 0.008800586620203 0.0 0.0
0.14176142842624678 -0.1372716413282582 0.0 0.007939530304557296 0.0 0.0
0.11666576502553588 -0.11255720061581664 0.0 0.006943351656511609 0.0 0.0
0.09328285620670257 -0.08954542072365079 0.0 0.005889021719702625 0.0 0.0
0.07203685236764912 -0.06866478099457751 0.0 0.0048024680831719735 0.0 0.0
0.05329455353597301 -0.050280685524099145 0.0 0.003679854186657283 0.0 0.0
0.03740319730779823 -0.034732103790822144 0.0 0.0025933440123159235 0.0 0.0
0.024643068220064734 -0.02228402646196237 0.0 0.0016779831380184795 0.0 0.0
0.015099752909292885 -0.01301631548016946 0.0 0.0010223819684669344 0.0 0.0
0.008564482660211425 -0.00674184429209479 0.0 0.0006093220257374354 0.0 0.0
0.004585240339427865 -0.003061988036277885 0.0 0.0003705507405050157 0.0 0.0
0.0026394634975828724 -0.0013911035940581407 0.0 0.00027082668627925743 0.0 0.0
0.0019441677229473653 -0.0008149039175410211 0.0 3.307720979839335e-05 0.0 0.0
0.0028868344563779957 -0.002029520501081572 0.0 -0.0014408002123720842 0.0 0.0
0.01399982908136721 -0.015073254216107303 0.0 0.008439858346024232 0.0 0.0
0.01013407756532507 -0.011582444192534569 0.0 -0.010376892271352245 0.0 0.0
0.0015290658175482752 -0.0010134000051027492 0.0 0.0001212051315807594 0.0 0.0
0.0016455348786545837 -0.0005712681241498707 0.0 -0.00012362512888069999 0.0 0.0
0.0022737992494202344 -0.0011282635354823434 0.0 -0.0005457547314334787 0.0 0.0
0.003837622326609738 -0.0024141225953175915 0.0 -0.0008115607165011807 0.0 0.0
0.007267001175427709 -0.005526344154267004 0.0 -0.0013909901464844165 0.0 0.0
0.013109997690196266 -0.011086491005180665 0.0 -0.0024048591930027063 0.0 0.0
0.021746980102073522 -0.019442439876933282 0.0 -0.003917322417746227 0.0 0.0
0.033302406664497276 -0.03069497572210178 0.0 -0.005920750189086832 0.0 0.0
0.047639233460324046 -0.044709036770055555 0.0 -0.008214425390297542 0.0 0.0
0.06447998698062074 -0.061218411287104146 0.0 -0.010547901327190967 0.0 0.0
0.08352820791447683 -0.07993098665430143 0.0 -0.012787524720336896 0.0 0.0
0.10449140680175736 -0.10055290971796893 0.0 -0.014975609021403546 0.0 0.0
0.1270129153343119 -0.122725778358733 0.0 -0.01708574527123119 0.0 0.0
0.15058448264366583 -0.1459408503408106 0.0 -0.018935864412289227 0.0 0.0
0.17446524375231884 -0.16945968018545532 0.0 -0.020164442684359685 0.0 0.0
0.19762109473387324 -0.1922512691196161 0.0 -0.020279363529895678 0.0 0.0
0.2186723894433808 -0.21293144614425064 0.0 -0.019112418842990087 0.0 0.0
0.23567926359093339 -0.22950431732835685 0.0 -0.017289250233141318 0.0 0.0
0.24591640280155833 -0.23941035982638503 0.0 -0.014681450485237946 0.0 0.0
0.24591640280154206 -0.2394103598263655 0.0 0.014681450485269809 0.0 0.0
0.23567926359088393 -0.2295043173283009 0.0 0.017289250233200493 0.0 0.0
0.21867238944329748 -0.21293144614417336 0.0 0.019112418843026946 0.0 0.0
0.19762109473376915 -0.19225126911951929 0.0 0.020279363529908556 0.0 0.0
0.17446524375220163 -0.1694596801853434 0.0 0.020164442684346362 0.0 0.0
0.1505844826435444 -0.14594085034069604 0.0 0.01893586441228634 0.0 0.0
0.1270129153341919 -0.12272577835861309 0.0 0.017085745271228525 0.0 0.0
0.10449140680163632 -0.10055290971784725 0.0 0.014975609021396163 0.0 0.0
0.08352820791436327 -0.0799309866541944 0.0 0.012787524720318633 0.0 0.0
0.06447998698051893 -0.06121841128700378 0.0 0.010547901327173093 0.0 0.0
0.04763923346023913 -0.04470903676997029 0.0 0.008214425390277058 0.0 0.0
0.03330240666443063 -0.030694975722038276 0.0 0.005920750189076562 0.0 0.0
0.021746980102024138 -0.019442439876889317 0.0 0.003917322417734792 0.0 0.0
0.013109997690163855 -0.011086491005151355 0.0 0.002404859192996822 0.0 0.0
0.007267001175409349 -0.005526344154248797 0.0 0.0013909901464798646 0.0 0.0
0.003837622326601897 -0.00241412259531093 0.0 0.0008115607164982941 0.0 0.0
0.0022737992494185066 -0.001128263535480789 0.0 0.0005457547314319244 0.0 0.0
0.0016455348786538204 -0.0005712681241492046 0.0 0.00012362512888086652 0.0 0.0
0.0015290658175478589 -0.001013400005101306 0.0 -0.00012120513158153656 0.0 0.0
0.010134077565309763 -0.011582444192517912 0.0 0.010376892271323213 0.0 0.0
0.007610292557235984 -0.009251786258489436 0.0 -0.009700935787638088 0.0 0.0
0.0008862310270749268 -0.0006657849861896326 0.0 -0.0006311796155948346 0.0 0.0
0.001311782446722129 -0.00041072253586360574 0.0 -0.00045076632480473 0.0 0.0
0.00193375638332062 -0.0008879059546489376 0.0 -0.000791871472098693 0.0 0.0
0.003170757577425923 -0.0018644868163273376 0.0 -0.001163686471369274 0.0 0.0
0.006024665065946511 -0.0043849112749945185 0.0 -0.00196265877505275 0.0 0.0
0.011136102849013507 -0.009184009650582414 0.0 -0.0034301849886361757 0.0 0.0
0.018813039406841356 -0.01657691517033877 0.0 -0.005629928416074237 0.0 0.0
0.02911643984984584 -0.02658613479636296 0.0 -0.00847869442333099 0.0 0.0
0.04186801783727015 -0.03903579898818155 0.0 -0.011694201176868146 0.0 0.0
0.056795438675102505 -0.0536579927120977 0.0 -0.014966086783160804 0.0 0.0
0.07364080714104335 -0.07019591788962876 0.0 -0.018124093523604334 0.0 0.0
0.09216569869941559 -0.08841011010163768 0.0 -0.02119164703997234 0.0 0.0
0.11209031775834687 -0.1080202499647287 0.0 -0.024162873902165538 0.0 0.0
0.13301234132673523 -0.12862412509943155 0.0 -0.026817865341887293 0.0 0.0
0.15433676812143382 -0.14962393907531357 0.0 -0.028676989948626774 0.0 0.0
0.17518229883785802 -0.17013147765142378 0.0 -0.02916428023154627 0.0 0.0
0.1942312730266404 -0.18881217042898069 0.0 -0.02793586901227396 0.0 0.0
0.20959011317630005 -0.20381098185744673 0.0 -0.02451978393287979 0.0 0.0
0.21914446195037768 -0.21310038763562122 0.0 -0.017806140542588333 0.0 0.0
0.2191444619503616 -0.21310038763559547 0.0 0.017806140542636517 0.0 0.0
0.20959011317625556 -0.20381098185738367 0.0 0.024519783932954953 0.0 0.0
0.19423127302656773 -0.18881217042889187 0.0 0.027935869012326586 0.0 0.0
0.17518229883776748 -0.17013147765133496 0.0 0.02916428023157036 0.0 0.0
0.1543367681213315 -0.14962393907520255 0.0 0.028676989948617893 0.0 0.0
0.13301234132662676 -0.12862412509930898 0.0 0.026817865341879132 0.0 0.0
0.11209031775823997 -0.1080202499646159 0.0 0.024162873902159987 0.0 0.0
0.09216569869930957 -0.08841011010153021 0.0 0.02119164703996279 0.0 0.0
0.07364080714094334 -0.07019591788953328 0.0 0.018124093523580576 0.0 0.0
0.05679543867501269 -0.05365799271201377 0.0 0.014966086783138377 0.0 0.0
0.04186801783719557 -0.039035798988111825 0.0 0.011694201176841501 0.0 0.0
0.029116439849786735 -0.02658613479630567 0.0 0.008478694423316724 0.0 0.0
0.018813039406797183 -0.016576915170296136 0.0 0.005629928416062024 0.0 0.0
0.011136102848985363 -0.009184009650553993 0.0 0.0034301849886262392 0.0 0.0
0.006024665065931689 -0.004384911274982084 0.0 0.0019626587750462554 0.0 0.0
0.0031707575774194696 -0.001864486816319566 0.0 0.0011636864713649997 0.0 0.0
0.001933756383319607 -0.0008879059546469392 0.0 0.0007918714720946962 0.0 0.0
0.0013117824467217543 -0.0004107225358632727 0.0 0.0004507663248012328 0.0 0.0
0.0008862310270746909 -0.0006657849861885223 0.0 0.0006311796155922256 0.0 0.0
0.007610292557221565 -0.009251786258474018 0.0 0.009700935787612108 0.0 0.0
0.0058173235497639975 -0.007487697535832116 0.0 -0.00828484465854551 0.0 0.0
0.0005507036550502914 -0.0004953127134873503 0.0 -0.0012489217221764437 0.0 0.0
0.0010144126708133278 -0.0002984219266259913 0.0 -0.0009003945383987411 0.0 0.0
0.0016169179614497903 -0.0006904577522792721 0.0 -0.0010659092970475847 0.0 0.0
0.0025826170982255064 -0.001414294870328181 0.0 -0.0014571318248312592 0.0 0.0
0.004875024298164193 -0.00335900751798901 0.0 -0.002351482714196995 0.0 0.0
0.009198916453649564 -0.007344488069292332 0.0 -0.0041086469618944466 0.0 0.0
0.015878638659639274 -0.013724406164213665 0.0 -0.006809669723190748 0.0 0.0
0.024891009210134776 -0.02245389343306714 0.0 -0.01025893598067179 0.0 0.0
0.036031606169838956 -0.03331252846391575 0.0 -0.014127998205699988 0.0 0.0
0.04903048865087266 -0.04603149716476285 0.0 -0.018062294199702456 0.0 0.0
0.06366229468494426 -0.06038381965871409 0.0 -0.02188654658122191 0.0 0.0
0.07974058892055619 -0.07618227966752489 0.0 -0.025615113756227714 0.0 0.0
0.09705449504742046 -0.09321533336406151 0.0 -0.029191686456512655 0.0 0.0
0.1153055846131273 -0.11118656396080961 0.0 -0.03240920121577273 0.0 0.0
0.13404851416591418 -0.12964295343495102 0.0 -0.03483451948702265 0.0 0.0
0.15255967524657418 -0.14784487324339768 0.0 -0.03581313395431185 0.0 0.0
0.16967024997035385 -0.164624238940549 0.0 -0.0345749426600358 0.0 0.0
0.18374840788387756 -0.17838456426640636 0.0 -0.02990527683865707 0.0 0.0
0.19302915426622821 -0.1874274175037529 0.0 -0.020316729195865135 0.0 0.0
0.19302915426621373 -0.18742741750374492 0.0 0.02031672919593286 0.0 0.0
0.18374840788383717 -0.17838456426638505 0.0 0.02990527683874311 0.0 0.0
0.16967024997029168 -0.16462423894050815 0.0 0.034574942660097197 0.0 0.0
0.15255967524649533 -0.14784487324332485 0.0 0.03581313395433705 0.0 0.0
0.13404851416582542 -0.12964295343486487 0.0 0.03483451948701477 0.0 0.0
0.11530558461303164 -0.1111865639607208 0.0 0.03240920121575619 0.0 0.0
0.09705449504732833 -0.09321533336397625 0.0 0.029191686456501387 0.0 0.0
0.0797405889204641 -0.07618227966744007 0.0 0.0256151137562165 0.0 0.0
0.06366229468485746 -0.06038381965862394 0.0 0.021886546581193378 0.0 0.0
0.04903048865079579 -0.046031497164681134 0.0 0.018062294199674866 0.0 0.0
0.03603160616977413 -0.03331252846384514 0.0 0.014127998205670678 0.0 0.0
0.024891009210083193 -0.02245389343301385 0.0 0.01025893598064842 0.0 0.0
0.015878638659600874 -0.013724406164174141 0.0 0.006809669723170986 0.0 0.0
0.009198916453625805 -0.007344488069267907 0.0 0.004108646961885509 0.0 0.0
0.004875024298152175 -0.0033590075179752432 0.0 0.002351482714189279 0.0 0.0
0.002582617098220663 -0.0014142948703246283 0.0 0.0014571318248265963 0.0 0.0
0.001616917961449471 -0.0006904577522779398 0.0 0.0010659092970473072 0.0 0.0
0.0010144126708129253 -0.00029842192662754563 0.0 0.0009003945383957435 0.0 0.0
0.0005507036550507771 -0.0004953127134869062 0.0 0.0012489217221721138 0.0 0.0
0.005817323549751341 -0.00748769753581887 0.0 0.008284844658524193 0.0 0.0
0.004433070409964379 -0.006042364224033037 0.0 -0.006807264980236871 0.0 0.0
0.00036595872653084893 -0.00039389176149340344 0.0 -0.0017302324200145214 0.0 0.0
0.000769321039377463 -0.00022177984020621544 0.0 -0.0013564317793298142 0.0 0.0
0.0013231589716663356 -0.0005313996843872015 0.0 -0.0013752093332671245 0.0 0.0
0.0020699638908519835 -0.0010570138237624427 0.0 -0.0017184033847153501 0.0 0.0
0.003838019497516998 -0.0024751326560439324 0.0 -0.0026187617019953757 0.0 0.0
0.007346909260398882 -0.005616694164301883 0.0 -0.0044620613691874755 0.0 0.0
0.012975474535665985 -0.010925530621701096 0.0 -0.007416596659789443 0.0 0.0
0.020670333367174137 -0.018343556386153814 0.0 -0.011257102262893559 0.0 0.0
0.030178073266604197 -0.027589128352317083 0.0 -0.015517941069755459 0.0 0.0
0.04123425151376797 -0.03838966492032725 0.0 -0.019849634142134753 0.0 0.0
0.05364089173064726 -0.05054549846186607 0.0 -0.024072611258829868 0.0 0.0
0.0672633171276859 -0.06391898045390754 0.0 -0.02819866252075176 0.0 0.0
0.08195993990091935 -0.07836817296905618 0.0 -0.03217039087197693 0.0 0.0
0.09751981093166376 -0.09368399444372777 0.0 -0.035753635742622136 0.0 0.0
0.113625161890133 -0.10954146877535553 0.0 -0.03856894304785785 0.0 0.0
0.1297461577326914 -0.12539664662386674 0.0 -0.040009602952627454 0.0 0.0
0.1449845730531579 -0.1403456969288417 0.0 -0.03899946182580705 0.0 0.0
0.158006912081606 -0.15308107839500096 0.0 -0.0337416675383998 0.0 0.0
0.16727433827547344 -0.1621156814986513 0.0 -0.022413424057529774 0.0 0.0
0.16727433827546026 -0.16211568149863975 0.0 0.02241342405760338 0.0 0.0
0.15800691208157006 -0.1530810783949601 0.0 0.03374166753849306 0.0 0.0
0.14498457305310464 -0.1403456969287804 0.0 0.03899946182588088 0.0 0.0
0.129746157732624 -0.12539664662379568 0.0 0.040009602952653545 0.0 0.0
0.11362516189005611 -0.10954146877527826 0.0 0.03856894304784819 0.0 0.0
0.09751981093158307 -0.09368399444365494 0.0 0.03575363574260537 0.0 0.0
0.08195993990084116 -0.07836817296897536 0.0 0.032170390871968824 0.0 0.0
0.06726331712760775 -0.06391898045383293 0.0 0.02819866252073744 0.0 0.0
0.0536408917305744 -0.050545498461789684 0.0 0.02407261125880078 0.0 0.0
0.0412342515137038 -0.038389664920263744 0.0 0.01984963414210794 0.0 0.0
0.030178073266548755 -0.027589128352262904 0.0 0.015517941069720376 0.0 0.0
0.020670333367130145 -0.018343556386111626 0.0 0.011257102262868801 0.0 0.0
0.012975474535634579 -0.010925530621673119 0.0 0.007416596659770347 0.0 0.0
0.007346909260379175 -0.005616694164282787 0.0 0.004462061369174486 0.0 0.0
0.0038380194975078386 -0.0024751326560346065 0.0 0.0026187617019872156 0.0 0.0
0.0020699638908486806 -0.0010570138237617765 0.0 0.001718403384712297 0.0 0.0
0.0013231589716660719 -0.0005313996843885338 0.0 0.001375209333265237 0.0 0.0
0.0007693210393774907 -0.0002217798402059934 0.0 0.0013564317793280378 0.0 0.0
0.0003659587265310016 -0.0003938917614917381 0.0 0.001730232420014688 0.0 0.0
0.004433070409953888 -0.006042364224021204 0.0 0.006807264980219996 0.0 0.0
0.003327205319287485 -0.004824471439798583 0.0 -0.005498588127718751 0.0 0.0
0.00025579150386004224 -0.00032305339419214096 0.0 -0.0020906192767609633 0.0 0.0
0.0005668129376104891 -0.0001651576531638277 0.0 -0.0017565644012583204 0.0 0.0
0.0010450007277525708 -0.0003983300567560466 0.0 -0.0016920893794246106 0.0 0.0
0.001626551604489268 -0.000779472905778622 0.0 -0.0019691380000686487 0.0 0.0
0.002915361295562968 -0.0017467197368752352 0.0 -0.0028019432746109185 0.0 0.0
0.005629453469387619 -0.004062745255567712 0.0 -0.004599819040387532 0.0 0.0
0.010157940758507594 -0.00824804415326108 0.0 -0.0075333764888795285 0.0 0.0
0.0164955750650147 -0.014302684777421693 0.0 -0.011452511891107742 0.0 0.0
0.024354857009386666 -0.021916151116472715 0.0 -0.01585634314373252 0.0 0.0
0.03345561942317474 -0.030785851510224393 0.0 -0.020315870824847093 0.0 0.0
0.043628296755061635 -0.04073565892579101 0.0 -0.024673566338737074 0.0 0.0
0.05478628385374554 -0.051676542152010896 0.0 -0.02894497984654898 0.0 0.0
0.066855382603768 -0.06353139191440604 0.0 -0.03305657006787255 0.0 0.0
0.0797056010620939 -0.07616982935553196 0.0 -0.03679563081250259 0.0 0.0
0.09311832698749062 -0.08937527846006699 0.0 -0.03983470077695128 0.0 0.0
0.10676775661121896 -0.10281042431852416 0.0 -0.04163336227921821 0.0 0.0
0.12011012483711722 -0.11591361197116257 0.0 -0.04109151666245381 0.0 0.0
0.13218246127299482 -0.12772594493201428 0.0 -0.03604272182485324 0.0 0.0
0.14162225409442555 -0.1369225378159804 0.0 -0.024157408982957262 0.0 0.0
0.141622254094414 -0.13692253781597152 0.0 0.024157408983033757 0.0 0.0
0.1321824612729641 -0.1277259449319832 0.0 0.03604272182494883 0.0 0.0
0.12011012483707306 -0.11591361197111638 0.0 0.04109151666252786 0.0 0.0
0.10676775661116178 -0.10281042431846998 0.0 0.041633362279245745 0.0 0.0
0.09311832698742656 -0.0893752784600057 0.0 0.03983470077693885 0.0 0.0
0.07970560106202851 -0.07616982935547156 0.0 0.03679563081248349 0.0 0.0
0.06685538260370227 -0.0635313919143412 0.0 0.03305657006785401 0.0 0.0
0.05478628385368245 -0.051676542151947835 0.0 0.02894497984653277 0.0 0.0
0.04362829675500324 -0.04073565892573994 0.0 0.024673566338709096 0.0 0.0
0.033455619423122696 -0.030785851510175544 0.0 0.02031587082481756 0.0 0.0
0.024354857009341147 -0.02191615111643186 0.0 0.015856343143697438 0.0 0.0
0.016495575064978507 -0.014302684777391939 0.0 0.011452511891083539 0.0 0.0
0.010157940758482864 -0.008248044153243317 0.0 0.007533376488860433 0.0 0.0
0.005629453469372048 -0.00406274525555661 0.0 0.004599819040374764 0.0 0.0
0.0029153612955565844 -0.0017467197368701282 0.0 0.0028019432746027584 0.0 0.0
0.0016265516044871586 -0.0007794729057772898 0.0 0.001969138000060766 0.0 0.0
0.0010450007277520434 -0.0003983300567549364 0.0 0.0016920893794216685 0.0 0.0
0.000566812937611183 -0.00016515765316316156 0.0 0.0017565644012538795 0.0 0.0
0.0002557915038596814 -0.0003230533941911973 0.0 0.002090619276758965 0.0 0.0
0.0033272053192789364 -0.004824471439789171 0.0 0.005498588127708037 0.0 0.0
0.002437741485054934 -0.003789919626871363 0.0 -0.004405573387697759 0.0 0.0
0.00018163110896224355 -0.00026864284692562634 0.0 -0.002345981842200806 0.0 0.0
0.00039153416577708544 -0.0001170952309044182 0.0 -0.0020754467976777935 0.0 0.0
0.0007748902924709367 -0.0002784089044438609 0.0 -0.001991087906429767 0.0 0.0
0.0012328493951117014 -0.0005604139029464772 0.0 -0.0022234349340876647 0.0 0.0
0.002114043967384127 -0.0011690564261463976 0.0 -0.0029172424750853465 0.0 0.0
0.0040655945939687965 -0.002719812675594735 0.0 -0.004523916402403794 0.0 0.0
0.007494899020343809 -0.005769727226543342 0.0 -0.007234215459219762 0.0 0.0
0.01242738820879602 -0.010407021200893318 0.0 -0.010901160583864256 0.0 0.0
0.018608749018822424 -0.01634940683561359 0.0 -0.015119159402037674 0.0 0.0
0.025742443426920836 -0.023275342225461237 0.0 -0.019451461785353064 0.0 0.0
0.03367715647065178 -0.03101401654134861 0.0 -0.023677991490880346 0.0 0.0
0.04236385410085533 -0.039515775140788634 0.0 -0.02781933526184477 0.0 0.0
0.05179215615140059 -0.048764720672041406 0.0 -0.03184050842360775 0.0 0.0
0.061912312662469465 -0.058706187298843915 0.0 -0.035523143114596256 0.0 0.0
0.07259349215240557 -0.0692124786545909 0.0 -0.03853849041873458 0.0 0.0
0.08366784729725599 -0.08012831937044407 0.0 -0.040542118270536665 0.0 0.0
0.0949812368280338 -0.09126781998801903 0.0 -0.04069423762518665 0.0 0.0
0.10606776792264741 -0.10212811834758995 0.0 -0.03668805901746042 0.0 0.0
0.11580371682053814 -0.1115962191716795 0.0 -0.02553259772139016 0.0 0.0
0.11580371682052912 -0.11159621917166884 0.0 0.025532597721459438 0.0 0.0
0.10606776792262243 -0.10212811834757218 0.0 0.0366880590175509 0.0 0.0
0.09498123682799886 -0.09126781998798084 0.0 0.040694237625255925 0.0 0.0
0.08366784729720969 -0.08012831937040144 0.0 0.04054211827056542 0.0 0.0
0.07259349215235522 -0.06921247865453939 0.0 0.038538490418726035 0.0 0.0
0.061912312662417646 -0.05870618729879151 0.0 0.03552314311457683 0.0 0.0
0.05179215615134897 -0.048764720671998774 0.0 0.03184050842359487 0.0 0.0
0.04236385410080851 -0.03951577514074467 0.0 0.027819335261832 0.0 0.0
0.03367715647060737 -0.031014016541308642 0.0 0.0236779914908557 0.0 0.0
0.025742443426879813 -0.02327534222542038 0.0 0.019451461785321533 0.0 0.0
0.018608749018787785 -0.016349406835575397 0.0 0.01511915940200026 0.0 0.0
0.012427388208767931 -0.010407021200861788 0.0 0.010901160583842273 0.0 0.0
0.007494899020325241 -0.005769727226520249 0.0 0.00723421545920333 0.0 0.0
0.0040655945939575555 -0.0027198126755823004 0.0 0.004523916402394024 0.0 0.0
0.0021140439673796307 -0.0011690564261397363 0.0 0.0029172424750784076 0.0 0.0
0.0012328493951105357 -0.0005604139029460331 0.0 0.002223434934083224 0.0 0.0
0.0007748902924708534 -0.0002784089044423066 0.0 0.001991087906427713 0.0 0.0
0.000391534165777474 -0.00011709523090408513 0.0 0.002075446797673519 0.0 0.0
0.00018163110896213253 -0.0002686428469255153 0.0 0.00234598184220014 0.0 0.0
0.0024377414850484946 -0.0037899196268641397 0.0 0.0044055733876892655 0.0 0.0
0.001734034873718815 -0.0029253022748756408 0.0 -0.0035318120810178266 0.0 0.0
0.00011806247837842232 -0.00022300499704919208 0.0 -0.002501735397187843 0.0 0.0
0.00023060138787023288 -6.941576591512622e-05 0.0 -0.002312563542534285 0.0 0.0
0.0005090957655212447 -0.00016163464670215788 0.0 -0.002244456566771691 0.0 0.0
0.0008626536293547538 -0.0003731298119584725 0.0 -0.0024663574694577806 0.0 0.0
0.001428162663259569 -0.0007325591105513674 0.0 -0.0030340794746475663 0.0 0.0
0.002678731170881854 -0.0016271661207425403 0.0 -0.004313588696455262 0.0 0.0
0.005031755759270146 -0.003569268555989602 0.0 -0.00656698241744802 0.0 0.0
0.008542630980192284 -0.006754615713512102 0.0 -0.009697229734552004 0.0 0.0
0.0130026779409593 -0.010974755921483226 0.0 -0.01336372101373684 0.0 0.0
0.018147422357669085 -0.015928127610791876 0.0 -0.017223096409786698 0.0 0.0
0.023838890357147313 -0.021449927273581526 0.0 -0.021042563670144787 0.0 0.0
0.030051592399945704 -0.02750878305201976 0.0 -0.024799495271661698 0.0 0.0
0.036822069345354286 -0.034136355299507315 0.0 -0.02846443193174386 0.0 0.0
0.044186040298444085 -0.04135856720949249 0.0 -0.0318871100998096 0.0 0.0
0.05211379041460598 -0.04914052417379189 0.0 -0.03471744492550366 0.0 0.0
0.06053306566504993 -0.057435893134499594 0.0 -0.03662575378645405 0.0 0.0
0.06956655936761888 -0.0663811332564812 0.0 -0.037407172962860114 0.0 0.0
0.07942917450118925 -0.07608400912559432 0.0 -0.03528361263499047 0.0 0.0
0.08949627669551971 -0.08584849425376895 0.0 -0.02642840358990184 0.0 0.0
0.08949627669551297 -0.08584849425376095 0.0 0.026428403589965677 0.0 0.0
0.07942917450117135 -0.07608400912556945 0.0 0.03528361263507773 0.0 0.0
0.06956655936759298 -0.06638113325645456 0.0 0.03740717296292706 0.0 0.0
0.06053306566501537 -0.0574358931344765 0.0 0.036625753786475146 0.0 0.0
0.05211379041456893 -0.04914052417377146 0.0 0.034717444925491225 0.0 0.0
0.04418604029840664 -0.04135856720945519 0.0 0.03188711009978773 0.0 0.0
0.036822069345318065 -0.034136355299473564 0.0 0.02846443193172976 0.0 0.0
0.030051592399915228 -0.02750878305198956 0.0 0.024799495271653704 0.0 0.0
0.023838890357116116 -0.02144992727354733 0.0 0.021042563670123138 0.0 0.0
0.018147422357639775 -0.015928127610763454 0.0 0.01722309640975961 0.0 0.0
0.013002677940935514 -0.010974755921463242 0.0 0.013363721013703755 0.0 0.0
0.008542630980173438 -0.006754615713496115 0.0 0.00969722973453191 0.0 0.0
0.005031755759257628 -0.0035692685559816084 0.0 0.00656698241743503 0.0 0.0
0.0026787311708746375 -0.001627166120736323 0.0 0.004313588696447601 0.0 0.0
0.001428162663257071 -0.0007325591105489249 0.0 0.0030340794746434585 0.0 0.0
0.0008626536293542819 -0.0003731298119573623 0.0 0.0024663574694557266 0.0 0.0
0.0005090957655211614 -0.00016163464670282401 0.0 0.0022444565667698035 0.0 0.0
0.00023060138787017737 -6.941576591568133e-05 0.0 0.0023125635425326196 0.0 0.0
0.00011806247837803374 -0.0002230049970483039 0.0 0.002501735397186511 0.0 0.0
0.0017340348737144295 -0.002925302274870086 0.0 0.003531812081010499 0.0 0.0
0.0012004482872235989 -0.002230006657237771 0.0 -0.0028642675306637666 0.0 0.0
4.786192189271121e-05 -0.00018366168165007135 0.0 -0.0025775396906294046 0.0 0.0
7.467909810296436e-05 -1.577045127088006e-05 0.0 -0.002473074046565271 0.0 0.0
0.00024872191050023806 -4.569374686180794e-05 0.0 -0.002437979875475782 0.0 0.0
0.0004931794371639819 -0.00019432735370594756 0.0 -0.0026742571120109693 0.0 0.0
0.000825763523455092 -0.00039910850900737316 0.0 -0.0031724138455654916 0.0 0.0
0.0014889743592859661 -0.0008069400885779565 0.0 -0.004069448418968058 0.0 0.0
0.0028123826123639672 -0.001750027256458786 0.0 -0.005635876008801111 0.0 0.0
0.004908719777905496 -0.0034804915627701938 0.0 -0.007920032637451335 0.0 0.0
0.007614469321845674 -0.005927774602368707 0.0 -0.010690395573053402 0.0 0.0
0.010736827153566664 -0.008864132337560449 0.0 -0.013721118456428205 0.0 0.0
0.014163527740051002 -0.01214637061032997 0.0 -0.016824625772715596 0.0 0.0
0.017897828251884906 -0.015756223490654087 0.0 -0.019955273070262458 0.0 0.0
0.02199992591457231 -0.01975081612424301 0.0 -0.023043114701755574 0.0 0.0
0.0265661562733992 -0.02421759093284237 0.0 -0.02600448600247207 0.0 0.0
0.03169920487228772 -0.0292443883578839 0.0 -0.028598836065559907 0.0 0.0
0.037456056398923326 -0.034884196588715 0.0 -0.030358234813996576 0.0 0.0
0.04399569584100496 -0.04137402612109309 0.0 -0.03125003970770246 0.0 0.0
0.052055854186503575 -0.049432926779653386 0.0 -0.03116276728971501 0.0 0.0
0.06224450779857571 -0.059299716997320395 0.0 -0.026503001937660198 0.0 0.0
0.06224450779857102 -0.059299716997315954 0.0 0.026503001937718595 0.0 0.0
0.052055854186494166 -0.049432926779634734 0.0 0.03116276728979639 0.0 0.0
0.043995695840988 -0.041374026121062 0.0 0.03125003970776741 0.0 0.0
0.037456056398899484 -0.034884196588677696 0.0 0.030358234814011786 0.0 0.0
0.03169920487226535 -0.029244388357852813 0.0 0.02859883606554503 0.0 0.0
0.026566156273377578 -0.024217590932819277 0.0 0.02600448600245242 0.0 0.0
0.021999925914552576 -0.019750816124225246 0.0 0.023043114701747802 0.0 0.0
0.017897828251869502 -0.015756223490642096 0.0 0.01995527307025957 0.0 0.0
0.01416352774003321 -0.012146370610309543 0.0 0.016824625772698054 0.0 0.0
0.010736827153550205 -0.008864132337544905 0.0 0.013721118456405224 0.0 0.0
0.007614469321832407 -0.0059277746023505 0.0 0.010690395573032418 0.0 0.0
0.004908719777895781 -0.003480491562755983 0.0 0.007920032637439789 0.0 0.0
0.0028123826123573337 -0.0017500272564494601 0.0 0.005635876008792673 0.0 0.0
0.0014889743592819138 -0.0008069400885761802 0.0 0.004069448418962063 0.0 0.0
0.0008257635234541483 -0.00039910850900737316 0.0 0.003172413845562161 0.0 0.0
0.0004931794371637321 -0.0001943273537086121 0.0 0.0026742571120090264 0.0 0.0
0.0002487219105003491 -4.569374686447247e-05 0.0 0.0024379798754731175 0.0 0.0
7.467909810321416e-05 -1.5770451271546193e-05 0.0 0.0024730740465624956 0.0 0.0
4.786192189210059e-05 -0.00018366168164990482 0.0 0.002577539690628683 0.0 0.0
0.0012004482872205735 -0.002230006657233937 0.0 0.002864267530657716 0.0 0.0
0.0008130167529438181 -0.0016872310343359342 0.0 -0.0023615900095640407 0.0 0.0
-3.494972628542703e-05 -0.00015113409733313876 0.0 -0.002597500099275063 0.0 0.0
-8.114570753076089e-05 4.6964963523743464e-05 0.0 -0.002569123412536789 0.0 0.0
-5.178988760817793e-06 6.84993506128162e-05 0.0 -0.0025684943989285336 0.0 0.0
0.0001191617380071619 -1.2540403081517937e-05 0.0 -0.002803735546650865 0.0 0.0
0.0002561624607762547 -0.00011123287812564442 0.0 -0.003306851718891557 0.0 0.0
0.00046617397392809123 -0.0002330800958363355 0.0 -0.0039800388052581015 0.0 0.0
0.0008822813428846776 -0.0004552295693360797 0.0 -0.004770400647942874 0.0 0.0
0.0015805968297371575 -0.0008746970289981171 0.0 -0.0059123553488414915 0.0 0.0
0.00249203291578734 -0.0015292070800976276 0.0 -0.007576525126470779 0.0 0.0
0.003539348461190528 -0.002384610027945655 0.0 -0.009714493698577908 0.0 0.0
0.004669985493059137 -0.0033882027855947072 0.0 -0.012112160071035327 0.0 0.0
0.005904664624898942 -0.004529000508696868 0.0 -0.014673834042470357 0.0 0.0
0.007314049449475085 -0.0058668899555938125 0.0 -0.017360696745719273 0.0 0.0
0.009041555192079859 -0.00753153069928203 0.0 -0.020114218113268856 0.0 0.0
0.011316768083842521 -0.00973457197762162 0.0 -0.022732331016907636 0.0 0.0
0.014415899248496428 -0.012727649126665241 0.0 -0.024699498900899397 0.0 0.0
0.018545902945351717 -0.016718957486464348 0.0 -0.025351400833112492 0.0 0.0
0.024217170691429035 -0.022457119995604735 0.0 -0.025513494997717268 0.0 0.0
0.033454268648502206 -0.03164236610023252 0.0 -0.025546253385131723 0.0 0.0
0.03345426864850096 -0.03164236610023252 0.0 0.025546253385176132 0.0 0.0
0.024217170691426204 -0.02245711999560296 0.0 0.025513494997775887 0.0 0.0
0.018545902945343945 -0.01671895748646346 0.0 0.025351400833149462 0.0 0.0
0.014415899248486158 -0.012727649126654583 0.0 0.024699498900895622 0.0 0.0
0.01131676808383661 -0.009734571977610962 0.0 0.022732331016887874 0.0 0.0
0.009041555192075307 -0.007531530699267819 0.0 0.020114218113254312 0.0 0.0
0.007314049449470561 -0.005866889955581378 0.0 0.017360696745712945 0.0 0.0
0.005904664624898054 -0.004529000508692427 0.0 0.01467383404246525 0.0 0.0
0.004669985493056056 -0.003388202785593375 0.0 0.012112160071018785 0.0 0.0
0.0035393484611880854 -0.002384610027946543 0.0 0.009714493698563031 0.0 0.0
0.002492032915784509 -0.001529207080094963 0.0 0.007576525126457012 0.0 0.0
0.0015805968297352424 -0.0008746970289998934 0.0 0.005912355348837273 0.0 0.0
0.0008822813428831233 -0.0004552295693329711 0.0 0.004770400647940765 0.0 0.0
0.000466173973926981 -0.00023308009583811184 0.0 0.00398003880525355 0.0 0.0
0.00025616246077617144 -0.00011123287812697669 0.0 0.0033068517188871716 0.0 0.0
0.00011916173800743945 -1.2540403081517937e-05 0.0 0.0028037355466503655 0.0 0.0
-5.178988760429215e-06 6.849935061126189e-05 0.0 0.0025684943989287 0.0 0.0
-8.114570753078865e-05 4.696496352452062e-05 0.0 0.002569123412535068 0.0 0.0
-3.494972628581561e-05 -0.00015113409733369387 0.0 0.002597500099274175 0.0 0.0
0.0008130167529419308 -0.0016872310343336253 0.0 0.002361590009561043 0.0 0.0
0.0005394343090908693 -0.001288880443184981 0.0 -0.0020339593212450047 0.0 0.0
-0.00012383431382664845 -0.00012228414527326592 0.0 -0.0025883520291746787 0.0 0.0
-0.00023671636187710954 0.00011548205707434533 0.0 -0.0026057562834609915 0.0 0.0
-0.00025276848046687506 0.0001803122012085101 0.0 -0.0026267751138836504 0.0 0.0
-0.0002525168489960483 0.0001693160443381192 0.0 -0.002845996258158401 0.0 0.0
-0.0003118969844769781 0.00017187238456228826 0.0 -0.0033305592103373693 0.0 0.0
-0.0004903793556121916 0.00025133030131296863 0.0 -0.003997624537094624 0.0 0.0
-0.0008920356199008106 0.00046263233545484894 0.0 -0.00478574522617492 0.0 0.0
-0.001581943512006606 0.0008770814079812617 0.0 -0.005919332171153258 0.0 0.0
-0.002492661482874886 0.0015323730608747255 0.0 -0.007578014016619172 0.0 0.0
-0.003557529359926398 0.002406881236117542 0.0 -0.009721659011912687 0.0 0.0
-0.004737001901501864 0.0034532982852395477 0.0 -0.012127837627718963 0.0 0.0
-0.006014174681189061 0.00461903755114168 0.0 -0.014684349618092507 0.0 0.0
-0.00731269786676883 0.005819237874534977 0.0 -0.01735511152027358 0.0 0.0
-0.008441333738046813 0.006866929358333884 0.0 -0.02011593187316074 0.0 0.0
-0.00907488944780882 0.0074479200676229596 0.0 -0.022903383167013125 0.0 0.0
-0.00876076361899436 0.0071398473435539955 0.0 -0.02569315738895961 0.0 0.0
-0.007135239734112758 0.005705441619089591 0.0 -0.028602118834598844 0.0 0.0
-0.003804832736646946 0.00284083254245715 0.0 -0.03125103642968674 0.0 0.0
0.004349381242787026 -0.004931711147059481 0.0 -0.03090813052712449 0.0 0.0
0.004349381242786082 -0.004931711147061257 0.0 0.03090813052714303 0.0 0.0
-0.0038048327366456414 0.002840832542461591 0.0 0.03125103642970839 0.0 0.0
-0.007135239734108151 0.005705441619091367 0.0 0.02860211883460395 0.0 0.0
-0.008760763618986395 0.007139847343545114 0.0 0.02569315738894773 0.0 0.0
-0.009074889447796386 0.00744792006761319 0.0 0.022903383166987923 0.0 0.0
-0.0084413337380351 0.006866929358328555 0.0 0.02011593187314742 0.0 0.0
-0.007312697866758755 0.005819237874530536 0.0 0.01735511152025726 0.0 0.0
-0.006014174681175155 0.004619037551123473 0.0 0.014684349618082959 0.0 0.0
-0.004737001901489291 0.0034532982852240046 0.0 0.01212783762769909 0.0 0.0
-0.0035575293599142965 0.0024068812361064396 0.0 0.009721659011892259 0.0 0.0
-0.0024926614828666427 0.0015323730608702846 0.0 0.007578014016599521 0.0 0.0
-0.0015819435120012215 0.0008770814079839262 0.0 0.00591933217114593 0.0 0.0
-0.0008920356198972579 0.00046263233545085214 0.0 0.004785745226169813 0.0 0.0
-0.0004903793556106928 0.0002513303013067514 0.0 0.003997624537086963 0.0 0.0
-0.0003118969844762842 0.00017187238456206622 0.0 0.0033305592103315407 0.0 0.0
-0.0002525168489955487 0.00016931604433723102 0.0 0.0028459962581534604 0.0 0.0
-0.00025276848046626443 0.00018031220120873215 0.0 0.0026267751138797646 0.0 0.0
-0.00023671636187733158 0.00011548205707434533 0.0 0.0026057562834581605 0.0 0.0
-0.0001238343138263709 -0.00012228414527332143 0.0 0.0025883520291736795 0.0 0.0
0.0005394343090897313 -0.0012888804431835967 0.0 0.0020339593212428952 0.0 0.0
0.0003520330964940088 -0.0010028976162936853 0.0 -0.0018235938857760203 0.0 0.0
-0.0002072298538241535 -8.967141417626223e-05 0.0 -0.0025439729139270506 0.0 0.0
-0.0003888831847849161 0.00018284512308941459 0.0 -0.00258796659065047 0.0 0.0
-0.0004928745959831837 0.0002886227265734842 0.0 -0.0026081407981312643 0.0 0.0
-0.0006170682979574904 0.0003464910880741634 0.0 -0.002796121833519627 0.0 0.0
-0.0008817315383071178 0.00046208446138606973 0.0 -0.003249853622145249 0.0 0.0
-0.0015118612032111178 0.0008291846985049034 0.0 -0.004122292662261717 0.0 0.0
-0.0028180379465082006 0.0017579266197818022 0.0 -0.00566541566947143 0.0 0.0
-0.004907312653585849 0.0034812819456560007 0.0 -0.00792822401419413 0.0 0.0
-0.007616305722663919 0.005932806141440317 0.0 -0.010693008506676982 0.0 0.0
-0.01075787328148542 0.008890594810301078 0.0 -0.01372118953880197 0.0 0.0
-0.014225882611628354 0.012211528306729225 0.0 -0.016800051690164408 0.0 0.0
-0.01799096949569845 0.015836340812415806 0.0 -0.019880033223332982 0.0 0.0
-0.02197248768720833 0.019676144291469022 0.0 -0.022950270370125314 0.0 0.0
-0.02594634605991178 0.023506041037162362 0.0 -0.026065491855669753 0.0 0.0
-0.02950883069301785 0.026933417553058447 0.0 -0.02926877722460297 0.0 0.0
-0.0321180631087106 0.02944145309758195 0.0 -0.03267195833481362 0.0 0.0
-0.033182218400701735 0.030439301165618993 0.0 -0.03615568999335128 0.0 0.0
-0.031555480915131634 0.028560769607134162 0.0 -0.037920677939211944 0.0 0.0
-0.02362537647543289 0.02024555593234112 0.0 -0.036047434481551566 0.0 0.0
-0.023625376475434806 0.020245555932339343 0.0 0.03604743448159653 0.0 0.0
-0.03155548091512511 0.028560769607127945 0.0 0.03792067793928178 0.0 0.0
-0.033182218400685276 0.030439301165602117 0.0 0.036155689993389695 0.0 0.0
-0.03211806310868548 0.029441453097558856 0.0 0.0326719583348164 0.0 0.0
-0.029508830692987792 0.026933417553026473 0.0 0.02926877722457899 0.0 0.0
-0.025946346059884495 0.023506041037133052 0.0 0.026065491855655987 0.0 0.0
-0.0219724876871831 0.019676144291438824 0.0 0.022950270370107106 0.0 0.0
-0.01799096949567 0.01583634081239449 0.0 0.019880033223320437 0.0 0.0
-0.014225882611601043 0.012211528306701691 0.0 0.016800051690141427 0.0 0.0
-0.01075787328145994 0.008890594810269992 0.0 0.013721189538771328 0.0 0.0
-0.007616305722643435 0.005932806141417224 0.0 0.010693008506649004 0.0 0.0
-0.004907312653572721 0.0034812819456413457 0.0 0.00792822401418225 0.0 0.0
-0.002818037946499735 0.0017579266197724763 0.0 0.005665415669459661 0.0 0.0
-0.0015118612032062884 0.0008291846985000184 0.0 0.004122292662252058 0.0 0.0
-0.0008817315383051472 0.0004620844613838493 0.0 0.003249853622141252 0.0 0.0
-0.0006170682979568798 0.00034649108807149887 0.0 0.002796121833518017 0.0 0.0
-0.0004928745959825453 0.0002886227265739283 0.0 0.0026081407981282667 0.0 0.0
-0.0003888831847848606 0.00018284512308985867 0.0 0.002587966590648638 0.0 0.0
-0.00020722985382332082 -8.967141417681734e-05 0.0 0.002543972913924608 0.0 0.0
0.00035203309649331493 -0.0010028976162931493 0.0 0.001823593885773911 0.0 0.0
0.00022340973314832757 -0.0007709185302050003 0.0 -0.0016267933216358443 0.0 0.0
-0.00028058229657079714 -5.196189489919956e-05 0.0 -0.002446486157417771 0.0 0.0
-0.0005339386950088953 0.00024526958482140593 0.0 -0.002512682503315933 0.0 0.0
-0.0007240405460137156 0.000391278258686345 0.0 -0.002516494872620345 0.0 0.0
-0.0009720237126771281 0.0005175926082856552 0.0 -0.002662406543734952 0.0 0.0
-0.001482282708918814 0.0007996666826675103 0.0 -0.003159425938946525 0.0 0.0
-0.002694780207022518 0.0016496467888948985 0.0 -0.004380176910810829 0.0 0.0
-0.0050298562448654605 0.0035711594735623464 0.0 -0.006590574542575611 0.0 0.0
-0.0085397847216232 0.006753265618537618 0.0 -0.009699330822580676 0.0 0.0
-0.013007336953892168 0.010981776340110994 0.0 -0.013366582373243285 0.0 0.0
-0.01816713401456832 0.01595186203481269 0.0 -0.017211502436372594 0.0 0.0
-0.02388246490289697 0.02149633426331743 0.0 -0.020959948501152015 0.0 0.0
-0.030103759963308885 0.02755149997530637 0.0 -0.02458601212049505 0.0 0.0
-0.036751361572326835 0.034026138686408025 0.0 -0.028201351200967784 0.0 0.0
-0.043582840927722466 0.040674883721494304 0.0 -0.03203973368476287 0.0 0.0
-0.05012565469508437 0.04703823312923472 0.0 -0.03639863471678151 0.0 0.0
-0.05569013766219211 0.05243450010028372 0.0 -0.04138875864746061 0.0 0.0
-0.059230426163598554 0.05576269628212227 0.0 -0.04610571299279698 0.0 0.0
-0.05874731727312482 0.05498790804886422 0.0 -0.04840181018682188 0.0 0.0
-0.04996860748440449 0.04545236709382827 0.0 -0.044055552561446665 0.0 0.0
-0.049968607484403016 0.04545236709382472 0.0 0.04405555256150373 0.0 0.0
-0.05874731727311211 0.05498790804885001 0.0 0.04840181018690359 0.0 0.0
-0.059230426163573296 0.05576269628209385 0.0 0.046105712992846715 0.0 0.0
-0.055690137662153694 0.05243450010024464 0.0 0.041388758647470825 0.0 0.0
-0.05012565469503885 0.04703823312919919 0.0 0.03639863471675686 0.0 0.0
-0.04358284092767947 0.04067488372146322 0.0 0.03203973368473878 0.0 0.0
-0.03675136157228559 0.03402613868638138 0.0 0.028201351200939806 0.0 0.0
-0.030103759963266197 0.027551499975270843 0.0 0.02458601212047362 0.0 0.0
-0.023882464902855532 0.021496334263276573 0.0 0.02095994850112437 0.0 0.0
-0.0181671340145301 0.015951862034778497 0.0 0.017211502436339066 0.0 0.0
-0.013007336953859888 0.010981776340087457 0.0 0.013366582373209535 0.0 0.0
-0.008539784721601162 0.006753265618522519 0.0 0.009699330822560692 0.0 0.0
-0.0050298562448510276 0.003571159473554797 0.0 0.006590574542562955 0.0 0.0
-0.002694780207014469 0.0016496467888935662 0.0 0.0043801769108030575 0.0 0.0
-0.0014822827089153723 0.0007996666826655119 0.0 0.0031594259389388646 0.0 0.0
-0.0009720237126759346 0.0005175926082869875 0.0 0.002662406543732232 0.0 0.0
-0.0007240405460132715 0.00039127825868900956 0.0 0.0025164948726176806 0.0 0.0
-0.0005339386950084513 0.0002452695848226272 0.0 0.002512682503315933 0.0 0.0
-0.0002805822965703808 -5.19618948984224e-05 0.0 0.0024464861574174934 0.0 0.0
0.0002234097331484941 -0.0007709185302037513 0.0 0.001626793321632125 0.0 0.0
0.00012589238933630176 -0.0005669978348338267 0.0 -0.001415000900846286 0.0 0.0
-0.0003455804875392987 -9.358564631467559e-06 0.0 -0.0022938849150428986 0.0 0.0
-0.0006699908133281363 0.0003023364365535297 0.0 -0.0023846280070031756 0.0 0.0
-0.0009448876407134876 0.0004858328673436052 0.0 -0.0023606790145480616 0.0 0.0
-0.0013235966799653998 0.0006941272726306291 0.0 -0.0024763140288875385 0.0 0.0
-0.0021596417728028117 0.0012342771238071926 0.0 -0.0030660134340600442 0.0 0.0
-0.004068950529585169 0.0027334886980474593 0.0 -0.004581828326444826 0.0 0.0
-0.007487120994204344 0.005763927428245719 0.0 -0.007241619909161168 0.0 0.0
-0.012426163111277755 0.010406429323015054 0.0 -0.010899995975259591 0.0 0.0
-0.018616521676685982 0.01635845981620543 0.0 -0.015122236434113145 0.0 0.0
-0.025755434347461303 0.023290241186411986 0.0 -0.019427681794010332 0.0 0.0
-0.033685728132743675 0.0310243209242671 0.0 -0.023542380070951663 0.0 0.0
-0.042345398873634255 0.03949299279750562 0.0 -0.027476560629366764 0.0 0.0
-0.05166063266635468 0.04860941308442346 0.0 -0.03140627753626246 0.0 0.0
-0.06138873067543821 0.05812485083214458 0.0 -0.03571383937960171 0.0 0.0
-0.07098956724531974 0.06749716978207676 0.0 -0.040868994028862904 0.0 0.0
-0.07948718702574212 0.07574164269944372 0.0 -0.04686983097332298 0.0 0.0
-0.08523122466630909 0.08118545942721855 0.0 -0.0524661687412159 0.0 0.0
-0.08538735850226944 0.08088759169097948 0.0 -0.054638003451292105 0.0 0.0
-0.07473151776008094 0.06956127208067997 0.0 -0.05017929208317917 0.0 0.0
-0.07473151776007503 0.06956127208067997 0.0 0.050179292083243454 0.0 0.0
-0.08538735850225054 0.08088759169095727 0.0 0.05463800345137626 0.0 0.0
-0.08523122466627464 0.08118545942717947 0.0 0.052466168741273744 0.0 0.0
-0.07948718702569216 0.07574164269939931 0.0 0.04686983097333908 0.0 0.0
-0.07098956724526098 0.06749716978202258 0.0 0.040868994028847694 0.0 0.0
-0.06138873067538089 0.058124850832084185 0.0 0.03571383937957817 0.0 0.0
-0.05166063266629628 0.04860941308434974 0.0 0.03140627753623482 0.0 0.0
-0.0423453988735773 0.03949299279744212 0.0 0.027476560629345115 0.0 0.0
-0.03368572813268772 0.031024320924220028 0.0 0.02354238007092424 0.0 0.0
-0.025755434347411427 0.023290241186361804 0.0 0.019427681793976137 0.0 0.0
-0.018616521676642572 0.016358459816158355 0.0 0.01512223643407462 0.0 0.0
-0.012426163111246558 0.01040642932298308 0.0 0.010899995975236498 0.0 0.0
-0.007487120994182805 0.0057639274282301756 0.0 0.007241619909144736 0.0 0.0
-0.004068950529573567 0.002733488698040354 0.0 0.004581828326434723 0.0 0.0
-0.0021596417727971773 0.0012342771238034178 0.0 0.0030660134340560474 0.0 0.0
-0.0013235966799635679 0.0006941272726277425 0.0 0.002476314028887705 0.0 0.0
-0.0009448876407130158 0.00048583286734382725 0.0 0.0023606790145462297 0.0 0.0
-0.0006699908133274979 0.0003023364365529746 0.0 0.002384628007001899 0.0 0.0
-0.00034558048753902115 -9.35856463246676e-06 0.0 0.002293884915042288 0.0 0.0
0.00012589238933624625 -0.0005669978348331502 0.0 0.0014150009008420672 0.0 0.0
4.439858407567776e-05 -0.00038784853260170893 0.0 -0.0011956130057211856 0.0 0.0
-0.0004059833620295161 3.846791574502184e-05 0.0 -0.0020837038544511133 0.0 0.0
-0.0007965194935570796 0.0003541455269802096 0.0 -0.0021986148816878215 0.0 0.0
-0.0011541966696491657 0.000571732176530837 0.0 -0.0021394192630440623 0.0 0.0
-0.0016906362042644063 0.0008926612848851878 0.0 -0.002246495850793895 0.0 0.0
-0.0029435235556032335 0.0017968248961230948 0.0 -0.002935345118203425 0.0 0.0
-0.005621913478278839 0.004063540545943045 0.0 -0.004631339322629491 0.0 0.0
-0.010149036826135827 0.008239289174627018 0.0 -0.007530774969611187 0.0 0.0
-0.01649777609098324 0.014304955224586191 0.0 -0.011450151457184532 0.0 0.0
-0.024364327290614718 0.021925697639514574 0.0 -0.015856612880994048 0.0 0.0
-0.03345652027566004 0.030786309427775826 0.0 -0.02027813441636106 0.0 0.0
-0.043589694566085246 0.040697275462091564 0.0 -0.024502225771082964 0.0 0.0
-0.05467567974343135 0.05156795991059582 0.0 -0.028529080905446924 0.0 0.0
-0.06664664698991535 0.06331889115431011 0.0 -0.03251374572336352 0.0 0.0
-0.07928136369897548 0.07570980470686983 0.0 -0.03689525835854157 0.0 0.0
-0.09194173271791528 0.08808680758826348 0.0 -0.04221134602684895 0.0 0.0
-0.10329537702828112 0.09910620417334748 0.0 -0.04848693755890099 0.0 0.0
-0.11102544696190383 0.10642389570400734 0.0 -0.05437702833146174 0.0 0.0
-0.11141823178039195 0.10630946884861636 0.0 -0.05720988812549843 0.0 0.0
-0.09895868832348564 0.09327125663538016 0.0 -0.05541962107131715 0.0 0.0
-0.09895868832347648 0.09327125663537483 0.0 0.05541962107138232 0.0 0.0
-0.11141823178036564 0.10630946884859238 0.0 0.05720988812558048 0.0 0.0
-0.11102544696186067 0.10642389570396737 0.0 0.054377028331521915 0.0 0.0
-0.10329537702821937 0.09910620417329064 0.0 0.048486937558919196 0.0 0.0
-0.09194173271784539 0.08808680758820753 0.0 0.042211346026835406 0.0 0.0
-0.07928136369890315 0.07570980470681299 0.0 0.036895258358521255 0.0 0.0
-0.06664664698984152 0.06331889115424882 0.0 0.03251374572333943 0.0 0.0
-0.05467567974336021 0.05156795991052743 0.0 0.028529080905423054 0.0 0.0
-0.04358969456601536 0.040697275462017846 0.0 0.024502225771053654 0.0 0.0
-0.03345652027559877 0.030786309427711434 0.0 0.020278134416323368 0.0 0.0
-0.024364327290560553 0.02192569763946084 0.0 0.0158566128809568 0.0 0.0
-0.016497776090942926 0.014304955224547555 0.0 0.011450151457162383 0.0 0.0
-0.010149036826107752 0.008239289174598596 0.0 0.007530774969590315 0.0 0.0
-0.005621913478262269 0.004063540545922617 0.0 0.004631339322613448 0.0 0.0
-0.0029435235555950595 0.0017968248961119926 0.0 0.00293534511819471 0.0 0.0
-0.0016906362042618944 0.0008926612848800808 0.0 0.0022464958507910082 0.0 0.0
-0.0011541966696484302 0.0005717321765266181 0.0 0.002139419263042619 0.0 0.0
-0.000796519493556691 0.0003541455269800986 0.0 0.0021986148816881546 0.0 0.0
-0.00040598336202893326 3.8467915745799e-05 0.0 0.0020837038544516684 0.0 0.0
4.4398584075705516e-05 -0.00038784853260155627 0.0 0.0011956130057196868 0.0 0.0
-2.480444079633326e-05 -0.00023419365680416027 0.0 -0.0009698446510022496 0.0 0.0
-0.0004637903808623056 9.02314736416221e-05 0.0 -0.0018205202822162425 0.0 0.0
-0.0009144800664057096 0.0004012706431240076 0.0 -0.001955421336878038 0.0 0.0
-0.0013556709981998871 0.0006554438139314556 0.0 -0.0018723589216168013 0.0 0.0
-0.0020968212907979122 0.0011377501255767086 0.0 -0.001991835566860223 0.0 0.0
-0.003844324645861097 0.0025031368631003303 0.0 -0.0027318450479125733 0.0 0.0
-0.007335520578040877 0.0056092066243857985 0.0 -0.0044756509712896575 0.0 0.0
-0.012969600755864508 0.010919219558727544 0.0 -0.007406565280887678 0.0 0.0
-0.02067620335406667 0.018348944849432947 0.0 -0.011254934549394302 0.0 0.0
-0.03018639289232522 0.027596431056504223 0.0 -0.015513967854002053 0.0 0.0
-0.04121806181418369 0.03837116758933812 0.0 -0.01979909485785536 0.0 0.0
-0.053550956110245185 0.050454663694267765 0.0 -0.023891035159875118 0.0 0.0
-0.06705690097146044 0.06371967965751146 0.0 -0.027793031248467215 0.0 0.0
-0.08165532058146852 0.078076418180828 0.0 -0.03160728186523931 0.0 0.0
-0.09713388958577723 0.09328356674781624 0.0 -0.03562256899808225 0.0 0.0
-0.11277609190218141 0.10858924398092018 0.0 -0.04038665605110703 0.0 0.0
-0.12689712993057733 0.12229210309159289 0.0 -0.046211402524155565 0.0 0.0
-0.13650670618296426 0.1314047300410941 0.0 -0.05230783112496806 0.0 0.0
-0.13720866865412887 0.13157095092600102 0.0 -0.05707645821251217 0.0 0.0
-0.12330755245853486 0.11714319463168277 0.0 -0.06019988516252206 0.0 0.0
-0.12330755245852323 0.11714319463167566 0.0 0.06019988516259123 0.0 0.0
-0.13720866865409478 0.13157095092596727 0.0 0.05707645821259144 0.0 0.0
-0.13650670618291189 0.13140473004103903 0.0 0.05230783112502968 0.0 0.0
-0.12689712993050434 0.1222921030915316 0.0 0.046211402524174994 0.0 0.0
-0.1127760919020995 0.10858924398083758 0.0 0.040386656051101144 0.0 0.0
-0.09713388958568947 0.09328356674772564 0.0 0.03562256899807015 0.0 0.0
-0.081655320581381 0.07807641818073918 0.0 0.031607281865219994 0.0 0.0
-0.06705690097137486 0.06371967965742797 0.0 0.02779303124844784 0.0 0.0
-0.05355095611016196 0.05045466369419005 0.0 0.023891035159849305 0.0 0.0
-0.04121806181411049 0.03837116758926307 0.0 0.019799094857819666 0.0 0.0
-0.030186392892261188 0.027596431056442494 0.0 0.015513967853965804 0.0 0.0
-0.020676203354017944 0.01834894484938765 0.0 0.011254934549372098 0.0 0.0
-0.012969600755829702 0.010919219558692461 0.0 0.0074065652808698035 0.0 0.0
-0.007335520578018631 0.0056092066243658145 0.0 0.0044756509712769454 0.0 0.0
-0.003844324645850425 0.002503136863093669 0.0 0.002731845047904524 0.0 0.0
-0.0020968212907940265 0.0011377501255722677 0.0 0.0019918355668578913 0.0 0.0
-0.001355670998198763 0.0006554438139299013 0.0 0.0018723589216179115 0.0 0.0
-0.0009144800664052377 0.00040127064312411864 0.0 0.001955421336877483 0.0 0.0
-0.000463790380861695 9.02314736406784e-05 0.0 0.0018205202822157984 0.0 0.0
-2.480444079615285e-05 -0.00023419365680389312 0.0 0.0009698446510008618 0.0 0.0
-8.102710620977449e-05 -0.0001083433142259338 0.0 -0.0007373450081787913 0.0 0.0
-0.0005180578447860906 0.00014342290050861628 0.0 -0.0015102015116678635 0.0 0.0
-0.0010259616917954184 0.00044486954894940034 0.0 -0.0016561257985434619 0.0 0.0
-0.001558230781760317 0.0007438063995053312 0.0 -0.0015578521302209714 0.0 0.0
-0.0025636548483148336 0.0014461937457468377 0.0 -0.0016886036927825643 0.0 0.0
-0.004864234412687685 0.003362465600864173 0.0 -0.002428922313685411 0.0 0.0
-0.009189708126310925 0.0073358686228455205 0.0 -0.004105969941893051 0.0 0.0
-0.015878742390198708 0.013723799283127391 0.0 -0.006796879537041556 0.0 0.0
-0.024899829245950356 0.022461756131346267 0.0 -0.010256677942044545 0.0 0.0
-0.03603509017839818 0.03331412351746854 0.0 -0.014118891850794402 0.0 0.0
-0.04899325333795934 0.045991133360290704 0.0 -0.018003355711933344 0.0 0.0
-0.0635252532032991 0.060245732963381204 0.0 -0.021721007768289335 0.0 0.0
-0.07945243754156245 0.07590264002037017 0.0 -0.02528918150529269 0.0 0.0
-0.09663548456032184 0.09281640522360579 0.0 -0.028705016686526807 0.0 0.0
-0.11482742212745872 0.11071387393110665 0.0 -0.03201744356948577 0.0 0.0
-0.13327760673910916 0.12879071562865274 0.0 -0.035594624476120273 0.0 0.0
-0.15007925624361584 0.14510271945335607 0.0 -0.04021390835712646 0.0 0.0
-0.16170114515199607 0.15615614613310846 0.0 -0.046459822299630416 0.0 0.0
-0.16313316485480314 0.1570056543326892 0.0 -0.05438224010706305 0.0 0.0
-0.14828245049087296 0.14164221368582908 0.0 -0.06451291637670531 0.0 0.0
-0.1482824504908592 0.14164221368581664 0.0 0.06451291637677048 0.0 0.0
-0.16313316485476262 0.1570056543326528 0.0 0.05438224010713666 0.0 0.0
-0.161701145151933 0.15615614613305873 0.0 0.046459822299687814 0.0 0.0
-0.15007925624353155 0.14510271945327968 0.0 0.04021390835714311 0.0 0.0
-0.13327760673901448 0.12879071562855415 0.0 0.035594624476111725 0.0 0.0
-0.11482742212735605 0.11071387393100274 0.0 0.032017443569473836 0.0 0.0
-0.09663548456022084 0.09281640522351342 0.0 0.028705016686509544 0.0 0.0
-0.07945243754146235 0.0759026400202707 0.0 0.025289181505274982 0.0 0.0
-0.06352525320320329 0.06024573296328262 0.0 0.021721007768264522 0.0 0.0
-0.048993253337873896 0.04599113336020588 0.0 0.018003355711900537 0.0 0.0
-0.03603509017832407 0.03331412351739216 0.0 0.014118891850763149 0.0 0.0
-0.02489982924589318 0.02246175613128587 0.0 0.010256677942025838 0.0 0.0
-0.015878742390157227 0.01372379928308387 0.0 0.0067968795370251245 0.0 0.0
-0.009189708126283821 0.007335868622821096 0.0 0.0041059699418820594 0.0 0.0
-0.0048642344126740705 0.003362465600854625 0.0 0.002428922313678028 0.0 0.0
-0.0025636548483094074 0.001446193745743729 0.0 0.0016886036927796222 0.0 0.0
-0.0015582307817589985 0.0007438063995024446 0.0 0.0015578521302211379 0.0 0.0
-0.001025961691794905 0.00044486954894884523 0.0 0.0016561257985407973 0.0 0.0
-0.0005180578447856743 0.0001434229005091714 0.0 0.0015102015116655876 0.0 0.0
-8.102710621016307e-05 -0.00010834331422550705 0.0 0.0007373450081766819 0.0 0.0
-0.00012071112304440357 -1.365904677047558e-05 0.0 -0.0004996435433228252 0.0 0.0
-0.0005645162218211319 0.0001942188347310303 0.0 -0.0011560992666784231 0.0 0.0
-0.0011330026305015894 0.00048519071916564016 0.0 -0.0012965629656880306 0.0 0.0
-0.0017757091537939917 0.0008496322252364852 0.0 -0.0011979544121502594 0.0 0.0
-0.0031082094267670946 0.0018422759216594198 0.0 -0.0013296381598267848 0.0 0.0
-0.006005168937630201 0.004370456503866027 0.0 -0.002011385509934349 0.0 0.0
-0.011134212263868626 0.009181275751115603 0.0 -0.003419406064441688 0.0 0.0
-0.018820456152444376 0.016583314488704204 0.0 -0.005616971516321345 0.0 0.0
-0.029126768045647344 0.02659512344759829 0.0 -0.008476400915849558 0.0 0.0
-0.04186301418802507 0.03902846529074777 0.0 -0.011681044038692856 0.0 0.0
-0.05673542299496093 0.05359507523596818 0.0 -0.014908088341589965 0.0 0.0
-0.07346561133474688 0.0700202341608529 0.0 -0.017994465440094753 0.0 0.0
-0.09181724570161559 0.08806835676906566 0.0 -0.020973237319701132 0.0 0.0
-0.1115496653839691 0.10749592266226671 0.0 -0.023818975863433733 0.0 0.0
-0.13229327972806293 0.12791840180140746 0.0 -0.02628811384862839 0.0 0.0
-0.15325659292487753 0.14849738911645716 0.0 -0.028269457589690017 0.0 0.0
-0.17259319792797417 0.16732170906996302 0.0 -0.030835070193815373 0.0 0.0
-0.18660246954659448 0.18066954049371997 0.0 -0.03672855147694509 0.0 0.0
-0.1895106825944152 0.18291857306413029 0.0 -0.04860781739730924 0.0 0.0
-0.17442957057509148 0.16727551846741218 0.0 -0.06798919824559901 0.0 0.0
-0.17442957057507555 0.16727551846740063 0.0 0.06798919824564709 0.0 0.0
-0.18951068259436807 0.18291857306407877 0.0 0.04860781739737341 0.0 0.0
-0.18660246954652074 0.18066954049364092 0.0 0.03672855147699439 0.0 0.0
-0.17259319792787844 0.16732170906986 0.0 0.030835070193823144 0.0 0.0
-0.15325659292476934 0.14849738911634525 0.0 0.028269457589680025 0.0 0.0
-0.1322932797279463 0.12791840180128755 0.0 0.026288113848621897 0.0 0.0
-0.1115496653838539 0.10749592266215124 0.0 0.02381897586341747 0.0 0.0
-0.09181724570150114 0.08806835676895952 0.0 0.0209732373196877 0.0 0.0
-0.07346561133463893 0.07002023416074854 0.0 0.0179944654400761 0.0 0.0
-0.056735422994863255 0.053595075235871814 0.0 0.014908088341561876 0.0 0.0
-0.04186301418794133 0.039028465290662506 0.0 0.011681044038668875 0.0 0.0
-0.029126768045582382 0.026595123447533453 0.0 0.008476400915832794 0.0 0.0
-0.018820456152396303 0.016583314488650913 0.0 0.005616971516304692 0.0 0.0
-0.011134212263836499 0.009181275751085405 0.0 0.0034194060644267554 0.0 0.0
-0.006005168937612958 0.004370456503850928 0.0 0.002011385509926411 0.0 0.0
-0.003108209426759996 0.0018422759216545348 0.0 0.0013296381598234541 0.0 0.0
-0.0017757091537928746 0.0008496322252344868 0.0 0.0011979544121501484 0.0 0.0
-0.0011330026305006943 0.0004851907191653071 0.0 0.0012965629656869204 0.0 0.0
-0.000564516221820785 0.0001942188347300866 0.0 0.001156099266677868 0.0 0.0
-0.00012071112304473663 -1.365904677019629e-05 0.0 0.0004996435433213264 0.0 0.0
-0.0001369506609451565 4.534906320946552e-05 0.0 -0.00026340558911053247 0.0 0.0
-0.0005940773920866116 0.00023614316221909348 0.0 -0.0007576020679207485 0.0 0.0
-0.0012391287032207376 0.0005257691521398655 0.0 -0.0008708962630140649 0.0 0.0
-0.0020293206927940455 0.0009901728830352674 0.0 -0.0007950758027731042 0.0 0.0
-0.00374324213064553 0.0023464553014349576 0.0 -0.0009127591397650181 0.0 0.0
-0.007246482999058612 0.005504826120654727 0.0 -0.0014142601331379456 0.0 0.0
-0.013118597281722266 0.011092968669667691 0.0 -0.0023915526469651116 0.0 0.0
-0.021761564320528115 0.019456017877154785 0.0 -0.003907391848796071 0.0 0.0
-0.03331225695499429 0.0307032690425304 0.0 -0.005917697706499969 0.0 0.0
-0.047623411344895394 0.04469083645996097 0.0 -0.008200827112461284 0.0 0.0
-0.06439789878470698 0.06113428973039703 0.0 -0.010502819495444182 0.0 0.0
-0.08332358761074693 0.07972646361366698 0.0 -0.012704905175990211 0.0 0.0
-0.10409890494341884 0.10016377205778149 0.0 -0.014854876957850371 0.0 0.0
-0.1263523096701218 0.12207090482300309 0.0 -0.016876656917132804 0.0 0.0
-0.14952074579034308 0.14487969205674922 0.0 -0.0184358887796241 0.0 0.0
-0.17267585396464114 0.1676465324506502 0.0 -0.019061475040629938 0.0 0.0
-0.19416312449771883 0.18866127894384732 0.0 -0.019181492411635803 0.0 0.0
-0.21080831634944286 0.20465697099500346 0.0 -0.022661393157837884 0.0 0.0
-0.21664390106842468 0.2095621503852927 0.0 -0.03790575311863198 0.0 0.0
-0.20254076750317226 0.194785460002171 0.0 -0.06975423835706607 0.0 0.0
-0.2025407675031535 0.19478546000216035 0.0 0.06975423835710226 0.0 0.0
-0.2166439010683702 0.2095621503852394 0.0 0.03790575311868427 0.0 0.0
-0.21080831634935904 0.2046569709949173 0.0 0.022661393157873966 0.0 0.0
-0.19416312449761045 0.1886612789437505 0.0 0.019181492411636025 0.0 0.0
-0.17267585396451748 0.16764653245053207 0.0 0.01906147504062078 0.0 0.0
-0.14952074579021324 0.14487969205661866 0.0 0.018435888779624543 0.0 0.0
-0.1263523096699924 0.12207090482287342 0.0 0.016876656917126365 0.0 0.0
-0.10409890494329034 0.1001637720576487 0.0 0.014854876957839436 0.0 0.0
-0.0833235876106265 0.07972646361354307 0.0 0.012704905175980108 0.0 0.0
-0.06439789878459776 0.06113428973029755 0.0 0.010502819495425475 0.0 0.0
-0.047623411344802205 0.04469083645987082 0.0 0.008200827112441855 0.0 0.0
-0.033312256954921786 0.030703269042458015 0.0 0.005917697706488201 0.0 0.0
-0.021761564320474103 0.019456017877103715 0.0 0.003907391848788189 0.0 0.0
-0.013118597281685386 0.011092968669632164 0.0 0.002391552646958839 0.0 0.0
-0.0072464829990377955 0.005504826120635409 0.0 0.0014142601331337268 0.0 0.0
-0.0037432421306363775 0.0023464553014289624 0.0 0.0009127591397632973 0.0 0.0
-0.002029320692792387 0.0009901728830348233 0.0 0.0007950758027739924 0.0 0.0
-0.001239128703219343 0.0005257691521386443 0.0 0.000870896263014731 0.0 0.0
-0.0005940773920865769 0.00023614316221953757 0.0 0.0007576020679201934 0.0 0.0
-0.00013695066094523284 4.534906320915674e-05 0.0 0.00026340558911003287 0.0 0.0
-0.00011735374270444021 6.220025346342917e-05 0.0 -4.5653637823994675e-05 0.0 0.0
-0.0005899250491351871 0.0002585911346626446 0.0 -0.00030643418064513206 0.0 0.0
-0.0013542848674858443 0.0005747633822668075 0.0 -0.0003655047082838925 0.0 0.0
-0.0023444274909746876 0.0011968655098177905 0.0 -0.00034941829645818157 0.0 0.0
-0.004469720272729072 0.0029566203800637236 0.0 -0.00040504101786109636 0.0 0.0
-0.008551450549708683 0.006722204874552773 0.0 -0.0006086220655771579 0.0 0.0
-0.015120044917177944 0.013034079755195549 0.0 -0.0010159509317779758 0.0 0.0
-0.02466284248208661 0.02230286250918878 0.0 -0.0016715177734022424 0.0 0.0
-0.03741089613209503 0.034738132359958485 0.0 -0.0025889919639472403 0.0 0.0
-0.053267544749144025 0.05025152127607724 0.0 -0.0036713462877909775 0.0 0.0
-0.07193514370233473 0.06856194095483881 0.0 -0.004781729308570459 0.0 0.0
-0.09305382306134341 0.08931662154148245 0.0 -0.00585683962184258 0.0 0.0
-0.11623274739420014 0.11212352629795852 0.0 -0.006891396787176207 0.0 0.0
-0.14097515581936715 0.1364791702512953 0.0 -0.007801702086746243 0.0 0.0
-0.16652193879392907 0.16162093462567295 0.0 -0.008375443170970387 0.0 0.0
-0.19169605593192557 0.1863764779741519 0.0 -0.008204972138326827 0.0 0.0
-0.2148080771287163 0.20905918543609925 0.0 -0.0069578617089229855 0.0 0.0
-0.23344252736534876 0.22719651859713963 0.0 -0.006396488006612522 0.0 0.0
-0.24339884859977218 0.23637760315184142 0.0 -0.017503561286588365 0.0 0.0
-0.23483646412277537 0.22593408627986644 0.0 -0.06430252988744778 0.0 0.0
-0.23483646412275433 0.22593408627985045 0.0 0.06430252988746366 0.0 0.0
-0.24339884859971025 0.23637760315178724 0.0 0.017503561286613345 0.0 0.0
-0.2334425273652546 0.2271965185970446 0.0 0.006396488006628842 0.0 0.0
-0.214808077128592 0.20905918543597668 0.0 0.006957861708916435 0.0 0.0
-0.1916960559317868 0.18637647797400714 0.0 0.008204972138318278 0.0 0.0
-0.16652193879378552 0.16162093462553528 0.0 0.008375443170970664 0.0 0.0
-0.1409751558192237 0.13647917025115497 0.0 0.007801702086742246 0.0 0.0
-0.11623274739405792 0.11212352629781863 0.0 0.00689139678716888 0.0 0.0
-0.0930538230612098 0.08931662154134523 0.0 0.005856839621839305 0.0 0.0
-0.07193514370221418 0.0685619409547149 0.0 0.004781729308559746 0.0 0.0
-0.053267544749041947 0.0502515212759751 0.0 0.0036713462877790426 0.0 0.0
-0.03741089613201502 0.03473813235987899 0.0 0.002588991963941134 0.0 0.0
-0.024662842482026694 0.022302862509127497 0.0 0.001671517773398079 0.0 0.0
-0.015120044917136376 0.013034079755154249 0.0 0.0010159509317768656 0.0 0.0
-0.008551450549684524 0.006722204874532789 0.0 0.0006086220655755481 0.0 0.0
-0.004469720272718053 0.002956620380055952 0.0 0.00040504101785909796 0.0 0.0
-0.0023444274909722486 0.001196865509814904 0.0 0.000349418296457904 0.0 0.0
-0.0013542848674845676 0.0005747633822662523 0.0 0.00036550470828267123 0.0 0.0
-0.0005899250491350969 0.00025859113466175643 0.0 0.0003064341806444104 0.0 0.0
-0.0001173537427041401 6.220025346271793e-05 0.0 4.565363782382814e-05 0.0 0.0
SCALARS Statev float 8
LOOKUP_TABLE default
0.0 0.015484986606586034 0.012063463666288233 -0.01244287672668798 0.00037941306039975046 -0.00699005433081895 0.0 0.0
0.0 0.001206870772408705 0.0008911563331864164 -0.0007828076123321645 -0.00010834872085425167 0.0007427931421089278 0.0 0.0
0.0 5.0563385571955986e-05 1.15474015553007e-05 -8.680324647127156e-06 -2.8670769081735762e-06 -9.669583209313295e-07 0.0 0.0
0.0 0.0005081857617468635 0.0004114197885509135 -0.0003295467460600703 -8.187304249084341e-05 -5.992646070953851e-05 0.0 0.0
0.0 0.002426490741846607 0.002046298978199016 -0.001746521556018864 -0.0002997774221801517 -0.00021900725471670813 0.0 0.0
0.0 0.006422459520544457 0.005749813082707003 -0.0052191086862558664 -0.0005307043964511379 -0.00047059768386061295 0.0 0.0
0.0 0.01359398180068859 0.011997486127303298 -0.011330391475324792 -0.0006670946519784997 -0.0008666664849256141 0.0 0.0
0.0 0.02426173484169087 0.021252598987739145 -0.020481751311517537 -0.0007708476762216043 -0.0014932948605966808 0.0 0.0
0.0 0.038666987548278964 0.033726500782722414 -0.03284807364028972 -0.0008784271424326906 -0.002382625693696869 0.0 0.0
0.0 0.056720086075917095 0.04933697141208015 -0.04834221468066102 -0.0009947567314191259 -0.00345351014409892 0.0 0.0
0.0 0.07812612305771585 0.06780774699566436 -0.06669203960786066 -0.0011157073878036985 -0.0045699992923930455 0.0 0.0
0.0 0.10220066469709815 0.08879447143959478 -0.0875558266780214 -0.001238644761573361 -0.005656477799561344 0.0 0.0
0.0 0.12882534261578255 0.11192750042598254 -0.11056433342500066 -0.0013631670009817743 -0.006712983231612472 0.0 0.0
0.0 0.1575045058114411 0.13678038883927998 -0.13528958304556818 -0.0014908057937117252 -0.007713727597596304 0.0 0.0
0.0 0.18748620180083886 0.16275794165974386 -0.16113551248679248 -0.0016224291729512541 -0.008583929428415371 0.0 0.0
0.0 0.2177904796319044 0.1889828342988995 -0.1872265987616115 -0.0017562355372880644 -0.009135813657102152 0.0 0.0
0.0 0.24700661078520456 0.21426343743775106 -0.2123757986295535 -0.0018876388081976343 -0.009094091302761145 0.0 0.0
0.0 0.27342770735624305 0.23713689006137037 -0.23512364677451872 -0.002013243286851505 -0.008296739197272767 0.0 0.0
0.0 0.295059254561991 0.2558638104686874 -0.2537267729243539 -0.0021370375443334473 -0.007436521392660976 0.0 0.0
0.0 0.30846188995508333 0.2675851014223148 -0.2652318981063593 -0.0023532033159555563 -0.009804599018218504 0.0 0.0
0.0 0.308461889955065 0.26758510142229874 -0.2652318981063433 -0.0023532033159555116 0.009804599018229162 0.0 0.0
0.0 0.29505925456192894 0.2558638104686331 -0.2537267729243 -0.002137037544332967 0.007436521392695365 0.0 0.0
0.0 0.2734277073561344 0.237136890061276 -0.2351236467744252 -0.002013243286850705 0.008296739197291444 0.0 0.0
0.0 0.24700661078506733 0.21426343743763204 -0.2123757986294351 -0.0018876388081969678 0.009094091302766439 0.0 0.0
0.0 0.21779047963175954 0.18898283429877372 -0.1872265987614871 -0.0017562355372867074 0.009135813657089164 0.0 0.0
0.0 0.1874862018006892 0.1627579416596136 -0.16113551248666363 -0.0016224291729499871 0.00858392942841317 0.0 0.0
0.0 0.15750450581128436 0.13678038883914445 -0.1352895830454325 -0.0014908057937119009 0.007713727597596138 0.0 0.0
0.0 0.12882534261562978 0.11192750042585002 -0.11056433342486899 -0.001363167000981027 0.006712983231611357 0.0 0.0
0.0 0.1022006646969508 0.08879447143946699 -0.08755582667789444 -0.0012386447615725044 0.005656477799551127 0.0 0.0
0.0 0.0781261230575831 0.06780774699554909 -0.06669203960774586 -0.0011157073878032475 0.004569999292383894 0.0 0.0
0.0 0.05672008607580925 0.04933697141198684 -0.048342214680568374 -0.0009947567314184688 0.0034535101440846443 0.0 0.0
0.0 0.038666987548198396 0.0337265007826519 -0.03284807364021998 -0.0008784271424319436 0.0023826256936940204 0.0 0.0
0.0 0.024261734841630266 0.021252598987685594 -0.02048175131146486 -0.0007708476762207327 0.0014932948605925719 0.0 0.0
0.0 0.013593981800646431 0.011997486127265894 -0.011330391475288104 -0.000667094651977783 0.0008666664849229469 0.0 0.0
0.0 0.00642245952052083 0.005749813082685715 -0.005219108686235344 -0.0005307043964503732 0.00047059768385836664 0.0 0.0
0.0 0.0024264907418370023 0.0020462989781910197 -0.001746521556011622 -0.00029977742217939744 0.00021900725471575862 0.0 0.0
0.0 0.0005081857617444865 0.00041141978854967835 -0.00032954674605906837 -8.187304249060982e-05 5.992646070939994e-05 0.0 0.0
0.0 5.0563385571288246e-05 1.1547401555232679e-05 -8.680324647076815e-06 -2.8670769081558174e-06 9.669583209222681e-07 0.0 0.0
0.0 0.0012068707724044358 0.0008911563331837155 -0.0007828076123297143 -0.00010834872085400175 -0.0007427931421063103 0.0 0.0
0.0 0.015484986606566569 0.012063463666275526 -0.012442876726674233 0.0003794130603987015 0.006990054330785087 0.0 0.0
0.0 0.011746832640040185 0.008570914980513197 -0.009069797749440781 0.0004988827689275859 -0.008251354947439385 0.0 0.0
0.0 5.3581167244729175e-05 4.364367968037182e-05 -4.041592451647227e-05 -3.2277551638995337e-06 2.786150168905686e-05 0.0 0.0
0.0 1.3453383311279895e-06 7.275157058461782e-07 -5.513810081952868e-07 -1.7613469765089312e-07 -2.510914050226022e-07 0.0 0.0
0.0 0.0002390595955999965 0.00019156247638615315 -0.00015188096723249675 -3.9681509153656494e-05 -6.529536345731937e-05 0.0 0.0
0.0 0.0017003127345244157 0.0013993019093692279 -0.001174644792353846 -0.00022465711701538226 -0.0003697793118658755 0.0 0.0
0.0 0.005068023785905881 0.004539193433335332 -0.004062980410516669 -0.0004762130228186616 -0.0009815499885216501 0.0 0.0
0.0 0.011447120790127083 0.010087745935035182 -0.00944943997412926 -0.0006383059609059195 -0.0019718075484782705 0.0 0.0
0.0 0.02109589770076531 0.01843487264970928 -0.01768517027475575 -0.000749702374953541 -0.0034403795831584867 0.0 0.0
0.0 0.03414178352497477 0.029708475151574244 -0.028852728376550448 -0.0008557467750237844 -0.005406258543683843 0.0 0.0
0.0 0.050429460247336834 0.04377332678198052 -0.0428073097147599 -0.0009660170672206115 -0.007682793761683944 0.0 0.0
0.0 0.06963861328354184 0.06035427570939116 -0.05927600330613325 -0.0010782724032578938 -0.010015922327001658 0.0 0.0
0.0 0.09146775637984954 0.07915435867249179 -0.0779629505096581 -0.0011914081628336497 -0.012263069197626795 0.0 0.0
0.0 0.11528385081522549 0.09988050506696992 -0.09857442446225756 -0.0013060806047123519 -0.014461929138469718 0.0 0.0
0.0 0.14096979159377723 0.12217258821218055 -0.12074961377250318 -0.0014229744396774197 -0.016586299257721242 0.0 0.0
0.0 0.16793163988304388 0.14552176177999326 -0.14397944517126474 -0.001542316608728526 -0.01845803743391003 0.0 0.0
0.0 0.1952351170352238 0.16918856002486543 -0.1675252144737252 -0.001663345551140219 -0.01972029080443108 0.0 0.0
0.0 0.22169792156776402 0.19214106681495127 -0.19035607553442951 -0.0017849912805217817 -0.01987980735535491 0.0 0.0
0.0 0.24574735076205867 0.2130004208372395 -0.2110917823328553 -0.001908638504384073 -0.018752698515486454 0.0 0.0
0.0 0.26511732458670123 0.2298118006205757 -0.22775908173055076 -0.002052718890024827 -0.016939625217234532 0.0 0.0
0.0 0.2767247778997233 0.23990999649782824 -0.2377473008862442 -0.00216269561158408 -0.014307807897664454 0.0 0.0
0.0 0.2767247778997033 0.2399099964978105 -0.23774730088622636 -0.002162695611584296 0.01430780789769584 0.0 0.0
0.0 0.26511732458664183 0.22981180062052367 -0.22775908173049783 -0.00205271889002582 0.016939625217291025 0.0 0.0
0.0 0.24574735076196708 0.2130004208371592 -0.21109178233277553 -0.001908638504383542 0.01875269851552342 0.0 0.0
0.0 0.2216979215676484 0.19214106681485058 -0.1903560755343297 -0.001784991280520664 0.01987980735536992 0.0 0.0
0.0 0.19523511703509133 0.16918856002475074 -0.16752521447361166 -0.001663345551138938 0.01972029080441735 0.0 0.0
0.0 0.16793163988290816 0.14552176177987508 -0.14397944517114808 -0.001542316608726945 0.01845803743390448 0.0 0.0
0.0 0.1409697915936393 0.12217258821206091 -0.12074961377238419 -0.0014229744396766458 0.016586299257717523 0.0 0.0
0.0 0.11528385081508585 0.09988050506684892 -0.09857442446213704 -0.0013060806047118481 0.014461929138463343 0.0 0.0
0.0 0.09146775637972254 0.07915435867238171 -0.07796295050954882 -0.001191408162832829 0.012263069197610235 0.0 0.0
0.0 0.06963861328342556 0.06035427570929065 -0.059276003306032964 -0.001078272403257674 0.010015922326986263 0.0 0.0
0.0 0.0504294602472392 0.04377332678189623 -0.04280730971467571 -0.0009660170672204963 0.00768279376166305 0.0 0.0
0.0 0.03414178352490113 0.02970847515150979 -0.02885272837648634 -0.0008557467750234318 0.0054062585436752825 0.0 0.0
0.0 0.02109589770071254 0.01843487264966317 -0.017685170274710067 -0.0007497023749531016 0.0034403795831490043 0.0 0.0
0.0 0.011447120790092979 0.010087745935005003 -0.009449439974099638 -0.0006383059609053551 0.0019718075484722437 0.0 0.0
0.0 0.005068023785885687 0.0045391934333176755 -0.0040629804104998545 -0.000476213022817821 0.0009815499885175794 0.0 0.0
0.0 0.0017003127345158854 0.001399301909362522 -0.0011746447923478365 -0.0002246571170146855 0.0003697793118640006 0.0 0.0
0.0 0.0002390595955982758 0.00019156247638521572 -0.00015188096723172659 -3.9681509153489025e-05 6.529536345703654e-05 0.0 0.0
0.0 1.3453383309733704e-06 7.275157059100347e-07 -5.513810082413796e-07 -1.7613469766865715e-07 2.5109140503179367e-07 0.0 0.0
0.0 5.358116724428095e-05 4.364367968032591e-05 -4.0415924516369715e-05 -3.227755163956189e-06 -2.7861501688930236e-05 0.0 0.0
0.0 0.011746832640016983 0.008570914980498064 -0.00906979774942504 0.0004988827689269676 0.008251354947410815 0.0 0.0
0.0 0.00906078451483077 0.00627240506307373 -0.006813394344519932 0.0005409892814462004 -0.007361395790437948 0.0 0.0
0.0 0.0 0.0 0.0 0.0 0.0 0.0 0.0
0.0 0.0 0.0 0.0 0.0 0.0 0.0 0.0
0.0 7.048674650263758e-05 6.0265290455165195e-05 -4.741790148397223e-05 -1.2847388971192985e-05 -3.764821070367689e-05 0.0 0.0
0.0 0.0010507980968357305 0.0008737756316989316 -0.0007214906969647397 -0.00015228493473419132 -0.0004060589996141272 0.0 0.0
0.0 0.003987294854247364 0.003394112458670538 -0.0029888746114277867 -0.00040523784724275037 -0.0012628334604604004 0.0 0.0
0.0 0.009371753990937861 0.008211312622934338 -0.007610138282638584 -0.0006011743402957553 -0.0027148813341328504 0.0 0.0
0.0 0.01795402601129442 0.015598275371951595 -0.014875529655101532 -0.0007227457168500521 -0.004863620689445515 0.0 0.0
0.0 0.029629579732418324 0.02562366153780153 -0.024795368669568614 -0.0008282928682329233 -0.007668824144700808 0.0 0.0
0.0 0.04415731276750209 0.0381118031928865 -0.03717945747160885 -0.0009323457212776507 -0.010868458638751776 0.0 0.0
0.0 0.06123923506364747 0.05278996422887884 -0.05175380231947553 -0.0010361619094033012 -0.014145537918981675 0.0 0.0
0.0 0.08048304933412317 0.06939942050637472 -0.06825937141731517 -0.0011400490890595546 -0.01731829716706294 0.0 0.0
0.0 0.10178134960906593 0.08769843083324486 -0.08645377469355807 -0.0012446561396867797 -0.020403908957764293 0.0 0.0
0.0 0.12447307505255083 0.1074071988037639 -0.10605689649187015 -0.0013503023118936798 -0.02339862938590838 0.0 0.0
0.0 0.14836247588319984 0.12812113185027704 -0.12666415842195192 -0.0014569734283251317 -0.02608657674350876 0.0 0.0
0.0 0.17274032171957554 0.1492444234411382 -0.14767884846518128 -0.0015655749759569755 -0.027992182240348974 0.0 0.0
0.0 0.1965043277927649 0.16989511344732997 -0.16821675213638768 -0.0016783613109422747 -0.028536568211875203 0.0 0.0
0.0 0.21813191756752173 0.18875272308027916 -0.18695176705454083 -0.0018009560257383431 -0.02736265322812291 0.0 0.0
0.0 0.23548471361406384 0.20393988491882645 -0.2020191247070584 -0.0019207602117679362 -0.023997066823628385 0.0 0.0
0.0 0.24615554632681766 0.21337450418823023 -0.21136569516804563 -0.0020088090201843987 -0.017339374546672164 0.0 0.0
0.0 0.2461555463267946 0.2133745041882096 -0.21136569516802461 -0.002008809020185039 0.01733937454672053 0.0 0.0
0.0 0.23548471361400466 0.20393988491877318 -0.20201912470700473 -0.0019207602117685813 0.02399706682370141 0.0 0.0
0.0 0.21813191756743094 0.1887527230801996 -0.18695176705445957 -0.0018009560257398222 0.02736265322817328 0.0 0.0
0.0 0.19650432779266294 0.1698951134472406 -0.1682167521362985 -0.0016783613109423454 0.028536568211896367 0.0 0.0
0.0 0.17274032171945258 0.14924442344103223 -0.14767884846507517 -0.0015655749759569335 0.027992182240336762 0.0 0.0
0.0 0.14836247588306703 0.1281211318501624 -0.12666415842183693 -0.0014569734283254889 0.02608657674349867 0.0 0.0
0.0 0.12447307505242479 0.10740719880365443 -0.1060568964917613 -0.001350302311893108 0.023398629385901246 0.0 0.0
0.0 0.10178134960894336 0.08769843083313852 -0.08645377469345228 -0.0012446561396862105 0.020403908957754853 0.0 0.0
0.0 0.08048304933401002 0.06939942050627712 -0.06825937141721848 -0.001140049089058689 0.01731829716704086 0.0 0.0
0.0 0.06123923506354757 0.05278996422879208 -0.05175380231938981 -0.0010361619094022246 0.014145537918960869 0.0 0.0
0.0 0.04415731276741901 0.0381118031928147 -0.03717945747153789 -0.0009323457212767846 0.010868458638726087 0.0 0.0
0.0 0.02962957973235199 0.02562366153774381 -0.024795368669511673 -0.0008282928682321322 0.007668824144685904 0.0 0.0
0.0 0.017954026011245468 0.01559827537190897 -0.014875529655059538 -0.000722745716849422 0.0048636206894323766 0.0 0.0
0.0 0.009371753990906194 0.00821131262290671 -0.0076101382826115095 -0.0006011743402951949 0.002714881334124026 0.0 0.0
0.0 0.003987294854231464 0.003394112458657309 -0.002988874611415501 -0.0004052378472418078 0.0012628334604549768 0.0 0.0
0.0 0.0010507980968279917 0.0008737756316927332 -0.000721490696959474 -0.0001522849347332591 0.00040605899961133614 0.0 0.0
0.0 7.04867465015336e-05 6.0265290454719365e-05 -4.741790148360548e-05 -1.2847388971113932e-05 3.764821070334604e-05 0.0 0.0
0.0 0.0 0.0 0.0 0.0 0.0 0.0 0.0
0.0 0.0 0.0 0.0 0.0 0.0 0.0 0.0
0.0 0.009060784514809617 0.00627240506305929 -0.006813394344504944 0.0005409892814456477 0.00736139579041397 0.0 0.0
0.0 0.0069136268985585244 0.00460397522816009 -0.005127752399542566 0.0005237771713824757 -0.005919014296920579 0.0 0.0
0.0 0.0 0.0 0.0 0.0 0.0 0.0 0.0
0.0 0.0 0.0 0.0 0.0 0.0 0.0 0.0
0.0 1.5304093985500946e-05 1.0292112196471702e-05 -8.091747102036819e-06 -2.200365094434866e-06 -1.0643244142734739e-05 0.0 0.0
0.0 0.0005827679783041219 0.0004742287289711956 -0.0003863805018077431 -8.78482271634522e-05 -0.00034928467814632273 0.0 0.0
0.0 0.002866032426459855 0.0023817770192176776 -0.0020591236013851183 -0.0003226534178325596 -0.0013392821709714542 0.0 0.0
0.0 0.00743915910225279 0.006394304658827783 -0.0058465476767632025 -0.0005477569820645798 -0.003103126520343907 0.0 0.0
0.0 0.0148721344323492 0.012781624794341782 -0.012092467030980946 -0.0006891577633608346 -0.005756097052462985 0.0 0.0
0.0 0.025137675490592218 0.021520157481870215 -0.02072527749247233 -0.000794879989397891 -0.009162387392484298 0.0 0.0
0.0 0.037884118601663144 0.032404958987023516 -0.03151161594752601 -0.0008933430394974618 -0.013019123793635554 0.0 0.0
0.0 0.05280732658355446 0.045164666653570114 -0.044175538109795756 -0.0009891285437743486 -0.01696403134373097 0.0 0.0
0.0 0.06962124583682165 0.059571428073443594 -0.058487537482100296 -0.001083890591343298 -0.020809208627510203 0.0 0.0
0.0 0.08808577474221885 0.07543648650001189 -0.07425813275358767 -0.0011783537464242016 -0.024563493300322373 0.0 0.0
0.0 0.10799391881400218 0.09254666087732022 -0.09127370941453936 -0.0012729514627808636 -0.028171935251778725 0.0 0.0
0.0 0.12894998344522113 0.11060314952478412 -0.10923616147786351 -0.001366988046920588 -0.031431435671378495 0.0 0.0
0.0 0.15020038203996935 0.12915872085781155 -0.12769579591668523 -0.001462924941126299 -0.033911506082890175 0.0 0.0
0.0 0.17127192519915607 0.14748401739679537 -0.14591792661519465 -0.001566090781600642 -0.0349553945771277 0.0 0.0
0.0 0.19061008114141725 0.1644138322816348 -0.16273741770844752 -0.0016764145731871865 -0.033790907810025556 0.0 0.0
0.0 0.20633330593027918 0.17833097323820926 -0.17654874089020076 -0.0017822323480084807 -0.02921512058441499 0.0 0.0
0.0 0.21647720778405316 0.18749569046550307 -0.18563438902922916 -0.0018613014362740604 -0.019752088807804248 0.0 0.0
0.0 0.21647720778404217 0.18749569046549142 -0.18563438902921853 -0.0018613014362730245 0.019752088807869557 0.0 0.0
0.0 0.20633330593024796 0.17833097323817745 -0.1765487408901712 -0.0017822323480061533 0.029215120584499994 0.0 0.0
0.0 0.19061008114136158 0.1644138322815818 -0.16273741770839772 -0.0016764145731839575 0.03379090781008668 0.0 0.0
0.0 0.17127192519907067 0.14748401739671876 -0.14591792661512032 -0.0015660907815984253 0.03495539457715212 0.0 0.0
0.0 0.15020038203986866 0.12915872085772406 -0.12769579591659874 -0.0014629249411253187 0.033911506082880793 0.0 0.0
0.0 0.12894998344511444 0.11060314952469182 -0.10923616147777195 -0.0013669880469197987 0.03143143567136453 0.0 0.0
0.0 0.10799391881390019 0.09254666087723139 -0.09127370941445156 -0.0012729514627798442 0.028171935251768518 0.0 0.0
0.0 0.08808577474211751 0.07543648649992331 -0.07425813275350053 -0.00117835374642279 0.0245634933003109 0.0 0.0
0.0 0.06962124583671925 0.059571428073355685 -0.05848753748201248 -0.0010838905913432076 0.02080920862748316 0.0 0.0
0.0 0.05280732658346279 0.04516466665349147 -0.04417553810971726 -0.0009891285437741806 0.016964031343703733 0.0 0.0
0.0 0.03788411860158449 0.032404958986956736 -0.03151161594745978 -0.0008933430394969307 0.01301912379360337 0.0 0.0
0.0 0.025137675490531624 0.02152015748181829 -0.02072527749242066 -0.00079487998939763 0.009162387392464104 0.0 0.0
0.0 0.014872134432304271 0.012781624794303396 -0.012092467030942874 -0.0006891577633605171 0.00575609705244568 0.0 0.0
0.0 0.0074391591022254285 0.006394304658804656 -0.005846547676740643 -0.0005477569820640105 0.0031031265203332508 0.0 0.0
0.0 0.002866032426444503 0.002381777019205594 -0.0020591236013740603 -0.00032265341783153326 0.0013392821709645854 0.0 0.0
0.0 0.0005827679782991304 0.0004742287289677443 -0.0003863805018048643 -8.784822716287991e-05 0.0003492846781440342 0.0 0.0
0.0 1.5304093984764315e-05 1.0292112196498691e-05 -8.09174710205178e-06 -2.200365094446904e-06 1.0643244142737046e-05 0.0 0.0
0.0 0.0 0.0 0.0 0.0 0.0 0.0 0.0
0.0 0.0 0.0 0.0 0.0 0.0 0.0 0.0
0.0 0.006913626898539814 0.004603975228147611 -0.005127752399529498 0.0005237771713818849 0.005919014296901561 0.0 0.0
0.0 0.005129981045941311 0.003303332046451563 -0.003773596096374166 0.00047026404992260394 -0.004481162044384743 0.0 0.0
0.0 0.0 0.0 0.0 0.0 0.0 0.0 0.0
0.0 0.0 0.0 0.0 0.0 0.0 0.0 0.0
0.0 2.836769569875827e-06 1.8257890150720321e-06 -1.4120534258927208e-06 -4.137355891793109e-07 -2.750411581827901e-06 0.0 0.0
0.0 0.00028162141662452266 0.00021248718397272592 -0.0001717170023323344 -4.077018164039152e-05 -0.00023917891708234287 0.0 0.0
0.0 0.0018995851379438173 0.001528098481539956 -0.0012960206199563048 -0.0002320778615836509 -0.0012560604781181942 0.0 0.0
0.0 0.005720281293323896 0.004688746837052828 -0.004213334247868159 -0.00047541258918466756 -0.003150040917674936 0.0 0.0
0.0 0.011926759188960622 0.010020633465487467 -0.009376776572824586 -0.0006438568926628778 -0.006076928325469559 0.0 0.0
0.0 0.0206946350157223 0.017444869203251834 -0.016690289289538907 -0.0007545799137129387 -0.009882371741971412 0.0 0.0
0.0 0.031648982330999914 0.026703645600023675 -0.0258554158348483 -0.0008482297651753706 -0.014136234142818695 0.0 0.0
0.0 0.044414618415458115 0.03752988405374527 -0.0365933690115859 -0.0009365150421593888 -0.018484550680155632 0.0 0.0
0.0 0.05872557743088472 0.04972300679284053 -0.04870098377655951 -0.0010220230162810012 -0.022734292329218156 0.0 0.0
0.0 0.07449493294145579 0.06314402708410416 -0.06203763946901614 -0.0011063876150880308 -0.0268920364448365 0.0 0.0
0.0 0.09134847327019867 0.07765002005390026 -0.07646003874599189 -0.0011899813079083877 -0.030904288878331108 0.0 0.0
0.0 0.10925478561931062 0.09302827727775771 -0.09175603571652091 -0.0012722415612367753 -0.034537373676306285 0.0 0.0
0.0 0.1278068629710451 0.10895845127579955 -0.10760303414488523 -0.00135541713091421 -0.037411483349637356 0.0 0.0
0.0 0.14599634336491263 0.1249078970669103 -0.12346371535187485 -0.0014441817150354231 -0.03892325992728867 0.0 0.0
0.0 0.1630658439662358 0.13997673078692463 -0.13843614701273876 -0.001540583774185748 -0.03800402616865336 0.0 0.0
0.0 0.17741971878811794 0.15284250813535066 -0.15120640087580467 -0.001636107259545917 -0.032878790353646985 0.0 0.0
0.0 0.1873188298394753 0.16198750066031636 -0.1602740852477261 -0.0017134154125900203 -0.021737770543464145 0.0 0.0
0.0 0.18731882983946396 0.16198750066030404 -0.16027408524771408 -0.00171341541258983 0.021737770543533895 0.0 0.0
0.0 0.17741971878807972 0.15284250813531303 -0.1512064008757662 -0.0016361072595468256 0.032878790353737156 0.0 0.0
0.0 0.16306584396617602 0.13997673078686837 -0.13843614701268175 -0.0015405837741865674 0.038004026168721686 0.0 0.0
0.0 0.14599634336483586 0.12490789706684144 -0.12346371535180597 -0.001444181715035435 0.038923259927314394 0.0 0.0
0.0 0.1278068629709565 0.10895845127572269 -0.1076030341448087 -0.0013554171309140303 0.03741148334962784 0.0 0.0
0.0 0.1092547856192217 0.09302827727768019 -0.09175603571644518 -0.0012722415612350909 0.034537373676291706 0.0 0.0
0.0 0.09134847327010806 0.07765002005382132 -0.07646003874591412 -0.0011899813079072601 0.03090428887831836 0.0 0.0
0.0 0.07449493294136826 0.06314402708402819 -0.06203763946894025 -0.0011063876150878764 0.026892036444822347 0.0 0.0
0.0 0.05872557743079784 0.04972300679276628 -0.04870098377648581 -0.0010220230162804435 0.02273429232918959 0.0 0.0
0.0 0.0444146184153839 0.03752988405368216 -0.036593369011523554 -0.0009365150421586105 0.018484550680125833 0.0 0.0
0.0 0.031648982330934564 0.0267036455999694 -0.025855415834794625 -0.0008482297651747961 0.014136234142784178 0.0 0.0
0.0 0.020694635015671783 0.017444869203209354 -0.016690289289496566 -0.0007545799137127801 0.009882371741948615 0.0 0.0
0.0 0.011926759188925362 0.010020633465458065 -0.0093767765727959 -0.000643856892662164 0.006076928325452404 0.0 0.0
0.0 0.005720281293300688 0.004688746837033993 -0.004213334247850199 -0.00047541258918379554 0.0031500409176633496 0.0 0.0
0.0 0.0018995851379324537 0.0015280984815312535 -0.0012960206199486876 -0.00023207786158256524 0.0012560604781113843 0.0 0.0
0.0 0.00028162141662201853 0.0002124871839714122 -0.0001717170023312335 -4.0770181640178604e-05 0.00023917891708079172 0.0 0.0
0.0 2.8367695698324324e-06 1.8257890152836159e-06 -1.4120534260575036e-06 -4.137355892261098e-07 2.750411582159169e-06 0.0 0.0
0.0 0.0 0.0 0.0 0.0 0.0 0.0 0.0
0.0 0.0 0.0 0.0 0.0 0.0 0.0 0.0
0.0 0.005129981045925444 0.003303332046441198 -0.0037735960963631763 0.0004702640499219765 0.00448116204436951 0.0 0.0
0.0 0.0036280505802134978 0.002270265027182493 -0.0026629570336670523 0.0003926920064845585 -0.003228458905087958 0.0 0.0
0.0 7.761818097908707e-08 -1.6545393973634885e-09 1.4170477556670242e-09 2.3749164169630387e-10 1.5147987326691532e-08 0.0 0.0
0.0 0.0 0.0 0.0 0.0 0.0 0.0 0.0
0.0 1.3814681937428104e-06 -4.4843850434374635e-09 4.232949451638718e-09 2.5143559179627493e-10 2.3473234473579155e-08 0.0 0.0
0.0 0.00012958894705904014 8.100430062039465e-05 -6.521668709039633e-05 -1.57876135299983e-05 -0.0001375252469573075 0.0 0.0
0.0 0.0011328326570500065 0.0008636845293023981 -0.0007198125877507517 -0.00014387194155164612 -0.0010413475027867302 0.0 0.0
0.0 0.004002921902165654 0.0031701665774159812 -0.0027894991094855465 -0.00038066746793043475 -0.002954518145852791 0.0 0.0
0.0 0.009116741274987638 0.007380329351640352 -0.00680211252624171 -0.000578216825398641 -0.0059015904045001556 0.0 0.0
0.0 0.01638127803999526 0.013444179401154615 -0.012740384450595147 -0.0007037949505594669 -0.00980472165608476 0.0 0.0
0.0 0.025477510216399355 0.02106024881887347 -0.020264708791405087 -0.0007955400274683675 -0.014212058717913376 0.0 0.0
0.0 0.03604909580005921 0.029940469235570755 -0.029063807217530938 -0.000876662018039826 -0.01869470978543807 0.0 0.0
0.0 0.04787655184713273 0.039910771926577285 -0.03895739515989599 -0.0009533767666813186 -0.023084793535373436 0.0 0.0
0.0 0.06083657823867242 0.05088038088691156 -0.049852967117770215 -0.0010274137691413394 -0.027393365590850663 0.0 0.0
0.0 0.07483241197590632 0.06277096861070704 -0.061670890391806725 -0.0011000782189003063 -0.03155124641819505 0.0 0.0
0.0 0.08972233784107683 0.07545095555652556 -0.07427921208737286 -0.0011717434691527642 -0.035347527870592546 0.0 0.0
0.0 0.10497746205355095 0.0887039087406435 -0.08746224813863748 -0.0012416606020060092 -0.03845088026598967 0.0 0.0
0.0 0.12060707066167287 0.10219734026718355 -0.1008839074388796 -0.0013134328283039517 -0.040322222457340004 0.0 0.0
0.0 0.13557995553429567 0.1153826457985613 -0.11398953252261215 -0.0013931132759491106 -0.03988038465899625 0.0 0.0
0.0 0.14853722628011132 0.1272998484542683 -0.1258203073697473 -0.001479541084520867 -0.03499351745949783 0.0 0.0
0.0 0.1583871292673245 0.13660217385909298 -0.1350420525848086 -0.0015601212742843151 -0.023348231784584405 0.0 0.0
0.0 0.15838712926731663 0.13660217385908316 -0.1350420525847986 -0.0015601212742845385 0.023348231784657097 0.0 0.0
0.0 0.14853722628008342 0.12729984845423772 -0.12582030736971672 -0.0014795410845210057 0.034993517459590145 0.0 0.0
0.0 0.13557995553425134 0.11538264579851673 -0.1139895325225677 -0.0013931132759490421 0.039880384659064516 0.0 0.0
0.0 0.12060707066161276 0.10219734026712815 -0.10088390743882439 -0.001313432828303726 0.04032222245736748 0.0 0.0
0.0 0.10497746205347855 0.08870390874058098 -0.08746224813857537 -0.0012416606020055941 0.038450880265977795 0.0 0.0
0.0 0.08972233784100364 0.07545095555646242 -0.07427921208731021 -0.001171743469152188 0.03534752787057721 0.0 0.0
0.0 0.07483241197583104 0.062770968610642 -0.06167089039174116 -0.0011000782189008623 0.03155124641818023 0.0 0.0
0.0 0.060836578238599726 0.050880380886849236 -0.0498529671177076 -0.0010274137691416506 0.02739336559083393 0.0 0.0
0.0 0.0478765518470678 0.039910771926522357 -0.038957395159841646 -0.0009533767666806949 0.023084793535348355 0.0 0.0
0.0 0.03604909579999922 0.029940469235520892 -0.02906380721748139 -0.000876662018039496 0.018694709785408672 0.0 0.0
0.0 0.025477510216346574 0.021060248818830514 -0.020264708791362634 -0.0007955400274678798 0.014212058717879629 0.0 0.0
0.0 0.01638127803995575 0.013444179401122016 -0.012740384450563212 -0.0007037949505587979 0.009804721656061676 0.0 0.0
0.0 0.009116741274961216 0.007380329351619041 -0.0068021125262210476 -0.0005782168253979948 0.005901590404484318 0.0 0.0
0.0 0.004002921902148801 0.0031701665774027236 -0.002789499109473324 -0.00038066746792939993 0.0029545181458422633 0.0 0.0
0.0 0.0011328326570421807 0.0008636845292971555 -0.0007198125877461708 -0.00014387194155098454 0.001041347502780288 0.0 0.0
0.0 0.00012958894705674803 8.100430061945205e-05 -6.521668708960488e-05 -1.5787613529847142e-05 0.00013752524695566587 0.0 0.0
0.0 1.3814681934965904e-06 -4.484384895905387e-09 4.232949338808579e-09 2.514355570842634e-10 -2.3473234145188233e-08 0.0 0.0
0.0 0.0 0.0 0.0 0.0 0.0 0.0 0.0
0.0 7.761818091499395e-08 -1.6545393959844891e-09 1.4170477544857094e-09 2.374916414986896e-10 -1.5147987314084823e-08 0.0 0.0
0.0 0.0036280505802013512 0.002270265027174843 -0.0026629570336587395 0.00039269200648389625 0.0032284589050767362 0.0 0.0
0.0 0.0024257718395431973 0.0014549876449670685 -0.0017543065129201332 0.0002993188679530627 -0.002186016662202604 0.0 0.0
0.0 6.808126749334917e-07 -1.0371231226033877e-08 1.1382208934150606e-08 -1.010977708115995e-09 1.3495275768488005e-07 0.0 0.0
0.0 3.7869285625906513e-07 -1.0853022555903305e-08 7.76318668522007e-09 3.0898358706842675e-09 7.416418593090768e-08 0.0 0.0
0.0 1.7228195024648e-06 1.0549087106151062e-07 -7.841701418710205e-08 -2.7073856874398466e-08 -3.273929835746491e-07 0.0 0.0
0.0 6.847165941298465e-05 3.504438935091392e-05 -2.8048511412571345e-05 -6.995877938342606e-06 -8.971416509605184e-05 0.0 0.0
0.0 0.0006439434429336558 0.000406174651551964 -0.00033363626920149443 -7.25383823504699e-05 -0.0007327895857177316 0.0 0.0
0.0 0.0025721644246336503 0.0018799615904575113 -0.001614970374949606 -0.000264991215507906 -0.002495441105558043 0.0 0.0
0.0 0.006439398130321315 0.004945414617112561 -0.004461590907932361 -0.0004838237091801976 -0.005294641243625428 0.0 0.0
0.0 0.012190960841863113 0.009592662489924077 -0.0089593273584221 -0.000633335131501975 -0.008980826045467516 0.0 0.0
0.0 0.019406147906486364 0.015532055374994113 -0.014801073121257105 -0.000730982253737005 -0.013219956975742516 0.0 0.0
0.0 0.02776779365333998 0.022454270686810534 -0.021647637424495603 -0.0008066332623149317 -0.01758476278254662 0.0 0.0
0.0 0.0370802662101859 0.030198028253700864 -0.02932266983387124 -0.0008753584198296141 -0.02184962760649856 0.0 0.0
0.0 0.047287731786420706 0.03870976445965457 -0.03777057408851131 -0.0009391903711432484 -0.02603232676848402 0.0 0.0
0.0 0.05828790223463648 0.04797376370027768 -0.046973259086926095 -0.0010005046133515843 -0.03010330418293712 0.0 0.0
0.0 0.07006348445065627 0.05793594663325265 -0.056874729694934116 -0.0010612169383185039 -0.03384886485599672 0.0 0.0
0.0 0.08238421973462173 0.0684675104643501 -0.06734682979026617 -0.0011206806740839505 -0.03693584286813879 0.0 0.0
0.0 0.09496626901483532 0.07940487140418273 -0.07823052047281187 -0.0011743509313708288 -0.03901451849636365 0.0 0.0
0.0 0.10761514797620997 0.09057942485807041 -0.08934711994101008 -0.0012323049170603617 -0.03926385661509538 0.0 0.0
0.0 0.11963473357354357 0.10151042901441025 -0.10020322215934883 -0.001307206855061326 -0.035430488952547315 0.0 0.0
0.0 0.12964736167666724 0.11108395761156385 -0.10968836402698517 -0.0013955935845786358 -0.024553517114463422 0.0 0.0
0.0 0.12964736167666016 0.11108395761155408 -0.10968836402697565 -0.0013955935845783509 0.02455351711453089 0.0 0.0
0.0 0.1196347335735278 0.10151042901438836 -0.10020322215932802 -0.0013072068550604489 0.03543048895263779 0.0 0.0
0.0 0.10761514797617669 0.09057942485803429 -0.08934711994097391 -0.001232304917060297 0.03926385661516241 0.0 0.0
0.0 0.09496626901478905 0.07940487140413843 -0.07823052047276766 -0.0011743509313707696 0.03901451849639201 0.0 0.0
0.0 0.08238421973456346 0.06846751046429964 -0.06734682979021611 -0.0011206806740835318 0.036935842868127636 0.0 0.0
0.0 0.07006348445059551 0.05793594663320098 -0.05687472969488292 -0.001061216938318021 0.03384886485597683 0.0 0.0
0.0 0.058287902234582 0.04797376370023047 -0.04697325908687971 -0.001000504613350767 0.030103304182924222 0.0 0.0
0.0 0.04728773178636845 0.03870976445960959 -0.037770574088466825 -0.0009391903711427442 0.026032326768469897 0.0 0.0
0.0 0.03708026621013558 0.03019802825365881 -0.02932266983382995 -0.0008753584198288804 0.02184962760647472 0.0 0.0
0.0 0.027767793653289834 0.02245427068676967 -0.02164763742445554 -0.0008066332623141085 0.017584762782516666 0.0 0.0
0.0 0.019406147906439863 0.015532055374958179 -0.014801073121221583 -0.00073098225373659 0.013219956975706371 0.0 0.0
0.0 0.012190960841826814 0.009592662489895517 -0.00895932735839399 -0.0006333351315015303 0.008980826045443762 0.0 0.0
0.0 0.006439398130296018 0.004945414617093236 -0.004461590907913792 -0.0004838237091794442 0.00529464124360686 0.0 0.0
0.0 0.0025721644246196954 0.0018799615904471752 -0.0016149703749403189 -0.00026499121550685467 0.0024954411055466735 0.0 0.0
0.0 0.0006439434429272561 0.00040617465154823857 -0.0003336362691983877 -7.253838234985066e-05 0.0007327895857114407 0.0 0.0
0.0 6.847165941136917e-05 3.5044389350691416e-05 -2.8048511412382924e-05 -6.995877938308494e-06 8.971416509543726e-05 0.0 0.0
0.0 1.7228195022306637e-06 1.0549087116123398e-07 -7.841701426253912e-08 -2.707385689869294e-08 3.273929839156363e-07 0.0 0.0
0.0 3.786928558295237e-07 -1.0853022544114866e-08 7.763186676628835e-09 3.0898358674860974e-09 -7.416418584570931e-08 0.0 0.0
0.0 6.808126741997652e-07 -1.0371231215047161e-08 1.1382208922371451e-08 -1.0109777073237724e-09 -1.34952757536912e-07 0.0 0.0
0.0 0.0024257718395337144 0.001454987644961502 -0.0017543065129138574 0.00029931886795235465 0.0021860166621943647 0.0 0.0
0.0 0.001475994745526409 0.0008354760593153746 -0.001038501927103452 0.0002030258677880766 -0.0013449250497571208 0.0 0.0
0.0 2.5487188251360655e-06 1.3595848424314016e-07 -1.3838489447848604e-07 2.4264102353446374e-09 -2.965002454631353e-06 0.0 0.0
0.0 9.358929896336263e-07 3.6097882706931294e-08 -2.3630342861144467e-08 -1.2467539845786303e-08 -3.9468201289598783e-07 0.0 0.0
0.0 3.870553638130383e-06 7.605810356307204e-07 -5.824352508834e-07 -1.781457847473185e-07 -4.82050372785744e-06 0.0 0.0
0.0 5.304915572640741e-05 1.9175149356067334e-05 -1.524410642315977e-05 -3.93104293290758e-06 -7.718135905566316e-05 0.0 0.0
0.0 0.0003497241212269527 0.00016473853847692312 -0.00013385290400914554 -3.0885634467777646e-05 -0.0004792032186470909 0.0 0.0
0.0 0.0014816936538990819 0.0008979041912849566 -0.0007525322462345253 -0.0001453719450504312 -0.0018383088982986825 0.0 0.0
0.0 0.004049178470304206 0.0028009804956762134 -0.0024534463211846507 -0.0003475341744915629 -0.004273349757248256 0.0 0.0
0.0 0.00820336671360319 0.005990593701474444 -0.005464484178299775 -0.000526109523174665 -0.007494975882785723 0.0 0.0
0.0 0.013434960663870663 0.010206995488541159 -0.009565338706077573 -0.0006416567824635872 -0.011214272275313813 0.0 0.0
0.0 0.01966087599543176 0.015146236265653392 -0.014427363594834671 -0.0007188726708187127 -0.015118446958936731 0.0 0.0
0.0 0.026418790241435643 0.020660199748807884 -0.019878827410721826 -0.0007813723380860606 -0.018984474835409992 0.0 0.0
0.0 0.033819092662858825 0.026713030286733833 -0.025876994607223733 -0.0008360356795101 -0.022787931941066243 0.0 0.0
0.0 0.041877836015699985 0.03333513951845911 -0.0324492850386286 -0.0008858544798304956 -0.026503464579455027 0.0 0.0
0.0 0.050616446380448155 0.04055518081409011 -0.039620683026362936 -0.0009344977877271554 -0.029989417669162542 0.0 0.0
0.0 0.059821916241124956 0.04834194292700773 -0.04735765318342165 -0.0009842897435860599 -0.03290079410537186 0.0 0.0
0.0 0.06950024041922534 0.05663368335146854 -0.0556064781358478 -0.001027205215620714 -0.034893961567637743 0.0 0.0
0.0 0.07958079336391057 0.06555453469565774 -0.06449726501386299 -0.0010572696817947283 -0.03576146233393422 0.0 0.0
0.0 0.09012155529017042 0.0752721953023877 -0.07416281340444272 -0.0011093818979449736 -0.03379104449599798 0.0 0.0
0.0 0.10026591815251033 0.08514156309316356 -0.08393315908572259 -0.0012084040074410698 -0.025222147729810036 0.0 0.0
0.0 0.10026591815250731 0.08514156309315692 -0.08393315908571536 -0.001208404007441544 0.02522214772987002 0.0 0.0
0.0 0.0901215552901566 0.07527219530236712 -0.07416281340442166 -0.0011093818979454333 0.0337910444960815 0.0 0.0
0.0 0.07958079336389047 0.06555453469563179 -0.0644972650138377 -0.0010572696817940414 0.035761462333997115 0.0 0.0
0.0 0.06950024041919634 0.05663368335143919 -0.05560647813581977 -0.0010272052156194266 0.03489396156765864 0.0 0.0
0.0 0.059821916241090164 0.04834194292697823 -0.04735765318339314 -0.0009842897435850496 0.03290079410536024 0.0 0.0
0.0 0.050616446380402545 0.04055518081405236 -0.03962068302632553 -0.0009344977877268536 0.02998941766914387 0.0 0.0
0.0 0.04187783601565874 0.033335139518424574 -0.0324492850385946 -0.0008858544798299778 0.026503464579439945 0.0 0.0
0.0 0.03381909266282385 0.02671303028670358 -0.025876994607194212 -0.0008360356795093669 0.022787931941056848 0.0 0.0
0.0 0.026418790241395967 0.020660199748776042 -0.01987882741069027 -0.0007813723380857708 0.018984474835386893 0.0 0.0
0.0 0.01966087599539535 0.015146236265625238 -0.014427363594806626 -0.0007188726708185993 0.015118446958910361 0.0 0.0
0.0 0.013434960663839392 0.01020699548851871 -0.009565338706055635 -0.00064165678246307 0.011214272275285054 0.0 0.0
0.0 0.008203366713579808 0.005990593701457221 -0.005464484178283025 -0.0005261095231741962 0.0074949758827666775 0.0 0.0
0.0 0.004049178470290253 0.0028009804956659868 -0.0024534463211752923 -0.00034753417449069553 0.0042733497572361645 0.0 0.0
0.0 0.0014816936538907693 0.000897904191279893 -0.0007525322462301282 -0.00014537194504976426 0.001838308898290058 0.0 0.0
0.0 0.00034972412122387023 0.0001647385384758655 -0.00013385290400825232 -3.088563446761324e-05 0.00047920321864404437 0.0 0.0
0.0 5.3049155724931797e-05 1.9175149356036116e-05 -1.5244106423128765e-05 -3.931042932907331e-06 7.718135905552336e-05 0.0 0.0
0.0 3.870553637989727e-06 7.605810357486475e-07 -5.824352509725618e-07 -1.7814578477608864e-07 4.8205037286139e-06 0.0 0.0
0.0 9.358929893628866e-07 3.609788275994792e-08 -2.363034289643009e-08 -1.2467539863516878e-08 3.9468201356647116e-07 0.0 0.0
0.0 2.5487188245675184e-06 1.3595848428110378e-07 -1.3838489452308913e-07 2.4264102419852818e-09 2.9650024555736362e-06 0.0 0.0
0.0 0.0014759947455190716 0.0008354760593115478 -0.0010385019270989725 0.00020302586778742475 0.001344925049751107 0.0 0.0
0.0 0.0007296696773641977 0.00040423117728622944 -0.0005214386025615967 0.00011720742527536763 -0.0007085129008547701 0.0 0.0
0.0 5.250112753425976e-06 1.3325139619256208e-07 -1.800542890599041e-07 4.6802892867342135e-08 -5.055207354155794e-06 0.0 0.0
0.0 4.301712006592694e-06 7.918299872228925e-08 -3.410481719895723e-08 -4.507818152333221e-08 -4.831388713906085e-06 0.0 0.0
0.0 8.500991351992887e-06 8.35581748437798e-07 -5.919058798064279e-07 -2.436758686313667e-07 -1.1920843259156214e-05 0.0 0.0
0.0 5.576375425981242e-05 1.1307571710170935e-05 -8.87594415105941e-06 -2.4316275591115304e-06 -8.629207427104195e-05 0.0 0.0
0.0 0.00023463128647440335 6.494492866337528e-05 -5.2466176236654524e-05 -1.247875242672079e-05 -0.0003524637949715445 0.0 0.0
0.0 0.000783326759038986 0.0003056480884583094 -0.000250638192474125 -5.500989598418415e-05 -0.0011654076601070131 0.0 0.0
0.0 0.002106161079131998 0.001106010527788937 -0.000932975685143348 -0.00017303484264558894 -0.002897215550914011 0.0 0.0
0.0 0.0045460377444175885 0.0027881788077624187 -0.0024425668335957117 -0.0003456119741667074 -0.005389852598728687 0.0 0.0
0.0 0.007843235836612025 0.005224309401056173 -0.0047350422980832 -0.0004892671029729746 -0.008283257897701025 0.0 0.0
0.0 0.011709537345002761 0.008151473489843542 -0.007566430236289715 -0.0005850432535538245 -0.011385011407777857 0.0 0.0
0.0 0.0160678241936917 0.011417162218420795 -0.010767785706047703 -0.0006493765123730823 -0.014544841450984648 0.0 0.0
0.0 0.020772836332682232 0.01501061397446996 -0.014311226337389814 -0.0006993876370801499 -0.017728920959529035 0.0 0.0
0.0 0.025915274651876347 0.018983938319075053 -0.018244044991430366 -0.0007398933276446681 -0.02086942352766448 0.0 0.0
0.0 0.03154919738996585 0.023425377695275564 -0.022649832959517998 -0.0007755447357575709 -0.02389065275019979 0.0 0.0
0.0 0.037698664567412825 0.028429046618598117 -0.02761683068822947 -0.0008122159303686497 -0.026564206641229063 0.0 0.0
0.0 0.04436791154033688 0.03405081727195046 -0.033198285513015735 -0.0008525317589347432 -0.028429155642854295 0.0 0.0
0.0 0.05175214729623594 0.04048280293976709 -0.039611023303678154 -0.000871779636088937 -0.029415693520131347 0.0 0.0
0.0 0.06059864671192962 0.04843721482886571 -0.0475661524555981 -0.0008710623732676032 -0.029419856506294813 0.0 0.0
0.0 0.07077014364030204 0.05838466384451877 -0.057411380294948064 -0.0009732835495707207 -0.024973984982376185 0.0 0.0
0.0 0.07077014364030361 0.0583846638445148 -0.0574113802949443 -0.0009732835495705109 0.024973984982428934 0.0 0.0
0.0 0.06059864671192576 0.048437214828853145 -0.04756615245558536 -0.0008710623732677368 0.029419856506368337 0.0 0.0
0.0 0.05175214729622083 0.04048280293974575 -0.0396110233036565 -0.0008717796360892498 0.029415693520184267 0.0 0.0
0.0 0.04436791154030654 0.034050817271922225 -0.033198285512986814 -0.0008525317589354169 0.028429155642864117 0.0 0.0
0.0 0.037698664567380136 0.028429046618573244 -0.027616830688204665 -0.0008122159303685782 0.02656420664120933 0.0 0.0
0.0 0.031549197389936175 0.023425377695253154 -0.02264983295949548 -0.0007755447357576674 0.023890652750181887 0.0 0.0
0.0 0.025915274651853507 0.018983938319056697 -0.018244044991412287 -0.0007398933276444098 0.02086942352765543 0.0 0.0
0.0 0.020772836332665995 0.015010613974456204 -0.014311226337376859 -0.0006993876370793525 0.017728920959524472 0.0 0.0
0.0 0.01606782419366637 0.011417162218402263 -0.010767785706029678 -0.0006493765123725811 0.014544841450965802 0.0 0.0
0.0 0.01170953734497915 0.008151473489827477 -0.007566430236274084 -0.0005850432535533938 0.01138501140775586 0.0 0.0
0.0 0.007843235836589735 0.005224309401041915 -0.004735042298069509 -0.0004892671029724047 0.008283257897677723 0.0 0.0
0.0 0.0045460377444027185 0.00278817880775224 -0.002442566833586337 -0.0003456119741659031 0.005389852598714152 0.0 0.0
0.0 0.0021061610791228377 0.0011060105277836553 -0.0009329756851386348 -0.00017303484264502054 0.0028972155509032647 0.0 0.0
0.0 0.0007833267590346366 0.00030564808845654184 -0.0002506381924726797 -5.50098959838622e-05 0.0011654076601016975 0.0 0.0
0.0 0.00023463128647279054 6.494492866330231e-05 -5.2466176236588944e-05 -1.247875242671334e-05 0.00035246379497081565 0.0 0.0
0.0 5.576375425891752e-05 1.1307571710193168e-05 -8.87594415107369e-06 -2.4316275591194743e-06 8.62920742712177e-05 0.0 0.0
0.0 8.500991351780268e-06 8.355817484765706e-07 -5.919058798328099e-07 -2.4367586864375765e-07 1.1920843259741151e-05 0.0 0.0
0.0 4.301712005756528e-06 7.918299873176743e-08 -3.4104817202722405e-08 -4.5078181529044315e-08 4.8313887146127466e-06 0.0 0.0
0.0 5.250112753165411e-06 1.332513962168992e-07 -1.800542890989648e-07 4.680289288206523e-08 5.0552073550706985e-06 0.0 0.0
0.0 0.0007296696773589737 0.00040423117728379855 -0.0005214386025586219 0.00011720742527482301 0.0007085129008506232 0.0 0.0
0.0 0.0002613352263130395 0.00013857799737812375 -0.00018690542947585095 4.832743209772719e-05 -0.00026196634654320416 0.0 0.0
0.0 6.507483554038815e-06 -3.4732810377314054e-09 -8.222997287728938e-08 8.570325391502195e-08 -6.7253734507444726e-06 0.0 0.0
0.0 9.006474273305035e-06 -3.956422062326352e-07 3.8275690129547733e-07 1.2885304937158444e-08 -1.2410369322478305e-05 0.0 0.0
0.0 1.5830483651234784e-05 -2.2990167157051318e-07 3.4460824729809727e-07 -1.147065757275848e-07 -2.4555114597226034e-05 0.0 0.0
0.0 6.357510432581189e-05 2.682030820703991e-06 -1.8670724509653148e-06 -8.149583697386814e-07 -9.781071359048217e-05 0.0 0.0
0.0 0.00021145975733913948 1.819510541997438e-05 -1.4505230599725061e-05 -3.689874820249291e-06 -0.00033771274576796084 0.0 0.0
0.0 0.0004992153093076594 6.35100749221742e-05 -5.158597092341622e-05 -1.1924103998757995e-05 -0.000821752431880554 0.0 0.0
0.0 0.0010065960393985727 0.00017631670855319345 -0.00014407357264655083 -3.22431359066425e-05 -0.0016092591473799423 0.0 0.0
0.0 0.001847691100375716 0.0004671325519198748 -0.00038231428202736953 -8.481826989250496e-05 -0.002958251880311635 0.0 0.0
0.0 0.003228440499240132 0.0010331728738069378 -0.0008537203265034407 -0.0001794525473034969 -0.004845450960614017 0.0 0.0
0.0 0.004915042206598641 0.0018576509656037929 -0.0015736629815903467 -0.0002839879840134448 -0.007137409971544495 0.0 0.0
0.0 0.006979793856160228 0.002850422656898145 -0.002482697249666374 -0.0003677254072317693 -0.009625033225459798 0.0 0.0
0.0 0.009278514531400365 0.003982532776192038 -0.003551263277589962 -0.0004312694986020765 -0.012253724504250385 0.0 0.0
0.0 0.01185708271500366 0.005296449104139043 -0.004819362857902378 -0.00047708624623666305 -0.01499931160404562 0.0 0.0
0.0 0.014734505030742254 0.006918178891950975 -0.00640848158949821 -0.0005096973024527582 -0.017809992069794903 0.0 0.0
0.0 0.01804892622151747 0.009060186752675543 -0.008523580769833257 -0.0005366059828422856 -0.020492875190586225 0.0 0.0
0.0 0.021823527663014403 0.011989741585110476 -0.011420049953733712 -0.000569691631376756 -0.022556739814626327 0.0 0.0
0.0 0.026158432344509885 0.015925021556384623 -0.015310618902866863 -0.0006144026535177488 -0.02335020524472782 0.0 0.0
0.0 0.03215897093004669 0.02146271954411158 -0.020867922896729594 -0.0005947966473819929 -0.02359716492867777 0.0 0.0
0.0 0.04142657396441942 0.0304604062807905 -0.02986365739624344 -0.0005967488845470604 -0.023588636513912097 0.0 0.0
0.0 0.04142657396442491 0.0304604062807905 -0.02986365739624325 -0.0005967488845472496 0.023588636513951558 0.0 0.0
0.0 0.03215897093005391 0.021462719544109207 -0.02086792289672741 -0.0005947966473818076 0.023597164928734406 0.0 0.0
0.0 0.02615843234450986 0.01592502155637826 -0.01531061890286107 -0.0006144026535171826 0.023350205244763854 0.0 0.0
0.0 0.021823527662998627 0.011989741585098914 -0.011420049953722587 -0.0005696916313763231 0.022556739814625196 0.0 0.0
0.0 0.018048926221501713 0.009060186752669681 -0.008523580769827352 -0.000536605982842327 0.020492875190563906 0.0 0.0
0.0 0.014734505030725912 0.006918178891942969 -0.006408481589489979 -0.0005096973024529888 0.0178099920697787 0.0 0.0
0.0 0.011857082714992289 0.005296449104134432 -0.004819362857897555 -0.00047708624623687723 0.014999311604033599 0.0 0.0
0.0 0.00927851453139248 0.003982532776189358 -0.00355126327758707 -0.00043126949860228616 0.01225372450424244 0.0 0.0
0.0 0.006979793856149674 0.0028504226568958624 -0.0024826972496643086 -0.00036772540723155274 0.009625033225443962 0.0 0.0
0.0 0.004915042206589273 0.001857650965601637 -0.0015736629815885244 -0.0002839879840131132 0.00713740997153022 0.0 0.0
0.0 0.0032284404992310826 0.001033172873804751 -0.0008537203265016413 -0.00017945254730310993 0.004845450960601022 0.0 0.0
0.0 0.0018476911003721202 0.0004671325519190938 -0.00038231428202676904 -8.481826989232465e-05 0.002958251880305654 0.0 0.0
0.0 0.001006596039396193 0.00017631670855277454 -0.0001440735726462336 -3.2243135906540724e-05 0.001609259147376007 0.0 0.0
0.0 0.0004992153093052418 6.351007492199021e-05 -5.1585970923239094e-05 -1.1924103998751073e-05 0.0008217524318780243 0.0 0.0
0.0 0.00021145975733733748 1.8195105419923453e-05 -1.4505230599679177e-05 -3.68987482024428e-06 0.00033771274576663887 0.0 0.0
0.0 6.357510432469763e-05 2.682030820717671e-06 -1.8670724509740675e-06 -8.149583697436048e-07 9.78107135906015e-05 0.0 0.0
0.0 1.583048365035636e-05 -2.2990167158397857e-07 3.4460824731445914e-07 -1.1470657573048054e-07 2.455511459796093e-05 0.0 0.0
0.0 9.006474272642062e-06 -3.9564220626538333e-07 3.8275690132454915e-07 1.2885304940833293e-08 1.241036932327514e-05 0.0 0.0
0.0 6.507483553871375e-06 -3.4732810326462158e-09 -8.222997290933022e-08 8.570325394197894e-08 6.725373451764483e-06 0.0 0.0
0.0 0.0002613352263104626 0.00013857799737719187 -0.00018690542947464933 4.832743209745741e-05 0.0002619663465414987 0.0 0.0
0.0 4.520814269186146e-05 2.237033451068597e-05 -3.173182220690312e-05 9.361487696217128e-06 -4.599895516312998e-05 0.0 0.0
0.0 6.054046217106691e-06 -1.9416030360565077e-07 5.493224812322141e-08 1.3922805548243418e-07 -6.772881180901926e-06 0.0 0.0
0.0 1.253525672607089e-05 -1.4398126458131895e-06 1.235991043378231e-06 2.0382160243495861e-07 -1.827067956521817e-05 0.0 0.0
0.0 2.329946987760628e-05 -2.9466869641277015e-06 2.611771808795566e-06 3.3491515533213643e-07 -3.634873892318209e-05 0.0 0.0
0.0 7.348069051339249e-05 -7.738510037107724e-06 6.674758689383697e-06 1.0637513477240322e-06 -0.0001118340505019383 0.0 0.0
0.0 0.00022393186553033395 -2.374859699166192e-05 1.9603209365435838e-05 4.145387626226069e-06 -0.0003499481453215368 0.0 0.0
0.0 0.0005085406586625396 -6.800738838822101e-05 5.54418056841468e-05 1.2565582704074204e-05 -0.0008370671148080161 0.0 0.0
0.0 0.001013577926748555 -0.00017931615819721875 0.0001464943742000595 3.28217839971594e-05 -0.0016213842289900143 0.0 0.0
0.0 0.0018496896745085925 -0.000468394768887888 0.00038345760375576676 8.493716513212118e-05 -0.0029633647804463907 0.0 0.0
0.0 0.003229420275630026 -0.001033875073789652 0.0008546407486995174 0.00017923432509013435 -0.004847282963375497 0.0 0.0
0.0 0.004938737263386882 -0.0018707481586865203 0.0015877632379214083 0.0002829849207651126 -0.007147495127909679 0.0 0.0
0.0 0.007025643174650478 -0.0029049819463721075 0.002537200597941425 0.00036778134843068043 -0.009646843950503496 0.0 0.0
0.0 0.00934954259921616 -0.0040759260599363455 0.0036403554877722905 0.0004355705721640526 -0.012266213924837021 0.0 0.0
0.0 0.011841350189201695 -0.005299988719056835 0.004807963255500938 0.0004920254635558934 -0.0149765713947398 0.0 0.0
0.0 0.014290238547506532 -0.006396450847343733 0.005855595000570795 0.0005408558467729335 -0.01775590960084783 0.0 0.0
0.0 0.01649017790803156 -0.007054294608379206 0.006470219174815911 0.0005840754335632881 -0.02054794686072606 0.0 0.0
0.0 0.018074307822968087 -0.006855294887300734 0.0062330984368750425 0.0006221964504256891 -0.02334177214918328 0.0 0.0
0.0 0.018949740246910027 -0.005531066884044332 0.00488859999324007 0.0006424668908042563 -0.026255524270744932 0.0 0.0
0.0 0.01912620305308885 -0.0030238725722551933 0.0024016392240756488 0.0006222333481795428 -0.02886444235497498 0.0 0.0
0.0 0.01926779691108827 0.0041686904591198256 -0.004228813712373762 6.012325325393485e-05 -0.028513721567023993 0.0 0.0
0.0 0.019267796911093288 0.004168690459119994 -0.004228813712373459 6.0123253253468794e-05 0.028513721567038436 0.0 0.0
0.0 0.01912620305309346 -0.0030238725722564206 0.0024016392240773744 0.0006222333481790451 0.02886444235498948 0.0 0.0
0.0 0.01894974024690185 -0.005531066884040238 0.004888599993236199 0.0006424668908040343 0.02625552427074809 0.0 0.0
0.0 0.018074307822953002 -0.0068552948872939775 0.006233098436868912 0.0006221964504250657 0.023341772149168775 0.0 0.0
0.0 0.01649017790800966 -0.007054294608367029 0.006470219174803912 0.0005840754335631092 0.020547946860703412 0.0 0.0
0.0 0.014290238547492836 -0.0063964508473362625 0.005855595000563398 0.0005408558467728583 0.01775590960083273 0.0 0.0
0.0 0.01184135018918559 -0.005299988719047013 0.004807963255491401 0.0004920254635556139 0.014976571394726275 0.0 0.0
0.0 0.009349542599196105 -0.004075926059922255 0.0036403554877584518 0.0004355705721638017 0.012266213924824444 0.0 0.0
0.0 0.007025643174630244 -0.00290498194636113 0.0025372005979309165 0.00036778134843021184 0.009646843950482702 0.0 0.0
0.0 0.004938737263368078 -0.0018707481586762939 0.001587763237912015 0.00028298492076427923 0.007147495127888973 0.0 0.0
0.0 0.0032294202756163884 -0.0010338750737846247 0.0008546407486950731 0.0001792343250895507 0.004847282963359031 0.0 0.0
0.0 0.001849689674503499 -0.0004683947688855746 0.0003834576037538894 8.49371651316851e-05 0.002963364780439648 0.0 0.0
0.0 0.001013577926744612 -0.00017931615819603857 0.00014649437419911833 3.282178399692027e-05 0.0016213842289842172 0.0 0.0
0.0 0.0005085406586585897 -6.800738838767596e-05 5.5441805683754704e-05 1.256558270392122e-05 0.0008370671148027454 0.0 0.0
0.0 0.0002239318655280014 -2.3748596991514227e-05 1.9603209365320503e-05 4.14538762619374e-06 0.00034994814531945806 0.0 0.0
0.0 7.348069051141184e-05 -7.738510037031795e-06 6.6747586893199815e-06 1.0637513477117998e-06 0.0001118340505008529 0.0 0.0
0.0 2.3299469876874265e-05 -2.946686964116864e-06 2.61177180878509e-06 3.349151553317713e-07 3.634873892298921e-05 0.0 0.0
0.0 1.2535256725341804e-05 -1.4398126458634868e-06 1.2359910434196512e-06 2.0382160244383618e-07 1.8270679565723402e-05 0.0 0.0
0.0 6.054046216941117e-06 -1.9416030362506714e-07 5.493224809618883e-08 1.3922805552888308e-07 6.7728811821382634e-06 0.0 0.0
0.0 4.520814269083267e-05 2.237033451060545e-05 -3.1731822206779554e-05 9.361487696174095e-06 4.599895516317277e-05 0.0 0.0
0.0 2.082951981211534e-06 1.1733023477195418e-07 -1.7256200872694772e-07 5.523177395501195e-08 -2.4353530571897907e-07 0.0 0.0
0.0 4.224223852905908e-06 -3.016017732171179e-07 1.5891503596022089e-07 1.4268673725689542e-07 -5.7688219204644075e-06 0.0 0.0
0.0 1.391752704887767e-05 -2.4779094441081026e-06 2.065751223851018e-06 4.1215822025708086e-07 -1.9870350288527535e-05 0.0 0.0
0.0 2.9775361509995186e-05 -6.090682894101231e-06 5.1862300984214575e-06 9.044527956797889e-07 -4.048128305701295e-05 0.0 0.0
0.0 8.382191211590877e-05 -2.1121139995320532e-05 1.761296901035848e-05 3.5081709849620536e-06 -0.00012639211287905774 0.0 0.0
0.0 0.00026659403243442444 -7.956416183948844e-05 6.496234061703301e-05 1.4601821222455445e-05 -0.0004019041483711784 0.0 0.0
0.0 0.0008167140772918046 -0.00032040617948710006 0.00026319473611217443 5.7211443374925524e-05 -0.0012049249343947448 0.0 0.0
0.0 0.0021216465006382856 -0.0011137854025091549 0.0009399259485938804 0.0001738594539152739 -0.0029181075779207023 0.0 0.0
0.0 0.00454684341538212 -0.0027884227817079636 0.0024430705886318905 0.00034535219307607146 -0.005395225405546117 0.0 0.0
0.0 0.007846231332823856 -0.005226920025805168 0.004738325839401619 0.0004885941864035469 -0.008286523458585613 0.0 0.0
0.0 0.011730615823089144 -0.008171734882690213 0.007588128039096468 0.0005836068435937408 -0.011390215421148583 0.0 0.0
0.0 0.016119061190435643 -0.011475001407189251 0.010826752402037246 0.0006482490051520039 -0.014531770322768301 0.0 0.0
0.0 0.020834380552182112 -0.015095041340974707 0.014392419688661014 0.0007026216523136901 -0.017663183891801083 0.0 0.0
0.0 0.025845044887140636 -0.01894836716998487 0.018194124740167964 0.0007542424298169057 -0.020760526075782482 0.0 0.0
0.0 0.030925784415830222 -0.02281229617264425 0.022006501650566494 0.0008057945220777471 -0.023875111745561846 0.0 0.0
0.0 0.03566286018206597 -0.026290093663935088 0.025435584854558272 0.0008545088093768147 -0.027051360125616368 0.0 0.0
0.0 0.039576254628135916 -0.028853546689214447 0.027961123430155974 0.0008924232590584796 -0.03039406331216304 0.0 0.0
0.0 0.041977326400480436 -0.02991335233207472 0.028995649930390506 0.0009177024016842318 -0.03378401749920474 0.0 0.0
0.0 0.041106725648060366 -0.028277165201397107 0.027269248458583844 0.001007916742813236 -0.035422280611851424 0.0 0.0
0.0 0.03382909225082378 -0.020449659360894882 0.019307078999423046 0.001142580361471824 -0.03331135280736758 0.0 0.0
0.0 0.03382909225083603 -0.02044965936089573 0.019307078999424 0.0011425803614717271 0.03331135280741 0.0 0.0
0.0 0.04110672564806982 -0.028277165201392188 0.027269248458578667 0.001007916742813507 0.03542228061191262 0.0 0.0
0.0 0.04197732640047158 -0.029913352332059204 0.028995649930374824 0.0009177024016843599 0.033784017499239954 0.0 0.0
0.0 0.03957625462810982 -0.028853546689190806 0.027961123430132677 0.0008924232590581305 0.03039406331216341 0.0 0.0
0.0 0.03566286018202718 -0.026290093663904508 0.025435584854528327 0.0008545088093761795 0.02705136012559263 0.0 0.0
0.0 0.030925784415796555 -0.02281229617261776 0.022006501650540612 0.0008057945220771458 0.023875111745541674 0.0 0.0
0.0 0.02584504488710676 -0.018948367169958555 0.018194124740141975 0.0007542424298165821 0.02076052607576196 0.0 0.0
0.0 0.020834380552152736 -0.015095041340950122 0.014392419688636927 0.0007026216523131773 0.017663183891788038 0.0 0.0
0.0 0.016119061190400692 -0.011475001407162465 0.010826752402011124 0.0006482490051513419 0.014531770322744067 0.0 0.0
0.0 0.01173061582305217 -0.008171734882663888 0.0075881280390708026 0.0005836068435930816 0.011390215421116434 0.0 0.0
0.0 0.007846231332793935 -0.005226920025784809 0.004738325839382107 0.0004885941864027014 0.008286523458556608 0.0 0.0
0.0 0.004546843415365581 -0.0027884227816960695 0.002443070588620825 0.00034535219307524584 0.005395225405531029 0.0 0.0
0.0 0.0021216465006272346 -0.0011137854025018595 0.0009399259485876406 0.00017385945391421866 0.002918107577908553 0.0 0.0
0.0 0.0008167140772849702 -0.000320406179484243 0.0002631947361098181 5.721144337442486e-05 0.0012049249343861323 0.0 0.0
0.0 0.0002665940324317391 -7.95641618389972e-05 6.496234061663183e-05 1.4601821222365404e-05 0.0004019041483688189 0.0 0.0
0.0 8.382191211506751e-05 -2.1121139995374325e-05 1.7612969010401887e-05 3.508170984972428e-06 0.0001263921128792883 0.0 0.0
0.0 2.9775361509178054e-05 -6.090682894143916e-06 5.1862300984548e-06 9.04452795689118e-07 4.0481283057243105e-05 0.0 0.0
0.0 1.391752704819605e-05 -2.4779094441933755e-06 2.0657512239206e-06 4.1215822027277437e-07 1.9870350289167885e-05 0.0 0.0
0.0 4.224223852542282e-06 -3.016017732424138e-07 1.5891503596009775e-07 1.426867372823163e-07 5.768821921093282e-06 0.0 0.0
0.0 2.082951980841469e-06 1.1733023495165351e-07 -1.7256200898740183e-07 5.52317740357485e-08 2.435353061788942e-07 0.0 0.0
0.0 0.0 0.0 0.0 0.0 0.0 0.0 0.0
0.0 2.060654234345154e-06 -4.672349993595659e-08 3.818097437710195e-08 8.542525558851944e-09 -5.689922128743589e-07 0.0 0.0
0.0 1.246622275640704e-05 -2.5439581759040502e-06 2.0951537559734e-06 4.488044199306446e-07 -1.4788522358786627e-05 0.0 0.0
0.0 3.324352676382793e-05 -9.11033134389946e-06 7.5868268300041895e-06 1.5235045138952796e-06 -4.006702760830078e-05 0.0 0.0
0.0 0.00010185026773558984 -3.9077180751639044e-05 3.211562003967758e-05 6.961560711961476e-06 -0.0001410810459818401 0.0 0.0
0.0 0.00041407293774983414 -0.00019963835880944426 0.00016342639775418898 3.621196105525522e-05 -0.0005631332870818183 0.0 0.0
0.0 0.001522374419078001 -0.0009183566067108547 0.0007709977262385604 0.00014735888047229457 -0.0018831679067340965 0.0 0.0
0.0 0.004056397821881368 -0.0028024893791239788 0.002455409099500805 0.00034708027962317394 -0.004288458717967291 0.0 0.0
0.0 0.008200559654661349 -0.005988801720588325 0.0054630459160052705 0.0005257558045830548 -0.007495709598882267 0.0 0.0
0.0 0.0134406607769225 -0.010212233058341588 0.009571150223373834 0.00064108283496775 -0.011217545525968148 0.0 0.0
0.0 0.019679037936625045 -0.015165402711327831 0.01444771338263515 0.0007176893286926917 -0.01511253001328554 0.0 0.0
0.0 0.026443655968673242 -0.020700552385614003 0.01992028153304837 0.0007802708525656256 -0.018916967822531876 0.0 0.0
0.0 0.03381738026330701 -0.026758071487334584 0.02591961272143875 0.0008384587658958305 -0.02259216223008402 0.0 0.0
0.0 0.041727281710996 -0.033254839255437534 0.032356892608775056 0.0008979466466624638 -0.02623443082867317 0.0 0.0
0.0 0.049982944973387095 -0.03994841665628316 0.03898782724835167 0.000960589407931455 -0.030067578658627223 0.0 0.0
0.0 0.05802146226043628 -0.04637323276600044 0.04535090514074874 0.0010223276252516475 -0.03438599598308028 0.0 0.0
0.0 0.0652059739738058 -0.05184243379525587 0.05076246320754428 0.0010799705877115526 -0.03930739793918968 0.0 0.0
0.0 0.0699500055233443 -0.055296969365847916 0.0541447988257404 0.0011521705401074628 -0.043948874702434644 0.0 0.0
0.0 0.07004346381459335 -0.05473426120970793 0.05348456475835326 0.001249696451354651 -0.046184617847762455 0.0 0.0
0.0 0.059668219728164905 -0.04580289005630336 0.044302176007007435 0.001500714049295915 -0.04181019464213166 0.0 0.0
0.0 0.059668219728173946 -0.045802890056300886 0.04430217600700386 0.001500714049297018 0.04181019464218825 0.0 0.0
0.0 0.07004346381459566 -0.05473426120969663 0.05348456475834045 0.001249696451356154 0.046184617847837436 0.0 0.0
0.0 0.06995000552332437 -0.055296969365821014 0.05414479882571343 0.0011521705401075482 0.0439488747024839 0.0 0.0
0.0 0.06520597397376546 -0.051842433795218475 0.050762463207506936 0.0010799705877115556 0.03930739793919508 0.0 0.0
0.0 0.05802146226038718 -0.046373232765959484 0.045350905140707456 0.0010223276252520357 0.03438599598306124 0.0 0.0
0.0 0.04998294497334176 -0.039948416656245676 0.03898782724831435 0.0009605894079313098 0.030067578658606944 0.0 0.0
0.0 0.041727281710952774 -0.03325483925540166 0.03235689260874004 0.0008979466466616088 0.02623443082865286 0.0 0.0
0.0 0.03381738026326043 -0.026758071487295025 0.025919612721399546 0.0008384587658954582 0.022592162230066718 0.0 0.0
0.0 0.02644365596862335 -0.02070055238557343 0.019920281533007983 0.0007802708525654377 0.0189169678225045 0.0 0.0
0.0 0.019679037936579304 -0.015165402711292294 0.014447713382599672 0.0007176893286926191 0.01511253001325279 0.0 0.0
0.0 0.013440660776885008 -0.010212233058313563 0.009571150223346078 0.0006410828349674845 0.0112175455259379 0.0 0.0
0.0 0.008200559654637247 -0.005988801720569583 0.0054630459159869735 0.0005257558045826066 0.007495709598865105 0.0 0.0
0.0 0.0040563978218667 -0.002802489379113173 0.00245540909949087 0.000347080279622304 0.004288458717955104 0.0 0.0
0.0 0.0015223744190706778 -0.0009183566067064389 0.0007709977262349587 0.00014735888047148017 0.0018831679067272578 0.0 0.0
0.0 0.0004140729377452325 -0.0001996383588075991 0.0001634263977526806 3.621196105491842e-05 0.0005631332870771107 0.0 0.0
0.0 0.00010185026773451572 -3.907718075170348e-05 3.211562003972837e-05 6.9615607119750635e-06 0.00014108104598193537 0.0 0.0
0.0 3.324352676317725e-05 -9.110331344056968e-06 7.586826830130352e-06 1.5235045139265936e-06 4.00670276089165e-05 0.0 0.0
0.0 1.2466222755955673e-05 -2.543958176037441e-06 2.0951537560820866e-06 4.4880441995536125e-07 1.478852235955902e-05 0.0 0.0
0.0 2.060654233986944e-06 -4.672349996877113e-08 3.8180974395827246e-08 8.542525572940166e-09 5.68992213324692e-07 0.0 0.0
0.0 0.0 0.0 0.0 0.0 0.0 0.0 0.0
0.0 0.0 0.0 0.0 0.0 0.0 0.0 0.0
0.0 4.063806097121623e-07 8.83875332606981e-09 -5.922659735395461e-09 -2.916093590674856e-09 8.037141172206253e-08 0.0 0.0
0.0 8.189892150413384e-06 -2.10043202998947e-06 1.7145437247157092e-06 3.858883052737554e-07 -9.341752066144193e-06 0.0 0.0
0.0 3.2481442336637624e-05 -1.2483559539565528e-05 1.0279264711744255e-05 2.2042948278212554e-06 -4.018231436129911e-05 0.0 0.0
0.0 0.0001406699527811705 -7.135837237304928e-05 5.831387315625567e-05 1.3044499216793633e-05 -0.00017478273615690717 0.0 0.0
0.0 0.0007153362785789735 -0.0004567600978692438 0.00037739117224896095 7.9368925620283e-05 -0.0008283120584530959 0.0 0.0
0.0 0.0026055104643699038 -0.0018901064430211932 0.0016259020380226794 0.000264204404998513 -0.0025310270684185737 0.0 0.0
0.0 0.006435505146932943 -0.004939359084631535 0.004456237365741417 0.0004831217188901165 -0.0052981937216230665 0.0 0.0
0.0 0.012189000393642369 -0.009591943289193694 0.00895874303751998 0.0006332002516737125 -0.00897885606100837 0.0 0.0
0.0 0.01941270469388904 -0.015540047789807792 0.0148094099366757 0.0007306378531320896 -0.013223363062542515 0.0 0.0
0.0 0.02777688723572242 -0.02246647922270743 0.0216604355805617 0.0008060436421457115 -0.01756689028655022 0.0 0.0
0.0 0.03706139902373593 -0.030204079910735027 0.02932936683858582 0.0008747130721491722 -0.021730940636724785 0.0 0.0
0.0 0.04719817437302095 -0.03868665047147045 0.03774639572616093 0.0009402547453095057 -0.025712612322229544 0.0 0.0
0.0 0.05805569168817615 -0.04783641965577009 0.04682867401729505 0.0010077456384750445 -0.029670438424029708 0.0 0.0
0.0 0.06950696996880934 -0.05740909916374427 0.05632939064771668 0.0010797085160275336 -0.03397064004739309 0.0 0.0
0.0 0.0809780029207077 -0.06686504971393903 0.06570809951441821 0.0011569501995207468 -0.03908173553118855 0.0 0.0
0.0 0.0912875053338425 -0.07522706504429141 0.0739847843420905 0.001242280702200846 -0.04501870090159942 0.0 0.0
0.0 0.09848107985516316 -0.0808394079031986 0.0794966391036946 0.0013427687995039282 -0.05056555028349448 0.0 0.0
0.0 0.0988659426048132 -0.08084171547371384 0.07934821826277391 0.0014934972109398926 -0.052747323593289035 0.0 0.0
0.0 0.08625381998216497 -0.07003533844994249 0.06831793499040967 0.001717403459532824 -0.04833613030602096 0.0 0.0
0.0 0.08625381998217323 -0.07003533844993912 0.06831793499040725 0.001717403459531826 0.04833613030608441 0.0 0.0
0.0 0.09886594260480455 -0.08084171547369348 0.0793482182627547 0.0014934972109387793 0.05274732359336898 0.0 0.0
0.0 0.09848107985513196 -0.08083940790316213 0.0794966391036585 0.001342768799503598 0.05056555028355132 0.0 0.0
0.0 0.09128750533379225 -0.07522706504424388 0.0739847843420441 0.001242280702199748 0.045018700901614486 0.0 0.0
0.0 0.08097800292064262 -0.06686504971388278 0.06570809951436268 0.0011569501995201221 0.039081735531172085 0.0 0.0
0.0 0.06950696996874028 -0.05740909916368599 0.05632939064765817 0.0010797085160277576 0.033970640047370104 0.0 0.0
0.0 0.05805569168809854 -0.04783641965570552 0.04682867401722966 0.0010077456384758794 0.029670438423998965 0.0 0.0
0.0 0.047198174372951304 -0.038686650471411586 0.03774639572610206 0.0009402547453095152 0.0257126123222051 0.0 0.0
0.0 0.037061399023674946 -0.030204079910683572 0.029329366838534956 0.0008747130721485808 0.0217309406366988 0.0 0.0
0.0 0.027776887235662028 -0.02246647922265819 0.021660435580513122 0.0008060436421450742 0.017566890286514675 0.0 0.0
0.0 0.019412704693833112 -0.015540047789763353 0.014809409936631799 0.0007306378531315527 0.013223363062504248 0.0 0.0
0.0 0.012189000393603922 -0.00959194328916337 0.00895874303749018 0.0006332002516731981 0.008978856060983562 0.0 0.0
0.0 0.0064355051469097615 -0.004939359084613307 0.004456237365724211 0.00048312171888909407 0.005298193721607311 0.0 0.0
0.0 0.002605510464357646 -0.0018901064430124075 0.0016259020380149317 0.0002642044049974761 0.00253102706840853 0.0 0.0
0.0 0.0007153362785734182 -0.00045676009786624046 0.00037739117224641486 7.936892561982583e-05 0.0008283120584482346 0.0 0.0
0.0 0.00014066995277979826 -7.135837237286762e-05 5.831387315609619e-05 1.3044499216771402e-05 0.00017478273615642603 0.0 0.0
0.0 3.2481442336000825e-05 -1.2483559539758333e-05 1.0279264711898871e-05 2.2042948278594587e-06 4.0182314361865155e-05 0.0 0.0
0.0 8.189892150047827e-06 -2.1004320301773905e-06 1.7145437248627184e-06 3.85888305314671e-07 9.341752066960666e-06 0.0 0.0
0.0 4.063806093257621e-07 8.838753319458759e-09 -5.922659733024222e-09 -2.916093586432878e-09 -8.037141164573473e-08 0.0 0.0
0.0 0.0 0.0 0.0 0.0 0.0 0.0 0.0
0.0 0.0 0.0 0.0 0.0 0.0 0.0 0.0
0.0 2.6899561045647454e-08 7.357967919331515e-10 -5.515569793030163e-10 -1.842398126303369e-10 5.159049248195317e-09 0.0 0.0
0.0 3.8631558158065414e-06 -1.1822610720103426e-06 9.614514269022013e-07 2.2080964510814476e-07 -4.130076543126017e-06 0.0 0.0
0.0 3.133868303655958e-05 -1.2747409953205934e-05 1.0391571013599559e-05 2.355838939606388e-06 -3.0680707423968455e-05 0.0 0.0
0.0 0.00022589658400345208 -0.00013490008176581019 0.00011003290548427796 2.4867176281532223e-05 -0.0002318890736525932 0.0 0.0
0.0 0.0012110586850179184 -0.0009032361540269061 0.0007563725565410815 0.0001468635974858244 -0.0011154024972107818 0.0 0.0
0.0 0.0040148371644515325 -0.0031668716392312603 0.002788520678845112 0.0003783509603861499 -0.002975454548300174 0.0 0.0
0.0 0.009108396357162258 -0.00737195331087717 0.006793972970937326 0.0005779803399398399 -0.005897873888317871 0.0 0.0
0.0 0.016382952059907824 -0.013446528086039047 0.01274270581401454 0.0007038222720245003 -0.00980160517347831 0.0 0.0
0.0 0.025487623911377814 -0.021069444083826536 0.020273935071416012 0.0007955090124105281 -0.014212864385901814 0.0 0.0
0.0 0.03604243579127285 -0.029940243034286693 0.029063456184805325 0.0008767868494813567 -0.018662866226275217 0.0 0.0
0.0 0.04780425861814548 -0.03987036804094515 0.0389170522477764 0.0009533157931687655 -0.02292984638739619 0.0 0.0
0.0 0.06064857042085761 -0.05076861405812945 0.04974194491082007 0.0010266691473093345 -0.027001157685973026 0.0 0.0
0.0 0.07452020818806929 -0.06256246460494644 0.06146153548063121 0.0011009291243152472 -0.03101478244869173 0.0 0.0
0.0 0.08925431237188586 -0.07502484798882551 0.07384204149707513 0.0011828064917503646 -0.035392395603934555 0.0 0.0
0.0 0.10393997969146741 -0.0875152621604126 0.08623742317767236 0.001277838982740238 -0.04066947343785399 0.0 0.0
0.0 0.1175010998247066 -0.09869719070960215 0.09730748781060598 0.001389702898996144 -0.046890539250742484 0.0 0.0
0.0 0.126816068924429 -0.10625023406353035 0.1047230151639945 0.0015272188995358498 -0.05275320562790196 0.0 0.0
0.0 0.1273856291104312 -0.10646942577982793 0.10477311359019256 0.001696312189635321 -0.05561050782886646 0.0 0.0
0.0 0.11308230722883889 -0.09388437133351599 0.09199460396438289 0.0018897673691330957 -0.053854238332724826 0.0 0.0
0.0 0.11308230722884104 -0.09388437133350874 0.09199460396437595 0.0018897673691327741 0.05385423833278899 0.0 0.0
0.0 0.12738562911041434 -0.10646942577980269 0.10477311359016796 0.0016963121896346556 0.05561050782894632 0.0 0.0
0.0 0.1268160689243903 -0.10625023406348845 0.10472301516395359 0.0015272188995347847 0.05275320562796243 0.0 0.0
0.0 0.11750109982464224 -0.09869719070954291 0.09730748781054756 0.001389702898995273 0.04689053925075847 0.0 0.0
0.0 0.10393997969139511 -0.08751526216034904 0.0862374231776108 0.001277838982738191 0.04066947343784153 0.0 0.0
0.0 0.08925431237181042 -0.07502484798875965 0.07384204149701162 0.0011828064917480245 0.03539239560391654 0.0 0.0
0.0 0.07452020818799063 -0.0625624646048786 0.06146153548056501 0.0011009291243135996 0.031014782448667687 0.0 0.0
0.0 0.06064857042077653 -0.05076861405805972 0.04974194491075123 0.0010266691473084636 0.027001157685949836 0.0 0.0
0.0 0.04780425861806194 -0.03987036804087425 0.038917052247705836 0.0009533157931684178 0.0229298463873654 0.0 0.0
0.0 0.03604243579119808 -0.029940243034224545 0.029063456184743645 0.000876786849480876 0.01866286622623734 0.0 0.0
0.0 0.025487623911313383 -0.02106944408377349 0.020273935071363353 0.0007955090124101367 0.014212864385863963 0.0 0.0
0.0 0.01638295205986151 -0.013446528086000543 0.012742705813976764 0.0007038222720237846 0.009801605173454395 0.0 0.0
0.0 0.009108396357128217 -0.0073719533108494075 0.00679397297091054 0.0005779803399388632 0.005897873888298511 0.0 0.0
0.0 0.004014837164428764 -0.003166871639213675 0.002788520678828608 0.0003783509603850682 0.002975454548284844 0.0 0.0
0.0 0.0012110586850067049 -0.0009032361540190016 0.0007563725565342832 0.00014686359748471752 0.0011154024972020045 0.0 0.0
0.0 0.00022589658400023484 -0.00013490008176433171 0.00011003290548304884 2.486717628128276e-05 0.00023188907365027256 0.0 0.0
0.0 3.1338683035644284e-05 -1.2747409953184116e-05 1.0391571013571575e-05 2.3558389396125546e-06 3.0680707423891064e-05 0.0 0.0
0.0 3.863155815715766e-06 -1.182261072133082e-06 9.614514270015388e-07 2.208096451315408e-07 4.130076543558364e-06 0.0 0.0
0.0 2.6899561263630976e-08 7.357967979177983e-10 -5.515569837912453e-10 -1.8423981412668988e-10 -5.159049290155655e-09 0.0 0.0
0.0 0.0 0.0 0.0 0.0 0.0 0.0 0.0
0.0 0.0 0.0 0.0 0.0 0.0 0.0 0.0
0.0 0.0 0.0 0.0 0.0 0.0 0.0 0.0
0.0 9.159772724021529e-07 5.630253744311479e-08 -4.536700834069255e-08 -1.0935529102421052e-08 1.5681455061216043e-07 0.0 0.0
0.0 2.9940310849392167e-05 -1.7357783022339734e-05 1.4025153227706973e-05 3.3326297946327933e-06 -3.1525280203931286e-05 0.0 0.0
0.0 0.00036875841543571237 -0.0002671885498717441 0.00021839711078015345 4.8791439091590535e-05 -0.00032695843823577533 0.0 0.0
0.0 0.0019347042191718447 -0.001547610582821927 0.001316674510062448 0.0002309360727594792 -0.0013234635212612945 0.0 0.0
0.0 0.005718093453953651 -0.004678904876037432 0.004205407964858233 0.00047349691117920024 -0.0031616760020993064 0.0 0.0
0.0 0.011919757828338064 -0.01001486101772263 0.009370904592202483 0.0006439564255201462 -0.006066766727659119 0.0 0.0
0.0 0.02070059789863721 -0.0174505469447433 0.016695800103945536 0.0007547468407977681 -0.009879605748465557 0.0 0.0
0.0 0.03165677091729307 -0.026711307967106447 0.0258627983308128 0.0008485096362936554 -0.014133239761876523 0.0 0.0
0.0 0.04438741787946371 -0.03751237959809105 0.03657514904008263 0.0009372305580083802 -0.018439604414581253 0.0 0.0
0.0 0.0585991001623173 -0.04963214415296996 0.04860975902840421 0.0010223851245656506 -0.022566236138963382 0.0 0.0
0.0 0.07421497788243427 -0.06293970019961531 0.0618355659617193 0.001104134237896019 -0.02650621053410972 0.0 0.0
0.0 0.09094587382475167 -0.0773509452784711 0.07616546449300454 0.0011854807854666223 -0.030351468784957515 0.0 0.0
0.0 0.10880075054709609 -0.09264315396214431 0.09136692561501678 0.0012762283471275393 -0.03437232360519469 0.0 0.0
0.0 0.1269916777932793 -0.1080903045567372 0.10670174266766891 0.001388561889068313 -0.03910846838962903 0.0 0.0
0.0 0.1432778624467187 -0.122006962346163 0.12047884842408388 0.00152811392207908 -0.04488992235820616 0.0 0.0
0.0 0.15450762246778538 -0.13140938914501063 0.12971544840208776 0.001693940742922909 -0.0509591869753939 0.0 0.0
0.0 0.1556223876553643 -0.1319295124360212 0.1300567273120241 0.0018727851239970393 -0.05572794917793568 0.0 0.0
0.0 0.1404823184110883 -0.11791734861606336 0.11586839546987196 0.002048953146191427 -0.058839369244322925 0.0 0.0
0.0 0.14048231841108705 -0.11791734861605446 0.11586839546986281 0.0020489531461916097 0.058839369244389386 0.0 0.0
0.0 0.1556223876553351 -0.13192951243598805 0.13005672731198933 0.0018727851239986335 0.055727949178015546 0.0 0.0
0.0 0.15450762246773111 -0.13140938914495784 0.12971544840203394 0.0016939407429238823 0.050959186975453374 0.0 0.0
0.0 0.14327786244664456 -0.12200696234609618 0.12047884842401724 0.001528113922078847 0.044889922358224435 0.0 0.0
0.0 0.12699167779318524 -0.10809030455665566 0.10670174266758721 0.0013885618890684378 0.03910846838961977 0.0 0.0
0.0 0.1088007505469939 -0.09264315396205605 0.0913669256149285 0.001276228347127519 0.03437232360517889 0.0 0.0
0.0 0.09094587382465016 -0.0773509452783839 0.07616546449291732 0.00118548078546653 0.03035146878493487 0.0 0.0
0.0 0.07421497788233727 -0.0629397001995313 0.06183556596163585 0.0011041342378953739 0.02650621053408869 0.0 0.0
0.0 0.05859910016222453 -0.04963214415288977 0.04860975902832502 0.0010223851245647468 0.022566236138937743 0.0 0.0
0.0 0.04438741787937684 -0.03751237959801771 0.036575149040009636 0.0009372305580080861 0.018439604414544973 0.0 0.0
0.0 0.031656770917218816 -0.026711307967044177 0.025862798330751058 0.0008485096362931242 0.0141332397618408 0.0 0.0
0.0 0.020700597898582772 -0.017450546944697033 0.016695800103899944 0.0007547468407970789 0.009879605748442382 0.0 0.0
0.0 0.011919757828297602 -0.010014861017688684 0.009370904592169098 0.000643956425519578 0.0060667667276400935 0.0 0.0
0.0 0.005718093453928536 -0.004678904876017044 0.004205407964838832 0.0004734969111782136 0.0031616760020865423 0.0 0.0
0.0 0.0019347042191608945 -0.001547610582813694 0.0013166745100551928 0.0002309360727585006 0.0013234635212546757 0.0 0.0
0.0 0.0003687584154316251 -0.00026718854986939044 0.00021839711077818177 4.879143909120852e-05 0.00032695843823314316 0.0 0.0
0.0 2.994031084904229e-05 -1.735778302251053e-05 1.402515322784068e-05 3.3326297946698264e-06 3.152528020425352e-05 0.0 0.0
0.0 9.159772720464821e-07 5.630253742091469e-08 -4.5367008322703315e-08 -1.0935529098212496e-08 -1.5681455054918204e-07 0.0 0.0
0.0 0.0 0.0 0.0 0.0 0.0 0.0 0.0
0.0 0.0 0.0 0.0 0.0 0.0 0.0 0.0
0.0 0.0 0.0 0.0 0.0 0.0 0.0 0.0
0.0 0.0 0.0 0.0 0.0 0.0 0.0 0.0
0.0 2.633745482838499e-07 1.9034837468267232e-08 -1.5232417022672714e-08 -3.80242044559584e-09 3.959451352121644e-08 0.0 0.0
0.0 3.5491525244835265e-05 -2.4696867886912902e-05 1.9860048463598724e-05 4.836819423314198e-06 -3.299039480588003e-05 0.0 0.0
0.0 0.0006205023987197209 -0.0004933173487049631 0.00040549524502080125 8.782210368416196e-05 -0.00041723966270305234 0.0 0.0
0.0 0.002881297759501733 -0.0023774691682453123 0.0020587498918839355 0.0003187192763613776 -0.0013933461302778906 0.0 0.0
0.0 0.007431049273143812 -0.006385298546751024 0.005838187800801062 0.0005471107459499639 -0.003102759317555164 0.0 0.0
0.0 0.014872046052507387 -0.012781508268944777 0.012092119023886162 0.0006893892450586179 -0.005743464214573357 0.0 0.0
0.0 0.02514731464894486 -0.021528502708011946 0.020733333751426483 0.0007951689565854543 -0.009159858120269598 0.0 0.0
0.0 0.03788569681932255 -0.032407554408063 0.03151365865201666 0.0008938957560463415 -0.013011410436599214 0.0 0.0
0.0 0.052756492651830446 -0.045126273961816656 0.04413615103391896 0.0009901229278976601 -0.016909962337041656 0.0 0.0
0.0 0.06944793005545992 -0.059434407743404784 0.0583500973276836 0.0010843104157211502 -0.02065307673355685 0.0 0.0
0.0 0.08773158112075727 -0.07515214542170023 0.0739764779987525 0.0011756674229477207 -0.02425102883750504 0.0 0.0
0.0 0.1074826650542283 -0.09213586769070639 0.09086967259784372 0.0012661950928626344 -0.027696953756490138 0.0 0.0
0.0 0.12837075390495803 -0.11012989908591979 0.10876540970643882 0.001364489379480954 -0.031028394039910274 0.0 0.0
0.0 0.14933721014763085 -0.12836920779120112 0.1268804792049527 0.001488728586248403 -0.03459714431383687 0.0 0.0
0.0 0.16864278821685816 -0.14493821925783212 0.1432862712920991 0.001651947965732984 -0.039179512509271555 0.0 0.0
0.0 0.18213088817973358 -0.1563275343814488 0.1544858274551924 0.00184170692625643 -0.04538055363995863 0.0 0.0
0.0 0.18422770759006493 -0.15756282098824992 0.15552657965775557 0.002036241330494252 -0.05325848064978736 0.0 0.0
0.0 0.16860690256840588 -0.1426037926106298 0.1403960242603242 0.0022077683503055213 -0.06331578327614878 0.0 0.0
0.0 0.1686069025683991 -0.142603792610617 0.14039602426031136 0.0022077683503056917 0.06331578327621094 0.0 0.0
0.0 0.18422770759002816 -0.1575628209882112 0.15552657965771777 0.002036241330493392 0.05325848064986008 0.0 0.0
0.0 0.1821308881796736 -0.15632753438139185 0.15448582745513728 0.0018417069262544488 0.04538055364001245 0.0 0.0
0.0 0.16864278821676762 -0.14493821925775158 0.1432862712920202 0.0016519479657313334 0.039179512509284205 0.0 0.0
0.0 0.14933721014751988 -0.12836920779110464 0.12688047920485707 0.001488728586247512 0.034597144313827224 0.0 0.0
0.0 0.1283707539048392 -0.11012989908581676 0.10876540970633625 0.0013644893794804618 0.03102839403989826 0.0 0.0
0.0 0.1074826650541167 -0.09213586769060968 0.09086967259774839 0.0012661950928612579 0.02769695375647175 0.0 0.0
0.0 0.08773158112064253 -0.07515214542160115 0.07397647799865355 0.001175667422947613 0.024251028837486182 0.0 0.0
0.0 0.0694479300553481 -0.059434407743308354 0.05835009732758754 0.0010843104157208382 0.020653076733531044 0.0 0.0
0.0 0.052756492651731775 -0.04512627396173185 0.044136151033835204 0.0009901229278966438 0.016909962337008637 0.0 0.0
0.0 0.03788569681923548 -0.03240755440798869 0.031513658651942895 0.0008938957560457908 0.013011410436565955 0.0 0.0
0.0 0.025147314648877987 -0.02152850270795442 0.020733333751369123 0.0007951689565853007 0.009159858120248117 0.0 0.0
0.0 0.014872046052459103 -0.01278150826890327 0.012092119023845266 0.0006893892450580005 0.005743464214555294 0.0 0.0
0.0 0.0074310492731144585 -0.00638529854672602 0.00583818780077701 0.0005471107459490084 0.0031027593175436663 0.0 0.0
0.0 0.002881297759487471 -0.0023774691682342175 0.002058749891873804 0.0003187192763604142 0.0013933461302715754 0.0 0.0
0.0 0.0006205023987146713 -0.0004933173487016517 0.00040549524501802374 8.782210368362778e-05 0.0004172396627006444 0.0 0.0
0.0 3.549152524420041e-05 -2.469686788701503e-05 1.986004846366749e-05 4.836819423347546e-06 3.299039480600486e-05 0.0 0.0
0.0 2.633745479801639e-07 1.90348374459991e-08 -1.5232417004860948e-08 -3.802420441135515e-09 -3.959451347502403e-08 0.0 0.0
0.0 0.0 0.0 0.0 0.0 0.0 0.0 0.0
0.0 0.0 0.0 0.0 0.0 0.0 0.0 0.0
0.0 0.0 0.0 0.0 0.0 0.0 0.0 0.0
0.0 0.0 0.0 0.0 0.0 0.0 0.0 0.0
0.0 0.0 0.0 0.0 0.0 0.0 0.0 0.0
0.0 5.6561672128699624e-05 -4.456151983108491e-05 3.5848150146224765e-05 8.713369684860162e-06 -4.142817633465504e-05 0.0 0.0
0.0 0.0010208727815660644 -0.0008428886681399361 0.0006992366002322029 0.00014365206790773296 -0.0004602992638889766 0.0 0.0
0.0 0.003973010928719597 -0.003377327422593873 0.0029751521682162847 0.00040217525437758915 -0.001303971544413437 0.0 0.0
0.0 0.009368418756375289 -0.008209116681550579 0.00760766667712021 0.0006014500044303668 -0.002707178214294232 0.0 0.0
0.0 0.01796275149521469 -0.015605154449313043 0.014882099443713685 0.0007230550055993483 -0.004851104930949506 0.0 0.0
0.0 0.029640844925592637 -0.02563333247415725 0.02480464791342966 0.00082868456072757 -0.0076665541729342805 0.0 0.0
0.0 0.04414913933075439 -0.038105901956446225 0.037172844789379746 0.0009330571670664855 -0.01085682939784694 0.0 0.0
0.0 0.06116428304224245 -0.05272925124621305 0.051692149070719465 0.001037102175493564 -0.01409121793409263 0.0 0.0
0.0 0.08027318593609307 -0.06922503994590874 0.06808478156565541 0.0011402583802533099 -0.017194139765134495 0.0 0.0
0.0 0.10137199875488974 -0.08735391960221485 0.08611141387932089 0.0012425057228939692 -0.020192836901148346 0.0 0.0
0.0 0.12383922652168976 -0.10687410597053881 0.10552926118713557 0.001344844783403268 -0.023064484071637883 0.0 0.0
0.0 0.14750451365686612 -0.12740908384386485 0.12595696763185363 0.0014521162120111493 -0.025563112021756366 0.0 0.0
0.0 0.17143521367994877 -0.14815409875366198 0.1465741767411144 0.0015799220125474376 -0.027559283317439943 0.0 0.0
0.0 0.19349068932858066 -0.16724729198545601 0.16549693792286183 0.0017503540625941581 -0.030098493480483667 0.0 0.0
0.0 0.20957160820143217 -0.18099034459441224 0.17901926374905452 0.001971080845357658 -0.035921851214684726 0.0 0.0
0.0 0.21343081059608943 -0.18367432014387086 0.18148306047788565 0.0021912596659853425 -0.04769878258706422 0.0 0.0
0.0 0.19822797387265811 -0.1684646401232987 0.16608545494060767 0.0023791851826910656 -0.06693271563726091 0.0 0.0
0.0 0.19822797387264782 -0.1684646401232845 0.16608545494059437 0.002379185182690041 0.06693271563730903 0.0 0.0
0.0 0.21343081059603766 -0.18367432014382193 0.18148306047783663 0.002191259665985352 0.04769878258712627 0.0 0.0
0.0 0.20957160820134738 -0.18099034459433627 0.1790192637489787 0.001971080845357515 0.03592185121472952 0.0 0.0
0.0 0.19349068932846683 -0.16724729198535732 0.1654969379227627 0.0017503540625946475 0.03009849348049154 0.0 0.0
0.0 0.17143521367982167 -0.14815409875355215 0.1465741767410048 0.0015799220125473424 0.027559283317430967 0.0 0.0
0.0 0.14750451365673026 -0.12740908384374744 0.12595696763173583 0.0014521162120116676 0.02556311202174848 0.0 0.0
0.0 0.12383922652155663 -0.10687410597042407 0.10552926118702059 0.0013448447834034786 0.023064484071622187 0.0 0.0
0.0 0.10137199875476308 -0.0873539196021045 0.0861114138792121 0.0012425057228924534 0.02019283690113468 0.0 0.0
0.0 0.0802731859359708 -0.06922503994580262 0.06808478156555069 0.0011402583802519112 0.01719413976511642 0.0 0.0
0.0 0.06116428304213076 -0.052729251246116486 0.05169214907062349 0.0010371021754929726 0.01409121793406531 0.0 0.0
0.0 0.04414913933065762 -0.03810590195636266 0.03717284478929671 0.0009330571670659654 0.010856829397819722 0.0 0.0
0.0 0.02964084492551893 -0.025633332474093114 0.024804647913366222 0.0008286845607268858 0.007666554172916552 0.0 0.0
0.0 0.017962751495157372 -0.015605154449263314 0.014882099443664327 0.0007230550055989943 0.004851104930933808 0.0 0.0
0.0 0.009368418756339956 -0.008209116681519848 0.007607666677090138 0.0006014500044297134 0.00270717821428376 0.0 0.0
0.0 0.003973010928700654 -0.003377327422578071 0.002975152168201524 0.00040217525437654625 0.0013039715444070385 0.0 0.0
0.0 0.0010208727815589954 -0.000842888668134664 0.0006992366002276769 0.00014365206790698713 0.000460299263886341 0.0 0.0
0.0 5.6561672127839526e-05 -4.4561519831077823e-05 3.584815014619411e-05 8.71336968488375e-06 4.1428176334609184e-05 0.0 0.0
0.0 0.0 0.0 0.0 0.0 0.0 0.0 0.0
0.0 0.0 0.0 0.0 0.0 0.0 0.0 0.0
0.0 0.0 0.0 0.0 0.0 0.0 0.0 0.0
0.0 0.0 0.0 0.0 0.0 0.0 0.0 0.0
0.0 0.0 0.0 0.0 0.0 0.0 0.0 0.0
0.0 0.0 0.0 0.0 0.0 0.0 0.0 0.0
0.0 0.00011959363260166878 -9.99710875333661e-05 8.033892185473434e-05 1.9632165678631802e-05 -5.6132774381761444e-05 0.0 0.0
0.0 0.0015949220907769048 -0.0013281778832213596 0.001116631548333254 0.00021154633488810543 -0.00041493332073403263 0.0 0.0
0.0 0.005048512465091551 -0.0045189560387017425 0.004043752733250605 0.0004752033054511377 -0.0010037940959732449 0.0 0.0
0.0 0.011454498921389689 -0.010095473928665968 0.009456283566715887 0.0006391903619500843 -0.001961244222199478 0.0 0.0
0.0 0.021104285842423957 -0.01844893968140878 0.01769894442039111 0.0007499952610176839 -0.003431096864372362 0.0 0.0
0.0 0.03415279886335494 -0.029717599174300363 0.02886139591531828 0.0008562032589820552 -0.005403371305603108 0.0 0.0
0.0 0.0504093811767308 -0.04375676541734003 0.04278999577521435 0.0009667696421256429 -0.007670449325654147 0.0 0.0
0.0 0.06954102371416983 -0.06027206383116032 0.059193123687537035 0.00107894014362323 -0.009973053906608804 0.0 0.0
0.0 0.09122949712725854 -0.07895102320808117 0.07775964131010901 0.0011913818979721585 -0.012182970550720961 0.0 0.0
0.0 0.11483027201252818 -0.0994911163821012 0.09818616889056625 0.0013049474915349441 -0.014344581734582031 0.0 0.0
0.0 0.14020368372235031 -0.12151656848496724 0.12009558162990375 0.0014209868550634367 -0.01638406299541913 0.0 0.0
0.0 0.16668014660964012 -0.14446242039472265 0.14292120557585958 0.0015412148188631417 -0.01797142022059597 0.0 0.0
0.0 0.19309625085787438 -0.1673970003501118 0.16572640164011432 0.0016705987099974039 -0.0186294272698551 0.0 0.0
0.0 0.21756091483066237 -0.18865162259436594 0.18682399227407132 0.0018276303202947146 -0.01874998604298713 0.0 0.0
0.0 0.23654342010515605 -0.20502972345171327 0.20298597091123538 0.0020437525404778814 -0.02214867747436104 0.0 0.0
0.0 0.24360783146778497 -0.21054413757016086 0.20818965842819004 0.002354479141970632 -0.037221868275458696 0.0 0.0
0.0 0.2300259345903907 -0.19626876693729958 0.19368906853962792 0.0025796983976714895 -0.06882930732085735 0.0 0.0
0.0 0.2300259345903771 -0.1962687669372844 0.19368906853961354 0.002579698397670671 0.0688293073208947 0.0 0.0
0.0 0.24360783146772566 -0.21054413757010704 0.20818965842813653 0.002354479141970473 0.037221868275509155 0.0 0.0
0.0 0.23654342010505933 -0.20502972345162898 0.2029859709111505 0.0020437525404785606 0.022148677474394314 0.0 0.0
0.0 0.21756091483054438 -0.18865162259426266 0.1868239922739698 0.0018276303202929178 0.0187499860429906 0.0 0.0
0.0 0.19309625085773477 -0.1673970003499906 0.16572640163999447 0.0016705987099960768 0.018629427269848724 0.0 0.0
0.0 0.1666801466094906 -0.14446242039459298 0.14292120557573 0.0015412148188630329 0.017971420220594857 0.0 0.0
0.0 0.1402036837222012 -0.12151656848483822 0.12009558162977503 0.0014209868550631509 0.016384062995410783 0.0 0.0
0.0 0.11483027201237794 -0.09949111638197103 0.09818616889043655 0.0013049474915345198 0.014344581734572176 0.0 0.0
0.0 0.09122949712711861 -0.07895102320795962 0.07775964130998791 0.0011913818979717068 0.012182970550710208 0.0 0.0
0.0 0.06954102371404991 -0.060272063831056204 0.059193123687434054 0.0010789401436221363 0.009973053906590753 0.0 0.0
0.0 0.050409381176625856 -0.04375676541724901 0.04278999577512396 0.0009667696421250549 0.007670449325634523 0.0 0.0
0.0 0.03415279886327291 -0.029717599174228646 0.028861395915247 0.0008562032589816357 0.005403371305591739 0.0 0.0
0.0 0.021104285842364935 -0.01844893968135699 0.017698944420339955 0.0007499952610170194 0.0034310968643629586 0.0 0.0
0.0 0.011454498921349521 -0.010095473928630557 0.009456283566681082 0.0006391903619494765 0.001961244222191783 0.0 0.0
0.0 0.005048512465069618 -0.004518956038682332 0.004043752733232204 0.00047520330545012775 0.0010037940959686784 0.0 0.0
0.0 0.00159492209076795 -0.0013281778832143513 0.0011166315483270603 0.00021154633488729125 0.0004149333207319775 0.0 0.0
0.0 0.0001195936326007329 -9.997108753339679e-05 8.033892185474751e-05 1.9632165678649203e-05 5.6132774381828325e-05 0.0 0.0
0.0 0.0 0.0 0.0 0.0 0.0 0.0 0.0
0.0 0.0 0.0 0.0 0.0 0.0 0.0 0.0
0.0 0.0 0.0 0.0 0.0 0.0 0.0 0.0
0.0 0.0 0.0 0.0 0.0 0.0 0.0 0.0
0.0 0.0 0.0 0.0 0.0 0.0 0.0 0.0
0.0 0.0 0.0 0.0 0.0 0.0 0.0 0.0
0.0 0.0002735359859793407 -0.0002405423620443463 0.00019336472413966692 4.717763790467943e-05 -5.677565663422028e-05 0.0 0.0
0.0 0.002344401307176335 -0.0019387812465169688 0.0016531815812061772 0.0002855996653107906 -0.00023766934492222387 0.0 0.0
0.0 0.006405853761413118 -0.005735155029485886 0.005202739740263172 0.000532415289222716 -0.000470147990889749 0.0 0.0
0.0 0.013607237398670553 -0.01201672201163557 0.011348662686412372 0.0006680593252231923 -0.0008620633692815935 0.0 0.0
0.0 0.02428553146377243 -0.021271659223964484 0.02050052941629257 0.0007711298076719026 -0.0014873826997867945 0.0 0.0
0.0 0.03867575855667515 -0.0337334782910405 0.03285455318670023 0.0008789251043402517 -0.002378517715725026 0.0 0.0
0.0 0.056687944508069465 -0.04930944854517535 0.04831399255999639 0.0009954559851789906 -0.0034455787590728978 0.0 0.0
0.0 0.07800816812390968 -0.06770637857227899 0.06659029847503908 0.0011160800972399316 -0.004549998100076243 0.0 0.0
0.0 0.10193677436308161 -0.08856684889566503 0.08732831936739162 0.001238529528273358 -0.005625119824196796 0.0 0.0
0.0 0.1283256308890234 -0.1114963209121104 0.1101330315683441 0.0013632893437662396 -0.0066630543152633144 0.0 0.0
0.0 0.15659101248796237 -0.13599514833489806 0.13450243783488944 0.0014927105000085712 -0.007581787210292422 0.0 0.0
0.0 0.18578288055719527 -0.16130357116394234 0.15967550688511084 0.0016280642788315425 -0.008172374954057156 0.0 0.0
0.0 0.21456573611463353 -0.18624735415024923 0.18447954806925163 0.0017678060809974616 -0.008029508960844088 0.0 0.0
0.0 0.24096508821787443 -0.20914078917082235 0.20722994160445873 0.0019108475663635975 -0.006808929727059237 0.0 0.0
0.0 0.2621813129618027 -0.22755459505842204 0.22547864243375335 0.002075952624668507 -0.006210118354215543 0.0 0.0
0.0 0.27364113534901446 -0.2372294964382763 0.23489594026347424 0.0023335561748018844 -0.01710930457908849 0.0 0.0
0.0 0.2658749565777647 -0.22807633276452866 0.22511427183463645 0.0029620609298921354 -0.06353052077672033 0.0 0.0
0.0 0.26587495657774474 -0.22807633276450992 0.22511427183461813 0.0029620609298915777 0.0635305207767372 0.0 0.0
0.0 0.27364113534894813 -0.23722949643821797 0.23489594026341662 0.0023335561748011233 0.017109304579113735 0.0 0.0
0.0 0.26218131296169384 -0.22755459505832698 0.2254786424336599 0.0020759526246670558 0.006210118354231807 0.0 0.0
0.0 0.24096508821773202 -0.20914078917069864 0.20722994160433622 0.001910847566362403 0.0068089297270560855 0.0 0.0
0.0 0.21456573611447022 -0.18624735415010807 0.18447954806911018 0.0017678060809976793 0.00802950896083803 0.0 0.0
0.0 0.18578288055703343 -0.16130357116380178 0.15967550688497123 0.0016280642788304837 0.00817237495405655 0.0 0.0
0.0 0.15659101248779905 -0.1359951483347564 0.13450243783474863 0.0014927105000077053 0.007581787210287963 0.0 0.0
0.0 0.12832563088886115 -0.1114963209119698 0.11013303156820398 0.0013632893437657825 0.006663054315257827 0.0 0.0
0.0 0.10193677436292589 -0.08856684889553029 0.08732831936725714 0.001238529528273121 0.005625119824193184 0.0 0.0
0.0 0.07800816812376948 -0.06770637857215757 0.06659029847491793 0.0011160800972396393 0.004549998100065384 0.0 0.0
0.0 0.056687944507952226 -0.04930944854507389 0.04831399255989541 0.0009954559851784867 0.0034455787590618697 0.0 0.0
0.0 0.038675758556584616 -0.03373347829096142 0.032854553186621754 0.0008789251043396593 0.0023785177157197414 0.0 0.0
0.0 0.024285531463704435 -0.021271659223904765 0.020500529416233218 0.0007711298076715279 0.0014873826997818267 0.0 0.0
0.0 0.013607237398624562 -0.012016722011595062 0.01134866268637226 0.0006680593252228054 0.0008620633692787278 0.0 0.0
0.0 0.00640585376138917 -0.005735155029464388 0.005202739740242265 0.0005324152892221228 0.0004701479908877231 0.0 0.0
0.0 0.0023444013071654115 -0.0019387812465081556 0.0016531815811983673 0.00028559966530978886 0.00023766934492180897 0.0 0.0
0.0 0.0002735359859768168 -0.00024054236204273298 0.00019336472413831123 4.717763790442171e-05 5.677565663378138e-05 0.0 0.0
0.0 0.0 0.0 0.0 0.0 0.0 0.0 0.0
0.0 0.0 0.0 0.0 0.0 0.0 0.0 0.0
0.0 0.0 0.0 0.0 0.0 0.0 0.0 0.0