# vtk DataFile Version 3.0
Some data
ASCII
DATASET UNSTRUCTURED_GRID
POINTS 861 float
0.0 0.0 0.0
0.4 0.0 0.0
0.8 0.0 0.0
1.2000000000000002 0.0 0.0
1.6 0.0 0.0
2.0 0.0 0.0
2.4000000000000004 0.0 0.0
2.8000000000000003 0.0 0.0
3.2 0.0 0.0
3.6 0.0 0.0
4.0 0.0 0.0
4.4 0.0 0.0
4.800000000000001 0.0 0.0
5.2 0.0 0.0
5.6000000000000005 0.0 0.0
6.0 0.0 0.0
6.4 0.0 0.0
6.800000000000001 0.0 0.0
7.2 0.0 0.0
7.6000000000000005 0.0 0.0
8.0 0.0 0.0
8.4 0.0 0.0
8.8 0.0 0.0
9.200000000000001 0.0 0.0
9.600000000000001 0.0 0.0
10.0 0.0 0.0
10.4 0.0 0.0
10.8 0.0 0.0
11.200000000000001 0.0 0.0
11.600000000000001 0.0 0.0
12.0 0.0 0.0
12.4 0.0 0.0
12.8 0.0 0.0
13.200000000000001 0.0 0.0
13.600000000000001 0.0 0.0
14.0 0.0 0.0
14.4 0.0 0.0
14.8 0.0 0.0
15.200000000000001 0.0 0.0
15.600000000000001 0.0 0.0
16.0 0.0 0.0
0.0 0.1 0.0
0.4 0.1 0.0
0.8 0.1 0.0
1.2000000000000002 0.1 0.0
1.6 0.1 0.0
2.0 0.1 0.0
2.4000000000000004 0.1 0.0
2.8000000000000003 0.1 0.0
3.2 0.1 0.0
3.6 0.1 0.0
4.0 0.1 0.0
4.4 0.1 0.0
4.800000000000001 0.1 0.0
5.2 0.1 0.0
5.6000000000000005 0.1 0.0
6.0 0.1 0.0
6.4 0.1 0.0
6.800000000000001 0.1 0.0
7.2 0.1 0.0
7.6000000000000005 0.1 0.0
8.0 0.1 0.0
8.4 0.1 0.0
8.8 0.1 0.0
9.200000000000001 0.1 0.0
9.600000000000001 0.1 0.0
10.0 0.1 0.0
10.4 0.1 0.0
10.8 0.1 0.0
11.200000000000001 0.1 0.0
11.600000000000001 0.1 0.0
12.0 0.1 0.0
12.4 0.1 0.0
12.8 0.1 0.0
13.200000000000001 0.1 0.0
13.600000000000001 0.1 0.0
14.0 0.1 0.0
14.4 0.1 0.0
14.8 0.1 0.0
15.200000000000001 0.1 0.0
15.600000000000001 0.1 0.0
16.0 0.1 0.0
0.0 0.2 0.0
0.4 0.2 0.0
0.8 0.2 0.0
1.2000000000000002 0.2 0.0
1.6 0.2 0.0
2.0 0.2 0.0
2.4000000000000004 0.2 0.0
2.8000000000000003 0.2 0.0
3.2 0.2 0.0
3.6 0.2 0.0
4.0 0.2 0.0
4.4 0.2 0.0
4.800000000000001 0.2 0.0
5.2 0.2 0.0
5.6000000000000005 0.2 0.0
6.0 0.2 0.0
6.4 0.2 0.0
6.800000000000001 0.2 0.0
7.2 0.2 0.0
7.6000000000000005 0.2 0.0
8.0 0.2 0.0
8.4 0.2 0.0
8.8 0.2 0.0
9.200000000000001 0.2 0.0
9.600000000000001 0.2 0.0
10.0 0.2 0.0
10.4 0.2 0.0
10.8 0.2 0.0
11.200000000000001 0.2 0.0
11.600000000000001 0.2 0.0
12.0 0.2 0.0
12.4 0.2 0.0
12.8 0.2 0.0
13.200000000000001 0.2 0.0
13.600000000000001 0.2 0.0
14.0 0.2 0.0
14.4 0.2 0.0
14.8 0.2 0.0
15.200000000000001 0.2 0.0
15.600000000000001 0.2 0.0
16.0 0.2 0.0
0.0 0.30000000000000004 0.0
0.4 0.30000000000000004 0.0
0.8 0.30000000000000004 0.0
1.2000000000000002 0.30000000000000004 0.0
1.6 0.30000000000000004 0.0
2.0 0.30000000000000004 0.0
2.4000000000000004 0.30000000000000004 0.0
2.8000000000000003 0.30000000000000004 0.0
3.2 0.30000000000000004 0.0
3.6 0.30000000000000004 0.0
4.0 0.30000000000000004 0.0
4.4 0.30000000000000004 0.0
4.800000000000001 0.30000000000000004 0.0
5.2 0.30000000000000004 0.0
5.6000000000000005 0.30000000000000004 0.0
6.0 0.30000000000000004 0.0
6.4 0.30000000000000004 0.0
6.800000000000001 0.30000000000000004 0.0
7.2 0.30000000000000004 0.0
7.6000000000000005 0.30000000000000004 0.0
8.0 0.30000000000000004 0.0
8.4 0.30000000000000004 0.0
8.8 0.30000000000000004 0.0
9.200000000000001 0.30000000000000004 0.0
9.600000000000001 0.30000000000000004 0.0
10.0 0.30000000000000004 0.0
10.4 0.30000000000000004 0.0
10.8 0.30000000000000004 0.0
11.200000000000001 0.30000000000000004 0.0
11.600000000000001 0.30000000000000004 0.0
12.0 0.30000000000000004 0.0
12.4 0.30000000000000004 0.0
12.8 0.30000000000000004 0.0
13.200000000000001 0.30000000000000004 0.0
13.600000000000001 0.30000000000000004 0.0
14.0 0.30000000000000004 0.0
14.4 0.30000000000000004 0.0
14.8 0.30000000000000004 0.0
15.200000000000001 0.30000000000000004 0.0
15.600000000000001 0.30000000000000004 0.0
16.0 0.30000000000000004 0.0
0.0 0.4 0.0
0.4 0.4 0.0
0.8 0.4 0.0
1.2000000000000002 0.4 0.0
1.6 0.4 0.0
2.0 0.4 0.0
2.4000000000000004 0.4 0.0
2.8000000000000003 0.4 0.0
3.2 0.4 0.0
3.6 0.4 0.0
4.0 0.4 0.0
4.4 0.4 0.0
4.800000000000001 0.4 0.0
5.2 0.4 0.0
5.6000000000000005 0.4 0.0
6.0 0.4 0.0
6.4 0.4 0.0
6.800000000000001 0.4 0.0
7.2 0.4 0.0
7.6000000000000005 0.4 0.0
8.0 0.4 0.0
8.4 0.4 0.0
8.8 0.4 0.0
9.200000000000001 0.4 0.0
9.600000000000001 0.4 0.0
10.0 0.4 0.0
10.4 0.4 0.0
10.8 0.4 0.0
11.200000000000001 0.4 0.0
11.600000000000001 0.4 0.0
12.0 0.4 0.0
12.4 0.4 0.0
12.8 0.4 0.0
13.200000000000001 0.4 0.0
13.600000000000001 0.4 0.0
14.0 0.4 0.0
14.4 0.4 0.0
14.8 0.4 0.0
15.200000000000001 0.4 0.0
15.600000000000001 0.4 0.0
16.0 0.4 0.0
0.0 0.5 0.0
0.4 0.5 0.0
0.8 0.5 0.0
1.2000000000000002 0.5 0.0
1.6 0.5 0.0
2.0 0.5 0.0
2.4000000000000004 0.5 0.0
2.8000000000000003 0.5 0.0
3.2 0.5 0.0
3.6 0.5 0.0
4.0 0.5 0.0
4.4 0.5 0.0
4.800000000000001 0.5 0.0
5.2 0.5 0.0
5.6000000000000005 0.5 0.0
6.0 0.5 0.0
6.4 0.5 0.0
6.800000000000001 0.5 0.0
7.2 0.5 0.0
7.6000000000000005 0.5 0.0
8.0 0.5 0.0
8.4 0.5 0.0
8.8 0.5 0.0
9.200000000000001 0.5 0.0
9.600000000000001 0.5 0.0
10.0 0.5 0.0
10.4 0.5 0.0
10.8 0.5 0.0
11.200000000000001 0.5 0.0
11.600000000000001 0.5 0.0
12.0 0.5 0.0
12.4 0.5 0.0
12.8 0.5 0.0
13.200000000000001 0.5 0.0
13.600000000000001 0.5 0.0
14.0 0.5 0.0
14.4 0.5 0.0
14.8 0.5 0.0
15.200000000000001 0.5 0.0
15.600000000000001 0.5 0.0
16.0 0.5 0.0
0.0 0.6000000000000001 0.0
0.4 0.6000000000000001 0.0
0.8 0.6000000000000001 0.0
1.2000000000000002 0.6000000000000001 0.0
1.6 0.6000000000000001 0.0
2.0 0.6000000000000001 0.0
2.4000000000000004 0.6000000000000001 0.0
2.8000000000000003 0.6000000000000001 0.0
3.2 0.6000000000000001 0.0
3.6 0.6000000000000001 0.0
4.0 0.6000000000000001 0.0
4.4 0.6000000000000001 0.0
4.800000000000001 0.6000000000000001 0.0
5.2 0.6000000000000001 0.0
5.6000000000000005 0.6000000000000001 0.0
6.0 0.6000000000000001 0.0
6.4 0.6000000000000001 0.0
6.800000000000001 0.6000000000000001 0.0
7.2 0.6000000000000001 0.0
7.6000000000000005 0.6000000000000001 0.0
8.0 0.6000000000000001 0.0
8.4 0.6000000000000001 0.0
8.8 0.6000000000000001 0.0
9.200000000000001 0.6000000000000001 0.0
9.600000000000001 0.6000000000000001 0.0
10.0 0.6000000000000001 0.0
10.4 0.6000000000000001 0.0
10.8 0.6000000000000001 0.0
11.200000000000001 0.6000000000000001 0.0
11.600000000000001 0.6000000000000001 0.0
12.0 0.6000000000000001 0.0
12.4 0.6000000000000001 0.0
12.8 0.6000000000000001 0.0
13.200000000000001 0.6000000000000001 0.0
13.600000000000001 0.6000000000000001 0.0
14.0 0.6000000000000001 0.0
14.4 0.6000000000000001 0.0
14.8 0.6000000000000001 0.0
15.200000000000001 0.6000000000000001 0.0
15.600000000000001 0.6000000000000001 0.0
16.0 0.6000000000000001 0.0
0.0 0.7000000000000001 0.0
0.4 0.7000000000000001 0.0
0.8 0.7000000000000001 0.0
1.2000000000000002 0.7000000000000001 0.0
1.6 0.7000000000000001 0.0
2.0 0.7000000000000001 0.0
2.4000000000000004 0.7000000000000001 0.0
2.8000000000000003 0.7000000000000001 0.0
3.2 0.7000000000000001 0.0
3.6 0.7000000000000001 0.0
4.0 0.7000000000000001 0.0
4.4 0.7000000000000001 0.0
4.800000000000001 0.7000000000000001 0.0
5.2 0.7000000000000001 0.0
5.6000000000000005 0.7000000000000001 0.0
6.0 0.7000000000000001 0.0
6.4 0.7000000000000001 0.0
6.800000000000001 0.7000000000000001 0.0
7.2 0.7000000000000001 0.0
7.6000000000000005 0.7000000000000001 0.0
8.0 0.7000000000000001 0.0
8.4 0.7000000000000001 0.0
8.8 0.7000000000000001 0.0
9.200000000000001 0.7000000000000001 0.0
9.600000000000001 0.7000000000000001 0.0
10.0 0.7000000000000001 0.0
10.4 0.7000000000000001 0.0
10.8 0.7000000000000001 0.0
11.200000000000001 0.7000000000000001 0.0
11.600000000000001 0.7000000000000001 0.0
12.0 0.7000000000000001 0.0
12.4 0.7000000000000001 0.0
12.8 0.7000000000000001 0.0
13.200000000000001 0.7000000000000001 0.0
13.600000000000001 0.7000000000000001 0.0
14.0 0.7000000000000001 0.0
14.4 0.7000000000000001 0.0
14.8 0.7000000000000001 0.0
15.200000000000001 0.7000000000000001 0.0
15.600000000000001 0.7000000000000001 0.0
16.0 0.7000000000000001 0.0
0.0 0.8 0.0
0.4 0.8 0.0
0.8 0.8 0.0
1.2000000000000002 0.8 0.0
1.6 0.8 0.0
2.0 0.8 0.0
2.4000000000000004 0.8 0.0
2.8000000000000003 0.8 0.0
3.2 0.8 0.0
3.6 0.8 0.0
4.0 0.8 0.0
4.4 0.8 0.0
4.800000000000001 0.8 0.0
5.2 0.8 0.0
5.6000000000000005 0.8 0.0
6.0 0.8 0.0
6.4 0.8 0.0
6.800000000000001 0.8 0.0
7.2 0.8 0.0
7.6000000000000005 0.8 0.0
8.0 0.8 0.0
8.4 0.8 0.0
8.8 0.8 0.0
9.200000000000001 0.8 0.0
9.600000000000001 0.8 0.0
10.0 0.8 0.0
10.4 0.8 0.0
10.8 0.8 0.0
11.200000000000001 0.8 0.0
11.600000000000001 0.8 0.0
12.0 0.8 0.0
12.4 0.8 0.0
12.8 0.8 0.0
13.200000000000001 0.8 0.0
13.600000000000001 0.8 0.0
14.0 0.8 0.0
14.4 0.8 0.0
14.8 0.8 0.0
15.200000000000001 0.8 0.0
15.600000000000001 0.8 0.0
16.0 0.8 0.0
0.0 0.9 0.0
0.4 0.9 0.0
0.8 0.9 0.0
1.2000000000000002 0.9 0.0
1.6 0.9 0.0
2.0 0.9 0.0
2.4000000000000004 0.9 0.0
2.8000000000000003 0.9 0.0
3.2 0.9 0.0
3.6 0.9 0.0
4.0 0.9 0.0
4.4 0.9 0.0
4.800000000000001 0.9 0.0
5.2 0.9 0.0
5.6000000000000005 0.9 0.0
6.0 0.9 0.0
6.4 0.9 0.0
6.800000000000001 0.9 0.0
7.2 0.9 0.0
7.6000000000000005 0.9 0.0
8.0 0.9 0.0
8.4 0.9 0.0
8.8 0.9 0.0
9.200000000000001 0.9 0.0
9.600000000000001 0.9 0.0
10.0 0.9 0.0
10.4 0.9 0.0
10.8 0.9 0.0
11.200000000000001 0.9 0.0
11.600000000000001 0.9 0.0
12.0 0.9 0.0
12.4 0.9 0.0
12.8 0.9 0.0
13.200000000000001 0.9 0.0
13.600000000000001 0.9 0.0
14.0 0.9 0.0
14.4 0.9 0.0
14.8 0.9 0.0
15.200000000000001 0.9 0.0
15.600000000000001 0.9 0.0
16.0 0.9 0.0
0.0 1.0 0.0
0.4 1.0 0.0
0.8 1.0 0.0
1.2000000000000002 1.0 0.0
1.6 1.0 0.0
2.0 1.0 0.0
2.4000000000000004 1.0 0.0
2.8000000000000003 1.0 0.0
3.2 1.0 0.0
3.6 1.0 0.0
4.0 1.0 0.0
4.4 1.0 0.0
4.800000000000001 1.0 0.0
5.2 1.0 0.0
5.6000000000000005 1.0 0.0
6.0 1.0 0.0
6.4 1.0 0.0
6.800000000000001 1.0 0.0
7.2 1.0 0.0
7.6000000000000005 1.0 0.0
8.0 1.0 0.0
8.4 1.0 0.0
8.8 1.0 0.0
9.200000000000001 1.0 0.0
9.600000000000001 1.0 0.0
10.0 1.0 0.0
10.4 1.0 0.0
10.8 1.0 0.0
11.200000000000001 1.0 0.0
11.600000000000001 1.0 0.0
12.0 1.0 0.0
12.4 1.0 0.0
12.8 1.0 0.0
13.200000000000001 1.0 0.0
13.600000000000001 1.0 0.0
14.0 1.0 0.0
14.4 1.0 0.0
14.8 1.0 0.0
15.200000000000001 1.0 0.0
15.600000000000001 1.0 0.0
16.0 1.0 0.0
0.0 1.1 0.0
0.4 1.1 0.0
0.8 1.1 0.0
1.2000000000000002 1.1 0.0
1.6 1.1 0.0
2.0 1.1 0.0
2.4000000000000004 1.1 0.0
2.8000000000000003 1.1 0.0
3.2 1.1 0.0
3.6 1.1 0.0
4.0 1.1 0.0
4.4 1.1 0.0
4.800000000000001 1.1 0.0
5.2 1.1 0.0
5.6000000000000005 1.1 0.0
6.0 1.1 0.0
6.4 1.1 0.0
6.800000000000001 1.1 0.0
7.2 1.1 0.0
7.6000000000000005 1.1 0.0
8.0 1.1 0.0
8.4 1.1 0.0
8.8 1.1 0.0
9.200000000000001 1.1 0.0
9.600000000000001 1.1 0.0
10.0 1.1 0.0
10.4 1.1 0.0
10.8 1.1 0.0
11.200000000000001 1.1 0.0
11.600000000000001 1.1 0.0
12.0 1.1 0.0
12.4 1.1 0.0
12.8 1.1 0.0
13.200000000000001 1.1 0.0
13.600000000000001 1.1 0.0
14.0 1.1 0.0
14.4 1.1 0.0
14.8 1.1 0.0
15.200000000000001 1.1 0.0
15.600000000000001 1.1 0.0
16.0 1.1 0.0
0.0 1.2000000000000002 0.0
0.4 1.2000000000000002 0.0
0.8 1.2000000000000002 0.0
1.2000000000000002 1.2000000000000002 0.0
1.6 1.2000000000000002 0.0
2.0 1.2000000000000002 0.0
2.4000000000000004 1.2000000000000002 0.0
2.8000000000000003 1.2000000000000002 0.0
3.2 1.2000000000000002 0.0
3.6 1.2000000000000002 0.0
4.0 1.2000000000000002 0.0
4.4 1.2000000000000002 0.0
4.800000000000001 1.2000000000000002 0.0
5.2 1.2000000000000002 0.0
5.6000000000000005 1.2000000000000002 0.0
6.0 1.2000000000000002 0.0
6.4 1.2000000000000002 0.0
6.800000000000001 1.2000000000000002 0.0
7.2 1.2000000000000002 0.0
7.6000000000000005 1.2000000000000002 0.0
8.0 1.2000000000000002 0.0
8.4 1.2000000000000002 0.0
8.8 1.2000000000000002 0.0
9.200000000000001 1.2000000000000002 0.0
9.600000000000001 1.2000000000000002 0.0
10.0 1.2000000000000002 0.0
10.4 1.2000000000000002 0.0
10.8 1.2000000000000002 0.0
11.200000000000001 1.2000000000000002 0.0
11.600000000000001 1.2000000000000002 0.0
12.0 1.2000000000000002 0.0
12.4 1.2000000000000002 0.0
12.8 1.2000000000000002 0.0
13.200000000000001 1.2000000000000002 0.0
13.600000000000001 1.2000000000000002 0.0
14.0 1.2000000000000002 0.0
14.4 1.2000000000000002 0.0
14.8 1.2000000000000002 0.0
15.200000000000001 1.2000000000000002 0.0
15.600000000000001 1.2000000000000002 0.0
16.0 1.2000000000000002 0.0
0.0 1.3 0.0
0.4 1.3 0.0
0.8 1.3 0.0
1.2000000000000002 1.3 0.0
1.6 1.3 0.0
2.0 1.3 0.0
2.4000000000000004 1.3 0.0
2.8000000000000003 1.3 0.0
3.2 1.3 0.0
3.6 1.3 0.0
4.0 1.3 0.0
4.4 1.3 0.0
4.800000000000001 1.3 0.0
5.2 1.3 0.0
5.6000000000000005 1.3 0.0
6.0 1.3 0.0
6.4 1.3 0.0
6.800000000000001 1.3 0.0
7.2 1.3 0.0
7.6000000000000005 1.3 0.0
8.0 1.3 0.0
8.4 1.3 0.0
8.8 1.3 0.0
9.200000000000001 1.3 0.0
9.600000000000001 1.3 0.0
10.0 1.3 0.0
10.4 1.3 0.0
10.8 1.3 0.0
11.200000000000001 1.3 0.0
11.600000000000001 1.3 0.0
12.0 1.3 0.0
12.4 1.3 0.0
12.8 1.3 0.0
13.200000000000001 1.3 0.0
13.600000000000001 1.3 0.0
14.0 1.3 0.0
14.4 1.3 0.0
14.8 1.3 0.0
15.200000000000001 1.3 0.0
15.600000000000001 1.3 0.0
16.0 1.3 0.0
0.0 1.4000000000000001 0.0
0.4 1.4000000000000001 0.0
0.8 1.4000000000000001 0.0
1.2000000000000002 1.4000000000000001 0.0
1.6 1.4000000000000001 0.0
2.0 1.4000000000000001 0.0
2.4000000000000004 1.4000000000000001 0.0
2.8000000000000003 1.4000000000000001 0.0
3.2 1.4000000000000001 0.0
3.6 1.4000000000000001 0.0
4.0 1.4000000000000001 0.0
4.4 1.4000000000000001 0.0
4.800000000000001 1.4000000000000001 0.0
5.2 1.4000000000000001 0.0
5.6000000000000005 1.4000000000000001 0.0
6.0 1.4000000000000001 0.0
6.4 1.4000000000000001 0.0
6.800000000000001 1.4000000000000001 0.0
7.2 1.4000000000000001 0.0
7.6000000000000005 1.4000000000000001 0.0
8.0 1.4000000000000001 0.0
8.4 1.4000000000000001 0.0
8.8 1.4000000000000001 0.0
9.200000000000001 1.4000000000000001 0.0
9.600000000000001 1.4000000000000001 0.0
10.0 1.4000000000000001 0.0
10.4 1.4000000000000001 0.0
10.8 1.4000000000000001 0.0
11.200000000000001 1.4000000000000001 0.0
11.600000000000001 1.4000000000000001 0.0
12.0 1.4000000000000001 0.0
12.4 1.4000000000000001 0.0
12.8 1.4000000000000001 0.0
13.200000000000001 1.4000000000000001 0.0
13.600000000000001 1.4000000000000001 0.0
14.0 1.4000000000000001 0.0
14.4 1.4000000000000001 0.0
14.8 1.4000000000000001 0.0
15.200000000000001 1.4000000000000001 0.0
15.600000000000001 1.4000000000000001 0.0
16.0 1.4000000000000001 0.0
0.0 1.5 0.0
0.4 1.5 0.0
0.8 1.5 0.0
1.2000000000000002 1.5 0.0
1.6 1.5 0.0
2.0 1.5 0.0
2.4000000000000004 1.5 0.0
2.8000000000000003 1.5 0.0
3.2 1.5 0.0
3.6 1.5 0.0
4.0 1.5 0.0
4.4 1.5 0.0
4.800000000000001 1.5 0.0
5.2 1.5 0.0
5.6000000000000005 1.5 0.0
6.0 1.5 0.0
6.4 1.5 0.0
6.800000000000001 1.5 0.0
7.2 1.5 0.0
7.6000000000000005 1.5 0.0
8.0 1.5 0.0
8.4 1.5 0.0
8.8 1.5 0.0
9.200000000000001 1.5 0.0
9.600000000000001 1.5 0.0
10.0 1.5 0.0
10.4 1.5 0.0
10.8 1.5 0.0
11.200000000000001 1.5 0.0
11.600000000000001 1.5 0.0
12.0 1.5 0.0
12.4 1.5 0.0
12.8 1.5 0.0
13.200000000000001 1.5 0.0
13.600000000000001 1.5 0.0
14.0 1.5 0.0
14.4 1.5 0.0
14.8 1.5 0.0
15.200000000000001 1.5 0.0
15.600000000000001 1.5 0.0
16.0 1.5 0.0
0.0 1.6 0.0
0.4 1.6 0.0
0.8 1.6 0.0
1.2000000000000002 1.6 0.0
1.6 1.6 0.0
2.0 1.6 0.0
2.4000000000000004 1.6 0.0
2.8000000000000003 1.6 0.0
3.2 1.6 0.0
3.6 1.6 0.0
4.0 1.6 0.0
4.4 1.6 0.0
4.800000000000001 1.6 0.0
5.2 1.6 0.0
5.6000000000000005 1.6 0.0
6.0 1.6 0.0
6.4 1.6 0.0
6.800000000000001 1.6 0.0
7.2 1.6 0.0
7.6000000000000005 1.6 0.0
8.0 1.6 0.0
8.4 1.6 0.0
8.8 1.6 0.0
9.200000000000001 1.6 0.0
9.600000000000001 1.6 0.0
10.0 1.6 0.0
10.4 1.6 0.0
10.8 1.6 0.0
11.200000000000001 1.6 0.0
11.600000000000001 1.6 0.0
12.0 1.6 0.0
12.4 1.6 0.0
12.8 1.6 0.0
13.200000000000001 1.6 0.0
13.600000000000001 1.6 0.0
14.0 1.6 0.0
14.4 1.6 0.0
14.8 1.6 0.0
15.200000000000001 1.6 0.0
15.600000000000001 1.6 0.0
16.0 1.6 0.0
0.0 1.7000000000000002 0.0
0.4 1.7000000000000002 0.0
0.8 1.7000000000000002 0.0
1.2000000000000002 1.7000000000000002 0.0
1.6 1.7000000000000002 0.0
2.0 1.7000000000000002 0.0
2.4000000000000004 1.7000000000000002 0.0
2.8000000000000003 1.7000000000000002 0.0
3.2 1.7000000000000002 0.0
3.6 1.7000000000000002 0.0
4.0 1.7000000000000002 0.0
4.4 1.7000000000000002 0.0
4.800000000000001 1.7000000000000002 0.0
5.2 1.7000000000000002 0.0
5.6000000000000005 1.7000000000000002 0.0
6.0 1.7000000000000002 0.0
6.4 1.7000000000000002 0.0
6.800000000000001 1.7000000000000002 0.0
7.2 1.7000000000000002 0.0
7.6000000000000005 1.7000000000000002 0.0
8.0 1.7000000000000002 0.0
8.4 1.7000000000000002 0.0
8.8 1.7000000000000002 0.0
9.200000000000001 1.7000000000000002 0.0
9.600000000000001 1.7000000000000002 0.0
10.0 1.7000000000000002 0.0
10.4 1.7000000000000002 0.0
10.8 1.7000000000000002 0.0
11.200000000000001 1.7000000000000002 0.0
11.600000000000001 1.7000000000000002 0.0
12.0 1.7000000000000002 0.0
12.4 1.7000000000000002 0.0
12.8 1.7000000000000002 0.0
13.200000000000001 1.7000000000000002 0.0
13.600000000000001 1.7000000000000002 0.0
14.0 1.7000000000000002 0.0
14.4 1.7000000000000002 0.0
14.8 1.7000000000000002 0.0
15.200000000000001 1.7000000000000002 0.0
15.600000000000001 1.7000000000000002 0.0
16.0 1.7000000000000002 0.0
0.0 1.8 0.0
0.4 1.8 0.0
0.8 1.8 0.0
1.2000000000000002 1.8 0.0
1.6 1.8 0.0
2.0 1.8 0.0
2.4000000000000004 1.8 0.0
2.8000000000000003 1.8 0.0
3.2 1.8 0.0
3.6 1.8 0.0
4.0 1.8 0.0
4.4 1.8 0.0
4.800000000000001 1.8 0.0
5.2 1.8 0.0
5.6000000000000005 1.8 0.0
6.0 1.8 0.0
6.4 1.8 0.0
6.800000000000001 1.8 0.0
7.2 1.8 0.0
7.6000000000000005 1.8 0.0
8.0 1.8 0.0
8.4 1.8 0.0
8.8 1.8 0.0
9.200000000000001 1.8 0.0
9.600000000000001 1.8 0.0
10.0 1.8 0.0
10.4 1.8 0.0
10.8 1.8 0.0
11.200000000000001 1.8 0.0
11.600000000000001 1.8 0.0
12.0 1.8 0.0
12.4 1.8 0.0
12.8 1.8 0.0
13.200000000000001 1.8 0.0
13.600000000000001 1.8 0.0
14.0 1.8 0.0
14.4 1.8 0.0
14.8 1.8 0.0
15.200000000000001 1.8 0.0
15.600000000000001 1.8 0.0
16.0 1.8 0.0
0.0 1.9000000000000001 0.0
0.4 1.9000000000000001 0.0
0.8 1.9000000000000001 0.0
1.2000000000000002 1.9000000000000001 0.0
1.6 1.9000000000000001 0.0
2.0 1.9000000000000001 0.0
2.4000000000000004 1.9000000000000001 0.0
2.8000000000000003 1.9000000000000001 0.0
3.2 1.9000000000000001 0.0
3.6 1.9000000000000001 0.0
4.0 1.9000000000000001 0.0
4.4 1.9000000000000001 0.0
4.800000000000001 1.9000000000000001 0.0
5.2 1.9000000000000001 0.0
5.6000000000000005 1.9000000000000001 0.0
6.0 1.9000000000000001 0.0
6.4 1.9000000000000001 0.0
6.800000000000001 1.9000000000000001 0.0
7.2 1.9000000000000001 0.0
7.6000000000000005 1.9000000000000001 0.0
8.0 1.9000000000000001 0.0
8.4 1.9000000000000001 0.0
8.8 1.9000000000000001 0.0
9.200000000000001 1.9000000000000001 0.0
9.600000000000001 1.9000000000000001 0.0
10.0 1.9000000000000001 0.0
10.4 1.9000000000000001 0.0
10.8 1.9000000000000001 0.0
11.200000000000001 1.9000000000000001 0.0
11.600000000000001 1.9000000000000001 0.0
12.0 1.9000000000000001 0.0
12.4 1.9000000000000001 0.0
12.8 1.9000000000000001 0.0
13.200000000000001 1.9000000000000001 0.0
13.600000000000001 1.9000000000000001 0.0
14.0 1.9000000000000001 0.0
14.4 1.9000000000000001 0.0
14.8 1.9000000000000001 0.0
15.200000000000001 1.9000000000000001 0.0
15.600000000000001 1.9000000000000001 0.0
16.0 1.9000000000000001 0.0
0.0 2.0 0.0
0.4 2.0 0.0
0.8 2.0 0.0
1.2000000000000002 2.0 0.0
1.6 2.0 0.0
2.0 2.0 0.0
2.4000000000000004 2.0 0.0
2.8000000000000003 2.0 0.0
3.2 2.0 0.0
3.6 2.0 0.0
4.0 2.0 0.0
4.4 2.0 0.0
4.800000000000001 2.0 0.0
5.2 2.0 0.0
5.6000000000000005 2.0 0.0
6.0 2.0 0.0
6.4 2.0 0.0
6.800000000000001 2.0 0.0
7.2 2.0 0.0
7.6000000000000005 2.0 0.0
8.0 2.0 0.0
8.4 2.0 0.0
8.8 2.0 0.0
9.200000000000001 2.0 0.0
9.600000000000001 2.0 0.0
10.0 2.0 0.0
10.4 2.0 0.0
10.8 2.0 0.0
11.200000000000001 2.0 0.0
11.600000000000001 2.0 0.0
12.0 2.0 0.0
12.4 2.0 0.0
12.8 2.0 0.0
13.200000000000001 2.0 0.0
13.600000000000001 2.0 0.0
14.0 2.0 0.0
14.4 2.0 0.0
14.8 2.0 0.0
15.200000000000001 2.0 0.0
15.600000000000001 2.0 0.0
16.0 2.0 0.0
CELLS 800 4000
4 0 1 42 41
4 1 2 43 42
4 2 3 44 43
4 3 4 45 44
4 4 5 46 45
4 5 6 47 46
4 6 7 48 47
4 7 8 49 48
4 8 9 50 49
4 9 10 51 50
4 10 11 52 51
4 11 12 53 52
4 12 13 54 53
4 13 14 55 54
4 14 15 56 55
4 15 16 57 56
4 16 17 58 57
4 17 18 59 58
4 18 19 60 59
4 19 20 61 60
4 20 21 62 61
4 21 22 63 62
4 22 23 64 63
4 23 24 65 64
4 24 25 66 65
4 25 26 67 66
4 26 27 68 67
4 27 28 69 68
4 28 29 70 69
4 29 30 71 70
4 30 31 72 71
4 31 32 73 72
4 32 33 74 73
4 33 34 75 74
4 34 35 76 75
4 35 36 77 76
4 36 37 78 77
4 37 38 79 78
4 38 39 80 79
4 39 40 81 80
4 41 42 83 82
4 42 43 84 83
4 43 44 85 84
4 44 45 86 85
4 45 46 87 86
4 46 47 88 87
4 47 48 89 88
4 48 49 90 89
4 49 50 91 90
4 50 51 92 91
4 51 52 93 92
4 52 53 94 93
4 53 54 95 94
4 54 55 96 95
4 55 56 97 96
4 56 57 98 97
4 57 58 99 98
4 58 59 100 99
4 59 60 101 100
4 60 61 102 101
4 61 62 103 102
4 62 63 104 103
4 63 64 105 104
4 64 65 106 105
4 65 66 107 106
4 66 67 108 107
4 67 68 109 108
4 68 69 110 109
4 69 70 111 110
4 70 71 112 111
4 71 72 113 112
4 72 73 114 113
4 73 74 115 114
4 74 75 116 115
4 75 76 117 116
4 76 77 118 117
4 77 78 119 118
4 78 79 120 119
4 79 80 121 120
4 80 81 122 121
4 82 83 124 123
4 83 84 125 124
4 84 85 126 125
4 85 86 127 126
4 86 87 128 127
4 87 88 129 128
4 88 89 130 129
4 89 90 131 130
4 90 91 132 131
4 91 92 133 132
4 92 93 134 133
4 93 94 135 134
4 94 95 136 135
4 95 96 137 136
4 96 97 138 137
4 97 98 139 138
4 98 99 140 139
4 99 100 141 140
4 100 101 142 141
4 101 102 143 142
4 102 103 144 143
4 103 104 145 144
4 104 105 146 145
4 105 106 147 146
4 106 107 148 147
4 107 108 149 148
4 108 109 150 149
4 109 110 151 150
4 110 111 152 151
4 111 112 153 152
4 112 113 154 153
4 113 114 155 154
4 114 115 156 155
4 115 116 157 156
4 116 117 158 157
4 117 118 159 158
4 118 119 160 159
4 119 120 161 160
4 120 121 162 161
4 121 122 163 162
4 123 124 165 164
4 124 125 166 165
4 125 126 167 166
4 126 127 168 167
4 127 128 169 168
4 128 129 170 169
4 129 130 171 170
4 130 131 172 171
4 131 132 173 172
4 132 133 174 173
4 133 134 175 174
4 134 135 176 175
4 135 136 177 176
4 136 137 178 177
4 137 138 179 178
4 138 139 180 179
4 139 140 181 180
4 140 141 182 181
4 141 142 183 182
4 142 143 184 183
4 143 144 185 184
4 144 145 186 185
4 145 146 187 186
4 146 147 188 187
4 147 148 189 188
4 148 149 190 189
4 149 150 191 190
4 150 151 192 191
4 151 152 193 192
4 152 153 194 193
4 153 154 195 194
4 154 155 196 195
4 155 156 197 196
4 156 157 198 197
4 157 158 199 198
4 158 159 200 199
4 159 160 201 200
4 160 161 202 201
4 161 162 203 202
4 162 163 204 203
4 164 165 206 205
4 165 166 207 206
4 166 167 208 207
4 167 168 209 208
4 168 169 210 209
4 169 170 211 210
4 170 171 212 211
4 171 172 213 212
4 172 173 214 213
4 173 174 215 214
4 174 175 216 215
4 175 176 217 216
4 176 177 218 217
4 177 178 219 218
4 178 179 220 219
4 179 180 221 220
4 180 181 222 221
4 181 182 223 222
4 182 183 224 223
4 183 184 225 224
4 184 185 226 225
4 185 186 227 226
4 186 187 228 227
4 187 188 229 228
4 188 189 230 229
4 189 190 231 230
4 190 191 232 231
4 191 192 233 232
4 192 193 234 233
4 193 194 235 234
4 194 195 236 235
4 195 196 237 236
4 196 197 238 237
4 197 198 239 238
4 198 199 240 239
4 199 200 241 240
4 200 201 242 241
4 201 202 243 242
4 202 203 244 243
4 203 204 245 244
4 205 206 247 246
4 206 207 248 247
4 207 208 249 248
4 208 209 250 249
4 209 210 251 250
4 210 211 252 251
4 211 212 253 252
4 212 213 254 253
4 213 214 255 254
4 214 215 256 255
4 215 216 257 256
4 216 217 258 257
4 217 218 259 258
4 218 219 260 259
4 219 220 261 260
4 220 221 262 261
4 221 222 263 262
4 222 223 264 263
4 223 224 265 264
4 224 225 266 265
4 225 226 267 266
4 226 227 268 267
4 227 228 269 268
4 228 229 270 269
4 229 230 271 270
4 230 231 272 271
4 231 232 273 272
4 232 233 274 273
4 233 234 275 274
4 234 235 276 275
4 235 236 277 276
4 236 237 278 277
4 237 238 279 278
4 238 239 280 279
4 239 240 281 280
4 240 241 282 281
4 241 242 283 282
4 242 243 284 283
4 243 244 285 284
4 244 245 286 285
4 246 247 288 287
4 247 248 289 288
4 248 249 290 289
4 249 250 291 290
4 250 251 292 291
4 251 252 293 292
4 252 253 294 293
4 253 254 295 294
4 254 255 296 295
4 255 256 297 296
4 256 257 298 297
4 257 258 299 298
4 258 259 300 299
4 259 260 301 300
4 260 261 302 301
4 261 262 303 302
4 262 263 304 303
4 263 264 305 304
4 264 265 306 305
4 265 266 307 306
4 266 267 308 307
4 267 268 309 308
4 268 269 310 309
4 269 270 311 310
4 270 271 312 311
4 271 272 313 312
4 272 273 314 313
4 273 274 315 314
4 274 275 316 315
4 275 276 317 316
4 276 277 318 317
4 277 278 319 318
4 278 279 320 319
4 279 280 321 320
4 280 281 322 321
4 281 282 323 322
4 282 283 324 323
4 283 284 325 324
4 284 285 326 325
4 285 286 327 326
4 287 288 329 328
4 288 289 330 329
4 289 290 331 330
4 290 291 332 331
4 291 292 333 332
4 292 293 334 333
4 293 294 335 334
4 294 295 336 335
4 295 296 337 336
4 296 297 338 337
4 297 298 339 338
4 298 299 340 339
4 299 300 341 340
4 300 301 342 341
4 301 302 343 342
4 302 303 344 343
4 303 304 345 344
4 304 305 346 345
4 305 306 347 346
4 306 307 348 347
4 307 308 349 348
4 308 309 350 349
4 309 310 351 350
4 310 311 352 351
4 311 312 353 352
4 312 313 354 353
4 313 314 355 354
4 314 315 356 355
4 315 316 357 356
4 316 317 358 357
4 317 318 359 358
4 318 319 360 359
4 319 320 361 360
4 320 321 362 361
4 321 322 363 362
4 322 323 364 363
4 323 324 365 364
4 324 325 366 365
4 325 326 367 366
4 326 327 368 367
4 328 329 370 369
4 329 330 371 370
4 330 331 372 371
4 331 332 373 372
4 332 333 374 373
4 333 334 375 374
4 334 335 376 375
4 335 336 377 376
4 336 337 378 377
4 337 338 379 378
4 338 339 380 379
4 339 340 381 380
4 340 341 382 381
4 341 342 383 382
4 342 343 384 383
4 343 344 385 384
4 344 345 386 385
4 345 346 387 386
4 346 347 388 387
4 347 348 389 388
4 348 349 390 389
4 349 350 391 390
4 350 351 392 391
4 351 352 393 392
4 352 353 394 393
4 353 354 395 394
4 354 355 396 395
4 355 356 397 396
4 356 357 398 397
4 357 358 399 398
4 358 359 400 399
4 359 360 401 400
4 360 361 402 401
4 361 362 403 402
4 362 363 404 403
4 363 364 405 404
4 364 365 406 405
4 365 366 407 406
4 366 367 408 407
4 367 368 409 408
4 369 370 411 410
4 370 371 412 411
4 371 372 413 412
4 372 373 414 413
4 373 374 415 414
4 374 375 416 415
4 375 376 417 416
4 376 377 418 417
4 377 378 419 418
4 378 379 420 419
4 379 380 421 420
4 380 381 422 421
4 381 382 423 422
4 382 383 424 423
4 383 384 425 424
4 384 385 426 425
4 385 386 427 426
4 386 387 428 427
4 387 388 429 428
4 388 389 430 429
4 389 390 431 430
4 390 391 432 431
4 391 392 433 432
4 392 393 434 433
4 393 394 435 434
4 394 395 436 435
4 395 396 437 436
4 396 397 438 437
4 397 398 439 438
4 398 399 440 439
4 399 400 441 440
4 400 401 442 441
4 401 402 443 442
4 402 403 444 443
4 403 404 445 444
4 404 405 446 445
4 405 406 447 446
4 406 407 448 447
4 407 408 449 448
4 408 409 450 449
4 410 411 452 451
4 411 412 453 452
4 412 413 454 453
4 413 414 455 454
4 414 415 456 455
4 415 416 457 456
4 416 417 458 457
4 417 418 459 458
4 418 419 460 459
4 419 420 461 460
4 420 421 462 461
4 421 422 463 462
4 422 423 464 463
4 423 424 465 464
4 424 425 466 465
4 425 426 467 466
4 426 427 468 467
4 427 428 469 468
4 428 429 470 469
4 429 430 471 470
4 430 431 472 471
4 431 432 473 472
4 432 433 474 473
4 433 434 475 474
4 434 435 476 475
4 435 436 477 476
4 436 437 478 477
4 437 438 479 478
4 438 439 480 479
4 439 440 481 480
4 440 441 482 481
4 441 442 483 482
4 442 443 484 483
4 443 444 485 484
4 444 445 486 485
4 445 446 487 486
4 446 447 488 487
4 447 448 489 488
4 448 449 490 489
4 449 450 491 490
4 451 452 493 492
4 452 453 494 493
4 453 454 495 494
4 454 455 496 495
4 455 456 497 496
4 456 457 498 497
4 457 458 499 498
4 458 459 500 499
4 459 460 501 500
4 460 461 502 501
4 461 462 503 502
4 462 463 504 503
4 463 464 505 504
4 464 465 506 505
4 465 466 507 506
4 466 467 508 507
4 467 468 509 508
4 468 469 510 509
4 469 470 511 510
4 470 471 512 511
4 471 472 513 512
4 472 473 514 513
4 473 474 515 514
4 474 475 516 515
4 475 476 517 516
4 476 477 518 517
4 477 478 519 518
4 478 479 520 519
4 479 480 521 520
4 480 481 522 521
4 481 482 523 522
4 482 483 524 523
4 483 484 525 524
4 484 485 526 525
4 485 486 527 526
4 486 487 528 527
4 487 488 529 528
4 488 489 530 529
4 489 490 531 530
4 490 491 532 531
4 492 493 534 533
4 493 494 535 534
4 494 495 536 535
4 495 496 537 536
4 496 497 538 537
4 497 498 539 538
4 498 499 540 539
4 499 500 541 540
4 500 501 542 541
4 501 502 543 542
4 502 503 544 543
4 503 504 545 544
4 504 505 546 545
4 505 506 547 546
4 506 507 548 547
4 507 508 549 548
4 508 509 550 549
4 509 510 551 550
4 510 511 552 551
4 511 512 553 552
4 512 513 554 553
4 513 514 555 554
4 514 515 556 555
4 515 516 557 556
4 516 517 558 557
4 517 518 559 558
4 518 519 560 559
4 519 520 561 560
4 520 521 562 561
4 521 522 563 562
4 522 523 564 563
4 523 524 565 564
4 524 525 566 565
4 525 526 567 566
4 526 527 568 567
4 527 528 569 568
4 528 529 570 569
4 529 530 571 570
4 530 531 572 571
4 531 532 573 572
4 533 534 575 574
4 534 535 576 575
4 535 536 577 576
4 536 537 578 577
4 537 538 579 578
4 538 539 580 579
4 539 540 581 580
4 540 541 582 581
4 541 542 583 582
4 542 543 584 583
4 543 544 585 584
4 544 545 586 585
4 545 546 587 586
4 546 547 588 587
4 547 548 589 588
4 548 549 590 589
4 549 550 591 590
4 550 551 592 591
4 551 552 593 592
4 552 553 594 593
4 553 554 595 594
4 554 555 596 595
4 555 556 597 596
4 556 557 598 597
4 557 558 599 598
4 558 559 600 599
4 559 560 601 600
4 560 561 602 601
4 561 562 603 602
4 562 563 604 603
4 563 564 605 604
4 564 565 606 605
4 565 566 607 606
4 566 567 608 607
4 567 568 609 608
4 568 569 610 609
4 569 570 611 610
4 570 571 612 611
4 571 572 613 612
4 572 573 614 613
4 574 575 616 615
4 575 576 617 616
4 576 577 618 617
4 577 578 619 618
4 578 579 620 619
4 579 580 621 620
4 580 581 622 621
4 581 582 623 622
4 582 583 624 623
4 583 584 625 624
4 584 585 626 625
4 585 586 627 626
4 586 587 628 627
4 587 588 629 628
4 588 589 630 629
4 589 590 631 630
4 590 591 632 631
4 591 592 633 632
4 592 593 634 633
4 593 594 635 634
4 594 595 636 635
4 595 596 637 636
4 596 597 638 637
4 597 598 639 638
4 598 599 640 639
4 599 600 641 640
4 600 601 642 641
4 601 602 643 642
4 602 603 644 643
4 603 604 645 644
4 604 605 646 645
4 605 606 647 646
4 606 607 648 647
4 607 608 649 648
4 608 609 650 649
4 609 610 651 650
4 610 611 652 651
4 611 612 653 652
4 612 613 654 653
4 613 614 655 654
4 615 616 657 656
4 616 617 658 657
4 617 618 659 658
4 618 619 660 659
4 619 620 661 660
4 620 621 662 661
4 621 622 663 662
4 622 623 664 663
4 623 624 665 664
4 624 625 666 665
4 625 626 667 666
4 626 627 668 667
4 627 628 669 668
4 628 629 670 669
4 629 630 671 670
4 630 631 672 671
4 631 632 673 672
4 632 633 674 673
4 633 634 675 674
4 634 635 676 675
4 635 636 677 676
4 636 637 678 677
4 637 638 679 678
4 638 639 680 679
4 639 640 681 680
4 640 641 682 681
4 641 642 683 682
4 642 643 684 683
4 643 644 685 684
4 644 645 686 685
4 645 646 687 686
4 646 647 688 687
4 647 648 689 688
4 648 649 690 689
4 649 650 691 690
4 650 651 692 691
4 651 652 693 692
4 652 653 694 693
4 653 654 695 694
4 654 655 696 695
4 656 657 698 697
4 657 658 699 698
4 658 659 700 699
4 659 660 701 700
4 660 661 702 701
4 661 662 703 702
4 662 663 704 703
4 663 664 705 704
4 664 665 706 705
4 665 666 707 706
4 666 667 708 707
4 667 668 709 708
4 668 669 710 709
4 669 670 711 710
4 670 671 712 711
4 671 672 713 712
4 672 673 714 713
4 673 674 715 714
4 674 675 716 715
4 675 676 717 716
4 676 677 718 717
4 677 678 719 718
4 678 679 720 719
4 679 680 721 720
4 680 681 722 721
4 681 682 723 722
4 682 683 724 723
4 683 684 725 724
4 684 685 726 725
4 685 686 727 726
4 686 687 728 727
4 687 688 729 728
4 688 689 730 729
4 689 690 731 730
4 690 691 732 731
4 691 692 733 732
4 692 693 734 733
4 693 694 735 734
4 694 695 736 735
4 695 696 737 736
4 697 698 739 738
4 698 699 740 739
4 699 700 741 740
4 700 701 742 741
4 701 702 743 742
4 702 703 744 743
4 703 704 745 744
4 704 705 746 745
4 705 706 747 746
4 706 707 748 747
4 707 708 749 748
4 708 709 750 749
4 709 710 751 750
4 710 711 752 751
4 711 712 753 752
4 712 713 754 753
4 713 714 755 754
4 714 715 756 755
4 715 716 757 756
4 716 717 758 757
4 717 718 759 758
4 718 719 760 759
4 719 720 761 760
4 720 721 762 761
4 721 722 763 762
4 722 723 764 763
4 723 724 765 764
4 724 725 766 765
4 725 726 767 766
4 726 727 768 767
4 727 728 769 768
4 728 729 770 769
4 729 730 771 770
4 730 731 772 771
4 731 732 773 772
4 732 733 774 773
4 733 734 775 774
4 734 735 776 775
4 735 736 777 776
4 736 737 778 777
4 738 739 780 779
4 739 740 781 780
4 740 741 782 781
4 741 742 783 782
4 742 743 784 783
4 743 744 785 784
4 744 745 786 785
4 745 746 787 786
4 746 747 788 787
4 747 748 789 788
4 748 749 790 789
4 749 750 791 790
4 750 751 792 791
4 751 752 793 792
4 752 753 794 793
4 753 754 795 794
4 754 755 796 795
4 755 756 797 796
4 756 757 798 797
4 757 758 799 798
4 758 759 800 799
4 759 760 801 800
4 760 761 802 801
4 761 762 803 802
4 762 763 804 803
4 763 764 805 804
4 764 765 806 805
4 765 766 807 806
4 766 767 808 807
4 767 768 809 808
4 768 769 810 809
4 769 770 811 810
4 770 771 812 811
4 771 772 813 812
4 772 773 814 813
4 773 774 815 814
4 774 775 816 815
4 775 776 817 816
4 776 777 818 817
4 777 778 819 818
4 779 780 821 820
4 780 781 822 821
4 781 782 823 822
4 782 783 824 823
4 783 784 825 824
4 784 785 826 825
4 785 786 827 826
4 786 787 828 827
4 787 788 829 828
4 788 789 830 829
4 789 790 831 830
4 790 791 832 831
4 791 792 833 832
4 792 793 834 833
4 793 794 835 834
4 794 795 836 835
4 795 796 837 836
4 796 797 838 837
4 797 798 839 838
4 798 799 840 839
4 799 800 841 840
4 800 801 842 841
4 801 802 843 842
4 802 803 844 843
4 803 804 845 844
4 804 805 846 845
4 805 806 847 846
4 806 807 848 847
4 807 808 849 848
4 808 809 850 849
4 809 810 851 850
4 810 811 852 851
4 811 812 853 852
4 812 813 854 853
4 813 814 855 854
4 814 815 856 855
4 815 816 857 856
4 816 817 858 857
4 817 818 859 858
4 818 819 860 859
CELL_TYPES 800
9
9
9
9
9
9
9
9
9
9
9
9
9
9
9
9
9
9
9
9
9
9
9
9
9
9
9
9
9
9
9
9
9
9
9
9
9
9
9
9
9
9
9
9
9
9
9
9
9
9
9
9
9
9
9
9
9
9
9
9
9
9
9
9
9
9
9
9
9
9
9
9
9
9
9
9
9
9
9
9
9
9
9
9
9
9
9
9
9
9
9
9
9
9
9
9
9
9
9
9
9
9
9
9
9
9
9
9
9
9
9
9
9
9
9
9
9
9
9
9
9
9
9
9
9
9
9
9
9
9
9
9
9
9
9
9
9
9
9
9
9
9
9
9
9
9
9
9
9
9
9
9
9
9
9
9
9
9
9
9
9
9
9
9
9
9
9
9
9
9
9
9
9
9
9
9
9
9
9
9
9
9
9
9
9
9
9
9
9
9
9
9
9
9
9
9
9
9
9
9
9
9
9
9
9
9
9
9
9
9
9
9
9
9
9
9
9
9
9
9
9
9
9
9
9
9
9
9
9
9
9
9
9
9
9
9
9
9
9
9
9
9
9
9
9
9
9
9
9
9
9
9
9
9
9
9
9
9
9
9
9
9
9
9
9
9
9
9
9
9
9
9
9
9
9
9
9
9
9
9
9
9
9
9
9
9
9
9
9
9
9
9
9
9
9
9
9
9
9
9
9
9
9
9
9
9
9
9
9
9
9
9
9
9
9
9
9
9
9
9
9
9
9
9
9
9
9
9
9
9
9
9
9
9
9
9
9
9
9
9
9
9
9
9
9
9
9
9
9
9
9
9
9
9
9
9
9
9
9
9
9
9
9
9
9
9
9
9
9
9
9
9
9
9
9
9
9
9
9
9
9
9
9
9
9
9
9
9
9
9
9
9
9
9
9
9
9
9
9
9
9
9
9
9
9
9
9
9
9
9
9
9
9
9
9
9
9
9
9
9
9
9
9
9
9
9
9
9
9
9
9
9
9
9
9
9
9
9
9
9
9
9
9
9
9
9
9
9
9
9
9
9
9
9
9
9
9
9
9
9
9
9
9
9
9
9
9
9
9
9
9
9
9
9
9
9
9
9
9
9
9
9
9
9
9
9
9
9
9
9
9
9
9
9
9
9
9
9
9
9
9
9
9
9
9
9
9
9
9
9
9
9
9
9
9
9
9
9
9
9
9
9
9
9
9
9
9
9
9
9
9
9
9
9
9
9
9
9
9
9
9
9
9
9
9
9
9
9
9
9
9
9
9
9
9
9
9
9
9
9
9
9
9
9
9
9
9
9
9
9
9
9
9
9
9
9
9
9
9
9
9
9
9
9
9
9
9
9
9
9
9
9
9
9
9
9
9
9
9
9
9
9
9
9
9
9
9
9
9
9
9
9
9
9
9
9
9
9
9
9
9
9
9
9
9
9
9
9
9
9
9
9
9
9
9
9
9
9
9
9
9
9
9
9
9
9
9
9
9
9
9
9
9
9
9
9
9
9
9
9
9
9
9
9
9
9
9
9
9
9
9
9
9
9
9
9
9
9
9
9
9
9
9
9
9
9
9
9
9
9
9
9
9
9
9
9
9
9
9
9
9
9
9
9
9
9
9
9
9
9
9
9
9
9
9
9
9
9
9
9
9
9
9
9
9
9
9
9
9
9
9
9
9
9
9
9
9
9
9
9
9
9
9
9
9
9
9
9
9
9
9
9
9
9
9
9
9
9
9
9
9
9
9
9
9
9
9
9
9
9
9
9
9
9
9
9
9
9
9
9
9
9
9
9
9
9
9
9
9
9
9
9
9
9
9
9
9
9
9
9
POINT_DATA 861
SCALARS Disp float 2
LOOKUP_TABLE default
0.0 0.0
0.011751390727664266 -0.21476545521941767
0.020931143119402282 -0.3962344754894271
0.028294543628823984 -0.5745885675734806
0.03670693690426916 -0.7495123471208601
0.04682433031404263 -0.9209280311092501
0.05896932828573796 -1.0880164893876514
0.073271404316331 -1.2498927138916203
0.08977294168439653 -1.4056421766952603
0.10848376360262674 -1.554361593856081
0.1294024010679299 -1.6951581416732928
0.15252546746544055 -1.8271471838359514
0.17785087860012885 -1.9494495242531373
0.20538094160651454 -2.0611901816677567
0.2351289880283349 -2.1614954841151635
0.2671315254776839 -2.249481054629534
0.3014604666607723 -2.324217524477594
0.3382110377616545 -2.3846614945730553
0.3774128158240245 -2.4295663736390676
0.41881070556888966 -2.4574710489130385
0.461586336015739 -2.466983658999533
0.504361966462588 -2.4574710489130376
0.5457598562074528 -2.4295663736390662
0.5849616342698227 -2.384661494573055
0.6217122053707049 -2.324217524477594
0.6560411465537934 -2.2494810546295345
0.6880436840031429 -2.161495484115164
0.7177917304249631 -2.061190181667756
0.7453217934313485 -1.9494495242531367
0.7706472045660369 -1.827147183835951
0.7937702709635475 -1.6951581416732928
0.8146889084288506 -1.5543615938560806
0.8333997303470808 -1.40564217669526
0.8499012677151464 -1.2498927138916196
0.8642033437457395 -1.0880164893876503
0.8763483417174346 -0.9209280311092504
0.886465735127208 -0.7495123471208598
0.8948781284026532 -0.5745885675734814
0.9022415289120751 -0.39623447548942664
0.9114212813038131 -0.21476545521941695
0.9231726720314773 0.0
0.053200304038593056 -0.007297841146868742
0.06051792092650105 -0.2141965632556894
0.0655828000943049 -0.39726495348272994
0.07240568962036323 -0.5753070149609993
0.07988738853319886 -0.750458918698064
0.08902195562527039 -0.922055526645713
0.09996755393541341 -1.0893623269896198
0.11284960438311019 -1.2514602483035913
0.12770559810074525 -1.407434394326965
0.14454706028579697 -1.5563785636386582
0.16337440089173197 -1.6973996387137653
0.18418566341597595 -1.8296129216414425
0.20697978061068467 -1.9521394735424584
0.23175948963125684 -2.064104972325965
0.25853666737922154 -2.1646372921695636
0.2873409979145652 -2.25285489877107
0.31822628681844295 -2.3278317274769407
0.3512533695688664 -2.3885235898187
0.38640868706053155 -2.433668401862113
0.4234262530529571 -2.461762332641833
0.46158633601573884 -2.4713499904725102
0.49974641897852057 -2.461762332641832
0.5367639849709459 -2.433668401862112
0.571919302462611 -2.3885235898186994
0.6049463852130343 -2.3278317274769407
0.6358316741169121 -2.2528548987710706
0.6646360046522559 -2.164637292169564
0.6914131824002208 -2.064104972325964
0.7161928914207927 -1.9521394735424578
0.7389870086155015 -1.8296129216414425
0.7597982711397454 -1.6973996387137653
0.7786256117456803 -1.5563785636386578
0.795467073930732 -1.4074343943269647
0.8103230676483671 -1.2514602483035906
0.8232051180960639 -1.0893623269896187
0.8341507164062069 -0.9220555266457133
0.8432852834982784 -0.7504589186980639
0.850766982411114 -0.575307014961
0.8575898719371723 -0.39726495348272944
0.8626547511049762 -0.2141965632556887
0.8699723679928842 -0.007297841146868769
0.10277820849641083 -0.013566487485526656
0.10802681816336213 -0.21377933931134205
0.11075270850714748 -0.39783273232561434
0.11621556316460697 -0.5760064445990808
0.12284982862328674 -0.7512784136676404
0.13093366667761705 -0.9230681370201521
0.14067158665258725 -1.090565659643237
0.15212723295628802 -1.2528634881733642
0.16533669027805134 -1.4090382115300668
0.18030887159718872 -1.5581834059588526
0.19704529535160384 -1.6994052914007132
0.2155449805523579 -1.8318192127997095
0.23580752283250483 -1.9545463863269594
0.25783531706161456 -2.066712952759429
0.2816373575251196 -2.1674478704568325
0.3072350212341438 -2.255871660019386
0.334665424238588 -2.3310607723641925
0.36396608385019724 -2.3919706303093355
0.39510871304688416 -2.4373273171810723
0.427854966765855 -2.46559173391363
0.46158633601573873 -2.475249559144392
0.4953177052656226 -2.4655917339136297
0.5280639589845934 -2.4373273171810714
0.5592065881812802 -2.391970630309335
0.5885072477928892 -2.3310607723641925
0.6159376507973335 -2.2558716600193867
0.6415353145063578 -2.1674478704568325
0.665337354969863 -2.066712952759428
0.6873651491989724 -1.954546386326959
0.7076276914791195 -1.8318192127997093
0.7261273766798735 -1.6994052914007132
0.7428638004342886 -1.5581834059588522
0.757835981753426 -1.4090382115300666
0.7710454390751893 -1.2528634881733638
0.7825010853788901 -1.0905656596432356
0.7922390053538602 -0.9230681370201524
0.8003228434081906 -0.7512784136676401
0.8069571088668703 -0.5760064445990815
0.8124199635243298 -0.39783273232561384
0.8151458538681152 -0.2137793393113414
0.8203944635350664 -0.013566487485526673
0.15021576986429827 -0.018924254782753898
0.15438493153022098 -0.2136566631603736
0.1558303315585474 -0.3980841643733892
0.15989634232656327 -0.5765843388033683
0.1655691610298729 -0.7519915350993116
0.17260180258490354 -0.9239539725391341
0.18111255023533593 -1.0916270426652293
0.1911388947494698 -1.2541014438438463
0.20270001170944665 -1.41045367981944
0.2158028758239854 -1.5597761379168071
0.23044854659300018 -1.7011751585404657
0.24663675062040114 -1.8337660573154455
0.2643673799285196 -1.956670127573056
0.2836419022592474 -2.0690136711590723
0.3044654843401749 -2.169926187450318
0.32685052514354057 -2.2585296393549235
0.3508195218500886 -2.333903199931259
0.3763966914777352 -2.3950047244965673
0.4035618954083767 -2.4405551779875703
0.43213182782745513 -2.4689863887798116
0.4615863360157387 -2.4787179915539967
0.49104084420402233 -2.4689863887798116
0.5196107766231008 -2.44055517798757
0.5467759805537423 -2.395004724496567
0.5723531501813888 -2.3339031999312585
0.5963221468879366 -2.2585296393549235
0.6187071876913025 -2.169926187450318
0.6395307697722301 -2.069013671159072
0.6588052921029576 -1.9566701275730556
0.6765359214110763 -1.833766057315445
0.6927241254384772 -1.7011751585404657
0.7073697962074919 -1.559776137916807
0.7204726603220307 -1.4104536798194398
0.7320337772820076 -1.2541014438438458
0.7420601217961413 -1.091627042665228
0.7505708694465737 -0.9239539725391344
0.7576035110016044 -0.7519915350993115
0.7632763297049141 -0.576584338803369
0.7673423404729299 -0.3980841643733888
0.7687877405012563 -0.21365666316037293
0.7729569021671789 -0.018924254782753912
0.19628571169003348 -0.023487605462191547
0.19980457526817708 -0.21381345440063818
0.20056809691343286 -0.3981546790095473
0.20343362608753385 -0.5770114009383324
0.20808020570235802 -0.7525920198774388
0.21404965859757463 -0.9247124440779478
0.2213254349421834 -1.0925442741940565
0.22991781214606288 -1.2551739995333522
0.23982950803292555 -1.4116806036190668
0.2510626758677264 -1.5611567947716067
0.263617638865784 -1.7027092576108802
0.27749433934092654 -1.8354534429037315
0.29269271829761084 -1.9585105778053662
0.3092129174159968 -2.0710067851278726
0.327055783255387 -2.172071528815366
0.3462246685908763 -2.260827778926011
0.3667296294021195 -2.336358435884242
0.38858976876896495 -2.3976284710416347
0.4118106585917105 -2.4433626814384266
0.43628431925032524 -2.4719689316851876
0.46158633601573873 -2.481784979919853
0.4868883527811523 -2.4719689316851876
0.5113620134397671 -2.443362681438426
0.5345829032625127 -2.3976284710416342
0.5564430426293578 -2.336358435884242
0.576948003440601 -2.2608277789260116
0.5961168887760905 -2.172071528815366
0.6139597546154805 -2.0710067851278717
0.6304799537338663 -1.9585105778053657
0.6456783326905509 -1.8354534429037315
0.6595550331656933 -1.7027092576108802
0.6721099961637509 -1.5611567947716065
0.6833431639985518 -1.4116806036190663
0.6932548598854145 -1.2551739995333515
0.701847237089294 -1.0925442741940554
0.7091230134339027 -0.9247124440779481
0.7150924663291193 -0.7525920198774387
0.7197390459439436 -0.577011400938333
0.7226045751180444 -0.39815467900954693
0.7233680967633003 -0.2138134544006375
0.7268869603414438 -0.023487605462191558
0.24143192842949146 -0.027363629965232898
0.24448980513423463 -0.21418538143588403
0.24489314512155275 -0.3981379132336552
0.24678797378738598 -0.577294987548631
0.25041091789676073 -0.7530726330320378
0.25530497735609337 -0.925343265150381
0.2613424862399084 -1.093316336207959
0.2684977056176016 -1.2560807811704384
0.27675881598496166 -1.4127189002884049
0.2861219061363123 -1.5623253483487574
0.2965860474310535 -1.7040075933897558
0.30815114689251466 -1.83688134589944
0.3208169745209282 -1.9600676482452684
0.3345821638660084 -2.0726920809771303
0.34944315193253606 -2.1738835043473452
0.36539461804421214 -2.2627655900519215
0.3824360669235198 -2.338426504967839
0.40058732649458806 -2.399844351427523
0.41989233334808734 -2.445758573318242
0.44033475508460107 -2.4745581111580863
0.4615863360157388 -2.484476059242484
0.4828379169468764 -2.4745581111580863
0.5032803386833903 -2.4457585733182414
0.5225853455368895 -2.399844351427522
0.5407366051079576 -2.3384265049678388
0.5577780539872652 -2.262765590051922
0.5737295200989414 -2.173883504347345
0.588590508165469 -2.0726920809771294
0.602355697510549 -1.9600676482452681
0.6150215251389626 -1.8368813458994395
0.6265866246004238 -1.7040075933897556
0.637050765895165 -1.562325348348757
0.6464138560465157 -1.4127189002884044
0.6546749664138758 -1.2560807811704373
0.6618301857915689 -1.0933163362079577
0.667867694675384 -0.9253432651503811
0.6727617541347165 -0.7530726330320376
0.6763846982440913 -0.5772949875486314
0.6782795269099245 -0.3981379132336549
0.6786828668972428 -0.2141853814358834
0.6817407436019859 -0.02736362996523292
0.28593122758673545 -0.03064544536789968
0.288611392355075 -0.214701034961148
0.2888153525604213 -0.39808963960212995
0.28993657646724375 -0.577456066760833
0.29258071807847214 -0.7534316323984753
0.2963973597913015 -0.9258459199958654
0.30119540196308203 -1.0939429960173728
0.3069120294790475 -1.25682149724598
0.31352155147767174 -1.4135684878655228
0.32101414628814967 -1.5632817611914887
0.3293872573283984 -1.705070148549013
0.3386405946783335 -1.8380497409716348
0.34877363430757796 -1.9613412874313394
0.359783506591731 -2.074069480602696
0.3716625136062098 -2.1753620380268814
0.38439736799093516 -2.2643430828506643
0.3979783928888874 -2.3401078087179528
0.41242931558649154 -2.4016542874393965
0.4278405230765183 -2.447749264100234
0.44430179261923863 -2.476769228799611
0.4615863360157388 -2.4868139413791788
0.47887087941223877 -2.4767692287996104
0.4953321489549592 -2.4477492641002336
0.5107433564449858 -2.401654287439396
0.5251942791425901 -2.3401078087179523
0.5387753040405421 -2.2643430828506643
0.5515101584252676 -2.175362038026881
0.5633891654397464 -2.074069480602695
0.5743990377238993 -1.961341287431339
0.5845320773531438 -1.8380497409716345
0.593785414703079 -1.705070148549013
0.6021585257433276 -1.5632817611914882
0.6096511205538055 -1.4135684878655226
0.6162606425524298 -1.2568214972459788
0.6219772700683953 -1.0939429960173717
0.6267753122401758 -0.9258459199958656
0.6305919539530053 -0.7534316323984753
0.6332360955642337 -0.5774560667608335
0.634357319471056 -0.3980896396021296
0.6345612796764024 -0.2147010349611474
0.637241444444742 -0.03064544536789971
0.3299686793596205 -0.0334113379116328
0.33230726991937726 -0.21529713793849797
0.33238180489775326 -0.3980383548653557
0.33287890041301005 -0.577517458939654
0.3346071135415361 -0.7536723924941198
0.3373562314342343 -0.9262205723685092
0.34091609930137434 -1.094424405267339
0.3451939976918184 -1.2573960516346407
0.35015128853388594 -1.4142292882907517
0.35577294385475333 -1.5640259889867894
0.36205474975833485 -1.7058968916148183
0.3689961208264737 -1.838958603505095
0.37659620889870127 -1.9623314839763701
0.3848508135838585 -2.075139035974001
0.39374869267770485 -2.1765073447762253
0.40326959091248904 -2.2655607058924656
0.41339543802801026 -2.341402978962643
0.42415421355348293 -2.403059353452744
0.43568632937043056 -2.4493385362087787
0.44820149471410814 -2.4786143884718235
0.4615863360157387 -2.48881963239232
0.4749711773173692 -2.478614388471823
0.48748634266104685 -2.4493385362087787
0.4990184584779945 -2.403059353452743
0.5097772340034672 -2.341402978962643
0.5199030811189883 -2.2655607058924656
0.5294239793537724 -2.176507344776225
0.5383218584476189 -2.0751390359740003
0.546576463132776 -1.9623314839763697
0.5541765512050036 -1.8389586035050947
0.5611179222731425 -1.7058968916148183
0.567399728176724 -1.5640259889867891
0.5730213834975914 -1.4142292882907515
0.5779786743396589 -1.2573960516346399
0.582256572730103 -1.094424405267338
0.585816440597243 -0.9262205723685096
0.5885655584899413 -0.7536723924941198
0.5902937716184673 -0.5775174589396544
0.5907908671337242 -0.39803835486535527
0.5908654021121001 -0.21529713793849733
0.593203992671857 -0.03341133791163284
0.3736758236426113 -0.035726163749010324
0.3756888470852909 -0.21592274331988107
0.3756543634181562 -0.39799487695656094
0.3756326267793494 -0.5774987959957093
0.37651018710788864 -0.7538013831819285
0.3782107896186188 -0.9264685083437113
0.3805367344160844 -1.0947610062661794
0.38337675978265123 -1.257804516422207
0.3866815390985516 -1.4147012509535681
0.3904318229211645 -1.564557979961381
0.39462199797162123 -1.7064877822314686
0.3992511721667943 -1.8396079116482218
0.4043182147925323 -1.9630382638616797
0.40981790294705905 -2.0759009133199027
0.41573630473167067 -2.1773198952101964
0.42204750172966754 -2.2664192990452805
0.42872536314122683 -2.3423128151812063
0.43579964319122777 -2.4040596327457924
0.44345949619861685 -2.4505272799812934
0.45204814680553873 -2.4801025396411784
0.4615863360157387 -2.4905134822828607
0.4711245252259387 -2.4801025396411784
0.47971317583286044 -2.4505272799812934
0.48737302884024963 -2.4040596327457915
0.49444730889025057 -2.342312815181206
0.5011251703018098 -2.26641929904528
0.5074363672998066 -2.177319895210196
0.5133547690844182 -2.0759009133199022
0.5188544572389451 -1.9630382638616795
0.5239214998646831 -1.8396079116482211
0.5285506740598561 -1.7064877822314688
0.5327408491103127 -1.5645579799613807
0.5364911329329257 -1.4147012509535677
0.5397959122488261 -1.257804516422206
0.542635937615393 -1.0947610062661783
0.5449618824128585 -0.9264685083437117
0.5466624849235887 -0.7538013831819284
0.547540045252128 -0.5774987959957097
0.5475183086133212 -0.3979948769565605
0.5474838249461864 -0.21592274331988048
0.549496848388866 -0.035726163749010345
0.41715141466997674 -0.03764371358673342
0.41884746842404685 -0.216539101862236
0.41869882434956635 -0.3979594423455129
0.41822814318249246 -0.5774149823374176
0.4183144325924164 -0.7538262944963523
0.4189906728436615 -0.9265920577111063
0.42008966944020026 -1.094953535001357
0.4214935014557259 -1.2580470854394916
0.4231457690439536 -1.4149843590435403
0.42502428213025195 -1.5648776783902296
0.42712246617428273 -1.7068427738099021
0.4294391968927274 -1.8399976472575392
0.4319731568283187 -1.963461683810302
0.434718501801463 -2.0763553685460403
0.4376596640344586 -2.177800368166859
0.4407667226613123 -2.2669200567961383
0.444005692961682 -2.342838308510115
0.447402987130556 -2.404654220078606
0.45118955676672473 -2.4513132302239193
0.45585496883410337 -2.481239277459066
0.46158633601573873 -2.4919162880750574
0.46731770319737403 -2.481239277459066
0.4719831152647525 -2.451313230223919
0.4757696849009215 -2.4046542200786054
0.4791669790697954 -2.3428383085101148
0.4824059493701652 -2.266920056796138
0.48551300799701885 -2.1778003681668587
0.48845417023001436 -2.0763553685460403
0.4911995152031586 -1.9634616838103016
0.49373347513874993 -1.8399976472575386
0.4960502058571945 -1.7068427738099021
0.4981483899012253 -1.5648776783902296
0.5000269029875237 -1.4149843590435398
0.5016791705757514 -1.258047085439491
0.5030830025912771 -1.094953535001356
0.5041819991878158 -0.9265920577111066
0.5048582394390609 -0.7538262944963522
0.5049445288489849 -0.5774149823374181
0.504473847681911 -0.3979594423455124
0.5043252036074305 -0.2165391018622354
0.5060212573615006 -0.03764371358673344
0.4604732501546518 -0.039209281571578825
0.46185961039473644 -0.2171180363014676
0.4615799041562968 -0.39792651855292555
0.4607039166643692 -0.5772762997977501
0.46004897114575694 -0.7537547460126515
0.4597266025890666 -0.9265942516639154
0.4596075344411122 -1.0950029947169826
0.45957748424336836 -1.2581240371662274
0.45957742059292467 -1.4150786224959866
0.4595837936542115 -1.564985027954535
0.45958960792795306 -1.7069618156121777
0.4595936392117925 -1.8401277953597945
0.4595945153788042 -1.9636018220857159
0.4595862195679214 -2.0765027162966487
0.459552714653367 -2.1779495896438967
0.45946213869289204 -2.267064492190272
0.45927327125707784 -2.342980749065962
0.45900195746497013 -2.4048413914549913
0.45890708060057583 -2.4516907050844785
0.4596348492064131 -2.4820263283243755
0.46158633601573873 -2.493050568497703
0.46353782282506406 -2.4820263283243755
0.4642655914309014 -2.451690705084478
0.4641707145665073 -2.404841391454991
0.4638994007743997 -2.3429807490659615
0.46371053333858536 -2.2670644921902716
0.4636199573781104 -2.1779495896438963
0.46358645246355606 -2.076502716296648
0.46357815665267305 -1.9636018220857157
0.46357903281968477 -1.8401277953597939
0.4635830641035242 -1.706961815612178
0.4635888783772658 -1.564985027954535
0.4635952514385527 -1.4150786224959861
0.463595187788109 -1.2581240371662268
0.46356513759036516 -1.0950029947169813
0.46344606944241074 -0.926594251663916
0.4631237008857204 -0.7537547460126514
0.46246875536710813 -0.5772762997977506
0.46159276787518055 -0.3979265185529251
0.4613130616367409 -0.21711803630146698
0.4626994218768256 -0.03920928157157885
0.5037051098929218 -0.04046207389794032
0.5047906931938746 -0.21764000329492658
0.5043591305024958 -0.39788790676587255
0.503103157407415 -0.5770891773817083
0.5017470228430687 -0.753593550860267
0.5004507630665997 -0.9264784178404644
0.4991233354822167 -1.0949105726590012
0.4976620620290978 -1.258035701101156
0.4960099261670613 -1.4149840659451007
0.49414380429879806 -1.5648799730982736
0.4920568646502983 -1.7068448547592745
0.4897479361292549 -1.8399983424954163
0.4872157379877762 -1.9634587678053341
0.4844545363201239 -2.0763432960964976
0.4814489948357057 -2.177768457271071
0.4781677449372084 -2.2668543831813657
0.47456407427690933 -2.342741902931476
0.4706350516766593 -2.404618983834893
0.466645133161482 -2.4516503865646615
0.46340125704038987 -2.4824606007771113
0.46158633601573873 -2.4939421416001895
0.45977141499108726 -2.482460600777111
0.45652753886999514 -2.4516503865646615
0.4525376203548181 -2.404618983834893
0.44860859775456813 -2.3427419029314756
0.44500492709426903 -2.2668543831813652
0.44172367719577177 -2.1777684572710707
0.4387181357113536 -2.0763432960964967
0.435956934043701 -1.963458767805334
0.4334247359022224 -1.8399983424954156
0.431115807381179 -1.7068448547592747
0.42902886773267923 -1.5648799730982736
0.427162745864416 -1.4149840659451
0.4255106100023795 -1.2580357011011556
0.4240493365492606 -1.094910572659
0.4227219089648776 -0.9264784178404648
0.4214256491884086 -0.7535935508602669
0.4200695146240624 -0.5770891773817088
0.4188135415289815 -0.39788790676587205
0.41838197883760275 -0.21764000329492597
0.41946756213855557 -0.04046207389794034
0.5469008313422471 -0.04143731967635402
0.547697713924943 -0.218092301864361
0.5470941571387336 -0.3978346770111939
0.5454716243699956 -0.5768571452945126
0.5434451543249557 -0.7533483821451792
0.5411969204720464 -0.9262478151367745
0.5386705428056695 -1.0946775161315019
0.5357806888813433 -1.2577824200885375
0.5324767123831027 -1.4147007159923113
0.528737736658973 -1.5645624589241025
0.5245576649163847 -1.706491838176747
0.519935516779782 -1.8396092744572663
0.514870235580835 -1.9630326094534991
0.5093568035591055 -2.075877439882804
0.5033816460395906 -2.1772578529252917
0.4969165091425222 -2.2662916748607023
0.4899128148568631 -2.342124224688794
0.48234176204648427 -2.403985050492828
0.47444107525723367 -2.4511792430507864
0.4671695750786876 -2.482532611217539
0.46158633601573856 -2.4946221587707473
0.45600309695278957 -2.4825326112175383
0.4487315967742435 -2.4511792430507864
0.4408309099849931 -2.4039850504928286
0.4332598571746143 -2.342124224688794
0.42625616288895524 -2.266291674860702
0.41979102599188695 -2.1772578529252913
0.4138158684723719 -2.0758774398828033
0.40830243645064224 -1.963032609453499
0.4032371552516953 -1.8396092744572659
0.39861500711509257 -1.7064918381767473
0.39443493537250424 -1.564562458924102
0.39069595964837456 -1.414700715992311
0.3873919831501339 -1.2577824200885372
0.3845021292258079 -1.0946775161315008
0.3819757515594311 -0.9262478151367748
0.37972751770652163 -0.7533483821451791
0.3777010476614817 -0.576857145294513
0.3760785148927438 -0.39783467701119346
0.37547495810653436 -0.21809230186436038
0.3762718406892303 -0.041437319676354056
0.5901065876209549 -0.0421680585736662
0.5906309414160741 -0.2184675769394642
0.5898387634937545 -0.3977583609259845
0.5878563226523387 -0.5765817570858551
0.5851825638266148 -0.7530236869087759
0.5820003518865158 -0.9259053416161492
0.5782831216316858 -1.094304992981979
0.5739669168394658 -1.2573645074748228
0.569011196669456 -1.4142285893116675
0.563398989094009 -1.5640324307578395
0.5571254245225564 -1.7059027146179877
0.5501898046110454 -1.8389605741279622
0.5425913845371184 -1.9623234225778654
0.5343262506136214 -2.0751054448525528
0.5253834723456788 -2.176418554050789
0.5157403094143258 -2.2653783068438504
0.5053522844471214 -2.3411310317660883
0.4941622817917267 -2.4029388748764067
0.4823388276481584 -2.4502608045525616
0.4709592849374499 -2.482223993749916
0.4615863360157385 -2.4951297674514152
0.4522133870940273 -2.4822239937499155
0.44083384438331885 -2.4502608045525616
0.4290103902397505 -2.402938874876407
0.4178203875843559 -2.3411310317660887
0.40743236261715166 -2.2653783068438504
0.3977891996857985 -2.1764185540507888
0.38884642141785597 -2.075105444852552
0.38058128749435877 -1.9623234225778652
0.3729828674204321 -1.8389605741279618
0.36604724750892087 -1.7059027146179877
0.3597736829374683 -1.5640324307578395
0.35416147536202136 -1.4142285893116673
0.3492057551920116 -1.2573645074748223
0.3448895503997916 -1.094304992981978
0.3411723201449617 -0.9259053416161497
0.33799010820486247 -0.7530236869087755
0.3353163493791387 -0.5765817570858556
0.33333390853772277 -0.3977583609259841
0.3325417306154033 -0.21846757693946356
0.33306608441052243 -0.04216805857366623
0.6333619244069721 -0.042686623062760186
0.6336348662004685 -0.21876264594537684
0.6326431980143297 -0.3976517169823097
0.6303048819206314 -0.5762633940808768
0.6270005087914415 -0.7526227214022108
0.6228976514770624 -0.9254533122336847
0.6179954946137101 -1.093793957321932
0.6122543784003828 -1.2567822029384663
0.6056467784127705 -1.4135676824413161
0.5981609345362235 -1.5632898343358372
0.5897935471560961 -1.7050774368882513
0.5805442214775265 -1.8380522205520333
0.5704125382848781 -1.9613312564359475
0.5593959892991914 -2.0740275516619366
0.5474870327214624 -2.1752511665430463
0.5346700554332574 -2.264115946167539
0.5209124588574727 -2.3397664958521687
0.5061362280237389 -2.401482415256619
0.4903916489225535 -2.4488762085950757
0.47479784006030834 -2.4815036670206467
0.46158633601573856 -2.49551555717171
0.44837483197116873 -2.4815036670206463
0.4327810231089238 -2.4488762085950757
0.4170364440077383 -2.4014824152566194
0.40226021317400446 -2.3397664958521687
0.38850261659821994 -2.2641159461675384
0.375685639310015 -2.1752511665430463
0.3637766827322858 -2.0740275516619358
0.35276013374659904 -1.961331256435947
0.34262845055395086 -1.8380522205520327
0.3333791248753812 -1.7050774368882515
0.32501173749525375 -1.563289834335837
0.31752589361870687 -1.413567682441316
0.3109182936310946 -1.2567822029384659
0.3051771774177673 -1.0937939573219309
0.300275020554415 -0.9254533122336852
0.29617216324003587 -0.7526227214022104
0.29286779011084596 -0.5762633940808771
0.2905294740171476 -0.3976517169823094
0.2895378058310088 -0.21876264594537623
0.2898107476245053 -0.042686623062760214
0.6766998063653311 -0.04302583558781085
0.6767485396373413 -0.21897764912320158
0.6755547588107776 -0.3975093017307364
0.6728654755441609 -0.5759019199573552
0.66894189047617 -0.752147610308246
0.6639264575462178 -0.9248932892480106
0.6578424409181131 -1.093145034686565
0.6506767505356034 -1.2560356328105444
0.6424168256354416 -1.412717964356864
0.6330569185813478 -1.5623346174009853
0.622595426355363 -1.7040159641078365
0.6110321907092806 -1.8368841903616893
0.5983670518057952 -1.9600561217765917
0.5845990236706021 -2.0726439185804706
0.5697246986212077 -2.173756111113105
0.5537361248879553 -2.2625056574262463
0.5366196386266261 -2.338035195029298
0.518299537244805 -2.3996221502133874
0.49866513537156615 -2.4470068312931894
0.4787279504832826 -2.480322068860881
0.4615863360157386 -2.4958457958042306
0.4444447215481945 -2.4803220688608807
0.4245075366599111 -2.4470068312931894
0.40487313478667214 -2.3996221502133883
0.386553033404851 -2.338035195029298
0.3694365471435219 -2.2625056574262463
0.35344797341026957 -2.1737561111131045
0.33857364836087506 -2.0726439185804697
0.32480562022568216 -1.9600561217765915
0.3121404813221967 -1.8368841903616886
0.30057724567611427 -1.7040159641078367
0.2901157534501295 -1.5623346174009851
0.28075584639603574 -1.4127179643568637
0.272495921495874 -1.256035632810544
0.2653302311133643 -1.093145034686564
0.25924621448525964 -0.924893289248011
0.2542307815553073 -0.7521476103082458
0.2503071964873166 -0.5759019199573554
0.24761791322069973 -0.39750930173073595
0.24642413239413605 -0.218977649123201
0.24647286566614626 -0.043025835587810875
0.7201456953914782 -0.04321991495796174
0.7200053873290984 -0.21911555410729752
0.7186186782292118 -0.3973280267047745
0.7155872003794478 -0.5754971586969049
0.7110509495993521 -0.751599354086002
0.7051251207877243 -0.9242259490084309
0.6978589448313768 -1.0923584356447515
0.6892677002392734 -1.255124780533756
0.679354658364619 -1.4116793732495074
0.6681202569784438 -1.561166733336893
0.6555644501355828 -1.7027182641069845
0.6416871379239465 -1.8354564602079213
0.6264883082399644 -1.9584979891718466
0.6099683131922189 -2.070954572536845
0.5921285592276746 -2.1719336720758116
0.5729691073837062 -2.2605476774192237
0.5524965103155551 -2.335940846016073
0.5306782467445481 -2.3973709219504116
0.5072389498019524 -2.444640085001461
0.48282207653477965 -2.478602764501956
0.4615863360157387 -2.4962069179313024
0.4403505954966976 -2.4786027645019564
0.41593372222952485 -2.4446400850014616
0.39249442528692907 -2.397370921950412
0.37067616171592194 -2.3359408460160735
0.35020356464777097 -2.2605476774192237
0.3310441128038027 -2.1719336720758116
0.3132043588392584 -2.0709545725368446
0.296684363791513 -1.9584979891718461
0.2814855341075308 -1.8354564602079206
0.26760822189589456 -1.7027182641069842
0.2550524150530335 -1.5611667333368928
0.2438180136668584 -1.411679373249507
0.23390497179220393 -1.2551247805337558
0.22531372720010065 -1.0923584356447507
0.21804755124375313 -0.9242259490084314
0.2121217224321252 -0.7515993540860018
0.2075854716520296 -0.5754971586969052
0.20455399380226552 -0.3973280267047742
0.20316728470237894 -0.21911555410729697
0.20302697663999905 -0.0432199149579618
0.7637154429559806 -0.04330503256328856
0.7634325592063322 -0.21918213110476847
0.7618795646966303 -0.3971078424220571
0.7585208583795225 -0.5750491350305778
0.7533729741377997 -0.7509777271268209
0.7465323245067778 -0.9234509793901318
0.7380800090540572 -1.0914339027592979
0.7280608139384329 -1.2540494718533384
0.7164935306873881 -1.4104518192907964
0.7033842335630867 -1.5597861464212461
0.6887340050140761 -1.7011843184145117
0.672542503361416 -1.8337690033725604
0.6548097031535395 -1.9566568113196194
0.6355369657550891 -2.0689593419470893
0.6147301865105963 -2.1697839944319965
0.5924001824879016 -2.258241709476807
0.5685652137731217 -2.3334839049250444
0.543278098465141 -2.3947482351588554
0.516201708520657 -2.4417814437819825
0.4872131426050639 -2.476231042159079
0.4615863360157387 -2.4967079937866137
0.4359595294264134 -2.476231042159079
0.4069709635108201 -2.441781443781983
0.3798945735663363 -2.3947482351588563
0.35460745825835527 -2.3334839049250444
0.33077248954357547 -2.2582417094768075
0.308442485520881 -2.1697839944319965
0.28763570627638807 -2.068959341947089
0.2683629688779378 -1.956656811319619
0.2506301686700613 -1.8337690033725595
0.2344386670174012 -1.7011843184145117
0.2197884384683907 -1.559786146421246
0.20667914134408924 -1.410451819290796
0.19511185809304438 -1.2540494718533381
0.1850926629774202 -1.091433902759297
0.1766403475246995 -0.9234509793901322
0.16979969789367763 -0.7509777271268205
0.16465181365195478 -0.5750491350305781
0.16129310733484697 -0.39710784242205677
0.1597401128251451 -0.21918213110476786
0.15945722907549678 -0.04330503256328863
0.8074114169524486 -0.043319367520512804
0.8070499106417628 -0.2191866899916703
0.8053839450538011 -0.3968526429426314
0.801720000061734 -0.5745579370444015
0.7959538758128879 -0.7502810415558282
0.7881866813648911 -0.922567016797699
0.7785404407907394 -1.090370690938462
0.7670895172070535 -1.2528093788692438
0.7538666123435654 -1.4090351954192142
0.7388821044911764 -1.558192836803553
0.7221374671863446 -1.6994141324025356
0.70363178493679 -1.8318217826715748
0.6833645874217527 -1.95453253645707
0.6613383755490443 -2.0666579178610065
0.6375610980679524 -2.167306643972492
0.6120588609848152 -2.255588257107697
0.5848562805515768 -2.3306589021100836
0.5560739807927437 -2.3917742012274257
0.5256193570711505 -2.4384785020094846
0.4921648265040583 -2.4730412217466498
0.46158633601573873 -2.4974735025265247
0.431007845527419 -2.47304122174665
0.3975533149603269 -2.438478502009485
0.3670986912387335 -2.3917742012274257
0.3383163914799002 -2.330658902110083
0.3111138110466619 -2.2555882571076973
0.28561157396352493 -2.1673066439724926
0.261834296482433 -2.066657917861006
0.2398080846097246 -1.9545325364570698
0.2195408870946872 -1.831821782671574
0.20103520484513263 -1.6994141324025356
0.18429056754030096 -1.5581928368035525
0.16930605968791204 -1.4090351954192137
0.1560831548244238 -1.2528093788692432
0.14463223124073793 -1.0903706909384612
0.1349859906665862 -0.9225670167976993
0.12721879621858947 -0.7502810415558278
0.12145267196974337 -0.5745579370444018
0.11778872697767627 -0.3968526429426311
0.11612276138971467 -0.21918668999166968
0.1157612550790289 -0.04331936752051288
0.8512155988382869 -0.043302353825483024
0.8508688577736226 -0.2191442274125315
0.8491850241168813 -0.3965713629163608
0.8452417025847521 -0.5740229187534556
0.8388395494763999 -0.7495058397593318
0.830126347882402 -0.921571630040475
0.8192746010339613 -1.0891675781643555
0.8063869993306646 -1.2514040496838899
0.7915069747720215 -1.4074293926155583
0.7746470945676677 -1.5563868144064061
0.7558082330377359 -1.6974077230566018
0.7349884482121237 -1.829614813518643
0.7121866258927075 -1.9521249402963028
0.687405192832574 -2.0640503439092464
0.6606559413409788 -2.1644995917112633
0.6319666216925448 -2.2525895451261575
0.6014162409488614 -2.3274582068501206
0.5690338433249839 -2.388443240644015
0.5354062099524332 -2.4348671442713217
0.4982483907629392 -2.468813773251421
0.46158633601573873 -2.498601261383829
0.4249242812685381 -2.4688137732514215
0.38776646207904414 -2.434867144271322
0.35413882870649327 -2.3884432406440146
0.32175643108261565 -2.3274582068501206
0.2912060503389323 -2.2525895451261575
0.26251673069049836 -2.1644995917112633
0.23576747919890312 -2.064050343909246
0.21098604613876956 -1.9521249402963028
0.1881842238193535 -1.8296148135186423
0.1673644389937414 -1.6974077230566014
0.14852557746380968 -1.5563868144064057
0.1316656972594559 -1.4074293926155579
0.11678567270081272 -1.2514040496838892
0.10389807099751586 -1.0891675781643544
0.09304632414907531 -0.9215716300404752
0.08433312255507741 -0.7495058397593316
0.07793096944672538 -0.574022918753456
0.07398764791459607 -0.39657136291636047
0.07230381425785484 -0.21914422741253087
0.07195707319319053 -0.04330235382548309
0.8950770229655993 -0.04329250791799352
0.8948916695196123 -0.21908040867881431
0.8933521869414461 -0.3962788630487452
0.8891451182649456 -0.573440742102341
0.8820756192457558 -0.7486468312800245
0.8723884520648052 -0.9204612552466301
0.8603161847106123 -1.0878229458340853
0.8459861392282227 -1.2498329536388975
0.8294475823453018 -1.4056343270100806
0.8107124091414565 -1.554368122172162
0.789779697369976 -1.6951651499406994
0.7666460483509248 -1.8271480694224516
0.7413093209409393 -1.949434023160648
0.7137713816907311 -2.0611356455380543
0.6840449102054954 -2.1613640136750045
0.6521649926883518 -2.24923454303435
0.618218404419786 -2.32391233263861
0.5823672365871393 -2.3846394185250297
0.5448303971342537 -2.4312514178499782
0.5068401068173652 -2.4633322365256767
0.4615863360157389 -2.5
0.4163325652141121 -2.463332236525677
0.37834227489722333 -2.431251417849979
0.34080543544433767 -2.3846394185250293
0.3049542676116911 -2.3239123326386095
0.27100767934312536 -2.24923454303435
0.23912776182598175 -2.1613640136750045
0.20940129034074603 -2.0611356455380543
0.18186335109053775 -1.949434023160648
0.1565266236805525 -1.8271480694224511
0.1333929746615014 -1.6951651499406992
0.11246026289002083 -1.5543681221721615
0.09372508968617572 -1.40563432701008
0.07718653280325469 -1.249832953638897
0.06285648732086505 -1.0878229458340842
0.05078421996667211 -0.9204612552466304
0.04109705278572155 -0.7486468312800244
0.034027553766531965 -0.5734407421023414
0.029820485090031417 -0.3962788630487449
0.028281002511865147 -0.21908040867881365
0.028095649065878105 -0.04329250791799361
SCALARS Stress float 6
LOOKUP_TABLE default
-510.99602584375646 -16258.209608589625 -5030.761690330015 -377.7382817395109 0.0 0.0
7700.548507946872 4550.547083028408 3675.3286772925826 -586.7532594935419 0.0 0.0
4378.394157156203 -388.3321596866339 1197.0185992408706 -250.94774565787756 0.0 0.0
4480.183615077845 341.0734448823511 1446.377117988059 -37.37535568453006 0.0 0.0
5143.787929982574 124.10344866532364 1580.3674135943688 -86.13947157037778 0.0 0.0
6191.194557460199 175.35692800405187 1909.9654456392752 -88.7634400931662 0.0 0.0
7347.568056191111 191.07289887645888 2261.592286520272 -94.12284470829864 0.0 0.0
8557.907110736134 222.54390026982577 2634.1353033017876 -96.1621897476448 0.0 0.0
9782.369800151893 253.50435016483397 3010.762245095019 -96.88736862221711 0.0 0.0
11009.564466484495 285.48415030138995 3388.514585035765 -97.07610698758107 0.0 0.0
12235.384522517314 317.36910201872274 3765.82608736081 -97.07609513978011 0.0 0.0
13459.69400930778 349.23632159061395 4142.679099269518 -97.09759380398626 0.0 0.0
14684.112309798684 381.2145298674291 4519.598051899834 -97.28670647677708 0.0 0.0
15913.066836559408 413.75247235264004 4898.045792673614 -97.84381385458067 0.0 0.0
17156.28335541238 447.62021957153115 5281.171072495173 -98.9844379504893 0.0 0.0
18430.196684144183 483.6136524662354 5674.143100983127 -100.60200647892978 0.0 0.0
19750.75548093657 521.3061965631623 6081.618503249922 -101.33448866890299 0.0 0.0
21104.62299265896 556.7170064272458 6498.40199972586 -97.1341061325807 0.0 0.0
22391.77871622834 581.029948612829 6891.842599452351 -81.01773537750901 0.0 0.0
23376.145762064334 586.9553732048058 7188.93034058074 -47.394758454360755 0.0 0.0
23753.21494732866 583.6163554986143 7301.04939084818 -3.979039320256561e-11 0.0 0.0
23376.14576206385 586.9553732042667 7188.930340580434 47.39475845455172 0.0 0.0
22391.778716228 581.0299486122271 6891.842599452066 81.01773537757123 0.0 0.0
21104.62299265882 556.7170064268491 6498.4019997257 97.13410613248621 0.0 0.0
19750.755480936667 521.3061965633381 6081.618503250002 101.33448866884328 0.0 0.0
18430.19668414459 483.6136524668551 5674.143100983434 100.60200647871858 0.0 0.0
17156.283355412343 447.6202195712774 5281.171072495086 98.98443795032185 0.0 0.0
15913.066836559414 413.7524723529058 4898.045792673694 97.84381385459116 0.0 0.0
14684.112309798169 381.2145298663469 4519.598051899356 97.28670647674562 0.0 0.0
13459.694009307374 349.2363215895839 4142.679099269087 97.09759380398447 0.0 0.0
12235.384522517466 317.3691020190664 3765.826087360961 97.07609513978267 0.0 0.0
11009.56446648463 285.4841503017514 3388.5145850359136 97.07610698759117 0.0 0.0
9782.369800151831 253.50435016466065 3010.762245094948 96.88736862215336 0.0 0.0
8557.90711073582 222.54390026910306 2634.1353033014766 96.16218974752846 0.0 0.0
7347.5680561913905 191.07289887719907 2261.5922865205766 94.1228447082095 0.0 0.0
6191.194557460028 175.35692800380272 1909.965445639149 88.76344009316962 0.0 0.0
5143.787929982295 124.10344866476245 1580.3674135941174 86.13947157041679 0.0 0.0
4480.1836150779955 341.07344488263334 1446.377117988189 37.37535568450259 0.0 0.0
4378.394157156271 -388.33215968651183 1197.0185992409279 250.9477456577992 0.0 0.0
7700.548507946836 4550.547083028339 3675.3286772925535 586.7532594936043 0.0 0.0
-510.9960258437652 -16258.20960858967 -5030.761690330033 377.73828173953154 0.0 0.0
-2901.500644019623 -16151.728282081676 -5715.968677830391 -258.13559923057915 0.0 0.0
4736.099196485124 3113.40065352181 2354.8499550020806 -467.8271724105492 0.0 0.0
3078.6201357109476 -436.917564021995 792.5107715066857 -175.40289945470917 0.0 0.0
3996.038209858457 154.48118268642273 1245.155817763464 -145.18144925019325 0.0 0.0
4573.128051585965 19.17955311906813 1377.6922814115107 -209.32161621571765 0.0 0.0
5523.0714848402795 15.26589910517789 1661.5012151836377 -237.12142665942596 0.0 0.0
6548.245107589016 5.104765246300475 1966.004961850595 -249.58540293085719 0.0 0.0
7621.010470019144 1.560221498621551 2286.77120745533 -254.68776706893667 0.0 0.0
8708.162177938937 0.1630929557494376 2612.4975812684056 -256.0885538891811 0.0 0.0
9799.032418444627 -0.20819733862832912 2939.6472663318 -256.2319623608284 0.0 0.0
10889.635826067886 -0.21072005886423728 3266.827531802707 -256.0366219315831 0.0 0.0
11979.48608017175 -0.03229944071181734 3593.836134219311 -255.9406231753246 0.0 0.0
13069.924933706801 0.44906628965187956 3921.1121999989364 -256.295553367172 0.0 0.0
14164.661263446624 1.5898912876859992 4249.875346420293 -257.72276987551936 0.0 0.0
15271.246244381025 3.7359270759924517 4582.494651437106 -261.1969671122171 0.0 0.0
16400.96497097709 6.341702009769449 4922.192001896056 -267.3511809170451 0.0 0.0
17560.943602929237 6.0660643342077645 5270.102900179034 -273.92891695830014 0.0 0.0
18729.191002849206 -5.2211485368208095 5617.190956293715 -270.816349134695 0.0 0.0
19811.483744450623 -37.87349634002654 5932.083074433178 -236.0724934321373 0.0 0.0
20615.159744199904 -88.76120917931323 6157.919560506176 -144.66767524389516 0.0 0.0
20915.882679838272 -119.45703266172565 6238.927694152965 -9.242739906767383e-11 0.0 0.0
20615.15974419919 -88.76120918073222 6157.919560505537 144.6676752438658 0.0 0.0
19811.483744450496 -37.873496340126096 5932.083074433111 236.07249343214676 0.0 0.0
18729.19100284903 -5.221148537217019 5617.190956293542 270.81634913477905 0.0 0.0
17560.943602929427 6.066064334555847 5270.102900179194 273.92891695829235 0.0 0.0
16400.964970977344 6.341702010244326 4922.192001896276 267.3511809170103 0.0 0.0
15271.246244381337 3.735927076601584 4582.494651437381 261.19696711223423 0.0 0.0
14164.66126344659 1.5898912877032316 4249.875346420289 257.72276987558837 0.0 0.0
13069.924933706407 0.44906628886595 3921.112199998583 256.295553367054 0.0 0.0
11979.486080171755 -0.032299440780896305 3593.836134219293 255.94062317539456 0.0 0.0
10889.635826067923 -0.21072005877871192 3266.8275318027445 256.0366219316039 0.0 0.0
9799.032418444682 -0.2081973384358733 2939.6472663318737 256.2319623607959 0.0 0.0
8708.162177938822 0.16309295549003622 2612.4975812682937 256.0885538892097 0.0 0.0
7621.01047001882 1.5602214979407378 2286.771207455028 254.68776706889753 0.0 0.0
6548.2451075892395 5.104765246841424 1966.004961850824 249.5854029308381 0.0 0.0
5523.071484840229 15.265899105029131 1661.5012151835772 237.12142665936796 0.0 0.0
4573.128051585862 19.179553118856134 1377.6922814114162 209.32161621576168 0.0 0.0
3996.0382098585233 154.48118268660997 1245.1558177635402 145.18144925021122 0.0 0.0
3078.620135710983 -436.9175640219477 792.5107715067106 175.40289945472253 0.0 0.0
4736.099196485116 3113.400653521701 2354.8499550020456 467.82717241058344 0.0 0.0
-2901.5006440196125 -16151.728282081664 -5715.968677830384 258.1355992306111 0.0 0.0
-3174.828283331925 -14136.919413609481 -5193.524309082422 -1188.8308027702037 0.0 0.0
2995.206789372408 1876.9568606275104 1461.6490949999754 -845.9810024238519 0.0 0.0
2283.2059769616576 78.28509929204304 708.4473228761101 -118.94032988161374 0.0 0.0
3334.22859156472 25.302536638678504 1007.8593384610193 -334.9106266563191 0.0 0.0
4069.0061430817323 59.66592808168704 1238.6016213490263 -416.78869561300445 0.0 0.0
4902.449782886987 14.84562846673671 1475.1886234061174 -477.67866702537344 0.0 0.0
5825.883454008926 8.108649949696357 1750.1976311875865 -501.47749553096344 0.0 0.0
6776.989369961064 2.0113340988394426 2033.7002112179714 -511.0952328261029 0.0 0.0
7742.309835413616 0.23664102875710347 2322.763942932712 -513.6791683348973 0.0 0.0
8711.026162359785 -0.3011811300608951 2613.217494368917 -513.8286267204581 0.0 0.0
9680.12138297025 -0.2994366394351555 2903.9465838992437 -513.3869265176919 0.0 0.0
10648.940590301674 -0.053674489025967276 3194.666074743795 -513.1486642832081 0.0 0.0
11618.4859229627 0.6104168766638196 3485.7289019518093 -513.7829508057591 0.0 0.0
12591.560425529826 2.2084976370224485 3778.1306769500543 -516.5224632607045 0.0 0.0
13573.61470378107 5.2906084831939 4073.6715936792784 -523.4076361677004 0.0 0.0
14572.095191732675 9.204990024715745 4374.390054527217 -536.0377876401976 0.0 0.0
15589.411964449522 9.228804194215835 4679.59223059312 -550.5798234006066 0.0 0.0
16602.375265560575 -6.822334394572259 4978.665879349803 -547.4285751350551 0.0 0.0
17527.92629346687 -55.91744066561946 5241.602655840374 -481.5644435494229 0.0 0.0
18204.552265685048 -136.57225753914634 5420.3940024437725 -298.07142935840386 0.0 0.0
18453.036371179478 -188.2603260732726 5479.432813531863 -1.41824330057716e-11 0.0 0.0
18204.552265684266 -136.5722575408978 5420.39400244301 298.07142935838095 0.0 0.0
17527.926293466633 -55.91744066608784 5241.602655840162 481.56444354945154 0.0 0.0
16602.375265560495 -6.822334394642866 4978.665879349757 547.4285751350224 0.0 0.0
15589.41196445015 9.228804195596275 4679.592230593722 550.5798234006398 0.0 0.0
14572.09519173303 9.204990025391815 4374.390054527528 536.0377876402094 0.0 0.0
13573.61470378163 5.290608484497021 4073.671593679838 523.4076361677918 0.0 0.0
12591.560425529342 2.20849763601624 3778.130676949607 516.5224632606751 0.0 0.0
11618.485922962558 0.6104168763738045 3485.728901951679 513.7829508056559 0.0 0.0
10648.940590301994 -0.053674488349095384 3194.6660747440937 513.1486642832626 0.0 0.0
9680.121382970126 -0.2994366395249983 2903.946583899181 513.3869265177797 0.0 0.0
8711.02616235968 -0.3011811302301197 2613.2174943688356 513.8286267204124 0.0 0.0
7742.309835413603 0.23664102867652304 2322.763942932684 513.6791683349459 0.0 0.0
6776.989369960857 2.0113340983442853 2033.7002112177606 511.09523282621365 0.0 0.0
5825.883454008925 8.108649949695852 1750.1976311875862 501.4774955309879 0.0 0.0
4902.449782887027 14.845628466824587 1475.188623406155 477.67866702542926 0.0 0.0
4069.00614308175 59.665928081644225 1238.6016213490182 416.7886956129653 0.0 0.0
3334.228591564753 25.302536638745195 1007.8593384610493 334.9106266564144 0.0 0.0
2283.205976961661 78.28509929196899 708.4473228760892 118.94032988167106 0.0 0.0
2995.2067893724707 1876.9568606275145 1461.649094999996 845.9810024238682 0.0 0.0
-3174.82828333188 -14136.919413609417 -5193.524309082389 1188.8308027701512 0.0 0.0
-2917.5554037048455 -12152.70833418658 -4521.079121367427 -1484.1157673796947 0.0 0.0
1869.8341725091298 763.8683933872398 790.1107697689109 -1158.5462664784304 0.0 0.0
1669.063238807741 361.5252518704114 609.1765472034456 -352.5117324859078 0.0 0.0
2697.7081840509236 51.81302475629268 824.856362642165 -484.1460609821764 0.0 0.0
3518.026312057634 64.20225483942968 1074.668570069119 -620.0120595654397 0.0 0.0
4282.309603110204 28.344711447512672 1293.1962943673147 -689.571142892982 0.0 0.0
5096.936083756173 10.099474555261997 1532.1106674934297 -724.2382833007131 0.0 0.0
5932.023749948146 3.2724203208516327 1780.5888510806997 -736.953884145322 0.0 0.0
6775.921271808111 0.23868901661535347 2032.847988247418 -740.7137551407624 0.0 0.0
7623.0326169147675 -0.44625511779116334 2286.7759085390926 -740.9866960456583 0.0 0.0
8470.650435235793 -0.45334112654477643 2541.059128232775 -740.4370521074792 0.0 0.0
9318.320774056443 -0.09340894486866169 2795.468209533472 -740.147488299584 0.0 0.0
10166.62325630021 0.869880824682669 3050.247941137467 -741.0415368463927 0.0 0.0
11017.343387512543 3.221486468216714 3306.1694621942274 -744.7748518974579 0.0 0.0
11873.86826382924 7.857433362344224 3564.517709157475 -754.0639687290102 0.0 0.0
12740.617100476089 13.97995885851293 3826.3791178003817 -771.0022167317325 0.0 0.0
13617.846254748036 14.61155967196949 4089.737344326002 -790.217739184372 0.0 0.0
14485.69837117432 -9.250953342049336 4342.934225349682 -784.3498443500122 0.0 0.0
15275.076123066588 -85.80721907534209 4556.780671197374 -689.796356147941 0.0 0.0
15848.303413117519 -215.7796048809697 4689.757142470965 -427.4426565909439 0.0 0.0
16054.714679348144 -301.1890665000289 4726.057683854436 1.0317080523236655e-11 0.0 0.0
15848.303413117193 -215.77960488176996 4689.7571424706275 427.4426565909835 0.0 0.0
15275.076123066508 -85.80721907566651 4556.780671197253 689.7963561480576 0.0 0.0
14485.698371174261 -9.250953342105035 4342.934225349648 784.3498443499973 0.0 0.0
13617.846254748249 14.611559672714137 4089.737344326288 790.2177391844352 0.0 0.0
12740.61710047581 13.979958857859366 3826.379117800101 771.0022167317371 0.0 0.0
11873.868263829683 7.857433363135158 3564.5177091578457 754.063968729083 0.0 0.0
11017.34338751238 3.2214864678514488 3306.1694621940705 744.7748518973317 0.0 0.0
10166.623256300158 0.8698808245727179 3050.247941137419 741.0415368465003 0.0 0.0
9318.320774056281 -0.09340894529030663 2795.468209533296 740.1474882995979 0.0 0.0
8470.650435235792 -0.4533411264762819 2541.0591282327946 740.4370521075068 0.0 0.0
7623.032616914755 -0.4462551178822167 2286.775908539062 740.9866960455847 0.0 0.0
6775.921271808267 0.23868901692669908 2032.847988247558 740.7137551408316 0.0 0.0
5932.023749948 3.272420320674314 1780.5888510806035 736.9538841453706 0.0 0.0
5096.9360837559025 10.099474554736041 1532.1106674931912 724.2382833007495 0.0 0.0
4282.309603110304 28.34471144764452 1293.1962943673852 689.5711428931163 0.0 0.0
3518.026312057688 64.2022548394304 1074.6685700691353 620.0120595653452 0.0 0.0
2697.7081840509095 51.81302475625657 824.8563626421497 484.1460609822903 0.0 0.0
1669.063238807616 361.5252518702086 609.1765472033474 352.51173248592215 0.0 0.0
1869.8341725091066 763.8683933873399 790.110769768934 1158.546266478495 0.0 0.0
-2917.5554037049783 -12152.708334186633 -4521.079121367483 1484.1157673796451 0.0 0.0
-2500.4044276796985 -10345.640559641837 -3853.81349619646 -1517.9868861654418 0.0 0.0
1136.1575604649058 -94.08442519686075 312.6219405804135 -1369.959531855874 0.0 0.0
1190.3062217454344 451.0665562798742 492.4118334075925 -667.9511813147067 0.0 0.0
2118.123874005991 126.8346874722161 673.4875684434622 -660.6552908269716 0.0 0.0
2948.99290276784 75.83439489371477 907.4481892984666 -801.3476607754105 0.0 0.0
3656.0141030680916 40.16800983492289 1108.8546338709043 -878.8033876786955 0.0 0.0
4365.651554166341 14.626992741814128 1314.083564072447 -917.4818689532849 0.0 0.0
5085.406909427284 4.364140752022956 1526.9313150537923 -932.7967262002675 0.0 0.0
5809.201943464751 0.40471317191452627 1742.8819969910005 -937.2671284802436 0.0 0.0
6534.922627240871 -0.6490190395355206 1960.282082460401 -937.743532933278 0.0 0.0
7261.174332736551 -0.6339115634960244 2178.1621263519164 -937.1773826837947 0.0 0.0
7987.600625714171 -0.13663732515021998 2396.2391965167058 -936.8976063492338 0.0 0.0
8714.413387449436 1.209394388247162 2614.6868345513044 -937.9772937026243 0.0 0.0
9442.333504218006 4.505767677804773 2834.0517815687435 -942.2985175919725 0.0 0.0
10172.810358645527 11.075981147551897 3055.165901937924 -952.9157142975165 0.0 0.0
10907.957435728775 19.94802520527198 3278.371638280214 -972.1668717489998 0.0 0.0
11647.88657729101 21.28651490429551 3500.7519276585926 -993.7030597980167 0.0 0.0
12379.407747868889 -12.81088932579226 3709.979057562929 -984.7793737282113 0.0 0.0
13049.091798147101 -125.5489334005304 3877.0628594239715 -867.1835466067528 0.0 0.0
13536.97468408166 -321.2112653660428 3964.729025614686 -539.479755081052 0.0 0.0
13708.24146413193 -452.5862829403161 3976.6965543574843 8.327560863108374e-12 0.0 0.0
13536.974684081644 -321.2112653661158 3964.72902561466 539.4797550809699 0.0 0.0
13049.091798147363 -125.5489334000025 3877.062859424208 867.1835466068081 0.0 0.0
12379.407747868774 -12.810889325897293 3709.9790575628645 984.7793737281135 0.0 0.0
11647.886577291238 21.286514904922477 3500.751927658848 993.7030597979483 0.0 0.0
10907.957435728245 19.948025203866806 3278.3716382796338 972.166871749042 0.0 0.0
10172.810358645957 11.0759811485852 3055.1659019383624 952.9157142976857 0.0 0.0
9442.333504217979 4.505767677928283 2834.0517815687735 942.2985175918412 0.0 0.0
8714.413387449318 1.2093943878557596 2614.686834551152 937.9772937025045 0.0 0.0
7987.600625714053 -0.136637325551213 2396.2391965165502 936.8976063491489 0.0 0.0
7261.174332736517 -0.633911563455662 2178.1621263519187 937.177382683901 0.0 0.0
6534.9226272410815 -0.6490190390407449 1960.282082460612 937.7435329331727 0.0 0.0
5809.201943464838 0.40471317207207846 1742.8819969910724 937.267128480311 0.0 0.0
5085.406909427708 4.364140753038008 1526.931315054224 932.796726200284 0.0 0.0
4365.651554166183 14.626992741359821 1314.0835640722628 917.4818689533407 0.0 0.0
3656.0141030681875 40.16800983517984 1108.85463387101 878.8033876787475 0.0 0.0
2948.9929027678095 75.83439489367471 907.4481892984454 801.347660775292 0.0 0.0
2118.123874006034 126.83468747240104 673.4875684435304 660.6552908269572 0.0 0.0
1190.3062217453892 451.0665562798162 492.41183340756146 667.9511813146947 0.0 0.0
1136.1575604649488 -94.08442519682376 312.62194058043764 1369.9595318559932 0.0 0.0
-2500.404427679746 -10345.640559641888 -3853.8134961964915 1517.9868861653833 0.0 0.0
-2071.336778946784 -8753.473900546558 -3247.443203848003 -1448.215322547565 0.0 0.0
652.7668326111178 -695.6060393313015 -12.851762016055062 -1494.9052808491092 0.0 0.0
810.9448779358897 419.01968111235675 368.989367714474 -973.1330312301346 0.0 0.0
1600.404786367679 197.24400459639511 539.2946372892224 -857.9729114945213 0.0 0.0
2381.9074388708887 98.16635178375208 744.0221371963924 -965.9834708936314 0.0 0.0
3024.9647782222833 50.83554460346101 922.7400968477234 -1043.5479231743848 0.0 0.0
3632.9055745559403 19.902583253430002 1095.842447342811 -1082.466147736817 0.0 0.0
4237.708445376914 5.723715460720375 1273.0296482512904 -1098.6244950487965 0.0 0.0
4842.057340072184 0.5693584308075295 1452.7880095508976 -1103.4993653206075 0.0 0.0
5446.683802118354 -0.8348758852659905 1633.754677869927 -1104.1164826594356 0.0 0.0
6051.634328645489 -0.8280768799573686 1815.2418755296599 -1103.6080480985772 0.0 0.0
6656.774654532957 -0.17137652223235378 1996.9809834032178 -1103.3686063350617 0.0 0.0
7261.952081864296 1.5952592899321054 2179.0642023462688 -1104.5260613290716 0.0 0.0
7866.870008816355 5.916295181819036 2361.8358911994515 -1108.990326840448 0.0 0.0
8471.205226405407 14.572337123049106 2545.7332690585367 -1119.8641991827249 0.0 0.0
9075.324896204504 26.453609744045554 2730.533551784564 -1139.634905794111 0.0 0.0
9680.600247504797 28.638750347193362 2912.771699355597 -1161.894945050937 0.0 0.0
10282.887894174648 -17.02210882805688 3079.7597356039773 -1151.334719259162 0.0 0.0
10845.817701365195 -172.21292118183288 3202.081434055009 -1018.682864551098 0.0 0.0
11262.233331754305 -448.3803461960522 3244.155895667475 -639.1915815951087 0.0 0.0
11402.624784808506 -639.4920804951122 3228.939811294019 4.715161594504025e-11 0.0 0.0
11262.233331754407 -448.3803461957581 3244.1558956675954 639.1915815950307 0.0 0.0
10845.817701365268 -172.2129211817902 3202.081434055043 1018.6828645512098 0.0 0.0
10282.887894174584 -17.022108828141725 3079.7597356039337 1151.3347192591837 0.0 0.0
9680.600247505106 28.63875034802274 2912.771699355939 1161.8949450508603 0.0 0.0
9075.32489620455 26.453609744136884 2730.533551784607 1139.6349057939913 0.0 0.0
8471.205226405958 14.572337124320999 2545.733269059084 1119.8641991828526 0.0 0.0
7866.8700088160285 5.916295181234304 2361.8358911991786 1108.9903268403739 0.0 0.0
7261.952081864322 1.5952592900970117 2179.0642023463265 1104.5260613290786 0.0 0.0
6656.774654533079 -0.1713765221034862 1996.980983403293 1103.368606335093 0.0 0.0
6051.634328645298 -0.8280768804509435 1815.241875529454 1103.608048098614 0.0 0.0
5446.683802118464 -0.8348758850172509 1633.7546778700334 1104.1164826593943 0.0 0.0
4842.057340072317 0.5693584309637387 1452.788009550984 1103.4993653206627 0.0 0.0
4237.7084453772795 5.723715461526204 1273.0296482516424 1098.624495048805 0.0 0.0
3632.9055745557653 19.902583253012292 1095.8424473426337 1082.4661477367583 0.0 0.0
3024.9647782223883 50.8355446037574 922.7400968478436 1043.5479231743661 0.0 0.0
2381.9074388707295 98.16635178339412 744.0221371962368 965.9834708936191 0.0 0.0
1600.4047863678277 197.2440045966901 539.2946372893555 857.9729114944802 0.0 0.0
810.9448779359061 419.0196811123817 368.9893677144863 973.1330312300875 0.0 0.0
652.7668326110844 -695.6060393313584 -12.851762016082276 1494.9052808492083 0.0 0.0
-2071.336778946864 -8753.473900546633 -3247.443203848048 1448.2153225474917 0.0 0.0
-1685.1052211560232 -7368.02086005577 -2715.9378243635374 -1342.7091794212013 0.0 0.0
329.2209992516198 -1080.6157284679198 -225.41841876488996 -1555.2245282365388 0.0 0.0
503.4129425372552 325.1532042736209 248.5698440432628 -1230.8069898925946 0.0 0.0
1138.841439138452 243.60084641865808 414.73268566713307 -1055.6044513316394 0.0 0.0
1828.2870059336744 124.47524201332179 585.8286743840988 -1115.8721784548784 0.0 0.0
2393.0336814773486 61.511997415193775 736.3637036677628 -1183.3026256090086 0.0 0.0
2899.3201491182726 24.907471182384437 877.2682860901973 -1219.3389427164104 0.0 0.0
3389.4135111395553 7.253632024508162 1019.0001429492193 -1234.6464953156776 0.0 0.0
3874.5270017092917 0.7445366151771626 1162.5814614973406 -1239.4590144049744 0.0 0.0
4358.281408591391 -1.000976573066854 1307.1841296054972 -1240.145174012134 0.0 0.0
4841.9980783913 -1.0098620766237438 1452.296464894402 -1239.727929905844 0.0 0.0
5325.843633961488 -0.1962509998351223 1597.6942148884955 -1239.542610239429 0.0 0.0
5809.343972142285 1.9872725644279328 1743.3993734120136 -1240.6540499970492 0.0 0.0
6291.283419614112 7.302787668952957 1889.575862184919 -1244.822281167472 0.0 0.0
6769.756954224316 17.983278315586134 2036.3220697619709 -1254.9460833935816 0.0 0.0
7243.738696741263 32.90357273113259 2182.992680841719 -1273.6422324965474 0.0 0.0
7716.631982271663 36.27744866186947 2325.87282928006 -1295.5500164202256 0.0 0.0
8194.946490902144 -20.849333812224813 2452.229147126976 -1285.9526102597076 0.0 0.0
8660.951179941643 -222.18893446120092 2531.6286736441325 -1147.9766606577882 0.0 0.0
9016.603981235543 -593.1887484122442 2527.0245698469894 -730.5498808572935 0.0 0.0
9127.919699662212 -861.1917219421181 2480.0183933160274 6.582467904081568e-11 0.0 0.0
9016.60398123557 -593.1887484121347 2527.0245698470303 730.5498808573319 0.0 0.0
8660.951179941369 -222.18893446186917 2531.6286736438506 1147.9766606577107 0.0 0.0
8194.946490902543 -20.849333811287536 2452.229147127377 1285.9526102597674 0.0 0.0
7716.631982271098 36.27744866066172 2325.872829279528 1295.5500164200791 0.0 0.0
7243.738696741516 32.90357273177928 2182.992680841989 1273.6422324965247 0.0 0.0
6769.75695422459 17.983278316140034 2036.3220697622191 1254.9460833935277 0.0 0.0
6291.283419614098 7.3027876690045375 1889.5758621849307 1244.8222811675166 0.0 0.0
5809.343972142422 1.987272564715532 1743.3993734121411 1240.654049997108 0.0 0.0
5325.84363396153 -0.19625099983825578 1597.6942148885078 1239.542610239534 0.0 0.0
4841.998078391094 -1.009862077104117 1452.2964648941968 1239.7279299058807 0.0 0.0
4358.281408591186 -1.00097657354139 1307.1841296052933 1240.1451740121572 0.0 0.0
3874.5270017093617 0.744536615330464 1162.5814614974079 1239.4590144049985 0.0 0.0
3389.413511139308 7.253632023993159 1019.0001429489907 1234.6464953156117 0.0 0.0
2899.3201491182185 24.907471182273923 877.2682860901479 1219.3389427163652 0.0 0.0
2393.0336814772845 61.5119974149631 736.3637036676744 1183.3026256089795 0.0 0.0
1828.2870059335664 124.47524201308016 585.828674383994 1115.8721784549307 0.0 0.0
1138.841439138386 243.60084641861098 414.7326856670991 1055.6044513316476 0.0 0.0
503.41294253725533 325.1532042736463 248.56984404327054 1230.806989892654 0.0 0.0
329.22099925164736 -1080.6157284678736 -225.41841876486785 1555.2245282365698 0.0 0.0
-1685.105221156041 -7368.020860055809 -2715.9378243635556 1342.7091794212324 0.0 0.0
-1357.1323431121543 -6164.835159257561 -2256.5902507109145 -1230.1169067525716 0.0 0.0
107.27781067947117 -1296.5604533714934 -356.78479280760683 -1568.9613493133945 0.0 0.0
247.04640395470068 210.0118056168471 137.11746287146434 -1429.257458674633 0.0 0.0
724.2504657676479 263.4378535970448 296.3064958094078 -1235.5611904174227 0.0 0.0
1293.4763339966967 148.0274580280067 432.45113760741106 -1248.580510691261 0.0 0.0
1764.0307761882418 71.85017018391154 550.764283911646 -1297.9128330721 0.0 0.0
2165.780808529246 29.279413757919837 658.5180666861497 -1327.8989859732517 0.0 0.0
2540.869928502715 8.70340207582763 764.871999173563 -1340.9578662497797 0.0 0.0
2906.7051001924656 0.9361549779469449 872.292376551124 -1345.1910450605214 0.0 0.0
3269.692467905533 -1.1414367133165513 980.5653093576647 -1345.8554607699143 0.0 0.0
3632.2420486814603 -1.1640477691250304 1089.3234002737013 -1345.54345628983 0.0 0.0
3994.815666515401 -0.21161169894531895 1198.3812164449364 -1345.4117699719523 0.0 0.0
4356.689045077481 2.3431837803099675 1307.7096686573373 -1346.3567816431314 0.0 0.0
4715.8747041607385 8.52573342402404 1417.3201312754288 -1349.834171013777 0.0 0.0
5069.093995222604 20.977444858783286 1527.021432024416 -1358.317828521293 0.0 0.0
5414.068419074555 38.75877892692393 1635.8481594004436 -1374.5287722584146 0.0 0.0
5756.359659995756 43.927257301771085 1740.086075189258 -1395.2660145115801 0.0 0.0
6114.0430634707645 -22.932430376054462 1827.3331899284126 -1389.8314256913939 0.0 0.0
6490.133536137711 -271.27890325892776 1865.6563898636352 -1257.609858719752 0.0 0.0
6793.284443189437 -751.5713282683294 1812.513934476333 -816.8922536866304 0.0 0.0
6874.677277819748 -1119.1393025623495 1726.6613925772199 -2.3391066861222498e-11 0.0 0.0
6793.284443189324 -751.5713282685908 1812.5139344762197 816.8922536866764 0.0 0.0
6490.1335361375395 -271.27890325933885 1865.6563898634606 1257.609858719693 0.0 0.0
6114.043063471308 -22.93243037488292 1827.3331899289278 1389.83142569146 0.0 0.0
5756.359659995655 43.927257301495686 1740.0860751891453 1395.266014511434 0.0 0.0
5414.068419074901 38.758778927854735 1635.848159400827 1374.5287722586315 0.0 0.0
5069.093995222698 20.977444859054177 1527.0214320245257 1358.317828521255 0.0 0.0
4715.87470416036 8.52573342317681 1417.3201312750607 1349.8341710137083 0.0 0.0
4356.689045077239 2.3431837797595776 1307.7096686570994 1346.3567816431635 0.0 0.0
3994.8156665157526 -0.2116116981918026 1198.3812164452677 1345.4117699719616 0.0 0.0
3632.242048681255 -1.164047769662286 1089.323400273478 1345.5434562898686 0.0 0.0
3269.6924679054146 -1.1414367135462982 980.5653093575609 1345.8554607699052 0.0 0.0
2906.705100192453 0.9361549780168374 872.292376551141 1345.191045060617 0.0 0.0
2540.8699285026696 8.703402075672045 764.8719991735024 1340.9578662497438 0.0 0.0
2165.7808085293577 29.279413758122786 658.5180666862441 1327.8989859732592 0.0 0.0
1764.0307761880697 71.85017018350322 550.7642839114719 1297.9128330720698 0.0 0.0
1293.476333996768 148.02745802813533 432.45113760747097 1248.5805106912371 0.0 0.0
724.250465767611 263.43785359692794 296.30649580936176 1235.5611904174061 0.0 0.0
247.04640395468743 210.0118056168601 137.11746287146428 1429.2574586746737 0.0 0.0
107.2778106794596 -1296.5604533715396 -356.78479280762394 1568.9613493133102 0.0 0.0
-1357.1323431120575 -6164.835159257524 -2256.5902507108735 1230.116906752572 0.0 0.0
-1086.835572292944 -5116.748954170181 -1861.0753579389373 -1121.367105799683 0.0 0.0
-50.66291615585355 -1386.508198943729 -431.15133452987465 -1548.8383835453935 0.0 0.0
26.60615848668647 98.11969412373696 37.41775578312702 -1568.0745065938252 0.0 0.0
347.1387045656487 261.38538133753593 182.5572257709554 -1385.532225715202 0.0 0.0
778.8613388507039 164.6746372738411 283.0607928373635 -1359.6573215847488 0.0 0.0
1140.769569529014 80.67559287813157 366.43354872214366 -1386.7170621675127 0.0 0.0
1433.2804971160015 32.80182401910394 439.82469634053166 -1407.8584156915558 0.0 0.0
1692.3666884163993 9.878245749033976 510.67348024963 -1417.522079976789 0.0 0.0
1938.6823526985906 1.1157854548629835 581.9394414460362 -1420.7251441252945 0.0 0.0
2180.910541836775 -1.246474861401417 653.8992200926122 -1421.267132298647 0.0 0.0
2422.3489605000623 -1.2814291086832696 726.3202594174136 -1421.0640406778386 0.0 0.0
2663.7015729349587 -0.21993296656924244 799.0444919905166 -1420.9785928073577 0.0 0.0
2904.0729545514396 2.624855322107564 872.0093429620641 -1421.6548031933796 0.0 0.0
3140.8960918028974 9.4691250154954 945.1095650455178 -1424.122930586465 0.0 0.0
3369.7553264734975 23.276029330127553 1017.9094067410875 -1430.2404133041534 0.0 0.0
3587.0768280205584 43.52643874271383 1089.180980028982 -1442.730093818958 0.0 0.0
3800.049791406245 51.307550742619796 1155.4072026446595 -1461.4724967139177 0.0 0.0
4038.487110162892 -21.820497690458332 1204.9999837417301 -1463.4010088263835 0.0 0.0
4328.99986146589 -314.70776831741335 1204.2876279445434 -1349.0382029047994 0.0 0.0
4586.019753506801 -919.0563553571326 1100.089019444901 -901.1832520756004 0.0 0.0
4633.402920670552 -1417.1742238199643 964.8686090551762 2.8990143619012088e-11 0.0 0.0
4586.019753506721 -919.0563553572337 1100.089019444846 901.1832520756845 0.0 0.0
4328.999861466267 -314.707768316531 1204.287627944921 1349.038202904772 0.0 0.0
4038.4871101625113 -21.820497691413117 1204.9999837413295 1463.4010088265125 0.0 0.0
3800.04979140658 51.30755074345245 1155.4072026450096 1461.4724967138172 0.0 0.0
3587.0768280208026 43.52643874338235 1089.1809800292554 1442.7300938188505 0.0 0.0
3369.755326473313 23.276029329733362 1017.9094067409138 1430.2404133041834 0.0 0.0
3140.896091802303 9.469125014084476 945.1095650449162 1424.12293058632 0.0 0.0
2904.072954551553 2.6248553223473294 872.0093429621699 1421.6548031934437 0.0 0.0
2663.7015729350783 -0.21993296627300296 799.0444919906416 1420.9785928072827 0.0 0.0
2422.3489604999727 -1.2814291088033443 726.3202594173509 1421.064040677809 0.0 0.0
2180.9105418366594 -1.2464748616216994 653.8992200925113 1421.2671322986157 0.0 0.0
1938.6823526986323 1.1157854549833566 581.9394414460849 1420.7251441253827 0.0 0.0
1692.3666884162785 9.878245748788808 510.6734802495202 1417.5220799768244 0.0 0.0
1433.2804971159703 32.80182401904554 439.82469634050483 1407.8584156915533 0.0 0.0
1140.7695695290304 80.67559287810084 366.43354872213945 1386.7170621674413 0.0 0.0
778.8613388508351 164.67463727400389 283.0607928374518 1359.657321584736 0.0 0.0
347.1387045655847 261.38538133735733 182.55722577088264 1385.5322257151463 0.0 0.0
26.606158486634566 98.11969412375265 37.41775578311615 1568.0745065937733 0.0 0.0
-50.66291615591312 -1386.5081989438045 -431.1513345299155 1548.8383835453174 0.0 0.0
-1086.8355722929061 -5116.748954170156 -1861.075357938919 1121.3671057996794 0.0 0.0
-867.9164093192458 -4199.566178245066 -1520.2447762692939 -1019.3337021964612 0.0 0.0
-168.82923182264648 -1385.8641560410324 -466.4080163591035 -1503.141877018948 0.0 0.0
-168.98922342576685 2.695171977351377 -49.88821543452461 -1651.3189925595452 0.0 0.0
-0.9994194490576405 244.07299381758122 72.92207231055707 -1498.2396741115313 0.0 0.0
283.5266182455882 172.76104438778836 136.886298790013 -1444.417232905343 0.0 0.0
524.8912544248429 86.77392200166376 183.499552927952 -1448.460444539733 0.0 0.0
702.6893689813584 35.2312121973146 221.3761743536019 -1458.8295796417315 0.0 0.0
844.156168174627 10.659518206594768 256.44470591436664 -1464.2236730109912 0.0 0.0
970.5291448395124 1.2470594164837756 291.53286127679894 -1466.0641320428508 0.0 0.0
1091.9376920412042 -1.3102123712424856 327.1882439009884 -1466.3972917475064 0.0 0.0
1212.307825423814 -1.3553063671922345 363.2857557169866 -1466.30086942133 0.0 0.0
1332.511059585637 -0.22461355405001626 399.6859338094761 -1466.2540211930004 0.0 0.0
1451.559407342056 2.8021371727538664 436.3084633544429 -1466.5883599435972 0.0 0.0
1566.5343616361808 10.049916805000993 472.97528353235464 -1467.828641644961 0.0 0.0
1672.1736930068514 24.67396326644717 509.05429688198956 -1471.062361856991 0.0 0.0
1763.4559976279875 46.76340009135577 543.0658193158031 -1478.787739457538 0.0 0.0
1848.0117628672542 58.01176127766617 571.8070572434763 -1494.4741172176352 0.0 0.0
1966.6318329286169 -16.23329050163605 585.1195627280943 -1506.3139056571472 0.0 0.0
2173.2101291639183 -347.1133547376328 547.8290323278857 -1422.569208906091 0.0 0.0
2389.038006958297 -1090.1800664652317 389.6573821479194 -986.1777161192327 0.0 0.0
2393.9474021532656 -1762.0293714312838 189.57540921659455 4.558842192636803e-11 0.0 0.0
2389.0380069581115 -1090.180066465516 389.6573821477788 986.1777161191994 0.0 0.0
2173.2101291643003 -347.11335473676183 547.8290323282616 1422.5692089061563 0.0 0.0
1966.6318329281953 -16.233290502714475 585.1195627276442 1506.3139056572818 0.0 0.0
1848.0117628673283 58.01176127786343 571.8070572435578 1494.4741172176605 0.0 0.0
1763.4559976280148 46.76340009139852 543.0658193158242 1478.7877394574837 0.0 0.0
1672.173693006716 24.67396326620232 509.0542968818754 1471.0623618569914 0.0 0.0
1566.5343616363252 10.04991680542226 472.9752835325243 1467.8286416449891 0.0 0.0
1451.559407342226 2.8021371731553764 436.3084633546145 1466.5883599436218 0.0 0.0
1332.5110595854376 -0.2246135544094301 399.6859338093083 1466.254021192907 0.0 0.0
1212.3078254238749 -1.3553063669215284 363.285755717086 1466.3008694212856 0.0 0.0
1091.9376920410407 -1.310212371674492 327.1882439008098 1466.3972917475164 0.0 0.0
970.5291448394439 1.24705941633065 291.5328612767324 1466.0641320428701 0.0 0.0
844.1561681744349 10.65951820608807 256.44470591415694 1464.223673011094 0.0 0.0
702.6893689815449 35.23121219765955 221.37617435376137 1458.8295796417492 0.0 0.0
524.8912544247784 86.77392200153488 183.49955292789403 1448.4604445397254 0.0 0.0
283.5266182455931 172.7610443877816 136.88629879001243 1444.4172329053874 0.0 0.0
-0.9994194491405111 244.07299381737457 72.92207231047023 1498.239674111527 0.0 0.0
-168.98922342571083 2.69517197737661 -49.88821543450029 1651.3189925595202 0.0 0.0
-168.8292318225727 -1385.864156040941 -466.40801635905416 1503.1418770189473 0.0 0.0
-867.9164093192609 -4199.566178245088 -1520.244776269305 1019.3337021965176 0.0 0.0
-692.8500179470178 -3394.034965061798 -1226.0654949026448 -923.3392853843573 0.0 0.0
-262.7038067679007 -1322.3691399231602 -475.52188400731825 -1436.9555675034435 0.0 0.0
-347.66486331185394 -70.38870005632307 -125.41606901045311 -1684.33066197736 0.0 0.0
-327.25344256096804 217.77594847307375 -32.84324822636832 -1570.0164000034536 0.0 0.0
-194.62860067769086 172.34998002294356 -6.68358619642418 -1498.8068138035032 0.0 0.0
-82.99896561588102 89.30799346339334 1.8927083542537027 -1481.5276742863498 0.0 0.0
-25.398091904775058 36.32646869542281 3.278513037194312 -1480.300128292905 0.0 0.0
-3.5665806385032113 10.98172734834341 2.224544012952059 -1480.9024505304267 0.0 0.0
2.292454671889004 1.3045667709234614 1.0791064328437088 -1481.1886822958757 0.0 0.0
2.7776369554177904 -1.3312413529521372 0.4339186807396942 -1481.260042500637 0.0 0.0
2.112861086449186 -1.3812456579350858 0.2194846285542127 -1481.2666828073843 0.0 0.0
1.2504471842682108 -0.22809173105195768 0.3067066359648791 -1481.254762252711 0.0 0.0
-0.814684974890838 2.8552503606007065 0.6121696157129435 -1481.2111825984766 0.0 0.0
-7.102677093515837 10.222423600560823 0.935923952113491 -1481.1182195709064 0.0 0.0
-23.34785460321055 25.060695047251905 0.51385213321241 -1481.1973739072378 0.0 0.0
-56.15482676715294 48.102453113304314 -2.4157120961546212 -1483.3721460077184 0.0 0.0
-99.25007941278315 63.40444798680464 -10.753689427793546 -1494.555192674027 0.0 0.0
-102.90863802660726 -5.382555073611435 -32.48735793006563 -1517.4709455869277 0.0 0.0
18.47913948045894 -362.58184213726327 -103.23081079704129 -1477.1760856110682 0.0 0.0
197.06288892277237 -1257.6580124897791 -318.17853707010215 -1074.4914026999334 0.0 0.0
144.73908793142698 -2164.1816272952574 -605.8327618091491 -3.9108272176235914e-11 0.0 0.0
197.06288892279255 -1257.6580124895834 -318.1785370700373 1074.4914026997806 0.0 0.0
18.479139480328342 -362.5818421377323 -103.23081079722115 1477.1760856110795 0.0 0.0
-102.90863802665234 -5.382555073900889 -32.487357930166 1517.4709455868847 0.0 0.0
-99.25007941281842 63.404447986696546 -10.753689427836619 1494.5551926740811 0.0 0.0
-56.15482676708112 48.102453113494676 -2.4157120960759357 1483.3721460077873 0.0 0.0
-23.347854603192275 25.06069504721443 0.5138521332066475 1481.1973739072157 0.0 0.0
-7.1026770930129715 10.222423601776319 0.9359239526289969 1481.1182195709505 0.0 0.0
-0.8146849750369825 2.855250360361815 0.6121696155974519 1481.2111825984844 0.0 0.0
1.2504471841815246 -0.22809173124445437 0.30670663588112035 1481.2547622527272 0.0 0.0
2.1128610863016775 -1.3812456582780754 0.2194846284070806 1481.2666828073786 0.0 0.0
2.777636955411225 -1.331241353052583 0.4339186807076061 1481.2600425007263 0.0 0.0
2.292454672010919 1.3045667711073214 1.0791064329354896 1481.1886822958722 0.0 0.0
-3.566580638702419 10.981727347845002 2.224544012742797 1480.902450530472 0.0 0.0
-25.398091904831787 36.32646869532531 3.278513037148059 1480.3001282928615 0.0 0.0
-82.99896561586996 89.30799346347129 1.8927083542803977 1481.5276742863662 0.0 0.0
-194.62860067760704 172.34998002318721 -6.683586196325944 1498.8068138034805 0.0 0.0
-327.25344256100215 217.77594847297405 -32.84324822640843 1570.0164000034756 0.0 0.0
-347.6648633118479 -70.38870005633856 -125.41606901045598 1684.3306619773878 0.0 0.0
-262.70380676787676 -1322.3691399231311 -475.52188400730233 1436.9555675034242 0.0 0.0
-692.8500179469876 -3394.034965061792 -1226.0654949026339 923.3392853843791 0.0 0.0
-554.7255309598048 -2686.13303499948 -972.2575697877855 -831.3013503453346 0.0 0.0
-341.9731965241923 -1217.1814390525883 -467.74639067303417 -1353.2133410679105 0.0 0.0
-514.9351925210607 -119.76173994683055 -190.40907974036736 -1672.3232843302553 0.0 0.0
-637.2547873625006 187.50014963305526 -134.92639131883362 -1599.5012761431772 0.0 0.0
-658.1920180788802 164.47140705647277 -148.11618330672226 -1519.6642059578292 0.0 0.0
-683.1044807824546 87.94041718195967 -178.54921908014848 -1484.2067564244871 0.0 0.0
-750.7290498434804 35.92775389207833 -214.44038878542057 -1471.6586348521578 0.0 0.0
-850.6952054714154 10.819722589364142 -251.9626448646154 -1467.372570596153 0.0 0.0
-966.0060609612833 1.2792746158028443 -289.41803590364407 -1466.0677727313484 0.0 0.0
-1086.567415968895 -1.310177797272619 -326.36327812985024 -1465.8669995315474 0.0 0.0
-1208.2378827707585 -1.3575152194708728 -362.87861939706875 -1465.9751387900378 0.0 0.0
-1330.078644582565 -0.23051522972635397 -399.09274794368747 -1466.000266740588 0.0 0.0
-1453.0407248708125 2.776647821301843 -435.0792231148531 -1465.583922399808 0.0 0.0
-1579.9944758826043 9.976448626788201 -471.0054081767446 -1464.1686058654977 0.0 0.0
-1716.668223901312 24.435287124809363 -507.6698810329507 -1461.0924557667545 0.0 0.0
-1871.1844209971582 47.313632286338965 -547.1612366132458 -1457.304217488893 0.0 0.0
-2040.8923220107667 66.56744130122314 -592.2974642128634 -1462.1563706140053 0.0 0.0
-2170.9853972130827 10.61171126392464 -648.1121057847475 -1495.1216641469202 0.0 0.0
-2139.375867768469 -354.8291810306007 -748.2615146397209 -1510.1575303449351 0.0 0.0
-1994.5660931811547 -1411.1688675872515 -1021.720488230522 -1168.543417925992 0.0 0.0
-2128.26815488723 -2639.137201594176 -1430.2216069444219 -2.2112089936854318e-11 0.0 0.0
-1994.5660931806274 -1411.1688675858204 -1021.7204882299345 1168.5434179259878 0.0 0.0
-2139.375867768539 -354.82918103096375 -748.2615146398507 1510.1575303449488 0.0 0.0
-2170.985397213194 10.611711263447138 -648.1121057849243 1495.121664146999 0.0 0.0
-2040.8923220113445 66.56744129983387 -592.2974642134533 1462.1563706139723 0.0 0.0
-1871.1844209970598 47.31363228654999 -547.1612366131529 1457.3042174888615 0.0 0.0
-1716.6682239013862 24.43528712460352 -507.6698810330349 1461.0924557667486 0.0 0.0
-1579.9944758824258 9.976448627402679 -471.00540817650693 1464.1686058653956 0.0 0.0
-1453.0407248708739 2.7766478212576367 -435.0792231148848 1465.5839223998073 0.0 0.0
-1330.0786445827707 -0.23051523032100008 -399.0927479439276 1466.0002667405727 0.0 0.0
-1208.2378827708608 -1.3575152197300433 -362.8786193971772 1465.9751387900076 0.0 0.0
-1086.5674159686394 -1.3101777967096133 -326.36327812960474 1465.8669995315595 0.0 0.0
-966.0060609614566 1.2792746154001051 -289.418035903817 1466.0677727312855 0.0 0.0
-850.6952054717152 10.819722588656628 -251.96264486491762 1467.3725705960928 0.0 0.0
-750.7290498437576 35.92775389141726 -214.44038878570208 1471.6586348521737 0.0 0.0
-683.1044807822041 87.94041718253487 -178.54921907990075 1484.206756424583 0.0 0.0
-658.1920180787089 164.4714070568337 -148.1161833065625 1519.6642059578157 0.0 0.0
-637.2547873624309 187.50014963320152 -134.92639131876885 1599.5012761431803 0.0 0.0
-514.9351925210227 -119.76173994675321 -190.40907974033274 1672.3232843302544 0.0 0.0
-341.9731965241502 -1217.1814390525549 -467.74639067301155 1353.213341067894 0.0 0.0
-554.7255309597689 -2686.1330349994732 -972.2575697877727 831.3013503453121 0.0 0.0
-447.8586514887918 -2066.6478569302467 -754.3519525257116 -740.7743715270954 0.0 0.0
-412.38476726184416 -1086.1579162304943 -449.56280504770154 -1253.4965813501867 0.0 0.0
-674.4267695180731 -146.6819782680988 -246.33262433585168 -1619.8376408766183 0.0 0.0
-935.2873147216084 156.76730012268408 -233.55600437967732 -1586.6388609894382 0.0 0.0
-1109.8346090265368 150.58071864918847 -287.77616711320474 -1504.66402962283 0.0 0.0
-1276.2195165010746 82.80287129634473 -358.0249935614189 -1454.8825679478994 0.0 0.0
-1473.3973562816818 34.01616271653554 -431.8143580695439 -1432.2558032583588 0.0 0.0
-1697.2350693254684 10.188955270609537 -506.11383421645763 -1423.4404441670977 0.0 0.0
-1934.372401701522 1.177359087652789 -579.9585127841609 -1420.6689255756278 0.0 0.0
-2176.0973164335087 -1.2479263462070769 -653.2035728339149 -1420.229134960751 0.0 0.0
-2418.7431470621523 -1.2853693047641634 -726.0085549100747 -1420.440004243358 0.0 0.0
-2661.4800451632705 -0.22950566973842967 -798.5128652499027 -1420.509360537437 0.0 0.0
-2905.137010341976 2.573399379300781 -870.7690832888026 -1419.767233477722 0.0 0.0
-3152.207301027429 9.33010609271033 -942.8631584804153 -1417.152528634884 0.0 0.0
-3407.847224648915 22.90417875723182 -1015.4829137675047 -1411.185090192872 0.0 0.0
-3681.1972225439067 44.40595683827014 -1091.0373797116908 -1401.5494091377445 0.0 0.0
-3975.614215750478 66.35342993988529 -1172.7782357431777 -1398.1283606997504 0.0 0.0
-4237.54181228698 30.184232631300187 -1262.2072738967045 -1437.1247982425755 0.0 0.0
-4304.342530258571 -317.7050271439372 -1386.6142672207527 -1516.6137286544035 0.0 0.0
-4189.61011365984 -1535.5394693760868 -1717.5448749107777 -1270.2696280501182 0.0 0.0
-4443.118129614917 -3209.2768371155594 -2295.7184900191432 1.2846612662542611e-11 0.0 0.0
-4189.610113659737 -1535.5394693759172 -1717.5448749106959 1270.269628050116 0.0 0.0
-4304.342530258448 -317.70502714374686 -1386.6142672206588 1516.6137286542994 0.0 0.0
-4237.541812287033 30.184232631061043 -1262.207273896792 1437.1247982424916 0.0 0.0
-3975.614215751144 66.3534299382995 -1172.7782357438527 1398.1283606998843 0.0 0.0
-3681.197222544131 44.40595683763247 -1091.0373797119494 1401.5494091378273 0.0 0.0
-3407.8472246489564 22.904178757116174 -1015.4829137675522 1411.1850901928865 0.0 0.0
-3152.2073010273557 9.330106093043929 -942.8631584802937 1417.1525286348797 0.0 0.0
-2905.137010341912 2.5733993794898105 -870.7690832887266 1419.7672334777774 0.0 0.0
-2661.4800451634264 -0.22950567004331646 -798.5128652500409 1420.5093605375378 0.0 0.0
-2418.7431470621887 -1.2853693046688157 -726.0085549100573 1420.4400042434263 0.0 0.0
-2176.097316433543 -1.2479263461654018 -653.2035728339125 1420.2291349607867 0.0 0.0
-1934.3724017018742 1.1773590868798944 -579.9585127844983 1420.6689255755618 0.0 0.0
-1697.2350693253943 10.188955270646288 -506.11383421642427 1423.4404441671345 0.0 0.0
-1473.3973562814995 34.0161627167869 -431.8143580694138 1432.2558032583688 0.0 0.0
-1276.2195165010573 82.8028712964275 -358.02499356138884 1454.882567947945 0.0 0.0
-1109.834609026398 150.58071864952672 -287.77616711306143 1504.6640296228338 0.0 0.0
-935.2873147214409 156.76730012296005 -233.55600437954428 1586.6388609894325 0.0 0.0
-674.426769518044 -146.68197826818425 -246.33262433586853 1619.837640876571 0.0 0.0
-412.3847672617919 -1086.1579162304186 -449.5628050476632 1253.4965813502279 0.0 0.0
-447.85865148883465 -2066.64785693026 -754.3519525257284 740.7743715270225 0.0 0.0
-367.82151467330203 -1530.4986561854462 -569.4960512576247 -649.486968528439 0.0 0.0
-476.87008954773285 -941.0147427906537 -425.365449701516 -1138.6243509823623 0.0 0.0
-828.2120672854194 -153.89305204071113 -294.6315357978392 -1530.5785234621508 0.0 0.0
-1224.4414954974586 127.71322021086182 -329.0184825859791 -1531.9515173315533 0.0 0.0
-1552.1089637087318 132.23983200204324 -425.96073951200657 -1452.1314100337095 0.0 0.0
-1863.5606022800257 74.41128373701261 -536.744795562904 -1392.1521204940818 0.0 0.0
-2193.8144045439776 30.737573403741532 -648.9230493420707 -1361.476791010687 0.0 0.0
-2543.311006478653 9.14929400480882 -760.2485137421531 -1348.926755147131 0.0 0.0
-2902.84094260836 1.0171245912491038 -870.5471454051332 -1344.9672273408873 0.0 0.0
-3265.812979284393 -1.145575445884365 -980.087566419083 -1344.3590189728545 0.0 0.0
-3629.3978807113035 -1.1691043753179144 -1089.1700955259867 -1344.674462622749 0.0 0.0
-3992.96312669574 -0.22166393233671755 -1197.9554371884237 -1344.7970354710794 0.0 0.0
-4357.146239007171 2.270312460232347 -1306.462777964082 -1343.8134527324723 0.0 0.0
-4723.881090849376 8.323731248620007 -1414.667207880227 -1340.2296646711625 0.0 0.0
-5097.180375390443 20.643995432242434 -1522.9609139874606 -1331.857236904878 0.0 0.0
-5486.037065958616 39.75190927430758 -1633.8855470052924 -1317.1435146499207 0.0 0.0
-5901.60804416789 61.650219120459695 -1751.9873475142285 -1304.0376952036186 0.0 0.0
-6301.085324914854 49.68347196985572 -1875.4205558834994 -1341.5296997552525 0.0 0.0
-6480.027139971653 -246.34739437181966 -2017.9123603030423 -1488.7330973297685 0.0 0.0
-6390.389955011081 -1608.030643474667 -2399.526179545725 -1380.375285804914 0.0 0.0
-6824.1377747838105 -3906.3869594810717 -3219.1574202794654 7.068479135341477e-11 0.0 0.0
-6390.389955011383 -1608.0306434755084 -2399.526179546068 1380.3752858048656 0.0 0.0
-6480.0271399716885 -246.3473943718954 -2017.9123603030748 1488.7330973297549 0.0 0.0
-6301.08532491481 49.68347196991452 -1875.420555883469 1341.5296997551511 0.0 0.0
-5901.608044168121 61.65021911984975 -1751.9873475144814 1304.0376952035353 0.0 0.0
-5486.0370659586815 39.7519092742713 -1633.8855470053236 1317.1435146498052 0.0 0.0
-5097.180375390846 20.643995431384987 -1522.960913987839 1331.8572369048668 0.0 0.0
-4723.881090849176 8.32373124918255 -1414.6672078799975 1340.2296646710897 0.0 0.0
-4357.1462390071565 2.270312460209759 -1306.4627779640841 1343.813452732436 0.0 0.0
-3992.9631266953256 -0.22166393144125252 -1197.9554371880295 1344.79703547114 0.0 0.0
-3629.397880711357 -1.169104375403549 -1089.1700955260283 1344.6744626227794 0.0 0.0
-3265.8129792843815 -1.1455754459259904 -980.0875664190925 1344.3590189728993 0.0 0.0
-2902.8409426084654 1.0171245909722764 -870.5471454052481 1344.9672273409174 0.0 0.0
-2543.311006478376 9.1492940054492 -760.2485137418782 1348.9267551472271 0.0 0.0
-2193.8144045437703 30.73757340425317 -648.9230493418553 1361.4767910106489 0.0 0.0
-1863.5606022802106 74.41128373665403 -536.7447955630669 1392.1521204940766 0.0 0.0
-1552.1089637086577 132.2398320022827 -425.9607395119125 1452.131410033716 0.0 0.0
-1224.4414954973834 127.71322021103786 -329.01848258590354 1531.951517331493 0.0 0.0
-828.2120672854661 -153.89305204089857 -294.6315357979093 1530.5785234620885 0.0 0.0
-476.87008954771045 -941.0147427906242 -425.36544970150055 1138.6243509822918 0.0 0.0
-367.82151467335154 -1530.4986561854569 -569.4960512576424 649.4869685284335 0.0 0.0
-311.1605317685735 -1075.9666170707487 -416.13814465179667 -555.689498819987 0.0 0.0
-536.151488141617 -790.2980924314817 -397.93487417192966 -1009.105868700067 0.0 0.0
-976.9797892250533 -145.01420060401216 -336.59819694871965 -1407.3814295583827 0.0 0.0
-1506.7682220296203 101.31595814116861 -421.6356791665355 -1435.9993127511343 0.0 0.0
-1987.3891297415641 110.98334058309626 -562.9217367475404 -1360.8280340948802 0.0 0.0
-2446.6572512719868 63.5780660906603 -714.9237555543979 -1294.8858923954335 0.0 0.0
-2912.6640380668523 26.394857766884222 -865.8807540899907 -1258.8089960646332 0.0 0.0
-3389.159492078615 7.804903700891092 -1014.4063765133171 -1243.6913783493678 0.0 0.0
-3871.471518820821 0.825343366267294 -1161.1938526363665 -1238.9534166758006 0.0 0.0
-4355.714351657291 -1.0057585629982313 -1307.0160330660872 -1238.272740151868 0.0 0.0
-4840.191600435774 -1.0156198007717592 -1452.362166070963 -1238.690277400892 0.0 0.0
-5324.54119727156 -0.2058249041773479 -1597.424106652721 -1238.8726110340522 0.0 0.0
-5809.135366974006 1.9098990702658583 -1742.1676403711222 -1237.7559649227176 0.0 0.0
-6295.20306148702 7.029756155786188 -1886.4519915993699 -1233.540180690013 0.0 0.0
-6785.202971602333 17.817339295909804 -2030.2156896919262 -1223.4124426429605 0.0 0.0
-7286.068463301856 34.156831776230604 -2175.573489457687 -1205.0064821734873 0.0 0.0
-7816.670722362899 52.01665392145393 -2329.3962205324337 -1182.4088818327768 0.0 0.0
-8357.931422509733 62.78176729726968 -2488.544896563739 -1207.7587433263166 0.0 0.0
-8669.280607286082 -139.61118403253988 -2642.667537395587 -1415.00200676884 0.0 0.0
-8596.831330734893 -1594.3289340128595 -3057.3480794243264 -1496.6044608945188 0.0 0.0
-9305.451772007911 -4774.895103185399 -4224.104062557993 9.623590813134797e-11 0.0 0.0
-8596.831330734838 -1594.3289340128717 -3057.3480794243123 1496.6044608945092 0.0 0.0
-8669.280607286055 -139.6111840325895 -2642.6675373955936 1415.0020067688174 0.0 0.0
-8357.931422510057 62.78176729658644 -2488.5448965640403 1207.758743326289 0.0 0.0
-7816.670722362829 52.01665392155546 -2329.3962205323814 1182.4088818328323 0.0 0.0
-7286.068463301716 34.15683177640591 -2175.573489457593 1205.0064821734513 0.0 0.0
-6785.202971602412 17.817339295719282 -2030.2156896920083 1223.412442642985 0.0 0.0
-6295.203061486938 7.029756156097191 -1886.4519915992528 1233.540180689965 0.0 0.0
-5809.135366974119 1.90989906993544 -1742.1676403712547 1237.7559649227317 0.0 0.0
-5324.541197271385 -0.20582490386278884 -1597.4241066525744 1238.8726110340465 0.0 0.0
-4840.191600436011 -1.0156198012566673 -1452.3621660711801 1238.690277400847 0.0 0.0
-4355.714351657076 -1.0057585624941812 -1307.0160330658707 1238.2727401518996 0.0 0.0
-3871.471518820844 0.8253433662355505 -1161.1938526363822 1238.9534166757637 0.0 0.0
-3389.1594920785337 7.804903701092435 -1014.4063765132325 1243.691378349398 0.0 0.0
-2912.6640380667754 26.39485776695748 -865.8807540899453 1258.808996064605 0.0 0.0
-2446.657251271947 63.578066090716135 -714.9237555543693 1294.885892395428 0.0 0.0
-1987.389129741701 110.98334058287111 -562.9217367476487 1360.8280340949016 0.0 0.0
-1506.7682220296194 101.31595814131465 -421.6356791664913 1435.999312751166 0.0 0.0
-976.9797892250953 -145.01420060396268 -336.5981969487175 1407.3814295583752 0.0 0.0
-536.1514881416225 -790.2980924315299 -397.93487417194575 1009.1058686999963 0.0 0.0
-311.16053176848663 -1075.9666170707262 -416.13814465176387 555.6894988200039 0.0 0.0
-274.867160301721 -703.8352612299102 -293.61072645948934 -458.5137627651336 0.0 0.0
-588.9534050443384 -640.2197691076778 -368.7519522456049 -865.5174642697709 0.0 0.0
-1120.0560250884587 -124.32040906516036 -373.31293024608567 -1252.1490360216837 0.0 0.0
-1783.4256603168133 77.6916224707019 -511.7202113538336 -1298.9456482926562 0.0 0.0
-2417.9191438026737 88.3284067315348 -698.8772211213416 -1229.7698133666602 0.0 0.0
-3027.2975097765775 51.33757850647814 -892.7879793810298 -1162.2641476607494 0.0 0.0
-3630.8504301989046 21.41759275020767 -1082.8298512346091 -1123.8983357564032 0.0 0.0
-4235.107602027581 6.297186725046945 -1268.64312459076 -1107.6579148785079 0.0 0.0
-4840.341989331107 0.6327648015019491 -1451.9127673588812 -1102.6408445236953 0.0 0.0
-5445.797258327853 -0.8350898941797738 -1633.9897044666097 -1101.991344431831 0.0 0.0
-6051.10681390721 -0.8339298429710666 -1815.582223125055 -1102.496254111264 0.0 0.0
-6656.225851808985 -0.18432757487489937 -1996.9230538151585 -1102.7396041417562 0.0 0.0
-7261.20010103552 1.5376095571929724 -2177.898747443499 -1101.6008075419697 0.0 0.0
-7866.3809034144715 5.594035999275782 -2358.2360602245585 -1097.182092731115 0.0 0.0
-8472.61335921677 14.478304549886566 -2537.440516400065 -1086.1185404737732 0.0 0.0
-9082.509374148478 28.67043120581792 -2716.1516828827985 -1065.6611648459218 0.0 0.0
-9718.669012928014 38.86694621288044 -2903.940620014541 -1036.5660533472749 0.0 0.0
-10401.134764948538 60.49532733795305 -3102.1918312831754 -1038.803978909061 0.0 0.0
-10873.443471503939 -4.966329969175277 -3263.522940441936 -1279.876454797877 0.0 0.0
-10804.84448396682 -1442.8426703920848 -3674.3061463076706 -1609.809482034265 0.0 0.0
-11936.487099073467 -5875.374426627699 -5343.558457710349 2.1657342585967854e-11 0.0 0.0
-10804.844483967141 -1442.842670392885 -3674.306146308009 1609.809482034269 0.0 0.0
-10873.443471504104 -4.966329969616574 -3263.5229404421166 1279.87645479777 0.0 0.0
-10401.134764948565 60.49532733807024 -3102.1918312831485 1038.8039789090153 0.0 0.0
-9718.669012928334 38.86694621223239 -2903.940620014831 1036.5660533473201 0.0 0.0
-9082.509374148838 28.67043120486768 -2716.1516828831927 1065.6611648459368 0.0 0.0
-8472.613359216695 14.478304550043138 -2537.440516399995 1086.1185404737862 0.0 0.0
-7866.380903414641 5.594035998790332 -2358.236060224756 1097.182092731142 0.0 0.0
-7261.200101035405 1.5376095573728925 -2177.89874744341 1101.6008075419686 0.0 0.0
-6656.225851809211 -0.18432757538444022 -1996.923053815379 1102.7396041418538 0.0 0.0
-6051.10681390674 -0.8339298418955803 -1815.5822231245904 1102.49625411128 0.0 0.0
-5445.797258327871 -0.8350898942151606 -1633.9897044666259 1101.9913444318847 0.0 0.0
-4840.341989330777 0.6327648022109829 -1451.9127673585706 1102.640844523736 0.0 0.0
-4235.107602027785 6.297186724493982 -1268.6431245909876 1107.657914878463 0.0 0.0
-3630.8504301989115 21.41759275018296 -1082.8298512346184 1123.8983357564334 0.0 0.0
-3027.297509776601 51.33757850648695 -892.787979381034 1162.264147660731 0.0 0.0
-2417.9191438027 88.3284067315115 -698.8772211213563 1229.7698133666077 0.0 0.0
-1783.4256603168487 77.69162247067023 -511.72021135385353 1298.9456482926953 0.0 0.0
-1120.0560250885192 -124.32040906518077 -373.31293024611 1252.149036021606 0.0 0.0
-588.9534050443965 -640.2197691077827 -368.75195224565374 865.5174642697954 0.0 0.0
-274.86716030171925 -703.8352612299432 -293.6107264594987 458.51376276503936 0.0 0.0
-255.51329706976446 -416.3155619065058 -201.54865769288108 -358.53191693023626 0.0 0.0
-631.8703805128727 -495.50706589770664 -338.2132339231739 -708.8493721970219 0.0 0.0
-1255.2786992020444 -96.81250990060391 -405.62736273079446 -1065.6135621343317 0.0 0.0
-2054.840446523408 56.48038750924245 -599.5080177042498 -1120.172696132797 0.0 0.0
-2845.9595656233473 65.888956958059 -834.0211825995867 -1058.1207370199404 0.0 0.0
-3607.5151481384737 38.877967148217266 -1070.5911542970766 -993.809011202938 0.0 0.0
-4349.440418843807 16.318861448221295 -1299.9364672186762 -956.5922097643124 0.0 0.0
-5081.542008693668 4.790740456994534 -1523.0253804710023 -940.834999369076 0.0 0.0
-5809.536636201863 0.4678878557830828 -1742.7206245038244 -936.0704418606832 0.0 0.0
-6536.048357999319 -0.6460218469814833 -1961.00831395389 -935.5414356271077 0.0 0.0
-7262.119474114483 -0.6383533842968205 -2178.827348249634 -936.09733040159 0.0 0.0
-7988.016798066343 -0.1533649635785892 -2396.451048908977 -936.3917746462018 0.0 0.0
-8713.463828770304 1.1643557715543764 -2613.6898418996266 -935.337205571833 0.0 0.0
-9437.659782954632 4.2739758557908445 -2830.0157421296517 -931.145631347824 0.0 0.0
-10160.050023379035 10.656232957101146 -3044.8181371265814 -920.3032043101449 0.0 0.0
-10877.738797671394 23.769031150972893 -3256.190929956126 -899.1291865842684 0.0 0.0
-11606.756885724013 27.09331738637126 -3473.899070501291 -869.321533192882 0.0 0.0
-12419.0357183095 33.50673010014563 -3715.658696462807 -844.7109715426797 0.0 0.0
-13090.79525643712 131.84325406235237 -3887.6856007124325 -1065.9182649212248 0.0 0.0
-13003.652696244071 -1077.3602744324805 -4224.303891202967 -1694.8138887227876 0.0 0.0
-14790.708800729351 -7286.345510623544 -6623.116293405867 -7.281641956069507e-11 0.0 0.0
-13003.652696244182 -1077.3602744327131 -4224.303891203067 1694.81388872273 0.0 0.0
-13090.79525643724 131.84325406214475 -3887.6856007125284 1065.918264921225 0.0 0.0
-12419.035718309482 33.506730100211115 -3715.658696462782 844.7109715427613 0.0 0.0
-11606.756885724128 27.093317386076954 -3473.899070501415 869.3215331928843 0.0 0.0
-10877.73879767183 23.769031149879037 -3256.190929956585 899.1291865843343 0.0 0.0
-10160.05002337901 10.656232956992973 -3044.8181371266055 920.3032043100744 0.0 0.0
-9437.659782954719 4.273975855486555 -2830.0157421297695 931.1456313478551 0.0 0.0
-8713.463828770355 1.1643557714692943 -2613.6898418996657 935.3372055718147 0.0 0.0
-7988.016798066291 -0.15336496342900752 -2396.4510489089157 936.3917746462768 0.0 0.0
-7262.119474114163 -0.6383533835028992 -2178.8273482492987 936.0973304015827 0.0 0.0
-6536.048357999388 -0.6460218471697914 -1961.0083139539674 935.5414356271388 0.0 0.0
-5809.5366362015175 0.4678878564610114 -1742.720624503517 936.0704418606803 0.0 0.0
-5081.542008693985 4.79074045616072 -1523.0253804713477 940.8349993689869 0.0 0.0
-4349.440418843851 16.318861448199655 -1299.9364672186957 956.592209764332 0.0 0.0
-3607.515148138499 38.877967148278444 -1070.5911542970664 993.8090112028649 0.0 0.0
-2845.9595656231877 65.88895695840779 -834.0211825994337 1058.1207370200182 0.0 0.0
-2054.840446523515 56.48038750901577 -599.5080177043498 1120.1726961327258 0.0 0.0
-1255.2786992021722 -96.8125099008177 -405.62736273089706 1065.6135621342833 0.0 0.0
-631.8703805128627 -495.5070658976463 -338.2132339231527 708.8493721970493 0.0 0.0
-255.51329706978544 -416.3155619065531 -201.54865769290157 358.53191693022023 0.0 0.0
-247.7790021965824 -215.4795312172849 -138.97756002416023 -258.77988837299506 0.0 0.0
-658.8835782656561 -360.54997790811933 -305.8300668521327 -540.8381353953387 0.0 0.0
-1378.7163770168806 -68.47870867417006 -434.1585257073153 -846.7246757164904 0.0 0.0
-2320.9362539313624 37.42474007719381 -685.0534541562504 -897.9505745787751 0.0 0.0
-3274.037824381216 45.536020510957115 -968.5505411610778 -845.2057216741172 0.0 0.0
-4189.594666221814 27.46185813782546 -1248.6398424251965 -789.416665750984 0.0 0.0
-5069.597956872289 11.650003416599809 -1517.384386036707 -756.9719832458695 0.0 0.0
-5928.8715669486955 3.452476266666423 -1777.6257272046091 -743.3316019594387 0.0 0.0
-6779.131185764613 0.3479866429290439 -2033.6349597365054 -739.3133319348094 0.0 0.0
-7626.438524668594 -0.4554849241510013 -2288.0682028778238 -738.9527954600848 0.0 0.0
-8473.198603764751 -0.45686925184369187 -2542.096641904979 -739.4989181026768 0.0 0.0
-9319.903009019126 -0.09300788014481753 -2795.998805069782 -739.7985436281904 0.0 0.0
-10166.025512834814 0.7722689795140454 -3049.57597315659 -738.9636391708754 0.0 0.0
-11009.459634160408 3.2587016662015174 -3301.860279748262 -735.2820851034484 0.0 0.0
-11847.747386080442 7.040244778735818 -3552.2121423905123 -726.174246981509 0.0 0.0
-12675.084876154071 17.733197611459588 -3797.205503562784 -705.8553931358127 0.0 0.0
-13484.195254204242 25.39313939556457 -4037.640634442605 -679.5619940348512 0.0 0.0
-14393.456158241568 -18.381515086287024 -4323.551301998356 -645.6348715533887 0.0 0.0
-15313.254572923779 208.14693245811594 -4531.5322921397 -765.49787725293 0.0 0.0
-15171.591080324875 -390.5250176051581 -4668.634829379012 -1688.0336661073338 0.0 0.0
-17979.53400928949 -9097.365778950789 -8123.069936472082 1.0152234608540311e-10 0.0 0.0
-15171.591080324808 -390.52501760498063 -4668.634829378936 1688.033666107325 0.0 0.0
-15313.254572923775 208.14693245808283 -4531.532292139707 765.4978772529453 0.0 0.0
-14393.456158241426 -18.38151508580012 -4323.551301998169 645.6348715534627 0.0 0.0
-13484.195254203863 25.393139396710097 -4037.640634442145 679.5619940347995 0.0 0.0
-12675.084876154346 17.733197610573896 -3797.2055035631315 705.8553931357221 0.0 0.0
-11847.74738608054 7.040244778316625 -3552.212142390667 726.1742469814982 0.0 0.0
-11009.45963416053 3.258701665952376 -3301.8602797483736 735.2820851035212 0.0 0.0
-10166.025512835033 0.7722689790399944 -3049.5759731567978 738.9636391708246 0.0 0.0
-9319.903009019044 -0.09300787990547654 -2795.9988050696847 739.7985436282345 0.0 0.0
-8473.19860376484 -0.45686925211793117 -2542.0966419050874 739.4989181025749 0.0 0.0
-7626.438524668509 -0.45548492397055673 -2288.068202877743 738.9527954601781 0.0 0.0
-6779.131185764498 0.3479866432779427 -2033.634959736366 739.3133319348343 0.0 0.0
-5928.871566948647 3.4524762666073747 -1777.6257272046118 743.3316019594527 0.0 0.0
-5069.59795687221 11.65000341671234 -1517.3843860366494 756.9719832458021 0.0 0.0
-4189.5946662216575 27.46185813833152 -1248.6398424249978 789.4166657509364 0.0 0.0
-3274.0378243810887 45.536020511263416 -968.5505411609477 845.2057216741714 0.0 0.0
-2320.9362539314325 37.42474007708731 -685.0534541563035 897.9505745787314 0.0 0.0
-1378.7163770169207 -68.47870867433747 -434.15852570737735 846.7246757165944 0.0 0.0
-658.8835782655408 -360.549977907968 -305.8300668520527 540.8381353953661 0.0 0.0
-247.77900219660359 -215.47953121732746 -138.97756002417933 258.77988837302075 0.0 0.0
-241.77612961229434 -100.67467334425528 -102.73524088696489 -166.73282818176835 0.0 0.0
-660.4547588312066 -241.39963044749 -270.55631678360896 -364.23857239972483 0.0 0.0
-1484.212499607902 -46.55315291287565 -459.22969575623335 -591.2893626660541 0.0 0.0
-2581.533142352213 21.338847917414437 -768.0582883304395 -629.3290184883784 0.0 0.0
-3705.316464809274 29.465874959770094 -1102.7551769548513 -590.6517691246589 0.0 0.0
-4776.050623036427 18.340227112790508 -1427.3131187770914 -549.3803730901388 0.0 0.0
-5792.512209882497 7.961355041814251 -1735.3652564522047 -525.384053070053 0.0 0.0
-6777.487168116855 2.4199713003465817 -2032.5201590449535 -515.3618184447296 0.0 0.0
-7749.171582128922 0.2744595691236569 -2324.6691367679396 -512.4693842091816 0.0 0.0
-8716.924611656992 -0.29514692999385517 -2615.1659275760967 -512.2589389420154 0.0 0.0
-9684.283297393767 -0.3023385429409302 -2905.375690781013 -512.6955551330153 0.0 0.0
-10651.917312747013 -0.06362423531224692 -3195.5942810946985 -512.9446780484137 0.0 0.0
-11618.817953577827 0.5846389246241444 -3485.4699943959613 -512.3504069961778 0.0 0.0
-12582.521587619414 1.9940864522995128 -3774.158250350136 -509.73069283482306 0.0 0.0
-13535.758139461681 5.996754223461302 -4058.928415571465 -502.6269158807969 0.0 0.0
-14476.33415417483 7.026407166188122 -4340.792324102593 -489.0866652903711 0.0 0.0
-15364.701175260227 36.77430392579774 -4598.37806140033 -459.791866997126 0.0 0.0
-16298.00625888945 -56.294424314978066 -4906.290204961328 -461.21350577207227 0.0 0.0
-17518.86951407995 90.04439579119759 -5228.647535486625 -427.789883857572 0.0 0.0
-17270.380793076576 749.2531850083114 -4956.33828242048 -1428.269988994152 0.0 0.0
-21673.94605783925 -11369.347867881736 -9912.988177716294 -5.695710569852963e-11 0.0 0.0
-17270.380793076736 749.2531850079563 -4956.338282420635 1428.269988994037 0.0 0.0
-17518.869514080347 90.04439579038414 -5228.647535486992 427.7898838577365 0.0 0.0
-16298.006258888836 -56.29442431326755 -4906.290204960631 461.21350577208386 0.0 0.0
-15364.701175260137 36.77430392606898 -4598.378061400221 459.7918669970527 0.0 0.0
-14476.334154174643 7.026407166414681 -4340.792324102468 489.0866652901724 0.0 0.0
-13535.758139461643 5.9967542234239835 -4058.9284155714663 502.62691588083965 0.0 0.0
-12582.521587619603 1.9940864519517882 -3774.158250350296 509.7306928349365 0.0 0.0
-11618.817953577924 0.5846389244945067 -3485.469994396029 512.3504069960851 0.0 0.0
-10651.917312747113 -0.0636242355513259 -3195.5942810948 512.9446780484143 0.0 0.0
-9684.283297393333 -0.3023385419553333 -2905.3756907805882 512.6955551329277 0.0 0.0
-8716.924611656896 -0.2951469298282994 -2615.1659275760176 512.2589389420773 0.0 0.0
-7749.171582128791 0.2744595694448333 -2324.6691367678036 512.4693842091959 0.0 0.0
-6777.487168116841 2.419971300495617 -2032.5201590449037 515.3618184447469 0.0 0.0
-5792.512209882389 7.961355042136656 -1735.3652564520755 525.3840530699529 0.0 0.0
-4776.0506230362425 18.34022711318067 -1427.3131187769188 549.3803730901315 0.0 0.0
-3705.316464809278 29.465874959643937 -1102.7551769548904 590.6517691246759 0.0 0.0
-2581.53314235225 21.338847917305596 -768.0582883304832 629.3290184883506 0.0 0.0
-1484.2124996079517 -46.55315291298906 -459.2296957562822 591.2893626661116 0.0 0.0
-660.4547588311609 -241.39963044746324 -270.5563167835873 364.23857239979026 0.0 0.0
-241.77612961224355 -100.67467334424248 -102.7352408869458 166.7328281817237 0.0 0.0
-217.88748437830603 -63.86430372336896 -84.52553643050251 -98.20414629749992 0.0 0.0
-622.0503507484477 -149.80035597357065 -231.55521201660562 -182.8820749498854 0.0 0.0
-1562.7272882432483 -39.21291047105003 -480.5820596142895 -289.01190291766795 0.0 0.0
-2837.1145758962716 11.780502704415476 -847.6002219575568 -310.9619259734795 0.0 0.0
-4144.084596480979 19.79921228151577 -1237.2856152598388 -294.3978418795337 0.0 0.0
-5369.495215588628 12.811447241007023 -1607.0051305042862 -274.4861159007414 0.0 0.0
-6519.350894694224 5.712368622057859 -1954.0915578216502 -262.4465349924898 0.0 0.0
-7627.705820645287 1.7801761481107192 -2287.7776933491527 -257.24291985825306 0.0 0.0
-8719.65925150842 0.2212099399590457 -2615.831412470538 -255.66199188178533 0.0 0.0
-9807.43348862053 -0.20266941867919286 -2942.2908474117626 -255.4915230695017 0.0 0.0
-10895.323795518078 -0.21298727042089638 -3268.66103483655 -255.6806132414852 0.0 0.0
-11983.975530082733 -0.04088748259819397 -3595.2049252696 -255.78495991936455 0.0 0.0
-13072.145581720448 0.41375774830736844 -3921.5195471916427 -255.44195325542782 0.0 0.0
-14156.1309608981 1.517855166494904 -4246.38393171948 -254.09873540520596 0.0 0.0
-15228.77088511304 3.7468706524353337 -4567.50720433818 -250.38006410950544 0.0 0.0
-16270.833358877795 8.889080642509882 -4878.583283470586 -243.66233891448218 0.0 0.0
-17287.04879400186 5.077408585903434 -5184.591415624785 -231.26923509801557 0.0 0.0
-18098.693487800414 83.83762874016904 -5404.456757718073 -214.9917541941374 0.0 0.0
-19652.555674049676 -480.67313557436677 -6039.968642887212 -339.0742649031109 0.0 0.0
-19241.889178134126 2422.6905950554083 -5045.759574923614 -483.9419095461643 0.0 0.0
-26133.977699159164 -13976.647006755222 -12033.187411774314 -2.1032064978498966e-11 0.0 0.0
-19241.889178133944 2422.6905950557302 -5045.759574923464 483.9419095460859 0.0 0.0
-19652.55567405025 -480.6731355757048 -6039.968642887787 339.07426490313173 0.0 0.0
-18098.693487800236 83.83762874081461 -5404.456757717826 214.99175419407058 0.0 0.0
-17287.048794001726 5.077408586337869 -5184.591415624616 231.26923509809836 0.0 0.0
-16270.833358877586 8.889080642861963 -4878.583283470418 243.66233891450764 0.0 0.0
-15228.770885112925 3.7468706526140556 -4567.507204338094 250.3800641094398 0.0 0.0
-14156.13096089825 1.5178551661429251 -4246.3839317196325 254.0987354050725 0.0 0.0
-13072.145581720433 0.41375774825741907 -3921.519547191654 255.44195325539613 0.0 0.0
-11983.975530083042 -0.04088748336892278 -3595.2049252699235 255.78495991947293 0.0 0.0
-10895.323795517868 -0.21298726996064377 -3268.6610348363474 255.6806132415078 0.0 0.0
-9807.43348862045 -0.20266941858388465 -2942.290847411711 255.4915230694648 0.0 0.0
-8719.6592515083 0.22120994019773477 -2615.8314124704316 255.66199188178658 0.0 0.0
-7627.70582064526 1.7801761482411766 -2287.777693349106 257.24291985826216 0.0 0.0
-6519.350894694215 5.712368622126844 -1954.0915578216266 262.4465349925797 0.0 0.0
-5369.495215588647 12.811447240915665 -1607.0051305043185 274.48611590065934 0.0 0.0
-4144.084596481153 19.79921228109995 -1237.2856152600161 294.3978418795499 0.0 0.0
-2837.1145758963685 11.780502704209376 -847.600221957648 310.96192597354167 0.0 0.0
-1562.7272882431857 -39.212910470943754 -480.58205961423886 289.01190291770376 0.0 0.0
-622.0503507484149 -149.80035597351736 -231.55521201657967 182.88207494993063 0.0 0.0
-217.8874843783369 -63.86430372339667 -84.52553643052006 98.20414629741285 0.0 0.0
-113.39646461865267 -26.95912771676739 -42.10667770062604 -65.8085099174596 0.0 0.0
-506.83666153167366 -76.95475886045708 -175.13742611763917 -77.29434258007811 0.0 0.0
-1596.4356711486782 -41.329864304200186 -491.32966063586355 -98.36834875069968 0.0 0.0
-3123.2564539943146 -59.029356954468255 -954.6857432846349 -109.67719132015002 0.0 0.0
-4648.099033538803 -104.11171919275102 -1425.663225819466 -108.84182590777792 0.0 0.0
-6041.684937198502 -148.90938221730724 -1857.178295824743 -103.77702834949937 0.0 0.0
-7333.894900461071 -187.86192377945392 -2256.5270472721577 -99.90663260167281 0.0 0.0
-8575.668821026798 -222.3282969404046 -2639.399135390161 -97.90980726242506 0.0 0.0
-9799.737311341212 -254.68828622802823 -3016.327679270772 -97.14499490589282 0.0 0.0
-11020.508711799072 -286.3889330915793 -3392.069293467196 -96.952532721799 0.0 0.0
-12242.440901541402 -318.0282635122089 -3768.140749516084 -96.94544157384706 0.0 0.0
-13465.902725704951 -349.68557213408525 -4144.676489351712 -96.9300105325712 0.0 0.0
-14689.454584886747 -381.3769415346238 -4521.249457926412 -96.73228170646303 0.0 0.0
-15908.563184591594 -412.0251644035975 -4896.1765046985565 -96.199966259549 0.0 0.0
-17114.94471857857 -443.5960084914842 -5267.562218121017 -94.91794040016896 0.0 0.0
-18281.994725797213 -461.50962576445636 -5623.0513054685025 -92.43759587971101 0.0 0.0
-19398.236136164876 -520.3996374536239 -5975.59073208555 -94.95843493088307 0.0 0.0
-20308.861545340485 -343.74919199167397 -6195.783221199647 -64.60953020425302 0.0 0.0
-21245.792032508118 -1158.6879670228714 -6721.3439998592985 -317.2423602001286 0.0 0.0
-21689.9781928719 2751.628523372459 -5681.504900849834 -1.428241789820504 0.0 0.0
-32073.197981292138 -16819.807082468084 -14667.901519128069 6.366462912410498e-11 0.0 0.0
-21689.97819287205 2751.628523372576 -5681.504900849841 1.428241789678566 0.0 0.0
-21245.792032509045 -1158.687967024674 -6721.343999860115 317.2423602001036 0.0 0.0
-20308.86154534024 -343.7491919912057 -6195.7832211994355 64.6095302043143 0.0 0.0
-19398.2361361641 -520.3996374519942 -5975.590732084831 94.95843493098948 0.0 0.0
-18281.994725797307 -461.5096257646361 -5623.051305468581 92.43759587972329 0.0 0.0
-17114.944718578834 -443.59600849212177 -5267.562218121287 94.91794040021728 0.0 0.0
-15908.563184592032 -412.0251644044411 -4896.176504698941 96.19996625963347 0.0 0.0
-14689.45458488669 -381.3769415345837 -4521.249457926382 96.73228170661298 0.0 0.0
-13465.902725705218 -349.68557213501475 -4144.67648935207 96.93001053273645 0.0 0.0
-12242.440901541775 -318.0282635130421 -3768.140749516444 96.9454415739657 0.0 0.0
-11020.508711798906 -286.3889330912723 -3392.069293467053 96.95253272186267 0.0 0.0
-9799.737311341036 -254.68828622774242 -3016.3276792706333 97.14499490594778 0.0 0.0
-8575.668821026597 -222.32829693988748 -2639.3991353899455 97.90980726245778 0.0 0.0
-7333.894900461257 -187.8619237797158 -2256.5270472722923 99.90663260189564 0.0 0.0
-6041.684937198703 -148.909382217773 -1857.1782958249428 103.77702834940612 0.0 0.0
-4648.099033538747 -104.11171919289538 -1425.6632258194934 108.8418259077821 0.0 0.0
-3123.256453994307 -59.02935695458149 -954.6857432846666 109.67719132024246 0.0 0.0
-1596.4356711486744 -41.32986430409136 -491.3296606358298 98.36834875078998 0.0 0.0
-506.83666153174727 -76.95475886041928 -175.13742611765002 77.29434258008632 0.0 0.0
-113.39646461879511 -26.95912771688402 -42.10667770070375 65.80850991738114 0.0 0.0
SCALARS Strain float 6
LOOKUP_TABLE default
0.029378476819160684 -0.0729784114686875 0.0 -0.004910597662613642 0.0 0.0
0.026163928899252873 0.005688919637282856 0.0 -0.007627792373416046 0.0 0.0
0.020678941126449663 -0.010304779933028781 0.0 -0.0032623206935524073 0.0 0.0
0.01971974223108362 -0.0071844738751871 0.0 -0.0004858796238988908 0.0 0.0
0.02316223335652333 -0.009465715772038797 0.0 -0.0011198131304149116 0.0 0.0
0.027827989226836013 -0.011274955364628952 0.0 -0.0011539247212111602 0.0 0.0
0.03305884250286048 -0.01345837601968479 0.0 -0.0012235969812078823 0.0 0.0
0.03850451674832326 -0.015675344119707755 0.0 -0.0012501084667193825 0.0 0.0
0.0440154491078697 -0.0179221763170462 0.0 -0.0012595357920888227 0.0 0.0
0.04953682422941674 -0.020169697825773443 0.0 -0.0012619893908385543 0.0 0.0
0.055052129828517274 -0.02241497040472358 0.0 -0.001261989236817142 0.0 0.0
0.060560596915248704 -0.02465737805491288 0.0 -0.001262268719451821 0.0 0.0
0.06606934267634255 -0.026899492893210655 0.0 -0.0012647271841981014 0.0 0.0
0.07159763678525768 -0.029147906582086346 0.0 -0.0012719695801095498 0.0 0.0
0.07718822983896186 -0.031418080544003676 0.0 -0.0012867976933563614 0.0 0.0
0.0829143482905469 -0.033738441415359796 0.0 -0.001307826084226088 0.0 0.0
0.08884939035496323 -0.03614202999346393 0.0 -0.0013173483526957399 0.0 0.0
0.09494043645406514 -0.03862095245644102 0.0 -0.001262743379723548 0.0 0.0
0.10074958475904394 -0.041020282230456916 0.0 -0.0010532305599076188 0.0 0.0
0.10521690023964339 -0.04291283728794361 0.0 -0.0006161318599066899 0.0 0.0
0.10693907611712311 -0.0436633147297722 0.0 -5.156465532341059e-16 0.0 0.0
0.10521690023964217 -0.0429128372879451 0.0 0.0006161318599091732 0.0 0.0
0.10074958475904355 -0.041020282230458976 0.0 0.0010532305599084274 0.0 0.0
0.09494043645406527 -0.038620952456442544 0.0 0.0012627433797223189 0.0 0.0
0.08884939035496338 -0.03614202999346333 0.0 0.001317348352694963 0.0 0.0
0.08291434829054756 -0.03373844141535778 0.0 0.001307826084223343 0.0 0.0
0.07718822983896222 -0.03141808054400477 0.0 0.0012867976933541836 0.0 0.0
0.07159763678525716 -0.02914790658208513 0.0 0.0012719695801096868 0.0 0.0
0.06606934267634232 -0.026899492893214555 0.0 0.001264727184197692 0.0 0.0
0.060560596915248885 -0.024657378054916773 0.0 0.001262268719451798 0.0 0.0
0.055052129828517316 -0.02241497040472232 0.0 0.001261989236817175 0.0 0.0
0.04953682422941666 -0.020169697825772062 0.0 0.0012619893908386846 0.0 0.0
0.04401544910786976 -0.017922176317046866 0.0 0.0012595357920879933 0.0 0.0
0.038504516748323225 -0.015675344119710426 0.0 0.0012501084667178712 0.0 0.0
0.033058842502860286 -0.013458376019681955 0.0 0.0012235969812067241 0.0 0.0
0.027827989226835707 -0.011274955364629755 0.0 0.0011539247212112049 0.0 0.0
0.023162233356523163 -0.00946571577204081 0.0 0.0011198131304154186 0.0 0.0
0.019719742231083748 -0.007184473875186111 0.0 0.00048587962389853357 0.0 0.0
0.020678941126449735 -0.010304779933028361 0.0 0.0032623206935513903 0.0 0.0
0.026163928899252856 0.005688919637282609 0.0 0.007627792373416865 0.0 0.0
0.029378476819160736 -0.07297841146868768 0.0 0.004910597662613913 0.0 0.0
0.018294042219769987 -0.06783243742763335 0.0 -0.00335576278999753 0.0 0.0
0.015478120069639785 0.004930579540378241 0.0 -0.006081753241337147 0.0 0.0
0.014859710867327704 -0.007991284180936427 0.0 -0.0022802376929112194 0.0 0.0
0.017880735548617466 -0.00708938512800077 0.0 -0.0018873588402525117 0.0 0.0
0.02077033250613397 -0.008830332733900877 0.0 -0.0027211810108043306 0.0 0.0
0.025100206752768188 -0.010700529554509992 0.0 -0.0030825785465725354 0.0 0.0
0.029784560947299747 -0.012745851277927918 0.0 -0.003244610238101143 0.0 0.0
0.03467255520666479 -0.014853871408718609 0.0 -0.0033109409718961773 0.0 0.0
0.03962181987835845 -0.016980174174032275 0.0 -0.003329151200559352 0.0 0.0
0.0445860034887334 -0.01910906051385779 0.0 -0.0033310155106907693 0.0 0.0
0.04954825391272366 -0.02123574863710022 0.0 -0.003328476085110579 0.0 0.0
0.054506724648690864 -0.023360144818790157 0.0 -0.00332722810127922 0.0 0.0
0.059467282769101126 -0.025484310369110353 0.0 -0.003331842193773237 0.0 0.0
0.06444610846067117 -0.02761385545836195 0.0 -0.003350396008381753 0.0 0.0
0.0694768853541355 -0.02976193170834724 0.0 -0.0033955605724588197 0.0 0.0
0.07461202429902669 -0.031953026949260874 0.0 -0.0034755653519215873 0.0 0.0
0.07989046456787635 -0.034216239432991374 0.0 -0.0035610759204578995 0.0 0.0
0.08522800030261068 -0.036545678681398484 0.0 -0.0035206125387510327 0.0 0.0
0.09021610435511339 -0.03880471771002584 0.0 -0.003068942414617782 0.0 0.0
0.09397206119400922 -0.040603425002955676 0.0 -0.0018806797781706366 0.0 0.0
0.09540020740695451 -0.04132950072429549 0.0 -1.2019465284174302e-15 0.0 0.0
0.09397206119400875 -0.04060342500296077 0.0 0.001880679778170255 0.0 0.0
0.09021610435511303 -0.03880471771002605 0.0 0.003068942414617907 0.0 0.0
0.08522800030261066 -0.03654567868139995 0.0 0.0035206125387521286 0.0 0.0
0.0798904645678765 -0.03421623943299016 0.0 0.0035610759204578028 0.0 0.0
0.07461202429902694 -0.031953026949259215 0.0 0.0034755653519211323 0.0 0.0
0.06947688535413574 -0.029761931708345082 0.0 0.0033955605724590447 0.0 0.0
0.06444610846067098 -0.027613855458361806 0.0 0.0033503960083826486 0.0 0.0
0.059467282769100877 -0.02548431036911316 0.0 0.003331842193771701 0.0 0.0
0.054506724648691 -0.023360144818790472 0.0 0.0033272281012801295 0.0 0.0
0.04954825391272369 -0.021235748637099903 0.0 0.0033284760851108506 0.0 0.0
0.04458600348873327 -0.01910906051385702 0.0 0.0033310155106903465 0.0 0.0
0.03962181987835843 -0.016980174174033233 0.0 0.0033291512005597266 0.0 0.0
0.03467255520666465 -0.014853871408721075 0.0 0.003310940971895669 0.0 0.0
0.0297845609472997 -0.01274585127792589 0.0 0.003244610238100896 0.0 0.0
0.02510020675276824 -0.010700529554510566 0.0 0.0030825785465717834 0.0 0.0
0.02077033250613391 -0.00883033273390164 0.0 0.002721181010804901 0.0 0.0
0.017880735548617396 -0.007089385128000048 0.0 0.0018873588402527459 0.0 0.0
0.01485971086732777 -0.007991284180936278 0.0 0.002280237692911393 0.0 0.0
0.015478120069639962 0.004930579540377765 0.0 0.006081753241337583 0.0 0.0
0.01829404221977001 -0.06783243742763334 0.0 0.0033557627899979472 0.0 0.0
0.013121524167378235 -0.058132068179425886 0.0 -0.015454800436012647 0.0 0.0
0.009968125013420814 0.002699500476578976 0.0 -0.01099775303151007 0.0 0.0
0.010235931251556057 -0.004096054453296437 0.0 -0.0015462242884609774 0.0 0.0
0.015121400145174053 -0.006386619211845217 0.0 -0.004353838146532147 0.0 0.0
0.018397629391262597 -0.007663082006237705 0.0 -0.0054182530429690585 0.0 0.0
0.022277197536625666 -0.009492229467105977 0.0 -0.006209822671329852 0.0 0.0
0.02649195784833871 -0.01132357837804629 0.0 -0.006519207441902525 0.0 0.0
0.0308313795318301 -0.01320597770127436 0.0 -0.006644238026739336 0.0 0.0
0.03522704830112587 -0.01509642746237571 0.0 -0.006677829188353666 0.0 0.0
0.03963575634194065 -0.01698787139074336 0.0 -0.0066797721473659585 0.0 0.0
0.04404513619396154 -0.01887759913350142 0.0 -0.006674030044729992 0.0 0.0
0.04845278435112623 -0.02076567837001334 0.0 -0.0066709326356817035 0.0 0.0
0.0528629206365708 -0.022653270152988448 0.0 -0.00667917836047487 0.0 0.0
0.0572872933657685 -0.024543494165534713 0.0 -0.006714792022389158 0.0 0.0
0.06174963021566163 -0.026444476403774553 0.0 -0.006804299270180101 0.0 0.0
0.06628508339183548 -0.02837370291926626 0.0 -0.006968491239322572 0.0 0.0
0.07091382827006659 -0.030357362271592886 0.0 -0.0071575377042078885 0.0 0.0
0.07555411101037007 -0.032405673389338446 0.0 -0.007116571476755717 0.0 0.0
0.0798611036445722 -0.034433880627288964 0.0 -0.006260337766142498 0.0 0.0
0.08309702871106833 -0.03612028068988898 0.0 -0.0038749285816592483 0.0 0.0
0.08432842312470955 -0.03684000540743339 0.0 -1.8388068845354155e-16 0.0 0.0
0.08309702871106814 -0.036120280689895395 0.0 0.003874928581658951 0.0 0.0
0.07986110364457204 -0.034433880627290636 0.0 0.006260337766142873 0.0 0.0
0.07555411101036981 -0.03240567338933861 0.0 0.007116571476755292 0.0 0.0
0.07091382827006679 -0.030357362271587834 0.0 0.007157537704208317 0.0 0.0
0.0662850833918358 -0.028373702919263888 0.0 0.006968491239322723 0.0 0.0
0.06174963021566168 -0.026444476403769727 0.0 0.006804299270181294 0.0 0.0
0.05728729336576828 -0.02454349416553835 0.0 0.0067147920223887755 0.0 0.0
0.05286292063657071 -0.02265327015298949 0.0 0.006679178360473529 0.0 0.0
0.04845278435112636 -0.020765678370010882 0.0 0.006670932635682417 0.0 0.0
0.04404513619396116 -0.01887759913350159 0.0 0.006674030044731135 0.0 0.0
0.03963575634194051 -0.01698787139074393 0.0 0.0066797721473653635 0.0 0.0
0.03522704830112597 -0.01509642746237605 0.0 0.006677829188354295 0.0 0.0
0.030831379531830135 -0.01320597770127621 0.0 0.006644238026740778 0.0 0.0
0.02649195784833871 -0.01132357837804629 0.0 0.006519207441902843 0.0 0.0
0.02227719753662567 -0.009492229467105652 0.0 0.006209822671330582 0.0 0.0
0.01839762939126276 -0.007663082006237934 0.0 0.00541825304296855 0.0 0.0
0.015121400145174074 -0.006386619211844978 0.0 0.004353838146533388 0.0 0.0
0.010235931251556219 -0.00409605445329678 0.0 0.0015462242884617236 0.0 0.0
0.00996812501342109 0.0026995004765788715 0.0 0.010997753031510293 0.0 0.0
0.013121524167378317 -0.0581320681794257 0.0 0.015454800436011969 0.0 0.0
0.010422904164806786 -0.04960558988332448 0.0 -0.01929350497593603 0.0 0.0
0.007018202117811422 -0.00017057544648086165 0.0 -0.015061101464219597 0.0 0.0
0.0068892634954279205 -0.0016097334196647235 0.0 -0.004582652522316801 0.0 0.0
0.012173536839156934 -0.00502478169625817 0.0 -0.006293898792768291 0.0 0.0
0.015881825322925352 -0.0065680310489929835 0.0 -0.008060156774350714 0.0 0.0
0.01942923650682878 -0.008221535288978716 0.0 -0.008964424857608767 0.0 0.0
0.023171365205707815 -0.009893072754098092 0.0 -0.009415097682909272 0.0 0.0
0.026984326842638413 -0.011552556799939013 0.0 -0.00958040049388919 0.0 0.0
0.030829976343144515 -0.013211960445000216 0.0 -0.00962927881682991 0.0 0.0
0.03468566860444188 -0.014866944063769746 0.0 -0.009632827048593556 0.0 0.0
0.03854234349551963 -0.016519831050835584 0.0 -0.009625681677397233 0.0 0.0
0.04239854166939931 -0.01817115052010922 0.0 -0.009621917347894594 0.0 0.0
0.04625643954855782 -0.019820957392033104 0.0 -0.009633539979003104 0.0 0.0
0.05012263051456905 -0.021469161842219076 0.0 -0.009682073074666953 0.0 0.0
0.05401077860536648 -0.02311829179266836 0.0 -0.009802831593477135 0.0 0.0
0.057942546887392116 -0.02478059453312214 0.0 -0.010023028817512526 0.0 0.0
0.06193270791774322 -0.026488317600251214 0.0 -0.010272830609396839 0.0 0.0
0.06592796694786016 -0.02828920366149626 0.0 -0.010196547976550157 0.0 0.0
0.06966892043714995 -0.030176821286772668 0.0 -0.008967352629923236 0.0 0.0
0.07253055075920262 -0.03188598885778758 0.0 -0.005556754535682272 0.0 0.0
0.07363627047070914 -0.03267710387730403 0.0 1.3357370765021415e-16 0.0 0.0
0.0725305507592027 -0.03188598885779059 0.0 0.00555675453568279 0.0 0.0
0.06966892043715017 -0.03017682128677398 0.0 0.00896735262992475 0.0 0.0
0.06592796694786002 -0.028289203661496398 0.0 0.010196547976549963 0.0 0.0
0.061932707917742746 -0.026488317600248237 0.0 0.010272830609397661 0.0 0.0
0.05794254688739213 -0.024780594533124575 0.0 0.01002302881751258 0.0 0.0
0.05401077860536696 -0.023118291792665623 0.0 0.00980283159347808 0.0 0.0
0.05012263051456905 -0.02146916184222043 0.0 0.009682073074665312 0.0 0.0
0.04625643954855781 -0.0198209573920335 0.0 0.009633539979004508 0.0 0.0
0.04239854166939938 -0.018171150520110813 0.0 0.009621917347894776 0.0 0.0
0.03854234349551948 -0.01651983105083527 0.0 0.009625681677397592 0.0 0.0
0.03468566860444202 -0.014866944063770142 0.0 0.0096328270485926 0.0 0.0
0.030829976343144605 -0.013211960444999107 0.0 0.009629278816830808 0.0 0.0
0.026984326842638094 -0.011552556799939535 0.0 0.00958040049388982 0.0 0.0
0.023171365205707624 -0.009893072754099962 0.0 0.009415097682909742 0.0 0.0
0.019429236506828984 -0.008221535288978316 0.0 0.008964424857610514 0.0 0.0
0.01588182532292559 -0.006568031048993084 0.0 0.008060156774349486 0.0 0.0
0.01217353683915694 -0.005024781696258308 0.0 0.0062938987927697735 0.0 0.0
0.006889263495427745 -0.0016097334196654026 0.0 0.0045826525223169896 0.0 0.0
0.007018202117811125 -0.00017057544648036338 0.0 0.015061101464220433 0.0 0.0
0.010422904164806287 -0.04960558988332448 0.0 0.019293504975935388 0.0 0.0
0.00879715894535896 -0.04219687591239495 0.0 -0.019733829520150743 0.0 0.0
0.005352981529249201 -0.0026435913775522835 0.0 -0.01780947391412636 0.0 0.0
0.0045363135241959715 -0.00026874430133016927 0.0 -0.008683365357091187 0.0 0.0
0.00939013598615644 -0.0035532437263131 0.0 -0.00858851878075063 0.0 0.0
0.013270040637550934 -0.005405489663630889 0.0 -0.010417519590080334 0.0 0.0
0.016556536549781717 -0.0069464630562338795 0.0 -0.011424444039823038 0.0 0.0
0.01983519193561032 -0.008446467713649113 0.0 -0.011927264296392699 0.0 0.0
0.0231300913634277 -0.009896686632961497 0.0 -0.012126357440603475 0.0 0.0
0.026431079652079397 -0.011326102344824061 0.0 -0.012184472670243167 0.0 0.0
0.02973516354107305 -0.012746052159749586 0.0 -0.012190665928132614 0.0 0.0
0.03303957934150013 -0.014162174246450186 0.0 -0.012183305974889333 0.0 0.0
0.036343849289783514 -0.015576442919972067 0.0 -0.012179668882540042 0.0 0.0
0.039648222593837844 -0.016987603361059877 0.0 -0.012193704818134117 0.0 0.0
0.04295383119722021 -0.018392049090291095 0.0 -0.012249880728695648 0.0 0.0
0.04626468896859943 -0.01978658448513742 0.0 -0.01238790428586771 0.0 0.0
0.04959230768341566 -0.021179753484987133 0.0 -0.012638169332737002 0.0 0.0
0.052956375222610735 -0.02261652518290293 0.0 -0.012918139777374214 0.0 0.0
0.056351286486988755 -0.024198134654776694 0.0 -0.012802131858466749 0.0 0.0
0.05961818810170037 -0.02601697665335927 0.0 -0.011273386105887791 0.0 0.0
0.06221959678003536 -0.027858611891374743 0.0 -0.007013236816053677 0.0 0.0
0.06325504191353391 -0.02879033844243571 0.0 1.0885389811754465e-16 0.0 0.0
0.06221959678003543 -0.02785861189137505 0.0 0.007013236816052608 0.0 0.0
0.05961818810170051 -0.026016976653357372 0.0 0.011273386105888506 0.0 0.0
0.05635128648698844 -0.024198134654776954 0.0 0.01280213185846548 0.0 0.0
0.05295637522261054 -0.022616525182900526 0.0 0.012918139777373331 0.0 0.0
0.04959230768341599 -0.02117975348499249 0.0 0.012638169332737544 0.0 0.0
0.046264688968599366 -0.019786584485133558 0.0 0.012387904285869916 0.0 0.0
0.04295383119721985 -0.018392049090290494 0.0 0.012249880728693936 0.0 0.0
0.03964822259383807 -0.01698760336106143 0.0 0.01219370481813256 0.0 0.0
0.036343849289783764 -0.015576442919973663 0.0 0.012179668882538937 0.0 0.0
0.0330395793414999 -0.014162174246449936 0.0 0.012183305974890712 0.0 0.0
0.029735163541073056 -0.012746052159747747 0.0 0.012190665928131245 0.0 0.0
0.02643107965207947 -0.011326102344823506 0.0 0.012184472670244048 0.0 0.0
0.023130091363427648 -0.009896686632957705 0.0 0.012126357440603691 0.0 0.0
0.019835191935610487 -0.00844646771365087 0.0 0.01192726429639343 0.0 0.0
0.016556536549781658 -0.0069464630562328985 0.0 0.011424444039823718 0.0 0.0
0.013270040637550872 -0.00540548966363101 0.0 0.010417519590078797 0.0 0.0
0.009390135986156274 -0.003553243726312342 0.0 0.00858851878075044 0.0 0.0
0.0045363135241958796 -0.00026874430133034405 0.0 0.008683365357091034 0.0 0.0
0.005352981529249326 -0.0026435913775521994 0.0 0.01780947391412791 0.0 0.0
0.00879715894535884 -0.042196875912395085 0.0 0.019733829520149987 0.0 0.0
0.007644691761857928 -0.03578919952854062 0.0 -0.018826799193118342 0.0 0.0
0.004326520865076623 -0.004437902802549102 0.0 -0.01943376865103843 0.0 0.0
0.002872710816439203 0.00032519703708623854 0.0 -0.012650729405991754 0.0 0.0
0.006897215969009971 -0.0022233291125033777 0.0 -0.011153647849428775 0.0 0.0
0.010646254460884234 -0.004198062605182164 0.0 -0.012557785121617211 0.0 0.0
0.013664460428934645 -0.005667379589587706 0.0 -0.013566123001267002 0.0 0.0
0.01649091032688534 -0.006993609116580979 0.0 -0.014072059920578622 0.0 0.0
0.019270412181316553 -0.008237488563138709 0.0 -0.014282118435634358 0.0 0.0
0.022030250648388365 -0.009439421232280587 0.0 -0.014345491749167903 0.0 0.0
0.024784039307614785 -0.010624832099408755 0.0 -0.014353514274572664 0.0 0.0
0.027536550945252904 -0.011804454690662514 0.0 -0.014346904625281503 0.0 0.0
0.030288658862343318 -0.01298149033951543 0.0 -0.0143437918823558 0.0 0.0
0.033038771216867185 -0.01415354812986619 0.0 -0.014358838797277926 0.0 0.0
0.03578272176450987 -0.01531347737411462 0.0 -0.014416874248925828 0.0 0.0
0.03851556772275467 -0.016452546057580675 0.0 -0.014558234589375425 0.0 0.0
0.0412411437387296 -0.017576519623263374 0.0 -0.014815253775323441 0.0 0.0
0.04399088556296982 -0.01874686416855463 0.0 -0.015104634285662187 0.0 0.0
0.046820333030709364 -0.020129081988808223 0.0 -0.014967351350369109 0.0 0.0
0.04968428573751622 -0.02193291330903948 0.0 -0.013242877239164275 0.0 0.0
0.05211750333456438 -0.024001485572112933 0.0 -0.008309490560736411 0.0 0.0
0.053128952327844176 -0.025144807296629355 0.0 6.153931531027723e-16 0.0 0.0
0.052117503334564295 -0.0240014855721118 0.0 0.008309490560735398 0.0 0.0
0.04968428573751646 -0.02193291330903942 0.0 0.013242877239165732 0.0 0.0
0.046820333030709246 -0.02012908198880849 0.0 0.01496735135036939 0.0 0.0
0.043990885562969595 -0.01874686416855146 0.0 0.015104634285661184 0.0 0.0
0.04124114373872965 -0.017576519623263055 0.0 0.01481525377532189 0.0 0.0
0.038515567722754676 -0.01645254605757596 0.0 0.014558234589377082 0.0 0.0
0.03578272176450953 -0.015313477374116643 0.0 0.01441687424892486 0.0 0.0
0.033038771216866984 -0.014153548129865488 0.0 0.014358838797278024 0.0 0.0
0.03028865886234361 -0.012981490339515076 0.0 0.01434379188235621 0.0 0.0
0.02753655094525299 -0.011804454690664387 0.0 0.01434690462528198 0.0 0.0
0.0247840393076148 -0.010624832099407833 0.0 0.014353514274572127 0.0 0.0
0.022030250648388667 -0.009439421232280134 0.0 0.014345491749168614 0.0 0.0
0.01927041218131665 -0.008237488563135756 0.0 0.014282118435634466 0.0 0.0
0.01649091032688536 -0.006993609116582539 0.0 0.014072059920577855 0.0 0.0
0.01366446042893454 -0.00566737958958656 0.0 0.013566123001266753 0.0 0.0
0.0106462544608842 -0.004198062605183478 0.0 0.012557785121617053 0.0 0.0
0.00689721596901007 -0.002223329112502325 0.0 0.011153647849428242 0.0 0.0
0.002872710816439228 0.00032519703708632023 0.0 0.012650729405991134 0.0 0.0
0.0043265208650765845 -0.004437902802549297 0.0 0.019433768651039712 0.0 0.0
0.007644691761857699 -0.03578919952854078 0.0 0.018826799193117395 0.0 0.0
0.006700411920848845 -0.030238539731999504 0.0 -0.017455219332475624 0.0 0.0
0.0036051562171073148 -0.005558782513069696 0.0 -0.02021791886707501 0.0 0.0
0.0016564801402109508 0.0004977918414973276 0.0 -0.016000490868603733 0.0 0.0
0.004706706897563574 -0.0011123569551150883 0.0 -0.013722857867311316 0.0 0.0
0.008075979155072242 -0.0029987973104100524 0.0 -0.014506338319913423 0.0 0.0
0.010768354855762309 -0.004386536090641699 0.0 -0.01538293413291712 0.0 0.0
0.013143337109682494 -0.005540345296900785 0.0 -0.015851406255313335 0.0 0.0
0.015407686893237196 -0.006576352321010624 0.0 -0.01605040443910381 0.0 0.0
0.017627646011377687 -0.007551940011734065 0.0 -0.016112967187264668 0.0 0.0
0.019832132313408312 -0.008503203190160671 0.0 -0.01612188726215774 0.0 0.0
0.022033060487729825 -0.009446491125311669 0.0 -0.016116463088775974 0.0 0.0
0.02423297122397445 -0.010386288028274149 0.0 -0.01611405393311258 0.0 0.0
0.026428639891746764 -0.01131917865550931 0.0 -0.016128502649961643 0.0 0.0
0.028611099123289747 -0.012234774984353781 0.0 -0.016182689655177128 0.0 0.0
0.030767326749005244 -0.013119202144401501 0.0 -0.016314299084116562 0.0 0.0
0.03289484910334704 -0.013975579202718814 0.0 -0.016557349022455117 0.0 0.0
0.035039934494445424 -0.014882369974018237 0.0 -0.01684215021346294 0.0 0.0
0.03732766273453859 -0.016075010126104804 0.0 -0.016717383933376198 0.0 0.0
0.03984059629093382 -0.017899814452684668 0.0 -0.014923696588551248 0.0 0.0
0.0421822661740256 -0.02028138656868502 0.0 -0.009497148451144818 0.0 0.0
0.0432113584912502 -0.021717865749177948 0.0 8.560860353945543e-16 0.0 0.0
0.04218226617402551 -0.020281386568684577 0.0 0.009497148451145316 0.0 0.0
0.03984059629093387 -0.017899814452687176 0.0 0.01492369658855024 0.0 0.0
0.03732766273453858 -0.01607501012610132 0.0 0.016717383933376975 0.0 0.0
0.035039934494445216 -0.014882369974022633 0.0 0.016842150213461027 0.0 0.0
0.03289484910334694 -0.013975579202716368 0.0 0.01655734902245482 0.0 0.0
0.030767326749005418 -0.013119202144399518 0.0 0.016314299084115857 0.0 0.0
0.028611099123289595 -0.012234774984353523 0.0 0.016182689655177718 0.0 0.0
0.026428639891746836 -0.011319178655508272 0.0 0.016128502649962406 0.0 0.0
0.024232971223974654 -0.010386288028274253 0.0 0.016114053933113937 0.0 0.0
0.022033060487729836 -0.009446491125313457 0.0 0.01611646308877645 0.0 0.0
0.0198321323134083 -0.008503203190162425 0.0 0.01612188726215804 0.0 0.0
0.01762764601137771 -0.007551940011733505 0.0 0.01611296718726498 0.0 0.0
0.015407686893237071 -0.006576352321012484 0.0 0.01605040443910295 0.0 0.0
0.013143337109682462 -0.005540345296901182 0.0 0.015851406255312745 0.0 0.0
0.010768354855762465 -0.004386536090642622 0.0 0.015382934132916734 0.0 0.0
0.008075979155072223 -0.00299879731041094 0.0 0.014506338319914092 0.0 0.0
0.004706706897563368 -0.0011123569551151737 0.0 0.013722857867311415 0.0 0.0
0.0016564801402109014 0.0004977918414974426 0.0 0.016000490868604503 0.0 0.0
0.0036051562171073494 -0.005558782513069538 0.0 0.02021791886707541 0.0 0.0
0.006700411920848843 -0.030238539731999657 0.0 0.017455219332476023 0.0 0.0
0.005846476399391943 -0.02540359190555321 0.0 -0.015991519787783435 0.0 0.0
0.003016406922666007 -0.006108541793665267 0.0 -0.02039649754107413 0.0 0.0
0.0007145381170410367 0.0004738132278449877 0.0 -0.01858034696277023 0.0 0.0
0.002781635804728561 -0.00021364617438035934 0.0 -0.016062295475426494 0.0 0.0
0.005596663776530357 -0.0018487539172661284 0.0 -0.016231546638986398 0.0 0.0
0.007886232199797874 -0.0031129417392302744 0.0 -0.016872866829937303 0.0 0.0
0.009797207821980125 -0.004090051244033494 0.0 -0.017262686817652275 0.0 0.0
0.011543986540639494 -0.00491509588113528 0.0 -0.017432452261247136 0.0 0.0
0.013223682703668728 -0.005663815440225652 0.0 -0.017487483585786785 0.0 0.0
0.014879326530561138 -0.006381093849461378 0.0 -0.01749612099000889 0.0 0.0
0.016528971214650443 -0.00708816841227837 0.0 -0.01749206493176779 0.0 0.0
0.018176823925458014 -0.007790853382935234 0.0 -0.01749035300963538 0.0 0.0
0.019818365946730934 -0.008484882151700679 0.0 -0.017502638161360707 0.0 0.0
0.021440604723754517 -0.009157163586034132 0.0 -0.017547844223179104 0.0 0.0
0.023023471660788226 -0.009789285916576615 0.0 -0.017658131770776804 0.0 0.0
0.024558431687881733 -0.01038108097307788 0.0 -0.01786887403935939 0.0 0.0
0.02610577830124224 -0.011025032316268668 0.0 -0.018138458188650536 0.0 0.0
0.02786361417802529 -0.012026726531979042 0.0 -0.018067808533988115 0.0 0.0
0.030059101450781507 -0.01389007940529666 0.0 -0.016348928163356785 0.0 0.0
0.03237500830663519 -0.016666554207840304 0.0 -0.010619599297926195 0.0 0.0
0.03346210325407644 -0.018497704518407206 0.0 -3.0054084221298183e-16 0.0 0.0
0.032375008306635186 -0.016666554207841276 0.0 0.010619599297926791 0.0 0.0
0.03005910145078152 -0.0138900794052982 0.0 0.01634892816335601 0.0 0.0
0.027863614178025485 -0.012026726531974771 0.0 0.018067808533988986 0.0 0.0
0.02610577830124232 -0.011025032316269725 0.0 0.018138458188648645 0.0 0.0
0.024558431687881497 -0.010381080973074322 0.0 0.017868874039362204 0.0 0.0
0.02302347166078812 -0.009789285916575565 0.0 0.01765813177077631 0.0 0.0
0.021440604723754444 -0.009157163586037248 0.0 0.01754784422317821 0.0 0.0
0.01981836594673091 -0.00848488215170271 0.0 0.017502638161361123 0.0 0.0
0.01817682392545814 -0.007790853382932488 0.0 0.0174903530096355 0.0 0.0
0.01652897121465055 -0.007088168412280411 0.0 0.017492064931768282 0.0 0.0
0.014879326530561059 -0.006381093849462196 0.0 0.01749612099000877 0.0 0.0
0.013223682703668532 -0.005663815440225308 0.0 0.017487483585788017 0.0 0.0
0.011543986540639586 -0.004915095881135897 0.0 0.017432452261246664 0.0 0.0
0.009797207821980238 -0.00409005124403279 0.0 0.01726268681765237 0.0 0.0
0.007886232199797887 -0.003112941739231796 0.0 0.01687286682993691 0.0 0.0
0.005596663776530431 -0.001848753917265683 0.0 0.01623154663898608 0.0 0.0
0.002781635804728622 -0.00021364617438081977 0.0 0.01606229547542628 0.0 0.0
0.0007145381170409507 0.0004738132278450731 0.0 0.018580346962770763 0.0 0.0
0.003016406922666044 -0.006108541793665452 0.0 0.020396497541073037 0.0 0.0
0.005846476399392309 -0.025403591905553222 0.0 0.015991519787783435 0.0 0.0
0.00503255860669896 -0.021161878375503086 0.0 -0.014577772375395877 0.0 0.0
0.0024731747194311374 -0.006209819618690054 0.0 -0.02013489898609011 0.0 0.0
-7.027538242686368e-05 0.00039456259921396447 0.0 -0.020384968585719723 0.0 0.0
0.0010697796121655067 0.0005123830111827735 0.0 -0.018011918934297627 0.0 0.0
0.0032227035490867135 -0.0007695100111628962 0.0 -0.017675545180601736 0.0 0.0
0.005033184135244657 -0.0018574267129860792 0.0 -0.018027321808177673 0.0 0.0
0.006457462705040554 -0.00264564867008928 0.0 -0.01830215940399023 0.0 0.0
0.0076810058530840004 -0.003255169024253875 0.0 -0.018427787039698256 0.0 0.0
0.008818828923141607 -0.0037753537639426266 0.0 -0.018469426873628826 0.0 0.0
0.009925573591337061 -0.004258447017201088 0.0 -0.018476472719882415 0.0 0.0
0.011024186557037217 -0.0047294109754196295 0.0 -0.018473832528811907 0.0 0.0
0.012120271026138872 -0.005195218762221059 0.0 -0.018472721706495655 0.0 0.0
0.013208413475330945 -0.005650999169659721 0.0 -0.018481512441513942 0.0 0.0
0.01427261242392297 -0.006081662860195148 0.0 -0.018513598097624047 0.0 0.0
0.01528699847826067 -0.00646511695317124 0.0 -0.018593125372954003 0.0 0.0
0.016236323011945258 -0.0067967545183607436 0.0 -0.018755491219646453 0.0 0.0
0.017190176826950305 -0.00717664773736326 0.0 -0.01899914245728093 0.0 0.0
0.018417666321737556 -0.007974333129309228 0.0 -0.019024213114742988 0.0 0.0
0.02031062951788876 -0.009873470075702717 0.0 -0.017537496637762395 0.0 0.0
0.022658549771402355 -0.013124444936213217 0.0 -0.011715382276982806 0.0 0.0
0.02384547302549994 -0.015483278413688416 0.0 3.7600131341797294e-16 0.0 0.0
0.022658549771402185 -0.013124444936213519 0.0 0.011715382276983901 0.0 0.0
0.02031062951788876 -0.009873470075699442 0.0 0.01753749663776204 0.0 0.0
0.018417666321737688 -0.007974333129312828 0.0 0.01902421311474466 0.0 0.0
0.01719017682695021 -0.007176647737360124 0.0 0.018999142457279624 0.0 0.0
0.01623632301194506 -0.006796754518358175 0.0 0.018755491219645055 0.0 0.0
0.015286998478260597 -0.006465116953172674 0.0 0.018593125372954388 0.0 0.0
0.014272612423923017 -0.006081662860200407 0.0 0.01851359809762216 0.0 0.0
0.013208413475330989 -0.005650999169658847 0.0 0.018481512441514775 0.0 0.0
0.012120271026138841 -0.005195218762219947 0.0 0.01847272170649467 0.0 0.0
0.011024186557037045 -0.004729410975420003 0.0 0.018473832528811518 0.0 0.0
0.009925573591336962 -0.004258447017201866 0.0 0.018476472719882005 0.0 0.0
0.008818828923141562 -0.00377535376394216 0.0 0.018469426873629978 0.0 0.0
0.007681005853083929 -0.0032551690242547545 0.0 0.018427787039698718 0.0 0.0
0.006457462705040528 -0.0026456486700894865 0.0 0.018302159403990194 0.0 0.0
0.005033184135244792 -0.001857426712986251 0.0 0.018027321808176743 0.0 0.0
0.003222703549086994 -0.0007695100111624116 0.0 0.01767554518060157 0.0 0.0
0.001069779612165564 0.0005123830111820854 0.0 0.018011918934296902 0.0 0.0
-7.02753824271305e-05 0.0003945625992141373 0.0 0.020384968585719063 0.0 0.0
0.0024731747194310164 -0.006209819618690283 0.0 0.020134898986089125 0.0 0.0
0.005032558606699084 -0.021161878375503047 0.0 0.014577772375395832 0.0 0.0
0.004240134385175314 -0.01741558911284253 0.0 -0.013251338128553999 0.0 0.0
0.0019342620994869707 -0.005976464907932535 0.0 -0.019540844401246326 0.0 0.0
-0.0007741565519430742 0.0003417920181771941 0.0 -0.021467146903274087 0.0 0.0
-0.00048048969643749563 0.0011124809897956568 0.0 -0.019477115763449904 0.0 0.0
0.0009531620764612392 0.00023318584638554 0.0 -0.01877742402776946 0.0 0.0
0.0022190460597297916 -0.0006287166010208737 0.0 -0.018829985779016532 0.0 0.0
0.0031285357650804183 -0.0012099422540158675 0.0 -0.018964784535342515 0.0 0.0
0.003820124504691695 -0.001597603720100517 0.0 -0.019034907749142883 0.0 0.0
0.004413475843157639 -0.0018868577120920486 0.0 -0.01905883371655706 0.0 0.0
0.004970871412911403 -0.0021352399657695023 0.0 -0.019063164792717583 0.0 0.0
0.005518643453094379 -0.002370166903547162 0.0 -0.01906191130247729 0.0 0.0
0.006063363317545047 -0.002599418557862921 0.0 -0.019061302275509007 0.0 0.0
0.006599131135919485 -0.00281779112018098 0.0 -0.01906564867926677 0.0 0.0
0.007108134007674873 -0.0030090148837277997 0.0 -0.01908177234138449 0.0 0.0
0.007560276074811603 -0.0031484721685010263 0.0 -0.01912381070414088 0.0 0.0
0.007932536159029202 -0.003225965724958908 0.0 -0.019224240612947995 0.0 0.0
0.008295330586554562 -0.0033396694237777663 0.0 -0.019428163523829256 0.0 0.0
0.008979829756303398 -0.003908793545993248 0.0 -0.019582080773542915 0.0 0.0
0.010564977129434211 -0.005817125515925872 0.0 -0.018493399715779183 0.0 0.0
0.012995974061267455 -0.009618943415985485 0.0 -0.01282031030955002 0.0 0.0
0.014328417954088367 -0.012685431074211209 0.0 5.928417479150738e-16 0.0 0.0
0.012995974061267169 -0.009618943415986419 0.0 0.012820310309549589 0.0 0.0
0.010564977129434255 -0.005817125515922653 0.0 0.018493399715780033 0.0 0.0
0.008979829756303582 -0.003908793545997332 0.0 0.019582080773544668 0.0 0.0
0.008295330586554515 -0.0033396694237770135 0.0 0.019428163523829582 0.0 0.0
0.007932536159029242 -0.003225965724958768 0.0 0.019224240612947287 0.0 0.0
0.007560276074811465 -0.0031484721685018768 0.0 0.019123810704140883 0.0 0.0
0.007108134007674708 -0.0030090148837261643 0.0 0.019081772341384858 0.0 0.0
0.006599131135919476 -0.002817791120179485 0.0 0.01906564867926708 0.0 0.0
0.00606336331754484 -0.0025994185578641664 0.0 0.01906130227550779 0.0 0.0
0.0055186434530941275 -0.002370166903546049 0.0 0.01906191130247671 0.0 0.0
0.0049708714129115 -0.002135239965771149 0.0 0.01906316479271771 0.0 0.0
0.004413475843157626 -0.0018868577120926115 0.0 0.019058833716557314 0.0 0.0
0.003820124504691808 -0.0015976037201024481 0.0 0.019034907749144226 0.0 0.0
0.003128535765080594 -0.0012099422540146623 0.0 0.01896478453534274 0.0 0.0
0.002219046059729749 -0.0006287166010213342 0.0 0.018829985779016425 0.0 0.0
0.0009531620764612747 0.00023318584638549949 0.0 0.018777424027770037 0.0 0.0
-0.0004804896964374699 0.0011124809897948783 0.0 0.01947711576344985 0.0 0.0
-0.0007741565519428688 0.0003417920181771998 0.0 0.02146714690327376 0.0 0.0
0.0019342620994871303 -0.0059764649079322675 0.0 0.019540844401246323 0.0 0.0
0.004240134385175287 -0.017415589112842595 0.0 0.01325133812855473 0.0 0.0
0.003465900600211576 -0.014091801556034497 0.0 -0.012003410709996646 0.0 0.0
0.0013833175020562145 -0.005504507163452974 0.0 -0.018680422377544765 0.0 0.0
-0.0014446171629591054 0.000357677898201845 0.0 -0.021896298605705685 0.0 0.0
-0.0019136662631748995 0.001629024778546374 0.0 -0.02041021320004489 0.0 0.0
-0.0012216425941282336 0.0011637181804258908 0.0 -0.01948448857944554 0.0 0.0
-0.0005517958808058754 0.0005681993532094076 0.0 -0.019259859765722545 0.0 0.0
-0.00018639793212280124 0.00021481171177848527 0.0 -0.019243901667807765 0.0 0.0
-3.764231023445911e-05 5.692169168004387e-05 0.0 -0.01925173185689555 0.0 0.0
7.886763553794003e-06 1.4654921975183928e-06 0.0 -0.01925545286984638 0.0 0.0
1.5234168785407997e-05 -1.147354021899713e-05 0.0 -0.019256380552508286 0.0 0.0
1.2306946976317038e-05 -1.0404746862181005e-05 0.0 -0.019256466876496 0.0 0.0
6.134313563971642e-06 -3.4761893856093324e-06 0.0 -0.019256311909285243 0.0 0.0
-9.27455483892435e-06 1.4580024841770066e-05 0.0 -0.0192557453737802 0.0 0.0
-5.225090679659083e-05 6.0362247714907996e-05 0.0 -0.019254536854421786 0.0 0.0
-0.00015510109378674914 0.00015955447894125657 0.0 -0.01925556586079409 0.0 0.0
-0.00034930424536148996 0.00032836807386148306 0.0 -0.019283837898100335 0.0 0.0
-0.0005752265349024312 0.0004820278931948879 0.0 -0.019429217504762345 0.0 0.0
-0.0004577383206275205 0.00017618121856695156 0.0 -0.019727122292630066 0.0 0.0
0.0007911146768037518 -0.0016857817037114428 0.0 -0.019203289112943882 0.0 0.0
0.003349069268953684 -0.006106616590227903 0.0 -0.013968388235099131 0.0 0.0
0.0048787170233137445 -0.010129267625659704 0.0 -5.117434254131581e-16 0.0 0.0
0.003349069268953395 -0.006106616590227051 0.0 0.013968388235097145 0.0 0.0
0.0007911146768040721 -0.0016857817037133226 0.0 0.01920328911294403 0.0 0.0
-0.0004577383206271614 0.00017618121856572246 0.0 0.0197271222926295 0.0 0.0
-0.0005752265349023818 0.0004820278931944658 0.0 0.019429217504763056 0.0 0.0
-0.0003493042453615331 0.00032836807386220883 0.0 0.01928383789810123 0.0 0.0
-0.000155101093786593 0.00015955447894105078 0.0 0.019255565860793803 0.0 0.0
-5.22509067966729e-05 6.0362247719457634e-05 0.0 0.019254536854422355 0.0 0.0
-9.274554839124277e-06 1.4580024840968352e-05 0.0 0.019255745373780293 0.0 0.0
6.134313563952668e-06 -3.476189386316205e-06 0.0 0.019256311909285454 0.0 0.0
1.2306946976314544e-05 -1.0404746863453777e-05 0.0 0.01925646687649592 0.0 0.0
1.5234168785573988e-05 -1.1473540219441328e-05 0.0 0.01925638055250944 0.0 0.0
7.886763553990514e-06 1.4654921981171163e-06 0.0 0.019255452869846333 0.0 0.0
-3.764231023439373e-05 5.6921691678164294e-05 0.0 0.019251731856896128 0.0 0.0
-0.00018639793212286878 0.00021481171177815204 0.0 0.0192439016678072 0.0 0.0
-0.0005517958808059773 0.0005681993532097408 0.0 0.019259859765722757 0.0 0.0
-0.001221642594128327 0.0011637181804268358 0.0 0.019484488579445243 0.0 0.0
-0.0019136662631748596 0.0016290247785459865 0.0 0.02041021320004518 0.0 0.0
-0.0014446171629590478 0.0003576778982017632 0.0 0.02189629860570604 0.0 0.0
0.0013833175020562666 -0.005504507163452887 0.0 0.018680422377544515 0.0 0.0
0.0034659006002117007 -0.014091801556034528 0.0 0.012003410709996927 0.0 0.0
0.0027139582523818748 -0.011140190523876017 0.0 -0.010806917554489353 0.0 0.0
0.0008175257619674725 -0.004871327814467102 0.0 -0.01759177343388284 0.0 0.0
-0.0021094197330745073 0.0004592077086579897 0.0 -0.02174020269629331 0.0 0.0
-0.0032651345742838378 0.0020957725161872783 0.0 -0.020793516589861307 0.0 0.0
-0.0033154929260190277 0.002031819337360768 0.0 -0.019755634677451787 0.0 0.0
-0.0032796092010649903 0.0017321826357037037 0.0 -0.01929468783351833 0.0 0.0
-0.0034858762968773887 0.0016273929274037435 0.0 -0.01913156225307805 0.0 0.0
-0.0038917616439442014 0.0017080853884508676 0.0 -0.019075843417749993 0.0 0.0
-0.004397822162874656 0.0018895325183764054 0.0 -0.01905888104550753 0.0 0.0
-0.0049413268959537906 0.0021128451521617545 0.0 -0.019056270993910118 0.0 0.0
-0.005494835211928985 0.002349887177154387 0.0 -0.019057676804270497 0.0 0.0
-0.006051408328152705 0.002592604512640747 0.0 -0.019058003467627642 0.0 0.0
-0.0066167497614137375 0.002846063161085009 0.0 -0.019052590991197504 0.0 0.0
-0.007208428940088087 0.003126382069222966 0.0 -0.01903419187625147 0.0 0.0
-0.00785848922864435 0.003458683593025442 0.0 -0.018994201924967806 0.0 0.0
-0.008606150698495432 0.003864086647847302 0.0 -0.018944954827355618 0.0 0.0
-0.009415866575686377 0.004282621885841562 0.0 -0.019008032817982065 0.0 0.0
-0.009898676394284184 0.00428170481081637 0.0 -0.019436581633909957 0.0 0.0
-0.009042243295336864 0.002557310168459282 0.0 -0.01963204789448416 0.0 0.0
-0.006323496432179117 -0.002531414465818742 0.0 -0.0151910644330379 0.0 0.0
-0.004537302561628254 -0.0078579513652234 0.0 -2.8449465006019636e-16 0.0 0.0
-0.006323496432179505 -0.002531414465813261 0.0 0.015191064433037842 0.0 0.0
-0.009042243295336474 0.002557310168457765 0.0 0.019632047894484334 0.0 0.0
-0.00989867639428376 0.004281704810814415 0.0 0.019436581633910988 0.0 0.0
-0.0094158665756863 0.004282621885836369 0.0 0.01900803281798164 0.0 0.0
-0.008606150698495399 0.0038640866478480704 0.0 0.018944954827355195 0.0 0.0
-0.007858489228644289 0.003458683593024651 0.0 0.01899420192496773 0.0 0.0
-0.0072084289400884734 0.003126382069225413 0.0 0.01903419187625014 0.0 0.0
-0.00661674976141393 0.0028460631610849273 0.0 0.019052590991197493 0.0 0.0
-0.006051408328152482 0.0025926045126384435 0.0 0.01905800346762744 0.0 0.0
-0.005494835211928944 0.002349887177153407 0.0 0.019057676804270098 0.0 0.0
-0.004941326895953727 0.002112845152163819 0.0 0.01905627099391027 0.0 0.0
-0.004397822162874659 0.001889532518374911 0.0 0.019058881045506713 0.0 0.0
-0.003891761643944185 0.0017080853884482326 0.0 0.019075843417749212 0.0 0.0
-0.003485876296877361 0.0016273929274012763 0.0 0.01913156225307826 0.0 0.0
-0.003279609201064973 0.0017321826357058322 0.0 0.019294687833519585 0.0 0.0
-0.003315492926018952 0.002031819337362076 0.0 0.019755634677451606 0.0 0.0
-0.0032651345742838057 0.0020957725161878083 0.0 0.02079351658986134 0.0 0.0
-0.0021094197330744848 0.00045920770865826716 0.0 0.021740202696293308 0.0 0.0
0.0008175257619675983 -0.004871327814467033 0.0 0.017591773433882622 0.0 0.0
0.0027139582523820253 -0.011140190523876058 0.0 0.010806917554489062 0.0 0.0
0.0019922064567399807 -0.008529923378629482 0.0 -0.00963006682985224 0.0 0.0
0.00024165724560807307 -0.004137868222688154 0.0 -0.01629545555755243 0.0 0.0
-0.0027826119436844413 0.0006477291994403936 0.0 -0.02105788933139604 0.0 0.0
-0.004561253517222553 0.00253710147926535 0.0 -0.020626305192862692 0.0 0.0
-0.005343379872436663 0.002849319757455556 0.0 -0.019560632385096796 0.0 0.0
-0.005968264399107763 0.0028653811215754647 0.0 -0.01891347338332269 0.0 0.0
-0.006770289488378897 0.003027898385109516 0.0 -0.01861932544235867 0.0 0.0
-0.007742288028208573 0.003355968131665938 0.0 -0.018504725774172268 0.0 0.0
-0.008803690277962848 0.0037773831671667896 0.0 -0.01846869603248316 0.0 0.0
-0.009898809333397363 0.004237711702170103 0.0 -0.01846297875448976 0.0 0.0
-0.011002774848988501 0.004710700706434522 0.0 -0.01846572005516366 0.0 0.0
-0.012109286669436897 0.005188841837271071 0.0 -0.01846662168698668 0.0 0.0
-0.013223391525845628 0.00567672613734267 0.0 -0.018456974035210388 0.0 0.0
-0.014360736926555588 0.006189256219725319 0.0 -0.018422982872253493 0.0 0.0
-0.015550368020729167 0.006749516101410788 0.0 -0.018345406172507336 0.0 0.0
-0.016836038978409403 0.007380381687574749 0.0 -0.018220142318790676 0.0 0.0
-0.01821843387004746 0.008054355826939915 0.0 -0.018175668689096758 0.0 0.0
-0.01933967449953681 0.00840054479243203 0.0 -0.01868262237715348 0.0 0.0
-0.01896523370974583 0.006947910060499302 0.0 -0.01971597847250725 0.0 0.0
-0.01606842405186891 0.001183035135975495 0.0 -0.016513505164651526 0.0 0.0
-0.01395809765737253 -0.005938129256126711 0.0 1.682681771697503e-16 0.0 0.0
-0.016068424051868768 0.001183035135976064 0.0 0.016513505164651502 0.0 0.0
-0.018965233709745642 0.00694791006049993 0.0 0.01971597847250589 0.0 0.0
-0.01933967449953658 0.008400544792431047 0.0 0.01868262237715239 0.0 0.0
-0.018218433870047387 0.008054355826933994 0.0 0.018175668689098493 0.0 0.0
-0.01683603897840918 0.007380381687572286 0.0 0.018220142318791755 0.0 0.0
-0.015550368020729129 0.006749516101410344 0.0 0.018345406172507527 0.0 0.0
-0.014360736926555907 0.006189256219726695 0.0 0.018422982872253434 0.0 0.0
-0.013223391525845707 0.005676726137343409 0.0 0.018456974035211106 0.0 0.0
-0.012109286669437006 0.0051888418372699864 0.0 0.018466621686987993 0.0 0.0
-0.011002774848988857 0.004710700706435027 0.0 0.018465720055164548 0.0 0.0
-0.009898809333397597 0.004237711702170357 0.0 0.01846297875449022 0.0 0.0
-0.008803690277962945 0.0037773831671639585 0.0 0.0184686960324823 0.0 0.0
-0.007742288028208305 0.00335596813166596 0.0 0.01850472577417274 0.0 0.0
-0.006770289488378557 0.0030278983851103054 0.0 0.018619325442358794 0.0 0.0
-0.005968264399107844 0.002865381121575807 0.0 0.01891347338332328 0.0 0.0
-0.005343379872436689 0.0028493197574568237 0.0 0.019560632385096838 0.0 0.0
-0.004561253517222329 0.002537101479266279 0.0 0.020626305192862616 0.0 0.0
-0.002782611943684142 0.000647729199439948 0.0 0.02105788933139542 0.0 0.0
0.00024165724560816382 -0.004137868222687913 0.0 0.016295455557552966 0.0 0.0
0.0019922064567398103 -0.008529923378629456 0.0 0.009630066829851293 0.0 0.0
0.001310884487798097 -0.006246516932030843 0.0 -0.008443330590869706 0.0 0.0
-0.0003347801590004095 -0.003351720405079396 0.0 -0.014802116562770713 0.0 0.0
-0.0034682734546692727 0.0009148001444213327 0.0 -0.019897520805007958 0.0 0.0
-0.005820249583924618 0.0029687560681794655 0.0 -0.019915369725310193 0.0 0.0
-0.007319963457278714 0.0036283037148413253 0.0 -0.018877708330438222 0.0 0.0
-0.008624302743661293 0.003972514515449459 0.0 -0.018097977566423062 0.0 0.0
-0.010041793808812394 0.0044177940478477805 0.0 -0.017699198283138935 0.0 0.0
-0.01158990620278725 0.0050010857503552525 0.0 -0.017536047816912696 0.0 0.0
-0.013209909681820977 0.005665167754976488 0.0 -0.01748457395543154 0.0 0.0
-0.014857215183624518 0.006363122941325793 0.0 -0.01747666724664711 0.0 0.0
-0.01651148060370456 0.007072006442479347 0.0 -0.017480768014095732 0.0 0.0
-0.018167549981797565 0.007785269526164564 0.0 -0.017482361461124026 0.0 0.0
-0.019829442496780092 0.008506765087758045 0.0 -0.01746957488552214 0.0 0.0
-0.021509890239299473 0.00924944110433751 0.0 -0.017422985640725117 0.0 0.0
-0.023232426499119396 0.010033431911228071 0.0 -0.01731414407976341 0.0 0.0
-0.02503898487319661 0.0108786434658174 0.0 -0.017122865690448966 0.0 0.0
-0.02697253452824879 0.011788644183125477 0.0 -0.016952490037647042 0.0 0.0
-0.028766820998703813 0.012513176181046812 0.0 -0.01743988609681828 0.0 0.0
-0.029003746067845983 0.011515172278552952 0.0 -0.019353530265286988 0.0 0.0
-0.025940614540524817 0.005144720984461873 0.0 -0.01794487871546388 0.0 0.0
-0.02343237230427825 -0.004466992004810452 0.0 9.172350379227368e-16 0.0 0.0
-0.02594061454052456 0.00514472098445864 0.0 0.017944878715463252 0.0 0.0
-0.02900374606784599 0.011515172278552666 0.0 0.019353530265286814 0.0 0.0
-0.02876682099870373 0.012513176181046994 0.0 0.017439886096816966 0.0 0.0
-0.026972534528248666 0.011788644183123155 0.0 0.016952490037645956 0.0 0.0
-0.025038984873196835 0.010878643465817368 0.0 0.017122865690447468 0.0 0.0
-0.023232426499119562 0.010033431911224956 0.0 0.017314144079763265 0.0 0.0
-0.021509890239299653 0.009249441104339676 0.0 0.017422985640724167 0.0 0.0
-0.01982944249677997 0.008506765087757908 0.0 0.017469574885521668 0.0 0.0
-0.018167549981797423 0.007785269526167827 0.0 0.017482361461124817 0.0 0.0
-0.01651148060370464 0.0070720064424790625 0.0 0.017480768014096128 0.0 0.0
-0.014857215183624383 0.0063631229413255806 0.0 0.017476667246647693 0.0 0.0
-0.013209909681820916 0.005665167754975433 0.0 0.01748457395543192 0.0 0.0
-0.011589906202787239 0.00500108575035763 0.0 0.017536047816913952 0.0 0.0
-0.010041793808812455 0.004417794047849707 0.0 0.017699198283138436 0.0 0.0
-0.008624302743661437 0.003972514515448188 0.0 0.018097977566422986 0.0 0.0
-0.007319963457278844 0.00362830371484227 0.0 0.01887770833043831 0.0 0.0
-0.005820249583924617 0.00296875606818012 0.0 0.01991536972530941 0.0 0.0
-0.003468273454669118 0.00091480014442057 0.0 0.019897520805007153 0.0 0.0
-0.00033478015900036584 -0.003351720405079305 0.0 0.01480211656276979 0.0 0.0
0.0013108844877978917 -0.006246516932030794 0.0 0.008443330590869637 0.0 0.0
0.0006823544837409509 -0.004288885070723189 0.0 -0.007223963484659833 0.0 0.0
-0.0008984079908029691 -0.002550360918687088 0.0 -0.013118376293100874 0.0 0.0
-0.004162480349796172 0.0012452959762405994 0.0 -0.018295958584258976 0.0 0.0
-0.007053361528610054 0.003399185642500078 0.0 -0.018667991065764746 0.0 0.0
-0.009259038054461157 0.0043803830026491394 0.0 -0.01769076444323345 0.0 0.0
-0.011256267722164325 0.005060261840692879 0.0 -0.016833516601140637 0.0 0.0
-0.013304091345849606 0.005799791477069687 0.0 -0.01636451694884023 0.0 0.0
-0.015435895251174437 0.006644373321392356 0.0 -0.016167987918541786 0.0 0.0
-0.01761680483019896 0.007553124774017121 0.0 -0.01610639441678541 0.0 0.0
-0.01981653907084284 0.00848906678427008 0.0 -0.016097545621974282 0.0 0.0
-0.02202089132337126 0.009433752550756246 0.0 -0.0161029736062116 0.0 0.0
-0.02422626108902245 0.010381918831365536 0.0 -0.016105343943442672 0.0 0.0
-0.02643529022291875 0.011336504006369022 0.0 -0.016090827543995323 0.0 0.0
-0.028656881954269728 0.01230763136040852 0.0 -0.01603602234897017 0.0 0.0
-0.03090741733241764 0.013312214688420941 0.0 -0.015904361754358488 0.0 0.0
-0.033218217329987094 0.014363247088020469 0.0 -0.015665084268255337 0.0 0.0
-0.03566728426189803 0.015479183683950268 0.0 -0.015371315463826103 0.0 0.0
-0.03815101241864897 0.016583623315096562 0.0 -0.015700863663242116 0.0 0.0
-0.03917298495428824 0.01626986629685981 0.0 -0.01839502608799492 0.0 0.0
-0.03600664113351869 0.009509624445174532 0.0 -0.019455857991628744 0.0 0.0
-0.03302876011142447 -0.003580141764078139 0.0 1.2524703496552547e-15 0.0 0.0
-0.036006641133518424 0.009509624445174369 0.0 0.01945585799162862 0.0 0.0
-0.03917298495428801 0.01626986629685953 0.0 0.018395026087994627 0.0 0.0
-0.0381510124186491 0.016583623315094078 0.0 0.015700863663241763 0.0 0.0
-0.03566728426189792 0.015479183683950591 0.0 0.01537131546382682 0.0 0.0
-0.03321821732998681 0.014363247088021 0.0 0.01566508426825487 0.0 0.0
-0.030907417332417628 0.013312214688420226 0.0 0.015904361754358807 0.0 0.0
-0.028656881954269957 0.012307631360409776 0.0 0.016036022348969548 0.0 0.0
-0.02643529022291862 0.01133650400636774 0.0 0.01609082754399551 0.0 0.0
-0.024226261089022275 0.01038191883136663 0.0 0.01610534394344261 0.0 0.0
-0.0220208913233714 0.009433752550754506 0.0 0.016102973606211015 0.0 0.0
-0.019816539070842833 0.008489066784271951 0.0 0.016097545621974695 0.0 0.0
-0.017616804830199 0.007553124774017017 0.0 0.016106394416784933 0.0 0.0
-0.015435895251174465 0.006644373321393113 0.0 0.016167987918542175 0.0 0.0
-0.013304091345849397 0.005799791477069868 0.0 0.01636451694883987 0.0 0.0
-0.01125626772216426 0.0050602618406930585 0.0 0.016833516601140564 0.0 0.0
-0.009259038054461337 0.004380383002648381 0.0 0.017690764443233725 0.0 0.0
-0.007053361528610332 0.0033991856425007404 0.0 0.018667991065765163 0.0 0.0
-0.004162480349796458 0.0012452959762409058 0.0 0.01829595858425888 0.0 0.0
-0.0008984079908028997 -0.002550360918687298 0.0 0.013118376293099955 0.0 0.0
0.0006823544837413021 -0.004288885070723256 0.0 0.007223963484660052 0.0 0.0
0.00012183318002549413 -0.0026664594760077358 0.0 -0.005960678915946737 0.0 0.0
-0.0014313094431917688 -0.0017645408096034743 0.0 -0.011251727035507024 0.0 0.0
-0.004853830116475424 0.0016184513876760153 0.0 -0.016277937468281888 0.0 0.0
-0.008266085418259373 0.0038311769198594806 0.0 -0.016886293427804535 0.0 0.0
-0.011173772497428663 0.005116836581043699 0.0 -0.015987007573766577 0.0 0.0
-0.01387431194757106 0.0061368161262688025 0.0 -0.015109433919589736 0.0 0.0
-0.016562133763267928 0.007177608385901311 0.0 -0.014610678364833245 0.0 0.0
-0.019282019103339328 0.008287112023552748 0.0 -0.014399552893420603 0.0 0.0
-0.022024789942819464 0.009441545959042492 0.0 -0.014334330978808037 0.0 0.0
-0.02477674910009808 0.010615504994720795 0.0 -0.014325887477613807 0.0 0.0
-0.027530909840084022 0.011795863906333547 0.0 -0.014332451303446432 0.0 0.0
-0.03028546818695988 0.012978801720561841 0.0 -0.014335614853842828 0.0 0.0
-0.033041458798348154 0.014166336320504496 0.0 -0.014320810498045608 0.0 0.0
-0.03580294148073444 0.015364895625454927 0.0 -0.014263367205504496 0.0 0.0
-0.03857862347830857 0.016587472336174688 0.0 -0.014119541026159057 0.0 0.0
-0.04138132499322693 0.01784134374157601 0.0 -0.013853595142996987 0.0 0.0
-0.04429573455393759 0.019128249180478236 0.0 -0.01347535869351457 0.0 0.0
-0.04744312906882484 0.020557466531037336 0.0 -0.013504451725817794 0.0 0.0
-0.04946448345190305 0.021180617968072954 0.0 -0.016638393912372408 0.0 0.0
-0.046348499194784475 0.014504512593451313 0.0 -0.020927523266445452 0.0 0.0
-0.04285403616886025 -0.0034568037979627706 0.0 2.8015784137025435e-16 0.0 0.0
-0.04634849919478437 0.014504512593448305 0.0 0.020927523266445494 0.0 0.0
-0.04946448345190293 0.02118061796807125 0.0 0.01663839391237101 0.0 0.0
-0.04744312906882522 0.020557466531037922 0.0 0.013504451725817202 0.0 0.0
-0.04429573455393778 0.019128249180475915 0.0 0.013475358693515162 0.0 0.0
-0.04138132499322673 0.01784134374157239 0.0 0.013853595142997183 0.0 0.0
-0.03857862347830856 0.016587472336175253 0.0 0.014119541026159227 0.0 0.0
-0.03580294148073427 0.015364895625453047 0.0 0.014263367205504848 0.0 0.0
-0.033041458798347974 0.014166336320505086 0.0 0.014320810498045594 0.0 0.0
-0.030285468186959923 0.012978801720559966 0.0 0.0143356148538441 0.0 0.0
-0.027530909840083974 0.011795863906337517 0.0 0.014332451303446639 0.0 0.0
-0.024776749100098104 0.010615504994720673 0.0 0.014325887477614502 0.0 0.0
-0.022024789942819357 0.009441545959045082 0.0 0.014334330978808572 0.0 0.0
-0.01928201910333919 0.008287112023550631 0.0 0.014399552893420021 0.0 0.0
-0.016562133763267907 0.0071776083859012105 0.0 0.01461067836483363 0.0 0.0
-0.013874311947571185 0.00613681612626889 0.0 0.0151094339195895 0.0 0.0
-0.011173772497428732 0.005116836581043643 0.0 0.015987007573765897 0.0 0.0
-0.008266085418259472 0.0038311769198594043 0.0 0.01688629342780504 0.0 0.0
-0.004853830116475658 0.0016184513876760394 0.0 0.01627793746828088 0.0 0.0
-0.0014313094431918276 -0.0017645408096038388 0.0 0.011251727035507343 0.0 0.0
0.00012183318002556651 -0.002666459476007889 0.0 0.005960678915945513 0.0 0.0
-0.0003507701559497421 -0.0013959848773885612 0.0 -0.0046609149200930716 0.0 0.0
-0.0019087714528330428 -0.0010224099078344647 0.0 -0.009215041838561285 0.0 0.0
-0.005522733687063127 0.0020072965433962395 0.0 -0.013852976307746317 0.0 0.0
-0.00945966078732453 0.004263924633887699 0.0 -0.01456224504972636 0.0 0.0
-0.01307759948965445 0.005849415907124698 0.0 -0.013755569581259225 0.0 0.0
-0.01649000595996908 0.007211549289394414 0.0 -0.012919517145638196 0.0 0.0
-0.019821775685563363 0.008555659636334832 0.0 -0.01243569872693606 0.0 0.0
-0.023130358083447333 0.009930804786031982 0.0 -0.012230854991797989 0.0 0.0
-0.026434304076037266 0.011330725330337448 0.0 -0.012168915744188888 0.0 0.0
-0.029737760286295295 0.012742354898694906 0.0 -0.012162038663152396 0.0 0.0
-0.03304139881812153 0.014158228466624696 0.0 -0.01216926529522067 0.0 0.0
-0.0363451773695229 0.015575934945645093 0.0 -0.012173093070400622 0.0 0.0
-0.03964853091465944 0.016996552284862677 0.0 -0.012159383672433828 0.0 0.0
-0.042949686265362365 0.01842288316690538 0.0 -0.01210489320752171 0.0 0.0
-0.046249007260640976 0.01986058340554394 0.0 -0.011963941656031882 0.0 0.0
-0.04954006114014924 0.02131973974719615 0.0 -0.01168867942559549 0.0 0.0
-0.05286357579894769 0.02275645052126982 0.0 -0.011301179931507465 0.0 0.0
-0.05657195064200353 0.024369575272659195 0.0 -0.010981242630054832 0.0 0.0
-0.05982021276221053 0.026126937556036102 0.0 -0.013856937443975925 0.0 0.0
-0.05706576723276721 0.020455133509008162 0.0 -0.02203258055339624 0.0 0.0
-0.05308935129760266 -0.00431098991191488 0.0 -9.48026379621325e-16 0.0 0.0
-0.05706576723276724 0.02045513350900731 0.0 0.022032580553395496 0.0 0.0
-0.059820212762210626 0.02612693755603538 0.0 0.013856937443975929 0.0 0.0
-0.056571950642003585 0.02436957527265947 0.0 0.010981242630055897 0.0 0.0
-0.05286357579894764 0.0227564505212687 0.0 0.011301179931507498 0.0 0.0
-0.04954006114014911 0.021319739747192028 0.0 0.011688679425596347 0.0 0.0
-0.046249007260640636 0.0198605834055434 0.0 0.011963941656030964 0.0 0.0
-0.04294968626536217 0.018422883166904172 0.0 0.012104893207522116 0.0 0.0
-0.03964853091465948 0.016996552284862382 0.0 0.01215938367243359 0.0 0.0
-0.036345177369522946 0.015575934945645666 0.0 0.012173093070401597 0.0 0.0
-0.033041398818121605 0.01415822846662768 0.0 0.012169265295220572 0.0 0.0
-0.02973776028629524 0.01274235489869419 0.0 0.012162038663152802 0.0 0.0
-0.026434304076037005 0.011330725330339858 0.0 0.012168915744188841 0.0 0.0
-0.02313035808344715 0.009930804786028806 0.0 0.01223085499179683 0.0 0.0
-0.01982177568556352 0.008555659636334822 0.0 0.012435698726936315 0.0 0.0
-0.016490005959969318 0.007211549289394744 0.0 0.012919517145637244 0.0 0.0
-0.013077599489654396 0.005849415907125973 0.0 0.013755569581260237 0.0 0.0
-0.009459660787324577 0.0042639246338868775 0.0 0.014562245049725434 0.0 0.0
-0.005522733687063292 0.0020072965433955165 0.0 0.013852976307745683 0.0 0.0
-0.0019087714528331153 -0.0010224099078342088 0.0 0.009215041838561644 0.0 0.0
-0.0003507701559497453 -0.001395984877388735 0.0 0.004660914920092863 0.0 0.0
-0.0007072093741207447 -0.0004972628127553106 0.0 -0.003364138548848936 0.0 0.0
-0.0022948478241879024 -0.00035567942186391394 0.0 -0.007030895760139403 0.0 0.0
-0.006139626033512177 0.002376918810715444 0.0 -0.011007420784314376 0.0 0.0
-0.010633238198538226 0.00469610826251739 0.0 -0.011673357469524076 0.0 0.0
-0.014985667340930903 0.006591562650868227 0.0 -0.010987674381763525 0.0 0.0
-0.01911620635467802 0.008294661053659646 0.0 -0.010262416654762792 0.0 0.0
-0.023089388210431286 0.009938723531446494 0.0 -0.009840635782196306 0.0 0.0
-0.026983097958336574 0.011577008322563292 0.0 -0.009663310825472702 0.0 0.0
-0.030845725469182704 0.013220889151466325 0.0 -0.009611073315152523 0.0 0.0
-0.03469940709164002 0.014869482666698876 0.0 -0.009606386340981104 0.0 0.0
-0.038552162752088545 0.016520658522245386 0.0 -0.009613485935334797 0.0 0.0
-0.04240537732567075 0.01817338768173264 0.0 -0.009617381067166477 0.0 0.0
-0.04625692200790847 0.01982726357388468 0.0 -0.009606527309221378 0.0 0.0
-0.05009939580367894 0.021483273379194014 0.0 -0.00955866710634483 0.0 0.0
-0.05392097908398456 0.023135140516600115 0.0 -0.009440265210759616 0.0 0.0
-0.0577062159218434 0.024797101557632595 0.0 -0.009176120110765565 0.0 0.0
-0.06140260502845066 0.026409719529948097 0.0 -0.008834305922453066 0.0 0.0
-0.06545438156558091 0.027983603614928458 0.0 -0.008393253330194054 0.0 0.0
-0.07008119482509656 0.030807914959885815 0.0 -0.009951472404288092 0.0 0.0
-0.06826921563114813 0.027807713776530043 0.0 -0.02194443765939534 0.0 0.0
-0.06406701647331314 -0.00633292297611158 0.0 1.3183898417423734e-15 0.0 0.0
-0.06826921563114817 0.027807713776530713 0.0 0.021944437659395223 0.0 0.0
-0.07008119482509646 0.03080791495988565 0.0 0.00995147240428829 0.0 0.0
-0.06545438156558119 0.0279836036149304 0.0 0.008393253330195014 0.0 0.0
-0.06140260502845117 0.026409719529952566 0.0 0.008834305922452395 0.0 0.0
-0.05770621592184291 0.024797101557629094 0.0 0.009176120110764387 0.0 0.0
-0.05392097908398419 0.023135140516598394 0.0 0.009440265210759477 0.0 0.0
-0.05009939580367902 0.021483273379193115 0.0 0.009558667106345774 0.0 0.0
-0.046256922007908534 0.01982726357388295 0.0 0.009606527309220722 0.0 0.0
-0.042405377325670846 0.01817338768173357 0.0 0.009617381067167051 0.0 0.0
-0.03855216275208839 0.016520658522244304 0.0 0.009613485935333474 0.0 0.0
-0.034699407091639954 0.014869482666699522 0.0 0.009606386340982313 0.0 0.0
-0.03084572546918287 0.013220889151467692 0.0 0.00961107331515285 0.0 0.0
-0.026983097958336227 0.011577008322562926 0.0 0.009663310825472886 0.0 0.0
-0.023089388210431147 0.009938723531446852 0.0 0.009840635782195429 0.0 0.0
-0.01911620635467829 0.00829466105366164 0.0 0.010262416654762171 0.0 0.0
-0.014985667340930924 0.006591562650869374 0.0 0.01098767438176423 0.0 0.0
-0.010633238198538343 0.004696108262517042 0.0 0.011673357469523507 0.0 0.0
-0.006139626033512033 0.0023769188107147596 0.0 0.011007420784315729 0.0 0.0
-0.002294847824187673 -0.0003556794218634501 0.0 0.007030895760139758 0.0 0.0
-0.0007072093741207582 -0.0004972628127554627 0.0 0.0033641385488492703 0.0 0.0
-0.0009037657767146413 1.3393689027612309e-05 0.0 -0.002167526766362988 0.0 0.0
-0.0025343398733093858 0.00018951846118477351 0.0 -0.004735101441196423 0.0 0.0
-0.006662388225035849 0.002682397528481826 0.0 -0.007686761714658704 0.0 0.0
-0.011787586551141531 0.005131081385611053 0.0 -0.00818127724034892 0.0 0.0
-0.01691664837105375 0.007359436837445041 0.0 -0.007678472998620569 0.0 0.0
-0.021766793777685686 0.00939674674828423 0.0 -0.007141944850171806 0.0 0.0
-0.0263714551972969 0.011331622974711127 0.0 -0.006829992689910689 0.0 0.0
-0.030842285558967383 0.013227110847244454 0.0 -0.006699703639781486 0.0 0.0
-0.035259265894846396 0.015112133376190919 0.0 -0.006662101994719362 0.0 0.0
-0.039661431446525834 0.01699666007419967 0.0 -0.0066593662062462 0.0 0.0
-0.0440628994429829 0.018882976789547465 0.0 -0.0066650422167292 0.0 0.0
-0.04846609970574007 0.02077094926958601 0.0 -0.006668280814629378 0.0 0.0
-0.05286676173468216 0.022659355116583815 0.0 -0.006660555290950314 0.0 0.0
-0.057254361692250344 0.02454499018921583 0.0 -0.006626499006852702 0.0 0.0
-0.06159939320528639 0.026422013603667027 0.0 -0.0065341499064503605 0.0 0.0
-0.06588102189546956 0.02826082175324708 0.0 -0.006358126648774825 0.0 0.0
-0.06998110024008934 0.030128490374619822 0.0 -0.005977294270962637 0.0 0.0
-0.07404615435053281 0.03152497257420128 0.0 -0.0059957755750369365 0.0 0.0
-0.07988644286085661 0.034571497553305866 0.0 -0.005561268490148434 0.0 0.0
-0.08004127631926466 0.037086344538287165 0.0 -0.018567509856923972 0.0 0.0
-0.0764462262207992 -0.009466337986075367 0.0 -7.441963711940502e-16 0.0 0.0
-0.08004127631926469 0.03708634453828585 0.0 0.01856750985692248 0.0 0.0
-0.07988644286085686 0.03457149755330294 0.0 0.005561268490150575 0.0 0.0
-0.07404615435053334 0.031524972574207874 0.0 0.005995775575037091 0.0 0.0
-0.06998110024008947 0.03012849037462089 0.0 0.005977294270961686 0.0 0.0
-0.06588102189546916 0.02826082175324774 0.0 0.006358126648772243 0.0 0.0
-0.061599393205286165 0.026422013603666788 0.0 0.006534149906450917 0.0 0.0
-0.05725436169225052 0.02454499018921462 0.0 0.006626499006854176 0.0 0.0
-0.05286676173468231 0.022659355116583405 0.0 0.006660555290949107 0.0 0.0
-0.04846609970574004 0.02077094926958512 0.0 0.006668280814629387 0.0 0.0
-0.04406289944298287 0.01888297678955111 0.0 0.006665042216728057 0.0 0.0
-0.039661431446525716 0.016996660074200226 0.0 0.006659366206247007 0.0 0.0
-0.03525926589484642 0.015112133376192119 0.0 0.0066621019947195464 0.0 0.0
-0.03084228555896759 0.013227110847245096 0.0 0.00669970363978171 0.0 0.0
-0.02637145519729704 0.01133162297471238 0.0 0.006829992689909387 0.0 0.0
-0.021766793777685606 0.009396746748285646 0.0 0.007141944850171706 0.0 0.0
-0.016916648371053528 0.007359436837444474 0.0 0.007678472998620787 0.0 0.0
-0.011787586551141482 0.00513108138561063 0.0 0.008181277240348558 0.0 0.0
-0.00666238822503585 0.002682397528481405 0.0 0.007686761714659453 0.0 0.0
-0.00253433987330923 0.0001895184611848064 0.0 0.004735101441197274 0.0 0.0
-0.0009037657767144352 1.3393689027571665e-05 0.0 0.0021675267663624088 0.0 0.0
-0.0008668526616607232 0.0001342980125963681 0.0 -0.001276653901867499 0.0 0.0
-0.002538218401756975 0.000531406564279727 0.0 -0.0023774669743485102 0.0 0.0
-0.007033943986088236 0.0028688994694310572 0.0 -0.0037571547379296848 0.0 0.0
-0.012931843300601648 0.005585974710302821 0.0 -0.004042505037655232 0.0 0.0
-0.01889419337793741 0.008171051379018806 0.0 -0.0038271719444339385 0.0 0.0
-0.024456185553048224 0.010528807755344408 0.0 -0.0035683195067096386 0.0 0.0
-0.029674185689671742 0.012738725521884103 0.0 -0.0034118049549023664 0.0 0.0
-0.03470953282742487 0.01488212615173222 0.0 -0.003344157958157291 0.0 0.0
-0.03967488095374624 0.01700434204566824 0.0 -0.0033236058944632087 0.0 0.0
-0.044623427167856985 0.019123573156955048 0.0 -0.0033213897999035216 0.0 0.0
-0.04957330794442993 0.02124491230917985 0.0 -0.0033238479721393083 0.0 0.0
-0.05452700893128537 0.023368566245615507 0.0 -0.0033252044789517394 0.0 0.0
-0.059479069224437256 0.025492566482109687 0.0 -0.0033207453923205614 0.0 0.0
-0.06441335568966101 0.027611361614758842 0.0 -0.0033032835602676775 0.0 0.0
-0.06929821392503656 0.029713151487439006 0.0 -0.0032549408334235693 0.0 0.0
-0.07404962549014689 0.03176857036673513 0.0 -0.003167610405888268 0.0 0.0
-0.07866597295945098 0.0337328473573695 0.0 -0.0030065000562742037 0.0 0.0
-0.08251253874553523 0.03567391351197858 0.0 -0.0027948928045237837 0.0 0.0
-0.088481815702556 0.036135420797533506 0.0 -0.004407965443740442 0.0 0.0
-0.09227484242086831 0.048544926104863655 0.0 -0.006291244824100137 0.0 0.0
-0.09165513686800152 -0.012632487367375898 0.0 -2.7929047963226594e-16 0.0 0.0
-0.09227484242086811 0.048544926104864765 0.0 0.006291244824099122 0.0 0.0
-0.088481815702556 0.03613542079752854 0.0 0.004407965443740712 0.0 0.0
-0.08251253874553567 0.03567391351198117 0.0 0.0027948928045229164 0.0 0.0
-0.0786659729594512 0.0337328473573712 0.0 0.0030065000562752783 0.0 0.0
-0.0740496254901466 0.03176857036673633 0.0 0.0031676104058886 0.0 0.0
-0.06929821392503642 0.02971315148743961 0.0 0.0032549408334227176 0.0 0.0
-0.06441335568966103 0.02761136161475756 0.0 0.0033032835602659445 0.0 0.0
-0.05947906922443709 0.02549256648210943 0.0 0.0033207453923201503 0.0 0.0
-0.05452700893128528 0.02336856624561261 0.0 0.0033252044789531497 0.0 0.0
-0.04957330794442988 0.021244912309181522 0.0 0.003323847972139602 0.0 0.0
-0.04462342716785682 0.019123573156955332 0.0 0.0033213897999030415 0.0 0.0
-0.03967488095374617 0.017004342045669092 0.0 0.003323605894463226 0.0 0.0
-0.03470953282742502 0.01488212615173276 0.0 0.003344157958157409 0.0 0.0
-0.02967418568967184 0.012738725521884403 0.0 0.0034118049549035348 0.0 0.0
-0.024456185553048123 0.010528807755344028 0.0 0.003568319506708572 0.0 0.0
-0.01889419337793739 0.008171051379017257 0.0 0.003827171944434149 0.0 0.0
-0.01293184330060169 0.005585974710302073 0.0 0.004042505037656042 0.0 0.0
-0.007033943986088156 0.0028688994694314185 0.0 0.003757154737930148 0.0 0.0
-0.002538218401756929 0.0005314065642799054 0.0 0.0023774669743490983 0.0 0.0
-0.0008668526616608095 0.00013429801259630224 0.0 0.0012766539018663672 0.0 0.0
-0.0004633836149671735 9.845907489508109e-05 0.0 -0.0008555106289269746 0.0 0.0
-0.002156045030191224 0.0006381873371716841 0.0 -0.001004826453541016 0.0 0.0
-0.007183189068333297 0.0029249986761558126 0.0 -0.0012787885337590963 0.0 0.0
-0.014095709619612921 0.005821766511146085 0.0 -0.00142580348716195 0.0 0.0
-0.02094583275017569 0.008590084793073651 0.0 -0.001414943736801113 0.0 0.0
-0.02719929316892944 0.011103747938448334 0.0 -0.0013491013685434912 0.0 0.0
-0.03300289104572794 0.013446323302702576 0.0 -0.001298786223821746 0.0 0.0
-0.03858575295663815 0.01571096044992342 0.0 -0.001272827494411525 0.0 0.0
-0.044092162608457865 0.017950656054777844 0.0 -0.0012628849337766074 0.0 0.0
-0.0495848562191572 0.020186922342441512 0.0 -0.001260382925383388 0.0 0.0
-0.05508295098816459 0.02242573115902519 0.0 -0.0012602907404600117 0.0 0.0
-0.06058797053629608 0.024667440961914578 0.0 -0.0012600901369234242 0.0 0.0
-0.06609333332524221 0.026909171356546628 0.0 -0.0012575196621840206 0.0 0.0
-0.07158051341930474 0.02914698371191724 0.0 -0.0012505995613741388 0.0 0.0
-0.07700798625297411 0.03135578036259197 0.0 -0.0012339332252021959 0.0 0.0
-0.08228313223213664 0.033550020918076295 0.0 -0.0012016887464362446 0.0 0.0
-0.08724719512651564 0.035458742115107536 0.0 -0.001234459654101478 0.0 0.0
-0.09173500910691547 0.03803822118985184 0.0 -0.0008399238926552893 0.0 0.0
-0.09440891221221737 0.036157264213436784 0.0 -0.004124150682601671 0.0 0.0
-0.10405507639814346 0.0548153672574449 0.0 -1.8567143267665676e-05 0.0 0.0
-0.11313442700406649 -0.0139873861617101 0.0 8.465450562766819e-16 0.0 0.0
-0.10405507639814436 0.05481536725744572 0.0 1.8567143265822532e-05 0.0 0.0
-0.09440891221221807 0.036157264213430386 0.0 0.0041241506826013435 0.0 0.0
-0.09173500910691526 0.0380382211898535 0.0 0.0008399238926560856 0.0 0.0
-0.0872471951265153 0.03545874211511345 0.0 0.0012344596541028641 0.0 0.0
-0.08228313223213668 0.03355002091807564 0.0 0.0012016887464364016 0.0 0.0
-0.07700798625297409 0.03135578036258958 0.0 0.0012339332252028264 0.0 0.0
-0.0715805134193051 0.029146983711914255 0.0 0.0012505995613752343 0.0 0.0
-0.066093333325242 0.02690917135654669 0.0 0.0012575196621859679 0.0 0.0
-0.06058797053629548 0.024667440961910862 0.0 0.0012600901369255735 0.0 0.0
-0.05508295098816464 0.022425731159022123 0.0 0.001260290740461553 0.0 0.0
-0.04958485621915705 0.02018692234244258 0.0 0.0012603829253842154 0.0 0.0
-0.04409216260845761 0.01795065605477879 0.0 0.0012628849337773208 0.0 0.0
-0.03858575295663824 0.015710960449925385 0.0 0.0012728274944119504 0.0 0.0
-0.03300289104572828 0.013446323302701749 0.0 0.0012987862238246451 0.0 0.0
-0.02719929316892944 0.011103747938446604 0.0 0.0013491013685422801 0.0 0.0
-0.020945832750175156 0.008590084793072885 0.0 0.001414943736801168 0.0 0.0
-0.014095709619612665 0.005821766511145553 0.0 0.001425803487163152 0.0 0.0
-0.007183189068333491 0.0029249986761563005 0.0 0.0012787885337602694 0.0 0.0
-0.0021560450301916336 0.0006381873371719998 0.0 0.001004826453541122 0.0 0.0
-0.00046338361496759415 9.845907489482825e-05 0.0 0.0008555106289259551 0.0 0.0