# vtk DataFile Version 3.0
Some data
ASCII
DATASET UNSTRUCTURED_GRID
POINTS 861 float
0.0 0.0 0.0
0.4 0.0 0.0
0.8 0.0 0.0
1.2000000000000002 0.0 0.0
1.6 0.0 0.0
2.0 0.0 0.0
2.4000000000000004 0.0 0.0
2.8000000000000003 0.0 0.0
3.2 0.0 0.0
3.6 0.0 0.0
4.0 0.0 0.0
4.4 0.0 0.0
4.800000000000001 0.0 0.0
5.2 0.0 0.0
5.6000000000000005 0.0 0.0
6.0 0.0 0.0
6.4 0.0 0.0
6.800000000000001 0.0 0.0
7.2 0.0 0.0
7.6000000000000005 0.0 0.0
8.0 0.0 0.0
8.4 0.0 0.0
8.8 0.0 0.0
9.200000000000001 0.0 0.0
9.600000000000001 0.0 0.0
10.0 0.0 0.0
10.4 0.0 0.0
10.8 0.0 0.0
11.200000000000001 0.0 0.0
11.600000000000001 0.0 0.0
12.0 0.0 0.0
12.4 0.0 0.0
12.8 0.0 0.0
13.200000000000001 0.0 0.0
13.600000000000001 0.0 0.0
14.0 0.0 0.0
14.4 0.0 0.0
14.8 0.0 0.0
15.200000000000001 0.0 0.0
15.600000000000001 0.0 0.0
16.0 0.0 0.0
0.0 0.1 0.0
0.4 0.1 0.0
0.8 0.1 0.0
1.2000000000000002 0.1 0.0
1.6 0.1 0.0
2.0 0.1 0.0
2.4000000000000004 0.1 0.0
2.8000000000000003 0.1 0.0
3.2 0.1 0.0
3.6 0.1 0.0
4.0 0.1 0.0
4.4 0.1 0.0
4.800000000000001 0.1 0.0
5.2 0.1 0.0
5.6000000000000005 0.1 0.0
6.0 0.1 0.0
6.4 0.1 0.0
6.800000000000001 0.1 0.0
7.2 0.1 0.0
7.6000000000000005 0.1 0.0
8.0 0.1 0.0
8.4 0.1 0.0
8.8 0.1 0.0
9.200000000000001 0.1 0.0
9.600000000000001 0.1 0.0
10.0 0.1 0.0
10.4 0.1 0.0
10.8 0.1 0.0
11.200000000000001 0.1 0.0
11.600000000000001 0.1 0.0
12.0 0.1 0.0
12.4 0.1 0.0
12.8 0.1 0.0
13.200000000000001 0.1 0.0
13.600000000000001 0.1 0.0
14.0 0.1 0.0
14.4 0.1 0.0
14.8 0.1 0.0
15.200000000000001 0.1 0.0
15.600000000000001 0.1 0.0
16.0 0.1 0.0
0.0 0.2 0.0
0.4 0.2 0.0
0.8 0.2 0.0
1.2000000000000002 0.2 0.0
1.6 0.2 0.0
2.0 0.2 0.0
2.4000000000000004 0.2 0.0
2.8000000000000003 0.2 0.0
3.2 0.2 0.0
3.6 0.2 0.0
4.0 0.2 0.0
4.4 0.2 0.0
4.800000000000001 0.2 0.0
5.2 0.2 0.0
5.6000000000000005 0.2 0.0
6.0 0.2 0.0
6.4 0.2 0.0
6.800000000000001 0.2 0.0
7.2 0.2 0.0
7.6000000000000005 0.2 0.0
8.0 0.2 0.0
8.4 0.2 0.0
8.8 0.2 0.0
9.200000000000001 0.2 0.0
9.600000000000001 0.2 0.0
10.0 0.2 0.0
10.4 0.2 0.0
10.8 0.2 0.0
11.200000000000001 0.2 0.0
11.600000000000001 0.2 0.0
12.0 0.2 0.0
12.4 0.2 0.0
12.8 0.2 0.0
13.200000000000001 0.2 0.0
13.600000000000001 0.2 0.0
14.0 0.2 0.0
14.4 0.2 0.0
14.8 0.2 0.0
15.200000000000001 0.2 0.0
15.600000000000001 0.2 0.0
16.0 0.2 0.0
0.0 0.30000000000000004 0.0
0.4 0.30000000000000004 0.0
0.8 0.30000000000000004 0.0
1.2000000000000002 0.30000000000000004 0.0
1.6 0.30000000000000004 0.0
2.0 0.30000000000000004 0.0
2.4000000000000004 0.30000000000000004 0.0
2.8000000000000003 0.30000000000000004 0.0
3.2 0.30000000000000004 0.0
3.6 0.30000000000000004 0.0
4.0 0.30000000000000004 0.0
4.4 0.30000000000000004 0.0
4.800000000000001 0.30000000000000004 0.0
5.2 0.30000000000000004 0.0
5.6000000000000005 0.30000000000000004 0.0
6.0 0.30000000000000004 0.0
6.4 0.30000000000000004 0.0
6.800000000000001 0.30000000000000004 0.0
7.2 0.30000000000000004 0.0
7.6000000000000005 0.30000000000000004 0.0
8.0 0.30000000000000004 0.0
8.4 0.30000000000000004 0.0
8.8 0.30000000000000004 0.0
9.200000000000001 0.30000000000000004 0.0
9.600000000000001 0.30000000000000004 0.0
10.0 0.30000000000000004 0.0
10.4 0.30000000000000004 0.0
10.8 0.30000000000000004 0.0
11.200000000000001 0.30000000000000004 0.0
11.600000000000001 0.30000000000000004 0.0
12.0 0.30000000000000004 0.0
12.4 0.30000000000000004 0.0
12.8 0.30000000000000004 0.0
13.200000000000001 0.30000000000000004 0.0
13.600000000000001 0.30000000000000004 0.0
14.0 0.30000000000000004 0.0
14.4 0.30000000000000004 0.0
14.8 0.30000000000000004 0.0
15.200000000000001 0.30000000000000004 0.0
15.600000000000001 0.30000000000000004 0.0
16.0 0.30000000000000004 0.0
0.0 0.4 0.0
0.4 0.4 0.0
0.8 0.4 0.0
1.2000000000000002 0.4 0.0
1.6 0.4 0.0
2.0 0.4 0.0
2.4000000000000004 0.4 0.0
2.8000000000000003 0.4 0.0
3.2 0.4 0.0
3.6 0.4 0.0
4.0 0.4 0.0
4.4 0.4 0.0
4.800000000000001 0.4 0.0
5.2 0.4 0.0
5.6000000000000005 0.4 0.0
6.0 0.4 0.0
6.4 0.4 0.0
6.800000000000001 0.4 0.0
7.2 0.4 0.0
7.6000000000000005 0.4 0.0
8.0 0.4 0.0
8.4 0.4 0.0
8.8 0.4 0.0
9.200000000000001 0.4 0.0
9.600000000000001 0.4 0.0
10.0 0.4 0.0
10.4 0.4 0.0
10.8 0.4 0.0
11.200000000000001 0.4 0.0
11.600000000000001 0.4 0.0
12.0 0.4 0.0
12.4 0.4 0.0
12.8 0.4 0.0
13.200000000000001 0.4 0.0
13.600000000000001 0.4 0.0
14.0 0.4 0.0
14.4 0.4 0.0
14.8 0.4 0.0
15.200000000000001 0.4 0.0
15.600000000000001 0.4 0.0
16.0 0.4 0.0
0.0 0.5 0.0
0.4 0.5 0.0
0.8 0.5 0.0
1.2000000000000002 0.5 0.0
1.6 0.5 0.0
2.0 0.5 0.0
2.4000000000000004 0.5 0.0
2.8000000000000003 0.5 0.0
3.2 0.5 0.0
3.6 0.5 0.0
4.0 0.5 0.0
4.4 0.5 0.0
4.800000000000001 0.5 0.0
5.2 0.5 0.0
5.6000000000000005 0.5 0.0
6.0 0.5 0.0
6.4 0.5 0.0
6.800000000000001 0.5 0.0
7.2 0.5 0.0
7.6000000000000005 0.5 0.0
8.0 0.5 0.0
8.4 0.5 0.0
8.8 0.5 0.0
9.200000000000001 0.5 0.0
9.600000000000001 0.5 0.0
10.0 0.5 0.0
10.4 0.5 0.0
10.8 0.5 0.0
11.200000000000001 0.5 0.0
11.600000000000001 0.5 0.0
12.0 0.5 0.0
12.4 0.5 0.0
12.8 0.5 0.0
13.200000000000001 0.5 0.0
13.600000000000001 0.5 0.0
14.0 0.5 0.0
14.4 0.5 0.0
14.8 0.5 0.0
15.200000000000001 0.5 0.0
15.600000000000001 0.5 0.0
16.0 0.5 0.0
0.0 0.6000000000000001 0.0
0.4 0.6000000000000001 0.0
0.8 0.6000000000000001 0.0
1.2000000000000002 0.6000000000000001 0.0
1.6 0.6000000000000001 0.0
2.0 0.6000000000000001 0.0
2.4000000000000004 0.6000000000000001 0.0
2.8000000000000003 0.6000000000000001 0.0
3.2 0.6000000000000001 0.0
3.6 0.6000000000000001 0.0
4.0 0.6000000000000001 0.0
4.4 0.6000000000000001 0.0
4.800000000000001 0.6000000000000001 0.0
5.2 0.6000000000000001 0.0
5.6000000000000005 0.6000000000000001 0.0
6.0 0.6000000000000001 0.0
6.4 0.6000000000000001 0.0
6.800000000000001 0.6000000000000001 0.0
7.2 0.6000000000000001 0.0
7.6000000000000005 0.6000000000000001 0.0
8.0 0.6000000000000001 0.0
8.4 0.6000000000000001 0.0
8.8 0.6000000000000001 0.0
9.200000000000001 0.6000000000000001 0.0
9.600000000000001 0.6000000000000001 0.0
10.0 0.6000000000000001 0.0
10.4 0.6000000000000001 0.0
10.8 0.6000000000000001 0.0
11.200000000000001 0.6000000000000001 0.0
11.600000000000001 0.6000000000000001 0.0
12.0 0.6000000000000001 0.0
12.4 0.6000000000000001 0.0
12.8 0.6000000000000001 0.0
13.200000000000001 0.6000000000000001 0.0
13.600000000000001 0.6000000000000001 0.0
14.0 0.6000000000000001 0.0
14.4 0.6000000000000001 0.0
14.8 0.6000000000000001 0.0
15.200000000000001 0.6000000000000001 0.0
15.600000000000001 0.6000000000000001 0.0
16.0 0.6000000000000001 0.0
0.0 0.7000000000000001 0.0
0.4 0.7000000000000001 0.0
0.8 0.7000000000000001 0.0
1.2000000000000002 0.7000000000000001 0.0
1.6 0.7000000000000001 0.0
2.0 0.7000000000000001 0.0
2.4000000000000004 0.7000000000000001 0.0
2.8000000000000003 0.7000000000000001 0.0
3.2 0.7000000000000001 0.0
3.6 0.7000000000000001 0.0
4.0 0.7000000000000001 0.0
4.4 0.7000000000000001 0.0
4.800000000000001 0.7000000000000001 0.0
5.2 0.7000000000000001 0.0
5.6000000000000005 0.7000000000000001 0.0
6.0 0.7000000000000001 0.0
6.4 0.7000000000000001 0.0
6.800000000000001 0.7000000000000001 0.0
7.2 0.7000000000000001 0.0
7.6000000000000005 0.7000000000000001 0.0
8.0 0.7000000000000001 0.0
8.4 0.7000000000000001 0.0
8.8 0.7000000000000001 0.0
9.200000000000001 0.7000000000000001 0.0
9.600000000000001 0.7000000000000001 0.0
10.0 0.7000000000000001 0.0
10.4 0.7000000000000001 0.0
10.8 0.7000000000000001 0.0
11.200000000000001 0.7000000000000001 0.0
11.600000000000001 0.7000000000000001 0.0
12.0 0.7000000000000001 0.0
12.4 0.7000000000000001 0.0
12.8 0.7000000000000001 0.0
13.200000000000001 0.7000000000000001 0.0
13.600000000000001 0.7000000000000001 0.0
14.0 0.7000000000000001 0.0
14.4 0.7000000000000001 0.0
14.8 0.7000000000000001 0.0
15.200000000000001 0.7000000000000001 0.0
15.600000000000001 0.7000000000000001 0.0
16.0 0.7000000000000001 0.0
0.0 0.8 0.0
0.4 0.8 0.0
0.8 0.8 0.0
1.2000000000000002 0.8 0.0
1.6 0.8 0.0
2.0 0.8 0.0
2.4000000000000004 0.8 0.0
2.8000000000000003 0.8 0.0
3.2 0.8 0.0
3.6 0.8 0.0
4.0 0.8 0.0
4.4 0.8 0.0
4.800000000000001 0.8 0.0
5.2 0.8 0.0
5.6000000000000005 0.8 0.0
6.0 0.8 0.0
6.4 0.8 0.0
6.800000000000001 0.8 0.0
7.2 0.8 0.0
7.6000000000000005 0.8 0.0
8.0 0.8 0.0
8.4 0.8 0.0
8.8 0.8 0.0
9.200000000000001 0.8 0.0
9.600000000000001 0.8 0.0
10.0 0.8 0.0
10.4 0.8 0.0
10.8 0.8 0.0
11.200000000000001 0.8 0.0
11.600000000000001 0.8 0.0
12.0 0.8 0.0
12.4 0.8 0.0
12.8 0.8 0.0
13.200000000000001 0.8 0.0
13.600000000000001 0.8 0.0
14.0 0.8 0.0
14.4 0.8 0.0
14.8 0.8 0.0
15.200000000000001 0.8 0.0
15.600000000000001 0.8 0.0
16.0 0.8 0.0
0.0 0.9 0.0
0.4 0.9 0.0
0.8 0.9 0.0
1.2000000000000002 0.9 0.0
1.6 0.9 0.0
2.0 0.9 0.0
2.4000000000000004 0.9 0.0
2.8000000000000003 0.9 0.0
3.2 0.9 0.0
3.6 0.9 0.0
4.0 0.9 0.0
4.4 0.9 0.0
4.800000000000001 0.9 0.0
5.2 0.9 0.0
5.6000000000000005 0.9 0.0
6.0 0.9 0.0
6.4 0.9 0.0
6.800000000000001 0.9 0.0
7.2 0.9 0.0
7.6000000000000005 0.9 0.0
8.0 0.9 0.0
8.4 0.9 0.0
8.8 0.9 0.0
9.200000000000001 0.9 0.0
9.600000000000001 0.9 0.0
10.0 0.9 0.0
10.4 0.9 0.0
10.8 0.9 0.0
11.200000000000001 0.9 0.0
11.600000000000001 0.9 0.0
12.0 0.9 0.0
12.4 0.9 0.0
12.8 0.9 0.0
13.200000000000001 0.9 0.0
13.600000000000001 0.9 0.0
14.0 0.9 0.0
14.4 0.9 0.0
14.8 0.9 0.0
15.200000000000001 0.9 0.0
15.600000000000001 0.9 0.0
16.0 0.9 0.0
0.0 1.0 0.0
0.4 1.0 0.0
0.8 1.0 0.0
1.2000000000000002 1.0 0.0
1.6 1.0 0.0
2.0 1.0 0.0
2.4000000000000004 1.0 0.0
2.8000000000000003 1.0 0.0
3.2 1.0 0.0
3.6 1.0 0.0
4.0 1.0 0.0
4.4 1.0 0.0
4.800000000000001 1.0 0.0
5.2 1.0 0.0
5.6000000000000005 1.0 0.0
6.0 1.0 0.0
6.4 1.0 0.0
6.800000000000001 1.0 0.0
7.2 1.0 0.0
7.6000000000000005 1.0 0.0
8.0 1.0 0.0
8.4 1.0 0.0
8.8 1.0 0.0
9.200000000000001 1.0 0.0
9.600000000000001 1.0 0.0
10.0 1.0 0.0
10.4 1.0 0.0
10.8 1.0 0.0
11.200000000000001 1.0 0.0
11.600000000000001 1.0 0.0
12.0 1.0 0.0
12.4 1.0 0.0
12.8 1.0 0.0
13.200000000000001 1.0 0.0
13.600000000000001 1.0 0.0
14.0 1.0 0.0
14.4 1.0 0.0
14.8 1.0 0.0
15.200000000000001 1.0 0.0
15.600000000000001 1.0 0.0
16.0 1.0 0.0
0.0 1.1 0.0
0.4 1.1 0.0
0.8 1.1 0.0
1.2000000000000002 1.1 0.0
1.6 1.1 0.0
2.0 1.1 0.0
2.4000000000000004 1.1 0.0
2.8000000000000003 1.1 0.0
3.2 1.1 0.0
3.6 1.1 0.0
4.0 1.1 0.0
4.4 1.1 0.0
4.800000000000001 1.1 0.0
5.2 1.1 0.0
5.6000000000000005 1.1 0.0
6.0 1.1 0.0
6.4 1.1 0.0
6.800000000000001 1.1 0.0
7.2 1.1 0.0
7.6000000000000005 1.1 0.0
8.0 1.1 0.0
8.4 1.1 0.0
8.8 1.1 0.0
9.200000000000001 1.1 0.0
9.600000000000001 1.1 0.0
10.0 1.1 0.0
10.4 1.1 0.0
10.8 1.1 0.0
11.200000000000001 1.1 0.0
11.600000000000001 1.1 0.0
12.0 1.1 0.0
12.4 1.1 0.0
12.8 1.1 0.0
13.200000000000001 1.1 0.0
13.600000000000001 1.1 0.0
14.0 1.1 0.0
14.4 1.1 0.0
14.8 1.1 0.0
15.200000000000001 1.1 0.0
15.600000000000001 1.1 0.0
16.0 1.1 0.0
0.0 1.2000000000000002 0.0
0.4 1.2000000000000002 0.0
0.8 1.2000000000000002 0.0
1.2000000000000002 1.2000000000000002 0.0
1.6 1.2000000000000002 0.0
2.0 1.2000000000000002 0.0
2.4000000000000004 1.2000000000000002 0.0
2.8000000000000003 1.2000000000000002 0.0
3.2 1.2000000000000002 0.0
3.6 1.2000000000000002 0.0
4.0 1.2000000000000002 0.0
4.4 1.2000000000000002 0.0
4.800000000000001 1.2000000000000002 0.0
5.2 1.2000000000000002 0.0
5.6000000000000005 1.2000000000000002 0.0
6.0 1.2000000000000002 0.0
6.4 1.2000000000000002 0.0
6.800000000000001 1.2000000000000002 0.0
7.2 1.2000000000000002 0.0
7.6000000000000005 1.2000000000000002 0.0
8.0 1.2000000000000002 0.0
8.4 1.2000000000000002 0.0
8.8 1.2000000000000002 0.0
9.200000000000001 1.2000000000000002 0.0
9.600000000000001 1.2000000000000002 0.0
10.0 1.2000000000000002 0.0
10.4 1.2000000000000002 0.0
10.8 1.2000000000000002 0.0
11.200000000000001 1.2000000000000002 0.0
11.600000000000001 1.2000000000000002 0.0
12.0 1.2000000000000002 0.0
12.4 1.2000000000000002 0.0
12.8 1.2000000000000002 0.0
13.200000000000001 1.2000000000000002 0.0
13.600000000000001 1.2000000000000002 0.0
14.0 1.2000000000000002 0.0
14.4 1.2000000000000002 0.0
14.8 1.2000000000000002 0.0
15.200000000000001 1.2000000000000002 0.0
15.600000000000001 1.2000000000000002 0.0
16.0 1.2000000000000002 0.0
0.0 1.3 0.0
0.4 1.3 0.0
0.8 1.3 0.0
1.2000000000000002 1.3 0.0
1.6 1.3 0.0
2.0 1.3 0.0
2.4000000000000004 1.3 0.0
2.8000000000000003 1.3 0.0
3.2 1.3 0.0
3.6 1.3 0.0
4.0 1.3 0.0
4.4 1.3 0.0
4.800000000000001 1.3 0.0
5.2 1.3 0.0
5.6000000000000005 1.3 0.0
6.0 1.3 0.0
6.4 1.3 0.0
6.800000000000001 1.3 0.0
7.2 1.3 0.0
7.6000000000000005 1.3 0.0
8.0 1.3 0.0
8.4 1.3 0.0
8.8 1.3 0.0
9.200000000000001 1.3 0.0
9.600000000000001 1.3 0.0
10.0 1.3 0.0
10.4 1.3 0.0
10.8 1.3 0.0
11.200000000000001 1.3 0.0
11.600000000000001 1.3 0.0
12.0 1.3 0.0
12.4 1.3 0.0
12.8 1.3 0.0
13.200000000000001 1.3 0.0
13.600000000000001 1.3 0.0
14.0 1.3 0.0
14.4 1.3 0.0
14.8 1.3 0.0
15.200000000000001 1.3 0.0
15.600000000000001 1.3 0.0
16.0 1.3 0.0
0.0 1.4000000000000001 0.0
0.4 1.4000000000000001 0.0
0.8 1.4000000000000001 0.0
1.2000000000000002 1.4000000000000001 0.0
1.6 1.4000000000000001 0.0
2.0 1.4000000000000001 0.0
2.4000000000000004 1.4000000000000001 0.0
2.8000000000000003 1.4000000000000001 0.0
3.2 1.4000000000000001 0.0
3.6 1.4000000000000001 0.0
4.0 1.4000000000000001 0.0
4.4 1.4000000000000001 0.0
4.800000000000001 1.4000000000000001 0.0
5.2 1.4000000000000001 0.0
5.6000000000000005 1.4000000000000001 0.0
6.0 1.4000000000000001 0.0
6.4 1.4000000000000001 0.0
6.800000000000001 1.4000000000000001 0.0
7.2 1.4000000000000001 0.0
7.6000000000000005 1.4000000000000001 0.0
8.0 1.4000000000000001 0.0
8.4 1.4000000000000001 0.0
8.8 1.4000000000000001 0.0
9.200000000000001 1.4000000000000001 0.0
9.600000000000001 1.4000000000000001 0.0
10.0 1.4000000000000001 0.0
10.4 1.4000000000000001 0.0
10.8 1.4000000000000001 0.0
11.200000000000001 1.4000000000000001 0.0
11.600000000000001 1.4000000000000001 0.0
12.0 1.4000000000000001 0.0
12.4 1.4000000000000001 0.0
12.8 1.4000000000000001 0.0
13.200000000000001 1.4000000000000001 0.0
13.600000000000001 1.4000000000000001 0.0
14.0 1.4000000000000001 0.0
14.4 1.4000000000000001 0.0
14.8 1.4000000000000001 0.0
15.200000000000001 1.4000000000000001 0.0
15.600000000000001 1.4000000000000001 0.0
16.0 1.4000000000000001 0.0
0.0 1.5 0.0
0.4 1.5 0.0
0.8 1.5 0.0
1.2000000000000002 1.5 0.0
1.6 1.5 0.0
2.0 1.5 0.0
2.4000000000000004 1.5 0.0
2.8000000000000003 1.5 0.0
3.2 1.5 0.0
3.6 1.5 0.0
4.0 1.5 0.0
4.4 1.5 0.0
4.800000000000001 1.5 0.0
5.2 1.5 0.0
5.6000000000000005 1.5 0.0
6.0 1.5 0.0
6.4 1.5 0.0
6.800000000000001 1.5 0.0
7.2 1.5 0.0
7.6000000000000005 1.5 0.0
8.0 1.5 0.0
8.4 1.5 0.0
8.8 1.5 0.0
9.200000000000001 1.5 0.0
9.600000000000001 1.5 0.0
10.0 1.5 0.0
10.4 1.5 0.0
10.8 1.5 0.0
11.200000000000001 1.5 0.0
11.600000000000001 1.5 0.0
12.0 1.5 0.0
12.4 1.5 0.0
12.8 1.5 0.0
13.200000000000001 1.5 0.0
13.600000000000001 1.5 0.0
14.0 1.5 0.0
14.4 1.5 0.0
14.8 1.5 0.0
15.200000000000001 1.5 0.0
15.600000000000001 1.5 0.0
16.0 1.5 0.0
0.0 1.6 0.0
0.4 1.6 0.0
0.8 1.6 0.0
1.2000000000000002 1.6 0.0
1.6 1.6 0.0
2.0 1.6 0.0
2.4000000000000004 1.6 0.0
2.8000000000000003 1.6 0.0
3.2 1.6 0.0
3.6 1.6 0.0
4.0 1.6 0.0
4.4 1.6 0.0
4.800000000000001 1.6 0.0
5.2 1.6 0.0
5.6000000000000005 1.6 0.0
6.0 1.6 0.0
6.4 1.6 0.0
6.800000000000001 1.6 0.0
7.2 1.6 0.0
7.6000000000000005 1.6 0.0
8.0 1.6 0.0
8.4 1.6 0.0
8.8 1.6 0.0
9.200000000000001 1.6 0.0
9.600000000000001 1.6 0.0
10.0 1.6 0.0
10.4 1.6 0.0
10.8 1.6 0.0
11.200000000000001 1.6 0.0
11.600000000000001 1.6 0.0
12.0 1.6 0.0
12.4 1.6 0.0
12.8 1.6 0.0
13.200000000000001 1.6 0.0
13.600000000000001 1.6 0.0
14.0 1.6 0.0
14.4 1.6 0.0
14.8 1.6 0.0
15.200000000000001 1.6 0.0
15.600000000000001 1.6 0.0
16.0 1.6 0.0
0.0 1.7000000000000002 0.0
0.4 1.7000000000000002 0.0
0.8 1.7000000000000002 0.0
1.2000000000000002 1.7000000000000002 0.0
1.6 1.7000000000000002 0.0
2.0 1.7000000000000002 0.0
2.4000000000000004 1.7000000000000002 0.0
2.8000000000000003 1.7000000000000002 0.0
3.2 1.7000000000000002 0.0
3.6 1.7000000000000002 0.0
4.0 1.7000000000000002 0.0
4.4 1.7000000000000002 0.0
4.800000000000001 1.7000000000000002 0.0
5.2 1.7000000000000002 0.0
5.6000000000000005 1.7000000000000002 0.0
6.0 1.7000000000000002 0.0
6.4 1.7000000000000002 0.0
6.800000000000001 1.7000000000000002 0.0
7.2 1.7000000000000002 0.0
7.6000000000000005 1.7000000000000002 0.0
8.0 1.7000000000000002 0.0
8.4 1.7000000000000002 0.0
8.8 1.7000000000000002 0.0
9.200000000000001 1.7000000000000002 0.0
9.600000000000001 1.7000000000000002 0.0
10.0 1.7000000000000002 0.0
10.4 1.7000000000000002 0.0
10.8 1.7000000000000002 0.0
11.200000000000001 1.7000000000000002 0.0
11.600000000000001 1.7000000000000002 0.0
12.0 1.7000000000000002 0.0
12.4 1.7000000000000002 0.0
12.8 1.7000000000000002 0.0
13.200000000000001 1.7000000000000002 0.0
13.600000000000001 1.7000000000000002 0.0
14.0 1.7000000000000002 0.0
14.4 1.7000000000000002 0.0
14.8 1.7000000000000002 0.0
15.200000000000001 1.7000000000000002 0.0
15.600000000000001 1.7000000000000002 0.0
16.0 1.7000000000000002 0.0
0.0 1.8 0.0
0.4 1.8 0.0
0.8 1.8 0.0
1.2000000000000002 1.8 0.0
1.6 1.8 0.0
2.0 1.8 0.0
2.4000000000000004 1.8 0.0
2.8000000000000003 1.8 0.0
3.2 1.8 0.0
3.6 1.8 0.0
4.0 1.8 0.0
4.4 1.8 0.0
4.800000000000001 1.8 0.0
5.2 1.8 0.0
5.6000000000000005 1.8 0.0
6.0 1.8 0.0
6.4 1.8 0.0
6.800000000000001 1.8 0.0
7.2 1.8 0.0
7.6000000000000005 1.8 0.0
8.0 1.8 0.0
8.4 1.8 0.0
8.8 1.8 0.0
9.200000000000001 1.8 0.0
9.600000000000001 1.8 0.0
10.0 1.8 0.0
10.4 1.8 0.0
10.8 1.8 0.0
11.200000000000001 1.8 0.0
11.600000000000001 1.8 0.0
12.0 1.8 0.0
12.4 1.8 0.0
12.8 1.8 0.0
13.200000000000001 1.8 0.0
13.600000000000001 1.8 0.0
14.0 1.8 0.0
14.4 1.8 0.0
14.8 1.8 0.0
15.200000000000001 1.8 0.0
15.600000000000001 1.8 0.0
16.0 1.8 0.0
0.0 1.9000000000000001 0.0
0.4 1.9000000000000001 0.0
0.8 1.9000000000000001 0.0
1.2000000000000002 1.9000000000000001 0.0
1.6 1.9000000000000001 0.0
2.0 1.9000000000000001 0.0
2.4000000000000004 1.9000000000000001 0.0
2.8000000000000003 1.9000000000000001 0.0
3.2 1.9000000000000001 0.0
3.6 1.9000000000000001 0.0
4.0 1.9000000000000001 0.0
4.4 1.9000000000000001 0.0
4.800000000000001 1.9000000000000001 0.0
5.2 1.9000000000000001 0.0
5.6000000000000005 1.9000000000000001 0.0
6.0 1.9000000000000001 0.0
6.4 1.9000000000000001 0.0
6.800000000000001 1.9000000000000001 0.0
7.2 1.9000000000000001 0.0
7.6000000000000005 1.9000000000000001 0.0
8.0 1.9000000000000001 0.0
8.4 1.9000000000000001 0.0
8.8 1.9000000000000001 0.0
9.200000000000001 1.9000000000000001 0.0
9.600000000000001 1.9000000000000001 0.0
10.0 1.9000000000000001 0.0
10.4 1.9000000000000001 0.0
10.8 1.9000000000000001 0.0
11.200000000000001 1.9000000000000001 0.0
11.600000000000001 1.9000000000000001 0.0
12.0 1.9000000000000001 0.0
12.4 1.9000000000000001 0.0
12.8 1.9000000000000001 0.0
13.200000000000001 1.9000000000000001 0.0
13.600000000000001 1.9000000000000001 0.0
14.0 1.9000000000000001 0.0
14.4 1.9000000000000001 0.0
14.8 1.9000000000000001 0.0
15.200000000000001 1.9000000000000001 0.0
15.600000000000001 1.9000000000000001 0.0
16.0 1.9000000000000001 0.0
0.0 2.0 0.0
0.4 2.0 0.0
0.8 2.0 0.0
1.2000000000000002 2.0 0.0
1.6 2.0 0.0
2.0 2.0 0.0
2.4000000000000004 2.0 0.0
2.8000000000000003 2.0 0.0
3.2 2.0 0.0
3.6 2.0 0.0
4.0 2.0 0.0
4.4 2.0 0.0
4.800000000000001 2.0 0.0
5.2 2.0 0.0
5.6000000000000005 2.0 0.0
6.0 2.0 0.0
6.4 2.0 0.0
6.800000000000001 2.0 0.0
7.2 2.0 0.0
7.6000000000000005 2.0 0.0
8.0 2.0 0.0
8.4 2.0 0.0
8.8 2.0 0.0
9.200000000000001 2.0 0.0
9.600000000000001 2.0 0.0
10.0 2.0 0.0
10.4 2.0 0.0
10.8 2.0 0.0
11.200000000000001 2.0 0.0
11.600000000000001 2.0 0.0
12.0 2.0 0.0
12.4 2.0 0.0
12.8 2.0 0.0
13.200000000000001 2.0 0.0
13.600000000000001 2.0 0.0
14.0 2.0 0.0
14.4 2.0 0.0
14.8 2.0 0.0
15.200000000000001 2.0 0.0
15.600000000000001 2.0 0.0
16.0 2.0 0.0
CELLS 800 4000
4 0 1 42 41
4 1 2 43 42
4 2 3 44 43
4 3 4 45 44
4 4 5 46 45
4 5 6 47 46
4 6 7 48 47
4 7 8 49 48
4 8 9 50 49
4 9 10 51 50
4 10 11 52 51
4 11 12 53 52
4 12 13 54 53
4 13 14 55 54
4 14 15 56 55
4 15 16 57 56
4 16 17 58 57
4 17 18 59 58
4 18 19 60 59
4 19 20 61 60
4 20 21 62 61
4 21 22 63 62
4 22 23 64 63
4 23 24 65 64
4 24 25 66 65
4 25 26 67 66
4 26 27 68 67
4 27 28 69 68
4 28 29 70 69
4 29 30 71 70
4 30 31 72 71
4 31 32 73 72
4 32 33 74 73
4 33 34 75 74
4 34 35 76 75
4 35 36 77 76
4 36 37 78 77
4 37 38 79 78
4 38 39 80 79
4 39 40 81 80
4 41 42 83 82
4 42 43 84 83
4 43 44 85 84
4 44 45 86 85
4 45 46 87 86
4 46 47 88 87
4 47 48 89 88
4 48 49 90 89
4 49 50 91 90
4 50 51 92 91
4 51 52 93 92
4 52 53 94 93
4 53 54 95 94
4 54 55 96 95
4 55 56 97 96
4 56 57 98 97
4 57 58 99 98
4 58 59 100 99
4 59 60 101 100
4 60 61 102 101
4 61 62 103 102
4 62 63 104 103
4 63 64 105 104
4 64 65 106 105
4 65 66 107 106
4 66 67 108 107
4 67 68 109 108
4 68 69 110 109
4 69 70 111 110
4 70 71 112 111
4 71 72 113 112
4 72 73 114 113
4 73 74 115 114
4 74 75 116 115
4 75 76 117 116
4 76 77 118 117
4 77 78 119 118
4 78 79 120 119
4 79 80 121 120
4 80 81 122 121
4 82 83 124 123
4 83 84 125 124
4 84 85 126 125
4 85 86 127 126
4 86 87 128 127
4 87 88 129 128
4 88 89 130 129
4 89 90 131 130
4 90 91 132 131
4 91 92 133 132
4 92 93 134 133
4 93 94 135 134
4 94 95 136 135
4 95 96 137 136
4 96 97 138 137
4 97 98 139 138
4 98 99 140 139
4 99 100 141 140
4 100 101 142 141
4 101 102 143 142
4 102 103 144 143
4 103 104 145 144
4 104 105 146 145
4 105 106 147 146
4 106 107 148 147
4 107 108 149 148
4 108 109 150 149
4 109 110 151 150
4 110 111 152 151
4 111 112 153 152
4 112 113 154 153
4 113 114 155 154
4 114 115 156 155
4 115 116 157 156
4 116 117 158 157
4 117 118 159 158
4 118 119 160 159
4 119 120 161 160
4 120 121 162 161
4 121 122 163 162
4 123 124 165 164
4 124 125 166 165
4 125 126 167 166
4 126 127 168 167
4 127 128 169 168
4 128 129 170 169
4 129 130 171 170
4 130 131 172 171
4 131 132 173 172
4 132 133 174 173
4 133 134 175 174
4 134 135 176 175
4 135 136 177 176
4 136 137 178 177
4 137 138 179 178
4 138 139 180 179
4 139 140 181 180
4 140 141 182 181
4 141 142 183 182
4 142 143 184 183
4 143 144 185 184
4 144 145 186 185
4 145 146 187 186
4 146 147 188 187
4 147 148 189 188
4 148 149 190 189
4 149 150 191 190
4 150 151 192 191
4 151 152 193 192
4 152 153 194 193
4 153 154 195 194
4 154 155 196 195
4 155 156 197 196
4 156 157 198 197
4 157 158 199 198
4 158 159 200 199
4 159 160 201 200
4 160 161 202 201
4 161 162 203 202
4 162 163 204 203
4 164 165 206 205
4 165 166 207 206
4 166 167 208 207
4 167 168 209 208
4 168 169 210 209
4 169 170 211 210
4 170 171 212 211
4 171 172 213 212
4 172 173 214 213
4 173 174 215 214
4 174 175 216 215
4 175 176 217 216
4 176 177 218 217
4 177 178 219 218
4 178 179 220 219
4 179 180 221 220
4 180 181 222 221
4 181 182 223 222
4 182 183 224 223
4 183 184 225 224
4 184 185 226 225
4 185 186 227 226
4 186 187 228 227
4 187 188 229 228
4 188 189 230 229
4 189 190 231 230
4 190 191 232 231
4 191 192 233 232
4 192 193 234 233
4 193 194 235 234
4 194 195 236 235
4 195 196 237 236
4 196 197 238 237
4 197 198 239 238
4 198 199 240 239
4 199 200 241 240
4 200 201 242 241
4 201 202 243 242
4 202 203 244 243
4 203 204 245 244
4 205 206 247 246
4 206 207 248 247
4 207 208 249 248
4 208 209 250 249
4 209 210 251 250
4 210 211 252 251
4 211 212 253 252
4 212 213 254 253
4 213 214 255 254
4 214 215 256 255
4 215 216 257 256
4 216 217 258 257
4 217 218 259 258
4 218 219 260 259
4 219 220 261 260
4 220 221 262 261
4 221 222 263 262
4 222 223 264 263
4 223 224 265 264
4 224 225 266 265
4 225 226 267 266
4 226 227 268 267
4 227 228 269 268
4 228 229 270 269
4 229 230 271 270
4 230 231 272 271
4 231 232 273 272
4 232 233 274 273
4 233 234 275 274
4 234 235 276 275
4 235 236 277 276
4 236 237 278 277
4 237 238 279 278
4 238 239 280 279
4 239 240 281 280
4 240 241 282 281
4 241 242 283 282
4 242 243 284 283
4 243 244 285 284
4 244 245 286 285
4 246 247 288 287
4 247 248 289 288
4 248 249 290 289
4 249 250 291 290
4 250 251 292 291
4 251 252 293 292
4 252 253 294 293
4 253 254 295 294
4 254 255 296 295
4 255 256 297 296
4 256 257 298 297
4 257 258 299 298
4 258 259 300 299
4 259 260 301 300
4 260 261 302 301
4 261 262 303 302
4 262 263 304 303
4 263 264 305 304
4 264 265 306 305
4 265 266 307 306
4 266 267 308 307
4 267 268 309 308
4 268 269 310 309
4 269 270 311 310
4 270 271 312 311
4 271 272 313 312
4 272 273 314 313
4 273 274 315 314
4 274 275 316 315
4 275 276 317 316
4 276 277 318 317
4 277 278 319 318
4 278 279 320 319
4 279 280 321 320
4 280 281 322 321
4 281 282 323 322
4 282 283 324 323
4 283 284 325 324
4 284 285 326 325
4 285 286 327 326
4 287 288 329 328
4 288 289 330 329
4 289 290 331 330
4 290 291 332 331
4 291 292 333 332
4 292 293 334 333
4 293 294 335 334
4 294 295 336 335
4 295 296 337 336
4 296 297 338 337
4 297 298 339 338
4 298 299 340 339
4 299 300 341 340
4 300 301 342 341
4 301 302 343 342
4 302 303 344 343
4 303 304 345 344
4 304 305 346 345
4 305 306 347 346
4 306 307 348 347
4 307 308 349 348
4 308 309 350 349
4 309 310 351 350
4 310 311 352 351
4 311 312 353 352
4 312 313 354 353
4 313 314 355 354
4 314 315 356 355
4 315 316 357 356
4 316 317 358 357
4 317 318 359 358
4 318 319 360 359
4 319 320 361 360
4 320 321 362 361
4 321 322 363 362
4 322 323 364 363
4 323 324 365 364
4 324 325 366 365
4 325 326 367 366
4 326 327 368 367
4 328 329 370 369
4 329 330 371 370
4 330 331 372 371
4 331 332 373 372
4 332 333 374 373
4 333 334 375 374
4 334 335 376 375
4 335 336 377 376
4 336 337 378 377
4 337 338 379 378
4 338 339 380 379
4 339 340 381 380
4 340 341 382 381
4 341 342 383 382
4 342 343 384 383
4 343 344 385 384
4 344 345 386 385
4 345 346 387 386
4 346 347 388 387
4 347 348 389 388
4 348 349 390 389
4 349 350 391 390
4 350 351 392 391
4 351 352 393 392
4 352 353 394 393
4 353 354 395 394
4 354 355 396 395
4 355 356 397 396
4 356 357 398 397
4 357 358 399 398
4 358 359 400 399
4 359 360 401 400
4 360 361 402 401
4 361 362 403 402
4 362 363 404 403
4 363 364 405 404
4 364 365 406 405
4 365 366 407 406
4 366 367 408 407
4 367 368 409 408
4 369 370 411 410
4 370 371 412 411
4 371 372 413 412
4 372 373 414 413
4 373 374 415 414
4 374 375 416 415
4 375 376 417 416
4 376 377 418 417
4 377 378 419 418
4 378 379 420 419
4 379 380 421 420
4 380 381 422 421
4 381 382 423 422
4 382 383 424 423
4 383 384 425 424
4 384 385 426 425
4 385 386 427 426
4 386 387 428 427
4 387 388 429 428
4 388 389 430 429
4 389 390 431 430
4 390 391 432 431
4 391 392 433 432
4 392 393 434 433
4 393 394 435 434
4 394 395 436 435
4 395 396 437 436
4 396 397 438 437
4 397 398 439 438
4 398 399 440 439
4 399 400 441 440
4 400 401 442 441
4 401 402 443 442
4 402 403 444 443
4 403 404 445 444
4 404 405 446 445
4 405 406 447 446
4 406 407 448 447
4 407 408 449 448
4 408 409 450 449
4 410 411 452 451
4 411 412 453 452
4 412 413 454 453
4 413 414 455 454
4 414 415 456 455
4 415 416 457 456
4 416 417 458 457
4 417 418 459 458
4 418 419 460 459
4 419 420 461 460
4 420 421 462 461
4 421 422 463 462
4 422 423 464 463
4 423 424 465 464
4 424 425 466 465
4 425 426 467 466
4 426 427 468 467
4 427 428 469 468
4 428 429 470 469
4 429 430 471 470
4 430 431 472 471
4 431 432 473 472
4 432 433 474 473
4 433 434 475 474
4 434 435 476 475
4 435 436 477 476
4 436 437 478 477
4 437 438 479 478
4 438 439 480 479
4 439 440 481 480
4 440 441 482 481
4 441 442 483 482
4 442 443 484 483
4 443 444 485 484
4 444 445 486 485
4 445 446 487 486
4 446 447 488 487
4 447 448 489 488
4 448 449 490 489
4 449 450 491 490
4 451 452 493 492
4 452 453 494 493
4 453 454 495 494
4 454 455 496 495
4 455 456 497 496
4 456 457 498 497
4 457 458 499 498
4 458 459 500 499
4 459 460 501 500
4 460 461 502 501
4 461 462 503 502
4 462 463 504 503
4 463 464 505 504
4 464 465 506 505
4 465 466 507 506
4 466 467 508 507
4 467 468 509 508
4 468 469 510 509
4 469 470 511 510
4 470 471 512 511
4 471 472 513 512
4 472 473 514 513
4 473 474 515 514
4 474 475 516 515
4 475 476 517 516
4 476 477 518 517
4 477 478 519 518
4 478 479 520 519
4 479 480 521 520
4 480 481 522 521
4 481 482 523 522
4 482 483 524 523
4 483 484 525 524
4 484 485 526 525
4 485 486 527 526
4 486 487 528 527
4 487 488 529 528
4 488 489 530 529
4 489 490 531 530
4 490 491 532 531
4 492 493 534 533
4 493 494 535 534
4 494 495 536 535
4 495 496 537 536
4 496 497 538 537
4 497 498 539 538
4 498 499 540 539
4 499 500 541 540
4 500 501 542 541
4 501 502 543 542
4 502 503 544 543
4 503 504 545 544
4 504 505 546 545
4 505 506 547 546
4 506 507 548 547
4 507 508 549 548
4 508 509 550 549
4 509 510 551 550
4 510 511 552 551
4 511 512 553 552
4 512 513 554 553
4 513 514 555 554
4 514 515 556 555
4 515 516 557 556
4 516 517 558 557
4 517 518 559 558
4 518 519 560 559
4 519 520 561 560
4 520 521 562 561
4 521 522 563 562
4 522 523 564 563
4 523 524 565 564
4 524 525 566 565
4 525 526 567 566
4 526 527 568 567
4 527 528 569 568
4 528 529 570 569
4 529 530 571 570
4 530 531 572 571
4 531 532 573 572
4 533 534 575 574
4 534 535 576 575
4 535 536 577 576
4 536 537 578 577
4 537 538 579 578
4 538 539 580 579
4 539 540 581 580
4 540 541 582 581
4 541 542 583 582
4 542 543 584 583
4 543 544 585 584
4 544 545 586 585
4 545 546 587 586
4 546 547 588 587
4 547 548 589 588
4 548 549 590 589
4 549 550 591 590
4 550 551 592 591
4 551 552 593 592
4 552 553 594 593
4 553 554 595 594
4 554 555 596 595
4 555 556 597 596
4 556 557 598 597
4 557 558 599 598
4 558 559 600 599
4 559 560 601 600
4 560 561 602 601
4 561 562 603 602
4 562 563 604 603
4 563 564 605 604
4 564 565 606 605
4 565 566 607 606
4 566 567 608 607
4 567 568 609 608
4 568 569 610 609
4 569 570 611 610
4 570 571 612 611
4 571 572 613 612
4 572 573 614 613
4 574 575 616 615
4 575 576 617 616
4 576 577 618 617
4 577 578 619 618
4 578 579 620 619
4 579 580 621 620
4 580 581 622 621
4 581 582 623 622
4 582 583 624 623
4 583 584 625 624
4 584 585 626 625
4 585 586 627 626
4 586 587 628 627
4 587 588 629 628
4 588 589 630 629
4 589 590 631 630
4 590 591 632 631
4 591 592 633 632
4 592 593 634 633
4 593 594 635 634
4 594 595 636 635
4 595 596 637 636
4 596 597 638 637
4 597 598 639 638
4 598 599 640 639
4 599 600 641 640
4 600 601 642 641
4 601 602 643 642
4 602 603 644 643
4 603 604 645 644
4 604 605 646 645
4 605 606 647 646
4 606 607 648 647
4 607 608 649 648
4 608 609 650 649
4 609 610 651 650
4 610 611 652 651
4 611 612 653 652
4 612 613 654 653
4 613 614 655 654
4 615 616 657 656
4 616 617 658 657
4 617 618 659 658
4 618 619 660 659
4 619 620 661 660
4 620 621 662 661
4 621 622 663 662
4 622 623 664 663
4 623 624 665 664
4 624 625 666 665
4 625 626 667 666
4 626 627 668 667
4 627 628 669 668
4 628 629 670 669
4 629 630 671 670
4 630 631 672 671
4 631 632 673 672
4 632 633 674 673
4 633 634 675 674
4 634 635 676 675
4 635 636 677 676
4 636 637 678 677
4 637 638 679 678
4 638 639 680 679
4 639 640 681 680
4 640 641 682 681
4 641 642 683 682
4 642 643 684 683
4 643 644 685 684
4 644 645 686 685
4 645 646 687 686
4 646 647 688 687
4 647 648 689 688
4 648 649 690 689
4 649 650 691 690
4 650 651 692 691
4 651 652 693 692
4 652 653 694 693
4 653 654 695 694
4 654 655 696 695
4 656 657 698 697
4 657 658 699 698
4 658 659 700 699
4 659 660 701 700
4 660 661 702 701
4 661 662 703 702
4 662 663 704 703
4 663 664 705 704
4 664 665 706 705
4 665 666 707 706
4 666 667 708 707
4 667 668 709 708
4 668 669 710 709
4 669 670 711 710
4 670 671 712 711
4 671 672 713 712
4 672 673 714 713
4 673 674 715 714
4 674 675 716 715
4 675 676 717 716
4 676 677 718 717
4 677 678 719 718
4 678 679 720 719
4 679 680 721 720
4 680 681 722 721
4 681 682 723 722
4 682 683 724 723
4 683 684 725 724
4 684 685 726 725
4 685 686 727 726
4 686 687 728 727
4 687 688 729 728
4 688 689 730 729
4 689 690 731 730
4 690 691 732 731
4 691 692 733 732
4 692 693 734 733
4 693 694 735 734
4 694 695 736 735
4 695 696 737 736
4 697 698 739 738
4 698 699 740 739
4 699 700 741 740
4 700 701 742 741
4 701 702 743 742
4 702 703 744 743
4 703 704 745 744
4 704 705 746 745
4 705 706 747 746
4 706 707 748 747
4 707 708 749 748
4 708 709 750 749
4 709 710 751 750
4 710 711 752 751
4 711 712 753 752
4 712 713 754 753
4 713 714 755 754
4 714 715 756 755
4 715 716 757 756
4 716 717 758 757
4 717 718 759 758
4 718 719 760 759
4 719 720 761 760
4 720 721 762 761
4 721 722 763 762
4 722 723 764 763
4 723 724 765 764
4 724 725 766 765
4 725 726 767 766
4 726 727 768 767
4 727 728 769 768
4 728 729 770 769
4 729 730 771 770
4 730 731 772 771
4 731 732 773 772
4 732 733 774 773
4 733 734 775 774
4 734 735 776 775
4 735 736 777 776
4 736 737 778 777
4 738 739 780 779
4 739 740 781 780
4 740 741 782 781
4 741 742 783 782
4 742 743 784 783
4 743 744 785 784
4 744 745 786 785
4 745 746 787 786
4 746 747 788 787
4 747 748 789 788
4 748 749 790 789
4 749 750 791 790
4 750 751 792 791
4 751 752 793 792
4 752 753 794 793
4 753 754 795 794
4 754 755 796 795
4 755 756 797 796
4 756 757 798 797
4 757 758 799 798
4 758 759 800 799
4 759 760 801 800
4 760 761 802 801
4 761 762 803 802
4 762 763 804 803
4 763 764 805 804
4 764 765 806 805
4 765 766 807 806
4 766 767 808 807
4 767 768 809 808
4 768 769 810 809
4 769 770 811 810
4 770 771 812 811
4 771 772 813 812
4 772 773 814 813
4 773 774 815 814
4 774 775 816 815
4 775 776 817 816
4 776 777 818 817
4 777 778 819 818
4 779 780 821 820
4 780 781 822 821
4 781 782 823 822
4 782 783 824 823
4 783 784 825 824
4 784 785 826 825
4 785 786 827 826
4 786 787 828 827
4 787 788 829 828
4 788 789 830 829
4 789 790 831 830
4 790 791 832 831
4 791 792 833 832
4 792 793 834 833
4 793 794 835 834
4 794 795 836 835
4 795 796 837 836
4 796 797 838 837
4 797 798 839 838
4 798 799 840 839
4 799 800 841 840
4 800 801 842 841
4 801 802 843 842
4 802 803 844 843
4 803 804 845 844
4 804 805 846 845
4 805 806 847 846
4 806 807 848 847
4 807 808 849 848
4 808 809 850 849
4 809 810 851 850
4 810 811 852 851
4 811 812 853 852
4 812 813 854 853
4 813 814 855 854
4 814 815 856 855
4 815 816 857 856
4 816 817 858 857
4 817 818 859 858
4 818 819 860 859
CELL_TYPES 800
9
9
9
9
9
9
9
9
9
9
9
9
9
9
9
9
9
9
9
9
9
9
9
9
9
9
9
9
9
9
9
9
9
9
9
9
9
9
9
9
9
9
9
9
9
9
9
9
9
9
9
9
9
9
9
9
9
9
9
9
9
9
9
9
9
9
9
9
9
9
9
9
9
9
9
9
9
9
9
9
9
9
9
9
9
9
9
9
9
9
9
9
9
9
9
9
9
9
9
9
9
9
9
9
9
9
9
9
9
9
9
9
9
9
9
9
9
9
9
9
9
9
9
9
9
9
9
9
9
9
9
9
9
9
9
9
9
9
9
9
9
9
9
9
9
9
9
9
9
9
9
9
9
9
9
9
9
9
9
9
9
9
9
9
9
9
9
9
9
9
9
9
9
9
9
9
9
9
9
9
9
9
9
9
9
9
9
9
9
9
9
9
9
9
9
9
9
9
9
9
9
9
9
9
9
9
9
9
9
9
9
9
9
9
9
9
9
9
9
9
9
9
9
9
9
9
9
9
9
9
9
9
9
9
9
9
9
9
9
9
9
9
9
9
9
9
9
9
9
9
9
9
9
9
9
9
9
9
9
9
9
9
9
9
9
9
9
9
9
9
9
9
9
9
9
9
9
9
9
9
9
9
9
9
9
9
9
9
9
9
9
9
9
9
9
9
9
9
9
9
9
9
9
9
9
9
9
9
9
9
9
9
9
9
9
9
9
9
9
9
9
9
9
9
9
9
9
9
9
9
9
9
9
9
9
9
9
9
9
9
9
9
9
9
9
9
9
9
9
9
9
9
9
9
9
9
9
9
9
9
9
9
9
9
9
9
9
9
9
9
9
9
9
9
9
9
9
9
9
9
9
9
9
9
9
9
9
9
9
9
9
9
9
9
9
9
9
9
9
9
9
9
9
9
9
9
9
9
9
9
9
9
9
9
9
9
9
9
9
9
9
9
9
9
9
9
9
9
9
9
9
9
9
9
9
9
9
9
9
9
9
9
9
9
9
9
9
9
9
9
9
9
9
9
9
9
9
9
9
9
9
9
9
9
9
9
9
9
9
9
9
9
9
9
9
9
9
9
9
9
9
9
9
9
9
9
9
9
9
9
9
9
9
9
9
9
9
9
9
9
9
9
9
9
9
9
9
9
9
9
9
9
9
9
9
9
9
9
9
9
9
9
9
9
9
9
9
9
9
9
9
9
9
9
9
9
9
9
9
9
9
9
9
9
9
9
9
9
9
9
9
9
9
9
9
9
9
9
9
9
9
9
9
9
9
9
9
9
9
9
9
9
9
9
9
9
9
9
9
9
9
9
9
9
9
9
9
9
9
9
9
9
9
9
9
9
9
9
9
9
9
9
9
9
9
9
9
9
9
9
9
9
9
9
9
9
9
9
9
9
9
9
9
9
9
9
9
9
9
9
9
9
9
9
9
9
9
9
9
9
9
9
9
9
9
9
9
9
9
9
9
9
9
9
9
9
9
9
9
9
9
9
9
9
9
9
9
9
9
9
9
9
9
9
9
9
9
9
9
9
9
9
9
9
9
9
9
9
9
9
9
9
9
9
9
9
9
9
9
9
9
9
9
9
9
9
9
9
9
9
9
9
9
9
9
9
9
9
9
9
9
9
9
9
9
9
9
9
9
9
9
9
9
9
9
9
9
9
9
9
9
9
9
9
9
9
9
9
9
9
9
9
9
9
9
9
9
9
9
9
9
9
9
9
9
9
9
9
9
9
9
9
9
9
9
9
9
9
9
9
9
9
9
9
9
9
9
9
9
9
9
9
9
9
9
9
9
9
9
9
POINT_DATA 861
SCALARS Disp float 2
LOOKUP_TABLE default
0.0 0.0
0.005557827730591132 -0.2263192750169612
0.006824123827002226 -0.44377989845558535
0.007596960730569264 -0.6602575547299449
0.008579163650983023 -0.8763880284535184
0.010125854044751262 -1.0917979628438184
0.012792850723140852 -1.3059948542975988
0.017247753454678404 -1.5183614802879233
0.02427300408688504 -1.7281289704686609
0.03472087027629212 -1.9343019099691636
0.049446836871568034 -2.1355409823207943
0.06926995628668575 -2.3300852420996394
0.09495491411432132 -2.515766271138982
0.1272038552227813 -2.6901070286740225
0.16665597793541334 -2.85039852901184
0.21382151498625596 -2.993757782730051
0.26895861191005405 -3.1171985008862877
0.3319215852097471 -3.217747596901571
0.40202718706053514 -3.292646320850306
0.47799379531408 -3.3395933774369517
0.5577708830661651 -3.357011535968961
0.6375479708182463 -3.339593377436848
0.7135145790717754 -3.2926463208500945
0.7836201809225362 -3.2177475969012646
0.8465831542221939 -3.1171985008859044
0.901720251145955 -2.9937577827296145
0.948885788196761 -2.8503985290113603
0.9883379109093555 -2.690107028673515
1.020586852017778 -2.515766271138462
1.0462718098453776 -2.330085242099123
1.0660949292604627 -2.135540982320296
1.0808208958557124 -1.934301909968694
1.0912687620450994 -1.7281289704682268
1.0982940126772902 -1.5183614802875314
1.1027489154088173 -1.3059948542972526
1.1054159120872002 -1.0917979628435253
1.1069626024809658 -0.8763880284532779
1.1079448054013787 -0.6602575547297606
1.1087176423049456 -0.4437798984554555
1.1099839384013555 -0.22631927501688884
1.115541766131943 0.0
0.0564543099048789 -0.0023284490879065915
0.06031954025946892 -0.22656015294573448
0.06098564458829078 -0.4438413403814055
0.061672545971757566 -0.6603451555090386
0.06253750290052651 -0.8765237793260285
0.06385675231419434 -1.092090591103006
0.06615338499659286 -1.3065952204607671
0.07005832884673496 -1.5194489647090046
0.07630698948025236 -1.7299037136844033
0.08567801787077806 -1.9369675796595196
0.09893472567184959 -2.1392936549962154
0.11679266926696215 -2.335109288180351
0.1399237016253991 -2.522234697528903
0.16896712048784848 -2.69818120315348
0.20450780169590993 -2.860221249693151
0.2470220909996992 -3.0054302075672643
0.29676538059408775 -3.1307457829488587
0.3536367787027855 -3.233083298188187
0.41705434096533506 -3.3095438300758206
0.48581501455153336 -3.3576628009348464
0.5577708830661524 -3.375562716155082
0.6297267515807673 -3.3576628009347402
0.6984874251669508 -3.3095438300756044
0.7619049874294767 -3.2330832981878737
0.8187763855381438 -3.130745782948467
0.8685196751324994 -3.005430207566819
0.9110339644362554 -2.860221249692663
0.9465746456442832 -2.6981812031529637
0.9756180645066989 -2.5222346975283743
0.9987490968651035 -2.335109288179826
1.0166070404601866 -2.1392936549957096
1.0298637482612345 -1.9369675796590449
1.0392347766517418 -1.729903713683965
1.0454834372852448 -1.5194489647086096
1.0493883811353775 -1.3065952204604192
1.0516850138177705 -1.092090591102712
1.053004263231436 -0.876523779325788
1.0538692201602045 -0.6603451555088542
1.0545561215436712 -0.44384134038127565
1.0552222258724928 -0.22656015294566176
1.0590874562270776 -0.0023284490879040757
0.11195914965000478 -0.004171554066559463
0.11478403575636403 -0.22667878461496124
0.11516714619234063 -0.4438751880522921
0.11572805598432616 -0.6604224858832798
0.11648477782483636 -0.876633056977754
0.11759982378044984 -1.092322208637865
0.11953406187746693 -1.3070916981245564
0.12289152590911469 -1.5203801844344826
0.1283505656393416 -1.731455912349597
0.13661903716028617 -1.9393248654185653
0.1483721811573387 -2.142628597760205
0.1642314780669428 -2.3395819039879027
0.1847784919934861 -2.5279976097704306
0.21057644769874484 -2.705381327510083
0.24216016326681275 -2.868989955056489
0.2799713591185257 -3.0158637105684956
0.32427137609274054 -3.142875495185724
0.37502090521175846 -3.2468423279836545
0.4317354614142881 -3.324732931580281
0.4932834560766879 -3.373891433980997
0.5577708830661402 -3.39222852147824
0.6222583100555881 -3.373891433980888
0.6838063047179744 -3.3247329315800607
0.7405208609204832 -3.2468423279833343
0.7912703900394745 -3.142875495185325
0.8355704070136604 -3.0158637105680426
0.8733816028653433 -2.868989955055993
0.9049653184333812 -2.705381327509558
0.9307632741386103 -2.527997609769894
0.951310288065125 -2.3395819039873706
0.9671695849747028 -2.142628597759693
0.9789227289717343 -1.9393248654180855
0.987191200492662 -1.731455912349155
0.9926502402228762 -1.520380184434085
0.9960077042545157 -1.3070916981242067
0.9979419423515282 -1.0923222086375701
0.99905698830714 -0.8766330569775129
0.9998137101476497 -0.6604224858830954
1.0003746199396353 -0.4438751880521624
1.0007577303756119 -0.2266787846148882
1.003582616481966 -0.0041715540665542665
0.16696454591478105 -0.005650592260058815
0.16909279076910494 -0.22675946166475222
0.16932687768852342 -0.4438940391095631
0.1697659289195535 -0.660485503636473
0.170415792212632 -0.876723286651947
0.17135157088219694 -1.0925003190696088
0.1729443281963858 -1.3074878006524064
0.1757602241028012 -1.5211563531181624
0.18042527593438437 -1.7327828938470904
0.18757596355767928 -1.9413686481490926
0.19780390681150425 -2.1455395543518527
0.2116405694607949 -2.3434976312398907
0.2295816108163475 -2.5330496978552692
0.2521127678626124 -2.711699734471636
0.2797059205327304 -2.8766951331295285
0.31277520125416525 -3.025047960261296
0.35159165490430466 -3.153578406439077
0.3961772545725672 -3.2590185303791492
0.4461513171519738 -3.3382078675782436
0.5005522210578555 -3.38831809704012
0.5577708830661283 -3.4070962498391464
0.6149895450743967 -3.3883180970400093
0.6693904489802663 -3.338207867578019
0.7193645115596544 -3.2590185303788237
0.763950111227894 -3.1535784064386716
0.8027665648780079 -3.0250479602608356
0.8358358455994165 -2.8766951331290254
0.8634289982695083 -2.7116997344711042
0.8859601553157469 -2.5330496978547257
0.9039011966712746 -2.3434976312393534
0.9177378593205425 -2.1455395543513354
0.9279658025743489 -1.941368648148608
0.9351164901976288 -1.732782893846645
0.9397815420292008 -1.5211563531177625
0.9425974379356092 -1.3074878006520558
0.9441901952497943 -1.0925003190693134
0.9451259739193582 -0.8767232866517061
0.9457758372124364 -0.6604855036362886
0.9462148884434665 -0.44389403910943354
0.946448975362885 -0.22675946166467884
0.948577220217204 -0.005650592260051169
0.2216842185795489 -0.006843991685969837
0.22329386520465072 -0.22682274711653555
0.2234467363184751 -0.4439048838560565
0.2237827146927251 -0.6605344834684063
0.22432718855089995 -0.8767978284602446
0.22510392949273506 -1.092636165191029
0.226390504925569 -1.3077910138029556
0.2286766568142701 -1.5217801904170667
0.2325528837442295 -1.7338850145001363
0.2385811082764538 -1.9430967626524955
0.24727329934069997 -2.148023608332037
0.25907577394655495 -2.3468532442517587
0.2743979035026938 -2.537388022735385
0.29364860295847434 -2.7171332442410763
0.3172402847362915 -2.883331444240756
0.34554535639377404 -3.032975695996194
0.37884214619565165 -3.162845529361678
0.4172158076375739 -3.2696011158503198
0.4604163062474771 -3.3499689209553614
0.5077040883625701 -3.4009716858829546
0.5577708830661167 -3.420214469664503
0.6078376777696588 -3.400971685882842
0.6551254598847407 -3.3499689209551327
0.6983259584946279 -3.2696011158499894
0.7366996199365304 -3.1628455293612676
0.769996409738386 -3.0329756959957277
0.798301481395846 -2.883331444240247
0.8218931631736404 -2.717133244240539
0.8411438626293986 -2.5373880227348353
0.856465992185516 -2.3468532442512156
0.868268466791352 -2.148023608331515
0.876960657855582 -1.9430967626520075
0.8829888823877933 -1.733885014499688
0.8868651093177432 -1.521780190416665
0.8891512612064384 -1.3077910138026039
0.8904378366392697 -1.0926361651907333
0.8912145775811039 -0.8767978284600036
0.8917590514392787 -0.6605344834682217
0.8920950298135286 -0.44390488385592697
0.8922479009273531 -0.2268227471164619
0.8938575475524508 -0.006843991685960024
0.27621490222728734 -0.00780118441262896
0.2774195000150962 -0.2268756252912432
0.27752496769596385 -0.44391248504239883
0.2777756154619537 -0.6605707118504444
0.2782157762376759 -0.876859066040866
0.2788508176980339 -1.0927392965903047
0.2798648488279502 -1.3080140682707326
0.281659675018973 -1.52225710834148
0.2847553650322024 -1.7347650896796933
0.28966706690904837 -1.9445102833206338
0.2968241854844607 -2.150080623846683
0.3065909753313487 -2.3496487061013105
0.31929432484891584 -2.5410125456836474
0.3352651371966545 -2.7216815831240306
0.35485078869097936 -2.8888985630949824
0.3783890218419424 -3.039644004347533
0.4061476676270431 -3.1706687147206165
0.43826295925542963 -3.278579070039253
0.4746421243985343 -3.36001262126688
0.5148073264860672 -3.4118662719148576
0.5577708830661047 -3.4316118458831415
0.6007344396461383 -3.4118662719147426
0.6408996417336614 -3.360012621266648
0.6772788068767526 -3.2785790700389192
0.7093940985051225 -3.1706687147202013
0.7371527442902044 -3.039644004347061
0.7606909774411483 -2.888898563094468
0.7802766289354544 -2.721681583123488
0.7962474412831745 -2.5410125456830928
0.808950790800724 -2.349648706100763
0.8187175806475959 -2.1500806238461574
0.8258746992229948 -1.9445102833201426
0.83078640109983 -1.7347650896792426
0.8338820911130517 -1.5222571083410767
0.83567691730407 -1.3080140682703805
0.8366909484339844 -1.0927392965900087
0.8373259898943417 -0.8768590660406251
0.8377661506700639 -0.6605707118502598
0.8380167984360536 -0.4439124850422694
0.8381222661169213 -0.22687562529116936
0.839326863904727 -0.007801184412617327
0.3306077610909881 -0.008560038434652924
0.3314919961748188 -0.22692066391776317
0.33156647871781214 -0.4439192616313853
0.3317443433239515 -0.6605956100120309
0.3320813302235318 -0.8769079673571243
0.33258552860902973 -1.092817302254456
0.33335795600050894 -1.3081718988131263
0.3347061317834864 -1.5226010511634986
0.33705920392243627 -1.7354289605924962
0.34086743204762143 -1.9456132705983111
0.34650154144512435 -2.1517138474806874
0.3542425963206006 -2.351886994424556
0.3643376982056678 -2.543926697085943
0.37704146709688735 -2.725348439587513
0.3926361645638039 -2.8933992161968622
0.41141282880723845 -3.0450543348653105
0.433628730583116 -3.177044339056577
0.45945719009825586 -3.2859416444012965
0.48895167566899883 -3.368327911318534
0.5219309680421983 -3.4210006811100353
0.5577708830660926 -3.44130041688923
0.5936107980899834 -3.421000681109919
0.6265900904631749 -3.368327911318299
0.6560845760339066 -3.2859416444009586
0.6819130355490326 -3.177044339056158
0.704128937324895 -3.0450543348648345
0.7229056015683141 -2.893399216196344
0.7385002990352155 -2.7253484395869663
0.7512040679264205 -2.5439266970853844
0.7612991698114737 -2.351886994424005
0.7690402246869371 -2.151713847480159
0.7746743340844294 -1.945613270597817
0.7784825622096059 -1.7354289605920434
0.78083563434855 -1.5226010511630943
0.7821838101315243 -1.3081718988127735
0.782956237523002 -1.09281730225416
0.7834604359084996 -0.8769079673568833
0.7837974228080797 -0.6605956100118464
0.7839752874142191 -0.44391926163125583
0.7840497699572124 -0.22692066391768922
0.7849340050410406 -0.008560038434639811
0.38489721737629323 -0.009150883627321717
0.3855280384265776 -0.2269598784438287
0.3855783769440511 -0.4439257307127036
0.3856905925451847 -0.6606105143093555
0.38592605748862124 -0.8769441096384576
0.3863017181666634 -1.0928758553576243
0.38686451578626607 -1.308277914462549
0.3878104482291746 -1.5228306364724065
0.3894751557273973 -1.7358910686271039
0.3922202052706338 -1.9464138121262289
0.39635279125054823 -2.152929861682608
0.4020876157406565 -2.353574553955163
0.4095975319370725 -2.546137691276662
0.4190608156808735 -2.7281416071837934
0.43069020488092724 -2.896840953281427
0.44472867732385035 -3.049212081265135
0.4614143068572185 -3.1819736243882955
0.48093867149575126 -3.29168078920943
0.503477757042788 -3.3748961874627
0.5291535573579631 -3.4283569341472604
0.5577708830660801 -3.4492751620431883
0.5863882087741945 -3.4283569341471436
0.6120640090893635 -3.3748961874624634
0.6346030946363914 -3.2916807892090896
0.6541274592749132 -3.1819736243878736
0.6708130888082694 -3.0492120812646553
0.6848515612511811 -2.896840953280905
0.6964809504512233 -2.7281416071832436
0.705944234195014 -2.5461376912761007
0.7134541503914198 -2.353574553954609
0.7191889748815183 -2.1529298616820767
0.7233215608614249 -1.9464138121257326
0.726066610404655 -1.73589106862665
0.7277313179028738 -1.5228306364720012
0.7286772503457801 -1.3082779144621959
0.729240047965382 -1.0928758553573283
0.729615708643424 -0.8769441096382166
0.7298511735868604 -0.6606105143091708
0.7299633891879939 -0.44392573071257413
0.7300137277054672 -0.22695987844375462
0.7306445487557498 -0.009150883627307389
0.43910398253065913 -0.00960245785592347
0.43954324766196556 -0.22699501673636022
0.4395671627412559 -0.44393109755802374
0.43961741138773375 -0.6606164854526125
0.439754156328692 -0.8769668285015958
0.43999749532771854 -1.0929172919599004
0.4403699834642928 -1.3083460326008003
0.44096622161394927 -1.522967254286456
0.44200484301850274 -1.736174288837752
0.44375011662005925 -1.9469291532717365
0.44642740204208614 -2.153740611266834
0.4501903664713502 -2.3547224732119894
0.4551469474893703 -2.547657317610494
0.46140763615667413 -2.7300739973933354
0.4691135970563879 -2.899236271271702
0.47844843928914915 -3.0521278208419327
0.4896275102498005 -3.185464603301085
0.5028624157608935 -3.295793905491978
0.5183812355829175 -3.3796933367057895
0.5365731499935368 -3.4338983022985685
0.5577708830660671 -3.4555120731618336
0.5789686161385957 -3.4338983022984504
0.597160530549211 -3.3796933367055515
0.6126793503712284 -3.2957939054916356
0.6259142558823136 -3.185464603300661
0.637093326842957 -3.0521278208414513
0.6464281690757105 -2.899236271271178
0.6541341299754171 -2.730073997392784
0.6603948186427147 -2.5476573176099313
0.6653513996607281 -2.354722473211433
0.6691143640899859 -2.153740611266301
0.6717916495120074 -1.946929153271239
0.6735369231135604 -1.7361742888372973
0.6745755445181114 -1.52296725428605
0.6751717826677666 -1.308346032600447
0.6755442708043405 -1.0929172919596042
0.6757876098033668 -0.8769668285013548
0.6759243547443251 -0.6606164854524278
0.6759746033908028 -0.4439310975578942
0.6759985184700931 -0.22699501673628614
0.6764377836013984 -0.0096024578559082
0.49324229937017655 -0.009943985078723502
0.49354594755985287 -0.22702836407139512
0.4935388194373345 -0.443933654597226
0.4935288181001576 -0.6606142959542559
0.49356981643294545 -0.876976076009884
0.4936779839249725 -1.0929406943134656
0.493861586391262 -1.3083856166529182
0.4941541173209864 -1.52303602939757
0.4946411527090874 -1.7363111660605972
0.49546927413147424 -1.9471898431003685
0.49676370075280873 -2.1541707407716997
0.49861170595845655 -2.3553513810657254
0.5010603089528834 -2.548505167481722
0.5041633435860278 -2.731166414040653
0.5079962838966389 -2.9006062720212373
0.5126736730662156 -3.053819698280069
0.5183719682952571 -3.1875318478993897
0.525331607564008 -3.2982928622140344
0.5338365418764351 -3.3827017557078425
0.5443406288357084 -3.4375665832356646
0.5577708830660537 -3.4599598804842993
0.5712011372963984 -3.437566583235546
0.5817052242556696 -3.382701755707603
0.5902101585680928 -3.2982928622136907
0.5971697978368392 -3.1875318478989643
0.6028680930658766 -3.0538196982795855
0.6075454822354502 -2.900606272020712
0.6113784225460581 -2.7311664140401004
0.6144814571792002 -2.548505167481158
0.616930060173624 -2.3553513810651685
0.6187780653792693 -2.1541707407711654
0.6200724920006014 -1.9471898430998702
0.6209006134229869 -1.7363111660601418
0.6213876488110869 -1.5230360293971639
0.6216801797408108 -1.3083856166525651
0.6218637822071001 -1.0929406943131694
0.6219719496991271 -0.876976076009643
0.622012948031915 -0.6606142959540712
0.6220029466947381 -0.4439336545970964
0.6219958185722195 -0.2270283640713211
0.6222994667618953 -0.009943985078707602
0.5473287105066335 -0.010200492293449853
0.5475369962175495 -0.2270623669294546
0.5474983345387036 -0.4439318011418059
0.5474293399690409 -0.6606044530801729
0.5473771893732317 -0.8769720520445271
0.5473507342389258 -1.0929453044169837
0.5473406911112207 -1.3083981091920935
0.547337604018264 -1.5230575478466972
0.5473368037609477 -1.736348610707282
0.5473368934962494 -1.9472563013662398
0.5473371000655144 -2.1542804236546997
0.5473364861284643 -2.3555146934560405
0.5473303175807085 -2.5487317515423293
0.5473151578064609 -2.7314673021372857
0.5472993440420765 -2.9009978504401674
0.547332953822737 -3.054330337122539
0.5475519820530013 -3.1882110029968573
0.5482297566023039 -3.2992140649901662
0.5497645527638947 -3.3839535838716435
0.5526005746041307 -3.43931090144488
0.55777088306604 -3.4625353054931414
0.5629411915279496 -3.439310901444761
0.5657772133681849 -3.3839535838714037
0.5673120095297743 -3.2992140649898216
0.5679897840790767 -3.188211002996432
0.5682088123093417 -3.0543303371220554
0.5682424220900031 -2.9009978504396416
0.5682266083256197 -2.7314673021367333
0.5682114485513736 -2.548731751541766
0.5682052800036187 -2.355514693455483
0.5682046660665698 -2.1542804236541655
0.5682048726358359 -1.9472563013657413
0.5682049623711379 -1.7363486107068267
0.568204162113822 -1.523057547846291
0.5682010750208651 -1.3083981091917405
0.5681910318931604 -1.0929453044166877
0.5681645767588546 -0.8769720520442861
0.5681124261630456 -0.6606044530799882
0.5680434315933829 -0.44393180114167624
0.568004769914537 -0.22706236692938064
0.5682130556254527 -0.010200492293433542
0.6013742330193568 -0.010395794896204886
0.60151687647847 -0.2270964550897221
0.6014496936730079 -0.4439252961396665
0.6013238109551525 -0.6605871343134103
0.6011812601541549 -0.8769551840035111
0.6010223368931651 -1.0929310109224855
0.6008195490707713 -1.3083830560035037
0.6005207064647249 -1.5230354363001155
0.6000321843042008 -1.7363111009652128
0.599204462766965 -1.9471898782670192
0.5979108655237592 -2.1541708076436943
0.5960605608014348 -2.355349856315656
0.5935988884821505 -2.548500248232649
0.5904658862322117 -2.7311581912277383
0.5866042078977663 -2.900605988695456
0.5819982955418076 -3.05386648882015
0.5767313708416576 -3.1877146314805995
0.5710531694050618 -3.2987657967509922
0.5653885742528221 -3.3836431822481794
0.5603581588423123 -3.43924585775437
0.5577708830660261 -3.463344539174668
0.5551836072897393 -3.43924585775425
0.5501531918792294 -3.3836431822479396
0.5444885967269926 -3.2987657967506485
0.538810395290402 -3.1877146314801745
0.5335434705902575 -3.0538664888196667
0.5289375582343038 -2.9006059886949305
0.5250758798998632 -2.7311581912271863
0.5219428776499299 -2.5485002482320858
0.5194812053306509 -2.355349856315099
0.5176309006083315 -2.154170807643161
0.5163373033651297 -1.947189878266521
0.5155095818278964 -1.7363111009647576
0.5150210596673738 -1.5230354362997094
0.514722217061328 -1.3083830560031502
0.5145194292389347 -1.0929310109221895
0.5143605059779452 -0.8769551840032701
0.5142179551769477 -0.6605871343132256
0.5140920724590924 -0.4439252961395368
0.5140248896536304 -0.22709645508964818
0.5141675331127434 -0.010395794896188344
0.655392206821215 -0.010545619535744871
0.655489661096856 -0.22712862772163386
0.6553969017855661 -0.4439145523918183
0.6552172651893462 -0.6605625646755469
0.6549877862522949 -0.8769260797941586
0.6546996582719962 -1.092898226461458
0.6543091943094804 -1.3083408767097557
0.6537071338015428 -1.5229659550828305
0.6526678715786396 -1.736174202869435
0.6509239166009682 -1.9469294048187065
0.648247020090618 -2.1537404502343978
0.644480948153057 -2.3547191259208833
0.6395126550587851 -2.547647169752025
0.6332265390944328 -2.7300575702575505
0.6254979042283826 -2.8992365038904153
0.6162345711595155 -3.052223520362656
0.605460358770865 -3.1858295531959624
0.5933924016850926 -3.296719512796515
0.5805117325338509 -3.381572512366915
0.5678984787164735 -3.4374792888955756
0.5577708830660126 -3.4625574427672663
0.5476432874155518 -3.437479288895456
0.5350300335981757 -3.3815725123666756
0.5221493644469398 -3.296719512796172
0.5100814073611761 -3.185829553195539
0.4993071949725355 -3.052223520362175
0.49004386190367755 -2.8992365038898917
0.4823152270376364 -2.7300575702570007
0.4760291110732933 -2.5476471697514635
0.47106081797903065 -2.354719125920328
0.4672947460414779 -2.1537404502338657
0.46461784953113533 -1.9469294048182098
0.4628738945534686 -1.7361742028689804
0.46183463233056843 -1.5229659550824244
0.4612325718226323 -1.3083408767094025
0.4608421078601173 -1.092898226461162
0.4605539798798189 -0.8769260797939176
0.46032450094276794 -0.6605625646753622
0.46014486434654817 -0.44391455239168853
0.46005210503525823 -0.22712862772156
0.46014955931089924 -0.010545619535728138
0.7093992137908744 -0.01065745022107227
0.7094605414191131 -0.22715729168520515
0.7093447564158876 -0.4438999208135079
0.7091149136999639 -0.6605311539442744
0.7088021282984573 -0.8768854712617784
0.7083902887266945 -1.092848068672046
0.7078113416811729 -1.308269754369221
0.7068608394945192 -1.5228287421570068
0.705197764520106 -1.735891317804112
0.7024542326717533 -1.9464142740139598
0.6983210790442891 -2.1529292279877263
0.692582813751518 -2.35356951751319
0.6850653011223569 -2.5461236022356837
0.6755885486704478 -2.7281194037250973
0.6639510271501085 -2.8968431231148193
0.6499755798763558 -3.049350893258706
0.6336062527567519 -3.182495266736929
0.6150376975565579 -3.2930074382227263
0.5949376497669963 -3.37769554340845
0.5748004042085684 -3.4338800526583304
0.5577708830659998 -3.4602130826698594
0.5407413619234315 -3.4338800526582114
0.5206041163650067 -3.3776955434082123
0.5005040685754532 -3.2930074382223857
0.4819355133752715 -3.1824952667365083
0.4655661862556814 -3.049350893258227
0.4515907389819419 -2.896843123114298
0.4399532174616151 -2.7281194037245498
0.4304764650097196 -2.5461236022351255
0.4229589523805713 -2.353569517512637
0.417220687087812 -2.152929227987197
0.4130875334603582 -1.9464142740134647
0.4103440016120126 -1.7358913178036584
0.4086809266376042 -1.5228287421566014
0.40773042445095314 -1.308269754368868
0.4071514774054326 -1.0928480686717499
0.4067396378336702 -0.8768854712615374
0.4064268524321639 -0.6605311539440898
0.4061970097162405 -0.44389992081337803
0.40608122471301505 -0.2271572916851313
0.40614255234125374 -0.010657450221055388
0.7634057284862242 -0.010737170894820782
0.7634358507276306 -0.22718099849030365
0.7632981613938257 -0.44388160058017145
0.7630212323086631 -0.6604934060552826
0.7626291801281166 -0.8768343380247063
0.7620997486034712 -1.092781258660715
0.7613134159282324 -1.3081605962087328
0.7599648389570816 -1.5225993044882606
0.7576145362333462 -1.735429798905453
0.7538072305830715 -1.945613737436955
0.7481713909216942 -2.15171250122966
0.7404272416383069 -2.3518807374695854
0.7303310676293069 -2.543911174481341
0.717632685234966 -2.7253253625877525
0.7020538186321255 -2.8934059843339694
0.6833251686328614 -3.045223417642626
0.6613005487893747 -3.177678827166437
0.6361865853090226 -3.287607256134613
0.6088694046187291 -3.3720037805024994
0.5814010389504447 -3.42851664476443
0.5577708830659869 -3.456388795009378
0.5341407271815303 -3.4285166447643114
0.5066723615132512 -3.372003780502263
0.47935518082296824 -3.287607256134275
0.45424121734263107 -3.17767882716602
0.4322165974991618 -3.0452234176421507
0.4134879474999147 -2.893405984333452
0.397909080897091 -2.7253253625872085
0.3852106985027672 -2.5439111744807863
0.3751145244937838 -2.351880737469036
0.3673703752104116 -2.151712501229134
0.36173453554904744 -1.9456137374364624
0.3579272298987826 -1.735429798905001
0.3555769271750535 -1.5225993044878559
0.35422835020390653 -1.3081605962083798
0.3534420175286696 -1.092781258660419
0.35291258600402464 -0.8768343380244654
0.35252053382347853 -0.660493406055098
0.3522436047383162 -0.44388160058004167
0.35210591540451136 -0.2271809984902298
0.3521360376459177 -0.01073717089480379
0.8174186918833702 -0.010790203344487338
0.8174215506350935 -0.22719867251053236
0.8172623469499867 -0.44385962295701137
0.8169411866987734 -0.6604498284717181
0.8164751579160419 -0.8767740339515163
0.8158272582819702 -1.0926960555741996
0.8148053525645702 -1.3080005458544475
0.8130122616056052 -1.5222561892619277
0.809919431485946 -1.7347664536920167
0.805007511473705 -1.9445104721422026
0.7978478231583311 -2.150078434027629
0.7880790611480228 -2.3496419798656696
0.7753826971246759 -2.5409988966631407
0.7594393925619473 -2.721664329766682
0.7398993311744132 -2.888914044003426
0.7164008163006178 -3.039828570611848
0.6887208038695544 -3.171369403334303
0.657082158879447 -3.2805138864184937
0.622617950232302 -3.3645155647127214
0.5879454732056515 -3.4214317226004347
0.5577708830659742 -3.4511022566792073
0.5275962929262992 -3.4214317226003175
0.4929238158996559 -3.3645155647124874
0.458459607252524 -3.280513886418159
0.4268209622624345 -3.171369403333891
0.39914094983139153 -3.0398285706113777
0.37564243495761696 -2.8889140440029126
0.35610237357010355 -2.721664329766143
0.3401590690073959 -2.540998896662591
0.32746270498406915 -2.3496419798651242
0.317693942973779 -2.150078434027107
0.31053425465842127 -1.9445104721417128
0.3056223346461922 -1.7347664536915666
0.30252950452654154 -1.5222561892615243
0.30073641356758174 -1.3080005458540949
0.2997145078501843 -1.0926960555739038
0.2990666082161133 -0.8767740339512752
0.2986005794333821 -0.6604498284715334
0.29827941918216905 -0.44385962295688164
0.29812021549706247 -0.22719867251045847
0.29812307424878565 -0.010790203344470275
0.8714429733866214 -0.01082177864217098
0.8714227442607241 -0.22720972542846354
0.8712426886596447 -0.44383391358247926
0.8708797162282657 -0.6604010565821892
0.8703431492200661 -0.8767051228947536
0.8695678732315933 -1.0925874623281042
0.868280845677492 -1.3077765626865643
0.8659975940265128 -1.5217802284554114
0.862122732695993 -1.7338866146732084
0.8560930539130466 -1.9430964122426941
0.8473979521153681 -2.1480206185905053
0.8355957968812092 -2.346847076398844
0.820289222068024 -2.5373797017538626
0.801085886309179 -2.7171286942727817
0.7775702590279207 -2.883361723719312
0.7493217032400842 -3.0331675449902367
0.7160459943088057 -3.1635746604767836
0.6779717983127019 -3.2717412089257705
0.6364562651085973 -3.355249937699093
0.5946029056961794 -3.4126292646367062
0.5577708830659616 -3.4443260703457983
0.5209388604357471 -3.41262926463659
0.47908550102333824 -3.3552499376988623
0.4375699678192495 -3.27174120892544
0.39949577182316626 -3.1635746604763764
0.36622006289191184 -3.033167544989772
0.33797150710409996 -2.883361723718804
0.3144558798228658 -2.717128694272248
0.2952525440640454 -2.5373797017533186
0.279945969250884 -2.3468470763983045
0.2681438140167467 -2.1480206185899875
0.2594487122190867 -1.943096412242208
0.2534190334361544 -1.7338866146727612
0.2495441721056452 -1.5217802284550097
0.24726092045467254 -1.3077765626862128
0.24597389290057467 -1.0925874623278087
0.24519861691210304 -0.8767051228945125
0.24466204990390364 -0.6604010565820045
0.24429907747252486 -0.4438339135823495
0.2441190218714458 -0.22720972542838969
0.2440987927455484 -0.010821778642153867
0.9254817260524432 -0.010837110709087541
0.9254436309168097 -0.22721406640983183
0.9252446030480778 -0.4438044637658352
0.9248420405479836 -0.6603476612127271
0.924235936080647 -0.8766275170320662
0.9233179406840549 -1.092449219793953
0.92173119251428 -1.3074736715036905
0.9189167850018266 -1.521156871109056
0.9142508294806592 -1.732784317045041
0.9070974885517991 -1.9413675781726516
0.89686704397921 -2.1455360474532355
0.8830341157201737 -2.3434932992557287
0.8651167093798571 -2.5330496818861676
0.8426468400617413 -2.7117132998537232
0.8151554134311629 -2.876748258542831
0.7821902321126031 -3.025252330184766
0.7434383001645649 -3.1543218036483447
0.699102880702991 -3.261319958182443
0.6506436905453226 -3.3442166446151136
0.6015292754935523 -3.4020774722514204
0.5577708830659492 -3.4359954931221415
0.5140124906383499 -3.402077472251306
0.46489807558659046 -3.344216644614886
0.41643888542894086 -3.2613199581821175
0.3721034659673906 -3.1543218036479437
0.33335153401937984 -3.025252330184307
0.30038635270084796 -2.8767482585423294
0.2728949260702977 -2.7117132998531956
0.2504250567522101 -2.5330496818856303
0.2325076504119209 -2.343493299255195
0.21867472215290923 -2.1455360474527225
0.2084442775803412 -1.9413675781721698
0.20129093665149755 -1.732784317044597
0.19662498113034246 -1.5211568711086563
0.19381057361789705 -1.3074736715033402
0.19222382544812633 -1.092449219793658
0.19130583005153584 -0.8766275170318253
0.19069972558419965 -0.6603476612125427
0.19029716308410577 -0.4438044637657056
0.19009813521537405 -0.22721406640975797
0.19006004007974053 -0.010837110709070391
0.9795362392819976 -0.010841486304245923
0.9794874261710691 -0.22721217695487975
0.9792738850367247 -0.44377143470440766
0.9788335075534965 -0.6602902231746712
0.9781543194880533 -0.8765391511972549
0.9770719836672477 -1.092272586214255
0.9751470335904571 -1.3070781561336557
0.9717882621728514 -1.5203803977686667
0.9663256053610346 -1.7314566998908516
0.9580536144049984 -1.9393230149959275
0.9462990791613127 -2.1426250905321096
0.9304476469008265 -2.3395808062783905
0.9099311435670595 -2.5280081106979315
0.8842026577654968 -2.705416345662116
0.8527388552089745 -2.8690743288974847
0.815098117641987 -3.0161008491258987
0.771022727163823 -3.14365852791857
0.7207009327316756 -3.249300846820736
0.6654541564636842 -3.3314193153744616
0.6089255948332837 -3.389709009987661
0.5577708830659365 -3.4259998595784675
0.5066161712985938 -3.3897090099875484
0.4500876096682064 -3.331419315374238
0.3948408334002367 -3.249300846820416
0.34451903896811625 -3.143658527918176
0.30044364848998306 -3.016100849125447
0.2628029109230272 -2.869074328896991
0.2313391083665367 -2.7054163456615945
0.20561062256500595 -2.5280081106974013
0.18509411923126964 -2.339580806277864
0.16924268697081116 -2.1426250905316024
0.15748815172714895 -1.9393230149954508
0.14921616077113128 -1.7314566998904113
0.14375350395932857 -1.5203803977682697
0.14039473254173232 -1.307078156133307
0.13846978246494693 -1.0922725862139602
0.13738744664414324 -0.8765391511970142
0.13670825857870053 -0.6602902231744869
0.1362678810954727 -0.4437714347042782
0.1360543399611286 -0.22721217695480583
0.13600552685020006 -0.010841486304228756
1.0336052952248622 -0.010840267061096842
1.0335562794322293 -0.2272053033483901
1.0333372414543902 -0.44373542359631174
1.0328598136161293 -0.6602286762763441
1.0320969477767312 -0.8764367874455109
1.0308209045896977 -1.0920453328721997
1.0285338931107448 -1.3065818243617224
1.0246236151251962 -1.5194479579157172
1.0183690370429217 -1.7299034611855455
1.0089939866757316 -1.9369650019450917
0.995737409614068 -2.139290810207743
0.977891542849954 -2.3351127807452308
0.9547965760548208 -2.5222572422058245
0.9258275938190953 -2.6982395241048405
0.8904211979525459 -2.860344504335601
0.8481479757387022 -3.00572958577805
0.7988583520453264 -3.131635782707631
0.7428683896828329 -3.2357742449043125
0.6812841543096024 -3.316883544841972
0.6171217398644371 -3.375407327712699
0.5577708830659236 -3.4141552790412004
0.49842002626741544 -3.3754073277125887
0.4342576118222651 -3.3168835448417537
0.3726733764490594 -3.235774244903999
0.31668341408659634 -3.131635782707244
0.2673937903932552 -3.0057295857776065
0.22512056817944698 -2.860344504335115
0.189714172312933 -2.6982395241043284
0.16074519007724286 -2.5222572422053027
0.137650223282144 -2.335112780744711
0.11980435651806066 -2.139290810207243
0.10654777945642292 -1.9369650019446203
0.09717272908925356 -1.7299034611851094
0.09091815100699452 -1.519447957915323
0.08700787302145678 -1.3065818243613752
0.08472086154250998 -1.0920453328719055
0.08344481835547918 -0.8764367874452703
0.0826819525160818 -0.6602286762761597
0.08220452467782126 -0.4437354235961823
0.08198548669998246 -0.2272053033483162
0.08193647090734944 -0.010840267061079654
1.0876838325481923 -0.010838710412680702
1.0876511807939158 -0.22719598717707587
1.0874434728682256 -0.4436976738251825
1.0869265320425459 -0.6601616111813287
1.086058801107649 -0.8763134886856548
1.0845611156766766 -1.0917587967423839
1.0818994903785493 -1.3059803893810114
1.0774357392168583 -1.5183585809145033
1.0704029408654514 -1.7281273702857405
1.0599507949962315 -1.934298725086619
1.045226564913284 -2.135539477022535
1.02541915663674 -2.3300945078372575
0.9997748978829741 -2.515802022291746
0.9676055760328895 -2.690190204515929
0.9283049370003035 -2.8505684206150055
0.8814547734331704 -2.994151324567724
0.8270091460128594 -3.1182849082890804
0.7655141186526729 -3.220837146062914
0.6982597189527815 -3.30077944785986
0.6273183496899694 -3.359040734711736
0.5577708830659103 -3.399999999999996
0.4882234164418573 -3.3590407347116287
0.4172820471790619 -3.3007794478596475
0.3500276474791986 -3.2208371460626077
0.28853262011904723 -3.1182849082887025
0.23408699269877487 -2.9941513245672895
0.18723682913168072 -2.850568420614529
0.14793619009913392 -2.690190204515426
0.1157668682490885 -2.5158020222912327
0.09012260949536012 -2.3300945078367468
0.07031520121885013 -2.1355394770220415
0.05559097113593075 -1.9342987250861534
0.04513882526673316 -1.728127370285309
0.0381060269153436 -1.5183585809141125
0.033642275753664526 -1.305980389380666
0.030980650455544056 -1.091758796742091
0.029482965024575074 -0.8763134886854146
0.028615234089679167 -0.6601616111811442
0.028098293263999645 -0.44369767382505304
0.027890585338309893 -0.22719598717700198
0.027857933584033476 -0.010838710412663526
SCALARS Stress float 6
LOOKUP_TABLE default
-1191.8099396629027 -1989.1508227573606 -1514.0000138737855 -22.90236821954103 0.0 0.0
1317.255947385182 770.2819613389238 973.1498392859672 -22.156957959088913 0.0 0.0
589.8700987815231 144.42367670882712 232.9547203952072 -39.88805031309565 0.0 0.0
479.439294635314 24.53686504668986 154.91983483737164 -2.011170704326797 0.0 0.0
597.9228618195348 69.82699234245732 234.05410465148856 1.9553463912359068 0.0 0.0
707.649493234948 114.75321212617406 348.0104187973875 1.7342525121975414 0.0 0.0
827.033302791513 160.18538489506977 462.1376276770841 0.7246271487096752 0.0 0.0
947.6072286156251 221.77066455607138 568.2958537612061 -0.5901473516407273 0.0 0.0
1075.9074226260202 296.8232430135687 674.2512691569095 -2.115359438199105 0.0 0.0
1219.411856095574 391.57051154108103 794.3146710111544 -3.758631108803267 0.0 0.0
1383.2905293953472 510.69681003134406 935.8280399634539 -5.354069190516851 0.0 0.0
1567.760045033238 654.7741657806155 1099.7836623479975 -6.660482340520614 0.0 0.0
1768.111802234458 817.5450096331019 1280.8980735873138 -7.47522859360954 0.0 0.0
1977.6441199462572 992.1334819366182 1472.514889010763 -8.108695260149375 0.0 0.0
2187.402806566638 1169.4339999985054 1665.597139050697 -8.529244129990706 0.0 0.0
2387.340290819813 1339.5055135640807 1850.1762436995587 -8.689411563012994 0.0 0.0
2567.210495333986 1492.608671205294 2016.314410286555 -8.432048219210557 0.0 0.0
2716.5363420478043 1618.9181374351924 2153.898556487698 -7.658411002194316 0.0 0.0
2831.960740465069 1715.786496016729 2259.8379511518433 -6.529427611908055 0.0 0.0
2900.296545030357 1770.959282069247 2321.436686946321 -7.674160543305462 0.0 0.0
2891.9411451428205 1760.9827950320669 2312.5348193253017 1.1233503016683244e-10 0.0 0.0
2900.2965450307393 1770.9592820696548 2321.436686946546 7.674160543305602 0.0 0.0
2831.9607404644 1715.7864960161255 2259.837951151193 6.5294276118317836 0.0 0.0
2716.536342045495 1618.9181374329394 2153.898556486019 7.658411002173539 0.0 0.0
2567.210495333912 1492.6086712053411 2016.3144102863284 8.432048219230229 0.0 0.0
2387.3402908189655 1339.505513563391 1850.1762436986266 8.689411563080471 0.0 0.0
2187.4028065646626 1169.4339999966537 1665.597139049035 8.529244129890998 0.0 0.0
1977.644119945564 992.1334819361082 1472.5148890100184 8.108695260245259 0.0 0.0
1768.1118022335502 817.5450096324009 1280.8980735864395 7.475228593493835 0.0 0.0
1567.760045033755 654.7741657813588 1099.7836623483122 6.660482340508498 0.0 0.0
1383.2905293958306 510.6968100321251 935.8280399634322 5.354069190453686 0.0 0.0
1219.4118560941683 391.5705115399141 794.3146710100272 3.7586311087800492 0.0 0.0
1075.9074226254604 296.8232430132884 674.2512691563645 2.1153594381447824 0.0 0.0
947.6072286153717 221.7706645561132 568.295853760881 0.590147351637869 0.0 0.0
827.0333027903418 160.18538489413544 462.1376276761574 -0.7246271486510292 0.0 0.0
707.64949323536 114.7532121270329 348.01041879740797 -1.7342525120373224 0.0 0.0
597.9228618188347 69.82699234191567 234.05410465097464 -1.9553463911319326 0.0 0.0
479.43929463508005 24.536865046637487 154.91983483727 2.0111707043705636 0.0 0.0
589.8700987811953 144.4236767086364 232.9547203949914 39.8880503132165 0.0 0.0
1317.2559473846816 770.2819613384024 973.1498392853687 22.156957958934193 0.0 0.0
-1191.8099396602997 -1989.1508227546667 -1514.0000138711152 22.902368219218253 0.0 0.0
-1518.0433519560752 -2286.2229585621462 -1793.0809126429251 -23.90134541194625 0.0 0.0
897.6192615689699 426.31892870581356 609.371991857561 -30.681634381901755 0.0 0.0
410.992815665706 57.40156653976417 139.01019620810877 -33.924199115875226 0.0 0.0
423.5242856334601 4.390346934807387 129.66892924171108 -15.975194165771743 0.0 0.0
531.733886525514 30.86002656641893 189.9637403424627 -15.939341888662723 0.0 0.0
629.1368941920732 43.66423983877007 276.5106908933542 -20.985657031612558 0.0 0.0
711.8889067702995 59.86120521734215 362.1256534566769 -22.967338396224477 0.0 0.0
791.7183328596832 79.02085233551975 428.50325069348656 -23.48647995469554 0.0 0.0
865.7076822864208 99.08114800730718 480.1621073941977 -23.954111035031058 0.0 0.0
936.2832827799091 121.1027819098488 527.5604315538446 -24.56551146507597 0.0 0.0
1005.7893445266101 146.508562079502 575.3206174820251 -24.873932558338176 0.0 0.0
1075.691527297239 175.77579804032976 624.9879249713299 -24.8016663844782 0.0 0.0
1145.346001635068 208.93835474614647 676.401078052485 -24.363641515677667 0.0 0.0
1212.1569770459803 241.22377227306217 725.9347045977402 -23.762514372911333 0.0 0.0
1270.3273877110453 267.3813348752787 768.0827356979923 -23.035577436343132 0.0 0.0
1315.1873241116134 282.78241078257554 798.1974803549143 -21.98374537665614 0.0 0.0
1343.6336310289666 284.6952756336119 813.3651591749536 -20.358997396759293 0.0 0.0
1355.822731787845 273.8972870873038 814.0525079468819 -18.10358101884108 0.0 0.0
1348.7679982756895 248.28717700363543 797.8154052504398 -15.670950214348762 0.0 0.0
1290.8943340301307 177.59179056794048 734.2113282999376 -15.205049643557027 0.0 0.0
1190.9017100431097 76.60298925615422 634.8671707753217 6.272493635606224e-11 0.0 0.0
1290.8943340303072 177.59179056815273 734.211328300009 15.20504964357858 0.0 0.0
1348.767998275548 248.28717700355358 797.8154052502884 15.670950214333182 0.0 0.0
1355.8227317870414 273.8972870865933 814.0525079463634 18.103581018903817 0.0 0.0
1343.6336310296024 284.6952756343612 813.3651591754794 20.358997396837832 0.0 0.0
1315.18732411151 282.782410782604 798.1974803547753 21.983745376696938 0.0 0.0
1270.3273877105987 267.3813348749777 768.0827356976506 23.035577436230604 0.0 0.0
1212.1569770469778 241.22377227426603 725.9347045983288 23.762514372983695 0.0 0.0
1145.346001634422 208.93835474570128 676.4010780520285 24.363641515709865 0.0 0.0
1075.691527297365 175.77579804068233 624.9879249715276 24.80166638452507 0.0 0.0
1005.7893445269134 146.50856208003916 575.3206174822121 24.873932558389825 0.0 0.0
936.2832827800553 121.10278191028341 527.5604315539263 24.565511465122906 0.0 0.0
865.7076822854845 99.08114800659129 480.16210739355944 23.954111034946774 0.0 0.0
791.7183328592637 79.02085233537818 428.5032506931631 23.48647995461884 0.0 0.0
711.8889067698734 59.86120521720136 362.12565345626695 22.9673383962819 0.0 0.0
629.1368941922159 43.66423983930597 276.51069089328826 20.985657031671217 0.0 0.0
531.7338865250804 30.860026566288585 189.96374034216998 15.939341888755056 0.0 0.0
423.5242856332641 4.3903469348899975 129.66892924167738 15.975194165776173 0.0 0.0
410.9928156654347 57.401566539444346 139.01019620793087 33.9241991158383 0.0 0.0
897.6192615683426 426.31892870529913 609.3719918568927 30.681634381843647 0.0 0.0
-1518.0433519539301 -2286.222958559959 -1793.0809126407444 23.901345411510988 0.0 0.0
-1264.228254503371 -1997.8370444963662 -1512.1849984317703 -62.21974526363153 0.0 0.0
705.8097585923011 335.78867586062785 465.12760696258124 -98.78297096116609 0.0 0.0
287.2400314051311 65.26532164708748 105.76046903013365 -36.438746703436955 0.0 0.0
363.1455703077912 0.5590011195914844 108.94488029656063 -37.237097535401276 0.0 0.0
486.5646979960484 21.661274624517187 162.86058516059833 -38.28636721872958 0.0 0.0
596.1839798508553 38.80785164414267 246.49078489261345 -40.399017935552095 0.0 0.0
682.6613296076455 55.71180612115022 337.4902155884607 -42.8748292496399 0.0 0.0
763.2648062869396 71.34674757744465 407.2322744133753 -43.931226381946495 0.0 0.0
834.9448742637638 88.31345061205924 458.48580038898916 -45.01613349234173 0.0 0.0
901.8496403857289 106.39897686033524 502.5898575691899 -45.997619100723746 0.0 0.0
967.6467875290467 128.47048262169187 546.9099074166342 -46.20759355855903 0.0 0.0
1034.0134318222097 155.4173288020961 593.6558631179191 -45.612864167050766 0.0 0.0
1100.8015124933338 185.295268769048 642.0084226992471 -44.65928297070778 0.0 0.0
1163.8155139042838 215.01348381661745 688.3872527185963 -43.469958010505735 0.0 0.0
1219.5530558177988 239.2144048802257 728.3435857220248 -42.030073339126744 0.0 0.0
1263.446413575599 254.0163955936091 757.6634719550185 -40.07822800860253 0.0 0.0
1293.0648852807508 257.26091856932726 774.081778874542 -37.245910463144995 0.0 0.0
1305.4177281679429 246.5832755636065 774.9718448314758 -33.56025723447644 0.0 0.0
1290.3131708212006 212.86620980699067 750.8211538951181 -29.685066836094208 0.0 0.0
1256.4835015945487 166.3881186751565 711.0266489532921 -26.346430279658996 0.0 0.0
1136.7575178753357 46.211734710827535 592.4802740658628 7.098854837295221e-11 0.0 0.0
1256.4835015942301 166.38811867485407 711.0266489530343 26.346430279671274 0.0 0.0
1290.3131708219685 212.86620980787148 750.8211538957114 29.68506683623279 0.0 0.0
1305.4177281678124 246.58327556354732 774.971844831373 33.56025723461467 0.0 0.0
1293.0648852807733 257.2609185694454 774.0817788745167 37.24591046320668 0.0 0.0
1263.4464135764852 254.01639559466508 757.6634719557162 40.07822800862877 0.0 0.0
1219.5530558178853 239.21440488046778 728.3435857219873 42.030073339222724 0.0 0.0
1163.815513904994 215.01348381747994 688.3872527190003 43.469958010468424 0.0 0.0
1100.801512493033 185.29526876899482 642.008422699019 44.65928297079059 0.0 0.0
1034.0134318206906 155.41732880076984 593.6558631169399 45.612864167077184 0.0 0.0
967.6467875282293 128.47048262108973 546.909907416167 46.20759355857875 0.0 0.0
901.8496403865684 106.39897686146924 502.58985756975045 45.997619100809985 0.0 0.0
834.9448742632434 88.31345061180767 458.4858003886009 45.016133492304334 0.0 0.0
763.2648062863041 71.34674757708589 407.2322744129131 43.93122638193899 0.0 0.0
682.6613296072761 55.711806121053826 337.49021558807544 42.87482924966215 0.0 0.0
596.1839798502798 38.80785164384073 246.4907848921241 40.39901793545134 0.0 0.0
486.56469799567014 21.661274624429726 162.86058516039233 38.286367218815 0.0 0.0
363.1455703076805 0.5590011197257048 108.94488029657904 37.237097535287305 0.0 0.0
287.24003140493255 65.26532164663158 105.76046902993812 36.43874670329372 0.0 0.0
705.8097585916526 335.7886758602739 465.12760696195267 98.78297096115833 0.0 0.0
-1264.228254501292 -1997.8370444943448 -1512.1849984296277 62.21974526311095 0.0 0.0
-1030.6461395906076 -1733.6421662089062 -1256.4996748215335 -75.73574260167234 0.0 0.0
537.0955585214108 239.90552642211094 339.5500197096587 -145.13042495188023 0.0 0.0
209.40468307530628 57.11211278560113 79.95503875827221 -58.4309103060646 0.0 0.0
302.07285106082713 6.110905433475154 92.39385825757267 -58.79360381040951 0.0 0.0
431.45021329282724 11.658832263852961 135.98847486885785 -62.902530056256225 0.0 0.0
550.3178382590424 32.57595738101694 212.54981129585417 -61.283219527612545 0.0 0.0
650.5337065830993 49.460660926832205 307.1246993700116 -64.14666924767226 0.0 0.0
729.8769630531068 63.847604740987784 381.85281199519414 -64.65129329497718 0.0 0.0
800.1274197449824 77.73709611897623 434.2172670860813 -65.79691637918283 0.0 0.0
863.7499531940467 92.2837908894463 475.8674692913412 -66.75737576290268 0.0 0.0
925.5256577792072 110.76532515731462 516.5612769303234 -66.65042449256055 0.0 0.0
988.483991767914 134.30837659583526 559.9219750243826 -65.62872601233443 0.0 0.0
1051.685685359104 161.99319333354623 605.412710056565 -64.15248652739538 0.0 0.0
1111.517256936656 188.01166430220135 648.3728240183198 -62.51932358168096 0.0 0.0
1164.3858397322927 210.0790261074676 685.8330432143445 -60.4465253065951 0.0 0.0
1208.0885357669033 225.27628527414467 715.25559194628 -57.668817294827235 0.0 0.0
1238.8697396311984 229.54844246173082 732.7797020231933 -53.965670461438904 0.0 0.0
1251.0047590227623 218.41903113205112 733.3954479754323 -49.32698678627513 0.0 0.0
1240.9155317330458 189.3952101292655 714.0698737411642 -43.774938767228136 0.0 0.0
1219.9138915749327 155.07496577505879 686.6100841033086 -36.20307921189329 0.0 0.0
1051.5643231069923 -13.456485080232625 520.3492066543708 6.411937647499144e-11 0.0 0.0
1219.9138915741896 155.0749657743392 686.6100841028566 36.20307921191869 0.0 0.0
1240.915531734243 189.39521013058078 714.0698737420346 43.774938767448 0.0 0.0
1251.0047590226486 218.4190311320142 733.3954479753969 49.32698678639563 0.0 0.0
1238.8697396306081 229.5484424612109 732.7797020227296 53.96567046142856 0.0 0.0
1208.0885357676102 225.2762852750045 715.2555919467654 57.66881729483944 0.0 0.0
1164.3858397318188 210.07902610716238 685.833043213904 60.446525306756065 0.0 0.0
1111.517256936182 188.01166430188124 648.3728240180136 62.51932358167651 0.0 0.0
1051.6856853594966 161.99319333415713 605.4127100568086 64.1524865274601 0.0 0.0
988.4839917666972 134.30837659480312 559.9219750235877 65.62872601221237 0.0 0.0
925.5256577784097 110.76532515673438 516.561276929823 66.65042449254057 0.0 0.0
863.7499531939012 92.28379088955214 475.86746929122876 66.75737576290045 0.0 0.0
800.1274197449422 77.73709611922808 434.2172670860339 65.7969163791909 0.0 0.0
729.8769630526474 63.847604740817374 381.85281199480767 64.65129329503596 0.0 0.0
650.5337065824824 49.46066092647919 307.1246993694478 64.14666924751548 0.0 0.0
550.3178382585952 32.57595738092169 212.5498112954878 61.2832195275647 0.0 0.0
431.4502132923144 11.658832263638178 135.98847486864298 62.90253005614989 0.0 0.0
302.07285106079485 6.110905433545035 92.39385825757934 58.79360381036659 0.0 0.0
209.404683075238 57.11211278547048 79.95503875821255 58.43091030589773 0.0 0.0
537.0955585208309 239.90552642185784 339.55001970912423 145.13042495181298 0.0 0.0
-1030.6461395888523 -1733.6421662071264 -1256.4996748196295 75.7357426013179 0.0 0.0
-828.1452098508382 -1504.1991159381269 -1032.0777742591306 -74.80038014958245 0.0 0.0
412.5871202492849 156.47704412481792 242.10035622739113 -176.5278904816467 0.0 0.0
153.8747703120624 45.67607427024168 59.865253374691214 -88.40156943355349 0.0 0.0
247.13689695105478 12.293028771908102 77.8321846140733 -82.13135986460956 0.0 0.0
367.17206444393065 6.86839242281988 112.27032084187486 -87.94465036839541 0.0 0.0
496.24527924256176 20.41239502864541 175.47125815650693 -86.83785758246704 0.0 0.0
606.4059742076103 41.79030080181232 269.08925513484354 -85.60789809482631 0.0 0.0
690.6518563220644 57.191522328538895 351.75532471841814 -85.77480727240845 0.0 0.0
760.4715872838563 67.70581592162097 406.61517915192013 -86.26786714267647 0.0 0.0
821.0369618208531 78.53166526280789 446.6031918577711 -86.8023261738268 0.0 0.0
879.2841754791809 93.19795571655268 484.01017553972713 -86.24538638600292 0.0 0.0
938.2946618398996 113.19401662664689 523.7017692317074 -84.75704135443813 0.0 0.0
998.0019112211048 137.24480356020314 565.6518467228874 -82.94385608864975 0.0 0.0
1054.385349297312 161.45242921614107 606.0288614985603 -80.84742807521414 0.0 0.0
1104.8235878394992 181.0218755403788 641.0505200492029 -78.21498377122076 0.0 0.0
1147.2749966065558 194.69903055007873 669.0791693513395 -74.82517248193449 0.0 0.0
1179.4083425281542 200.7005849324443 688.1523960654574 -70.52840058402867 0.0 0.0
1195.8942963213 193.6329537995431 692.9736320099589 -65.19898452489822 0.0 0.0
1192.6280097646236 170.62432506670774 680.038896700257 -57.829839589315775 0.0 0.0
1177.6149345185465 140.79575124065857 657.7626390483068 -46.34343614941811 0.0 0.0
949.2333051236733 -87.44395765111612 432.7139219705115 2.397371190454578e-11 0.0 0.0
1177.6149345175654 140.79575123972694 657.7626390476822 46.34343614944591 0.0 0.0
1192.628009765136 170.6243250673112 680.0388967005254 57.82983958946433 0.0 0.0
1195.894296320673 193.63295379895698 692.9736320095832 65.19898452495383 0.0 0.0
1179.4083425277722 200.7005849321638 688.1523960651087 70.52840058397588 0.0 0.0
1147.2749966068927 194.6990305505787 669.0791693515954 74.82517248202826 0.0 0.0
1104.8235878384987 181.02187553950932 641.0505200484833 78.21498377127803 0.0 0.0
1054.3853492973685 161.45242921642847 606.0288614986456 80.84742807528266 0.0 0.0
998.0019112212694 137.2448035605638 565.6518467229522 82.94385608880955 0.0 0.0
938.2946618394808 113.19401662638063 523.7017692313837 84.75704135427877 0.0 0.0
879.2841754796933 93.19795571734183 484.0101755400295 86.24538638605209 0.0 0.0
821.0369618199891 78.53166526213016 446.60319185721403 86.80232617371402 0.0 0.0
760.4715872832674 67.70581592125663 406.61517915150466 86.26786714258554 0.0 0.0
690.651856321545 57.19152232829394 351.7553247179768 85.77480727235422 0.0 0.0
606.4059742067858 41.790300801157144 269.0892551341554 85.60789809464761 0.0 0.0
496.2452792423605 20.41239502888111 175.4712581563642 86.83785758247319 0.0 0.0
367.1720644436177 6.8683924227976245 112.27032084178549 87.94465036813274 0.0 0.0
247.1368969510868 12.293028771981621 77.83218461410173 82.13135986454839 0.0 0.0
153.8747703120142 45.67607427010122 59.86525337463459 88.4015694333654 0.0 0.0
412.5871202487425 156.47704412447192 242.10035622689935 176.52789048149924 0.0 0.0
-828.1452098493512 -1504.199115936424 -1032.0777742574242 74.80038014949216 0.0 0.0
-650.3239896059645 -1301.2573188110657 -832.7883285296763 -71.77661481868674 0.0 0.0
314.67938178282367 91.83976064681904 167.4797724242347 -194.5991960237486 0.0 0.0
111.55167423351372 32.00810727721866 43.0679344532197 -116.93432325510386 0.0 0.0
197.21152155864738 17.355318220921912 64.37213972854241 -105.76919256353891 0.0 0.0
300.28612326548637 5.224489982575849 91.14354210290199 -112.20098518390064 0.0 0.0
427.24731070397905 10.664102225740518 139.91629742364512 -112.9796086070132 0.0 0.0
545.2157479520939 33.401302587276845 224.70624962098015 -108.53929765963898 0.0 0.0
643.9484104791004 47.7166160245 312.75573507439753 -108.04671178584987 0.0 0.0
712.9202746443553 58.25211929332746 373.5823064597117 -106.33674154762014 0.0 0.0
772.919193426187 64.95584491483994 413.867879781574 -106.15627027751428 0.0 0.0
827.6475571871881 75.75558503012316 448.4417500940912 -104.97781935083252 0.0 0.0
882.770441153388 92.13038157616128 484.5608480613827 -102.97420003890977 0.0 0.0
938.5968559877384 113.02444196840284 523.0439914647562 -100.79783778698143 0.0 0.0
991.43136743272 133.5275473630601 559.842620402472 -98.45045803993317 0.0 0.0
1039.1665696451194 151.21742977190075 592.6140136225554 -95.4029960580772 0.0 0.0
1080.2203270592067 164.13189107492613 619.5999441130454 -91.3845227200279 0.0 0.0
1113.8082300465799 170.71962002087844 639.6587961147471 -86.74131733006627 0.0 0.0
1136.8629737024219 169.9749562198124 650.8761748178704 -81.02460182436224 0.0 0.0
1142.1131318051473 154.6145776720451 646.0259017393847 -72.2603709822738 0.0 0.0
1130.714120997075 126.06582219428265 626.206156338217 -57.47517220478232 0.0 0.0
830.9158343201392 -172.92201886435788 331.5838477717959 6.748734904249432e-11 0.0 0.0
1130.7141209971187 126.06582219438148 626.2061563383738 57.475172204847546 0.0 0.0
1142.1131318056878 154.6145776727252 646.0259017397368 72.26037098250242 0.0 0.0
1136.862973702225 169.97495621974917 650.8761748178044 81.02460182453146 0.0 0.0
1113.808230046447 170.719620020809 639.6587961146082 86.7413173301144 0.0 0.0
1080.220327059865 164.13189107572393 619.5999441135626 91.38452272004871 0.0 0.0
1039.16656964459 151.21742977153258 592.6140136222409 95.40299605809166 0.0 0.0
991.4313674324919 133.52754736304283 559.8426204022938 98.45045804006187 0.0 0.0
938.5968559874486 113.02444196825581 523.0439914645196 100.7978377870148 0.0 0.0
882.7704411534262 92.13038157640858 484.56084806137017 102.97420003884729 0.0 0.0
827.6475571871197 75.75558503019852 448.4417500939443 104.97781935078243 0.0 0.0
772.9191934258374 64.95584491473406 413.86787978134834 106.15627027740652 0.0 0.0
712.9202746439079 58.25211929314278 373.5823064593504 106.33674154760116 0.0 0.0
643.9484104784214 47.71661602405264 312.7557350738364 108.04671178572539 0.0 0.0
545.2157479514057 33.40130258690882 224.70624962043107 108.53929765963487 0.0 0.0
427.2473107034424 10.664102225439752 139.91629742331077 112.97960860687847 0.0 0.0
300.28612326526 5.224489982832532 91.1435421029377 112.20098518372271 0.0 0.0
197.21152155858306 17.355318220899644 64.37213972851659 105.76919256339252 0.0 0.0
111.55167423341253 32.0081072771232 43.0679344531607 116.93432325492336 0.0 0.0
314.67938178223585 91.83976064638448 167.47977242376544 194.5991960236094 0.0 0.0
-650.3239896045839 -1301.2573188095143 -832.7883285281418 71.77661481858196 0.0 0.0
-497.00668188893917 -1115.7150771542747 -656.2324229003419 -69.36941804310143 0.0 0.0
237.35296753780918 40.674949335970545 110.53771842749728 -205.5504604657809 0.0 0.0
77.28352078891439 18.564854349895704 28.754417307203703 -140.51596642573708 0.0 0.0
150.30083645856743 20.67991326520325 51.29529407309413 -127.76350719533102 0.0 0.0
234.7031534731277 6.305192271167995 72.12346345089071 -133.48253850335877 0.0 0.0
348.4608247694838 1.6161115924762623 106.41725594918705 -141.00982392212146 0.0 0.0
470.72846427988816 19.958719608521857 175.07432060649487 -135.17866322764326 0.0 0.0
577.2039226586254 39.227105244795524 263.02859598516113 -130.0149258608399 0.0 0.0
658.6208677174387 45.702293440128166 331.54213540103103 -128.08552029592144 0.0 0.0
715.8696572221833 51.652649327937766 375.1166311419256 -124.66908142153534 0.0 0.0
769.2095633800035 58.50999614822775 408.6635212724251 -122.76642615186803 0.0 0.0
820.4942634558402 71.03603451195184 441.4480427393419 -120.26197086302167 0.0 0.0
872.040132452711 88.27106158087362 476.11905860786317 -117.73983255400212 0.0 0.0
921.0100720701686 105.86453980705247 509.60671255120303 -115.15501042700713 0.0 0.0
965.5544898443675 120.99332458522127 539.5777884269531 -111.91134204677898 0.0 0.0
1004.6131543707805 131.2612274051609 564.2870862877367 -107.65704840805977 0.0 0.0
1039.2676077362455 140.16584289249502 586.0181870594104 -102.32784598735857 0.0 0.0
1070.7624584606747 146.75817769595162 605.0221170774502 -96.53213572098242 0.0 0.0
1086.858181590778 140.30990631104893 610.0276375121608 -87.42360333421072 0.0 0.0
1079.4558912858092 112.97451468757279 592.9186362012665 -70.35944366991274 0.0 0.0
694.675376650464 -269.3907564461186 216.31875954387243 9.977796366911207e-11 0.0 0.0
1079.455891285957 112.9745146878274 592.9186362015464 70.3594436701471 0.0 0.0
1086.8581815901782 140.30990631051125 610.0276375117722 87.42360333447365 0.0 0.0
1070.7624584608184 146.75817769626934 605.022117077608 96.53213572119982 0.0 0.0
1039.2676077357203 140.16584289207825 586.0181870590286 102.3278459874573 0.0 0.0
1004.6131543715651 131.26122740610114 564.2870862882355 107.65704840816448 0.0 0.0
965.554489845127 120.99332458626714 539.5777884274926 111.9113420469424 0.0 0.0
921.0100720696364 105.86453980666741 509.60671255084316 115.15501042702992 0.0 0.0
872.0401324522579 88.27106158055047 476.1190586075695 117.73983255401825 0.0 0.0
820.494263456565 71.0360345129009 441.4480427398002 120.26197086303347 0.0 0.0
769.2095633794917 58.509996147916496 408.6635212720089 122.76642615179395 0.0 0.0
715.8696572222585 51.65264932835498 375.1166311420118 124.66908142159387 0.0 0.0
658.6208677167724 45.70229343962339 331.542135400481 128.08552029583154 0.0 0.0
577.2039226582325 39.227105244766356 263.0285959847929 130.01492586080556 0.0 0.0
470.7284642795267 19.958719608590663 175.07432060622898 135.17866322768225 0.0 0.0
348.4608247690581 1.6161115924145388 106.41725594902061 141.00982392193472 0.0 0.0
234.70315347299524 6.3051922711431825 72.12346345084359 133.482538503331 0.0 0.0
150.3008364586791 20.679913265487553 51.29529407321251 127.76350719511822 0.0 0.0
77.28352078893278 18.564854349946085 28.754417307224443 140.51596642555643 0.0 0.0
237.35296753734164 40.674949335772354 110.53771842717553 205.55046046566136 0.0 0.0
-497.00668188787915 -1115.7150771530562 -656.2324228990793 69.36941804293264 0.0 0.0
-361.9788209928887 -954.7130704030499 -500.8303489249961 -75.68281531442263 0.0 0.0
171.5561110867036 2.0132592867532573 66.27331298261228 -208.0719620993967 0.0 0.0
47.87585787045817 7.513902853719719 16.61674680907028 -158.43862321310837 0.0 0.0
104.96022468559258 22.047857628641392 38.103656588231864 -146.7283503638321 0.0 0.0
172.09570846490234 8.601074814023026 54.1038689666667 -152.00909454664105 0.0 0.0
260.5778424185893 -1.2883558740398988 77.27268587230343 -164.8585012377317 0.0 0.0
376.3297529078578 6.382570860440621 124.9094961163011 -163.80323194145734 0.0 0.0
490.0325613284402 25.16416531228744 200.94542917297576 -153.86487188654996 0.0 0.0
582.3737449168422 35.05265160127996 275.3511412546433 -148.28623899913447 0.0 0.0
648.032646721296 35.567712452352005 325.2151592319391 -144.02287122401736 0.0 0.0
699.308406131904 40.50609411686081 360.4075781482281 -139.52508760945454 0.0 0.0
747.581861630536 50.074842321849395 391.6092565406996 -136.3733307883815 0.0 0.0
795.1631689144416 63.61112127872206 422.9243610646191 -133.51891901610267 0.0 0.0
839.3058884611153 77.41394388342206 452.3062430080103 -130.7744142311879 0.0 0.0
880.5708491658446 89.83584532717104 479.36914526742993 -127.64085932049737 0.0 0.0
917.2689899395042 99.06612600600184 502.5136776810689 -123.34064214563469 0.0 0.0
951.4153932724319 106.04557332067128 523.1247795732016 -117.5923486222164 0.0 0.0
990.2216122920498 119.68136033521517 549.1006666487361 -111.37072307047296 0.0 0.0
1022.4230967045362 128.57265629541536 569.7444427437424 -103.0946057993878 0.0 0.0
1023.6957764297335 105.87766795997548 559.5773488340185 -85.93483904929357 0.0 0.0
534.7948627576407 -376.63067993260415 84.3522708102873 -1.0452083643031074e-11 0.0 0.0
1023.69577642949 105.87766795987662 559.5773488339886 85.93483904946473 0.0 0.0
1022.4230967036683 128.57265629462756 569.7444427431585 103.09460579960779 0.0 0.0
990.2216122925552 119.68136033586823 549.1006666490687 111.37072307066676 0.0 0.0
951.4153932718365 106.04557332024437 523.1247795727544 117.59234862227882 0.0 0.0
917.2689899390369 99.06612600562387 502.513677680787 123.34064214571674 0.0 0.0
880.5708491659834 89.83584532745529 479.3691452675595 127.64085932064509 0.0 0.0
839.305888461144 77.41394388364544 452.3062430080644 130.7744142311826 0.0 0.0
795.1631689129565 63.611121277164116 422.92436106363175 133.51891901604893 0.0 0.0
747.581861631559 50.07484232318756 391.60925654136923 136.37333078839043 0.0 0.0
699.3084061319274 40.506094117156216 360.4075781482149 139.52508760946904 0.0 0.0
648.0326467213382 35.567712452647335 325.21515923195875 144.02287122396248 0.0 0.0
582.3737449160325 35.05265160070067 275.35114125402924 148.28623899908564 0.0 0.0
490.032561328546 25.16416531300096 200.94542917299148 153.8648718866487 0.0 0.0
376.32975290754644 6.382570860461314 124.90949611609872 163.8032319414208 0.0 0.0
260.57784241836026 -1.288355873612867 77.272685872388 164.85850123747917 0.0 0.0
172.09570846466076 8.60107481380442 54.10386896652714 152.0090945464743 0.0 0.0
104.96022468556961 22.047857628862438 38.10365658829192 146.72835036367772 0.0 0.0
47.87585787042965 7.513902853849756 16.616746809100665 158.43862321291166 0.0 0.0
171.55611108630595 2.0132592865818637 66.2733129823654 208.07196209926633 0.0 0.0
-361.9788209920144 -954.7130704018685 -500.83034892392703 75.68281531441872 0.0 0.0
-259.10363804588934 -799.4428726848396 -375.12570364063623 -82.72718740960616 0.0 0.0
115.08256413631261 -29.339157689087195 32.53015625965266 -204.24549155989834 0.0 0.0
20.387724784021962 0.028333492869140553 6.126559022158882 -171.16280593388893 0.0 0.0
60.75193723567387 21.877396602440694 24.7875460585827 -161.8430989499812 0.0 0.0
109.70196136850171 11.608908373343759 36.32566418227337 -166.61035444790488 0.0 0.0
171.012537664672 0.5728908970527071 51.2091415852409 -181.82834192765975 0.0 0.0
260.80464464807187 -3.0799624595783337 78.47377078246151 -193.19927414949086 0.0 0.0
373.1720201366424 5.575107914218361 129.55778042144846 -183.88531072735557 0.0 0.0
475.84983540272543 17.24504426892777 196.5959154139421 -169.22693888792048 0.0 0.0
551.7640545195194 19.385464107010208 252.8724357638329 -160.84781522568187 0.0 0.0
607.2311161417664 21.900057647528985 293.82726053795375 -154.54294736546785 0.0 0.0
654.1215834035678 27.843507154993876 325.6830375888229 -150.80369900400282 0.0 0.0
698.0316310661585 38.57123069379148 355.5001789161217 -147.71944968569184 0.0 0.0
737.1940642553357 48.61387732400752 381.33089565665375 -144.88149539836567 0.0 0.0
773.9442025480947 58.16251460397173 405.0983911210971 -142.1301704161625 0.0 0.0
808.8054970409705 66.30001298709142 427.04769851847766 -138.47608426742 0.0 0.0
842.5186353222995 72.93563666578017 447.7222451160674 -132.7399293656286 0.0 0.0
881.8040672821226 85.49414396562162 473.5976104383909 -125.40184214835928 0.0 0.0
933.1327130443823 110.6773852074225 511.4781842944305 -118.49035001570415 0.0 0.0
960.1885267118035 108.95986610345028 525.2585631421885 -105.72499875582312 0.0 0.0
342.4170189401162 -490.6987557610859 -66.34802529331165 1.3752554650636739e-11 0.0 0.0
960.1885267121886 108.95986610401934 525.258563142628 105.72499875602102 0.0 0.0
933.1327130439876 110.6773852070705 511.47818429413024 118.4903500158147 0.0 0.0
881.804067282937 85.49414396662121 473.59761043897015 125.40184214860754 0.0 0.0
842.5186353216834 72.93563666523248 447.7222451156409 132.73992936571238 0.0 0.0
808.8054970410599 66.30001298725398 427.04769851850637 138.47608426732833 0.0 0.0
773.9442025467753 58.1625146027332 405.09839112016664 142.130170416149 0.0 0.0
737.1940642555444 48.61387732448675 381.3308956567712 144.8814953984767 0.0 0.0
698.031631065254 38.5712306930364 355.5001789154617 147.71944968569957 0.0 0.0
654.1215834031127 27.84350715456914 325.68303758858644 150.8036990039947 0.0 0.0
607.2311161411745 21.900057647169042 293.82726053755823 154.54294736544944 0.0 0.0
551.7640545194905 19.385464107310487 252.8724357637889 160.8478152257475 0.0 0.0
475.84983540256775 17.245044269287582 196.59591541381417 169.2269388880024 0.0 0.0
373.1720201364181 5.575107914506807 129.55778042136313 183.88531072748026 0.0 0.0
260.8046446476715 -3.0799624595707367 78.47377078233109 193.19927414934614 0.0 0.0
171.01253766459985 0.572890897493969 51.209141585369956 181.8283419274139 0.0 0.0
109.70196136851389 11.608908373614275 36.32566418236258 166.61035444753148 0.0 0.0
60.75193723560929 21.877396602268995 24.787546058510614 161.84309894992978 0.0 0.0
20.38772478412857 0.02833349320054257 6.126559022289548 171.16280593368614 0.0 0.0
115.08256413593614 -29.339157689370097 32.53015625941134 204.2454915596958 0.0 0.0
-259.1036380452325 -799.4428726837766 -375.12570363982826 82.727187409707 0.0 0.0
-177.50514166137862 -663.4055638888352 -274.6151511703222 -97.60761111537347 0.0 0.0
64.1625332253295 -53.19731170013115 5.984337712482863 -194.3812537809675 0.0 0.0
-6.171536242175348 -3.4158496979332287 -2.8774858249062296 -178.9516130622298 0.0 0.0
17.3752877700982 20.667092216541292 11.411673369580086 -172.56885587801546 0.0 0.0
47.26809482198013 14.41730414677561 18.48438421161862 -176.88739188527205 0.0 0.0
82.57487039117161 3.9229181476998964 25.827292700826533 -193.56576326704536 0.0 0.0
130.5133133943738 -1.722977617810591 38.60155849886327 -209.9862598882568 0.0 0.0
205.7892727856012 -5.343014067594314 61.04878931977628 -213.8905593473799 0.0 0.0
304.2254607191385 -11.8249457229762 93.76781773307751 -201.50866149436519 0.0 0.0
394.1486076630354 -17.014022131656958 131.58770553605885 -181.46134589033736 0.0 0.0
455.8550352438497 -11.059840259954665 169.69372721584256 -167.84921219731697 0.0 0.0
501.16194044507125 0.42441898562228175 203.24315548981787 -161.49839957813134 0.0 0.0
540.4461859058988 10.31338961102852 232.92911212491984 -159.68463093446184 0.0 0.0
574.5970202964321 18.61226718134005 258.5131924915185 -158.6298956934619 0.0 0.0
606.2416246738107 26.586331629391914 282.180047652838 -157.8350510095669 0.0 0.0
638.4722403433616 34.237697868512896 305.8021094074846 -156.5652571496578 0.0 0.0
673.5990423816868 40.99304875427124 330.61773055307316 -152.2396323320514 0.0 0.0
712.1182225108324 46.54377693974361 356.29774331432344 -143.9438311610577 0.0 0.0
768.1433666289547 66.97521507913714 394.9017984702771 -135.3229166141792 0.0 0.0
852.5401784155516 112.62758220405027 462.2976171129517 -131.84451339449083 0.0 0.0
84.39073507972356 -606.8515414604196 -247.8022339562774 -3.1590730031894054e-11 0.0 0.0
852.540178415831 112.62758220467875 462.2976171133504 131.84451339478136 0.0 0.0
768.1433666287135 66.9752150787425 394.9017984699775 135.32291661433092 0.0 0.0
712.1182225108603 46.543776939995716 356.29774331444656 143.94383116121153 0.0 0.0
673.5990423812675 40.99304875403084 330.6177305527155 152.23963233219803 0.0 0.0
638.472240343945 34.23769786901507 305.8021094079516 156.56525714967592 0.0 0.0
606.2416246733693 26.586331628852164 282.1800476525383 157.8350510094963 0.0 0.0
574.5970202965922 18.612267181781228 258.5131924916301 158.62989569348306 0.0 0.0
540.4461859057561 10.313389610737051 232.92911212485095 159.6846309345765 0.0 0.0
501.16194044395587 0.4244189842535313 203.24315548897565 161.49839957776885 0.0 0.0
455.85503524332916 -11.059840260584284 169.6937272154415 167.84921219727605 0.0 0.0
394.1486076629117 -17.014022131437798 131.58770553602653 181.46134589024953 0.0 0.0
304.2254607191712 -11.824945722426046 93.76781773321838 201.50866149449877 0.0 0.0
205.78927278511136 -5.343014067889753 61.04878931953419 213.89055934737684 0.0 0.0
130.51331339399673 -1.7229776182319285 38.60155849862251 209.98625988802794 0.0 0.0
82.57487039109247 3.922918147684623 25.82729270079861 193.56576326682242 0.0 0.0
47.26809482210534 14.417304147136955 18.4843842117663 176.8873918850049 0.0 0.0
17.375287770043222 20.66709221635692 11.411673369508431 172.56885587791328 0.0 0.0
-6.171536242127864 -3.415849697734268 -2.8774858248356003 178.95161306204795 0.0 0.0
64.16253322498595 -53.19731170038693 5.984337712286066 194.38125378075682 0.0 0.0
-177.5051416609097 -663.4055638879387 -274.6151511697739 97.60761111549496 0.0 0.0
-127.3848406910906 -537.7176338523104 -204.06493051494556 -109.39327813463338 0.0 0.0
19.019849039328633 -68.89987406523778 -14.332500747592054 -178.87245025883308 0.0 0.0
-31.41918040527244 -4.269175892869808 -10.700655121104845 -182.7080714818562 0.0 0.0
-25.094839535769278 19.08737216694712 -1.8041589373096762 -178.8550340394336 0.0 0.0
-14.391460554113268 16.77680587164757 0.7160892923645885 -182.47594189868067 0.0 0.0
-6.597605224027772 7.667854698417493 0.32681421951739864 -197.880408857597 0.0 0.0
-2.750569712138919 1.3657840442186324 -0.41997870960359673 -215.35103346558031 0.0 0.0
-0.8290385153088806 0.10661431795641452 -0.22442608710322354 -219.35535430498183 0.0 0.0
-0.17960977232085185 -0.03461838951927909 -0.0671096360255703 -211.18081184383277 0.0 0.0
0.07008968449328279 -0.0006321334018810632 0.0278161761262794 -203.86269423307436 0.0 0.0
-0.23986678132570205 -0.045555464642941246 -0.1363626068336572 -202.79078992730552 0.0 0.0
-0.7760349275179266 0.1834611908215038 0.16539590692773487 -195.6283573532566 0.0 0.0
-1.985658155170185 0.6759418682747196 0.2776377168009674 -185.77212324915274 0.0 0.0
-1.3172263546883585 1.7792526095219472 0.7365443854690028 -178.17359678957865 0.0 0.0
5.0843117216469125 4.931209161674829 1.8153037428764094 -172.81662241664316 0.0 0.0
24.786216358054872 11.1780732973222 4.958116970332156 -168.22630471884915 0.0 0.0
68.40447721150476 22.585734806044172 12.552572187490313 -163.03226274000656 0.0 0.0
152.8180465369412 30.691586181784345 17.01071919345641 -154.1463740102389 0.0 0.0
365.29134438428724 -17.603858827843 30.507414742890447 -147.74617889609692 0.0 0.0
570.931970275469 15.198234629984213 219.6399371724459 -189.60906771238356 0.0 0.0
-550.9439522152027 -833.2353238367156 -614.5818724821689 -1.6655121726216748e-11 0.0 0.0
570.9319702763121 15.19823463152673 219.6399371731114 189.60906771227764 0.0 0.0
365.2913443843242 -17.603858827790503 30.50741474295394 147.74617889689776 0.0 0.0
152.81804653654973 30.691586181392864 17.010719193088804 154.14637401068472 0.0 0.0
68.40447721165273 22.585734806297424 12.552572187596681 163.03226274009552 0.0 0.0
24.786216357826078 11.178073296817615 4.95811697005864 168.22630471875598 0.0 0.0
5.0843117223214875 4.931209162260473 1.8153037433766315 172.81662241655783 0.0 0.0
-1.3172263541765545 1.7792526100557566 0.7365443858129339 178.17359678957888 0.0 0.0
-1.9856581551889576 0.6759418680865181 0.2776377166764803 185.77212324927223 0.0 0.0
-0.7760349276068723 0.18346118975803805 0.1653959065508488 195.62835735327147 0.0 0.0
-0.23986678082443547 -0.04555546489148554 -0.13636260677141365 202.79078992712098 0.0 0.0
0.07008968487671297 -0.0006321334652330535 0.02781617621047161 203.86269423284918 0.0 0.0
-0.17960977237560982 -0.034618390125269016 -0.06710963622351329 211.180811843929 0.0 0.0
-0.8290385152576878 0.10661431793721654 -0.2244260870874859 219.35535430503376 0.0 0.0
-2.7505697118918775 1.3657840446731901 -0.4199787093896683 215.35103346533978 0.0 0.0
-6.597605224005028 7.667854698258427 0.32681421947560363 197.8804088573515 0.0 0.0
-14.391460553955572 16.776805871761393 0.7160892924456361 182.47594189852794 0.0 0.0
-25.094839535565185 19.087372167132095 -1.8041589371945703 178.85503403924014 0.0 0.0
-31.41918040525796 -4.269175892732801 -10.700655121058151 182.7080714817822 0.0 0.0
19.01984903905852 -68.89987406542919 -14.332500747738049 178.87245025866014 0.0 0.0
-127.38484069093472 -537.7176338515994 -204.06493051466703 109.39327813462731 0.0 0.0
-102.86831796735726 -423.7724743743911 -157.8729895042913 -110.58170615144891 0.0 0.0
-12.867652104027304 -78.26666605459364 -27.354753757611146 -165.2771487691872 0.0 0.0
-55.03149412736492 -4.614138559015572 -17.898444418028966 -182.2897594475147 0.0 0.0
-66.17309292367362 17.674501072102974 -14.551345866721665 -180.53049896688378 0.0 0.0
-74.91342170199373 18.38378456897495 -16.961025687844188 -182.744730330347 0.0 0.0
-94.58907992810956 11.187185173434857 -24.972643545474405 -195.39314327260706 0.0 0.0
-135.82411597109083 4.670541227698812 -39.28423718738515 -211.40266808117275 0.0 0.0
-207.09470581846995 5.451237452013076 -61.47760107343317 -214.1381017602384 0.0 0.0
-304.3490997778584 11.62501876733351 -93.90863547118371 -201.52135071726863 0.0 0.0
-394.06306358692854 17.020693419695366 -131.54049877547084 -181.43236853402374 0.0 0.0
-456.3260939387451 11.085786360756842 -169.76487012373232 -167.89351604846837 0.0 0.0
-501.67341334620767 -0.45029371515266803 -203.9431060515243 -161.39933346842224 0.0 0.0
-541.6396835086897 -9.586848519848907 -233.99059797565326 -159.1350554637475 0.0 0.0
-574.5850054654721 -15.130939714041986 -257.62972072249767 -157.81133538658383 0.0 0.0
-598.7123484211618 -17.075274158806963 -273.0901845425022 -157.78750967162085 0.0 0.0
-611.8500099077144 -14.030380399427287 -277.6008700557701 -159.95327586418063 0.0 0.0
-612.0656444648893 -6.019736751584645 -268.99395201053744 -164.62948988515532 0.0 0.0
-605.8730489989082 0.9492396969439909 -247.94357459405768 -174.45539453908154 0.0 0.0
-587.5945489584376 46.95684538314296 -191.0651363213334 -188.18613469898327 0.0 0.0
-323.4959801162545 138.99022293161795 2.4801386972597186 -143.6048047631087 0.0 0.0
-1101.7555415252252 -1080.1694305298267 -1107.5129336155007 -1.3666578979609767e-10 0.0 0.0
-323.49598011547164 138.99022293342898 2.4801386979781626 143.6048047637039 0.0 0.0
-587.5945489580356 46.956845383408265 -191.0651363211824 188.18613469910392 0.0 0.0
-605.8730489986701 0.9492396967943648 -247.94357459380288 174.45539453917462 0.0 0.0
-612.065644465159 -6.019736751800963 -268.99395201072457 164.62948988526009 0.0 0.0
-611.8500099066733 -14.030380398307756 -277.60087005506523 159.95327586401697 0.0 0.0
-598.7123484211033 -17.075274158817344 -273.09018454245137 157.7875096716495 0.0 0.0
-574.5850054653973 -15.13093971421496 -257.6297207224974 157.81133538665654 0.0 0.0
-541.6396835082398 -9.586848519312476 -233.99059797529316 159.13505546368611 0.0 0.0
-501.67341334593095 -0.45029371527595075 -203.9431060512519 161.3993334684016 0.0 0.0
-456.32609393816244 11.085786361127152 -169.76487012331762 167.8935160484895 0.0 0.0
-394.06306358690836 17.0206934189068 -131.54049877556758 181.4323685341115 0.0 0.0
-304.34909977747543 11.62501876676686 -93.90863547118639 201.52135071741537 0.0 0.0
-207.09470581770893 5.451237452559505 -61.477601073027 214.13810176019115 0.0 0.0
-135.82411597044734 4.670541228278856 -39.284237187031806 211.40266808098468 0.0 0.0
-94.5890799278026 11.187185173553376 -24.972643545349996 195.39314327235323 0.0 0.0
-74.91342170185942 18.38378456890964 -16.961025687827288 182.74473033015963 0.0 0.0
-66.17309292360525 17.67450107215816 -14.551345866688012 180.53049896668887 0.0 0.0
-55.03149412731052 -4.61413855890242 -17.898444417981388 182.28975944741163 0.0 0.0
-12.867652104073308 -78.26666605467466 -27.354753757646556 165.27714876907004 0.0 0.0
-102.86831796729565 -423.7724743738049 -157.87298950414663 110.58170615134173 0.0 0.0
-85.36582520804876 -324.10902863743553 -122.84561377161366 -102.50256615543394 0.0 0.0
-33.51807295481768 -81.2212736540945 -34.41778937914866 -153.31295453543166 0.0 0.0
-77.06243641278483 -5.104639009352629 -24.64205137489257 -178.3577101972458 0.0 0.0
-105.32786829885141 16.304906238851416 -26.723323394623627 -177.36891829526576 0.0 0.0
-134.33528848045495 19.485797825931435 -34.37297835760615 -178.89850534076942 0.0 0.0
-181.45673780745437 14.50744277313556 -49.81504312639806 -187.97209631957193 0.0 0.0
-262.92132893056436 4.952308472592215 -79.10468786869895 -192.55194027274462 0.0 0.0
-373.42717781762315 -5.784003906354393 -129.8801672803051 -184.31465919654022 0.0 0.0
-475.8839881139213 -17.47113201684108 -196.69772747655935 -169.31387652009786 0.0 0.0
-551.7129144699832 -19.434452824302888 -252.8741800703746 -160.8198629249161 0.0 0.0
-607.2141678679418 -21.8548461494647 -293.83712600776585 -154.4899148024628 0.0 0.0
-654.4620680103285 -27.76821880947592 -325.900851910568 -150.44335542126265 0.0 0.0
-698.6732228677397 -38.009107246580115 -355.7083391130771 -146.72865477053034 0.0 0.0
-736.4137515337666 -45.93135078339358 -379.9054100819593 -143.55456959001705 0.0 0.0
-766.1095176869538 -49.47221627160731 -397.23427377253057 -142.17003731123347 0.0 0.0
-783.9766630553869 -45.84951641317893 -404.65082787154665 -143.2830762136423 0.0 0.0
-789.4851599051121 -36.14100882353432 -402.3178936089439 -147.23610620880223 0.0 0.0
-782.5502970921466 -22.818370330055842 -391.6264100474331 -154.0474484449208 0.0 0.0
-737.0611478920954 20.384007142953237 -347.92761531357155 -162.1062753222174 0.0 0.0
-639.601191569434 102.4996932788222 -261.41667900925125 -169.3752103599956 0.0 0.0
-1871.8968940822351 -1373.523377749741 -1585.4330292229288 8.29771806820645e-11 0.0 0.0
-639.6011915695121 102.4996932784262 -261.4166790093624 169.37521036036034 0.0 0.0
-737.0611478930409 20.38400714189116 -347.9276153142361 162.1062753226311 0.0 0.0
-782.5502970916343 -22.81837032960958 -391.62641004700276 154.0474484450549 0.0 0.0
-789.4851599046382 -36.141008823110226 -402.3178936086423 147.23610620871372 0.0 0.0
-783.9766630538231 -45.84951641163851 -404.6508278705589 143.28307621361066 0.0 0.0
-766.1095176871681 -49.47221627209378 -397.23427377256286 142.1700373112948 0.0 0.0
-736.4137515335398 -45.93135078341855 -379.9054100818394 143.55456959001745 0.0 0.0
-698.6732228677819 -38.00910724695133 -355.70833911315646 146.72865477070093 0.0 0.0
-654.4620680099409 -27.768218809358757 -325.9008519103131 150.44335542133456 0.0 0.0
-607.2141678675714 -21.854846149343917 -293.83712600751943 154.48991480238553 0.0 0.0
-551.7129144698117 -19.434452824674064 -252.87418007020915 160.81986292486275 0.0 0.0
-475.8839881131518 -17.471132016567022 -196.69772747604668 169.3138765201993 0.0 0.0
-373.42717781692517 -5.784003905988163 -129.88016727984643 184.31465919658302 0.0 0.0
-262.9213289300896 4.952308472564313 -79.1046878685385 192.55194027260478 0.0 0.0
-181.45673780691092 14.50744277351162 -49.8150431261355 187.97209631931722 0.0 0.0
-134.33528848016465 19.485797826027746 -34.37297835749526 178.89850534050336 0.0 0.0
-105.32786829874026 16.30490623863823 -26.723323394659026 177.36891829505046 0.0 0.0
-77.0624364126483 -5.104639009112152 -24.64205137478186 178.35771019720127 0.0 0.0
-33.51807295489197 -81.22127365419887 -34.41778937920176 153.31295453528807 0.0 0.0
-85.36582520787333 -324.10902863700903 -122.84561377143103 102.50256615543702 0.0 0.0
-69.23218815247735 -240.16693676417566 -92.81973747499588 -90.92271809883823 0.0 0.0
-48.539851860421706 -78.35398488403763 -38.06894429682954 -140.1574398676015 0.0 0.0
-97.3286225415635 -5.475321226817016 -30.83385158268801 -170.1497462930567 0.0 0.0
-142.88365107669654 14.974345271516096 -38.336716927924144 -170.43046758323186 0.0 0.0
-191.26868355356856 19.247532430490967 -51.51503353972834 -168.65007491983124 0.0 0.0
-264.54819744503095 13.502540080211379 -75.77647658106801 -169.4044810607146 0.0 0.0
-376.77594476805785 -3.756232686573851 -124.6723400974032 -166.51185201096803 0.0 0.0
-490.1968146313646 -25.54053658315547 -201.12188802824127 -154.48300766642805 0.0 0.0
-582.3715488017599 -35.301785471016366 -275.44602000028385 -148.32429719519797 0.0 0.0
-647.9794122698786 -35.56162221969462 -325.21893351838554 -144.0247800912957 0.0 0.0
-699.1537357619177 -40.33288494907597 -360.2776925913479 -139.46642285134325 0.0 0.0
-747.5886660592932 -49.78928417518276 -391.51212272891115 -135.97030906463988 0.0 0.0
-795.4649991068109 -63.0803593439725 -422.8821405079955 -132.34970980218145 0.0 0.0
-838.9010441055245 -75.62546063002115 -451.3755534240402 -129.0419183171434 0.0 0.0
-874.8481375160965 -83.38539407861701 -473.5730735980994 -127.31639451757822 0.0 0.0
-897.7940414716105 -82.58675085463977 -484.84640344447064 -128.5815780782001 0.0 0.0
-905.2571569122218 -71.15524388112561 -482.9489752655396 -133.2624898560248 0.0 0.0
-887.0759443800175 -41.174297393696065 -458.9849720690909 -139.60656918574045 0.0 0.0
-834.7731796182995 14.23016149614999 -405.9356633321779 -144.8810045949936 0.0 0.0
-692.9413837170804 144.43920570044398 -274.11668224127766 -148.12283798497592 0.0 0.0
-2317.24929368497 -1611.5348432388996 -1936.497896565174 4.4941828036826337e-11 0.0 0.0
-692.9413837175405 144.4392056996719 -274.1166822416111 148.1228379852845 0.0 0.0
-834.7731796190963 14.230161495117713 -405.9356633326199 144.881004595337 0.0 0.0
-887.0759443796328 -41.17429739342077 -458.9849720687379 139.60656918588307 0.0 0.0
-905.257156912191 -71.15524388114201 -482.9489752655561 133.26248985605125 0.0 0.0
-897.7940414709562 -82.58675085411761 -484.8464034440757 128.5815780782362 0.0 0.0
-874.8481375160983 -83.3853940788493 -473.5730735980615 127.31639451765376 0.0 0.0
-838.9010441050851 -75.62546062968823 -451.37555342375674 129.04191831717517 0.0 0.0
-795.4649991062989 -63.08035934380101 -422.8821405076737 132.34970980227862 0.0 0.0
-747.588666058866 -49.78928417496399 -391.5121227286127 135.97030906469428 0.0 0.0
-699.1537357625731 -40.3328849501831 -360.27769259187414 139.46642285139086 0.0 0.0
-647.9794122688113 -35.56162221878666 -325.2189335176228 144.02478009118352 0.0 0.0
-582.3715488015198 -35.3017854713109 -275.4460200000712 148.32429719535094 0.0 0.0
-490.19681463060135 -25.540536582651516 -201.12188802759252 154.48300766630905 0.0 0.0
-376.77594476738676 -3.756232686230492 -124.67234009699118 166.5118520108886 0.0 0.0
-264.5481974444501 13.502540080495647 -75.77647658082226 169.4044810605165 0.0 0.0
-191.26868355340147 19.247532430305803 -51.515033539738496 168.65007491962 0.0 0.0
-142.88365107656415 14.974345271445266 -38.33671692790846 170.43046758308358 0.0 0.0
-97.32862254142827 -5.47532122668897 -30.833851582609455 170.14974629291095 0.0 0.0
-48.53985186039057 -78.35398488407898 -38.068944296832434 140.1574398674341 0.0 0.0
-69.23218815224908 -240.16693676375775 -92.81973747480203 90.92271809879729 0.0 0.0
-56.31375486971791 -170.01701957611692 -67.89923233375045 -77.859886632824 0.0 0.0
-60.0740640355563 -71.21940867834665 -39.38802335319359 -125.03800294654592 0.0 0.0
-116.29235431984353 -5.548724439614682 -36.55079185385278 -157.9015092894882 0.0 0.0
-178.26126566041424 13.022319641119278 -49.56066365776965 -158.47023916174481 0.0 0.0
-247.0565271501049 18.108663730926533 -68.38617667101217 -154.67785895508985 0.0 0.0
-347.57457738797257 9.350346707914948 -104.09564963128973 -148.16783889534352 0.0 0.0
-468.2267497279707 -18.636045781041776 -174.43444655094387 -136.07537761610652 0.0 0.0
-577.349832970336 -39.86416798178497 -263.20357065403766 -130.33904641329025 0.0 0.0
-658.6958667977 -45.93974348305097 -331.7093432365188 -128.10761908377734 0.0 0.0
-715.7901777261468 -51.58602765487683 -375.08493500977306 -124.67768644466626 0.0 0.0
-768.9360673050243 -58.17720959621077 -408.3949133329552 -122.7161689190005 0.0 0.0
-820.0389227599512 -70.38573473123066 -440.933281451236 -119.8572188459776 0.0 0.0
-871.7557120308047 -87.46735696680014 -475.61075173240425 -116.56159185784483 0.0 0.0
-921.1484346822473 -105.09165220025994 -509.3556403177378 -113.29616592324359 0.0 0.0
-963.5876337516348 -118.44056572713058 -537.4718983534829 -111.26828815092955 0.0 0.0
-991.8834795327593 -120.33341450506589 -552.7701405356339 -112.35860431040143 0.0 0.0
-995.9033233242276 -104.14464929869968 -546.9080982122432 -116.55884018044101 0.0 0.0
-966.229535460486 -59.380340101623375 -509.97572050931916 -122.2037224130892 0.0 0.0
-887.4348304709155 25.5449351529723 -429.12983947310636 -125.86737745726617 0.0 0.0
-723.4722893303353 180.1737581249106 -272.4522945192624 -126.74067748012865 0.0 0.0
-2667.47283387711 -1854.0283835238115 -2239.128661538776 3.6841640849161195e-11 0.0 0.0
-723.4722893303909 180.17375812466884 -272.4522945193371 126.74067748041372 0.0 0.0
-887.4348304698208 25.544935154036878 -429.1298394723098 125.86737745740955 0.0 0.0
-966.2295354600736 -59.38034010135827 -509.97572050908275 122.20372241326507 0.0 0.0
-995.9033233250468 -104.14464929974272 -546.9080982128495 116.55884018059243 0.0 0.0
-991.8834795330235 -120.33341450543604 -552.7701405357935 112.35860431047311 0.0 0.0
-963.587633751009 -118.44056572668173 -537.4718983530445 111.26828815090867 0.0 0.0
-921.14843468211 -105.09165220032175 -509.3556403175509 113.29616592328543 0.0 0.0
-871.7557120311981 -87.46735696746246 -475.6107517327447 116.56159185794654 0.0 0.0
-820.0389227588944 -70.38573473024061 -440.9332814505193 119.85721884584753 0.0 0.0
-768.9360673056943 -58.177209597234125 -408.3949133334378 122.71616891894536 0.0 0.0
-715.790177725038 -51.58602765393958 -375.08493500901204 124.67768644453349 0.0 0.0
-658.6958667974809 -45.939743483256464 -331.70934323630365 128.10761908385507 0.0 0.0
-577.3498329697368 -39.86416798154988 -263.20357065352994 130.33904641326413 0.0 0.0
-468.22674972692374 -18.636045780294406 -174.43444655021963 136.07537761606466 0.0 0.0
-347.5745773875394 9.350346707831424 -104.0956496311356 148.16783889528367 0.0 0.0
-247.0565271495158 18.108663731294367 -68.38617667075877 154.67785895489814 0.0 0.0
-178.26126566028125 13.022319641038678 -49.56066365775867 158.47023916159003 0.0 0.0
-116.29235431978897 -5.548724439699313 -36.550791853860446 157.90150928935083 0.0 0.0
-60.07406403552622 -71.21940867833514 -39.38802335318113 125.03800294642477 0.0 0.0
-56.31375486967878 -170.01701957588165 -67.89923233366812 77.85988663277172 0.0 0.0
-46.888002119147714 -113.07040458974791 -47.987522012668684 -64.22680100976574 0.0 0.0
-69.1893169040231 -61.22062829938946 -39.12298356102376 -107.86975770677142 0.0 0.0
-134.14661158035335 -5.091327406876983 -41.77202698245631 -141.6350413412184 0.0 0.0
-211.82066073304375 10.924612513500936 -60.22341526234116 -142.55442930551934 0.0 0.0
-300.43012135143624 13.451878596982644 -86.18919286587267 -133.9502051759027 0.0 0.0
-422.37479472230734 -0.550687811595262 -136.21203060811047 -121.56818773192049 0.0 0.0
-543.7403398712513 -31.97365639381171 -223.5751210421813 -109.95517593936792 0.0 0.0
-644.377963751841 -48.48853208258202 -313.1440961821433 -108.17059118510238 0.0 0.0
-712.9606715416697 -58.3529023040176 -373.69467797992394 -106.35570454387074 0.0 0.0
-772.8117491217689 -64.83734344693944 -413.7931265382231 -106.17332678948624 0.0 0.0
-827.2394228240057 -75.29265848599893 -448.0427743546405 -104.91045820710043 0.0 0.0
-881.8458092959818 -91.08787159735238 -483.6174132875461 -102.5741962634271 0.0 0.0
-937.5200828936211 -111.7192900991109 -521.8716746085353 -99.75127277100145 0.0 0.0
-991.8396952325478 -133.545943895668 -560.0472923605228 -96.81752447281683 0.0 0.0
-1041.1339735013476 -152.8509293720321 -594.4737238120583 -94.58874171436759 0.0 0.0
-1074.0604007547627 -158.71775216265806 -614.1197816472034 -94.71561162034426 0.0 0.0
-1074.7003139756962 -135.7724019227095 -603.2714482009352 -98.21001801004233 0.0 0.0
-1027.8960814072186 -72.57128454749787 -548.6981352205893 -103.07918302613264 0.0 0.0
-923.2296880843207 38.89198529260267 -441.48383481542635 -106.1762371904824 0.0 0.0
-746.6220112601438 206.48413335517162 -270.8287817427322 -108.95739738983164 0.0 0.0
-2968.1999983991186 -2084.2824671812923 -2508.9435500650015 -9.79127889877418e-12 0.0 0.0
-746.6220112590645 206.48413335610084 -270.82878174205086 108.95739739003501 0.0 0.0
-923.229688084328 38.8919852925072 -441.4838348154471 106.17623719067257 0.0 0.0
-1027.8960814066943 -72.571284547025 -548.6981352202766 103.0791830261949 0.0 0.0
-1074.7003139755698 -135.77240192271358 -603.2714482009852 98.21001801004655 0.0 0.0
-1074.0604007550974 -158.71775216317997 -614.1197816474025 94.71561162050943 0.0 0.0
-1041.1339735006986 -152.85092937154332 -594.4737238116422 94.58874171445102 0.0 0.0
-991.8396952321724 -133.54594389547978 -560.0472923601967 96.81752447283054 0.0 0.0
-937.5200828943057 -111.71929010010356 -521.8716746091444 99.75127277113896 0.0 0.0
-881.8458092962583 -91.08787159787859 -483.61741328772615 102.57419626354645 0.0 0.0
-827.2394228236743 -75.2926584859696 -448.0427743545153 104.91045820710603 0.0 0.0
-772.8117491215568 -64.83734344698505 -413.7931265380996 106.173326789488 0.0 0.0
-712.9606715414236 -58.35290230401839 -373.6946779797006 106.35570454374952 0.0 0.0
-644.3779637518188 -48.48853208303227 -313.1440961819842 108.17059118515083 0.0 0.0
-543.7403398705924 -31.973656393502285 -223.57512104161134 109.95517593932067 0.0 0.0
-422.37479472189824 -0.5506878116640865 -136.21203060790336 121.56818773186336 0.0 0.0
-300.43012135078754 13.45187859759311 -86.18919286552477 133.9502051757578 0.0 0.0
-211.82066073287538 10.92461251352278 -60.22341526228156 142.55442930537316 0.0 0.0
-134.14661158021448 -5.0913274068601035 -41.772026982409194 141.63504134109584 0.0 0.0
-69.18931690398475 -61.22062829944501 -39.12298356102893 107.86975770669402 0.0 0.0
-46.888002119050384 -113.07040458956837 -47.98752201258562 64.2268010096718 0.0 0.0
-40.67769893098473 -68.97985404757688 -32.89726589356847 -50.36124002829131 0.0 0.0
-76.28460963607255 -49.60977698630736 -37.76831598671397 -88.82825129268957 0.0 0.0
-150.9255478318622 -4.069908111454469 -46.49908640267701 -121.37347502829154 0.0 0.0
-243.92158707661736 7.899664676133485 -70.77207985900998 -122.02751951438073 0.0 0.0
-356.5220225705733 7.985007816401751 -105.07255954013293 -110.67401958149011 0.0 0.0
-483.84628059102306 -16.09016329513722 -171.91381960532436 -91.55139623900516 0.0 0.0
-605.4038940337231 -40.83927887131864 -267.99545337815755 -86.442007613828 0.0 0.0
-690.9179386758403 -57.60565444202773 -352.0016381400426 -85.74857903208225 0.0 0.0
-760.5280647722072 -67.75914256856692 -406.7087461352788 -86.28279671320003 0.0 0.0
-820.898079543687 -78.36773505238509 -446.4871244167502 -86.82781949955638 0.0 0.0
-878.7381279398303 -92.60443383221859 -483.4766471430057 -86.15622850543627 0.0 0.0
-936.9933678262207 -111.84569488567324 -522.4156920267203 -84.37235766437159 0.0 0.0
-996.2458550649164 -135.49879678393853 -563.9125132379544 -82.12664864334452 0.0 0.0
-1054.3314482908213 -161.47006801085433 -605.9756013652943 -79.69774909675017 0.0 0.0
-1108.5718749431715 -184.7764556709862 -644.8024360817662 -77.41262913407242 0.0 0.0
-1147.4613029598995 -195.0218654344916 -669.5812133482325 -76.42373221672341 0.0 0.0
-1147.0692754937065 -170.22267959634354 -657.3994096267505 -78.33494683931812 0.0 0.0
-1083.9605106013205 -89.04213988976008 -585.7575095132602 -82.67212878631975 0.0 0.0
-954.12312299616 48.52760281694728 -452.6621211275806 -87.25662637521505 0.0 0.0
-760.5363765270114 232.41071983030233 -264.6122474161706 -93.9670046490401 0.0 0.0
-3230.259326437698 -2294.5201440923206 -2748.3399245765927 1.1996803550573532e-10 0.0 0.0
-760.5363765259335 232.41071983141512 -264.61224741545607 93.9670046490365 0.0 0.0
-954.1231229967331 48.527602816290795 -452.6621211280067 87.25662637525672 0.0 0.0
-1083.9605106009933 -89.04213988951926 -585.7575095129944 82.6721287863661 0.0 0.0
-1147.0692754942293 -170.22267959699232 -657.3994096272444 78.33494683940468 0.0 0.0
-1147.4613029588627 -195.02186543364016 -669.5812133475856 76.42373221683823 0.0 0.0
-1108.5718749434743 -184.77645567143202 -644.80243608197 77.41262913415636 0.0 0.0
-1054.3314482905673 -161.470068010756 -605.9756013650668 79.69774909664459 0.0 0.0
-996.2458550647277 -135.49879678394078 -563.9125132378783 82.12664864333021 0.0 0.0
-936.9933678260167 -111.84569488576531 -522.4156920265318 84.3723576644365 0.0 0.0
-878.7381279386527 -92.60443383129174 -483.47664714228773 86.15622850547535 0.0 0.0
-820.898079543894 -78.36773505288558 -446.48712441688576 86.82781949956058 0.0 0.0
-760.528064772509 -67.75914256914288 -406.7087461353842 86.28279671307607 0.0 0.0
-690.9179386752398 -57.60565444174298 -352.0016381395211 85.74857903199711 0.0 0.0
-605.4038940333031 -40.83927887129224 -267.99545337769064 86.4420076137336 0.0 0.0
-483.846280590538 -16.090163295095934 -171.91381960499115 91.5513962389212 0.0 0.0
-356.5220225703461 7.9850078160678155 -105.07255954017117 110.6740195813772 0.0 0.0
-243.921587076584 7.899664675950383 -70.77207985905689 122.02751951434844 0.0 0.0
-150.92554783176666 -4.06990811158901 -46.49908640268868 121.37347502820417 0.0 0.0
-76.28460963604594 -49.60977698637388 -37.76831598672592 88.82825129262713 0.0 0.0
-40.67769893100861 -68.97985404748103 -32.89726589354687 50.36124002818997 0.0 0.0
-37.010761719588416 -37.518526533626066 -22.358786475964344 -36.61998269076444 0.0 0.0
-81.21535324768574 -37.500565036055775 -35.61477548512244 -68.13705917001562 0.0 0.0
-166.41279062130712 -2.661659638111757 -50.72233507782566 -97.0008937091537 0.0 0.0
-275.78956715800086 3.9417576740272384 -81.48552636527339 -97.0977378026842 0.0 0.0
-409.85165902815817 -1.3469098118815133 -126.43460236851307 -82.14229712326538 0.0 0.0
-542.8995648211162 -27.40724700395169 -207.96763253100687 -66.32318840101645 0.0 0.0
-649.4402397912233 -48.957522532999235 -306.3081567965204 -64.38074309509632 0.0 0.0
-729.9304945881398 -63.85917325755163 -381.8605113066337 -64.55630399843703 0.0 0.0
-800.2025904519849 -77.76931679278721 -434.3014181300025 -65.81098427114961 0.0 0.0
-863.5791660184691 -92.08084224311112 -475.7128132280422 -66.78584711626357 0.0 0.0
-924.8403256525178 -110.05252391760786 -515.8950242077974 -66.54384076335118 0.0 0.0
-986.983539879977 -132.83377596126704 -558.4665076203349 -65.28813205051223 0.0 0.0
-1049.585801551615 -160.07079014851888 -603.4130549934937 -63.60051587140367 0.0 0.0
-1110.3539920549586 -187.21171856449112 -647.3727306483787 -61.887942372938355 0.0 0.0
-1166.402843859607 -212.46480125716982 -688.0252685276793 -59.8802136597565 0.0 0.0
-1210.579719942042 -227.9068240587829 -717.9695867778847 -57.827012491022046 0.0 0.0
-1217.7028264663777 -209.04399938952588 -712.5164096178457 -57.59528747082677 0.0 0.0
-1146.088330182118 -117.91420154342174 -631.7232177160781 -61.310118073839384 0.0 0.0
-987.2940228028455 49.45665781855507 -469.1100793354261 -68.6128764394082 0.0 0.0
-761.8673619655128 265.5404622386357 -248.54115226751037 -80.34608273954696 0.0 0.0
-3453.9346123871596 -2475.3553760170275 -2953.1736277712616 1.1900880281245918e-10 0.0 0.0
-761.8673619656338 265.5404622385207 -248.54115226754425 80.3460827395084 0.0 0.0
-987.2940228032494 49.45665781808249 -469.11007933567373 68.61287643943697 0.0 0.0
-1146.0883301811014 -117.91420154248502 -631.7232177153387 61.31011807381711 0.0 0.0
-1217.7028264667865 -209.04399939008348 -712.5164096181093 57.59528747095878 0.0 0.0
-1210.5797199410945 -227.90682405795275 -717.9695867772159 57.827012491043064 0.0 0.0
-1166.402843859547 -212.46480125726137 -688.0252685275681 59.880213659815524 0.0 0.0
-1110.3539920536668 -187.21171856333288 -647.37273064753 61.88794237278528 0.0 0.0
-1049.5858015508231 -160.07079014793663 -603.4130549929948 63.60051587136084 0.0 0.0
-986.9835398796132 -132.8337759611124 -558.4665076200612 65.28813205051084 0.0 0.0
-924.8403256508732 -110.05252391617272 -515.8950242067391 66.54384076328445 0.0 0.0
-863.5791660182713 -92.08084224317484 -475.71281322788644 66.78584711621696 0.0 0.0
-800.2025904517409 -77.769316792866 -434.30141812982345 65.81098427114325 0.0 0.0
-729.930494587222 -63.85917325689011 -381.86051130596616 64.55630399835479 0.0 0.0
-649.4402397911433 -48.95752253334191 -306.30815679628483 64.38074309512287 0.0 0.0
-542.8995648202101 -27.407247003322006 -207.9676325303329 66.32318840092336 0.0 0.0
-409.85165902800634 -1.346909812347134 -126.43460236855417 82.14229712320594 0.0 0.0
-275.78956715790497 3.9417576734906543 -81.4855263654357 97.0977378025244 0.0 0.0
-166.4127906212914 -2.6616596383890356 -50.72233507790412 97.0008937091543 0.0 0.0
-81.21535324761385 -37.50056503593686 -35.614775485065216 68.13705916995363 0.0 0.0
-37.010761719609995 -37.51852653356012 -22.35878647595103 36.619982690721756 0.0 0.0
-34.675950822701466 -18.329640472721326 -15.901677388626835 -23.76005880695869 0.0 0.0
-83.23668171201234 -26.043125742784135 -32.78394223643894 -46.09176331569873 0.0 0.0
-180.23789849642586 -1.3764954836186525 -54.48431819401335 -68.02813409053697 0.0 0.0
-308.80429226260384 -0.7636317408875679 -92.69820295816949 -67.26204228751796 0.0 0.0
-459.08788006074894 -14.04164106372205 -150.99894139300145 -51.75898454129796 0.0 0.0
-590.3327997589038 -36.52289275062723 -242.9806891049841 -43.20885100095771 0.0 0.0
-681.4183276114346 -54.772817394319404 -336.51693407085355 -42.84976308244348 0.0 0.0
-763.1173645916663 -71.0135746827373 -406.97872076793703 -43.82574844671856 0.0 0.0
-835.0575012033408 -88.36353273801116 -458.5941722278143 -45.03494755225987 0.0 0.0
-901.6247567263715 -106.1385582757357 -502.37499092488696 -46.01872037905555 0.0 0.0
-966.8394365953975 -127.66607797152707 -546.1310618098614 -46.103444200141865 0.0 0.0
-1032.4835748924427 -153.98244315754954 -592.1974521115823 -45.35498398059858 0.0 0.0
-1098.6323506718186 -183.39653120921912 -639.9901268436344 -44.34865308864264 0.0 0.0
-1161.408202794461 -213.09510416955268 -686.2375446322571 -43.22150376021229 0.0 0.0
-1217.1712107452254 -237.4677400875446 -726.3131082861328 -41.76732573583347 0.0 0.0
-1259.964369615352 -251.15452809788448 -754.6001137153123 -39.571516685276585 0.0 0.0
-1278.8048438934984 -243.80798719330608 -760.575386073534 -37.364720168228025 0.0 0.0
-1233.3246384867211 -177.49175232152157 -705.2571014529667 -38.89031109531758 0.0 0.0
-1041.974637782355 24.3826827347105 -509.24479859187966 -48.622173278215676 0.0 0.0
-738.0380555315975 320.4883668576347 -209.13483811444834 -66.94232305690184 0.0 0.0
-3625.481446796499 -2609.3124541009665 -3108.0606059310185 -1.0409451078885468e-11 0.0 0.0
-738.0380555317192 320.48836685746005 -209.1348381144316 66.94232305695337 0.0 0.0
-1041.9746377834092 24.38268273353637 -509.2447985927273 48.62217327844795 0.0 0.0
-1233.3246384859394 -177.4917523208086 -705.257101452507 38.890311095413566 0.0 0.0
-1278.8048438928545 -243.80798719278124 -760.575386073101 37.36472016825056 0.0 0.0
-1259.9643696158566 -251.15452809852127 -754.6001137155799 39.57151668529872 0.0 0.0
-1217.171210744204 -237.46774008669308 -726.313108285301 41.76732573583657 0.0 0.0
-1161.4082027937554 -213.09510416897692 -686.2375446317722 43.2215037601571 0.0 0.0
-1098.632350671032 -183.3965312086089 -639.990126843128 44.34865308846714 0.0 0.0
-1032.4835748923397 -153.98244315771402 -592.197452111507 45.354983980630365 0.0 0.0
-966.8394365951859 -127.66607797151161 -546.1310618097776 46.10344420003357 0.0 0.0
-901.624756725962 -106.13855827558433 -502.3749909245842 46.018720378878825 0.0 0.0
-835.0575012029346 -88.36353273793046 -458.594172227538 45.034947552358254 0.0 0.0
-763.1173645912502 -71.01357468260936 -406.9787207675924 43.82574844663758 0.0 0.0
-681.4183276111688 -54.77281739446061 -336.51693407050317 42.849763082499095 0.0 0.0
-590.332799757947 -36.522892749882715 -242.9806891042228 43.208851000808686 0.0 0.0
-459.0878800602337 -14.041641063633548 -150.9989413927584 51.758984541302574 0.0 0.0
-308.804292262404 -0.7636317409633078 -92.69820295814237 67.26204228744255 0.0 0.0
-180.23789849629935 -1.3764954837043166 -54.484318194001105 68.02813409057535 0.0 0.0
-83.23668171187951 -26.0431257427007 -32.78394223637406 46.09176331577048 0.0 0.0
-34.675950822627264 -18.3296404726233 -15.90167738857517 23.760058806869512 0.0 0.0
-31.38992298446869 -10.402393844760267 -12.537695048768684 -13.432645173779065 0.0 0.0
-80.8701470987863 -16.867669851264075 -29.321345085015118 -23.090196521837804 0.0 0.0
-191.83318086516852 -1.1583091343074625 -57.897446999842806 -33.17515403359593 0.0 0.0
-343.7648578129526 -5.233164176655439 -104.65554319074678 -31.98426639766529 0.0 0.0
-508.4213827761439 -24.41033806662707 -177.33014167711366 -23.17276064064361 0.0 0.0
-624.7184918952838 -43.3140311136165 -274.4029635541082 -22.016126092507584 0.0 0.0
-710.098248828334 -58.19989630374905 -360.5908885700375 -22.914929075171614 0.0 0.0
-791.5008384853245 -78.73010845406719 -428.2619600415246 -23.438633025381197 0.0 0.0
-865.8489326718717 -99.09138445853517 -480.2534510071787 -23.971194812401343 0.0 0.0
-935.9907215609936 -120.77637047705676 -527.275277724541 -24.571222127653844 0.0 0.0
-1004.8898504282495 -145.6441730116934 -574.4595937340546 -24.80203721914208 0.0 0.0
-1074.2185219519065 -174.45017230458302 -623.6061774398655 -24.65648358069122 0.0 0.0
-1143.2024705506878 -207.10795509090642 -674.4367031827653 -24.236054297031867 0.0 0.0
-1208.5307630142715 -238.11621954381 -722.6114658974374 -23.709443142836072 0.0 0.0
-1262.9731410771528 -260.8110708415374 -761.2063821289698 -22.92772752920664 0.0 0.0
-1300.1365670401171 -268.9316433791986 -783.8990861552288 -21.410913136391166 0.0 0.0
-1317.2433113150419 -260.27674949430224 -788.1721503847297 -18.919061041576047 0.0 0.0
-1314.1141841572548 -235.9220078501664 -774.5854982653934 -17.49011496974996 0.0 0.0
-1209.6909993088877 -118.1057746208356 -664.190576064657 -24.818059722623577 0.0 0.0
-718.9094799060465 369.2554726863508 -175.4523302675912 -49.876032441432514 0.0 0.0
-3591.3125194506583 -2539.3618795662314 -3058.2476529425107 3.738342968517827e-11 0.0 0.0
-718.9094799067907 369.25547268558455 -175.45233026804965 49.8760324414485 0.0 0.0
-1209.6909993092509 -118.10577462128394 -664.1905760649593 24.81805972268199 0.0 0.0
-1314.1141841575256 -235.92200785050375 -774.5854982657047 17.490114969723688 0.0 0.0
-1317.2433113148052 -260.27674949417894 -788.1721503846225 18.919061041489307 0.0 0.0
-1300.136567040377 -268.9316433795948 -783.8990861553838 21.41091313644032 0.0 0.0
-1262.9731410761676 -260.81107084070663 -761.2063821282532 22.927727529207278 0.0 0.0
-1208.5307630135878 -238.11621954330963 -722.6114658968129 23.7094431429133 0.0 0.0
-1143.2024705495878 -207.1079550900223 -674.4367031819711 24.23605429699714 0.0 0.0
-1074.2185219513024 -174.45017230420387 -623.606177439471 24.656483580737827 0.0 0.0
-1004.8898504281232 -145.6441730118202 -574.4595937339885 24.80203721906304 0.0 0.0
-935.9907215602603 -120.77637047660299 -527.2752777240179 24.571222127611087 0.0 0.0
-865.8489326715787 -99.09138445854006 -480.2534510069518 23.971194812426507 0.0 0.0
-791.5008384847979 -78.73010845388485 -428.2619600411376 23.43863302543874 0.0 0.0
-710.0982488274541 -58.19989630317112 -360.590888569352 22.914929075247713 0.0 0.0
-624.718491895398 -43.3140311141456 -274.4029635539885 22.01612609240297 0.0 0.0
-508.4213827752504 -24.410338066031684 -177.3301416765584 23.17276064071622 0.0 0.0
-343.7648578125518 -5.233164176633132 -104.65554319063843 31.984266397766753 0.0 0.0
-191.8331808649985 -1.1583091341417742 -57.897446999742094 33.17515403357873 0.0 0.0
-80.87014709888811 -16.86766985136899 -29.32134508507712 23.09019652190696 0.0 0.0
-31.389922984577158 -10.402393844767229 -12.537695048803313 13.43264517380343 0.0 0.0
-20.181009513692143 -5.227798767099102 -7.622642484237373 -8.293744437182763 0.0 0.0
-70.14084847245292 -9.58526184155694 -23.917833094202958 -9.591588366204897 0.0 0.0
-200.31474771585417 -2.8826476382578683 -60.95921860623361 -11.131989766067194 0.0 0.0
-386.3752760883881 -20.55622263450947 -123.16287655994914 -8.48776121159462 0.0 0.0
-574.8494873781306 -65.55689753265813 -221.4850444773643 -0.64789620400337 0.0 0.0
-710.2507282544536 -111.03862071718339 -345.59920763558705 1.190937402701934 0.0 0.0
-825.8734788437515 -159.14425962168548 -461.16764536503115 0.7870270729741051 0.0 0.0
-947.9912355848319 -221.91522884810968 -568.5519751835627 -0.5814785419516753 0.0 0.0
-1076.1704893852311 -296.9822517049844 -674.4828977771999 -2.1363366117895612 0.0 0.0
-1218.9317578638618 -391.0598898933271 -793.8590299842332 -3.7758730037283996 0.0 0.0
-1381.8499717289806 -509.3106045489032 -934.4474723625467 -5.336050637511262 0.0 0.0
-1565.5361931591774 -652.7232803847401 -1097.6678805338959 -6.613810555432082 0.0 0.0
-1764.8842635576325 -814.6393978619724 -1277.864645596044 -7.472642956003632 0.0 0.0
-1970.626236748088 -985.6359472985662 -1465.8654230664265 -8.194473041945644 0.0 0.0
-2167.3393649951013 -1150.2393378791483 -1646.2543189724124 -8.597694189924095 0.0 0.0
-2333.5319139009525 -1287.2780319349347 -1797.7533696860535 -8.413648610078706 0.0 0.0
-2442.855921661623 -1371.2294658004332 -1894.4517575958405 -7.190147504661724 0.0 0.0
-2478.0284122389153 -1385.7333821318275 -1919.1359111859238 -5.344936039003599 0.0 0.0
-2508.8090665386276 -1401.7771633881093 -1941.2844612066351 -10.759970147722361 0.0 0.0
-2550.759962106765 -1442.12609736591 -1979.6713650079823 -39.2273338979611 0.0 0.0
-5934.125501068784 -4854.295992710157 -5369.5165802681495 -1.7280399333685637e-11 0.0 0.0
-2550.7599621076242 -1442.1260973668218 -1979.6713650085624 39.227333897933725 0.0 0.0
-2508.809066537211 -1401.7771633867571 -1941.2844612053477 10.759970147805518 0.0 0.0
-2478.028412238138 -1385.7333821311327 -1919.1359111851825 5.344936038961734 0.0 0.0
-2442.8559216611657 -1371.2294658000922 -1894.4517575953303 7.190147504639686 0.0 0.0
-2333.5319139002713 -1287.2780319344206 -1797.753369685304 8.413648610197463 0.0 0.0
-2167.3393649944114 -1150.2393378785996 -1646.2543189717458 8.597694190006415 0.0 0.0
-1970.626236745281 -985.6359472959304 -1465.8654230640598 8.19447304194317 0.0 0.0
-1764.8842635548754 -814.6393978593989 -1277.8646455939156 7.47264295592073 0.0 0.0
-1565.5361931582847 -652.7232803841007 -1097.667880533072 6.613810555508511 0.0 0.0
-1381.8499717274256 -509.31060454759324 -934.4474723612841 5.336050637583735 0.0 0.0
-1218.9317578627097 -391.05988989245037 -793.8590299832916 3.775873003726776 0.0 0.0
-1076.1704893844433 -296.9822517045075 -674.4828977765537 2.1363366117093214 0.0 0.0
-947.9912355838835 -221.9152288474602 -568.5519751828127 0.5814785421035893 0.0 0.0
-825.8734788428756 -159.14425962109107 -461.1676453643096 -0.7870270729339843 0.0 0.0
-710.2507282549686 -111.03862071818651 -345.59920763563423 -1.190937402729027 0.0 0.0
-574.8494873772822 -65.556897532074 -221.48504447675015 0.6478962040794585 0.0 0.0
-386.3752760882311 -20.55622263469803 -123.16287655994626 8.487761211757885 0.0 0.0
-200.31474771550205 -2.8826476379206376 -60.959218606026795 11.131989765996362 0.0 0.0
-70.14084847221226 -9.585261841464396 -23.917833094102985 9.591588366163528 0.0 0.0
-20.181009513583987 -5.227798767060504 -7.622642484193348 8.293744437422335 0.0 0.0
SCALARS Strain float 6
LOOKUP_TABLE default
0.013894569326477844 -0.023284490879065957 0.0 -0.0012550884936140853 0.0 0.0
0.008530154783752783 -0.002408779287732636 0.0 -0.007107747780703954 0.0 0.0
0.0025489162499726654 -0.0006144192582015508 0.0 -0.0008076420283438879 0.0 0.0
0.002193799779976001 -0.0008760077909372496 0.0 -4.310085533127924e-06 0.0 0.0
0.003161116642727499 -0.0013575087251005368 0.0 0.00015788235309301048 0.0 0.0
0.005267108840197288 -0.0029262825918802728 0.0 0.00030045038933048643 0.0 0.0
0.008902374262408934 -0.006003661631681593 0.0 0.0004009459293887323 0.0 0.0
0.01435019170468025 -0.01087484421081444 0.0 0.00043810870673766816 0.0 0.0
0.02184139602701715 -0.01774743215742416 0.0 0.00041431683212277717 0.0 0.0
0.03146729098085375 -0.02665669690355816 0.0 0.00030646112969227234 0.0 0.0
0.04318635751299205 -0.037526726754211724 0.0 0.0001497228397204269 0.0 0.0
0.05688509655344165 -0.05024046080711782 0.0 -5.4481219970979795e-05 0.0 0.0
0.0724173736701195 -0.06468426389920971 0.0 -0.0003393581072013626 0.0 0.0
0.08962632977636519 -0.08074174479457771 0.0 -0.0006576696904013319 0.0 0.0
0.10827207470434358 -0.09822720681311181 0.0 -0.0010452049650701224 0.0 0.0
0.127878292468301 -0.1167242483721341 0.0 -0.0014942047086265572 0.0 0.0
0.14762508777936392 -0.13547282062571223 0.0 -0.001919580874063164 0.0 0.0
0.1663357189381013 -0.15335701286615985 0.0 -0.002157840024639238 0.0 0.0
0.18259026263041606 -0.16897509225514856 0.0 -0.0020356866212266397 0.0 0.0
0.19467962000703776 -0.18069423497894593 0.0 -0.002244326523786052 0.0 0.0
0.1994427193802082 -0.18551180186120772 0.0 3.5301622736128024e-15 0.0 0.0
0.1946796200070128 -0.18069423497891884 0.0 0.002244326523794372 0.0 0.0
0.18259026263036263 -0.16897509225509927 0.0 0.0020356866212319306 0.0 0.0
0.16633571893802332 -0.1533570128660945 0.0 0.002157840024643658 0.0 0.0
0.1476250877792737 -0.13547282062562258 0.0 0.0019195808740619788 0.0 0.0
0.12787829246820898 -0.11672424837204712 0.0 0.0014942047086245356 0.0 0.0
0.10827207470425057 -0.09822720681302971 0.0 0.0010452049650677307 0.0 0.0
0.08962632977627162 -0.08074174479448833 0.0 0.0006576696904011083 0.0 0.0
0.07241737367002789 -0.06468426389912305 0.0 0.0003393581071963799 0.0 0.0
0.056885096553355954 -0.05024046080702904 0.0 5.448121996751891e-05 0.0 0.0
0.0431863575129186 -0.03752672675413581 0.0 -0.00014972283972380712 0.0 0.0
0.03146729098079589 -0.026656696903507686 0.0 -0.00030646112969429594 0.0 0.0
0.021841396026972507 -0.017747432157382257 0.0 -0.0004143168321240287 0.0 0.0
0.014350191704647436 -0.010874844210782705 0.0 -0.0004381087067375953 0.0 0.0
0.008902374262387536 -0.00600366163166626 0.0 -0.00040094592938770275 0.0 0.0
0.0052671088401857555 -0.0029262825918661534 0.0 -0.00030045038932742594 0.0 0.0
0.0031611166427232594 -0.0013575087250998086 0.0 -0.0001578823530909128 0.0 0.0
0.0021937997799748275 -0.0008760077909368514 0.0 4.310085533807472e-06 0.0 0.0
0.0025489162499707225 -0.0006144192582010757 0.0 0.0008076420283442165 0.0 0.0
0.008530154783746403 -0.002408779287729493 0.0 0.0071077477806919635 0.0 0.0
0.013894569326468539 -0.023284490879040713 0.0 0.0012550884935712014 0.0 0.0
0.009663075886475057 -0.020857770332797364 0.0 -0.0007835113945456997 0.0 0.0
0.005664168354264851 -0.001797547990000156 0.0 -0.005760073988009131 0.0 0.0
0.001691257140360803 -0.0004764479835336447 0.0 -0.0005161413774379697 0.0 0.0
0.0019398228902946595 -0.0008246557666747022 0.0 -0.00019757241199423433 0.0 0.0
0.0027302579280459737 -0.0012251426211771816 0.0 -0.00015372362319279167 0.0 0.0
0.004519852620082938 -0.0026212289702345435 0.0 -0.00021945273993015745 0.0 0.0
0.007751970665675779 -0.005484219134787137 0.0 -0.0004919112358672119 0.0 0.0
0.01269200560457437 -0.010093520732796997 0.0 -0.0009167542573639425 0.0 0.0
0.019524611280053856 -0.016634709404678007 0.0 -0.0015104609258610807 0.0 0.0
0.028284670239496545 -0.025114777247009317 0.0 -0.002246592219794767 0.0 0.0
0.03889331424523011 -0.03543807719705387 0.0 -0.003050414222184855 0.0 0.0
0.0512362199419369 -0.04748330944131911 0.0 -0.0038686942645738583 0.0 0.0
0.06521806402610793 -0.06115669315724048 0.0 -0.0047220043205874335 0.0 0.0
0.08073012508813857 -0.07637149418030499 0.0 -0.005620227825492198 0.0 0.0
0.09756871313981355 -0.09295713022324477 0.0 -0.006540328860233918 0.0 0.0
0.11532197362272231 -0.1105296391922242 0.0 -0.007406445908286132 0.0 0.0
0.13326835962885766 -0.1283849714971824 0.0 -0.008002542362720572 0.0 0.0
0.15036120046405904 -0.14547365541041515 0.0 -0.008000958898645437 0.0 0.0
0.1652227948109348 -0.16043305364987528 0.0 -0.007183006664559011 0.0 0.0
0.1758956776260219 -0.17149028272022596 0.0 -0.006075303786036814 0.0 0.0
0.1798896712865428 -0.17608492754639368 0.0 8.373510218540048e-15 0.0 0.0
0.175895677625998 -0.17149028272020095 0.0 0.0060753037860565165 0.0 0.0
0.16522279481088673 -0.16043305364982782 0.0 0.007183006664577608 0.0 0.0
0.1503612004639912 -0.14547365541035115 0.0 0.008000958898657106 0.0 0.0
0.1332683596287784 -0.1283849714970995 0.0 0.00800254236272193 0.0 0.0
0.11532197362263952 -0.11052963919214145 0.0 0.007406445908282552 0.0 0.0
0.09756871313972959 -0.0929571302231632 0.0 0.0065403288602296755 0.0 0.0
0.08073012508805447 -0.0763714941802152 0.0 0.00562022782548964 0.0 0.0
0.06521806402602569 -0.06115669315716142 0.0 0.004722004320583359 0.0 0.0
0.05123621994185968 -0.04748330944124051 0.0 0.0038686942645684307 0.0 0.0
0.03889331424516373 -0.03543807719698543 0.0 0.003050414222178096 0.0 0.0
0.028284670239444008 -0.025114777246955464 0.0 0.002246592219790059 0.0 0.0
0.019524611280012958 -0.01663470940464169 0.0 0.001510460925856434 0.0 0.0
0.012692005604544462 -0.010093520732768863 0.0 0.0009167542573598422 0.0 0.0
0.007751970665657146 -0.0054842191347704555 0.0 0.0004919112358664334 0.0 0.0
0.004519852620073388 -0.002621228970223766 0.0 0.00021945273993047068 0.0 0.0
0.0027302579280422358 -0.0012251426211751576 0.0 0.00015372362319444316 0.0 0.0
0.0019398228902936534 -0.0008246557666739899 0.0 0.00019757241199437983 0.0 0.0
0.0016912571403603109 -0.00047644798353469093 0.0 0.000516141377437189 0.0 0.0
0.005664168354257984 -0.0017975479899969152 0.0 0.005760073987997194 0.0 0.0
0.009663075886461953 -0.020857770332771242 0.0 0.0007835113945109376 0.0 0.0
0.007062215265898118 -0.016610715860761145 0.0 -0.0037168963214939442 0.0 0.0
0.004009995677919821 -0.0009965435950887978 0.0 -0.005763289933985799 0.0 0.0
0.0011800252849526703 -0.00026349364078796545 0.0 -0.0004734610842349816 0.0 0.0
0.0016470395406196522 -0.0007017406371717656 0.0 -0.0004804214178476036 0.0 0.0
0.0023397097451545775 -0.0009975366295922503 0.0 -0.000483206882704173 0.0 0.0
0.003811605065788196 -0.0020486398330129725 0.0 -0.0005992085934899463 0.0 0.0
0.006614627660831062 -0.004462900958196547 0.0 -0.0011177537468070576 0.0 0.0
0.011020629702343352 -0.008536942045787827 0.0 -0.001945791500969428 0.0 0.0
0.017159389063964383 -0.014395900813434743 0.0 -0.0030894189594430567 0.0 0.0
0.025027019397496394 -0.02200534244786591 0.0 -0.004476128328754128 0.0 0.0
0.0345155511333208 -0.03122949677818601 0.0 -0.0059753925133978585 0.0 0.0
0.045507888545184276 -0.041941715297699814 0.0 -0.0074717640436176985 0.0 0.0
0.05793121203975255 -0.05407500163182932 0.0 -0.00895973344798335 0.0 0.0
0.07172708909165836 -0.0675926565907793 0.0 -0.010512194733753725 0.0 0.0
0.08674363927472628 -0.0823694171818863 0.0 -0.012112384638913237 0.0 0.0
0.10263901603240982 -0.09808876347016122 0.0 -0.013591373889214237 0.0 0.0
0.11881193261654073 -0.11416311745109159 0.0 -0.014591900217863645 0.0 0.0
0.13433010665193434 -0.12967616095480833 0.0 -0.01461941614428719 0.0 0.0
0.1478281885811618 -0.14332018751211503 0.0 -0.013326501563484021 0.0 0.0
0.1575442770648155 -0.15327648052636933 0.0 -0.010683454840838389 0.0 0.0
0.16121856747362545 -0.15766766842032137 0.0 1.5431232680551688e-14 0.0 0.0
0.15754427706479263 -0.15327648052634846 0.0 0.010683454840871166 0.0 0.0
0.147828188581119 -0.143320187512068 0.0 0.013326501563519846 0.0 0.0
0.13433010665187517 -0.12967616095474957 0.0 0.01461941614430931 0.0 0.0
0.11881193261647138 -0.11416311745102195 0.0 0.014591900217866854 0.0 0.0
0.10263901603233593 -0.09808876347008218 0.0 0.013591373889207479 0.0 0.0
0.08674363927465101 -0.08236941718181032 0.0 0.012112384638910189 0.0 0.0
0.07172708909158383 -0.06759265659070086 0.0 0.010512194733747496 0.0 0.0
0.05793121203967981 -0.054075001631757706 0.0 0.008959733447976157 0.0 0.0
0.045507888545115824 -0.04194171529763895 0.0 0.007471764043607925 0.0 0.0
0.03451555113326174 -0.03122949677813077 0.0 0.00597539251338634 0.0 0.0
0.02502701939744881 -0.022005342447813218 0.0 0.0044761283287445336 0.0 0.0
0.017159389063927378 -0.014395900813400087 0.0 0.0030894189594357 0.0 0.0
0.01102062970231737 -0.00853694204576475 0.0 0.001945791500964058 0.0 0.0
0.006614627660815164 -0.004462900958182356 0.0 0.001117753746804266 0.0 0.0
0.003811605065780394 -0.002048639833007904 0.0 0.0005992085934877968 0.0 0.0
0.0023397097451519195 -0.0009975366295909356 0.0 0.000483206882705453 0.0 0.0
0.0016470395406190867 -0.0007017406371711156 0.0 0.0004804214178461887 0.0 0.0
0.0011800252849526681 -0.0002634936407896637 0.0 0.0004734610842331246 0.0 0.0
0.004009995677913205 -0.0009965435950854448 0.0 0.005763289933973056 0.0 0.0
0.007062215265884857 -0.016610715860735387 0.0 0.003716896321467535 0.0 0.0
0.00532061213580972 -0.013362188097051829 0.0 -0.004146828864013201 0.0 0.0
0.0029529147171779625 -0.0007198125078715972 0.0 -0.005255161320446906 0.0 0.0
0.0008414226880607216 -0.00014847901882236215 0.0 -0.0007596018339788395 0.0 0.0
0.0013611431551357625 -0.0005599879256320123 0.0 -0.0007632658859850382 0.0 0.0
0.0019820524533042966 -0.0008238574124532198 0.0 -0.0008064656611020195 0.0 0.0
0.0031606699796922254 -0.0015697827658203967 0.0 -0.0009351139391479051 0.0 0.0
0.005510816525755337 -0.003496578391995452 0.0 -0.0015378273201815955 0.0 0.0
0.009351184672498215 -0.007000029912919639 0.0 -0.002693211967578108 0.0 0.0
0.014769674318597603 -0.012145510752697512 0.0 -0.004253778264222948 0.0 0.0
0.0217232885963999 -0.018859486169650226 0.0 -0.006135470050115325 0.0 0.0
0.030080757378894533 -0.02697505285916082 0.0 -0.008155637946691845 0.0 0.0
0.03972213000605402 -0.03635670131927774 0.0 -0.010166199981209689 0.0 0.0
0.050590248002271854 -0.046952064824773494 0.0 -0.012155571493643009 0.0 0.0
0.06265538714547875 -0.058759583654964365 0.0 -0.014196017794177495 0.0 0.0
0.07582804173944115 -0.07170744592133285 0.0 -0.0162846748896818 0.0 0.0
0.08985716796446773 -0.08555992713849309 0.0 -0.018234105260694657 0.0 0.0
0.10425256664800228 -0.09985017087976995 0.0 -0.019609362132760596 0.0 0.0
0.11819957780958641 -0.11379393933332585 0.0 -0.01981231429488037 0.0 0.0
0.1304687081066103 -0.12617994687540343 0.0 -0.01822023416026764 0.0 0.0
0.13952445739269329 -0.135401259509787 0.0 -0.014007316396718017 0.0 0.0
0.14304665502067695 -0.1399297409313145 0.0 2.0473206463478277e-14 0.0 0.0
0.13952445739267252 -0.13540125950976986 0.0 0.01400731639676316 0.0 0.0
0.1304687081065721 -0.12617994687535838 0.0 0.01822023416031384 0.0 0.0
0.11819957780953463 -0.1137939393332745 0.0 0.01981231429490821 0.0 0.0
0.10425256664794184 -0.09985017087971274 0.0 0.019609362132764523 0.0 0.0
0.08985716796440317 -0.08555992713842435 0.0 0.018234105260686147 0.0 0.0
0.07582804173937553 -0.07170744592126986 0.0 0.01628467488967779 0.0 0.0
0.0626553871454132 -0.058759583654901054 0.0 0.014196017794171251 0.0 0.0
0.050590248002207766 -0.04695206482470681 0.0 0.012155571493632016 0.0 0.0
0.03972213000599428 -0.03635670131922415 0.0 0.010166199981193072 0.0 0.0
0.03008075737884274 -0.026975052859112798 0.0 0.008155637946677395 0.0 0.0
0.02172328859635776 -0.018859486169608388 0.0 0.006135470050100742 0.0 0.0
0.014769674318564928 -0.01214551075266451 0.0 0.004253778264213166 0.0 0.0
0.00935118467247555 -0.007000029912898997 0.0 0.002693211967571548 0.0 0.0
0.005510816525741867 -0.003496578391985048 0.0 0.0015378273201755801 0.0 0.0
0.0031606699796861166 -0.0015697827658161078 0.0 0.0009351139391462139 0.0 0.0
0.0019820524533026526 -0.0008238574124534609 0.0 0.0008064656611011206 0.0 0.0
0.001361143155135384 -0.0005599879256315452 0.0 0.0007632658859844164 0.0 0.0
0.0008414226880606654 -0.00014847901882282337 0.0 0.0007596018339766703 0.0 0.0
0.002952914717171957 -0.0007198125078683313 0.0 0.005255161320434693 0.0 0.0
0.005320612135797639 -0.013362188097028858 0.0 0.00414682886399451 0.0 0.0
0.004024116562754587 -0.010752960762850775 0.0 -0.0036951070138828805 0.0 0.0
0.0022031471736577136 -0.000580818132454725 0.0 -0.004692568982652103 0.0 0.0
0.0006110618600929127 -9.222966417892193e-05 0.0 -0.0011492204026361953 0.0 0.0
0.001100565290531045 -0.00042604106985697247 0.0 -0.0010677480432342143 0.0 0.0
0.0016515185000124583 -0.0006788969445952072 0.0 -0.0011271820280588153 0.0 0.0
0.002579145468336337 -0.0011948876034809084 0.0 -0.0012452475992036245 0.0 0.0
0.004465909151918818 -0.002631338091630281 0.0 -0.0018274283747251982 0.0 0.0
0.007702973523325643 -0.0055037761165876034 0.0 -0.0031202462906170974 0.0 0.0
0.012380564327729607 -0.009910979163014816 0.0 -0.004995269805195898 0.0 0.0
0.01840051949558807 -0.015708175857705193 0.0 -0.00721772553303005 0.0 0.0
0.025618332087626403 -0.022705347474155483 0.0 -0.009594208634296246 0.0 0.0
0.033905755202492234 -0.030755374307095726 0.0 -0.011953488651416246 0.0 0.0
0.043216036264899255 -0.03981423914189083 0.0 -0.014286429823805532 0.0 0.0
0.05355297654199724 -0.04990924326197319 0.0 -0.016667430211502153 0.0 0.0
0.06487094179412477 -0.061017149827266554 0.0 -0.01907872390265224 0.0 0.0
0.07700232682420025 -0.07298022043118427 0.0 -0.02132350346226736 0.0 0.0
0.0895880640547497 -0.08545154140769762 0.0 -0.023001711203965183 0.0 0.0
0.10196770006478172 -0.0978026983005202 0.0 -0.023475716077791427 0.0 0.0
0.11311035090624513 -0.10902376844318185 0.0 -0.021759176307990895 0.0 0.0
0.12169322102329966 -0.11774087437368455 0.0 -0.01653140874536864 0.0 0.0
0.12516698675886112 -0.12257798021997496 0.0 2.2654621234519112e-14 0.0 0.0
0.1216932210232799 -0.11774087437366992 0.0 0.016531408745420376 0.0 0.0
0.11311035090621142 -0.1090237684431453 0.0 0.02175917630803998 0.0 0.0
0.10196770006473736 -0.09780269830047897 0.0 0.023475716077822464 0.0 0.0
0.0895880640546977 -0.08545154140764762 0.0 0.02300171120396871 0.0 0.0
0.07700232682414433 -0.07298022043112617 0.0 0.021323503462258583 0.0 0.0
0.06487094179406784 -0.06101714982721479 0.0 0.019078723902644736 0.0 0.0
0.05355297654194074 -0.049909243261915814 0.0 0.01666743021149525 0.0 0.0
0.04321603626484475 -0.039814239141835135 0.0 0.014286429823794928 0.0 0.0
0.03390575520244187 -0.030755374307047376 0.0 0.011953488651396936 0.0 0.0
0.02561833208758261 -0.02270534747410848 0.0 0.009594208634277474 0.0 0.0
0.018400519495551732 -0.015708175857673066 0.0 0.007217725533012448 0.0 0.0
0.012380564327701502 -0.00991097916298944 0.0 0.004995269805183359 0.0 0.0
0.007702973523306417 -0.005503776116570787 0.0 0.003120246290608106 0.0 0.0
0.004465909151908125 -0.002631338091623929 0.0 0.0018274283747191553 0.0 0.0
0.002579145468331904 -0.0011948876034766926 0.0 0.0012452475992023168 0.0 0.0
0.0016515185000113845 -0.0006788969445949826 0.0 0.001127182028055934 0.0 0.0
0.0011005652905309853 -0.00042604106985664493 0.0 0.0010677480432333278 0.0 0.0
0.0006110618600929673 -9.222966417946712e-05 0.0 0.0011492204026337504 0.0 0.0
0.002203147173652806 -0.0005808181324525766 0.0 0.004692568982640766 0.0 0.0
0.004024116562744434 -0.010752960762830843 0.0 0.0036951070138721356 0.0 0.0
0.0030114944695221195 -0.008580233743415537 0.0 -0.0030683896393397803 0.0 0.0
0.0016375818358456823 -0.0004895840061379265 0.0 -0.004148470936372023 0.0 0.0
0.00044514430857191104 -7.188887664400679e-05 0.0 -0.00152014620231635 0.0 0.0
0.0008635106771400423 -0.00030563271812381895 0.0 -0.001375083091952366 0.0 0.0
0.0013440027951002553 -0.0005506944843983271 0.0 -0.0014400225616664668 0.0 0.0
0.0020613407378429257 -0.000905685317136196 0.0 -0.0015357572058598105 0.0 0.0
0.003511071651173904 -0.0019044250508532018 0.0 -0.0020600093142699263 0.0 0.0
0.006113145255315214 -0.004104303732159211 0.0 -0.0032914019151198378 0.0 0.0
0.01000923986259423 -0.007719730461799445 0.0 -0.005284867832908575 0.0 0.0
0.015086025565322975 -0.012582539729077772 0.0 -0.007712798852899548 0.0 0.0
0.021154885527875488 -0.018451195743252678 0.0 -0.010281817953724555 0.0 0.0
0.028087674205568937 -0.02516875086398707 0.0 -0.012830790425976984 0.0 0.0
0.03584270233163228 -0.032693371752790516 0.0 -0.015342122763529854 0.0 0.0
0.04444557980257937 -0.041075976732182884 0.0 -0.017893201072103466 0.0 0.0
0.05390485580660996 -0.05033885978053081 0.0 -0.020473627391816157 0.0 0.0
0.0641210986700797 -0.060393194345585335 0.0 -0.02287532746472127 0.0 0.0
0.07484242176685882 -0.07099404847449435 0.0 -0.0247359101773288 0.0 0.0
0.08561807096436393 -0.08170264275488377 0.0 -0.02547297087941892 0.0 0.0
0.09568045903829699 -0.09179495181586388 0.0 -0.023932155236896933 0.0 0.0
0.10391094833446306 -0.10014497613540382 0.0 -0.0183646323721865 0.0 0.0
0.10740889145008888 -0.10542973612363365 0.0 2.3114322955652966e-14 0.0 0.0
0.10391094833444586 -0.10014497613538623 0.0 0.01836463237223921 0.0 0.0
0.09568045903826801 -0.09179495181583176 0.0 0.023932155236949415 0.0 0.0
0.08561807096432636 -0.08170264275484675 0.0 0.025472970879451974 0.0 0.0
0.07484242176681465 -0.07099404847445091 0.0 0.02473591017733397 0.0 0.0
0.06412109867003231 -0.060393194345533974 0.0 0.022875327464711687 0.0 0.0
0.053904855806562374 -0.05033885978048563 0.0 0.020473627391806214 0.0 0.0
0.04444557980253261 -0.04107597673213696 0.0 0.017893201072095754 0.0 0.0
0.035842702331587026 -0.03269337175274657 0.0 0.01534212276351735 0.0 0.0
0.028087674205526863 -0.025168750863944447 0.0 0.012830790425958357 0.0 0.0
0.02115488552783874 -0.018451195743216214 0.0 0.010281817953702279 0.0 0.0
0.015086025565292684 -0.012582539729048834 0.0 0.007712798852880096 0.0 0.0
0.010009239862571037 -0.00771973046177824 0.0 0.005284867832895817 0.0 0.0
0.0061131452552999855 -0.004104303732147364 0.0 0.0032914019151106507 0.0 0.0
0.0035110716511659503 -0.0019044250508484604 0.0 0.002060009314266517 0.0 0.0
0.00206134073783957 -0.0009056853171351836 0.0 0.0015357572058570163 0.0 0.0
0.001344002795099241 -0.0005506944843971803 0.0 0.0014400225616647822 0.0 0.0
0.000863510677139796 -0.0003056327181237973 0.0 0.0013750830919504607 0.0 0.0
0.0004451443085716367 -7.188887664424382e-05 0.0 0.001520146202314004 0.0 0.0
0.0016375818358417748 -0.0004895840061370032 0.0 0.004148470936363293 0.0 0.0
0.003011494469514381 -0.008580233743398861 0.0 0.003068389639331331 0.0 0.0
0.002210587709576714 -0.006748496073463828 0.0 -0.0024899879627466055 0.0 0.0
0.00119839703353007 -0.00042126576292751564 0.0 -0.0036563369385082794 0.0 0.0
0.000315433936415855 -6.622835152382729e-05 0.0 -0.001826636377398676 0.0 0.0
0.0006435643821495144 -0.0001990122945557847 0.0 -0.0016609967410190392 0.0 0.0
0.0010514816063477116 -0.0004252179879573386 0.0 -0.0017257090483047577 0.0 0.0
0.0015957822212212696 -0.0006827938365989752 0.0 -0.00182541197685463 0.0 0.0
0.0026507539680707937 -0.0013192309590809843 0.0 -0.0022313513447238943 0.0 0.0
0.004626559902409185 -0.0028676406546320208 0.0 -0.003317461173204268 0.0 0.0
0.007701625330168785 -0.005629894737051587 0.0 -0.005166320817540917 0.0 0.0
0.011802921903360119 -0.009517644027976032 0.0 -0.007590416802312252 0.0 0.0
0.01671895534122395 -0.014246189179622643 0.0 -0.010199125952369211 0.0 0.0
0.02229519595067926 -0.019629239269265002 0.0 -0.0127828599600311 0.0 0.0
0.028498588470358334 -0.02562572796507543 0.0 -0.015310771012913196 0.0 0.0
0.03537308294767007 -0.03230012029881324 0.0 -0.017862256467554044 0.0 0.0
0.04296420213793887 -0.039711950932225765 0.0 -0.020435288147508463 0.0 0.0
0.051240707524140075 -0.04784038458801276 0.0 -0.02285812616510392 0.0 0.0
0.06005545161377164 -0.05652454833839539 0.0 -0.02477594076910378 0.0 0.0
0.06915368135735349 -0.06550859585088518 0.0 -0.02572590412583713 0.0 0.0
0.078092222429928 -0.07441783097910007 0.0 -0.024645632664655318 0.0 0.0
0.08602400924636742 -0.08245331116201818 0.0 -0.019484477603890944 0.0 0.0
0.08959978755973165 -0.08831658080023529 0.0 2.328692794151266e-14 0.0 0.0
0.08602400924635284 -0.0824533111620022 0.0 0.019484477603945574 0.0 0.0
0.0780922224299039 -0.07441783097907899 0.0 0.024645632664709857 0.0 0.0
0.0691536813573221 -0.06550859585085271 0.0 0.025725904125870468 0.0 0.0
0.06005545161373567 -0.05652454833836199 0.0 0.024775940769109026 0.0 0.0
0.05124070752410196 -0.04784038458797017 0.0 0.022858126165093456 0.0 0.0
0.04296420213790054 -0.03971195093218274 0.0 0.02043528814749884 0.0 0.0
0.03537308294763304 -0.03230012029877874 0.0 0.017862256467544666 0.0 0.0
0.028498588470322907 -0.02562572796504217 0.0 0.015310771012901344 0.0 0.0
0.022295195950645892 -0.019629239269227376 0.0 0.012782859960012197 0.0 0.0
0.016718955341194698 -0.014246189179595858 0.0 0.010199125952347178 0.0 0.0
0.01180292190333598 -0.009517644027950734 0.0 0.0075904168022945615 0.0 0.0
0.007701625330150685 -0.005629894737036927 0.0 0.0051663208175285425 0.0 0.0
0.004626559902397865 -0.0028676406546222807 0.0 0.0033174611731967675 0.0 0.0
0.0026507539680650553 -0.001319230959076362 0.0 0.0022313513447210663 0.0 0.0
0.0015957822212191656 -0.0006827938365981791 0.0 0.0018254119768520783 0.0 0.0
0.001051481606347173 -0.00042521798795720853 0.0 0.0017257090483045094 0.0 0.0
0.0006435643821494601 -0.0001990122945547015 0.0 0.0016609967410162458 0.0 0.0
0.00031543393641584585 -6.62283515236392e-05 0.0 0.0018266363773964114 0.0 0.0
0.0011983970335268227 -0.0004212657629262434 0.0 0.0036563369385011505 0.0 0.0
0.0022105877095703517 -0.006748496073450378 0.0 0.002489987962739087 0.0 0.0
0.0015770526257108698 -0.005212097106352741 0.0 -0.0020413798429122594 0.0 0.0
0.0008514494596973173 -0.0003717640929851788 0.0 -0.003212301420993311 0.0 0.0
0.00020319264825887975 -5.917963319238334e-05 0.0 -0.002059874714689566 0.0 0.0
0.00043460068071273655 -0.00010437720290780478 0.0 -0.0019076333382809685 0.0 0.0
0.0007639070268485349 -0.0002943057223573506 0.0 -0.001967545784535197 0.0 0.0
0.001173072872056155 -0.0004999485272224489 0.0 -0.0021074224366698486 0.0 0.0
0.0018859125781390436 -0.000870668938369844 0.0 -0.002383339074557673 0.0 0.0
0.003263299926414098 -0.0018310156147866908 0.0 -0.0032159935533793613 0.0 0.0
0.005512196301823945 -0.003726641226278412 0.0 -0.00475077408694542 0.0 0.0
0.008597044403938615 -0.006579413367127434 0.0 -0.006885068457190397 0.0 0.0
0.012334263087528347 -0.010133818930734355 0.0 -0.009321624301359237 0.0 0.0
0.016555925858155227 -0.014177393937169075 0.0 -0.011770936238819769 0.0 0.0
0.021216499925271273 -0.01865310262275568 0.0 -0.014162570117275647 0.0 0.0
0.026365841179818536 -0.023627789029113423 0.0 -0.016548232207022874 0.0 0.0
0.03208482705372112 -0.029185275374200216 0.0 -0.018950930138756795 0.0 0.0
0.03840512747036416 -0.035367429883110965 0.0 -0.0212377864740312 0.0 0.0
0.04526249271487614 -0.04210132122254353 0.0 -0.023091986596946397 0.0 0.0
0.05257931273196178 -0.04926130545340976 0.0 -0.024127075529817306 0.0 0.0
0.06026860732776479 -0.056827126936277395 0.0 -0.0236973816026947 0.0 0.0
0.06786640752911527 -0.06448810594266781 0.0 -0.019762808468918418 0.0 0.0
0.07154331427028934 -0.07105828136301874 0.0 1.870031907102998e-14 0.0 0.0
0.06786640752910435 -0.06448810594265753 0.0 0.01976280846896829 0.0 0.0
0.06026860732774629 -0.056827126936263433 0.0 0.023697381602748403 0.0 0.0
0.05257931273193708 -0.049261305453382115 0.0 0.024127075529846033 0.0 0.0
0.045262492714847495 -0.04210132122251779 0.0 0.023091986596948246 0.0 0.0
0.03840512747033485 -0.03536742988308398 0.0 0.021237786474021254 0.0 0.0
0.032084827053692436 -0.02918527537417042 0.0 0.018950930138746613 0.0 0.0
0.0263658411797912 -0.023627789029085515 0.0 0.01654823220701398 0.0 0.0
0.021216499925245574 -0.018653102622738057 0.0 0.014162570117264697 0.0 0.0
0.01655592585813053 -0.01417739393713829 0.0 0.011770936238801065 0.0 0.0
0.012334263087506361 -0.01013381893071175 0.0 0.009321624301339483 0.0 0.0
0.008597044403920862 -0.00657941336710897 0.0 0.006885068457173165 0.0 0.0
0.005512196301811174 -0.003726641226269649 0.0 0.0047507740869362335 0.0 0.0
0.003263299926406296 -0.0018310156147772184 0.0 0.0032159935533737326 0.0 0.0
0.0018859125781353144 -0.000870668938367101 0.0 0.0023833390745539667 0.0 0.0
0.0011730728720548052 -0.0004999485272205344 0.0 0.0021074224366679013 0.0 0.0
0.0007639070268478283 -0.00029430572235784365 0.0 0.0019675457845328382 0.0 0.0
0.00043460068071221017 -0.00010437720290676223 0.0 0.0019076333382790915 0.0 0.0
0.00020319264825852405 -5.917963319176391e-05 0.0 0.0020598747146876087 0.0 0.0
0.0008514494596949299 -0.0003717640929844229 0.0 0.0032123014209876357 0.0 0.0
0.0015770526257063641 -0.005212097106341986 0.0 0.002041379842908371 0.0 0.0
0.0010981628282660783 -0.00396550725700881 0.0 -0.001755987231675635 0.0 0.0
0.000578975263245964 -0.0003424281378322078 0.0 -0.00282125396124895 0.0 0.0
9.270465721023034e-05 -3.9619422612130344e-05 0.0 -0.0022246234288983324 0.0 0.0
0.00023374198429509626 -1.8908224501701703e-05 0.0 -0.0021035359046000838 0.0 0.0
0.00047510492498096103 -0.00015983185713272334 0.0 -0.0021572134124894188 0.0 0.0
0.0007697839195009798 -0.0003241947792070485 0.0 -0.002342676332459759 0.0 0.0
0.0012109078577883757 -0.0005385109518464653 0.0 -0.0025770998832146713 0.0 0.0
0.002043574442762388 -0.0010269646258177698 0.0 -0.0030669748371311197 0.0 0.0
0.0034798687576374564 -0.0021004871674662642 0.0 -0.004122388823150263 0.0 0.0
0.005528198779479283 -0.003880154870698556 0.0 -0.005712558732149705 0.0 0.0
0.008050312314113755 -0.006204395445459254 0.0 -0.007687102414013183 0.0 0.0
0.010899431809105223 -0.008884135552810448 0.0 -0.009775431840573641 0.0 0.0
0.014021587106654859 -0.01183738102530271 0.0 -0.011875520147627371 0.0 0.0
0.01745831195877192 -0.015124034284299929 0.0 -0.013961052550739322 0.0 0.0
0.02130100391559383 -0.018826593699047517 0.0 -0.016036884232188926 0.0 0.0
0.025642391491765826 -0.023038085074672737 0.0 -0.018060436324903065 0.0 0.0
0.030517470589680414 -0.027791117555472082 0.0 -0.019794298622363083 0.0 0.0
0.035942156666396136 -0.03306036502302389 0.0 -0.02082123641459619 0.0 0.0
0.04213841779080398 -0.039027841225711485 0.0 -0.020836571840002878 0.0 0.0
0.049237059353937206 -0.04604824544202233 0.0 -0.018838063181329544 0.0 0.0
0.0529943326813239 -0.053423592205552525 0.0 1.5655879370690684e-14 0.0 0.0
0.04923705935392981 -0.0460482454420121 0.0 0.018838063181371743 0.0 0.0
0.042138417790790875 -0.03902784122570044 0.0 0.020836571840048522 0.0 0.0
0.03594215666637833 -0.03306036502300125 0.0 0.020821236414619474 0.0 0.0
0.03051747058966081 -0.027791117555455682 0.0 0.01979429862236133 0.0 0.0
0.02564239149174625 -0.023038085074652586 0.0 0.01806043632489052 0.0 0.0
0.021301003915574917 -0.018826593699035582 0.0 0.016036884232180387 0.0 0.0
0.017458311958754965 -0.015124034284281364 0.0 0.013961052550733249 0.0 0.0
0.014021587106638821 -0.011837381025291333 0.0 0.011875520147620475 0.0 0.0
0.010899431809089121 -0.008884135552796577 0.0 0.009775431840558945 0.0 0.0
0.008050312314099195 -0.006204395445447388 0.0 0.0076871024139980836 0.0 0.0
0.005528198779468016 -0.0038801548706868362 0.0 0.005712558732138507 0.0 0.0
0.003479868757629863 -0.0021004871674585226 0.0 0.004122388823144564 0.0 0.0
0.0020435744427576316 -0.0010269646258130552 0.0 0.0030669748371275267 0.0 0.0
0.001210907857786222 -0.000538510951845358 0.0 0.0025770998832119036 0.0 0.0
0.0007697839195001481 -0.0003241947792052205 0.0 0.0023426763324581787 0.0 0.0
0.00047510492498058373 -0.00015983185713160225 0.0 0.002157213412485397 0.0 0.0
0.00023374198429510797 -1.8908224502330117e-05 0.0 0.0021035359045992763 0.0 0.0
9.270465721008801e-05 -3.961942261085067e-05 0.0 0.0022246234288962625 0.0 0.0
0.0005789752632444479 -0.0003424281378324929 0.0 0.0028212539612442705 0.0 0.0
0.0010981628282633101 -0.003965507257000986 0.0 0.0017559872316743517 0.0 0.0
0.0007591204741907475 -0.0029901721876318204 0.0 -0.0015873076018080431 0.0 0.0
0.00037065008394741834 -0.0003367509654720559 0.0 -0.002518344120208369 0.0 0.0
-2.141182461910471e-05 -3.5179189109249024e-06 0.0 -0.0023265558663375877 0.0 0.0
3.874624451367748e-05 6.0161862198761695e-05 0.0 -0.002243383859286929 0.0 0.0
0.00018645728101861157 -2.611771465786281e-05 0.0 -0.0022928327263143393 0.0 0.0
0.00036471244789564337 -0.0001400622854162472 0.0 -0.0024957312477568664 0.0 0.0
0.0005951667450173665 -0.0002603829564665136 0.0 -0.0027656306204901977 0.0 0.0
0.0009744578972817127 -0.00045146780120614656 0.0 -0.0030500247380247265 0.0 0.0
0.0016439460131097863 -0.0008716093476513063 0.0 -0.003532463416273333 0.0 0.0
0.00265318505465174 -0.001635740472516866 0.0 -0.004390584007928172 0.0 0.0
0.003928039783727853 -0.0026990619393283755 0.0 -0.005653432339555755 0.0 0.0
0.005370760250093305 -0.003961101220252286 0.0 -0.00718743510195765 0.0 0.0
0.006939547034464059 -0.005372169659180358 0.0 -0.008851940761968798 0.0 0.0
0.00866996867969438 -0.006966523719755795 0.0 -0.010588772425460566 0.0 0.0
0.01063791185023481 -0.008807895842322729 0.0 -0.012387870370827645 0.0 0.0
0.01296960549827278 -0.01101258140303406 0.0 -0.014234397179750849 0.0 0.0
0.015822418122240445 -0.013731998478862383 0.0 -0.015969095901452224 0.0 0.0
0.019330716976472498 -0.017100797490942697 0.0 -0.017125680553514 0.0 0.0
0.02376127658962553 -0.021301235829268808 0.0 -0.017175565372152705 0.0 0.0
0.029917926487023218 -0.027062995731558077 0.0 -0.01643553291760185 0.0 0.0
0.033575635575862406 -0.03511616165653636 0.0 1.1828212020947859e-14 0.0 0.0
0.029917926487019852 -0.027062995731552165 0.0 0.016435532917639873 0.0 0.0
0.023761276589618092 -0.021301235829263236 0.0 0.017175565372186768 0.0 0.0
0.019330716976462034 -0.01710079749093143 0.0 0.017125680553527894 0.0 0.0
0.015822418122229877 -0.013731998478853868 0.0 0.015969095901447274 0.0 0.0
0.012969605498263747 -0.011012581403021924 0.0 0.014234397179738997 0.0 0.0
0.010637911850226785 -0.008807895842317264 0.0 0.012387870370818546 0.0 0.0
0.00866996867968749 -0.006966523719747492 0.0 0.010588772425455894 0.0 0.0
0.006939547034457312 -0.005372169659174623 0.0 0.008851940761959925 0.0 0.0
0.005370760250086402 -0.003961101220252033 0.0 0.007187435101944101 0.0 0.0
0.003928039783721826 -0.002699061939325451 0.0 0.005653432339543083 0.0 0.0
0.002653185054646959 -0.0016357404725119591 0.0 0.0043905840079214616 0.0 0.0
0.0016439460131068284 -0.0008716093476469003 0.0 0.0035324634162696876 0.0 0.0
0.0009744578972798615 -0.00045146780120634974 0.0 0.0030500247380232347 0.0 0.0
0.0005951667450165126 -0.0002603829564677378 0.0 0.0027656306204868544 0.0 0.0
0.00036471244789532283 -0.0001400622854161714 0.0 0.0024957312477543758 0.0 0.0
0.0001864572810184839 -2.6117714656466676e-05 0.0 0.002292832726311276 0.0 0.0
3.874624451377189e-05 6.0161862198045295e-05 0.0 0.002243383859286059 0.0 0.0
-2.14118246192648e-05 -3.5179189101306743e-06 0.0 0.0023265558663363795 0.0 0.0
0.00037065008394645974 -0.00033675096547268956 0.0 0.0025183441202052213 0.0 0.0
0.0007591204741893982 -0.0029901721876266435 0.0 0.001587307601807903 0.0 0.0
0.0005207142772901889 -0.0022590490874068825 0.0 -0.0014950183441111444 0.0 0.0
0.00021203004008782302 -0.0003404550916348255 0.0 -0.002309491467359101 0.0 0.0
-0.0001345703106356655 4.179228779717127e-05 0.0 -0.0023732365100308885 0.0 0.0
-0.00015143145684000272 0.00013580820422773906 0.0 -0.0023253493534269387 0.0 0.0
-9.82571626439694e-05 0.00010446003186376723 0.0 -0.0023688455649664535 0.0 0.0
-4.562282751374568e-05 4.841695490155993e-05 0.0 -0.0025608065934953936 0.0 0.0
-1.64127758272275e-05 1.280324707217968e-05 0.0 -0.00285049088959511 0.0 0.0
-4.859187841211405e-06 2.9654872723000134e-06 0.0 -0.0031051811752926452 0.0 0.0
-8.881525182409251e-07 3.254769225095221e-07 0.0 -0.003293283923860847 0.0 0.0
3.7038070838991445e-07 -1.7583325395464965e-07 0.0 -0.0037388230068188307 0.0 0.0
-5.092097313085919e-07 -3.343599742958148e-07 0.0 -0.004587166257499647 0.0 0.0
-8.478106007281101e-06 7.623750347744013e-06 0.0 -0.005819885644647087 0.0 0.0
-2.6660402504246044e-05 2.4596245364057786e-05 0.0 -0.007247863205222095 0.0 0.0
-3.871692328998727e-05 4.111406457059255e-05 0.0 -0.008819910391377351 0.0 0.0
2.224502034502856e-05 1.4166289073686347e-06 0.0 -0.010539173725930363 0.0 0.0
0.00031579751365595375 -0.00023395270040453564 0.0 -0.01239332831790327 0.0 0.0
0.001121003474458785 -0.0009139179060487064 0.0 -0.014307647102531983 0.0 0.0
0.0027657133886167767 -0.0023646726847924167 0.0 -0.0160704168882135 0.0 0.0
0.00546352250228345 -0.00470713270168478 0.0 -0.017360883686457544 0.0 0.0
0.010007912877681466 -0.008396372593525665 0.0 -0.01813950199385231 0.0 0.0
0.012925771154773563 -0.016923293451841744 0.0 9.282505319951895e-15 0.0 0.0
0.010007912877681043 -0.00839637259351914 0.0 0.018139501993876466 0.0 0.0
0.005463522502280843 -0.004707132701681872 0.0 0.017360883686473427 0.0 0.0
0.0027657133886148655 -0.0023646726847928014 0.0 0.016070416888213524 0.0 0.0
0.0011210034744591733 -0.0009139179060480788 0.0 0.01430764710252139 0.0 0.0
0.00031579751365790596 -0.00023395270040850122 0.0 0.01239332831789261 0.0 0.0
2.2245020347371738e-05 1.4166289085440183e-06 0.0 0.010539173725919691 0.0 0.0
-3.871692328699108e-05 4.111406457037663e-05 0.0 0.008819910391370523 0.0 0.0
-2.666040250127598e-05 2.459624536042419e-05 0.0 0.0072478632052118165 0.0 0.0
-8.4781060046801e-06 7.623750342083664e-06 0.0 0.005819885644635188 0.0 0.0
-5.092097284802879e-07 -3.343599764944955e-07 0.0 0.004587166257489453 0.0 0.0
3.7038071012463793e-07 -1.7583325488043633e-07 0.0 0.003738823006814845 0.0 0.0
-8.881525173097852e-07 3.254769198608975e-07 0.0 0.0032932839238603694 0.0 0.0
-4.859187840945356e-06 2.965487272129448e-06 0.0 0.0031051811752912427 0.0 0.0
-1.6412775826994246e-05 1.2803247073777523e-05 0.0 0.0028504908895921116 0.0 0.0
-4.562282751333818e-05 4.8416954900796176e-05 0.0 0.002560806593492897 0.0 0.0
-9.825716264351753e-05 0.00010446003186402047 0.0 0.0023688455649654885 0.0 0.0
-0.0001514314568394912 0.00013580820422823592 0.0 0.0023253493534252426 0.0 0.0
-0.0001345703106358486 4.179228779775077e-05 0.0 0.0023732365100294396 0.0 0.0
0.00021203004008717326 -0.0003404550916353909 0.0 0.0023094914673575783 0.0 0.0
0.0005207142772892526 -0.002259049087403655 0.0 0.0014950183441107636 0.0 0.0
0.0003566086477828822 -0.0017256362114749621 0.0 -0.0014341689108854107 0.0 0.0
9.43258170638766e-05 -0.00033130396089634087 0.0 -0.002148552157794201 0.0 0.0
-0.00024133190414677184 8.624374993795282e-05 0.0 -0.0023705127952978584 0.0 0.0
-0.0003355418985662862 0.00020944202312970156 0.0 -0.0023477337282790545 0.0 0.0
-0.00037684257748439034 0.00022986125184266433 0.0 -0.0023768613660278617 0.0 0.0
-0.00045213885422957514 0.00023538977762927696 0.0 -0.0025402198346388574 0.0 0.0
-0.0006270380355503487 0.0002861624116887942 0.0 -0.002788015730739706 0.0 0.0
-0.0009842059582130826 0.000457963819333302 0.0 -0.003062407285742155 0.0 0.0
-0.0016453046221997325 0.0008720391892363152 0.0 -0.003537713370170825 0.0 0.0
-0.002651648475552152 0.001634482737666745 0.0 -0.004389517824508984 0.0 0.0
-0.003929877456912966 0.002699867101509524 0.0 -0.005650372435277738 0.0 0.0
-0.005389971302010891 0.003977837675785119 0.0 -0.007189490613230589 0.0 0.0
-0.006993343211528851 0.005422908951520467 0.0 -0.008848731249720505 0.0 0.0
-0.008743350730480394 0.00704865939867637 0.0 -0.010575269138648601 0.0 0.0
-0.010584488363005308 0.008806732748760366 0.0 -0.01239257105898487 0.0 0.0
-0.012341046320135808 0.010534083799409984 0.0 -0.01437771679753767 0.0 0.0
-0.013681407670932105 0.011907249004478088 0.0 -0.016582251324233813 0.0 0.0
-0.014178495736044256 0.012472760968252212 0.0 -0.019097463045531192 0.0 0.0
-0.013368763203436801 0.011905357523643547 0.0 -0.021864177404441378 0.0 0.0
-0.009522113983495074 0.009158062746520321 0.0 -0.02313717559639757 0.0 0.0
-0.006468189440716332 -0.00011068637062477764 0.0 1.229485263598562e-14 0.0 0.0
-0.00952211398349579 0.009158062746527664 0.0 0.023137175596420728 0.0 0.0
-0.013368763203433283 0.01190535752364167 0.0 0.021864177404456394 0.0 0.0
-0.014178495736034209 0.012472760968242843 0.0 0.019097463045534165 0.0 0.0
-0.013681407670918883 0.01190724900446352 0.0 0.01658225132422444 0.0 0.0
-0.012341046320122881 0.010534083799402785 0.0 0.014377716797524667 0.0 0.0
-0.01058448836299302 0.008806732748748273 0.0 0.012392571058972929 0.0 0.0
-0.008743350730467407 0.007048659398663188 0.0 0.010575269138639378 0.0 0.0
-0.0069933432115153165 0.005422908951509629 0.0 0.00884873124970797 0.0 0.0
-0.0053899713019979825 0.003977837675773063 0.0 0.007189490613216193 0.0 0.0
-0.003929877456901452 0.002699867101500745 0.0 0.005650372435263918 0.0 0.0
-0.002651648475543814 0.001634482737656676 0.0 0.0043895178245005745 0.0 0.0
-0.001645304622195017 0.0008720391892312271 0.0 0.003537713370168823 0.0 0.0
-0.0009842059582104677 0.0004579638193341147 0.0 0.0030624072857397574 0.0 0.0
-0.0006270380355487413 0.0002861624116903405 0.0 0.0027880157307376917 0.0 0.0
-0.0004521388542284944 0.00023538977762929577 0.0 0.002540219834636227 0.0 0.0
-0.0003768425774837635 0.00022986125184220935 0.0 0.0023768613660264267 0.0 0.0
-0.0003355418985661817 0.00020944202312991146 0.0 0.0023477337282774447 0.0 0.0
-0.00024133190414675856 8.624374993836988e-05 0.0 0.0023705127952972213 0.0 0.0
9.432581706375582e-05 -0.0003313039608965449 0.0 0.0021485521577926958 0.0 0.0
0.0003566086477825794 -0.001725636211473074 0.0 0.0014341689108849985 0.0 0.0
0.00024363568910272255 -0.0013082766243369187 0.0 -0.0013326166071338805 0.0 0.0
5.868705439064648e-06 -0.0003041829774151864 0.0 -0.001992841366876267 0.0 0.0
-0.00034049488438721694 0.00012687663079315672 0.0 -0.0023171074779926954 0.0 0.0
-0.0005113944165891038 0.00027990184567985654 0.0 -0.0023088955288683303 0.0 0.0
-0.0006470086466876477 0.0003485637086633886 0.0 -0.0023152365108769887 0.0 0.0
-0.0008482399285181651 0.00041471125219673133 0.0 -0.0024287369768494897 0.0 0.0
-0.0012406555880667 0.000566508171413358 0.0 -0.0026256977247078772 0.0 0.0
-0.002051653413551097 0.0010334707155425316 0.0 -0.003090992550627512 0.0 0.0
-0.003479021500718364 0.00209891580550372 0.0 -0.004126411090318923 0.0 0.0
-0.005526064360026894 0.003878021265297571 0.0 -0.005708959682262038 0.0 0.0
-0.008053710559888919 0.006207898279838577 0.0 -0.007686083775071432 0.0 0.0
-0.01091795628979123 0.008901694012330492 0.0 -0.009772134646617808 0.0 0.0
-0.014068011323280175 0.011883229984825373 0.0 -0.011840992219801756 0.0 0.0
-0.017518438538003035 0.0151939375132048 0.0 -0.0138733554818077 0.0 0.0
-0.021239959918646627 0.018814327903184436 0.0 -0.015973341369671958 0.0 0.0
-0.025046931821896948 0.022577977807216702 0.0 -0.01835488995919214 0.0 0.0
-0.02855271184302865 0.026096823718353476 0.0 -0.021245580966852105 0.0 0.0
-0.03118578279626754 0.02879179264132828 0.0 -0.024756058206209706 0.0 0.0
-0.03186740371077376 0.029738194198648323 0.0 -0.02820434255295482 0.0 0.0
-0.02842606183479779 0.026829025480198047 0.0 -0.029019936169159464 0.0 0.0
-0.02531898912615207 0.01565728252404223 0.0 1.7669893326299757e-14 0.0 0.0
-0.028426061834796075 0.02682902548019519 0.0 0.029019936169199644 0.0 0.0
-0.03186740371076485 0.029738194198634056 0.0 0.028204342552991757 0.0 0.0
-0.031185782796249485 0.028791792641313013 0.0 0.02475605820622283 0.0 0.0
-0.028552711843005438 0.026096823718332652 0.0 0.021245580966843758 0.0 0.0
-0.02504693182187315 0.022577977807201114 0.0 0.01835488995917892 0.0 0.0
-0.021239959918623846 0.018814327903160205 0.0 0.015973341369658244 0.0 0.0
-0.017518438537980296 0.015193937513182695 0.0 0.013873355481795486 0.0 0.0
-0.014068011323257138 0.01188322998480135 0.0 0.01184099221978986 0.0 0.0
-0.010917956289769205 0.008901694012309985 0.0 0.009772134646600423 0.0 0.0
-0.008053710559869136 0.006207898279820266 0.0 0.007686083775050725 0.0 0.0
-0.005526064360011657 0.0038780212652822646 0.0 0.0057089596822477206 0.0 0.0
-0.0034790215007085845 0.0020989158054970534 0.0 0.00412641109031302 0.0 0.0
-0.00205165341354536 0.0010334707155398397 0.0 0.0030909925506228206 0.0 0.0
-0.0012406555880639504 0.0005665081714118225 0.0 0.0026256977247045093 0.0 0.0
-0.0008482399285167571 0.00041471125219768733 0.0 0.0024287369768472866 0.0 0.0
-0.0006470086466866582 0.000348563708663394 0.0 0.0023152365108742422 0.0 0.0
-0.0005113944165883115 0.00027990184567878946 0.0 0.0023088955288664424 0.0 0.0
-0.0003404948843870674 0.0001268766307939828 0.0 0.0023171074779924647 0.0 0.0
5.868705438940107e-06 -0.0003041829774155254 0.0 0.001992841366874259 0.0 0.0
0.00024363568910266566 -0.001308276624335293 0.0 0.0013326166071338681 0.0 0.0
0.00015331907059637045 -0.0009577567953796685 0.0 -0.001181995335284897 0.0 0.0
-6.807171873376408e-05 -0.0002618538433488138 0.0 -0.0018221400866710621 0.0 0.0
-0.00043203464893652374 0.00016475905823438655 0.0 -0.0022110297825381807 0.0 0.0
-0.0006782851467877824 0.0003457931013215731 0.0 -0.0022121024637528543 0.0 0.0
-0.0009057812165867995 0.0004587088472611877 0.0 -0.0021891740306054404 0.0 0.0
-0.0012384832716055062 0.0005848390037137308 0.0 -0.002229902226927578 0.0 0.0
-0.001911811540219065 0.0009014025051149953 0.0 -0.0024547337624403237 0.0 0.0
-0.0032669714513335595 0.0018332529728480353 0.0 -0.0032384285159197746 0.0 0.0
-0.0055082585284572695 0.0037220198199111477 0.0 -0.004748591547657119 0.0 0.0
-0.008595856844771158 0.006578336908755243 0.0 -0.006880817819000386 0.0 0.0
-0.012339273650294249 0.010139745023689552 0.0 -0.009322200218657073 0.0 0.0
-0.01656972240241533 0.014191942256488555 0.0 -0.011761500383696147 0.0 0.0
-0.02124283135133776 0.01867997635342021 0.0 -0.014095294912274178 0.0 0.0
-0.026392842465310682 0.023661038348991487 0.0 -0.016368670396253348 0.0 0.0
-0.032016210992615105 0.0291525977822295 0.0 -0.018759789898296488 0.0 0.0
-0.03793096799169574 0.03500051360015428 0.0 -0.021612192160907723 0.0 0.0
-0.04367235289974719 0.04075363014762941 0.0 -0.0253697311124761 0.0 0.0
-0.04833575373719433 0.0455612833095087 0.0 -0.030029427719751076 0.0 0.0
-0.05029661668498688 0.04784365932207819 0.0 -0.03430240762011489 0.0 0.0
-0.04645845837624571 0.0448132206557299 0.0 -0.03563412290690543 0.0 0.0
-0.04257380285642123 0.03084323878944315 0.0 2.0160956237802452e-14 0.0 0.0
-0.04645845837624141 0.044813220655722456 0.0 0.03563412290695124 0.0 0.0
-0.050296616684973094 0.04784365932205985 0.0 0.0343024076201603 0.0 0.0
-0.048335753737169064 0.04556128330948546 0.0 0.03002942771977183 0.0 0.0
-0.04367235289971468 0.040753630147596934 0.0 0.02536973111247226 0.0 0.0
-0.03793096799166201 0.03500051360012368 0.0 0.021612192160893932 0.0 0.0
-0.03201621099258287 0.029152597782196886 0.0 0.018759789898281753 0.0 0.0
-0.02639284246527801 0.023661038348960932 0.0 0.01636867039623903 0.0 0.0
-0.021242831351304902 0.01867997635338935 0.0 0.014095294912260262 0.0 0.0
-0.016569722402384537 0.014191942256459644 0.0 0.011761500383676057 0.0 0.0
-0.01233927365026643 0.01013974502365716 0.0 0.009322200218634119 0.0 0.0
-0.008595856844749254 0.006578336908738812 0.0 0.006880817818983337 0.0 0.0
-0.005508258528442471 0.0037220198198966627 0.0 0.004748591547647985 0.0 0.0
-0.003266971451324299 0.0018332529728426086 0.0 0.003238428515911737 0.0 0.0
-0.0019118115402144468 0.0009014025051132296 0.0 0.0024547337624363746 0.0 0.0
-0.0012384832716037012 0.0005848390037141481 0.0 0.002229902226925702 0.0 0.0
-0.0009057812165858203 0.00045870884726015174 0.0 0.002189174030603317 0.0 0.0
-0.0006782851467870998 0.000345793101321045 0.0 0.002212102463751277 0.0 0.0
-0.00043203464893615896 0.00016475905823470544 0.0 0.002211029782536301 0.0 0.0
-6.807171873354045e-05 -0.0002618538433490636 0.0 0.001822140086668866 0.0 0.0
0.00015331907059659418 -0.0009577567953782122 0.0 0.0011819953352843649 0.0 0.0
7.530560351621141e-05 -0.0006637656170753821 0.0 -0.001012178526226712 0.0 0.0
-0.00013445886549813806 -0.00020690412663605515 0.0 -0.001625491026785988 0.0 0.0
-0.0005182730237093338 0.00020148928248271166 0.0 -0.002052556785727446 0.0 0.0
-0.000836226582136226 0.00040662736278209647 0.0 -0.002059556811621031 0.0 0.0
-0.0011518546314900216 0.0005571865513096407 0.0 -0.0019946676688669305 0.0 0.0
-0.0016447052498553914 0.0007600654892326965 0.0 -0.001972974953653616 0.0 0.0
-0.0026686370579871482 0.0013460425738672354 0.0 -0.0023025028674438217 0.0 0.0
-0.004623599618607848 0.002862764475395529 0.0 -0.0033293928154697994 0.0 0.0
-0.007697010467512399 0.005624320560477861 0.0 -0.005159706356666173 0.0 0.0
-0.011803931639564861 0.009519009358783272 0.0 -0.007586983895500344 0.0 0.0
-0.016724986180955782 0.014253969800487404 0.0 -0.010200029470577592 0.0 0.0
-0.0223004041154842 0.01963768823759936 0.0 -0.012767104582076005 0.0 0.0
-0.02849319550417604 0.025623527862716027 0.0 -0.015218801386113392 0.0 0.0
-0.035346561246476726 0.03227536979207621 0.0 -0.01761429285828849 0.0 0.0
-0.04288439575263088 0.039645395556966355 0.0 -0.020131048697068204 0.0 0.0
-0.05094158730343838 0.04761161323429147 0.0 -0.023214871419273652 0.0 0.0
-0.05892322915479842 0.055629317013127996 0.0 -0.027407042550970324 0.0 0.0
-0.06553893021330695 0.062467759021164124 0.0 -0.0326838850556315 0.0 0.0
-0.06848193294822233 0.06589989347864018 0.0 -0.03773523346074227 0.0 0.0
-0.06387315194092788 0.06224165028947855 0.0 -0.03975592314818284 0.0 0.0
-0.05907538971114311 0.04555412995326363 0.0 1.9690846175812737e-14 0.0 0.0
-0.0638731519409194 0.06224165028946929 0.0 0.03975592314823109 0.0 0.0
-0.06848193294820248 0.06589989347862625 0.0 0.03773523346079138 0.0 0.0
-0.06553893021327531 0.06246775902113415 0.0 0.032683885055657926 0.0 0.0
-0.05892322915475812 0.05562931701308284 0.0 0.0274070425509702 0.0 0.0
-0.050941587303395465 0.047611613234246924 0.0 0.023214871419260628 0.0 0.0
-0.0428843957525885 0.03964539555692703 0.0 0.02013104869705214 0.0 0.0
-0.035346561246434434 0.03227536979203446 0.0 0.01761429285827423 0.0 0.0
-0.028493195504134018 0.025623527862671205 0.0 0.015218801386097054 0.0 0.0
-0.02230040411544449 0.019637688237565176 0.0 0.012767104582053754 0.0 0.0
-0.016724986180920463 0.014253969800447738 0.0 0.010200029470551809 0.0 0.0
-0.011803931639536202 0.00951900935876023 0.0 0.007586983895480603 0.0 0.0
-0.007697010467492445 0.005624320560458366 0.0 0.0051597063566546945 0.0 0.0
-0.004623599618595182 0.002862764475385548 0.0 0.0033293928154617797 0.0 0.0
-0.0026686370579798962 0.0013460425738650204 0.0 0.0023025028674396363 0.0 0.0
-0.0016447052498523285 0.0007600654892306412 0.0 0.001972974953651912 0.0 0.0
-0.001151854631488831 0.0005571865513108704 0.0 0.001994667668866126 0.0 0.0
-0.0008362265821355657 0.00040662736278156305 0.0 0.0020595568116195512 0.0 0.0
-0.0005182730237088852 0.00020148928248218766 0.0 0.0020525567857254917 0.0 0.0
-0.00013445886549802392 -0.00020690412663606114 0.0 0.0016254910267844158 0.0 0.0
7.530560351593076e-05 -0.000663765617074388 0.0 0.0010121785262260322 0.0 0.0
7.146879307886307e-06 -0.00042303873675101505 0.0 -0.0008349484131269546 0.0 0.0
-0.0001954311667294957 -0.00014363469079937705 0.0 -0.0014023068501880284 0.0 0.0
-0.0006004549204001677 0.00023843498846079443 0.0 -0.0018413086223868975 0.0 0.0
-0.0009839862924311577 0.0004617473654673895 0.0 -0.0018505941451185596 0.0 0.0
-0.0013924105210038568 0.0006460756497632035 0.0 -0.0017379384183552143 0.0 0.0
-0.0020872566893394046 0.000968981663055378 0.0 -0.0016925167380527325 0.0 0.0
-0.0035187458454561714 0.0019201676108416815 0.0 -0.002113018363361971 0.0 0.0
-0.0061074013482801896 0.0040953801642470596 0.0 -0.0032936094498060317 0.0 0.0
-0.01000593766487536 0.007715921161224135 0.0 -0.005276871287109639 0.0 0.0
-0.015089510409518746 0.012586625971304886 0.0 -0.007710858769640441 0.0 0.0
-0.021160562907102703 0.018459413195773402 0.0 -0.010281578685963407 0.0 0.0
-0.028081407542068934 0.025168305353707184 0.0 -0.012807802079877065 0.0 0.0
-0.03579958573259444 0.032657363637391884 0.0 -0.015237165182679951 0.0 0.0
-0.044354207437828405 0.04098334157485095 0.0 -0.01762792880429167 0.0 0.0
-0.05379822032666183 0.05022130307329092 0.0 -0.020123099077481412 0.0 0.0
-0.06397315913107354 0.0602793632619443 0.0 -0.023086526127482066 0.0 0.0
-0.07414832177646341 0.07052083344826467 0.0 -0.027129417161152004 0.0 0.0
-0.08262856704656531 0.07933023604421455 0.0 -0.03250663670462595 0.0 0.0
-0.0864208570922444 0.08376921401703011 0.0 -0.03821299277808538 0.0 0.0
-0.08105883395790983 0.07943690063861447 0.0 -0.04222403122943394 0.0 0.0
-0.07543647534919044 0.06031362331789962 0.0 1.9628396130677572e-14 0.0 0.0
-0.08105883395789781 0.07943690063860777 0.0 0.042224031229483525 0.0 0.0
-0.08642085709221896 0.08376921401700446 0.0 0.03821299277813331 0.0 0.0
-0.08262856704652682 0.07933023604417881 0.0 0.03250663670465166 0.0 0.0
-0.07414832177641553 0.07052083344821691 0.0 0.02712941716115247 0.0 0.0
-0.06397315913102192 0.06027936326189062 0.0 0.02308652612747332 0.0 0.0
-0.053798220326610004 0.05022130307324228 0.0 0.020123099077469727 0.0 0.0
-0.04435420743777641 0.04098334157480066 0.0 0.01762792880427702 0.0 0.0
-0.03579958573254306 0.03265736363733596 0.0 0.015237165182664963 0.0 0.0
-0.02808140754202118 0.025168305353657414 0.0 0.012807802079857213 0.0 0.0
-0.021160562907059918 0.01845941319573159 0.0 0.010281578685940231 0.0 0.0
-0.015089510409483479 0.012586625971270205 0.0 0.007710858769621081 0.0 0.0
-0.010005937664849635 0.007715921161199348 0.0 0.005276871287094151 0.0 0.0
-0.0061074013482630835 0.004095380164229415 0.0 0.003293609449797191 0.0 0.0
-0.0035187458454465493 0.0019201676108351372 0.0 0.0021130183633565345 0.0 0.0
-0.002087256689335529 0.000968981663052597 0.0 0.0016925167380509416 0.0 0.0
-0.0013924105210027665 0.0006460756497653284 0.0 0.0017379384183544887 0.0 0.0
-0.0009839862924303788 0.00046174736546711033 0.0 0.0018505941451165873 0.0 0.0
-0.0006004549203995589 0.0002384349884605913 0.0 0.0018413086223852725 0.0 0.0
-0.00019543116672921285 -0.00014363469079970464 0.0 0.0014023068501870222 0.0 0.0
7.146879307979098e-06 -0.00042303873675038784 0.0 0.0008349484131257332 0.0 0.0
-5.057281474320571e-05 -0.0002345368230010545 0.0 -0.0006546961203677869 0.0 0.0
-0.0002503559087208308 -7.696949649735708e-05 0.0 -0.0011547672668049647 0.0 0.0
-0.0006787850405730129 0.00027579595588102533 0.0 -0.0015778834517026026 0.0 0.0
-0.001124424299473194 0.000510836294954206 0.0 -0.0015847423942921312 0.0 0.0
-0.0016398037458402422 0.0007325845972516331 0.0 -0.001429116359369943 0.0 0.0
-0.002577879428217515 0.0012341789012345458 0.0 -0.001385887729340395 0.0 0.0
-0.004462849006350745 0.0026343717537843456 0.0 -0.0018617579105856311 0.0 0.0
-0.007697641226873622 0.005496590764357799 0.0 -0.0031149480021994695 0.0 0.0
-0.012380675141832569 0.009910683234880464 0.0 -0.004988239760539798 0.0 0.0
-0.018405975725781166 0.015714469847755534 0.0 -0.007217619506150824 0.0 0.0
-0.025621571289796644 0.022711932871966514 0.0 -0.009592226090792683 0.0 0.0
-0.03388591255918011 0.030743403049702876 0.0 -0.011923581093442872 0.0 0.0
-0.04313738821503786 0.03974607388486419 0.0 -0.014181961066516974 0.0 0.0
-0.05339870380012931 0.04975514956479538 0.0 -0.016440289957843645 0.0 0.0
-0.06470522883636855 0.06082892730297673 0.0 -0.01876815211307095 0.0 0.0
-0.07690533089889358 0.07288120213540825 0.0 -0.021319091886913274 0.0 0.0
-0.08918738115922757 0.08523799842979392 0.0 -0.024629598444364128 0.0 0.0
-0.09948716150026027 0.09596964118025167 0.0 -0.029490487410168107 0.0 0.0
-0.10421111577065316 0.10149460048803939 0.0 -0.03598136807356819 0.0 0.0
-0.09835672755329486 0.0967712517450691 0.0 -0.04342615436887801 0.0 0.0
-0.0920800565755405 0.07553381778532728 0.0 2.1283322326759446e-14 0.0 0.0
-0.09835672755327915 0.09677125174505913 0.0 0.0434261543689235 0.0 0.0
-0.10421111577062207 0.10149460048800503 0.0 0.035981368073610014 0.0 0.0
-0.099487161500215 0.09596964118020791 0.0 0.029490487410191404 0.0 0.0
-0.08918738115917209 0.08523799842973519 0.0 0.024629598444366158 0.0 0.0
-0.07690533089883292 0.07288120213535272 0.0 0.021319091886907896 0.0 0.0
-0.0647052288363075 0.06082892730291373 0.0 0.018768152113060536 0.0 0.0
-0.05339870380006834 0.049755149564735535 0.0 0.016440289957828334 0.0 0.0
-0.04313738821497734 0.039746073884804264 0.0 0.014181961066501884 0.0 0.0
-0.033885912559123384 0.030743403049646754 0.0 0.01192358109342472 0.0 0.0
-0.025621571289746667 0.022711932871922212 0.0 0.009592226090772543 0.0 0.0
-0.018405975725740327 0.015714469847712974 0.0 0.007217619506132745 0.0 0.0
-0.012380675141801866 0.009910683234847801 0.0 0.004988239760524863 0.0 0.0
-0.007697641226852301 0.005496590764339292 0.0 0.003114948002189649 0.0 0.0
-0.004462849006338133 0.0026343717537735574 0.0 0.0018617579105792603 0.0 0.0
-0.002577879428211908 0.0012341789012306576 0.0 0.0013858877293377893 0.0 0.0
-0.0016398037458387872 0.000732584597249888 0.0 0.0014291163593689697 0.0 0.0
-0.0011244242994727155 0.0005108362949533342 0.0 0.001584742394291772 0.0 0.0
-0.0006787850405723151 0.00027579595588022655 0.0 0.0015778834517014668 0.0 0.0
-0.0002503559087205799 -7.696949649771162e-05 0.0 0.001154767266804153 0.0 0.0
-5.0572814743501224e-05 -0.00023453682300057186 0.0 0.0006546961203664695 0.0 0.0
-9.523783908355646e-05 -9.853831037480123e-05 0.0 -0.0004760597749799379 0.0 0.0
-0.00029640375545666146 -1.2257632081066601e-05 0.0 -0.0008857817692102031 0.0 0.0
-0.0007519879610326295 0.00031239439035814036 0.0 -0.0012610116182189984 0.0 0.0
-0.001260833709288542 0.0005541670375900479 0.0 -0.001259859956635424 0.0 0.0
-0.0019051248299109024 0.0008298584874937965 0.0 -0.0010710968865965999 0.0 0.0
-0.0031309294579586547 0.0015743805692465043 0.0 -0.0010371409112590255 0.0 0.0
-0.005501444602785282 0.003492032764543793 0.0 -0.0015536245790529082 0.0 0.0
-0.009350453792026162 0.006999153433721515 0.0 -0.0026849661949960024 0.0 0.0
-0.014774120562534535 0.012149573911784974 0.0 -0.004249020504286558 0.0 0.0
-0.021729731876811348 0.01886698623383211 0.0 -0.00613686055048456 0.0 0.0
-0.03007921603953173 0.026977640291975868 0.0 -0.008151516124122783 0.0 0.0
-0.03968791824919124 0.03633135060226808 0.0 -0.010132792943078815 0.0 0.0
-0.05048409457304056 0.046857955279653384 0.0 -0.012065393252316032 0.0 0.0
-0.06245161993586791 0.05856174305333213 0.0 -0.014039363539241756 0.0 0.0
-0.07557075993642305 0.07143697410913415 0.0 -0.016080807008534023 0.0 0.0
-0.08964639158324764 0.0853334793216903 0.0 -0.01808485937237794 0.0 0.0
-0.10385918926201498 0.0995806627910675 0.0 -0.020200870722009268 0.0 0.0
-0.1159932620240528 0.11220181052516953 0.0 -0.023722879113593633 0.0 0.0
-0.12196700651179829 0.11915311162315886 0.0 -0.030957435810788067 0.0 0.0
-0.11609100934921684 0.1146012732452282 0.0 -0.04311011494826439 0.0 0.0
-0.10939598106900313 0.0916310538366522 0.0 1.821112705080452e-14 0.0 0.0
-0.11609100934919833 0.11460127324520902 0.0 0.04311011494830231 0.0 0.0
-0.1219670065117614 0.11915311162311967 0.0 0.030957435810825815 0.0 0.0
-0.115993262024 0.11220181052512201 0.0 0.023722879113613166 0.0 0.0
-0.1038591892619513 0.09958066279100135 0.0 0.02020087072201232 0.0 0.0
-0.08964639158317823 0.0853334793216257 0.0 0.018084859372374425 0.0 0.0
-0.07557075993635258 0.07143697410906388 0.0 0.016080807008526193 0.0 0.0
-0.06245161993579745 0.05856174305326832 0.0 0.014039363539228963 0.0 0.0
-0.05048409457297109 0.04685795527958761 0.0 0.01206539325230403 0.0 0.0
-0.03968791824912609 0.03633135060220459 0.0 0.010132792943063188 0.0 0.0
-0.030079216039474665 0.026977640291927084 0.0 0.00815151612410438 0.0 0.0
-0.021729731876764614 0.018866986233785948 0.0 0.006136860550468367 0.0 0.0
-0.0147741205624984 0.012149573911749536 0.0 0.004249020504275751 0.0 0.0
-0.009350453792000607 0.006999153433700455 0.0 0.0026849661949870183 0.0 0.0
-0.005501444602770221 0.00349203276452868 0.0 0.0015536245790484498 0.0 0.0
-0.0031309294579515783 0.0015743805692438485 0.0 0.0010371409112567905 0.0 0.0
-0.0019051248299084061 0.0008298584874905902 0.0 0.0010710968865956635 0.0 0.0
-0.001260833709287618 0.0005541670375879181 0.0 0.001259859956633856 0.0 0.0
-0.0007519879610320173 0.00031239439035684805 0.0 0.0012610116182190058 0.0 0.0
-0.00029640375545656616 -1.2257632080665738e-05 0.0 0.0008857817692093974 0.0 0.0
-9.523783908378325e-05 -9.85383103744591e-05 0.0 0.00047605977497938267 0.0 0.0
-0.00012203277732148509 -1.578176004661419e-05 0.0 -0.00030888076449046305 0.0 0.0
-0.00032794280659122704 4.381530720875621e-05 0.0 -0.0005991929231040835 0.0 0.0
-0.0008173982719656815 0.00034520084761756553 0.0 -0.0008843657431769808 0.0 0.0
-0.0013994569358390932 0.0005949246819157709 0.0 -0.0008707802753312595 0.0 0.0
-0.002201904857811005 0.0009536479327760597 0.0 -0.0006728953190583804 0.0 0.0
-0.00375910737199544 0.002019434608766409 0.0 -0.0006589366422882349 0.0 0.0
-0.006604651867995387 0.004459235709842173 0.0 -0.0011212614606901181 0.0 0.0
-0.011026785286777996 0.008544565966693321 0.0 -0.0019390290796477273 0.0 0.0
-0.01716830970981634 0.014404279297478003 0.0 -0.0030872337227627125 0.0 0.0
-0.025033157749652438 0.02201288113779845 0.0 -0.004477997681911246 0.0 0.0
-0.0345074593802149 0.03122618622746131 0.0 -0.005970410928789935 0.0 0.0
-0.045459919492816636 0.04190259255249344 0.0 -0.0074416395583755636 0.0 0.0
-0.05780623641916216 0.0539621984017128 0.0 -0.008895090854837839 0.0 0.0
-0.0714903604476062 0.06736887874441366 0.0 -0.010429003962672675 0.0 0.0
-0.08638067515438712 0.08201877103614937 0.0 -0.01202670672281418 0.0 0.0
-0.10214516005643917 0.09761372203358208 0.0 -0.013441530645860721 0.0 0.0
-0.11799648113788902 0.11343010470356843 0.0 -0.0143997377147386 0.0 0.0
-0.13196071337517334 0.1277285663906509 0.0 -0.01587343942065521 0.0 0.0
-0.13971917237298984 0.1366654988657106 0.0 -0.02230788513725624 0.0 0.0
-0.13460409174718488 0.1333507226936078 0.0 -0.040263358400584315 0.0 0.0
-0.1278867794183625 0.10920107040470542 0.0 1.1971326707715946e-14 0.0 0.0
-0.13460409174716254 0.13335072269358517 0.0 0.04026335840061474 0.0 0.0
-0.1397191723729465 0.13666549886566143 0.0 0.022307885137289325 0.0 0.0
-0.1319607133751127 0.12772856639059413 0.0 0.015873439420671168 0.0 0.0
-0.11799648113781698 0.11343010470349968 0.0 0.014399737714740596 0.0 0.0
-0.10214516005636129 0.09761372203350142 0.0 0.013441530645858884 0.0 0.0
-0.08638067515430788 0.08201877103607551 0.0 0.012026706722810011 0.0 0.0
-0.07149036044752664 0.06736887874433767 0.0 0.010429003962663549 0.0 0.0
-0.05780623641908388 0.05396219840163832 0.0 0.008895090854827606 0.0 0.0
-0.045459919492743556 0.04190259255242039 0.0 0.007441639558364627 0.0 0.0
-0.03450745938015098 0.031226186227398027 0.0 0.00597041092877424 0.0 0.0
-0.025033157749599817 0.022012881137747544 0.0 0.004477997681896996 0.0 0.0
-0.017168309709775467 0.014404279297438673 0.0 0.00308723372275596 0.0 0.0
-0.011026785286748712 0.008544565966665798 0.0 0.0019390290796403621 0.0 0.0
-0.006604651867977091 0.0044592357098248315 0.0 0.001121261460687177 0.0 0.0
-0.003759107371986364 0.002019434608762258 0.0 0.0006589366422855279 0.0 0.0
-0.002201904857807975 0.0009536479327747235 0.0 0.0006728953190587096 0.0 0.0
-0.001399456935838218 0.0005949246819151983 0.0 0.0008707802753303042 0.0 0.0
-0.0008173982719649387 0.0003452008476169291 0.0 0.0008843657431774796 0.0 0.0
-0.0003279428065907854 4.381530720887677e-05 0.0 0.0005991929231050163 0.0 0.0
-0.00012203277732133862 -1.5781760046312874e-05 0.0 0.00030888076448930377 0.0 0.0
-0.00012253948158205002 1.3879457826054725e-05 0.0 -0.00017462438725912786 0.0 0.0
-0.0003350672130895128 8.094888901938174e-05 0.0 -0.00030017255478389154 0.0 0.0
-0.0008705822701246175 0.00036880439612597965 0.0 -0.00043127700243674697 0.0 0.0
-0.0015503670970738203 0.0006430599667131106 0.0 -0.00041158236625061633 0.0 0.0
-0.0025486362830396438 0.0011283125579998744 0.0 -0.0002484126468396962 0.0 0.0
-0.004453818332482971 0.002568947359356953 0.0 -0.00023563609811943378 0.0 0.0
-0.00774661183062718 0.005488833763222939 0.0 -0.0004909973639343646 0.0 0.0
-0.012706070084779227 0.01010908427081738 0.0 -0.0009146608097436819 0.0 0.0
-0.019537035561830642 0.01664664802555548 0.0 -0.0015096275146335983 0.0 0.0
-0.028289534286067203 0.025121449546542007 0.0 -0.002248283321581822 0.0 0.0
-0.03887805478222189 0.0354280675478739 0.0 -0.003047294740318153 0.0 0.0
-0.05117604194905892 0.04743149220566623 0.0 -0.003850491318033528 0.0 0.0
-0.06507993628857359 0.06103044203092481 0.0 -0.0046896576199385 0.0 0.0
-0.08046922262784377 0.07613070573093271 0.0 -0.00559448632525499 0.0 0.0
-0.09709952260049168 0.09252954141239639 0.0 -0.006532168134866967 0.0 0.0
-0.11445355738402452 0.10974762279087533 0.0 -0.00733081900912033 0.0 0.0
-0.1315994825698363 0.12686809814744818 0.0 -0.007623729662645903 0.0 0.0
-0.14696774716965477 0.14231850378910924 0.0 -0.007493773062939272 0.0 0.0
-0.15718331227299467 0.1531993375730057 0.0 -0.010513541064996135 0.0 0.0
-0.15439158905459874 0.15334137637962422 0.0 -0.0296258934656074 0.0 0.0
-0.14837714199627727 0.1299992978923585 0.0 7.134917656692608e-15 0.0 0.0
-0.15439158905457306 0.15334137637959452 0.0 0.029625893465625178 0.0 0.0
-0.1571833122729451 0.153199337572954 0.0 0.01051354106501413 0.0 0.0
-0.146967747169586 0.14231850378903843 0.0 0.0074937730629456595 0.0 0.0
-0.13159948256975526 0.12686809814736802 0.0 0.0076237296626444784 0.0 0.0
-0.11445355738393675 0.10974762279078598 0.0 0.007330819009120113 0.0 0.0
-0.09709952260040271 0.09252954141231248 0.0 0.0065321681348646 0.0 0.0
-0.08046922262775526 0.07613070573084779 0.0 0.005594486325251521 0.0 0.0
-0.06507993628848639 0.06103044203084318 0.0 0.0046896576199347475 0.0 0.0
-0.05117604194897777 0.047431492205587816 0.0 0.003850491318027549 0.0 0.0
-0.03887805478215138 0.03542806754780352 0.0 0.0030472947403086406 0.0 0.0
-0.02828953428600885 0.02512144954648709 0.0 0.002248283321574979 0.0 0.0
-0.019537035561785487 0.01664664802551134 0.0 0.0015096275146298346 0.0 0.0
-0.01270607008474596 0.010109084270786313 0.0 0.0009146608097412936 0.0 0.0
-0.007746611830605691 0.005488833763205736 0.0 0.0004909973639334906 0.0 0.0
-0.004453818332472039 0.0025689473593449724 0.0 0.00023563609811748205 0.0 0.0
-0.00254863628303522 0.0011283125579995394 0.0 0.0002484126468412625 0.0 0.0
-0.001550367097072381 0.0006430599667127341 0.0 0.00041158236625201116 0.0 0.0
-0.0008705822701241675 0.0003688043961264021 0.0 0.0004312770024365236 0.0 0.0
-0.0003350672130897713 8.094888901910285e-05 0.0 0.0003001725547847905 0.0 0.0
-0.00012253948158252997 1.387945782623454e-05 0.0 0.00017462438725944458 0.0 0.0
-8.162938569145599e-05 1.556648416139875e-05 0.0 -0.00010781867768337592 0.0 0.0
-0.0003004495999586249 9.31617131421991e-05 0.0 -0.00012469064876066363 0.0 0.0
-0.0009058109392125339 0.00037749771129184223 0.0 -0.00014471586695887352 0.0 0.0
-0.001730839700720545 0.0006706509501548515 0.0 -0.0001025843114208782 0.0 0.0
-0.0029567704573364704 0.0012329875985601642 0.0 0.00012205135786203187 0.0 0.0
-0.005199138411374662 0.0028653612981602112 0.0 0.0003184850005964505 0.0 0.0
-0.008906720574772601 0.006014349807111668 0.0 0.0004062424628973035 0.0 0.0
-0.01437068689137215 0.010893770012139134 0.0 0.00043751478571109315 0.0 0.0
-0.021856180275783437 0.01776090899804859 0.0 0.0004138580101534109 0.0 0.0
-0.0314704699402094 0.026662768584726514 0.0 0.000302949784006377 0.0 0.0
-0.04316454794936457 0.03751333185208372 0.0 0.00014682455386305464 0.0 0.0
-0.056814583787887354 0.050182729079731696 0.0 -5.20437186519512e-05 0.0 0.0
-0.07226697575481304 0.06455219914078175 0.0 -0.00033640256680649103 0.0 0.0
-0.08933745110333816 0.08049319588911204 0.0 -0.0006781757661297634 0.0 0.0
-0.10768850324964888 0.0977608372059554 0.0 -0.00111400958716628 0.0 0.0
-0.126619738734305 0.11578261210326116 0.0 -0.0015776326479107552 0.0 0.0
-0.14492581847562155 0.13350874418550562 0.0 -0.0018493371936573553 0.0 0.0
-0.16093678382509735 0.14937098841398397 0.0 -0.0016608847650729248 0.0 0.0
-0.1727447112033795 0.1610409698211129 0.0 -0.002998839379237053 0.0 0.0
-0.17561104485858914 0.16366593000962773 0.0 -0.022059591919847677 0.0 0.0
-0.1738686665601402 0.1415527904120457 0.0 1.27675647831893e-15 0.0 0.0
-0.1756110448585602 0.16366593000959398 0.0 0.022059591919853717 0.0 0.0
-0.17274471120332327 0.16104096982106472 0.0 0.0029988393792449008 0.0 0.0
-0.1609367838250183 0.1493709884139096 0.0 0.0016608847650728328 0.0 0.0
-0.1449258184755296 0.13350874418541628 0.0 0.001849337193655435 0.0 0.0
-0.12661973873420815 0.115782612103168 0.0 0.0015776326479122506 0.0 0.0
-0.10768850324955107 0.09776083720586141 0.0 0.0011140095871654977 0.0 0.0
-0.08933745110324033 0.08049319588902969 0.0 0.0006781757661277824 0.0 0.0
-0.07226697575471731 0.06455219914070101 0.0 0.00033640256680441023 0.0 0.0
-0.05681458378779798 0.05018272907964699 0.0 5.204371864966917e-05 0.0 0.0
-0.04316454794928677 0.03751333185201416 0.0 -0.00014682455386501227 0.0 0.0
-0.03147046994014617 0.026662768584669296 0.0 -0.00030294978400866946 0.0 0.0
-0.021856180275733904 0.01776090899800291 0.0 -0.00041385801015522 0.0 0.0
-0.01437068689133576 0.010893770012107442 0.0 -0.0004375147857086602 0.0 0.0
-0.00890672057474944 0.006014349807092881 0.0 -0.00040624246289646206 0.0 0.0
-0.005199138411361833 0.002865361298144256 0.0 -0.0003184850005958162 0.0 0.0
-0.002956770457331105 0.0012329875985588922 0.0 -0.00012205135785996798 0.0 0.0
-0.0017308397007192839 0.0006706509501535327 0.0 0.00010258431142306796 0.0 0.0
-0.0009058109392115891 0.0003774977112926901 0.0 0.0001447158669579527 0.0 0.0
-0.0003004495999577102 9.316171314215085e-05 0.0 0.00012469064876012586 0.0 0.0
-8.162938569103914e-05 1.5566484161363466e-05 0.0 0.00010781867768649037 0.0 0.0
SCALARS Statev float 8
LOOKUP_TABLE default
0.0 0.018218517503808006 0.014598892769845637 -0.017397451695584185 0.002798558925738531 -0.000957357706760052 0.0 0.0
0.0 0.006199834579316295 0.004559022747764212 -0.0028245804144205323 -0.001734442333343678 -0.0068197073272358 0.0 0.0
0.0 0.00011639787357555852 0.0001656333517211021 -0.00010230041298059107 -6.333293874051101e-05 -0.00028909737427364467 0.0 0.0
0.0 0.00015035092899361342 6.578835662552237e-05 -4.7153421961670236e-05 -1.863493466385229e-05 2.1835133623120435e-05 0.0 0.0
0.0 0.0009418243998441105 0.0006273239791207438 -0.0004586782371062886 -0.00016864574201445464 0.00013246285000694354 0.0 0.0
0.0 0.0024439090270395028 0.0024230068204078897 -0.0019165587844626386 -0.0005064480359452553 0.0002779051066719185 0.0 0.0
0.0 0.0062106028674010025 0.005700692267309597 -0.0048708321604540444 -0.0008298601068555458 0.00039152577645550654 0.0 0.0
0.0 0.011947857316727291 0.010797255339078035 -0.009709842910029553 -0.0010874124290484854 0.0004457806223089975 0.0 0.0
0.0 0.02005400079115866 0.01791847068214277 -0.016606310334817607 -0.0013121603473251653 0.00044181650481936566 0.0 0.0
0.0 0.030654347859670625 0.027149059474204238 -0.02559395967060348 -0.0015550998036007895 0.0003553233341067148 0.0 0.0
0.0 0.043681151876927865 0.038439692141007516 -0.03660153295033024 -0.001838159190677232 0.00021932573919714596 0.0 0.0
0.0 0.05867290144376573 0.051678133070468334 -0.049513016074949054 -0.0021651169955192113 3.2105050455789224e-05 0.0 0.0
0.0 0.07582737044077727 0.06672447928377784 -0.06419847413364257 -0.0025260051501352293 -0.00024218013548443762 0.0 0.0
0.0 0.094918907807756 0.083435081733055 -0.08052717369082528 -0.0029079080422295027 -0.00055225665201939 0.0 0.0
0.0 0.11569715169254016 0.10158760738008418 -0.09829487689467833 -0.00329273048540577 -0.0009343247913802436 0.0 0.0
0.0 0.13768194773067163 0.12072611365009742 -0.11706550113817546 -0.003660612511921957 -0.0013812423583073905 0.0 0.0
0.0 0.15991814682279948 0.1400524199249317 -0.13606057662330787 -0.003991843301623856 -0.0018099642472134258 0.0 0.0
0.0 0.18106235712368943 0.1584122622687466 -0.1541459512055326 -0.004266311063213994 -0.0020582806816107128 0.0 0.0
0.0 0.19947278387427864 0.17439389559884355 -0.1699163266978068 -0.004477568901036519 -0.0019508040622718318 0.0 0.0
0.0 0.2129861650795572 0.1863167312354093 -0.18171643154132722 -0.004600299694082201 -0.002144562436723081 0.0 0.0
0.0 0.21863453145496387 0.19109329007603007 -0.18651000188966593 -0.004583288186364177 2.0747292772682613e-15 0.0 0.0
0.0 0.21298616507952736 0.18631673123538336 -0.18171643154130113 -0.004600299694082143 0.0021445624367314037 0.0 0.0
0.0 0.1994727838742197 0.17439389559879154 -0.16991632669775644 -0.004477568901035181 0.0019508040622781128 0.0 0.0
0.0 0.1810623571236067 0.15841226226867428 -0.15414595120546193 -0.004266311063212445 0.0020582806816153987 0.0 0.0
0.0 0.15991814682269523 0.14005241992484163 -0.1360605766232189 -0.003991843301622764 0.001809964247211986 0.0 0.0
0.0 0.13768194773056927 0.12072611365000718 -0.11706550113808768 -0.003660612511919597 0.0013812423583044933 0.0 0.0
0.0 0.11569715169243934 0.1015876073799958 -0.09829487689459242 -0.003292730485403203 0.0009343247913791482 0.0 0.0
0.0 0.0949189078076507 0.08343508173296299 -0.08052717369073548 -0.002907908042227584 0.0005522566520179202 0.0 0.0
0.0 0.0758273704406747 0.06672447928368842 -0.06419847413355506 -0.0025260051501332713 0.0002421801354809609 0.0 0.0
0.0 0.058672901443665916 0.0516781330703817 -0.049513016074862734 -0.0021651169955188895 -3.210505045909062e-05 0.0 0.0
0.0 0.043681151876842655 0.038439692140932784 -0.03660153295025755 -0.0018381591906752274 -0.00021932573919970604 0.0 0.0
0.0 0.03065434785960871 0.02714905947414997 -0.02559395967055097 -0.001555099803599013 -0.00035532333410843704 0.0 0.0
0.0 0.020054000791109954 0.01791847068209968 -0.016606310334775953 -0.0013121603473236995 -0.00044181650481991096 0.0 0.0
0.0 0.01194785731669178 0.010797255339046071 -0.009709842909998894 -0.001087412429047178 -0.0004457806223088877 0.0 0.0
0.0 0.006210602867381547 0.005700692267291266 -0.004870832160437189 -0.0008298601068540709 -0.0003915257764552394 0.0 0.0
0.0 0.002443909027027099 0.0024230068203956153 -0.0019165587844521647 -0.0005064480359434506 -0.0002779051066709407 0.0 0.0
0.0 0.0009418243998405534 0.0006273239791184222 -0.0004586782371046737 -0.00016864574201374768 -0.00013246285000619766 0.0 0.0
0.0 0.00015035092899251456 6.578835662528818e-05 -4.715342196151396e-05 -1.8634934663773598e-05 -2.1835133623009813e-05 0.0 0.0
0.0 0.00011639787357441321 0.00016563335172018796 -0.00010230041297997776 -6.333293874020953e-05 0.0002890973742724021 0.0 0.0
0.0 0.0061998345793057 0.004559022747758653 -0.002824580414416433 -0.0017344423333422174 0.006819707327225817 0.0 0.0
0.0 0.018218517503786856 0.014598892769831366 -0.017397451695564503 0.0027985589257331278 0.0009573577067213634 0.0 0.0
0.0 0.014855682166244081 0.011134336839447825 -0.014393341936885129 0.003259005097437294 -0.00047279390419039866 0.0 0.0
0.0 0.0038043156797726344 0.0027296084272650633 -0.0016686557533894275 -0.0010609526738756304 -0.005361212741044408 0.0 0.0
0.0 -7.310928333442029e-05 -6.908929384591794e-05 6.154870157825656e-05 7.5405922676613255e-06 -7.512678893159182e-05 0.0 0.0
0.0 3.170746834056044e-05 2.329037639213672e-05 -1.6817679035982467e-05 -6.472697356154275e-06 1.010511216079825e-05 0.0 0.0
0.0 0.0005129421087689921 0.0004028241457817257 -0.0002968963137073112 -0.00010592783207441423 5.348782135982388e-05 0.0 0.0
0.0 0.0021358105170306662 0.001854430545220758 -0.001481078791800253 -0.0003733517534205063 5.336080148080585e-05 0.0 0.0
0.0 0.005266558815838227 0.004825506419835308 -0.004172503320533383 -0.0006530030993019222 -0.0001933358367162938 0.0 0.0
0.0 0.010588896244633756 0.009494700094819463 -0.008658292619144841 -0.0008364074756746279 -0.0006114300179529004 0.0 0.0
0.0 0.01815214398932776 0.01606493775172401 -0.015111310460193612 -0.0009536272915303967 -0.0011990574824056776 0.0 0.0
0.0 0.02796563702683626 0.024576248645792546 -0.02352452558505793 -0.0010517230607345865 -0.0019272405707487798 0.0 0.0
0.0 0.039964697101939374 0.03494711129193935 -0.033798955064438425 -0.0011481562275009586 -0.0027270530989264587 0.0 0.0
0.0 0.05411195890988741 0.0470589078899682 -0.045811169253117914 -0.0012477386368502969 -0.00354627260157564 0.0 0.0
0.0 0.06970996227357923 0.06081934316713055 -0.059468764311439874 -0.0013505788556906046 -0.004405276980883624 0.0 0.0
0.0 0.08737587932035355 0.0761200779182149 -0.07467047551920472 -0.0014496023990101367 -0.00531131513864435 0.0 0.0
0.0 0.10659107871443468 0.0927702723071182 -0.09123642171250762 -0.0015338505946104783 -0.0062408663535614564 0.0 0.0
0.0 0.12692553467818704 0.11036750683887046 -0.10877347403943728 -0.0015940327994332874 -0.0071206572183896005 0.0 0.0
0.0 0.14758060780030915 0.12819728212592568 -0.12657294969004462 -0.0016243324358809004 -0.0077378753965627 0.0 0.0
0.0 0.16733961842048609 0.1452140114976711 -0.14358832898624957 -0.0016256825114216878 -0.007765612345400502 0.0 0.0
0.0 0.18456508894455656 0.16004810869293742 -0.15845461442960432 -0.001593494263333212 -0.006979284311772475 0.0 0.0
0.0 0.19713946228020088 0.17080891063417308 -0.16934058317957054 -0.0014683274546025808 -0.005877638140670573 0.0 0.0
0.0 0.20250696068124177 0.17500236797637445 -0.17372928917144675 -0.001273078804927712 7.556455461354972e-15 0.0 0.0
0.0 0.19713946228017326 0.17080891063414877 -0.16934058317954626 -0.0014683274546023555 0.005877638140689994 0.0 0.0
0.0 0.1845650889445017 0.16004810869288974 -0.15845461442955686 -0.0015934942633327905 0.006979284311791276 0.0 0.0
0.0 0.16733961842041006 0.14521401149760543 -0.14358832898618407 -0.0016256825114213658 0.007765612345411354 0.0 0.0
0.0 0.14758060780021537 0.12819728212584514 -0.12657294968996366 -0.0016243324358814516 0.007737875396563036 0.0 0.0
0.0 0.126925534678092 0.11036750683878803 -0.10877347403935506 -0.0015940327994327054 0.007120657218385491 0.0 0.0
0.0 0.10659107871433966 0.09277027230703555 -0.09123642171242574 -0.001533850594609888 0.00624086635355868 0.0 0.0
0.0 0.08737587932025369 0.07612007791812847 -0.0746704755191186 -0.0014496023990097798 0.005311315138640851 0.0 0.0
0.0 0.06970996227348643 0.06081934316705017 -0.05946876431136024 -0.001350578855689958 0.004405276980879129 0.0 0.0
0.0 0.054111958909798426 0.047058907889891165 -0.04581116925304059 -0.0012477386368505673 0.003546272601569604 0.0 0.0
0.0 0.039964697101862075 0.03494711129187253 -0.03379895506437194 -0.0011481562275006316 0.0027270530989190285 0.0 0.0
0.0 0.02796563702677645 0.02457624864574005 -0.023524525585005913 -0.0010517230607341224 0.0019272405707434618 0.0 0.0
0.0 0.018152143989284768 0.01606493775168576 -0.015111310460156083 -0.0009536272915296848 0.001199057482402126 0.0 0.0
0.0 0.010588896244601942 0.009494700094790955 -0.008658292619117115 -0.0008364074756738524 0.0006114300179497971 0.0 0.0
0.0 0.005266558815819429 0.004825506419817978 -0.004172503320517253 -0.0006530030993007227 0.00019333583671476872 0.0 0.0
0.0 0.002135810517019789 0.0018544305452111985 -0.0014810787917920395 -0.0003733517534191587 -5.33608014812552e-05 0.0 0.0
0.0 0.000512942108765792 0.000402824145779522 -0.00029689631370572535 -0.00010592783207379678 -5.348782135937252e-05 0.0 0.0
0.0 3.170746833987312e-05 2.3290376392183228e-05 -1.6817679036027563e-05 -6.472697356155509e-06 -1.0105112160710382e-05 0.0 0.0
0.0 -7.31092833343415e-05 -6.908929384579991e-05 6.154870157813561e-05 7.540592267664154e-06 7.512678893129118e-05 0.0 0.0
0.0 0.003804315679762449 0.002729608427259559 -0.0016686557533855582 -0.0010609526738740022 0.005361212741033227 0.0 0.0
0.0 0.014855682166221493 0.011134336839430551 -0.01439334193686345 0.0032590050974328883 0.00047279390416129423 0.0 0.0
0.0 0.011066960527901447 0.008118323474022767 -0.010786150517682022 0.0026678270436592474 -0.0029080396330667334 0.0 0.0
0.0 0.0026461818797524042 0.0016823213091931256 -0.0009190809260596138 -0.0007632403831335125 -0.00447911131149064 0.0 0.0
0.0 -4.891623237635957e-07 3.638139428460402e-07 -3.194983705057367e-07 -4.431557234030019e-08 2.4262290969868434e-07 0.0 0.0
0.0 -2.42925420167414e-06 -4.432488795075412e-06 3.6000331368045748e-06 8.324556582707025e-07 3.6608501126129586e-06 0.0 0.0
0.0 0.00021920104944572104 0.00018366904485200941 -0.00013170507797986614 -5.196396687214351e-05 1.4515891139311504e-05 0.0 0.0
0.0 0.0015128805009202364 0.0012586331213390546 -0.0009786669441184828 -0.0002799661772205709 -7.402136032776884e-05 0.0 0.0
0.0 0.004065971594693697 0.0037911240453572513 -0.0032112326710081393 -0.0005798913743491109 -0.000560380966561739 0.0 0.0
0.0 0.008827974663302492 0.00792217420389488 -0.007137930162624579 -0.0007842440412703 -0.0013746855580041234 0.0 0.0
0.0 0.015585572218171995 0.01380486356914713 -0.01289732205451591 -0.0009075415146312117 -0.0025042092240426146 0.0 0.0
0.0 0.024452892225591077 0.021431254447212042 -0.02043067808523521 -0.001000576361976853 -0.003878159280444719 0.0 0.0
0.0 0.03521727757752485 0.03069038778073305 -0.029600014148875944 -0.0010903736318570631 -0.005374693797136591 0.0 0.0
0.0 0.047621285119454675 0.04146143117395325 -0.04027729799930011 -0.0011841331746531372 -0.006878796809446039 0.0 0.0
0.0 0.0619262214322331 0.05366816001448834 -0.05238726307288568 -0.0012808969416026627 -0.008379162769364146 0.0 0.0
0.0 0.07737470400548396 0.06726311262693975 -0.06588941985992805 -0.0013736927670116295 -0.009947085279617152 0.0 0.0
0.0 0.09453374871363295 0.08209721098154064 -0.0806436442439777 -0.001453566737563087 -0.011565993685504592 0.0 0.0
0.0 0.112738259448556 0.09783930376585476 -0.09632718061983336 -0.0015121231460212788 -0.0130703569251024 0.0 0.0
0.0 0.1313142127413443 0.1138936222363028 -0.1123487020477053 -0.001544920188597593 -0.014107703381842761 0.0 0.0
0.0 0.14917906271745893 0.12933535069168728 -0.12778849297312725 -0.0015468577185600548 -0.014183132800239006 0.0 0.0
0.0 0.16481609255388086 0.14282215377260893 -0.14132281707407549 -0.001499336698533302 -0.0129405956946148 0.0 0.0
0.0 0.17617476720416111 0.1525779817082854 -0.15115715589392334 -0.0014208258143619025 -0.01034095124720282 0.0 0.0
0.0 0.18123696207216913 0.15649281789741384 -0.15530487040596372 -0.0011879474914500705 1.4504022982642084e-14 0.0 0.0
0.0 0.17617476720413727 0.1525779817082634 -0.1511571558939018 -0.0014208258143615447 0.010340951247235436 0.0 0.0
0.0 0.1648160925538299 0.14282215377256455 -0.14132281707403085 -0.0014993366985337983 0.01294059569464882 0.0 0.0
0.0 0.14917906271739126 0.12933535069162844 -0.1277884929730685 -0.0015468577185598262 0.014183132800259322 0.0 0.0
0.0 0.1313142127412634 0.11389362223623353 -0.11234870204763624 -0.0015449201885972548 0.014107703381845162 0.0 0.0
0.0 0.11273825944846835 0.09783930376577907 -0.0963271806197572 -0.0015121231460218565 0.013070356925095302 0.0 0.0
0.0 0.09453374871354595 0.08209721098146529 -0.08064364424390286 -0.001453566737562408 0.011565993685500292 0.0 0.0
0.0 0.07737470400539603 0.06726311262686359 -0.06588941985985228 -0.001373692767011291 0.009947085279611405 0.0 0.0
0.0 0.061926221432150354 0.053668160014416676 -0.052387263072814605 -0.0012808969416020545 0.008379162769355882 0.0 0.0
0.0 0.04762128511938027 0.041461431173888945 -0.04027729799923636 -0.0011841331746525088 0.006878796809435923 0.0 0.0
0.0 0.03521727757745987 0.03069038778067648 -0.02960001414881962 -0.0010903736318568574 0.005374693797124817 0.0 0.0
0.0 0.024452892225534838 0.021431254447162797 -0.020430678085186074 -0.0010005763619766969 0.003878159280434003 0.0 0.0
0.0 0.015585572218131961 0.013804863569111779 -0.012897322054481363 -0.0009075415146304277 0.0025042092240357425 0.0 0.0
0.0 0.008827974663275203 0.00792217420387085 -0.0071379301626013514 -0.000784244041269481 0.001374685557998851 0.0 0.0
0.0 0.004065971594677755 0.0037911240453424784 -0.003211232670994597 -0.0005798913743478823 0.0005603809665586577 0.0 0.0
0.0 0.0015128805009129536 0.001258633121332941 -0.0009786669441135011 -0.00027996617721943957 7.402136032692948e-05 0.0 0.0
0.0 0.0002192010494436341 0.00018366904485080275 -0.00013170507797899078 -5.196396687181211e-05 -1.4515891139142214e-05 0.0 0.0
0.0 -2.4292542016117983e-06 -4.432488794859272e-06 3.6000331366451792e-06 8.324556582141162e-07 -3.6608501125461476e-06 0.0 0.0
0.0 -4.891623237599623e-07 3.6381394286013483e-07 -3.1949837051559e-07 -4.431557234454493e-08 -2.4262290969372634e-07 0.0 0.0
0.0 0.0026461818797441526 0.0016823213091882816 -0.0009190809260564067 -0.0007632403831318738 0.004479111311477997 0.0 0.0
0.0 0.011066960527877947 0.008118323474005358 -0.01078615051766004 0.0026678270436546843 0.002908039633047093 0.0 0.0
0.0 0.008382698833114665 0.005988630072217099 -0.00812469598762551 0.002136065915408397 -0.0031622642101914616 0.0 0.0
0.0 0.0019037971397776428 0.0011366202437685614 -0.0006043717726355467 -0.000532248471133011 -0.003368465796072464 0.0 0.0
0.0 0.0 0.0 0.0 0.0 0.0 0.0 0.0
0.0 -1.131562237589824e-06 -1.4639546318017761e-06 1.1576111782117466e-06 3.063434535900261e-07 1.050963550285455e-06 0.0 0.0
0.0 6.876085598569785e-05 4.627234753922656e-05 -3.0993541529957e-05 -1.527880600926926e-05 1.1267229629311479e-05 0.0 0.0
0.0 0.0008845778869749836 0.0007767694414123194 -0.0005883610783931366 -0.00018840836301918206 -0.00013843208528894127 0.0 0.0
0.0 0.003171586469512677 0.0027930260332851052 -0.002307394087699946 -0.00048563194558516067 -0.0007039206199618557 0.0 0.0
0.0 0.007114310117468574 0.006370350482336954 -0.005651673274052125 -0.0007186772082848296 -0.001852745154743405 0.0 0.0
0.0 0.013091863153509594 0.011536968764680276 -0.010682679203045794 -0.000854289561634468 -0.0033984183512935713 0.0 0.0
0.0 0.02093835326100188 0.01825676572070085 -0.017311478990369375 -0.0009452867303314668 -0.0052676241651975885 0.0 0.0
0.0 0.030385102396315082 0.02639411899312997 -0.02536574908288309 -0.0010283699102468344 -0.007289182428288558 0.0 0.0
0.0 0.04141276258886907 0.03582105557464478 -0.03470563425206847 -0.0011154213225762898 -0.009313026543049338 0.0 0.0
0.0 0.053647876308003495 0.0464829284305615 -0.04527638319831771 -0.00120654523224385 -0.011321589168786866 0.0 0.0
0.0 0.06764367799670216 0.05835237759327626 -0.05705980685504292 -0.0012925707382333129 -0.013383266587615636 0.0 0.0
0.0 0.08260043011619439 0.0713499806447624 -0.06998251272745024 -0.0013674679173120807 -0.015498870060696054 0.0 0.0
0.0 0.09848458029339624 0.08522752310146386 -0.08380129237329406 -0.0014262307281698284 -0.017484410635861904 0.0 0.0
0.0 0.11507941174484863 0.09950171016657368 -0.09804043892959703 -0.0014612712369765715 -0.018907808416761887 0.0 0.0
0.0 0.13112372907290643 0.11337227573313381 -0.11190943417848881 -0.001462841554644942 -0.01917106346665879 0.0 0.0
0.0 0.1452617390402763 0.1256193280737507 -0.12419444481783845 -0.0014248832559123558 -0.01765115995629367 0.0 0.0
0.0 0.15569568145065113 0.1346874155096362 -0.13331684837514493 -0.0013705671344915555 -0.013536676366963405 0.0 0.0
0.0 0.1607540360691392 0.13854917248750317 -0.13750458821127132 -0.0010445842762317153 1.9637937109795445e-14 0.0 0.0
0.0 0.15569568145063145 0.13468741550961735 -0.133316848375126 -0.0013705671344914903 0.013536676367008213 0.0 0.0
0.0 0.1452617390402301 0.12561932807370974 -0.12419444481779687 -0.0014248832559129374 0.017651159956337023 0.0 0.0
0.0 0.13112372907284786 0.11337227573308249 -0.11190943417843749 -0.001462841554644989 0.019171063466685068 0.0 0.0
0.0 0.11507941174478033 0.09950171016651473 -0.0980404389295388 -0.0014612712369759218 0.018907808416765953 0.0 0.0
0.0 0.09848458029331958 0.08522752310139776 -0.08380129237322784 -0.0014262307281699058 0.01748441063585323 0.0 0.0
0.0 0.08260043011612075 0.07134998064469804 -0.06998251272738708 -0.001367467917311049 0.01549887006068996 0.0 0.0
0.0 0.06764367799662845 0.058352377593212115 -0.057059806854979175 -0.0012925707382329735 0.013383266587609455 0.0 0.0
0.0 0.053647876307927854 0.046482928430496735 -0.04527638319825314 -0.001206545232243564 0.011321589168775036 0.0 0.0
0.0 0.04141276258880435 0.03582105557458838 -0.03470563425201274 -0.0011154213225756887 0.009313026543034314 0.0 0.0
0.0 0.030385102396258072 0.026394118993080532 -0.02536574908283412 -0.0010283699102463986 0.007289182428274369 0.0 0.0
0.0 0.02093835326095409 0.01825676572065943 -0.017311478990328456 -0.0009452867303309635 0.005267624165183034 0.0 0.0
0.0 0.013091863153472556 0.011536968764648107 -0.01068267920301419 -0.0008542895616339142 0.003398418351283683 0.0 0.0
0.0 0.007114310117445208 0.006370350482315751 -0.005651673274031903 -0.0007186772082838412 0.0018527451547360801 0.0 0.0
0.0 0.003171586469498663 0.002793026033273344 -0.0023073940876895487 -0.0004856319455837968 0.0007039206199578789 0.0 0.0
0.0 0.0008845778869690995 0.0007767694414077559 -0.0005883610783895918 -0.00018840836301816383 0.00013843208528787292 0.0 0.0
0.0 6.876085598528275e-05 4.627234753950216e-05 -3.0993541530216034e-05 -1.5278806009286144e-05 -1.1267229628827769e-05 0.0 0.0
0.0 -1.1315622380731836e-06 -1.463954631903899e-06 1.1576111782908716e-06 3.063434536130489e-07 -1.0509635503495935e-06 0.0 0.0
0.0 0.0 0.0 0.0 0.0 0.0 0.0 0.0
0.0 0.0019037971397702263 0.0011366202437642753 -0.0006043717726326881 -0.0005322484711315884 0.0033684657960611234 0.0 0.0
0.0 0.008382698833094964 0.005988630072201765 -0.008124695987605948 0.0021360659154041808 0.003162264210177378 0.0 0.0
0.0 0.006136329540464615 0.004360427276712891 -0.006022299659325093 0.0016618723826122054 -0.002722702071938309 0.0 0.0
0.0 0.0015194457893151735 0.0007380776729396023 -0.0003811721383638008 -0.0003569055345758013 -0.0023977064063906957 0.0 0.0
0.0 0.0 0.0 0.0 0.0 0.0 0.0 0.0
0.0 -3.597586908126277e-07 6.862585474326904e-08 -5.2591368820994694e-08 -1.603448592227299e-08 -4.0364994289605636e-08 0.0 0.0
0.0 -1.6559242283282028e-05 -5.633752310153225e-06 5.924671219401669e-06 -2.909189092484328e-07 1.6098426730324946e-05 0.0 0.0
0.0 0.00048329013649976466 0.000391744551901257 -0.0002893747725255328 -0.00010236977937572429 -0.00011635545063155318 0.0 0.0
0.0 0.002304499834864565 0.0019001986147857486 -0.0015270467516256617 -0.0003731518631600836 -0.0007145256994924555 0.0 0.0
0.0 0.005481954905074441 0.004863134512285757 -0.004226122956669575 -0.0006370115556161861 -0.002005173796075787 0.0 0.0
0.0 0.010639061084759456 0.009289687883920636 -0.008498878092969257 -0.0007908097909513851 -0.0038737875323411014 0.0 0.0
0.0 0.01742239033788099 0.015083036972164673 -0.014199373953501293 -0.0008836630186633642 -0.006089295292770301 0.0 0.0
0.0 0.025642182875069967 0.02208772340711492 -0.021126395726209883 -0.0009613276809050358 -0.008473018611278207 0.0 0.0
0.0 0.03512563191657134 0.03016962557208027 -0.02912834974362153 -0.0010412758284587167 -0.010851647113808552 0.0 0.0
0.0 0.04586480130332008 0.03928037168421837 -0.03815498252277586 -0.001125389161442475 -0.013208159694653084 0.0 0.0
0.0 0.05747973672002743 0.04943227173158274 -0.0482258840918601 -0.0012063876397226231 -0.01561641364652436 0.0 0.0
0.0 0.0705541026646409 0.060579932448311634 -0.05930344804313543 -0.0012764844051761982 -0.018061929113626366 0.0 0.0
0.0 0.08456087804557533 0.07256161914101962 -0.07122918433499782 -0.001332434806021747 -0.02035077622000221 0.0 0.0
0.0 0.0988479418321374 0.08502430181360582 -0.08365370322446941 -0.0013705985891363903 -0.022084841996372808 0.0 0.0
0.0 0.11303384186356236 0.09731813846188944 -0.09593756117702101 -0.0013805772848685303 -0.02262812927896775 0.0 0.0
0.0 0.12581137129495276 0.10842320569007248 -0.10706788970881803 -0.001355315981254287 -0.021007388393329787 0.0 0.0
0.0 0.1356112827545621 0.11700298393614039 -0.11569178676953758 -0.0013111971666027284 -0.015928944075426207 0.0 0.0
0.0 0.14084902164272567 0.12093872517972183 -0.12006783959107808 -0.000870885588643722 2.2338034200153345e-14 0.0 0.0
0.0 0.1356112827545453 0.11700298393612316 -0.1156917867695206 -0.0013111971666024725 0.01592894407547758 0.0 0.0
0.0 0.12581137129491476 0.10842320569003747 -0.10706788970878338 -0.0013553159812539565 0.021007388393376944 0.0 0.0
0.0 0.11303384186351446 0.0973181384618468 -0.09593756117697835 -0.0013805772848684713 0.022628129278998058 0.0 0.0
0.0 0.09884794183207826 0.08502430181355475 -0.08365370322441915 -0.0013705985891356404 0.02208484199637702 0.0 0.0
0.0 0.08456087804550992 0.07256161914096315 -0.07122918433494134 -0.0013324348060217708 0.020350776219992213 0.0 0.0
0.0 0.0705541026645785 0.06057993244825734 -0.059303448043081894 -0.0012764844051754048 0.01806192911361812 0.0 0.0
0.0 0.0574797367199625 0.049432271731526506 -0.04822588409180394 -0.0012063876397225334 0.015616413646516576 0.0 0.0
0.0 0.045864801303256826 0.039280371684163685 -0.03815498252272163 -0.0011253891614420117 0.013208159694640401 0.0 0.0
0.0 0.0351256319165144 0.030169625572031122 -0.029128349743572982 -0.0010412758284581271 0.010851647113791312 0.0 0.0
0.0 0.025642182875017513 0.022087723407070194 -0.021126395726165606 -0.0009613276809045951 0.008473018611258796 0.0 0.0
0.0 0.017422390337841414 0.015083036972130799 -0.014199373953467907 -0.0008836630186628915 0.0060892952927541644 0.0 0.0
0.0 0.0106390610847291 0.009289687883894308 -0.008498878092943567 -0.0007908097909507383 0.0038737875323297463 0.0 0.0
0.0 0.00548195490505428 0.004863134512268098 -0.004226122956652975 -0.0006370115556151255 0.0020051737960675 0.0 0.0
0.0 0.002304499834853743 0.0019001986147771642 -0.001527046751618303 -0.0003731518631588628 0.0007145256994887367 0.0 0.0
0.0 0.0004832901364951334 0.0003917445518979701 -0.00028937477252301074 -0.0001023697793749589 0.00011635545063016542 0.0 0.0
0.0 -1.655924228350876e-05 -5.6337523098292316e-06 5.924671219133833e-06 -2.909189093046529e-07 -1.6098426729791525e-05 0.0 0.0
0.0 -3.597586906504919e-07 6.862585467615998e-08 -5.259136877024609e-08 -1.6034485905920354e-08 4.0364994199269863e-08 0.0 0.0
0.0 0.0 0.0 0.0 0.0 0.0 0.0 0.0
0.0 0.0015194457893081383 0.0007380776729361502 -0.0003811721383614734 -0.00035690553457467524 0.0023977064063812757 0.0 0.0
0.0 0.006136329540448739 0.004360427276700417 -0.0060222996593088845 0.001661872382608458 0.0027227020719287364 0.0 0.0
0.0 0.004458993465530927 0.00306204594654083 -0.004298615626563669 0.0012365696800228367 -0.002135293646696852 0.0 0.0
0.0 0.0009168498305135943 0.0004531642265381452 -0.00022554407806143453 -0.0002276201484767098 -0.0016186813880632908 0.0 0.0
0.0 0.0 0.0 0.0 0.0 0.0 0.0 0.0
0.0 -4.124413339419345e-07 4.425627100194311e-08 -3.381729764379393e-08 -1.0438973358149214e-08 -8.358862635972713e-08 0.0 0.0
0.0 -1.646371760635062e-05 -1.287577309895922e-05 1.0327563741376051e-05 2.548209357583187e-06 1.859024572424164e-05 0.0 0.0
0.0 0.00016330462071552146 0.00015097478379710866 -0.00010826041607346242 -4.271436772364632e-05 -6.702229396863859e-05 0.0 0.0
0.0 0.0013254026969034265 0.0011721542397258187 -0.0009165485674299749 -0.0002556056722958449 -0.0006489984446946194 0.0 0.0
0.0 0.004226191172254848 0.003434111729568058 -0.002907830593951465 -0.0005262811356165867 -0.0018867946619037898 0.0 0.0
0.0 0.008122490776747636 0.007092390128002013 -0.006381237186609983 -0.0007111529413920341 -0.0039024901927895137 0.0 0.0
0.0 0.013989582237481592 0.01193966518523666 -0.01112713834384033 -0.0008125268413963299 -0.006332767339291864 0.0 0.0
0.0 0.02091315513085513 0.017802943744625866 -0.01691583970748137 -0.0008871040371444884 -0.008917106302163733 0.0 0.0
0.0 0.02885003062812774 0.02453885884425832 -0.02357840583804572 -0.0009604530062125899 -0.011492125825471157 0.0 0.0
0.0 0.03774731509596478 0.03210382070184333 -0.031066032691453794 -0.0010377880103895703 -0.014031750872299093 0.0 0.0
0.0 0.04771832376798032 0.04052847821706408 -0.039416703487245394 -0.0011117747298186903 -0.016613345117584333 0.0 0.0
0.0 0.05854630362373039 0.04982477012347604 -0.048647276054488806 -0.0011774940689872465 -0.019233388443061158 0.0 0.0
0.0 0.07015633834981969 0.05989559478756564 -0.05866412339420159 -0.001231471393364028 -0.0216873286693609 0.0 0.0
0.0 0.08275331407569697 0.07048894824082937 -0.06921744603535675 -0.001271502205472549 -0.023608273052037942 0.0 0.0
0.0 0.09499547586142894 0.08116503279240833 -0.07987090881320238 -0.0012941239792060007 -0.02441965105570222 0.0 0.0
0.0 0.10628050354565481 0.0911708540983884 -0.08988581615390731 -0.0012850379444811352 -0.02299277041412738 0.0 0.0
0.0 0.11564883065606044 0.09938578569727644 -0.09813992483037233 -0.0012458608669040493 -0.01761745513352433 0.0 0.0
0.0 0.12123965555989578 0.10349230502184936 -0.10282137650617396 -0.0006709285156753067 2.2236552876808702e-14 0.0 0.0
0.0 0.1156488306560445 0.0993857856972594 -0.09813992483035489 -0.0012458608669046194 0.01761745513357619 0.0 0.0
0.0 0.10628050354562332 0.09117085409835829 -0.08988581615387727 -0.0012850379444810651 0.02299277041417689 0.0 0.0
0.0 0.09499547586138818 0.08116503279237156 -0.07987090881316547 -0.0012941239792060599 0.024419651055733068 0.0 0.0
0.0 0.08275331407564604 0.07048894824078555 -0.06921744603531338 -0.0012715022054721572 0.023608273052042484 0.0 0.0
0.0 0.07015633834976272 0.059895594787516895 -0.05866412339415246 -0.0012314713933644305 0.021687328669351056 0.0 0.0
0.0 0.058546303623677215 0.04982477012343008 -0.04864727605444305 -0.001177494068987022 0.019233388443051024 0.0 0.0
0.0 0.04771832376792774 0.04052847821701816 -0.0394167034872 -0.0011117747298181669 0.016613345117574955 0.0 0.0
0.0 0.03774731509591278 0.03210382070179895 -0.031066032691409905 -0.0010377880103890418 0.014031750872286163 0.0 0.0
0.0 0.028850030628078584 0.024538858844216395 -0.023578405838004298 -0.0009604530062120992 0.011492125825453338 0.0 0.0
0.0 0.02091315513081131 0.017802943744589357 -0.01691583970744561 -0.000887104037143744 0.00891710630214211 0.0 0.0
0.0 0.013989582237447418 0.011939665185207617 -0.011127138343811727 -0.0008125268413958849 0.006332767339273813 0.0 0.0
0.0 0.008122490776722684 0.007092390127980236 -0.006381237186589069 -0.0007111529413911754 0.0039024901927770016 0.0 0.0
0.0 0.004226191172238218 0.0034341117295547136 -0.002907830593939241 -0.0005262811356154714 0.001886794661896221 0.0 0.0
0.0 0.0013254026968959533 0.0011721542397199337 -0.0009165485674252499 -0.000255605672294684 0.0006489984446912643 0.0 0.0
0.0 0.0001633046207128789 0.00015097478379548322 -0.00010826041607225243 -4.271436772323062e-05 6.702229396759619e-05 0.0 0.0
0.0 -1.6463717606682073e-05 -1.2875773098403942e-05 1.0327563740953729e-05 2.548209357450182e-06 -1.8590245723613535e-05 0.0 0.0
0.0 -4.124413337759587e-07 4.4256271004984445e-08 -3.3817297646046074e-08 -1.0438973358935247e-08 8.35886263580662e-08 0.0 0.0
0.0 0.0 0.0 0.0 0.0 0.0 0.0 0.0
0.0 0.0009168498305083886 0.00045316422653582 -0.00022554407805992327 -0.0002276201484758967 0.0016186813880563703 0.0 0.0
0.0 0.004458993465518111 0.0030620459465308158 -0.004298615626550381 0.0012365696800195629 0.002135293646689766 0.0 0.0
0.0 0.0029462281183490016 0.002037699868939485 -0.002899779344876377 0.0008620794759368892 -0.0015881855281862866 0.0 0.0
0.0 0.0005593680697049945 0.0002384511974862259 -0.0001028044806594085 -0.0001356467168268169 -0.000984180952453127 0.0 0.0
0.0 3.547722962352453e-07 -4.760043067899587e-09 4.283870871274896e-09 4.761721966247399e-10 7.118613590585807e-08 0.0 0.0
0.0 -3.9933846218285653e-07 2.3010864123224606e-08 -1.7665084308602554e-08 -5.345779814626124e-09 -7.114747973550936e-08 0.0 0.0
0.0 -6.084301319820792e-06 -4.391177434839034e-06 3.4959760728491265e-06 8.952013619899509e-07 9.563952238906177e-06 0.0 0.0
0.0 1.4673247229673847e-05 1.5528148686345633e-05 -8.557273483350284e-06 -6.970875202995289e-06 7.715734132949257e-06 0.0 0.0
0.0 0.0007297501311234589 0.0005896612069938778 -0.0004503203797940188 -0.0001393408271998592 -0.00047402872276453126 0.0 0.0
0.0 0.0025942055888383466 0.0021939238409609913 -0.001803427402890318 -0.00039049643807067424 -0.0016272671370133496 0.0 0.0
0.0 0.006254158504815292 0.00497438763484333 -0.004373161699574523 -0.0006012259352688047 -0.003501209053693938 0.0 0.0
0.0 0.010486549382515621 0.008863727537953996 -0.008139427842069556 -0.0007242996958844468 -0.005969718743832292 0.0 0.0
0.0 0.016253067689739255 0.013573667800454908 -0.012771929533385136 -0.0008017382670697788 -0.008603162412394927 0.0 0.0
0.0 0.022681297294549516 0.018961450749277006 -0.018091505982531984 -0.0008699447667450223 -0.011219454338811819 0.0 0.0
0.0 0.029817406903240782 0.02498497298837789 -0.024044844486388935 -0.0009401285019889388 -0.01378015318971117 0.0 0.0
0.0 0.03775375492427874 0.0316912394658566 -0.030683517820916446 -0.0010077216449401849 -0.016365241332002952 0.0 0.0
0.0 0.04648324736006733 0.0391272863582353 -0.03805921913774488 -0.001068067220490383 -0.018980440700900335 0.0 0.0
0.0 0.05628592463706579 0.047260964222825524 -0.04614334036405079 -0.0011176238587747719 -0.021458584535799137 0.0 0.0
0.0 0.06607090758507311 0.05594838962001828 -0.054787448860664376 -0.0011609407593539407 -0.023445678771268116 0.0 0.0
0.0 0.07666744439315128 0.06492753950721022 -0.06372870987605778 -0.001198829631152311 -0.024470986361464366 0.0 0.0
0.0 0.0869586295805357 0.07378343783770894 -0.07257405178200094 -0.0012093860557080638 -0.02350912582131057 0.0 0.0
0.0 0.09580543374634332 0.08168556951627162 -0.08050962194422544 -0.0011759475720462603 -0.018569804836182074 0.0 0.0
0.0 0.10195961597353623 0.08604680268112597 -0.08560313581371318 -0.0004436668674128443 2.1994558951909937e-14 0.0 0.0
0.0 0.09580543374633084 0.0816855695162571 -0.08050962194421007 -0.0011759475720470557 0.018569804836233664 0.0 0.0
0.0 0.08695862958051395 0.07378343783768643 -0.07257405178197862 -0.001209386055707827 0.023509125821361707 0.0 0.0
0.0 0.07666744439311729 0.06492753950717885 -0.06372870987602643 -0.0011988296311524096 0.024470986361494865 0.0 0.0
0.0 0.0660709075850327 0.05594838961998374 -0.054787448860630285 -0.0011609407593534456 0.02344567877127209 0.0 0.0
0.0 0.056285924637019 0.04726096422278564 -0.04614334036401097 -0.0011176238587746789 0.021458584535787313 0.0 0.0
0.0 0.046483247360021414 0.03912728635819555 -0.03805921913770514 -0.0010680672204903727 0.018980440700888588 0.0 0.0
0.0 0.03775375492423783 0.03169123946582113 -0.030683517820881367 -0.0010077216449397618 0.016365241331993286 0.0 0.0
0.0 0.029817406903200432 0.024984972988343797 -0.024044844486355185 -0.0009401285019886352 0.013780153189699103 0.0 0.0
0.0 0.02268129729450738 0.018961450749242124 -0.01809150598249734 -0.0008699447667448026 0.011219454338792763 0.0 0.0
0.0 0.016253067689705192 0.013573667800427127 -0.012771929533358194 -0.0008017382670689324 0.008603162412373855 0.0 0.0
0.0 0.010486549382486691 0.008863727537930237 -0.008139427842046106 -0.0007242996958841383 0.00596971874381384 0.0 0.0
0.0 0.006254158504794371 0.004974387634826979 -0.0043731616995591645 -0.0006012259352678114 0.003501209053682733 0.0 0.0
0.0 0.002594205588826013 0.002193923840951042 -0.001803427402881574 -0.00039049643806946606 0.0016272671370062954 0.0 0.0
0.0 0.000729750131117354 0.0005896612069896507 -0.0004503203797906817 -0.000139340827198969 0.0004740287227611975 0.0 0.0
0.0 1.467324722852915e-05 1.5528148686027982e-05 -8.55727348313389e-06 -6.970875202894257e-06 -7.71573413307339e-06 0.0 0.0
0.0 -6.0843013206945594e-06 -4.3911774348231785e-06 3.4959760728335267e-06 8.952013619896515e-07 -9.563952238792729e-06 0.0 0.0
0.0 -3.9933846203843063e-07 2.3010864114477826e-08 -1.766508430182229e-08 -5.345779812654833e-09 7.114747970917023e-08 0.0 0.0
0.0 3.5477229582550476e-07 -4.760043062279326e-09 4.283870866217358e-09 4.761721960621147e-10 -7.118613582206866e-08 0.0 0.0
0.0 0.0005593680697009323 0.00023845119748453636 -0.00010280448065832956 -0.00013564671682620683 0.0009841809524475523 0.0 0.0
0.0 0.0029462281183387207 0.0020376998689315457 -0.0028997793448655375 0.0008620794759339944 0.001588185528180963 0.0 0.0
0.0 0.0022132897074097846 0.001203631601683245 -0.0017327455092143184 0.0005291139075310725 -0.001057503243824765 0.0 0.0
0.0 0.00019819820524284295 9.609876266784723e-05 -2.5086253314971114e-05 -7.101250935287615e-05 -0.0005073659137011546 0.0 0.0
0.0 3.4138691687097137e-07 9.33340077383965e-09 -1.0240441689275753e-08 9.070409154367615e-10 -1.7261291915734506e-07 0.0 0.0
0.0 -7.29778370442688e-07 2.6828610083469892e-08 -2.066914027510407e-08 -6.159469808366111e-09 -1.647835511507916e-07 0.0 0.0
0.0 -3.935996499455225e-06 -2.514099804942384e-06 1.9882697198878905e-06 5.258300850544983e-07 8.572444571137169e-06 0.0 0.0
0.0 -2.548227561019917e-05 -1.583984503939646e-05 1.3269044584089583e-05 2.570800455306846e-06 3.573807942066363e-05 0.0 0.0
0.0 0.00027553741756409866 0.0002012019140648674 -0.00015072291913580918 -5.047899492905805e-05 -0.000253897059318727 0.0 0.0
0.0 0.0014294584600341054 0.0011523015114997916 -0.000920369455596004 -0.00023193205590378755 -0.0012157502188542117 0.0 0.0
0.0 0.003833944093371952 0.0030659332665236186 -0.0026153171550275826 -0.00045061611149603363 -0.0028230529799566717 0.0 0.0
0.0 0.0075835803627636 0.0058980554778585706 -0.005297380220459341 -0.0006006752573992233 -0.005012771131278171 0.0 0.0
0.0 0.011688070459357252 0.00943909156526646 -0.00874677542489846 -0.0006923161403679939 -0.007507798162436328 0.0 0.0
0.0 0.016536598261128545 0.013480542698296374 -0.012718981471521465 -0.0007615612267749202 -0.009998082938570805 0.0 0.0
0.0 0.021984374002515336 0.01797048730421408 -0.0171440269341807 -0.0008264603700333504 -0.012426824170066313 0.0 0.0
0.0 0.02796736417477314 0.022963892017850103 -0.022077440551326842 -0.0008864514665232459 -0.014848164822017434 0.0 0.0
0.0 0.034710412188492676 0.028535780293783793 -0.02759454460918616 -0.000941235684597626 -0.01729159896759033 0.0 0.0
0.0 0.042024435639716785 0.03472115222619723 -0.03373308651171013 -0.0009880657144870852 -0.019634358126137952 0.0 0.0
0.0 0.05013061911197923 0.04144917127785478 -0.04041973882987844 -0.0010294324479763535 -0.02156328606485758 0.0 0.0
0.0 0.05841979240608474 0.04863137771097744 -0.04755072883667467 -0.0010806488743027845 -0.022679256129901158 0.0 0.0
0.0 0.06693320281807161 0.056203967492800856 -0.055081738908582055 -0.001122228584218786 -0.022357151727302647 0.0 0.0
0.0 0.07555492529782606 0.06374611117215762 -0.06264258459457206 -0.0011035265775855279 -0.01864565556127759 0.0 0.0
0.0 0.08255691718348215 0.06843092234281767 -0.06824640726300381 -0.0001845150798138825 1.8828688608252264e-14 0.0 0.0
0.0 0.0755549252978203 0.0637461111721477 -0.06264258459456169 -0.0011035265775858954 0.018645655561325254 0.0 0.0
0.0 0.06693320281805837 0.056203967492784626 -0.05508173890856633 -0.0011222285842183493 0.0223571517273535 0.0 0.0
0.0 0.05841979240605702 0.04863137771095172 -0.04755072883664901 -0.0010806488743027077 0.02267925612992737 0.0 0.0
0.0 0.05013061911194737 0.0414491712778278 -0.04041973882985213 -0.0010294324479756523 0.021563286064858626 0.0 0.0
0.0 0.042024435639683444 0.034721152226169276 -0.033733086511682366 -0.000988065714486945 0.019634358126126936 0.0 0.0
0.0 0.034710412188458585 0.028535780293755045 -0.027594544609157376 -0.0009412356845976406 0.017291598967578228 0.0 0.0
0.0 0.027967364174741317 0.022963892017823048 -0.022077440551299933 -0.0008864514665231388 0.014848164822008602 0.0 0.0
0.0 0.02198437400248852 0.017970487304191995 -0.017144026934158996 -0.0008264603700329782 0.012426824170056062 0.0 0.0
0.0 0.016536598261095672 0.013480542698269565 -0.012718981471494839 -0.0007615612267747266 0.009998082938551986 0.0 0.0
0.0 0.011688070459329424 0.009439091565244783 -0.008746775424877319 -0.000692316140367449 0.007507798162416387 0.0 0.0
0.0 0.00758358036274092 0.005898055477841081 -0.0052973802204422625 -0.0006006752573988159 0.005012771131261652 0.0 0.0
0.0 0.003833944093358465 0.0030659332665131053 -0.0026153171550180603 -0.00045061611149504625 0.0028230529799481204 0.0 0.0
0.0 0.00142945846002465 0.0011523015114925537 -0.0009203694555899169 -0.00023193205590263703 0.0012157502188472984 0.0 0.0
0.0 0.00027553741756041725 0.00020120191406242213 -0.0001507229191339399 -5.047899492848201e-05 0.0002538970593154961 0.0 0.0
0.0 -2.548227561058482e-05 -1.583984503883354e-05 1.3269044583652453e-05 2.5708004551811334e-06 -3.573807941932827e-05 0.0 0.0
0.0 -3.935996499982843e-06 -2.5140998049784327e-06 1.9882697199161894e-06 5.258300850622351e-07 -8.572444571327273e-06 0.0 0.0
0.0 -7.297783707738622e-07 2.682861009369699e-08 -2.066914028213589e-08 -6.159469811561005e-09 1.6478355128128952e-07 0.0 0.0
0.0 3.413869167122987e-07 9.333400801450622e-09 -1.0240441717230718e-08 9.070409157805009e-10 1.726129197573042e-07 0.0 0.0
0.0 0.0001981982052401633 9.60987626668208e-05 -2.5086253314325367e-05 -7.101250935249534e-05 0.0005073659136971733 0.0 0.0
0.0 0.0022132897074006977 0.0012036316016777427 -0.001732745509206555 0.000529113907528811 0.0010575032438209276 0.0 0.0
0.0 0.0010822673912567959 0.0006318281540073115 -0.000919636906114399 0.00028780875210708784 -0.0006805337953507552 0.0 0.0
0.0 4.0621328700762595e-05 8.348940420248968e-06 2.5686731207176104e-05 -3.40356716274252e-05 -0.00016606257097027176 0.0 0.0
0.0 1.996410835386224e-06 -1.627937337485436e-09 1.0335632795237246e-08 -8.707695457750895e-09 4.930482422241507e-07 0.0 0.0
0.0 1.713591114582395e-06 -2.0287891737964774e-08 1.4017427479634755e-08 6.270464258329875e-09 4.243817496719713e-07 0.0 0.0
0.0 -4.930934568476814e-06 -1.50302302812169e-06 1.1650393267204434e-06 3.379837014012457e-07 8.721195333345512e-06 0.0 0.0
0.0 -2.1406371689207368e-05 -7.605720098939877e-06 6.273285182557347e-06 1.3324349163825355e-06 2.1092112599817468e-05 0.0 0.0
0.0 6.541601263778108e-05 1.9975347032340735e-05 -1.4193516402773453e-05 -5.7818306295673345e-06 -6.55093192712904e-05 0.0 0.0
0.0 0.0006458684416490132 0.00038041367458267576 -0.00030074546455172515 -7.966821003095103e-05 -0.0006764657976754977 0.0 0.0
0.0 0.001989280356380158 0.0014213810201481338 -0.001178043762585902 -0.00024333725756223076 -0.001922438617607295 0.0 0.0
0.0 0.004339320138518602 0.003177765356687949 -0.0027701274558085786 -0.00040763790087937005 -0.0036215371342158405 0.0 0.0
0.0 0.007154303398882506 0.005487747710683145 -0.00496230816867732 -0.0005254395420058261 -0.005678044098262099 0.0 0.0
0.0 0.010568196701727584 0.008159113709203107 -0.007553646157096831 -0.0006054675521062723 -0.007814983753521604 0.0 0.0
0.0 0.014284483064921012 0.011122536065738932 -0.01044993946379825 -0.0006725966019406832 -0.009955167301713377 0.0 0.0
0.0 0.018372730206343776 0.014417258796966231 -0.01368931623105198 -0.0007279425659142546 -0.012077593110560565 0.0 0.0
0.0 0.022990333312481744 0.018126174261440958 -0.01734884238156359 -0.0007773318798773861 -0.014189192016778812 0.0 0.0
0.0 0.02822108168723727 0.022338385573819328 -0.021515805346269023 -0.0008225802275502955 -0.016260247229426605 0.0 0.0
0.0 0.03401100704695712 0.027085864235741684 -0.026220434418143437 -0.0008654298175982176 -0.018068679540609905 0.0 0.0
0.0 0.04012765172858022 0.032371773961591535 -0.031454733226271236 -0.000917040735320338 -0.019191012466667517 0.0 0.0
0.0 0.04704995638818445 0.038405987579834856 -0.03741431180574038 -0.000991675774094445 -0.019296197289798717 0.0 0.0
0.0 0.05522451444163368 0.04538744436424665 -0.044364874137758595 -0.0010225702264880622 -0.017463638197503847 0.0 0.0
0.0 0.06311645495636754 0.05044667741504173 -0.050555994936276896 0.00010931752123510388 1.5466794511809212e-14 0.0 0.0
0.0 0.05522451444163097 0.04538744436423882 -0.04436487413774998 -0.0010225702264888268 0.017463638197543478 0.0 0.0
0.0 0.04704995638817586 0.03840598757982274 -0.037414311805728614 -0.0009916757740940636 0.01929619728984293 0.0 0.0
0.0 0.04012765172855831 0.03237177396157204 -0.031454733226251495 -0.0009170407353205139 0.019191012466687578 0.0 0.0
0.0 0.034011007046933966 0.0270858642357237 -0.026220434418125858 -0.0008654298175978306 0.01806867954060707 0.0 0.0
0.0 0.02822108168721319 0.02233838557379959 -0.0215158053462495 -0.0008225802275500614 0.01626024722941525 0.0 0.0
0.0 0.022990333312462953 0.018126174261425394 -0.01734884238154883 -0.0007773318798765712 0.014189192016770451 0.0 0.0
0.0 0.01837273020632308 0.014417258796949132 -0.013689316231035326 -0.0007279425659138095 0.01207759311055305 0.0 0.0
0.0 0.01428448306490464 0.011122536065725304 -0.01044993946378544 -0.0006725966019398725 0.009955167301706381 0.0 0.0
0.0 0.010568196701707028 0.008159113709188292 -0.007553646157081876 -0.0006054675521064099 0.007814983753507015 0.0 0.0
0.0 0.007154303398865483 0.005487747710670414 -0.004962308168665134 -0.0005254395420052756 0.005678044098247239 0.0 0.0
0.0 0.004339320138503598 0.0031777653566772137 -0.00277012745579847 -0.00040763790087874294 0.003621537134203789 0.0 0.0
0.0 0.0019892803563713087 0.0014213810201416765 -0.0011780437625803874 -0.00024333725756128802 0.0019224386176005326 0.0 0.0
0.0 0.0006458684416436156 0.00038041367457934634 -0.00030074546454891756 -7.96682100304287e-05 0.0006764657976702828 0.0 0.0
0.0 6.541601263548777e-05 1.9975347032004605e-05 -1.4193516402500305e-05 -5.781830629504251e-06 6.550931927040363e-05 0.0 0.0
0.0 -2.14063716894613e-05 -7.605720098555221e-06 6.273285182264324e-06 1.3324349162908632e-06 -2.1092112598201868e-05 0.0 0.0
0.0 -4.9309345685573855e-06 -1.503023028020476e-06 1.1650393266411027e-06 3.379837013793836e-07 -8.721195332512136e-06 0.0 0.0
0.0 1.7135911140690918e-06 -2.028789176912087e-08 1.401742750476467e-08 6.270464264357076e-09 -4.243817498102951e-07 0.0 0.0
0.0 1.9964108352929003e-06 -1.6279373196815765e-09 1.033563277377027e-08 -8.707695454088298e-09 -4.930482416577713e-07 0.0 0.0
0.0 4.062132869841736e-05 8.34894041982898e-06 2.568673120737875e-05 -3.403567162720764e-05 0.00016606257096822455 0.0 0.0
0.0 0.001082267391250872 0.0006318281540040658 -0.000919636906109694 0.00028780875210562796 0.00068053379534816 0.0 0.0
0.0 0.00047827048662470596 0.00023961510990890496 -0.0003513248074351947 0.00011170969752628984 -0.0003184086573081873 0.0 0.0
0.0 -3.4348061034421654e-05 -2.0982043160701633e-05 3.4455899435318394e-05 -1.3473856274616766e-05 8.61217894420934e-06 0.0 0.0
0.0 5.259451660420996e-07 5.853307512845791e-09 -1.2203521881125692e-08 6.350214368280996e-09 -1.8489652860025413e-07 0.0 0.0
0.0 4.500447978173873e-07 -1.2045957631466285e-08 6.842825572654514e-09 5.203132058809639e-09 1.1267127272013965e-08 0.0 0.0
0.0 -3.7653295435227967e-06 -5.306605536977514e-07 4.2448315865726715e-07 1.0617739504049269e-07 6.703368194198437e-06 0.0 0.0
0.0 -9.59605608258552e-06 -3.5365877874251106e-06 2.926368483250503e-06 6.102193041745788e-07 2.0623674714723432e-05 0.0 0.0
0.0 3.2963549278556323e-05 -2.081950632923306e-06 1.9042394623948708e-06 1.7771117052846714e-07 -3.580924194285888e-05 0.0 0.0
0.0 0.00017933590231570894 2.9070196231979936e-05 -2.4495637710108863e-05 -4.574558521871138e-06 -0.00026944746650878687 0.0 0.0
0.0 0.0006390895827588076 0.0002457330175292457 -0.00021549470135810142 -3.023831617114408e-05 -0.000912850816846586 0.0 0.0
0.0 0.0016330222992135017 0.0008543025414431651 -0.0007620658920599398 -9.223664938322642e-05 -0.0020315865113537876 0.0 0.0
0.0 0.0032849277029028566 0.0018867154379424358 -0.001705439594339064 -0.00018127584360337002 -0.003471392580990634 0.0 0.0
0.0 0.005012498762066654 0.003170451909581109 -0.002906615671278063 -0.00026383623830304953 -0.005087955907441942 0.0 0.0
0.0 0.007077141523210482 0.004602179857538486 -0.004263673660189273 -0.00033850619734920846 -0.0067760405598207936 0.0 0.0
0.0 0.009411011822885302 0.006212671767721509 -0.0058099197364805686 -0.00040275203124093387 -0.008526583781445562 0.0 0.0
0.0 0.012029539969142087 0.0080698532957891 -0.007608194991979715 -0.0004616583038093861 -0.010336014707703272 0.0 0.0
0.0 0.015078216983012808 0.010287304007469968 -0.009767358367750355 -0.000519945639719611 -0.012199048836805296 0.0 0.0
0.0 0.018730529048330703 0.013011839079293026 -0.0124306385632316 -0.000581200516061429 -0.013989980681135557 0.0 0.0
0.0 0.023042526100905045 0.01637438814429944 -0.01573089242690368 -0.0006434957173957539 -0.01525441074842025 0.0 0.0
0.0 0.027991615794878688 0.02061337527680487 -0.01989154415701564 -0.0007218311197892473 -0.015416367456168372 0.0 0.0
0.0 0.034549841291636886 0.026517613393920964 -0.025653876949285576 -0.0008637364446353558 -0.014721554243473467 0.0 0.0
0.0 0.044624318601361734 0.03187170123733875 -0.03232702119754909 0.00045531996021034226 1.2237606761278386e-14 0.0 0.0
0.0 0.03454984129164088 0.02651761339391774 -0.02565387694928178 -0.000863736444635987 0.014721554243507714 0.0 0.0
0.0 0.027991615794874115 0.020613375276797605 -0.019891544157008917 -0.000721831119788703 0.01541636745620047 0.0 0.0
0.0 0.02304252610089193 0.016374388144289393 -0.015730892426893444 -0.0006434957173959497 0.015254410748432142 0.0 0.0
0.0 0.01873052904831506 0.013011839079283662 -0.012430638563223052 -0.0005812005160606298 0.013989980681128698 0.0 0.0
0.0 0.015078216982997097 0.010287304007459471 -0.009767358367739155 -0.0005199456397203174 0.012199048836793212 0.0 0.0
0.0 0.01202953996913231 0.008069853295782022 -0.007608194991972663 -0.00046165830380935874 0.010336014707695095 0.0 0.0
0.0 0.009411011822875107 0.0062126717677146465 -0.005809919736474063 -0.00040275203124059023 0.008526583781440616 0.0 0.0
0.0 0.007077141523198904 0.004602179857531912 -0.004263673660182397 -0.00033850619734951507 0.006776040559810429 0.0 0.0
0.0 0.005012498762058329 0.0031704519095764666 -0.0029066156712739023 -0.0002638362383025644 0.005087955907433107 0.0 0.0
0.0 0.0032849277028931105 0.001886715437937466 -0.0017054395943343743 -0.0001812758436030904 0.003471392580978494 0.0 0.0
0.0 0.0016330222992068464 0.0008543025414392842 -0.000762065892056363 -9.22366493829219e-05 0.002031586511348218 0.0 0.0
0.0 0.00063908958275473 0.00024573301752716027 -0.00021549470135618552 -3.0238316170974046e-05 0.000912850816841205 0.0 0.0
0.0 0.00017933590231440107 2.9070196231771322e-05 -2.449563770993281e-05 -4.574558521838625e-06 0.0002694474665073358 0.0 0.0
0.0 3.29635492773783e-05 -2.0819506328853394e-06 1.9042394623506874e-06 1.777111705346563e-07 3.580924194249123e-05 0.0 0.0
0.0 -9.596056083666175e-06 -3.5365877874147484e-06 2.9263684832421394e-06 6.102193041726058e-07 -2.062367471431598e-05 0.0 0.0
0.0 -3.765329543746328e-06 -5.306605536879494e-07 4.2448315865601243e-07 1.0617739503193406e-07 -6.7033681937872885e-06 0.0 0.0
0.0 4.5004479756009096e-07 -1.204595764621919e-08 6.842825588173681e-09 5.203132058046347e-09 -1.1267126813377865e-08 0.0 0.0
0.0 5.259451664078263e-07 5.853307519703766e-09 -1.220352190450923e-08 6.350214384801472e-09 1.8489652975689485e-07 0.0 0.0
0.0 -3.434806103528299e-05 -2.0982043160621334e-05 3.445589943515317e-05 -1.3473856274531804e-05 -8.612178944617985e-06 0.0 0.0
0.0 0.00047827048662118935 0.00023961510990737822 -0.00035132480743297565 0.00011170969752559705 0.00031840865730646875 0.0 0.0
0.0 7.757172969319517e-05 4.496463419475764e-05 -6.763557495438388e-05 2.267094075962622e-05 -7.290572836091022e-05 0.0 0.0
0.0 -1.390868433812019e-05 -7.917767328064856e-06 1.1075301128968259e-05 -3.1575338009033937e-06 1.5850386005729336e-05 0.0 0.0
0.0 3.5252235659932177e-06 7.084486973471729e-08 -4.1586028045584026e-08 -2.925884168913867e-08 1.968419233241684e-06 0.0 0.0
0.0 1.3508784771160128e-06 -3.243931670012793e-08 2.2845683384996545e-08 9.593633315134883e-09 -2.3391091430138577e-07 0.0 0.0
0.0 -1.8416001257020313e-06 -6.051712738485238e-08 6.294561290633044e-08 -2.4284855214782752e-09 3.341679716395749e-06 0.0 0.0
0.0 -2.103874760568225e-06 -6.42798016704485e-07 6.714949027068849e-07 -2.869688600239991e-08 1.1638721653367122e-05 0.0 0.0
0.0 4.32001418863195e-05 -1.2412192646103079e-06 1.2185042184727718e-06 2.2715046137529064e-08 -5.0927454542565644e-05 0.0 0.0
0.0 0.00014838706584824788 -8.907129183871944e-07 8.522187788998245e-07 3.849413948738293e-08 -0.000253561569327881 0.0 0.0
0.0 0.00036204488576284746 -1.4269569495388295e-07 1.2848975758622105e-07 1.4205937367666772e-08 -0.00054793336989102 0.0 0.0
0.0 0.0005918056771122341 6.07083500101137e-08 -2.5813796015815266e-08 -3.4894553994401767e-08 -0.0010886079817888636 0.0 0.0
0.0 0.0010628639751400876 4.172470681051575e-07 -6.7092673332027e-07 2.5367966521527515e-07 -0.0019508859884446751 0.0 0.0
0.0 0.0016215642805952849 -4.074645723067561e-06 5.79048586275122e-06 -1.7158401396832928e-06 -0.0032767169990547493 0.0 0.0
0.0 0.0025751182364396915 -1.5301742350782037e-05 1.865450536513055e-05 -3.35276301434793e-06 -0.004832825602983108 0.0 0.0
0.0 0.0037142156720130805 -2.835709602405889e-05 3.1346778569154535e-05 -2.9896825450947517e-06 -0.006503653633112824 0.0 0.0
0.0 0.005010967042471162 6.9432310936204e-06 -1.2889993704220774e-05 5.946762610600673e-06 -0.008292557634514001 0.0 0.0
0.0 0.00643121380656076 0.00021607071726716099 -0.0002452265668985661 2.915584963140473e-05 -0.010206386356558229 0.0 0.0
0.0 0.008028876966469128 0.0008316885488915623 -0.0009054110059804347 7.372245708887207e-05 -0.012188227686911902 0.0 0.0
0.0 0.009742199867389518 0.0020731766139949316 -0.0022633874671057434 0.0001902108531108064 -0.014066514026080395 0.0 0.0
0.0 0.012154490026403219 0.0036564211142345866 -0.004025415268854799 0.00036899415462021354 -0.015440183360808287 0.0 0.0
0.0 0.017756180609761477 0.007505510284007767 -0.007286505905503711 -0.0002190043785040505 -0.015674584113591322 0.0 0.0
0.0 0.03133889224794529 0.013508765121371247 -0.014505405569704222 0.0009966404483329678 9.508886733566868e-15 0.0 0.0
0.0 0.017756180609767986 0.0075055102840064425 -0.007286505905502637 -0.00021900437850379896 0.015674584113616857 0.0 0.0
0.0 0.012154490026397 0.003656421114231968 -0.004025415268852002 0.0003689941546200307 0.015440183360813752 0.0 0.0
0.0 0.009742199867377262 0.0020731766139938396 -0.0022633874671053097 0.0001902108531114697 0.014066514026074619 0.0 0.0
0.0 0.008028876966456874 0.0008316885488917505 -0.0009054110059806906 7.372245708894159e-05 0.01218822768690015 0.0 0.0
0.0 0.006431213806555684 0.00021607071726908978 -0.00024522656690076133 2.915584963167239e-05 0.010206386356548781 0.0 0.0
0.0 0.0050109670424644 6.943231094219855e-06 -1.2889993704211342e-05 5.946762609989589e-06 0.008292557634504438 0.0 0.0
0.0 0.003714215672007735 -2.8357096022305138e-05 3.1346778567552735e-05 -2.989682545245808e-06 0.006503653633105996 0.0 0.0
0.0 0.0025751182364328485 -1.5301742348186674e-05 1.8654505362222828e-05 -3.3527630140360457e-06 0.004832825602971275 0.0 0.0
0.0 0.0016215642805868973 -4.074645722182418e-06 5.7904858617098705e-06 -1.7158401395275742e-06 0.003276716999042659 0.0 0.0
0.0 0.0010628639751340612 4.172470681474685e-07 -6.70926733430696e-07 2.536796652832275e-07 0.00195088598843688 0.0 0.0
0.0 0.0005918056771126059 6.070834985867776e-08 -2.5813795923437853e-08 -3.4894553935094214e-08 0.0010886079817878068 0.0 0.0
0.0 0.00036204488576162394 -1.426956949549214e-07 1.2848975758859274e-07 1.4205937366237192e-08 0.000547933369889292 0.0 0.0
0.0 0.00014838706584706208 -8.90712918382362e-07 8.522187789256158e-07 3.849413945673769e-08 0.0002535615693258053 0.0 0.0
0.0 4.3200141885416386e-05 -1.2412192646096105e-06 1.218504218489318e-06 2.27150461203104e-08 5.092745454269471e-05 0.0 0.0
0.0 -2.1038747614569884e-06 -6.42798016711991e-07 6.714949027099002e-07 -2.869688599791547e-08 -1.16387216526717e-05 0.0 0.0
0.0 -1.8416001256522704e-06 -6.051712742916361e-08 6.294561294860817e-08 -2.4284855194413595e-09 -3.3416797153737888e-06 0.0 0.0
0.0 1.3508784770661084e-06 -3.243931675903353e-08 2.2845683435809668e-08 9.593633323222848e-09 2.3391091512055067e-07 0.0 0.0
0.0 3.5252235651599236e-06 7.084486975479044e-08 -4.158602805939996e-08 -2.925884169538052e-08 -1.9684192337293897e-06 0.0 0.0
0.0 -1.3908684338487416e-05 -7.917767327870203e-06 1.1075301128735942e-05 -3.1575338008657533e-06 -1.5850386005003178e-05 0.0 0.0
0.0 7.757172969187856e-05 4.4964634194526354e-05 -6.763557495406014e-05 2.267094075953392e-05 7.290572836060888e-05 0.0 0.0
0.0 9.49132155598163e-07 -1.5179581983551284e-06 2.1141991895210425e-06 -5.96240991165931e-07 3.393269083425037e-06 0.0 0.0
0.0 -4.915843224577639e-07 2.3194786570595886e-07 -3.042394158302295e-07 7.229155012427337e-08 5.077620523334665e-08 0.0 0.0
0.0 3.9294757559457824e-07 5.6692024486031e-08 -8.046508506012365e-08 2.3773060574092336e-08 -7.459224801678427e-07 0.0 0.0
0.0 2.2483784775116012e-06 8.298860153901055e-09 -1.7140416406256067e-08 8.841556252353837e-09 -8.372417095644913e-07 0.0 0.0
0.0 -5.007146559815867e-08 -1.4133065272550804e-07 1.306579130327265e-07 1.0672739692777804e-08 -1.1798717333499038e-06 0.0 0.0
0.0 -2.5580243902017087e-06 1.2835785291345855e-07 1.1126655172663015e-07 -2.396244046400464e-07 -1.0897209496527999e-07 0.0 0.0
0.0 5.499139080151403e-05 1.620003655759619e-07 1.4717581258616371e-07 -3.0917617816218767e-07 -3.978104568445956e-05 0.0 0.0
0.0 0.00019070271085612958 -3.2771974552862646e-05 2.7849171735381945e-05 4.922802817480642e-06 -0.0002786119628590547 0.0 0.0
0.0 0.0006413960066607607 -0.0002469845483662156 0.00021652749252608472 3.0457055840131486e-05 -0.0009179358108463323 0.0 0.0
0.0 0.0016307998387658834 -0.0008531128656511732 0.0007609739270246687 9.213893862650468e-05 -0.0020308970335666744 0.0 0.0
0.0 0.0032953584005264536 -0.0018862656128637036 0.0017053017236120234 0.00018096388925167937 -0.0034677567266476485 0.0 0.0
0.0 0.005042746572097382 -0.003188194334929867 0.002921664365264284 0.00026652996966558106 -0.0050912992781411 0.0 0.0
0.0 0.007131880655491838 -0.004650510963728654 0.004307397771893196 0.00034311319183545847 -0.006779975528691786 0.0 0.0
0.0 0.009480580462476748 -0.006279566693807841 0.005875992007964624 0.0004035746858432174 -0.008523721778623013 0.0 0.0
0.0 0.011950979473519254 -0.008026174808951464 0.007584405320108904 0.00044176948884255807 -0.0103413334332538 0.0 0.0
0.0 0.014433380295038191 -0.009719243146280032 0.009270059381461892 0.00044918376481813723 -0.012298324211303325 0.0 0.0
0.0 0.01657182904557204 -0.011033599981750838 0.010615758293522869 0.00041784168822797636 -0.014442067955726789 0.0 0.0
0.0 0.018159135717285085 -0.01151962199339538 0.011187289834378045 0.00033233215901734217 -0.016829542916523124 0.0 0.0
0.0 0.018302492960528084 -0.010646952895051893 0.010502583768808176 0.00014436912624372547 -0.0194177576533546 0.0 0.0
0.0 0.014940364818839275 -0.0076924285404704855 0.00798158786973374 -0.0002891593292632537 -0.02127031313447716 0.0 0.0
0.0 0.03014430094177844 -0.004240935279308198 0.0019762580693132685 0.0022646772099949282 1.408248517797972e-14 0.0 0.0
0.0 0.01494036481884663 -0.007692428540471321 0.007981587869734276 -0.000289159329262955 0.021270313134492583 0.0 0.0
0.0 0.018302492960526922 -0.010646952895049766 0.0105025837688058 0.00014436912624397164 0.01941775765336804 0.0 0.0
0.0 0.018159135717273334 -0.011519621993386372 0.011187289834370158 0.0003323321590162007 0.016829542916524897 0.0 0.0
0.0 0.016571829045552475 -0.01103359998173687 0.0106157582935087 0.0004178416882281829 0.014442067955716061 0.0 0.0
0.0 0.014433380295023848 -0.009719243146269574 0.009270059381451715 0.0004491837648178545 0.012298324211292445 0.0 0.0
0.0 0.011950979473503697 -0.008026174808939406 0.007584405320097028 0.0004417694888423759 0.010341333433241486 0.0 0.0
0.0 0.009480580462460862 -0.006279566693795489 0.00587599200795242 0.0004035746858430686 0.008523721778612842 0.0 0.0
0.0 0.007131880655474456 -0.004650510963716029 0.004307397771880892 0.0003431131918351373 0.006779975528680053 0.0 0.0
0.0 0.00504274657208068 -0.003188194334918119 0.0029216643652536685 0.00026652996966444937 0.005091299278126972 0.0 0.0
0.0 0.0032953584005109126 -0.001886265612853926 0.0017053017236028896 0.00018096388925103546 0.0034677567266335535 0.0 0.0
0.0 0.0016307998387543312 -0.0008531128656442634 0.0007609739270184283 9.21389386258356e-05 0.0020308970335571252 0.0 0.0
0.0 0.0006413960066570029 -0.00024698454836426925 0.0002165274925244 3.0457055839869217e-05 0.0009179358108424242 0.0 0.0
0.0 0.00019070271085441716 -3.2771974552624135e-05 2.7849171735213375e-05 4.9228028174108254e-06 0.0002786119628572727 0.0 0.0
0.0 5.4991390800522994e-05 1.620003653661112e-07 1.471758127275064e-07 -3.091761780936244e-07 3.9781045684890994e-05 0.0 0.0
0.0 -2.558024391182965e-06 1.2835785282388852e-07 1.1126655179997857e-07 -2.396244046238656e-07 1.0897209563515298e-07 0.0 0.0
0.0 -5.007146573623965e-08 -1.413306528428883e-07 1.3065791313107507e-07 1.0672739711803633e-08 1.1798717343516467e-06 0.0 0.0
0.0 2.2483784770259947e-06 8.298860049881726e-09 -1.7140416319290453e-08 8.841556269409435e-09 8.372417104902742e-07 0.0 0.0
0.0 3.929475752397359e-07 5.6692024468335055e-08 -8.046508505587312e-08 2.377306058753351e-08 7.459224808712485e-07 0.0 0.0
0.0 -4.915843223124969e-07 2.3194786564064942e-07 -3.0423941575148586e-07 7.229155011083558e-08 -5.0776205214816535e-08 0.0 0.0
0.0 9.491321541779238e-07 -1.5179581978694884e-06 2.1141991887869394e-06 -5.962409909174387e-07 -3.393269082443922e-06 0.0 0.0
0.0 -5.791226492451871e-07 3.285152939261595e-08 -4.863961923435168e-08 1.5788089841737027e-08 -8.324711323925468e-08 0.0 0.0
0.0 1.3158065655033342e-06 4.756632883069358e-10 1.9597354336657897e-08 -2.0073017624970865e-08 2.2704208434453604e-07 0.0 0.0
0.0 -2.681592752337131e-07 1.972621003395137e-07 -1.569058415961958e-07 -4.035625874332655e-08 1.542754571500074e-06 0.0 0.0
0.0 1.2055232875306715e-06 -3.8270082850505064e-07 3.0052694538689907e-07 8.217388311813953e-08 -3.0995910298757214e-06 0.0 0.0
0.0 2.6836544161703502e-06 2.3370249171147436e-06 -1.927680723360231e-06 -4.093441937544518e-07 1.0444058553013434e-05 0.0 0.0
0.0 1.0706682684510453e-05 6.082359989213112e-06 -4.733633069725154e-06 -1.3487269194879522e-06 1.4900275304944907e-05 0.0 0.0
0.0 7.853637015920072e-05 -3.7277512508038296e-05 2.8707603851501908e-05 8.569908656536467e-06 -0.00012252250116219707 0.0 0.0
0.0 0.0006633172556972102 -0.00038801378124297037 0.0003074297174274108 8.058406381555939e-05 -0.0006949019810724895 0.0 0.0
0.0 0.0019891291977081793 -0.001420854849388858 0.001177398892202204 0.0002434559571866532 -0.0019253306955576512 0.0 0.0
0.0 0.0043356257374369996 -0.0031759627370189928 0.0027683128876085485 0.00040764984941044335 -0.0036183014642381293 0.0 0.0
0.0 0.00715759796372502 -0.005491177678785054 0.004965595569772338 0.0005255821090127198 -0.005677714882639417 0.0 0.0
0.0 0.01058833561244732 -0.008176149555819655 0.007569990726496523 0.0006061588293231336 -0.007816371026141394 0.0 0.0
0.0 0.014329094940154233 -0.011165221378480965 0.010491703178087052 0.0006735182003939063 -0.009933519707784865 0.0 0.0
0.0 0.01841998932452246 -0.014475124921632233 0.013749115524698178 0.0007260093969340569 -0.012007146077137484 0.0 0.0
0.0 0.022906492966341032 -0.018079472065278056 0.017316673297353237 0.0007627987679248115 -0.014125130884625931 0.0 0.0
0.0 0.02760879532617184 -0.021802799023047104 0.021024284152892203 0.0007785148701548849 -0.016492209968414794 0.0 0.0
0.0 0.032072403713763555 -0.025262974397151805 0.02448982418220006 0.0007731502149517502 -0.019331511586137672 0.0 0.0
0.0 0.03552287789357307 -0.027894698481373048 0.02714461943226919 0.0007500790491038616 -0.02275344137642574 0.0 0.0
0.0 0.03729837022172206 -0.028673413383569206 0.028008791018125045 0.0006646223654441456 -0.026096960973765983 0.0 0.0
0.0 0.03464754250902503 -0.025466431355546264 0.024965000207935906 0.0005014311476103387 -0.02681805843447952 0.0 0.0
0.0 0.03702855549772996 -0.0203979392661999 0.017338904527833193 0.0030590347383666803 1.6593497409456148e-14 0.0 0.0
0.0 0.03464754250903303 -0.025466431355544925 0.024965000207934743 0.0005014311476101831 0.026818058434514964 0.0 0.0
0.0 0.037298370221715144 -0.02867341338355817 0.028008791018113693 0.0006646223654444559 0.026096960973797552 0.0 0.0
0.0 0.035522877893554614 -0.027894698481356235 0.027144619432253117 0.0007500790491031485 0.02275344137643712 0.0 0.0
0.0 0.0320724037137364 -0.025262974397129868 0.024489824182178283 0.0007731502149515897 0.019331511586130477 0.0 0.0
0.0 0.02760879532614737 -0.021802799023027335 0.021024284152872736 0.0007785148701546024 0.01649220996840198 0.0 0.0
0.0 0.022906492966312964 -0.018079472065254995 0.01731667329733108 0.0007627987679239218 0.014125130884611403 0.0 0.0
0.0 0.018419989324496934 -0.014475124921610481 0.013749115524676718 0.0007260093969337601 0.012007146077125257 0.0 0.0
0.0 0.014329094940126106 -0.011165221378458389 0.0104917031780647 0.0006735182003936826 0.009933519707770747 0.0 0.0
0.0 0.010588335612420336 -0.008176149555799006 0.007569990726476393 0.0006061588293226167 0.007816371026123077 0.0 0.0
0.0 0.00715759796370071 -0.005491177678766572 0.004965595569754348 0.0005255821090122243 0.005677714882619713 0.0 0.0
0.0 0.004335625737418284 -0.00317596273700492 0.002768312887595603 0.00040764984940931686 0.003618301464224504 0.0 0.0
0.0 0.0019891291976983977 -0.0014208548493817462 0.0011773988921960907 0.0002434559571856552 0.001925330695550429 0.0 0.0
0.0 0.0006633172556917177 -0.00038801378123948596 0.00030742971742462336 8.058406381486215e-05 0.0006949019810672417 0.0 0.0
0.0 7.85363701566327e-05 -3.727751250746353e-05 2.8707603851058784e-05 8.569908656404768e-06 0.00012252250116064723 0.0 0.0
0.0 1.0706682684050262e-05 6.082359988861803e-06 -4.733633069440451e-06 -1.3487269194214525e-06 -1.4900275303837273e-05 0.0 0.0
0.0 2.6836544152284543e-06 2.3370249169635415e-06 -1.9276807232345238e-06 -4.093441937290091e-07 -1.044405855230201e-05 0.0 0.0
0.0 1.2055232873085356e-06 -3.827008286415818e-07 3.005269454993945e-07 8.217388314219299e-08 3.0995910307862924e-06 0.0 0.0
0.0 -2.681592758898154e-07 1.9726210033299623e-07 -1.569058416016827e-07 -4.035625873130876e-08 -1.5427545711522545e-06 0.0 0.0
0.0 1.3158065650490783e-06 4.756632990286898e-10 1.9597354328393155e-08 -2.0073017627423273e-08 -2.2704208448649257e-07 0.0 0.0
0.0 -5.791226488939735e-07 3.285152937202806e-08 -4.863961920387383e-08 1.57880898318369e-08 8.324711318699175e-08 0.0 0.0
0.0 0.0 0.0 0.0 0.0 0.0 0.0 0.0
0.0 -4.597287996738521e-07 -6.853202956288844e-09 2.886835497529438e-09 3.966367458759904e-09 -9.336839224249032e-08 0.0 0.0
0.0 1.2600782262151822e-06 1.4470455703626922e-07 -1.0804681790560857e-07 -3.6657739130655404e-08 9.169192715561023e-07 0.0 0.0
0.0 7.33536999617014e-07 1.089551111088278e-06 -9.091770429383895e-07 -1.8037406814988815e-07 3.4936148291605947e-06 0.0 0.0
0.0 1.577069635651246e-06 2.1609495171870815e-06 -1.704390531212495e-06 -4.565589859746222e-07 3.276943352365919e-06 0.0 0.0
0.0 3.4744980877705534e-06 -9.153189131635904e-06 6.839292273525364e-06 2.3138968581105766e-06 -2.764397313828856e-05 0.0 0.0
0.0 0.00035051845724130154 -0.0002205746755547415 0.00016801124124967304 5.25634343050683e-05 -0.0002900796862977392 0.0 0.0
0.0 0.0014453453285261 -0.0011559810150938315 0.0009239776017744037 0.00023200341331942653 -0.00123014941625621 0.0 0.0
0.0 0.00382983250009706 -0.0030625224926554206 0.002611802394063165 0.000450720098592255 -0.0028203756841195444 0.0 0.0
0.0 0.007582066006217681 -0.005897130617028881 0.00529634750117132 0.0006007831158575677 -0.005008495677813541 0.0 0.0
0.0 0.011689765869922958 -0.009444420837795297 0.008752262305905034 0.0006921585318902494 -0.007509136721589607 0.0 0.0
0.0 0.016552300664040353 -0.013493731182475002 0.01273223749418216 0.0007614936882928422 -0.00999388636585583 0.0 0.0
0.0 0.022004890769122095 -0.017994450105581657 0.017167857440717863 0.0008265926648638026 -0.012374748684845817 0.0 0.0
0.0 0.027968650541848272 -0.02298883876586415 0.022103750755847248 0.0008850880100168827 -0.014691125458130484 0.0 0.0
0.0 0.03459607085318297 -0.02847740800654969 0.02754689293595129 0.0009305150705984271 -0.01710467676956797 0.0 0.0
0.0 0.041526984436354955 -0.03429314751578634 0.03333948668705335 0.0009536608287329775 -0.019940631645891126 0.0 0.0
0.0 0.04865555029969053 -0.03997722344390609 0.039027097168768385 0.0009501262751376769 -0.02363731874434778 0.0 0.0
0.0 0.054575434771166845 -0.04465061291948842 0.0437480634218035 0.0009025494976848847 -0.028214542320336447 0.0 0.0
0.0 0.05764312446524967 -0.04671030903964942 0.045911445250171726 0.0007988637894776655 -0.03241895456037997 0.0 0.0
0.0 0.05420638734978707 -0.043188267672471574 0.04264043752829014 0.0005478301441814346 -0.033708526013100745 0.0 0.0
0.0 0.05159182382765502 -0.03630960549770249 0.03252029222026244 0.0037893132774400665 1.9578089149874245e-14 0.0 0.0
0.0 0.05420638734979068 -0.04318826767246661 0.04264043752828536 0.0005478301441812531 0.033708526013142545 0.0 0.0
0.0 0.057643124465239136 -0.04671030903963387 0.045911445250156696 0.0007988637894771325 0.032418954560420925 0.0 0.0
0.0 0.05457543477114144 -0.044650612919464136 0.04374806342178001 0.0009025494976841089 0.028214542320355356 0.0 0.0
0.0 0.0486555502996523 -0.03997722344387378 0.03902709716873603 0.0009501262751377806 0.023637318744343598 0.0 0.0
0.0 0.04152698443631679 -0.03429314751575451 0.03333948668702171 0.0009536608287327676 0.01994063164587686 0.0 0.0
0.0 0.03459607085314465 -0.02847740800651775 0.0275468929359199 0.0009305150705978869 0.01710467676955225 0.0 0.0
0.0 0.02796865054181117 -0.022988838765832752 0.022103750755816106 0.0008850880100166247 0.014691125458115746 0.0 0.0
0.0 0.022004890769084795 -0.01799445010555062 0.017167857440687394 0.0008265926648632184 0.012374748684830638 0.0 0.0
0.0 0.01655230066400367 -0.013493731182445573 0.01273223749415325 0.0007614936882923194 0.009993886365835031 0.0 0.0
0.0 0.011689765869886742 -0.00944442083776665 0.008752262305876404 0.0006921585318902362 0.007509136721566039 0.0 0.0
0.0 0.007582066006193695 -0.005897130617009812 0.005296347501153094 0.0006007831158567174 0.005008495677797953 0.0 0.0
0.0 0.003829832500079536 -0.0030625224926419422 0.0026118023940508283 0.0004507200985911098 0.002820375684108423 0.0 0.0
0.0 0.0014453453285168322 -0.001155981015086658 0.0009239776017685757 0.00023200341331808329 0.0012301494162497196 0.0 0.0
0.0 0.00035051845723717626 -0.00022057467555234526 0.0001680112412478152 5.2563434304530115e-05 0.00029007968629482284 0.0 0.0
0.0 3.4744980870245765e-06 -9.153189131941423e-06 6.83929227376153e-06 2.313896858179893e-06 2.76439731389877e-05 0.0 0.0
0.0 1.5770696351444972e-06 2.160949517038153e-06 -1.70439053108716e-06 -4.5655898595099367e-07 -3.276943351742341e-06 0.0 0.0
0.0 7.335369986567626e-07 1.0895511110262033e-06 -9.091770428902444e-07 -1.8037406813595629e-07 -3.493614828809618e-06 0.0 0.0
0.0 1.2600782256940538e-06 1.4470455703476475e-07 -1.0804681790624939e-07 -3.665773912852116e-08 -9.169192715411368e-07 0.0 0.0
0.0 -4.59728799576089e-07 -6.853202954632321e-09 2.8868354967489913e-09 3.9663674578853385e-09 9.336839222251318e-08 0.0 0.0
0.0 0.0 0.0 0.0 0.0 0.0 0.0 0.0
0.0 0.0 0.0 0.0 0.0 0.0 0.0 0.0
0.0 1.5308091780677812e-08 3.0663233307284843e-10 -2.1432744662428963e-10 -9.23048864485231e-11 3.0115191088803258e-09 0.0 0.0
0.0 -5.386050895731194e-07 3.947344968269909e-08 -3.1814579759363885e-08 -7.65886992333696e-09 1.6283503590074038e-07 0.0 0.0
0.0 -2.1704246590159994e-06 2.722301408699165e-07 -2.1712940077574473e-07 -5.5100740094161603e-08 5.562974816519004e-07 0.0 0.0
0.0 -2.6808599493016186e-06 8.011734850373917e-06 -6.520823076667376e-06 -1.4909117737065346e-06 1.614449754923846e-05 0.0 0.0
0.0 9.957670754367645e-05 -4.895031730059054e-05 3.5808415164228266e-05 1.31419021363622e-05 -4.679304801414977e-05 0.0 0.0
0.0 0.0007521173335245995 -0.0006171090478452719 0.000475231008354072 0.00014187803949120036 -0.0005335229584344369 0.0 0.0
0.0 0.0025997757534418887 -0.002191452061709902 0.001801255209867894 0.0003901968518420071 -0.0016349852120970264 0.0 0.0
0.0 0.006248014772157948 -0.0049700047636032545 0.0043684114628417875 0.0006015933007614675 -0.0034943073085770674 0.0 0.0
0.0 0.010486406212729832 -0.008864987194931102 0.00814062682795378 0.0007243603669773304 -0.005966173971719682 0.0 0.0
0.0 0.01626180437139006 -0.013580164028824407 0.012778859377511484 0.0008013046513129236 -0.008604719274630586 0.0 0.0
0.0 0.02268790474619871 -0.01896718802595814 0.018098158604938734 0.0008690294210194072 -0.011208960737078293 0.0 0.0
0.0 0.02980346573837181 -0.024979034107070818 0.024039814951905217 0.0009392191551656142 -0.013703500691961407 0.0 0.0
0.0 0.03769215156507363 -0.03166249001184249 0.030655071940577525 0.0010074180712649286 -0.01614144270128632 0.0 0.0
0.0 0.04634052254106375 -0.039050326279993615 0.037986009087444324 0.0010643171925492664 -0.01868456095110612 0.0 0.0
0.0 0.05595632661050429 -0.04699182523833564 0.04589629987671422 0.0010955253616214324 -0.021754209563238428 0.0 0.0
0.0 0.06508781303733752 -0.05492029165944369 0.05383582312731679 0.001084468532126826 -0.025891777628624595 0.0 0.0
0.0 0.07348675919146191 -0.06156181662692095 0.06055035283771754 0.0010114637892034313 -0.031095236664261342 0.0 0.0
0.0 0.07791836146571951 -0.06465013615234791 0.06379732179795927 0.0008528143543886162 -0.03609895755379782 0.0 0.0
0.0 0.07359046192176383 -0.060394208298867734 0.059846894623079586 0.0005473136757881748 -0.038108294340941186 0.0 0.0
0.0 0.0675532758156886 -0.05187776110935144 0.047464369627758844 0.004413391481592498 1.9210327772967162e-14 0.0 0.0
0.0 0.07359046192176263 -0.06039420829885944 0.05984689462307134 0.0005473136757881025 0.03810829434098572 0.0 0.0
0.0 0.07791836146570703 -0.0646501361523308 0.06379732179794287 0.0008528143543878735 0.03609895755384505 0.0 0.0
0.0 0.07348675919142954 -0.06156181662689061 0.060550352837687185 0.0010114637892032654 0.031095236664285472 0.0 0.0
0.0 0.06508781303728882 -0.05492029165940177 0.05383582312727471 0.001084468532127062 0.02589177762862249 0.0 0.0
0.0 0.055956326610453064 -0.04699182523829218 0.045896299876670876 0.0010955253616212782 0.021754209563224478 0.0 0.0
0.0 0.046340522541016366 -0.03905032627995305 0.037986009087404356 0.0010643171925486875 0.018684560951090324 0.0 0.0
0.0 0.037692151565025214 -0.03166249001180069 0.030655071940536568 0.0010074180712641078 0.016141442701271522 0.0 0.0
0.0 0.029803465738321128 -0.02497903410702834 0.0240398149518626 0.0009392191551657323 0.01370350069194375 0.0 0.0
0.0 0.022687904746154494 -0.018967188025921157 0.018098158604902256 0.0008690294210188941 0.011208960737057735 0.0 0.0
0.0 0.016261804371346007 -0.013580164028787995 0.012778859377475218 0.0008013046513127967 0.008604719274605517 0.0 0.0
0.0 0.010486406212699303 -0.008864987194905437 0.008140626827928852 0.0007243603669765932 0.005966173971701667 0.0 0.0
0.0 0.006248014772133938 -0.00497000476358438 0.004368411462823972 0.0006015933007604128 0.0034943073085645787 0.0 0.0
0.0 0.002599775753428182 -0.002191452061699119 0.0018012552098583979 0.00039019685184072024 0.0016349852120893455 0.0 0.0
0.0 0.0007521173335183581 -0.0006171090478410481 0.0004752310083507773 0.00014187803949027115 0.0005335229584307955 0.0 0.0
0.0 9.957670754137528e-05 -4.8950317299587365e-05 3.580841516347146e-05 1.314190213611595e-05 4.6793048013224165e-05 0.0 0.0
0.0 -2.680859949277277e-06 8.011734849551484e-06 -6.520823076013317e-06 -1.490911773538147e-06 -1.614449754754963e-05 0.0 0.0
0.0 -2.170424659389211e-06 2.7223014076075833e-07 -2.171294006902034e-07 -5.510074007053843e-08 -5.562974811185342e-07 0.0 0.0
0.0 -5.386050896484976e-07 3.947344971998405e-08 -3.181457978988696e-08 -7.658869930096822e-09 -1.628350360681648e-07 0.0 0.0
0.0 1.5308091766584117e-08 3.0663233278746693e-10 -2.1432744642515877e-10 -9.23048863622756e-11 -3.0115191060776662e-09 0.0 0.0
0.0 0.0 0.0 0.0 0.0 0.0 0.0 0.0
0.0 0.0 0.0 0.0 0.0 0.0 0.0 0.0
0.0 0.0 0.0 0.0 0.0 0.0 0.0 0.0
0.0 -3.008317283811859e-07 -1.6894082401111415e-08 1.3667650964936457e-08 3.226431436173586e-09 -5.3084951058647605e-08 0.0 0.0
0.0 -1.0133038015856803e-06 1.168807110800966e-06 -9.418110931926039e-07 -2.269960176083368e-07 2.6134358531920154e-06 0.0 0.0
0.0 -1.1171041503297081e-05 6.341143499898993e-07 -1.1127145476728998e-06 4.786001976829931e-07 3.414248931520819e-06 0.0 0.0
0.0 0.00026709572110735706 -0.00018052679335742652 0.00013385486411772782 4.667192923969872e-05 -0.00011213029753776599 0.0 0.0
0.0 0.0013666920403125591 -0.0011833673122539044 0.0009290627014405917 0.00025430461081331216 -0.000683601076150188 0.0 0.0
0.0 0.004223991398101366 -0.003427960471918073 0.0029015397347589922 0.0005264207371590818 -0.0018873917643997 0.0 0.0
0.0 0.008118653787873218 -0.00708920567759292 0.006377702648461831 0.0007115030291310886 -0.0038942471280393187 0.0 0.0
0.0 0.013992966250533544 -0.011943397368887648 0.011130905375049599 0.0008124919938380531 -0.006330605521377121 0.0 0.0
0.0 0.020920882740866866 -0.017809368942243626 0.016922953192435423 0.0008864157498081956 -0.0089177427292711 0.0 0.0
0.0 0.02884436403422317 -0.02453423642291637 0.023575549877818652 0.0009586865450977289 -0.011474337528452512 0.0 0.0
0.0 0.03769333520073834 -0.0320623717651878 0.0310268724516342 0.0010354993135535788 -0.013940398636656933 0.0 0.0
0.0 0.0475871343287473 -0.04043539881604995 0.03932324081293967 0.0011121580031102913 -0.016369300986145047 0.0 0.0
0.0 0.05836948910456787 -0.04971353743893123 0.048532146174180966 0.0011813912647502228 -0.01889344543519463 0.0 0.0
0.0 0.06997255805978955 -0.05976211342801452 0.05854068174915467 0.001221431678859887 -0.021855223176417592 0.0 0.0
0.0 0.08218466649961384 -0.06988338598177041 0.06868273781461327 0.0012006481671570678 -0.025852686927021456 0.0 0.0
0.0 0.09238432105692485 -0.07842099076918134 0.07732820114201033 0.0010927896271708724 -0.031166607325286234 0.0 0.0
0.0 0.09742752262255047 -0.08240859642610701 0.08152768380621746 0.0008809126198895553 -0.036832701694609116 0.0 0.0
0.0 0.09260018096261666 -0.07742224087419049 0.07687830378233425 0.000543937091856203 -0.04080758506336614 0.0 0.0
0.0 0.08473052875156148 -0.06748531438306431 0.06251932033110988 0.004965994051954393 1.9751561497471926e-14 0.0 0.0
0.0 0.09260018096261395 -0.07742224087418138 0.0768783037823256 0.0005439370918558103 0.040807585063413074 0.0 0.0
0.0 0.09742752262252687 -0.08240859642608174 0.08152768380619226 0.0008809126198895046 0.03683270169465456 0.0 0.0
0.0 0.09238432105688436 -0.07842099076914433 0.07732820114197347 0.0010927896271708047 0.03116660732531113 0.0 0.0
0.0 0.08218466649955918 -0.06988338598172325 0.06868273781456566 0.0012006481671575028 0.025852686927021862 0.0 0.0
0.0 0.06997255805972885 -0.059762113427962324 0.058540681749102756 0.0012214316788595975 0.0218552231764067 0.0 0.0
0.0 0.05836948910450971 -0.04971353743888128 0.048532146174131485 0.0011813912647498487 0.01889344543518187 0.0 0.0
0.0 0.04758713432868872 -0.04043539881599906 0.03932324081288951 0.001112158003109505 0.016369300986130222 0.0 0.0
0.0 0.037693335200676865 -0.03206237176513541 0.031026872451581297 0.001035499313554108 0.01394039863664016 0.0 0.0
0.0 0.028844364034166195 -0.0245342364228683 0.023575549877770847 0.0009586865450974263 0.011474337528431109 0.0 0.0
0.0 0.020920882740817503 -0.017809368942202267 0.016922953192394154 0.0008864157498081108 0.00891774272924785 0.0 0.0
0.0 0.013992966250492705 -0.011943397368853331 0.011130905375015644 0.0008124919938376858 0.006330605521357736 0.0 0.0
0.0 0.008118653787845067 -0.007089205677568096 0.006377702648437753 0.0007115030291303399 0.0038942471280254067 0.0 0.0
0.0 0.004223991398080742 -0.003427960471901514 0.0029015397347438715 0.0005264207371576444 0.0018873917643902295 0.0 0.0
0.0 0.001366692040302962 -0.0011833673122462576 0.0009290627014343434 0.0002543046108119147 0.0006836010761453659 0.0 0.0
0.0 0.00026709572110380456 -0.00018052679335538928 0.00013385486411621525 4.667192923917369e-05 0.0001121302975367184 0.0 0.0
0.0 -1.1171041503283993e-05 6.341143492730756e-07 -1.1127145471054894e-06 4.786001978323751e-07 -3.414248930361902e-06 0.0 0.0
0.0 -1.0133038024218081e-06 1.168807110860104e-06 -9.418110932390015e-07 -2.2699601762109777e-07 -2.613435853263466e-06 0.0 0.0
0.0 -3.0083172820327663e-07 -1.6894082390560128e-08 1.3667650956397697e-08 3.226431434162971e-09 5.3084951026648725e-08 0.0 0.0
0.0 0.0 0.0 0.0 0.0 0.0 0.0 0.0
0.0 0.0 0.0 0.0 0.0 0.0 0.0 0.0
0.0 0.0 0.0 0.0 0.0 0.0 0.0 0.0
0.0 0.0 0.0 0.0 0.0 0.0 0.0 0.0
0.0 -1.680433764396781e-07 -1.0793184899027673e-08 8.54508648894806e-09 2.2480984100807976e-09 -2.827633481288059e-08 0.0 0.0
0.0 -2.460132926738299e-06 8.750131355782974e-07 -7.025288299024458e-07 -1.7248430567588075e-07 1.6153593948181395e-06 0.0 0.0
0.0 1.845616471576095e-05 -2.824960572972176e-06 2.6768500356488195e-07 2.557275569407359e-06 9.645895189428529e-06 0.0 0.0
0.0 0.0004600422257335995 -0.0004406539996130919 0.0003309895674157105 0.00010966443219738136 -0.00019571957823332872 0.0 0.0
0.0 0.002333162159598996 -0.0018990816345563436 0.001528469127023118 0.0003706125075332257 -0.0007380118116058669 0.0 0.0
0.0 0.005476119703029791 -0.004857462472367525 0.004220239671344113 0.000637222801023411 -0.002000216474782401 0.0 0.0
0.0 0.010639024589744537 -0.009289736651027303 0.00849862373136207 0.0007911129196652326 -0.0038665634032681974 0.0 0.0
0.0 0.017428920939396284 -0.015088767617266427 0.014205230717076805 0.0008835369001896435 -0.006088857852656589 0.0 0.0
0.0 0.025647634550678353 -0.022092002271560336 0.021131632878503358 0.0009603693930569556 -0.00847219512022201 0.0 0.0
0.0 0.035105376965351626 -0.030152337800417598 0.029113517934351827 0.001038819866065761 -0.010826740443806044 0.0 0.0
0.0 0.04577366871753499 -0.03920527590474612 0.03808333031632958 0.0011219455884164888 -0.013114314634153489 0.0 0.0
0.0 0.05728680483400578 -0.04927821506273941 0.04807203933036548 0.0012061757323739587 -0.015404219219585893 0.0 0.0
0.0 0.07032200494143775 -0.060406737799281816 0.05912274811479424 0.0012839896844875952 -0.017761787934328015 0.0 0.0
0.0 0.08441167024865634 -0.07246492900226818 0.0711307476881185 0.0013341813141495762 -0.020325583368095868 0.0 0.0
0.0 0.09851098236699583 -0.08469346791559369 0.08338240880009491 0.0013110591154986782 -0.023611244135452996 0.0 0.0
0.0 0.11079035136240677 -0.09507955842135818 0.0939102748495286 0.0011692835718296816 -0.028415749735945954 0.0 0.0
0.0 0.11709622117607148 -0.10004670193313828 0.09914178460776904 0.0009049173253690844 -0.0348470319306904 0.0 0.0
0.0 0.11173050505339727 -0.09460234796203858 0.09407147521000284 0.0005308727520357892 -0.042204583308440485 0.0 0.0
0.0 0.10233115303262376 -0.08349305004635538 0.07803851962926746 0.005454530417087939 1.971686702795239e-14 0.0 0.0
0.0 0.11173050505338862 -0.09460234796202557 0.09407147520998997 0.000530872752035503 0.04220458330848603 0.0 0.0
0.0 0.11709622117603824 -0.10004670193310597 0.0991417846077365 0.0009049173253693702 0.03484703193073166 0.0 0.0
0.0 0.11079035136235696 -0.09507955842131378 0.09391027484948453 0.0011692835718292033 0.028415749735968644 0.0 0.0
0.0 0.09851098236693043 -0.08469346791553728 0.08338240880003793 0.0013110591154993905 0.023611244135453895 0.0 0.0
0.0 0.08441167024858995 -0.07246492900221044 0.07113074768806125 0.0013341813141491746 0.020325583368089005 0.0 0.0
0.0 0.07032200494136606 -0.060406737799220234 0.059122748114732726 0.001283989684487491 0.0177617879343165 0.0 0.0
0.0 0.05728680483393607 -0.04927821506267922 0.04807203933030586 0.0012061757323733496 0.015404219219571956 0.0 0.0
0.0 0.045773668717466146 -0.039205275904686435 0.03808333031627006 0.0011219455884163897 0.013114314634138587 0.0 0.0
0.0 0.03510537696528666 -0.03015233780036175 0.029113517934296753 0.0010388198660649865 0.010826740443787047 0.0 0.0
0.0 0.025647634550624014 -0.022092002271513773 0.021131632878457263 0.000960369393056522 0.008472195120201365 0.0 0.0
0.0 0.017428920939348707 -0.015088767617225511 0.014205230717036233 0.0008835369001892594 0.006088857852638457 0.0 0.0
0.0 0.010639024589708815 -0.009289736650996113 0.008498623731331674 0.0007911129196644436 0.0038665634032548743 0.0 0.0
0.0 0.005476119703007345 -0.004857462472347997 0.004220239671325865 0.0006372228010221309 0.002000216474773685 0.0 0.0
0.0 0.002333162159584907 -0.0018990816345450905 0.0015284691270135283 0.0003706125075315603 0.0007380118116007236 0.0 0.0
0.0 0.0004600422257284795 -0.00044065399960934847 0.0003309895674128433 0.00010966443219650485 0.00019571957823181384 0.0 0.0
0.0 1.8456164714943874e-05 -2.8249605732109087e-06 2.6768500377276014e-07 2.557275569438269e-06 -9.64589518893374e-06 0.0 0.0
0.0 -2.4601329268833865e-06 8.750131355448431e-07 -7.025288298789887e-07 -1.7248430566585288e-07 -1.6153593947574614e-06 0.0 0.0
0.0 -1.6804337643450485e-07 -1.0793184898566844e-08 8.545086488621468e-09 2.248098409945835e-09 2.8276334812116163e-08 0.0 0.0
0.0 0.0 0.0 0.0 0.0 0.0 0.0 0.0
0.0 0.0 0.0 0.0 0.0 0.0 0.0 0.0
0.0 0.0 0.0 0.0 0.0 0.0 0.0 0.0
0.0 0.0 0.0 0.0 0.0 0.0 0.0 0.0
0.0 0.0 0.0 0.0 0.0 0.0 0.0 0.0
0.0 -3.1587732467407806e-06 1.7984734645931315e-06 -1.45439106499964e-06 -3.4408239959348307e-07 2.4106347994705814e-06 0.0 0.0
0.0 7.507346210076801e-05 -4.7538803040702726e-05 3.216364445819702e-05 1.5375158582505886e-05 -3.2470239941501163e-06 0.0 0.0
0.0 0.0009023491289334729 -0.0007694939531555119 0.0005851160082380786 0.00018437794491743295 -0.0001749394620458117 0.0 0.0
0.0 0.003171923086994947 -0.0027871419228234426 0.0023031977823271734 0.0004839441404962682 -0.000716674918816656 0.0 0.0
0.0 0.007114619630443176 -0.006369380845931744 0.005650762791167113 0.0007186180547646321 -0.0018457342430163212 0.0 0.0
0.0 0.013096825253197681 -0.0115412137126588 0.01068666448287593 0.0008545492297828548 -0.003393477708761612 0.0 0.0
0.0 0.020946591321292785 -0.01826352652992573 0.01731845247617789 0.0009450740537478412 -0.005268644537973134 0.0 0.0
0.0 0.03038565464366312 -0.02639393573345724 0.025366799886773435 0.001027135846683798 -0.007286446194199216 0.0 0.0
0.0 0.041376824052513625 -0.03578995097516374 0.03467734441082394 0.001112606564339808 -0.009284047226422154 0.0 0.0
0.0 0.0535282294328683 -0.04638139133299551 0.0451788109455783 0.001202580387417267 -0.011238586545987785 0.0 0.0
0.0 0.06740557318387719 -0.05815172664941242 0.05686121156209959 0.0012905150873127186 -0.013234820288393553 0.0 0.0
0.0 0.08228595914038667 -0.07108948082180226 0.06971765594683905 0.0013718248749632316 -0.015302364230957188 0.0 0.0
0.0 0.09821084954096898 -0.08501230759979242 0.08358018948190432 0.0014321181178881864 -0.017333108209994653 0.0 0.0
0.0 0.11465918043126869 -0.09915301574319417 0.09773055393388881 0.001422461809305373 -0.019452131984888515 0.0 0.0
0.0 0.12895547163740215 -0.11138727650203145 0.11012466421103934 0.0012626122909920818 -0.022925847578633723 0.0 0.0
0.0 0.1366561154108263 -0.11766001653005939 0.11672122218085867 0.0009387943492006952 -0.030065468417075754 0.0 0.0
0.0 0.13151025774532255 -0.11225617357443254 0.11175795816268552 0.0004982154117472374 -0.042065615872650265 0.0 0.0
0.0 0.12139025031082058 -0.10026910151274976 0.09439716835649971 0.005871933156250029 1.6649875922425394e-14 0.0 0.0
0.0 0.13151025774530542 -0.11225617357441367 0.11175795816266665 0.0004982154117470516 0.0420656158726887 0.0 0.0
0.0 0.1366561154107853 -0.11766001653002156 0.1167212221808209 0.0009387943492006189 0.030065468417113127 0.0 0.0
0.0 0.12895547163734494 -0.1113872765019812 0.11012466421098976 0.0012626122909913141 0.02292584757865354 0.0 0.0
0.0 0.11465918043119422 -0.09915301574312964 0.09773055393382443 0.0014224618093052412 0.019452131984889855 0.0 0.0
0.0 0.09821084954089201 -0.0850123075997255 0.08358018948183796 0.0014321181178875082 0.017333108209990865 0.0 0.0
0.0 0.08228595914030556 -0.07108948082173211 0.06971765594676951 0.0013718248749626293 0.015302364230948589 0.0 0.0
0.0 0.0674055731837999 -0.058151726649345405 0.05686121156203319 0.0012905150873121518 0.013234820288382753 0.0 0.0
0.0 0.05352822943279056 -0.046381391332928366 0.045178810945511565 0.001202580387416835 0.011238586545976337 0.0 0.0
0.0 0.0413768240524401 -0.035789950975099794 0.03467734441076063 0.0011126065643392179 0.009284047226406546 0.0 0.0
0.0 0.030385654643602412 -0.026393935733404674 0.025366799886721535 0.0010271358466831257 0.007286446194181683 0.0 0.0
0.0 0.02094659132123979 -0.01826352652987985 0.017318452476132583 0.0009450740537472625 0.005268644537957546 0.0 0.0
0.0 0.013096825253157729 -0.01154121371262373 0.010686664482841517 0.0008545492297822071 0.003393477708750889 0.0 0.0
0.0 0.007114619630417582 -0.0063693808459087805 0.005650762791145125 0.0007186180547636634 0.0018457342430084058 0.0 0.0
0.0 0.0031719230869779987 -0.0027871419228089455 0.002303197782314248 0.00048394414049469643 0.0007166749188118526 0.0 0.0
0.0 0.0009023491289275162 -0.0007694939531510112 0.0005851160082346442 0.00018437794491636664 0.00017493946204478702 0.0 0.0
0.0 7.50734620988358e-05 -4.753880303972627e-05 3.2163644457485326e-05 1.5375158582240873e-05 3.2470239939860405e-06 0.0 0.0
0.0 -3.158773246540522e-06 1.798473463988704e-06 -1.4543910645460167e-06 -3.4408239944268294e-07 -2.410634798961594e-06 0.0 0.0
0.0 0.0 0.0 0.0 0.0 0.0 0.0 0.0
0.0 0.0 0.0 0.0 0.0 0.0 0.0 0.0
0.0 0.0 0.0 0.0 0.0 0.0 0.0 0.0
0.0 0.0 0.0 0.0 0.0 0.0 0.0 0.0
0.0 0.0 0.0 0.0 0.0 0.0 0.0 0.0
0.0 0.0 0.0 0.0 0.0 0.0 0.0 0.0
0.0 -4.2938138376651305e-06 4.371773425340686e-06 -3.510902210951151e-06 -8.608712143895505e-07 3.6262744064738713e-06 0.0 0.0
0.0 0.00015568091645394518 -0.00015402633119234528 0.00010872590591404442 4.5300425278300724e-05 -2.852002150690212e-08 0.0 0.0
0.0 0.0014740848185965235 -0.001226698745984338 0.0009520788392237134 0.00027461990676062376 -9.722157927578437e-05 0.0 0.0
0.0 0.004059796763594523 -0.0037844948571359722 0.003206196904290337 0.0005782979528456368 -0.000564214540618353 0.0 0.0
0.0 0.008843856649170527 -0.007928186906995678 0.007144489712067604 0.0007836971949280799 -0.0013692943498403857 0.0 0.0
0.0 0.015594520158101295 -0.01381345876124837 0.012905619451021325 0.000907839310227044 -0.0025017794045833343 0.0 0.0
0.0 0.024461351241629455 -0.021437804289821512 0.020437574307700247 0.0010002299821212741 -0.003879754316983524 0.0 0.0
0.0 0.03521090831331408 -0.030683957906909993 0.029595060869711056 0.0010888970371989207 -0.005371066154188091 0.0 0.0
0.0 0.04757025661874575 -0.041416771461258106 0.040235483227775155 0.0011812882334829235 -0.006852024766627782 0.0 0.0
0.0 0.06178747242554567 -0.05354815465288233 0.052271247341485694 0.001276907311396615 -0.008318558364685487 0.0 0.0
0.0 0.0771081991176566 -0.06703231840683663 0.06566288564412133 0.0013694327627152662 -0.00986712441378992 0.0 0.0
0.0 0.09412297118017518 -0.08174049037322154 0.08029088325804004 0.0014496071151815083 -0.011483731488248343 0.0 0.0
0.0 0.11217348318212902 -0.09735397017108219 0.0958476479490755 0.001506322222006707 -0.012927100928952124 0.0 0.0
0.0 0.13038157541144174 -0.11310903197832176 0.1115900742945844 0.0015189576837374634 -0.013913996352551635 0.0 0.0
0.0 0.14658545882689958 -0.12711821346340146 0.12570815254234896 0.001410060921052469 -0.015367865376416087 0.0 0.0
0.0 0.1562636976529183 -0.1352365923578638 0.13421675629747576 0.001019836060387931 -0.021675796884639435 0.0 0.0
0.0 0.1522092913438396 -0.1307468711764121 0.13032752151885055 0.00041934965756129655 -0.03939310820084459 0.0 0.0
0.0 0.14203378102118605 -0.118335431774428 0.11214731959611901 0.0061881121783088945 1.211010458579409e-14 0.0 0.0
0.0 0.15220929134381664 -0.13074687117638945 0.13032752151882865 0.0004193496575607688 0.03939310820087435 0.0 0.0
0.0 0.15626369765286677 -0.1352365923578182 0.13421675629742955 0.0010198360603888273 0.021675796884669498 0.0 0.0
0.0 0.14658545882683174 -0.12711821346334293 0.1257081525422905 0.0014100609210524135 0.015367865376430789 0.0 0.0
0.0 0.130381575411361 -0.11310903197825155 0.11159007429451467 0.0015189576837370518 0.013913996352553332 0.0 0.0
0.0 0.1121734831820376 -0.09735397017100317 0.09584764794899688 0.0015063222220063326 0.012927100928949997 0.0 0.0
0.0 0.09412297118008717 -0.08174049037314483 0.08029088325796471 0.0014496071151801607 0.011483731488244137 0.0 0.0
0.0 0.07710819911756676 -0.06703231840675897 0.06566288564404428 0.0013694327627147627 0.009867124413781507 0.0 0.0
0.0 0.06178747242545807 -0.053548154652806323 0.05227124734141013 0.0012769073113961785 0.008318558364677535 0.0 0.0
0.0 0.047570256618661856 -0.041416771461185706 0.040235483227703185 0.001181288233482454 0.006852024766616432 0.0 0.0
0.0 0.03521090831324179 -0.030683957906846974 0.029595060869648145 0.0010888970371988424 0.005371066154173803 0.0 0.0
0.0 0.024461351241571175 -0.021437804289770254 0.02043757430764965 0.001000229982120602 0.003879754316971571 0.0 0.0
0.0 0.015594520158056865 -0.013813458761208998 0.012905619450982623 0.0009078393102263927 0.0025017794045753025 0.0 0.0
0.0 0.00884385664913932 -0.007928186906967765 0.007144489712040581 0.0007836971949271727 0.0013692943498340728 0.0 0.0
0.0 0.004059796763575709 -0.0037844948571186914 0.0032061969042746254 0.0005782979528440715 0.0005642145406146886 0.0 0.0
0.0 0.0014740848185887168 -0.0012266987459777878 0.000952078839218417 0.0002746199067593696 9.722157927501498e-05 0.0 0.0
0.0 0.00015568091645194398 -0.00015402633119139406 0.00010872590591340301 4.5300425277990974e-05 2.8520021776103166e-08 0.0 0.0
0.0 -4.293813837821865e-06 4.371773425143634e-06 -3.5109022108046854e-06 -8.608712143389688e-07 -3.626274406449001e-06 0.0 0.0
0.0 0.0 0.0 0.0 0.0 0.0 0.0 0.0
0.0 0.0 0.0 0.0 0.0 0.0 0.0 0.0
0.0 0.0 0.0 0.0 0.0 0.0 0.0 0.0
0.0 0.0 0.0 0.0 0.0 0.0 0.0 0.0
0.0 0.0 0.0 0.0 0.0 0.0 0.0 0.0
0.0 0.0 0.0 0.0 0.0 0.0 0.0 0.0
0.0 -5.064894643419054e-06 3.624130939838891e-06 -3.4048139091610035e-06 -2.1931703067788164e-07 4.213096919032338e-06 0.0 0.0
0.0 0.0003871383400416513 -0.00030914008877453553 0.00022173696165312372 8.7403127121412e-05 5.2833241488670695e-05 0.0 0.0
0.0 0.0020334399939493323 -0.0018068013650081372 0.001436835331750946 0.0003699660332571906 5.057354108316503e-05 0.0 0.0
0.0 0.0052581437343293454 -0.0048243067637961864 0.004173799538644126 0.0006505072251520633 -0.0001931032859571337 0.0 0.0
0.0 0.010593691857528278 -0.009509053995095992 0.008673090615297445 0.0008359633797985366 -0.0006099585804137262 0.0 0.0
0.0 0.01817189222415046 -0.01607680815166986 0.01512295137232958 0.0009538567793402827 -0.0011980019820723809 0.0 0.0
0.0 0.027972962861130976 -0.02458165815056463 0.02353043239999899 0.0010512257505656299 -0.0019288574339223214 0.0 0.0
0.0 0.039950529315705315 -0.034933761180199266 0.0337872642466889 0.0011464969335103587 -0.002724868256469307 0.0 0.0
0.0 0.054047509122171176 -0.047002033863916055 0.045757006018101495 0.0012450278458145938 -0.003529957031484542 0.0 0.0
0.0 0.06955748939341604 -0.06068624092323067 0.05933952304577917 0.0013467178774514352 -0.004374588914077085 0.0 0.0
0.0 0.08708790920828634 -0.07586766034093428 0.0744245734852842 0.0014430868556500644 -0.005286263564398122 0.0 0.0
0.0 0.10607779949641474 -0.09231768307456165 0.09079732748179488 0.0015203555927668145 -0.006234107676987283 0.0 0.0
0.0 0.1259740856804895 -0.10953212064312556 0.10796622752797831 0.0015658931151471688 -0.0070524771383472466 0.0 0.0
0.0 0.1457120170393475 -0.12658593936307966 0.12501135870237004 0.0015745806607096319 -0.007377781869105414 0.0 0.0
0.0 0.16344207807270267 -0.14191293750804182 0.14036506430472612 0.0015478732033158363 -0.007266401568332522 0.0 0.0
0.0 0.17548611051563281 -0.1523083018024785 0.15097904408304952 0.0013292577194287014 -0.01019090628860203 0.0 0.0
0.0 0.17423618756649933 -0.1505063369414404 0.15015355630093202 0.0003527806405084126 -0.028977505043868777 0.0 0.0
0.0 0.16548667759400948 -0.13881699369778716 0.1327217670315999 0.006095226666187218 6.663072871226916e-15 0.0 0.0
0.0 0.17423618756646897 -0.15050633694141277 0.15015355630090432 0.0003527806405084393 0.028977505043886354 0.0 0.0
0.0 0.17548611051557508 -0.15230830180242821 0.15097904408299911 0.0013292577194289946 0.010190906288619265 0.0 0.0
0.0 0.16344207807262207 -0.14191293750797274 0.14036506430465615 0.0015478732033164808 0.007266401568339251 0.0 0.0
0.0 0.1457120170392546 -0.12658593936299944 0.12501135870228977 0.0015745806607096358 0.007377781869105118 0.0 0.0
0.0 0.12597408568038773 -0.10953212064303733 0.10796622752789031 0.001565893115146962 0.00705247713834639 0.0 0.0
0.0 0.10607779949631523 -0.09231768307447531 0.09079732748170939 0.001520355592765954 0.006234107676984906 0.0 0.0
0.0 0.0870879092081867 -0.0758676603408475 0.07442457348519872 0.0014430868556487176 0.0052862635643936475 0.0 0.0
0.0 0.06955748939331918 -0.06068624092314645 0.05933952304569596 0.0013467178774504392 0.004374588914073784 0.0 0.0
0.0 0.05404750912207981 -0.04700203386383678 0.04575700601802267 0.0012450278458140964 0.0035299570314779563 0.0 0.0
0.0 0.039950529315624636 -0.03493376118012947 0.03378726424661946 0.001146496933510028 0.002724868256460821 0.0 0.0
0.0 0.027972962861067173 -0.02458165815050848 0.02353043239994368 0.001051225750564794 0.0019288574339160357 0.0 0.0
0.0 0.018171892224100906 -0.01607680815162584 0.01512295137228624 0.0009538567793395822 0.0011980019820682897 0.0 0.0
0.0 0.010593691857493216 -0.009509053995064506 0.008673090615266834 0.0008359633797976649 0.0006099585804105899 0.0 0.0
0.0 0.0052581437343087525 -0.004824306763777206 0.004173799538626383 0.0006505072251508223 0.00019310328595527034 0.0 0.0
0.0 0.0020334399939369416 -0.0018068013649972488 0.0014368353317416203 0.0003699660332556275 -5.0573541083756514e-05 0.0 0.0
0.0 0.0003871383400388979 -0.00030914008877285404 0.00022173696165198468 8.740312712086928e-05 -5.283324148804831e-05 0.0 0.0
0.0 -5.064894643539291e-06 3.624130939470881e-06 -3.4048139088854764e-06 -2.1931703058533006e-07 -4.213096918956741e-06 0.0 0.0
0.0 0.0 0.0 0.0 0.0 0.0 0.0 0.0
0.0 0.0 0.0 0.0 0.0 0.0 0.0 0.0
0.0 0.0 0.0 0.0 0.0 0.0 0.0 0.0
0.0 0.0 0.0 0.0 0.0 0.0 0.0 0.0
0.0 0.0 0.0 0.0 0.0 0.0 0.0 0.0
0.0 0.0 0.0 0.0 0.0 0.0 0.0 0.0
0.0 1.584445186237093e-05 -1.4541969070292702e-05 9.124834354893196e-06 5.417134715399611e-06 7.756584329851854e-06 0.0 0.0
0.0 0.0006798777089006242 -0.0005130859334608509 0.0003662702884402123 0.00014681564502063836 0.00013047400851407573 0.0 0.0
0.0 0.0026206865545890913 -0.0023328415126315496 0.0018367794979110676 0.0004960620147204802 0.0003030028143613252 0.0 0.0
0.0 0.006199653735389712 -0.005707821038033919 0.004879509418906922 0.0008283116191270003 0.0003960111109486401 0.0 0.0
0.0 0.011976102607029035 -0.010816431519495497 0.00972853134022709 0.0010879001792684006 0.0004450740067564651 0.0 0.0
0.0 0.02007162166689736 -0.01793252555308055 0.016619840175829865 0.0013126853772506765 0.000441630386106675 0.0 0.0
0.0 0.030660395719963394 -0.027153189530706424 0.02559888185242101 0.0015543076782853842 0.0003520361330548458 0.0 0.0
0.0 0.04366124672879422 -0.03842093520608683 0.036585438708690944 0.0018354964973959084 0.0002161932121507006 0.0 0.0
0.0 0.0585991181695688 -0.05161248956346942 0.049451539371115794 0.002160950192353604 3.393581856866654e-05 0.0 0.0
0.0 0.07566501693836042 -0.0665813105022119 0.0640612727663611 0.0025200377358508136 -0.00023925820837844298 0.0 0.0
0.0 0.09461044802729866 -0.0831615719751452 0.08026663813588308 0.0028949338392621517 -0.0005716476165844716 0.0 0.0
0.0 0.11509172547445888 -0.10104654690995071 0.09779164336939987 0.00325490354055069 -0.0010022395626972658 0.0 0.0
0.0 0.13640538573692634 -0.1195796262672317 0.1160220743375553 0.0035575519296764378 -0.001468255215979734 0.0 0.0
0.0 0.15719957876867538 -0.13761006070240786 0.1338589299956216 0.0037511307067861176 -0.0017558652760967536 0.0 0.0
0.0 0.17556285071564015 -0.15350394570387937 0.14970390883950585 0.003800036864373506 -0.0015914005965658746 0.0 0.0
0.0 0.18889170326536314 -0.16521525830757844 0.16137471534643555 0.00384054296114307 -0.0028589597673166593 0.0 0.0
0.0 0.19149708972408672 -0.16798994124161612 0.16408091350578516 0.003909027735830899 -0.021549636579174185 0.0 0.0
0.0 0.18731458571705478 -0.15953375791426372 0.14886880725359108 0.010664950660672336 1.4988010832439613e-15 0.0 0.0
0.0 0.19149708972405102 -0.16798994124158514 0.16408091350575382 0.003909027735831143 0.021549636579180582 0.0 0.0
0.0 0.18889170326530288 -0.16521525830752537 0.16137471534638467 0.0038405429611407874 0.002858959767323428 0.0 0.0
0.0 0.1755628507155514 -0.1535039457038021 0.1497039088394303 0.0038000368643720077 0.0015914005965663343 0.0 0.0
0.0 0.15719957876857107 -0.13761006070231693 0.13385892999553198 0.0037511307067847662 0.0017558652760951195 0.0 0.0
0.0 0.13640538573681713 -0.11957962626713638 0.11602207433746173 0.0035575519296744827 0.0014682552159796837 0.0 0.0
0.0 0.1150917254743487 -0.10104654690985451 0.09779164336930515 0.003254903540549214 0.0010022395626954148 0.0 0.0
0.0 0.0946104480271951 -0.08316157197505392 0.08026663813579533 0.0028949338392584827 0.0005716476165825209 0.0 0.0
0.0 0.07566501693825903 -0.0665813105021229 0.06406127276627484 0.0025200377358481673 0.00023925820837744118 0.0 0.0
0.0 0.05859911816946897 -0.05161248956338231 0.04945153937103046 0.0021609501923517825 -3.393581857193996e-05 0.0 0.0
0.0 0.043661246728709996 -0.03842093520601296 0.03658543870861906 0.0018354964973938935 -0.00021619321215360105 0.0 0.0
0.0 0.03066039571989457 -0.027153189530646243 0.025598881852362542 0.0015543076782837185 -0.0003520361330571174 0.0 0.0
0.0 0.020071621666843755 -0.017932525553033277 0.01661984017578395 0.0013126853772493425 -0.0004416303861074413 0.0 0.0
0.0 0.011976102606991595 -0.010816431519461753 0.009728531340194699 0.001087900179267048 -0.00044507400675600694 0.0 0.0
0.0 0.006199653735367263 -0.005707821038013164 0.004879509418887559 0.0008283116191255978 -0.0003960111109483199 0.0 0.0
0.0 0.0026206865545744078 -0.0023328415126177213 0.001836779497899285 0.0004960620147184383 -0.0003030028143603388 0.0 0.0
0.0 0.0006798777088966456 -0.0005130859334579293 0.00036627028843821377 0.0001468156450197163 -0.00013047400851300096 0.0 0.0
0.0 1.5844451861951427e-05 -1.4541969070094429e-05 9.124834354756932e-06 5.41713471533746e-06 -7.756584329784535e-06 0.0 0.0
0.0 0.0 0.0 0.0 0.0 0.0 0.0 0.0
0.0 0.0 0.0 0.0 0.0 0.0 0.0 0.0
0.0 0.0 0.0 0.0 0.0 0.0 0.0 0.0
SCALARS Wm float 4
LOOKUP_TABLE default
12.651226918331599 2.0141950232151165 5.2857669537248295 5.351264941391649
6.311051063416393 3.032626701383713 1.4690901802763499 1.809334181756334
0.7079189137227632 0.659588026151948 0.006712752772543558 0.04161813479827149
0.5333753854171301 0.5048065578787616 0.007812116574294534 0.02075671096407414
1.0774463903650475 0.7731594232766497 0.10875377384744017 0.1955331932409578
2.334936786668074 1.1152426072160688 0.4499490885375024 0.7697450909145014
4.845017972160047 1.5961830051769113 1.3954974256794714 1.853337541303667
8.938834995911535 2.19544269059315 3.1630308721214195 3.580361433196958
15.010654322721642 2.956803181679775 6.040940185613344 6.012910955428522
23.350511178624693 3.913673770792304 10.26181962571293 9.175017782119475
34.09758147089612 5.08972914416913 15.96312221149801 13.044730115228981
47.16797883470245 6.490864549142846 23.096113184178567 17.58100110138106
62.663772418848666 8.098801245787644 31.82690117782075 22.738069995240263
80.499916181971 9.894153860384764 42.135026615952334 28.470735705633928
100.40124957288833 11.743150694624209 53.96230179059121 34.69579708767286
121.74301822696097 13.414006410088493 67.0744436523404 41.25456816453203
143.39303489049144 14.62906713156697 80.8645121976583 47.89945556126612
163.82871619621795 15.178061451646695 94.43147884906313 54.219175895508045
181.40545286062473 15.10934091522231 106.57226076409343 59.723851181309136
193.7528450092859 14.244362657183542 115.66618256061852 63.84229979148362
197.76203126368176 12.637301877718011 119.51419671943026 65.61053266653362
193.75284500926844 14.244362657194989 115.66618256059823 63.84229979147513
181.4054528605716 15.109340915227188 106.57226076405368 59.72385118129064
163.82871619612095 15.178061451628547 94.4314788490092 54.219175895483204
143.39303489039088 14.629067131563385 80.86451219759256 47.89945556123486
121.74301822686358 13.414006410084474 67.07444365227794 41.254568164501165
100.40124957278822 11.74315069461329 53.96230179053251 34.695797087642426
80.4999161818716 9.894153860375527 42.13502661589389 28.470735705602177
62.66377241875678 8.098801245780406 31.826901177766985 22.738069995209433
47.167978834623845 6.490864549143413 23.09611318412939 17.581001101351074
34.09758147083307 5.089729144170648 15.963122211458998 13.044730115203384
23.350511178572063 3.913673770784031 10.261819625687062 9.175017782100985
15.010654322684873 2.956803181676087 6.040940185595 6.012910955413797
8.938834995886406 2.1954426905906526 3.1630308721096565 3.580361433186099
4.845017972144618 1.5961830051731056 1.3954974256739547 1.8533375412975577
2.3349367866608133 1.115242607215637 0.4499490885348952 0.7697450909102808
1.0774463903624387 0.7731594232752315 0.10875377384696029 0.1955331932402468
0.5333753854165375 0.5048065578782976 0.007812116574242694 0.020756710963997164
0.7079189137216283 0.6595880261511584 0.006712752772445276 0.04161813479802404
6.311051063410108 3.0326267013837267 1.4690901802732572 1.809334181753123
12.65122691830465 2.0141950232023165 5.285766953717047 5.351264941385297
15.084876025862055 6.5886527030856294 4.100072877183286 4.396150445593137
2.5249313051574505 0.5536001742688373 0.8282440865750645 1.1430870443135488
0.26824001380021767 0.3099114833861304 -0.013461472590520034 -0.028209996995392693
0.41576016860708226 0.40716833320165446 0.001552133723287125 0.007039701682140621
0.8139026681002014 0.6333772278344908 0.055387795200117135 0.12513764506559358
1.866005937906896 0.9281620687147575 0.3492536732518492 0.5885901959402893
3.9751988736790027 1.2652690618212168 1.1338457052837416 1.5760841065740439
7.563866232752908 1.6776877908987926 2.716212919060072 3.1699655227940444
12.918219703111774 2.1555983427914565 5.3293837131651935 5.433237647155128
20.22050565743128 2.6999268349287098 9.146601951283621 8.37397687121894
29.55660322422545 3.3051421932724145 14.28987318542944 11.961587845523601
40.99036877019585 3.9834693438401594 20.856438950061676 16.150460476294015
54.30837055392321 4.745120325080954 28.652621671787852 20.910628557054423
69.76003028106707 5.561777557414132 37.993837860015994 26.204414863636977
87.05119637887641 6.376446280237362 48.70249399754307 31.972256101096015
105.70927068330049 7.065217674640365 60.574291183469086 38.06976182519096
124.8583776552507 7.4778973648512626 73.14485156891482 44.23562872148459
143.2187366203318 7.508352972989674 85.58265905429101 50.12772459305111
159.07491371044318 7.076780735846382 96.72413689427002 55.27399608032667
170.28212726186018 6.236415103098157 105.02454238014022 59.02116977862173
174.50824517544933 5.284076297266381 108.60879786056171 60.615371017621335
170.28212726183617 6.236415103100618 105.02454238012191 59.02116977861359
159.0749137103956 7.076780735851343 96.72413689423401 55.273996080310354
143.21873662026172 7.5083529729909655 85.58265905424241 50.12772459302837
124.85837765516149 7.477897364848323 73.14485156885668 44.23562872145646
105.70927068321473 7.06521767463991 60.57429118341232 38.0697618251625
87.051196378795 6.376446280238937 48.70249399748868 31.97225610106739
69.76003028098725 5.56177755741845 37.9938378599617 26.204414863607095
54.308370553840724 4.745120325074044 28.652621671740146 20.910628557026513
40.990368770121414 3.9834693438354987 20.8564389500187 16.15046047626721
29.556603224163688 3.305142193268441 14.289873185394875 11.96158784550038
20.220505657388912 2.6999268349289287 9.14660195125914 8.37397687120083
12.9182197030782 2.1555983427869183 5.329383713149349 5.433237647141929
7.563866232730065 1.6776877908959589 2.7162129190498363 3.169965522784274
3.9751988736666215 1.2652690618197178 1.1338457052786943 1.5760841065682074
1.8660059379008098 0.9281620687140473 0.3492536732495563 0.5885901959372069
0.8139026680982769 0.6333772278336433 0.05538779519971524 0.12513764506491895
0.41576016860664683 0.4071683332012243 0.0015521337232678204 0.00703970168215464
0.26824001380001566 0.3099114833858047 -0.013461472590462823 -0.028209996995326107
2.524931305150716 0.5536001742678309 0.8282440865722778 1.1430870443106085
15.084876025834944 6.588652703073201 4.100072877175414 4.396150445586309
11.370783903241687 5.231563796673925 2.842221633813242 3.2969984727545194
1.5662568212694903 0.221193726965906 0.5517630810463505 0.7933000132572343
0.16825690537186092 0.16811443470278897 1.7227762371836162e-05 0.00012524290670013123
0.3092057632869757 0.31127134761471825 -0.0005366329132996833 -0.0015289514144429792
0.6171242613310314 0.5420019123347705 0.01912222536253492 0.056000123633726265
1.4510429104630571 0.8318147703943669 0.22219068987536245 0.3970374501933281
3.2156606288144065 1.1558066957753126 0.8263338871936592 1.233520045845434
6.344971357612253 1.5410141500724062 2.1610285252424046 2.6429286822974416
11.050461429730687 1.9711840105878704 4.40364603137182 4.675631387770996
17.49590596731091 2.445189684939124 7.730425285792565 7.320290996579221
25.693540394010093 2.96659496591585 12.194425171259923 10.532520256834324
35.60683428140246 3.5481689552481845 17.790190165236478 14.268475160917797
47.39552441570564 4.211786005037092 24.687455861346013 18.49628254932253
60.79078876253807 4.944574552220686 32.63698739344029 23.20922681687707
75.95378951208602 5.685290557753447 41.91753194735219 28.35096700698038
92.39531173090654 6.3496577778249605 52.233270390057776 33.81238356302381
109.3917805168191 6.81241877301398 63.18853324990107 39.39082849390403
125.77881201310271 6.927128142329753 74.11540174008785 44.73628213068509
139.93274817140792 6.575940159973212 83.95761479257527 49.399193218859494
149.97011621493454 5.9361109168232895 91.26317274242453 52.77083255568671
153.6044877889759 4.769995054841327 94.54832858844587 54.28616414568878
149.97011621491066 5.936110916822061 91.26317274240908 52.77083255567943
139.93274817137026 6.575940159983352 83.95761479254287 49.39919321884406
125.77881201304143 6.9271281423308695 74.11540174004584 44.736282130664655
109.39178051674344 6.812418773011332 63.1885332498524 39.390828493879695
92.39531173083788 6.349657777833341 52.23327039000696 33.81238356299762
75.9537895120092 5.685290557750795 41.91753194730398 28.350967006954406
60.79078876246108 4.944574552216541 32.63698739339388 23.209226816850624
47.39552441564052 4.211786005038118 24.687455861304752 18.49628254929765
35.606834281338266 3.548168955241038 17.790190165201746 14.2684751608955
25.693540393953164 2.9665949659069404 12.194425171231675 10.53252025681455
17.495905967272208 2.445189684939862 7.73042528577026 7.32029099656209
11.050461429702645 1.9711840105861897 4.403646031357683 4.675631387758772
6.344971357593109 1.541014150069864 2.1610285252340686 2.6429286822891793
3.2156606288036733 1.155806695773608 0.8263338871896948 1.2335200458403703
1.4510429104579787 0.8318147703925935 0.22219068987401996 0.3970374501913656
0.6171242613296296 0.5420019123339403 0.019122225362335654 0.05600012363335376
0.3092057632867196 0.3112713476143814 -0.000536632913286307 -0.0015289514143754786
0.16825690537178292 0.16811443470270654 1.722776237185918e-05 0.00012524290670454968
1.5662568212641703 0.22119372696530326 0.5517630810441785 0.7933000132546879
11.37078390321602 5.231563796663115 2.8422216338055795 3.296998472747327
8.5815986686977 4.072236937875364 2.007419552121804 2.501942178700533
1.0493762801416515 0.1052787793245926 0.3660916264181633 0.5780058743988946
0.11806111316577653 0.11806111316577653 0.0 0.0
0.2319242546141933 0.23249212990669982 -6.73713735802035e-05 -0.0005005039189263194
0.4671136436570985 0.4512740338041574 0.002811015614751251 0.01302859423818989
1.0803781457957262 0.7192969649833492 0.11631078299022664 0.244770397822151
2.5406977543658247 1.0487270842041876 0.582571117709632 0.9093995524520045
5.175935630178864 1.399744755858808 1.646717390388328 2.129473483931728
9.247214599744199 1.7858129051678362 3.536558734211764 3.9248429603645936
14.829859380086736 2.1973191881304754 6.363744657978453 6.26879553397781
21.887773514178793 2.640836037660522 10.140497878987173 9.106439597531104
30.458605375776205 3.1407703188970473 14.929145733981864 12.388689322897296
40.45591214637118 3.7121804809762087 20.648930470742002 16.094801194652984
52.13570191220316 4.352684117818508 27.56837460850351 20.21464318588114
65.1616902524522 5.032226036623334 35.39748610066349 24.73197811516539
79.35255451690372 5.6755391804333755 44.11957235417507 29.557442982295264
94.27615697412617 6.176998341242913 53.58702639352288 34.51213223936038
108.78195484970063 6.384929199709617 63.07438890894405 39.32263674104696
121.42275159207672 6.18022743425428 71.67401846066022 43.56850569716223
130.53453675119536 5.6698841113080425 78.16084694459887 46.70380569528848
133.84152087647018 4.274843428743586 81.36290733783295 48.20377010989361
130.5345367511734 5.669884111304018 78.16084694458652 46.70380569528278
121.42275159203784 6.180227434257957 71.67401846063163 43.5685056971483
108.78195484964898 6.384929199710699 63.07438890890876 39.32263674102953
94.27615697406164 6.1769983412387885 53.587026393483136 34.51213223933969
79.35255451683251 5.675539180428174 44.119572354132096 29.557442982272285
65.16169025238476 5.032226036617655 35.397486100623986 24.73197811514309
52.135701912140334 4.352684117815578 27.56837460846585 20.214643185858918
40.45591214631216 3.7121804809761656 20.648930470705633 16.094801194630342
30.45860537572536 3.1407703188951595 14.929145733952618 12.388689322877593
21.887773514132878 2.6408360376558235 10.140497878963325 9.106439597513742
14.829859380051715 2.1973191881281706 6.363744657960224 6.268795533963316
9.247214599718555 1.7858129051659577 3.5365587341992413 3.924842960353358
5.175935630162674 1.399744755856698 1.6467173903816272 2.129473483924347
2.5406977543568305 1.0487270842023368 0.5825711177064108 0.9093995524480829
1.0803781457920312 0.7192969649820244 0.11631078298931322 0.24477039782069396
0.46711364365625097 0.4512740338031891 0.0028110156147587483 0.013028594238302896
0.23192425461405947 0.23249212990660628 -6.737137358504268e-05 -0.0005005039189617438
0.11806111316560662 0.11806111316560662 0.0 0.0
1.0493762801372806 0.10527877932428588 0.3660916264163112 0.578005874396684
8.581598668676941 4.072236937866976 2.0074195521157785 2.5019421786941876
6.383142604706659 3.1471819697401227 1.3702856346363754 1.8656750003301623
0.7680877698827547 0.11063477801936468 0.25959124823281743 0.39786174363057275
0.10750164244236574 0.10750164244236574 0.0 0.0
0.1857134238672338 0.18568860668508508 3.486642219317645e-06 2.1330539929446815e-05
0.35584561355052563 0.36122033559026595 -0.002383353162531246 -0.0029913688772089885
0.7909183378551328 0.6186892443629833 0.049240195052216405 0.12298889843993258
1.9254569599695746 0.9212372567780035 0.3823968324238585 0.6218228707677136
4.074742624022393 1.255558472253814 1.1835008610790307 1.635683290689549
7.506917356739786 1.599008712056294 2.7228727188015376 3.185035925881956
12.232784869555312 1.954505518719383 5.0543603525868654 5.223918998249064
18.214710276901705 2.3320969563875154 8.19766190788655 7.684951412627633
25.417612609074837 2.7537070679779467 12.14883133248107 10.515074208615818
33.8929789985043 3.245011148600527 16.951555770813627 13.696412079090141
43.54194507613559 3.8055470979311807 22.499884932739604 17.236513045464786
54.592553942027045 4.4085615611688835 29.06398042135188 21.120011959506293
66.7580940179357 5.024830071838852 36.43993506039512 25.293328885701737
79.50633290497254 5.566964121413409 44.30643412567933 29.63293465787978
92.17594473501364 5.887570301104406 52.39448758901826 33.893886844890986
103.4618375928985 5.84013187727966 59.89646777316161 37.725237942457255
111.88456447835614 5.44048787471756 65.78099319630104 40.6630834073375
115.00240316722181 3.797062666620198 68.97112072256859 42.23421977803311
111.88456447833808 5.440487874714797 65.78099319629092 40.66308340733235
103.4618375928619 5.840131877277252 59.896467773138866 37.725237942445766
92.17594473496753 5.8875703011006415 52.394487588990444 33.893886844876434
79.50633290492276 5.566964121414469 44.30643412564611 29.63293465786217
66.75809401788524 5.024830071843392 36.43993506035978 25.29332888568205
54.59255394197392 4.4085615611665965 29.063980421319734 21.120011959487595
43.54194507608364 3.8055470979305372 22.499884932707797 17.236513045445317
33.89297899845401 3.245011148598772 16.95155577078426 13.696412079070964
25.417612609030243 2.753707067975373 12.14883133245636 10.515074208598513
18.21471027686616 2.332096956388921 8.197661907865548 7.6849514126116905
12.232784869525918 1.9545055187163058 5.054360352572518 5.223918998237097
7.506917356718 1.5990087120535255 2.722872718791855 3.1850359258726186
4.074742624008378 1.2555584722513833 1.1835008610735789 1.635683290683415
1.9254569599620186 0.9212372567755882 0.38239683242161615 0.6218228707648145
0.7909183378526237 0.618689244362133 0.049240195051626995 0.12298889843886335
0.35584561354981553 0.36122033558939115 -0.0023833531625011175 -0.0029913688770744585
0.18571342386714268 0.18568860668502152 3.4866422176453437e-06 2.133053990352343e-05
0.10750164244213734 0.10750164244213734 0.0 0.0
0.7680877698792019 0.1106347780191473 0.2595912482312803 0.3978617436287755
6.3831426046903434 3.1471819697334698 1.3702856346318484 1.8656750003250233
4.659526566877659 2.4121667168677776 0.9101523471553223 1.3372075028545598
0.544108103597619 0.14291851795101326 0.14079417272204164 0.26039541292456403
0.12115938863579012 0.12115938863579012 0.0 0.0
0.1639899421611659 0.16396938121197296 1.4439790825162926e-06 1.9116970110450618e-05
0.2842080426157204 0.29089086637985784 -0.0014539225890453705 -0.005228901175092063
0.5680834064038407 0.5099770972461427 0.010897368046396308 0.047208941111301826
1.3631588825269416 0.777323646898417 0.19531698242720183 0.3905182532013229
3.099173090754432 1.1017746445752814 0.8268249862936595 1.1705734598854907
5.823062490223337 1.4088321993538044 1.953340596915115 2.4608896939544205
9.740494869029344 1.717207913390059 3.833573263628655 4.189713692010626
14.655490535484665 2.035456840645891 6.34889633227516 6.271137362563605
20.537593626789914 2.3900415097632486 9.497291203532749 8.650260913493918
27.40687011580529 2.80580729063786 13.29168598646126 11.309376838706166
35.367897221877676 3.2890088370568225 17.813905950194915 14.26498243462595
44.36006200291952 3.833473548911866 23.005018568426724 17.52156988558092
54.31065490225403 4.400142838474212 28.86855037100608 21.04196169277374
65.15358014596062 4.959032087630298 35.46438040042997 24.73016765790036
75.9981875418767 5.4090902811755655 42.14667698001312 28.442420280688015
85.94682594583703 5.538159917829223 48.51536334293131 31.89330268507647
93.8432092408295 5.249563165596126 53.915928603962804 34.67771747127057
96.89273956857055 3.3450247475310877 57.19457227604713 36.353142544992345
93.84320924082337 5.249563165604272 53.91592860395348 34.67771747126559
85.94682594581411 5.538159917833813 48.515363342913346 31.893302685067
75.99818754185041 5.409090281183965 42.146676979990445 28.44242028067598
65.15358014591531 4.9590320876275324 35.46438040040261 24.73016765788516
54.31065490220632 4.4001428384729655 28.868550370976777 21.04196169275661
44.360062002876276 3.8334735489107468 23.00501856840053 17.521569885564983
35.36789722183194 3.289008837051635 17.813905950170284 14.264982434610006
27.406870115763518 2.8058072906346845 13.291685986438337 11.309376838690495
20.53759362675605 2.390041509764564 9.497291203512482 8.650260913479011
14.655490535449859 2.03545684064104 6.348896332258486 6.271137362550336
9.740494869006122 1.7172079133889877 3.8335732636169557 4.189713692000175
5.82306249020605 1.4088321993518247 1.9533405969075788 2.4608896939466485
3.099173090743579 1.1017746445732097 0.826824986289554 1.1705734598808157
1.3631588825221979 0.7773236468970265 0.19531698242585468 0.39051825319931643
0.5680834064019225 0.5099770972450091 0.010897368046152336 0.047208941110760835
0.28420804261522875 0.2908908663791197 -0.0014539225890034136 -0.005228901174887548
0.1639899421609068 0.16396938121171287 1.4439790825071821e-06 1.9116970111371685e-05
0.1211593886354974 0.1211593886354974 0.0 0.0
0.5441081035952623 0.14291851795094607 0.14079417272103295 0.2603954129232834
4.659526566864769 2.4121667168623895 0.9101523471519782 1.3372075028504016
3.280686960310218 1.820926797286149 0.550886793421468 0.9088733696026015
0.4074514536274482 0.1868844710846127 0.07138914040156674 0.14917784214126886
0.14538368152544584 0.1453961099539488 -6.591917487488861e-07 -1.1769236754219564e-05
0.1597456424199038 0.15973135640378677 9.176681420014073e-07 1.3368347975063384e-05
0.2407919044326764 0.24347603207003576 -0.0005179367016909216 -0.002166190935668437
0.41655803417542464 0.41705928785139074 -0.0034121706069684347 0.002910916931002159
0.9360361932347755 0.6455600992584696 0.08571321714178531 0.20476287683452057
2.1450585071867403 0.9193289597578016 0.4560721456375292 0.7696574017914098
4.345312748494578 1.2186733171428596 1.3612896346759713 1.7653497966757477
7.329866379225626 1.479919847572071 2.680904934430779 3.169041597222775
11.242883996154198 1.7496331931634135 4.62383618989413 4.869414613096656
15.865979020988497 2.045612049991957 7.02359275674606 6.79677421425048
21.223235099807685 2.394009331897666 9.892234687106797 8.936991080803223
27.40827472682218 2.8070853321866456 13.290803716853985 11.310385677781552
34.467718431921604 3.28346339151981 17.246171446371587 13.938083594030214
42.49415277108728 3.810042744130818 21.88360572611549 16.800504300840952
50.988102966936 4.361067193196336 26.780893697641233 19.846142076098445
60.110155691902904 4.908804357838559 32.244521868334814 22.956829465729534
68.98673289725146 5.245821811535017 37.733278021190856 26.007633064525603
76.38963561805087 5.1046455472405 42.60018606647698 28.684804004333383
79.50823852526989 2.9322874442445213 46.05021231760428 30.525738763421067
76.38963561803581 5.104645547236199 42.60018606647001 28.68480400432957
68.98673289721671 5.245821811518641 37.73327802117894 26.007633064519137
60.11015569187105 4.908804357834836 32.244521868316866 22.956829465719327
50.98810296689955 4.361067193192441 26.78089369762076 19.846142076086355
42.494152771053486 3.8100427441338325 21.883605726092654 16.80050430082699
34.467718431892926 3.2834633915264044 17.24617144635024 13.938083594016291
27.408274726790943 2.807085332185814 13.29080371683595 11.310385677769174
21.223235099776176 2.39400933189512 9.892234687090005 8.936991080791053
15.865979020959596 2.0456120499920942 7.023592756729707 6.796774214237797
11.242883996130928 1.7496331931626248 4.623836189882021 4.869414613086283
7.329866379206569 1.4799198475710262 2.680904934421509 3.1690415972140364
4.345312748480761 1.2186733171406894 1.3612896346702323 1.7653497966698393
2.1450585071792614 0.9193289597565921 0.4560721456347836 0.7696574017878853
0.9360361932313405 0.645560099257458 0.08571321714085851 0.20476287683302424
0.4165580341742792 0.4170592878503674 -0.0034121706069954894 0.002910916930907631
0.24079190443247278 0.24347603206981058 -0.0005179367016853026 -0.0021661909356525764
0.15974564241952835 0.1597313564034166 9.176681415783688e-07 1.336834797013782e-05
0.14538368152515646 0.14539610995364474 -6.591917477816558e-07 -1.1769236740542314e-05
0.4074514536255844 0.18688447108442524 0.07138914040086829 0.14917784214029065
3.2806869603006006 1.8209267972823227 0.5508867934190466 0.9088733695992319
2.2834740675640863 1.390702307918974 0.340635054705001 0.5521367049401118
0.2999756954429028 0.21176398828590848 0.01855012911597428 0.06966157804102
0.17090705640232856 0.17087353315961476 3.130609429111138e-06 3.0392633284724312e-05
0.16689230371243638 0.16686208487329648 2.228269429175895e-06 2.799056971073564e-05
0.21649756333453765 0.21852234885379898 -0.00034342983099122545 -0.001681355688269949
0.3258276118599473 0.33820082182551336 -0.004375186759542055 -0.007998023206024184
0.614312444469446 0.515805579747484 0.02041580528842877 0.07809105943353313
1.3823986340325316 0.7378535587385313 0.21231576035593963 0.4322293149380605
2.8722389640018178 0.9934246077092315 0.7440796319527732 1.1347347243398138
5.165227510130573 1.2400320522344241 1.745556138653471 2.179639319242678
7.997908598047012 1.4654045027037175 3.049076526058932 3.4834275692843635
11.401057872000493 1.7118476082876248 4.727763135853306 4.96144712785956
15.339676511805912 2.0015744830730964 6.751961206908154 6.586140821824661
19.858252025796922 2.3463953712668935 9.129420177721032 8.382436476809001
25.100412073520886 2.763208657172521 11.958015747559564 10.3791876687888
31.02076815733046 3.241115118974447 15.19370647237528 12.585946565980743
37.659115919566 3.7613606633208305 18.938827526460837 14.958927729784326
44.76498944689392 4.363985836296255 22.928593799180803 17.47240981141686
52.21278110782018 4.918929559163657 27.212101625409122 20.081749923247393
59.29923249448405 5.003631893344701 31.6611921159953 22.634408485144036
62.66199439086493 2.5708057372665234 35.38058995240316 24.71059870119523
59.29923249448066 5.0036318933458785 31.661192115992264 22.63440848514252
52.21278110781737 4.918929559171723 27.21210162540231 20.08174992324335
44.76498944687948 4.363985836303849 22.928593799167167 17.4724098114085
37.659115919539055 3.7613606633186034 18.938827526445706 14.958927729774738
31.02076815729226 3.241115118961372 15.19370647236015 12.585946565970744
25.100412073486105 2.7632086571628265 11.958015747544763 10.37918766877852
19.85825202577423 2.346395371266734 9.129420177708045 8.38243647679944
15.339676511779192 2.001574483064827 6.751961206897782 6.586140821816577
11.401057871980186 1.7118476082891796 4.7277631358414896 4.961447127849517
7.997908598027959 1.4654045027022384 3.0490765260498165 3.4834275692759045
5.165227510116747 1.2400320522338277 1.7455561386468659 2.1796393192360535
2.8722389639929413 0.9934246077075155 0.7440796319494823 1.1347347243359436
1.3823986340277872 0.7378535587382933 0.21231576035413185 0.43222931493536165
0.6143124444673205 0.515805579746761 0.020415805288002634 0.07809105943255683
0.32582761185924797 0.3382008218244681 -0.004375186759485729 -0.007998023205734532
0.21649756333407 0.21852234885336458 -0.0003434298309877863 -0.0016813556883067747
0.16689230371210562 0.16686208487294227 2.228269430133624e-06 2.799056973320318e-05
0.17090705640203116 0.17087353315920503 3.130609437846649e-06 3.0392633388262245e-05
0.2999756954416691 0.2117639882857173 0.018550129115605784 0.0696615780403458
2.2834740675568996 1.3907023079159426 0.3406350547032108 0.5521367049377464
1.4812361884715994 1.0301655218932682 0.14819106900203277 0.3028795975762984
0.23648841135285212 0.2228112738535699 -0.0012450307217969508 0.01492216822107905
0.1926873035740916 0.1927742731053928 -7.989255802167372e-06 -7.898027549907941e-05
0.18045503150532743 0.18053005809930278 -5.0583598689345105e-06 -6.996823410637318e-05
0.20566246370051203 0.20757543492599442 -0.00033163226570835435 -0.0015813389597740476
0.2762483806655406 0.28305149693689735 -0.002462069291233687 -0.004341046980123125
0.4192579700537027 0.4078240405251663 -0.001955410477470532 0.013389340006006932
0.8076338124474401 0.566476716145694 0.06738616074670058 0.17377093555504608
1.6637407602958187 0.7568340904559177 0.3190737876287254 0.5878328822111751
3.0868079771649244 0.9599616840726561 0.8640277437835644 1.2628185493087043
4.9507979088140495 1.1542387413646162 1.6502214696241155 2.1463376978253197
7.2151719900499565 1.3624643418127251 2.6911947177156943 3.1615129305215373
9.814165520401312 1.6028984440529483 3.933455665497048 4.277811410851315
12.788655469102235 1.8850872282720335 5.395359178329604 5.508209062500598
16.2598531855259 2.2351927030303687 7.1428309388591344 6.881829543636394
20.322077891347842 2.6668037211038502 9.22758940438304 8.427684765860953
24.95811050264464 3.1606230502827475 11.650473992807395 10.147013459554499
30.072961745303232 3.7091298558111734 14.348172829517258 12.015659059974796
36.05700564033946 4.442175348640697 17.508858888203534 14.105971403495225
42.81047600791816 4.943471202613277 21.37279952672245 16.494205278582417
46.561377216514906 2.30913000066068 25.286625037657615 18.96562217819661
42.81047600791906 4.943471202616262 21.372799526721128 16.494205278581664
36.0570056403248 4.442175348632737 17.508858888199452 14.1059714034926
30.072961745283408 3.7091298558076633 14.348172829507416 12.015659059968325
24.958110502621302 3.16062305027639 11.65047399279739 10.147013459547525
20.322077891342232 2.666803721115225 9.227589404373255 8.427684765853753
16.259853185509535 2.2351927030268914 7.142830938851843 6.881829543630797
12.788655469087097 1.8850872282707138 5.3953591783219785 5.50820906249441
9.814165520393056 1.6028984440554601 3.933455665491394 4.277811410846198
7.215171990030723 1.3624643418061868 2.69119471770906 3.16151293051548
4.950797908801728 1.1542387413625828 1.6502214696190962 2.146337697820047
3.0868079771563752 0.9599616840721394 0.8640277437797861 1.2628185493044486
1.6637407602913812 0.7568340904557659 0.3190737876269323 0.5878328822086839
0.8076338124444677 0.5664767161449953 0.06738616074588198 0.17377093555359044
0.4192579700523639 0.40782404052413856 -0.0019554104775799234 0.013389340005805122
0.27624838066510604 0.28305149693611725 -0.0024620692911892957 -0.004341046979821777
0.20566246369983662 0.20757543492515756 -0.00033163226569420595 -0.0015813389596267102
0.18045503150516817 0.18053005809917144 -5.058359870108507e-06 -6.996823413314773e-05
0.1926873035737448 0.19277427310494386 -7.989255797031771e-06 -7.898027540200368e-05
0.23648841135206075 0.22281127385325183 -0.0012450307219561885 0.014922168220765124
1.4812361884669558 1.0301655218910741 0.14819106900105086 0.3028795975748311
0.9454063529441203 0.7749711862469367 0.04931626727898048 0.12111889941820347
0.19935578998605918 0.21376912573904894 -0.005399017040521459 -0.009014318712468314
0.20840866981122744 0.20837115291206784 4.333500004469736e-06 3.3183399155114015e-05
0.19647964305522853 0.19648151246103923 -5.210771849202448e-07 -1.3483286257746043e-06
0.20669696239370602 0.20816581281179644 -0.0002969564645769796 -0.0011718939535134557
0.25206188500997023 0.2575437338124873 -0.0017776809731119012 -0.003704167829405175
0.3299965264546323 0.32473720223742236 -0.0005929357253660355 0.005852259942575919
0.4578402939261595 0.3988473298066675 0.011855010603133992 0.04713795351635797
0.7586442456836614 0.5015543600337204 0.07341292595996955 0.18367695968997125
1.3647801493956584 0.6328197807640438 0.25253254745919007 0.4794278211724248
2.312589590814191 0.7687272036633747 0.6083358139966348 0.9355265731541806
3.462875548302642 0.9121330607606627 1.0561246595663694 1.4946178279756102
4.8391611206499565 1.087756298348657 1.6354492669005218 2.115955555400777
6.451745104238742 1.3026942866176858 2.339777543946917 2.8092732736741395
8.355098074603704 1.5751490962158046 3.1845052775307723 3.595443700857129
10.676589051390408 1.9378791207881205 4.224839045752485 4.513870884849798
13.539443600369763 2.4009850399981127 5.5353652097616965 5.60309335060995
16.924769457827225 2.896245232799701 7.1656563109660265 6.862867914061497
20.956863613587885 3.499537369952822 9.124469661030215 8.332856582604848
26.841031327324856 4.630699648214553 11.880189909557956 10.330141769552354
31.996023988604243 2.2714687250784635 16.36913563122866 13.355419632297108
26.84103132732308 4.630699648209965 11.880189909559629 10.33014176955348
20.956863613590453 3.4995373699585812 9.12446966102835 8.332856582603526
16.924769457815543 2.8962452327971255 7.165656310960854 6.862867914057565
13.539443600360542 2.4009850399993136 5.535365209755882 5.603093350605347
10.676589051369607 1.9378791207776853 4.224839045746896 4.513870884845027
8.355098074597697 1.5751490962160797 3.184505277527527 3.595443700854093
6.451745104231801 1.3026942866167588 2.339777543943807 2.809273273671232
4.839161120639143 1.0877562983448295 1.6354492668970377 2.1159555553972726
3.4628755482979288 0.9121330607606348 1.0561246595641784 1.4946178279731155
2.31258959080787 0.768727203662408 0.6083358139941937 0.9355265731512692
1.36478014939231 0.6328197807635358 0.2525325474580351 0.4794278211707391
0.7586442456814664 0.5015543600334192 0.0734129259592897 0.1836769596887572
0.45784029392541914 0.3988473298063097 0.011855010603014065 0.047137953516095496
0.32999652645378386 0.324737202236685 -0.0005929357254150875 0.005852259942513763
0.2520618850094008 0.25754373381183226 -0.0017776809730919952 -0.003704167829339386
0.2066969623932095 0.2081658128112178 -0.0002969564645646952 -0.0011718939534435845
0.1964796430550575 0.1964815124607805 -5.210771758441461e-07 -1.348328547224428e-06
0.2084086698110067 0.20837115291162311 4.333500028887871e-06 3.318339935468612e-05
0.19935578998568695 0.21376912573869544 -0.0053990170405120745 -0.009014318712496309
0.9454063529415008 0.7749711862454768 0.04931626727856266 0.12111889941746129
0.5944495454802989 0.5647441459473269 0.005400992777430441 0.024304406755541616
0.18401880829058304 0.18951711375396135 -0.0009978532810849484 -0.004500452182293375
0.21788381438005297 0.218251486034504 -3.760999713395271e-05 -0.0003300616573171663
0.21233003230232844 0.2122822617158254 3.873135834704127e-06 4.389745066833322e-05
0.21719960573118674 0.2180163824457877 -0.0002399954295492449 -0.0005767812850515845
0.24923795952058 0.2525966441411272 -0.00136239878533807 -0.0019962858352091406
0.3068637279326703 0.2968909558463319 0.0010852652010167319 0.008887506885321807
0.36030082045819045 0.30305045000900976 0.013403023390018549 0.043847347059162184
0.4035423015489611 0.26748397660358464 0.042137635959885233 0.09392068898549125
0.4991612410668061 0.23524490316032054 0.08865417351621588 0.17526216439026956
0.7354137900091091 0.2633516603095258 0.18468874066062885 0.28737338903895493
1.1002031808837736 0.30105453033224683 0.31501916546952075 0.4841294850820062
1.6051962873935963 0.30463466550302687 0.5303721695856012 0.7701894523049685
2.2373575730869066 0.3148729077287908 0.814112298984159 1.1083723663739578
3.014244772027965 0.35024478206764725 1.1681936825172148 1.4958063074431014
3.9401765298384186 0.43091043118875977 1.5808370135949164 1.9284290850547432
5.067526405725327 0.5796694393990451 2.0851468614824697 2.4027101048438135
6.391867414714516 0.7895933926848697 2.685583155638132 2.9166908663915123
8.29848398340115 1.1657913639725415 3.5169366793930426 3.615755940035565
13.180662807963053 2.737332049710296 5.147362641146683 5.295968117106073
22.032780977000343 2.3811844412985437 10.29234694625967 9.35924958944213
13.180662807977825 2.737332049720795 5.147362641149239 5.295968117107793
8.298483983394698 1.1657913639696427 3.516936679391093 3.6157559400339627
6.391867414703118 0.7895933926805584 2.685583155634375 2.9166908663881834
5.0675264057163165 0.5796694393972865 2.0851468614787256 2.402710104840303
3.940176529838017 0.4309104311917317 1.58083701359326 1.9284290850530252
3.014244772026167 0.35024478206956 1.1681936825152623 1.4958063074413448
2.2373575730843807 0.31487290772907506 0.814112298982889 1.1083723663724174
1.605196287392007 0.30463466550525026 0.5303721695837131 0.770189452303043
1.1002031808784725 0.3010545303305293 0.31501916546786957 0.48412948508007425
0.73541379000688 0.26335166030927104 0.18468874065969954 0.28737338903790877
0.49916124106618975 0.2352449031596945 0.08865417351622953 0.17526216439026604
0.40354230154857795 0.26748397660366413 0.04213763595970704 0.09392068898520667
0.3603008204578516 0.30305045000921255 0.01340302338983851 0.04384734705880085
0.3068637279321289 0.29689095584580916 0.0010852652009790964 0.00888750688534074
0.24923795952010275 0.25259664414051525 -0.0013623987853191948 -0.0019962858350934757
0.2171996057310049 0.21801638244540514 -0.00023999542952511655 -0.0005767812848750452
0.2123300323020047 0.21228226171534187 3.873135852771532e-06 4.3897450809992055e-05
0.21788381437978632 0.21825148603433434 -3.760999714396577e-05 -0.00033006165740398296
0.18401880829049977 0.18951711375369523 -0.0009978532810526305 -0.00450045218214283
0.5944495454788546 0.5647441459461001 0.005400992777333279 0.024304406755421303
0.38586654155613775 0.3869348225759761 -0.0001987810230408097 -0.0008694999967976886
0.17395985638212924 0.17391421516132133 1.6410718683835588e-05 2.9230502124054727e-05
0.2213887129998266 0.22126123025605562 2.8221999027187334e-06 0.00012466054386836518
0.22593172572470588 0.22577918682696538 7.03245398960611e-06 0.00014550644375086168
0.23359891853378312 0.23352872004315672 -0.00013597001286750346 0.00020616850349396354
0.26852151422948656 0.26963365184544025 -0.0011141738520019898 2.0362360482898796e-06
0.33994497369179216 0.3326490440102527 0.0005873885406098929 0.006708541140929637
0.4626541768684897 0.4005424233243284 0.013052134063622708 0.049059619480538594
0.7600262924999779 0.5014119876345773 0.07398156577970401 0.18463273908569644
1.363685386514385 0.6323941728858213 0.2521990009623969 0.47909221266616653
2.315043893422444 0.7704451636519368 0.6090718082900994 0.9355269214804086
3.478718251290087 0.9147639590912642 1.063810539472685 1.500143752726139
4.874804711138126 1.0929521998659513 1.6504561085218226 2.1313964027503522
6.493001616636477 1.3050550429412098 2.3604687158367557 2.827477857858515
8.28501099006614 1.5513668191613013 3.1620391844024764 3.5716049865023587
10.163111072194063 1.834632436084438 4.0121063700776975 4.316372266031931
11.88608797690653 2.138029500413109 4.785159231854289 4.962899244639129
13.267334165666387 2.4922369491168554 5.3926456062626125 5.382451610286925
13.755116766521173 2.7390625918750056 5.5652616347274355 5.450792539918734
11.052998560457034 1.7607633729157366 4.8043642222660345 4.487870965275254
22.313045492315574 3.8702532827678766 9.474271908127 8.968520301420687
11.052998560454462 1.7607633729072114 4.804364222269288 4.4878709652779625
13.755116766522425 2.739062591877308 5.565261634726744 5.450792539918379
13.26733416565993 2.4922369491184915 5.392645606258092 5.382451610283342
11.886087976888192 2.1380295004079652 4.78515923184707 4.962899244633156
10.163111072184439 1.8346324360841377 4.012106370072723 4.316372266027577
8.285010990048459 1.5513668191539494 3.1620391843971207 3.57160498649739
6.493001616622921 1.3050550429373826 2.360468715831731 2.827477857853806
4.874804711124722 1.0929521998629628 1.650456108516669 2.131396402745092
3.478718251281943 0.9147639590925829 1.0638105394682222 1.500143752721137
2.3150438934127693 0.7704451636503106 0.6090718082864165 0.9355269214760414
1.3636853865082958 0.6323941728846756 0.25219900096037623 0.4790922126632434
0.7600262924981419 0.5014119876342259 0.07398156577918295 0.18463273908473277
0.4626541768674282 0.4005424233237421 0.013052134063466392 0.04905961948021973
0.3399449736909955 0.3326490440093874 0.0005873885405909443 0.006708541141017134
0.2685215142288641 0.26963365184468874 -0.0011141738519887942 2.0362361641992725e-06
0.2335989185334909 0.23352872004266567 -0.000135970012844108 0.0002061685036695192
0.22593172572437448 0.22577918682645565 7.03245400645649e-06 0.00014550644391242282
0.22138871299970228 0.2212612302558028 2.8221999106072436e-06 0.0001246605439887911
0.17395985638196101 0.17391421516116978 1.6410718678231473e-05 2.9230502113001516e-05
0.38586654155544897 0.38693482257497624 -0.00019878102300561326 -0.0008694999965217938
0.24988394051396662 0.24986320138384444 1.3476233019465938e-06 1.9391506820260498e-05
0.1602732203915948 0.16031286283968488 -1.9011610771228135e-06 -3.7741287012945166e-05
0.218397614268769 0.21870874455790465 -3.699298591901131e-05 -0.0002741373032166946
0.23557695429198883 0.2349768358411228 5.514410774359049e-05 0.0005449743431226101
0.2542511811944884 0.2567400418233868 -0.000558989306558322 -0.0019298713223401143
0.30794412938036203 0.312536575089162 -0.0015141074185877495 -0.003078338290212427
0.435110587128017 0.4092668623584445 0.0011501510432330112 0.02469357372633931
0.8151890545674682 0.5673191477035235 0.0700714990829463 0.17779840778099865
1.6637704033821772 0.7566054178627065 0.31914436812353725 0.5880206173959329
3.085067359829775 0.9598492395988032 0.8631376841769813 1.2620804360539901
4.953523328142618 1.154801651232558 1.6511812949040248 2.147540382006032
7.2296118137450245 1.3645011487967607 2.6975743390872546 3.1675363258610054
9.845405276135608 1.6056933294914442 3.9487636293444934 4.290948317299674
12.81578863361645 1.881286469063265 5.4127962708529385 5.52170589370024
16.165422457779698 2.1994264015008063 7.111058245101022 6.854937811177871
19.773928796745064 2.5508002159913827 8.981107734341547 8.242020846412135
23.34339667325957 2.935890455799318 10.837106167792511 9.570400049667732
26.406101941733894 3.3790397204416993 12.3568588947594 10.670203326532796
27.916800084393994 3.560447386250666 13.161630986828499 11.194721711314838
25.86716764300627 3.4820290022191047 12.092011444291952 10.293127196495211
31.773659351578548 7.7215983029796895 12.933581168967773 11.118479879631062
25.867167643005203 3.482029002212073 12.092011444295547 10.293127196497581
27.916800084375136 3.560447386236972 13.16163098682538 11.194721711312779
26.406101941717584 3.3790397204389953 12.356858894751282 10.670203326527307
23.343396673245593 2.935890455804964 10.83710616778102 9.570400049659607
19.773928796720615 2.550800215984277 8.981107734331566 8.242020846404772
16.165422457763604 2.1994264015040743 7.1110582450901045 6.854937811169433
12.815788633600965 1.8812864690650197 5.41279627084351 5.521705893692435
9.845405276116571 1.605693329490623 3.9487636293347443 4.290948317291208
7.229611813724643 1.3645011487930767 2.6975743390786016 3.167536325852964
4.953523328126639 1.1548016512310688 1.6511812948969158 2.1475403819986534
3.085067359819346 0.9598492395983462 0.86313768417232 1.2620804360486817
1.6637704033759695 0.7566054178612176 0.3191443681215497 0.5880206173932018
0.815189054563882 0.5673191477022518 0.07007149908212071 0.17779840777950992
0.4351105871265253 0.40926686235745574 0.0011501510430687936 0.024693573726000735
0.3079441293797506 0.3125365750882725 -0.0015141074185287015 -0.0030783382899931453
0.2542511811938635 0.2567400418226083 -0.0005589893065331553 -0.0019298713222117786
0.23557695429153466 0.23497683584049053 5.5144107759520436e-05 0.0005449743432844833
0.2183976142687049 0.2187087445577789 -3.6992985915303724e-05 -0.0002741373031587821
0.16027322039136396 0.16031286283948065 -1.9011610785591747e-06 -3.7741287038173995e-05
0.2498839405135407 0.24986320138343157 1.3476233008971399e-06 1.9391506808273514e-05
0.15453826623277606 0.15453826623277606 0.0 0.0
0.1413908620322603 0.14137450890529818 9.89853957466213e-07 1.5363273004669434e-05
0.20857360581821438 0.2087565160662793 -2.0411132597642025e-05 -0.00016249911546721565
0.24144094103590855 0.24226968481742983 -0.00014032833419948913 -0.0006884154473219057
0.27862854042152213 0.27985038384578664 -0.000409227214425982 -0.0008126162098385399
0.3636896353841232 0.3599384853669018 -0.0018563557966132954 0.005607505813834839
0.639231483184816 0.5242980608821883 0.02768549158472114 0.08724793071790639
1.3882727300486402 0.7384990631713892 0.21501556925631493 0.4347580976209362
2.8700261365370734 0.9933985926668795 0.7430307758421104 1.1335967680280818
5.16456085893791 1.2402960401981498 1.7453484207500223 2.178916397989738
8.001142098771973 1.4657779280286827 3.0493048944171997 3.48605927632609
11.412196258785054 1.7127343772139838 4.733406814823059 4.966055066748014
15.354228399985622 2.00190690243621 6.7600201666498565 6.592301330899554
19.851435379793003 2.3385019662771187 9.130221097667908 8.382712315847971
24.976231773282567 2.7227238808017487 11.90905885284918 10.344449039631636
30.54223852326965 3.1369855585005197 14.969688418037183 12.435564546731946
36.33605663730464 3.5733153220967924 18.24736786022711 14.515373454980736
41.29202385017836 3.8984456063281403 21.070791809573098 16.322786434277113
43.81870290562081 3.954880164458282 22.602209096576168 17.261613644586355
40.742745154539165 3.4824949263445166 21.00719703579018 16.25305319240447
45.72579385282298 10.640349870823366 19.640411047736105 15.445032934263525
40.74274515454749 3.482494926349944 21.00719703579198 16.253053192405556
43.81870290562958 3.9548801644753384 22.602209096571055 17.261613644583193
41.29202385015525 3.8984456063249846 21.07079180956078 16.322786434269503
36.3360566372616 3.573315322083266 18.247367860209053 14.515373454969271
30.542238523232196 3.1369855584917703 14.969688418019919 12.43556454672051
24.976231773250447 2.7227238807976866 11.909058852832631 10.344449039620127
19.851435379761522 2.3385019662719535 9.130221097652711 8.382712315836862
15.35422839995945 2.0019069024355995 6.760020166635501 6.592301330888351
11.412196258761032 1.7127343772140715 4.733406814809925 4.966055066737031
8.00114209874725 1.4657779280267023 3.0493048944053047 3.486059276315247
5.1645608589211855 1.2402960401953933 1.7453484207430474 2.178916397982745
2.870026136526161 0.993398592665233 0.7430307758378307 1.133596768023098
1.3882727300429452 0.7384990631700641 0.21501556925457616 0.43475809761830475
0.6392314831822247 0.52429806088098 0.027685491584266267 0.08724793071697787
0.36368963538321597 0.35993848536583956 -0.0018563557966100057 0.005607505813986351
0.2786285404209476 0.2798503838450804 -0.0004092272144084595 -0.0008126162097243268
0.24144094103552466 0.24226968481697808 -0.00014032833419238907 -0.0006884154472609422
0.2085736058178418 0.20875651606590537 -2.0411132598138532e-05 -0.00016249911546549164
0.14139086203200063 0.14137450890504202 9.898539572355688e-07 1.5363273001379168e-05
0.15453826623241293 0.15453826623241293 0.0 0.0
0.09046561923639386 0.09046561923639386 0.0 0.0
0.11821176123425209 0.11821229092992558 -2.2971052855553653e-08 -5.067246206468004e-07
0.19293283516070275 0.19297001647471912 -5.510607621881606e-06 -3.167070639449158e-05
0.24391486105701488 0.24410364028289577 -5.395902607476874e-05 -0.00013482019980613506
0.3051975560332326 0.31019278871026895 -0.001229334293020751 -0.0037658983840154355
0.4586612527180577 0.4385368057897749 0.0026507092388610085 0.017473737689421724
0.9527530980536809 0.6425635710672755 0.09204620784319964 0.21814331914320556
2.146427146909282 0.9197624872240729 0.4569243566634846 0.7697403030217242
4.342322799873194 1.219165387156596 1.3595516677875934 1.7636057449290046
7.330538597410206 1.480390719669168 2.680816800549221 3.169331077191818
11.248263456017806 1.7496000261166285 4.627028824869598 4.871634605031581
15.869057347981236 2.0440708520435558 7.026240203459488 6.798746292478193
21.208390081000225 2.388986781342302 9.886668912723616 8.932734386934328
27.350566399505514 2.7948764799012205 13.263972220498122 11.291717699106151
34.331121561220414 3.255813618794627 17.180115889309754 13.895192053116045
42.17505050052994 3.749389444173104 21.72349020213503 16.7021708542218
50.0019519531039 4.166780006325131 26.28393618124959 19.5512357655292
56.931843383491 4.342390010721537 30.58564405548352 22.003809317285928
60.26734192345839 4.059147528296553 32.91884578133054 23.289348613831304
56.29514144348145 3.565047673784994 30.702686057490887 22.027407712205566
61.26154678750133 13.470073599861486 27.532320298408408 20.25915288923142
56.29514144347699 3.565047673781428 30.702686057490347 22.02740771220522
60.26734192344235 4.0591475282908265 32.9188457813239 23.289348613827627
56.93184338346342 4.342390010720596 30.585644055466556 22.003809317276286
50.001951953073274 4.16678000633375 26.283936181225002 19.551235765514505
42.17505050048829 3.749389444171764 21.723490202110128 16.70217085420639
34.33112156118636 3.255813618796866 17.180115889287755 13.89519205310172
27.35056639946877 2.7948764799004278 13.263972220476763 11.291717699091576
21.20839008095941 2.3889867813377905 9.886668912702545 8.932734386919073
15.869057347946207 2.0440708520391735 7.026240203442292 6.7987462924647435
11.24826345599107 1.7496000261190274 4.627028824853902 4.8716346050181425
7.330538597387681 1.480390719665735 2.680816800539424 3.1693310771825214
4.342322799858564 1.2191653871553196 1.3595516677810175 1.763605744922226
2.1464271469004697 0.9197624872221353 0.4569243566604618 0.7697403030178723
0.952753098049342 0.6425635710653841 0.09204620784226608 0.21814331914169127
0.45866125271661146 0.43853680578881155 0.0026507092387324854 0.01747373768906747
0.30519755603287707 0.3101927887094477 -0.0012293342929457396 -0.003765898383624948
0.24391486105663396 0.2441036402824091 -5.3959026066126365e-05 -0.00013482019970906074
0.19293283516034937 0.1929700164744012 -5.510607626224007e-06 -3.167070642559155e-05
0.11821176123405308 0.11821229092972607 -2.297105282889122e-08 -5.067246201801207e-07
0.09046561923620167 0.09046561923620167 0.0 0.0
0.049827681496887634 0.049827681496887634 0.0 0.0
0.09347642984704242 0.09347642984704242 0.0 0.0
0.1730460409264596 0.1730353823321652 6.366593226293898e-07 1.002193497175889e-05
0.2436991008159263 0.24440092830162086 -0.00011413381142404993 -0.0005876936742704549
0.3374987037262047 0.33953476895807194 -0.0014518111595947054 -0.0005842540722725852
0.6032966062791225 0.5245051421747043 0.01911402516661274 0.05967743893780528
1.3759965916602652 0.7775153104112337 0.20150134627651978 0.3969799349725122
3.0973968265979286 1.1027725408889046 0.825715267293325 1.1689090184156987
5.821314559107625 1.4096909399783935 1.9521764250309563 2.4594471940982783
9.74329883872078 1.7176781797209681 3.8347523554715695 4.1908683035282355
14.66004339015157 2.034682453073755 6.351864187356539 6.273496749721272
20.528424300051466 2.3847945567200908 9.495050064078324 8.648579679253046
27.353607572310345 2.7923919923621443 13.268100701080261 11.293114878867932
35.25119453965977 3.2727666949723355 17.752909376858536 14.225518467828906
44.21873638206298 3.83158448450644 22.918465036932265 17.468686860624274
54.14833510844224 4.387302346309851 28.77372398323991 20.98730877889248
64.48695222617525 4.767340999327603 35.15936668359775 24.560244543249897
73.058695078169 4.697669957665845 40.70302851833524 27.65799660216793
76.84294099401802 4.068312102439375 43.52925156969804 29.245377321880614
72.37523556833085 3.753262333735626 40.88727557588979 27.73469765870544
78.20194780587939 16.328760598556485 36.54119485061697 25.331992356705925
72.37523556833263 3.7532623337396243 40.88727557588837 27.73469765870467
76.8429409939897 4.068312102431362 43.52925156968482 29.245377321873477
73.05869507813323 4.697669957664601 40.70302851831292 27.65799660215573
64.48695222612803 4.767340999326048 35.15936668356841 24.560244543233573
54.14833510839387 4.387302346310944 28.773723983208694 20.987308778874244
44.218736382007506 3.8315844844971694 22.918465036903637 17.468686860606688
35.251194539610935 3.272766694968617 17.75290937683112 14.225518467811215
27.353607572268483 2.7923919923659892 13.268100701053145 11.293114878849359
20.528424300007764 2.3847945567171043 9.495050064054821 8.648579679235825
14.660043390116027 2.034682453071945 6.351864187337765 6.27349674970632
9.743298838691423 1.7176781797179361 3.8347523554575584 4.190868303515924
5.821314559087505 1.4096909399756548 1.9521764250224365 2.459447194089412
3.097396826585936 1.1027725408878049 0.8257152672882284 1.1689090184099022
1.3759965916540196 0.7775153104093923 0.20150134627475919 0.3969799349698689
0.6032966062771359 0.5245051421737009 0.01911402516628483 0.05967743893715017
0.33749870372573143 0.3395347689572462 -0.001451811159545046 -0.0005842540719696919
0.24369910081546817 0.2444009283011903 -0.00011413381142856708 -0.000587693674293629
0.1730460409261433 0.17303538233185545 6.366593221431451e-07 1.0021934965748754e-05
0.0934764298469318 0.0934764298469318 0.0 0.0
0.049827681496743416 0.049827681496743416 0.0 0.0
0.025740950566901385 0.025740950566901385 0.0 0.0
0.06994322044274809 0.06994322044274809 0.0 0.0
0.15129090951251964 0.151284935369476 3.662909033654852e-07 5.6078521402870744e-06
0.242991159628592 0.243476756734614 -8.666454360269817e-05 -0.0003989325624193142
0.38698835499916073 0.3883061558704022 -0.0012160949835081452 -0.00010170588773323469
0.7997347755033063 0.604683929151492 0.05260823033925316 0.14244261601256042
1.9305765780580042 0.9214757862654996 0.3857479276594058 0.6233528641330992
4.072580237681608 1.2567991931036016 1.1817095296216653 1.63407151495634
7.507486436737577 1.599950486529067 2.722915376597794 3.1846205736107165
12.23740304906698 1.9548265049567641 5.056737138690413 5.225839405419806
18.21650105649706 2.330034264480284 8.199873401065288 7.68659339095148
25.393227831326108 2.744114774624773 12.140135104622622 10.508977952078721
33.80157285372445 3.2230291779319518 16.90952491510901 13.669018760683489
43.36819088929544 3.783879055565946 22.405725266680573 17.178586567048928
54.41852020764121 4.4232118015500905 28.944761939194123 21.050546466896993
66.6666889756368 5.057208005136372 36.35994542353483 25.249535546965582
79.0274123230048 5.37737480499538 44.117324598440675 29.532712919568723
89.32247376758276 5.006139254097849 51.09596430859583 33.22037020488909
93.94753439450936 4.078342600528854 54.759398776439646 35.10979301754089
89.16989827722112 3.9780503996428087 51.68111234113956 33.510735536438744
96.17239905919757 19.188472325708055 46.281119224981474 30.70280750850806
89.16989827719681 3.978050399625947 51.681112341134565 33.51073553643625
93.94753439448414 4.078342600533365 54.759398776420085 35.10979301753071
89.32247376753597 5.006139254094707 51.09596430856703 33.22037020487424
79.02741232294723 5.377374804994166 44.117324598404 29.53271291954906
66.66668897558172 5.057208005137143 36.359945423498964 25.249535546945598
54.41852020758271 4.42321180154999 28.94476193915724 21.050546466875495
43.36819088923919 3.7838790555647575 22.405725266646453 17.178586567027974
33.8015728536699 3.223029177930235 16.909524915077064 13.669018760662594
25.393227831279702 2.744114774626164 12.140135104594497 10.508977952059038
18.216501056455517 2.330034264477039 8.199873401043531 7.686593390934939
12.237403049034102 1.954826504955617 5.056737138673109 5.225839405405379
7.507486436714429 1.5999504865283505 2.722915376586413 3.1846205735996636
4.072580237666705 1.256799193101523 1.1817095296155704 1.634071514949613
1.9305765780497557 0.9214757862639502 0.385747927656491 0.6233528641293127
0.7997347755000765 0.6046839291501797 0.05260823033855685 0.14244261601134045
0.38698835499840434 0.3883061558695171 -0.0012160949834872602 -0.00010170588762554653
0.24299115962842532 0.2434767567344343 -8.666454360397878e-05 -0.0003989325624049918
0.15129090951228358 0.1512849353692401 3.662909033509835e-07 5.607852140109466e-06
0.0699432204426571 0.0699432204426571 0.0 0.0
0.025740950566818577 0.025740950566818577 0.0 0.0
0.012618092586488081 0.012618092586488081 0.0 0.0
0.04977096326253165 0.04977096326253165 0.0 0.0
0.13035489562706912 0.13035489562706912 0.0 0.0
0.2454206962447365 0.2462720660837032 -0.00014175689212465127 -0.0007096129468422208
0.46059142171047485 0.4435369657501278 0.0030430084362314085 0.014011447524115685
1.0766132224238696 0.7150545066779713 0.11723511725204303 0.2443235984938555
2.5395027073960343 1.0485282582973785 0.582175867933049 0.9087985811656082
5.176651486060754 1.4006534497063816 1.6468794937232774 2.1291185426310943
9.250991096242188 1.7867061838399378 3.5381998584599157 3.9260850539423355
14.835166718670475 2.1971507714300085 6.366861981636599 6.271153965603863
21.884245396319322 2.636946872811089 10.140740406082633 9.106558117425609
30.4180059800763 3.12716918728333 14.912967816809807 12.377868975983159
40.334877950311224 3.684549461827873 20.591444578696596 16.058883909786758
51.913394051005824 4.322953007971582 27.447168847151946 20.143272195882304
64.90260025281685 5.03532986270073 35.22941312044375 24.63785726967236
79.15432737531702 5.711987945621095 43.96696685377649 29.475372575919444
93.7225020041135 5.992941321946781 53.343172369893196 34.386388312273525
105.7986249948136 5.356194297686531 61.771071591019506 38.67135910610756
111.5043214514531 4.11711356583939 66.3973152490397 40.989892636574
106.94813212510871 4.181060581623054 63.33148170022999 39.435589843255656
115.69084306042419 21.999739970737654 57.29356447758544 36.397538612101066
106.94813212509186 4.18106058162158 63.331481700219754 39.43558984325057
111.50432145141507 4.117113565838677 66.3973152490147 40.98989263656165
105.79862499476505 5.3561942976892 61.77107159098524 38.671359106090605
93.72250200405472 5.99294132195369 53.34317236984996 34.386388312251114
79.1543273752375 5.711987945607577 43.9669668537334 29.475372575896518
64.90260025274948 5.035329862701175 35.22941312040031 24.637857269647995
51.913394050940255 4.322953007968661 27.44716884711254 20.14327219585906
40.33487795024856 3.684549461825898 20.59144457865923 16.058883909763427
30.41800598001432 3.127169187277016 14.912967816776566 12.377868975960757
21.884245396266795 2.6369468728023464 10.140740406057267 9.106558117407186
14.835166718631786 2.1971507714275265 6.366861981616411 6.271153965587843
9.250991096215396 1.7867061838388951 3.538199858446376 3.926085053930124
5.176651486041524 1.4006534497025351 1.6468794937160187 2.1291185426229697
2.5395027073858283 1.048528258295961 0.5821758679291068 0.9087985811607605
1.0766132224198561 0.7150545066763061 0.11723511725112545 0.24432359849242416
0.460591421709202 0.44353696574928136 0.003043008436100907 0.014011447523819448
0.24542069624431515 0.24627206608305915 -0.0001417568921097871 -0.0007096129466341027
0.13035489562697813 0.13035489562697813 0.0 0.0
0.04977096326244809 0.04977096326244809 0.0 0.0
0.012618092586460747 0.012618092586460747 0.0 0.0
0.0061124380434234744 0.0061124380434234744 0.0 0.0
0.034270148023357316 0.034270148023357316 0.0 0.0
0.11322876066595748 0.11322876066595748 0.0 0.0
0.2568915383793896 0.25873738887642705 -0.0003206116808220442 -0.0015252388162153197
0.5675611520138768 0.5070831304603095 0.01387998040560105 0.04659804114796644
1.4290468044669398 0.8259513140561361 0.215545260823909 0.38755022958689406
3.2130697034862705 1.1557842810886032 0.8243583433593201 1.2329270790383444
6.3521529424049525 1.5415804079940862 2.165819921676102 2.644752612734765
11.057069852523245 1.9716963442677513 4.406903844878985 4.678469663376509
17.50055455753261 2.444209201635582 7.733720353045888 7.322625002851146
25.68267152829279 2.9605232327605253 12.191642332332945 10.530505963199314
35.551104994737344 3.5316453931771976 17.766351885733265 14.253107715826886
47.25467852960787 4.181826192160241 24.61825215541506 18.454600182032582
60.531914049469606 4.906090162019998 32.49656109428257 23.129262793167022
75.56484748664147 5.646881964176036 41.6902073894466 28.227758133018828
91.84605324860517 6.2958771719192095 51.90725532324307 33.64292075344291
108.32252429018348 6.582823297775997 62.632394655605836 39.107306336801656
122.34552048447317 5.880425762430693 72.49851870186754 43.966576020174934
129.5513455969795 4.180259858194902 78.54258032530817 46.8285054134764
125.92802896462992 4.292424708812523 76.0287431057063 45.60686115011109
136.93623283999332 24.635501491261167 69.7009680970975 42.599763251634656
125.92802896459916 4.2924247088027485 76.02874310569204 45.60686115010434
129.55134559693118 4.180259858194719 78.54258032527562 46.82850541346087
122.34552048439983 5.880425762419629 72.49851870182569 43.9665760201545
108.32252429011105 6.582823297776522 62.63239465555723 39.10730633677737
91.84605324852544 6.295877171919663 51.907255323190206 33.64292075341557
75.56484748656425 5.6468819641738826 41.69020738939787 28.22775813299251
60.53191404938667 4.906090162011378 32.49656109423526 23.12926279314006
47.25467852953057 4.18182619215296 24.618252155371394 18.454600182006203
35.55110499467176 3.5316453931759986 17.766351885694075 14.253107715801683
25.682671528234163 2.9605232327553774 12.191642332301525 10.530505963177257
17.500554557489767 2.4442092016336097 7.7337203530227825 7.3226250028333775
11.057069852490743 1.9716963442646247 4.406903844863262 4.678469663362858
6.352152942383057 1.5415804079913944 2.1658199216665226 2.6447526127251386
3.2130697034742948 1.1557842810871575 0.8243583433547791 1.2329270790323577
1.4290468044611646 0.8259513140538859 0.21554526082248093 0.38755022958479823
0.5675611520123652 0.5070831304592612 0.013879980405420005 0.04659804114768392
0.2568915383790196 0.2587373888759885 -0.0003206116808129822 -0.0015252388161558406
0.11322876066585814 0.11322876066585814 0.0 0.0
0.034270148023319284 0.034270148023319284 0.0 0.0
0.00611243804339201 0.00611243804339201 0.0 0.0
0.002900844299722522 0.002900844299722522 0.0 0.0
0.02363968186286598 0.02363968186286598 0.0 0.0
0.1039329295625082 0.1039329295625082 0.0 0.0
0.2869009922403972 0.28884118556770977 -0.0006211945395363542 -0.001318998787776229
0.7310645353899697 0.5958285731743118 0.04030046660841673 0.09493549560724102
1.8298553158884925 0.922678018861439 0.33379137380062984 0.5733859232264241
3.9730240405993347 1.2648510493279057 1.1319217651175582 1.5762512261538704
7.570489252488366 1.6773140915453848 2.7180837925670094 3.175091368375969
12.929112530316756 2.1556846207663276 5.336116321916246 5.437311587634185
20.223371531718847 2.697909568121168 9.149532294397233 8.375929669200453
29.537512947591104 3.2968133532140818 14.283488282115036 11.95721131226199
40.921412923184576 3.9650898547516014 20.82529456149541 16.131028506937565
54.15373122159064 4.7145856795693915 28.57426844888813 20.86487709313315
69.46858507322506 5.513217291794844 37.837351604203974 26.118016177226206
86.50820789869864 6.280453549196679 48.4098158707332 31.817938478768802
104.63306134774281 6.84061857736403 60.00743750013321 37.78500527024553
122.66159217931892 6.992398993703564 71.98770640162931 43.68148678398605
138.57571630403453 6.508919013369379 83.09980694831452 48.96699034235056
147.92089242947938 4.555772571935357 90.80883456066208 52.55628529688189
146.2688692833286 4.115307547174417 90.00686003877833 52.146701697375875
160.15199295810535 26.157945646684446 84.40866722297584 49.58538008844506
146.26886928328895 4.115307547163603 90.00686003875856 52.14670169736676
147.92089242943652 4.555772571947681 90.80883456062473 52.556285296864125
138.5757163039632 6.5089190133735055 83.09980694826324 48.96699034232644
122.66159217922862 6.992398993698474 71.98770640157191 43.68148678395818
104.6330613476544 6.840618577366995 60.00743750007255 37.78500527021488
86.50820789859918 6.280453549183815 48.4098158706764 31.817938478738945
69.4685850731423 5.513217291796119 37.83735160414988 26.11801617719629
54.153731221508274 4.714585679565763 28.57426844883837 20.864877093104116
40.92141292310564 3.9650898547442606 20.82529456145135 16.131028506910038
29.53751294752812 3.296813353211351 14.283488282079011 11.957211312237762
20.22337153166937 2.6979095681171916 9.14953229437107 8.375929669181103
12.929112530280575 2.155684620763602 5.336116321897972 5.437311587618995
7.570489252464212 1.677314091543279 2.7180837925557744 3.1750913683651616
3.973024040583926 1.2648510493244203 1.1319217651120599 1.5762512261474464
1.8298553158814712 0.9226780188604886 0.33379137379806406 0.5733859232229188
0.7310645353876528 0.5958285731728001 0.040300466608116446 0.09493549560673635
0.28690099223986143 0.28884118556704624 -0.0006211945395233565 -0.0013189987876614966
0.10393292956237844 0.10393292956237844 0.0 0.0
0.023639681862909056 0.023639681862909056 0.0 0.0
0.0029008442997265817 0.0029008442997265817 0.0 0.0
0.0008833990224005094 0.0008833990224005094 0.0 0.0
0.017240717580026495 0.017240717580026495 0.0 0.0
0.10861967939173879 0.10861967939173879 0.0 0.0
0.35253425932207827 0.3477741252348374 0.0005055175826561959 0.004254616504584632
0.9661502174505904 0.7278213886602446 0.07939053891584931 0.15893828987449665
2.331891448756497 1.1333533454842342 0.45945328757564163 0.7390848156966202
4.844809864023201 1.595515901906006 1.3928718329886416 1.8564221291285532
8.954677970019526 2.1957254462445555 3.1719439108276086 3.5870086129473657
15.021506138401751 2.9563303688471194 6.047457986856829 6.017717782697807
23.349574875321004 3.9087560473428185 10.264253859597702 9.176564968380468
34.06722635885854 5.074680034924244 15.953928929932196 13.038617394002108
47.08104064451363 6.46246543263958 23.059738417090962 17.55883679478309
62.482092412594554 8.051090953327622 31.741643823758157 22.689357635508777
80.12647358307478 9.7844888194615 41.963799126685956 28.37818563692732
99.55250347435943 11.428141065366239 53.608410833398125 34.51595157559505
119.75576059045362 12.583482105444983 66.29771985829998 40.87455862670869
139.0463078210836 12.807131802593357 79.15030651984199 47.088869498648286
155.4450374967734 12.006891861532061 90.86126763452336 52.57687800071793
166.91375031056793 10.795009308730872 99.55546726640884 56.563273735428275
162.88095378304916 4.19590334371967 101.26619503486086 57.418855404468594
227.6942736320974 73.1977530704209 98.49918967922912 55.99733088244746
162.8809537830311 4.1959033437357345 101.26619503483742 57.418855404457965
166.91375031050526 10.795009308725636 99.55546726636906 56.56327373541047
155.4450374966891 12.00689186153202 90.86126763446605 52.576878000691174
139.046307820984 12.807131802590625 79.15030651977638 47.088869498617015
119.75576059035237 12.583482105442805 66.29771985823358 40.87455862667592
99.55250347425815 11.428141065362404 53.60841083333387 34.5159515755619
80.1264735829665 9.784488819441558 41.96379912662849 28.378185636896465
62.48209241248828 8.051090953304898 31.74164382370506 22.68935763547835
47.08104064442819 6.462465432633198 23.059738417041828 17.558836794753145
34.06722635878193 5.074680034911394 15.953928929893706 13.038617393976843
23.349574875263126 3.908756047334321 10.26425385956894 9.17656496835987
15.021506138362163 2.956330368843937 6.047457986836614 6.017717782681619
8.95467796999078 2.1957254462396962 3.17194391081519 3.5870086129358945
4.844809864006027 1.5955159019020724 1.3928718329823657 1.8564221291215903
2.3318914487486895 1.133353345484179 0.4594532875724596 0.7390848156920509
0.966150217447436 0.7278213886585337 0.07939053891529926 0.15893828987360298
0.35253425932153615 0.347774125234373 0.0005055175826393565 0.00425461650452366
0.10861967939158294 0.10861967939158294 0.0 0.0
0.017240717579923296 0.017240717579923296 0.0 0.0
0.0008833990224082801 0.0008833990224082801 0.0 0.0
CELL_DATA 800
SCALARS Stress float 6
LOOKUP_TABLE default
164.48624352415356 -516.4652403296707 -181.92724165587293 -109.2119900349658 0.0 0.0
401.1548277518052 -65.27372147042962 116.06952300568722 56.15015368074334 0.0 0.0
406.00329761776436 9.324281702516739 124.40208779117958 -3.2208671784432186 0.0 0.0
465.4539111484358 -12.757180511111004 143.3990460921194 -14.762362108358934 0.0 0.0
541.6383249438657 -18.265597514193423 196.8918229727657 -11.590347323803197 0.0 0.0
614.5003211821947 -13.250526156089236 268.5324995764677 -10.09595396773122 0.0 0.0
685.1195262803425 -6.61125271419283 326.76937935940066 -10.510484264145854 0.0 0.0
756.2006257604793 7.836031401234777 376.5887918564159 -12.026442306812335 0.0 0.0
829.5198522726193 29.971873035283366 426.28512190402296 -13.647150374219766 0.0 0.0
905.0904357711597 58.950925843773135 479.2742216599275 -14.766221122926764 0.0 0.0
981.4774669634569 92.64442611825335 534.7455979793581 -15.254312990717658 0.0 0.0
1057.374426368203 129.8303003706195 591.6079629746987 -15.190017158334719 0.0 0.0
1132.7868682805633 169.2079517296808 649.227988361195 -14.973855361876929 0.0 0.0
1208.5566862747276 211.3663757868788 708.3414864503006 -14.68044916848955 0.0 0.0
1285.3243738888502 257.03651817800835 769.6667832664128 -14.182288716870078 0.0 0.0
1362.4531496860345 305.8173497438531 832.7038249746843 -13.287645189677107 0.0 0.0
1437.6080049542904 355.9818266160166 895.4339257061077 -11.841748558875823 0.0 0.0
1508.0008205740073 405.50906530627304 955.4414046295083 -10.027914320478029 0.0 0.0
1571.989968766932 453.7199201914825 1011.5094523571103 -9.0986610899141 0.0 0.0
1657.961672941742 531.0155374137573 1092.611246296199 -13.770359043621113 0.0 0.0
1657.961672942271 531.0155374143138 1092.611246296549 13.770359043691236 0.0 0.0
1571.98996876695 453.7199201915487 1011.5094523570765 9.098661089913133 0.0 0.0
1508.0008205725942 405.50906530492614 955.4414046284951 10.02791432052113 0.0 0.0
1437.6080049531433 355.98182661496696 895.4339257052918 11.84174855887866 0.0 0.0
1362.4531496866402 305.81734974458783 832.7038249750753 13.287645189667863 0.0 0.0
1285.3243738884605 257.0365181777648 769.6667832660576 14.182288716890461 0.0 0.0
1208.5566862735498 211.36637578584975 708.3414864494107 14.680449168454821 0.0 0.0
1132.7868682806093 169.20795172993073 649.2279883611702 14.973855361911589 0.0 0.0
1057.3744263686547 129.83030037129518 591.6079629750055 15.19001715835898 0.0 0.0
981.4774669644213 92.64442611947737 534.7455979799929 15.254312990652515 0.0 0.0
905.090435771153 58.950925844015245 479.2742216598223 14.766221122900305 0.0 0.0
829.5198522722361 29.9718730351631 426.2851219037022 13.647150374235594 0.0 0.0
756.2006257602102 7.836031401243389 376.5887918562055 12.026442306780874 0.0 0.0
685.1195262800023 -6.611252714262392 326.76937935913793 10.510484264178718 0.0 0.0
614.5003211819819 -13.250526155990414 268.532499576225 10.09595396777726 0.0 0.0
541.6383249439347 -18.26559751379874 196.8918229727518 11.590347323969393 0.0 0.0
465.453911148127 -12.757180511164307 143.39904609198703 14.762362108410892 0.0 0.0
406.00329761768035 9.324281702580954 124.40208779117677 3.2208671786004808 0.0 0.0
401.1548277516839 -65.27372147036257 116.06952300562726 -56.150153680737446 0.0 0.0
164.48624352468138 -516.4652403292027 -181.92724165537714 109.21199003463886 0.0 0.0
64.43082570240352 -544.9689981970623 -242.4806591111759 -156.48391383997313 0.0 0.0
264.8317214396029 -53.673314786122916 63.40247106220493 10.132541404849913 0.0 0.0
355.80107587420366 30.305472201161532 115.83032376290787 -9.91149927577502 0.0 0.0
429.4816142073107 -10.56668489990144 128.1142365755656 -34.77204021071452 0.0 0.0
513.2668843341086 -18.793057138042304 174.72281214402346 -32.95703299772471 0.0 0.0
590.6858961079869 -14.239314964992385 247.60965937185478 -29.86644106802506 0.0 0.0
665.0444959158788 -7.403710483775988 312.12066751844736 -30.642104862368768 0.0 0.0
737.1238727866581 6.683369389956006 364.95950848527207 -32.93188178895971 0.0 0.0
809.2207020845301 27.46758486424926 414.2880971219281 -35.412169671959944 0.0 0.0
881.8444477159576 53.918155769460654 464.82346275314967 -36.821606362286644 0.0 0.0
953.9028394509746 84.02307734463768 516.4529697983303 -36.977557391483 0.0 0.0
1024.9331582593045 116.46868201814591 568.5569651368553 -36.348106223206976 0.0 0.0
1095.20817788422 151.56743204307844 621.4919995643561 -35.46701578295359 0.0 0.0
1165.7235141188614 189.20514589098076 675.7450252192081 -34.474940294008306 0.0 0.0
1236.7364765521893 229.59277961447452 731.5780545982348 -33.1376762308099 0.0 0.0
1307.7506277503896 272.5915560804001 788.6863263046325 -31.052937947406555 0.0 0.0
1377.5711788896897 317.5232332981559 846.130024303922 -28.037961111192967 0.0 0.0
1445.0255905830325 364.0768719429551 903.1433283313931 -24.71797070952692 0.0 0.0
1514.9906960981211 418.4378850856765 965.152697663162 -22.521319004967648 0.0 0.0
1566.971141454218 461.47722001900036 1012.5154052988692 -21.13832893081522 0.0 0.0
1566.971141454801 461.4772200196064 1012.5154052992481 21.138328930854783 0.0 0.0
1514.990696097631 418.437885085229 965.1526976627388 22.521319004966912 0.0 0.0
1445.0255905826127 364.0768719426155 903.1433283309538 24.717970709697322 0.0 0.0
1377.571178889446 317.5232332980193 846.130024303623 28.037961111273624 0.0 0.0
1307.7506277502823 272.5915560804106 788.6863263044905 31.052937947402782 0.0 0.0
1236.736476552419 229.59277961486225 731.5780545983262 33.13767623086979 0.0 0.0
1165.7235141196834 189.20514589196807 675.7450252197112 34.4749402939437 0.0 0.0
1095.2081778842241 151.56743204325994 621.4919995642322 35.46701578296063 0.0 0.0
1024.933158258542 116.46868201761379 568.5569651362628 36.34810622333454 0.0 0.0
953.9028394499135 84.023077343809 516.4529697976527 36.97755739157395 0.0 0.0
881.8444477164171 53.91815577018809 464.8234627534998 36.821606362339324 0.0 0.0
809.2207020842271 27.467584864203573 414.28809712177247 35.41216967198642 0.0 0.0
737.1238727857799 6.683369389325236 364.95950848469306 32.931881788846155 0.0 0.0
665.0444959157978 -7.403710483547258 312.1206675183265 30.642104862425004 0.0 0.0
590.6858961077585 -14.2393149649102 247.60965937161075 29.866441067961702 0.0 0.0
513.266884334063 -18.793057137717845 174.72281214396838 32.95703299780692 0.0 0.0
429.48161420721783 -10.566684899623464 128.11423657560596 34.772040210673765 0.0 0.0
355.801075874016 30.30547220083692 115.83032376275743 9.911499275764756 0.0 0.0
264.8317214396006 -53.673314785961914 63.4024710622544 -10.132541404966261 0.0 0.0
64.43082570271739 -544.9689981967878 -242.48065911085644 156.483913839656 0.0 0.0
13.232199937189364 -552.1096772649088 -264.7037804711265 -171.15907516922084 0.0 0.0
150.29058668370592 -44.96129478614943 31.598787569266943 -43.94565831223201 0.0 0.0
289.29333824708254 34.017133463947886 96.99314151330913 -33.49467617857184 0.0 0.0
383.03189395151367 -1.9190707276802952 114.8843168035396 -54.42833731998571 0.0 0.0
475.75512001044507 -17.51461937754771 152.67462526156748 -56.4832903718975 0.0 0.0
563.4497045212315 -16.848578847318265 222.23860734571747 -51.47014257232004 0.0 0.0
640.838901938026 -7.352532178674082 294.18556270627505 -51.10562591177489 0.0 0.0
713.667118046963 5.606782508097204 350.40787264291396 -53.75551548638727 0.0 0.0
784.9232883923587 25.043872428183114 400.0967342770716 -56.69827377396008 0.0 0.0
854.5317468246308 48.653762385476156 448.1457171502172 -58.12976752314802 0.0 0.0
922.4012768520395 74.94484900136968 495.91898936738755 -57.90896964290674 0.0 0.0
988.540663294435 103.3402166414224 543.6153293078502 -56.72570309212328 0.0 0.0
1053.9763930196777 133.69057845900568 591.7908822455335 -55.345337300785474 0.0 0.0
1119.055429607297 166.55276592676077 640.971866851191 -53.71275956440235 0.0 0.0
1184.125216443747 201.47172474895572 691.1315024242199 -51.571946469414236 0.0 0.0
1249.086956729172 238.53864389522357 742.2661742127316 -48.51455587638568 0.0 0.0
1313.8191962457533 278.287892677456 794.5642810073055 -44.39958686766138 0.0 0.0
1379.6605570811619 323.0479883545085 849.8322096304462 -39.86114290344221 0.0 0.0
1441.5465182703429 368.8969285783231 903.6205156123041 -34.806428338115595 0.0 0.0
1485.2837495681997 402.7320309306806 942.3112930056255 -27.46848303439558 0.0 0.0
1485.2837495677238 402.7320309302262 942.3112930052852 27.468483034447555 0.0 0.0
1441.5465182706212 368.89692857865145 903.620515612482 34.806428338204675 0.0 0.0
1379.660557081787 323.0479883552525 849.8322096309369 39.8611429037074 0.0 0.0
1313.8191962456497 278.28789267745 794.5642810072227 44.39958686772553 0.0 0.0
1249.086956729712 238.53864389588125 742.266174213056 48.51455587631432 0.0 0.0
1184.125216444139 201.47172474951572 691.131502424455 51.57194646957884 0.0 0.0
1119.0554296071657 166.55276592680946 640.9718668509802 53.712759564500345 0.0 0.0
1053.9763930196207 133.69057845914168 591.7908822454331 55.3453373008263 0.0 0.0
988.5406632934361 103.34021664064394 543.6153293072025 56.725703092215674 0.0 0.0
922.4012768500089 74.94484899952448 495.918989366031 57.90896964280415 0.0 0.0
854.5317468248877 48.653762385979235 448.14571715033446 58.129767523114396 0.0 0.0
784.9232883925964 25.043872428713442 400.0967342771935 56.69827377400601 0.0 0.0
713.6671180469768 5.606782508429291 350.40787264290685 53.755515486474366 0.0 0.0
640.8389019372938 -7.352532179137057 294.1855627057465 51.10562591178091 0.0 0.0
563.4497045202615 -16.848578848090924 222.238607345025 51.47014257221021 0.0 0.0
475.7551200100406 -17.51461937773047 152.674625261322 56.483290371882646 0.0 0.0
383.0318939512716 -1.9190707277035672 114.88431680347536 54.428337319889074 0.0 0.0
289.29333824701615 34.01713346384621 96.99314151325869 33.49467617850351 0.0 0.0
150.2905866839029 -44.96129478575392 31.59878756944469 43.94565831213807 0.0 0.0
13.23219993735853 -552.109677264717 -264.70378047087513 171.15907516896158 0.0 0.0
-6.004159837401687 -539.4494449720959 -260.0764147853534 -173.30539062151362 0.0 0.0
87.45883910474849 -43.979396731762904 13.043832711895671 -89.70980022519998 0.0 0.0
226.313091146189 31.25002980258722 77.26893628463287 -64.85447372753036 0.0 0.0
330.62885552287787 6.019053042633316 101.00871039046359 -75.78240622863852 0.0 0.0
428.5370640606568 -15.156259717855658 130.97412848768892 -82.18348886404851 0.0 0.0
525.6434869945814 -17.601502343166803 193.8928023142007 -75.03259469669096 0.0 0.0
609.8112255933835 -8.621202369849566 269.96372509066475 -72.3318168740243 0.0 0.0
685.6178478259772 5.141169942533452 332.64532832090913 -74.60802149084208 0.0 0.0
755.7960042407639 22.47225773352713 382.96394410326235 -77.4745144209454 0.0 0.0
822.6080344406864 43.164151648495796 428.89055373698795 -78.69767596450151 0.0 0.0
886.4949752902746 65.74488587011558 473.0534431749138 -78.05661012824841 0.0 0.0
948.1610188804152 89.96312394392496 516.5129470239742 -76.40696846674174 0.0 0.0
1008.3725800978874 115.82266463848421 559.8784451514298 -74.52720352897684 0.0 0.0
1068.2787898790637 143.6786518638491 604.0118865481047 -72.36956932599468 0.0 0.0
1127.507414548372 172.9042050778939 648.4415018849579 -69.5459279203131 0.0 0.0
1186.1389740884156 204.02942149347655 693.4621181818989 -65.72041205915296 0.0 0.0
1245.9330808771874 238.62377867755976 740.7103498818054 -60.87534175344452 0.0 0.0
1306.6850161245975 277.7109770448148 790.6076294288094 -55.007021631498354 0.0 0.0
1363.2195093937885 317.09417803702814 838.5095257981266 -46.868964294707645 0.0 0.0
1404.0701649081234 346.34265351689385 873.4759559848401 -34.15400607876544 0.0 0.0
1404.0701649074242 346.342653516219 873.4759559843869 34.15400607882326 0.0 0.0
1363.2195093936004 317.09417803688405 838.5095257979843 46.8689642947578 0.0 0.0
1306.6850161249554 277.71097704527557 790.6076294290508 55.00702163169084 0.0 0.0
1245.9330808765785 238.62377867703515 740.7103498813196 60.87534175342286 0.0 0.0
1186.1389740873983 204.02942149253704 693.4621181810592 65.72041205909642 0.0 0.0
1127.507414547669 172.90420507734382 648.4415018842692 69.54592792041969 0.0 0.0
1068.2787898781553 143.67865186310232 604.0118865474342 72.3695693260182 0.0 0.0
1008.3725800978481 115.82266463864883 559.8784451514185 74.52720352905939 0.0 0.0
948.1610188804833 89.96312394418493 516.5129470239724 76.40696846665068 0.0 0.0
886.4949752899369 65.74488586998771 473.0534431746555 78.05661012823728 0.0 0.0
822.6080344401264 43.16415164815811 428.8905537366108 78.6976759644551 0.0 0.0
755.7960042399941 22.472257732987188 382.9639441027258 77.47451442087655 0.0 0.0
685.6178478251913 5.1411699419931125 332.645328320366 74.6080214908019 0.0 0.0
609.8112255932497 -8.621202369683225 269.963725090468 72.33181687390626 0.0 0.0
525.6434869945022 -17.60150234288954 193.8928023140618 75.03259469661782 0.0 0.0
428.53706406039635 -15.156259717775747 130.97412848759208 82.1834888639288 0.0 0.0
330.6288555229197 6.019053042919971 101.00871039056865 75.78240622852226 0.0 0.0
226.313091146185 31.2500298026953 77.26893628466408 64.85447372746631 0.0 0.0
87.45883910494331 -43.97939673138661 13.043832712067005 89.70980022494378 0.0 0.0
-6.004159837278294 -539.4494449718233 -260.07641478509197 173.30539062137487 0.0 0.0
-10.221717204518015 -515.3179474313613 -240.73483071183233 -170.9516636102253 0.0 0.0
52.049001454068225 -44.15412140976183 2.36846401329192 -125.33959028266672 0.0 0.0
172.13596928429976 25.608197407063578 59.323250007409 -96.47094553133506 0.0 0.0
275.12761634700706 10.817567665421883 85.78655552414892 -98.62268120599836 0.0 0.0
371.1216236300534 -10.342492584706111 110.66242058195493 -107.65600294709753 0.0 0.0
476.6434498418943 -17.659137792001474 163.43012203720838 -101.79239201232595 0.0 0.0
571.3106713706227 -10.333981588907774 239.70362957023048 -95.35905233938746 0.0 0.0
651.2424583852243 4.210019049830173 309.5128521314 -95.52117005073242 0.0 0.0
721.187058470031 20.00026906022059 362.2770589007862 -97.7778520709395 0.0 0.0
785.408955343549 37.474627743231956 406.5944847379535 -98.57730614653279 0.0 0.0
845.6643526819992 56.40982525005365 447.5226945376705 -97.45157122457424 0.0 0.0
902.7443702186624 76.46317335350437 486.75488295939056 -95.3368565743201 0.0 0.0
958.02885493087 97.78676695094458 525.4746772768996 -93.1080358945595 0.0 0.0
1012.245617217812 120.6374695225078 564.3058653970586 -90.42591905538545 0.0 0.0
1065.8027509028807 144.45950152899505 603.2352389329271 -87.0063106779218 0.0 0.0
1118.861437591068 169.55665422250286 642.4948743538696 -82.69874920261351 0.0 0.0
1172.0518195723294 197.5339877880862 683.1609919029038 -77.29148663079565 0.0 0.0
1226.752438788129 229.77803306467126 726.6231226455562 -70.26146735276616 0.0 0.0
1279.3334338295733 263.39913569055324 769.6666985677709 -59.36272419656215 0.0 0.0
1320.3423082671268 290.235274651476 803.4863429689066 -41.76700847311887 0.0 0.0
1320.3423082665613 290.23527465092855 803.4863429685093 41.76700847314409 0.0 0.0
1279.333433829044 263.39913569008297 769.6666985673276 59.36272419666393 0.0 0.0
1226.7524387879666 229.77803306461988 726.6231226453947 70.26146735295335 0.0 0.0
1172.0518195715179 197.53398778736403 683.1609919022678 77.29148663084086 0.0 0.0
1118.861437591461 169.55665422302252 642.4948743541447 82.69874920264037 0.0 0.0
1065.8027509031522 144.45950152940645 603.2352389332098 87.00631067794689 0.0 0.0
1012.2456172175504 120.6374695223802 564.3058653968775 90.42591905536558 0.0 0.0
958.028854930878 97.78676695120129 525.474677276871 93.10803589476109 0.0 0.0
902.744370218492 76.46317335350815 486.75488295915994 95.33685657426645 0.0 0.0
845.6643526818202 56.409825250104916 447.52269453744617 97.45157122459503 0.0 0.0
785.4089553435729 37.474627743446504 406.59448473795476 98.57730614640234 0.0 0.0
721.1870584692407 20.00026905962406 362.2770589002716 97.77785207083414 0.0 0.0
651.2424583847737 4.21001904964271 309.5128521310532 95.5211700506513 0.0 0.0
571.3106713696991 -10.333981589605955 239.70362956956257 95.35905233932837 0.0 0.0
476.6434498411699 -17.659137792498168 163.4301220367225 101.79239201225069 0.0 0.0
371.121623629639 -10.342492584775824 110.66242058180073 107.65600294691544 0.0 0.0
275.127616347067 10.817567665618682 85.7865555242322 98.62268120588033 0.0 0.0
172.13596928416527 25.608197406920528 59.323250007325726 96.47094553109166 0.0 0.0
52.04900145412374 -44.15412140968923 2.3684640133303514 125.33959028250017 0.0 0.0
-10.221717204520488 -515.3179474311858 -240.73483071163022 170.951663610149 0.0 0.0
-7.662511541722694 -483.50297427348994 -213.04559076992416 -167.36249963911285 0.0 0.0
30.666777930301613 -43.796892432545924 -3.939034350673292 -151.86814793217022 0.0 0.0
125.93699990512995 19.16558174713543 43.5307744956796 -124.38650512566122 0.0 0.0
218.97686300944085 12.732813075583653 69.50892636692379 -121.5141924250764 0.0 0.0
307.4231042527187 -4.331453360969086 91.6658017443897 -131.08294825072082 0.0 0.0
411.5962734703121 -16.446571090608284 131.7963571298256 -130.83686330684284 0.0 0.0
517.9530602268799 -10.960137223657771 202.94989971612674 -121.22062198319288 0.0 0.0
606.4015085992266 1.9221621991946485 277.61833726039595 -117.45236069446094 0.0 0.0
679.4394186907496 17.181423548775648 336.189932829645 -117.8734652163535 0.0 0.0
741.818395561282 31.76075301181249 380.4110552951554 -117.77855421425105 0.0 0.0
798.3962629246907 46.84686032994756 418.379935097959 -116.11775682419156 0.0 0.0
851.2377366460347 62.90331987864246 453.7917562678075 -113.5684863881435 0.0 0.0
901.4076792046533 79.8026690632058 487.8832616353962 -110.96771767424966 0.0 0.0
950.0882162177346 97.43861584898187 521.4173553039532 -107.99759282346419 0.0 0.0
998.2622271042806 116.01929103961439 555.0703042101226 -104.12317539971791 0.0 0.0
1045.1786956706928 135.5168254627238 588.5095701320475 -99.23252435331925 0.0 0.0
1091.4711196135115 155.88601746072993 621.9905826204341 -93.50046509218151 0.0 0.0
1138.9944132901248 179.70032478485564 657.6759238361064 -85.80716812392565 0.0 0.0
1187.8318419555021 207.37807524193005 695.8510036794543 -72.79606017020699 0.0 0.0
1231.3641559290688 233.0583788075316 730.2967145551776 -50.92069104611265 0.0 0.0
1231.3641559292737 233.05837880779538 730.2967145554124 50.920691046269056 0.0 0.0
1187.8318419560378 207.37807524258005 695.8510036799426 72.79606017051206 0.0 0.0
1138.9944132914547 179.70032478636477 657.6759238370801 85.80716812421251 0.0 0.0
1091.4711196137373 155.8860174611271 621.9905826206137 93.50046509238368 0.0 0.0
1045.178695670396 135.51682546252252 588.5095701318077 99.23252435333836 0.0 0.0
998.2622271039554 116.01929103944107 555.0703042098503 104.1231753997754 0.0 0.0
950.0882162170321 97.43861584849697 521.4173553034291 107.99759282362776 0.0 0.0
901.4076792040173 79.80266906279198 487.88326163493855 110.96771767436627 0.0 0.0
851.237736646183 62.90331987892685 453.7917562678505 113.56848638804016 0.0 0.0
798.3962629240824 46.84686032948882 418.3799350975105 116.11775682409919 0.0 0.0
741.8183955608791 31.760753011554357 380.4110552947741 117.77855421411863 0.0 0.0
679.4394186907215 17.18142354910077 336.1899328295837 117.87346521642334 0.0 0.0
606.4015085987155 1.922162198907614 277.61833725995933 117.45236069434232 0.0 0.0
517.9530602265246 -10.96013722360727 202.9498997158278 121.22062198323758 0.0 0.0
411.59627346999423 -16.446571090495468 131.79635712967684 130.83686330678879 0.0 0.0
307.42310425233995 -4.331453361069809 91.66580174425161 131.0829482505218 0.0 0.0
218.97686300951023 12.732813075838806 69.50892636702255 121.51419242500234 0.0 0.0
125.93699990514007 19.16558174723738 43.530774495713224 124.38650512548188 0.0 0.0
30.666777930317096 -43.796892432459984 -3.9390343506428676 151.868147932008 0.0 0.0
-7.6625115417122345 -483.5029742732851 -213.04559076969116 167.362499638978 0.0 0.0
-2.077730792868877 -445.5628257373959 -180.59865648370527 -163.87855809185066 0.0 0.0
15.651993371639204 -43.494915744370005 -8.352933295044698 -170.4574352038846 0.0 0.0
85.29235130753878 13.066635568301116 29.507696062751965 -146.975210327783 0.0 0.0
163.2124909444097 13.840646608385239 53.112817688151296 -142.52377641063254 0.0 0.0
240.12296862199926 0.4961866271546671 72.55429820904052 -151.8415303240365 0.0 0.0
333.75492688619033 -12.333432446539119 101.67225600969658 -159.2313727857092 0.0 0.0
445.94724641212855 -11.431198975813414 160.2991979165531 -150.74825038714914 0.0 0.0
546.4125813707207 -0.11366562330962715 235.57999869685844 -141.60974288018656 0.0 0.0
625.6137233963889 13.224545759288414 300.3363672939373 -138.37343358281686 0.0 0.0
689.0401649042631 25.83840376801196 347.916717618297 -136.53257233862237 0.0 0.0
742.3737939517664 37.07573830547094 384.04073991387 -134.08813921752022 0.0 0.0
791.1767411082504 49.351605403243994 416.2236510998397 -131.10218794147286 0.0 0.0
836.3107328063122 61.809720985712374 445.8829755969597 -128.18535681004323 0.0 0.0
879.1604838468867 74.45241106660961 474.17956982873346 -125.00461831655937 0.0 0.0
921.232425554699 87.46602723315664 502.05326521105104 -120.91936663614828 0.0 0.0
963.4497075516899 101.81559732794767 530.6124345404057 -115.54632037247463 0.0 0.0
1002.5583595686791 114.90250711439887 556.9788797315615 -109.25335900325345 0.0 0.0
1040.885763775815 128.50642194990976 583.0373821366595 -101.50157181962372 0.0 0.0
1085.1880510651793 148.08061502886054 614.8413106626002 -87.68443967114072 0.0 0.0
1133.6115019917052 173.29220797079242 651.3762695840811 -62.52691944128835 0.0 0.0
1133.6115019906981 173.292207969821 651.3762695833742 62.52691944146021 0.0 0.0
1085.1880510638039 148.08061502761228 614.8413106616397 87.68443967145193 0.0 0.0
1040.8857637745648 128.50642194872444 583.0373821357673 101.50157181974691 0.0 0.0
1002.5583595677884 114.90250711365334 556.9788797309138 109.25335900339289 0.0 0.0
963.4497075517941 101.81559732823303 530.6124345404155 115.54632037259739 0.0 0.0
921.2324255563731 87.46602723505757 502.05326521214346 120.91936663630669 0.0 0.0
879.1604838476549 74.45241106765616 474.17956982933566 125.00461831669817 0.0 0.0
836.3107328060647 61.80972098563865 445.8829755968447 128.18535681012722 0.0 0.0
791.1767411079887 49.351605403075865 416.2236510996249 131.10218794137438 0.0 0.0
742.3737939521649 37.07573830615513 384.04073991411485 134.0881392175739 0.0 0.0
689.0401649044401 25.838403768503852 347.91671761841235 136.53257233864935 0.0 0.0
625.6137233960212 13.22454575922849 300.3363672936859 138.37343358283047 0.0 0.0
546.4125813701162 -0.11366562368173305 235.57999869636393 141.6097428801218 0.0 0.0
445.947246411775 -11.431198975671492 160.29919791634126 150.74825038719914 0.0 0.0
333.7549268857602 -12.333432446664016 101.67225600949524 159.23137278553907 0.0 0.0
240.12296862181196 0.49618662717561524 72.55429820899178 151.8415303238856 0.0 0.0
163.21249094438406 13.840646608548944 53.112817688193694 142.52377641049412 0.0 0.0
85.29235130763432 13.066635568573867 29.50769606286245 146.97521032751825 0.0 0.0
15.651993371646727 -43.49491574424947 -8.352933295006215 170.45743520369714 0.0 0.0
-2.0777307927748083 -445.56282573701617 -180.5986564834077 163.8785580917494 0.0 0.0
2.907447602204897 -402.96089464458146 -147.9239922965337 -161.27079555784215 0.0 0.0
1.621114545560863 -43.81729681248801 -12.658164384842648 -181.33974652814874 0.0 0.0
48.13541144269858 8.168885776760712 16.890886094590243 -164.2169163320919 0.0 0.0
108.71294752300471 15.061746403515444 37.13146783201925 -160.0293634921704 0.0 0.0
170.50093791878487 3.5483889534810915 52.43680776029399 -170.16501080620577 0.0 0.0
243.34014240251332 -6.008382445466146 73.33498633451015 -181.98060965173687 0.0 0.0
347.1994597269829 -9.576493235212077 114.39377310915074 -182.60762255337113 0.0 0.0
460.9492343856973 -2.0148218445384094 181.05108994943436 -170.19612422631275 0.0 0.0
552.0473623126879 8.677127203931727 249.32408558976525 -160.74179236459648 0.0 0.0
619.3475606404937 19.080898407138537 302.5143428302367 -155.33376471499253 0.0 0.0
672.1547890643535 27.02152542946845 340.2696574818517 -151.6784413683298 0.0 0.0
716.8125361818591 35.57331834443228 370.3109278494591 -148.0207867710862 0.0 0.0
756.9790839047325 44.074335858341136 396.387978741954 -144.72333792555503 0.0 0.0
793.8947076628627 51.74230648674653 419.686298661753 -141.43366628650634 0.0 0.0
829.6856405449425 59.14818621578124 441.84392786110783 -137.47793382610848 0.0 0.0
866.2334122580608 67.70757825298602 464.7005942817085 -131.81317352399842 0.0 0.0
901.6088739126759 75.86755500645835 486.8294262528016 -124.6199239903895 0.0 0.0
929.7895314327159 78.26585830678736 502.47165182921236 -116.8376998580745 0.0 0.0
964.0153079339474 84.49888611470189 522.5140235790423 -104.10045532848768 0.0 0.0
1018.8397818995761 108.5073214014991 561.3664597205128 -77.89359922526722 0.0 0.0
1018.839781899056 108.50732140097006 561.3664597201948 77.8935992252431 0.0 0.0
964.0153079345221 84.49888611539888 522.5140235795279 104.10045532873454 0.0 0.0
929.7895314331627 78.2658583073599 502.471651829542 116.83769985822309 0.0 0.0
901.6088739127276 75.86755500664438 486.8294262528534 124.61992399045997 0.0 0.0
866.2334122571993 67.70757825227528 464.7005942811031 131.81317352411162 0.0 0.0
829.685640542902 59.148186213686415 441.84392785966577 137.47793382597786 0.0 0.0
793.8947076622484 51.74230648619479 419.68629866133983 141.43366628648263 0.0 0.0
756.9790839036009 44.07433585741674 396.3879787412365 144.7233379256661 0.0 0.0
716.8125361814488 35.57331834405058 370.31092784911726 148.02078677096486 0.0 0.0
672.1547890647661 27.021525430198906 340.26965748211427 151.67844136837772 0.0 0.0
619.3475606404204 19.0808984073757 302.51434283014174 155.3337647150013 0.0 0.0
552.0473623124312 8.677127203945219 249.32408558953807 160.7417923645728 0.0 0.0
460.94923438577223 -2.0148218437941985 181.0510899494824 170.19612422645642 0.0 0.0
347.1994597268127 -9.576493234731073 114.39377310914536 182.60762255334873 0.0 0.0
243.34014240245668 -6.008382445079441 73.33498633459648 181.98060965155605 0.0 0.0
170.50093791870435 3.5483889536816573 52.436807760333565 170.16501080598096 0.0 0.0
108.71294752303331 15.061746403761802 37.13146783210511 160.0293634920166 0.0 0.0
48.13541144271818 8.168885776916877 16.89088609464348 164.21691633192455 0.0 0.0
1.621114545519109 -43.81729681243451 -12.65816438484051 181.3397465279581 0.0 0.0
2.9074476021892934 -402.9608946442647 -147.9239922963241 161.27079555780426 0.0 0.0
3.08937250466618 -356.46279055878176 -119.49215091906127 -157.68195145662122 0.0 0.0
-15.063902288842268 -45.91337694252067 -18.291808379048895 -186.94053301972605 0.0 0.0
13.332874446749235 5.310211738717771 5.592630013783123 -176.3374069632526 0.0 0.0
55.74816562393799 16.13309205729387 21.563263580869126 -173.4698527175325 0.0 0.0
98.96921604720579 7.124250936837395 31.973435290426387 -183.75866879064034 0.0 0.0
146.98184932917377 -1.5234664091382397 44.632229661717524 -199.25287944585727 0.0 0.0
219.54038755492886 -3.9480311764859097 68.99041015495469 -208.6812432289867 0.0 0.0
327.0990358557976 -1.6839974320411226 113.98962208765715 -203.3574132657599 0.0 0.0
435.2899115154207 4.68370505716814 174.48064469919342 -188.41958075077594 0.0 0.0
513.8640653908085 11.064888038337077 230.34273992803242 -176.1568854663326 0.0 0.0
569.0816072642103 17.060887193231054 273.1201308595636 -169.29823355925842 0.0 0.0
611.0243091684271 21.420920209654092 303.90046599104596 -164.6330198313689 0.0 0.0
646.5932070755359 26.316340311158257 328.75121902819546 -160.75529827659744 0.0 0.0
677.473577340194 29.62660018163983 348.66958680038954 -157.1983781173117 0.0 0.0
706.0927101668562 31.39735118599053 365.4590959292188 -153.41476153048703 0.0 0.0
735.6681239842161 33.05123676879788 381.82941670116213 -148.25787134387033 0.0 0.0
769.0937821261225 36.44234484928177 400.5510595236617 -140.24876380963366 0.0 0.0
797.1505471053797 34.80168170057121 414.45479495382864 -130.89099343585136 0.0 0.0
812.2724628799814 17.401364119833573 413.57718130987826 -120.9343372188849 0.0 0.0
870.4825909703651 32.781984288991225 449.00684013319585 -99.19877740756682 0.0 0.0
870.4825909703682 32.78198428905745 449.0068401332644 99.1987774077372 0.0 0.0
812.272462880258 17.401364120419657 413.57718131010824 120.93433721928332 0.0 0.0
797.1505471048016 34.801681699981174 414.4547949533381 130.89099343593253 0.0 0.0
769.0937821254066 36.4423448487656 400.55105952320514 140.24876380985108 0.0 0.0
735.6681239850788 33.05123676983942 381.8294167017812 148.2578713439006 0.0 0.0
706.0927101674347 31.39735118681142 365.4590959296527 153.4147615306345 0.0 0.0
677.4735773396426 29.62660018115014 348.66958679993917 157.1983781172653 0.0 0.0
646.5932070761737 26.316340312111095 328.7512190286054 160.7552982767892 0.0 0.0
611.0243091674115 21.420920208747148 303.9004659903894 164.63301983129264 0.0 0.0
569.0816072630507 17.060887191855414 273.1201308586851 169.29823355905643 0.0 0.0
513.864065390674 11.064888038462442 230.34273992787507 176.15688546633967 0.0 0.0
435.28991151531505 4.683705057522118 174.48064469912558 188.41958075087922 0.0 0.0
327.0990358552684 -1.683997432160158 113.98962208738942 203.35741326578304 0.0 0.0
219.540387554355 -3.948031176818545 68.99041015466774 208.68124322890736 0.0 0.0
146.98184932916433 -1.5234664088426655 44.63222966180606 199.25287944568737 0.0 0.0
98.96921604719483 7.1242509371038265 31.973435290503982 183.7586687903402 0.0 0.0
55.74816562395729 16.13309205732763 21.56326358088545 173.46985271738774 0.0 0.0
13.332874446697984 5.310211738598127 5.5926300137319735 176.3374069630404 0.0 0.0
-15.063902288925396 -45.9133769424684 -18.291808379059667 186.94053301958053 0.0 0.0
3.089372504672731 -356.462790558473 -119.49215091889522 157.6819514564806 0.0 0.0
-2.642507119856951 -306.9441007837594 -96.72988619070837 -150.7227648944899 0.0 0.0
-33.957841359112194 -49.884216960506905 -25.15007413158586 -189.69137078478664 0.0 0.0
-19.831171815976965 4.3458331906308825 -4.646279391714668 -183.87377726673157 0.0 0.0
4.255047804052105 17.048318934142813 6.393567473132094 -182.1797902838161 0.0 0.0
27.051085936541234 11.069965822695737 11.48382641369493 -191.89942915353 0.0 0.0
47.36616278968544 2.9354702276823703 15.416346864398031 -208.87302622227585 0.0 0.0
73.29600886833936 -0.4227179006526258 23.00163625513534 -223.78275244764495 0.0 0.0
117.61469824696364 0.47540666240067964 38.39911230058971 -228.42517206445245 0.0 0.0
188.58326913295213 4.114420351082785 65.17700268014337 -218.35139409304622 0.0 0.0
264.7183251646206 5.908706914190528 98.16583986754397 -203.0222837690413 0.0 0.0
329.27572071189053 8.728436861443853 134.12720201193028 -189.9342558197473 0.0 0.0
377.9496658833434 8.563018336756443 165.2677176420285 -182.18214365669897 0.0 0.0
411.3986486361652 9.467422466795554 190.37532260593582 -176.17927268597902 0.0 0.0
436.7241153839385 8.184718151634613 209.6289689480172 -171.56592944993346 0.0 0.0
459.55325859766486 4.49053351675613 224.78739828391477 -167.59042016853687 0.0 0.0
486.5061427884047 -1.376784859979523 238.7129542934486 -163.38859406542585 0.0 0.0
522.9279307548326 -6.195637562963071 255.75665909135387 -156.69213876342835 0.0 0.0
569.8292714556841 -6.859310455098694 279.28423542770304 -145.49173859537237 0.0 0.0
596.575356355956 -31.68233174625081 282.3090425428742 -132.94798035506764 0.0 0.0
626.5864274965667 -74.19231052563393 273.599520547035 -125.65352892098032 0.0 0.0
626.5864274964268 -74.19231052590351 273.59952054688523 125.65352892105463 0.0 0.0
596.5753563558987 -31.682331746184076 282.3090425428819 132.94798035549638 0.0 0.0
569.8292714554235 -6.859310455314954 279.2842354275697 145.49173859561216 0.0 0.0
522.9279307551653 -6.195637562475696 255.75665909161697 156.69213876349733 0.0 0.0
486.50614278790067 -1.3767848604417168 238.7129542931114 163.38859406538828 0.0 0.0
459.55325859761484 4.490533516438646 224.78739828378298 167.59042016836236 0.0 0.0
436.7241153838219 8.184718151284926 209.6289689479009 171.5659294499149 0.0 0.0
411.39864863555545 9.467422466026264 190.37532260551137 176.1792726860602 0.0 0.0
377.94966588291277 8.563018336141575 165.2677176416585 182.18214365653034 0.0 0.0
329.27572071204537 8.728436861607165 134.1272020119731 189.93425581963547 0.0 0.0
264.7183251644138 5.908706913796848 98.16583986729788 203.02228376884966 0.0 0.0
188.58326913282994 4.114420351243144 65.1770026801329 218.35139409315423 0.0 0.0
117.61469824670282 0.47540666204082704 38.39911230039163 228.42517206446848 0.0 0.0
73.29600886807609 -0.4227179008897579 23.001636254983485 223.78275244740723 0.0 0.0
47.36616278957374 2.9354702272831767 15.416346864242787 208.87302622206204 0.0 0.0
27.05108593637843 11.069965822431397 11.483826413566957 191.89942915331716 0.0 0.0
4.255047804234502 17.048318934290982 6.393567473231737 182.17979028367012 0.0 0.0
-19.831171815884712 4.345833190773838 -4.646279391644569 183.87377726653688 0.0 0.0
-33.95784135924562 -49.88421696057491 -25.150074131648108 189.6913707847183 0.0 0.0
-2.6425071199691867 -306.9441007835201 -96.72988619065065 150.72276489438954 0.0 0.0
-14.670616541723895 -257.55584949515065 -81.91971025117857 -140.03327110990674 0.0 0.0
-51.53144700962584 -52.399312317314525 -31.179938685881552 -189.72461521736102 0.0 0.0
-51.796209243861156 3.926772892705835 -14.369446092885305 -187.35997852071077 0.0 0.0
-45.69012680430224 17.8413862504689 -8.37261300421355 -186.02052904148437 0.0 0.0
-44.03790239067285 14.889733657007646 -8.809489540830391 -194.09333031323644 0.0 0.0
-53.158452627689684 7.543107322151285 -14.037290785884487 -209.8262539324486 0.0 0.0
-75.4297804917519 2.6415339152708928 -23.00597737112568 -223.934439099821 0.0 0.0
-118.22821574892437 -0.07171478541158294 -38.47335898834653 -228.58699996883257 0.0 0.0
-188.40416433880563 -3.962880882308717 -65.07072776268677 -218.42494484372403 0.0 0.0
-264.47608542716705 -5.761414564049286 -98.03389565662081 -203.00136854959777 0.0 0.0
-329.42378011221933 -7.592807922086784 -133.67469560013814 -189.83714833761033 0.0 0.0
-379.33056300116397 -6.975264013597936 -165.24358972310233 -181.74517264388075 0.0 0.0
-415.4548320443512 -8.785585822505496 -191.82529917945226 -175.632842678384 0.0 0.0
-443.1382838281571 -13.182822520185496 -214.6798197731042 -171.73968445941645 0.0 0.0
-462.51560181421934 -21.34136370877704 -234.55702628801262 -170.11721477176658 0.0 0.0
-471.12419161635285 -32.58715810681588 -250.67439733733568 -170.3874084954221 0.0 0.0
-459.6416151417971 -44.710178799813605 -259.31562203756647 -171.09034089679503 0.0 0.0
-398.8163369169295 -40.48347617416388 -245.14989946928105 -171.21135736609585 0.0 0.0
-216.30904367908022 -35.28607028727919 -181.28758252047598 -173.87592476785252 0.0 0.0
-3.4249977910337748 -175.09277089023178 -67.56178034542876 -156.49797538020198 0.0 0.0
-3.424997790086138 -175.09277088861236 -67.56178034475062 156.49797538053917 0.0 0.0
-216.30904367834228 -35.28607028547199 -181.28758251975958 173.87592476827245 0.0 0.0
-398.8163369177271 -40.48347617529575 -245.1498994699185 171.21135736626812 0.0 0.0
-459.64161514170144 -44.71017879992473 -259.31562203752185 171.0903408969191 0.0 0.0
-471.12419161591816 -32.587158106307896 -250.6743973369894 170.38740849538172 0.0 0.0
-462.5156018132046 -21.34136370779467 -234.55702628734488 170.1172147718037 0.0 0.0
-443.13828382752274 -13.182822519511163 -214.67981977260987 171.7396844593661 0.0 0.0
-415.4548320435481 -8.785585821863236 -191.8252991789139 175.63284267841772 0.0 0.0
-379.3305630007703 -6.975264013527905 -165.24358972281715 181.74517264381763 0.0 0.0
-329.4237801116252 -7.592807922490394 -133.67469559994032 189.8371483376838 0.0 0.0
-264.47608542666677 -5.761414564573435 -98.03389565651361 203.00136854955684 0.0 0.0
-188.40416433832615 -3.9628808824887223 -65.07072776255612 218.42494484383127 0.0 0.0
-118.22821574867447 -0.07171478572168866 -38.47335898835571 228.5869999688638 0.0 0.0
-75.42978049138287 2.6415339157288615 -23.0059773708702 223.93443909969454 0.0 0.0
-53.15845262713685 7.543107322930203 -14.037290785481519 209.82625393223836 0.0 0.0
-44.03790239058634 14.889733656921415 -8.809489540830654 194.09333031304578 0.0 0.0
-45.690126804037334 17.84138625073913 -8.372613004054791 186.02052904138384 0.0 0.0
-51.79620924376346 3.9267728928771493 -14.36944609280737 187.35997852047686 0.0 0.0
-51.53144700958629 -52.39931231717037 -31.17993868582934 189.7246152172465 0.0 0.0
-14.670616541794258 -257.5558494948995 -81.91971025114339 140.03327110973723 0.0 0.0
-24.1912494830339 -210.3743289984505 -70.36651592647696 -126.9905092422515 0.0 0.0
-66.18554980902285 -51.917904902252346 -35.43257841752582 -186.00109547953073 0.0 0.0
-82.35814802318282 3.3993743715428844 -23.70733336624196 -186.89276027072455 0.0 0.0
-94.04728254768723 18.432741293207933 -22.719426986181006 -185.0909053671972 0.0 0.0
-113.59836246190028 17.878639446349293 -28.96562683938506 -190.06051140989402 0.0 0.0
-151.69549843949866 11.53353286240849 -43.21101305297674 -201.61014043474194 0.0 0.0
-221.05455047814368 6.077467324084488 -68.93608550360868 -209.6467930273532 0.0 0.0
-326.94826893024447 1.9828550847600113 -113.95154313924047 -203.73468511425867 0.0 0.0
-434.95753932996473 -4.582036290399202 -174.32938597040442 -188.5549732602813 0.0 0.0
-513.5808087726998 -10.785560939319659 -230.1150822379731 -176.12162136593506 0.0 0.0
-568.7004132821698 -16.20400533814174 -272.61148363634777 -169.06761173076944 0.0 0.0
-610.9547053010313 -19.998156162180308 -303.2533335181183 -163.9371183583677 0.0 0.0
-647.9638577827773 -25.69670179284408 -329.03969732673215 -159.65009364851753 0.0 0.0
-682.1523366912079 -33.79686148496967 -352.7321140630616 -156.9136430376542 0.0 0.0
-714.7705538059151 -45.81883781730292 -376.5558425585285 -156.62558432674186 0.0 0.0
-744.2419859459487 -61.24109569590516 -400.11074353227093 -158.89426114498448 0.0 0.0
-765.7401678331793 -77.18023636445048 -420.02307449716926 -164.0745363315821 0.0 0.0
-775.0094580529483 -90.72386632643074 -432.6722759429781 -172.25046078927963 0.0 0.0
-810.4646512507479 -145.10895561680368 -478.6228104154272 -181.26196116228297 0.0 0.0
-810.5721209296892 -229.5356593182297 -522.5236959790591 -199.99769830327355 0.0 0.0
-810.5721209299321 -229.53565931868616 -522.523695979364 199.99769830357502 0.0 0.0
-810.4646512504726 -145.10895561660536 -478.62281041527456 181.2619611625871 0.0 0.0
-775.0094580518396 -90.72386632517052 -432.6722759421829 172.25046078933707 0.0 0.0
-765.7401678326993 -77.18023636414495 -420.0230744968569 164.07453633165824 0.0 0.0
-744.241985945721 -61.241095695777574 -400.11074353217293 158.89426114490453 0.0 0.0
-714.7705538059245 -45.8188378172043 -376.5558425584693 156.6255843265482 0.0 0.0
-682.15233669198 -33.79686148606574 -352.7321140635908 156.9136430377853 0.0 0.0
-647.9638577831477 -25.69670179369311 -329.03969732702524 159.6500936487193 0.0 0.0
-610.9547053004657 -19.99815616181776 -303.2533335177122 163.93711835832573 0.0 0.0
-568.7004132813857 -16.204005337430736 -272.6114836357144 169.0676117305756 0.0 0.0
-513.580808772217 -10.785560939124355 -230.11508223756127 176.12162136581344 0.0 0.0
-434.95753932993614 -4.582036291285419 -174.32938597049812 188.55497326051722 0.0 0.0
-326.948268929449 1.9828550850280777 -113.95154313882614 203.73468511431324 0.0 0.0
-221.0545504775926 6.077467324243015 -68.93608550336762 209.64679302721763 0.0 0.0
-151.69549843909425 11.533532862674964 -43.211013052766376 201.610140434518 0.0 0.0
-113.59836246166896 17.878639446417264 -28.965626839295748 190.06051140968742 0.0 0.0
-94.0472825475789 18.43274129306934 -22.719426986192374 185.0909053670629 0.0 0.0
-82.35814802315336 3.399374371425645 -23.70733336627213 186.89276027060322 0.0 0.0
-66.18554980904798 -51.917904902297074 -35.43257841755309 186.00109547939982 0.0 0.0
-24.191249482998447 -210.37432899827027 -70.36651592641424 126.9905092421877 0.0 0.0
-27.61838748207267 -166.22617584252222 -58.153368997378465 -112.62504638035549 0.0 0.0
-78.28151170184076 -48.96702208128909 -38.17262594111676 -178.25168062564285 0.0 0.0
-111.20663615634355 2.8909772920770576 -32.50313726810273 -182.3268750188285 0.0 0.0
-140.6789656537279 18.52042329925238 -36.708510112784225 -179.22868006352715 0.0 0.0
-181.11529652129667 19.52643558043909 -48.9750546177127 -180.3096600987465 0.0 0.0
-245.91106240133246 15.07264464833554 -71.84313740403354 -185.61976705924874 0.0 0.0
-346.79866591535847 11.364845419749903 -114.07969772821494 -183.84931878530986 0.0 0.0
-460.2585793202902 2.301024095863866 -180.75821523143748 -170.73600466992835 0.0 0.0
-551.8305642787128 -8.611404292948123 -249.1976225193901 -160.78659968519634 0.0 0.0
-619.1613523131209 -18.877126646127444 -302.36022862965 -155.30502628364206 0.0 0.0
-671.8598298701922 -26.403817886788914 -339.8704852883842 -151.46144181097142 0.0 0.0
-716.6044710516143 -34.420562109071696 -369.663733898032 -147.22373209634026 0.0 0.0
-757.7567318859041 -43.358230406438295 -396.34267588486307 -143.2345975994455 0.0 0.0
-797.5328384584175 -54.702867344742444 -422.74376556721893 -140.43246563662635 0.0 0.0
-837.6076409542036 -70.4662181428373 -451.14415617363323 -140.12354012693592 0.0 0.0
-876.3068767987602 -90.27448726542104 -480.84692113595077 -143.0565381449576 0.0 0.0
-910.7490406439251 -111.8388094636052 -509.32974656588664 -149.04768033807497 0.0 0.0
-949.4964634503478 -145.08440307599966 -545.7583908413413 -155.65087554017524 0.0 0.0
-992.310791940866 -194.1418548301794 -592.0964738303109 -161.7619316240014 0.0 0.0
-1084.6717661860398 -326.25392374197475 -703.2814690853162 -170.51415314070448 0.0 0.0
-1084.6717661860876 -326.25392374226806 -703.2814690853714 170.5141531410261 0.0 0.0
-992.3107919432094 -194.14185483303763 -592.0964738319266 161.76193162459873 0.0 0.0
-949.4964634507298 -145.0844030767412 -545.7583908415775 155.65087554047727 0.0 0.0
-910.749040642798 -111.8388094625661 -509.32974656503757 149.04768033809842 0.0 0.0
-876.3068767969964 -90.27448726366015 -480.84692113465525 143.0565381449175 0.0 0.0
-837.6076409536638 -70.46621814249518 -451.1441561732494 140.1235401270412 0.0 0.0
-797.5328384572637 -54.70286734369731 -422.74376556648076 140.43246563656476 0.0 0.0
-757.7567318855546 -43.35823040619406 -396.34267588464684 143.23459759943538 0.0 0.0
-716.6044710515016 -34.420562109379965 -369.66373389800066 147.22373209655697 0.0 0.0
-671.8598298700767 -26.403817887040073 -339.87048528832713 151.46144181099606 0.0 0.0
-619.161352312507 -18.877126645876913 -302.36022862926603 155.30502628364314 0.0 0.0
-551.8305642780571 -8.611404292590235 -249.197622518919 160.786599685194 0.0 0.0
-460.2585793199074 2.3010240957301713 -180.75821523113822 170.7360046699599 0.0 0.0
-346.79866591482335 11.364845419758687 -114.07969772793994 183.84931878524503 0.0 0.0
-245.91106240074853 15.072644648611798 -71.8431374037696 185.61976705907864 0.0 0.0
-181.11529652095933 19.526435580669364 -48.97505461754481 180.30966009855769 0.0 0.0
-140.6789656534726 18.520423299310433 -36.708510112695066 179.22868006331782 0.0 0.0
-111.20663615616036 2.8909772922129573 -32.50313726801243 182.326875018584 0.0 0.0
-78.2815117017866 -48.96702208119338 -38.17262594107233 178.251680625492 0.0 0.0
-27.618387481960582 -166.22617584232475 -58.15336899728559 112.62504638023593 0.0 0.0
-28.89330089658213 -126.03941340295054 -46.479814289859796 -97.7281773216765 0.0 0.0
-88.4118530918293 -43.809706788054214 -39.666330169354644 -166.19154374760348 0.0 0.0
-138.19774397008592 2.38141691983302 -40.7457428079547 -173.4703450951518 0.0 0.0
-185.45357423066716 17.5973196704324 -50.464419063166325 -168.62231598995456 0.0 0.0
-245.42451082477112 20.318983485355194 -68.33078690808117 -165.33857355927836 0.0 0.0
-332.5672219767211 19.442844138635834 -100.25501808891951 -163.37680492742678 0.0 0.0
-444.2788057471133 13.213477857285028 -159.3695726522855 -152.40738533507454 0.0 0.0
-545.9528112280607 0.2693052647523544 -235.2861368664453 -141.881994544512 0.0 0.0
-625.5644055942001 -13.247458206460657 -300.3228836825063 -138.36224686195624 0.0 0.0
-688.9296119304827 -25.70923788819904 -347.8236180295222 -136.51502434476672 0.0 0.0
-742.2357064849008 -36.70096815364545 -383.8054312840667 -133.88562067464548 0.0 0.0
-791.1022935574117 -48.607130411533504 -415.8252300139519 -130.2806939412852 0.0 0.0
-836.6460308283868 -61.019048618973144 -445.62197023947886 -126.48923292475713 0.0 0.0
-881.0288527898679 -75.66869265921048 -475.59523605156784 -123.51718548650055 0.0 0.0
-926.1320213615168 -94.55343671071287 -507.8393452374436 -123.05977546635276 0.0 0.0
-972.9312061627008 -119.54009924567453 -543.9575800908685 -126.09522724586145 0.0 0.0
-1022.2729773091896 -152.4274890723509 -585.319562446291 -131.6516744632441 0.0 0.0
-1075.7602176304085 -196.0435370730771 -634.1015600469468 -137.04186457561946 0.0 0.0
-1145.4448115549383 -266.22719474143105 -703.9080107711377 -139.05177881917635 0.0 0.0
-1239.9141339781213 -390.25693436426815 -812.8881875937711 -142.60882580920932 0.0 0.0
-1239.9141339779223 -390.2569343640896 -812.8881875936765 142.60882580930908 0.0 0.0
-1145.4448115549583 -266.2271947416036 -703.9080107711843 139.0517788194515 0.0 0.0
-1075.7602176294313 -196.04353707217135 -634.1015600462067 137.04186457575685 0.0 0.0
-1022.2729773095307 -152.42748907285213 -585.3195624464689 131.651674463362 0.0 0.0
-972.9312061629851 -119.54009924615032 -543.9575800910691 126.09522724594719 0.0 0.0
-926.1320213620851 -94.55343671139501 -507.83934523779135 123.05977546628864 0.0 0.0
-881.028852790172 -75.66869265980627 -475.5952360517699 123.51718548672271 0.0 0.0
-836.6460308279214 -61.01904861876141 -445.62197023912273 126.48923292483683 0.0 0.0
-791.102293556585 -48.60713041094725 -415.8252300133714 130.28069394132402 0.0 0.0
-742.2357064848321 -36.70096815367726 -383.8054312839339 133.8856206744347 0.0 0.0
-688.929611930456 -25.709237888598015 -347.823618029537 136.51502434484044 0.0 0.0
-625.5644055938063 -13.247458206416638 -300.3228836821813 138.3622468620096 0.0 0.0
-545.952811227636 0.2693052647306704 -235.28613686609856 141.88199454455463 0.0 0.0
-444.27880574601886 13.213477858205763 -159.36957265152483 152.40738533493078 0.0 0.0
-332.56722197622554 19.442844138726528 -100.25501808868702 163.37680492723376 0.0 0.0
-245.42451082464112 20.318983485014144 -68.33078690814767 165.3385735591101 0.0 0.0
-185.45357423049757 17.597319670304717 -50.464419063159625 168.62231598987313 0.0 0.0
-138.19774397000242 2.3814169197262856 -40.745742807966195 173.47034509505127 0.0 0.0
-88.41185309178147 -43.809706788107285 -39.66633016935635 166.19154374742683 0.0 0.0
-28.8933008965096 -126.0394134027742 -46.47981428978514 97.72817732154412 0.0 0.0
-29.692821482488824 -90.42491238840333 -36.03532016126764 -82.46572529730676 0.0 0.0
-97.43307198105292 -37.027796858522905 -40.33826065187274 -150.19333479338465 0.0 0.0
-163.46464145232446 1.9884486222064979 -48.44162559302074 -160.14830335281073 0.0 0.0
-228.59515528067138 15.876357170976535 -63.87766205302256 -153.68619641078405 0.0 0.0
-306.4336909762325 21.35392866769225 -86.98431262610671 -146.23494525740972 0.0 0.0
-408.66919751492577 21.82046601362613 -130.1666618960245 -135.6251263895711 0.0 0.0
-516.311141303231 12.456787825269103 -201.7741512987301 -122.23110759807754 0.0 0.0
-606.3010199259961 -1.9820110535217808 -277.5238967189026 -117.48878191214455 0.0 0.0
-679.4830697593718 -17.25115408387225 -336.2555447572147 -117.85896224876511 0.0 0.0
-741.8010599809288 -31.692735280197894 -380.37994825037583 -117.76619879743336 0.0 0.0
-798.44585821745 -46.72089108740877 -418.34079438829855 -115.91410621939606 0.0 0.0
-851.3860002582237 -62.631538210179855 -453.73017645816526 -112.79330146674774 0.0 0.0
-901.3093301383892 -79.01885068139418 -487.44956917186073 -109.33014844418594 0.0 0.0
-949.625789240157 -96.55584957645218 -520.7154761337108 -106.36862547818117 0.0 0.0
-999.5823130433589 -118.57582819150485 -556.8515011242257 -105.51647463705297 0.0 0.0
-1054.6254876672178 -149.95048210437704 -600.1420445443007 -107.91930154450793 0.0 0.0
-1117.0749508486551 -193.20544060200774 -653.1160319549994 -112.87426443285173 0.0 0.0
-1188.5741555808768 -252.34281618649797 -718.4875993886325 -116.9699768051494 0.0 0.0
-1270.7642076046654 -334.03248135096214 -800.3851109453539 -117.9577042569054 0.0 0.0
-1355.201869319212 -445.66554081358584 -898.4476195360465 -122.62529204009543 0.0 0.0
-1355.2018693198202 -445.6655408143063 -898.4476195364523 122.62529204032174 0.0 0.0
-1270.7642076048319 -334.0324813513611 -800.3851109454699 117.95770425729964 0.0 0.0
-1188.5741555800164 -252.34281618572803 -718.4875993880974 116.96997680527451 0.0 0.0
-1117.074950848255 -193.2054406017058 -653.1160319547462 112.87426443289247 0.0 0.0
-1054.6254876671405 -149.9504821044797 -600.1420445441918 107.91930154466323 0.0 0.0
-999.582313042316 -118.57582819058088 -556.8515011234551 105.51647463704424 0.0 0.0
-949.6257892391542 -96.55584957556803 -520.7154761330098 106.36862547811202 0.0 0.0
-901.3093301388346 -79.01885068205428 -487.44956917219764 109.33014844425563 0.0 0.0
-851.3860002584122 -62.631538210717004 -453.73017645836035 112.79330146694434 0.0 0.0
-798.4458582170404 -46.72089108716749 -418.3407943880025 115.91410621924479 0.0 0.0
-741.8010599801759 -31.692735279739384 -380.3799482498976 117.76619879745552 0.0 0.0
-679.4830697583509 -17.25115408302941 -336.25554475652683 117.85896224861273 0.0 0.0
-606.301019925656 -1.9820110535126894 -277.52389671860027 117.48878191212833 0.0 0.0
-516.3111413026326 12.456787825367012 -201.77415129829575 122.23110759818987 0.0 0.0
-408.66919751434534 21.82046601368738 -130.16666189571552 135.6251263895506 0.0 0.0
-306.43369097568245 21.35392866815458 -86.9843126258146 146.23494525730706 0.0 0.0
-228.5951552802332 15.876357171427408 -63.87766205276665 153.68619641060644 0.0 0.0
-163.46464145224314 1.9884486221043058 -48.44162559302758 160.1483033526486 0.0 0.0
-97.43307198092641 -37.027796858462594 -40.3382606518167 150.19333479326937 0.0 0.0
-29.69282148246874 -90.4249123882853 -36.03532016122621 82.46572529723845 0.0 0.0
-30.43900031711668 -59.88947883348774 -27.098543745181324 -66.78033046264575 0.0 0.0
-105.71815019674109 -29.20178239099286 -40.47597977632018 -130.67281339814204 0.0 0.0
-187.2756623815303 1.5972365555252281 -55.70134064198104 -142.49894321688785 0.0 0.0
-269.00947167098786 13.405437587515824 -76.81096951930132 -134.3577627126641 0.0 0.0
-362.93164165531095 22.724459415217506 -105.516824704235 -123.01112531127032 0.0 0.0
-472.02761081290953 21.630636355908226 -161.24528528463915 -106.24741292555942 0.0 0.0
-570.3112032981911 11.241358352460452 -238.78435027043253 -95.7117452739329 0.0 0.0
-651.3418434051546 -4.370467635775356 -309.59528200849735 -95.42829608290329 0.0 0.0
-721.2820633116106 -20.09128773797549 -362.3786001503117 -97.7784666777822 0.0 0.0
-785.4650637501318 -37.470872155800265 -406.61954317043853 -98.555648552007 0.0 0.0
-845.8735611799367 -56.49511190939529 -447.6573448294414 -97.23718044588018 0.0 0.0
-903.0508967780738 -76.57802507227 -486.9619107227493 -94.67121127254107 0.0 0.0
-957.5610193913535 -97.08899803332878 -524.924175613902 -91.79534631534429 0.0 0.0
-1009.8666398702146 -118.14799981483691 -561.9013332734293 -88.94239493517279 0.0 0.0
-1063.913363212192 -143.12918472547014 -601.5118512677792 -87.41718823559324 0.0 0.0
-1126.66256471823 -179.95979718041633 -651.282291737168 -88.77706585912706 0.0 0.0
-1201.6520363959748 -234.35093422365034 -715.9717701541763 -92.70854279948078 0.0 0.0
-1288.1338085548612 -307.5886596433018 -795.8549229547593 -96.63440530671136 0.0 0.0
-1377.2398121600627 -396.358006291519 -884.8375125765037 -99.41180962593103 0.0 0.0
-1455.639240315588 -500.5753701117493 -976.3076279149717 -107.6742455340137 0.0 0.0
-1455.6392403147893 -500.5753701109508 -976.3076279144939 107.67424553404928 0.0 0.0
-1377.2398121590413 -396.3580062905169 -884.8375125758243 99.41180962596233 0.0 0.0
-1288.1338085548464 -307.58865964338395 -795.8549229547236 96.6344053068067 0.0 0.0
-1201.6520363954755 -234.35093422322404 -715.9717701538768 92.70854279945672 0.0 0.0
-1126.6625647180513 -179.95979718038856 -651.2822917371063 88.77706585925097 0.0 0.0
-1063.9133632124476 -143.12918472595527 -601.5118512679564 87.41718823582008 0.0 0.0
-1009.8666398705964 -118.14799981540969 -561.9013332736768 88.94239493520864 0.0 0.0
-957.561019391112 -97.08899803328529 -524.9241756137291 91.79534631535351 0.0 0.0
-903.0508967783874 -76.57802507283192 -486.96191072296 94.67121127260725 0.0 0.0
-845.8735611802995 -56.49511191005729 -447.6573448296952 97.2371804459705 0.0 0.0
-785.4650637501014 -37.47087215610648 -406.6195431704542 98.55564855206843 0.0 0.0
-721.2820633118965 -20.091287738538522 -362.3786001504528 97.77846667767902 0.0 0.0
-651.3418434054973 -4.370467636442584 -309.5952820086104 95.42829608281725 0.0 0.0
-570.3112032981978 11.24135835202959 -238.7843502703004 95.71174527389397 0.0 0.0
-472.027610812612 21.630636355792824 -161.2452852843977 106.24741292543084 0.0 0.0
-362.9316416550133 22.72445941507224 -105.51682470417914 123.01112531125437 0.0 0.0
-269.00947167079397 13.405437587522982 -76.81096951925258 134.35776271253636 0.0 0.0
-187.27566238130805 1.5972365556772496 -55.70134064186959 142.4989432168104 0.0 0.0
-105.71815019662206 -29.201782391063844 -40.47597977630576 130.67281339803958 0.0 0.0
-30.439000317181662 -59.88947883354686 -27.09854374521855 66.7803304625262 0.0 0.0
-30.9781927948793 -34.89510271961439 -19.7619886543481 -50.610115327685506 0.0 0.0
-113.09030121968645 -20.8751452746153 -40.18963394829052 -108.0174357639749 0.0 0.0
-209.83664841531137 1.10867387274895 -62.61839236276872 -120.51784749990733 0.0 0.0
-308.34911445074283 11.041521993004206 -89.35899937858503 -111.44835651774802 0.0 0.0
-416.6151369612972 23.20322872053551 -125.26171532779347 -96.1094792649197 0.0 0.0
-522.2644574245195 20.51165060048838 -191.52272803584088 -78.12706288015072 0.0 0.0
-609.5804839839191 8.814497047238895 -269.6496671360051 -72.1683272559811 0.0 0.0
-685.7840949188665 -5.289737771310328 -332.79926330748594 -74.49086599979186 0.0 0.0
-755.9200627232733 -22.564976808561113 -383.07303482231777 -77.48223810977301 0.0 0.0
-822.7371912266003 -43.234504450994024 -428.98176745941487 -78.66266969212587 0.0 0.0
-886.7879157264908 -65.97079427195297 -473.29777228752107 -77.83794630244944 0.0 0.0
-948.4497591086185 -90.24776556333276 -516.7981692421499 -75.89495259688124 0.0 0.0
-1007.6809070516842 -115.254345513907 -559.2822036503985 -73.6634795575867 0.0 0.0
-1065.2590954814154 -140.86065062108074 -601.1399599466204 -71.25859543791071 0.0 0.0
-1123.3939253802862 -169.0747349029564 -644.4170763359355 -69.07488782119677 0.0 0.0
-1190.1751396735597 -209.1618024739019 -697.7595226516521 -68.72065902577782 0.0 0.0
-1275.8424519785622 -272.6620459009305 -772.2362337543601 -71.57863073896463 0.0 0.0
-1375.2217606278175 -357.99929867738217 -864.6214735355345 -76.44455777216916 0.0 0.0
-1473.423390161065 -455.93500529350325 -962.786971498823 -82.62613323341206 0.0 0.0
-1551.2216421583064 -558.6134500081354 -1053.2502966147285 -95.56900710456881 0.0 0.0
-1551.2216421585222 -558.6134500084459 -1053.2502966149088 95.56900710470498 0.0 0.0
-1473.4233901616517 -455.9350052941098 -962.7869714991825 82.6261332333536 0.0 0.0
-1375.2217606280174 -357.9992986776689 -864.6214735356107 76.44455777223678 0.0 0.0
-1275.8424519786736 -272.66204590116183 -772.2362337542729 71.57863073907279 0.0 0.0
-1190.175139672533 -209.1618024730108 -697.7595226509783 68.72065902583864 0.0 0.0
-1123.3939253794401 -169.0747349022505 -644.4170763354118 69.07488782122338 0.0 0.0
-1065.2590954809216 -140.86065062070773 -601.1399599462117 71.25859543777696 0.0 0.0
-1007.6809070514596 -115.25434551385298 -559.2822036501793 73.66347955755103 0.0 0.0
-948.4497591073822 -90.24776556229992 -516.7981692412582 75.89495259685782 0.0 0.0
-886.7879157245189 -65.97079427019345 -473.2977722861796 77.83794630242569 0.0 0.0
-822.7371912257571 -43.2345044503865 -428.9817674588095 78.66266969204865 0.0 0.0
-755.9200627232675 -22.564976808837443 -383.0730348222669 77.48223810971488 0.0 0.0
-685.7840949180734 -5.289737770786964 -332.7992633069285 74.49086599972057 0.0 0.0
-609.5804839833254 8.814497047512354 -269.64966713551826 72.1683272559104 0.0 0.0
-522.2644574240339 20.51165060057121 -191.52272803546163 78.1270628801117 0.0 0.0
-416.6151369610912 23.20322872021563 -125.26171532776266 96.10947926486632 0.0 0.0
-308.34911445089324 11.041521992184599 -89.3589993788883 111.44835651767188 0.0 0.0
-209.83664841537433 1.1086738722461469 -62.61839236293846 120.51784749984755 0.0 0.0
-113.0903012195757 -20.875145274659335 -40.18963394827051 108.0174357639194 0.0 0.0
-30.97819279491579 -34.89510271959991 -19.76198865435471 50.610115327617194 0.0 0.0
-30.68227925047192 -15.881570454925452 -13.96915491161921 -34.07811693487353 0.0 0.0
-118.7000396624372 -12.499449548064579 -39.35984676315053 -82.43712826017529 0.0 0.0
-231.48916776222856 0.20475171014865623 -69.38532481562396 -94.13364812656576 0.0 0.0
-347.3104550796811 9.999944519680582 -101.48764025942987 -84.96987938643083 0.0 0.0
-463.9819382886068 22.663631850201774 -146.39016816211267 -67.12045658325682 0.0 0.0
-561.6291210768904 17.849762698834056 -220.65967139274593 -52.94535475216507 0.0 0.0
-641.0582283832733 7.1595630803734664 -294.36638992387884 -50.81470610739796 0.0 0.0
-713.8609121025507 -5.723863265093215 -350.57169630168653 -53.641868731657446 0.0 0.0
-785.0558299826863 -25.127175461850868 -400.1985953324785 -56.70640394192603 0.0 0.0
-854.7184653689787 -48.79495012552549 -448.29872505207703 -58.0852866297807 0.0 0.0
-922.6850389763565 -75.22553291893716 -496.19000664577106 -57.71323487433992 0.0 0.0
-988.6547343280753 -103.58291332618643 -543.795484712207 -56.38397783900181 0.0 0.0
-1053.2096442805282 -133.2435222846689 -591.205333625594 -54.88281051158009 0.0 0.0
-1116.5673680885443 -164.5062811001156 -638.7350003654728 -53.06139727455463 0.0 0.0
-1180.0784086531849 -197.8221956702385 -687.2719386092022 -50.69176984746058 0.0 0.0
-1248.9482013086113 -238.99914927738854 -742.2371941849594 -48.63421685648487 0.0 0.0
-1335.4495928942267 -302.3766440014059 -816.964717975984 -49.72843472509321 0.0 0.0
-1449.7627583075505 -401.6515926578046 -923.7131591749296 -55.77225031668173 0.0 0.0
-1562.6730742932327 -513.4686624065789 -1036.2399286285931 -66.41973550534999 0.0 0.0
-1650.3361383865022 -624.3453875098187 -1135.769077363606 -84.94494324080897 0.0 0.0
-1650.3361383864403 -624.3453875097935 -1135.7690773635977 84.9449432408933 0.0 0.0
-1562.6730742926557 -513.4686624060538 -1036.239928628058 66.41973550543706 0.0 0.0
-1449.762758306766 -401.65159265713 -923.7131591743075 55.77225031685201 0.0 0.0
-1335.449592893396 -302.37664400067274 -816.9647179753379 49.72843472516347 0.0 0.0
-1248.9482013082752 -238.999149277201 -742.2371941845844 48.634216856595856 0.0 0.0
-1180.078408653364 -197.82219567056862 -687.2719386091305 50.69176984748836 0.0 0.0
-1116.5673680874181 -164.50628109916363 -638.7350003646839 53.06139727458452 0.0 0.0
-1053.2096442787333 -133.24352228301746 -591.2053336244435 54.88281051140857 0.0 0.0
-988.6547343275193 -103.58291332585188 -543.7954847118178 56.38397783901048 0.0 0.0
-922.6850389759886 -75.22553291882161 -496.1900066454987 57.71323487438692 0.0 0.0
-854.7184653685612 -48.79495012534976 -448.29872505177906 58.08528662965643 0.0 0.0
-785.0558299822274 -25.1271754616592 -400.19859533218914 56.706403941891445 0.0 0.0
-713.8609121018002 -5.723863264654177 -350.57169630120165 53.641868731668566 0.0 0.0
-641.0582283831814 7.159563080112946 -294.36638992371155 50.81470610737943 0.0 0.0
-561.629121076521 17.849762698847645 -220.65967139241025 52.94535475218086 0.0 0.0
-463.9819382880142 22.663631850461417 -146.39016816176465 67.12045658318205 0.0 0.0
-347.31045507951814 9.999944519348258 -101.48764025949647 84.96987938629408 0.0 0.0
-231.48916776217945 0.20475170986469315 -69.38532481569442 94.13364812642058 0.0 0.0
-118.70003966234488 -12.499449548140902 -39.359846763145725 82.43712826014966 0.0 0.0
-30.68227925043076 -15.881570454825841 -13.96915491157698 34.07811693485645 0.0 0.0
-28.25423698387589 -3.215717346121392 -9.440986298999183 -17.700973252701488 0.0 0.0
-120.8383274160806 -4.661794622666621 -37.65003661162416 -53.89800789878086 0.0 0.0
-252.59332564159027 -1.047681952801641 -76.09230227831756 -62.8260797214632 0.0 0.0
-387.8788563285651 10.377557807278755 -114.00576682674819 -55.02675371874114 0.0 0.0
-503.3207515184371 21.724797265129386 -168.34819114803548 -38.97548318291345 0.0 0.0
-590.3345202991738 13.898660345302496 -247.07732741383018 -30.294761615133382 0.0 0.0
-665.5632641192581 6.979552205641497 -312.64310285024317 -30.403993744563756 0.0 0.0
-737.2473503244074 -6.759874341007702 -365.0681885021319 -32.83704040837153 0.0 0.0
-809.352821551324 -27.538437503845216 -414.3801776068115 -35.41636108592516 0.0 0.0
-882.0679569592718 -54.11846328135553 -465.02533259706576 -36.77826258066247 0.0 0.0
-954.098656310326 -84.2761313871633 -516.6724588612072 -36.839610272930116 0.0 0.0
-1024.821048923002 -116.56239926723615 -568.550319205316 -36.166608505799914 0.0 0.0
-1094.4846144914736 -151.23698086733205 -620.970804491179 -35.27262532239893 0.0 0.0
-1164.3025871121513 -188.34871486903748 -674.60741454044 -34.148399092273976 0.0 0.0
-1234.9201825369323 -228.4843683646764 -730.1005377867086 -32.326662108392135 0.0 0.0
-1306.9692352993022 -272.820723060256 -788.3225018831923 -29.565062001707865 0.0 0.0
-1386.6016538327074 -328.87415459566773 -856.0043698149507 -28.048434006831325 0.0 0.0
-1492.2475145858823 -418.0575203253476 -953.1461185693722 -33.34554263907513 0.0 0.0
-1652.2122931614508 -574.5178858635176 -1111.4978495750534 -48.92964485247473 0.0 0.0
-1762.501883169768 -705.3695334047519 -1232.4519065145844 -74.84041347531092 0.0 0.0
-1762.5018831705252 -705.3695334055233 -1232.4519065150644 74.84041347532111 0.0 0.0
-1652.2122931613794 -574.5178858634921 -1111.4978495749842 48.92964485250278 0.0 0.0
-1492.2475145866765 -418.0575203262464 -953.1461185700846 33.34554263925233 0.0 0.0
-1386.6016538325648 -328.8741545956212 -856.0043698148295 28.048434006740177 0.0 0.0
-1306.9692352985944 -272.8207230596602 -788.3225018826172 29.565062001649572 0.0 0.0
-1234.9201825356413 -228.4843683635183 -730.1005377857192 32.32666210834404 0.0 0.0
-1164.3025871118639 -188.3487148689172 -674.6074145401301 34.14839909231231 0.0 0.0
-1094.4846144914504 -151.23698086749368 -620.9708044910215 35.272625322284455 0.0 0.0
-1024.821048922159 -116.56239926660415 -568.5503192046781 36.16660850575804 0.0 0.0
-954.0986563101677 -84.27613138725513 -516.6724588611025 36.83961027286418 0.0 0.0
-882.0679569594348 -54.1184632817536 -465.0253325971737 36.778262580458644 0.0 0.0
-809.3528215507098 -27.538437503498407 -414.3801776063708 35.41636108588929 0.0 0.0
-737.247350324307 -6.759874341231885 -365.0681885020222 32.83704040835924 0.0 0.0
-665.5632641186313 6.979552205959884 -312.6431028497775 30.403993744535953 0.0 0.0
-590.3345202987216 13.898660345400476 -247.07732741343963 30.29476161512164 0.0 0.0
-503.3207515178115 21.72479726548743 -168.34819114761893 38.97548318285705 0.0 0.0
-387.87885632808025 10.377557807390106 -114.00576682659498 55.026753718833604 0.0 0.0
-252.59332564131324 -1.0476819525609264 -76.09230227816224 62.826079721488824 0.0 0.0
-120.8383274160371 -4.66179462273948 -37.65003661163296 53.89800789885773 0.0 0.0
-28.254236983946747 -3.215717346169297 -9.440986299034812 17.70097325273992 0.0 0.0
-21.21148998085144 2.857514986626335 -5.5061924982675325 -2.745991501928147 0.0 0.0
-116.46298150878329 1.8081095109884746 -34.396461599338444 -21.853441724860847 0.0 0.0
-274.1731852811551 -2.321622104331267 -82.94844221564591 -25.518334150743414 0.0 0.0
-428.0850489513467 12.487599594502514 -127.61589739873904 -22.23209752818055 0.0 0.0
-536.6427732412243 19.241992366615207 -191.59238119904145 -13.299431157379889 0.0 0.0
-615.4274737908751 11.792288536749254 -269.33502410304555 -10.045756800724995 0.0 0.0
-685.633967750693 6.182404449026308 -327.2866989108962 -10.40617295281518 0.0 0.0
-756.3712456860667 -7.867918162197057 -376.70135465581143 -11.970148699676695 0.0 0.0
-829.6564872223219 -30.043324716057413 -426.37844012365395 -13.637277976251548 0.0 0.0
-905.3142268364106 -59.17500054875052 -479.490128793826 -14.741180223304042 0.0 0.0
-981.5653333569279 -92.83258787480608 -534.8837462257629 -15.202268249522822 0.0 0.0
-1057.0775955929757 -129.77405538488492 -591.4322619556269 -15.139265319443288 0.0 0.0
-1132.2104293437033 -169.0360884031876 -648.8447784107366 -14.906782865748324 0.0 0.0
-1208.296297373885 -211.72569366193022 -708.3665471570694 -14.455203299527277 0.0 0.0
-1286.2383951921959 -258.96642662128545 -771.0489639940496 -13.496782036654828 0.0 0.0
-1365.1214207720395 -310.33610449877756 -836.2353485909293 -11.678398133665333 0.0 0.0
-1442.2689591961903 -364.1895699322198 -901.7268976743703 -9.077960091495317 0.0 0.0
-1521.9660675565979 -426.6084362378507 -972.5828581327931 -9.745639470479677 0.0 0.0
-1639.7505592629182 -537.0633130769613 -1086.3259874603618 -25.463210279647 0.0 0.0
-1963.7313935164925 -875.0999022823344 -1417.940737890236 -61.63680204809807 0.0 0.0
-1963.7313935173775 -875.0999022832445 -1417.9407378909425 61.63680204811382 0.0 0.0
-1639.7505592631878 -537.06331307728 -1086.3259874605437 25.46321027966368 0.0 0.0
-1521.966067555598 -426.60843623693006 -972.5828581319217 9.745639470534822 0.0 0.0
-1442.2689591957148 -364.18956993184054 -901.7268976738914 9.077960091421293 0.0 0.0
-1365.1214207722721 -310.3361044991396 -836.2353485911074 11.678398133713873 0.0 0.0
-1286.2383951918591 -258.96642662109974 -771.0489639937883 13.496782036770606 0.0 0.0
-1208.2962973729161 -211.72569366112617 -708.3665471562881 14.455203299567057 0.0 0.0
-1132.2104293416037 -169.03608840127438 -648.8447784091509 14.90678286574925 0.0 0.0
-1057.0775955918602 -129.77405538399242 -591.4322619547956 15.139265319465693 0.0 0.0
-981.5653333558671 -92.83258787398911 -534.8837462249503 15.202268249549485 0.0 0.0
-905.3142268357709 -59.175000548383764 -479.4901287933507 14.74118022330098 0.0 0.0
-829.6564872220868 -30.043324716120097 -426.37844012349024 13.637277976256579 0.0 0.0
-756.3712456853023 -7.867918161723516 -376.70135465531854 11.970148699727247 0.0 0.0
-685.6339677498913 6.182404449503373 -327.2866989103709 10.406172952924596 0.0 0.0
-615.4274737910039 11.792288536243095 -269.3350241030132 10.045756800778197 0.0 0.0
-536.6427732412716 19.241992366162936 -191.5923811989951 13.299431157408609 0.0 0.0
-428.08504895097656 12.487599594491948 -127.61589739862313 22.232097528277123 0.0 0.0
-274.17318528099963 -2.3216221043500216 -82.94844221560487 25.518334150739143 0.0 0.0
-116.46298150856032 1.8081095111511374 -34.39646159922275 21.853441724856577 0.0 0.0
-21.21148998085585 2.8575149866133907 -5.506192498272736 2.745991502005009 0.0 0.0
SCALARS Strain float 6
LOOKUP_TABLE default
0.011778822606476443 -0.012846635083399227 0.0 -0.007108611424702926 0.0 0.0
0.002415500531541194 -0.001511599272967068 0.0 0.001188902857962637 0.0 0.0
0.0018246728587922763 -0.0007452135245693547 0.0 -4.130924010614656e-05 0.0 0.0
0.0023089498114783787 -0.0011167582580194901 0.0 -0.00021674947204547435 0.0 0.0
0.0035824247592950876 -0.0021418956584902116 0.0 -0.00027474511416414327 0.0 0.0
0.006204536700985133 -0.004464972111779986 0.0 -0.0004197382999509558 0.0 0.0
0.010449808227099577 -0.008439252921248475 0.0 -0.0006699144706596161 0.0 0.0
0.01659238908215504 -0.014311138184118777 0.0 -0.0010549950180513967 0.0 0.0
0.024773618224915972 -0.022202064530492116 0.0 -0.0015903419052573642 0.0 0.0
0.03497834299543433 -0.032091711828884595 0.0 -0.002231252636570813 0.0 0.0
0.04710132876278781 -0.04388359378066564 0.0 -0.002896857300935196 0.0 0.0
0.06101998773259068 -0.0574623623531636 0.0 -0.0035505455280979703 0.0 0.0
0.0766154499636367 -0.07271300434689376 0.0 -0.004198815068796907 0.0 0.0
0.09374100490086701 -0.08948447580384311 0.0 -0.0048389884690425156 0.0 0.0
0.11209978294329004 -0.10747572759262347 0.0 -0.005448265620706494 0.0 0.0
0.1311004831477332 -0.12609853449892405 0.0 -0.005908643434904048 0.0 0.0
0.14979296426048827 -0.14441491674593543 0.0 -0.00599845318290354 0.0 0.0
0.166903955141672 -0.16116605256065242 0.0 -0.0054873328062690074 0.0 0.0
0.18090910229967877 -0.1748346636170477 0.0 -0.0045906685958228 0.0 0.0
0.1896661953333808 -0.18310301842007748 0.0 -0.0050414960031027745 0.0 0.0
0.18966619533337 -0.1831030184200637 0.0 0.00504149600311099 0.0 0.0
0.18090910229964072 -0.1748346636170095 0.0 0.004590668595843339 0.0 0.0
0.1669039551416085 -0.16116605256059646 0.0 0.005487332806280776 0.0 0.0
0.14979296426040592 -0.14441491674585905 0.0 0.005998453182910701 0.0 0.0
0.131100483147646 -0.12609853449883346 0.0 0.0059086434348946115 0.0 0.0
0.11209978294320236 -0.10747572759253776 0.0 0.005448265620706216 0.0 0.0
0.09374100490077772 -0.08948447580376007 0.0 0.004838988469041183 0.0 0.0
0.07661544996354835 -0.07271300434680494 0.0 0.004198815068796491 0.0 0.0
0.061019987732505165 -0.057462362353075225 0.0 0.003550545528091642 0.0 0.0
0.04710132876271039 -0.0438835937805826 0.0 0.0028968573009297005 0.0 0.0
0.03497834299537195 -0.03209171182882198 0.0 0.0022312526365624308 0.0 0.0
0.0247736182248679 -0.02220206453044571 0.0 0.0015903419052552548 0.0 0.0
0.016592389082117465 -0.01431113818408214 0.0 0.001054995018047733 0.0 0.0
0.010449808227074475 -0.008439252921224716 0.0 0.0006699144706586169 0.0 0.0
0.006204536700970209 -0.004464972111765775 0.0 0.0004197382999504562 0.0 0.0
0.0035824247592888825 -0.002141895658483106 0.0 0.00027474511416547553 0.0 0.0
0.0023089498114765017 -0.001116758258018602 0.0 0.00021674947204602946 0.0 0.0
0.0018246728587918426 -0.0007452135245689662 0.0 4.1309240108200473e-05 0.0 0.0
0.0024155005315391054 -0.0015115992729652084 0.0 -0.0011889028579608607 0.0 0.0
0.011778822606465289 -0.01284663508338509 0.0 0.007108611424669564 0.0 0.0
0.00836264557618659 -0.009808683239398264 0.0 -0.00857699179768201 0.0 0.0
0.0013115184559980841 -0.0007623967005667143 0.0 0.00013299691347246068 0.0 0.0
0.0015597639693153906 -0.0005558902256388443 0.0 -0.00012883311518335772 0.0 0.0
0.0020270984615989238 -0.0009330401298329738 0.0 -0.00047256895493785755 0.0 0.0
0.0030428692116016252 -0.0017044759329214454 0.0 -0.0006182223435340362 0.0 0.0
0.005288588474269499 -0.0036404759932398 0.0 -0.0009739068199172141 0.0 0.0
0.009078009852237334 -0.007138486946336231 0.0 -0.001608418481435392 0.0 0.0
0.014634625454680382 -0.012417091953356607 0.0 -0.0025292300057965234 0.0 0.0
0.02204937488933785 -0.019547422121196423 0.0 -0.0037430465621186015 0.0 0.0
0.0312623147476551 -0.02846114261517796 0.0 -0.005144885722933201 0.0 0.0
0.04214655063089581 -0.03903779285770792 0.0 -0.006579852837441558 0.0 0.0
0.05459755785622534 -0.05117764024539673 0.0 -0.007958398073512202 0.0 0.0
0.06855171820963514 -0.06481518299065181 0.0 -0.00934219131036948 0.0 0.0
0.0839054959701618 -0.07984414859970368 0.0 -0.01075239869860073 0.0 0.0
0.100406856444378 -0.09601104182284814 0.0 -0.01209524328400341 0.0 0.0
0.1175541332107541 -0.11281607619048328 0.0 -0.013132881911132321 0.0 0.0
0.1345261590346443 -0.12944371016166079 0.0 -0.013429825008443863 0.0 0.0
0.15016514808134906 -0.1447406564996343 0.0 -0.012612684565694754 0.0 0.0
0.16288583531074752 -0.1570886727530536 0.0 -0.010849031704139422 0.0 0.0
0.17055411938008985 -0.1644721918465457 0.0 -0.00795404577113712 0.0 0.0
0.17055411938007833 -0.16447219184653106 0.0 0.007954045771159879 0.0 0.0
0.16288583531071232 -0.15708867275302119 0.0 0.010849031704175727 0.0 0.0
0.15016514808129341 -0.144740656499581 0.0 0.01261268456572262 0.0 0.0
0.1345261590345729 -0.12944371016159062 0.0 0.013429825008456797 0.0 0.0
0.1175541332106769 -0.11281607619040646 0.0 0.013132881911122163 0.0 0.0
0.10040685644429856 -0.09601104182276732 0.0 0.012095243284000579 0.0 0.0
0.08390549597008207 -0.0798441485996193 0.0 0.010752398698595789 0.0 0.0
0.06855171820955622 -0.06481518299057276 0.0 0.009342191310364956 0.0 0.0
0.0545975578561492 -0.05117764024532434 0.0 0.007958398073504513 0.0 0.0
0.042146550630826285 -0.03903779285764353 0.0 0.006579852837433342 0.0 0.0
0.03126231474759911 -0.028461142615118895 0.0 0.005144885722921044 0.0 0.0
0.02204937488929376 -0.019547422121153346 0.0 0.0037430465621126063 0.0 0.0
0.014634625454646666 -0.012417091953327075 0.0 0.0025292300057890293 0.0 0.0
0.009078009852215185 -0.007138486946314027 0.0 0.0016084184814323943 0.0 0.0
0.005288588474257172 -0.0036404759932282538 0.0 0.0009739068199138834 0.0 0.0
0.0030428692115966327 -0.0017044759329160053 0.0 0.0006182223435340362 0.0 0.0
0.0020270984615975984 -0.0009330401298311974 0.0 0.0004725689549371914 0.0 0.0
0.001559763969315231 -0.00055589022564001 0.0 0.0001288331151832467 0.0 0.0
0.0013115184559978066 -0.0007623967005660204 0.0 -0.000132996913474015 0.0 0.0
0.008362645576173333 -0.009808683239383189 0.0 0.008576991797653255 0.0 0.0
0.006191413700853916 -0.007798576216451608 0.0 -0.007949368553783365 0.0 0.0
0.0007714966942438534 -0.0004976405353102065 0.0 -0.0005712935580590162 0.0 0.0
0.0012499512787695274 -0.00040934405232084803 0.0 -0.00043543079032143384 0.0 0.0
0.0017582314169858823 -0.000766237136931136 0.0 -0.0007160060223206921 0.0 0.0
0.0025635307814730057 -0.0013417005296840756 0.0 -0.000918922649502496 0.0 0.0
0.004408744264007433 -0.0028710647979681703 0.0 -0.0013861467335312128 0.0 0.0
0.007716699922578958 -0.005861356057647704 0.0 -0.0023014759065761448 0.0 0.0
0.012655114452262597 -0.01051575090586665 0.0 -0.003660793361406456 0.0 0.0
0.01927394893029937 -0.01685382114010414 0.0 -0.005410200751533922 0.0 0.0
0.02747635906359691 -0.02477369661087625 0.0 -0.007400037922707214 0.0 0.0
0.03711994944861842 -0.03413341921817681 0.0 -0.009435143654580758 0.0 0.0
0.048110069102619876 -0.04483907668413245 0.0 -0.01139866441381529 0.0 0.0
0.060411390939404556 -0.056852475231956134 0.0 -0.013344998011379228 0.0 0.0
0.07397108529773255 -0.070117925172962 0.0 -0.01534464560644827 0.0 0.0
0.08860059571643486 -0.08444713882920096 0.0 -0.017285231296931935 0.0 0.0
0.10389558828044271 -0.0994358047307684 0.0 -0.018807183757743928 0.0 0.0
0.11916891098410032 -0.11439556824423924 0.0 -0.019375555060638316 0.0 0.0
0.1333607734774204 -0.12825569196728814 0.0 -0.01848890050217833 0.0 0.0
0.14493612321035165 -0.13950799528542968 0.0 -0.015662811233973617 0.0 0.0
0.1521326112471571 -0.14647195710014804 0.0 -0.010050225464558915 0.0 0.0
0.1521326112471453 -0.14647195710013872 0.0 0.010050225464594775 0.0 0.0
0.14493612321031984 -0.13950799528539637 0.0 0.015662811234025353 0.0 0.0
0.13336077347737127 -0.1282556919672353 0.0 0.018488900502218186 0.0 0.0
0.11916891098403856 -0.11439556824417796 0.0 0.019375555060655913 0.0 0.0
0.1038955882803747 -0.09943580473069735 0.0 0.01880718375773338 0.0 0.0
0.08860059571636436 -0.08444713882912813 0.0 0.017285231296928605 0.0 0.0
0.07397108529766219 -0.07011792517289228 0.0 0.015344645606445328 0.0 0.0
0.060411390939334814 -0.05685247523188641 0.0 0.013344998011373677 0.0 0.0
0.04811006910255283 -0.04483907668407028 0.0 0.011398664413801551 0.0 0.0
0.03711994944855734 -0.03413341921812618 0.0 0.00943514365456688 0.0 0.0
0.027476359063547146 -0.024773696610824736 0.0 0.007400037922689617 0.0 0.0
0.01927394893025941 -0.016853821140062397 0.0 0.005410200751523597 0.0 0.0
0.012655114452232857 -0.01051575090583623 0.0 0.00366079336139824 0.0 0.0
0.007716699922559966 -0.005861356057632161 0.0 0.002301475906570871 0.0 0.0
0.004408744263997011 -0.002871064797962619 0.0 0.0013861467335265498 0.0 0.0
0.002563530781469564 -0.0013417005296822992 0.0 0.0009189226495012193 0.0 0.0
0.001758231416985112 -0.000766237136931025 0.0 0.0007160060223195819 0.0 0.0
0.0012499512787694234 -0.0004093440523211811 0.0 0.00043543079032054566 0.0 0.0
0.0007714966942439783 -0.0004976405353087909 0.0 0.0005712935580577949 0.0 0.0
0.006191413700841308 -0.007798576216437779 0.0 0.007949368553759495 0.0 0.0
0.004672364349282143 -0.006283424388471848 0.0 -0.006755795542505716 0.0 0.0
0.0004836975415535433 -0.00037065099138378077 0.0 -0.0011662274029275999 0.0 0.0
0.000968787006600115 -0.0002991228921332967 0.0 -0.0008431081584578948 0.0 0.0
0.0014929214390667009 -0.0006176082011547512 0.0 -0.0009854994519427618 0.0 0.0
0.0021406495142500537 -0.001051939648589073 0.0 -0.0012004366915272513 0.0 0.0
0.0035991659337785073 -0.0021952963598472763 0.0 -0.001685236044798144 0.0 0.0
0.0063775597438956375 -0.004635252247267241 0.0 -0.002759114146573649 0.0 0.0
0.010676598451928213 -0.008629789759749373 0.0 -0.0044440034084265445 0.0 0.0
0.016473640194399 -0.014151175782243897 0.0 -0.0065831154248533474 0.0 0.0
0.02365016789758896 -0.0210608424179366 0.0 -0.008999503613026094 0.0 0.0
0.03204892156893198 -0.029198334960261363 0.0 -0.011461655934920656 0.0 0.0
0.0415789636396143 -0.03846968945991769 0.0 -0.013851070513224761 0.0 0.0
0.05222732062755682 -0.04885917324778122 0.0 -0.016233433741531245 0.0 0.0
0.06398104305991913 -0.06034910440333707 0.0 -0.018641001824849956 0.0 0.0
0.0767179404736468 -0.07282023423062434 0.0 -0.020973751893158255 0.0 0.0
0.09014155431502122 -0.08597429328749362 0.0 -0.022897117274302436 0.0 0.0
0.10369907638773071 -0.09924854196885757 0.0 -0.023799416254123795 0.0 0.0
0.11646820148663735 -0.11171819424144092 0.0 -0.022928717077619343 0.0 0.0
0.1271108575262181 -0.12207321109976021 0.0 -0.019306960985747357 0.0 0.0
0.13410682088977485 -0.1288590433409551 0.0 -0.011766834202204368 0.0 0.0
0.13410682088976314 -0.1288590433409471 0.0 0.011766834202249998 0.0 0.0
0.12711085752618925 -0.12207321109973224 0.0 0.0193069609858062 0.0 0.0
0.11646820148659426 -0.11171819424139562 0.0 0.02292871707766253 0.0 0.0
0.10369907638767772 -0.09924854196880784 0.0 0.023799416254141614 0.0 0.0
0.09014155431496187 -0.08597429328743988 0.0 0.02289711727429289 0.0 0.0
0.07671794047358563 -0.07282023423056705 0.0 0.020973751893150983 0.0 0.0
0.06398104305985763 -0.06034910440328023 0.0 0.018641001824844183 0.0 0.0
0.052227320627496215 -0.04885917324772038 0.0 0.016233433741524195 0.0 0.0
0.04157896363955635 -0.03846968945985907 0.0 0.013851070513205332 0.0 0.0
0.032048921568879896 -0.029198334960210737 0.0 0.011461655934903114 0.0 0.0
0.023650167897545538 -0.021060842417895742 0.0 0.008999503613005388 0.0 0.0
0.01647364019436401 -0.014151175782212588 0.0 0.00658311542484008 0.0 0.0
0.010676598451902497 -0.008629789759727391 0.0 0.004444003408415664 0.0 0.0
0.006377559743879546 -0.004635252247251476 0.0 0.002759114146565045 0.0 0.0
0.0035991659337704096 -0.0021952963598390607 0.0 0.001685236044792815 0.0 0.0
0.0021406495142475 -0.0010519396485870747 0.0 0.0012004366915246423 0.0 0.0
0.001492921439066458 -0.000617608201153641 0.0 0.000985499451941374 0.0 0.0
0.000968787006599886 -0.0002991228921327971 0.0 0.0008431081584570621 0.0 0.0
0.00048369754155369593 -0.0003706509913824485 0.0 0.0011662274029242692 0.0 0.0
0.004672364349271013 -0.006283424388459401 0.0 0.006755795542487397 0.0 0.0
0.003517805516138353 -0.005050354506833776 0.0 -0.005534903095555488 0.0 0.0
0.000322923493365046 -0.00030239680524984935 0.0 -0.0016294146736746673 0.0 0.0
0.0007332826752997901 -0.00021914784190224523 0.0 -0.0012541222919073558 0.0 0.0
0.0012307932923712878 -0.00048732981329813185 0.0 -0.0012821816978024758 0.0 0.0
0.0017647280027413836 -0.0008218448994867789 0.0 -0.0014708296399046916 0.0 0.0
0.002875758203437856 -0.0016309293352636534 0.0 -0.0019308648270426332 0.0 0.0
0.00510122259965487 -0.0034998619609509785 0.0 -0.0030034603206529065 0.0 0.0
0.008714896178985992 -0.006784965519853081 0.0 -0.004838509313224937 0.0 0.0
0.013674908011337833 -0.011467979238475756 0.0 -0.007253977638787268 0.0 0.0
0.0198116370495732 -0.017352680913923724 0.0 -0.009937258875212407 0.0 0.0
0.026961580565928678 -0.024262386820989246 0.0 -0.01266671007516329 0.0 0.0
0.03503184884213248 -0.03209992398906936 0.0 -0.015315158927375117 0.0 0.0
0.04402688975439906 -0.040864309156081635 0.0 -0.017953045760581432 0.0 0.0
0.053971666590177575 -0.05057728868590283 0.0 -0.020633783998948718 0.0 0.0
0.06480413101055711 -0.06117713602782748 0.0 -0.0232162692457053 0.0 0.0
0.0763192944837228 -0.0724574685513879 0.0 -0.025372245275410488 0.0 0.0
0.08811119133788571 -0.08400569773935906 0.0 -0.02656906201286169 0.0 0.0
0.09947457969125992 -0.09510827250226317 0.0 -0.025886846571270383 0.0 0.0
0.10931623025328221 -0.10469143171710638 0.0 -0.021925238096692 0.0 0.0
0.11628793910448049 -0.11145981125270543 0.0 -0.013219256569865334 0.0 0.0
0.11628793910446952 -0.11145981125269744 0.0 0.013219256569912408 0.0 0.0
0.10931623025325618 -0.10469143171708328 0.0 0.021925238096754285 0.0 0.0
0.09947457969122317 -0.0951082725022272 0.0 0.025886846571317013 0.0 0.0
0.08811119133784051 -0.08400569773931821 0.0 0.026569062012882894 0.0 0.0
0.07631929448367183 -0.07245746855133461 0.0 0.025372245275402494 0.0 0.0
0.06480413101050483 -0.061177136027773305 0.0 0.023216269245695087 0.0 0.0
0.053971666590125394 -0.05057728868585176 0.0 0.02063378399894078 0.0 0.0
0.04402688975434804 -0.04086430915603012 0.0 0.017953045760575548 0.0 0.0
0.03503184884208374 -0.032099923989021395 0.0 0.01531515892735591 0.0 0.0
0.026961580565884907 -0.02426238682094617 0.0 0.01266671007514375 0.0 0.0
0.019811637049536368 -0.01735268091388642 0.0 0.009937258875186261 0.0 0.0
0.013674908011308051 -0.011467979238449777 0.0 0.00725397763877178 0.0 0.0
0.008714896178964482 -0.006784965519833541 0.0 0.004838509313211725 0.0 0.0
0.0051012225996418525 -0.0034998619609425408 0.0 0.00300346032064569 0.0 0.0
0.0028757582034322215 -0.001630929335261433 0.0 0.0019308648270387474 0.0 0.0
0.0017647280027393297 -0.0008218448994860017 0.0 0.0014708296399018606 0.0 0.0
0.0012307932923713016 -0.0004873298132974657 0.0 0.0012821816978011435 0.0 0.0
0.000733282675299457 -0.0002191478419026338 0.0 0.0012541222919041917 0.0 0.0
0.000322923493365157 -0.0003023968052496273 0.0 0.0016294146736725024 0.0 0.0
0.0035178055161293464 -0.005050354506824022 0.0 0.005534903095542221 0.0 0.0
0.002611041089549404 -0.004019463242719679 0.0 -0.004467057835038923 0.0 0.0
0.0002249377798263369 -0.0002590760775321721 0.0 -0.001974285923118213 0.0 0.0
0.0005356404651614272 -0.00015837375286553712 0.0 -0.0016170245666335958 0.0 0.0
0.0009714345941281427 -0.00036899738922424596 0.0 -0.0015794801801258807 0.0 0.0
0.0014240498073198465 -0.0006345349020475677 0.0 -0.0017356323242044835 0.0 0.0
0.0022330731517443553 -0.001179181032725296 0.0 -0.0021476198811000158 0.0 0.0
0.003928752467500338 -0.0025088668220616395 0.0 -0.0031424208410395504 0.0 0.0
0.006810952690224054 -0.005039068674106417 0.0 -0.004918385185277374 0.0 0.0
0.010899912502538966 -0.008834290952400625 0.0 -0.007390859414409645 0.0 0.0
0.015989034966144122 -0.013681054558407624 0.0 -0.010200041264349813 0.0 0.0
0.021884805902955287 -0.01935755978625009 0.0 -0.013031651748542872 0.0 0.0
0.028498064253292862 -0.0257621986277079 0.0 -0.01577945607463549 0.0 0.0
0.03584322654869773 -0.03290503932889122 0.0 -0.018514958642517676 0.0 0.0
0.04397543620155171 -0.04083754782681037 0.0 -0.02127616686009004 0.0 0.0
0.052893621742997055 -0.04955491809828905 0.0 -0.02395478571064652 0.0 0.0
0.06246818445122275 -0.05892977426869184 0.0 -0.026244043598592448 0.0 0.0
0.07242968892940779 -0.06869099349001839 0.0 -0.027633106834698273 0.0 0.0
0.08234206339230965 -0.07838932206848748 0.0 -0.02725586211462694 0.0 0.0
0.09143061807591535 -0.08724849623416153 0.0 -0.023492061416370724 0.0 0.0
0.09850433950491516 -0.09411490100633157 0.0 -0.014438429403753616 0.0 0.0
0.09850433950490545 -0.09411490100632047 0.0 0.014438429403803021 0.0 0.0
0.09143061807589331 -0.08724849623413622 0.0 0.023492061416436227 0.0 0.0
0.08234206339227862 -0.07838932206844884 0.0 0.02725586211467379 0.0 0.0
0.07242968892936985 -0.06869099348997887 0.0 0.027633106834718757 0.0 0.0
0.062468184451180464 -0.05892977426865098 0.0 0.0262440435985849 0.0 0.0
0.05289362174295381 -0.0495549180982473 0.0 0.02395478571063636 0.0 0.0
0.043975436201509205 -0.04083754782677129 0.0 0.0212761668600826 0.0 0.0
0.035843226548656515 -0.032905039328853025 0.0 0.01851495864250985 0.0 0.0
0.028498064253253408 -0.025762198627667487 0.0 0.01577945607461617 0.0 0.0
0.021884805902919385 -0.019357559786217227 0.0 0.0130316517485215 0.0 0.0
0.015989034966114063 -0.013681054558379646 0.0 0.0102000412643245 0.0 0.0
0.01089991250251457 -0.008834290952375756 0.0 0.007390859414394546 0.0 0.0
0.0068109526902071504 -0.005039068674091984 0.0 0.0049183851852642735 0.0 0.0
0.003928752467490693 -0.0025088668220532018 0.0 0.003142420841033444 0.0 0.0
0.002233073151740317 -0.0011791810327219654 0.0 0.0021476198810961855 0.0 0.0
0.0014240498073183894 -0.0006345349020473456 0.0 0.00173563232420193 0.0 0.0
0.00097143459412799 -0.00036899738922324676 0.0 0.0015794801801249925 0.0 0.0
0.0005356404651612745 -0.00015837375286509303 0.0 0.0016170245666312644 0.0 0.0
0.00022493777982623975 -0.0002590760775318113 0.0 0.0019742859231161036 0.0 0.0
0.002611041089542382 -0.004019463242711758 0.0 0.004467057835027988 0.0 0.0
0.001893820167643806 -0.0031502985936717465 0.0 -0.0035845326892017804 0.0 0.0
0.00015602632558359142 -0.00022841803691914242 0.0 -0.0022158600881325152 0.0 0.0
0.00036260025909111426 -0.0001068668932139305 0.0 -0.0019106777342611792 0.0 0.0
0.0007155648037711071 -0.0002552328932892145 0.0 -0.0018525584111313553 0.0 0.0
0.0010998238294251533 -0.0004734769225087643 0.0 -0.001996766657007487 0.0 0.0
0.0016690312638523025 -0.0008228437629536067 0.0 -0.002332072862539003 0.0 0.0
0.0028676352823575474 -0.0016780047916518104 0.0 -0.0031729617930603693 0.0 0.0
0.005022224546465753 -0.0034584667175772132 0.0 -0.004759085726372292 0.0 0.0
0.008191597085526997 -0.006313247812627765 0.0 -0.007040191741307156 0.0 0.0
0.01220836922177175 -0.010082778649190605 0.0 -0.009750667906263388 0.0 0.0
0.016844849206980594 -0.014517868662638378 0.0 -0.012540952893130897 0.0 0.0
0.022006272601853963 -0.019492768606631294 0.0 -0.015229284221304762 0.0 0.0
0.027708815793775682 -0.025020808934997696 0.0 -0.0178861614339223 0.0 0.0
0.03403010833371291 -0.031174523404228438 0.0 -0.020570708878181854 0.0 0.0
0.0410189208579471 -0.03799741742194929 0.0 -0.023183364146518837 0.0 0.0
0.04862691413655715 -0.04543515865771708 0.0 -0.025432310189460794 0.0 0.0
0.05669103019209057 -0.05334215069926129 0.0 -0.02692029934932738 0.0 0.0
0.06504196389722464 -0.06153710476149987 0.0 -0.026964267606711223 0.0 0.0
0.07331886586046818 -0.06962264590695488 0.0 -0.02392354214730763 0.0 0.0
0.08057155091501447 -0.07665499095592132 0.0 -0.015409508015141626 0.0 0.0
0.08057155091500642 -0.07665499095591866 0.0 0.015409508015188256 0.0 0.0
0.07331886586045072 -0.06962264590694467 0.0 0.023923542147374022 0.0 0.0
0.06504196389719938 -0.06153710476148122 0.0 0.026964267606759296 0.0 0.0
0.05669103019205979 -0.05334215069923509 0.0 0.0269202993493477 0.0 0.0
0.04862691413652334 -0.04543515865768244 0.0 0.02543231018945269 0.0 0.0
0.041018920857913366 -0.03799741742190621 0.0 0.023183364146507235 0.0 0.0
0.03403010833367953 -0.031174523404190246 0.0 0.02057070887817225 0.0 0.0
0.027708815793744596 -0.025020808934967498 0.0 0.017886161433914083 0.0 0.0
0.022006272601823806 -0.01949276860660243 0.0 0.015229284221286443 0.0 0.0
0.016844849206952617 -0.014517868662607736 0.0 0.012540952893109858 0.0 0.0
0.01220836922174845 -0.010082778649165736 0.0 0.009750667906239796 0.0 0.0
0.008191597085508318 -0.006313247812610445 0.0 0.007040191741292889 0.0 0.0
0.005022224546453485 -0.0034584667175678874 0.0 0.0047590857263618 0.0 0.0
0.0028676352823507056 -0.0016780047916458152 0.0 0.0031729617930548737 0.0 0.0
0.0016690312638496796 -0.0008228437629524965 0.0 0.0023320728625349507 0.0 0.0
0.001099823829424279 -0.0004734769225083202 0.0 0.0019967666570055997 0.0 0.0
0.0007155648037706908 -0.00025523289328843735 0.0 0.0018525584111296345 0.0 0.0
0.0003626002590910171 -0.00010686689321287579 0.0 0.0019106777342577375 0.0 0.0
0.00015602632558339713 -0.00022841803691861506 0.0 0.0022158600881301838 0.0 0.0
0.0018938201676383937 -0.003150298593664792 0.0 0.003584532689193065 0.0 0.0
0.001337607726988474 -0.002433562605666295 0.0 -0.002892070172410166 0.0 0.0
9.281699595478643e-05 -0.00020252568925832604 0.0 -0.002357441200209087 0.0 0.0
0.00020308030951431133 -5.668994288621221e-05 0.0 -0.0021346911652808664 0.0 0.0
0.00046526235549354533 -0.00014345003197646644 0.0 -0.002080334559507291 0.0 0.0
0.0007737495963359292 -0.0003207773270708092 0.0 -0.0022333814662093276 0.0 0.0
0.0011691071952211474 -0.0005477737026380325 0.0 -0.002532275486870794 0.0 0.0
0.001927713240706258 -0.0010236797615044146 0.0 -0.00316122430538468 0.0 0.0
0.003379161128470212 -0.0020991901234890253 0.0 -0.0044070300030913945 0.0 0.0
0.0056129039309911755 -0.003992806780778402 0.0 -0.006299016713731731 0.0 0.0
0.008512339252426726 -0.006630453648670986 0.0 -0.00863677373452898 0.0 0.0
0.011872236149215357 -0.00979334420526401 0.0 -0.011146385160979488 0.0 0.0
0.015583121518045084 -0.013337727953293577 0.0 -0.013611645735046751 0.0 0.0
0.019654965513881018 -0.01726008271687096 0.0 -0.01604456447197361 0.0 0.0
0.024169187624709418 -0.021638540999086686 0.0 -0.018475961713695033 0.0 0.0
0.02921664334460554 -0.026555287835361874 0.0 -0.020862576238625752 0.0 0.0
0.03483087561752443 -0.03203359244793891 0.0 -0.02295808018848655 0.0 0.0
0.04094908768703209 -0.03802047597668823 0.0 -0.024360845476412818 0.0 0.0
0.0475723817113258 -0.044551327628188364 0.0 -0.024757422807492824 0.0 0.0
0.05483464340724295 -0.05169258697198753 0.0 -0.022966784468158696 0.0 0.0
0.06226882347580953 -0.05889139634976637 0.0 -0.016067035271188468 0.0 0.0
0.0622688234758037 -0.05889139634976326 0.0 0.01606703527122566 0.0 0.0
0.05483464340723043 -0.051692586971971544 0.0 0.022966784468217205 0.0 0.0
0.04757238171130676 -0.044551327628166604 0.0 0.024757422807534457 0.0 0.0
0.040949087687008695 -0.03802047597666425 0.0 0.024360845476425363 0.0 0.0
0.034830875617499646 -0.03203359244791848 0.0 0.022958080188476893 0.0 0.0
0.02921664334458149 -0.026555287835348995 0.0 0.020862576238615427 0.0 0.0
0.02416918762468581 -0.021638540999066258 0.0 0.018475961713685818 0.0 0.0
0.019654965513860367 -0.017260082716855862 0.0 0.016044564471968115 0.0 0.0
0.015583121518024157 -0.013337727953274925 0.0 0.013611645735031708 0.0 0.0
0.011872236149195525 -0.009793344205241361 0.0 0.011146385160960892 0.0 0.0
0.00851233925240999 -0.006630453648654111 0.0 0.00863677373450944 0.0 0.0
0.0056129039309789075 -0.0039928067807670775 0.0 0.006299016713718852 0.0 0.0
0.003379161128462177 -0.0020991901234792554 0.0 0.0044070300030844 0.0 0.0
0.0019277132407017616 -0.0010236797614993076 0.0 0.003161224305378796 0.0 0.0
0.0011691071952197596 -0.000547773702635812 0.0 0.002532275486867075 0.0 0.0
0.0007737495963352492 -0.00032077732706981 0.0 0.002233381466206774 0.0 0.0
0.0004652623554932678 -0.00014345003197546724 0.0 0.0020803345595058476 0.0 0.0
0.00020308030951410316 -5.6689942885546074e-05 0.0 0.0021346911652788125 0.0 0.0
9.281699595453663e-05 -0.00020252568925804848 0.0 0.002357441200207644 0.0 0.0
0.0013376077269848519 -0.0024335626056616513 0.0 0.0028920701724053366 0.0 0.0
0.0009286416512284401 -0.001874372789174794 0.0 -0.0023910886543624388 0.0 0.0
2.0983695964982285e-05 -0.00017952187118580598 0.0 -0.0024299312145384944 0.0 0.0
5.030913662618097e-05 -1.8377042276807032e-06 0.0 -0.0022922195220111963 0.0 0.0
0.00022217909218261167 -3.529004965840965e-05 0.0 -0.0022548197973785156 0.0 0.0
0.00043938311381697126 -0.00016324930926803205 0.0 -0.0024131086948211977 0.0 0.0
0.0006951132535796545 -0.0003149320284161483 0.0 -0.0027316211043247884 0.0 0.0
0.001110961349226114 -0.0005417958161593184 0.0 -0.003192049867852542 0.0 0.0
0.0019070709908180217 -0.001028261669795194 0.0 -0.0039816870297958995 0.0 0.0
0.0032167437799292264 -0.0019878352573856617 0.0 -0.005264590832196714 0.0 0.0
0.004964640054201774 -0.0034540966674874163 0.0 -0.00696316347234871 0.0 0.0
0.0070137120436397915 -0.0052951867930057794 0.0 -0.008914936809831131 0.0 0.0
0.009256480015558732 -0.007383788624820475 0.0 -0.010937283765029338 0.0 0.0
0.01170465412556021 -0.009701332592730427 0.0 -0.013002063462881464 0.0 0.0
0.01442362651290613 -0.012312086984261672 0.0 -0.015060693475666853 0.0 0.0
0.017515289252922506 -0.01530939093835837 0.0 -0.01709161669974102 0.0 0.0
0.02109670773711611 -0.018795610182207767 0.0 -0.01896270598547567 0.0 0.0
0.025243180974804824 -0.022831006601806703 0.0 -0.020294646389065862 0.0 0.0
0.03002969266806388 -0.027536878620544325 0.0 -0.020762915401364546 0.0 0.0
0.03587000171236565 -0.03338349969574628 0.0 -0.0202233157223054 0.0 0.0
0.04328498412859477 -0.04058044129780969 0.0 -0.016171440929083514 0.0 0.0
0.0432849841285915 -0.040580441297806136 0.0 0.016171440929117376 0.0 0.0
0.0358700017123581 -0.03338349969573651 0.0 0.020223315722357693 0.0 0.0
0.030029692668050806 -0.027536878620534555 0.0 0.020762915401399296 0.0 0.0
0.025243180974789475 -0.022831006601794712 0.0 0.020294646389076187 0.0 0.0
0.021096707737101178 -0.018795610182187783 0.0 0.01896270598546257 0.0 0.0
0.01751528925290885 -0.01530939093834105 0.0 0.01709161669973025 0.0 0.0
0.014423626512892918 -0.012312086984251458 0.0 0.015060693475660303 0.0 0.0
0.011704654125549552 -0.009701332592715772 0.0 0.013002063462878133 0.0 0.0
0.009256480015546464 -0.00738378862481337 0.0 0.01093728376501657 0.0 0.0
0.007013712043628967 -0.005295186793001783 0.0 0.008914936809816254 0.0 0.0
0.004964640054192115 -0.0034540966674780904 0.0 0.006963163472333722 0.0 0.0
0.003216743779922926 -0.0019878352573790004 0.0 0.005264590832189997 0.0 0.0
0.0019070709908137473 -0.0010282616697927516 0.0 0.003981687029790848 0.0 0.0
0.001110961349223727 -0.0005417958161593184 0.0 0.0031920498678496556 0.0 0.0
0.0006951132535790716 -0.00031493202841481605 0.0 0.002731621104322457 0.0 0.0
0.00043938311381641615 -0.0001632493092668108 0.0 0.002413108694817423 0.0 0.0
0.00022217909218263943 -3.529004965829863e-05 0.0 0.002254819797376739 0.0 0.0
5.030913662618097e-05 -1.8377042281247924e-06 0.0 0.0022922195220085317 0.0 0.0
2.098369596451044e-05 -0.0001795218711854174 0.0 0.002429931214537051 0.0 0.0
0.0009286416512263584 -0.0018743727891717497 0.0 0.0023910886543581644 0.0 0.0
0.0006399173757404564 -0.001452550363929106 0.0 -0.002045518065077745 0.0 0.0
-5.7237251705227754e-05 -0.0001607470131971822 0.0 -0.00246558712739936 0.0 0.0
-9.87448835495508e-05 5.848164751542928e-05 0.0 -0.002391431767984009 0.0 0.0
-1.3940328776801403e-05 6.933419719945544e-05 0.0 -0.0023722497291308597 0.0 0.0
0.00010214044715145532 -2.930690805591496e-06 0.0 -0.0025217220738500967 0.0 0.0
0.00021694917323047958 -8.551321346694785e-05 0.0 -0.002862883723642129 0.0 0.0
0.00036180479595965265 -0.00017005494151400846 0.0 -0.0033243571628869817 0.0 0.0
0.0006077939134808696 -0.0002948154790609614 0.0 -0.003812060658824723 0.0 0.0
0.0010352639471106762 -0.0005195145627823194 0.0 -0.004416607540233153 0.0 0.0
0.0016182914882494348 -0.0008807057443567246 0.0 -0.005301181562336055 0.0 0.0
0.00230923908574715 -0.0013649763665766201 0.0 -0.006527740205641619 0.0 0.0
0.0030530430583389223 -0.001949482254614665 0.0 -0.00798961163869305 0.0 0.0
0.0038598435736209302 -0.0026373607862031356 0.0 -0.009636882201067953 0.0 0.0
0.004771408182783432 -0.0034623325778162517 0.0 -0.011438636024979632 0.0 0.0
0.005888748687796375 -0.004511086306999701 0.0 -0.013370686666710152 0.0 0.0
0.007396654324132362 -0.005948969699688611 0.0 -0.015294546795721509 0.0 0.0
0.009546767272566897 -0.008001789368000445 0.0 -0.01681428140474106 0.0 0.0
0.01254966309252245 -0.010865154699665869 0.0 -0.01730471584033 0.0 0.0
0.01667513599938658 -0.01498073186508142 0.0 -0.01683789809691394 0.0 0.0
0.02325070336531812 -0.02159871609028219 0.0 -0.015722397779078356 0.0 0.0
0.0232507033653179 -0.021598716090283077 0.0 0.01572239777910389 0.0 0.0
0.016675135999383056 -0.014980731865077868 0.0 0.016837898096957016 0.0 0.0
0.0125496630925159 -0.01086515469966054 0.0 0.017304715840352092 0.0 0.0
0.009546767272561069 -0.008001789367992451 0.0 0.01681428140473984 0.0 0.0
0.007396654324127977 -0.005948969699686835 0.0 0.015294546795707409 0.0 0.0
0.005888748687793599 -0.004511086306997925 0.0 0.013370686666697829 0.0 0.0
0.00477140818278049 -0.0034623325778144753 0.0 0.01143863602497075 0.0 0.0
0.0038598435736199865 -0.0026373607862058 0.0 0.009636882201063401 0.0 0.0
0.0030530430583360912 -0.001949482254614665 0.0 0.007989611638679728 0.0 0.0
0.0023092390857456513 -0.0013649763665743997 0.0 0.006527740205628962 0.0 0.0
0.0016182914882477417 -0.0008807057443567246 0.0 0.005301181562323842 0.0 0.0
0.0010352639471093994 -0.0005195145627809872 0.0 0.004416607540230988 0.0 0.0
0.0006077939134801202 -0.00029481547906184957 0.0 0.0038120606588220585 0.0 0.0
0.0003618047959587922 -0.00017005494151445255 0.0 0.0033243571628820967 0.0 0.0
0.00021694917323070162 -8.551321346850216e-05 0.0 0.0028628837236381877 0.0 0.0
0.00010214044715123327 -2.9306908064796744e-06 0.0 0.0025217220738474877 0.0 0.0
-1.3940328776274047e-05 6.93341971997885e-05 0.0 0.0023722497291297495 0.0 0.0
-9.874488354943978e-05 5.848164751592888e-05 0.0 0.0023914317679822328 0.0 0.0
-5.72372517056996e-05 -0.00016074701319723772 0.0 0.0024655871273989716 0.0 0.0
0.0006399173757392629 -0.001452550363927543 0.0 0.002045518065076357 0.0 0.0
0.00043866146253651594 -0.0011469538151126224 0.0 -0.0018261546686832997 0.0 0.0
-0.00013230560538482483 -0.00013791579064081905 0.0 -0.0024666471017454894 0.0 0.0
-0.00024359660939762828 0.00011911884450954702 0.0 -0.0024389620380582677 0.0 0.0
-0.0002433767460086611 0.0001709340388925673 0.0 -0.0024268519828947177 0.0 0.0
-0.00023172299411972075 0.00015580767757072955 0.0 -0.002557981938476561 0.0 0.0
-0.0002660386876236487 0.00014673341544080287 0.0 -0.002878759251211227 0.0 0.0
-0.00037741212375394517 0.00018582367585873172 0.0 -0.003329971658962594 0.0 0.0
-0.0006116530223003736 0.00029810644325500846 0.0 -0.0038159944585326455 0.0 0.0
-0.0010345397524176014 0.000519664206449999 0.0 -0.004418335881112123 0.0 0.0
-0.0016167383424260662 0.0008801955511303916 0.0 -0.005299640936618055 0.0 0.0
-0.002313648324218154 0.0013722657569492647 0.0 -0.00652744743555278 0.0 0.0
-0.003084801083800076 0.0019817022503243464 0.0 -0.007996084632040823 0.0 0.0
-0.003935202530233051 0.0027030710961404303 0.0 -0.009645370351593074 0.0 0.0
-0.004846865123537297 0.0035048632712944006 0.0 -0.011444970806046006 0.0 0.0
-0.005715378219122963 0.004278550235500944 0.0 -0.013390205635029906 0.0 0.0
-0.006309870587356908 0.004801099093235894 0.0 -0.015437358129825274 0.0 0.0
-0.006250533609116454 0.0047231987771581 0.0 -0.017553776122555043 0.0 0.0
-0.005162248738311059 0.0037933493131903084 0.0 -0.019783959014904706 0.0 0.0
-0.002742991962842223 0.0018772265698685509 0.0 -0.021791962713737956 0.0 0.0
0.003228790857028707 -0.003720949955082098 0.0 -0.020365935644861888 0.0 0.0
0.0032287908570285406 -0.0037209499550754366 0.0 0.020365935644875988 0.0 0.0
-0.0027429919628432498 0.0018772265698761004 0.0 0.021791962713754942 0.0 0.0
-0.005162248738309089 0.003793349313183203 0.0 0.01978395901490604 0.0 0.0
-0.0062505336091101815 0.004723198777151882 0.0 0.017553776122546938 0.0 0.0
-0.006309870587349442 0.004801099093231009 0.0 0.015437358129811507 0.0 0.0
-0.0057153782191154134 0.004278550235498724 0.0 0.013390205635020136 0.0 0.0
-0.004846865123530136 0.003504863271290848 0.0 0.011444970806036014 0.0 0.0
-0.003935202530224197 0.0027030710961355453 0.0 0.009645370351585525 0.0 0.0
-0.00308480108379236 0.001981702250318129 0.0 0.007996084632028388 0.0 0.0
-0.0023136483242102712 0.0013722657569421592 0.0 0.006527447435541678 0.0 0.0
-0.0016167383424196824 0.0008801955511241744 0.0 0.005299640936607286 0.0 0.0
-0.0010345397524140765 0.0005196642064473345 0.0 0.004418335881109403 0.0 0.0
-0.0006116530222982919 0.000298106443252788 0.0 0.00381599445853098 0.0 0.0
-0.0003774121237531125 0.00018582367586006399 0.0 0.0033299716589597628 0.0 0.0
-0.00026603868762262173 0.00014673341544324536 0.0 0.0028787592512080074 0.0 0.0
-0.00023172299411916564 0.00015580767757017444 0.0 0.0025579819384742297 0.0 0.0
-0.00024337674600805048 0.00017093403889334446 0.0 0.002426851982894218 0.0 0.0
-0.00024359660939760053 0.00011911884451021315 0.0 0.002438962038056214 0.0 0.0
-0.00013230560538493585 -0.00013791579064023618 0.0 0.00246664710174449 0.0 0.0
0.0004386614625359331 -0.0011469538151116076 0.0 0.0018261546686815233 0.0 0.0
0.000300122168442829 -0.0009099863572587519 0.0 -0.0016507933730360302 0.0 0.0
-0.00019992764593987356 -0.00010714442031772853 0.0 -0.0024184934954405435 0.0 0.0
-0.0003818991425941498 0.00017656692855838596 0.0 -0.0024340013380811376 0.0 0.0
-0.00046503717256130006 0.0002683692360799794 0.0 -0.002414554349222331 0.0 0.0
-0.0005588140516107343 0.00030944335190086214 0.0 -0.002515729597986738 0.0 0.0
-0.0007415647311369289 0.00037481877387679496 0.0 -0.0027835360739441595 0.0 0.0
-0.0011261288924800938 0.000558302555164758 0.0 -0.0032164604594731583 0.0 0.0
-0.0019097304792841108 0.0010318965653146606 0.0 -0.003994317508343781 0.0 0.0
-0.0032145956436340217 0.001986857720452484 0.0 -0.005266768521637932 0.0 0.0
-0.00496311719194506 0.003454154288045075 0.0 -0.006961926486148573 0.0 0.0
-0.00702047082485685 0.0053054390203435275 0.0 -0.008914445855653597 0.0 0.0
-0.009287456766945257 0.0074190443769825976 0.0 -0.010927275043884244 0.0 0.0
-0.01177389776786375 0.009768497254059039 0.0 -0.012963332181490483 0.0 0.0
-0.01448789150061966 0.012350528876141187 0.0 -0.01501166791154207 0.0 0.0
-0.017336556781032214 0.015062266312668715 0.0 -0.017159536004549114 0.0 0.0
-0.02005142136100052 0.017640233710652264 0.0 -0.01949140163261842 0.0 0.0
-0.0221826981529602 0.01965681119557061 0.0 -0.022085305042489844 0.0 0.0
-0.023181580379351585 0.020584769178706885 0.0 -0.024851028529185748 0.0 0.0
-0.022054586534859033 0.019186193700293064 0.0 -0.026069424267614494 0.0 0.0
-0.015893589283433873 0.012768326330979907 0.0 -0.023769444744248247 0.0 0.0
-0.01589358928343454 0.012768326330978574 0.0 0.023769444744280444 0.0 0.0
-0.02205458653485734 0.01918619370029262 0.0 0.026069424267657904 0.0 0.0
-0.023181580379340844 0.020584769178702444 0.0 0.024851028529210617 0.0 0.0
-0.02218269815294291 0.019656811195555512 0.0 0.022085305042490178 0.0 0.0
-0.020051421360981397 0.017640233710634057 0.0 0.01949140163260188 0.0 0.0
-0.01733655678101459 0.015062266312651396 0.0 0.017159536004533127 0.0 0.0
-0.014487891500602257 0.012350528876118982 0.0 0.01501166791152908 0.0 0.0
-0.01177389776784546 0.009768497254037722 0.0 0.012963332181481602 0.0 0.0
-0.00928745676692705 0.007419044376967054 0.0 0.010927275043867868 0.0 0.0
-0.007020470824840155 0.005305439020331093 0.0 0.008914445855633224 0.0 0.0
-0.004963117191930447 0.0034541542880326404 0.0 0.0069619264861287 0.0 0.0
-0.003214595643625043 0.001986857720441604 0.0 0.005266768521629772 0.0 0.0
-0.0019097304792784903 0.001031896565311996 0.0 0.003994317508338896 0.0 0.0
-0.0011261288924773044 0.0005583025551638698 0.0 0.003216460459469106 0.0 0.0
-0.0007415647311353885 0.000374818773877017 0.0 0.0027835360739400516 0.0 0.0
-0.0005588140516098461 0.0003094433519007511 0.0 0.00251572959798424 0.0 0.0
-0.00046503717256060617 0.00026836923607920227 0.0 0.002414554349221054 0.0 0.0
-0.00038189914259388613 0.00017656692855788636 0.0 0.0024340013380803605 0.0 0.0
-0.00019992764593992907 -0.0001071444203178673 0.0 0.002418493495439711 0.0 0.0
0.0003001221684426625 -0.0009099863572580285 0.0 0.001650793373035253 0.0 0.0
0.00019847737984948766 -0.0007024732444934345 0.0 -0.0014641256029446215 0.0 0.0
-0.00026068039314428026 -7.016192630421303e-05 0.0 -0.0023170174852162884 0.0 0.0
-0.0005118491401794323 0.00023021154791469378 0.0 -0.002371541063422744 0.0 0.0
-0.0006778304231973564 0.00036009631826283695 0.0 -0.0023373377612437296 0.0 0.0
-0.0008749594400770944 0.00045383160895995367 0.0 -0.002393567592654966 0.0 0.0
-0.001211763760046669 0.000606400649732608 0.0 -0.002616530799886274 0.0 0.0
-0.0019407033682391772 0.00104167633179153 0.0 -0.0032008173777317017 0.0 0.0
-0.0033779214966454807 0.002100489955733753 0.0 -0.004420536119923157 0.0 0.0
-0.005609358532530112 0.003990079350348008 0.0 -0.006296652637640732 0.0 0.0
-0.008512562672267993 0.006631765257090194 0.0 -0.008635624114541218 0.0 0.0
-0.011880421537915214 0.00980415327182449 0.0 -0.011144083754276002 0.0 0.0
-0.015607257154291315 0.013365879620173882 0.0 -0.0135801023818799 0.0 0.0
-0.01970358552032661 0.017308670243972202 0.0 -0.01593447429573991 0.0 0.0
-0.02420769548298715 0.021657736540246386 0.0 -0.01830265378952889 0.0 0.0
-0.029048475428274628 0.026330039397733263 0.0 -0.020897825077328624 0.0 0.0
-0.03392942438531804 0.031034567814917757 0.0 -0.024003494375775536 0.0 0.0
-0.038295640357457805 0.03523180516411095 0.0 -0.027796714571176828 0.0 0.0
-0.04122589617600406 0.03794521766126868 0.0 -0.03157031542210165 0.0 0.0
-0.040938124219756594 0.03738102597855386 0.0 -0.0334748935969752 0.0 0.0
-0.033946395991286904 0.02971798167326023 0.0 -0.029754352393614014 0.0 0.0
-0.03394639599128635 0.029717981673258898 0.0 0.029754352393656536 0.0 0.0
-0.040938124219751126 0.037381025978534765 0.0 0.03347489359702893 0.0 0.0
-0.04122589617598682 0.0379452176612487 0.0 0.031570315422135065 0.0 0.0
-0.03829564035743174 0.03523180516409097 0.0 0.027796714571180492 0.0 0.0
-0.0339294243852884 0.031034567814897773 0.0 0.0240034943757636 0.0 0.0
-0.029048475428246776 0.02633003939770795 0.0 0.020897825077315635 0.0 0.0
-0.02420769548295995 0.02165773654022507 0.0 0.018302653789513734 0.0 0.0
-0.019703585520298356 0.017308670243945556 0.0 0.015934474295727585 0.0 0.0
-0.01560725715426367 0.013365879620145904 0.0 0.013580102381864023 0.0 0.0
-0.011880421537890068 0.009804153271799176 0.0 0.011144083754253409 0.0 0.0
-0.00851256267224551 0.00663176525707021 0.0 0.00863562411451968 0.0 0.0
-0.005609358532515374 0.00399007935033624 0.0 0.006296652637628797 0.0 0.0
-0.0033779214966357246 0.0021004899557250933 0.0 0.004420536119913943 0.0 0.0
-0.001940703368233987 0.0010416763317879774 0.0 0.003200817377725318 0.0 0.0
-0.0012117637600444209 0.000606400649732608 0.0 0.0026165307998834986 0.0 0.0
-0.0008749594400760674 0.00045383160896039776 0.0 0.0023935675926527455 0.0 0.0
-0.0006778304231964405 0.0003600963182627259 0.0 0.00233733776124162 0.0 0.0
-0.0005118491401790021 0.00023021154791508236 0.0 0.0023715410634204126 0.0 0.0
-0.00026068039314422475 -7.016192630387996e-05 0.0 0.002317017485214401 0.0 0.0
0.00019847737984961256 -0.0007024732444927545 0.0 0.0014641256029430672 0.0 0.0
0.00011431233705630484 -0.0005171373942350899 0.0 -0.0012704663051817944 0.0 0.0
-0.00031684292128814073 -2.693285881033569e-05 0.0 -0.0021604675904342008 0.0 0.0
-0.0006334647513576985 0.0002803406116412832 0.0 -0.0022551803241591117 0.0 0.0
-0.0008810469775663576 0.0004444056303195554 0.0 -0.0022022094168659967 0.0 0.0
-0.00117658887051042 0.0005897162420154256 0.0 -0.0022043390256645257 0.0 0.0
-0.0017065996509504355 0.0008798408590964257 0.0 -0.002443608437309064 0.0 0.0
-0.0028738489472557305 0.0016929791461715027 0.0 -0.003216751536031681 0.0 0.0
-0.005016722122685668 0.00345478283702616 0.0 -0.004762481701357957 0.0 0.0
-0.00818854687328402 0.006310277378317686 0.0 -0.007034770303894433 0.0 0.0
-0.012211241611051943 0.010086316675355533 0.0 -0.009750598264472443 0.0 0.0
-0.01685301822019805 0.014527534008352827 0.0 -0.01253695838576574 0.0 0.0
-0.022017108297701482 0.019506038989735686 0.0 -0.015179680199116197 0.0 0.0
-0.027718918557812305 0.025032344458438605 0.0 -0.01771297163744001 0.0 0.0
-0.034020485153975044 0.031155899590973757 0.0 -0.020270786187246648 0.0 0.0
-0.040880121591270885 0.03782307198465151 0.0 -0.023144603123066654 0.0 0.0
-0.04799243370386319 0.044719575932864686 0.0 -0.026780304806898747 0.0 0.0
-0.054603148350682446 0.05108310829302676 0.0 -0.03133483164202777 0.0 0.0
-0.05927153559981885 0.055459724970317925 0.0 -0.035952573921024356 0.0 0.0
-0.059507014033390315 0.055275853999255276 0.0 -0.03820976892171846 0.0 0.0
-0.05082459628378325 0.04593847777191096 0.0 -0.034753301611278875 0.0 0.0
-0.050824596283781026 0.045938477771909625 0.0 0.034753301611322174 0.0 0.0
-0.059507014033379685 0.05527585399924417 0.0 0.03820976892177519 0.0 0.0
-0.05927153559979581 0.05545972497030016 0.0 0.03595257392106632 0.0 0.0
-0.054603148350648514 0.051083108292990786 0.0 0.03133483164203782 0.0 0.0
-0.04799243370382425 0.04471957593282383 0.0 0.02678030480688831 0.0 0.0
-0.04088012159123322 0.03782307198461066 0.0 0.023144603123049223 0.0 0.0
-0.03402048515393817 0.031155899590934677 0.0 0.020270786187232492 0.0 0.0
-0.02771891855777424 0.025032344458402633 0.0 0.017712971637426744 0.0 0.0
-0.022017108297664637 0.019506038989702823 0.0 0.015179680199097656 0.0 0.0
-0.016853018220164412 0.01452753400831952 0.0 0.012536958385738428 0.0 0.0
-0.012211241611022522 0.010086316675325335 0.0 0.00975059826444813 0.0 0.0
-0.008188546873262953 0.006310277378298146 0.0 0.007034770303879889 0.0 0.0
-0.005016722122671957 0.0034547828370139477 0.0 0.00476248170134741 0.0 0.0
-0.002873848947247515 0.0016929791461688382 0.0 0.0032167515360234655 0.0 0.0
-0.0017065996509467996 0.0008798408590944273 0.0 0.0024436084373036238 0.0 0.0
-0.0011765888705091987 0.0005897162420136492 0.0 0.0022043390256623607 0.0 0.0
-0.0008810469775654833 0.0004444056303187782 0.0 0.0022022094168654416 0.0 0.0
-0.0006334647513572128 0.0002803406116407281 0.0 0.002255180324158279 0.0 0.0
-0.00031684292128782154 -2.693285881066876e-05 0.0 0.002160467590431925 0.0 0.0
0.00011431233705629096 -0.0005171373942344289 0.0 0.0012704663051800735 0.0 0.0
4.1226241412062326e-05 -0.000353532349476382 0.0 -0.001072054428864988 0.0 0.0
-0.00037111627363967115 2.1518014656773943e-05 0.0 -0.0019525133523140004 0.0 0.0
-0.0007476116704698277 0.00032777603362355023 0.0 -0.002081814005915672 0.0 0.0
-0.0010726012040974953 0.0005194082837720604 0.0 -0.0020017609213501264 0.0 0.0
-0.0014716639483963179 0.0007275357985270237 0.0 -0.0019687404912427375 0.0 0.0
-0.00226029799079841 0.0012262672040037614 0.0 -0.002257553211146346 0.0 0.0
-0.003927084912644846 0.002515827903091461 0.0 -0.0031711431844524407 0.0 0.0
-0.006803916054243159 0.005032302198846317 0.0 -0.004914359053483197 0.0 0.0
-0.010899032078144605 0.008833052540943687 0.0 -0.007384065510942728 0.0 0.0
-0.01599440997093904 0.013686662483916034 0.0 -0.010199841461311365 0.0 0.0
-0.0218911391171194 0.019364124029733087 0.0 -0.013023468865691279 0.0 0.0
-0.028490672540433748 0.025755177110580618 0.0 -0.01571694723610828 0.0 0.0
-0.035802108696336765 0.032866553196353454 0.0 -0.018307842400688834 0.0 0.0
-0.04389865998796835 0.0407648657580677 0.0 -0.02090182063235624 0.0 0.0
-0.0527839560913243 0.04943393680660613 0.0 -0.023809148846127393 0.0 0.0
-0.06213079034318755 0.05852135431455574 0.0 -0.027515789068151553 0.0 0.0
-0.07094076058807422 0.06701396774126289 0.0 -0.03226199681243758 0.0 0.0
-0.07722673667179797 0.07290792752948594 0.0 -0.03727715740765514 0.0 0.0
-0.07767605336866865 0.07286568976886665 0.0 -0.040321378343155856 0.0 0.0
-0.06725593253016901 0.06185730247083132 0.0 -0.03920618412868093 0.0 0.0
-0.06725593253016451 0.06185730247082333 0.0 0.03920618412872601 0.0 0.0
-0.07767605336865269 0.07286568976884933 0.0 0.04032137834321525 0.0 0.0
-0.07722673667176878 0.07290792752946107 0.0 0.037277157407697714 0.0 0.0
-0.07094076058803328 0.06701396774122381 0.0 0.032261996812448734 0.0 0.0
-0.06213079034314031 0.05852135431450867 0.0 0.02751578906814467 0.0 0.0
-0.05278395609127706 0.04943393680656438 0.0 0.02380914884611407 0.0 0.0
-0.04389865998792142 0.04076486575802596 0.0 0.02090182063233975 0.0 0.0
-0.035802108696289456 0.03286655319630327 0.0 0.018307842400675123 0.0 0.0
-0.028490672540387646 0.025755177110532657 0.0 0.01571694723609046 0.0 0.0
-0.02189113911707799 0.019364124029693564 0.0 0.013023468865664023 0.0 0.0
-0.015994409970902346 0.013686662483882728 0.0 0.010199841461287384 0.0 0.0
-0.010899032078117293 0.008833052540921482 0.0 0.007384065510925353 0.0 0.0
-0.006803916054224757 0.005032302198829219 0.0 0.004914359053471484 0.0 0.0
-0.00392708491263348 0.002515827903082357 0.0 0.003171143184445835 0.0 0.0
-0.002260297990792956 0.0012262672040002087 0.0 0.00225755321114246 0.0 0.0
-0.00147166394839493 0.0007275357985282449 0.0 0.0019687404912417383 0.0 0.0
-0.0010726012040966487 0.0005194082837735037 0.0 0.0020017609213485166 0.0 0.0
-0.0007476116704692726 0.0003277760336229396 0.0 0.002081814005913618 0.0 0.0
-0.0003711162736392132 2.15180146568017e-05 0.0 0.0019525133523125016 0.0 0.0
4.122624141192355e-05 -0.00035353234947588415 0.0 0.0010720544288640999 0.0 0.0
-2.17129677175798e-05 -0.00021314107807399174 0.0 -0.0008681442960143948 0.0 0.0
-0.0004240741077327359 7.328228300462758e-05 0.0 -0.0016987465741758467 0.0 0.0
-0.0008551658532405249 0.00037240632030455245 0.0 -0.00185232944726893 0.0 0.0
-0.0012532447386638668 0.0005884147314583199 0.0 -0.0017527355728719218 0.0 0.0
-0.0017789695281802687 0.0008875215142916115 0.0 -0.0017124200518062738 0.0 0.0
-0.002886166589376682 0.001662882069893401 0.0 -0.0020364479856613826 0.0 0.0
-0.005095428262430257 0.0034997198719979306 0.0 -0.003020008801263241 0.0 0.0
-0.008709614312723574 0.0067789991266247185 0.0 -0.00482764515508638 0.0 0.0
-0.013676998493984321 0.011469494591584528 0.0 -0.007248051777647702 0.0 0.0
-0.019818487641315524 0.017359376683162786 0.0 -0.009936853309654992 0.0 0.0
-0.02696364655558381 0.024263594519746245 0.0 -0.012653181106857092 0.0 0.0
-0.03500367354566525 0.032070491880519025 0.0 -0.01524562430794063 0.0 0.0
-0.043933300401967135 0.040774152015889964 0.0 -0.017752938575176902 0.0 0.0
-0.05381961083599063 0.05043977889007367 0.0 -0.02026632160039754 0.0 0.0
-0.06468383832703978 0.061066729528628905 0.0 -0.022941360884314754 0.0 0.0
-0.07619465170292739 0.07227884239565574 0.0 -0.026204548367663505 0.0 0.0
-0.08714105123276361 0.08283710175121595 0.0 -0.03056464005394055 0.0 0.0
-0.0949746773140619 0.090191522531756 0.0 -0.035748237286687856 0.0 0.0
-0.09565729554883562 0.0903404248867794 0.0 -0.04039061919754272 0.0 0.0
-0.0837582659623691 0.07789322148568445 0.0 -0.04342201228225495 0.0 0.0
-0.08375826596236186 0.07789322148568134 0.0 0.04342201228229969 0.0 0.0
-0.09565729554881511 0.0903404248867643 0.0 0.040390619197598565 0.0 0.0
-0.09497467731402598 0.09019152253172003 0.0 0.03574823728672788 0.0 0.0
-0.08714105123271584 0.08283710175117065 0.0 0.030564640053950876 0.0 0.0
-0.07619465170287179 0.07227884239560067 0.0 0.02620454836765851 0.0 0.0
-0.06468383832698302 0.061066729528570285 0.0 0.022941360884308426 0.0 0.0
-0.05381961083593444 0.05043977889001505 0.0 0.020266321600383497 0.0 0.0
-0.04393330040191028 0.04077415201583401 0.0 0.01775293857516197 0.0 0.0
-0.03500367354561011 0.03207049188046174 0.0 0.0152456243079232 0.0 0.0
-0.02696364655553439 0.024263594519694287 0.0 0.01265318110683289 0.0 0.0
-0.019818487641272156 0.01735937668311882 0.0 0.009936853309631954 0.0 0.0
-0.013676998493951667 0.01146949459154989 0.0 0.0072480517776295494 0.0 0.0
-0.008709614312699843 0.006778999126598739 0.0 0.004827645155071669 0.0 0.0
-0.005095428262415547 0.0034997198719826095 0.0 0.003020008801253693 0.0 0.0
-0.002886166589369174 0.0016628820698867397 0.0 0.0020364479856543882 0.0 0.0
-0.001778969528178298 0.0008875215142900572 0.0 0.0017124200518056076 0.0 0.0
-0.0012532447386632561 0.0005884147314582089 0.0 0.001752735572870756 0.0 0.0
-0.000855165853239831 0.00037240632030483 0.0 0.0018523294472679863 0.0 0.0
-0.0004240741077320559 7.328228300407247e-05 0.0 0.0016987465741745145 0.0 0.0
-2.1712967717760212e-05 -0.000213141078074134 0.0 0.0008681442960128405 0.0 0.0
-7.290532691345275e-05 -9.836524142423086e-05 0.0 -0.0006579314992599117 0.0 0.0
-0.00047385433726407356 0.00012554417637888893 0.0 -0.0014042266649316737 0.0 0.0
-0.0009569186643415273 0.00041422593053086487 0.0 -0.0015667320174987953 0.0 0.0
-0.0014283393444201875 0.0006550061607475399 0.0 -0.0014543467633858498 0.0 0.0
-0.0021165892313309564 0.001079241984193846 0.0 -0.0014157811788351182 0.0 0.0
-0.003592219654845241 0.0022056685851254976 0.0 -0.0017648686389989954 0.0 0.0
-0.006372073954290819 0.00463124264614545 0.0 -0.0027608926572577075 0.0 0.0
-0.010676021064608965 0.00862827487261364 0.0 -0.00443085139232946 0.0 0.0
-0.016478774639758137 0.014155658491049827 0.0 -0.006578666254277998 0.0 0.0
-0.023656932962834415 0.02106702603656041 0.0 -0.008998212022522267 0.0 0.0
-0.032043854366493985 0.029191741401922044 0.0 -0.011442583499507553 0.0 0.0
-0.04152997644187728 0.03841898505404906 0.0 -0.013782229227835785 0.0 0.0
-0.05209150634620108 0.04872707143376909 0.0 -0.01607355778611763 0.0 0.0
-0.06375881738979608 0.060144297977697825 0.0 -0.01835444439052647 0.0 0.0
-0.07651717138299546 0.0726433999097571 0.0 -0.020618949762269634 0.0 0.0
-0.09003455109914577 0.08584035816954749 0.0 -0.02304156254626688 0.0 0.0
-0.1030120193220968 0.0983705378588291 0.0 -0.026338937498615045 0.0 0.0
-0.11246840420221627 0.1072727191365348 0.0 -0.03141422987242126 0.0 0.0
-0.1137097180802352 0.10792542734632837 0.0 -0.038481217046909766 0.0 0.0
-0.10073801882227645 0.09441184804471403 0.0 -0.04738668423796433 0.0 0.0
-0.1007380188222671 0.09441184804470337 0.0 0.04738668423800718 0.0 0.0
-0.11370971808021027 0.1079254273463004 0.0 0.03848121704695834 0.0 0.0
-0.11246840420217312 0.10727271913649039 0.0 0.03141422987245662 0.0 0.0
-0.1030120193220418 0.09837053785877359 0.0 0.026338937498624815 0.0 0.0
-0.09003455109908154 0.08584035816948843 0.0 0.023041562546263605 0.0 0.0
-0.07651717138292957 0.07264339990969537 0.0 0.020618949762263195 0.0 0.0
-0.06375881738973051 0.060144297977634764 0.0 0.01835444439051226 0.0 0.0
-0.05209150634613524 0.04872707143370425 0.0 0.01607355778610342 0.0 0.0
-0.04152997644181317 0.03841898505399133 0.0 0.013782229227820353 0.0 0.0
-0.03204385436643632 0.029191741401874527 0.0 0.011442583499486375 0.0 0.0
-0.02365693296278503 0.021067026036515113 0.0 0.008998212022500701 0.0 0.0
-0.01647877463971994 0.014155658491011192 0.0 0.006578666254263288 0.0 0.0
-0.010676021064580349 0.00862827487258877 0.0 0.004430851392317581 0.0 0.0
-0.00637207395427257 0.004631242646129907 0.0 0.00276089265724927 0.0 0.0
-0.0035922196548357974 0.002205668585117948 0.0 0.001764868638994166 0.0 0.0
-0.0021165892313276813 0.0010792419841904044 0.0 0.0014157811788329533 0.0 0.0
-0.0014283393444195144 0.0006550061607443203 0.0 0.0014543467633851836 0.0 0.0
-0.0009569186643408334 0.00041422593052869994 0.0 0.0015667320174980182 0.0 0.0
-0.00047385433726348375 0.0001255441763784726 0.0 0.001404226664930952 0.0 0.0
-7.290532691364704e-05 -9.836524142409382e-05 0.0 0.0006579314992590235 0.0 0.0
-0.00010863530820254264 -1.2430701031490576e-05 0.0 -0.0004430155201533559 0.0 0.0
-0.0005157112538453634 0.0001745925818980587 0.0 -0.0010716826673822788 0.0 0.0
-0.0010536749791529298 0.000452335497417522 0.0 -0.0012237374256453548 0.0 0.0
-0.0016066156659747532 0.0007290193643358922 0.0 -0.001111727737806878 0.0 0.0
-0.0025004140217472215 0.0013249970725461857 0.0 -0.0010817902706135585 0.0 0.0
-0.004389622808206872 0.002860744748665267 0.0 -0.0014381067395737857 0.0 0.0
-0.007716473662573831 0.0058599435521202725 0.0 -0.0022952103144610048 0.0 0.0
-0.012660765416230346 0.010520452472891684 0.0 -0.0036484198157105685 0.0 0.0
-0.019281664856120484 0.01686090165456644 0.0 -0.005407461622984389 0.0 0.0
-0.027481224770343315 0.02477760048925015 0.0 -0.007397375844447995 0.0 0.0
-0.03710545064940335 0.0341172494923212 0.0 -0.009413377622189079 0.0 0.0
-0.04804238709260453 0.04477032082787158 0.0 -0.011339781973198071 0.0 0.0
-0.060247943899598116 0.0566926268992165 0.0 -0.013238556709885607 0.0 0.0
-0.07369403648387593 0.06985441918476765 0.0 -0.015169879997760649 0.0 0.0
-0.08825739860693418 0.08412705352106897 0.0 -0.016956603301958362 0.0 0.0
-0.10353415303275249 0.09907378394321054 0.0 -0.018322377677101653 0.0 0.0
-0.11832151736715141 0.11341193545740813 0.0 -0.019888196655616364 0.0 0.0
-0.1296324580320747 0.12408220301179407 0.0 -0.02422635399776396 0.0 0.0
-0.13205372085271339 0.12582895752205658 0.0 -0.034154226521417086 0.0 0.0
-0.11864138024368828 0.11182047903716841 0.0 -0.05077949137831672 0.0 0.0
-0.11864138024367737 0.11182047903715775 0.0 0.05077949137834992 0.0 0.0
-0.13205372085268352 0.12582895752202994 0.0 0.03415422652146144 0.0 0.0
-0.12963245803202433 0.12408220301174788 0.0 0.02422635399779749 0.0 0.0
-0.11832151736708828 0.11341193545734951 0.0 0.019888196655624357 0.0 0.0
-0.10353415303268002 0.09907378394313993 0.0 0.018322377677102042 0.0 0.0
-0.08825739860685955 0.08412705352099348 0.0 0.016956603301954365 0.0 0.0
-0.07369403648380093 0.06985441918469837 0.0 0.015169879997752989 0.0 0.0
-0.060247943899523135 0.05669262689915078 0.0 0.013238556709873672 0.0 0.0
-0.04804238709253181 0.04477032082780141 0.0 0.011339781973188079 0.0 0.0
-0.03710545064933786 0.03411724949225725 0.0 0.00941337762217212 0.0 0.0
-0.02748122477028779 0.024777600489196416 0.0 0.007397375844428317 0.0 0.0
-0.019281664856076623 0.016860901654524474 0.0 0.00540746162297201 0.0 0.0
-0.01266076541619724 0.01052045247286193 0.0 0.003648419815701409 0.0 0.0
-0.00771647366255207 0.005859943552098512 0.0 0.0022952103144536773 0.0 0.0
-0.004389622808195222 0.002860744748655053 0.0 0.0014381067395696223 0.0 0.0
-0.002500414021742711 0.0013249970725440763 0.0 0.001081790270611449 0.0 0.0
-0.0016066156659736708 0.0007290193643343379 0.0 0.0011117277378053791 0.0 0.0
-0.0010536749791521527 0.0004523354974161342 0.0 0.0012237374256434674 0.0 0.0
-0.0005157112538447944 0.00017459258189753135 0.0 0.0010716826673819457 0.0 0.0
-0.00010863530820254957 -1.243070103111761e-05 0.0 0.00044301552015313383 0.0 0.0
-0.0001222861294516986 4.046424819370564e-05 0.0 -0.00023011265228511935 0.0 0.0
-0.0005407238902289668 0.000214423572928224 0.0 -0.0007006741026841512 0.0 0.0
-0.0011472566518612726 0.0004877900321158535 0.0 -0.0008167390363790217 0.0 0.0
-0.0018025673810516119 0.0008195532503555425 0.0 -0.0007266272331345469 0.0 0.0
-0.002947973759799105 0.0016480854689964186 0.0 -0.0007197294989725878 0.0 0.0
-0.005264951944679408 0.0036179255699440027 0.0 -0.00099867454746555 0.0 0.0
-0.009086311753943144 0.007143858124415425 0.0 -0.0015994066230945458 0.0 0.0
-0.014646543617614027 0.012428392791278942 0.0 -0.002520833568857961 0.0 0.0
-0.022058801654032956 0.01955625878070899 0.0 -0.003740800067676908 0.0 0.0
-0.03126389038168664 0.028461466876011254 0.0 -0.005141341131101429 0.0 0.0
-0.04212162378075013 0.03901152928763274 0.0 -0.006560975845297468 0.0 0.0
-0.0545143376611254 0.05109447012633428 0.0 -0.007918065165725241 0.0 0.0
-0.06837183504661037 0.0646384502469104 0.0 -0.009286303372201155 0.0 0.0
-0.08358774802883961 0.07953323059579631 0.0 -0.010667310346812453 0.0 0.0
-0.0998924497260392 0.09550543954866253 0.0 -0.01185349788714718 0.0 0.0
-0.1167062677144245 0.11197004279393896 0.0 -0.012402429761722122 0.0 0.0
-0.1328896959933009 0.12774673563681427 0.0 -0.012210567210256595 0.0 0.0
-0.14603876455152728 0.14031186224456604 0.0 -0.014047436628853549 0.0 0.0
-0.15086372009445714 0.144187264037257 0.0 -0.02588613246954996 0.0 0.0
-0.1381319607073264 0.13073131406114813 0.0 -0.052817775993433735 0.0 0.0
-0.13813196070731346 0.13073131406113125 0.0 0.05281777599345705 0.0 0.0
-0.15086372009442212 0.14418726403722237 0.0 0.0258861324695826 0.0 0.0
-0.1460387645514694 0.14031186224450343 0.0 0.014047436628878807 0.0 0.0
-0.13288969599322922 0.1277467356367432 0.0 0.01221056721025715 0.0 0.0
-0.11670626771434299 0.11197004279386125 0.0 0.01240242976172018 0.0 0.0
-0.09989244972595501 0.09550543954858526 0.0 0.011853497887144543 0.0 0.0
-0.08358774802875554 0.07953323059571371 0.0 0.010667310346808428 0.0 0.0
-0.06837183504652636 0.06463845024682646 0.0 0.009286303372191801 0.0 0.0
-0.0545143376610439 0.05109447012625701 0.0 0.007918065165717497 0.0 0.0
-0.042121623780677415 0.039011529287560354 0.0 0.006560975845283451 0.0 0.0
-0.031263890381624915 0.028461466875948194 0.0 0.005141341131085109 0.0 0.0
-0.02205880165398375 0.019556258780662583 0.0 0.003740800067669192 0.0 0.0
-0.01464654361757721 0.012428392791242082 0.0 0.002520833568851355 0.0 0.0
-0.009086311753917456 0.007143858124392555 0.0 0.0015994066230893278 0.0 0.0
-0.005264951944665312 0.0036179255699317903 0.0 0.000998674547462608 0.0 0.0
-0.0029479737597930857 0.001648085468993199 0.0 0.0007197294989705894 0.0 0.0
-0.001802567381050113 0.0008195532503555425 0.0 0.0007266272331359902 0.0 0.0
-0.0011472566518604815 0.0004877900321164086 0.0 0.0008167390363793547 0.0 0.0
-0.0005407238902286268 0.00021442357292780767 0.0 0.0007006741026851504 0.0 0.0
-0.00012228612945192757 4.0464248193625846e-05 0.0 0.00023011265228561895 0.0 0.0
-0.00010208443363679542 5.436409865181013e-05 0.0 -3.569788952506592e-05 0.0 0.0
-0.0005334323794113915 0.00023532971221712495 0.0 -0.000284094742423191 0.0 0.0
-0.00124296082992581 0.0005240743307235451 0.0 -0.0003317383439596644 0.0 0.0
-0.002038245967868557 0.0009518192743573906 0.0 -0.0003071270551912031 0.0 0.0
-0.0034671607725074716 0.0020491744483601693 0.0 -0.0003069947647862392 0.0 0.0
-0.00618579597135005 0.0044398555526357075 0.0 -0.00041856338626772294 0.0 0.0
-0.010467536434049685 0.008454059909624556 0.0 -0.0006667995620238121 0.0 0.0
-0.016609220542101732 0.014327339505093573 0.0 -0.0010502262303717091 0.0 0.0
-0.024783995295512395 0.022211838791388328 0.0 -0.0015875587353815779 0.0 0.0
-0.03497600893076419 0.03208805021840622 0.0 -0.002228382149629282 0.0 0.0
-0.04706659380082223 0.04384803046590724 0.0 -0.002887406260251524 0.0 0.0
-0.06092403193612406 0.05736746411025706 0.0 -0.0035352918191555727 0.0 0.0
-0.07642288010726256 0.07252269751494733 0.0 -0.00418155994425895 0.0 0.0
-0.09338379362391933 0.08912701654753352 0.0 -0.004795389104535475 0.0 0.0
-0.11140423222622128 0.10677172465460627 0.0 -0.005257298032829816 0.0 0.0
-0.1296690638921083 0.12464567814438476 0.0 -0.005261767503664583 0.0 0.0
-0.14685623715334958 0.14143986629974403 0.0 -0.004380760276278206 0.0 0.0
-0.16104829384140248 0.15520597911754797 0.0 -0.0032080341031605064 0.0 0.0
-0.16887972963497172 0.16235344991537115 0.0 -0.010120464809696972 0.0 0.0
-0.1611229042782162 0.15260936021083804 0.0 -0.04865097164335708 0.0 0.0
-0.16112290427820128 0.15260936021081806 0.0 0.048650971643366736 0.0 0.0
-0.16887972963493197 0.16235344991532985 0.0 0.010120464809713126 0.0 0.0
-0.1610482938413365 0.15520597911748757 0.0 0.00320803410317283 0.0 0.0
-0.14685623715326787 0.14143986629966498 0.0 0.004380760276274542 0.0 0.0
-0.12966906389201704 0.12464567814429195 0.0 0.005261767503664444 0.0 0.0
-0.1114042322261279 0.10677172465451434 0.0 0.005257298032831148 0.0 0.0
-0.09338379362382587 0.08912701654744515 0.0 0.004795389104533143 0.0 0.0
-0.07642288010716972 0.07252269751486562 0.0 0.004181559944256591 0.0 0.0
-0.060924031936034 0.05736746411017268 0.0 0.0035352918191539073 0.0 0.0
-0.0470665938007418 0.04384803046583219 0.0 0.0028874062602451123 0.0 0.0
-0.03497600893069637 0.03208805021834138 0.0 0.0022283821496223988 0.0 0.0
-0.024783995295458657 0.02221183879133526 0.0 0.0015875587353789689 0.0 0.0
-0.016609220542060744 0.014327339505056047 0.0 0.0010502262303695442 0.0 0.0
-0.010467536434020985 0.008454059909599465 0.0 0.0006667995620235345 0.0 0.0
-0.00618579597133416 0.00443985555261861 0.0 0.00041856338626727885 0.0 0.0
-0.0034671607724997165 0.0020491744483515095 0.0 0.0003069947647857396 0.0 0.0
-0.0020382459678666073 0.0009518192743563914 0.0 0.0003071270551923688 0.0 0.0
-0.0012429608299250657 0.0005240743307231566 0.0 0.0003317383439596089 0.0 0.0
-0.0005334323794106942 0.00023532971221743026 0.0 0.0002840947424231355 0.0 0.0
-0.00010208443363679022 5.4364098651759826e-05 0.0 3.569788952606512e-05 0.0 0.0
SCALARS Statev float 8
LOOKUP_TABLE default
0.0 0.012829021431288966 0.00990880266587736 -0.010290470378948452 0.0003816677130710891 -0.005688855554248371 0.0 0.0
0.0 0.0006959791361725238 0.00048592009508505423 -0.0004093941394786813 -7.652595560637274e-05 0.0004589508601129737 0.0 0.0
0.0 3.342380937738801e-05 -4.754075056001044e-06 3.773145031477424e-06 9.809300245235895e-07 5.62033213615258e-07 0.0 0.0
0.0 0.00025741085155807266 0.0001776430541077123 -0.00013969291960310242 -3.795013450460986e-05 -2.4838764636808225e-05 0.0 0.0
0.0 0.001424277996204199 0.0011421724727636183 -0.0009427724490442975 -0.00019940002371932058 -0.00012407059895470172 0.0 0.0
0.0 0.0038710859853762925 0.0035149580552047265 -0.0030741702498615457 -0.0004407878053431806 -0.00028849089837044994 0.0 0.0
0.0 0.008406978884919132 0.007504447785665676 -0.006888363299217896 -0.0006160844864477788 -0.00053327817522572 0.0 0.0
0.0 0.015164030162247252 0.01338802318823912 -0.012651134214699608 -0.0007368889735395086 -0.0008986512680628363 0.0 0.0
0.0 0.024303290070053125 0.021310404455961836 -0.020468216434403573 -0.0008421880215582613 -0.0014129289503925072 0.0 0.0
0.0 0.035809814093641 0.03126022853783408 -0.030309919471956832 -0.000950309065877238 -0.0020392917619727648 0.0 0.0
0.0 0.04958804399808418 0.043135026464116946 -0.04207248131384268 -0.0010625451502742256 -0.0026985512320558663 0.0 0.0
0.0 0.06521404321408275 0.05681527299576764 -0.055638040271002345 -0.00117723272476526 -0.0033530753050396186 0.0 0.0
0.0 0.08285582482969 0.07217916953237019 -0.07088602182057953 -0.0012931477117906097 -0.004004154949092507 0.0 0.0
0.0 0.1023388094337747 0.08907778326284913 -0.08766596042368996 -0.0014118228391590934 -0.004648142629852151 0.0 0.0
0.0 0.1232552905127297 0.10721321602601241 -0.10567842344778063 -0.0015347925782317764 -0.005263895867387183 0.0 0.0
0.0 0.14495930660227402 0.12599599916138082 -0.12433488578565223 -0.00166111337572859 -0.005735904047438246 0.0 0.0
0.0 0.16632702844309744 0.1444820478642 -0.14269526298302493 -0.0017867848811750795 -0.005844510451638155 0.0 0.0
0.0 0.18587760320809774 0.16140537674370561 -0.1594984345493785 -0.0019069421943271212 -0.005356969920102794 0.0 0.0
0.0 0.2018614698509723 0.175246996514667 -0.17322801408631905 -0.0020189824283479295 -0.0044723860016539175 0.0 0.0
0.0 0.21159182761939233 0.18381182714423705 -0.18163223672828935 -0.002179590415947747 -0.004862481335535699 0.0 0.0
0.0 0.21159182761937834 0.18381182714422495 -0.18163223672827705 -0.002179590415947869 0.004862481335543004 0.0 0.0
0.0 0.20186146985092868 0.17524699651462888 -0.1732280140862812 -0.002018982428347634 0.004472386001674468 0.0 0.0
0.0 0.18587760320802882 0.16140537674364566 -0.15949843454931945 -0.0019069421943261958 0.005356969920114001 0.0 0.0
0.0 0.16632702844300615 0.1444820478641206 -0.1426952629829462 -0.0017867848811742935 0.005844510451645279 0.0 0.0
0.0 0.14495930660217166 0.12599599916129228 -0.12433488578556383 -0.001661113375728535 0.005735904047428929 0.0 0.0
0.0 0.12325529051263011 0.10721321602592579 -0.1056784234476948 -0.0015347925782309504 0.00526389586738664 0.0 0.0
0.0 0.10233880943367558 0.08907778326276286 -0.08766596042360486 -0.0014118228391579546 0.004648142629851271 0.0 0.0
0.0 0.08285582482958827 0.07217916953228196 -0.07088602182049193 -0.0012931477117900415 0.004004154949091641 0.0 0.0
0.0 0.06521404321398298 0.05681527299568134 -0.055638040270916206 -0.0011772327247651026 0.003353075305032975 0.0 0.0
0.0 0.04958804399799266 0.04313502646403749 -0.042072481313763364 -0.0010625451502741163 0.0026985512320512176 0.0 0.0
0.0 0.03580981409356951 0.03126022853777194 -0.03030991947189559 -0.0009503090658763589 0.002039291761964727 0.0 0.0
0.0 0.024303290070000035 0.02131040445591502 -0.020468216434357617 -0.0008421880215574124 0.001412928950390192 0.0 0.0
0.0 0.01516403016220619 0.013388023188202588 -0.012651134214663734 -0.0007368889735388473 0.0008986512680595816 0.0 0.0
0.0 0.008406978884892608 0.0075044477856417765 -0.006888363299194693 -0.0006160844864470797 0.0005332781752242935 0.0 0.0
0.0 0.0038710859853611913 0.003514958055190651 -0.0030741702498485123 -0.00044078780534213786 0.0002884908983693518 0.0 0.0
0.0 0.0014242779961969488 0.0011421724727576387 -0.0009427724490390829 -0.00019940002371855533 0.00012407059895387342 0.0 0.0
0.0 0.000257410851556367 0.00017764305410710075 -0.00013969291960260946 -3.7950134504491306e-05 2.4838764636687844e-05 0.0 0.0
0.0 3.342380937687491e-05 -4.754075055922566e-06 3.7731450314146314e-06 9.80930024507978e-07 -5.620332136057866e-07 0.0 0.0
0.0 0.000695979136169914 0.00048592009508358286 -0.0004093941394774288 -7.652595560615442e-05 -0.00045895086011127394 0.0 0.0
0.0 0.01282902143127053 0.009908802665865014 -0.010290470378935122 0.00038166771307010375 0.0056888555542192595 0.0 0.0
0.0 0.009474281613457109 0.006859316961712214 -0.007350912998526111 0.0004915960368138913 -0.0065427009177623585 0.0 0.0
0.0 3.855693418561199e-06 1.9535832141927607e-06 -1.6788378833880116e-06 -2.7474533080475403e-07 1.2738752094117893e-06 0.0 0.0
0.0 4.4055315617873827e-07 -3.771610952369576e-08 2.9512811015294543e-08 8.20329850839846e-09 1.6375401717514332e-08 0.0 0.0
0.0 9.261718463504835e-05 5.6011718075865916e-05 -4.381292915915213e-05 -1.2198788916714016e-05 -2.0532432198568746e-05 0.0 0.0
0.0 0.0009382373408117102 0.0007104294224400542 -0.000578526102514036 -0.000131903319926018 -0.00018978091456361485 0.0 0.0
0.0 0.0029537006713337734 0.0026852145103398585 -0.002311836085195076 -0.0003733784251447823 -0.0005856430860328882 0.0 0.0
0.0 0.006959657899727059 0.006209862808209948 -0.0056357206487658625 -0.0005741421594440829 -0.001210071118224598 0.0 0.0
0.0 0.013051354921128838 0.011506470407559933 -0.010797383728398492 -0.0007090866791614389 -0.0021011155425400474 0.0 0.0
0.0 0.0213163372526931 0.018665904901894466 -0.01784949684670798 -0.0008164080551864717 -0.0032826883563831224 0.0 0.0
0.0 0.03168574184209744 0.02763120493685922 -0.0267107315283216 -0.0009204734085376213 -0.004666204840223475 0.0 0.0
0.0 0.04401426280517119 0.03827775050435539 -0.03725237453055715 -0.0010253759737982337 -0.006099144591352278 0.0 0.0
0.0 0.05822322336298165 0.05050043053566132 -0.04936974847039322 -0.0011306820652681017 -0.007485872692610512 0.0 0.0
0.0 0.07394379206150434 0.0642352664676252 -0.06299796988469433 -0.0012372965829308329 -0.008881120105191083 0.0 0.0
0.0 0.0913507221232574 0.07937430365623277 -0.07802797152015148 -0.0013463321360812769 -0.010304224474778622 0.0 0.0
0.0 0.11014938938834028 0.09566493031293612 -0.09420653392419487 -0.0014583963887411793 -0.01166445349300288 0.0 0.0
0.0 0.12968654686826386 0.1126072968955797 -0.11103437853980275 -0.0015729183557769782 -0.012729193717816037 0.0 0.0
0.0 0.14902790247113087 0.12938378302659895 -0.12769577452336114 -0.001688008503237842 -0.013065331513998356 0.0 0.0
0.0 0.16685169871444788 0.14484085042884545 -0.14303878748097743 -0.0018020629478679852 -0.012291350946470903 0.0 0.0
0.0 0.18129895016890088 0.15738626770438016 -0.15546064708784008 -0.0019256206165401135 -0.010556254557074844 0.0 0.0
0.0 0.1899553945199831 0.16493025261079558 -0.16291034812651106 -0.0020199044842845195 -0.007679247495036522 0.0 0.0
0.0 0.18995539451996832 0.16493025261078262 -0.16291034812649802 -0.00201990448428463 0.007679247495058767 0.0 0.0
0.0 0.18129895016886266 0.1573862677043461 -0.15546064708780677 -0.001925620616539404 0.010556254557111157 0.0 0.0
0.0 0.16685169871438585 0.1448408504287907 -0.14303878748092375 -0.0018020629478669268 0.012291350946496554 0.0 0.0
0.0 0.1490279024710497 0.12938378302652814 -0.12769577452329112 -0.0016880085032369174 0.01306533151401024 0.0 0.0
0.0 0.129686546868175 0.11260729689550285 -0.11103437853972635 -0.001572918355776414 0.012729193717805927 0.0 0.0
0.0 0.1101493893882482 0.09566493031285625 -0.09420653392411552 -0.0014583963887407094 0.011664453492999272 0.0 0.0
0.0 0.09135072212316311 0.07937430365615117 -0.07802797152007004 -0.0013463321360810798 0.01030422447477452 0.0 0.0
0.0 0.07394379206141366 0.06423526646754633 -0.06299796988461638 -0.0012372965829299345 0.008881120105186466 0.0 0.0
0.0 0.05822322336289672 0.05050043053558731 -0.049369748470320204 -0.0011306820652670804 0.007485872692601165 0.0 0.0
0.0 0.0440142628050946 0.03827775050428891 -0.037252374530491225 -0.00102537597379768 0.006099144591342881 0.0 0.0
0.0 0.031685741842031996 0.02763120493680255 -0.02671073152826496 -0.0009204734085375912 0.004666204840210633 0.0 0.0
0.0 0.021316337252644382 0.018665904901851587 -0.017849496846665366 -0.0008164080551862165 0.003282688356376783 0.0 0.0
0.0 0.013051354921093609 0.011506470407528793 -0.010797383728367992 -0.0007090866791608074 0.002101115542534029 0.0 0.0
0.0 0.006959657899703128 0.006209862808188365 -0.005635720648745104 -0.0005741421594432567 0.0012100711182208691 0.0 0.0
0.0 0.0029537006713209494 0.0026852145103284306 -0.002311836085184649 -0.0003733784251437815 0.0005856430860303813 0.0 0.0
0.0 0.000938237340805941 0.0007104294224356932 -0.0005785261025103691 -0.00013190331992532427 0.00018978091456254626 0.0 0.0
0.0 9.261718463393178e-05 5.601171807548305e-05 -4.3812929158844496e-05 -1.2198788916638403e-05 2.0532432198432383e-05 0.0 0.0
0.0 4.405531562437391e-07 -3.771610945774676e-08 2.951281096557506e-08 8.203298492169786e-09 -1.637540169515111e-08 0.0 0.0
0.0 3.8556934184058735e-06 1.9535832142423324e-06 -1.6788378834283122e-06 -2.747453308140164e-07 -1.2738752094536121e-06 0.0 0.0
0.0 0.009474281613436032 0.00685931696169828 -0.0073509129985114595 0.0004915960368131766 0.006542700917737727 0.0 0.0
0.0 0.0071513968755176245 0.004900032514563916 -0.00541523520092797 0.0005152026863640536 -0.0057243005765834935 0.0 0.0
0.0 0.0 0.0 0.0 0.0 0.0 0.0 0.0
0.0 0.0 0.0 0.0 0.0 0.0 0.0 0.0
0.0 1.716678615968653e-05 1.2519816342102486e-05 -9.767467160154608e-06 -2.752349181947891e-06 -8.437637160877916e-06 0.0 0.0
0.0 0.0005075275344440362 0.0003874951902468099 -0.00031148281488831825 -7.60123753584915e-05 -0.00018463987466782835 0.0 0.0
0.0 0.0022776897987403914 0.0018995807841488742 -0.0016082894359311555 -0.0002912913482177175 -0.0007170348800910522 0.0 0.0
0.0 0.005567263849368986 0.0049427549586802295 -0.004422056699787882 -0.0005206982588923475 -0.0016371027697230714 0.0 0.0
0.0 0.010962162177874449 0.009620800844754298 -0.008947672332372321 -0.0006731285123819798 -0.002961971660083421 0.0 0.0
0.0 0.018352947166270898 0.015987043398395462 -0.015201510468240913 -0.0007855329301545458 -0.004673123192472441 0.0 0.0
0.0 0.027596612710754517 0.023948899548777297 -0.023062949226841357 -0.0008859503219359255 -0.006644350944906291 0.0 0.0
0.0 0.03854976794627259 0.033364238821911356 -0.032380663063854516 -0.0009835757580568245 -0.00868232704922297 0.0 0.0
0.0 0.05100998310019284 0.04413779910507161 -0.04305754377843613 -0.0010802553266354646 -0.010661230273617688 0.0 0.0
0.0 0.06510207060132264 0.05622973116536298 -0.05505227721135335 -0.0011774539540096425 -0.012625508626469016 0.0 0.0
0.0 0.08042946332749092 0.069587095098863 -0.06831064805790807 -0.0012764470409548686 -0.014646379732111041 0.0 0.0
0.0 0.09704811673904973 0.08401887447497589 -0.08264161237464379 -0.001377262100332046 -0.01661479599282955 0.0 0.0
0.0 0.1144768219619552 0.09912136072395877 -0.09764146825383167 -0.001479892470127065 -0.018176494531350916 0.0 0.0
0.0 0.13183959493596342 0.1142090932633987 -0.11262443249174692 -0.001584660771651714 -0.018798360431358716 0.0 0.0
0.0 0.1479023735030988 0.12822179098899203 -0.12652669275899328 -0.001695098229998726 -0.01797070564443358 0.0 0.0
0.0 0.16093477956624497 0.13963716678528587 -0.13783472937749733 -0.0018024374077885217 -0.015210327665578113 0.0 0.0
0.0 0.1689468676062627 0.14672375748522057 -0.14484422469094071 -0.0018795327942798077 -0.009693135185111772 0.0 0.0
0.0 0.16894686760625127 0.14672375748520994 -0.14484422469093033 -0.001879532794279501 0.009693135185146957 0.0 0.0
0.0 0.16093477956620922 0.13963716678525342 -0.137834729377465 -0.0018024374077885014 0.015210327665628694 0.0 0.0
0.0 0.14790237350304186 0.12822179098894163 -0.12652669275894246 -0.001695098229999125 0.017970705644469988 0.0 0.0
0.0 0.13183959493589353 0.11420909326333731 -0.1126244324916859 -0.0015846607716514644 0.018798360431375484 0.0 0.0
0.0 0.11447682196187497 0.09912136072388955 -0.0976414682537626 -0.0014798924701268901 0.018176494531341295 0.0 0.0
0.0 0.09704811673896753 0.08401887447490462 -0.08264161237457282 -0.0013772621003317938 0.016614795992824078 0.0 0.0
0.0 0.08042946332741074 0.06958709509879304 -0.06831064805783912 -0.0012764470409539386 0.014646379732106824 0.0 0.0
0.0 0.06510207060124287 0.056229731165293576 -0.05505227721128454 -0.001177453954009022 0.012625508626462934 0.0 0.0
0.0 0.051009983100118436 0.044137799105007425 -0.04305754377837254 -0.0010802553266348923 0.010661230273602749 0.0 0.0
0.0 0.03854976794620886 0.03336423882185563 -0.03238066306379975 -0.0009835757580558546 0.008682327049210426 0.0 0.0
0.0 0.027596612710696824 0.023948899548727177 -0.0230629492267918 -0.0008859503219353724 0.006644350944889131 0.0 0.0
0.0 0.01835294716622485 0.01598704339835529 -0.01520151046820128 -0.000785532930154003 0.0046731231924615185 0.0 0.0
0.0 0.010962162177841002 0.009620800844724978 -0.00894767233234355 -0.0006731285123814254 0.0029619716600740734 0.0 0.0
0.0 0.005567263849350154 0.004942754958663411 -0.0044220566997719155 -0.0005206982588914976 0.0016371027697177193 0.0 0.0
0.0 0.002277689798730918 0.0018995807841411046 -0.0016082894359242348 -0.0002912913482168693 0.0007170348800878172 0.0 0.0
0.0 0.0005075275344409345 0.00038749519024474787 -0.00031148281488660294 -7.60123753581448e-05 0.00018463987466674496 0.0 0.0
0.0 1.7166786159430745e-05 1.2519816342411462e-05 -9.767467160386758e-06 -2.752349182024724e-06 8.437637161023962e-06 0.0 0.0
0.0 0.0 0.0 0.0 0.0 0.0 0.0 0.0
0.0 0.0 0.0 0.0 0.0 0.0 0.0 0.0
0.0 0.00715139687549904 0.004900032514551127 -0.005415235200914468 0.000515202686363338 0.005724300576562995 0.0 0.0
0.0 0.005335364625831193 0.003503096358832978 -0.0039852980255455 0.0004822016667125205 -0.004502825464426039 0.0 0.0
0.0 0.0 0.0 0.0 0.0 0.0 0.0 0.0
0.0 0.0 0.0 0.0 0.0 0.0 0.0 0.0
0.0 2.842467319271071e-06 3.188066019570969e-07 -2.471174979057293e-07 -7.168910405135213e-08 -3.281709704609086e-07 0.0 0.0
0.0 0.0002334532386766656 0.0001716909971015193 -0.00013689156117727619 -3.479943592424295e-05 -0.00013205133629462062 0.0 0.0
0.0 0.0015388456436879689 0.0012353854487621506 -0.0010279844141682691 -0.0002074010345938817 -0.0007098123137411613 0.0 0.0
0.0 0.004294343064161845 0.0037205174000099427 -0.003272483809391921 -0.00044803359061802305 -0.0018188005272113332 0.0 0.0
0.0 0.00892340807179584 0.00775518896019349 -0.007128100845241711 -0.0006270881149517799 -0.0034740991290455976 0.0 0.0
0.0 0.015410701270248968 0.013302814475950367 -0.012555397148395493 -0.0007474173275548756 -0.005575946737381057 0.0 0.0
0.0 0.02351539698428882 0.020245209783463756 -0.019399415293912568 -0.0008457944895511669 -0.007976433825487574 0.0 0.0
0.0 0.033070180380652285 0.028424644186048148 -0.02748773676191416 -0.0009369074241339834 -0.010446920003253425 0.0 0.0
0.0 0.04394507415452842 0.03774787265166407 -0.03672249413078073 -0.0010253785208833611 -0.012857779923157118 0.0 0.0
0.0 0.05609979642654363 0.04819900939175225 -0.047085910033099664 -0.0011130993586525918 -0.015264580095654545 0.0 0.0
0.0 0.06955745425890167 0.05976118491814174 -0.05855906164801557 -0.0012021232701261543 -0.017700197423612025 0.0 0.0
0.0 0.08413314219410772 0.07231242196134922 -0.07102083188136381 -0.0012915900799853907 -0.020069654830194184 0.0 0.0
0.0 0.09925420354633588 0.0855570967540922 -0.08417503875655552 -0.0013820579975366565 -0.022042751917533448 0.0 0.0
0.0 0.11464677892358262 0.09893841217618382 -0.09746169571610688 -0.0014767164600769079 -0.023008036811329017 0.0 0.0
0.0 0.12903648388365446 0.1115372543157248 -0.10996081015833488 -0.0015764441573899292 -0.022213625796409862 0.0 0.0
0.0 0.1408861513196878 0.1220281655350019 -0.12035608843715748 -0.0016720770978444083 -0.01869766444991616 0.0 0.0
0.0 0.14851932574718085 0.12891619797948684 -0.1271744374272001 -0.001741760552286675 -0.011322832123180417 0.0 0.0
0.0 0.1485193257471707 0.12891619797947693 -0.12717443742719048 -0.0017417605522864696 0.011322832123225296 0.0 0.0
0.0 0.14088615131965784 0.12202816553497355 -0.12035608843712928 -0.0016720770978441957 0.018697664449974345 0.0 0.0
0.0 0.12903648388360625 0.11153725431568096 -0.10996081015829098 -0.0015764441573899077 0.022213625796450552 0.0 0.0
0.0 0.11464677892352498 0.09893841217613236 -0.09746169571605617 -0.001476716460076178 0.023008036811347117 0.0 0.0
0.0 0.09925420354627047 0.08555709675403528 -0.08417503875649988 -0.0013820579975353932 0.022042751917524635 0.0 0.0
0.0 0.08413314219403953 0.0723124219612897 -0.07102083188130587 -0.0012915900799838277 0.020069654830185524 0.0 0.0
0.0 0.06955745425883404 0.05976118491808266 -0.05855906164795735 -0.0012021232701252848 0.017700197423605946 0.0 0.0
0.0 0.05609979642647437 0.04819900939169207 -0.04708591003303972 -0.0011130993586523476 0.015264580095646423 0.0 0.0
0.0 0.043945074154461396 0.03774787265160617 -0.03672249413072331 -0.0010253785208828598 0.012857779923138874 0.0 0.0
0.0 0.03307018038059348 0.028424644185997175 -0.027487736761863786 -0.0009369074241333911 0.01044692000323603 0.0 0.0
0.0 0.023515396984240097 0.020245209783422057 -0.019399415293871427 -0.0008457944895506271 0.007976433825467474 0.0 0.0
0.0 0.015410701270211276 0.013302814475917609 -0.012555397148363446 -0.0007474173275541572 0.005575946737368685 0.0 0.0
0.0 0.008923408071768928 0.0077551889601700785 -0.00712810084521902 -0.0006270881149510535 0.0034740991290352395 0.0 0.0
0.0 0.004294343064143845 0.0037205173999944746 -0.003272483809377483 -0.00044803359061699067 0.0018188005272042635 0.0 0.0
0.0 0.0015388456436781213 0.001235385448754657 -0.0010279844141617672 -0.0002074010345928902 0.0007098123137367833 0.0 0.0
0.0 0.0002334532386741358 0.00017169099710024263 -0.00013689156117621334 -3.4799435924029394e-05 0.00013205133629356792 0.0 0.0
0.0 2.8424673188320868e-06 3.188066020921068e-07 -2.47117498008332e-07 -7.168910408376434e-08 3.281709705846396e-07 0.0 0.0
0.0 0.0 0.0 0.0 0.0 0.0 0.0 0.0
0.0 0.0 0.0 0.0 0.0 0.0 0.0 0.0
0.0 0.00533536462581467 0.0035030963588220322 -0.003985298025533841 0.00048220166671180764 0.004502825464409524 0.0 0.0
0.0 0.0038521236137582116 0.002434834934946153 -0.0028501995915514956 0.0004153646566053429 -0.0033125314686225592 0.0 0.0
0.0 0.0 0.0 0.0 0.0 0.0 0.0 0.0
0.0 0.0 0.0 0.0 0.0 0.0 0.0 0.0
0.0 4.2989686167635036e-07 6.1395420608511e-08 -4.6393818507332845e-08 -1.5001602101178307e-08 -8.6842124497189e-08 0.0 0.0
0.0 9.126713798539913e-05 5.959977658698949e-05 -4.74563702452358e-05 -1.2143406341753726e-05 -7.130160159242364e-05 0.0 0.0
0.0 0.0009244205186423611 0.0007111974305961943 -0.0005825232884849919 -0.0001286741421112027 -0.0006075637308823958 0.0 0.0
0.0 0.0032058009381813043 0.0025887237147737404 -0.00223167060159516 -0.0003570531131785801 -0.0017637926402408698 0.0 0.0
0.0 0.007001097723888898 0.005929268193831716 -0.005364882649327296 -0.0005643855445044185 -0.0035967341025654152 0.0 0.0
0.0 0.012509775614301026 0.010642388710929186 -0.009942784407720633 -0.0006996043032085536 -0.005982865561865055 0.0 0.0
0.0 0.019472814721058024 0.016550695941577234 -0.01575204889251763 -0.0007986470490595964 -0.00865575389530748 0.0 0.0
0.0 0.027640694763179523 0.023489157582200267 -0.02260465537641001 -0.0008845022057902732 -0.011399839649243826 0.0 0.0
0.0 0.03686875603368518 0.03136295407550851 -0.030397990976069798 -0.0009649630994387025 -0.014075779791908955 0.0 0.0
0.0 0.04723089333380073 0.04017163764608647 -0.0391279876925247 -0.001043649953561776 -0.016742641293952157 0.0 0.0
0.0 0.05855191806048573 0.04993785350646787 -0.04881564880959307 -0.0011222046968748138 -0.01945824705122871 0.0 0.0
0.0 0.07097564886066846 0.06059665936673559 -0.05939587655071875 -0.0012007828160168223 -0.02208518720689232 0.0 0.0
0.0 0.08423095597415677 0.071943064588632 -0.07066321735458302 -0.001279847234048992 -0.02429716153577651 0.0 0.0
0.0 0.09746248358144005 0.08357197470956054 -0.08221054846108664 -0.0013614262484738962 -0.025564272686661345 0.0 0.0
0.0 0.110142593057836 0.09477541923088462 -0.093327099325436 -0.001448319905448581 -0.024973447495684423 0.0 0.0
0.0 0.12096869385682253 0.10446916183552182 -0.10293492719696312 -0.0015342346385586654 -0.021153522682136692 0.0 0.0
0.0 0.12841719336942628 0.11132680998957543 -0.10972524464910877 -0.0016015653404666292 -0.01267628545971479 0.0 0.0
0.0 0.12841719336941698 0.11132680998956586 -0.10972524464909948 -0.0016015653404663124 0.012676285459761533 0.0 0.0
0.0 0.12096869385679807 0.10446916183549707 -0.10293492719693913 -0.0015342346385579478 0.021153522682197654 0.0 0.0
0.0 0.11014259305779789 0.09477541923084835 -0.09332709932540025 -0.0014483199054480939 0.02497344749572862 0.0 0.0
0.0 0.0974624835813928 0.08357197470951735 -0.08221054846104435 -0.0013614262484730165 0.02556427268668196 0.0 0.0
0.0 0.08423095597409688 0.07194306458858028 -0.07066321735453132 -0.0012798472340489983 0.02429716153576817 0.0 0.0
0.0 0.07097564886060731 0.060596659366682994 -0.05939587655066579 -0.0012007828160172105 0.022085187206881775 0.0 0.0
0.0 0.05855191806042663 0.049937853506416524 -0.04881564880954202 -0.0011222046968744925 0.01945824705122103 0.0 0.0
0.0 0.04723089333374283 0.04017163764603576 -0.039127987692474504 -0.0010436499535612367 0.016742641293943653 0.0 0.0
0.0 0.03686875603362924 0.03136295407546028 -0.030397990976022457 -0.0009649630994378 0.014075779791890446 0.0 0.0
0.0 0.027640694763129282 0.02348915758215713 -0.022604655376367792 -0.0008845022057893436 0.011399839649224015 0.0 0.0
0.0 0.01947281472101381 0.016550695941540607 -0.01575204889248136 -0.0007986470490592447 0.00865575389528303 0.0 0.0
0.0 0.012509775614268796 0.01064238871090169 -0.009942784407693629 -0.0006996043032080609 0.005982865561850936 0.0 0.0
0.0 0.007001097723864874 0.005929268193811657 -0.005364882649308015 -0.0005643855445036415 0.0035967341025532583 0.0 0.0
0.0 0.003205800938168293 0.002588723714763292 -0.002231670601585619 -0.0003570531131776735 0.0017637926402344212 0.0 0.0
0.0 0.0009244205186372482 0.0007111974305927087 -0.0005825232884821036 -0.000128674142110605 0.0006075637308794883 0.0 0.0
0.0 9.126713798414428e-05 5.95997765866722e-05 -4.7456370244963067e-05 -1.214340634170906e-05 7.130160159195983e-05 0.0 0.0
0.0 4.298968615224823e-07 6.139542074305538e-08 -4.639381861043739e-08 -1.5001602132616087e-08 8.68421246994162e-08 0.0 0.0
0.0 0.0 0.0 0.0 0.0 0.0 0.0 0.0
0.0 0.0 0.0 0.0 0.0 0.0 0.0 0.0
0.0 0.0038521236137451275 0.002434834934937725 -0.0028501995915423198 0.000415364656604592 0.0033125314686102835 0.0 0.0
0.0 0.002619180344880476 0.0016045307996928964 -0.0019330105248196987 0.0003284797251268018 -0.0022913453397304566 0.0 0.0
0.0 0.0 0.0 0.0 0.0 0.0 0.0 0.0
0.0 0.0 0.0 0.0 0.0 0.0 0.0 0.0
0.0 1.2459832782016668e-06 -8.711175530045244e-08 6.722946238267231e-08 1.9882292917777628e-08 2.0432140011233723e-07 0.0 0.0
0.0 3.8652301451041906e-05 1.793580863138366e-05 -1.4244276247059646e-05 -3.691532384324014e-06 -3.155399694511261e-05 0.0 0.0
0.0 0.00047323296457597814 0.00034811646345162065 -0.0002818592313720482 -6.625723207957229e-05 -0.00044674065811105875 0.0 0.0
0.0 0.0020907301963385893 0.0016269718101046414 -0.0013727116960288407 -0.0002542601140758006 -0.0015665527552580429 0.0 0.0
0.0 0.005187376931081086 0.004198255896417306 -0.0037226497163129566 -0.000475606180104348 -0.003391504496249382 0.0 0.0
0.0 0.009719745689523997 0.00803277244365285 -0.007396754042863912 -0.0006360184007889372 -0.00585850436659705 0.0 0.0
0.0 0.015486628316854144 0.012898200700798165 -0.01215651414718203 -0.0007416865536161354 -0.008668920059564548 0.0 0.0
0.0 0.022240843114275183 0.01859066478147369 -0.017766629790865855 -0.0008240349906078372 -0.011522120909828381 0.0 0.0
0.0 0.029854117532019903 0.025016918184282363 -0.024119170987730348 -0.0008977471965520215 -0.014303065751589624 0.0 0.0
0.0 0.038321724910504895 0.032187717048722364 -0.03122011626294717 -0.0009676007857751923 -0.017072378312752427 0.0 0.0
0.0 0.04770596536929983 0.04015327907719245 -0.03911748254877275 -0.0010357965284196915 -0.019872198153385007 0.0 0.0
0.0 0.05801956793750276 0.04890894500035026 -0.047805015756515516 -0.0011039292438347705 -0.02260118443045019 0.0 0.0
0.0 0.06883413833388319 0.05832833056626144 -0.05715682599730135 -0.0011715045689601126 -0.024954020781999296 0.0 0.0
0.0 0.08023298266178387 0.06813914823146199 -0.06690023102397112 -0.0012389172074908084 -0.026417600788499914 0.0 0.0
0.0 0.09133787995967926 0.07790315569879047 -0.07659281818672241 -0.0013103375120680617 -0.026140368929015907 0.0 0.0
0.0 0.10104083613212356 0.08684630248451991 -0.08545986234191875 -0.0013864401426011233 -0.02254571263415803 0.0 0.0
0.0 0.10843480151421547 0.09379255136531388 -0.09233770159464286 -0.0014548497706709873 -0.013776460420154152 0.0 0.0
0.0 0.10843480151420568 0.0937925513653039 -0.09233770159463242 -0.0014548497706714585 0.013776460420201524 0.0 0.0
0.0 0.10104083613210141 0.0868463024844969 -0.08545986234189515 -0.001386440142601786 0.02254571263421957 0.0 0.0
0.0 0.09133787995964417 0.07790315569875651 -0.07659281818668785 -0.001310337512068671 0.026140368929059028 0.0 0.0
0.0 0.08023298266174216 0.06813914823142378 -0.06690023102393297 -0.0012389172074907726 0.02641760078851777 0.0 0.0
0.0 0.06883413833383525 0.05832833056621997 -0.05715682599726029 -0.0011715045689596603 0.0249540207819915 0.0 0.0
0.0 0.05801956793745385 0.04890894500030797 -0.04780501575647379 -0.0011039292438341573 0.02260118443043928 0.0 0.0
0.0 0.04770596536925352 0.04015327907715193 -0.03911748254873308 -0.0010357965284188515 0.01987219815337544 0.0 0.0
0.0 0.03832172491045975 0.03218771704868302 -0.031220116262908555 -0.0009676007857744788 0.017072378312743088 0.0 0.0
0.0 0.029854117531973028 0.02501691818424266 -0.02411917098769107 -0.0008977471965515878 0.014303065751571649 0.0 0.0
0.0 0.022240843114234365 0.018590664781439472 -0.017766629790832284 -0.000824034990607196 0.011522120909808212 0.0 0.0
0.0 0.015486628316818813 0.01289820070076916 -0.012156514147153939 -0.0007416865536152206 0.008668920059540957 0.0 0.0
0.0 0.009719745689495471 0.008032772443628988 -0.007396754042840802 -0.0006360184007881853 0.005858504366581043 0.0 0.0
0.0 0.005187376931062091 0.0041982558964018726 -0.00372264971629851 -0.000475606180103362 0.0033915044962378234 0.0 0.0
0.0 0.002090730196327958 0.0016269718100964004 -0.001372711696021637 -0.00025426011407476317 0.0015665527552513557 0.0 0.0
0.0 0.0004732329645717743 0.0003481164634491176 -0.00028185923136998147 -6.625723207913606e-05 0.00044674065810793137 0.0 0.0
0.0 3.86523014502144e-05 1.7935808631462246e-05 -1.4244276247109316e-05 -3.6915323843529187e-06 3.1553996945146826e-05 0.0 0.0
0.0 1.245983277765114e-06 -8.711175526903953e-08 6.722946235833695e-08 1.9882292910690027e-08 -2.0432140003799813e-07 0.0 0.0
0.0 0.0 0.0 0.0 0.0 0.0 0.0 0.0
0.0 0.0 0.0 0.0 0.0 0.0 0.0 0.0
0.0 0.0026191803448701147 0.0016045307996864788 -0.0019330105248124372 0.00032847972512595994 0.002291345339721274 0.0 0.0
0.0 0.001655156164014833 0.0009649665982764989 -0.0011964990458996285 0.0002315324476231294 -0.0014541114340077216 0.0 0.0
0.0 4.3237046965141747e-07 -5.414833726629138e-09 5.131917599336839e-09 2.829161272924473e-10 8.656951798426124e-08 0.0 0.0
0.0 0.0 0.0 0.0 0.0 0.0 0.0 0.0
0.0 1.343535810957597e-06 -6.745450613659108e-08 5.1836617700734505e-08 1.5617888435866596e-08 2.5068220686766373e-07 0.0 0.0
0.0 2.030608660875403e-05 8.784713569449696e-06 -6.9419553979779636e-06 -1.8427581714717353e-06 -2.2826762795012323e-05 0.0 0.0
0.0 0.0002429469711406885 0.00013426486476608693 -0.00010803582637708078 -2.622903838900616e-05 -0.0002620650163247836 0.0 0.0
0.0 0.0012170659362502616 0.0008612010487080142 -0.0007114791302797209 -0.00014972191842829304 -0.0012132345380274302 0.0 0.0
0.0 0.0034756740274899697 0.002643361139222473 -0.0022849095193592964 -0.0003584516198631756 -0.0029181590689298666 0.0 0.0
0.0 0.007025818204185038 0.005533869838124891 -0.004990445405388717 -0.0005434244327361707 -0.005241337104730536 0.0 0.0
0.0 0.011582083517333776 0.009323801079329898 -0.008656535344246825 -0.0006672657350830726 -0.007975744465861297 0.0 0.0
0.0 0.01691720904355 0.013764654954550773 -0.01301362555336728 -0.0007510294011834938 -0.010797807083303133 0.0 0.0
0.0 0.02289590359995683 0.018748751781067337 -0.01792842604533538 -0.0008203257357319569 -0.013524955778065617 0.0 0.0
0.0 0.029540208806557503 0.024288801174618128 -0.02340656697732135 -0.0008822341972967621 -0.016219751795391736 0.0 0.0
0.0 0.03686132368141471 0.03045725388582149 -0.029516775379048055 -0.0009404785067734232 -0.01894564884006658 0.0 0.0
0.0 0.04496865346386324 0.03729703766883992 -0.03629981902196645 -0.0009972186468734723 -0.02161141238024891 0.0 0.0
0.0 0.05371997136428101 0.04475830764660123 -0.04370314343121867 -0.0010551642153825726 -0.02393020802461862 0.0 0.0
0.0 0.06283205444878241 0.052686060474516114 -0.051577357375882926 -0.0011087030986331905 -0.02550000568228509 0.0 0.0
0.0 0.07213442839045021 0.06090485078447542 -0.05974375215238071 -0.0011610986320947112 -0.025644747173056117 0.0 0.0
0.0 0.08112215164120631 0.06903730849367946 -0.06781300493950751 -0.0012243035541719418 -0.022783644431582803 0.0 0.0
0.0 0.08861451137770883 0.07614049612138826 -0.07484397033841161 -0.0012965257829766585 -0.014596658062404878 0.0 0.0
0.0 0.08861451137770504 0.07614049612138273 -0.07484397033840665 -0.0012965257829760928 0.014596658062449273 0.0 0.0
0.0 0.08112215164119664 0.06903730849366559 -0.06781300493949456 -0.0012243035541710742 0.02278364443164515 0.0 0.0
0.0 0.07213442839043081 0.06090485078445329 -0.059743752152359345 -0.0011610986320939034 0.025644747173102583 0.0 0.0
0.0 0.06283205444875321 0.05268606047448769 -0.0515773573758553 -0.0011087030986324069 0.025500005682303588 0.0 0.0
0.0 0.0537199713642417 0.04475830764656734 -0.043703143431185296 -0.001055164215382037 0.023930208024608924 0.0 0.0
0.0 0.04496865346381888 0.0372970376688023 -0.03629981902192872 -0.0009972186468735717 0.02161141238023525 0.0 0.0
0.0 0.036861323681373966 0.030457253885786746 -0.02951677537901304 -0.0009404785067737119 0.018945648840055174 0.0 0.0
0.0 0.029540208806522524 0.024288801174587996 -0.023406566977291328 -0.0008822341972966684 0.01621975179538243 0.0 0.0
0.0 0.02289590359992161 0.018748751781037916 -0.017928426045306388 -0.0008203257357315278 0.013524955778048577 0.0 0.0
0.0 0.01691720904351474 0.013764654954522199 -0.01301362555333909 -0.0007510294011830945 0.010797807083281397 0.0 0.0
0.0 0.011582083517303653 0.009323801079306623 -0.008656535344223976 -0.0006672657350826461 0.007975744465837355 0.0 0.0
0.0 0.007025818204162995 0.0055338698381075845 -0.004990445405372027 -0.0005434244327355553 0.005241337104716093 0.0 0.0
0.0 0.00347567402747624 0.0026433611392119275 -0.0022849095193497584 -0.0003584516198621681 0.002918159068920217 0.0 0.0
0.0 0.001217065936242869 0.0008612010487028354 -0.0007114791302752835 -0.00014972191842755117 0.001213234538021285 0.0 0.0
0.0 0.0002429469711382538 0.00013426486476512554 -0.00010803582637629335 -2.622903838883203e-05 0.0002620650163229425 0.0 0.0
0.0 2.0306086608125787e-05 8.784713569470235e-06 -6.94195539799267e-06 -1.8427581714775686e-06 2.2826762795086994e-05 0.0 0.0
0.0 1.343535810551308e-06 -6.74545061154224e-08 5.1836617684484416e-08 1.561788843093987e-08 -2.5068220678900275e-07 0.0 0.0
0.0 0.0 0.0 0.0 0.0 0.0 0.0 0.0
0.0 4.3237046913438544e-07 -5.414833720036132e-09 5.131917593071955e-09 2.82916126964362e-10 -8.656951787897293e-08 0.0 0.0
0.0 0.0016551561640062709 0.0009649665982716319 -0.0011964990458939845 0.00023153244762235217 0.0014541114340003228 0.0 0.0
0.0 0.0009180051371921357 0.0004967431585657768 -0.0006362829494848809 0.00013953979091910375 -0.0007955498301582182 0.0 0.0
0.0 8.431968783880151e-07 -1.7685690138666868e-09 5.220045191332912e-09 -3.4514761774675643e-09 -2.44953431536112e-08 0.0 0.0
0.0 6.305102464673167e-07 -7.0898921551877894e-09 5.074535917472657e-09 2.0153562377156586e-09 1.2874703632778445e-07 0.0 0.0
0.0 9.446662567072053e-07 -1.2560768176199821e-08 7.859038492255727e-09 4.701729683946305e-09 4.716589092436797e-08 0.0 0.0
0.0 1.675970199161466e-05 5.222701812667401e-06 -4.112653319596379e-06 -1.110048493071033e-06 -2.1236325728652734e-05 0.0 0.0
0.0 0.00013283325675257954 5.3396389042146624e-05 -4.271909730516663e-05 -1.0677291736979976e-05 -0.00016652756139821473 0.0 0.0
0.0 0.0006236219503291087 0.0003489418618822514 -0.0002834074460741538 -6.553441580809756e-05 -0.0007873252121908552 0.0 0.0
0.0 0.0020068619581685224 0.0013429693586990694 -0.0011261155277636358 -0.0002168538309354335 -0.002194480388149329 0.0 0.0
0.0 0.004503287535968266 0.003239668938618281 -0.002834135244944381 -0.0004055336936738968 -0.004209373412991977 0.0 0.0
0.0 0.007749011306822729 0.00589799431108032 -0.005343065285500583 -0.0005549290255797352 -0.006617434793234076 0.0 0.0
0.0 0.011743204564714041 0.009062398978260569 -0.008409815162592043 -0.0006525838156685255 -0.0091745654231912 0.0 0.0
0.0 0.016056277126162064 0.012607885206426625 -0.011884909348968761 -0.0007229758574578587 -0.01168737550702263 0.0 0.0
0.0 0.020837259566354467 0.016530763566257798 -0.015750403802192635 -0.0007803597640651591 -0.014163161078941394 0.0 0.0
0.0 0.026165254556686005 0.020906856994117852 -0.020076881022033494 -0.0008299759720843511 -0.01663732405197045 0.0 0.0
0.0 0.03214458043634889 0.025819703312996156 -0.024943734413831707 -0.0008759688991644537 -0.01907536309888634 0.0 0.0
0.0 0.03864674853347137 0.03129832081503617 -0.030375729329394183 -0.0009225914856419722 -0.021244508932674572 0.0 0.0
0.0 0.04565789514935799 0.0372850887893576 -0.0363171563014723 -0.0009679324878853071 -0.022740786464537754 0.0 0.0
0.0 0.05297657588189915 0.04379454031936622 -0.04279426514482941 -0.0010002751745368074 -0.023238532709337855 0.0 0.0
0.0 0.06070002866118005 0.05092508623211383 -0.04988528740529156 -0.0010397988268222378 -0.021613478548888357 0.0 0.0
0.0 0.06820044690848219 0.05817943523799467 -0.057063623594343735 -0.0011158116436509522 -0.015054418481259995 0.0 0.0
0.0 0.06820044690847973 0.05817943523799017 -0.05706362359433923 -0.0011158116436509361 0.0150544184812975 0.0 0.0
0.0 0.0607000286611706 0.05092508623210021 -0.049885287405277465 -0.001039798826822759 0.021613478548943656 0.0 0.0
0.0 0.052976575881882156 0.043794540319346306 -0.04279426514480934 -0.0010002751745369265 0.023238532709377556 0.0 0.0
0.0 0.04565789514933349 0.0372850887893343 -0.0363171563014491 -0.0009679324878852091 0.022740786464549384 0.0 0.0
0.0 0.038646748533444505 0.03129832081501372 -0.0303757293293724 -0.000922591485641304 0.021244508932663442 0.0 0.0
0.0 0.03214458043632641 0.025819703312977005 -0.024943734413813576 -0.0008759688991634466 0.019075363098877713 0.0 0.0
0.0 0.026165254556659853 0.020906856994095873 -0.02007688102201185 -0.0008299759720840346 0.01663732405196154 0.0 0.0
0.0 0.020837259566334042 0.016530763566240343 -0.01575040380217569 -0.0007803597640646566 0.014163161078934457 0.0 0.0
0.0 0.016056277126137625 0.012607885206406664 -0.011884909348949329 -0.0007229758574573374 0.011687375507009164 0.0 0.0
0.0 0.011743204564687759 0.009062398978240165 -0.008409815162572035 -0.000652583815668124 0.009174565423171983 0.0 0.0
0.0 0.0077490113068005755 0.005897994311064164 -0.005343065285485146 -0.0005549290255790148 0.006617434793214422 0.0 0.0
0.0 0.004503287535952942 0.0032396689386069754 -0.00283413524493385 -0.0004055336936731257 0.004209373412979406 0.0 0.0
0.0 0.0020068619581585854 0.0013429693586918482 -0.0011261155277574027 -0.0002168538309344449 0.0021944803881404663 0.0 0.0
0.0 0.0006236219503237498 0.00034894186187931967 -0.00028340744607171527 -6.553441580760448e-05 0.0007873252121852626 0.0 0.0
0.0 0.00013283325675070791 5.339638904175184e-05 -4.2719097304835165e-05 -1.0677291736916667e-05 0.00016652756139684625 0.0 0.0
0.0 1.6759701991272695e-05 5.222701812750308e-06 -4.112653319661449e-06 -1.1100484930888512e-06 2.1236325729021834e-05 0.0 0.0
0.0 9.446662564437822e-07 -1.256076809850711e-08 7.859038431380887e-09 4.7017296671232114e-09 -4.7165890368522315e-08 0.0 0.0
0.0 6.305102458760242e-07 -7.089892147158693e-09 5.074535912009278e-09 2.015356235150372e-09 -1.2874703620679312e-07 0.0 0.0
0.0 8.431968778733284e-07 -1.768568971437948e-09 5.220045141974629e-09 -3.4514761705367387e-09 2.449534418866039e-08 0.0 0.0
0.0 0.0009180051371864652 0.0004967431585630221 -0.0006362829494815297 0.0001395397909185075 0.000795549830153881 0.0 0.0
0.0 0.0003734128576457873 0.00019926237648834464 -0.0002666630040024777 6.740062751413305e-05 -0.00034122328542636276 0.0 0.0
0.0 2.1532437789983543e-06 -4.570573160711779e-09 1.1447524960638574e-08 -6.876951799926573e-09 2.957147179440774e-07 0.0 0.0
0.0 8.129603515550081e-07 -9.729788138728575e-10 -5.062304710215263e-10 1.479209284894036e-09 1.6676851108718092e-07 0.0 0.0
0.0 1.3942118126280809e-06 -1.7202479833820512e-08 1.1633862331670308e-08 5.568617502153395e-09 2.882879494068393e-07 0.0 0.0
0.0 1.7850539579357872e-05 3.18356292183793e-06 -2.456586945770772e-06 -7.269759760671629e-07 -2.424600054287324e-05 0.0 0.0
0.0 0.00010527081166204657 2.486715181265456e-05 -1.9893577884120213e-05 -4.97357392853435e-06 -0.00014133367152864405 0.0 0.0
0.0 0.00033258069854236514 0.0001108229799191727 -8.92594637120635e-05 -2.156351620710911e-05 -0.00047919370587571513 0.0 0.0
0.0 0.0009313317398289147 0.0004400342485224578 -0.0003582086957198064 -8.182555280265114e-05 -0.0013380406573410204 0.0 0.0
0.0 0.002274018741247649 0.0013090407469866648 -0.0010965979483495813 -0.00021244279863708374 -0.0028151362824366264 0.0 0.0
0.0 0.004254672147034554 0.002757431169197286 -0.0023931108997008402 -0.00036432026949644367 -0.004673123961286386 0.0 0.0
0.0 0.006672547190598856 0.004603575534397932 -0.0041171886217862734 -0.0004863869126116556 -0.0067140597735607715 0.0 0.0
0.0 0.00946169093871232 0.006689340549017647 -0.0061185060631295364 -0.0005708344858881084 -0.008797054507221541 0.0 0.0
0.0 0.01248762393195358 0.009004289429191561 -0.008369897655130621 -0.0006343917740609361 -0.010912244585285698 0.0 0.0
0.0 0.015855730280540596 0.011603702906678205 -0.010921005238958996 -0.0006826976677191973 -0.0130171145601418 0.0 0.0
0.0 0.019646579223561913 0.014580110372761038 -0.013859049985144211 -0.0007210603876168242 -0.015097224799844688 0.0 0.0
0.0 0.023929797883417224 0.01804068809739997 -0.017284620055023688 -0.00075606804237629 -0.017035353658005355 0.0 0.0
0.0 0.0287375612163392 0.022053202170733626 -0.021258751063578434 -0.0007944511071552025 -0.01847141245954062 0.0 0.0
0.0 0.03407573058085743 0.02671782464751858 -0.02589347901595837 -0.0008243456315602173 -0.01906133248669848 0.0 0.0
0.0 0.04042206256773601 0.032455107216110314 -0.03163173205006066 -0.0008233751660496685 -0.018651169338459898 0.0 0.0
0.0 0.047780677896236814 0.03965525441037623 -0.0387651170725993 -0.000890137337776945 -0.014881856822785144 0.0 0.0
0.0 0.047780677896236294 0.03965525441037314 -0.03876511707259597 -0.0008901373377771839 0.014881856822816793 0.0 0.0
0.0 0.0404220625677339 0.032455107216102605 -0.031631732050053055 -0.0008233751660495249 0.01865116933850701 0.0 0.0
0.0 0.03407573058085017 0.026717824647506775 -0.02589347901594725 -0.0008243456315595167 0.019061332486732172 0.0 0.0
0.0 0.028737561216325883 0.0220532021707204 -0.021258751063565624 -0.0007944511071547681 0.01847141245954812 0.0 0.0
0.0 0.023929797883394895 0.018040688097383215 -0.01728462005500669 -0.0007560680423765293 0.01703535365799186 0.0 0.0
0.0 0.019646579223542363 0.014580110372746374 -0.013859049985129476 -0.0007210603876168945 0.015097224799832002 0.0 0.0
0.0 0.0158557302805261 0.011603702906666338 -0.010921005238947836 -0.0006826976677185071 0.013017114560135854 0.0 0.0
0.0 0.012487623931939263 0.009004289429179758 -0.00836989765511916 -0.0006343917740606003 0.010912244585279875 0.0 0.0
0.0 0.009461690938698681 0.006689340549008112 -0.006118506063120405 -0.0005708344858877091 0.008797054507209766 0.0 0.0
0.0 0.006672547190586261 0.004603575534389523 -0.004117188621778456 -0.00048638691261106615 0.00671405977354852 0.0 0.0
0.0 0.004254672147020213 0.0027574311691882522 -0.002393110899692579 -0.00036432026949567096 0.004673123961271306 0.0 0.0
0.0 0.0022740187412396817 0.001309040746981322 -0.00109659794834495 -0.00021244279863637225 0.002815136282428567 0.0 0.0
0.0 0.0009313317398244433 0.0004400342485202491 -0.00035820869571796414 -8.182555280228475e-05 0.001338040657335668 0.0 0.0
0.0 0.00033258069854047554 0.00011082297991872581 -8.925946371169161e-05 -2.156351620703414e-05 0.00047919370587385973 0.0 0.0
0.0 0.00010527081166080638 2.4867151812694937e-05 -1.9893577884147115e-05 -4.973573928547816e-06 0.0001413336715285208 0.0 0.0
0.0 1.785053957885256e-05 3.18356292185366e-06 -2.4565869457817177e-06 -7.269759760719431e-07 2.4246000543000386e-05 0.0 0.0
0.0 1.3942118121365584e-06 -1.7202479827439693e-08 1.1633862327329383e-08 5.568617500112952e-09 -2.8828794930130727e-07 0.0 0.0
0.0 8.12960351106587e-07 -9.729788137991681e-10 -5.062304704954294e-10 1.479209284295063e-09 -1.667685109932312e-07 0.0 0.0
0.0 2.153243778466849e-06 -4.570573154675426e-09 1.1447524947028682e-08 -6.876951792353573e-09 -2.9571471749590105e-07 0.0 0.0
0.0 0.0003734128576422773 0.00019926237648694263 -0.00026666300400071853 6.740062751377576e-05 0.0003412232854239168 0.0 0.0
0.0 9.547792102370093e-05 4.761893087803953e-05 -6.688844997615696e-05 1.9269519098117425e-05 -8.612212144937629e-05 0.0 0.0
0.0 2.3909243000673e-06 5.184521941035765e-10 1.2198369305225956e-08 -1.2716821499328281e-08 4.0069280286595177e-07 0.0 0.0
0.0 1.5471475614842898e-06 -3.9693771291631876e-08 3.630475073742045e-08 3.3890205542113714e-09 -1.072663516498618e-06 0.0 0.0
0.0 3.4180938344360185e-06 -5.2738186149574264e-08 6.552544451767484e-08 -1.2787258368099969e-08 -3.9124554412504675e-06 0.0 0.0
0.0 2.180258462423118e-05 7.157058233351342e-07 -4.781513937159426e-07 -2.3755442961919798e-07 -2.7029494854206628e-05 0.0 0.0
0.0 0.00010095840269918685 7.646084920172976e-06 -6.016800124234502e-06 -1.629284795938458e-06 -0.00014753438275254247 0.0 0.0
0.0 0.00026101670363778994 2.9193129149679845e-05 -2.349488432553327e-05 -5.698244824146587e-06 -0.0004151813810675974 0.0 0.0
0.0 0.0005483235991788578 7.803220069053692e-05 -6.31717965516348e-05 -1.4860404138902035e-05 -0.000842533421986841 0.0 0.0
0.0 0.0009766829021335922 0.00019628473599275477 -0.00015944625681809017 -3.6838479174664535e-05 -0.0015780394170235522 0.0 0.0
0.0 0.0017329155746330241 0.0004508116825989334 -0.0003659230313794304 -8.488865121950313e-05 -0.0026618918733385174 0.0 0.0
0.0 0.002649278331651217 0.0008771439404977585 -0.0007135141667981083 -0.00016362977369964988 -0.004058594879984904 0.0 0.0
0.0 0.003854293480340014 0.0014240408328903824 -0.0011774712710103895 -0.0002465695618799927 -0.005621243771155964 0.0 0.0
0.0 0.005274973078409379 0.0021026144480492015 -0.0017820369416739618 -0.00032057750637523824 -0.007346551656150226 0.0 0.0
0.0 0.006931440467779492 0.002914508136513217 -0.002533726542076491 -0.0003807815944367263 -0.009208278942130497 0.0 0.0
0.0 0.00882611923092626 0.003934899292509057 -0.003507027989261112 -0.00042787130324794295 -0.011192011204519172 0.0 0.0
0.0 0.011083378557192972 0.005320127864340542 -0.004854257129765933 -0.0004658707345746053 -0.013170495072870972 0.0 0.0
0.0 0.013739901038188779 0.00730646915108532 -0.00680278429541635 -0.0005036848556689651 -0.014777283600816492 0.0 0.0
0.0 0.016870924369644994 0.010109154122702937 -0.009557187887065296 -0.0005519662356376367 -0.015413323238590158 0.0 0.0
0.0 0.021055766890537612 0.014068199283801736 -0.013503993608001922 -0.000564205675799813 -0.015109574352298058 0.0 0.0
0.0 0.02751577427417802 0.02041688204286739 -0.019877475615588617 -0.000539406427278776 -0.014088901903105612 0.0 0.0
0.0 0.0275157742741809 0.020416882042867235 -0.019877475615588593 -0.000539406427278641 0.014088901903130183 0.0 0.0
0.0 0.021055766890540745 0.01406819928379861 -0.013503993607998777 -0.0005642056757998381 0.015109574352335564 0.0 0.0
0.0 0.016870924369642114 0.010109154122697165 -0.009557187887059474 -0.000551966235637686 0.015413323238609134 0.0 0.0
0.0 0.013739901038179587 0.007306469151078953 -0.006802784295409899 -0.0005036848556690504 0.014777283600814373 0.0 0.0
0.0 0.011083378557184019 0.005320127864337478 -0.004854257129763108 -0.00046587073457436863 0.013170495072857362 0.0 0.0
0.0 0.008826119230918245 0.003934899292505857 -0.0035070279892580212 -0.00042787130324783485 0.011192011204509116 0.0 0.0
0.0 0.006931440467771903 0.0029145081365101596 -0.002533726542073316 -0.0003807815944368444 0.009208278942121857 0.0 0.0
0.0 0.005274973078406646 0.002102614448049516 -0.0017820369416743313 -0.0003205775063751845 0.007346551656144619 0.0 0.0
0.0 0.003854293480332251 0.0014240408328882273 -0.0011774712710085162 -0.00024656956187971114 0.0056212437711448335 0.0 0.0
0.0 0.0026492783316437287 0.000877143940495795 -0.000713514166796408 -0.00016362977369938685 0.004058594879973701 0.0 0.0
0.0 0.0017329155746263025 0.0004508116825973146 -0.0003659230313781413 -8.488865121917348e-05 0.0026618918733287964 0.0 0.0
0.0 0.0009766829021313614 0.0001962847359923137 -0.00015944625681775867 -3.683847917455489e-05 0.001578039417019983 0.0 0.0
0.0 0.0005483235991771183 7.803220069025485e-05 -6.317179655141208e-05 -1.4860404138842722e-05 0.0008425334219839681 0.0 0.0
0.0 0.00026101670363580385 2.9193129149552364e-05 -2.3494884325414412e-05 -5.698244824137922e-06 0.0004151813810658023 0.0 0.0
0.0 0.00010095840269747747 7.646084920121813e-06 -6.016800124193251e-06 -1.6292847959285618e-06 0.00014753438275138148 0.0 0.0
0.0 2.1802584623757945e-05 7.157058233386294e-07 -4.781513937185878e-07 -2.3755442962004506e-07 2.7029494854364396e-05 0.0 0.0
0.0 3.4180938343090017e-06 -5.2738186162483033e-08 6.5525444532945e-08 -1.2787258370462044e-08 3.9124554420381285e-06 0.0 0.0
0.0 1.5471475614185093e-06 -3.9693771322297116e-08 3.630475076576151e-08 3.389020556535375e-09 1.072663517253495e-06 0.0 0.0
0.0 2.3909242995980938e-06 5.184521939896294e-10 1.2198369296271349e-08 -1.2716821490258436e-08 -4.006928023662236e-07 0.0 0.0
0.0 9.547792102253089e-05 4.761893087785278e-05 -6.688844997587214e-05 1.926951909801931e-05 8.612212144929306e-05 0.0 0.0
0.0 7.526334384395273e-06 2.8012056256416206e-06 -4.0600578262227235e-06 1.2588522005810938e-06 -5.722144254511989e-06 0.0 0.0
0.0 2.2687848943448087e-06 -1.724684148969741e-08 1.369240249246462e-08 3.5544389972376494e-09 -2.271039197958804e-07 0.0 0.0
0.0 3.7893231392284415e-06 -2.795729785917455e-07 2.3649704089817734e-07 4.307593769356899e-08 -3.2823172890274196e-06 0.0 0.0
0.0 6.569968860958634e-06 -7.229521177668951e-07 6.329979274491332e-07 8.995419031776256e-08 -8.585105355420914e-06 0.0 0.0
0.0 2.743486352798731e-05 -2.413115992090614e-06 2.087921388436467e-06 3.251946036541571e-07 -3.476864440448751e-05 0.0 0.0
0.0 0.00010799338440674181 -9.98769968080006e-06 8.224263709685199e-06 1.7634359711148529e-06 -0.0001510179500893951 0.0 0.0
0.0 0.0002631565986919587 -3.080988647896786e-05 2.4962369488060908e-05 5.847516990906926e-06 -0.00041882395066492083 0.0 0.0
0.0 0.0005487562519542856 -7.832955421638889e-05 6.341265507616005e-05 1.4916899140228795e-05 -0.0008443634589378221 0.0 0.0
0.0 0.0009767772610163236 -0.00019606934369106654 0.000159266272709304 3.680307098176245e-05 -0.0015788115981437102 0.0 0.0
0.0 0.0017315192968665538 -0.000450050880621236 0.00036523765232495634 8.481322829627963e-05 -0.002660623145473285 0.0 0.0
0.0 0.002660248806160725 -0.0008784306789403947 0.0007155820829911625 0.00016284859594923164 -0.0040595645071638455 0.0 0.0
0.0 0.0038725346386363334 -0.0014464765493993066 0.001199717341305937 0.00024675920809336875 -0.005633397387670373 0.0 0.0
0.0 0.005321211479529711 -0.0021588446975142313 0.0018360788284172527 0.0003227658690969765 -0.007362143396774083 0.0 0.0
0.0 0.006974509249033446 -0.002972967667836446 0.002584050228493436 0.0003889174393430072 -0.009212354908073591 0.0 0.0
0.0 0.00869745194056982 -0.0037866477950470505 0.003339648111891482 0.00044699968315556836 -0.01117868184299694 0.0 0.0
0.0 0.010366034111248085 -0.004379141962441371 0.003881337000339441 0.0004978049621019254 -0.013222321819384788 0.0 0.0
0.0 0.011664869447519911 -0.004408364234663539 0.003868313815388123 0.0005400504192754162 -0.015329601690896708 0.0 0.0
0.0 0.012456225552400429 -0.0035966171171915792 0.003029817339481812 0.000566799777709765 -0.017558211369145458 0.0 0.0
0.0 0.012715959009518923 -0.0019863072236584543 0.0014572619820056127 0.0005290452416528404 -0.019531575691755874 0.0 0.0
0.0 0.012430043713863064 0.0028819340191303853 -0.002951966267835633 7.003224870524539e-05 -0.01833146196491926 0.0 0.0
0.0 0.012430043713865756 0.002881934019128927 -0.00295196626783463 7.003224870570526e-05 0.018331461964928977 0.0 0.0
0.0 0.012715959009522836 -0.001986307223659386 0.001457261982006308 0.0005290452416530764 0.019531575691767403 0.0 0.0
0.0 0.012456225552393372 -0.0035966171171882746 0.0030298173394782135 0.0005667997777100585 0.017558211369144552 0.0 0.0
0.0 0.011664869447508597 -0.004408364234657844 0.003868313815382671 0.0005400504192751703 0.01532960169088699 0.0 0.0
0.0 0.01036603411123618 -0.004379141962434797 0.003881337000333188 0.0004978049621016079 0.013222321819371545 0.0 0.0
0.0 0.008697451940560395 -0.0037866477950420996 0.0033396481118868728 0.00044699968315522576 0.011178681842986687 0.0 0.0
0.0 0.006974509249023352 -0.002972967667830704 0.002584050228488205 0.0003889174393424986 0.009212354908064255 0.0 0.0
0.0 0.005321211479519304 -0.0021588446975076216 0.0018360788284111688 0.0003227658690964526 0.007362143396766094 0.0 0.0
0.0 0.00387253463862431 -0.001446476549393026 0.0011997173413003876 0.0002467592080926385 0.005633397387658759 0.0 0.0
0.0 0.0026602488061507265 -0.0008784306789357908 0.0007155820829872629 0.0001628485959485281 0.004059564507151788 0.0 0.0
0.0 0.0017315192968583317 -0.0004500508806179788 0.0003652376523222709 8.48132282957077e-05 0.002660623145463047 0.0 0.0
0.0 0.0009767772610134039 -0.00019606934369001302 0.0001592662727084547 3.6803070981558345e-05 0.0015788115981395965 0.0 0.0
0.0 0.0005487562519526847 -7.832955421603553e-05 6.34126550758512e-05 1.4916899140184317e-05 0.0008443634589357506 0.0 0.0
0.0 0.0002631565986904319 -3.080988647891008e-05 2.4962369488040088e-05 5.847516990869977e-06 0.00041882395066373407 0.0 0.0
0.0 0.00010799338440533712 -9.987699680764415e-06 8.224263709666796e-06 1.7634359710976306e-06 0.00015101795008890868 0.0 0.0
0.0 2.7434863527366626e-05 -2.4131159920977622e-06 2.087921388441884e-06 3.251946036558738e-07 3.476864440463439e-05 0.0 0.0
0.0 6.5699688608834375e-06 -7.229521178372979e-07 6.329979275106329e-07 8.995419032666555e-08 8.58510535622795e-06 0.0 0.0
0.0 3.789323138780471e-06 -2.7957297867854773e-07 2.3649704097116223e-07 4.307593770738615e-08 3.2823172900145115e-06 0.0 0.0
0.0 2.2687848937465413e-06 -1.7246841503974513e-08 1.369240249223103e-08 3.5544390117483876e-09 2.2710392028566577e-07 0.0 0.0
0.0 7.526334383935144e-06 2.8012056258400394e-06 -4.0600578265163695e-06 1.2588522006763327e-06 5.7221442549394566e-06 0.0 0.0
0.0 5.791226492451869e-07 -3.285152939261594e-08 4.863961923435166e-08 -1.578808984173702e-08 8.324711323925464e-08 0.0 0.0
0.0 1.156381308820394e-06 -2.562187442653649e-08 1.7911853710239586e-08 7.710020716295356e-09 -4.792542066439759e-07 0.0 0.0
0.0 4.7504069678163024e-06 -5.703409702843145e-07 4.718346165343927e-07 9.850635374991755e-08 -4.3954545617181886e-06 0.0 0.0
0.0 1.050414686712098e-05 -1.2307883623235347e-06 1.0554653131374296e-06 1.7532304918611858e-07 -8.372579448767113e-06 0.0 0.0
0.0 3.45327764755161e-05 -7.452720390786559e-06 6.204170717187696e-06 1.2485496735988661e-06 -4.494294965811552e-05 0.0 0.0
0.0 0.00011857046978078338 -3.06034592252879e-05 2.479134232603941e-05 5.812116899248471e-06 -0.0001626042482925144 0.0 0.0
0.0 0.0003464485440518469 -0.00011514406735866164 9.292926457170704e-05 2.2214802786954637e-05 -0.0004910521501175667 0.0 0.0
0.0 0.000937630003063794 -0.00044294216671460874 0.0003606325717866331 8.230959492797567e-05 -0.0013457666018584183 0.0 0.0
0.0 0.002272077238831032 -0.0013081750803754033 0.0010958375139539264 0.0002123375664214762 -0.002815553869254276 0.0 0.0
0.0 0.0042528226479408 -0.0027565641128475004 0.002392538256225664 0.00036402585662183653 -0.0046723454083914175 0.0 0.0
0.0 0.0066795890962139896 -0.004610191991907735 0.00412449120165646 0.00048570079025127164 -0.006716566903153594 0.0 0.0
0.0 0.009488518261667057 -0.006717560474960548 0.006147723099564775 0.0005698373753957745 -0.008796092505225464 0.0 0.0
0.0 0.012541351256434291 -0.009066183077629228 0.008431475430358996 0.0006347076472702289 -0.010887880964059755 0.0 0.0
0.0 0.015895405639916132 -0.011656923280485667 0.010967186507434631 0.0006897367730510421 -0.012971790552052566 0.0 0.0
0.0 0.01946776280029444 -0.014396266032566387 0.013654370907208566 0.0007418951253578156 -0.01512340340830147 0.0 0.0
0.0 0.02299507080254323 -0.01702223919011304 0.01622991009491446 0.0007923290951985741 -0.01742577623773362 0.0 0.0
0.0 0.0260815170665057 -0.019099802280086734 0.018264067513897343 0.0008357347661894019 -0.019952336070179277 0.0 0.0
0.0 0.02811240094914528 -0.020091627302490957 0.01922686590934515 0.0008647613931458221 -0.022611772538925115 0.0 0.0
0.0 0.027475840028690024 -0.018937860927653642 0.017978107285877818 0.0009597536417758092 -0.023713018772504816 0.0 0.0
0.0 0.021646578182857278 -0.01296881771173136 0.011916360902207932 0.0010524568095234168 -0.021169474666305692 0.0 0.0
0.0 0.021646578182865583 -0.012968817711731952 0.011916360902208063 0.0010524568095238924 0.021169474666333968 0.0 0.0
0.0 0.027475840028698656 -0.018937860927652796 0.017978107285877027 0.0009597536417757558 0.02371301877254427 0.0 0.0
0.0 0.02811240094914182 -0.02009162730248268 0.019226865909337264 0.0008647613931453998 0.022611772538949235 0.0 0.0
0.0 0.02608151706648807 -0.019099802280070917 0.018264067513881904 0.0008357347661890184 0.01995233607017862 0.0 0.0
0.0 0.022995070802519675 -0.01702223919009472 0.016229910094896105 0.0007923290951986169 0.01742577623771812 0.0 0.0
0.0 0.019467762800271605 -0.014396266032548477 0.013654370907190828 0.0007418951253576535 0.015123403408288001 0.0 0.0
0.0 0.01589540563989189 -0.01165692328046684 0.010967186507415957 0.0006897367730508856 0.01297179055203787 0.0 0.0
0.0 0.01254135125641186 -0.009066183077610798 0.008431475430340929 0.0006347076472698654 0.01088788096404825 0.0 0.0
0.0 0.009488518261645118 -0.0067175604749440156 0.006147723099548877 0.0005698373753951359 0.008796092505209633 0.0 0.0
0.0 0.006679589096193176 -0.004610191991892944 0.004124491201642597 0.0004857007902503474 0.006716566903135742 0.0 0.0
0.0 0.0042528226479215964 -0.0027565641128343902 0.0023925382562135947 0.00036402585662079434 0.004672345408373125 0.0 0.0
0.0 0.002272077238820119 -0.0013081750803680375 0.0010958375139473796 0.0002123375664206584 0.0028155538692430484 0.0 0.0
0.0 0.0009376300030590586 -0.0004429421667119424 0.000360632571784443 8.230959492749944e-05 0.001345766601852824 0.0 0.0
0.0 0.0003464485440494019 -0.00011514406735802819 9.292926457121441e-05 2.221480278681374e-05 0.0004910521501152767 0.0 0.0
0.0 0.00011857046977882464 -3.060345922505426e-05 2.4791342325851277e-05 5.812116899202966e-06 0.00016260424829131769 0.0 0.0
0.0 3.4532776474644456e-05 -7.452720390818973e-06 6.204170717217757e-06 1.2485496736011984e-06 4.494294965830331e-05 0.0 0.0
0.0 1.0504146866446006e-05 -1.2307883623962194e-06 1.0554653131986624e-06 1.7532304919755988e-07 8.372579449236617e-06 0.0 0.0
0.0 4.750406967229454e-06 -5.703409703889671e-07 4.718346166198916e-07 9.850635376907497e-08 4.395454562518789e-06 0.0 0.0
0.0 1.1563813085959739e-06 -2.562187446436819e-08 1.7911853716500043e-08 7.710020747868485e-09 4.792542075128762e-07 0.0 0.0
0.0 5.791226488939735e-07 -3.285152937202806e-08 4.863961920387383e-08 -1.57880898318369e-08 -8.324711318699175e-08 0.0 0.0
0.0 0.0 0.0 0.0 0.0 0.0 0.0 0.0
0.0 1.2508586812791678e-06 1.7693331314728913e-08 -8.022362203851962e-09 -9.670969110877117e-09 2.5436291706895875e-07 0.0 0.0
0.0 4.29172489676849e-06 -2.341993617530569e-07 1.9200131763910768e-07 4.2198044113945465e-08 -1.291688177973514e-06 0.0 0.0
0.0 1.2759709979825174e-05 -1.717725149014787e-06 1.412988116806927e-06 3.0473703220786876e-07 -7.364920417876906e-06 0.0 0.0
0.0 4.231947601958185e-05 -1.3555886026521262e-05 1.1063904349244175e-05 2.491981677277095e-06 -4.9542011371261606e-05 0.0 0.0
0.0 0.0001618802433114434 -6.736418717355369e-05 5.440612678288128e-05 1.2958060390672364e-05 -0.0002034738281160404 0.0 0.0
0.0 0.000648844863494181 -0.0003607823171250825 0.00029353455922742053 6.724775789766195e-05 -0.0008107762335226736 0.0 0.0
0.0 0.002011166422063113 -0.0013443143867473899 0.0011274596434268423 0.00021685474332054804 -0.0022009680592140887 0.0 0.0
0.0 0.004498359970511134 -0.0032369192513550557 0.0028315940916155947 0.0004053251597394593 -0.00420642684173318 0.0 0.0
0.0 0.007748665788450657 -0.005898611943616054 0.0053438685189066745 0.0005547434247093774 -0.006616658772853871 0.0 0.0
0.0 0.011751726914273862 -0.009070533843327013 0.00841857688852057 0.0006519569548064498 -0.009175085010733374 0.0 0.0
0.0 0.01607485610172527 -0.0126303612430439 0.01190858012329477 0.0007217811197491313 -0.011666193864627476 0.0 0.0
0.0 0.02086071963405257 -0.016574353220334043 0.015794312284348244 0.0007800409359858021 -0.014072424526947118 0.0 0.0
0.0 0.026157536632963 -0.020936201240063006 0.020100835970931645 0.000835365269131355 -0.016477031736252746 0.0 0.0
0.0 0.03195271126044398 -0.025642852784978316 0.024749242792755696 0.0008936099922226049 -0.019076219055678457 0.0 0.0
0.0 0.03787215873124182 -0.030404572113926297 0.0294502095543428 0.0009543625595834821 -0.022143759379891083 0.0 0.0
0.0 0.04344974711635367 -0.034673647988282416 0.033660881030614265 0.001012766957668138 -0.025859094726781853 0.0 0.0
0.0 0.047278064300639584 -0.03751467804962833 0.03642775739521115 0.001086920654417186 -0.029546854040079368 0.0 0.0
0.0 0.047458055087661655 -0.037155927753043 0.03597512435404799 0.0011808033989949866 -0.03137198848586318 0.0 0.0
0.0 0.039122379168248025 -0.03006734024959764 0.02866732143906307 0.001400018810534559 -0.027537668402784855 0.0 0.0
0.0 0.03912237916825642 -0.03006734024959737 0.028667321439063052 0.0014000188105343244 0.027537668402823196 0.0 0.0
0.0 0.04745805508765935 -0.037155927753032524 0.035975124354037255 0.0011808033989952624 0.03137198848590915 0.0 0.0
0.0 0.047278064300626116 -0.037514678049610645 0.036427757395193945 0.0010869206544166803 0.029546854040108858 0.0 0.0
0.0 0.04344974711632898 -0.03467364798825916 0.033660881030592046 0.0010127669576671416 0.025859094726785214 0.0 0.0
0.0 0.037872158731212094 -0.03040457211390089 0.029450209554318596 0.0009543625595822916 0.022143759379879675 0.0 0.0
0.0 0.03195271126041244 -0.025642852784952073 0.024749242792730056 0.0008936099922220089 0.019076219055664097 0.0 0.0
0.0 0.026157536632933822 -0.0209362012400389 0.020100835970907942 0.0008353652691309629 0.016477031736238393 0.0 0.0
0.0 0.020860719634020503 -0.016574353220306842 0.015794312284321224 0.0007800409359856112 0.014072424526934926 0.0 0.0
0.0 0.016074856101692448 -0.012630361243017234 0.01190858012326855 0.0007217811197486809 0.011666193864608782 0.0 0.0
0.0 0.011751726914242668 -0.009070533843302735 0.00841857688849677 0.0006519569548059606 0.00917508501071046 0.0 0.0
0.0 0.00774866578842358 -0.005898611943595689 0.005343868518886935 0.0005547434247087543 0.00661665877283232 0.0 0.0
0.0 0.0044983599704948325 -0.0032369192513423527 0.002831594091603727 0.0004053251597386243 0.004206426841721275 0.0 0.0
0.0 0.002011166422051999 -0.0013443143867392995 0.0011274596434198742 0.00021685474331942543 0.002200968059204464 0.0 0.0
0.0 0.0006488448634885374 -0.00036078231712214184 0.00029353455922503897 6.724775789710279e-05 0.0008107762335171325 0.0 0.0
0.0 0.0001618802433098633 -6.736418717341475e-05 5.4406126782771775e-05 1.2958060390642924e-05 0.00020347382811547606 0.0 0.0
0.0 4.231947601857703e-05 -1.3555886026583928e-05 1.1063904349294776e-05 2.491981677289113e-06 4.954201137149572e-05 0.0 0.0
0.0 1.2759709979164419e-05 -1.7177251491543941e-06 1.412988116922268e-06 3.047370322321146e-07 7.364920418488389e-06 0.0 0.0
0.0 4.291724896362488e-06 -2.3419936189950357e-07 1.9200131775840944e-07 4.219804414110045e-08 1.2916881788207446e-06 0.0 0.0
0.0 1.2508586809248778e-06 1.7693331309732382e-08 -8.022362201433076e-09 -9.67096910830339e-09 -2.543629169952669e-07 0.0 0.0
0.0 0.0 0.0 0.0 0.0 0.0 0.0 0.0
0.0 0.0 0.0 0.0 0.0 0.0 0.0 0.0
0.0 1.142611525848342e-07 2.288734892542505e-09 -1.5997618405167106e-09 -6.88973052025528e-10 2.247828464461184e-08 0.0 0.0
0.0 2.394717666621712e-06 -2.252033945140168e-08 1.8296875057215453e-08 4.223464394181382e-09 -6.583792213852973e-08 0.0 0.0
0.0 1.2423857081018715e-05 -3.0797555021227383e-06 2.542042026643173e-06 5.377134754795615e-07 -1.0119308996587241e-05 0.0 0.0
0.0 5.325951895736693e-05 -2.148402152065317e-05 1.7488377989371265e-05 3.99564353128193e-06 -5.493756939390701e-05 0.0 0.0
0.0 0.0002833375044058367 -0.00016498180199225537 0.00013339327830478562 3.158852368746975e-05 -0.0003197099732525156 0.0 0.0
0.0 0.001246543551244362 -0.0008716890607126646 0.0007214391892859794 0.00015024987142668524 -0.0012354555266757123 0.0 0.0
0.0 0.0034730507348538792 -0.002639483313947904 0.0022815778885606395 0.00035790542538726404 -0.0029180157722793008 0.0 0.0
0.0 0.007020742456565762 -0.005531080358146469 0.00498768373543493 0.0005433966227115406 -0.0052360610946890025 0.0 0.0
0.0 0.011582582929633559 -0.009326892835276112 0.008659733019856522 0.0006671598154195887 -0.007975902947990476 0.0 0.0
0.0 0.01692561791614424 -0.013772599286930115 0.013021977142467603 0.0007506221444625143 -0.010796445316995348 0.0 0.0
0.0 0.02289814225363175 -0.01875824537055265 0.017938683356436308 0.000819562014116342 -0.013486031177879488 0.0 0.0
0.0 0.029517539399425575 -0.024295649931958048 0.023414037699931674 0.0008816122320263549 -0.01606861160941817 0.0 0.0
0.0 0.036791645186331295 -0.030442236783091874 0.029499306921007655 0.0009429298620842218 -0.018665062775922142 0.0 0.0
0.0 0.044797734861659645 -0.03715305065738554 0.03614488211830664 0.0010081685390788734 -0.021544826042004066 0.0 0.0
0.0 0.05322095721962892 -0.0441230241920545 0.0430419432497127 0.00108108094234178 -0.025141066852702548 0.0 0.0
0.0 0.06115942012976141 -0.050598404041414455 0.04943385692875529 0.0011645471126591445 -0.0296233598740056 0.0 0.0
0.0 0.06696859273940564 -0.05513795215734684 0.05387514998916728 0.0012628021681795058 -0.03417102968154131 0.0 0.0
0.0 0.06745957457852272 -0.055234992783884475 0.053832960739473315 0.0014020320444111348 -0.03640209579706916 0.0 0.0
0.0 0.05717018922235304 -0.0464297432968297 0.044810558961374466 0.0016191843354552721 -0.032899386875759155 0.0 0.0
0.0 0.05717018922235896 -0.04642974329682806 0.044810558961372676 0.0016191843354553652 0.032899386875801157 0.0 0.0
0.0 0.06745957457852017 -0.05523499278387407 0.053832960739462976 0.0014020320444110795 0.03640209579712232 0.0 0.0
0.0 0.06696859273938957 -0.05513795215732622 0.05387514998914757 0.0012628021681786298 0.034171029681581484 0.0 0.0
0.0 0.061159420129724106 -0.050598404041379844 0.04943385692872104 0.0011645471126587705 0.029623359874014113 0.0 0.0
0.0 0.05322095721958317 -0.04412302419201515 0.0430419432496735 0.0010810809423416425 0.025141066852690998 0.0 0.0
0.0 0.04479773486161346 -0.03715305065734657 0.036144882118267815 0.0010081685390787372 0.021544826041987472 0.0 0.0
0.0 0.03679164518628715 -0.030442236783054674 0.029499306920970796 0.0009429298620838825 0.018665062775905097 0.0 0.0
0.0 0.029517539399382897 -0.024295649931921456 0.023414037699895873 0.0008816122320255896 0.016068611609403864 0.0 0.0
0.0 0.02289814225359091 -0.01875824537051819 0.017938683356402623 0.0008195620141155592 0.013486031177860444 0.0 0.0
0.0 0.01692561791610323 -0.013772599286896668 0.013021977142434757 0.0007506221444619056 0.010796445316970776 0.0 0.0
0.0 0.011582582929597445 -0.009326892835247444 0.008659733019828336 0.000667159815419104 0.007975902947965203 0.0 0.0
0.0 0.007020742456541121 -0.005531080358126819 0.0049876837354162476 0.0005433966227105723 0.005236061094673765 0.0 0.0
0.0 0.0034730507348383543 -0.0026394833139358285 0.0022815778885496925 0.0003579054253861349 0.0029180157722681994 0.0 0.0
0.0 0.0012465435512366107 -0.0008716890607073987 0.0007214391892814937 0.00015024987142590456 0.0012354555266693656 0.0 0.0
0.0 0.0002833375044021413 -0.00016498180199061264 0.00013339327830342592 3.158852368718678e-05 0.0003197099732495848 0.0 0.0
0.0 5.3259518956370484e-05 -2.1484021520693396e-05 1.7488377989395385e-05 3.995643531297962e-06 5.493756939392939e-05 0.0 0.0
0.0 1.242385708033042e-05 -3.0797555022777085e-06 2.5420420267688367e-06 5.377134755088631e-07 1.0119308997091053e-05 0.0 0.0
0.0 2.3947176660416194e-06 -2.252033956058317e-08 1.829687514378118e-08 4.223464416800098e-09 6.583792261242869e-08 0.0 0.0
0.0 1.1426115247963744e-07 2.288734890412389e-09 -1.5997618390303778e-09 -6.889730513817681e-10 -2.247828462369251e-08 0.0 0.0
0.0 0.0 0.0 0.0 0.0 0.0 0.0 0.0
0.0 0.0 0.0 0.0 0.0 0.0 0.0 0.0
0.0 0.0 0.0 0.0 0.0 0.0 0.0 0.0
0.0 6.301117771691601e-07 3.177133557320747e-08 -2.5610055499987776e-08 -6.161280073216576e-09 1.139376708674144e-07 0.0 0.0
0.0 1.183158049974746e-05 -1.62738501720746e-06 1.3172719166368515e-06 3.101131005706196e-07 -3.840368009933908e-06 0.0 0.0
0.0 8.52713462702205e-05 -3.7941069452776925e-05 3.063914978505361e-05 7.301919667723293e-06 -6.76862028964112e-05 0.0 0.0
0.0 0.0005355300431749353 -0.0003794712970473785 0.0003089110848192054 7.056021222817308e-05 -0.0004944265680819214 0.0 0.0
0.0 0.0021072282043510726 -0.0016295052513388823 0.0013764160250621738 0.0002530892262767078 -0.0015821387856774327 0.0 0.0
0.0 0.0051807827537300125 -0.004191669816271814 0.0037164748791465776 0.0004751949371252364 -0.0033870048886253177 0.0 0.0
0.0 0.00971707581500625 -0.008031876777609376 0.007395700389588168 0.0006361763880212076 -0.005851899001708782 0.0 0.0
0.0 0.015492420362123215 -0.012903513696330254 0.012161854647970066 0.0007416590483601893 -0.008668880876944732 0.0 0.0
0.0 0.022246128913140033 -0.01859650235424571 0.01777254850626151 0.0008239538479842049 -0.01151658548483913 0.0 0.0
0.0 0.02983527037658125 -0.025008285111145147 0.024110660536556933 0.0008976245745882208 -0.014250634317040559 0.0 0.0
0.0 0.03824446220784671 -0.0321452646754247 0.031178509100795053 0.0009667555746296285 -0.016886550470914415 0.0 0.0
0.0 0.0475680384478721 -0.04007643803033281 0.03904213310788916 0.0010343049224436403 -0.019519028501139884 0.0 0.0
0.0 0.057875208313860706 -0.048799185520081105 0.04769216522631227 0.0011070202937688333 -0.022437434675845705 0.0 0.0
0.0 0.06859826559568856 -0.057982801694824476 0.05678895542676035 0.001193846268064111 -0.02611283814807295 0.0 0.0
0.0 0.07907053778521916 -0.06662486804266646 0.06532470847006744 0.0013001595725990029 -0.030794631374810505 0.0 0.0
0.0 0.08663446540402256 -0.07274011151725629 0.07130904897796417 0.0014310625392921004 -0.035756547709188194 0.0 0.0
0.0 0.0872921010437528 -0.07302385871908978 0.07142912819779643 0.0015947305212933283 -0.03878792818781608 0.0 0.0
0.0 0.07533846370291107 -0.0624960929240974 0.060705155941616365 0.0017909369824810365 -0.037612055332159694 0.0 0.0
0.0 0.07533846370291139 -0.062496092924091556 0.06070515594161045 0.0017909369824810721 0.03761205533220183 0.0 0.0
0.0 0.08729210104374265 -0.07302385871907377 0.07142912819778069 0.0015947305212930605 0.03878792818787036 0.0 0.0
0.0 0.08663446540399775 -0.07274011151722945 0.07130904897793754 0.0014310625392918704 0.03575654770922915 0.0 0.0
0.0 0.07907053778517564 -0.06662486804262668 0.06532470847002783 0.00130015957259879 0.030794631374821132 0.0 0.0
0.0 0.06859826559563477 -0.05798280169477762 0.05678895542671406 0.001193846268063529 0.026112838148064046 0.0 0.0
0.0 0.0578752083138092 -0.04879918552003654 0.04769216522626864 0.001107020293767931 0.022437434675832493 0.0 0.0
0.0 0.04756803844782061 -0.040076438030288514 0.03904213310784555 0.001034304922442966 0.019519028501124296 0.0 0.0
0.0 0.03824446220779082 -0.03214526467537666 0.031178509100746994 0.000966755574629655 0.0168865504708998 0.0 0.0
0.0 0.029835270376527116 -0.0250082851110992 0.024110660536511085 0.0008976245745881085 0.014250634317020186 0.0 0.0
0.0 0.022246128913091787 -0.018596502354205544 0.017772548506221838 0.0008239538479837009 0.011516585484813841 0.0 0.0
0.0 0.01549242036208199 -0.012903513696295922 0.012161854647936315 0.0007416590483596154 0.008668880876920464 0.0 0.0
0.0 0.009717075814976845 -0.008031876777584872 0.007395700389564313 0.0006361763880205638 0.0058518990016933874 0.0 0.0
0.0 0.00518078275370909 -0.004191669816254646 0.0037164748791303987 0.00047519493712424855 0.003387004888613816 0.0 0.0
0.0 0.0021072282043389724 -0.00162950525132971 0.0013764160250541297 0.00025308922627558054 0.0015821387856693667 0.0 0.0
0.0 0.000535530043169821 -0.00037947129704427133 0.00030891108481668057 7.056021222759076e-05 0.0004944265680783027 0.0 0.0
0.0 8.527134626939441e-05 -3.794106945300799e-05 3.0639149785226596e-05 7.301919667781296e-06 6.76862028967467e-05 0.0 0.0
0.0 1.1831580499387347e-05 -1.6273850174914454e-06 1.3172719168668807e-06 3.101131006245756e-07 3.840368010632708e-06 0.0 0.0
0.0 6.301117768796378e-07 3.177133555832444e-08 -2.5610055487985994e-08 -6.161280070339225e-09 -1.1393767081387647e-07 0.0 0.0
0.0 0.0 0.0 0.0 0.0 0.0 0.0 0.0
0.0 0.0 0.0 0.0 0.0 0.0 0.0 0.0
0.0 0.0 0.0 0.0 0.0 0.0 0.0 0.0
0.0 0.0 0.0 0.0 0.0 0.0 0.0 0.0
0.0 9.159772724021529e-07 5.630253744311479e-08 -4.536700834069255e-08 -1.0935529102421052e-08 1.5681455061216043e-07 0.0 0.0
0.0 8.991419168958248e-06 -3.305678206605662e-06 2.6568817353070645e-06 6.487964712986392e-07 -6.0846576072883576e-06 0.0 0.0
0.0 0.00014062401530758425 -8.849986783724003e-05 7.12265176762051e-05 1.727335016103496e-05 -0.00011327542275975948 0.0 0.0
0.0 0.0009595880101807184 -0.0007354505087052306 0.000604819543967537 0.0001306309647376939 -0.0006552316176291102 0.0 0.0
0.0 0.003210476193934851 -0.0025851867338162592 0.0022298697498826926 0.00035531698393356673 -0.0017757561127021133 0.0 0.0
0.0 0.006994474077291479 -0.00592385372016421 0.005359445776683118 0.0005644079434810919 -0.003587077306008637 0.0 0.0
0.0 0.012510987086979992 -0.010644293009258697 0.009944460035081523 0.0006998329741771795 -0.005976931710836533 0.0 0.0
0.0 0.01948015660772874 -0.016557297945554224 0.015758604133560932 0.0007986938119932949 -0.008655629878478899 0.0 0.0
0.0 0.027640297483721835 -0.02349050743479238 0.022605773720279155 0.000884733714513209 -0.01138909776106065 0.0 0.0
0.0 0.03682688181048791 -0.031333728965467406 0.03036836279462914 0.0009653661708382309 -0.014014898561397596 0.0 0.0
0.0 0.047102364672441305 -0.04007851506548121 0.03903586921354873 0.0010426458519324864 -0.016559599073077427 0.0 0.0
0.0 0.0583454656877509 -0.049790351636271955 0.048672866929432394 0.0011174847068395693 -0.019110070466240296 0.0 0.0
0.0 0.07081615521319211 -0.06048123306496869 0.0592842376305363 0.0011969954344324028 -0.021804937437252044 0.0 0.0
0.0 0.08414905215400384 -0.0718082020127126 0.07051172409687473 0.0012964779158378703 -0.025050446511494854 0.0 0.0
0.0 0.09666457141755963 -0.08255827510735048 0.08113242071250898 0.0014258543948414437 -0.0293594289975473 0.0 0.0
0.0 0.10576999315290643 -0.0901891736451847 0.08860348273270807 0.0015856909124765525 -0.034491990017700605 0.0 0.0
0.0 0.10683458667190514 -0.09069288976633733 0.08892909893113214 0.0017637908352051463 -0.03909826567240562 0.0 0.0
0.0 0.0939175824641526 -0.07869539425783123 0.07674817803389736 0.0019472162239338531 -0.04202224709031278 0.0 0.0
0.0 0.0939175824641532 -0.07869539425782607 0.07674817803389217 0.0019472162239338594 0.042022247090357054 0.0 0.0
0.0 0.10683458667189154 -0.09069288976631941 0.08892909893111459 0.001763790835204785 0.03909826567246105 0.0 0.0
0.0 0.10576999315286993 -0.0901891736451489 0.0886034827326726 0.0015856909124762728 0.03449199001773939 0.0 0.0
0.0 0.09666457141750787 -0.08255827510730412 0.08113242071246274 0.0014258543948413355 0.02935942899755794 0.0 0.0
0.0 0.08414905215394056 -0.07180820201265777 0.07051172409681988 0.0012964779158378718 0.025050446511488245 0.0 0.0
0.0 0.07081615521312626 -0.06048123306491164 0.05928423763047946 0.0011969954344321781 0.021804937437242766 0.0 0.0
0.0 0.05834546568768491 -0.04979035163621509 0.04867286692937569 0.0011174847068393745 0.019110070466225784 0.0 0.0
0.0 0.047102364672376766 -0.04007851506542524 0.039035869213493175 0.00104264585193205 0.016559599073062373 0.0 0.0
0.0 0.036826881810423484 -0.03133372896541186 0.030368362794573875 0.0009653661708379712 0.014014898561379305 0.0 0.0
0.0 0.027640297483662868 -0.02349050743474252 0.02260577372022958 0.0008847337145129411 0.011389097761035274 0.0 0.0
0.0 0.01948015660767803 -0.01655729794551149 0.01575860413351852 0.0007986938119929593 0.008655629878455064 0.0 0.0
0.0 0.01251098708694129 -0.010644293009225671 0.009944460035049056 0.0006998329741766117 0.005976931710819722 0.0 0.0
0.0 0.006994474077262848 -0.005923853720139935 0.00535944577665979 0.0005644079434801422 0.003587077305995045 0.0 0.0
0.0 0.0032104761939172953 -0.0025851867338019634 0.0022298697498697147 0.00035531698393224975 0.0017757561126930713 0.0 0.0
0.0 0.0009595880101722013 -0.0007354505086990216 0.0006048195439622611 0.00013063096473676 0.0006552316176237874 0.0 0.0
0.0 0.00014062401530599765 -8.849986783689156e-05 7.122651767590735e-05 1.7273350160984195e-05 0.00011327542275930085 0.0 0.0
0.0 8.991419168756976e-06 -3.305678206880784e-06 2.6568817355242264e-06 6.487964713565355e-07 6.0846576077834636e-06 0.0 0.0
0.0 9.159772720464821e-07 5.630253742091469e-08 -4.5367008322703315e-08 -1.0935529098212496e-08 -1.5681455054918204e-07 0.0 0.0
0.0 0.0 0.0 0.0 0.0 0.0 0.0 0.0
0.0 0.0 0.0 0.0 0.0 0.0 0.0 0.0
0.0 0.0 0.0 0.0 0.0 0.0 0.0 0.0
0.0 0.0 0.0 0.0 0.0 0.0 0.0 0.0
0.0 0.0 0.0 0.0 0.0 0.0 0.0 0.0
0.0 8.44670104238332e-06 -4.069988244844246e-06 3.236380038527122e-06 8.336082063171446e-07 -5.518128655125472e-06 0.0 0.0
0.0 0.0002594429256076133 -0.00018660127643535762 0.00015041056215753267 3.619071427782499e-05 -0.00016635794839116216 0.0 0.0
0.0 0.001558583082080487 -0.0012374139838756725 0.0010324295539325152 0.0002049844299431579 -0.000749216821557036 0.0 0.0
0.0 0.004291155858680115 -0.003715424289504373 0.0032683249342293696 0.00044709935527500533 -0.0018227044029299532 0.0 0.0
0.0 0.008922345098294156 -0.007754234091632826 0.007126848524130662 0.0006273855675021646 -0.003462470134332166 0.0 0.0
0.0 0.015416165028057786 -0.013307631343588089 0.012559993728774246 0.0007476376148138374 -0.0055713971588509485 0.0 0.0
0.0 0.023522524591481304 -0.02025157141456703 0.01940562012078636 0.0008459512937806832 -0.007975597316524632 0.0 0.0
0.0 0.033061298770058624 -0.02841881763770074 0.027481466841260793 0.00093735079643994 -0.010430690197575709 0.0 0.0
0.0 0.04388146051858148 -0.03769829654854241 0.036672351989339574 0.0010259445592028227 -0.012795594844076328 0.0 0.0
0.0 0.055932662073461405 -0.04806490663468911 0.0469528984952855 0.0011120081394036061 -0.015115932551869002 0.0 0.0
0.0 0.06928855094098482 -0.059545522828240556 0.05834900264766117 0.0011965201805793579 -0.017428082649833632 0.0 0.0
0.0 0.08388485815028053 -0.07212043947295237 0.07083705708169755 0.0012833823912548133 -0.01972097622059408 0.0 0.0
0.0 0.09912506338723906 -0.08544405738846629 0.08405426518842918 0.001389792200037068 -0.022148193978931772 0.0 0.0
0.0 0.11394838286643515 -0.09820015448168692 0.09666173005973437 0.0015384244219525615 -0.025408415299008506 0.0 0.0
0.0 0.12484907738749028 -0.10742622655739655 0.10570295077867668 0.0017232757787198735 -0.030420450621383065 0.0 0.0
0.0 0.12663086499543036 -0.10847068409461837 0.10655078683030605 0.0019198972643122633 -0.03740707731487541 0.0 0.0
0.0 0.11299864398061124 -0.09539970623141922 0.09329820738659515 0.0021014988448239806 -0.04614428714560494 0.0 0.0
0.0 0.11299864398060584 -0.09539970623140952 0.09329820738658545 0.0021014988448240924 0.046144287145646015 0.0 0.0
0.0 0.12663086499540496 -0.10847068409459196 0.10655078683027969 0.0019198972643122711 0.03740707731492474 0.0 0.0
0.0 0.12484907738744308 -0.10742622655735296 0.1057029507786333 0.001723275778719524 0.030420450621417544 0.0 0.0
0.0 0.11394838286637272 -0.0982001544816316 0.09666173005967998 0.001538424421951612 0.02540841529901687 0.0 0.0
0.0 0.09912506338716848 -0.08544405738840485 0.08405426518836821 0.0013897922000365758 0.022148193978927703 0.0 0.0
0.0 0.08388485815020733 -0.07212043947288886 0.07083705708163435 0.0012833823912545236 0.019720976220587293 0.0 0.0
0.0 0.06928855094091048 -0.059545522828176274 0.058349002647597605 0.0011965201805786147 0.01742808264982116 0.0 0.0
0.0 0.05593266207338622 -0.048064906634624 0.04695289849522105 0.0011120081394029278 0.015115932551855256 0.0 0.0
0.0 0.043881460518511745 -0.0376982965484816 0.036672351989279865 0.0010259445592017678 0.012795594844061202 0.0 0.0
0.0 0.033061298769998124 -0.028418817637648287 0.02748146684120945 0.0009373507964388297 0.010430690197554842 0.0 0.0
0.0 0.02352252459142689 -0.02025157141452004 0.019405620120740194 0.0008459512937798324 0.007975597316504069 0.0 0.0
0.0 0.015416165028014382 -0.013307631343550256 0.012559993728737076 0.0007476376148131773 0.005571397158836994 0.0 0.0
0.0 0.008922345098264105 -0.007754234091606556 0.007126848524105203 0.0006273855675013524 0.0034624701343212135 0.0 0.0
0.0 0.004291155858661056 -0.003715424289487951 0.0032683249342140798 0.00044709935527387196 0.0018227044029224346 0.0 0.0
0.0 0.0015585830820703623 -0.0012374139838679632 0.0010324295539258488 0.00020498442994211426 0.0007492168215527139 0.0 0.0
0.0 0.0002594429256042833 -0.00018660127643354576 0.00015041056215604558 3.6190714277499985e-05 0.00016635794838969114 0.0 0.0
0.0 8.446701041952118e-06 -4.069988245103546e-06 3.236380038725028e-06 8.336082063785312e-07 5.518128655449077e-06 0.0 0.0
0.0 0.0 0.0 0.0 0.0 0.0 0.0 0.0
0.0 0.0 0.0 0.0 0.0 0.0 0.0 0.0
0.0 0.0 0.0 0.0 0.0 0.0 0.0 0.0
0.0 0.0 0.0 0.0 0.0 0.0 0.0 0.0
0.0 0.0 0.0 0.0 0.0 0.0 0.0 0.0
0.0 0.0 0.0 0.0 0.0 0.0 0.0 0.0
0.0 1.228402706267383e-05 -7.294934185971372e-06 5.8224987288228326e-06 1.4724354571485294e-06 -7.11930578327702e-06 0.0 0.0
0.0 0.0004833972884671544 -0.00036609413477205384 0.00029612075361909777 6.997338115295588e-05 -0.0002092243350312198 0.0 0.0
0.0 0.002266147680819298 -0.0018856920658632875 0.0015980627464666423 0.00028762931939664517 -0.0007498171277956397 0.0 0.0
0.0 0.005565864847442695 -0.0049419927609227225 0.004421008809257677 0.0005209839516650445 -0.0016346191350648312 0.0 0.0
0.0 0.010968883172196537 -0.009625904195067762 0.008952422876610794 0.0006734813184569666 -0.0029510755221990215 0.0 0.0
0.0 0.018361672121566378 -0.015994374362398547 0.015208655893902948 0.0007857184684955871 -0.00467027837173935 0.0 0.0
0.0 0.027601554361108123 -0.023953272956264822 0.023067049454246195 0.0008862235020186287 -0.006642267118260847 0.0 0.0
0.0 0.03853052263000963 -0.03334914876386863 0.03236506458848269 0.000984084175385915 -0.00866310556882266 0.0 0.0
0.0 0.05092792131028143 -0.04407018101802174 0.04298956006594208 0.0010806209520796426 -0.010606790261291046 0.0 0.0
0.0 0.06491077286746583 -0.05606856896206087 0.05489222204378066 0.0011763469182801748 -0.012525080173235066 0.0 0.0
0.0 0.08010932664306507 -0.0693160615656316 0.0680439970375872 0.0012720645280443754 -0.01448008183319144 0.0 0.0
0.0 0.09664402816592618 -0.08368464776508741 0.08231513897852658 0.001369508786560876 -0.016297610293941372 0.0 0.0
0.0 0.1140209116557874 -0.09876126654140295 0.09728200159635712 0.0014792649450457978 -0.017690132857967347 0.0 0.0
0.0 0.13080165181806952 -0.11332328144564635 0.11169519721110985 0.0016280842345364713 -0.019241727004190152 0.0 0.0
0.0 0.1436736973280956 -0.12437169136828607 0.12253024709885937 0.0018414442694266156 -0.0235013147436471 0.0 0.0
0.0 0.14681293010431526 -0.12656491836779998 0.12449793132970674 0.002066987038093249 -0.03329076995984753 0.0 0.0
0.0 0.13326375579213515 -0.11302987124906591 0.11076304815109234 0.0022668230979735484 -0.049675207116186205 0.0 0.0
0.0 0.133263755792127 -0.11302987124905525 0.11076304815108166 0.002266823097973638 0.0496752071162183 0.0 0.0
0.0 0.14681293010428614 -0.1265649183677714 0.12449793132967914 0.0020669870380922257 0.03329076995989076 0.0 0.0
0.0 0.14367369732804214 -0.12437169136823767 0.12253024709881191 0.0018414442694256938 0.023501314743678413 0.0 0.0
0.0 0.13080165181799985 -0.11332328144558532 0.11169519721104977 0.001628084234535586 0.019241727004197233 0.0 0.0
0.0 0.11402091165570535 -0.09876126654133133 0.09728200159628664 0.0014792649450447086 0.017690132857966296 0.0 0.0
0.0 0.09664402816584 -0.08368464776501228 0.08231513897845258 0.0013695087865597533 0.016297610293937018 0.0 0.0
0.0 0.08010932664298223 -0.06931606156555961 0.06804399703751604 0.0012720645280435477 0.01448008183318339 0.0 0.0
0.0 0.06491077286738503 -0.05606856896199066 0.054892222043711095 0.001176346918279592 0.01252508017322536 0.0 0.0
0.0 0.05092792131019958 -0.04407018101795071 0.042989560065871665 0.0010806209520790324 0.010606790261280943 0.0 0.0
0.0 0.038530522629935844 -0.03334914876380439 0.03236506458841913 0.0009840841753852787 0.00866310556880509 0.0 0.0
0.0 0.02760155436104583 -0.023953272956210678 0.023067049454192655 0.0008862235020180293 0.006642267118242782 0.0 0.0
0.0 0.018361672121518 -0.01599437436235626 0.015208655893861146 0.0007857184684951162 0.004670278371727421 0.0 0.0
0.0 0.010968883172161683 -0.009625904195037024 0.008952422876580698 0.0006734813184563271 0.0029510755221897177 0.0 0.0
0.0 0.0055658648474188575 -0.0049419927609015615 0.004421008809237608 0.0005209839516639552 0.0016346191350577449 0.0 0.0
0.0 0.0022661476808068575 -0.0018856920658529611 0.001598062746457418 0.00028762931939554156 0.000749817127791271 0.0 0.0
0.0 0.00048339728846332624 -0.0003660941347695951 0.00029612075361710094 6.99733811524943e-05 0.00020922433503008233 0.0 0.0
0.0 1.228402706222239e-05 -7.294934186302328e-06 5.822498729074716e-06 1.4724354572276196e-06 7.119305783556206e-06 0.0 0.0
0.0 0.0 0.0 0.0 0.0 0.0 0.0 0.0
0.0 0.0 0.0 0.0 0.0 0.0 0.0 0.0
0.0 0.0 0.0 0.0 0.0 0.0 0.0 0.0
0.0 0.0 0.0 0.0 0.0 0.0 0.0 0.0
0.0 0.0 0.0 0.0 0.0 0.0 0.0 0.0
0.0 0.0 0.0 0.0 0.0 0.0 0.0 0.0
0.0 2.923094469725468e-05 -1.8615412937990182e-05 1.4838526586178793e-05 3.7768863518114202e-06 -1.1279434790912131e-05 0.0 0.0
0.0 0.0008446966336867075 -0.0006513050930312786 0.0005319580686710629 0.00011934702436021589 -0.00021304821759471292 0.0 0.0
0.0 0.0029324671965612462 -0.0026630473437863297 0.002292314496647984 0.00037073284713834393 -0.0006048426464688162 0.0 0.0
0.0 0.006966294627905859 -0.006216990759313756 0.005641650812932966 0.0005753399463807911 -0.0012041547044152172 0.0 0.0
0.0 0.013056952979937027 -0.0115180489602567 0.01080871885474417 0.0007093301055125366 -0.002093952043549131 0.0 0.0
0.0 0.021327545444147958 -0.018674915468942323 0.017858351469491014 0.0008165639994513038 -0.003280387373559881 0.0 0.0
0.0 0.031686967015643504 -0.027632266290707915 0.026711419258083527 0.000920847032624388 -0.004663223717552817 0.0 0.0
0.0 0.04398408613342127 -0.03825255338457105 0.037226753271811255 0.0010258001127598025 -0.006082060911749376 0.0 0.0
0.0 0.05812625859964156 -0.05041790149421922 0.04928722507047798 0.001130676423741223 -0.007447899255149841 0.0 0.0
0.0 0.0737375295536658 -0.06405772365219077 0.06282145202277307 0.0012362716294176867 -0.008827759243009969 0.0 0.0
0.0 0.09098686312122409 -0.07906066928739308 0.07771660916766261 0.0013440601197304179 -0.010223381158612892 0.0 0.0
0.0 0.10954996912266377 -0.09515572617258161 0.09370033031000044 0.0014553958625811306 -0.011433251279738082 0.0 0.0
0.0 0.1286690996246675 -0.11176313637534316 0.1101912088034665 0.0015719275718766245 -0.01201808395569992 0.0 0.0
0.0 0.14702734958028604 -0.12773400551075326 0.12602719737432114 0.0017068081364321913 -0.011845937568167788 0.0 0.0
0.0 0.1619224583566098 -0.14063433243693996 0.13873405939645989 0.0019002730404800165 -0.013613944574545572 0.0 0.0
0.0 0.16762523837099985 -0.14513168223180775 0.14291428825246985 0.0022173939793378146 -0.025250047086467792 0.0 0.0
0.0 0.15525866008009784 -0.13222618345135656 0.12976573104364536 0.0024604524077111427 -0.05184485061825469 0.0 0.0
0.0 0.1552586600800833 -0.1322261834513417 0.12976573104363048 0.0024604524077112503 0.05184485061827787 0.0 0.0
0.0 0.16762523837096135 -0.14513168223177292 0.1429142882524353 0.0022173939793376147 0.025250047086500065 0.0 0.0
0.0 0.16192245835654123 -0.14063433243688053 0.13873405939639952 0.0019002730404810392 0.013613944574568528 0.0 0.0
0.0 0.14702734958020408 -0.1277340055106821 0.12602719737425022 0.0017068081364318688 0.01184593756816953 0.0 0.0
0.0 0.12866909962457582 -0.11176313637526343 0.11019120880338773 0.0015719275718757047 0.012018083955698734 0.0 0.0
0.0 0.10954996912257095 -0.09515572617250066 0.09370033030992081 0.0014553958625798569 0.01143325127973607 0.0 0.0
0.0 0.0909868631211283 -0.0790606692873098 0.0777166091675803 0.0013440601197294794 0.010223381158608368 0.0 0.0
0.0 0.0737375295535693 -0.06405772365210688 0.06282145202269022 0.0012362716294166912 0.008827759243002102 0.0 0.0
0.0 0.05812625859955084 -0.050417901494140036 0.04928722507039977 0.0011306764237402464 0.007447899255142642 0.0 0.0
0.0 0.043984086133338283 -0.038252553384499115 0.03722675327173972 0.0010258001127593788 0.006082060911736216 0.0 0.0
0.0 0.03168696701557232 -0.027632266290646128 0.02671141925802205 0.0009208470326240859 0.004663223717539146 0.0 0.0
0.0 0.02132754544409446 -0.018674915468895003 0.017858351469444454 0.0008165639994505419 0.0032803873735526316 0.0 0.0
0.0 0.013056952979896215 -0.011518048960220555 0.010808718854708748 0.0007093301055118028 0.0020939520435426847 0.0 0.0
0.0 0.006966294627879477 -0.006216990759290025 0.005641650812910142 0.0005753399463798808 0.0012041547044103604 0.0 0.0
0.0 0.0029324671965473927 -0.0026630473437737625 0.0022923144966365463 0.00037073284713721685 0.0006048426464660266 0.0 0.0
0.0 0.000844696633681116 -0.0006513050930272255 0.0005319580686676164 0.00011934702435960871 0.0002130482175934478 0.0 0.0
0.0 2.9230944696853096e-05 -1.861541293851884e-05 1.4838526586579108e-05 3.7768863519396818e-06 1.1279434791153325e-05 0.0 0.0
0.0 0.0 0.0 0.0 0.0 0.0 0.0 0.0
0.0 0.0 0.0 0.0 0.0 0.0 0.0 0.0
0.0 0.0 0.0 0.0 0.0 0.0 0.0 0.0
0.0 0.0 0.0 0.0 0.0 0.0 0.0 0.0
0.0 0.0 0.0 0.0 0.0 0.0 0.0 0.0
0.0 0.0 0.0 0.0 0.0 0.0 0.0 0.0
0.0 9.053578661360716e-05 -7.051316981817827e-05 5.582985685974942e-05 1.468331295842898e-05 -1.8109787324855955e-05 0.0 0.0
0.0 0.0013522819482923464 -0.001042472489549989 0.0008606117548666946 0.0001818607346832938 -0.00013410215974030067 0.0 0.0
0.0 0.003848793821629302 -0.003494972705745119 0.0030537503631110803 0.0004412223426340389 -0.000287968547858298 0.0 0.0
0.0 0.008416973336331289 -0.007521023036989024 0.006903766887387041 0.0006172561496019809 -0.0005315193136372148 0.0 0.0
0.0 0.015184569200422965 -0.01340421822289841 0.012667070195391742 0.0007371480275066615 -0.0008946142972759121 0.0 0.0
0.0 0.02431586128135478 -0.021320345506660354 0.02047800302394965 0.0008423424827107013 -0.001410274121690308 0.0 0.0
0.0 0.03580678181271674 -0.031257435490596 0.030306718687704612 0.0009507168028913887 -0.0020367468067263297 0.0 0.0
0.0 0.04954765362849731 -0.043100341635188444 0.04203751978590723 0.0010628218492812137 -0.0026897767730077273 0.0 0.0
0.0 0.06510418969998222 -0.05672045343416995 0.055543569600858586 0.0011768838333113443 -0.0033384813700028096 0.0 0.0
0.0 0.08263582776541295 -0.07198864926076493 0.07069629514533161 0.0012923541154333472 -0.003987771767004222 0.0 0.0
0.0 0.10192705032531622 -0.0887224504982784 0.08731065074904674 0.0014117997492316243 -0.004607471461641621 0.0 0.0
0.0 0.12244090034300185 -0.1065180633361833 0.10498062574893333 0.0015374375872500264 -0.005081839866353303 0.0 0.0
0.0 0.14326149187973827 -0.12456331396788267 0.12289532351283419 0.0016679904550484215 -0.0051099483279269334 0.0 0.0
0.0 0.16283887335247033 -0.14154376705877852 0.13974482036409927 0.0017989466946792376 -0.004262746795088767 0.0 0.0
0.0 0.1789327760164957 -0.15553725044517547 0.15359719791020315 0.0019400525349722937 -0.0030813407900442706 0.0 0.0
0.0 0.18784330860920154 -0.1631160607894631 0.16094965166067104 0.00216640912879199 -0.00978944307606156 0.0 0.0
0.0 0.18053608731906862 -0.1547438082708926 0.15191235152513963 0.0028314567457529407 -0.0478496932167318 0.0 0.0
0.0 0.18053608731904938 -0.15474380827087567 0.1519123515251218 0.0028314567457537803 0.047849693216741256 0.0 0.0
0.0 0.18784330860915519 -0.16311606078942276 0.16094965166063066 0.002166409128792018 0.009789443076077499 0.0 0.0
0.0 0.17893277601642305 -0.1555372504451118 0.15359719791014093 0.0019400525349708177 0.003081340790055877 0.0 0.0
0.0 0.16283887335237768 -0.1415437670586979 0.13974482036401978 0.0017989466946781248 0.004262746795086066 0.0 0.0
0.0 0.14326149187963233 -0.12456331396779105 0.12289532351274257 0.0016679904550484194 0.005109948327926163 0.0 0.0
0.0 0.12244090034289534 -0.10651806333609094 0.10498062574884137 0.0015374375872495038 0.00508183986635313 0.0 0.0
0.0 0.10192705032521168 -0.08872245049818742 0.08731065074895697 0.0014117997492303776 0.004607471461638771 0.0 0.0
0.0 0.08263582776531271 -0.07198864926067734 0.07069629514524586 0.0012923541154314377 0.00398777176700185 0.0 0.0
0.0 0.06510418969988223 -0.05672045343408288 0.05554356960077267 0.0011768838333102 0.0033384813700008537 0.0 0.0
0.0 0.04954765362840846 -0.04310034163511087 0.04203751978583091 0.0010628218492799676 0.002689776773000969 0.0 0.0
0.0 0.03580678181264093 -0.031257435490530124 0.030306718687639615 0.0009507168028905221 0.0020367468067194862 0.0 0.0
0.0 0.024315861281294725 -0.02132034550660764 0.020478003023897497 0.0008423424827101412 0.0014102741216876335 0.0 0.0
0.0 0.015184569200379576 -0.013404218222859796 0.012667070195353734 0.000737148027506054 0.00089461429727309 0.0 0.0
0.0 0.008416973336302076 -0.0075210230369628294 0.006903766887361555 0.0006172561496012724 0.0005315193136355147 0.0 0.0
0.0 0.003848793821612231 -0.003494972705729296 0.003053750363096369 0.0004412223426329252 0.0002879685478571623 0.0 0.0
0.0 0.0013522819482830683 -0.0010424724895426066 0.0008606117548602949 0.00018186073468231251 0.00013410215973942767 0.0 0.0
0.0 9.053578661256316e-05 -7.051316981792084e-05 5.582985685953211e-05 1.4683312958388708e-05 1.810978732476618e-05 0.0 0.0
0.0 0.0 0.0 0.0 0.0 0.0 0.0 0.0
0.0 0.0 0.0 0.0 0.0 0.0 0.0 0.0
0.0 0.0 0.0 0.0 0.0 0.0 0.0 0.0