# vtk DataFile Version 3.0
Some data
ASCII
DATASET UNSTRUCTURED_GRID
POINTS 861 float
0.0 0.0 0.0
0.4 0.0 0.0
0.8 0.0 0.0
1.2000000000000002 0.0 0.0
1.6 0.0 0.0
2.0 0.0 0.0
2.4000000000000004 0.0 0.0
2.8000000000000003 0.0 0.0
3.2 0.0 0.0
3.6 0.0 0.0
4.0 0.0 0.0
4.4 0.0 0.0
4.800000000000001 0.0 0.0
5.2 0.0 0.0
5.6000000000000005 0.0 0.0
6.0 0.0 0.0
6.4 0.0 0.0
6.800000000000001 0.0 0.0
7.2 0.0 0.0
7.6000000000000005 0.0 0.0
8.0 0.0 0.0
8.4 0.0 0.0
8.8 0.0 0.0
9.200000000000001 0.0 0.0
9.600000000000001 0.0 0.0
10.0 0.0 0.0
10.4 0.0 0.0
10.8 0.0 0.0
11.200000000000001 0.0 0.0
11.600000000000001 0.0 0.0
12.0 0.0 0.0
12.4 0.0 0.0
12.8 0.0 0.0
13.200000000000001 0.0 0.0
13.600000000000001 0.0 0.0
14.0 0.0 0.0
14.4 0.0 0.0
14.8 0.0 0.0
15.200000000000001 0.0 0.0
15.600000000000001 0.0 0.0
16.0 0.0 0.0
0.0 0.1 0.0
0.4 0.1 0.0
0.8 0.1 0.0
1.2000000000000002 0.1 0.0
1.6 0.1 0.0
2.0 0.1 0.0
2.4000000000000004 0.1 0.0
2.8000000000000003 0.1 0.0
3.2 0.1 0.0
3.6 0.1 0.0
4.0 0.1 0.0
4.4 0.1 0.0
4.800000000000001 0.1 0.0
5.2 0.1 0.0
5.6000000000000005 0.1 0.0
6.0 0.1 0.0
6.4 0.1 0.0
6.800000000000001 0.1 0.0
7.2 0.1 0.0
7.6000000000000005 0.1 0.0
8.0 0.1 0.0
8.4 0.1 0.0
8.8 0.1 0.0
9.200000000000001 0.1 0.0
9.600000000000001 0.1 0.0
10.0 0.1 0.0
10.4 0.1 0.0
10.8 0.1 0.0
11.200000000000001 0.1 0.0
11.600000000000001 0.1 0.0
12.0 0.1 0.0
12.4 0.1 0.0
12.8 0.1 0.0
13.200000000000001 0.1 0.0
13.600000000000001 0.1 0.0
14.0 0.1 0.0
14.4 0.1 0.0
14.8 0.1 0.0
15.200000000000001 0.1 0.0
15.600000000000001 0.1 0.0
16.0 0.1 0.0
0.0 0.2 0.0
0.4 0.2 0.0
0.8 0.2 0.0
1.2000000000000002 0.2 0.0
1.6 0.2 0.0
2.0 0.2 0.0
2.4000000000000004 0.2 0.0
2.8000000000000003 0.2 0.0
3.2 0.2 0.0
3.6 0.2 0.0
4.0 0.2 0.0
4.4 0.2 0.0
4.800000000000001 0.2 0.0
5.2 0.2 0.0
5.6000000000000005 0.2 0.0
6.0 0.2 0.0
6.4 0.2 0.0
6.800000000000001 0.2 0.0
7.2 0.2 0.0
7.6000000000000005 0.2 0.0
8.0 0.2 0.0
8.4 0.2 0.0
8.8 0.2 0.0
9.200000000000001 0.2 0.0
9.600000000000001 0.2 0.0
10.0 0.2 0.0
10.4 0.2 0.0
10.8 0.2 0.0
11.200000000000001 0.2 0.0
11.600000000000001 0.2 0.0
12.0 0.2 0.0
12.4 0.2 0.0
12.8 0.2 0.0
13.200000000000001 0.2 0.0
13.600000000000001 0.2 0.0
14.0 0.2 0.0
14.4 0.2 0.0
14.8 0.2 0.0
15.200000000000001 0.2 0.0
15.600000000000001 0.2 0.0
16.0 0.2 0.0
0.0 0.30000000000000004 0.0
0.4 0.30000000000000004 0.0
0.8 0.30000000000000004 0.0
1.2000000000000002 0.30000000000000004 0.0
1.6 0.30000000000000004 0.0
2.0 0.30000000000000004 0.0
2.4000000000000004 0.30000000000000004 0.0
2.8000000000000003 0.30000000000000004 0.0
3.2 0.30000000000000004 0.0
3.6 0.30000000000000004 0.0
4.0 0.30000000000000004 0.0
4.4 0.30000000000000004 0.0
4.800000000000001 0.30000000000000004 0.0
5.2 0.30000000000000004 0.0
5.6000000000000005 0.30000000000000004 0.0
6.0 0.30000000000000004 0.0
6.4 0.30000000000000004 0.0
6.800000000000001 0.30000000000000004 0.0
7.2 0.30000000000000004 0.0
7.6000000000000005 0.30000000000000004 0.0
8.0 0.30000000000000004 0.0
8.4 0.30000000000000004 0.0
8.8 0.30000000000000004 0.0
9.200000000000001 0.30000000000000004 0.0
9.600000000000001 0.30000000000000004 0.0
10.0 0.30000000000000004 0.0
10.4 0.30000000000000004 0.0
10.8 0.30000000000000004 0.0
11.200000000000001 0.30000000000000004 0.0
11.600000000000001 0.30000000000000004 0.0
12.0 0.30000000000000004 0.0
12.4 0.30000000000000004 0.0
12.8 0.30000000000000004 0.0
13.200000000000001 0.30000000000000004 0.0
13.600000000000001 0.30000000000000004 0.0
14.0 0.30000000000000004 0.0
14.4 0.30000000000000004 0.0
14.8 0.30000000000000004 0.0
15.200000000000001 0.30000000000000004 0.0
15.600000000000001 0.30000000000000004 0.0
16.0 0.30000000000000004 0.0
0.0 0.4 0.0
0.4 0.4 0.0
0.8 0.4 0.0
1.2000000000000002 0.4 0.0
1.6 0.4 0.0
2.0 0.4 0.0
2.4000000000000004 0.4 0.0
2.8000000000000003 0.4 0.0
3.2 0.4 0.0
3.6 0.4 0.0
4.0 0.4 0.0
4.4 0.4 0.0
4.800000000000001 0.4 0.0
5.2 0.4 0.0
5.6000000000000005 0.4 0.0
6.0 0.4 0.0
6.4 0.4 0.0
6.800000000000001 0.4 0.0
7.2 0.4 0.0
7.6000000000000005 0.4 0.0
8.0 0.4 0.0
8.4 0.4 0.0
8.8 0.4 0.0
9.200000000000001 0.4 0.0
9.600000000000001 0.4 0.0
10.0 0.4 0.0
10.4 0.4 0.0
10.8 0.4 0.0
11.200000000000001 0.4 0.0
11.600000000000001 0.4 0.0
12.0 0.4 0.0
12.4 0.4 0.0
12.8 0.4 0.0
13.200000000000001 0.4 0.0
13.600000000000001 0.4 0.0
14.0 0.4 0.0
14.4 0.4 0.0
14.8 0.4 0.0
15.200000000000001 0.4 0.0
15.600000000000001 0.4 0.0
16.0 0.4 0.0
0.0 0.5 0.0
0.4 0.5 0.0
0.8 0.5 0.0
1.2000000000000002 0.5 0.0
1.6 0.5 0.0
2.0 0.5 0.0
2.4000000000000004 0.5 0.0
2.8000000000000003 0.5 0.0
3.2 0.5 0.0
3.6 0.5 0.0
4.0 0.5 0.0
4.4 0.5 0.0
4.800000000000001 0.5 0.0
5.2 0.5 0.0
5.6000000000000005 0.5 0.0
6.0 0.5 0.0
6.4 0.5 0.0
6.800000000000001 0.5 0.0
7.2 0.5 0.0
7.6000000000000005 0.5 0.0
8.0 0.5 0.0
8.4 0.5 0.0
8.8 0.5 0.0
9.200000000000001 0.5 0.0
9.600000000000001 0.5 0.0
10.0 0.5 0.0
10.4 0.5 0.0
10.8 0.5 0.0
11.200000000000001 0.5 0.0
11.600000000000001 0.5 0.0
12.0 0.5 0.0
12.4 0.5 0.0
12.8 0.5 0.0
13.200000000000001 0.5 0.0
13.600000000000001 0.5 0.0
14.0 0.5 0.0
14.4 0.5 0.0
14.8 0.5 0.0
15.200000000000001 0.5 0.0
15.600000000000001 0.5 0.0
16.0 0.5 0.0
0.0 0.6000000000000001 0.0
0.4 0.6000000000000001 0.0
0.8 0.6000000000000001 0.0
1.2000000000000002 0.6000000000000001 0.0
1.6 0.6000000000000001 0.0
2.0 0.6000000000000001 0.0
2.4000000000000004 0.6000000000000001 0.0
2.8000000000000003 0.6000000000000001 0.0
3.2 0.6000000000000001 0.0
3.6 0.6000000000000001 0.0
4.0 0.6000000000000001 0.0
4.4 0.6000000000000001 0.0
4.800000000000001 0.6000000000000001 0.0
5.2 0.6000000000000001 0.0
5.6000000000000005 0.6000000000000001 0.0
6.0 0.6000000000000001 0.0
6.4 0.6000000000000001 0.0
6.800000000000001 0.6000000000000001 0.0
7.2 0.6000000000000001 0.0
7.6000000000000005 0.6000000000000001 0.0
8.0 0.6000000000000001 0.0
8.4 0.6000000000000001 0.0
8.8 0.6000000000000001 0.0
9.200000000000001 0.6000000000000001 0.0
9.600000000000001 0.6000000000000001 0.0
10.0 0.6000000000000001 0.0
10.4 0.6000000000000001 0.0
10.8 0.6000000000000001 0.0
11.200000000000001 0.6000000000000001 0.0
11.600000000000001 0.6000000000000001 0.0
12.0 0.6000000000000001 0.0
12.4 0.6000000000000001 0.0
12.8 0.6000000000000001 0.0
13.200000000000001 0.6000000000000001 0.0
13.600000000000001 0.6000000000000001 0.0
14.0 0.6000000000000001 0.0
14.4 0.6000000000000001 0.0
14.8 0.6000000000000001 0.0
15.200000000000001 0.6000000000000001 0.0
15.600000000000001 0.6000000000000001 0.0
16.0 0.6000000000000001 0.0
0.0 0.7000000000000001 0.0
0.4 0.7000000000000001 0.0
0.8 0.7000000000000001 0.0
1.2000000000000002 0.7000000000000001 0.0
1.6 0.7000000000000001 0.0
2.0 0.7000000000000001 0.0
2.4000000000000004 0.7000000000000001 0.0
2.8000000000000003 0.7000000000000001 0.0
3.2 0.7000000000000001 0.0
3.6 0.7000000000000001 0.0
4.0 0.7000000000000001 0.0
4.4 0.7000000000000001 0.0
4.800000000000001 0.7000000000000001 0.0
5.2 0.7000000000000001 0.0
5.6000000000000005 0.7000000000000001 0.0
6.0 0.7000000000000001 0.0
6.4 0.7000000000000001 0.0
6.800000000000001 0.7000000000000001 0.0
7.2 0.7000000000000001 0.0
7.6000000000000005 0.7000000000000001 0.0
8.0 0.7000000000000001 0.0
8.4 0.7000000000000001 0.0
8.8 0.7000000000000001 0.0
9.200000000000001 0.7000000000000001 0.0
9.600000000000001 0.7000000000000001 0.0
10.0 0.7000000000000001 0.0
10.4 0.7000000000000001 0.0
10.8 0.7000000000000001 0.0
11.200000000000001 0.7000000000000001 0.0
11.600000000000001 0.7000000000000001 0.0
12.0 0.7000000000000001 0.0
12.4 0.7000000000000001 0.0
12.8 0.7000000000000001 0.0
13.200000000000001 0.7000000000000001 0.0
13.600000000000001 0.7000000000000001 0.0
14.0 0.7000000000000001 0.0
14.4 0.7000000000000001 0.0
14.8 0.7000000000000001 0.0
15.200000000000001 0.7000000000000001 0.0
15.600000000000001 0.7000000000000001 0.0
16.0 0.7000000000000001 0.0
0.0 0.8 0.0
0.4 0.8 0.0
0.8 0.8 0.0
1.2000000000000002 0.8 0.0
1.6 0.8 0.0
2.0 0.8 0.0
2.4000000000000004 0.8 0.0
2.8000000000000003 0.8 0.0
3.2 0.8 0.0
3.6 0.8 0.0
4.0 0.8 0.0
4.4 0.8 0.0
4.800000000000001 0.8 0.0
5.2 0.8 0.0
5.6000000000000005 0.8 0.0
6.0 0.8 0.0
6.4 0.8 0.0
6.800000000000001 0.8 0.0
7.2 0.8 0.0
7.6000000000000005 0.8 0.0
8.0 0.8 0.0
8.4 0.8 0.0
8.8 0.8 0.0
9.200000000000001 0.8 0.0
9.600000000000001 0.8 0.0
10.0 0.8 0.0
10.4 0.8 0.0
10.8 0.8 0.0
11.200000000000001 0.8 0.0
11.600000000000001 0.8 0.0
12.0 0.8 0.0
12.4 0.8 0.0
12.8 0.8 0.0
13.200000000000001 0.8 0.0
13.600000000000001 0.8 0.0
14.0 0.8 0.0
14.4 0.8 0.0
14.8 0.8 0.0
15.200000000000001 0.8 0.0
15.600000000000001 0.8 0.0
16.0 0.8 0.0
0.0 0.9 0.0
0.4 0.9 0.0
0.8 0.9 0.0
1.2000000000000002 0.9 0.0
1.6 0.9 0.0
2.0 0.9 0.0
2.4000000000000004 0.9 0.0
2.8000000000000003 0.9 0.0
3.2 0.9 0.0
3.6 0.9 0.0
4.0 0.9 0.0
4.4 0.9 0.0
4.800000000000001 0.9 0.0
5.2 0.9 0.0
5.6000000000000005 0.9 0.0
6.0 0.9 0.0
6.4 0.9 0.0
6.800000000000001 0.9 0.0
7.2 0.9 0.0
7.6000000000000005 0.9 0.0
8.0 0.9 0.0
8.4 0.9 0.0
8.8 0.9 0.0
9.200000000000001 0.9 0.0
9.600000000000001 0.9 0.0
10.0 0.9 0.0
10.4 0.9 0.0
10.8 0.9 0.0
11.200000000000001 0.9 0.0
11.600000000000001 0.9 0.0
12.0 0.9 0.0
12.4 0.9 0.0
12.8 0.9 0.0
13.200000000000001 0.9 0.0
13.600000000000001 0.9 0.0
14.0 0.9 0.0
14.4 0.9 0.0
14.8 0.9 0.0
15.200000000000001 0.9 0.0
15.600000000000001 0.9 0.0
16.0 0.9 0.0
0.0 1.0 0.0
0.4 1.0 0.0
0.8 1.0 0.0
1.2000000000000002 1.0 0.0
1.6 1.0 0.0
2.0 1.0 0.0
2.4000000000000004 1.0 0.0
2.8000000000000003 1.0 0.0
3.2 1.0 0.0
3.6 1.0 0.0
4.0 1.0 0.0
4.4 1.0 0.0
4.800000000000001 1.0 0.0
5.2 1.0 0.0
5.6000000000000005 1.0 0.0
6.0 1.0 0.0
6.4 1.0 0.0
6.800000000000001 1.0 0.0
7.2 1.0 0.0
7.6000000000000005 1.0 0.0
8.0 1.0 0.0
8.4 1.0 0.0
8.8 1.0 0.0
9.200000000000001 1.0 0.0
9.600000000000001 1.0 0.0
10.0 1.0 0.0
10.4 1.0 0.0
10.8 1.0 0.0
11.200000000000001 1.0 0.0
11.600000000000001 1.0 0.0
12.0 1.0 0.0
12.4 1.0 0.0
12.8 1.0 0.0
13.200000000000001 1.0 0.0
13.600000000000001 1.0 0.0
14.0 1.0 0.0
14.4 1.0 0.0
14.8 1.0 0.0
15.200000000000001 1.0 0.0
15.600000000000001 1.0 0.0
16.0 1.0 0.0
0.0 1.1 0.0
0.4 1.1 0.0
0.8 1.1 0.0
1.2000000000000002 1.1 0.0
1.6 1.1 0.0
2.0 1.1 0.0
2.4000000000000004 1.1 0.0
2.8000000000000003 1.1 0.0
3.2 1.1 0.0
3.6 1.1 0.0
4.0 1.1 0.0
4.4 1.1 0.0
4.800000000000001 1.1 0.0
5.2 1.1 0.0
5.6000000000000005 1.1 0.0
6.0 1.1 0.0
6.4 1.1 0.0
6.800000000000001 1.1 0.0
7.2 1.1 0.0
7.6000000000000005 1.1 0.0
8.0 1.1 0.0
8.4 1.1 0.0
8.8 1.1 0.0
9.200000000000001 1.1 0.0
9.600000000000001 1.1 0.0
10.0 1.1 0.0
10.4 1.1 0.0
10.8 1.1 0.0
11.200000000000001 1.1 0.0
11.600000000000001 1.1 0.0
12.0 1.1 0.0
12.4 1.1 0.0
12.8 1.1 0.0
13.200000000000001 1.1 0.0
13.600000000000001 1.1 0.0
14.0 1.1 0.0
14.4 1.1 0.0
14.8 1.1 0.0
15.200000000000001 1.1 0.0
15.600000000000001 1.1 0.0
16.0 1.1 0.0
0.0 1.2000000000000002 0.0
0.4 1.2000000000000002 0.0
0.8 1.2000000000000002 0.0
1.2000000000000002 1.2000000000000002 0.0
1.6 1.2000000000000002 0.0
2.0 1.2000000000000002 0.0
2.4000000000000004 1.2000000000000002 0.0
2.8000000000000003 1.2000000000000002 0.0
3.2 1.2000000000000002 0.0
3.6 1.2000000000000002 0.0
4.0 1.2000000000000002 0.0
4.4 1.2000000000000002 0.0
4.800000000000001 1.2000000000000002 0.0
5.2 1.2000000000000002 0.0
5.6000000000000005 1.2000000000000002 0.0
6.0 1.2000000000000002 0.0
6.4 1.2000000000000002 0.0
6.800000000000001 1.2000000000000002 0.0
7.2 1.2000000000000002 0.0
7.6000000000000005 1.2000000000000002 0.0
8.0 1.2000000000000002 0.0
8.4 1.2000000000000002 0.0
8.8 1.2000000000000002 0.0
9.200000000000001 1.2000000000000002 0.0
9.600000000000001 1.2000000000000002 0.0
10.0 1.2000000000000002 0.0
10.4 1.2000000000000002 0.0
10.8 1.2000000000000002 0.0
11.200000000000001 1.2000000000000002 0.0
11.600000000000001 1.2000000000000002 0.0
12.0 1.2000000000000002 0.0
12.4 1.2000000000000002 0.0
12.8 1.2000000000000002 0.0
13.200000000000001 1.2000000000000002 0.0
13.600000000000001 1.2000000000000002 0.0
14.0 1.2000000000000002 0.0
14.4 1.2000000000000002 0.0
14.8 1.2000000000000002 0.0
15.200000000000001 1.2000000000000002 0.0
15.600000000000001 1.2000000000000002 0.0
16.0 1.2000000000000002 0.0
0.0 1.3 0.0
0.4 1.3 0.0
0.8 1.3 0.0
1.2000000000000002 1.3 0.0
1.6 1.3 0.0
2.0 1.3 0.0
2.4000000000000004 1.3 0.0
2.8000000000000003 1.3 0.0
3.2 1.3 0.0
3.6 1.3 0.0
4.0 1.3 0.0
4.4 1.3 0.0
4.800000000000001 1.3 0.0
5.2 1.3 0.0
5.6000000000000005 1.3 0.0
6.0 1.3 0.0
6.4 1.3 0.0
6.800000000000001 1.3 0.0
7.2 1.3 0.0
7.6000000000000005 1.3 0.0
8.0 1.3 0.0
8.4 1.3 0.0
8.8 1.3 0.0
9.200000000000001 1.3 0.0
9.600000000000001 1.3 0.0
10.0 1.3 0.0
10.4 1.3 0.0
10.8 1.3 0.0
11.200000000000001 1.3 0.0
11.600000000000001 1.3 0.0
12.0 1.3 0.0
12.4 1.3 0.0
12.8 1.3 0.0
13.200000000000001 1.3 0.0
13.600000000000001 1.3 0.0
14.0 1.3 0.0
14.4 1.3 0.0
14.8 1.3 0.0
15.200000000000001 1.3 0.0
15.600000000000001 1.3 0.0
16.0 1.3 0.0
0.0 1.4000000000000001 0.0
0.4 1.4000000000000001 0.0
0.8 1.4000000000000001 0.0
1.2000000000000002 1.4000000000000001 0.0
1.6 1.4000000000000001 0.0
2.0 1.4000000000000001 0.0
2.4000000000000004 1.4000000000000001 0.0
2.8000000000000003 1.4000000000000001 0.0
3.2 1.4000000000000001 0.0
3.6 1.4000000000000001 0.0
4.0 1.4000000000000001 0.0
4.4 1.4000000000000001 0.0
4.800000000000001 1.4000000000000001 0.0
5.2 1.4000000000000001 0.0
5.6000000000000005 1.4000000000000001 0.0
6.0 1.4000000000000001 0.0
6.4 1.4000000000000001 0.0
6.800000000000001 1.4000000000000001 0.0
7.2 1.4000000000000001 0.0
7.6000000000000005 1.4000000000000001 0.0
8.0 1.4000000000000001 0.0
8.4 1.4000000000000001 0.0
8.8 1.4000000000000001 0.0
9.200000000000001 1.4000000000000001 0.0
9.600000000000001 1.4000000000000001 0.0
10.0 1.4000000000000001 0.0
10.4 1.4000000000000001 0.0
10.8 1.4000000000000001 0.0
11.200000000000001 1.4000000000000001 0.0
11.600000000000001 1.4000000000000001 0.0
12.0 1.4000000000000001 0.0
12.4 1.4000000000000001 0.0
12.8 1.4000000000000001 0.0
13.200000000000001 1.4000000000000001 0.0
13.600000000000001 1.4000000000000001 0.0
14.0 1.4000000000000001 0.0
14.4 1.4000000000000001 0.0
14.8 1.4000000000000001 0.0
15.200000000000001 1.4000000000000001 0.0
15.600000000000001 1.4000000000000001 0.0
16.0 1.4000000000000001 0.0
0.0 1.5 0.0
0.4 1.5 0.0
0.8 1.5 0.0
1.2000000000000002 1.5 0.0
1.6 1.5 0.0
2.0 1.5 0.0
2.4000000000000004 1.5 0.0
2.8000000000000003 1.5 0.0
3.2 1.5 0.0
3.6 1.5 0.0
4.0 1.5 0.0
4.4 1.5 0.0
4.800000000000001 1.5 0.0
5.2 1.5 0.0
5.6000000000000005 1.5 0.0
6.0 1.5 0.0
6.4 1.5 0.0
6.800000000000001 1.5 0.0
7.2 1.5 0.0
7.6000000000000005 1.5 0.0
8.0 1.5 0.0
8.4 1.5 0.0
8.8 1.5 0.0
9.200000000000001 1.5 0.0
9.600000000000001 1.5 0.0
10.0 1.5 0.0
10.4 1.5 0.0
10.8 1.5 0.0
11.200000000000001 1.5 0.0
11.600000000000001 1.5 0.0
12.0 1.5 0.0
12.4 1.5 0.0
12.8 1.5 0.0
13.200000000000001 1.5 0.0
13.600000000000001 1.5 0.0
14.0 1.5 0.0
14.4 1.5 0.0
14.8 1.5 0.0
15.200000000000001 1.5 0.0
15.600000000000001 1.5 0.0
16.0 1.5 0.0
0.0 1.6 0.0
0.4 1.6 0.0
0.8 1.6 0.0
1.2000000000000002 1.6 0.0
1.6 1.6 0.0
2.0 1.6 0.0
2.4000000000000004 1.6 0.0
2.8000000000000003 1.6 0.0
3.2 1.6 0.0
3.6 1.6 0.0
4.0 1.6 0.0
4.4 1.6 0.0
4.800000000000001 1.6 0.0
5.2 1.6 0.0
5.6000000000000005 1.6 0.0
6.0 1.6 0.0
6.4 1.6 0.0
6.800000000000001 1.6 0.0
7.2 1.6 0.0
7.6000000000000005 1.6 0.0
8.0 1.6 0.0
8.4 1.6 0.0
8.8 1.6 0.0
9.200000000000001 1.6 0.0
9.600000000000001 1.6 0.0
10.0 1.6 0.0
10.4 1.6 0.0
10.8 1.6 0.0
11.200000000000001 1.6 0.0
11.600000000000001 1.6 0.0
12.0 1.6 0.0
12.4 1.6 0.0
12.8 1.6 0.0
13.200000000000001 1.6 0.0
13.600000000000001 1.6 0.0
14.0 1.6 0.0
14.4 1.6 0.0
14.8 1.6 0.0
15.200000000000001 1.6 0.0
15.600000000000001 1.6 0.0
16.0 1.6 0.0
0.0 1.7000000000000002 0.0
0.4 1.7000000000000002 0.0
0.8 1.7000000000000002 0.0
1.2000000000000002 1.7000000000000002 0.0
1.6 1.7000000000000002 0.0
2.0 1.7000000000000002 0.0
2.4000000000000004 1.7000000000000002 0.0
2.8000000000000003 1.7000000000000002 0.0
3.2 1.7000000000000002 0.0
3.6 1.7000000000000002 0.0
4.0 1.7000000000000002 0.0
4.4 1.7000000000000002 0.0
4.800000000000001 1.7000000000000002 0.0
5.2 1.7000000000000002 0.0
5.6000000000000005 1.7000000000000002 0.0
6.0 1.7000000000000002 0.0
6.4 1.7000000000000002 0.0
6.800000000000001 1.7000000000000002 0.0
7.2 1.7000000000000002 0.0
7.6000000000000005 1.7000000000000002 0.0
8.0 1.7000000000000002 0.0
8.4 1.7000000000000002 0.0
8.8 1.7000000000000002 0.0
9.200000000000001 1.7000000000000002 0.0
9.600000000000001 1.7000000000000002 0.0
10.0 1.7000000000000002 0.0
10.4 1.7000000000000002 0.0
10.8 1.7000000000000002 0.0
11.200000000000001 1.7000000000000002 0.0
11.600000000000001 1.7000000000000002 0.0
12.0 1.7000000000000002 0.0
12.4 1.7000000000000002 0.0
12.8 1.7000000000000002 0.0
13.200000000000001 1.7000000000000002 0.0
13.600000000000001 1.7000000000000002 0.0
14.0 1.7000000000000002 0.0
14.4 1.7000000000000002 0.0
14.8 1.7000000000000002 0.0
15.200000000000001 1.7000000000000002 0.0
15.600000000000001 1.7000000000000002 0.0
16.0 1.7000000000000002 0.0
0.0 1.8 0.0
0.4 1.8 0.0
0.8 1.8 0.0
1.2000000000000002 1.8 0.0
1.6 1.8 0.0
2.0 1.8 0.0
2.4000000000000004 1.8 0.0
2.8000000000000003 1.8 0.0
3.2 1.8 0.0
3.6 1.8 0.0
4.0 1.8 0.0
4.4 1.8 0.0
4.800000000000001 1.8 0.0
5.2 1.8 0.0
5.6000000000000005 1.8 0.0
6.0 1.8 0.0
6.4 1.8 0.0
6.800000000000001 1.8 0.0
7.2 1.8 0.0
7.6000000000000005 1.8 0.0
8.0 1.8 0.0
8.4 1.8 0.0
8.8 1.8 0.0
9.200000000000001 1.8 0.0
9.600000000000001 1.8 0.0
10.0 1.8 0.0
10.4 1.8 0.0
10.8 1.8 0.0
11.200000000000001 1.8 0.0
11.600000000000001 1.8 0.0
12.0 1.8 0.0
12.4 1.8 0.0
12.8 1.8 0.0
13.200000000000001 1.8 0.0
13.600000000000001 1.8 0.0
14.0 1.8 0.0
14.4 1.8 0.0
14.8 1.8 0.0
15.200000000000001 1.8 0.0
15.600000000000001 1.8 0.0
16.0 1.8 0.0
0.0 1.9000000000000001 0.0
0.4 1.9000000000000001 0.0
0.8 1.9000000000000001 0.0
1.2000000000000002 1.9000000000000001 0.0
1.6 1.9000000000000001 0.0
2.0 1.9000000000000001 0.0
2.4000000000000004 1.9000000000000001 0.0
2.8000000000000003 1.9000000000000001 0.0
3.2 1.9000000000000001 0.0
3.6 1.9000000000000001 0.0
4.0 1.9000000000000001 0.0
4.4 1.9000000000000001 0.0
4.800000000000001 1.9000000000000001 0.0
5.2 1.9000000000000001 0.0
5.6000000000000005 1.9000000000000001 0.0
6.0 1.9000000000000001 0.0
6.4 1.9000000000000001 0.0
6.800000000000001 1.9000000000000001 0.0
7.2 1.9000000000000001 0.0
7.6000000000000005 1.9000000000000001 0.0
8.0 1.9000000000000001 0.0
8.4 1.9000000000000001 0.0
8.8 1.9000000000000001 0.0
9.200000000000001 1.9000000000000001 0.0
9.600000000000001 1.9000000000000001 0.0
10.0 1.9000000000000001 0.0
10.4 1.9000000000000001 0.0
10.8 1.9000000000000001 0.0
11.200000000000001 1.9000000000000001 0.0
11.600000000000001 1.9000000000000001 0.0
12.0 1.9000000000000001 0.0
12.4 1.9000000000000001 0.0
12.8 1.9000000000000001 0.0
13.200000000000001 1.9000000000000001 0.0
13.600000000000001 1.9000000000000001 0.0
14.0 1.9000000000000001 0.0
14.4 1.9000000000000001 0.0
14.8 1.9000000000000001 0.0
15.200000000000001 1.9000000000000001 0.0
15.600000000000001 1.9000000000000001 0.0
16.0 1.9000000000000001 0.0
0.0 2.0 0.0
0.4 2.0 0.0
0.8 2.0 0.0
1.2000000000000002 2.0 0.0
1.6 2.0 0.0
2.0 2.0 0.0
2.4000000000000004 2.0 0.0
2.8000000000000003 2.0 0.0
3.2 2.0 0.0
3.6 2.0 0.0
4.0 2.0 0.0
4.4 2.0 0.0
4.800000000000001 2.0 0.0
5.2 2.0 0.0
5.6000000000000005 2.0 0.0
6.0 2.0 0.0
6.4 2.0 0.0
6.800000000000001 2.0 0.0
7.2 2.0 0.0
7.6000000000000005 2.0 0.0
8.0 2.0 0.0
8.4 2.0 0.0
8.8 2.0 0.0
9.200000000000001 2.0 0.0
9.600000000000001 2.0 0.0
10.0 2.0 0.0
10.4 2.0 0.0
10.8 2.0 0.0
11.200000000000001 2.0 0.0
11.600000000000001 2.0 0.0
12.0 2.0 0.0
12.4 2.0 0.0
12.8 2.0 0.0
13.200000000000001 2.0 0.0
13.600000000000001 2.0 0.0
14.0 2.0 0.0
14.4 2.0 0.0
14.8 2.0 0.0
15.200000000000001 2.0 0.0
15.600000000000001 2.0 0.0
16.0 2.0 0.0
CELLS 800 4000
4 0 1 42 41
4 1 2 43 42
4 2 3 44 43
4 3 4 45 44
4 4 5 46 45
4 5 6 47 46
4 6 7 48 47
4 7 8 49 48
4 8 9 50 49
4 9 10 51 50
4 10 11 52 51
4 11 12 53 52
4 12 13 54 53
4 13 14 55 54
4 14 15 56 55
4 15 16 57 56
4 16 17 58 57
4 17 18 59 58
4 18 19 60 59
4 19 20 61 60
4 20 21 62 61
4 21 22 63 62
4 22 23 64 63
4 23 24 65 64
4 24 25 66 65
4 25 26 67 66
4 26 27 68 67
4 27 28 69 68
4 28 29 70 69
4 29 30 71 70
4 30 31 72 71
4 31 32 73 72
4 32 33 74 73
4 33 34 75 74
4 34 35 76 75
4 35 36 77 76
4 36 37 78 77
4 37 38 79 78
4 38 39 80 79
4 39 40 81 80
4 41 42 83 82
4 42 43 84 83
4 43 44 85 84
4 44 45 86 85
4 45 46 87 86
4 46 47 88 87
4 47 48 89 88
4 48 49 90 89
4 49 50 91 90
4 50 51 92 91
4 51 52 93 92
4 52 53 94 93
4 53 54 95 94
4 54 55 96 95
4 55 56 97 96
4 56 57 98 97
4 57 58 99 98
4 58 59 100 99
4 59 60 101 100
4 60 61 102 101
4 61 62 103 102
4 62 63 104 103
4 63 64 105 104
4 64 65 106 105
4 65 66 107 106
4 66 67 108 107
4 67 68 109 108
4 68 69 110 109
4 69 70 111 110
4 70 71 112 111
4 71 72 113 112
4 72 73 114 113
4 73 74 115 114
4 74 75 116 115
4 75 76 117 116
4 76 77 118 117
4 77 78 119 118
4 78 79 120 119
4 79 80 121 120
4 80 81 122 121
4 82 83 124 123
4 83 84 125 124
4 84 85 126 125
4 85 86 127 126
4 86 87 128 127
4 87 88 129 128
4 88 89 130 129
4 89 90 131 130
4 90 91 132 131
4 91 92 133 132
4 92 93 134 133
4 93 94 135 134
4 94 95 136 135
4 95 96 137 136
4 96 97 138 137
4 97 98 139 138
4 98 99 140 139
4 99 100 141 140
4 100 101 142 141
4 101 102 143 142
4 102 103 144 143
4 103 104 145 144
4 104 105 146 145
4 105 106 147 146
4 106 107 148 147
4 107 108 149 148
4 108 109 150 149
4 109 110 151 150
4 110 111 152 151
4 111 112 153 152
4 112 113 154 153
4 113 114 155 154
4 114 115 156 155
4 115 116 157 156
4 116 117 158 157
4 117 118 159 158
4 118 119 160 159
4 119 120 161 160
4 120 121 162 161
4 121 122 163 162
4 123 124 165 164
4 124 125 166 165
4 125 126 167 166
4 126 127 168 167
4 127 128 169 168
4 128 129 170 169
4 129 130 171 170
4 130 131 172 171
4 131 132 173 172
4 132 133 174 173
4 133 134 175 174
4 134 135 176 175
4 135 136 177 176
4 136 137 178 177
4 137 138 179 178
4 138 139 180 179
4 139 140 181 180
4 140 141 182 181
4 141 142 183 182
4 142 143 184 183
4 143 144 185 184
4 144 145 186 185
4 145 146 187 186
4 146 147 188 187
4 147 148 189 188
4 148 149 190 189
4 149 150 191 190
4 150 151 192 191
4 151 152 193 192
4 152 153 194 193
4 153 154 195 194
4 154 155 196 195
4 155 156 197 196
4 156 157 198 197
4 157 158 199 198
4 158 159 200 199
4 159 160 201 200
4 160 161 202 201
4 161 162 203 202
4 162 163 204 203
4 164 165 206 205
4 165 166 207 206
4 166 167 208 207
4 167 168 209 208
4 168 169 210 209
4 169 170 211 210
4 170 171 212 211
4 171 172 213 212
4 172 173 214 213
4 173 174 215 214
4 174 175 216 215
4 175 176 217 216
4 176 177 218 217
4 177 178 219 218
4 178 179 220 219
4 179 180 221 220
4 180 181 222 221
4 181 182 223 222
4 182 183 224 223
4 183 184 225 224
4 184 185 226 225
4 185 186 227 226
4 186 187 228 227
4 187 188 229 228
4 188 189 230 229
4 189 190 231 230
4 190 191 232 231
4 191 192 233 232
4 192 193 234 233
4 193 194 235 234
4 194 195 236 235
4 195 196 237 236
4 196 197 238 237
4 197 198 239 238
4 198 199 240 239
4 199 200 241 240
4 200 201 242 241
4 201 202 243 242
4 202 203 244 243
4 203 204 245 244
4 205 206 247 246
4 206 207 248 247
4 207 208 249 248
4 208 209 250 249
4 209 210 251 250
4 210 211 252 251
4 211 212 253 252
4 212 213 254 253
4 213 214 255 254
4 214 215 256 255
4 215 216 257 256
4 216 217 258 257
4 217 218 259 258
4 218 219 260 259
4 219 220 261 260
4 220 221 262 261
4 221 222 263 262
4 222 223 264 263
4 223 224 265 264
4 224 225 266 265
4 225 226 267 266
4 226 227 268 267
4 227 228 269 268
4 228 229 270 269
4 229 230 271 270
4 230 231 272 271
4 231 232 273 272
4 232 233 274 273
4 233 234 275 274
4 234 235 276 275
4 235 236 277 276
4 236 237 278 277
4 237 238 279 278
4 238 239 280 279
4 239 240 281 280
4 240 241 282 281
4 241 242 283 282
4 242 243 284 283
4 243 244 285 284
4 244 245 286 285
4 246 247 288 287
4 247 248 289 288
4 248 249 290 289
4 249 250 291 290
4 250 251 292 291
4 251 252 293 292
4 252 253 294 293
4 253 254 295 294
4 254 255 296 295
4 255 256 297 296
4 256 257 298 297
4 257 258 299 298
4 258 259 300 299
4 259 260 301 300
4 260 261 302 301
4 261 262 303 302
4 262 263 304 303
4 263 264 305 304
4 264 265 306 305
4 265 266 307 306
4 266 267 308 307
4 267 268 309 308
4 268 269 310 309
4 269 270 311 310
4 270 271 312 311
4 271 272 313 312
4 272 273 314 313
4 273 274 315 314
4 274 275 316 315
4 275 276 317 316
4 276 277 318 317
4 277 278 319 318
4 278 279 320 319
4 279 280 321 320
4 280 281 322 321
4 281 282 323 322
4 282 283 324 323
4 283 284 325 324
4 284 285 326 325
4 285 286 327 326
4 287 288 329 328
4 288 289 330 329
4 289 290 331 330
4 290 291 332 331
4 291 292 333 332
4 292 293 334 333
4 293 294 335 334
4 294 295 336 335
4 295 296 337 336
4 296 297 338 337
4 297 298 339 338
4 298 299 340 339
4 299 300 341 340
4 300 301 342 341
4 301 302 343 342
4 302 303 344 343
4 303 304 345 344
4 304 305 346 345
4 305 306 347 346
4 306 307 348 347
4 307 308 349 348
4 308 309 350 349
4 309 310 351 350
4 310 311 352 351
4 311 312 353 352
4 312 313 354 353
4 313 314 355 354
4 314 315 356 355
4 315 316 357 356
4 316 317 358 357
4 317 318 359 358
4 318 319 360 359
4 319 320 361 360
4 320 321 362 361
4 321 322 363 362
4 322 323 364 363
4 323 324 365 364
4 324 325 366 365
4 325 326 367 366
4 326 327 368 367
4 328 329 370 369
4 329 330 371 370
4 330 331 372 371
4 331 332 373 372
4 332 333 374 373
4 333 334 375 374
4 334 335 376 375
4 335 336 377 376
4 336 337 378 377
4 337 338 379 378
4 338 339 380 379
4 339 340 381 380
4 340 341 382 381
4 341 342 383 382
4 342 343 384 383
4 343 344 385 384
4 344 345 386 385
4 345 346 387 386
4 346 347 388 387
4 347 348 389 388
4 348 349 390 389
4 349 350 391 390
4 350 351 392 391
4 351 352 393 392
4 352 353 394 393
4 353 354 395 394
4 354 355 396 395
4 355 356 397 396
4 356 357 398 397
4 357 358 399 398
4 358 359 400 399
4 359 360 401 400
4 360 361 402 401
4 361 362 403 402
4 362 363 404 403
4 363 364 405 404
4 364 365 406 405
4 365 366 407 406
4 366 367 408 407
4 367 368 409 408
4 369 370 411 410
4 370 371 412 411
4 371 372 413 412
4 372 373 414 413
4 373 374 415 414
4 374 375 416 415
4 375 376 417 416
4 376 377 418 417
4 377 378 419 418
4 378 379 420 419
4 379 380 421 420
4 380 381 422 421
4 381 382 423 422
4 382 383 424 423
4 383 384 425 424
4 384 385 426 425
4 385 386 427 426
4 386 387 428 427
4 387 388 429 428
4 388 389 430 429
4 389 390 431 430
4 390 391 432 431
4 391 392 433 432
4 392 393 434 433
4 393 394 435 434
4 394 395 436 435
4 395 396 437 436
4 396 397 438 437
4 397 398 439 438
4 398 399 440 439
4 399 400 441 440
4 400 401 442 441
4 401 402 443 442
4 402 403 444 443
4 403 404 445 444
4 404 405 446 445
4 405 406 447 446
4 406 407 448 447
4 407 408 449 448
4 408 409 450 449
4 410 411 452 451
4 411 412 453 452
4 412 413 454 453
4 413 414 455 454
4 414 415 456 455
4 415 416 457 456
4 416 417 458 457
4 417 418 459 458
4 418 419 460 459
4 419 420 461 460
4 420 421 462 461
4 421 422 463 462
4 422 423 464 463
4 423 424 465 464
4 424 425 466 465
4 425 426 467 466
4 426 427 468 467
4 427 428 469 468
4 428 429 470 469
4 429 430 471 470
4 430 431 472 471
4 431 432 473 472
4 432 433 474 473
4 433 434 475 474
4 434 435 476 475
4 435 436 477 476
4 436 437 478 477
4 437 438 479 478
4 438 439 480 479
4 439 440 481 480
4 440 441 482 481
4 441 442 483 482
4 442 443 484 483
4 443 444 485 484
4 444 445 486 485
4 445 446 487 486
4 446 447 488 487
4 447 448 489 488
4 448 449 490 489
4 449 450 491 490
4 451 452 493 492
4 452 453 494 493
4 453 454 495 494
4 454 455 496 495
4 455 456 497 496
4 456 457 498 497
4 457 458 499 498
4 458 459 500 499
4 459 460 501 500
4 460 461 502 501
4 461 462 503 502
4 462 463 504 503
4 463 464 505 504
4 464 465 506 505
4 465 466 507 506
4 466 467 508 507
4 467 468 509 508
4 468 469 510 509
4 469 470 511 510
4 470 471 512 511
4 471 472 513 512
4 472 473 514 513
4 473 474 515 514
4 474 475 516 515
4 475 476 517 516
4 476 477 518 517
4 477 478 519 518
4 478 479 520 519
4 479 480 521 520
4 480 481 522 521
4 481 482 523 522
4 482 483 524 523
4 483 484 525 524
4 484 485 526 525
4 485 486 527 526
4 486 487 528 527
4 487 488 529 528
4 488 489 530 529
4 489 490 531 530
4 490 491 532 531
4 492 493 534 533
4 493 494 535 534
4 494 495 536 535
4 495 496 537 536
4 496 497 538 537
4 497 498 539 538
4 498 499 540 539
4 499 500 541 540
4 500 501 542 541
4 501 502 543 542
4 502 503 544 543
4 503 504 545 544
4 504 505 546 545
4 505 506 547 546
4 506 507 548 547
4 507 508 549 548
4 508 509 550 549
4 509 510 551 550
4 510 511 552 551
4 511 512 553 552
4 512 513 554 553
4 513 514 555 554
4 514 515 556 555
4 515 516 557 556
4 516 517 558 557
4 517 518 559 558
4 518 519 560 559
4 519 520 561 560
4 520 521 562 561
4 521 522 563 562
4 522 523 564 563
4 523 524 565 564
4 524 525 566 565
4 525 526 567 566
4 526 527 568 567
4 527 528 569 568
4 528 529 570 569
4 529 530 571 570
4 530 531 572 571
4 531 532 573 572
4 533 534 575 574
4 534 535 576 575
4 535 536 577 576
4 536 537 578 577
4 537 538 579 578
4 538 539 580 579
4 539 540 581 580
4 540 541 582 581
4 541 542 583 582
4 542 543 584 583
4 543 544 585 584
4 544 545 586 585
4 545 546 587 586
4 546 547 588 587
4 547 548 589 588
4 548 549 590 589
4 549 550 591 590
4 550 551 592 591
4 551 552 593 592
4 552 553 594 593
4 553 554 595 594
4 554 555 596 595
4 555 556 597 596
4 556 557 598 597
4 557 558 599 598
4 558 559 600 599
4 559 560 601 600
4 560 561 602 601
4 561 562 603 602
4 562 563 604 603
4 563 564 605 604
4 564 565 606 605
4 565 566 607 606
4 566 567 608 607
4 567 568 609 608
4 568 569 610 609
4 569 570 611 610
4 570 571 612 611
4 571 572 613 612
4 572 573 614 613
4 574 575 616 615
4 575 576 617 616
4 576 577 618 617
4 577 578 619 618
4 578 579 620 619
4 579 580 621 620
4 580 581 622 621
4 581 582 623 622
4 582 583 624 623
4 583 584 625 624
4 584 585 626 625
4 585 586 627 626
4 586 587 628 627
4 587 588 629 628
4 588 589 630 629
4 589 590 631 630
4 590 591 632 631
4 591 592 633 632
4 592 593 634 633
4 593 594 635 634
4 594 595 636 635
4 595 596 637 636
4 596 597 638 637
4 597 598 639 638
4 598 599 640 639
4 599 600 641 640
4 600 601 642 641
4 601 602 643 642
4 602 603 644 643
4 603 604 645 644
4 604 605 646 645
4 605 606 647 646
4 606 607 648 647
4 607 608 649 648
4 608 609 650 649
4 609 610 651 650
4 610 611 652 651
4 611 612 653 652
4 612 613 654 653
4 613 614 655 654
4 615 616 657 656
4 616 617 658 657
4 617 618 659 658
4 618 619 660 659
4 619 620 661 660
4 620 621 662 661
4 621 622 663 662
4 622 623 664 663
4 623 624 665 664
4 624 625 666 665
4 625 626 667 666
4 626 627 668 667
4 627 628 669 668
4 628 629 670 669
4 629 630 671 670
4 630 631 672 671
4 631 632 673 672
4 632 633 674 673
4 633 634 675 674
4 634 635 676 675
4 635 636 677 676
4 636 637 678 677
4 637 638 679 678
4 638 639 680 679
4 639 640 681 680
4 640 641 682 681
4 641 642 683 682
4 642 643 684 683
4 643 644 685 684
4 644 645 686 685
4 645 646 687 686
4 646 647 688 687
4 647 648 689 688
4 648 649 690 689
4 649 650 691 690
4 650 651 692 691
4 651 652 693 692
4 652 653 694 693
4 653 654 695 694
4 654 655 696 695
4 656 657 698 697
4 657 658 699 698
4 658 659 700 699
4 659 660 701 700
4 660 661 702 701
4 661 662 703 702
4 662 663 704 703
4 663 664 705 704
4 664 665 706 705
4 665 666 707 706
4 666 667 708 707
4 667 668 709 708
4 668 669 710 709
4 669 670 711 710
4 670 671 712 711
4 671 672 713 712
4 672 673 714 713
4 673 674 715 714
4 674 675 716 715
4 675 676 717 716
4 676 677 718 717
4 677 678 719 718
4 678 679 720 719
4 679 680 721 720
4 680 681 722 721
4 681 682 723 722
4 682 683 724 723
4 683 684 725 724
4 684 685 726 725
4 685 686 727 726
4 686 687 728 727
4 687 688 729 728
4 688 689 730 729
4 689 690 731 730
4 690 691 732 731
4 691 692 733 732
4 692 693 734 733
4 693 694 735 734
4 694 695 736 735
4 695 696 737 736
4 697 698 739 738
4 698 699 740 739
4 699 700 741 740
4 700 701 742 741
4 701 702 743 742
4 702 703 744 743
4 703 704 745 744
4 704 705 746 745
4 705 706 747 746
4 706 707 748 747
4 707 708 749 748
4 708 709 750 749
4 709 710 751 750
4 710 711 752 751
4 711 712 753 752
4 712 713 754 753
4 713 714 755 754
4 714 715 756 755
4 715 716 757 756
4 716 717 758 757
4 717 718 759 758
4 718 719 760 759
4 719 720 761 760
4 720 721 762 761
4 721 722 763 762
4 722 723 764 763
4 723 724 765 764
4 724 725 766 765
4 725 726 767 766
4 726 727 768 767
4 727 728 769 768
4 728 729 770 769
4 729 730 771 770
4 730 731 772 771
4 731 732 773 772
4 732 733 774 773
4 733 734 775 774
4 734 735 776 775
4 735 736 777 776
4 736 737 778 777
4 738 739 780 779
4 739 740 781 780
4 740 741 782 781
4 741 742 783 782
4 742 743 784 783
4 743 744 785 784
4 744 745 786 785
4 745 746 787 786
4 746 747 788 787
4 747 748 789 788
4 748 749 790 789
4 749 750 791 790
4 750 751 792 791
4 751 752 793 792
4 752 753 794 793
4 753 754 795 794
4 754 755 796 795
4 755 756 797 796
4 756 757 798 797
4 757 758 799 798
4 758 759 800 799
4 759 760 801 800
4 760 761 802 801
4 761 762 803 802
4 762 763 804 803
4 763 764 805 804
4 764 765 806 805
4 765 766 807 806
4 766 767 808 807
4 767 768 809 808
4 768 769 810 809
4 769 770 811 810
4 770 771 812 811
4 771 772 813 812
4 772 773 814 813
4 773 774 815 814
4 774 775 816 815
4 775 776 817 816
4 776 777 818 817
4 777 778 819 818
4 779 780 821 820
4 780 781 822 821
4 781 782 823 822
4 782 783 824 823
4 783 784 825 824
4 784 785 826 825
4 785 786 827 826
4 786 787 828 827
4 787 788 829 828
4 788 789 830 829
4 789 790 831 830
4 790 791 832 831
4 791 792 833 832
4 792 793 834 833
4 793 794 835 834
4 794 795 836 835
4 795 796 837 836
4 796 797 838 837
4 797 798 839 838
4 798 799 840 839
4 799 800 841 840
4 800 801 842 841
4 801 802 843 842
4 802 803 844 843
4 803 804 845 844
4 804 805 846 845
4 805 806 847 846
4 806 807 848 847
4 807 808 849 848
4 808 809 850 849
4 809 810 851 850
4 810 811 852 851
4 811 812 853 852
4 812 813 854 853
4 813 814 855 854
4 814 815 856 855
4 815 816 857 856
4 816 817 858 857
4 817 818 859 858
4 818 819 860 859
CELL_TYPES 800
9
9
9
9
9
9
9
9
9
9
9
9
9
9
9
9
9
9
9
9
9
9
9
9
9
9
9
9
9
9
9
9
9
9
9
9
9
9
9
9
9
9
9
9
9
9
9
9
9
9
9
9
9
9
9
9
9
9
9
9
9
9
9
9
9
9
9
9
9
9
9
9
9
9
9
9
9
9
9
9
9
9
9
9
9
9
9
9
9
9
9
9
9
9
9
9
9
9
9
9
9
9
9
9
9
9
9
9
9
9
9
9
9
9
9
9
9
9
9
9
9
9
9
9
9
9
9
9
9
9
9
9
9
9
9
9
9
9
9
9
9
9
9
9
9
9
9
9
9
9
9
9
9
9
9
9
9
9
9
9
9
9
9
9
9
9
9
9
9
9
9
9
9
9
9
9
9
9
9
9
9
9
9
9
9
9
9
9
9
9
9
9
9
9
9
9
9
9
9
9
9
9
9
9
9
9
9
9
9
9
9
9
9
9
9
9
9
9
9
9
9
9
9
9
9
9
9
9
9
9
9
9
9
9
9
9
9
9
9
9
9
9
9
9
9
9
9
9
9
9
9
9
9
9
9
9
9
9
9
9
9
9
9
9
9
9
9
9
9
9
9
9
9
9
9
9
9
9
9
9
9
9
9
9
9
9
9
9
9
9
9
9
9
9
9
9
9
9
9
9
9
9
9
9
9
9
9
9
9
9
9
9
9
9
9
9
9
9
9
9
9
9
9
9
9
9
9
9
9
9
9
9
9
9
9
9
9
9
9
9
9
9
9
9
9
9
9
9
9
9
9
9
9
9
9
9
9
9
9
9
9
9
9
9
9
9
9
9
9
9
9
9
9
9
9
9
9
9
9
9
9
9
9
9
9
9
9
9
9
9
9
9
9
9
9
9
9
9
9
9
9
9
9
9
9
9
9
9
9
9
9
9
9
9
9
9
9
9
9
9
9
9
9
9
9
9
9
9
9
9
9
9
9
9
9
9
9
9
9
9
9
9
9
9
9
9
9
9
9
9
9
9
9
9
9
9
9
9
9
9
9
9
9
9
9
9
9
9
9
9
9
9
9
9
9
9
9
9
9
9
9
9
9
9
9
9
9
9
9
9
9
9
9
9
9
9
9
9
9
9
9
9
9
9
9
9
9
9
9
9
9
9
9
9
9
9
9
9
9
9
9
9
9
9
9
9
9
9
9
9
9
9
9
9
9
9
9
9
9
9
9
9
9
9
9
9
9
9
9
9
9
9
9
9
9
9
9
9
9
9
9
9
9
9
9
9
9
9
9
9
9
9
9
9
9
9
9
9
9
9
9
9
9
9
9
9
9
9
9
9
9
9
9
9
9
9
9
9
9
9
9
9
9
9
9
9
9
9
9
9
9
9
9
9
9
9
9
9
9
9
9
9
9
9
9
9
9
9
9
9
9
9
9
9
9
9
9
9
9
9
9
9
9
9
9
9
9
9
9
9
9
9
9
9
9
9
9
9
9
9
9
9
9
9
9
9
9
9
9
9
9
9
9
9
9
9
9
9
9
9
9
9
9
9
9
9
9
9
9
9
9
9
9
9
9
9
9
9
9
9
9
9
9
9
9
9
9
9
9
9
9
9
9
9
9
9
9
9
9
9
9
9
9
9
9
9
9
9
9
9
9
9
9
9
9
9
9
9
9
9
9
9
9
9
9
9
9
9
9
9
9
9
9
9
9
9
9
9
9
9
9
9
9
9
9
9
9
9
9
9
9
9
9
9
9
9
9
9
9
9
9
9
9
9
9
9
9
9
9
9
9
9
9
9
9
9
9
9
9
9
POINT_DATA 861
SCALARS Disp float 2
LOOKUP_TABLE default
0.0 0.0
0.0011751390727664254 -0.021476545521941753
0.002093114311940227 -0.039623447548942696
0.0028294543628823972 -0.05745885675734805
0.003670693690426913 -0.07495123471208599
0.0046824330314042635 -0.092092803110925
0.005896932828573791 -0.10880164893876508
0.007327140431633086 -0.12498927138916202
0.008977294168439662 -0.140564217669526
0.010848376360262674 -0.15543615938560804
0.012940240106792967 -0.16951581416732925
0.015252546746544055 -0.1827147183835951
0.017785087860012882 -0.19494495242531365
0.020538094160651426 -0.20611901816677564
0.023512898802833474 -0.21614954841151637
0.026713152547768376 -0.2249481054629534
0.030146046666077193 -0.23242175244775945
0.033821103776165436 -0.23846614945730557
0.037741281582402454 -0.2429566373639067
0.04188107055688896 -0.2457471048913038
0.04615863360157387 -0.24669836589995328
0.050436196646258785 -0.24574710489130377
0.05457598562074527 -0.24295663736390666
0.05849616342698227 -0.23846614945730554
0.06217122053707051 -0.23242175244775942
0.06560411465537933 -0.2249481054629534
0.06880436840031426 -0.21614954841151637
0.0717791730424963 -0.2061190181667756
0.07453217934313483 -0.19494495242531368
0.07706472045660367 -0.1827147183835951
0.07937702709635475 -0.16951581416732928
0.08146889084288504 -0.15543615938560806
0.08333997303470807 -0.14056421766952598
0.08499012677151463 -0.12498927138916195
0.08642033437457393 -0.10880164893876501
0.08763483417174345 -0.09209280311092503
0.08864657351272082 -0.07495123471208599
0.08948781284026532 -0.05745885675734811
0.0902241528912075 -0.03962344754894267
0.09114212813038132 -0.021476545521941694
0.09231726720314773 0.0
0.005320030403859302 -0.0007297841146868718
0.006051792092650103 -0.02141965632556893
0.0065582800094304864 -0.03972649534827298
0.00724056896203632 -0.057530701496099915
0.007988738853319884 -0.0750458918698064
0.008902195562527034 -0.09220555266457128
0.009996755393541336 -0.10893623269896195
0.011284960438311013 -0.1251460248303591
0.012770559810074526 -0.14074343943269646
0.014454706028579697 -0.15563785636386573
0.01633744008917318 -0.1697399638713765
0.01841856634159759 -0.18296129216414425
0.02069797806106846 -0.19521394735424577
0.02317594896312566 -0.20641049723259644
0.025853666737922144 -0.21646372921695636
0.02873409979145651 -0.225285489877107
0.031822628681844274 -0.23278317274769408
0.035125336956886626 -0.23885235898187002
0.03864086870605314 -0.2433668401862113
0.04234262530529571 -0.24617623326418325
0.046158633601573865 -0.247134999047251
0.049974641897852036 -0.2461762332641832
0.05367639849709458 -0.24336684018621124
0.05719193024626109 -0.23885235898187
0.06049463852130344 -0.23278317274769408
0.06358316741169119 -0.22528548987710703
0.06646360046522558 -0.21646372921695636
0.06914131824002206 -0.2064104972325964
0.07161928914207925 -0.19521394735424577
0.07389870086155013 -0.18296129216414422
0.07597982711397454 -0.16973996387137655
0.07786256117456802 -0.1556378563638658
0.0795467073930732 -0.14074343943269643
0.0810323067648367 -0.12514602483035908
0.08232051180960638 -0.10893623269896187
0.08341507164062069 -0.09220555266457132
0.08432852834982783 -0.0750458918698064
0.08507669824111139 -0.05753070149609998
0.08575898719371725 -0.03972649534827295
0.08626547511049762 -0.02141965632556887
0.08699723679928842 -0.0007297841146868739
0.010277820849641078 -0.0013566487485526637
0.010802681816336208 -0.0213779339311342
0.011075270850714745 -0.03978327323256142
0.011621556316460693 -0.05760064445990807
0.01228498286232867 -0.07512784136676401
0.013093366667761699 -0.0923068137020152
0.014067158665258721 -0.10905656596432368
0.015212723295628793 -0.1252863488173364
0.016533669027805138 -0.14090382115300665
0.018030887159718872 -0.1558183405958852
0.01970452953516037 -0.16994052914007124
0.02155449805523579 -0.18318192127997093
0.023580752283250475 -0.19545463863269588
0.02578353170616144 -0.20667129527594286
0.028163735752511944 -0.2167447870456833
0.030723502123414376 -0.22558716600193862
0.0334665424238588 -0.23310607723641927
0.036396608385019714 -0.23919706303093358
0.039510871304688396 -0.24373273171810725
0.042785496676585495 -0.24655917339136302
0.04615863360157386 -0.24752495591443918
0.04953177052656224 -0.246559173391363
0.05280639589845933 -0.24373273171810714
0.055920658818128 -0.23919706303093358
0.058850724779288925 -0.23310607723641924
0.06159376507973333 -0.22558716600193865
0.06415353145063578 -0.21674478704568326
0.0665337354969863 -0.2066712952759428
0.06873651491989724 -0.1954546386326959
0.07076276914791194 -0.18318192127997093
0.07261273766798734 -0.16994052914007132
0.07428638004342884 -0.1558183405958852
0.0757835981753426 -0.14090382115300668
0.07710454390751892 -0.12528634881733636
0.078250108537889 -0.10905656596432359
0.07922390053538601 -0.09230681370201524
0.08003228434081903 -0.07512784136676402
0.08069571088668702 -0.05760064445990813
0.08124199635243298 -0.03978327323256139
0.08151458538681151 -0.021377933931134137
0.08203944635350664 -0.0013566487485526676
0.01502157698642982 -0.0018924254782753884
0.01543849315302209 -0.02136566631603735
0.015583033155854735 -0.039808416437338914
0.01598963423265632 -0.05765843388033682
0.016556916102987283 -0.07519915350993114
0.017260180258490347 -0.09239539725391338
0.018111255023533588 -0.10916270426652291
0.019113889474946973 -0.1254101443843846
0.020270001170944664 -0.14104536798194398
0.021580287582398536 -0.15597761379168065
0.023044854659300007 -0.17011751585404652
0.024663675062040116 -0.18337660573154452
0.026436737992851962 -0.19566701275730555
0.02836419022592473 -0.2069013671159072
0.03044654843401748 -0.21699261874503184
0.03268505251435406 -0.22585296393549237
0.03508195218500885 -0.23339031999312584
0.03763966914777351 -0.2395004724496567
0.04035618954083765 -0.2440555177987571
0.0432131827827455 -0.2468986388779812
0.046158633601573865 -0.24787179915539964
0.049104084420402226 -0.24689863887798114
0.05196107766231007 -0.244055517798757
0.05467759805537421 -0.23950047244965672
0.057235315018138874 -0.23339031999312587
0.059632214688793664 -0.2258529639354924
0.06187071876913024 -0.2169926187450318
0.06395307697722301 -0.20690136711590715
0.06588052921029576 -0.19566701275730558
0.06765359214110761 -0.18337660573154455
0.06927241254384771 -0.17011751585404655
0.07073697962074918 -0.15597761379168068
0.07204726603220306 -0.14104536798194398
0.07320337772820074 -0.12541014438438455
0.07420601217961412 -0.10916270426652283
0.07505708694465736 -0.09239539725391342
0.07576035110016044 -0.07519915350993116
0.0763276329704914 -0.05765843388033688
0.07673423404729299 -0.03980841643733889
0.07687877405012562 -0.02136566631603729
0.0772956902167179 -0.0018924254782753938
0.019628571169003337 -0.0023487605462191533
0.0199804575268177 -0.021381345440063808
0.020056809691343276 -0.03981546790095472
0.020343362608753378 -0.05770114009383322
0.020808020570235793 -0.07525920198774386
0.021404965859757458 -0.09247124440779475
0.022132543494218334 -0.10925442741940564
0.02299178121460628 -0.1255173999533352
0.023982950803292546 -0.14116806036190666
0.02510626758677263 -0.15611567947716065
0.02636176388657839 -0.170270925761088
0.02774943393409265 -0.18354534429037317
0.029269271829761086 -0.19585105778053657
0.030921291741599678 -0.20710067851278724
0.0327055783255387 -0.21720715288153658
0.034622466859087625 -0.22608277789260117
0.036672962940211946 -0.23363584358842418
0.03885897687689648 -0.23976284710416348
0.041181065859171036 -0.24433626814384266
0.043628431925032504 -0.24719689316851878
0.04615863360157386 -0.2481784979919853
0.04868883527811522 -0.24719689316851876
0.05113620134397669 -0.2443362681438426
0.05345829032625125 -0.23976284710416346
0.055644304262935776 -0.23363584358842424
0.05769480034406008 -0.22608277789260117
0.05961168887760902 -0.21720715288153658
0.061395975461548055 -0.20710067851278718
0.06304799537338664 -0.19585105778053663
0.06456783326905507 -0.18354534429037317
0.06595550331656932 -0.17027092576108804
0.06721099961637508 -0.15611567947716065
0.06833431639985517 -0.14116806036190666
0.06932548598854144 -0.12551739995333516
0.07018472370892938 -0.10925442741940555
0.07091230134339024 -0.0924712444077948
0.07150924663291192 -0.07525920198774387
0.07197390459439434 -0.057701140093833286
0.07226045751180445 -0.03981546790095469
0.07233680967633002 -0.021381345440063745
0.07268869603414438 -0.002348760546219159
0.02414319284294913 -0.0027363629965232884
0.02444898051342345 -0.021418538143588396
0.024489314512155264 -0.03981379132336551
0.02467879737873859 -0.05772949875486307
0.025041091789676066 -0.07530726330320375
0.02553049773560933 -0.09253432651503807
0.02613424862399083 -0.10933163362079587
0.026849770561760154 -0.12560807811704378
0.02767588159849616 -0.14127189002884044
0.02861219061363121 -0.1562325348348757
0.029658604743105343 -0.17040075933897555
0.030815114689251463 -0.18368813458994396
0.032081697452092814 -0.1960067648245268
0.033458216386600834 -0.20726920809771301
0.034944315193253604 -0.21738835043473448
0.036539461804421206 -0.22627655900519217
0.03824360669235197 -0.23384265049678388
0.04005873264945879 -0.23998443514275228
0.041989233334808716 -0.2445758573318242
0.04403347550846009 -0.24745581111580867
0.04615863360157386 -0.24844760592424842
0.04828379169468763 -0.24745581111580864
0.05032803386833901 -0.2445758573318242
0.05225853455368894 -0.23998443514275225
0.05407366051079575 -0.2338426504967839
0.0557778053987265 -0.22627655900519217
0.05737295200989412 -0.21738835043473448
0.05885905081654689 -0.207269208097713
0.06023556975105491 -0.19600676482452684
0.06150215251389626 -0.18368813458994399
0.06265866246004237 -0.17040075933897558
0.0637050765895165 -0.1562325348348757
0.06464138560465156 -0.1412718900288404
0.06546749664138755 -0.12560807811704375
0.0661830185791569 -0.10933163362079577
0.06678676946753839 -0.09253432651503812
0.06727617541347165 -0.07530726330320374
0.06763846982440913 -0.05772949875486314
0.06782795269099245 -0.03981379132336548
0.06786828668972426 -0.021418538143588337
0.06817407436019858 -0.0027363629965232927
0.028593122758673532 -0.0030645445367899656
0.02886113923550749 -0.021470103496114792
0.02888153525604212 -0.03980896396021299
0.028993657646724368 -0.057745606676083285
0.0292580718078472 -0.07534316323984752
0.029639735979130145 -0.09258459199958652
0.0301195401963082 -0.10939429960173724
0.03069120294790474 -0.12568214972459796
0.031352155147767166 -0.14135684878655225
0.03210141462881495 -0.15632817611914884
0.03293872573283984 -0.1705070148549013
0.03386405946783334 -0.18380497409716345
0.03487736343075779 -0.19613412874313388
0.03597835065917309 -0.2074069480602696
0.037166251360620975 -0.2175362038026881
0.038439736799093516 -0.22643430828506644
0.03979783928888873 -0.23401078087179525
0.041242931558649144 -0.24016542874393965
0.04278405230765182 -0.24477492641002338
0.044430179261923844 -0.2476769228799611
0.04615863360157385 -0.24868139413791793
0.04788708794122387 -0.24767692287996107
0.04953321489549591 -0.24477492641002335
0.05107433564449857 -0.24016542874393965
0.05251942791425898 -0.23401078087179525
0.0538775304040542 -0.22643430828506647
0.05515101584252674 -0.21753620380268812
0.05633891654397463 -0.20740694806026955
0.05743990377238993 -0.1961341287431339
0.058453207735314386 -0.18380497409716345
0.05937854147030788 -0.17050701485490133
0.06021585257433276 -0.15632817611914884
0.06096511205538055 -0.14135684878655222
0.061626064255242974 -0.1256821497245979
0.06219772700683953 -0.10939429960173715
0.06267753122401758 -0.09258459199958656
0.06305919539530053 -0.07534316323984751
0.06332360955642335 -0.057745606676083354
0.0634357319471056 -0.039808963960212954
0.06345612796764022 -0.021470103496114737
0.06372414444447418 -0.0030645445367899695
0.03299686793596204 -0.003341133791163275
0.033230726991937715 -0.021529713793849787
0.03323818048977532 -0.03980383548653555
0.033287890041301 -0.05775174589396539
0.0334607113541536 -0.07536723924941197
0.03373562314342342 -0.0926220572368509
0.03409160993013743 -0.10944244052673387
0.03451939976918182 -0.12573960516346402
0.03501512885338859 -0.14142292882907512
0.03557729438547533 -0.15640259889867894
0.036205474975833485 -0.17058968916148182
0.03689961208264736 -0.18389586035050948
0.03765962088987013 -0.19623314839763698
0.03848508135838584 -0.20751390359740013
0.03937486926777048 -0.21765073447762248
0.0403269590912489 -0.22655607058924654
0.04133954380280101 -0.2341402978962643
0.04241542135534828 -0.24030593534527436
0.04356863293704304 -0.24493385362087788
0.0448201494714108 -0.2478614388471823
0.04615863360157386 -0.24888196323923203
0.04749711773173692 -0.2478614388471823
0.04874863426610468 -0.24493385362087786
0.049901845847799435 -0.2403059353452743
0.050977723400346696 -0.23414029789626434
0.051990308111898816 -0.22655607058924657
0.052942397935377236 -0.21765073447762254
0.05383218584476188 -0.20751390359740007
0.0546576463132776 -0.19623314839763698
0.055417655120500356 -0.1838958603505095
0.05611179222731424 -0.17058968916148184
0.056739972817672395 -0.1564025988986789
0.057302138349759134 -0.14142292882907512
0.05779786743396589 -0.125739605163464
0.05822565727301031 -0.10944244052673377
0.0585816440597243 -0.09262205723685095
0.05885655584899412 -0.07536723924941197
0.059029377161846724 -0.05775174589396545
0.059079086713372406 -0.03980383548653552
0.05908654021121001 -0.021529713793849728
0.05932039926718568 -0.0033411337911632803
0.03736758236426112 -0.0035726163749010276
0.03756888470852908 -0.021592274331988102
0.03756543634181562 -0.039799487695656076
0.03756326267793494 -0.057749879599570925
0.03765101871078885 -0.07538013831819282
0.037821078961861876 -0.09264685083437113
0.03805367344160843 -0.1094761006266179
0.03833767597826511 -0.12578045164222065
0.038668153909855146 -0.14147012509535675
0.039043182292116445 -0.1564557979961381
0.03946219979716212 -0.17064877822314684
0.03992511721667942 -0.18396079116482214
0.04043182147925323 -0.19630382638616795
0.040981790294705896 -0.20759009133199027
0.041573630473167054 -0.21773198952101958
0.042204750172966744 -0.22664192990452803
0.04287253631412267 -0.2342312815181206
0.04357996431912276 -0.24040596327457925
0.04434594961986168 -0.24505272799812935
0.04520481468055386 -0.24801025396411785
0.046158633601573865 -0.24905134822828606
0.04711245252259386 -0.24801025396411788
0.04797131758328604 -0.24505272799812933
0.048737302884024954 -0.2404059632745792
0.04944473088902505 -0.23423128151812064
0.05011251703018097 -0.22664192990452806
0.050743636729980654 -0.21773198952101963
0.05133547690844182 -0.20759009133199027
0.051885445723894495 -0.19630382638616795
0.05239214998646829 -0.18396079116482214
0.05285506740598559 -0.1706487782231469
0.053274084911031264 -0.1564557979961381
0.05364911329329257 -0.14147012509535675
0.0539795912248826 -0.1257804516422206
0.0542635937615393 -0.1094761006266178
0.054496188241285846 -0.09264685083437117
0.05466624849235887 -0.07538013831819285
0.05475400452521279 -0.05774987959957097
0.054751830861332104 -0.03979948769565604
0.054748382494618636 -0.021592274331988043
0.054949684838886605 -0.003572616374901033
0.04171514146699767 -0.003764371358673336
0.041884746842404674 -0.021653910186223594
0.04186988243495662 -0.03979594423455127
0.04182281431824924 -0.05774149823374175
0.041831443259241624 -0.07538262944963522
0.04189906728436614 -0.09265920577111061
0.04200896694402001 -0.10949535350013567
0.04214935014557257 -0.12580470854394912
0.04231457690439535 -0.141498435904354
0.042502428213025197 -0.15648776783902293
0.04271224661742827 -0.17068427738099018
0.04294391968927273 -0.18399976472575388
0.04319731568283187 -0.19634616838103017
0.043471850180146286 -0.207635536854604
0.043765966403445836 -0.2177800368166859
0.04407667226613122 -0.22669200567961378
0.04440056929616819 -0.2342838308510115
0.04474029871305558 -0.2404654220078606
0.04511895567667248 -0.2451313230223919
0.04558549688341033 -0.24812392774590658
0.046158633601573865 -0.24919162880750578
0.04673177031973739 -0.2481239277459066
0.04719831152647524 -0.2451313230223919
0.04757696849009214 -0.24046542200786056
0.04791669790697952 -0.2342838308510115
0.048240594937016504 -0.22669200567961384
0.048551300799701866 -0.2177800368166859
0.04884541702300143 -0.20763553685460404
0.049119951520315855 -0.19634616838103017
0.049373347513874975 -0.18399976472575388
0.04960502058571944 -0.17068427738099023
0.049814838990122526 -0.15648776783902296
0.05000269029875236 -0.141498435904354
0.05016791705757514 -0.1258047085439491
0.05030830025912771 -0.10949535350013558
0.05041819991878158 -0.09265920577111067
0.05048582394390609 -0.07538262944963522
0.05049445288489848 -0.057741498233741806
0.05044738476819109 -0.03979594423455123
0.05043252036074305 -0.02165391018622354
0.050602125736150055 -0.00376437135867334
0.04604732501546517 -0.003920928157157875
0.04618596103947363 -0.021711803630146756
0.046157990415629666 -0.039792651855292537
0.046070391666436915 -0.057727629979775
0.04600489711457568 -0.07537547460126513
0.04597266025890665 -0.09265942516639153
0.045960753444111206 -0.10950029947169823
0.04595774842433682 -0.1258124037166227
0.04595774205929246 -0.14150786224959863
0.045958379365421145 -0.1564985027954535
0.04595896079279531 -0.17069618156121777
0.04595936392117925 -0.1840127795359794
0.04595945153788041 -0.1963601822085716
0.04595862195679212 -0.2076502716296648
0.045955271465336685 -0.21779495896438966
0.045946213869289196 -0.2267064492190272
0.04592732712570776 -0.23429807490659624
0.045900195746497 -0.24048413914549915
0.04589070806005758 -0.24516907050844783
0.04596348492064132 -0.24820263283243757
0.046158633601573865 -0.24930505684977033
0.0463537822825064 -0.24820263283243754
0.04642655914309012 -0.24516907050844783
0.04641707145665072 -0.2404841391454991
0.04638994007743995 -0.23429807490659624
0.046371053333858527 -0.22670644921902722
0.046361995737811024 -0.2177949589643897
0.04635864524635559 -0.20765027162966482
0.046357815665267296 -0.1963601822085716
0.04635790328196846 -0.1840127795359794
0.0463583064103524 -0.1706961815612178
0.04635888783772657 -0.1564985027954535
0.04635952514385525 -0.14150786224959863
0.04635951877881089 -0.1258124037166227
0.046356513759036516 -0.10950029947169812
0.04634460694424107 -0.0926594251663916
0.04631237008857204 -0.07537547460126513
0.0462468755367108 -0.057727629979775055
0.04615927678751805 -0.0397926518552925
0.046131306163674085 -0.021711803630146697
0.04626994218768255 -0.003920928157157879
0.05037051098929216 -0.004046207389794025
0.05047906931938745 -0.021764000329492654
0.05043591305024957 -0.039788790676587235
0.05031031574074148 -0.05770891773817082
0.050174702284306864 -0.07535935508602669
0.05004507630665996 -0.09264784178404642
0.049912333548221666 -0.10949105726590008
0.04976620620290977 -0.12580357011011556
0.04960099261670613 -0.14149840659451005
0.049414380429879806 -0.15648799730982738
0.049205686465029826 -0.17068448547592743
0.04897479361292548 -0.18399983424954158
0.048721573798777625 -0.19634587678053342
0.048445453632012365 -0.2076343296096497
0.04814489948357056 -0.2177768457271071
0.04781677449372083 -0.22668543831813653
0.047456407427690916 -0.2342741902931476
0.047063505167665914 -0.24046189838348933
0.0466645133161482 -0.2451650386564662
0.04634012570403899 -0.24824606007771113
0.046158633601573865 -0.24939421416001895
0.045977141499108726 -0.2482460600777111
0.04565275388699951 -0.2451650386564662
0.0452537620354818 -0.2404618983834893
0.0448608597754568 -0.23427419029314758
0.044500492709426895 -0.22668543831813656
0.04417236771957716 -0.21777684572710707
0.04387181357113535 -0.20763432960964973
0.043595693404370084 -0.19634587678053342
0.043342473590222225 -0.18399983424954153
0.04311158073811788 -0.17068448547592746
0.04290288677326791 -0.15648799730982738
0.042716274586441595 -0.14149840659451005
0.042551061000237936 -0.12580357011011556
0.04240493365492606 -0.1094910572659
0.04227219089648775 -0.09264784178404649
0.04214256491884085 -0.07535935508602667
0.04200695146240623 -0.05770891773817088
0.04188135415289815 -0.03978879067658721
0.041838197883760274 -0.02176400032949259
0.04194675621385555 -0.004046207389794029
0.05469008313422468 -0.004143731967635396
0.05476977139249428 -0.021809230186436095
0.05470941571387335 -0.03978346770111938
0.05454716243699955 -0.057685714529451246
0.05434451543249556 -0.07533483821451789
0.05411969204720462 -0.09262478151367742
0.053867054280566935 -0.10946775161315017
0.05357806888813433 -0.12577824200885374
0.05324767123831027 -0.14147007159923114
0.052873773665897295 -0.15645624589241022
0.05245576649163846 -0.1706491838176747
0.051993551677978186 -0.18396092744572662
0.0514870235580835 -0.19630326094534992
0.050935680355910534 -0.20758774398828034
0.05033816460395905 -0.21772578529252917
0.049691650914252206 -0.2266291674860702
0.0489912814856863 -0.23421242246887944
0.04823417620464842 -0.24039850504928287
0.04744410752572336 -0.24511792430507867
0.04671695750786876 -0.2482532611217539
0.04615863360157386 -0.2494622158770747
0.04560030969527895 -0.24825326112175386
0.044873159677424355 -0.24511792430507867
0.044083090998499296 -0.24039850504928287
0.043325985717461414 -0.2342124224688794
0.04262561628889552 -0.22662916748607026
0.04197910259918867 -0.21772578529252917
0.04138158684723718 -0.20758774398828034
0.0408302436450642 -0.1963032609453499
0.040323715525169515 -0.18396092744572656
0.03986150071150924 -0.17064918381767474
0.039443493537250414 -0.15645624589241022
0.039069595964837445 -0.14147007159923114
0.03873919831501338 -0.12577824200885374
0.03845021292258078 -0.10946775161315007
0.038197575155943096 -0.09262478151367749
0.03797275177065216 -0.07533483821451789
0.037770104766148165 -0.05768571452945131
0.03760785148927437 -0.039783467701119346
0.037547495810653427 -0.021809230186436032
0.03762718406892303 -0.004143731967635399
0.05901065876209548 -0.004216805857366614
0.05906309414160739 -0.021846757693946412
0.05898387634937544 -0.03977583609259844
0.05878563226523385 -0.05765817570858549
0.05851825638266147 -0.07530236869087756
0.05820003518865156 -0.09259053416161492
0.05782831216316856 -0.10943049929819786
0.05739669168394656 -0.12573645074748227
0.05690111966694559 -0.14142285893116674
0.05633989890940089 -0.15640324307578396
0.055712542452255626 -0.17059027146179873
0.05501898046110452 -0.1838960574127962
0.05425913845371184 -0.19623234225778657
0.053432625061362114 -0.20751054448525524
0.05253834723456788 -0.21764185540507888
0.051574030941432564 -0.22653783068438502
0.05053522844471214 -0.23411310317660888
0.04941622817917267 -0.2402938874876407
0.04823388276481583 -0.24502608045525617
0.04709592849374498 -0.2482223993749916
0.04615863360157385 -0.24951297674514153
0.045221338709402724 -0.24822239937499158
0.044083384438331874 -0.24502608045525617
0.042901039023975046 -0.2402938874876407
0.04178203875843558 -0.23411310317660888
0.040743236261715166 -0.22653783068438507
0.03977891996857983 -0.2176418554050789
0.03888464214178559 -0.20751054448525522
0.038058128749435864 -0.19623234225778652
0.03729828674204319 -0.18389605741279616
0.036604724750892076 -0.17059027146179878
0.03597736829374683 -0.15640324307578396
0.035416147536202126 -0.14142285893116674
0.03492057551920114 -0.12573645074748224
0.03448895503997915 -0.10943049929819781
0.03411723201449615 -0.09259053416161497
0.03379901082048624 -0.07530236869087756
0.033531634937913855 -0.05765817570858554
0.03333339085377227 -0.03977583609259841
0.03325417306154032 -0.021846757693946353
0.03330660844105223 -0.004216805857366616
0.06333619244069719 -0.004268662306276014
0.06336348662004684 -0.021876264594537672
0.06326431980143295 -0.03976517169823097
0.06303048819206312 -0.05762633940808766
0.06270005087914414 -0.07526227214022106
0.06228976514770621 -0.09254533122336847
0.06179954946137099 -0.10937939573219316
0.06122543784003827 -0.12567822029384662
0.06056467784127703 -0.14135676824413163
0.059816093453622335 -0.15632898343358373
0.0589793547156096 -0.17050774368882515
0.05805442214775263 -0.1838052220552033
0.057041253828487806 -0.19613312564359475
0.05593959892991914 -0.20740275516619364
0.05474870327214623 -0.21752511665430463
0.05346700554332573 -0.22641159461675386
0.052091245885747275 -0.2339766495852169
0.05061362280237389 -0.24014824152566192
0.04903916489225533 -0.24488762085950755
0.04747978400603083 -0.2481503667020647
0.04615863360157385 -0.24955155571717097
0.04483748319711687 -0.24815036670206464
0.043278102310892366 -0.24488762085950755
0.04170364440077383 -0.24014824152566192
0.04022602131740044 -0.23397664958521688
0.03885026165982199 -0.22641159461675386
0.03756856393100149 -0.21752511665430463
0.03637766827322857 -0.20740275516619358
0.035276013374659895 -0.19613312564359472
0.03426284505539508 -0.18380522205520328
0.03333791248753811 -0.17050774368882515
0.03250117374952536 -0.1563289834335837
0.031752589361870684 -0.1413567682441316
0.03109182936310944 -0.12567822029384657
0.03051771774177672 -0.1093793957321931
0.03002750205544149 -0.09254533122336853
0.029617216324003572 -0.07526227214022105
0.029286779011084587 -0.05762633940808771
0.02905294740171475 -0.03976517169823094
0.028953780583100875 -0.021876264594537616
0.02898107476245052 -0.004268662306276015
0.0676699806365331 -0.004302583558781079
0.06767485396373411 -0.02189776491232015
0.06755547588107774 -0.03975093017307363
0.06728654755441606 -0.057590191995735486
0.06689418904761699 -0.07521476103082458
0.06639264575462175 -0.09248932892480105
0.06578424409181129 -0.10931450346865648
0.06506767505356033 -0.1256035632810544
0.06424168256354415 -0.14127179643568638
0.06330569185813477 -0.1562334617400985
0.062259542635536284 -0.17040159641078365
0.06110321907092805 -0.18368841903616892
0.05983670518057951 -0.19600561217765916
0.0584599023670602 -0.20726439185804707
0.056972469862120775 -0.21737561111131048
0.055373612488795534 -0.22625056574262464
0.053661963862662615 -0.23380351950292988
0.0518299537244805 -0.23996221502133877
0.04986651353715659 -0.24470068312931892
0.047872795048328254 -0.2480322068860881
0.04615863360157385 -0.24958457958042307
0.04444447215481944 -0.24803220688608807
0.04245075366599111 -0.24470068312931895
0.04048731347866722 -0.23996221502133877
0.0386553033404851 -0.23380351950292988
0.03694365471435219 -0.22625056574262467
0.03534479734102693 -0.21737561111131043
0.033857364836087506 -0.20726439185804701
0.0324805620225682 -0.19600561217765916
0.031214048132219657 -0.18368841903616887
0.030057724567611424 -0.17040159641078367
0.029011575345012943 -0.1562334617400985
0.028075584639603565 -0.14127179643568638
0.027249592149587384 -0.12560356328105438
0.02653302311133642 -0.10931450346865641
0.025924621448525947 -0.0924893289248011
0.02542307815553072 -0.07521476103082458
0.025030719648731648 -0.05759019199573554
0.024761791322069963 -0.0397509301730736
0.02464241323941359 -0.021897764912320098
0.024647286566614614 -0.00430258355878108
0.07201456953914781 -0.00432199149579617
0.07200053873290982 -0.021911555410729745
0.07186186782292116 -0.03973280267047744
0.07155872003794475 -0.05754971586969045
0.07110509495993521 -0.07515993540860019
0.0705125120787724 -0.09242259490084308
0.06978589448313766 -0.10923584356447516
0.06892677002392733 -0.1255124780533756
0.06793546583646189 -0.1411679373249507
0.06681202569784436 -0.15611667333368928
0.06555644501355826 -0.17027182641069843
0.06416871379239464 -0.18354564602079212
0.06264883082399643 -0.19584979891718463
0.06099683131922187 -0.2070954572536845
0.059212855922767454 -0.2171933672075812
0.05729691073837063 -0.22605476774192237
0.05524965103155551 -0.23359408460160735
0.0530678246744548 -0.23973709219504116
0.05072389498019523 -0.24446400850014613
0.04828220765347796 -0.2478602764501956
0.04615863360157385 -0.24962069179313023
0.04403505954966974 -0.24786027645019562
0.04159337222295248 -0.24446400850014616
0.03924944252869291 -0.23973709219504116
0.037067616171592196 -0.23359408460160733
0.03502035646477709 -0.2260547677419224
0.03310441128038025 -0.21719336720758115
0.03132043588392583 -0.20709545725368447
0.029668436379151283 -0.19584979891718463
0.02814855341075307 -0.18354564602079207
0.026760822189589452 -0.17027182641069843
0.025505241505303346 -0.1561166733336893
0.024381801366685822 -0.14116793732495073
0.02339049717922038 -0.12551247805337556
0.02253137272001005 -0.10923584356447506
0.021804755124375297 -0.09242259490084313
0.021212172243212504 -0.07515993540860018
0.02075854716520295 -0.05754971586969052
0.020455399380226544 -0.03973280267047741
0.02031672847023788 -0.021911555410729696
0.020302697663999895 -0.004321991495796171
0.07637154429559805 -0.004330503256328851
0.07634325592063321 -0.02191821311047684
0.07618795646966302 -0.03971078424220569
0.07585208583795224 -0.057504913503057746
0.07533729741377997 -0.07509777271268207
0.07465323245067777 -0.09234509793901316
0.0738080009054057 -0.10914339027592977
0.07280608139384329 -0.12540494718533382
0.0716493530687388 -0.14104518192907958
0.07033842335630866 -0.15597861464212456
0.0688734005014076 -0.17011843184145112
0.06725425033614159 -0.18337690033725604
0.06548097031535394 -0.19566568113196195
0.0635536965755089 -0.20689593419470895
0.06147301865105961 -0.2169783994431997
0.05924001824879017 -0.22582417094768073
0.05685652137731218 -0.23334839049250442
0.05432780984651408 -0.23947482351588556
0.0516201708520657 -0.24417814437819826
0.04872131426050638 -0.2476231042159079
0.04615863360157385 -0.24967079937866138
0.04359595294264132 -0.2476231042159079
0.040697096351082006 -0.2441781443781983
0.03798945735663362 -0.23947482351588556
0.03546074582583553 -0.23334839049250436
0.03307724895435755 -0.22582417094768073
0.03084424855208808 -0.21697839944319963
0.0287635706276388 -0.20689593419470892
0.02683629688779377 -0.19566568113196192
0.025063016867006124 -0.18337690033725598
0.02344386670174011 -0.17011843184145115
0.021978843846839062 -0.1559786146421246
0.020667914134408907 -0.14104518192907964
0.019511185809304426 -0.1254049471853338
0.018509266297742008 -0.10914339027592969
0.017664034752469936 -0.09234509793901322
0.016979969789367746 -0.07509777271268206
0.016465181365195466 -0.057504913503057815
0.016129310733484687 -0.039710784242205664
0.015974011282514494 -0.021918213110476786
0.015945722907549663 -0.004330503256328855
0.08074114169524482 -0.004331936752051275
0.08070499106417625 -0.021918668999167015
0.08053839450538008 -0.03968526429426313
0.08017200000617339 -0.05745579370444012
0.07959538758128877 -0.07502810415558281
0.07881866813648909 -0.09225670167976988
0.07785404407907393 -0.1090370690938462
0.07670895172070534 -0.12528093788692435
0.07538666123435651 -0.14090351954192137
0.07388821044911763 -0.15581928368035522
0.07221374671863447 -0.1699414132402535
0.070363178493679 -0.18318217826715746
0.06833645874217524 -0.19545325364570704
0.0661338375549044 -0.20666579178610067
0.0637561098067952 -0.21673066439724925
0.06120588609848151 -0.2255588257107697
0.058485628055157675 -0.23306589021100832
0.05560739807927435 -0.23917742012274254
0.052561935707115016 -0.2438478502009485
0.049216482650405825 -0.24730412217466496
0.04615863360157386 -0.24974735025265246
0.04310078455274188 -0.247304122174665
0.03975533149603268 -0.2438478502009485
0.036709869123873334 -0.23917742012274257
0.03383163914799002 -0.23306589021100826
0.031111381104666193 -0.22555882571076968
0.028561157396352486 -0.2167306643972492
0.026183429648243293 -0.20666579178610062
0.023980808460972454 -0.195453253645707
0.02195408870946871 -0.1831821782671574
0.020103520484513252 -0.16994141324025352
0.018429056754030088 -0.15581928368035525
0.01693060596879119 -0.1409035195419214
0.015608315482442361 -0.12528093788692432
0.014463223124073783 -0.1090370690938461
0.013498599066658607 -0.09225670167976993
0.012721879621858934 -0.0750281041555828
0.01214526719697432 -0.057455793704440185
0.011778872697767612 -0.0396852642942631
0.011612276138971454 -0.021918668999166963
0.011576125507902874 -0.004331936752051282
0.08512155988382868 -0.0043302353825482994
0.08508688577736225 -0.021914422741253135
0.08491850241168811 -0.039657136291636065
0.08452417025847518 -0.05740229187534554
0.08388395494763998 -0.07495058397593318
0.08301263478824018 -0.09215716300404747
0.08192746010339613 -0.10891675781643553
0.08063869993306645 -0.12514040496838894
0.07915069747720213 -0.1407429392615558
0.07746470945676676 -0.15563868144064053
0.07558082330377358 -0.1697407723056601
0.07349884482121237 -0.18296148135186427
0.07121866258927075 -0.1952124940296303
0.06874051928325739 -0.20640503439092464
0.06606559413409785 -0.21644995917112636
0.06319666216925447 -0.22525895451261574
0.06014162409488613 -0.23274582068501204
0.05690338433249837 -0.23884432406440145
0.05354062099524329 -0.24348671442713218
0.049824839076293904 -0.24688137732514215
0.046158633601573865 -0.24986012613838288
0.04249242812685379 -0.24688137732514218
0.03877664620790441 -0.2434867144271322
0.0354138828706493 -0.2388443240644015
0.03217564310826155 -0.232745820685012
0.02912060503389324 -0.22525895451261568
0.026251673069049835 -0.21644995917112633
0.0235767479198903 -0.20640503439092459
0.021098604613876953 -0.19521249402963028
0.018818422381935335 -0.18296148135186424
0.016736443899374127 -0.16974077230566012
0.014852557746380958 -0.15563868144064055
0.013166569725945572 -0.14074293926155582
0.011678567270081257 -0.12514040496838894
0.010389807099751569 -0.10891675781643544
0.009304632414907522 -0.09215716300404753
0.008433312255507728 -0.07495058397593318
0.00779309694467252 -0.0574022918753456
0.00739876479145959 -0.039657136291636044
0.00723038142578547 -0.02191442274125308
0.007195707319319039 -0.0043302353825483055
0.08950770229655991 -0.0043292507917993515
0.0894891669519612 -0.02190804086788141
0.08933521869414458 -0.03962788630487451
0.08891451182649453 -0.05734407421023409
0.08820756192457556 -0.07486468312800246
0.0872388452064805 -0.092046125524663
0.0860316184710612 -0.10878229458340848
0.08459861392282225 -0.12498329536388972
0.08294475823453014 -0.14056343270100802
0.08107124091414564 -0.1554368122172161
0.07897796973699758 -0.16951651499406986
0.07666460483509248 -0.18271480694224512
0.07413093209409392 -0.19494340231606483
0.07137713816907308 -0.20611356455380547
0.06840449102054949 -0.2161364013675005
0.06521649926883516 -0.22492345430343497
0.06182184044197858 -0.23239123326386096
0.05823672365871392 -0.23846394185250291
0.05448303971342537 -0.2431251417849979
0.0506840106817365 -0.24633322365256768
0.04615863360157386 -0.25
0.04163325652141119 -0.24633322365256768
0.03783422748972234 -0.2431251417849979
0.03408054354443375 -0.23846394185250297
0.03049542676116908 -0.23239123326386096
0.027100767934312545 -0.22492345430343494
0.02391277618259818 -0.21613640136750045
0.0209401290340746 -0.20611356455380542
0.018186335109053767 -0.19494340231606483
0.015652662368055226 -0.18271480694224512
0.013339297466150125 -0.16951651499406994
0.011246026289002073 -0.1554368122172161
0.009372508968617558 -0.14056343270100805
0.007718653280325449 -0.1249832953638897
0.006285648732086487 -0.1087822945834084
0.005078421996667205 -0.09204612552466306
0.004109705278572143 -0.07486468312800246
0.0034027553766531734 -0.05734407421023415
0.0029820485090031237 -0.03962788630487448
0.0028281002511865013 -0.021908040867881364
0.0028095649065877962 -0.004329250791799355
SCALARS Stress float 6
LOOKUP_TABLE default
-51.099602584372995 -1625.8209608589545 -503.07616903299834 -37.7738281739512 0.0 0.0
770.0548507946748 455.05470830281314 367.53286772924645 -58.67532594935312 0.0 0.0
437.83941571562855 -38.8332159686432 119.7018599240956 -25.094774565789844 0.0 0.0
448.0183615077963 34.10734448826472 144.63771179881837 -3.737535568452727 0.0 0.0
514.3787929982238 12.410344866453743 158.03674135940327 -8.613947157039563 0.0 0.0
619.1194557460409 17.53569280045603 190.99654456394916 -8.876344009319432 0.0 0.0
734.7568056190705 19.107289887561056 226.1592286519896 -9.412284470829793 0.0 0.0
855.790711073591 22.254390026922554 263.41353033015406 -9.616218974762315 0.0 0.0
978.2369800152142 25.35043501653217 301.0762245095238 -9.688736862221246 0.0 0.0
1100.9564466484794 28.54841503022911 338.8514585036127 -9.70761069875688 0.0 0.0
1223.5384522517113 31.736910201824195 376.5826087360606 -9.70760951397775 0.0 0.0
1345.969400930763 34.923632159014424 414.2679099269333 -9.709759380397927 0.0 0.0
1468.4112309798652 38.12145298675276 451.9598051899855 -9.728670647684963 0.0 0.0
1591.306683655981 41.37524723536605 489.8045792674041 -9.784381385467821 0.0 0.0
1715.6283355412966 44.76202195728197 528.1171072495737 -9.89844379504319 0.0 0.0
1843.0196684144414 48.3613652466971 567.4143100983418 -10.060200647885962 0.0 0.0
1975.0755480936514 52.13061965630696 608.1618503249874 -10.133448866871282 0.0 0.0
2110.462299265842 55.671700642565995 649.8401999725223 -9.713410613247362 0.0 0.0
2239.177871622829 58.10299486126754 689.1842599452292 -8.101773537760227 0.0 0.0
2337.614576206407 58.69553732044177 718.8930340580546 -4.739475845441653 0.0 0.0
2375.321494732876 58.361635549888646 730.1049390848295 -2.6787461138155777e-12 0.0 0.0
2337.614576206448 58.69553732056255 718.8930340581031 4.73947584545002 0.0 0.0
2239.1778716228087 58.102994861236 689.1842599452134 8.101773537761051 0.0 0.0
2110.4622992658856 55.671700642676726 649.8401999725688 9.713410613247778 0.0 0.0
1975.0755480936523 52.13061965630735 608.161850324988 10.133448866875344 0.0 0.0
1843.0196684144107 48.36136524661164 567.4143100983068 10.060200647878833 0.0 0.0
1715.6283355412575 44.762021957182846 528.1171072495321 9.898443795036897 0.0 0.0
1591.306683655981 41.37524723537263 489.80457926740615 9.784381385469231 0.0 0.0
1468.4112309799195 38.121452986874615 451.9598051900381 9.72867064767426 0.0 0.0
1345.9694009307955 34.923632159091454 414.2679099269662 9.709759380393603 0.0 0.0
1223.5384522517033 31.736910201817082 376.58260873605616 9.707609513974026 0.0 0.0
1100.95644664844 28.5484150301334 338.8514585035722 9.707610698769573 0.0 0.0
978.2369800151836 25.350435016467955 301.0762245094954 9.688736862219981 0.0 0.0
855.7907110735532 22.254390026851095 263.41353033012126 9.616218974767115 0.0 0.0
734.7568056190913 19.107289887614286 226.15922865201162 9.412284470829658 0.0 0.0
619.1194557460287 17.535692800419987 190.99654456393466 8.876344009327356 0.0 0.0
514.3787929982475 12.410344866503834 158.0367413594254 8.613947157036076 0.0 0.0
448.0183615077922 34.107344488251165 144.637711798813 3.7375355684460434 0.0 0.0
437.8394157156354 -38.8332159686473 119.70185992409642 25.09477456579164 0.0 0.0
770.0548507946853 455.05470830283053 367.53286772925475 58.67532594933383 0.0 0.0
-51.09960258437733 -1625.8209608589596 -503.07616903300135 37.77382817393948 0.0 0.0
-290.1500644019592 -1615.172828208163 -571.5968677830367 -25.813559923059067 0.0 0.0
473.60991964850496 311.34006535216247 235.48499550020026 -46.78271724105626 0.0 0.0
307.8620135711024 -43.69175640218165 79.25107715067624 -17.540289945471798 0.0 0.0
399.60382098584296 15.448118268634987 124.51558177634342 -14.518144925021486 0.0 0.0
457.3128051585893 1.9179553118911377 137.76922814114414 -20.932161621572252 0.0 0.0
552.3071484840312 1.5265899105260599 166.1501215183672 -23.71214266594306 0.0 0.0
654.8245107588803 0.5104765245790708 196.60049618503777 -24.958540293084916 0.0 0.0
762.1010470018955 0.15602214981375329 228.6771207455128 -25.4687767068927 0.0 0.0
870.816217793907 0.01630929560142337 261.2497581268526 -25.608855388914918 0.0 0.0
979.9032418444515 -0.02081973387985067 293.96472663317155 -25.62319623608042 0.0 0.0
1088.9635826067802 -0.021072005903231272 326.6827531802632 -25.603662193159348 0.0 0.0
1197.9486080171846 -0.0032299440542835622 359.383613421939 -25.594062317529144 0.0 0.0
1306.9924933706702 0.0449066289561989 392.11121999988796 -25.629555336708684 0.0 0.0
1416.4661263446405 0.15898912872529225 424.9875346420098 -25.77227698754679 0.0 0.0
1527.124624438119 0.3735927076275334 458.249465143724 -26.119696711219923 0.0 0.0
1640.0964970977038 0.6341702009679469 492.2192001896017 -26.735118091706585 0.0 0.0
1756.094360292918 0.6066064334075016 527.0102900178979 -27.392891695824158 0.0 0.0
1872.9191002848931 -0.5221148537503315 561.7190956293427 -27.081634913475856 0.0 0.0
1981.14837444506 -3.7873496340156088 593.2083074433134 -23.60724934321466 0.0 0.0
2061.5159744199227 -8.876120918092035 615.7919560505491 -14.466767524382217 0.0 0.0
2091.5882679838446 -11.945703266121761 623.8927694153168 2.7249313916399842e-12 0.0 0.0
2061.515974419921 -8.876120918074855 615.7919560505538 14.466767524384053 0.0 0.0
1981.1483744450693 -3.787349633968187 593.2083074433303 23.60724934321947 0.0 0.0
1872.9191002848975 -0.522114853736575 561.7190956293484 27.081634913468154 0.0 0.0
1756.0943602929299 0.6066064334399721 527.0102900179107 27.39289169582267 0.0 0.0
1640.0964970977118 0.6341702009816244 492.2192001896081 26.73511809170227 0.0 0.0
1527.1246244381218 0.37359270762596 458.24946514372436 26.11969671122775 0.0 0.0
1416.46612634467 0.1589891288053531 424.9875346420426 25.772276987564176 0.0 0.0
1306.9924933706714 0.04490662895685116 392.1112199998884 25.629555336710478 0.0 0.0
1197.9486080171948 -0.0032299440424372605 359.3836134219457 25.5940623175331 0.0 0.0
1088.9635826067706 -0.021072005931599413 326.6827531802517 25.603662193159522 0.0 0.0
979.9032418444727 -0.02081973383077429 293.9647266331927 25.623196236093655 0.0 0.0
870.8162177938653 0.016309295504369103 261.24975812681095 25.60885538892709 0.0 0.0
762.1010470018922 0.15602214980819884 228.6771207455101 25.468776706885386 0.0 0.0
654.8245107588942 0.5104765245992899 196.6004961850481 24.958540293089463 0.0 0.0
552.3071484840254 1.5265899105119325 166.1501215183613 23.712142665940753 0.0 0.0
457.3128051585795 1.917955311890735 137.76922814114107 20.93216162156438 0.0 0.0
399.60382098584296 15.448118268629718 124.51558177634179 14.518144925014223 0.0 0.0
307.8620135711075 -43.69175640217646 79.25107715067934 17.540289945474044 0.0 0.0
473.60991964850234 311.3400653521679 235.4849955002011 46.78271724104171 0.0 0.0
-290.1500644019663 -1615.1728282081697 -571.5968677830408 25.813559923057227 0.0 0.0
-317.48282833319297 -1413.6919413609478 -519.3524309082425 -118.88308027701916 0.0 0.0
299.5206789372432 187.69568606275593 146.16490949999974 -84.59810024238605 0.0 0.0
228.32059769616944 7.828509929213179 70.84473228761479 -11.894032988160937 0.0 0.0
333.4228591564663 2.53025366385448 100.78593384609619 -33.491062665632455 0.0 0.0
406.9006143081748 5.9665928081737345 123.86016213490457 -41.67886956130236 0.0 0.0
490.2449782887073 1.4845628466956868 147.51886234062087 -47.76786670254083 0.0 0.0
582.5883454008734 0.8108649949271645 175.01976311874017 -50.14774955309644 0.0 0.0
677.6989369961007 0.20113340986457998 203.37002112178953 -51.10952328260824 0.0 0.0
774.230983541376 0.02366410290263779 232.27639429328366 -51.36791683348005 0.0 0.0
871.1026162359567 -0.03011811304442341 261.32174943687374 -51.3828626720423 0.0 0.0
968.0121382969987 -0.029943664001003234 290.3946583898993 -51.338692651770494 0.0 0.0
1064.8940590301993 -0.0053674488330131 319.4666074744099 -51.31486642832333 0.0 0.0
1161.8485922962554 0.061041687640589704 348.5728901951688 -51.37829508057069 0.0 0.0
1259.1560425529306 0.22084976358663622 377.81306769495524 -51.65224632607342 0.0 0.0
1357.361470378118 0.5290608483382917 407.367159367937 -52.3407636167763 0.0 0.0
1457.2095191732485 0.9204990024171644 437.4390054526997 -53.60377876401304 0.0 0.0
1558.941196444984 0.9228804194939604 467.95922305934334 -55.057982340056085 0.0 0.0
1660.2375265561225 -0.6822334392999627 497.86658793504694 -54.742857513505356 0.0 0.0
1752.7926293466737 -5.591744066594198 524.160265584024 -48.156444354938714 0.0 0.0
1820.4552265684083 -13.657225754143525 542.0394002442795 -29.807142935843274 0.0 0.0
1845.303637117971 -18.826032607268033 547.9432813532112 3.524291969370097e-12 0.0 0.0
1820.4552265684013 -13.65722575415757 542.0394002442732 29.807142935845565 0.0 0.0
1752.7926293466837 -5.5917440665604285 524.1602655840371 48.15644435494356 0.0 0.0
1660.2375265560868 -0.6822334393904423 497.866587935009 54.7428575135008 0.0 0.0
1558.9411964449912 0.9228804195015377 467.95922305934783 55.05798234006649 0.0 0.0
1457.2095191732687 0.9204990024616198 437.43900545271913 53.60377876402899 0.0 0.0
1357.3614703781318 0.5290608483567096 407.36715936794667 52.34076361678588 0.0 0.0
1259.1560425529715 0.22084976367048892 377.8130676949927 51.65224632607257 0.0 0.0
1161.8485922962261 0.06104168757208228 348.5728901951395 51.378295080567014 0.0 0.0
1064.8940590301663 -0.005367448908066841 319.46660747437744 51.314866428322375 0.0 0.0
968.0121382970246 -0.02994366394435577 290.3946583899241 51.33869265177527 0.0 0.0
871.1026162359868 -0.030118112985376033 261.32174943690046 51.382862672047075 0.0 0.0
774.2309835413676 0.023664102885089022 232.27639429327573 51.36791683349499 0.0 0.0
677.6989369961111 0.20113340990170903 203.37002112180383 51.10952328260633 0.0 0.0
582.5883454008507 0.8108649948807041 175.01976311871937 50.14774955309007 0.0 0.0
490.24497828871296 1.4845628467099843 147.51886234062692 47.76786670253266 0.0 0.0
406.90061430817093 5.966592808158477 123.86016213489884 41.67886956130318 0.0 0.0
333.422859156477 2.530253663863581 100.78593384610218 33.49106266563563 0.0 0.0
228.3205976961668 7.8285099292019735 70.84473228761063 11.894032988158989 0.0 0.0
299.520678937239 187.69568606274873 146.16490949999633 84.59810024238084 0.0 0.0
-317.4828283331917 -1413.6919413609512 -519.3524309082429 118.88308027702608 0.0 0.0
-291.7555403704848 -1215.27083341866 -452.1079121367435 -148.41157673797096 0.0 0.0
186.9834172509223 76.3868393387438 79.01107697689983 -115.85462664784313 0.0 0.0
166.90632388077682 36.15252518704995 60.91765472034803 -35.25117324858997 0.0 0.0
269.7708184050998 5.181302475649675 82.48563626422485 -48.41460609821969 0.0 0.0
351.80263120576114 6.420225483936376 107.46685700690925 -62.00120595654627 0.0 0.0
428.23096031104126 2.8344711447988886 129.319629436752 -68.9571142893019 0.0 0.0
509.6936083756172 1.0099474555269004 153.21106674934325 -72.42382833007348 0.0 0.0
593.2023749948102 0.3272420320721159 178.05888510806471 -73.69538841453134 0.0 0.0
677.5921271808182 0.023868901677077947 203.28479882474863 -74.07137551407725 0.0 0.0
762.3032616914601 -0.04462551181272312 228.67759085389417 -74.09866960457093 0.0 0.0
847.0650435235298 -0.04533411277538035 254.1059128232263 -74.04370521074593 0.0 0.0
931.8320774056243 -0.009340894538966138 279.54682095332555 -74.01474882995798 0.0 0.0
1016.6623256299985 0.08698808242365619 305.0247941137267 -74.1041536846379 0.0 0.0
1101.7343387512424 0.32214864679614563 330.6169462194115 -74.47748518974629 0.0 0.0
1187.3868263829913 0.7857433363810924 356.4517709158118 -75.40639687290384 0.0 0.0
1274.0617100475788 1.397995885778939 382.63791178000724 -77.10022167317219 0.0 0.0
1361.784625474822 1.461155967249144 408.9737344326215 -79.02177391842866 0.0 0.0
1448.5698371174642 -0.9250953341226329 434.29342253500255 -78.43498443501564 0.0 0.0
1527.5076123066683 -8.58072190751443 455.6780671197461 -68.97963561479793 0.0 0.0
1584.8303413117715 -21.577960488059098 468.97571424711356 -42.744265659086 0.0 0.0
1605.4714679347762 -30.11890665008992 472.6057683854059 3.204547738278052e-12 0.0 0.0
1584.8303413117455 -21.577960488104544 468.97571424709224 42.74426565908543 0.0 0.0
1527.5076123066385 -8.580721907578573 455.6780671197182 68.97963561479247 0.0 0.0
1448.5698371174565 -0.9250953341447712 434.29342253499357 78.43498443501085 0.0 0.0
1361.7846254748201 1.4611559672397743 408.973734432618 79.02177391843982 0.0 0.0
1274.0617100475715 1.3979958857664179 382.6379117800014 77.10022167318095 0.0 0.0
1187.3868263829456 0.7857433362689275 356.4517709157644 75.40639687290498 0.0 0.0
1101.7343387512637 0.3221486468481016 330.61694621943343 74.47748518974562 0.0 0.0
1016.6623256299658 0.0869880823586211 305.0247941136973 74.10415368463528 0.0 0.0
931.832077405619 -0.00934089454864484 279.5468209533211 74.01474882996352 0.0 0.0
847.065043523552 -0.04533411271748822 254.10591282325032 74.04370521075236 0.0 0.0
762.3032616914599 -0.04462551181678487 228.67759085389292 74.09866960456675 0.0 0.0
677.5921271808218 0.023868901697456035 203.28479882475582 74.0713755140785 0.0 0.0
593.2023749947924 0.3272420320502367 178.0588851080528 73.69538841453507 0.0 0.0
509.69360837560123 1.0099474554824626 153.21106674932514 72.42382833005946 0.0 0.0
428.2309603110489 2.83447114480201 129.31962943675524 68.95711428930376 0.0 0.0
351.8026312057677 6.4202254839436925 107.46685700691341 62.001205956542634 0.0 0.0
269.770818405099 5.181302475640421 82.4856362642218 48.41460609822954 0.0 0.0
166.90632388076344 36.15252518702621 60.9176547203369 35.251173248585985 0.0 0.0
186.98341725090776 76.3868393387257 79.01107697689004 115.8546266478449 0.0 0.0
-291.75554037048977 -1215.2708334186623 -452.10791213674565 148.41157673797417 0.0 0.0
-250.04044276796768 -1034.5640559641863 -385.38134961964624 -151.7986886165447 0.0 0.0
113.61575604649666 -9.408442519676017 31.262194058046198 -136.99595318558994 0.0 0.0
119.03062217455407 45.10665562800825 49.2411833407687 -66.79511813146956 0.0 0.0
211.81238740060672 12.683468747236143 67.34875684435286 -66.06552908269725 0.0 0.0
294.899290276784 7.583439489369596 90.74481892984606 -80.13476607753846 0.0 0.0
365.60141030681166 4.016800983496845 110.88546338709254 -87.88033876786872 0.0 0.0
436.5651554166376 1.4626992741921057 131.4083564072489 -91.74818689533181 0.0 0.0
508.54069094275815 0.43641407527293896 152.6931315054093 -93.27967262002933 0.0 0.0
580.9201943464759 0.04047131719344288 174.2881996991008 -93.72671284802644 0.0 0.0
653.4922627240704 -0.06490190399314688 196.02820824602318 -93.77435329333001 0.0 0.0
726.1174332736242 -0.06339115642816662 217.81621263515885 -93.71773826838343 0.0 0.0
798.7600625714299 -0.013663732492889435 239.62391965168112 -93.68976063492154 0.0 0.0
871.4413387449147 0.12093943875595081 261.46868345510114 -93.79772937025801 0.0 0.0
944.2333504218036 0.45057676778706446 283.4051781568772 -94.22985175919364 0.0 0.0
1017.2810358646232 1.1075981149208323 305.51659019386324 -95.29157142975473 0.0 0.0
1090.7957435728458 1.9948025204511253 327.83716382798906 -97.2166871749056 0.0 0.0
1164.7886577291079 2.1286514904503413 350.0751927658676 -99.37030597978902 0.0 0.0
1237.9407747868654 -1.2810889326237946 370.99790575627253 -98.47793737282544 0.0 0.0
1304.9091798147476 -12.554893339963755 387.70628594243516 -86.71835466067857 0.0 0.0
1353.6974684082018 -32.12112653652272 396.47290256150376 -53.94797550810608 0.0 0.0
1370.824146413163 -45.25862829410919 397.66965543571615 1.6289192217300297e-12 0.0 0.0
1353.6974684081504 -32.12112653664143 396.47290256145277 53.94797550810564 0.0 0.0
1304.909179814711 -12.554893340056099 387.7062859423964 86.71835466067742 0.0 0.0
1237.9407747868995 -1.2810889325505554 370.9979057563047 98.47793737280959 0.0 0.0
1164.7886577291094 2.128651490462972 350.07519276587186 99.37030597979108 0.0 0.0
1090.795743572837 1.9948025204354236 327.8371638279817 97.21668717491117 0.0 0.0
1017.281035864603 1.1075981148624692 305.51659019383965 95.29157142975151 0.0 0.0
944.2333504218027 0.45057676778048084 283.40517815687497 94.22985175918234 0.0 0.0
871.4413387448969 0.12093943871840018 261.46868345508466 93.79772937025069 0.0 0.0
798.7600625714239 -0.013663732498502057 239.62391965167765 93.68976063492765 0.0 0.0
726.1174332736215 -0.06339115642247428 217.81621263515973 93.7177382683868 0.0 0.0
653.4922627240741 -0.06490190397964657 196.0282082460283 93.77435329333565 0.0 0.0
580.9201943464807 0.04047131720681518 174.2881996991062 93.7267128480222 0.0 0.0
508.5406909427419 0.43641407524199805 152.6931315053952 93.27967262002564 0.0 0.0
436.56515541664726 1.4626992742210625 131.4083564072605 91.74818689533492 0.0 0.0
365.60141030681285 4.016800983498873 110.88546338709351 87.88033876788735 0.0 0.0
294.8992902768098 7.5834394894171 90.74481892986807 80.13476607752557 0.0 0.0
211.8123874006047 12.683468747226954 67.34875684434952 66.06552908270878 0.0 0.0
119.03062217455118 45.106655628007324 49.24118334076755 66.79511813147589 0.0 0.0
113.61575604649083 -9.40844251968878 31.262194058040603 136.9959531855887 0.0 0.0
-250.04044276796407 -1034.5640559641809 -385.3813496196435 151.79868861654646 0.0 0.0
-207.1336778946782 -875.3473900546568 -324.7443203848005 -144.8215322547546 0.0 0.0
65.27668326111191 -69.56060393312974 -1.285176201605343 -149.4905280849131 0.0 0.0
81.09448779359532 41.90196811124925 36.89893677145338 -97.31330312300985 0.0 0.0
160.04047863676666 19.72440045963541 53.929463728920624 -85.79729114945444 0.0 0.0
238.19074388708228 9.81663517836113 74.40221371963301 -96.59834708936322 0.0 0.0
302.49647782221456 5.0835544603198874 92.27400968476036 -104.35479231743862 0.0 0.0
363.290557455593 1.9902583253435342 109.58424473428096 -108.2466147736753 0.0 0.0
423.7708445377009 0.5723715460933638 127.30296482513826 -109.86244950487969 0.0 0.0
484.20573400721355 0.05693584308096822 145.2788009550884 -110.34993653206604 0.0 0.0
544.6683802118264 -0.08348758854788696 163.37546778698356 -110.41164826594553 0.0 0.0
605.1634328645137 -0.08280768809261452 181.52418755292626 -110.36080480985407 0.0 0.0
665.67746545331 -0.01713765219217156 199.69809834033532 -110.33686063350783 0.0 0.0
726.1952081864343 0.15952592900810303 217.9064202346326 -110.45260613290776 0.0 0.0
786.6870008816172 0.5916295181335829 236.1835891199253 -110.89903268404346 0.0 0.0
847.1205226405895 1.4572337124134276 254.57332690590079 -111.98641991827974 0.0 0.0
907.5324896204414 2.645360974389443 273.05335517844924 -113.96349057940644 0.0 0.0
968.060024750519 2.8638750348104365 291.2771699355988 -116.18949450508751 0.0 0.0
1028.2887894174623 -1.7022108828114257 307.9759735603953 -115.13347192593187 0.0 0.0
1084.5817701365609 -17.22129211808368 320.20814340554324 -101.86828645512327 0.0 0.0
1126.2233331754012 -44.83803461966619 324.4155895667206 -63.91915815950823 0.0 0.0
1140.2624784808365 -63.94920804954995 322.89398112938596 -2.1032064978498966e-12 0.0 0.0
1126.2233331753785 -44.83803461972843 324.4155895666949 63.919158159500206 0.0 0.0
1084.581770136533 -17.221292118158573 320.20814340551226 101.86828645512556 0.0 0.0
1028.2887894174626 -1.7022108828040912 307.97597356039756 115.13347192592157 0.0 0.0
968.0600247505324 2.8638750348514836 291.27716993561506 116.18949450508923 0.0 0.0
907.5324896204177 2.6453609743256945 273.05335517842303 113.96349057942065 0.0 0.0
847.1205226405946 1.4572337124215782 254.5733269059049 111.98641991827184 0.0 0.0
786.6870008815911 0.591629518077327 236.18358911990055 110.8990326840313 0.0 0.0
726.195208186448 0.15952592903755747 217.90642023464576 110.45260613290533 0.0 0.0
665.6774654533136 -0.01713765218136487 199.69809834033967 110.3368606335145 0.0 0.0
605.1634328645207 -0.08280768807512029 181.5241875529337 110.36080480986325 0.0 0.0
544.6683802118171 -0.08348758856914884 163.37546778697435 110.4116482659546 0.0 0.0
484.20573400723225 0.056935843132513764 145.2788009551094 110.34993653206477 0.0 0.0
423.77084453771 0.5723715461044747 127.3029648251443 109.8624495048766 0.0 0.0
363.2905574556247 1.9902583254008572 109.5842447343077 108.24661477368556 0.0 0.0
302.4964778222327 5.083554460357612 92.27400968477711 104.3547923174584 0.0 0.0
238.19074388709944 9.816635178399395 74.40221371964967 96.59834708936332 0.0 0.0
160.0404786367625 19.724400459637792 53.92946372892009 85.7972911494596 0.0 0.0
81.0944877935948 41.90196811125489 36.89893677145491 97.31330312301392 0.0 0.0
65.27668326110745 -69.5606039331412 -1.2851762016101116 149.4905280849028 0.0 0.0
-207.13367789468182 -875.347390054655 -324.7443203848011 144.82153225475324 0.0 0.0
-168.51052211559713 -736.8020860055723 -271.59378243635086 -134.27091794211884 0.0 0.0
32.92209992516804 -108.06157284678318 -22.541841876484547 -155.5224528236526 0.0 0.0
50.34129425373319 32.515320427376636 24.85698440433295 -123.08069898925484 0.0 0.0
113.88414391383846 24.36008464185507 41.47326856670808 -105.56044513316517 0.0 0.0
182.8287005933512 12.447524201294417 58.582867438393684 -111.58721784548894 0.0 0.0
239.30336814774847 6.151199741538287 73.63637036678605 -118.3302625608983 0.0 0.0
289.93201491184726 2.4907471182855 87.72682860903984 -121.93389427163723 0.0 0.0
338.9413511139383 0.7253632024156099 101.90001429490616 -123.4646495315731 0.0 0.0
387.45270017093213 0.07445366152544941 116.25814614973727 -123.94590144049961 0.0 0.0
435.8281408590959 -0.1000976574109298 130.71841296050553 -124.01451740121061 0.0 0.0
484.1998078391275 -0.10098620766417477 145.22964648943903 -123.97279299058142 0.0 0.0
532.5843633961025 -0.019625100089047276 159.76942148880406 -123.95426102394256 0.0 0.0
580.9343972142399 0.19872725646542433 174.33993734121157 -124.06540499970437 0.0 0.0
629.1283419613962 0.7302787668623787 188.95758621847762 -124.4822281167473 0.0 0.0
676.9756954224447 1.7983278315812 203.63220697620778 -125.4946083393574 0.0 0.0
724.3738696741469 3.2903572731645725 218.29926808419347 -127.36422324965245 0.0 0.0
771.6631982271438 3.6277448661368084 232.5872829279842 -129.55500164201482 0.0 0.0
819.4946490902271 -2.0849333811987227 245.22291471270856 -128.5952610259778 0.0 0.0
866.0951179941566 -22.21889344613406 253.1628673644068 -114.79766606578201 0.0 0.0
901.6603981235822 -59.318874841149366 252.70245698472982 -73.05498808573749 0.0 0.0
912.7919699661926 -86.11917219428682 248.0018393315718 4.344968829173013e-12 0.0 0.0
901.6603981235522 -59.31887484123786 252.7024569846943 73.05498808574276 0.0 0.0
866.0951179941671 -22.21889344610902 253.16286736441748 114.79766606577758 0.0 0.0
819.4946490902354 -2.084933381159625 245.22291471272274 128.59526102597204 0.0 0.0
771.6631982271462 3.6277448661437837 232.58728292798705 129.55500164201945 0.0 0.0
724.3738696741054 3.290357273070408 218.29926808415277 127.3642232496529 0.0 0.0
676.975695422424 1.7983278315391051 203.63220697618894 125.49460833936479 0.0 0.0
629.128341961388 0.7302787668376522 188.95758621846767 124.48222811675274 0.0 0.0
580.934397214262 0.19872725651352052 174.33993734123268 124.06540499969896 0.0 0.0
532.5843633961136 -0.019625100062646172 159.7694214888153 123.95426102393895 0.0 0.0
484.19980783911103 -0.1009862076994108 145.22964648942346 123.97279299059282 0.0 0.0
435.8281408591194 -0.10009765735165521 130.71841296053037 124.01451740121527 0.0 0.0
387.4527001709295 0.07445366152130584 116.25814614973527 123.94590144051233 0.0 0.0
338.94135111392814 0.7253632023849579 101.90001429489392 123.46464953157023 0.0 0.0
289.932014911853 2.4907471182946224 87.72682860904432 121.93389427164212 0.0 0.0
239.30336814774745 6.151199741541412 73.63637036678665 118.33026256090108 0.0 0.0
182.8287005933588 12.44752420131296 58.58286743840154 111.58721784548848 0.0 0.0
113.88414391384214 24.36008464186578 41.47326856671238 105.5604451331672 0.0 0.0
50.34129425373121 32.51532042738021 24.856984404333424 123.08069898925655 0.0 0.0
32.92209992516376 -108.06157284678581 -22.54184187648662 155.52245282365377 0.0 0.0
-168.51052211559949 -736.8020860055731 -271.5937824363518 134.2709179421167 0.0 0.0
-135.71323431121738 -616.4835159257563 -225.65902507109212 -123.0116906752585 0.0 0.0
10.727781067944749 -129.65604533715222 -35.67847928076224 -156.89613493133712 0.0 0.0
24.704640395473948 21.001180561695623 13.711746287150874 -142.9257458674621 0.0 0.0
72.42504657674728 26.34378535966623 29.630649580924057 -123.5561190417427 0.0 0.0
129.34763339966497 14.802745802798476 43.24511376073904 -124.8580510691233 0.0 0.0
176.40307761881797 7.185017018383069 55.07642839116032 -129.79128330720886 0.0 0.0
216.57808085292885 2.927941375806895 65.85180666862072 -132.78989859732374 0.0 0.0
254.08699285028433 0.8703402076116578 76.48719991736878 -134.0957866249815 0.0 0.0
290.6705100192493 0.09361549779593958 87.2292376551136 -134.5191045060575 0.0 0.0
326.9692467905393 -0.1141436713705557 98.05653093575064 -134.58554607699062 0.0 0.0
363.22420486819345 -0.11640477680177996 108.93234002741752 -134.55434562898236 0.0 0.0
399.4815666515364 -0.02116116989878103 119.83812164449128 -134.54117699719717 0.0 0.0
435.6689045077198 0.23431837796556243 130.77096686570565 -134.63567816431868 0.0 0.0
471.5874704160907 0.8525733424453459 141.7320131275609 -134.98341710137157 0.0 0.0
506.9093995222787 2.097744485920599 152.70214320245978 -135.83178285212588 0.0 0.0
541.4068419074489 3.8758778926811317 163.58481594003896 -137.4528772258573 0.0 0.0
575.6359659996003 4.392725730233081 174.0086075189501 -139.5266014511557 0.0 0.0
611.4043063470605 -2.293243037644676 182.7333189928248 -138.98314256914404 0.0 0.0
649.0133536137289 -27.127890325988254 186.56563898632217 -125.7609858719733 0.0 0.0
679.3284443189812 -75.15713282674567 181.2513934476706 -81.68922536866546 0.0 0.0
687.467727782012 -111.91393025615311 172.6661392577577 4.590106073010247e-12 0.0 0.0
679.3284443189375 -75.15713282684993 181.2513934476263 81.68922536866882 0.0 0.0
649.0133536137586 -27.12789032591943 186.56563898635176 125.76098587197305 0.0 0.0
611.4043063470932 -2.293243037564026 182.73331899285873 138.98314256914017 0.0 0.0
575.6359659995635 4.3927257301453215 174.00860751891264 139.52660145115857 0.0 0.0
541.4068419074342 3.875877892639914 163.5848159400223 137.45287722585857 0.0 0.0
506.90939952230076 2.097744485966013 152.70214320248004 135.83178285212685 0.0 0.0
471.5874704160427 0.8525733423182711 141.73201312750828 134.9834171013817 0.0 0.0
435.6689045077361 0.23431837800258792 130.7709668657216 134.63567816431626 0.0 0.0
399.4815666515462 -0.0211611698767995 119.83812164450083 134.54117699718688 0.0 0.0
363.2242048681594 -0.1164047768847678 108.93234002738238 134.55434562898768 0.0 0.0
326.9692467905361 -0.114143671371838 98.0565309357493 134.58554607698557 0.0 0.0
290.6705100192385 0.09361549777942946 87.22923765510541 134.519104506058 0.0 0.0
254.08699285028212 0.8703402076009654 76.48719991736493 134.0957866249799 0.0 0.0
216.5780808529357 2.927941375823182 65.8518066686277 132.78989859732766 0.0 0.0
176.403077618821 7.185017018392305 55.07642839116401 129.79128330721102 0.0 0.0
129.34763339967074 14.80274580280086 43.24511376074147 124.85805106912095 0.0 0.0
72.4250465767615 26.34378535969912 29.630649580938194 123.55611904174441 0.0 0.0
24.704640395477824 21.00118056170237 13.711746287154059 142.92574586746272 0.0 0.0
10.72778106794717 -129.6560453371467 -35.67847928075987 156.89613493133976 0.0 0.0
-135.71323431121897 -616.4835159257583 -225.65902507109317 123.01169067525935 0.0 0.0
-108.68355722928891 -511.67489541701525 -186.10753579389126 -112.13671057996632 0.0 0.0
-5.0662916155838555 -138.65081989437982 -43.1151334529891 -154.88383835454067 0.0 0.0
2.660615848675969 9.81196941238209 3.7417755783174176 -156.80745065938385 0.0 0.0
34.71387045654352 26.138538133706227 18.25572257707493 -138.55322257151494 0.0 0.0
77.88613388506725 16.46746372737728 28.306079283733354 -135.96573215847187 0.0 0.0
114.07695695290172 8.067559287816792 36.643354872215546 -138.67170621675115 0.0 0.0
143.3280497115758 3.280182401866654 43.98246963403274 -140.78584156915028 0.0 0.0
169.2366688416245 0.9878245748679083 51.06734802494773 -141.752207997678 0.0 0.0
193.86823526984176 0.11157854543994294 58.193944144584506 -142.072514412542 0.0 0.0
218.09105418370407 -0.12464748607890375 65.38992200928759 -142.1267132298676 0.0 0.0
242.2348960500202 -0.12814291083546214 72.6320259417554 -142.10640406778523 0.0 0.0
266.3701572935232 -0.02199329659948157 79.9044491990771 -142.09785928073472 0.0 0.0
290.4072954551354 0.262485532186584 87.2009342961966 -142.16548031934494 0.0 0.0
314.08960918032295 0.9469125016286264 94.5109565045855 -142.41229305864175 0.0 0.0
336.975532647354 2.3276029330228454 101.79094067411303 -143.024041330422 0.0 0.0
358.70768280204857 4.352643874261831 108.91809800289309 -144.27300938189552 0.0 0.0
380.0049791406345 5.130755074294063 115.54072026447858 -146.14724967140097 0.0 0.0
403.8487110162396 -2.182049769163405 120.49999837412288 -146.34010088265381 0.0 0.0
432.899986146594 -31.47077683172519 120.4287627944607 -134.90382029046845 0.0 0.0
458.601975350701 -91.90563553566547 110.00890194451074 -90.11832520755671 0.0 0.0
463.3402920670973 -141.7174223819074 96.48686090555697 1.1688428003253648e-12 0.0 0.0
458.601975350671 -91.90563553572457 110.00890194448392 90.11832520755492 0.0 0.0
432.89998614659964 -31.470776831712257 120.42876279446622 134.90382029047134 0.0 0.0
403.84871101623816 -2.182049769172644 120.4999983741197 146.3401008826416 0.0 0.0
380.0049791406741 5.13075507437637 115.54072026451517 146.14724967138494 0.0 0.0
358.70768280202117 4.352643874197147 108.91809800286549 144.27300938190112 0.0 0.0
336.97553264741265 2.3276029331647594 101.79094067417324 143.02404133041392 0.0 0.0
314.0896091802521 0.9469125014613438 94.5109565045141 142.41229305864655 0.0 0.0
290.4072954551321 0.2624855321864259 87.20093429619558 142.16548031934536 0.0 0.0
266.37015729353254 -0.02199329656601945 79.90444919908995 142.09785928072355 0.0 0.0
242.23489604999796 -0.1281429108863299 72.63202594173349 142.10640406777242 0.0 0.0
218.0910541836616 -0.12464748618259103 65.38992200924369 142.12671322986878 0.0 0.0
193.86823526984816 0.11157854545830093 58.19394414459193 142.07251441253777 0.0 0.0
169.23666884162506 0.987824574858094 51.067348024944955 141.7522079976868 0.0 0.0
143.32804971159766 3.2801824018974086 43.98246963404851 140.78584156914502 0.0 0.0
114.07695695289888 8.067559287809335 36.64335487221247 138.67170621675285 0.0 0.0
77.88613388507204 16.467463727384327 28.30607928373692 135.96573215846615 0.0 0.0
34.7138704565505 26.138538133726627 18.255722577083144 138.55322257151806 0.0 0.0
2.660615848674085 9.8119694123879 3.741775578318595 156.80745065937987 0.0 0.0
-5.066291615587175 -138.65081989438593 -43.11513345299192 154.8838383545368 0.0 0.0
-108.68355722928831 -511.6748954170132 -186.10753579389046 112.13671057997225 0.0 0.0
-86.79164093192514 -419.956617824503 -152.02447762692844 -101.93337021964172 0.0 0.0
-16.882923182269373 -138.58641560411144 -46.64080163591424 -150.31418770190072 0.0 0.0
-16.898922342577535 0.269517197729801 -4.9888215434543195 -165.1318992559551 0.0 0.0
-0.09994194490678465 24.407299381755053 7.292207231054481 -149.82396741116088 0.0 0.0
28.352661824554016 17.2761044387633 13.688629878995195 -144.44172329053652 0.0 0.0
52.48912544249505 8.677392200188734 18.349955292805134 -144.8460444539726 0.0 0.0
70.2689368981277 3.523121219712461 22.137617435352055 -145.88295796417304 0.0 0.0
84.41561681743826 1.065951820595296 25.644470591410066 -146.42236730109542 0.0 0.0
97.05291448392157 0.12470594156985615 29.153286127647426 -146.60641320428095 0.0 0.0
109.19376920410602 -0.13102123716299952 32.71882439008291 -146.63972917475053 0.0 0.0
121.23078254237234 -0.1355306367338751 36.32857557169155 -146.6300869421315 0.0 0.0
133.25110595858774 -0.022461355344302714 39.96859338097303 -146.62540211929368 0.0 0.0
145.15594073418305 0.2802137172269408 43.630846335423 -146.65883599436313 0.0 0.0
156.65343616361503 1.004991680506478 47.29752835323646 -146.78286416450075 0.0 0.0
167.21736930068064 2.467396326628779 50.90542968819285 -147.10623618570344 0.0 0.0
176.345599762839 4.676340009215094 54.30658193161622 -147.87877394574713 0.0 0.0
184.80117628663584 5.801176127562995 57.18070572425967 -149.44741172177513 0.0 0.0
196.66318329283405 -1.6233290502363324 58.51195627277932 -150.63139056571302 0.0 0.0
217.3210129164055 -34.7113354737399 54.78290323279967 -142.25692089061118 0.0 0.0
238.90380069585177 -109.01800664646943 38.96573821481469 -98.61777161192248 0.0 0.0
239.3947402152987 -176.20293714318927 18.957540921632823 -1.3251622021925868e-12 0.0 0.0
238.90380069583344 -109.01800664650021 38.96573821479996 98.61777161192265 0.0 0.0
217.32101291641075 -34.71133547372869 54.782903232804635 142.25692089061172 0.0 0.0
196.66318329283052 -1.6233290502420115 58.51195627277656 150.63139056571742 0.0 0.0
184.80117628670865 5.80117612772721 57.180705724330764 149.4474117217621 0.0 0.0
176.34559976280377 4.676340009143203 54.306581931584084 147.87877394575264 0.0 0.0
167.2173693006855 2.467396326648934 50.90542968820035 147.10623618569963 0.0 0.0
156.6534361636108 1.0049916804816086 47.297528353227726 146.7828641645025 0.0 0.0
145.15594073417643 0.2802137172160597 43.63084633541775 146.65883599436918 0.0 0.0
133.25110595858843 -0.022461355331815813 39.968593380976984 146.62540211930107 0.0 0.0
121.23078254239837 -0.13553063668246912 36.32857557171479 146.63008694213576 0.0 0.0
109.19376920410554 -0.13102123716656866 32.71882439008168 146.639729174759 0.0 0.0
97.05291448391824 0.12470594157319259 29.153286127647426 146.60641320428525 0.0 0.0
84.41561681740774 1.0659518205206728 25.64447059137852 146.42236730110403 0.0 0.0
70.26893689814328 3.5231212197404647 22.137617435365126 145.88295796417037 0.0 0.0
52.48912544246575 8.677392200129077 18.34995529277845 144.84604445397096 0.0 0.0
28.35266182456479 17.276104438795233 13.688629879008005 144.4417232905287 0.0 0.0
-0.09994194490841668 24.407299381750164 7.2922072310525285 149.82396741115258 0.0 0.0
-16.898922342575545 0.2695171977294426 -4.988821543453829 165.1318992559543 0.0 0.0
-16.882923182265 -138.58641560410848 -46.64080163591204 150.31418770189873 0.0 0.0
-86.79164093192472 -419.95661782450196 -152.024477626928 101.93337021964989 0.0 0.0
-69.28500179470004 -339.40349650617696 -122.60654949026315 -92.333928538437 0.0 0.0
-26.270380676792627 -132.23691399232138 -47.55218840073422 -143.69555675034462 0.0 0.0
-34.766486331184744 -7.038870005637163 -12.541606901046569 -168.43306619773608 0.0 0.0
-32.725344256099525 21.77759484730165 -3.284324822639363 -157.00164000034903 0.0 0.0
-19.462860067761234 17.234998002322428 -0.6683586196316371 -149.88068138034203 0.0 0.0
-8.299896561591298 8.930799346331968 0.1892708354222017 -148.15276742863225 0.0 0.0
-2.539809190460499 3.6326468695813823 0.3278513037362658 -148.03001282928543 0.0 0.0
-0.3566580638819836 1.0981727347526526 0.22245440126119886 -148.0902450530377 0.0 0.0
0.22924546720000016 0.13045667710321274 0.10791064329096445 -148.1188682295822 0.0 0.0
0.27776369549718183 -0.13312413540992063 0.04339186802617778 -148.12600425006602 0.0 0.0
0.21128610864664843 -0.13812456578548948 0.021948462858348172 -148.12666828073623 0.0 0.0
0.12504471844704668 -0.022809173046432374 0.03067066362018611 -148.1254762252717 0.0 0.0
-0.08146849752572649 0.28552503598328416 0.061216961537271075 -148.12111825983845 0.0 0.0
-0.7102677093793339 1.0222423599928079 0.09359239518404205 -148.11182195708693 0.0 0.0
-2.334785460297649 2.506069504772682 0.051385213342513225 -148.1197373907214 0.0 0.0
-5.615482676707252 4.810245311355873 -0.24157120960541256 -148.33721460078212 0.0 0.0
-9.925007941293497 6.340444798647952 -1.0753689427936663 -149.4555192674041 0.0 0.0
-10.290863802691863 -0.5382555074474222 -3.248735793041785 -151.74709455867253 0.0 0.0
1.847913948031561 -36.258184213772964 -10.323081079722417 -147.71760856110419 0.0 0.0
19.706288892269388 -125.76580124899408 -31.81785370701743 -107.44914026998265 0.0 0.0
14.473908793146647 -216.41816272951306 -60.58327618090995 2.9345414986892138e-12 0.0 0.0
19.70628889227205 -125.76580124896688 -31.81785370700845 107.44914026998306 0.0 0.0
1.8479139480371707 -36.25818421375776 -10.323081079716175 147.71760856111024 0.0 0.0
-10.290863802698045 -0.5382555074686728 -3.2487357930500167 151.74709455867207 0.0 0.0
-9.925007941258787 6.340444798723301 -1.0753689427606457 149.4555192674029 0.0 0.0
-5.615482676695883 4.810245311378155 -0.2415712095953193 148.33721460077552 0.0 0.0
-2.33478546029437 2.5060695047865855 0.05138521334766111 148.11973739072934 0.0 0.0
-0.7102677093819594 1.0222423599855879 0.09359239518108975 148.11182195709645 0.0 0.0
-0.08146849752566965 0.2855250359871606 0.06121696153844525 148.12111825984383 0.0 0.0
0.12504471846645693 -0.022809173000397198 0.03067066363981663 148.1254762252768 0.0 0.0
0.21128610867221553 -0.1381245657273671 0.021948462883451647 148.12666828074384 0.0 0.0
0.2777636955099947 -0.13312413537973145 0.043391868039077686 148.12600425006258 0.0 0.0
0.22924546719951167 0.13045667710300846 0.10791064329075795 148.11886822959113 0.0 0.0
-0.35665806389685883 1.0981727347132413 0.222454401244915 148.09024505304203 0.0 0.0
-2.539809190469266 3.632646869564192 0.3278513037284765 148.0300128292845 0.0 0.0
-8.29989656160469 8.930799346306518 0.18927083541054945 148.15276742862721 0.0 0.0
-19.46286006775353 17.23499800233774 -0.6683586196247395 149.8806813803427 0.0 0.0
-32.72534425609624 21.77759484731124 -3.2843248226355044 157.00164000034897 0.0 0.0
-34.766486331192375 -7.038870005650441 -12.541606901052845 168.43306619773742 0.0 0.0
-26.270380676787095 -132.23691399231026 -47.552188400729214 143.69555675034812 0.0 0.0
-69.2850017946979 -339.40349650617827 -122.60654949026284 92.3339285384375 0.0 0.0
-55.47255309597553 -268.61330349994694 -97.22575697877676 -83.13013503454339 0.0 0.0
-34.19731965241582 -121.71814390525198 -46.774639067300335 -135.3213341067857 0.0 0.0
-51.49351925211011 -11.976173994692319 -19.040907974040735 -167.23232843302426 0.0 0.0
-63.725478736241605 18.750014963321306 -13.492639131876098 -159.9501276143248 0.0 0.0
-65.81920180788215 16.44714070566018 -14.811618330666592 -151.96642059577806 0.0 0.0
-68.3104480782189 8.794041718253396 -17.854921907989656 -148.42067564245332 0.0 0.0
-75.07290498435145 3.59277538919644 -21.444038878546504 -147.1658634852161 0.0 0.0
-85.0695205471838 1.081972258838691 -25.196264486503523 -146.73725705961067 0.0 0.0
-96.60060609614453 0.12792746154088208 -28.94180359038109 -146.6067772731311 0.0 0.0
-108.65674159687111 -0.13101777968395112 -32.63632781296651 -146.58669995315512 0.0 0.0
-120.8237882770769 -0.13575152194411544 -36.2878619397063 -146.59751387900312 0.0 0.0
-133.00786445825395 -0.02305152297805302 -39.9092747943696 -146.6000266740579 0.0 0.0
-145.30407248709497 0.2776647821061724 -43.507922311496635 -146.55839223997478 0.0 0.0
-157.99944758826476 0.9976448626821761 -47.100540817674755 -146.41686058654557 0.0 0.0
-171.66682239013534 2.4435287124671037 -50.76698810330046 -146.10924557667792 0.0 0.0
-187.11844209969715 4.731363228686329 -54.716123661303214 -145.73042174889505 0.0 0.0
-204.0892322011022 6.656744130066933 -59.2297464213106 -146.2156370614018 0.0 0.0
-217.09853972134667 1.061171126287272 -64.81121057851782 -149.51216641469995 0.0 0.0
-213.93758677683073 -35.482918103040454 -74.8261514639614 -151.0157530344922 0.0 0.0
-199.4566093180819 -141.11688675863968 -102.17204882301648 -116.85434179259845 0.0 0.0
-212.82681548868666 -263.9137201593295 -143.02216069440485 1.0231815394945443e-12 0.0 0.0
-199.45660931807288 -141.1168867586086 -102.17204882300447 116.8543417925915 0.0 0.0
-213.93758677683064 -35.48291810303594 -74.82615146395997 151.01575303449886 0.0 0.0
-217.0985397213714 1.0611711262308412 -64.81121057854216 149.5121664147014 0.0 0.0
-204.08923220108113 6.656744130112132 -59.229746421290706 146.21563706140785 0.0 0.0
-187.1184420997055 4.73136322865988 -54.71612366131369 145.73042174888997 0.0 0.0
-171.66682239011365 2.4435287125175447 -50.766988103278834 146.10924557667232 0.0 0.0
-157.9994475882958 0.9976448626152352 -47.100540817704164 146.4168605865391 0.0 0.0
-145.30407248707166 0.27766478216920953 -43.507922311470736 146.5583922399851 0.0 0.0
-133.0078644582471 -0.023051522959879556 -39.9092747943621 146.60002667405664 0.0 0.0
-120.82378827709015 -0.1357515219794747 -36.287861939720884 146.59751387899337 0.0 0.0
-108.65674159687178 -0.13101777969644823 -32.636327812970464 146.5866999531472 0.0 0.0
-96.60060609613566 0.12792746156134216 -28.9418035903723 146.60677727313004 0.0 0.0
-85.06952054719159 1.081972258825376 -25.196264486509868 146.73725705960902 0.0 0.0
-75.07290498436275 3.5927753891703627 -21.44403887855772 147.16586348520872 0.0 0.0
-68.31044807821826 8.794041718258951 -17.8549219079878 148.42067564245713 0.0 0.0
-65.81920180788964 16.447140705641818 -14.811618330674358 151.96642059578076 0.0 0.0
-63.725478736239324 18.750014963330138 -13.49263913187276 159.95012761431892 0.0 0.0
-51.493519252105585 -11.976173994688612 -19.040907974038255 167.23232843302384 0.0 0.0
-34.19731965241618 -121.71814390525682 -46.77463906730191 135.32133410678838 0.0 0.0
-55.47255309598139 -268.61330349994626 -97.2257569787783 83.13013503453284 0.0 0.0
-44.78586514887483 -206.66478569302336 -75.43519525256946 -74.07743715270894 0.0 0.0
-41.238476726175314 -108.61579162303943 -44.956280504764415 -125.34965813502018 0.0 0.0
-67.44267695180825 -14.668197826820506 -24.633262433588627 -161.98376408765472 0.0 0.0
-93.5287314721351 15.676730012313504 -23.355600437946475 -158.66388609895145 0.0 0.0
-110.98346090264226 15.058071864939693 -28.777616711310767 -150.46640296228668 0.0 0.0
-127.62195165010155 8.28028712965465 -35.80249935613405 -145.4882567947947 0.0 0.0
-147.3397356281474 3.4016162716908505 -43.181435806936975 -143.22558032583913 0.0 0.0
-169.7235069325539 1.0188955270274387 -50.61138342165794 -142.34404441671538 0.0 0.0
-193.43724017016774 0.11773590872764439 -57.99585127843203 -142.0668925575644 0.0 0.0
-217.60973164334013 -0.1247926345830872 -65.32035728337698 -142.02291349608248 0.0 0.0
-241.87431470622724 -0.128536930487114 -72.60085549101431 -142.04400042434483 0.0 0.0
-266.1480045163417 -0.02295056700446718 -79.85128652500387 -142.0509360537616 0.0 0.0
-290.51370103421186 0.25733993789983023 -87.07690832889362 -141.97672334777616 0.0 0.0
-315.22073010277984 0.9330106091942207 -94.28631584807569 -141.71525286348472 0.0 0.0
-340.7847224648936 2.290417875719585 -101.54829137675218 -141.11850901928707 0.0 0.0
-368.11972225438444 4.440595683836658 -109.10373797116436 -140.1549409137819 0.0 0.0
-397.56142157508367 6.635342993894988 -117.27782357435659 -139.81283606997263 0.0 0.0
-423.75418122871315 3.018423263093685 -126.22072738968583 -143.71247982424754 0.0 0.0
-430.43425302584546 -31.770502714369158 -138.6614267220644 -151.6613728654343 0.0 0.0
-418.9610113659527 -153.5539469375453 -171.75448749104942 -127.02696280501294 0.0 0.0
-444.3118129615218 -320.92768371162606 -229.57184900194437 -5.265121671982342e-12 0.0 0.0
-418.9610113659528 -153.5539469375431 -171.75448749104882 127.02696280500172 0.0 0.0
-430.434253025829 -31.770502714336473 -138.6614267220496 151.66137286543028 0.0 0.0
-423.7541812287077 3.0184232631011008 -126.22072738968198 143.71247982425453 0.0 0.0
-397.5614215750976 6.635342993859608 -117.27782357437141 139.8128360699768 0.0 0.0
-368.1197222544107 4.440595683776008 -109.10373797119041 140.1549409137788 0.0 0.0
-340.78472246492026 2.2904178756553986 -101.54829137677945 141.11850901928844 0.0 0.0
-315.2207301027671 0.9330106092274204 -94.28631584806192 141.71525286348893 0.0 0.0
-290.5137010341767 0.2573399379907175 -87.07690832885577 141.97672334778116 0.0 0.0
-266.14800451636313 -0.022950567054495608 -79.85128652502527 142.05093605375725 0.0 0.0
-241.87431470624767 -0.1285369305411057 -72.60085549103664 142.0440004243452 0.0 0.0
-217.60973164333583 -0.12479263458092871 -65.32035728337503 142.02291349608288 0.0 0.0
-193.43724017016405 0.11773590874140605 -57.9958512784268 142.0668925575527 0.0 0.0
-169.72350693254117 1.0188955270572269 -50.611383421645186 142.34404441671535 0.0 0.0
-147.33973562816837 3.401616271634903 -43.181435806960046 143.22558032583387 0.0 0.0
-127.62195165009707 8.28028712965965 -35.80249935613123 145.48825679479268 0.0 0.0
-110.9834609026519 15.058071864924244 -28.777616711318295 150.46640296228304 0.0 0.0
-93.5287314721412 15.676730012310484 -23.355600437949207 158.66388609894258 0.0 0.0
-67.44267695180773 -14.668197826820034 -24.63326243358833 161.98376408765955 0.0 0.0
-41.238476726178625 -108.61579162304787 -44.95628050476796 125.34965813501361 0.0 0.0
-44.78586514887196 -206.66478569301765 -75.4351952525669 74.07743715270202 0.0 0.0
-36.78215146733922 -153.04986561855006 -56.94960512576679 -64.94869685283871 0.0 0.0
-47.68700895476673 -94.10147427905376 -42.53654497014616 -113.8624350982308 0.0 0.0
-82.82120672854269 -15.38930520408272 -29.463153579787626 -153.05785234621018 0.0 0.0
-122.44414954975193 12.771322021073447 -32.901848258603536 -153.19515173315423 0.0 0.0
-155.21089637087178 13.223983200205241 -42.59607395119997 -145.21314100337798 0.0 0.0
-186.3560602280159 7.441128373669174 -53.67447955630402 -139.21521204941376 0.0 0.0
-219.38144045437073 3.0737573404394336 -64.89230493417939 -136.14767910106784 0.0 0.0
-254.33110064785623 0.9149294004995883 -76.02485137420705 -134.8926755147212 0.0 0.0
-290.2840942608303 0.1017124591356331 -87.0547145405084 -134.49672273409755 0.0 0.0
-326.58129792845443 -0.11455754462309597 -98.00875664192326 -134.4359018972892 0.0 0.0
-362.9397880711703 -0.11691043762404218 -108.91700955263832 -134.467446262276 0.0 0.0
-399.2963126695566 -0.02216639320959013 -119.79554371882986 -134.47970354711808 0.0 0.0
-435.7146239007071 0.227031246044052 -130.64627779639895 -134.38134527325096 0.0 0.0
-472.3881090849751 0.8323731247843735 -141.46672078805722 -134.0229664671094 0.0 0.0
-509.7180375390478 2.0643995432178395 -152.29609139874907 -133.18572369048616 0.0 0.0
-548.6037065958825 3.9751909273857313 -163.38855470054907 -131.71435146499257 0.0 0.0
-590.1608044167463 6.1650219121393075 -175.19873475138212 -130.4037695203629 0.0 0.0
-630.1085324914773 4.9683471970068265 -187.54205558834104 -134.1529699755231 0.0 0.0
-648.0027139971459 -24.634739437132424 -201.79123603028353 -148.87330973298265 0.0 0.0
-639.0389955011453 -160.80306434755698 -239.95261795461064 -138.0375285804863 0.0 0.0
-682.4137774784044 -390.6386959481626 -321.9157420279701 9.592326932761353e-14 0.0 0.0
-639.0389955011276 -160.80306434751773 -239.95261795459353 138.0375285804831 0.0 0.0
-648.0027139971388 -24.634739437116608 -201.7912360302767 148.8733097329683 0.0 0.0
-630.1085324914686 4.968347197019137 -187.54205558833482 134.15296997551837 0.0 0.0
-590.1608044167477 6.165021912124454 -175.19873475138704 130.40376952035618 0.0 0.0
-548.6037065958515 3.975190927468 -163.388554700515 131.71435146498612 0.0 0.0
-509.7180375390635 2.0643995431941344 -152.29609139876084 133.18572369049195 0.0 0.0
-472.38810908493247 0.832373124878452 -141.4667207880162 134.0229664671167 0.0 0.0
-435.7146239007056 0.22703124604132574 -130.64627779639932 134.3813452732592 0.0 0.0
-399.2963126695714 -0.022166393239628768 -119.79554371884332 134.47970354711708 0.0 0.0
-362.9397880711436 -0.11691043756127395 -108.91700955261147 134.46744626227888 0.0 0.0
-326.5812979284341 -0.11455754458305534 -98.00875664190512 134.43590189728573 0.0 0.0
-290.28409426080714 0.10171245919353211 -87.0547145404841 134.49672273410187 0.0 0.0
-254.33110064782386 0.9149294005741171 -76.02485137417493 134.8926755147209 0.0 0.0
-219.38144045438378 3.073757340408947 -64.89230493419244 136.14767910106934 0.0 0.0
-186.35606022802824 7.441128373647523 -53.67447955631421 139.21521204941226 0.0 0.0
-155.21089637086263 13.223983200231684 -42.596073951189275 145.21314100337162 0.0 0.0
-122.44414954974205 12.771322021093932 -32.90184825859443 153.19515173315176 0.0 0.0
-82.82120672855244 -15.389305204102186 -29.463153579796387 153.05785234620777 0.0 0.0
-47.68700895477065 -94.1014742790556 -42.53654497014787 113.86243509823036 0.0 0.0
-36.78215146733902 -153.0498656185509 -56.94960512576701 64.94869685283975 0.0 0.0
-31.116053176847927 -107.59666170707376 -41.61381446517651 -55.56894988199289 0.0 0.0
-53.615148814159184 -79.02980924313962 -39.79348741718965 -100.91058687000105 0.0 0.0
-97.69797892251768 -14.501420060414311 -33.6598196948796 -140.7381429558397 0.0 0.0
-150.6768222029623 10.13159581411521 -42.16356791665414 -143.599931275114 0.0 0.0
-198.73891297416785 11.098334058296082 -56.29217367476153 -136.0828034094926 0.0 0.0
-244.66572512719742 6.357806609070154 -71.4923755554382 -129.48858923954413 0.0 0.0
-291.26640380669454 2.6394857766509805 -86.58807540901307 -125.88089960645917 0.0 0.0
-338.9159492078435 0.7804903701378121 -101.4406376513117 -124.36913783493681 0.0 0.0
-387.14715188208896 0.08253433662508636 -116.1193852636392 -123.89534166757872 0.0 0.0
-435.5714351656983 -0.10057585622038179 -130.70160330657566 -123.82727401518628 0.0 0.0
-484.0191600436052 -0.10156198014189055 -145.23621660712416 -123.8690277400918 0.0 0.0
-532.4541197271791 -0.02058249047412719 -159.74241066529598 -123.88726110340914 0.0 0.0
-580.9135366973649 0.1909899071057124 -174.2167640370777 -123.77559649227057 0.0 0.0
-629.5203061486985 0.7029756155843083 -188.64519915993432 -123.35401806899549 0.0 0.0
-678.5202971602332 1.7817339295925905 -203.02156896919212 -122.34124426429996 0.0 0.0
-728.606846330211 3.415683177559881 -217.5573489457954 -120.50064821733814 0.0 0.0
-781.6670722362728 5.201665392187603 -232.93962205322555 -118.2408881832794 0.0 0.0
-835.7931422509822 6.2781767297271855 -248.85448965637653 -120.7758743326201 0.0 0.0
-866.9280607285651 -13.961118403157352 -264.2667537395169 -141.5002006768932 0.0 0.0
-859.6831330734732 -159.43289340126017 -305.73480794241993 -149.66044608945447 0.0 0.0
-930.545177200784 -477.4895103185184 -422.4104062557908 3.765876499528531e-12 0.0 0.0
-859.6831330734689 -159.43289340124656 -305.73480794241465 149.66044608945347 0.0 0.0
-866.9280607285885 -13.961118403218904 -264.26675373954225 141.50020067688936 0.0 0.0
-835.7931422509794 6.278176729720107 -248.85448965637778 120.77587433262894 0.0 0.0
-781.6670722362759 5.201665392176428 -232.93962205322987 118.24088818327888 0.0 0.0
-728.6068463301785 3.4156831776288508 -217.55734894576491 120.50064821734263 0.0 0.0
-678.520297160204 1.781733929668322 -203.02156896916068 122.34124426429258 0.0 0.0
-629.520306148691 0.7029756156205427 -188.6451991599212 123.35401806899401 0.0 0.0
-580.913536697405 0.19098990701204888 -174.2167640371179 123.77559649226968 0.0 0.0
-532.4541197271427 -0.02058249039846083 -159.74241066526235 123.88726110340315 0.0 0.0
-484.01916004360635 -0.10156198013796636 -145.23621660712334 123.86902774009165 0.0 0.0
-435.5714351656912 -0.10057585621453735 -130.70160330657174 123.8272740151841 0.0 0.0
-387.1471518820636 0.08253433667229271 -116.11938526361745 123.89534166757727 0.0 0.0
-338.9159492078477 0.7804903701284023 -101.44063765131582 124.36913783493922 0.0 0.0
-291.2664038066687 2.6394857767171596 -86.58807540898549 125.88089960645885 0.0 0.0
-244.66572512720214 6.357806609059665 -71.49237555544275 129.48858923954865 0.0 0.0
-198.738912974168 11.098334058290497 -56.29217367476327 136.08280340949247 0.0 0.0
-150.6768222029668 10.131595814117235 -42.16356791665489 143.59993127511456 0.0 0.0
-97.69797892251803 -14.501420060420134 -33.65981969488145 140.73814295583537 0.0 0.0
-53.61514881416003 -79.02980924314508 -39.79348741719154 100.91058686999995 0.0 0.0
-31.116053176855992 -107.59666170707749 -41.61381446518005 55.568949882002286 0.0 0.0
-27.486716030172513 -70.38352612299148 -29.361072645949207 -45.851376276499735 0.0 0.0
-58.8953405044419 -64.02197691077548 -36.87519522456521 -86.55174642698071 0.0 0.0
-112.00560250885154 -12.432040906511368 -37.33129302460888 -125.21490360216413 0.0 0.0
-178.3425660316744 7.769162247092272 -51.172021135374635 -129.89456482926767 0.0 0.0
-241.79191438027303 8.832840673146693 -69.88772211213788 -122.97698133666518 0.0 0.0
-302.7297509776487 5.133757850675494 -89.27879793809197 -116.22641476606685 0.0 0.0
-363.08504301991536 2.141759274955673 -108.28298512348789 -112.38983357563886 0.0 0.0
-423.51076020275366 0.6297186725073911 -126.86431245907386 -110.76579148784907 0.0 0.0
-484.0341989330653 0.06327648025690058 -145.1912767358425 -110.26408445236697 0.0 0.0
-544.5797258327613 -0.08350898935078055 -163.39897044663363 -110.19913444318946 0.0 0.0
-605.1106813907065 -0.0833929842655845 -181.55822231249167 -110.24962541112993 0.0 0.0
-665.6225851809193 -0.018432757544106337 -199.692305381539 -110.27396041418248 0.0 0.0
-726.1200101035308 0.15376095576840987 -217.78987474432876 -110.16008075419268 0.0 0.0
-786.6380903414206 0.5594035999809255 -235.82360602243193 -109.71820927311245 0.0 0.0
-847.2613359216854 1.4478304549619345 -253.74405164001712 -108.61185404737908 0.0 0.0
-908.2509374148665 2.8670431205381943 -271.6151682882985 -106.56611648459227 0.0 0.0
-971.8669012928273 3.8866946212383744 -290.39406200147675 -103.65660533472898 0.0 0.0
-1040.1134764948508 6.049532733821778 -310.2191831283087 -103.88039789090267 0.0 0.0
-1087.3443471504106 -0.4966329969565688 -326.3522940442101 -127.98764547978477 0.0 0.0
-1080.4844483966294 -144.2842670390968 -367.4306146307179 -160.98094820342743 0.0 0.0
-1193.64870990737 -587.5374426628273 -534.3558457710593 3.986144747614162e-12 0.0 0.0
-1080.4844483966785 -144.28426703921374 -367.4306146307676 160.9809482034308 0.0 0.0
-1087.344347150432 -0.4966329970207277 -326.35229404423586 127.9876454797863 0.0 0.0
-1040.1134764948413 6.049532733837907 -310.219183128301 103.88039789090469 0.0 0.0
-971.8669012928219 3.886694621256825 -290.39406200146954 103.6566053347256 0.0 0.0
-908.2509374148815 2.8670431205128475 -271.61516828831066 106.56611648460134 0.0 0.0
-847.261335921687 1.4478304549609868 -253.7440516400179 108.61185404737245 0.0 0.0
-786.6380903414325 0.5594035999522562 -235.82360602244398 109.71820927311086 0.0 0.0
-726.1200101035445 0.15376095574176896 -217.7898747443408 110.16008075420339 0.0 0.0
-665.6225851809049 -0.018432757508614506 -199.6923053815241 110.27396041418356 0.0 0.0
-605.1106813906944 -0.08339298423813823 -181.5582223124798 110.24962541112757 0.0 0.0
-544.5797258327893 -0.08350898941959217 -163.3989704466626 110.19913444319579 0.0 0.0
-484.03419893307733 0.06327648022484073 -145.19127673585578 110.26408445237118 0.0 0.0
-423.5107602027848 0.6297186724365055 -126.86431245910453 110.76579148785356 0.0 0.0
-363.0850430198961 2.1417592750110015 -108.28298512346554 112.38983357564017 0.0 0.0
-302.72975097764896 5.133757850681363 -89.27879793809029 116.22641476606826 0.0 0.0
-241.79191438027135 8.832840673149212 -69.88772211213667 122.97698133666304 0.0 0.0
-178.34256603168802 7.769162247060116 -51.17202113538838 129.89456482926872 0.0 0.0
-112.00560250884513 -12.432040906498422 -37.33129302460306 125.21490360216374 0.0 0.0
-58.89534050444216 -64.02197691078293 -36.875195224567534 86.55174642697703 0.0 0.0
-27.48671603016944 -70.38352612299148 -29.361072645948273 45.85137627650688 0.0 0.0
-25.551329706984845 -41.63155619065389 -20.154865769291618 -35.853191693015596 0.0 0.0
-63.1870380512933 -49.55070658977676 -33.82132339232102 -70.88493721970613 0.0 0.0
-125.52786992019568 -9.681250990035442 -40.56273627306935 -106.56135621343024 0.0 0.0
-205.48404465234898 5.648038750899978 -59.950801770434694 -112.01726961327351 0.0 0.0
-284.59595656232955 6.58889569582473 -83.40211825995146 -105.81207370199859 0.0 0.0
-360.7515148138575 3.88779671482206 -107.05911542971066 -99.38090112027263 0.0 0.0
-434.94404188438455 1.6318861448180182 -129.99364672186996 -95.65922097644193 0.0 0.0
-508.1542008693805 0.47907404565194867 -152.30253804711853 -94.08349993690689 0.0 0.0
-580.9536636201425 0.04678878566168798 -174.27206245034427 -93.60704418606079 0.0 0.0
-653.6048357999052 -0.06460218463721734 -196.10083139536277 -93.55414356271824 0.0 0.0
-726.2119474114443 -0.06383533841601707 -217.88273482495805 -93.60973304014657 0.0 0.0
-798.8016798066308 -0.015336496349637407 -239.6451048908942 -93.63917746462643 0.0 0.0
-871.3463828770698 0.1164355770735046 -261.36898418999897 -93.53372055718181 0.0 0.0
-943.7659782954588 0.4273975855848926 -283.0015742129622 -93.11456313479135 0.0 0.0
-1016.0050023379324 1.065623295627435 -304.48181371269146 -92.03032043101592 0.0 0.0
-1087.7738797671332 2.376903115116532 -325.61909299560506 -89.91291865842885 0.0 0.0
-1160.675688572381 2.7093317386935794 -347.38990705010616 -86.93215331928896 0.0 0.0
-1241.9035718309362 3.350673010046054 -371.56586964626695 -84.47109715427537 0.0 0.0
-1309.0795256437507 13.184325406139559 -388.76856007128345 -106.59182649211081 0.0 0.0
-1300.3652696243937 -107.73602744321258 -422.4303891202818 -169.4813888722674 0.0 0.0
-1479.0708800729467 -728.6345510623765 -662.3116293405972 -1.9042545318370685e-12 0.0 0.0
-1300.3652696244226 -107.73602744329023 -422.4303891203138 169.48138887226528 0.0 0.0
-1309.0795256437386 13.184325406168334 -388.76856007127094 106.59182649212207 0.0 0.0
-1241.9035718309287 3.3506730100608033 -371.56586964626035 84.4710971542753 0.0 0.0
-1160.6756885723423 2.709331738777611 -347.38990705006944 86.93215331927756 0.0 0.0
-1087.7738797671225 2.376903115146206 -325.6190929955929 89.91291865843023 0.0 0.0
-1016.0050023379546 1.0656232955789522 -304.4818137127128 92.03032043101334 0.0 0.0
-943.7659782954569 0.4273975855757197 -283.00157421296444 93.11456313478831 0.0 0.0
-871.3463828770521 0.11643557710880459 -261.36898418998305 93.5337205571894 0.0 0.0
-798.8016798066326 -0.015336496350936812 -239.64510489089503 93.63917746463044 0.0 0.0
-726.2119474114332 -0.06383533838945377 -217.8827348249469 93.60973304015025 0.0 0.0
-653.6048357999131 -0.06460218465052758 -196.10083139536903 93.55414356271334 0.0 0.0
-580.9536636201774 0.04678878558811539 -174.27206245037684 93.60704418607146 0.0 0.0
-508.1542008693954 0.4790740456211653 -152.30253804713226 94.08349993690301 0.0 0.0
-434.94404188438114 1.631886144830819 -129.9936467218651 95.65922097643258 0.0 0.0
-360.7515148138475 3.887796714836325 -107.05911542970337 99.38090112028343 0.0 0.0
-284.5959565623099 6.588895695857101 -83.40211825993583 105.81207370199809 0.0 0.0
-205.48404465235566 5.648038750885711 -59.950801770440975 112.01726961327392 0.0 0.0
-125.52786992019867 -9.681250990035098 -40.562736273070136 106.56135621342925 0.0 0.0
-63.1870380512901 -49.55070658977496 -33.82132339231953 70.88493721970677 0.0 0.0
-25.551329706973476 -41.631556190652205 -20.1548657692877 35.85319169302124 0.0 0.0
-24.7779002196612 -21.547953121728167 -13.897756002416811 -25.877988837306532 0.0 0.0
-65.88835782656382 -36.05499779080693 -30.58300668521122 -54.08381353953389 0.0 0.0
-137.8716377016907 -6.847870867417148 -43.41585257073237 -84.67246757165951 0.0 0.0
-232.09362539314148 3.742474007701039 -68.50534541563214 -89.7950574578692 0.0 0.0
-327.4037824381073 4.553602051123432 -96.85505411609519 -84.52057216742664 0.0 0.0
-418.959466622192 2.7461858137828514 -124.86398424252276 -78.94166657508715 0.0 0.0
-506.95979568719963 1.1650003417210835 -151.7384386036436 -75.6971983245815 0.0 0.0
-592.8871566948726 0.3452476266410045 -177.76257272046948 -74.33316019593893 0.0 0.0
-677.9131185764902 0.03479866423613709 -203.3634959736762 -73.93133319347496 0.0 0.0
-762.643852466816 -0.045548492305302 -228.80682028773649 -73.89527954601175 0.0 0.0
-847.3198603764549 -0.045686925146476653 -254.20966419048057 -73.94989181025345 0.0 0.0
-931.9903009019051 -0.009300787993811177 -279.5998805069697 -73.9798543628291 0.0 0.0
-1016.6025512835639 0.0772268977659083 -304.9575973157394 -73.89636391708915 0.0 0.0
-1100.9459634160717 0.32587016654744794 -330.18602797485727 -73.5282085103522 0.0 0.0
-1184.774738608066 0.7040244778064437 -355.221214239078 -72.61742469815326 0.0 0.0
-1267.5084876154 1.773319761138712 -379.7205503562784 -70.58553931358136 0.0 0.0
-1348.4195254204044 2.539313939620025 -403.7640634442353 -67.95619940348362 0.0 0.0
-1439.3456158241252 -1.8381515085519942 -432.35513019980317 -64.56348715535238 0.0 0.0
-1531.3254572924068 20.81469324572486 -453.1532292140045 -76.54978772531082 0.0 0.0
-1517.159108032464 -39.052501760460565 -466.8634829378774 -168.80336661073875 0.0 0.0
-1797.9534009289332 -909.7365778950312 -812.3069936471895 2.0250467969162855e-12 0.0 0.0
-1517.1591080324724 -39.05250176048759 -466.863482937888 168.80336661073187 0.0 0.0
-1531.3254572923986 20.8146932457472 -453.15322921399553 76.54978772530698 0.0 0.0
-1439.345615824145 -1.8381515085917752 -432.355130199821 64.56348715534487 0.0 0.0
-1348.4195254203687 2.5393139396974784 -403.76406344420144 67.9561994034766 0.0 0.0
-1267.5084876153724 1.7733197612087028 -379.72055035624896 70.58553931357574 0.0 0.0
-1184.7747386080457 0.7040244778592379 -355.22121423905577 72.61742469814895 0.0 0.0
-1100.945963416059 0.3258701665783983 -330.18602797484425 73.52820851035025 0.0 0.0
-1016.6025512835438 0.0772268978090731 -304.9575973157205 73.8963639170816 0.0 0.0
-931.9903009018919 -0.009300787962796986 -279.59988050695637 73.97985436282566 0.0 0.0
-847.3198603764826 -0.04568692521113493 -254.20966419050816 73.94989181025247 0.0 0.0
-762.643852466799 -0.045548492274892716 -228.8068202877222 73.8952795460076 0.0 0.0
-677.9131185764941 0.03479866422724745 -203.36349597368005 73.9313331934882 0.0 0.0
-592.8871566948729 0.34524762664102965 -177.76257272046956 74.33316019594385 0.0 0.0
-506.95979568720384 1.1650003417123953 -151.7384386036475 75.69719832457649 0.0 0.0
-418.9594666221805 2.746185813800161 -124.86398424251405 78.94166657509201 0.0 0.0
-327.40378243810227 4.553602051137052 -96.85505411608956 84.520572167419 0.0 0.0
-232.09362539314293 3.7424740077031413 -68.50534541563195 89.79505745787155 0.0 0.0
-137.87163770168775 -6.847870867419186 -43.41585257073207 84.67246757165762 0.0 0.0
-65.8883578265563 -36.0549977907956 -30.583006685205575 54.08381353953783 0.0 0.0
-24.77790021966171 -21.547953121734434 -13.897756002418845 25.877988837301864 0.0 0.0
-24.1776129612159 -10.06746733441641 -10.273524088689692 -16.67328281818415 0.0 0.0
-66.04547588311344 -24.139963044744817 -27.055631678357475 -36.42385723996949 0.0 0.0
-148.42124996079548 -4.65531529130423 -45.9229695756299 -59.128936266617046 0.0 0.0
-258.1533142352216 2.133884791733032 -76.80582883304659 -62.93290184883487 0.0 0.0
-370.53164648092974 2.94658749596195 -110.27551769549036 -59.06517691247529 0.0 0.0
-477.6050623036257 1.8340227113111234 -142.73131187769442 -54.93803730902581 0.0 0.0
-579.2512209882267 0.796135504231887 -173.53652564519848 -52.53840530698967 0.0 0.0
-677.748716811698 0.24199713001554102 -203.25201590450476 -51.53618184447046 0.0 0.0
-774.9171582129105 0.027445956872400146 -232.46691367681137 -51.24693842091983 0.0 0.0
-871.6924611656746 -0.02951469295502207 -261.51659275758885 -51.22589389420738 0.0 0.0
-968.4283297393371 -0.03023385421299718 -290.5375690780649 -51.26955551329927 0.0 0.0
-1065.1917312746793 -0.006362423466939937 -319.55942810944373 -51.294467804852104 0.0 0.0
-1161.8817953578382 0.05846389235558025 -348.5469994396447 -51.23504069961292 0.0 0.0
-1258.2521587619203 0.1994086452916397 -377.4158250349887 -50.973069283490595 0.0 0.0
-1353.5758139461734 0.5996754223271141 -405.89284155715393 -50.262691588086824 0.0 0.0
-1447.6334154174617 0.7026407166438959 -434.07923241024525 -48.9086665290249 0.0 0.0
-1536.470117526023 3.6774303925817025 -459.83780614003234 -45.97918669971596 0.0 0.0
-1629.8006258888972 -5.629442431365667 -490.62902049607897 -46.1213505772099 0.0 0.0
-1751.886951408027 9.00443957904076 -522.8647535486958 -42.77898838577853 0.0 0.0
-1727.0380793076195 74.9253185009145 -495.6338282420113 -142.82699889941307 0.0 0.0
-2167.3946057839203 -1136.9347867881543 -991.2988177716223 5.229594535194337e-12 0.0 0.0
-1727.0380793076479 74.9253185008545 -495.6338282420379 142.82699889940488 0.0 0.0
-1751.886951408046 9.004439579014662 -522.8647535487096 42.778988385775456 0.0 0.0
-1629.8006258889293 -5.629442431437177 -490.62902049611 46.12135057721184 0.0 0.0
-1536.4701175260343 3.6774303925490957 -459.8378061400455 45.9791866997072 0.0 0.0
-1447.633415417429 0.7026407167279918 -434.0792324102103 48.9086665290223 0.0 0.0
-1353.5758139461602 0.5996754223544783 -405.89284155714176 50.26269158808419 0.0 0.0
-1258.2521587619417 0.1994086452368815 -377.4158250350114 50.97306928348353 0.0 0.0
-1161.88179535782 0.05846389238644978 -348.5469994396301 51.235040699612426 0.0 0.0
-1065.191731274666 -0.006362423448393384 -319.5594281094343 51.29446780483937 0.0 0.0
-968.428329739351 -0.03023385423858388 -290.537569078077 51.26955551329188 0.0 0.0
-871.692461165676 -0.029514692950055613 -261.51659275758794 51.22589389419868 0.0 0.0
-774.9171582129073 0.027445956886383627 -232.46691367680626 51.24693842092012 0.0 0.0
-677.748716811702 0.24199713000450251 -203.25201590450928 51.536181844481746 0.0 0.0
-579.2512209882306 0.7961355042295597 -173.53652564520036 52.53840530699249 0.0 0.0
-477.60506230363296 1.8340227113023533 -142.73131187769917 54.938037309013914 0.0 0.0
-370.531646480933 2.94658749595614 -110.27551769549305 59.06517691247218 0.0 0.0
-258.15331423522775 2.133884791726166 -76.80582883305048 62.93290184883431 0.0 0.0
-148.4212499608037 -4.655315291321655 -45.9229695756376 59.12893626660931 0.0 0.0
-66.04547588310882 -24.139963044729427 -27.055631678351475 36.423857239979434 0.0 0.0
-24.177612961227315 -10.067467334427294 -10.273524088696384 16.673282818173764 0.0 0.0
-21.788748437829405 -6.386430372337291 -8.45255364305001 -9.820414629746711 0.0 0.0
-62.2050350748433 -14.980035597346209 -23.155521201656853 -18.288207494988328 0.0 0.0
-156.27272882432882 -3.9212910471089364 -48.058205961431334 -28.901190291767367 0.0 0.0
-283.71145758963684 1.1780502704155285 -84.76002219576641 -31.0961925973563 0.0 0.0
-414.4084596481214 1.9799212280968492 -123.72856152600735 -29.439784187951826 0.0 0.0
-536.9495215588489 1.2811447241152965 -160.7005130504201 -27.44861159006807 0.0 0.0
-651.9350894693926 0.5712368622674013 -195.4091557821376 -26.244653499259822 0.0 0.0
-762.7705820645474 0.17801761478397404 -228.77776933492896 -25.72429198581857 0.0 0.0
-871.9659251508388 0.022120993999661387 -261.5831412470517 -25.56619918817084 0.0 0.0
-980.743348862059 -0.020266941888744228 -294.2290847411843 -25.549152306945775 0.0 0.0
-1089.5323795517984 -0.021298727021262565 -326.8661034836459 -25.568061324152684 0.0 0.0
-1198.3975530082375 -0.004088748172166312 -359.52049252692285 -25.578495991949303 0.0 0.0
-1307.2145581720613 0.04137577479780674 -392.15195471917895 -25.544195325538716 0.0 0.0
-1415.6130960897856 0.15178551671797624 -424.63839317192037 -25.409873540512624 0.0 0.0
-1522.8770885113097 0.37468706522649686 -456.75072043382517 -25.038006410954612 0.0 0.0
-1627.0833358877633 0.8889080642700753 -487.85832834704786 -24.366233891443976 0.0 0.0
-1728.7048794001842 0.5077408586033583 -518.4591415624742 -23.1269235098148 0.0 0.0
-1809.8693487799937 8.383762874139613 -540.445675771756 -21.49917541940894 0.0 0.0
-1965.2555674050054 -48.06731355753523 -603.9968642887621 -33.90742649031278 0.0 0.0
-1924.188917813386 242.26905950558532 -504.5759574923401 -48.39419095461532 0.0 0.0
-2613.3977699159495 -1397.6647006755945 -1203.3187411774636 -2.9984903449076228e-12 0.0 0.0
-1924.1889178133638 242.26905950564807 -504.5759574923147 48.394190954603886 0.0 0.0
-1965.255567404998 -48.06731355750095 -603.9968642887497 33.9074264903102 0.0 0.0
-1809.8693487800156 8.38376287410556 -540.4456757717729 21.499175419409198 0.0 0.0
-1728.7048794002308 0.5077408584784917 -518.459141562526 23.126923509815775 0.0 0.0
-1627.083335887752 0.8889080642942548 -487.85832834703723 24.366233891451508 0.0 0.0
-1522.8770885113222 0.3746870652062967 -456.7507204338348 25.03800641094532 0.0 0.0
-1415.6130960898051 0.15178551666416873 -424.6383931719424 25.409873540510304 0.0 0.0
-1307.2145581720663 0.04137577477448784 -392.1519547191876 25.54419532554011 0.0 0.0
-1198.3975530082562 -0.00408874821876315 -359.52049252694263 25.578495991948127 0.0 0.0
-1089.5323795518366 -0.021298727116662183 -326.86610348368606 25.56806132415433 0.0 0.0
-980.743348862046 -0.02026694185637265 -294.22908474117054 25.549152306941533 0.0 0.0
-871.9659251508479 0.02212099398088324 -261.58314124706015 25.56619918817414 0.0 0.0
-762.7705820645436 0.17801761478023082 -228.77776933492902 25.72429198582867 0.0 0.0
-651.9350894694223 0.5712368622045523 -195.4091557821654 26.244653499254298 0.0 0.0
-536.9495215588537 1.2811447241143015 -160.7005130504218 27.448611590063194 0.0 0.0
-414.40845964812166 1.9799212281011478 -123.7285615260061 29.439784187954288 0.0 0.0
-283.7114575896459 1.1780502704020068 -84.76002219577316 31.096192597353546 0.0 0.0
-156.27272882432658 -3.9212910471158815 -48.05820596143273 28.901190291771535 0.0 0.0
-62.20503507484024 -14.980035597351431 -23.155521201657507 18.288207494992783 0.0 0.0
-21.788748437831543 -6.3864303723361875 -8.452553643050317 9.820414629741183 0.0 0.0
-11.339646461887398 -2.695912771691045 -4.210667770073533 -6.5808509917417615 0.0 0.0
-50.683666153165966 -7.6954758860218435 -17.513742611756342 -7.7294342580180455 0.0 0.0
-159.64356711487756 -4.132986430439281 -49.132966063595056 -9.836834875072254 0.0 0.0
-312.3256453994355 -5.9029356954647945 -95.46857432847005 -10.967719132029286 0.0 0.0
-464.8099033539033 -10.411171919341477 -142.5663225819734 -10.884182590782219 0.0 0.0
-604.1684937198719 -14.890938221759026 -185.71782958248923 -10.377702834936827 0.0 0.0
-733.3894900460805 -18.78619237786842 -225.6527047271847 -9.990663260201046 0.0 0.0
-857.5668821026991 -22.23282969408457 -263.9399135390351 -9.790980726249003 0.0 0.0
-979.9737311341491 -25.46882862286912 -301.63276792710553 -9.714499490592157 0.0 0.0
-1102.0508711799212 -28.638893309188678 -339.206929346733 -9.69525327218728 0.0 0.0
-1224.2440901541793 -31.80282635130772 -376.81407495164603 -9.694544157397544 0.0 0.0
-1346.5902725704386 -34.968557213301594 -414.4676489351221 -9.69300105327406 0.0 0.0
-1468.9454584886926 -38.1376941534974 -452.1249457926572 -9.673228170665944 0.0 0.0
-1590.8563184591887 -41.202516440388735 -489.61765046987335 -9.619996625977883 0.0 0.0
-1711.494471857897 -44.35960084924569 -526.7562218121427 -9.491794040038762 0.0 0.0
-1828.1994725797288 -46.15096257648458 -562.305130546864 -9.243759587969265 0.0 0.0
-1939.823613616471 -52.039963745343485 -597.5590732085445 -9.495843493105653 0.0 0.0
-2030.886154533985 -34.374919199048605 -619.5783221199101 -6.460953020428704 0.0 0.0
-2124.5792032508843 -115.86879670244727 -672.1343999859997 -31.724236020007964 0.0 0.0
-2168.997819287195 275.16285233726444 -568.1504900849791 -0.1428241789760989 0.0 0.0
-3207.3197981292724 -1681.980708246947 -1466.790151912866 -3.808509063674137e-12 0.0 0.0
-2168.997819287119 275.1628523374288 -568.1504900849071 0.14282417897737787 0.0 0.0
-2124.5792032508516 -115.86879670235078 -672.1343999859607 31.724236020013166 0.0 0.0
-2030.8861545340103 -34.374919199072444 -619.578322119925 6.460953020432029 0.0 0.0
-1939.8236136165046 -52.03996374543221 -597.5590732085809 9.495843493096459 0.0 0.0
-1828.199472579749 -46.15096257652785 -562.3051305468831 9.243759587968867 0.0 0.0
-1711.4944718578952 -44.3596008492322 -526.7562218121382 9.49179404001508 0.0 0.0
-1590.8563184591678 -41.20251644035855 -489.617650469858 9.61999662595587 0.0 0.0
-1468.9454584887108 -38.137694153546 -452.1249457926769 9.673228170649338 0.0 0.0
-1346.5902725704811 -34.968557213401155 -414.4676489351646 9.693001053264439 0.0 0.0
-1224.2440901542461 -31.80282635147084 -376.8140749517151 9.694544157395427 0.0 0.0
-1102.0508711798934 -28.63889330913389 -339.20692934670825 9.695253272182796 0.0 0.0
-979.9737311341413 -25.46882862285579 -301.63276792709917 9.714499490590022 0.0 0.0
-857.5668821026918 -22.232829694059667 -263.9399135390254 9.790980726248868 0.0 0.0
-733.3894900461244 -18.786192377977045 -225.6527047272305 9.990663260190075 0.0 0.0
-604.1684937198454 -14.890938221722127 -185.71782958247033 10.377702834940667 0.0 0.0
-464.80990335388776 -10.411171919307783 -142.56632258195867 10.884182590779979 0.0 0.0
-312.3256453994451 -5.902935695487717 -95.46857432847985 10.967719132023147 0.0 0.0
-159.64356711486704 -4.132986430414647 -49.13296606358452 9.836834875079703 0.0 0.0
-50.68366615318152 -7.695475886060137 -17.5137426117725 7.729434258008469 0.0 0.0
-11.339646461876653 -2.6959127716804394 -4.210667770067127 6.580850991738076 0.0 0.0
SCALARS Strain float 6
LOOKUP_TABLE default
0.0029378476819160665 -0.00729784114686872 0.0 -0.0004910597662613657 0.0 0.0
0.0026163928899252857 0.0005688919637281839 0.0 -0.0007627792373415909 0.0 0.0
0.002067894112644965 -0.0010304779933028028 0.0 -0.00032623206935526803 0.0 0.0
0.0019719742231083586 -0.0007184473875185989 0.0 -4.8587962389885436e-05 0.0 0.0
0.0023162233356523337 -0.0009465715772041723 0.0 -0.00011198131304151433 0.0 0.0
0.0027827989226835975 -0.0011274955364627053 0.0 -0.00011539247212115255 0.0 0.0
0.0033058842502860283 -0.0013458376019687857 0.0 -0.0001223596981207872 0.0 0.0
0.0038504516748323406 -0.0015675344119710048 0.0 -0.00012501084667191007 0.0 0.0
0.004401544910786987 -0.0017922176317044462 0.0 -0.0001259535792088761 0.0 0.0
0.0049536824229416375 -0.002016969782576993 0.0 -0.0001261989390838395 0.0 0.0
0.00550521298285173 -0.0022414970404725366 0.0 -0.00012619892368171068 0.0 0.0
0.006056059691524896 -0.002465737805491474 0.0 -0.0001262268719451731 0.0 0.0
0.00660693426763422 -0.002689949289321013 0.0 -0.00012647271841990446 0.0 0.0
0.007159763678525754 -0.0029147906582082496 0.0 -0.00012719695801108175 0.0 0.0
0.0077188229838962025 -0.003141808054399897 0.0 -0.00012867976933556135 0.0 0.0
0.008291434829054652 -0.003373844141535691 0.0 -0.00013078260842251752 0.0 0.0
0.008884939035496316 -0.0036142029993464237 0.0 -0.00013173483526932647 0.0 0.0
0.009494043645406578 -0.0038620952456447167 0.0 -0.00012627433797221586 0.0 0.0
0.010074958475904406 -0.004102028223045753 0.0 -0.00010532305599088288 0.0 0.0
0.010521690023964293 -0.004291283728794484 0.0 -6.161318599074171e-05 0.0 0.0
0.010693907611712307 -0.004366331472977117 0.0 -3.491130995403324e-17 0.0 0.0
0.010521690023964246 -0.004291283728794015 0.0 6.16131859908504e-05 0.0 0.0
0.01007495847590437 -0.004102028223045855 0.0 0.00010532305599089388 0.0 0.0
0.009494043645406564 -0.0038620952456442986 0.0 0.00012627433797222118 0.0 0.0
0.008884939035496317 -0.0036142029993464237 0.0 0.00013173483526937927 0.0 0.0
0.00829143482905468 -0.003373844141536019 0.0 0.00013078260842242493 0.0 0.0
0.007718822983896215 -0.003141808054400271 0.0 0.00012867976933547952 0.0 0.0
0.007159763678525739 -0.002914790658208218 0.0 0.00012719695801110024 0.0 0.0
0.006606934267634229 -0.0026899492893205637 0.0 0.0001264727184197654 0.0 0.0
0.006056059691524892 -0.002465737805491186 0.0 0.0001262268719451168 0.0 0.0
0.005505212982851709 -0.002241497040472555 0.0 0.0001261989236816623 0.0 0.0
0.0049536824229416436 -0.0020169697825773523 0.0 0.0001261989390840044 0.0 0.0
0.004401544910786971 -0.0017922176317046786 0.0 0.0001259535792088597 0.0 0.0
0.003850451674832306 -0.0015675344119712564 0.0 0.00012501084667197252 0.0 0.0
0.003305884250286017 -0.001345837601968583 0.0 0.0001223596981207856 0.0 0.0
0.002782798922683613 -0.0011274955364628456 0.0 0.0001153924721212556 0.0 0.0
0.002316223335652343 -0.0009465715772039899 0.0 0.00011198131304146903 0.0 0.0
0.0019719742231083643 -0.0007184473875186518 0.0 4.8587962389798564e-05 0.0 0.0
0.0020678941126450034 -0.0010304779933028346 0.0 0.0003262320693552913 0.0 0.0
0.0026163928899252996 0.0005688919637282423 0.0 0.0007627792373413402 0.0 0.0
0.002937847681916057 -0.007297841146868736 0.0 0.0004910597662612133 0.0 0.0
0.0018294042219770042 -0.006783243742763323 0.0 -0.00033557627899976776 0.0 0.0
0.0015478120069639812 0.0004930579540377549 0.0 -0.0006081753241337307 0.0 0.0
0.0014859710867327707 -0.0007991284180935767 0.0 -0.00022802376929113331 0.0 0.0
0.0017880735548617475 -0.0007089385128001048 0.0 -0.00018873588402527932 0.0 0.0
0.0020770332506133945 -0.0008830332733901448 0.0 -0.00027211810108043933 0.0 0.0
0.0025100206752768158 -0.0010700529554509676 0.0 -0.0003082578546572599 0.0 0.0
0.002978456094729976 -0.001274585127792982 0.0 -0.00032446102381010396 0.0 0.0
0.0034672555206664885 -0.0014853871408720442 0.0 -0.0003310940971896051 0.0 0.0
0.003962181987835857 -0.0016980174174031327 0.0 -0.00033291512005589386 0.0 0.0
0.004458600348873322 -0.0019109060513858344 0.0 -0.0003331015510690453 0.0 0.0
0.004954825391272363 -0.0021235748637100827 0.0 -0.00033284760851107155 0.0 0.0
0.0054506724648690965 -0.0023360144818789577 0.0 -0.00033272281012787893 0.0 0.0
0.005946728276910086 -0.0025484310369110565 0.0 -0.0003331842193772129 0.0 0.0
0.006444610846067103 -0.00276138554583635 0.0 -0.00033503960083810825 0.0 0.0
0.006947688535413567 -0.002976193170834627 0.0 -0.0003395560572458589 0.0 0.0
0.007461202429902667 -0.0031953026949261194 0.0 -0.0003475565351921855 0.0 0.0
0.007989046456787637 -0.003421623943299187 0.0 -0.0003561075920457139 0.0 0.0
0.008522800030261079 -0.0036545678681401067 0.0 -0.0003520612538751861 0.0 0.0
0.009021610435511357 -0.0038804717710026393 0.0 -0.00030689424146179093 0.0 0.0
0.009397206119400927 -0.004060342500296167 0.0 -0.00018806797781696858 0.0 0.0
0.00954002074069543 -0.004132950072429352 0.0 3.542630598596386e-17 0.0 0.0
0.009397206119400885 -0.0040603425002960864 0.0 0.00018806797781699262 0.0 0.0
0.009021610435511305 -0.0038804717710024415 0.0 0.0003068942414618532 0.0 0.0
0.008522800030261072 -0.003654567868140054 0.0 0.0003520612538750859 0.0 0.0
0.007989046456787623 -0.003421623943299061 0.0 0.0003561075920456947 0.0 0.0
0.007461202429902676 -0.0031953026949260725 0.0 0.00034755653519212955 0.0 0.0
0.006947688535413585 -0.00297619317083464 0.0 0.000339556057245961 0.0 0.0
0.006444610846067079 -0.002761385545836042 0.0 0.00033503960083833436 0.0 0.0
0.00594672827691009 -0.0025484310369110557 0.0 0.00033318421937723614 0.0 0.0
0.005450672464869119 -0.0023360144818789226 0.0 0.0003327228101279304 0.0 0.0
0.004954825391272373 -0.002123574863710193 0.0 0.0003328476085110738 0.0 0.0
0.004458600348873321 -0.0019109060513856522 0.0 0.00033310155106921753 0.0 0.0
0.003962181987835856 -0.0016980174174034933 0.0 0.00033291512005605216 0.0 0.0
0.003467255520666484 -0.0014853871408720624 0.0 0.00033109409718951 0.0 0.0
0.0029784560947300003 -0.0012745851277929175 0.0 0.0003244610238101631 0.0 0.0
0.002510020675276818 -0.0010700529554510205 0.0 0.0003082578546572297 0.0 0.0
0.00207703325061335 -0.000883033273390127 0.0 0.00027211810108033693 0.0 0.0
0.0017880735548617575 -0.0007089385128001284 0.0 0.00018873588402518486 0.0 0.0
0.0014859710867327837 -0.0007991284180935629 0.0 0.00022802376929116272 0.0 0.0
0.0015478120069639587 0.0004930579540377846 0.0 0.0006081753241335424 0.0 0.0
0.0018294042219769856 -0.00678324374276334 0.0 0.0003355762789997436 0.0 0.0
0.0013121524167378214 -0.00581320681794259 0.0 -0.0015454800436012495 0.0 0.0
0.0009968125013420823 0.0002699500476579153 0.0 -0.001099775303151019 0.0 0.0
0.0010235931251556054 -0.0004096054453296105 0.0 -0.0001546224288460921 0.0 0.0
0.0015121400145174052 -0.0006386619211845713 0.0 -0.0004353838146532219 0.0 0.0
0.0018397629391262568 -0.0007663082006237505 0.0 -0.0005418253042969305 0.0 0.0
0.002227719753662562 -0.000949222946710514 0.0 -0.0006209822671330308 0.0 0.0
0.0026491957848338663 -0.0011323578378047846 0.0 -0.000651920744190254 0.0 0.0
0.0030831379531830226 -0.0013205977701275125 0.0 -0.0006644238026739072 0.0 0.0
0.0035227048301126017 -0.0015096427462374768 0.0 -0.0006677829188352407 0.0 0.0
0.003963575634194042 -0.0016987871390744687 0.0 -0.0006679772147365499 0.0 0.0
0.004404513619396147 -0.001887759913350352 0.0 -0.0006674030044730164 0.0 0.0
0.004845278435112632 -0.002076567837001079 0.0 -0.0006670932635682033 0.0 0.0
0.005286292063657065 -0.002265327015298934 0.0 -0.0006679178360474187 0.0 0.0
0.005728729336576843 -0.0024543494165538957 0.0 -0.0006714792022389543 0.0 0.0
0.006174963021566178 -0.002644447640377391 0.0 -0.000680429927018092 0.0 0.0
0.006628508339183567 -0.0028373702919268365 0.0 -0.0006968491239321698 0.0 0.0
0.007091382827006665 -0.0030357362271590223 0.0 -0.0007157537704207292 0.0 0.0
0.0075554111010369945 -0.0032405673389332545 0.0 -0.0007116571476755696 0.0 0.0
0.007986110364457226 -0.0034433880627290185 0.0 -0.0006260337766142033 0.0 0.0
0.008309702871106838 -0.0036120280689897503 0.0 -0.0003874928581659627 0.0 0.0
0.008432842312470943 -0.003684000540743114 0.0 4.575333167888829e-17 0.0 0.0
0.008309702871106836 -0.0036120280689898015 0.0 0.00038749285816599256 0.0 0.0
0.007986110364457205 -0.003443388062728884 0.0 0.000626033776614266 0.0 0.0
0.007555411101037008 -0.003240567338933597 0.0 0.0007116571476755104 0.0 0.0
0.007091382827006682 -0.003035736227159002 0.0 0.0007157537704208644 0.0 0.0
0.006628508339183573 -0.0028373702919266735 0.0 0.000696849123932377 0.0 0.0
0.0061749630215662075 -0.002644447640377335 0.0 0.0006804299270182165 0.0 0.0
0.005728729336576864 -0.0024543494165535943 0.0 0.0006714792022389433 0.0 0.0
0.0052862920636570655 -0.002265327015299189 0.0 0.000667917836047371 0.0 0.0
0.004845278435112629 -0.0020765678370013568 0.0 0.0006670932635681908 0.0 0.0
0.004404513619396155 -0.0018877599133501452 0.0 0.0006674030044730786 0.0 0.0
0.003963575634194061 -0.0016987871390742577 0.0 0.0006679772147366119 0.0 0.0
0.003522704830112597 -0.00150964274623754 0.0 0.0006677829188354348 0.0 0.0
0.0030831379531829975 -0.0013205977701273638 0.0 0.0006644238026738825 0.0 0.0
0.002649195784833853 -0.0011323578378049518 0.0 0.0006519207441901711 0.0 0.0
0.0022277197536625603 -0.0009492229467104602 0.0 0.0006209822671329245 0.0 0.0
0.001839762939126269 -0.0007663082006238124 0.0 0.0005418253042969412 0.0 0.0
0.0015121400145174364 -0.0006386619211845511 0.0 0.00043538381465326316 0.0 0.0
0.001023593125155615 -0.0004096054453296563 0.0 0.0001546224288460668 0.0 0.0
0.0009968125013420776 0.00026995004765789085 0.0 0.001099775303150951 0.0 0.0
0.0013121524167378333 -0.005813206817942606 0.0 0.0015454800436013386 0.0 0.0
0.0010422904164806813 -0.004960558988332459 0.0 -0.0019293504975936224 0.0 0.0
0.0007018202117811462 -1.7057544648014263e-05 0.0 -0.001506110146421961 0.0 0.0
0.0006889263495427875 -0.0001609733419664376 0.0 -0.00045826525223166954 0.0 0.0
0.0012173536839156875 -0.0005024781696257389 0.0 -0.000629389879276856 0.0 0.0
0.0015881825322925374 -0.0006568031048993238 0.0 -0.0008060156774351014 0.0 0.0
0.00194292365068288 -0.0008221535288976957 0.0 -0.0008964424857609249 0.0 0.0
0.002317136520570782 -0.0009893072754098068 0.0 -0.0009415097682909555 0.0 0.0
0.0026984326842638467 -0.001155255679993952 0.0 -0.0009580400493889075 0.0 0.0
0.003082997634314453 -0.0013211960444999653 0.0 -0.0009629278816830041 0.0 0.0
0.0034685668604441788 -0.0014866944063770952 0.0 -0.0009632827048594225 0.0 0.0
0.0038542343495519722 -0.001651983105084011 0.0 -0.0009625681677396969 0.0 0.0
0.004239854166939941 -0.0018171150520111196 0.0 -0.0009621917347894537 0.0 0.0
0.004625643954855768 -0.0019820957392034694 0.0 -0.0009633539979002927 0.0 0.0
0.0050122630514569 -0.0021469161842220005 0.0 -0.0009682073074667018 0.0 0.0
0.005401077860536669 -0.0023118291792663 0.0 -0.0009802831593477498 0.0 0.0
0.0057942546887392145 -0.0024780594533124842 0.0 -0.0010023028817512383 0.0 0.0
0.006193270791774306 -0.0026488317600249205 0.0 -0.0010272830609395728 0.0 0.0
0.006592796694786003 -0.0028289203661493135 0.0 -0.0010196547976552034 0.0 0.0
0.006966892043714995 -0.0030176821286771946 0.0 -0.0008967352629923731 0.0 0.0
0.007253055075920277 -0.003188598885778623 0.0 -0.0005556754535681181 0.0 0.0
0.007363627047070907 -0.0032677103877307235 0.0 4.155204826050696e-17 0.0 0.0
0.007253055075920247 -0.0031885988857787806 0.0 0.0005556754535681106 0.0 0.0
0.0069668920437149845 -0.0030176821286774297 0.0 0.0008967352629923023 0.0 0.0
0.00659279669478601 -0.0028289203661493994 0.0 0.0010196547976551414 0.0 0.0
0.006193270791774315 -0.0026488317600249587 0.0 0.0010272830609397178 0.0 0.0
0.005794254688739206 -0.002478059453312528 0.0 0.0010023028817513521 0.0 0.0
0.005401077860536678 -0.0023118291792667204 0.0 0.0009802831593477648 0.0 0.0
0.0050122630514568955 -0.002146916184221806 0.0 0.0009682073074666927 0.0 0.0
0.004625643954855746 -0.0019820957392037027 0.0 0.0009633539979002589 0.0 0.0
0.004239854166939939 -0.0018171150520111543 0.0 0.0009621917347895259 0.0 0.0
0.003854234349551962 -0.0016519831050837914 0.0 0.0009625681677397804 0.0 0.0
0.0034685668604441853 -0.0014866944063771134 0.0 0.0009632827048593679 0.0 0.0
0.0030829976343144296 -0.0013211960444998792 0.0 0.0009629278816830206 0.0 0.0
0.0026984326842638085 -0.001155255679994017 0.0 0.0009580400493889559 0.0 0.0
0.002317136520570796 -0.0009893072754099776 0.0 0.0009415097682907729 0.0 0.0
0.0019429236506829086 -0.0008221535288976961 0.0 0.0008964424857609492 0.0 0.0
0.0015881825322925532 -0.0006568031048993035 0.0 0.0008060156774350542 0.0 0.0
0.0012173536839157014 -0.0005024781696257791 0.0 0.0006293898792769842 0.0 0.0
0.0006889263495427727 -0.00016097334196651955 0.0 0.0004582652522316179 0.0 0.0
0.0007018202117811153 -1.7057544648068382e-05 0.0 0.001506110146421984 0.0 0.0
0.0010422904164806626 -0.004960558988332457 0.0 0.0019293504975936642 0.0 0.0
0.0008797158945359109 -0.004219687591239512 0.0 -0.0019733829520150814 0.0 0.0
0.0005352981529249282 -0.00026435913775519444 0.0 -0.0017809473914126694 0.0 0.0
0.000453631352419605 -2.6874430132942875e-05 0.0 -0.0008683365357091042 0.0 0.0
0.0009390135986156499 -0.00035532437263125866 0.0 -0.000858851878075064 0.0 0.0
0.0013270040637550966 -0.0005405489663630974 0.0 -0.001041751959008 0.0 0.0
0.0016556536549781741 -0.000694646305623372 0.0 -0.0011424444039822932 0.0 0.0
0.001983519193561026 -0.0008446467713648691 0.0 -0.0011927264296393133 0.0 0.0
0.002313009136342768 -0.0009896686632958867 0.0 -0.0012126357440603811 0.0 0.0
0.0026431079652079388 -0.001132610234482398 0.0 -0.0012184472670243437 0.0 0.0
0.0029735163541073067 -0.0012746052159751061 0.0 -0.0012190665928132906 0.0 0.0
0.0033039579341500253 -0.0014162174246453163 0.0 -0.0012183305974889846 0.0 0.0
0.0036343849289783674 -0.001557644291997131 0.0 -0.0012179668882539804 0.0 0.0
0.003964822259383789 -0.0016987603361062445 0.0 -0.0012193704818133542 0.0 0.0
0.004295383119722023 -0.0018392049090290865 0.0 -0.0012249880728695177 0.0 0.0
0.004626468896859942 -0.0019786584485131267 0.0 -0.0012387904285868115 0.0 0.0
0.00495923076834157 -0.002117975348498997 0.0 -0.001263816933273773 0.0 0.0
0.005295637522261063 -0.0022616525182902114 0.0 -0.0012918139777372572 0.0 0.0
0.005635128648698856 -0.0024198134654778262 0.0 -0.0012802131858467307 0.0 0.0
0.0059618188101700316 -0.002601697665335593 0.0 -0.0011273386105888213 0.0 0.0
0.006221959678003539 -0.002785861189137173 0.0 -0.0007013236816053788 0.0 0.0
0.0063255041913534045 -0.002879033844243866 0.0 2.1169047417779474e-17 0.0 0.0
0.006221959678003537 -0.002785861189137613 0.0 0.0007013236816053735 0.0 0.0
0.005961818810170045 -0.0026016976653359418 0.0 0.0011273386105888064 0.0 0.0
0.005635128648698868 -0.00241981346547756 0.0 0.001280213185846525 0.0 0.0
0.005295637522261049 -0.002261652518290159 0.0 0.0012918139777372845 0.0 0.0
0.004959230768341558 -0.0021179753484990515 0.0 0.0012638169332738454 0.0 0.0
0.004626468896859964 -0.0019786584485133527 0.0 0.0012387904285867696 0.0 0.0
0.004295383119722032 -0.001839204909029115 0.0 0.0012249880728693707 0.0 0.0
0.003964822259383782 -0.0016987603361063807 0.0 0.001219370481813259 0.0 0.0
0.003634384928978351 -0.001557644291997145 0.0 0.00121796688825406 0.0 0.0
0.003303957934150002 -0.0014162174246452842 0.0 0.0012183305974890284 0.0 0.0
0.002973516354107297 -0.001274605215975052 0.0 0.001219066592813363 0.0 0.0
0.0026431079652079336 -0.001132610234482346 0.0 0.0012184472670242889 0.0 0.0
0.002313009136342754 -0.000989668663295996 0.0 0.001212635744060333 0.0 0.0
0.0019835191935610144 -0.0008446467713647567 0.0 0.001192726429639354 0.0 0.0
0.0016556536549781756 -0.0006946463056233653 0.0 0.0011424444039825356 0.0 0.0
0.0013270040637551213 -0.0005405489663629315 0.0 0.0010417519590078322 0.0 0.0
0.0009390135986156593 -0.0003553243726312967 0.0 0.0008588518780752142 0.0 0.0
0.00045363135241959364 -2.687443013294143e-05 0.0 0.0008683365357091864 0.0 0.0
0.0005352981529249264 -0.0002643591377552413 0.0 0.0017809473914126525 0.0 0.0
0.0008797158945359162 -0.004219687591239493 0.0 0.001973382952015104 0.0 0.0
0.0007644691761857954 -0.0035789199528540663 0.0 -0.0018826799193118098 0.0 0.0
0.00043265208650766226 -0.0004437902802549086 0.0 -0.0019433768651038702 0.0 0.0
0.0002872710816439227 3.251970370867319e-05 0.0 -0.0012650729405991282 0.0 0.0
0.0006897215969009992 -0.00022233291125035387 0.0 -0.0011153647849429075 0.0 0.0
0.00106462544608842 -0.00041980626051826733 0.0 -0.0012557785121617222 0.0 0.0
0.0013664460428934526 -0.0005667379589588632 0.0 -0.0013566123001267022 0.0 0.0
0.0016490910326885284 -0.0006993609116580933 0.0 -0.0014072059920577787 0.0 0.0
0.0019270412181316581 -0.0008237488563137922 0.0 -0.001428211843563436 0.0 0.0
0.0022030250648388144 -0.0009439421232280483 0.0 -0.0014345491749168588 0.0 0.0
0.002478403930761479 -0.0010624832099409547 0.0 -0.0014353514274572914 0.0 0.0
0.002753655094525318 -0.0011804454690666232 0.0 -0.0014346904625281035 0.0 0.0
0.003028865886234335 -0.0012981490339514287 0.0 -0.0014343791882356015 0.0 0.0
0.00330387712168671 -0.0014153548129865602 0.0 -0.001435883879727801 0.0 0.0
0.0035782721764509983 -0.0015313477374116462 0.0 -0.0014416874248925652 0.0 0.0
0.0038515567722754752 -0.001645254605757668 0.0 -0.0014558234589376368 0.0 0.0
0.004124114373872949 -0.001757651962326389 0.0 -0.0014815253775322843 0.0 0.0
0.004399088556296982 -0.0018746864168551242 0.0 -0.001510463428566138 0.0 0.0
0.004682033303070939 -0.002012908198880845 0.0 -0.0014967351350371144 0.0 0.0
0.004968428573751616 -0.0021932913309035754 0.0 -0.0013242877239166026 0.0 0.0
0.005211750333456427 -0.0024001485572115147 0.0 -0.0008309490560736066 0.0 0.0
0.0053128952327844295 -0.0025144807296630834 0.0 -2.7159264420761886e-17 0.0 0.0
0.005211750333456441 -0.0024001485572117524 0.0 0.0008309490560735027 0.0 0.0
0.004968428573751634 -0.002193291330903861 0.0 0.001324287723916633 0.0 0.0
0.004682033303070924 -0.002012908198880812 0.0 0.0014967351350369804 0.0 0.0
0.004399088556296961 -0.0018746864168549637 0.0 0.0015104634285661607 0.0 0.0
0.004124114373872966 -0.0017576519623266334 0.0 0.0014815253775324684 0.0 0.0
0.003851556772275484 -0.0016452546057576416 0.0 0.0014558234589375338 0.0 0.0
0.0035782721764509888 -0.0015313477374118512 0.0 0.001441687424892407 0.0 0.0
0.0033038771216867165 -0.0014153548129864535 0.0 0.0014358838797277694 0.0 0.0
0.003028865886234331 -0.001298149033951387 0.0 0.0014343791882356885 0.0 0.0
0.0027536550945253158 -0.0011804454690665575 0.0 0.0014346904625282223 0.0 0.0
0.002478403930761477 -0.001062483209941033 0.0 0.0014353514274574096 0.0 0.0
0.0022030250648387983 -0.0009439421232278499 0.0 0.0014345491749168423 0.0 0.0
0.0019270412181316763 -0.0008237488563137591 0.0 0.0014282118435633955 0.0 0.0
0.0016490910326885612 -0.0006993609116578945 0.0 0.0014072059920579125 0.0 0.0
0.0013664460428934615 -0.0005667379589587268 0.0 0.0013566123001269594 0.0 0.0
0.0010646254460884238 -0.0004198062605181268 0.0 0.0012557785121617231 0.0 0.0
0.0006897215969009761 -0.000222332911250335 0.0 0.0011153647849429745 0.0 0.0
0.00028727108164390943 3.251970370869984e-05 0.0 0.001265072940599181 0.0 0.0
0.00043265208650766426 -0.00044379028025495206 0.0 0.0019433768651037362 0.0 0.0
0.0007644691761857751 -0.003578919952854051 0.0 0.0018826799193117924 0.0 0.0
0.0006700411920848991 -0.0030238539731999394 0.0 -0.001745521933247545 0.0 0.0
0.0003605156217107419 -0.0005558782513069414 0.0 -0.002021791886707484 0.0 0.0
0.00016564801402110162 4.977918414978399e-05 0.0 -0.0016000490868603127 0.0 0.0
0.0004706706897563478 -0.00011123569551154452 0.0 -0.001372285786731147 0.0 0.0
0.000807597915507224 -0.0002998797310411454 0.0 -0.0014506338319913562 0.0 0.0
0.0010768354855762564 -0.00043865360906411067 0.0 -0.0015382934132916778 0.0 0.0
0.0013143337109682487 -0.0005540345296899033 0.0 -0.0015851406255312842 0.0 0.0
0.001540768689323709 -0.0006576352321011887 0.0 -0.0016050404439104501 0.0 0.0
0.001762764601137767 -0.000755194001173377 0.0 -0.001611296718726495 0.0 0.0
0.001983213231340838 -0.000850320319016457 0.0 -0.0016121887262157376 0.0 0.0
0.002203306048772976 -0.0009446491125311709 0.0 -0.0016116463088775585 0.0 0.0
0.0024232971223974407 -0.0010386288028278055 0.0 -0.001611405393311253 0.0 0.0
0.0026428639891746845 -0.0011319178655508507 0.0 -0.0016128502649961573 0.0 0.0
0.002861109912328972 -0.0012234774984354994 0.0 -0.0016182689655177152 0.0 0.0
0.003076732674900541 -0.0013119202144400727 0.0 -0.0016314299084116454 0.0 0.0
0.0032894849103346988 -0.0013975579202716883 0.0 -0.0016557349022454822 0.0 0.0
0.0035039934494445375 -0.001488236997402008 0.0 -0.0016842150213461928 0.0 0.0
0.0037327662734538726 -0.0016075010126103979 0.0 -0.0016717383933377106 0.0 0.0
0.003984059629093375 -0.001789981445268516 0.0 -0.001492369658855166 0.0 0.0
0.004218226617402542 -0.0020281386568682157 0.0 -0.0009497148451145873 0.0 0.0
0.004321135849125036 -0.0021717865749180812 0.0 5.683929889255257e-17 0.0 0.0
0.004218226617402577 -0.0020281386568685605 0.0 0.0009497148451146564 0.0 0.0
0.0039840596290933745 -0.0017899814452684223 0.0 0.0014923696588551088 0.0 0.0
0.0037327662734538327 -0.0016075010126102359 0.0 0.0016717383933376366 0.0 0.0
0.003503993449444536 -0.001488236997401981 0.0 0.001684215021346253 0.0 0.0
0.0032894849103346935 -0.0013975579202720355 0.0 0.0016557349022454874 0.0 0.0
0.0030767326749005287 -0.0013119202144402239 0.0 0.0016314299084117423 0.0 0.0
0.002861109912328982 -0.0012234774984355955 0.0 0.0016182689655177857 0.0 0.0
0.0026428639891746914 -0.0011319178655506748 0.0 0.0016128502649960864 0.0 0.0
0.00242329712239744 -0.0010386288028277069 0.0 0.0016114053933112067 0.0 0.0
0.0022033060487729687 -0.000944649112531299 0.0 0.0016116463088777066 0.0 0.0
0.00198321323134083 -0.0008503203190162331 0.0 0.0016121887262157992 0.0 0.0
0.001762764601137763 -0.0007551940011733908 0.0 0.00161129671872666 0.0 0.0
0.0015407686893237219 -0.0006576352321013082 0.0 0.0016050404439104133 0.0 0.0
0.0013143337109682567 -0.000554034529689873 0.0 0.0015851406255313468 0.0 0.0
0.0010768354855762452 -0.0004386536090640941 0.0 0.001538293413291714 0.0 0.0
0.0008075979155072225 -0.00029987973104107584 0.0 0.0014506338319913506 0.0 0.0
0.0004706706897563435 -0.00011123569551150288 0.0 0.0013722857867311741 0.0 0.0
0.00016564801402108565 4.9779184149804095e-05 0.0 0.0016000490868603352 0.0 0.0
0.00036051562171072744 -0.0005558782513069448 0.0 0.0020217918867074993 0.0 0.0
0.0006700411920848899 -0.0030238539731999386 0.0 0.0017455219332475167 0.0 0.0
0.000584647639939186 -0.002540359190555318 0.0 -0.001599151978778361 0.0 0.0
0.0003016406922665955 -0.0006108541793665351 0.0 -0.002039649754107382 0.0 0.0
7.14538117041e-05 4.738132278454092e-05 0.0 -0.0018580346962770071 0.0 0.0
0.000278163580472851 -2.136461743817584e-05 0.0 -0.0016062295475426553 0.0 0.0
0.0005596663776530188 -0.0001848753917266137 0.0 -0.0016231546638986031 0.0 0.0
0.0007886232199797751 -0.0003112941739230522 0.0 -0.0016872866829937148 0.0 0.0
0.0009797207821980029 -0.00040900512440328985 0.0 -0.0017262686817652085 0.0 0.0
0.0011543986540639513 -0.0004915095881134216 0.0 -0.0017432452261247602 0.0 0.0
0.0013223682703668825 -0.0005663815440225648 0.0 -0.0017487483585787475 0.0 0.0
0.0014879326530561267 -0.0006381093849462877 0.0 -0.0017496120990008787 0.0 0.0
0.001652897121465044 -0.0007088168412274253 0.0 -0.0017492064931767708 0.0 0.0
0.0018176823925457938 -0.0007790853382935355 0.0 -0.0017490353009635639 0.0 0.0
0.0019818365946730927 -0.0008484882151703106 0.0 -0.001750263816136143 0.0 0.0
0.0021440604723754458 -0.0009157163586032508 0.0 -0.0017547844223178308 0.0 0.0
0.0023023471660788236 -0.0009789285916575053 0.0 -0.0017658131770776373 0.0 0.0
0.002455843168788164 -0.0010381080973078263 0.0 -0.001786887403936145 0.0 0.0
0.0026105778301242287 -0.0011025032316266605 0.0 -0.001813845818865025 0.0 0.0
0.0027863614178025337 -0.0012026726531980515 0.0 -0.0018067808533988724 0.0 0.0
0.003005910145078144 -0.0013890079405300183 0.0 -0.0016348928163356536 0.0 0.0
0.0032375008306635184 -0.0016666554207837062 0.0 -0.001061959929792651 0.0 0.0
0.003346210325407654 -0.0018497704518404203 0.0 5.957690937807847e-17 0.0 0.0
0.003237500830663523 -0.0016666554207840955 0.0 0.0010619599297926946 0.0 0.0
0.0030059101450781445 -0.0013890079405297628 0.0 0.0016348928163356495 0.0 0.0
0.002786361417802524 -0.0012026726531977484 0.0 0.0018067808533988225 0.0 0.0
0.002610577830124231 -0.0011025032316269881 0.0 0.0018138458188650614 0.0 0.0
0.0024558431687881784 -0.0010381080973079855 0.0 0.0017868874039361615 0.0 0.0
0.0023023471660788353 -0.0009789285916573414 0.0 0.0017658131770776492 0.0 0.0
0.0021440604723754735 -0.0009157163586037353 0.0 0.001754784422317962 0.0 0.0
0.001981836594673094 -0.0008484882151701738 0.0 0.001750263816136112 0.0 0.0
0.001817682392545795 -0.0007790853382934546 0.0 0.0017490353009634294 0.0 0.0
0.0016528971214650507 -0.0007088168412277367 0.0 0.0017492064931768393 0.0 0.0
0.0014879326530561141 -0.0006381093849462874 0.0 0.0017496120990008117 0.0 0.0
0.0013223682703668656 -0.000566381544022619 0.0 0.0017487483585787544 0.0 0.0
0.001154398654063962 -0.0004915095881134658 0.0 0.0017432452261247383 0.0 0.0
0.0009797207821980024 -0.00040900512440322925 0.0 0.0017262686817652597 0.0 0.0
0.0007886232199797712 -0.0003112941739230162 0.0 0.0016872866829937428 0.0 0.0
0.0005596663776530401 -0.00018487539172661402 0.0 0.0016231546638985719 0.0 0.0
0.0002781635804728517 -2.1364617438053966e-05 0.0 0.0016062295475426768 0.0 0.0
7.14538117041045e-05 4.7381322784563996e-05 0.0 0.0018580346962770154 0.0 0.0
0.00030164069226659576 -0.0006108541793665146 0.0 0.0020396497541074173 0.0 0.0
0.0005846476399391826 -0.002540359190555323 0.0 0.001599151978778372 0.0 0.0
0.0005032558606699155 -0.0021161878375503067 0.0 -0.0014577772375395622 0.0 0.0
0.0002473174719431341 -0.0006209819618690397 0.0 -0.002013489898609029 0.0 0.0
-7.02753824266939e-06 3.945625992142033e-05 0.0 -0.0020384968585719903 0.0 0.0
0.00010697796121654591 5.123830111810349e-05 0.0 -0.0018011918934296937 0.0 0.0
0.00032227035490867026 -7.695100111631452e-05 0.0 -0.001767554518060134 0.0 0.0
0.0005033184135244601 -0.00018574267129859196 0.0 -0.0018027321808177649 0.0 0.0
0.00064574627050403 -0.00026456486700907956 0.0 -0.0018302159403989536 0.0 0.0
0.0007681005853083993 -0.00032551690242551895 0.0 -0.0018427787039698132 0.0 0.0
0.0008818828923141725 -0.0003775353763944398 0.0 -0.0018469426873630457 0.0 0.0
0.0009925573591337076 -0.000425844701719882 0.0 -0.0018476472719882787 0.0 0.0
0.001102418655703721 -0.00047294109754184076 0.0 -0.0018473832528812083 0.0 0.0
0.0012120271026138997 -0.000519521876221898 0.0 -0.0018472721706495514 0.0 0.0
0.0013208413475331022 -0.000565099916966065 0.0 -0.0018481512441514843 0.0 0.0
0.0014272612423922937 -0.0006081662860192196 0.0 -0.001851359809762343 0.0 0.0
0.001528699847826066 -0.0006465116953170864 0.0 -0.0018593125372954856 0.0 0.0
0.0016236323011945104 -0.0006796754518361035 0.0 -0.0018755491219646417 0.0 0.0
0.0017190176826950138 -0.0007176647737361995 0.0 -0.001899914245728213 0.0 0.0
0.0018417666321737594 -0.0007974333129313611 0.0 -0.0019024213114745003 0.0 0.0
0.002031062951788868 -0.0009873470075702083 0.0 -0.0017537496637760892 0.0 0.0
0.0022658549771402384 -0.0013124444936211453 0.0 -0.001171538227698237 0.0 0.0
0.0023845473025500127 -0.0015483278413685186 0.0 1.49890950346121e-17 0.0 0.0
0.0022658549771402163 -0.0013124444936213552 0.0 0.0011715382276982142 0.0 0.0
0.002031062951788867 -0.0009873470075701602 0.0 0.0017537496637761276 0.0 0.0
0.0018417666321737707 -0.0007974333129314004 0.0 0.0019024213114743412 0.0 0.0
0.001719017682695034 -0.0007176647737359023 0.0 0.0018999142457280043 0.0 0.0
0.0016236323011945121 -0.0006796754518363442 0.0 0.0018755491219647142 0.0 0.0
0.0015286998478260567 -0.0006465116953165551 0.0 0.0018593125372953806 0.0 0.0
0.0014272612423922983 -0.0006081662860198428 0.0 0.0018513598097624055 0.0 0.0
0.0013208413475330881 -0.0005650999169660597 0.0 0.00184815124415149 0.0 0.0
0.0012120271026138769 -0.000519521876221764 0.0 0.0018472721706494057 0.0 0.0
0.0011024186557037192 -0.000472941097542029 0.0 0.0018473832528810414 0.0 0.0
0.0009925573591337163 -0.000425844701720271 0.0 0.0018476472719882943 0.0 0.0
0.0008818828923141657 -0.0003775353763943687 0.0 0.001846942687362991 0.0 0.0
0.0007681005853084211 -0.00032551690242556454 0.0 0.0018427787039699286 0.0 0.0
0.0006457462705040694 -0.0002645648670089823 0.0 0.0018302159403988851 0.0 0.0
0.0005033184135244617 -0.00018574267129862037 0.0 0.0018027321808177866 0.0 0.0
0.0003222703549086785 -7.695100111629185e-05 0.0 0.0017675545180600599 0.0 0.0
0.00010697796121653793 5.123830111818268e-05 0.0 0.0018011918934297344 0.0 0.0
-7.027538242689307e-06 3.9456259921450475e-05 0.0 0.0020384968585719383 0.0 0.0
0.000247317471943131 -0.000620981961869061 0.0 0.0020134898986089787 0.0 0.0
0.0005032558606699142 -0.0021161878375502985 0.0 0.0014577772375396394 0.0 0.0
0.00042401343851752155 -0.0017415589112842345 0.0 -0.0013251338128553425 0.0 0.0
0.00019342620994869167 -0.0005976464907932817 0.0 -0.0019540844401247097 0.0 0.0
-7.741565519430086e-05 3.4179201817696783e-05 0.0 -0.0021467146903274155 0.0 0.0
-4.804896964374827e-05 0.00011124809897955374 0.0 -0.0019477115763450919 0.0 0.0
9.531620764613234e-05 2.3318584638492697e-05 0.0 -0.0018777424027769754 0.0 0.0
0.00022190460597298447 -6.287166010200664e-05 0.0 -0.0018829985779016444 0.0 0.0
0.00031285357650804186 -0.00012099422540165735 0.0 -0.0018964784535342506 0.0 0.0
0.00038201245046918337 -0.0001597603720102961 0.0 -0.0019034907749142407 0.0 0.0
0.000441347584315782 -0.0001886857712095042 0.0 -0.0019058833716556526 0.0 0.0
0.0004970871412911504 -0.00021352399657709845 0.0 -0.0019063164792717576 0.0 0.0
0.0005518643453094253 -0.00023701669035476527 0.0 -0.001906191130247709 0.0 0.0
0.0006063363317544958 -0.0002599418557860628 0.0 -0.0019061302275508183 0.0 0.0
0.0006599131135919404 -0.00028177911201827444 0.0 -0.0019065648679267209 0.0 0.0
0.0007108134007674608 -0.0003009014883727449 0.0 -0.0019081772341385098 0.0 0.0
0.0007560276074811709 -0.00031484721685016645 0.0 -0.0019123810704141445 0.0 0.0
0.0007932536159029482 -0.0003225965724956075 0.0 -0.0019224240612947122 0.0 0.0
0.0008295330586554457 -0.00033396694237852834 0.0 -0.0019428163523830771 0.0 0.0
0.0008979829756303561 -0.0003908793545996018 0.0 -0.0019582080773542696 0.0 0.0
0.0010564977129434378 -0.0005817125515925073 0.0 -0.0018493399715779455 0.0 0.0
0.0012995974061267412 -0.0009618943415983471 0.0 -0.001282031030954992 0.0 0.0
0.0014328417954088287 -0.0012685431074213438 0.0 -1.7184604433895245e-17 0.0 0.0
0.0012995974061267175 -0.0009618943415984514 0.0 0.001282031030954994 0.0 0.0
0.0010564977129434402 -0.0005817125515924668 0.0 0.0018493399715779524 0.0 0.0
0.000897982975630351 -0.00039087935459962083 0.0 0.0019582080773543264 0.0 0.0
0.0008295330586554565 -0.0003339669423779231 0.0 0.0019428163523829067 0.0 0.0
0.0007932536159029279 -0.00032259657249586584 0.0 0.0019224240612947842 0.0 0.0
0.0007560276074811537 -0.0003148472168500842 0.0 0.001912381070414095 0.0 0.0
0.0007108134007674903 -0.00030090148837284993 0.0 0.0019081772341385324 0.0 0.0
0.0006599131135919316 -0.00028177911201831104 0.0 0.001906564867926799 0.0 0.0
0.0006063363317544744 -0.0002599418557860073 0.0 0.0019061302275509137 0.0 0.0
0.0005518643453094436 -0.00023701669035458214 0.0 0.0019061911302477646 0.0 0.0
0.000497087141291155 -0.0002135239965771137 0.0 0.0019063164792718678 0.0 0.0
0.00044134758431576025 -0.00018868577120948252 0.0 0.0019058833716557077 0.0 0.0
0.00038201245046918993 -0.00015976037201057607 0.0 0.0019034907749143526 0.0 0.0
0.00031285357650805823 -0.00012099422540156037 0.0 0.0018964784535342159 0.0 0.0
0.00022190460597296748 -6.287166010222093e-05 0.0 0.0018829985779016223 0.0 0.0
9.53162076461191e-05 2.331858463861694e-05 0.0 0.0018777424027768726 0.0 0.0
-4.804896964374612e-05 0.00011124809897953471 0.0 0.0019477115763449834 0.0 0.0
-7.741565519429117e-05 3.417920181769129e-05 0.0 0.002146714690327406 0.0 0.0
0.00019342620994870592 -0.0005976464907932771 0.0 0.0019540844401246833 0.0 0.0
0.00042401343851752144 -0.001741558911284231 0.0 0.0013251338128554486 0.0 0.0
0.00034659006002116005 -0.0014091801556034406 0.0 -0.0012003410709996807 0.0 0.0
0.00013833175020562028 -0.0005504507163453168 0.0 -0.0018680422377544805 0.0 0.0
-0.0001444617162958982 3.576778982016119e-05 0.0 -0.0021896298605705695 0.0 0.0
-0.00019136662631749109 0.00016290247785461664 0.0 -0.0020410213200045373 0.0 0.0
-0.00012216425941284235 0.00011637181804270144 0.0 -0.0019484488579444475 0.0 0.0
-5.5179588080587755e-05 5.681993532091352e-05 0.0 -0.0019259859765722188 0.0 0.0
-1.8639793212278937e-05 2.1481171177993258e-05 0.0 -0.0019243901667807101 0.0 0.0
-3.7642310234306983e-06 5.692169167694424e-06 0.0 -0.0019251731856894895 0.0 0.0
7.886763554087591e-07 1.4654921977961857e-07 0.0 -0.0019255452869845692 0.0 0.0
1.5234168785615025e-06 -1.1473540223346353e-06 0.0 -0.001925638055250858 0.0 0.0
1.2306946976239842e-06 -1.04047468618495e-06 0.0 -0.0019256466876495714 0.0 0.0
6.134313563746534e-07 -3.476189383330421e-07 0.0 -0.0019256311909285318 0.0 0.0
-9.274554839093919e-07 1.4580024838990849e-06 0.0 -0.0019255745373779002 0.0 0.0
-5.225090679661959e-06 6.036224771256967e-06 0.0 -0.0019254536854421299 0.0 0.0
-1.5510109378661e-05 1.5955447894296066e-05 0.0 -0.0019255565860793783 0.0 0.0
-3.493042453616198e-05 3.283680738624837e-05 0.0 -0.0019283837898101674 0.0 0.0
-5.752265349024896e-05 4.8202789319370475e-05 0.0 -0.0019429217504762526 0.0 0.0
-4.577383206272545e-05 1.7618121856363297e-05 0.0 -0.0019727122292627435 0.0 0.0
7.911146768040084e-05 -0.00016857817037132855 0.0 -0.0019203289112943549 0.0 0.0
0.00033490692689536417 -0.0006106616590228486 0.0 -0.0013968388235097743 0.0 0.0
0.00048787170233136783 -0.0010129267625659207 0.0 3.810970636286548e-17 0.0 0.0
0.0003349069268953235 -0.0006106616590227301 0.0 0.0013968388235097795 0.0 0.0
7.911146768039683e-05 -0.0001685781703712703 0.0 0.0019203289112944334 0.0 0.0
-4.5773832062712144e-05 1.7618121856278723e-05 0.0 0.0019727122292627374 0.0 0.0
-5.7522653490237966e-05 4.8202789319645645e-05 0.0 0.0019429217504762378 0.0 0.0
-3.493042453615369e-05 3.2836807386327556e-05 0.0 0.0019283837898100816 0.0 0.0
-1.5510109378673225e-05 1.595544789435295e-05 0.0 0.001925556586079481 0.0 0.0
-5.225090679659763e-06 6.036224771229208e-06 0.0 0.0019254536854422539 0.0 0.0
-9.274554839168187e-07 1.458002483916693e-06 0.0 0.0019255745373779696 0.0 0.0
6.134313563731491e-07 -3.476189381614095e-07 0.0 0.001925631190928599 0.0 0.0
1.230694697626932e-06 -1.040474685970327e-06 0.0 0.0019256466876496703 0.0 0.0
1.5234168785609197e-06 -1.1473540222222662e-06 0.0 0.0019256380552508134 0.0 0.0
7.886763554069295e-07 1.4654921977962196e-07 0.0 0.001925545286984685 0.0 0.0
-3.76423102342153e-06 5.692169167544126e-06 0.0 0.0019251731856895463 0.0 0.0
-1.863979321228534e-05 2.1481171177932163e-05 0.0 0.0019243901667806988 0.0 0.0
-5.5179588080599044e-05 5.681993532082383e-05 0.0 0.0019259859765721537 0.0 0.0
-0.00012216425941283718 0.00011637181804275613 0.0 0.0019484488579444553 0.0 0.0
-0.00019136662631749488 0.0001629024778546538 0.0 0.0020410213200045373 0.0 0.0
-0.00014446171629590695 3.576778982011565e-05 0.0 0.002189629860570586 0.0 0.0
0.00013833175020562373 -0.0005504507163452769 0.0 0.0018680422377545256 0.0 0.0
0.0003465900600211722 -0.0014091801556034504 0.0 0.0012003410709996876 0.0 0.0
0.0002713958252382079 -0.0011140190523876064 0.0 -0.001080691755449064 0.0 0.0
8.17525761967493e-05 -0.0004871327814466857 0.0 -0.001759177343388214 0.0 0.0
-0.00021094197330745105 4.592077086576466e-05 0.0 -0.002174020269629315 0.0 0.0
-0.00032651345742837595 0.00020957725161878314 0.0 -0.002079351658986222 0.0 0.0
-0.00033154929260190125 0.00020318193373612407 0.0 -0.001975563467745115 0.0 0.0
-0.0003279609201064902 0.00017321826357057988 0.0 -0.001929468783351893 0.0 0.0
-0.00034858762968773227 0.00016273929274032923 0.0 -0.0019131562253078102 0.0 0.0
-0.00038917616439442177 0.00017080853884472442 0.0 -0.0019075843417749386 0.0 0.0
-0.00043978221628746233 0.00018895325183749287 0.0 -0.0019058881045507041 0.0 0.0
-0.00049413268959538 0.00021128451521633667 0.0 -0.0019056270993910167 0.0 0.0
-0.000549483521192909 0.00023498871771545434 0.0 -0.0019057676804270407 0.0 0.0
-0.0006051408328152485 0.0002592604512640452 0.0 -0.0019058003467627522 0.0 0.0
-0.0006616749761413893 0.0002846063161084184 0.0 -0.0019052590991196728 0.0 0.0
-0.0007208428940088348 0.0003126382069223202 0.0 -0.001903419187625093 0.0 0.0
-0.0007858489228644268 0.0003458683593024894 0.0 -0.0018994201924968134 0.0 0.0
-0.0008606150698495603 0.00038640866478493227 0.0 -0.0018944954827356361 0.0 0.0
-0.0009415866575686457 0.000428262188583954 0.0 -0.0019008032817982236 0.0 0.0
-0.0009898676394283876 0.0004281704810812333 0.0 -0.0019436581633910997 0.0 0.0
-0.0009042243295336514 0.000255731016845986 0.0 -0.0019632047894483987 0.0 0.0
-0.0006323496432179251 -0.00025314144658155084 0.0 -0.0015191064433037796 0.0 0.0
-0.000453730256162832 -0.0007857951365220103 0.0 1.2902005852577503e-17 0.0 0.0
-0.0006323496432179452 -0.0002531414465814269 0.0 0.0015191064433036894 0.0 0.0
-0.0009042243295336596 0.00025573101684600634 0.0 0.001963204789448486 0.0 0.0
-0.0009898676394283906 0.0004281704810810248 0.0 0.0019436581633911184 0.0 0.0
-0.0009415866575686379 0.0004282621885841185 0.0 0.0019008032817983025 0.0 0.0
-0.0008606150698495468 0.00038640866478482835 0.0 0.0018944954827355693 0.0 0.0
-0.0007858489228644266 0.0003458683593026765 0.0 0.0018994201924967405 0.0 0.0
-0.0007208428940088458 0.0003126382069220762 0.0 0.001903419187625008 0.0 0.0
-0.0006616749761414062 0.0002846063161086598 0.0 0.001905259099119806 0.0 0.0
-0.0006051408328152528 0.0002592604512641146 0.0 0.0019058003467627366 0.0 0.0
-0.0005494835211929004 0.0002349887177153193 0.0 0.0019057676804269136 0.0 0.0
-0.0004941326895953587 0.0002112845152162812 0.0 0.0019056270993909144 0.0 0.0
-0.000439782216287462 0.00018895325183756868 0.0 0.0019058881045506903 0.0 0.0
-0.00038917616439443126 0.00017080853884467913 0.0 0.0019075843417749173 0.0 0.0
-0.00034858762968773276 0.0001627392927402326 0.0 0.0019131562253077135 0.0 0.0
-0.0003279609201064981 0.0001732182635706039 0.0 0.001929468783351943 0.0 0.0
-0.0003315492926018995 0.00020318193373605514 0.0 0.0019755634677451495 0.0 0.0
-0.0003265134574283827 0.00020957725161881884 0.0 0.0020793516589861453 0.0 0.0
-0.00021094197330743768 4.59207708657727e-05 0.0 0.0021740202696293102 0.0 0.0
8.175257619675726e-05 -0.0004871327814467072 0.0 0.0017591773433882495 0.0 0.0
0.00027139582523817994 -0.0011140190523875918 0.0 0.0010806917554489267 0.0 0.0
0.0001992206456740152 -0.0008529923378629506 0.0 -0.0009630066829852161 0.0 0.0
2.4165724560829253e-05 -0.00041378682226878764 0.0 -0.0016295455557552624 0.0 0.0
-0.0002782611943684277 6.47729199439928e-05 0.0 -0.0021057889331395118 0.0 0.0
-0.00045612535172222615 0.00025371014792669 0.0 -0.002062630519286369 0.0 0.0
-0.0005343379872436548 0.0002849319757456281 0.0 -0.0019560632385097264 0.0 0.0
-0.0005968264399107885 0.00028653811215762664 0.0 -0.0018913473383323307 0.0 0.0
-0.0006770289488378681 0.0003027898385110809 0.0 -0.0018619325442359087 0.0 0.0
-0.0007742288028208238 0.000335596813166455 0.0 -0.0018504725774173003 0.0 0.0
-0.000880369027796282 0.0003777383167165379 0.0 -0.0018468696032483368 0.0 0.0
-0.0009898809333397608 0.00042377117021716033 0.0 -0.0018462978754490728 0.0 0.0
-0.0011002774848988845 0.00047107007064342706 0.0 -0.001846572005516483 0.0 0.0
-0.0012109286669436965 0.0005188841837269962 0.0 -0.001846662168698901 0.0 0.0
-0.0013223391525845687 0.0005676726137341575 0.0 -0.0018456974035210901 0.0 0.0
-0.0014360736926555774 0.0006189256219722546 0.0 -0.0018422982872253013 0.0 0.0
-0.001555036802072919 0.0006749516101410666 0.0 -0.0018345406172507323 0.0 0.0
-0.001683603897840931 0.0007380381687575068 0.0 -0.0018220142318791644 0.0 0.0
-0.001821843387004726 0.0008054355826936353 0.0 -0.0018175668689096444 0.0 0.0
-0.0019339674499536776 0.0008400544792430672 0.0 -0.0018682622377152185 0.0 0.0
-0.0018965233709745768 0.000694791006050019 0.0 -0.001971597847250646 0.0 0.0
-0.0016068424051868713 0.00011830351359777669 0.0 -0.0016513505164651684 0.0 0.0
-0.0013958097657372534 -0.0005938129256129307 0.0 -6.819631664933823e-17 0.0 0.0
-0.0016068424051868763 0.0001183035135977869 0.0 0.001651350516465022 0.0 0.0
-0.001896523370974566 0.0006947910060501353 0.0 0.0019715978472505937 0.0 0.0
-0.0019339674499536672 0.0008400544792430901 0.0 0.0018682622377153096 0.0 0.0
-0.0018218433870047204 0.0008054355826935016 0.0 0.0018175668689096986 0.0 0.0
-0.0016836038978409328 0.0007380381687572819 0.0 0.0018220142318791242 0.0 0.0
-0.0015550368020729153 0.0006749516101408266 0.0 0.00183454061725075 0.0 0.0
-0.0014360736926555839 0.0006189256219723808 0.0 0.0018422982872253564 0.0 0.0
-0.0013223391525845857 0.0005676726137345025 0.0 0.0018456974035211556 0.0 0.0
-0.0012109286669436967 0.0005188841837268103 0.0 0.0018466621686988442 0.0 0.0
-0.0011002774848988723 0.0004710700706432212 0.0 0.0018465720055164873 0.0 0.0
-0.0009898809333397454 0.00042377117021716174 0.0 0.0018462978754490776 0.0 0.0
-0.0008803690277962924 0.0003777383167165935 0.0 0.001846869603248186 0.0 0.0
-0.0007742288028208241 0.00033559681316656584 0.0 0.001850472577417299 0.0 0.0
-0.0006770289488378544 0.0003027898385108673 0.0 0.001861932544235841 0.0 0.0
-0.0005968264399107782 0.0002865381121576407 0.0 0.0018913473383323047 0.0 0.0
-0.0005343379872436685 0.00028493197574557655 0.0 0.0019560632385096804 0.0 0.0
-0.00045612535172224794 0.00025371014792668813 0.0 0.002062630519286253 0.0 0.0
-0.00027826119436842606 6.477291994399392e-05 0.0 0.0021057889331395742 0.0 0.0
2.4165724560830544e-05 -0.0004137868222688194 0.0 0.0016295455557551774 0.0 0.0
0.00019922064567401705 -0.0008529923378629302 0.0 0.0009630066829851261 0.0 0.0
0.00013108844877977925 -0.0006246516932030915 0.0 -0.000844333059086903 0.0 0.0
-3.34780159000338e-05 -0.00033517204050789967 0.0 -0.0014802116562770003 0.0 0.0
-0.00034682734546690803 9.148001444208189e-05 0.0 -0.0019897520805007324 0.0 0.0
-0.0005820249583924647 0.0002968756068179005 0.0 -0.001991536972531005 0.0 0.0
-0.0007319963457278671 0.0003628303714841339 0.0 -0.0018877708330439138 0.0 0.0
-0.0008624302743661274 0.0003972514515448259 0.0 -0.0018097977566423795 0.0 0.0
-0.001004179380881244 0.00044177940478502256 0.0 -0.0017699198283138823 0.0 0.0
-0.0011589906202787207 0.0005001085750355931 0.0 -0.001753604781691376 0.0 0.0
-0.0013209909681820924 0.0005665167754976863 0.0 -0.0017484573955432688 0.0 0.0
-0.001485721518362453 0.0006363122941324511 0.0 -0.00174766672466476 0.0 0.0
-0.0016511480603704585 0.0007072006442475928 0.0 -0.0017480768014095887 0.0 0.0
-0.001816754998179724 0.0007785269526165321 0.0 -0.0017482361461125353 0.0 0.0
-0.0019829442496780043 0.0008506765087758794 0.0 -0.0017469574885522628 0.0 0.0
-0.0021509890239299664 0.0009249441104334703 0.0 -0.0017422985640724224 0.0 0.0
-0.0023232426499119434 0.001003343191122785 0.0 -0.0017314144079763202 0.0 0.0
-0.0025038984873196686 0.0010878643465815764 0.0 -0.0017122865690449038 0.0 0.0
-0.0026972534528248685 0.0011788644183128897 0.0 -0.0016952490037647182 0.0 0.0
-0.0028766820998703843 0.0012513176181047619 0.0 -0.0017439886096818 0.0 0.0
-0.0029003746067846063 0.0011515172278554827 0.0 -0.0019353530265287747 0.0 0.0
-0.002594061454052475 0.0005144720984458491 0.0 -0.001794487871546322 0.0 0.0
-0.0023432372304278233 -0.00044669920048125107 0.0 1.4094628242311558e-18 0.0 0.0
-0.0025940614540524718 0.0005144720984459933 0.0 0.00179448787154628 0.0 0.0
-0.0029003746067846046 0.0011515172278555408 0.0 0.0019353530265285874 0.0 0.0
-0.0028766820998703696 0.001251317618104801 0.0 0.0017439886096817397 0.0 0.0
-0.0026972534528248455 0.0011788644183128247 0.0 0.00169524900376463 0.0 0.0
-0.002503898487319687 0.00108786434658189 0.0 0.0017122865690448194 0.0 0.0
-0.0023232426499119685 0.0010033431911227074 0.0 0.0017314144079763959 0.0 0.0
-0.002150989023929956 0.0009249441104338153 0.0 0.0017422985640725172 0.0 0.0
-0.0019829442496779913 0.0008506765087758642 0.0 0.0017469574885523695 0.0 0.0
-0.001816754998179734 0.0007785269526164242 0.0 0.0017482361461125216 0.0 0.0
-0.0016511480603704596 0.0007072006442478266 0.0 0.0017480768014096252 0.0 0.0
-0.0014857215183624384 0.0006363122941325936 0.0 0.0017476667246647138 0.0 0.0
-0.0013209909681821002 0.0005665167754979047 0.0 0.0017484573955433244 0.0 0.0
-0.0011589906202787187 0.0005001085750358689 0.0 0.001753604781691372 0.0 0.0
-0.0010041793808812439 0.00044177940478490915 0.0 0.0017699198283139014 0.0 0.0
-0.0008624302743661413 0.0003972514515447514 0.0 0.0018097977566423592 0.0 0.0
-0.0007319963457278768 0.0003628303714842363 0.0 0.0018877708330438305 0.0 0.0
-0.0005820249583924595 0.0002968756068179744 0.0 0.0019915369725309736 0.0 0.0
-0.0003468273454669143 9.148001444201228e-05 0.0 0.0019897520805007003 0.0 0.0
-3.347801590004808e-05 -0.00033517204050790016 0.0 0.0014802116562769945 0.0 0.0
0.00013108844877978188 -0.0006246516932030958 0.0 0.000844333059086917 0.0 0.0
6.823544837413579e-05 -0.00042888850707233225 0.0 -0.0007223963484659076 0.0 0.0
-8.984079908030208e-05 -0.0002550360918686748 0.0 -0.001311837629310014 0.0 0.0
-0.0004162480349796477 0.00012452959762402445 0.0 -0.0018295958584259157 0.0 0.0
-0.0007053361528610032 0.0003399185642500008 0.0 -0.0018667991065764822 0.0 0.0
-0.0009259038054461413 0.0004380383002648747 0.0 -0.0017690764443234037 0.0 0.0
-0.0011256267722164353 0.0005060261840693045 0.0 -0.001683351660114074 0.0 0.0
-0.0013304091345849299 0.0005799791477068165 0.0 -0.0016364516948839695 0.0 0.0
-0.001543589525117457 0.0006644373321394219 0.0 -0.0016167987918541784 0.0 0.0
-0.0017616804830199242 0.0007553124774017179 0.0 -0.0016106394416785235 0.0 0.0
-0.001981653907084298 0.0008489066784273094 0.0 -0.001609754562197422 0.0 0.0
-0.0022020891323371278 0.0009433752550753851 0.0 -0.0016102973606211934 0.0 0.0
-0.0024226261089022407 0.0010381918831363424 0.0 -0.0016105343943443192 0.0 0.0
-0.0026435290222918675 0.001133650400637193 0.0 -0.001609082754399517 0.0 0.0
-0.0028656881954269692 0.0012307631360408714 0.0 -0.0016036022348969417 0.0 0.0
-0.003090741733241767 0.001331221468842101 0.0 -0.0015904361754359 0.0 0.0
-0.0033218217329987042 0.0014363247088018099 0.0 -0.0015665084268253957 0.0 0.0
-0.003566728426189808 0.0015479183683951858 0.0 -0.0015371315463826322 0.0 0.0
-0.003815101241864939 0.0016583623315096746 0.0 -0.0015700863663240612 0.0 0.0
-0.0039172984954288165 0.001626986629686337 0.0 -0.0018395026087996125 0.0 0.0
-0.003600664113351846 0.000950962444517539 0.0 -0.0019455857991629078 0.0 0.0
-0.003302876011142458 -0.00035801417640772906 0.0 4.87890977618477e-17 0.0 0.0
-0.0036006641133518548 0.0009509624445175925 0.0 0.0019455857991628953 0.0 0.0
-0.003917298495428802 0.0016269866296861018 0.0 0.0018395026087995613 0.0 0.0
-0.0038151012418649113 0.0016583623315096366 0.0 0.0015700863663241761 0.0 0.0
-0.0035667284261898004 0.0015479183683951413 0.0 0.001537131546382626 0.0 0.0
-0.0033218217329986886 0.00143632470880206 0.0 0.0015665084268254542 0.0 0.0
-0.003090741733241782 0.0013312214688423892 0.0 0.0015904361754358032 0.0 0.0
-0.0028656881954270052 0.0012307631360410217 0.0 0.0016036022348969222 0.0 0.0
-0.0026435290222918666 0.0011336504006368446 0.0 0.0016090827543995061 0.0 0.0
-0.0024226261089022234 0.0010381918831366156 0.0 0.001610534394344241 0.0 0.0
-0.0022020891323371403 0.0009433752550754048 0.0 0.0016102973606211912 0.0 0.0
-0.001981653907084277 0.0008489066784273219 0.0 0.0016097545621973934 0.0 0.0
-0.0017616804830199017 0.0007553124774018836 0.0 0.0016106394416785046 0.0 0.0
-0.001543589525117458 0.0006644373321393874 0.0 0.0016167987918542098 0.0 0.0
-0.0013304091345849416 0.0005799791477070674 0.0 0.0016364516948839647 0.0 0.0
-0.0011256267722164364 0.0005060261840692658 0.0 0.001683351660114133 0.0 0.0
-0.0009259038054461309 0.0004380383002648494 0.0 0.0017690764443234024 0.0 0.0
-0.0007053361528610276 0.0003399185642500188 0.0 0.0018667991065764887 0.0 0.0
-0.00041624803497963787 0.00012452959762399856 0.0 0.0018295958584258593 0.0 0.0
-8.984079908029525e-05 -0.00025503609186869813 0.0 0.001311837629309999 0.0 0.0
6.823544837410638e-05 -0.0004288885070723335 0.0 0.0007223963484660298 0.0 0.0
1.2183318002548465e-05 -0.0002666459476007749 0.0 -0.0005960678915944965 0.0 0.0
-0.00014313094431919843 -0.00017645408096036676 0.0 -0.0011251727035507496 0.0 0.0
-0.00048538301164757747 0.00016184513876763386 0.0 -0.001627793746828134 0.0 0.0
-0.0008266085418259484 0.0003831176919860351 0.0 -0.0016886293427804794 0.0 0.0
-0.0011173772497428782 0.0005116836581043499 0.0 -0.001598700757376647 0.0 0.0
-0.001387431194757119 0.0006136816126269887 0.0 -0.0015109433919588684 0.0 0.0
-0.001656213376326779 0.0007177608385898832 0.0 -0.0014610678364833055 0.0 0.0
-0.0019282019103339185 0.0008287112023552785 0.0 -0.001439955289342038 0.0 0.0
-0.002202478994281948 0.0009441545959046464 0.0 -0.0014334330978807712 0.0 0.0
-0.0024776749100098305 0.0010615504994723392 0.0 -0.0014325887477614633 0.0 0.0
-0.002753090984008397 0.0011795863906334696 0.0 -0.0014332451303446893 0.0 0.0
-0.0030285468186959717 0.0012978801720559667 0.0 -0.001433561485384373 0.0 0.0
-0.0033041458798348145 0.001416633632050632 0.0 -0.0014320810498045051 0.0 0.0
-0.003580294148073427 0.001536489562545684 0.0 -0.0014263367205504618 0.0 0.0
-0.003857862347830846 0.001658747233617364 0.0 -0.0014119541026159281 0.0 0.0
-0.004138132499322693 0.0017841343741574391 0.0 -0.0013853595142997 0.0 0.0
-0.004429573455393779 0.0019128249180476484 0.0 -0.0013475358693514768 0.0 0.0
-0.0047443129068825245 0.002055746653103848 0.0 -0.001350445172581735 0.0 0.0
-0.004946448345190303 0.0021180617968071485 0.0 -0.001663839391237203 0.0 0.0
-0.0046348499194784265 0.0014504512593455374 0.0 -0.002092752326644557 0.0 0.0
-0.0042854036168860216 -0.00034568037979649304 0.0 5.1770653736182837e-17 0.0 0.0
-0.00463484991947842 0.0014504512593451007 0.0 0.0020927523266446005 0.0 0.0
-0.004946448345190276 0.0021180617968068983 0.0 0.0016638393912372217 0.0 0.0
-0.004744312906882514 0.0020557466531039045 0.0 0.001350445172581761 0.0 0.0
-0.004429573455393792 0.001912824918047722 0.0 0.0013475358693514326 0.0 0.0
-0.004138132499322713 0.0017841343741573533 0.0 0.0013853595142998176 0.0 0.0
-0.003857862347830851 0.0016587472336173626 0.0 0.0014119541026158418 0.0 0.0
-0.0035802941480734254 0.0015364895625455766 0.0 0.0014263367205504414 0.0 0.0
-0.003304145879834824 0.001416633632050537 0.0 0.001432081049804644 0.0 0.0
-0.003028546818695977 0.001297880172056101 0.0 0.0014335614853843862 0.0 0.0
-0.002753090984008396 0.001179586390633571 0.0 0.0014332451303446588 0.0 0.0
-0.0024776749100098227 0.00106155049947208 0.0 0.0014325887477615448 0.0 0.0
-0.0022024789942819414 0.0009441545959045241 0.0 0.0014334330978808252 0.0 0.0
-0.0019282019103339229 0.0008287112023550167 0.0 0.0014399552893420956 0.0 0.0
-0.0016562133763267993 0.0007177608385900977 0.0 0.0014610678364833222 0.0 0.0
-0.0013874311947571314 0.0006136816126270158 0.0 0.0015109433919588875 0.0 0.0
-0.0011173772497428754 0.0005116836581043582 0.0 0.0015987007573766197 0.0 0.0
-0.0008266085418259478 0.0003831176919859153 0.0 0.0016886293427804937 0.0 0.0
-0.00048538301164757346 0.00016184513876768027 0.0 0.0016277937468281288 0.0 0.0
-0.0001431309443191851 -0.00017645408096040024 0.0 0.0011251727035507012 0.0 0.0
1.218331800256242e-05 -0.0002666459476007809 0.0 0.0005960678915945892 0.0 0.0
-3.5077015595005975e-05 -0.00013959848773885473 0.0 -0.00046609149200920277 0.0 0.0
-0.00019087714528331998 -0.00010224099078346226 0.0 -0.0009215041838561795 0.0 0.0
-0.0005522733687063213 0.00020072965433972032 0.0 -0.0013852976307745931 0.0 0.0
-0.000945966078732443 0.00042639246338867557 0.0 -0.0014562245049725558 0.0 0.0
-0.001307759948965458 0.0005849415907125453 0.0 -0.0013755569581259818 0.0 0.0
-0.0016490005959969552 0.0007211549289394626 0.0 -0.0012919517145635441 0.0 0.0
-0.001982177568556345 0.0008555659636334721 0.0 -0.001243569872693745 0.0 0.0
-0.002313035808344703 0.0009930804786030085 0.0 -0.0012230854991797896 0.0 0.0
-0.0026434304076036895 0.0011330725330340387 0.0 -0.0012168915744187904 0.0 0.0
-0.0029737760286295263 0.0012742354898697163 0.0 -0.0012162038663153375 0.0 0.0
-0.00330413988181216 0.0014158228466625235 0.0 -0.0012169265295219052 0.0 0.0
-0.0036345177369522894 0.0015575934945645398 0.0 -0.0012173093070401433 0.0 0.0
-0.0039648530914659615 0.0016996552284859708 0.0 -0.0012159383672433637 0.0 0.0
-0.004294968626536231 0.0018422883166905562 0.0 -0.0012104893207522877 0.0 0.0
-0.004624900726064067 0.0019860583405540734 0.0 -0.0011963941656032069 0.0 0.0
-0.004954006114014934 0.002131973974719691 0.0 -0.0011688679425595754 0.0 0.0
-0.005286357579894787 0.002275645052127199 0.0 -0.0011301179931507564 0.0 0.0
-0.00565719506420035 0.002436957527266035 0.0 -0.0010981242630055796 0.0 0.0
-0.00598202127622104 0.0026126937556032507 0.0 -0.0013856937443974407 0.0 0.0
-0.0057065767232767255 0.0020455133509009508 0.0 -0.0022032580553394757 0.0 0.0
-0.005308935129760274 -0.00043109899119156663 0.0 -2.5045070184415152e-17 0.0 0.0
-0.005706576723276708 0.0020455133509006546 0.0 0.0022032580553394488 0.0 0.0
-0.005982021276221038 0.002612693755603357 0.0 0.0013856937443975869 0.0 0.0
-0.005657195064200344 0.0024369575272660884 0.0 0.0010981242630055787 0.0 0.0
-0.005286357579894773 0.002275645052127507 0.0 0.0011301179931506083 0.0 0.0
-0.004954006114014944 0.0021319739747198054 0.0 0.0011688679425595932 0.0 0.0
-0.004624900726064074 0.0019860583405538965 0.0 0.001196394165603174 0.0 0.0
-0.004294968626536203 0.0018422883166905107 0.0 0.001210489320752248 0.0 0.0
-0.003964853091465949 0.0016996552284860972 0.0 0.0012159383672434622 0.0 0.0
-0.0036345177369522938 0.0015575934945645372 0.0 0.0012173093070401955 0.0 0.0
-0.003304139881812163 0.0014158228466626234 0.0 0.0012169265295219533 0.0 0.0
-0.0029737760286295367 0.0012742354898696714 0.0 0.0012162038663152733 0.0 0.0
-0.0026434304076037047 0.0011330725330337724 0.0 0.0012168915744189288 0.0 0.0
-0.002313035808344711 0.0009930804786028975 0.0 0.0012230854991797393 0.0 0.0
-0.0019821775685563547 0.0008555659636335238 0.0 0.0012435698726936235 0.0 0.0
-0.0016490005959969372 0.000721154928939508 0.0 0.0012919517145636842 0.0 0.0
-0.0013077599489654318 0.0005849415907126543 0.0 0.0013755569581259753 0.0 0.0
-0.0009459660787324456 0.00042639246338862364 0.0 0.0014562245049725613 0.0 0.0
-0.0005522733687063357 0.00020072965433972774 0.0 0.0013852976307745805 0.0 0.0
-0.0001908771452833088 -0.0001022409907834604 0.0 0.0009215041838561882 0.0 0.0
-3.50770155949575e-05 -0.00013959848773886929 0.0 0.000466091492009276 0.0 0.0
-7.072093741208855e-05 -4.972628127552382e-05 0.0 -0.00033641385488498494 0.0 0.0
-0.00022948478241879193 -3.5567942186372046e-05 0.0 -0.0007030895760139406 0.0 0.0
-0.0006139626033512296 0.0002376918810715489 0.0 -0.0011007420784315736 0.0 0.0
-0.001063323819853811 0.0004696108262516657 0.0 -0.0011673357469522995 0.0 0.0
-0.0014985667340930802 0.0006591562650869213 0.0 -0.0010987674381765459 0.0 0.0
-0.0019116206354678508 0.0008294661053659867 0.0 -0.0010262416654761332 0.0 0.0
-0.0023089388210431154 0.0009938723531448706 0.0 -0.0009840635782195596 0.0 0.0
-0.0026983097958336202 0.0011577008322562184 0.0 -0.0009663310825472062 0.0 0.0
-0.003084572546918291 0.0013220889151464305 0.0 -0.0009611073315151746 0.0 0.0
-0.0034699407091640187 0.0014869482666703027 0.0 -0.0009606386340981529 0.0 0.0
-0.0038552162752088356 0.0016520658522246716 0.0 -0.0009613485935332953 0.0 0.0
-0.004240537732567082 0.0018173387681733435 0.0 -0.0009617381067167784 0.0 0.0
-0.0046256922007908595 0.001982726357387785 0.0 -0.0009606527309221592 0.0 0.0
-0.005009939580367895 0.0021483273379191317 0.0 -0.0009558667106345786 0.0 0.0
-0.005392097908398424 0.002313514051659749 0.0 -0.0009440265210759925 0.0 0.0
-0.00577062159218429 0.0024797101557632118 0.0 -0.0009176120110765583 0.0 0.0
-0.006140260502845101 0.0026409719529950607 0.0 -0.0008834305922452874 0.0 0.0
-0.0065454381565580935 0.002798360361493133 0.0 -0.0008393253330195809 0.0 0.0
-0.007008119482509616 0.0030807914959882425 0.0 -0.0009951472404290409 0.0 0.0
-0.006826921563114814 0.0027807713776532104 0.0 -0.0021944437659396046 0.0 0.0
-0.006406701647331337 -0.0006332922976109737 0.0 2.6020852139652106e-17 0.0 0.0
-0.006826921563114801 0.0027807713776531037 0.0 0.0021944437659395144 0.0 0.0
-0.007008119482509623 0.0030807914959883284 0.0 0.0009951472404289908 0.0 0.0
-0.006545438156558106 0.0027983603614929907 0.0 0.0008393253330194834 0.0 0.0
-0.00614026050284509 0.002640971952995344 0.0 0.0008834305922451957 0.0 0.0
-0.005770621592184302 0.0024797101557634768 0.0 0.0009176120110764843 0.0 0.0
-0.005392097908398432 0.002313514051659949 0.0 0.0009440265210759362 0.0 0.0
-0.005009939580367898 0.002148327337919248 0.0 0.0009558667106345532 0.0 0.0
-0.004625692200790853 0.0019827263573879424 0.0 0.0009606527309220609 0.0 0.0
-0.004240537732567082 0.0018173387681734588 0.0 0.0009617381067167339 0.0 0.0
-0.0038552162752088356 0.0016520658522244313 0.0 0.0009613485935332823 0.0 0.0
-0.0034699407091639996 0.0014869482666704074 0.0 0.0009606386340980989 0.0 0.0
-0.0030845725469182917 0.0013220889151463978 0.0 0.0009611073315153465 0.0 0.0
-0.0026983097958336215 0.0011577008322562188 0.0 0.00096633108254727 0.0 0.0
-0.002308938821043119 0.0009938723531448396 0.0 0.0009840635782194947 0.0 0.0
-0.0019116206354678317 0.0008294661053660427 0.0 0.001026241665476196 0.0 0.0
-0.0014985667340930828 0.0006591562650869729 0.0 0.0010987674381764474 0.0 0.0
-0.0010633238198538221 0.00046961082625167827 0.0 0.00116733574695233 0.0 0.0
-0.0006139626033512119 0.00023769188107153376 0.0 0.0011007420784315495 0.0 0.0
-0.00022948478241877976 -3.55679421863352e-05 0.0 0.0007030895760139919 0.0 0.0
-7.072093741207864e-05 -4.972628127555135e-05 0.0 0.0003364138548849242 0.0 0.0
-9.037657767142035e-05 1.3393689027763306e-06 0.0 -0.000216752676636394 0.0 0.0
-0.0002534339873309139 1.895184611848231e-05 0.0 -0.0004735101441196034 0.0 0.0
-0.0006662388225035762 0.00026823975284811694 0.0 -0.0007686761714660218 0.0 0.0
-0.0011787586551141379 0.0005131081385610675 0.0 -0.0008181277240348532 0.0 0.0
-0.0016916648371053567 0.00073594368374444 0.0 -0.0007678472998621789 0.0 0.0
-0.0021766793777685542 0.0009396746748285361 0.0 -0.0007141944850173357 0.0 0.0
-0.0026371455197296847 0.0011331622974712979 0.0 -0.0006829992689908657 0.0 0.0
-0.0030842285558967566 0.0013227110847243825 0.0 -0.0006699703639781162 0.0 0.0
-0.0035259265894846455 0.0015112133376189454 0.0 -0.0006662101994719579 0.0 0.0
-0.003966143144652556 0.0016996660074201197 0.0 -0.0006659366206246958 0.0 0.0
-0.004406289944298269 0.0018882976789550382 0.0 -0.0006665042216728905 0.0 0.0
-0.004846609970574032 0.0020770949269588506 0.0 -0.0006668280814630774 0.0 0.0
-0.005286676173468257 0.002265935511658003 0.0 -0.000666055529094968 0.0 0.0
-0.005725436169225059 0.002454499018921823 0.0 -0.0006626499006853776 0.0 0.0
-0.006159939320528629 0.002642201360366628 0.0 -0.0006534149906451288 0.0 0.0
-0.006588102189546907 0.00282608217532478 0.0 -0.0006358126648773236 0.0 0.0
-0.006998110024008941 0.003012849037461992 0.0 -0.0005977294270963075 0.0 0.0
-0.007404615435053321 0.0031524972574206362 0.0 -0.0005995775575037287 0.0 0.0
-0.007988644286085651 0.0034571497553302884 0.0 -0.0005561268490151207 0.0 0.0
-0.008004127631926454 0.00370863445382902 0.0 -0.0018567509856923696 0.0 0.0
-0.007644622622079936 -0.0009466337986074573 0.0 6.808789643208968e-17 0.0 0.0
-0.008004127631926466 0.0037086344538288024 0.0 0.0018567509856922634 0.0 0.0
-0.00798864428608569 0.0034571497553302077 0.0 0.0005561268490150808 0.0 0.0
-0.007404615435053328 0.0031524972574203747 0.0 0.0005995775575037541 0.0 0.0
-0.006998110024008929 0.003012849037461866 0.0 0.0005977294270961936 0.0 0.0
-0.0065881021895469235 0.0028260821753250988 0.0 0.00063581266487729 0.0 0.0
-0.0061599393205286216 0.0026422013603667263 0.0 0.0006534149906450943 0.0 0.0
-0.005725436169225046 0.002454499018921614 0.0 0.000662649900685286 0.0 0.0
-0.005286676173468235 0.0022659355116581084 0.0 0.0006660555290949617 0.0 0.0
-0.004846609970574006 0.002077094926958909 0.0 0.0006668280814629118 0.0 0.0
-0.004406289944298283 0.0018882976789549497 0.0 0.0006665042216727943 0.0 0.0
-0.003966143144652575 0.001699666007420146 0.0 0.0006659366206245829 0.0 0.0
-0.003525926589484657 0.0015112133376190024 0.0 0.0006662101994719616 0.0 0.0
-0.003084228555896754 0.0013227110847243396 0.0 0.0006699703639782629 0.0 0.0
-0.0026371455197296972 0.0011331622974712946 0.0 0.0006829992689909024 0.0 0.0
-0.0021766793777685694 0.0009396746748285098 0.0 0.0007141944850171809 0.0 0.0
-0.00169166483710536 0.0007359436837444201 0.0 0.0007678472998621384 0.0 0.0
-0.0011787586551141526 0.0005131081385610482 0.0 0.0008181277240348458 0.0 0.0
-0.0006662388225035797 0.0002682397528480537 0.0 0.000768676171465921 0.0 0.0
-0.0002534339873309227 1.8951846118543294e-05 0.0 0.00047351014411973265 0.0 0.0
-9.037657767145111e-05 1.339368902749091e-06 0.0 0.0002167526766362589 0.0 0.0
-8.66852661660661e-05 1.3429801259632679e-05 0.0 -0.00012766539018670722 0.0 0.0
-0.000253821840175712 5.314065642801921e-05 0.0 -0.00023774669743484831 0.0 0.0
-0.0007033943986088337 0.00028688994694309563 0.0 -0.00037571547379297587 0.0 0.0
-0.0012931843300601584 0.0005585974710301827 0.0 -0.00040425050376563184 0.0 0.0
-0.0018894193377937416 0.0008171051379016778 0.0 -0.00038271719444337376 0.0 0.0
-0.002445618555304788 0.0010528807755344808 0.0 -0.0003568319506708849 0.0 0.0
-0.0029674185689671584 0.0012738725521886326 0.0 -0.00034118049549037763 0.0 0.0
-0.003470953282742519 0.0014882126151731343 0.0 -0.0003344157958156414 0.0 0.0
-0.003967488095374615 0.001700434204566834 0.0 -0.00033236058944622086 0.0 0.0
-0.004462342716785687 0.0019123573156954216 0.0 -0.00033213897999029513 0.0 0.0
-0.0049573307944429925 0.0021244912309180603 0.0 -0.00033238479721398495 0.0 0.0
-0.0054527008931285455 0.0023368566245618805 0.0 -0.000332520447895341 0.0 0.0
-0.005947906922443735 0.0025492566482108493 0.0 -0.0003320745392320033 0.0 0.0
-0.006441335568966126 0.0027611361614761493 0.0 -0.00033032835602666405 0.0 0.0
-0.006929821392503654 0.0029713151487438354 0.0 -0.00032549408334240986 0.0 0.0
-0.007404962549014651 0.0031768570366735678 0.0 -0.00031676104058877153 0.0 0.0
-0.007866597295945117 0.003373284735737004 0.0 -0.0003006500056275926 0.0 0.0
-0.008251253874553546 0.0035673913511983244 0.0 -0.00027948928045231627 0.0 0.0
-0.008848181570255582 0.003613542079752976 0.0 -0.00044079654437406636 0.0 0.0
-0.009227484242086798 0.004854492610486517 0.0 -0.0006291244824099993 0.0 0.0
-0.009165513686800162 -0.0012632487367378526 0.0 -3.881443777498106e-17 0.0 0.0
-0.009227484242086822 0.0048544926104867585 0.0 0.0006291244824098507 0.0 0.0
-0.008848181570255619 0.003613542079753118 0.0 0.00044079654437403264 0.0 0.0
-0.00825125387455358 0.0035673913511982116 0.0 0.00027948928045231963 0.0 0.0
-0.007866597295945084 0.003373284735736528 0.0 0.0003006500056276052 0.0 0.0
-0.0074049625490146456 0.003176857036673655 0.0 0.00031676104058886987 0.0 0.0
-0.00692982139250367 0.002971315148743768 0.0 0.0003254940833422893 0.0 0.0
-0.006441335568966112 0.0027611361614759433 0.0 0.0003303283560266339 0.0 0.0
-0.005947906922443713 0.0025492566482107543 0.0 0.00033207453923202147 0.0 0.0
-0.005452700893128542 0.002336856624561705 0.0 0.00033252044789532564 0.0 0.0
-0.004957330794442981 0.002124491230917702 0.0 0.0003323847972140063 0.0 0.0
-0.004462342716785689 0.001912357315695543 0.0 0.00033213897999024005 0.0 0.0
-0.003967488095374623 0.0017004342045667672 0.0 0.0003323605894462639 0.0 0.0
-0.003470953282742495 0.0014882126151731102 0.0 0.0003344157958157727 0.0 0.0
-0.0029674185689671714 0.001273872552188405 0.0 0.0003411804954903059 0.0 0.0
-0.002445618555304807 0.0010528807755344851 0.0 0.0003568319506708215 0.0 0.0
-0.0018894193377937507 0.0008171051379016976 0.0 0.0003827171944434058 0.0 0.0
-0.0012931843300601734 0.0005585974710301389 0.0 0.00040425050376559634 0.0 0.0
-0.0007033943986088101 0.00028688994694305963 0.0 0.00037571547379302997 0.0 0.0
-0.0002538218401756878 5.3140656427989455e-05 0.0 0.00023774669743490626 0.0 0.0
-8.668526616607793e-05 1.3429801259641857e-05 0.0 0.00012766539018663537 0.0 0.0
-4.633836149679012e-05 9.845907489486167e-06 0.0 -8.55510628926429e-05 0.0 0.0
-0.00021560450301916256 6.381873371727425e-05 0.0 -0.00010048264535423464 0.0 0.0
-0.0007183189068333362 0.00029249986761551247 0.0 -0.0001278788533759393 0.0 0.0
-0.0014095709619612751 0.0005821766511145344 0.0 -0.00014258034871638076 0.0 0.0
-0.0020945832750175436 0.0008590084793071078 0.0 -0.00014149437368016877 0.0 0.0
-0.002719929316892987 0.0011103747938447468 0.0 -0.00013491013685417875 0.0 0.0
-0.003300289104572824 0.001344632330270556 0.0 -0.00012987862238261362 0.0 0.0
-0.0038585752956638163 0.001571096044992179 0.0 -0.0001272827494412371 0.0 0.0
-0.004409216260845785 0.0017950656054775368 0.0 -0.0001262884933776982 0.0 0.0
-0.004958485621915726 0.0020186922342440385 0.0 -0.0001260382925384347 0.0 0.0
-0.005508295098816466 0.0022425731159021996 0.0 -0.00012602907404616812 0.0 0.0
-0.006058797053629559 0.0024667440961918335 0.0 -0.00012600901369256277 0.0 0.0
-0.006609333332524234 0.0026909171356545385 0.0 -0.00012575196621865707 0.0 0.0
-0.007158051341930553 0.0029146983711916506 0.0 -0.00012505995613771258 0.0 0.0
-0.0077007986252974015 0.003135578036258832 0.0 -0.00012339332252050408 0.0 0.0
-0.008228313223213622 0.0033550020918074667 0.0 -0.00012016887464360042 0.0 0.0
-0.008724719512651528 0.003545874211510807 0.0 -0.0001234459654103734 0.0 0.0
-0.00917350091069149 0.0038038221189856006 0.0 -8.39923892655733e-05 0.0 0.0
-0.009440891221221756 0.003615726421343091 0.0 -0.0004124150682601039 0.0 0.0
-0.010405507639814402 0.005481536725744583 0.0 -1.8567143266886785e-06 0.0 0.0
-0.011313442700406644 -0.0013987386161715284 0.0 -5.0306980803327406e-17 0.0 0.0
-0.01040550763981438 0.005481536725745185 0.0 1.8567143267062425e-06 0.0 0.0
-0.00944089122122179 0.003615726421343465 0.0 0.000412415068260171 0.0 0.0
-0.00917350091069156 0.0038038221189855424 0.0 8.399238926561645e-05 0.0 0.0
-0.008724719512651505 0.0035458742115104685 0.0 0.00012344596541025415 0.0 0.0
-0.008228313223213633 0.00335500209180731 0.0 0.000120168874643595 0.0 0.0
-0.007700798625297422 0.00313557803625889 0.0 0.00012339332252019628 0.0 0.0
-0.007158051341930516 0.0029146983711917465 0.0 0.00012505995613742635 0.0 0.0
-0.0066093333325242185 0.0026909171356543516 0.0 0.0001257519662184413 0.0 0.0
-0.006058797053629557 0.0024667440961914627 0.0 0.00012600901369243765 0.0 0.0
-0.005508295098816452 0.002242573115901588 0.0 0.00012602907404614058 0.0 0.0
-0.004958485621915704 0.0020186922342442333 0.0 0.0001260382925383763 0.0 0.0
-0.004409216260845774 0.001795065605477582 0.0 0.00012628849337767022 0.0 0.0
-0.003858575295663831 0.0015710960449922774 0.0 0.00012728274944123525 0.0 0.0
-0.003300289104572812 0.0013446323302701477 0.0 0.00012987862238247102 0.0 0.0
-0.0027199293168929392 0.0011103747938448635 0.0 0.00013491013685422865 0.0 0.0
-0.0020945832750175397 0.000859008479307231 0.0 0.00014149437368013977 0.0 0.0
-0.0014095709619612743 0.0005821766511144489 0.0 0.00014258034871630085 0.0 0.0
-0.0007183189068333367 0.00029249986761560424 0.0 0.00012787885337603612 0.0 0.0
-0.0002156045030191587 6.381873371713039e-05 0.0 0.0001004826453541101 0.0 0.0
-4.6338361496761916e-05 9.845907489513482e-06 0.0 8.555106289259499e-05 0.0 0.0