# vtk DataFile Version 3.0
Some data
ASCII
DATASET UNSTRUCTURED_GRID
POINTS 861 float
0.0 0.0 0.0
0.4 0.0 0.0
0.8 0.0 0.0
1.2000000000000002 0.0 0.0
1.6 0.0 0.0
2.0 0.0 0.0
2.4000000000000004 0.0 0.0
2.8000000000000003 0.0 0.0
3.2 0.0 0.0
3.6 0.0 0.0
4.0 0.0 0.0
4.4 0.0 0.0
4.800000000000001 0.0 0.0
5.2 0.0 0.0
5.6000000000000005 0.0 0.0
6.0 0.0 0.0
6.4 0.0 0.0
6.800000000000001 0.0 0.0
7.2 0.0 0.0
7.6000000000000005 0.0 0.0
8.0 0.0 0.0
8.4 0.0 0.0
8.8 0.0 0.0
9.200000000000001 0.0 0.0
9.600000000000001 0.0 0.0
10.0 0.0 0.0
10.4 0.0 0.0
10.8 0.0 0.0
11.200000000000001 0.0 0.0
11.600000000000001 0.0 0.0
12.0 0.0 0.0
12.4 0.0 0.0
12.8 0.0 0.0
13.200000000000001 0.0 0.0
13.600000000000001 0.0 0.0
14.0 0.0 0.0
14.4 0.0 0.0
14.8 0.0 0.0
15.200000000000001 0.0 0.0
15.600000000000001 0.0 0.0
16.0 0.0 0.0
0.0 0.1 0.0
0.4 0.1 0.0
0.8 0.1 0.0
1.2000000000000002 0.1 0.0
1.6 0.1 0.0
2.0 0.1 0.0
2.4000000000000004 0.1 0.0
2.8000000000000003 0.1 0.0
3.2 0.1 0.0
3.6 0.1 0.0
4.0 0.1 0.0
4.4 0.1 0.0
4.800000000000001 0.1 0.0
5.2 0.1 0.0
5.6000000000000005 0.1 0.0
6.0 0.1 0.0
6.4 0.1 0.0
6.800000000000001 0.1 0.0
7.2 0.1 0.0
7.6000000000000005 0.1 0.0
8.0 0.1 0.0
8.4 0.1 0.0
8.8 0.1 0.0
9.200000000000001 0.1 0.0
9.600000000000001 0.1 0.0
10.0 0.1 0.0
10.4 0.1 0.0
10.8 0.1 0.0
11.200000000000001 0.1 0.0
11.600000000000001 0.1 0.0
12.0 0.1 0.0
12.4 0.1 0.0
12.8 0.1 0.0
13.200000000000001 0.1 0.0
13.600000000000001 0.1 0.0
14.0 0.1 0.0
14.4 0.1 0.0
14.8 0.1 0.0
15.200000000000001 0.1 0.0
15.600000000000001 0.1 0.0
16.0 0.1 0.0
0.0 0.2 0.0
0.4 0.2 0.0
0.8 0.2 0.0
1.2000000000000002 0.2 0.0
1.6 0.2 0.0
2.0 0.2 0.0
2.4000000000000004 0.2 0.0
2.8000000000000003 0.2 0.0
3.2 0.2 0.0
3.6 0.2 0.0
4.0 0.2 0.0
4.4 0.2 0.0
4.800000000000001 0.2 0.0
5.2 0.2 0.0
5.6000000000000005 0.2 0.0
6.0 0.2 0.0
6.4 0.2 0.0
6.800000000000001 0.2 0.0
7.2 0.2 0.0
7.6000000000000005 0.2 0.0
8.0 0.2 0.0
8.4 0.2 0.0
8.8 0.2 0.0
9.200000000000001 0.2 0.0
9.600000000000001 0.2 0.0
10.0 0.2 0.0
10.4 0.2 0.0
10.8 0.2 0.0
11.200000000000001 0.2 0.0
11.600000000000001 0.2 0.0
12.0 0.2 0.0
12.4 0.2 0.0
12.8 0.2 0.0
13.200000000000001 0.2 0.0
13.600000000000001 0.2 0.0
14.0 0.2 0.0
14.4 0.2 0.0
14.8 0.2 0.0
15.200000000000001 0.2 0.0
15.600000000000001 0.2 0.0
16.0 0.2 0.0
0.0 0.30000000000000004 0.0
0.4 0.30000000000000004 0.0
0.8 0.30000000000000004 0.0
1.2000000000000002 0.30000000000000004 0.0
1.6 0.30000000000000004 0.0
2.0 0.30000000000000004 0.0
2.4000000000000004 0.30000000000000004 0.0
2.8000000000000003 0.30000000000000004 0.0
3.2 0.30000000000000004 0.0
3.6 0.30000000000000004 0.0
4.0 0.30000000000000004 0.0
4.4 0.30000000000000004 0.0
4.800000000000001 0.30000000000000004 0.0
5.2 0.30000000000000004 0.0
5.6000000000000005 0.30000000000000004 0.0
6.0 0.30000000000000004 0.0
6.4 0.30000000000000004 0.0
6.800000000000001 0.30000000000000004 0.0
7.2 0.30000000000000004 0.0
7.6000000000000005 0.30000000000000004 0.0
8.0 0.30000000000000004 0.0
8.4 0.30000000000000004 0.0
8.8 0.30000000000000004 0.0
9.200000000000001 0.30000000000000004 0.0
9.600000000000001 0.30000000000000004 0.0
10.0 0.30000000000000004 0.0
10.4 0.30000000000000004 0.0
10.8 0.30000000000000004 0.0
11.200000000000001 0.30000000000000004 0.0
11.600000000000001 0.30000000000000004 0.0
12.0 0.30000000000000004 0.0
12.4 0.30000000000000004 0.0
12.8 0.30000000000000004 0.0
13.200000000000001 0.30000000000000004 0.0
13.600000000000001 0.30000000000000004 0.0
14.0 0.30000000000000004 0.0
14.4 0.30000000000000004 0.0
14.8 0.30000000000000004 0.0
15.200000000000001 0.30000000000000004 0.0
15.600000000000001 0.30000000000000004 0.0
16.0 0.30000000000000004 0.0
0.0 0.4 0.0
0.4 0.4 0.0
0.8 0.4 0.0
1.2000000000000002 0.4 0.0
1.6 0.4 0.0
2.0 0.4 0.0
2.4000000000000004 0.4 0.0
2.8000000000000003 0.4 0.0
3.2 0.4 0.0
3.6 0.4 0.0
4.0 0.4 0.0
4.4 0.4 0.0
4.800000000000001 0.4 0.0
5.2 0.4 0.0
5.6000000000000005 0.4 0.0
6.0 0.4 0.0
6.4 0.4 0.0
6.800000000000001 0.4 0.0
7.2 0.4 0.0
7.6000000000000005 0.4 0.0
8.0 0.4 0.0
8.4 0.4 0.0
8.8 0.4 0.0
9.200000000000001 0.4 0.0
9.600000000000001 0.4 0.0
10.0 0.4 0.0
10.4 0.4 0.0
10.8 0.4 0.0
11.200000000000001 0.4 0.0
11.600000000000001 0.4 0.0
12.0 0.4 0.0
12.4 0.4 0.0
12.8 0.4 0.0
13.200000000000001 0.4 0.0
13.600000000000001 0.4 0.0
14.0 0.4 0.0
14.4 0.4 0.0
14.8 0.4 0.0
15.200000000000001 0.4 0.0
15.600000000000001 0.4 0.0
16.0 0.4 0.0
0.0 0.5 0.0
0.4 0.5 0.0
0.8 0.5 0.0
1.2000000000000002 0.5 0.0
1.6 0.5 0.0
2.0 0.5 0.0
2.4000000000000004 0.5 0.0
2.8000000000000003 0.5 0.0
3.2 0.5 0.0
3.6 0.5 0.0
4.0 0.5 0.0
4.4 0.5 0.0
4.800000000000001 0.5 0.0
5.2 0.5 0.0
5.6000000000000005 0.5 0.0
6.0 0.5 0.0
6.4 0.5 0.0
6.800000000000001 0.5 0.0
7.2 0.5 0.0
7.6000000000000005 0.5 0.0
8.0 0.5 0.0
8.4 0.5 0.0
8.8 0.5 0.0
9.200000000000001 0.5 0.0
9.600000000000001 0.5 0.0
10.0 0.5 0.0
10.4 0.5 0.0
10.8 0.5 0.0
11.200000000000001 0.5 0.0
11.600000000000001 0.5 0.0
12.0 0.5 0.0
12.4 0.5 0.0
12.8 0.5 0.0
13.200000000000001 0.5 0.0
13.600000000000001 0.5 0.0
14.0 0.5 0.0
14.4 0.5 0.0
14.8 0.5 0.0
15.200000000000001 0.5 0.0
15.600000000000001 0.5 0.0
16.0 0.5 0.0
0.0 0.6000000000000001 0.0
0.4 0.6000000000000001 0.0
0.8 0.6000000000000001 0.0
1.2000000000000002 0.6000000000000001 0.0
1.6 0.6000000000000001 0.0
2.0 0.6000000000000001 0.0
2.4000000000000004 0.6000000000000001 0.0
2.8000000000000003 0.6000000000000001 0.0
3.2 0.6000000000000001 0.0
3.6 0.6000000000000001 0.0
4.0 0.6000000000000001 0.0
4.4 0.6000000000000001 0.0
4.800000000000001 0.6000000000000001 0.0
5.2 0.6000000000000001 0.0
5.6000000000000005 0.6000000000000001 0.0
6.0 0.6000000000000001 0.0
6.4 0.6000000000000001 0.0
6.800000000000001 0.6000000000000001 0.0
7.2 0.6000000000000001 0.0
7.6000000000000005 0.6000000000000001 0.0
8.0 0.6000000000000001 0.0
8.4 0.6000000000000001 0.0
8.8 0.6000000000000001 0.0
9.200000000000001 0.6000000000000001 0.0
9.600000000000001 0.6000000000000001 0.0
10.0 0.6000000000000001 0.0
10.4 0.6000000000000001 0.0
10.8 0.6000000000000001 0.0
11.200000000000001 0.6000000000000001 0.0
11.600000000000001 0.6000000000000001 0.0
12.0 0.6000000000000001 0.0
12.4 0.6000000000000001 0.0
12.8 0.6000000000000001 0.0
13.200000000000001 0.6000000000000001 0.0
13.600000000000001 0.6000000000000001 0.0
14.0 0.6000000000000001 0.0
14.4 0.6000000000000001 0.0
14.8 0.6000000000000001 0.0
15.200000000000001 0.6000000000000001 0.0
15.600000000000001 0.6000000000000001 0.0
16.0 0.6000000000000001 0.0
0.0 0.7000000000000001 0.0
0.4 0.7000000000000001 0.0
0.8 0.7000000000000001 0.0
1.2000000000000002 0.7000000000000001 0.0
1.6 0.7000000000000001 0.0
2.0 0.7000000000000001 0.0
2.4000000000000004 0.7000000000000001 0.0
2.8000000000000003 0.7000000000000001 0.0
3.2 0.7000000000000001 0.0
3.6 0.7000000000000001 0.0
4.0 0.7000000000000001 0.0
4.4 0.7000000000000001 0.0
4.800000000000001 0.7000000000000001 0.0
5.2 0.7000000000000001 0.0
5.6000000000000005 0.7000000000000001 0.0
6.0 0.7000000000000001 0.0
6.4 0.7000000000000001 0.0
6.800000000000001 0.7000000000000001 0.0
7.2 0.7000000000000001 0.0
7.6000000000000005 0.7000000000000001 0.0
8.0 0.7000000000000001 0.0
8.4 0.7000000000000001 0.0
8.8 0.7000000000000001 0.0
9.200000000000001 0.7000000000000001 0.0
9.600000000000001 0.7000000000000001 0.0
10.0 0.7000000000000001 0.0
10.4 0.7000000000000001 0.0
10.8 0.7000000000000001 0.0
11.200000000000001 0.7000000000000001 0.0
11.600000000000001 0.7000000000000001 0.0
12.0 0.7000000000000001 0.0
12.4 0.7000000000000001 0.0
12.8 0.7000000000000001 0.0
13.200000000000001 0.7000000000000001 0.0
13.600000000000001 0.7000000000000001 0.0
14.0 0.7000000000000001 0.0
14.4 0.7000000000000001 0.0
14.8 0.7000000000000001 0.0
15.200000000000001 0.7000000000000001 0.0
15.600000000000001 0.7000000000000001 0.0
16.0 0.7000000000000001 0.0
0.0 0.8 0.0
0.4 0.8 0.0
0.8 0.8 0.0
1.2000000000000002 0.8 0.0
1.6 0.8 0.0
2.0 0.8 0.0
2.4000000000000004 0.8 0.0
2.8000000000000003 0.8 0.0
3.2 0.8 0.0
3.6 0.8 0.0
4.0 0.8 0.0
4.4 0.8 0.0
4.800000000000001 0.8 0.0
5.2 0.8 0.0
5.6000000000000005 0.8 0.0
6.0 0.8 0.0
6.4 0.8 0.0
6.800000000000001 0.8 0.0
7.2 0.8 0.0
7.6000000000000005 0.8 0.0
8.0 0.8 0.0
8.4 0.8 0.0
8.8 0.8 0.0
9.200000000000001 0.8 0.0
9.600000000000001 0.8 0.0
10.0 0.8 0.0
10.4 0.8 0.0
10.8 0.8 0.0
11.200000000000001 0.8 0.0
11.600000000000001 0.8 0.0
12.0 0.8 0.0
12.4 0.8 0.0
12.8 0.8 0.0
13.200000000000001 0.8 0.0
13.600000000000001 0.8 0.0
14.0 0.8 0.0
14.4 0.8 0.0
14.8 0.8 0.0
15.200000000000001 0.8 0.0
15.600000000000001 0.8 0.0
16.0 0.8 0.0
0.0 0.9 0.0
0.4 0.9 0.0
0.8 0.9 0.0
1.2000000000000002 0.9 0.0
1.6 0.9 0.0
2.0 0.9 0.0
2.4000000000000004 0.9 0.0
2.8000000000000003 0.9 0.0
3.2 0.9 0.0
3.6 0.9 0.0
4.0 0.9 0.0
4.4 0.9 0.0
4.800000000000001 0.9 0.0
5.2 0.9 0.0
5.6000000000000005 0.9 0.0
6.0 0.9 0.0
6.4 0.9 0.0
6.800000000000001 0.9 0.0
7.2 0.9 0.0
7.6000000000000005 0.9 0.0
8.0 0.9 0.0
8.4 0.9 0.0
8.8 0.9 0.0
9.200000000000001 0.9 0.0
9.600000000000001 0.9 0.0
10.0 0.9 0.0
10.4 0.9 0.0
10.8 0.9 0.0
11.200000000000001 0.9 0.0
11.600000000000001 0.9 0.0
12.0 0.9 0.0
12.4 0.9 0.0
12.8 0.9 0.0
13.200000000000001 0.9 0.0
13.600000000000001 0.9 0.0
14.0 0.9 0.0
14.4 0.9 0.0
14.8 0.9 0.0
15.200000000000001 0.9 0.0
15.600000000000001 0.9 0.0
16.0 0.9 0.0
0.0 1.0 0.0
0.4 1.0 0.0
0.8 1.0 0.0
1.2000000000000002 1.0 0.0
1.6 1.0 0.0
2.0 1.0 0.0
2.4000000000000004 1.0 0.0
2.8000000000000003 1.0 0.0
3.2 1.0 0.0
3.6 1.0 0.0
4.0 1.0 0.0
4.4 1.0 0.0
4.800000000000001 1.0 0.0
5.2 1.0 0.0
5.6000000000000005 1.0 0.0
6.0 1.0 0.0
6.4 1.0 0.0
6.800000000000001 1.0 0.0
7.2 1.0 0.0
7.6000000000000005 1.0 0.0
8.0 1.0 0.0
8.4 1.0 0.0
8.8 1.0 0.0
9.200000000000001 1.0 0.0
9.600000000000001 1.0 0.0
10.0 1.0 0.0
10.4 1.0 0.0
10.8 1.0 0.0
11.200000000000001 1.0 0.0
11.600000000000001 1.0 0.0
12.0 1.0 0.0
12.4 1.0 0.0
12.8 1.0 0.0
13.200000000000001 1.0 0.0
13.600000000000001 1.0 0.0
14.0 1.0 0.0
14.4 1.0 0.0
14.8 1.0 0.0
15.200000000000001 1.0 0.0
15.600000000000001 1.0 0.0
16.0 1.0 0.0
0.0 1.1 0.0
0.4 1.1 0.0
0.8 1.1 0.0
1.2000000000000002 1.1 0.0
1.6 1.1 0.0
2.0 1.1 0.0
2.4000000000000004 1.1 0.0
2.8000000000000003 1.1 0.0
3.2 1.1 0.0
3.6 1.1 0.0
4.0 1.1 0.0
4.4 1.1 0.0
4.800000000000001 1.1 0.0
5.2 1.1 0.0
5.6000000000000005 1.1 0.0
6.0 1.1 0.0
6.4 1.1 0.0
6.800000000000001 1.1 0.0
7.2 1.1 0.0
7.6000000000000005 1.1 0.0
8.0 1.1 0.0
8.4 1.1 0.0
8.8 1.1 0.0
9.200000000000001 1.1 0.0
9.600000000000001 1.1 0.0
10.0 1.1 0.0
10.4 1.1 0.0
10.8 1.1 0.0
11.200000000000001 1.1 0.0
11.600000000000001 1.1 0.0
12.0 1.1 0.0
12.4 1.1 0.0
12.8 1.1 0.0
13.200000000000001 1.1 0.0
13.600000000000001 1.1 0.0
14.0 1.1 0.0
14.4 1.1 0.0
14.8 1.1 0.0
15.200000000000001 1.1 0.0
15.600000000000001 1.1 0.0
16.0 1.1 0.0
0.0 1.2000000000000002 0.0
0.4 1.2000000000000002 0.0
0.8 1.2000000000000002 0.0
1.2000000000000002 1.2000000000000002 0.0
1.6 1.2000000000000002 0.0
2.0 1.2000000000000002 0.0
2.4000000000000004 1.2000000000000002 0.0
2.8000000000000003 1.2000000000000002 0.0
3.2 1.2000000000000002 0.0
3.6 1.2000000000000002 0.0
4.0 1.2000000000000002 0.0
4.4 1.2000000000000002 0.0
4.800000000000001 1.2000000000000002 0.0
5.2 1.2000000000000002 0.0
5.6000000000000005 1.2000000000000002 0.0
6.0 1.2000000000000002 0.0
6.4 1.2000000000000002 0.0
6.800000000000001 1.2000000000000002 0.0
7.2 1.2000000000000002 0.0
7.6000000000000005 1.2000000000000002 0.0
8.0 1.2000000000000002 0.0
8.4 1.2000000000000002 0.0
8.8 1.2000000000000002 0.0
9.200000000000001 1.2000000000000002 0.0
9.600000000000001 1.2000000000000002 0.0
10.0 1.2000000000000002 0.0
10.4 1.2000000000000002 0.0
10.8 1.2000000000000002 0.0
11.200000000000001 1.2000000000000002 0.0
11.600000000000001 1.2000000000000002 0.0
12.0 1.2000000000000002 0.0
12.4 1.2000000000000002 0.0
12.8 1.2000000000000002 0.0
13.200000000000001 1.2000000000000002 0.0
13.600000000000001 1.2000000000000002 0.0
14.0 1.2000000000000002 0.0
14.4 1.2000000000000002 0.0
14.8 1.2000000000000002 0.0
15.200000000000001 1.2000000000000002 0.0
15.600000000000001 1.2000000000000002 0.0
16.0 1.2000000000000002 0.0
0.0 1.3 0.0
0.4 1.3 0.0
0.8 1.3 0.0
1.2000000000000002 1.3 0.0
1.6 1.3 0.0
2.0 1.3 0.0
2.4000000000000004 1.3 0.0
2.8000000000000003 1.3 0.0
3.2 1.3 0.0
3.6 1.3 0.0
4.0 1.3 0.0
4.4 1.3 0.0
4.800000000000001 1.3 0.0
5.2 1.3 0.0
5.6000000000000005 1.3 0.0
6.0 1.3 0.0
6.4 1.3 0.0
6.800000000000001 1.3 0.0
7.2 1.3 0.0
7.6000000000000005 1.3 0.0
8.0 1.3 0.0
8.4 1.3 0.0
8.8 1.3 0.0
9.200000000000001 1.3 0.0
9.600000000000001 1.3 0.0
10.0 1.3 0.0
10.4 1.3 0.0
10.8 1.3 0.0
11.200000000000001 1.3 0.0
11.600000000000001 1.3 0.0
12.0 1.3 0.0
12.4 1.3 0.0
12.8 1.3 0.0
13.200000000000001 1.3 0.0
13.600000000000001 1.3 0.0
14.0 1.3 0.0
14.4 1.3 0.0
14.8 1.3 0.0
15.200000000000001 1.3 0.0
15.600000000000001 1.3 0.0
16.0 1.3 0.0
0.0 1.4000000000000001 0.0
0.4 1.4000000000000001 0.0
0.8 1.4000000000000001 0.0
1.2000000000000002 1.4000000000000001 0.0
1.6 1.4000000000000001 0.0
2.0 1.4000000000000001 0.0
2.4000000000000004 1.4000000000000001 0.0
2.8000000000000003 1.4000000000000001 0.0
3.2 1.4000000000000001 0.0
3.6 1.4000000000000001 0.0
4.0 1.4000000000000001 0.0
4.4 1.4000000000000001 0.0
4.800000000000001 1.4000000000000001 0.0
5.2 1.4000000000000001 0.0
5.6000000000000005 1.4000000000000001 0.0
6.0 1.4000000000000001 0.0
6.4 1.4000000000000001 0.0
6.800000000000001 1.4000000000000001 0.0
7.2 1.4000000000000001 0.0
7.6000000000000005 1.4000000000000001 0.0
8.0 1.4000000000000001 0.0
8.4 1.4000000000000001 0.0
8.8 1.4000000000000001 0.0
9.200000000000001 1.4000000000000001 0.0
9.600000000000001 1.4000000000000001 0.0
10.0 1.4000000000000001 0.0
10.4 1.4000000000000001 0.0
10.8 1.4000000000000001 0.0
11.200000000000001 1.4000000000000001 0.0
11.600000000000001 1.4000000000000001 0.0
12.0 1.4000000000000001 0.0
12.4 1.4000000000000001 0.0
12.8 1.4000000000000001 0.0
13.200000000000001 1.4000000000000001 0.0
13.600000000000001 1.4000000000000001 0.0
14.0 1.4000000000000001 0.0
14.4 1.4000000000000001 0.0
14.8 1.4000000000000001 0.0
15.200000000000001 1.4000000000000001 0.0
15.600000000000001 1.4000000000000001 0.0
16.0 1.4000000000000001 0.0
0.0 1.5 0.0
0.4 1.5 0.0
0.8 1.5 0.0
1.2000000000000002 1.5 0.0
1.6 1.5 0.0
2.0 1.5 0.0
2.4000000000000004 1.5 0.0
2.8000000000000003 1.5 0.0
3.2 1.5 0.0
3.6 1.5 0.0
4.0 1.5 0.0
4.4 1.5 0.0
4.800000000000001 1.5 0.0
5.2 1.5 0.0
5.6000000000000005 1.5 0.0
6.0 1.5 0.0
6.4 1.5 0.0
6.800000000000001 1.5 0.0
7.2 1.5 0.0
7.6000000000000005 1.5 0.0
8.0 1.5 0.0
8.4 1.5 0.0
8.8 1.5 0.0
9.200000000000001 1.5 0.0
9.600000000000001 1.5 0.0
10.0 1.5 0.0
10.4 1.5 0.0
10.8 1.5 0.0
11.200000000000001 1.5 0.0
11.600000000000001 1.5 0.0
12.0 1.5 0.0
12.4 1.5 0.0
12.8 1.5 0.0
13.200000000000001 1.5 0.0
13.600000000000001 1.5 0.0
14.0 1.5 0.0
14.4 1.5 0.0
14.8 1.5 0.0
15.200000000000001 1.5 0.0
15.600000000000001 1.5 0.0
16.0 1.5 0.0
0.0 1.6 0.0
0.4 1.6 0.0
0.8 1.6 0.0
1.2000000000000002 1.6 0.0
1.6 1.6 0.0
2.0 1.6 0.0
2.4000000000000004 1.6 0.0
2.8000000000000003 1.6 0.0
3.2 1.6 0.0
3.6 1.6 0.0
4.0 1.6 0.0
4.4 1.6 0.0
4.800000000000001 1.6 0.0
5.2 1.6 0.0
5.6000000000000005 1.6 0.0
6.0 1.6 0.0
6.4 1.6 0.0
6.800000000000001 1.6 0.0
7.2 1.6 0.0
7.6000000000000005 1.6 0.0
8.0 1.6 0.0
8.4 1.6 0.0
8.8 1.6 0.0
9.200000000000001 1.6 0.0
9.600000000000001 1.6 0.0
10.0 1.6 0.0
10.4 1.6 0.0
10.8 1.6 0.0
11.200000000000001 1.6 0.0
11.600000000000001 1.6 0.0
12.0 1.6 0.0
12.4 1.6 0.0
12.8 1.6 0.0
13.200000000000001 1.6 0.0
13.600000000000001 1.6 0.0
14.0 1.6 0.0
14.4 1.6 0.0
14.8 1.6 0.0
15.200000000000001 1.6 0.0
15.600000000000001 1.6 0.0
16.0 1.6 0.0
0.0 1.7000000000000002 0.0
0.4 1.7000000000000002 0.0
0.8 1.7000000000000002 0.0
1.2000000000000002 1.7000000000000002 0.0
1.6 1.7000000000000002 0.0
2.0 1.7000000000000002 0.0
2.4000000000000004 1.7000000000000002 0.0
2.8000000000000003 1.7000000000000002 0.0
3.2 1.7000000000000002 0.0
3.6 1.7000000000000002 0.0
4.0 1.7000000000000002 0.0
4.4 1.7000000000000002 0.0
4.800000000000001 1.7000000000000002 0.0
5.2 1.7000000000000002 0.0
5.6000000000000005 1.7000000000000002 0.0
6.0 1.7000000000000002 0.0
6.4 1.7000000000000002 0.0
6.800000000000001 1.7000000000000002 0.0
7.2 1.7000000000000002 0.0
7.6000000000000005 1.7000000000000002 0.0
8.0 1.7000000000000002 0.0
8.4 1.7000000000000002 0.0
8.8 1.7000000000000002 0.0
9.200000000000001 1.7000000000000002 0.0
9.600000000000001 1.7000000000000002 0.0
10.0 1.7000000000000002 0.0
10.4 1.7000000000000002 0.0
10.8 1.7000000000000002 0.0
11.200000000000001 1.7000000000000002 0.0
11.600000000000001 1.7000000000000002 0.0
12.0 1.7000000000000002 0.0
12.4 1.7000000000000002 0.0
12.8 1.7000000000000002 0.0
13.200000000000001 1.7000000000000002 0.0
13.600000000000001 1.7000000000000002 0.0
14.0 1.7000000000000002 0.0
14.4 1.7000000000000002 0.0
14.8 1.7000000000000002 0.0
15.200000000000001 1.7000000000000002 0.0
15.600000000000001 1.7000000000000002 0.0
16.0 1.7000000000000002 0.0
0.0 1.8 0.0
0.4 1.8 0.0
0.8 1.8 0.0
1.2000000000000002 1.8 0.0
1.6 1.8 0.0
2.0 1.8 0.0
2.4000000000000004 1.8 0.0
2.8000000000000003 1.8 0.0
3.2 1.8 0.0
3.6 1.8 0.0
4.0 1.8 0.0
4.4 1.8 0.0
4.800000000000001 1.8 0.0
5.2 1.8 0.0
5.6000000000000005 1.8 0.0
6.0 1.8 0.0
6.4 1.8 0.0
6.800000000000001 1.8 0.0
7.2 1.8 0.0
7.6000000000000005 1.8 0.0
8.0 1.8 0.0
8.4 1.8 0.0
8.8 1.8 0.0
9.200000000000001 1.8 0.0
9.600000000000001 1.8 0.0
10.0 1.8 0.0
10.4 1.8 0.0
10.8 1.8 0.0
11.200000000000001 1.8 0.0
11.600000000000001 1.8 0.0
12.0 1.8 0.0
12.4 1.8 0.0
12.8 1.8 0.0
13.200000000000001 1.8 0.0
13.600000000000001 1.8 0.0
14.0 1.8 0.0
14.4 1.8 0.0
14.8 1.8 0.0
15.200000000000001 1.8 0.0
15.600000000000001 1.8 0.0
16.0 1.8 0.0
0.0 1.9000000000000001 0.0
0.4 1.9000000000000001 0.0
0.8 1.9000000000000001 0.0
1.2000000000000002 1.9000000000000001 0.0
1.6 1.9000000000000001 0.0
2.0 1.9000000000000001 0.0
2.4000000000000004 1.9000000000000001 0.0
2.8000000000000003 1.9000000000000001 0.0
3.2 1.9000000000000001 0.0
3.6 1.9000000000000001 0.0
4.0 1.9000000000000001 0.0
4.4 1.9000000000000001 0.0
4.800000000000001 1.9000000000000001 0.0
5.2 1.9000000000000001 0.0
5.6000000000000005 1.9000000000000001 0.0
6.0 1.9000000000000001 0.0
6.4 1.9000000000000001 0.0
6.800000000000001 1.9000000000000001 0.0
7.2 1.9000000000000001 0.0
7.6000000000000005 1.9000000000000001 0.0
8.0 1.9000000000000001 0.0
8.4 1.9000000000000001 0.0
8.8 1.9000000000000001 0.0
9.200000000000001 1.9000000000000001 0.0
9.600000000000001 1.9000000000000001 0.0
10.0 1.9000000000000001 0.0
10.4 1.9000000000000001 0.0
10.8 1.9000000000000001 0.0
11.200000000000001 1.9000000000000001 0.0
11.600000000000001 1.9000000000000001 0.0
12.0 1.9000000000000001 0.0
12.4 1.9000000000000001 0.0
12.8 1.9000000000000001 0.0
13.200000000000001 1.9000000000000001 0.0
13.600000000000001 1.9000000000000001 0.0
14.0 1.9000000000000001 0.0
14.4 1.9000000000000001 0.0
14.8 1.9000000000000001 0.0
15.200000000000001 1.9000000000000001 0.0
15.600000000000001 1.9000000000000001 0.0
16.0 1.9000000000000001 0.0
0.0 2.0 0.0
0.4 2.0 0.0
0.8 2.0 0.0
1.2000000000000002 2.0 0.0
1.6 2.0 0.0
2.0 2.0 0.0
2.4000000000000004 2.0 0.0
2.8000000000000003 2.0 0.0
3.2 2.0 0.0
3.6 2.0 0.0
4.0 2.0 0.0
4.4 2.0 0.0
4.800000000000001 2.0 0.0
5.2 2.0 0.0
5.6000000000000005 2.0 0.0
6.0 2.0 0.0
6.4 2.0 0.0
6.800000000000001 2.0 0.0
7.2 2.0 0.0
7.6000000000000005 2.0 0.0
8.0 2.0 0.0
8.4 2.0 0.0
8.8 2.0 0.0
9.200000000000001 2.0 0.0
9.600000000000001 2.0 0.0
10.0 2.0 0.0
10.4 2.0 0.0
10.8 2.0 0.0
11.200000000000001 2.0 0.0
11.600000000000001 2.0 0.0
12.0 2.0 0.0
12.4 2.0 0.0
12.8 2.0 0.0
13.200000000000001 2.0 0.0
13.600000000000001 2.0 0.0
14.0 2.0 0.0
14.4 2.0 0.0
14.8 2.0 0.0
15.200000000000001 2.0 0.0
15.600000000000001 2.0 0.0
16.0 2.0 0.0
CELLS 800 4000
4 0 1 42 41
4 1 2 43 42
4 2 3 44 43
4 3 4 45 44
4 4 5 46 45
4 5 6 47 46
4 6 7 48 47
4 7 8 49 48
4 8 9 50 49
4 9 10 51 50
4 10 11 52 51
4 11 12 53 52
4 12 13 54 53
4 13 14 55 54
4 14 15 56 55
4 15 16 57 56
4 16 17 58 57
4 17 18 59 58
4 18 19 60 59
4 19 20 61 60
4 20 21 62 61
4 21 22 63 62
4 22 23 64 63
4 23 24 65 64
4 24 25 66 65
4 25 26 67 66
4 26 27 68 67
4 27 28 69 68
4 28 29 70 69
4 29 30 71 70
4 30 31 72 71
4 31 32 73 72
4 32 33 74 73
4 33 34 75 74
4 34 35 76 75
4 35 36 77 76
4 36 37 78 77
4 37 38 79 78
4 38 39 80 79
4 39 40 81 80
4 41 42 83 82
4 42 43 84 83
4 43 44 85 84
4 44 45 86 85
4 45 46 87 86
4 46 47 88 87
4 47 48 89 88
4 48 49 90 89
4 49 50 91 90
4 50 51 92 91
4 51 52 93 92
4 52 53 94 93
4 53 54 95 94
4 54 55 96 95
4 55 56 97 96
4 56 57 98 97
4 57 58 99 98
4 58 59 100 99
4 59 60 101 100
4 60 61 102 101
4 61 62 103 102
4 62 63 104 103
4 63 64 105 104
4 64 65 106 105
4 65 66 107 106
4 66 67 108 107
4 67 68 109 108
4 68 69 110 109
4 69 70 111 110
4 70 71 112 111
4 71 72 113 112
4 72 73 114 113
4 73 74 115 114
4 74 75 116 115
4 75 76 117 116
4 76 77 118 117
4 77 78 119 118
4 78 79 120 119
4 79 80 121 120
4 80 81 122 121
4 82 83 124 123
4 83 84 125 124
4 84 85 126 125
4 85 86 127 126
4 86 87 128 127
4 87 88 129 128
4 88 89 130 129
4 89 90 131 130
4 90 91 132 131
4 91 92 133 132
4 92 93 134 133
4 93 94 135 134
4 94 95 136 135
4 95 96 137 136
4 96 97 138 137
4 97 98 139 138
4 98 99 140 139
4 99 100 141 140
4 100 101 142 141
4 101 102 143 142
4 102 103 144 143
4 103 104 145 144
4 104 105 146 145
4 105 106 147 146
4 106 107 148 147
4 107 108 149 148
4 108 109 150 149
4 109 110 151 150
4 110 111 152 151
4 111 112 153 152
4 112 113 154 153
4 113 114 155 154
4 114 115 156 155
4 115 116 157 156
4 116 117 158 157
4 117 118 159 158
4 118 119 160 159
4 119 120 161 160
4 120 121 162 161
4 121 122 163 162
4 123 124 165 164
4 124 125 166 165
4 125 126 167 166
4 126 127 168 167
4 127 128 169 168
4 128 129 170 169
4 129 130 171 170
4 130 131 172 171
4 131 132 173 172
4 132 133 174 173
4 133 134 175 174
4 134 135 176 175
4 135 136 177 176
4 136 137 178 177
4 137 138 179 178
4 138 139 180 179
4 139 140 181 180
4 140 141 182 181
4 141 142 183 182
4 142 143 184 183
4 143 144 185 184
4 144 145 186 185
4 145 146 187 186
4 146 147 188 187
4 147 148 189 188
4 148 149 190 189
4 149 150 191 190
4 150 151 192 191
4 151 152 193 192
4 152 153 194 193
4 153 154 195 194
4 154 155 196 195
4 155 156 197 196
4 156 157 198 197
4 157 158 199 198
4 158 159 200 199
4 159 160 201 200
4 160 161 202 201
4 161 162 203 202
4 162 163 204 203
4 164 165 206 205
4 165 166 207 206
4 166 167 208 207
4 167 168 209 208
4 168 169 210 209
4 169 170 211 210
4 170 171 212 211
4 171 172 213 212
4 172 173 214 213
4 173 174 215 214
4 174 175 216 215
4 175 176 217 216
4 176 177 218 217
4 177 178 219 218
4 178 179 220 219
4 179 180 221 220
4 180 181 222 221
4 181 182 223 222
4 182 183 224 223
4 183 184 225 224
4 184 185 226 225
4 185 186 227 226
4 186 187 228 227
4 187 188 229 228
4 188 189 230 229
4 189 190 231 230
4 190 191 232 231
4 191 192 233 232
4 192 193 234 233
4 193 194 235 234
4 194 195 236 235
4 195 196 237 236
4 196 197 238 237
4 197 198 239 238
4 198 199 240 239
4 199 200 241 240
4 200 201 242 241
4 201 202 243 242
4 202 203 244 243
4 203 204 245 244
4 205 206 247 246
4 206 207 248 247
4 207 208 249 248
4 208 209 250 249
4 209 210 251 250
4 210 211 252 251
4 211 212 253 252
4 212 213 254 253
4 213 214 255 254
4 214 215 256 255
4 215 216 257 256
4 216 217 258 257
4 217 218 259 258
4 218 219 260 259
4 219 220 261 260
4 220 221 262 261
4 221 222 263 262
4 222 223 264 263
4 223 224 265 264
4 224 225 266 265
4 225 226 267 266
4 226 227 268 267
4 227 228 269 268
4 228 229 270 269
4 229 230 271 270
4 230 231 272 271
4 231 232 273 272
4 232 233 274 273
4 233 234 275 274
4 234 235 276 275
4 235 236 277 276
4 236 237 278 277
4 237 238 279 278
4 238 239 280 279
4 239 240 281 280
4 240 241 282 281
4 241 242 283 282
4 242 243 284 283
4 243 244 285 284
4 244 245 286 285
4 246 247 288 287
4 247 248 289 288
4 248 249 290 289
4 249 250 291 290
4 250 251 292 291
4 251 252 293 292
4 252 253 294 293
4 253 254 295 294
4 254 255 296 295
4 255 256 297 296
4 256 257 298 297
4 257 258 299 298
4 258 259 300 299
4 259 260 301 300
4 260 261 302 301
4 261 262 303 302
4 262 263 304 303
4 263 264 305 304
4 264 265 306 305
4 265 266 307 306
4 266 267 308 307
4 267 268 309 308
4 268 269 310 309
4 269 270 311 310
4 270 271 312 311
4 271 272 313 312
4 272 273 314 313
4 273 274 315 314
4 274 275 316 315
4 275 276 317 316
4 276 277 318 317
4 277 278 319 318
4 278 279 320 319
4 279 280 321 320
4 280 281 322 321
4 281 282 323 322
4 282 283 324 323
4 283 284 325 324
4 284 285 326 325
4 285 286 327 326
4 287 288 329 328
4 288 289 330 329
4 289 290 331 330
4 290 291 332 331
4 291 292 333 332
4 292 293 334 333
4 293 294 335 334
4 294 295 336 335
4 295 296 337 336
4 296 297 338 337
4 297 298 339 338
4 298 299 340 339
4 299 300 341 340
4 300 301 342 341
4 301 302 343 342
4 302 303 344 343
4 303 304 345 344
4 304 305 346 345
4 305 306 347 346
4 306 307 348 347
4 307 308 349 348
4 308 309 350 349
4 309 310 351 350
4 310 311 352 351
4 311 312 353 352
4 312 313 354 353
4 313 314 355 354
4 314 315 356 355
4 315 316 357 356
4 316 317 358 357
4 317 318 359 358
4 318 319 360 359
4 319 320 361 360
4 320 321 362 361
4 321 322 363 362
4 322 323 364 363
4 323 324 365 364
4 324 325 366 365
4 325 326 367 366
4 326 327 368 367
4 328 329 370 369
4 329 330 371 370
4 330 331 372 371
4 331 332 373 372
4 332 333 374 373
4 333 334 375 374
4 334 335 376 375
4 335 336 377 376
4 336 337 378 377
4 337 338 379 378
4 338 339 380 379
4 339 340 381 380
4 340 341 382 381
4 341 342 383 382
4 342 343 384 383
4 343 344 385 384
4 344 345 386 385
4 345 346 387 386
4 346 347 388 387
4 347 348 389 388
4 348 349 390 389
4 349 350 391 390
4 350 351 392 391
4 351 352 393 392
4 352 353 394 393
4 353 354 395 394
4 354 355 396 395
4 355 356 397 396
4 356 357 398 397
4 357 358 399 398
4 358 359 400 399
4 359 360 401 400
4 360 361 402 401
4 361 362 403 402
4 362 363 404 403
4 363 364 405 404
4 364 365 406 405
4 365 366 407 406
4 366 367 408 407
4 367 368 409 408
4 369 370 411 410
4 370 371 412 411
4 371 372 413 412
4 372 373 414 413
4 373 374 415 414
4 374 375 416 415
4 375 376 417 416
4 376 377 418 417
4 377 378 419 418
4 378 379 420 419
4 379 380 421 420
4 380 381 422 421
4 381 382 423 422
4 382 383 424 423
4 383 384 425 424
4 384 385 426 425
4 385 386 427 426
4 386 387 428 427
4 387 388 429 428
4 388 389 430 429
4 389 390 431 430
4 390 391 432 431
4 391 392 433 432
4 392 393 434 433
4 393 394 435 434
4 394 395 436 435
4 395 396 437 436
4 396 397 438 437
4 397 398 439 438
4 398 399 440 439
4 399 400 441 440
4 400 401 442 441
4 401 402 443 442
4 402 403 444 443
4 403 404 445 444
4 404 405 446 445
4 405 406 447 446
4 406 407 448 447
4 407 408 449 448
4 408 409 450 449
4 410 411 452 451
4 411 412 453 452
4 412 413 454 453
4 413 414 455 454
4 414 415 456 455
4 415 416 457 456
4 416 417 458 457
4 417 418 459 458
4 418 419 460 459
4 419 420 461 460
4 420 421 462 461
4 421 422 463 462
4 422 423 464 463
4 423 424 465 464
4 424 425 466 465
4 425 426 467 466
4 426 427 468 467
4 427 428 469 468
4 428 429 470 469
4 429 430 471 470
4 430 431 472 471
4 431 432 473 472
4 432 433 474 473
4 433 434 475 474
4 434 435 476 475
4 435 436 477 476
4 436 437 478 477
4 437 438 479 478
4 438 439 480 479
4 439 440 481 480
4 440 441 482 481
4 441 442 483 482
4 442 443 484 483
4 443 444 485 484
4 444 445 486 485
4 445 446 487 486
4 446 447 488 487
4 447 448 489 488
4 448 449 490 489
4 449 450 491 490
4 451 452 493 492
4 452 453 494 493
4 453 454 495 494
4 454 455 496 495
4 455 456 497 496
4 456 457 498 497
4 457 458 499 498
4 458 459 500 499
4 459 460 501 500
4 460 461 502 501
4 461 462 503 502
4 462 463 504 503
4 463 464 505 504
4 464 465 506 505
4 465 466 507 506
4 466 467 508 507
4 467 468 509 508
4 468 469 510 509
4 469 470 511 510
4 470 471 512 511
4 471 472 513 512
4 472 473 514 513
4 473 474 515 514
4 474 475 516 515
4 475 476 517 516
4 476 477 518 517
4 477 478 519 518
4 478 479 520 519
4 479 480 521 520
4 480 481 522 521
4 481 482 523 522
4 482 483 524 523
4 483 484 525 524
4 484 485 526 525
4 485 486 527 526
4 486 487 528 527
4 487 488 529 528
4 488 489 530 529
4 489 490 531 530
4 490 491 532 531
4 492 493 534 533
4 493 494 535 534
4 494 495 536 535
4 495 496 537 536
4 496 497 538 537
4 497 498 539 538
4 498 499 540 539
4 499 500 541 540
4 500 501 542 541
4 501 502 543 542
4 502 503 544 543
4 503 504 545 544
4 504 505 546 545
4 505 506 547 546
4 506 507 548 547
4 507 508 549 548
4 508 509 550 549
4 509 510 551 550
4 510 511 552 551
4 511 512 553 552
4 512 513 554 553
4 513 514 555 554
4 514 515 556 555
4 515 516 557 556
4 516 517 558 557
4 517 518 559 558
4 518 519 560 559
4 519 520 561 560
4 520 521 562 561
4 521 522 563 562
4 522 523 564 563
4 523 524 565 564
4 524 525 566 565
4 525 526 567 566
4 526 527 568 567
4 527 528 569 568
4 528 529 570 569
4 529 530 571 570
4 530 531 572 571
4 531 532 573 572
4 533 534 575 574
4 534 535 576 575
4 535 536 577 576
4 536 537 578 577
4 537 538 579 578
4 538 539 580 579
4 539 540 581 580
4 540 541 582 581
4 541 542 583 582
4 542 543 584 583
4 543 544 585 584
4 544 545 586 585
4 545 546 587 586
4 546 547 588 587
4 547 548 589 588
4 548 549 590 589
4 549 550 591 590
4 550 551 592 591
4 551 552 593 592
4 552 553 594 593
4 553 554 595 594
4 554 555 596 595
4 555 556 597 596
4 556 557 598 597
4 557 558 599 598
4 558 559 600 599
4 559 560 601 600
4 560 561 602 601
4 561 562 603 602
4 562 563 604 603
4 563 564 605 604
4 564 565 606 605
4 565 566 607 606
4 566 567 608 607
4 567 568 609 608
4 568 569 610 609
4 569 570 611 610
4 570 571 612 611
4 571 572 613 612
4 572 573 614 613
4 574 575 616 615
4 575 576 617 616
4 576 577 618 617
4 577 578 619 618
4 578 579 620 619
4 579 580 621 620
4 580 581 622 621
4 581 582 623 622
4 582 583 624 623
4 583 584 625 624
4 584 585 626 625
4 585 586 627 626
4 586 587 628 627
4 587 588 629 628
4 588 589 630 629
4 589 590 631 630
4 590 591 632 631
4 591 592 633 632
4 592 593 634 633
4 593 594 635 634
4 594 595 636 635
4 595 596 637 636
4 596 597 638 637
4 597 598 639 638
4 598 599 640 639
4 599 600 641 640
4 600 601 642 641
4 601 602 643 642
4 602 603 644 643
4 603 604 645 644
4 604 605 646 645
4 605 606 647 646
4 606 607 648 647
4 607 608 649 648
4 608 609 650 649
4 609 610 651 650
4 610 611 652 651
4 611 612 653 652
4 612 613 654 653
4 613 614 655 654
4 615 616 657 656
4 616 617 658 657
4 617 618 659 658
4 618 619 660 659
4 619 620 661 660
4 620 621 662 661
4 621 622 663 662
4 622 623 664 663
4 623 624 665 664
4 624 625 666 665
4 625 626 667 666
4 626 627 668 667
4 627 628 669 668
4 628 629 670 669
4 629 630 671 670
4 630 631 672 671
4 631 632 673 672
4 632 633 674 673
4 633 634 675 674
4 634 635 676 675
4 635 636 677 676
4 636 637 678 677
4 637 638 679 678
4 638 639 680 679
4 639 640 681 680
4 640 641 682 681
4 641 642 683 682
4 642 643 684 683
4 643 644 685 684
4 644 645 686 685
4 645 646 687 686
4 646 647 688 687
4 647 648 689 688
4 648 649 690 689
4 649 650 691 690
4 650 651 692 691
4 651 652 693 692
4 652 653 694 693
4 653 654 695 694
4 654 655 696 695
4 656 657 698 697
4 657 658 699 698
4 658 659 700 699
4 659 660 701 700
4 660 661 702 701
4 661 662 703 702
4 662 663 704 703
4 663 664 705 704
4 664 665 706 705
4 665 666 707 706
4 666 667 708 707
4 667 668 709 708
4 668 669 710 709
4 669 670 711 710
4 670 671 712 711
4 671 672 713 712
4 672 673 714 713
4 673 674 715 714
4 674 675 716 715
4 675 676 717 716
4 676 677 718 717
4 677 678 719 718
4 678 679 720 719
4 679 680 721 720
4 680 681 722 721
4 681 682 723 722
4 682 683 724 723
4 683 684 725 724
4 684 685 726 725
4 685 686 727 726
4 686 687 728 727
4 687 688 729 728
4 688 689 730 729
4 689 690 731 730
4 690 691 732 731
4 691 692 733 732
4 692 693 734 733
4 693 694 735 734
4 694 695 736 735
4 695 696 737 736
4 697 698 739 738
4 698 699 740 739
4 699 700 741 740
4 700 701 742 741
4 701 702 743 742
4 702 703 744 743
4 703 704 745 744
4 704 705 746 745
4 705 706 747 746
4 706 707 748 747
4 707 708 749 748
4 708 709 750 749
4 709 710 751 750
4 710 711 752 751
4 711 712 753 752
4 712 713 754 753
4 713 714 755 754
4 714 715 756 755
4 715 716 757 756
4 716 717 758 757
4 717 718 759 758
4 718 719 760 759
4 719 720 761 760
4 720 721 762 761
4 721 722 763 762
4 722 723 764 763
4 723 724 765 764
4 724 725 766 765
4 725 726 767 766
4 726 727 768 767
4 727 728 769 768
4 728 729 770 769
4 729 730 771 770
4 730 731 772 771
4 731 732 773 772
4 732 733 774 773
4 733 734 775 774
4 734 735 776 775
4 735 736 777 776
4 736 737 778 777
4 738 739 780 779
4 739 740 781 780
4 740 741 782 781
4 741 742 783 782
4 742 743 784 783
4 743 744 785 784
4 744 745 786 785
4 745 746 787 786
4 746 747 788 787
4 747 748 789 788
4 748 749 790 789
4 749 750 791 790
4 750 751 792 791
4 751 752 793 792
4 752 753 794 793
4 753 754 795 794
4 754 755 796 795
4 755 756 797 796
4 756 757 798 797
4 757 758 799 798
4 758 759 800 799
4 759 760 801 800
4 760 761 802 801
4 761 762 803 802
4 762 763 804 803
4 763 764 805 804
4 764 765 806 805
4 765 766 807 806
4 766 767 808 807
4 767 768 809 808
4 768 769 810 809
4 769 770 811 810
4 770 771 812 811
4 771 772 813 812
4 772 773 814 813
4 773 774 815 814
4 774 775 816 815
4 775 776 817 816
4 776 777 818 817
4 777 778 819 818
4 779 780 821 820
4 780 781 822 821
4 781 782 823 822
4 782 783 824 823
4 783 784 825 824
4 784 785 826 825
4 785 786 827 826
4 786 787 828 827
4 787 788 829 828
4 788 789 830 829
4 789 790 831 830
4 790 791 832 831
4 791 792 833 832
4 792 793 834 833
4 793 794 835 834
4 794 795 836 835
4 795 796 837 836
4 796 797 838 837
4 797 798 839 838
4 798 799 840 839
4 799 800 841 840
4 800 801 842 841
4 801 802 843 842
4 802 803 844 843
4 803 804 845 844
4 804 805 846 845
4 805 806 847 846
4 806 807 848 847
4 807 808 849 848
4 808 809 850 849
4 809 810 851 850
4 810 811 852 851
4 811 812 853 852
4 812 813 854 853
4 813 814 855 854
4 814 815 856 855
4 815 816 857 856
4 816 817 858 857
4 817 818 859 858
4 818 819 860 859
CELL_TYPES 800
9
9
9
9
9
9
9
9
9
9
9
9
9
9
9
9
9
9
9
9
9
9
9
9
9
9
9
9
9
9
9
9
9
9
9
9
9
9
9
9
9
9
9
9
9
9
9
9
9
9
9
9
9
9
9
9
9
9
9
9
9
9
9
9
9
9
9
9
9
9
9
9
9
9
9
9
9
9
9
9
9
9
9
9
9
9
9
9
9
9
9
9
9
9
9
9
9
9
9
9
9
9
9
9
9
9
9
9
9
9
9
9
9
9
9
9
9
9
9
9
9
9
9
9
9
9
9
9
9
9
9
9
9
9
9
9
9
9
9
9
9
9
9
9
9
9
9
9
9
9
9
9
9
9
9
9
9
9
9
9
9
9
9
9
9
9
9
9
9
9
9
9
9
9
9
9
9
9
9
9
9
9
9
9
9
9
9
9
9
9
9
9
9
9
9
9
9
9
9
9
9
9
9
9
9
9
9
9
9
9
9
9
9
9
9
9
9
9
9
9
9
9
9
9
9
9
9
9
9
9
9
9
9
9
9
9
9
9
9
9
9
9
9
9
9
9
9
9
9
9
9
9
9
9
9
9
9
9
9
9
9
9
9
9
9
9
9
9
9
9
9
9
9
9
9
9
9
9
9
9
9
9
9
9
9
9
9
9
9
9
9
9
9
9
9
9
9
9
9
9
9
9
9
9
9
9
9
9
9
9
9
9
9
9
9
9
9
9
9
9
9
9
9
9
9
9
9
9
9
9
9
9
9
9
9
9
9
9
9
9
9
9
9
9
9
9
9
9
9
9
9
9
9
9
9
9
9
9
9
9
9
9
9
9
9
9
9
9
9
9
9
9
9
9
9
9
9
9
9
9
9
9
9
9
9
9
9
9
9
9
9
9
9
9
9
9
9
9
9
9
9
9
9
9
9
9
9
9
9
9
9
9
9
9
9
9
9
9
9
9
9
9
9
9
9
9
9
9
9
9
9
9
9
9
9
9
9
9
9
9
9
9
9
9
9
9
9
9
9
9
9
9
9
9
9
9
9
9
9
9
9
9
9
9
9
9
9
9
9
9
9
9
9
9
9
9
9
9
9
9
9
9
9
9
9
9
9
9
9
9
9
9
9
9
9
9
9
9
9
9
9
9
9
9
9
9
9
9
9
9
9
9
9
9
9
9
9
9
9
9
9
9
9
9
9
9
9
9
9
9
9
9
9
9
9
9
9
9
9
9
9
9
9
9
9
9
9
9
9
9
9
9
9
9
9
9
9
9
9
9
9
9
9
9
9
9
9
9
9
9
9
9
9
9
9
9
9
9
9
9
9
9
9
9
9
9
9
9
9
9
9
9
9
9
9
9
9
9
9
9
9
9
9
9
9
9
9
9
9
9
9
9
9
9
9
9
9
9
9
9
9
9
9
9
9
9
9
9
9
9
9
9
9
9
9
9
9
9
9
9
9
9
9
9
9
9
9
9
9
9
9
9
9
9
9
9
9
9
9
9
9
9
9
9
9
9
9
9
9
9
9
9
9
9
9
9
9
9
9
9
9
9
9
9
9
9
9
9
9
9
9
9
9
9
9
9
9
9
9
9
9
9
9
9
9
9
9
9
9
9
9
9
9
9
9
9
9
9
9
9
9
9
9
9
9
9
9
9
9
9
9
9
9
9
9
9
9
9
9
9
9
9
9
9
9
9
9
9
9
9
9
9
9
9
9
9
9
9
9
9
9
9
9
9
9
9
9
9
9
9
9
9
9
9
9
9
9
9
9
9
9
9
9
9
9
9
9
9
9
9
9
9
9
9
9
9
9
9
9
9
POINT_DATA 861
SCALARS Disp float 2
LOOKUP_TABLE default
0.0 0.0
0.006432645644852763 -0.31774819058963993
0.007928289448424589 -0.6253996194532867
0.008749658534502497 -0.9318250336045575
0.009861702913818882 -1.2378237423436587
0.011793464096261504 -1.5428790890691095
0.015346675814999773 -1.846293369209333
0.021524789106761737 -2.1471852765837647
0.0315135518064201 -2.444442619012161
0.04660040793809364 -2.7365940403800506
0.06805416841193053 -3.021642027171628
0.09704072996200898 -3.2969890312507792
0.1345852821808241 -3.5595000053247707
0.18156013186729503 -3.805648484038938
0.23867198798930017 -4.031615323184748
0.3063880872640404 -4.2333777148048854
0.38481392185295293 -4.4068309269826695
0.4735567667065178 -4.547976511323834
0.5716189311682955 -4.653200059863838
0.6773658078863377 -4.719529494051927
0.7882231892388539 -4.745001667364897
0.8990805705913648 -4.719529494051778
1.0048274473093846 -4.653200059863536
1.1028896117711238 -4.547976511323395
1.1916324566246403 -4.4068309269821215
1.2700582912135001 -4.233377714804258
1.3377743904881856 -4.0316153231840595
1.3948862466101364 -3.805648484038208
1.4418610962965523 -3.559500005324023
1.4794056485153158 -3.296989031250037
1.508392210065348 -3.0216420271709117
1.5298459705391465 -2.736594040379378
1.54493282667079 -2.4444426190115403
1.5549215893704271 -2.147185276583206
1.5610997026621745 -1.8462933692088408
1.5646529143809036 -1.5428790890686934
1.566584675563342 -1.237823742343318
1.5676967199426568 -0.9318250336042971
1.5685180890287342 -0.6253996194531056
1.570013732832305 -0.3177481905895413
1.5764463784771543 0.0
0.07925441909028431 -0.002635468517852969
0.08381806471121188 -0.3180762347690419
0.08458487380563313 -0.6254648123178633
0.08530674835749305 -0.9319207500835015
0.08627104181722996 -1.2379986948199553
0.08789956053809589 -1.5432913692298167
0.09094655456056845 -1.847168256175982
0.09635900068804572 -2.1487927538463154
0.10524771031101841 -2.447084350006171
0.1187851646479154 -2.740576379855594
0.1381026260921788 -3.0272525599160507
0.16422643544397628 -3.3044851025714177
0.1980657475110818 -3.5691063921921
0.24041172008504327 -3.817555147185593
0.2919079572135763 -4.045967889339487
0.3529909762349435 -4.250253997446445
0.42378420488836244 -4.426208900868213
0.5039764925273132 -4.569703533532378
0.5927081561850559 -4.676967854452829
0.6883905843580405 -4.744841893856887
0.7882231892388358 -4.770957499294208
0.8880557941196253 -4.7448418938567345
0.9837382222925893 -4.676967854452519
1.072469885950298 -4.569703533531929
1.1526621735892073 -4.4262089008676515
1.2234554022425788 -4.250253997445805
1.2845384212638968 -4.045967889338785
1.3360346583923808 -3.81755514718485
1.3783806309662925 -3.5691063921913395
1.412219943033352 -3.3044851025706645
1.4383437523851075 -3.0272525599153246
1.4576612138293363 -2.740576379854913
1.4711986681662061 -2.447084350005544
1.4800873777891592 -2.1487927538457523
1.4854998239166233 -1.8471682561754872
1.4885468179390882 -1.543291369229399
1.4901753366599502 -1.2379986948196144
1.4911396301196864 -0.931920750083241
1.4918615046715462 -0.6254648123176821
1.4926283137659673 -0.31807623476894287
1.497191959386889 -0.0026354685178504433
0.1574468982575487 -0.004744835773833808
0.16082650043156316 -0.31824227930420523
0.16126091541620907 -0.6254951294933523
0.161847177236358 -0.9320041951409939
0.1626757639021251 -1.2381355052429308
0.1640315049645973 -1.5436178077828633
0.1665863413912883 -1.8478960368704904
0.17123594567922654 -2.1501774480947256
0.1790037526178669 -2.4494047283080866
0.19095068220833622 -2.7441079410238984
0.20807766533756777 -3.0322489284724683
0.23128211261745624 -3.31117186569809
0.261358618479883 -3.5776830558934356
0.29900673641420755 -3.828193755353846
0.34481179036962095 -4.058802147486541
0.3991842528317717 -4.265360348653244
0.46227906975785327 -4.44357936651005
0.5338810218012797 -4.58921406705387
0.6132444481737566 -4.698340054345516
0.6988388647822531 -4.767562484427091
0.7882231892388181 -4.7942494616080396
0.8776075136953774 -4.767562484426935
0.9632019303038549 -4.6983400543451985
1.0425653566763022 -4.589214067053413
1.1141673087196926 -4.4435793665094785
1.1772621256457318 -4.2653603486525915
1.2316345881078394 -4.058802147485828
1.2774396420632084 -3.828193755353092
1.3150877599974888 -3.5776830558926638
1.345164265859875 -3.311171865697326
1.3683687131397262 -3.0322489284717333
1.3854956962689269 -2.7441079410232105
1.3974426258593722 -2.4494047283074543
1.4052104327979944 -2.150177448094159
1.4098600370859213 -1.847896036869993
1.4124148735126054 -1.5436178077824445
1.413770614575075 -1.2381355052425893
1.4145992012408415 -0.9320041951407336
1.4151854630609904 -0.6254951294931712
1.4156198780456364 -0.31824227930410576
1.4189994802196448 -0.004744835773828412
0.23507472840097254 -0.006448417120863393
0.23765080701856764 -0.3183552980445708
0.23791392700020408 -0.6255112614501839
0.23837136201201922 -0.9320701552364867
0.23907147256733893 -1.2382437225103848
0.2401864003762007 -1.5438679146031486
0.24227742432793875 -1.8484815967464934
0.24617389584574914 -2.151339946780939
0.2528133272505113 -2.4513988615229407
0.2631462434632457 -2.7471801187671816
0.27804869835223406 -3.036620517415484
0.29829362794662134 -3.3170384608183787
0.3245651512388189 -3.585218322080291
0.3574704299029287 -3.8375500361164057
0.39752778445359394 -4.070102202896321
0.44512874673464736 -4.2786811568240495
0.5004639143711707 -4.4589290885674835
0.5634105621913982 -4.606497551103405
0.6333509336356619 -4.717305793120898
0.7089742452281623 -4.787753254491465
0.7882231892388007 -4.815016792543133
0.8674721332494337 -4.787753254491306
0.9430954448419173 -4.717305793120576
1.0130358162861555 -4.6064975511029385
1.0759824641063507 -4.4589290885669035
1.1313176317428377 -4.278681156823386
1.1789185940238531 -4.070102202895598
1.2189759485744789 -3.837550036115641
1.2518812272385507 -3.58521832207951
1.2781527505307124 -3.3170384608176064
1.2983976801250674 -3.0366205174147414
1.3133001350140288 -2.7471801187664875
1.3236330512267418 -2.4513988615223035
1.330272482631488 -2.151339946780369
1.3341689541492885 -1.8484815967459942
1.3362599781010214 -1.543867914602729
1.337374905909881 -1.2382437225100433
1.3380750164652002 -0.9320701552362266
1.3385324514770156 -0.6255112614500028
1.3387955714586521 -0.31835529804447094
1.3413716500762418 -0.006448417120855323
0.31238215780907325 -0.00783090182667075
0.31435223268926216 -0.3184422358119524
0.3145231148282365 -0.6255203977661099
0.3148731257527856 -0.9321207698817673
0.3154540985102394 -1.2383291790367434
0.31635697369136223 -1.5440550832406241
0.318027882212914 -1.8489341465473181
0.3211897634985226 -2.1522834163366578
0.3267083743260626 -2.4530663025091584
0.3354207449041245 -2.7497890540981706
0.34808300571089396 -3.0403617789090647
0.3653477069632073 -3.3220780658023594
0.38778800631395804 -3.5917046939396147
0.4159210607450641 -3.845615744986368
0.45020208844090404 -4.079857769428708
0.4909906288763554 -4.2902039943813275
0.5385064051003983 -4.472243148644606
0.5927232836761193 -4.621537341744815
0.6532024360678075 -4.7338683464068305
0.7189229111109616 -4.8054612069907385
0.7882231892387839 -4.833333725240694
0.8575234673666006 -4.805461206990577
0.9232439424097398 -4.733868346406503
0.9837230948014054 -4.621537341744341
1.037939973377099 -4.472243148644018
1.0854557496011106 -4.290203994380656
1.1262442900365288 -4.079857769427975
1.1605253177323354 -3.845615744985595
1.1886583721634087 -3.5917046939388246
1.2110986715141285 -3.322078065801579
1.2283633727664147 -3.0403617789083164
1.241025633573161 -2.7497890540974708
1.2497380041512043 -2.453066302508517
1.255256614978731 -2.152283416336085
1.2584184962643312 -1.8489341465468174
1.260089404785879 -1.5440550832402038
1.2609922799670004 -1.238329179036402
1.261573252724454 -0.9321207698815072
1.2619232636490032 -0.625520397765929
1.2620941457879775 -0.31844223581185216
1.264064220668162 -0.007830901826660281
0.38947895282740064 -0.008946341599207862
0.3909685699132009 -0.31851198368919603
0.39108634471631326 -0.6255272133146457
0.39134870161472707 -0.93215832178583
0.3918174746155816 -1.2383967114622434
0.3925371488631256 -1.544192224783124
0.3938317494851283 -1.849268467662969
0.39630670450031913 -2.1530149794781326
0.40072075974649635 -2.4544104002604743
0.4078226861918552 -2.751935720378701
0.41824716436144294 -3.043471819553988
0.4325287222970437 -3.326288840423205
0.4511322108701925 -3.597139356751021
0.47448386976041634 -3.852387359892963
0.5029738051379212 -4.088064829004784
0.5369325514131369 -4.299921129135451
0.5765877782560208 -4.4835069156776015
0.622004080971209 -4.634317428120948
0.6729624456947293 -4.748025991693291
0.7287848471421121 -4.820710869486394
0.7882231892387666 -4.8492443837020796
0.8476615313354166 -4.820710869486229
0.9034839327827867 -4.748025991692959
0.9544422975062876 -4.634317428120468
0.9998586002214525 -4.483506915677007
1.0395138270643098 -4.299921129134772
1.0734725733394976 -4.088064829004044
1.1019625087169749 -3.8523873598921825
1.1253141676071716 -3.597139356750224
1.1439176561802946 -3.3262888404224182
1.1581992141158732 -3.0434718195532344
1.1686236922854414 -2.7519357203779964
1.1757256187307847 -2.45441040025983
1.1801396739769512 -2.1530149794775566
1.1826146289921353 -1.849268467662467
1.183909229614135 -1.5441922247827036
1.1846289038616782 -1.238396711461902
1.1850976768625325 -0.9321583217855699
1.1853600337609465 -0.625527213314465
1.1854778085640587 -0.31851198368909556
1.1869674256498552 -0.008946341599195391
0.46642166745164715 -0.009836009922747638
0.46752531732356833 -0.3185681986608161
0.4676093423510943 -0.625534039445417
0.4677978565154613 -0.9321844430307725
0.46815839526164504 -1.238449526930478
0.4687180557165395 -1.5442911572639164
0.4696806994411127 -1.849502802235012
0.47152587721935063 -2.1535505118329703
0.47488508191460593 -2.455439044797477
0.48040108183807667 -2.75362562264442
0.4886081347399876 -3.045954843741628
0.4999227783730718 -3.3296739849913477
0.5147024384373633 -3.6015248634660746
0.5332834342848568 -3.857866797672664
0.5559909590324895 -4.09472400559198
0.5831177166558585 -4.307830440623234
0.6148926892917954 -4.492711006457303
0.6514546676484165 -4.644821302254847
0.6928055792570295 -4.759765608879226
0.7386577880213168 -4.833504763038683
0.7882231892387491 -4.862768424293047
0.8377885904561784 -4.833504763038516
0.8836407992204545 -4.759765608878889
0.9249917108290514 -4.644821302254362
0.9615536891856532 -4.492711006456703
0.9933286618215689 -4.307830440622549
1.0204554194449156 -4.094724005591233
1.0431629441925259 -3.857866797671877
1.0617439400399982 -3.6015248634652712
1.0765236001042693 -3.329673984990556
1.0878382437373357 -3.0459548437408697
1.096045296639231 -2.7536256226437112
1.1015612965626895 -2.4554390447968295
1.1049205012579364 -2.1535505118323925
1.1067656790361695 -1.8495028022345092
1.1077283227607406 -1.5442911572634959
1.1082879832156347 -1.2384495269301365
1.1086485219618183 -0.9321844430305125
1.1088370361261852 -0.6255340394452362
1.108921061153711 -0.3185681986607154
1.1100247110256296 -0.009836009922733483
0.5432474204572404 -0.010533368151853063
0.5440413650515441 -0.31861360084194895
0.5441004022858705 -0.625541354961878
0.544222762684074 -0.9322003754881847
0.5444768054691085 -1.238488746885994
0.5448896097049675 -1.5443615603417973
0.5455687976433838 -1.8496562455758814
0.5468458718834524 -2.1539119738327317
0.5492204378604623 -2.4561693383772636
0.5532073873754287 -2.754869873679049
0.5592347959288154 -3.0478201184389975
0.5676157226883689 -3.3322421492826044
0.5786057661613973 -3.6048696894509495
0.5924484448847136 -3.8620617258575796
0.6093985679108416 -4.099841741230335
0.6297134035767652 -4.313935884865484
0.6536164909288914 -4.499852951245172
0.6812877124473478 -4.653033920530683
0.7129230284975002 -4.769061538470576
0.748651136620821 -4.843821461241876
0.7882231892387312 -4.873901102888606
0.8277952418566397 -4.843821461241707
0.8635233499799514 -4.769061538470237
0.8951586660300918 -4.653033920530195
0.9228298875485331 -4.499852951244567
0.9467329749006428 -4.313935884864795
0.9670478105665491 -4.099841741229584
0.9839979335926606 -3.8620617258567878
0.9978406123159619 -3.6048696894501417
1.0088306557889755 -3.3322421492818086
1.0172115825485153 -3.0478201184382354
1.0232389911018904 -2.7548698736783375
1.0272259406168478 -2.4561693383766148
1.029600506593852 -2.1539119738321526
1.0308775808339172 -1.8496562455753782
1.0315567687723324 -1.544361560341377
1.031969573008191 -1.2384887468856525
1.0322236157932254 -0.9322003754879247
1.0323459761914286 -0.6255413549616973
1.0324050134257552 -0.3186136008418482
1.033198958020057 -0.010533368151837577
0.6199795186150203 -0.011069488883070775
0.6205338803233862 -0.31865069488823344
0.6205671561528177 -0.6255483153981446
0.6206270094960432 -0.9322070621527586
0.6207762965290942 -1.2385139803402607
0.6210449384035919 -1.5444095324029044
0.6214794724168726 -1.8497494037399398
0.6222628652654106 -2.1541270686501846
0.6237373403582749 -2.4566279023636506
0.62627986426975 -2.7556894480041034
0.6301963330362281 -3.0490838515112366
0.6356997351000898 -3.334008509535498
0.6429518427605223 -3.6071890570791902
0.6521090998362905 -3.8649869203924943
0.6633504108134877 -4.103430608544274
0.6768868458069963 -4.318247959998659
0.6929454187400654 -4.5049404314339005
0.7117384672184192 -4.658946648407387
0.733550049473167 -4.775877077811449
0.7589036595775324 -4.851611915838986
0.7882231892387129 -4.882610048281675
0.817542718899892 -4.8516119158388165
0.8428963290042519 -4.775877077811107
0.864707911258991 -4.6589466484068955
0.8835009597373339 -4.504940431433291
0.8995595326703913 -4.318247959997965
0.913095967663889 -4.103430608543519
0.9243372786410757 -3.8649869203916998
0.9334945357168347 -3.6071890570783802
0.9407466433772578 -3.3340085095346987
0.9462500454411104 -3.0490838515104723
0.9501665142075812 -2.75568944800339
0.9527090381190509 -2.4566279023629995
0.9541835132119115 -2.1541270686496046
0.9549669060604477 -1.8497494037394364
0.9554014400737277 -1.5444095324024838
0.9556700819482252 -1.2385139803399194
0.9558193689812761 -0.9322070621524987
0.9558792223245016 -0.6255483153979637
0.955912498153933 -0.3186506948881327
0.9564668598622974 -0.011069488883054245
0.6966354215255697 -0.01147489337750613
0.6970141885874632 -0.31868254253602246
0.6970168679958824 -0.6255530319626447
0.6970146677443667 -0.9322052253594749
0.6970619742398245 -1.2385247209781938
0.6971827922348368 -1.5444368599350238
0.6973947760281273 -1.8497995080187468
0.6977606564677995 -2.1542306045728683
0.6984384670993089 -2.4568540719343686
0.6996459691356867 -2.7561192558837315
0.701550077107477 -3.04977530650268
0.704260295271598 -3.3349988863239846
0.7078464984268392 -3.6085076530723086
0.712386849817813 -3.8666672169768037
0.7179860467435011 -4.105513498731374
0.7247948922866425 -4.3207847456561534
0.7330323162866228 -4.507990019617309
0.742978644296762 -4.66257090081581
0.7549599261520252 -4.780179351497372
0.7696271426888138 -4.856793367840997
0.7882231892386938 -4.888823951350365
0.8068192357885742 -4.856793367840827
0.8214864523253599 -4.780179351497028
0.8334677341806178 -4.662570900815316
0.8434140621907508 -4.507990019616697
0.8516514861907256 -4.320784745655459
0.8584603317338622 -4.105513498730616
0.8640595286595458 -3.8666672169760083
0.8685998800505159 -3.6085076530714972
0.8721860832057531 -3.334998886323184
0.8748963013698701 -3.0497753065019144
0.8768004093416573 -2.756119255883018
0.8780079113780328 -2.456854071933717
0.8786857220095406 -2.1542306045722883
0.8790516024492123 -1.8497995080182432
0.8792635862425026 -1.544436859934603
0.879384404237515 -1.2385247209778523
0.8794317107329725 -0.9322052253592148
0.8794295104814569 -0.6255530319624638
0.8794321898898759 -0.3186825425359217
0.8798109569517685 -0.011474893377488844
0.7732337404927506 -0.011776329547991468
0.7734877188360159 -0.31871262426439606
0.7734548664250778 -0.6255533390197122
0.7733905525852441 -0.9321952770611283
0.7733383195721476 -1.2385209570152795
0.7733112008126292 -1.5444428842172007
0.7733001865294141 -1.8498150410541037
0.7732956889864371 -2.154259897871689
0.7732937518042895 -2.4569112222467155
0.7732933178393849 -2.7562271224060284
0.7732932707701681 -3.0499555150385365
0.7732904808004586 -3.33526841838945
0.7732780320908096 -3.6088784271609273
0.7732558184078321 -3.86715369467163
0.7732509913450412 -4.1061388377220664
0.7733556487344715 -4.321588431460959
0.7737737938041195 -4.509036579232036
0.7748672364808645 -4.663949635218764
0.7771168572090821 -4.781995808297362
0.7810634425210031 -4.859279552525865
0.7882231892386743 -4.8924180292493915
0.7953829359563466 -4.859279552525694
0.799329521268267 -4.781995808297018
0.8015791419964832 -4.66394963521827
0.802672584673228 -4.509036579231423
0.8030907297428768 -4.321588431460262
0.8031953871323083 -4.106138837721309
0.8031905600695188 -3.8671536946708343
0.8031683463865433 -3.608878427160116
0.8031558976768967 -3.3352684183886487
0.8031531077071886 -3.0499555150377704
0.8031530606379728 -2.7562271224053143
0.8031526266730687 -2.456911222246064
0.8031506894909216 -2.154259897871109
0.8031461919479449 -1.8498150410536005
0.8031351776647301 -1.5444428842167797
0.8031080589052115 -1.238520957014938
0.8030558258921151 -0.9321952770608681
0.8029915120522815 -0.6255533390195311
0.8029586596413434 -0.31871262426429536
0.8032126379846078 -0.011776329547973615
0.8497862241749301 -0.01200038298289985
0.8499532899494079 -0.31874275150265974
0.8498859183851661 -0.6255480261616913
0.8497601084974155 -0.9321773897020483
0.8496109574526319 -1.2385030140949733
0.8494380628246351 -1.5444272950652034
0.8492043965244865 -1.849796948959824
0.8488291302477201 -2.154229610419
0.8481480157756215 -2.4568537034413604
0.8469405108511204 -2.756119207909383
0.845036331799969 -3.049774849038
0.8423187904009943 -3.3349953190046815
0.8387071839620293 -3.608498939545996
0.8341248248883344 -3.8666579726473573
0.8285225607069087 -4.105528581433673
0.8219310890332441 -4.320889244561443
0.814521048941114 -4.508310956122955
0.8066613227618101 -4.663306162088704
0.798893709750286 -4.781544732146893
0.7920023875091053 -4.859185211002292
0.7882231892386542 -4.893471799473515
0.7844439909682027 -4.859185211002122
0.7775526687270228 -4.781544732146549
0.7697850557155036 -4.66330616208821
0.7619253295362066 -4.508310956122343
0.7545152894440844 -4.320889244560748
0.747923817770427 -4.1055285814329165
0.7423215535890086 -3.8666579726465624
0.7377391945153218 -3.6084989395451865
0.7341275880763646 -3.3349953190038812
0.731410046677397 -3.0497748490372345
0.729505867626251 -2.75611920790867
0.7282983627017534 -2.456853703440709
0.7276172482296571 -2.1542296104184206
0.7272419819528918 -1.849796948959321
0.7270083156527438 -1.5444272950647824
0.7268354210247472 -1.238503014094632
0.7266862699799638 -0.9321773897017883
0.7265604600922132 -0.6255480261615102
0.7264930885279713 -0.31874275150255904
0.7266601543024489 -0.012000382982881664
0.9263029393596482 -0.012169640039509001
0.9264119785241357 -0.3187718336936962
0.9263139122811979 -0.6255372866349292
0.9261290301561929 -0.9321516780803331
0.9258863680435965 -1.2384714905615066
0.9255713162812887 -1.5443904789564975
0.9251148119932542 -1.8497438595718112
0.9243232957926051 -2.1541247948465245
0.9228479023363214 -2.4566273488859665
0.9203066160624134 -2.755689483012709
0.916389203078776 -3.0490824611244047
0.9108778625127363 -3.3340010095358124
0.9036040269409453 -3.607171850111222
0.894414254470016 -3.8649698306820746
0.8831825445689302 -4.103464116630922
0.8698696502750802 -4.318462156449354
0.8546073368299644 -4.505581576439625
0.8377547070009725 -4.660389584899659
0.8199663038840675 -4.778617590478404
0.8025555680196208 -4.856633041605811
0.7882231892386349 -4.892166441056432
0.7738908104576491 -4.856633041605639
0.7564800745932057 -4.778617590478061
0.7386916714763094 -4.660389584899167
0.7218390416473298 -4.505581576439016
0.7065767282022284 -4.3184621564486605
0.6932638339083914 -4.1034641166301675
0.6820321240073187 -3.8649698306812823
0.6728423515364031 -3.6071718501104146
0.6655685159646255 -3.3340010095350143
0.6600571753985979 -3.0490824611236413
0.6561397624149706 -2.7556894830119973
0.6535984761410696 -2.4566273488853163
0.65212308268479 -2.154124794845945
0.6513315664841434 -1.8497438595713083
0.6508750621961099 -1.544390478956077
0.6505600104338026 -1.2384714905611656
0.6503173483212065 -0.9321516780800732
0.6501324661962015 -0.6255372866347482
0.6500343999532636 -0.3187718336935956
0.6501434391177512 -0.012169640039490627
1.0028011796282956 -0.012295873076822093
1.0028682600668961 -0.3187981668741812
1.0027434558247659 -0.6255217768656139
1.0025029622356714 -0.9321184599919824
1.0021705845315378 -1.238427214878035
1.0017178849715946 -1.5443329779796109
1.0010185357541956 -1.8496470426061324
0.9997369750555263 -2.153908973880489
0.9973647963332277 -2.4561691466719937
0.9933790179265723 -2.7548698688213187
0.9873493241404104 -3.0478175197796022
0.9789616560320754 -3.3322314057772804
0.9679597998038342 -3.604846705737389
0.9541058079080031 -3.8620410645323284
0.9371856486846221 -4.099896124504885
0.9170756979400609 -4.314251925801514
0.8938434831366036 -4.500781522642627
0.8678685827218195 -4.655129705780526
0.8400594165830457 -4.773167508006525
0.8122458755944416 -4.851524236137698
0.7882231892386161 -4.8885834824453145
0.7642005028827918 -4.851524236137528
0.7363869618941934 -4.773167508006185
0.7085777957554319 -4.655129705780037
0.6826028953406647 -4.500781522642023
0.6593706805372272 -4.314251925800825
0.6392607297926856 -4.099896124504135
0.6223405705693228 -3.86204106453154
0.6084865786735115 -3.6048467057365867
0.5974847224452887 -3.3322314057764864
0.5890970543369709 -3.0478175197788424
0.5830673605508233 -2.7548698688206095
0.5790815821441785 -2.456169146671345
0.5767094034218865 -2.15390897387991
0.5754278427232212 -1.84964704260563
0.5747284935058237 -1.5443329779791903
0.5742757939458811 -1.2384272148776938
0.5739434162417478 -0.9321184599917224
0.5737029226526532 -0.6255217768654329
0.5735781184105232 -0.3187981668740806
0.5736451988491237 -0.012295873076803547
1.0792957549039566 -0.01238600353260368
1.079328197270442 -0.31882026248146467
1.0791790289950038 -0.6255019713578314
1.0788866608817573 -0.93207829016489
1.0784690195335742 -1.2383712524897754
1.0778784051458759 -1.544253041674272
1.0769000774404514 -1.8494902672975893
1.075056356268742 -2.1535480563508624
1.0717008226326346 -2.455439430030984
1.066184879087013 -2.753625235192732
1.0579743169425309 -3.0459509344103095
1.0466561210313992 -3.3296616009892386
1.0318802508175846 -3.601501127915923
1.0133202150292213 -3.8578499790913336
0.9906704859109268 -4.094800858080282
0.9637090796615425 -4.30822760180771
0.9324330693177422 -4.49387248977035
0.8972878392313345 -4.647502880480884
0.8594905289049649 -4.76519661445948
0.8215729458256826 -4.843956242525855
0.7882231892385976 -4.882836192790758
0.7548734326515154 -4.843956242525684
0.7169558495722417 -4.765196614459142
0.6791585392458873 -4.647502880480399
0.6440133091595008 -4.493872489769751
0.612737298815725 -4.308227601807027
0.5857758925663661 -4.0948008580795365
0.5631261634480956 -3.857849979090551
0.5445661276597581 -3.6015011279151263
0.5297902574459673 -3.32966160098845
0.5184720615348574 -3.045950934409554
0.5102614993903938 -2.7536252351920263
0.504745555844786 -2.4554394300303373
0.501390022208688 -2.1535480563502842
0.49954630103698405 -1.849490267297087
0.4985679733315622 -1.5442530416738516
0.4979773589438646 -1.2383712524894341
0.4975597175956818 -0.9320782901646298
0.49726734948243556 -0.6255019713576502
0.4971181812069976 -0.3188202624813641
0.497150623573483 -0.012386003532584997
1.1557956120117818 -0.012446205039662352
1.1557983398700744 -0.3188368222907182
1.1556258385068447 -0.6254781187003564
1.155285304025642 -0.9320319124167006
1.154787319965939 -1.2383046395542576
1.1540491082175381 -1.5441457757100587
1.1527475423016713 -1.849254269937566
1.1502765730468163 -2.153013862247666
1.1458658757788025 -2.454411175741375
1.1387624775538854 -2.751934581954971
1.1283341070823836 -3.043466785072452
1.1140540689299319 -3.3262771443779346
1.0954732472675672 -3.5971214993395955
1.0721802534137446 -3.852384117475542
1.043782269603581 -4.088166030101035
1.0099563976405108 -4.300375013465578
0.970641239347555 -4.484842874372953
0.9263624232687937 -4.637508511124103
0.8786969670598247 -4.754739288272098
0.8308439669053532 -4.833986035963516
0.7882231892385795 -4.874944839923434
0.7456024115718093 -4.833986035963347
0.6977494114173496 -4.754739288271763
0.6500839552083995 -4.637508511123622
0.605805139129663 -4.484842874372359
0.5664899808367367 -4.300375013464901
0.532664108873697 -4.088166030100297
0.5042661250635638 -3.852384117474766
0.4809731312097719 -3.5971214993388054
0.46239230954743665 -3.3262771443771517
0.44811227139501153 -3.043466785071702
0.4376839009235321 -2.75193458195427
0.4305805026986321 -2.4544111757407316
0.42616980543063016 -2.1530138622470907
0.42369883617578263 -1.8492542699370644
0.42239727025991947 -1.5441457757096388
0.42165905851151964 -1.2383046395539166
0.42116107445181733 -0.9320319124164406
0.42082053997061464 -0.6254781187001753
0.420648038607385 -0.3188368222906176
0.42065076646567773 -0.012446205039643611
1.232306758768764 -0.01248235117923831
1.2322844475798584 -0.31884701693034145
1.2320895184627128 -0.6254502736340476
1.231703778528877 -0.9319801618073231
1.2311272942286577 -1.2382270897272205
1.2302226723111456 -1.544002838284892
1.2285531426172216 -1.8489200069972123
1.225395853160007 -2.152283563485311
1.219878619101615 -2.4530670914708597
1.211163378956742 -2.7497869098609398
1.1984980655508506 -3.0403561885512467
1.181241833029135 -3.3220698519469254
1.1588429913495966 -3.5916995909009595
1.1308034662080557 -3.845636444369206
1.096655969040486 -4.079988674236751
1.0560076517651047 -4.290698653958648
1.0087388886212854 -4.473704590448998
0.9554476085140753 -4.625168599080418
0.8980341549339241 -4.741822808701033
0.8402648610250287 -4.821617367491314
0.7882231892385617 -4.864874054635886
0.7361815174520989 -4.821617367491147
0.6784122235432177 -4.741822808700704
0.6209987699630898 -4.625168599079943
0.5677074898559088 -4.4737045904484125
0.520438726712123 -4.290698653957981
0.47979040943677803 -4.079988674236021
0.4456429122692441 -3.8456364443684388
0.41760338712773953 -3.591699590900178
0.39520454544823547 -3.32206985194615
0.37794831292655096 -3.0403561885505033
0.365282999520686 -2.7497869098602434
0.35656775937583335 -2.4530670914702197
0.35105052531745584 -2.152283563484738
0.34789323586025056 -1.8489200069967116
0.34622370616633125 -1.5440028382844728
0.34531908424882096 -1.2382270897268797
0.3447425999486022 -0.9319801618070631
0.34435686001476673 -0.6254502736338664
0.34416193089762104 -0.3188470169302408
0.34413961970871587 -0.012482351179219548
1.308833067715915 -0.012500237563055785
1.3087913036809578 -0.31885056119160365
1.308575826284966 -0.6254184570847314
1.3081470500893513 -0.9319237153426582
1.3074902117810168 -1.23813719533545
1.3063926356196824 -1.543813804598447
1.304308430418229 -1.8484684488946106
1.3004143902028789 -2.151340725291212
1.2937736382635212 -2.4513991766943173
1.2834367839485679 -2.7471769243331274
1.2685336218490053 -3.0366153767585304
1.2483053832177917 -3.3170366798672966
1.222091321424292 -3.5852317609473947
1.1893060209718989 -3.8376039760911107
1.1494281140138172 -4.0702740563352595
1.1020336060809637 -4.2792198350462085
1.0469818866552751 -4.4604940714931125
0.9848843687947113 -4.610519811926943
0.9178296687187522 -4.726455859492151
0.8500237640557775 -4.806808408532734
0.7882231892385441 -4.852543400900322
0.7264226144213155 -4.806808408532571
0.658616709758357 -4.726455859491825
0.5915620096824252 -4.610519811926475
0.5294644918218954 -4.460494071492536
0.474412772396245 -4.27921983504555
0.427018264463433 -4.070274056334539
0.3871403575053929 -3.837603976090354
0.3543550570530406 -3.585231760946622
0.3281409952595807 -3.3170366798665305
0.3079127566284027 -3.036615376757794
0.2930095945288703 -2.7471769243324373
0.28267274021394073 -2.4513991766936822
0.27603198827460035 -2.1513407252906416
0.2721379480592611 -1.8484684488941119
0.2700537428578138 -1.5438138045980283
0.2689561666964817 -1.2381371953351095
0.2682993283881477 -0.9319237153423982
0.26787055219253336 -0.6254184570845503
0.26765507479654177 -0.318850561191503
0.2676133107615847 -0.012500237563037026
1.385376284347503 -0.012505708258051662
1.385322614777524 -0.31884779196017593
1.385090971361031 -0.6253828294099101
1.384620627772825 -0.9318630913098761
1.3838747399375908 -1.2380312515314866
1.3825517605542539 -1.5435657213781497
1.3800056360715187 -1.8478836666844927
1.3753549782681973 -2.1501779707621256
1.3675827582576507 -2.4494040625562623
1.3556315151482528 -2.7441039098936093
1.3385074260535712 -3.0322456005932175
1.3153281854386025 -3.3111793028426253
1.2853215290359203 -3.5777192265790707
1.2478113863679878 -3.8282881793738572
1.202229885199278 -4.0590310034187445
1.1481811902665648 -4.265971519341792
1.085577198134862 -4.445273483179498
1.0149932484225779 -4.593616283183728
0.9384291919246448 -4.708632909056413
0.8603598584051615 -4.789472814451999
0.788223189238526 -4.837817917712426
0.716086520071896 -4.789472814451839
0.638017186552432 -4.708632909056093
0.5614531300545298 -4.593616283183269
0.4908691803422847 -4.445273483178932
0.4282651882106252 -4.265971519341145
0.3742164932779588 -4.059031003418036
0.3286349921092959 -3.8282881793731103
0.2911248494414099 -3.577719226578308
0.26111819303877243 -3.3111793028418686
0.2379389524238436 -3.0322456005924896
0.22081486332919603 -2.7441039098929263
0.20886362021982455 -2.4494040625556326
0.20109140020929786 -2.150177970761559
0.19644074240598947 -1.8478836666839964
0.19389461792326143 -1.543565721377732
0.19257163853992731 -1.238031251531146
0.19182575070469413 -0.9318630913096162
0.19135540711648838 -0.625382829409729
0.1911237636999959 -0.31884779196007534
0.19107009413001672 -0.012505708258032877
1.461935414034121 -0.012504679152652732
1.4618809251826639 -0.31883986938141584
1.4616422644329305 -0.6253440120279137
1.4611299039258625 -0.9317977127878214
1.4602767854290164 -1.2379034108749267
1.4586911128888373 -1.543243597609638
1.4556521102622788 -1.8471559165655091
1.4502339044115307 -2.1487919808949516
1.441338161611856 -2.447082305742779
1.4277967880171183 -2.7405719530885535
1.4084863765120976 -3.0272525619562245
1.3823956890506515 -3.3045041840031684
1.3486358171751172 -3.5691682200159716
1.3064415202680295 -3.817695644200264
1.2552113125298578 -4.046271857786557
1.1945926308506223 -4.250986328444989
1.1246309642542736 -4.428116446245016
1.0459797245703302 -4.574556773997318
0.9603388442945423 -4.68836214417296
0.8716550563418132 -4.769462734944587
0.7882231892385079 -4.820478774752505
0.7047913221352086 -4.7694627349444305
0.6161075341825011 -4.688362144172647
0.5304666539067489 -4.574556773996869
0.45181541422284943 -4.428116446244461
0.3818537476265501 -4.250986328444353
0.3212350659473662 -4.046271857785861
0.2700048582092466 -3.8176956441995284
0.22781056130221095 -3.569168220015221
0.19405068942672613 -3.3045041840024227
0.16796000196532443 -3.0272525619555064
0.14864959046034115 -2.740571953087878
0.13510821686563274 -2.4470823057421556
0.12621247406598032 -2.1487919808943894
0.12079426821524736 -1.8471559165650155
0.11775526558869703 -1.5432435976092211
0.11616959304852141 -1.2379034108745866
0.1153164745516765 -0.9317977127875615
0.114804114044609 -0.6253440120277327
0.11456545329487595 -0.31883986938131514
0.11451096444341903 -0.012504679152633952
1.5385053831888653 -0.012502949381044274
1.5384674643353227 -0.3188293517047534
1.5382395149559605 -0.6253033351109232
1.537679145890523 -0.9317247626353665
1.5366900030527966 -1.237743884342986
1.5348077880949829 -1.5428367068921425
1.5312575884879565 -1.8462797064145806
1.5250692871039158 -2.147182352554772
1.5150719056249229 -2.444438987702603
1.4999820145067677 -2.736589768262635
1.4785392573984288 -3.0216468011590853
1.449592573918264 -3.2970218064111525
1.412136012226223 -3.5595899148627703
1.3653278573721577 -3.8058405298380915
1.30852966409715 -4.032013737878611
1.2414266422129543 -4.2342882230127845
1.1642116378994105 -4.409077649601202
1.0777840310928726 -4.5534681156773535
0.9838803163672842 -4.665804771747824
0.8852768168885342 -4.746591678124947
0.7882231892384894 -4.799999999999991
0.6911695615884503 -4.746591678124795
0.592566062109724 -4.665804771747518
0.4986623473841771 -4.553468115676914
0.41223474057768933 -4.40907764960066
0.3350197362642 -4.234288223012162
0.2679167143800618 -4.032013737877928
0.21111852110511098 -3.80584052983737
0.16431036625110357 -3.559589914862033
0.12685380455911688 -3.2970218064104193
0.09790712107900085 -3.021646801158378
0.07646436397070282 -2.7365897682619673
0.06137447285257917 -2.444438987701986
0.051377091373611135 -2.147182352554214
0.045188789989587495 -1.8462797064140901
0.041638590382570145 -1.542836706891727
0.03975637542476095 -1.237743884342646
0.03876723258703615 -0.9317247626351068
0.0382068635215992 -0.6253033351107422
0.03797891414223736 -0.31882935170465276
0.03794099528869488 -0.012502949381025526
SCALARS Stress float 6
LOOKUP_TABLE default
-1333.2521377981175 -2141.375394448293 -1661.9080009525255 -31.86770051911676 0.0 0.0
1411.1260997913914 834.9709538329994 1068.8629546311327 -18.91300977687148 0.0 0.0
653.0163560834688 189.63886412978434 279.5135129346629 -43.056652061081714 0.0 0.0
514.84929044151 39.40710102842025 175.5446296811644 -0.23182872226858442 0.0 0.0
649.8949161282039 95.99071794056543 281.73046054716946 3.6440729363022517 0.0 0.0
785.333543442982 157.18242724806325 424.1912890109726 1.6193705730197112 0.0 0.0
928.2593464646277 223.91450640799934 555.4694454456267 0.10068633504860225 0.0 0.0
1077.395537698709 309.132961068542 680.3826831168537 -1.4517492613896188 0.0 0.0
1238.3301136713121 411.67251236850814 813.6041734939031 -3.3467935930606556 0.0 0.0
1419.2715484037878 539.086357573231 967.8300947482397 -5.417885353988169 0.0 0.0
1625.9945383755155 696.8469315698017 1149.696072889633 -7.303141151616196 0.0 0.0
1857.9093760116843 884.6005145650798 1359.0796117892694 -8.676598699053065 0.0 0.0
2108.707019406495 1094.8379519023388 1589.1468828515324 -9.517482959922066 0.0 0.0
2370.1574422710955 1319.1216419665977 1831.5963127843745 -10.149239772142435 0.0 0.0
2631.8545011924402 1546.8613983725136 2075.925449705638 -10.523303210934223 0.0 0.0
2881.5511325243674 1765.8258973375605 2309.918427120357 -10.520110409857471 0.0 0.0
3106.3171115471246 1963.4017145355194 2520.8363977517815 -9.976660747510117 0.0 0.0
3293.80718323132 2127.6651136244923 2696.5474825121473 -8.90969186041692 0.0 0.0
3444.507198431794 2259.557460630547 2837.6131333732906 -7.946029127846806 0.0 0.0
3542.7416535762177 2344.1912751635737 2928.729340562015 -11.185865004833474 0.0 0.0
3535.181351757839 2336.2726531304643 2921.11303919728 1.4941647918931267e-10 0.0 0.0
3542.741653576182 2344.191275163554 2928.72934056179 11.18586500466353 0.0 0.0
3444.5071984320043 2259.5574606308273 2837.6131333731737 7.946029127879109 0.0 0.0
3293.8071832297746 2127.6651136230216 2696.5474825110564 8.90969186035185 0.0 0.0
3106.3171115476325 1963.4017145362022 2520.8363977516333 9.976660747519858 0.0 0.0
2881.5511325240577 1765.8258973373727 2309.918427120023 10.520110409952757 0.0 0.0
2631.8545011923775 1546.861398372673 2075.925449705398 10.523303211123473 0.0 0.0
2370.157442269376 1319.1216419650498 1831.5963127828368 10.149239772308354 0.0 0.0
2108.7070194040966 1094.8379519001546 1589.1468828494733 9.517482959985141 0.0 0.0
1857.9093760095293 884.6005145631748 1359.0796117875411 8.676598699152349 0.0 0.0
1625.994538373299 696.8469315678009 1149.696072887794 7.303141151613236 0.0 0.0
1419.2715484040866 539.0863575738238 967.8300947481973 5.417885353800104 0.0 0.0
1238.3301136711275 411.67251236860835 813.6041734935575 3.3467935931210313 0.0 0.0
1077.395537699079 309.1329610692416 680.382683116862 1.4517492613727647 0.0 0.0
928.2593464633576 223.91450640698469 555.4694454446334 -0.10068633535368043 0.0 0.0
785.333543442913 157.18242724838885 424.1912890106739 -1.619370572881074 0.0 0.0
649.8949161276214 95.99071794025923 281.73046054663666 -3.6440729365831164 0.0 0.0
514.8492904413467 39.4071010285772 175.54462968108112 0.23182872245860153 0.0 0.0
653.0163560832847 189.6388641298867 279.5135129345783 43.05665206125039 0.0 0.0
1411.126099791297 834.9709538328196 1068.8629546308075 18.913009776748133 0.0 0.0
-1333.2521377951398 -2141.3753944454093 -1661.9080009496558 31.867700518374246 0.0 0.0
-1697.585191750604 -2477.5256576687193 -1982.421559005755 -35.05220599936786 0.0 0.0
962.9777421749095 459.8667226801851 673.4679458245727 -26.414923952736117 0.0 0.0
458.4144971916019 73.83729867476369 159.40038289529406 -38.071935144678356 0.0 0.0
452.5755439047268 10.330595826704942 143.0450264253217 -15.488875184235203 0.0 0.0
573.17385786561 43.70520394533563 224.22130288556943 -17.561180107785244 0.0 0.0
681.2644987743868 63.45702686785285 330.67715455925895 -23.798600030268624 0.0 0.0
774.9634918582789 85.94375344271097 419.57369552374666 -24.875781104467563 0.0 0.0
863.9927071574884 109.43131498986418 484.36954448202914 -25.156384149206275 0.0 0.0
944.0750731972424 130.61937242085887 536.3847894876849 -26.00853190789023 0.0 0.0
1016.7258312563463 150.09666581579395 582.748256531429 -27.029730057187674 0.0 0.0
1085.4888512226994 170.60634123951883 627.4458029750551 -27.609093716570367 0.0 0.0
1152.9977769424104 193.9709306844417 672.8960609110495 -27.654872261080147 0.0 0.0
1218.8823155257132 220.28301078617403 719.0111526938139 -27.28807458616179 0.0 0.0
1280.5607504702832 245.2782477464128 762.3637785730537 -26.714649748360358 0.0 0.0
1332.8812240442148 264.1238140092991 797.9693011498193 -25.906351540879047 0.0 0.0
1371.7317802107145 272.6534654847713 821.6849301466166 -24.60527533850195 0.0 0.0
1394.8033293128528 268.7558057364933 831.2897292308458 -22.589513170169745 0.0 0.0
1402.6462039030541 253.3963909964192 827.5376404447337 -20.03144875052803 0.0 0.0
1387.0469403328857 219.07248394769542 802.701765730081 -17.976550551585785 0.0 0.0
1295.1651541147883 114.20347700398916 705.0510895857739 -19.62997415591354 0.0 0.0
1146.794831932963 -33.565492737024584 558.0411539381491 1.0535217143115005e-10 0.0 0.0
1295.165154114703 114.20347700394203 705.05108958557 19.629974155900594 0.0 0.0
1387.0469403343666 219.07248394920143 802.7017657312076 17.976550551489858 0.0 0.0
1402.646203901334 253.3963909948234 827.5376404437301 20.03144875049916 0.0 0.0
1394.8033293140213 268.75580573775505 831.2897292316653 22.589513170251276 0.0 0.0
1371.7317802120488 272.6534654863036 821.6849301475626 24.60527533858488 0.0 0.0
1332.881224045028 264.1238140103013 797.9693011503795 25.906351541153875 0.0 0.0
1280.5607504695954 245.27824774590812 762.3637785725816 26.714649748417507 0.0 0.0
1218.8823155247933 220.28301078546303 719.0111526931344 27.28807458612396 0.0 0.0
1152.99777694191 193.97093068420648 672.8960609108025 27.65487226106203 0.0 0.0
1085.4888512219643 170.60634123902295 627.4458029745846 27.60909371670283 0.0 0.0
1016.7258312566262 150.09666581637094 582.7482565316172 27.029730057101272 0.0 0.0
944.0750731971343 130.61937242100447 536.3847894875714 26.008531907972397 0.0 0.0
863.9927071571558 109.43131498981518 484.36954448178983 25.156384149114402 0.0 0.0
774.9634918583395 85.94375344307706 419.5736955236581 24.875781104401533 0.0 0.0
681.2644987744997 63.457026868364736 330.6771545591454 23.798600030140722 0.0 0.0
573.1738578653058 43.70520394540262 224.2213028852745 17.56118010776446 0.0 0.0
452.5755439044653 10.330595826606352 143.04502642521214 15.488875184297374 0.0 0.0
458.4144971914361 73.83729867481817 159.40038289526368 38.07193514466342 0.0 0.0
962.9777421743083 459.86672267969294 673.4679458239032 26.41492395262559 0.0 0.0
-1697.5851917486023 -2477.525657666734 -1982.4215590036756 35.05220599871271 0.0 0.0
-1435.1928842333325 -2179.94090474488 -1692.7350010297453 -73.61531459896477 0.0 0.0
787.307574845193 367.2897750347254 531.5051854603997 -94.26047341593399 0.0 0.0
316.6291483277803 84.70423447055936 120.46678939695678 -42.84388823388971 0.0 0.0
388.95237066440836 3.5220377593706114 118.2930128107511 -37.458257467476976 0.0 0.0
527.7782557934884 33.265092902937276 191.59225537963758 -40.15334582051986 0.0 0.0
647.057923004226 57.15999974328447 298.5295746489775 -44.298451125352955 0.0 0.0
744.0285850896154 79.65210598107952 395.7433292936069 -45.847414507125514 0.0 0.0
832.0242276212621 98.94725290240632 461.9281995281012 -46.705038538803116 0.0 0.0
908.4402393284374 116.047696946408 510.9436024954175 -48.35024401262553 0.0 0.0
977.0063093708562 131.52720500219755 553.3146564701511 -49.72732626598021 0.0 0.0
1042.6409871349724 149.45997359869156 595.1492963828817 -50.10438757747692 0.0 0.0
1107.4483356076828 171.26826678588208 638.4834941511323 -49.620674213616304 0.0 0.0
1170.8857279535503 195.04907964274366 682.1303448941127 -48.72013705513979 0.0 0.0
1229.6398829884583 218.24009499840142 723.1301260694509 -47.51774114878258 0.0 0.0
1280.8286706833132 236.47790418591038 757.8572940215212 -45.93351576319328 0.0 0.0
1320.463051422015 246.1601269670436 782.5279952434196 -43.642184515067655 0.0 0.0
1345.8267833290276 244.68374048218612 794.5008339560209 -40.36663358063791 0.0 0.0
1351.8468892651617 227.46660867571654 789.0040844328747 -36.51070557329529 0.0 0.0
1322.8982957243566 179.87888214498147 751.0280150642585 -33.300734447696435 0.0 0.0
1272.2663699993745 116.60895532726721 694.4362538936869 -31.956933683874926 0.0 0.0
1104.1186380001307 -50.1156481818262 528.1694585718112 1.269189198183085e-10 0.0 0.0
1272.2663699993936 116.60895532731126 694.4362538936784 31.956933683892764 0.0 0.0
1322.8982957251937 179.87888214584467 751.0280150649055 33.30073444762437 0.0 0.0
1351.8468892649705 227.46660867563537 789.0040844326923 36.51070557323752 0.0 0.0
1345.8267833276682 244.68374048092267 794.5008339550741 40.36663358059601 0.0 0.0
1320.463051424147 246.16012696936147 782.527995244848 43.64218451521874 0.0 0.0
1280.8286706825136 236.47790418525528 757.8572940208638 45.933515763301884 0.0 0.0
1229.6398829877123 218.2400949978676 723.1301260689718 47.51774114877616 0.0 0.0
1170.8857279534523 195.04907964285565 682.1303448940707 48.72013705524662 0.0 0.0
1107.4483356073918 171.2682667857903 638.4834941510436 49.62067421345701 0.0 0.0
1042.6409871342967 149.45997359827575 595.1492963825613 50.104387577555485 0.0 0.0
977.0063093700265 131.5272050016095 553.3146564695911 49.727326265903834 0.0 0.0
908.4402393275521 116.0476969457568 510.94360249481036 48.3502440125635 0.0 0.0
832.0242276207605 98.94725290220384 461.9281995277544 46.705038538742905 0.0 0.0
744.0285850896292 79.65210598139392 395.7433292935175 45.84741450710537 0.0 0.0
647.0579230041033 57.15999974353902 298.5295746486995 44.29845112524988 0.0 0.0
527.7782557929326 33.265092902674475 191.59225537926466 40.153345820562365 0.0 0.0
388.9523706637309 3.5220377585522016 118.29301281031131 37.45825746733234 0.0 0.0
316.62914832775647 84.70423447048513 120.46678939692374 42.84388823376511 0.0 0.0
787.3075748446026 367.28977503448925 531.5051854597932 94.26047341584747 0.0 0.0
-1435.1928842312318 -2179.9409047427384 -1692.735001027547 73.61531459863347 0.0 0.0
-1181.401193237894 -1895.4286725125937 -1418.2369943479848 -87.46005344386627 0.0 0.0
605.5109992184233 272.2314134978163 396.86544243543955 -145.9991331857275 0.0 0.0
227.91661928218167 69.91121842022645 89.34835131072242 -64.04418690443124 0.0 0.0
323.46886340607716 9.097576591697827 99.46268752805751 -60.93755640891989 0.0 0.0
471.62494636878665 20.378985714713185 158.21056099880784 -65.3356941791842 0.0 0.0
600.8958257447953 49.294213891142995 260.3411663361041 -65.95727632340348 0.0 0.0
709.2453117189208 71.55360862594483 366.111556053538 -68.10968546551167 0.0 0.0
795.1994794406583 88.65746232863874 436.1617800074316 -68.38796724610216 0.0 0.0
868.6607604559606 101.77951473127567 483.34148306946224 -70.23302172390979 0.0 0.0
933.5082144841064 113.6008118473302 522.2152265652044 -71.58655123800521 0.0 0.0
995.613197294078 128.57196482341155 560.8040485012518 -71.63274339071324 0.0 0.0
1057.7414720144227 147.9489161308924 601.5924052983489 -70.73985917692994 0.0 0.0
1118.3009822624222 170.0918828185911 643.0132421620369 -69.3057295982428 0.0 0.0
1174.6014467121506 190.61267498518544 681.4575562330991 -67.55440406347391 0.0 0.0
1224.3139999312461 208.04638363462925 715.0327808413963 -65.26180203669523 0.0 0.0
1265.2261080545518 219.50953907651993 741.2312311484753 -62.152478618402014 0.0 0.0
1292.2456002801416 219.59133620126133 754.8423875984755 -58.095138947749156 0.0 0.0
1297.067430854417 200.99974908737167 748.133133003957 -53.39538968046114 0.0 0.0
1276.5527004629887 161.5974932315306 718.4215509960316 -48.38441636857519 0.0 0.0
1247.0590813873898 118.80901750576713 682.4852439495023 -42.53728565369474 0.0 0.0
1012.8277175828653 -113.38156529261812 451.07477936910277 1.7180035172259522e-10 0.0 0.0
1247.059081387834 118.8090175062776 682.4852439498578 42.537285653809406 0.0 0.0
1276.552700462951 161.59749323161503 718.4215509958867 48.38441636893022 0.0 0.0
1297.0674308561706 200.9997490891925 748.133133005264 53.39538968060446 0.0 0.0
1292.2456002790536 219.59133620035345 754.8423875977838 58.0951389478462 0.0 0.0
1265.2261080538065 219.50953907577542 741.2312311479218 62.15247861848219 0.0 0.0
1224.3139999309756 208.04638363457644 715.0327808412807 65.26180203652703 0.0 0.0
1174.601446711046 190.6126749842519 681.457556232399 67.5544040635837 0.0 0.0
1118.300982263545 170.09188281995742 643.0132421627748 69.30572959833361 0.0 0.0
1057.741472013203 147.9489161298552 601.5924052975807 70.7398591768056 0.0 0.0
995.613197292784 128.57196482227988 560.8040485004127 71.63274339055289 0.0 0.0
933.5082144834919 113.60081184700864 522.2152265648 71.58655123804736 0.0 0.0
868.6607604548725 101.77951473035131 483.3414830687528 70.2330217236841 0.0 0.0
795.1994794399338 88.65746232821235 436.1617800069682 68.38796724612175 0.0 0.0
709.2453117182906 71.55360862555385 366.11155605297813 68.10968546535564 0.0 0.0
600.895825744587 49.29421389142497 260.3411663358471 65.95727632351519 0.0 0.0
471.62494636797015 20.378985714056952 158.2105609983051 65.33569417894019 0.0 0.0
323.46886340585485 9.097576591229533 99.46268752785136 60.937556408942385 0.0 0.0
227.91661928222388 69.91121841998262 89.34835131066191 64.04418690431054 0.0 0.0
605.5109992177598 272.23141349745936 396.8654424348102 145.9991331855514 0.0 0.0
-1181.401193236121 -1895.4286725106533 -1418.236994346011 87.460053443753 0.0 0.0
-958.8202341025532 -1647.4519012580909 -1175.945460264365 -85.80374820064132 0.0 0.0
470.293613653823 186.21443446108705 289.87597729915774 -179.60621621171285 0.0 0.0
166.09755149624968 53.655143540301964 65.92580851096548 -95.0830005171322 0.0 0.0
262.59863039347175 15.468957927575962 83.38083957263784 -86.58944916280431 0.0 0.0
405.28077115289693 11.633913653150055 128.01789715853795 -92.27150651746891 0.0 0.0
544.8009108073536 36.21462219296086 216.82383123281014 -91.10321248594612 0.0 0.0
663.4688028125383 62.170037646016425 327.6774978276238 -90.66359966554775 0.0 0.0
752.5695020153926 78.88929830641389 406.2670274124666 -90.44413856617649 0.0 0.0
824.1560028559629 88.14591489668376 453.21461691539656 -91.56984125335109 0.0 0.0
885.3220417007685 96.0424493822735 488.77609563732767 -92.57510947644873 0.0 0.0
944.1532383109345 107.79212196885072 524.1505803855819 -92.21326530436752 0.0 0.0
1003.0914702182374 124.53811084440164 562.0467837889826 -90.91141880047422 0.0 0.0
1060.9062890622577 144.04977167425204 600.8033760989393 -89.10920630667121 0.0 0.0
1114.6782738345944 163.39138174280615 637.4222323718454 -86.78231927476043 0.0 0.0
1162.9390185200907 179.40807744729958 669.5677149338006 -83.82305604115062 0.0 0.0
1203.8498659347206 190.73548441227234 695.6817833364497 -80.16894075612369 0.0 0.0
1233.153691919037 193.4300209233325 711.7577617117862 -75.71443712247556 0.0 0.0
1243.9257008368731 180.52241745502164 710.8786924816391 -70.33685724832073 0.0 0.0
1233.3507836894719 150.23962982663681 690.6803022781331 -63.25721223777882 0.0 0.0
1213.9252552057499 116.00206857319557 664.0059207578734 -53.34834713834276 0.0 0.0
899.0778542598158 -195.97514330459376 353.2670514536446 1.0048850640487217e-10 0.0 0.0
1213.9252552064127 116.00206857398753 664.0059207585344 53.348347138651256 0.0 0.0
1233.3507836906003 150.2396298278664 690.6803022789012 63.25721223815218 0.0 0.0
1243.9257008377165 180.5224174559292 710.8786924821012 70.33685724831267 0.0 0.0
1233.1536919188125 193.43002092321788 711.7577617115589 75.71443712238077 0.0 0.0
1203.849865933452 190.7354844111615 695.6817833355342 80.16894075623595 0.0 0.0
1162.939018519817 179.4080774471124 669.5677149336036 83.82305604099517 0.0 0.0
1114.6782738331165 163.39138174159004 637.4222323708858 86.7823192749437 0.0 0.0
1060.9062890628027 144.04977167496855 600.8033760992637 89.10920630674505 0.0 0.0
1003.0914702171161 124.53811084338992 562.046783788213 90.91141880022894 0.0 0.0
944.1532383102627 107.79212196845405 524.150580385094 92.2132653043322 0.0 0.0
885.3220417011775 96.04244938294391 488.77609563761354 92.57510947649837 0.0 0.0
824.1560028545371 88.14591489534641 453.21461691448167 91.5698412530517 0.0 0.0
752.5695020154124 78.88929830697148 406.2670274124322 90.4441385663913 0.0 0.0
663.4688028120031 62.17003764581057 327.6774978271149 90.66359966563243 0.0 0.0
544.8009108068921 36.21462219270951 216.82383123239015 91.10321248575674 0.0 0.0
405.2807711523151 11.633913652621093 128.01789715818535 92.27150651722195 0.0 0.0
262.598630393346 15.4689579273192 83.38083957252017 86.58944916288128 0.0 0.0
166.09755149586897 53.65514353962686 65.92580851064871 95.08300051686105 0.0 0.0
470.2936136531698 186.21443446074434 289.8759772986055 179.60621621157097 0.0 0.0
-958.8202341007292 -1647.451901256198 -1175.9454602624824 85.80374820043994 0.0 0.0
-762.424134490655 -1428.4777710947324 -959.8469773565339 -80.61123466860951 0.0 0.0
364.03671446375654 118.92664195942506 206.74945198803306 -199.7278837386461 0.0 0.0
120.05921339989737 36.462481845628815 46.95641994057053 -125.13948254100289 0.0 0.0
209.30414879022857 19.748363347263137 68.7208023922896 -112.5445390955959 0.0 0.0
333.1277877269811 7.075308108239011 101.70670007723312 -119.70005971462656 0.0 0.0
473.67169012663595 22.809970037827973 172.25507507225035 -117.80066998329733 0.0 0.0
602.2002979030563 52.003475841836135 280.1292802662175 -114.36926666332484 0.0 0.0
702.4582711463979 66.96321666068175 368.4711847669324 -113.37798290151137 0.0 0.0
772.189115037859 74.79329862883282 418.6504227467293 -112.37487534673483 0.0 0.0
831.6107459976026 78.6535886555202 452.317184064926 -112.68041495856957 0.0 0.0
887.056170917271 87.07811761215686 484.47619580518943 -111.80561409170257 0.0 0.0
942.7865062424545 101.12685756451476 519.4427316913675 -110.06981813862087 0.0 0.0
997.5668973801914 118.39468308376922 555.5817679936456 -107.91258443845517 0.0 0.0
1048.6767092557618 135.10396728534175 589.5840250512589 -105.2270472924697 0.0 0.0
1094.947699787788 149.7923989937247 620.0955259927468 -101.69448056174257 0.0 0.0
1135.3942517877374 161.20216125512445 646.0211810041308 -97.47726008347851 0.0 0.0
1168.1179926032532 166.7513364575143 665.1921129917895 -92.91411346500388 0.0 0.0
1188.1010558132532 162.7882982763366 673.3765200202121 -87.20281007527477 0.0 0.0
1188.5629622943097 142.52016270193764 663.7395508295627 -78.51889292846056 0.0 0.0
1175.1841784235337 111.95133258371006 641.9390841541918 -65.1924512792102 0.0 0.0
765.7703443914007 -293.1578529425033 238.56749848551922 6.10054229355228e-11 0.0 0.0
1175.1841784239462 111.95133258425334 641.9390841545853 65.19245127961825 0.0 0.0
1188.562962295847 142.52016270363788 663.7395508308632 78.51889292876959 0.0 0.0
1188.1010558144553 162.78829827758594 673.3765200209706 87.20281007548772 0.0 0.0
1168.117992601562 166.75133645593723 665.1921129904839 92.9141134648525 0.0 0.0
1135.394251788072 161.20216125547645 646.021181004547 97.47726008350504 0.0 0.0
1094.9476997867453 149.79239899288433 620.0955259919892 101.69448056164404 0.0 0.0
1048.676709254765 135.10396728463502 589.5840250506466 105.22704729281062 0.0 0.0
997.5668973811802 118.39468308503982 555.581767994259 107.91258443858686 0.0 0.0
942.7865062413149 101.126857563483 519.4427316906238 110.0698181385262 0.0 0.0
887.0561709169639 87.07811761216266 484.4761958050656 111.80561409175759 0.0 0.0
831.6107459976397 78.65358865570525 452.317184064902 112.68041495847837 0.0 0.0
772.1891150375038 74.79329862880878 418.65042274649284 112.37487534670412 0.0 0.0
702.4582711465983 66.96321666124308 368.47118476698483 113.37798290155791 0.0 0.0
602.2002979029053 52.0034758421079 280.12928026593306 114.36926666332845 0.0 0.0
473.67169012569474 22.80997003692478 172.2550750715716 117.80066998308718 0.0 0.0
333.1277877264221 7.075308107892102 101.70670007697557 119.70005971444255 0.0 0.0
209.30414878995347 19.74836334685093 68.72080239208167 112.54453909547914 0.0 0.0
120.05921339979382 36.46248184547929 46.95641994049468 125.13948254066668 0.0 0.0
364.036714463204 118.92664195915061 206.74945198758047 199.72788373859748 0.0 0.0
-762.4241344891276 -1428.4777710931007 -959.8469773548877 80.6112346684041 0.0 0.0
-591.6950652238875 -1229.5138874794927 -766.7950890082252 -75.39859618866495 0.0 0.0
279.7230450080764 66.05387861277953 142.47700665125703 -212.65922049224062 0.0 0.0
83.56104046727484 20.271824762664494 31.150011622480033 -150.00327264558433 0.0 0.0
160.52032851266745 22.576235502107245 54.927249192934255 -136.47803267734707 0.0 0.0
259.14989945202194 6.75537790534281 79.13066393937899 -143.94921966293492 0.0 0.0
390.5391897840938 8.751268797602687 128.8107569020586 -147.85872719323075 0.0 0.0
525.3651703587686 36.832183811966395 223.24630280534666 -140.95417038118296 0.0 0.0
635.3337411349706 55.75781190641358 319.16160639496763 -136.14732419857503 0.0 0.0
713.2984413509245 59.160633539448156 377.1985198399517 -134.0983145228808 0.0 0.0
769.32889188413 61.32791536818374 410.8679577411162 -131.78232030234517 0.0 0.0
822.9151189327933 66.52365473360705 440.8743481822019 -130.29613618736062 0.0 0.0
875.2863020073357 77.62392094636986 472.7574394086107 -128.1321561798183 0.0 0.0
926.5631252828264 92.18939622236478 505.8256735383032 -125.66454828360804 0.0 0.0
974.8654295823675 107.02568934692499 537.5193414848519 -122.73497490582649 0.0 0.0
1018.6014641862655 119.71820125735286 565.8262525552143 -118.8660154168454 0.0 0.0
1057.5417247984215 129.14106313890107 590.0092990475276 -114.24349621288327 0.0 0.0
1093.5598051563907 139.0215072879656 612.9241389788656 -109.27608783620545 0.0 0.0
1125.5243187983344 146.18838335131477 632.6125017790554 -103.78021392087858 0.0 0.0
1139.6687395734111 137.66828775273888 635.7462625246276 -94.63521485216735 0.0 0.0
1131.7992472030119 109.64390181749256 618.083700850083 -78.93876289357856 0.0 0.0
611.4824475607718 -403.53415732114826 107.00526523344406 5.162092975297128e-11 0.0 0.0
1131.7992472032583 109.64390181783719 618.0837008499766 78.93876289387984 0.0 0.0
1139.6687395723745 137.6682877516361 635.7462625240563 94.63521485200822 0.0 0.0
1125.5243188000127 146.18838335305665 632.6125017803574 103.78021392087976 0.0 0.0
1093.5598051559143 139.02150728780617 612.9241389783109 109.27608783629861 0.0 0.0
1057.5417247971009 129.14106313767454 590.0092990468092 114.24349621296956 0.0 0.0
1018.6014641862636 119.71820125745171 565.8262525551551 118.86601541690767 0.0 0.0
974.865429581218 107.025689345979 537.5193414840705 122.73497490581516 0.0 0.0
926.5631252845736 92.18939622441101 505.8256735394406 125.66454828386124 0.0 0.0
875.286302005558 77.62392094472385 472.757439407478 128.13215617970587 0.0 0.0
822.915118932686 66.52365473380928 440.8743481822033 130.29613618739543 0.0 0.0
769.3288918839313 61.32791536820459 410.8679577409717 131.78232030235864 0.0 0.0
713.2984413507297 59.16063353941088 377.1985198397857 134.09831452270427 0.0 0.0
635.3337411338749 55.75781190534679 319.1616063941322 136.14732419832916 0.0 0.0
525.3651703585182 36.832183812053295 223.24630280503956 140.95417038109542 0.0 0.0
390.5391897834713 8.751268797057323 128.81075690163053 147.8587271930883 0.0 0.0
259.14989945188387 6.755377905680396 79.13066393946269 143.9492196627373 0.0 0.0
160.52032851244007 22.576235501765357 54.92724919276186 136.4780326772528 0.0 0.0
83.56104046723807 20.27182476272216 31.15001162248626 150.00327264519493 0.0 0.0
279.7230450076572 66.0538786126177 142.47700665093754 212.65922049213964 0.0 0.0
-591.6950652225908 -1229.5138874779718 -766.7950890067916 75.39859618864132 0.0 0.0
-440.99168381334636 -1055.2315994753137 -595.0433746394677 -77.34630497271286 0.0 0.0
208.5590254411498 26.049593003011715 92.26445590634475 -217.84873460693046 0.0 0.0
52.79356440222301 6.963726850893337 17.926347258975063 -168.62223439695498 0.0 0.0
113.62658647225194 23.83869566242386 41.23890242405964 -156.7798574223428 0.0 0.0
188.46219821960318 8.428521598241595 58.75514378395436 -164.41314552646378 0.0 0.0
295.5430224396897 0.40485518406788024 90.60938382777096 -176.46842833503152 0.0 0.0
426.27384435710144 19.023191292346265 160.86306358494755 -169.99026610423564 0.0 0.0
547.6510901801511 39.58603717036404 253.64596528808067 -160.1571201187541 0.0 0.0
635.8811094318637 44.96473996178063 322.9574176574543 -154.61318570046646 0.0 0.0
696.5811436294804 41.915020945701976 360.91422893774535 -150.96412567822108 0.0 0.0
747.4160319730004 45.26389218310496 390.0102224096037 -147.50695923439446 0.0 0.0
796.8115491323931 54.12947557045395 419.60401028576024 -144.81896763115117 0.0 0.0
844.5267081983802 65.88777947605334 449.5528522525962 -142.07199109024643 0.0 0.0
889.0371370589032 78.0946890960966 478.0624676711825 -139.0552257972109 0.0 0.0
930.4934088116049 89.14694385613262 504.4514491291813 -135.2642037523058 0.0 0.0
967.5153398651962 97.59587039377777 527.2922374609501 -130.33789794960265 0.0 0.0
1003.8355039564908 106.62143604992137 549.9236626135768 -124.83703312627135 0.0 0.0
1047.2743250225549 125.11986016676902 580.8264138417608 -119.57004915747744 0.0 0.0
1082.367437347911 136.5972094660999 604.5031310473466 -111.6106378822442 0.0 0.0
1084.764261744516 114.63747570414549 595.3167250665853 -95.68011054215762 0.0 0.0
430.7129958713051 -526.1358644973884 -43.57133055977695 1.2806466997972166e-10 0.0 0.0
1084.7642617437484 114.6374757033556 595.3167250660866 95.68011054217584 0.0 0.0
1082.3674373481624 136.59720946676734 604.5031310474437 111.61063788270751 0.0 0.0
1047.2743250221993 125.1198601664288 580.8264138416358 119.57004915777222 0.0 0.0
1003.8355039577956 106.62143605173284 549.9236626141685 124.83703312667885 0.0 0.0
967.5153398649096 97.5958703935797 527.2922374607646 130.33789794958898 0.0 0.0
930.4934088118231 89.14694385656469 504.4514491292481 135.2642037523542 0.0 0.0
889.0371370582012 78.09468909562268 478.0624676706568 139.05522579728384 0.0 0.0
844.5267081977424 65.8877794755064 449.5528522522008 142.0719910903868 0.0 0.0
796.8115491318365 54.12947557016636 419.60401028542327 144.81896763109162 0.0 0.0
747.4160319728995 45.26389218309936 390.0102224094518 147.5069592342487 0.0 0.0
696.581143628566 41.915020944827674 360.91422893722086 150.96412567805763 0.0 0.0
635.8811094314519 44.964739961825806 322.9574176571388 154.61318570045665 0.0 0.0
547.6510901799845 39.58603717077941 253.64596528792134 160.1571201189469 0.0 0.0
426.27384435635355 19.02319129170668 160.86306358438264 169.9902661041416 0.0 0.0
295.54302243940094 0.4048551842206187 90.60938382770419 176.4684283348697 0.0 0.0
188.46219821915076 8.428521597548174 58.755143783616546 164.4131455261892 0.0 0.0
113.62658647208536 23.83869566223419 41.238902423958265 156.77985742204706 0.0 0.0
52.79356440224481 6.963726851028866 17.926347259020673 168.62223439670998 0.0 0.0
208.5590254406482 26.049593002661947 92.26445590598445 217.84873460686035 0.0 0.0
-440.99168381242663 -1055.2315994742237 -595.0433746383512 77.34630497258041 0.0 0.0
-320.9141426262595 -889.066859168881 -450.8799268802495 -80.86945297517464 0.0 0.0
147.62749118372022 -6.315637542171366 53.607372298097566 -216.79246863552157 0.0 0.0
24.595232821436234 -2.2755677929039138 6.6935659650587365 -181.66709736103692 0.0 0.0
67.6220100900535 23.606922195521783 27.35912466155302 -172.95033928103382 0.0 0.0
120.46738207703245 11.389098946492465 39.41385569549588 -180.29808811622243 0.0 0.0
194.03702203026677 -0.7947923717354068 57.99371713699098 -198.43167509808336 0.0 0.0
301.9520108571874 1.9996147390588728 99.0965558765215 -202.34426447867082 0.0 0.0
427.8182866995294 16.54573626684541 170.22659006763539 -188.18647681297486 0.0 0.0
530.1052669326532 24.94358522370043 243.74163279396876 -174.65545593983836 0.0 0.0
599.0738640053912 22.49816552420055 291.8428824861804 -167.7856271354876 0.0 0.0
651.3248308138477 23.685786734956 324.43849220694995 -162.775932190633 0.0 0.0
698.0628958269651 29.741702589635253 352.54637581708596 -159.59634057144285 0.0 0.0
741.8005821756681 39.27996179090243 379.8633627609926 -156.6519908628364 0.0 0.0
781.7959256826425 48.722333520820065 404.858975836904 -153.70705324744335 0.0 0.0
819.8352519065331 58.08462756110582 428.7775996302035 -150.39762252024823 0.0 0.0
856.3872363062189 66.69602533194825 451.6447158008463 -145.96036654029913 0.0 0.0
891.7148894726926 74.39058348036244 473.48697884449285 -139.97922012841235 0.0 0.0
936.947279640121 93.11204165509398 505.38417407793844 -133.8906389369904 0.0 0.0
999.2974023485895 129.5111279398064 554.9041271665399 -128.7367578380957 0.0 0.0
1032.596320557682 133.49299407913162 574.8565410291772 -117.31069889217865 0.0 0.0
213.78393160787095 -656.2048359489136 -215.28817358345344 1.2919088021590142e-10 0.0 0.0
1032.596320556828 133.49299407824648 574.8565410286994 117.31069889217514 0.0 0.0
999.2974023507408 129.51112794232907 554.9041271679898 128.736757838575 0.0 0.0
936.9472796393376 93.11204165454458 505.3841740776494 133.8906389371308 0.0 0.0
891.714889473998 74.39058348201698 473.4869788452559 139.9792201288498 0.0 0.0
856.3872363060449 66.69602533185221 451.6447158008502 145.96036654033327 0.0 0.0
819.8352519069549 58.084627561777985 428.77759963050903 150.3976225203772 0.0 0.0
781.7959256825914 48.72233352082392 404.858975836861 153.7070532474996 0.0 0.0
741.800582174743 39.279961790066444 379.8633627602892 156.65199086270047 0.0 0.0
698.0628958270637 29.741702589847385 352.54637581718725 159.59634057141938 0.0 0.0
651.3248308139306 23.685786735050463 324.4384922069006 162.77593219034844 0.0 0.0
599.0738640038963 22.498165522698166 291.8428824851806 167.78562713530087 0.0 0.0
530.1052669324704 24.94358522408874 243.74163279391175 174.6554559400864 0.0 0.0
427.81828669973373 16.545736267616245 170.22659006775072 188.18647681307667 0.0 0.0
301.9520108567276 1.9996147388659375 99.09655587624225 202.34426447851777 0.0 0.0
194.03702203030605 -0.7947923710397777 57.993717137220166 198.43167509787534 0.0 0.0
120.46738207666878 11.38909894584448 39.4138556952004 180.29808811596862 0.0 0.0
67.62201009012792 23.60692219575506 27.359124661643786 172.95033928082862 0.0 0.0
24.595232821517794 -2.275567792600522 6.693565965173925 181.66709736093915 0.0 0.0
147.62749118331712 -6.315637542511723 53.6073722978077 216.79246863533675 0.0 0.0
-320.91414262538206 -889.0668591677669 -450.87992687927255 80.86945297504256 0.0 0.0
-222.47447617173032 -740.2796348282461 -330.8887239348926 -92.52683441988822 0.0 0.0
93.0181386880635 -32.482211162461994 23.044676013266596 -209.7036324196747 0.0 0.0
-2.7531737976042487 -6.659912046435246 -2.846495010836712 -189.13282622851494 0.0 0.0
22.017817778721888 22.33515299103053 13.301160770084202 -184.00047856411678 0.0 0.0
52.80801830814277 14.639518288690992 20.188582400289157 -191.4495066853605 0.0 0.0
93.33169704278022 2.572458123686129 28.717426782708365 -212.1379650661733 0.0 0.0
153.70923814358903 -2.830138622064612 46.192760669538934 -226.68318652936648 0.0 0.0
249.67460082342112 -7.2096508838328655 77.76891578665847 -222.68599548164767 0.0 0.0
362.2004999113716 -13.248983471104788 121.06919332710484 -199.95876321360063 0.0 0.0
445.24925376204226 -10.84594787593237 166.1669444058328 -177.92646466586135 0.0 0.0
501.88880525703655 -2.3891346812750385 205.2953461183399 -171.6813976051361 0.0 0.0
544.5082406048941 4.987855712808972 235.99509340430194 -170.27126539267914 0.0 0.0
581.171361027796 12.646682780847222 261.85334323224725 -169.53816187701275 0.0 0.0
614.9416368330668 20.393999728744745 284.9463635106238 -168.6036668999802 0.0 0.0
648.0683508137079 28.581500636312924 307.8037470900747 -167.10730542210527 0.0 0.0
683.1224646488357 37.36224849435767 332.2550955573236 -164.41373592081425 0.0 0.0
720.8300655648047 45.48717489745171 358.15827052512196 -159.16124249429905 0.0 0.0
760.6353204389488 52.291815572052116 384.36200142307354 -151.64101962262646 0.0 0.0
831.7942064404106 88.44597571718593 438.24509809276935 -146.48763686774643 0.0 0.0
937.6220263372743 155.22972661961344 527.5959590137338 -146.73699741926686 0.0 0.0
-72.78336841449143 -784.1679656148615 -417.94289791150584 7.857892114770948e-11 0.0 0.0
937.6220263376682 155.22972662054852 527.5959590141254 146.7369974196024 0.0 0.0
831.7942064407996 88.44597571769708 438.2450980931092 146.4876368682875 0.0 0.0
760.6353204382834 52.29181557109197 384.3620014227032 151.64101962269928 0.0 0.0
720.8300655644551 45.48717489694474 358.1582705248163 159.16124249449027 0.0 0.0
683.122464649946 37.36224849627719 332.25509555798857 164.4137359207404 0.0 0.0
648.0683508129341 28.581500634909005 307.8037470895301 167.1073054222166 0.0 0.0
614.9416368332534 20.3939997292427 284.9463635107826 168.6036668997724 0.0 0.0
581.1713610276048 12.646682780480127 261.85334323205575 169.53816187709342 0.0 0.0
544.5082406047018 4.987855712662142 235.99509340418314 170.27126539252586 0.0 0.0
501.8888052574428 -2.389134680684421 205.29534611865392 171.68139760510843 0.0 0.0
445.2492537617907 -10.84594787619039 166.16694440559115 177.92646466571884 0.0 0.0
362.2004999109766 -13.24898347111111 121.06919332689188 199.95876321364855 0.0 0.0
249.67460082294053 -7.209650884097073 77.76891578642656 222.6859954816835 0.0 0.0
153.70923814327475 -2.830138622406281 46.192760669334334 226.68318652918927 0.0 0.0
93.33169704303046 2.572458124354401 28.71742678299502 212.13796506592772 0.0 0.0
52.80801830823959 14.639518288971175 20.188582400404286 191.44950668508355 0.0 0.0
22.017817778774926 22.335152991325703 13.301160770189187 184.0004785639204 0.0 0.0
-2.753173797506965 -6.659912046100539 -2.8464950107088303 189.1328262283243 0.0 0.0
93.01813868771542 -32.48221116270443 23.044676013054687 209.70363241947615 0.0 0.0
-222.47447617122828 -740.2796348273613 -330.88872393422776 92.52683441992056 0.0 0.0
-153.4567879263031 -602.56080317628 -240.23349330014767 -105.73635067962402 0.0 0.0
42.177953591456095 -52.928115538930996 -1.568546941353664 -195.8788492023269 0.0 0.0
-29.84289361956405 -7.240406172434517 -11.131104556958087 -192.98243318500116 0.0 0.0
-23.076814633104682 20.58869576049404 -0.7645206424096407 -190.33410503331197 0.0 0.0
-14.054715735135627 17.6513205875494 1.0757453147848275 -197.1654947403209 0.0 0.0
-7.015314503968343 7.065623441467807 0.028713905521125405 -217.2859677602753 0.0 0.0
-3.354272649600123 0.8200168428534389 -0.7629882570648645 -234.19876381390742 0.0 0.0
-1.3313107587356683 0.1513641863897206 -0.3563719602316535 -236.95413635711142 0.0 0.0
-0.3922871309076754 -0.035546391562075286 -0.13290086558171765 -231.52714417871294 0.0 0.0
-0.14083282498417304 0.0011341376910181111 -0.04101176804399387 -226.55667294130433 0.0 0.0
-0.5275365156752088 -0.005475507171972538 -0.09647560649624154 -214.60976032043607 0.0 0.0
-1.1435070561510088 0.23226282025692058 0.3053678950831369 -201.69988895768796 0.0 0.0
-1.679948597577976 1.1891827626947133 0.6105862253518239 -193.06461028241065 0.0 0.0
1.4257499618217935 3.5206223676741786 1.2639851803976683 -186.46600811071806 0.0 0.0
13.242519810189378 8.453359033743368 2.991319558868412 -181.68572950987397 0.0 0.0
40.61763593395767 17.186605936211464 7.700031827041272 -177.41858809810435 0.0 0.0
92.98977526398878 31.572954424429412 17.838347691780257 -171.77606119295416 0.0 0.0
183.79599632364022 42.6674897916146 24.797959755837496 -162.62739355421107 0.0 0.0
409.5899300861965 4.079195541397553 45.5080256559085 -159.01870815201622 0.0 0.0
651.2711783507106 43.392606482262366 267.1858304232569 -207.6525761415634 0.0 0.0
-786.5125965932957 -1045.761563285503 -837.6627509045848 6.723865908497828e-11 0.0 0.0
651.2711783509517 43.392606482679724 267.1858304236721 207.65257614137022 0.0 0.0
409.5899300870651 4.079195542882275 45.50802565681718 159.01870815273742 0.0 0.0
183.7959963213734 42.66748978776005 24.797959753350256 162.62739355457765 0.0 0.0
92.9897752639146 31.572954425116592 17.838347691838692 171.77606119307336 0.0 0.0
40.617635935678805 17.186605938383224 7.70003182836075 177.4185880979837 0.0 0.0
13.242519809749353 8.453359032503954 2.9913195583594643 181.68572950967018 0.0 0.0
1.4257499624305296 3.5206223679742266 1.2639851807846156 186.46600811071045 0.0 0.0
-1.679948598154681 1.1891827612769106 0.6105862246263172 193.06461028272153 0.0 0.0
-1.143507055614279 0.2322628208073425 0.3053678953442258 201.69988895760326 0.0 0.0
-0.527536515144817 -0.005475506478656911 -0.09647560617202089 214.60976032043635 0.0 0.0
-0.14083282454609503 0.001134137355677467 -0.04101176802030082 226.5566729410802 0.0 0.0
-0.39228713036942153 -0.03554639104627455 -0.1329008652598258 231.5271441787229 0.0 0.0
-1.331310758747506 0.15136418592189438 -0.3563719603701623 236.9541363571978 0.0 0.0
-3.354272649544095 0.8200168426778207 -0.7629882571000071 234.1987638136956 0.0 0.0
-7.015314503823415 7.065623441713239 0.028713905637386183 217.28596776004812 0.0 0.0
-14.054715735384262 17.651320586827506 1.0757453144938134 197.16549474006115 0.0 0.0
-23.076814633007743 20.58869576056818 -0.7645206423598061 190.33410503314775 0.0 0.0
-29.842893619427628 -7.240406172174605 -11.13110455684042 192.98243318485913 0.0 0.0
42.17795359119393 -52.92811553899425 -1.56854694147348 195.8788492020209 0.0 0.0
-153.45678792610016 -602.5608031755662 -240.23349329976077 105.73635067969691 0.0 0.0
-115.53857893661734 -479.5258717152541 -179.37956004474037 -115.25646327001606 0.0 0.0
-0.37936959526851943 -65.65531979237711 -19.680002465337324 -178.39692313549378 0.0 0.0
-55.78690097989106 -6.204222473061064 -18.616322084647607 -191.93616603476906 0.0 0.0
-67.27018057121846 18.944347872219065 -14.527298146842085 -191.70997268437338 0.0 0.0
-79.67420297104519 19.981782801498312 -17.919990886250993 -197.07826802357985 0.0 0.0
-105.94306819384117 11.310074014888079 -28.454434153458276 -213.4360095164357 0.0 0.0
-159.46906182668303 4.445430078104161 -47.60552309282055 -227.6478716830037 0.0 0.0
-251.22064831920974 7.202773781535772 -78.46253059116157 -223.10224254127525 0.0 0.0
-362.50331289042936 13.113194310567494 -121.31360242190755 -200.09312075095332 0.0 0.0
-445.28609432649415 10.793039056501833 -166.2109462163038 -177.87704591310302 0.0 0.0
-502.4543830956843 2.2322948711795974 -205.71840777310481 -171.69306503501574 0.0 0.0
-545.4310463662998 -4.787738719964281 -236.9764795327197 -170.0331251494892 0.0 0.0
-581.9248412655205 -10.712170349092204 -262.14880953431276 -168.79572476393113 0.0 0.0
-611.469904932066 -13.956862894075826 -280.30279273539566 -167.93274780562894 0.0 0.0
-631.2449940353231 -13.311549155114932 -289.72563838079975 -168.16814829151699 0.0 0.0
-639.3364903040415 -7.592305465003506 -288.3285288397627 -170.13783233336815 0.0 0.0
-634.6447030703173 2.874886344404473 -274.3271218959449 -174.645089404389 0.0 0.0
-626.3424607205638 10.619729920863875 -251.23846570124522 -183.87223149133865 0.0 0.0
-599.4397416332315 66.87641526374523 -183.72665917842488 -197.3773095375215 0.0 0.0
-321.1223410423346 202.00655037251948 66.31777103598901 -172.55731480445598 0.0 0.0
-1372.0007139206841 -1332.0993099454038 -1390.9273317982052 -1.1623768614299479e-10 0.0 0.0
-321.12234104272716 202.00655037172936 66.31777103559895 172.55731480481023 0.0 0.0
-599.4397416305028 66.87641526662628 -183.72665917658776 197.37730953770682 0.0 0.0
-626.3424607218705 10.619729918265534 -251.23846570212865 183.8722314917631 0.0 0.0
-634.6447030685694 2.8748863473067274 -274.3271218945844 174.64508940434618 0.0 0.0
-639.3364903035892 -7.592305464869298 -288.32852883937915 170.137832333381 0.0 0.0
-631.2449940352702 -13.311549155321302 -289.725638380732 168.1681482915626 0.0 0.0
-611.4699049314338 -13.956862893642274 -280.30279273506716 167.93274780552827 0.0 0.0
-581.9248412658662 -10.712170350095164 -262.14880953461 168.79572476407597 0.0 0.0
-545.4310463652697 -4.7877387188828635 -236.97647953185026 170.03312514945995 0.0 0.0
-502.45438309589497 2.2322948705681256 -205.7184077732664 171.69306503511027 0.0 0.0
-445.2860943257249 10.793039057119813 -166.21094621569296 177.87704591300076 0.0 0.0
-362.5033128903588 13.113194309598214 -121.31360242207265 200.09312075136435 0.0 0.0
-251.22064831849397 7.202773781692604 -78.46253059084708 223.10224254129852 0.0 0.0
-159.4690618261218 4.445430078394268 -47.60552309255938 227.64787168290306 0.0 0.0
-105.94306819391133 11.310074014175905 -28.454434153699175 213.4360095161976 0.0 0.0
-79.6742029711785 19.98178280094391 -17.919990886460244 197.07826802340935 0.0 0.0
-67.27018057127425 18.944347871851576 -14.527298146972052 191.70997268426106 0.0 0.0
-55.786900979854316 -6.204222473107635 -18.61632208465131 191.9361660347011 0.0 0.0
-0.379369595351454 -65.65531979247709 -19.680002465390874 178.3969231352973 0.0 0.0
-115.53857893660485 -479.5258717144234 -179.37956004456223 115.25646326993376 0.0 0.0
-97.05672423740512 -366.3621439862961 -139.00741097271697 -110.08626007527876 0.0 0.0
-28.29216872291353 -73.00565035795128 -30.382533754357027 -164.28929198239632 0.0 0.0
-80.17759199696145 -5.386370701801873 -25.65552707192629 -187.70087307133036 0.0 0.0
-109.74858607138569 17.556098374795017 -27.69838563944693 -188.01285717214836 0.0 0.0
-144.05429653216623 21.65901518434585 -36.67784812221959 -192.09162241422803 0.0 0.0
-203.08123958143088 13.964918686432101 -57.313496587426656 -202.41382776142024 0.0 0.0
-303.7909556333607 -1.2316490429905542 -100.2243165218367 -202.37549971473473 0.0 0.0
-427.94072996546936 -16.740910590287868 -170.54554874942676 -188.9022185001866 0.0 0.0
-530.070917033892 -25.131855793218705 -243.83013512594925 -174.79085491894966 0.0 0.0
-598.9886130435236 -22.513222946154023 -291.8374798162465 -167.79946439610862 0.0 0.0
-651.4396240089862 -23.669835915349367 -324.53836262793703 -162.65807054433816 0.0 0.0
-698.601393028048 -29.527809502972858 -352.82281511208134 -158.9606165937207 0.0 0.0
-741.9319785215906 -37.8224081719427 -379.41611848964203 -155.39457387190296 0.0 0.0
-777.7120638930446 -43.113931898204726 -400.3301991451905 -152.73806950099325 0.0 0.0
-803.2763126823684 -42.80134391687531 -413.1576432663794 -151.95278940564037 0.0 0.0
-815.8783658313433 -34.86908586800212 -415.4604853310277 -153.36993818273444 0.0 0.0
-817.0850952489548 -21.993657800858642 -409.1770924468424 -157.1961286935025 0.0 0.0
-807.3404736851762 -6.287615501220557 -395.8767315538523 -163.23899881960762 0.0 0.0
-755.2355157622972 43.337838037543506 -344.50383470124143 -170.18227888839013 0.0 0.0
-622.7977958344301 158.19937065152766 -222.4110667281654 -177.8492447495918 0.0 0.0
-2183.5743523521346 -1632.3216684987863 -1878.7848848806445 -2.2097879082139116e-12 0.0 0.0
-622.797795834347 158.19937065144967 -222.4110667281451 177.8492447497445 0.0 0.0
-755.2355157617746 43.337838038116956 -344.5038347010789 170.1822788885595 0.0 0.0
-807.3404736846333 -6.287615501148181 -395.8767315536742 163.23899881989757 0.0 0.0
-817.0850952504704 -21.99365780239266 -409.17709244796885 157.19612869379768 0.0 0.0
-815.8783658311293 -34.8690858678636 -415.4604853308457 153.36993818268323 0.0 0.0
-803.276312682804 -42.80134391779316 -413.1576432666725 151.95278940583344 0.0 0.0
-777.712063892742 -43.11393189803787 -400.3301991450458 152.73806950100803 0.0 0.0
-741.9319785216401 -37.82240817234336 -379.41611848983666 155.3945738719812 0.0 0.0
-698.6013930266477 -29.527809501493934 -352.8228151110887 158.96061659357554 0.0 0.0
-651.4396240096833 -23.669835916650477 -324.5383626285002 162.6580705444411 0.0 0.0
-598.9886130422844 -22.51322294498448 -291.8374798154349 167.7994643958662 0.0 0.0
-530.0709170336286 -25.131855793566228 -243.83013512572515 174.79085491912832 0.0 0.0
-427.9407299642894 -16.740910589203327 -170.5455487485381 188.902218500091 0.0 0.0
-303.79095563275064 -1.2316490430669136 -100.22431652160441 202.37549971481167 0.0 0.0
-203.0812395812509 13.96491868595851 -57.31349658750689 202.413827761263 0.0 0.0
-144.05429653179567 21.659015184630984 -36.67784812203947 192.09162241390268 0.0 0.0
-109.7485860713635 17.55609837472233 -27.698385639464625 188.01285717199823 0.0 0.0
-80.17759199696619 -5.386370701830325 -25.65552707194147 187.70087307106715 0.0 0.0
-28.29216872292296 -73.00565035806436 -30.382533754394053 164.28929198220925 0.0 0.0
-97.05672423704927 -366.36214398578056 -139.00741097244003 110.08626007527526 0.0 0.0
-79.67479695808298 -271.90842187728595 -105.47496565061067 -99.35821321968001 0.0 0.0
-47.365077410005426 -73.5194196724498 -36.264849544640704 -150.094945943935 0.0 0.0
-102.69123803926065 -5.044282546375129 -32.28743118519086 -179.18375671379073 0.0 0.0
-150.62135629042794 16.309725121620236 -40.26313849137915 -180.28591332011268 0.0 0.0
-206.10335870220615 21.481708705334928 -55.45646072278433 -180.11553563268393 0.0 0.0
-296.629755193797 9.877561993797539 -89.68508707525982 -179.81065529949362 0.0 0.0
-426.13068720361167 -17.31398481084756 -160.6433399733362 -172.70168009411978 0.0 0.0
-547.7306770024741 -40.149108345523615 -253.86111360100261 -160.8034603196732 0.0 0.0
-635.7828503147229 -45.12899753573093 -323.0142202908123 -154.70804860196233 0.0 0.0
-696.4187136836957 -41.80728819096052 -360.82456869190474 -151.01194928965018 0.0 0.0
-747.2297093511575 -44.98876963196349 -389.8159198399435 -147.37008709841916 0.0 0.0
-796.8549979412995 -53.64062039091732 -419.435725594067 -144.0802086863536 0.0 0.0
-844.441295470975 -64.6583531922696 -448.99994063478687 -140.50994672615516 0.0 0.0
-885.8886400367148 -73.78548735038132 -474.54134526848475 -137.63508901077077 0.0 0.0
-917.1659878441598 -76.66447458278299 -491.84189093693817 -136.74326383686017 0.0 0.0
-934.3316707537824 -70.62857778854783 -497.506614859151 -138.67673644884283 0.0 0.0
-936.4064816463588 -54.70760541800979 -490.6162511472568 -143.22212341388885 0.0 0.0
-914.2733797641779 -21.25338088262606 -462.75378838970545 -148.54320163532702 0.0 0.0
-853.5008095692365 42.60328642483687 -400.85438415452995 -152.29910471598453 0.0 0.0
-678.8254537104115 206.9213993996003 -233.7403360699846 -151.68453015983022 0.0 0.0
-2623.393346523659 -1859.4830732890414 -2219.860860781909 3.6710190443045576e-11 0.0 0.0
-678.825453709001 206.92139940090541 -233.7403360689765 151.68453016002996 0.0 0.0
-853.5008095706576 42.60328642304583 -400.8543841555978 152.2991047163734 0.0 0.0
-914.2733797636326 -21.25338088219985 -462.7537883893524 148.54320163549656 0.0 0.0
-936.4064816474131 -54.70760541944023 -490.6162511480027 143.22212341410767 0.0 0.0
-934.3316707545787 -70.62857778942913 -497.50661485969846 138.6767364487635 0.0 0.0
-917.16598784386 -76.66447458270738 -491.8418909366549 136.74326383695143 0.0 0.0
-885.8886400370534 -73.78548735091373 -474.54134526864505 137.63508901072652 0.0 0.0
-844.4412954715073 -64.6583531932443 -448.99994063531346 140.50994672630918 0.0 0.0
-796.8549979406678 -53.640620390426534 -419.43572559364424 144.08020868635214 0.0 0.0
-747.229709351504 -44.98876963254099 -389.8159198402689 147.37008709832787 0.0 0.0
-696.4187136832759 -41.807288190925384 -360.82456869170136 151.01194928964108 0.0 0.0
-635.7828503133463 -45.128997534462286 -323.0142202898244 154.70804860179877 0.0 0.0
-547.7306770011631 -40.149108344385056 -253.86111360002363 160.80346031963967 0.0 0.0
-426.13068720293796 -17.31398481045383 -160.64333997282196 172.70168009400618 0.0 0.0
-296.6297551933802 9.877561993822034 -89.68508707508562 179.81065529938488 0.0 0.0
-206.1033587018575 21.48170870543437 -55.45646072265868 180.11553563247497 0.0 0.0
-150.62135629016197 16.309725122062677 -40.26313849117695 180.28591331978637 0.0 0.0
-102.69123803913035 -5.044282546127312 -32.28743118507593 179.18375671368986 0.0 0.0
-47.36507741001661 -73.51941967258972 -36.26484954468838 150.09494594382775 0.0 0.0
-79.67479695801465 -271.9084218769293 -105.47496565048318 99.35821321957835 0.0 0.0
-64.8937703504058 -193.01157502957616 -77.3716036139946 -85.65272728621777 0.0 0.0
-61.583502995625096 -68.8719048405282 -39.13682660192254 -134.1949869690663 0.0 0.0
-123.4981730515853 -4.839078375775847 -38.47757835687586 -166.38894704698785 0.0 0.0
-189.165788218711 14.232051780542905 -52.45323875074355 -167.32646912611955 0.0 0.0
-267.98613781091797 19.202320324958364 -74.93770799633583 -163.52985063032972 0.0 0.0
-386.60597205798774 0.5953823805680667 -126.57254464471545 -154.04420447704828 0.0 0.0
-523.3373481202067 -36.07676845185736 -222.43476022068137 -142.01579544442322 0.0 0.0
-635.6137681349795 -56.59957958596237 -319.54182510722666 -136.48736823018066 0.0 0.0
-713.2260248923116 -59.249974978041536 -377.26991216489836 -134.18629910267634 0.0 0.0
-769.0797734680559 -61.09657620178655 -410.6725407760159 -131.82927695738397 0.0 0.0
-822.3925390053831 -65.90274979370044 -440.3417280826618 -130.1503691794292 0.0 0.0
-874.6017704305406 -76.59826010595805 -471.93779919060296 -127.38054858418512 0.0 0.0
-926.0286485828556 -90.92714279097157 -504.9694655022678 -124.03816646924099 0.0 0.0
-973.3301698827497 -104.70851364349974 -535.6967411690528 -121.08313532169996 0.0 0.0
-1010.7851939778157 -112.44244904763573 -558.4959521502979 -119.987089374054 0.0 0.0
-1031.7847564942126 -107.58220837457733 -566.7375660295702 -121.96296533912954 0.0 0.0
-1028.409722199236 -84.56361072944628 -553.6812617666878 -126.15468416299544 0.0 0.0
-992.0520888467408 -33.77404925398832 -510.2749788267419 -130.59851412276407 0.0 0.0
-900.0205926143624 64.53048371004729 -415.7689335558955 -131.85804176726833 0.0 0.0
-710.7761011413106 245.95708679663318 -231.76784168195874 -128.52850319888944 0.0 0.0
-2973.371841567847 -2097.957080081651 -2519.2605075022766 2.6634694449967355e-11 0.0 0.0
-710.7761011395856 245.9570867982709 -231.76784168081622 128.52850319902478 0.0 0.0
-900.0205926156696 64.5304837084932 -415.76893355674497 131.8580417676658 0.0 0.0
-992.0520888458758 -33.77404925323509 -510.2749788260695 130.5985141228349 0.0 0.0
-1028.4097221977966 -84.56361072783129 -553.6812617658827 126.1546841627414 0.0 0.0
-1031.7847564935184 -107.58220837402345 -566.7375660291164 121.96296533893023 0.0 0.0
-1010.7851939764607 -112.44244904631816 -558.4959521492309 119.98708937390552 0.0 0.0
-973.3301698829463 -104.70851364405101 -535.6967411692218 121.08313532194322 0.0 0.0
-926.0286485829776 -90.92714279132356 -504.96946550241466 124.03816646923322 0.0 0.0
-874.60177042968 -76.59826010533935 -471.9377991899843 127.38054858416598 0.0 0.0
-822.3925390055869 -65.9027497942381 -440.34172808282636 130.1503691794901 0.0 0.0
-769.0797734679481 -61.09657620207024 -410.67254077602814 131.82927695742825 0.0 0.0
-713.2260248912535 -59.24997497724154 -377.26991216415377 134.18629910261032 0.0 0.0
-635.6137681348721 -56.59957958617429 -319.54182510699223 136.4873682302054 0.0 0.0
-523.3373481194004 -36.07676845122611 -222.43476021996787 142.01579544414315 0.0 0.0
-386.6059720572803 0.5953823809085534 -126.57254464429269 154.04420447696245 0.0 0.0
-267.98613781060277 19.202320324937197 -74.93770799626093 163.52985063016564 0.0 0.0
-189.16578821860313 14.23205178043338 -52.453238750755744 167.32646912606515 0.0 0.0
-123.49817305138704 -4.839078375737165 -38.4775783568039 166.38894704698416 0.0 0.0
-61.58350299546787 -68.87190484048088 -39.136826601860854 134.19498696891839 0.0 0.0
-64.89377035022989 -193.011575029322 -77.37160361386555 85.65272728613718 0.0 0.0
-53.74912228453432 -128.91187288526424 -54.79829855093956 -70.88644643101958 0.0 0.0
-72.57057312888314 -60.502167469322664 -39.92182217946174 -116.04927144508412 0.0 0.0
-142.86013824795697 -4.3792110073542005 -44.163744055760645 -149.3876738916845 0.0 0.0
-226.1862973408424 11.649126399860876 -64.21602320790078 -150.39609885558093 0.0 0.0
-328.4978107253545 12.700885719943894 -96.41854867230688 -140.1323208309964 0.0 0.0
-467.22337398817535 -13.926860765072247 -168.2023319646166 -124.94775987515838 0.0 0.0
-601.3175921924493 -51.62092785509784 -279.24521071159813 -115.40700520806514 0.0 0.0
-702.9625176532845 -67.7932175522661 -369.05367770996577 -113.54525386063594 0.0 0.0
-772.0756454360115 -74.7502947194226 -418.6373426156576 -112.45801910665739 0.0 0.0
-831.2559975863005 -78.28633136965863 -451.99977682579697 -112.71455645284318 0.0 0.0
-886.1752087597589 -86.11837999343943 -483.59715355929103 -111.62752812725152 0.0 0.0
-941.2975935850515 -99.46925076971749 -517.8979341226011 -109.36355319034347 0.0 0.0
-996.2956248931566 -116.8305969565101 -554.1659383568716 -106.48434605132348 0.0 0.0
-1048.7052767821283 -134.83420470536393 -589.4847531843151 -103.69287847596631 0.0 0.0
-1092.928477912498 -148.11160434885423 -618.4101671858582 -102.24060627012108 0.0 0.0
-1116.7660445036195 -144.99853202853183 -629.0097108286591 -103.42812226069258 0.0 0.0
-1106.5995214934073 -112.15533365209126 -607.7308237970204 -107.07427425646233 0.0 0.0
-1048.7336784673023 -38.479561784958406 -542.2534384136422 -110.61468890548628 0.0 0.0
-930.3494512353475 86.77081528226833 -420.9421950756185 -111.32171278149957 0.0 0.0
-737.8103829554154 271.7320834982489 -232.84525246931224 -109.98985351649328 0.0 0.0
-3268.773978433189 -2320.2663252797893 -2781.58639257284 1.311981634444237e-10 0.0 0.0
-737.810382954822 271.732083498733 -232.84525246917292 109.98985351669758 0.0 0.0
-930.3494512381881 86.77081527919393 -420.94219507765524 111.32171278188227 0.0 0.0
-1048.7336784661709 -38.47956178409862 -542.253438412945 110.61468890588819 0.0 0.0
-1106.5995214949683 -112.15533365369001 -607.7308237982861 107.07427425661653 0.0 0.0
-1116.7660445040474 -144.9985320290332 -629.0097108289461 103.42812226058949 0.0 0.0
-1092.9284779108327 -148.1116043472998 -618.4101671846361 102.24060626994704 0.0 0.0
-1048.7052767827297 -134.83420470628866 -589.4847531846915 103.6928784762871 0.0 0.0
-996.2956248933226 -116.83059695693291 -554.1659383570403 106.48434605137244 0.0 0.0
-941.2975935836085 -99.46925076838625 -517.8979341216292 109.36355319018338 0.0 0.0
-886.1752087600289 -86.11837999399849 -483.5971535595419 111.62752812724793 0.0 0.0
-831.255997585519 -78.2863313690858 -451.9997768253094 112.7145564526172 0.0 0.0
-772.0756454354062 -74.75029471917672 -418.6373426152187 112.4580191067919 0.0 0.0
-702.9625176534358 -67.79321755282785 -369.05367770994053 113.54525386063435 0.0 0.0
-601.3175921909692 -51.620927853755774 -279.24521071042835 115.40700520782966 0.0 0.0
-467.22337398760664 -13.926860764764704 -168.20233196417166 124.94775987496499 0.0 0.0
-328.4978107249935 12.70088571980974 -96.41854867223077 140.1323208309639 0.0 0.0
-226.18629734068412 11.649126399621277 -64.21602320793608 150.39609885556663 0.0 0.0
-142.8601382479145 -4.379211007435985 -44.16374405577089 149.3876738916847 0.0 0.0
-72.57057312881281 -60.5021674691977 -39.92182217940313 116.04927144483803 0.0 0.0
-53.749122284445654 -128.9118728851599 -54.79829855088168 70.88644643087957 0.0 0.0
-46.18975602876557 -79.17200906006215 -37.60852952664831 -55.721989007242634 0.0 0.0
-81.03600735500191 -49.82741071853563 -39.259025422061264 -95.7756933920325 0.0 0.0
-160.9953926499607 -3.438153736826496 -49.33057141450969 -128.1892401246315 0.0 0.0
-262.0382853445657 7.39328513629121 -76.2524609698265 -128.41534007908368 0.0 0.0
-390.5093854656664 3.8388336364515854 -120.41028723370933 -113.60392964595428 0.0 0.0
-534.3113668150233 -31.825500309934952 -212.78011099308574 -94.72582204422628 0.0 0.0
-663.105799078027 -62.06773038082774 -327.0358326150197 -91.20140538281619 0.0 0.0
-752.837962348548 -79.28902304799333 -406.60782072194917 -90.4942819994337 0.0 0.0
-824.0609820340449 -88.06179533559113 -453.1759820265893 -91.63655514464212 0.0 0.0
-884.8441015175957 -95.53335443886357 -488.3244586609981 -92.58958396486477 0.0 0.0
-942.9489613906832 -106.53649318529165 -522.9599653735893 -92.00316131427718 0.0 0.0
-1000.9526210551059 -122.38381222180695 -559.9236659124053 -90.3001062866938 0.0 0.0
-1058.8271494786923 -142.05350762735935 -598.7526255651724 -88.06536356456759 0.0 0.0
-1114.9424994696292 -163.83317084470775 -637.7598118025545 -85.64427402452458 0.0 0.0
-1164.5837618169724 -181.38085257341436 -671.4849980167494 -83.75767938936107 0.0 0.0
-1193.1166485051688 -181.20022923771492 -685.9123358350121 -83.73945109100299 0.0 0.0
-1177.4656769462076 -141.82821374783825 -658.7259415997873 -86.16732249891085 0.0 0.0
-1099.5373530742627 -46.67440188843568 -572.4988067379177 -89.50657371281518 0.0 0.0
-957.1299089225713 103.17804775768477 -426.6933696189542 -91.96361333655616 0.0 0.0
-755.3560851322069 296.824218067643 -229.25311558374938 -94.51526187103924 0.0 0.0
-3520.93327808242 -2518.3518090514717 -3009.207088166574 1.6536816360712692e-10 0.0 0.0
-755.3560851318191 296.8242180681211 -229.25311558343031 94.51526187099587 0.0 0.0
-957.129908923089 103.1780477570124 -426.6933696193206 91.96361333649432 0.0 0.0
-1099.5373530743216 -46.6744018887555 -572.4988067379747 89.50657371327397 0.0 0.0
-1177.465676948434 -141.82821375020205 -658.7259416012424 86.16732249912062 0.0 0.0
-1193.116648505841 -181.20022923860733 -685.9123358352781 83.73945109096512 0.0 0.0
-1164.5837618162634 -181.38085257280517 -671.4849980163265 83.75767938937567 0.0 0.0
-1114.94249947051 -163.83317084585002 -637.759811802953 85.6442740246393 0.0 0.0
-1058.8271494784776 -142.0535076274394 -598.7526255651414 88.06536356460558 0.0 0.0
-1000.9526210547505 -122.38381222166838 -559.923665912164 90.3001062867629 0.0 0.0
-942.9489613908258 -106.53649318565728 -522.9599653737207 92.00316131408186 0.0 0.0
-884.8441015168193 -95.53335443829673 -488.32445866055104 92.58958396469383 0.0 0.0
-824.0609820337517 -88.061795335563 -453.17598202639124 91.636555144638 0.0 0.0
-752.8379623478385 -79.28902304770472 -406.6078207214521 90.49428199947162 0.0 0.0
-663.1057990770618 -62.06773038004416 -327.0358326142131 91.20140538271252 0.0 0.0
-534.3113668145995 -31.82550030999504 -212.78011099270412 94.72582204416601 0.0 0.0
-390.5093854652755 3.8388336362724695 -120.41028723359254 113.60392964596724 0.0 0.0
-262.0382853442854 7.3932851363309755 -76.2524609697392 128.4153400788965 0.0 0.0
-160.99539264983025 -3.438153736786278 -49.330571414458404 128.18924012464308 0.0 0.0
-81.03600735485344 -49.82741071847964 -39.25902542199992 95.77569339189968 0.0 0.0
-46.18975602850878 -79.17200905991174 -37.60852952652615 55.721989007040676 0.0 0.0
-41.585645921264685 -43.489539255672035 -25.522555553081013 -40.62932135965549 0.0 0.0
-87.01876801229832 -38.1454388562428 -37.54926206056233 -73.61064721297832 0.0 0.0
-177.90516444757353 -2.131538577726699 -54.01123138529432 -102.6282701764028 0.0 0.0
-298.72456628015357 1.787329426639145 -88.89558449736656 -101.69823574673875 0.0 0.0
-449.50609388375415 -9.24995705995591 -148.15750326416224 -82.96028400549862 0.0 0.0
-594.6041924118979 -45.17954610653844 -256.03734636791415 -69.20448928470982 0.0 0.0
-708.6351114280985 -71.3500274599598 -365.5674648153113 -68.2310602591811 0.0 0.0
-795.2855388667118 -88.72763583145596 -436.25011403020136 -68.375640379145 0.0 0.0
-868.5453372949712 -101.63167063884514 -483.25461451656827 -70.28204936767287 0.0 0.0
-932.9085875941962 -112.96627962089282 -521.6354735304286 -71.57798687770544 0.0 0.0
-994.1606418425299 -127.11375418096111 -559.3811656391631 -71.41169743738809 0.0 0.0
-1055.2719383120984 -145.59454395383105 -599.198522430351 -70.26724395607626 0.0 0.0
-1115.5642178362518 -167.68901066953555 -640.4373704534877 -68.67974050370964 0.0 0.0
-1173.399057827789 -189.93352530141945 -680.5095600477197 -66.90723123162569 0.0 0.0
-1225.2465386545182 -209.52917950344 -716.3065436582403 -64.86976605764116 0.0 0.0
-1259.8007364700775 -214.81496892104286 -736.4398515573967 -63.33458075620064 0.0 0.0
-1248.8444620463974 -178.4997890327445 -713.1608790828855 -64.03255571800302 0.0 0.0
-1157.5588255079906 -68.78151197364704 -613.0061311216134 -67.66312028917676 0.0 0.0
-986.0910294229013 110.71725380735936 -437.7550746652551 -73.1071516724702 0.0 0.0
-758.6803706754058 330.31242655051693 -214.29913272097713 -80.60985742290187 0.0 0.0
-3729.8774248946274 -2682.710989255297 -3197.7877987403886 8.93400908807962e-11 0.0 0.0
-758.6803706756148 330.31242655026284 -214.29913272090283 80.60985742299783 0.0 0.0
-986.0910294225263 110.71725380764389 -437.7550746651285 73.10715167270625 0.0 0.0
-1157.5588255070195 -68.78151197281625 -613.0061311209881 67.66312028925594 0.0 0.0
-1248.8444620461266 -178.49978903265017 -713.1608790826855 64.03255571827263 0.0 0.0
-1259.800736470366 -214.81496892150415 -736.4398515575582 63.33458075632315 0.0 0.0
-1225.2465386564045 -209.5291795054772 -716.3065436595422 64.86976605766364 0.0 0.0
-1173.3990578268986 -189.93352530079605 -680.5095600469803 66.90723123167353 0.0 0.0
-1115.5642178351359 -167.68901066861758 -640.4373704528715 68.67974050372992 0.0 0.0
-1055.2719383112972 -145.59454395336604 -599.1985224297803 70.26724395626715 0.0 0.0
-994.1606418414281 -127.11375418004721 -559.381165638496 71.4116974372429 0.0 0.0
-932.9085875943869 -112.96627962140187 -521.6354735305825 71.57798687771393 0.0 0.0
-868.5453372947919 -101.63167063895848 -483.2546145164751 70.28204936765611 0.0 0.0
-795.285538866101 -88.72763583116198 -436.2501140297811 68.37564037907532 0.0 0.0
-708.6351114282434 -71.3500274605387 -365.5674648152206 68.23106025923049 0.0 0.0
-594.6041924114053 -45.17954610650573 -256.03734636744474 69.20448928475386 0.0 0.0
-449.5060938831128 -9.249957059681 -148.15750326379992 82.9602840054389 0.0 0.0
-298.72456627972446 1.7873294266388142 -88.8955844972613 101.69823574667235 0.0 0.0
-177.90516444745933 -2.131538577814582 -54.01123138528616 102.62827017635338 0.0 0.0
-87.0187680122858 -38.145438856397114 -37.54926206060487 73.61064721289593 0.0 0.0
-41.58564592112327 -43.4895392555544 -25.5225555530033 40.629321359406454 0.0 0.0
-38.6862045610831 -21.46066964370781 -18.044062261437265 -26.421358790879495 0.0 0.0
-89.85044149272868 -26.7580901036491 -34.98255947891333 -49.868763945602 0.0 0.0
-193.2965553402949 -1.0336261153573982 -58.29905443669569 -72.07180363860998 0.0 0.0
-337.7706582302885 -4.751420512097418 -102.6161738160107 -69.62800799299343 0.0 0.0
-503.6681466075964 -25.158249195424006 -179.754464495569 -51.96666597357358 0.0 0.0
-642.2318138763255 -55.03230388593347 -295.4083265092757 -45.98040189991877 0.0 0.0
-743.0216164394492 -78.8078652462103 -394.82862434617925 -45.79275731936991 0.0 0.0
-831.9404048156716 -98.72761787675265 -461.76962032515166 -46.66450672680641 0.0 0.0
-908.3062697799948 -115.8580899653598 -510.8227113734333 -48.38771822875983 0.0 0.0
-976.2775900767031 -130.77315420983683 -552.6037718278485 -49.7000291749745 0.0 0.0
-1041.0388211549355 -147.90908887125897 -593.5961527408501 -49.910671711432556 0.0 0.0
-1104.918333397404 -168.9522341619306 -636.0754081521608 -49.310276984366354 0.0 0.0
-1167.6815521768294 -192.30131262058543 -679.1642257776189 -48.42368274670568 0.0 0.0
-1226.0919739637632 -215.3965127543529 -719.959184067628 -47.258718202371114 0.0 0.0
-1276.442736774696 -232.95634805947014 -753.9771067975046 -45.541550051530876 0.0 0.0
-1311.5660732563415 -238.2858813912465 -774.3109575594519 -43.22678047688965 0.0 0.0
-1315.8893777108342 -216.63483260949346 -765.8763219315497 -41.81163762272225 0.0 0.0
-1246.1606330861666 -127.09490774788776 -686.6535164915922 -44.54161743831967 0.0 0.0
-1034.7478815122101 93.93450535114525 -470.7670867455111 -53.36415739527071 0.0 0.0
-732.5053970595266 389.65391221063123 -171.716223609566 -67.09104987688673 0.0 0.0
-3881.8162700389403 -2795.6413991074937 -3331.813419604656 -6.802380880799319e-11 0.0 0.0
-732.5053970587276 389.6539122113336 -171.71622360878786 67.09104987682431 0.0 0.0
-1034.7478815133215 93.93450534985149 -470.76708674666 53.364157395800376 0.0 0.0
-1246.1606330856355 -127.09490774739422 -686.6535164912111 44.541617438347224 0.0 0.0
-1315.889377710509 -216.63483260926114 -765.8763219313233 41.81163762268371 0.0 0.0
-1311.5660732574104 -238.28588139251485 -774.3109575603884 43.22678047699686 0.0 0.0
-1276.442736777368 -232.95634806238328 -753.9771067994508 45.54155005169305 0.0 0.0
-1226.091973961346 -215.39651275210196 -719.9591840659484 47.25871820228118 0.0 0.0
-1167.6815521762755 -192.30131262025665 -679.1642257773415 48.42368274685379 0.0 0.0
-1104.9183333966262 -168.9522341614609 -636.0754081516708 49.31027698451702 0.0 0.0
-1041.038821154329 -147.9090888708683 -593.5961527405224 49.910671711415816 0.0 0.0
-976.2775900766635 -130.77315421010897 -552.6037718277745 49.70002917499032 0.0 0.0
-908.3062697799859 -115.85808996570009 -510.8227113734506 48.38771822883628 0.0 0.0
-831.94040481507 -98.72761787641136 -461.76962032471437 46.66450672670892 0.0 0.0
-743.0216164391225 -78.80786524631299 -394.8286243458497 45.79275731951844 0.0 0.0
-642.2318138759301 -55.032303885950434 -295.40832650882527 45.98040189999377 0.0 0.0
-503.66814660695593 -25.15824919516972 -179.75446449516446 51.96666597357264 0.0 0.0
-337.7706582299134 -4.751420512077738 -102.61617381590207 69.62800799301266 0.0 0.0
-193.29655534021268 -1.0336261154709465 -58.29905443670507 72.07180363861897 0.0 0.0
-89.85044149265485 -26.758090103591588 -34.982559478873924 49.868763945577534 0.0 0.0
-38.68620456113391 -21.46066964369548 -18.044062261448815 26.421358790846472 0.0 0.0
-35.08352866878863 -12.004065025758168 -14.126278108364039 -14.806258853543127 0.0 0.0
-88.01750688760481 -17.45777171828364 -31.642583581766544 -24.993715775430722 0.0 0.0
-206.88544277729594 -1.3088172487006475 -62.45827800779895 -34.96817564291909 0.0 0.0
-378.1814489301113 -11.452210536215176 -117.96903170576923 -32.137548540154015 0.0 0.0
-554.4253258034762 -38.478582167204586 -212.92251891900608 -23.862275172509367 0.0 0.0
-677.1839640005908 -62.16504949213843 -328.53675069921115 -24.327370273428517 0.0 0.0
-773.3810485593899 -84.42440150545733 -418.0491734716901 -24.793451436675248 0.0 0.0
-863.820231975038 -109.18850828499761 -484.163647870291 -25.142554714080497 0.0 0.0
-943.9300143529056 -130.36586390026224 -536.214734107248 -26.029622848184655 0.0 0.0
-1015.8680575782029 -149.23216482297363 -581.911387512308 -26.996538031649756 0.0 0.0
-1083.8137484609942 -169.03604351807806 -625.8384767302089 -27.48395093391419 0.0 0.0
-1150.5198030822003 -191.7681883716859 -670.5705154775637 -27.49967878948903 0.0 0.0
-1215.2553589967815 -217.15811825847513 -715.6627211324702 -27.189500185067494 0.0 0.0
-1274.484137973177 -239.97574492248108 -756.7316809772178 -26.633128048030514 0.0 0.0
-1321.4201969481824 -253.79166195657064 -787.1801766397562 -25.58372794795323 0.0 0.0
-1350.3034879172935 -252.91567017330647 -801.2576916292885 -23.648085012879424 0.0 0.0
-1359.575940133159 -236.29914323196653 -797.607396075362 -21.202105091454662 0.0 0.0
-1342.7886849290062 -198.77660443242172 -770.5909195352696 -21.181294789515345 0.0 0.0
-1205.619014265887 -49.16042248615301 -627.7949345985853 -29.844090199259952 0.0 0.0
-699.653057115527 453.81661865514684 -123.60715392984616 -51.19370477225798 0.0 0.0
-3811.539942068752 -2688.69415541189 -3244.805500557823 1.8837020832052076e-10 0.0 0.0
-699.653057116509 453.8166186541413 -123.60715393050509 51.19370477237937 0.0 0.0
-1205.619014264583 -49.16042248491934 -627.794934597676 29.844090199331085 0.0 0.0
-1342.7886849291847 -198.77660443273334 -770.5909195354121 21.18129478963282 0.0 0.0
-1359.5759401340965 -236.2991432330361 -797.6073960759279 21.20210509154736 0.0 0.0
-1350.3034879165598 -252.91567017270253 -801.2576916288326 23.648085012855905 0.0 0.0
-1321.4201969486337 -253.79166195723178 -787.180176640073 25.583727948042654 0.0 0.0
-1274.4841379721051 -239.97574492157747 -756.7316809764868 26.63312804785148 0.0 0.0
-1215.2553589965637 -217.15811825847715 -715.6627211324682 27.189500185046146 0.0 0.0
-1150.5198030821812 -191.76818837195822 -670.5705154776534 27.49967878953194 0.0 0.0
-1083.8137484619992 -169.036043519334 -625.8384767308546 27.48395093387932 0.0 0.0
-1015.8680575768185 -149.23216482187053 -581.9113875113587 26.99653803162351 0.0 0.0
-943.9300143522787 -130.36586389992902 -536.2147341068437 26.02962284800326 0.0 0.0
-863.8202319744248 -109.1885082846776 -484.16364786986645 25.142554713931933 0.0 0.0
-773.3810485591366 -84.42440150557077 -418.0491734714228 24.79345143682997 0.0 0.0
-677.1839640001527 -62.165049492047494 -328.5367506987451 24.327370273415667 0.0 0.0
-554.4253258027902 -38.47858216683043 -212.92251891850398 23.862275172500574 0.0 0.0
-378.18144892970315 -11.452210536283456 -117.96903170565608 32.13754854036992 0.0 0.0
-206.885442777006 -1.3088172485668341 -62.45827800767182 34.9681756429795 0.0 0.0
-88.01750688743708 -17.457771718152287 -31.64258358167681 24.993715775447225 0.0 0.0
-35.08352866868034 -12.004065025749235 -14.12627810832887 14.806258853505733 0.0 0.0
-23.526414951663792 -6.281053422236173 -8.942240512169988 -8.947250909908803 0.0 0.0
-77.33910530938172 -10.029557962352817 -26.21059898152035 -10.391587365918255 0.0 0.0
-218.36457239556228 -4.1849991796476225 -66.76487147256296 -11.289110227995536 0.0 0.0
-427.2112288339732 -33.69817381800131 -142.78477455022153 -6.397831202323873 0.0 0.0
-632.408126558702 -93.4964692907042 -271.06136666023224 1.2316163325714804 0.0 0.0
-786.0248423708491 -152.9619464367627 -421.81872674028955 1.4060743226158152 0.0 0.0
-927.521304966425 -223.26021251677685 -554.7308472910025 0.14997925087493513 0.0 0.0
-1077.8348959780515 -309.37023447169616 -680.7049580453122 -1.4712095190327048 0.0 0.0
-1238.1410611831159 -411.39714055135016 -813.4169706044881 -3.374418713338617 0.0 0.0
-1417.850051129455 -537.6735596693889 -966.4574011687407 -5.418069963897523 0.0 0.0
-1623.2715689356571 -694.2587813495759 -1147.0660318312916 -7.261081886835045 0.0 0.0
-1853.9356081917354 -880.928030253262 -1355.2766341046654 -8.641924085382074 0.0 0.0
-2102.1752336511154 -1088.8170757320058 -1582.9297659284648 -9.556438029728017 0.0 0.0
-2355.537077095974 -1305.3055836681365 -1817.5531090447842 -10.223065101985142 0.0 0.0
-2595.417803384001 -1511.722675734857 -2040.5194556495712 -10.412809248859048 0.0 0.0
-2797.2137200656657 -1683.6896148564415 -2227.3358776463156 -9.824245599486588 0.0 0.0
-2934.8390530495876 -1795.7145414873862 -2352.0951364414195 -8.252710356600087 0.0 0.0
-3005.7233322368756 -1845.9425724561065 -2412.1184530648075 -7.445790838155485 0.0 0.0
-3102.1210127647046 -1928.1075776033479 -2499.918161664009 -15.478218528838065 0.0 0.0
-3236.9070942461267 -2061.565530248461 -2631.947732796836 -41.35565141979971 0.0 0.0
-6890.954447117463 -5740.061873652227 -6292.144479208853 -2.9189095585024916e-11 0.0 0.0
-3236.9070942500284 -2061.5655302525115 -2631.9477327996647 41.35565141995 0.0 0.0
-3102.121012760984 -1928.1075775996624 -2499.9181616607584 15.478218529022108 0.0 0.0
-3005.7233322343614 -1845.9425724536463 -2412.1184530629516 7.445790838123344 0.0 0.0
-2934.839053050026 -1795.7145414879983 -2352.0951364412667 8.252710356585624 0.0 0.0
-2797.2137200631573 -1683.6896148540393 -2227.335877644264 9.824245599244101 0.0 0.0
-2595.4178033819917 -1511.7226757330623 -2040.519455647608 10.412809248990115 0.0 0.0
-2355.5370770946565 -1305.3055836670223 -1817.553109043562 10.223065101920415 0.0 0.0
-2102.175233648993 -1088.817075730111 -1582.9297659267913 9.556438029763434 0.0 0.0
-1853.9356081907601 -880.9280302525568 -1355.276634103844 8.64192408544784 0.0 0.0
-1623.271568936219 -694.2587813504442 -1147.0660318314056 7.261081886752983 0.0 0.0
-1417.8500511267307 -537.6735596669233 -966.4574011666657 5.418069964047611 0.0 0.0
-1238.141061181202 -411.3971405497328 -813.4169706030854 3.3744187131428056 0.0 0.0
-1077.8348959775362 -309.37023447149215 -680.7049580448188 1.4712095189662122 0.0 0.0
-927.5213049662593 -223.26021251700496 -554.7308472906622 -0.14997925071560658 0.0 0.0
-786.0248423699963 -152.9619464362251 -421.81872673951773 -1.4060743226619579 0.0 0.0
-632.40812655742 -93.49646928960317 -271.0613666592908 -1.2316163325636964 0.0 0.0
-427.2112288337611 -33.69817381827426 -142.78477455017332 6.397831202696672 0.0 0.0
-218.36457239514436 -4.184999179204777 -66.76487147230472 11.289110228025624 0.0 0.0
-77.33910530928848 -10.029557962494811 -26.21059898153498 10.391587366011272 0.0 0.0
-23.526414951565407 -6.281053422255784 -8.942240512146354 8.9472509097438 0.0 0.0
SCALARS Strain float 6
LOOKUP_TABLE default
0.01608161411213191 -0.026354685178529777 0.0 -0.0018262855712567706 0.0 0.0
0.009910361810530736 -0.0032804417940196836 0.0 -0.007895333653017287 0.0 0.0
0.002896266112062167 -0.0006519286457663344 0.0 -0.001030210196561457 0.0 0.0
0.0024167668317428633 -0.0009571647894406744 0.0 4.074461694043572e-05 0.0 0.0
0.003804756952198763 -0.0017495247629668855 0.0 0.00027581970342050957 0.0 0.0
0.006856216126476118 -0.004122801607072084 0.0 0.00047393083625118745 0.0 0.0
0.012164156263125291 -0.008748869666488777 0.0 0.0006160530623678108 0.0 0.0
0.02020859498927542 -0.0160747726255072 0.0 0.0006555535593048313 0.0 0.0
0.031344523539164885 -0.026417309940097437 0.0 0.000580630300626032 0.0 0.0
0.04567577075688806 -0.03982339475543756 0.0 0.0003483068988834455 0.0 0.0
0.06305040252989419 -0.05610532744422429 0.0 -9.161785927783508e-06 0.0 0.0
0.08316389221111699 -0.07496071320638481 0.0 -0.00046541787175457416 0.0 0.0
0.10564925238160766 -0.0960638686732869 0.0 -0.0010196626826211915 0.0 0.0
0.13010838226059532 -0.119066631466551 0.0 -0.0016282651474885373 0.0 0.0
0.156034944245932 -0.14352566154739063 0.0 -0.002301846214674166 0.0 0.0
0.1826774173295661 -0.16876282641560134 0.0 -0.002990615038371319 0.0 0.0
0.20896084930309666 -0.19377973885542793 0.0 -0.003545665294589704 0.0 0.0
0.2335062616441782 -0.21727022208544233 0.0 -0.0037641578935054066 0.0 0.0
0.254761301474775 -0.2376779458899032 0.0 -0.003548978242511951 0.0 0.0
0.27075532258819845 -0.2531239980495952 0.0 -0.004504244659296885 0.0 0.0
0.27714345338128427 -0.25955831929311285 0.0 6.333475410791323e-15 0.0 0.0
0.27075532258816315 -0.2531239980495603 0.0 0.00450424465930457 0.0 0.0
0.2547613014746988 -0.23767794588982633 0.0 0.0035489782425253153 0.0 0.0
0.23350626164407 -0.21727022208534225 0.0 0.003764157893511819 0.0 0.0
0.2089608493029706 -0.19377973885529987 0.0 0.003545665294588274 0.0 0.0
0.18267741732943182 -0.16876282641546875 0.0 0.002990615038364123 0.0 0.0
0.15603494424579548 -0.1435256615472546 0.0 0.0023018462146774006 0.0 0.0
0.13010838226045873 -0.11906663146642421 0.0 0.0016282651474906172 0.0 0.0
0.10564925238147449 -0.09606386867316682 0.0 0.0010196626826174384 0.0 0.0
0.08316389221099464 -0.07496071320627402 0.0 0.0004654178717520196 0.0 0.0
0.06305040252978862 -0.05610532744413084 0.0 9.161785919952533e-06 0.0 0.0
0.04567577075680246 -0.03982339475535033 0.0 -0.0003483068988893549 0.0 0.0
0.03134452353910075 -0.026417309940034134 0.0 -0.0005806303006245129 0.0 0.0
0.020208594989230756 -0.016074772625460358 0.0 -0.0006555535593051928 0.0 0.0
0.012164156263095667 -0.008748869666465719 0.0 -0.0006160530623717478 0.0 0.0
0.006856216126459329 -0.004122801607055387 0.0 -0.00047393083624807904 0.0 0.0
0.00380475695219157 -0.0017495247629625314 0.0 -0.00027581970342304714 0.0 0.0
0.0024167668317405465 -0.0009571647894385351 0.0 -4.074461693761371e-05 0.0 0.0
0.0028962661120604544 -0.0006519286457649538 0.0 0.0010302101965622406 0.0 0.0
0.00991036181052556 -0.0032804417940157115 0.0 0.007895333653005536 0.0 0.0
0.016081614112124033 -0.026354685178504464 0.0 0.0018262855712010803 0.0 0.0
0.011409114052318906 -0.023724178869169072 0.0 -0.0013674243402287624 0.0 0.0
0.006663068394186013 -0.002470443572826673 0.0 -0.006567405816461106 0.0 0.0
0.0018608545578514607 -0.00047755020032814056 0.0 -0.0006425143041519744 0.0 0.0
0.0021077100144960372 -0.0008958076821825292 0.0 -0.00017975961833723088 0.0 0.0
0.0032410152257535485 -0.001558814496360517 0.0 -0.000142968991362516 0.0 0.0
0.005844390929173114 -0.0036935935687701198 0.0 -0.0002717473533536165 0.0 0.0
0.010574300187437283 -0.008013338305787805 0.0 -0.000678402889180475 0.0 0.0
0.01787644468806246 -0.0149608575548037 0.0 -0.001339334425412445 0.0 0.0
0.028032704949837117 -0.02481054647962554 0.0 -0.002278528454363881 0.0 0.0
0.041068644726450484 -0.03756950321924337 0.0 -0.003458891036136847 0.0 0.0
0.056801588495076064 -0.05303450650420158 0.0 -0.004768418766593378 0.0 0.0
0.0749539017736287 -0.07091417223655284 0.0 -0.006110377067824353 0.0 0.0
0.09523160580133375 -0.09091525284332232 0.0 -0.007470874272424876 0.0 0.0
0.11730276212811822 -0.1127263565745387 0.0 -0.008843848699671622 0.0 0.0
0.1407240701873755 -0.13593412150896866 0.0 -0.010174550924462202 0.0 0.0
0.16484530959348268 -0.15991316924179858 0.0 -0.011320436572252264 0.0 0.0
0.18873189536546187 -0.1837421976369014 0.0 -0.011986180582913933 0.0 0.0
0.21115493912086666 -0.2061877786501782 0.0 -0.011827416506959721 0.0 0.0
0.2305176147884089 -0.2256999724083874 0.0 -0.010795365378330812 0.0 0.0
0.2443937913172253 -0.2401649518758161 0.0 -0.010121771572147102 0.0 0.0
0.24958151220198144 -0.24623897121571336 0.0 1.1591422266477025e-14 0.0 0.0
0.2443937913171916 -0.2401649518757829 0.0 0.010121771572173793 0.0 0.0
0.2305176147883407 -0.2256999724083109 0.0 0.010795365378357728 0.0 0.0
0.21115493912077268 -0.2061877786500929 0.0 0.011827416506976749 0.0 0.0
0.18873189536535134 -0.1837421976367846 0.0 0.011986180582914608 0.0 0.0
0.16484530959336186 -0.1599131692416696 0.0 0.011320436572243797 0.0 0.0
0.14072407018725236 -0.13593412150884096 0.0 0.01017455092446417 0.0 0.0
0.11730276212799451 -0.11272635657441829 0.0 0.008843848699667867 0.0 0.0
0.09523160580121372 -0.09091525284320699 0.0 0.007470874272416004 0.0 0.0
0.07495390177351859 -0.07091417223644476 0.0 0.006110377067815481 0.0 0.0
0.05680158849498045 -0.053034506504109305 0.0 0.004768418766582665 0.0 0.0
0.04106864472637332 -0.03756950321916403 0.0 0.003458891036126465 0.0 0.0
0.028032704949778754 -0.024810546479567323 0.0 0.002278528454360585 0.0 0.0
0.01787644468802129 -0.014960857554763788 0.0 0.001339334425406517 0.0 0.0
0.01057430018741106 -0.0080133383057609 0.0 0.0006784028891766777 0.0 0.0
0.00584439092915856 -0.003693593568754535 0.0 0.00027174735335075867 0.0 0.0
0.0032410152257477624 -0.0015588144963557973 0.0 0.00014296899136292325 0.0 0.0
0.0021077100144951256 -0.000895807682182558 0.0 0.0001797596183382371 0.0 0.0
0.0018608545578508206 -0.0004775502003277846 0.0 0.0006425143041513694 0.0 0.0
0.006663068394178134 -0.0024704435728223244 0.0 0.006567405816447587 0.0 0.0
0.011409114052304024 -0.023724178869142062 0.0 0.0013674243401850473 0.0 0.0
0.008449005435036148 -0.01906474301505206 0.0 -0.004642062272487471 0.0 0.0
0.004767521448325482 -0.0013953163776448476 0.0 -0.006774155612619449 0.0 0.0
0.0012758460059935839 -0.00023224566160299077 0.0 -0.0005571288231310474 0.0 0.0
0.0017685606073950507 -0.0007470257649259907 0.0 -0.00047740141434250065 0.0 0.0
0.0027304096602991683 -0.0012251384521470405 0.0 -0.0005148620517923493 0.0 0.0
0.004888221861454028 -0.002882726866661049 0.0 -0.0007664653439254866 0.0 0.0
0.009005550893286533 -0.006566702852557927 0.0 -0.0015452015529759963 0.0 0.0
0.015521764033223265 -0.012735964673119722 0.0 -0.002811388508478044 0.0 0.0
0.02464342066138708 -0.02157255758384653 0.0 -0.004585031464001445 0.0 0.0
0.03634239089962609 -0.03301869455793969 0.0 -0.0067498561288253985 0.0 0.0
0.05041428801140004 -0.046839787497166926 0.0 -0.009099544542463063 0.0 0.0
0.06660119142789406 -0.0627667912348047 0.0 -0.011456696762983734 0.0 0.0
0.0846557797459392 -0.08055964944095832 0.0 -0.013780343431009472 0.0 0.0
0.10431646486217257 -0.09997444465405994 0.0 -0.01610531540195504 0.0 0.0
0.12522189552195542 -0.12067156778417418 0.0 -0.01835910542416092 0.0 0.0
0.14683409923529042 -0.14213579688802533 0.0 -0.020282671280867443 0.0 0.0
0.16837096121188475 -0.16360093849635055 0.0 -0.021418600586741478 0.0 0.0
0.18870672301987898 -0.1839700878551316 0.0 -0.02128051147390897 0.0 0.0
0.20619730372621667 -0.2016896933403492 0.0 -0.01972163446349638 0.0 0.0
0.2187234263313272 -0.21455680317288608 0.0 -0.016968454727545663 0.0 0.0
0.2234608111414058 -0.22029646624462562 0.0 2.0696118430141297e-14 0.0 0.0
0.21872342633129602 -0.21455680317285525 0.0 0.016968454727592695 0.0 0.0
0.20619730372615613 -0.20168969334028444 0.0 0.019721634463541055 0.0 0.0
0.1887067230197969 -0.18397008785505015 0.0 0.0212805114739378 0.0 0.0
0.16837096121178707 -0.16360093849625976 0.0 0.021418600586741998 0.0 0.0
0.1468340992351836 -0.14213579688790687 0.0 0.020282671280860122 0.0 0.0
0.1252218955218455 -0.12067156778406818 0.0 0.018359105424157286 0.0 0.0
0.10431646486206206 -0.0999744446539529 0.0 0.01610531540194727 0.0 0.0
0.08465577974583331 -0.08055964944085253 0.0 0.013780343430999698 0.0 0.0
0.06660119142779684 -0.06276679123470834 0.0 0.011456696762965696 0.0 0.0
0.0504142880113151 -0.04683978749708485 0.0 0.009099544542446467 0.0 0.0
0.036342390899557354 -0.03301869455787488 0.0 0.0067498561288099265 0.0 0.0
0.024643420661334337 -0.02157255758379811 0.0 0.004585031463991485 0.0 0.0
0.01552176403318634 -0.012735964673084871 0.0 0.002811388508469316 0.0 0.0
0.00900555089326355 -0.006566702852534468 0.0 0.0015452015529699228 0.0 0.0
0.004888221861442238 -0.0028827268666495546 0.0 0.0007664653439222139 0.0 0.0
0.0027304096602949928 -0.0012251384521452483 0.0 0.0005148620517929714 0.0 0.0
0.0017685606073937893 -0.0007470257649286 0.0 0.0004774014143407554 0.0 0.0
0.001275846005993563 -0.0002322456616032319 0.0 0.0005571288231293992 0.0 0.0
0.004767521448318263 -0.001395316377640485 0.0 0.006774155612603958 0.0 0.0
0.008449005435021334 -0.019064743015024394 0.0 0.004642062272460055 0.0 0.0
0.0064401965439876765 -0.015430330264184656 0.0 -0.005090904551645853 0.0 0.0
0.0035489982490393974 -0.0009997825387360307 0.0 -0.006199894123155771 0.0 0.0
0.000900693741814485 -0.00012634136378822372 0.0 -0.0008325744297576059 0.0 0.0
0.001446931958918572 -0.0005828737038669072 0.0 -0.000785833743113266 0.0 0.0
0.002268797955226832 -0.0009683689690622146 0.0 -0.0008555261677562047 0.0 0.0
0.004007439700749749 -0.002186377288805661 0.0 -0.001169999161311172 0.0 0.0
0.007484369336935555 -0.005190548384138745 0.0 -0.0021323361141093594 0.0 0.0
0.013169878653215719 -0.010529841209662254 0.0 -0.003877491874079022 0.0 0.0
0.021215434521870722 -0.01830787100535732 0.0 -0.006277106441824874 0.0 0.0
0.0315442138771534 -0.02840556537136011 0.0 -0.009176756386737964 0.0 0.0
0.04393423060421948 -0.04056425218298192 0.0 -0.012296225697365847 0.0 0.0
0.058145566108231 -0.05453100052134364 0.0 -0.01541928410225294 0.0 0.0
0.07397100244538418 -0.07010819023089807 0.0 -0.018492529952158283 0.0 0.0
0.09120329151846887 -0.08710994816260796 0.0 -0.021533229365755108 0.0 0.0
0.10957289603964845 -0.10527810971083386 0.0 -0.024462410528140268 0.0 0.0
0.12867016239697088 -0.12421822864041179 0.0 -0.027001726866034404 0.0 0.0
0.14785226932093837 -0.14331891067277858 0.0 -0.028633816136467056 0.0 0.0
0.16610877408061375 -0.16161637345472213 0.0 -0.028759571317570214 0.0 0.0
0.1819546037959549 -0.1776414603065738 0.0 -0.026779689764818825 0.0 0.0
0.19359031950392377 -0.18949361281823882 0.0 -0.021718517634249423 0.0 0.0
0.19812236002658945 -0.19542131816327082 0.0 2.934284759614769e-14 0.0 0.0
0.19359031950389566 -0.18949361281820779 0.0 0.021718517634312394 0.0 0.0
0.18195460379590228 -0.17764146030652123 0.0 0.026779689764885872 0.0 0.0
0.16610877408054167 -0.16161637345464042 0.0 0.028759571317607813 0.0 0.0
0.1478522693208528 -0.14331891067269847 0.0 0.028633816136473506 0.0 0.0
0.12867016239687817 -0.12421822864032298 0.0 0.02700172686602597 0.0 0.0
0.10957289603955155 -0.10527810971073796 0.0 0.02446241052812768 0.0 0.0
0.09120329151837225 -0.08710994816251692 0.0 0.02153322936574662 0.0 0.0
0.07397100244529237 -0.07010819023079978 0.0 0.01849252995214341 0.0 0.0
0.058145566108146016 -0.0545310005212648 0.0 0.015419284102230313 0.0 0.0
0.04393423060414531 -0.04056425218291431 0.0 0.012296225697341663 0.0 0.0
0.03154421387709291 -0.028405565371302288 0.0 0.009176756386718662 0.0 0.0
0.02121543452182372 -0.018307871005315758 0.0 0.00627710644180826 0.0 0.0
0.013169878653183182 -0.010529841209632946 0.0 0.0038774918740689416 0.0 0.0
0.007484369336916865 -0.005190548384123217 0.0 0.0021323361141011928 0.0 0.0
0.004007439700740851 -0.002186377288797131 0.0 0.0011699991613103294 0.0 0.0
0.0022687979552236167 -0.0009683689690629517 0.0 0.0008555261677532144 0.0 0.0
0.0014469319589185009 -0.0005828737038686295 0.0 0.0007858337431135731 0.0 0.0
0.0009006937418151525 -0.00012634136378941545 0.0 0.000832574429756037 0.0 0.0
0.003548998249032485 -0.0009997825387324287 0.0 0.006199894123140535 0.0 0.0
0.006440196543973694 -0.015430330264159284 0.0 0.005090904551627784 0.0 0.0
0.00492518720047233 -0.012489622391722337 0.0 -0.004507212831063385 0.0 0.0
0.0026761962739541485 -0.0007834282231260119 0.0 -0.00552305545113284 0.0 0.0
0.0006511163294043475 -7.9759322309313e-05 0.0 -0.0012360790067227191 0.0 0.0
0.0011637296025036336 -0.0004408327467162618 0.0 -0.0011242785747521899 0.0 0.0
0.001854809923220826 -0.0007649447592916565 0.0 -0.00118788145735735 0.0 0.0
0.0032172296283432345 -0.001621550899876985 0.0 -0.0015024669535935603 0.0 0.0
0.006040987258950396 -0.003934354582378033 0.0 -0.0025137905840937054 0.0 0.0
0.010850615141435723 -0.008375163485967186 0.0 -0.004501151679449806 0.0 0.0
0.01778872675700233 -0.015057693687666254 0.0 -0.0073448847219662015 0.0 0.0
0.026718289231039152 -0.023778008057598388 0.0 -0.01073713185683574 0.0 0.0
0.037408702573853495 -0.034256510692522765 0.0 -0.014368934584191664 0.0 0.0
0.04963125075383012 -0.046251898024126874 0.0 -0.018003172036075633 0.0 0.0
0.06321669222732096 -0.05960517335365002 0.0 -0.021586800823142967 0.0 0.0
0.07801760265868254 -0.07418661888278413 0.0 -0.025124145073928753 0.0 0.0
0.09383696016411429 -0.08981313054231187 0.0 -0.02850520832206285 0.0 0.0
0.11038039582436786 -0.10619986155700095 0.0 -0.03146270062742406 0.0 0.0
0.12716581849970468 -0.12288913555059641 0.0 -0.033547364780108294 0.0 0.0
0.14337003870926152 -0.13909938508771427 0.0 -0.03406390330372707 0.0 0.0
0.15774953429355298 -0.15360099286196421 0.0 -0.03184727126206609 0.0 0.0
0.16877594146372063 -0.16478807497464706 0.0 -0.025278713972578234 0.0 0.0
0.17325069531954884 -0.17113795579473098 0.0 3.2350858103491476e-14 0.0 0.0
0.16877594146369482 -0.16478807497461692 0.0 0.025278713972653355 0.0 0.0
0.15774953429350602 -0.15360099286191112 0.0 0.03184727126214203 0.0 0.0
0.1433700387091993 -0.13909938508764771 0.0 0.03406390330376631 0.0 0.0
0.1271658184996318 -0.12288913555052458 0.0 0.03354736478011432 0.0 0.0
0.11038039582428712 -0.10619986155692683 0.0 0.031462700627414686 0.0 0.0
0.09383696016403058 -0.0898131305422296 0.0 0.02850520832204706 0.0 0.0
0.07801760265859982 -0.07418661888270862 0.0 0.025124145073919763 0.0 0.0
0.06321669222724148 -0.0596051733535673 0.0 0.02158680082312375 0.0 0.0
0.049631250753757655 -0.04625189802406015 0.0 0.018003172036048037 0.0 0.0
0.03740870257379093 -0.03425651069246332 0.0 0.01436893458416412 0.0 0.0
0.026718289230986743 -0.023778008057543265 0.0 0.010737131856811334 0.0 0.0
0.017788726756962307 -0.015057693687633565 0.0 0.007344884721946518 0.0 0.0
0.010850615141408688 -0.008375163485939063 0.0 0.004501151679440386 0.0 0.0
0.006040987258935021 -0.00393435458236516 0.0 0.0025137905840888794 0.0 0.0
0.0032172296283366187 -0.0016215508998726359 0.0 0.0015024669535886718 0.0 0.0
0.0018548099232190422 -0.0007649447592927995 0.0 0.0011878814573545397 0.0 0.0
0.001163729602503499 -0.0004408327467171282 0.0 0.0011242785747530943 0.0 0.0
0.0006511163294039314 -7.97593223116421e-05 0.0 0.001236079006719194 0.0 0.0
0.0026761962739484304 -0.0007834282231233898 0.0 0.0055230554511208185 0.0 0.0
0.004925187200461449 -0.012489622391700279 0.0 0.00450721283104889 0.0 0.0
0.0037240427145006673 -0.010025540480384516 0.0 -0.0037165570121011236 0.0 0.0
0.0020092398611407706 -0.0006298142443183391 0.0 -0.00486066647276705 0.0 0.0
0.00047516462690764085 -6.820839653544736e-05 0.0 -0.0016267850065038699 0.0 0.0
0.000913912374085392 -0.00031836574502582926 0.0 -0.0014632188711193007 0.0 0.0
0.0014855590604982028 -0.0006017394686732961 0.0 -0.0015208949895896997 0.0 0.0
0.002517843586933436 -0.0011803701164600077 0.0 -0.001784285125020389 0.0 0.0
0.004711944546491909 -0.002843278438469689 0.0 -0.002764357227767599 0.0 0.0
0.008611262826710033 -0.006335477481561997 0.0 -0.004746847142741989 0.0 0.0
0.014394977114420084 -0.011863711441593256 0.0 -0.007767388182994479 0.0 0.0
0.021908005768683285 -0.019182842731247183 0.0 -0.011425089447131609 0.0 0.0
0.03088254513148566 -0.027965324162816413 0.0 -0.015315754910162037 0.0 0.0
0.041106308135937006 -0.03797959594494025 0.0 -0.01920906444696861 0.0 0.0
0.05244393432921586 -0.0491008476323007 0.0 -0.02305098872017174 0.0 0.0
0.064801992834661 -0.06125526343147622 0.0 -0.026844972618240457 0.0 0.0
0.07806085206590077 -0.07433118081635234 0.0 -0.030472858595183998 0.0 0.0
0.09201746639762433 -0.08813223120953027 0.0 -0.03366716944350799 0.0 0.0
0.10633941194758983 -0.10233928906348465 0.0 -0.036063952774884694 0.0 0.0
0.12046833429838566 -0.1164198025501661 0.0 -0.03699192515812568 0.0 0.0
0.1334759577136289 -0.12948631236197725 0.0 -0.03497608576069777 0.0 0.0
0.1440759294300467 -0.1402177802397238 0.0 -0.02784860545920898 0.0 0.0
0.1485958552416307 -0.14717349526176166 0.0 3.2877346678450436e-14 0.0 0.0
0.14407592943002506 -0.1402177802396994 0.0 0.027848605459289362 0.0 0.0
0.13347595771358883 -0.1294863123619281 0.0 0.0349760857607734 0.0 0.0
0.12046833429833223 -0.11641980255010614 0.0 0.03699192515817101 0.0 0.0
0.10633941194752793 -0.10233928906343191 0.0 0.036063952774890426 0.0 0.0
0.09201746639755665 -0.08813223120946062 0.0 0.03366716944349571 0.0 0.0
0.07806085206583127 -0.07433118081628799 0.0 0.030472858595169634 0.0 0.0
0.0648019928345926 -0.06125526343141248 0.0 0.026844972618231322 0.0 0.0
0.05244393432914983 -0.04910084763222889 0.0 0.02305098872015231 0.0 0.0
0.04110630813587715 -0.037979595944886306 0.0 0.019209064446942613 0.0 0.0
0.03088254513143368 -0.027965324162765298 0.0 0.015315754910133608 0.0 0.0
0.021908005768639435 -0.01918284273120294 0.0 0.011425089447103484 0.0 0.0
0.014394977114387092 -0.011863711441561488 0.0 0.007767388182975963 0.0 0.0
0.00861126282668801 -0.006335477481538358 0.0 0.0047468471427295515 0.0 0.0
0.004711944546479861 -0.0028432784384579677 0.0 0.0027643572277608035 0.0 0.0
0.002517843586928711 -0.001180370116460328 0.0 0.0017842851250163606 0.0 0.0
0.0014855590604966875 -0.0006017394686741085 0.0 0.0015208949895878813 0.0 0.0
0.0009139123740849039 -0.0003183657450271317 0.0 0.0014632188711177054 0.0 0.0
0.0004751646269074637 -6.82083965359281e-05 0.0 0.0016267850064995224 0.0 0.0
0.0020092398611361163 -0.0006298142443162443 0.0 0.004860666472757868 0.0 0.0
0.003724042714491746 -0.01002554048036598 0.0 0.003716557012090178 0.0 0.0
0.0027591246798028962 -0.007935132763226114 0.0 -0.0029881336959721875 0.0 0.0
0.0014845936243089862 -0.0005080857637647591 0.0 -0.00425856121162105 0.0 0.0
0.00034067398986627277 -7.070823616143397e-05 0.0 -0.0019500176146592654 0.0 0.0
0.0006863161381884076 -0.00021026851177298957 0.0 -0.0017740540095917533 0.0 0.0
0.0011502490013477298 -0.0004601771187542422 0.0 -0.0018367385237952638 0.0 0.0
0.0019028802243345098 -0.0008466777933669994 0.0 -0.002054289921457407 0.0 0.0
0.003509776878513929 -0.0019388895645617655 0.0 -0.002888952420039569 0.0 0.0
0.006505478091866615 -0.004484971772993908 0.0 -0.004724466287415558 0.0 0.0
0.01109400577340758 -0.008794690583946933 0.0 -0.007595497944482919 0.0 0.0
0.017153816031727106 -0.014670766501740252 0.0 -0.011221242762321778 0.0 0.0
0.024402120668743865 -0.02174149442504667 0.0 -0.015122295096797377 0.0 0.0
0.0326178796217196 -0.029766544296995004 0.0 -0.019027522698932684 0.0 0.0
0.04170081988973133 -0.038651663499644266 0.0 -0.022873239395621657 0.0 0.0
0.0516106507439079 -0.0483718298230797 0.0 -0.026676052035895435 0.0 0.0
0.062292852963752324 -0.05888456112775459 0.0 -0.030330739823611168 0.0 0.0
0.07362716282413244 -0.07007377865016277 0.0 -0.03357949026351369 0.0 0.0
0.08542118874069725 -0.08173017783785085 0.0 -0.036095013675162324 0.0 0.0
0.09739111245654235 -0.09358246204868478 0.0 -0.03740009564671188 0.0 0.0
0.10900390046612536 -0.10517773388642399 0.0 -0.036051411965943914 0.0 0.0
0.11927201247714986 -0.11555295877740868 0.0 -0.0294220718737324 0.0 0.0
0.12391350304357712 -0.12328359593263108 0.0 3.1558089474970075e-14 0.0 0.0
0.11927201247713157 -0.11555295877738947 0.0 0.029422071873810324 0.0 0.0
0.10900390046609135 -0.10517773388639526 0.0 0.03605141196601389 0.0 0.0
0.0973911124564983 -0.09358246204863145 0.0 0.03740009564675366 0.0 0.0
0.0854211887406467 -0.08173017783780262 0.0 0.036095013675169305 0.0 0.0
0.07362716282407797 -0.07007377865011485 0.0 0.03357949026350309 0.0 0.0
0.062292852963696424 -0.058884561127698645 0.0 0.030330739823596742 0.0 0.0
0.05161065074385353 -0.04837182982303098 0.0 0.026676052035880853 0.0 0.0
0.04170081988967932 -0.038651663499582475 0.0 0.02287323939560343 0.0 0.0
0.03261787962167184 -0.029766544296956347 0.0 0.01902752269890857 0.0 0.0
0.024402120668701798 -0.02174149442500439 0.0 0.015122295096768 0.0 0.0
0.017153816031692033 -0.01467076650170581 0.0 0.01122124276229586 0.0 0.0
0.011094005773381863 -0.00879469058392202 0.0 0.007595497944462867 0.0 0.0
0.006505478091849852 -0.004484971772983137 0.0 0.00472446628740204 0.0 0.0
0.003509776878505202 -0.00193888956455398 0.0 0.0028889524200316347 0.0 0.0
0.0019028802243315972 -0.0008466777933672788 0.0 0.0020542899214546187 0.0 0.0
0.0011502490013469147 -0.0004601771187528608 0.0 0.001836738523793777 0.0 0.0
0.0006863161381880061 -0.00021026851177407147 0.0 0.0017740540095904423 0.0 0.0
0.00034067398986599396 -7.070823616110092e-05 0.0 0.0019500176146542507 0.0 0.0
0.0014845936243054413 -0.0005080857637630165 0.0 0.004258561211613133 0.0 0.0
0.0027591246797962926 -0.007935132763211002 0.0 0.0029881336959662946 0.0 0.0
0.0019848614857595026 -0.006167394801615761 0.0 -0.0024113259083737024 0.0 0.0
0.0010662272857877792 -0.00041248113708676655 0.0 -0.0037171685134416493 0.0 0.0
0.00022674704066235853 -7.137976363817562e-05 0.0 -0.0021943992991779746 0.0 0.0
0.000470503979047478 -0.00011309560993000707 0.0 -0.0020384750022350573 0.0 0.0
0.0008335587761168306 -0.0003222670489132321 0.0 -0.002111974729770721 0.0 0.0
0.0013649902178441214 -0.0005918756949410641 0.0 -0.0023249599270963794 0.0 0.0
0.002445327723106158 -0.0012330075246373671 0.0 -0.0029441519848676986 0.0 0.0
0.0045645502713481025 -0.0028827840860709106 0.0 -0.0044564257714274505 0.0 0.0
0.00795189436497036 -0.005944287830868165 0.0 -0.006936082589551661 0.0 0.0
0.012517947585441353 -0.010319126798415493 0.0 -0.010169562918801377 0.0 0.0
0.018010419141175266 -0.015645038848043837 0.0 -0.013774353023241965 0.0 0.0
0.02421371279072735 -0.02167262272075015 0.0 -0.017427180129850416 0.0 0.0
0.03104090274543092 -0.028320968065576865 0.0 -0.02102744910292399 0.0 0.0
0.0384910021868054 -0.03560061359915299 0.0 -0.024586736967063302 0.0 0.0
0.04658119836506455 -0.0435330147614707 0.0 -0.028045439854890473 0.0 0.0
0.05527240377256249 -0.05208759687712261 0.0 -0.031168366762857322 0.0 0.0
0.06446788608822834 -0.06114712488298839 0.0 -0.03360889734014842 0.0 0.0
0.07413317196076111 -0.07062673076269876 0.0 -0.035091736181740815 0.0 0.0
0.08420428021684147 -0.0805573446611187 0.0 -0.03476207480830113 0.0 0.0
0.09412520092653899 -0.09053576400150844 0.0 -0.02982009774146059 0.0 0.0
0.09893013154477369 -0.09920811994314545 0.0 2.9661169353989436e-14 0.0 0.0
0.09412520092652515 -0.09053576400149871 0.0 0.029820097741529723 0.0 0.0
0.08420428021681518 -0.08055734466109041 0.0 0.03476207480837797 0.0 0.0
0.07413317196072719 -0.07062673076266657 0.0 0.03509173618178622 0.0 0.0
0.0644678860881888 -0.061147124882941425 0.0 0.03360889734015304 0.0 0.0
0.05527240377251995 -0.052087596877081484 0.0 0.031168366762841036 0.0 0.0
0.04658119836502213 -0.04353301476142681 0.0 0.02804543985487548 0.0 0.0
0.03849100218676594 -0.035600613599116995 0.0 0.024586736967052755 0.0 0.0
0.031040902745393548 -0.02832096806554264 0.0 0.02102744910290832 0.0 0.0
0.024213712790691892 -0.021672622720717023 0.0 0.017427180129827205 0.0 0.0
0.018010419141143846 -0.015645038848012927 0.0 0.013774353023211595 0.0 0.0
0.012517947585415632 -0.010319126798394406 0.0 0.010169562918776524 0.0 0.0
0.007951894364951898 -0.00594428783085107 0.0 0.006936082589538189 0.0 0.0
0.004564550271336831 -0.002882784086059462 0.0 0.004456425771420437 0.0 0.0
0.002445327723100546 -0.0012330075246356586 0.0 0.0029441519848616227 0.0 0.0
0.001364990217842099 -0.0005918756949394473 0.0 0.002324959927094031 0.0 0.0
0.0008335587761162271 -0.0003222670489155963 0.0 0.002111974729767621 0.0 0.0
0.0004705039790471625 -0.00011309560993060684 0.0 0.00203847500223229 0.0 0.0
0.00022674704066219837 -7.137976363760964e-05 0.0 0.0021943992991750832 0.0 0.0
0.0010662272857850188 -0.00041248113708642947 0.0 0.0037171685134358215 0.0 0.0
0.001984861485753869 -0.006167394801603873 0.0 0.0024113259083671725 0.0 0.0
0.0013859042709145851 -0.004707626128265366 0.0 -0.002013009671260458 0.0 0.0
0.0007345469222466471 -0.00034470847036735373 0.0 -0.003234415464246836 0.0 0.0
0.00011641146582129085 -5.838500383410876e-05 0.0 -0.0023631305305980514 0.0 0.0
0.0002614254703455409 -2.424935645128426e-05 0.0 -0.00224755587618157 0.0 0.0
0.0005224111344357703 -0.00017987046099772884 0.0 -0.002327243959102823 0.0 0.0
0.0008789698597231815 -0.0003764979661321366 0.0 -0.0025783666002511803 0.0 0.0
0.00152240857727359 -0.0007163122143280547 0.0 -0.0030170283853831826 0.0 0.0
0.002822334926752804 -0.0015931537006847831 0.0 -0.0040242003579031025 0.0 0.0
0.005021248755424188 -0.0034236677855235408 0.0 -0.0058628279981650855 0.0 0.0
0.00807374084744161 -0.006246911023410066 0.0 -0.008377027633193165 0.0 0.0
0.011774838537924886 -0.009775940318413374 0.0 -0.0113224210209364 0.0 0.0
0.015944387155367848 -0.013783685206900468 0.0 -0.014408644043796954 0.0 0.0
0.020511705920250853 -0.018189818106795718 0.0 -0.017519352244035846 0.0 0.0
0.02549821006620658 -0.02302745559612586 0.0 -0.02060991466585881 0.0 0.0
0.03097218246338225 -0.028358787505186563 0.0 -0.02363890534440916 0.0 0.0
0.03699375990822222 -0.03424430395334414 0.0 -0.02647983506264699 0.0 0.0
0.043564526764278425 -0.040685341860683316 0.0 -0.028794233722254068 0.0 0.0
0.05075578841637702 -0.04768490142563077 0.0 -0.030216148724864552 0.0 0.0
0.05895649044889158 -0.05558906513398167 0.0 -0.030647096016875257 0.0 0.0
0.06834142470693247 -0.06485953299560053 0.0 -0.028536182747820188 0.0 0.0
0.07329882415294976 -0.07461424230879883 0.0 2.5304411344073685e-14 0.0 0.0
0.06834142470692377 -0.0648595329955962 0.0 0.028536182747882548 0.0 0.0
0.058956490448873675 -0.05558906513395153 0.0 0.030647096016943653 0.0 0.0
0.0507557884163523 -0.04768490142560922 0.0 0.030216148724902477 0.0 0.0
0.043564526764250266 -0.04068534186064774 0.0 0.028794233722253683 0.0 0.0
0.03699375990819394 -0.034244303953316416 0.0 0.026479835062630422 0.0 0.0
0.03097218246335552 -0.028358787505157045 0.0 0.023638905344396176 0.0 0.0
0.025498210066182227 -0.023027455596101688 0.0 0.0206099146658497 0.0 0.0
0.02051170592022762 -0.018189818106777396 0.0 0.017519352244021864 0.0 0.0
0.015944387155344557 -0.013783685206876364 0.0 0.014408644043774604 0.0 0.0
0.011774838537904349 -0.009775940318392577 0.0 0.011322421020909846 0.0 0.0
0.00807374084742571 -0.006246911023402165 0.0 0.008377027633175974 0.0 0.0
0.005021248755412813 -0.00342366778551187 0.0 0.005862827998157433 0.0 0.0
0.0028223349267458967 -0.0015931537006756953 0.0 0.004024200357894783 0.0 0.0
0.00152240857727033 -0.0007163122143266577 0.0 0.003017028385377681 0.0 0.0
0.0008789698597221874 -0.00037649796612921444 0.0 0.002578366600249418 0.0 0.0
0.0005224111344355234 -0.00017987046100009592 0.0 0.0023272439591006727 0.0 0.0
0.0002614254703453873 -2.424935645033367e-05 0.0 0.002247555876178777 0.0 0.0
0.00011641146582110908 -5.83850038329267e-05 0.0 0.0023631305305980097 0.0 0.0
0.0007345469222448938 -0.000344708470367667 0.0 0.003234415464241531 0.0 0.0
0.0013859042709113815 -0.004707626128256227 0.0 0.002013009671255482 0.0 0.0
0.0009469176547336783 -0.0035342033246034167 0.0 -0.0017480135076391482 0.0 0.0
0.00047680808789075436 -0.000309646880813018 0.0 -0.0028284806682754246 0.0 0.0
5.989461293804349e-07 -2.5118107839132846e-05 0.0 -0.002464802168014948 0.0 0.0
5.638280492773336e-05 5.892545815193987e-05 0.0 -0.002396895823431472 0.0 0.0
0.00021015561308759283 -3.48833750933469e-05 0.0 -0.0024794280041690233 0.0 0.0
0.0004160022353783524 -0.0001667590714800028 0.0 -0.002762171755504323 0.0 0.0
0.0007223302912033754 -0.0003281865708212486 0.0 -0.003138610234598405 0.0 0.0
0.0013046138389771493 -0.0006641461075246559 0.0 -0.0036540862893950808 0.0 0.0
0.0023566408348590063 -0.0014165994153242615 0.0 -0.0045787569085056655 0.0 0.0
0.0038895125102100846 -0.0026883720096261996 0.0 -0.006084275362215365 0.0 0.0
0.005767907669889001 -0.0043583176365007935 0.0 -0.008114849380616511 0.0 0.0
0.007870526649202864 -0.00629954426975886 0.0 -0.010461704710191075 0.0 0.0
0.010158193182768787 -0.008446850408687005 0.0 -0.012954466664586647 0.0 0.0
0.012674435395827214 -0.010833871395682341 0.0 -0.015523714216123417 0.0 0.0
0.015510053086036948 -0.013541145888956758 0.0 -0.018144008191420567 0.0 0.0
0.018807836928902172 -0.016702357311501142 0.0 -0.020751636470043244 0.0 0.0
0.022729690012649267 -0.020480738990674513 0.0 -0.023090818629300937 0.0 0.0
0.027409512331752962 -0.0250149340568848 0.0 -0.024592818537851138 0.0 0.0
0.03331062299006472 -0.030593652429563988 0.0 -0.024944045101907578 0.0 0.0
0.041579078858335866 -0.03833818343439459 0.0 -0.02500683509888654 0.0 0.0
0.04649011637470069 -0.0490399048385824 0.0 1.9257165306818536e-14 0.0 0.0
0.041579078858332424 -0.03833818343438781 0.0 0.02500683509894331 0.0 0.0
0.0333106229900544 -0.030593652429551185 0.0 0.02494404510196365 0.0 0.0
0.027409512331738575 -0.025014934056874393 0.0 0.024592818537874435 0.0 0.0
0.02272969001263469 -0.020480738990662287 0.0 0.02309081862929281 0.0 0.0
0.018807836928889203 -0.016702357311480776 0.0 0.02075163647002911 0.0 0.0
0.01551005308602518 -0.013541145888950435 0.0 0.018144008191408465 0.0 0.0
0.01267443539581726 -0.010833871395670708 0.0 0.01552371421611402 0.0 0.0
0.010158193182759085 -0.008446850408678814 0.0 0.012954466664574359 0.0 0.0
0.007870526649192716 -0.0062995442697496165 0.0 0.010461704710172841 0.0 0.0
0.005767907669880394 -0.004358317636489566 0.0 0.008114849380598508 0.0 0.0
0.0038895125102033808 -0.002688372009620996 0.0 0.0060842753622041305 0.0 0.0
0.0023566408348541807 -0.0014165994153206654 0.0 0.0045787569085000614 0.0 0.0
0.0013046138389743085 -0.0006641461075237678 0.0 0.003654086289391117 0.0 0.0
0.0007223302912023641 -0.00032818657082195834 0.0 0.003138610234594235 0.0 0.0
0.0004160022353784173 -0.00016675907147765753 0.0 0.002762171755502577 0.0 0.0
0.00021015561308751832 -3.48833750922882e-05 0.0 0.002479428004166031 0.0 0.0
5.638280492738332e-05 5.892545815319631e-05 0.0 0.0023968958234296765 0.0 0.0
5.989461291718997e-07 -2.5118107837804576e-05 0.0 0.002464802168013025 0.0 0.0
0.0004768080878893552 -0.0003096468808132237 0.0 0.002828480668271112 0.0 0.0
0.0009469176547311829 -0.0035342033245968187 0.0 0.001748013507637107 0.0 0.0
0.0006349458581631122 -0.002627448026968575 0.0 -0.001586723544209346 0.0 0.0
0.00027640741540885244 -0.0003010448331865095 0.0 -0.0025257550299286006 0.0 0.0
-0.00012145781346466114 2.5029004766747768e-05 0.0 -0.00250806404949568 0.0 0.0
-0.00014568356616272463 0.00013917828713268406 0.0 -0.002482318729214986 0.0 0.0
-9.918971576889426e-05 0.00010853441610329147 0.0 -0.002564592881053203 0.0 0.0
-4.766630341694299e-05 4.7824349102984186e-05 0.0 -0.0028412520995386424 0.0 0.0
-1.938978274008988e-05 1.2795294612466755e-05 0.0 -0.0032231645863143913 0.0 0.0
-8.043406405628176e-06 4.9707693404729485e-06 0.0 -0.0035278575911616337 0.0 0.0
-2.9639338151910043e-06 1.8424650390881571e-06 0.0 -0.003911287286362042 0.0 0.0
-6.012926519111442e-07 2.398717412365381e-07 0.0 -0.004832657412607185 0.0 0.0
-3.5462986578820585e-06 2.2873233991958916e-06 0.0 -0.006370346516816247 0.0 0.0
-1.904834919810405e-05 1.7836596516481904e-05 0.0 -0.008361164506006687 0.0 0.0
-4.332799078311865e-05 4.3567631564055934e-05 0.0 -0.010553167676775575 0.0 0.0
-3.380093221041895e-05 4.622164723020589e-05 0.0 -0.012885637848817832 0.0 0.0
0.00012478790829925017 -7.541351149364754e-05 0.0 -0.015360851169624282 0.0 0.0
0.0006535030738477159 -0.0005224945264532988 0.0 -0.017941193154453784 0.0 0.0
0.0018894846829911967 -0.0016046825282307986 0.0 -0.020507841424801783 0.0 0.0
0.0041788292562032064 -0.003676306364461014 0.0 -0.022785644006418214 0.0 0.0
0.007745257550173088 -0.006826903247606078 0.0 -0.024493478642572702 0.0 0.0
0.013882915036990098 -0.011959215806477646 0.0 -0.026151552088579597 0.0 0.0
0.01789936679417922 -0.023239240615745987 0.0 1.4405143744511406e-14 0.0 0.0
0.013882915036990864 -0.011959215806476239 0.0 0.026151552088609288 0.0 0.0
0.007745257550170782 -0.006826903247597258 0.0 0.02449347864259553 0.0 0.0
0.004178829256201354 -0.0036763063644763864 0.0 0.0227856440064218 0.0 0.0
0.0018894846829919628 -0.0016046825282302227 0.0 0.020507841424786826 0.0 0.0
0.0006535030738503745 -0.000522494526445532 0.0 0.017941193154436083 0.0 0.0
0.00012478790830268644 -7.541351150145976e-05 0.0 0.015360851169608947 0.0 0.0
-3.380093220622764e-05 4.622164722860528e-05 0.0 0.012885637848806378 0.0 0.0
-4.3327990777710214e-05 4.356763155320795e-05 0.0 0.010553167676762244 0.0 0.0
-1.9048349193275123e-05 1.7836596514348086e-05 0.0 0.00836116450598894 0.0 0.0
-3.5462986548081827e-06 2.2873233992172504e-06 0.0 0.00637034651680406 0.0 0.0
-6.012926497944563e-07 2.3987173937313336e-07 0.0 0.0048326574126017876 0.0 0.0
-2.963933813918178e-06 1.8424650405670767e-06 0.0 0.003911287286358916 0.0 0.0
-8.043406404833374e-06 4.970769338441784e-06 0.0 0.0035278575911601873 0.0 0.0
-1.9389782739470476e-05 1.2795294611537963e-05 0.0 0.003223164586310997 0.0 0.0
-4.766630341675046e-05 4.782434910380489e-05 0.0 0.00284125209953687 0.0 0.0
-9.918971576864684e-05 0.00010853441610052098 0.0 0.0025645928810504592 0.0 0.0
-0.000145683566162486 0.00013917828713288724 0.0 0.002482318729213763 0.0 0.0
-0.00012145781346455518 2.502900476766987e-05 0.0 0.0025080640494943907 0.0 0.0
0.0002764074154080527 -0.00030104483318660027 0.0 0.002525755029925558 0.0 0.0
0.000634945858161247 -0.0026274480269641016 0.0 0.0015867235442086258 0.0 0.0
0.0004176644361945152 -0.001966552457587739 0.0 -0.0015099269649122234 0.0 0.0
0.00012461776279496778 -0.00029604714650093364 0.0 -0.0023132555328910986 0.0 0.0
-0.0002414768149907084 8.026192391550886e-05 0.0 -0.0024980684686346354 0.0 0.0
-0.00034370116566773427 0.00021799490397605135 0.0 -0.0025013470618587877 0.0 0.0
-0.00040255709097536613 0.00024733226886377034 0.0 -0.0025721393466996544 0.0 0.0
-0.0005082011601817587 0.00026202630351693576 0.0 -0.002816841237765539 0.0 0.0
-0.0007611657211437368 0.00035590741146093773 0.0 -0.0031797668730453956 0.0 0.0
-0.0013204759360814227 0.0006755151258237513 0.0 -0.003682909071080798 0.0 0.0
-0.002360774245749687 0.0014193668037461482 0.0 -0.004591244202819397 0.0 0.0
-0.0038896049695656574 0.0026881969665930655 0.0 -0.006084940880657096 0.0 0.0
-0.005777150562657681 0.00436526957066246 0.0 -0.008115477326082414 0.0 0.0
-0.00791143479742466 0.006337044268186687 0.0 -0.010468204573605687 0.0 0.0
-0.010242456890824779 0.00853288524852692 0.0 -0.012948342802665932 0.0 0.0
-0.012730779068900588 0.010919319947777525 0.0 -0.015494872048678048 0.0 0.0
-0.01524216981886296 0.01337360545572049 0.0 -0.01813132377316444 0.0 0.0
-0.017501889707243378 0.01563137505802574 0.0 -0.020907960658557642 0.0 0.0
-0.019087207839292294 0.01727501396204859 0.0 -0.023853431779849964 0.0 0.0
-0.019534173988534888 0.01780025159553299 0.0 -0.02710486742938033 0.0 0.0
-0.018323669065880975 0.016891089094785167 0.0 -0.030601577767057075 0.0 0.0
-0.013338150639539654 0.013232554600272003 0.0 -0.032448206665188536 0.0 0.0
-0.009447995676128161 0.001257940964799561 0.0 1.5683634946306313e-14 0.0 0.0
-0.013338150639539362 0.013232554600268565 0.0 0.0324482066652195 0.0 0.0
-0.018323669065874054 0.01689108909479311 0.0 0.03060157776708316 0.0 0.0
-0.019534173988520205 0.017800251595508736 0.0 0.027104867429388967 0.0 0.0
-0.019087207839273906 0.017275013962042233 0.0 0.023853431779837383 0.0 0.0
-0.01750188970722454 0.015631375058008858 0.0 0.0209079606585413 0.0 0.0
-0.01524216981884485 0.013373605455702191 0.0 0.018131323773146104 0.0 0.0
-0.012730779068881648 0.010919319947761361 0.0 0.015494872048662449 0.0 0.0
-0.010242456890805135 0.008532885248503999 0.0 0.012948342802651967 0.0 0.0
-0.00791143479740619 0.006337044268174182 0.0 0.010468204573585308 0.0 0.0
-0.0057771505626421716 0.004365269570644987 0.0 0.008115477326062354 0.0 0.0
-0.003889604969554464 0.002688196966585868 0.0 0.006084940880645559 0.0 0.0
-0.002360774245742379 0.001419366803736713 0.0 0.004591244202815847 0.0 0.0
-0.0013204759360770126 0.0006755151258217151 0.0 0.0036829090710762437 0.0 0.0
-0.0007611657211415662 0.0003559074114609922 0.0 0.0031797668730430793 0.0 0.0
-0.0005082011601807936 0.0002620263035139244 0.0 0.002816841237762979 0.0 0.0
-0.00040255709097498026 0.0002473322688615905 0.0 0.0025721393466982966 0.0 0.0
-0.0003437011656673569 0.0002179949039745674 0.0 0.0025013470618580956 0.0 0.0
-0.00024147681499046326 8.026192391523671e-05 0.0 0.0024980684686341523 0.0 0.0
0.0001246177627946815 -0.00029604714650112034 0.0 0.002313255532888953 0.0 0.0
0.00041766443619385907 -0.00196655245758504 0.0 0.0015099269649130507 0.0 0.0
0.00027259791121845087 -0.0014774504696112873 0.0 -0.0014307068686397729 0.0 0.0
1.371615193697685e-05 -0.00027707685760742064 0.0 -0.0021347076568345854 0.0 0.0
-0.0003536854599285186 0.00013124648038713942 0.0 -0.002437118285296823 0.0 0.0
-0.0005344302970017525 0.00029464855032967723 0.0 -0.002453486216942697 0.0 0.0
-0.000697142343630143 0.000378996084690063 0.0 -0.0025003657006770308 0.0 0.0
-0.0009644450629278428 0.0004715854279629916 0.0 -0.002691350528082052 0.0 0.0
-0.0015600256108545879 0.0007495317684582118 0.0 -0.003097198713987051 0.0 0.0
-0.0028336370711659394 0.0016031826925555705 0.0 -0.0040651376036629746 0.0 0.0
-0.0050208496627396374 0.003422783846833516 0.0 -0.005871957419699104 0.0 0.0
-0.008073374071931795 0.006246695440319947 0.0 -0.008376354920788882 0.0 0.0
-0.011785941937096353 0.00978664629199181 0.0 -0.011324446451670073 0.0 0.0
-0.015981470172288383 0.013819566137002196 0.0 -0.014397408078115913 0.0 0.0
-0.020579510053400404 0.018261169043034046 0.0 -0.017447947223802895 0.0 0.0
-0.02552685296501894 0.023084540575146032 0.0 -0.02046041805128087 0.0 0.0
-0.030680755243669762 0.02816228464393848 0.0 -0.02354996732053357 0.0 0.0
-0.03571900967370746 0.03318659379964672 0.0 -0.026923780226796683 0.0 0.0
-0.040143679092634804 0.037647167401641486 0.0 -0.030797114585433202 0.0 0.0
-0.043301291182371054 0.0408822815408906 0.0 -0.03525871774842609 0.0 0.0
-0.043998923726689634 0.0418861207018376 0.0 -0.039475786718892354 0.0 0.0
-0.039678893306790954 0.03830487432296881 0.0 -0.04071862279585385 0.0 0.0
-0.03583094695246472 0.024441585141001573 0.0 2.3652954594943765e-14 0.0 0.0
-0.039678893306786395 0.03830487432296433 0.0 0.040718622795908495 0.0 0.0
-0.04399892372667453 0.04188612070182505 0.0 0.039475786718942855 0.0 0.0
-0.04330129118234493 0.04088228154086602 0.0 0.035258717748448215 0.0 0.0
-0.04014367909260151 0.0376471674015998 0.0 0.030797114585424452 0.0 0.0
-0.03571900967367313 0.03318659379961342 0.0 0.02692378022677456 0.0 0.0
-0.03068075524363694 0.02816228464390242 0.0 0.023549967320513843 0.0 0.0
-0.02552685296498524 0.023084540575113537 0.0 0.02046041805126218 0.0 0.0
-0.020579510053366525 0.018261169042998876 0.0 0.017447947223784382 0.0 0.0
-0.015981470172256585 0.013819566136978132 0.0 0.014397408078088696 0.0 0.0
-0.011785941937068558 0.009786646291958887 0.0 0.011324446451642258 0.0 0.0
-0.008073374071910349 0.00624669544030494 0.0 0.008376354920767623 0.0 0.0
-0.005020849662725805 0.0034227838468199644 0.0 0.005871957419690075 0.0 0.0
-0.002833637071157755 0.0016031826925536916 0.0 0.004065137603654652 0.0 0.0
-0.0015600256108500878 0.0007495317684552439 0.0 0.0030971987139845575 0.0 0.0
-0.0009644450629259123 0.0004715854279603132 0.0 0.002691350528079407 0.0 0.0
-0.000697142343629433 0.0003789960846910245 0.0 0.002500365700674391 0.0 0.0
-0.000534430297001591 0.00029464855032937935 0.0 0.0024534862169413962 0.0 0.0
-0.00035368545992853017 0.00013124648038705412 0.0 0.0024371182852942984 0.0 0.0
1.3716151937190526e-05 -0.00027707685760795336 0.0 0.0021347076568318884 0.0 0.0
0.0002725979112188759 -0.001477450469609416 0.0 0.0014307068686393331 0.0 0.0
0.00016770109650142992 -0.0010818174654733893 0.0 -0.00129165677185584 0.0 0.0
-7.215475441220144e-05 -0.0002421439388419906 0.0 -0.001951286004457428 0.0 0.0
-0.0004566222890310198 0.00017657638548936627 0.0 -0.0023247828282213613 0.0 0.0
-0.000716089116535057 0.00036693957721468327 0.0 -0.0023436438877043504 0.0 0.0
-0.0009813465800958465 0.0005011903586565351 0.0 -0.0023548900346469915 0.0 0.0
-0.0014400609716776927 0.000687186411127174 0.0 -0.00248934033718458 0.0 0.0
-0.0024761373950854975 0.0012679613711099064 0.0 -0.003043667640111805 0.0 0.0
-0.004567174276209874 0.0028836924783118708 0.0 -0.004487327701641244 0.0 0.0
-0.007947446411192535 0.005939594274909998 0.0 -0.006936517194471148 0.0 0.0
-0.012519340241021679 0.01032123909988856 0.0 -0.010169151261511139 0.0 0.0
-0.01802170236812106 0.015657633570474925 0.0 -0.013776351876177644 0.0 0.0
-0.024236905420720253 0.021697042732867673 0.0 -0.017395189853918316 0.0 0.0
-0.03106981015509041 0.028353610976494366 0.0 -0.02088095406061327 0.0 0.0
-0.03846768889901542 0.03559925795370423 0.0 -0.024281970663344067 0.0 0.0
-0.0462876374599278 0.04331629275320009 0.0 -0.027823869876499905 0.0 0.0
-0.05417770693502287 0.05117277320821985 0.0 -0.03190960073986644 0.0 0.0
-0.06150889402280163 0.05854543334637828 0.0 -0.036968562534872636 0.0 0.0
-0.06723008319194748 0.06443352209387444 0.0 -0.04281682055306037 0.0 0.0
-0.06952838390922257 0.06710488009462469 0.0 -0.0478720378419778 0.0 0.0
-0.06479528418053705 0.06338399539977549 0.0 -0.04918307901817742 0.0 0.0
-0.06005671588956224 0.04665124132837307 0.0 2.716056546336887e-14 0.0 0.0
-0.06479528418052839 0.06338399539977425 0.0 0.04918307901824444 0.0 0.0
-0.06952838390920002 0.06710488009459356 0.0 0.04787203784204249 0.0 0.0
-0.06723008319191096 0.06443352209384058 0.0 0.042816820553090905 0.0 0.0
-0.06150889402275568 0.058545433346326045 0.0 0.03696856253486891 0.0 0.0
-0.054177706934973764 0.0511727732081663 0.0 0.03190960073984171 0.0 0.0
-0.046287637459880494 0.043316292753154045 0.0 0.027823869876478627 0.0 0.0
-0.03846768889896751 0.03559925795365426 0.0 0.024281970663319757 0.0 0.0
-0.031069810155042572 0.028353610976442442 0.0 0.020880954060592483 0.0 0.0
-0.024236905420675792 0.021697042732826313 0.0 0.017395189853889086 0.0 0.0
-0.01802170236808189 0.01565763357043327 0.0 0.01377635187614407 0.0 0.0
-0.012519340240990552 0.010321239099858742 0.0 0.010169151261486542 0.0 0.0
-0.007947446411171006 0.005939594274895733 0.0 0.006936517194455125 0.0 0.0
-0.0045671742761966404 0.0028836924783054974 0.0 0.004487327701631478 0.0 0.0
-0.0024761373950785708 0.0012679613711061427 0.0 0.0030436676401044568 0.0 0.0
-0.0014400609716750592 0.0006871864111257715 0.0 0.002489340337181915 0.0 0.0
-0.0009813465800946719 0.0005011903586565081 0.0 0.0023548900346448396 0.0 0.0
-0.0007160891165349486 0.0003669395772163961 0.0 0.0023436438877012353 0.0 0.0
-0.0004566222890308825 0.00017657638549021525 0.0 0.0023247828282198053 0.0 0.0
-7.215475441198851e-05 -0.00024214393884260094 0.0 0.0019512860044562188 0.0 0.0
0.00016770109650104527 -0.0010818174654718998 0.0 0.0012916567718545186 0.0 0.0
8.110591621332715e-05 -0.0007516598142012805 0.0 -0.001113485454720831 0.0 0.0
-0.000145907386191333 -0.00019327708268481868 0.0 -0.0017445607656422914 0.0 0.0
-0.0005519204858561291 0.000218290826287655 0.0 -0.0021606211938863863 0.0 0.0
-0.0008875118267867158 0.0004327378764088925 0.0 -0.0021748924650752542 0.0 0.0
-0.001260319669851659 0.0006128766188870683 0.0 -0.002134762214720593 0.0 0.0
-0.0019611776164037724 0.0009360113477595011 0.0 -0.00224265228004871 0.0 0.0
-0.003527561096417277 0.001963863342831786 0.0 -0.0029737356083594864 0.0 0.0
-0.006499068509771198 0.004475558164114858 0.0 -0.004738463460291586 0.0 0.0
-0.011089346477161711 0.008789854653091204 0.0 -0.007591076324462915 0.0 0.0
-0.017158132112629686 0.01467643433173798 0.0 -0.011222082337590873 0.0 0.0
-0.024410947569517248 0.021753673535753755 0.0 -0.01512154253576619 0.0 0.0
-0.0326175826561828 0.029771306996728565 0.0 -0.018975677392733828 0.0 0.0
-0.04166988250272238 0.03862603198897018 0.0 -0.02266823530895317 0.0 0.0
-0.05151220613332242 0.04828473528393182 0.0 -0.026252435176740526 0.0 0.0
-0.0620139192095986 0.058650472019247085 0.0 -0.029988923800674784 0.0 0.0
-0.07279677074148083 0.06938456167968411 0.0 -0.03443604111033638 0.0 0.0
-0.08302655053775981 0.07969324134836894 0.0 -0.040105317286709234 0.0 0.0
-0.09117817551597132 0.08810597328211635 0.0 -0.04668595312653979 0.0 0.0
-0.0946436167570648 0.09214109867214432 0.0 -0.05237895017231844 0.0 0.0
-0.08908417458295932 0.08769100087090609 0.0 -0.05405901635953966 0.0 0.0
-0.08337439146770918 0.06819321260940547 0.0 2.8711408250892134e-14 0.0 0.0
-0.08908417458294479 0.08769100087090057 0.0 0.054059016359606596 0.0 0.0
-0.09464361675703509 0.09214109867210712 0.0 0.05237895017238677 0.0 0.0
-0.09117817551592608 0.08810597328207552 0.0 0.04668595312657662 0.0 0.0
-0.08302655053770286 0.07969324134831983 0.0 0.04010531728670543 0.0 0.0
-0.07279677074141845 0.0693845616796251 0.0 0.03443604111031252 0.0 0.0
-0.062013919209536805 0.05865047201919281 0.0 0.029988923800651178 0.0 0.0
-0.05151220613326015 0.04828473528386769 0.0 0.026252435176720178 0.0 0.0
-0.041669882502660564 0.0386260319889071 0.0 0.02266823530892861 0.0 0.0
-0.03261758265612608 0.029771306996676072 0.0 0.018975677392705066 0.0 0.0
-0.02441094756946701 0.02175367353570169 0.0 0.015121542535732807 0.0 0.0
-0.017158132112589222 0.014676434331697137 0.0 0.011222082337563777 0.0 0.0
-0.011089346477132207 0.008789854653066913 0.0 0.007591076324443887 0.0 0.0
-0.0064990685097523595 0.004475558164096281 0.0 0.004738463460278458 0.0 0.0
-0.003527561096407175 0.0019638633428259865 0.0 0.0029737356083489345 0.0 0.0
-0.0019611776163993085 0.0009360113477579794 0.0 0.0022426522800454377 0.0 0.0
-0.0012603196698505342 0.0006128766188866811 0.0 0.0021347622147192993 0.0 0.0
-0.0008875118267862737 0.0004327378764084226 0.0 0.0021748924650755105 0.0 0.0
-0.0005519204858552716 0.00021829082628741536 0.0 0.0021606211938862137 0.0 0.0
-0.00014590738619070845 -0.00019327708268491084 0.0 0.001744560765640344 0.0 0.0
8.110591621363182e-05 -0.0007516598142004668 0.0 0.0011134854547197833 0.0 0.0
6.819645731634052e-06 -0.0004817382331731104 0.0 -0.0009215238036032543 0.0 0.0
-0.0002122168811712391 -0.00013377224438409607 0.0 -0.0015086405287860938 0.0 0.0
-0.0006412948055407806 0.0002584886189186372 0.0 -0.001941415318932055 0.0 0.0
-0.0010481481761321475 0.0004906417878343826 0.0 -0.0019475628317769697 0.0 0.0
-0.0015452447601296238 0.0007208138127741883 0.0 -0.0018509556412807152 0.0 0.0
-0.0025497220803346542 0.001251016946898925 0.0 -0.0019657021527869772 0.0 0.0
-0.004715668963402302 0.002851301501884011 0.0 -0.0028197822881584063 0.0 0.0
-0.008602083153585969 0.006322464327754939 0.0 -0.0047486477984358825 0.0 0.0
-0.014392619366163564 0.011861692800621368 0.0 -0.0077619172892269585 0.0 0.0
-0.02191471087052384 0.01919162665896034 0.0 -0.0114270123152029 0.0 0.0
-0.030885510779941915 0.02797372929531689 0.0 -0.015309459987104621 0.0 0.0
-0.04107607476852045 0.03795874521156575 0.0 -0.01913983284525152 0.0 0.0
-0.05234226939523405 0.049007685074820846 0.0 -0.02282001371194841 0.0 0.0
-0.0646137220799826 0.061067673610639084 0.0 -0.026389407557627927 0.0 0.0
-0.07777981971654244 0.07406091921764797 0.0 -0.030061204339748425 0.0 0.0
-0.09142628782003259 0.08764473924531095 0.0 -0.03435319482208682 0.0 0.0
-0.10449246796464605 0.10083949660676102 0.0 -0.03988777555544067 0.0 0.0
-0.11493034035966262 0.11167140700233058 0.0 -0.046571670960226956 0.0 0.0
-0.11939807045430051 0.11686902879224309 0.0 -0.05287877590447041 0.0 0.0
-0.11309222227655674 0.11169437517270381 0.0 -0.05679736356743802 0.0 0.0
-0.10655194416693028 0.08981069077435866 0.0 3.1499108876786863e-14 0.0 0.0
-0.11309222227653734 0.11169437517268696 0.0 0.056797363567507 0.0 0.0
-0.11939807045426223 0.11686902879218905 0.0 0.05287877590453803 0.0 0.0
-0.11493034035960831 0.11167140700228179 0.0 0.04657167096026881 0.0 0.0
-0.10449246796457858 0.10083949660668458 0.0 0.03988777555544288 0.0 0.0
-0.09142628781995765 0.08764473924523351 0.0 0.03435319482206938 0.0 0.0
-0.07777981971646598 0.07406091921758041 0.0 0.030061204339727234 0.0 0.0
-0.06461372207990625 0.0610676736105589 0.0 0.026389407557608234 0.0 0.0
-0.052342269395158986 0.04900768507474436 0.0 0.022820013711925477 0.0 0.0
-0.04107607476845046 0.037958745211503137 0.0 0.019139832845220646 0.0 0.0
-0.030885510779880748 0.027973729295253595 0.0 0.01530945998707034 0.0 0.0
-0.02191471087047435 0.0191916266589145 0.0 0.011427012315173055 0.0 0.0
-0.014392619366127405 0.011861692800587803 0.0 0.007761917289210135 0.0 0.0
-0.008602083153561762 0.006322464327729355 0.0 0.004748647798421943 0.0 0.0
-0.004715668963388324 0.0028513015018780167 0.0 0.0028197822881490453 0.0 0.0
-0.0025497220803287314 0.0012510169468956456 0.0 0.001965702152781344 0.0 0.0
-0.0015452447601276718 0.0007208138127728426 0.0 0.0018509556412804715 0.0 0.0
-0.0010481481761311891 0.000490641787833191 0.0 0.001947562831777458 0.0 0.0
-0.0006412948055403927 0.00025848861891814977 0.0 0.0019414153189319357 0.0 0.0
-0.00021221688117116277 -0.00013377224438366458 0.0 0.0015086405287828943 0.0 0.0
6.819645731834045e-06 -0.00048173823317280865 0.0 0.0009215238036014346 0.0 0.0
-5.5777972263762174e-05 -0.00027016261696718996 0.0 -0.0007243858570941544 0.0 0.0
-0.00027155038256411424 -6.869450442708348e-05 0.0 -0.0012450840140964222 0.0 0.0
-0.000725836313726919 0.0002983080781243251 0.0 -0.0016664922056200497 0.0 0.0
-0.0012027802925687558 0.0005409853702125538 0.0 -0.0016622897979206711 0.0 0.0
-0.0018513827721643003 0.0008372210940384513 0.0 -0.0015138865215741663 0.0 0.0
-0.003217689514295328 0.001659855558059239 0.0 -0.0016485095767687526 0.0 0.0
-0.006033523938923367 0.003929105214775616 0.0 -0.0025464659177361426 0.0 0.0
-0.010843154394508323 0.008365684782271343 0.0 -0.004494769811747557 0.0 0.0
-0.0177905927540813 0.015059995235288837 0.0 -0.007340370545943569 0.0 0.0
-0.02672569193845535 0.023788288109220453 0.0 -0.010739839377073686 0.0 0.0
-0.03740193240950847 0.03425704156960934 0.0 -0.014356103774374926 0.0 0.0
-0.04956884275156725 0.04620232255318856 0.0 -0.017922681497842992 0.0 0.0
-0.06304795852634908 0.059448691961006564 0.0 -0.02136786974422734 0.0 0.0
-0.07773377788638844 0.07390070692215464 0.0 -0.02473251637896961 0.0 0.0
-0.09349476805368877 0.0894598688288746 0.0 -0.028098539935623206 0.0 0.0
-0.10989635052400068 0.10577589209684479 0.0 -0.0317588530630452 0.0 0.0
-0.12570005406378654 0.12174401439919885 0.0 -0.036384194863612204 0.0 0.0
-0.1383809171092015 0.13494349598580033 0.0 -0.042538045185455786 0.0 0.0
-0.1439784343613084 0.14141714389974053 0.0 -0.04989745221898429 0.0 0.0
-0.1372637071192032 0.13588813715390652 0.0 -0.05791507166644604 0.0 0.0
-0.13010417946616237 0.11200719511556154 0.0 3.0987365451373705e-14 0.0 0.0
-0.13726370711917993 0.13588813715388554 0.0 0.05791507166650947 0.0 0.0
-0.14397843436126154 0.14141714389969062 0.0 0.04989745221904246 0.0 0.0
-0.1383809171091362 0.13494349598573413 0.0 0.04253804518549416 0.0 0.0
-0.12570005406370838 0.12174401439910854 0.0 0.03638419486361491 0.0 0.0
-0.1098963505239135 0.10577589209675405 0.0 0.03175885306303183 0.0 0.0
-0.09349476805359865 0.08945986882878784 0.0 0.028098539935608263 0.0 0.0
-0.0777337778862982 0.07390070692205944 0.0 0.02473251637895009 0.0 0.0
-0.06304795852626088 0.059448691960918704 0.0 0.021367869744206534 0.0 0.0
-0.049568842751485764 0.04620232255310863 0.0 0.017922681497815833 0.0 0.0
-0.03740193240943682 0.03425704156953646 0.0 0.014356103774340979 0.0 0.0
-0.026725691938396943 0.023788288109165587 0.0 0.010739839377046775 0.0 0.0
-0.01779059275403773 0.015059995235246322 0.0 0.007340370545925299 0.0 0.0
-0.010843154394478492 0.008365684782244497 0.0 0.00449476981173573 0.0 0.0
-0.006033523938905768 0.003929105214763129 0.0 0.0025464659177275445 0.0 0.0
-0.0032176895142870766 0.0016598555580524775 0.0 0.0016485095767648393 0.0 0.0
-0.0018513827721613222 0.0008372210940361306 0.0 0.0015138865215740276 0.0 0.0
-0.0012027802925677355 0.0005409853702123481 0.0 0.0016622897979184923 0.0 0.0
-0.0007258363137264016 0.00029830807812425197 0.0 0.001666492205620196 0.0 0.0
-0.0002715503825635479 -6.869450442711819e-05 0.0 0.001245084014094696 0.0 0.0
-5.577797226288715e-05 -0.00027016261696700624 0.0 0.0007243858570915287 0.0 0.0
-0.00010441008739319388 -0.00011678539406684166 0.0 -0.0005281811776755214 0.0 0.0
-0.00032155178868628403 -3.875149171922969e-06 0.0 -0.0009569384137687179 0.0 0.0
-0.0008053169895081858 0.00033722112068699655 0.0 -0.0013341781972260086 0.0 0.0
-0.0013570181299369466 0.0005853524872351842 0.0 -0.0013141765936590109 0.0 0.0
-0.0021930180870862776 0.0009791909786705329 0.0 -0.0011253830250709156 0.0 0.0
-0.003977226703484405 0.002185584533711703 0.0 -0.0012686257334082588 0.0 0.0
-0.007472806771004386 0.005181701563597643 0.0 -0.0021461835944703534 0.0 0.0
-0.013168490193385018 0.010527963615928278 0.0 -0.0038677842086831966 0.0 0.0
-0.021222007817888768 0.018315144572987996 0.0 -0.006274553022216482 0.0 0.0
-0.031550020518144845 0.028414999836653812 0.0 -0.009179569122712587 0.0 0.0
-0.043914250913470225 0.0405529397901449 0.0 -0.012277891904109125 0.0 0.0
-0.058052875530891446 0.054452745521498896 0.0 -0.015338718188741045 0.0 0.0
-0.07374920280736602 0.06990182160944748 0.0 -0.018316431848149798 0.0 0.0
-0.09082900926309383 0.08674132497673992 0.0 -0.021263268435172105 0.0 0.0
-0.10909051861366925 0.10478835409003687 0.0 -0.024150242899914357 0.0 0.0
-0.12805778419817765 0.12363567308428064 0.0 -0.02690732644001492 0.0 0.0
-0.14643654660781527 0.14215553634749128 0.0 -0.029933423533031415 0.0 0.0
-0.16144027242065337 0.15776157948344674 0.0 -0.03472403545628423 0.0 0.0
-0.1685757559236672 0.16594949822310545 0.0 -0.04338556080363556 0.0 0.0
-0.1620080993502603 0.1607227651965688 0.0 -0.05713443985955006 0.0 0.0
-0.15450143704307762 0.13528068461729686 0.0 2.5439719775199876e-14 0.0 0.0
-0.16200809935023386 0.1607227651965414 0.0 0.057134439859605854 0.0 0.0
-0.1685757559236131 0.1659494982230531 0.0 0.04338556080369098 0.0 0.0
-0.16144027242057704 0.15776157948337535 0.0 0.03472403545631078 0.0 0.0
-0.14643654660772515 0.14215553634740205 0.0 0.02993342353303756 0.0 0.0
-0.12805778419807806 0.12363567308417917 0.0 0.026907326440008615 0.0 0.0
-0.1090905186135651 0.10478835408992208 0.0 0.024150242899899917 0.0 0.0
-0.09082900926299058 0.08674132497664126 0.0 0.021263268435157672 0.0 0.0
-0.07374920280726545 0.06990182160935239 0.0 0.018316431848132485 0.0 0.0
-0.05805287553079753 0.05445274552140863 0.0 0.015338718188720714 0.0 0.0
-0.04391425091338805 0.0405529397900681 0.0 0.012277891904081363 0.0 0.0
-0.03155002051807747 0.02841499983658472 0.0 0.009179569122690629 0.0 0.0
-0.02122200781783746 0.018315144572937002 0.0 0.0062745530221998995 0.0 0.0
-0.013168490193349439 0.01052796361589535 0.0 0.0038677842086710483 0.0 0.0
-0.007472806770983142 0.005181701563575131 0.0 0.0021461835944635264 0.0 0.0
-0.003977226703474222 0.0021855845337035115 0.0 0.0012686257334063684 0.0 0.0
-0.002193018087082605 0.0009791909786694176 0.0 0.0011253830250699025 0.0 0.0
-0.0013570181299354504 0.0005853524872347565 0.0 0.0013141765936586045 0.0 0.0
-0.0008053169895074886 0.00033722112068636825 0.0 0.0013341781972253525 0.0 0.0
-0.000321551788685926 -3.875149172649584e-06 0.0 0.0009569384137676472 0.0 0.0
-0.00010441008739277991 -0.00011678539406658214 0.0 0.0005281811776722837 0.0 0.0
-0.00013417392494769788 -2.2207947984758515e-05 0.0 -0.0003434776642814335 0.0 0.0
-0.00035664123308979984 5.34590509392175e-05 0.0 -0.0006482939312928261 0.0 0.0
-0.0008774837558733948 0.0003722252840886987 0.0 -0.0009369334473019299 0.0 0.0
-0.0015202892793001255 0.0006300127741833318 0.0 -0.0008962584694144891 0.0 0.0
-0.002586084023213855 0.0011689223026166758 0.0 -0.0006954193453438763 0.0 0.0
-0.004836379832590166 0.0028510349440470967 0.0 -0.0008231325954824172 0.0 0.0
-0.008995977857570728 0.006562661645507044 0.0 -0.0015469125097207332 0.0 0.0
-0.015528597267334791 0.012743721981299657 0.0 -0.0028029237964541432 0.0 0.0
-0.02465432889993049 0.021584354757692888 0.0 -0.004584807172679628 0.0 0.0
-0.03634416525509938 0.03302485622287061 0.0 -0.00675190220344193 0.0 0.0
-0.05037916213706283 0.04681407401152872 0.0 -0.009080467870808141 0.0 0.0
-0.06648237127206369 0.06266247932064065 0.0 -0.011390503318015707 0.0 0.0
-0.08439599883826866 0.08031770465711872 0.0 -0.013663616909914952 0.0 0.0
-0.10386455479580314 0.09954165945423155 0.0 -0.01596222456894056 0.0 0.0
-0.12453774512677898 0.12001099274351557 0.0 -0.018188182379715066 0.0 0.0
-0.14581585883052012 0.14116753300610607 0.0 -0.020007975852649088 0.0 0.0
-0.1664849273049836 0.16188812624047977 0.0 -0.021310566807425924 0.0 0.0
-0.18393500776277152 0.17981518964812027 0.0 -0.02372250346804813 0.0 0.0
-0.1932917375217703 0.19046857659595712 0.0 -0.032274786206386546 0.0 0.0
-0.1877575033576488 0.18672836794073175 0.0 -0.05332479938983888 0.0 0.0
-0.18034167291658215 0.16032313073908006 0.0 1.7404480634475306e-14 0.0 0.0
-0.1877575033576172 0.18672836794070463 0.0 0.053324799389881404 0.0 0.0
-0.19329173752170783 0.19046857659588784 0.0 0.03227478620643584 0.0 0.0
-0.18393500776268418 0.17981518964803556 0.0 0.023722503468068843 0.0 0.0
-0.16648492730488082 0.1618881262403789 0.0 0.02131056680742481 0.0 0.0
-0.14581585883040749 0.1411675330059869 0.0 0.02000797585264582 0.0 0.0
-0.1245377451266615 0.1200109927433832 0.0 0.018188182379709487 0.0 0.0
-0.10386455479568626 0.09954165945412748 0.0 0.015962224568929206 0.0 0.0
-0.08439599883815455 0.08031770465700672 0.0 0.013663616909904738 0.0 0.0
-0.06648237127195791 0.06266247932053835 0.0 0.011390503318001306 0.0 0.0
-0.050379162136970565 0.04681407401143906 0.0 0.009080467870788218 0.0 0.0
-0.03634416525502382 0.03302485622279471 0.0 0.006751902203424871 0.0 0.0
-0.024654328899872714 0.02158435475763445 0.0 0.0045848071726689674 0.0 0.0
-0.015528597267293845 0.01274372198126145 0.0 0.002802923796444053 0.0 0.0
-0.008995977857545535 0.006562661645482974 0.0 0.0015469125097170428 0.0 0.0
-0.004836379832577684 0.0028510349440362703 0.0 0.0008231325954814531 0.0 0.0
-0.0025860840232091132 0.0011689223026145315 0.0 0.000695419345343873 0.0 0.0
-0.001520289279298691 0.0006300127741829042 0.0 0.0008962584694148785 0.0 0.0
-0.0008774837558727989 0.00037222528408802167 0.0 0.0009369334473020466 0.0 0.0
-0.00035664123308957595 5.3459050939335165e-05 0.0 0.0006482939312925079 0.0 0.0
-0.0001341739249479531 -2.2207947984603312e-05 0.0 0.00034347766428100425 0.0 0.0
-0.00013622212864275988 1.379438503693817e-05 0.0 -0.00019248136509606069 0.0 0.0
-0.00036643700148794887 9.220127711263887e-05 0.0 -0.00032491830508059934 0.0 0.0
-0.0009387765710017306 0.0003974714949341392 0.0 -0.00045458628335794826 0.0 0.0
-0.001706848754892648 0.0006916433725484567 0.0 -0.0004066579702729532 0.0 0.0
-0.0030484887962812755 0.001436835942501901 0.0 -0.0002310404512414728 0.0 0.0
-0.005780843958421833 0.0036450724300379506 0.0 -0.0002854944095812466 0.0 0.0
-0.0105715105966333 0.008019801349560226 0.0 -0.0006757170244517561 0.0 0.0
-0.01789243581302899 0.01497809103676831 0.0 -0.0013364422929957416 0.0 0.0
-0.028046395493015963 0.024825374268295123 0.0 -0.00227922840564113 0.0 0.0
-0.0410647313746979 0.037570708154870916 0.0 -0.003460323474231166 0.0 0.0
-0.056751373708083225 0.05299399717066468 0.0 -0.004756131918980244 0.0 0.0
-0.07481319917122564 0.0707874821573628 0.0 -0.006072630176374147 0.0 0.0
-0.09494271097827753 0.09064655858150197 0.0 -0.007416909294857243 0.0 0.0
-0.11678063080657416 0.11223824767882834 0.0 -0.008797192192384604 0.0 0.0
-0.1398111117717592 0.13508632770067025 0.0 -0.010114460816546175 0.0 0.0
-0.16322543534448036 0.15841648164504038 0.0 -0.011078475841126749 0.0 0.0
-0.18576613285036475 0.18097916789148402 0.0 -0.0112908581176683 0.0 0.0
-0.20536514994966382 0.2007408375318704 0.0 -0.011353209058455091 0.0 0.0
-0.21790583528564642 0.21414068654294502 0.0 -0.016376828970888786 0.0 0.0
-0.2151445688200434 0.2144056816352628 0.0 -0.04056099580756639 0.0 0.0
-0.20857966775825612 0.18908958856217906 0.0 1.4427695149699105e-14 0.0 0.0
-0.21514456882000838 0.21440568163522253 0.0 0.04056099580759432 0.0 0.0
-0.21790583528557467 0.21414068654288027 0.0 0.016376828970912055 0.0 0.0
-0.20536514994956462 0.20074083753177002 0.0 0.01135320905846722 0.0 0.0
-0.18576613285024854 0.1809791678913623 0.0 0.011290858117667568 0.0 0.0
-0.16322543534435405 0.1584164816449177 0.0 0.011078475841122464 0.0 0.0
-0.13981111177162933 0.13508632770053755 0.0 0.010114460816543934 0.0 0.0
-0.11678063080644425 0.11223824767870375 0.0 0.00879719219237578 0.0 0.0
-0.09494271097815071 0.0906465585813758 0.0 0.007416909294849984 0.0 0.0
-0.07481319917110824 0.07078748215724467 0.0 0.0060726301763654 0.0 0.0
-0.056751373707981306 0.052993997170556965 0.0 0.004756131918967446 0.0 0.0
-0.04106473137461457 0.03757070815479449 0.0 0.0034603234742210352 0.0 0.0
-0.02804639549295101 0.02482537426823291 0.0 0.0022792284056325747 0.0 0.0
-0.017892435812981708 0.014978091036723758 0.0 0.0013364422929887576 0.0 0.0
-0.010571510596604126 0.008019801349531855 0.0 0.0006757170244508623 0.0 0.0
-0.005780843958407472 0.003645072430025581 0.0 0.00028549440958046846 0.0 0.0
-0.00304848879627569 0.0014368359424994398 0.0 0.00023104045124186685 0.0 0.0
-0.0017068487548905303 0.000691643372547245 0.0 0.0004066579702758551 0.0 0.0
-0.000938776571000672 0.0003974714949341825 0.0 0.00045458628335873355 0.0 0.0
-0.00036643700148744174 9.220127711290938e-05 0.0 0.0003249183050808139 0.0 0.0
-0.0001362221286422845 1.3794385036767635e-05 0.0 0.00019248136509557453 0.0 0.0
-9.479713385670971e-05 1.7297716084569795e-05 0.0 -0.00011631426182881445 0.0 0.0
-0.00033233529113109884 0.00010517676662458899 0.0 -0.0001350906357569373 0.0 0.0
-0.0009853980559994956 0.0004067691699039497 0.0 -0.00014675843296394197 0.0 0.0
-0.0019368898789546903 0.0007295015245502978 0.0 -5.826689346770313e-05 0.0 0.0
-0.003589197244425037 0.0015952653194057599 0.0 0.00024224591683315538 0.0 0.0
-0.0067905182060502625 0.004068907174954459 0.0 0.0004969744719653611 0.0 0.0
-0.012173126238834205 0.008762101509285808 0.0 0.0006227251784938564 0.0 0.0
-0.02023210357879193 0.01609628340180182 0.0 0.0006547253138248883 0.0 0.0
-0.03135909074643496 0.026433180401757034 0.0 0.0005781704958434434 0.0 0.0
-0.04566581028311776 0.039821848259182495 0.0 0.00034249807589658513 0.0 0.0
-0.06298680073562975 0.05605760797139671 0.0 -1.1238822332735113e-05 0.0 0.0
-0.08300405646525745 0.07482377592015804 0.0 -0.00046004345347742774 0.0 0.0
-0.10533089568263276 0.09578305153200956 0.0 -0.001021453772615451 0.0 0.0
-0.12950793516134107 0.11855114362172332 0.0 -0.0016664077285175813 0.0 0.0
-0.15487651894900423 0.14258119907946729 0.0 -0.0023761007954440604 0.0 0.0
-0.18039753274717402 0.16698105432203708 0.0 -0.002989776029918576 0.0 0.0
-0.2045532639001017 0.19038796643814465 0.0 -0.003168129379341144 0.0 0.0
-0.22541415191515782 0.21088658319964204 0.0 -0.002865837457853109 0.0 0.0
-0.24063401775542292 0.2255737242513587 0.0 -0.005989732332071155 0.0 0.0
-0.2445714089109935 0.22871056819641078 0.0 -0.03152642984799639 0.0 0.0
-0.2426340691251048 0.20478774752514722 0.0 4.704570066849101e-15 0.0 0.0
-0.24457140891095647 0.22871056819635188 0.0 0.03152642984800796 0.0 0.0
-0.24063401775534163 0.22557372425129854 0.0 0.005989732332081488 0.0 0.0
-0.22541415191504324 0.21088658319954157 0.0 0.002865837457854268 0.0 0.0
-0.2045532638999712 0.19038796643801253 0.0 0.00316812937933875 0.0 0.0
-0.18039753274703438 0.16698105432191082 0.0 0.0029897760299132485 0.0 0.0
-0.15487651894886117 0.14258119907933584 0.0 0.0023761007954437204 0.0 0.0
-0.1295079351611979 0.11855114362158733 0.0 0.0016664077285107326 0.0 0.0
-0.10533089568249271 0.09578305153188081 0.0 0.0010214537726127779 0.0 0.0
-0.08300405646512846 0.07482377592003407 0.0 0.0004600434534742792 0.0 0.0
-0.06298680073551766 0.05605760797128151 0.0 1.1238822327563902e-05 0.0 0.0
-0.04566581028302704 0.039821848259106334 0.0 -0.0003424980758966476 0.0 0.0
-0.03135909074636457 0.02643318040169652 0.0 -0.0005781704958479151 0.0 0.0
-0.020232103578739554 0.016096283401751853 0.0 -0.0006547253138260538 0.0 0.0
-0.012173126238801237 0.00876210150925337 0.0 -0.0006227251784902926 0.0 0.0
-0.006790518206033202 0.004068907174941728 0.0 -0.0004969744719646712 0.0 0.0
-0.0035891972444174985 0.0015952653194048724 0.0 -0.00024224591683188231 0.0 0.0
-0.001936889878952189 0.0007295015245477711 0.0 5.826689347279327e-05 0.0 0.0
-0.0009853980559984571 0.0004067691699051495 0.0 0.0001467584329643331 0.0 0.0
-0.00033233529113039774 0.00010517676662376113 0.0 0.00013509063575814658 0.0 0.0
-9.47971338562238e-05 1.729771608428871e-05 0.0 0.00011631426182666942 0.0 0.0
SCALARS Statev float 8
LOOKUP_TABLE default
0.0 0.021153220088612167 0.017042949708021275 -0.020140548414414268 0.0030975987063930127 -0.0014120054645082518 0.0 0.0
0.0 0.007648773224207042 0.005710482174269976 -0.0037353129815508946 -0.0019751691927190774 -0.0076494645259179575 0.0 0.0
0.0 0.0002756231477724923 0.00033491289724149365 -0.00020132816288805894 -0.00013358473435343474 -0.0004704737197673944 0.0 0.0
0.0 0.0002523125593961944 0.00016494797559969042 -0.00011860941439876413 -4.633856120092688e-05 4.3758390329927434e-05 0.0 0.0
0.0 0.0014593179261471274 0.0011218641392893467 -0.0008320402876566531 -0.00028982385163269333 0.00022844675524858038 0.0 0.0
0.0 0.003939895225423888 0.0038016089836497608 -0.003094426494631469 -0.0007071824890182962 0.00045287901880193115 0.0 0.0
0.0 0.009555686528240657 0.008691935458582595 -0.007642849010663395 -0.0010490864479191933 0.0006147441400121792 0.0 0.0
0.0 0.01819152022880779 0.01630589076705997 -0.014983770099626566 -0.0013221206674333924 0.0006744262997028961 0.0 0.0
0.0 0.030389569621573607 0.026990787999601938 -0.025397771071192152 -0.0015930169284097862 0.0006241386173358209 0.0 0.0
0.0 0.04629160168873943 0.04083978769335135 -0.03893817407857565 -0.0019016136147756717 0.00041873940848529155 0.0 0.0
0.0 0.06570261420466167 0.057690244344705766 -0.0554260261851756 -0.002264218159530191 8.57790490432261e-05 0.0 0.0
0.0 0.08794234701597194 0.07723986552059008 -0.07455823229750878 -0.002681633223081204 -0.00035262208866688365 0.0 0.0
0.0 0.11295832261146091 0.09913169453670599 -0.09599127757941156 -0.0031404169572944113 -0.0008959354041422036 0.0 0.0
0.0 0.1402518683761514 0.1229836719813663 -0.11935960904380077 -0.003624062937565331 -0.0014963250304506868 0.0 0.0
0.0 0.16927003954312983 0.14830985201208696 -0.14419829861290606 -0.004111553399180762 -0.0021650432729320183 0.0 0.0
0.0 0.19922167094269005 0.17438327815363114 -0.16980475156282201 -0.0045785265908088926 -0.0028538536030431705 0.0 0.0
0.0 0.228864121295963 0.20015562091379194 -0.19515601716415723 -0.004999603749634948 -0.0034159687048720758 0.0 0.0
0.0 0.2566229556853277 0.22427354462222673 -0.21892301565494962 -0.005350528967277018 -0.0036483318993199843 0.0 0.0
0.0 0.28068367388175974 0.24518452137362182 -0.23955255269534828 -0.005631968678272944 -0.0034456798638499465 0.0 0.0
0.0 0.2985729560339059 0.2609509952439057 -0.25513774793420574 -0.005813247309700387 -0.004358828414234049 0.0 0.0
0.0 0.3064317670341707 0.2673536251609867 -0.2615552409723324 -0.005798384188653948 4.381911500317415e-15 0.0 0.0
0.0 0.2985729560338658 0.26095099524387033 -0.2551377479341711 -0.005813247309699347 0.004358828414243947 0.0 0.0
0.0 0.28068367388167226 0.24518452137354482 -0.23955255269527265 -0.005631968678271626 0.003445679863862884 0.0 0.0
0.0 0.25662295568520754 0.2242735446221223 -0.21892301565484615 -0.0053505289672760884 0.0036483318993272493 0.0 0.0
0.0 0.22886412129581588 0.20015562091366412 -0.19515601716403203 -0.00499960374963242 0.0034159687048705163 0.0 0.0
0.0 0.19922167094253732 0.1743832781534976 -0.16980475156268948 -0.004578526590807969 0.0028538536030347384 0.0 0.0
0.0 0.16927003954297287 0.14830985201195068 -0.14419829861277128 -0.004111553399179415 0.0021650432729327937 0.0 0.0
0.0 0.14025186837599962 0.12298367198123371 -0.11935960904367118 -0.0036240629375625453 0.001496325030450607 0.0 0.0
0.0 0.11295832261131505 0.09913169453657847 -0.09599127757928724 -0.0031404169572909887 0.000895935404137631 0.0 0.0
0.0 0.08794234701583824 0.07723986552047306 -0.07455823229739428 -0.002681633223078649 0.00035262208866303863 0.0 0.0
0.0 0.06570261420454718 0.05769024434460554 -0.055426026185078206 -0.002264218159527319 -8.577904905102216e-05 0.0 0.0
0.0 0.04629160168864062 0.04083978769326506 -0.03893817407849102 -0.0019016136147741215 -0.0004187394084887565 0.0 0.0
0.0 0.030389569621501238 0.026990787999538357 -0.025397771071130143 -0.0015930169284081837 -0.000624138617335086 0.0 0.0
0.0 0.01819152022875681 0.01630589076701452 -0.014983770099582659 -0.0013221206674318298 -0.0006744262997030388 0.0 0.0
0.0 0.009555686528212067 0.008691935458556305 -0.007642849010638656 -0.0010490864479176533 -0.0006147441400121503 0.0 0.0
0.0 0.0039398952254068 0.003801608983633359 -0.003094426494616952 -0.000707182489016417 -0.00045287901880062485 0.0 0.0
0.0 0.0014593179261401306 0.001121864139283807 -0.0008320402876524407 -0.0002898238516313628 -0.00022844675524746652 0.0 0.0
0.0 0.00025231255939390954 0.0001649479755983004 -0.0001186094143977798 -4.633856120051986e-05 -4.375839032957558e-05 0.0 0.0
0.0 0.0002756231477715231 0.00033491289724072815 -0.00020132816288759287 -0.00013358473435313422 0.0004704737197659853 0.0 0.0
0.0 0.0076487732241960395 0.005710482174264515 -0.003735312981546653 -0.0019751691927178626 0.007649464525907811 0.0 0.0
0.0 0.021153220088590486 0.017042949708007137 -0.02014054841439461 0.0030975987063874564 0.0014120054644622157 0.0 0.0
0.0 0.017450778645345447 0.013207119186060216 -0.016856560706960014 0.003649441520899792 -0.0009117456622369795 0.0 0.0
0.0 0.0049223413854430275 0.003548181686068601 -0.0023151086542283765 -0.0012330730318402226 -0.006224011805075539 0.0 0.0
0.0 -0.00010289234915650323 -8.136140575146317e-05 7.998562642838514e-05 1.3757793230780324e-06 -0.00014757914727115575 0.0 0.0
0.0 8.40252572479618e-05 7.489572835044194e-05 -5.4029805820981144e-05 -2.086592252946072e-05 2.1595759057826755e-05 0.0 0.0
0.0 0.0009020510061920099 0.0007770356966718555 -0.0005812477749604261 -0.0001957879217114288 8.532635003869228e-05 0.0 0.0
0.0 0.0034123670692531834 0.003029269707441848 -0.002492966223108915 -0.0005363034843329356 3.763444703987555e-05 0.0 0.0
0.0 0.008233529937136079 0.007457758901595575 -0.006651251291928325 -0.0008065076096672487 -0.0003550177348223963 0.0 0.0
0.0 0.01625754427118865 0.014447182441482853 -0.013485470752293744 -0.0009617116891891167 -0.001012301431472763 0.0 0.0
0.0 0.027641245690054626 0.024312835826713723 -0.023242953547702436 -0.0010698822790112723 -0.0019404175395613084 0.0 0.0
0.0 0.04239170447087777 0.03708428295368959 -0.035920775416640675 -0.0011635075370489353 -0.0031075045453934076 0.0 0.0
0.0 0.06032182205191552 0.052571222455284436 -0.05131813622910253 -0.0012530862261819489 -0.004409500548277965 0.0 0.0
0.0 0.08119965608908349 0.07048921337630991 -0.06914518613319486 -0.0013440272431149696 -0.005750863728430313 0.0 0.0
0.0 0.10409492486589855 0.09054613546892513 -0.0891098276949239 -0.001436307774001239 -0.007116129302804773 0.0 0.0
0.0 0.12936856110991396 0.11241142141524604 -0.11088836101970576 -0.0015230603955402248 -0.008496558252942944 0.0 0.0
0.0 0.15622255244722075 0.13565280373989308 -0.13405846479122413 -0.0015943389486688267 -0.009837768354430778 0.0 0.0
0.0 0.18394791121729495 0.1596281582858762 -0.15798631150368647 -0.001641846782189854 -0.011000567992851738 0.0 0.0
0.0 0.21149351227223054 0.1834079470213486 -0.18174683707776837 -0.0016611099435802096 -0.011692516911701721 0.0 0.0
0.0 0.23742636559663693 0.2057631091485131 -0.20410948483863867 -0.0016536243098744599 -0.011567007673202854 0.0 0.0
0.0 0.2598726853395037 0.22511504146126118 -0.2235107117690314 -0.0016043296922295344 -0.01056167022116019 0.0 0.0
0.0 0.27625291218094283 0.23914684739653605 -0.2377356448952852 -0.0014112025012507038 -0.009866581908120231 0.0 0.0
0.0 0.2835371866350833 0.24463425153411839 -0.24351388977322158 -0.0011203617608968402 1.0215786550027417e-14 0.0 0.0
0.0 0.27625291218090525 0.2391468473965023 -0.23773564489525228 -0.0014112025012498833 0.009866581908147081 0.0 0.0
0.0 0.2598726853394203 0.22511504146118944 -0.22351071176895856 -0.0016043296922306854 0.010561670221188361 0.0 0.0
0.0 0.23742636559653335 0.2057631091484239 -0.20410948483854943 -0.001653624309874416 0.011567007673220255 0.0 0.0
0.0 0.2114935122720987 0.1834079470212354 -0.18174683707765488 -0.0016611099435806607 0.01169251691170134 0.0 0.0
0.0 0.1839479112171511 0.15962815828575241 -0.15798631150356177 -0.0016418467821902852 0.011000567992842188 0.0 0.0
0.0 0.15622255244707697 0.13565280373976824 -0.13405846479109937 -0.0015943389486689035 0.009837768354429167 0.0 0.0
0.0 0.12936856110977335 0.11241142141512428 -0.11088836101958459 -0.001523060395539652 0.00849655825293844 0.0 0.0
0.0 0.10409492486576283 0.09054613546880767 -0.08910982769480741 -0.0014363077740002876 0.007116129302796393 0.0 0.0
0.0 0.08119965608895861 0.07048921337620155 -0.06914518613308673 -0.0013440272431148386 0.005750863728421674 0.0 0.0
0.0 0.06032182205180743 0.052571222455191045 -0.0513181362290096 -0.001253086226181443 0.004409500548265529 0.0 0.0
0.0 0.04239170447078898 0.03708428295361215 -0.03592077541656352 -0.0011635075370485914 0.003107504545384147 0.0 0.0
0.0 0.02764124568998903 0.024312835826655943 -0.023242953547645287 -0.0010698822790106493 0.0019404175395569437 0.0 0.0
0.0 0.01625754427114349 0.014447182441442916 -0.013485470752254449 -0.0009617116891884917 0.0010123014314680294 0.0 0.0
0.0 0.008233529937107006 0.007457758901569466 -0.006651251291903287 -0.0008065076096661659 0.0003550177348194579 0.0 0.0
0.0 0.003412367069236645 0.0030292697074273275 -0.002492966223095892 -0.0005363034843314304 -3.763444704107073e-05 0.0 0.0
0.0 0.0009020510061862921 0.0007770356966672491 -0.0005812477749569404 -0.00019578792171030967 -8.532635003801465e-05 0.0 0.0
0.0 8.402525724743586e-05 7.489572835052709e-05 -5.402980582107359e-05 -2.0865922529453332e-05 -2.1595759057628885e-05 0.0 0.0
0.0 -0.00010289234915697429 -8.13614057512375e-05 7.998562642817415e-05 1.3757793230631038e-06 0.00014757914727074487 0.0 0.0
0.0 0.004922341385431035 0.003548181686061985 -0.0023151086542234716 -0.0012330730318385135 0.006224011805063455 0.0 0.0
0.0 0.01745077864532075 0.013207119186041423 -0.016856560706936807 0.0036494415208953765 0.0009117456622017824 0.0 0.0
0.0 0.01324751245272407 0.009815955997540874 -0.012856930319222274 0.0030409743216814095 -0.0036850631827009287 0.0 0.0
0.0 0.0033903420929343917 0.0021791760148422053 -0.0012535461123600862 -0.0009256299024821223 -0.005548769458212308 0.0 0.0
0.0 -8.876461435187496e-07 4.5680015595656515e-07 -1.2292736868196813e-07 -3.338727872745912e-07 -1.5827609048132786e-07 0.0 0.0
0.0 7.820978647054918e-06 6.521329928191537e-06 -3.7678785101046087e-06 -2.753451418087058e-06 9.555932734699728e-06 0.0 0.0
0.0 0.00047122441047825844 0.00042880440375558807 -0.00031240814990203807 -0.00011639625385354977 7.131443874408979e-06 0.0 0.0
0.0 0.002511827094533866 0.002186466608021291 -0.0017501456188976669 -0.00043632098912362206 -0.00019058547929589782 0.0 0.0
0.0 0.006546818900048022 0.005998501120750482 -0.005255305510888491 -0.0007431956098619927 -0.0009491851643833641 0.0 0.0
0.0 0.013738570502910986 0.012202956073762716 -0.011289772296907705 -0.0009131837768550042 -0.002204223007473602 0.0 0.0
0.0 0.023944845728830495 0.02104170641390763 -0.020023720305842783 -0.0010179861080648195 -0.003956478291837312 0.0 0.0
0.0 0.03725659336560542 0.03248462214498033 -0.03138084913418916 -0.0011037730107911756 -0.006103400887367656 0.0 0.0
0.0 0.053343957632184205 0.04631799698069755 -0.04513040193988361 -0.001187595040813913 -0.008448187503955864 0.0 0.0
0.0 0.07178140013475591 0.062278577391261164 -0.0610042348240959 -0.001274342567165315 -0.010811627998206721 0.0 0.0
0.0 0.09262906215160985 0.08011712024297672 -0.07875537072990053 -0.0013617495130761226 -0.01314698164929266 0.0 0.0
0.0 0.11489155212768613 0.09958032077883205 -0.09813649011546509 -0.0014438306633669646 -0.015487584767020869 0.0 0.0
0.0 0.13889173555480605 0.12030925496585004 -0.1187959283580465 -0.0015133266078037715 -0.017761969719239407 0.0 0.0
0.0 0.1637322031131205 0.14177481616149604 -0.14021211095286243 -0.0015627052086335095 -0.019715322882171562 0.0 0.0
0.0 0.18852536489347976 0.16320060415689688 -0.16161386577283388 -0.001586738384063284 -0.020893834350193197 0.0 0.0
0.0 0.21196916906812324 0.1834721946132161 -0.18189614443796315 -0.0015760501752530554 -0.020805872301456134 0.0 0.0
0.0 0.23225308973067563 0.20097917259340867 -0.19947819828489124 -0.0015009743085172855 -0.01928872491567632 0.0 0.0
0.0 0.2469111543615262 0.2135786622951618 -0.21218979401368282 -0.0013888682814784733 -0.01655301458965529 0.0 0.0
0.0 0.25376375959746555 0.21865729866699013 -0.21759745585885865 -0.0010598428081316 1.9043794319273388e-14 0.0 0.0
0.0 0.2469111543614923 0.21357866229513053 -0.21218979401365215 -0.0013888682814783332 0.01655301458970209 0.0 0.0
0.0 0.23225308973060393 0.20097917259334636 -0.19947819828482855 -0.001500974308517968 0.019288724915721936 0.0 0.0
0.0 0.21196916906802948 0.18347219461313455 -0.18189614443788182 -0.0015760501752525532 0.020805872301485714 0.0 0.0
0.0 0.18852536489337035 0.1632006041568027 -0.16161386577274034 -0.001586738384062484 0.020893834350194256 0.0 0.0
0.0 0.16373220311299092 0.14177481616138418 -0.14021211095275016 -0.0015627052086339779 0.019715322882162274 0.0 0.0
0.0 0.1388917355546819 0.12030925496574213 -0.1187959283579394 -0.001513326607802668 0.017761969719234362 0.0 0.0
0.0 0.11489155212756093 0.09958032077872372 -0.09813649011535724 -0.0014438306633664912 0.015487584767013177 0.0 0.0
0.0 0.09262906215148789 0.0801171202428715 -0.07875537072979552 -0.0013617495130758925 0.013146981649281492 0.0 0.0
0.0 0.07178140013464418 0.06227857739116514 -0.06100423482399964 -0.0012743425671654443 0.010811627998190756 0.0 0.0
0.0 0.053343957632088566 0.04631799698061487 -0.04513040193980096 -0.0011875950408139473 0.008448187503938245 0.0 0.0
0.0 0.03725659336552977 0.032484622144914016 -0.0313808491341235 -0.0011037730107905023 0.006103400887353174 0.0 0.0
0.0 0.023944845728773128 0.021041706413857428 -0.020023720305793344 -0.0010179861080640885 0.003956478291828158 0.0 0.0
0.0 0.013738570502870556 0.012202956073727473 -0.011289772296873116 -0.0009131837768543248 0.0022042230074656574 0.0 0.0
0.0 0.006546818900022596 0.005998501120727768 -0.005255305510866717 -0.0007431956098610529 0.0009491851643775534 0.0 0.0
0.0 0.002511827094520887 0.0021864666080100787 -0.0017501456188880455 -0.0004363209891220337 0.00019058547929396542 0.0 0.0
0.0 0.00047122441047499824 0.00042880440375323806 -0.0003124081499003251 -0.00011639625385291295 -7.131443874339393e-06 0.0 0.0
0.0 7.820978647126234e-06 6.521329928429921e-06 -3.767878510297892e-06 -2.7534514181320085e-06 -9.555932734564941e-06 0.0 0.0
0.0 -8.876461434060908e-07 4.5680015589353436e-07 -1.229273686371881e-07 -3.3387278725634627e-07 1.582760904528894e-07 0.0 0.0
0.0 0.0033903420929248538 0.002179176014836674 -0.0012535461123563368 -0.0009256299024803287 0.00554876945819794 0.0 0.0
0.0 0.013247512452698637 0.009815955997522066 -0.012856930319198871 0.00304097432167678 0.00368506318267782 0.0 0.0
0.0 0.010202830019046026 0.007376704009886278 -0.009852644183000504 0.0024759401731141925 -0.003953923856875591 0.0 0.0
0.0 0.002522220016759793 0.0015250885368471641 -0.0008573749437443181 -0.0006677135931028387 -0.004301905391741315 0.0 0.0
0.0 0.0 0.0 0.0 0.0 0.0 0.0 0.0
0.0 -8.496961060105138e-06 -7.571961932180541e-06 6.0357395758056805e-06 1.5362223563748544e-06 6.354490202692627e-06 0.0 0.0
0.0 0.000202998910201895 0.00017855754345317933 -0.00012551063658438903 -5.304690686878962e-05 -6.162143426810055e-06 0.0 0.0
0.0 0.001625132019431367 0.0014674136423666422 -0.0011409928701400264 -0.0003264207722266132 -0.00031255456910692683 0.0 0.0
0.0 0.005195007160172909 0.004594640525360174 -0.00393528112560978 -0.0006593593997503921 -0.0012469102030577075 0.0 0.0
0.0 0.011277255911793635 0.009981110119516533 -0.009126086632133315 -0.0008550234873832122 -0.0029884482998796926 0.0 0.0
0.0 0.020320932802844888 0.017749812216292023 -0.01678876521372556 -0.0009610470025664576 -0.005364077159414045 0.0 0.0
0.0 0.03211124387382658 0.027830396862351673 -0.026789984269022793 -0.0010404125933288673 -0.008246131220643894 0.0 0.0
0.0 0.04626627987524155 0.03999022863773608 -0.03887248613840598 -0.0011177424993300254 -0.011365000033286573 0.0 0.0
0.0 0.06262440616488883 0.05398117073030274 -0.052781744286028956 -0.0011994264442737718 -0.014499665932952849 0.0 0.0
0.0 0.08063918342021259 0.06959915522154302 -0.06831667830835433 -0.001282476913188664 -0.01759155546738112 0.0 0.0
0.0 0.10065623764555572 0.08663838963173555 -0.08527892303311602 -0.001359466598619493 -0.020655022112929952 0.0 0.0
0.0 0.12165997047186311 0.10483594478670626 -0.10340932145784806 -0.0014266233288581674 -0.02361400710166323 0.0 0.0
0.0 0.14342928632889435 0.12378514301203561 -0.12230609032698983 -0.0014790526850457684 -0.02619374464399517 0.0 0.0
0.0 0.16557042203162944 0.14285269190523725 -0.14134623537196697 -0.0015064565332702732 -0.027878579330146317 0.0 0.0
0.0 0.18660436234392438 0.16104713624947864 -0.15955357135437143 -0.0014935648951071034 -0.028065431251724213 0.0 0.0
0.0 0.20488871880901557 0.17689186885998132 -0.1754569863955429 -0.001434882464438379 -0.026150692352027348 0.0 0.0
0.0 0.21830359540051159 0.18855696548916975 -0.18719334141776237 -0.001363624071407778 -0.021165532920751396 0.0 0.0
0.0 0.2251765774637582 0.19356476125978986 -0.1926585565913798 -0.0009062046684101425 2.7114595291255483e-14 0.0 0.0
0.0 0.21830359540048072 0.18855696548914067 -0.18719334141773258 -0.0013636240714081222 0.021165532920812878 0.0 0.0
0.0 0.20488871880895776 0.17689186885992875 -0.1754569863954911 -0.0014348824644375838 0.02615069235208978 0.0 0.0
0.0 0.18660436234383654 0.16104713624940253 -0.15955357135429424 -0.0014935648951082759 0.02806543125175995 0.0 0.0
0.0 0.1655704220315341 0.14285269190515473 -0.14134623537188493 -0.00150645653326981 0.0278785793301515 0.0 0.0
0.0 0.14342928632878885 0.12378514301194468 -0.12230609032689925 -0.0014790526850452345 0.0261937446439857 0.0 0.0
0.0 0.12165997047175278 0.10483594478661047 -0.10340932145775249 -0.0014266233288580754 0.023614007101652828 0.0 0.0
0.0 0.10065623764544801 0.086638389631642 -0.08527892303302304 -0.0013594665986190468 0.02065502211292003 0.0 0.0
0.0 0.08063918342010251 0.06959915522144874 -0.06831667830826009 -0.0012824769131886187 0.017591555467365072 0.0 0.0
0.0 0.06262440616479453 0.053981170730221156 -0.05278174428594792 -0.0011994264442733165 0.014499665932931836 0.0 0.0
0.0 0.04626627987515945 0.039990228637665444 -0.03887248613833592 -0.0011177424993294685 0.011365000033264476 0.0 0.0
0.0 0.03211124387375891 0.027830396862293168 -0.026789984268964902 -0.0010404125933282501 0.008246131220624047 0.0 0.0
0.0 0.0203209328027939 0.017749812216248013 -0.016788765213682076 -0.0009610470025659289 0.005364077159400366 0.0 0.0
0.0 0.011277255911759442 0.009981110119486287 -0.009126086632103656 -0.000855023487382622 0.002988448299869359 0.0 0.0
0.0 0.0051950071601526825 0.004594640525343209 -0.003935281125594084 -0.0006593593997491237 0.0012469102030515694 0.0 0.0
0.0 0.001625132019421849 0.0014674136423588231 -0.0011409928701336049 -0.00032642077222521743 0.00031255456910463174 0.0 0.0
0.0 0.00020299891020027225 0.00017855754345230882 -0.00012551063658382375 -5.3046906868484834e-05 6.162143426991874e-06 0.0 0.0
0.0 -8.496961060359886e-06 -7.571961932152087e-06 6.03573957578223e-06 1.5362223563698857e-06 -6.354490202677951e-06 0.0 0.0
0.0 0.0 0.0 0.0 0.0 0.0 0.0 0.0
0.0 0.0025222200167511247 0.0015250885368420888 -0.0008573749437408703 -0.0006677135931012221 0.004301905391728367 0.0 0.0
0.0 0.01020283001902412 0.0073767040098693 -0.009852644182979212 0.0024759401731098947 0.003953923856858993 0.0 0.0
0.0 0.0076315728932006026 0.005484192328701412 -0.007454511426982261 0.00197031909828086 -0.0033917641044550473 0.0 0.0
0.0 0.002023727670314524 0.0010388638233254002 -0.0005742460090019766 -0.0004646178143234237 -0.0031881746403805726 0.0 0.0
0.0 0.0 0.0 0.0 0.0 0.0 0.0 0.0
0.0 -1.0358203528012299e-06 -9.88853213405254e-07 7.916685950227958e-07 1.9718461838246176e-07 1.3842643642661788e-06 0.0 0.0
0.0 2.477970052261504e-05 3.78837836738741e-05 -2.316632509025472e-05 -1.4717458583619437e-05 1.1648127369745655e-05 0.0 0.0
0.0 0.0010029883460339396 0.0008727827544451224 -0.0006601868977815434 -0.00021259585666357902 -0.00031812519127626023 0.0 0.0
0.0 0.003892250723948971 0.0033084145480981645 -0.002758485319647873 -0.0005499292284502872 -0.0013351637884415845 0.0 0.0
0.0 0.008915362693346534 0.007815502119937083 -0.007031355183357466 -0.000784146936579623 -0.003325377878089511 0.0 0.0
0.0 0.01674509818833745 0.014479987540440633 -0.013582367332492636 -0.0008976202079480132 -0.006154476785672639 0.0 0.0
0.0 0.026963538834185077 0.02316890684006471 -0.022197073098502607 -0.0009718337415620757 -0.009533655433641902 0.0 0.0
0.0 0.03926916977424059 0.03363585043583047 -0.03259301557432225 -0.0010428348615082312 -0.013170162135234888 0.0 0.0
0.0 0.05337014113216725 0.045645670744689004 -0.04452688119733805 -0.0011187895473509545 -0.01682132359166947 0.0 0.0
0.0 0.06911993128253184 0.05902944050366947 -0.057832857714279484 -0.0011965827893899324 -0.02042838114115624 0.0 0.0
0.0 0.08595788115679999 0.07364543171068157 -0.0723754250321885 -0.0012700066784931267 -0.023995974923356863 0.0 0.0
0.0 0.10428437234643172 0.0892957287600855 -0.08796141082936754 -0.001334317930717918 -0.027415508593527888 0.0 0.0
0.0 0.12342030476801598 0.10569077239631731 -0.10430424150515556 -0.0013865308911617594 -0.03042050439759446 0.0 0.0
0.0 0.14257516445967183 0.12235783171406217 -0.12093891847476682 -0.0014189132392953762 -0.032563077097516116 0.0 0.0
0.0 0.16118403137998671 0.13848751186998212 -0.1370697905850116 -0.0014177212849703549 -0.03314952415949891 0.0 0.0
0.0 0.17769003262681898 0.15284416027326275 -0.15146614438214603 -0.0013780158911165037 -0.031024927502974965 0.0 0.0
0.0 0.19026367241603612 0.16387632717168843 -0.1625511885535676 -0.0013251386181209503 -0.02458518545977978 0.0 0.0
0.0 0.19741884615905636 0.16899124391047335 -0.1682795627196378 -0.0007116811908353923 3.104547868781893e-14 0.0 0.0
0.0 0.19026367241600833 0.16387632717166153 -0.16255118855353942 -0.0013251386181220726 0.024585185459850886 0.0 0.0
0.0 0.17769003262676555 0.1528441602732132 -0.1514661443820962 -0.0013780158911168051 0.03102492750304605 0.0 0.0
0.0 0.16118403137991402 0.13848751186991773 -0.13706979058494762 -0.0014177212849700374 0.033149524159538236 0.0 0.0
0.0 0.1425751644595879 0.12235783171398991 -0.12093891847469514 -0.0014189132392947498 0.03256307709752337 0.0 0.0
0.0 0.12342030476792713 0.10569077239623992 -0.10430424150507916 -0.0013865308911607508 0.03042050439758362 0.0 0.0
0.0 0.1042843723463357 0.08929572876000255 -0.08796141082928503 -0.001334317930717624 0.02741550859351413 0.0 0.0
0.0 0.08595788115670945 0.07364543171060299 -0.07237542503211059 -0.0012700066784923699 0.023995974923345494 0.0 0.0
0.0 0.06911993128243787 0.05902944050358882 -0.05783285771419906 -0.0011965827893896626 0.020428381141136064 0.0 0.0
0.0 0.05337014113208623 0.04564567074461946 -0.0445268811972691 -0.0011187895473503057 0.01682132359164506 0.0 0.0
0.0 0.03926916977416942 0.033635850435769936 -0.03259301557426256 -0.0010428348615073944 0.013170162135207797 0.0 0.0
0.0 0.026963538834122638 0.02316890684001169 -0.022197073098449798 -0.000971833741561886 0.009533655433616856 0.0 0.0
0.0 0.016745098188295136 0.014479987540404363 -0.01358236733245677 -0.0008976202079475836 0.006154476785656845 0.0 0.0
0.0 0.00891536269331606 0.007815502119910729 -0.007031355183332154 -0.0007841469365785858 0.0033253778780772993 0.0 0.0
0.0 0.0038922507239320886 0.0033084145480843942 -0.002758485319635537 -0.0005499292284488538 0.0013351637884356578 0.0 0.0
0.0 0.0010029883460270044 0.000872782754439808 -0.0006601868977772601 -0.00021259585666254873 0.0003181251912738344 0.0 0.0
0.0 2.477970052194609e-05 3.788378367367664e-05 -2.3166325090154244e-05 -1.471745858352247e-05 -1.164812736934537e-05 0.0 0.0
0.0 -1.035820352944983e-06 -9.888532134720336e-07 7.916685950749863e-07 1.9718461839703035e-07 -1.3842643643619172e-06 0.0 0.0
0.0 0.0 0.0 0.0 0.0 0.0 0.0 0.0
0.0 0.0020237276703069366 0.0010388638233216065 -0.0005742460089994489 -0.00046461781432215665 0.003188174640370395 0.0 0.0
0.0 0.0076315728931823 0.005484192328687075 -0.007454511426964104 0.0019703190982770214 0.003391764104443171 0.0 0.0
0.0 0.005664632075221849 0.003953676264277043 -0.005466558292681639 0.0015128820284045896 -0.0026686109614092006 0.0 0.0
0.0 0.0013135138683567295 0.0006775704297431748 -0.00036826820443778 -0.0003093022253053929 -0.002264203984164651 0.0 0.0
0.0 1.4483749750251462e-07 -3.087412547042466e-09 2.644247110450392e-09 4.4316543659177474e-10 2.8266529167811133e-08 0.0 0.0
0.0 -3.514618757914745e-07 9.537874357802963e-08 -7.013498836764819e-08 -2.524375521038132e-08 -1.3986287655380829e-07 0.0 0.0
0.0 -2.588958221087872e-05 -1.6906865858494794e-05 1.5135722491830096e-05 1.771143366664696e-06 3.520578670044583e-05 0.0 0.0
0.0 0.00048577272756527553 0.0004420827039653733 -0.0003255298188508184 -0.0001165528851145556 -0.00025287641523752375 0.0 0.0
0.0 0.002500211795549739 0.0021991421911387084 -0.0017798014504249587 -0.0004193407407137491 -0.0012775567611443763 0.0 0.0
0.0 0.006958666637677974 0.005752123073119463 -0.005063899380995411 -0.0006882236921240429 -0.0032729333650223405 0.0 0.0
0.0 0.013119558179871774 0.011274197121294134 -0.010451418628060538 -0.0008227784932336088 -0.006306514803486925 0.0 0.0
0.0 0.02190543408474609 0.018546408197775935 -0.017650218779430998 -0.0008961894183449463 -0.009960244052670203 0.0 0.0
0.0 0.03228397461039656 0.027304595747025328 -0.026343416200793508 -0.0009611795462318066 -0.013862281926969906 0.0 0.0
0.0 0.044114729721074844 0.03732322998860854 -0.036291886375862094 -0.0010313436127463846 -0.01777815681116654 0.0 0.0
0.0 0.05724175160883867 0.048467064518931034 -0.0473630980496588 -0.0011039664692722875 -0.021648125122471818 0.0 0.0
0.0 0.07163460215958077 0.060645641276887076 -0.059473392166442374 -0.0011722491104446404 -0.025477021003438356 0.0 0.0
0.0 0.08691591773841068 0.07374094545444153 -0.07250757797265013 -0.0012333674817914648 -0.029150830347881348 0.0 0.0
0.0 0.10288443026425625 0.0875513301520745 -0.08626611886661809 -0.0012852112854563602 -0.032399965062422764 0.0 0.0
0.0 0.11965865746035034 0.10174673715874753 -0.10042308058737966 -0.001323656571367796 -0.034856069299839636 0.0 0.0
0.0 0.1357754635096664 0.11578207624676419 -0.11444152767779758 -0.0013405485689666759 -0.0358582886271471 0.0 0.0
0.0 0.15043335519259377 0.12874253247245462 -0.1274204594058011 -0.0013220730666534447 -0.033955340152627786 0.0 0.0
0.0 0.16244608642681918 0.1393308441630359 -0.1380518520087758 -0.0012789921542600928 -0.02700110359257925 0.0 0.0
0.0 0.17013103135087757 0.14468511798798822 -0.14420119923273378 -0.00048391875525424875 3.208891485861898e-14 0.0 0.0
0.0 0.1624460864267986 0.13933084416301356 -0.13805185200875297 -0.0012789921542606293 0.02700110359265432 0.0 0.0
0.0 0.1504333551925481 0.12874253247241133 -0.12742045940575622 -0.0013220730666550903 0.03395534015269939 0.0 0.0
0.0 0.1357754635096038 0.1157820762467078 -0.1144415276777409 -0.0013405485689667916 0.035858288627189656 0.0 0.0
0.0 0.11965865746028388 0.10174673715868975 -0.10042308058732352 -0.0013236565713661706 0.03485606929984734 0.0 0.0
0.0 0.10288443026417653 0.08755133015200632 -0.08626611886654906 -0.0012852112854574115 0.03239996506241014 0.0 0.0
0.0 0.086915917738334 0.07374094545437483 -0.07250757797258431 -0.001233367481790502 0.029150830347868254 0.0 0.0
0.0 0.0716346021595055 0.060645641276821684 -0.059473392166377544 -0.001172249110444133 0.025477021003424773 0.0 0.0
0.0 0.057241751608758475 0.048467064518862873 -0.04736309804959093 -0.0011039664692719655 0.021648125122450682 0.0 0.0
0.0 0.04411472972100767 0.03732322998855174 -0.03629188637580582 -0.0010313436127459238 0.01777815681114177 0.0 0.0
0.0 0.03228397461033546 0.027304595746974695 -0.026343416200743066 -0.0009611795462316383 0.01386228192694076 0.0 0.0
0.0 0.021905434084694017 0.018546408197732147 -0.017650218779387647 -0.0008961894183444929 0.00996024405264326 0.0 0.0
0.0 0.013119558179834834 0.011274197121262524 -0.010451418628029533 -0.0008227784932329951 0.006306514803468809 0.0 0.0
0.0 0.006958666637650595 0.0057521230730973585 -0.005063899380974198 -0.0006882236921231619 0.003272933365009298 0.0 0.0
0.0 0.0025002117955358364 0.0021991421911273976 -0.0017798014504152506 -0.00041934074071214557 0.0012775567611375334 0.0 0.0
0.0 0.00048577272756185395 0.0004420827039629811 -0.00032552981884905244 -0.00011655288511392862 0.0002528764152362268 0.0 0.0
0.0 -2.5889582211378015e-05 -1.690686585812096e-05 1.51357224915274e-05 1.7711433665935237e-06 -3.520578669987214e-05 0.0 0.0
0.0 -3.5146187569043447e-07 9.537874353563868e-08 -7.013498833374078e-08 -2.524375520189469e-08 1.3986287647640933e-07 0.0 0.0
0.0 1.4483749738291524e-07 -3.0874125444692183e-09 2.6442471082460284e-09 4.431654362230215e-10 -2.8266529144286692e-08 0.0 0.0
0.0 0.0013135138683504418 0.000677570429740193 -0.0003682682044358208 -0.00030930222530437055 0.0022642039841560997 0.0 0.0
0.0 0.005664632075207033 0.003953676264265403 -0.005466558292666502 0.0015128820284010965 0.002668610961400924 0.0 0.0
0.0 0.003892852526020064 0.0027231365411907573 -0.003825298557176819 0.001102162015986056 -0.002007951945519543 0.0 0.0
0.0 0.0008617400383140716 0.00039877472716465885 -0.0002050550793396571 -0.00019371964782500132 -0.0014939913452219197 0.0 0.0
0.0 1.1853683892268223e-07 1.5421076153843974e-09 -7.818401241691979e-10 -7.602674912153491e-10 2.4929733331571593e-08 0.0 0.0
0.0 7.686363777095028e-08 -3.0277332367352095e-08 2.1677274876632634e-08 8.600057490716623e-09 1.6041521375876677e-07 0.0 0.0
0.0 -2.5888923826104022e-05 -1.6671433145297218e-05 1.3466836806145123e-05 3.204596339152155e-06 3.460133182288937e-05 0.0 0.0
0.0 0.00018228024613335152 0.00015652731396353264 -0.00011140921732578422 -4.511809663774848e-05 -0.000132126467945407 0.0 0.0
0.0 0.0015407166177119945 0.0012730687566460553 -0.0010001332738754243 -0.00027293548277063063 -0.00105654820508419 0.0 0.0
0.0 0.004643517179449325 0.003891188513643833 -0.0033320178112310676 -0.0005591707024127625 -0.0029545510728340814 0.0 0.0
0.0 0.010173420445461021 0.008182052296722059 -0.007454748309857858 -0.0007273039868642 -0.005852219855685469 0.0 0.0
0.0 0.01679070022752398 0.014015465381970408 -0.0132071108041433 -0.0008083545778271105 -0.009508072598391294 0.0 0.0
0.0 0.025373170546725683 0.02104864207845361 -0.020178428498042206 -0.0008702135804114087 -0.013428445326361683 0.0 0.0
0.0 0.03496214974626312 0.029067020152215392 -0.02813259828960293 -0.0009344218626124957 -0.01736180466859504 0.0 0.0
0.0 0.045534592984944104 0.037965026867958204 -0.03696402728252441 -0.0010009995854337293 -0.021239600267934755 0.0 0.0
0.0 0.057079004768804495 0.047703141142243735 -0.046638381113213494 -0.0010647600290303206 -0.025080497362119692 0.0 0.0
0.0 0.0694612568163781 0.05822816232353985 -0.05710651055892913 -0.0011216517646106447 -0.02878548162319217 0.0 0.0
0.0 0.08284581175622735 0.06941817974341996 -0.06824815743008839 -0.001170022313331654 -0.032094324812746204 0.0 0.0
0.0 0.09609067470742755 0.08108130818431553 -0.07986555945808779 -0.0012157487262277954 -0.03467442453329165 0.0 0.0
0.0 0.11000625015482374 0.09293169219024623 -0.09167619873457528 -0.0012554934556708041 -0.036050952865740456 0.0 0.0
0.0 0.12335429689314349 0.10446567859367434 -0.10320295282204063 -0.001262725771633911 -0.034821154172865736 0.0 0.0
0.0 0.13478017126859623 0.11470460764513615 -0.11347635386441648 -0.001228253780719659 -0.028395867956115883 0.0 0.0
0.0 0.14329533021069998 0.1204112974676417 -0.12018819357683402 -0.00022310389080778495 3.0883282042815097e-14 0.0 0.0
0.0 0.1347801712685821 0.11470460764511699 -0.11347635386439882 -0.0012282537807182402 0.028395867956189882 0.0 0.0
0.0 0.12335429689311296 0.104465678593643 -0.10320295282200881 -0.0012627257716342655 0.03482115417293779 0.0 0.0
0.0 0.1100062501547711 0.0929316921901984 -0.0916761987345262 -0.0012554934556721841 0.03605095286578222 0.0 0.0
0.0 0.09609067470737083 0.08108130818426634 -0.07986555945804034 -0.0012157487262259743 0.03467442453329742 0.0 0.0
0.0 0.0828458117561679 0.0694181797433692 -0.06824815743003736 -0.0011700223133318823 0.032094324812734484 0.0 0.0
0.0 0.06946125681631385 0.05822816232348401 -0.05710651055887378 -0.0011216517646102026 0.028785481623176942 0.0 0.0
0.0 0.05707900476874524 0.047703141142192526 -0.04663838111316295 -0.001064760029029557 0.025080497362105263 0.0 0.0
0.0 0.045534592984877345 0.03796502686790223 -0.03696402728246851 -0.0010009995854337263 0.021239600267913227 0.0 0.0
0.0 0.03496214974621134 0.029067020152172354 -0.028132598289560412 -0.0009344218626119668 0.017361804668572397 0.0 0.0
0.0 0.025373170546674626 0.021048642078412384 -0.0201784284980011 -0.0008702135804112729 0.013428445326331861 0.0 0.0
0.0 0.016790700227482178 0.014015465381936144 -0.013207110804109481 -0.0008083545778266546 0.009508072598365195 0.0 0.0
0.0 0.010173420445429014 0.008182052296697015 -0.007454748309833302 -0.0007273039868637178 0.005852219855667712 0.0 0.0
0.0 0.004643517179431649 0.0038911885136296964 -0.0033320178112178594 -0.0005591707024118286 0.0029545510728237606 0.0 0.0
0.0 0.0015407166177013863 0.0012730687566382493 -0.0010001332738689094 -0.0002729354827693404 0.001056548205077394 0.0 0.0
0.0 0.00018228024613107496 0.00015652731396227268 -0.0001114092173249127 -4.5118096637359936e-05 0.00013212646794446986 0.0 0.0
0.0 -2.5888923825944326e-05 -1.6671433144789838e-05 1.3466836805756821e-05 3.2045963390330133e-06 -3.460133182180828e-05 0.0 0.0
0.0 7.686363748073363e-08 -3.027733240340308e-08 2.1677274904553304e-08 8.600057498851143e-09 -1.6041521384346144e-07 0.0 0.0
0.0 1.1853683869198745e-07 1.5421076161875886e-09 -7.818401251826872e-10 -7.602674910048665e-10 -2.492973328350805e-08 0.0 0.0
0.0 0.0008617400383090222 0.000398774727162488 -0.00020505507933821275 -0.0001937196478242754 0.0014939913452153186 0.0 0.0
0.0 0.0038928525260090124 0.002723136541182102 -0.0038252985571652163 0.0011021620159831142 0.002007951945513958 0.0 0.0
0.0 0.002942229297802363 0.0017144074436540617 -0.002445289391918413 0.0007308819482643492 -0.0014058239437284353 0.0 0.0
0.0 0.00041330034873283565 0.0002009032319460648 -9.149388008058329e-05 -0.0001094093518654816 -0.0008851349635515536 0.0 0.0
0.0 1.545745940096442e-06 1.1432981604603059e-07 -1.1853040084522753e-07 4.200584799197346e-09 -2.3102520175597016e-06 0.0 0.0
0.0 -6.859501302521241e-07 -1.2556184056506762e-08 9.14510234101164e-09 3.4110817154948807e-09 -3.368557446004712e-07 0.0 0.0
0.0 -1.361464143509626e-05 -7.976716907891456e-06 6.41635610089613e-06 1.5603608069953226e-06 2.5396162073308613e-05 0.0 0.0
0.0 3.083219823601233e-05 2.379646416343108e-05 -1.4671361460212573e-05 -9.125102703218486e-06 -3.087035874096869e-05 0.0 0.0
0.0 0.0007721311398864055 0.0005837878836365922 -0.00044741811918602514 -0.00013636976445056647 -0.0007342785255126352 0.0 0.0
0.0 0.0028401958387753007 0.002266142824135014 -0.0018787686887203835 -0.0003873741354146309 -0.002374383209883647 0.0 0.0
0.0 0.0066915808130849005 0.0053243720542398955 -0.004730853740043092 -0.0005935183141968052 -0.004926111175445598 0.0 0.0
0.0 0.012304583404268757 0.009639285742119124 -0.008942458844293165 -0.0006968268978259538 -0.0082070292849845 0.0 0.0
0.0 0.018572912110449286 0.014926250153199322 -0.01416521892738545 -0.0007610312258138607 -0.011856762553194839 0.0 0.0
0.0 0.025840154137818025 0.020940255273849698 -0.02011864675947519 -0.0008216085143745305 -0.015544533550645449 0.0 0.0
0.0 0.033919442755146786 0.027591430152031998 -0.02670928762228066 -0.0008821425297513299 -0.01918051321875078 0.0 0.0
0.0 0.04268120013591244 0.034880052236661796 -0.03394043763753834 -0.0009396145991234136 -0.02277901903169956 0.0 0.0
0.0 0.05226823187681689 0.04281912891048449 -0.04182633219384019 -0.0009927967166443003 -0.0262870052061105 0.0 0.0
0.0 0.0623928480871947 0.051372159235018616 -0.05033336486310228 -0.0010387943719162897 -0.02947397408951248 0.0 0.0
0.0 0.07322672457313385 0.060433526216441144 -0.059349593313382916 -0.0010839329030582652 -0.031986015909506886 0.0 0.0
0.0 0.08422678899096092 0.06995571974666112 -0.06881017895523615 -0.0011455407914248194 -0.033537325542693605 0.0 0.0
0.0 0.09547250744097398 0.0799040935408721 -0.07871002485585632 -0.0011940686850157166 -0.03331113651583195 0.0 0.0
0.0 0.106664807786846 0.0897663109189725 -0.08858882989981251 -0.0011774810191599355 -0.02857625630441255 0.0 0.0
0.0 0.11643195757163846 0.09592200577283144 -0.09599672812269124 7.472234985975938e-05 2.7988028561409806e-14 0.0 0.0
0.0 0.10666480778684105 0.08976631091896059 -0.08858882989980077 -0.0011774810191597796 0.028576256304481427 0.0 0.0
0.0 0.09547250744095157 0.0799040935408457 -0.07871002485583081 -0.0011940686850148235 0.03331113651590278 0.0 0.0
0.0 0.08422678899092619 0.06995571974662831 -0.06881017895520297 -0.0011455407914252372 0.033537325542735176 0.0 0.0
0.0 0.07322672457308381 0.0604335262163987 -0.05934959331334216 -0.0010839329030565498 0.03198601590950623 0.0 0.0
0.0 0.06239284808714521 0.051372159234976913 -0.050333364863060864 -0.0010387943719160893 0.029473974089496383 0.0 0.0
0.0 0.052268231876766706 0.04281912891044171 -0.04182633219379803 -0.0009927967166436576 0.026287005206094873 0.0 0.0
0.0 0.04268120013586904 0.03488005223662437 -0.03394043763750182 -0.0009396145991225486 0.02277901903168806 0.0 0.0
0.0 0.03391944275510317 0.027591430151996395 -0.026709287622245264 -0.0008821425297511306 0.019180513218733288 0.0 0.0
0.0 0.025840154137776912 0.020940255273816093 -0.020118646759441965 -0.0008216085143741121 0.015544533550623015 0.0 0.0
0.0 0.01857291211040916 0.014926250153168182 -0.014165218927354898 -0.000761031225813261 0.011856762553166358 0.0 0.0
0.0 0.012304583404238298 0.009639285742095879 -0.008942458844269868 -0.0006968268978260135 0.008207029284961776 0.0 0.0
0.0 0.006691580813063631 0.0053243720542230834 -0.00473085374002731 -0.0005935183141957769 0.0049261111754322524 0.0 0.0
0.0 0.0028401958387622175 0.00226614282412496 -0.0018787686887114996 -0.0003873741354134608 0.0023743832098741275 0.0 0.0
0.0 0.0007721311398810033 0.0005837878836329113 -0.00044741811918308803 -0.00013636976444982268 0.0007342785255077814 0.0 0.0
0.0 3.0832198234518846e-05 2.379646416298178e-05 -1.4671361459892964e-05 -9.125102703088765e-06 3.087035874072417e-05 0.0 0.0
0.0 -1.3614641436272878e-05 -7.976716907779512e-06 6.4163561008137866e-06 1.5603608069657004e-06 -2.5396162072838334e-05 0.0 0.0
0.0 -6.859501302953964e-07 -1.2556183975604388e-08 9.14510228759606e-09 3.411081688007764e-09 3.368557456780029e-07 0.0 0.0
0.0 1.5457459398587666e-06 1.1432981604858063e-07 -1.1853040085572897e-07 4.200584807148744e-09 2.3102520178533154e-06 0.0 0.0
0.0 0.00041330034872949923 0.00020090323194474726 -9.149388007979035e-05 -0.0001094093518649571 0.0008851349635466371 0.0 0.0
0.0 0.0029422292977914445 0.0017144074436471397 -0.00244528939190892 0.0007308819482617804 0.0014058239437236269 0.0 0.0
0.0 0.0015999594441213937 0.000980554804972187 -0.0014199829366807245 0.0004394281317085375 -0.0009617067825831873 0.0 0.0
0.0 0.00017694252451538027 6.734706846193534e-05 -1.1277987433770267e-05 -5.606908102816456e-05 -0.00041611337198505546 0.0 0.0
0.0 3.905155016782611e-06 6.229897234193136e-08 -7.396668984671913e-08 1.1667717504788821e-08 -1.4582649045716533e-06 0.0 0.0
0.0 1.261294480641706e-06 -2.3550981911432316e-07 1.8773469851653252e-07 4.777512059779072e-08 7.985344718699907e-07 0.0 0.0
0.0 -8.637549171817698e-06 -3.7213439864091774e-06 3.0059009286012747e-06 7.154430578079047e-07 1.6631186408069353e-05 0.0 0.0
0.0 -1.0367147722670668e-05 -5.416863280269071e-06 5.522104477427015e-06 -1.0524119715791407e-07 1.2451760239041479e-06 0.0 0.0
0.0 0.0003086397362294285 0.0001642927789110234 -0.00012473743792278574 -3.955534098823811e-05 -0.0003865529471604613 0.0 0.0
0.0 0.0014816152056537613 0.000963401982756878 -0.0007788150668682633 -0.0001845869158886147 -0.0015777761593344292 0.0 0.0
0.0 0.003823665579561262 0.002773750247787424 -0.00238761536205211 -0.000386134885735313 -0.0035923070709471877 0.0 0.0
0.0 0.007495868242021497 0.005549883099430224 -0.005023026731293713 -0.0005268563681365142 -0.006195814480431828 0.0 0.0
0.0 0.011829379722522362 0.009040400802268506 -0.008430724267556956 -0.000609676534711544 -0.00920633390245817 0.0 0.0
0.0 0.016921527443276397 0.013027504793843103 -0.012356479812382571 -0.0006710249814605298 -0.012333891616368197 0.0 0.0
0.0 0.022460367394731607 0.017431417996200353 -0.016703721998345234 -0.0007276959978551069 -0.01548287636281898 0.0 0.0
0.0 0.028486490712023582 0.022269602401829958 -0.02149108491145064 -0.0007785174903793263 -0.018611722973642053 0.0 0.0
0.0 0.03512461722651754 0.027603299544636545 -0.026776291365686985 -0.0008270081789495589 -0.021683736251645925 0.0 0.0
0.0 0.04240459968352761 0.03348933483839032 -0.032615736151843294 -0.0008735986865469809 -0.024582350297623092 0.0 0.0
0.0 0.05021193461584397 0.03992776866040224 -0.039009491975609364 -0.0009182766847928841 -0.02697450386058471 0.0 0.0
0.0 0.05836308052753948 0.046968796341775934 -0.04598696445332915 -0.00098183188844687 -0.028475570418683666 0.0 0.0
0.0 0.0675819037196465 0.05498662631980814 -0.05390531847940801 -0.0010813078404001049 -0.028973518164980012 0.0 0.0
0.0 0.07833741224341294 0.06424096740680654 -0.06311581867361592 -0.0011251487331906654 -0.027011143662221872 0.0 0.0
0.0 0.08964905338790354 0.07092266498061187 -0.07133547449201764 0.0004128095114057029 2.3626066381066124e-14 0.0 0.0
0.0 0.07833741224341592 0.06424096740680005 -0.06311581867360914 -0.0011251487331908846 0.02701114366228427 0.0 0.0
0.0 0.06758190371962762 0.054986626319785445 -0.053905318479385074 -0.001081307840400344 0.02897351816504218 0.0 0.0
0.0 0.058363080527516195 0.046968796341753896 -0.04598696445330647 -0.0009818318884474238 0.02847557041871977 0.0 0.0
0.0 0.050211934615804636 0.039927768660371184 -0.039009491975578944 -0.000918276684792257 0.026974503860578636 0.0 0.0
0.0 0.04240459968349295 0.033489334838362764 -0.03261573615181533 -0.0008735986865474051 0.02458235029760608 0.0 0.0
0.0 0.035124617226484044 0.027603299544609175 -0.02677629136565974 -0.0008270081789494464 0.021683736251631273 0.0 0.0
0.0 0.028486490711994508 0.022269602401805796 -0.021491084911426636 -0.0007785174903791828 0.0186117229736322 0.0 0.0
0.0 0.02246036739470542 0.01743141799617944 -0.016703721998325177 -0.0007276959978542321 0.015482876362806756 0.0 0.0
0.0 0.016921527443244756 0.013027504793819793 -0.012356479812359225 -0.0006710249814605699 0.01233389161634615 0.0 0.0
0.0 0.011829379722494385 0.009040400802247625 -0.008430724267536584 -0.0006096765347110317 0.009206333902435316 0.0 0.0
0.0 0.007495868242004334 0.005549883099418045 -0.005023026731282041 -0.0005268563681360115 0.006195814480417064 0.0 0.0
0.0 0.0038236655795474365 0.0027737502477774606 -0.0023876153620427405 -0.00038613488573472005 0.0035923070709363097 0.0 0.0
0.0 0.0014816152056437814 0.0009634019827502784 -0.00077881506686255 -0.00018458691588772884 0.0015777761593247857 0.0 0.0
0.0 0.0003086397362250344 0.00016429277890935422 -0.0001247374379215328 -3.955534098782106e-05 0.0003865529471569491 0.0 0.0
0.0 -1.036714772303741e-05 -5.4168632800721515e-06 5.5221044772736536e-06 -1.0524119720155653e-07 -1.2451760229617661e-06 0.0 0.0
0.0 -8.637549172897682e-06 -3.7213439862533793e-06 3.0059009284854527e-06 7.154430577679353e-07 -1.6631186406919726e-05 0.0 0.0
0.0 1.2612944803883972e-06 -2.3550981915411508e-07 1.877346985485812e-07 4.77751206055346e-08 -7.985344719947481e-07 0.0 0.0
0.0 3.905155016130585e-06 6.229897238023212e-08 -7.396668988649809e-08 1.1667717506266705e-08 1.4582649058007108e-06 0.0 0.0
0.0 0.00017694252451255638 6.734706846125196e-05 -1.1277987433420993e-05 -5.606908102783036e-05 0.0004161133719821536 0.0 0.0
0.0 0.0015999594441138416 0.0009805548049677331 -0.001419982936674374 0.0004394281317066399 0.0009617067825799291 0.0 0.0
0.0 0.0008143712053925725 0.0004525374974476218 -0.0006628499506221194 0.0002103124531744984 -0.0005451646601806016 0.0 0.0
0.0 1.9245825612393633e-05 -2.438908273356343e-06 2.6858397051286932e-05 -2.441948877793073e-05 -0.0001023334468196531 0.0 0.0
0.0 4.732039236689962e-06 1.0520453149373732e-07 -2.1805081961805596e-07 1.1284628812431891e-07 -6.075427044254433e-06 0.0 0.0
0.0 3.7277898514154856e-06 -2.518133242039694e-07 2.2816101999636628e-07 2.3652304207598557e-08 -4.889602097953776e-06 0.0 0.0
0.0 -3.729557642251817e-06 -1.6423274196508658e-06 1.4139345258460361e-06 2.2839289380483676e-07 9.415582740662422e-06 0.0 0.0
0.0 4.0064895613297595e-06 -3.721422475957213e-06 3.4523236397994956e-06 2.6909883615769785e-07 -4.3782096440692235e-06 0.0 0.0
0.0 0.00012553247907238244 1.8828033556641776e-05 -1.4182879491233648e-05 -4.645154065408079e-06 -0.0001917288097166396 0.0 0.0
0.0 0.0005028019575819615 0.0001620797322142819 -0.00013693257819037216 -2.5147154023909995e-05 -0.0007591683481336618 0.0 0.0
0.0 0.0014735578726288929 0.0007073686500861479 -0.000625449958111023 -8.191869197512422e-05 -0.0019792929867288563 0.0 0.0
0.0 0.003268632799726321 0.0018962477361947228 -0.0017170179729947253 -0.0001792297631999988 -0.0037712313215591655 0.0 0.0
0.0 0.0058142077676225775 0.0035628229607594162 -0.0032855957360313536 -0.0002772272247280574 -0.00588299121174974 0.0 0.0
0.0 0.008502709252428003 0.005509459869854061 -0.005153728547309111 -0.0003557313225449553 -0.008248178260086248 0.0 0.0
0.0 0.011625095493405962 0.00766408641664945 -0.007245546766201177 -0.0004185396504482718 -0.010750470560185483 0.0 0.0
0.0 0.015093292085192132 0.010057737756520932 -0.009586009393810529 -0.0004717283627104024 -0.013331866546423675 0.0 0.0
0.0 0.018929138251301037 0.012774289203557991 -0.012250245245282653 -0.0005240439582753421 -0.0159716132209332 0.0 0.0
0.0 0.023277152493358315 0.015946650621735513 -0.015366102213663689 -0.0005805484080718281 -0.01861425790307266 0.0 0.0
0.0 0.028289576064245876 0.019731007852959104 -0.01908969236102688 -0.0006413154919322247 -0.021021722476875043 0.0 0.0
0.0 0.03398256103824681 0.024261316455050908 -0.023558897151952026 -0.0007024193030988662 -0.022621485282756988 0.0 0.0
0.0 0.04054995599832121 0.029941688568577603 -0.029130823351350147 -0.0008108652172274532 -0.02303970582262687 0.0 0.0
0.0 0.04948708231100827 0.03791520725509951 -0.036916505089466145 -0.0009987021656333369 -0.023099254132436065 0.0 0.0
0.0 0.0641449714780904 0.0450508669214836 -0.04585515440999708 0.0008042874885134995 1.823367845599222e-14 0.0 0.0
0.0 0.049487082311016735 0.0379152072550961 -0.03691650508946287 -0.0009987021656333024 0.023099254132488475 0.0 0.0
0.0 0.04054995599831446 0.02994168856856661 -0.029130823351338805 -0.0008108652172278017 0.023039705822675907 0.0 0.0
0.0 0.03398256103822998 0.024261316455037853 -0.023558897151938374 -0.000702419303099453 0.022621485282779345 0.0 0.0
0.0 0.02828957606422175 0.019731007852945053 -0.0190896923610131 -0.0006413154919319819 0.021021722476864443 0.0 0.0
0.0 0.023277152493338848 0.015946650621720872 -0.015366102213650262 -0.0005805484080706088 0.018614257903059483 0.0 0.0
0.0 0.01892913825128463 0.012774289203547165 -0.012250245245271284 -0.0005240439582758861 0.01597161322091965 0.0 0.0
0.0 0.01509329208517779 0.010057737756511032 -0.009586009393800865 -0.0004717283627101686 0.013331866546416979 0.0 0.0
0.0 0.011625095493389581 0.007664086416639864 -0.007245546766191721 -0.0004185396504481512 0.010750470560172143 0.0 0.0
0.0 0.00850270925241144 0.0055094598698444755 -0.0051537285472995995 -0.0003557313225448696 0.008248178260070002 0.0 0.0
0.0 0.005814207767606182 0.003562822960750134 -0.0032855957360219987 -0.0002772272247281318 0.005882991211732099 0.0 0.0
0.0 0.0032686327997161345 0.0018962477361885277 -0.001717017972988971 -0.00017922976319955535 0.0037712313215497854 0.0 0.0
0.0 0.0014735578726235094 0.0007073686500829684 -0.0006254499581083071 -8.191869197466122e-05 0.00197929298672263 0.0 0.0
0.0 0.0005028019575785463 0.00016207973221309948 -0.0001369325781892318 -2.5147154023867602e-05 0.0007591683481292317 0.0 0.0
0.0 0.0001255324790702811 1.8828033556382275e-05 -1.4182879491013346e-05 -4.645154065368958e-06 0.000191728809714775 0.0 0.0
0.0 4.006489561174423e-06 -3.7214224757108973e-06 3.4523236396086777e-06 2.690988361022294e-07 4.378209645516931e-06 0.0 0.0
0.0 -3.7295576433665167e-06 -1.6423274196164343e-06 1.4139345258217705e-06 2.283928937946571e-07 -9.41558274005525e-06 0.0 0.0
0.0 3.727789851274347e-06 -2.518133242189615e-07 2.2816102001395979e-07 2.3652304205002706e-08 4.889602098711722e-06 0.0 0.0
0.0 4.732039236403462e-06 1.0520453149267481e-07 -2.180508196255745e-07 1.1284628813289604e-07 6.075427044809403e-06 0.0 0.0
0.0 1.9245825610736603e-05 -2.4389082736966536e-06 2.6858397051453605e-05 -2.4419488777756985e-05 0.00010233344681792082 0.0 0.0
0.0 0.0008143712053874135 0.0004525374974449411 -0.0006628499506181961 0.00021031245317325482 0.0005451646601781403 0.0 0.0
0.0 0.00023930652793078592 0.0001380383530799861 -0.00020517943292685018 6.714107984686375e-05 -0.00021215098537423374 0.0 0.0
0.0 -2.6309163620325254e-05 -1.622734626885495e-05 2.4509854483299075e-05 -8.282508214444064e-06 2.067000970164857e-05 0.0 0.0
0.0 4.709334745577893e-06 1.9938853907027087e-07 -2.2996163586286071e-07 3.0573096792585765e-08 7.075819093343704e-07 0.0 0.0
0.0 5.623530574730581e-06 -5.632303200746056e-07 4.728054169423575e-07 9.042490313225239e-08 -7.975363781929638e-06 0.0 0.0
0.0 1.3852618867545049e-06 -8.255382397147874e-07 8.093575350182677e-07 1.6180704696518077e-08 -1.4414494290317656e-06 0.0 0.0
0.0 1.4053529926553674e-05 -1.948224876617895e-06 2.0163309979743155e-06 -6.810612135642575e-08 -1.653451865506309e-05 0.0 0.0
0.0 0.00011648436708599422 -2.53287661340639e-06 2.519319038202106e-06 1.3557575204284986e-08 -0.0001785806567335943 0.0 0.0
0.0 0.00025718133388565913 -1.694364272712692e-06 1.6824243300733295e-06 1.1939942639374867e-08 -0.0004474538185191849 0.0 0.0
0.0 0.0005388601817030491 -1.2551690463686398e-06 1.2324150021644805e-06 2.2754044204062698e-08 -0.000901434412038772 0.0 0.0
0.0 0.0009463948275979853 4.3055027480089886e-08 -3.856583676038327e-08 -4.489190719720172e-09 -0.0018874206643702293 0.0 0.0
0.0 0.0019250428421808633 -1.0615427500085739e-06 1.378682751797982e-06 -3.171400017893945e-07 -0.0035804196326505782 0.0 0.0
0.0 0.003169687329553672 -1.2524367844338733e-05 1.5418073673595064e-05 -2.893705829256656e-06 -0.005739065949556744 0.0 0.0
0.0 0.004736727005870866 -3.2228594313158396e-05 3.60176741922443e-05 -3.7890798790842504e-06 -0.008043327743104236 0.0 0.0
0.0 0.006495122672715296 -3.375277069741947e-05 3.2653138105165976e-05 1.0996325922556888e-06 -0.010461579743378495 0.0 0.0
0.0 0.008413745691733015 7.574232713722026e-05 -9.332954760877675e-05 1.7587220471557087e-05 -0.012998936685995919 0.0 0.0
0.0 0.010441955535705124 0.0004877448508228072 -0.000535951054492858 4.820620367004721e-05 -0.015634751509178427 0.0 0.0
0.0 0.01261046880636149 0.0014986527598455683 -0.0015963051159192912 9.765235607372551e-05 -0.01827475262929338 0.0 0.0
0.0 0.014839537439311852 0.003361047448906183 -0.0035767528792998706 0.0002157054303936947 -0.020671487890213464 0.0 0.0
0.0 0.017853994337187144 0.005771688731538065 -0.006164652291699907 0.00039296356016184846 -0.022426235436596487 0.0 0.0
0.0 0.02553985323163119 0.011092426800594824 -0.010798493325728005 -0.0002939334748668247 -0.02345206859873928 0.0 0.0
0.0 0.04587634935403158 0.019006793305860567 -0.02044669582056529 0.0014399025147047262 1.3524771580453177e-14 0.0 0.0
0.0 0.025539853231642613 0.011092426800595632 -0.010798493325727701 -0.0002939334748679139 0.02345206859877147 0.0 0.0
0.0 0.01785399433718141 0.005771688731535008 -0.006164652291695848 0.00039296356016083495 0.022426235436609945 0.0 0.0
0.0 0.014839537439296155 0.003361047448906153 -0.0035767528793030994 0.00021570543039694878 0.0206714878902123 0.0 0.0
0.0 0.012610468806349136 0.0014986527598478201 -0.0015963051159221743 9.765235607435343e-05 0.01827475262927687 0.0 0.0
0.0 0.010441955535688136 0.00048774485082209737 -0.0005359510544913888 4.8206203669288946e-05 0.0156347515091623 0.0 0.0
0.0 0.008413745691723803 7.574232714023521e-05 -9.332954761181523e-05 1.7587220471582295e-05 0.012998936685983231 0.0 0.0
0.0 0.006495122672705364 -3.3752770695242174e-05 3.265313810355648e-05 1.0996325916842059e-06 0.010461579743367139 0.0 0.0
0.0 0.004736727005857611 -3.222859430808162e-05 3.6017674186530934e-05 -3.7890798784482303e-06 0.008043327743086864 0.0 0.0
0.0 0.0031696873295410976 -1.2524367840976351e-05 1.54180736699065e-05 -2.8937058289314223e-06 0.005739065949540097 0.0 0.0
0.0 0.0019250428421720052 -1.0615427480602084e-06 1.3786827496354052e-06 -3.1714000157515617e-07 0.0035804196326383883 0.0 0.0
0.0 0.0009463948275957187 4.305502693900524e-08 -3.85658362548469e-08 -4.489190684104131e-09 0.0018874206643677456 0.0 0.0
0.0 0.0005388601817012928 -1.2551690465303756e-06 1.232415002354575e-06 2.2754044175646437e-08 0.0009014344120355179 0.0 0.0
0.0 0.0002571813338842065 -1.6943642727682413e-06 1.6824243301558025e-06 1.1939942612405762e-08 0.00044745381851661684 0.0 0.0
0.0 0.00011648436708465088 -2.532876613383309e-06 2.5193190381827164e-06 1.3557575200629192e-08 0.0001785806567329545 0.0 0.0
0.0 1.4053529926160444e-05 -1.9482248766074593e-06 2.0163309979596525e-06 -6.810612135220414e-08 1.653451865624407e-05 0.0 0.0
0.0 1.385261886018236e-06 -8.255382397435574e-07 8.093575350477649e-07 1.618070469579785e-08 1.441449429663917e-06 0.0 0.0
0.0 5.6235305739755e-06 -5.632303201347045e-07 4.728054169950252e-07 9.042490313967929e-08 7.975363782842524e-06 0.0 0.0
0.0 4.709334744731883e-06 1.9938853906042993e-07 -2.29961635859178e-07 3.057309679875681e-08 -7.075819087780515e-07 0.0 0.0
0.0 -2.6309163620436358e-05 -1.622734626861864e-05 2.4509854482951672e-05 -8.282508214333072e-06 -2.0670009700713672e-05 0.0 0.0
0.0 0.00023930652792775715 0.00013803835307875725 -0.00020517943292506135 6.714107984630437e-05 0.00021215098537256616 0.0 0.0
0.0 1.5388620414039064e-05 6.9991832376101576e-06 -1.1300307483505134e-05 4.301124245894936e-06 -1.159294240201446e-05 0.0 0.0
0.0 -3.2126597609168716e-06 -1.488372615261254e-06 2.140394370043055e-06 -6.520217547818017e-07 5.904467870320313e-06 0.0 0.0
0.0 1.5993315459461638e-06 2.2687307218403124e-07 -3.217983159938571e-07 9.492524380982599e-08 -2.8983101826376216e-06 0.0 0.0
0.0 7.891394406081904e-06 -7.246882235764834e-07 5.769465378651832e-07 1.4774168571129737e-07 -9.117416961933343e-06 0.0 0.0
0.0 5.967004387769054e-06 -1.0933882472691458e-06 1.032064070334485e-06 6.132417693466339e-08 -1.01218623931162e-05 0.0 0.0
0.0 2.1835793208445755e-05 -4.202359420407809e-06 3.879679921546117e-06 3.2267949886174385e-07 -4.2173114051875316e-05 0.0 0.0
0.0 0.0001636587400403014 -2.8560551532396154e-05 2.306838369116155e-05 5.492167841234516e-06 -0.0002203445411663467 0.0 0.0
0.0 0.0005241598306130783 -0.00017126232969981288 0.00014497648855051577 2.6285841149296886e-05 -0.0007825799180442207 0.0 0.0
0.0 0.0014801765425329586 -0.0007105582934645501 0.0006280754592248047 8.248283423974476e-05 -0.001990033633057002 0.0 0.0
0.0 0.003268303714815338 -0.0018963013586728887 0.0017169862104963588 0.00017931514817653055 -0.0037725392837867585 0.0 0.0
0.0 0.0058340824150926625 -0.0035701078165321504 0.003291848910003379 0.00027825890652876707 -0.005883467480627209 0.0 0.0
0.0 0.008555772587493638 -0.0055469258929721835 0.0051873716729379776 0.000359554220034202 -0.008257773946662331 0.0 0.0
0.0 0.011708128182607868 -0.007742124154322282 0.007320335624072628 0.00042178853024964463 -0.010753998380734823 0.0 0.0
0.0 0.015136747038119826 -0.010114819027684461 0.009651445215746709 0.0004633738119377649 -0.013311746327204872 0.0 0.0
0.0 0.018620104102708628 -0.012540500629990212 0.012058707252871875 0.00048179337711834214 -0.015945137845374716 0.0 0.0
0.0 0.021937934361630294 -0.014749088507180316 0.014277839056635048 0.0004712494505452464 -0.01869616883822386 0.0 0.0
0.0 0.02462940024203315 -0.016321162677268016 0.01589718179287717 0.0004239808843908548 -0.021583045617592906 0.0 0.0
0.0 0.026462531237564868 -0.01676338978860264 0.01643078155629596 0.000332608232306676 -0.024714528419992925 0.0 0.0
0.0 0.026456879137732512 -0.015501745723586834 0.015381957417248954 0.00011978830633789549 -0.0280356727430693 0.0 0.0
0.0 0.02162688583326622 -0.011330052452215217 0.01184031499339989 -0.0005102625411846668 -0.03020496157273062 0.0 0.0
0.0 0.044445047878336204 -0.006672532069140154 0.003774045445948247 0.002898486623191896 1.7188507561716193e-14 0.0 0.0
0.0 0.021626885833273914 -0.011330052452214731 0.01184031499339922 -0.0005102625411844907 0.030204961572756962 0.0 0.0
0.0 0.026456879137735444 -0.015501745723586481 0.015381957417249336 0.0001197883063371237 0.02803567274309296 0.0 0.0
0.0 0.026462531237544624 -0.016763389788586644 0.016430781556281415 0.0003326082323052359 0.02471452841999605 0.0 0.0
0.0 0.024629400242010036 -0.01632116267725197 0.015897181792860968 0.0004239808843910287 0.021583045617580884 0.0 0.0
0.0 0.02193793436160738 -0.014749088507162956 0.014277839056618748 0.00047124945054420776 0.01869616883820735 0.0 0.0
0.0 0.01862010410268534 -0.012540500629972575 0.012058707252854793 0.00048179337711777304 0.015945137845355783 0.0 0.0
0.0 0.015136747038097816 -0.010114819027667542 0.009651445215729821 0.0004633738119377217 0.013311746327190578 0.0 0.0
0.0 0.011708128182581932 -0.00774212415430286 0.007320335624053759 0.0004217885302491083 0.010753998380718981 0.0 0.0
0.0 0.008555772587470305 -0.005546925892955942 0.005187371672922915 0.0003595542200330226 0.008257773946642328 0.0 0.0
0.0 0.005834082415068649 -0.003570107816516744 0.0032918489099884045 0.00027825890652834174 0.005883467480605918 0.0 0.0
0.0 0.003268303714802121 -0.0018963013586637003 0.0017169862104881425 0.00017931514817555753 0.0037725392837765492 0.0 0.0
0.0 0.0014801765425243743 -0.0007105582934592962 0.0006280754592200748 8.248283423922231e-05 0.001990033633048111 0.0 0.0
0.0 0.0005241598306090455 -0.00017126232969827437 0.0001449764885492407 2.6285841149033493e-05 0.0007825799180393627 0.0 0.0
0.0 0.0001636587400383843 -2.8560551532204755e-05 2.3068383690999122e-05 5.492167841205696e-06 0.00022034454116534136 0.0 0.0
0.0 2.1835793207465585e-05 -4.2023594205218176e-06 3.8796799216290895e-06 3.2267949889271964e-07 4.2173114052410376e-05 0.0 0.0
0.0 5.967004387293719e-06 -1.0933882473621316e-06 1.032064070412788e-06 6.132417694933317e-08 1.0121862393976467e-05 0.0 0.0
0.0 7.891394405482709e-06 -7.246882236663827e-07 5.769465379401216e-07 1.4774168572625896e-07 9.117416962702287e-06 0.0 0.0
0.0 1.599331545416532e-06 2.2687307216986017e-07 -3.2179831598350913e-07 9.492524381364446e-08 2.8983101830382677e-06 0.0 0.0
0.0 -3.2126597613429643e-06 -1.4883726153631892e-06 2.1403943701515503e-06 -6.52021754788363e-07 -5.904467869912375e-06 0.0 0.0
0.0 1.5388620413758046e-05 6.999183238405162e-06 -1.1300307484674121e-05 4.301124246268971e-06 1.1592942403912227e-05 0.0 0.0
0.0 2.033928358635927e-06 -1.7280003304309378e-07 2.6404750501002875e-07 -9.12474719668575e-08 4.1451233885071874e-07 0.0 0.0
0.0 8.426447841717369e-08 9.471938308204506e-08 -6.065953357000168e-08 -3.405984951205802e-08 1.0531389365670995e-06 0.0 0.0
0.0 -1.141575628848022e-06 6.39653395696303e-07 -5.713447071828046e-07 -6.830868851350815e-08 2.9930646304726224e-06 0.0 0.0
0.0 4.797083577194201e-06 -9.007975418019649e-07 6.97600889453299e-07 2.0319665234865763e-07 -9.31907370476766e-06 0.0 0.0
0.0 1.0702317735136011e-05 6.008896238775631e-07 -3.97208213244971e-07 -2.036814106325321e-07 -3.1746092920673687e-06 0.0 0.0
0.0 5.920010866223958e-05 -1.4061731872180001e-05 1.1168730277544823e-05 2.893001594635082e-06 -5.997076718358879e-05 0.0 0.0
0.0 0.00033982350143158555 -0.00019325478103502473 0.00014966710544036843 4.358767559465657e-05 -0.00046631721769550035 0.0 0.0
0.0 0.0015072265132639359 -0.0009748631103481636 0.0007891578274346652 0.00018570528291349792 -0.0016094087631605474 0.0 0.0
0.0 0.003825729805262062 -0.0027739380639489296 0.0023875915475598474 0.00038634651638908067 -0.0035996763057527586 0.0 0.0
0.0 0.007495079388295272 -0.005549957060857781 0.005023022415761061 0.0005269346450967168 -0.0061949618836394695 0.0 0.0
0.0 0.011841949708508354 -0.009051056114866353 0.008441028491613172 0.0006100276232531819 -0.009209891534593674 0.0 0.0
0.0 0.01696053543425209 -0.013061989144070729 0.012390068872306865 0.0006719202717638758 -0.012330920062397542 0.0 0.0
0.0 0.022520775230584714 -0.017495707950784832 0.016768258938376905 0.0007274490124079109 -0.015427817763468157 0.0 0.0
0.0 0.02848770530514672 -0.022303458842118803 0.02153304684007971 0.0007704120020390782 -0.018474823147767962 0.0 0.0
0.0 0.034788641378586865 -0.027348312161032794 0.026551640429599725 0.0007966717314330319 -0.021574581058260246 0.0 0.0
0.0 0.04109099087076937 -0.03231511220134929 0.031513930952243176 0.0008011812491061209 -0.024929971030421147 0.0 0.0
0.0 0.04681094456261228 -0.03670500974176159 0.035917742409102074 0.0007872673326594934 -0.028753564912417682 0.0 0.0
0.0 0.051083646690354326 -0.03986783533452778 0.03910889381053814 0.000758941523989667 -0.033136610763771196 0.0 0.0
0.0 0.053110259232989857 -0.0406744951428737 0.04001982248595457 0.000654672656919077 -0.03726341709334328 0.0 0.0
0.0 0.049705607271218186 -0.03666122187173375 0.036246064175867274 0.0004151576958664738 -0.03840658261410916 0.0 0.0
0.0 0.0545392725587632 -0.03017973502077319 0.02650965462764633 0.0036700803931268445 2.368244489403537e-14 0.0 0.0
0.0 0.0497056072712278 -0.0366612218717297 0.03624606417586333 0.0004151576958663786 0.03840658261416182 0.0 0.0
0.0 0.053110259232982904 -0.040674495142860104 0.04001982248594019 0.0006546726569199083 0.03726341709339158 0.0 0.0
0.0 0.05108364669032828 -0.03986783533450399 0.03910889381051429 0.0007589415239896975 0.03313661076378954 0.0 0.0
0.0 0.04681094456256597 -0.03670500974172469 0.03591774240906411 0.0007872673326605498 0.028753564912405077 0.0 0.0
0.0 0.041090990870727345 -0.03231511220131554 0.03151393095220976 0.0008011812491057398 0.02492997103039967 0.0 0.0
0.0 0.03478864137854601 -0.02734831216099961 0.026551640429567175 0.000796671731432467 0.021574581058238007 0.0 0.0
0.0 0.028487705305107795 -0.022303458842086156 0.021533046840047046 0.0007704120020390593 0.01847482314774907 0.0 0.0
0.0 0.022520775230543244 -0.017495707950751588 0.01676825893834337 0.000727449012408208 0.015427817763448627 0.0 0.0
0.0 0.016960535434214833 -0.013061989144042222 0.012390068872278994 0.0006719202717632315 0.012330920062372214 0.0 0.0
0.0 0.011841949708470752 -0.009051056114837867 0.008441028491584863 0.0006100276232530006 0.009209891534564522 0.0 0.0
0.0 0.007495079388270941 -0.005549957060839549 0.005023022415743283 0.0005269346450962708 0.0061949618836213615 0.0 0.0
0.0 0.0038257298052458456 -0.002773938063936597 0.002387591547548765 0.0003863465163878336 0.0035996763057414075 0.0 0.0
0.0 0.0015072265132561663 -0.0009748631103429198 0.000789157827430467 0.00018570528291245132 0.0016094087631534693 0.0 0.0
0.0 0.00033982350142737895 -0.0001932547810333416 0.0001496671054390461 4.3587675594295854e-05 0.00046631721769200673 0.0 0.0
0.0 5.920010866062481e-05 -1.4061731871979813e-05 1.1168730277384002e-05 2.8930015945957235e-06 5.997076718298747e-05 0.0 0.0
0.0 1.0702317734785843e-05 6.008896234327692e-07 -3.972082128831605e-07 -2.0368141054960952e-07 3.1746092936557007e-06 0.0 0.0
0.0 4.797083576811702e-06 -9.007975418868161e-07 6.976008895254979e-07 2.0319665236132435e-07 9.31907370541943e-06 0.0 0.0
0.0 -1.1415756292128761e-06 6.396533956430437e-07 -5.713447071556886e-07 -6.830868848735041e-08 -2.9930646295754197e-06 0.0 0.0
0.0 8.42644781913492e-08 9.471938311775198e-08 -6.065953360700541e-08 -3.405984951074383e-08 -1.0531389368316575e-06 0.0 0.0
0.0 2.033928358438785e-06 -1.7280003320841214e-07 2.6404750525265075e-07 -9.124747204427951e-08 -4.1451233924539115e-07 0.0 0.0
0.0 0.0 0.0 0.0 0.0 0.0 0.0 0.0
0.0 2.1614723464118135e-07 -5.771187810060102e-09 8.269088289376274e-09 -2.497900479320618e-09 -5.1707186272163e-08 0.0 0.0
0.0 -1.323961986503648e-06 8.363305679347188e-07 -6.702056154353748e-07 -1.6612495249933646e-07 4.606009057917941e-06 0.0 0.0
0.0 2.5468552945346217e-06 1.0875448624441289e-06 -9.357905661284663e-07 -1.5175429631566317e-07 7.298545711363292e-08 0.0 0.0
0.0 1.2079427482251328e-05 -1.7919146109895856e-06 1.4420859923748097e-06 3.4982861861472746e-07 -1.3388071422099808e-05 0.0 0.0
0.0 0.00010521252880414322 -7.662348333090118e-05 5.832633775460138e-05 1.8297145576300053e-05 -0.0001518018182911629 0.0 0.0
0.0 0.0008656974649386861 -0.0006124199462437146 0.00047437025439872236 0.00013804969184499208 -0.000798545798888248 0.0 0.0
0.0 0.002858234699319257 -0.0022695362241172924 0.001882050334134274 0.00038748588998301683 -0.002396882717485491 0.0 0.0
0.0 0.006688062832939251 -0.005320746986358738 0.004727043656680348 0.0005937033296783815 -0.0049253125626456395 0.0 0.0
0.0 0.01230714068046444 -0.009641194457927497 0.008944410617279965 0.0006967838406475391 -0.00820599592074569 0.0 0.0
0.0 0.018582603618800646 -0.014937760855573134 0.01417700897484809 0.000760751880725036 -0.01186054074389819 0.0 0.0
0.0 0.025863594026186362 -0.020962244949991233 0.020140809749519213 0.0008214352004720098 -0.015522147140995715 0.0 0.0
0.0 0.033930235381105574 -0.027618091118476115 0.02673674088829707 0.0008813502301790687 -0.01905432475317325 0.0 0.0
0.0 0.04260641956156244 -0.034860735947760145 0.03392754041249832 0.0009331955352617795 -0.022492714506204044 0.0 0.0
0.0 0.051900039975555715 -0.042554567068986575 0.04158610330794235 0.0009684637610442776 -0.026046207446620718 0.0 0.0
0.0 0.06126787456516265 -0.05035825137022551 0.04937815866874319 0.00098009270148226 -0.03010680316603148 0.0 0.0
0.0 0.0704206483475578 -0.057644847399417706 0.056678437274277925 0.0009664101251397312 -0.03510667493049208 0.0 0.0
0.0 0.07776442681840373 -0.0633847270470351 0.062474248246056754 0.0009104788009783205 -0.040885758931801124 0.0 0.0
0.0 0.08141528834038964 -0.06579825650797094 0.06501033087191484 0.0007879256360560496 -0.045892149480670004 0.0 0.0
0.0 0.07710926748804528 -0.06144138531699056 0.0609805397181069 0.00046084559888370617 -0.04721118012609962 0.0 0.0
0.0 0.07527380241725683 -0.05305876505805038 0.04868377538385992 0.004374989674190497 2.667137344314341e-14 0.0 0.0
0.0 0.07710926748805405 -0.06144138531698549 0.06098053971810276 0.0004608455988827393 0.04721118012616404 0.0 0.0
0.0 0.08141528834037062 -0.06579825650794555 0.06501033087188894 0.0007879256360565706 0.04589214948072963 0.0 0.0
0.0 0.07776442681836694 -0.06338472704700011 0.062474248246022095 0.0009104788009780133 0.040885758931829455 0.0 0.0
0.0 0.0704206483475013 -0.057644847399369765 0.056678437274230116 0.0009664101251397337 0.03510667493048551 0.0 0.0
0.0 0.0612678745651012 -0.050358251370174564 0.04937815866869205 0.0009800927014824812 0.030106803166007785 0.0 0.0
0.0 0.05190003997550028 -0.04255456706894023 0.041586103307896805 0.0009684637610434252 0.026046207446598264 0.0 0.0
0.0 0.04260641956150475 -0.034860735947711566 0.03392754041245028 0.0009331955352612762 0.02249271450618031 0.0 0.0
0.0 0.03393023538104724 -0.02761809111842788 0.02673674088824843 0.0008813502301794398 0.019054324753150467 0.0 0.0
0.0 0.025863594026133186 -0.020962244949948562 0.02014080974947697 0.0008214352004715804 0.015522147140966511 0.0 0.0
0.0 0.018582603618750523 -0.014937760855533578 0.014177008974808319 0.0007607518807252778 0.011860540743865805 0.0 0.0
0.0 0.012307140680427231 -0.009641194457898109 0.008944410617250901 0.0006967838406472054 0.008205995920721205 0.0 0.0
0.0 0.006688062832916206 -0.005320746986340701 0.004727043656663287 0.0005937033296774097 0.00492531256263174 0.0 0.0
0.0 0.0028582346993063354 -0.0022695362241074374 0.0018820503341256422 0.000387485889981796 0.0023968827174761626 0.0 0.0
0.0 0.0008656974649312916 -0.0006124199462387939 0.0004743702543947716 0.00013804969184402205 0.0007985457988823763 0.0 0.0
0.0 0.00010521252880174239 -7.662348333005355e-05 5.832633775396269e-05 1.8297145576090842e-05 0.00015180181828991236 0.0 0.0
0.0 1.2079427481763516e-05 -1.791914611220566e-06 1.4420859925618608e-06 3.498286186587013e-07 1.3388071422665323e-05 0.0 0.0
0.0 2.5468552940651503e-06 1.0875448621897863e-06 -9.357905659256319e-07 -1.5175429626415004e-07 -7.298545598744671e-08 0.0 0.0
0.0 -1.3239619869114387e-06 8.363305679643965e-07 -6.702056154576162e-07 -1.661249525067867e-07 -4.606009058163202e-06 0.0 0.0
0.0 2.1614723391603753e-07 -5.771187822560696e-09 8.269088290111432e-09 -2.4979004675477698e-09 5.170718645829568e-08 0.0 0.0
0.0 0.0 0.0 0.0 0.0 0.0 0.0 0.0
0.0 0.0 0.0 0.0 0.0 0.0 0.0 0.0
0.0 -1.3075163678298636e-07 -2.968376883690807e-09 1.9471215008150875e-09 1.0212553828761417e-09 -2.5935044429845048e-08 0.0 0.0
0.0 -9.226585520070067e-07 5.953943028198955e-07 -4.774089461574707e-07 -1.1798535666242729e-07 2.4351177244555073e-06 0.0 0.0
0.0 -2.5748075715785264e-06 9.853338515382348e-07 -8.509229480038142e-07 -1.3441090353441169e-07 3.5163356430017396e-07 0.0 0.0
0.0 1.6774139954690963e-05 -3.992062304135587e-06 2.4792485513957587e-06 1.5128137527398418e-06 -8.874156526306824e-06 0.0 0.0
0.0 0.00030985780519823407 -0.00021711349951005442 0.00016326666080260612 5.3846838707448e-05 -0.0002400776218470825 0.0 0.0
0.0 0.0015651370378134248 -0.0012986416488250515 0.0010255890225797412 0.0002730526262453107 -0.0011275302675819846 0.0 0.0
0.0 0.004646055560795941 -0.0038852117761360837 0.0033258226721813605 0.0005593891039547208 -0.0029641276732992354 0.0 0.0
0.0 0.010168167276577529 -0.008177996183414561 0.007450360622395598 0.0007276355610189622 -0.005846654436128122 0.0 0.0
0.0 0.016795593643947185 -0.014020386920756113 0.013212288741380805 0.000808098179375316 -0.00950830173714488 0.0 0.0
0.0 0.025386301001943324 -0.021058351591304876 0.020189085884090192 0.0008692657072146832 -0.013429587736433612 0.0 0.0
0.0 0.034959488178632765 -0.029067377892974935 0.028134488942826642 0.0009328889501482675 -0.01731973026113942 0.0 0.0
0.0 0.04547699547771619 -0.03793358417224795 0.03693417053179735 0.0009994136404505986 -0.021055739144853036 0.0 0.0
0.0 0.056910854187623316 -0.047606163166127514 0.04654473748557161 0.0010614256805558915 -0.02467835441755843 0.0 0.0
0.0 0.06908709754415236 -0.05796640084150642 0.0568587625452931 0.001107638296213312 -0.028429091638812087 0.0 0.0
0.0 0.08198966457755794 -0.06864932662061599 0.06752468923777129 0.001124637382844666 -0.03285052256092771 0.0 0.0
0.0 0.09389317741487238 -0.07884186923550782 0.0777429229260673 0.001098946309440415 -0.03846530639259029 0.0 0.0
0.0 0.10425545002301279 -0.0870339886138587 0.08602135292687607 0.001012635686982616 -0.04498817244294386 0.0 0.0
0.0 0.10945057370871149 -0.09067037146876177 0.08984476196433866 0.0008256095044230051 -0.050664795629343944 0.0 0.0
0.0 0.10409328360590392 -0.08550901020958078 0.085047399522688 0.0004616106868927776 -0.05238814581795411 0.0 0.0
0.0 0.0981208180064245 -0.07543335864124584 0.07044404948620855 0.004989309155037138 2.837140244960068e-14 0.0 0.0
0.0 0.1040932836059045 -0.08550901020957069 0.08504739952267859 0.0004616106868921098 0.05238814581801929 0.0 0.0
0.0 0.1094505737086834 -0.09067037146872914 0.08984476196430606 0.0008256095044229612 0.050664795629407115 0.0 0.0
0.0 0.10425545002296767 -0.08703398861381567 0.08602135292683381 0.0010126356869816816 0.04498817244297976 0.0 0.0
0.0 0.09389317741481008 -0.07884186923545446 0.07774292292601347 0.0010989463094409715 0.03846530639258977 0.0 0.0
0.0 0.08198966457748683 -0.06864932662055558 0.06752468923771127 0.001124637382844269 0.03285052256090641 0.0 0.0
0.0 0.0690870975440842 -0.05796640084144784 0.05685876254523585 0.0011076382962119861 0.028429091638790403 0.0 0.0
0.0 0.05691085418755044 -0.04760616316606533 0.046544737485509705 0.0010614256805556136 0.024678354417534923 0.0 0.0
0.0 0.045476995477643015 -0.03793358417218627 0.03693417053173563 0.000999413640450622 0.021055739144828577 0.0 0.0
0.0 0.034959488178567984 -0.029067377892920663 0.028134488942773275 0.0009328889501473925 0.01731973026111091 0.0 0.0
0.0 0.025386301001882293 -0.02105835159125468 0.020189085884040257 0.000869265707214395 0.013429587736399433 0.0 0.0
0.0 0.016795593643899456 -0.014020386920716634 0.013212288741341525 0.0008080981793751138 0.009508301737117206 0.0 0.0
0.0 0.010168167276543969 -0.008177996183388029 0.007450360622370011 0.0007276355610180262 0.005846654436109952 0.0 0.0
0.0 0.0046460555607728445 -0.003885211776117748 0.0033258226721643563 0.0005593891039533922 0.002964127673285788 0.0 0.0
0.0 0.0015651370378025084 -0.0012986416488169642 0.0010255890225730642 0.0002730526262438994 0.0011275302675750737 0.0 0.0
0.0 0.0003098578051946008 -0.00021711349950798321 0.0001632666608010774 5.384683870690586e-05 0.000240077621844925 0.0 0.0
0.0 1.6774139954027485e-05 -3.992062304505913e-06 2.4792485516995492e-06 1.512813752806361e-06 8.874156527146001e-06 0.0 0.0
0.0 -2.5748075716193055e-06 9.8533385125852e-07 -8.509229477825694e-07 -1.344109034759326e-07 -3.516335633356015e-07 0.0 0.0
0.0 -9.226585522645609e-07 5.953943028519384e-07 -4.774089461851789e-07 -1.1798535666675987e-07 -2.4351177245808894e-06 0.0 0.0
0.0 -1.3075163665647826e-07 -2.9683768817357188e-09 1.947121500571764e-09 1.0212553811632798e-09 2.5935044404943458e-08 0.0 0.0
0.0 0.0 0.0 0.0 0.0 0.0 0.0 0.0
0.0 0.0 0.0 0.0 0.0 0.0 0.0 0.0
0.0 0.0 0.0 0.0 0.0 0.0 0.0 0.0
0.0 -6.038746611808582e-07 1.914531043317114e-07 -1.511495001682338e-07 -4.0303604163478915e-08 6.244416598430807e-07 0.0 0.0
0.0 -5.125667724432135e-06 3.932965360004872e-06 -3.207324988036523e-06 -7.256403719683222e-07 7.58645334558257e-06 0.0 0.0
0.0 2.4649557084383568e-05 -2.8332200931394962e-05 1.99348450779766e-05 8.397355853418258e-06 -2.9235470477761917e-05 0.0 0.0
0.0 0.0006170057839466121 -0.0004867989994883098 0.00036751269179509795 0.00011928630769321183 -0.00034138127440991886 0.0 0.0
0.0 0.00253895221978834 -0.0022053802102900985 0.0017885619368034288 0.00041681827348667033 -0.001319491220453559 0.0 0.0
0.0 0.006952591973691153 -0.005742540908212893 0.005053406122471394 0.0006891347857415026 -0.0032725594982476133 0.0 0.0
0.0 0.013117610088568404 -0.011272322594986124 0.010449374792140977 0.0008229478028451366 -0.006299963040840412 0.0 0.0
0.0 0.02191391451133264 -0.018553860044885517 0.01765817465419049 0.0008956853906950462 -0.009961723081315939 0.0 0.0
0.0 0.032290029896025814 -0.027309208036472223 0.02634966265180551 0.0009595453846666585 -0.01385830212145035 0.0 0.0
0.0 0.044079387161575605 -0.03729563757793367 0.03626729817385286 0.0010283394040808524 -0.017718106653777054 0.0 0.0
0.0 0.05710783687440171 -0.04836728607373835 0.047266145714728355 0.0011011403590098585 -0.021435717213281205 0.0 0.0
0.0 0.07136834808832784 -0.060456674132906466 0.05928455958921622 0.0011721145436903373 -0.025041400137440363 0.0 0.0
0.0 0.08653046318009515 -0.073464959984282 0.0722344692717447 0.001230490712537263 -0.028732076458236847 0.0 0.0
0.0 0.1022572173157556 -0.08700346996180028 0.08575106827245517 0.0012524016893450686 -0.03300862923269782 0.0 0.0
0.0 0.11796506919911018 -0.10003929959335267 0.09882877775708585 0.0012105218362668546 -0.03849580999010667 0.0 0.0
0.0 0.13059741811642478 -0.110557771467624 0.10947732413593396 0.0010804473316898206 -0.04513368000445562 0.0 0.0
0.0 0.13655048666868097 -0.1152475802678138 0.11440823724636529 0.000839343021448473 -0.0514315936383109 0.0 0.0
0.0 0.13068598676987714 -0.10934484011523626 0.10887973130207546 0.00046510881316081206 -0.05536749547172361 0.0 0.0
0.0 0.12257906263265733 -0.09786085335154332 0.09233648184424857 0.005524371507294733 2.9797345146853615e-14 0.0 0.0
0.0 0.1306859867698671 -0.10934484011521894 0.1088797313020573 0.00046510881316173076 0.055367495471789915 0.0 0.0
0.0 0.1365504866686364 -0.11524758026776899 0.11440823724631931 0.0008393430214497845 0.05143159363837355 0.0 0.0
0.0 0.13059741811636957 -0.11055777146757298 0.1094773241358836 0.0010804473316893212 0.04513368000449228 0.0 0.0
0.0 0.11796506919902755 -0.10003929959328169 0.09882877775701317 0.0012105218362684442 0.038495809990106857 0.0 0.0
0.0 0.10225721731566699 -0.08700346996172438 0.08575106827237919 0.0012524016893451096 0.03300862923268172 0.0 0.0
0.0 0.0865304631800112 -0.07346495998420974 0.07223446927167369 0.001230490712535982 0.028732076458217917 0.0 0.0
0.0 0.07136834808823801 -0.06045667413282907 0.05928455958913921 0.0011721145436899302 0.025041400137416507 0.0 0.0
0.0 0.057107836874314054 -0.048367286073663335 0.04726614571465348 0.0011011403590098186 0.02143571721325763 0.0 0.0
0.0 0.0440793871614972 -0.03729563757786743 0.036267298173787224 0.0010283394040801544 0.01771810665374826 0.0 0.0
0.0 0.03229002989595221 -0.027309208036410904 0.026349662651744227 0.0009595453846666676 0.013858302121416116 0.0 0.0
0.0 0.02191391451127642 -0.01855386004483834 0.01765817465414369 0.0008956853906946401 0.00996172308128903 0.0 0.0
0.0 0.013117610088529168 -0.011272322594951964 0.010449374792107747 0.0008229478028442199 0.006299963040821842 0.0 0.0
0.0 0.006952591973661241 -0.005742540908188737 0.005053406122448429 0.0006891347857403079 0.003272559498233696 0.0 0.0
0.0 0.0025389522197756063 -0.002205380210279754 0.0017885619367946988 0.0004168182734850548 0.0013194912204472597 0.0 0.0
0.0 0.0006170057839404012 -0.00048679899948410294 0.0003675126917918016 0.00011928630769230135 0.0003413812744067985 0.0 0.0
0.0 2.464955708339561e-05 -2.8332200931335832e-05 1.9934845077957542e-05 8.397355853378261e-06 2.9235470477941315e-05 0.0 0.0
0.0 -5.125667724739984e-06 3.932965359759334e-06 -3.207324987845487e-06 -7.25640371913845e-07 -7.586453344908484e-06 0.0 0.0
0.0 -6.038746610223321e-07 1.91453104369704e-07 -1.511495001984336e-07 -4.030360417126897e-08 -6.244416599651931e-07 0.0 0.0
0.0 0.0 0.0 0.0 0.0 0.0 0.0 0.0
0.0 0.0 0.0 0.0 0.0 0.0 0.0 0.0
0.0 0.0 0.0 0.0 0.0 0.0 0.0 0.0
0.0 0.0 0.0 0.0 0.0 0.0 0.0 0.0
0.0 -1.9259891853480113e-07 -1.2438204119640457e-08 9.900711751953166e-09 2.537492367688598e-09 -3.208399983975565e-08 0.0 0.0
0.0 -7.068857980695391e-06 4.122370403769742e-06 -3.4171749404905695e-06 -7.051954632792017e-07 7.109623107416704e-06 0.0 0.0
0.0 9.66350570959454e-05 -7.369302523185406e-05 5.164741680712958e-05 2.2045608424724498e-05 -3.7035436176760624e-05 0.0 0.0
0.0 0.0009764052638624263 -0.000913041097174741 0.0006983458428967503 0.00021469525427799115 -0.00041707389019381066 0.0 0.0
0.0 0.003916132933301766 -0.003301650288027002 0.0027542314191401854 0.0005474188688868164 -0.0013608476477595319 0.0 0.0
0.0 0.00890689500865078 -0.007807809848420498 0.007022961222905565 0.0007848486255149335 -0.003318344145754919 0.0 0.0
0.0 0.01674778358883007 -0.014482144509954342 0.013584448765875836 0.0008976957440784923 -0.006149095329063222 0.0 0.0
0.0 0.026973868256341706 -0.023177258150517167 0.022206202041146872 0.000971056109370302 -0.009536174785530442 0.0 0.0
0.0 0.03926477293451052 -0.03363143229039337 0.032590860645389394 0.0010405716450039835 -0.013160062677289325 0.0 0.0
0.0 0.053300016419954174 -0.04558754086349304 0.04447292718384634 0.0011146136796466575 -0.016748780116115976 0.0 0.0
0.0 0.06891689238240684 -0.05886503197874441 0.05767258983657757 0.0011924421421667846 -0.020223020017887956 0.0 0.0
0.0 0.08559865746294305 -0.0733614548630112 0.07209081930946991 0.0012706355535412662 -0.02361914081665079 0.0 0.0
0.0 0.10383788734081621 -0.08895114802048917 0.0876126699519911 0.0013384780684981674 -0.027009690103561516 0.0 0.0
0.0 0.12286439938635238 -0.10523143612908392 0.10386334976652312 0.001368086362560735 -0.030670240198862164 0.0 0.0
0.0 0.14116030652062983 -0.12101355691207696 0.11969886804011903 0.0013146888719578675 -0.035264019671126356 0.0 0.0
0.0 0.15634099190964326 -0.13381199015676978 0.13266881375552425 0.0011431764012455408 -0.041374459727189186 0.0 0.0
0.0 0.16378179934576914 -0.13967805779948736 0.1388255187431398 0.0008525390563474427 -0.04870192524560906 0.0 0.0
0.0 0.15749981919560846 -0.13338557003981627 0.13292710226249432 0.0004584677773219015 -0.05668637326212255 0.0 0.0
0.0 0.1477684408463925 -0.12079085142157736 0.11480374361144538 0.005987107810132036 2.8846716682018325e-14 0.0 0.0
0.0 0.15749981919559108 -0.13338557003979376 0.1329271022624721 0.0004584677773216047 0.056686373262186535 0.0 0.0
0.0 0.16378179934572 -0.13967805779943956 0.13882551874309187 0.0008525390563474889 0.04870192524566803 0.0 0.0
0.0 0.1563409919095701 -0.13381199015670464 0.13266881375545947 0.0011431764012452598 0.041374459727221584 0.0 0.0
0.0 0.14116030652053316 -0.12101355691199339 0.11969886804003503 0.0013146888719582578 0.035264019671126336 0.0 0.0
0.0 0.12286439938625036 -0.10523143612899513 0.10386334976643541 0.001368086362559718 0.030670240198849282 0.0 0.0
0.0 0.10383788734071353 -0.08895114802040102 0.08761266995190299 0.0013384780684980294 0.027009690103546365 0.0 0.0
0.0 0.08559865746283621 -0.07336145486291884 0.07209081930937851 0.0012706355535402245 0.023619140816629774 0.0 0.0
0.0 0.06891689238230592 -0.05886503197865735 0.05767258983649046 0.0011924421421668336 0.02022302001786666 0.0 0.0
0.0 0.05330001641986015 -0.04558754086341276 0.0444729271837666 0.0011146136796461917 0.016748780116087908 0.0 0.0
0.0 0.03926477293442628 -0.03363143229032176 0.03259086064531792 0.0010405716450038788 0.01316006267725791 0.0 0.0
0.0 0.026973868256276175 -0.023177258150461122 0.022206202041091017 0.0009710561093700812 0.009536174785505754 0.0 0.0
0.0 0.016747783588780762 -0.0144821445099119 0.013584448765833923 0.0008976957440779851 0.006149095329045004 0.0 0.0
0.0 0.008906895008618814 -0.0078078098483930335 0.007022961222879085 0.0007848486255139452 0.0033183441457426003 0.0 0.0
0.0 0.003916132933282851 -0.003301650288011844 0.002754231419126437 0.0005474188688854072 0.0013608476477522816 0.0 0.0
0.0 0.0009764052638540598 -0.0009130410971681264 0.0006983458428914968 0.0002146952542766287 0.00041707389019068105 0.0 0.0
0.0 9.663505709382445e-05 -7.36930252309246e-05 5.1647416806466364e-05 2.2045608424458242e-05 3.703543617645291e-05 0.0 0.0
0.0 -7.068857980724364e-06 4.122370403579175e-06 -3.417174940343621e-06 -7.051954632355544e-07 -7.10962310716203e-06 0.0 0.0
0.0 -1.9259891850927365e-07 -1.243820411784055e-08 9.900711750511593e-09 2.5374923673294314e-09 3.208399983580417e-08 0.0 0.0
0.0 0.0 0.0 0.0 0.0 0.0 0.0 0.0
0.0 0.0 0.0 0.0 0.0 0.0 0.0 0.0
0.0 0.0 0.0 0.0 0.0 0.0 0.0 0.0
0.0 0.0 0.0 0.0 0.0 0.0 0.0 0.0
0.0 -7.18462332870173e-08 -5.322214849680892e-09 4.219826328331633e-09 1.102388521349622e-09 -1.0684932772376604e-08 0.0 0.0
0.0 -8.335344081582392e-06 5.942318857730601e-06 -5.014386064291772e-06 -9.279327934388155e-07 7.900471048592853e-06 0.0 0.0
0.0 0.00021507863119665224 -0.0001815988081536844 0.00012894536824843803 5.265343990524659e-05 -4.68993329994335e-05 0.0 0.0
0.0 0.0016427662601930242 -0.0014560310801365935 0.001135519956074677 0.0003205111240619162 -0.0003689673727070317 0.0 0.0
0.0 0.0051919696155590805 -0.004585007452276798 0.003927147836532327 0.0006578596157444685 -0.001259179811100999 0.0 0.0
0.0 0.01127646142828255 -0.009979529123843945 0.009124298315740189 0.0008552308081037551 -0.002978900883754312 0.0 0.0
0.0 0.02032909929699699 -0.01775661055914704 0.01679560299846491 0.0009610075606821171 -0.0053608863804367355 0.0 0.0
0.0 0.032120454113096435 -0.027837380209900855 0.02679801514307134 0.00103936506682951 -0.008249055293302414 0.0 0.0
0.0 0.04624750212968807 -0.03997319008398777 0.03885819584982717 0.0011149942341605796 -0.011349539837423076 0.0 0.0
0.0 0.06252162266634714 -0.05389370543890722 0.05269901255015438 0.001194692888752862 -0.014425244017312053 0.0 0.0
0.0 0.08038334804441533 -0.0693835712898693 0.06810626428036055 0.0012773070095087572 -0.017423595221601567 0.0 0.0
0.0 0.10021420929453038 -0.0862676786019786 0.08491012967643377 0.001357548925544787 -0.020393474429160972 0.0 0.0
0.0 0.1210779599292569 -0.10435303950513916 0.1029236703640849 0.0014293691410542638 -0.02330693594116502 0.0 0.0
0.0 0.14270643900025287 -0.12318566274654491 0.12171538704684459 0.0014702756997003043 -0.02608397689018431 0.0 0.0
0.0 0.16405957504987945 -0.1415298152997567 0.14010502728096108 0.001424788018795714 -0.029101000308697375 0.0 0.0
0.0 0.18180335418651142 -0.1566751597577563 0.15544963960837055 0.0012255201493856123 -0.03384441489252493 0.0 0.0
0.0 0.19098053325648864 -0.16413585750783954 0.1632601427979365 0.0008757147099029622 -0.042435167831893425 0.0 0.0
0.0 0.18514884518699795 -0.15804067755613893 0.15761173380872162 0.00042894374741755384 -0.056086511713052345 0.0 0.0
0.0 0.17473307779729041 -0.14467279810059802 0.13830274172812082 0.0063700563724770586 2.42861286636753e-14 0.0 0.0
0.0 0.1851488451869733 -0.15804067755611173 0.15761173380869534 0.0004289437474164857 0.05608651171310688 0.0 0.0
0.0 0.19098053325643127 -0.16413585750778675 0.16326014279788337 0.0008757147099033196 0.04243516783194581 0.0 0.0
0.0 0.1818033541864276 -0.15667515975768265 0.15544963960829747 0.001225520149385187 0.03384441489255045 0.0 0.0
0.0 0.16405957504977645 -0.14152981529966746 0.14010502728087204 0.0014247880187952646 0.029101000308700012 0.0 0.0
0.0 0.1427064390001373 -0.1231856627464448 0.12171538704674484 0.0014702756996999855 0.02608397689017642 0.0 0.0
0.0 0.12107795992913035 -0.1043530395050306 0.10292367036397554 0.0014293691410548887 0.023306935941150284 0.0 0.0
0.0 0.10021420929441466 -0.08626767860187778 0.08491012967633445 0.001357548925543359 0.020393474429145915 0.0 0.0
0.0 0.0803833480443022 -0.06938357128977202 0.06810626428026346 0.0012773070095087266 0.017423595221583994 0.0 0.0
0.0 0.06252162266624162 -0.05389370543881576 0.05269901255006386 0.0011946928887519072 0.014425244017289241 0.0 0.0
0.0 0.04624750212959614 -0.039973190083908726 0.03885819584974845 0.0011149942341602687 0.011349539837397202 0.0 0.0
0.0 0.03212045411301819 -0.027837380209833514 0.02679801514300428 0.001039365066829229 0.008249055293280348 0.0 0.0
0.0 0.020329099296938807 -0.017756610559096647 0.016795602998414892 0.0009610075606817499 0.005360886380420369 0.0 0.0
0.0 0.011276461428244379 -0.009979529123810348 0.009124298315707336 0.0008552308081030104 0.0029789008837430696 0.0 0.0
0.0 0.005191969615534159 -0.004585007452255563 0.003927147836512629 0.0006578596157429298 0.00125917981109353 0.0 0.0
0.0 0.0016427662601826436 -0.0014560310801281207 0.0011355199560677655 0.0003205111240603572 0.00036896737270456783 0.0 0.0
0.0 0.00021507863119428272 -0.00018159880815226203 0.0001289453682474535 5.2653439904808814e-05 4.6899332999196895e-05 0.0 0.0
0.0 -8.335344081874527e-06 5.942318857238149e-06 -5.014386063916221e-06 -9.279327933219205e-07 -7.900471048136e-06 0.0 0.0
0.0 -7.184623319621463e-08 -5.322214842869262e-09 4.219826322927047e-09 1.1023885199412321e-09 1.0684932758656047e-08 0.0 0.0
0.0 0.0 0.0 0.0 0.0 0.0 0.0 0.0
0.0 0.0 0.0 0.0 0.0 0.0 0.0 0.0
0.0 0.0 0.0 0.0 0.0 0.0 0.0 0.0
0.0 0.0 0.0 0.0 0.0 0.0 0.0 0.0
0.0 0.0 0.0 0.0 0.0 0.0 0.0 0.0
0.0 -8.741384999518792e-06 7.5126203591551135e-06 -6.810371325629797e-06 -7.022490335253518e-07 8.905634494425567e-06 0.0 0.0
0.0 0.00038302005835560635 -0.00037511236071236236 0.000269579631939048 0.00010553272877331453 -1.9852687687419575e-05 0.0 0.0
0.0 0.002471042877115758 -0.0021508817088013534 0.0017197362528983612 0.0004311454559029907 -0.00022538737078347336 0.0 0.0
0.0 0.006540562886834663 -0.005991324509762064 0.005249925610559653 0.0007413988992024071 -0.0009516066645689244 0.0 0.0
0.0 0.013754920721123975 -0.012209641100559287 0.011296795032972184 0.0009128460675871216 -0.00219628520900566 0.0 0.0
0.0 0.023956967564564873 -0.021052818753038702 0.020034951735789546 0.0010178670172491357 -0.00395576683570575 0.0 0.0
0.0 0.03726184971931631 -0.0324878426937724 0.031385399951062966 0.0011024427427094327 -0.0061058018241672615 0.0 0.0
0.0 0.053308613975575674 -0.046286225893706325 0.04510166699504134 0.001184558898664959 -0.00843162913855952 0.0 0.0
0.0 0.07165058883667744 -0.06216532106854783 0.06089574987912595 0.001269571189421803 -0.010749469717218942 0.0 0.0
0.0 0.0923364181712725 -0.07986478938498183 0.07850894255329 0.0013558468316919735 -0.013034109034207776 0.0 0.0
0.0 0.11437853107047538 -0.09913712847121728 0.09769956528095625 0.001437563190260967 -0.015347861232309735 0.0 0.0
0.0 0.13811224323437973 -0.11963593162519096 0.11813014471845464 0.0015057869067362753 -0.017596142229045163 0.0 0.0
0.0 0.16256708445914314 -0.14077692372266443 0.13923014686683857 0.0015467768558258775 -0.019446027706449525 0.0 0.0
0.0 0.18639020079332616 -0.16137924714824103 0.1598486518540637 0.001530595294177256 -0.02076701551833054 0.0 0.0
0.0 0.20672310011959236 -0.17892482723369993 0.17755144296249306 0.0013733842712068795 -0.02314346244134997 0.0 0.0
0.0 0.21839175177636697 -0.18868324698630087 0.1877406316168148 0.0009426153694859577 -0.03158105216024802 0.0 0.0
0.0 0.2139996447061328 -0.1837680698394496 0.1834237659486749 0.000344303890774487 -0.05245261574143936 0.0 0.0
0.0 0.20366347763693537 -0.1701237737944556 0.16348089320015205 0.006642880594303636 1.829265905417543e-14 0.0 0.0
0.0 0.2139996447061031 -0.18376806983941976 0.18342376594864665 0.0003443038907728484 0.052452615741482675 0.0 0.0
0.0 0.21839175177629397 -0.18868324698623642 0.18774063161674856 0.0009426153694880941 0.031581052160290425 0.0 0.0
0.0 0.20672310011949271 -0.17892482723361394 0.1775514429624073 0.0013733842712065104 0.023143462441370326 0.0 0.0
0.0 0.18639020079320842 -0.16137924714813912 0.1598486518539625 0.001530595294176961 0.020767015518329924 0.0 0.0
0.0 0.16256708445901003 -0.14077692372254977 0.13923014686672275 0.0015467768558270558 0.019446027706444862 0.0 0.0
0.0 0.13811224323423596 -0.11963593162506742 0.11813014471832992 0.001505786906737627 0.017596142229037475 0.0 0.0
0.0 0.11437853107034807 -0.0991371284711066 0.09769956528084706 0.00143756319025957 0.015347861232299545 0.0 0.0
0.0 0.09233641817114249 -0.07986478938486957 0.07850894255317754 0.0013558468316919087 0.01303410903419564 0.0 0.0
0.0 0.07165058883655771 -0.062165321068444496 0.060895749879023214 0.0012695711894212239 0.010749469717202587 0.0 0.0
0.0 0.05330861397547161 -0.046286225893616036 0.04510166699495114 0.0011845588986648156 0.008431629138539811 0.0 0.0
0.0 0.0372618497192304 -0.03248784269369732 0.031385399950988595 0.0011024427427087148 0.0061058018241499975 0.0 0.0
0.0 0.023956967564499547 -0.021052818752981504 0.020034951735732796 0.001017867017248723 0.003955766835694095 0.0 0.0
0.0 0.013754920721079651 -0.012209641100520183 0.011296795032933831 0.0009128460675863504 0.002196285208996837 0.0 0.0
0.0 0.0065405628868079645 -0.005991324509738168 0.005249925610537083 0.0007413988992010955 0.0009516066645633028 0.0 0.0
0.0 0.0024710428771028063 -0.0021508817087901987 0.0017197362528888892 0.00043114545590130604 0.00022538737078153396 0.0 0.0
0.0 0.00038302005835194104 -0.0003751123607098344 0.0002695796319371998 0.00010553272877263385 1.985268768742882e-05 0.0 0.0
0.0 -8.7413849995994e-06 7.5126203589066575e-06 -6.810371325430429e-06 -7.022490334762637e-07 -8.905634494285927e-06 0.0 0.0
0.0 0.0 0.0 0.0 0.0 0.0 0.0 0.0
0.0 0.0 0.0 0.0 0.0 0.0 0.0 0.0
0.0 0.0 0.0 0.0 0.0 0.0 0.0 0.0
0.0 0.0 0.0 0.0 0.0 0.0 0.0 0.0
0.0 0.0 0.0 0.0 0.0 0.0 0.0 0.0
0.0 0.0 0.0 0.0 0.0 0.0 0.0 0.0
0.0 7.5795944877217045e-06 -1.0073373605068506e-05 4.67870427571219e-06 5.39466932935633e-06 1.1130160749048892e-05 0.0 0.0
0.0 0.0007432320675744176 -0.0006534638188932098 0.00047820708625420053 0.0001752567326390094 7.916912600114901e-05 0.0 0.0
0.0 0.0033098816523440934 -0.0029809768387059022 0.002447316605448939 0.0005336602332569624 3.076140397332406e-05 0.0 0.0
0.0 0.008227574631001832 -0.00745831571630207 0.006654778024040894 0.000803537692261179 -0.00035340215577497793 0.0 0.0
0.0 0.016264412957239422 -0.014463362887386727 0.013502057758425303 0.0009613051289614018 -0.0010095890817126943 0.0 0.0
0.0 0.02766344010364758 -0.02432661631826269 0.02325698646510621 0.0010696298531564894 -0.0019408433086147297 0.0 0.0
0.0 0.042390856471226396 -0.0370821064153098 0.03592019981135002 0.001161906603959775 -0.00310936847981972 0.0 0.0
0.0 0.060269793605993216 -0.05252461674615067 0.05127469905046826 0.0012499176956824356 -0.004398840556839359 0.0 0.0
0.0 0.08104531220608933 -0.07035410821158855 0.06901468762138158 0.0013394205902069896 -0.005715134352110792 0.0 0.0
0.0 0.10377330920399519 -0.09026566544238004 0.08883597205260048 0.0014296933897794653 -0.007063445792451368 0.0 0.0
0.0 0.1287874760260415 -0.11190327125555782 0.11039130267501515 0.0015119685805426038 -0.008450961527760203 0.0 0.0
0.0 0.15520972507077388 -0.13476546854491278 0.13319238545007117 0.001573083094841652 -0.009781872353222785 0.0 0.0
0.0 0.18214371043268593 -0.1580551779475978 0.15645371822658707 0.001601459721010542 -0.01077105073595932 0.0 0.0
0.0 0.20813833206460772 -0.18051911295865994 0.17892488860333103 0.001594224355329121 -0.011015230751479388 0.0 0.0
0.0 0.23079073599911615 -0.20010525781097033 0.1985646511473361 0.001540606663634207 -0.01107785222619139 0.0 0.0
0.0 0.24563994242048526 -0.21289317324994403 0.21163636773207906 0.0012568055178648675 -0.015988855798298406 0.0 0.0
0.0 0.24460859869781612 -0.21115098933737786 0.21090170822541895 0.0002492811119586612 -0.039895477645527054 0.0 0.0
0.0 0.23593515628884423 -0.19842221753186695 0.19194854117529864 0.006473676356568151 1.1981735048571807e-14 0.0 0.0
0.0 0.2446085986977749 -0.21115098933734033 0.2109017082253813 0.00024928111195897363 0.03989547764555339 0.0 0.0
0.0 0.24563994242040707 -0.2128931732498756 0.21163636773201147 0.0012568055178641265 0.015988855798320746 0.0 0.0
0.0 0.23079073599900127 -0.20010525781087096 0.1985646511472368 0.0015406066636341846 0.011077852226201994 0.0 0.0
0.0 0.20813833206447027 -0.18051911295854145 0.17892488860321246 0.001594224355328941 0.01101523075147745 0.0 0.0
0.0 0.18214371043254296 -0.1580551779474736 0.1564537182264631 0.0016014597210102695 0.010771050735955336 0.0 0.0
0.0 0.1552097250706228 -0.13476546854478208 0.13319238544994072 0.0015730830948415663 0.00978187235321938 0.0 0.0
0.0 0.12878747602589471 -0.1119032712554308 0.11039130267488878 0.0015119685805419115 0.008450961527753709 0.0 0.0
0.0 0.10377330920384978 -0.09026566544225433 0.08883597205247461 0.0014296933897797793 0.007063445792444385 0.0 0.0
0.0 0.08104531220595405 -0.07035410821147174 0.0690146876212647 0.0013394205902070584 0.005715134352101485 0.0 0.0
0.0 0.060269793605872785 -0.05252461674604661 0.05127469905036436 0.0012499176956822736 0.004398840556827014 0.0 0.0
0.0 0.042390856471135656 -0.03708210641523033 0.03592019981127157 0.0011619066039587611 0.0031093684798099304 0.0 0.0
0.0 0.027663440103576076 -0.024326616318199774 0.023256986465043872 0.0010696298531559067 0.0019408433086085322 0.0 0.0
0.0 0.0162644129571882 -0.014463362887341397 0.013502057758380714 0.0009613051289606782 0.0010095890817076424 0.0 0.0
0.0 0.008227574630970581 -0.007458315716273933 0.00665477802401387 0.0008035376922600531 0.00035340215577207265 0.0 0.0
0.0 0.0033098816523292676 -0.002980976838692896 0.0024473166054374707 0.0005336602332554253 -3.076140397393526e-05 0.0 0.0
0.0 0.0007432320675697684 -0.0006534638188897405 0.0004782070862516508 0.000175256732638089 -7.916912600064063e-05 0.0 0.0
0.0 7.5795944870817576e-06 -1.0073373604924e-05 4.6787042756235155e-06 5.39466932930058e-06 -1.1130160748953848e-05 0.0 0.0
0.0 0.0 0.0 0.0 0.0 0.0 0.0 0.0
0.0 0.0 0.0 0.0 0.0 0.0 0.0 0.0
0.0 0.0 0.0 0.0 0.0 0.0 0.0 0.0
0.0 0.0 0.0 0.0 0.0 0.0 0.0 0.0
0.0 0.0 0.0 0.0 0.0 0.0 0.0 0.0
0.0 0.0 0.0 0.0 0.0 0.0 0.0 0.0
0.0 6.691207107560815e-05 -6.55581573371582e-05 4.2998388564012384e-05 2.2559768773145877e-05 2.4904912162507237e-05 0.0 0.0
0.0 0.0011600856916891683 -0.000973993365557932 0.0007075434260308796 0.00026644993952705217 0.00022623490450972603 0.0 0.0
0.0 0.004127757179810279 -0.003722565003961595 0.003021951553471564 0.0007006134504900304 0.0004786955057713554 0.0 0.0
0.0 0.009548872039715509 -0.008702506303713749 0.007655024343483552 0.0010474819602302105 0.0006207754482324824 0.0 0.0
0.0 0.018223139514360807 -0.016328041887677187 0.015005324793125255 0.0013227170945519398 0.0006738510375723138 0.0 0.0
0.0 0.03040839982235094 -0.027005606607253138 0.025412829056832377 0.0015927775504207416 0.0006220379391168461 0.0 0.0
0.0 0.046285663268191446 -0.04083275646872767 0.03893375487908215 0.001899001589645438 0.0004129329854272541 0.0 0.0
0.0 0.06563886113456946 -0.05763243011072276 0.05537339547699418 0.0022590346337286096 8.315524219612222e-05 0.0 0.0
0.0 0.08777146657810171 -0.07708868542083566 0.07441459770797976 0.0026740877128558324 -0.0003476984403674591 0.0 0.0
0.0 0.11261354881722249 -0.09882763977686788 0.0956994794113002 0.0031281603655676435 -0.0008972200782289847 0.0 0.0
0.0 0.13961000077113545 -0.12241453781493057 0.11881803626085286 0.003596501554077756 -0.0015335078821917779 0.0 0.0
0.0 0.1680565886701 -0.14722779312916084 0.14318590656959124 0.004041886559569573 -0.00224073427520889 0.0 0.0
0.0 0.19686769421449385 -0.17227800238559984 0.16786267799975135 0.004415324385848418 -0.002862060837125249 0.0 0.0
0.0 0.22432545035040122 -0.19610078315174692 0.19143613786134506 0.004664645290401637 -0.0030608441447053485 0.0 0.0
0.0 0.24815258938394513 -0.2167726267922548 0.21198953338397003 0.0047830934082845646 -0.002769042176957087 0.0 0.0
0.0 0.2651479887194248 -0.23176545130050047 0.2268112033777324 0.00495424792276797 -0.005788515491196262 0.0 0.0
0.0 0.26875887813631777 -0.23542714333433082 0.23021511360708863 0.005212029727242298 -0.030988806379538995 0.0 0.0
0.0 0.26495216242258174 -0.22622760641880907 0.2137134085039189 0.01251419791488973 5.093148125467906e-15 0.0 0.0
0.0 0.2687588781362636 -0.23542714333428458 0.2302151136070399 0.005212029727244516 0.030988806379548612 0.0 0.0
0.0 0.2651479887193429 -0.23176545130042733 0.22681120337766425 0.004954247922762826 0.0057885154912042 0.0 0.0
0.0 0.24815258938382034 -0.21677262679214632 0.21198953338386384 0.004783093408282747 0.0027690421769586693 0.0 0.0
0.0 0.2243254503502504 -0.19610078315161494 0.1914361378612156 0.004664645290399299 0.003060844144703135 0.0 0.0
0.0 0.19686769421434053 -0.17227800238546603 0.16786267799961987 0.004415324385845526 0.002862060837123072 0.0 0.0
0.0 0.16805658866994222 -0.1472277931290222 0.14318590656945673 0.004041886559565459 0.002240734275206848 0.0 0.0
0.0 0.13961000077097502 -0.1224145378147905 0.11881803626071513 0.0035965015540752932 0.0015335078821857653 0.0 0.0
0.0 0.1126135488170679 -0.0988276397767331 0.09569947941116767 0.003128160365565302 0.0008972200782258518 0.0 0.0
0.0 0.08777146657795619 -0.07708868542070925 0.07441459770785494 0.002674087712854245 0.00034769844036345796 0.0 0.0
0.0 0.06563886113443931 -0.05763243011060934 0.0553733954768823 0.0022590346337270344 -8.315524220022484e-05 0.0 0.0
0.0 0.04628566326809573 -0.04083275646864377 0.03893375487900086 0.0018990015896428482 -0.00041293298542926724 0.0 0.0
0.0 0.03040839982227664 -0.02700560660718778 0.02541282905676875 0.0015927775504190247 -0.0006220379391187717 0.0 0.0
0.0 0.018223139514303578 -0.01632804188762634 0.015005324793075784 0.0013227170945505522 -0.0006738510375726148 0.0 0.0
0.0 0.009548872039679891 -0.008702506303681442 0.007655024343453012 0.001047481960228415 -0.0006207754482309895 0.0 0.0
0.0 0.0041277571797944355 -0.0037225650039468356 0.003021951553458581 0.0007006134504882569 -0.0004786955057700657 0.0 0.0
0.0 0.0011600856916838106 -0.0009739933655537389 0.0007075434260278224 0.0002664499395259192 -0.00022623490450855417 0.0 0.0
0.0 6.69120710742623e-05 -6.555815733605494e-05 4.2998388563241096e-05 2.2559768772813823e-05 -2.4904912162263553e-05 0.0 0.0
0.0 0.0 0.0 0.0 0.0 0.0 0.0 0.0
0.0 0.0 0.0 0.0 0.0 0.0 0.0 0.0
0.0 0.0 0.0 0.0 0.0 0.0 0.0 0.0
SCALARS Wm float 4
LOOKUP_TABLE default
14.719229679698376 2.1054786949209876 6.382075270138721 6.2316757146386585
7.801379371829603 3.659280592070798 1.8980833415221183 2.2440154382366893
0.9120819542757396 0.795999495901031 0.02669675228860155 0.08938570608610695
0.6443357068037003 0.5726302928556715 0.020360211562634137 0.05134520238539455
1.473932832991006 0.9163774935109846 0.20677411648269886 0.35078122299732173
3.440433214130324 1.4146271835103539 0.8072653518063535 1.218540678813617
7.373321752407364 2.123196771780487 2.3932626500194067 2.856862330607467
13.88920512128934 3.085077944423132 5.350666983458464 5.453460193407742
23.64590662618822 4.374594090445307 10.157730978551623 9.113581557191301
37.052930912516736 6.00488972259115 17.181847305625094 13.866193884300504
54.20587112350103 7.952466913738462 26.602235467585793 19.651168742176782
74.84761873875891 10.17615910304584 38.30962494654638 26.36183468916668
98.88214707126076 12.619849435792146 52.38494208290143 33.877355552567195
125.93613638915652 15.214316682203108 68.65119593398155 42.070623772971885
155.35425375841066 17.74649376863179 86.84009665346495 50.76766333631384
186.06634465286749 19.892629094220716 106.45723052231072 59.71648503633605
216.49650968511332 21.315806047035597 126.59745579922952 68.58324783884822
244.76626713019323 21.81789232469999 146.06101939537677 76.88735541011631
269.0260013159961 21.574740047166117 163.36414321305625 84.08711805577401
286.0222565297677 20.02981615663603 176.47410415259654 89.51833622053483
291.255184707672 17.005617716900357 182.29986562321793 91.94970136755398
286.0222565297383 20.029816156647676 176.47410415256667 89.51833622052395
269.02600131592806 21.574740047188826 163.36414321299208 84.08711805574703
244.7662671300673 21.817892324696373 146.06101939529114 76.88735541007965
216.4965096849778 21.315806047045484 126.59745579912807 68.58324783880425
186.06634465273163 19.89262909423319 106.4572305222083 59.716485036290216
155.3542537582753 17.74649376864439 86.84009665336447 50.767663336266466
125.93613638900982 15.214316682194813 68.65119593388869 42.07062377292634
98.88214707110751 12.619849435767144 52.384942082816934 33.877355552523426
74.84761873862962 10.176159103029555 38.30962494647352 26.361834689126557
54.20587112338457 7.952466913714216 26.602235467527777 19.65116874214259
37.05293091243711 6.004889722586996 17.181847305579268 13.866193884270851
23.64590662612865 4.374594090437714 10.157730978521403 9.113581557169528
13.88920512125458 3.0850779444225984 5.350666983439742 5.45346019339224
7.373321752384078 2.1231967717750324 2.3932626500104397 2.856862330598606
3.440433214119127 1.4146271835089315 0.8072653518022097 1.2185406788079842
1.4739328329864159 0.9163774935093708 0.20677411648146496 0.35078122299558007
0.6443357068025348 0.5726302928551639 0.020360211562410184 0.05134520238496106
0.9120819542749524 0.7959994959005406 0.02669675228849889 0.08938570608591191
7.801379371824902 3.6592805920728293 1.8980833415187455 2.244015438233329
14.719229679666245 2.1054786949036437 6.382075270130425 6.231675714632184
17.837245651121954 7.6404175721423435 5.022148891222093 5.174679187757522
3.3441815808099875 0.7366868691017665 1.128964420430763 1.4785302912774567
0.3125075149630368 0.37201344762410915 -0.022176784916034087 -0.037329147745038205
0.4890033693096659 0.4598033725620465 0.006451266604558717 0.022748730143060822
1.0983597173419766 0.7371024395697527 0.11938697131399162 0.24187030645823238
2.7353290001464634 1.1214675283985769 0.6423045972068172 0.971556874541069
6.050194836231331 1.599975270320083 1.984044459719715 2.4661751061915345
11.744651263824853 2.2297888224073366 4.644302625686854 4.8705598157306556
20.306862087450554 3.0098693036044746 9.017024661941278 8.279968121904801
32.00449733483773 3.9154447677376067 15.387255489838196 12.701797077261931
46.893993502465094 4.913629180073468 23.91163903007577 18.068725292315857
64.93239127535173 6.00074086759614 34.65488082588793 24.276769581867676
85.69270631801346 7.167147652382708 47.299441394284656 31.22611727134612
109.2169124722487 8.355273427800052 62.05941972560369 38.802219318844976
134.8887508576253 9.475713846914974 78.55133888083938 46.861698129871016
161.88402881611273 10.366758890268175 96.34079521810979 55.17647470773469
188.96546600441417 10.848963089313841 114.70700290770225 63.40950000739807
214.50806575674494 10.806514017401357 132.54780305237506 71.15374868696857
236.34853241726515 10.098766799036637 148.38349080337002 77.86627481485836
251.78816128250176 8.873630187773298 160.15932738955246 82.75520370517607
257.86238506377464 7.484325628964678 165.45362271692898 84.92443671788087
251.7881612824672 8.873630187777215 160.15932738952534 82.75520370516463
236.34853241719927 10.098766799055673 148.3834908033106 77.86627481483319
214.50806575662028 10.806514017379849 132.54780305230264 71.15374868693797
188.96546600427666 10.84896308930511 114.70700290761276 63.40950000735868
161.88402881598714 10.366758890279595 96.34079521801554 55.17647470769194
134.88875085749703 9.475713846920655 78.55133888074877 46.86169812982763
109.21691247212392 8.35527342780186 62.059419725519334 38.80221931880274
85.69270631788427 7.167147652371507 47.29944139420757 31.22611727130519
64.93239127524585 6.000740867594627 34.6548808258212 24.27676958183
46.89399350236949 4.913629180063968 23.911639030022197 18.068725292283325
32.0044973347659 3.915444767732812 15.387255489797838 12.701797077235256
20.306862087398816 3.0098693035995834 9.017024661914444 8.27996812188478
11.74465126379201 2.2297888224044304 4.644302625670682 4.870559815716898
6.05019483621234 1.5999752703187196 1.9840444597109956 2.4661751061826225
2.7353290001371575 1.1214675283979796 0.6423045972028876 0.9715568745362922
1.0983597173385398 0.73710243956867 0.1193869713130684 0.24187030645680127
0.4890033693092143 0.4598033725615879 0.006451266604535371 0.022748730143091016
0.31250751496281287 0.3720134476237115 -0.022176784915975287 -0.037329147744923144
3.3441815808012816 0.7366868691000055 1.128964420427322 1.4785302912739557
17.837245651093962 7.640417572130764 5.0221488912131305 5.174679187750051
13.670251539721523 6.155099814822652 3.5639879268516186 3.951163798047242
2.115320835493883 0.3412622408573005 0.757520113790894 1.016538480845691
0.1902676478782153 0.19011387787575237 9.868210438417454e-05 5.5087898078715015e-05
0.35579775086625276 0.3546297079046536 -0.0003744050883291888 0.0015424480499283497
0.8196369620518077 0.6345503173187119 0.05347950395535606 0.13160714077773983
2.131631547283074 1.0012880289131338 0.43362230592000367 0.6967212124499371
4.925923606441491 1.4530012497317981 1.4951485358958927 1.9777738208138
9.895431271615314 2.0201222285094276 3.7592017856353928 4.116107257470491
17.41670874885781 2.699969397567357 7.53332595023174 7.183413401058709
27.72136449414758 3.471380653996189 13.088582523157806 11.16140131699358
40.789389656648666 4.321501310459001 20.497364098888433 15.970524247301237
56.484606139976115 5.252485116899884 29.71561138869988 21.516509634376334
74.83123582334949 6.2707594847948 40.853341615757024 27.707134722797676
95.3105468417513 7.346274405898334 53.4999912377416 34.464281198111365
117.86546309583214 8.394367425976554 67.81273267128903 41.65836299856652
141.70391185148947 9.301624544073025 83.29172069425387 49.11056661316262
165.78475414213423 9.901023493291614 99.32955654736824 56.55417410147434
188.56767094015942 9.987500046682602 115.00685692878153 63.57331396469537
207.9807646039657 9.418836062134469 128.93163643668936 69.63029210514185
221.67865639627067 8.492614279544036 139.19429464892974 73.99174746779683
226.7478542116881 6.667913608632572 144.0357394163614 76.04420118669412
221.67865639624432 8.492614279552548 139.19429464890575 73.99174746778598
207.98076460388333 9.418836062123722 128.93163643663968 69.63029210511995
188.56767094010033 9.987500046715017 115.00685692871804 63.57331396466722
165.78475414200494 9.90102349326778 99.32955654729605 56.55417410144107
141.70391185137223 9.301624544077004 83.29172069417145 49.110566613123865
117.86546309571052 8.394367425967747 67.8127326712132 41.65836299852958
95.31054684163314 7.34627440589048 53.4999912376687 34.46428119807391
74.83123582324377 6.270759484793035 40.8533416156897 27.70713472276108
56.48460613987971 5.252485116894836 29.71561138864209 21.516509634342807
40.789389656564644 4.321501310449994 20.49736409884241 15.970524247272223
27.721364494082685 3.4713806539875818 13.088582523124508 11.161401316970593
17.416708748812344 2.6999693975618877 7.53332595020916 7.1834134010412924
9.895431271586192 2.020122228506329 3.759201785621575 4.116107257458287
4.925923606424086 1.4530012497294535 1.495148535888739 1.9777738208058924
2.1316315472750405 1.0012880289115753 0.43362230591719886 0.6967212124462652
0.819636962049477 0.6345503173175094 0.0534795039549519 0.1316071407770153
0.3557977508656469 0.3546297079039484 -0.000374405088308541 0.001542448050007107
0.19026764787817926 0.19011387787573872 9.86821043818582e-05 5.5087898058750543e-05
2.11532083548741 0.3412622408564435 0.7575201137882027 1.016538480842762
13.67025153969285 6.155099814810404 3.5639879268429384 3.951163798039511
10.433129541926103 4.814364141942113 2.570784118857901 3.0479812811260922
1.4419624835768927 0.15387658109562324 0.5245531373605894 0.7635327651206786
0.13216049648105851 0.13216049648105851 0.0 0.0
0.2611806729101722 0.26448695252485444 -0.0006532287508478231 -0.0026530508638343817
0.6037052638310648 0.5332950245975111 0.01712550969031943 0.05328472954323412
1.5896966413870528 0.8676779868097696 0.25508213184370604 0.46693652273357744
3.9175184320560423 1.3057584366637538 1.095334725588827 1.5164252698034595
8.120326238308534 1.809304240956819 2.932665050062151 3.378356947289566
14.619824960947339 2.3963517722772774 6.129909387742472 6.093563800927589
23.532621414354853 3.0481886969783374 10.863770014189262 9.620662703187245
34.787991387869184 3.7629108796496786 17.15428768307089 13.870792825148623
48.354139708940515 4.560041039090849 25.041916293869793 18.752182375979892
64.00144306539521 5.442579914579762 34.366669849982465 24.19219330083296
81.83832556865606 6.3972220389588665 45.32269248139424 30.11841104830297
101.28431978274384 7.386146421354245 57.44833317317211 36.44984018821749
121.94260543504114 8.309463408152103 70.59228726402833 43.040854762860654
143.12081587938906 9.00633060331274 84.4550499871223 49.65943528895403
163.28641869969115 9.254484729591486 98.06510733460503 55.96682663549458
180.58238929931525 8.918008604116155 110.20778135229519 61.4565993429039
192.94675918664797 8.164781776430154 119.29579875424996 65.48617865596788
197.5481420058714 5.9930595128976325 124.02455230481354 67.53053018816017
192.9467591866284 8.164781776440494 119.29579875422887 65.48617865595894
180.58238929926313 8.918008604120818 110.20778135225603 61.45659934288622
163.28641869960543 9.254484729589617 98.06510733454725 55.966826635468614
143.12081587931203 9.006330603325575 84.45504998706147 49.659435288925
121.94260543491296 8.309463408120148 70.59228726396344 43.040854762829355
101.28431978265544 7.386146421364437 57.448333173106974 36.44984018818398
81.83832556854765 6.3972220389437116 45.32269248133344 30.118411048270527
64.00144306531008 5.442579914586249 34.36666984992389 24.192193300799907
48.35413970885973 4.560041039085891 25.041916293822563 18.752182375951286
34.78799138779811 3.7629108796416024 17.154287683032777 13.870792825123749
23.532621414300756 3.048188696973266 10.863770014160647 9.620662703166834
14.619824960907465 2.396351772272041 6.129909387723268 6.093563800912158
8.120326238280818 1.8093042409507671 2.9326650500511033 3.378356947278943
3.917518432042352 1.3057584366611827 1.0953347255835 1.5164252697976701
1.58969664138175 0.867677986808833 0.2550821318418886 0.46693652273102854
0.6037052638292949 0.5332950245961345 0.01712550969016903 0.05328472954299074
0.2611806729101135 0.2644869525247808 -0.000653228750841825 -0.0026530508638255164
0.1321604964811092 0.1321604964811092 0.0 0.0
1.4419624835711344 0.1538765810947766 0.5245531373582671 0.7635327651180905
10.433129541903003 4.8143641419330505 2.5707841188508747 3.047981281119086
7.850970326300517 3.7372274489595063 1.799495079958334 2.314247797382679
1.0574749843939053 0.12667966646934706 0.3816489947032689 0.5491463232212884
0.1200112537156663 0.1200112537156663 0.0 0.0
0.2078675681725868 0.20831120288268637 -4.9144502143860966e-05 -0.0003944902079557253
0.442176190713091 0.4335773970081557 -0.0008685968045745767 0.009467390509510128
1.1554896488579574 0.7428439083028635 0.13374741797060827 0.2788983225844856
2.992316694654283 1.1391159456721547 0.7550530683188141 1.098147680663315
6.446431898107377 1.6011600850811605 2.1795666086265673 2.66570520439965
11.922671406180136 2.100730072316075 4.805094373501117 5.016846960362946
19.45922086659647 2.6456954169592666 8.727261913712962 8.08626353592424
28.98430163355286 3.2430735357734073 13.968180623820563 11.773047473958881
40.402497363244336 3.9149100383878777 20.499160363011764 15.988426961844683
53.67137610585702 4.680703165024873 28.31772188527644 20.672951055555725
68.52438024508906 5.532159981695839 37.21226390230476 25.77995636108845
85.05418940334891 6.438171765048798 47.3769247878679 31.2390928504322
102.78898688561827 7.360873709825152 58.476956292132925 36.951156883660204
120.96216316664243 8.161612045343706 70.04944971531773 42.75110140598094
138.61342658214417 8.612125482202947 81.66235749558714 48.33894360435407
154.04847317703076 8.515111098538018 92.24452600438329 53.28883607410948
165.45151754905532 7.919605118206979 100.47311329808694 57.05879913276133
169.80403469269902 5.380958664616442 105.21791135933628 59.205164668746306
165.451517549033 7.919605118211413 100.47311329806882 57.0587991327527
154.04847317699557 8.515111098554051 92.24452600434836 53.28883607409328
138.61342658207926 8.612125482206212 81.66235749554117 48.33894360433186
120.96216316655627 8.1616120453339 70.04944971526625 42.75110140595618
102.78898688555297 7.360873709839524 58.47695629208017 36.95115688363328
85.05418940324758 6.438171765030927 47.376924787813245 31.23909285040341
68.52438024500492 5.5321599816878715 37.21226390225576 25.779956361061295
53.6713761057725 4.680703165016953 28.317721885228153 20.6729510555274
40.40249736317836 3.9149100383853974 20.499160362972777 15.988426961820181
28.984301633496308 3.2430735357701077 13.968180623788864 11.77304747393733
19.459220866551284 2.6456954169581937 8.727261913687705 8.08626353590539
11.922671406145234 2.1007300723092106 4.805094373485974 5.016846960350048
6.4464318980883855 1.6011600850807193 2.1795666086172485 2.665705204390416
2.9923166946437223 1.1391159456704054 0.7550530683147169 1.0981476806586008
1.1554896488536368 0.7428439083014531 0.13374741796945827 0.2788983225827256
0.44217619071204495 0.4335773970071674 -0.0008685968046094524 0.009467390509487162
0.20786756817254698 0.2083112028826758 -4.914450214629462e-05 -0.0003944902079825058
0.12001125371520241 0.12001125371520241 0.0 0.0
1.0574749843900368 0.12667966646923423 0.3816489947014772 0.5491463232193268
7.8509703262806125 3.737227448950951 1.7994950799528466 2.3142477973768107
5.8044893385991125 2.8749678815141286 1.2306225166342193 1.6988989404507668
0.7528691433065691 0.14715629539366254 0.22630529283938003 0.379407555073526
0.1361418887376963 0.13614688328000216 -1.966034484966458e-07 -4.797938857358676e-06
0.18520745265016603 0.185164866492128 5.17421643778448e-06 3.741194160022292e-05
0.3391990528389274 0.3511891228344234 -0.003933411065631773 -0.008056658929864131
0.8107605574715346 0.6144468093659576 0.05236437992403725 0.14394936818153956
2.1424455352575507 0.9612735323307355 0.4382113303169164 0.7429606726098984
4.943976482989744 1.3839864350899254 1.5696745392548526 1.990315508644967
9.325123847387545 1.8146696870309968 3.5504444448689787 3.9600097154875704
15.550788726052804 2.265688651628148 6.720630851977713 6.564469222446938
23.36806897075415 2.7583065234611017 10.927379245034787 9.682383202258261
32.703246649130364 3.321989688822271 16.15158632455183 13.229670635756282
43.5092670260491 3.9796065525429536 22.371952691087813 17.157707782418342
55.78574686641026 4.734378302126648 29.61150261839321 21.43986594589039
69.31801277287423 5.573464902706076 37.712093754751166 26.03245411541697
83.90979767171443 6.457810431914022 46.591597985321165 30.860389254479255
99.38836355918274 7.334241350252411 56.252351578335976 35.80177063059437
114.57823889158158 8.015521053595089 65.88630136633265 40.676416471653866
128.24578141448782 8.190354282125927 74.91626920795478 45.139157924407016
138.93816580316366 7.7545674353505545 82.46670527494423 48.71689309286883
143.22731804767068 4.833147852138445 87.37361750903789 51.02055268649438
138.9381658031421 7.7545674353483 82.46670527493109 48.71689309286267
128.2457814144488 8.190354282129189 74.91626920792635 45.13915792439333
114.57823889153431 8.015521053604623 65.88630136629443 40.67641647163522
99.38836355911745 7.334241350245847 56.252351578296874 35.80177063057465
83.9097976716345 6.45781043190344 46.59159798527606 30.860389254455026
69.31801277281163 5.573464902707993 37.71209375470952 26.032454115394124
55.785746866343246 4.734378302121387 29.611502618354223 21.43986594586762
43.5092670259943 3.979606552551447 22.37195269104862 17.15770778239422
32.70324664907116 3.3219896888141274 16.15158632452103 13.229670635735994
23.368068970707586 2.758306523458938 10.927379245008881 9.682383202239778
15.550788726012966 2.265688651624141 6.7206308519577025 6.564469222431123
9.32512384736362 1.8146696870309629 3.5504444448564554 3.960009715476203
4.943976482972013 1.3839864350879147 1.5696745392470337 1.9903155086370623
2.142445535249954 0.9612735323301014 0.4382113303138879 0.7429606726059642
0.8107605574686576 0.6144468093642993 0.052364379923593225 0.14394936818076529
0.33919905283820845 0.35118912283352055 -0.0039334110656022 -0.008056658929709902
0.18520745264979674 0.18516486649177932 5.1742164357405354e-06 3.741194158165733e-05
0.1361418887371758 0.1361468832794775 -1.9660344829240563e-07 -4.797938853403843e-06
0.7528691433036301 0.14715629539370362 0.2263052928380167 0.37940755507191015
5.804489338583818 2.8749678815076907 1.23062251663012 1.6988989404460069
4.1507332956151295 2.178954774998071 0.7789179149434928 1.1928606056735664
0.558683327993748 0.18938938570670297 0.12946805309791834 0.23982588918912603
0.1642882593616368 0.16429241924526217 -2.3246729076969345e-07 -3.92741633463526e-06
0.18242346478616137 0.18245623259745822 -3.56181222359927e-06 -2.920599907319149e-05
0.28023503065698663 0.29075375705897455 -0.0024902519770123115 -0.008028474424975677
0.567735306278152 0.5034564936697951 0.01110699011906583 0.05317182248929142
1.4709355383185938 0.7917016883355137 0.23118117549617656 0.44805267448690367
3.4872661592374725 1.1495246441829718 0.9532912569150196 1.3844502581394824
7.00976860631534 1.5350575815132417 2.533583086815309 2.9411279379867907
11.790082397405815 1.9049989559360798 4.824796675945134 5.060286765524603
17.98888192584522 2.3089334384280136 8.07450302828059 7.6054454591366145
25.325718888824703 2.7771380447551417 12.067550897762715 10.481029946306842
33.78822737612465 3.3381239383182324 16.797956538449824 13.652146899356595
43.402060099232344 4.006330422876557 22.287769048303076 17.107960628052716
54.10017630634643 4.770047344415295 28.498642536329065 20.83148642560208
65.8815331376625 5.612442830728076 35.50061988648103 24.768470420453376
78.14872405808846 6.520330150414617 42.776321737249745 28.85207217042414
91.01103661906313 7.404227263378722 50.648338281507364 32.958471074177005
103.2697472640875 7.907132579601691 58.4362816924691 36.92633299201669
113.34898374244746 7.682305291996771 65.28945425226527 40.37722419818545
117.77906686248602 4.364113381544728 70.48850319425141 42.92645028668984
113.34898374243922 7.682305292001477 65.2894542522566 40.3772241981811
103.26974726403083 7.90713257957238 58.436281692450855 36.92633299200761
91.01103661902006 7.404227263381842 50.64833828147699 32.958471074161196
78.1487240580479 6.520330150422742 42.77632173721821 28.85207217040695
65.88153313760053 5.612442830715664 35.50061988644913 24.768470420435733
54.100176306291566 4.770047344412927 28.49864253629599 20.83148642558266
43.40206009917515 4.006330422866262 22.287769048274065 17.107960628034817
33.788227376071454 3.3381239383160373 16.797956538418948 13.652146899336495
25.325718888780408 2.7771380447488023 12.06755089774034 10.481029946291242
17.98888192580838 2.3089334384269904 8.07450302826024 7.605445459121153
11.790082397377109 1.9049989559350151 4.824796675930086 5.060286765512004
7.0097686062920515 1.5350575815092242 2.533583086805276 2.9411279379775492
3.4872661592250513 1.1495246441802367 0.9532912569104581 1.384450258134358
1.4709355383121536 0.7917016883339519 0.23118117549414774 0.44805267448405367
0.567735306276567 0.5034564936688029 0.011106990118886665 0.05317182248887806
0.28023503065660504 0.29075375705829604 -0.0024902519769652524 -0.008028474424725917
0.18242346478587418 0.18245623259719237 -3.5618122264687044e-06 -2.920599909171164e-05
0.16428825936087554 0.16429241924449273 -2.3246729021856114e-07 -3.927416326937905e-06
0.5586833279916648 0.18938938570677077 0.12946805309697326 0.23982588918792042
4.150733295603512 2.1789547749928473 0.7789179149406984 1.192860605669967
2.932607479682411 1.6573669317185773 0.5044220154897675 0.7708185324740657
0.4067822857362422 0.22028238453376717 0.05236066730517214 0.13413923389730298
0.19342953758236953 0.19297403315844125 5.310815430730296e-05 0.0004023962696209377
0.19127654260374516 0.19122411329917216 -1.7720349237748368e-06 5.420133949682967e-05
0.25129249920522917 0.2577346499424285 -0.001375350522801043 -0.005066800214398164
0.4166893684097562 0.4112335470073963 -0.003569622306284815 0.009025443708644575
0.944426008759074 0.6259736084487313 0.09138329215752267 0.22706910815281986
2.2817122867596704 0.9165202523222525 0.5097419653703728 0.8554500690670459
4.735541661500293 1.2380746049788196 1.505442025541268 1.9920250309802063
8.378972655368795 1.556928707364163 3.226104029849734 3.595939918154898
12.886025721472723 1.8859238000912395 5.451221921849454 5.548879999532031
18.28924935237764 2.273851738835955 8.262883737724929 7.752513875816763
24.530202424501198 2.7477570069570554 11.61578397842619 10.166661439117945
31.617083799508315 3.3297868167443374 15.490709722717487 12.79658726004648
39.6355519304685 4.031346378776868 19.957671986976347 15.646533564715304
48.430241843180475 4.822520343854604 24.91125123120089 18.696470268124997
58.01520273111874 5.696868394611735 30.430575019380473 21.887759317126534
68.18252745278767 6.721517771454769 36.246501037825524 25.21450864350739
78.68121665980517 7.609135571009571 42.428540117789574 28.643540971006043
88.41732855706988 7.714623620885731 48.735332765038414 31.967372171145737
93.2527227827827 3.99378590728156 54.385828998214166 34.873107877286955
88.41732855705357 7.714623620873594 48.735332765035544 31.967372171144454
78.68121665982082 7.6091355710443755 42.42854011777706 28.64354097099937
68.18252745273168 6.721517771428219 36.24650103780668 25.214508643496785
58.01520273107994 5.696868394613928 30.430575019354443 21.887759317111566
48.43024184315016 4.8225203438638005 24.911251231176212 18.69647026811013
39.63555193043075 4.0313463787781565 19.95767198695234 15.646533564700261
31.617083799475594 3.329786816744346 15.490709722697815 12.79658726003343
24.530202424456043 2.747757006943809 11.615783978407414 10.166661439104793
18.289249352349167 2.273851738836399 8.262883737708488 7.752513875804277
12.88602572144198 1.8859238000874232 5.4512219218346765 5.548879999519883
8.37897265534398 1.5569287073583844 3.226104029839656 3.5959399181459406
4.735541661488252 1.2380746049789655 1.505442025535283 1.9920250309740046
2.2817122867527684 0.9165202523220908 0.5097419653674206 0.8554500690632567
0.9444260087552512 0.6259736084472531 0.09138329215667061 0.2270691081513276
0.41668936840876447 0.4112335470066143 -0.0035696223063671 0.009025443708517053
0.251292499204466 0.257734649941555 -0.0013753505227762862 -0.005066800214312565
0.19127654260325283 0.1912241132984795 -1.772034911261897e-06 5.420133968450535e-05
0.19342953758191125 0.19297403315792883 5.3108154311459587e-05 0.00040239626967095
0.40678228573473274 0.2202823845336273 0.05236066730464065 0.13413923389646443
2.9326074796740005 1.6573669317154303 0.5044220154874207 0.7708185324711493
1.9326432379751952 1.2275712672155747 0.24688479428675597 0.4581871764728639
0.3106958559855867 0.23956491742765837 0.01531241636941936 0.055818522188508995
0.21737919150636548 0.21706728902076672 5.062651959962767e-05 0.0002612759659991279
0.20648367106933233 0.2066450534902841 -1.7980530721003532e-05 -0.00014340189023069464
0.2397843804118594 0.24386284653382417 -0.0009920199061806629 -0.0030864462157841727
0.33883192884550495 0.34409108911939695 -0.004335183455254578 -0.0009239768186374846
0.5961503618523644 0.4880937130138564 0.021700203004988802 0.08635644583351916
1.3249670603429051 0.6888687698578848 0.21160364131795792 0.42449464916706225
2.8086136166832993 0.933599364143597 0.7368665457978358 1.1381477067418657
5.129903919524448 1.1900969037858047 1.7300247499916863 2.2097822657469597
8.109131351313474 1.461272468641638 3.098998602206614 3.5488602804652203
11.706451611267587 1.7836561089024812 4.8552834603591375 5.067512042005961
15.845137618569137 2.1828814654687285 6.931679488525398 6.730576664575008
20.562449132483714 2.67994773787692 9.340164203600981 8.542337191005819
25.96808254789392 3.3051932712902756 12.140774583827696 10.522114692775947
32.108079946511154 4.060748865041709 15.36459097427135 12.682740107198116
38.87566363012641 4.890086995372978 18.978284998883066 15.007291635870374
46.25980939666588 5.846751312170093 22.926770555835148 17.486287528660625
54.92058344449829 7.1130942438998215 27.54193411636819 20.265555084230286
64.41239814975523 7.87693279393962 33.10739195016989 23.42807340564569
69.92958126916055 3.7895230624703573 39.21465968776208 26.92539851892812
64.41239814976902 7.876932793950961 33.10739195017146 23.428073405646586
54.92058344446848 7.113094243885544 27.54193411635841 20.26555508422452
46.25980939666342 5.846751312185947 22.926770555823722 17.486287528653733
38.87566363009186 4.890086995368953 18.978284998864357 15.007291635858532
32.108079946467996 4.06074886502473 15.364590974255538 12.682740107187751
25.96808254786515 3.3051932712859897 12.140774583813212 10.522114692765939
20.56244913245896 2.6799477378728214 9.340164203589024 8.542337190997122
15.845137618552076 2.182881465469888 6.931679488515235 6.730576664566956
11.706451611243107 1.7836561088988336 4.8552834603477075 5.067512041996569
8.109131351296694 1.4612724686426453 3.0989986021973897 3.548860280456657
5.129903919512397 1.1900969037835714 1.7300247499867747 2.209782265742056
2.8086136166735214 0.9335993641412187 0.7368665457944205 1.1381477067378827
1.3249670603377317 0.6888687698574509 0.21160364131604953 0.4244946491642312
0.5961503618502169 0.488093713012998 0.021700203004532 0.08635644583268674
0.33883192884495533 0.34409108911864106 -0.004335183455220613 -0.0009239768184650427
0.2397843804114962 0.24386284653323706 -0.00099201990615953 -0.003086446215581322
0.20648367106886253 0.20664505348983525 -1.798053071823007e-05 -0.00014340189025454665
0.2173791915063231 0.21706728902049302 5.0626519621070225e-05 0.0002612759662089112
0.31069585598457694 0.23956491742740182 0.015312416369123935 0.055818522188051015
1.9326432379690326 1.2275712672127828 0.24688479428534213 0.45818717647090806
1.2378489398990757 0.9134413320166295 0.10245853059331972 0.22194907728912727
0.24463559902869836 0.23993691076403809 -0.0023651559871855333 0.007063844251845687
0.23384479936682734 0.23262032173581362 0.00016882642658829573 0.001055651204425507
0.2240787050284802 0.22311180819456342 0.0001186682485275782 0.0008482285853891211
0.2410829430399423 0.24352132729808068 -0.0007700964334860335 -0.001668287824652312
0.3080304128292844 0.3095762507434418 -0.002072521303020464 0.0005266833888629964
0.4249741674482307 0.385884355095979 0.005466898469757004 0.03362291388249473
0.6674625143022924 0.4727063852165729 0.050578423047289996 0.14417770603842972
1.2553278594015438 0.6049855402534235 0.216146446167219 0.43419587298090095
2.3427001462092707 0.7670862602892642 0.605269909453704 0.9703439764663025
3.916957098034445 0.9659637400698806 1.2567588559584124 1.6942345020061524
5.799779055793964 1.205734958818852 2.052363551699023 2.541680545276091
8.041634571887549 1.5143517889884857 3.046941366785273 3.480341416113789
10.659576117557705 1.9163074854568385 4.229311535319721 4.513957096781141
13.724588147135963 2.4402816842712625 5.618983494885282 5.665322967979411
17.37181483449032 3.120339193992485 7.2779243511638 6.973551289334034
21.686559562489894 3.9351144330134455 9.28063800929379 8.47080712018266
26.550610495368094 4.743892071340384 11.661840390395852 10.144878033631862
32.4909584646177 5.8686186598505286 14.521981876159813 12.100357928607337
41.22596057680936 7.784227975962992 18.63042029958336 14.811312301263019
48.95517754276357 3.9801874841226694 25.763377895749223 19.21161216289169
41.22596057682364 7.784227975970804 18.630420299587357 14.811312301265481
32.49095846460882 5.868618659846754 14.521981876156705 12.100357928605353
26.550610495330762 4.743892071315505 11.66184039038846 10.1448780336268
21.686559562454924 3.935114432995687 9.280638009283706 8.470807120175529
17.371814834499705 3.120339194015219 7.277924351156361 6.973551289328119
13.724588147112952 2.440281684259491 5.618983494879082 5.665322967974386
10.659576117550525 1.9163074854587117 4.2293115353148165 4.513957096776994
8.04163457187291 1.5143517889843225 3.046941366779739 3.4803414161088457
5.799779055782884 1.2057349588178325 2.052363551693925 2.5416805452711277
3.916957098023629 0.96596374006861 1.256758855953774 1.6942345020012461
2.342700146204622 0.7670862602896248 0.6052699094514647 0.9703439764635319
1.2553278593991597 0.6049855402536178 0.21614644616622672 0.43419587297931506
0.667462514300249 0.47270638521594593 0.05057842304676831 0.1441777060375351
0.4249741674469504 0.3858843550951917 0.005466898469603372 0.03362291388215524
0.3080304128288949 0.30957625074275696 -0.0020725213029857666 0.0005266833891236504
0.24108294303935 0.24352132729737636 -0.0007700964334759505 -0.0016682878245505269
0.22407870502814772 0.22311180819408893 0.00011866824853974512 0.0008482285855190036
0.2338447993664462 0.23262032173532976 0.00016882642659625432 0.001055651204520205
0.2446355990279131 0.23993691076363582 -0.002365155987301089 0.007063844251578473
1.2378489398953256 0.9134413320148853 0.10245853059254645 0.22194907728789362
0.7628951804924408 0.6674717338408527 0.022639733330717032 0.07278371332087077
0.20823330105602247 0.21956631581041317 -0.003189137677671426 -0.008143877076719425
0.24309946103012398 0.24321804044742962 -4.025521898392817e-06 -0.00011455389540738615
0.24096159402330541 0.23934670947575187 0.0002202558939598976 0.0013946286535935686
0.253231722231114 0.2533658992238544 -0.000403105378011574 0.0002689283852711976
0.30466550130776204 0.3028433854596041 -0.0010592952768832468 0.0028814111250413292
0.3857557876533411 0.3474647708506187 0.007418229733450033 0.030872787069272496
0.44451188746264797 0.3407098577099853 0.027316433910621187 0.07648559584204141
0.5166177662430828 0.2962114078034368 0.07417938789418936 0.14622697054545697
0.732882610778465 0.29358823275312507 0.15950222725169858 0.2797921507736422
1.2201062457019907 0.3112587241800107 0.3622742482470403 0.5465732732749388
1.9266107908949985 0.314301151325972 0.6637433076992714 0.9485663318697553
2.845726146517023 0.34657658833380556 1.0804778876376275 1.4186716705455888
3.9654455319827244 0.43470499303411597 1.5880964228573302 1.9426441160912822
5.3074508538556575 0.6050250805395303 2.185786178554613 2.5166395947615117
6.867876819684081 0.8804536234327063 2.8557720244388975 3.131651171812478
8.69026694790961 1.2850377198655405 3.6280422580092053 3.777186970034864
10.716869650079076 1.7706900515770119 4.500288112098311 4.445891486403755
13.452034716038169 2.470687731835563 5.655740435308874 5.325606548893732
20.814368280706287 5.058405763188535 8.124894209465994 7.631068308051758
34.759271766819296 4.460302068246959 16.578486288941573 13.720483409630752
20.814368280705793 5.058405763180523 8.124894209470357 7.631068308054923
13.452034716043286 2.470687731844104 5.655740435306882 5.325606548892303
10.716869650063039 1.770690051570349 4.500288112093283 4.445891486399404
8.690266947914875 1.2850377198790963 3.6280422580044482 3.777186970031321
6.867876819654427 0.8804536234136324 2.85577202443361 3.131651171807181
5.307450853855943 0.6050250805452684 2.185786178551652 2.516639594759021
3.9654455319736726 0.43470499303081234 1.5880964228544996 1.9426441160883603
2.8457261465073524 0.3465765883317389 1.0804778876338805 1.4186716705417337
1.9266107908887449 0.31430115132590897 0.6637433076962678 0.9485663318665695
1.2201062456985132 0.31125872418039663 0.362274248245264 0.5465732732728517
0.7328826107763364 0.2935882327511626 0.15950222725160162 0.279792150773573
0.5166177662419387 0.2962114078030645 0.07417938789386676 0.146226970545007
0.4445118874624107 0.3407098577104399 0.02731643391037073 0.07648559584160043
0.3857557876526828 0.3474647708501672 0.007418229733356508 0.030872787069159028
0.3046655013073353 0.3028433854589543 -0.0010592952768600514 0.0028814111252411703
0.25323172223046275 0.2533658992230884 -0.00040310537800442026 0.0002689283853788316
0.24096159402306705 0.23934670947534023 0.00022025589397630792 0.0013946286537503908
0.24309946102986216 0.24321804044705683 -4.02552188001465e-06 -0.00011455389531464728
0.20823330105552967 0.21956631580966662 -0.0031891376776288925 -0.008143877076508058
0.7628951804903319 0.6674717338397083 0.02263973333037854 0.07278371332024515
0.47871481989745496 0.4742382963132946 0.0004991955751866423 0.0039773280089738594
0.19046268426199012 0.19200153627090988 -0.0001954552436013257 -0.0013433967653184785
0.2454871034009161 0.2449871975849053 1.3327634528459406e-05 0.0004865781814824796
0.25495589986058537 0.2531111292224947 0.00024562212253846855 0.0015991485155522648
0.2719444842864004 0.27026656377544567 -0.00011066311292698416 0.0017885836238816792
0.3285303219202088 0.3216033179319505 -0.0004700211236162474 0.007397025111874438
0.44157793554240504 0.39321614352048584 0.009053038201495198 0.03930875382042455
0.6781119404011006 0.4751588508642899 0.0538564199804651 0.14909666955634548
1.2590707986755076 0.6050814979599245 0.21770446068462473 0.43628484003095785
2.342694907416486 0.7667933164491603 0.6052987983108152 0.9706027926565093
3.92603214004173 0.9685696511851412 1.260389994577832 1.6970724942787574
5.833055567159068 1.211062777923119 2.067941693910075 2.5540510953258764
8.097952603257355 1.520287807780054 3.073394489053575 3.5042703064237237
10.676292451698247 1.9070244644392353 4.244940366632394 4.52432762062662
13.457730757726805 2.372143370040747 5.513245080546112 5.57234230713994
16.263635362085022 2.9128597692695637 6.783037124675102 6.567738468140361
18.75027248144297 3.504043109777737 7.866058841588577 7.380170530076648
20.730079012958036 4.205856657236225 8.650752240767714 7.873470114954105
21.3967122796117 4.688371570649801 8.811232399935427 7.897108309026467
17.694493016598127 3.6442006628240318 7.5564659916302785 6.493826362143807
35.2229482661898 6.5171022316226175 15.44710605345243 13.258739981114749
17.694493016605094 3.6442006628239967 7.556465991634486 6.493826362146612
21.396712279612117 4.688371570648531 8.81123239993627 7.897108309027324
20.73007901295575 4.205856657248406 8.650752240759346 7.873470114947986
18.750272481414775 3.504043109766006 7.866058841579194 7.380170530069595
16.26363536207147 2.9128597692717 6.783037124666312 6.567738468133447
13.457730757704287 2.3721433700343604 5.513245080537276 5.572342307132654
10.676292451683096 1.907024464438405 4.244940366624616 4.5243276206200775
8.097952603243487 1.5202878077826099 3.073394489044986 3.504270306415888
5.833055567143303 1.2110627779215193 2.0679416939029016 2.5540510953188846
3.926032140024148 0.968569651181079 1.2603899945711747 1.6970724942718955
2.342694907410153 0.7667933164492764 0.6052987983079547 0.9706027926529217
1.25907079867078 0.6050814979592669 0.21770446068298493 0.43628484002852763
0.6781119403988392 0.4751588508636105 0.053856419979897846 0.14909666955533044
0.44157793554142477 0.39321614351980044 0.009053038201389373 0.03930875382023474
0.32853032191938575 0.3216033179310698 -0.00047002112365388004 0.007397025111969907
0.2719444842861362 0.2702665637750113 -0.00011066311290562451 0.001788583624030596
0.2549558998603495 0.25311112922211587 0.0002456221225474454 0.001599148515686225
0.24548710340080215 0.24498719758472146 1.3327634529951771e-05 0.0004865781815505191
0.1904626842617427 0.19200153627060912 -0.00019545524359773539 -0.001343396765268567
0.4787148198965274 0.47423829631184305 0.0004991955752301499 0.003977328009454221
0.3068323688738738 0.3069447926294766 -9.412498628360223e-06 -0.00010301125697444484
0.17570329806482915 0.17589955552668823 -1.9067845157628397e-05 -0.00017718961670148834
0.24149873229644894 0.24218543486941158 -0.00013734662732074794 -0.0005493559456417965
0.264572761153989 0.2627865033093621 0.00016381473724918323 0.0016224431073776097
0.2954742015357146 0.29538667866713114 -0.000388185351018614 0.00047570821960211214
0.3807329369985787 0.3686320674532944 0.0006312062795645237 0.011469663265719299
0.6214504630401826 0.49008141858388965 0.02828933812452743 0.10307970633176566
1.3371795058148315 0.6895909466898272 0.21661767701257262 0.43097088211243195
2.809614226132167 0.9331284804064478 0.7374856879024722 1.1390000578232478
5.130034646229651 1.1902857537265452 1.7298330763580396 2.209915816145065
8.119169912462946 1.4631992869386519 3.1031250380803517 3.552845587443942
11.736144476793474 1.7876728749338213 4.869275449817812 5.079196152041837
15.887325975457998 2.1837921290882187 6.955081494509079 6.748452351860707
20.54046593921569 2.6570987345716484 9.341346534620193 8.542020670023842
25.62865758955222 3.2107340790322003 11.99834119438388 10.419582316136154
30.89838564137319 3.832496644201309 14.779209544322349 12.28667945284951
35.931068342651145 4.534260391193532 17.404845729428242 13.99196222202937
40.12807532055267 5.325440212649189 19.464201193520772 15.338433914382673
42.17017351439057 5.756632516765312 20.475252649037138 15.938288348588133
39.428734063729905 5.649907269530903 18.9682798843489 14.810546909850093
48.70852962089869 11.344106583707784 20.99273187735318 16.371691159837717
39.42873406373779 5.649907269531213 18.968279884353652 14.810546909852919
42.17017351434982 5.756632516730209 20.47525264903357 15.938288348586026
40.12807532053733 5.3254402126541125 19.46420119350828 15.338433914374948
35.93106834258562 4.534260391163588 17.404845729406482 13.99196222201554
30.89838564132922 3.8324966441889705 14.779209544303356 12.286679452836891
25.628657589518674 3.2107340790286485 11.998341194366184 10.419582316123844
20.540465939180297 2.657098734564156 9.341346534604106 8.542020670012029
15.887325975425448 2.1837921290842384 6.955081494492971 6.7484523518482415
11.73614447676432 1.7876728749292234 4.869275449804374 5.0791961520307165
8.119169912440885 1.4631992869403616 3.103125038067944 3.5528455874325804
5.130034646211216 1.1902857537221652 1.7298330763509857 2.209915816138066
2.8096142261237804 0.9331284804066431 0.7374856878985522 1.139000057818586
1.3371795058096507 0.6895909466882599 0.21661767701113116 0.4309708821102604
0.621450463037984 0.4900814185830006 0.028289338124048352 0.10307970633093534
0.380732936997662 0.36863206745255656 0.0006312062795128166 0.011469663265592563
0.29547420153508885 0.2953866786661608 -0.0003881853509797816 0.0004757082199078474
0.2645727611537297 0.26278650330898107 0.00016381473725725156 0.0016224431074913946
0.24149873229597446 0.24218543486876676 -0.00013734662730463008 -0.0005493559454876097
0.1757032980645267 0.17589955552643113 -1.906784516032123e-05 -0.00017718961674415882
0.3068323688732346 0.30694479262895064 -9.412498641190691e-06 -0.00010301125707486124
0.19112755340171325 0.19112755340171325 0.0 0.0
0.15663736909403866 0.15662643887707814 1.686258217178534e-06 9.243958743354437e-06
0.2309373009999285 0.23192601623299403 -0.00014890245386765425 -0.0008398127791978683
0.2704629347471029 0.2707589962576049 -0.00015162931796561496 -0.0001444321925365361
0.3231446919078982 0.32115704304330245 -0.00035041310727961975 0.0023380619718754705
0.4675890336713943 0.42677278565582927 0.004687319699392261 0.03612892831617319
0.9781726453166686 0.6319903986501871 0.10438066503401183 0.24180158163246934
2.288544475042179 0.9164482768975812 0.5134717423407437 0.8586244558038538
4.733640027844814 1.238187429352616 1.50438744169415 1.991065156798043
8.38126163889493 1.5576366386510565 3.227186513102344 3.5964384871415307
12.895624032835109 1.8872205037235972 5.454492994451516 5.553910534659999
18.306887891418356 2.2750517991236876 8.272393036173245 7.759443056121427
24.533271738039943 2.7425841498207517 11.620782884931087 10.1699047032881
31.527106640866833 3.2956753585130922 15.457388266946598 12.77404301540715
39.24411822698302 3.925531121065265 19.782947370062825 15.53563973585493
47.32829335451555 4.617418513462407 24.353043380649275 18.357831460403865
55.390485817932614 5.35919727380871 28.98638581139498 21.04490273272896
62.07089844634116 5.966296324378842 32.825118131442736 23.27948399051962
65.38182963222523 6.175969969040097 34.81259691861552 24.393262744569604
61.31435150302664 5.568506208969344 32.621928699272644 23.12391659478465
68.48943446456956 14.435467982429849 31.504343831645958 22.549622650493774
61.31435150304097 5.568506208976249 32.62192869927741 23.12391659478727
65.38182963222012 6.175969969050907 34.81259691860535 24.39326274456389
62.070898446297434 5.966296324365709 32.82511813142318 23.279483990508563
55.3904858179243 5.359197273846407 28.986385811365956 21.044902732711922
47.32829335446275 4.617418513458626 24.353043380618658 18.357831460385462
39.24411822694283 3.9255311210681034 19.782947370036425 15.5356397358383
31.527106640822872 3.295675358512681 15.457388266920361 12.774043015389836
24.533271737994664 2.742584149818015 11.620782884906054 10.16990470327061
18.30688789137553 2.275051799118099 8.272393036151927 7.759443056105495
12.895624032800038 1.887220503722039 5.4544929944330285 5.553910534644975
8.381261638868777 1.5576366386481335 3.2271865130900634 3.5964384871305803
4.733640027827883 1.2381874293487973 1.5043874416876837 1.9910651567914002
2.288544475032614 0.9164482768946717 0.513471742337816 0.8586244558001251
0.978172645312108 0.6319903986487041 0.10438066503284331 0.24180158163056076
0.4675890336699755 0.4267727856549485 0.004687319699199036 0.036128928315827855
0.3231446919072091 0.32115704304248505 -0.0003504131072712382 0.002338061971995358
0.2704629347464997 0.27075899625676747 -0.00015162931793955594 -0.00014443219232829354
0.2309373009996552 0.23192601623276912 -0.0001489024538716339 -0.0008398127792422437
0.15663736909388576 0.156626438876892 1.6862582191376844e-06 9.243958774617653e-06
0.19112755340127208 0.19112755340127208 0.0 0.0
0.11236224683709986 0.11236224683709986 0.0 0.0
0.1327322901749427 0.13272770453324528 2.4297873496715517e-07 4.342662962442389e-06
0.214576270398225 0.2151120382632682 -7.406146007624099e-05 -0.00046170640496696517
0.2727802126442671 0.273260008341864 -0.0002626004506019393 -0.00021719524699498352
0.35681084857825196 0.3557970716954395 -0.0010568293831662143 0.0020706062659785855
0.6229287237455404 0.5167197129596347 0.025650941613332166 0.08055806917257338
1.4890230446304025 0.7881171016075849 0.23885684614048336 0.46204909688233436
3.487395723201466 1.150266755459897 0.9535053423793728 1.3836236253621972
7.007499254696366 1.5359634964225846 2.531884706488368 2.9396510517854115
11.79449650352263 1.905894784170358 4.826514497347707 5.062087222004567
17.99727758645187 2.30843270198555 8.079861302422088 7.608983582044229
25.318803645853663 2.771959110870664 12.066623216720684 10.480221318262327
33.728613708211775 3.321997878076283 16.771822525312 13.634793304823521
43.230196203866996 3.966668300795673 22.206199424293935 17.057328478777354
53.71577346559437 4.689437750618568 28.307171226031713 20.719164488944088
65.00921091951666 5.454173195817775 35.04286568652152 24.512172037177375
75.87759530036769 6.125793446189393 41.558957007230646 28.19284484694768
85.08645002547021 6.482238945933721 47.369794594662416 31.23441648487406
89.27810154091563 6.172437120293658 50.356652229718115 32.749012190903855
84.16880833028308 5.6299676272643495 47.36058768495946 31.178253018059287
90.91629330807189 17.57471308719076 43.91216920594629 29.429411014934857
84.16880833026362 5.629967627244588 47.36058768495977 31.178253018059273
89.27810154088849 6.172437120291098 50.35665222970188 32.74901219089546
85.08645002544003 6.4822389459428 47.36979459463672 31.23441648486049
75.87759530029786 6.12579344617274 41.558957007196085 28.192844846929066
65.00921091946185 5.454173195822463 35.04286568648346 24.51217203715589
53.71577346553388 4.689437750613651 28.30717122599672 20.719164488923496
43.230196203807644 3.9666683007939407 22.206199424258283 17.057328478755434
33.728613708154874 3.3219978780750963 16.77182252527821 13.63479330480156
25.318803645805712 2.771959110870329 12.066623216692685 10.480221318242704
17.99727758640861 2.308432701985141 8.079861302397761 7.608983582025699
11.794496503488906 1.9058947841683087 4.826514497330495 5.062087221990099
7.007499254671824 1.535963496418195 2.5318847064778667 2.9396510517757637
3.4873957231868085 1.1502667554579 0.9535053423733829 1.3836236253555265
1.4890230446234185 0.7881171016055845 0.2388568461384161 0.4620490968794171
0.6229287237431874 0.5167197129584048 0.02565094161296284 0.08055806917181986
0.35681084857766887 0.3557970716946371 -0.0010568293831308348 0.002070606266162783
0.2727802126442001 0.2732600083415946 -0.0002626004505880223 -0.00021719524680665202
0.21457627039809568 0.2151120382631655 -7.406146007873136e-05 -0.0004617064049910369
0.1327322901746704 0.13272770453297736 2.4297873480463597e-07 4.342662958242992e-06
0.1123622468368469 0.1123622468368469 0.0 0.0
0.062065831661528834 0.062065831661528834 0.0 0.0
0.1061718806160708 0.1061718806160708 0.0 0.0
0.19349117295421644 0.19363401464044502 -1.845826558372183e-05 -0.00012438342064486588
0.27284370788787715 0.27513540852335516 -0.00048194305750447506 -0.0018097575779736537
0.40378113846393276 0.39415025501540657 -0.0005310453752328157 0.010161928823758963
0.8543039686970413 0.6217366657759257 0.06791685027519072 0.16465045264592484
2.1542931342727694 0.9605789362806738 0.4450565009040227 0.7486576970880734
4.940575700726808 1.3857396682387053 1.5673474413098192 1.987488591178284
9.325008425174317 1.8161121734485994 3.549762368338105 3.959133883387615
15.557348339962035 2.266278173225497 6.723917408777147 6.567152757959384
23.368978722006098 2.7547103587731225 10.930027471708563 9.684240891524421
32.661625328722266 3.3069186872659686 16.135620026895985 13.219086614560307
43.372790946625074 3.9484283158965763 22.306897253607534 17.117465377120944
55.53114528166921 4.696908420578926 29.4743542763538 21.359882584736468
68.9577485762346 5.5373407740437095 37.503428792827535 25.91697900936337
83.25094881980579 6.341765531508763 46.23647699210605 30.672706296191006
97.44180837919919 6.888915129420152 55.2585282291633 35.2943650206157
108.7209912325564 6.83689621107405 62.762169419377415 39.12192560210497
113.47099984318045 6.094054826436256 66.39467859353275 40.98226642321143
107.93917708415182 5.882758328827392 62.895980791132615 39.16043796419182
115.40531110676365 20.72363752058702 57.99512632971431 36.68654725646239
107.93917708413562 5.88275832882034 62.89598079112661 39.16043796418866
113.47099984313445 6.094054826430753 66.3946785935056 40.98226642319806
108.72099123248935 6.836896211056834 62.76216941934414 39.12192560208837
97.44180837910983 6.888915129404355 55.25852822911473 35.29436502059077
83.25094881970779 6.341765531487181 46.236476992055934 30.67270629616471
68.95774857615974 5.537340774039783 37.50342879278196 25.91697900933797
55.53114528159217 4.696908420575509 29.474354276307288 21.359882584709354
43.37279094655142 3.948428315892266 22.306897253564674 17.11746537709449
32.661625328653855 3.3069186872571246 16.135620026860018 13.2190866145367
23.36897872194886 2.7547103587693056 10.930027471677366 9.6842408915022
15.557348339921496 2.2662781732234243 6.7239174087555895 6.56715275794248
9.325008425145242 1.816112173445077 3.5497623683247537 3.9591338833754124
4.94057570070972 1.3857396682386673 1.5673474413013493 1.9874885911697024
2.154293134263271 0.9605789362775063 0.4450565009012756 0.7486576970844904
0.8543039686930555 0.6217366657742618 0.06791685027432191 0.16465045264447176
0.4037811384631298 0.39415025501462714 -0.0005310453752588944 0.0101619288237616
0.2728437078877754 0.2751354085230931 -0.0004819430574827271 -0.0018097575778350046
0.19349117295411195 0.1936340146403669 -1.8458265586248694e-05 -0.00012438342066866848
0.10617188061567756 0.10617188061567756 0.0 0.0
0.062065831661349345 0.062065831661349345 0.0 0.0
0.032111497236358144 0.032111497236358144 0.0 0.0
0.08017069635257125 0.08017069635257125 0.0 0.0
0.17010361719352737 0.17009680042985945 3.960330448053176e-07 6.420730623111643e-06
0.2736596102253562 0.2759979949493378 -0.0005263069455775045 -0.001812077778404059
0.4808770233491439 0.4527162547725503 0.004808805262460593 0.023351963314133122
1.1632520114701077 0.7299795133529303 0.1359210057884046 0.2973514923287728
2.995913988336217 1.1396723218200977 0.7579980153513748 1.0982436511647444
6.443235779140526 1.6031830072376956 2.176749098134986 2.663303673767841
11.925693027797951 2.102332169589412 4.8061126818146125 5.017248176393931
19.466136870216435 2.645347956902988 8.731465324360986 8.089323588952466
28.973012515606644 3.2349777077235813 13.96629990951618 11.771734898366878
40.32183459924609 3.8888299447868264 20.46563487292135 15.967369781537903
53.460617131703046 4.634674907120478 28.213956375248447 20.61198584933413
68.18380445682172 5.493320614834407 37.0183415054145 25.67214233657288
84.66246897051325 6.433313760687019 47.1238440867841 31.10531112304209
102.21891500277047 7.285449821552538 58.14811113292096 36.78535404829694
119.15185129780848 7.643287398809417 69.18105413765454 42.32750976134451
132.62485227980804 7.13343149009941 78.60585863365658 46.885562156052124
138.49813454334625 6.06574030243511 83.31692788919825 49.115466351712875
132.84788164947497 6.21742078044955 79.38893262572493 47.24152824330048
141.45612439389262 23.8474455434283 73.27469088113477 44.33398796932949
132.84788164944896 6.217420780439152 79.38893262571409 47.241528243295626
138.49813454333867 6.065740302473576 83.31692788916705 49.11546635169807
132.62485227973022 7.13343149008962 78.6058586336105 46.88556215603002
119.15185129774122 7.643287398830329 69.18105413759515 42.32750976131569
102.21891500270294 7.285449821576237 58.14811113286052 36.785354048266214
84.66246897041239 6.433313760675137 47.12384408672583 31.105311123011397
68.18380445673418 5.49332061483655 37.01834150535667 25.672142336540965
53.46061713162104 4.634674907120755 28.213956375196645 20.611985849303643
40.32183459916775 3.888829944782158 20.465634872876155 15.967369781509431
28.973012515542173 3.2349777077221407 13.966299909478664 11.771734898341368
19.466136870163545 2.6453479568964866 8.731465324334424 8.089323588932643
11.925693027760925 2.1023321695851567 4.806112681796959 5.0172481763788035
6.44323577911832 1.6031830072349011 2.17674909812516 2.663303673758257
2.9959139883225356 1.1396723218162237 0.757998015346799 1.098243651159511
1.1632520114652523 0.7299795133516982 0.13592100578697336 0.2973514923265802
0.48087702334785126 0.45271625477168304 0.004808805262318647 0.023351963313849318
0.27365961022480395 0.27599799494870336 -0.0005263069455696612 -0.0018120777783296412
0.17010361719345646 0.17009680042978942 3.960330447626668e-07 6.4207306222634735e-06
0.08017069635238051 0.08017069635238051 0.0 0.0
0.03211149723615738 0.03211149723615738 0.0 0.0
0.01571833869344498 0.01571833869344498 0.0 0.0
0.05746448023548292 0.05746448023548292 0.0 0.0
0.14752646147166298 0.14752395914699126 1.22441077168008e-07 2.379883594554421e-06
0.2799865701459777 0.28306334063538247 -0.0007248688716756004 -0.0023519016177292653
0.5966987184889774 0.5225567280096252 0.018128993173774005 0.05601299730557852
1.586075244768953 0.8632809335481634 0.25634568167642496 0.46644862954436406
3.9153289380478538 1.306498515902451 1.0940183720625822 1.5148120500828206
8.121171546231029 1.8110234418241127 2.9324773027228197 3.3776708016840975
14.626430801530374 2.3977038397599175 6.132959749601676 6.095767212168776
23.53688068786482 3.04590266962357 10.867665229548901 9.623312788692347
34.76023212919589 3.7494973186814575 17.1456224611491 13.865112349365363
48.236821106257324 4.524911349758089 24.990601211881604 18.72130854461765
63.731320857191854 5.385324162406991 34.230577226904764 24.115419467880127
81.4031545437114 6.3430984645146165 45.07419308463539 29.985862994561334
100.74661258337355 7.365699309446811 57.10545581856742 36.27545745535933
121.20277576685282 8.23022973096235 70.14849676932477 42.82404926656573
141.11656419093464 8.41699027845471 83.49306760630468 49.206506306175264
156.93150918796664 7.486804809360842 94.91898093220549 54.525723446400285
164.31839302289296 6.101155753427673 100.93001944378118 57.287217825684124
159.23678896370467 6.5668471967525655 97.14277719643346 55.52716457051876
169.66085594814697 26.90924393501625 90.35123148420757 52.40038052892309
159.23678896366425 6.5668471967357185 97.14277719641726 55.527164570511374
164.31839302281048 6.101155753400616 100.93001944374319 57.2872178256666
156.9315091878947 7.4868048093689366 94.91898093215056 54.525723446375316
141.11656419084397 8.416990278460073 83.49306760623921 49.20650630614462
121.2027757667311 8.230229730946258 70.14849676925371 42.82404926653102
100.74661258325301 7.365699309438842 57.10545581849275 36.27545745532149
81.40315454361848 6.3430984645217325 45.074193084570304 29.98586299452648
63.731320857089734 5.385324162399106 34.230577226844574 24.11541946784598
48.23682110616945 4.524911349755034 24.99060121182874 18.721308544585685
34.760232129118606 3.7494973186746283 17.14562246110647 13.865112349337506
23.53688068780257 3.045902669618029 10.867665229515783 9.623312788668759
14.626430801488093 2.3977038397573023 6.1329597495797135 6.0957672121510775
8.121171546202769 1.811023441820007 2.932477302710558 3.377670801672207
3.9153289380328786 1.3064985159013092 1.0940183720559895 1.5148120500755804
1.5860752447625108 0.8632809335464465 0.25634568167446004 0.4664486295416034
0.5966987184871939 0.5225567280084876 0.018128993173555666 0.056012997305150615
0.2799865701454264 0.28306334063464206 -0.0007248688716596249 -0.0023519016175558953
0.14752646147145027 0.1475239591467817 1.2244107697319608e-07 2.3798835915387224e-06
0.05746448023539652 0.05746448023539652 0.0 0.0
0.015718338693284477 0.015718338693284477 0.0 0.0
0.007569461043162145 0.007569461043162145 0.0 0.0
0.03984615578855246 0.03984615578855246 0.0 0.0
0.12916987705329774 0.12916987705329774 0.0 0.0
0.2999717625088009 0.30399218610756173 -0.001160899986723092 -0.002859523612037661
0.7627813974224522 0.6048768654271999 0.043104743855106195 0.11479978814014616
2.109730777163557 0.997657763179019 0.4254355782561623 0.6866374357283769
4.923712960403684 1.4536223195209068 1.4929341427069807 1.9771564981757936
9.904426115086112 2.021617283028897 3.7647371774766225 4.118071654580598
17.42568012807064 2.700276121144929 7.538200162483763 7.18720384444195
27.719913047781443 3.4662922029253025 13.090846319368769 11.16277452548737
40.74303574647104 4.302852677120044 20.48036543031708 15.959817639033897
56.336647340122106 5.211507218411652 29.647932769528673 21.477207352181804
74.51731780309485 6.206040596139923 40.69199334642253 27.619283860532363
94.77687242710057 7.264864939053522 53.201645165398226 34.31036232264887
117.05389857765591 8.291646261594211 67.33771261761173 41.42453969844993
140.40791135199106 9.094436547748135 82.5524737294725 48.761001074770384
163.07202271026506 9.232799427650761 97.92932955308333 55.90989372953106
181.50006692212804 8.042713122438828 111.44948602100814 62.00786777868108
190.9961829697957 6.14797295718186 119.3812888042626 65.46692120835125
187.4484640000486 6.887346304801019 116.41715186072058 64.14396583452691
200.30395545443633 29.813541343086122 109.4017484216686 61.0886656896816
187.44846400002393 6.887346304804598 116.41715186070057 64.14396583451868
190.9961829697375 6.147972957196242 119.3812888042122 65.4669212083292
181.50006692201083 8.04271312241829 111.44948602094128 62.007867778651224
163.07202271013747 9.232799427636227 97.92932955300584 55.90989372949544
140.40791135188377 9.09443654776571 82.55247372938796 48.76100107473012
117.05389857754457 8.29164626161372 67.33771261752402 41.42453969840682
94.77687242697452 7.264864939039757 53.20164516532422 34.31036232261063
74.5173178029686 6.206040596124224 40.69199334635087 27.619283860493507
56.3366473400147 5.211507218402258 29.647932769466685 21.47720735214574
40.7430357463789 4.302852677109513 20.480365430267 15.959817639002402
27.719913047713156 3.466292202920917 13.090846319330968 11.162774525461272
17.42568012802131 2.7002761211412203 7.538200162458052 7.187203844422037
9.90442611505301 2.0216172830245074 3.764737177461466 4.118071654567036
4.923712960385484 1.4536223195184477 1.4929341426995997 1.977156498167438
2.109730777155286 0.9976577631771568 0.42543557825339023 0.6866374357247389
0.7627813974198956 0.6048768654258875 0.04310474385464434 0.11479978813936426
0.2999717625082787 0.3039921861069388 -0.001160899986704838 -0.0028595236119553077
0.12916987705319255 0.12916987705319255 0.0 0.0
0.039846155788501814 0.039846155788501814 0.0 0.0
0.0075694610431423235 0.0075694610431423235 0.0 0.0
0.003596419981673196 0.003596419981673196 0.0 0.0
0.02779963711338144 0.02779963711338144 0.0 0.0
0.11986092095363307 0.11986092095363307 0.0 0.0
0.3467936740733038 0.3448761029043178 -0.0005567792424655362 0.002474350411451218
1.0060962953436512 0.7085251037120246 0.09580758406038761 0.20176360757123868
2.698997829584306 1.1185647271033443 0.6241149772096705 0.9563181252712902
6.050077147123929 1.6004324306183646 1.9825645533265233 2.467080163179042
11.753465487837795 2.2300958963407176 4.64706201068115 4.876307580815924
20.319035689518834 3.008715935595081 9.025543839054102 8.284775914869659
31.995314635866396 3.9072197945822165 15.386797115183512 12.701297726100664
46.8291404613584 4.890356342029479 23.885793555374914 18.05299056395397
64.75902398671442 5.9562237847934405 34.57243081793413 24.230369383986833
85.34214293880052 7.095726349709786 47.116793620391256 31.129622968699522
108.57657261033795 8.237542742431305 61.71114372428312 38.627886143623485
133.71883578230052 9.245745841486162 77.9155738550364 46.55751608577808
159.6782748723908 9.881100394350247 95.16128182134852 54.635892656691965
184.72773730326418 9.882935989395751 112.43542006899611 62.40938124487228
205.9957930386875 8.88983383392465 127.93437186861209 69.1715873361508
218.19022259403957 6.297660582332629 138.2901281293185 73.60243388238844
217.80412179830762 6.972262560720145 137.57343502865092 73.25842420893643
234.06450465456228 31.825421390840447 131.51916585865413 70.71991740506773
217.80412179821985 6.972262560674457 137.57343502862187 73.25842420892359
218.19022259397616 6.297660582347957 138.2901281292635 73.60243388236466
205.99579303858323 8.889833833934915 127.9343718685322 69.17158733611612
184.72773730312787 9.882935989393431 112.43542006890331 62.40938124483107
159.6782748722579 9.881100394353947 95.16128182125495 54.635892656649105
133.71883578217327 9.245745841499042 77.91557385494153 46.557516085732715
108.57657261019386 8.23754274241891 61.71114372419523 38.627886143579694
85.34214293867394 7.09572634970965 47.11679362030861 31.12962296865567
64.75902398659707 5.956223784788813 34.572430817861964 24.23036938394628
46.82914046125847 4.890356342025457 23.885793555315253 18.05299056391776
31.995314635790926 3.9072197945753966 15.386797115142306 12.701297726073223
20.319035689463906 3.0087159355911552 9.025543839024882 8.284775914847867
11.753465487797381 2.230095896334247 4.64706201066287 4.876307580800268
6.050077147101783 1.6004324306151967 1.982564553317164 2.4670801631694217
2.6989978295747052 1.1185647271014578 0.6241149772061906 0.9563181252670575
1.0060962953405632 0.7085251037107028 0.0958075840596947 0.20176360757016532
0.34679367407250394 0.3448761029035929 -0.0005567792424985756 0.0024743504114098937
0.11986092095339745 0.11986092095339745 0.0 0.0
0.02779963711332042 0.02779963711332042 0.0 0.0
0.0035964199816603906 0.0035964199816603906 0.0 0.0
0.0011902767184963515 0.0011902767184963515 0.0 0.0
0.02065138326973717 0.02065138326973717 0.0 0.0
0.1278010089911214 0.1278010089911214 0.0 0.0
0.44310862495289116 0.4185647763967614 0.004968947769856458 0.01957490078627343
1.351033028226415 0.88352219068889 0.1645101672951484 0.30300067024237687
3.4460779541295388 1.431021775906643 0.8238504841882082 1.1912056940346862
7.376730262673295 2.123983648208016 2.3915592958973813 2.861187318567893
13.907856424564944 3.0848995960765104 5.361837259139174 5.461119569349264
23.654556734577188 4.370336647092813 10.165468907091261 9.11875118039313
37.031024377188835 5.987909987678721 17.178969202276306 13.864145187233806
54.115020360825014 7.913288195694456 26.569830518436007 19.631901646694597
74.63378659439041 10.106765761984732 38.21647960039618 26.31054123200945
98.45012083865629 12.491224039037263 52.184979700024954 33.77391709959411
125.05529220392995 14.918827022436723 68.25841382231205 41.878051359181256
153.49194679460274 17.02523545494399 86.06130088555167 50.40541045410696
182.18906614683422 18.28897854572724 104.88683647427148 59.01325112683558
208.95149474522327 18.25738320646061 123.46748056629971 67.2266309724629
231.4678518336095 17.053102229539782 140.06095008824533 74.35379951582453
246.8018797343786 15.22020173637762 152.14151981849133 79.44015817950965
242.4880342415615 7.164016657255801 154.7266259401839 80.5973916441219
328.8198340142015 97.54959029903452 151.98164592152864 79.28859779363829
242.48803424157958 7.164016657328327 154.72662594014503 80.59739164410621
246.8018797342611 15.220201736343146 152.14151981843253 79.44015817948535
231.4678518334636 17.053102229519858 140.06095008815743 74.35379951578649
208.9514947450848 18.25738320647216 123.4674805661958 67.22663097241691
182.18906614667338 18.288978545713352 104.88683647416936 59.01325112679055
153.49194679443485 17.025235454925127 86.06130088545046 50.40541045405934
125.05529220377805 14.918827022431326 68.2584138222139 41.878051359132805
98.45012083850807 12.491224039024743 52.1849796999354 33.77391709954799
74.6337865942578 10.106765761975323 38.21647960031702 26.310541231965455
54.115020360720735 7.913288195695081 26.56983051837007 19.631901646655585
37.03102437709793 5.987909987660783 17.178969202231926 13.864145187205217
23.65455673451172 4.370336647080821 10.165468907060198 9.118751180370714
13.90785642451917 3.0848995960691417 5.361837259118138 5.461119569331894
7.376730262648161 2.123983648204879 2.3915592958862857 2.8611873185569983
3.4460779541175244 1.4310217759034032 0.8238504841843537 1.1912056940297666
1.351033028221312 0.8835221906859925 0.1645101672942504 0.303000670241069
0.44310862495179265 0.41856477639613565 0.004968947769721595 0.019574900785935056
0.12780100899087773 0.12780100899087773 0.0 0.0
0.020651383269679673 0.020651383269679673 0.0 0.0
0.0011902767184761268 0.0011902767184761268 0.0 0.0
CELL_DATA 800
SCALARS Stress float 6
LOOKUP_TABLE default
173.14295254851402 -527.1310427692442 -182.11161180387066 -111.27441548043592 0.0 0.0
405.3942899250541 -90.0527093932956 115.59887076736038 53.94315109993462 0.0 0.0
425.32727448621773 6.869296521287436 130.0573439021415 -2.5155359205056547 0.0 0.0
484.44522680190823 -18.410951403601807 155.00448590768661 -16.06601289400917 0.0 0.0
563.5954649127714 -25.553518909234604 219.05140105464915 -11.671962235056414 0.0 0.0
640.138766551442 -22.61713743114369 289.68914074604453 -10.594788379875931 0.0 0.0
714.0890374970692 -17.45070817352419 341.5507347023984 -11.784658597396355 0.0 0.0
789.6391666441746 -3.569149080136725 389.32954267884685 -13.936062091711813 0.0 0.0
868.9183207637245 19.639920911783094 441.45962729767626 -15.903022033533354 0.0 0.0
950.9057473538935 50.5334458274927 498.39395571544975 -17.101911244129393 0.0 0.0
1033.3026814342902 86.31822591794989 557.8507436679777 -17.570683773136526 0.0 0.0
1114.6948664644635 125.61062775394078 618.4642145640889 -17.567012443559204 0.0 0.0
1195.3232568103426 167.60048837433635 679.9651326261869 -17.39455261311521 0.0 0.0
1276.0370081831288 212.8618747522107 743.0861451665268 -17.050469100899495 0.0 0.0
1357.2536308257231 261.8075374066839 808.2657760868988 -16.372767631198528 0.0 0.0
1438.0298052758815 313.6086970870758 874.6347063367948 -15.164414863544694 0.0 0.0
1515.8747120155929 366.18133945989314 939.911521128661 -13.353869842258854 0.0 0.0
1588.7437218444286 418.04151787317653 1002.3153411470905 -11.40630256657182 0.0 0.0
1657.9602438072275 471.34447899282134 1063.524849216911 -11.432763081789584 0.0 0.0
1768.416201203213 573.0933346386098 1169.1525243008134 -19.3891200238116 0.0 0.0
1768.4162012038582 573.0933346392894 1169.1525243011934 19.389120023865843 0.0 0.0
1657.9602438073177 471.34447899295003 1063.5248492168705 11.432763081781314 0.0 0.0
1588.743721844106 418.04151787292636 1002.3153411467922 11.406302566436445 0.0 0.0
1515.874712015772 366.1813394601845 939.9115211287406 13.353869842252047 0.0 0.0
1438.0298052775008 313.6086970888341 874.6347063379693 15.164414863609547 0.0 0.0
1357.253630826368 261.8075374074916 808.2657760874761 16.372767631294906 0.0 0.0
1276.0370081829342 212.8618747522118 743.0861451663945 17.05046910116235 0.0 0.0
1195.3232568086373 167.6004883728345 679.9651326249189 17.3945526131413 0.0 0.0
1114.6948664635022 125.61062775320909 618.4642145633284 17.56701244358132 0.0 0.0
1033.3026814325299 86.31822591644902 557.8507436666929 17.57068377330355 0.0 0.0
950.9057473538672 50.53344582773647 498.39395571538523 17.101911243976048 0.0 0.0
868.9183207640224 19.639920912362783 441.4596272978691 15.903022033591023 0.0 0.0
789.6391666450475 -3.5691490789603506 389.32954267933764 13.936062091660322 0.0 0.0
714.0890374968903 -17.45070817340749 341.55073470226483 11.784658597300544 0.0 0.0
640.1387665513847 -22.6171374309004 289.68914074592834 10.59478837976701 0.0 0.0
563.5954649125736 -25.55351890907337 219.05140105445182 11.671962235033888 0.0 0.0
484.4452268019102 -18.410951403296245 155.00448590769983 16.06601289398442 0.0 0.0
425.32727448616595 6.869296521562786 130.0573439022093 2.515535920650925 0.0 0.0
405.39428992519913 -90.05270939297857 115.59887076746261 -53.943151099915575 0.0 0.0
173.14295254909854 -527.1310427687903 -182.11161180335748 111.27441547992177 0.0 0.0
72.39811821101233 -552.6505361767659 -243.74718805595836 -162.80509991426885 0.0 0.0
285.69626823192533 -86.2246873162675 60.38919187031683 7.571205310738682 0.0 0.0
374.5200021117384 35.59730793669636 123.0623400035825 -9.515998784880551 0.0 0.0
449.9838043629718 -17.083179292618595 137.0107521998715 -36.71519829409544 0.0 0.0
536.474663071028 -25.43374228331217 195.99900374310735 -33.88429949766713 0.0 0.0
617.2006964493318 -23.040052778562888 271.4352681680122 -31.309469534402616 0.0 0.0
694.7505957250503 -17.02936094834 329.87291756153456 -32.97586271784551 0.0 0.0
771.2052721188404 -3.1487940953933844 379.58499717107526 -36.23439279392991 0.0 0.0
848.8266474716183 18.549639958958835 430.5149916223942 -39.096356069162056 0.0 0.0
927.2249867740788 46.430741381387236 484.2978184717721 -40.435522729626356 0.0 0.0
1004.7772486992264 78.17887062010686 539.3750677589959 -40.473598085971105 0.0 0.0
1081.0535749591584 112.69713477154787 595.0684262081161 -39.88979173288055 0.0 0.0
1156.3034039145978 150.17569188627726 651.6477979070638 -39.055410961893564 0.0 0.0
1231.274184940169 190.44081982617647 709.4261344317133 -37.97150450121938 0.0 0.0
1306.1260667009105 233.5164598090255 768.5100160529432 -36.347327478038615 0.0 0.0
1380.3704017322523 279.1008703794381 828.5150934829855 -33.81232176146416 0.0 0.0
1453.2447279628682 326.8006900143563 888.8564751863425 -30.414949262394344 0.0 0.0
1524.9575767941976 377.5588588995708 950.0812977453669 -27.303639043747562 0.0 0.0
1603.925443831077 440.98581716762254 1021.1405702013022 -26.370808434704045 0.0 0.0
1662.716896226403 491.02236211564195 1075.4593674214539 -27.887993029697743 0.0 0.0
1662.7168962261587 491.02236211542777 1075.4593674212574 27.887993029805433 0.0 0.0
1603.925443830679 440.9858171672788 1021.1405702010318 26.37080843474648 0.0 0.0
1524.9575767937765 377.5588588992054 950.0812977451155 27.303639043601194 0.0 0.0
1453.2447279610583 326.80069001265224 888.8564751849558 30.414949262503864 0.0 0.0
1380.370401733073 279.1008703804115 828.5150934834478 33.81232176155859 0.0 0.0
1306.1260667026488 233.51645981095294 768.5100160538962 36.34732747829365 0.0 0.0
1231.2741849400034 190.44081982620514 709.4261344314841 37.97150450130389 0.0 0.0
1156.3034039131894 150.17569188507383 651.6477979061749 39.055410961888 0.0 0.0
1081.0535749591488 112.69713477175759 595.0684262080201 39.88979173280855 0.0 0.0
1004.777248698845 78.17887061997072 539.3750677587926 40.473598086045385 0.0 0.0
927.2249867741027 46.430741381678786 484.2978184718228 40.43552272951561 0.0 0.0
848.8266474712267 18.549639958857057 430.51499162215913 39.09635606925154 0.0 0.0
771.2052721182391 -3.1487940957366902 379.5849971707207 36.23439279379927 0.0 0.0
694.7505957248544 -17.029360948218653 329.8729175613633 32.97586271786137 0.0 0.0
617.2006964497842 -23.040052777719843 271.43526816823015 31.30946953426948 0.0 0.0
536.4746630712376 -25.43374228273084 195.99900374315914 33.884299497702926 0.0 0.0
449.9838043628059 -17.083179292501338 137.01075219983326 36.71519829415798 0.0 0.0
374.52000211149016 35.59730793631361 123.06234000339812 9.51599878485348 0.0 0.0
285.69626823210416 -86.22468731574867 60.38919187053514 -7.571205310970646 0.0 0.0
72.39811821135683 -552.6505361764061 -243.74718805561952 162.80509991400504 0.0 0.0
16.011776864739176 -563.3111033304392 -271.9003972662925 -178.9951339275185 0.0 0.0
160.2373268082253 -73.25070301309285 26.095987138539723 -48.0327798810072 0.0 0.0
303.8833267238151 40.024664942696646 103.17239749995353 -34.53596108841619 0.0 0.0
405.99722066163673 -7.713507694767163 121.70864284549293 -57.61706779727193 0.0 0.0
500.9600213391884 -24.14878377863083 171.54658767481038 -58.09771065580333 0.0 0.0
590.5183793782431 -24.476932410966366 248.45454882962457 -53.55805190527015 0.0 0.0
671.3932547277242 -15.74180631720516 315.4995246409228 -54.54402242362456 0.0 0.0
748.2736549567813 -2.6513958740102765 367.32195287452817 -58.33063084027437 0.0 0.0
824.3998130187172 17.418400155978787 417.30801848446697 -61.663773888410766 0.0 0.0
899.1570078148504 42.013533336280844 467.8115044900842 -62.91964858629365 0.0 0.0
972.1138895149982 69.67163554586597 518.6148631003649 -62.53862171781934 0.0 0.0
1043.2809876400609 99.9258102531463 569.6581558867605 -61.403446461853434 0.0 0.0
1113.3334163115755 132.4706994402988 621.2013847297637 -60.01578004797613 0.0 0.0
1182.3491735540351 167.4327901416223 673.3829217551691 -58.22523597845038 0.0 0.0
1250.6500851066867 204.41169849284648 726.169729440225 -55.73317176349779 0.0 0.0
1318.6168021876756 243.83693698257576 779.9610418618331 -52.208310866923796 0.0 0.0
1387.0419386654914 287.0208256562492 835.7968830423172 -47.828050008246876 0.0 0.0
1458.2373514654225 337.15552901484557 896.4236926881865 -43.5853805753363 0.0 0.0
1525.5195551756633 388.5678320673123 955.7206389914334 -39.58138219269409 0.0 0.0
1573.9459943727727 427.33903802630937 999.255260934664 -34.96632651119947 0.0 0.0
1573.9459943731833 427.33903802676485 999.255260934921 34.96632651133572 0.0 0.0
1525.5195551746815 388.5678320663865 955.7206389906762 39.58138219290093 0.0 0.0
1458.237351465912 337.1555290154229 896.4236926882288 43.58538057542174 0.0 0.0
1387.0419386653616 287.02082565622965 835.796883042044 47.82805000828225 0.0 0.0
1318.6168021871194 243.8369369821532 779.9610418614293 52.20831086703228 0.0 0.0
1250.6500851063702 204.41169849266635 726.1697294399437 55.733171763464 0.0 0.0
1182.3491735523382 167.4327901401113 673.3829217538923 58.22523597849526 0.0 0.0
1113.3334163121244 132.47069944107312 621.2013847301394 60.01578004811464 0.0 0.0
1043.2809876392291 99.92581025251627 569.6581558863134 61.40344646178927 0.0 0.0
972.1138895134972 69.6716355445788 518.6148630994012 62.53862171777351 0.0 0.0
899.1570078131009 42.01353333475598 467.81150448893766 62.91964858626734 0.0 0.0
824.3998130178511 17.41840015537997 417.30801848387284 61.66377388844424 0.0 0.0
748.2736549561552 -2.6513958744077115 367.32195287409445 58.3306308400618 0.0 0.0
671.3932547274417 -15.741806317213971 315.499524640721 54.544022423534784 0.0 0.0
590.5183793778325 -24.47693241111918 248.45454882925833 53.55805190519544 0.0 0.0
500.9600213386662 -24.148783778857158 171.54658767447665 58.09771065583105 0.0 0.0
405.997220661026 -7.713507695366376 121.7086428451346 57.61706779700374 0.0 0.0
303.88332672377885 40.02466494241268 103.17239749985745 34.53596108834359 0.0 0.0
160.23732680846175 -73.25070301266211 26.095987138739886 48.03277988090899 0.0 0.0
16.011776864842574 -563.3111033302124 -271.90039726608177 178.99513392739948 0.0 0.0
-6.082900118330713 -554.1333112626859 -271.99403547639224 -181.0054709641875 0.0 0.0
90.63105022040709 -66.7340370567561 7.169103949095295 -95.35301585219449 0.0 0.0
237.26490481099944 36.0245622742313 81.98684012556922 -68.79419488120968 0.0 0.0
351.3621846599383 2.5945983507907187 106.54235837526022 -80.53872195206793 0.0 0.0
455.76637005003107 -22.3326866894433 146.13027579436005 -84.93658425398654 0.0 0.0
554.8630245545239 -24.117235669932064 221.1659111703814 -77.52117340260102 0.0 0.0
641.4903104155089 -15.545532905385926 295.47733326736557 -76.74110093741717 0.0 0.0
720.669198925189 -1.608420334952534 352.43926175856177 -80.29072806200652 0.0 0.0
794.9501578308452 16.0823776036854 401.3309157973197 -83.5794180493217 0.0 0.0
866.3047798604125 37.38943732346995 448.7610312405766 -84.56889743376489 0.0 0.0
934.8405482993564 61.05426150181091 495.4582754845278 -83.77255751067845 0.0 0.0
1001.1511003596783 86.8862181595345 541.909725063952 -82.16930801591651 0.0 0.0
1065.729146444987 114.66199016426744 588.3652246861972 -80.20332977562789 0.0 0.0
1129.0710108502599 144.19643333312774 635.0329540096948 -77.77802152985389 0.0 0.0
1190.9500944388703 174.95119467955868 681.5276845380095 -74.5858301996034 0.0 0.0
1252.408020181165 208.20234684404915 728.9854598284376 -70.40443225278733 0.0 0.0
1316.107165448435 246.4758071178215 779.994228569734 -65.38574046752053 0.0 0.0
1381.5098969242272 290.2628998926226 834.5697822987761 -59.68757611875809 0.0 0.0
1442.4074528567735 334.2260336390939 886.9686977727933 -52.37648620615292 0.0 0.0
1487.2279933666543 367.74144249810837 926.081408587208 -42.407182562178264 0.0 0.0
1487.227993366597 367.741442498114 926.0814085871638 42.40718256241048 0.0 0.0
1442.407452857159 334.22603363958183 886.9686977729752 52.37648620647621 0.0 0.0
1381.509896924408 290.2628998929187 834.5697822988886 59.687576118910826 0.0 0.0
1316.1071654487525 246.47580711819387 779.9942285700741 65.3857404674089 0.0 0.0
1252.40802017955 208.2023468425799 728.9854598272968 70.40443225298228 0.0 0.0
1190.9500944379533 174.95119467868017 681.5276845373235 74.58583019921504 0.0 0.0
1129.071010849999 144.19643333303196 635.0329540096321 77.77802152990226 0.0 0.0
1065.729146445069 114.6619901645937 588.3652246862056 80.2033297757633 0.0 0.0
1001.1511003599143 86.88621815998755 541.9097250640326 82.1693080158889 0.0 0.0
934.8405482977765 61.05426150034873 495.45827548342425 83.77255751041841 0.0 0.0
866.304779859622 37.38943732287899 448.76103123999343 84.56889743367736 0.0 0.0
794.9501578301633 16.082377603212393 401.33091579689477 83.57941804914749 0.0 0.0
720.669198923899 -1.608420336118499 352.4392617577516 80.29072806174895 0.0 0.0
641.4903104150502 -15.545532905438023 295.4773332670582 76.74110093757155 0.0 0.0
554.8630245544634 -24.11723566960764 221.16591117026263 77.52117340255924 0.0 0.0
455.7663700497821 -22.332686689284753 146.1302757942356 84.93658425391132 0.0 0.0
351.3621846595447 2.5945983503440395 106.54235837501798 80.53872195210387 0.0 0.0
237.26490481102508 36.02456227412029 81.9868401255436 68.79419488113282 0.0 0.0
90.63105022039535 -66.73403705671231 7.169103949104908 95.35301585192975 0.0 0.0
-6.082900118190594 -554.1333112624288 -271.9940354761555 181.00547096407234 0.0 0.0
-11.706164500551765 -532.70479596944 -256.2506852385313 -178.02164091755697 0.0 0.0
52.97295602182149 -61.43293728673715 -2.537994379474698 -132.22337803321554 0.0 0.0
180.48871776724357 28.596865198667885 62.725674889773444 -103.48630642005905 0.0 0.0
292.4429342376291 10.108974453599897 90.82836634523548 -104.74458869502983 0.0 0.0
399.09059148322604 -18.212994254965558 121.53087568953056 -113.17997867640358 0.0 0.0
508.633124281556 -23.35556887882523 189.50901394283625 -104.46755548390311 0.0 0.0
604.4572224152565 -15.557789360719678 269.4126121311369 -100.24313210090638 0.0 0.0
686.7291682498342 -1.0370357496725973 333.0719315964235 -102.18132986148406 0.0 0.0
759.9305680307803 14.804493370823145 382.290498619778 -104.86032961939436 0.0 0.0
828.0279293620107 32.60918291611069 426.80743430977986 -105.43629965223266 0.0 0.0
892.4068546734493 52.35262371799298 469.6143496320872 -104.1761472649896 0.0 0.0
953.6866115867134 73.7029403105225 511.38431991020286 -102.12748245061547 0.0 0.0
1012.9187251610531 96.57120484409009 552.7616008242343 -99.71637185488875 0.0 0.0
1070.412027222122 120.84668602593547 593.9070009156615 -96.63825472285951 0.0 0.0
1126.22436216789 145.82622685258949 634.5177796501506 -92.83296756789449 0.0 0.0
1181.4301718459367 172.5671643298604 675.6251128547665 -88.31603316353296 0.0 0.0
1237.9841013818086 203.6413037057576 719.4793789063349 -82.84029384816948 0.0 0.0
1296.8918305319287 240.08514834445464 767.1420616444074 -75.8410868607165 0.0 0.0
1353.5712079254931 278.0334278346021 814.4237155353028 -65.57831976691857 0.0 0.0
1398.763003234227 309.42752389332884 852.6447205678547 -50.84957827861756 0.0 0.0
1398.763003234703 309.4275238938421 852.6447205683218 50.84957827881055 0.0 0.0
1353.5712079266334 278.03342783587203 814.423715536156 65.57831976730463 0.0 0.0
1296.8918305328862 240.08514834560975 767.1420616448665 75.84108686113348 0.0 0.0
1237.984101381935 203.6413037059803 719.4793789060371 82.8402938480993 0.0 0.0
1181.4301718454371 172.56716432955733 675.6251128542881 88.31603316379099 0.0 0.0
1126.2243621670768 145.8262268518793 634.5177796494247 92.832967567779 0.0 0.0
1070.4120272205982 120.84668602458584 593.9070009144649 96.6382547229816 0.0 0.0
1012.9187251599144 96.5712048432058 552.7616008234918 99.71637185506299 0.0 0.0
953.6866115861213 73.70294031009726 511.38431990978336 102.12748245052697 0.0 0.0
892.4068546730927 52.35262371781624 469.6143496317668 104.17614726491504 0.0 0.0
828.0279293616951 32.60918291618165 426.80743430957284 105.43629965244011 0.0 0.0
759.9305680302965 14.804493370533095 382.2904986194782 104.8603296192862 0.0 0.0
686.7291682499022 -1.037035749255793 333.07193159639206 102.1813298615104 0.0 0.0
604.4572224156926 -15.557789359719337 269.41261213138097 100.2431321011589 0.0 0.0
508.63312428084777 -23.355568879367915 189.50901394229695 104.46755548369677 0.0 0.0
399.09059148247445 -18.212994255701588 121.53087568905428 113.17997867615254 0.0 0.0
292.4429342371361 10.10897445286836 90.82836634487786 104.74458869487526 0.0 0.0
180.4887177670915 28.596865198334285 62.725674889627726 103.48630641983274 0.0 0.0
52.97295602170139 -61.43293728682523 -2.537994379537151 132.223378033002 0.0 0.0
-11.706164500455202 -532.7047959692297 -256.2506852382979 178.021640917386 0.0 0.0
-9.881461522189355 -502.99230164780977 -231.04262615376535 -173.8012019655 0.0 0.0
31.543792322067187 -55.75749565359253 -7.264158497785939 -159.8175334468416 0.0 0.0
132.72735244711765 20.677243670988215 46.02137883543175 -133.93287639221847 0.0 0.0
233.56828984414383 13.340968166967 74.06880094474968 -129.16681212007157 0.0 0.0
332.21273902178365 -11.087792776563319 99.08937021078194 -139.81343074156425 0.0 0.0
446.13217843417476 -22.386953713015526 153.86485979982712 -134.96482250723668 0.0 0.0
554.6071968631654 -14.620613515063608 235.42909534337093 -125.89484947808992 0.0 0.0
643.1863739637006 -1.5975764055106687 306.25643623591407 -124.58693703194126 0.0 0.0
717.7883144573509 13.207587666410603 358.8410715910653 -125.7673143088555 0.0 0.0
783.2109681008881 27.825013550378017 401.3548046395341 -125.52559173215627 0.0 0.0
843.373913298901 43.52940315201145 440.3007745213708 -123.76316989176568 0.0 0.0
899.7901753526062 60.481201039771435 477.56831401717847 -121.28491561306865 0.0 0.0
953.391908062446 78.41969266612837 513.7363734579693 -118.4603930211891 0.0 0.0
1005.1919858286809 97.30983046918873 549.3748446748637 -114.95784937695215 0.0 0.0
1055.559915187515 117.00376469487507 584.6560692889885 -110.58898361510624 0.0 0.0
1103.8451839357667 137.3531695462467 619.1706520726655 -105.62327040520981 0.0 0.0
1152.2087343602425 159.6949379818775 654.6097135366024 -100.00767945091387 0.0 0.0
1203.4399867829666 187.17445107906593 693.9549701350026 -92.31879273228824 0.0 0.0
1256.7358254368257 219.4409213838594 736.6777899120103 -79.81378796890613 0.0 0.0
1305.3332134407 250.68776134634098 776.4832383766108 -61.003523855312835 0.0 0.0
1305.3332134409939 250.68776134667627 776.4832383767503 61.00352385553316 0.0 0.0
1256.7358254375 219.44092138466846 736.677789912525 79.81378796912011 0.0 0.0
1203.4399867837105 187.17445107989715 693.9549701357391 92.31879273237774 0.0 0.0
1152.208734360225 159.69493798183942 654.6097135367538 100.00767945061207 0.0 0.0
1103.845183934192 137.35316954481988 619.1706520717022 105.62327040534018 0.0 0.0
1055.559915187184 117.00376469463373 584.6560692887927 110.58898361505827 0.0 0.0
1005.1919858281511 97.30983046889173 549.3748446745747 114.957849377151 0.0 0.0
953.3919080633538 78.41969266737723 513.7363734585956 118.4603930214525 0.0 0.0
899.7901753525665 60.481201039956346 477.56831401716346 121.28491561307806 0.0 0.0
843.3739132982631 43.52940315153299 440.300774520959 123.76316989167931 0.0 0.0
783.2109681001978 27.825013549940792 401.354804639125 125.5255917321537 0.0 0.0
717.7883144575211 13.207587666744345 358.84107159107305 125.76731430867238 0.0 0.0
643.1863739639176 -1.5975764049791081 306.2564362360202 124.5869370318845 0.0 0.0
554.6071968627541 -14.620613515279679 235.4290953429636 125.8948494779101 0.0 0.0
446.1321784337599 -22.38695371311031 153.86485979955262 134.96482250716198 0.0 0.0
332.2127390214829 -11.087792776544427 99.08937021070302 139.813430741477 0.0 0.0
233.56828984388224 13.340968166763108 74.06880094461147 129.16681211995055 0.0 0.0
132.72735244707707 20.677243670922028 46.02137883539972 133.93287639200497 0.0 0.0
31.54379232209206 -55.75749565322778 -7.2641584976690154 159.8175334466741 0.0 0.0
-9.88146152196731 -502.992301647418 -231.04262615343825 173.80120196539733 0.0 0.0
-4.5156344063887275 -466.6560563301557 -199.73279346858902 -169.9710153023739 0.0 0.0
17.73349277791487 -50.33390241056179 -9.77992069425245 -179.35309766615848 0.0 0.0
91.2106240955301 13.541133512726741 31.424909315302912 -158.2325989860313 0.0 0.0
175.0107448703144 14.398434414449724 56.82324540680841 -151.94178684227316 0.0 0.0
259.3301568925124 -3.556550696842996 77.95924203268247 -162.67812923876568 0.0 0.0
367.44010693889413 -18.695976900152196 117.78461245411067 -167.16667211767947 0.0 0.0
486.5253367485665 -14.34111222361969 191.95993534029105 -155.41943959255866 0.0 0.0
586.4618765535938 -1.9325620045349172 269.6884067469388 -148.2973197947086 0.0 0.0
664.5470548802938 10.7526691934404 327.68213890967115 -146.67521417764985 0.0 0.0
729.1922888669212 22.88067061357957 370.6511200835117 -145.0400642654538 0.0 0.0
785.3590524324804 34.575682698869954 406.19928870169963 -142.5504714916061 0.0 0.0
837.0069840967174 47.34641293888538 439.235623460776 -139.6190264319084 0.0 0.0
884.9011670606858 60.315657634789574 470.19435758539686 -136.47065298262007 0.0 0.0
930.5061473897038 73.77388609755587 500.0902669349949 -132.71030979284222 0.0 0.0
975.1233339156917 88.09536936528212 529.8274010109162 -127.92842236695216 0.0 0.0
1018.229548607314 102.98694352765025 559.0984251052164 -122.39264843787852 0.0 0.0
1057.4962466587203 116.2699188586633 585.5760971408882 -116.54674687763989 0.0 0.0
1098.4704628151874 132.4130963455397 614.1390595998994 -109.05039182262641 0.0 0.0
1147.8334631981668 157.2016727222993 651.0934324792813 -95.71697953054685 0.0 0.0
1202.9207621936641 189.8161520678279 694.7297359483592 -73.91989377347785 0.0 0.0
1202.920762193929 189.816152068147 694.7297359483717 73.91989377366637 0.0 0.0
1147.8334631961116 157.20167272035474 651.0934324777973 95.71697953072876 0.0 0.0
1098.470462814618 132.41309634505814 614.1390595993522 109.05039182278121 0.0 0.0
1057.4962466591892 116.269918859303 585.5760971409904 116.54674687779107 0.0 0.0
1018.2295486075427 102.98694352831728 559.0984251051974 122.39264843835633 0.0 0.0
975.1233339151577 88.09536936487541 529.8274010104367 127.92842236697263 0.0 0.0
930.5061473886167 73.77388609652581 500.09026693419105 132.71030979270247 0.0 0.0
884.9011670599945 60.315657634328375 470.1943575849221 136.47065298281382 0.0 0.0
837.0069840963603 47.34641293877513 439.23562346054746 139.61902643196035 0.0 0.0
785.3590524318688 34.57568269853178 406.19928870123846 142.55047149166825 0.0 0.0
729.1922888669709 22.880670614019635 370.6511200835769 145.0400642656011 0.0 0.0
664.5470548796488 10.752669192833224 327.6821389092467 146.67521417733815 0.0 0.0
586.4618765522412 -1.93256200577612 269.68840674599494 148.29731979459027 0.0 0.0
486.525336747653 -14.341112224346254 191.95993533962636 155.41943959244463 0.0 0.0
367.4401069385581 -18.69597690019993 117.78461245389772 167.16667211751263 0.0 0.0
259.3301568923474 -3.5565506967653944 77.95924203265882 162.67812923856937 0.0 0.0
175.0107448701306 14.398434414266866 56.82324540670321 151.94178684202518 0.0 0.0
91.21062409542795 13.541133512636259 31.42490931524576 158.23259898569165 0.0 0.0
17.733492777850195 -50.333902410550365 -9.779920694268581 179.35309766591655 0.0 0.0
-4.515634406355858 -466.6560563298439 -199.7327934683452 169.97101530234204 0.0 0.0
1.054965887010617 -425.0449293304762 -166.3555411435093 -167.47252570309462 0.0 0.0
5.63422088479643 -45.97288515551011 -12.1018772584281 -190.99848377724365 0.0 0.0
53.44537420714149 7.911820799835199 18.40864128472139 -176.30718423808096 0.0 0.0
117.23376093784937 15.26982185757047 39.777256406770846 -170.90830714360976 0.0 0.0
184.48903582266144 1.8113730815639046 56.58962163460554 -182.15297721572074 0.0 0.0
270.9225899773198 -11.131921836014735 83.45998875547137 -194.9609201877548 0.0 0.0
389.92361236666045 -12.867910548682861 140.10377478320066 -189.6350480575317 0.0 0.0
506.51480406329574 -2.812378032727727 217.80123304111612 -175.69873447846336 0.0 0.0
594.0169143347891 7.960703736084542 283.5974948523916 -168.404308560448 0.0 0.0
659.3840235764128 17.40312574881179 329.86768235742414 -164.2311564244407 0.0 0.0
712.960941723941 25.422723832612117 364.0885362461663 -160.771402567002 0.0 0.0
759.5877803295992 34.1656029866452 393.27137226108806 -157.20724073698761 0.0 0.0
801.6553604515634 42.5603128291259 419.3387932591329 -153.65824650319837 0.0 0.0
840.6663499530736 50.4875267386785 443.33775325365417 -149.83614702646045 0.0 0.0
878.8425241884335 58.88788030329192 466.95763987115595 -145.05458575829397 0.0 0.0
917.1735765020969 68.68170753486606 491.29408945279283 -138.83932326919356 0.0 0.0
951.280461375262 75.98979803750825 512.3783250156338 -132.19854712429583 0.0 0.0
978.7233528278583 77.76312904629305 527.156914749571 -125.45994831735689 0.0 0.0
1018.6376786597605 89.65427514623849 552.79709353887 -113.60855802832896 0.0 0.0
1082.8447833109221 124.17624283876776 601.7179228337599 -91.17388564510236 0.0 0.0
1082.8447833111063 124.17624283910237 601.7179228341062 91.17388564534711 0.0 0.0
1018.6376786600472 89.65427514646706 552.7970935390815 113.60855802840587 0.0 0.0
978.7233528279809 77.76312904683135 527.1569147496518 125.45994831788269 0.0 0.0
951.2804613748683 75.98979803720505 512.3783250151912 132.198547124348 0.0 0.0
917.173576503516 68.68170753664532 491.29408945378094 138.8393232693869 0.0 0.0
878.8425241898077 58.88788030494345 466.9576398720644 145.05458575843423 0.0 0.0
840.6663499532048 50.48752673906833 443.33775325370664 149.83614702661092 0.0 0.0
801.6553604499837 42.56031282766119 419.33879325813643 153.658246503177 0.0 0.0
759.5877803291125 34.16560298615545 393.2713722607056 157.2072407367774 0.0 0.0
712.9609417240982 25.42272383298723 364.0885362462685 160.77140256689708 0.0 0.0
659.3840235752922 17.403125747666095 329.86768235662123 164.23115642419816 0.0 0.0
594.0169143344374 7.960703736075587 283.5974948521301 168.4043085605623 0.0 0.0
506.51480406397627 -2.8123780309421065 217.80123304166185 175.69873447893136 0.0 0.0
389.92361236639385 -12.867910548439642 140.10377478307103 189.63504805752495 0.0 0.0
270.92258997722195 -11.131921835589187 83.4599887555321 194.96092018760663 0.0 0.0
184.4890358221312 1.8113730807142154 56.589621634195254 182.152977215488 0.0 0.0
117.23376093739203 15.269821856688932 39.77725640637501 170.9083071433025 0.0 0.0
53.44537420711731 7.911820799931374 18.408641284746537 176.30718423791402 0.0 0.0
5.6342208848733275 -45.97288515530841 -12.101877258345876 190.99848377714017 0.0 0.0
1.054965887039792 -425.04492933031486 -166.35554114331083 167.47252570289288 0.0 0.0
3.748557859639881 -378.8950080061687 -134.77842400241383 -164.98629795849857 0.0 0.0
-9.009176766992061 -44.01512786108462 -15.914202438233412 -196.63389614512977 0.0 0.0
17.732329663319824 4.442403709293863 6.65902090510192 -188.322120553858 0.0 0.0
60.92040430504589 16.44249120652585 23.248448182751684 -185.12851547224878 0.0 0.0
107.5528349881752 6.143415148677788 34.54574317612779 -197.29559337748123 0.0 0.0
163.9284467512506 -3.7425679381449317 50.308222977892136 -214.8675476553591 0.0 0.0
255.93267934410068 -6.545909720565693 84.80853177998755 -221.90944353859646 0.0 0.0
378.84520781983156 -2.9947583746017212 145.0643947839955 -209.97432161513987 0.0 0.0
485.3265504365938 5.065772527694481 213.43026857949047 -193.8844998553212 0.0 0.0
557.4358124346819 11.14461161044214 266.12285969299836 -184.1189266175441 0.0 0.0
609.2932239440566 16.56567814304475 303.074290576719 -178.53435473972766 0.0 0.0
650.7068323847476 20.817118559508174 329.98835483860535 -174.1987899073198 0.0 0.0
686.5827801137129 25.001922312974287 352.18914571565347 -170.11444896877936 0.0 0.0
718.585722020131 27.928117070492178 370.8366716887781 -166.12603149722815 0.0 0.0
748.9798466562302 29.95460325774164 387.67627400893394 -161.60341956429374 0.0 0.0
780.8439583778273 32.85444814732466 405.36507437486625 -155.5881442586631 0.0 0.0
815.1201151582038 37.347068257015025 425.04164231229004 -147.427525550158 0.0 0.0
838.0747361198983 31.784118318190906 434.36597845342874 -139.8788463410939 0.0 0.0
854.0946034627198 15.565563370273026 434.04226405602327 -132.57564459237838 0.0 0.0
926.5795349052036 47.31630267903395 484.9516175755832 -115.63367682400111 0.0 0.0
926.5795349065816 47.316302680459216 484.95161757641876 115.63367682420116 0.0 0.0
854.094603462282 15.565563370115797 434.0422640557732 132.5756445928316 0.0 0.0
838.0747361207818 31.78411831934426 434.36597845411353 139.87884634139198 0.0 0.0
815.1201151593158 37.34706825844205 425.0416423132367 147.42752555048764 0.0 0.0
780.8439583772529 32.85444814690891 405.36507437452406 155.5881442587492 0.0 0.0
748.979846655426 29.95460325706398 387.67627400844253 161.60341956443 0.0 0.0
718.585722019894 27.92811707041139 370.83667168868504 166.12603149725146 0.0 0.0
686.5827801141071 25.00192231360103 352.189145715883 170.11444896891288 0.0 0.0
650.7068323846838 20.81711855951852 329.9883548384975 174.1987899072234 0.0 0.0
609.2932239442484 16.565678143175575 303.0742905767593 178.53435473952624 0.0 0.0
557.4358124344475 11.144611610201693 266.1228596927924 184.11892661737193 0.0 0.0
485.3265504355099 5.0657725264971205 213.43026857870512 193.8844998551666 0.0 0.0
378.8452078191606 -2.994758375143448 145.06439478350134 209.97432161504898 0.0 0.0
255.93267934389218 -6.54590972036584 84.80853177991291 221.9094435384768 0.0 0.0
163.9284467512392 -3.7425679377630194 50.30822297799341 214.8675476551062 0.0 0.0
107.55283498839117 6.143415149164921 34.54574317634063 197.29559337741796 0.0 0.0
60.920404305229425 16.442491207172868 23.2484481830036 185.12851547207956 0.0 0.0
17.732329663441963 4.4424037096404145 6.659020905243858 188.32212055363522 0.0 0.0
-9.009176766997934 -44.01512786096976 -15.914202438203615 196.6338961449342 0.0 0.0
3.7485578596635634 -378.89500800584506 -134.77842400221093 164.98629795840273 0.0 0.0
2.438962185373711 -328.94040688008727 -106.82742422839708 -160.4011941625574 0.0 0.0
-27.684985426608222 -45.2517923383371 -21.893312412438192 -198.16397225242412 0.0 0.0
-16.77027062009701 3.335073499577275 -4.033006775151091 -195.21721567583023 0.0 0.0
6.284471856523178 17.701791189738604 7.215316582092008 -194.16573573771694 0.0 0.0
29.862363988133062 10.72590491846358 12.322955120827665 -206.25504320548498 0.0 0.0
52.64578164150082 1.9980979635600775 17.068770357746434 -226.1363211555298 0.0 0.0
86.82839612119126 -0.9751977317146476 27.94527660030526 -240.8813281542026 0.0 0.0
152.8586790800352 1.2971534553293917 52.15604539647433 -241.69942824693504 0.0 0.0
245.4982270928956 5.514514461385335 90.86271650563368 -226.40396949122666 0.0 0.0
328.4532834277341 7.158640675862181 134.23849461974504 -209.36750417464953 0.0 0.0
386.54429673617403 8.485188244589892 172.76163322225023 -197.32634046103087 0.0 0.0
423.3675342203535 8.654241544706863 200.80936752068342 -190.2113894403947 0.0 0.0
450.33162225777033 8.500624238668394 221.87436238867275 -185.00996219822895 0.0 0.0
473.28104400603075 6.1285551171012855 237.52985139038248 -180.51856604436384 0.0 0.0
496.58057794541963 1.7905111729348562 250.00625499308438 -176.17578982716944 0.0 0.0
525.1172739933962 -3.516137568281181 262.5159832631179 -171.26924755445995 0.0 0.0
563.2255101121374 -6.353905703188644 279.7500306934292 -163.8965315559494 0.0 0.0
609.3973168575617 -5.840349789504728 302.77914024659 -152.9017745961043 0.0 0.0
623.7337305926301 -40.204815877285625 293.49352858272687 -145.68335430606177 0.0 0.0
664.881051625425 -65.877510399774 297.7107912561049 -147.8958648827456 0.0 0.0
664.8810516268226 -65.87751039818033 297.71079125708013 147.89586488285624 0.0 0.0
623.7337305928035 -40.20481587679092 293.4935285829757 145.68335430663205 0.0 0.0
609.3973168569706 -5.840349789989659 302.7791402461956 152.90177459644573 0.0 0.0
563.2255101102032 -6.353905705874297 279.7500306918065 163.8965315559006 0.0 0.0
525.1172739947574 -3.516137567078772 262.51598326382833 171.26924755416786 0.0 0.0
496.5805779461016 1.7905111742940676 250.0062549937108 176.1757898273724 0.0 0.0
473.2810440060059 6.128555116315283 237.529851390167 180.5185660440644 0.0 0.0
450.3316222573985 8.5006242381112 221.87436238842162 185.00996219824484 0.0 0.0
423.3675342201871 8.654241544169793 200.80936752041615 190.21138944025518 0.0 0.0
386.54429673622155 8.485188244835314 172.7616332222496 197.32634046101697 0.0 0.0
328.4532834283394 7.158640677238225 134.23849462022022 209.36750417467675 0.0 0.0
245.49822709298354 5.514514461958598 90.8627165057636 226.40396949132685 0.0 0.0
152.85867907963188 1.2971534549793589 52.1560453962284 241.6994282469737 0.0 0.0
86.82839612084808 -0.9751977323938466 27.945276599995367 240.88132815399703 0.0 0.0
52.64578164139079 1.998097963263727 17.068770357625468 226.1363211553257 0.0 0.0
29.86236398833793 10.725904918845558 12.322955121004101 206.25504320523652 0.0 0.0
6.284471856507711 17.701791189754026 7.21531658209205 194.16573573744756 0.0 0.0
-16.77027061994395 3.3350734999051657 -4.033006775007541 195.21721567560405 0.0 0.0
-27.68498542652575 -45.251792338137804 -21.893312412359144 198.16397225227277 0.0 0.0
2.4389621852513166 -328.9404068798606 -106.82742422830185 160.40119416237417 0.0 0.0
-7.832248802493828 -277.32914226930734 -87.13771826899169 -151.50419316522473 0.0 0.0
-48.020194070333716 -47.86723484214998 -28.7885061818007 -197.6079538199612 0.0 0.0
-50.40512648671364 3.6429832947639276 -14.064643796136025 -197.70749262854406 0.0 0.0
-46.700305524070856 18.831452314833918 -8.42048450068743 -197.7728757426145 0.0 0.0
-46.892639469696554 15.36485387399754 -9.650400842279975 -208.42222000852098 0.0 0.0
-59.5861417713073 7.304813234280229 -16.440920373233595 -227.04525267969143 0.0 0.0
-90.3420549238408 2.572100638006776 -28.633565632428166 -241.0496484298187 0.0 0.0
-154.09249053494003 -0.8172138487231617 -52.481934409842225 -241.93319204797356 0.0 0.0
-245.3846319135224 -5.2306473387566115 -90.7632716262058 -226.5285277998834 0.0 0.0
-328.15920853139824 -6.5891940573778385 -133.9416796873619 -209.34212598011442 0.0 0.0
-386.8314179919967 -6.808290744725639 -172.15393342834383 -197.11410838334132 0.0 0.0
-425.4268336881793 -7.153603175215181 -200.98653176982148 -189.731795766472 0.0 0.0
-455.0588058163637 -10.187261099131433 -224.58780799406514 -184.78962804456918 0.0 0.0
-478.2657766306555 -16.330027855904177 -244.8904414838049 -181.68946657563728 0.0 0.0
-493.05043322731814 -25.56901364320379 -262.03151100537457 -180.2690706697512 0.0 0.0
-496.0075591427726 -36.839541398470175 -275.0622670202576 -179.98903113571993 0.0 0.0
-478.34128045882926 -47.2742889927307 -280.5710217930212 -179.7647725828623 0.0 0.0
-410.81214057881226 -39.45507011910837 -262.10476504366414 -179.4095504645805 0.0 0.0
-229.93335038358367 -42.44938112793821 -204.53366417212288 -182.48023443769165 0.0 0.0
-35.40852368434969 -175.5060909366535 -74.81435724101655 -181.14019098982706 0.0 0.0
-35.40852368478187 -175.50609093766263 -74.81435724135366 181.14019099002928 0.0 0.0
-229.93335038280605 -42.44938112661373 -204.53366417151926 182.48023443820432 0.0 0.0
-410.81214057916924 -39.45507011941902 -262.10476504389925 179.40955046479115 0.0 0.0
-478.34128045889025 -47.274288993979326 -280.5710217933071 179.7647725831978 0.0 0.0
-496.00755914258036 -36.839541397580405 -275.06226701990994 179.98903113546555 0.0 0.0
-493.0504332265384 -25.569013642289804 -262.0315110048322 180.26907066962548 0.0 0.0
-478.26577663025705 -16.33002785560828 -244.89044148351567 181.6894665755982 0.0 0.0
-455.05880581704696 -10.187261100481038 -224.58780799460038 184.78962804488086 0.0 0.0
-425.4268336879466 -7.15360317592895 -200.98653176985428 189.7317957665785 0.0 0.0
-386.83141799137167 -6.808290744511993 -172.15393342793342 197.11410838333256 0.0 0.0
-328.15920853061573 -6.589194057214378 -133.9416796869058 209.34212597999 0.0 0.0
-245.38463191293386 -5.23064733896825 -90.76327162601387 226.52852780005873 0.0 0.0
-154.09249053426302 -0.8172138484667695 -52.481934409526595 241.93319204802947 0.0 0.0
-90.34205492350085 2.572100637950557 -28.63356563232334 241.0496484296826 0.0 0.0
-59.586141770907346 7.304813234699969 -16.440920372984706 227.04525267947665 0.0 0.0
-46.89263946996142 15.364853873300941 -9.650400842567496 208.42222000834533 0.0 0.0
-46.70030552422364 18.83145231419782 -8.420484500925511 197.77287574252506 0.0 0.0
-50.405126486622336 3.642983294813255 -14.064643796096233 197.7074926284308 0.0 0.0
-48.02019407027802 -47.867234842123636 -28.788506181785596 197.6079538197828 0.0 0.0
-7.832248802624463 -277.3291422689769 -87.13771826893037 151.50419316506026 0.0 0.0
-21.500706063246994 -227.1807469136728 -74.6010792838792 -138.75474627343104 0.0 0.0
-66.21942785501523 -48.573949060765365 -34.46191325738356 -194.24193984290036 0.0 0.0
-83.19285434443043 3.9763991767085867 -23.838181610954784 -196.3531249438544 0.0 0.0
-98.01233763191387 19.83128054525952 -23.614278321173902 -196.10608492118388 0.0 0.0
-121.85898893434873 19.178575452036064 -31.43697502706781 -203.58926721743484 0.0 0.0
-169.41463577222743 12.521982995997833 -49.70022304129154 -217.07260587437315 0.0 0.0
-257.32254596843245 8.028781975647496 -85.18288317044096 -222.90998267015948 0.0 0.0
-378.31959729446896 3.3809843853757684 -144.95352265530744 -210.60450908315295 0.0 0.0
-484.84328307858135 -4.794364139102164 -213.15822161899106 -194.09385728615803 0.0 0.0
-556.974225928303 -10.554039989683005 -265.6847301513786 -184.07238133923073 0.0 0.0
-608.7931692410698 -15.25396296294933 -302.26063976866055 -178.16011702953034 0.0 0.0
-651.0030380351743 -19.46651575382171 -329.4344438263233 -173.3215280696739 0.0 0.0
-689.244640571807 -26.323242939320494 -353.93583173717445 -169.30629918676968 0.0 0.0
-725.090264434619 -36.56013304535142 -378.06648400448125 -167.1542958796819 0.0 0.0
-758.523316996464 -50.31460710957484 -402.50851848943216 -167.1779516395211 0.0 0.0
-787.2415835968621 -66.15965990722097 -425.6502287281579 -169.27580382357738 0.0 0.0
-806.2324045316884 -80.69951977903838 -443.3983999372005 -173.96832945224992 0.0 0.0
-814.4767348632004 -93.86318418613291 -454.87301738436037 -181.27364001137926 0.0 0.0
-845.6098962969577 -146.64570763511932 -498.2530496606633 -190.91793573892764 0.0 0.0
-870.9957122207787 -243.83252236803204 -561.0878886496697 -209.43984147463087 0.0 0.0
-870.9957122203684 -243.83252236750593 -561.0878886493762 209.43984147470655 0.0 0.0
-845.6098962953915 -146.64570763374047 -498.2530496597259 190.917935739277 0.0 0.0
-814.4767348621689 -93.86318418501594 -454.87301738372895 181.27364001152125 0.0 0.0
-806.2324045313544 -80.69951977907044 -443.3983999371023 173.9683294525646 0.0 0.0
-787.2415835946681 -66.15965990464946 -425.6502287265242 169.2758038233422 0.0 0.0
-758.5233169956861 -50.314607108906586 -402.50851848888703 167.17795163946695 0.0 0.0
-725.0902644347898 -36.56013304586767 -378.06648400470897 167.15429587975171 0.0 0.0
-689.2446405711901 -26.3232429388044 -353.9358317367613 169.30629918671107 0.0 0.0
-651.0030380344843 -19.46651575344613 -329.4344438258903 173.3215280697945 0.0 0.0
-608.7931692405539 -15.253962962484565 -302.26063976819773 178.1601170293687 0.0 0.0
-556.9742259280736 -10.554039990014019 -265.6847301512647 184.07238133925588 0.0 0.0
-484.8432830784293 -4.794364139631945 -213.15822161890577 194.09385728642636 0.0 0.0
-378.3195972940321 3.3809843850264407 -144.95352265511755 210.6045090832898 0.0 0.0
-257.3225459678157 8.028781975777674 -85.18288317013327 222.9099826700915 0.0 0.0
-169.4146357720827 12.521982995447072 -49.700223041399006 217.07260587422732 0.0 0.0
-121.85898893437445 19.178575451591744 -31.436975027208376 203.58926721729213 0.0 0.0
-98.01233763202015 19.831280544790364 -23.614278321347825 196.10608492111945 0.0 0.0
-83.19285434453623 3.9763991763790822 -23.838181611088483 196.3531249437127 0.0 0.0
-66.21942785508156 -48.57394906091871 -34.46191325745533 194.2419398427799 0.0 0.0
-21.50070606324368 -227.1807469134967 -74.60107928384261 138.75474627339352 0.0 0.0
-28.747951536607943 -179.97573505206296 -62.61710597660126 -123.69232749183283 0.0 0.0
-81.2445904178542 -46.718606530418064 -38.38938414349424 -187.06837608181286 0.0 0.0
-114.70527290006783 3.9648643871961777 -33.29976863443707 -191.0557094042376 0.0 0.0
-147.58427991496382 20.355669677622718 -38.43684566334646 -189.21378743744083 0.0 0.0
-194.29362401544768 21.86566444042075 -52.97496593707011 -192.3559895979048 0.0 0.0
-272.554103470656 18.635557926787506 -82.69503893838517 -198.18928754875995 0.0 0.0
-388.6260904637021 14.251871423550138 -139.70401374813787 -191.25165216694825 0.0 0.0
-505.57872813305175 3.223427750492746 -217.3193612110578 -176.34305621326513 0.0 0.0
-593.6985484862373 -7.790869664001761 -283.3849937944413 -168.50237738726727 0.0 0.0
-659.0425371524545 -16.97715060328619 -329.5332028864504 -164.2033102468614 0.0 0.0
-712.5811932484933 -24.472668792721635 -363.4638011079611 -160.36540227221096 0.0 0.0
-759.6883792969782 -33.02469105031969 -392.72397376181567 -156.07624696047628 0.0 0.0
-803.6516238118187 -43.35214425204214 -420.57265221322314 -152.2429524112523 0.0 0.0
-846.4340999302583 -57.24284093991059 -449.34557246447264 -150.08159207845395 0.0 0.0
-888.5179974088232 -75.35915822457946 -479.8440586820626 -150.41394924803467 0.0 0.0
-927.3691642908381 -95.97600703733593 -510.02387193292276 -153.51521968291686 0.0 0.0
-961.4143824300652 -117.68452076652525 -538.2752088334369 -158.8738679826178 0.0 0.0
-999.1473655499235 -150.51783369007262 -573.9116080295112 -164.7637213587249 0.0 0.0
-1044.4842332092915 -201.36876892285687 -622.1001810466025 -169.57833557951074 0.0 0.0
-1153.5394398189992 -342.24430234252253 -746.7217702709721 -172.50219918081393 0.0 0.0
-1153.5394398190485 -342.2443023426784 -746.7217702711365 172.50219918098753 0.0 0.0
-1044.4842332100557 -201.36876892373306 -622.1001810473135 169.57833557965952 0.0 0.0
-999.1473655501214 -150.5178336906124 -573.9116080298074 164.76372135907303 0.0 0.0
-961.4143824325996 -117.68452076950857 -538.2752088351453 158.87386798307097 0.0 0.0
-927.3691642925764 -95.97600703953944 -510.0238719342145 153.51521968314432 0.0 0.0
-888.517997409338 -75.35915822524711 -479.8440586823891 150.4139492480593 0.0 0.0
-846.4340999306908 -57.24284094075574 -449.34557246476663 150.0815920786515 0.0 0.0
-803.6516238119584 -43.352144252497396 -420.57265221338434 152.24295241133757 0.0 0.0
-759.6883792968792 -33.024691050656756 -392.7239737618539 156.07624696063348 0.0 0.0
-712.5811932479413 -24.472668792234437 -363.46380110761834 160.36540227202937 0.0 0.0
-659.042537151827 -16.977150602823073 -329.5332028860836 164.2033102466524 0.0 0.0
-593.6985484851459 -7.790869663144441 -283.3849937937665 168.50237738722325 0.0 0.0
-505.5787281319322 3.2234277514478173 -217.31936121027346 176.34305621319015 0.0 0.0
-388.6260904625542 14.251871424391513 -139.70401374737912 191.25165216690476 0.0 0.0
-272.55410347029795 18.635557926551577 -82.69503893829909 198.18928754866587 0.0 0.0
-194.29362401474177 21.865664441287326 -52.974965936602516 192.355989597619 0.0 0.0
-147.5842799146715 20.3556696779959 -38.43684566315153 189.21378743717034 0.0 0.0
-114.70527290002298 3.964864387389389 -33.29976863436983 191.055709403898 0.0 0.0
-81.24459041776339 -46.71860653043221 -38.38938414347375 187.0683760815096 0.0 0.0
-28.747951536521672 -179.97573505186165 -62.61710597651499 123.69232749152111 0.0 0.0
-31.252553902832545 -136.71929570011704 -50.39155488088487 -107.54834897999879 0.0 0.0
-93.5248606251189 -42.59718202979434 -40.83602957775583 -175.32131440308882 0.0 0.0
-144.45680959160492 3.660161209112088 -42.30357839312478 -181.6982634244361 0.0 0.0
-195.2465600894727 19.831030428773893 -53.015839656906564 -177.36870498623557 0.0 0.0
-262.9910285375107 24.525546353119918 -73.85900109525033 -175.70553700095516 0.0 0.0
-364.6091850131397 24.420828925858075 -116.58068597212552 -171.2434032205855 0.0 0.0
-484.33916404265057 15.965508975650891 -190.69541849441902 -157.13723913233343 0.0 0.0
-585.9709714948805 2.091365232704703 -269.3551911511614 -148.5909866659668 0.0 0.0
-664.4088518854342 -10.692442982749313 -327.599251313329 -146.72853428688063 0.0 0.0
-729.0154022300105 -22.636423963165413 -370.46063575994503 -145.02009720051376 0.0 0.0
-785.2490348361869 -34.04803077836789 -405.8925532154989 -142.1325136172237 0.0 0.0
-837.1505302101963 -46.56619836565693 -438.90577393857563 -138.36536367800187 0.0 0.0
-885.9898384400838 -60.413252766432265 -470.706055264896 -134.6657925272305 0.0 0.0
-933.9284926011524 -77.74367566514661 -503.6283812874152 -132.39295725156794 0.0 0.0
-982.0317453117195 -99.69083932730192 -538.8994905557032 -132.8536119887005 0.0 0.0
-1030.486319413354 -126.82178821934312 -576.9404442017095 -136.22034425893182 0.0 0.0
-1080.4364064291578 -160.84729941955635 -619.1524275984543 -141.2149068937067 0.0 0.0
-1135.052514761004 -205.7030946976393 -668.9950645383574 -145.20666847889723 0.0 0.0
-1210.3626155645402 -280.47998738380323 -743.8920422594101 -144.7305446171893 0.0 0.0
-1310.381721515865 -403.6306733591481 -855.5562784435645 -141.81184814084912 0.0 0.0
-1310.3817215148497 -403.6306733581555 -855.5562784428314 141.81184814096846 0.0 0.0
-1210.3626155635202 -280.4799873829165 -743.892042258638 144.73054461746148 0.0 0.0
-1135.0525147608344 -205.70309469765607 -668.9950645381894 145.20666847903837 0.0 0.0
-1080.4364064283027 -160.84729941882375 -619.1524275977467 141.21490689375742 0.0 0.0
-1030.4863194118493 -126.82178821775554 -576.9404442005812 136.22034425858502 0.0 0.0
-982.0317453122934 -99.69083932804617 -538.899490556154 132.85361198875506 0.0 0.0
-933.9284926010048 -77.7436756650944 -503.6283812872417 132.39295725148216 0.0 0.0
-885.9898384396504 -60.41325276619601 -470.70605526460326 134.66579252723545 0.0 0.0
-837.1505302107554 -46.56619836663189 -438.9057739389673 138.36536367822958 0.0 0.0
-785.2490348365618 -34.04803077908739 -405.89255321570016 142.13251361724494 0.0 0.0
-729.0154022298381 -22.636423963248284 -370.4606357597992 145.0200972004601 0.0 0.0
-664.4088518846722 -10.692442982398383 -327.5992513128766 146.72853428692522 0.0 0.0
-585.9709714938331 2.0913652334762247 -269.35519115039887 148.59098666595776 0.0 0.0
-484.33916404176097 15.965508976402084 -190.69541849370063 157.1372391320889 0.0 0.0
-364.6091850126921 24.420828925956258 -116.58068597185259 171.24340322043443 0.0 0.0
-262.99102853727925 24.52554635278573 -73.85900109527253 175.70553700086694 0.0 0.0
-195.24656008922008 19.83103042908337 -53.01583965674702 177.36870498605623 0.0 0.0
-144.45680959147762 3.660161209265949 -42.30357839304511 181.69826342430096 0.0 0.0
-93.52486062482006 -42.59718202956945 -40.83602957759956 175.3213144032025 0.0 0.0
-31.252553902789714 -136.71929570001708 -50.391554880842044 107.54834898006285 0.0 0.0
-32.449241456750514 -98.2599126157886 -39.212746221761726 -90.85359327751445 0.0 0.0
-104.0467928855486 -36.577363740611574 -42.18724698784805 -159.15354231838413 0.0 0.0
-172.33182704890518 3.1375711236681187 -50.79385144499097 -167.84954749864525 0.0 0.0
-241.27075530722823 18.667946307228668 -67.18636166072066 -161.22919612841915 0.0 0.0
-328.5169877709791 27.44970932658224 -94.75180729070823 -154.03745221441878 0.0 0.0
-441.97211434083783 27.06549398368073 -151.86858235959434 -139.55900506593687 0.0 0.0
-552.9762983162443 15.889534563154008 -234.11609480180232 -126.730509761576 0.0 0.0
-643.0910721729338 1.5183727703309273 -306.2006336610683 -124.66518744244286 0.0 0.0
-717.7633548034885 -13.21298195611854 -358.84345140388956 -125.81817080007141 0.0 0.0
-783.2325004110971 -27.760587517472487 -401.33335801475505 -125.49196954558083 0.0 0.0
-843.5764487826666 -43.44863711247078 -440.3563309398579 -123.34583003881869 0.0 0.0
-900.0331885934177 -60.15597287846256 -477.5302920598103 -120.07560076060628 0.0 0.0
-953.31664146349 -77.74969893880217 -513.35170566494 -116.62337776358049 0.0 0.0
-1005.4387252027959 -97.93431923943422 -549.723548249107 -114.28485643456281 0.0 0.0
-1059.5666510459937 -123.98808798383021 -589.9533403075507 -114.46015296460287 0.0 0.0
-1118.0032403452688 -159.10579176393134 -636.8620170397126 -117.4226597217962 0.0 0.0
-1182.651113203227 -205.11681037807224 -692.2990442020993 -121.72791897693737 0.0 0.0
-1257.038611065292 -267.3355122040294 -760.61610090631 -124.05814875669174 0.0 0.0
-1341.945254506179 -350.9575014180511 -844.8798908682334 -122.4576120359931 0.0 0.0
-1427.881399308465 -458.20219588401324 -941.6017393127989 -120.55351220335419 0.0 0.0
-1427.881399308449 -458.2021958841113 -941.6017393129316 120.55351220357643 0.0 0.0
-1341.9452545066342 -350.95750141867427 -844.879890868646 122.45761203632463 0.0 0.0
-1257.0386110650334 -267.3355122039961 -760.6161009061292 124.05814875699625 0.0 0.0
-1182.6511132017142 -205.1168103767381 -692.2990442011958 121.72791897711238 0.0 0.0
-1118.0032403436455 -159.10579176222762 -636.8620170386472 117.42265972147155 0.0 0.0
-1059.5666510447463 -123.98808798263997 -589.9533403065652 114.46015296440663 0.0 0.0
-1005.4387252016413 -97.93431923838881 -549.7235482482549 114.28485643456705 0.0 0.0
-953.3166414629653 -77.74969893856807 -513.351705664651 116.62337776364626 0.0 0.0
-900.0331885924915 -60.155972877709836 -477.53029205915254 120.0756007605226 0.0 0.0
-843.5764487815366 -43.448637111533856 -440.3563309390596 123.34583003877322 0.0 0.0
-783.2325004108752 -27.760587517566695 -401.33335801460873 125.4919695455466 0.0 0.0
-717.7633548033416 -13.212981956324843 -358.8434514037927 125.81817080012698 0.0 0.0
-643.0910721733798 1.5183727694764784 -306.20063366125254 124.66518744243845 0.0 0.0
-552.9762983159318 15.889534563242002 -234.11609480145367 126.7305097613518 0.0 0.0
-441.9721143398193 27.065493984481705 -151.86858235890188 139.5590050657865 0.0 0.0
-328.51698777055617 27.449709326711677 -94.75180729051812 154.03745221429503 0.0 0.0
-241.27075530719682 18.667946306845717 -67.18636166083405 161.2291961283907 0.0 0.0
-172.33182704880858 3.137571123437116 -50.79385144503699 167.8495474986988 0.0 0.0
-104.04679288553793 -36.57736374081441 -42.18724698790569 159.15354231811511 0.0 0.0
-32.449241456656374 -98.25991261564721 -39.21274622169107 90.85359327718564 0.0 0.0
-33.32560887892235 -65.20633699122905 -29.55958376104542 -73.67933991302252 0.0 0.0
-113.4715501154485 -29.234591054410306 -42.81184235095764 -138.98100487847324 0.0 0.0
-198.5073540940407 2.403886948363737 -58.82885303788259 -149.5374523891668 0.0 0.0
-284.706625136849 17.23213691429789 -80.81714569231438 -140.7795733151572 0.0 0.0
-388.8067177707797 29.793162107230792 -116.53935502268982 -127.59359150732986 0.0 0.0
-504.0733886823881 27.025994830422373 -186.8864484657275 -108.10003520906209 0.0 0.0
-603.7345257849548 16.11749311315404 -268.6404056001455 -100.40596368043099 0.0 0.0
-686.7715409923151 0.9134316120457413 -333.1413874469402 -102.17948305909013 0.0 0.0
-760.0120244627212 -14.876315943683721 -382.3697293458535 -104.90297279714603 0.0 0.0
-828.220682878246 -32.71568641542126 -426.94451598461706 -105.37068251386424 0.0 0.0
-892.8476598767852 -52.635988625774814 -469.9631423157625 -103.77532893461047 0.0 0.0
-953.9567842553897 -73.76673331443482 -511.56389700554087 -101.12791316682691 0.0 0.0
-1011.8479134173638 -95.36772759182853 -551.6548686640351 -98.19280952967996 0.0 0.0
-1067.9869380286104 -118.75648865399978 -591.6097578523995 -95.72216200067552 0.0 0.0
-1127.280212853856 -148.57193670543455 -636.2276964391679 -95.16616108279867 0.0 0.0
-1195.4544412335872 -191.21754759231987 -691.6703319461545 -97.26326952348167 0.0 0.0
-1274.6224354956964 -250.34476327546753 -760.852998359725 -100.6940446729962 0.0 0.0
-1363.521787015897 -326.43245936478166 -843.385334945027 -102.98176103462487 0.0 0.0
-1453.2165615271765 -415.1801479556574 -932.6669719522963 -103.2385297509231 0.0 0.0
-1531.0998514560383 -513.4187970016501 -1020.8778604427719 -104.86082879406706 0.0 0.0
-1531.0998514557045 -513.418797001407 -1020.8778604426723 104.8608287942626 0.0 0.0
-1453.2165615281724 -415.1801479566669 -932.6669719531317 103.23852975085592 0.0 0.0
-1363.521787016895 -326.43245936601284 -843.38533494585 102.98176103503565 0.0 0.0
-1274.622435497778 -250.34476327789125 -760.8529983611409 100.69404467355952 0.0 0.0
-1195.454441236945 -191.21754759587247 -691.6703319483056 97.26326952351452 0.0 0.0
-1127.2802128549263 -148.57193670671506 -636.2276964399192 95.16616108293941 0.0 0.0
-1067.9869380279806 -118.75648865352832 -591.609757851888 95.72216200066015 0.0 0.0
-1011.8479134175348 -95.36772759223844 -551.6548686640822 98.1928095297572 0.0 0.0
-953.9567842552045 -73.76673331463574 -511.5638970054546 101.12791316710685 0.0 0.0
-892.847659876671 -52.63598862584836 -469.9631423157115 103.7753289344189 0.0 0.0
-828.2206828778757 -32.71568641528825 -426.9445159843706 105.37068251375369 0.0 0.0
-760.0120244613165 -14.876315942567715 -382.3697293449196 104.9029727972006 0.0 0.0
-686.7715409915901 0.9134316124678463 -333.14138744646766 102.1794830590544 0.0 0.0
-603.7345257837014 16.117493114103063 -268.6404055992945 100.40596368040563 0.0 0.0
-504.0733886817309 27.025994830868353 -186.88644846517178 108.10003520878679 0.0 0.0
-388.8067177705704 29.79316210690478 -116.53935502265632 127.59359150731113 0.0 0.0
-284.70662513670595 17.232136913998325 -80.81714569236605 140.7795733150602 0.0 0.0
-198.50735409376344 2.4038869485515195 -58.828853037743926 149.53745238916622 0.0 0.0
-113.47155011539353 -29.23459105428914 -42.8118423509048 138.98100487845193 0.0 0.0
-33.32560887867902 -65.20633699101002 -29.55958376090671 73.67933991294565 0.0 0.0
-33.927610961279264 -38.090564125860574 -21.60545252614195 -55.99319102416861 0.0 0.0
-121.80664112096608 -21.134397783809725 -42.88231167143273 -115.24008686773887 0.0 0.0
-223.1979639355398 1.3396512911939187 -66.55673330921464 -126.62120922142148 0.0 0.0
-327.4044834404931 16.52101788346075 -94.09102370046558 -116.6492054417472 0.0 0.0
-443.97526139919717 30.202426143369912 -140.28076848422944 -97.69849703192592 0.0 0.0
-552.1363705401495 26.425121618144665 -218.89358807245105 -79.4567238343139 0.0 0.0
-641.3820791388798 15.586613716761107 -295.29483817853975 -76.55812970395351 0.0 0.0
-720.7869297799186 1.4865858074249871 -352.55847801663447 -80.26751590902875 0.0 0.0
-795.12143661856 -16.21163741346217 -401.47520247238936 -83.60079980830298 0.0 0.0
-866.6278178983773 -37.643597560148294 -449.03247412768974 -84.472343312415 0.0 0.0
-935.3565335216083 -61.53433434136974 -495.94392185584735 -83.41704005011229 0.0 0.0
-1001.3068760224595 -87.12904748508458 -542.123664156526 -81.46813524578245 0.0 0.0
-1064.2612665867887 -113.44809360957223 -587.0610568630863 -79.1764338181342 0.0 0.0
-1125.477197641761 -141.03541832376453 -631.6495135988298 -76.82391614432858 0.0 0.0
-1189.1096842434333 -174.05298966670773 -680.0110464103376 -75.26332991169768 0.0 0.0
-1263.6621746239018 -222.05869911643737 -741.2360613926305 -75.82738275622978 0.0 0.0
-1355.294296544968 -292.2820917777753 -822.1570681365195 -78.70978457817338 0.0 0.0
-1456.4520938549272 -380.09773047517643 -916.7053048447818 -82.3194633454377 0.0 0.0
-1553.9600278691598 -476.8479872470166 -1013.9206736485198 -86.00523813912686 0.0 0.0
-1629.92645794896 -572.5428674870477 -1099.9030665165442 -92.33254899282248 0.0 0.0
-1629.9264579498981 -572.5428674880956 -1099.9030665171144 92.33254899307948 0.0 0.0
-1553.9600278673756 -476.8479872452261 -1013.9206736469631 86.00523813900949 0.0 0.0
-1456.452093852981 -380.0977304733123 -916.7053048432667 82.31946334556989 0.0 0.0
-1355.2942965457037 -292.28209177873 -822.1570681368241 78.7097845785247 0.0 0.0
-1263.6621746229898 -222.05869911566646 -741.2360613917012 75.8273827562553 0.0 0.0
-1189.1096842421807 -174.05298966565428 -680.0110464092791 75.2633299118448 0.0 0.0
-1125.4771976426746 -141.03541832485715 -631.6495135993445 76.82391614432407 0.0 0.0
-1064.261266586524 -113.4480936095722 -587.0610568628975 79.17643381822035 0.0 0.0
-1001.3068760219522 -87.12904748479562 -542.1236641561546 81.46813524575519 0.0 0.0
-935.3565335207253 -61.534334340722275 -495.94392185521644 83.41704005002151 0.0 0.0
-866.6278178979154 -37.643597559882124 -449.03247412738403 84.47234331219306 0.0 0.0
-795.1214366188601 -16.211637414049868 -401.4752024726488 83.60079980826116 0.0 0.0
-720.7869297798446 1.4865858072426974 -352.55847801655665 80.26751590886501 0.0 0.0
-641.3820791386144 15.586613716577283 -295.2948381783143 76.55812970408093 0.0 0.0
-552.1363705399601 26.42512161796607 -218.89358807223255 79.45672383424491 0.0 0.0
-443.9752613988463 30.202426143217586 -140.28076848406002 97.69849703192318 0.0 0.0
-327.4044834401197 16.521017883446596 -94.09102370036688 116.6492054416519 0.0 0.0
-223.19796393535916 1.3396512911207337 -66.5567333091833 126.6212092213197 0.0 0.0
-121.80664112093405 -21.134397783905804 -42.88231167145195 115.24008686761076 0.0 0.0
-33.92761096116076 -38.09056412586164 -21.60545252610672 55.99319102390813 0.0 0.0
-33.67561525829527 -17.401047822944538 -15.322998924371939 -37.91311712078368 0.0 0.0
-128.32128905776665 -12.800435696033507 -42.336517426140034 -88.18352426319932 0.0 0.0
-247.05855747616863 -0.11113166188571633 -74.15090674141629 -99.09895382085821 0.0 0.0
-370.1684345388237 17.244595594454154 -107.36040892225171 -88.55662622644157 0.0 0.0
-491.16437608687437 28.893969319132548 -165.509247999771 -66.9485309287481 0.0 0.0
-589.4432506905172 24.9937162735537 -247.3429421625404 -54.22453863715506 0.0 0.0
-671.5464369017377 15.597266747006927 -315.645243504006 -54.29939084888345 0.0 0.0
-748.4683721992078 2.5147927610056797 -367.48222139785577 -58.288561316632006 0.0 0.0
-824.6364220927562 -17.598582129552796 -417.5044420637533 -61.66492082528226 0.0 0.0
-899.5358949227118 -42.360270019071976 -468.1593193836778 -62.811386717108284 0.0 0.0
-972.5435156585245 -70.17423895671664 -519.0737992887603 -62.26451777155307 0.0 0.0
-1043.2433798002517 -100.1603824075462 -569.7666279170404 -60.99050603753698 0.0 0.0
-1112.0215454721697 -131.64816455681677 -620.1545262316714 -59.46146855936286 0.0 0.0
-1179.3173347268955 -165.02443164300047 -670.6642284529282 -57.473628707256886 0.0 0.0
-1247.7368101461616 -202.2818266270977 -723.5616018758128 -55.17069444028837 0.0 0.0
-1324.5942640335334 -251.45873906833003 -786.5066751903357 -53.92924295108242 0.0 0.0
-1420.1571813738578 -324.6646409120028 -870.8027686739256 -55.89865320282711 0.0 0.0
-1537.1922839512326 -427.5279981675695 -980.8046291833032 -61.38725224832182 0.0 0.0
-1647.896123864327 -536.842195709774 -1090.9242532795877 -69.52605347807544 0.0 0.0
-1732.739079041759 -640.179665270708 -1185.1655740310896 -81.53125018071088 0.0 0.0
-1732.7390790420577 -640.1796652709886 -1185.165574031175 81.53125018062948 0.0 0.0
-1647.8961238656088 -536.8421957111957 -1090.924253280496 69.5260534785174 0.0 0.0
-1537.1922839498397 -427.527998166332 -980.8046291825331 61.38725224857147 0.0 0.0
-1420.1571813720498 -324.6646409102726 -870.8027686727744 55.89865320285776 0.0 0.0
-1324.5942640347705 -251.4587390697004 -786.5066751911639 53.92924295102329 0.0 0.0
-1247.7368101479615 -202.281826629108 -723.5616018771311 55.17069444041853 0.0 0.0
-1179.3173347266452 -165.02443164294976 -670.6642284527621 57.47362870732311 0.0 0.0
-1112.0215454698216 -131.64816455468116 -620.1545262300558 59.46146855951564 0.0 0.0
-1043.2433797990207 -100.16038240657755 -569.7666279161731 60.99050603765384 0.0 0.0
-972.5435156571148 -70.17423895564822 -519.0737992878852 62.26451777182429 0.0 0.0
-899.5358949219891 -42.36027001861139 -468.1593193831704 62.81138671704859 0.0 0.0
-824.6364220926312 -17.59858212976978 -417.5044420636584 61.66492082539881 0.0 0.0
-748.4683721987644 2.51479276112228 -367.48222139761197 58.288561316636674 0.0 0.0
-671.5464369017839 15.59726674661082 -315.645243504 54.299390848890624 0.0 0.0
-589.4432506903923 24.99371627323923 -247.34294216236765 54.224538637290664 0.0 0.0
-491.16437608659163 28.893969319016012 -165.5092479995868 66.94853092880108 0.0 0.0
-370.16843453839635 17.24459559438412 -107.36040892215104 88.55662622644795 0.0 0.0
-247.05855747608592 -0.1111316620698588 -74.1509067414467 99.09895382089665 0.0 0.0
-128.32128905769645 -12.800435696101022 -42.33651742613923 88.18352426317796 0.0 0.0
-33.67561525828986 -17.40104782301733 -15.322998924392154 37.91311712069402 0.0 0.0
-31.23503558389819 -3.5494282623082185 -10.435339153861921 -19.95322729379053 0.0 0.0
-131.3100785818951 -4.913153725704779 -40.86696969227996 -57.765979622498726 0.0 0.0
-270.6047028032164 -1.4724505958877216 -81.62314601973121 -66.50824616591602 0.0 0.0
-413.44034058325883 18.87316486933456 -121.76383529988539 -56.700982020644354 0.0 0.0
-529.4576953735724 27.192876282407553 -190.73157042650433 -38.37881960071019 0.0 0.0
-617.2431409477683 22.574526621538972 -271.3511102435036 -31.41905775713144 0.0 0.0
-695.140796603439 16.71821120635208 -330.26723300349175 -32.762380051742575 0.0 0.0
-771.388978068115 3.0143933775900393 -379.73547005574994 -36.17968381416994 0.0 0.0
-849.0963143638869 -18.762807542301573 -430.74227183063283 -39.086953023717804 0.0 0.0
-927.5945759294582 -46.8146756100428 -484.6650181510907 -40.344994090626685 0.0 0.0
-1005.027052318414 -78.58425790476133 -539.7000464121807 -40.30542823398672 0.0 0.0
-1080.854656007953 -112.85990564572683 -595.0521058409108 -39.69732335058638 0.0 0.0
-1155.441256116732 -149.9011666327333 -651.0779699067981 -38.80489469242132 0.0 0.0
-1229.8707752508758 -189.83772051784712 -708.4075565800225 -37.46643179679844 0.0 0.0
-1304.981733423892 -233.43942510357073 -767.847901461287 -35.328331376456 0.0 0.0
-1382.8692686588497 -283.35492331661726 -831.7429348400722 -32.78479743582826 0.0 0.0
-1472.0003340472738 -349.4088436145274 -909.2188927491529 -32.59364433336935 0.0 0.0
-1587.0781557813011 -448.9130568644971 -1016.409096273295 -38.785132435733324 0.0 0.0
-1744.1554077963926 -602.534658451409 -1171.8998767243897 -52.20356400935176 0.0 0.0
-1848.7786490429057 -723.5854012199442 -1284.9149501171398 -71.4181920734572 0.0 0.0
-1848.7786490427113 -723.5854012197888 -1284.9149501169743 71.4181920734935 0.0 0.0
-1744.1554077951023 -602.5346584501785 -1171.899876723577 52.20356400948708 0.0 0.0
-1587.0781557811192 -448.91305686443246 -1016.4090962729517 38.785132435918314 0.0 0.0
-1472.0003340478777 -349.4088436152676 -909.218892749268 32.59364433349123 0.0 0.0
-1382.8692686594886 -283.3549233173948 -831.7429348404248 32.78479743593976 0.0 0.0
-1304.9817334244465 -233.43942510430995 -767.8479014618182 35.328331376514576 0.0 0.0
-1229.8707752501566 -189.8377205173224 -708.4075565796885 37.46643179677881 0.0 0.0
-1155.441256115898 -149.90116663209233 -651.077969906196 38.8048946923724 0.0 0.0
-1080.854656008134 -112.85990564614022 -595.0521058410042 39.69732335048718 0.0 0.0
-1005.0270523180313 -78.58425790465807 -539.700046411863 40.30542823406212 0.0 0.0
-927.5945759293903 -46.81467561023052 -484.6650181510373 40.34499409048335 0.0 0.0
-849.0963143640017 -18.76280754270256 -430.74227183070514 39.086953023608565 0.0 0.0
-771.3889780675514 3.014393377843504 -379.73547005540115 36.179683814160235 0.0 0.0
-695.1407966028262 16.718211206687897 -330.26723300305827 32.762380051591975 0.0 0.0
-617.2431409475837 22.574526621351772 -271.3511102433107 31.41905775723184 0.0 0.0
-529.4576953735719 27.19287628198101 -190.73157042644627 38.378819600772246 0.0 0.0
-413.44034058281443 18.87316486927712 -121.76383529975706 56.70098202068591 0.0 0.0
-270.60470280289934 -1.4724505957030565 -81.62314601958072 66.50824616588613 0.0 0.0
-131.31007858177196 -4.913153725725197 -40.866969692249135 57.765979622503 0.0 0.0
-31.235035583796304 -3.5494282621238713 -10.435339153776052 19.953227293828963 0.0 0.0
-24.032911334017548 3.1589152204602167 -6.2621988340672 -3.4191656593924185 0.0 0.0
-127.49691249201616 1.616261297796667 -37.76419535826584 -23.362245183690717 0.0 0.0
-295.4606814516275 -1.7610948579758325 -89.166532892881 -27.803685921688423 0.0 0.0
-452.9698786132925 20.847676750981044 -138.09942125639355 -22.524791539228946 0.0 0.0
-560.9368236785922 25.02616361200817 -215.47590258858065 -12.925195300873902 0.0 0.0
-641.1416381572498 21.337603584707196 -290.695190357902 -10.576953956917393 0.0 0.0
-714.5482332749943 17.075369364864386 -341.99793006165885 -11.647505784079243 0.0 0.0
-789.8474374693212 3.4821370979003063 -389.47142290627704 -13.89183373982825 0.0 0.0
-869.2011367421403 -19.87645947828588 -441.7056841024129 -15.88575910025968 0.0 0.0
-951.2239795956535 -50.90722845499235 -498.73511765412684 -17.059462051108646 0.0 0.0
-1033.3801792321497 -86.60062138955976 -558.030064997139 -17.51412529116319 0.0 0.0
-1114.4321323657916 -125.74124105466473 -618.3907432721555 -17.506633760048658 0.0 0.0
-1195.0532742898613 -167.94760205643883 -679.9826859401743 -17.252438565640368 0.0 0.0
-1276.4759967238308 -214.2336331528753 -743.9553280638286 -16.62584990380298 0.0 0.0
-1359.2494857252404 -265.2964122153211 -810.9554788280066 -15.36560034261375 0.0 0.0
-1442.403200424996 -320.55019282210685 -880.2107353897828 -13.266744239647801 0.0 0.0
-1524.8326328109097 -379.78164712116757 -951.0273671718269 -11.144803572703694 0.0 0.0
-1614.849295795866 -452.96364941431796 -1032.482067899051 -13.7999687217206 0.0 0.0
-1746.1260298944985 -577.2787046297458 -1160.076798207041 -29.808006527656914 0.0 0.0
-2055.5081970951555 -897.904468882655 -1475.442624477824 -59.54320065903671 0.0 0.0
-2055.5081970965416 -897.9044688840762 -1475.442624478742 59.54320065906906 0.0 0.0
-1746.1260298958277 -577.2787046311701 -1160.0767982078874 29.808006527951946 0.0 0.0
-1614.8492957933904 -452.9636494119213 -1032.4820678971878 13.799968721784115 0.0 0.0
-1524.832632810221 -379.7816471205917 -951.0273671712628 11.144803572598843 0.0 0.0
-1442.4032004251608 -320.5501928224232 -880.2107353898122 13.266744239688165 0.0 0.0
-1359.249485723941 -265.2964122141604 -810.9554788269451 15.365600342400214 0.0 0.0
-1276.4759967232458 -214.23363315249617 -743.955328063233 16.625849903885896 0.0 0.0
-1195.053274289276 -167.94760205606843 -679.9826859398121 17.252438565654813 0.0 0.0
-1114.4321323648787 -125.74124105400072 -618.3907432715233 17.506633760028596 0.0 0.0
-1033.3801792322931 -86.60062139000556 -558.030064997258 17.514125291315825 0.0 0.0
-951.2239795950493 -50.90722845465305 -498.73511765372166 17.059462051109932 0.0 0.0
-869.20113674065 -19.87645947708704 -441.70568410140316 15.885759100179866 0.0 0.0
-789.8474374682155 3.4821370987037454 -389.47142290555644 13.891833739725483 0.0 0.0
-714.5482332751399 17.075369364374353 -341.9979300617539 11.64750578403232 0.0 0.0
-641.141638157172 21.337603584448864 -290.695190357814 10.57695395700878 0.0 0.0
-560.936823678046 25.0261636122778 -215.47590258817166 12.925195300923306 0.0 0.0
-452.96987861288585 20.847676750983 -138.09942125621242 22.52479153939919 0.0 0.0
-295.46068145132756 -1.7610948579448742 -89.16653289278172 27.803685921863497 0.0 0.0
-127.49691249179864 1.616261297902085 -37.76419535816896 23.36224518371634 0.0 0.0
-24.032911333947357 3.15891522040871 -6.262198834061594 3.419165659375338 0.0 0.0
SCALARS Strain float 6
LOOKUP_TABLE default
0.013745364082225408 -0.01481756348627461 0.0 -0.008287005267819003 0.0 0.0
0.002828066122491351 -0.001966185219893113 0.0 0.0014100091022529737 0.0 0.0
0.0019290545474222875 -0.0008045467176029941 0.0 -3.331899514058545e-05 0.0 0.0
0.0025954222988166208 -0.0013533447762046347 0.0 -0.00026367321243569997 0.0 0.0
0.0044503498791356975 -0.002936163185019325 0.0 -0.0003578496929127484 0.0 0.0
0.008250257176513537 -0.006435835636780851 0.0 -0.0005840829209699527 0.0 0.0
0.01448819927404904 -0.012411821145997148 0.0 -0.0009750546716934538 0.0 0.0
0.023596840403288827 -0.021246041282803052 0.0 -0.0015943228059031034 0.0 0.0
0.035780388085713155 -0.03312035234776678 0.0 -0.002459737949540186 0.0 0.0
0.05096402739762537 -0.04796436109983171 0.0 -0.003489136614693189 0.0 0.0
0.06888796362734484 -0.06553302032530439 0.0 -0.004553617607068572 0.0 0.0
0.08922983035740081 -0.08551229093983581 0.0 -0.005584475557216972 0.0 0.0
0.11165102782554052 -0.10756525006991868 0.0 -0.00658627439454601 0.0 0.0
0.1357601165631729 -0.13129614650696908 0.0 -0.007536689414507858 0.0 0.0
0.16099889787013447 -0.15614424398149573 0.0 -0.008366333682975569 0.0 0.0
0.18652382905291415 -0.18127128263551473 0.0 -0.008894284467876656 0.0 0.0
0.21116891561564421 -0.205524980470436 0.0 -0.008850226975635866 0.0 0.0
0.2334922851494006 -0.227474083987671 0.0 -0.008065082637789822 0.0 0.0
0.2517866311137832 -0.2454009719697492 0.0 -0.007184334547867488 0.0 0.0
0.2633624827916404 -0.2563411586713551 0.0 -0.009360841079441129 0.0 0.0
0.2633624827916252 -0.25634115867133644 0.0 0.009360841079453786 0.0 0.0
0.2517866311137294 -0.24540097196969501 0.0 0.007184334547896354 0.0 0.0
0.23349228514930992 -0.22747408398758218 0.0 0.008065082637807475 0.0 0.0
0.21116891561553258 -0.2055249804703232 0.0 0.008850226975644304 0.0 0.0
0.18652382905278914 -0.18127128263538062 0.0 0.008894284467864777 0.0 0.0
0.16099889787000432 -0.15614424398136162 0.0 0.008366333682974014 0.0 0.0
0.13576011656304343 -0.1312961465068403 0.0 0.007536689414512132 0.0 0.0
0.11165102782540981 -0.107565250069797 0.0 0.006586274394544733 0.0 0.0
0.08922983035727827 -0.08551229093971813 0.0 0.005584475557207758 0.0 0.0
0.06888796362723493 -0.06553302032520358 0.0 0.004553617607062965 0.0 0.0
0.050964027397534195 -0.04796436109974023 0.0 0.003489136614677646 0.0 0.0
0.035780388085641546 -0.03312035234769306 0.0 0.002459737949537466 0.0 0.0
0.02359684040323795 -0.021246041282747097 0.0 0.0015943228058979964 0.0 0.0
0.014488199274014013 -0.01241182114596251 0.0 0.000975054671689568 0.0 0.0
0.008250257176492581 -0.006435835636759757 0.0 0.0005840829209667331 0.0 0.0
0.004450349879125237 -0.002936163185009333 0.0 0.0003578496929114161 0.0 0.0
0.002595422298813932 -0.001353344776201304 0.0 0.00026367321243503383 0.0 0.0
0.0019290545474215381 -0.0008045467176016619 0.0 3.331899514247283e-05 0.0 0.0
0.002828066122489703 -0.0019661852198903373 0.0 -0.0014100091022506978 0.0 0.0
0.01374536408221394 -0.014817563486260042 0.0 0.008287005267778702 0.0 0.0
0.00992905974367752 -0.011377058955720942 0.0 -0.010168187788872018 0.0 0.0
0.0015015300988339697 -0.0009818085532620202 0.0 0.00012060198217556106 0.0 0.0
0.0016351704650110696 -0.0005688111649070349 0.0 -0.00012390181939492262 0.0 0.0
0.002241100156880012 -0.0011012774023395622 0.0 -0.0005358137291879839 0.0 0.0
0.0037303247291727085 -0.0023162448801110624 0.0 -0.0007853886302594537 0.0 0.0
0.007002288061454448 -0.005271096237776884 0.0 -0.0013352387561333945 0.0 0.0
0.012577563019269364 -0.01056237471459287 0.0 -0.0022987270087071465 0.0 0.0
0.020820645702016347 -0.018525362751627306 0.0 -0.0037336589763740102 0.0 0.0
0.031855479909207854 -0.0292596973511019 0.0 -0.005636253870196173 0.0 0.0
0.04555555571686872 -0.042639648623614246 0.0 -0.007818675357234905 0.0 0.0
0.06166032078960738 -0.05841565841545071 0.0 -0.010040767756890556 0.0 0.0
0.0798947724119154 -0.07631713414003771 0.0 -0.012172859058628804 0.0 0.0
0.09999261313535754 -0.09607635934794168 0.0 -0.014259881577551481 0.0 0.0
0.12162661385493324 -0.11736433157653714 0.0 -0.01628217043219249 0.0 0.0
0.1443193518543977 -0.13970304676927192 0.0 -0.01806983782771404 0.0 0.0
0.16736005697437542 -0.16238408424318607 0.0 -0.01927669426662132 0.0 0.0
0.18974279960297122 -0.18440499581664405 0.0 -0.01941469579269517 0.0 0.0
0.21011886253777437 -0.20441366707089603 0.0 -0.01828377895178468 0.0 0.0
0.22659605597685104 -0.22046395231445093 0.0 -0.016447724792475027 0.0 0.0
0.23652116167170142 -0.23006276442017448 0.0 -0.013761826151862833 0.0 0.0
0.23652116167168583 -0.23006276442016027 0.0 0.013761826151894585 0.0 0.0
0.22659605597680185 -0.22046395231440385 0.0 0.01644772479252654 0.0 0.0
0.21011886253769513 -0.20441366707081876 0.0 0.018283778951819096 0.0 0.0
0.18974279960287455 -0.184404995816557 0.0 0.019414695792712378 0.0 0.0
0.16736005697426376 -0.16238408424306972 0.0 0.019276694266610717 0.0 0.0
0.14431935185428174 -0.1397030467691467 0.0 0.018069837827709545 0.0 0.0
0.12162661385481621 -0.11736433157642079 0.0 0.016282170432189602 0.0 0.0
0.09999261313524044 -0.09607635934783154 0.0 0.014259881577544875 0.0 0.0
0.07989477241180681 -0.07631713413992891 0.0 0.012172859058612429 0.0 0.0
0.06166032078950867 -0.058415658415353455 0.0 0.010040767756877789 0.0 0.0
0.04555555571678688 -0.042639648623531645 0.0 0.007818675357213367 0.0 0.0
0.03185547990914378 -0.029259697351039282 0.0 0.005636253870188956 0.0 0.0
0.020820645701969343 -0.018525362751582897 0.0 0.003733658976363463 0.0 0.0
0.012577563019238458 -0.01056237471456245 0.0 0.0022987270087018175 0.0 0.0
0.007002288061436379 -0.00527109623775579 0.0 0.0013352387561271772 0.0 0.0
0.0037303247291646247 -0.0023162448801012925 0.0 0.0007853886302577329 0.0 0.0
0.002241100156878284 -0.0011012774023380079 0.0 0.000535813729188428 0.0 0.0
0.0016351704650107712 -0.0005688111649083671 0.0 0.00012390181939458955 0.0 0.0
0.0015015300988336922 -0.0009818085532599108 0.0 -0.00012060198217844764 0.0 0.0
0.009929059743662816 -0.011377058955704164 0.0 0.010168187788839989 0.0 0.0
0.0074446009895119195 -0.009083000436975908 0.0 -0.009494721915457305 0.0 0.0
0.0008719187078529561 -0.0006457534859856118 0.0 -0.0006244261384530936 0.0 0.0
0.0013046210399551006 -0.00041046026162216975 0.0 -0.0004489674941494104 0.0 0.0
0.0019108715263585208 -0.0008708868147337956 0.0 -0.0007816295154190467 0.0 0.0
0.003088336089167476 -0.0017916204386967394 0.0 -0.0011300979067850325 0.0 0.0
0.005807325473036279 -0.0041783334814424755 0.0 -0.0018849972974454565 0.0 0.0
0.01068259475718579 -0.008740292811082906 0.0 -0.0032795360574859322 0.0 0.0
0.018009047929253202 -0.015783159505338595 0.0 -0.005370119698369091 0.0 0.0
0.0278498072540046 -0.025331554790686273 0.0 -0.0080799080122963 0.0 0.0
0.04003679752277489 -0.03721883343149246 0.0 -0.011143761273211872 0.0 0.0
0.05431172109284464 -0.05119092031652217 0.0 -0.014263359066487957 0.0 0.0
0.0704350364432804 -0.06700930653572046 0.0 -0.017273573881067872 0.0 0.0
0.08819174574804292 -0.08445773474707963 0.0 -0.020201885632370797 0.0 0.0
0.10732801063259846 -0.10328168086169676 0.0 -0.023052260777293776 0.0 0.0
0.12746678092900537 -0.12310431790292586 0.0 -0.02561900393379729 0.0 0.0
0.1480374807032559 -0.14335265114119178 0.0 -0.02743699441933345 0.0 0.0
0.16818574982956716 -0.16316603053483902 0.0 -0.027932028832497235 0.0 0.0
0.18662974727092557 -0.1812461141245887 0.0 -0.02673765737630518 0.0 0.0
0.201522160251246 -0.19578254419877705 0.0 -0.023378034776103118 0.0 0.0
0.21079158558400501 -0.2047905049973373 0.0 -0.016761241811311223 0.0 0.0
0.21079158558399017 -0.20479050499732043 0.0 0.01676124181136185 0.0 0.0
0.20152216025120137 -0.19578254419873797 0.0 0.02337803477617617 0.0 0.0
0.18662974727085696 -0.18124611412451763 0.0 0.026737657376357582 0.0 0.0
0.1681857498294817 -0.16316603053475465 0.0 0.02793202883251733 0.0 0.0
0.14803748070315825 -0.14335265114109674 0.0 0.02743699441932601 0.0 0.0
0.12746678092890346 -0.1231043179028255 0.0 0.025619003933787132 0.0 0.0
0.10732801063249353 -0.10328168086160083 0.0 0.02305226077728917 0.0 0.0
0.08819174574794064 -0.08445773474697393 0.0 0.02020188563236358 0.0 0.0
0.07043503644318505 -0.06700930653562898 0.0 0.01727357388104722 0.0 0.0
0.05431172109275767 -0.05119092031644268 0.0 0.014263359066467918 0.0 0.0
0.04003679752270256 -0.037218833431428955 0.0 0.011143761273186947 0.0 0.0
0.027849807253947645 -0.025331554790633426 0.0 0.008079908012282977 0.0 0.0
0.01800904792921032 -0.015783159505298627 0.0 0.005370119698353215 0.0 0.0
0.010682594757159047 -0.008740292811057149 0.0 0.003279536057476329 0.0 0.0
0.005807325473021319 -0.004178333481429375 0.0 0.0018849972974388507 0.0 0.0
0.0030883360891617584 -0.0017916204386931867 0.0 0.0011300979067833117 0.0 0.0
0.0019108715263569387 -0.0008708868147353499 0.0 0.000781629515415494 0.0 0.0
0.0013046210399554892 -0.000410460261623391 0.0 0.0004489674941484667 0.0 0.0
0.000871918707853192 -0.000645753485984113 0.0 0.0006244261384518168 0.0 0.0
0.007444600989497452 -0.009083000436960361 0.0 0.009494721915432103 0.0 0.0
0.00568269187223 -0.007347112365944819 0.0 -0.008103493242260007 0.0 0.0
0.0005425026507635267 -0.00048037041653803403 0.0 -0.0012395892060785285 0.0 0.0
0.0010093074204552965 -0.0002987548060336964 0.0 -0.0008943245334557259 0.0 0.0
0.001601354140966904 -0.0006803558581949254 0.0 -0.0010555221177583896 0.0 0.0
0.002522253737480759 -0.0013631258191708628 0.0 -0.0014216240804955649 0.0 0.0
0.004702415591612261 -0.003198592191502314 0.0 -0.002260775811863791 0.0 0.0
0.008822941004273693 -0.006980096782718714 0.0 -0.003927897090987953 0.0 0.0
0.015197552790377739 -0.013054552709680145 0.0 -0.0064976775015040955 0.0 0.0
0.023806608488495293 -0.021381881586031604 0.0 -0.009782268459416044 0.0 0.0
0.034455894619697225 -0.03175098412284827 0.0 -0.013472360326302835 0.0 0.0
0.04688703855837573 -0.043904332387804335 0.0 -0.017225855994007166 0.0 0.0
0.06088977830368539 -0.057629884216519045 0.0 -0.02087344129033375 0.0 0.0
0.07629791636901981 -0.07276040364642888 0.0 -0.02443602676721235 0.0 0.0
0.09292297780813166 -0.08910637701174551 0.0 -0.02786806488059218 0.0 0.0
0.1104868783956311 -0.10639202044831819 0.0 -0.03097554295534466 0.0 0.0
0.12856367982570757 -0.12418448817200023 0.0 -0.03333699315371197 0.0 0.0
0.1464544079949354 -0.14176925359266335 0.0 -0.03430225847541868 0.0 0.0
0.1630244047949399 -0.15801171963670857 0.0 -0.03310293876505255 0.0 0.0
0.17667973329456804 -0.1713525289260307 0.0 -0.028549560868366686 0.0 0.0
0.18568652767307636 -0.18012442598417255 0.0 -0.019176740963115724 0.0 0.0
0.18568652767306193 -0.18012442598415834 0.0 0.019176740963181116 0.0 0.0
0.1766797332945285 -0.17135252892598896 0.0 0.02854956086845195 0.0 0.0
0.16302440479487978 -0.15801171963664729 0.0 0.03310293876511228 0.0 0.0
0.14645440799486104 -0.14176925359258696 0.0 0.03430225847544044 0.0 0.0
0.1285636798256236 -0.12418448817192473 0.0 0.033336993153705974 0.0 0.0
0.11048687839554178 -0.10639202044823381 0.0 0.030975542955326674 0.0 0.0
0.09292297780804021 -0.08910637701165491 0.0 0.027868064880581578 0.0 0.0
0.0762979163689318 -0.07276040364634007 0.0 0.024436026767201358 0.0 0.0
0.06088977830360209 -0.057629884216434224 0.0 0.020873441290307326 0.0 0.0
0.04688703855830173 -0.04390433238773861 0.0 0.01722585599397941 0.0 0.0
0.034455894619634664 -0.03175098412278965 0.0 0.013472360326272081 0.0 0.0
0.02380660848844507 -0.02138188158598453 0.0 0.009782268459395338 0.0 0.0
0.015197552790341018 -0.013054552709649947 0.0 0.006497677501485333 0.0 0.0
0.00882294100425074 -0.006980096782697398 0.0 0.0039278970909806254 0.0 0.0
0.004702415591601006 -0.003198592191490768 0.0 0.0022607758118573518 0.0 0.0
0.002522253737476332 -0.001363125819166866 0.0 0.0014216240804923452 0.0 0.0
0.0016013541409661824 -0.0006803558581963687 0.0 0.0010555221177590557 0.0 0.0
0.0010093074204556296 -0.00029875480603425153 0.0 0.0008943245334547267 0.0 0.0
0.0005425026507633879 -0.000480370416537812 0.0 0.0012395892060750868 0.0 0.0
0.005682691872217649 -0.007347112365931201 0.0 0.008103493242239745 0.0 0.0
0.004324614957486483 -0.005925938248903528 0.0 -0.006655558882756818 0.0 0.0
0.00036082117760842525 -0.000382817128897206 0.0 -0.001718903914431802 0.0 0.0
0.0007654597787035561 -0.0002218372629921861 0.0 -0.0013453219834607677 0.0 0.0
0.0013121821978854808 -0.0005254216478125517 0.0 -0.0013637387028186954 0.0 0.0
0.0020281867858335384 -0.0010233698399979563 0.0 -0.0016840155204237983 0.0 0.0
0.0037068864294430848 -0.00235731329075195 0.0 -0.002523920513284983 0.0 0.0
0.007046045375999205 -0.0053294212856278556 0.0 -0.004265685635574723 0.0 0.0
0.012415832592146556 -0.01037830446395338 0.0 -0.007076251582401494 0.0 0.0
0.019767871279275886 -0.017453820159233135 0.0 -0.010738456093226378 0.0 0.0
0.028858423720446544 -0.026283534627270733 0.0 -0.014805530291328362 0.0 0.0
0.03943282398489259 -0.03660407632884555 0.0 -0.018940764781212427 0.0 0.0
0.05130473490487453 -0.04822718716125962 0.0 -0.022970331130985122 0.0 0.0
0.06435589165166232 -0.061031388590003566 0.0 -0.026913749877935933 0.0 0.0
0.07846370384168122 -0.07489337241335381 0.0 -0.030726738380854046 0.0 0.0
0.09343410838833385 -0.08962097165099259 0.0 -0.034184960185116076 0.0 0.0
0.10896375383365833 -0.10490450893559711 0.0 -0.03691469754476484 0.0 0.0
0.12454147661363618 -0.12021926704564834 0.0 -0.03832002967588233 0.0 0.0
0.13929689639401086 -0.13468865831296917 0.0 -0.03734542568289123 0.0 0.0
0.15192859561317093 -0.1470365389105801 0.0 -0.03223744468090117 0.0 0.0
0.16092327528059633 -0.15580160478520533 0.0 -0.021197860426384052 0.0 0.0
0.16092327528058323 -0.15580160478518934 0.0 0.02119786042645344 0.0 0.0
0.1519285956131366 -0.14703653891053925 0.0 0.0322374446809931 0.0 0.0
0.13929689639395823 -0.13468865831291144 0.0 0.037345425682961286 0.0 0.0
0.12454147661357323 -0.12021926704558528 0.0 0.03832002967590786 0.0 0.0
0.10896375383358636 -0.10490450893552783 0.0 0.03691469754476007 0.0 0.0
0.09343410838825733 -0.08962097165092064 0.0 0.03418496018510098 0.0 0.0
0.07846370384160467 -0.07489337241328542 0.0 0.030726738380844276 0.0 0.0
0.064355891651588 -0.06103138858993473 0.0 0.026913749877925275 0.0 0.0
0.05130473490480325 -0.04822718716119123 0.0 0.022970331130957478 0.0 0.0
0.03943282398483139 -0.03660407632878604 0.0 0.018940764781182895 0.0 0.0
0.02885842372039321 -0.02628353462721833 0.0 0.014805530291297941 0.0 0.0
0.019767871279232907 -0.01745382015919228 0.0 0.010738456093202564 0.0 0.0
0.012415832592116371 -0.010378304463922294 0.0 0.007076251582384785 0.0 0.0
0.007046045375980359 -0.005329421285605651 0.0 0.004265685635566285 0.0 0.0
0.0037068864294346193 -0.002357313290747065 0.0 0.0025239205132768228 0.0 0.0
0.002028186785830721 -0.0010233698399990665 0.0 0.0016840155204194684 0.0 0.0
0.0013121821978848702 -0.0005254216478151053 0.0 0.00136373870281703 0.0 0.0
0.0007654597787035144 -0.00022183726299340734 0.0 0.0013453219834578256 0.0 0.0
0.00036082117760805055 -0.0003828171288973725 0.0 0.0017189039144290263 0.0 0.0
0.004324614957476547 -0.005925938248892515 0.0 0.006655558882740498 0.0 0.0
0.003241583697151801 -0.004729416475799331 0.0 -0.005374978362001848 0.0 0.0
0.00025224978829800626 -0.0003152055119566288 0.0 -0.0020776127868216143 0.0 0.0
0.0005635888284759583 -0.00016473687856888297 0.0 -0.0017411273930988402 0.0 0.0
0.0010366396837978437 -0.0003946835658861225 0.0 -0.0016789642361608181 0.0 0.0
0.001599168378048077 -0.0007587397451360722 0.0 -0.001937292070512131 0.0 0.0
0.002821555433219894 -0.0016663352641779205 0.0 -0.0027105757666841535 0.0 0.0
0.005400165991786013 -0.0038493346344030677 0.0 -0.004402163391323433 0.0 0.0
0.009716574926790691 -0.007820884459202482 0.0 -0.007187467747856169 0.0 0.0
0.015772407961036933 -0.013592734013607277 0.0 -0.0109262833848075 0.0 0.0
0.023289413839373413 -0.020864632266791805 0.0 -0.015134820216789135 0.0 0.0
0.03199525196085612 -0.02934084377891155 0.0 -0.01939507037580701 0.0 0.0
0.041728935796800454 -0.03885325641598136 0.0 -0.02355532528718507 0.0 0.0
0.05241581842214671 -0.04932472247377362 0.0 -0.027638461227608047 0.0 0.0
0.06399682515642216 -0.0606930718344767 0.0 -0.03158475419387774 0.0 0.0
0.07635687987323089 -0.07284244037488818 0.0 -0.03519182326595349 0.0 0.0
0.08928774934852587 -0.08556701133741651 0.0 -0.03813255907779367 0.0 0.0
0.10247285133976125 -0.09853982456800381 0.0 -0.03987352173620207 0.0 0.0
0.11538659541516669 -0.11121745659917259 0.0 -0.03934748654836595 0.0 0.0
0.1270932627645876 -0.12266755369112214 0.0 -0.0344496677331777 0.0 0.0
0.136254679142609 -0.13158967071628158 0.0 -0.022881764941625304 0.0 0.0
0.1362546791425989 -0.13158967071627004 0.0 0.022881764941697802 0.0 0.0
0.12709326276455776 -0.1226675536910884 0.0 0.034449667733267075 0.0 0.0
0.11538659541512242 -0.11121745659912374 0.0 0.03934748654843012 0.0 0.0
0.10247285133970821 -0.09853982456795052 0.0 0.03987352173622338 0.0 0.0
0.08928774934846645 -0.085567011337365 0.0 0.038132559077785455 0.0 0.0
0.07635687987316814 -0.0728424403748269 0.0 0.03519182326593895 0.0 0.0
0.06399682515635952 -0.0606930718344163 0.0 0.03158475419386697 0.0 0.0
0.052415818422086535 -0.049324722473707894 0.0 0.027638461227595723 0.0 0.0
0.04172893579674258 -0.03885325641592319 0.0 0.02355532528715798 0.0 0.0
0.03199525196080644 -0.029340843778864922 0.0 0.01939507037577748 0.0 0.0
0.023289413839329032 -0.020864632266750505 0.0 0.01513482021675605 0.0 0.0
0.015772407961002433 -0.01359273401357175 0.0 0.010926283384781632 0.0 0.0
0.009716574926766641 -0.007820884459176725 0.0 0.007187467747836962 0.0 0.0
0.005400165991771511 -0.003849334634390633 0.0 0.004402163391310443 0.0 0.0
0.0028215554332136628 -0.0016663352641732576 0.0 0.0027105757666773256 0.0 0.0
0.0015991683780466892 -0.0007587397451354061 0.0 0.0019372920705109098 0.0 0.0
0.0010366396837970804 -0.0003946835658865666 0.0 0.0016789642361593193 0.0 0.0
0.0005635888284759027 -0.00016473687856910502 0.0 0.0017411273930960647 0.0 0.0
0.0002522497882974095 -0.000315205511955019 0.0 0.0020776127868194494 0.0 0.0
0.003241583697143946 -0.004729416475789594 0.0 0.005374978361988969 0.0 0.0
0.0023719930827812152 -0.0037138020511914838 0.0 -0.004306523117360073 0.0 0.0
0.00017882782731556968 -0.0002635884879693684 0.0 -0.0023314553169023755 0.0 0.0
0.00038859320321305013 -0.00011623986936593056 0.0 -0.0020569496226324757 0.0 0.0
0.0007682269140227849 -0.0002757620646396397 0.0 -0.0019752372415127173 0.0 0.0
0.0012155808634417564 -0.0005481151669850526 0.0 -0.0021932337570947924 0.0 0.0
0.0020522895787369044 -0.001119232093751199 0.0 -0.0028346518029779832 0.0 0.0
0.0039028150228831993 -0.002574526703152724 0.0 -0.004338832986646668 0.0 0.0
0.007167213340331519 -0.00545877789773952 0.0 -0.006905618836507865 0.0 0.0
0.011878686798046462 -0.009872723072079648 0.0 -0.010400584019868209 0.0 0.0
0.017793076819122067 -0.01554762865999404 0.0 -0.014434498690547137 0.0 0.0
0.02461946299079712 -0.02216719494313102 0.0 -0.01857843759603306 0.0 0.0
0.03221212942164983 -0.029564951380657067 0.0 -0.02261666310718502 0.0 0.0
0.04052959321351243 -0.03769877084895068 0.0 -0.02657577164706948 0.0 0.0
0.049572059717200884 -0.04656331911635636 0.0 -0.030433431724045445 0.0 0.0
0.05930199161161598 -0.05611589940303219 0.0 -0.033984244336710434 0.0 0.0
0.06959757498507896 -0.06623694515059864 0.0 -0.036899597477183854 0.0 0.0
0.08029149984384668 -0.07677281531853009 0.0 -0.038829849173682485 0.0 0.0
0.09123278457345682 -0.0875427393359356 0.0 -0.03896243550833034 0.0 0.0
0.10197539610951004 -0.09806313897271046 0.0 -0.035069856963571566 0.0 0.0
0.11142181729417877 -0.10724688399375903 0.0 -0.024212385628936683 0.0 0.0
0.111421817294172 -0.10724688399375104 0.0 0.024212385629003852 0.0 0.0
0.1019753961094847 -0.09806313897269625 0.0 0.03506985696366127 0.0 0.0
0.09123278457342177 -0.08754273933590362 0.0 0.038962435508397175 0.0 0.0
0.08029149984380374 -0.07677281531848479 0.0 0.03882984917371013 0.0 0.0
0.06959757498503188 -0.06623694515054979 0.0 0.036899597477177526 0.0 0.0
0.059301991611566074 -0.056115899402985114 0.0 0.033984244336696 0.0 0.0
0.049572059717152395 -0.04656331911631373 0.0 0.030433431724030013 0.0 0.0
0.040529593213467 -0.03769877084890849 0.0 0.026575771647059487 0.0 0.0
0.032212129421605784 -0.029564951380614435 0.0 0.02261666310716015 0.0 0.0
0.0246194629907579 -0.022167194943094604 0.0 0.018578437596006747 0.0 0.0
0.01779307681908765 -0.015547628659958512 0.0 0.014434498690515496 0.0 0.0
0.01187868679802001 -0.009872723072056555 0.0 0.010400584019843007 0.0 0.0
0.007167213340313783 -0.0054587778977288615 0.0 0.006905618836493321 0.0 0.0
0.0039028150228728187 -0.002574526703146951 0.0 0.004338832986636454 0.0 0.0
0.0020522895787328244 -0.0011192320937483125 0.0 0.002834651802970989 0.0 0.0
0.0012155808634408682 -0.0005481151669843864 0.0 0.002193233757092239 0.0 0.0
0.0007682269140223963 -0.0002757620646401948 0.0 0.0019752372415098307 0.0 0.0
0.0003885932032127726 -0.0001162398693661526 0.0 0.002056949622628146 0.0 0.0
0.00017882782731526436 -0.00026358848796920187 0.0 0.002331455316899378 0.0 0.0
0.0023719930827751923 -0.003713802051184283 0.0 0.004306523117351746 0.0 0.0
0.0016853828783369718 -0.0028660738875109226 0.0 -0.003453731220963152 0.0 0.0
0.00011539132969740074 -0.00022027241275568432 0.0 -0.0024853725933540183 0.0 0.0
0.0002277671767862699 -6.823550420287372e-05 0.0 -0.0022922057065685175 0.0 0.0
0.0005041622726067729 -0.00015960059420239148 0.0 -0.002225422621865314 0.0 0.0
0.0008518076379458728 -0.00036602757686821086 0.0 -0.0024363581050080296 0.0 0.0
0.0013921524396214302 -0.0007056511258278775 0.0 -0.002963178353332374 0.0 0.0
0.0025755838607582626 -0.001541264907555906 0.0 -0.004153400681633279 0.0 0.0
0.004811301337342616 -0.003368294019199247 0.0 -0.006278268423642763 0.0 0.0
0.008161841783051932 -0.006390691557205397 0.0 -0.009255704217127958 0.0 0.0
0.012429846649831017 -0.010416536986465719 0.0 -0.01276074032518304 0.0 0.0
0.017355411029269102 -0.015150466625663661 0.0 -0.016455613489167353 0.0 0.0
0.022802688916826075 -0.02042863940567141 0.0 -0.0201096645858172 0.0 0.0
0.028749919748855685 -0.026222810815776043 0.0 -0.023703716896408378 0.0 0.0
0.03523929250415633 -0.032570309244265516 0.0 -0.027217140134555784 0.0 0.0
0.04231408832429051 -0.03950471223556473 0.0 -0.03051294319753095 0.0 0.0
0.04995207535649418 -0.04699777660951465 0.0 -0.033250072061637215 0.0 0.0
0.05808033749601252 -0.05500104032715569 0.0 -0.03508556991251954 0.0 0.0
0.06680862288112552 -0.06364133608787803 0.0 -0.035808680446252295 0.0 0.0
0.07635214778460744 -0.0730299696899177 0.0 -0.033720731336654985 0.0 0.0
0.08611447784886392 -0.0824969999508971 0.0 -0.02508460282830971 0.0 0.0
0.0861144778488595 -0.08249699995089088 0.0 0.02508460282836944 0.0 0.0
0.07635214778458937 -0.07302996968989817 0.0 0.03372073133673792 0.0 0.0
0.06680862288109946 -0.0636413360878505 0.0 0.035808680446317465 0.0 0.0
0.05808033749598002 -0.055001040327125494 0.0 0.03508556991254108 0.0 0.0
0.04995207535645904 -0.04699777660947113 0.0 0.033250072061621117 0.0 0.0
0.04231408832425482 -0.03950471223552121 0.0 0.030512943197512854 0.0 0.0
0.03523929250412283 -0.03257030924423088 0.0 0.02721714013454335 0.0 0.0
0.028749919748825403 -0.02622281081575384 0.0 0.02370371689639883 0.0 0.0
0.02280268891679582 -0.020428639405643878 0.0 0.020109664585792775 0.0 0.0
0.017355411029240625 -0.015150466625633907 0.0 0.016455613489139154 0.0 0.0
0.012429846649807563 -0.0104165369864484 0.0 0.012760740325152509 0.0 0.0
0.008161841783033807 -0.0063906915571885214 0.0 0.009255704217112082 0.0 0.0
0.0048113013373308755 -0.0033682940191814836 0.0 0.006278268423634881 0.0 0.0
0.00257558386075174 -0.0015412649075496887 0.0 0.00415340068162412 0.0 0.0
0.0013921524396190987 -0.0007056511258247689 0.0 0.0029631783533273226 0.0 0.0
0.0008518076379451789 -0.00036602757687109744 0.0 0.002436358105005254 0.0 0.0
0.0005041622726065231 -0.00015960059420561112 0.0 0.0022254226218620943 0.0 0.0
0.0002277671767860201 -6.823550420242963e-05 0.0 0.0022922057065670187 0.0 0.0
0.00011539132969740074 -0.00022027241275496268 0.0 0.002485372593353685 0.0 0.0
0.0016853828783326419 -0.002866073887505814 0.0 0.0034537312209543813 0.0 0.0
0.0011664109628241603 -0.0021862607111220456 0.0 -0.0028050130814674112 0.0 0.0
4.4944047313227875e-05 -0.0001828210614458481 0.0 -0.0025600368849590383 0.0 0.0
7.206636463744087e-05 -1.4398856082009637e-05 0.0 -0.002451824732364938 0.0 0.0
0.00024574191063586603 -4.451922324721913e-05 0.0 -0.0024163374625076894 0.0 0.0
0.00048682483688744504 -0.0001903408502614834 0.0 -0.002641956064465767 0.0 0.0
0.0008081472582140425 -0.0003871590546320469 0.0 -0.003112362063449947 0.0 0.0
0.0014365916102629384 -0.0007682010074558931 0.0 -0.003945477762241412 0.0 0.0
0.0026903571554670602 -0.0016485274670086092 0.0 -0.005410786626593778 0.0 0.0
0.004687532434816122 -0.0032798872517285638 0.0 -0.007572253952416674 0.0 0.0
0.0072757209228355435 -0.005606314355359299 0.0 -0.01021382297167639 0.0 0.0
0.010267025284978304 -0.00840915889965066 0.0 -0.013113776093172325 0.0 0.0
0.013547888519592405 -0.01154486390802667 0.0 -0.016085563675894865 0.0 0.0
0.017122010583427244 -0.014994462887142568 0.0 -0.019084755783052132 0.0 0.0
0.021050634878606533 -0.018815933857047717 0.0 -0.022045532825259118 0.0 0.0
0.025431600670812682 -0.02309837922296687 0.0 -0.02489233592565787 0.0 0.0
0.03036999616631167 -0.027931869204511628 0.0 -0.027397461614479535 0.0 0.0
0.03592422061061601 -0.033369202959161015 0.0 -0.029098499590482718 0.0 0.0
0.04224108013751396 -0.039632630471730934 0.0 -0.029923331321025093 0.0 0.0
0.05002603330144231 -0.04741862843966427 0.0 -0.029769269013255162 0.0 0.0
0.05989447026382605 -0.056976775353506426 0.0 -0.02516847938375999 0.0 0.0
0.05989447026382444 -0.056976775353497544 0.0 0.02516847938381106 0.0 0.0
0.050026033301431766 -0.047418628439655386 0.0 0.029769269013334876 0.0 0.0
0.042241080137496334 -0.03963263047170784 0.0 0.029923331321078717 0.0 0.0
0.03592422061059458 -0.03336920295913259 0.0 0.02909849959049826 0.0 0.0
0.030369996166290353 -0.027931869204492976 0.0 0.02739746161446277 0.0 0.0
0.025431600670792753 -0.023098379222950882 0.0 0.024892335925647546 0.0 0.0
0.021050634878587937 -0.018815933857029954 0.0 0.022045532825249015 0.0 0.0
0.017122010583411534 -0.01499446288712436 0.0 0.019084755783047358 0.0 0.0
0.013547888519575196 -0.011544863908009795 0.0 0.016085563675875547 0.0 0.0
0.01026702528496215 -0.008409158899633784 0.0 0.013113776093147345 0.0 0.0
0.007275720922822637 -0.005606314355347752 0.0 0.010213822971651965 0.0 0.0
0.004687532434806435 -0.003279887251725011 0.0 0.007572253952403352 0.0 0.0
0.0026903571554605377 -0.0016485274670055006 0.0 0.005410786626583897 0.0 0.0
0.0014365916102596632 -0.0007682010074527845 0.0 0.003945477762233418 0.0 0.0
0.0008081472582129878 -0.0003871590546300485 0.0 0.003112362063444951 0.0 0.0
0.00048682483688750056 -0.00019034085025970704 0.0 0.002641956064465101 0.0 0.0
0.00024574191063547746 -4.451922324466562e-05 0.0 0.002416337462506135 0.0 0.0
7.206636463732985e-05 -1.4398856080677369e-05 0.0 0.0024518247323628284 0.0 0.0
4.494404731300583e-05 -0.0001828210614453485 0.0 0.0025600368849574284 0.0 0.0
0.0011664109628212183 -0.0021862607111180037 0.0 0.002805013081462193 0.0 0.0
0.0007909317564483986 -0.00165758949429462 0.0 -0.002320683764983178 0.0 0.0
-3.771625314880067e-05 -0.0001519439272059664 0.0 -0.002581361838682128 0.0 0.0
-8.314261418657098e-05 4.820620639522932e-05 0.0 -0.0025482479474427944 0.0 0.0
-6.1581470484628476e-06 6.856130630517043e-05 0.0 -0.002545318600084445 0.0 0.0
0.00011712404436720059 -1.1301596312351947e-05 0.0 -0.002768813147861482 0.0 0.0
0.0002512118875942493 -0.00010778658766863458 0.0 -0.0032494107553852625 0.0 0.0
0.0004517286208690907 -0.0002241316708895269 0.0 -0.0038927266150116657 0.0 0.0
0.0008448418117023848 -0.00043221805583870676 0.0 -0.004641903552566773 0.0 0.0
0.0015088350893414093 -0.0008250841732215797 0.0 -0.005713188092450361 0.0 0.0
0.002380076128216807 -0.001440375290770124 0.0 -0.007277842232373599 0.0 0.0
0.0033842852430143178 -0.002248703006608288 0.0 -0.009303708007512124 0.0 0.0
0.004467193056990448 -0.003201530770418959 0.0 -0.011589873435596476 0.0 0.0
0.00564767213499523 -0.004286258917225005 0.0 -0.014041027999049494 0.0 0.0
0.00699296232862151 -0.00555908342759448 0.0 -0.016619715048463046 0.0 0.0
0.00864187866571467 -0.007145123977491785 0.0 -0.01927254558274416 0.0 0.0
0.010819461337035263 -0.009251227097658798 0.0 -0.02180560733866288 0.0 0.0
0.013799713358605276 -0.01212647008840051 0.0 -0.023717072973541642 0.0 0.0
0.017788628229350983 -0.01597595601472168 0.0 -0.024340663494401782 0.0 0.0
0.023267252310886888 -0.021513207424290748 0.0 -0.02440604626892917 0.0 0.0
0.03219474158443908 -0.030401312919475565 0.0 -0.024279826130269355 0.0 0.0
0.0321947415844408 -0.030401312919469348 0.0 0.024279826130306437 0.0 0.0
0.023267252310882502 -0.02151320742428453 0.0 0.024406046268990678 0.0 0.0
0.017788628229342712 -0.015975956014716353 0.0 0.02434066349443753 0.0 0.0
0.013799713358597226 -0.01212647008840495 0.0 0.023717072973544306 0.0 0.0
0.010819461337029379 -0.009251227097646364 0.0 0.02180560733864123 0.0 0.0
0.008641878665710229 -0.007145123977482015 0.0 0.01927254558273095 0.0 0.0
0.00699296232861768 -0.005559083427592704 0.0 0.01661971504844728 0.0 0.0
0.0056476721349933146 -0.0042862589172254495 0.0 0.014041027999040612 0.0 0.0
0.004467193056988061 -0.0032015307704185147 0.0 0.011589873435578935 0.0 0.0
0.003384285243011348 -0.0022487030066047353 0.0 0.00930370800749658 0.0 0.0
0.0023800761282141703 -0.0014403752907625744 0.0 0.0072778422323603875 0.0 0.0
0.0015088350893394387 -0.000825084173218027 0.0 0.005713188092445032 0.0 0.0
0.0008448418117008305 -0.00043221805583915085 0.0 0.004641903552562887 0.0 0.0
0.0004517286208686466 -0.00022413167089174735 0.0 0.0038927266150062256 0.0 0.0
0.0002512118875943048 -0.0001077865876697448 0.0 0.0032494107553818208 0.0 0.0
0.00011712404436739488 -1.130159631101968e-05 0.0 0.0027688131478583178 0.0 0.0
-6.15814704857387e-06 6.856130630528146e-05 0.0 0.0025453186000812256 0.0 0.0
-8.314261418654323e-05 4.820620639645057e-05 0.0 0.002548247947440574 0.0 0.0
-3.771625314880067e-05 -0.00015194392720524474 0.0 0.00258136183868124 0.0 0.0
0.000790931756446206 -0.0016575894942920284 0.0 0.002320683764978737 0.0 0.0
0.0005263051471788016 -0.0012709033658603874 0.0 -0.002008055067349468 0.0 0.0
-0.00012527996897501725 -0.0001240719012135516 0.0 -0.0025743714005331264 0.0 0.0
-0.00023765465948041853 0.00011600108550424704 0.0 -0.0025860876159177204 0.0 0.0
-0.0002517300723501037 0.00017915139693025495 0.0 -0.0026031614705671613 0.0 0.0
-0.00025001673439412064 0.00016766036151816266 0.0 -0.0028102607527380474 0.0 0.0
-0.00030585072920455425 0.00016840623138403288 0.0 -0.0032719033790126195 0.0 0.0
-0.00047470477467936867 0.00024189773484284416 0.0 -0.003908641564175752 0.0 0.0
-0.0008538145678077258 0.00043903129022071496 0.0 -0.004655745583659332 0.0 0.0
-0.0015099236117571135 0.0008271665100001435 0.0 -0.005719470868832177 0.0 0.0
-0.002380282650460447 0.0014429024859081707 0.0 -0.007278771993724398 0.0 0.0
-0.0034004142108551016 0.0022688269265249694 0.0 -0.009309863495309822 0.0 0.0
-0.0045300689357676005 0.0032629349985011658 0.0 -0.011604729282213122 0.0 0.0
-0.005755715945840234 0.0043760481960211095 0.0 -0.014052084006470955 0.0 0.0
-0.0070088640552706805 0.005529891563329947 0.0 -0.01661681058409281 0.0 0.0
-0.008108517855293013 0.006547215939541218 0.0 -0.01927777278012921 0.0 0.0
-0.008739868778102677 0.007124050042979668 0.0 -0.021973846986899748 0.0 0.0
-0.008457854378198432 0.006845481195709269 0.0 -0.024678620350896185 0.0 0.0
-0.006897490354133229 0.005472746402650053 0.0 -0.027501234810235364 0.0 0.0
-0.0036809211615745907 0.002727088370207298 0.0 -0.030076291208348205 0.0 0.0
0.0042256855590251385 -0.004797143502749179 0.0 -0.02958660655302514 0.0 0.0
0.004225685559026027 -0.00479714350275362 0.0 0.029586606553041794 0.0 0.0
-0.0036809211615745074 0.002727088370212627 0.0 0.030076291208371853 0.0 0.0
-0.006897490354128816 0.0054727464026438355 0.0 0.027501234810239805 0.0 0.0
-0.008457854378190077 0.006845481195697722 0.0 0.02467862035088786 0.0 0.0
-0.008739868778091825 0.007124050042971675 0.0 0.021973846986876433 0.0 0.0
-0.008108517855282327 0.0065472159395350005 0.0 0.019277772780112334 0.0 0.0
-0.007008864055259828 0.0055298915633210655 0.0 0.01661681058407749 0.0 0.0
-0.005755715945828049 0.00437604819600379 0.0 0.01405208400646163 0.0 0.0
-0.004530068935754861 0.003262934998487399 0.0 0.01160472928219669 0.0 0.0
-0.00340041421084461 0.002268826926516976 0.0 0.009309863495290838 0.0 0.0
-0.0023802826504523145 0.0014429024859028416 0.0 0.007278771993708966 0.0 0.0
-0.0015099236117519788 0.0008271665099961467 0.0 0.005719470868828402 0.0 0.0
-0.0008538145678043396 0.0004390312902198268 0.0 0.004655745583655779 0.0 0.0
-0.0004747047746774813 0.00024189773484173394 0.0 0.003908641564171311 0.0 0.0
-0.0003058507292035273 0.0001684062313851431 0.0 0.003271903379009289 0.0 0.0
-0.0002500167343939541 0.00016766036151549812 0.0 0.002810260752735605 0.0 0.0
-0.0002517300723496041 0.00017915139692770143 0.0 0.0026031614705665507 0.0 0.0
-0.00023765465948016873 0.00011600108550435806 0.0 0.0025860876159170543 0.0 0.0
-0.00012527996897482296 -0.0001240719012135516 0.0 0.002574371400532127 0.0 0.0
0.0005263051471775526 -0.0012709033658586163 0.0 0.0020080550673474695 0.0 0.0
0.00034513117370649216 -0.0009916962382280903 0.0 -0.00180368392020408 0.0 0.0
-0.00020679725897451706 -9.171332137181132e-05 0.0 -0.00252999714653257 0.0 0.0
-0.00038836501594463613 0.00018225574238728282 0.0 -0.0025701159581554833 0.0 0.0
-0.0004897664467248264 0.00028617577590916987 0.0 -0.002585134843913872 0.0 0.0
-0.0006099329878807014 0.0003416982108619404 0.0 -0.0027607664684349276 0.0 0.0
-0.0008627132352288791 0.00044952748359383676 0.0 -0.0031854485103107733 0.0 0.0
-0.0014584780967694388 0.0007895248024429868 0.0 -0.003994090849098297 0.0 0.0
-0.0026956349104779453 0.0016558506393491434 0.0 -0.005438048299327813 0.0 0.0
-0.004685988998011481 0.0032803972603381304 0.0 -0.0075795893834912365 0.0 0.0
-0.007276990043486031 0.0056105640513473 0.0 -0.010215891599890226 0.0 0.0
-0.01028610245626796 0.008433486912322596 0.0 -0.013114056019864928 0.0 0.0
-0.013606802513445093 0.011606994518214453 0.0 -0.01606350094261455 0.0 0.0
-0.01721516443078014 0.01507615700028353 0.0 -0.019014904287279588 0.0 0.0
-0.021042467603139436 0.01876303384017053 0.0 -0.021959051200439283 0.0 0.0
-0.024880457459393296 0.022457764574202344 0.0 -0.024955653163465485 0.0 0.0
-0.02834044192155752 0.025782338977093033 0.0 -0.028052168786295573 0.0 0.0
-0.030890445010369583 0.028229784361873733 0.0 -0.031355657392163394 0.0 0.0
-0.03194502016053641 0.029218594287669042 0.0 -0.034753327681447566 0.0 0.0
-0.03037757263203425 0.027396555324848748 0.0 -0.03644103925702191 0.0 0.0
-0.02263947131429636 0.019287639067819384 0.0 -0.03450908234982297 0.0 0.0
-0.022639471314296555 0.01928763906782205 0.0 0.034509082349866715 0.0 0.0
-0.030377572632029143 0.027396555324851413 0.0 0.036441039257085084 0.0 0.0
-0.03194502016051934 0.029218594287657496 0.0 0.03475332768148498 0.0 0.0
-0.030890445010345685 0.02822978436185064 0.0 0.031355657392167835 0.0 0.0
-0.028340441921529624 0.025782338977077934 0.0 0.028052168786274922 0.0 0.0
-0.024880457459367983 0.022457764574181027 0.0 0.024955653163445946 0.0 0.0
-0.021042467603113735 0.018763033840142995 0.0 0.021959051200419966 0.0 0.0
-0.017215164430753077 0.015076157000259549 0.0 0.019014904287263823 0.0 0.0
-0.013606802513418559 0.011606994518190916 0.0 0.016063500942593678 0.0 0.0
-0.0102861024562442 0.008433486912301724 0.0 0.013114056019836617 0.0 0.0
-0.007276990043466464 0.00561056405132776 0.0 0.01021589159986347 0.0 0.0
-0.004685988997998297 0.0032803972603243636 0.0 0.007579589383480467 0.0 0.0
-0.0026956349104698407 0.001655850639341594 0.0 0.005438048299319598 0.0 0.0
-0.001458478096764887 0.0007895248024405443 0.0 0.003994090849090803 0.0 0.0
-0.0008627132352267974 0.00044952748359072814 0.0 0.003185448510307165 0.0 0.0
-0.0006099329878799242 0.000341698210859942 0.0 0.002760766468432818 0.0 0.0
-0.0004897664467244378 0.0002861757759072825 0.0 0.002585134843913317 0.0 0.0
-0.00038836501594455286 0.00018225574238606157 0.0 0.002570115958154262 0.0 0.0
-0.00020679725897454482 -9.171332137236643e-05 0.0 0.0025299971465317928 0.0 0.0
0.00034513117370638113 -0.0009916962382275473 0.0 0.00180368392020408 0.0 0.0
0.00022014950385995657 -0.000762831088990501 0.0 -0.0016080002573938268 0.0 0.0
-0.00027858810633518694 -5.411705584834614e-05 0.0 -0.0024322032341902444 0.0 0.0
-0.0005317196426243287 0.00024363928832971116 0.0 -0.0024964650994828697 0.0 0.0
-0.0007187997709123817 0.0003874688591110065 0.0 -0.0024949663719343596 0.0 0.0
-0.0009596891528136364 0.0005088833017894423 0.0 -0.002627013479471918 0.0 0.0
-0.0014448168817920437 0.0007715897128275362 0.0 -0.0030828442960564306 0.0 0.0
-0.002591346124148075 0.0015631896585714955 0.0 -0.004216568067023918 0.0 0.0
-0.004809465223227782 0.003370115900040549 0.0 -0.006300542239546458 0.0 0.0
-0.008158830850704457 0.006389082026815096 0.0 -0.00925709103975736 0.0 0.0
-0.012433883462249051 0.010422777680964668 0.0 -0.01276317170850716 0.0 0.0
-0.017373760842968378 0.015172725516670038 0.0 -0.016445970106489072 0.0 0.0
-0.022844614750040293 0.02047374066182206 0.0 -0.02003484375825848 0.0 0.0
-0.028804705458450597 0.02626955261789643 0.0 -0.023503792702859072 0.0 0.0
-0.035189836405583735 0.03248379137891444 0.0 -0.026963394633360727 0.0 0.0
-0.041778556298013775 0.03889111386938282 0.0 -0.030646542490466278 0.0 0.0
-0.048118160310716473 0.045051422224194226 0.0 -0.034850301181130194 0.0 0.0
-0.053534412804719794 0.05029966458065971 0.0 -0.039695129359982206 0.0 0.0
-0.05699696156959866 0.05354980795505959 0.0 -0.04429731765680367 0.0 0.0
-0.05653034606631352 0.05279443969995601 0.0 -0.0465481227042307 0.0 0.0
-0.04794383142101444 0.043458820396149456 0.0 -0.04228926932378663 0.0 0.0
-0.04794383142101252 0.04345882039614679 0.0 0.0422892693238438 0.0 0.0
-0.05653034606630225 0.05279443969994002 0.0 0.04654812270430342 0.0 0.0
-0.05699696156957229 0.05354980795503117 0.0 0.044297317656853075 0.0 0.0
-0.05353441280468357 0.05029966458060908 0.0 0.03969512935999231 0.0 0.0
-0.04811816031067359 0.045051422224140936 0.0 0.034850301181110654 0.0 0.0
-0.04177855629797325 0.0388911138693393 0.0 0.030646542490442075 0.0 0.0
-0.03518983640554424 0.03248379137887181 0.0 0.02696339463334041 0.0 0.0
-0.028804705458408603 0.02626955261785291 0.0 0.023503792702840087 0.0 0.0
-0.022844614750000436 0.020473740661781648 0.0 0.0200348437582335 0.0 0.0
-0.01737376084293188 0.015172725516636287 0.0 0.016445970106454544 0.0 0.0
-0.012433883462218603 0.010422777680937134 0.0 0.012763171708473964 0.0 0.0
-0.008158830850682336 0.006389082026798221 0.0 0.009257091039738818 0.0 0.0
-0.004809465223214515 0.0033701159000329994 0.0 0.006300542239534024 0.0 0.0
-0.002591346124139915 0.001563189658568831 0.0 0.004216568067015314 0.0 0.0
-0.0014448168817887408 0.0007715897128246496 0.0 0.0030828442960519342 0.0 0.0
-0.0009596891528122209 0.0005088833017921068 0.0 0.0026270134794684763 0.0 0.0
-0.0007187997709118821 0.0003874688591122277 0.0 0.002494966371931251 0.0 0.0
-0.0005317196426246062 0.00024363928833059934 0.0 0.002496465099479095 0.0 0.0
-0.0002785881063347706 -5.4117055848568185e-05 0.0 0.0024322032341866917 0.0 0.0
0.00022014950385995657 -0.0007628310889897533 0.0 0.0016080002573897745 0.0 0.0
0.0001244035063573401 -0.0005611303153250091 0.0 -0.0013981285367399843 0.0 0.0
-0.0003424656469609433 -1.1450497504394974e-05 0.0 -0.0022790967158284325 0.0 0.0
-0.0006660771279262678 0.0002998766743750325 0.0 -0.0023698933351642415 0.0 0.0
-0.000937523815395469 0.00048066107676025815 0.0 -0.002341478273060249 0.0 0.0
-0.0013041424345520691 0.0006794934679927866 0.0 -0.002439664476000969 0.0 0.0
-0.002097096153529432 0.0011835580694106174 0.0 -0.002978803509613437 0.0 0.0
-0.003906602337973297 0.002588464190850459 0.0 -0.004395035912178991 0.0 0.0
-0.007159640448007765 0.0054531708531810885 0.0 -0.0069123955264184245 0.0 0.0
-0.011877152440346372 0.009871751347983349 0.0 -0.01039872183960211 0.0 0.0
-0.01780031991330494 0.015556094989398694 0.0 -0.014437417907020356 0.0 0.0
-0.024632330024333293 0.022181950786673177 0.0 -0.018558401713537065 0.0 0.0
-0.032222158052569616 0.02957691304754073 0.0 -0.022493953543120226 0.0 0.0
-0.0405175346052431 0.03768331631230026 0.0 -0.026254721788093405 0.0 0.0
-0.049462360427094676 0.046431759327987265 0.0 -0.030011201964266876 0.0 0.0
-0.058839196242431724 0.05559795209204221 0.0 -0.03413708654114034 0.0 0.0
-0.06813528143407205 0.06466678433040318 0.0 -0.03910326649159013 0.0 0.0
-0.0764001631264894 0.07267929085959501 0.0 -0.0449290038572705 0.0 0.0
-0.08200809558142938 0.0779885942334353 0.0 -0.05041257609857319 0.0 0.0
-0.08216390508485799 0.07769443579444246 0.0 -0.05260453248113306 0.0 0.0
-0.07171555367863844 0.06657641633200129 0.0 -0.0482886445595373 0.0 0.0
-0.071715553678633 0.06657641633200129 0.0 0.04828864455959969 0.0 0.0
-0.08216390508484017 0.07769443579443003 0.0 0.05260453248121555 0.0 0.0
-0.08200809558139494 0.07798859423340154 0.0 0.05041257609863081 0.0 0.0
-0.07640016312644216 0.07267929085955238 0.0 0.04492900385728449 0.0 0.0
-0.06813528143401648 0.06466678433035611 0.0 0.039103266491570254 0.0 0.0
-0.05883919624237574 0.055597952091982705 0.0 0.03413708654111636 0.0 0.0
-0.049462360427041524 0.04643175932793486 0.0 0.030011201964242007 0.0 0.0
-0.04051753460518609 0.037683316312245196 0.0 0.026254721788071866 0.0 0.0
-0.032222158052517075 0.029576913047484332 0.0 0.02249395354309547 0.0 0.0
-0.024632330024284804 0.022181950786622107 0.0 0.018558401713501538 0.0 0.0
-0.017800319913264057 0.015556094989358282 0.0 0.014437417906984495 0.0 0.0
-0.011877152440315702 0.009871751347955815 0.0 0.01039872183958035 0.0 0.0
-0.007159640447987503 0.0054531708531659895 0.0 0.006912395526403214 0.0 0.0
-0.003906602337961473 0.0025884641908433537 0.0 0.004395035912164835 0.0 0.0
-0.0020970961535242416 0.0011835580694070647 0.0 0.002978803509605721 0.0 0.0
-0.0013041424345500985 0.0006794934679905662 0.0 0.002439664475999137 0.0 0.0
-0.000937523815395136 0.0004806610767613684 0.0 0.0023414782730585837 0.0 0.0
-0.0006660771279261013 0.0002998766743755876 0.0 0.0023698933351630203 0.0 0.0
-0.00034246564696002735 -1.1450497503950885e-05 0.0 0.002279096715829987 0.0 0.0
0.0001244035063573401 -0.0005611303153246379 0.0 0.001398128536740817 0.0 0.0
4.396278097257289e-05 -0.00038380658156117464 0.0 -0.0011810967126076877 0.0 0.0
-0.0004020870483350536 3.6464241107037054e-05 0.0 -0.0020689960501389937 0.0 0.0
-0.0007911282430618227 0.0003511520283213665 0.0 -0.002185377375623021 0.0 0.0
-0.0011445317598571259 0.0005649534185356853 0.0 -0.002122393946804857 0.0 0.0
-0.001661032670124185 0.0008693944986539748 0.0 -0.002208639155235559 0.0 0.0
-0.0028498670266141612 0.001716316621180658 0.0 -0.0028413101491183146 0.0 0.0
-0.005393363033205423 0.003850957316095638 0.0 -0.004433318507745365 0.0 0.0
-0.009707788630151648 0.007812241964024302 0.0 -0.007184509346076395 0.0 0.0
-0.01577417721317348 0.013594537636846482 0.0 -0.01092325615397749 0.0 0.0
-0.023298665769979965 0.020874012878093318 0.0 -0.015135434885196863 0.0 0.0
-0.03199779257947927 0.029343029745809268 0.0 -0.019362592163586156 0.0 0.0
-0.04169586484522397 0.038820425938160597 0.0 -0.023400130617855175 0.0 0.0
-0.05231628705273239 0.049227450960597885 0.0 -0.027249162466666088 0.0 0.0
-0.0638096411605727 0.06050344797519003 0.0 -0.031056879132162818 0.0 0.0
-0.0759840977655683 0.07243708160689355 0.0 -0.03524915050685129 0.0 0.0
-0.08823896079594507 0.08441101869764722 0.0 -0.04036349604361367 0.0 0.0
-0.09928005770646081 0.09511992377089395 0.0 -0.0464562639907421 0.0 0.0
-0.10682845816917325 0.10225847772082197 0.0 -0.052250527946644865 0.0 0.0
-0.1072132290421921 0.10213766374860711 0.0 -0.05512067352458738 0.0 0.0
-0.09496316781732392 0.08930779714831338 0.0 -0.05344333738276352 0.0 0.0
-0.09496316781731548 0.0893077971483045 0.0 0.053443337382829026 0.0 0.0
-0.10721322904216665 0.10213766374857869 0.0 0.055120673524667985 0.0 0.0
-0.10682845816913064 0.10225847772078023 0.0 0.05225052794670537 0.0 0.0
-0.09928005770640361 0.09511992377084422 0.0 0.04645626399076186 0.0 0.0
-0.0882389607958777 0.0844110186975886 0.0 0.040363496043597014 0.0 0.0
-0.07598409776549839 0.07243708160683049 0.0 0.03524915050682953 0.0 0.0
-0.06380964116050442 0.060503447975127855 0.0 0.031056879132139725 0.0 0.0
-0.05231628705266189 0.049227450960529495 0.0 0.027249162466643995 0.0 0.0
-0.04169586484515758 0.03882042593809887 0.0 0.023400130617826642 0.0 0.0
-0.03199779257941893 0.029343029745754645 0.0 0.019362592163551073 0.0 0.0
-0.023298665769928797 0.02087401287804269 0.0 0.015135434885160559 0.0 0.0
-0.01577417721313476 0.013594537636807846 0.0 0.010923256153954175 0.0 0.0
-0.009707788630124864 0.007812241963994548 0.0 0.0071845093460572995 0.0 0.0
-0.005393363033189269 0.003850957316080983 0.0 0.004433318507729489 0.0 0.0
-0.002849867026606251 0.0017163166211777714 0.0 0.0028413101491104875 0.0 0.0
-0.001661032670121812 0.0008693944986530866 0.0 0.002208639155232728 0.0 0.0
-0.0011445317598563903 0.0005649534185340199 0.0 0.002122393946804857 0.0 0.0
-0.0007911282430610733 0.00035115202832025627 0.0 0.0021853773756242423 0.0 0.0
-0.0004020870483346095 3.6464241106093365e-05 0.0 0.0020689960501354965 0.0 0.0
4.3962780972725546e-05 -0.00038380658156071494 0.0 0.0011810967126034133 0.0 0.0
-2.4479163266200032e-05 -0.00023170389599619368 0.0 -0.0009578314188692927 0.0 0.0
-0.00045928810046919066 8.825213342755767e-05 0.0 -0.0018067530634201523 0.0 0.0
-0.0009078430187984821 0.00039797837843136286 0.0 -0.0019438300665085562 0.0 0.0
-0.0013430854499024703 0.000646502182072739 0.0 -0.0018573249920511015 0.0 0.0
-0.0020535420823912798 0.001102436261018802 0.0 -0.001953414110211271 0.0 0.0
-0.0037138695122385657 0.002386001827603179 0.0 -0.002636256628996414 0.0 0.0
-0.007035323390087167 0.005322808513543276 0.0 -0.004279533854044337 0.0 0.0
-0.012409914158007296 0.010371915164352874 0.0 -0.007065934669055474 0.0 0.0
-0.0197732979622377 0.017458781822733194 0.0 -0.010735807126249775 0.0 0.0
-0.02886710484674143 0.02629134307618486 0.0 -0.014802552903117605 0.0 0.0
-0.03942033834270886 0.036589444761072176 0.0 -0.018896415538102063 0.0 0.0
-0.051224579177378826 0.04814600434822802 0.0 -0.02280507648845609 0.0 0.0
-0.06416564874420427 0.06084790772485782 0.0 -0.026534555123539416 0.0 0.0
-0.07818185122216675 0.07462514485309679 0.0 -0.030183116960218692 0.0 0.0
-0.09309273654806438 0.08926857685606748 0.0 -0.03402393605055587 0.0 0.0
-0.10822990179596886 0.10407321715442475 0.0 -0.03859772975553555 0.0 0.0
-0.12196262023246385 0.11739097983820201 0.0 -0.04424788413315128 0.0 0.0
-0.13134863723640028 0.12628195807374887 0.0 -0.05024436786385922 0.0 0.0
-0.1320278675792085 0.12642574021633823 0.0 -0.05501122313324858 0.0 0.0
-0.1183280618165514 0.11219726879875047 0.0 -0.05816489328232488 0.0 0.0
-0.11832806181654121 0.11219726879874159 0.0 0.058164893282391494 0.0 0.0
-0.13202786757917603 0.12642574021630004 0.0 0.05501122313332363 0.0 0.0
-0.1313486372363478 0.12628195807369025 0.0 0.050244367863920836 0.0 0.0
-0.12196262023239668 0.11739097983812297 0.0 0.044247884133174153 0.0 0.0
-0.1082299017958902 0.10407321715432793 0.0 0.038597729755523336 0.0 0.0
-0.09309273654798092 0.08926857685597778 0.0 0.03402393605054266 0.0 0.0
-0.0781818512220837 0.07462514485301686 0.0 0.030183116960196876 0.0 0.0
-0.06416564874412077 0.060847907724773 0.0 0.026534555123519654 0.0 0.0
-0.051224579177299126 0.04814600434814853 0.0 0.02280507648843405 0.0 0.0
-0.039420338342637126 0.03658944476100068 0.0 0.018896415538064593 0.0 0.0
-0.028867104846680425 0.02629134307612535 0.0 0.014802552903081467 0.0 0.0
-0.019773297962190836 0.017458781822693226 0.0 0.010735807126229124 0.0 0.0
-0.012409914157974308 0.01037191516432312 0.0 0.007065934669037877 0.0 0.0
-0.007035323390065962 0.005322808513528177 0.0 0.004279533854032791 0.0 0.0
-0.0037138695122281434 0.0023860018275960737 0.0 0.0026362566289861444 0.0 0.0
-0.0020535420823876716 0.0011024362610150273 0.0 0.0019534141102086067 0.0 0.0
-0.0013430854499013323 0.0006465021820711847 0.0 0.0018573249920500468 0.0 0.0
-0.0009078430187976078 0.0003979783784316959 0.0 0.0019438300665086117 0.0 0.0
-0.0004592881004691768 8.825213342800176e-05 0.0 0.0018067530634198747 0.0 0.0
-2.447916326552002e-05 -0.00023170389599567152 0.0 0.0009578314188682935 0.0 0.0
-8.009402982839253e-05 -0.00010715322539817107 0.0 -0.000727911483314192 0.0 0.0
-0.0005130081414219667 0.00014136144026954955 0.0 -0.0014981211292806051 0.0 0.0
-0.0010181451618131998 0.0004413150699060786 0.0 -0.001646036125364958 0.0 0.0
-0.0015416532606924993 0.0007317042821775033 0.0 -0.0015445643266964737 0.0 0.0
-0.002502747598558175 0.0013946403910780614 0.0 -0.001651042971358041 0.0 0.0
-0.004692168619221615 0.0032029589452327034 0.0 -0.002338510712883879 0.0 0.0
-0.008814162090706068 0.006971981483504752 0.0 -0.003925666886478996 0.0 0.0
-0.01519748249718722 0.013053764853208971 0.0 -0.006484693211931791 0.0 0.0
-0.023815118074782815 0.02138950152177399 0.0 -0.009779836767454309 0.0 0.0
-0.03446059438181748 0.03175398660264506 0.0 -0.013464857444736245 0.0 0.0
-0.046855588941161264 0.043869919361723575 0.0 -0.0171731756964999 0.0 0.0
-0.06076612934129749 0.05750501016596932 0.0 -0.02072162372590558 0.0 0.0
-0.07603103199241779 0.07250149115829885 0.0 -0.02413191157226091 0.0 0.0
-0.09253175515706452 0.08873543089793579 0.0 -0.02740438895374875 0.0 0.0
-0.11005353151029351 0.10596718406965255 0.0 -0.03057920159510763 0.0 0.0
-0.1279006032118848 0.12344668934161884 0.0 -0.03400545442232339 0.0 0.0
-0.14423599745971694 0.13929653054679836 0.0 -0.03846339475843297 0.0 0.0
-0.15558519207013785 0.15007868181178807 0.0 -0.04457645115496012 0.0 0.0
-0.15696899821483754 0.15087954083730803 0.0 -0.05241180071069573 0.0 0.0
-0.14230280825462596 0.13569806347072078 0.0 -0.06244508423654571 0.0 0.0
-0.14230280825461403 0.1356980634707039 0.0 0.06244508423660822 0.0 0.0
-0.15696899821479965 0.1508795408372805 0.0 0.052411800710764456 0.0 0.0
-0.1555851920700749 0.15007868181173567 0.0 0.04457645115501219 0.0 0.0
-0.14423599745963833 0.13929653054671576 0.0 0.03846339475844829 0.0 0.0
-0.12790060321179525 0.12344668934153447 0.0 0.034005454422316284 0.0 0.0
-0.11005353151019624 0.10596718406956196 0.0 0.030579201595099748 0.0 0.0
-0.09253175515696745 0.08873543089783364 0.0 0.027404388953728653 0.0 0.0
-0.07603103199232135 0.07250149115820337 0.0 0.024131911572243536 0.0 0.0
-0.060766129341204955 0.05750501016587917 0.0 0.020721623725881433 0.0 0.0
-0.0468555889410783 0.04386991936164497 0.0 0.017173175696467202 0.0 0.0
-0.03446059438174659 0.03175398660257622 0.0 0.013464857444702605 0.0 0.0
-0.023815118074727817 0.021389501521716703 0.0 0.009779836767433048 0.0 0.0
-0.015197482497147322 0.013053764853169003 0.0 0.006484693211912251 0.0 0.0
-0.008814162090680588 0.006971981483479883 0.0 0.003925666886469892 0.0 0.0
-0.0046921686192082784 0.003202958945219825 0.0 0.0023385107128758853 0.0 0.0
-0.0025027475985529984 0.0013946403910736205 0.0 0.001651042971355432 0.0 0.0
-0.0015416532606909172 0.0007317042821768371 0.0 0.001544564326695419 0.0 0.0
-0.0010181451618122561 0.00044131506990541247 0.0 0.0016460361253636813 0.0 0.0
-0.0005130081414216336 0.00014136144026904995 0.0 0.0014981211292789398 0.0 0.0
-8.00940298278513e-05 -0.00010715322539840699 0.0 0.0007279114833108058 0.0 0.0
-0.00011929200617050162 -1.35073178407219e-05 0.0 -0.0004928705225701879 0.0 0.0
-0.0005589010156055729 0.00019198453124569248 0.0 -0.0011463858154215911 0.0 0.0
-0.0011238997297758901 0.00048125853801694873 0.0 -0.0012882863996711569 0.0 0.0
-0.0017534076794610276 0.0008328391837277849 0.0 -0.001186521067763846 0.0 0.0
-0.003025694430838999 0.0017701351213039729 0.0 -0.0012955834313465031 0.0 0.0
-0.005787912105235604 0.004164327152076597 0.0 -0.0019340840638253365 0.0 0.0
-0.01068087252333949 0.008737683696022014 0.0 -0.003269256999751613 0.0 0.0
-0.01801621493738026 0.01578934333570814 0.0 -0.005357138699312203 0.0 0.0
-0.027860121780439007 0.02534064288786686 0.0 -0.008077737751123415 0.0 0.0
-0.040034063992805125 0.0372139530241542 0.0 -0.011132501885008583 0.0 0.0
-0.05425934905772789 0.051135765949919865 0.0 -0.014210724570831279 0.0 0.0
-0.0702758977452273 0.06684955696497763 0.0 -0.01715370685848372 0.0 0.0
-0.08786930390040731 0.08414165542788599 0.0 -0.019998594884542475 0.0 0.0
-0.10682426015848961 0.10279424816884397 0.0 -0.02273044745354702 0.0 0.0
-0.1268040035819586 0.12245684310466043 0.0 -0.025111091437185262 0.0 0.0
-0.14706963944673906 0.14234452009015452 0.0 -0.027005772029820907 0.0 0.0
-0.16585183446605967 0.16062058528414003 0.0 -0.029439720010304704 0.0 0.0
-0.17952344571736525 0.17363239589476098 0.0 -0.035148827628569745 0.0 0.0
-0.1823440477280723 0.175792722582365 0.0 -0.046812480268827894 0.0 0.0
-0.1674215549798367 0.16030538634314961 0.0 -0.06591964778819004 0.0 0.0
-0.16742155497982297 0.16030538634313451 0.0 0.06591964778823389 0.0 0.0
-0.18234404772802804 0.1757927225823135 0.0 0.0468124802688934 0.0 0.0
-0.17952344571729276 0.17363239589469526 0.0 0.03514882762861593 0.0 0.0
-0.16585183446596843 0.16062058528405831 0.0 0.029439720010314585 0.0 0.0
-0.14706963944663745 0.14234452009004617 0.0 0.02700577202981419 0.0 0.0
-0.126804003581848 0.12245684310453964 0.0 0.02511109143718021 0.0 0.0
-0.10682426015837856 0.10279424816873384 0.0 0.022730447453532365 0.0 0.0
-0.08786930390029825 0.08414165542778917 0.0 0.01999859488453165 0.0 0.0
-0.07027589774512172 0.06684955696487815 0.0 0.017153706858468343 0.0 0.0
-0.0542593490576337 0.05113576594983238 0.0 0.014210724570809963 0.0 0.0
-0.040034063992724904 0.03721395302407737 0.0 0.01113250188498316 0.0 0.0
-0.027860121780376362 0.025340642887804243 0.0 0.008077737751107539 0.0 0.0
-0.01801621493733379 0.015789343335663286 0.0 0.005357138699298214 0.0 0.0
-0.010680872523309494 0.00873768369599115 0.0 0.0032692569997418985 0.0 0.0
-0.005787912105219208 0.0041643271520601655 0.0 0.0019340840638208956 0.0 0.0
-0.003025694430832747 0.0017701351212984218 0.0 0.0012955834313445602 0.0 0.0
-0.0017534076794590014 0.0008328391837266746 0.0 0.001186521067763957 0.0 0.0
-0.0011238997297751546 0.00048125853801594953 0.0 0.0012882863996716565 0.0 0.0
-0.0005589010156051219 0.0001919845312452484 0.0 0.0011463858154213136 0.0 0.0
-0.00011929200617033509 -1.350731784106364e-05 0.0 0.0004928705225690222 0.0 0.0
-0.00013519802679523574 4.475842079509906e-05 0.0 -0.0002593919548192769 0.0 0.0
-0.0005878802077824985 0.0002336998037827387 0.0 -0.0007509577350924834 0.0 0.0
-0.0012283801190926535 0.0005209795202549827 0.0 -0.0008646072001569083 0.0 0.0
-0.0019987579151002355 0.000966095893072616 0.0 -0.00078571466357924 0.0 0.0
-0.0036358149043948518 0.002249822125359513 0.0 -0.0008863315966736174 0.0 0.0
-0.006981408886617024 0.005249369437477558 0.0 -0.0013586977010507373 0.0 0.0
-0.01258607956758706 0.010568699930785908 0.0 -0.0022859588383793983 0.0 0.0
-0.02083495351277681 0.01853873340328427 0.0 -0.003723873314763204 0.0 0.0
-0.03186577088016973 0.029268568092696068 0.0 -0.005633487238549395 0.0 0.0
-0.04554312574962771 0.042624977210246495 0.0 -0.007806757822140464 0.0 0.0
-0.061587410095518436 0.05834078738224768 0.0 -0.0099993850175627 0.0 0.0
-0.0797081603477709 0.07613062701278173 0.0 -0.012095990930332645 0.0 0.0
-0.09963054946877514 0.09571770868346263 0.0 -0.014148361027657597 0.0 0.0
-0.12101463613360203 0.11675840402890447 0.0 -0.016090990885870182 0.0 0.0
-0.14333422076493613 0.13872168264495865 0.0 -0.017604393653663175 0.0 0.0
-0.1657070734100642 0.1607111391564331 0.0 -0.018214068529822658 0.0 0.0
-0.186543986745284 0.18108273060446223 0.0 -0.018277698359843164 0.0 0.0
-0.20275617096715132 0.19665137034931313 0.0 -0.021546852472159594 0.0 0.0
-0.2084414018402654 0.20140422195432084 0.0 -0.036401368676270196 0.0 0.0
-0.19446067033742667 0.1867461123366665 0.0 -0.06772543915226414 0.0 0.0
-0.19446067033741138 0.18674611233665228 0.0 0.06772543915230012 0.0 0.0
-0.20844140184021417 0.20140422195427643 0.0 0.03640136867632082 0.0 0.0
-0.20275617096706833 0.1966513703492314 0.0 0.0215468524721939 0.0 0.0
-0.18654398674518047 0.18108273060435565 0.0 0.01827769835984927 0.0 0.0
-0.16570707340994875 0.16071113915631408 0.0 0.01821406852981794 0.0 0.0
-0.14333422076481278 0.13872168264483165 0.0 0.017604393653662065 0.0 0.0
-0.12101463613347804 0.11675840402878368 0.0 0.016090990885863188 0.0 0.0
-0.09963054946865242 0.09571770868334406 0.0 0.014148361027648382 0.0 0.0
-0.07970816034765281 0.07613062701266227 0.0 0.012095990930320377 0.0 0.0
-0.06158741009541334 0.05834078738214421 0.0 0.009999385017544826 0.0 0.0
-0.045543125749538546 0.04262497721015723 0.0 0.007806757822119315 0.0 0.0
-0.03186577088009984 0.029268568092625014 0.0 0.005633487238536683 0.0 0.0
-0.020834953512723874 0.018538733403233643 0.0 0.0037238733147537117 0.0 0.0
-0.012586079567551658 0.010568699930753267 0.0 0.002285958838370017 0.0 0.0
-0.006981408886597991 0.005249369437458906 0.0 0.0013586977010476842 0.0 0.0
-0.0036358149043871496 0.0022498221253510753 0.0 0.0008863315966725627 0.0 0.0
-0.0019987579150976507 0.0009660958930710617 0.0 0.0007857146635795176 0.0 0.0
-0.001228380119091571 0.0005209795202552048 0.0 0.0008646072001565197 0.0 0.0
-0.0005878802077818983 0.00023369980378240562 0.0 0.0007509577350925389 0.0 0.0
-0.00013519802679513165 4.4758420795739176e-05 0.0 0.0002593919548197765 0.0 0.0
-0.00011550963124967728 6.123724135442821e-05 0.0 -4.444915357210144e-05 0.0 0.0
-0.000583262661369377 0.0002559729682644063 0.0 -0.00030370918738797936 0.0 0.0
-0.0013409119656318524 0.0005681353472268835 0.0 -0.00036144791698194956 0.0 0.0
-0.002302826668215463 0.0011623834219780527 0.0 -0.00034372680119931776 0.0 0.0
-0.004334859372491007 0.0028320862471806763 0.0 -0.0003917974552027359 0.0 0.0
-0.008236502791981237 0.006415504342120348 0.0 -0.0005833809387670863 0.0 0.0
-0.01450813404348622 0.012429192455542637 0.0 -0.0009690834967255868 0.0 0.0
-0.023616405348334535 0.021264731901779133 0.0 -0.0015880664673112443 0.0 0.0
-0.035789080891116265 0.033127514330470564 0.0 -0.0024556823686725515 0.0 0.0
-0.05094146076669931 0.04793972811528979 0.0 -0.0034815153252457653 0.0 0.0
-0.06879671367701362 0.06544069194577595 0.0 -0.004534455354041178 0.0 0.0
-0.08902054195946946 0.08530341372608419 0.0 -0.005554780986932628 0.0 0.0
-0.11125306470144092 0.10716709757686793 0.0 -0.006539888173345831 0.0 0.0
-0.13503550126647434 0.13056617135059323 0.0 -0.007413333676414613 0.0 0.0
-0.15965212945428903 0.15478112670075195 0.0 -0.007974380092635291 0.0 0.0
-0.18397083863736546 0.1786845103800916 0.0 -0.007826005448211326 0.0 0.0
-0.2063485581131012 0.20063727481889337 0.0 -0.006613591447168332 0.0 0.0
-0.2244307437517205 0.2182301537255018 0.0 -0.005948639831218516 0.0 0.0
-0.2341091092893488 0.22714214622388607 0.0 -0.01654320833862044 0.0 0.0
-0.2256068684416883 0.21674915786077698 0.0 -0.062421649370189014 0.0 0.0
-0.22560686844167285 0.21674915786075388 0.0 0.06242164937020456 0.0 0.0
-0.2341091092892921 0.22714214622382212 0.0 0.016543208338648974 0.0 0.0
-0.22443074375162425 0.2182301537254192 0.0 0.005948639831232727 0.0 0.0
-0.20634855811298378 0.2006372748187797 0.0 0.006613591447165945 0.0 0.0
-0.183970838637236 0.17868451037996103 0.0 0.007826005448206108 0.0 0.0
-0.15965212945415247 0.15478112670062227 0.0 0.007974380092632238 0.0 0.0
-0.135035501266338 0.13056617135046 0.0 0.007413333676410727 0.0 0.0
-0.11125306470130418 0.10716709757673382 0.0 0.006539888173340336 0.0 0.0
-0.08902054195933932 0.08530341372595851 0.0 0.005554780986928631 0.0 0.0
-0.06879671367689741 0.06544069194565827 0.0 0.0045344553540332955 0.0 0.0
-0.05094146076660159 0.04793972811519476 0.0 0.0034815153252359954 0.0 0.0
-0.03578908089104002 0.03312751433040173 0.0 0.0024556823686670004 0.0 0.0
-0.023616405348275558 0.021264731901725398 0.0 0.0015880664673056377 0.0 0.0
-0.014508134043445708 0.01242919245550067 0.0 0.0009690834967220341 0.0 0.0
-0.008236502791959664 0.006415504342098588 0.0 0.0005833809387664202 0.0 0.0
-0.004334859372481006 0.0028320862471731267 0.0 0.00039179745520256937 0.0 0.0
-0.002302826668212174 0.0011623834219759432 0.0 0.00034372680120126065 0.0 0.0
-0.001340911965630548 0.0005681353472264394 0.0 0.0003614479169842255 0.0 0.0
-0.0005832626613685929 0.0002559729682644618 0.0 0.00030370918738831243 0.0 0.0
-0.00011550963124925748 6.123724135405698e-05 0.0 4.4449153571879396e-05 0.0 0.0
SCALARS Statev float 8
LOOKUP_TABLE default
0.0 0.015180226701408709 0.011815785337623166 -0.012195361261311422 0.00037957592368825826 -0.006840437866573336 0.0 0.0
0.0 0.0011415857019559492 0.0008394139149271776 -0.0007344319318880132 -0.00010498198303916427 0.0007087481379538236 0.0 0.0
0.0 4.662816861721133e-05 7.808135626342365e-06 -5.816272626892563e-06 -1.991862999449832e-06 -6.170281740119466e-07 0.0 0.0
0.0 0.00047225441895233395 0.0003780864665632067 -0.00030211545012223337 -7.597101644097344e-05 -5.4815044813580746e-05 0.0 0.0
0.0 0.0022882830870180615 0.0019226193777899627 -0.0016344252915220215 -0.00028819408626794084 -0.00020611418385701498 0.0 0.0
0.0 0.00607853031588844 0.005450171348728678 -0.004928008088678902 -0.0005221632600497754 -0.00044635067203156563 0.0 0.0
0.0 0.01290750677171785 0.011403904126357006 -0.010741107946830326 -0.0006627961795266748 -0.0008218541099273012 0.0 0.0
0.0 0.023075137951464715 0.02022728516046602 -0.01945974247341784 -0.0007675426870481776 -0.0014131539987108496 0.0 0.0
0.0 0.03681671555081606 0.032127445804208725 -0.0312529850302336 -0.0008744607739751203 -0.0022529986631042525 0.0 0.0
0.0 0.054054338840832876 0.04703288976317032 -0.046043078774365157 -0.00098981098880517 -0.003266811768519507 0.0 0.0
0.0 0.0745166386118632 0.06468770367455229 -0.06357788131724074 -0.0011098223573115288 -0.004325198718017797 0.0 0.0
0.0 0.09754811201073427 0.08477246828855553 -0.08354060545706268 -0.0012318628314928388 -0.005356104395450703 0.0 0.0
0.0 0.12306299722180418 0.10694575997298959 -0.10559031992763557 -0.0013554400453539167 -0.006360145210575512 0.0 0.0
0.0 0.15060352937557914 0.13081385355213537 -0.12933177115070565 -0.0014820824014296246 -0.007315033316196164 0.0 0.0
0.0 0.17945969513308282 0.15581773968624624 -0.15420500255816022 -0.0016127371280858834 -0.008153487703769988 0.0 0.0
0.0 0.208693252899443 0.18111604513167054 -0.1793703293535311 -0.0017457157781395388 -0.008697147074650574 0.0 0.0
0.0 0.2369299918317036 0.20554868134644905 -0.2036722078180191 -0.001876473528430077 -0.008676626667686503 0.0 0.0
0.0 0.26249313646739164 0.22767910182870885 -0.22567770298254958 -0.0020013988461590453 -0.007916800704424388 0.0 0.0
0.0 0.2834227713945282 0.24579913388706165 -0.2436754667251771 -0.0021236671618844833 -0.007035708627804223 0.0 0.0
0.0 0.29637401930612745 0.2571337705740334 -0.2548002722562921 -0.0023334983177413335 -0.009108782519131577 0.0 0.0
0.0 0.2963740193061083 0.2571337705740166 -0.25480027225627533 -0.002333498317741246 0.00910878251914353 0.0 0.0
0.0 0.2834227713944663 0.24579913388700753 -0.2436754667251235 -0.0021236671618839516 0.007035708627833197 0.0 0.0
0.0 0.2624931364672881 0.22767910182861897 -0.22567770298246048 -0.0020013988461584135 0.0079168007044438 0.0 0.0
0.0 0.23692999183157443 0.2055486813463371 -0.20367220781790735 -0.0018764735284297683 0.008676626667695028 0.0 0.0
0.0 0.20869325289929358 0.18111604513154184 -0.17937032935340158 -0.001745715778140344 0.008697147074637854 0.0 0.0
0.0 0.17945969513293086 0.15581773968611495 -0.15420500255802833 -0.0016127371280865914 0.008153487703767181 0.0 0.0
0.0 0.1506035293754306 0.13081385355200667 -0.12933177115057737 -0.0014820824014292538 0.007315033316197022 0.0 0.0
0.0 0.12306299722165899 0.10694575997286326 -0.10559031992751085 -0.0013554400453523875 0.006360145210573896 0.0 0.0
0.0 0.09754811201059617 0.08477246828843556 -0.08354060545694393 -0.0012318628314915746 0.0053561043954412 0.0 0.0
0.0 0.07451663861174262 0.064687703674447 -0.063577881317137 -0.0011098223573099966 0.004325198718010019 0.0 0.0
0.0 0.05405433884072797 0.04703288976307954 -0.04604307877427503 -0.0009898109888045199 0.0032668117685059573 0.0 0.0
0.0 0.0368167155507336 0.03212744580413678 -0.03125298503016204 -0.000874460773974768 0.0022529986631007826 0.0 0.0
0.0 0.023075137951404895 0.02022728516041328 -0.019459742473365717 -0.0007675426870475577 0.0014131539987064122 0.0 0.0
0.0 0.012907506771679364 0.011403904126322847 -0.01074110794679674 -0.0006627961795260999 0.000821854109924661 0.0 0.0
0.0 0.006078530315865808 0.0054501713487082 -0.004928008088659285 -0.0005221632600489155 0.00044635067202976195 0.0 0.0
0.0 0.0022882830870067684 0.0019226193777804371 -0.001634425291513428 -0.00028819408626700897 0.00020611418385597555 0.0 0.0
0.0 0.0004722544189488888 0.00037808646656098616 -0.0003021154501204078 -7.597101644057824e-05 5.481504481323637e-05 0.0 0.0
0.0 4.6628168616640895e-05 7.808135626366595e-06 -5.816272626913033e-06 -1.9918629994535142e-06 6.170281740107993e-07 0.0 0.0
0.0 0.0011415857019528859 0.0008394139149254335 -0.0007344319318864518 -0.0001049819830389823 -0.0007087481379517953 0.0 0.0
0.0 0.015180226701389025 0.011815785337610227 -0.01219536126129748 0.0003795759236872498 0.00684043786653972 0.0 0.0
0.0 0.011483540901092394 0.00837247256627337 -0.008870829879604532 0.0004983573133311614 -0.008051721489986523 0.0 0.0
0.0 4.234829950656153e-05 3.429551450541683e-05 -3.155692652731939e-05 -2.738587978097422e-06 2.2176313135958148e-05 0.0 0.0
0.0 1.1673221188410158e-06 5.599263627958379e-07 -4.2419141753534107e-07 -1.3573494526049885e-07 -1.9383519147542775e-07 0.0 0.0
0.0 0.00021684138001759888 0.00017107249442603186 -0.0001353696710322043 -3.5702823393827755e-05 -5.851615136474308e-05 0.0 0.0
0.0 0.0015938476318617372 0.0013037993060072616 -0.0010903656684732987 -0.00021343363753396324 -0.000344892736789781 0.0 0.0
0.0 0.004780704245916588 0.004288877402291963 -0.003822942026958054 -0.00046593537533390784 -0.0009282156521861605 0.0 0.0
0.0 0.010850019398611598 0.009573075375563903 -0.008940292639921294 -0.0006327827356426074 -0.001870040793375155 0.0 0.0
0.0 0.020043626542419597 0.017529273646035667 -0.016783433377215468 -0.0007458402688202059 -0.0032626118700529215 0.0 0.0
0.0 0.03248781550712814 0.028284943619221792 -0.027433433092255675 -0.0008515105269661051 -0.005128001241297066 0.0 0.0
0.0 0.048039327127755736 0.04171552362277807 -0.040754518122652406 -0.0009610055001256615 -0.007293013561749762 0.0 0.0
0.0 0.06639770862456947 0.0575627654536799 -0.056490324293863914 -0.0010724411598159796 -0.009514610981772932 0.0 0.0
0.0 0.08728635302759008 0.0755511528785891 -0.07436643681214454 -0.001184716066444521 -0.011654291766101357 0.0 0.0
0.0 0.11010246009809271 0.09541383135047457 -0.09411531100464057 -0.0012985203458340073 -0.013752161235046865 0.0 0.0
0.0 0.1347630069702398 0.11682004336161923 -0.1154054851966102 -0.001414558165009049 -0.015788540873676635 0.0 0.0
0.0 0.16071013858855987 0.13929176123468612 -0.13775867494418625 -0.0015330862904998123 -0.01759732257049954 0.0 0.0
0.0 0.18704486057071779 0.16211962891150777 -0.16046626035226041 -0.0016533685592473933 -0.018837134083722284 0.0 0.0
0.0 0.21261749212923872 0.18430006171095792 -0.18252584746199202 -0.0017742142489658766 -0.01901930145228404 0.0 0.0
0.0 0.2358901276439394 0.20448553488877078 -0.2025889030535845 -0.001896631835186183 -0.01792883164421596 0.0 0.0
0.0 0.2546509627304972 0.22076961833874903 -0.21873128237924047 -0.002038335959508463 -0.016104904282823875 0.0 0.0
0.0 0.26589828718771413 0.23055729978487505 -0.22841061183528089 -0.0021466879495942036 -0.013399282242476763 0.0 0.0
0.0 0.2658982871876975 0.23055729978486006 -0.2284106118352663 -0.002146687949593907 0.013399282242507114 0.0 0.0
0.0 0.2546509627304429 0.2207696183387009 -0.2187312823791927 -0.0020383359595082225 0.016104904282874838 0.0 0.0
0.0 0.23589012764385 0.20448553488869273 -0.20258890305350646 -0.0018966318351861058 0.017928831644252283 0.0 0.0
0.0 0.21261749212913328 0.18430006171086566 -0.18252584746190123 -0.0017742142489642146 0.019019301452299825 0.0 0.0
0.0 0.18704486057058617 0.1621196289113942 -0.16046626035214698 -0.001653368559247013 0.018837134083710454 0.0 0.0
0.0 0.160710138588421 0.13929176123456577 -0.13775867494406663 -0.001533086290499079 0.01759732257049173 0.0 0.0
0.0 0.13476300697010563 0.11682004336150273 -0.11540548519649457 -0.0014145581650081083 0.015788540873672652 0.0 0.0
0.0 0.11010246009796207 0.09541383135036136 -0.09411531100452787 -0.001298520345833479 0.01375216123504033 0.0 0.0
0.0 0.0872863530274651 0.07555115287848073 -0.07436643681203695 -0.0011847160664437404 0.011654291766085918 0.0 0.0
0.0 0.06639770862445696 0.05756276545358259 -0.05649032429376685 -0.0010724411598157402 0.009514610981759198 0.0 0.0
0.0 0.04803932712766148 0.041715523622696614 -0.04075451812257115 -0.0009610055001254415 0.007293013561729664 0.0 0.0
0.0 0.032487815507056664 0.028284943619159172 -0.02743343309219349 -0.0008515105269656701 0.005128001241288686 0.0 0.0
0.0 0.020043626542368048 0.01752927364599062 -0.016783433377170774 -0.0007458402688198502 0.0032626118700440727 0.0 0.0
0.0 0.010850019398577816 0.009573075375533903 -0.00894029263989203 -0.0006327827356418628 0.0018700407933696197 0.0 0.0
0.0 0.0047807042458951265 0.004288877402273223 -0.0038229420269401695 -0.0004659353753330544 0.0009282156521816739 0.0 0.0
0.0 0.0015938476318515934 0.0013037993059990792 -0.0010903656684660432 -0.00021343363753303576 0.00034489273678759477 0.0 0.0
0.0 0.00021684138001603002 0.00017107249442525202 -0.00013536967103154238 -3.570282339370952e-05 5.85161513643742e-05 0.0 0.0
0.0 1.1673221187163294e-06 5.599263628878713e-07 -4.241914176028207e-07 -1.357349452850529e-07 1.9383519149430214e-07 0.0 0.0
0.0 4.2348299506094833e-05 3.429551450535092e-05 -3.1556926527208445e-05 -2.7385879781424656e-06 -2.2176313135829284e-05 0.0 0.0
0.0 0.011483540901068904 0.008372472566257992 -0.008870829879588527 0.0004983573133305238 0.008051721489957923 0.0 0.0
0.0 0.008837272734731762 0.0061117248542931265 -0.006650277850926041 0.0005385529966329124 -0.0071677851743995645 0.0 0.0
0.0 0.0 0.0 0.0 0.0 0.0 0.0 0.0
0.0 0.0 0.0 0.0 0.0 0.0 0.0 0.0
0.0 6.111372043827173e-05 5.187812577642569e-05 -4.0760480999265404e-05 -1.111764477716031e-05 -3.260763405451163e-05 0.0 0.0
0.0 0.0009730653222277849 0.0008046326883158032 -0.0006621166062825871 -0.00014251608203321564 -0.0003748276682595892 0.0 0.0
0.0 0.0037528918268494435 0.0031907000007730503 -0.0027974894270758424 -0.0003932105736972077 -0.0011887426226769447 0.0 0.0
0.0 0.008862369070084445 0.007775265061032746 -0.007181244610443909 -0.0005940204505888357 -0.0025704637659788128 0.0 0.0
0.0 0.017036346005590498 0.014814685489970073 -0.014096509114221578 -0.0007181763757484843 -0.004611821497445524 0.0 0.0
0.0 0.028173342107474367 0.024379897816871682 -0.02355608504421139 -0.0008238127726602914 -0.00727827895174696 0.0 0.0
0.0 0.042044711778322044 0.036305750040440184 -0.035378448329716455 -0.0009273017107237242 -0.010325805841590053 0.0 0.0
0.0 0.05836930994870189 0.050333581393239 -0.04930318536532846 -0.0010303960279105288 -0.013450356984156305 0.0 0.0
0.0 0.0767760940528919 0.06622300745428995 -0.06508952687169596 -0.0011334805825939916 -0.016475329077063776 0.0 0.0
0.0 0.09718448409730404 0.08375558679274014 -0.0825182860427191 -0.0012373007500210069 -0.019421680491747105 0.0 0.0
0.0 0.11896379916209984 0.10267748833267347 -0.10133524666944105 -0.00134224166323236 -0.02229533270957392 0.0 0.0
0.0 0.14194821733542914 0.12260940264537155 -0.12116114667356973 -0.0014482559718018257 -0.02489447270087182 0.0 0.0
0.0 0.16545759401555302 0.14298009366058415 -0.14142396906003038 -0.001556124600553789 -0.026758286378063437 0.0 0.0
0.0 0.18842066989566594 0.16293476669928755 -0.16126687643055854 -0.0016678902687289757 -0.027310264182390027 0.0 0.0
0.0 0.2093547635107123 0.181188929346153 -0.17939990020343252 -0.0017890291427205306 -0.026171047428825808 0.0 0.0
0.0 0.22617412252452507 0.1959109951819558 -0.19400352306786298 -0.0019074721140927033 -0.022863476807598093 0.0 0.0
0.0 0.23652232092001627 0.2050617470605826 -0.2030673983045077 -0.0019943487560746976 -0.01630667956666563 0.0 0.0
0.0 0.23652232091999914 0.20506174706056676 -0.2030673983044921 -0.001994348756074683 0.016306679566714485 0.0 0.0
0.0 0.22617412252447938 0.19591099518191354 -0.19400352306782187 -0.0019074721140917798 0.02286347680766846 0.0 0.0
0.0 0.20935476351063412 0.18118892934608288 -0.17939990020336352 -0.001789029142719141 0.0261710474288771 0.0 0.0
0.0 0.18842066989556938 0.16293476669920232 -0.1612668764304747 -0.0016678902687278325 0.02731026418240966 0.0 0.0
0.0 0.16545759401544188 0.14298009366048803 -0.14142396905993468 -0.0015561246005532377 0.02675828637805459 0.0 0.0
0.0 0.1419482173353126 0.12260940264527051 -0.12116114667346936 -0.0014482559718011646 0.0248944727008621 0.0 0.0
0.0 0.11896379916198466 0.10267748833257284 -0.10133524666934204 -0.0013422416632307877 0.02229533270956873 0.0 0.0
0.0 0.09718448409718469 0.08375558679263685 -0.08251828604261591 -0.0012373007500209006 0.01942168049173809 0.0 0.0
0.0 0.07677609405278393 0.06622300745419715 -0.06508952687160324 -0.0011334805825939486 0.016475329077043962 0.0 0.0
0.0 0.058369309948606354 0.050333581393156156 -0.04930318536524622 -0.0010303960279098925 0.013450356984136862 0.0 0.0
0.0 0.04204471177824383 0.03630575004037259 -0.035378448329649675 -0.0009273017107229034 0.01032580584156547 0.0 0.0
0.0 0.028173342107411924 0.024379897816817268 -0.02355608504415774 -0.0008238127726595181 0.007278278951733202 0.0 0.0
0.0 0.01703634600554341 0.014814685489929074 -0.014096509114181215 -0.0007181763757478513 0.0046118214974324116 0.0 0.0
0.0 0.008862369070055096 0.007775265061007099 -0.007181244610418835 -0.0005940204505882635 0.002570463765970377 0.0 0.0
0.0 0.003752891826833019 0.0031907000007593647 -0.0027974894270631425 -0.0003932105736962218 0.00118874262267131 0.0 0.0
0.0 0.0009730653222225141 0.0008046326883118563 -0.0006621166062791867 -0.00014251608203266975 0.00037482766825750797 0.0 0.0
0.0 6.11137204377008e-05 5.187812577646071e-05 -4.076048099927712e-05 -1.111764477718363e-05 3.260763405444539e-05 0.0 0.0
0.0 0.0 0.0 0.0 0.0 0.0 0.0 0.0
0.0 0.0 0.0 0.0 0.0 0.0 0.0 0.0
0.0 0.008837272734710806 0.006111724854278798 -0.006650277850911158 0.0005385529966323544 0.007167785174375909 0.0 0.0
0.0 0.006727476375402354 0.004473915352713037 -0.0049935612130234735 0.0005196458603104362 -0.0057504221197255696 0.0 0.0
0.0 0.0 0.0 0.0 0.0 0.0 0.0 0.0
0.0 0.0 0.0 0.0 0.0 0.0 0.0 0.0
0.0 1.2821892531203612e-05 8.248652756288884e-06 -6.4720353960812e-06 -1.776617360207668e-06 -8.518732381506373e-06 0.0 0.0
0.0 0.0005305350310657326 0.0004291182708879786 -0.0003486174169570597 -8.050085393091867e-05 -0.00031744848519374 0.0 0.0
0.0 0.0026816615424711866 0.0022236734820903145 -0.001913962609565296 -0.00030971087252501924 -0.001253000557629978 0.0 0.0
0.0 0.007014960337013825 0.006035387152739118 -0.0054969176526674735 -0.0005384695000716434 -0.0029302627788015297 0.0 0.0
0.0 0.014088160712664317 0.012120453057887207 -0.011436847916979756 -0.0006836051409074544 -0.0054538980366980105 0.0 0.0
0.0 0.023879362947983117 0.020457977639442574 -0.019667871863607786 -0.0007901057758348028 -0.008695736024774862 0.0 0.0
0.0 0.03605009924592657 0.03085359642324123 -0.029965332592814135 -0.0008882638304270594 -0.01237296465966389 0.0 0.0
0.0 0.05031037611568702 0.04304760462235846 -0.04206415545963756 -0.0009834491627208884 -0.016136812746368346 0.0 0.0
0.0 0.06639161422085682 0.05682721671672223 -0.05574972406918127 -0.0010774926475409416 -0.019805240286126836 0.0 0.0
0.0 0.08407705112301969 0.07202381145907057 -0.07085257204055345 -0.0011712394185171044 -0.023393383480129187 0.0 0.0
0.0 0.10318585418280322 0.0884464668348946 -0.08718120323112122 -0.0012652636037733924 -0.02685695060070408 0.0 0.0
0.0 0.12334681588942106 0.10581684624226309 -0.10445805975325066 -0.0013587864890124042 -0.030005927162749815 0.0 0.0
0.0 0.14382979127549173 0.12370742143481048 -0.12225340968620607 -0.0014540117486043676 -0.03242173553442573 0.0 0.0
0.0 0.16419000295787897 0.14141357722122455 -0.13985748053722522 -0.001556096683999286 -0.03345224384934091 0.0 0.0
0.0 0.18291158919398426 0.15780410433360587 -0.15613891461733717 -0.0016651897162686068 -0.032327000275508694 0.0 0.0
0.0 0.1981573275786556 0.171299488127402 -0.1695295948682818 -0.001769893259120166 -0.0278686665476867 0.0 0.0
0.0 0.2079990358258493 0.18019112198287104 -0.1783431690937323 -0.0018479528891388966 -0.018625447589807408 0.0 0.0
0.0 0.2079990358258348 0.18019112198285686 -0.17834316909371828 -0.0018479528891387524 0.01862544758986978 0.0 0.0
0.0 0.19815732757861304 0.17129948812736154 -0.16952959486824165 -0.0017698932591197652 0.027868666547767762 0.0 0.0
0.0 0.18291158919391823 0.15780410433354547 -0.15613891461727694 -0.0016651897162684533 0.03232700027556644 0.0 0.0
0.0 0.1641900029577939 0.14141357722114967 -0.1398574805371497 -0.001556096683999952 0.03345224384936412 0.0 0.0
0.0 0.14382979127539997 0.12370742143473068 -0.12225340968612737 -0.00145401174860329 0.032421735534417205 0.0 0.0
0.0 0.12334681588932037 0.10581684624217602 -0.1044580597531643 -0.0013587864890116674 0.03000592716273688 0.0 0.0
0.0 0.10318585418269867 0.0884464668348042 -0.08718120323103062 -0.0012652636037736148 0.026856950600692847 0.0 0.0
0.0 0.0840770511229185 0.07202381145898265 -0.07085257204046612 -0.0011712394185165334 0.023393383480116436 0.0 0.0
0.0 0.06639161422075968 0.056827216716638554 -0.05574972406909824 -0.0010774926475403106 0.01980524028610077 0.0 0.0
0.0 0.050310376115606 0.04304760462228851 -0.04206415545956855 -0.0009834491627199334 0.016136812746343973 0.0 0.0
0.0 0.03605009924585567 0.030853596423180862 -0.02996533259275462 -0.0008882638304262159 0.012372964659634274 0.0 0.0
0.0 0.023879362947927057 0.02045797763939441 -0.019667871863560005 -0.0007901057758344102 0.00869573602475642 0.0 0.0
0.0 0.014088160712625471 0.012120453057853973 -0.011436847916946878 -0.0006836051409070874 0.005453898036682597 0.0 0.0
0.0 0.0070149603369889235 0.006035387152717919 -0.005496917652647046 -0.0005384695000708728 0.0029302627787921955 0.0 0.0
0.0 0.002681661542457579 0.002223673482079671 -0.0019139626095556405 -0.00030971087252402985 0.0012530005576240817 0.0 0.0
0.0 0.0005305350310610658 0.00042911827088484774 -0.00034861741695441583 -8.050085393043192e-05 0.00031744848519149805 0.0 0.0
0.0 1.2821892530694071e-05 8.248652756501632e-06 -6.472035396244831e-06 -1.776617360256795e-06 8.518732381705275e-06 0.0 0.0
0.0 0.0 0.0 0.0 0.0 0.0 0.0 0.0
0.0 0.0 0.0 0.0 0.0 0.0 0.0 0.0
0.0 0.006727476375383884 0.004473915352700726 -0.004993561213010577 0.0005196458603098486 0.005750422119706805 0.0 0.0
0.0 0.004978123836254636 0.003199712558177285 -0.0036643495436649524 0.00046463698548766883 -0.004341277550828577 0.0 0.0
0.0 0.0 0.0 0.0 0.0 0.0 0.0 0.0
0.0 0.0 0.0 0.0 0.0 0.0 0.0 0.0
0.0 2.2159140993329693e-06 1.373537895588355e-06 -1.0595692062544346e-06 -3.139686893339197e-07 -2.0590497833075237e-06 0.0 0.0
0.0 0.0002508809139857155 0.00018771065056925591 -0.0001513726679639937 -3.6337982605262227e-05 -0.00021267579763055173 0.0 0.0
0.0 0.0017614307708832685 0.0014129509756313214 -0.0011933222390212357 -0.00021962873661008524 -0.0011658422919942424 0.0 0.0
0.0 0.005377982739637969 0.004404541498078547 -0.003940827587004667 -0.00046371391107387925 -0.00296252491826294 0.0 0.0
0.0 0.011274312422649676 0.009480239094667511 -0.00884341763543563 -0.0006368214592318754 -0.005747894294202201 0.0 0.0
0.0 0.019633384257563544 0.016563860927107887 -0.015814511026111415 -0.0007493499009964854 -0.00937527180817425 0.0 0.0
0.0 0.030093584769402132 0.025407408999475325 -0.0245643274963436 -0.0008430815031317176 -0.013434858395849337 0.0 0.0
0.0 0.04229190451229914 0.03575374017155046 -0.03482280764097721 -0.0009309325305732728 -0.017586474866767562 0.0 0.0
0.0 0.05597581537043804 0.04741393273727205 -0.046398095465566856 -0.0010158372717051607 -0.021642673859127118 0.0 0.0
0.0 0.07107749280267461 0.06026529723435954 -0.05916572412524609 -0.0010995731091134574 -0.025617437043822383 0.0 0.0
0.0 0.08724540116413125 0.074183774235983 -0.07300112730127681 -0.0011826469347062211 -0.029470441069456874 0.0 0.0
0.0 0.10446801832600032 0.08897350258724851 -0.08770898957252848 -0.0012645130147200345 -0.03297813160673344 0.0 0.0
0.0 0.1223557392597372 0.1043288913902056 -0.10298176183019536 -0.001347129560010137 -0.03576658911363891 0.0 0.0
0.0 0.139922879144094 0.1197362371306453 -0.11830127834374492 -0.0014349587869003256 -0.03724310585585612 0.0 0.0
0.0 0.1564449379616516 0.1343232780563345 -0.13279303321642694 -0.001530244839907462 -0.03635949155370192 0.0 0.0
0.0 0.1703648927355955 0.14679942528859832 -0.14517471366456192 -0.0016247116240363723 -0.03138492652393123 0.0 0.0
0.0 0.17997194293751273 0.15567256863111698 -0.15397163081896886 -0.0017009378121479403 -0.020536815908762024 0.0 0.0
0.0 0.17997194293749874 0.15567256863110296 -0.15397163081895401 -0.001700937812148792 0.020536815908828904 0.0 0.0
0.0 0.170364892735558 0.1467994252885615 -0.14517471366452445 -0.001624711624037023 0.03138492652401814 0.0 0.0
0.0 0.15644493796159392 0.1343232780562795 -0.13279303321637284 -0.0015302448399065896 0.036359491553766554 0.0 0.0
0.0 0.1399228791440243 0.1197362371305816 -0.11830127834368323 -0.0014349587868983129 0.03724310585588257 0.0 0.0
0.0 0.12235573925965638 0.10432889139013495 -0.10298176183012603 -0.0013471295600089492 0.03576658911363078 0.0 0.0
0.0 0.10446801832591467 0.0889735025871739 -0.08770898957245529 -0.0012645130147186895 0.03297813160671985 0.0 0.0
0.0 0.08724540116404814 0.07418377423591024 -0.07300112730120575 -0.001182646934704548 0.029470441069445515 0.0 0.0
0.0 0.07107749280259312 0.06026529723428847 -0.05916572412517565 -0.0010995731091127784 0.025617437043809456 0.0 0.0
0.0 0.05597581537035672 0.047413932737202465 -0.04639809546549786 -0.0010158372717045895 0.021642673859100625 0.0 0.0
0.0 0.042291904512228425 0.0357537401714903 -0.03482280764091784 -0.0009309325305724712 0.017586474866738998 0.0 0.0
0.0 0.030093584769339644 0.025407408999423366 -0.024564327496292337 -0.0008430815031310491 0.01343485839581622 0.0 0.0
0.0 0.019633384257514343 0.016563860927066444 -0.01581451102607028 -0.0007493499009961471 0.009375271808151845 0.0 0.0
0.0 0.011274312422613909 0.009480239094637565 -0.008843417635406574 -0.0006368214592309908 0.00574789429418515 0.0 0.0
0.0 0.005377982739614404 0.0044045414980593885 -0.003940827586986445 -0.00046371391107294504 0.0029625249182512192 0.0 0.0
0.0 0.0017614307708744025 0.0014129509756247742 -0.0011933222390155087 -0.00021962873660926515 0.0011658422919887646 0.0 0.0
0.0 0.00025088091398376246 0.00018771065056837776 -0.00015137266796326547 -3.633798260511221e-05 0.0002126757976294853 0.0 0.0
0.0 2.215914099301468e-06 1.373537895808709e-06 -1.059569206426072e-06 -3.13968689382634e-07 2.059049783651745e-06 0.0 0.0
0.0 0.0 0.0 0.0 0.0 0.0 0.0 0.0
0.0 0.0 0.0 0.0 0.0 0.0 0.0 0.0
0.0 0.004978123836239709 0.0031997125581675317 -0.0036643495436544955 0.0004646369854869621 0.004341277550814479 0.0 0.0
0.0 0.0035070851997214547 0.002189938613060385 -0.002575841099074214 0.00038590248601382834 -0.0031155627364503474 0.0 0.0
0.0 7.761818097908707e-08 -1.6545393973634885e-09 1.4170477556670242e-09 2.3749164169630387e-10 1.5147987326691532e-08 0.0 0.0
0.0 0.0 0.0 0.0 0.0 0.0 0.0 0.0
0.0 1.2459832782016668e-06 -8.711175530045244e-08 6.722946238267231e-08 1.9882292917777628e-08 2.0432140011233723e-07 0.0 0.0
0.0 0.00011403793880776507 7.010704909048661e-05 -5.634761740440733e-05 -1.3759431686079278e-05 -0.00011971747087179601 0.0 0.0
0.0 0.0010361976364495257 0.0007881114001792373 -0.0006544049382618401 -0.0001337064619173968 -0.0009560330740900765 0.0 0.0
0.0 0.0037391350428355487 0.002958342730212647 -0.0025911771285179455 -0.0003671656016947022 -0.0027655303481082636 0.0 0.0
0.0 0.008592761709801177 0.006957631346717794 -0.006388732361875507 -0.0005688989848422859 -0.005567837566440932 0.0 0.0
0.0 0.015514855827970908 0.012741539377636394 -0.012043827872866706 -0.0006977115047696848 -0.009291308298792378 0.0 0.0
0.0 0.02419975936637878 0.02001712872615384 -0.01922690867543306 -0.0007902200507207714 -0.013502987524271103 0.0 0.0
0.0 0.03430084864067331 0.028504127660871688 -0.0276329787629412 -0.000871148897930485 -0.017786149167214056 0.0 0.0
0.0 0.045608433046512666 0.038037059192622846 -0.03708962468712554 -0.0009474345054973263 -0.021978621384215177 0.0 0.0
0.0 0.05801343447977199 0.04853709298102062 -0.04751612851482364 -0.0010209644661969858 -0.026098476118332586 0.0 0.0
0.0 0.07143770137875183 0.05994089223999483 -0.058847770741067326 -0.001093121498927514 -0.03009030215197736 0.0 0.0
0.0 0.08575704197586856 0.07213157004826912 -0.0709671352216478 -0.0011644348266213577 -0.03375416647895711 0.0 0.0
0.0 0.10045429746384384 0.0849033091612754 -0.0836692534311351 -0.0012340557301403071 -0.03675945656252594 0.0 0.0
0.0 0.11555097015238773 0.09793326464523776 -0.09662807158606793 -0.0013051930591698323 -0.03857342190334019 0.0 0.0
0.0 0.13004026257913648 0.11069108961307296 -0.10930723641919096 -0.0013838531938819643 -0.0381473422428462 0.0 0.0
0.0 0.14259817655090876 0.12224376170434728 -0.12077463787501819 -0.001469123829329024 -0.03341208848958192 0.0 0.0
0.0 0.15215850592838115 0.1312687695749899 -0.1297203848452873 -0.001548384729702492 -0.02208871913150624 0.0 0.0
0.0 0.15215850592837216 0.13126876957497907 -0.1297203848452768 -0.0015483847297022464 0.02208871913157587 0.0 0.0
0.0 0.14259817655087947 0.12224376170431604 -0.1207746378749867 -0.0014691238293293729 0.033412088489668514 0.0 0.0
0.0 0.13004026257908965 0.11069108961302732 -0.10930723641914405 -0.0013838531938832844 0.03814734224290921 0.0 0.0
0.0 0.11555097015232979 0.09793326464518498 -0.09662807158601425 -0.0013051930591706728 0.03857342190336543 0.0 0.0
0.0 0.10045429746377996 0.08490330916122027 -0.08366925343108025 -0.0012340557301399936 0.03675945656251603 0.0 0.0
0.0 0.08575704197579696 0.07213157004820736 -0.07096713522158611 -0.0011644348266212372 0.03375416647894319 0.0 0.0
0.0 0.0714377013786818 0.059940892239933964 -0.05884777074100667 -0.0010931214989273086 0.030090302151964007 0.0 0.0
0.0 0.05801343447970019 0.04853709298095872 -0.04751612851476186 -0.0010209644661968826 0.026098476118316845 0.0 0.0
0.0 0.04560843304644444 0.038037059192565434 -0.037089624687068376 -0.0009474345054970336 0.021978621384187963 0.0 0.0
0.0 0.034300848640615764 0.028504127660823858 -0.027632978762893754 -0.000871148897930101 0.01778614916718565 0.0 0.0
0.0 0.024199759366326876 0.02001712872611164 -0.019226908675391226 -0.0007902200507204173 0.013502987524238053 0.0 0.0
0.0 0.015514855827928904 0.012741539377601554 -0.012043827872832582 -0.0006977115047689669 0.009291308298768891 0.0 0.0
0.0 0.00859276170977106 0.006957631346693615 -0.006388732361851923 -0.0005688989848416933 0.005567837566422464 0.0 0.0
0.0 0.0037391350428185597 0.0029583427301992657 -0.002591177128505658 -0.0003671656016936065 0.002765530348097612 0.0 0.0
0.0 0.001036197636442383 0.0007881114001745263 -0.0006544049382577373 -0.00013370646191678876 0.0009560330740842199 0.0 0.0
0.0 0.0001140379388068456 7.010704909051267e-05 -5.6347617404405156e-05 -1.375943168610751e-05 0.00011971747087170857 0.0 0.0
0.0 1.245983277765114e-06 -8.711175526903953e-08 6.722946235833695e-08 1.9882292910690027e-08 -2.0432140003799813e-07 0.0 0.0
0.0 0.0 0.0 0.0 0.0 0.0 0.0 0.0
0.0 7.761818091499395e-08 -1.6545393959844891e-09 1.4170477544857094e-09 2.374916414986896e-10 -1.5147987314084823e-08 0.0 0.0
0.0 0.003507085199708936 0.0021899386130524983 -0.0025758410990656118 0.0003859024860131134 0.0031155627364388037 0.0 0.0
0.0 0.002332172726996264 0.0013949879801150415 -0.001686894411353172 0.0002919064312381288 -0.0020968999184292117 0.0 0.0
0.0 6.808126749334917e-07 -1.0371231226033877e-08 1.1382208934150606e-08 -1.010977708115995e-09 1.3495275768488005e-07 0.0 0.0
0.0 3.7869285625906513e-07 -1.0853022555903305e-08 7.76318668522007e-09 3.0898358706842675e-09 7.416418593090768e-08 0.0 0.0
0.0 1.5040602502497057e-06 5.709403100029278e-09 -3.2512962041430422e-09 -2.458106895876194e-09 5.987436833717172e-09 0.0 0.0
0.0 6.036969090062311e-05 3.053411598295381e-05 -2.439831511304545e-05 -6.135800869908376e-06 -7.841807699083887e-05 0.0 0.0
0.0 0.0005820033689865733 0.0003637219973733712 -0.0002979151301609309 -6.58068672124404e-05 -0.0006614850654481504 0.0 0.0
0.0 0.002381477436862543 0.0017366165738153735 -0.0014850932339013395 -0.00025152333991403504 -0.0023183802719434054 0.0 0.0
0.0 0.006040331690957575 0.004636537724677155 -0.004164889662766047 -0.0004716480619111059 -0.004977753679176653 0.0 0.0
0.0 0.011516081141175161 0.00906360373579966 -0.008438142627361901 -0.0006254611084377546 -0.008493806235558761 0.0 0.0
0.0 0.018403625598524802 0.014737413060833099 -0.014012266899636288 -0.0007251461611968079 -0.012548977855096238 0.0 0.0
0.0 0.02639289794700139 0.02135383018573557 -0.0205527358449241 -0.0008010943408114726 -0.01672528146664218 0.0 0.0
0.0 0.03529424100624594 0.028756967555765737 -0.027887319534015256 -0.0008696480217504765 -0.02080161576357021 0.0 0.0
0.0 0.0450610287493773 0.03690085240103928 -0.035967705850155504 -0.0009331465508837714 -0.02480165315829542 0.0 0.0
0.0 0.05560476627468458 0.04578032520980119 -0.04478629392535709 -0.0009940312844440849 -0.028708197696738498 0.0 0.0
0.0 0.0669233474953361 0.05535325909760182 -0.05429895014746869 -0.0010543089501331205 -0.032321174845940055 0.0 0.0
0.0 0.07879555534447935 0.06549955529499168 -0.0643858879076681 -0.0011136673873236357 -0.03530849304749143 0.0 0.0
0.0 0.0909383695440314 0.0760567876345524 -0.074889556397124 -0.001167231237428366 -0.03731474146427317 0.0 0.0
0.0 0.10316671460277069 0.08686026049329904 -0.08563589053404067 -0.0012243699592584065 -0.0375447804146362 0.0 0.0
0.0 0.11481479232312013 0.09744867145132158 -0.09615075699280579 -0.0012979144585157074 -0.033825536229674456 0.0 0.0
0.0 0.12453322874020378 0.10673403231523473 -0.10534948900688515 -0.0013845433083495577 -0.023251427009881472 0.0 0.0
0.0 0.12453322874019933 0.10673403231522713 -0.10534948900687832 -0.0013845433083487448 0.023251427009946188 0.0 0.0
0.0 0.11481479232310626 0.09744867145130136 -0.09615075699278716 -0.0012979144585142871 0.033825536229761796 0.0 0.0
0.0 0.10316671460274036 0.08686026049326528 -0.08563589053400796 -0.0012243699592572467 0.03754478041470102 0.0 0.0
0.0 0.09093836954398557 0.07605678763450824 -0.07488955639708103 -0.0011672312374272143 0.03731474146429885 0.0 0.0
0.0 0.07879555534442495 0.06549955529494444 -0.06438588790762226 -0.0011136673873221974 0.03530849304747889 0.0 0.0
0.0 0.06692334749527992 0.05535325909755326 -0.0542989501474211 -0.0010543089501321343 0.03232117484592536 0.0 0.0
0.0 0.0556047662746316 0.04578032520975539 -0.044786293925312144 -0.000994031284443242 0.028708197696724877 0.0 0.0
0.0 0.04506102874932721 0.0369008524009959 -0.03596770585011276 -0.0009331465508831263 0.024801653158282908 0.0 0.0
0.0 0.03529424100619435 0.02875696755572297 -0.02788731953397295 -0.0008696480217500345 0.020801615763544667 0.0 0.0
0.0 0.026392897946955672 0.02135383018569821 -0.0205527358448876 -0.0008010943408105915 0.01672528146661506 0.0 0.0
0.0 0.01840362559848108 0.01473741306079919 -0.01401226689960279 -0.000725146161196399 0.01254897785506268 0.0 0.0
0.0 0.011516081141143407 0.009063603735774885 -0.008438142627337379 -0.0006254611084375105 0.008493806235537612 0.0 0.0
0.0 0.0060403316909390554 0.004636537724662905 -0.004164889662752627 -0.000471648061910277 0.004977753679163648 0.0 0.0
0.0 0.0023814774368517244 0.0017366165738074738 -0.001485093233894301 -0.00025152333991317196 0.0023183802719346737 0.0 0.0
0.0 0.0005820033689815046 0.00036372199737058083 -0.0002979151301586292 -6.58068672119515e-05 0.0006614850654433247 0.0 0.0
0.0 6.036969089944381e-05 3.0534115982971256e-05 -2.439831511305018e-05 -6.135800869921077e-06 7.841807699083674e-05 0.0 0.0
0.0 1.5040602500126616e-06 5.7094031983345855e-09 -3.2512962784639497e-09 -2.4581069198687333e-09 -5.987436497039323e-09 0.0 0.0
0.0 3.786928558295237e-07 -1.0853022544114866e-08 7.763186676628835e-09 3.0898358674860974e-09 -7.416418584570931e-08 0.0 0.0
0.0 6.808126741997652e-07 -1.0371231215047161e-08 1.1382208922371451e-08 -1.0109777073237724e-09 -1.34952757536912e-07 0.0 0.0
0.0 0.0023321727269871003 0.001394987980109688 -0.0016868944113471146 0.0002919064312374265 0.0020968999184212992 0.0 0.0
0.0 0.0014066411886843543 0.0007930073431909404 -0.0009888001037432893 0.00019579276055234812 -0.0012765883868229222 0.0 0.0
0.0 2.216438846251313e-06 1.0808165251127184e-07 -1.094715385812572e-07 1.3898860699840777e-09 -2.3923042498506307e-06 0.0 0.0
0.0 8.294851711757467e-07 2.099887739734874e-08 -1.3584964255418657e-08 -7.4139131419295584e-09 -2.1231147346481004e-07 0.0 0.0
0.0 3.144350896881055e-06 5.640853140380319e-07 -4.3317747331352137e-07 -1.3090784072450862e-07 -3.6146289983870877e-06 0.0 0.0
0.0 4.744391610923042e-05 1.6963950906819645e-05 -1.3466456090129933e-05 -3.4974948166897307e-06 -6.83694012036598e-05 0.0 0.0
0.0 0.0003142004471034936 0.0001460315901140165 -0.00011841764854861718 -2.761394156539937e-05 -0.0004286863908915616 0.0 0.0
0.0 0.0013565701042063773 0.0008168195952767373 -0.0006818842740877001 -0.00013493532118903715 -0.0016881450568853673 0.0 0.0
0.0 0.003769894024461282 0.00260121059953872 -0.0022677580733789907 -0.00033345252615972867 -0.003994184875422739 0.0 0.0
0.0 0.007716197450322965 0.0056290945092607 -0.005114073462105049 -0.0005150210471556475 -0.0070664482058421345 0.0 0.0
0.0 0.012703846013164634 0.009653832744108307 -0.009019675056309023 -0.0006341576877992841 -0.01062573529166531 0.0 0.0
0.0 0.01865602238089808 0.014374873210767565 -0.013662006027871562 -0.000712867182896002 -0.014365585255796325 0.0 0.0
0.0 0.02511276641083122 0.019645905478049678 -0.018870178691718607 -0.0007757267863310738 -0.01806597045623636 0.0 0.0
0.0 0.032188665435544876 0.025434491605730254 -0.024604121149355628 -0.0008303704563746303 -0.0217061596918668 0.0 0.0
0.0 0.03990781087568892 0.03177669867437947 -0.030896740723148818 -0.0008799579512306427 -0.025269270223211796 0.0 0.0
0.0 0.04830258145259785 0.038708643983610014 -0.03778045139099181 -0.0009281925926181918 -0.02862723358267313 0.0 0.0
0.0 0.05716906794520542 0.04620617116946518 -0.04522848364825665 -0.0009776875212085207 -0.0314451608591377 0.0 0.0
0.0 0.06650856847152352 0.054206487373715924 -0.05318550113775689 -0.0010209862359590138 -0.0333669887999037 0.0 0.0
0.0 0.07623884667401307 0.06282238618268002 -0.061771331331743354 -0.001051054850936628 -0.03417770111812665 0.0 0.0
0.0 0.08643361259623188 0.0722226364443363 -0.07112108890735094 -0.0011015475369853507 -0.03224382008228671 0.0 0.0
0.0 0.09627155237030818 0.0817890951808181 -0.08059103710587391 -0.001198058074944265 -0.02389934231492338 0.0 0.0
0.0 0.0962715523703072 0.08178909518081379 -0.08059103710586857 -0.001198058074945218 0.023899342314979928 0.0 0.0
0.0 0.08643361259621993 0.07222263644431746 -0.07112108890733182 -0.001101547536985636 0.032243820082368646 0.0 0.0
0.0 0.0762388466739925 0.06282238618265427 -0.0617713313317182 -0.0010510548509360413 0.03417770111818499 0.0 0.0
0.0 0.06650856847149186 0.05420648737368427 -0.05318550113772643 -0.001020986235957846 0.03336698879992456 0.0 0.0
0.0 0.057169067945159184 0.0462061711694271 -0.04522848364821841 -0.0009776875212086627 0.03144516085911909 0.0 0.0
0.0 0.048302581452550834 0.03870864398357129 -0.037780451390953124 -0.0009281925926181952 0.028627233582653205 0.0 0.0
0.0 0.039907810875649 0.031776698674345974 -0.03089674072311585 -0.0008799579512301241 0.02526927022319741 0.0 0.0
0.0 0.03218866543551442 0.02543449160570418 -0.02460412114932996 -0.0008303704563742147 0.02170615969185753 0.0 0.0
0.0 0.02511276641079486 0.019645905478020552 -0.01887017869168993 -0.0007757267863306266 0.018065970456214667 0.0 0.0
0.0 0.018656022380861184 0.014374873210739016 -0.013662006027843293 -0.0007128671828957147 0.014365585255769493 0.0 0.0
0.0 0.012703846013135539 0.009653832744087532 -0.00901967505628886 -0.0006341576877986692 0.010625735291637933 0.0 0.0
0.0 0.007716197450300664 0.005629094509243929 -0.005114073462089048 -0.0005150210471548815 0.007066448205824772 0.0 0.0
0.0 0.0037698940244453917 0.0026012105995270735 -0.0022677580733683157 -0.0003334525261587582 0.003994184875408773 0.0 0.0
0.0 0.0013565701041979097 0.0008168195952717173 -0.0006818842740832932 -0.0001349353211884237 0.0016881450568762954 0.0 0.0
0.0 0.0003142004471003415 0.00014603159011290318 -0.00011841764854769187 -2.7613941565211315e-05 0.0004286863908884366 0.0 0.0
0.0 4.744391610800322e-05 1.6963950906887018e-05 -1.3466456090178855e-05 -3.497494816708147e-06 6.836940120390981e-05 0.0 0.0
0.0 3.144350896751405e-06 5.640853141589004e-07 -4.3317747340524434e-07 -1.3090784075365895e-07 3.6146289991618493e-06 0.0 0.0
0.0 8.294851709055194e-07 2.0998877450435944e-08 -1.358496429075214e-08 -7.413913159682845e-09 2.1231147413617164e-07 0.0 0.0
0.0 2.2164388457236565e-06 1.0808165255267114e-07 -1.0947153862943435e-07 1.389886076763135e-09 2.39230425086337e-06 0.0 0.0
0.0 0.0014066411886768364 0.0007930073431870046 -0.000988800103738646 0.0001957927605516415 0.0012765883868167739 0.0 0.0
0.0 0.0006829333541986141 0.00037715802551308714 -0.0004883304703053626 0.0001111724447922759 -0.0006601912080069297 0.0 0.0
0.0 4.521099427047535e-06 9.593569921113295e-08 -1.3049094826317128e-07 3.455524905203847e-08 -3.796235072351517e-06 0.0 0.0
0.0 3.6117336181936447e-06 5.685324243541412e-08 -2.3848775846340864e-08 -3.300446658907347e-08 -3.637165164783688e-06 0.0 0.0
0.0 7.188661428348359e-06 6.762981945528233e-07 -4.784005481520247e-07 -1.9789764640079543e-07 -9.666761368455312e-06 0.0 0.0
0.0 5.0307391555538445e-05 1.0094399433777361e-05 -7.910058758417865e-06 -2.1843406753595005e-06 -7.711335055851096e-05 0.0 0.0
0.0 0.00021407654729673747 5.835350701741043e-05 -4.709121034760822e-05 -1.1262296669802228e-05 -0.0003190839439302789 0.0 0.0
0.0 0.0007135799556234725 0.000274322146631568 -0.0002243596421669325 -4.9962504464635396e-05 -0.0010606549962396575 0.0 0.0
0.0 0.0019395522579707092 0.001009235570981993 -0.0008476892712298601 -0.00016154629975213277 -0.002681120445596959 0.0 0.0
0.0 0.004241774606634103 0.00258864374429393 -0.0022570808858429097 -0.0003315628584510204 -0.005051755454297498 0.0 0.0
0.0 0.007377984216608392 0.004904443067617295 -0.00442669940521999 -0.0004777436623973057 -0.007820276925648316 0.0 0.0
0.0 0.011067604642184922 0.007700019118337667 -0.00712343601858472 -0.0005765830997529431 -0.010792829481555865 0.0 0.0
0.0 0.015233206597423886 0.010820562567765837 -0.01017790671998918 -0.0006426558477766434 -0.013820979407099707 0.0 0.0
0.0 0.01972996030715675 0.01425488328490162 -0.01356131460996339 -0.0006935686749382365 -0.016873267946458 0.0 0.0
0.0 0.024650887480058586 0.01805585345164478 -0.017321440851836813 -0.0007344125998079556 -0.019885894415795153 0.0 0.0
0.0 0.03005429433656653 0.022313147753431545 -0.02154316805825783 -0.0007699796951737122 -0.02279149147132205 0.0 0.0
0.0 0.03597018892768413 0.027123105658205818 -0.02631682789611921 -0.0008062777620866033 -0.025374815739116912 0.0 0.0
0.0 0.04240379225145644 0.03254220310067895 -0.03169569566424035 -0.0008465074364386223 -0.027181941758330663 0.0 0.0
0.0 0.04952571947476153 0.038749931602071894 -0.037882889991461895 -0.0008670416106100106 -0.02810490631859087 0.0 0.0
0.0 0.058061939669484953 0.046429972025268156 -0.045564250955237515 -0.0008657210700306275 -0.02804578563355424 0.0 0.0
0.0 0.06790738649376855 0.05605997446968195 -0.055096060138180414 -0.0009639143315015601 -0.023665241585047972 0.0 0.0
0.0 0.0679073864937681 0.05605997446967685 -0.05509606013817534 -0.0009639143315015329 0.023665241585096447 0.0 0.0
0.0 0.058061939669485585 0.046429972025259184 -0.04556425095522888 -0.0008657210700302692 0.028045785633628063 0.0 0.0
0.0 0.049525719474748084 0.03874993160205261 -0.03788288999144222 -0.0008670416106103788 0.02810490631864062 0.0 0.0
0.0 0.04240379225143182 0.03254220310065552 -0.03169569566421598 -0.0008465074364395473 0.027181941758341925 0.0 0.0
0.0 0.03597018892765779 0.027123105658186236 -0.026316827896099855 -0.0008062777620863779 0.02537481573909903 0.0 0.0
0.0 0.030054294336543726 0.022313147753413885 -0.0215431680582404 -0.0007699796951734781 0.022791491471309953 0.0 0.0
0.0 0.024650887480036025 0.01805585345162711 -0.017321440851819143 -0.0007344125998079674 0.019885894415784748 0.0 0.0
0.0 0.019729960307137032 0.014254883284885222 -0.013561314609947379 -0.0006935686749378529 0.01687326794645149 0.0 0.0
0.0 0.015233206597400344 0.010820562567748802 -0.010177906719972615 -0.0006426558477761845 0.013820979407081643 0.0 0.0
0.0 0.011067604642160377 0.0077000191183208095 -0.007123436018568151 -0.0005765830997526608 0.010792829481533504 0.0 0.0
0.0 0.007377984216588213 0.00490444306760489 -0.0044266994052079 -0.0004777436623969886 0.007820276925626129 0.0 0.0
0.0 0.004241774606623049 0.002588643744286689 -0.0022570808858361742 -0.0003315628584505151 0.005051755454286186 0.0 0.0
0.0 0.001939552257962889 0.0010092355709772714 -0.0008476892712257905 -0.00016154629975148106 0.00268112044558826 0.0 0.0
0.0 0.0007135799556184099 0.0002743221466295227 -0.00022435964216524767 -4.99625044642751e-05 0.00106065499623322 0.0 0.0
0.0 0.00021407654729452025 5.8353507017137396e-05 -4.709121034738453e-05 -1.1262296669752836e-05 0.0003190839439285709 0.0 0.0
0.0 5.0307391554633285e-05 1.009439943380298e-05 -7.910058758433942e-06 -2.1843406753690402e-06 7.711335055866724e-05 0.0 0.0
0.0 7.1886614281709776e-06 6.762981945949991e-07 -4.78400548180415e-07 -1.9789764641458136e-07 9.666761369100931e-06 0.0 0.0
0.0 3.6117336174039402e-06 5.6853242446449895e-08 -2.38487758507204e-08 -3.3004466595728786e-08 3.637165165570711e-06 0.0 0.0
0.0 4.5210994267967895e-06 9.593569923544132e-08 -1.3049094830197717e-07 3.4555249066535454e-08 3.796235073283556e-06 0.0 0.0
0.0 0.000682933354193633 0.00037715802551081655 -0.0004883304703025992 0.00011117244479178236 0.0006601912080029576 0.0 0.0
0.0 0.00023670584396968838 0.00012508519885880351 -0.00016947015295871851 4.438495409991503e-05 -0.0002354682408699317 0.0 0.0
0.0 5.643223170339889e-06 -8.983141922488163e-09 -5.241227285050572e-08 6.139541477299505e-08 -5.230199400614637e-06 0.0 0.0
0.0 7.857620791176099e-06 -3.3816099944666237e-07 3.25922804470805e-07 1.2238194975858028e-08 -1.0424143657001541e-05 0.0 0.0
0.0 1.3871339057273716e-05 -2.0484467333282265e-07 3.020330144001987e-07 -9.718834106737666e-08 -2.1164035494124525e-05 0.0 0.0
0.0 5.760852147083704e-05 2.3855144854721232e-06 -1.6531422412287638e-06 -7.323722442433655e-07 -8.749758619017758e-05 0.0 0.0
0.0 0.00019513951413198936 1.6583281868704972e-05 -1.3205249487564107e-05 -3.378032381140848e-06 -0.00030963858036337497 0.0 0.0
0.0 0.0004637002336411797 5.804175856602023e-05 -4.709517314870888e-05 -1.0946585417311366e-05 -0.0007612693490070319 0.0 0.0
0.0 0.0009406280492405253 0.00016072821457991445 -0.00013118173640058945 -2.9546478179324816e-05 -0.0014998109853566171 0.0 0.0
0.0 0.0017264255167722732 0.0004259098003274598 -0.00034811533013071245 -7.779447019674704e-05 -0.0027699364890644137 0.0 0.0
0.0 0.0030253934340586154 0.000949905414021547 -0.0007821308270782162 -0.0001677745869433308 -0.0045560646781031555 0.0 0.0
0.0 0.004614233799396873 0.001723433991533708 -0.0014521700528936012 -0.00027126393864010547 -0.006738465581518723 0.0 0.0
0.0 0.006577464716391779 0.002664550799486766 -0.0023085366255309377 -0.0003560141739558268 -0.009117125372871345 0.0 0.0
0.0 0.008769285180607655 0.0037415765036473893 -0.003320453061448683 -0.0004211234421987057 -0.011635898490472517 0.0 0.0
0.0 0.011233264935848508 0.0049920447183525824 -0.004523509860085367 -0.0004685348582672145 -0.014272973689886318 0.0 0.0
0.0 0.01398751654824076 0.006536670925236599 -0.0060341962839487034 -0.00050247464128789 -0.016982260314990956 0.0 0.0
0.0 0.01716942018514881 0.008582374735610538 -0.00805219652393262 -0.0005301782116779166 -0.0195791071204549 0.0 0.0
0.0 0.020804013250397 0.01139367999552995 -0.010830237248676218 -0.0005634427468537233 -0.0215864180633143 0.0 0.0
0.0 0.024984889452639283 0.015187049830748804 -0.014578489580117931 -0.0006085602506308645 -0.022352940424652426 0.0 0.0
0.0 0.03075527626802576 0.020528516726981902 -0.019936342456141284 -0.0005921742708406177 -0.022512162662950367 0.0 0.0
0.0 0.039692762142627756 0.029218086247596448 -0.0286280376031544 -0.0005900486444420484 -0.022357179886793664 0.0 0.0
0.0 0.03969276214263074 0.02921808624759504 -0.028628037603152592 -0.0005900486444424369 0.022357179886829302 0.0 0.0
0.0 0.030755276268030388 0.02052851672697776 -0.01993634245613691 -0.00059217427084086 0.02251216266300446 0.0 0.0
0.0 0.024984889452637993 0.015187049830742169 -0.014578489580111655 -0.000608560250630507 0.022352940424683738 0.0 0.0
0.0 0.020804013250390847 0.011393679995525107 -0.010830237248672565 -0.0005634427468525391 0.021586418063317597 0.0 0.0
0.0 0.017169420185129694 0.008582374735600716 -0.008052196523923092 -0.0005301782116776233 0.019579107120437048 0.0 0.0
0.0 0.013987516548228223 0.006536670925231728 -0.006034196283943766 -0.0005024746412879606 0.016982260314975108 0.0 0.0
0.0 0.011233264935836557 0.004992044718347373 -0.004523509860080021 -0.0004685348582673532 0.014272973689874444 0.0 0.0
0.0 0.008769285180600935 0.003741576503646121 -0.0033204530614472753 -0.00042112344219884343 0.011635898490463429 0.0 0.0
0.0 0.0065774647163808885 0.002664550799484005 -0.002308536625528459 -0.0003560141739555457 0.009117125372855618 0.0 0.0
0.0 0.004614233799386445 0.0017234339915308673 -0.0014521700528912053 -0.0002712639386396629 0.00673846558150336 0.0 0.0
0.0 0.0030253934340487678 0.000949905414018661 -0.0007821308270759262 -0.00016777458694273474 0.004556064678089589 0.0 0.0
0.0 0.001726425516767988 0.00042590980032610425 -0.00034811533012969926 -7.779447019640482e-05 0.0027699364890577827 0.0 0.0
0.0 0.0009406280492378932 0.00016072821457948258 -0.0001311817364002572 -2.9546478179225184e-05 0.001499810985352229 0.0 0.0
0.0 0.00046370023363862185 5.804175856580853e-05 -4.709517314851298e-05 -1.094658541729551e-05 0.0007612693490042643 0.0 0.0
0.0 0.00019513951413049742 1.65832818686846e-05 -1.3205249487539055e-05 -3.3780323811455462e-06 0.0003096385803625866 0.0 0.0
0.0 5.7608521469691506e-05 2.385514485479717e-06 -1.6531422412344305e-06 -7.323722442452892e-07 8.749758619024312e-05 0.0 0.0
0.0 1.3871339056134246e-05 -2.04844673343306e-07 3.020330144109622e-07 -9.718834106765599e-08 2.116403549440745e-05 0.0 0.0
0.0 7.857620790468608e-06 -3.3816099947704756e-07 3.259228044975106e-07 1.2238194979536352e-08 1.0424143657721392e-05 0.0 0.0
0.0 5.643223170206483e-06 -8.983141917334224e-09 -5.241227288305298e-08 6.139541480038971e-08 5.230199401693658e-06 0.0 0.0
0.0 0.00023670584396679733 0.0001250851988577057 -0.0001694701529573012 4.4384954099595506e-05 0.00023546824086787308 0.0 0.0
0.0 3.834741002890736e-05 1.8766100383822287e-05 -2.671260512107913e-05 7.946504737256824e-06 -3.8500556201546436e-05 0.0 0.0
0.0 5.299477538865619e-06 -1.6261015927468073e-07 5.122261899670839e-08 1.1138754027797717e-07 -5.468000873630367e-06 0.0 0.0
0.0 1.1147083876016504e-05 -1.2615177989084702e-06 1.081513606152915e-06 1.8000419275555538e-07 -1.5890211746647253e-05 0.0 0.0
0.0 2.082620365575516e-05 -2.612093008529667e-06 2.31295031894793e-06 2.9914268958173855e-07 -3.211408591317265e-05 0.0 0.0
0.0 6.703705662861575e-05 -6.981857498061529e-06 6.021531680210173e-06 9.603258178513635e-07 -0.00010077189262727449 0.0 0.0
0.0 0.00020664787801314848 -2.162418105644781e-05 1.7841571995820406e-05 3.7826090606273916e-06 -0.0003203150941766309 0.0 0.0
0.0 0.00047203322025804977 -6.208669755179663e-05 5.057380081840682e-05 1.1512896733389796e-05 -0.0007749961345881093 0.0 0.0
0.0 0.0009467392910598362 -0.0001633008375208737 0.00013325572204715745 3.0045115473716382e-05 -0.001510614087035676 0.0 0.0
0.0 0.0017281076168075148 -0.00042699133063694495 0.00034909789138433433 7.789343925261057e-05 -0.002774600007433693 0.0 0.0
0.0 0.0030258760135337633 -0.0009502829184205651 0.0007826971238669197 0.00016758579455364536 -0.0045573243559829104 0.0 0.0
0.0 0.004636074279844944 -0.001734700457154722 0.001464390353118087 0.00027031010403663576 -0.006747380086326385 0.0 0.0
0.0 0.006620165685566627 -0.0027151449697442585 0.002359082966190241 0.0003560620035540157 -0.009138215937248987 0.0 0.0
0.0 0.008839492115243871 -0.0038325845203982098 0.0034075145808011237 0.0004250699395970831 -0.011649818841891557 0.0 0.0
0.0 0.011230786459248611 -0.005009365876126966 0.004526807375437777 0.00048255850068918484 -0.014254847518609526 0.0 0.0
0.0 0.013593076177255952 -0.006074666476129289 0.005542438091408197 0.0005322283847210901 -0.016934274861422446 0.0 0.0
0.0 0.015729630364080576 -0.006727683695016905 0.0061516430107274745 0.0005760406842894237 -0.01963398958213539 0.0 0.0
0.0 0.017278298060047312 -0.006557915942082913 0.005943484187295146 0.0006144317547877661 -0.022341678307318973 0.0 0.0
0.0 0.018140966645474696 -0.0052957694039833265 0.00466064639481188 0.0006351230091714399 -0.025168910654195818 0.0 0.0
0.0 0.018327136255054652 -0.002901728977606763 0.002287634754013429 0.0006140942235933315 -0.02770404816065821 0.0 0.0
0.0 0.018404680042261274 0.004027247505180381 -0.004084947369453961 5.769986427357829e-05 -0.02723178407015739 0.0 0.0
0.0 0.01840468004226663 0.004027247505181412 -0.004084947369454511 5.769986427310201e-05 0.027231784070171412 0.0 0.0
0.0 0.018327136255059707 -0.0029017289776076764 0.0022876347540142076 0.0006140942235934667 0.027704048160675197 0.0 0.0
0.0 0.018140966645463847 -0.005295769403977947 0.0046606463948063274 0.0006351230091716141 0.025168910654197522 0.0 0.0
0.0 0.01727829806003343 -0.006557915942076556 0.0059434841872893236 0.0006144317547872314 0.02234167830730629 0.0 0.0
0.0 0.01572963036406024 -0.0067276836950051575 0.0061516430107158415 0.0005760406842893087 0.01963398958211538 0.0 0.0
0.0 0.013593076177240239 -0.006074666476120317 0.0055424380913993935 0.0005322283847209188 0.0169342748614072 0.0 0.0
0.0 0.011230786459232053 -0.005009365876117229 0.004526807375428448 0.0004825585006887805 0.014254847518594713 0.0 0.0
0.0 0.008839492115224891 -0.0038325845203854366 0.0034075145807887243 0.00042506993959671004 0.011649818841878178 0.0 0.0
0.0 0.006620165685548086 -0.002715144969733802 0.0023590829661803425 0.0003560620035534581 0.00913821593723117 0.0 0.0
0.0 0.0046360742798286884 -0.0017347004571464197 0.0014643903531105784 0.00027031010403584163 0.006747380086307514 0.0 0.0
0.0 0.003025876013521238 -0.000950282918415416 0.0007826971238626314 0.0001675857945527838 0.004557324355969096 0.0 0.0
0.0 0.0017281076168028566 -0.0004269913306347827 0.00034909789138256643 7.789343925221627e-05 0.002774600007427639 0.0 0.0
0.0 0.0009467392910568486 -0.00016330083752001453 0.00013325572204647625 3.0045115473538335e-05 0.0015106140870313962 0.0 0.0
0.0 0.0004720332202556366 -6.208669755153619e-05 5.0573800818244886e-05 1.1512896733291281e-05 0.0007749961345854373 0.0 0.0
0.0 0.00020664787801171565 -2.1624181056417643e-05 1.7841571995805183e-05 3.7826090606124775e-06 0.00032031509417609243 0.0 0.0
0.0 6.703705662717436e-05 -6.9818574980468195e-06 6.02153168020004e-06 9.603258178467658e-07 0.00010077189262711555 0.0 0.0
0.0 2.082620365545824e-05 -2.612093008577462e-06 2.312950318988618e-06 2.9914268958884294e-07 3.211408591372467e-05 0.0 0.0
0.0 1.114708387546328e-05 -1.2615177989814851e-06 1.0815136062139363e-06 1.800041927675493e-07 1.5890211747453968e-05 0.0 0.0
0.0 5.2994775387486775e-06 -1.626101592966634e-07 5.122261897114181e-08 1.113875403255264e-07 5.468000874950761e-06 0.0 0.0
0.0 3.834741002799701e-05 1.876610038381404e-05 -2.6712605121063955e-05 7.946504737249908e-06 3.850055620168584e-05 0.0 0.0
0.0 1.7667615988408835e-06 -3.803527360089002e-08 5.481831958455415e-08 -1.678304598364564e-08 1.277813505234104e-07 0.0 0.0
0.0 3.6924523712352904e-06 -2.5391317666427263e-07 1.3441226341735299e-07 1.1950091324691808e-07 -4.85192857486505e-06 0.0 0.0
0.0 1.2529377152778377e-05 -2.193417873853252e-06 1.827192570662077e-06 3.662253031911714e-07 -1.7525333885376272e-05 0.0 0.0
0.0 2.6939974897610177e-05 -5.3792552291286546e-06 4.5794492532406425e-06 7.99805975888025e-07 -3.5755739938481844e-05 0.0 0.0
0.0 7.637392315791126e-05 -1.9025642571505396e-05 1.586138765963532e-05 3.1642549118700802e-06 -0.00011410599460827456 0.0 0.0
0.0 0.00024271252831774352 -7.140741643568237e-05 5.824528039356913e-05 1.3162136042113268e-05 -0.0003635046339439222 0.0 0.0
0.0 0.000744194837987552 -0.00028759651871946673 0.0002356227488564393 5.197376986302742e-05 -0.0010962610743862242 0.0 0.0
0.0 0.0019538157225404665 -0.001016395731410498 0.0008540360374976002 0.00016235969391289746 -0.002700189681246825 0.0 0.0
0.0 0.004242143285678054 -0.002588701461255714 0.0022573668239872827 0.00033133463726843016 -0.0050563692387711814 0.0 0.0
0.0 0.007380213610953007 -0.004906477069056108 0.0044293458171761925 0.0004771312518799141 -0.007822950642480226 0.0 0.0
0.0 0.01108688052456662 -0.007718408514160025 0.007143176013622748 0.0005752325005372741 -0.010797974498481034 0.0 0.0
0.0 0.015282142284020783 -0.010875138762639439 0.010233670874191317 0.0006414678884481225 -0.013810321077708788 0.0 0.0
0.0 0.019793711392906276 -0.014339329839935848 0.01364300250651666 0.0006963273334191814 -0.01681392239785158 0.0 0.0
0.0 0.024602174268543577 -0.01803895620654109 0.017291099382738637 0.0007478568238024508 -0.01978604535400342 0.0 0.0
0.0 0.029499931290182427 -0.021767075562809487 0.020967789856521372 0.0007992857062881028 -0.02278233979215171 0.0 0.0
0.0 0.03409000349279388 -0.025141948836526276 0.024293799558141607 0.0008481492783846653 -0.025851583336589067 0.0 0.0
0.0 0.03790134801773738 -0.0276454298672855 0.02675883575406559 0.0008865941132199129 -0.029094069109284148 0.0 0.0
0.0 0.04025650278777478 -0.028695740788576146 0.027783885580228367 0.0009118552083478019 -0.032396770361299634 0.0 0.0
0.0 0.03940790737439873 -0.027116871286493135 0.026113989444087913 0.001002881842405201 -0.033959106092415856 0.0 0.0
0.0 0.03228563091679316 -0.01949187336971902 0.018358676278353872 0.0011331970913651325 -0.03178636441065277 0.0 0.0
0.0 0.032285630916805814 -0.019491873369720036 0.01835867627835496 0.0011331970913650694 0.03178636441069553 0.0 0.0
0.0 0.03940790737441241 -0.027116871286492386 0.026113989444087438 0.0010028818424049316 0.03395910609247448 0.0 0.0
0.0 0.0402565027877671 -0.02869574078856161 0.02778388558021373 0.0009118552083478673 0.0323967703613352 0.0 0.0
0.0 0.037901348017712735 -0.02764542986726317 0.02675883575404331 0.0008865941132198743 0.029094069109284495 0.0 0.0
0.0 0.03409000349276485 -0.02514194883650304 0.024293799558119392 0.0008481492783836446 0.025851583336571476 0.0 0.0
0.0 0.029499931290152624 -0.021767075562786245 0.020967789856498702 0.000799285706287546 0.022782339792132875 0.0 0.0
0.0 0.024602174268510586 -0.018038956206515654 0.017291099382713088 0.0007478568238025588 0.019786045353983192 0.0 0.0
0.0 0.019793711392875425 -0.014339329839910476 0.013643002506491645 0.0006963273334188152 0.016813922397836578 0.0 0.0
0.0 0.015282142283988932 -0.010875138762615142 0.010233670874167584 0.0006414678884475559 0.01381032107768635 0.0 0.0
0.0 0.011086880524535308 -0.007718408514137454 0.00714317601360102 0.0005752325005364313 0.010797974498454824 0.0 0.0
0.0 0.007380213610925923 -0.0049064770690380125 0.004429345817158823 0.0004771312518791921 0.007822950642453143 0.0 0.0
0.0 0.004242143285662018 -0.0025887014612439568 0.0022573668239765205 0.00033133463726743687 0.005056369238756925 0.0 0.0
0.0 0.001953815722531559 -0.0010163957314048165 0.0008540360374927373 0.00016235969391207921 0.0027001896812368304 0.0 0.0
0.0 0.0007441948379821302 -0.0002875965187173418 0.0002356227488547326 5.197376986260933e-05 0.0010962610743796134 0.0 0.0
0.0 0.00024271252831545385 -7.140741643531186e-05 5.824528039327027e-05 1.3162136042041629e-05 0.00036350463394221 0.0 0.0
0.0 7.637392315677641e-05 -1.9025642571476898e-05 1.5861387659609047e-05 3.1642549118678487e-06 0.00011410599460802045 0.0 0.0
0.0 2.6939974896822762e-05 -5.379255229173131e-06 4.579449253278692e-06 7.998059758944414e-07 3.575573993876425e-05 0.0 0.0
0.0 1.2529377152084995e-05 -2.1934178739358397e-06 1.8271925707291052e-06 3.662253032067335e-07 1.752533388599701e-05 0.0 0.0
0.0 3.6924523709645465e-06 -2.539131766980923e-07 1.3441226342178998e-07 1.1950091327630266e-07 4.851928575654082e-06 0.0 0.0
0.0 1.7667615984946668e-06 -3.803527340941075e-08 5.481831930689212e-08 -1.6783045897481187e-08 -1.2778135003559984e-07 0.0 0.0
0.0 0.0 0.0 0.0 0.0 0.0 0.0 0.0
0.0 1.9122839814671854e-06 -2.7140256784352707e-08 2.501496172152977e-08 2.12529506282028e-09 -3.1434512667721185e-07 0.0 0.0
0.0 1.1226622108218105e-05 -2.1956344948508244e-06 1.807404091972908e-06 3.88230402877911e-07 -1.2740877227780894e-05 0.0 0.0
0.0 3.0183454147899892e-05 -8.000135316148189e-06 6.658822355427505e-06 1.3413129607206937e-06 -3.518713524762879e-05 0.0 0.0
0.0 9.224149133972716e-05 -3.488498498137212e-05 2.8652094658561903e-05 6.232890322810222e-06 -0.00012638561469915612 0.0 0.0
0.0 0.0003738364740390502 -0.00017813558595616014 0.00014553820958003696 3.2597376376123166e-05 -0.0005063835579225513 0.0 0.0
0.0 0.0013954672331073228 -0.0008363938853164461 0.000699435145135985 0.0001369587401804614 -0.0017302965888535908 0.0 0.0
0.0 0.003776724754910978 -0.0026027154827533714 0.002269651627271921 0.00033306385548145074 -0.004008082508774012 0.0 0.0
0.0 0.0077129953792817955 -0.005627101903460935 0.005112411061714088 0.0005146908417468482 -0.007066560133722885 0.0 0.0
0.0 0.012708747246701615 -0.009658436306721384 0.009024799823922743 0.000633636482798641 -0.010628528675297962 0.0 0.0
0.0 0.01867330332847797 -0.014392759581576934 0.013681021369098965 0.0007117382124779835 -0.01436121987695033 0.0 0.0
0.0 0.025138083447461285 -0.019684795850773606 0.01891024558748547 0.0007745502632881318 -0.01800585254777229 0.0 0.0
0.0 0.03219350184876303 -0.0254823345340894 0.02464997692511908 0.0008323576089703244 -0.021524634321512793 0.0 0.0
0.0 0.039782585709633264 -0.031717548526039016 0.030826336075021898 0.0008912124510171104 -0.025012333936340822 0.0 0.0
0.0 0.04773717064322752 -0.038168771136329625 0.03721536657636939 0.0009534045599602094 -0.028691161150241826 0.0 0.0
0.0 0.05551612408800058 -0.04439031430771767 0.04337521270504527 0.0010151016026723528 -0.03285460332525227 0.0 0.0
0.0 0.06250280541180483 -0.04971128048696941 0.04863855279759709 0.0010727276893722991 -0.03762976907620817 0.0 0.0
0.0 0.06713156731175546 -0.05308786890442841 0.0519428086631408 0.0011450602412875618 -0.04215538927914025 0.0 0.0
0.0 0.0672289382753579 -0.052543128325221254 0.05130140692318645 0.0012417214020347908 -0.044343604341697054 0.0 0.0
0.0 0.057076530915308996 -0.04380958333083969 0.04231965009272711 0.0014899332381125784 -0.040046740734436044 0.0 0.0
0.0 0.05707653091531896 -0.043809583330838 0.04231965009272491 0.0014899332381130928 0.040046740734490965 0.0 0.0
0.0 0.0672289382753578 -0.05254312832520854 0.051301406923172636 0.001241721402035885 0.044343604341767845 0.0 0.0
0.0 0.06713156731173546 -0.05308786890440231 0.051942808663114334 0.001145060241287936 0.04215538927918513 0.0 0.0
0.0 0.0625028054117591 -0.04971128048692756 0.04863855279755501 0.0010727276893725643 0.03762976907621239 0.0 0.0
0.0 0.05551612408794474 -0.04439031430767133 0.043375212704998445 0.0010151016026728995 0.03285460332522978 0.0 0.0
0.0 0.04773717064317672 -0.03816877113628801 0.03721536657632794 0.0009534045599600685 0.028691161150217304 0.0 0.0
0.0 0.03978258570958489 -0.03171754852599907 0.030826336074982398 0.0008912124510166634 0.02501233393631794 0.0 0.0
0.0 0.032193501848713245 -0.025482334534047635 0.02464997692507738 0.0008323576089702383 0.0215246343214927 0.0 0.0
0.0 0.0251380834474134 -0.019684795850734807 0.01891024558744683 0.0007745502632879657 0.018005852547745265 0.0 0.0
0.0 0.018673303328432957 -0.014392759581541952 0.01368102136906412 0.0007117382124778284 0.014361219876918161 0.0 0.0
0.0 0.01270874724666348 -0.009658436306692827 0.009024799823894383 0.0006336364827984431 0.010628528675267482 0.0 0.0
0.0 0.007712995379257228 -0.005627101903441973 0.005112411061695575 0.0005146908417463971 0.0070665601337049164 0.0 0.0
0.0 0.003776724754897036 -0.0026027154827430923 0.002269651627262452 0.00033306385548064073 0.004008082508762552 0.0 0.0
0.0 0.0013954672330991772 -0.0008363938853116251 0.0006994351451319735 0.00013695874017965152 0.0017302965888455518 0.0 0.0
0.0 0.0003738364740354754 -0.00017813558595487216 0.00014553820957899618 3.259737637587593e-05 0.0005063835579192778 0.0 0.0
0.0 9.224149133876827e-05 -3.488498498148477e-05 2.8652094658653823e-05 6.2328903228309015e-06 0.00012638561469942945 0.0 0.0
0.0 3.0183454147118443e-05 -8.000135316257966e-06 6.658822355513682e-06 1.3413129607442647e-06 3.5187135248036295e-05 0.0 0.0
0.0 1.1226622107686663e-05 -2.1956344949619645e-06 1.8074040920631796e-06 3.882304028987909e-07 1.2740877228420694e-05 0.0 0.0
0.0 1.912283981073679e-06 -2.7140256812547873e-08 2.5014961737178432e-08 2.1252950753657364e-09 3.1434512706698136e-07 0.0 0.0
0.0 0.0 0.0 0.0 0.0 0.0 0.0 0.0
0.0 0.0 0.0 0.0 0.0 0.0 0.0 0.0
0.0 4.063806097121623e-07 8.83875332606981e-09 -5.922659735395461e-09 -2.916093590674856e-09 8.037141172206253e-08 0.0 0.0
0.0 7.2364376014033344e-06 -1.7582057442622336e-06 1.4352863523775337e-06 3.229193918846951e-07 -7.815910646571933e-06 0.0 0.0
0.0 2.9475578940799528e-05 -1.1068228790304574e-05 9.112324996819858e-06 1.955903793484704e-06 -3.5685108239186455e-05 0.0 0.0
0.0 0.00012649353129593632 -6.318747397771091e-05 5.159069177804546e-05 1.1596782199665477e-05 -0.00015549249498855182 0.0 0.0
0.0 0.0006500258236007444 -0.0004122900140331342 0.00033966911830342914 7.262089572970514e-05 -0.0007526392677458258 0.0 0.0
0.0 0.002414524597643026 -0.0017470013820381966 0.0014960847721666001 0.00025091660987159583 -0.002352251803458656 0.0 0.0
0.0 0.006036490478875639 -0.004630681329411047 0.004159724783048502 0.00047095654636254377 -0.004980712699760855 0.0 0.0
0.0 0.011513605526177204 -0.009062545722363318 0.00843720140809895 0.0006253443142643694 -0.00849125089387266 0.0 0.0
0.0 0.018409581078318648 -0.014744888491739553 0.014020063052229588 0.0007248254395099618 -0.012552156643413675 0.0 0.0
0.0 0.02640271799601746 -0.021365995726143158 0.020565478558487487 0.0008005171676556626 -0.016710679036513156 0.0 0.0
0.0 0.03527976461887858 -0.028764613359974985 0.02789565958314586 0.0008689537768290987 -0.020695203815306203 0.0 0.0
0.0 0.04498304514788799 -0.036884264375089675 0.03595033873557495 0.0009339256395147062 -0.02450406648523941 0.0 0.0
0.0 0.05539911722888635 -0.045664776049517755 0.044664142395480146 0.0010006336540376278 -0.028290093519996493 0.0 0.0
0.0 0.06642721959245194 -0.054886923010697634 0.05381500943487759 0.0010719135758199842 -0.03240998958528723 0.0 0.0
0.0 0.07752450236689812 -0.06403849318563685 0.06288975312607731 0.001148740059559502 -0.037332402016224016 0.0 0.0
0.0 0.08754230879908442 -0.07216798068487061 0.07093414410565138 0.0012338365792192005 -0.043093210067652314 0.0 0.0
0.0 0.09456322251905847 -0.07764488024647835 0.07631103833797444 0.0013338419085038218 -0.048524889408347524 0.0 0.0
0.0 0.09495143895666247 -0.07764865005150011 0.07616545374462555 0.001483196306874536 -0.0507230354011096 0.0 0.0
0.0 0.08258907279242557 -0.06705242549876318 0.06534566269885789 0.0017067627999053036 -0.04644509053370626 0.0 0.0
0.0 0.08258907279243367 -0.06705242549876023 0.06534566269885554 0.0017067627999046496 0.0464450905337671 0.0 0.0
0.0 0.0949514389566593 -0.07764865005148491 0.07616545374461137 0.0014831963068735353 0.050723035401188554 0.0 0.0
0.0 0.09456322251903021 -0.07764488024644453 0.07631103833794128 0.0013338419085032116 0.04852488940840331 0.0 0.0
0.0 0.08754230879903667 -0.0721679806848255 0.07093414410560743 0.0012338365792180445 0.043093210067665644 0.0 0.0
0.0 0.07752450236683801 -0.06403849318558474 0.06288975312602624 0.0011487400595584988 0.037332402016208646 0.0 0.0
0.0 0.06642721959238396 -0.054886923010640576 0.05381500943482026 0.001071913575820261 0.03240998958526254 0.0 0.0
0.0 0.05539911722882387 -0.045664776049465006 0.04466414239542796 0.00100063365403706 0.02829009351997274 0.0 0.0
0.0 0.04498304514782264 -0.03688426437503403 0.035950338735519796 0.0009339256395142471 0.02450406648521781 0.0 0.0
0.0 0.035279764618815136 -0.028764613359921698 0.02789565958309291 0.0008689537768287555 0.020695203815278482 0.0 0.0
0.0 0.026402717995957288 -0.021365995726094177 0.02056547855843915 0.000800517167655027 0.016710679036477355 0.0 0.0
0.0 0.018409581078268074 -0.014744888491699438 0.014020063052190068 0.0007248254395093664 0.012552156643378515 0.0 0.0
0.0 0.011513605526141777 -0.009062545722335254 0.008437201408071485 0.0006253443142637773 0.008491250893850322 0.0 0.0
0.0 0.0060364904788535985 -0.004630681329393722 0.004159724783032261 0.0004709565463614594 0.004980712699745764 0.0 0.0
0.0 0.0024145245976297377 -0.001747001382028616 0.0014960847721581507 0.000250916609870465 0.0023522518034476796 0.0 0.0
0.0 0.0006500258235944394 -0.0004122900140296255 0.00033966911830046645 7.262089572915925e-05 0.000752639267740073 0.0 0.0
0.0 0.00012649353129440757 -6.318747397743247e-05 5.1590691777809914e-05 1.159678219962254e-05 0.00015549249498786663 0.0 0.0
0.0 2.9475578940230274e-05 -1.1068228790530913e-05 9.112324997000852e-06 1.9559037935300523e-06 3.56851082398523e-05 0.0 0.0
0.0 7.236437600860655e-06 -1.758205744381854e-06 1.4352863524737952e-06 3.229193919080576e-07 7.815910647107545e-06 0.0 0.0
0.0 4.063806093257621e-07 8.838753319458759e-09 -5.922659733024222e-09 -2.916093586432878e-09 -8.037141164573473e-08 0.0 0.0
0.0 0.0 0.0 0.0 0.0 0.0 0.0 0.0
0.0 0.0 0.0 0.0 0.0 0.0 0.0 0.0
0.0 0.0 0.0 0.0 0.0 0.0 0.0 0.0
0.0 3.3427377784031693e-06 -9.535282992809172e-07 7.756549621816669e-07 1.7787333709925384e-07 -3.333258140632849e-06 0.0 0.0
0.0 2.822120452189649e-05 -1.0955606351222486e-05 8.928011547618525e-06 2.0275948036039757e-06 -2.6414397135407996e-05 0.0 0.0
0.0 0.00020357770363146132 -0.00011940087821547875 9.724275942853274e-05 2.2158118786946e-05 -0.0002061522764481145 0.0 0.0
0.0 0.0011130533122651542 -0.0008272110874738424 0.0006902281062116061 0.0001369829812622362 -0.0010270430832611352 0.0 0.0
0.0 0.0037516910388409757 -0.0029558213819821737 0.002590871053602798 0.00036495032837937627 -0.0027858218808448775 0.0 0.0
0.0 0.008584467700710025 -0.006949356660623086 0.0063807125414216456 0.0005686441192014377 -0.005563861909324638 0.0 0.0
0.0 0.015515924851930157 -0.012743445089196049 0.012045692337316009 0.0006977527518800373 -0.009287619933576562 0.0 0.0
0.0 0.024209750678574487 -0.02002614418622282 0.019235967028041902 0.0007901771581809212 -0.013504039281104312 0.0 0.0
0.0 0.0342970239833947 -0.028505617787644426 0.027634373761787838 0.0008712440258565837 -0.017759096373081512 0.0 0.0
0.0 0.04554504504411511 -0.03800222829966429 0.03705486058157307 0.0009473677180912312 -0.021839147807967293 0.0 0.0
0.0 0.05784203466027538 -0.048436355952320556 0.047416196934599246 0.001020159017721262 -0.02573305855573954 0.0 0.0
0.0 0.07115209435579614 -0.05975393433579153 0.05866037616120934 0.0010935581745821902 -0.0295711759985135 0.0 0.0
0.0 0.08534140324242442 -0.07175717665277541 0.07058274205978239 0.0011744345929930173 -0.03376116851831145 0.0 0.0
0.0 0.09954133497155068 -0.0838428963074242 0.08257424977038941 0.0012686465370347632 -0.03883700146723031 0.0 0.0
0.0 0.11272387409616136 -0.09471292592231494 0.09333308258667632 0.0013798433356385475 -0.04487380104404191 0.0 0.0
0.0 0.1218207532702115 -0.1020851925335123 0.10056867321388471 0.0015165193196275684 -0.05063777201280788 0.0 0.0
0.0 0.12238563269256708 -0.10229725885809063 0.10061221353763575 0.0016850453204548224 -0.053528724568119475 0.0 0.0
0.0 0.10832940078819774 -0.08992346672357682 0.08804458341980155 0.0018788833037752775 -0.05187614172411992 0.0 0.0
0.0 0.10832940078819836 -0.0899234667235688 0.08804458341979299 0.0018788833037758183 0.051876141724182534 0.0 0.0
0.0 0.12238563269254812 -0.10229725885806445 0.10061221353760913 0.001685045320455268 0.05352872456819577 0.0 0.0
0.0 0.12182075327017225 -0.10208519253347066 0.10056867321384347 0.0015165193196271017 0.05063777201286442 0.0 0.0
0.0 0.11272387409610385 -0.09471292592226194 0.09333308258662354 0.0013798433356383014 0.0448738010440594 0.0 0.0
0.0 0.09954133497147764 -0.08384289630736078 0.08257424977032629 0.0012686465370344265 0.038837001467217885 0.0 0.0
0.0 0.08534140324234706 -0.07175717665270846 0.07058274205971672 0.0011744345929917467 0.033761168518292244 0.0 0.0
0.0 0.07115209435572001 -0.05975393433572618 0.05866037616114496 0.0010935581745812296 0.02957117599849035 0.0 0.0
0.0 0.05784203466019528 -0.04843635595225189 0.04741619693453091 0.001020159017720955 0.025733058555716594 0.0 0.0
0.0 0.04554504504404016 -0.03800222829960042 0.037054860581509946 0.0009473677180904613 0.02183914780793985 0.0 0.0
0.0 0.03429702398332607 -0.028505617787587135 0.027634373761731418 0.000871244025855692 0.017759096373047022 0.0 0.0
0.0 0.024209750678513726 -0.020026144186172684 0.0192359670279923 0.000790177158180381 0.013504039281068454 0.0 0.0
0.0 0.015515924851884483 -0.012743445089158228 0.012045692337278771 0.0006977527518794642 0.009287619933552524 0.0 0.0
0.0 0.008584467700676404 -0.006949356660595629 0.006380712541395218 0.000568644119200408 0.005563861909305599 0.0 0.0
0.0 0.003751691038821284 -0.002955821381966927 0.002590871053588695 0.00036495032837823374 0.0027858218808319156 0.0 0.0
0.0 0.0011130533122574908 -0.0008272110874687846 0.0006902281062072811 0.000136982981261503 0.0010270430832552634 0.0 0.0
0.0 0.00020357770362926188 -0.00011940087821474093 9.724275942791686e-05 2.2158118786823978e-05 0.00020615227644689242 0.0 0.0
0.0 2.8221204521308485e-05 -1.0955606351388688e-05 8.928011547745067e-06 2.0275948036436343e-06 2.641439713577794e-05 0.0 0.0
0.0 3.342737778372844e-06 -9.53528299430008e-07 7.756549623023145e-07 1.778733371276914e-07 3.333258141157996e-06 0.0 0.0
0.0 0.0 0.0 0.0 0.0 0.0 0.0 0.0
0.0 0.0 0.0 0.0 0.0 0.0 0.0 0.0
0.0 0.0 0.0 0.0 0.0 0.0 0.0 0.0
0.0 0.0 0.0 0.0 0.0 0.0 0.0 0.0
0.0 9.159772724021529e-07 5.630253744311479e-08 -4.536700834069255e-08 -1.0935529102421052e-08 1.5681455061216043e-07 0.0 0.0
0.0 2.6343278032882543e-05 -1.4929837385249704e-05 1.205584125750447e-05 2.8739961277452687e-06 -2.7190538954057875e-05 0.0 0.0
0.0 0.00033368551944310855 -0.0002396277829105698 0.00019545134129244393 4.417644161812583e-05 -0.00029469742061598325 0.0 0.0
0.0 0.001796864238352471 -0.0014332932492795822 0.0012144320977288937 0.00021886115155068887 -0.001230956171278607 0.0 0.0
0.0 0.005376618323976507 -0.00439543512989288 0.003933658650899855 0.00046177647899302645 -0.0029742563261987345 0.0 0.0
0.0 0.011267199381295428 -0.009474398386798063 0.008837478613633763 0.0006369197731642972 -0.005737601389287302 0.0 0.0
0.0 0.019638801199473845 -0.0165691069078584 0.01581959077173875 0.00074951613611966 -0.009372068479886876 0.0 0.0
0.0 0.030102030943238246 -0.025415491735950257 0.02457217370996767 0.0008433180259825848 -0.013432734030437368 0.0 0.0
0.0 0.042269860190274774 -0.03573999873973724 0.03480840850091223 0.0009315902388249728 -0.017547336261952127 0.0 0.0
0.0 0.055862492637757756 -0.04733279120158184 0.0463165569929088 0.0010162342086729678 -0.02149041361728734 0.0 0.0
0.0 0.0708189385777611 -0.06007694307150126 0.058979492189694865 0.001097450881806388 -0.025258048599653575 0.0 0.0
0.0 0.08687115223317723 -0.0739074659017833 0.07272953225254528 0.0011779336492380825 -0.028938728854209908 0.0 0.0
0.0 0.10406241776897762 -0.088633534933512 0.0873661746756551 0.0012673602578569037 -0.03278677595647949 0.0 0.0
0.0 0.12165853053640169 -0.10357696140910864 0.10219861773261674 0.001378343676491912 -0.037333307251730286 0.0 0.0
0.0 0.13748395516472967 -0.11710630469743816 0.11558949050379622 0.0015168141936418797 -0.042938861552402334 0.0 0.0
0.0 0.1484479636629393 -0.1262857549927855 0.12460375968763139 0.0016819953051541176 -0.04890560497040909 0.0 0.0
0.0 0.14953505359780123 -0.12678355545143455 0.1249228156558973 0.0018607397955372313 -0.053669122246486574 0.0 0.0
0.0 0.1346231250323773 -0.11297400754543782 0.1109363962159105 0.0020376113295273264 -0.05680170250800201 0.0 0.0
0.0 0.13462312503237558 -0.1129740075454288 0.11093639621590107 0.002037611329527694 0.05680170250806608 0.0 0.0
0.0 0.14953505359777003 -0.12678355545139985 0.12492281565586141 0.0018607397955383998 0.053669122246562506 0.0 0.0
0.0 0.148447963662883 -0.12628575499273112 0.1246037596875762 0.0016819953051548894 0.04890560497046537 0.0 0.0
0.0 0.13748395516464923 -0.11710630469736634 0.11558949050372405 0.0015168141936422004 0.042938861552417884 0.0 0.0
0.0 0.12165853053630105 -0.10357696140902174 0.10219861773252942 0.0013783436764923025 0.03733330725171764 0.0 0.0
0.0 0.10406241776887817 -0.08863353493342624 0.08736617467556909 0.0012673602578571338 0.032786775956464446 0.0 0.0
0.0 0.08687115223308292 -0.07390746590170193 0.07272953225246469 0.0011779336492371774 0.028938728854188293 0.0 0.0
0.0 0.07081893857766453 -0.06007694307141758 0.058979492189611765 0.001097450881805751 0.02525804859963281 0.0 0.0
0.0 0.055862492637666496 -0.04733279120150324 0.04631655699283072 0.0010162342086725124 0.021490413617261662 0.0 0.0
0.0 0.04226986019019051 -0.035739998739666115 0.03480840850084135 0.0009315902388247787 0.017547336261917148 0.0 0.0
0.0 0.030102030943166977 -0.025415491735890534 0.024572173709908423 0.0008433180259821071 0.013432734030402668 0.0 0.0
0.0 0.019638801199423545 -0.016569106907815483 0.015819590771696708 0.0007495161361187718 0.009372068479865516 0.0 0.0
0.0 0.011267199381258926 -0.009474398386767358 0.008837478613603695 0.0006369197731636552 0.005737601389270169 0.0 0.0
0.0 0.005376618323954694 -0.004395435129875242 0.003933658650883167 0.0004617764789920752 0.0029742563261875177 0.0 0.0
0.0 0.0017968642383411324 -0.0014332932492709441 0.001214432097721378 0.00021886115154956534 0.001230956171271916 0.0 0.0
0.0 0.0003336855194392964 -0.0002396277829084469 0.00019545134129066345 4.417644161778331e-05 0.00029469742061356206 0.0 0.0
0.0 2.6343278032435235e-05 -1.4929837385354036e-05 1.2055841257585121e-05 2.873996127768894e-06 2.719053895426406e-05 0.0 0.0
0.0 9.159772720464821e-07 5.630253742091469e-08 -4.5367008322703315e-08 -1.0935529098212496e-08 -1.5681455054918204e-07 0.0 0.0
0.0 0.0 0.0 0.0 0.0 0.0 0.0 0.0
0.0 0.0 0.0 0.0 0.0 0.0 0.0 0.0
0.0 0.0 0.0 0.0 0.0 0.0 0.0 0.0
0.0 0.0 0.0 0.0 0.0 0.0 0.0 0.0
0.0 2.633745482838499e-07 1.9034837468267232e-08 -1.5232417022672714e-08 -3.80242044559584e-09 3.959451352121644e-08 0.0 0.0
0.0 3.064644051522157e-05 -2.0985852215540964e-05 1.6855932048761535e-05 4.129920166779445e-06 -2.8124655953760127e-05 0.0 0.0
0.0 0.0005670755842677411 -0.0004479888050734783 0.00036724421553607203 8.074458953740647e-05 -0.00038096250994300394 0.0 0.0
0.0 0.0026975947984671433 -0.0022201894662023268 0.0019142883992230792 0.0003059010669792481 -0.001305573303037798 0.0 0.0
0.0 0.007007401774620184 -0.006026814031704336 0.005489033038944818 0.0005377809927595207 -0.0029304112003276004 0.0 0.0
0.0 0.014087848429100986 -0.012120155686601443 0.011436313812477016 0.0006838418741244325 -0.005441215505114417 0.0 0.0
0.0 0.023888681591456615 -0.02046604115151879 0.01967566475020488 0.0007903764013139139 -0.00869302636994637 0.0 0.0
0.0 0.036053372201690956 -0.030857469399857347 0.0299687141524067 0.0008887552474506604 -0.012366716981674849 0.0 0.0
0.0 0.050266903884724 -0.043015023657849046 0.042030640350364246 0.0009843833074847698 -0.01608875417584844 0.0 0.0
0.0 0.06623483782964874 -0.05670347402864761 0.05562550959312626 0.0010779644355213146 -0.019662537967710406 0.0 0.0
0.0 0.08374893315230542 -0.07176048938519283 0.0705917481411719 0.00116874124402089 -0.023102617932625163 0.0 0.0
0.0 0.10270864859351747 -0.0880633965667396 0.08680491792269372 0.0012584786440458617 -0.02640567804387248 0.0 0.0
0.0 0.12282003201118427 -0.10538907914319191 0.10403376792200543 0.0013553112211864768 -0.02960077830625556 0.0 0.0
0.0 0.14308521324181517 -0.12302723447952887 0.12154963548317622 0.0014775989963526435 -0.0330196984464924 0.0 0.0
0.0 0.1618438548107588 -0.13913118471686353 0.137491763958665 0.001639420758198483 -0.037440167558916715 0.0 0.0
0.0 0.17500735063924025 -0.15024813615384314 0.1484194343661144 0.0018287017877287534 -0.043506298131469424 0.0 0.0
0.0 0.1770390514433406 -0.15143535106683503 0.14941195972126659 0.0020233913455683346 -0.05129373261488709 0.0 0.0
0.0 0.1616161181392532 -0.13666184486588656 0.13446603352145775 0.0021958113444287093 -0.061244761099639014 0.0 0.0
0.0 0.16161611813924479 -0.13666184486587235 0.13446603352144385 0.002195811344428582 0.06124476109969819 0.0 0.0
0.0 0.17703905144330986 -0.15143535106680106 0.1494119597212351 0.002023391345565913 0.05129373261495733 0.0 0.0
0.0 0.17500735063917847 -0.15024813615378485 0.14841943436605787 0.001828701787726894 0.04350629813151978 0.0 0.0
0.0 0.16184385481066796 -0.13913118471678315 0.13749176395858562 0.0016394207581974705 0.03744016755892747 0.0 0.0
0.0 0.14308521324171536 -0.12302723447944133 0.12154963548309075 0.0014775989963505217 0.03301969844648496 0.0 0.0
0.0 0.12282003201107647 -0.10538907914309774 0.10403376792191305 0.0013553112211846428 0.029600778306245766 0.0 0.0
0.0 0.10270864859340229 -0.08806339656664036 0.0868049179225949 0.001258478644045425 0.02640567804385244 0.0 0.0
0.0 0.0837489331521952 -0.07176048938509744 0.07059174814107709 0.0011687412440203435 0.02310261793260667 0.0 0.0
0.0 0.06623483782954351 -0.05670347402855662 0.055625509593035985 0.0010779644355206515 0.019662537967686616 0.0 0.0
0.0 0.05026690388463036 -0.04301502365776859 0.04203064035028467 0.000984383307483911 0.016088754175816924 0.0 0.0
0.0 0.036053372201609646 -0.03085746939978791 0.029968714152337685 0.0008887552474502237 0.012366716981644096 0.0 0.0
0.0 0.02388868159139236 -0.020466041151463565 0.01967566475014969 0.000790376401313879 0.008693026369925652 0.0 0.0
0.0 0.01408784842905516 -0.01212015568656207 0.011436313812438188 0.0006838418741238802 0.005441215505097006 0.0 0.0
0.0 0.007007401774591833 -0.006026814031680122 0.005489033038921604 0.0005377809927585159 0.00293041120031684 0.0 0.0
0.0 0.0026975947984512975 -0.0022201894661898775 0.001914288399211706 0.00030590106697817195 0.0013055733030307014 0.0 0.0
0.0 0.0005670755842625175 -0.00044798880507003036 0.0003672442155331731 8.074458953685703e-05 0.00038096250994043053 0.0 0.0
0.0 3.0646440514655045e-05 -2.0985852215699143e-05 1.6855932048874336e-05 4.129920166824812e-06 2.812465595394427e-05 0.0 0.0
0.0 2.633745479801639e-07 1.90348374459991e-08 -1.5232417004860948e-08 -3.802420441135515e-09 -3.959451347502403e-08 0.0 0.0
0.0 0.0 0.0 0.0 0.0 0.0 0.0 0.0
0.0 0.0 0.0 0.0 0.0 0.0 0.0 0.0
0.0 0.0 0.0 0.0 0.0 0.0 0.0 0.0
0.0 0.0 0.0 0.0 0.0 0.0 0.0 0.0
0.0 0.0 0.0 0.0 0.0 0.0 0.0 0.0
0.0 4.847773778865526e-05 -3.773922675860531e-05 3.0322940563901017e-05 7.416286194704303e-06 -3.528492682010576e-05 0.0 0.0
0.0 0.0009437452625271015 -0.0007747954684255847 0.0006406548385783422 0.00013414062984724222 -0.00042525252927277777 0.0 0.0
0.0 0.0037389274239124385 -0.0031742196906164987 0.0027841792814292422 0.00039004040918725697 -0.0012291650615423207 0.0 0.0
0.0 0.00885922812912486 -0.007773212303966301 0.007178909841678363 0.0005943024622879335 -0.002563364918716128 0.0 0.0
0.0 0.017044799826594497 -0.014821324219339495 0.014102843481507515 0.0007184807378319755 -0.004599387402195987 0.0 0.0
0.0 0.028184680059429416 -0.024389594206265186 0.023565424502279858 0.000824169703985303 -0.007276093780394746 0.0 0.0
0.0 0.04203941688588352 -0.03630216390229569 0.035374211552789976 0.0009279523495057136 -0.010315953857686175 0.0 0.0
0.0 0.05830359590394457 -0.05028050353680348 0.049249211172282516 0.0010312923645209398 -0.01340128583980109 0.0 0.0
0.0 0.07658524443644632 -0.06606457136171293 0.06493084386543943 0.0011337274962735058 -0.016360830279995738 0.0 0.0
0.0 0.09680584389560659 -0.0834369002092292 0.08220163214311431 0.0012352680661148778 -0.01922559579327076 0.0 0.0
0.0 0.11837401962470748 -0.10218120647499904 0.10084439798228924 0.0013368084927097975 -0.02198329028035268 0.0 0.0
0.0 0.14115784475658547 -0.12195408467398215 0.12051130461976296 0.0014427800542191754 -0.024393872409461514 0.0 0.0
0.0 0.16428359074565888 -0.1420036162479594 0.14043516237666037 0.0015684538712988836 -0.02630469187145684 0.0 0.0
0.0 0.1856948602773532 -0.16054424967356928 0.15880746856362837 0.0017367811099408376 -0.028713037518667953 0.0 0.0
0.0 0.201374532480579 -0.17394998323863542 0.17199304051589703 0.0019569427227383125 -0.03435079334934156 0.0 0.0
0.0 0.20511558046656678 -0.1765462167822347 0.17436870299519802 0.002177513787036787 -0.045908641573612914 0.0 0.0
0.0 0.1900695834807903 -0.16149587744358063 0.15912942768989388 0.002366449753686747 -0.06485974153584079 0.0 0.0
0.0 0.19006958348077893 -0.16149587744356592 0.15912942768987962 0.002366449753686307 0.06485974153588571 0.0 0.0
0.0 0.2051155804665166 -0.17654621678218752 0.1743687029951503 0.0021775137870372737 0.04590864157367267 0.0 0.0
0.0 0.20137453248050252 -0.17394998323856686 0.17199304051582837 0.0019569427227384088 0.0343507933493845 0.0 0.0
0.0 0.18569486027725404 -0.16054424967348274 0.15880746856354244 0.0017367811099403883 0.028713037518677435 0.0 0.0
0.0 0.1642835907455379 -0.1420036162478549 0.14043516237655576 0.0015684538712991143 0.02630469187145089 0.0 0.0
0.0 0.14115784475645266 -0.12195408467386755 0.12051130461964754 0.0014427800542200515 0.02439387240945477 0.0 0.0
0.0 0.11837401962458001 -0.1021812064748889 0.10084439798217948 0.0013368084927094185 0.021983290280337166 0.0 0.0
0.0 0.09680584389548841 -0.08343690020912625 0.08220163214301276 0.0012352680661135247 0.019225595793257947 0.0 0.0
0.0 0.07658524443632841 -0.06606457136161073 0.06493084386533826 0.0011337274962724688 0.016360830279978842 0.0 0.0
0.0 0.058303595903840606 -0.05028050353671343 0.04924921117219312 0.0010312923645202823 0.013401285839776247 0.0 0.0
0.0 0.04203941688579342 -0.03630216390221763 0.03537421155271269 0.0009279523495049514 0.010315953857661528 0.0 0.0
0.0 0.028184680059358314 -0.024389594206203347 0.023565424502218657 0.0008241697039846908 0.007276093780377354 0.0 0.0
0.0 0.017044799826542983 -0.0148213242192947 0.01410284348146311 0.000718480737831597 0.004599387402181937 0.0 0.0
0.0 0.008859228129090856 -0.007773212303936657 0.00717890984164942 0.0005943024622872401 0.0025633649187063205 0.0 0.0
0.0 0.0037389274238938458 -0.0031742196906009382 0.0027841792814148297 0.00039004040918610863 0.001229165061536117 0.0 0.0
0.0 0.0009437452625203748 -0.0007747954684206449 0.0006406548385740742 0.00013414062984657066 0.0004252525292701463 0.0 0.0
0.0 4.8477737787884e-05 -3.773922675866989e-05 3.032294056393304e-05 7.416286194736888e-06 3.52849268201336e-05 0.0 0.0
0.0 0.0 0.0 0.0 0.0 0.0 0.0 0.0
0.0 0.0 0.0 0.0 0.0 0.0 0.0 0.0
0.0 0.0 0.0 0.0 0.0 0.0 0.0 0.0
0.0 0.0 0.0 0.0 0.0 0.0 0.0 0.0
0.0 0.0 0.0 0.0 0.0 0.0 0.0 0.0
0.0 0.0 0.0 0.0 0.0 0.0 0.0 0.0
0.0 0.00010395292007439369 -8.58922178297676e-05 6.892380490122699e-05 1.696841292854064e-05 -4.8601897310863394e-05 0.0 0.0
0.0 0.0014896190379165347 -0.0012338344687431349 0.0010335738452473603 0.0002002606234957744 -0.00038740694186438496 0.0 0.0
0.0 0.004760925852245938 -0.00426835805731113 0.003803605427582955 0.0004647526297281742 -0.0009502499502080286 0.0 0.0
0.0 0.010857273601351828 -0.009580699117265576 0.00894699683034375 0.0006337022869218288 -0.0018600478977067447 0.0 0.0
0.0 0.020051744370266154 -0.017543090237453478 0.01679697476421052 0.0007461154732429623 -0.003253537425178995 0.0 0.0
0.0 0.032499443632698966 -0.028294546927409694 0.027442624251115794 0.0008519226762938815 -0.005125356849241064 0.0 0.0
0.0 0.048023328461987536 -0.04170237241062212 0.040740661197175884 0.0009617112134462019 -0.007282272898962316 0.0 0.0
0.0 0.06631088923210215 -0.057489701290401776 0.0564166180236756 0.0010730832667261406 -0.009475414450520874 0.0 0.0
0.0 0.08706904811294627 -0.07536575508496109 0.07418106639823706 0.0011846886867240346 -0.011579925726775023 0.0 0.0
0.0 0.10968437330997172 -0.09505481189300077 0.09375743567759101 0.0012973762154097931 -0.01364389739665612 0.0 0.0
0.0 0.13405411786120003 -0.11621265017299445 0.11480017513374735 0.0014124750392470284 -0.015603927272511803 0.0 0.0
0.0 0.1595519831500865 -0.13831124308766396 0.13677963531814874 0.0015316077695152414 -0.017145125345769247 0.0 0.0
0.0 0.18506767817763908 -0.16046537385400497 0.1588059954677678 0.001659378386237161 -0.01778786616315689 0.0 0.0
0.0 0.2087823165560138 -0.18107192667959315 0.1792579459823402 0.0018139806972530628 -0.017853980983509363 0.0 0.0
0.0 0.22725718483876212 -0.1970187634179515 0.19499070475555372 0.0020280586623977782 -0.02104264575049506 0.0 0.0
0.0 0.23412586802305183 -0.20238227660404715 0.20004281231979673 0.002339464284250247 -0.035722722344148625 0.0 0.0
0.0 0.2206478755529106 -0.18822952761921777 0.18566349894402615 0.0025660286751914238 -0.0667970026553092 0.0 0.0
0.0 0.2206478755528971 -0.18822952761920297 0.18566349894401168 0.0025660286751911215 0.0667970026553447 0.0 0.0
0.0 0.23412586802299945 -0.2023822766039993 0.2000428123197493 0.0023394642842499646 0.03572272234419749 0.0 0.0
0.0 0.22725718483866827 -0.1970187634178688 0.19499070475547245 0.0020280586623964325 0.021042645750526962 0.0 0.0
0.0 0.2087823165558933 -0.1810719266794879 0.17925794598223627 0.0018139806972516232 0.017853980983513887 0.0 0.0
0.0 0.1850676781775039 -0.16046537385388804 0.15880599546765117 0.0016593783862367995 0.01778786616315072 0.0 0.0
0.0 0.1595519831499428 -0.13831124308753973 0.13677963531802378 0.001531607769515956 0.017145125345767377 0.0 0.0
0.0 0.13405411786105922 -0.11621265017287279 0.11480017513362553 0.0014124750392472247 0.015603927272505064 0.0 0.0
0.0 0.10968437330983294 -0.09505481189288036 0.09375743567747138 0.0012973762154089945 0.01364389739664754 0.0 0.0
0.0 0.08706904811281012 -0.07536575508484286 0.07418106639811926 0.0011846886867236091 0.011579925726764044 0.0 0.0
0.0 0.06631088923198238 -0.05748970129029797 0.05641661802357266 0.0010730832667252806 0.009475414450502019 0.0 0.0
0.0 0.04802332846188527 -0.0417023724105335 0.040740661197087746 0.0009617112134457555 0.007282272898943031 0.0 0.0
0.0 0.03249944363261918 -0.028294546927339945 0.027442624251046467 0.0008519226762934697 0.005125356849229772 0.0 0.0
0.0 0.020051744370207934 -0.017543090237402453 0.01679697476416 0.0007461154732424441 0.0032535374251696286 0.0 0.0
0.0 0.010857273601313971 -0.009580699117232081 0.008946996830311001 0.0006337022869210839 0.0018600478976993212 0.0 0.0
0.0 0.004760925852225487 -0.0042683580572930105 0.0038036054275658055 0.0004647526297272058 0.0009502499502036703 0.0 0.0
0.0 0.0014896190379074907 -0.0012338344687359878 0.001033573845241143 0.00020026062349484523 0.0003874069418625234 0.0 0.0
0.0 0.00010395292007288784 -8.589221782929845e-05 6.892380490081893e-05 1.696841292847944e-05 4.860189731060064e-05 0.0 0.0
0.0 0.0 0.0 0.0 0.0 0.0 0.0 0.0
0.0 0.0 0.0 0.0 0.0 0.0 0.0 0.0
0.0 0.0 0.0 0.0 0.0 0.0 0.0 0.0
0.0 0.0 0.0 0.0 0.0 0.0 0.0 0.0
0.0 0.0 0.0 0.0 0.0 0.0 0.0 0.0
0.0 0.0 0.0 0.0 0.0 0.0 0.0 0.0
0.0 0.0002447071533960566 -0.000213854891907119 0.00017154108841861842 4.2313803488500614e-05 -5.0904511189341446e-05 0.0 0.0
0.0 0.002207239032857747 -0.0018158498625629048 0.0015423363397198764 0.00027351352284302747 -0.00022376991629137515 0.0 0.0
0.0 0.006061172854688792 -0.00543483098135478 0.004911061081424085 0.0005237698999306961 -0.0004458805373271602 0.0 0.0
0.0 0.012920324928495108 -0.011422776718156441 0.010758996363713335 0.0006637803544430995 -0.0008176659215325564 0.0 0.0
0.0 0.023098730019339042 -0.020246152089700493 0.019478342925726234 0.0007678091639742539 -0.001407472628693477 0.0 0.0
0.0 0.036826728100697856 -0.032135448422776616 0.031260536396595165 0.000874912026181425 -0.0022491675003691756 0.0 0.0
0.0 0.054027395269613206 -0.04700980438788472 0.04601932561169009 0.0009904787761946653 -0.0032597423185813535 0.0 0.0
0.0 0.07441079478966044 -0.06459675881043292 0.06348657968637982 0.0011101791240531312 -0.004306771725256057 0.0 0.0
0.0 0.09730712076465908 -0.08456457927413072 0.08333288561790059 0.0012316936562300938 -0.005327194748051996 0.0 0.0
0.0 0.1226041389888825 -0.10654969376198653 0.10519428164680507 0.0013554121151814218 -0.006315606471992507 0.0 0.0
0.0 0.14976219959808668 -0.13009040472468025 0.12860669252917611 0.0014837121955040842 -0.007197197627665173 0.0 0.0
0.0 0.17788150896028665 -0.15447025986222782 0.1528523013149987 0.0016179585472291909 -0.007774627288181313 0.0 0.0
0.0 0.20567853824111626 -0.1785599640275583 0.17680334044047996 0.0017566235870782603 -0.007653537773095905 0.0 0.0
0.0 0.231232026233089 -0.20072060847048614 0.1988223930545251 0.0018982154159610189 -0.006468709000723184 0.0 0.0
0.0 0.2518102185116966 -0.21858466584871125 0.21652397492703102 0.0020606909216799797 -0.0057692402378361485 0.0 0.0
0.0 0.2629360323701822 -0.2279845123941315 0.2256692355048825 0.0023152768892488397 -0.0161557042537609 0.0 0.0
0.0 0.255189213459478 -0.21888934809625324 0.2159422539728308 0.0029470941234224046 -0.06164758776162153 0.0 0.0
0.0 0.25518921345945716 -0.21888934809623437 0.21594225397281133 0.002947094123422784 0.06164758776163666 0.0 0.0
0.0 0.2629360323701135 -0.22798451239407158 0.2256692355048224 0.0023152768892489403 0.016155704253785597 0.0 0.0
0.0 0.2518102185115936 -0.21858466584862096 0.21652397492694292 0.0020606909216779722 0.005769240237849534 0.0 0.0
0.0 0.23123202623295575 -0.20072060847037046 0.1988223930544104 0.0018982154159600953 0.006468709000722161 0.0 0.0
0.0 0.20567853824096655 -0.17855996402742855 0.17680334044035068 0.0017566235870776856 0.0076535377730901615 0.0 0.0
0.0 0.17788150896013336 -0.15447025986209442 0.15285230131486677 0.0016179585472275739 0.0077746272881810356 0.0 0.0
0.0 0.1497621995979316 -0.13009040472454536 0.12860669252904278 0.0014837121955025528 0.007197197627660211 0.0 0.0
0.0 0.12260413898872673 -0.10654969376185161 0.10519428164667052 0.001355412115181044 0.006315606471986823 0.0 0.0
0.0 0.09730712076451206 -0.08456457927400322 0.08333288561777391 0.001231693656229298 0.005327194748048259 0.0 0.0
0.0 0.0744107947895264 -0.06459675881031683 0.06348657968626398 0.0011101791240528424 0.00430677172524619 0.0 0.0
0.0 0.05402739526950258 -0.04700980438778891 0.04601932561159487 0.0009904787761940547 0.003259742318571566 0.0 0.0
0.0 0.03682672810061565 -0.03213544842270451 0.03126053639652408 0.0008749120261804103 0.0022491675003646623 0.0 0.0
0.0 0.023098730019275877 -0.02024615208964476 0.01947834292567122 0.0007678091639735149 0.0014074726286892065 0.0 0.0
0.0 0.01292032492844933 -0.01142277671811608 0.01075899636367346 0.0006637803544426215 0.0008176659215296139 0.0 0.0
0.0 0.006061172854665581 -0.005434830981333852 0.004911061081403865 0.0005237698999299855 0.00044588053732530606 0.0 0.0
0.0 0.0022072390328473353 -0.0018158498625546167 0.0015423363397124115 0.00027351352284220613 0.00022376991629056636 0.0 0.0
0.0 0.0002447071533936503 -0.00021385489190558897 0.00017154108841738105 4.2313803488207906e-05 5.090451118907117e-05 0.0 0.0
0.0 0.0 0.0 0.0 0.0 0.0 0.0 0.0
0.0 0.0 0.0 0.0 0.0 0.0 0.0 0.0
0.0 0.0 0.0 0.0 0.0 0.0 0.0 0.0