# vtk DataFile Version 3.0
Some data
ASCII
DATASET UNSTRUCTURED_GRID
POINTS 861 float
0.0 0.0 0.0
0.4 0.0 0.0
0.8 0.0 0.0
1.2000000000000002 0.0 0.0
1.6 0.0 0.0
2.0 0.0 0.0
2.4000000000000004 0.0 0.0
2.8000000000000003 0.0 0.0
3.2 0.0 0.0
3.6 0.0 0.0
4.0 0.0 0.0
4.4 0.0 0.0
4.800000000000001 0.0 0.0
5.2 0.0 0.0
5.6000000000000005 0.0 0.0
6.0 0.0 0.0
6.4 0.0 0.0
6.800000000000001 0.0 0.0
7.2 0.0 0.0
7.6000000000000005 0.0 0.0
8.0 0.0 0.0
8.4 0.0 0.0
8.8 0.0 0.0
9.200000000000001 0.0 0.0
9.600000000000001 0.0 0.0
10.0 0.0 0.0
10.4 0.0 0.0
10.8 0.0 0.0
11.200000000000001 0.0 0.0
11.600000000000001 0.0 0.0
12.0 0.0 0.0
12.4 0.0 0.0
12.8 0.0 0.0
13.200000000000001 0.0 0.0
13.600000000000001 0.0 0.0
14.0 0.0 0.0
14.4 0.0 0.0
14.8 0.0 0.0
15.200000000000001 0.0 0.0
15.600000000000001 0.0 0.0
16.0 0.0 0.0
0.0 0.1 0.0
0.4 0.1 0.0
0.8 0.1 0.0
1.2000000000000002 0.1 0.0
1.6 0.1 0.0
2.0 0.1 0.0
2.4000000000000004 0.1 0.0
2.8000000000000003 0.1 0.0
3.2 0.1 0.0
3.6 0.1 0.0
4.0 0.1 0.0
4.4 0.1 0.0
4.800000000000001 0.1 0.0
5.2 0.1 0.0
5.6000000000000005 0.1 0.0
6.0 0.1 0.0
6.4 0.1 0.0
6.800000000000001 0.1 0.0
7.2 0.1 0.0
7.6000000000000005 0.1 0.0
8.0 0.1 0.0
8.4 0.1 0.0
8.8 0.1 0.0
9.200000000000001 0.1 0.0
9.600000000000001 0.1 0.0
10.0 0.1 0.0
10.4 0.1 0.0
10.8 0.1 0.0
11.200000000000001 0.1 0.0
11.600000000000001 0.1 0.0
12.0 0.1 0.0
12.4 0.1 0.0
12.8 0.1 0.0
13.200000000000001 0.1 0.0
13.600000000000001 0.1 0.0
14.0 0.1 0.0
14.4 0.1 0.0
14.8 0.1 0.0
15.200000000000001 0.1 0.0
15.600000000000001 0.1 0.0
16.0 0.1 0.0
0.0 0.2 0.0
0.4 0.2 0.0
0.8 0.2 0.0
1.2000000000000002 0.2 0.0
1.6 0.2 0.0
2.0 0.2 0.0
2.4000000000000004 0.2 0.0
2.8000000000000003 0.2 0.0
3.2 0.2 0.0
3.6 0.2 0.0
4.0 0.2 0.0
4.4 0.2 0.0
4.800000000000001 0.2 0.0
5.2 0.2 0.0
5.6000000000000005 0.2 0.0
6.0 0.2 0.0
6.4 0.2 0.0
6.800000000000001 0.2 0.0
7.2 0.2 0.0
7.6000000000000005 0.2 0.0
8.0 0.2 0.0
8.4 0.2 0.0
8.8 0.2 0.0
9.200000000000001 0.2 0.0
9.600000000000001 0.2 0.0
10.0 0.2 0.0
10.4 0.2 0.0
10.8 0.2 0.0
11.200000000000001 0.2 0.0
11.600000000000001 0.2 0.0
12.0 0.2 0.0
12.4 0.2 0.0
12.8 0.2 0.0
13.200000000000001 0.2 0.0
13.600000000000001 0.2 0.0
14.0 0.2 0.0
14.4 0.2 0.0
14.8 0.2 0.0
15.200000000000001 0.2 0.0
15.600000000000001 0.2 0.0
16.0 0.2 0.0
0.0 0.30000000000000004 0.0
0.4 0.30000000000000004 0.0
0.8 0.30000000000000004 0.0
1.2000000000000002 0.30000000000000004 0.0
1.6 0.30000000000000004 0.0
2.0 0.30000000000000004 0.0
2.4000000000000004 0.30000000000000004 0.0
2.8000000000000003 0.30000000000000004 0.0
3.2 0.30000000000000004 0.0
3.6 0.30000000000000004 0.0
4.0 0.30000000000000004 0.0
4.4 0.30000000000000004 0.0
4.800000000000001 0.30000000000000004 0.0
5.2 0.30000000000000004 0.0
5.6000000000000005 0.30000000000000004 0.0
6.0 0.30000000000000004 0.0
6.4 0.30000000000000004 0.0
6.800000000000001 0.30000000000000004 0.0
7.2 0.30000000000000004 0.0
7.6000000000000005 0.30000000000000004 0.0
8.0 0.30000000000000004 0.0
8.4 0.30000000000000004 0.0
8.8 0.30000000000000004 0.0
9.200000000000001 0.30000000000000004 0.0
9.600000000000001 0.30000000000000004 0.0
10.0 0.30000000000000004 0.0
10.4 0.30000000000000004 0.0
10.8 0.30000000000000004 0.0
11.200000000000001 0.30000000000000004 0.0
11.600000000000001 0.30000000000000004 0.0
12.0 0.30000000000000004 0.0
12.4 0.30000000000000004 0.0
12.8 0.30000000000000004 0.0
13.200000000000001 0.30000000000000004 0.0
13.600000000000001 0.30000000000000004 0.0
14.0 0.30000000000000004 0.0
14.4 0.30000000000000004 0.0
14.8 0.30000000000000004 0.0
15.200000000000001 0.30000000000000004 0.0
15.600000000000001 0.30000000000000004 0.0
16.0 0.30000000000000004 0.0
0.0 0.4 0.0
0.4 0.4 0.0
0.8 0.4 0.0
1.2000000000000002 0.4 0.0
1.6 0.4 0.0
2.0 0.4 0.0
2.4000000000000004 0.4 0.0
2.8000000000000003 0.4 0.0
3.2 0.4 0.0
3.6 0.4 0.0
4.0 0.4 0.0
4.4 0.4 0.0
4.800000000000001 0.4 0.0
5.2 0.4 0.0
5.6000000000000005 0.4 0.0
6.0 0.4 0.0
6.4 0.4 0.0
6.800000000000001 0.4 0.0
7.2 0.4 0.0
7.6000000000000005 0.4 0.0
8.0 0.4 0.0
8.4 0.4 0.0
8.8 0.4 0.0
9.200000000000001 0.4 0.0
9.600000000000001 0.4 0.0
10.0 0.4 0.0
10.4 0.4 0.0
10.8 0.4 0.0
11.200000000000001 0.4 0.0
11.600000000000001 0.4 0.0
12.0 0.4 0.0
12.4 0.4 0.0
12.8 0.4 0.0
13.200000000000001 0.4 0.0
13.600000000000001 0.4 0.0
14.0 0.4 0.0
14.4 0.4 0.0
14.8 0.4 0.0
15.200000000000001 0.4 0.0
15.600000000000001 0.4 0.0
16.0 0.4 0.0
0.0 0.5 0.0
0.4 0.5 0.0
0.8 0.5 0.0
1.2000000000000002 0.5 0.0
1.6 0.5 0.0
2.0 0.5 0.0
2.4000000000000004 0.5 0.0
2.8000000000000003 0.5 0.0
3.2 0.5 0.0
3.6 0.5 0.0
4.0 0.5 0.0
4.4 0.5 0.0
4.800000000000001 0.5 0.0
5.2 0.5 0.0
5.6000000000000005 0.5 0.0
6.0 0.5 0.0
6.4 0.5 0.0
6.800000000000001 0.5 0.0
7.2 0.5 0.0
7.6000000000000005 0.5 0.0
8.0 0.5 0.0
8.4 0.5 0.0
8.8 0.5 0.0
9.200000000000001 0.5 0.0
9.600000000000001 0.5 0.0
10.0 0.5 0.0
10.4 0.5 0.0
10.8 0.5 0.0
11.200000000000001 0.5 0.0
11.600000000000001 0.5 0.0
12.0 0.5 0.0
12.4 0.5 0.0
12.8 0.5 0.0
13.200000000000001 0.5 0.0
13.600000000000001 0.5 0.0
14.0 0.5 0.0
14.4 0.5 0.0
14.8 0.5 0.0
15.200000000000001 0.5 0.0
15.600000000000001 0.5 0.0
16.0 0.5 0.0
0.0 0.6000000000000001 0.0
0.4 0.6000000000000001 0.0
0.8 0.6000000000000001 0.0
1.2000000000000002 0.6000000000000001 0.0
1.6 0.6000000000000001 0.0
2.0 0.6000000000000001 0.0
2.4000000000000004 0.6000000000000001 0.0
2.8000000000000003 0.6000000000000001 0.0
3.2 0.6000000000000001 0.0
3.6 0.6000000000000001 0.0
4.0 0.6000000000000001 0.0
4.4 0.6000000000000001 0.0
4.800000000000001 0.6000000000000001 0.0
5.2 0.6000000000000001 0.0
5.6000000000000005 0.6000000000000001 0.0
6.0 0.6000000000000001 0.0
6.4 0.6000000000000001 0.0
6.800000000000001 0.6000000000000001 0.0
7.2 0.6000000000000001 0.0
7.6000000000000005 0.6000000000000001 0.0
8.0 0.6000000000000001 0.0
8.4 0.6000000000000001 0.0
8.8 0.6000000000000001 0.0
9.200000000000001 0.6000000000000001 0.0
9.600000000000001 0.6000000000000001 0.0
10.0 0.6000000000000001 0.0
10.4 0.6000000000000001 0.0
10.8 0.6000000000000001 0.0
11.200000000000001 0.6000000000000001 0.0
11.600000000000001 0.6000000000000001 0.0
12.0 0.6000000000000001 0.0
12.4 0.6000000000000001 0.0
12.8 0.6000000000000001 0.0
13.200000000000001 0.6000000000000001 0.0
13.600000000000001 0.6000000000000001 0.0
14.0 0.6000000000000001 0.0
14.4 0.6000000000000001 0.0
14.8 0.6000000000000001 0.0
15.200000000000001 0.6000000000000001 0.0
15.600000000000001 0.6000000000000001 0.0
16.0 0.6000000000000001 0.0
0.0 0.7000000000000001 0.0
0.4 0.7000000000000001 0.0
0.8 0.7000000000000001 0.0
1.2000000000000002 0.7000000000000001 0.0
1.6 0.7000000000000001 0.0
2.0 0.7000000000000001 0.0
2.4000000000000004 0.7000000000000001 0.0
2.8000000000000003 0.7000000000000001 0.0
3.2 0.7000000000000001 0.0
3.6 0.7000000000000001 0.0
4.0 0.7000000000000001 0.0
4.4 0.7000000000000001 0.0
4.800000000000001 0.7000000000000001 0.0
5.2 0.7000000000000001 0.0
5.6000000000000005 0.7000000000000001 0.0
6.0 0.7000000000000001 0.0
6.4 0.7000000000000001 0.0
6.800000000000001 0.7000000000000001 0.0
7.2 0.7000000000000001 0.0
7.6000000000000005 0.7000000000000001 0.0
8.0 0.7000000000000001 0.0
8.4 0.7000000000000001 0.0
8.8 0.7000000000000001 0.0
9.200000000000001 0.7000000000000001 0.0
9.600000000000001 0.7000000000000001 0.0
10.0 0.7000000000000001 0.0
10.4 0.7000000000000001 0.0
10.8 0.7000000000000001 0.0
11.200000000000001 0.7000000000000001 0.0
11.600000000000001 0.7000000000000001 0.0
12.0 0.7000000000000001 0.0
12.4 0.7000000000000001 0.0
12.8 0.7000000000000001 0.0
13.200000000000001 0.7000000000000001 0.0
13.600000000000001 0.7000000000000001 0.0
14.0 0.7000000000000001 0.0
14.4 0.7000000000000001 0.0
14.8 0.7000000000000001 0.0
15.200000000000001 0.7000000000000001 0.0
15.600000000000001 0.7000000000000001 0.0
16.0 0.7000000000000001 0.0
0.0 0.8 0.0
0.4 0.8 0.0
0.8 0.8 0.0
1.2000000000000002 0.8 0.0
1.6 0.8 0.0
2.0 0.8 0.0
2.4000000000000004 0.8 0.0
2.8000000000000003 0.8 0.0
3.2 0.8 0.0
3.6 0.8 0.0
4.0 0.8 0.0
4.4 0.8 0.0
4.800000000000001 0.8 0.0
5.2 0.8 0.0
5.6000000000000005 0.8 0.0
6.0 0.8 0.0
6.4 0.8 0.0
6.800000000000001 0.8 0.0
7.2 0.8 0.0
7.6000000000000005 0.8 0.0
8.0 0.8 0.0
8.4 0.8 0.0
8.8 0.8 0.0
9.200000000000001 0.8 0.0
9.600000000000001 0.8 0.0
10.0 0.8 0.0
10.4 0.8 0.0
10.8 0.8 0.0
11.200000000000001 0.8 0.0
11.600000000000001 0.8 0.0
12.0 0.8 0.0
12.4 0.8 0.0
12.8 0.8 0.0
13.200000000000001 0.8 0.0
13.600000000000001 0.8 0.0
14.0 0.8 0.0
14.4 0.8 0.0
14.8 0.8 0.0
15.200000000000001 0.8 0.0
15.600000000000001 0.8 0.0
16.0 0.8 0.0
0.0 0.9 0.0
0.4 0.9 0.0
0.8 0.9 0.0
1.2000000000000002 0.9 0.0
1.6 0.9 0.0
2.0 0.9 0.0
2.4000000000000004 0.9 0.0
2.8000000000000003 0.9 0.0
3.2 0.9 0.0
3.6 0.9 0.0
4.0 0.9 0.0
4.4 0.9 0.0
4.800000000000001 0.9 0.0
5.2 0.9 0.0
5.6000000000000005 0.9 0.0
6.0 0.9 0.0
6.4 0.9 0.0
6.800000000000001 0.9 0.0
7.2 0.9 0.0
7.6000000000000005 0.9 0.0
8.0 0.9 0.0
8.4 0.9 0.0
8.8 0.9 0.0
9.200000000000001 0.9 0.0
9.600000000000001 0.9 0.0
10.0 0.9 0.0
10.4 0.9 0.0
10.8 0.9 0.0
11.200000000000001 0.9 0.0
11.600000000000001 0.9 0.0
12.0 0.9 0.0
12.4 0.9 0.0
12.8 0.9 0.0
13.200000000000001 0.9 0.0
13.600000000000001 0.9 0.0
14.0 0.9 0.0
14.4 0.9 0.0
14.8 0.9 0.0
15.200000000000001 0.9 0.0
15.600000000000001 0.9 0.0
16.0 0.9 0.0
0.0 1.0 0.0
0.4 1.0 0.0
0.8 1.0 0.0
1.2000000000000002 1.0 0.0
1.6 1.0 0.0
2.0 1.0 0.0
2.4000000000000004 1.0 0.0
2.8000000000000003 1.0 0.0
3.2 1.0 0.0
3.6 1.0 0.0
4.0 1.0 0.0
4.4 1.0 0.0
4.800000000000001 1.0 0.0
5.2 1.0 0.0
5.6000000000000005 1.0 0.0
6.0 1.0 0.0
6.4 1.0 0.0
6.800000000000001 1.0 0.0
7.2 1.0 0.0
7.6000000000000005 1.0 0.0
8.0 1.0 0.0
8.4 1.0 0.0
8.8 1.0 0.0
9.200000000000001 1.0 0.0
9.600000000000001 1.0 0.0
10.0 1.0 0.0
10.4 1.0 0.0
10.8 1.0 0.0
11.200000000000001 1.0 0.0
11.600000000000001 1.0 0.0
12.0 1.0 0.0
12.4 1.0 0.0
12.8 1.0 0.0
13.200000000000001 1.0 0.0
13.600000000000001 1.0 0.0
14.0 1.0 0.0
14.4 1.0 0.0
14.8 1.0 0.0
15.200000000000001 1.0 0.0
15.600000000000001 1.0 0.0
16.0 1.0 0.0
0.0 1.1 0.0
0.4 1.1 0.0
0.8 1.1 0.0
1.2000000000000002 1.1 0.0
1.6 1.1 0.0
2.0 1.1 0.0
2.4000000000000004 1.1 0.0
2.8000000000000003 1.1 0.0
3.2 1.1 0.0
3.6 1.1 0.0
4.0 1.1 0.0
4.4 1.1 0.0
4.800000000000001 1.1 0.0
5.2 1.1 0.0
5.6000000000000005 1.1 0.0
6.0 1.1 0.0
6.4 1.1 0.0
6.800000000000001 1.1 0.0
7.2 1.1 0.0
7.6000000000000005 1.1 0.0
8.0 1.1 0.0
8.4 1.1 0.0
8.8 1.1 0.0
9.200000000000001 1.1 0.0
9.600000000000001 1.1 0.0
10.0 1.1 0.0
10.4 1.1 0.0
10.8 1.1 0.0
11.200000000000001 1.1 0.0
11.600000000000001 1.1 0.0
12.0 1.1 0.0
12.4 1.1 0.0
12.8 1.1 0.0
13.200000000000001 1.1 0.0
13.600000000000001 1.1 0.0
14.0 1.1 0.0
14.4 1.1 0.0
14.8 1.1 0.0
15.200000000000001 1.1 0.0
15.600000000000001 1.1 0.0
16.0 1.1 0.0
0.0 1.2000000000000002 0.0
0.4 1.2000000000000002 0.0
0.8 1.2000000000000002 0.0
1.2000000000000002 1.2000000000000002 0.0
1.6 1.2000000000000002 0.0
2.0 1.2000000000000002 0.0
2.4000000000000004 1.2000000000000002 0.0
2.8000000000000003 1.2000000000000002 0.0
3.2 1.2000000000000002 0.0
3.6 1.2000000000000002 0.0
4.0 1.2000000000000002 0.0
4.4 1.2000000000000002 0.0
4.800000000000001 1.2000000000000002 0.0
5.2 1.2000000000000002 0.0
5.6000000000000005 1.2000000000000002 0.0
6.0 1.2000000000000002 0.0
6.4 1.2000000000000002 0.0
6.800000000000001 1.2000000000000002 0.0
7.2 1.2000000000000002 0.0
7.6000000000000005 1.2000000000000002 0.0
8.0 1.2000000000000002 0.0
8.4 1.2000000000000002 0.0
8.8 1.2000000000000002 0.0
9.200000000000001 1.2000000000000002 0.0
9.600000000000001 1.2000000000000002 0.0
10.0 1.2000000000000002 0.0
10.4 1.2000000000000002 0.0
10.8 1.2000000000000002 0.0
11.200000000000001 1.2000000000000002 0.0
11.600000000000001 1.2000000000000002 0.0
12.0 1.2000000000000002 0.0
12.4 1.2000000000000002 0.0
12.8 1.2000000000000002 0.0
13.200000000000001 1.2000000000000002 0.0
13.600000000000001 1.2000000000000002 0.0
14.0 1.2000000000000002 0.0
14.4 1.2000000000000002 0.0
14.8 1.2000000000000002 0.0
15.200000000000001 1.2000000000000002 0.0
15.600000000000001 1.2000000000000002 0.0
16.0 1.2000000000000002 0.0
0.0 1.3 0.0
0.4 1.3 0.0
0.8 1.3 0.0
1.2000000000000002 1.3 0.0
1.6 1.3 0.0
2.0 1.3 0.0
2.4000000000000004 1.3 0.0
2.8000000000000003 1.3 0.0
3.2 1.3 0.0
3.6 1.3 0.0
4.0 1.3 0.0
4.4 1.3 0.0
4.800000000000001 1.3 0.0
5.2 1.3 0.0
5.6000000000000005 1.3 0.0
6.0 1.3 0.0
6.4 1.3 0.0
6.800000000000001 1.3 0.0
7.2 1.3 0.0
7.6000000000000005 1.3 0.0
8.0 1.3 0.0
8.4 1.3 0.0
8.8 1.3 0.0
9.200000000000001 1.3 0.0
9.600000000000001 1.3 0.0
10.0 1.3 0.0
10.4 1.3 0.0
10.8 1.3 0.0
11.200000000000001 1.3 0.0
11.600000000000001 1.3 0.0
12.0 1.3 0.0
12.4 1.3 0.0
12.8 1.3 0.0
13.200000000000001 1.3 0.0
13.600000000000001 1.3 0.0
14.0 1.3 0.0
14.4 1.3 0.0
14.8 1.3 0.0
15.200000000000001 1.3 0.0
15.600000000000001 1.3 0.0
16.0 1.3 0.0
0.0 1.4000000000000001 0.0
0.4 1.4000000000000001 0.0
0.8 1.4000000000000001 0.0
1.2000000000000002 1.4000000000000001 0.0
1.6 1.4000000000000001 0.0
2.0 1.4000000000000001 0.0
2.4000000000000004 1.4000000000000001 0.0
2.8000000000000003 1.4000000000000001 0.0
3.2 1.4000000000000001 0.0
3.6 1.4000000000000001 0.0
4.0 1.4000000000000001 0.0
4.4 1.4000000000000001 0.0
4.800000000000001 1.4000000000000001 0.0
5.2 1.4000000000000001 0.0
5.6000000000000005 1.4000000000000001 0.0
6.0 1.4000000000000001 0.0
6.4 1.4000000000000001 0.0
6.800000000000001 1.4000000000000001 0.0
7.2 1.4000000000000001 0.0
7.6000000000000005 1.4000000000000001 0.0
8.0 1.4000000000000001 0.0
8.4 1.4000000000000001 0.0
8.8 1.4000000000000001 0.0
9.200000000000001 1.4000000000000001 0.0
9.600000000000001 1.4000000000000001 0.0
10.0 1.4000000000000001 0.0
10.4 1.4000000000000001 0.0
10.8 1.4000000000000001 0.0
11.200000000000001 1.4000000000000001 0.0
11.600000000000001 1.4000000000000001 0.0
12.0 1.4000000000000001 0.0
12.4 1.4000000000000001 0.0
12.8 1.4000000000000001 0.0
13.200000000000001 1.4000000000000001 0.0
13.600000000000001 1.4000000000000001 0.0
14.0 1.4000000000000001 0.0
14.4 1.4000000000000001 0.0
14.8 1.4000000000000001 0.0
15.200000000000001 1.4000000000000001 0.0
15.600000000000001 1.4000000000000001 0.0
16.0 1.4000000000000001 0.0
0.0 1.5 0.0
0.4 1.5 0.0
0.8 1.5 0.0
1.2000000000000002 1.5 0.0
1.6 1.5 0.0
2.0 1.5 0.0
2.4000000000000004 1.5 0.0
2.8000000000000003 1.5 0.0
3.2 1.5 0.0
3.6 1.5 0.0
4.0 1.5 0.0
4.4 1.5 0.0
4.800000000000001 1.5 0.0
5.2 1.5 0.0
5.6000000000000005 1.5 0.0
6.0 1.5 0.0
6.4 1.5 0.0
6.800000000000001 1.5 0.0
7.2 1.5 0.0
7.6000000000000005 1.5 0.0
8.0 1.5 0.0
8.4 1.5 0.0
8.8 1.5 0.0
9.200000000000001 1.5 0.0
9.600000000000001 1.5 0.0
10.0 1.5 0.0
10.4 1.5 0.0
10.8 1.5 0.0
11.200000000000001 1.5 0.0
11.600000000000001 1.5 0.0
12.0 1.5 0.0
12.4 1.5 0.0
12.8 1.5 0.0
13.200000000000001 1.5 0.0
13.600000000000001 1.5 0.0
14.0 1.5 0.0
14.4 1.5 0.0
14.8 1.5 0.0
15.200000000000001 1.5 0.0
15.600000000000001 1.5 0.0
16.0 1.5 0.0
0.0 1.6 0.0
0.4 1.6 0.0
0.8 1.6 0.0
1.2000000000000002 1.6 0.0
1.6 1.6 0.0
2.0 1.6 0.0
2.4000000000000004 1.6 0.0
2.8000000000000003 1.6 0.0
3.2 1.6 0.0
3.6 1.6 0.0
4.0 1.6 0.0
4.4 1.6 0.0
4.800000000000001 1.6 0.0
5.2 1.6 0.0
5.6000000000000005 1.6 0.0
6.0 1.6 0.0
6.4 1.6 0.0
6.800000000000001 1.6 0.0
7.2 1.6 0.0
7.6000000000000005 1.6 0.0
8.0 1.6 0.0
8.4 1.6 0.0
8.8 1.6 0.0
9.200000000000001 1.6 0.0
9.600000000000001 1.6 0.0
10.0 1.6 0.0
10.4 1.6 0.0
10.8 1.6 0.0
11.200000000000001 1.6 0.0
11.600000000000001 1.6 0.0
12.0 1.6 0.0
12.4 1.6 0.0
12.8 1.6 0.0
13.200000000000001 1.6 0.0
13.600000000000001 1.6 0.0
14.0 1.6 0.0
14.4 1.6 0.0
14.8 1.6 0.0
15.200000000000001 1.6 0.0
15.600000000000001 1.6 0.0
16.0 1.6 0.0
0.0 1.7000000000000002 0.0
0.4 1.7000000000000002 0.0
0.8 1.7000000000000002 0.0
1.2000000000000002 1.7000000000000002 0.0
1.6 1.7000000000000002 0.0
2.0 1.7000000000000002 0.0
2.4000000000000004 1.7000000000000002 0.0
2.8000000000000003 1.7000000000000002 0.0
3.2 1.7000000000000002 0.0
3.6 1.7000000000000002 0.0
4.0 1.7000000000000002 0.0
4.4 1.7000000000000002 0.0
4.800000000000001 1.7000000000000002 0.0
5.2 1.7000000000000002 0.0
5.6000000000000005 1.7000000000000002 0.0
6.0 1.7000000000000002 0.0
6.4 1.7000000000000002 0.0
6.800000000000001 1.7000000000000002 0.0
7.2 1.7000000000000002 0.0
7.6000000000000005 1.7000000000000002 0.0
8.0 1.7000000000000002 0.0
8.4 1.7000000000000002 0.0
8.8 1.7000000000000002 0.0
9.200000000000001 1.7000000000000002 0.0
9.600000000000001 1.7000000000000002 0.0
10.0 1.7000000000000002 0.0
10.4 1.7000000000000002 0.0
10.8 1.7000000000000002 0.0
11.200000000000001 1.7000000000000002 0.0
11.600000000000001 1.7000000000000002 0.0
12.0 1.7000000000000002 0.0
12.4 1.7000000000000002 0.0
12.8 1.7000000000000002 0.0
13.200000000000001 1.7000000000000002 0.0
13.600000000000001 1.7000000000000002 0.0
14.0 1.7000000000000002 0.0
14.4 1.7000000000000002 0.0
14.8 1.7000000000000002 0.0
15.200000000000001 1.7000000000000002 0.0
15.600000000000001 1.7000000000000002 0.0
16.0 1.7000000000000002 0.0
0.0 1.8 0.0
0.4 1.8 0.0
0.8 1.8 0.0
1.2000000000000002 1.8 0.0
1.6 1.8 0.0
2.0 1.8 0.0
2.4000000000000004 1.8 0.0
2.8000000000000003 1.8 0.0
3.2 1.8 0.0
3.6 1.8 0.0
4.0 1.8 0.0
4.4 1.8 0.0
4.800000000000001 1.8 0.0
5.2 1.8 0.0
5.6000000000000005 1.8 0.0
6.0 1.8 0.0
6.4 1.8 0.0
6.800000000000001 1.8 0.0
7.2 1.8 0.0
7.6000000000000005 1.8 0.0
8.0 1.8 0.0
8.4 1.8 0.0
8.8 1.8 0.0
9.200000000000001 1.8 0.0
9.600000000000001 1.8 0.0
10.0 1.8 0.0
10.4 1.8 0.0
10.8 1.8 0.0
11.200000000000001 1.8 0.0
11.600000000000001 1.8 0.0
12.0 1.8 0.0
12.4 1.8 0.0
12.8 1.8 0.0
13.200000000000001 1.8 0.0
13.600000000000001 1.8 0.0
14.0 1.8 0.0
14.4 1.8 0.0
14.8 1.8 0.0
15.200000000000001 1.8 0.0
15.600000000000001 1.8 0.0
16.0 1.8 0.0
0.0 1.9000000000000001 0.0
0.4 1.9000000000000001 0.0
0.8 1.9000000000000001 0.0
1.2000000000000002 1.9000000000000001 0.0
1.6 1.9000000000000001 0.0
2.0 1.9000000000000001 0.0
2.4000000000000004 1.9000000000000001 0.0
2.8000000000000003 1.9000000000000001 0.0
3.2 1.9000000000000001 0.0
3.6 1.9000000000000001 0.0
4.0 1.9000000000000001 0.0
4.4 1.9000000000000001 0.0
4.800000000000001 1.9000000000000001 0.0
5.2 1.9000000000000001 0.0
5.6000000000000005 1.9000000000000001 0.0
6.0 1.9000000000000001 0.0
6.4 1.9000000000000001 0.0
6.800000000000001 1.9000000000000001 0.0
7.2 1.9000000000000001 0.0
7.6000000000000005 1.9000000000000001 0.0
8.0 1.9000000000000001 0.0
8.4 1.9000000000000001 0.0
8.8 1.9000000000000001 0.0
9.200000000000001 1.9000000000000001 0.0
9.600000000000001 1.9000000000000001 0.0
10.0 1.9000000000000001 0.0
10.4 1.9000000000000001 0.0
10.8 1.9000000000000001 0.0
11.200000000000001 1.9000000000000001 0.0
11.600000000000001 1.9000000000000001 0.0
12.0 1.9000000000000001 0.0
12.4 1.9000000000000001 0.0
12.8 1.9000000000000001 0.0
13.200000000000001 1.9000000000000001 0.0
13.600000000000001 1.9000000000000001 0.0
14.0 1.9000000000000001 0.0
14.4 1.9000000000000001 0.0
14.8 1.9000000000000001 0.0
15.200000000000001 1.9000000000000001 0.0
15.600000000000001 1.9000000000000001 0.0
16.0 1.9000000000000001 0.0
0.0 2.0 0.0
0.4 2.0 0.0
0.8 2.0 0.0
1.2000000000000002 2.0 0.0
1.6 2.0 0.0
2.0 2.0 0.0
2.4000000000000004 2.0 0.0
2.8000000000000003 2.0 0.0
3.2 2.0 0.0
3.6 2.0 0.0
4.0 2.0 0.0
4.4 2.0 0.0
4.800000000000001 2.0 0.0
5.2 2.0 0.0
5.6000000000000005 2.0 0.0
6.0 2.0 0.0
6.4 2.0 0.0
6.800000000000001 2.0 0.0
7.2 2.0 0.0
7.6000000000000005 2.0 0.0
8.0 2.0 0.0
8.4 2.0 0.0
8.8 2.0 0.0
9.200000000000001 2.0 0.0
9.600000000000001 2.0 0.0
10.0 2.0 0.0
10.4 2.0 0.0
10.8 2.0 0.0
11.200000000000001 2.0 0.0
11.600000000000001 2.0 0.0
12.0 2.0 0.0
12.4 2.0 0.0
12.8 2.0 0.0
13.200000000000001 2.0 0.0
13.600000000000001 2.0 0.0
14.0 2.0 0.0
14.4 2.0 0.0
14.8 2.0 0.0
15.200000000000001 2.0 0.0
15.600000000000001 2.0 0.0
16.0 2.0 0.0
CELLS 800 4000
4 0 1 42 41
4 1 2 43 42
4 2 3 44 43
4 3 4 45 44
4 4 5 46 45
4 5 6 47 46
4 6 7 48 47
4 7 8 49 48
4 8 9 50 49
4 9 10 51 50
4 10 11 52 51
4 11 12 53 52
4 12 13 54 53
4 13 14 55 54
4 14 15 56 55
4 15 16 57 56
4 16 17 58 57
4 17 18 59 58
4 18 19 60 59
4 19 20 61 60
4 20 21 62 61
4 21 22 63 62
4 22 23 64 63
4 23 24 65 64
4 24 25 66 65
4 25 26 67 66
4 26 27 68 67
4 27 28 69 68
4 28 29 70 69
4 29 30 71 70
4 30 31 72 71
4 31 32 73 72
4 32 33 74 73
4 33 34 75 74
4 34 35 76 75
4 35 36 77 76
4 36 37 78 77
4 37 38 79 78
4 38 39 80 79
4 39 40 81 80
4 41 42 83 82
4 42 43 84 83
4 43 44 85 84
4 44 45 86 85
4 45 46 87 86
4 46 47 88 87
4 47 48 89 88
4 48 49 90 89
4 49 50 91 90
4 50 51 92 91
4 51 52 93 92
4 52 53 94 93
4 53 54 95 94
4 54 55 96 95
4 55 56 97 96
4 56 57 98 97
4 57 58 99 98
4 58 59 100 99
4 59 60 101 100
4 60 61 102 101
4 61 62 103 102
4 62 63 104 103
4 63 64 105 104
4 64 65 106 105
4 65 66 107 106
4 66 67 108 107
4 67 68 109 108
4 68 69 110 109
4 69 70 111 110
4 70 71 112 111
4 71 72 113 112
4 72 73 114 113
4 73 74 115 114
4 74 75 116 115
4 75 76 117 116
4 76 77 118 117
4 77 78 119 118
4 78 79 120 119
4 79 80 121 120
4 80 81 122 121
4 82 83 124 123
4 83 84 125 124
4 84 85 126 125
4 85 86 127 126
4 86 87 128 127
4 87 88 129 128
4 88 89 130 129
4 89 90 131 130
4 90 91 132 131
4 91 92 133 132
4 92 93 134 133
4 93 94 135 134
4 94 95 136 135
4 95 96 137 136
4 96 97 138 137
4 97 98 139 138
4 98 99 140 139
4 99 100 141 140
4 100 101 142 141
4 101 102 143 142
4 102 103 144 143
4 103 104 145 144
4 104 105 146 145
4 105 106 147 146
4 106 107 148 147
4 107 108 149 148
4 108 109 150 149
4 109 110 151 150
4 110 111 152 151
4 111 112 153 152
4 112 113 154 153
4 113 114 155 154
4 114 115 156 155
4 115 116 157 156
4 116 117 158 157
4 117 118 159 158
4 118 119 160 159
4 119 120 161 160
4 120 121 162 161
4 121 122 163 162
4 123 124 165 164
4 124 125 166 165
4 125 126 167 166
4 126 127 168 167
4 127 128 169 168
4 128 129 170 169
4 129 130 171 170
4 130 131 172 171
4 131 132 173 172
4 132 133 174 173
4 133 134 175 174
4 134 135 176 175
4 135 136 177 176
4 136 137 178 177
4 137 138 179 178
4 138 139 180 179
4 139 140 181 180
4 140 141 182 181
4 141 142 183 182
4 142 143 184 183
4 143 144 185 184
4 144 145 186 185
4 145 146 187 186
4 146 147 188 187
4 147 148 189 188
4 148 149 190 189
4 149 150 191 190
4 150 151 192 191
4 151 152 193 192
4 152 153 194 193
4 153 154 195 194
4 154 155 196 195
4 155 156 197 196
4 156 157 198 197
4 157 158 199 198
4 158 159 200 199
4 159 160 201 200
4 160 161 202 201
4 161 162 203 202
4 162 163 204 203
4 164 165 206 205
4 165 166 207 206
4 166 167 208 207
4 167 168 209 208
4 168 169 210 209
4 169 170 211 210
4 170 171 212 211
4 171 172 213 212
4 172 173 214 213
4 173 174 215 214
4 174 175 216 215
4 175 176 217 216
4 176 177 218 217
4 177 178 219 218
4 178 179 220 219
4 179 180 221 220
4 180 181 222 221
4 181 182 223 222
4 182 183 224 223
4 183 184 225 224
4 184 185 226 225
4 185 186 227 226
4 186 187 228 227
4 187 188 229 228
4 188 189 230 229
4 189 190 231 230
4 190 191 232 231
4 191 192 233 232
4 192 193 234 233
4 193 194 235 234
4 194 195 236 235
4 195 196 237 236
4 196 197 238 237
4 197 198 239 238
4 198 199 240 239
4 199 200 241 240
4 200 201 242 241
4 201 202 243 242
4 202 203 244 243
4 203 204 245 244
4 205 206 247 246
4 206 207 248 247
4 207 208 249 248
4 208 209 250 249
4 209 210 251 250
4 210 211 252 251
4 211 212 253 252
4 212 213 254 253
4 213 214 255 254
4 214 215 256 255
4 215 216 257 256
4 216 217 258 257
4 217 218 259 258
4 218 219 260 259
4 219 220 261 260
4 220 221 262 261
4 221 222 263 262
4 222 223 264 263
4 223 224 265 264
4 224 225 266 265
4 225 226 267 266
4 226 227 268 267
4 227 228 269 268
4 228 229 270 269
4 229 230 271 270
4 230 231 272 271
4 231 232 273 272
4 232 233 274 273
4 233 234 275 274
4 234 235 276 275
4 235 236 277 276
4 236 237 278 277
4 237 238 279 278
4 238 239 280 279
4 239 240 281 280
4 240 241 282 281
4 241 242 283 282
4 242 243 284 283
4 243 244 285 284
4 244 245 286 285
4 246 247 288 287
4 247 248 289 288
4 248 249 290 289
4 249 250 291 290
4 250 251 292 291
4 251 252 293 292
4 252 253 294 293
4 253 254 295 294
4 254 255 296 295
4 255 256 297 296
4 256 257 298 297
4 257 258 299 298
4 258 259 300 299
4 259 260 301 300
4 260 261 302 301
4 261 262 303 302
4 262 263 304 303
4 263 264 305 304
4 264 265 306 305
4 265 266 307 306
4 266 267 308 307
4 267 268 309 308
4 268 269 310 309
4 269 270 311 310
4 270 271 312 311
4 271 272 313 312
4 272 273 314 313
4 273 274 315 314
4 274 275 316 315
4 275 276 317 316
4 276 277 318 317
4 277 278 319 318
4 278 279 320 319
4 279 280 321 320
4 280 281 322 321
4 281 282 323 322
4 282 283 324 323
4 283 284 325 324
4 284 285 326 325
4 285 286 327 326
4 287 288 329 328
4 288 289 330 329
4 289 290 331 330
4 290 291 332 331
4 291 292 333 332
4 292 293 334 333
4 293 294 335 334
4 294 295 336 335
4 295 296 337 336
4 296 297 338 337
4 297 298 339 338
4 298 299 340 339
4 299 300 341 340
4 300 301 342 341
4 301 302 343 342
4 302 303 344 343
4 303 304 345 344
4 304 305 346 345
4 305 306 347 346
4 306 307 348 347
4 307 308 349 348
4 308 309 350 349
4 309 310 351 350
4 310 311 352 351
4 311 312 353 352
4 312 313 354 353
4 313 314 355 354
4 314 315 356 355
4 315 316 357 356
4 316 317 358 357
4 317 318 359 358
4 318 319 360 359
4 319 320 361 360
4 320 321 362 361
4 321 322 363 362
4 322 323 364 363
4 323 324 365 364
4 324 325 366 365
4 325 326 367 366
4 326 327 368 367
4 328 329 370 369
4 329 330 371 370
4 330 331 372 371
4 331 332 373 372
4 332 333 374 373
4 333 334 375 374
4 334 335 376 375
4 335 336 377 376
4 336 337 378 377
4 337 338 379 378
4 338 339 380 379
4 339 340 381 380
4 340 341 382 381
4 341 342 383 382
4 342 343 384 383
4 343 344 385 384
4 344 345 386 385
4 345 346 387 386
4 346 347 388 387
4 347 348 389 388
4 348 349 390 389
4 349 350 391 390
4 350 351 392 391
4 351 352 393 392
4 352 353 394 393
4 353 354 395 394
4 354 355 396 395
4 355 356 397 396
4 356 357 398 397
4 357 358 399 398
4 358 359 400 399
4 359 360 401 400
4 360 361 402 401
4 361 362 403 402
4 362 363 404 403
4 363 364 405 404
4 364 365 406 405
4 365 366 407 406
4 366 367 408 407
4 367 368 409 408
4 369 370 411 410
4 370 371 412 411
4 371 372 413 412
4 372 373 414 413
4 373 374 415 414
4 374 375 416 415
4 375 376 417 416
4 376 377 418 417
4 377 378 419 418
4 378 379 420 419
4 379 380 421 420
4 380 381 422 421
4 381 382 423 422
4 382 383 424 423
4 383 384 425 424
4 384 385 426 425
4 385 386 427 426
4 386 387 428 427
4 387 388 429 428
4 388 389 430 429
4 389 390 431 430
4 390 391 432 431
4 391 392 433 432
4 392 393 434 433
4 393 394 435 434
4 394 395 436 435
4 395 396 437 436
4 396 397 438 437
4 397 398 439 438
4 398 399 440 439
4 399 400 441 440
4 400 401 442 441
4 401 402 443 442
4 402 403 444 443
4 403 404 445 444
4 404 405 446 445
4 405 406 447 446
4 406 407 448 447
4 407 408 449 448
4 408 409 450 449
4 410 411 452 451
4 411 412 453 452
4 412 413 454 453
4 413 414 455 454
4 414 415 456 455
4 415 416 457 456
4 416 417 458 457
4 417 418 459 458
4 418 419 460 459
4 419 420 461 460
4 420 421 462 461
4 421 422 463 462
4 422 423 464 463
4 423 424 465 464
4 424 425 466 465
4 425 426 467 466
4 426 427 468 467
4 427 428 469 468
4 428 429 470 469
4 429 430 471 470
4 430 431 472 471
4 431 432 473 472
4 432 433 474 473
4 433 434 475 474
4 434 435 476 475
4 435 436 477 476
4 436 437 478 477
4 437 438 479 478
4 438 439 480 479
4 439 440 481 480
4 440 441 482 481
4 441 442 483 482
4 442 443 484 483
4 443 444 485 484
4 444 445 486 485
4 445 446 487 486
4 446 447 488 487
4 447 448 489 488
4 448 449 490 489
4 449 450 491 490
4 451 452 493 492
4 452 453 494 493
4 453 454 495 494
4 454 455 496 495
4 455 456 497 496
4 456 457 498 497
4 457 458 499 498
4 458 459 500 499
4 459 460 501 500
4 460 461 502 501
4 461 462 503 502
4 462 463 504 503
4 463 464 505 504
4 464 465 506 505
4 465 466 507 506
4 466 467 508 507
4 467 468 509 508
4 468 469 510 509
4 469 470 511 510
4 470 471 512 511
4 471 472 513 512
4 472 473 514 513
4 473 474 515 514
4 474 475 516 515
4 475 476 517 516
4 476 477 518 517
4 477 478 519 518
4 478 479 520 519
4 479 480 521 520
4 480 481 522 521
4 481 482 523 522
4 482 483 524 523
4 483 484 525 524
4 484 485 526 525
4 485 486 527 526
4 486 487 528 527
4 487 488 529 528
4 488 489 530 529
4 489 490 531 530
4 490 491 532 531
4 492 493 534 533
4 493 494 535 534
4 494 495 536 535
4 495 496 537 536
4 496 497 538 537
4 497 498 539 538
4 498 499 540 539
4 499 500 541 540
4 500 501 542 541
4 501 502 543 542
4 502 503 544 543
4 503 504 545 544
4 504 505 546 545
4 505 506 547 546
4 506 507 548 547
4 507 508 549 548
4 508 509 550 549
4 509 510 551 550
4 510 511 552 551
4 511 512 553 552
4 512 513 554 553
4 513 514 555 554
4 514 515 556 555
4 515 516 557 556
4 516 517 558 557
4 517 518 559 558
4 518 519 560 559
4 519 520 561 560
4 520 521 562 561
4 521 522 563 562
4 522 523 564 563
4 523 524 565 564
4 524 525 566 565
4 525 526 567 566
4 526 527 568 567
4 527 528 569 568
4 528 529 570 569
4 529 530 571 570
4 530 531 572 571
4 531 532 573 572
4 533 534 575 574
4 534 535 576 575
4 535 536 577 576
4 536 537 578 577
4 537 538 579 578
4 538 539 580 579
4 539 540 581 580
4 540 541 582 581
4 541 542 583 582
4 542 543 584 583
4 543 544 585 584
4 544 545 586 585
4 545 546 587 586
4 546 547 588 587
4 547 548 589 588
4 548 549 590 589
4 549 550 591 590
4 550 551 592 591
4 551 552 593 592
4 552 553 594 593
4 553 554 595 594
4 554 555 596 595
4 555 556 597 596
4 556 557 598 597
4 557 558 599 598
4 558 559 600 599
4 559 560 601 600
4 560 561 602 601
4 561 562 603 602
4 562 563 604 603
4 563 564 605 604
4 564 565 606 605
4 565 566 607 606
4 566 567 608 607
4 567 568 609 608
4 568 569 610 609
4 569 570 611 610
4 570 571 612 611
4 571 572 613 612
4 572 573 614 613
4 574 575 616 615
4 575 576 617 616
4 576 577 618 617
4 577 578 619 618
4 578 579 620 619
4 579 580 621 620
4 580 581 622 621
4 581 582 623 622
4 582 583 624 623
4 583 584 625 624
4 584 585 626 625
4 585 586 627 626
4 586 587 628 627
4 587 588 629 628
4 588 589 630 629
4 589 590 631 630
4 590 591 632 631
4 591 592 633 632
4 592 593 634 633
4 593 594 635 634
4 594 595 636 635
4 595 596 637 636
4 596 597 638 637
4 597 598 639 638
4 598 599 640 639
4 599 600 641 640
4 600 601 642 641
4 601 602 643 642
4 602 603 644 643
4 603 604 645 644
4 604 605 646 645
4 605 606 647 646
4 606 607 648 647
4 607 608 649 648
4 608 609 650 649
4 609 610 651 650
4 610 611 652 651
4 611 612 653 652
4 612 613 654 653
4 613 614 655 654
4 615 616 657 656
4 616 617 658 657
4 617 618 659 658
4 618 619 660 659
4 619 620 661 660
4 620 621 662 661
4 621 622 663 662
4 622 623 664 663
4 623 624 665 664
4 624 625 666 665
4 625 626 667 666
4 626 627 668 667
4 627 628 669 668
4 628 629 670 669
4 629 630 671 670
4 630 631 672 671
4 631 632 673 672
4 632 633 674 673
4 633 634 675 674
4 634 635 676 675
4 635 636 677 676
4 636 637 678 677
4 637 638 679 678
4 638 639 680 679
4 639 640 681 680
4 640 641 682 681
4 641 642 683 682
4 642 643 684 683
4 643 644 685 684
4 644 645 686 685
4 645 646 687 686
4 646 647 688 687
4 647 648 689 688
4 648 649 690 689
4 649 650 691 690
4 650 651 692 691
4 651 652 693 692
4 652 653 694 693
4 653 654 695 694
4 654 655 696 695
4 656 657 698 697
4 657 658 699 698
4 658 659 700 699
4 659 660 701 700
4 660 661 702 701
4 661 662 703 702
4 662 663 704 703
4 663 664 705 704
4 664 665 706 705
4 665 666 707 706
4 666 667 708 707
4 667 668 709 708
4 668 669 710 709
4 669 670 711 710
4 670 671 712 711
4 671 672 713 712
4 672 673 714 713
4 673 674 715 714
4 674 675 716 715
4 675 676 717 716
4 676 677 718 717
4 677 678 719 718
4 678 679 720 719
4 679 680 721 720
4 680 681 722 721
4 681 682 723 722
4 682 683 724 723
4 683 684 725 724
4 684 685 726 725
4 685 686 727 726
4 686 687 728 727
4 687 688 729 728
4 688 689 730 729
4 689 690 731 730
4 690 691 732 731
4 691 692 733 732
4 692 693 734 733
4 693 694 735 734
4 694 695 736 735
4 695 696 737 736
4 697 698 739 738
4 698 699 740 739
4 699 700 741 740
4 700 701 742 741
4 701 702 743 742
4 702 703 744 743
4 703 704 745 744
4 704 705 746 745
4 705 706 747 746
4 706 707 748 747
4 707 708 749 748
4 708 709 750 749
4 709 710 751 750
4 710 711 752 751
4 711 712 753 752
4 712 713 754 753
4 713 714 755 754
4 714 715 756 755
4 715 716 757 756
4 716 717 758 757
4 717 718 759 758
4 718 719 760 759
4 719 720 761 760
4 720 721 762 761
4 721 722 763 762
4 722 723 764 763
4 723 724 765 764
4 724 725 766 765
4 725 726 767 766
4 726 727 768 767
4 727 728 769 768
4 728 729 770 769
4 729 730 771 770
4 730 731 772 771
4 731 732 773 772
4 732 733 774 773
4 733 734 775 774
4 734 735 776 775
4 735 736 777 776
4 736 737 778 777
4 738 739 780 779
4 739 740 781 780
4 740 741 782 781
4 741 742 783 782
4 742 743 784 783
4 743 744 785 784
4 744 745 786 785
4 745 746 787 786
4 746 747 788 787
4 747 748 789 788
4 748 749 790 789
4 749 750 791 790
4 750 751 792 791
4 751 752 793 792
4 752 753 794 793
4 753 754 795 794
4 754 755 796 795
4 755 756 797 796
4 756 757 798 797
4 757 758 799 798
4 758 759 800 799
4 759 760 801 800
4 760 761 802 801
4 761 762 803 802
4 762 763 804 803
4 763 764 805 804
4 764 765 806 805
4 765 766 807 806
4 766 767 808 807
4 767 768 809 808
4 768 769 810 809
4 769 770 811 810
4 770 771 812 811
4 771 772 813 812
4 772 773 814 813
4 773 774 815 814
4 774 775 816 815
4 775 776 817 816
4 776 777 818 817
4 777 778 819 818
4 779 780 821 820
4 780 781 822 821
4 781 782 823 822
4 782 783 824 823
4 783 784 825 824
4 784 785 826 825
4 785 786 827 826
4 786 787 828 827
4 787 788 829 828
4 788 789 830 829
4 789 790 831 830
4 790 791 832 831
4 791 792 833 832
4 792 793 834 833
4 793 794 835 834
4 794 795 836 835
4 795 796 837 836
4 796 797 838 837
4 797 798 839 838
4 798 799 840 839
4 799 800 841 840
4 800 801 842 841
4 801 802 843 842
4 802 803 844 843
4 803 804 845 844
4 804 805 846 845
4 805 806 847 846
4 806 807 848 847
4 807 808 849 848
4 808 809 850 849
4 809 810 851 850
4 810 811 852 851
4 811 812 853 852
4 812 813 854 853
4 813 814 855 854
4 814 815 856 855
4 815 816 857 856
4 816 817 858 857
4 817 818 859 858
4 818 819 860 859
CELL_TYPES 800
9
9
9
9
9
9
9
9
9
9
9
9
9
9
9
9
9
9
9
9
9
9
9
9
9
9
9
9
9
9
9
9
9
9
9
9
9
9
9
9
9
9
9
9
9
9
9
9
9
9
9
9
9
9
9
9
9
9
9
9
9
9
9
9
9
9
9
9
9
9
9
9
9
9
9
9
9
9
9
9
9
9
9
9
9
9
9
9
9
9
9
9
9
9
9
9
9
9
9
9
9
9
9
9
9
9
9
9
9
9
9
9
9
9
9
9
9
9
9
9
9
9
9
9
9
9
9
9
9
9
9
9
9
9
9
9
9
9
9
9
9
9
9
9
9
9
9
9
9
9
9
9
9
9
9
9
9
9
9
9
9
9
9
9
9
9
9
9
9
9
9
9
9
9
9
9
9
9
9
9
9
9
9
9
9
9
9
9
9
9
9
9
9
9
9
9
9
9
9
9
9
9
9
9
9
9
9
9
9
9
9
9
9
9
9
9
9
9
9
9
9
9
9
9
9
9
9
9
9
9
9
9
9
9
9
9
9
9
9
9
9
9
9
9
9
9
9
9
9
9
9
9
9
9
9
9
9
9
9
9
9
9
9
9
9
9
9
9
9
9
9
9
9
9
9
9
9
9
9
9
9
9
9
9
9
9
9
9
9
9
9
9
9
9
9
9
9
9
9
9
9
9
9
9
9
9
9
9
9
9
9
9
9
9
9
9
9
9
9
9
9
9
9
9
9
9
9
9
9
9
9
9
9
9
9
9
9
9
9
9
9
9
9
9
9
9
9
9
9
9
9
9
9
9
9
9
9
9
9
9
9
9
9
9
9
9
9
9
9
9
9
9
9
9
9
9
9
9
9
9
9
9
9
9
9
9
9
9
9
9
9
9
9
9
9
9
9
9
9
9
9
9
9
9
9
9
9
9
9
9
9
9
9
9
9
9
9
9
9
9
9
9
9
9
9
9
9
9
9
9
9
9
9
9
9
9
9
9
9
9
9
9
9
9
9
9
9
9
9
9
9
9
9
9
9
9
9
9
9
9
9
9
9
9
9
9
9
9
9
9
9
9
9
9
9
9
9
9
9
9
9
9
9
9
9
9
9
9
9
9
9
9
9
9
9
9
9
9
9
9
9
9
9
9
9
9
9
9
9
9
9
9
9
9
9
9
9
9
9
9
9
9
9
9
9
9
9
9
9
9
9
9
9
9
9
9
9
9
9
9
9
9
9
9
9
9
9
9
9
9
9
9
9
9
9
9
9
9
9
9
9
9
9
9
9
9
9
9
9
9
9
9
9
9
9
9
9
9
9
9
9
9
9
9
9
9
9
9
9
9
9
9
9
9
9
9
9
9
9
9
9
9
9
9
9
9
9
9
9
9
9
9
9
9
9
9
9
9
9
9
9
9
9
9
9
9
9
9
9
9
9
9
9
9
9
9
9
9
9
9
9
9
9
9
9
9
9
9
9
9
9
9
9
9
9
9
9
9
9
9
9
9
9
9
9
9
9
9
9
9
9
9
9
9
9
9
9
9
9
9
9
9
9
9
9
9
9
9
9
9
9
9
9
9
9
9
9
9
9
9
9
9
9
9
9
9
9
9
9
9
9
9
9
9
9
9
9
9
9
9
9
9
9
9
9
9
9
9
9
9
9
9
9
9
9
9
9
9
9
9
9
9
9
9
9
9
9
9
9
9
9
9
9
9
9
9
9
9
9
9
9
9
9
9
9
9
9
9
9
9
9
9
9
9
9
9
9
9
9
9
9
9
9
9
9
9
9
9
9
9
9
9
9
9
9
9
9
9
9
9
POINT_DATA 861
SCALARS Disp float 2
LOOKUP_TABLE default
0.0 0.0
0.012926529800430712 -0.23624200074135937
0.023024257431342558 -0.43585792303836973
0.031123997991706426 -0.6320474243308285
0.040377630594695964 -0.824463581832946
0.051506763345446877 -1.0130208342201754
0.06486626111431179 -1.1968181383264165
0.08059854474796416 -1.3748819852807823
0.09875023585283635 -1.546206394364786
0.11933213996288933 -1.7097977532416886
0.1423426411747227 -1.8646739558406222
0.16777801421198468 -2.009861902219547
0.19563596646014206 -2.14439447667845
0.22591903576716604 -2.267309199834532
0.2586418868311683 -2.377645032526679
0.2938446780254523 -2.4744291600924875
0.3316065133268494 -2.5566392769253534
0.37203214153782005 -2.623127644030361
0.41515409740642706 -2.6725230110029736
0.46069177612577855 -2.703218153804342
0.5077449696173126 -2.713682024899487
0.5547981631088469 -2.703218153804342
0.6003358418281983 -2.6725230110029727
0.6434577976968051 -2.623127644030361
0.6838834259077756 -2.5566392769253534
0.7216452612091727 -2.474429160092487
0.7568480524034569 -2.37764503252668
0.7895709034674593 -2.267309199834531
0.8198539727744829 -2.14439447667845
0.8477119250226403 -2.009861902219546
0.8731472980599023 -1.864673955840622
0.8961577992717357 -1.7097977532416881
0.9167397033817886 -1.5462063943647857
0.9348913944866609 -1.3748819852807819
0.9506236781203133 -1.1968181383264154
0.963983175889178 -1.0130208342201756
0.9751123086399289 -0.8244635818329461
0.9843659412429187 -0.6320474243308294
0.9924656818032827 -0.43585792303836934
1.0025634094341944 -0.23624200074135857
1.015489939234625 0.0
0.05852033444245235 -0.0080276252615556
0.06656971301915117 -0.23561621958125828
0.0721410801037354 -0.4369914488310028
0.07964625858239956 -0.6328377164570991
0.0878761273865187 -0.8255048105678704
0.09792415118779742 -1.0142610793102844
0.10996430932895476 -1.1982985596885818
0.12413456482142127 -1.3766062731339503
0.14047615791081983 -1.548177833759661
0.15900176631437665 -1.7120164200025234
0.1797118409809051 -1.8671396025851419
0.20260422975757353 -2.0125742138055873
0.22767775867175333 -2.1473534208967036
0.2549354385943825 -2.270515469558561
0.2843903341171437 -2.3811010213865194
0.31607509770602177 -2.478140388648177
0.3500489155002871 -2.5606149002246346
0.38637870652575307 -2.6273759488005695
0.42504955576658476 -2.677035242048324
0.4657688783582527 -2.707938565906016
0.5077449696173126 -2.7184849895197614
0.5497210608763726 -2.707938565906016
0.5904403834680405 -2.677035242048323
0.6291112327088721 -2.6273759488005695
0.6654410237343379 -2.560614900224634
0.6994148415286033 -2.4781403886481765
0.7310996051174815 -2.38110102138652
0.7605545006402425 -2.27051546955856
0.7878121805628717 -2.147353420896703
0.8128857094770514 -2.0125742138055864
0.8357780982537198 -1.8671396025851417
0.8564881729202483 -1.712016420002523
0.8750137813238051 -1.5481778337596608
0.8913553744132037 -1.37660627313395
0.9055256299056703 -1.198298559688581
0.9175657880468275 -1.0142610793102849
0.9276138118481062 -0.8255048105678704
0.9358436806522255 -0.6328377164571
0.9433488591308896 -0.43699144883100244
0.9489202262154739 -0.2356162195812575
0.9569696047921726 -0.008027625261555607
0.1130560293460519 -0.014923136234079303
0.11882949997969833 -0.23515727324247623
0.12182797935786226 -0.43761600555817565
0.12783711948106766 -0.6336070890589888
0.13513481148561543 -0.8264062550344043
0.14402703334537875 -1.0153749507221674
0.15473874531784595 -1.1996222256075606
0.16733995625191683 -1.3781498369907008
0.18187035930585652 -1.5499420326830733
0.19833975875690762 -1.7140017465547377
0.21674982488676417 -1.869345820540784
0.23709947860759367 -2.015001134079681
0.25938827511575546 -2.1500010249596553
0.283618848767776 -2.273384248035371
0.30980109327763156 -2.3841926575025156
0.33795852335755827 -2.4814588260213246
0.3681319666624468 -2.5641668496006114
0.40036269223521703 -2.6311676933402692
0.43461958435157255 -2.6810600488991794
0.4706404634424405 -2.712150907304993
0.5077449696173126 -2.7227745150588314
0.5448494757921848 -2.712150907304993
0.5808703548830527 -2.681060048899179
0.6151272469994084 -2.631167693340269
0.6473579725721782 -2.564166849600611
0.6775314158770668 -2.4814588260213246
0.7056888459569937 -2.3841926575025156
0.7318710904668491 -2.2733842480353705
0.7561016641188696 -2.150001024959655
0.7783904606270312 -2.01500113407968
0.7987401143478607 -1.8693458205407845
0.8171501804777174 -1.7140017465547372
0.8336195799287686 -1.549942032683073
0.8481499829827082 -1.3781498369907004
0.860751193916779 -1.1996222256075595
0.8714629058892461 -1.0153749507221679
0.8803551277490095 -0.8264062550344041
0.8876528197535573 -0.6336070890589895
0.8936619598767628 -0.43761600555817526
0.8966604392549267 -0.23515727324247543
0.9024339098885731 -0.014923136234079336
0.16523734685072805 -0.020816680261029282
0.16982342468324307 -0.2350223294764109
0.1714133647144021 -0.43789258081072807
0.1758859765592196 -0.6342427726837051
0.18212607713286022 -0.8271906886092427
0.1898619828433939 -1.0163493697930475
0.1992238052588695 -1.2007897469317523
0.21025278422441676 -1.379511588228231
0.22297001288039134 -1.551499047801384
0.23738316340638402 -1.7157537517084875
0.25349340125230013 -1.871292674394512
0.2713004256824412 -2.0171426630469904
0.29080411792137173 -2.1523371403303613
0.3120060924851722 -2.275915038274979
0.3349120327741924 -2.3869188061953497
0.35953557765789473 -2.4843826032904155
0.3859014740350974 -2.5672935199243843
0.4140363606255088 -2.6345051969462245
0.4439180849492143 -2.6846106957863274
0.4753450106102007 -2.715885027657793
0.5077449696173126 -2.7265897907093963
0.5401449286244246 -2.7158850276577926
0.5715718542854108 -2.6846106957863274
0.6014535786091165 -2.6345051969462236
0.6295884651995276 -2.5672935199243843
0.6559543615767304 -2.484382603290416
0.6805779064604327 -2.3869188061953497
0.703483846749453 -2.275915038274978
0.7246858213132533 -2.1523371403303604
0.7441895135521838 -2.0171426630469895
0.7619965379823248 -1.8712926743945122
0.778106775828241 -1.7157537517084873
0.7925199263542337 -1.5514990478013837
0.8052371550102082 -1.3795115882282303
0.8162661339757554 -1.2007897469317514
0.825627956391231 -1.0163493697930481
0.8333638621017646 -0.8271906886092426
0.8396039626754054 -0.6342427726837058
0.8440765745202229 -0.4378925808107277
0.8456665145513819 -0.23502232947641014
0.8502525923838968 -0.0208166802610293
0.2159142828590368 -0.025836366008410702
0.21978503279499476 -0.23519479984070196
0.2206249066047761 -0.43797014691050196
0.2237769886962872 -0.6347125410321656
0.2288882262725938 -0.8278512218651826
0.23545462445733212 -1.0171836884857424
0.24345797843640168 -1.2017987016134624
0.25290959336066915 -1.3806913994866874
0.26381245883621807 -1.5528486639809733
0.2761689434544991 -1.7172724742487675
0.28997940275236234 -1.8729801833719681
0.30524377327501917 -2.0189987871941053
0.321961990127372 -2.1543616355859028
0.3401342091575965 -2.2781074636406595
0.35976136158092575 -2.389278681696902
0.38084713544996396 -2.4869105568186125
0.40340259234233156 -2.5699942794726662
0.42744874564586144 -2.637391318145798
0.45299172445088143 -2.687698949582269
0.4799127511753577 -2.719165824853707
0.5077449696173126 -2.7299634779118382
0.5355771880592676 -2.7191658248537065
0.5624982147837437 -2.687698949582269
0.5880411935887638 -2.6373913181457973
0.6120873468922935 -2.5699942794726662
0.6346428037846611 -2.4869105568186125
0.6557285776536993 -2.389278681696902
0.6753557300770284 -2.2781074636406586
0.693527949107253 -2.1543616355859023
0.7102461659596059 -2.0189987871941044
0.7255105364822625 -1.8729801833719681
0.739320995780126 -1.7172724742487673
0.7516774803984069 -1.552848663980973
0.7625803458739558 -1.3806913994866867
0.7720319607982233 -1.2017987016134613
0.7800353147772927 -1.017183688485743
0.786601712962031 -0.8278512218651827
0.7917129505383377 -0.6347125410321661
0.7948650326298488 -0.43797014691050157
0.7957049064396302 -0.23519479984070116
0.7995756563755881 -0.02583636600841073
0.26557512127244054 -0.030099992961756205
0.26893878564765805 -0.23560391957947238
0.269382459633708 -0.4379517045570207
0.27146677116612455 -0.635024486303494
0.27545200968643685 -0.8283798963352415
0.2808354750917027 -1.017877591665419
0.2874767348638992 -1.2026479698287547
0.2953474761793617 -1.3816888592874819
0.30443469758345776 -1.5539907903172454
0.3147340967499435 -1.718557883183633
0.32624465217415877 -1.8744083527287314
0.33896626158176607 -2.0205694804893843
0.35289867197302105 -2.1560744130697955
0.36804038025260927 -2.2799612890748433
0.38438746712578964 -2.3912718547820795
0.40193407984863344 -2.4890421490571137
0.4206796736158717 -2.572269155464623
0.4406460591440468 -2.6398287865702748
0.4618815666828958 -2.690334430650066
0.48436823059306117 -2.722013922273895
0.5077449696173125 -2.7329236651667332
0.531121708641564 -2.722013922273895
0.5536083725517292 -2.690334430650066
0.5748438800905784 -2.6398287865702748
0.5948102656187534 -2.572269155464623
0.6135558593859917 -2.4890421490571133
0.6311024721088354 -2.391271854782079
0.6474495589820156 -2.2799612890748424
0.662591267261604 -2.156074413069795
0.6765236776528589 -2.0205694804893835
0.6892452870604661 -1.8744083527287312
0.7007558424846815 -1.7185578831836328
0.7110552416511671 -1.553990790317245
0.7201424630552632 -1.3816888592874814
0.7280132043707258 -1.2026479698287535
0.7346544641429221 -1.0178775916654192
0.740037929548188 -0.8283798963352415
0.7440231680685003 -0.6350244863034945
0.746107479600917 -0.4379517045570203
0.7465511535869669 -0.23560391957947166
0.7499148179621843 -0.030099992961756205
0.314524350345409 -0.03370998990468967
0.3174725315905825 -0.23617113845726273
0.31769688781646344 -0.4378986035623429
0.31893023411396815 -0.6352016734369162
0.32183878988631925 -0.8287747956383228
0.32603709577043166 -1.0184305119954518
0.3313149421593902 -1.20333729561911
0.3376032324269522 -1.3825036469705778
0.34487370662543887 -1.5549253366520754
0.35311556091696455 -1.7196099373106373
0.3623259830612382 -1.8755771634039144
0.37250465414616674 -2.0218547150687987
0.3836509977383357 -2.1574754161744734
0.3957618572509041 -2.2814764286629656
0.4088287649668308 -2.3928982418295695
0.4228371047900288 -2.4907773911357305
0.4377762321777761 -2.5741185895897476
0.45367224714514065 -2.641819716183336
0.47062457538417 -2.692524190510257
0.4887319718811624 -2.724446151679572
0.5077449696173124 -2.735495335517097
0.5267579673534627 -2.724446151679572
0.544865363850455 -2.692524190510257
0.5618176920894844 -2.641819716183336
0.577713707056849 -2.574118589589748
0.5926528344445962 -2.490777391135731
0.6066611742677943 -2.3928982418295686
0.619728081983721 -2.2814764286629647
0.6318389414962892 -2.157475416174473
0.6429852850884581 -2.0218547150687978
0.6531639561733867 -1.8755771634039144
0.6623743783176604 -1.719609937310637
0.670616232609186 -1.554925336652075
0.6778867068076727 -1.3825036469705771
0.6841749970752347 -1.2033372956191086
0.6894528434641932 -1.0184305119954524
0.6936511493483057 -0.8287747956383228
0.6965597051206568 -0.6352016734369168
0.6977930514181616 -0.4378986035623425
0.6980174076440425 -0.23617113845726206
0.7009655888892159 -0.03370998990468966
0.36296554729558256 -0.03675247170279609
0.36553799691131494 -0.23682685173234766
0.36561998538752855 -0.43784219035189115
0.366166790454311 -0.6352692048336194
0.36806782489568973 -0.8290396317435318
0.3710918545776577 -1.0188426296053597
0.3750077092315117 -1.2038668457940729
0.3797133974610002 -1.3831356567981046
0.3851664173872745 -1.5556522171198268
0.39135023824022863 -1.7204285878854682
0.3982602247341683 -1.8764865807763
0.40589573290912095 -2.0228544638556047
0.41425582978857134 -2.1585646323740075
0.4233358949422443 -2.2826529395714017
0.43312356194547535 -2.3941580792538475
0.44359655000373804 -2.492116776481712
0.4547349818308111 -2.5755432768589075
0.46656963490883124 -2.6433652887980177
0.4792549623074735 -2.694272389829657
0.4930216441855189 -2.7264758273190055
0.5077449696173123 -2.7377015956315525
0.5224682950491062 -2.7264758273190055
0.5362349769271515 -2.6942723898296568
0.5489203043257939 -2.6433652887980177
0.5607549574038139 -2.5755432768589075
0.5718933892308868 -2.492116776481712
0.5823663772891496 -2.3941580792538475
0.5921540442923807 -2.282652939571401
0.6012341094460535 -2.1585646323740066
0.609594206325504 -2.022854463855604
0.6172297145004566 -1.8764865807763003
0.6241397009943964 -1.720428587885468
0.6303235218473504 -1.5556522171198264
0.6357765417736247 -1.3831356567981041
0.6404822300031132 -1.2038668457940715
0.6443980846569674 -1.0188426296053605
0.6474221143389353 -0.8290396317435318
0.6493231487803139 -0.6352692048336199
0.6498699538470964 -0.43784219035189076
0.64995194232331 -0.23682685173234702
0.6525243919390424 -0.03675247170279609
0.4110434060068724 -0.03929878012391136
0.41325773179382 -0.23751501765186914
0.41321979975997186 -0.43779436465221694
0.41319588945728436 -0.6352486755952802
0.41416120581867744 -0.8291815215001213
0.4160318685804807 -1.0191153591780822
0.4185904078576927 -1.2042371068927973
0.42171443576091633 -1.3835849680644272
0.4253496930084067 -1.5561713760489249
0.42947500521328097 -1.721013777957519
0.4340841977687833 -1.8771365604546155
0.4391762893834737 -2.023568702813044
0.44475003627178555 -2.1593420902478484
0.4507996932417649 -2.2834910046518933
0.45730993520483776 -2.395051884731216
0.4642522519026343 -2.4930612289498075
0.4715978994553493 -2.576544096699327
0.4793796075103506 -2.6444655960203716
0.4878054458184785 -2.6955800079794225
0.49725296148609244 -2.728112793605297
0.5077449696173124 -2.739564830511147
0.5182369777485326 -2.7281127936052965
0.5276844934161464 -2.6955800079794225
0.5361103317242745 -2.644465596020371
0.5438920397792756 -2.5765440966993265
0.5512376873319906 -2.4930612289498084
0.5581800040297872 -2.395051884731215
0.5646902459928601 -2.283491004651893
0.5707399029628394 -2.1593420902478475
0.5763136498511512 -2.0235687028130434
0.5814057414658417 -1.8771365604546153
0.586014934021344 -1.721013777957519
0.5901402462262182 -1.5561713760489244
0.5937755034737086 -1.383584968064427
0.5968995313769322 -1.204237106892796
0.5994580706541442 -1.0191153591780828
0.6013287334159475 -0.8291815215001213
0.6022940497773407 -0.6352486755952809
0.6022701394746531 -0.4377943646522165
0.602232207440805 -0.23751501765186847
0.6044465332277525 -0.039298780123911366
0.4588665561369744 -0.04140808494540676
0.4607322152664515 -0.23819301204845955
0.46056870678452294 -0.4377553865800641
0.46005095750074165 -0.6351564805711594
0.460145875851658 -0.8292089239459874
0.46088974012802764 -1.0192512634822166
0.4620986363842202 -1.2044488885014928
0.4636428516012985 -1.3838517939834405
0.46546034594834895 -1.556482794947894
0.46752671034327714 -1.7213654462292525
0.46983471279171096 -1.8775270511908921
0.4723831165820002 -2.023997411983293
0.47517047251115063 -2.159807852191332
0.47819035198160925 -2.2839909054006444
0.4814256304379043 -2.395580404983545
0.4848433949274433 -2.4936120624757514
0.48840626225785017 -2.5771221393611268
0.49214328584361144 -2.6451196420864664
0.49630851244339724 -2.696444553246311
0.5014404657175136 -2.7293632052049728
0.5077449696173125 -2.741107916882564
0.5140494735171113 -2.7293632052049723
0.5191814267912276 -2.696444553246311
0.5233466533910135 -2.6451196420864664
0.5270836769767747 -2.5771221393611268
0.5306465443071815 -2.493612062475752
0.5340643087967206 -2.3955804049835443
0.5372995872530157 -2.283990905400644
0.5403194667234743 -2.1598078521913315
0.5431068226526248 -2.0239974119832924
0.545655226442914 -1.8775270511908921
0.5479632288913477 -1.721365446229252
0.5500295932862759 -1.5564827949478937
0.5518470876333266 -1.38385179398344
0.5533913028504047 -1.2044488885014915
0.5546001991065973 -1.0192512634822173
0.5553440633829669 -0.8292089239459876
0.5554389817338833 -0.6351564805711599
0.5549212324501019 -0.4377553865800636
0.5547577239681735 -0.23819301204845889
0.5566233830976506 -0.041408084945406765
0.5065205751701168 -0.0431302097287367
0.50804557143421 -0.2388298399316143
0.5077378945719264 -0.4377191704082181
0.5067743083308062 -0.6350039297775253
0.5060538682603326 -0.8291302206139165
0.5056992628479732 -1.0192536768303069
0.5055682878852233 -1.2045032941886809
0.5055352326677052 -1.3839364408828498
0.5055351626522171 -1.5565864847455853
0.5055421730196326 -1.7214835307499885
0.5055485687207484 -1.8776579971733955
0.5055530031329718 -2.0241405748957737
0.5055539669166846 -2.1599620042942878
0.5055448415247135 -2.2841529879263134
0.5055079861187035 -2.3957445486082865
0.5054083525621812 -2.493770941409299
0.5052005983827854 -2.577278823972559
0.504902153211467 -2.6453255306004904
0.5047977886606334 -2.6968597755929267
0.5055983341270545 -2.7302289611568136
0.5077449696173124 -2.7423556253474732
0.5098916051075704 -2.730228961156813
0.5106921505739914 -2.6968597755929262
0.5105877860231579 -2.6453255306004904
0.5102893408518394 -2.5772788239725584
0.5100815866724437 -2.493770941409299
0.5099819531159213 -2.395744548608286
0.5099450977099116 -2.284152987926313
0.5099359723179403 -2.1599620042942873
0.509936936101653 -2.0241405748957733
0.5099413705138766 -1.8776579971733953
0.5099477662149923 -1.7214835307499883
0.5099547765824078 -1.5565864847455848
0.5099547065669198 -1.3839364408828494
0.5099216513494016 -1.2045032941886795
0.5097906763866518 -1.0192536768303075
0.5094360709742924 -0.8291302206139165
0.5087156309038188 -0.6350039297775257
0.5077520446626985 -0.43771917040821756
0.5074443678004148 -0.23882983993161366
0.508969364064508 -0.043130209728736685
0.5540756208822138 -0.04450828128773435
0.555269762513262 -0.2394040036244192
0.5547950435527453 -0.43767669744245974
0.5534134731481565 -0.6347980951198792
0.5519217251273757 -0.8289529059462936
0.5504958393732597 -1.0191262596245108
0.5490356690304383 -1.204401629924901
0.5474282682320075 -1.3838392712112715
0.5456109187837674 -1.5564824725396105
0.5435581847286779 -1.721367970408101
0.5412625511153282 -1.8775293402352018
0.5387227297421804 -2.0239981767449575
0.5359373117865539 -2.1598046445858676
0.5328999899521362 -2.283977625706147
0.5295938943192761 -2.395545302998178
0.525984519430929 -2.4935398214995024
0.5220204817046001 -2.5770160932246235
0.517698556844325 -2.6450808822183824
0.5133096464776303 -2.696815425221128
0.5097413827444288 -2.7307066608548225
0.5077449696173124 -2.743336355760208
0.505748556490196 -2.730706660854822
0.5021802927569946 -2.696815425221128
0.4977913823902998 -2.645080882218382
0.4934694575300248 -2.577016093224623
0.4895054198036957 -2.493539821499502
0.4858960449153488 -2.395545302998178
0.4825899492824889 -2.2839776257061466
0.47955262744807103 -2.159804644585867
0.4767672094924445 -2.023998176744957
0.4742273881192969 -1.877529340235202
0.4719317545059471 -1.7213679704081006
0.4698790204508575 -1.5564824725396103
0.4680616710026173 -1.383839271211271
0.4664542702041866 -1.2044016299249
0.46499409986136525 -1.0191262596245112
0.4635682141072493 -0.8289529059462936
0.46207646608646846 -0.6347980951198797
0.46069489568187955 -0.43767669744245924
0.4602201767213629 -0.23940400362441855
0.46141431835241103 -0.044508281287734326
0.6015909144764717 -0.045581051643989415
0.6024674853174373 -0.23990153205079706
0.6018035728526069 -0.43761814471231336
0.6000187868069953 -0.6345428598239639
0.5977896697574513 -0.828683220359697
0.5953166125192508 -1.018872596650452
0.5925375970862363 -1.204145267744652
0.5893587577694778 -1.3835606620973915
0.5857243836214129 -1.5561707875915425
0.5816115103248702 -1.7210187048165124
0.5770134314080231 -1.8771410219944218
0.5719290684577603 -2.023570201902993
0.5663572591389185 -2.1593358703988486
0.560292483915016 -2.2834651838710847
0.5537198106435495 -2.3949836382178207
0.5466081600567743 -2.4929208423467726
0.5389040963425493 -2.5763366471576736
0.5305759382511326 -2.6443835555421114
0.521885182782957 -2.696297167355866
0.5138865325865564 -2.730785872339293
0.5077449696173124 -2.744084374647822
0.5016034066480685 -2.7307858723392924
0.4936047564516678 -2.6962971673558656
0.4849140009834923 -2.644383555542112
0.4765858428920756 -2.5763366471576736
0.46888177917785057 -2.492920842346772
0.4617701285910754 -2.3949836382178207
0.4551974553196091 -2.2834651838710838
0.4491326800957063 -2.159335870398848
0.4435608707768646 -2.0235702019029924
0.4384765078266018 -1.8771410219944218
0.43387842890975464 -1.7210187048165122
0.42976555561321195 -1.5561707875915423
0.42613118146514717 -1.3835606620973908
0.4229523421483885 -1.204145267744651
0.42017332671537405 -1.0188725966504522
0.4177002694771737 -0.8286832203596969
0.4154711524276298 -0.6345428598239644
0.41368636638201806 -0.43761814471231286
0.4130224539171877 -0.2399015320507964
0.4138990247581532 -0.0455810516439894
0.6491172463830504 -0.046384864431032805
0.6496940355576815 -0.24031433463341062
0.64882263984313 -0.437534197018583
0.6466419549175726 -0.6342399327944406
0.6437008202092763 -0.8283260555996532
0.6402003870751672 -1.018495875777764
0.6361114337948542 -1.2037354922801766
0.6313636085234122 -1.3831009582223048
0.6259123163364014 -1.5556514482428343
0.6197388880034097 -1.7204356738336235
0.6128379669748121 -1.8764929860797865
0.6052087850721497 -2.0228566315407583
0.5968505229908303 -2.1585557648356515
0.5877588756749833 -2.282615989337808
0.5779218195802467 -2.394060409455868
0.5673143403557581 -2.4919161375282357
0.5558875128918334 -2.5752441349426975
0.5435785099708993 -2.6432327623640477
0.5305727104129742 -2.695286885007818
0.5180552134311948 -2.7304463931249074
0.5077449696173124 -2.7446427441965566
0.4974347258034299 -2.730446393124907
0.4849172288216508 -2.695286885007818
0.47191142926372553 -2.6432327623640473
0.45960242634279136 -2.5752441349426975
0.4481755988788666 -2.4919161375282353
0.43756811965437825 -2.394060409455868
0.4277310635596416 -2.282615989337807
0.4186394162437945 -2.1585557648356515
0.4102811541624751 -2.022856631540758
0.40265197225981286 -1.8764929860797863
0.3957510512312152 -1.7204356738336233
0.3895776228982234 -1.5556514482428339
0.3841263307112126 -1.3831009582223044
0.37937850543977064 -1.2037354922801755
0.37528955215945764 -1.0184958757777645
0.37178911902534867 -0.8283260555996532
0.3688479843170524 -0.6342399327944411
0.36666729939149495 -0.43753419701858254
0.36579590367694353 -0.2403143346334099
0.3663726928515746 -0.046384864431032784
0.6966981168476692 -0.046955285369036204
0.6969983528205154 -0.2406389105399145
0.6959075178157627 -0.43741688868054085
0.6933353701126945 -0.6338897334889644
0.6897005596705856 -0.8278849935424317
0.6851874166247686 -1.0179986434570532
0.679795044075081 -1.2031733530541249
0.673479816240421 -1.3824604232323128
0.6662114562540474 -1.5549244506854476
0.6579770279898458 -1.719618817769421
0.6487729018717058 -1.875585180577077
0.638598643625279 -2.0218574426072364
0.627453792113366 -2.1574643820795423
0.6153355882291105 -2.28143030682813
0.6022357359936086 -2.3927762831973514
0.5881370609765829 -2.490527540784293
0.5730037047432199 -2.573743145437386
0.5567498508261126 -2.641630656782281
0.5394308138148087 -2.693763829454583
0.5222776240663392 -2.7296540337227113
0.5077449696173123 -2.74506711288888
0.4932123151682855 -2.7296540337227113
0.4760591254198162 -2.693763829454583
0.45874008840851216 -2.6416306567822816
0.4424862344914048 -2.5737431454373856
0.42735287825804186 -2.4905275407842926
0.4132542032410164 -2.3927762831973514
0.40015435100551433 -2.281430306828129
0.3880361471212589 -2.157464382079542
0.3768912956093458 -2.021857442607236
0.36671703736291916 -1.875585180577077
0.357512911244779 -1.7196188177694207
0.34927848298057745 -1.5549244506854472
0.3420101229942039 -1.3824604232323123
0.33569489515954387 -1.2031733530541238
0.3303025226098564 -1.0179986434570534
0.3257893795640393 -0.8278849935424316
0.32215456912193047 -0.6338897334889649
0.3195824214188623 -0.43741688868054035
0.3184915864141096 -0.2406389105399138
0.31879182238695564 -0.04695528536903618
0.7443697870018642 -0.04732841914659191
0.7444233936010755 -0.2408754140355218
0.7431102346918553 -0.4372602319038101
0.7401520230985769 -0.6334921119530905
0.735836079523787 -0.8273623713390705
0.7303191033008394 -1.0173826181728116
0.7236266850099242 -1.2024595381552212
0.7157444255891636 -1.3816391960915986
0.7066585081989857 -1.5539897607925501
0.6963626104394826 -1.7185680791410838
0.6848549689908991 -1.8744175605186206
0.6721354097802086 -2.020572609397858
0.6582037569863746 -2.156061733954251
0.6430589260376622 -2.2799083104385174
0.6266971684833286 -2.3911317222244155
0.6091097373767508 -2.488756223168872
0.5902816024892887 -2.5718387145322286
0.5701294909692854 -2.639584365234727
0.5485316489087225 -2.691707514422508
0.5266007455316108 -2.7283542757469688
0.5077449696173124 -2.745430375384654
0.48888919370301376 -2.7283542757469688
0.46695829032590225 -2.691707514422508
0.44536044826533944 -2.6395843652347266
0.42520833674533604 -2.5718387145322286
0.4063802018578741 -2.488756223168871
0.38879277075129637 -2.391131722224415
0.3724310131969625 -2.279908310438517
0.3572861822482504 -2.1560617339542505
0.34335452945441625 -2.0205726093978575
0.3306349702437256 -1.8744175605186206
0.31912732879514233 -1.7185680791410833
0.30883143103563926 -1.55398976079255
0.29974551364546126 -1.3816391960915981
0.29186325422470055 -1.20245953815522
0.28517083593378545 -1.0173826181728123
0.2796538597108379 -0.8273623713390703
0.27533791613604813 -0.6334921119530911
0.2723797045427696 -0.43726023190380964
0.27106654563354954 -0.24087541403552107
0.27112015223276076 -0.0473284191465919
0.7921602649306261 -0.047541906453757915
0.7920059260620081 -0.24102710951802733
0.7904805460521329 -0.43706082937525215
0.7871459204173924 -0.6330468745665953
0.7821560445592873 -0.8267592894946022
0.7756376328664966 -1.0166485439092738
0.7676448393145143 -1.2015942792092267
0.7581944702632006 -1.3806372585871314
0.7472901242010808 -1.552847310574458
0.7349322826762881 -1.7172834066705824
0.7211208951491409 -1.8729900905176828
0.7058558517163409 -2.0190021062287133
0.6891371390639607 -2.1543477880890314
0.6709651445114406 -2.27805002979053
0.6513414151504422 -2.389127039283393
0.6302660181220767 -2.4866024451611466
0.6077461613471106 -2.569534930617681
0.5837460714190028 -2.637108014145453
0.5579628447821474 -2.6891040935016077
0.5311042841882576 -2.7264630409521518
0.5077449696173124 -2.7458276097244325
0.4843856550463672 -2.7264630409521518
0.45752709445247725 -2.6891040935016077
0.4317438678156221 -2.637108014145453
0.4077437778875142 -2.569534930617681
0.385223921112548 -2.486602445161146
0.36414852408418286 -2.3891270392833928
0.3445247947231841 -2.278050029790529
0.3263528001706642 -2.154347788089031
0.30963408751828386 -2.0190021062287125
0.294369044085484 -1.872990090517683
0.2805576565583367 -1.7172834066705822
0.2681998150335442 -1.5528473105744576
0.2572954689714242 -1.380637258587131
0.2478450999201105 -1.2015942792092256
0.23985230636812835 -1.0166485439092745
0.2333338946753376 -0.826759289494602
0.22834401881723249 -0.6330468745665958
0.225009393182492 -0.4370608293752516
0.22348401317261674 -0.24102710951802664
0.22332967430399886 -0.04754190645375791
0.8400869872515785 -0.04763553581961742
0.8397758151269654 -0.24110034421524537
0.8380675211662932 -0.43681862666426297
0.8343729442174748 -0.6325540485336355
0.8287102715515796 -0.8260754998395029
0.8211855569574555 -1.015796077329145
0.8118880099594626 -1.2005772930352276
0.8008668953322762 -1.3794544190386722
0.7881428837561268 -1.5514970012198759
0.7737226569193952 -1.7157647610633708
0.7576074055154836 -1.8713027502559632
0.7397967536975574 -2.017145903709816
0.7202906734688933 -2.1523224924515816
0.6990906623305979 -2.2758552761417987
0.676203205161656 -2.386762393875196
0.6516402007366919 -2.4840658804244886
0.625421735150434 -2.5668322954175484
0.5976059083116549 -2.6342230586747415
0.5678218793727227 -2.6859595881601814
0.5359344568655702 -2.723854146374987
0.5077449696173125 -2.746378793165275
0.4795554823690546 -2.7238541463749875
0.447668059861902 -2.6859595881601814
0.41788403092296994 -2.6342230586747415
0.39006820408419085 -2.566832295417548
0.363849738497933 -2.484065880424488
0.339286734072969 -2.3867623938751965
0.31639927690402675 -2.275855276141798
0.2951992657657316 -2.152322492451581
0.2756931855370674 -2.0171459037098156
0.2578825337191412 -1.871302750255963
0.24176728231522956 -1.7157647610633706
0.22734705547849804 -1.5514970012198757
0.21462304390234868 -1.3794544190386715
0.20360192927516207 -1.2005772930352268
0.19430438227716937 -1.0157960773291455
0.18677966768304533 -0.8260754998395027
0.18111699501715017 -0.632554048533636
0.1774224180683316 -0.4368186266642624
0.17571412410765952 -0.24110034421524465
0.17540295198304637 -0.047635535819617415
0.8881525586476932 -0.04765130427256408
0.8877549017059388 -0.24110535899083735
0.8859223395591811 -0.43653790723689473
0.8818920000679074 -0.6320137307488416
0.8755492633941765 -0.8253091457114108
0.8670053495013801 -1.0148237184774689
0.8563944848698132 -1.1994077600323083
0.8437984689277589 -1.378090316756168
0.8292532735779218 -1.5499387149611357
0.812770314940294 -1.7140121204839083
0.7943512139049792 -1.869355545642789
0.773994963430469 -2.0150039609387322
0.7517010461639279 -2.1499857901027775
0.7274722131039485 -2.2733237096471077
0.7013172078747475 -2.3840373083697415
0.6732647470832968 -2.481147082818467
0.6433419086067345 -2.5637247923210915
0.611681378872018 -2.6309516213501682
0.5781812927782652 -2.6823263522104335
0.5413813091544639 -2.720345343921315
0.5077449696173125 -2.7472208527791766
0.47410863008016074 -2.720345343921315
0.4373086464563594 -2.6823263522104335
0.4038085603626068 -2.6309516213501682
0.3721480306278903 -2.563724792321091
0.3422251921513282 -2.481147082818467
0.31417273135987733 -2.384037308369742
0.2880177261306763 -2.273323709647107
0.263788893070697 -2.1499857901027775
0.2414949758041558 -2.0150039609387314
0.22113872532964574 -1.8693555456427888
0.20271962429433088 -1.714012120483908
0.1862366656567031 -1.5499387149611352
0.17169147030686602 -1.3780903167561673
0.15909545436481165 -1.1994077600323072
0.14848458973324474 -1.0148237184774695
0.1399406758404483 -0.8253091457114108
0.13359793916671758 -0.632013730748842
0.1295675996754438 -0.43653790723689423
0.12773503752868604 -0.24110535899083663
0.12733738058693167 -0.047651304272564095
0.9363371587221154 -0.047632589208031345
0.9359557435509847 -0.24105865015378466
0.9341035265285693 -0.436228499207997
0.9297658728432272 -0.6314252106288013
0.9227235044240398 -0.824456423735265
0.9131389826706421 -1.0137287930445222
0.9012020611373575 -1.198084335980791
0.8870256992637311 -1.3765444546522785
0.8706576722492236 -1.5481723318771141
0.8521118040244343 -1.7120254958470467
0.8313890563415095 -1.8671484953622612
0.8084872930333361 -2.0125762948705073
0.7834052884819782 -2.1473374343259337
0.7561457121158314 -2.270455378300171
0.7267215354750767 -2.3809495508823906
0.6951632838617993 -2.4778484996387737
0.6615578650437475 -2.560204027535133
0.6259372276574823 -2.6272875647084164
0.5889468309476763 -2.678353858698454
0.5480732298392329 -2.7156951505765634
0.5077449696173125 -2.7484613875222115
0.4674167093953918 -2.7156951505765634
0.42654310828694847 -2.678353858698454
0.38955271157714255 -2.6272875647084164
0.3539320741908772 -2.5602040275351325
0.3203266553728257 -2.477848499638773
0.2887684037595482 -2.38094955088239
0.25934422711879335 -2.270455378300171
0.2320846507526464 -2.1473374343259333
0.2070026462012887 -2.012576294870507
0.1841008828931154 -1.8671484953622612
0.16337813521019054 -1.7120254958470462
0.14483226698540128 -1.548172331877114
0.12846423997089387 -1.3765444546522778
0.11428787809726734 -1.1980843359807898
0.10235095656398278 -1.0137287930445231
0.09276643481058502 -0.8244564237352651
0.08572406639139776 -0.6314252106288017
0.08138641270605554 -0.43622849920799656
0.07953419568364022 -0.24105865015378397
0.07915278051250944 -0.047632589208031345
0.9845847252621592 -0.047621758709792905
0.9843808364715734 -0.24098844954669574
0.9826874056355904 -0.43590674935361984
0.9780596300914398 -0.6307848163125753
0.9702831811703311 -0.8235115144080268
0.9596272972712857 -1.0125073807712932
0.9463478031816733 -1.1966052404174934
0.9305847531510449 -1.3748162490027873
0.9123923405798318 -1.5461977597110883
0.891783650055602 -1.7098049343893778
0.8687576671069734 -1.8646816649347688
0.8433106531860173 -2.009862876364697
0.8154402530350332 -2.144377425476714
0.785148519859804 -2.2672492100918604
0.752449401226045 -2.377500415042506
0.7173814919571869 -2.4741579973377856
0.6800402448617644 -2.556303565902471
0.6406039602458532 -2.6231033603775322
0.5993134368476791 -2.6743765596349767
0.5575241174991016 -2.7096654601782446
0.5077449696173123 -2.75
0.4579658217355233 -2.7096654601782437
0.41617650238694576 -2.6743765596349767
0.37488597898877146 -2.6231033603775322
0.3354496943728601 -2.5563035659024704
0.298108447277438 -2.4741579973377843
0.26304053800858007 -2.377500415042505
0.2303414193748205 -2.26724921009186
0.20004968619959143 -2.1443774254767134
0.17217928604860752 -2.0098628763646964
0.14673227212765136 -1.864681664934769
0.12370628917902285 -1.7098049343893775
0.10309759865479305 -1.5461977597110883
0.08490518608358 -1.3748162490027864
0.06914213605295151 -1.1966052404174925
0.055862641963339295 -1.0125073807712937
0.045206758064293556 -0.8235115144080271
0.03743030914318498 -0.6307848163125758
0.03280253359903442 -0.43590674935361945
0.031109102763051528 -0.240988449546695
0.030905213972465765 -0.04762175870979291
SCALARS Stress float 6
LOOKUP_TABLE default
-562.0956284280923 -17884.030569448518 -5533.837859362984 -415.51210991344607 0.0 0.0
8470.603358741526 5005.601791331143 4042.8615450218003 -645.4285854428874 0.0 0.0
4816.2335728719045 -427.1653756551152 1316.7204591650368 -276.04252022367234 0.0 0.0
4928.201976585597 375.1807893706186 1591.0148297868648 -41.11289125298471 0.0 0.0
5658.166722980548 136.5137935312359 1738.4041549535348 -94.75341872740012 0.0 0.0
6810.314013206362 192.89262080469018 2100.961990203315 -97.63978410251255 0.0 0.0
8082.3248618103535 210.1801887643561 2487.7515151724133 -103.53512917914935 0.0 0.0
9413.697821809543 244.79829029626495 2897.548833631743 -105.7784087223597 0.0 0.0
10760.606780167007 278.85478518124273 3311.838469604474 -106.57610548446456 0.0 0.0
12110.520913133116 314.0325653321532 3727.3660435395814 -106.78371768634952 0.0 0.0
13458.922974768917 349.1060122201796 4142.408696096729 -106.7837046538375 0.0 0.0
14805.66341023884 384.15995374999267 4556.947009196649 -106.80735318429733 0.0 0.0
16152.523540778484 419.3359828540485 4971.5578570897615 -107.0153771245081 0.0 0.0
17504.37352021588 455.1277195894213 5387.85037194159 -107.62819524010563 0.0 0.0
18871.91169095314 492.3822415276265 5809.288179744231 -108.88288174545193 0.0 0.0
20273.216352558746 531.9750177132674 6241.557411081603 -110.66220712679215 0.0 0.0
21725.83102903023 573.4368162194083 6689.78035357489 -111.46793753564808 0.0 0.0
23215.085291924355 612.3887070685951 7148.242199697885 -106.84751674584305 0.0 0.0
24630.956587851208 639.1329434743265 7581.0268593976625 -89.11950891532149 0.0 0.0
25713.760338270127 645.6509105240593 7907.823374638254 -52.13423429998599 0.0 0.0
26128.53644206238 641.9779910503296 8031.154329933814 -7.224798537208699e-11 0.0 0.0
25713.760338269953 645.6509105237183 7907.823374638101 52.13423429997738 0.0 0.0
24630.956587851113 639.1329434742157 7581.0268593976025 89.11950891536361 0.0 0.0
23215.08529192457 612.3887070692115 7148.242199698135 106.84751674572135 0.0 0.0
21725.831029030647 573.4368162204739 6689.7803535753355 111.46793753578095 0.0 0.0
20273.216352558728 531.9750177132071 6241.5574110815805 110.6622071267561 0.0 0.0
18871.91169095385 492.38224152916666 5809.288179744905 108.88288174553398 0.0 0.0
17504.37352021569 455.127719589128 5387.850371941445 107.62819524001284 0.0 0.0
16152.523540778979 419.33598285542575 4971.557857090322 107.01537712460083 0.0 0.0
14805.663410238827 384.1599537498412 4556.947009196602 106.80735318441126 0.0 0.0
13458.922974769206 349.10601222081937 4142.408696097006 106.78370465375886 0.0 0.0
12110.520913132972 314.03256533191734 3727.3660435394672 106.78371768605936 0.0 0.0
10760.606780167049 278.8547851812473 3311.8384696044895 106.57610548448159 0.0 0.0
9413.697821809583 244.79829029625012 2897.54883363175 105.77840872234424 0.0 0.0
8082.3248618100915 210.18018876376544 2487.7515151721577 103.5351291790267 0.0 0.0
6810.314013206108 192.8926208041173 2100.9619902030677 97.63978410253038 0.0 0.0
5658.166722980852 136.51379353173627 1738.4041549537765 94.75341872741518 0.0 0.0
4928.20197658587 375.1807893710322 1591.0148297870708 41.11289125299541 0.0 0.0
4816.233572871878 -427.1653756550814 1316.7204591650388 276.04252022352125 0.0 0.0
8470.603358741477 5005.601791331117 4042.861545021778 645.428585442817 0.0 0.0
-562.0956284280712 -17884.03056944853 -5533.837859362982 415.51210991347546 0.0 0.0
-3191.6507084215345 -17766.901110289753 -6287.565545613389 -283.94915915363083 0.0 0.0
5209.709116133584 3424.7407188738416 2590.3349505022284 -514.609889651614 0.0 0.0
3386.482149282104 -480.60932042406193 871.7618486574129 -192.94318940017672 0.0 0.0
4395.642030844157 169.92930095476035 1369.6713995396758 -159.69959417525467 0.0 0.0
5030.440856744477 21.097508430796374 1515.461509552582 -230.25377783725403 0.0 0.0
6075.378633324332 16.792489015729544 1827.6513367020182 -260.83356932535435 0.0 0.0
7203.069618347989 5.615241771063887 2162.6054580357163 -274.54394322395933 0.0 0.0
8383.11151702076 1.7162436477557228 2515.4483282005554 -280.1565437758161 0.0 0.0
9578.978395732642 0.17940225091124218 2873.747339395067 -281.6974092781217 0.0 0.0
10778.935660288731 -0.22901707326261578 3233.61199296464 -281.8551585969116 0.0 0.0
11978.599408674783 -0.2317920645302749 3593.5102849830755 -281.6402841248137 0.0 0.0
13177.434688188958 -0.03552938487090529 3953.2197476412275 -281.5346854928324 0.0 0.0
14376.917427077144 0.4939729178197343 4313.223419998489 -281.92510870385297 0.0 0.0
15581.127389791733 1.7488804176134565 4674.862881062803 -283.4950468631112 0.0 0.0
16798.370868818503 4.1095197820413 5040.744116580164 -287.3166638233848 0.0 0.0
18041.061468074753 6.975872210705798 5414.411202085638 -294.08629900876633 0.0 0.0
19317.037963222527 6.672670768485915 5797.113190197305 -301.3218086540323 0.0 0.0
20602.11010313327 -5.743263392647631 6178.910051922186 -297.89798404825484 0.0 0.0
21792.632118896054 -41.66084597307094 6525.291381876897 -259.67974277540674 0.0 0.0
22676.675718618942 -97.63733009938166 6773.71151655587 -159.13444276818194 0.0 0.0
23007.47094782267 -131.40273592666267 6862.820463568801 1.944044925039634e-11 0.0 0.0
22676.675718618753 -97.63733009972533 6773.711516555709 159.13444276819502 0.0 0.0
21792.632118895766 -41.66084597364437 6525.291381876637 259.6797427753424 0.0 0.0
20602.11010313362 -5.743263391643964 6178.910051922591 297.8979840482162 0.0 0.0
19317.03796322243 6.672670768184119 5797.113190197184 301.32180865420844 0.0 0.0
18041.061468074608 6.97587221014804 5414.411202085425 294.0862990087131 0.0 0.0
16798.370868819122 4.109519783667807 5040.744116580838 287.3166638234733 0.0 0.0
15581.127389791163 1.7488804164383112 4674.862881062281 283.49504686310433 0.0 0.0
14376.917427077662 0.49397291901770757 4313.223419999004 281.92510870397064 0.0 0.0
13177.434688188887 -0.03552938513828252 3953.219747641124 281.5346854928105 0.0 0.0
11978.599408674583 -0.2317920651366876 3593.510284982835 281.64028412473147 0.0 0.0
10778.935660288698 -0.22901707333991794 3233.6119929646084 281.8551585968053 0.0 0.0
9578.978395732622 0.1794022509534443 2873.747339395073 281.69740927816144 0.0 0.0
8383.111517020794 1.716243647800269 2515.4483282005785 280.15654377580154 0.0 0.0
7203.069618348181 5.615241771428494 2162.6054580358823 274.543943223826 0.0 0.0
6075.378633324153 16.792489015431315 1827.6513367018756 260.83356932535185 0.0 0.0
5030.440856744602 21.09750843115671 1515.4615095527279 230.2537778373214 0.0 0.0
4395.642030844372 169.92930095517303 1369.6713995398636 159.699594175203 0.0 0.0
3386.482149282194 -480.6093204239795 871.7618486574645 192.94318940007298 0.0 0.0
5209.709116133608 3424.7407188738953 2590.334950502252 514.6098896516321 0.0 0.0
-3191.6507084216396 -17766.901110289855 -6287.56554561345 283.9491591536159 0.0 0.0
-3492.3111116650894 -15550.61135497038 -5712.876739990641 -1307.7138830472156 0.0 0.0
3294.7274683096402 2064.652546690211 1607.8140044999554 -930.5791026662339 0.0 0.0
2511.526574657823 86.11360922124386 779.2920551637197 -130.8343628697629 0.0 0.0
3667.6514507210127 27.832790302114688 1108.6452723069385 -368.40168932197787 0.0 0.0
4475.906757390002 65.6325208900503 1362.4617834840162 -458.4675651742681 0.0 0.0
5392.694761175714 16.33019131349611 1622.7074857467628 -525.4465337279302 0.0 0.0
6408.471799409555 8.919514944020442 1925.217394306073 -551.625245084101 0.0 0.0
7454.688306956957 2.212467508167422 2237.0702323395376 -562.2047561087334 0.0 0.0
8516.540818954943 0.26030513155846124 2555.0403372259507 -565.0470851683305 0.0 0.0
9582.128778595288 -0.3312992441085507 2874.539243805355 -565.2114893924198 0.0 0.0
10648.133521267491 -0.32938030280586705 3194.3412422894066 -564.7256191695137 0.0 0.0
11713.83464933166 -0.0590419384833929 3514.1326822179535 -564.4635307115626 0.0 0.0
12780.334515259065 0.6714585645426414 3834.3017921470823 -565.16124588618 0.0 0.0
13850.716468082466 2.429347400055738 4155.943744644756 -568.1747095867447 0.0 0.0
14930.976174159037 5.819669331103919 4481.03875304704 -575.7483997845472 0.0 0.0
16029.304710906046 10.125489027428088 4811.829059980043 -589.6415664043034 0.0 0.0
17148.353160895116 10.151684615113455 5147.551453653071 -605.6378057406771 0.0 0.0
18262.61279211593 -7.5045678356944805 5476.5324672840725 -602.1714326485154 0.0 0.0
19280.71892281393 -61.509184731231535 5765.762921424807 -529.7208879043757 0.0 0.0
20025.007492252444 -150.22948329567862 5962.43340268703 -327.8785722943161 0.0 0.0
20298.34000829791 -207.08635867946998 6027.3760948855315 -4.3513637137948535e-11 0.0 0.0
20025.00749225259 -150.22948329522575 5962.433402687209 327.8785722942825 0.0 0.0
19280.718922813474 -61.50918473238205 5765.762921424325 529.7208879043826 0.0 0.0
18262.612792116484 -7.504567834295486 5476.5324672846555 602.1714326486691 0.0 0.0
17148.353160894516 10.151684613884733 5147.55145365252 605.6378057407289 0.0 0.0
16029.304710905604 10.125489026319926 4811.829059979577 589.6415664041454 0.0 0.0
14930.976174159241 5.819669331667647 4481.038753047272 575.7483997844735 0.0 0.0
13850.716468082255 2.429347399576457 4155.943744644549 568.1747095867953 0.0 0.0
12780.334515259463 0.6714585655667804 3834.3017921475093 565.1612458863154 0.0 0.0
11713.8346493316 -0.0590419384842491 3514.1326822179353 564.4635307115215 0.0 0.0
10648.133521267178 -0.3293803035807841 3194.3412422890797 564.7256191695328 0.0 0.0
9582.128778595257 -0.33129924427029067 2874.5392438052963 565.2114893924874 0.0 0.0
8516.540818954913 0.2603051314291349 2555.040337225902 565.0470851684049 0.0 0.0
7454.688306956956 2.2124675082603957 2237.0702323395653 562.204756108721 0.0 0.0
6408.471799409668 8.919514944395551 1925.2173943062198 551.6252450840611 0.0 0.0
5392.694761175517 16.33019131311351 1622.7074857465889 525.4465337278939 0.0 0.0
4475.906757390038 65.63252089013302 1362.4617834840515 458.4675651742644 0.0 0.0
3667.6514507212214 27.832790302559665 1108.6452723071343 368.4016893219356 0.0 0.0
2511.526574657827 86.11360922127585 779.2920551637311 130.83436286978227 0.0 0.0
3294.7274683096466 2064.652546690242 1607.8140044999666 930.5791026662448 0.0 0.0
-3492.3111116650994 -15550.611354970411 -5712.876739990653 1307.7138830471831 0.0 0.0
-3209.3109440753183 -13367.979167605245 -4973.1870335041685 -1632.527344117666 0.0 0.0
2056.817589760081 840.2552327260495 869.1218467458394 -1274.4008931262595 0.0 0.0
1835.969562688449 397.67777705734443 670.0942019237381 -387.76290573449864 0.0 0.0
2967.479002455984 56.99432723186315 907.3419989063544 -532.5606670804333 0.0 0.0
3869.8289432635374 70.62248032371721 1182.1354270761765 -682.0132655220102 0.0 0.0
4710.540563421249 31.1791825923641 1422.5159238040842 -758.5282571823019 0.0 0.0
5606.629692131678 11.109422010561083 1685.321734242672 -796.6621116307734 0.0 0.0
6525.2261249429175 3.5996623528424347 1958.6477361887278 -810.6492725598268 0.0 0.0
7453.513398989097 0.26255791864516276 2236.1327870723235 -814.7851306548587 0.0 0.0
8385.335878605996 -0.4908806300990989 2515.45349939277 -815.0853656502168 0.0 0.0
9317.715478759335 -0.4986752392408196 2795.1650410560283 -814.4807573183137 0.0 0.0
10250.152851461802 -0.10274984014427702 3075.015030486497 -814.1622371295803 0.0 0.0
11183.285581930457 0.9568689076205619 3355.2727352514244 -815.1456905310151 0.0 0.0
12119.07772626356 3.5436351145018765 3636.7864084134194 -819.2523370871563 0.0 0.0
13061.255090212644 8.643176699598431 3920.9694800736734 -829.4703656018665 0.0 0.0
14014.678810523112 15.377954743004235 4209.017029579835 -848.102438404999 0.0 0.0
14979.630880223043 16.072715639637558 4498.711078758804 -869.2395131028459 0.0 0.0
15934.268208291625 -10.176048676528616 4777.227647884529 -862.7848287851281 0.0 0.0
16802.583735373395 -94.3879409824977 5012.458738317268 -758.7759917627986 0.0 0.0
17433.133754428964 -237.35756536987253 5158.732856717729 -470.18692225001575 0.0 0.0
17660.186147283122 -331.307973149677 5198.663452240034 4.644107320928015e-11 0.0 0.0
17433.13375442918 -237.35756536921292 5158.73285671799 470.1869222499832 0.0 0.0
16802.58373537325 -94.38794098290204 5012.458738317105 758.7759917627126 0.0 0.0
15934.268208291975 -10.176048675639024 4777.2276478849 862.784828785104 0.0 0.0
14979.630880222843 16.07271563934664 4498.711078758656 869.2395131028177 0.0 0.0
14014.678810523086 15.377954742939068 4209.017029579807 848.1024384050087 0.0 0.0
13061.255090212602 8.643176699576252 3920.9694800736543 829.4703656020303 0.0 0.0
12119.077726263584 3.543635114645852 3636.7864084134703 819.2523370872158 0.0 0.0
11183.285581930468 0.9568689077387731 3355.272735251462 815.1456905310135 0.0 0.0
10250.152851461864 -0.10274983996028908 3075.0150304865715 814.1622371295422 0.0 0.0
9317.715478759545 -0.49867523881327 2795.1650410562193 814.4807573183006 0.0 0.0
8385.335878606018 -0.49088063013598315 2515.453499392765 815.0853656502094 0.0 0.0
7453.513398988971 0.2625579183783273 2236.132787072205 814.785130654828 0.0 0.0
6525.226124942896 3.5996623528228255 1958.647736188716 810.6492725598271 0.0 0.0
5606.6296921317025 11.109422010566966 1685.3217342426808 796.6621116308189 0.0 0.0
4710.540563421064 31.17918259199955 1422.515923803919 758.528257182296 0.0 0.0
3869.828943263386 70.62248032343543 1182.1354270760467 682.0132655219322 0.0 0.0
2967.4790024561544 56.994327232183245 907.3419989065013 532.5606670804076 0.0 0.0
1835.9695626884613 397.6777770573935 670.0942019237566 387.76290573447545 0.0 0.0
2056.8175897600236 840.255232726013 869.1218467458114 1274.4008931262551 0.0 0.0
-3209.310944075355 -13367.979167605261 -4973.187033504183 1632.5273441176953 0.0 0.0
-2750.4448704476863 -11380.20461560606 -4239.194845816124 -1669.7855747819788 0.0 0.0
1249.7733165114103 -103.49286771650723 343.8841346384709 -1506.9554850414738 0.0 0.0
1309.3368439199828 496.1732119078664 541.6530167483547 -734.7462994461619 0.0 0.0
2329.936261406669 139.5181562195835 740.8363252878759 -726.7208199096924 0.0 0.0
3243.8921930446713 83.41783438313905 998.1930082283433 -881.4824268528944 0.0 0.0
4021.615513374734 44.18481081806688 1219.74009725784 -966.6837264465892 0.0 0.0
4802.216709583467 16.089692017186568 1445.4919204801959 -1009.230055848678 0.0 0.0
5593.947600370421 4.800554828193288 1679.624446559585 -1026.0763988203028 0.0 0.0
6390.122137811295 0.4451844892093817 1917.1701966901514 -1030.9938413283114 0.0 0.0
7188.414889964582 -0.7139209443680361 2156.3102907060647 -1031.5178862266173 0.0 0.0
7987.291766009919 -0.6973027204639326 2395.9783389868367 -1030.895120952227 0.0 0.0
8786.360688285582 -0.15030105772992286 2635.863116168355 -1030.5873669841153 0.0 0.0
9585.854726194022 1.330333826249067 2876.1555180060827 -1031.7750230727895 0.0 0.0
10386.56685463982 4.956344445596233 3117.4569597256245 -1036.5283693511249 0.0 0.0
11190.091394510282 12.18357926276964 3360.6824921319144 -1048.2072857273063 0.0 0.0
11998.753179300995 21.942827724235322 3606.208802107569 -1069.383558923973 0.0 0.0
12812.675235020164 23.415166394865352 3850.827120424509 -1093.073365777674 0.0 0.0
13617.348522655962 -14.091978257749467 4080.9769633194637 -1083.257311100956 0.0 0.0
14354.000977962074 -138.10382673992314 4264.769145366646 -953.9019012675525 0.0 0.0
14890.672152490157 -353.3323919019786 4361.201928176454 -593.4277305891474 0.0 0.0
15079.065610544649 -497.84491123554733 4374.366209792731 2.162892087653745e-11 0.0 0.0
14890.672152489817 -353.3323919026101 4361.201928176162 593.4277305891158 0.0 0.0
14354.000977962092 -138.10382673983412 4264.769145366678 953.9019012675826 0.0 0.0
13617.34852265554 -14.09197825868793 4080.976963319056 1083.2573111010147 0.0 0.0
12812.67523502015 23.415166394929717 3850.8271204245248 1093.0733657777514 0.0 0.0
11998.753179301413 21.942827725188113 3606.20880210798 1069.3835589239338 0.0 0.0
11190.091394510471 12.183579263356954 3360.6824921321486 1048.2072857273972 0.0 0.0
10386.566854639692 4.956344445336818 3117.456959725508 1036.5283693511037 0.0 0.0
9585.854726193778 1.330333825543967 2876.155518005797 1031.7750230727931 0.0 0.0
8786.360688285667 -0.15030105748452627 2635.863116168455 1030.5873669841174 0.0 0.0
7987.291766010125 -0.6973027201250872 2395.978338987 1030.8951209521874 0.0 0.0
7188.414889964912 -0.713920943714335 2156.310290706359 1031.517886226568 0.0 0.0
6390.122137811226 0.44518448918665143 1917.170196690124 1030.9938413281907 0.0 0.0
5593.947600370288 4.800554827965087 1679.6244465594764 1026.0763988203369 0.0 0.0
4802.216709583236 16.089692016767927 1445.491920480001 1009.2300558486726 0.0 0.0
4021.615513374996 44.184810818743884 1219.7400972581222 966.68372644653 0.0 0.0
3243.892193044736 83.41783438318284 998.1930082283754 881.482426852953 0.0 0.0
2329.936261406727 139.5181562196721 740.8363252879194 726.7208199096189 0.0 0.0
1309.3368439200178 496.1732119078859 541.6530167483711 734.7462994461448 0.0 0.0
1249.7733165114162 -103.49286771658927 343.88413463844813 1506.9554850415136 0.0 0.0
-2750.444870447688 -11380.204615606044 -4239.194845816121 1669.7855747819576 0.0 0.0
-2278.4704568414627 -9628.821290601241 -3572.1875242328115 -1593.036854802292 0.0 0.0
718.0435158722538 -765.1666432644014 -14.1369382176444 -1644.3958089340172 0.0 0.0
892.0393657295598 460.9216492237707 405.88830448599913 -1070.4463343531143 0.0 0.0
1760.4452650045025 216.96840505613562 593.2241010181916 -943.770202643973 0.0 0.0
2620.098182757843 107.98298696184611 818.4243509159068 -1062.5818179829932 0.0 0.0
3327.4612560443643 55.9190990636005 1015.0141065323892 -1147.9027154918758 0.0 0.0
3996.1961320117907 21.89284157943147 1205.4266920773664 -1190.712762510443 0.0 0.0
4661.479289914697 6.2960870069850206 1400.3326130765047 -1208.4869445537038 0.0 0.0
5326.263074079209 0.6262942734298438 1598.0668105057916 -1213.8493018527229 0.0 0.0
5991.3521823301835 -0.9183634737867905 1797.1301456569186 -1214.528130925457 0.0 0.0
6656.797761509691 -0.910884568772893 1996.7660630822747 -1213.9688529084272 0.0 0.0
7322.452119986364 -0.18851417431006112 2196.6790817436167 -1213.7054669686358 0.0 0.0
7988.1472900510125 1.7547852195477525 2396.9706225811683 -1214.9786674619656 0.0 0.0
8653.557009697437 6.507924698780462 2598.0194803188656 -1219.889359524434 0.0 0.0
9318.325749046273 16.029570836038516 2800.3065959646938 -1231.8506191010524 0.0 0.0
9982.857385825027 29.09897071859163 3003.5869069630858 -1253.598396373492 0.0 0.0
10648.66027225576 31.502625383145215 3204.0488692916715 -1278.084439556058 0.0 0.0
11311.176683591855 -18.724319711314088 3387.7357091641634 -1266.4681911852113 0.0 0.0
11930.399471502149 -189.4342132990331 3522.2895774609356 -1120.5511510063393 0.0 0.0
12388.456664929457 -493.21838081635303 3568.571485233931 -703.1107397546026 0.0 0.0
12542.887263289442 -703.4412885444576 3551.8337924234975 -4.675371201301459e-11 0.0 0.0
12388.456664929214 -493.21838081692283 3568.5714852336873 703.1107397546073 0.0 0.0
11930.399471502249 -189.43421329884234 3522.289577461024 1120.5511510062443 0.0 0.0
11311.176683591493 -18.72431971225643 3387.7357091637714 1266.4681911851749 0.0 0.0
10648.66027225543 31.502625382375435 3204.0488692913423 1278.084439556089 0.0 0.0
9982.85738582465 29.098970717831673 3003.586906962746 1253.5983963734152 0.0 0.0
9318.325749046428 16.029570836590327 2800.3065959649066 1231.8506191010679 0.0 0.0
8653.557009697515 6.5079246988801955 2598.019480318919 1219.889359524501 0.0 0.0
7988.147290050816 1.7547852190265516 2396.9706225809523 1214.9786674619506 0.0 0.0
7322.452119986483 -0.1885141738806695 2196.6790817437804 1213.705466968612 0.0 0.0
6656.797761509337 -0.9108845695728078 1996.7660630819294 1213.9688529084353 0.0 0.0
5991.352182330449 -0.9183634731556438 1797.1301456571882 1214.5281309253764 0.0 0.0
5326.263074079241 0.6262942734713306 1598.0668105058132 1213.8493018526533 0.0 0.0
4661.479289914871 6.296087007251984 1400.3326130766363 1208.4869445536733 0.0 0.0
3996.196132011606 21.892841579059017 1205.4266920771993 1190.7127625104788 0.0 0.0
3327.4612560443356 55.91909906360526 1015.0141065323824 1147.902715491879 0.0 0.0
2620.0981827580217 107.98298696217496 818.4243509160593 1062.581817983098 0.0 0.0
1760.445265004425 216.96840505592144 593.2241010181037 943.7702026439073 0.0 0.0
892.03936572955 460.92164922378606 405.88830448600083 1070.446334353208 0.0 0.0
718.0435158721399 -765.1666432646209 -14.136938217744287 1644.3958089340706 0.0 0.0
-2278.470456841452 -9628.821290601198 -3572.187524232794 1593.0368548023093 0.0 0.0
-1853.6157432716252 -8104.822946061335 -2987.531606799889 -1476.9800973632844 0.0 0.0
362.1430991767936 -1188.6773013146603 -247.96026064135984 -1710.746981060155 0.0 0.0
553.7542367910738 357.6685247012007 273.42682844768245 -1353.8876888818404 0.0 0.0
1252.7255830522124 267.9609310603935 456.20595423378194 -1161.164896464855 0.0 0.0
2011.1157065269238 136.92276621437637 644.4115418223901 -1227.4593963003817 0.0 0.0
2632.337049625498 67.66319715755193 810.000074034915 -1301.632888169961 0.0 0.0
3189.2521640300665 27.398218300557474 964.9951146991872 -1341.2728369880579 0.0 0.0
3728.354862253294 7.978995226500869 1120.900157243938 -1358.1111448472868 0.0 0.0
4261.9797018803065 0.8189902769011521 1278.8396076471631 -1363.40491584547 0.0 0.0
4794.1095494506335 -1.1010742301524878 1437.9025425661443 -1364.1596914133836 0.0 0.0
5326.197886230391 -1.1108482843196548 1597.5261113838214 -1363.7007228964767 0.0 0.0
5858.42799735763 -0.21587609982446665 1757.4636363773418 -1363.4968712633704 0.0 0.0
6390.278369356605 2.1859998209478135 1917.7393107532657 -1364.7194549967446 0.0 0.0
6920.411761575377 8.033066435468166 2078.5334484032533 -1369.3045092842808 0.0 0.0
7446.732649647247 19.781606148274832 2239.954276738657 -1380.440691732909 0.0 0.0
7968.1125664153415 36.19393000418414 2401.2919489258575 -1401.0064557461362 0.0 0.0
8488.295180498184 39.90519352667345 2558.4601122074573 -1425.1050180623085 0.0 0.0
9014.441139992643 -22.934267192731348 2697.4520618399733 -1414.5478712856866 0.0 0.0
9527.04629793542 -244.40782790825756 2784.7915410081487 -1262.7743267236065 0.0 0.0
9918.26437935893 -652.507623253827 2779.727026831531 -803.6048689431547 0.0 0.0
10040.711669628488 -947.3108941362887 2728.0202326476606 -8.245137905760203e-11 0.0 0.0
9918.264379358981 -652.5076232537414 2779.727026831573 803.604868943145 0.0 0.0
9527.046297935804 -244.40782790731055 2784.791541008549 1262.7743267235112 0.0 0.0
9014.441139992647 -22.934267192801798 2697.4520618399533 1414.547871285687 0.0 0.0
8488.29518049807 39.90519352644405 2558.460112207355 1425.1050180623006 0.0 0.0
7968.112566415273 36.193930003983155 2401.2919489257783 1401.0064557461558 0.0 0.0
7446.732649646772 19.781606147049658 2239.9542767381463 1380.4406917330314 0.0 0.0
6920.411761575245 8.033066435292845 2078.5334484031605 1369.3045092842729 0.0 0.0
6390.278369356492 2.1859998208822944 1917.7393107532123 1364.719454996709 0.0 0.0
5858.427997357754 -0.21587609956478815 1757.4636363774566 1363.4968712633179 0.0 0.0
5326.1978862299575 -1.1108482855015893 1597.5261113833365 1363.7007228965062 0.0 0.0
4794.109549450774 -1.1010742298368896 1437.9025425662808 1364.1596914134109 0.0 0.0
4261.97970188022 0.8189902767996671 1278.839607647106 1363.4049158454702 0.0 0.0
3728.354862253185 7.978995226411815 1120.900157243879 1358.111144847262 0.0 0.0
3189.2521640301743 27.398218300901636 964.9951146993229 1341.2728369880176 0.0 0.0
2632.3370496251355 67.66319715666476 810.0000740345401 1301.632888169985 0.0 0.0
2011.1157065270288 136.92276621456293 644.4115418224775 1227.4593963004297 0.0 0.0
1252.725583052176 267.96093106021647 456.2059542337178 1161.164896464815 0.0 0.0
553.7542367911255 357.6685247012639 273.4268284477168 1353.8876888819202 0.0 0.0
362.1430991767187 -1188.677301314785 -247.96026064141984 1710.7469810602036 0.0 0.0
-1853.6157432716655 -8104.822946061325 -2987.5316067998974 1476.9800973634385 0.0 0.0
-1492.845577423405 -6781.318675183305 -2482.249275782013 -1353.1285974278164 0.0 0.0
118.00559174736858 -1426.2164987087347 -392.4632720884099 -1725.857484244698 0.0 0.0
271.75104435024383 231.0129861787006 150.82920915868334 -1572.1832045420772 0.0 0.0
796.6755123442828 289.7816389564283 325.9371453902133 -1359.1173094592132 0.0 0.0
1422.8239673962648 162.83020383063112 475.6962513680687 -1373.4385617603346 0.0 0.0
1940.4338538072768 79.03518720290603 605.8407123030549 -1427.7041163792921 0.0 0.0
2382.3588893821766 32.20735513373713 724.3698733547742 -1460.6888845706458 0.0 0.0
2794.956921353072 9.573742283633353 841.3591990910118 -1475.0536528747577 0.0 0.0
3197.3756102120014 1.0297704764491797 959.5216142065351 -1479.7101495665702 0.0 0.0
3596.6617146959147 -1.2555803850529799 1078.6218402932584 -1480.4410068468849 0.0 0.0
3995.4662535495668 -1.2804525460727803 1198.2557403010487 -1480.0978019188847 0.0 0.0
4394.297233167289 -0.23277286800415808 1318.2193380897857 -1479.9529469692163 0.0 0.0
4792.357949584898 2.5775021575250463 1438.4806355227265 -1480.992459807474 0.0 0.0
5187.462174576885 9.378306766591148 1559.0521444030437 -1484.8175881150594 0.0 0.0
5576.003394745057 23.07518934499392 1679.7235752270158 -1494.1496113733012 0.0 0.0
5955.475260981953 42.63465681956225 1799.432975340455 -1511.9816494844324 0.0 0.0
6331.995625995073 48.31998303137182 1914.0946827079333 -1534.7926159627903 0.0 0.0
6725.447369818173 -25.225673412949575 2010.0665089215663 -1528.8145682606187 0.0 0.0
7139.146889751289 -298.4067935852539 2052.22202884981 -1383.3708445917264 0.0 0.0
7472.6128875081395 -826.7284610956293 1993.7653279237534 -898.5814790552556 0.0 0.0
7562.145005601666 -1231.0532328187546 1899.3275318348728 -2.0804691303055733e-11 0.0 0.0
7472.612887508553 -826.7284610948743 1993.765327924104 898.5814790552737 0.0 0.0
7139.146889751334 -298.40679358512847 2052.222028849862 1383.3708445916732 0.0 0.0
6725.447369818425 -25.22567341240267 2010.0665089218064 1528.8145682605104 0.0 0.0
6331.995625995425 48.31998303230064 1914.0946827083178 1534.7926159626834 0.0 0.0
5955.47526098184 42.634656819295586 1799.4329753403408 1511.981649484439 0.0 0.0
5576.003394744835 23.0751893443921 1679.7235752267682 1494.1496113733767 0.0 0.0
5187.462174576715 9.378306766206808 1559.0521444028766 1484.8175881151315 0.0 0.0
4792.357949584941 2.5775021575842914 1438.4806355227572 1480.9924598074867 0.0 0.0
4394.297233167058 -0.23277286865143054 1318.2193380895224 1479.9529469691502 0.0 0.0
3995.466253549808 -1.2804525455962903 1198.255740301263 1480.0978019188356 0.0 0.0
3596.6617146957165 -1.2555803855182575 1078.62184029306 1480.4410068469274 0.0 0.0
3197.3756102119864 1.02977047641647 959.5216142065209 1479.7101495665413 0.0 0.0
2794.9569213528207 9.573742283003897 841.3591990907477 1475.0536528747311 0.0 0.0
2382.35888938225 32.20735513386678 724.369873354835 1460.688884570609 0.0 0.0
1940.4338538072784 79.03518720287346 605.8407123030455 1427.7041163793901 0.0 0.0
1422.8239673962953 162.83020383074413 475.69625136811175 1373.438561760378 0.0 0.0
796.6755123442701 289.7816389563481 325.93714539018555 1359.117309459216 0.0 0.0
271.7510443501672 231.0129861785677 150.82920915862047 1572.1832045421338 0.0 0.0
118.00559174733013 -1426.2164987086987 -392.4632720884108 1725.8574842446822 0.0 0.0
-1492.8455774234214 -6781.318675183323 -2482.2492757820232 1353.128597427877 0.0 0.0
-1195.519129522153 -5628.423849587127 -2047.182893732784 -1233.5038163796162 0.0 0.0
-55.72920777145869 -1525.159018838222 -474.26646798290443 -1703.7222218999577 0.0 0.0
29.26677433540968 107.93166353623218 41.15953136149257 -1724.8819572532022 0.0 0.0
381.8525750220397 287.52391947094225 200.81294834789458 -1524.085448286708 0.0 0.0
856.747472735703 181.14210100104415 311.3668721210243 -1495.6230537431709 0.0 0.0
1254.8465264821243 88.74315216645928 403.076903594575 -1525.3887683842313 0.0 0.0
1576.6085468273059 36.08200642036765 483.807165974302 -1548.644257260696 0.0 0.0
1861.6033572578249 10.866070323388046 561.740828274364 -1559.2742879744483 0.0 0.0
2132.550587968636 1.2273640007345321 640.1333855908113 -1562.7976585378838 0.0 0.0
2399.001596020399 -1.3711223477203056 719.2891421018036 -1563.39384552852 0.0 0.0
2664.583856550037 -1.4095720195998105 798.952285359131 -1563.1704447455986 0.0 0.0
2930.0717302287467 -0.2419262625435472 878.948941189861 -1563.076452088008 0.0 0.0
3194.4802500073956 2.887340856232573 959.2102772590883 -1563.8202835127322 0.0 0.0
3454.9857009830425 10.416037516715548 1039.6205215499272 -1566.5352236450162 0.0 0.0
3706.7308591206884 25.60363226272594 1119.7003474150242 -1573.2644546345114 0.0 0.0
3945.7845108222596 47.87908261632352 1198.0990780315751 -1587.003103200977 0.0 0.0
4180.054770547386 56.43830581811406 1270.94792290965 -1607.6197463853794 0.0 0.0
4442.335821178888 -24.00254746028756 1325.4999821155805 -1609.7411097092115 0.0 0.0
4761.899847612712 -346.1785451484756 1324.7163907392714 -1483.9420231952074 0.0 0.0
5044.62172885709 -1010.9619908936861 1210.0979213890212 -991.3015772832149 0.0 0.0
5096.743212737913 -1558.8916462014304 1061.3554699609454 1.503224211774068e-10 0.0 0.0
5044.62172885742 -1010.9619908929806 1210.0979213893322 991.3015772831739 0.0 0.0
4761.899847612482 -346.1785451490457 1324.7163907390309 1483.9420231951444 0.0 0.0
4442.335821179028 -24.002547459973357 1325.499982115717 1609.741109709123 0.0 0.0
4180.054770547336 56.43830581801263 1270.947922909605 1607.6197463852263 0.0 0.0
3945.784510821946 47.879082615588736 1198.0990780312602 1587.0031032010204 0.0 0.0
3706.7308591209376 25.603632263347563 1119.7003474152855 1573.2644546345373 0.0 0.0
3454.9857009832053 10.416037517082842 1039.620521550086 1566.535223644949 0.0 0.0
3194.480250006946 2.887340855231841 959.2102772586536 1563.82028351275 0.0 0.0
2930.071730228532 -0.24192626315441146 878.9489411896134 1563.0764520881194 0.0 0.0
2664.5838565501613 -1.4095720193835142 798.9522853592337 1563.170444745555 0.0 0.0
2399.0015960204146 -1.3711223475695498 719.2891421018537 1563.3938455284454 0.0 0.0
2132.55058796859 1.2273640006985111 640.1333855907865 1562.7976585378517 0.0 0.0
1861.6033572578565 10.866070323510463 561.7408282744101 1559.2742879745135 0.0 0.0
1576.6085468273718 36.08200642048705 483.80716597435764 1548.644257260636 0.0 0.0
1254.8465264821432 88.74315216644965 403.0769035945779 1525.3887683841806 0.0 0.0
856.7474727357403 181.14210100109918 311.36687212105187 1495.6230537431704 0.0 0.0
381.85257502203746 287.5239194709758 200.81294834790398 1524.0854482867098 0.0 0.0
29.266774335365746 107.93166353617497 41.159531361462214 1724.881957253204 0.0 0.0
-55.729207771409605 -1525.1590188381138 -474.2664679828571 1703.7222218999405 0.0 0.0
-1195.5191295222073 -5628.423849587193 -2047.1828937328205 1233.5038163796482 0.0 0.0
-954.7080502511981 -4619.522796069545 -1672.2692538962226 -1121.267072416154 0.0 0.0
-185.7121550049347 -1524.4505716451902 -513.0488179950373 -1653.4560647208882 0.0 0.0
-185.88814576840284 2.9646891748790214 -54.87703697805718 -1816.4508918155186 0.0 0.0
-1.0993613940596383 268.4802931990256 80.2142795414898 -1648.063641522694 0.0 0.0
311.87928007002114 190.03714882618195 150.5749286688609 -1588.8589561958045 0.0 0.0
577.3803798674779 95.45131420218881 201.84950822090005 -1593.306488993769 0.0 0.0
772.9583058794642 38.7543334169281 243.51379178891767 -1604.7125376058762 0.0 0.0
928.5717849917952 11.725470026542036 282.08917650550114 -1610.6460403120661 0.0 0.0
1067.5820593234514 1.371765358142234 320.6861474044782 -1612.6705452471383 0.0 0.0
1201.1314612451802 -1.441233608675848 359.90706829095114 -1613.0370209223179 0.0 0.0
1333.5386079663754 -1.4908370035019622 399.6143312888621 -1612.9309563634638 0.0 0.0
1465.7621655441133 -0.2470749096868694 439.6545271903279 -1612.8794233121812 0.0 0.0
1596.715348076585 3.082350890879379 479.9393096902393 -1613.2471959379966 0.0 0.0
1723.1877977995844 11.054908485164521 520.2728118854246 -1614.611505809506 0.0 0.0
1839.3910623072666 27.14135959255009 559.9597265699452 -1618.1685980426869 0.0 0.0
1939.801597390571 51.4397400998899 597.3724012471381 -1626.6665134032132 0.0 0.0
2032.8129391535529 63.81293740436155 628.9877629673744 -1643.9215289394817 0.0 0.0
2163.295016221489 -17.856619551858913 643.6315190008889 -1656.9452962228975 0.0 0.0
2390.5311420800367 -381.8246902120174 602.6119355604056 -1564.8261297968024 0.0 0.0
2627.941807654195 -1199.1980731115423 428.6231203627958 -1084.7954877312748 0.0 0.0
2633.3421423690233 -1938.2323085734297 208.53295013867813 2.6858515411731787e-11 0.0 0.0
2627.9418076539573 -1199.1980731119463 428.62312036260334 1084.7954877311847 0.0 0.0
2390.531142080272 -381.8246902115294 602.6119355606228 1564.8261297967424 0.0 0.0
2163.295016221217 -17.85661955244671 643.6315190006311 1656.9452962228816 0.0 0.0
2032.8129391534171 63.81293740414716 628.9877629672692 1643.9215289394942 0.0 0.0
1939.8015973909514 51.43974010067083 597.3724012474867 1626.6665134033979 0.0 0.0
1839.39106230716 27.141359592246026 559.9597265698218 1618.168598042636 0.0 0.0
1723.1877977999932 11.054908486180562 520.2728118858521 1614.6115058094842 0.0 0.0
1596.715348076235 3.0823508900221164 479.9393096898771 1613.2471959380036 0.0 0.0
1465.762165544413 -0.24707490905151275 439.65452719060835 1612.8794233123176 0.0 0.0
1333.53860796627 -1.4908370037412055 399.6143312887586 1612.9309563634654 0.0 0.0
1201.1314612454262 -1.441233608103552 359.9070682911967 1613.0370209222021 0.0 0.0
1067.5820593233725 1.3717653578591396 320.6861474043696 1612.6705452471656 0.0 0.0
928.571784991932 11.725470026833968 282.08917650562984 1610.6460403121096 0.0 0.0
772.9583058795441 38.754333417144444 243.51379178900658 1604.7125376058757 0.0 0.0
577.3803798673448 95.45131420186152 201.8495082207619 1593.3064889937586 0.0 0.0
311.8792800701582 190.0371488265131 150.57492866900137 1588.8589561959336 0.0 0.0
-1.0993613939421607 268.4802931993178 80.21427954161275 1648.0636415226631 0.0 0.0
-185.88814576834827 2.964689175009333 -54.87703697800168 1816.4508918154445 0.0 0.0
-185.71215500490865 -1524.4505716451458 -513.0488179950163 1653.4560647208111 0.0 0.0
-954.708050251214 -4619.5227960695765 -1672.269253896237 1121.2670724161176 0.0 0.0
-762.1350197416829 -3733.438461567961 -1348.672044392893 -1015.6732139228194 0.0 0.0
-288.97418744465176 -1454.606053915415 -523.0740724080201 -1580.651124253812 0.0 0.0
-382.43134964305193 -77.42757006208457 -137.95767591154097 -1852.7637281750722 0.0 0.0
-359.97878681706726 239.55354332033272 -36.12757304902032 -1727.0180400037796 0.0 0.0
-214.09146074552257 189.58497802521615 -7.351944816091915 -1648.6874951837074 0.0 0.0
-91.29886217746703 98.23879280976413 2.081979189689111 -1629.6804417149788 0.0 0.0
-27.937901094792167 39.95911556597673 3.6063643413553805 -1628.3301411222033 0.0 0.0
-3.923238702667092 12.079900082396557 2.446998413918841 -1628.9926955834906 0.0 0.0
2.521700139168672 1.4350234482288435 1.187017076219206 -1629.307550525426 0.0 0.0
3.0554006509096325 -1.4643654884120494 0.4773105487492728 -1629.3860467507368 0.0 0.0
2.324147195095378 -1.5193702237829854 0.2414330913937448 -1629.3933510881043 0.0 0.0
1.3754919025519428 -0.2509009044544541 0.3373772994292423 -1629.380238478003 0.0 0.0
-0.8961534728360903 3.1407753956503974 0.673386576844301 -1629.3323008583695 0.0 0.0
-7.812944802828866 11.244665960771403 1.0295163473827387 -1629.2300415280035 0.0 0.0
-25.682640063383218 27.56676455223768 0.5652373466563887 -1629.3171112980085 0.0 0.0
-61.77030944400235 52.91269842424418 -2.657283305927379 -1631.7093606085573 0.0 0.0
-109.17508735377734 69.74489278614536 -11.829058370289559 -1644.010711941542 0.0 0.0
-113.19950182940983 -5.920810581420767 -35.73609372324918 -1669.2180401455569 0.0 0.0
20.32705342826813 -398.840026351629 -113.55389187700828 -1624.8936941722184 0.0 0.0
216.7691778153669 -1383.4238137379039 -349.9963907767612 -1181.9405429697297 0.0 0.0
159.2129967254331 -2380.5997900226807 -666.4160379891746 -3.865352482534945e-12 0.0 0.0
216.7691778149558 -1383.4238137388488 -349.9963907771679 1181.9405429697908 0.0 0.0
20.327053428436557 -398.8400263513031 -113.55389187686 1624.8936941721786 0.0 0.0
-113.19950182924299 -5.920810581038587 -35.73609372308452 1669.2180401454611 0.0 0.0
-109.17508735370572 69.74489278633081 -11.829058370212465 1644.010711941526 0.0 0.0
-61.770309443667884 52.912698425102946 -2.6572833055694645 1631.7093606085916 0.0 0.0
-25.682640063554402 27.566764551741613 0.5652373464562004 1629.3171112980117 0.0 0.0
-7.81294480271751 11.24466596085962 1.029516347442609 1629.2300415280586 0.0 0.0
-0.8961534730954952 3.1407753951702233 0.6733865766224483 1629.3323008583423 0.0 0.0
1.3754919028827146 -0.2509009036412948 0.3373772997724487 1629.380238478064 0.0 0.0
2.324147194929594 -1.5193702241678295 0.24143309122848677 1629.3933510881523 0.0 0.0
3.055400650834457 -1.4643654886037183 0.47731054866921596 1629.3860467507093 0.0 0.0
2.5217001389043503 1.4350234475626387 1.1870170759401262 1629.3075505254826 0.0 0.0
-3.9232387027159206 12.079900082307162 2.4469984138773775 1628.9926955834264 0.0 0.0
-27.937901094900695 39.95911556570579 3.606364341241555 1628.3301411221266 0.0 0.0
-91.29886217734976 98.23879280994241 2.0819791897777833 1629.680441714989 0.0 0.0
-214.09146074541326 189.58497802547845 -7.351944815980421 1648.6874951838315 0.0 0.0
-359.97878681714275 239.55354332026235 -36.12757304906411 1727.0180400037418 0.0 0.0
-382.4313496430542 -77.42757006199666 -137.95767591151534 1852.7637281750633 0.0 0.0
-288.97418744468314 -1454.6060539154485 -523.0740724080393 1580.6511242537786 0.0 0.0
-762.1350197416444 -3733.4384615679187 -1348.6720443928693 1015.6732139228593 0.0 0.0
-610.1980840557064 -2954.746338499381 -1069.4833267665263 -914.4314853798111 0.0 0.0
-376.17051617653135 -1338.8995829577805 -514.5210297402936 -1488.5346751746554 0.0 0.0
-566.4287117731407 -131.73791394156643 -209.44998771441217 -1839.5556127632658 0.0 0.0
-700.98026609846 206.2501645968682 -148.4190304504776 -1759.4514037574304 0.0 0.0
-724.0112198866464 180.91854776233973 -162.92780163729208 -1671.6306265535572 0.0 0.0
-751.414928860684 96.73445890033004 -196.40414098810612 -1632.6274320670132 0.0 0.0
-825.8019548278058 39.52052928148056 -235.8844276638976 -1618.8244983373804 0.0 0.0
-935.7647260191602 11.901694846885642 -277.1589093516823 -1614.1098276556588 0.0 0.0
-1062.6066670574837 1.407202077052382 -318.3598394941295 -1612.6745500045106 0.0 0.0
-1195.2241575653863 -1.4411955762024462 -358.99960594247676 -1612.4536994847144 0.0 0.0
-1329.0616710477848 -1.4932667413913592 -399.1664813367528 -1612.5726526690462 0.0 0.0
-1463.0865090410166 -0.2535667533591308 -439.0020227383127 -1612.6002934145765 0.0 0.0
-1598.3447973572488 3.0543126049718268 -478.5871454256832 -1612.1423146398372 0.0 0.0
-1737.9939234712651 10.974093488742366 -518.105948994757 -1610.5854664519748 0.0 0.0
-1888.3350462911967 26.878815837994736 -558.4368691359606 -1607.2017013435104 0.0 0.0
-2058.302863096979 52.04499551478855 -601.8773602746571 -1603.0346392378356 0.0 0.0
-2244.981554211743 73.22418543162156 -651.5272106340362 -1608.3720076754073 0.0 0.0
-2388.0839369342993 11.672882390340689 -712.9233163631877 -1644.6338305617164 0.0 0.0
-2353.31345454547 -390.3120991342382 -823.0876661039127 -1661.1732833793887 0.0 0.0
-2194.022702498591 -1552.2857543442076 -1123.8925370528395 -1285.3977597184437 0.0 0.0
-2341.0949703759743 -2903.050921753663 -1573.243767638891 2.8535396268125623e-11 0.0 0.0
-2194.0227024990013 -1552.2857543452233 -1123.8925370532672 1285.397759718444 0.0 0.0
-2353.31345454538 -390.3120991339361 -823.0876661037948 1661.1732833793267 0.0 0.0
-2388.0839369345767 11.672882389702842 -712.9233163634624 1644.6338305618121 0.0 0.0
-2244.9815542121496 73.22418543070086 -651.5272106344347 1608.3720076754819 0.0 0.0
-2058.302863096562 52.0449955157453 -601.8773602742452 1603.0346392377114 0.0 0.0
-1888.3350462914725 26.8788158371336 -558.4368691363018 1607.2017013433829 0.0 0.0
-1737.9939234712106 10.974093488850245 -518.1059489947082 1610.5854664519202 0.0 0.0
-1598.3447973576567 3.0543126041614457 -478.58714542604866 1612.1423146398104 0.0 0.0
-1463.0865090406348 -0.25356675241461346 -439.00202273791473 1612.6002934146318 0.0 0.0
-1329.061671048169 -1.4932667422543169 -399.16648133712715 1612.572652669055 0.0 0.0
-1195.2241575656103 -1.4411955765464128 -358.9996059426469 1612.4536994847379 0.0 0.0
-1062.6066670577616 1.4072020766226654 -318.35983949434154 1612.6745500043664 0.0 0.0
-935.7647260189576 11.901694847328343 -277.15890935148883 1614.109827655723 0.0 0.0
-825.8019548278975 39.520529281082965 -235.88442766404427 1618.8244983373397 0.0 0.0
-751.4149288603421 96.73445890103778 -196.40414098779127 1632.6274320669893 0.0 0.0
-724.011219886685 180.91854776228183 -162.92780163732093 1671.6306265535572 0.0 0.0
-700.9802660985841 206.25016459669158 -148.41903045056776 1759.4514037575123 0.0 0.0
-566.4287117731557 -131.73791394152386 -209.44998771440385 1839.5556127633015 0.0 0.0
-376.17051617654556 -1338.899582957793 -514.5210297403015 1488.5346751747365 0.0 0.0
-610.1980840556938 -2954.7463384993694 -1069.483326766519 914.4314853799087 0.0 0.0
-492.644516637685 -2273.312642623259 -829.7871477782832 -814.8518086797517 0.0 0.0
-453.6232439880568 -1194.7737078536027 -494.519085552498 -1378.8462394851933 0.0 0.0
-741.8694464698992 -161.35017609510226 -270.96588676950046 -1781.8214049641813 0.0 0.0
-1028.8160461935586 172.44403013530373 -256.91160481747636 -1745.3027470883476 0.0 0.0
-1220.818069929154 165.63879051429367 -316.5537838244581 -1655.1304325851765 0.0 0.0
-1403.841468151128 91.08315842614319 -393.82749291749565 -1600.3708247427796 0.0 0.0
-1620.7370919095981 37.41777898848335 -474.99579387633435 -1575.4813835841787 0.0 0.0
-1866.9585762579482 11.207850797742765 -556.7252176380616 -1565.7844885838028 0.0 0.0
-2127.809641872165 1.2950949954529563 -637.9543640630136 -1562.7358181331697 0.0 0.0
-2393.7070480769435 -1.3727189809015314 -718.5239301173534 -1562.2520484568963 0.0 0.0
-2660.6174617684132 -1.4139062352465217 -798.6094104010979 -1562.484004667758 0.0 0.0
-2927.6280496799554 -0.25245623750476653 -878.364151775238 -1562.5602965912221 0.0 0.0
-3195.650711375697 2.8307393184513288 -957.8459916171738 -1561.7439568256414 0.0 0.0
-3467.4280311307343 10.263116700861985 -1037.1494743289613 -1558.867781498438 0.0 0.0
-3748.631947113992 25.194596632553235 -1117.0312051444316 -1552.3035992120374 0.0 0.0
-4049.3169447982073 48.84655252223914 -1200.14111768279 -1541.704350051589 0.0 0.0
-4373.175637325895 72.9887729330045 -1290.0560593178675 -1537.941196769785 0.0 0.0
-4661.29599351594 33.202655893796006 -1388.428001286643 -1580.8372780668178 0.0 0.0
-4734.776783284185 -349.47552985773973 -1525.275693942577 -1668.2751015198598 0.0 0.0
-4608.571125025583 -1689.0934163131128 -1889.299362401609 -1397.2965908550325 0.0 0.0
-4887.429942576749 -3530.2045208278714 -2525.2903390213864 2.2424728740588762e-11 0.0 0.0
-4608.571125025618 -1689.0934163132306 -1889.2993624016547 1397.2965908549822 0.0 0.0
-4734.7767832841555 -349.4755298578167 -1525.2756939425917 1668.2751015197894 0.0 0.0
-4661.295993515748 33.202655894092786 -1388.4280012864963 1580.8372780667905 0.0 0.0
-4373.17563732631 72.98877293202702 -1290.0560593182852 1537.941196769755 0.0 0.0
-4049.3169447980486 48.8465525226853 -1200.141117682609 1541.7043500515974 0.0 0.0
-3748.6319471141223 25.194596632092697 -1117.031205144609 1552.3035992121013 0.0 0.0
-3467.4280311304174 10.263116701526187 -1037.149474328667 1558.8677814983623 0.0 0.0
-3195.6507113759894 2.830739317867625 -957.8459916174364 1561.7439568255045 0.0 0.0
-2927.6280496796635 -0.2524562368419545 -878.3641517749518 1562.5602965912553 0.0 0.0
-2660.617461768355 -1.4139062351736165 -798.6094104010587 1562.4840046677439 0.0 0.0
-2393.707048077031 -1.3727189811240237 -718.5239301174466 1562.2520484568804 0.0 0.0
-2127.8096418720074 1.2950949957676254 -637.9543640628718 1562.7358181331085 0.0 0.0
-1866.958576257945 11.207850797761212 -556.7252176380553 1565.7844885838128 0.0 0.0
-1620.7370919093955 37.41777898906743 -474.9957938760985 1575.4813835841665 0.0 0.0
-1403.841468151053 91.08315842627965 -393.8274929174321 1600.3708247427396 0.0 0.0
-1220.8180699291722 165.63879051416353 -316.5537838245026 1655.1304325851395 0.0 0.0
-1028.816046193545 172.4440301353441 -256.91160481746016 1745.3027470884117 0.0 0.0
-741.8694464699194 -161.35017609520494 -270.9658867695374 1781.8214049642515 0.0 0.0
-453.62324398799586 -1194.7737078535224 -494.5190855524555 1378.8462394852315 0.0 0.0
-492.6445166377371 -2273.3126426232707 -829.7871477783025 814.851808679739 0.0 0.0
-404.60366614071404 -1683.5485218040785 -626.4456563834378 -714.4356653812919 0.0 0.0
-524.5570985024656 -1035.1162170696693 -467.9019946716404 -1252.4867860805678 0.0 0.0
-911.0332740140102 -169.282357245041 -324.09468937771544 -1683.6363758083266 0.0 0.0
-1346.8856450472347 140.48454223184896 -361.92033084461565 -1685.1466690647062 0.0 0.0
-1707.3198600795797 145.46381520230392 -468.5568134631827 -1597.344551037103 0.0 0.0
-2049.9166625080175 81.8524121107569 -590.4192751191777 -1531.3673325434938 0.0 0.0
-2413.195844998054 33.811330744941905 -713.8153542759336 -1497.6244701117141 0.0 0.0
-2797.6421071260397 10.064223406458552 -836.2733651158746 -1483.8194306619848 0.0 0.0
-3193.125036869216 1.1188370503534415 -957.6018599456588 -1479.4639500750422 0.0 0.0
-3592.3942772130094 -1.2601329910259054 -1078.0963230612106 -1478.794920870185 0.0 0.0
-3992.337668782819 -1.2860148137546972 -1198.0871050789722 -1479.1419088850291 0.0 0.0
-4392.259439365227 -0.24383032542318972 -1317.7509809071944 -1479.2767390181816 0.0 0.0
-4792.860862908277 2.4973437053183574 -1437.1090557608877 -1478.1947980057514 0.0 0.0
-5196.269199934286 9.156104373582345 -1556.1339286682116 -1474.2526311383265 0.0 0.0
-5606.898412930075 22.70839497420657 -1675.2570053867607 -1465.0429605953857 0.0 0.0
-6034.640772554689 43.7271002015073 -1797.2741017059545 -1448.8578661149106 0.0 0.0
-6491.768848584501 67.8152410328234 -1927.1860822655035 -1434.441464723924 0.0 0.0
-6931.193857406624 54.65181916610431 -2062.962611472156 -1475.6826697307738 0.0 0.0
-7128.029853967902 -270.9821338068383 -2219.7035963324233 -1637.6064070627892 0.0 0.0
-7029.428950512538 -1768.8337078230302 -2639.4787975006707 -1518.412814385325 0.0 0.0
-7506.551552261671 -4297.025655427926 -3541.0731623068787 -6.30961949354969e-11 0.0 0.0
-7029.428950512467 -1768.8337078229365 -2639.4787975006207 1518.4128143852272 0.0 0.0
-7128.0298539684245 -270.98213380813723 -2219.7035963329686 1637.6064070628643 0.0 0.0
-6931.193857406615 54.65181916624658 -2062.962611472111 1475.682669730799 0.0 0.0
-6491.768848584293 67.81524103336152 -1927.1860822652795 1434.4414647239346 0.0 0.0
-6034.640772554336 43.72710020209008 -1797.2741017056742 1448.8578661148676 0.0 0.0
-5606.898412929962 22.708394974321365 -1675.2570053866925 1465.042960595381 0.0 0.0
-5196.269199934246 9.156104373794694 -1556.1339286681352 1474.2526311382217 0.0 0.0
-4792.860862908273 2.497343705363729 -1437.109055760873 1478.1947980057557 0.0 0.0
-4392.2594393649915 -0.2438303249567575 -1317.7509809069848 1479.2767390182883 0.0 0.0
-3992.3376687828654 -1.2860148139260197 -1198.087105079037 1479.141908885052 0.0 0.0
-3592.3942772129585 -1.2601329908580094 -1078.0963230611449 1478.7949208701177 0.0 0.0
-3193.125036869095 1.118837050671761 -957.6018599455269 1479.4639500750243 0.0 0.0
-2797.642107126222 10.064223405973728 -836.2733651160745 1483.8194306619746 0.0 0.0
-2413.195844997946 33.811330745204316 -713.8153542758225 1497.6244701117448 0.0 0.0
-2049.9166625080675 81.85241211069504 -590.4192751192119 1531.3673325435316 0.0 0.0
-1707.3198600795963 145.4638152022436 -468.55681346320574 1597.3445510370707 0.0 0.0
-1346.885645047282 140.48454223177924 -361.92033084465083 1685.1466690647153 0.0 0.0
-911.0332740140556 -169.28235724509216 -324.0946893777444 1683.6363758083126 0.0 0.0
-524.5570985024519 -1035.1162170696066 -467.9019946716177 1252.486786080513 0.0 0.0
-404.60366614070864 -1683.5485218040199 -626.4456563834185 714.4356653812583 0.0 0.0
-342.27658494536075 -1183.5632787778109 -457.75195911695135 -611.2584487020116 0.0 0.0
-589.7666369557797 -869.3279016746463 -437.7283615891279 -1110.0164555699803 0.0 0.0
-1074.6777681476374 -159.51562066449387 -370.2580166436394 -1548.1195725142525 0.0 0.0
-1657.4450442325885 111.44755395533076 -463.7992470831775 -1579.5992440262196 0.0 0.0
-2186.128042715822 122.08167464128023 -619.2139104223627 -1496.9108375043381 0.0 0.0
-2691.322976399223 69.93587269970772 -786.4161311098545 -1424.3744816350347 0.0 0.0
-3203.930441873438 29.03434354379035 -952.4688294988941 -1384.6898956710863 0.0 0.0
-3728.075441286451 8.585394071097355 -1115.8470141646062 -1368.0605161842552 0.0 0.0
-4258.61867070284 0.9078777031642282 -1277.3132378999032 -1362.848758343263 0.0 0.0
-4791.2857868229685 -1.1063344191834474 -1437.7176363726462 -1362.1000141670404 0.0 0.0
-5324.2107604796565 -1.1171817815649163 -1597.5983826783665 -1362.559305141014 0.0 0.0
-5856.995316998761 -0.22640739475698268 -1757.1665173180559 -1362.7598721374284 0.0 0.0
-6390.048903671835 2.1008889762583394 -1916.3844044086732 -1361.531561414986 0.0 0.0
-6924.723367635243 7.73273177255313 -2075.097190758807 -1356.8941987589524 0.0 0.0
-7463.723268762977 19.59907322462751 -2233.2372586615047 -1345.7536869072974 0.0 0.0
-8014.675309632278 37.572514953256 -2393.130838403706 -1325.507130390677 0.0 0.0
-8598.33779459913 57.21831931368531 -2562.335842585634 -1300.6497700159366 0.0 0.0
-9193.724564761074 69.0599440262139 -2737.3993862204575 -1328.5346176588873 0.0 0.0
-9536.20866801426 -153.5723024348907 -2906.9342911347458 -1556.5022074458655 0.0 0.0
-9456.514463808464 -1753.7618274143424 -3363.0828873668424 -1646.2649069838637 0.0 0.0
-10235.996949208426 -5252.384613503217 -4646.514468813493 -1.4210854715202004e-11 0.0 0.0
-9456.51446380852 -1753.7618274146898 -3363.0828873669634 1646.2649069838828 0.0 0.0
-9536.208668014351 -153.57230243520263 -2906.9342911348667 1556.502207445727 0.0 0.0
-9193.724564761093 69.0599440262728 -2737.399386220446 1328.5346176589446 0.0 0.0
-8598.337794599223 57.21831931355527 -2562.3358425857004 1300.6497700161005 0.0 0.0
-8014.675309631758 37.57251495435415 -2393.130838403221 1325.5071303908087 0.0 0.0
-7463.723268762502 19.59907322561191 -2233.2372586610672 1345.7536869072585 0.0 0.0
-6924.723367635574 7.732731771823943 -2075.097190759125 1356.8941987589271 0.0 0.0
-6390.048903671769 2.10088897648604 -1916.3844044085852 1361.5315614150543 0.0 0.0
-5856.995316998631 -0.22640739434118728 -1757.1665173178917 1362.7598721374561 0.0 0.0
-5324.210760479833 -1.1171817818527252 -1597.598382678506 1362.5593051409821 0.0 0.0
-4791.285786822612 -1.106334418354587 -1437.7176363722901 1362.100014167067 0.0 0.0
-4258.618670702833 0.9078777030720495 -1277.3132378999283 1362.8487583433628 0.0 0.0
-3728.075441286584 8.585394070770644 -1115.8470141647442 1368.0605161843168 0.0 0.0
-3203.930441873322 29.034343543998194 -952.4688294987973 1384.689895671043 0.0 0.0
-2691.3229763993486 69.93587269929843 -786.416131110015 1424.3744816349395 0.0 0.0
-2186.128042715763 122.08167464132458 -619.2139104223317 1496.9108375043115 0.0 0.0
-1657.4450442326288 111.44755395528672 -463.79924708320266 1579.5992440262876 0.0 0.0
-1074.6777681476647 -159.51562066446837 -370.2580166436398 1548.1195725142438 0.0 0.0
-589.7666369558116 -869.3279016746493 -437.7283615891382 1110.0164555699837 0.0 0.0
-342.27658494541237 -1183.5632787778177 -457.751959116969 611.2584487020291 0.0 0.0
-302.3538763318724 -774.2187873528934 -322.9717991054298 -504.36513904152946 0.0 0.0
-647.84874554886 -704.2417460185698 -405.62714747022903 -952.0692106968493 0.0 0.0
-1232.0616275973582 -136.75244997163907 -410.6442232706992 -1377.3639396237613 0.0 0.0
-1961.7682263485426 85.46078471767188 -562.8922324892611 -1428.8402131220182 0.0 0.0
-2659.7110581829625 97.16124740472944 -768.7649432334698 -1352.746794703227 0.0 0.0
-3330.0272607542474 56.471336357219954 -982.0667773191082 -1278.4905624268026 0.0 0.0
-3993.9354732189463 23.559352024809957 -1191.112836358241 -1236.288169332083 0.0 0.0
-4658.618362230323 6.926905397480034 -1395.5074370498533 -1218.4237063663775 0.0 0.0
-5324.376188264083 0.6960412818589958 -1597.104044094667 -1212.9049289761465 0.0 0.0
-5990.376984160804 -0.918598883821133 -1797.3886749133878 -1212.190478875149 0.0 0.0
-6656.2174952975965 -0.9173228263994488 -1997.1404454371998 -1212.7458795224247 0.0 0.0
-7321.848436990013 -0.20276033277263394 -2196.615359196836 -1213.0135645560615 0.0 0.0
-7987.320111139074 1.6913705129196117 -2395.688622187846 -1211.7608882962047 0.0 0.0
-8653.018993755659 6.15343959970221 -2594.059666246787 -1206.9003020042287 0.0 0.0
-9319.874695138868 15.926135003850867 -2791.1845680405054 -1194.7303945212125 0.0 0.0
-9990.76031156338 31.53747432639019 -2987.7668511710967 -1172.2272813305328 0.0 0.0
-10690.53591422101 42.75364083384309 -3194.3346820161496 -1140.22265868188 0.0 0.0
-11441.24824144318 66.54486007234294 -3412.411014411251 -1142.6843767997848 0.0 0.0
-11960.787818654682 -5.462962967046053 -3589.875234486518 -1407.8641002776094 0.0 0.0
-11885.328932363283 -1587.1269374309634 -4041.736760938275 -1770.7904302376912 0.0 0.0
-13130.135808980862 -6462.911869290511 -5877.914303481412 6.139089236967266e-12 0.0 0.0
-11885.328932363524 -1587.1269374314663 -4041.7367609384974 1770.790430237756 0.0 0.0
-11960.787818654686 -5.462962967114372 -3589.87523448654 1407.8641002775526 0.0 0.0
-11441.248241443158 66.54486007254576 -3412.4110144111833 1142.6843767999726 0.0 0.0
-10690.53591422148 42.75364083277313 -3194.3346820166125 1140.2226586820598 0.0 0.0
-9990.760311563134 31.537474326851367 -2987.766851170884 1172.2272813305917 0.0 0.0
-9319.874695138666 15.926135004435675 -2791.1845680402685 1194.730394521102 0.0 0.0
-8653.018993755686 6.153439599569747 -2594.059666246835 1206.9003020042135 0.0 0.0
-7987.32011113901 1.6913705129724548 -2395.6886221878117 1211.7608882962036 0.0 0.0
-7321.848436989874 -0.2027603323078253 -2196.6153591966554 1213.013564556004 0.0 0.0
-6656.217495297489 -0.9173228262468474 -1997.140445437121 1212.7458795224363 0.0 0.0
-5990.376984160642 -0.9185988836065366 -1797.3886749132744 1212.190478875135 0.0 0.0
-5324.376188264049 0.6960412819828488 -1597.1040440946197 1212.904928976082 0.0 0.0
-4658.618362230579 6.926905397030175 -1395.5074370500645 1218.4237063663259 0.0 0.0
-3993.935473218763 23.559352025335894 -1191.1128363580283 1236.2881693320455 0.0 0.0
-3330.0272607544644 56.47133635669381 -982.0667773193309 1278.4905624267403 0.0 0.0
-2659.71105818301 97.1612474045899 -768.7649432335261 1352.7467947033003 0.0 0.0
-1961.7682263485358 85.46078471771592 -562.8922324892459 1428.840213121939 0.0 0.0
-1232.0616275973093 -136.7524499715561 -410.6442232706596 1377.3639396238048 0.0 0.0
-647.848745548841 -704.2417460185833 -405.62714747022716 952.0692106968044 0.0 0.0
-302.35387633186446 -774.2187873528844 -322.9717991054246 504.3651390415961 0.0 0.0
-281.064626776718 -457.9471180972056 -221.70352346217703 -394.3851086232559 0.0 0.0
-695.0574185641333 -545.0577724874748 -372.0345573154824 -779.7343094168551 0.0 0.0
-1380.8065691223371 -106.49376089077583 -446.1900990039338 -1172.174918347771 0.0 0.0
-2260.3244911759534 62.1284262596572 -659.4588194748889 -1232.1899657460974 0.0 0.0
-3130.5555221855675 72.47785265405459 -917.4233008594537 -1163.9328107219721 0.0 0.0
-3968.266662952409 42.76576386297129 -1177.6502697268318 -1093.189912323105 0.0 0.0
-4784.384460728478 17.950747592466836 -1429.9301139408035 -1052.2514307408112 0.0 0.0
-5589.696209563254 5.2698145021337695 -1675.327918518336 -1034.9184993059214 0.0 0.0
-6390.490299822048 0.5146766412377914 -1916.9926869542437 -1029.6774860468736 0.0 0.0
-7189.6531937992195 -0.7106240315275585 -2157.109145349224 -1029.0955791898332 0.0 0.0
-7988.331421526123 -0.7021887229500692 -2396.7100830747213 -1029.707063441708 0.0 0.0
-8786.818477873094 -0.16870146008281495 -2636.096153799953 -1030.0309521109282 0.0 0.0
-9584.810211647227 1.2807913489484264 -2875.058826089483 -1028.870926129082 0.0 0.0
-10381.42576125011 4.701373441012748 -3113.0173163427285 -1024.2601944826256 0.0 0.0
-11176.055025716798 11.72185625308775 -3349.299950839113 -1012.3335247410557 0.0 0.0
-11965.51267743853 26.145934266252304 -3581.810022951684 -989.0421052426714 0.0 0.0
-12767.43257429583 29.80264912630252 -3821.288977550858 -956.253686512006 0.0 0.0
-13660.939290140002 36.857403111264716 -4087.2245661086226 -929.1820686969993 0.0 0.0
-14399.874782081422 145.0275794671731 -4276.454160784276 -1172.5100914133639 0.0 0.0
-14304.017965868494 -1185.096301875839 -4646.7342803233005 -1864.2952775948897 0.0 0.0
-16269.779680801923 -8014.980061684982 -7285.42792274607 1.5347723092418164e-11 0.0 0.0
-14304.017965868872 -1185.0963018766497 -4646.734280323655 1864.2952775950077 0.0 0.0
-14399.874782081532 145.02757946687487 -4276.454160784398 1172.5100914133095 0.0 0.0
-13660.939290140468 36.85740311007046 -4087.2245661091206 929.1820686970386 0.0 0.0
-12767.432574295704 29.802649126735442 -3821.28897755069 956.253686512146 0.0 0.0
-11965.512677438439 26.14593426626345 -3581.810022951653 989.0421052427046 0.0 0.0
-11176.055025717274 11.721856251884033 -3349.299950839617 1012.3335247411281 0.0 0.0
-10381.425761249962 4.701373441551366 -3113.0173163425234 1024.260194482769 0.0 0.0
-9584.810211647244 1.2807913489000669 -2875.058826089503 1028.8709261290821 0.0 0.0
-8786.818477873097 -0.16870146014233178 -2636.0961537999715 1030.0309521108845 0.0 0.0
-7988.3314215257105 -0.7021887220359186 -2396.710083074324 1029.7070634416489 0.0 0.0
-7189.653193799458 -0.7106240322194965 -2157.1091453495033 1029.0955791898748 0.0 0.0
-6390.490299821882 0.5146766415542814 -1916.9926869540982 1029.6774860467997 0.0 0.0
-5589.696209563162 5.269814502396255 -1675.3279185182291 1034.9184993058866 0.0 0.0
-4784.384460728534 17.950747592322212 -1429.9301139408642 1052.2514307407791 0.0 0.0
-3968.2666629522932 42.76576386318625 -1177.6502697267326 1093.1899123231378 0.0 0.0
-3130.5555221856075 72.47785265399922 -917.4233008594824 1163.932810722022 0.0 0.0
-2260.324491175893 62.12842625986001 -659.45881947481 1232.1899657460453 0.0 0.0
-1380.8065691222494 -106.49376089056119 -446.19009900384316 1172.1749183476995 0.0 0.0
-695.0574185641798 -545.0577724874923 -372.0345573155017 779.7343094168015 0.0 0.0
-281.064626776761 -457.9471180971915 -221.70352346218576 394.3851086232249 0.0 0.0
-272.5569024162203 -237.0274843390167 -152.8753160265711 -284.65787721043625 0.0 0.0
-724.7719360921478 -396.60497569883864 -336.41307353729604 -594.9219489348466 0.0 0.0
-1516.5880147186137 -75.32657954172706 -477.57437827810213 -931.3971432883128 0.0 0.0
-2553.029879324633 41.167214084623225 -753.5587995720031 -987.7456320365624 0.0 0.0
-3601.4416068191413 50.08962256257131 -1065.4055952769713 -929.7262938416667 0.0 0.0
-4608.554132844136 30.20804395154601 -1373.5038266677768 -868.3583323260428 0.0 0.0
-5576.557752559524 12.815003758174036 -1669.1228246404046 -832.6691815704773 0.0 0.0
-6521.75872364381 3.7977238925520567 -1955.3882999253774 -817.6647621553084 0.0 0.0
-7457.044304341322 0.38278530679370704 -2236.998455710359 -813.2446651283675 0.0 0.0
-8389.082377135192 -0.5010334159210501 -2516.8750231653344 -812.8480750061227 0.0 0.0
-9320.518464141212 -0.5025561771024556 -2796.3063060954955 -813.4488099128063 0.0 0.0
-10251.89330992124 -0.10230866872391431 -3075.5986855769893 -813.7783979908689 0.0 0.0
-11182.62806411878 0.8494958762427842 -3354.533570472762 -812.8600030878705 0.0 0.0
-12110.405597576508 3.58457183249714 -3632.046307723204 -808.8102936138537 0.0 0.0
-13032.522124688316 7.744269256727009 -3907.4333566294763 -798.7916716797226 0.0 0.0
-13942.593363769329 19.506517372914857 -4176.926053918924 -776.4409324493205 0.0 0.0
-14832.614779624171 27.93245333657137 -4441.404697886278 -747.5181934382455 0.0 0.0
-15832.801774065645 -20.219666594648643 -4755.906432198086 -710.1983587088625 0.0 0.0
-16844.580030216424 228.96162570317784 -4984.685521353973 -842.0476649783774 0.0 0.0
-16688.75018835743 -429.5775193659044 -5135.498312316999 -1856.8370327180094 0.0 0.0
-19777.487410217986 -10007.102356844749 -8935.376930118826 -6.252776074688882e-12 0.0 0.0
-16688.750188357357 -429.5775193655943 -5135.498312316885 1856.8370327180178 0.0 0.0
-16844.580030216406 228.96162570318143 -4984.68552135397 842.0476649783578 0.0 0.0
-15832.801774065621 -20.219666594641314 -4755.906432198079 710.198358708833 0.0 0.0
-14832.614779623895 27.93245333716753 -4441.404697886019 747.5181934381882 0.0 0.0
-13942.593363769407 19.50651737259707 -4176.926053919043 776.440932449263 0.0 0.0
-13032.522124688947 7.744269255429437 -3907.433356630056 798.7916716795747 0.0 0.0
-12110.40559757642 3.5845718328934346 -3632.046307723057 808.8102936138457 0.0 0.0
-11182.628064119206 0.8494958753426243 -3354.5335704731588 812.8600030878615 0.0 0.0
-10251.893309921274 -0.10230866859100729 -3075.598685576959 813.7783979910281 0.0 0.0
-9320.518464141038 -0.5025561765791444 -2796.306306095284 813.4488099127867 0.0 0.0
-8389.082377135259 -0.5010334161381311 -2516.87502316542 812.8480750061775 0.0 0.0
-7457.044304341123 0.38278530715453485 -2236.9984557101907 813.2446651283534 0.0 0.0
-6521.758723643657 3.797723892964191 -1955.3882999252082 817.6647621553668 0.0 0.0
-5576.557752559477 12.815003758240278 -1669.1228246403712 832.6691815704102 0.0 0.0
-4608.554132844057 30.20804395155537 -1373.5038266677502 868.3583323260486 0.0 0.0
-3601.441606819252 50.089622562247456 -1065.4055952771016 929.7262938415998 0.0 0.0
-2553.029879324566 41.167214084810794 -753.5587995719268 987.7456320365937 0.0 0.0
-1516.5880147186053 -75.326579541718 -477.57437827809684 931.3971432882187 0.0 0.0
-724.7719360921146 -396.60497569878083 -336.4130735372687 594.92194893492 0.0 0.0
-272.5569024162596 -237.02748433906967 -152.8753160265988 284.65787721032797 0.0 0.0
-265.95374257346566 -110.74214067867455 -113.00876497564205 -183.40611099995135 0.0 0.0
-726.5002347142538 -265.539593492121 -297.61194846191256 -400.6624296397819 0.0 0.0
-1632.6337495687544 -51.20846820430118 -505.1526653319165 -650.4182989326948 0.0 0.0
-2839.6864565876167 23.47273270879479 -844.8641171636466 -692.2619203370939 0.0 0.0
-4075.848111290081 32.412462456039506 -1213.0306946502124 -649.7169460371908 0.0 0.0
-5253.655685340017 20.174249824127216 -1570.0444306547672 -604.3184103992224 0.0 0.0
-6371.763430870427 8.757490546643055 -1908.901782097135 -577.9224583769886 0.0 0.0
-7455.235884928712 2.66196843005401 -2235.7721749495972 -566.898000289231 0.0 0.0
-8524.088740342111 0.301905525451474 -2557.1360504449985 -563.7163226300972 0.0 0.0
-9588.617072822437 -0.3246616224812726 -2876.6825203334756 -563.4848328362319 0.0 0.0
-10652.711627132174 -0.33257239501723035 -3195.913259858158 -563.9651106461915 0.0 0.0
-11717.10904402181 -0.06998665898034773 -3515.1537092042386 -564.2391458531713 0.0 0.0
-12780.699748936295 0.6431028156870582 -3834.016993836183 -563.5854476957627 0.0 0.0
-13840.773746381 2.1934950984194472 -4151.574075384774 -560.7037621182335 0.0 0.0
-14889.333953408559 6.596429643957052 -4464.8212571293825 -552.8896074689414 0.0 0.0
-15923.967569591823 7.729047883794962 -4774.871556512408 -537.9953318192778 0.0 0.0
-16901.17129278682 40.45173431703604 -5058.2158675409355 -505.7710536968276 0.0 0.0
-17927.806884778096 -61.923866745629056 -5396.919225457116 -507.33485634931446 0.0 0.0
-19270.756465487826 99.04883537071737 -5751.512289035132 -470.5688722435217 0.0 0.0
-18997.418872383834 824.1785035100015 -5451.972110662151 -1571.0969878935473 0.0 0.0
-23841.340663622977 -12506.282654669445 -10904.286995487724 -6.446043698815629e-11 0.0 0.0
-18997.418872383678 824.1785035105333 -5451.972110661941 1571.096987893458 0.0 0.0
-19270.756465487848 99.04883537057128 -5751.512289035183 470.56887224350487 0.0 0.0
-17927.80688477801 -61.923866745456074 -5396.919225457037 507.3348563493689 0.0 0.0
-16901.171292786672 40.4517343173878 -5058.2158675407845 505.77105369678907 0.0 0.0
-15923.967569591554 7.729047884458861 -4774.871556512128 537.9953318193091 0.0 0.0
-14889.333953408244 6.596429644765202 -4464.821257129043 552.889607468971 0.0 0.0
-13840.773746381532 2.193495097226508 -4151.5740753852915 560.7037621183355 0.0 0.0
-12780.69974893631 0.6431028156359062 -3834.0169938362033 563.5854476956439 0.0 0.0
-11717.109044021647 -0.0699866586547726 -3515.153709204091 564.239145853321 0.0 0.0
-10652.711627132387 -0.33257239545026707 -3195.9132598583506 563.9651106462303 0.0 0.0
-9588.617072822482 -0.3246616225879523 -2876.68252033352 563.484832836284 0.0 0.0
-8524.08874034195 0.30190552573288 -2557.1360504448653 563.7163226301559 0.0 0.0
-7455.235884928726 2.6619684300268993 -2235.7721749496095 566.8980002892399 0.0 0.0
-6371.763430870486 8.757490546626643 -1908.901782097158 577.9224583768918 0.0 0.0
-5253.6556853401535 20.174249823851294 -1570.0444306548907 604.3184103991516 0.0 0.0
-4075.848111290324 32.4124624553605 -1213.0306946504886 649.7169460371748 0.0 0.0
-2839.686456587581 23.472732708807776 -844.8641171636316 692.2619203371855 0.0 0.0
-1632.6337495688226 -51.2084682044827 -505.15266533199144 650.4182989327077 0.0 0.0
-726.50023471425 -265.53959349215404 -297.61194846192126 400.66242963977356 0.0 0.0
-265.95374257348715 -110.74214067870315 -113.00876497565707 183.4061109998949 0.0 0.0
-239.67623281623958 -70.25073409581418 -92.97809007361616 -108.02456092716059 0.0 0.0
-684.2553858232426 -164.7803915707988 -254.7107332182124 -201.17028244493056 0.0 0.0
-1719.000017067442 -43.13420151800714 -528.6402655756349 -317.91309320946334 0.0 0.0
-3120.8260334861075 12.958552974368246 -932.360244153522 -342.0581185709173 0.0 0.0
-4558.493056129201 21.779133509474427 -1361.014176785918 -323.8376260675172 0.0 0.0
-5906.4447371475435 14.09259196488113 -1767.705643554799 -301.93472749069485 0.0 0.0
-7171.28598416322 6.283605485114251 -2149.500713603432 -288.69118849182365 0.0 0.0
-8390.476402710125 1.958193762161926 -2516.5554626843887 -282.967211844093 0.0 0.0
-9591.62517665931 0.243330933919637 -2877.4145537176178 -281.2281910699523 0.0 0.0
-10788.176837482306 -0.22293635992162564 -3236.5199321526684 -281.0406753764043 0.0 0.0
-11984.856175069417 -0.23428599642490155 -3595.5271383197532 -281.2486745656716 0.0 0.0
-13182.373083091052 -0.044976230820950036 -3954.725417796562 -281.36345591144453 0.0 0.0
-14379.360139892719 0.45513352258353734 -4313.671501911042 -280.9861485810465 0.0 0.0
-15571.744056987349 1.6696406843445786 -4671.0223248909015 -279.50860894558195 0.0 0.0
-16751.647973625364 4.121557715351017 -5024.257924773004 -275.41807052053855 0.0 0.0
-17897.916694765277 9.7779887074729 -5366.441611817343 -268.02857280596226 0.0 0.0
-19015.753673402523 5.585149443428946 -5703.050557187729 -254.3961586079813 0.0 0.0
-19908.56283658014 92.221391615044 -5944.9024334895275 -236.4909296135154 0.0 0.0
-21617.811241455085 -528.7404491328483 -6643.965507176381 -372.9816913933623 0.0 0.0
-21166.078095946872 2664.9596545623936 -5550.335532415341 -532.3361005006284 0.0 0.0
-28747.37546907549 -15374.31170743175 -13236.506152952175 -6.30961949354969e-11 0.0 0.0
-21166.078095946486 2664.959654563297 -5550.335532414955 532.3361005007108 0.0 0.0
-21617.811241455074 -528.7404491328539 -6643.965507176379 372.98169139340996 0.0 0.0
-19908.56283658008 92.22139161526164 -5944.902433489446 236.49092961339045 0.0 0.0
-19015.753673402276 5.585149443951188 -5703.050557187497 254.3961586078817 0.0 0.0
-17897.916694764426 9.77798870925912 -5366.441611816549 268.02857280591513 0.0 0.0
-16751.64797362445 4.121557717477527 -5024.257924772092 275.4180705204573 0.0 0.0
-15571.744056987869 1.66964068333432 -4671.022324891363 279.5086089455959 0.0 0.0
-14379.360139892422 0.45513352324922796 -4313.6715019107505 280.98614858096664 0.0 0.0
-13182.373083091117 -0.04497623117688354 -3954.725417796688 281.3634559114158 0.0 0.0
-11984.85617506964 -0.23428599696956387 -3595.527138319983 281.24867456565624 0.0 0.0
-10788.176837482379 -0.22293636010002116 -3236.5199321527434 281.04067537637974 0.0 0.0
-9591.625176659356 0.24333093369581693 -2877.4145537176983 281.2281910699521 0.0 0.0
-8390.47640271003 1.9581937624061112 -2516.5554626842877 282.96721184414287 0.0 0.0
-7171.2859841635045 6.283605484612314 -2149.5007136036675 288.6911884917877 0.0 0.0
-5906.444737147429 14.092591965218581 -1767.7056435546629 301.93472749069315 0.0 0.0
-4558.493056129334 21.779133509130883 -1361.0141767860603 323.8376260674989 0.0 0.0
-3120.826033486135 12.958552974331425 -932.3602441535415 342.0581185708786 0.0 0.0
-1719.0000170675655 -43.134201518213374 -528.6402655757338 317.9130932094844 0.0 0.0
-684.2553858232355 -164.78039157081517 -254.71073321821518 201.17028244491596 0.0 0.0
-239.67623281620124 -70.25073409577276 -92.9780900735922 108.02456092715772 0.0 0.0
-124.73611108068226 -29.655040488572652 -46.317345470776466 -72.38936090911787 0.0 0.0
-557.5203276848986 -84.650234746406 -192.65116872939137 -85.02377683804717 0.0 0.0
-1756.0792382635864 -45.46285073454365 -540.462626699439 -108.20518362597521 0.0 0.0
-3435.5820993939315 -64.93229265025997 -1050.1543176132573 -120.64491045240493 0.0 0.0
-5112.908936892571 -114.52289111201645 -1568.229548401376 -119.72600849876517 0.0 0.0
-6645.853430918638 -163.80032043969743 -2042.8961254075007 -114.15473118427649 0.0 0.0
-8067.284390507009 -206.64811615675697 -2482.1797519991296 -109.89729586219073 0.0 0.0
-9433.235703130085 -244.5611266358151 -2903.33904892977 -107.70078798868718 0.0 0.0
-10779.711042475215 -280.1571148505064 -3317.960447197717 -106.85949439645731 0.0 0.0
-12122.559582978749 -315.02782640016596 -3731.2762228136744 -106.64778599410454 0.0 0.0
-13466.684991695736 -349.8310898639992 -4144.954824467923 -106.63998573139264 0.0 0.0
-14812.492998275633 -384.6541293482229 -4559.144138287156 -106.62301158592027 0.0 0.0
-16158.400043375643 -419.5146356885956 -4973.374403719272 -106.40550987729216 0.0 0.0
-17499.41950305092 -453.2276808443233 -5385.794155168574 -105.81996288558582 0.0 0.0
-18826.43919043766 -487.95560934359315 -5794.318439934376 -104.40973444031363 0.0 0.0
-20110.194198376754 -507.66058834035766 -6185.356436015134 -101.68135546765131 0.0 0.0
-21338.05974978087 -572.4396011980871 -6573.149805293689 -104.45427842413187 0.0 0.0
-22339.74769987396 -378.1241111898694 -6815.36154331915 -71.07048322483047 0.0 0.0
-23370.37123576017 -1274.5567637278452 -7393.4783998464045 -348.96659622015966 0.0 0.0
-23858.97601215915 3026.79137571006 -6249.6553909347285 -1.5710659687215411 0.0 0.0
-35280.517779422196 -18501.78779071694 -16134.691671041739 -1.7917045624926686e-10 0.0 0.0
-23858.976012157964 3026.791375712449 -6249.655390933655 1.571065968724838 0.0 0.0
-23370.371235760205 -1274.5567637277466 -7393.478399846385 348.9665962202496 0.0 0.0
-22339.747699873966 -378.1241111894703 -6815.361543319031 71.07048322474861 0.0 0.0
-21338.059749780856 -572.4396011979929 -6573.149805293655 104.45427842408174 0.0 0.0
-20110.194198376186 -507.6605883393077 -6185.356436014649 101.6813554676238 0.0 0.0
-18826.43919043683 -487.9556093414628 -5794.318439933489 104.40973444027475 0.0 0.0
-17499.4195030505 -453.22768084303306 -5385.7941551680615 105.81996288546532 0.0 0.0
-16158.40004337567 -419.5146356887217 -4973.374403719316 106.40550987728443 0.0 0.0
-14812.492998275628 -384.65412934818545 -4559.144138287145 106.62301158596756 0.0 0.0
-13466.684991696138 -349.83108986488054 -4144.954824468305 106.63998573130289 0.0 0.0
-12122.559582978838 -315.0278264004695 -3731.276222813792 106.64778599401745 0.0 0.0
-10779.71104247529 -280.15711485080027 -3317.9604471978273 106.85949439649005 0.0 0.0
-9433.235703129787 -244.56112663522856 -2903.3390489295043 107.70078798872464 0.0 0.0
-8067.284390507185 -206.64811615731338 -2482.17975199935 109.89729586208398 0.0 0.0
-6645.853430918205 -163.80032043861416 -2042.8961254070455 114.15473118429412 0.0 0.0
-5112.908936892613 -114.52289111205747 -1568.2295484014014 119.72600849851682 0.0 0.0
-3435.582099393837 -64.9322926502764 -1050.154317613234 120.64491045225586 0.0 0.0
-1756.0792382636137 -45.4628507346975 -540.4626266994933 108.20518362589581 0.0 0.0
-557.5203276848524 -84.65023474628977 -192.65116872934271 85.02377683809398 0.0 0.0
-124.73611108069626 -29.65504048859875 -46.31734547078851 72.38936090911785 0.0 0.0
SCALARS Strain float 6
LOOKUP_TABLE default
0.032316324501076805 -0.08027625261555599 0.0 -0.005401657428874801 0.0 0.0
0.02878032178917822 0.00625781160101073 0.0 -0.008390571610757538 0.0 0.0
0.02274683523909465 -0.011335257926330987 0.0 -0.0035885527629077396 0.0 0.0
0.021691716454191757 -0.0079029212627056 0.0 -0.0005344675862888017 0.0 0.0
0.025478456692175584 -0.010412287349244945 0.0 -0.001231794443456202 0.0 0.0
0.030610788149519806 -0.012402450901091065 0.0 -0.0012693171933326629 0.0 0.0
0.03636472675314662 -0.014804213621652372 0.0 -0.0013459566793289422 0.0 0.0
0.04235496842315572 -0.017242878531680612 0.0 -0.001375119313390676 0.0 0.0
0.04841699401865647 -0.019714393948751012 0.0 -0.0013854893712980391 0.0 0.0
0.05449050665235798 -0.022186667608348285 0.0 -0.0013881883299225444 0.0 0.0
0.06055734281136922 -0.024656467445197568 0.0 -0.001388188160499887 0.0 0.0
0.06661665660677422 -0.027123115860403273 0.0 -0.0013884955913958646 0.0 0.0
0.07267627694397673 -0.02958944218253213 0.0 -0.0013911999026186054 0.0 0.0
0.07875740046378289 -0.032062697240289095 0.0 -0.0013991665381213726 0.0 0.0
0.08490705282285796 -0.03455988859840792 0.0 -0.0014154774626908735 0.0 0.0
0.09120578311960141 -0.03711228555689419 0.0 -0.0014386086926482973 0.0 0.0
0.0977343293904597 -0.03975623299281064 0.0 -0.001449083187963427 0.0 0.0
0.10443448009947212 -0.042483047702090396 0.0 -0.001389017717695958 0.0 0.0
0.11082454323494811 -0.045122310453501686 0.0 -0.0011585536158991824 0.0 0.0
0.11573859026360717 -0.047204121016742276 0.0 -0.0006777450458998165 0.0 0.0
0.11763298372883571 -0.04802964620274265 0.0 -9.39352762241441e-16 0.0 0.0
0.11573859026360706 -0.04720412101674348 0.0 0.0006777450458997037 0.0 0.0
0.11082454323494789 -0.04512231045350201 0.0 0.0011585536158997259 0.0 0.0
0.10443448009947187 -0.04248304770208801 0.0 0.001389017717694379 0.0 0.0
0.09773432939045949 -0.03975623299280661 0.0 0.0014490831879651524 0.0 0.0
0.09120578311960148 -0.03711228555689443 0.0 0.001438608692647828 0.0 0.0
0.08490705282285818 -0.03455988859840231 0.0 0.001415477462691943 0.0 0.0
0.07875740046378261 -0.03206269724029008 0.0 0.001399166538120169 0.0 0.0
0.0726762769439763 -0.02958944218252684 0.0 0.0013911999026198101 0.0 0.0
0.06661665660677447 -0.02712311586040394 0.0 0.0013884955913973465 0.0 0.0
0.06055734281136929 -0.024656467445195222 0.0 0.0013881881604988645 0.0 0.0
0.05449050665235779 -0.022186667608349073 0.0 0.001388188329918771 0.0 0.0
0.048416994018656644 -0.01971439394875107 0.0 0.0013854893712982605 0.0 0.0
0.04235496842315592 -0.017242878531680748 0.0 0.0013751193133904748 0.0 0.0
0.036364726753146594 -0.014804213621654554 0.0 0.0013459566793273463 0.0 0.0
0.030610788149519765 -0.012402450901093175 0.0 0.0012693171933328958 0.0 0.0
0.025478456692175994 -0.010412287349243269 0.0 0.0012317944434563977 0.0 0.0
0.021691716454192198 -0.007902921262704251 0.0 0.0005344675862889411 0.0 0.0
0.022746835239094453 -0.011335257926330784 0.0 0.0035885527629057785 0.0 0.0
0.028780321789178054 0.0062578116010107016 0.0 0.00839057161075662 0.0 0.0
0.03231632450107692 -0.0802762526155561 0.0 0.005401657428875181 0.0 0.0
0.020123446441747052 -0.07461568117039641 0.0 -0.0036913390689972013 0.0 0.0
0.01702593207660382 0.0054236374944154914 0.0 -0.006689928565470982 0.0 0.0
0.016345681954060498 -0.008790412599029587 0.0 -0.002508261462202297 0.0 0.0
0.019668809103479137 -0.007798323640801949 0.0 -0.0020760947242783106 0.0 0.0
0.022847365756747316 -0.009713366007291608 0.0 -0.002993299111884301 0.0 0.0
0.02761022742804504 -0.011770582509960877 0.0 -0.0033908364012296076 0.0 0.0
0.03276301704202978 -0.01402043640572024 0.0 -0.0035690712619114713 0.0 0.0
0.038139810727331344 -0.016339258549593203 0.0 -0.0036420350690856097 0.0 0.0
0.04358400186619425 -0.018678191591437007 0.0 -0.0036620663206155812 0.0 0.0
0.04904460383760659 -0.02101996656524637 0.0 -0.0036641170617598496 0.0 0.0
0.054503079303996095 -0.023359323500809433 0.0 -0.0036613236936225793 0.0 0.0
0.059957397113560296 -0.025696159300669645 0.0 -0.003659950911406824 0.0 0.0
0.06541401104601126 -0.028032741406024353 0.0 -0.003665026413150089 0.0 0.0
0.07089071930673807 -0.030375241004193754 0.0 -0.0036854356092204444 0.0 0.0
0.07642457388954924 -0.032738124879187806 0.0 -0.0037351166297040035 0.0 0.0
0.08207322672892926 -0.035148329644187064 0.0 -0.0038231218871139596 0.0 0.0
0.08787951102466397 -0.03763786337628732 0.0 -0.003917183512502421 0.0 0.0
0.09375080033287204 -0.040200246549546424 0.0 -0.003872673792627313 0.0 0.0
0.09923771479062457 -0.042685189481024795 0.0 -0.0033758366560802866 0.0 0.0
0.10336926731341002 -0.044663767503259136 0.0 -0.0020687477559863648 0.0 0.0
0.10494022814765012 -0.045462450796720524 0.0 2.5153490401663703e-16 0.0 0.0
0.10336926731340981 -0.044663767503260336 0.0 0.002068747755986536 0.0 0.0
0.09923771479062435 -0.04268518948102682 0.0 0.003375836656079451 0.0 0.0
0.09375080033287168 -0.04020024654954253 0.0 0.00387267379262681 0.0 0.0
0.08787951102466407 -0.037637863376288494 0.0 0.003917183512504708 0.0 0.0
0.08207322672892967 -0.03514832964418931 0.0 0.003823121887113271 0.0 0.0
0.07642457388954889 -0.03273812487918162 0.0 0.0037351166297051506 0.0 0.0
0.07089071930673775 -0.030375241004197986 0.0 0.0036854356092203585 0.0 0.0
0.06541401104601131 -0.02803274140601992 0.0 0.0036650264131516193 0.0 0.0
0.05995739711356046 -0.025696159300670714 0.0 0.0036599509114065335 0.0 0.0
0.054503079303996387 -0.023359323500811817 0.0 0.003661323693621509 0.0 0.0
0.0490446038376066 -0.021019966565246666 0.0 0.00366411706175847 0.0 0.0
0.04358400186619408 -0.018678191591436778 0.0 0.003662066320616099 0.0 0.0
0.03813981072733141 -0.01633925854959306 0.0 0.003642035069085417 0.0 0.0
0.03276301704202995 -0.01402043640571896 0.0 0.003569071261909738 0.0 0.0
0.027610227428044812 -0.01177058250996189 0.0 0.0033908364012295742 0.0 0.0
0.02284736575674718 -0.009713366007290213 0.0 0.002993299111885178 0.0 0.0
0.01966880910347931 -0.00779832364080049 0.0 0.0020760947242776384 0.0 0.0
0.016345681954060755 -0.00879041259902939 0.0 0.0025082614622009493 0.0 0.0
0.017025932076603825 0.005423637494415689 0.0 0.006689928565471217 0.0 0.0
0.020123446441746767 -0.07461568117039666 0.0 0.0036913390689970052 0.0 0.0
0.014433676584116092 -0.06394527499736832 0.0 -0.017000280479613807 0.0 0.0
0.010964937514762957 0.0029694505242366586 0.0 -0.01209752833466104 0.0 0.0
0.01125952437671167 -0.004505659898626095 0.0 -0.0017008467173069183 0.0 0.0
0.01663354015969149 -0.007025281133031356 0.0 -0.004789221961185711 0.0 0.0
0.020237392330388914 -0.008429390206860779 0.0 -0.005960078347265484 0.0 0.0
0.024504917290288187 -0.010441452413816237 0.0 -0.006830804938463094 0.0 0.0
0.029141153633172642 -0.012455936215853345 0.0 -0.007171128186093315 0.0 0.0
0.03391451748501323 -0.014526575471403909 0.0 -0.007308661829413532 0.0 0.0
0.03874975313123847 -0.016606070208613554 0.0 -0.007345612107188296 0.0 0.0
0.04359933197613458 -0.01868665852982151 0.0 -0.007347749362101458 0.0 0.0
0.048449649813357566 -0.02076535904684938 0.0 -0.007341433049203677 0.0 0.0
0.05329806278623911 -0.022842246207016848 0.0 -0.007338025899250315 0.0 0.0
0.058149212700227895 -0.024918597168286517 0.0 -0.007347096196520339 0.0 0.0
0.06301602270234515 -0.026997843582090567 0.0 -0.00738627122462768 0.0 0.0
0.06792459323722796 -0.0290889240441536 0.0 -0.007484729197199116 0.0 0.0
0.07291359173101906 -0.031211073211192014 0.0 -0.007665340363255948 0.0 0.0
0.07800521109707334 -0.03339309849874673 0.0 -0.007873291474628806 0.0 0.0
0.08310952211140712 -0.03564624072827849 0.0 -0.007828228624430701 0.0 0.0
0.08784721400902928 -0.03787726869001426 0.0 -0.006886371542756885 0.0 0.0
0.09140673158217523 -0.039732308758887606 0.0 -0.004262421439826111 0.0 0.0
0.09276126543718047 -0.04052400594817251 0.0 -5.685556192513985e-16 0.0 0.0
0.09140673158217497 -0.03973230875888583 0.0 0.0042624214398256765 0.0 0.0
0.08784721400902945 -0.0378772686900186 0.0 0.006886371542756979 0.0 0.0
0.08310952211140686 -0.035646240728273194 0.0 0.007828228624432701 0.0 0.0
0.07800521109707297 -0.033393098498751134 0.0 0.007873291474629479 0.0 0.0
0.0729135917310192 -0.031211073211196178 0.0 0.007665340363253892 0.0 0.0
0.06792459323722778 -0.029088924044151428 0.0 0.007484729197198154 0.0 0.0
0.06301602270234508 -0.026997843582092323 0.0 0.00738627122462834 0.0 0.0
0.0581492127002277 -0.024918597168282628 0.0 0.007347096196522098 0.0 0.0
0.05329806278623883 -0.02284224620701673 0.0 0.0073380258992497786 0.0 0.0
0.04844964981335764 -0.020765359046852297 0.0 0.007341433049203925 0.0 0.0
0.043599331976134754 -0.018686658529822188 0.0 0.007347749362102335 0.0 0.0
0.03874975313123856 -0.016606070208614078 0.0 0.007345612107189264 0.0 0.0
0.033914517485013056 -0.014526575471403486 0.0 0.007308661829413371 0.0 0.0
0.029141153633172427 -0.012455936215851856 0.0 0.0071711281860927945 0.0 0.0
0.02450491729028803 -0.01044145241381759 0.0 0.006830804938462621 0.0 0.0
0.020237392330388914 -0.00842939020686047 0.0 0.0059600783472654375 0.0 0.0
0.016633540159691568 -0.007025281133029737 0.0 0.004789221961185164 0.0 0.0
0.011259524376711624 -0.004505659898625958 0.0 0.0017008467173071698 0.0 0.0
0.01096493751476292 0.0029694505242367913 0.0 0.012097528334661177 0.0 0.0
0.0144336765841161 -0.06394527499736843 0.0 0.017000280479613383 0.0 0.0
0.011465194581287537 -0.054566148871657005 0.0 -0.021222855473529652 0.0 0.0
0.0077200223295925754 -0.00018763299112863372 0.0 -0.01656721161064138 0.0 0.0
0.007578189844970622 -0.0017707067616315585 0.0 -0.005040917774548484 0.0 0.0
0.0133908905230726 -0.005527259865884194 0.0 -0.006923288672045633 0.0 0.0
0.01747000785521785 -0.007224834153890988 0.0 -0.00886617245178613 0.0 0.0
0.02137216015751158 -0.009043688817876181 0.0 -0.009860867343369923 0.0 0.0
0.025488501726278544 -0.01088238002950872 0.0 -0.010356607451200052 0.0 0.0
0.02968275952690224 -0.012707812479933264 0.0 -0.01053844054327775 0.0 0.0
0.03391297397745905 -0.014533156489498909 0.0 -0.010592206698513162 0.0 0.0
0.03815423546488599 -0.016353638470148653 0.0 -0.010596109753452817 0.0 0.0
0.0423965778450715 -0.018171814155919258 0.0 -0.01058824984513808 0.0 0.0
0.04663839583633948 -0.019988265572123173 0.0 -0.010584109082684543 0.0 0.0
0.05088208350341375 -0.02180305313123473 0.0 -0.010596893976903204 0.0 0.0
0.05513489356602594 -0.02361607802644297 0.0 -0.01065028038213303 0.0 0.0
0.059411856465903315 -0.025430120971931487 0.0 -0.010783114752824266 0.0 0.0
0.06373680157613132 -0.027258653986439407 0.0 -0.01102533169926499 0.0 0.0
0.06812597870951756 -0.029137149360274582 0.0 -0.011300113670336991 0.0 0.0
0.07252076364264613 -0.031118124027646868 0.0 -0.011216202774206667 0.0 0.0
0.07663581248086483 -0.033194503415448495 0.0 -0.009864087892916384 0.0 0.0
0.07978360583512308 -0.03507458774356942 0.0 -0.0061124299892502025 0.0 0.0
0.0809998975177801 -0.03594481426503313 0.0 6.023827270329463e-16 0.0 0.0
0.07978360583512273 -0.035074587743566824 0.0 0.006112429989249782 0.0 0.0
0.07663581248086496 -0.033194503415450057 0.0 0.009864087892915263 0.0 0.0
0.07252076364264601 -0.031118124027643516 0.0 0.01121620277420635 0.0 0.0
0.06812597870951721 -0.02913714936027552 0.0 0.011300113670336627 0.0 0.0
0.0637368015761313 -0.02725865398643966 0.0 0.011025331699265114 0.0 0.0
0.05941185646590316 -0.025430120971931515 0.0 0.010783114752826393 0.0 0.0
0.055134893566025765 -0.02361607802644236 0.0 0.010650280382133807 0.0 0.0
0.05088208350341355 -0.021803053131234207 0.0 0.010596893976903176 0.0 0.0
0.04663839583633941 -0.01998826557212246 0.0 0.01058410908268405 0.0 0.0
0.04239657784507162 -0.01817181415591772 0.0 0.010588249845137909 0.0 0.0
0.03815423546488616 -0.016353638470148858 0.0 0.010596109753452725 0.0 0.0
0.03391297397745899 -0.01453315648949988 0.0 0.010592206698512767 0.0 0.0
0.029682759526902185 -0.012707812479933309 0.0 0.010538440543277752 0.0 0.0
0.025488501726278635 -0.010882380029508738 0.0 0.010356607451200645 0.0 0.0
0.02137216015751144 -0.009043688817877479 0.0 0.009860867343369847 0.0 0.0
0.017470007855217712 -0.007224834153891973 0.0 0.008866172451785122 0.0 0.0
0.013390890523072747 -0.00552725986588307 0.0 0.0069232886720452975 0.0 0.0
0.007578189844970584 -0.0017707067616313597 0.0 0.00504091777454818 0.0 0.0
0.007720022329592383 -0.00018763299112868766 0.0 0.016567211610641317 0.0 0.0
0.01146519458128739 -0.054566148871657 0.0 0.02122285547353004 0.0 0.0
0.009676874839894843 -0.046416563503634586 0.0 -0.021707212472165727 0.0 0.0
0.005888279682174105 -0.002907950515307357 0.0 -0.019590421305539167 0.0 0.0
0.004989944876615583 -0.00029561873146317387 0.0 -0.009551701892800104 0.0 0.0
0.010329149584772162 -0.003908568098943901 0.0 -0.009447370658826004 0.0 0.0
0.014597044701306135 -0.005946038629993829 0.0 -0.011459271549087626 0.0 0.0
0.018212190204759813 -0.007641109361858528 0.0 -0.012566888443805662 0.0 0.0
0.021818711129171258 -0.009291114485009563 0.0 -0.013119990726032812 0.0 0.0
0.025443100499770454 -0.01088635529625405 0.0 -0.013338993184663936 0.0 0.0
0.029074187617287438 -0.012458712579306126 0.0 -0.013402919937268052 0.0 0.0
0.03270867989518038 -0.014020657375727816 0.0 -0.013409732520946028 0.0 0.0
0.03634353727565005 -0.015578391671097456 0.0 -0.013401636572378953 0.0 0.0
0.03997823421876197 -0.017134087211969556 0.0 -0.0133976357707935 0.0 0.0
0.043613044853221636 -0.018686363697168914 0.0 -0.013413075299946264 0.0 0.0
0.04724921431694226 -0.020231253999320187 0.0 -0.013474868801564625 0.0 0.0
0.05089115786545937 -0.021765242933649443 0.0 -0.01362669471445498 0.0 0.0
0.05455153845175728 -0.02329772883349167 0.0 -0.013901986266011647 0.0 0.0
0.05825201274487175 -0.024878177701192692 0.0 -0.014209953755109764 0.0 0.0
0.06198641513568723 -0.026617948120251887 0.0 -0.014082345044312434 0.0 0.0
0.06558000691187031 -0.0286186743186927 0.0 -0.012400724716478179 0.0 0.0
0.06844155645803911 -0.030644473080509826 0.0 -0.007714560497658917 0.0 0.0
0.0695805461048875 -0.031669372286683824 0.0 2.7929047963226594e-16 0.0 0.0
0.06844155645803877 -0.030644473080512033 0.0 0.007714560497658503 0.0 0.0
0.0655800069118702 -0.028618674318692326 0.0 0.012400724716478576 0.0 0.0
0.06198641513568716 -0.02661794812025534 0.0 0.014082345044313188 0.0 0.0
0.05825201274487157 -0.024878177701192366 0.0 0.014209953755110766 0.0 0.0
0.05455153845175733 -0.02329772883348816 0.0 0.013901986266011145 0.0 0.0
0.0508911578654591 -0.021765242933647146 0.0 0.013626694714456159 0.0 0.0
0.04724921431694219 -0.020231253999321113 0.0 0.013474868801564344 0.0 0.0
0.04361304485322189 -0.018686363697171648 0.0 0.013413075299946314 0.0 0.0
0.03997823421876189 -0.01713408721196861 0.0 0.013397635770793528 0.0 0.0
0.036343537275650324 -0.015578391671096318 0.0 0.013401636572378434 0.0 0.0
0.032708679895180594 -0.014020657375725479 0.0 0.013409732520945392 0.0 0.0
0.029074187617287174 -0.012458712579306095 0.0 0.013402919937266482 0.0 0.0
0.025443100499770284 -0.010886355296254823 0.0 0.013338993184664378 0.0 0.0
0.021818711129171036 -0.009291114485011019 0.0 0.01311999072603275 0.0 0.0
0.018212190204759688 -0.00764110936185596 0.0 0.01256688844380489 0.0 0.0
0.014597044701306343 -0.005946038629993753 0.0 0.011459271549088391 0.0 0.0
0.010329149584772252 -0.0039085680989436105 0.0 0.009447370658825043 0.0 0.0
0.004989944876615704 -0.00029561873146315376 0.0 0.009551701892799884 0.0 0.0
0.005888279682174293 -0.0029079505153077416 0.0 0.019590421305539677 0.0 0.0
0.009676874839894812 -0.046416563503634524 0.0 0.02170721247216545 0.0 0.0
0.00840916093804377 -0.039368119481394806 0.0 -0.02070947911242979 0.0 0.0
0.004759172951584338 -0.004881693082803923 0.0 -0.021377145516142226 0.0 0.0
0.0031599818980831457 0.00035771674079551456 0.0 -0.013915802346590483 0.0 0.0
0.007586937565911025 -0.0024456620237533646 0.0 -0.012269012634371652 0.0 0.0
0.011710879906972591 -0.0046178688657013975 0.0 -0.01381356363377892 0.0 0.0
0.015030906471827834 -0.006234117548547127 0.0 -0.014922735301394385 0.0 0.0
0.018140001359573756 -0.007692970028236578 0.0 -0.015479265912635768 0.0 0.0
0.021197453399448257 -0.00906123741945188 0.0 -0.015710330279198156 0.0 0.0
0.024233275713227222 -0.010383363355510355 0.0 -0.015780040924085394 0.0 0.0
0.027262443238376226 -0.011687315309349591 0.0 -0.015788865702030936 0.0 0.0
0.030290206039778195 -0.012984900159731813 0.0 -0.015781595087809554 0.0 0.0
0.03331752474857787 -0.014279639373466525 0.0 -0.015778171070592272 0.0 0.0
0.036342648338553996 -0.015568902942850536 0.0 -0.015794722677005553 0.0 0.0
0.03936099394096074 -0.016844825111530553 0.0 -0.015858561673817637 0.0 0.0
0.042367124495030266 -0.018097800663336258 0.0 -0.016014058048313684 0.0 0.0
0.04536525811260261 -0.019334171585589206 0.0 -0.01629677915285539 0.0 0.0
0.048389974119266564 -0.020621550585405428 0.0 -0.01661509771422875 0.0 0.0
0.05150236633378002 -0.022141990187690606 0.0 -0.016464086485407745 0.0 0.0
0.05465271431126791 -0.0241262046399398 0.0 -0.014567164963082413 0.0 0.0
0.05732925366802091 -0.02640163412932685 0.0 -0.009140439616809836 0.0 0.0
0.058441847560628674 -0.02765928802629171 0.0 -6.041174505089231e-16 0.0 0.0
0.05732925366802093 -0.02640163412932897 0.0 0.009140439616809892 0.0 0.0
0.054652714311267975 -0.024126204639939128 0.0 0.014567164963081178 0.0 0.0
0.05150236633378019 -0.02214199018769418 0.0 0.016464086485407273 0.0 0.0
0.04838997411926659 -0.020621550585408287 0.0 0.016615097714229154 0.0 0.0
0.045365258112602405 -0.01933417158559194 0.0 0.016296779152854393 0.0 0.0
0.042367124495029905 -0.018097800663334055 0.0 0.016014058048313882 0.0 0.0
0.03936099394096088 -0.016844825111530255 0.0 0.015858561673818515 0.0 0.0
0.036342648338554114 -0.015568902942852517 0.0 0.01579472267700536 0.0 0.0
0.03331752474857757 -0.014279639373464804 0.0 0.015778171070591956 0.0 0.0
0.030290206039778167 -0.012984900159734766 0.0 0.015781595087809658 0.0 0.0
0.027262443238376195 -0.011687315309347232 0.0 0.015788865702029888 0.0 0.0
0.02423327571322727 -0.010383363355510225 0.0 0.01578004092408449 0.0 0.0
0.021197453399448517 -0.009061237419450998 0.0 0.01571033027919776 0.0 0.0
0.018140001359573638 -0.007692970028237914 0.0 0.015479265912636223 0.0 0.0
0.015030906471827699 -0.006234117548547052 0.0 0.014922735301394426 0.0 0.0
0.011710879906972763 -0.004617868865700248 0.0 0.013813563633780276 0.0 0.0
0.0075869375659110855 -0.0024456620237541865 0.0 0.0122690126343708 0.0 0.0
0.0031599818980830702 0.000357716740795604 0.0 0.013915802346591701 0.0 0.0
0.004759172951584249 -0.0048816930828047 0.0 0.02137714551614292 0.0 0.0
0.008409160938043721 -0.039368119481394605 0.0 0.02070947911243002 0.0 0.0
0.00737045311293371 -0.033262393705199414 0.0 -0.0192007412657227 0.0 0.0
0.003965671838817998 -0.006114660764376454 0.0 -0.022239710753782012 0.0 0.0
0.0018221281542320448 0.0005475710256478697 0.0 -0.01760053995546393 0.0 0.0
0.005177377587319802 -0.0012235926506270248 0.0 -0.01509514365404312 0.0 0.0
0.008883577070579473 -0.0032986770414520903 0.0 -0.015956972151904957 0.0 0.0
0.01184519034133879 -0.004825189699702861 0.0 -0.016921227546209495 0.0 0.0
0.01445767082065072 -0.006094379826591095 0.0 -0.017436546880844755 0.0 0.0
0.016948455582560813 -0.007233987553113346 0.0 -0.01765544488301473 0.0 0.0
0.019390410612515438 -0.0083071340129067 0.0 -0.017724263905991106 0.0 0.0
0.021815345544749183 -0.009353523509175931 0.0 -0.01773407598837399 0.0 0.0
0.024236366536502702 -0.010391140237842919 0.0 -0.017728109397654197 0.0 0.0
0.02665626834637188 -0.011424916831101587 0.0 -0.017725459326423814 0.0 0.0
0.029071503880921702 -0.012451096521060068 0.0 -0.01774135291495768 0.0 0.0
0.03147220903561881 -0.013458252482790607 0.0 -0.017800958620695653 0.0 0.0
0.033844059423905844 -0.014431122358837489 0.0 -0.017945728992527818 0.0 0.0
0.03618433401368166 -0.015373137122990883 0.0 -0.01821308392469977 0.0 0.0
0.03854392794388973 -0.016370606971425096 0.0 -0.01852636523481001 0.0 0.0
0.04106042900799235 -0.017682511138712588 0.0 -0.018389122326713924 0.0 0.0
0.04382465592002728 -0.01968979589795665 0.0 -0.01641606624740689 0.0 0.0
0.04640049279142809 -0.02230952522555483 0.0 -0.010446863296261013 0.0 0.0
0.04753249434037539 -0.02388965232409567 0.0 -1.0720591081536668e-15 0.0 0.0
0.04640049279142818 -0.022309525225554547 0.0 0.010446863296260888 0.0 0.0
0.043824655920027177 -0.019689795897953086 0.0 0.016416066247405648 0.0 0.0
0.0410604290079925 -0.01768251113871291 0.0 0.01838912232671393 0.0 0.0
0.03854392794388967 -0.01637060697142592 0.0 0.01852636523480991 0.0 0.0
0.03618433401368174 -0.015373137122991667 0.0 0.01821308392470003 0.0 0.0
0.033844059423906066 -0.01443112235884213 0.0 0.01794572899252941 0.0 0.0
0.03147220903561854 -0.013458252482791148 0.0 0.01780095862069555 0.0 0.0
0.029071503880921327 -0.012451096521060152 0.0 0.017741352914957216 0.0 0.0
0.026656268346371935 -0.011424916831100642 0.0 0.01772545932642313 0.0 0.0
0.02423636653650303 -0.010391140237847448 0.0 0.01772810939765458 0.0 0.0
0.0218153455447492 -0.009353523509174766 0.0 0.017734075988374343 0.0 0.0
0.019390410612515247 -0.008307134012906994 0.0 0.017724263905991116 0.0 0.0
0.01694845558256049 -0.007233987553113538 0.0 0.017655444883014404 0.0 0.0
0.014457670820650536 -0.006094379826589738 0.0 0.01743654688084423 0.0 0.0
0.011845190341338874 -0.004825189699706192 0.0 0.01692122754620981 0.0 0.0
0.008883577070579584 -0.003298677041451445 0.0 0.015956972151905585 0.0 0.0
0.00517737758731998 -0.001223592650627759 0.0 0.0150951436540426 0.0 0.0
0.001822128154232157 0.0005475710256480558 0.0 0.01760053995546497 0.0 0.0
0.003965671838817901 -0.006114660764376875 0.0 0.02223971075378265 0.0 0.0
0.007370453112933506 -0.033262393705199275 0.0 0.019200741265724706 0.0 0.0
0.0064311240393309516 -0.0279439510961084 0.0 -0.01759067176656162 0.0 0.0
0.0033180476149325604 -0.006719395973032114 0.0 -0.022436147295181067 0.0 0.0
0.0007859919287451439 0.0005211945506301118 0.0 -0.020438381659047003 0.0 0.0
0.003059799385201452 -0.00023501079181960247 0.0 -0.01766852502296977 0.0 0.0
0.006156330154183275 -0.0020336293089933456 0.0 -0.017854701302884347 0.0 0.0
0.008674855419777444 -0.0034242359131509675 0.0 -0.018560153512930794 0.0 0.0
0.010776928604178117 -0.004499056368436742 0.0 -0.018988955499418397 0.0 0.0
0.012698385194703395 -0.00540660546924796 0.0 -0.019175697487371857 0.0 0.0
0.014546050974035534 -0.00623019698424556 0.0 -0.01923623194436541 0.0 0.0
0.016367259183617266 -0.007019203234409027 0.0 -0.01924573308900951 0.0 0.0
0.018181868336115375 -0.00779698525350629 0.0 -0.0192412714249455 0.0 0.0
0.019994506318003778 -0.008569938721225637 0.0 -0.019239388310599816 0.0 0.0
0.02180020254140411 -0.00933337036687381 0.0 -0.019252901977497162 0.0 0.0
0.023584665196129985 -0.01007287994463694 0.0 -0.019302628645495767 0.0 0.0
0.025325818826867283 -0.010768214508233145 0.0 -0.019423944947852916 0.0 0.0
0.02701427485666975 -0.011419189070385806 0.0 -0.01965576144329762 0.0 0.0
0.02871635613136641 -0.012127535547897651 0.0 -0.019952304007516273 0.0 0.0
0.03064997559582794 -0.013229399185174361 0.0 -0.01987458938738804 0.0 0.0
0.03306501159585961 -0.015279087345827922 0.0 -0.017983820979692446 0.0 0.0
0.03561250913729852 -0.01833320962862599 0.0 -0.01168155922771832 0.0 0.0
0.03680831357948416 -0.020347474970248584 0.0 -2.710505431213761e-16 0.0 0.0
0.03561250913729894 -0.01833320962862336 0.0 0.011681559227718553 0.0 0.0
0.033065011595859575 -0.015279087345827443 0.0 0.017983820979691756 0.0 0.0
0.030649975595828015 -0.013229399185172361 0.0 0.019874589387386635 0.0 0.0
0.028716356131366208 -0.012127535547894116 0.0 0.01995230400751488 0.0 0.0
0.027014274856669743 -0.011419189070386797 0.0 0.019655761443297705 0.0 0.0
0.02532581882686744 -0.010768214508235447 0.0 0.01942394494785389 0.0 0.0
0.023584665196129954 -0.010072879944638355 0.0 0.019302628645496707 0.0 0.0
0.021800202541404187 -0.009333370366873628 0.0 0.01925290197749733 0.0 0.0
0.01999450631800399 -0.008569938721228132 0.0 0.019239388310598952 0.0 0.0
0.018181868336115542 -0.007796985253504588 0.0 0.01924127142494486 0.0 0.0
0.016367259183617273 -0.007019203234410758 0.0 0.019245733089010054 0.0 0.0
0.014546050974035527 -0.006230196984245681 0.0 0.019236231944365037 0.0 0.0
0.01269838519470348 -0.005406605469250334 0.0 0.019175697487371506 0.0 0.0
0.010776928604178199 -0.004499056368436294 0.0 0.018988955499417922 0.0 0.0
0.008674855419777515 -0.0034242359131511193 0.0 0.018560153512932064 0.0 0.0
0.006156330154183191 -0.00203362930899289 0.0 0.017854701302884912 0.0 0.0
0.0030597993852015527 -0.00023501079181994372 0.0 0.01766852502296981 0.0 0.0
0.0007859919287450538 0.0005211945506296568 0.0 0.020438381659047735 0.0 0.0
0.003318047614932316 -0.006719395973031877 0.0 0.02243614729518087 0.0 0.0
0.006431124039330915 -0.027943951096108453 0.0 0.017590671766562396 0.0 0.0
0.005535814467369102 -0.02327806621305323 0.0 -0.016035549612935015 0.0 0.0
0.0027204921913743974 -0.006830801580559571 0.0 -0.022148388884699454 0.0 0.0
-7.73029206695388e-05 0.00043401885913580784 0.0 -0.022423465444291624 0.0 0.0
0.0011767575733819436 0.0005636213122998099 0.0 -0.019813110827727208 0.0 0.0
0.0035449739039954136 -0.0008464610122798702 0.0 -0.019443099698661218 0.0 0.0
0.0055365025487690706 -0.0020431693842827532 0.0 -0.019830053988995008 0.0 0.0
0.007103208975544524 -0.002910213537100574 0.0 -0.020132375344389046 0.0 0.0
0.008449106438392497 -0.0035806859266813438 0.0 -0.020270565743667833 0.0 0.0
0.009700711815455863 -0.0041528891403355 0.0 -0.020316369560992486 0.0 0.0
0.010918130950470872 -0.004684291718921905 0.0 -0.02032411999187076 0.0 0.0
0.012126605212740888 -0.005202352072961752 0.0 -0.02032121578169278 0.0 0.0
0.013332298128752761 -0.0057147406384406305 0.0 -0.02031999387714411 0.0 0.0
0.014529254822863998 -0.006216099086618565 0.0 -0.020329663685665515 0.0 0.0
0.015699873666315253 -0.006689829146215877 0.0 -0.02036495790738521 0.0 0.0
0.01681569832608682 -0.007111628648489941 0.0 -0.020452437910248648 0.0 0.0
0.017859955313139456 -0.007476429970199136 0.0 -0.020631040341612703 0.0 0.0
0.01890919450964529 -0.007894312511094986 0.0 -0.020899056703009927 0.0 0.0
0.0202594329539115 -0.00877176644224314 0.0 -0.02092663442621975 0.0 0.0
0.02234169246967737 -0.010860817083270356 0.0 -0.019291246301537696 0.0 0.0
0.02492440474854245 -0.014436889429837601 0.0 -0.01288692050468179 0.0 0.0
0.026230020328050305 -0.017031606255055447 0.0 1.953732314818879e-15 0.0 0.0
0.02492440474854258 -0.014436889429835034 0.0 0.012886920504681262 0.0 0.0
0.02234169246967744 -0.010860817083272502 0.0 0.019291246301536884 0.0 0.0
0.02025943295391153 -0.008771766442241988 0.0 0.020926634426218595 0.0 0.0
0.018909194509645257 -0.007894312511095349 0.0 0.020899056703007943 0.0 0.0
0.017859955313139452 -0.0074764299702018665 0.0 0.020631040341613262 0.0 0.0
0.016815698326086738 -0.007111628648487596 0.0 0.020452437910248984 0.0 0.0
0.015699873666315273 -0.0066898291462145236 0.0 0.02036495790738433 0.0 0.0
0.014529254822863909 -0.0062160990866222425 0.0 0.020329663685665755 0.0 0.0
0.013332298128752975 -0.0057147406384429915 0.0 0.020319993877145552 0.0 0.0
0.012126605212741035 -0.005202352072961011 0.0 0.020321215781692215 0.0 0.0
0.010918130950470646 -0.004684291718921252 0.0 0.020324119991869793 0.0 0.0
0.009700711815455723 -0.004152889140335573 0.0 0.02031636956099207 0.0 0.0
0.008449106438392405 -0.003580685926680848 0.0 0.020270565743668683 0.0 0.0
0.007103208975544593 -0.002910213537100159 0.0 0.020132375344388262 0.0 0.0
0.005536502548769176 -0.002043169384282834 0.0 0.019830053988994352 0.0 0.0
0.0035449739039954756 -0.000846461012279693 0.0 0.01944309969866122 0.0 0.0
0.0011767575733818674 0.0005636213122999667 0.0 0.019813110827727232 0.0 0.0
-7.730292066962714e-05 0.00043401885913563296 0.0 0.022423465444291645 0.0 0.0
0.0027204921913744086 -0.006830801580559171 0.0 0.022148388884699225 0.0 0.0
0.005535814467368986 -0.02327806621305343 0.0 0.016035549612935428 0.0 0.0
0.0046641478236926605 -0.019157148024126592 0.0 -0.01457647194141 0.0 0.0
0.002127688309435668 -0.006574111398725994 0.0 -0.02149492884137155 0.0 0.0
-0.0008515722071372471 0.00037597121999408524 0.0 -0.023613861593601744 0.0 0.0
-0.0005285386660810712 0.001223729088773983 0.0 -0.02142482733979502 0.0 0.0
0.001048478284107541 0.00025650443102258704 0.0 -0.02065516643054546 0.0 0.0
0.0024409506657027567 -0.0006915882611216232 0.0 -0.020712984356919 0.0 0.0
0.0034413893415885526 -0.0013309364794179329 0.0 -0.020861262988876396 0.0 0.0
0.004202136955160913 -0.0017573640921132352 0.0 -0.020938398524056857 0.0 0.0
0.004854823427473327 -0.0020755434833011834 0.0 -0.020964717088212802 0.0 0.0
0.005467958554202487 -0.002348763962347576 0.0 -0.020969481271990137 0.0 0.0
0.006070507798403839 -0.0026071835939003663 0.0 -0.02096810243272503 0.0 0.0
0.0066696996492996066 -0.0028593604136500977 0.0 -0.020967432503058346 0.0 0.0
0.00725904424951125 -0.003099570232195841 0.0 -0.020972213547193957 0.0 0.0
0.007818947408442037 -0.0033099163721016906 0.0 -0.020989949575523574 0.0 0.0
0.008316303682292591 -0.0034633193853530675 0.0 -0.021036191774554937 0.0 0.0
0.008725789774932312 -0.003548562297457115 0.0 -0.021146664674241766 0.0 0.0
0.009124863645210163 -0.003673636366159584 0.0 -0.021370979876213263 0.0 0.0
0.0098778127319339 -0.004299672900592862 0.0 -0.021540288850897673 0.0 0.0
0.011621474842377601 -0.006398838067520751 0.0 -0.02034273968735843 0.0 0.0
0.014295571467394099 -0.0105808377575832 0.0 -0.014102341340506568 0.0 0.0
0.01576125974949725 -0.013953974181628703 0.0 3.4954678040932663e-16 0.0 0.0
0.014295571467393806 -0.010580837757584578 0.0 0.014102341340505403 0.0 0.0
0.011621474842377723 -0.006398838067518992 0.0 0.020342739687357655 0.0 0.0
0.00987781273193381 -0.0042996729005950075 0.0 0.021540288850897458 0.0 0.0
0.00912486364520996 -0.003673636366160294 0.0 0.02137097987621342 0.0 0.0
0.008725789774932524 -0.0035485622974543037 0.0 0.021146664674244177 0.0 0.0
0.008316303682292699 -0.003463319385354243 0.0 0.021036191774554264 0.0 0.0
0.007818947408441919 -0.0033099163720978664 0.0 0.020989949575523293 0.0 0.0
0.007259044249511329 -0.003099570232199058 0.0 0.020972213547194044 0.0 0.0
0.00666969964929973 -0.0028593604136477897 0.0 0.02096743250306012 0.0 0.0
0.006070507798403823 -0.0026071835939012493 0.0 0.02096810243272505 0.0 0.0
0.005467958554202493 -0.002348763962345453 0.0 0.020969481271988624 0.0 0.0
0.004854823427473521 -0.0020755434833023187 0.0 0.020964717088213156 0.0 0.0
0.004202136955160966 -0.0017573640921121733 0.0 0.020938398524057423 0.0 0.0
0.0034413893415884945 -0.0013309364794171041 0.0 0.02086126298887638 0.0 0.0
0.0024409506657027897 -0.0006915882611228528 0.0 0.02071298435691886 0.0 0.0
0.0010484782841075192 0.00025650443102382607 0.0 0.02065516643054714 0.0 0.0
-0.0005285386660811068 0.0012237290887750836 0.0 0.021424827339794627 0.0 0.0
-0.0008515722071372531 0.0003759712199945718 0.0 0.023613861593600773 0.0 0.0
0.0021276883094357006 -0.006574111398725843 0.0 0.02149492884137055 0.0 0.0
0.004664147823692649 -0.019157148024126703 0.0 0.014576471941409527 0.0 0.0
0.0038124906602328684 -0.015500981711637943 0.0 -0.013203751780996652 0.0 0.0
0.0015216492522618945 -0.006054957879798067 0.0 -0.020548464615299557 0.0 0.0
-0.001589078879254822 0.0003934456880214668 0.0 -0.024085928466275938 0.0 0.0
-0.0021050328894923055 0.001791927256400796 0.0 -0.022451234520049126 0.0 0.0
-0.0013438068535412996 0.0012800899984685029 0.0 -0.02143293743738819 0.0 0.0
-0.0006069754688865156 0.0006250192885304879 0.0 -0.021185845742294727 0.0 0.0
-0.0002050377253349587 0.00023629288296003848 0.0 -0.021168291834588644 0.0 0.0
-4.1406541257808446e-05 6.261386084510485e-05 0.0 -0.021176905042585382 0.0 0.0
8.675439909170703e-06 1.6120414180624586e-06 0.0 -0.021180998156830538 0.0 0.0
1.675758566404195e-05 -1.2620894241548457e-05 0.0 -0.021182018607759576 0.0 0.0
1.3537641674061097e-05 -1.1445221548648875e-05 0.0 -0.02118211356414535 0.0 0.0
6.747744920297953e-06 -3.823808325244135e-06 0.0 -0.02118194310021404 0.0 0.0
-1.0202010322921942e-05 1.603802732223948e-05 0.0 -0.021181319911158805 0.0 0.0
-5.7475997476375777e-05 6.639847248702635e-05 0.0 -0.021179990539864055 0.0 0.0
-0.00017061120316525609 0.0001755099268362781 0.0 -0.021181122446874118 0.0 0.0
-0.00038423466989748536 0.0003612048812461157 0.0 -0.021212221687911245 0.0 0.0
-0.0006327491883926703 0.0005302306825168276 0.0 -0.021372139255240046 0.0 0.0
-0.0005035121526900442 0.0001937993404218845 0.0 -0.021699834521892242 0.0 0.0
0.000870226144484296 -0.0018543598740850347 0.0 -0.021123618024238833 0.0 0.0
0.0036839761958488326 -0.006717278249247429 0.0 -0.015365227058606485 0.0 0.0
0.005366588725644951 -0.011142194388217794 0.0 -5.117434254131581e-17 0.0 0.0
0.003683976195848806 -0.006717278249250928 0.0 0.015365227058607281 0.0 0.0
0.0008702261444844268 -0.001854359874083881 0.0 0.021123618024238323 0.0 0.0
-0.0005035121526900306 0.00019379934042329825 0.0 0.021699834521890993 0.0 0.0
-0.0006327491883927059 0.000530230682517531 0.0 0.021372139255239838 0.0 0.0
-0.0003842346698976389 0.00036120488124937047 0.0 0.021212221687911686 0.0 0.0
-0.00017061120316506852 0.00017550992683435489 0.0 0.021181122446874145 0.0 0.0
-5.7475997476040975e-05 6.639847248721034e-05 0.0 0.02117999053986476 0.0 0.0
-1.0202010323166104e-05 1.603802732056054e-05 0.0 0.021181319911158444 0.0 0.0
6.74774492021653e-06 -3.823808322189233e-06 0.0 0.021181943100214835 0.0 0.0
1.3537641674056435e-05 -1.1445221550076228e-05 0.0 0.02118211356414598 0.0 0.0
1.6757585664073393e-05 -1.2620894242274059e-05 0.0 0.02118201860775923 0.0 0.0
8.675439909267902e-06 1.6120414155466488e-06 0.0 0.02118099815683128 0.0 0.0
-4.140654125785653e-05 6.261386084479366e-05 0.0 0.021176905042584546 0.0 0.0
-0.0002050377253349241 0.00023629288295901749 0.0 0.021168291834587648 0.0 0.0
-0.0006069754688863292 0.0006250192885310702 0.0 0.02118584574229486 0.0 0.0
-0.001343806853541313 0.001280089998469483 0.0 0.021432937437389804 0.0 0.0
-0.0021050328894925115 0.0017919272564006225 0.0 0.022451234520048644 0.0 0.0
-0.001589078879255004 0.000393445688021871 0.0 0.02408592846627583 0.0 0.0
0.001521649252261816 -0.0060549578797981585 0.0 0.020548464615299116 0.0 0.0
0.003812490660232962 -0.015500981711637827 0.0 0.01320375178099717 0.0 0.0
0.002985354077620331 -0.012254209576263563 0.0 -0.011887609309937543 0.0 0.0
0.000899278338164454 -0.005358460595913666 0.0 -0.019350950777270528 0.0 0.0
-0.002320361706381736 0.0005051284795234972 0.0 -0.023914222965922452 0.0 0.0
-0.003591648031711887 0.002305349767807748 0.0 -0.022872868248846594 0.0 0.0
-0.003647042218620805 0.002235001271097607 0.0 -0.021731198145196248 0.0 0.0
-0.0036075701211717567 0.0019054008992748358 0.0 -0.02122415661687117 0.0 0.0
-0.003834463926565405 0.001790132220144959 0.0 -0.02104471847838595 0.0 0.0
-0.004280937808338608 0.0018788939272906934 0.0 -0.02098342775952356 0.0 0.0
-0.004837604379161804 0.002078485770212682 0.0 -0.020964769150058637 0.0 0.0
-0.005435459585548916 0.002324129667380783 0.0 -0.020961898093301286 0.0 0.0
-0.006044318733121707 0.002584875894869851 0.0 -0.0209634444846976 0.0 0.0
-0.0066565491609675755 0.002851864963902199 0.0 -0.020963803814389496 0.0 0.0
-0.0072784247375551805 0.0031306694771992584 0.0 -0.020957850090317885 0.0 0.0
-0.007929271834097307 0.003439020276142747 0.0 -0.020937611063875667 0.0 0.0
-0.008644338151509038 0.0038045519523307106 0.0 -0.020893622117465635 0.0 0.0
-0.009466765768345094 0.004250495312631398 0.0 -0.020839450310091857 0.0 0.0
-0.010357453233255097 0.004710884074426778 0.0 -0.020908836099780292 0.0 0.0
-0.01088854403371223 0.004709875291897936 0.0 -0.02138023979730231 0.0 0.0
-0.009946467624870132 0.002813041185302885 0.0 -0.021595252683932045 0.0 0.0
-0.006955846075397388 -0.0027845559123938907 0.0 -0.016710170876339765 0.0 0.0
-0.004991032817791044 -0.008643746501746012 0.0 3.716645047280309e-16 0.0 0.0
-0.00695584607539727 -0.0027845559123977144 0.0 0.01671017087633977 0.0 0.0
-0.009946467624870304 0.0028130411853040833 0.0 0.02159525268393125 0.0 0.0
-0.01088854403371225 0.004709875291895573 0.0 0.021380239797303555 0.0 0.0
-0.010357453233255149 0.004710884074423382 0.0 0.020908836099781267 0.0 0.0
-0.009466765768345067 0.0042504953126349405 0.0 0.020839450310090248 0.0 0.0
-0.008644338151508611 0.0038045519523273313 0.0 0.020893622117463977 0.0 0.0
-0.007929271834097267 0.00343902027614313 0.0 0.020937611063874963 0.0 0.0
-0.007278424737555456 0.003130669477196366 0.0 0.020957850090317535 0.0 0.0
-0.006656549160967683 0.0028518649639057525 0.0 0.020963803814390215 0.0 0.0
-0.006044318733121776 0.0025848758948666733 0.0 0.020963444484697714 0.0 0.0
-0.005435459585549262 0.002324129667379654 0.0 0.020961898093301585 0.0 0.0
-0.00483760437916223 0.002078485770211269 0.0 0.020964769150056767 0.0 0.0
-0.004280937808338549 0.0018788939272923123 0.0 0.020983427759524397 0.0 0.0
-0.003834463926565046 0.0017901322201433279 0.0 0.021044718478385415 0.0 0.0
-0.0036075701211715806 0.0019054008992773893 0.0 0.02122415661687086 0.0 0.0
-0.0036470422186208667 0.002235001271097419 0.0 0.021731198145196248 0.0 0.0
-0.0035916480317121063 0.0023053497678071854 0.0 0.02287286824884766 0.0 0.0
-0.0023203617063818865 0.0005051284795237201 0.0 0.02391422296592292 0.0 0.0
0.0008992783381644135 -0.005358460595913695 0.0 0.019350950777271583 0.0 0.0
0.0029853540776203645 -0.012254209576263528 0.0 0.011887609309938811 0.0 0.0
0.002191427102413888 -0.009382915716492343 0.0 -0.010593073512836773 0.0 0.0
0.0002658229701688678 -0.004551655044957184 0.0 -0.017925001113307516 0.0 0.0
-0.0030608731380525923 0.0007125021193835881 0.0 -0.023163678264534363 0.0 0.0
-0.005017378868944534 0.0027908116271930707 0.0 -0.022688935712148514 0.0 0.0
-0.005877717859680525 0.0031342517332018866 0.0 -0.021516695623607293 0.0 0.0
-0.006565090839018616 0.0031519192337336535 0.0 -0.020804820721656132 0.0 0.0
-0.007447318437216214 0.0033306882236213147 0.0 -0.020481257986594323 0.0 0.0
-0.008516516831029263 0.00369156494483273 0.0 -0.020355198351589436 0.0 0.0
-0.009684059305759486 0.004155121483880034 0.0 -0.02031556563573121 0.0 0.0
-0.010888690266737333 0.0046614828723869385 0.0 -0.02030927662993965 0.0 0.0
-0.012103052333887549 0.0051817707770780335 0.0 -0.02031229206068085 0.0 0.0
-0.013320215336380666 0.005707726020995267 0.0 -0.020313283855685888 0.0 0.0
-0.014545730678430402 0.006244398751081565 0.0 -0.020302671438733343 0.0 0.0
-0.01579681061921152 0.0068081818416938535 0.0 -0.02026528115947969 0.0 0.0
-0.017105404822802144 0.007424467711550406 0.0 -0.02017994678975649 0.0 0.0
-0.018519642876250207 0.008118419856332696 0.0 -0.02004215655067066 0.0 0.0
-0.02004027725705218 0.008859791409630672 0.0 -0.0199932355580072 0.0 0.0
-0.02127364194949043 0.009240599271672858 0.0 -0.02055088461486863 0.0 0.0
-0.02086175708072045 0.007642701066551447 0.0 -0.02168757631975818 0.0 0.0
-0.017675266457055836 0.0013013386495752224 0.0 -0.018164855681115418 0.0 0.0
-0.01535390742310987 -0.006531942181742148 0.0 2.883977778811442e-16 0.0 0.0
-0.017675266457055767 0.0013013386495747568 0.0 0.018164855681114766 0.0 0.0
-0.020861757080720172 0.007642701066551039 0.0 0.021687576319757262 0.0 0.0
-0.021273641949490132 0.009240599271673833 0.0 0.020550884614868273 0.0 0.0
-0.020040277257052173 0.008859791409627029 0.0 0.01999323555800682 0.0 0.0
-0.018519642876250363 0.008118419856334415 0.0 0.020042156550670768 0.0 0.0
-0.01710540482280184 0.007424467711548562 0.0 0.020179946789757312 0.0 0.0
-0.015796810619211378 0.0068081818416962595 0.0 0.02026528115947871 0.0 0.0
-0.014545730678430596 0.006244398751079478 0.0 0.020302671438731556 0.0 0.0
-0.013320215336380633 0.005707726020997717 0.0 0.02031328385568632 0.0 0.0
-0.01210305233388743 0.005181770777078255 0.0 0.02031229206068067 0.0 0.0
-0.010888690266737302 0.004661482872386101 0.0 0.020309276629939452 0.0 0.0
-0.009684059305759381 0.004155121483881159 0.0 0.020315565635730413 0.0 0.0
-0.008516516831029287 0.003691564944832808 0.0 0.02035519835158957 0.0 0.0
-0.007447318437216435 0.0033306882236235798 0.0 0.020481257986594167 0.0 0.0
-0.006565090839018539 0.003151919233734127 0.0 0.020804820721655612 0.0 0.0
-0.005877717859680354 0.0031342517332013306 0.0 0.021516695623606807 0.0 0.0
-0.0050173788689445485 0.0027908116271932286 0.0 0.02268893571214936 0.0 0.0
-0.0030608731380524844 0.0007125021193831607 0.0 0.023163678264535272 0.0 0.0
0.00026582297016898804 -0.004551655044956936 0.0 0.01792500111330801 0.0 0.0
0.0021914271024136745 -0.009382915716492295 0.0 0.010593073512836605 0.0 0.0
0.0014419729365777046 -0.006871168625234167 0.0 -0.009287663649956795 0.0 0.0
-0.0003682581749003638 -0.0036868924455871867 0.0 -0.01628232821904738 0.0 0.0
-0.0038151008001359185 0.0010062801588623838 0.0 -0.021887272885508242 0.0 0.0
-0.006402274542317024 0.0032656316749970207 0.0 -0.021906906697841174 0.0 0.0
-0.00805195980300658 0.003991134086325664 0.0 -0.02076547916348234 0.0 0.0
-0.009486733018027453 0.004369765966994578 0.0 -0.01990777532306542 0.0 0.0
-0.011045973189693786 0.004859573452635692 0.0 -0.019469118111452285 0.0 0.0
-0.012748896823066081 0.0055011943253951675 0.0 -0.019289652598605794 0.0 0.0
-0.014530900650003124 0.006231684530474079 0.0 -0.01923303135097554 0.0 0.0
-0.016342936701986693 0.006999435235456198 0.0 -0.01922433397131241 0.0 0.0
-0.018162628664075007 0.007779207086723914 0.0 -0.01922884481550538 0.0 0.0
-0.01998430497997721 0.008563796478781515 0.0 -0.019230597607236367 0.0 0.0
-0.021812386746458034 0.009357441596530342 0.0 -0.019216532374074773 0.0 0.0
-0.0236608792632295 0.010174385214771662 0.0 -0.01916528420479824 0.0 0.0
-0.025555669149031554 0.011036775102346292 0.0 -0.019045558487740016 0.0 0.0
-0.027542883360516787 0.011966507812398507 0.0 -0.01883515225949384 0.0 0.0
-0.02966978798107349 0.012967508601439127 0.0 -0.01864773904141101 0.0 0.0
-0.03164350309857404 0.013764493799148698 0.0 -0.019183874706500063 0.0 0.0
-0.031904120674630644 0.012666689506416303 0.0 -0.021288883291816264 0.0 0.0
-0.028534675994577145 0.005659193082904665 0.0 -0.019739366587009227 0.0 0.0
-0.025775609534706156 -0.004913691205286797 0.0 -8.187894806610529e-16 0.0 0.0
-0.028534675994577 0.005659193082904953 0.0 0.01973936658700795 0.0 0.0
-0.03190412067463047 0.012666689506411408 0.0 0.02128888329181723 0.0 0.0
-0.03164350309857428 0.013764493799149326 0.0 0.01918387470650039 0.0 0.0
-0.0296697879810736 0.012967508601441172 0.0 0.018647739041411152 0.0 0.0
-0.02754288336051631 0.011966507812400466 0.0 0.01883515225949328 0.0 0.0
-0.025555669149031266 0.011036775102346592 0.0 0.019045558487739953 0.0 0.0
-0.023660879263229725 0.010174385214772552 0.0 0.019165284204796885 0.0 0.0
-0.02181238674645811 0.009357441596530543 0.0 0.019216532374074825 0.0 0.0
-0.019984304979977052 0.008563796478783183 0.0 0.01923059760723774 0.0 0.0
-0.018162628664074882 0.007779207086723222 0.0 0.01922884481550568 0.0 0.0
-0.016342936701986794 0.006999435235456864 0.0 0.019224333971311534 0.0 0.0
-0.014530900650003196 0.0062316845304752925 0.0 0.01923303135097532 0.0 0.0
-0.012748896823065962 0.005501194325393316 0.0 0.019289652598605673 0.0 0.0
-0.011045973189693803 0.004859573452636675 0.0 0.01946911811145268 0.0 0.0
-0.009486733018027568 0.004369765966994396 0.0 0.019907775323065913 0.0 0.0
-0.00805195980300654 0.00399113408632542 0.0 0.02076547916348192 0.0 0.0
-0.006402274542317104 0.003265631674996796 0.0 0.021906906697841302 0.0 0.0
-0.0038151008001360244 0.0010062801588622394 0.0 0.021887272885508062 0.0 0.0
-0.00036825817490042346 -0.003686892445586931 0.0 0.01628232821904667 0.0 0.0
0.001441972936577615 -0.006871168625233908 0.0 0.009287663649956361 0.0 0.0
0.0007505899321153395 -0.0047177735777955854 0.0 -0.00794635983312615 0.0 0.0
-0.000988248789883237 -0.0028053970105558716 0.0 -0.014430213922409747 0.0 0.0
-0.004578728384775988 0.001369825573864446 0.0 -0.020125554442685288 0.0 0.0
-0.007758697681471175 0.0037391042067503044 0.0 -0.02053479017234085 0.0 0.0
-0.01018494185990749 0.00481842130291368 0.0 -0.019459840887556396 0.0 0.0
-0.012381894494380897 0.005566288024762156 0.0 -0.018516868261255454 0.0 0.0
-0.014634500480434538 0.00637977062477745 0.0 -0.01800096864372412 0.0 0.0
-0.01697948477629199 0.007308810653532073 0.0 -0.017784786710395316 0.0 0.0
-0.019378485313219097 0.008308437251419939 0.0 -0.017717033858462426 0.0 0.0
-0.021798192977927105 0.009337973462697505 0.0 -0.017707300184171527 0.0 0.0
-0.024222980455708386 0.01037712780582921 0.0 -0.01771327096683318 0.0 0.0
-0.026648887197924596 0.011420110714501445 0.0 -0.017715878337786577 0.0 0.0
-0.029078819245210552 0.012470154407002054 0.0 -0.017699910298394815 0.0 0.0
-0.03152257014969684 0.013538394496453842 0.0 -0.01763962458386638 0.0 0.0
-0.03399815906565956 0.01464343615725986 0.0 -0.017494797929794866 0.0 0.0
-0.03654003906298571 0.015799571796820257 0.0 -0.017231592695078804 0.0 0.0
-0.03923401268808774 0.017027102052345575 0.0 -0.01690844701020718 0.0 0.0
-0.04196611366051401 0.018241985646603377 0.0 -0.017270950029565538 0.0 0.0
-0.04309028344971684 0.01789685292654906 0.0 -0.02023452869679625 0.0 0.0
-0.03960730524687055 0.010460586889691252 0.0 -0.021401443790790217 0.0 0.0
-0.036331636122567075 -0.003938155940483205 0.0 -1.8041124150158794e-16 0.0 0.0
-0.03960730524687014 0.010460586889689778 0.0 0.021401443790790477 0.0 0.0
-0.04309028344971667 0.01789685292654782 0.0 0.020234528696794464 0.0 0.0
-0.041966113660514205 0.018241985646603672 0.0 0.01727095002956628 0.0 0.0
-0.039234012688087905 0.017027102052345172 0.0 0.01690844701020931 0.0 0.0
-0.03654003906298549 0.01579957179682424 0.0 0.01723159269508051 0.0 0.0
-0.03399815906565935 0.01464343615726342 0.0 0.017494797929794356 0.0 0.0
-0.031522570149696914 0.013538394496451172 0.0 0.017639624583866052 0.0 0.0
-0.029078819245210705 0.012470154407002965 0.0 0.017699910298395703 0.0 0.0
-0.02664888719792481 0.01142011071450308 0.0 0.017715878337786928 0.0 0.0
-0.02422298045570863 0.010377127805828248 0.0 0.01771327096683277 0.0 0.0
-0.02179819297792709 0.009337973462700582 0.0 0.01770730018417187 0.0 0.0
-0.019378485313218882 0.008308437251419503 0.0 0.017717033858463717 0.0 0.0
-0.016979484776291964 0.00730881065353085 0.0 0.01778478671039612 0.0 0.0
-0.01463450048043442 0.006379770624778171 0.0 0.018000968643723556 0.0 0.0
-0.012381894494380673 0.00556628802476054 0.0 0.01851686826125421 0.0 0.0
-0.010184941859907308 0.004818421302913766 0.0 0.01945984088755605 0.0 0.0
-0.00775869768147127 0.003739104206750182 0.0 0.020534790172341732 0.0 0.0
-0.00457872838477616 0.0013698255738646148 0.0 0.020125554442685163 0.0 0.0
-0.000988248789883376 -0.002805397010555823 0.0 0.014430213922409788 0.0 0.0
0.0007505899321151181 -0.004717773577795517 0.0 0.007946359833126379 0.0 0.0
0.0001340164980281228 -0.0029331054236085147 0.0 -0.006556746807539884 0.0 0.0
-0.0015744403875111034 -0.001940994890564215 0.0 -0.012376899739059045 0.0 0.0
-0.005339213128123283 0.0017802965264438904 0.0 -0.0179057312151089 0.0 0.0
-0.009092693960085328 0.004214294611845066 0.0 -0.01857492277058624 0.0 0.0
-0.012291149747171704 0.005628520239148298 0.0 -0.017585708331141956 0.0 0.0
-0.015261743142328404 0.006750497738896134 0.0 -0.016620377311548435 0.0 0.0
-0.0182183471395946 0.007895369224489836 0.0 -0.01607174620131708 0.0 0.0
-0.021210221013673064 0.009115823225907666 0.0 -0.015839508182762908 0.0 0.0
-0.024227268937101202 0.010385700554947424 0.0 -0.015767764076689905 0.0 0.0
-0.02725442401010822 0.011677055494192188 0.0 -0.015758476225376936 0.0 0.0
-0.03028400082409259 0.012975450296970205 0.0 -0.015765696433791526 0.0 0.0
-0.033314015005655666 0.014276681892616414 0.0 -0.015769176339228804 0.0 0.0
-0.03634560467818298 0.015582969952554974 0.0 -0.015752891547850662 0.0 0.0
-0.03938323562880768 0.016901385188002188 0.0 -0.01568970392605498 0.0 0.0
-0.042436485826139354 0.018246219569788315 0.0 -0.01553149512877576 0.0 0.0
-0.04551945749254984 0.01962547811573367 0.0 -0.015238954657296924 0.0 0.0
-0.0487253080093316 0.021041074098524955 0.0 -0.014822894562864446 0.0 0.0
-0.05218744197570756 0.022613213184143374 0.0 -0.014854896898397201 0.0 0.0
-0.05441093179709308 0.023298679764876574 0.0 -0.018302233303608924 0.0 0.0
-0.05098334911426258 0.01595496385279753 0.0 -0.023020275593089976 0.0 0.0
-0.047139439785746425 -0.0038024841777591434 0.0 8.326672684688674e-17 0.0 0.0
-0.05098334911426269 0.015954963852795708 0.0 0.023020275593090823 0.0 0.0
-0.054410931797092964 0.02329867976487627 0.0 0.018302233303608185 0.0 0.0
-0.052187441975707835 0.022613213184144235 0.0 0.01485489689839965 0.0 0.0
-0.04872530800933166 0.021041074098521014 0.0 0.01482289456286678 0.0 0.0
-0.04551945749254962 0.01962547811573529 0.0 0.015238954657297698 0.0 0.0
-0.042436485826139576 0.018246219569790577 0.0 0.015531495128774327 0.0 0.0
-0.03938323562880755 0.01690138518800164 0.0 0.015689703926054777 0.0 0.0
-0.036345604678182805 0.015582969952555096 0.0 0.015752891547850645 0.0 0.0
-0.033314015005655936 0.01427668189261826 0.0 0.01576917633922805 0.0 0.0
-0.030284000824092397 0.012975450296970687 0.0 0.015765696433791675 0.0 0.0
-0.02725442401010789 0.011677055494192845 0.0 0.015758476225376756 0.0 0.0
-0.024227268937101296 0.010385700554947919 0.0 0.01576776407668907 0.0 0.0
-0.021210221013673338 0.009115823225906115 0.0 0.015839508182762235 0.0 0.0
-0.018218347139594783 0.007895369224491869 0.0 0.016071746201316593 0.0 0.0
-0.015261743142328366 0.006750497738894163 0.0 0.01662037731154763 0.0 0.0
-0.012291149747171654 0.005628520239147756 0.0 0.017585708331142907 0.0 0.0
-0.009092693960085383 0.004214294611845251 0.0 0.01857492277058521 0.0 0.0
-0.0053392131281232245 0.0017802965264441732 0.0 0.017905731215109463 0.0 0.0
-0.001574440387510989 -0.0019409948905643134 0.0 0.012376899739058459 0.0 0.0
0.0001340164980281414 -0.002933105423608488 0.0 0.006556746807540748 0.0 0.0
-0.00038584717154451615 -0.0015355833651276853 0.0 -0.005127006412102326 0.0 0.0
-0.0020996485981162314 -0.0011246508986179507 0.0 -0.010136546022419117 0.0 0.0
-0.006075007055769623 0.0022080261977355277 0.0 -0.015238273938521021 0.0 0.0
-0.010405626866056922 0.004690317097274551 0.0 -0.01601846955469927 0.0 0.0
-0.014385359438619742 0.006434357497837806 0.0 -0.015131126539385639 0.0 0.0
-0.018139006555966265 0.007932704218333721 0.0 -0.014211468860200364 0.0 0.0
-0.02180395325411989 0.00941122559996626 0.0 -0.013679268599630545 0.0 0.0
-0.025443393891791975 0.010923885264633058 0.0 -0.013453940490976977 0.0 0.0
-0.029077734483640746 0.012463797863370632 0.0 -0.013385807318609357 0.0 0.0
-0.032711536314924974 0.01401659038856503 0.0 -0.013378242529467834 0.0 0.0
-0.036345538699934114 0.01557405131328652 0.0 -0.013386191824742204 0.0 0.0
-0.03997969510647543 0.01713352844020916 0.0 -0.013390402377442066 0.0 0.0
-0.043613384006125334 0.018696207513349807 0.0 -0.013375322039678068 0.0 0.0
-0.04724465489189797 0.020265171483594326 0.0 -0.01331538252827413 0.0 0.0
-0.05087390798670497 0.02184664174609931 0.0 -0.013160335821633723 0.0 0.0
-0.054494067254164516 0.023451713721916588 0.0 -0.01285754736815473 0.0 0.0
-0.05814993337884232 0.02503209557340155 0.0 -0.012431297924656078 0.0 0.0
-0.062229145706204 0.02680653279992927 0.0 -0.012079366893060987 0.0 0.0
-0.06580223403843147 0.028739631311634428 0.0 -0.015242631188373733 0.0 0.0
-0.06277234395604378 0.022500646859908498 0.0 -0.024235838608733566 0.0 0.0
-0.05839828642736304 -0.004742088903102915 0.0 1.9949319973733282e-16 0.0 0.0
-0.06277234395604389 0.022500646859905542 0.0 0.0242358386087351 0.0 0.0
-0.06580223403843138 0.02873963131163327 0.0 0.015242631188373025 0.0 0.0
-0.06222914570620376 0.026806532799924742 0.0 0.012079366893061504 0.0 0.0
-0.0581499333788426 0.025032095573403277 0.0 0.012431297924657898 0.0 0.0
-0.054494067254164134 0.023451713721916467 0.0 0.012857547368155156 0.0 0.0
-0.05087390798670478 0.021846641746094762 0.0 0.013160335821634665 0.0 0.0
-0.04724465489189835 0.020265171483596495 0.0 0.013315382528275996 0.0 0.0
-0.04361338400612533 0.018696207513349626 0.0 0.013375322039678068 0.0 0.0
-0.03997969510647531 0.017133528440208892 0.0 0.013390402377441497 0.0 0.0
-0.03634553869993403 0.015574051313289875 0.0 0.013386191824741437 0.0 0.0
-0.03271153631492472 0.014016590388562348 0.0 0.013378242529468367 0.0 0.0
-0.0290777344836406 0.012463797863371746 0.0 0.013385807318608398 0.0 0.0
-0.02544339389179206 0.010923885264634066 0.0 0.013453940490976523 0.0 0.0
-0.021803953254119865 0.009411225599965711 0.0 0.013679268599630132 0.0 0.0
-0.01813900655596616 0.007932704218334473 0.0 0.014211468860200797 0.0 0.0
-0.014385359438619814 0.006434357497837632 0.0 0.015131126539386284 0.0 0.0
-0.010405626866057043 0.004690317097275356 0.0 0.01601846955469859 0.0 0.0
-0.006075007055769642 0.0022080261977363335 0.0 0.015238273938520102 0.0 0.0
-0.002099648598116408 -0.0011246508986179394 0.0 0.010136546022418421 0.0 0.0
-0.000385847171544739 -0.0015355833651275379 0.0 0.005127006412101923 0.0 0.0
-0.00077793031153272 -0.0005469890940308964 0.0 -0.003700552403735671 0.0 0.0
-0.0025243326066065387 -0.00039124736405002716 0.0 -0.0077339853361530035 0.0 0.0
-0.006753588636863326 0.0026146106917864387 0.0 -0.012108162862748068 0.0 0.0
-0.011696562018392101 0.005165719088768073 0.0 -0.012840693216475315 0.0 0.0
-0.016484234075024112 0.007250718915957027 0.0 -0.012086441819941665 0.0 0.0
-0.021027826990146336 0.009124127159025601 0.0 -0.011288658320238554 0.0 0.0
-0.02539832703147427 0.010932595884590763 0.0 -0.010824699360416204 0.0 0.0
-0.029681407754169817 0.012734709154816545 0.0 -0.010629641908019011 0.0 0.0
-0.03393029801610127 0.014542978066611496 0.0 -0.010572180646668778 0.0 0.0
-0.03816934780080409 0.01635643093337119 0.0 -0.010567024975079595 0.0 0.0
-0.042407379027297194 0.018172724374469557 0.0 -0.010574834528866482 0.0 0.0
-0.04664591505823764 0.01999072644990373 0.0 -0.010579119173881293 0.0 0.0
-0.050882614208699155 0.02180998993126854 0.0 -0.010567180040142314 0.0 0.0
-0.0551093353840465 0.023631600717112067 0.0 -0.0105145338169801 0.0 0.0
-0.05931307699238246 0.02544865456826033 0.0 -0.010384291731836394 0.0 0.0
-0.06347683751402765 0.027276811713396958 0.0 -0.010093732121841168 0.0 0.0
-0.06754286553129628 0.02905069148294854 0.0 -0.00971773651469719 0.0 0.0
-0.07199981972213913 0.030781963976422348 0.0 -0.009232578663215212 0.0 0.0
-0.07708931430760593 0.033888706455871484 0.0 -0.010946619644718906 0.0 0.0
-0.07509613719426281 0.03058848515418213 0.0 -0.024138881425334123 0.0 0.0
-0.0704737181206446 -0.00696621527371853 0.0 -7.546047120499111e-17 0.0 0.0
-0.07509613719426307 0.0305884851541834 0.0 0.02413888142533423 0.0 0.0
-0.07708931430760588 0.03388870645587149 0.0 0.010946619644718655 0.0 0.0
-0.07199981972213905 0.030781963976422355 0.0 0.00923257866321483 0.0 0.0
-0.06754286553129622 0.029050691482950725 0.0 0.009717736514696452 0.0 0.0
-0.06347683751402738 0.027276811713395663 0.0 0.010093732121840417 0.0 0.0
-0.05931307699238282 0.025448654568255662 0.0 0.01038429173183447 0.0 0.0
-0.05510933538404685 0.02363160071711369 0.0 0.010514533816979992 0.0 0.0
-0.05088261420869931 0.02180998993126526 0.0 0.010567180040142201 0.0 0.0
-0.04664591505823804 0.0199907264499044 0.0 0.010579119173883366 0.0 0.0
-0.042407379027297396 0.018172724374471597 0.0 0.010574834528866227 0.0 0.0
-0.03816934780080396 0.016356430933370334 0.0 0.01056702497508031 0.0 0.0
-0.03393029801610108 0.014542978066612748 0.0 0.010572180646668592 0.0 0.0
-0.029681407754169928 0.01273470915481812 0.0 0.01062964190801977 0.0 0.0
-0.025398327031474197 0.010932595884590975 0.0 0.010824699360415337 0.0 0.0
-0.021027826990145992 0.00912412715902549 0.0 0.01128865832023863 0.0 0.0
-0.016484234075023987 0.007250718915955768 0.0 0.0120864418199408 0.0 0.0
-0.011696562018392158 0.005165719088768795 0.0 0.012840693216475718 0.0 0.0
-0.006753588636863304 0.0026146106917864643 0.0 0.012108162862746843 0.0 0.0
-0.0025243326066064996 -0.0003912473640498288 0.0 0.007733985336153959 0.0 0.0
-0.0007779303115327955 -0.0005469890940310607 0.0 0.003700552403734263 0.0 0.0
-0.0009941423543858535 1.4733057930288817e-05 0.0 -0.0023842794429993677 0.0 0.0
-0.0027877738606402204 0.00020847030730364462 0.0 -0.005208611585317165 0.0 0.0
-0.007328627047539447 0.002950637281329502 0.0 -0.008455437886125034 0.0 0.0
-0.012966345206255812 0.005644189524170869 0.0 -0.00899940496438222 0.0 0.0
-0.018608313208159147 0.00809538052119064 0.0 -0.008446320298483481 0.0 0.0
-0.023943473155454132 0.010336421423112816 0.0 -0.00785613933518989 0.0 0.0
-0.029008600717026413 0.012464785272184562 0.0 -0.007512991958900853 0.0 0.0
-0.03392651411486424 0.014549821931967733 0.0 -0.007369674003760005 0.0 0.0
-0.03878519248433125 0.016623346713807927 0.0 -0.007328312194191266 0.0 0.0
-0.04362757459117826 0.018696326081621466 0.0 -0.007325302826871016 0.0 0.0
-0.048469189387281106 0.020771274468510414 0.0 -0.00733154643840049 0.0 0.0
-0.053312709676314254 0.02284804419654418 0.0 -0.007335108896091227 0.0 0.0
-0.05815343790815074 0.02492529062823716 0.0 -0.007326610820044915 0.0 0.0
-0.06297979786147546 0.02699948920814076 0.0 -0.007289148907537033 0.0 0.0
-0.06775933252581468 0.02906421496402671 0.0 -0.007187564897096238 0.0 0.0
-0.0724691240850162 0.031086903928575327 0.0 -0.006993939313650611 0.0 0.0
-0.07697921026409825 0.03314133941207683 0.0 -0.006575023698058758 0.0 0.0
-0.08145076978558637 0.034677469831624674 0.0 -0.0065953531325410935 0.0 0.0
-0.0878750871469425 0.03802864730863804 0.0 -0.006117395339165782 0.0 0.0
-0.08804540395119098 0.040794978992119015 0.0 -0.020424260842616122 0.0 0.0
-0.08409084884287912 -0.010412971784681176 0.0 -8.448103328007051e-16 0.0 0.0
-0.08804540395119127 0.0407949789921211 0.0 0.020424260842614953 0.0 0.0
-0.08787508714694231 0.038028647308637406 0.0 0.006117395339165563 0.0 0.0
-0.08145076978558628 0.03467746983162529 0.0 0.006595353132541795 0.0 0.0
-0.07697921026409828 0.03314133941207813 0.0 0.006575023698058258 0.0 0.0
-0.0724691240850163 0.031086903928577818 0.0 0.006993939313651021 0.0 0.0
-0.06775933252581481 0.029064214964029757 0.0 0.007187564897096621 0.0 0.0
-0.06297979786147556 0.026999489208136374 0.0 0.007289148907538361 0.0 0.0
-0.058153437908150724 0.024925290628236958 0.0 0.0073266108200433725 0.0 0.0
-0.05331270967631411 0.02284804419654533 0.0 0.007335108896093175 0.0 0.0
-0.04846918938728124 0.020771274468508853 0.0 0.007331546438400994 0.0 0.0
-0.043627574591178234 0.018696326081621067 0.0 0.007325302826871695 0.0 0.0
-0.03878519248433105 0.01662334671380889 0.0 0.007328312194192027 0.0 0.0
-0.03392651411486426 0.01454982193196764 0.0 0.00736967400376012 0.0 0.0
-0.029008600717026635 0.012464785272184604 0.0 0.007512991958899592 0.0 0.0
-0.02394347315545422 0.010336421423111827 0.0 0.007856139335188974 0.0 0.0
-0.018608313208158932 0.008095380521188023 0.0 0.008446320298483275 0.0 0.0
-0.012966345206255664 0.005644189524170858 0.0 0.00899940496438341 0.0 0.0
-0.007328627047539404 0.0029506372813288095 0.0 0.008455437886125197 0.0 0.0
-0.0027877738606401385 0.00020847030730348668 0.0 0.005208611585317056 0.0 0.0
-0.0009941423543858951 1.473305793020039e-05 0.0 0.0023842794429986334 0.0 0.0
-0.0009535379278270526 0.00014772781385571264 0.0 -0.0014043192920530877 0.0 0.0
-0.002792040241932697 0.0005845472207081885 0.0 -0.0026152136717840974 0.0 0.0
-0.007737338384696748 0.0031557894163745815 0.0 -0.004132870211723024 0.0 0.0
-0.014225027630661809 0.006144572181331286 0.0 -0.004446755541421925 0.0 0.0
-0.020783612715731346 0.008988156516920056 0.0 -0.004209889138877723 0.0 0.0
-0.026901804108352842 0.011581688530877923 0.0 -0.003925151457379034 0.0 0.0
-0.03264160425863863 0.014012598074075552 0.0 -0.0037529854503937075 0.0 0.0
-0.038180486110167285 0.01637033876690258 0.0 -0.0036785737539732095 0.0 0.0
-0.04364236904912102 0.018704776250234995 0.0 -0.0036559664839093797 0.0 0.0
-0.04908576988464265 0.021035930472652863 0.0 -0.0036535287798932546 0.0 0.0
-0.054530638738872844 0.023369403540101637 0.0 -0.0036562327693537306 0.0 0.0
-0.059979709824414196 0.025705422870177328 0.0 -0.0036577249268487785 0.0 0.0
-0.06542697614688094 0.028041823130318562 0.0 -0.003652819931553606 0.0 0.0
-0.07085469125862692 0.030372497776239113 0.0 -0.0036336119162925645 0.0 0.0
-0.07622803531754037 0.032684466636174324 0.0 -0.0035804349167670012 0.0 0.0
-0.08145458803916163 0.034945427403411305 0.0 -0.0034843714464775077 0.0 0.0
-0.0865325702553962 0.037106132093102526 0.0 -0.0033071500619037547 0.0 0.0
-0.09076379262008896 0.039241304863179706 0.0 -0.003074382084975701 0.0 0.0
-0.0973299972728116 0.03974896287728298 0.0 -0.00484876198811371 0.0 0.0
-0.1015023266629549 0.05339941871535529 0.0 -0.00692036930650817 0.0 0.0
-0.10082065055480159 -0.013895736104117259 0.0 -8.239936510889834e-16 0.0 0.0
-0.10150232666295494 0.05339941871535865 0.0 0.006920369306509238 0.0 0.0
-0.09732999727281157 0.03974896287728293 0.0 0.004848761988114328 0.0 0.0
-0.09076379262008913 0.03924130486318061 0.0 0.003074382084974073 0.0 0.0
-0.08653257025539607 0.03710613209310442 0.0 0.0033071500619024628 0.0 0.0
-0.0814545880391612 0.03494542740341778 0.0 0.0034843714464768967 0.0 0.0
-0.07622803531754033 0.032684466636182206 0.0 0.003580434916765945 0.0 0.0
-0.07085469125862733 0.03037249777623552 0.0 0.003633611916292746 0.0 0.0
-0.06542697614688085 0.02804182313032102 0.0 0.0036528199315525667 0.0 0.0
-0.05997970982441379 0.02570542287017583 0.0 0.0036577249268484047 0.0 0.0
-0.054530638738872775 0.023369403540099587 0.0 0.003656232769353532 0.0 0.0
-0.04908576988464264 0.021035930472652193 0.0 0.003653528779892937 0.0 0.0
-0.04364236904912079 0.01870477625023407 0.0 0.003655966483909377 0.0 0.0
-0.03818048611016735 0.016370338766903515 0.0 0.003678573753973859 0.0 0.0
-0.03264160425863895 0.014012598074073825 0.0 0.0037529854503932404 0.0 0.0
-0.02690180410835298 0.011581688530879233 0.0 0.003925151457379012 0.0 0.0
-0.020783612715731262 0.008988156516918745 0.0 0.004209889138877485 0.0 0.0
-0.014225027630661866 0.006144572181331174 0.0 0.004446755541421423 0.0 0.0
-0.00773733838469691 0.0031557894163738824 0.0 0.004132870211723298 0.0 0.0
-0.0027920402419326323 0.0005845472207081002 0.0 0.0026152136717839075 0.0 0.0
-0.0009535379278269589 0.00014772781385582638 0.0 0.0014043192920530508 0.0 0.0
-0.0005097219764643877 0.00010830498238432486 0.0 -0.0009410616918185325 0.0 0.0
-0.0023716495332107975 0.000702006070889405 0.0 -0.001105309098894613 0.0 0.0
-0.00790150797516696 0.00321749854377182 0.0 -0.0014066673871376777 0.0 0.0
-0.01550528058157438 0.006403943162259482 0.0 -0.0015683838358812644 0.0 0.0
-0.023040416025192773 0.00944909327238084 0.0 -0.001556438110483946 0.0 0.0
-0.0299192224858224 0.012214122732290722 0.0 -0.0014840115053955947 0.0 0.0
-0.03630318015030122 0.014790955632975427 0.0 -0.0014286648462084797 0.0 0.0
-0.04244432825230206 0.017282056494910714 0.0 -0.0014001102438529322 0.0 0.0
-0.048501378869303745 0.019745721660256867 0.0 -0.0013891734271539442 0.0 0.0
-0.054543341841072984 0.02220561457668781 0.0 -0.0013864212179233578 0.0 0.0
-0.06059124608698083 0.0246683042749255 0.0 -0.0013863198145081046 0.0 0.0
-0.0666467675899251 0.02713418505810307 0.0 -0.0013860991506169642 0.0 0.0
-0.07270266665776644 0.029600088492199406 0.0 -0.0013832716284047954 0.0 0.0
-0.07873856476123528 0.03206168208310763 0.0 -0.0013756595175126174 0.0 0.0
-0.08470878487827137 0.0344913583988401 0.0 -0.0013573265477240743 0.0 0.0
-0.09051144545535054 0.03690502300988605 0.0 -0.0013218576210794683 0.0 0.0
-0.09597191463916672 0.03900461632662141 0.0 -0.001357905619513716 0.0 0.0
-0.1009085100176063 0.04184204330884033 0.0 -0.0009239162819227962 0.0 0.0
-0.1038498034334395 0.03977299063477065 0.0 -0.004536565750862073 0.0 0.0
-0.11446058403795875 0.060296903983191125 0.0 -2.0423857593383776e-05 0.0 0.0
-0.124447869704473 -0.015386124777888794 0.0 -2.3037127760972e-15 0.0 0.0
-0.11446058403795803 0.060296903983199694 0.0 2.042385759342888e-05 0.0 0.0
-0.10384980343343986 0.03977299063477117 0.0 0.004536565750863246 0.0 0.0
-0.1009085100176071 0.04184204330884214 0.0 0.0009239162819217345 0.0 0.0
-0.09597191463916681 0.039004616326621805 0.0 0.001357905619513062 0.0 0.0
-0.09051144545535002 0.03690502300988973 0.0 0.0013218576210791092 0.0 0.0
-0.08470878487827176 0.03449135839884819 0.0 0.0013573265477235738 0.0 0.0
-0.07873856476123589 0.03206168208311268 0.0 0.0013756595175110492 0.0 0.0
-0.07270266665776631 0.02960008849219888 0.0 0.0013832716284046965 0.0 0.0
-0.06664676758992516 0.027134185058103236 0.0 0.0013860991506175757 0.0 0.0
-0.06059124608698092 0.024668304274922268 0.0 0.0013863198145069398 0.0 0.0
-0.054543341841072804 0.0222056145766866 0.0 0.0013864212179222285 0.0 0.0
-0.048501378869303516 0.019745721660255677 0.0 0.0013891734271543705 0.0 0.0
-0.04244432825230184 0.017282056494912802 0.0 0.0014001102438534214 0.0 0.0
-0.03630318015030094 0.01479095563297324 0.0 0.0014286648462070919 0.0 0.0
-0.029919222485822534 0.012214122732294807 0.0 0.0014840115053958236 0.0 0.0
-0.023040416025192884 0.009449093272380738 0.0 0.0015564381104807186 0.0 0.0
-0.015505280581573922 0.006403943162259226 0.0 0.0015683838358793267 0.0 0.0
-0.007901507975166783 0.003217498543771173 0.0 0.0014066673871366456 0.0 0.0
-0.0023716495332108145 0.0007020060708898442 0.0 0.0011053090988952222 0.0 0.0
-0.0005097219764644004 0.00010830498238423352 0.0 0.0009410616918185321 0.0 0.0