# vtk DataFile Version 3.0
Some data
ASCII
DATASET UNSTRUCTURED_GRID
POINTS 861 float
0.0 0.0 0.0
0.4 0.0 0.0
0.8 0.0 0.0
1.2000000000000002 0.0 0.0
1.6 0.0 0.0
2.0 0.0 0.0
2.4000000000000004 0.0 0.0
2.8000000000000003 0.0 0.0
3.2 0.0 0.0
3.6 0.0 0.0
4.0 0.0 0.0
4.4 0.0 0.0
4.800000000000001 0.0 0.0
5.2 0.0 0.0
5.6000000000000005 0.0 0.0
6.0 0.0 0.0
6.4 0.0 0.0
6.800000000000001 0.0 0.0
7.2 0.0 0.0
7.6000000000000005 0.0 0.0
8.0 0.0 0.0
8.4 0.0 0.0
8.8 0.0 0.0
9.200000000000001 0.0 0.0
9.600000000000001 0.0 0.0
10.0 0.0 0.0
10.4 0.0 0.0
10.8 0.0 0.0
11.200000000000001 0.0 0.0
11.600000000000001 0.0 0.0
12.0 0.0 0.0
12.4 0.0 0.0
12.8 0.0 0.0
13.200000000000001 0.0 0.0
13.600000000000001 0.0 0.0
14.0 0.0 0.0
14.4 0.0 0.0
14.8 0.0 0.0
15.200000000000001 0.0 0.0
15.600000000000001 0.0 0.0
16.0 0.0 0.0
0.0 0.1 0.0
0.4 0.1 0.0
0.8 0.1 0.0
1.2000000000000002 0.1 0.0
1.6 0.1 0.0
2.0 0.1 0.0
2.4000000000000004 0.1 0.0
2.8000000000000003 0.1 0.0
3.2 0.1 0.0
3.6 0.1 0.0
4.0 0.1 0.0
4.4 0.1 0.0
4.800000000000001 0.1 0.0
5.2 0.1 0.0
5.6000000000000005 0.1 0.0
6.0 0.1 0.0
6.4 0.1 0.0
6.800000000000001 0.1 0.0
7.2 0.1 0.0
7.6000000000000005 0.1 0.0
8.0 0.1 0.0
8.4 0.1 0.0
8.8 0.1 0.0
9.200000000000001 0.1 0.0
9.600000000000001 0.1 0.0
10.0 0.1 0.0
10.4 0.1 0.0
10.8 0.1 0.0
11.200000000000001 0.1 0.0
11.600000000000001 0.1 0.0
12.0 0.1 0.0
12.4 0.1 0.0
12.8 0.1 0.0
13.200000000000001 0.1 0.0
13.600000000000001 0.1 0.0
14.0 0.1 0.0
14.4 0.1 0.0
14.8 0.1 0.0
15.200000000000001 0.1 0.0
15.600000000000001 0.1 0.0
16.0 0.1 0.0
0.0 0.2 0.0
0.4 0.2 0.0
0.8 0.2 0.0
1.2000000000000002 0.2 0.0
1.6 0.2 0.0
2.0 0.2 0.0
2.4000000000000004 0.2 0.0
2.8000000000000003 0.2 0.0
3.2 0.2 0.0
3.6 0.2 0.0
4.0 0.2 0.0
4.4 0.2 0.0
4.800000000000001 0.2 0.0
5.2 0.2 0.0
5.6000000000000005 0.2 0.0
6.0 0.2 0.0
6.4 0.2 0.0
6.800000000000001 0.2 0.0
7.2 0.2 0.0
7.6000000000000005 0.2 0.0
8.0 0.2 0.0
8.4 0.2 0.0
8.8 0.2 0.0
9.200000000000001 0.2 0.0
9.600000000000001 0.2 0.0
10.0 0.2 0.0
10.4 0.2 0.0
10.8 0.2 0.0
11.200000000000001 0.2 0.0
11.600000000000001 0.2 0.0
12.0 0.2 0.0
12.4 0.2 0.0
12.8 0.2 0.0
13.200000000000001 0.2 0.0
13.600000000000001 0.2 0.0
14.0 0.2 0.0
14.4 0.2 0.0
14.8 0.2 0.0
15.200000000000001 0.2 0.0
15.600000000000001 0.2 0.0
16.0 0.2 0.0
0.0 0.30000000000000004 0.0
0.4 0.30000000000000004 0.0
0.8 0.30000000000000004 0.0
1.2000000000000002 0.30000000000000004 0.0
1.6 0.30000000000000004 0.0
2.0 0.30000000000000004 0.0
2.4000000000000004 0.30000000000000004 0.0
2.8000000000000003 0.30000000000000004 0.0
3.2 0.30000000000000004 0.0
3.6 0.30000000000000004 0.0
4.0 0.30000000000000004 0.0
4.4 0.30000000000000004 0.0
4.800000000000001 0.30000000000000004 0.0
5.2 0.30000000000000004 0.0
5.6000000000000005 0.30000000000000004 0.0
6.0 0.30000000000000004 0.0
6.4 0.30000000000000004 0.0
6.800000000000001 0.30000000000000004 0.0
7.2 0.30000000000000004 0.0
7.6000000000000005 0.30000000000000004 0.0
8.0 0.30000000000000004 0.0
8.4 0.30000000000000004 0.0
8.8 0.30000000000000004 0.0
9.200000000000001 0.30000000000000004 0.0
9.600000000000001 0.30000000000000004 0.0
10.0 0.30000000000000004 0.0
10.4 0.30000000000000004 0.0
10.8 0.30000000000000004 0.0
11.200000000000001 0.30000000000000004 0.0
11.600000000000001 0.30000000000000004 0.0
12.0 0.30000000000000004 0.0
12.4 0.30000000000000004 0.0
12.8 0.30000000000000004 0.0
13.200000000000001 0.30000000000000004 0.0
13.600000000000001 0.30000000000000004 0.0
14.0 0.30000000000000004 0.0
14.4 0.30000000000000004 0.0
14.8 0.30000000000000004 0.0
15.200000000000001 0.30000000000000004 0.0
15.600000000000001 0.30000000000000004 0.0
16.0 0.30000000000000004 0.0
0.0 0.4 0.0
0.4 0.4 0.0
0.8 0.4 0.0
1.2000000000000002 0.4 0.0
1.6 0.4 0.0
2.0 0.4 0.0
2.4000000000000004 0.4 0.0
2.8000000000000003 0.4 0.0
3.2 0.4 0.0
3.6 0.4 0.0
4.0 0.4 0.0
4.4 0.4 0.0
4.800000000000001 0.4 0.0
5.2 0.4 0.0
5.6000000000000005 0.4 0.0
6.0 0.4 0.0
6.4 0.4 0.0
6.800000000000001 0.4 0.0
7.2 0.4 0.0
7.6000000000000005 0.4 0.0
8.0 0.4 0.0
8.4 0.4 0.0
8.8 0.4 0.0
9.200000000000001 0.4 0.0
9.600000000000001 0.4 0.0
10.0 0.4 0.0
10.4 0.4 0.0
10.8 0.4 0.0
11.200000000000001 0.4 0.0
11.600000000000001 0.4 0.0
12.0 0.4 0.0
12.4 0.4 0.0
12.8 0.4 0.0
13.200000000000001 0.4 0.0
13.600000000000001 0.4 0.0
14.0 0.4 0.0
14.4 0.4 0.0
14.8 0.4 0.0
15.200000000000001 0.4 0.0
15.600000000000001 0.4 0.0
16.0 0.4 0.0
0.0 0.5 0.0
0.4 0.5 0.0
0.8 0.5 0.0
1.2000000000000002 0.5 0.0
1.6 0.5 0.0
2.0 0.5 0.0
2.4000000000000004 0.5 0.0
2.8000000000000003 0.5 0.0
3.2 0.5 0.0
3.6 0.5 0.0
4.0 0.5 0.0
4.4 0.5 0.0
4.800000000000001 0.5 0.0
5.2 0.5 0.0
5.6000000000000005 0.5 0.0
6.0 0.5 0.0
6.4 0.5 0.0
6.800000000000001 0.5 0.0
7.2 0.5 0.0
7.6000000000000005 0.5 0.0
8.0 0.5 0.0
8.4 0.5 0.0
8.8 0.5 0.0
9.200000000000001 0.5 0.0
9.600000000000001 0.5 0.0
10.0 0.5 0.0
10.4 0.5 0.0
10.8 0.5 0.0
11.200000000000001 0.5 0.0
11.600000000000001 0.5 0.0
12.0 0.5 0.0
12.4 0.5 0.0
12.8 0.5 0.0
13.200000000000001 0.5 0.0
13.600000000000001 0.5 0.0
14.0 0.5 0.0
14.4 0.5 0.0
14.8 0.5 0.0
15.200000000000001 0.5 0.0
15.600000000000001 0.5 0.0
16.0 0.5 0.0
0.0 0.6000000000000001 0.0
0.4 0.6000000000000001 0.0
0.8 0.6000000000000001 0.0
1.2000000000000002 0.6000000000000001 0.0
1.6 0.6000000000000001 0.0
2.0 0.6000000000000001 0.0
2.4000000000000004 0.6000000000000001 0.0
2.8000000000000003 0.6000000000000001 0.0
3.2 0.6000000000000001 0.0
3.6 0.6000000000000001 0.0
4.0 0.6000000000000001 0.0
4.4 0.6000000000000001 0.0
4.800000000000001 0.6000000000000001 0.0
5.2 0.6000000000000001 0.0
5.6000000000000005 0.6000000000000001 0.0
6.0 0.6000000000000001 0.0
6.4 0.6000000000000001 0.0
6.800000000000001 0.6000000000000001 0.0
7.2 0.6000000000000001 0.0
7.6000000000000005 0.6000000000000001 0.0
8.0 0.6000000000000001 0.0
8.4 0.6000000000000001 0.0
8.8 0.6000000000000001 0.0
9.200000000000001 0.6000000000000001 0.0
9.600000000000001 0.6000000000000001 0.0
10.0 0.6000000000000001 0.0
10.4 0.6000000000000001 0.0
10.8 0.6000000000000001 0.0
11.200000000000001 0.6000000000000001 0.0
11.600000000000001 0.6000000000000001 0.0
12.0 0.6000000000000001 0.0
12.4 0.6000000000000001 0.0
12.8 0.6000000000000001 0.0
13.200000000000001 0.6000000000000001 0.0
13.600000000000001 0.6000000000000001 0.0
14.0 0.6000000000000001 0.0
14.4 0.6000000000000001 0.0
14.8 0.6000000000000001 0.0
15.200000000000001 0.6000000000000001 0.0
15.600000000000001 0.6000000000000001 0.0
16.0 0.6000000000000001 0.0
0.0 0.7000000000000001 0.0
0.4 0.7000000000000001 0.0
0.8 0.7000000000000001 0.0
1.2000000000000002 0.7000000000000001 0.0
1.6 0.7000000000000001 0.0
2.0 0.7000000000000001 0.0
2.4000000000000004 0.7000000000000001 0.0
2.8000000000000003 0.7000000000000001 0.0
3.2 0.7000000000000001 0.0
3.6 0.7000000000000001 0.0
4.0 0.7000000000000001 0.0
4.4 0.7000000000000001 0.0
4.800000000000001 0.7000000000000001 0.0
5.2 0.7000000000000001 0.0
5.6000000000000005 0.7000000000000001 0.0
6.0 0.7000000000000001 0.0
6.4 0.7000000000000001 0.0
6.800000000000001 0.7000000000000001 0.0
7.2 0.7000000000000001 0.0
7.6000000000000005 0.7000000000000001 0.0
8.0 0.7000000000000001 0.0
8.4 0.7000000000000001 0.0
8.8 0.7000000000000001 0.0
9.200000000000001 0.7000000000000001 0.0
9.600000000000001 0.7000000000000001 0.0
10.0 0.7000000000000001 0.0
10.4 0.7000000000000001 0.0
10.8 0.7000000000000001 0.0
11.200000000000001 0.7000000000000001 0.0
11.600000000000001 0.7000000000000001 0.0
12.0 0.7000000000000001 0.0
12.4 0.7000000000000001 0.0
12.8 0.7000000000000001 0.0
13.200000000000001 0.7000000000000001 0.0
13.600000000000001 0.7000000000000001 0.0
14.0 0.7000000000000001 0.0
14.4 0.7000000000000001 0.0
14.8 0.7000000000000001 0.0
15.200000000000001 0.7000000000000001 0.0
15.600000000000001 0.7000000000000001 0.0
16.0 0.7000000000000001 0.0
0.0 0.8 0.0
0.4 0.8 0.0
0.8 0.8 0.0
1.2000000000000002 0.8 0.0
1.6 0.8 0.0
2.0 0.8 0.0
2.4000000000000004 0.8 0.0
2.8000000000000003 0.8 0.0
3.2 0.8 0.0
3.6 0.8 0.0
4.0 0.8 0.0
4.4 0.8 0.0
4.800000000000001 0.8 0.0
5.2 0.8 0.0
5.6000000000000005 0.8 0.0
6.0 0.8 0.0
6.4 0.8 0.0
6.800000000000001 0.8 0.0
7.2 0.8 0.0
7.6000000000000005 0.8 0.0
8.0 0.8 0.0
8.4 0.8 0.0
8.8 0.8 0.0
9.200000000000001 0.8 0.0
9.600000000000001 0.8 0.0
10.0 0.8 0.0
10.4 0.8 0.0
10.8 0.8 0.0
11.200000000000001 0.8 0.0
11.600000000000001 0.8 0.0
12.0 0.8 0.0
12.4 0.8 0.0
12.8 0.8 0.0
13.200000000000001 0.8 0.0
13.600000000000001 0.8 0.0
14.0 0.8 0.0
14.4 0.8 0.0
14.8 0.8 0.0
15.200000000000001 0.8 0.0
15.600000000000001 0.8 0.0
16.0 0.8 0.0
0.0 0.9 0.0
0.4 0.9 0.0
0.8 0.9 0.0
1.2000000000000002 0.9 0.0
1.6 0.9 0.0
2.0 0.9 0.0
2.4000000000000004 0.9 0.0
2.8000000000000003 0.9 0.0
3.2 0.9 0.0
3.6 0.9 0.0
4.0 0.9 0.0
4.4 0.9 0.0
4.800000000000001 0.9 0.0
5.2 0.9 0.0
5.6000000000000005 0.9 0.0
6.0 0.9 0.0
6.4 0.9 0.0
6.800000000000001 0.9 0.0
7.2 0.9 0.0
7.6000000000000005 0.9 0.0
8.0 0.9 0.0
8.4 0.9 0.0
8.8 0.9 0.0
9.200000000000001 0.9 0.0
9.600000000000001 0.9 0.0
10.0 0.9 0.0
10.4 0.9 0.0
10.8 0.9 0.0
11.200000000000001 0.9 0.0
11.600000000000001 0.9 0.0
12.0 0.9 0.0
12.4 0.9 0.0
12.8 0.9 0.0
13.200000000000001 0.9 0.0
13.600000000000001 0.9 0.0
14.0 0.9 0.0
14.4 0.9 0.0
14.8 0.9 0.0
15.200000000000001 0.9 0.0
15.600000000000001 0.9 0.0
16.0 0.9 0.0
0.0 1.0 0.0
0.4 1.0 0.0
0.8 1.0 0.0
1.2000000000000002 1.0 0.0
1.6 1.0 0.0
2.0 1.0 0.0
2.4000000000000004 1.0 0.0
2.8000000000000003 1.0 0.0
3.2 1.0 0.0
3.6 1.0 0.0
4.0 1.0 0.0
4.4 1.0 0.0
4.800000000000001 1.0 0.0
5.2 1.0 0.0
5.6000000000000005 1.0 0.0
6.0 1.0 0.0
6.4 1.0 0.0
6.800000000000001 1.0 0.0
7.2 1.0 0.0
7.6000000000000005 1.0 0.0
8.0 1.0 0.0
8.4 1.0 0.0
8.8 1.0 0.0
9.200000000000001 1.0 0.0
9.600000000000001 1.0 0.0
10.0 1.0 0.0
10.4 1.0 0.0
10.8 1.0 0.0
11.200000000000001 1.0 0.0
11.600000000000001 1.0 0.0
12.0 1.0 0.0
12.4 1.0 0.0
12.8 1.0 0.0
13.200000000000001 1.0 0.0
13.600000000000001 1.0 0.0
14.0 1.0 0.0
14.4 1.0 0.0
14.8 1.0 0.0
15.200000000000001 1.0 0.0
15.600000000000001 1.0 0.0
16.0 1.0 0.0
0.0 1.1 0.0
0.4 1.1 0.0
0.8 1.1 0.0
1.2000000000000002 1.1 0.0
1.6 1.1 0.0
2.0 1.1 0.0
2.4000000000000004 1.1 0.0
2.8000000000000003 1.1 0.0
3.2 1.1 0.0
3.6 1.1 0.0
4.0 1.1 0.0
4.4 1.1 0.0
4.800000000000001 1.1 0.0
5.2 1.1 0.0
5.6000000000000005 1.1 0.0
6.0 1.1 0.0
6.4 1.1 0.0
6.800000000000001 1.1 0.0
7.2 1.1 0.0
7.6000000000000005 1.1 0.0
8.0 1.1 0.0
8.4 1.1 0.0
8.8 1.1 0.0
9.200000000000001 1.1 0.0
9.600000000000001 1.1 0.0
10.0 1.1 0.0
10.4 1.1 0.0
10.8 1.1 0.0
11.200000000000001 1.1 0.0
11.600000000000001 1.1 0.0
12.0 1.1 0.0
12.4 1.1 0.0
12.8 1.1 0.0
13.200000000000001 1.1 0.0
13.600000000000001 1.1 0.0
14.0 1.1 0.0
14.4 1.1 0.0
14.8 1.1 0.0
15.200000000000001 1.1 0.0
15.600000000000001 1.1 0.0
16.0 1.1 0.0
0.0 1.2000000000000002 0.0
0.4 1.2000000000000002 0.0
0.8 1.2000000000000002 0.0
1.2000000000000002 1.2000000000000002 0.0
1.6 1.2000000000000002 0.0
2.0 1.2000000000000002 0.0
2.4000000000000004 1.2000000000000002 0.0
2.8000000000000003 1.2000000000000002 0.0
3.2 1.2000000000000002 0.0
3.6 1.2000000000000002 0.0
4.0 1.2000000000000002 0.0
4.4 1.2000000000000002 0.0
4.800000000000001 1.2000000000000002 0.0
5.2 1.2000000000000002 0.0
5.6000000000000005 1.2000000000000002 0.0
6.0 1.2000000000000002 0.0
6.4 1.2000000000000002 0.0
6.800000000000001 1.2000000000000002 0.0
7.2 1.2000000000000002 0.0
7.6000000000000005 1.2000000000000002 0.0
8.0 1.2000000000000002 0.0
8.4 1.2000000000000002 0.0
8.8 1.2000000000000002 0.0
9.200000000000001 1.2000000000000002 0.0
9.600000000000001 1.2000000000000002 0.0
10.0 1.2000000000000002 0.0
10.4 1.2000000000000002 0.0
10.8 1.2000000000000002 0.0
11.200000000000001 1.2000000000000002 0.0
11.600000000000001 1.2000000000000002 0.0
12.0 1.2000000000000002 0.0
12.4 1.2000000000000002 0.0
12.8 1.2000000000000002 0.0
13.200000000000001 1.2000000000000002 0.0
13.600000000000001 1.2000000000000002 0.0
14.0 1.2000000000000002 0.0
14.4 1.2000000000000002 0.0
14.8 1.2000000000000002 0.0
15.200000000000001 1.2000000000000002 0.0
15.600000000000001 1.2000000000000002 0.0
16.0 1.2000000000000002 0.0
0.0 1.3 0.0
0.4 1.3 0.0
0.8 1.3 0.0
1.2000000000000002 1.3 0.0
1.6 1.3 0.0
2.0 1.3 0.0
2.4000000000000004 1.3 0.0
2.8000000000000003 1.3 0.0
3.2 1.3 0.0
3.6 1.3 0.0
4.0 1.3 0.0
4.4 1.3 0.0
4.800000000000001 1.3 0.0
5.2 1.3 0.0
5.6000000000000005 1.3 0.0
6.0 1.3 0.0
6.4 1.3 0.0
6.800000000000001 1.3 0.0
7.2 1.3 0.0
7.6000000000000005 1.3 0.0
8.0 1.3 0.0
8.4 1.3 0.0
8.8 1.3 0.0
9.200000000000001 1.3 0.0
9.600000000000001 1.3 0.0
10.0 1.3 0.0
10.4 1.3 0.0
10.8 1.3 0.0
11.200000000000001 1.3 0.0
11.600000000000001 1.3 0.0
12.0 1.3 0.0
12.4 1.3 0.0
12.8 1.3 0.0
13.200000000000001 1.3 0.0
13.600000000000001 1.3 0.0
14.0 1.3 0.0
14.4 1.3 0.0
14.8 1.3 0.0
15.200000000000001 1.3 0.0
15.600000000000001 1.3 0.0
16.0 1.3 0.0
0.0 1.4000000000000001 0.0
0.4 1.4000000000000001 0.0
0.8 1.4000000000000001 0.0
1.2000000000000002 1.4000000000000001 0.0
1.6 1.4000000000000001 0.0
2.0 1.4000000000000001 0.0
2.4000000000000004 1.4000000000000001 0.0
2.8000000000000003 1.4000000000000001 0.0
3.2 1.4000000000000001 0.0
3.6 1.4000000000000001 0.0
4.0 1.4000000000000001 0.0
4.4 1.4000000000000001 0.0
4.800000000000001 1.4000000000000001 0.0
5.2 1.4000000000000001 0.0
5.6000000000000005 1.4000000000000001 0.0
6.0 1.4000000000000001 0.0
6.4 1.4000000000000001 0.0
6.800000000000001 1.4000000000000001 0.0
7.2 1.4000000000000001 0.0
7.6000000000000005 1.4000000000000001 0.0
8.0 1.4000000000000001 0.0
8.4 1.4000000000000001 0.0
8.8 1.4000000000000001 0.0
9.200000000000001 1.4000000000000001 0.0
9.600000000000001 1.4000000000000001 0.0
10.0 1.4000000000000001 0.0
10.4 1.4000000000000001 0.0
10.8 1.4000000000000001 0.0
11.200000000000001 1.4000000000000001 0.0
11.600000000000001 1.4000000000000001 0.0
12.0 1.4000000000000001 0.0
12.4 1.4000000000000001 0.0
12.8 1.4000000000000001 0.0
13.200000000000001 1.4000000000000001 0.0
13.600000000000001 1.4000000000000001 0.0
14.0 1.4000000000000001 0.0
14.4 1.4000000000000001 0.0
14.8 1.4000000000000001 0.0
15.200000000000001 1.4000000000000001 0.0
15.600000000000001 1.4000000000000001 0.0
16.0 1.4000000000000001 0.0
0.0 1.5 0.0
0.4 1.5 0.0
0.8 1.5 0.0
1.2000000000000002 1.5 0.0
1.6 1.5 0.0
2.0 1.5 0.0
2.4000000000000004 1.5 0.0
2.8000000000000003 1.5 0.0
3.2 1.5 0.0
3.6 1.5 0.0
4.0 1.5 0.0
4.4 1.5 0.0
4.800000000000001 1.5 0.0
5.2 1.5 0.0
5.6000000000000005 1.5 0.0
6.0 1.5 0.0
6.4 1.5 0.0
6.800000000000001 1.5 0.0
7.2 1.5 0.0
7.6000000000000005 1.5 0.0
8.0 1.5 0.0
8.4 1.5 0.0
8.8 1.5 0.0
9.200000000000001 1.5 0.0
9.600000000000001 1.5 0.0
10.0 1.5 0.0
10.4 1.5 0.0
10.8 1.5 0.0
11.200000000000001 1.5 0.0
11.600000000000001 1.5 0.0
12.0 1.5 0.0
12.4 1.5 0.0
12.8 1.5 0.0
13.200000000000001 1.5 0.0
13.600000000000001 1.5 0.0
14.0 1.5 0.0
14.4 1.5 0.0
14.8 1.5 0.0
15.200000000000001 1.5 0.0
15.600000000000001 1.5 0.0
16.0 1.5 0.0
0.0 1.6 0.0
0.4 1.6 0.0
0.8 1.6 0.0
1.2000000000000002 1.6 0.0
1.6 1.6 0.0
2.0 1.6 0.0
2.4000000000000004 1.6 0.0
2.8000000000000003 1.6 0.0
3.2 1.6 0.0
3.6 1.6 0.0
4.0 1.6 0.0
4.4 1.6 0.0
4.800000000000001 1.6 0.0
5.2 1.6 0.0
5.6000000000000005 1.6 0.0
6.0 1.6 0.0
6.4 1.6 0.0
6.800000000000001 1.6 0.0
7.2 1.6 0.0
7.6000000000000005 1.6 0.0
8.0 1.6 0.0
8.4 1.6 0.0
8.8 1.6 0.0
9.200000000000001 1.6 0.0
9.600000000000001 1.6 0.0
10.0 1.6 0.0
10.4 1.6 0.0
10.8 1.6 0.0
11.200000000000001 1.6 0.0
11.600000000000001 1.6 0.0
12.0 1.6 0.0
12.4 1.6 0.0
12.8 1.6 0.0
13.200000000000001 1.6 0.0
13.600000000000001 1.6 0.0
14.0 1.6 0.0
14.4 1.6 0.0
14.8 1.6 0.0
15.200000000000001 1.6 0.0
15.600000000000001 1.6 0.0
16.0 1.6 0.0
0.0 1.7000000000000002 0.0
0.4 1.7000000000000002 0.0
0.8 1.7000000000000002 0.0
1.2000000000000002 1.7000000000000002 0.0
1.6 1.7000000000000002 0.0
2.0 1.7000000000000002 0.0
2.4000000000000004 1.7000000000000002 0.0
2.8000000000000003 1.7000000000000002 0.0
3.2 1.7000000000000002 0.0
3.6 1.7000000000000002 0.0
4.0 1.7000000000000002 0.0
4.4 1.7000000000000002 0.0
4.800000000000001 1.7000000000000002 0.0
5.2 1.7000000000000002 0.0
5.6000000000000005 1.7000000000000002 0.0
6.0 1.7000000000000002 0.0
6.4 1.7000000000000002 0.0
6.800000000000001 1.7000000000000002 0.0
7.2 1.7000000000000002 0.0
7.6000000000000005 1.7000000000000002 0.0
8.0 1.7000000000000002 0.0
8.4 1.7000000000000002 0.0
8.8 1.7000000000000002 0.0
9.200000000000001 1.7000000000000002 0.0
9.600000000000001 1.7000000000000002 0.0
10.0 1.7000000000000002 0.0
10.4 1.7000000000000002 0.0
10.8 1.7000000000000002 0.0
11.200000000000001 1.7000000000000002 0.0
11.600000000000001 1.7000000000000002 0.0
12.0 1.7000000000000002 0.0
12.4 1.7000000000000002 0.0
12.8 1.7000000000000002 0.0
13.200000000000001 1.7000000000000002 0.0
13.600000000000001 1.7000000000000002 0.0
14.0 1.7000000000000002 0.0
14.4 1.7000000000000002 0.0
14.8 1.7000000000000002 0.0
15.200000000000001 1.7000000000000002 0.0
15.600000000000001 1.7000000000000002 0.0
16.0 1.7000000000000002 0.0
0.0 1.8 0.0
0.4 1.8 0.0
0.8 1.8 0.0
1.2000000000000002 1.8 0.0
1.6 1.8 0.0
2.0 1.8 0.0
2.4000000000000004 1.8 0.0
2.8000000000000003 1.8 0.0
3.2 1.8 0.0
3.6 1.8 0.0
4.0 1.8 0.0
4.4 1.8 0.0
4.800000000000001 1.8 0.0
5.2 1.8 0.0
5.6000000000000005 1.8 0.0
6.0 1.8 0.0
6.4 1.8 0.0
6.800000000000001 1.8 0.0
7.2 1.8 0.0
7.6000000000000005 1.8 0.0
8.0 1.8 0.0
8.4 1.8 0.0
8.8 1.8 0.0
9.200000000000001 1.8 0.0
9.600000000000001 1.8 0.0
10.0 1.8 0.0
10.4 1.8 0.0
10.8 1.8 0.0
11.200000000000001 1.8 0.0
11.600000000000001 1.8 0.0
12.0 1.8 0.0
12.4 1.8 0.0
12.8 1.8 0.0
13.200000000000001 1.8 0.0
13.600000000000001 1.8 0.0
14.0 1.8 0.0
14.4 1.8 0.0
14.8 1.8 0.0
15.200000000000001 1.8 0.0
15.600000000000001 1.8 0.0
16.0 1.8 0.0
0.0 1.9000000000000001 0.0
0.4 1.9000000000000001 0.0
0.8 1.9000000000000001 0.0
1.2000000000000002 1.9000000000000001 0.0
1.6 1.9000000000000001 0.0
2.0 1.9000000000000001 0.0
2.4000000000000004 1.9000000000000001 0.0
2.8000000000000003 1.9000000000000001 0.0
3.2 1.9000000000000001 0.0
3.6 1.9000000000000001 0.0
4.0 1.9000000000000001 0.0
4.4 1.9000000000000001 0.0
4.800000000000001 1.9000000000000001 0.0
5.2 1.9000000000000001 0.0
5.6000000000000005 1.9000000000000001 0.0
6.0 1.9000000000000001 0.0
6.4 1.9000000000000001 0.0
6.800000000000001 1.9000000000000001 0.0
7.2 1.9000000000000001 0.0
7.6000000000000005 1.9000000000000001 0.0
8.0 1.9000000000000001 0.0
8.4 1.9000000000000001 0.0
8.8 1.9000000000000001 0.0
9.200000000000001 1.9000000000000001 0.0
9.600000000000001 1.9000000000000001 0.0
10.0 1.9000000000000001 0.0
10.4 1.9000000000000001 0.0
10.8 1.9000000000000001 0.0
11.200000000000001 1.9000000000000001 0.0
11.600000000000001 1.9000000000000001 0.0
12.0 1.9000000000000001 0.0
12.4 1.9000000000000001 0.0
12.8 1.9000000000000001 0.0
13.200000000000001 1.9000000000000001 0.0
13.600000000000001 1.9000000000000001 0.0
14.0 1.9000000000000001 0.0
14.4 1.9000000000000001 0.0
14.8 1.9000000000000001 0.0
15.200000000000001 1.9000000000000001 0.0
15.600000000000001 1.9000000000000001 0.0
16.0 1.9000000000000001 0.0
0.0 2.0 0.0
0.4 2.0 0.0
0.8 2.0 0.0
1.2000000000000002 2.0 0.0
1.6 2.0 0.0
2.0 2.0 0.0
2.4000000000000004 2.0 0.0
2.8000000000000003 2.0 0.0
3.2 2.0 0.0
3.6 2.0 0.0
4.0 2.0 0.0
4.4 2.0 0.0
4.800000000000001 2.0 0.0
5.2 2.0 0.0
5.6000000000000005 2.0 0.0
6.0 2.0 0.0
6.4 2.0 0.0
6.800000000000001 2.0 0.0
7.2 2.0 0.0
7.6000000000000005 2.0 0.0
8.0 2.0 0.0
8.4 2.0 0.0
8.8 2.0 0.0
9.200000000000001 2.0 0.0
9.600000000000001 2.0 0.0
10.0 2.0 0.0
10.4 2.0 0.0
10.8 2.0 0.0
11.200000000000001 2.0 0.0
11.600000000000001 2.0 0.0
12.0 2.0 0.0
12.4 2.0 0.0
12.8 2.0 0.0
13.200000000000001 2.0 0.0
13.600000000000001 2.0 0.0
14.0 2.0 0.0
14.4 2.0 0.0
14.8 2.0 0.0
15.200000000000001 2.0 0.0
15.600000000000001 2.0 0.0
16.0 2.0 0.0
CELLS 800 4000
4 0 1 42 41
4 1 2 43 42
4 2 3 44 43
4 3 4 45 44
4 4 5 46 45
4 5 6 47 46
4 6 7 48 47
4 7 8 49 48
4 8 9 50 49
4 9 10 51 50
4 10 11 52 51
4 11 12 53 52
4 12 13 54 53
4 13 14 55 54
4 14 15 56 55
4 15 16 57 56
4 16 17 58 57
4 17 18 59 58
4 18 19 60 59
4 19 20 61 60
4 20 21 62 61
4 21 22 63 62
4 22 23 64 63
4 23 24 65 64
4 24 25 66 65
4 25 26 67 66
4 26 27 68 67
4 27 28 69 68
4 28 29 70 69
4 29 30 71 70
4 30 31 72 71
4 31 32 73 72
4 32 33 74 73
4 33 34 75 74
4 34 35 76 75
4 35 36 77 76
4 36 37 78 77
4 37 38 79 78
4 38 39 80 79
4 39 40 81 80
4 41 42 83 82
4 42 43 84 83
4 43 44 85 84
4 44 45 86 85
4 45 46 87 86
4 46 47 88 87
4 47 48 89 88
4 48 49 90 89
4 49 50 91 90
4 50 51 92 91
4 51 52 93 92
4 52 53 94 93
4 53 54 95 94
4 54 55 96 95
4 55 56 97 96
4 56 57 98 97
4 57 58 99 98
4 58 59 100 99
4 59 60 101 100
4 60 61 102 101
4 61 62 103 102
4 62 63 104 103
4 63 64 105 104
4 64 65 106 105
4 65 66 107 106
4 66 67 108 107
4 67 68 109 108
4 68 69 110 109
4 69 70 111 110
4 70 71 112 111
4 71 72 113 112
4 72 73 114 113
4 73 74 115 114
4 74 75 116 115
4 75 76 117 116
4 76 77 118 117
4 77 78 119 118
4 78 79 120 119
4 79 80 121 120
4 80 81 122 121
4 82 83 124 123
4 83 84 125 124
4 84 85 126 125
4 85 86 127 126
4 86 87 128 127
4 87 88 129 128
4 88 89 130 129
4 89 90 131 130
4 90 91 132 131
4 91 92 133 132
4 92 93 134 133
4 93 94 135 134
4 94 95 136 135
4 95 96 137 136
4 96 97 138 137
4 97 98 139 138
4 98 99 140 139
4 99 100 141 140
4 100 101 142 141
4 101 102 143 142
4 102 103 144 143
4 103 104 145 144
4 104 105 146 145
4 105 106 147 146
4 106 107 148 147
4 107 108 149 148
4 108 109 150 149
4 109 110 151 150
4 110 111 152 151
4 111 112 153 152
4 112 113 154 153
4 113 114 155 154
4 114 115 156 155
4 115 116 157 156
4 116 117 158 157
4 117 118 159 158
4 118 119 160 159
4 119 120 161 160
4 120 121 162 161
4 121 122 163 162
4 123 124 165 164
4 124 125 166 165
4 125 126 167 166
4 126 127 168 167
4 127 128 169 168
4 128 129 170 169
4 129 130 171 170
4 130 131 172 171
4 131 132 173 172
4 132 133 174 173
4 133 134 175 174
4 134 135 176 175
4 135 136 177 176
4 136 137 178 177
4 137 138 179 178
4 138 139 180 179
4 139 140 181 180
4 140 141 182 181
4 141 142 183 182
4 142 143 184 183
4 143 144 185 184
4 144 145 186 185
4 145 146 187 186
4 146 147 188 187
4 147 148 189 188
4 148 149 190 189
4 149 150 191 190
4 150 151 192 191
4 151 152 193 192
4 152 153 194 193
4 153 154 195 194
4 154 155 196 195
4 155 156 197 196
4 156 157 198 197
4 157 158 199 198
4 158 159 200 199
4 159 160 201 200
4 160 161 202 201
4 161 162 203 202
4 162 163 204 203
4 164 165 206 205
4 165 166 207 206
4 166 167 208 207
4 167 168 209 208
4 168 169 210 209
4 169 170 211 210
4 170 171 212 211
4 171 172 213 212
4 172 173 214 213
4 173 174 215 214
4 174 175 216 215
4 175 176 217 216
4 176 177 218 217
4 177 178 219 218
4 178 179 220 219
4 179 180 221 220
4 180 181 222 221
4 181 182 223 222
4 182 183 224 223
4 183 184 225 224
4 184 185 226 225
4 185 186 227 226
4 186 187 228 227
4 187 188 229 228
4 188 189 230 229
4 189 190 231 230
4 190 191 232 231
4 191 192 233 232
4 192 193 234 233
4 193 194 235 234
4 194 195 236 235
4 195 196 237 236
4 196 197 238 237
4 197 198 239 238
4 198 199 240 239
4 199 200 241 240
4 200 201 242 241
4 201 202 243 242
4 202 203 244 243
4 203 204 245 244
4 205 206 247 246
4 206 207 248 247
4 207 208 249 248
4 208 209 250 249
4 209 210 251 250
4 210 211 252 251
4 211 212 253 252
4 212 213 254 253
4 213 214 255 254
4 214 215 256 255
4 215 216 257 256
4 216 217 258 257
4 217 218 259 258
4 218 219 260 259
4 219 220 261 260
4 220 221 262 261
4 221 222 263 262
4 222 223 264 263
4 223 224 265 264
4 224 225 266 265
4 225 226 267 266
4 226 227 268 267
4 227 228 269 268
4 228 229 270 269
4 229 230 271 270
4 230 231 272 271
4 231 232 273 272
4 232 233 274 273
4 233 234 275 274
4 234 235 276 275
4 235 236 277 276
4 236 237 278 277
4 237 238 279 278
4 238 239 280 279
4 239 240 281 280
4 240 241 282 281
4 241 242 283 282
4 242 243 284 283
4 243 244 285 284
4 244 245 286 285
4 246 247 288 287
4 247 248 289 288
4 248 249 290 289
4 249 250 291 290
4 250 251 292 291
4 251 252 293 292
4 252 253 294 293
4 253 254 295 294
4 254 255 296 295
4 255 256 297 296
4 256 257 298 297
4 257 258 299 298
4 258 259 300 299
4 259 260 301 300
4 260 261 302 301
4 261 262 303 302
4 262 263 304 303
4 263 264 305 304
4 264 265 306 305
4 265 266 307 306
4 266 267 308 307
4 267 268 309 308
4 268 269 310 309
4 269 270 311 310
4 270 271 312 311
4 271 272 313 312
4 272 273 314 313
4 273 274 315 314
4 274 275 316 315
4 275 276 317 316
4 276 277 318 317
4 277 278 319 318
4 278 279 320 319
4 279 280 321 320
4 280 281 322 321
4 281 282 323 322
4 282 283 324 323
4 283 284 325 324
4 284 285 326 325
4 285 286 327 326
4 287 288 329 328
4 288 289 330 329
4 289 290 331 330
4 290 291 332 331
4 291 292 333 332
4 292 293 334 333
4 293 294 335 334
4 294 295 336 335
4 295 296 337 336
4 296 297 338 337
4 297 298 339 338
4 298 299 340 339
4 299 300 341 340
4 300 301 342 341
4 301 302 343 342
4 302 303 344 343
4 303 304 345 344
4 304 305 346 345
4 305 306 347 346
4 306 307 348 347
4 307 308 349 348
4 308 309 350 349
4 309 310 351 350
4 310 311 352 351
4 311 312 353 352
4 312 313 354 353
4 313 314 355 354
4 314 315 356 355
4 315 316 357 356
4 316 317 358 357
4 317 318 359 358
4 318 319 360 359
4 319 320 361 360
4 320 321 362 361
4 321 322 363 362
4 322 323 364 363
4 323 324 365 364
4 324 325 366 365
4 325 326 367 366
4 326 327 368 367
4 328 329 370 369
4 329 330 371 370
4 330 331 372 371
4 331 332 373 372
4 332 333 374 373
4 333 334 375 374
4 334 335 376 375
4 335 336 377 376
4 336 337 378 377
4 337 338 379 378
4 338 339 380 379
4 339 340 381 380
4 340 341 382 381
4 341 342 383 382
4 342 343 384 383
4 343 344 385 384
4 344 345 386 385
4 345 346 387 386
4 346 347 388 387
4 347 348 389 388
4 348 349 390 389
4 349 350 391 390
4 350 351 392 391
4 351 352 393 392
4 352 353 394 393
4 353 354 395 394
4 354 355 396 395
4 355 356 397 396
4 356 357 398 397
4 357 358 399 398
4 358 359 400 399
4 359 360 401 400
4 360 361 402 401
4 361 362 403 402
4 362 363 404 403
4 363 364 405 404
4 364 365 406 405
4 365 366 407 406
4 366 367 408 407
4 367 368 409 408
4 369 370 411 410
4 370 371 412 411
4 371 372 413 412
4 372 373 414 413
4 373 374 415 414
4 374 375 416 415
4 375 376 417 416
4 376 377 418 417
4 377 378 419 418
4 378 379 420 419
4 379 380 421 420
4 380 381 422 421
4 381 382 423 422
4 382 383 424 423
4 383 384 425 424
4 384 385 426 425
4 385 386 427 426
4 386 387 428 427
4 387 388 429 428
4 388 389 430 429
4 389 390 431 430
4 390 391 432 431
4 391 392 433 432
4 392 393 434 433
4 393 394 435 434
4 394 395 436 435
4 395 396 437 436
4 396 397 438 437
4 397 398 439 438
4 398 399 440 439
4 399 400 441 440
4 400 401 442 441
4 401 402 443 442
4 402 403 444 443
4 403 404 445 444
4 404 405 446 445
4 405 406 447 446
4 406 407 448 447
4 407 408 449 448
4 408 409 450 449
4 410 411 452 451
4 411 412 453 452
4 412 413 454 453
4 413 414 455 454
4 414 415 456 455
4 415 416 457 456
4 416 417 458 457
4 417 418 459 458
4 418 419 460 459
4 419 420 461 460
4 420 421 462 461
4 421 422 463 462
4 422 423 464 463
4 423 424 465 464
4 424 425 466 465
4 425 426 467 466
4 426 427 468 467
4 427 428 469 468
4 428 429 470 469
4 429 430 471 470
4 430 431 472 471
4 431 432 473 472
4 432 433 474 473
4 433 434 475 474
4 434 435 476 475
4 435 436 477 476
4 436 437 478 477
4 437 438 479 478
4 438 439 480 479
4 439 440 481 480
4 440 441 482 481
4 441 442 483 482
4 442 443 484 483
4 443 444 485 484
4 444 445 486 485
4 445 446 487 486
4 446 447 488 487
4 447 448 489 488
4 448 449 490 489
4 449 450 491 490
4 451 452 493 492
4 452 453 494 493
4 453 454 495 494
4 454 455 496 495
4 455 456 497 496
4 456 457 498 497
4 457 458 499 498
4 458 459 500 499
4 459 460 501 500
4 460 461 502 501
4 461 462 503 502
4 462 463 504 503
4 463 464 505 504
4 464 465 506 505
4 465 466 507 506
4 466 467 508 507
4 467 468 509 508
4 468 469 510 509
4 469 470 511 510
4 470 471 512 511
4 471 472 513 512
4 472 473 514 513
4 473 474 515 514
4 474 475 516 515
4 475 476 517 516
4 476 477 518 517
4 477 478 519 518
4 478 479 520 519
4 479 480 521 520
4 480 481 522 521
4 481 482 523 522
4 482 483 524 523
4 483 484 525 524
4 484 485 526 525
4 485 486 527 526
4 486 487 528 527
4 487 488 529 528
4 488 489 530 529
4 489 490 531 530
4 490 491 532 531
4 492 493 534 533
4 493 494 535 534
4 494 495 536 535
4 495 496 537 536
4 496 497 538 537
4 497 498 539 538
4 498 499 540 539
4 499 500 541 540
4 500 501 542 541
4 501 502 543 542
4 502 503 544 543
4 503 504 545 544
4 504 505 546 545
4 505 506 547 546
4 506 507 548 547
4 507 508 549 548
4 508 509 550 549
4 509 510 551 550
4 510 511 552 551
4 511 512 553 552
4 512 513 554 553
4 513 514 555 554
4 514 515 556 555
4 515 516 557 556
4 516 517 558 557
4 517 518 559 558
4 518 519 560 559
4 519 520 561 560
4 520 521 562 561
4 521 522 563 562
4 522 523 564 563
4 523 524 565 564
4 524 525 566 565
4 525 526 567 566
4 526 527 568 567
4 527 528 569 568
4 528 529 570 569
4 529 530 571 570
4 530 531 572 571
4 531 532 573 572
4 533 534 575 574
4 534 535 576 575
4 535 536 577 576
4 536 537 578 577
4 537 538 579 578
4 538 539 580 579
4 539 540 581 580
4 540 541 582 581
4 541 542 583 582
4 542 543 584 583
4 543 544 585 584
4 544 545 586 585
4 545 546 587 586
4 546 547 588 587
4 547 548 589 588
4 548 549 590 589
4 549 550 591 590
4 550 551 592 591
4 551 552 593 592
4 552 553 594 593
4 553 554 595 594
4 554 555 596 595
4 555 556 597 596
4 556 557 598 597
4 557 558 599 598
4 558 559 600 599
4 559 560 601 600
4 560 561 602 601
4 561 562 603 602
4 562 563 604 603
4 563 564 605 604
4 564 565 606 605
4 565 566 607 606
4 566 567 608 607
4 567 568 609 608
4 568 569 610 609
4 569 570 611 610
4 570 571 612 611
4 571 572 613 612
4 572 573 614 613
4 574 575 616 615
4 575 576 617 616
4 576 577 618 617
4 577 578 619 618
4 578 579 620 619
4 579 580 621 620
4 580 581 622 621
4 581 582 623 622
4 582 583 624 623
4 583 584 625 624
4 584 585 626 625
4 585 586 627 626
4 586 587 628 627
4 587 588 629 628
4 588 589 630 629
4 589 590 631 630
4 590 591 632 631
4 591 592 633 632
4 592 593 634 633
4 593 594 635 634
4 594 595 636 635
4 595 596 637 636
4 596 597 638 637
4 597 598 639 638
4 598 599 640 639
4 599 600 641 640
4 600 601 642 641
4 601 602 643 642
4 602 603 644 643
4 603 604 645 644
4 604 605 646 645
4 605 606 647 646
4 606 607 648 647
4 607 608 649 648
4 608 609 650 649
4 609 610 651 650
4 610 611 652 651
4 611 612 653 652
4 612 613 654 653
4 613 614 655 654
4 615 616 657 656
4 616 617 658 657
4 617 618 659 658
4 618 619 660 659
4 619 620 661 660
4 620 621 662 661
4 621 622 663 662
4 622 623 664 663
4 623 624 665 664
4 624 625 666 665
4 625 626 667 666
4 626 627 668 667
4 627 628 669 668
4 628 629 670 669
4 629 630 671 670
4 630 631 672 671
4 631 632 673 672
4 632 633 674 673
4 633 634 675 674
4 634 635 676 675
4 635 636 677 676
4 636 637 678 677
4 637 638 679 678
4 638 639 680 679
4 639 640 681 680
4 640 641 682 681
4 641 642 683 682
4 642 643 684 683
4 643 644 685 684
4 644 645 686 685
4 645 646 687 686
4 646 647 688 687
4 647 648 689 688
4 648 649 690 689
4 649 650 691 690
4 650 651 692 691
4 651 652 693 692
4 652 653 694 693
4 653 654 695 694
4 654 655 696 695
4 656 657 698 697
4 657 658 699 698
4 658 659 700 699
4 659 660 701 700
4 660 661 702 701
4 661 662 703 702
4 662 663 704 703
4 663 664 705 704
4 664 665 706 705
4 665 666 707 706
4 666 667 708 707
4 667 668 709 708
4 668 669 710 709
4 669 670 711 710
4 670 671 712 711
4 671 672 713 712
4 672 673 714 713
4 673 674 715 714
4 674 675 716 715
4 675 676 717 716
4 676 677 718 717
4 677 678 719 718
4 678 679 720 719
4 679 680 721 720
4 680 681 722 721
4 681 682 723 722
4 682 683 724 723
4 683 684 725 724
4 684 685 726 725
4 685 686 727 726
4 686 687 728 727
4 687 688 729 728
4 688 689 730 729
4 689 690 731 730
4 690 691 732 731
4 691 692 733 732
4 692 693 734 733
4 693 694 735 734
4 694 695 736 735
4 695 696 737 736
4 697 698 739 738
4 698 699 740 739
4 699 700 741 740
4 700 701 742 741
4 701 702 743 742
4 702 703 744 743
4 703 704 745 744
4 704 705 746 745
4 705 706 747 746
4 706 707 748 747
4 707 708 749 748
4 708 709 750 749
4 709 710 751 750
4 710 711 752 751
4 711 712 753 752
4 712 713 754 753
4 713 714 755 754
4 714 715 756 755
4 715 716 757 756
4 716 717 758 757
4 717 718 759 758
4 718 719 760 759
4 719 720 761 760
4 720 721 762 761
4 721 722 763 762
4 722 723 764 763
4 723 724 765 764
4 724 725 766 765
4 725 726 767 766
4 726 727 768 767
4 727 728 769 768
4 728 729 770 769
4 729 730 771 770
4 730 731 772 771
4 731 732 773 772
4 732 733 774 773
4 733 734 775 774
4 734 735 776 775
4 735 736 777 776
4 736 737 778 777
4 738 739 780 779
4 739 740 781 780
4 740 741 782 781
4 741 742 783 782
4 742 743 784 783
4 743 744 785 784
4 744 745 786 785
4 745 746 787 786
4 746 747 788 787
4 747 748 789 788
4 748 749 790 789
4 749 750 791 790
4 750 751 792 791
4 751 752 793 792
4 752 753 794 793
4 753 754 795 794
4 754 755 796 795
4 755 756 797 796
4 756 757 798 797
4 757 758 799 798
4 758 759 800 799
4 759 760 801 800
4 760 761 802 801
4 761 762 803 802
4 762 763 804 803
4 763 764 805 804
4 764 765 806 805
4 765 766 807 806
4 766 767 808 807
4 767 768 809 808
4 768 769 810 809
4 769 770 811 810
4 770 771 812 811
4 771 772 813 812
4 772 773 814 813
4 773 774 815 814
4 774 775 816 815
4 775 776 817 816
4 776 777 818 817
4 777 778 819 818
4 779 780 821 820
4 780 781 822 821
4 781 782 823 822
4 782 783 824 823
4 783 784 825 824
4 784 785 826 825
4 785 786 827 826
4 786 787 828 827
4 787 788 829 828
4 788 789 830 829
4 789 790 831 830
4 790 791 832 831
4 791 792 833 832
4 792 793 834 833
4 793 794 835 834
4 794 795 836 835
4 795 796 837 836
4 796 797 838 837
4 797 798 839 838
4 798 799 840 839
4 799 800 841 840
4 800 801 842 841
4 801 802 843 842
4 802 803 844 843
4 803 804 845 844
4 804 805 846 845
4 805 806 847 846
4 806 807 848 847
4 807 808 849 848
4 808 809 850 849
4 809 810 851 850
4 810 811 852 851
4 811 812 853 852
4 812 813 854 853
4 813 814 855 854
4 814 815 856 855
4 815 816 857 856
4 816 817 858 857
4 817 818 859 858
4 818 819 860 859
CELL_TYPES 800
9
9
9
9
9
9
9
9
9
9
9
9
9
9
9
9
9
9
9
9
9
9
9
9
9
9
9
9
9
9
9
9
9
9
9
9
9
9
9
9
9
9
9
9
9
9
9
9
9
9
9
9
9
9
9
9
9
9
9
9
9
9
9
9
9
9
9
9
9
9
9
9
9
9
9
9
9
9
9
9
9
9
9
9
9
9
9
9
9
9
9
9
9
9
9
9
9
9
9
9
9
9
9
9
9
9
9
9
9
9
9
9
9
9
9
9
9
9
9
9
9
9
9
9
9
9
9
9
9
9
9
9
9
9
9
9
9
9
9
9
9
9
9
9
9
9
9
9
9
9
9
9
9
9
9
9
9
9
9
9
9
9
9
9
9
9
9
9
9
9
9
9
9
9
9
9
9
9
9
9
9
9
9
9
9
9
9
9
9
9
9
9
9
9
9
9
9
9
9
9
9
9
9
9
9
9
9
9
9
9
9
9
9
9
9
9
9
9
9
9
9
9
9
9
9
9
9
9
9
9
9
9
9
9
9
9
9
9
9
9
9
9
9
9
9
9
9
9
9
9
9
9
9
9
9
9
9
9
9
9
9
9
9
9
9
9
9
9
9
9
9
9
9
9
9
9
9
9
9
9
9
9
9
9
9
9
9
9
9
9
9
9
9
9
9
9
9
9
9
9
9
9
9
9
9
9
9
9
9
9
9
9
9
9
9
9
9
9
9
9
9
9
9
9
9
9
9
9
9
9
9
9
9
9
9
9
9
9
9
9
9
9
9
9
9
9
9
9
9
9
9
9
9
9
9
9
9
9
9
9
9
9
9
9
9
9
9
9
9
9
9
9
9
9
9
9
9
9
9
9
9
9
9
9
9
9
9
9
9
9
9
9
9
9
9
9
9
9
9
9
9
9
9
9
9
9
9
9
9
9
9
9
9
9
9
9
9
9
9
9
9
9
9
9
9
9
9
9
9
9
9
9
9
9
9
9
9
9
9
9
9
9
9
9
9
9
9
9
9
9
9
9
9
9
9
9
9
9
9
9
9
9
9
9
9
9
9
9
9
9
9
9
9
9
9
9
9
9
9
9
9
9
9
9
9
9
9
9
9
9
9
9
9
9
9
9
9
9
9
9
9
9
9
9
9
9
9
9
9
9
9
9
9
9
9
9
9
9
9
9
9
9
9
9
9
9
9
9
9
9
9
9
9
9
9
9
9
9
9
9
9
9
9
9
9
9
9
9
9
9
9
9
9
9
9
9
9
9
9
9
9
9
9
9
9
9
9
9
9
9
9
9
9
9
9
9
9
9
9
9
9
9
9
9
9
9
9
9
9
9
9
9
9
9
9
9
9
9
9
9
9
9
9
9
9
9
9
9
9
9
9
9
9
9
9
9
9
9
9
9
9
9
9
9
9
9
9
9
9
9
9
9
9
9
9
9
9
9
9
9
9
9
9
9
9
9
9
9
9
9
9
9
9
9
9
9
9
9
9
9
9
9
9
9
9
9
9
9
9
9
9
9
9
9
9
9
9
9
9
9
9
9
9
9
9
9
9
9
9
9
9
9
9
9
9
9
9
9
9
9
9
9
9
9
9
9
9
9
9
9
9
9
9
9
9
9
9
9
9
9
9
9
9
9
9
9
9
9
9
9
9
9
9
9
9
9
9
9
9
9
9
9
9
9
9
9
9
9
9
9
9
9
9
9
9
9
9
9
9
9
9
9
9
9
9
9
9
9
9
9
9
9
9
9
9
9
9
9
9
9
9
9
9
9
9
9
9
9
9
9
9
9
9
9
9
9
9
9
9
9
POINT_DATA 861
SCALARS Disp float 2
LOOKUP_TABLE default
0.0 0.0
0.004656823309438989 -0.1542879195334109
0.0057308049176776335 -0.3009654571604892
0.006462195881107226 -0.44688000636584396
0.007350433725017137 -0.5924935962438842
0.008627121319856589 -0.7375439904354508
0.010661905606080086 -0.8816985021221484
0.01385528931916901 -1.0245599116620165
0.0186627888422719 -1.1656381029180276
0.025573032849722507 -1.3043044572704046
0.03508670763982349 -1.4397173707665725
0.04772703906817275 -1.5707623127919583
0.0640537202009688 -1.6960414895495657
0.08465562654367396 -1.813921643099419
0.11014848662811258 -1.9225783702533723
0.1411035521936645 -2.0200303980908982
0.17791620688636406 -2.1041791536872227
0.22063963705008297 -2.172875761580258
0.26883279535586313 -2.2240635095539254
0.3214844473200141 -2.256006821904373
0.3769357182026124 -2.2675139912783426
0.4323869890852083 -2.2560068219043097
0.48503864104935046 -2.224063509553794
0.5332317993551138 -2.172875761580068
0.5759552295188115 -2.1041791536869843
0.6127678842114888 -2.020030398090628
0.6437229497770188 -1.9225783702530752
0.6692158098614353 -1.8139216430991039
0.6898177162041176 -1.696041489549242
0.7061443973368915 -1.5707623127916368
0.7187847287652213 -1.439717370766261
0.7282984035553057 -1.3043044572701104
0.7352086475627434 -1.165638102917755
0.7400161470858363 -1.0245599116617694
0.7432095307989185 -0.8816985021219292
0.7452443150851376 -0.7375439904352641
0.746521002679975 -0.5924935962437301
0.7474092405238844 -0.4468800063657246
0.7481406314873137 -0.30096545716040407
0.7492146130955514 -0.15428791953336193
0.7538714364049872 0.0
0.03849592444619731 -0.00200961063203527
0.04166018071638189 -0.15444856534476906
0.04224311435411315 -0.3010272850556674
0.042899439677296425 -0.4469611100685961
0.04369109492955347 -0.5926034705506743
0.04479422950041765 -0.7377561132623925
0.04656060202808776 -0.8821064056265406
0.04937144170475445 -1.0252683025447105
0.05365425998349574 -1.1667626504380963
0.05985261880545287 -1.305961372326941
0.06841070412056809 -1.4420240262032846
0.07978174864836574 -1.5738431846685423
0.09445412031935607 -1.700032189826738
0.11296819835607466 -1.8189677882344224
0.135890485680482 -1.928828098768109
0.16375622817601201 -2.0276092690837677
0.19694389358639952 -2.1131523630965776
0.23552389859592732 -2.183208435764083
0.27912364831891173 -2.2355901291027593
0.32681575051615924 -2.2684151768728857
0.3769357182026047 -2.2802755308990426
0.4270556858890473 -2.268415176872821
0.4747477880862865 -2.2355901291026252
0.5183475378092564 -2.183208435763889
0.5569275428187659 -2.1131523630963343
0.5901152082291338 -2.027609269083492
0.617980950724644 -1.9288280987678066
0.6409032380490312 -1.8189677882341022
0.6594173160857293 -1.7000321898264092
0.6740896877566999 -1.5738431846682162
0.6854607322844799 -1.442024026202969
0.6940188175995802 -1.3059613723266434
0.7002171764215255 -1.166762650437821
0.7044999947002577 -1.0252683025444616
0.7073108343769183 -0.8821064056263204
0.7090772069045846 -0.7377561132622052
0.7101803414754472 -0.59260347055052
0.7109719967277038 -0.4469611100684768
0.7116283220508869 -0.30102728505558224
0.7122112556886182 -0.15444856534471985
0.7153755119587981 -0.0020096106320329266
0.076159261239881 -0.00358285086924819
0.07843840407642826 -0.15452417253949338
0.07877721091887391 -0.30106465680807076
0.07931421640408065 -0.4470340378304081
0.0800161764707439 -0.5926950409214837
0.0809640389656556 -0.737924897932422
0.08246397195530455 -0.8824433435469194
0.08489236652773541 -1.0258725023089372
0.08864180546399951 -1.1677416081851038
0.09411420956264799 -1.307419938740383
0.10169958518909604 -1.4440650865815248
0.11178832990277507 -1.5765738193909227
0.12480028903865527 -1.7035718041563732
0.14121128480111694 -1.8234499973625475
0.16154304819426743 -1.9343896155726439
0.18628913235471672 -2.0343681795681205
0.21581532323159794 -2.1211744115107103
0.25022545598892154 -2.1924707068635154
0.2892222508638757 -2.245949493695845
0.33195456230557635 -2.279569643907381
0.37693571820259714 -2.2917562776292635
0.4219168740996153 -2.2795696439073145
0.4646491855413081 -2.2459494936957083
0.5036459804162496 -2.1924707068633174
0.5380561131735575 -2.1211744115104625
0.5675823040504213 -2.0343681795678403
0.592328388210853 -1.9343896155723372
0.6126601516039852 -1.8234499973622227
0.6290711473664289 -1.70357180415604
0.6420831065022918 -1.576573819390592
0.6521718512159549 -1.4440650865812055
0.6597572268423898 -1.3074199387400827
0.6652296309410276 -1.1677416081848262
0.6689790698772835 -1.0258725023086865
0.6714074644497091 -0.8824433435466983
0.6729073974393548 -0.7379248979322341
0.6738552599342653 -0.5926950409213293
0.6745572200009282 -0.44703403783028883
0.675094225486135 -0.30106465680798566
0.6754330323285808 -0.15452417253944392
0.6777121751651235 -0.003582850869243416
0.11338843891673825 -0.004838552085242141
0.11508358054821485 -0.15457497903730816
0.11529147285186592 -0.30108577571026285
0.11571186194375001 -0.447094399944903
0.11631989384382826 -0.5927739862253754
0.11713261146795559 -0.7380563497531676
0.1183801961294217 -0.8827110178777727
0.12042696377648718 -1.0263737421701224
0.12363934312434714 -1.1685738720601246
0.12837683884022438 -1.3086780237015556
0.13497902134251227 -1.4458382112064043
0.14377616117117192 -1.5789535773581922
0.15512375146723845 -1.7066606387121126
0.1694314745778142 -1.827366268157314
0.18715905380819842 -1.9392588132956459
0.20876480251797455 -2.040300986611755
0.23460383633215282 -2.1282386007900036
0.2648146314911076 -2.200658025463499
0.2991808478193496 -2.2551382369434627
0.3369822073431355 -2.28949182838331
0.3769357182025899 -2.302005101745328
0.4168892290620418 -2.289491828383242
0.45469058858582057 -2.2551382369433237
0.4890568049140515 -2.200658025463298
0.5192676000729923 -2.1282386007897522
0.5451066338871556 -2.040300986611471
0.5667123825969161 -1.9392588132953348
0.5844399618272844 -1.827366268156985
0.5987476849378445 -1.7066606387117755
0.6100952752338958 -1.5789535773578576
0.6188924150625417 -1.445838211206082
0.625494597564818 -1.3086780237012527
0.6302320932806856 -1.168573872059845
0.6334444726285385 -1.0263737421698702
0.6354912402755993 -0.8827110178775506
0.636738824937063 -0.7380563497529795
0.6375515425611894 -0.5927739862252209
0.6381595744612675 -0.4470943999447837
0.6385799635531516 -0.30108577571017775
0.6387878558568028 -0.15457497903725842
0.6404829974882753 -0.00483855208523517
0.15036657498745973 -0.0058460783146287686
0.15163428896467424 -0.15461726404684722
0.15177002422175773 -0.30109776298634616
0.1520903854127532 -0.4471412575377161
0.15260071122166083 -0.5928418193220685
0.1532907313438327 -0.7381600656174339
0.15431473123613032 -0.8829150691405679
0.15598429196119348 -1.0267737579652858
0.15866104243040177 -1.1692603128562655
0.16266019742618454 -1.309735074173627
0.16827384749449556 -1.4473430669000058
0.17577677012196824 -1.5809825437798832
0.18545959784439014 -1.709299931103905
0.197665290270041 -1.8307180739765074
0.21279401023589511 -1.9434345178361274
0.23125165243789259 -2.0454042078661905
0.2533829045150218 -2.134339586969101
0.27936373124036107 -2.2077632125241133
0.30907068481858335 -2.2631545310766485
0.34194923270072 -2.298196796294944
0.37693571820258287 -2.3110498751304585
0.41192220370444327 -2.2981967962948753
0.4448007515865737 -2.2631545310765078
0.4745077051647859 -2.207763212523909
0.5004885318901133 -2.134339586968847
0.5226197839672295 -2.0454042078659027
0.5410774261692135 -1.9434345178358132
0.5562061461350538 -1.8307180739761746
0.5684118385606914 -1.7092999311035644
0.5780946662831004 -1.5809825437795455
0.5855975889105614 -1.4473430668996803
0.5912112389788622 -1.3097350741733218
0.5952103939746368 -1.169260312855984
0.5978871444438391 -1.0267737579650327
0.5995567051688984 -0.8829150691403451
0.6005807050611942 -0.7381600656172456
0.6012707251833656 -0.592841819321914
0.6017810509922729 -0.4471412575375968
0.6021014121832683 -0.3010977629862611
0.6022371474403518 -0.15461726404679724
0.603504861417563 -0.0058460783146199406
0.18717796185493313 -0.0066495868827613006
0.188118025211387 -0.15465600548356953
0.18821084377687683 -0.30110550861013713
0.18844742239083204 -0.44717552554363255
0.18885825704490633 -0.592898765993447
0.18943270372867554 -0.7382427229154509
0.19025863950621788 -0.8830663073326114
0.19158044474643596 -1.0270757342125094
0.1937216922372226 -1.1698031963927842
0.19698460610479632 -1.3105925518474117
0.20161011230397527 -1.4485805974612038
0.20782017925468774 -1.5826626353856843
0.21584459119253274 -1.7114924069520026
0.2259588412009086 -1.8335083153641196
0.2384945103332441 -1.9469197250034291
0.25381318527163554 -2.049678246581329
0.272232993976287 -2.13947332430667
0.29395388951169465 -2.2137788024250185
0.3189633114579162 -2.269993856050661
0.3468993423671044 -2.3056904012220976
0.3769357182025757 -2.3189063324089556
0.40697209403804474 -2.305690401222027
0.4349081249472275 -2.2699938560505184
0.4599175468934405 -2.2137788024248115
0.4816384424288381 -2.139473324306414
0.5000582511334785 -2.049678246581038
0.5153769260718584 -1.9469197250031118
0.5279125952041825 -1.833508315363784
0.5380268452125474 -1.711492406951659
0.5460512571503816 -1.582662635385344
0.5522613241010843 -1.448580597460876
0.5568868303002548 -1.3105925518471047
0.5601497441678217 -1.1698031963925013
0.5622909916586035 -1.0270757342122552
0.5636127968988186 -0.8830663073323882
0.5644387326763597 -0.7382427229152625
0.5650131793601285 -0.5928987659932926
0.5654240140142026 -0.4471755255435132
0.5656605926281577 -0.3011055086100521
0.5657534111936475 -0.15465600548351935
0.5666934745500988 -0.006649586882750909
0.2238681816643187 -0.00728320114097724
0.22455419904714566 -0.15469254680727695
0.22461783913723182 -0.3011115248281511
0.22478234073080763 -0.44719868706211907
0.22509470443947846 -0.592944090971562
0.22555451689426972 -0.7383087104954356
0.22620143084854266 -0.8831766215051722
0.22720980842395616 -1.0272915432981478
0.22884208658608307 -1.170206266325018
0.23137168422000243 -1.3112537021634973
0.23501541911433302 -1.4495539083979392
0.23993937500266566 -1.5839972532359938
0.24631583702099702 -1.7132426857289085
0.2543543439798243 -1.8357426649660524
0.264319253458867 -1.9497192178990348
0.27651172635142335 -2.05312715097959
0.29122547822509554 -2.143639883711023
0.3086743480961471 -2.2186980344067453
0.3289400598226694 -2.2756469634566288
0.35187813075846797 -2.311968644584427
0.3769357182025684 -2.325579750537643
0.4019933056466669 -2.3119686445843555
0.42493137658246094 -2.2756469634564844
0.4451970883089759 -2.218698034406537
0.4626459581800192 -2.143639883710765
0.4773597100536824 -2.0531271509792965
0.48955218294622943 -1.9497192178987148
0.49951709242526304 -1.8357426649657147
0.5075555993840818 -1.7132426857285628
0.5139320614024044 -1.5839972532356514
0.5188560172907294 -1.44955390839761
0.5224997521850532 -1.3112537021631883
0.5250293498189672 -1.170206266324734
0.5266616279810904 -1.0272915432978929
0.5276700055565017 -0.8831766215049488
0.5283169195107739 -0.7383087104952473
0.528776731965565 -0.5929440909714074
0.5290890956742356 -0.4471986870619997
0.5292535972678113 -0.30111152482806613
0.5293172373578974 -0.15469254680722666
0.5300032547407224 -0.0072832011409655496
0.26046838252463517 -0.00777393010968522
0.26095707581524086 -0.15472817101601252
0.2609968694289766 -0.3011163828563307
0.2610963598476719 -0.44721217474223535
0.2613127761646598 -0.5929769871935494
0.26165407428839643 -0.7383603828162958
0.26213897875990255 -0.8832543840172704
0.2628640516876201 -1.0274363236190855
0.2640274170378592 -1.1704812864966005
0.26584923730375837 -1.311724348562957
0.26851986051507865 -1.4502682254125512
0.2721683984665203 -1.5849919197588376
0.2769129591955036 -1.7145575390840762
0.28289855782145845 -1.8374293149527308
0.2903194087537428 -1.9518420336815465
0.2994147701430314 -2.055757800262389
0.3104394291669251 -2.1468426591410994
0.323609238302787 -2.2225174099928333
0.339086417628244 -2.280100705225579
0.356938213943808 -2.3170165474534943
0.3769357182025608 -2.331064384916038
0.39693322246131224 -2.317016547453422
0.41478501877687285 -2.280100705225433
0.4302621981023239 -2.2225174099926233
0.4434320072381792 -2.146842659140839
0.4544566662620659 -2.0557578002620933
0.46355202765134756 -1.9518420336812246
0.47097287858362513 -1.837429314952391
0.47695847720957363 -1.7145575390837287
0.4817030379385508 -1.584991919758493
0.4853515758899866 -1.4502682254122203
0.4880221991013019 -1.3117243485626469
0.48984401936719724 -1.1704812864963154
0.4910073847174337 -1.0274363236188302
0.49173245764514995 -0.8832543840170466
0.49221736211665557 -0.7383603828161074
0.49255866024039197 -0.5929769871933949
0.4927750765573798 -0.44721217474211594
0.492874566976075 -0.3011163828562456
0.4929143605898106 -0.1547281710159622
0.49340305388041494 -0.00777393010967252
0.29699614860761964 -0.008148198113317958
0.29733994004959646 -0.15476381454265303
0.29735308011970457 -0.30111945509125165
0.2973921431666808 -0.4472170801588078
0.2975158774678113 -0.5929972782759894
0.29773512292178833 -0.7383969422760616
0.2980596169632763 -0.883308314225935
0.2985348911291985 -1.0275253211354578
0.29927310622901654 -1.1706469450227033
0.3004319560936951 -1.3120186848511277
0.30215716002765514 -1.450732871922149
0.3045486117215534 -1.5856556762493612
0.30767956568658317 -1.7154469508511965
0.31163915265473574 -1.8385800563049486
0.31655189490681507 -1.9533009276115645
0.32258713753712903 -2.0575818734562974
0.3299494153869442 -2.1490901268265667
0.3388544083439956 -2.2252374108684965
0.3495029857372035 -2.2833401042962307
0.3621434321088616 -2.320807809428029
0.3769357182025528 -2.3353427572908805
0.39172800429624344 -2.320807809427956
0.4043684506678991 -2.283340104296084
0.4150170280611028 -2.225237410868285
0.42392202101814935 -2.1490901268263056
0.4312842988679599 -2.0575818734560003
0.4373195414982692 -1.9533009276112414
0.44223228375034423 -1.8385800563046077
0.4461918707184929 -1.7154469508508479
0.44932282468351875 -1.5856556762490155
0.45171427637741324 -1.450732871921817
0.45343948031137 -1.3120186848508169
0.4545983301760463 -1.1706469450224177
0.455336545275863 -1.027525321135202
0.45581181944178434 -0.8833083142257112
0.45613631348327205 -0.738396942275873
0.45635555893724894 -0.5929972782758347
0.4564792932383793 -0.44721708015868844
0.4565183562853555 -0.30111945509116655
0.4565314963554635 -0.15476381454260268
0.4568752877974395 -0.008148198113304526
0.33346301567584075 -0.00843375077330279
0.33370685540983186 -0.15480070736739948
0.3336916979954317 -0.3011194934194483
0.33367332332095617 -0.4472142399093156
0.3337074504885233 -0.5930051934587168
0.33380361836567946 -0.7384170823422306
0.33396253793927744 -0.8833407817460509
0.33420125268115725 -1.027574980767616
0.33456219818131083 -1.170728793993175
0.3351189330648158 -1.3121626044101573
0.33594975217061174 -1.4509691552779875
0.3371200828881362 -1.5860063551337196
0.33866356183551105 -1.7159280028082804
0.3406242724246658 -1.839213507287913
0.3430663464292506 -1.9541161252436634
0.3460830429559619 -2.058618702962435
0.34981557418777925 -2.150397203735856
0.3544656522038462 -2.226869237123862
0.36029016830082594 -2.2853572045315764
0.3675925649866842 -2.323304291496946
0.37693571820254473 -2.3383802221925003
0.386278871418405 -2.3233042914968727
0.39358126810426225 -2.2853572045314294
0.39940578420123934 -2.2268692371236503
0.4040558622173033 -2.150397203735594
0.40778839344911877 -2.058618702962137
0.41080508997582765 -1.9541161252433397
0.41324716398041067 -1.8392135072875715
0.4152078745695641 -1.715928002807931
0.41675135351693726 -1.5860063551333734
0.4179216842344601 -1.4509691552776547
0.4187525033402547 -1.312162604409846
0.41930923822375876 -1.1707287939928892
0.41967018372391196 -1.02757498076736
0.4199088984657913 -0.883340781745827
0.4200678180393892 -0.7384170823420421
0.4201639859165453 -0.5930051934585621
0.4201981130841125 -0.44721423990919623
0.4201797384096369 -0.3011194934193632
0.4201645809952367 -0.15480070736734913
0.42040842072922735 -0.008433750773288867
0.3698846201587185 -0.008652860560634384
0.3700580743354072 -0.1548391113526587
0.37001722718226243 -0.30111582700166106
0.36994410125047256 -0.44720417967758364
0.36989163642215556 -0.593001018455339
0.36986548318930373 -0.7384204633654395
0.3698559727411148 -0.8833508348791586
0.36985369056852857 -1.027591425406156
0.3698534676397386 -1.1707542599565905
0.3698537683574718 -1.312202886677173
0.36985396352774064 -1.4510306772186048
0.3698542631046357 -1.58609692458778
0.3698520761544471 -1.7160528955061591
0.3698454075941031 -1.8393786870581676
0.36983429138588775 -1.9543353255816016
0.3698406781011363 -2.058912946795384
0.36994579432241215 -2.1508033284602592
0.3703431315015298 -2.2274469106246824
0.37135408100476913 -2.286184597358608
0.3733546975625376 -2.3244820740111507
0.3769357182025363 -2.340128407852932
0.38051673884253534 -2.3244820740110774
0.3825173554003035 -2.28618459735846
0.3835283049035419 -2.2274469106244705
0.3839256420826592 -2.150803328459997
0.3840307583039359 -2.058912946795086
0.38403714501918484 -1.9543353255812776
0.38402602881096987 -1.839378687057826
0.3840193602506269 -1.7160528955058096
0.3840171733004392 -1.586096924587434
0.384017472877335 -1.4510306772182722
0.3840176680476044 -1.3122028866768618
0.3840179687653379 -1.170754259956305
0.3840177458365482 -1.0275914254059
0.384015463663962 -0.8833508348789344
0.3840059532157732 -0.7384204633652511
0.3839797999829215 -0.5930010184551844
0.38392733515460453 -0.4472041796774643
0.3838542092228147 -0.3011158270015759
0.3838133620696699 -0.15483911135260842
0.38398681624635844 -0.008652860560620172
0.4062722951698231 -0.008824063053913067
0.40639771480528025 -0.1548766141073397
0.4063335208875852 -0.30110878367658855
0.40620899428758944 -0.44718717693091387
0.4060729035034863 -0.592985218236225
0.4059265362225435 -0.7384071819863309
0.4057496088381081 -0.8833380388933624
0.40550593000402707 -1.0275744849159416
0.40514469764296185 -1.1707288960198432
0.40458858920258245 -1.3121626531898578
0.40375874309529847 -1.4509694559851511
0.402588646437319 -1.5860059271316798
0.40104064284046426 -1.7159262825700667
0.39906609275125016 -1.8392094263675884
0.39660230904806465 -1.954113134216177
0.3935996233316525 -2.0586368504171153
0.3900705954095728 -2.150493470837
0.38615908441660973 -2.2271564767679806
0.38218829832791185 -2.2859884263679264
0.3786743549596944 -2.324451676609341
0.376935718202528 -2.340702527587993
0.37519708144536124 -2.3244516766092675
0.37168313807714387 -2.2859884263677785
0.3677123519884475 -2.2271564767677683
0.3638008409954874 -2.1504934708367385
0.36027181307341133 -2.0586368504168178
0.3572691273570021 -1.9541131342158533
0.3548053436538192 -1.8392094263672472
0.35283079356460845 -1.715926282569718
0.3512827899677573 -1.586005927131334
0.35011269330978084 -1.4509694559848187
0.3492828472024994 -1.3121626531895465
0.3487267387621215 -1.1707288960195579
0.3483655064010573 -1.0275744849156858
0.34812182756697674 -0.8833380388931383
0.3479449001825418 -0.7384071819861424
0.3477985329015991 -0.5929852182360703
0.34766244211749614 -0.4471871769307946
0.3475379155175005 -0.30110878367650346
0.34747372159980555 -0.1548766141072894
0.3475991412352626 -0.008824063053898629
0.44264209658309644 -0.008956149711863459
0.44273055299561986 -0.15491137118526677
0.44264511845093685 -0.3010985521328635
0.44247245934661744 -0.44716359528776634
0.4422560025649176 -0.5929583845676034
0.44199251201880946 -0.738377550140995
0.4416512714079834 -0.8833028749993874
0.4411720675369629 -1.0275243611051863
0.4404336103596951 -1.1706471492876322
0.4392759341722752 -1.3120189732416347
0.437551570724444 -1.450733249133303
0.4351597972116929 -1.585654735194954
0.4320250363435626 -1.7154430367883167
0.42805345254139865 -1.8385713172949303
0.4231206741277704 -1.953294468797598
0.41709525043401574 -2.057618303326093
0.40991248834875393 -2.1492815581852103
0.40166606127701454 -2.2258024135654875
0.3926981977391474 -2.2846006960936434
0.3838762763944923 -2.323303296943452
0.3769357182025199 -2.340256342071635
0.36999516001054705 -2.3233032969433784
0.3611732386658929 -2.284600696093496
0.3522053751280292 -2.2258024135652765
0.34395894805629496 -2.1492815581849496
0.3367761859710396 -2.057618303325796
0.3307507622772903 -1.9532944687972749
0.32581798386366695 -1.8385713172945901
0.3218464000615086 -1.715443036787969
0.31871163919338436 -1.5856547351946086
0.3163198656806385 -1.4507332491329712
0.3145955022328119 -1.312018973241324
0.31343782604539516 -1.1706471492873471
0.3126993688681291 -1.0275243611049303
0.3122201649971096 -0.8833028749991637
0.3118789243862841 -0.7383775501408064
0.31161543384017637 -0.5929583845674489
0.3113989770584768 -0.44716359528764693
0.31122631795415745 -0.3010985521327784
0.31114088340947454 -0.15491137118521653
0.31122933982199785 -0.008956149711848839
0.47900591124264447 -0.009054782319663682
0.4790625184015314 -0.15494179977988776
0.4789569091363952 -0.30108520517523973
0.4787390830049879 -0.4471338814801725
0.47844592729729885 -0.5929210856210629
0.47806941176878454 -0.7383325889479108
0.4775710810321617 -0.8832462103659974
0.47684206957687514 -1.02743495576538
0.47567962986746604 -1.1704817718180893
0.4738591829165945 -1.3117249339807935
0.47118887991631103 -1.450268541420849
0.4675395551702272 -1.5849904831486192
0.46279272877284616 -1.7145519886226144
0.4568006472551043 -1.8374169897019983
0.449367446517232 -1.9518324837628223
0.4402767690305661 -2.055807947158081
0.4293744240892524 -2.147111241488209
0.4167028038367903 -2.2233184637054593
0.40272326724586666 -2.281968433570408
0.38863722679451257 -2.320886818826381
0.37693571820251187 -2.3388016655545774
0.36523420961051145 -2.3208868188263074
0.3511481691591593 -2.2819684335702615
0.3371686325682405 -2.223318463705249
0.3244970123157856 -2.1471112414879503
0.3135946673744805 -2.055807947157786
0.30450398988782246 -1.9518324837625007
0.29707078914995755 -1.83741698970166
0.29107870763222365 -1.7145519886222684
0.28633188123485065 -1.5849904831482757
0.2826825564887743 -1.4502685414205185
0.2800122534884974 -1.3117249339804837
0.27819180653763054 -1.1704817718178044
0.2770293668282243 -1.0274349557651241
0.27630035537293945 -0.8832462103657738
0.2758020246363174 -0.7383325889477222
0.2754255091078035 -0.5929210856209084
0.2751323534001148 -0.4471338814800532
0.2749145272687077 -0.30108520517515464
0.2748089180035716 -0.15494179977983752
0.27486552516245844 -0.009054782319648928
0.5153713711251828 -0.009124991874486399
0.5153995975837864 -0.15496662660811222
0.515273931007752 -0.30106867225995104
0.5150135111678157 -0.44709844983770985
0.5146469673505232 -0.5928741603293144
0.5141644022080011 -0.7382736329606185
0.5135062045424649 -0.8831656048556652
0.5124963840220083 -1.0272900800425029
0.5108657253206229 -1.170207218963754
0.5083372074344367 -1.3112544870880607
0.5046930525844725 -1.4495539905128407
0.4997680454450137 -1.5839954027286438
0.49339141075711 -1.7132365316996438
0.4853552146623402 -1.8357293105314794
0.47539300995584177 -1.9497085776663818
0.46320217454851814 -2.0531838022875997
0.44853056098204935 -2.143954267209713
0.4313910769851975 -2.2196830584979343
0.41238951439425053 -2.2780783526883748
0.39315140702077594 -2.3172460016409744
0.37693571820250404 -2.336384881869514
0.36072002938423303 -2.3172460016409016
0.34148192201076155 -2.2780783526882287
0.322480359419821 -2.219683058497726
0.30534087542297805 -2.143954267209456
0.2906692618565198 -2.053183802287307
0.2784784264492063 -1.9497085776660623
0.2685162217427177 -1.8357293105311432
0.26048002564795814 -1.7132365316993001
0.25410339096006485 -1.5839954027283023
0.24917838382061555 -1.4495539905125123
0.24553422897065955 -1.3112544870877525
0.24300571108447974 -1.1702072189634702
0.24137505238309845 -1.0272900800422475
0.24036523186264436 -0.8831656048554417
0.2397070341971092 -0.73827363296043
0.23922446905458777 -0.5928741603291598
0.23885792523729554 -0.44709844983759056
0.23859750539735952 -0.30106867225986594
0.23847183882132517 -0.15496662660806199
0.23850006527992867 -0.00912499187447156
0.5517439540672552 -0.00917151148222234
0.5517470844622407 -0.1549850348075943
0.5516013257162348 -0.3010487780005203
0.5513004646154582 -0.44705770756170277
0.5508646365097674 -0.592818605528645
0.550281515948736 -0.738201764644686
0.5494484483395269 -0.8830529746043474
0.5481265738571535 -1.0270745658427165
0.5459872007633051 -1.1698046283716812
0.5427245581624105 -1.3105933485234398
0.5380980620219113 -1.448580326146054
0.531886856083076 -1.5826605044431314
0.5238647523656449 -1.7114869425029642
0.513763045423026 -1.833497543168522
0.5012496124735452 -1.9469117053729585
0.48593596305811404 -2.0497338407666774
0.46748818342479687 -2.1398002090497483
0.4458926108125782 -2.214889283526803
0.4219047624061679 -2.27293713935335
0.3976023258299524 -2.3124105393636722
0.37693571820249633 -2.333024288958067
0.35626911057504146 -2.3124105393635994
0.33196667399883056 -2.2729371393532056
0.30797882559242834 -2.2148892835265963
0.28638325298022016 -2.1398002090494943
0.2679354733469154 -2.0497338407663874
0.25262182393149657 -1.946911705372642
0.24010839098202813 -1.8334975431681886
0.23000668403942165 -1.7114869425026231
0.22198458032200308 -1.5826605044427928
0.21577337438317917 -1.4485803261457282
0.21114687824268993 -1.3105933485231336
0.20788423564180314 -1.1698046283713988
0.20574486254796034 -1.0270745658424618
0.20442298806559028 -0.8830529746041241
0.20358992045638277 -0.7382017646444977
0.20300679989535206 -0.5928186055284905
0.20257097178966152 -0.44705770756158353
0.20227011068888534 -0.3010487780004352
0.2021243519428795 -0.15498503480754405
0.20212748233786507 -0.009171511482207446
0.5881276383497389 -0.009198969213704479
0.5881094669196044 -0.1549966704926122
0.5879441899113955 -0.30102535007685277
0.5876047569928546 -0.4470120492940744
0.5871035120612922 -0.5927555330024289
0.586417871932627 -0.7381143726172089
0.5853929136281646 -0.8829002103568121
0.5837248526128496 -1.0267731217658667
0.581048814017487 -1.1692619998479394
0.5770490117847228 -1.309735695186844
0.5714339625951208 -1.4473423833731351
0.563930336533837 -1.5809803729829048
0.5542526934285302 -1.7092964950626572
0.5420686136888998 -1.8307135377429806
0.5269803381511307 -1.9434338761579169
0.5085444417617703 -2.045455731093678
0.48635611744239465 -2.13465320506807
0.46036823630360435 -2.208945373116768
0.43146837732321064 -2.266556638945452
0.4021254813435285 -2.306383984047244
0.3769357182024887 -2.3287038923928183
0.3517459550614507 -2.3063839840471725
0.3224030590817744 -2.2665566389453096
0.29350320010139036 -2.208945373116564
0.2675153189626122 -2.134653205067819
0.24532699464325092 -2.0454557310933916
0.226891098253905 -1.943433876157603
0.21180282271615036 -1.8307135377426502
0.1996187429765348 -1.7092964950623197
0.18994109987124272 -1.5809803729825693
0.18243747380997222 -1.4473423833728123
0.17682242462038186 -1.30973569518654
0.17282262238762677 -1.1692619998476583
0.17014658379227104 -1.0267731217656133
0.1684785227769603 -0.8829002103565892
0.16745356447250023 -0.7381143726170207
0.16676792434383567 -0.5927555330022746
0.1662666794122736 -0.44701204929395516
0.16592724649373314 -0.3010253500767677
0.16576196948552438 -0.15499667049256197
0.16574379805538997 -0.009198969213689559
0.6245250014775746 -0.009212028339147221
0.6244904177444975 -0.15500162011797783
0.6243075725633277 -0.3009983633375125
0.623931533963179 -0.4469618135819476
0.6233670017506473 -0.5926857611148514
0.6225724900576629 -0.7380081064939004
0.6213308311860661 -0.8826959929052557
0.6192847849985381 -1.0263733420792343
0.6160712525240492 -1.1685754649766067
0.6113321832198896 -1.3086783186134479
0.6047284820025824 -1.4458371523386662
0.5959316755532256 -1.5789517739406445
0.5845924897094571 -1.70666045089451
0.570312503839021 -1.8273705871366002
0.5526373517389933 -1.939270281115257
0.5310818196936608 -2.040353479450855
0.5052258976520834 -2.128531845541666
0.47498638021329126 -2.2018765241331244
0.4412785173074931 -2.25894672620916
0.4068483735936021 -2.299143287707744
0.3769357182024813 -2.323376920100305
0.34702306281136247 -2.299143287707673
0.3125929190974783 -2.258946726209019
0.2788850561916914 -2.2018765241329232
0.2486455387529136 -2.1285318455414184
0.22278961671135247 -2.0403534794505718
0.20123408466603637 -1.939270281114947
0.1835589325660255 -1.827370587136273
0.1692789466956064 -1.7066604508941763
0.15793976085185468 -1.5789517739403125
0.14914295440251313 -1.4458371523383464
0.14253925318521907 -1.3086783186131465
0.13780018388107018 -1.1685754649763278
0.13458665140658924 -1.0263733420789822
0.1325406052190665 -0.8826959929050336
0.1312989463474725 -0.7380081064937124
0.13050443465448913 -0.592685761114697
0.12993990244195788 -0.4469618135818283
0.1295638638418095 -0.30099836333742747
0.12938101866063992 -0.15500162011792765
0.12934643492756293 -0.009212028339132278
0.6609369771051782 -0.009215452703634611
0.6608927193904579 -0.1550004763852653
0.6606968137384568 -0.3009680129893639
0.660286031716392 -0.4469074398734484
0.6596576129289579 -0.5926084642389104
0.6587416921665188 -0.7378775842534125
0.6572519649558242 -0.8824288170210445
0.6548220207861837 -1.0258716730586388
0.6510692049654233 -1.1677427387589507
0.6455945158075764 -1.307419807921643
0.638007757037669 -1.4440637909632135
0.6279209153446287 -1.5765729449069374
0.6149205969151544 -1.7035758568037387
0.5985405105539502 -1.823464414353026
0.5782661564730244 -1.9344166370730838
0.5536010294089482 -2.034433863283927
0.524165941542356 -2.121469408421667
0.4898922813587104 -2.1937276939225754
0.45154471464246343 -2.2501180966070393
0.4119381745691916 -2.2906382084537906
0.3769357182024735 -2.3169579506695746
0.34193326183575806 -2.2906382084537205
0.3023267217624943 -2.250118096606901
0.26397915504626035 -2.193727693922377
0.2297054948626312 -2.121469408421423
0.20027040699605725 -2.034433863283648
0.1756052799319997 -1.9344166370727782
0.1553309258510928 -1.8234644143527035
0.13895083948990786 -1.7035758568034094
0.12595052106045238 -1.5765729449066097
0.11586367936742926 -1.4440637909628975
0.1082769205975365 -1.3074198079213446
0.1028022314397014 -1.167742738758674
0.09904941561895013 -1.0258716730583883
0.096619471449316 -0.8824288170208232
0.09512974423862487 -0.737877584253225
0.09421382347618715 -0.5926084642387562
0.09358540468875352 -0.44690743987332926
0.09317462266668904 -0.3009680129892789
0.09297871701468814 -0.15500047638521508
0.09293445929996791 -0.00921545270361967
0.6973621876697386 -0.009214097363142217
0.6973181939513404 -0.1549945166821865
0.697118028222884 -0.30093495304614915
0.6966739285193848 -0.44684892535751203
0.6959760288199871 -0.5925221261263635
0.6949162449629729 -0.7377128957852761
0.6931609208422562 -0.8820922157380926
0.6903450103103979 -1.0252662433534239
0.6860570502523088 -1.1667630052864222
0.6798558128938529 -1.3059607573584282
0.6712966784958235 -1.4420227118845417
0.6599293653681166 -1.5738438772690198
0.6452715559309536 -1.7000412197405055
0.6267896862607895 -1.8189925502437767
0.6039262390557838 -1.9288727056802155
0.5761700422438049 -2.0277033391249164
0.5432099622848717 -2.113496946168001
0.5051181140514616 -2.18457519403764
0.46255756686267235 -2.240108898693707
0.4176785007468227 -2.2807818849216495
0.3769357182024656 -2.3092967673821816
0.33619293565811165 -2.280781884921581
0.2913138695422712 -2.2401088986935718
0.24875332235349695 -2.1845751940374454
0.21066147412010564 -2.113496946167762
0.1777013941611927 -2.0277033391246424
0.14994519734923473 -1.9288727056799149
0.1270817501442502 -1.8189925502434587
0.10859988047410746 -1.7000412197401815
0.09394207103696549 -1.5738438772686967
0.08257475790927764 -1.4420227118842295
0.07401562351126442 -1.305960757358133
0.06781438615282148 -1.1667630052861482
0.0635264260947425 -1.025266243353175
0.06071051556289133 -0.8820922157378724
0.05895519144217902 -0.737712895785089
0.05789540758516651 -0.5925221261262094
0.05719750788576932 -0.44684892535739285
0.05675340818227047 -0.3009349530460641
0.05655324245381434 -0.15499451668213632
0.0565092487354163 -0.009214097363127276
0.7337956001749393 -0.009212731188241376
0.7337676795351089 -0.15498622749955604
0.7335790906960352 -0.30090035745503096
0.7331014556460358 -0.4467858395303387
0.7323194641796718 -0.5924219700172099
0.7310919405551686 -0.7375073899373696
0.729064095473623 -0.8816834010986268
0.7258628391349369 -1.0245561641801928
0.7210488800551739 -1.165637403557666
0.7141351762454342 -1.3043033250114606
0.7046209503765782 -1.4397162948617215
0.6919860373682469 -1.570765172546757
0.6756763122316906 -1.6960560462147471
0.6551077310693947 -1.8139567023435885
0.6296764205063642 -1.9226423802577173
0.5988615760499437 -2.0201683633394936
0.562413128450438 -2.1046307837493843
0.5205829928991943 -2.174484941437909
0.47429964518934614 -2.229084559999083
0.4250789571827252 -2.269491559270647
0.3769357182024574 -2.3
0.328792479222193 -2.26949155927058
0.2795717912155823 -2.2290845599989506
0.2332884435057517 -2.1744849414377194
0.19145830795452948 -2.1046307837491502
0.15500986035504632 -2.020168363339225
0.12419501589864874 -1.9226423802574217
0.09876370533564201 -1.8139567023432766
0.07819512417336963 -1.6960560462144285
0.06188539903683636 -1.5707651725464389
0.04925048602852606 -1.439716294861414
0.039736260159687606 -1.3043033250111693
0.032822556349962034 -1.1656374035573949
0.02800859727021003 -1.0245561641799463
0.02480734093153193 -0.8816834010984079
0.022779495849991453 -0.7375073899371832
0.021551972225490344 -0.5924219700170559
0.020769980759127036 -0.44678583953021944
0.02029234570912794 -0.300900357454946
0.020103756870054546 -0.15498622749950583
0.020075836230224114 -0.009212731188226445
SCALARS Stress float 6
LOOKUP_TABLE default
-1042.3222277194532 -1827.3860886410607 -1357.3157070170905 -11.824265860584989 0.0 0.0
1211.6852575776365 701.8472743738075 864.9914848062286 -24.76706636723891 0.0 0.0
529.214660820827 98.52197870936446 191.48174187197506 -36.094256271091616 0.0 0.0
449.30756708726017 16.775619800537836 140.6663039382075 -3.4890630298638046 0.0 0.0
555.2369261685478 50.052120171852586 198.41781892719726 0.10573437874982972 0.0 0.0
641.0621904755305 83.09194168708588 284.90165879327196 0.7823945180541054 0.0 0.0
739.628340694315 110.37593011010411 378.08320680495973 0.29175675060498296 0.0 0.0
835.744290563646 153.24067789364764 469.612640693167 -0.5300732930806686 0.0 0.0
936.5556903553572 207.24572695365634 557.0506889426636 -1.6037332040915337 0.0 0.0
1049.8739100408718 278.0353609095324 652.4646948374386 -2.8095295901391704 0.0 0.0
1180.1294898353972 368.9708087705803 763.876404364983 -4.04077028767991 0.0 0.0
1327.052520840306 480.15103258037686 892.8199143746732 -5.185029456563672 0.0 0.0
1486.6642128148815 605.4284357025916 1034.773137808457 -5.916814576154522 0.0 0.0
1653.8954381616845 739.6596406250183 1184.9482631591186 -6.533895586691946 0.0 0.0
1820.857936655587 874.9628843374721 1335.4901365682408 -6.992453967846288 0.0 0.0
1979.0713615252087 1003.2384671889954 1478.160368346534 -7.263008040968293 0.0 0.0
2120.7318636662885 1117.5871052886791 1605.6870195317354 -7.196578411567624 0.0 0.0
2237.8177520374807 1211.0348193740879 1710.644302900305 -6.626084287932404 0.0 0.0
2325.8017229432216 1280.1100904002776 1788.9968611930162 -5.508026782858112 0.0 0.0
2374.8267283605833 1316.1931108628544 1831.5320974315089 -5.205409094219381 0.0 0.0
2370.6890699591577 1309.3336902030742 1826.367739583749 -8.757439218243235e-12 0.0 0.0
2374.826728360314 1316.1931108626147 1831.5320974311262 5.205409094265303 0.0 0.0
2325.8017229426573 1280.1100903997556 1788.9968611924082 5.508026782790038 0.0 0.0
2237.8177520351624 1211.0348193718285 1710.644302898541 6.626084287983399 0.0 0.0
2120.7318636658915 1117.5871052883665 1605.687019531288 7.196578411613405 0.0 0.0
1979.0713615243747 1003.2384671882743 1478.1603683457479 7.263008041006055 0.0 0.0
1820.8579366548647 874.9628843368769 1335.4901365675316 6.992453967935333 0.0 0.0
1653.8954381619892 739.6596406254956 1184.9482631591623 6.533895586727036 0.0 0.0
1486.6642128141673 605.4284357020543 1034.7731378077785 5.916814576195284 0.0 0.0
1327.0525208395463 480.1510325798202 892.8199143740123 5.185029456490565 0.0 0.0
1180.1294898346227 368.9708087700074 763.8764043643195 4.0407702877074865 0.0 0.0
1049.8739100399089 278.0353609087865 652.4646948366992 2.8095295900971404 0.0 0.0
936.5556903553572 207.24572695393067 557.0506889425102 1.6037332040795391 0.0 0.0
835.7442905628807 153.2406778931259 469.61264069253616 0.5300732931839782 0.0 0.0
739.6283406936442 110.37593010965814 378.0832068043703 -0.29175675062392337 0.0 0.0
641.0621904750049 83.09194168681861 284.90165879278464 -0.7823945179783767 0.0 0.0
555.2369261683166 50.05212017192649 198.4178189270283 -0.105734378775443 0.0 0.0
449.3075670870918 16.77561980066244 140.6663039381914 3.4890630298092935 0.0 0.0
529.2146608203363 98.52197870891365 191.48174187167928 36.094256271022836 0.0 0.0
1211.685257577287 701.8472743734706 864.9914848057169 24.767066367284478 0.0 0.0
-1042.3222277167904 -1827.3860886384446 -1357.315707014489 11.824265859898533 0.0 0.0
-1328.3384791810063 -2082.4281664635355 -1591.0401897452 -10.791686477457258 0.0 0.0
820.0825906718181 392.9755517511634 538.3030348181896 -36.36703196270179 0.0 0.0
365.9809392959138 40.00097001808992 120.55582230391093 -29.269922147686255 0.0 0.0
398.2221726456821 1.6407113952661612 120.04631419866962 -16.468696444981795 0.0 0.0
495.1441224018195 21.240368212884356 164.24745483713735 -15.068160708585328 0.0 0.0
582.4766175015017 28.458548558646868 230.2380280958718 -18.739895240830425 0.0 0.0
654.0802372937386 39.263784287797534 305.3100442013755 -21.018511012174052 0.0 0.0
724.9126036215895 54.86882454034955 372.2781766666376 -21.867630204902916 0.0 0.0
791.6179707422594 74.02125190356477 426.3332975999134 -22.111752698243087 0.0 0.0
858.8636685771376 98.90352230132716 476.3067198455932 -22.275169063059113 0.0 0.0
928.5869122653289 129.9559658089557 527.8737363659077 -22.21000522359015 0.0 0.0
1000.6691759781373 165.63556550137116 582.0638853519957 -21.9574986045425 0.0 0.0
1072.9869256637573 204.89667777057846 637.8609468646026 -21.42374164486833 0.0 0.0
1143.0567890111342 242.28482305532071 691.501080814979 -20.8060815323411 0.0 0.0
1204.586568024846 272.53641871806616 737.2823525390055 -20.21268399597155 0.0 0.0
1252.5774036298812 290.9615591162044 770.3872853972736 -19.443977132210808 0.0 0.0
1283.7248987232201 295.0066928645746 787.9178621392089 -18.220113626848864 0.0 0.0
1298.3165221390675 285.9761272979432 790.6908502404178 -16.3152387490576 0.0 0.0
1296.907170728578 265.60997685295865 779.9299477644536 -13.761203991529316 0.0 0.0
1264.1653489019805 219.976773963669 741.3465469222136 -11.597725288547451 0.0 0.0
1204.6320717755298 157.97500304926143 681.6366559282155 3.822719918389339e-12 0.0 0.0
1264.1653489020289 219.97677396374783 741.3465469222385 11.597725288646838 0.0 0.0
1296.907170727825 265.6099768522323 779.9299477637913 13.76120399150209 0.0 0.0
1298.3165221381155 285.9761272970633 790.6908502397737 16.31523874905242 0.0 0.0
1283.7248987234461 295.0066928648781 787.9178621394054 18.220113626887176 0.0 0.0
1252.5774036294747 290.96155911591944 770.3872853969444 19.443977132238686 0.0 0.0
1204.586568024318 272.53641871765115 737.282352538573 20.212683996045456 0.0 0.0
1143.05678901132 242.28482305566098 691.5010808150857 20.806081532331884 0.0 0.0
1072.9869256636086 204.89667777059833 637.8609468644902 21.42374164487935 0.0 0.0
1000.6691759780116 165.63556550145373 582.0638853518959 21.957498604553003 0.0 0.0
928.5869122649501 129.9559658087846 527.873736365623 22.210005223570445 0.0 0.0
858.8636685764513 98.90352230085983 476.30671984510076 22.275169063038597 0.0 0.0
791.6179707421844 74.02125190373835 426.33329759979813 22.111752698322874 0.0 0.0
724.9126036211773 54.868824540185486 372.27817666627334 21.86763020491474 0.0 0.0
654.0802372931167 39.26378428742615 305.3100442008566 21.018511012155127 0.0 0.0
582.4766175012018 28.458548558661995 230.23802809557145 18.739895240801083 0.0 0.0
495.1441224015336 21.240368212949292 164.24745483700076 15.068160708591494 0.0 0.0
398.22217264544804 1.640711395235562 120.0463141985985 16.468696444942413 0.0 0.0
365.9809392957053 40.00097001786618 120.55582230378619 29.26992214762813 0.0 0.0
820.0825906712874 392.97555175072546 538.3030348175929 36.36703196273365 0.0 0.0
-1328.3384791790547 -2082.428166461523 -1591.0401897431373 10.791686476852446 0.0 0.0
-1089.4158171657814 -1809.3157893010955 -1324.6934808662336 -49.79416680305533 0.0 0.0
622.5229610088676 300.66140658670514 396.99995042725004 -101.63241464874233 0.0 0.0
261.0001353573033 47.58150614937064 92.57442678752528 -30.426124034501214 0.0 0.0
339.9878964278519 -0.673086309925095 101.81396903339544 -36.58103114151921 0.0 0.0
449.35263042864256 13.584441625198766 141.9128421779962 -37.23536277882482 0.0 0.0
550.705456798077 24.761832643091218 203.8136614717423 -37.04074734222533 0.0 0.0
625.7546682110183 37.076888204507995 280.8425418040422 -39.76979167894352 0.0 0.0
698.6206012564539 48.8791032660655 350.04717488267625 -41.253495623180775 0.0 0.0
764.1938655871434 65.71268097395662 405.6912951881556 -41.938629802973665 0.0 0.0
828.5234647811532 87.00267104362923 453.95775582419105 -42.30901129056127 0.0 0.0
894.3183286150934 114.28677345496526 502.2576027105884 -42.15128761869854 0.0 0.0
962.0291156491244 146.9735828364977 552.9554833642533 -41.360829033143204 0.0 0.0
1031.1036100325293 182.0164474460786 605.1045405490931 -40.28617442866945 0.0 0.0
1096.680998713495 216.33441513635353 655.0092511785928 -39.089862588956464 0.0 0.0
1155.10452744453 243.87479958250643 697.8890751302629 -37.89649162365907 0.0 0.0
1201.0890826031846 260.6299553732414 729.1590403868312 -36.409873067880326 0.0 0.0
1232.4874611893504 265.089132746355 747.0314438762354 -34.13334835246692 0.0 0.0
1247.8906821226442 256.8313998452429 750.6334396671376 -30.802499428585886 0.0 0.0
1242.3883038182905 232.20256837843826 735.8309739547435 -26.495253568170487 0.0 0.0
1221.6779075785093 198.5783500042472 709.0320530577305 -21.246708320109118 0.0 0.0
1146.7117696353785 121.42557199514981 634.3804139306668 2.3502089163685014e-11 0.0 0.0
1221.6779075786153 198.57835000438348 709.0320530578477 21.246708320237516 0.0 0.0
1242.3883038174229 232.2025683776044 735.8309739541082 26.49525356819673 0.0 0.0
1247.8906821219691 256.83139984465674 750.6334396666477 30.802499428688602 0.0 0.0
1232.4874611892585 265.0891327463226 747.0314438762094 34.13334835254834 0.0 0.0
1201.0890826026189 260.62995537278135 729.1590403864024 36.40987306782586 0.0 0.0
1155.1045274443463 243.87479958245092 697.8890751301075 37.89649162367265 0.0 0.0
1096.680998713 216.33441513599746 655.009251178175 39.0898625889357 0.0 0.0
1031.1036100318556 182.01644744557018 605.1045405486365 40.28617442870682 0.0 0.0
962.0291156493956 146.97358283697534 552.9554833644328 41.36082903316187 0.0 0.0
894.3183286145747 114.28677345464051 502.2576027101996 42.15128761863336 0.0 0.0
828.5234647805552 87.00267104322792 453.95775582376723 42.30901129053237 0.0 0.0
764.1938655866645 65.71268097372956 405.6912951877921 41.938629802965956 0.0 0.0
698.6206012563371 48.87910326622703 350.04717488248315 41.25349562320526 0.0 0.0
625.7546682106753 37.07688820448367 280.84254180367935 39.76979167892917 0.0 0.0
550.7054567977286 24.76183264304069 203.81366147143527 37.040747342168444 0.0 0.0
449.35263042811374 13.584441624936588 141.912842177748 37.235362778739756 0.0 0.0
339.98789642768867 -0.6730863100387225 101.81396903331267 36.58103114141419 0.0 0.0
261.0001353572928 47.581506149244895 92.57442678748447 30.42612403440259 0.0 0.0
622.5229610083576 300.66140658640467 396.9999504267259 101.63241464865516 0.0 0.0
-1089.4158171638892 -1809.3157892991278 -1324.6934808642013 49.79416680270097 0.0 0.0
-879.7630538324114 -1568.7880139598205 -1090.5905063134346 -63.50769405340199 0.0 0.0
467.6434636186116 206.51011519562118 282.5138622558078 -143.67345206778202 0.0 0.0
192.34113603088014 46.05149975465265 71.51779073565982 -52.708432313422136 0.0 0.0
284.24133701462836 3.998478609948526 86.47403608172739 -56.10698823340323 0.0 0.0
394.71566782967733 6.196520254347863 120.11026308238613 -60.92167972697414 0.0 0.0
504.5093276691567 20.069802525692925 175.19058577160743 -57.285785961991984 0.0 0.0
596.0233960263918 32.15222582133531 251.4805868635283 -60.00366832012463 0.0 0.0
667.2151509849904 43.15952616769316 323.4530538050884 -60.98898084584782 0.0 0.0
732.7506660624229 57.47789437863831 381.68167649002316 -61.607644059326624 0.0 0.0
794.5401661276937 75.57231382238639 429.34782329362014 -61.855351812625656 0.0 0.0
856.1406447927732 98.95382705201482 474.53118879494855 -61.341383291491695 0.0 0.0
919.8958443765464 127.32698926652895 521.4225219091481 -60.09635207664695 0.0 0.0
984.5392112003296 159.5964744563448 570.1178246658197 -58.42080322897608 0.0 0.0
1046.5673286607512 189.3067015142645 615.998398025273 -56.83025382025126 0.0 0.0
1101.3501710961405 214.04897686666925 655.6751559282858 -55.14089830207173 0.0 0.0
1146.2444248942054 230.4379446126531 686.2359627905919 -52.967702876225566 0.0 0.0
1178.2519300383262 235.31420861267137 704.6383235787785 -49.8684762515456 0.0 0.0
1193.923633239797 227.0370447117487 708.4073500527338 -45.50494349560209 0.0 0.0
1191.198558192692 204.774022925103 696.1688743916412 -39.459977154150764 0.0 0.0
1176.8418529383798 176.81130163422267 675.2598660447032 -30.152445007389662 0.0 0.0
1070.2066257779882 67.9643520332662 569.7238435179207 7.067768592605717e-11 0.0 0.0
1176.8418529384453 176.81130163432886 675.2598660447162 30.152445007512938 0.0 0.0
1191.198558191722 204.77402292418998 696.1688743909622 39.45997715430981 0.0 0.0
1193.9236332393043 227.03704471131533 708.4073500524008 45.504943495697304 0.0 0.0
1178.2519300377107 235.31420861210606 704.6383235783182 49.86847625154167 0.0 0.0
1146.2444248937657 230.43794461233327 686.2359627902724 52.96770287621369 0.0 0.0
1101.3501710959094 214.04897686653936 655.6751559281054 55.14089830204743 0.0 0.0
1046.5673286603514 189.3067015140207 615.9983980249202 56.830253820266854 0.0 0.0
984.5392111995742 159.59647445576542 570.1178246652919 58.420803229048175 0.0 0.0
919.8958443766332 127.32698926678415 521.4225219091793 60.09635207658905 0.0 0.0
856.1406447924235 98.9538270518822 474.53118879467513 61.341383291504165 0.0 0.0
794.5401661272414 75.5723138221567 429.3478232932835 61.85535181259035 0.0 0.0
732.7506660623586 57.477894378868335 381.68167648992244 61.60764405938404 0.0 0.0
667.2151509846174 43.15952616757478 323.4530538047383 60.98898084589294 0.0 0.0
596.0233960261011 32.15222582133833 251.48058686319584 60.00366831999266 0.0 0.0
504.5093276686534 20.069802525563766 175.1905857712935 57.28578596197552 0.0 0.0
394.71566782927846 6.1965202542680125 120.11026308225503 60.92167972695147 0.0 0.0
284.2413370146513 3.99847861000336 86.47403608174817 56.106988233325886 0.0 0.0
192.3411360308002 46.05149975444409 71.51779073557327 52.70843231324248 0.0 0.0
467.6434636181384 206.5101151954563 282.51386225537834 143.67345206762735 0.0 0.0
-879.763053830844 -1568.7880139581418 -1090.5905063116602 63.507694053177836 0.0 0.0
-698.9555420228114 -1358.4122629002525 -885.5767173566921 -64.23702117285649 0.0 0.0
354.0162976741284 125.38095277253716 195.19240533604426 -172.84861277203063 0.0 0.0
142.10963163759754 39.21962248839378 54.39877623779739 -81.39517219473001 0.0 0.0
232.7519370125208 10.605465110167536 73.00797599299837 -77.09567301988949 0.0 0.0
333.07163306233093 4.291123776313268 100.90402990671615 -83.64118459154791 0.0 0.0
452.1101242278258 8.600522938237365 144.61895616916667 -83.54161365505229 0.0 0.0
553.3656402697126 25.532356451880872 216.35375203247625 -80.42450509761173 0.0 0.0
629.9619690677536 38.90215456156888 292.6002668232255 -80.92254789685445 0.0 0.0
696.1577179834214 49.674616171101334 353.29774981613286 -81.14048949177825 0.0 0.0
755.8378388596777 64.44693093491544 401.3980306231082 -80.88634829867739 0.0 0.0
814.0102131352477 83.64417731291604 444.23790741831266 -79.86301238619774 0.0 0.0
873.3069839445516 107.75949361167173 487.3824223972681 -78.07009065397128 0.0 0.0
933.7873362698382 135.26482845829472 531.8523280920931 -76.00611413558785 0.0 0.0
991.5364254717107 162.75369340547306 574.5996087994229 -73.96224355253985 0.0 0.0
1043.467034555433 184.388842799599 611.3412080938182 -71.87321296631451 0.0 0.0
1086.5207152817852 198.51786272997828 639.870422509899 -69.22079568959352 0.0 0.0
1119.2755810945969 204.65815244072837 659.3067263395063 -65.47155611612264 0.0 0.0
1137.9566439356108 199.05609107222793 665.907550920216 -60.334258210932624 0.0 0.0
1139.3905072919813 180.11194988476382 657.388187553095 -52.55125490641153 0.0 0.0
1127.6294428819845 153.27283995865153 638.3114851891328 -39.408795931773945 0.0 0.0
981.2780730686776 4.608435626500196 494.14370956316975 3.746336574295128e-11 0.0 0.0
1127.629442883003 153.272839959728 638.3114851899438 39.408795931840224 0.0 0.0
1139.390507290771 180.1119498836144 657.3881875521979 52.5512549065606 0.0 0.0
1137.956643935612 199.0560910723152 665.9075509203058 60.33425821106465 0.0 0.0
1119.2755810937133 204.65815243987657 659.3067263388815 65.47155611613547 0.0 0.0
1086.5207152816374 198.51786272996256 639.870422509782 69.22079568963304 0.0 0.0
1043.4670345548075 184.38884279908635 611.3412080933188 71.8732129662798 0.0 0.0
991.5364254717214 162.75369340564072 574.5996087993784 73.96224355261968 0.0 0.0
933.7873362696592 135.26482845827957 531.8523280919405 76.00611413556067 0.0 0.0
873.3069839441902 107.75949361148668 487.3824223969856 78.07009065397548 0.0 0.0
814.0102131348599 83.64417731274989 444.23790741802924 79.86301238626203 0.0 0.0
755.8378388596855 64.44693093514461 401.39803062306095 80.88634829860021 0.0 0.0
696.1577179831042 49.67461617100492 353.2977498158361 81.14048949174739 0.0 0.0
629.9619690673726 38.90215456152084 292.6002668228548 80.92254789683213 0.0 0.0
553.3656402692245 25.532356451692323 216.35375203205916 80.42450509758906 0.0 0.0
452.1101242275073 8.600522938297651 144.6189561690167 83.54161365496196 0.0 0.0
333.07163306204006 4.291123776329339 100.90402990664346 83.64118459151729 0.0 0.0
232.75193701244555 10.605465110202656 73.00797599298582 77.0956730198129 0.0 0.0
142.1096316375362 39.219622488270424 54.398776237742 81.39517219455978 0.0 0.0
354.01629767369525 125.38095277240065 195.1924053356937 172.8486127718631 0.0 0.0
-698.9555420214949 -1358.4122628987554 -885.5767173551418 64.23702117271873 0.0 0.0
-540.9048055982474 -1171.8377892135625 -704.9852754920612 -64.47575684278888 0.0 0.0
264.68504130854865 63.204905095966566 129.45435373600833 -188.2289680202924 0.0 0.0
102.91529588729784 28.983652297906286 39.56968445556124 -108.48657674680274 0.0 0.0
184.74716820681846 16.06784619479119 60.24446710935216 -98.59971674530449 0.0 0.0
272.8703893042623 4.201136086995867 83.05018702734986 -105.11595890575387 0.0 0.0
383.3444636554974 3.178891817011986 117.10348784288726 -108.09407075360372 0.0 0.0
491.68087335243695 18.74718940672468 178.02916183054103 -102.89097155405905 0.0 0.0
585.8362647151793 30.725441129447407 253.38291887895036 -102.33854597102895 0.0 0.0
650.8686057874305 42.97525174370483 318.8733195630096 -100.10217031604527 0.0 0.0
711.5684774512732 53.40623082201681 368.71785877044056 -99.49776043098265 0.0 0.0
766.4817642668903 68.43026982109005 410.2174397611821 -97.72938143312852 0.0 0.0
821.4981993482813 88.18740399091014 450.0900617325898 -95.31094513139222 0.0 0.0
877.3842773572845 111.67135871683567 490.7215178045387 -92.78988791582401 0.0 0.0
931.0168198178135 134.44887309343068 529.2562961710095 -90.50400295028554 0.0 0.0
979.7937455477588 153.97365701132878 563.4474843772558 -88.15281770718832 0.0 0.0
1021.1308038076088 167.27219892265254 590.791490672719 -84.98492162942006 0.0 0.0
1054.3860943308125 172.68691124102912 610.1252896611165 -80.84375866655289 0.0 0.0
1077.3853324036745 171.1528781022934 620.855508932876 -75.19502038642996 0.0 0.0
1084.6848047310652 157.32114735713267 617.8211325919004 -66.02053823880364 0.0 0.0
1074.3810639994617 129.65264245071774 599.0997852558713 -49.58472266610747 0.0 0.0
879.7661757977824 -67.26791127137326 408.28301184941466 3.2949643014035246e-11 0.0 0.0
1074.381063999764 129.65264245104203 599.0997852561371 49.584722666204954 0.0 0.0
1084.6848047315784 157.32114735781715 617.8211325923262 66.02053823903728 0.0 0.0
1077.385332402679 171.15287810132958 620.8555089321771 75.19502038658334 0.0 0.0
1054.3860943293048 172.68691123951373 610.125289660095 80.84375866647642 0.0 0.0
1021.130803808057 167.2721989232498 590.7914906730513 84.98492162946997 0.0 0.0
979.7937455474716 153.97365701117644 563.4474843769995 88.1528177071705 0.0 0.0
931.0168198174317 134.44887309318364 529.2562961706672 90.50400295036098 0.0 0.0
877.38427735714 111.67135871685139 490.7215178043773 92.78988791582904 0.0 0.0
821.4981993476113 88.18740399034263 450.09006173211276 95.31094513131085 0.0 0.0
766.4817642658835 68.43026982021763 410.2174397604841 97.72938143304734 0.0 0.0
711.5684774515927 53.40623082261348 368.71785877059693 99.49776043096415 0.0 0.0
650.8686057869699 42.97525174349397 318.8733195626037 100.10217031602518 0.0 0.0
585.8362647149193 30.72544112947729 253.38291887865455 102.3385459709891 0.0 0.0
491.6808733519434 18.747189406507356 178.0291618301634 102.8909715539938 0.0 0.0
383.3444636550147 3.178891816886712 117.10348784269858 108.09407075342477 0.0 0.0
272.8703893040915 4.201136086913797 83.05018702727443 105.11595890566892 0.0 0.0
184.74716820683832 16.06784619497722 60.24446710941398 98.59971674521233 0.0 0.0
102.91529588725527 28.983652297813734 39.569684455520694 108.48657674666947 0.0 0.0
264.6850413081563 63.20490509580438 129.45435373571593 188.22896802010953 0.0 0.0
-540.9048055970903 -1171.8377892121503 -704.9852754906871 64.47575684277034 0.0 0.0
-406.163749542421 -999.9021999520141 -547.2703892816802 -65.78649101902884 0.0 0.0
194.6336475762793 13.517254138161721 79.97118774881328 -196.57321157384007 0.0 0.0
70.50484765919022 18.266642190690696 26.63144695496427 -130.96515831183814 0.0 0.0
139.339746754431 19.44318970479571 47.63488093776801 -118.92464577417908 0.0 0.0
214.70776949018205 6.098938914729529 66.25039350293308 -124.1868572637452 0.0 0.0
307.75574754840557 -1.3411557890572716 91.13966179340436 -132.46625373298542 0.0 0.0
419.73904373877224 7.13499841224673 137.491452255266 -129.9876878866231 0.0 0.0
517.988484972896 24.173142467010674 206.77469208334807 -123.19697259629854 0.0 0.0
599.5942564767928 31.951275921778063 274.4015805892294 -121.7191935189716 0.0 0.0
657.3802535087772 42.96650535924546 328.4942824251362 -117.30047632899964 0.0 0.0
711.9502851086445 53.29769623684876 370.48887945022517 -114.90302122033182 0.0 0.0
763.0594141552833 68.46838728635583 408.0224573402669 -111.89114604107756 0.0 0.0
814.1539639188617 87.41294137088124 444.9583752501413 -108.91032024838695 0.0 0.0
863.2582663733757 106.53277485232123 479.8452609154104 -106.3365460875186 0.0 0.0
908.4620452005747 123.12394068097792 511.00630107543 -103.8153673867587 0.0 0.0
947.8595099120156 133.5814516958761 536.0653146340496 -100.66365548426808 0.0 0.0
981.1191877043627 140.80474670673527 556.3775699687083 -95.80560798972303 0.0 0.0
1009.7496955104434 143.44127078234177 571.9036126527301 -89.84313809564743 0.0 0.0
1024.6994419497642 135.13506871019038 575.4067159951993 -80.14812710610465 0.0 0.0
1016.7583986106278 107.25806276952227 557.9044475671882 -61.30405891861255 0.0 0.0
763.5199284222468 -147.77660616369866 311.1097151584954 6.749267811301252e-11 0.0 0.0
1016.7583986094278 107.25806276837866 557.9044475663603 61.30405891878894 0.0 0.0
1024.6994419510067 135.13506871159882 575.406715996169 80.14812710647476 0.0 0.0
1009.7496955100587 143.44127078204374 571.903612652408 89.8431380957822 0.0 0.0
981.1191877035994 140.80474670612037 556.3775699681182 95.80560798977451 0.0 0.0
947.8595099125647 133.58145169658815 536.0653146345041 100.6636554844286 0.0 0.0
908.4620452001227 123.1239406806703 511.0063010750915 103.81536738683667 0.0 0.0
863.258266372987 106.53277485208532 479.84526091511833 106.33654608758167 0.0 0.0
814.1539639185603 87.41294137068692 444.9583752498931 108.91032024835006 0.0 0.0
763.0594141549522 68.46838728618087 408.0224573400317 111.89114604102667 0.0 0.0
711.9502851082021 53.29769623661519 370.4888794498399 114.90302122029924 0.0 0.0
657.3802535087152 42.96650535944403 328.49428242505064 117.30047632900744 0.0 0.0
599.5942564768229 31.951275922207948 274.4015805891393 121.71919351898559 0.0 0.0
517.9884849721398 24.17314246647614 206.77469208278205 123.19697259623355 0.0 0.0
419.73904373862155 7.1349984126313855 137.49145225521553 129.98768788660888 0.0 0.0
307.7557475479332 -1.3411557892098558 91.13966179324541 132.46625373282993 0.0 0.0
214.7077694900617 6.098938914802535 66.25039350291694 124.18685726364433 0.0 0.0
139.33974675437486 19.44318970491925 47.634880937788225 118.9246457740202 0.0 0.0
70.5048476591503 18.266642190728323 26.631446954963575 130.9651583117173 0.0 0.0
194.63364757589443 13.51725413795618 79.97118774855164 196.57321157362 0.0 0.0
-406.1637495414219 -999.9021999507335 -547.2703892805093 65.7864910190419 0.0 0.0
-287.43322312060553 -853.5478099708092 -410.64478450330563 -77.53731227868741 0.0 0.0
134.14707431084284 -23.551903282370986 41.539805744753295 -195.8869529912089 0.0 0.0
42.29941979278152 9.413532394339914 15.513910330977938 -148.3715114422663 0.0 0.0
95.70118831669878 20.805098874111835 34.95268088947921 -136.66634289183327 0.0 0.0
157.055343504489 8.80302741214821 49.744893467452556 -140.79967825873 0.0 0.0
228.46776408037283 -0.6646489258466998 67.9940553072283 -151.25465707691473 0.0 0.0
328.5586258975925 -0.9352815492622284 99.38072825894976 -156.86524844946518 0.0 0.0
431.210518458538 11.661385001878518 152.95742698800052 -147.17594759532759 0.0 0.0
522.0227179234205 23.712043165370698 218.30950478391395 -140.97914381013226 0.0 0.0
591.8601040408282 28.681284027946077 274.7790661173374 -137.00331436171075 0.0 0.0
645.0883714800831 37.293487794932275 319.6850569261121 -131.3350474207579 0.0 0.0
693.57971746331 48.81795500624469 357.23146937777733 -127.53604720741532 0.0 0.0
740.734847248269 63.15988259808768 391.79206126963965 -124.17474837952564 0.0 0.0
784.7109801686802 77.84077880282751 423.0008676880125 -121.3720823992124 0.0 0.0
826.2221317353974 90.99787479109578 451.13841313268887 -118.88283012306593 0.0 0.0
862.9467486722087 100.52758868166275 474.73222911650834 -115.7212762734707 0.0 0.0
895.9586808681366 105.8006415031767 494.17548861487927 -110.79225561631915 0.0 0.0
929.1124519806875 112.81248525758842 514.001696707701 -104.16128545749558 0.0 0.0
954.9973439710171 114.75685496539678 528.0034776974159 -94.56333833704366 0.0 0.0
953.4258727545301 89.27907385207594 515.1958033370547 -75.31666046008964 0.0 0.0
626.7542263892138 -237.20159068707005 199.81080464426256 6.545164410454163e-11 0.0 0.0
953.4258727544534 89.27907385206927 515.1958033370064 75.31666046028813 0.0 0.0
954.9973439713204 114.756854965895 528.0034776977352 94.56333833727574 0.0 0.0
929.1124519806366 112.81248525771011 514.001696707676 104.16128545785114 0.0 0.0
895.9586808683116 105.80064150346267 494.17548861494305 110.79225561644922 0.0 0.0
862.9467486726428 100.52758868226144 474.7322291168026 115.72127627351887 0.0 0.0
826.2221317347257 90.99787479047717 451.13841313219933 118.88283012305293 0.0 0.0
784.7109801683966 77.84077880270345 423.0008676878251 121.37208239927554 0.0 0.0
740.734847247924 63.15988259787394 391.79206126938914 124.17474837950694 0.0 0.0
693.5797174633848 48.817955006518545 357.2314693778273 127.53604720746401 0.0 0.0
645.0883714801191 37.29348779521576 319.6850569260474 131.33504742074314 0.0 0.0
591.8601040405056 28.681284027849905 274.77906611706373 137.00331436166456 0.0 0.0
522.0227179234969 23.71204316589654 218.30950478389136 140.97914381018248 0.0 0.0
431.21051845808483 11.6613850018222 152.9574269877091 147.17594759532815 0.0 0.0
328.55862589755577 -0.9352815485883754 99.38072825910109 156.86524844946692 0.0 0.0
228.46776408018258 -0.6646489256507992 67.99405530724744 151.25465707667868 0.0 0.0
157.05534350452555 8.803027412312368 49.744893467510366 140.79967825862872 0.0 0.0
95.70118831660335 20.805098873975655 34.95268088940952 136.66634289161632 0.0 0.0
42.29941979274508 9.413532394433679 15.513910330995099 148.37151144208536 0.0 0.0
134.14707431043007 -23.551903282647988 41.53980574449633 195.88695299095983 0.0 0.0
-287.4332231198722 -853.5478099697282 -410.6447845024019 77.53731227873004 0.0 0.0
-203.19945022585347 -710.4715699718975 -306.14133637516693 -87.92836196344454 0.0 0.0
81.925226372478 -52.74742549371413 12.563515706932774 -189.05040903344042 0.0 0.0
15.774358428781436 3.340288580595652 5.735893374235526 -160.99492645019095 0.0 0.0
53.596378635860816 20.700386224553394 22.288660005822756 -150.97111105376018 0.0 0.0
99.17914886335782 11.478800097504026 33.18873506266069 -154.04667384755837 0.0 0.0
150.597674181948 1.837748172204587 45.65294747419445 -165.33944640609536 0.0 0.0
221.536948154603 -2.7562156536663105 65.08007517886813 -179.20252715171202 0.0 0.0
317.67069473714787 -3.170793333866419 97.28801835850925 -178.96884770750395 0.0 0.0
413.3241553997218 6.770596914625018 146.8021090601568 -164.1868245147261 0.0 0.0
492.5420838432364 14.106424472709014 200.2454978317881 -154.1388384968723 0.0 0.0
552.7064191471014 20.350795970458666 247.52788870296845 -146.19352383351824 0.0 0.0
602.0163135062058 27.308033004557892 286.09075311440944 -141.64509467102553 0.0 0.0
646.3364005705912 38.22240089143318 320.8699712655556 -138.0425253297893 0.0 0.0
685.8156227948559 48.634610111105076 350.274691783886 -135.25076718588684 0.0 0.0
722.7426642395551 58.357443486884456 376.1615384764071 -132.9893798801865 0.0 0.0
756.9345132118146 65.79002836180327 398.46900839164635 -130.2808507762692 0.0 0.0
790.0416088626098 71.63230588499871 419.0088526513232 -125.65068392969548 0.0 0.0
823.8431590468788 78.15686186440315 439.41362043066067 -118.30750092848774 0.0 0.0
861.8606832958301 88.90161030711042 463.62929444438424 -108.7842940856108 0.0 0.0
879.780335384889 77.94692864917872 468.3704181791138 -92.7378449535692 0.0 0.0
461.15470197596784 -332.5541536600079 72.16387764301531 7.674216817576962e-11 0.0 0.0
879.7803353859878 77.94692865049855 468.3704181799363 92.73784495386556 0.0 0.0
861.8606832961219 88.90161030765577 463.6292944445796 108.78429408590759 0.0 0.0
823.8431590454793 78.15686186286975 439.41362042969666 118.30750092865908 0.0 0.0
790.0416088621384 71.6323058845585 419.0088526509493 125.65068392967271 0.0 0.0
756.9345132118727 65.7900283620453 398.46900839168563 130.2808507764151 0.0 0.0
722.74266423917 58.357443486510775 376.16153847614623 132.98937988009578 0.0 0.0
685.8156227945531 48.63461011094303 350.2746917836323 135.25076718589878 0.0 0.0
646.3364005709268 38.22240089210953 320.8699712657407 138.04252532994184 0.0 0.0
602.0163135057749 27.308033004228157 286.09075311407037 141.6450946710179 0.0 0.0
552.7064191471984 20.350795970810207 247.52788870296266 146.19352383350537 0.0 0.0
492.54208384301546 14.106424472732652 200.2454978315781 154.1388384967721 0.0 0.0
413.32415539933646 6.770596914483823 146.80210905990228 164.18682451476604 0.0 0.0
317.67069473695653 -3.1707933334706224 97.28801835852603 178.96884770757416 0.0 0.0
221.5369481543498 -2.756215653378394 65.08007517889807 179.20252715155627 0.0 0.0
150.59767418196523 1.8377481726306202 45.65294747433743 165.33944640582317 0.0 0.0
99.17914886341823 11.47880009783038 33.188735062774754 154.0466738474202 0.0 0.0
53.59637863570051 20.700386224294494 22.288660005696983 150.9711110535479 0.0 0.0
15.774358428747158 3.34028858055864 5.735893374213845 160.99492645001843 0.0 0.0
81.92522637220978 -52.747425493814205 12.563515706795469 189.0504090331801 0.0 0.0
-203.19945022530445 -710.4715699709659 -306.1413363745163 87.92836196352478 0.0 0.0
-139.84249295936462 -590.1353312583195 -226.87862658454492 -104.40655356685258 0.0 0.0
35.7968562749662 -71.5026914426849 -9.60974010207508 -176.41406843111193 0.0 0.0
-9.191723425113096 0.047370910713686376 -2.7429790563809524 -168.94485233972722 0.0 0.0
12.742380878209454 19.6393183293323 9.714812035076246 -161.3396628039332 0.0 0.0
41.6826204825019 13.764410615255054 16.636923480267736 -163.42570781197318 0.0 0.0
72.55661372995246 4.910987109609429 23.15933243654254 -175.75208924627333 0.0 0.0
109.82769075384473 -0.33210057264042625 32.72422393368099 -190.78522045412035 0.0 0.0
163.68763198222985 -2.5285925148938944 48.36793505758013 -197.20235965802112 0.0 0.0
241.0585453704799 -6.944264362415207 71.14862406110255 -193.3352545570204 0.0 0.0
323.5270459124573 -14.894119844645608 98.08375213149303 -181.26155118656297 0.0 0.0
395.7820624692522 -17.79024956127541 128.21358552833937 -169.61347657208395 0.0 0.0
446.12530736646653 -12.244572126289228 159.12945927438918 -158.08474990960136 0.0 0.0
486.48800631383267 -0.620580158927222 189.38939676895504 -152.0761023502439 0.0 0.0
523.0807945826498 13.541015144665565 218.54167831265212 -148.73557860248945 0.0 0.0
556.6028915241377 23.25327211741211 245.88049332491303 -147.58608970221428 0.0 0.0
588.3095254599526 30.69909619439639 271.57537971001784 -148.11796863965554 0.0 0.0
622.0407819139267 36.43378560788815 297.65212817479846 -145.85578905248562 0.0 0.0
659.0608411950182 40.47143354195767 323.3396554534707 -138.1163721002356 0.0 0.0
700.0852414317822 44.483421166495134 348.5191707317785 -126.13265314952645 0.0 0.0
760.4449284309958 65.5538143896585 391.80848794994273 -115.22229058406566 0.0 0.0
233.9567137537337 -433.35341786010736 -85.78818119559942 1.0079048706757021e-10 0.0 0.0
760.4449284310276 65.55381438969656 391.80848795008546 115.22229058430676 0.0 0.0
700.0852414326991 44.48342116788385 348.5191707324065 126.13265314995097 0.0 0.0
659.0608411935026 40.47143354006749 323.3396554524254 138.11637210037284 0.0 0.0
622.0407819134989 36.43378560740351 297.6521281744092 145.85578905246894 0.0 0.0
588.3095254590328 30.699096193245353 271.57537970939813 148.11796863967464 0.0 0.0
556.6028915240033 23.25327211742158 245.88049332491417 147.5860897021909 0.0 0.0
523.0807945828711 13.541015145104517 218.5416783127648 148.7355786025335 0.0 0.0
486.4880063144691 -0.620580157956951 189.38939676940163 152.07610235046675 0.0 0.0
446.1253073661077 -12.24457212644691 159.12945927416283 158.08474990962284 0.0 0.0
395.78206246892336 -17.790249561651446 128.21358552810688 169.61347657214068 0.0 0.0
323.5270459122439 -14.894119844429968 98.08375213147012 181.2615511864777 0.0 0.0
241.05854536966248 -6.944264363565613 71.14862406050445 193.33525455701408 0.0 0.0
163.68763198225727 -2.5285925143253776 48.36793505775747 197.20235965799867 0.0 0.0
109.82769075382659 -0.33210057238776836 32.724223933751965 190.78522045394146 0.0 0.0
72.55661372997844 4.910987109734168 23.15933243658749 175.75208924604866 0.0 0.0
41.68262048251271 13.764410615255722 16.636923480271655 163.42570781176346 0.0 0.0
12.74238087821577 19.63931832931015 9.714812035071407 161.3396628037515 0.0 0.0
-9.191723425103838 0.04737091081467337 -2.7429790563481466 168.94485233955896 0.0 0.0
35.796856274695465 -71.50269144280396 -9.609740102206551 176.41406843083888 0.0 0.0
-139.84249295908083 -590.135331257624 -226.8786265841679 104.40655356687621 0.0 0.0
-109.37988374569639 -473.9037489986166 -175.67934792049152 -108.45434016206391 0.0 0.0
0.9701436795448082 -83.26403099519473 -24.59357281991423 -163.51176824547565 0.0 0.0
-32.17923906029321 -2.022420875954605 -10.257160998449784 -172.92244233754468 0.0 0.0
-26.656332211323914 18.31980236510204 -2.50024921643917 -167.5680419244274 0.0 0.0
-14.943882728859286 15.560409745498395 0.1852409828379611 -168.76885341492593 0.0 0.0
-6.283932006724315 8.176189228189477 0.5688318773309038 -179.66751149100986 0.0 0.0
-2.336206037113083 1.9450408920625701 -0.12209111777236359 -195.4308300291236 0.0 0.0
-0.4933690076242989 0.24177095171350826 -0.0744611188425015 -201.82991616797906 0.0 0.0
-0.026186489608690522 -0.13208898718558615 -0.04817310432291677 -197.88920075612643 0.0 0.0
0.1151148474652075 0.02102019634649288 0.05184570612768624 -185.89221552240642 0.0 0.0
0.22118353094793974 -0.46168562234012356 -0.2020488397108373 -181.1695737921879 0.0 0.0
-0.6806213874013167 0.5264166714013641 0.04460150719366851 -178.64731487449066 0.0 0.0
-2.3670881202909584 1.2668427615910538 -0.13385318961540804 -176.86739868308132 0.0 0.0
-1.8716674464539267 0.7491111994940027 0.2093767090292573 -171.87900181256117 0.0 0.0
1.453183915059995 2.1495587473016613 0.9188929489304769 -164.90192356608694 0.0 0.0
15.108761177591816 6.166536315421254 3.0454011341869887 -158.16588103435845 0.0 0.0
50.280787226458386 14.626010394557653 8.458824765154972 -152.44973472059442 0.0 0.0
131.85308305063683 16.8158737389856 13.411109386529205 -145.93009632398042 0.0 0.0
316.18264905704854 -44.87987640531752 32.87142460261056 -141.15493061918846 0.0 0.0
478.693373084919 -22.090601599419507 163.45769613309682 -160.58314577670822 0.0 0.0
-317.82864171466474 -615.9826724047955 -395.6763746139817 -2.780353725029272e-11 0.0 0.0
478.69337308435524 -22.090601600156063 163.45769613268152 160.5831457767548 0.0 0.0
316.18264905753347 -44.879876404616795 32.871424603017076 141.15493061991845 0.0 0.0
131.85308305064132 16.8158737392952 13.411109386818154 145.9300963243239 0.0 0.0
50.28078722668177 14.626010394641817 8.458824765286053 152.44973472084533 0.0 0.0
15.108761177395621 6.166536315001331 3.045401133940203 158.16588103427642 0.0 0.0
1.4531839152988795 2.1495587474988582 0.9188929490885656 164.9019235661694 0.0 0.0
-1.8716674462390017 0.7491111994679507 0.2093767091028127 171.87900181271553 0.0 0.0
-2.3670881199339746 1.2668427611037991 -0.13385318966231097 176.8673986832649 0.0 0.0
-0.6806213870539537 0.5264166710748803 0.04460150718490752 178.64731487439113 0.0 0.0
0.22118353096198717 -0.4616856231288491 -0.2020488399576834 181.16957379210726 0.0 0.0
0.11511484791361681 0.021020196910156663 0.05184570643356956 185.89221552229338 0.0 0.0
-0.026186489870280383 -0.13208898812870862 -0.048173104684773094 197.88920075612765 0.0 0.0
-0.49336900732998856 0.2417709521877236 -0.07446111860741045 201.82991616791003 0.0 0.0
-2.3362060371967868 1.9450408917856121 -0.12209111788105709 195.43083002891586 0.0 0.0
-6.2839320066129005 8.176189228286596 0.5688318773935621 179.66751149068358 0.0 0.0
-14.9438827289705 15.560409745139328 0.18524098269745326 168.76885341477558 0.0 0.0
-26.65633221126256 18.319802365182802 -2.500249216397024 167.5680419242831 0.0 0.0
-32.17923906030484 -2.022420876000098 -10.257160998467135 172.92244233733385 0.0 0.0
0.9701436794562182 -83.26403099529273 -24.59357281996934 163.5117682453362 0.0 0.0
-109.37988374553888 -473.90374899794335 -175.6793479202585 108.45434016193356 0.0 0.0
-90.54592314966865 -372.11322042432255 -138.78919017718425 -103.39535724753401 0.0 0.0
-21.085198678223087 -88.44007372873315 -32.85823551190161 -153.34960443894357 0.0 0.0
-53.54268711240018 -3.966591217891951 -17.253873232655625 -172.96219037705754 0.0 0.0
-64.30328440632942 17.051589843296462 -14.17319595566796 -169.5547295497471 0.0 0.0
-70.50135073171913 16.68910441996995 -16.139325002584954 -169.601156082366 0.0 0.0
-84.11918057994484 11.18964676113171 -21.846570931090486 -177.95000416276332 0.0 0.0
-114.5485800708276 4.414984787165409 -32.8455918609719 -192.59368656862378 0.0 0.0
-164.72537905395873 2.8980430556024848 -48.5814085443233 -197.41610105294905 0.0 0.0
-240.9846491387852 6.652646752297562 -71.22932612039412 -193.3201727626838 0.0 0.0
-323.2960673314372 14.8696301764752 -98.01156628919335 -181.21255423188137 0.0 0.0
-396.7500402659064 18.28608246413816 -127.93005723319976 -169.80199497549734 0.0 0.0
-446.03249018258407 12.098408767707102 -159.40509579106316 -157.92527616573986 0.0 0.0
-487.2376996470237 0.4598433834768372 -190.17140292325723 -151.50158812003724 0.0 0.0
-524.1655218068511 -12.236090174633844 -219.13260017514813 -148.17615684937036 0.0 0.0
-554.2617830250846 -18.005621062983522 -242.13402315089735 -147.286740942249 0.0 0.0
-574.0009670694408 -17.47865286207896 -254.2327308979136 -149.79179301562516 0.0 0.0
-581.2458293648019 -11.814410478828691 -252.85089443583922 -155.38937787761665 0.0 0.0
-577.7417022798503 -3.1431180186847314 -234.3082077524651 -166.40533825547735 0.0 0.0
-562.718941136784 35.57560810317649 -191.0594151275541 -175.587807387677 0.0 0.0
-333.8215061807664 69.69604655927412 -71.79444949772315 -120.44577998430744 0.0 0.0
-838.3598670093418 -830.898910164203 -823.8727160429141 -1.2536816029751208e-10 0.0 0.0
-333.82150618027504 69.69604655971342 -71.79444949739346 120.44577998475833 0.0 0.0
-562.718941136542 35.57560810330453 -191.05941512735887 175.5878073879759 0.0 0.0
-577.7417022797134 -3.1431180185047225 -234.30820775247162 166.40533825570614 0.0 0.0
-581.2458293641583 -11.81441047816466 -252.85089443545223 155.38937787765556 0.0 0.0
-574.0009670688328 -17.47865286133309 -254.23273089743572 149.7917930155586 0.0 0.0
-554.2617830247714 -18.005621062820275 -242.13402315069226 147.28674094225195 0.0 0.0
-524.1655218067621 -12.236090174768194 -219.13260017504615 148.1761568494313 0.0 0.0
-487.23769964690695 0.45984338331668084 -190.17140292314372 151.50158812009485 0.0 0.0
-446.03249018188535 12.098408768238542 -159.40509579049996 157.92527616573634 0.0 0.0
-396.7500402653468 18.286082464209187 -127.9300572329206 169.80199497551467 0.0 0.0
-323.296067330633 14.869630176840626 -98.01156628881489 181.2125542318084 0.0 0.0
-240.9846491385057 6.65264675160808 -71.2293261205012 193.32017276273692 0.0 0.0
-164.7253790531387 2.898043056475644 -48.581408543810525 197.41610105290354 0.0 0.0
-114.54858007089729 4.414984786377507 -32.845591861229686 192.59368656845476 0.0 0.0
-84.11918057957622 11.189646761628047 -21.846570930833572 177.95000416249454 0.0 0.0
-70.50135073185574 16.68910441947934 -16.13932500277597 169.60115608216265 0.0 0.0
-64.30328440610383 17.05158984368114 -14.173195955483555 169.55472954967138 0.0 0.0
-53.54268711237126 -3.9665912179481637 -17.25387323266408 172.96219037692356 0.0 0.0
-21.085198678235496 -88.44007372874974 -32.8582355119107 153.34960443885433 0.0 0.0
-90.54592314953115 -372.11322042380795 -138.78919017699357 103.39535724736007 0.0 0.0
-73.56929873460224 -285.06735412869705 -107.59099585898977 -93.84410149238384 0.0 0.0
-36.589644513682 -87.31438685562478 -37.17148260061256 -142.61047995553395 0.0 0.0
-73.25692135025473 -5.484061568844068 -23.621294335644503 -169.11708676641484 0.0 0.0
-100.1858393615767 15.605621904293765 -25.378584451346804 -167.20191164831556 0.0 0.0
-124.54209958995757 17.127809866265956 -32.22125225113376 -165.66509036445672 0.0 0.0
-161.61869807332525 14.111151388726862 -43.9668303487939 -172.817770083285 0.0 0.0
-224.13743324827033 6.0751022927545595 -65.14415178602701 -178.6466845740073 0.0 0.0
-317.8598971006662 3.1366251780631735 -97.49200685371049 -179.12099894074572 0.0 0.0
-413.34777205408926 -7.042436953192595 -146.88263953741227 -164.2010350516361 0.0 0.0
-492.5271006521671 -14.207079304083617 -200.2425694153127 -154.0747478526038 0.0 0.0
-552.5969028511342 -20.253548145239108 -247.44873861134084 -146.11882131660423 0.0 0.0
-602.0969420006174 -27.221216361915268 -286.1558720372441 -141.47706940093224 0.0 0.0
-646.7373249302385 -37.91187418957967 -321.08135118336224 -137.38288604585674 0.0 0.0
-686.2769955965929 -47.64679296898021 -350.2109323288084 -134.18085531038955 0.0 0.0
-720.0736546845451 -54.13874200650068 -373.03778703577547 -132.39089345749758 0.0 0.0
-743.3963299836461 -53.558109208059065 -385.9035251074787 -132.93280599982168 0.0 0.0
-753.7999665808849 -46.070963820617095 -387.79892074661143 -137.0359156226911 0.0 0.0
-749.7369424007675 -34.28178410339295 -379.8802481972798 -144.9891899959322 0.0 0.0
-716.5434434648787 -2.7825675271543986 -349.307546788345 -154.5176914921292 0.0 0.0
-665.6772946327219 34.62139591168474 -308.34935427127044 -158.06971281778735 0.0 0.0
-1547.5823845651516 -1100.0957735859613 -1275.8644982751257 8.629541525806417e-12 0.0 0.0
-665.6772946324589 34.621395911750355 -308.349354271205 158.06971281811997 0.0 0.0
-716.5434434648869 -2.782567527391137 -349.307546788379 154.51769149256444 0.0 0.0
-749.7369424006345 -34.28178410351417 -379.88024819714263 144.9891899960867 0.0 0.0
-753.7999665807124 -46.0709638205706 -387.79892074656743 137.03591562285044 0.0 0.0
-743.3963299832103 -53.558109207753304 -385.90352510721874 132.9328059998465 0.0 0.0
-720.0736546845208 -54.138742006702984 -373.037787035708 132.3908934576061 0.0 0.0
-686.2769955968953 -47.64679296955374 -350.2109323290179 134.1808553105381 0.0 0.0
-646.737324929927 -37.911874189444084 -321.08135118315755 137.38288604586208 0.0 0.0
-602.0969420000145 -27.22121636144221 -286.1558720367856 141.4770694009211 0.0 0.0
-552.5969028509048 -20.25354814524864 -247.44873861112592 146.11882131651728 0.0 0.0
-492.527100651628 -14.20707930387658 -200.24256941487928 154.0747478524975 0.0 0.0
-413.34777205342505 -7.042436953025541 -146.88263953700272 164.20103505169743 0.0 0.0
-317.85989709971614 3.1366251789743074 -97.49200685311891 179.1209989407444 0.0 0.0
-224.13743324790298 6.075102292333799 -65.14415178606163 178.64668457382217 0.0 0.0
-161.61869807296412 14.111151388879652 -43.96683034864288 172.81777008307813 0.0 0.0
-124.5420995898858 17.127809866020513 -32.22125225118573 165.6650903643549 0.0 0.0
-100.18583936136866 15.60562190445985 -25.37858445123906 167.2019116481418 0.0 0.0
-73.25692135009479 -5.484061568637122 -23.62129433553391 169.11708676635124 0.0 0.0
-36.589644513707825 -87.3143868557239 -37.17148260064971 142.61047995542583 0.0 0.0
-73.56929873447835 -285.0673541282922 -107.59099585883116 93.84410149224911 0.0 0.0
-59.30796764703442 -210.9585384673369 -81.07995183431139 -82.39776462520399 0.0 0.0
-48.36932402956957 -81.44984890298517 -38.94570058684197 -130.2165499453629 0.0 0.0
-91.60560151361209 -6.429971289145852 -29.411867755922835 -161.22095892976162 0.0 0.0
-134.40913032712768 14.019728450943886 -36.11062241765434 -160.79580609388674 0.0 0.0
-177.1043639689911 17.05362041926066 -47.93318335479561 -157.71596231831435 0.0 0.0
-234.74046351665754 13.926563364430011 -66.17206461730936 -157.33150018505364 0.0 0.0
-330.12053929783946 5.028346166517475 -98.82131750649634 -159.9935797053434 0.0 0.0
-431.4962527639828 -11.846892341427226 -153.11117612080918 -147.7029727866567 0.0 0.0
-522.0859113149539 -23.99890752152213 -218.3935341440652 -140.95143247134465 0.0 0.0
-591.9037431070706 -28.768033642837665 -274.8315587871868 -136.95874075187618 0.0 0.0
-644.9166263121476 -37.141492794173985 -319.5626712171977 -131.2736906798895 0.0 0.0
-693.5061238938742 -48.62431463129392 -357.1328603645266 -127.34722683129438 0.0 0.0
-740.8960534421534 -62.86162203239171 -391.79704979510933 -123.45158043307366 0.0 0.0
-785.278208674321 -77.37162615607906 -423.1346663007006 -119.99377534088859 0.0 0.0
-824.871797637486 -88.43191995115997 -449.3923447074137 -117.84327661356933 0.0 0.0
-852.9067158307009 -91.1606846136168 -465.3190208089475 -118.3206273214527 0.0 0.0
-865.4741619561312 -82.49505999251788 -467.5315854176172 -122.84873822392288 0.0 0.0
-852.9795932107937 -56.67864581542598 -448.92711920840895 -130.33617029464833 0.0 0.0
-813.1812921730357 -13.178050760431233 -408.76779531919664 -137.3583637838454 0.0 0.0
-717.8205209861463 69.69166682707211 -325.851041742122 -142.84821417481902 0.0 0.0
-1985.5041584163805 -1338.580695716754 -1624.1503805646141 5.894307264497911e-11 0.0 0.0
-717.8205209868325 69.69166682610005 -325.85104174264285 142.84821417526098 0.0 0.0
-813.1812921728373 -13.178050760495509 -408.7677953190081 137.35836378414783 0.0 0.0
-852.9795932093792 -56.67864581399196 -448.9271192073677 130.33617029473712 0.0 0.0
-865.4741619559748 -82.4950599925003 -467.5315854175233 122.84873822399665 0.0 0.0
-852.9067158308173 -91.16068461384833 -465.31902080906684 118.32062732149828 0.0 0.0
-824.871797637352 -88.4319199511726 -449.3923447072678 117.84327661352845 0.0 0.0
-785.2782086746626 -77.37162615670799 -423.13466630092074 119.99377534100284 0.0 0.0
-740.8960534421326 -62.86162203262408 -391.7970497951081 123.45158043313552 0.0 0.0
-693.5061238936779 -48.62431463139493 -357.1328603643445 127.34722683135112 0.0 0.0
-644.9166263119603 -37.141492794294834 -319.56267121706594 131.27369067992313 0.0 0.0
-591.903743106488 -28.768033642483335 -274.83155878670834 136.95874075177406 0.0 0.0
-522.0859113139857 -23.99890752080553 -218.39353414334352 140.95143247130915 0.0 0.0
-431.496252763217 -11.846892340959817 -153.1111761202894 147.70297278665035 0.0 0.0
-330.12053929733355 5.028346166491145 -98.82131750631278 159.99357970530124 0.0 0.0
-234.7404635162682 13.926563364308745 -66.17206461725407 157.33150018481635 0.0 0.0
-177.10436396865006 17.053620419430693 -47.93318335464935 157.71596231816503 0.0 0.0
-134.4091303271036 14.019728450652442 -36.110622417733644 160.7958060936655 0.0 0.0
-91.60560151346621 -6.429971288971214 -29.411867755826265 161.2209589297115 0.0 0.0
-48.36932402957006 -81.44984890299388 -38.94570058684477 130.21654994515958 0.0 0.0
-59.30796764699657 -210.95853846710676 -81.07995183423098 82.39776462512535 0.0 0.0
-48.34516972377669 -148.9931634625599 -59.201499955900985 -70.2979008469228 0.0 0.0
-57.73563242764115 -72.25486192671198 -38.99714830630593 -115.90539832956246 0.0 0.0
-108.91515957397706 -6.650626709015125 -34.67028690035597 -149.43393215439437 0.0 0.0
-167.0193627717535 12.08871612430343 -46.48684294626365 -149.95326103838025 0.0 0.0
-226.9866852015536 15.769347857982014 -63.27553149560713 -144.69440600586017 0.0 0.0
-311.47684992372126 14.04884110240668 -88.48798815306672 -141.5866948485831 0.0 0.0
-416.9233263533045 -5.458205592586859 -137.04043017468138 -130.492491055151 0.0 0.0
-517.990661167084 -24.518223371980135 -206.81582245404462 -123.50629393570794 0.0 0.0
-599.7738410380705 -32.27643573783345 -274.5764744364476 -121.66596849317449 0.0 0.0
-657.4065978268217 -43.002163891611204 -328.5480549911999 -117.26439709575942 0.0 0.0
-711.7758939349103 -53.083372848931006 -370.32878961826884 -114.87257094022486 0.0 0.0
-762.7647770664103 -68.09565278586777 -407.71894852965283 -111.70748168005403 0.0 0.0
-813.9006940352971 -86.88775063169501 -444.61549537864545 -108.2069152022082 0.0 0.0
-863.8281400155277 -106.43986485389243 -480.11616223322676 -104.89202131096876 0.0 0.0
-909.2534535673528 -123.01743375130525 -511.4332091601026 -102.53586976595533 0.0 0.0
-943.1406017175548 -129.0047955159153 -531.6192328774334 -102.79586147389313 0.0 0.0
-954.2054618738102 -118.10176188914257 -532.0476571607095 -106.4819407893184 0.0 0.0
-932.8233467214968 -79.65067809827882 -502.7296459119316 -113.02072712755886 0.0 0.0
-871.128641062493 -11.198110783189506 -439.23143327370235 -119.31786150646866 0.0 0.0
-746.2258114135475 102.84456774512854 -324.54271940071004 -124.74261002120667 0.0 0.0
-2326.7834971734346 -1577.6988227333923 -1921.6872116562556 5.056222107668873e-11 0.0 0.0
-746.2258114135484 102.84456774493242 -324.54271940067133 124.74261002148522 0.0 0.0
-871.128641062146 -11.19811078296786 -439.23143327345144 119.31786150673562 0.0 0.0
-932.8233467211493 -79.65067809808036 -502.72964591175406 113.02072712775929 0.0 0.0
-954.2054618739148 -118.10176188938871 -532.0476571608393 106.48194078952801 0.0 0.0
-943.1406017176325 -129.0047955161725 -531.6192328774431 102.79586147399398 0.0 0.0
-909.253453567405 -123.0174337514859 -511.433209160083 102.53586976598076 0.0 0.0
-863.8281400148832 -106.43986485341514 -480.1161622327808 104.89202131099017 0.0 0.0
-813.9006940350815 -86.88775063170202 -444.6154953785584 108.20691520225645 0.0 0.0
-762.7647770660593 -68.09565278574327 -407.71894852940744 111.7074816801161 0.0 0.0
-711.7758939348531 -53.08337284913562 -370.32878961824946 114.87257094022354 0.0 0.0
-657.4065978267876 -43.00216389185998 -328.548054991115 117.26439709569281 0.0 0.0
-599.7738410374742 -32.27643573753751 -274.57647443592367 121.66596849311918 0.0 0.0
-517.9906611661266 -24.518223371251036 -206.81582245333138 123.50629393565993 0.0 0.0
-416.92332635269315 -5.458205592345056 -137.04043017430843 130.49249105508508 0.0 0.0
-311.47684992323576 14.048841102250636 -88.48798815298238 141.58669484846408 0.0 0.0
-226.9866852013059 15.769347857954722 -63.275531495541266 144.69440600576695 0.0 0.0
-167.01936277158953 12.088716124297932 -46.48684294621759 149.95326103819434 0.0 0.0
-108.91515957379079 -6.650626708842129 -34.67028690024793 149.43393215431917 0.0 0.0
-57.7356324276185 -72.2548619267158 -38.997148306300275 115.90539832940959 0.0 0.0
-48.3451697237016 -148.99316346237936 -59.20149995582429 70.29790084693661 0.0 0.0
-40.57223753937255 -98.68188116311649 -41.77623561074671 -57.88247620377203 0.0 0.0
-65.33293611259344 -61.01508745481741 -37.90440707022326 -99.78742067557131 0.0 0.0
-125.31009986303977 -6.098863309045159 -39.422983321303654 -133.80942009542076 0.0 0.0
-198.07429383012823 10.051966175160947 -56.40706729872508 -135.07732425612295 0.0 0.0
-274.54008943086114 12.787290057994454 -78.52180011489283 -126.81671023177928 0.0 0.0
-381.81490544982597 8.25517243859608 -113.40701486473769 -118.30447653017895 0.0 0.0
-489.9880220119446 -16.452715215484645 -176.91182287921282 -104.84941335679659 0.0 0.0
-586.0670599053103 -31.26240632385754 -253.5545773190326 -102.42873686980577 0.0 0.0
-651.0208800023221 -43.16967997401037 -319.0214597011218 -100.04882140969335 0.0 0.0
-711.5787202236502 -53.401723333153186 -368.75151677251296 -99.483145922213 0.0 0.0
-766.2924261241495 -68.2096262988392 -410.04389789760114 -97.69897237717753 0.0 0.0
-821.0031594906889 -87.64060229830535 -449.6004090302911 -95.12472984546778 0.0 0.0
-876.6001481599728 -110.77112246072909 -489.9187994436718 -92.15761165930437 0.0 0.0
-931.2583765450785 -134.41342749269398 -529.3586572782657 -89.2378365196071 0.0 0.0
-982.691415854437 -156.38757129606344 -566.0937197559202 -86.92900619985313 0.0 0.0
-1021.7229420669992 -167.59269698521913 -591.3995316122293 -86.27806882022615 0.0 0.0
-1032.4059588031464 -152.4684092662434 -589.5654312831198 -88.93015874841774 0.0 0.0
-998.3264499479437 -100.07240887066033 -547.0258249074568 -94.4327824551925 0.0 0.0
-912.1304343775076 -6.461887110912372 -458.5514353459896 -100.44778451363268 0.0 0.0
-763.635805078475 131.615683914948 -318.58852180562144 -108.55613520928608 0.0 0.0
-2626.6360198848593 -1810.7486709262405 -2193.40115176952 8.380851568290382e-12 0.0 0.0
-763.6358050781032 131.61568391525992 -318.58852180542874 108.55613520934722 0.0 0.0
-912.1304343780337 -6.461887111605421 -458.551435346414 100.44778451393634 0.0 0.0
-998.3264499479393 -100.07240887075497 -547.0258249074882 94.43278245536038 0.0 0.0
-1032.4059588034268 -152.46840926667352 -589.5654312833409 88.93015874854483 0.0 0.0
-1021.7229420669514 -167.5926969852579 -591.3995316120918 86.27806882022608 0.0 0.0
-982.6914158544289 -156.38757129620603 -566.0937197558792 86.92900619980821 0.0 0.0
-931.2583765440904 -134.41342749182363 -529.3586572775358 89.23783651959631 0.0 0.0
-876.6001481602565 -110.77112246122644 -489.91879944391985 92.1576116593705 0.0 0.0
-821.0031594905545 -87.64060229837472 -449.60040903016284 95.12472984544836 0.0 0.0
-766.2924261238659 -68.20962629879133 -410.0438978974246 97.69897237714648 0.0 0.0
-711.5787202236137 -53.40172333339146 -368.7515167724172 99.4831459221773 0.0 0.0
-651.0208800014535 -43.16967997333539 -319.02145970042034 100.04882140955553 0.0 0.0
-586.067059904812 -31.262406323679514 -253.55457731857172 102.42873686977515 0.0 0.0
-489.9880220109849 -16.45271521471152 -176.91182287852283 104.8494133566794 0.0 0.0
-381.8149054494616 8.255172438366607 -113.40701486466276 118.30447653019155 0.0 0.0
-274.5400894305549 12.78729005778038 -78.5218001148903 126.81671023154837 0.0 0.0
-198.07429382981326 10.051966175421457 -56.407067298553386 135.07732425599193 0.0 0.0
-125.3100998629 -6.098863308948144 -39.42298332123251 133.80942009533828 0.0 0.0
-65.33293611258428 -61.015087454838884 -37.904407070226966 99.78742067546892 0.0 0.0
-40.57223753931806 -98.68188116299777 -41.776235610694734 57.88247620379384 0.0 0.0
-35.60588004716976 -59.78368147611561 -28.616868456985607 -45.30893428254207 0.0 0.0
-71.30590350993401 -48.78528873893501 -36.0273576746607 -82.02382058855824 0.0 0.0
-140.7689197670658 -4.928808462989755 -43.70931846901666 -114.46071279721006 0.0 0.0
-227.56786210141325 7.8132437355306985 -65.93408856086971 -115.92913581273734 0.0 0.0
-325.26542707217794 9.626253391958508 -94.05295447839185 -106.52501873750462 0.0 0.0
-438.0293258325891 -5.269320767944318 -141.67999713999967 -88.82913421109481 0.0 0.0
-551.9273059755712 -23.709285978274384 -215.04623517774064 -81.85313319206615 0.0 0.0
-630.0990285946384 -39.21418137620693 -292.68963799636555 -80.82381839083189 0.0 0.0
-696.2933939179301 -49.77569694325643 -353.4229390308485 -81.09403062769228 0.0 0.0
-755.848985333469 -64.43388715081052 -401.4244915150805 -80.89488961557231 0.0 0.0
-813.7965869657464 -83.40302164276301 -444.03790472646585 -79.83128164764908 0.0 0.0
-872.649574970502 -107.07445641718004 -486.74294151383333 -77.87565218714319 0.0 0.0
-932.5876159136319 -134.069611945699 -530.6905290903081 -75.47921041099839 0.0 0.0
-991.163341031006 -162.42673561184296 -574.2418919279439 -73.05184639923095 0.0 0.0
-1046.7948830517826 -187.65714486573478 -614.5947822836209 -70.95257896470699 0.0 0.0
-1091.4503122476158 -203.08496614095313 -644.6993750161812 -69.57914378166727 0.0 0.0
-1104.3566143144135 -189.88280452482107 -644.980222308438 -70.32182770174704 0.0 0.0
-1058.7801237303343 -124.06726383796055 -590.0917027255585 -74.69004818408521 0.0 0.0
-947.0558726560675 -3.489174178311771 -475.14394273636725 -81.9807783892578 0.0 0.0
-770.4615619507546 161.91342355766815 -306.2346722378339 -94.50009862523231 0.0 0.0
-2895.674841962145 -2030.8627748304316 -2442.2441651009867 2.1096013824717375e-11 0.0 0.0
-770.4615619509236 161.913423557442 -306.2346722380679 94.50009862532141 0.0 0.0
-947.0558726568229 -3.4891741791389563 -475.1439427369361 81.98077838940928 0.0 0.0
-1058.780123730453 -124.06726383815467 -590.0917027255753 74.69004818411155 0.0 0.0
-1104.3566143139242 -189.8828045244031 -644.9802223080949 70.32182770176134 0.0 0.0
-1091.4503122471365 -203.0849661406032 -644.6993750157754 69.57914378169286 0.0 0.0
-1046.794883051598 -187.65714486568072 -614.5947822834828 70.95257896475178 0.0 0.0
-991.1633410298464 -162.42673561081955 -574.2418919271076 73.0518463992264 0.0 0.0
-932.5876159138033 -134.06961194610122 -530.6905290904831 75.47921041109693 0.0 0.0
-872.6495749702683 -107.07445641713865 -486.74294151361664 77.87565218711876 0.0 0.0
-813.796586965021 -83.40302164222123 -444.0379047259616 79.8312816475613 0.0 0.0
-755.848985333253 -64.43388715083971 -401.4244915148821 80.8948896154728 0.0 0.0
-696.2933939175216 -49.775696943090516 -353.42293903046783 81.09403062769871 0.0 0.0
-630.0990285945478 -39.214181376521225 -292.68963799615864 80.8238183908089 0.0 0.0
-551.9273059750465 -23.709285978095092 -215.04623517728334 81.85313319204758 0.0 0.0
-438.0293258320586 -5.269320767854905 -141.67999713972821 88.82913421099444 0.0 0.0
-325.26542707170205 9.626253392168787 -94.05295447820868 106.5250187373668 0.0 0.0
-227.56786210107262 7.81324373583459 -65.93408856067703 115.92913581264797 0.0 0.0
-140.7689197669256 -4.9288084630539455 -43.709318468993864 114.46071279705872 0.0 0.0
-71.30590350986078 -48.785288738914275 -36.02735767463251 82.02382058850651 0.0 0.0
-35.6058800471195 -59.78368147606169 -28.616868456954357 45.30893428247385 0.0 0.0
-32.78721837696256 -32.165390216628204 -19.485782578077227 -32.86812845236473 0.0 0.0
-75.36889959452809 -36.48325658790298 -33.55564685472932 -62.81972259151433 0.0 0.0
-155.00679900782785 -3.4236968397252343 -47.529148754265925 -91.3171303581935 0.0 0.0
-256.19944434758685 5.1713019584304005 -75.30506397123365 -92.54059132737908 0.0 0.0
-374.15205797424227 3.3764589955193447 -110.95493317312543 -80.77305319255447 0.0 0.0
-496.3514822313036 -13.886737280665036 -170.39747386016947 -64.15099360198181 0.0 0.0
-594.4425568872573 -31.37903983050904 -250.51072581584853 -60.54908975581563 0.0 0.0
-667.18120882123 -43.06410926100392 -323.3695776087197 -60.83015092602453 0.0 0.0
-732.8859404810933 -57.542168011090205 -381.79528069039543 -61.57521999887978 0.0 0.0
-794.5652369267226 -75.56795150449003 -429.38022448310215 -61.879825042842626 0.0 0.0
-855.8791254807878 -98.67334553481295 -474.28379584537663 -61.30534687235201 0.0 0.0
-919.1438620524268 -126.57950311802145 -520.7016281146915 -59.904119554712246 0.0 0.0
-983.1922457752181 -158.34476901160434 -568.8496592945298 -58.025168391670015 0.0 0.0
-1045.5393182371167 -188.51695182926053 -615.0964865878742 -56.30438653751143 0.0 0.0
-1102.8920289759158 -215.85742877861117 -657.3304210127734 -54.63563446586504 0.0 0.0
-1151.1329671317276 -235.2471153401697 -691.1091974692303 -52.741869699424214 0.0 0.0
-1172.3015235995192 -228.97381873282546 -698.8827168900422 -51.46565467012685 0.0 0.0
-1123.806585204869 -158.70903553677016 -640.3991091451254 -54.09332210863697 0.0 0.0
-984.1760377825497 -8.921958345738858 -496.80029514529224 -63.433065684739326 0.0 0.0
-765.1220590733824 199.47132602634485 -284.15972395212543 -81.35028905547235 0.0 0.0
-3133.94891889266 -2228.288312372137 -2663.7276995255675 5.594813501375029e-11 0.0 0.0
-765.1220590726125 199.4713260270471 -284.15972395158065 81.35028905560672 0.0 0.0
-984.1760377829703 -8.92195834622504 -496.80029514554553 63.433065684886635 0.0 0.0
-1123.8065852045545 -158.709035536544 -640.3991091449177 54.09332210867062 0.0 0.0
-1172.3015235988241 -228.9738187322263 -698.8827168895609 51.46565467024246 0.0 0.0
-1151.1329671314559 -235.2471153400109 -691.1091974689768 52.74186969947915 0.0 0.0
-1102.892028975602 -215.8574287784459 -657.3304210125232 54.635634465926415 0.0 0.0
-1045.5393182362386 -188.51695182853283 -615.0964865872052 56.3043865375954 0.0 0.0
-983.1922457748406 -158.34476901140536 -568.8496592942952 58.02516839167262 0.0 0.0
-919.1438620521894 -126.57950311797569 -520.7016281144738 59.90411955465265 0.0 0.0
-855.879125480267 -98.67334553447192 -474.28379584502125 61.30534687223303 0.0 0.0
-794.5652369264735 -75.5679515045076 -429.38022448293276 61.8798250428053 0.0 0.0
-732.8859404812379 -57.54216801152084 -381.79528069039344 61.57521999885901 0.0 0.0
-667.1812088205319 -43.06410926057293 -323.36957760813857 60.83015092592965 0.0 0.0
-594.4425568870063 -31.379039830666553 -250.51072581553245 60.54908975582981 0.0 0.0
-496.3514822309517 -13.886737280755721 -170.39747385994022 64.15099360191832 0.0 0.0
-374.15205797365974 3.3764589957410656 -110.95493317289623 80.77305319251582 0.0 0.0
-256.1994443473601 5.171301958462385 -75.30506397115592 92.54059132731967 0.0 0.0
-155.00679900766028 -3.42369683972691 -47.52914875421615 91.31713035803745 0.0 0.0
-75.36889959438093 -36.483256587815575 -33.555646854658946 62.81972259143519 0.0 0.0
-32.78721837687958 -32.1653902166009 -19.485782578044134 32.86812845229406 0.0 0.0
-30.982514135724053 -15.551873085625557 -13.960316166404883 -21.279095635159536 0.0 0.0
-76.72607392086236 -25.07662971192036 -30.540811089834815 -42.44764022677107 0.0 0.0
-167.59087606256765 -2.1430223088462466 -50.92016951142416 -63.95585095742253 0.0 0.0
-284.64353136298314 2.1113467644834123 -84.74776024946745 -64.5221185006804 0.0 0.0
-418.7533967402939 -6.960033919146923 -130.41131679165375 -51.7756453623592 0.0 0.0
-543.597205806356 -22.071112984169055 -199.83489285739515 -41.000924931633904 0.0 0.0
-624.3011396720472 -36.171422022782025 -279.8791331067214 -39.888496985646775 0.0 0.0
-698.3819949367961 -48.3786421010138 -349.71754243725286 -41.11399731656946 0.0 0.0
-764.3765583434974 -65.81644287937914 -405.8483849445724 -41.92296925119083 0.0 0.0
-828.541858609764 -86.98513782871723 -453.97482085834497 -42.334993021745326 0.0 0.0
-893.9934736994321 -113.95582768157465 -501.9498526501816 -42.11511420941544 0.0 0.0
-961.2579184458054 -146.2457415474685 -552.2297375166387 -41.19884365152029 0.0 0.0
-1029.8346672573364 -180.89995215091966 -603.9404897542335 -40.03251030866451 0.0 0.0
-1095.152021797996 -215.11743119865764 -653.6635912763394 -38.86450889118707 0.0 0.0
-1153.6652818899865 -242.86938944448934 -696.7024566886757 -37.732700810027026 0.0 0.0
-1199.6738420978843 -259.6117865443547 -727.9978881794951 -36.07156674057939 0.0 0.0
-1227.6806086672486 -260.50423563757505 -742.5342529302708 -33.57515548161126 0.0 0.0
-1206.8626533572683 -216.9720933691717 -711.1068269945043 -33.23272695399915 0.0 0.0
-1043.3305182961599 -40.84695648588965 -542.570480035848 -42.995464353193704 0.0 0.0
-738.9665903555666 254.8349949069846 -242.98421431017027 -67.87163025802785 0.0 0.0
-3326.5581747341876 -2384.700158635487 -2841.4303297174642 6.191491763729573e-11 0.0 0.0
-738.9665903548216 254.83499490771365 -242.9842143096243 67.871630258081 0.0 0.0
-1043.3305182966399 -40.84695648642258 -542.5704800362488 42.995464353259024 0.0 0.0
-1206.8626533570007 -216.97209336895907 -711.1068269943149 33.23272695400193 0.0 0.0
-1227.6806086669492 -260.50423563735154 -742.5342529300674 33.57515548162636 0.0 0.0
-1199.6738420980494 -259.6117865446389 -727.9978881795138 36.071566740497275 0.0 0.0
-1153.6652818894654 -242.86938944409775 -696.7024566882681 37.73270081003373 0.0 0.0
-1095.1520217975544 -215.11743119838326 -653.6635912759377 38.864508891264606 0.0 0.0
-1029.8346672575685 -180.89995215131964 -603.9404897543889 40.03251030863063 0.0 0.0
-961.2579184456523 -146.2457415475307 -552.2297375165042 41.19884365146642 0.0 0.0
-893.9934736987295 -113.95582768108672 -501.94985264970876 42.115114209392644 0.0 0.0
-828.5418586096181 -86.98513782884015 -453.97482085820286 42.33499302183271 0.0 0.0
-764.3765583436334 -65.81644287979928 -405.84838494458097 41.922969251165036 0.0 0.0
-698.3819949358252 -48.3786421002671 -349.71754243650395 41.113997316455716 0.0 0.0
-624.3011396715025 -36.17142202253499 -279.879133106218 39.888496985575706 0.0 0.0
-543.5972058060167 -22.071112984222975 -199.8348928571076 41.000924931617845 0.0 0.0
-418.7533967396946 -6.960033919059708 -130.4113167914489 51.7756453623208 0.0 0.0
-284.6435313627714 2.1113467644940975 -84.74776024939713 64.52211850057725 0.0 0.0
-167.59087606235155 -2.1430223087091327 -50.92016951131819 63.95585095742186 0.0 0.0
-76.72607392075456 -25.076629711807428 -30.5408110897686 42.447640226672256 0.0 0.0
-30.98251413574819 -15.551873085661855 -13.960316166423011 21.279095635147197 0.0 0.0
-28.041051579592434 -9.026917277800905 -11.120390657218 -12.148688369604534 0.0 0.0
-73.94853362844032 -16.034112533914424 -26.994793848706415 -21.251452346434284 0.0 0.0
-177.78805825452955 -1.8481410838452543 -53.89085980151244 -31.278927404905637 0.0 0.0
-314.2777044211895 -0.9263477198006957 -94.54471689522477 -31.334915870439016 0.0 0.0
-466.60300162229316 -14.620493889028996 -151.09317299485076 -23.13335298725155 0.0 0.0
-577.1845886698633 -28.915916156565768 -227.85619114806448 -20.161060511321203 0.0 0.0
-652.1010408492032 -37.538276596605066 -303.8425343697084 -21.09377696977432 0.0 0.0
-724.6240339477384 -54.48841449160598 -372.0344741621511 -21.80480907088953 0.0 0.0
-791.8449459618315 -74.08612403430895 -426.47931213251644 -22.10613375029385 0.0 0.0
-858.8631177157569 -98.86280290071845 -476.2991517303186 -22.28865614059734 0.0 0.0
-928.2013611100665 -129.5786183962313 -527.5094703492682 -22.18366508178644 0.0 0.0
-999.9244028386106 -164.96877396632559 -581.3775257870981 -21.85975644624321 0.0 0.0
-1071.8943018075847 -203.98888061544005 -636.8897871774544 -21.306059803122206 0.0 0.0
-1141.11615379744 -240.66073775800663 -689.766131831546 -20.757023707248383 0.0 0.0
-1200.0561799708057 -268.4975356836026 -733.0817565443806 -20.199977724581732 0.0 0.0
-1242.1216990244545 -281.3209400856473 -760.4804816276065 -19.173393555143978 0.0 0.0
-1264.3464439091806 -277.0859436608004 -769.461051938943 -17.125879184993003 0.0 0.0
-1272.1401002892976 -262.4833809125171 -766.2424460051766 -14.71485589568497 0.0 0.0
-1201.066019486391 -176.19456138455894 -688.6562146374183 -19.621721338563827 0.0 0.0
-726.4056576706341 295.55258602991285 -216.17938312979746 -48.465143588635364 0.0 0.0
-3336.6298293634622 -2359.4978458478367 -2837.4738312961053 1.2327916465437738e-12 0.0 0.0
-726.4056576706074 295.5525860299176 -216.17938312974968 48.4651435885874 0.0 0.0
-1201.0660194866566 -176.1945613848764 -688.6562146376559 19.62172133853928 0.0 0.0
-1272.1401002903972 -262.4833809137072 -766.2424460060433 14.71485589577409 0.0 0.0
-1264.346443908588 -277.08594366029797 -769.4610519385017 17.12587918506448 0.0 0.0
-1242.1216990240782 -281.3209400853873 -760.4804816272466 19.17339355515164 0.0 0.0
-1200.0561799702357 -268.4975356831527 -733.0817565438889 20.199977724579604 0.0 0.0
-1141.116153797522 -240.6607377582443 -689.7661318315218 20.75702370724282 0.0 0.0
-1071.8943018076502 -203.98888061569724 -636.8897871774967 21.306059803049077 0.0 0.0
-999.924402838394 -164.96877396632578 -581.3775257869783 21.85975644627352 0.0 0.0
-928.2013611093134 -129.57861839568645 -527.509470348746 22.183665081761756 0.0 0.0
-858.8631177157624 -98.86280290099742 -476.29915173023727 22.288656140635272 0.0 0.0
-791.8449459614932 -74.08612403424014 -426.4793121322348 22.106133750321305 0.0 0.0
-724.6240339476357 -54.48841449177994 -372.0344741619736 21.804809070811235 0.0 0.0
-652.1010408486061 -37.53827659629928 -303.8425343691811 21.093776969731866 0.0 0.0
-577.1845886694783 -28.915916156555483 -227.85619114771342 20.1610605113599 0.0 0.0
-466.6030016215485 -14.620493888473913 -151.09317299441543 23.13335298728613 0.0 0.0
-314.2777044207957 -0.9263477196650531 -94.54471689508294 31.334915870406384 0.0 0.0
-177.78805825434367 -1.8481410838645498 -53.89085980146247 31.278927404894077 0.0 0.0
-73.94853362825246 -16.034112533767434 -26.994793848605966 21.25145234639028 0.0 0.0
-28.041051579509777 -9.02691727779333 -11.12039065719093 12.148688369580057 0.0 0.0
-17.21638269251503 -4.375867525698526 -6.477675065464067 -7.662748175249023 0.0 0.0
-63.29932544217457 -8.91029852916126 -21.66288719140074 -8.821307369341898 0.0 0.0
-184.29197291701456 -2.9480079133760704 -56.17199424911717 -10.683869766551508 0.0 0.0
-351.47641481007463 -11.548170472332856 -108.8128515777423 -9.808210417075543 0.0 0.0
-526.1286986573687 -44.41208091995229 -184.62560644702666 -2.964780271138526 0.0 0.0
-645.6357515287355 -79.44362432760562 -281.99682589145505 -0.02930230678989787 0.0 0.0
-738.1058718904642 -108.99240784705638 -377.0169105792613 0.3234647721755657 0.0 0.0
-836.0518144765438 -153.23781877707728 -469.8241371205045 -0.5064749319455402 0.0 0.0
-936.9235318797349 -207.4956125833797 -557.3615176955152 -1.609223984995861 0.0 0.0
-1049.8620029428942 -277.981733001547 -652.4505783395118 -2.821670113922135 0.0 0.0
-1179.4963173050846 -368.3551875839996 -763.2751792520294 -4.0367290608676285 0.0 0.0
-1325.9476943582824 -479.142904087263 -891.7846307945675 -5.148937001738879 0.0 0.0
-1485.29424044484 -604.249624599647 -1033.5299429467927 -5.89539395012193 0.0 0.0
-1651.113845458267 -737.1805675879571 -1182.3984143409025 -6.599393200941428 0.0 0.0
-1810.8294625360054 -865.454928845083 -1325.9353832838547 -7.115264175089116 0.0 0.0
-1946.4449360831036 -971.6879115512718 -1446.545760205735 -7.221150331762477 0.0 0.0
-2035.6822990609267 -1034.8749158245191 -1522.7451612521572 -6.544291369493624 0.0 0.0
-2055.082010007377 -1032.8666003391954 -1531.7154291789866 -4.525578960587687 0.0 0.0
-2046.0108476008143 -1007.9933270063689 -1514.3246750658932 -6.618317727944225 0.0 0.0
-1992.822949171235 -951.8150827940312 -1456.1880798268323 -36.28293062907333 0.0 0.0
-5076.985425602405 -4071.697362915164 -4546.529025907085 7.986500349943526e-12 0.0 0.0
-1992.8229491705583 -951.8150827933689 -1456.1880798262819 36.28293062904332 0.0 0.0
-2046.0108476000148 -1007.9933270056148 -1514.3246750651729 6.618317727877649 0.0 0.0
-2055.08201000836 -1032.8666003402707 -1531.715429179752 4.525578960625495 0.0 0.0
-2035.6822990590504 -1034.8749158227304 -1522.7451612506457 6.544291369510454 0.0 0.0
-1946.4449360821468 -971.6879115504302 -1446.5457602048637 7.221150331880182 0.0 0.0
-1810.8294625348058 -865.4549288439904 -1325.9353832827533 7.115264175020101 0.0 0.0
-1651.1138454583156 -737.1805675881872 -1182.398414340752 6.599393200942181 0.0 0.0
-1485.2942404438927 -604.2496245988825 -1033.5299429459753 5.8953939500618375 0.0 0.0
-1325.9476943576237 -479.1429040868144 -891.7846307940686 5.1489370017426666 0.0 0.0
-1179.4963173044414 -368.3551875835943 -763.2751792514669 4.036729060870886 0.0 0.0
-1049.862002942627 -277.9817330015435 -652.4505783391722 2.8216701140098195 0.0 0.0
-936.9235318788083 -207.4956125827009 -557.361517694819 1.6092239850644674 0.0 0.0
-836.0518144768861 -153.23781877774582 -469.8241371205617 0.5064749318321304 0.0 0.0
-738.1058718895436 -108.99240784642234 -377.01691057850087 -0.32346477218609593 0.0 0.0
-645.6357515284421 -79.44362432768668 -281.99682589108465 0.029302306831553437 0.0 0.0
-526.1286986564826 -44.4120809191964 -184.62560644645964 2.9647802711702482 0.0 0.0
-351.4764148097635 -11.548170472255766 -108.81285157763119 9.808210417073607 0.0 0.0
-184.29197291695823 -2.9480079136141057 -56.171994249171675 10.683869766490794 0.0 0.0
-63.29932544205063 -8.910298529000665 -21.66288719131538 8.821307369276703 0.0 0.0
-17.216382692604032 -4.375867525778987 -6.477675065514904 7.66274817511997 0.0 0.0
SCALARS Strain float 6
LOOKUP_TABLE default
0.011642058273597482 -0.020096106320352677 0.0 -0.0007605543715541608 0.0 0.0
0.007163506147097047 -0.0016064581135816968 0.0 -0.006173247381182528 0.0 0.0
0.0022567157145852983 -0.0006182789517809651 0.0 -0.0006170141761861818 0.0 0.0
0.0020245360091743795 -0.0008110370275223678 0.0 -3.773589235182658e-05 0.0 0.0
0.0027061567984367047 -0.0010987430679015096 0.0 7.663195835462082e-05 0.0 0.0
0.004139339851328685 -0.002121228269416908 0.0 0.0001649494577804507 0.0 0.0
0.006535209999140531 -0.00407903504392177 0.0 0.00021706268686972206 0.0 0.0
0.01000110404523978 -0.007083908826938863 0.0 0.0002370228610054494 0.0 0.0
0.014647179413191883 -0.01124547520068852 0.0 0.00023402940175322194 0.0 0.0
0.02052989849693949 -0.016569150565363826 0.0 0.00019677474662214452 0.0 0.0
0.027692507773062813 -0.023066554367120864 0.0 0.0001676454055037346 0.0 0.0
0.03620876570143166 -0.030808718765840945 0.0 0.0001419473231885442 0.0 0.0
0.046160734344376536 -0.039907002771724695 0.0 5.483829954690126e-05 0.0 0.0
0.057618458033929815 -0.05046145135003817 0.0 -4.538275575155797e-05 0.0 0.0
0.07055990706248834 -0.06249728514736565 0.0 -0.00021595321565556031 0.0 0.0
0.08470965032281441 -0.07578870992869292 0.0 -0.0004742194688380217 0.0 0.0
0.09942010607052304 -0.0897320940935497 0.0 -0.0007798373613441989 0.0 0.0
0.1136457355868738 -0.10332674183824989 0.0 -0.0010128293749340615 0.0 0.0
0.12605601283741394 -0.115266195488341 0.0 -0.0010052957746578875 0.0 0.0
0.1351286535584368 -0.12408354968512705 0.0 -0.0010000701940697026 0.0 0.0
0.13862817720649304 -0.12761539620700113 0.0 1.7555401576885288e-15 0.0 0.0
0.13512865355842257 -0.12408354968511431 0.0 0.0010000701940760075 0.0 0.0
0.12605601283738194 -0.1152661954883123 0.0 0.0010052957746611744 0.0 0.0
0.1136457355868265 -0.10332674183821539 0.0 0.001012829374938554 0.0 0.0
0.09942010607046887 -0.08973209409349783 0.0 0.0007798373613445361 0.0 0.0
0.08470965032275919 -0.07578870992864245 0.0 0.0004742194688369117 0.0 0.0
0.07055990706243312 -0.06249728514731452 0.0 0.0002159532156566354 0.0 0.0
0.057618458033873624 -0.050461451349980355 0.0 4.5382755751306215e-05 0.0 0.0
0.0461607343443204 -0.03990700277167236 0.0 -5.48382995472147e-05 0.0 0.0
0.036208765701379673 -0.030808718765792914 0.0 -0.0001419473231912623 0.0 0.0
0.02769250777301798 -0.023066554367080074 0.0 -0.0001676454055044767 0.0 0.0
0.020529898496902697 -0.016569150565331935 0.0 -0.00019677474662376535 0.0 0.0
0.014647179413163153 -0.011245475200659544 0.0 -0.00023402940175350857 0.0 0.0
0.010001104045218957 -0.007083908826921868 0.0 -0.00023702286100384752 0.0 0.0
0.006535209999126636 -0.004079035043911284 0.0 -0.00021706268687003466 0.0 0.0
0.0041393398513205944 -0.002121228269411378 0.0 -0.00016494945777889583 0.0 0.0
0.002706156798433435 -0.0010987430678988913 0.0 -7.663195835450358e-05 0.0 0.0
0.0020245360091733513 -0.0008110370275214594 0.0 3.773589235118477e-05 0.0 0.0
0.0022567157145837497 -0.0006182789517818904 0.0 0.0006170141761844823 0.0 0.0
0.007163506147091953 -0.0016064581135789913 0.0 0.006173247381174406 0.0 0.0
0.011642058273589825 -0.02009610632032928 0.0 0.0007605543715141083 0.0 0.0
0.007910640675461456 -0.017914254346240936 0.0 -0.00030108058242950893 0.0 0.0
0.004683987384894793 -0.0011812650304124503 0.0 -0.004864189194593907 0.0 0.0
0.001549073701143159 -0.0004959982379073295 0.0 -0.00040865089880233273 0.0 0.0
0.0018099757193003941 -0.0007701573228211586 0.0 -0.00021012925389146458 0.0 0.0
0.0023684872789015354 -0.0010072233879978524 0.0 -0.00016504026361165207 0.0 0.0
0.0035868838731678713 -0.001904537484855833 0.0 -0.00019408061583745163 0.0 0.0
0.005721515255420997 -0.0037242071238551685 0.0 -0.0003799048567749594 0.0 0.0
0.008867072444259973 -0.006562953234602823 0.0 -0.0006349199716127017 0.0 0.0
0.013101471375873017 -0.010517526335381536 0.0 -0.0009712541191499351 0.0 0.0
0.01844555517134042 -0.015577407349892297 0.0 -0.0013708361418576435 0.0 0.0
0.024911412303641058 -0.021738579074760702 0.0 -0.0017878776806388142 0.0 0.0
0.032554270248484965 -0.029057532994821937 0.0 -0.002203750356305321 0.0 0.0
0.04148306213463618 -0.03765157303403826 0.0 -0.0026729102689179115 0.0 0.0
0.05179545670140747 -0.047641771315644586 0.0 -0.0032165948894988367 0.0 0.0
0.0634850372749218 -0.05905622659635795 0.0 -0.003829043230907788 0.0 0.0
0.07631675988239689 -0.07168890738611021 0.0 -0.004477429605324378 0.0 0.0
0.08970958802489398 -0.08497628911743986 0.0 -0.005003376624225264 0.0 0.0
0.10272469341564017 -0.0979747264162854 0.0 -0.005118112813534856 0.0 0.0
0.11411481490028982 -0.10942992070959774 0.0 -0.004561148845940601 0.0 0.0
0.12226508735461637 -0.11781411001504061 0.0 -0.0035061773175424672 0.0 0.0
0.12529991921611028 -0.12121143175460428 0.0 4.590511998303626e-15 0.0 0.0
0.12226508735460213 -0.11781411001502606 0.0 0.0035061773175568407 0.0 0.0
0.11411481490026135 -0.10942992070957361 0.0 0.004561148845953249 0.0 0.0
0.10272469341559935 -0.09797472641624938 0.0 0.005118112813543563 0.0 0.0
0.0897095880248469 -0.08497628911739144 0.0 0.005003376624226997 0.0 0.0
0.07631675988234769 -0.07168890738606289 0.0 0.004477429605322632 0.0 0.0
0.06348503727487172 -0.05905622659631066 0.0 0.0038290432309076934 0.0 0.0
0.05179545670135667 -0.047641771315592496 0.0 0.0032165948894971297 0.0 0.0
0.041483062134586 -0.03765157303398861 0.0 0.0026729102689152075 0.0 0.0
0.032554270248438336 -0.029057532994775565 0.0 0.0022037503563018066 0.0 0.0
0.024911412303600184 -0.02173857907472149 0.0 0.0017878776806343687 0.0 0.0
0.01844555517130693 -0.015577407349862089 0.0 0.0013708361418540514 0.0 0.0
0.013101471375846972 -0.010517526335355534 0.0 0.0009712541191486613 0.0 0.0
0.008867072444240892 -0.006562953234585619 0.0 0.000634919971611035 0.0 0.0
0.005721515255408491 -0.003724207123845689 0.0 0.00037990485677364853 0.0 0.0
0.0035868838731609445 -0.001904537484850075 0.0 0.00019408061583689134 0.0 0.0
0.002368487278898934 -0.0010072233879959668 0.0 0.00016504026361207524 0.0 0.0
0.0018099757192995575 -0.0007701573228209926 0.0 0.00021012925389096054 0.0 0.0
0.0015490737011428582 -0.0004959982379081427 0.0 0.0004086508988013928 0.0 0.0
0.004683987384888947 -0.0011812650304097335 0.0 0.004864189194584478 0.0 0.0
0.007910640675449679 -0.017914254346217122 0.0 0.0003010805823988877 0.0 0.0
0.0056978570913681454 -0.014144707266034371 0.0 -0.002890731822908427 0.0 0.0
0.0032724370987411485 -0.0006320684626955019 0.0 -0.004735258264363491 0.0 0.0
0.001094765409565504 -0.0002924532729771052 0.0 -0.00039553912487953194 0.0 0.0
0.0015487069398374773 -0.0006664493815348324 0.0 -0.0004758688094984268 0.0 0.0
0.0020622782019686686 -0.000852578373504994 0.0 -0.00046958055614363303 0.0 0.0
0.0030597443557008126 -0.00150118245387499 0.0 -0.000493468444104866 0.0 0.0
0.004910409452599758 -0.0030230612561606223 0.0 -0.0008365349639740863 0.0 0.0
0.0077222918858686936 -0.005527198127058298 0.0 -0.0013452204390667554 0.0 0.0
0.011527303793640715 -0.009056108110142198 0.0 -0.002008879835050475 0.0 0.0
0.016322224656370676 -0.01358325687307273 0.0 -0.002783247821668905 0.0 0.0
0.02209265042515887 -0.019070925015597557 0.0 -0.0036007647034536983 0.0 0.0
0.028875879811949043 -0.02555196344824927 0.0 -0.004411334354529629 0.0 0.0
0.03677869362292736 -0.03314224442687196 0.0 -0.005247066725119372 0.0 0.0
0.045928448944515275 -0.04199239961445838 0.0 -0.006205883161640981 0.0 0.0
0.05634730944199983 -0.05215357263768525 0.0 -0.007304887118384542 0.0 0.0
0.06784034379666315 -0.06345858763993659 0.0 -0.008438123212770298 0.0 0.0
0.07992040454275591 -0.07543118846713204 0.0 -0.009328445390476744 0.0 0.0
0.09175865954034712 -0.08724794849707704 0.0 -0.00951518825551653 0.0 0.0
0.10216138289581851 -0.09774053920351553 0.0 -0.008587673802642588 0.0 0.0
0.109641834173402 -0.10538325755212095 0.0 -0.006426195781891061 0.0 0.0
0.11245288974254893 -0.10864785423142646 0.0 9.975961029473623e-15 0.0 0.0
0.10964183417338856 -0.1053832575521069 0.0 0.006426195781915824 0.0 0.0
0.10216138289579291 -0.09774053920349468 0.0 0.008587673802666791 0.0 0.0
0.09175865954031184 -0.08724794849704523 0.0 0.009515188255532693 0.0 0.0
0.07992040454271453 -0.07543118846709099 0.0 0.009328445390479317 0.0 0.0
0.06784034379661939 -0.06345858763989574 0.0 0.008438123212765764 0.0 0.0
0.0563473094419549 -0.05215357263764111 0.0 0.007304887118383013 0.0 0.0
0.0459284489444699 -0.04199239961441555 0.0 0.006205883161638417 0.0 0.0
0.03677869362288333 -0.03314224442683122 0.0 0.0052470667251145395 0.0 0.0
0.028875879811907604 -0.025551963448205997 0.0 0.004411334354523042 0.0 0.0
0.022092650425122602 -0.019070925015563758 0.0 0.003600764703446016 0.0 0.0
0.016322224656340867 -0.013583256873045763 0.0 0.0027832478216622595 0.0 0.0
0.011527303793616914 -0.009056108110120548 0.0 0.0020088798350458717 0.0 0.0
0.00772229188585165 -0.005527198127041554 0.0 0.0013452204390633756 0.0 0.0
0.004910409452588981 -0.003023061256151303 0.0 0.0008365349639719605 0.0 0.0
0.003059744355695201 -0.0015011824538707914 0.0 0.0004934684441036568 0.0 0.0
0.002062278201966708 -0.0008525783735051108 0.0 0.000469580556142825 0.0 0.0
0.001548706939836955 -0.0006664493815350296 0.0 0.0004758688094970441 0.0 0.0
0.0010947654095657025 -0.00029245327297765776 0.0 0.0003955391248782502 0.0 0.0
0.0032724370987357652 -0.0006320684626927876 0.0 0.004735258264351521 0.0 0.0
0.005697857091356855 -0.01414470726601129 0.0 0.002890731822888403 0.0 0.0
0.004237854078691508 -0.011316137226902848 0.0 -0.0033044986422713935 0.0 0.0
0.002378792418909578 -0.00046545753676949524 0.0 -0.004329605090046082 0.0 0.0
0.0007853517444189321 -0.00016553089137654665 0.0 -0.0006852096200744876 0.0 0.0
0.0012855262399529203 -0.0005360985365403115 0.0 -0.0007294181005279177 0.0 0.0
0.0017759369052569823 -0.0007338920029241595 0.0 -0.0007797635057459025 0.0 0.0
0.0025753778569918223 -0.001175838425058907 0.0 -0.0007878276746112598 0.0 0.0
0.004117940385664499 -0.0023586279682419864 0.0 -0.0011429441170647786 0.0 0.0
0.006573933743656808 -0.0045062782817412664 0.0 -0.0018689405606496833 0.0 0.0
0.009937343829671505 -0.007593523355809335 0.0 -0.0027841670822799985 0.0 0.0
0.014174597772706413 -0.011575677166219012 0.0 -0.0038504846151668345 0.0 0.0
0.019249152913684398 -0.01638990159240491 0.0 -0.004973130543797803 0.0 0.0
0.025180912655907675 -0.022043621944803218 0.0 -0.006085833286169342 0.0 0.0
0.032069141758302874 -0.02864063473765789 0.0 -0.007219319470227932 0.0 0.0
0.040044127926200004 -0.03634038306979943 0.0 -0.008477690884796253 0.0 0.0
0.04916665992520048 -0.04522451131741828 0.0 -0.009913587859913428 0.0 0.0
0.05930597815494299 -0.055180141490348084 0.0 -0.011412133952068212 0.0 0.0
0.0700622862164162 -0.06582587729195667 0.0 -0.012608392147560921 0.0 0.0
0.08072126435899594 -0.07646252830298741 0.0 -0.012933168934626385 0.0 0.0
0.09020946981503489 -0.08602518690401591 0.0 -0.0118000838762252 0.0 0.0
0.09719358797905056 -0.09313576193781606 0.0 -0.00861022902661298 0.0 0.0
0.09988377714863306 -0.09646798750597475 0.0 1.425378912123243e-14 0.0 0.0
0.0971935879790382 -0.09313576193780324 0.0 0.008610229026645513 0.0 0.0
0.09020946981501214 -0.08602518690399831 0.0 0.011800083876258211 0.0 0.0
0.08072126435896476 -0.0764625283029587 0.0 0.012933168934645318 0.0 0.0
0.07006228621638018 -0.0658258772919239 0.0 0.012608392147562958 0.0 0.0
0.05930597815490478 -0.055180141490312015 0.0 0.011412133952062746 0.0 0.0
0.04916665992516091 -0.04522451131737983 0.0 0.009913587859909397 0.0 0.0
0.04004412792616047 -0.03634038306976186 0.0 0.008477690884792569 0.0 0.0
0.0320691417582645 -0.02864063473762324 0.0 0.0072193194702225676 0.0 0.0
0.025180912655871603 -0.02204362194476642 0.0 0.0060858332861592835 0.0 0.0
0.01924915291365249 -0.01638990159237452 0.0 0.004973130543788918 0.0 0.0
0.014174597772679865 -0.011575677166194499 0.0 0.0038504846151577853 0.0 0.0
0.00993734382965094 -0.007593523355788638 0.0 0.002784167082274723 0.0 0.0
0.006573933743642201 -0.00450627828172834 0.0 0.0018689405606457312 0.0 0.0
0.004117940385655466 -0.002358627968234194 0.0 0.001142944117060502 0.0 0.0
0.002575377856987473 -0.0011758384250564514 0.0 0.00078782767461064 0.0 0.0
0.0017759369052556435 -0.0007338920029240404 0.0 0.0007797635057459241 0.0 0.0
0.0012855262399528622 -0.0005360985365400562 0.0 0.0007294181005268673 0.0 0.0
0.0007853517444189747 -0.0001655308913773396 0.0 0.0006852096200721523 0.0 0.0
0.002378792418904515 -0.00046545753676657066 0.0 0.004329605090034374 0.0 0.0
0.004237854078681401 -0.011316137226882688 0.0 0.0033044986422573856 0.0 0.0
0.0031692849430362572 -0.00905517398759577 0.0 -0.002980349639571604 0.0 0.0
0.001754311542872498 -0.0004051322313070772 0.0 -0.0038923825237859744 0.0 0.0
0.0005701205600987011 -9.86644993711235e-05 0.0 -0.00105813723853149 0.0 0.0
0.0010383587498788828 -0.00040562799364750915 0.0 -0.0010022681842429004 0.0 0.0
0.001500432413849408 -0.0006238988403586874 0.0 -0.0010816940942569913 0.0 0.0
0.0021425250180868625 -0.0009318658114164026 0.0 -0.001091100969524498 0.0 0.0
0.0033669507717009454 -0.0017764472741928056 0.0 -0.0013748985508336615 0.0 0.0
0.005432888992839318 -0.0035099602119342214 0.0 -0.002164149794878054 0.0 0.0
0.008344881831238807 -0.006146621663297493 0.0 -0.0032898996960490333 0.0 0.0
0.012016006330117224 -0.009572640729281823 0.0 -0.004564606231815571 0.0 0.0
0.01639571586972964 -0.013711931273996692 0.0 -0.005903882200505255 0.0 0.0
0.021482187937368228 -0.018545290137461232 0.0 -0.007225989837294871 0.0 0.0
0.02736065018509096 -0.024158841199450484 0.0 -0.008565214119308545 0.0 0.0
0.03416801548938121 -0.030710236034027984 0.0 -0.010031400299806651 0.0 0.0
0.0419829527098145 -0.038304558538916796 0.0 -0.011680384736876187 0.0 0.0
0.05073611784890841 -0.046886299847865076 0.0 -0.013389422647912423 0.0 0.0
0.06014009850308551 -0.05617361758333583 0.0 -0.014802967601732275 0.0 0.0
0.06960972537945181 -0.06560388480759574 0.0 -0.015322390031498465 0.0 0.0
0.07823187682544855 -0.07427809553598888 0.0 -0.014129661520706261 0.0 0.0
0.08483129172999945 -0.08099286419393982 0.0 -0.010283504947418351 0.0 0.0
0.08746621375465417 -0.0845061533181375 0.0 1.4680531096322724e-14 0.0 0.0
0.08483129172998848 -0.08099286419392299 0.0 0.01028350494745324 0.0 0.0
0.07823187682542843 -0.0742780955359753 0.0 0.014129661520742381 0.0 0.0
0.06960972537942466 -0.0656038848075682 0.0 0.015322390031520545 0.0 0.0
0.06014009850305457 -0.05617361758330964 0.0 0.014802967601736529 0.0 0.0
0.05073611784887523 -0.04688629984783243 0.0 0.013389422647907157 0.0 0.0
0.04198295270978035 -0.03830455853888592 0.0 0.011680384736870598 0.0 0.0
0.034168015489347475 -0.030710236033993976 0.0 0.010031400299802668 0.0 0.0
0.027360650185058105 -0.02415884119941834 0.0 0.008565214119301065 0.0 0.0
0.021482187937337343 -0.018545290137432027 0.0 0.007225989837284228 0.0 0.0
0.016395715869702402 -0.013711931273971127 0.0 0.005903882200494245 0.0 0.0
0.01201600633009426 -0.009572640729258473 0.0 0.004564606231804211 0.0 0.0
0.008344881831220886 -0.006146621663280991 0.0 0.0032898996960413693 0.0 0.0
0.005432888992826873 -0.0035099602119233768 0.0 0.0021641497948726913 0.0 0.0
0.0033669507716939254 -0.0017764472741879738 0.0 0.0013748985508312142 0.0 0.0
0.002142525018083998 -0.0009318658114143541 0.0 0.0010911009695228641 0.0 0.0
0.001500432413848265 -0.0006238988403582393 0.0 0.001081694094256804 0.0 0.0
0.0010383587498784617 -0.00040562799364719364 0.0 0.0010022681842418906 0.0 0.0
0.0005701205600986626 -9.866449937156506e-05 0.0 0.0010581372385292773 0.0 0.0
0.0017543115428682657 -0.0004051322313046851 0.0 0.003892382523775899 0.0 0.0
0.0031692849430279405 -0.009055173987578732 0.0 0.0029803496395621313 0.0 0.0
0.0023501583911346574 -0.0071856141317424 0.0 -0.002508013117725769 0.0 0.0
0.0012911024024295822 -0.00037641380214853523 0.0 -0.003470351746862873 0.0 0.0
0.00041174647430628804 -6.880920902475722e-05 0.0 -0.0014103254977084355 0.0 0.0
0.0008092665850368902 -0.00028714762201496657 0.0 -0.0012817951388653503 0.0 0.0
0.0012316016723043733 -0.0005113582474671575 0.0 -0.0013640306256850144 0.0 0.0
0.0017504780766394506 -0.0007432243900086572 0.0 -0.0013904989217703612 0.0 0.0
0.0026846762722005 -0.001307761823021094 0.0 -0.001607766059261749 0.0 0.0
0.004328815913755891 -0.0025889266643087366 0.0 -0.0022935290114028685 0.0 0.0
0.0067552016979504585 -0.004729767343762165 0.0 -0.0034908012652213457 0.0 0.0
0.009860525083440815 -0.007593139949353352 0.0 -0.004914317366435365 0.0 0.0
0.013544466437364242 -0.011054207489665919 0.0 -0.0063797463236534005 0.0 0.0
0.01779309861069679 -0.015073547280553223 0.0 -0.007826737460011127 0.0 0.0
0.022673327432776065 -0.019713773125018763 0.0 -0.009275904090009876 0.0 0.0
0.028312398925889257 -0.025122954947724752 0.0 -0.010838879015367316 0.0 0.0
0.03481793008840871 -0.03142350031453603 0.0 -0.012586197906652996 0.0 0.0
0.04217310455380357 -0.038614715566997616 0.0 -0.014391629561398228 0.0 0.0
0.0501758803000738 -0.046501483709607896 0.0 -0.015912826254243437 0.0 0.0
0.05841289685203645 -0.054674109413158735 0.0 -0.01659758040105764 0.0 0.0
0.06618181606926214 -0.06246216189990192 0.0 -0.015542623475918841 0.0 0.0
0.07246550843082447 -0.06885924144741232 0.0 -0.01149610515912891 0.0 0.0
0.07509093958867548 -0.07264937703592386 0.0 1.5291587440735555e-14 0.0 0.0
0.07246550843081473 -0.06885924144740091 0.0 0.011496105159164265 0.0 0.0
0.06618181606924468 -0.06246216189988123 0.0 0.01554262347595502 0.0 0.0
0.05841289685201312 -0.05467410941314072 0.0 0.01659758040108062 0.0 0.0
0.05017588030004747 -0.04650148370958963 0.0 0.015912826254246084 0.0 0.0
0.04217310455377543 -0.038614715566966704 0.0 0.014391629561392113 0.0 0.0
0.03481793008838012 -0.031423500314508836 0.0 0.01258619790664662 0.0 0.0
0.02831239892586148 -0.025122954947698922 0.0 0.010838879015362976 0.0 0.0
0.02267332743274892 -0.019713773124992166 0.0 0.009275904090002608 0.0 0.0
0.01779309861067104 -0.015073547280530897 0.0 0.007826737459999568 0.0 0.0
0.013544466437341512 -0.011054207489648343 0.0 0.006379746323640136 0.0 0.0
0.00986052508342183 -0.007593139949332219 0.0 0.004914317366423246 0.0 0.0
0.0067552016979359475 -0.004729767343749815 0.0 0.003490801265213791 0.0 0.0
0.004328815913746281 -0.0025889266643001774 0.0 0.0022935290113974146 0.0 0.0
0.0026846762721953526 -0.0013077618230181234 0.0 0.0016077660592590153 0.0 0.0
0.0017504780766374442 -0.0007432243900082442 0.0 0.0013904989217683906 0.0 0.0
0.0012316016723037605 -0.0005113582474672007 0.0 0.0013640306256838838 0.0 0.0
0.0008092665850366192 -0.0002871476220141602 0.0 0.0012817951388641557 0.0 0.0
0.0004117464743062746 -6.88092090250952e-05 0.0 0.0014103254977067027 0.0 0.0
0.0012911024024264183 -0.0003764138021470638 0.0 0.0034703517468547187 0.0 0.0
0.002350158391128172 -0.007185614131728034 0.0 0.002508013117719832 0.0 0.0
0.001715043457067376 -0.005621716134619608 0.0 -0.002071260817239245 0.0 0.0
0.0009370718411413841 -0.0003608276622148748 0.0 -0.003090151589698153 0.0 0.0
0.0002851771045774686 -5.437123096777824e-05 0.0 -0.0017025470580538957 0.0 0.0
0.0005960816278083096 -0.0001832459930143199 0.0 -0.0015460203950643278 0.0 0.0
0.0009652202043276352 -0.00039110600051194585 0.0 -0.0016149336928784816 0.0 0.0
0.0013834080113302345 -0.0005882995042247289 0.0 -0.0016838103684081141 0.0 0.0
0.0020691144121080013 -0.0009403834232954316 0.0 -0.0018268447349672093 0.0 0.0
0.0033008196719254922 -0.0018029470328789817 0.0 -0.002369021318886723 0.0 0.0
0.00520234474505785 -0.0033904505190822474 0.0 -0.00342407457850375 0.0 0.0
0.007716665660312445 -0.0056589835777261285 0.0 -0.0048613965963418436 0.0 0.0
0.01070961347832903 -0.008438139756737592 0.0 -0.006380697785104453 0.0 0.0
0.014125522383330043 -0.011646421865766228 0.0 -0.007869875604548883 0.0 0.0
0.018018711221448297 -0.015325660660368529 0.0 -0.009339924647719176 0.0 0.0
0.02250427054733738 -0.019604997943055168 0.0 -0.010897082109908472 0.0 0.0
0.02769672796449884 -0.024611543390584866 0.0 -0.01260611541442893 0.0 0.0
0.0336327809577857 -0.030397768405301798 0.0 -0.014392907908005634 0.0 0.0
0.040203277180904565 -0.036846674172144975 0.0 -0.015931428330753086 0.0 0.0
0.04714322699696735 -0.04369303783907627 0.0 -0.01673210572654604 0.0 0.0
0.05400472832790117 -0.050534245874590863 0.0 -0.015972731870463157 0.0 0.0
0.05999457297487386 -0.05663073115697918 0.0 -0.01222162596774927 0.0 0.0
0.06264396861024878 -0.06079026253541467 0.0 1.457904977297808e-14 0.0 0.0
0.05999457297486563 -0.05663073115697724 0.0 0.012221625967785792 0.0 0.0
0.05400472832788629 -0.050534245874568756 0.0 0.01597273187050043 0.0 0.0
0.04714322699694787 -0.04369303783905883 0.0 0.016732105726566856 0.0 0.0
0.04020327718088306 -0.03684667417212738 0.0 0.01593142833075597 0.0 0.0
0.0336327809577628 -0.03039776840527547 0.0 0.014392907908000178 0.0 0.0
0.027696727964475764 -0.02461154339056398 0.0 0.012606115414423203 0.0 0.0
0.022504270547315387 -0.019604997943034996 0.0 0.010897082109903342 0.0 0.0
0.01801871122142661 -0.015325660660348323 0.0 0.009339924647710522 0.0 0.0
0.014125522383309335 -0.011646421865747011 0.0 0.007869875604537457 0.0 0.0
0.010709613478310832 -0.008438139756721516 0.0 0.0063806977850912995 0.0 0.0
0.007716665660297203 -0.005658983577710785 0.0 0.004861396596330324 0.0 0.0
0.005202344745046545 -0.0033904505190702028 0.0 0.0034240745784965224 0.0 0.0
0.0033008196719180845 -0.0018029470328752885 0.0 0.002369021318882109 0.0 0.0
0.002069114412104273 -0.0009403834232913357 0.0 0.0018268447349648618 0.0 0.0
0.0013834080113289573 -0.0005882995042250203 0.0 0.0016838103684070813 0.0 0.0
0.0009652202043269097 -0.0003911060005113472 0.0 0.0016149336928770906 0.0 0.0
0.0005960816278078133 -0.00018324599301364832 0.0 0.0015460203950622626 0.0 0.0
0.00028517710457721365 -5.4371230967529145e-05 0.0 0.0017025470580523247 0.0 0.0
0.0009370718411389285 -0.0003608276622141239 0.0 0.003090151589691127 0.0 0.0
0.0017150434570627204 -0.00562171613460805 0.0 0.0020712608172352123 0.0 0.0
0.0012217332265142184 -0.00432498486170366 0.0 -0.0017457675493136337 0.0 0.0
0.0006606086304267871 -0.0003563386768803369 0.0 -0.002749360921052704 0.0 0.0
0.00017410504053878525 -3.9651315502586476e-05 0.0 -0.0019287997454146178 0.0 0.0
0.00039488341960397007 -9.196548344339032e-05 0.0 -0.0017767432421575031 0.0 0.0
0.000697143050905589 -0.00026593652213740936 0.0 -0.0018293949509111695 0.0 0.0
0.0010327532440534207 -0.00044115890312991155 0.0 -0.0019437158920579223 0.0 0.0
0.0015124717490296428 -0.0006584636038150828 0.0 -0.0020539954298187113 0.0 0.0
0.0023605478474458736 -0.0011688891865490399 0.0 -0.0024082145729508735 0.0 0.0
0.003731482020172842 -0.002203393488427431 0.0 -0.003204932965171385 0.0 0.0
0.005615554346524239 -0.003824913438152014 0.0 -0.004432314276474734 0.0 0.0
0.007898951453452365 -0.005894817621050104 0.0 -0.0058757594282397 0.0 0.0
0.010491373350531187 -0.008292115066836534 0.0 -0.0073154584949671345 0.0 0.0
0.01341269919367272 -0.011021325611440714 0.0 -0.008728100664436045 0.0 0.0
0.016758061947799035 -0.014186956694479998 0.0 -0.010181574872280948 0.0 0.0
0.02064526540196621 -0.01790854856264783 0.0 -0.011747399397332398 0.0 0.0
0.02515002551647779 -0.022273612383537013 0.0 -0.013373725895912939 0.0 0.0
0.030243085199694444 -0.02725121557772205 0.0 -0.01482982635381184 0.0 0.0
0.03580873557664865 -0.03269688230875668 0.0 -0.01567225636635597 0.0 0.0
0.04166121955127618 -0.03846570419800856 0.0 -0.01530929225315544 0.0 0.0
0.04731162571789603 -0.04419582421800873 0.0 -0.012378092861105947 0.0 0.0
0.04999376064688038 -0.04881503376618757 0.0 1.2676925481569512e-14 0.0 0.0
0.04731162571789008 -0.04419582421800298 0.0 0.012378092861138477 0.0 0.0
0.041661219551264624 -0.03846570419799473 0.0 0.015309292253188993 0.0 0.0
0.03580873557663291 -0.032696882308740904 0.0 0.015672256366376695 0.0 0.0
0.03024308519967743 -0.027251215577703977 0.0 0.014829826353812962 0.0 0.0
0.02515002551646044 -0.022273612383517046 0.0 0.01337372589590537 0.0 0.0
0.020645265401949033 -0.017908548562634224 0.0 0.011747399397326348 0.0 0.0
0.01675806194778262 -0.014186956694464771 0.0 0.01018157487227611 0.0 0.0
0.013412699193657068 -0.011021325611426689 0.0 0.008728100664428477 0.0 0.0
0.010491373350516186 -0.008292115066820717 0.0 0.007315458494956991 0.0 0.0
0.007898951453438873 -0.0058948176210361055 0.0 0.005875759428227204 0.0 0.0
0.005615554346513236 -0.0038249134381423975 0.0 0.0044323142764649175 0.0 0.0
0.0037314820201647626 -0.002203393488418192 0.0 0.003204932965165326 0.0 0.0
0.00236054784744089 -0.0011688891865456583 0.0 0.0024082145729478525 0.0 0.0
0.0015124717490273012 -0.0006584636038111643 0.0 0.0020539954298172667 0.0 0.0
0.0010327532440525832 -0.0004411589031290248 0.0 0.0019437158920561385 0.0 0.0
0.0006971430509053762 -0.0002659365221366795 0.0 0.0018293949509096867 0.0 0.0
0.0003948834196037981 -9.1965483443821e-05 0.0 0.0017767432421546634 0.0 0.0
0.00017410504053843863 -3.965131550209085e-05 0.0 0.0019287997454123275 0.0 0.0
0.0006606086304248752 -0.0003563386768803184 0.0 0.0027493609210468735 0.0 0.0
0.0012217332265108305 -0.004324984861694835 0.0 0.0017457675493110128 0.0 0.0
0.0008594786049420664 -0.003299103318087902 0.0 -0.0015658753173099257 0.0 0.0
0.00044616439010613287 -0.00036268175693473956 0.0 -0.0024651732494623433 0.0 0.0
6.525389635533735e-05 -1.5552815588112105e-05 0.0 -0.0020924391879179726 0.0 0.0
0.00020349668513340948 -1.0325835400935496e-05 0.0 -0.0019624616145007194 0.0 0.0
0.00042872469388448856 -0.00014103132583744336 0.0 -0.002001456027249721 0.0 0.0
0.0006796743693313342 -0.00028349762967464 0.0 -0.0021410745510168734 0.0 0.0
0.0009997102592627218 -0.0004319886439031118 0.0 -0.0022926776773700957 0.0 0.0
0.0015168615821752926 -0.0006932857426517109 0.0 -0.002487283528274809 0.0 0.0
0.002371331205620779 -0.0012375374828717711 0.0 -0.002942798927329205 0.0 0.0
0.003605067248298223 -0.0021912792360027564 0.0 -0.0037589298190201063 0.0 0.0
0.005145819534822825 -0.0035046493271817677 0.0 -0.004896780970126298 0.0 0.0
0.006903007073660027 -0.005072176874409679 0.0 -0.006134176553229238 0.0 0.0
0.00886317616647795 -0.006852318621022782 0.0 -0.007402461869446885 0.0 0.0
0.011090411525289858 -0.00892096167591016 0.0 -0.008688897934423467 0.0 0.0
0.013684981102991612 -0.011370457810585927 0.0 -0.01001758306164764 0.0 0.0
0.01674690060016141 -0.014304513500230886 0.0 -0.011395134954100515 0.0 0.0
0.020334088508583124 -0.017772722973785248 0.0 -0.012688696660978627 0.0 0.0
0.024441962937824 -0.02175913565514014 0.0 -0.013530402331784252 0.0 0.0
0.02911127970608242 -0.02628249652998773 0.0 -0.013444244836505902 0.0 0.0
0.03429091558168667 -0.0314387202172603 0.0 -0.01173156102893099 0.0 0.0
0.03698071523422738 -0.03657918638230947 0.0 1.0967789176863363e-14 0.0 0.0
0.03429091558168285 -0.03143872021725002 0.0 0.01173156102895952 0.0 0.0
0.02911127970607419 -0.026282496529977446 0.0 0.013444244836536137 0.0 0.0
0.024441962937812766 -0.02175913565513666 0.0 0.013530402331800025 0.0 0.0
0.020334088508571335 -0.017772722973776044 0.0 0.012688696660976238 0.0 0.0
0.01674690060014975 -0.014304513500218524 0.0 0.011395134954094511 0.0 0.0
0.01368498110298036 -0.011370457810576703 0.0 0.010017583061640863 0.0 0.0
0.011090411525279675 -0.00892096167590142 0.0 0.008688897934419324 0.0 0.0
0.00886317616646819 -0.006852318621010636 0.0 0.007402461869442583 0.0 0.0
0.006903007073650391 -0.005072176874402246 0.0 0.006134176553220616 0.0 0.0
0.005145819534814047 -0.003504649327172105 0.0 0.004896780970115944 0.0 0.0
0.003605067248291343 -0.0021912792359966905 0.0 0.00375892981901221 0.0 0.0
0.0023713312056162514 -0.001237537482868806 0.0 0.002942798927325771 0.0 0.0
0.0015168615821726159 -0.0006932857426485916 0.0 0.002487283528273906 0.0 0.0
0.000999710259261439 -0.0004319886439016998 0.0 0.0022926776773690197 0.0 0.0
0.0006796743693307992 -0.00028349762967293257 0.0 0.002141074551014713 0.0 0.0
0.00042872469388408047 -0.0001410313258360338 0.0 0.0020014560272477028 0.0 0.0
0.00020349668513318213 -1.0325835401798116e-05 0.0 0.0019624616144979833 0.0 0.0
6.525389635525562e-05 -1.5552815588216317e-05 0.0 0.0020924391879158606 0.0 0.0
0.00044616439010513296 -0.00036268175693475067 0.0 0.002465173249458381 0.0 0.0
0.0008594786049401441 -0.003299103318081719 0.0 0.00156587531730867 0.0 0.0
0.0006095993349777037 -0.0025233122365821625 0.0 -0.0014750337297475546 0.0 0.0
0.00028585289948866336 -0.0003764840500282509 0.0 -0.002266506878628227 0.0 0.0
-4.191511109453877e-05 1.8140447952978055e-05 0.0 -0.002196180364605832 0.0 0.0
1.9690616364547166e-05 6.450240612068886e-05 0.0 -0.002097334630126253 0.0 0.0
0.00016286880590413372 -1.870089674808432e-05 0.0 -0.00212475826942245 0.0 0.0
0.0003188593134426979 -0.000117605446890489 0.0 -0.002267684021590475 0.0 0.0
0.0004970428943471993 -0.0002126032661174285 0.0 -0.002465594142538965 0.0 0.0
0.0007495753025417367 -0.0003305213534919045 0.0 -0.0026410181122548575 0.0 0.0
0.0011471004795732074 -0.0005365746694348726 0.0 -0.0028327224995660905 0.0 0.0
0.0017344424866260766 -0.0009210091302274672 0.0 -0.003191390287132249 0.0 0.0
0.002501437279150484 -0.0014890264822778512 0.0 -0.003820670904025148 0.0 0.0
0.0033922620811241253 -0.002206241692094992 0.0 -0.004670302497453918 0.0 0.0
0.004380236920661989 -0.0030297232748142653 0.0 -0.0056463878534220085 0.0 0.0
0.005503480742174479 -0.003993153766094546 0.0 -0.006703878347391796 0.0 0.0
0.006823463164120135 -0.0051719898501872055 0.0 -0.007844512197789763 0.0 0.0
0.0084365346981609 -0.0066553666954321635 0.0 -0.009083645295204393 0.0 0.0
0.010478261559855354 -0.00856600816846213 0.0 -0.010331273024444053 0.0 0.0
0.013093242641308279 -0.011047498780927385 0.0 -0.011256385206979571 0.0 0.0
0.016408640978547506 -0.014222465311887405 0.0 -0.011288341628526972 0.0 0.0
0.020806937377148487 -0.018371322915607276 0.0 -0.010222444807774714 0.0 0.0
0.023357883039650952 -0.023928252810254902 0.0 9.284673724296866e-15 0.0 0.0
0.020806937377146856 -0.018371322915605243 0.0 0.010222444807798398 0.0 0.0
0.01640864097854296 -0.014222465311876974 0.0 0.011288341628550667 0.0 0.0
0.013093242641301336 -0.011047498780929355 0.0 0.01125638520698977 0.0 0.0
0.010478261559849275 -0.008566008168458655 0.0 0.010331273024440264 0.0 0.0
0.008436534698155442 -0.006655366695432087 0.0 0.00908364529519855 0.0 0.0
0.006823463164114885 -0.005171989850182205 0.0 0.00784451219778468 0.0 0.0
0.005503480742170515 -0.003993153766089036 0.0 0.006703878347389124 0.0 0.0
0.004380236920658224 -0.0030297232748063957 0.0 0.005646387853418177 0.0 0.0
0.0033922620811199893 -0.0022062416920923416 0.0 0.004670302497448247 0.0 0.0
0.0025014372791468246 -0.0014890264822760666 0.0 0.0038206709040190107 0.0 0.0
0.001734442486623387 -0.0009210091302248188 0.0 0.0031913902871283425 0.0 0.0
0.0011471004795715258 -0.0005365746694383231 0.0 0.002832722499564984 0.0 0.0
0.0007495753025406833 -0.0003305213534893044 0.0 0.002641018112253367 0.0 0.0
0.0004970428943466499 -0.00021260326611626822 0.0 0.0024655941425367556 0.0 0.0
0.0003188593134425693 -0.0001176054468899691 0.0 0.002267684021587645 0.0 0.0
0.00016286880590418755 -1.8700896748107344e-05 0.0 0.0021247582694198515 0.0 0.0
1.969061636461485e-05 6.450240612057982e-05 0.0 0.0020973346301239866 0.0 0.0
-4.191511109469279e-05 1.8140447953418146e-05 0.0 0.0021961803646037147 0.0 0.0
0.00028585289948799224 -0.00037648405002862237 0.0 0.00226650687862539 0.0 0.0
0.0006095993349765379 -0.0025233122365782845 0.0 0.001475033729746429 0.0 0.0
0.00043363544172178266 -0.0019515614030513923 0.0 -0.0014192295101492173 0.0 0.0
0.0001657587794298908 -0.0003795336997010192 0.0 -0.0021244110740411743 0.0 0.0
-0.00014246635616833297 5.354871429893776e-05 0.0 -0.0022472209453891557 0.0 0.0
-0.00015698845013360042 0.00013531489200827834 0.0 -0.002178134483930451 0.0 0.0
-9.82725764610036e-05 9.987611245995776e-05 0.0 -0.0021930895350050976 0.0 0.0
-4.457960130087106e-05 4.95017794984632e-05 0.0 -0.002322681245454416 0.0 0.0
-1.4740775968938245e-05 1.3714263443292518e-05 0.0 -0.0025283480567420188 0.0 0.0
-3.1313767202863078e-06 2.479258370779708e-06 0.0 -0.0027308947324410976 0.0 0.0
9.723617904521605e-08 -5.10133341279621e-07 0.0 -0.002851829280516469 0.0 0.0
6.198600025974176e-07 -2.4389850271866275e-07 0.0 -0.002997240888684984 0.0 0.0
6.184339549001987e-07 -1.5035358171063711e-06 0.0 -0.0033225927648253255 0.0 0.0
-2.3592166169373414e-06 2.140010199324949e-06 0.0 -0.00393495511352936 0.0 0.0
-1.1069388165741464e-05 8.601191069111441e-06 0.0 -0.004716798063218413 0.0 0.0
-2.2230960699175413e-05 2.0404601623314226e-05 0.0 -0.005643935961381308 0.0 0.0
-5.911866208500372e-06 1.4955137431084614e-05 0.0 -0.006738011577450315 0.0 0.0
0.00013937867065547148 -9.073727340107134e-05 0.0 -0.008002101719868634 0.0 0.0
0.000628066750491869 -0.000481335505719526 0.0 -0.00939234867765425 0.0 0.0
0.001760358352946255 -0.0014361982205939542 0.0 -0.010759425059117525 0.0 0.0
0.003764457576259733 -0.0031561091817510463 0.0 -0.011803304097655707 0.0 0.0
0.0069770464972089725 -0.005736925561971779 0.0 -0.012020813252853712 0.0 0.0
0.008952551599997229 -0.011611526977464105 0.0 7.806689322764626e-15 0.0 0.0
0.00697704649720898 -0.0057369255619752185 0.0 0.012020813252870886 0.0 0.0
0.0037644575762580852 -0.0031561091817462156 0.0 0.01180330409766682 0.0 0.0
0.0017603583529445773 -0.0014361982205910672 0.0 0.010759425059118904 0.0 0.0
0.0006280667504925011 -0.0004813355057192817 0.0 0.009392348677650512 0.0 0.0
0.00013937867065700216 -9.073727340432671e-05 0.0 0.00800210171986296 0.0 0.0
-5.91186620757815e-06 1.4955137431349865e-05 0.0 0.006738011577447906 0.0 0.0
-2.2230960697410657e-05 2.0404601622074007e-05 0.0 0.00564393596137764 0.0 0.0
-1.1069388163309924e-05 8.601191066324608e-06 0.0 0.0047167980632119785 0.0 0.0
-2.359216614844777e-06 2.140010197256237e-06 0.0 0.00393495511352263 0.0 0.0
6.184339565269356e-07 -1.5035358207758263e-06 0.0 0.003322592764819406 0.0 0.0
6.198600036107942e-07 -2.438985010961203e-07 0.0 0.0029972408886822584 0.0 0.0
9.723617971442629e-08 -5.101333450820196e-07 0.0 0.0028518292805153646 0.0 0.0
-3.131376719885248e-06 2.479258372385916e-06 0.0 0.0027308947324391395 0.0 0.0
-1.474077596876379e-05 1.3714263442179341e-05 0.0 0.002528348056738899 0.0 0.0
-4.4579601300592855e-05 4.9501779498727365e-05 0.0 0.0023226812454511954 0.0 0.0
-9.827257646078717e-05 9.987611245851967e-05 0.0 0.002193089535002865 0.0 0.0
-0.00015698845013349333 0.00013531489200853977 0.0 0.0021781344839287425 0.0 0.0
-0.0001424663561682964 5.354871429875228e-05 0.0 0.002247220945386483 0.0 0.0
0.00016575877942967096 -0.00037953369970128274 0.0 0.0021244110740394058 0.0 0.0
0.0004336354417213819 -0.001951561403048863 0.0 0.001419229510147872 0.0 0.0
0.00031354908864300184 -0.001516445756145353 0.0 -0.0013439955116770442 0.0 0.0
7.653214720267638e-05 -0.0003612991630403922 0.0 -0.001993507477281121 0.0 0.0
-0.00023590064711350562 8.637434398760995e-05 0.0 -0.002248747186095997 0.0 0.0
-0.0003257717301236261 0.00020292194908622414 0.0 -0.0022037527188209878 0.0 0.0
-0.0003530725813073934 0.00021316943867872494 0.0 -0.002203175605461305 0.0 0.0
-0.0004041183317226643 0.00021456612222285685 0.0 -0.0023058816738933535 0.0 0.0
-0.0005257577731455773 0.00023979939885630878 0.0 -0.002482635327670564 0.0 0.0
-0.0007561389939328904 0.00033532150484753175 0.0 -0.0026466865659295303 0.0 0.0
-0.0011466760018058013 0.0005355533447920377 0.0 -0.002834496742612689 0.0 0.0
-0.0017324431845792444 0.0009195671776909345 0.0 -0.0031898708826183634 0.0 0.0
-0.0024999284565793162 0.0014871404265093795 0.0 -0.0038160564437610834 0.0 0.0
-0.0033976253185427404 0.0022109469641308594 0.0 -0.004668362695858449 0.0 0.0
-0.004403192107586056 0.0030492935892124443 0.0 -0.005639573099308324 0.0 0.0
-0.005547917240499546 0.00403684881618628 0.0 -0.006693339821160189 0.0 0.0
-0.006833086774497114 0.005204283920019184 0.0 -0.007852366352495883 0.0 0.0
-0.00816464204811485 0.006473217346455978 0.0 -0.009202559111631616 0.0 0.0
-0.009300673643803424 0.007608851375244485 0.0 -0.010816062806872365 0.0 0.0
-0.009852871352076199 0.008222485295974191 0.0 -0.012754045536234167 0.0 0.0
-0.009355911821144189 0.007919506324821872 0.0 -0.014898416129808094 0.0 0.0
-0.006565725156729827 0.005893885338491397 0.0 -0.015784732365309653 0.0 0.0
-0.0043465918929165084 -0.000639671093516413 0.0 9.520162436160717e-15 0.0 0.0
-0.006565725156730177 0.005893885338494269 0.0 0.01578473236532639 0.0 0.0
-0.009355911821142232 0.007919506324821045 0.0 0.014898416129821446 0.0 0.0
-0.009852871352070648 0.008222485295969261 0.0 0.012754045536237307 0.0 0.0
-0.009300673643795172 0.007608851375239622 0.0 0.01081606280686711 0.0 0.0
-0.008164642048106604 0.0064732173464513935 0.0 0.009202559111624379 0.0 0.0
-0.006833086774490189 0.005204283920013621 0.0 0.007852366352489924 0.0 0.0
-0.005547917240492065 0.004036848816178912 0.0 0.006693339821154911 0.0 0.0
-0.0044031921075773205 0.0030492935892038517 0.0 0.00563957309930095 0.0 0.0
-0.003397625318534452 0.0022109469641261583 0.0 0.004668362695850554 0.0 0.0
-0.0024999284565722763 0.0014871404265041585 0.0 0.003816056443752651 0.0 0.0
-0.0017324431845741352 0.00091956717768892 0.0 0.0031898708826136675 0.0 0.0
-0.0011466760018026298 0.0005355533447878317 0.0 0.0028344967426115818 0.0 0.0
-0.0007561389939308898 0.00033532150484994237 0.0 0.0026466865659284917 0.0 0.0
-0.0005257577731443235 0.0002397993988528247 0.0 0.0024826353276680255 0.0 0.0
-0.0004041183317220361 0.00021456612222447248 0.0 0.0023058816738904422 0.0 0.0
-0.00035307258130713254 0.0002131694386768278 0.0 0.00220317560545948 0.0 0.0
-0.00032577173012331704 0.00020292194908750453 0.0 0.0022037527188197214 0.0 0.0
-0.0002359006471132696 8.637434398730256e-05 0.0 0.002248747186094334 0.0 0.0
7.65321472026468e-05 -0.0003612991630404388 0.0 0.001993507477280013 0.0 0.0
0.00031354908864267755 -0.0015164457561433432 0.0 0.0013439955116748754 0.0 0.0
0.00022114103130851904 -0.0011535963287530974 0.0 -0.00121997331940099 0.0 0.0
3.7773348004256115e-06 -0.00032592836274026427 0.0 -0.0018539850449942655 0.0 0.0
-0.000322617061253123 0.00011789250674363631 0.0 -0.0021983388840737584 0.0 0.0
-0.000486394857524106 0.0002664772537068464 0.0 -0.0021743469564327557 0.0 0.0
-0.000599934159759989 0.0003206630758103381 0.0 -0.0021523245974727967 0.0 0.0
-0.0007559139461678169 0.00037296519210103235 0.0 -0.0022162353085246004 0.0 0.0
-0.0010255556023082322 0.0004591426368251464 0.0 -0.002326152734971144 0.0 0.0
-0.0015220763103603338 0.0006976457528077064 0.0 -0.002499644996065678 0.0 0.0
-0.0023701667058596 0.0012356210087702117 0.0 -0.0029436040480394373 0.0 0.0
-0.0036025495440638365 0.0021885960453207082 0.0 -0.0037546562370282966 0.0 0.0
-0.005145171200727858 0.0035045728215124285 0.0 -0.00489401833658631 0.0 0.0
-0.006908167976101781 0.0050772199153022255 0.0 -0.006132690904225689 0.0 0.0
-0.00888293083786787 0.006871469737261505 0.0 -0.007385297963061263 0.0 0.0
-0.011130452769740257 0.008962183327951494 0.0 -0.008641517492330834 0.0 0.0
-0.013697752634228583 0.011403252266774936 0.0 -0.00998304519311632 0.0 0.0
-0.016510232223770568 0.014144516295172192 0.0 -0.011598133239947074 0.0 0.0
-0.019286486446251513 0.01691114674395529 0.0 -0.013710994400844844 0.0 0.0
-0.021517863262008146 0.019190065312605285 0.0 -0.016430325284638257 0.0 0.0
-0.022237231103152788 0.020099963987592027 0.0 -0.019201259632681874 0.0 0.0
-0.019703099420784416 0.017824288914799785 0.0 -0.01975519829839887 0.0 0.0
-0.017351395479931638 0.009504310167079161 0.0 1.1220191442617988e-14 0.0 0.0
-0.01970309942078381 0.017824288914799973 0.0 0.01975519829842521 0.0 0.0
-0.02223723110314741 0.02009996398758609 0.0 0.019201259632705428 0.0 0.0
-0.021517863261997484 0.01919006531259491 0.0 0.01643032528464812 0.0 0.0
-0.019286486446237008 0.016911146743941313 0.0 0.013710994400842034 0.0 0.0
-0.016510232223755843 0.01414451629515948 0.0 0.011598133239939969 0.0 0.0
-0.013697752634215788 0.011403252266761919 0.0 0.009983045193109125 0.0 0.0
-0.011130452769727137 0.008962183327936194 0.0 0.00864151749232448 0.0 0.0
-0.008882930837853234 0.0068714697372481755 0.0 0.007385297963052692 0.0 0.0
-0.006908167976087549 0.005077219915291065 0.0 0.006132690904214392 0.0 0.0
-0.005145171200715568 0.0035045728215010088 0.0 0.004894018336572793 0.0 0.0
-0.0036025495440542314 0.0021885960453134623 0.0 0.003754656237019466 0.0 0.0
-0.002370166705853543 0.001235621008766637 0.0 0.0029436040480368235 0.0 0.0
-0.0015220763103569585 0.0006976457528092368 0.0 0.0024996449960637645 0.0 0.0
-0.0010255556023061744 0.00045914263682291217 0.0 0.0023261527349695255 0.0 0.0
-0.0007559139461665551 0.0003729651921011002 0.0 0.0022162353085224294 0.0 0.0
-0.0005999341597591864 0.0003206630758090843 0.0 0.0021523245974715208 0.0 0.0
-0.0004863948575235925 0.0002664772537072966 0.0 0.002174346956431327 0.0 0.0
-0.0003226170612527747 0.00011789250674424292 0.0 0.0021983388840728303 0.0 0.0
3.777334800503332e-06 -0.00032592836274066635 0.0 0.0018539850449928136 0.0 0.0
0.00022114103130829323 -0.0011535963287514967 0.0 0.0012199733193992382 0.0 0.0
0.00014151789721730026 -0.0008442108131146658 0.0 -0.001071170940127652 0.0 0.0
-6.12526328115736e-05 -0.0002762771142272199 0.0 -0.0016928056286377967 0.0 0.0
-0.0004042942456793393 0.00014939936456197778 0.0 -0.0020960393412793933 0.0 0.0
-0.0006387272988704595 0.000325727250282783 0.0 -0.002089591451288164 0.0 0.0
-0.0008370890452542358 0.0004211211914451834 0.0 -0.0020435604066444658 0.0 0.0
-0.0010935578314214107 0.0005195859018823369 0.0 -0.0020469549852095872 0.0 0.0
-0.001534177739886753 0.0006863507186111161 0.0 -0.002103292849428657 0.0 0.0
-0.0023643139558696307 0.0011714053134171912 0.0 -0.0024228693898877317 0.0 0.0
-0.0037286083253507997 0.0021996516193897152 0.0 -0.00320189796462765 0.0 0.0
-0.005613437438943738 0.0038224307678695474 0.0 -0.004427095692642015 0.0 0.0
-0.007899534682959052 0.005896293102312014 0.0 -0.0058745271596390685 0.0 0.0
-0.010495188929331071 0.008296662331551677 0.0 -0.007313067835602427 0.0 0.0
-0.013423634893903642 0.01103252544336433 0.0 -0.008701261123987105 0.0 0.0
-0.016781602819517683 0.014210033817255479 0.0 -0.010091808320551876 0.0 0.0
-0.020654847780672735 0.017929455656080628 0.0 -0.011627017679746773 0.0 0.0
-0.024991278034974408 0.02217250519246787 0.0 -0.013563826584221858 0.0 0.0
-0.02946745649221963 0.02663645487748708 0.0 -0.01629778251774541 0.0 0.0
-0.03331394605423224 0.030596775337762963 0.0 -0.019946411561832644 0.0 0.0
-0.03508197130284727 0.03261171702634195 0.0 -0.0235038606256364 0.0 0.0
-0.03223443630419353 0.03028647651239113 0.0 -0.024665886848793638 0.0 0.0
-0.029253771480001398 0.019357301010605895 0.0 1.2730268228455799e-14 0.0 0.0
-0.03223443630419068 0.030286476512383913 0.0 0.024665886848824443 0.0 0.0
-0.03508197130283869 0.032611717026333954 0.0 0.023503860625665465 0.0 0.0
-0.03331394605421704 0.03059677533775556 0.0 0.01994641156184672 0.0 0.0
-0.029467456492200013 0.026636454877468022 0.0 0.01629778251774368 0.0 0.0
-0.024991278034953972 0.022172505192446495 0.0 0.013563826584212787 0.0 0.0
-0.020654847780653688 0.01792945565606211 0.0 0.011627017679736788 0.0 0.0
-0.016781602819498528 0.014210033817233948 0.0 0.01009180832054428 0.0 0.0
-0.013423634893883561 0.011032525443343833 0.0 0.008701261123977672 0.0 0.0
-0.010495188929311705 0.008296662331532872 0.0 0.0073130678355902146 0.0 0.0
-0.007899534682941585 0.005896293102294945 0.0 0.005874527159625621 0.0 0.0
-0.005613437438929655 0.0038224307678582942 0.0 0.004427095692630195 0.0 0.0
-0.0037286083253412657 0.002199651619384996 0.0 0.003201897964621974 0.0 0.0
-0.002364313955863749 0.0011714053134148166 0.0 0.002422869389884247 0.0 0.0
-0.001534177739883584 0.0006863507186092733 0.0 0.0021032928494270054 0.0 0.0
-0.0010935578314199203 0.0005195859018814931 0.0 0.002046954985207778 0.0 0.0
-0.0008370890452532081 0.0004211211914454706 0.0 0.0020435604066432102 0.0 0.0
-0.0006387272988697546 0.0003257272502813848 0.0 0.0020895914512852384 0.0 0.0
-0.00040429424567900766 0.00014939936456248015 0.0 0.0020960393412786807 0.0 0.0
-6.125263281155916e-05 -0.0002762771142272583 0.0 0.001692805628635158 0.0 0.0
0.0001415178972170237 -0.0008442108131136923 0.0 0.0010711709401266295 0.0 0.0
7.056614650880783e-05 -0.0005836458127932831 0.0 -0.0009138727110099964 0.0 0.0
-0.00012180014678867893 -0.0002161751385326393 0.0 -0.0015067701782843117 0.0 0.0
-0.0004826080199635277 0.00018213587359683118 0.0 -0.0019426961377982843 0.0 0.0
-0.0007837045715360793 0.0003808695923486519 0.0 -0.0019499520343521396 0.0 0.0
-0.0010613861997682574 0.0005124004620898999 0.0 -0.001875432841292842 0.0 0.0
-0.001425953510072918 0.0006541215161241552 0.0 -0.001803784758180594 0.0 0.0
-0.002085022732491104 0.0009661788082499588 0.0 -0.0018837223155290217 0.0 0.0
-0.0033005990273025114 0.0018019496133162929 0.0 -0.0023794962337190507 0.0 0.0
-0.005198970734464517 0.0033857172320398126 0.0 -0.003417654327751667 0.0 0.0
-0.00771584092018803 0.005657927286768768 0.0 -0.004856588207277889 0.0 0.0
-0.010711452486778775 0.008441076373974546 0.0 -0.006380234022726692 0.0 0.0
-0.014127052284203107 0.011649893527439241 0.0 -0.007866671919259688 0.0 0.0
-0.018016038478341826 0.015325230598250552 0.0 -0.009307266789551141 0.0 0.0
-0.022498001001585378 0.019597232667380074 0.0 -0.01077806661881381 0.0 0.0
-0.027691300142277678 0.02460389194932013 0.0 -0.012407284913584253 0.0 0.0
-0.03357806121724053 0.03037053195701874 0.0 -0.014511141791423569 0.0 0.0
-0.039763871954150695 0.0365551621923033 0.0 -0.01755527358519552 0.0 0.0
-0.04517630823474847 0.0421459008932851 0.0 -0.021706071969387435 0.0 0.0
-0.04779958745552694 0.04515647108528811 0.0 -0.026046203127293326 0.0 0.0
-0.044317245239683105 0.04238139731354484 0.0 -0.028057666299224494 0.0 0.0
-0.04053922204567868 0.028886882982552493 0.0 1.4119781732713221e-14 0.0 0.0
-0.0443172452396781 0.04238139731353952 0.0 0.028057666299257385 0.0 0.0
-0.04779958745551506 0.045156471085277934 0.0 0.026046203127326324 0.0 0.0
-0.04517630823472942 0.042145900893267405 0.0 0.021706071969405587 0.0 0.0
-0.03976387195412656 0.036555162192278286 0.0 0.0175552735851968 0.0 0.0
-0.03357806121721473 0.030370531956992228 0.0 0.01451114179141692 0.0 0.0
-0.0276913001422526 0.02460389194929465 0.0 0.012407284913574755 0.0 0.0
-0.022498001001560176 0.01959723266735799 0.0 0.01077806661880565 0.0 0.0
-0.01801603847831608 0.015325230598225374 0.0 0.00930726678954127 0.0 0.0
-0.014127052284178241 0.011649893527415826 0.0 0.007866671919247151 0.0 0.0
-0.010711452486756614 0.008441076373952137 0.0 0.006380234022711603 0.0 0.0
-0.007715840920169782 0.005657927286750256 0.0 0.004856588207264428 0.0 0.0
-0.0051989707344514075 0.003385717232029539 0.0 0.0034176543277437445 0.0 0.0
-0.0033005990272942636 0.0018019496133128456 0.0 0.00237949623371456 0.0 0.0
-0.0020850227324865833 0.0009661788082478899 0.0 0.001883722315526382 0.0 0.0
-0.001425953510070712 0.0006541215161227768 0.0 0.0018037847581795982 0.0 0.0
-0.0010613861997670797 0.0005124004620892947 0.0 0.001875432841291639 0.0 0.0
-0.0007837045715353569 0.0003808695923483383 0.0 0.0019499520343498624 0.0 0.0
-0.0004826080199630113 0.00018213587359724954 0.0 0.0019426961377972804 0.0 0.0
-0.00012180014678856838 -0.00021617513853270076 0.0 0.0015067701782823246 0.0 0.0
7.056614650879734e-05 -0.0005836458127926079 0.0 0.0009138727110101757 0.0 0.0
7.825987463931979e-06 -0.00036988669609040357 0.0 -0.0007524721906490364 0.0 0.0
-0.00017828543877540623 -0.00015021942249986213 0.0 -0.0012972364687824272 0.0 0.0
-0.0005582748084779739 0.00021661091549119674 0.0 -0.0017395464244171351 0.0 0.0
-0.0009208615080842687 0.0004320027181768841 0.0 -0.0017560552849607911 0.0 0.0
-0.0012736858334028024 0.000593136634427283 0.0 -0.0016473477998842757 0.0 0.0
-0.0017702352128005174 0.0007963017170485822 0.0 -0.0015256127214980206 0.0 0.0
-0.0026936776144781726 0.001326972494264889 0.0 -0.0016574560690388502 0.0 0.0
-0.004326559470277271 0.002584791383180869 0.0 -0.002297224254961209 0.0 0.0
-0.006752519618428746 0.004726095579073837 0.0 -0.003483034866583885 0.0 0.0
-0.009861423426742228 0.007593959506083601 0.0 -0.004910600466535863 0.0 0.0
-0.013547127599168204 0.01105803569852702 0.0 -0.006379394846372704 0.0 0.0
-0.017791637070333138 0.015075148728694567 0.0 -0.007821815002021795 0.0 0.0
-0.022654763325062485 0.01970018318493372 0.0 -0.009239885049637488 0.0 0.0
-0.028268924865124646 0.025078863942492577 0.0 -0.010713958454695107 0.0 0.0
-0.034783852956140046 0.031373507542327164 0.0 -0.012358731021249719 0.0 0.0
-0.04220178631093543 0.038640355969606556 0.0 -0.014399293529726638 0.0 0.0
-0.05005419030691971 0.0465053107082147 0.0 -0.017316521148430394 0.0 0.0
-0.05697927627328614 0.05368842690583396 0.0 -0.02153536628746745 0.0 0.0
-0.060362856228282205 0.05760856871461341 0.0 -0.026507255151285977 0.0 0.0
-0.05621130525458959 0.05431008796865128 0.0 -0.0302385653921331 0.0 0.0
-0.051666519068638755 0.03840494738347751 0.0 1.3911614915596004e-14 0.0 0.0
-0.05621130525458218 0.054310087968645615 0.0 0.0302385653921646 0.0 0.0
-0.06036285622826651 0.05760856871459444 0.0 0.02650725515131898 0.0 0.0
-0.05697927627326309 0.05368842690581071 0.0 0.021535366287486098 0.0 0.0
-0.05005419030689119 0.04650531070818422 0.0 0.017316521148431997 0.0 0.0
-0.04220178631090452 0.03864035596957595 0.0 0.014399293529720688 0.0 0.0
-0.034783852956109126 0.031373507542296106 0.0 0.01235873102124104 0.0 0.0
-0.028268924865093734 0.025078863942466834 0.0 0.010713958454687058 0.0 0.0
-0.022654763325031378 0.019700183184900563 0.0 0.009239885049627883 0.0 0.0
-0.017791637070303148 0.015075148728664944 0.0 0.007821815002008695 0.0 0.0
-0.013547127599141512 0.011058035698501344 0.0 0.0063793948463578085 0.0 0.0
-0.009861423426720058 0.007593959506061218 0.0 0.00491060046652298 0.0 0.0
-0.006752519618411949 0.004726095579061528 0.0 0.0034830348665743725 0.0 0.0
-0.0043265594702660065 0.0025847913831718783 0.0 0.0022972242549552145 0.0 0.0
-0.002693677614471956 0.0013269724942635177 0.0 0.0016574560690354085 0.0 0.0
-0.0017702352127978004 0.0007963017170462843 0.0 0.0015256127214978191 0.0 0.0
-0.0012736858334015172 0.0005931366344261878 0.0 0.001647347799881998 0.0 0.0
-0.0009208615080833614 0.0004320027181774712 0.0 0.00175605528495914 0.0 0.0
-0.0005582748084775245 0.00021661091549136322 0.0 0.0017395464244160525 0.0 0.0
-0.00017828543877532272 -0.0001502194224999776 0.0 0.0012972364687810958 0.0 0.0
7.82598746394838e-06 -0.0003698866960899695 0.0 0.0007524721906493199 0.0 0.0
-4.542857533619699e-05 -0.00020258428462434502 0.0 -0.000589016145673047 0.0 0.0
-0.0002293105479292766 -8.2926551917783e-05 0.0 -0.0010663096676512569 0.0 0.0
-0.0006308874084373196 0.0002520733150391749 0.0 -0.001487989266363731 0.0 0.0
-0.0010508473126291272 0.00047946989877562234 0.0 -0.0015073819183667994 0.0 0.0
-0.0014836063252845596 0.0006642220689673372 0.0 -0.0013660779495191517 0.0 0.0
-0.0021382480414095157 0.0009682907539284484 0.0 -0.0012259761483447572 0.0 0.0
-0.003366274149721694 0.0017849084954585214 0.0 -0.0014115222031262755 0.0 0.0
-0.0054301245133470295 0.003506118817412608 0.0 -0.0021611811569866458 0.0 0.0
-0.008344801035158438 0.006145816975374372 0.0 -0.0032829579725015003 0.0 0.0
-0.01201856427795759 0.009575149549958868 0.0 -0.004562354119101004 0.0 0.0
-0.016398344063607292 0.013715869036937334 0.0 -0.005903747341720674 0.0 0.0
-0.021476586458238276 0.018543652512435248 0.0 -0.007218542261155223 0.0 0.0
-0.027327153556171532 0.024132458042272247 0.0 -0.008527769231033742 0.0 0.0
-0.03409044409674964 0.03063478015960805 0.0 -0.009924434289099691 0.0 0.0
-0.041905214908911984 0.038207121288509734 0.0 -0.011489045361131085 0.0 0.0
-0.050780275885919976 0.0469018065791104 0.0 -0.013294877959958457 0.0 0.0
-0.06022025682270729 0.05634181754041191 0.0 -0.015673481392430282 0.0 0.0
-0.06860967514897988 0.06506379696839217 0.0 -0.01941044534316241 0.0 0.0
-0.07280344370009473 0.06995206572095322 0.0 -0.024929489156469403 0.0 0.0
-0.06816582390090248 0.06633625827964058 0.0 -0.03145382799096024 0.0 0.0
-0.06297440785259735 0.048236844288810234 0.0 1.3374717999781183e-14 0.0 0.0
-0.06816582390089283 0.06633625827962972 0.0 0.031453827990990356 0.0 0.0
-0.07280344370007537 0.0699520657209295 0.0 0.024929489156499188 0.0 0.0
-0.06860967514895272 0.06506379696836434 0.0 0.01941044534317858 0.0 0.0
-0.06022025682267427 0.05634181754038145 0.0 0.015673481392432874 0.0 0.0
-0.05078027588588403 0.04690180657907694 0.0 0.013294877959955143 0.0 0.0
-0.04190521490887565 0.03820712128847413 0.0 0.011489045361125846 0.0 0.0
-0.03409044409671277 0.030634780159577192 0.0 0.009924434289092432 0.0 0.0
-0.027327153556134617 0.02413245804223386 0.0 0.008527769231025611 0.0 0.0
-0.021476586458203255 0.01854365251240121 0.0 0.007218542261143145 0.0 0.0
-0.01639834406357606 0.01371586903690965 0.0 0.0059037473417069015 0.0 0.0
-0.012018564277931772 0.009575149549933819 0.0 0.004562354119088275 0.0 0.0
-0.008344801035138561 0.0061458169753563965 0.0 0.0032829579724939044 0.0 0.0
-0.00543012451333314 0.003506118817398685 0.0 0.002161181156980391 0.0 0.0
-0.003366274149713497 0.001784908495452646 0.0 0.001411522203123175 0.0 0.0
-0.0021382480414057496 0.0009682907539264661 0.0 0.0012259761483429089 0.0 0.0
-0.0014836063252832777 0.0006642220689677938 0.0 0.001366077949517779 0.0 0.0
-0.0010508473126281835 0.0004794698987763529 0.0 0.0015073819183656564 0.0 0.0
-0.0006308874084365566 0.00025207331503860947 0.0 0.0014879892663617633 0.0 0.0
-0.00022931054792898377 -8.292655191783148e-05 0.0 0.0010663096676505847 0.0 0.0
-4.542857533607346e-05 -0.00020258428462419767 0.0 0.0005890161456721598 0.0 0.0
-8.645933269275466e-05 -8.241744965058136e-05 0.0 -0.0004272856698807416 0.0 0.0
-0.0002717861428086921 -1.9029463265628794e-05 0.0 -0.0008166563936896862 0.0 0.0
-0.0006986047266481526 0.00028668543744451443 0.0 -0.0011871226946565153 0.0 0.0
-0.0011757135158504944 0.0005230471031297141 0.0 -0.0012028736039872755 0.0 0.0
-0.001698804881895178 0.0007353438175914809 0.0 -0.0010373618016129087 0.0 0.0
-0.002545213205726519 0.0011839418189822427 0.0 -0.0008936885685469128 0.0 0.0
-0.004109631323906059 0.002356966678838826 0.0 -0.0011612878433698221 0.0 0.0
-0.006574473327521241 0.004507243536139334 0.0 -0.0018634992225186595 0.0 0.0
-0.009940752223310674 0.007596305444945514 0.0 -0.0027792659280858724 0.0 0.0
-0.014178463151833423 0.011579436326004798 0.0 -0.003849589088306871 0.0 0.0
-0.019250634583330015 0.016392962049608047 0.0 -0.004972846946255433 0.0 0.0
-0.02516999036640679 0.02203714037983651 0.0 -0.006076229140846635 0.0 0.0
-0.03202396464275577 0.028603191294593037 0.0 -0.007183999061823899 0.0 0.0
-0.039943922463079734 0.03624561694977125 0.0 -0.008402803450681787 0.0 0.0
-0.04903835518170039 0.04508619542416574 0.0 -0.009799523783350587 0.0 0.0
-0.059264317608637415 0.055109339048755215 0.0 -0.011294017297122396 0.0 0.0
-0.07011929935046177 0.06591898323201693 0.0 -0.012854685353029851 0.0 0.0
-0.07993422543073778 0.07608839597096427 0.0 -0.015398375558836636 0.0 0.0
-0.08517250827461148 0.08219271169206437 0.0 -0.021201767872010183 0.0 0.0
-0.08042849888126492 0.07872887796726669 0.0 -0.03147427623561608 0.0 0.0
-0.07478163847779969 0.058729708616218984 0.0 1.3229001227799131e-14 0.0 0.0
-0.08042849888125377 0.07872887796725946 0.0 0.03147427623564455 0.0 0.0
-0.08517250827458887 0.08219271169203936 0.0 0.021201767872037196 0.0 0.0
-0.07993422543070591 0.07608839597093392 0.0 0.01539837555885103 0.0 0.0
-0.07011929935042371 0.06591898323198245 0.0 0.012854685353034722 0.0 0.0
-0.05926431760859651 0.055109339048715636 0.0 0.011294017297121277 0.0 0.0
-0.04903835518165862 0.04508619542412545 0.0 0.009799523783346932 0.0 0.0
-0.03994392246303751 0.03624561694973356 0.0 0.008402803450676302 0.0 0.0
-0.03202396464271356 0.028603191294552466 0.0 0.007183999061816682 0.0 0.0
-0.02516999036636659 0.022037140379797315 0.0 0.006076229140836527 0.0 0.0
-0.019250634583294565 0.01639296204957502 0.0 0.004972846946242965 0.0 0.0
-0.01417846315180368 0.01157943632597585 0.0 0.0038495890882962657 0.0 0.0
-0.009940752223287282 0.007596305444920971 0.0 0.002779265928078482 0.0 0.0
-0.006574473327504608 0.004507243536126124 0.0 0.0018634992225126392 0.0 0.0
-0.004109631323895969 0.0023569666788295592 0.0 0.0011612878433671357 0.0 0.0
-0.0025452132057217393 0.0011839418189784436 0.0 0.0008936885685452125 0.0 0.0
-0.0016988048818933072 0.0007353438175916762 0.0 0.0010373618016129799 0.0 0.0
-0.0011757135158495106 0.0005230471031294032 0.0 0.0012028736039864487 0.0 0.0
-0.0006986047266473869 0.0002866854374441801 0.0 0.0011871226946544866 0.0 0.0
-0.0002717861428081929 -1.9029463265518073e-05 0.0 0.000816656393688657 0.0 0.0
-8.645933269243035e-05 -8.24174496506189e-05 0.0 0.00042728566987982285 0.0 0.0
-0.0001106442868005746 -1.0345119974934404e-05 0.0 -0.00027662824325707394 0.0 0.0
-0.00030020420840167915 3.5517178956443935e-05 0.0 -0.0005518193229480241 0.0 0.0
-0.0007583595925824327 0.0003170514568167565 0.0 -0.000831426062446493 0.0 0.0
-0.0012990010118736732 0.0005644411221777388 0.0 -0.0008385912809050353 0.0 0.0
-0.0019304244373414868 0.0008181749424392974 0.0 -0.0006675451282567544 0.0 0.0
-0.003007059966417105 0.0014760535431212632 0.0 -0.0005566664511182611 0.0 0.0
-0.00489958922541891 0.00301888583581581 0.0 -0.0008421627255824282 0.0 0.0
-0.00772844998800112 0.005535493629050998 0.0 -0.0013412756130842048 0.0 0.0
-0.01153438122325907 0.009062298450924162 0.0 -0.002006179937457353 0.0 0.0
-0.01632680990969281 0.013587806275099154 0.0 -0.0027831668855120496 0.0 0.0
-0.022092000578684528 0.019072202270622125 0.0 -0.0036004387654130702 0.0 0.0
-0.028858950153143104 0.025539483358123293 0.0 -0.004401633226201741 0.0 0.0
-0.03672550598834798 0.033096155770023006 0.0 -0.005219005700128717 0.0 0.0
-0.04581805055266256 0.04189018446411653 0.0 -0.006165063227839057 0.0 0.0
-0.05617435143125264 0.05198787717520641 0.0 -0.007267374579674768 0.0 0.0
-0.0676252686633355 0.063250701629692 0.0 -0.008374851435008868 0.0 0.0
-0.07963593506279709 0.07517449686832703 0.0 -0.009196965134368566 0.0 0.0
-0.09077653362486567 0.08650665047742376 0.0 -0.010152191040863798 0.0 0.0
-0.09744263348689856 0.09418913757726279 0.0 -0.014742895388122644 0.0 0.0
-0.09326124554998756 0.09180701393046992 0.0 -0.029399181812066133 0.0 0.0
-0.08750614091679201 0.07040076359061762 0.0 9.321536598161373e-15 0.0 0.0
-0.0932612455499739 0.0918070139304605 0.0 0.029399181812087907 0.0 0.0
-0.09744263348687217 0.09418913757723361 0.0 0.014742895388143572 0.0 0.0
-0.09077653362482886 0.08650665047738826 0.0 0.010152191040874788 0.0 0.0
-0.07963593506275386 0.07517449686828513 0.0 0.009196965134370745 0.0 0.0
-0.06762526866328937 0.06325070162964501 0.0 0.008374851435006565 0.0 0.0
-0.05617435143120554 0.0519878771751619 0.0 0.007267374579671878 0.0 0.0
-0.045818050552614856 0.041890184464071126 0.0 0.006165063227835044 0.0 0.0
-0.03672550598830059 0.03309615576997402 0.0 0.005219005700122954 0.0 0.0
-0.028858950153098282 0.025539483358078863 0.0 0.00440163322619491 0.0 0.0
-0.02209200057864486 0.01907220227058583 0.0 0.003600438765404588 0.0 0.0
-0.016326809909659838 0.013587806275066512 0.0 0.0027831668855059694 0.0 0.0
-0.011534381223232974 0.009062298450896955 0.0 0.0020061799374517446 0.0 0.0
-0.007728449987981742 0.005535493629036546 0.0 0.001341275613079154 0.0 0.0
-0.0048995892254066085 0.0030188858358060956 0.0 0.0008421627255792744 0.0 0.0
-0.003007059966411109 0.001476053543116413 0.0 0.0005566664511173978 0.0 0.0
-0.0019304244373391896 0.0008181749424387831 0.0 0.0006675451282568562 0.0 0.0
-0.001299001011872638 0.0005644411221772892 0.0 0.0008385912809035969 0.0 0.0
-0.0007583595925817169 0.0003170514568169589 0.0 0.0008314260624464841 0.0 0.0
-0.0003002042084014088 3.551717895674758e-05 0.0 0.0005518193229467394 0.0 0.0
-0.00011064428680061362 -1.0345119975052508e-05 0.0 0.0002766282432569136 0.0 0.0
-0.00010998429599543382 1.3607576966211121e-05 0.0 -0.00015793294880485893 0.0 0.0
-0.00030519930856827036 7.124442854614795e-05 0.0 -0.0002762688805036457 0.0 0.0
-0.0008053317899446115 0.00033827767166483676 0.0 -0.00040662605626377315 0.0 0.0
-0.0014274992536212683 0.0006080017155488382 0.0 -0.0004068467020486919 0.0 0.0
-0.0021971044455149852 0.0009324711085026381 0.0 -0.00027070678113512214 0.0 0.0
-0.0035188849721636013 0.0018509715802146123 0.0 -0.000211370071411945 0.0 0.0
-0.00571404331571867 0.0037270796120876335 0.0 -0.0003810318711895082 0.0 0.0
-0.008879838237434256 0.006577544392231262 0.0 -0.0006343951916462255 0.0 0.0
-0.013111496770681349 0.010526676006424034 0.0 -0.0009697670575022684 0.0 0.0
-0.018450464695606666 0.015582414550913068 0.0 -0.0013713310583593648 0.0 0.0
-0.024908059407170394 0.021737480507459276 0.0 -0.001787933193692938 0.0 0.0
-0.03253140320608742 0.02903886180090335 0.0 -0.002197524701862929 0.0 0.0
-0.041424598884158975 0.037599052944957995 0.0 -0.002657264635765493 0.0 0.0
-0.051681646093962356 0.04753856004718836 0.0 -0.003203254847414798 0.0 0.0
-0.06327455502123079 0.05887128407683323 0.0 -0.0038371659347261645 0.0 0.0
-0.07589534596364003 0.07132749972216468 0.0 -0.004477567404754278 0.0 0.0
-0.08881491024042903 0.0841931233614112 0.0 -0.004853884100493587 0.0 0.0
-0.10081549427774918 0.09621376242333522 0.0 -0.004811382954713003 0.0 0.0
-0.10929951663079848 0.10516768303978162 0.0 -0.0064837108705987296 0.0 0.0
-0.10702731082525857 0.10573324591571757 0.0 -0.020780922792925507 0.0 0.0
-0.10185695636088904 0.08478975334787414 0.0 4.147723831060546e-15 0.0 0.0
-0.10702731082524292 0.105733245915702 0.0 0.020780922792935613 0.0 0.0
-0.10929951663076835 0.10516768303974978 0.0 0.006483710870609697 0.0 0.0
-0.10081549427770697 0.09621376242328665 0.0 0.004811382954720238 0.0 0.0
-0.08881491024038034 0.08419312336136561 0.0 0.00485388410049553 0.0 0.0
-0.0758953459635887 0.07132749972211526 0.0 0.004477567404754199 0.0 0.0
-0.06327455502117808 0.05887128407678355 0.0 0.003837165934724102 0.0 0.0
-0.051681646093909156 0.0475385600471345 0.0 0.0032032548474127077 0.0 0.0
-0.041424598884105955 0.03759905294490428 0.0 0.002657264635761528 0.0 0.0
-0.0325314032060373 0.029038861800853896 0.0 0.002197524701860013 0.0 0.0
-0.02490805940712636 0.02173748050741886 0.0 0.0017879331936878932 0.0 0.0
-0.018450464695570174 0.015582414550876184 0.0 0.0013713310583561111 0.0 0.0
-0.013111496770652398 0.010526676006396452 0.0 0.0009697670574999758 0.0 0.0
-0.008879838237412686 0.006577544392209906 0.0 0.0006343951916430687 0.0 0.0
-0.005714043315704363 0.003727079612076187 0.0 0.0003810318711876618 0.0 0.0
-0.003518884972156045 0.0018509715802085508 0.0 0.00021137007141237997 0.0 0.0
-0.002197104445512125 0.0009324711085032492 0.0 0.00027070678113588125 0.0 0.0
-0.001427499253620047 0.0006080017155489595 0.0 0.00040684670204828966 0.0 0.0
-0.0008053317899437279 0.0003382776716643865 0.0 0.0004066260562636231 0.0 0.0
-0.00030519930856770224 7.124442854645044e-05 0.0 0.0002762688805030737 0.0 0.0
-0.00010998429599507251 1.3607576966084403e-05 0.0 0.00015793294880454072 0.0 0.0
-6.980159957583126e-05 1.366174900847602e-05 0.0 -9.961572627823729e-05 0.0 0.0
-0.00027063684863002984 8.289182630455663e-05 0.0 -0.00011467699580144466 0.0 0.0
-0.000832779861341333 0.0003459559111823172 0.0 -0.00013889030696516964 0.0 0.0
-0.0015745331454541968 0.0006308582717338972 0.0 -0.00012674443621284835 0.0 0.0
-0.00251189386358398 0.0010015610915352848 0.0 3.2415588059181964e-05 0.0 0.0
-0.004069210882560964 0.002055058479065369 0.0 0.0001801670701872061 0.0 0.0
-0.00653637677528984 0.004088146394656276 0.0 0.0002207785101404734 0.0 0.0
-0.010019019273061602 0.007100791732313348 0.0 0.0002357851715913908 0.0 0.0
-0.01465957861187823 0.011256017287560968 0.0 0.0002343469895676911 0.0 0.0
-0.020534912098244616 0.016574323469676706 0.0 0.00019501938574593655 0.0 0.0
-0.02768642359648416 0.023064170228201925 0.0 0.00016540938842760262 0.0 0.0
-0.03618079768110942 0.030787047222629194 0.0 0.00014203081002221426 0.0 0.0
-0.046097882873565185 0.039851735257582566 0.0 5.815076133063816e-05 0.0 0.0
-0.057499864656658094 0.0503584790018838 0.0 -5.246946765951645e-05 0.0 0.0
-0.07030769377431399 0.06230325422498405 0.0 -0.00026276173907744706 0.0 0.0
-0.08407911506990774 0.07534975785422743 0.0 -0.0005701663031945775 0.0 0.0
-0.09784822893843653 0.08866162418616123 0.0 -0.0008640609673545765 0.0 0.0
-0.11014185407636462 0.10090252599731342 0.0 -0.0009184318347942137 0.0 0.0
-0.11938004464558619 0.11024338694624013 0.0 -0.0013374890241838206 0.0 0.0
-0.12170490873361099 0.11290325651002678 0.0 -0.01463973564212151 0.0 0.0
-0.1203580974506653 0.09296767382181592 0.0 1.942890293094024e-15 0.0 0.0
-0.12170490873359371 0.11290325651001314 0.0 0.014639735642124499 0.0 0.0
-0.11938004464555164 0.11024338694621014 0.0 0.0013374890241858017 0.0 0.0
-0.11014185407631603 0.10090252599725937 0.0 0.0009184318347965868 0.0 0.0
-0.09784822893838171 0.08866162418611656 0.0 0.0008640609673561811 0.0 0.0
-0.08407911506985088 0.075349757854176 0.0 0.000570166303196543 0.0 0.0
-0.07030769377425528 0.062303254224932186 0.0 0.00026276173907469405 0.0 0.0
-0.057499864656598926 0.050358479001824406 0.0 5.2469467658974346e-05 0.0 0.0
-0.04609788287350713 0.03985173525752963 0.0 -5.815076133244314e-05 0.0 0.0
-0.03618079768105448 0.030787047222577475 0.0 -0.00014203081002402574 0.0 0.0
-0.02768642359643597 0.023064170228156967 0.0 -0.00016540938842928054 0.0 0.0
-0.02053491209820501 0.016574323469638334 0.0 -0.00019501938574549875 0.0 0.0
-0.014659578611846942 0.011256017287534292 0.0 -0.00023434698956740357 0.0 0.0
-0.010019019273037605 0.007100791732287217 0.0 -0.00023578517159286 0.0 0.0
-0.0065363767752732345 0.0040881463946443024 0.0 -0.00022077851014056947 0.0 0.0
-0.004069210882551993 0.002055058479057565 0.0 -0.00018016707018596247 0.0 0.0
-0.002511893863580513 0.0010015610915362358 0.0 -3.24155880582238e-05 0.0 0.0
-0.0015745331454530113 0.0006308582717337104 0.0 0.00012674443621281392 0.0 0.0
-0.0008327798613406124 0.00034595591118112426 0.0 0.0001388903069643803 0.0 0.0
-0.0002706368486297791 8.289182630504571e-05 0.0 0.0001146769958005971 0.0 0.0
-6.98015995760793e-05 1.3661749008283453e-05 0.0 9.961572627655959e-05 0.0 0.0
SCALARS Statev float 8
LOOKUP_TABLE default
0.0 0.015205873143569273 0.012076616718707519 -0.014558632779252189 0.002482016060544683 -0.0006068389153665554 0.0 0.0
0.0 0.0048011725622263786 0.0034553379979789193 -0.0020006793718749375 -0.0014546586261039783 -0.005851275518408421 0.0 0.0
0.0 5.67057567779337e-06 4.564799135317317e-05 -2.984424128858471e-05 -1.5803750064588606e-05 -0.00014778884466199087 0.0 0.0
0.0 9.733463426860107e-05 1.416105934619648e-05 -9.954319986855833e-06 -4.206739359340733e-06 7.621927036402868e-06 0.0 0.0
0.0 0.0006039340609724757 0.0003026770762425409 -0.00021852155111715544 -8.415552512538591e-05 7.525741143087304e-05 0.0 0.0
0.0 0.0014408228877121345 0.0014860192996715693 -0.0011477422039491332 -0.0003382770957224355 0.0001547783290457473 0.0 0.0
0.0 0.0038566920480995843 0.0035697570010415495 -0.002954347373223378 -0.0006154096278181699 0.00021326984911185717 0.0 0.0
0.0 0.00739473648157939 0.006756662570301772 -0.0058920768195218805 -0.0008645857507798949 0.0002439138138154979 0.0 0.0
0.0 0.012315266684492402 0.011110845585259568 -0.010041294266509767 -0.0010695513187497967 0.0002548779334064119 0.0 0.0
0.0 0.01870326910965827 0.016676279030355595 -0.015405819462594023 -0.0012704595677615874 0.0002332986312939537 0.0 0.0
0.0 0.02658820102687893 0.023491131143589163 -0.0219953995696732 -0.0014957315739159503 0.00022017541924357353 0.0 0.0
0.0 0.0357254147816294 0.031632959517662707 -0.02987966527592037 -0.0017532942417423439 0.00020935270612387237 0.0 0.0
0.0 0.04657339398471438 0.04118771564056871 -0.03915198892430263 -0.002035726716266076 0.0001317568890369104 0.0 0.0
0.0 0.05916317782669121 0.052235892698797595 -0.04990148400118206 -0.002334408697615539 3.955788687543709e-05 0.0 0.0
0.0 0.073492422353247 0.06477129691056896 -0.062137577459217275 -0.0026337194513516167 -0.00012505131407355746 0.0 0.0
0.0 0.08930821609768523 0.07853639176849166 -0.07561905466983027 -0.0029173370986613654 -0.0003798003643054337 0.0 0.0
0.0 0.10584780655204569 0.0929013579394222 -0.08973040129519602 -0.0031709566442262266 -0.0006862818419938184 0.0 0.0
0.0 0.12191394408247365 0.10683916551009796 -0.10345922285271364 -0.003379942657384174 -0.0009266902791909429 0.0 0.0
0.0 0.13597635177817885 0.11903066465008773 -0.11549454806413803 -0.0035361165859498353 -0.0009336914264807328 0.0 0.0
0.0 0.14608887898425757 0.12797610772907547 -0.12435497700075314 -0.0036211307283223883 -0.0009323998758448506 0.0 0.0
0.0 0.15008177710240805 0.1314782840013775 -0.1278664794437022 -0.0036118045576753956 1.8639603749370792e-15 0.0 0.0
0.0 0.14608887898424228 0.1279761077290616 -0.12435497700074025 -0.0036211307283212386 0.0009323998758505557 0.0 0.0
0.0 0.13597635177814374 0.1190306646500569 -0.11549454806410847 -0.0035361165859484206 0.0009336914264849042 0.0 0.0
0.0 0.12191394408242652 0.1068391655100562 -0.10345922285267395 -0.003379942657382217 0.0009266902791947714 0.0 0.0
0.0 0.10584780655198438 0.09290135793936886 -0.08973040129514387 -0.003170956644225055 0.0006862818419935642 0.0 0.0
0.0 0.08930821609762483 0.07853639176843837 -0.07561905466977864 -0.0029173370986597643 0.0003798003643038319 0.0 0.0
0.0 0.07349242235318595 0.06477129691051542 -0.062137577459165344 -0.002633719451350045 0.00012505131407347658 0.0 0.0
0.0 0.05916317782662586 0.05223589269874066 -0.04990148400112611 -0.0023344086976145864 -3.95578868761454e-05 0.0 0.0
0.0 0.04657339398465219 0.04118771564051431 -0.0391519889242497 -0.0020357267162645605 -0.00013175688903775337 0.0 0.0
0.0 0.03572541478157245 0.03163295951761268 -0.02987966527587169 -0.001753294241741011 -0.00020935270612563962 0.0 0.0
0.0 0.026588201026830217 0.02349113114354636 -0.021995399569631698 -0.0014957315739146527 -0.00022017541924467476 0.0 0.0
0.0 0.01870326910961918 0.016676279030321383 -0.015405819462560952 -0.0012704595677604541 -0.00023329863129502803 0.0 0.0
0.0 0.012315266684460388 0.01111084558523103 -0.010041294266482398 -0.0010695513187486188 -0.0002548779334065424 0.0 0.0
0.0 0.007394736481559077 0.0067566625702830466 -0.005892076819504372 -0.0008645857507786718 -0.00024391381381523933 0.0 0.0
0.0 0.003856692048087237 0.003569757001029457 -0.0029543473732125533 -0.0006154096278168993 -0.00021326984911192363 0.0 0.0
0.0 0.0014408228877059975 0.0014860192996649757 -0.001147742203943787 -0.0003382770957211884 -0.00015477832904517685 0.0 0.0
0.0 0.0006039340609689548 0.0003026770762402844 -0.0002185215511155064 -8.415552512477717e-05 -7.525741143042277e-05 0.0 0.0
0.0 9.733463426771814e-05 1.4161059346172738e-05 -9.954319986846719e-06 -4.2067393593255224e-06 -7.621927036336053e-06 0.0 0.0
0.0 5.670575677347136e-06 4.564799135295751e-05 -2.9844241288435562e-05 -1.5803750064521426e-05 0.0001477888446611854 0.0 0.0
0.0 0.00480117256221758 0.0034553379979742936 -0.002000679371871838 -0.0014546586261024487 0.005851275518399707 0.0 0.0
0.0 0.01520587314355011 0.012076616718694377 -0.014558632779233978 0.0024820160605395947 0.0006068389153354277 0.0 0.0
0.0 0.012235793001297639 0.009042130537053383 -0.01188118151731257 0.0028390509802591873 -0.00016078865822256524 0.0 0.0
0.0 0.0027747200070896614 0.0019804923113897308 -0.0011085643509332554 -0.0008719279604564757 -0.004391417779078783 0.0 0.0
0.0 -2.9746712722105783e-05 -3.999580685340846e-05 3.380205440195785e-05 6.1937524514506515e-06 -2.814191088241134e-05 0.0 0.0
0.0 9.698101806864279e-06 1.395394462887238e-06 -9.581495309617403e-07 -4.372449319255357e-07 3.963799893298771e-06 0.0 0.0
0.0 0.00027316689868165614 0.00017099840146747057 -0.0001243378632038391 -4.666053826363125e-05 3.0845825599957174e-05 0.0 0.0
0.0 0.0012884132323619383 0.001062545650642142 -0.0008277582592530077 -0.00023478739138913646 4.9538022293343935e-05 0.0 0.0
0.0 0.0032039189208525596 0.002967974811686064 -0.0024814406230514855 -0.00048653418863457324 -0.00010666421361669671 0.0 0.0
0.0 0.006485106695568811 0.005883229927962507 -0.005191511186872231 -0.0006917187410902798 -0.0003506407789489636 0.0 0.0
0.0 0.011071713988484465 0.009893913346416934 -0.009060705692386102 -0.0008332076540308309 -0.0006838013340727756 0.0 0.0
0.0 0.01695077462111045 0.01501405219167511 -0.014069169378764842 -0.0009448828129102692 -0.0010812589440378749 0.0 0.0
0.0 0.02416108594514179 0.021255222295576713 -0.020203667930858624 -0.0010515543647181122 -0.0014991476127321427 0.0 0.0
0.0 0.032865508409211805 0.028672473544874337 -0.02751161123033359 -0.0011608623145407159 -0.0019183028744462686 0.0 0.0
0.0 0.042610217366219054 0.03738226394327015 -0.03610978461409862 -0.001272479329171511 -0.002394401627534623 0.0 0.0
0.0 0.054248710087717304 0.04748085161215725 -0.046101358626182025 -0.0013794929859752107 -0.002946115829578404 0.0 0.0
0.0 0.06749252557548031 0.05897683259168316 -0.057506105309102495 -0.0014707272825806596 -0.0035662783389601603 0.0 0.0
0.0 0.08211807229519684 0.07164589613101771 -0.0701092681481505 -0.0015366279828672397 -0.004224657902605638 0.0 0.0
0.0 0.09749248499296699 0.08491535036378355 -0.08334385844046908 -0.001571491923314353 -0.004766515147076228 0.0 0.0
0.0 0.11252697958861722 0.09784811127125237 -0.09627109599420589 -0.0015770152770465755 -0.004906014709797109 0.0 0.0
0.0 0.12572469059284258 0.10919858893357307 -0.107642714916123 -0.0015558740174499638 -0.004382253194050721 0.0 0.0
0.0 0.1353038431900312 0.11738624559143529 -0.1159057260411227 -0.0014805195503125937 -0.0033554068887913496 0.0 0.0
0.0 0.13921964454621458 0.12053617634569884 -0.11917190367829496 -0.0013642726674038916 4.5384702940243216e-15 0.0 0.0
0.0 0.13530384319001512 0.11738624559142098 -0.11590572604110841 -0.0014805195503125282 0.0033554068888044315 0.0 0.0
0.0 0.1257246905928122 0.10919858893354625 -0.10764271491609732 -0.0015558740174488716 0.004382253194063723 0.0 0.0
0.0 0.11252697958857306 0.09784811127121401 -0.09627109599416789 -0.0015770152770461002 0.00490601470980588 0.0 0.0
0.0 0.09749248499291156 0.0849153503637361 -0.08334385844042157 -0.001571491923314541 0.0047665151470774655 0.0 0.0
0.0 0.08211807229514173 0.07164589613096962 -0.07010926814810287 -0.0015366279828666312 0.004224657902603526 0.0 0.0
0.0 0.06749252557542444 0.058976832591634464 -0.05750610530905458 -0.001470727282579912 0.0035662783389591025 0.0 0.0
0.0 0.05424871008765838 0.04748085161210619 -0.046101358626131204 -0.001379492985974957 0.002946115829576816 0.0 0.0
0.0 0.04261021736616174 0.03738226394322059 -0.03610978461404945 -0.0012724793291711404 0.0023944016275317752 0.0 0.0
0.0 0.03286550840915917 0.028672473544828297 -0.027511611230287978 -0.001160862314540283 0.001918302874442618 0.0 0.0
0.0 0.02416108594509619 0.021255222295537043 -0.02020366793081956 -0.0010515543647175128 0.0014991476127279527 0.0 0.0
0.0 0.016950774621075065 0.015014052191643616 -0.014069169378734057 -0.0009448828129095376 0.0010812589440345496 0.0 0.0
0.0 0.011071713988456154 0.009893913346391357 -0.00906070569236125 -0.0008332076540301075 0.0006838013340704642 0.0 0.0
0.0 0.0064851066955494575 0.005883229927944694 -0.0051915111868553725 -0.0006917187410893227 0.0003506407789471433 0.0 0.0
0.0 0.003203918920841342 0.0029679748116753315 -0.002481440623041861 -0.00048653418863346887 0.00010666421361563196 0.0 0.0
0.0 0.0012884132323551995 0.0010625456506362877 -0.0008277582592482255 -0.00023478739138806164 -4.953802229352278e-05 0.0 0.0
0.0 0.0002731668986793932 0.00017099840146619103 -0.0001243378632029115 -4.6660538263279804e-05 -3.084582559961427e-05 0.0 0.0
0.0 9.698101806347926e-06 1.395394463068047e-06 -9.581495311007192e-07 -4.3724493196716166e-07 -3.963799893290794e-06 0.0 0.0
0.0 -2.974671272200532e-05 -3.999580685318984e-05 3.3802054401763557e-05 6.193752451426149e-06 2.814191088222699e-05 0.0 0.0
0.0 0.002774720007081178 0.001980492311384986 -0.0011085643509300398 -0.0008719279604549456 0.0043914177790689395 0.0 0.0
0.0 0.012235793001277463 0.009042130537037965 -0.011881181517292798 0.0028390509802548205 0.0001607886581998053 0.0 0.0
0.0 0.008917903428343579 0.006443922271946059 -0.008719292266576917 0.002275369994630855 -0.0022434076544687077 0.0 0.0
0.0 0.00192475484331016 0.0012063143292177427 -0.0006060911284748513 -0.0006002232007428917 -0.0034140368739298396 0.0 0.0
0.0 1.2634912319597936e-08 -1.3678156687548327e-09 1.0394932843731892e-09 3.2832238438154863e-10 4.875689838480855e-10 0.0 0.0
0.0 2.477565359106316e-06 4.787817834231562e-07 -3.811517933361588e-07 -9.762999008712263e-08 -3.1540465867712257e-07 0.0 0.0
0.0 8.1327562931644e-05 4.8760975530248935e-05 -3.360237272102988e-05 -1.5158602809219333e-05 1.4479159981089609e-05 0.0 0.0
0.0 0.0008662303157777665 0.0006490803128826769 -0.0004932129396857173 -0.00015586737319695908 -1.1938728655936995e-05 0.0 0.0
0.0 0.002373341147183343 0.002258515256557492 -0.0018485498821605713 -0.00040996537439692165 -0.0003195276721478206 0.0 0.0
0.0 0.005313310770058453 0.004827578296809534 -0.004198591979179931 -0.0006289863176296022 -0.0008089249959654048 0.0 0.0
0.0 0.009383014517258903 0.008413440429948167 -0.0076298437738490325 -0.0007835966560991279 -0.001463677647611817 0.0 0.0
0.0 0.014693712676072102 0.012991047972766638 -0.012094548397382865 -0.000896499575383782 -0.002233230674891608 0.0 0.0
0.0 0.021144717008446202 0.018545875346331737 -0.01754749498588386 -0.0009983803604478546 -0.003052797964410618 0.0 0.0
0.0 0.02866271895308304 0.025115627833004542 -0.024014354463911695 -0.0011012733690928327 -0.003873643577098767 0.0 0.0
0.0 0.03771859122599397 0.03280385705475746 -0.031598014438229925 -0.0012058426165275544 -0.0047233464575466705 0.0 0.0
0.0 0.04777299403520043 0.04175205945042022 -0.04044653631530202 -0.0013055231351181901 -0.005697714947984547 0.0 0.0
0.0 0.059593194584934325 0.051984432616846335 -0.050593456231735605 -0.0013909763851107603 -0.0068122327272769735 0.0 0.0
0.0 0.07268911502243136 0.06331958187728733 -0.06186636523231776 -0.0014532166449695183 -0.007964794862887849 0.0 0.0
0.0 0.08652200335084648 0.07527614810174305 -0.07378735577326542 -0.0014887923284776202 -0.008884711861894675 0.0 0.0
0.0 0.10012726091101257 0.08703040338900246 -0.08553431931361859 -0.0014960840753838577 -0.009114755762944914 0.0 0.0
0.0 0.11216387276937305 0.09740149169022683 -0.09593422312874819 -0.0014672685614786245 -0.008243235506256373 0.0 0.0
0.0 0.12089847032897506 0.10489486024010244 -0.10348008436118782 -0.0014147758789145187 -0.006149988573729641 0.0 0.0
0.0 0.12459013362657752 0.10785303987326075 -0.10658334381605315 -0.0012696960572075422 9.667180250749752e-15 0.0 0.0
0.0 0.12089847032896023 0.10489486024008884 -0.10348008436117413 -0.0014147758789147405 0.006149988573752733 0.0 0.0
0.0 0.11216387276934658 0.09740149169020339 -0.0959342231287254 -0.0014672685614780007 0.008243235506280235 0.0 0.0
0.0 0.1001272609109743 0.08703040338896896 -0.08553431931358557 -0.0014960840753833005 0.009114755762959741 0.0 0.0
0.0 0.0865220033507984 0.07527614810170204 -0.07378735577322439 -0.0014887923284776763 0.00888471186189619 0.0 0.0
0.0 0.07268911502238293 0.06331958187724505 -0.06186636523227612 -0.0014532166449689118 0.007964794862884025 0.0 0.0
0.0 0.059593194584883255 0.05198443261680201 -0.05059345623169168 -0.001390976385110341 0.006812232727275271 0.0 0.0
0.0 0.047772994035149924 0.041752059450376154 -0.04044653631525878 -0.0013055231351173778 0.005697714947982251 0.0 0.0
0.0 0.037718591225945494 0.03280385705471536 -0.03159801443818832 -0.0012058426165270438 0.004723346457541352 0.0 0.0
0.0 0.028662718953034624 0.025115627832962745 -0.02401435446387013 -0.0011012733690926074 0.0038736435770919393 0.0 0.0
0.0 0.021144717008406998 0.01854587534629699 -0.017547494985849805 -0.0009983803604471761 0.0030527979644037837 0.0 0.0
0.0 0.014693712676040714 0.012991047972738584 -0.01209454839735542 -0.0008964995753831623 0.002233230674885338 0.0 0.0
0.0 0.009383014517234018 0.008413440429925879 -0.0076298437738275115 -0.0007835966560983695 0.0014636776476073144 0.0 0.0
0.0 0.005313310770040051 0.004827578296793028 -0.004198591979164458 -0.0006289863176285696 0.0008089249959617071 0.0 0.0
0.0 0.0023733411471733717 0.002258515256547849 -0.00184854988215219 -0.0004099653743956588 0.0003195276721458814 0.0 0.0
0.0 0.0008662303157723635 0.0006490803128782718 -0.0004932129396822493 -0.00015586737319602214 1.1938728655467223e-05 0.0 0.0
0.0 8.132756293072954e-05 4.87609755301657e-05 -3.3602372721001254e-05 -1.515860280916444e-05 -1.4479159980791735e-05 0.0 0.0
0.0 2.4775653587987124e-06 4.787817834223733e-07 -3.811517933340811e-07 -9.762999008827014e-08 3.1540465865964606e-07 0.0 0.0
0.0 1.2634912310065045e-08 -1.367815667713223e-09 1.0394932835817643e-09 3.283223841315191e-10 -4.875689834762404e-10 0.0 0.0
0.0 0.0019247548433033836 0.0012063143292136735 -0.0006060911284721858 -0.0006002232007414866 0.0034140368739190028 0.0 0.0
0.0 0.008917903428323572 0.006443922271931308 -0.008719292266557786 0.0022753699946264807 0.002243407654453291 0.0 0.0
0.0 0.006621757047365896 0.0046476015674436835 -0.006427727497322516 0.0017801259298788267 -0.0024788986195771676 0.0 0.0
0.0 0.001318407424218778 0.0007741110669936642 -0.00037277212393597243 -0.00040133894305769064 -0.0024618502131649165 0.0 0.0
0.0 0.0 0.0 0.0 0.0 0.0 0.0 0.0
0.0 -2.9931660733322555e-07 2.832691729209774e-08 -1.7869945520485487e-08 -1.045697177161585e-08 -2.7253493675792807e-08 0.0 0.0
0.0 1.5013907991076827e-05 -8.181258886302868e-06 7.364292172196185e-06 8.169667141069279e-07 1.2218330704761282e-05 0.0 0.0
0.0 0.0004289769973078935 0.0003457218010919889 -0.00025663756752622533 -8.908423356576286e-05 -4.311245710536378e-05 0.0 0.0
0.0 0.001817134827045327 0.001563272624559835 -0.0012481331230137828 -0.00031513950154605076 -0.00036289642890315825 0.0 0.0
0.0 0.00417605138042789 0.0037877768586910285 -0.0032360736053946137 -0.000551703253296417 -0.0010760838096536614 0.0 0.0
0.0 0.007765805128108417 0.006932329855662381 -0.006209264313873854 -0.0007230655417885236 -0.0019832677095087525 0.0 0.0
0.0 0.012443854829051424 0.010959277147741961 -0.010117706751198972 -0.0008415703965429809 -0.0030463650416027014 0.0 0.0
0.0 0.01806021223287009 0.015828677213490974 -0.0148886629772834 -0.0009400142362075612 -0.004175692561008411 0.0 0.0
0.0 0.024762607873527312 0.02155455770078846 -0.02051827934170732 -0.0010362783590811286 -0.005304580709172932 0.0 0.0
0.0 0.03236203035691052 0.02824101715098448 -0.027106631556140393 -0.0011343855948440867 -0.006459849028251241 0.0 0.0
0.0 0.041594035445369035 0.03601924893220555 -0.034793067987341705 -0.0012261809448638429 -0.007738897585132984 0.0 0.0
0.0 0.05183898569462678 0.044964495268912226 -0.04365921821121499 -0.0013052770576972147 -0.009196756181986494 0.0 0.0
0.0 0.06320685920452526 0.054949766891576844 -0.05358361063188415 -0.0013661562596926724 -0.010723553814677277 0.0 0.0
0.0 0.07558722163781 0.06558095536451175 -0.06417811295459434 -0.0014028424099173965 -0.011960101956290823 0.0 0.0
0.0 0.08782936883318813 0.07615481278494371 -0.07474421705160736 -0.0014105957333363504 -0.012341604669183553 0.0 0.0
0.0 0.09874644589812667 0.08560489137004652 -0.08421800586976493 -0.0013868855002815126 -0.011287104173221244 0.0 0.0
0.0 0.10678720047925017 0.09258748546587706 -0.09124166586751255 -0.0013458195983646136 -0.008218247241516912 0.0 0.0
0.0 0.11043977444199249 0.09548927631306989 -0.09434791356219721 -0.001141362750872723 1.3333518317226734e-14 0.0 0.0
0.0 0.10678720047923723 0.09258748546586454 -0.09124166586750014 -0.001345819598364419 0.008218247241547846 0.0 0.0
0.0 0.09874644589810444 0.08560489137002623 -0.08421800586974527 -0.0013868855002809421 0.011287104173252181 0.0 0.0
0.0 0.08782936883315426 0.0761548127849138 -0.07474421705157772 -0.0014105957333360748 0.012341604669201253 0.0 0.0
0.0 0.07558722163776979 0.06558095536447726 -0.06417811295456041 -0.0014028424099168666 0.011960101956292915 0.0 0.0
0.0 0.06320685920448277 0.05494976689153986 -0.053583610631847634 -0.001366156259692214 0.010723553814671969 0.0 0.0
0.0 0.051838985694581986 0.04496449526887334 -0.0436592182111765 -0.0013052770576968537 0.009196756181982778 0.0 0.0
0.0 0.04159403544532521 0.03601924893216712 -0.034793067987304055 -0.0012261809448630438 0.007738897585129099 0.0 0.0
0.0 0.03236203035686847 0.028241017150948216 -0.02710663155610477 -0.0011343855948434504 0.006459849028244939 0.0 0.0
0.0 0.024762607873486185 0.021554557700752385 -0.020518279341671622 -0.0010362783590807704 0.005304580709163625 0.0 0.0
0.0 0.018060212232835073 0.015828677213460207 -0.014888662977253282 -0.0009400142362069167 0.004175692560999363 0.0 0.0
0.0 0.012443854829022846 0.010959277147716821 -0.010117706751174495 -0.0008415703965423203 0.003046365041594111 0.0 0.0
0.0 0.007765805128085706 0.00693232985564233 -0.00620926431385456 -0.0007230655417877718 0.001983267709502729 0.0 0.0
0.0 0.0041760513804136555 0.003787776858677584 -0.003236073605382179 -0.0005517032532954035 0.0010760838096491227 0.0 0.0
0.0 0.0018171348270355939 0.0015632726245517602 -0.0012481331230069408 -0.0003151395015448198 0.00036289642890059747 0.0 0.0
0.0 0.00042897699730424485 0.00034572180108949173 -0.00025663756752434955 -8.908423356514202e-05 4.3112457104957926e-05 0.0 0.0
0.0 1.5013907990546246e-05 -8.181258885964268e-06 7.3642921719197165e-06 8.169667140445178e-07 -1.2218330704444839e-05 0.0 0.0
0.0 -2.993166072529266e-07 2.8326917232692493e-08 -1.7869945473829224e-08 -1.0456971758850784e-08 2.7253493630723342e-08 0.0 0.0
0.0 0.0 0.0 0.0 0.0 0.0 0.0 0.0
0.0 0.0013184074242125303 0.000774111066990075 -0.00037277212393357705 -0.00040133894305649975 0.0024618502131552185 0.0 0.0
0.0 0.006621757047349518 0.004647601567430919 -0.006427727497305736 0.0017801259298748226 0.0024788986195660744 0.0 0.0
0.0 0.004714340648294829 0.0032980791827648967 -0.004639911062163761 0.0013418318793988657 -0.00214526836432447 0.0 0.0
0.0 0.0010520311968838238 0.0004650900916647278 -0.00020822394065450432 -0.0002568661510102229 -0.001645350557749577 0.0 0.0
0.0 0.0 0.0 0.0 0.0 0.0 0.0 0.0
0.0 -2.1175026786527247e-07 1.9226471027512064e-08 -1.544969006812908e-08 -3.77678095938152e-09 -2.443498433731356e-08 0.0 0.0
0.0 -1.4923058282164882e-05 -7.133020937701729e-06 5.60903521331655e-06 1.5239857243851751e-06 5.641305433131678e-06 0.0 0.0
0.0 0.0001842994207441066 0.00011180361560883947 -7.977480551210087e-05 -3.202881009673847e-05 -5.059992008817939e-06 0.0 0.0
0.0 0.0012693403099890582 0.0009629517330789184 -0.000749529967998927 -0.00021342176507999116 -0.00032937998456470866 0.0 0.0
0.0 0.003100520641057156 0.002780332779577741 -0.0023206276309055973 -0.00045970514867214385 -0.001112156672218946 0.0 0.0
0.0 0.006182376586744288 0.0054685517903025485 -0.004820811542453667 -0.00064774024784888 -0.0022350733326559156 0.0 0.0
0.0 0.010195743350894522 0.008935584578155872 -0.008159021579732218 -0.0007765629984236518 -0.003513083703932764 0.0 0.0
0.0 0.015075812650573932 0.01311748793115025 -0.01224277997973093 -0.0008747079514193179 -0.004865663039484685 0.0 0.0
0.0 0.02080347446231668 0.01800836589165888 -0.01704305349600686 -0.000965312395652006 -0.006211078658793243 0.0 0.0
0.0 0.027524516270866998 0.02369238923856735 -0.022636705845199067 -0.001055683393368267 -0.007577134635545905 0.0 0.0
0.0 0.0350122393857969 0.03031636331533 -0.02917480044964865 -0.001141562865681339 -0.009069891133623631 0.0 0.0
0.0 0.043997433347667675 0.037959212613377466 -0.03674429038894092 -0.001214922224436543 -0.0107460329683141 0.0 0.0
0.0 0.05407617335575052 0.04656109670035929 -0.045289302454827436 -0.0012717942455318498 -0.01248955230394771 0.0 0.0
0.0 0.0646794767006772 0.055839667915782876 -0.05452903488438831 -0.0013106330313945437 -0.013951837372222683 0.0 0.0
0.0 0.07550767172339815 0.06521738762276243 -0.06389336897067315 -0.001324018652089323 -0.014538044674756341 0.0 0.0
0.0 0.08538596865976664 0.07379117449514543 -0.07248348724314504 -0.0013076872520003566 -0.013446495206922916 0.0 0.0
0.0 0.09293403848591945 0.0803805210033112 -0.07911031700162639 -0.0012702040016847104 -0.009771190600305289 0.0 0.0
0.0 0.09666555711175068 0.08330795160709528 -0.08231606282232225 -0.0009918887847730818 1.4194374842180224e-14 0.0 0.0
0.0 0.09293403848590555 0.08038052100329796 -0.0791103170016122 -0.0012702040016856217 0.009771190600339317 0.0 0.0
0.0 0.08538596865974894 0.07379117449512829 -0.0724834872431289 -0.0013076872519994114 0.013446495206957093 0.0 0.0
0.0 0.07550767172336767 0.0652173876227355 -0.06389336897064588 -0.0013240186520896392 0.01453804467477671 0.0 0.0
0.0 0.06467947670064389 0.05583966791575415 -0.054529034884360124 -0.001310633031394023 0.013951837372226763 0.0 0.0
0.0 0.05407617335571291 0.046561096700326654 -0.04528930245479512 -0.001271794245531511 0.012489552303941926 0.0 0.0
0.0 0.04399743334763043 0.03795921261334492 -0.03674429038890917 -0.0012149222244357536 0.01074603296830896 0.0 0.0
0.0 0.03501223938575838 0.030316363315296406 -0.029174800449615543 -0.00114156286568085 0.009069891133618613 0.0 0.0
0.0 0.027524516270830197 0.023692389238535134 -0.022636705845167335 -0.0010556833933677947 0.007577134635538775 0.0 0.0
0.0 0.020803474462282593 0.018008365891629106 -0.017043053495977692 -0.0009653123956514134 0.006211078658782547 0.0 0.0
0.0 0.015075812650543823 0.01311748793112427 -0.012242779979705545 -0.0008747079514187316 0.004865663039472839 0.0 0.0
0.0 0.010195743350868279 0.008935584578133144 -0.008159021579710077 -0.0007765629984230602 0.0035130837039224097 0.0 0.0
0.0 0.006182376586725205 0.005468551790285626 -0.004820811542437605 -0.000647740247848017 0.0022350733326486536 0.0 0.0
0.0 0.0031005206410447943 0.0027803327795665727 -0.002320627630895639 -0.0004597051486709341 0.0011121566722138735 0.0 0.0
0.0 0.0012693403099818706 0.0009629517330734304 -0.0007495299679945101 -0.00021342176507892097 0.0003293799845625565 0.0 0.0
0.0 0.00018429942074154365 0.00011180361560743304 -7.977480551105648e-05 -3.202881009637617e-05 5.0599920083585995e-06 0.0 0.0
0.0 -1.4923058282617708e-05 -7.133020937475682e-06 5.609035213139036e-06 1.523985724336581e-06 -5.641305432920916e-06 0.0 0.0
0.0 -2.117502677458955e-07 1.9226471016883667e-08 -1.5449690059872236e-08 -3.776780957015529e-09 2.4434984322558555e-08 0.0 0.0
0.0 0.0 0.0 0.0 0.0 0.0 0.0 0.0
0.0 0.0010520311968778495 0.0004650900916619306 -0.00020822394065260472 -0.00025686615100932464 0.0016453505577416793 0.0 0.0
0.0 0.00471434064828163 0.0032980791827545704 -0.00463991106214991 0.001341831879395335 0.002145268364316788 0.0 0.0
0.0 0.003333214769029263 0.002239447822067459 -0.00319526030731005 0.0009558124852425916 -0.0016698282787695135 0.0 0.0
0.0 0.0005602966942860973 0.0002566660841348013 -0.00010122923506153288 -0.00015543684907326881 -0.0010233751625990716 0.0 0.0
0.0 0.0 0.0 0.0 0.0 0.0 0.0 0.0
0.0 9.284367499638105e-09 -7.860409871244372e-10 5.99985333389106e-10 1.8605565373520125e-10 1.1788236078775784e-09 0.0 0.0
0.0 -3.0360901813061858e-06 -1.8732895454192614e-06 1.5169365952813576e-06 3.5635295013791665e-07 2.4768400897857008e-06 0.0 0.0
0.0 1.4144095288555955e-05 1.4179327851812807e-05 -8.446921846140494e-06 -5.732406005672422e-06 1.4723998026486813e-05 0.0 0.0
0.0 0.0005953029841612753 0.0005214364322942132 -0.0003969327172802504 -0.0001245037150139627 -0.0002701834290589813 0.0 0.0
0.0 0.0023686687154194476 0.0018257971301925914 -0.0014837250945647796 -0.00034207203562781197 -0.0009631279137794919 0.0 0.0
0.0 0.0045233186770024915 0.004043631525973377 -0.003490030714455029 -0.0005536008115183453 -0.0021894730511127563 0.0 0.0
0.0 0.008027664848016876 0.006935868830573134 -0.006239741599130866 -0.0006961272314422675 -0.0036208464808325895 0.0 0.0
0.0 0.01211162158969472 0.010430029180403198 -0.00963131003272926 -0.0007987191476739403 -0.00510926436502273 0.0 0.0
0.0 0.01687078909522694 0.01449302381254063 -0.013607101908886468 -0.0008859219036541619 -0.006587695173303027 0.0 0.0
0.0 0.022377672339209172 0.019189995360771702 -0.018219971225860207 -0.0009700241349115135 -0.008069635547104164 0.0 0.0
0.0 0.028859530086910525 0.024652872580696848 -0.023604789639208677 -0.0010480829414881807 -0.009662326977013603 0.0 0.0
0.0 0.036221654564737596 0.030995093072752788 -0.029878506754705145 -0.0011165863180476478 -0.011440211276459545 0.0 0.0
0.0 0.04449543106628062 0.038204546069158574 -0.03703319311989039 -0.0011713529492682019 -0.013286825580215766 0.0 0.0
0.0 0.05394333695099042 0.04607816812977295 -0.04486815118982514 -0.0012100169399478216 -0.01486185739157825 0.0 0.0
0.0 0.06326377829042876 0.05421398277057082 -0.05298251254166539 -0.0012314702289054284 -0.015620045136034042 0.0 0.0
0.0 0.07192908033293575 0.061921105465530354 -0.06069500873070314 -0.0012260967348272055 -0.014684356478814397 0.0 0.0
0.0 0.07912264177513884 0.06818673175238701 -0.06699728338578291 -0.0011894483666040879 -0.010851503764469516 0.0 0.0
0.0 0.08304595857453438 0.07120363136055363 -0.07038096369809618 -0.0008226676624574612 1.4866580189121237e-14 0.0 0.0
0.0 0.079122641775129 0.06818673175237666 -0.0669972833857723 -0.0011894483666044764 0.010851503764503603 0.0 0.0
0.0 0.07192908033291653 0.061921105465511994 -0.060695008730684466 -0.0012260967348275377 0.014684356478847534 0.0 0.0
0.0 0.06326377829040601 0.05421398277055 -0.052982512541645085 -0.0012314702289048709 0.015620045136055034 0.0 0.0
0.0 0.05394333695096414 0.046078168129750366 -0.044868151189803106 -0.0012100169399472474 0.014861857391581888 0.0 0.0
0.0 0.04449543106624684 0.03820454606912959 -0.03703319311986129 -0.0011713529492682958 0.013286825580209 0.0 0.0
0.0 0.03622165456470581 0.03099509307272503 -0.02987850675467801 -0.001116586318047026 0.011440211276453402 0.0 0.0
0.0 0.0288595300868803 0.024652872580670098 -0.023604789639182694 -0.0010480829414874129 0.009662326977008286 0.0 0.0
0.0 0.02237767233917832 0.019189995360745067 -0.01821997122583415 -0.0009700241349109 0.008069635547096833 0.0 0.0
0.0 0.016870789095199054 0.014493023812516662 -0.013607101908863023 -0.0008859219036536332 0.0065876951732925255 0.0 0.0
0.0 0.012111621589670867 0.01043002918038315 -0.009631310032709879 -0.0007987191476732688 0.005109264365010519 0.0 0.0
0.0 0.008027664847994373 0.006935868830553686 -0.006239741599112002 -0.0006961272314416756 0.0036208464808207127 0.0 0.0
0.0 0.004523318676988135 0.004043631525960244 -0.003490030714442923 -0.0005536008115173222 0.002189473051105463 0.0 0.0
0.0 0.00236866871540839 0.0018257971301838818 -0.0014837250945572032 -0.0003420720356266781 0.0009631279137745566 0.0 0.0
0.0 0.0005953029841564929 0.0005214364322906406 -0.0003969327172775001 -0.0001245037150131405 0.0002701834290570959 0.0 0.0
0.0 1.4144095287784643e-05 1.4179327851749004e-05 -8.446921846108151e-06 -5.732406005640874e-06 -1.472399802613157e-05 0.0 0.0
0.0 -3.0360901817479846e-06 -1.8732895454149898e-06 1.5169365952791733e-06 3.563529501358028e-07 -2.476840089811831e-06 0.0 0.0
0.0 9.284367478450311e-09 -7.860409853173938e-10 5.99985332009828e-10 1.8605565330757216e-10 -1.1788236051675036e-09 0.0 0.0
0.0 0.0 0.0 0.0 0.0 0.0 0.0 0.0
0.0 0.000560296694281626 0.00025666608413291647 -0.00010122923506027725 -0.00015543684907263854 0.0010233751625932954 0.0 0.0
0.0 0.003333214769018874 0.0022394478220593692 -0.0031952603072989494 0.0009558124852395753 0.001669828278763817 0.0 0.0
0.0 0.0020848274194874973 0.0014251033209289397 -0.002052356343095689 0.000627253022166749 -0.0012160364339918704 0.0 0.0
0.0 0.0002989343157544159 0.00010413626609045007 -1.6506679918044745e-05 -8.762958617240503e-05 -0.000534699839238232 0.0 0.0
0.0 0.0 0.0 0.0 0.0 0.0 0.0 0.0
0.0 0.0 0.0 0.0 0.0 0.0 0.0 0.0
0.0 -2.3444402524597698e-06 2.0535550321893554e-07 -1.6345059592073248e-07 -4.190490729819296e-08 -5.045484497939871e-07 0.0 0.0
0.0 -2.5603173867819212e-05 -2.0672967405272963e-05 1.674938873327232e-05 3.9235786720007205e-06 3.825093012069638e-05 0.0 0.0
0.0 0.0002590733542637801 0.00018735886941540937 -0.00014021267136560785 -4.714619804980169e-05 -0.00013700479244110894 0.0 0.0
0.0 0.0012504862391742855 0.0010572989988865491 -0.0008366679796296685 -0.0002206310192568804 -0.0007674606751348417 0.0 0.0
0.0 0.003475996330185009 0.002663902747440397 -0.0022392131430921053 -0.0004246896043482906 -0.0018417250627571196 0.0 0.0
0.0 0.005781842540409412 0.004986955574445128 -0.004395004300621486 -0.0005919512738236469 -0.003336490404064848 0.0 0.0
0.0 0.009217780326020575 0.007785541916316419 -0.00708096949108353 -0.0007045724252328867 -0.004886958509240139 0.0 0.0
0.0 0.013053884675906121 0.01102496157949356 -0.010232140994954684 -0.000792820584538876 -0.006415290706014877 0.0 0.0
0.0 0.01743509264863415 0.014746498376785518 -0.013874056858469432 -0.0008724415183160926 -0.007924090484490146 0.0 0.0
0.0 0.02253139362830929 0.019067546269122104 -0.018123006526383593 -0.0009445397427385069 -0.00951470701077073 0.0 0.0
0.0 0.02842056808777471 0.024105613101130578 -0.02309796057457575 -0.0010076525265548214 -0.011256515638401065 0.0 0.0
0.0 0.03547506512906286 0.029897953557720507 -0.02883978842696208 -0.0010581651307584115 -0.013084280386710147 0.0 0.0
0.0 0.04265839123502872 0.03634345471739592 -0.035244452769169037 -0.001099001948226895 -0.014685955426886685 0.0 0.0
0.0 0.05077726522045772 0.043167495844567735 -0.04203776423074323 -0.001129731613824473 -0.015564144931302624 0.0 0.0
0.0 0.0587058112251913 0.04994704379521042 -0.04880976198122437 -0.0011372818139860656 -0.014930806218083802 0.0 0.0
0.0 0.06540535721864246 0.055908524747325786 -0.05480502720156006 -0.0011034975457657168 -0.011424673201807303 0.0 0.0
0.0 0.06965888640211058 0.05907136863162971 -0.05843943503922508 -0.0006319335924046547 1.3700412332395828e-14 0.0 0.0
0.0 0.06540535721863981 0.055908524747320595 -0.054805027201555445 -0.001103497545765093 0.011424673201841538 0.0 0.0
0.0 0.05870581122517308 0.0499470437951929 -0.048809761981205985 -0.0011372818139869369 0.014930806218116257 0.0 0.0
0.0 0.050777265220437934 0.04316749584454925 -0.04203776423072535 -0.001129731613823887 0.015564144931321687 0.0 0.0
0.0 0.042658391235006095 0.036343454717376426 -0.03524445276915039 -0.0010990019482260112 0.0146859554268889 0.0 0.0
0.0 0.035475065129034554 0.029897953557696616 -0.028839788426937813 -0.001058165130758792 0.013084280386702599 0.0 0.0
0.0 0.02842056808774997 0.024105613101108793 -0.023097960574554512 -0.0010076525265542687 0.011256515638394325 0.0 0.0
0.0 0.022531393628285507 0.019067546269101253 -0.01812300652636327 -0.0009445397427379842 0.009514707010764779 0.0 0.0
0.0 0.017435092648609547 0.01474649837676468 -0.013874056858449077 -0.0008724415183155949 0.007924090484481972 0.0 0.0
0.0 0.013053884675882588 0.011024961579473894 -0.010232140994935442 -0.0007928205845384585 0.00641529070600411 0.0 0.0
0.0 0.00921778032600023 0.007785541916299505 -0.007080969491067527 -0.0007045724252319742 0.00488695850922741 0.0 0.0
0.0 0.005781842540391706 0.00498695557443037 -0.004395004300607358 -0.0005919512738230142 0.0033364904040532285 0.0 0.0
0.0 0.0034759963301708293 0.0026639027474294518 -0.0022392131430822994 -0.00042468960434715073 0.001841725062749709 0.0 0.0
0.0 0.0012504862391675415 0.0010572989988812736 -0.0008366679796252868 -0.00022063101925598642 0.0007674606751310719 0.0 0.0
0.0 0.0002590733542597082 0.0001873588694129352 -0.00014021267136373706 -4.714619804919812e-05 0.00013700479243894615 0.0 0.0
0.0 -2.5603173867947968e-05 -2.067296740465483e-05 1.6749388732796866e-05 3.923578671857867e-06 -3.825093011970758e-05 0.0 0.0
0.0 -2.344440252245594e-06 2.0535550318024424e-07 -1.634505958919964e-07 -4.190490728824469e-08 5.045484497144933e-07 0.0 0.0
0.0 0.0 0.0 0.0 0.0 0.0 0.0 0.0
0.0 0.0 0.0 0.0 0.0 0.0 0.0 0.0
0.0 0.0002989343157510777 0.00010413626608921817 -1.650667991723553e-05 -8.762958617198249e-05 0.0005346998392340658 0.0 0.0
0.0 0.002084827419479743 0.0014251033209229653 -0.002052356343087279 0.0006272530221643141 0.0012160364339876676 0.0 0.0
0.0 0.001567650439549709 0.0007626104504060737 -0.00110436282328548 0.0003417523728794063 -0.0007377824896906973 0.0 0.0
0.0 2.8846539412213794e-05 1.685511256614654e-05 2.4951159614912198e-05 -4.180627218105875e-05 -0.00020283053216698792 0.0 0.0
0.0 1.501239477888374e-07 -8.943371455963241e-10 1.017711353153143e-09 -1.233742075570957e-10 2.99033348444305e-08 0.0 0.0
0.0 -4.0385216131657434e-07 1.4147665862676704e-08 -1.0174004682524616e-08 -3.973661180153169e-09 -8.078456367062322e-08 0.0 0.0
0.0 3.4496207436919884e-07 -3.1178529745486495e-07 2.48696259761875e-07 6.30890376929998e-08 1.0008664523209345e-06 0.0 0.0
0.0 -1.426169447311379e-05 -8.591466776371288e-06 6.857070580723696e-06 1.734396195647565e-06 2.259464994196852e-05 0.0 0.0
0.0 3.531205803521646e-05 1.7346789606211548e-05 -1.1878164833958227e-05 -5.468624772253448e-06 -1.4747199975662589e-05 0.0 0.0
0.0 0.0005563596207587067 0.0004514234731380029 -0.0003509441933886249 -0.00010047927974937794 -0.0004949272542116146 0.0 0.0
0.0 0.0018674440027798686 0.0014844007524796648 -0.0012114553701932822 -0.00027294538228638253 -0.0013722040956396656 0.0 0.0
0.0 0.0041075170874751085 0.003111444351538023 -0.002668361103054496 -0.0004430832484835257 -0.002651271189772494 0.0 0.0
0.0 0.006413323821231741 0.005208977413133515 -0.0046341249174154725 -0.0005748524957180376 -0.004168403811769846 0.0 0.0
0.0 0.009264658428710635 0.00763254889979067 -0.006959988061606128 -0.0006725608381845543 -0.005657489881270736 0.0 0.0
0.0 0.012598486315050391 0.010391452873232968 -0.00963833466165429 -0.0007531182115786633 -0.007113828935502209 0.0 0.0
0.0 0.01639922593097001 0.013585769516691895 -0.012764592816709093 -0.0008211766999828003 -0.008603737801091185 0.0 0.0
0.0 0.020937703186584673 0.017327359175174903 -0.016447497119301182 -0.0008798620558737049 -0.010201922605732541 0.0 0.0
0.0 0.02609002999591166 0.021698181499814 -0.02076973186026225 -0.0009284496395517341 -0.011869349304357825 0.0 0.0
0.0 0.032135121031093915 0.026663255990530852 -0.02569501753101341 -0.0009682384595174266 -0.013389527030799691 0.0 0.0
0.0 0.038424038826070255 0.03210339458969314 -0.03109627351201204 -0.0010071210776810907 -0.01431815965540853 0.0 0.0
0.0 0.04485369027472285 0.03785037333041531 -0.036814987240332886 -0.0010353860900824575 -0.014079968854773871 0.0 0.0
0.0 0.051318850183750216 0.043451208669907086 -0.04243928707313173 -0.001011921596775365 -0.011398976275124782 0.0 0.0
0.0 0.05608259827384578 0.04680390333587011 -0.04638917826620202 -0.00041472506966809764 1.1828212020947859e-14 0.0 0.0
0.0 0.051318850183747114 0.04345120866990142 -0.042439287073126136 -0.001011921596775249 0.011398976275154729 0.0 0.0
0.0 0.044853690274711984 0.03785037333040346 -0.03681498724032062 -0.0010353860900828536 0.014079968854804403 0.0 0.0
0.0 0.038424038826053684 0.03210339458967781 -0.03109627351199698 -0.0010071210776808612 0.014318159655424625 0.0 0.0
0.0 0.03213512103107329 0.026663255990513474 -0.025695017530996418 -0.0009682384595170536 0.013389527030799127 0.0 0.0
0.0 0.02609002999588962 0.021698181499795823 -0.020769731860244188 -0.0009284496395516568 0.011869349304349623 0.0 0.0
0.0 0.020937703186566906 0.017327359175159426 -0.01644749711928622 -0.0008798620558731936 0.010201922605726658 0.0 0.0
0.0 0.016399225930951805 0.013585769516676425 -0.012764592816693957 -0.0008211766999824759 0.008603737801085528 0.0 0.0
0.0 0.012598486315032707 0.010391452873218339 -0.009638334661640088 -0.0007531182115782493 0.007113828935494886 0.0 0.0
0.0 0.00926465842869255 0.007632548899775782 -0.006959988061591493 -0.0006725608381842823 0.005657489881259957 0.0 0.0
0.0 0.006413323821215019 0.0052089774131201735 -0.004634124917402935 -0.0005748524957172352 0.0041684038117575425 0.0 0.0
0.0 0.004107517087462218 0.0031114443515280784 -0.002668361103045294 -0.00044308324848278533 0.002651271189763279 0.0 0.0
0.0 0.0018674440027698109 0.001484400752471959 -0.0012114553701865916 -0.0002729453822853668 0.0013722040956329542 0.0 0.0
0.0 0.0005563596207542865 0.0004514234731347623 -0.000350944193386078 -0.0001004792797486847 0.0004949272542085862 0.0 0.0
0.0 3.531205803349005e-05 1.73467896052917e-05 -1.187816483323728e-05 -5.4686247720544576e-06 1.4747199974196347e-05 0.0 0.0
0.0 -1.4261694473695337e-05 -8.591466775934754e-06 6.857070580374229e-06 1.734396195560571e-06 -2.2594649940683708e-05 0.0 0.0
0.0 3.449620740865488e-07 -3.1178529751738985e-07 2.4869625981241315e-07 6.308903770496619e-08 -1.0008664524864405e-06 0.0 0.0
0.0 -4.0385216122886154e-07 1.4147665859095061e-08 -1.0174004680004456e-08 -3.973661179089202e-09 8.078456365178302e-08 0.0 0.0
0.0 1.5012394747879627e-07 -8.94337143643398e-10 1.0177113510135556e-09 -1.2337420737023362e-10 -2.990333478189685e-08 0.0 0.0
0.0 2.8846539410316877e-05 1.6855112565497126e-05 2.4951159615311215e-05 -4.18062721808085e-05 0.00020283053216439437 0.0 0.0
0.0 0.0015676504395424932 0.0007626104504019966 -0.001104362823279605 0.0003417523728776091 0.0007377824896875227 0.0 0.0
0.0 0.0006500862833452508 0.000350556496550737 -0.0005107566481299448 0.00016020015157920824 -0.0004228066117851463 0.0 0.0
0.0 -3.9792114964809145e-05 -2.373760643642911e-05 4.2788483652947144e-05 -1.9050877216518075e-05 -7.517932027618213e-06 0.0 0.0
0.0 2.2756234019458266e-06 -3.622856323065417e-09 1.1119213435067454e-08 -7.496357112000574e-09 4.94855934509731e-07 0.0 0.0
0.0 7.864306231303351e-07 -1.6387003304045022e-09 -2.085611771306629e-10 1.847261507534281e-09 1.628291981626507e-07 0.0 0.0
0.0 -3.459707809555991e-07 -1.6974769205363906e-07 1.26499564064286e-07 4.324812798935203e-08 1.150732768538465e-06 0.0 0.0
0.0 -1.4756748310858078e-05 -2.0779581088073523e-06 1.6895619485506954e-06 3.883961602566613e-07 8.338252262366314e-06 0.0 0.0
0.0 -4.445365719697062e-06 -1.4488692222490731e-05 1.1717969365426328e-05 2.7707228570643684e-06 3.6955175602160086e-05 0.0 0.0
0.0 0.00019045382174112343 6.968394602651727e-05 -5.49937063388931e-05 -1.46902396876241e-05 -0.00016068850807725746 0.0 0.0
0.0 0.0007964089247265371 0.0005350694875843423 -0.0004312010707550783 -0.00010386841682926386 -0.0008083702086377654 0.0 0.0
0.0 0.002082676585076066 0.001463884712538787 -0.001222629985853765 -0.00024125472668502275 -0.0017551249185607661 0.0 0.0
0.0 0.00362814941228822 0.0027841054660974578 -0.0024060518452589555 -0.0003780536208385025 -0.002996265160290559 0.0 0.0
0.0 0.0056411437503766015 0.004363023685307449 -0.003876556439501546 -0.0004864672458059023 -0.004292790322505905 0.0 0.0
0.0 0.007886108273124122 0.006170132721860474 -0.0055926210677257285 -0.0005775116541347416 -0.005607909040159624 0.0 0.0
0.0 0.01045330024577993 0.008259697364158066 -0.0076099992545975706 -0.0006496981095604885 -0.006930637961006934 0.0 0.0
0.0 0.013513564222290348 0.010723046254738775 -0.010013888723946405 -0.0007091575307923767 -0.00828872112320522 0.0 0.0
0.0 0.017171080687416594 0.01365861658923251 -0.012900358359634708 -0.0007582582295978054 -0.00970148389400902 0.0 0.0
0.0 0.02141746453770555 0.017119842202074555 -0.016317308810939343 -0.0008025333911352032 -0.011055237769892586 0.0 0.0
0.0 0.026030462180542113 0.021099102866032206 -0.02025503479524585 -0.0008440680707863806 -0.01199240481971391 0.0 0.0
0.0 0.03124255627874682 0.02563077264673051 -0.024738769614912958 -0.0008920030318175109 -0.01203004901339296 0.0 0.0
0.0 0.03726371881071317 0.03071148992500467 -0.02980622873016019 -0.000905261194844467 -0.010525969044534593 0.0 0.0
0.0 0.04239948215716134 0.034284356310322055 -0.03411643774458095 -0.00016791856574113645 9.96945581643871e-15 0.0 0.0
0.0 0.03726371881070998 0.03071148992499857 -0.029806228730153626 -0.0009052611948449519 0.010525969044559267 0.0 0.0
0.0 0.03124255627873998 0.02563077264672193 -0.024738769614904677 -0.0008920030318172316 0.012030049013419331 0.0 0.0
0.0 0.026030462180533488 0.021099102866024216 -0.02025503479523824 -0.0008440680707859592 0.011992404819727454 0.0 0.0
0.0 0.021417464537691992 0.01711984220206391 -0.0163173088109292 -0.0008025333911347017 0.011055237769890496 0.0 0.0
0.0 0.017171080687402047 0.013658616589220985 -0.012900358359623412 -0.0007582582295975514 0.009701483894001113 0.0 0.0
0.0 0.013513564222277962 0.010723046254728493 -0.010013888723936281 -0.0007091575307922096 0.008288721123199618 0.0 0.0
0.0 0.010453300245768777 0.00825969736414877 -0.007609999254588856 -0.0006496981095599174 0.00693063796100264 0.0 0.0
0.0 0.007886108273111897 0.006170132721850334 -0.005592621067716182 -0.0005775116541341497 0.005607909040153339 0.0 0.0
0.0 0.005641143750364858 0.004363023685298965 -0.0038765564394936196 -0.00048646724580534686 0.004292790322497382 0.0 0.0
0.0 0.003628149412276835 0.0027841054660887135 -0.0024060518452509146 -0.0003780536208378003 0.002996265160280374 0.0 0.0
0.0 0.0020826765850674727 0.0014638847125327326 -0.0012226299858484639 -0.00024125472668426833 0.001755124918554173 0.0 0.0
0.0 0.0007964089247216493 0.0005350694875811486 -0.00043120107075236727 -0.00010386841682878106 0.0008083702086338129 0.0 0.0
0.0 0.0001904538217389691 6.968394602541583e-05 -5.499370633801453e-05 -1.4690239687401234e-05 0.00016068850807544167 0.0 0.0
0.0 -4.445365720796604e-06 -1.4488692222030592e-05 1.1717969365063891e-05 2.770722856966758e-06 -3.695517560121149e-05 0.0 0.0
0.0 -1.475674831058415e-05 -2.077958108574853e-06 1.6895619483682418e-06 3.883961602065746e-07 -8.338252260987258e-06 0.0 0.0
0.0 -3.459707816658375e-07 -1.6974769210289922e-07 1.264995641037681e-07 4.324812799914271e-08 -1.150732768760261e-06 0.0 0.0
0.0 7.864306230353753e-07 -1.6387003332195712e-09 -2.0856117435996048e-10 1.847261507578611e-09 -1.6282919813890725e-07 0.0 0.0
0.0 2.2756234013447927e-06 -3.6228563214464765e-09 1.1119213431972399e-08 -7.496357110524799e-09 -4.948559343785076e-07 0.0 0.0
0.0 -3.979211496562839e-05 -2.3737606436444078e-05 4.278848365282808e-05 -1.9050877216383956e-05 7.517932027038995e-06 0.0 0.0
0.0 0.0006500862833405837 0.0003505564965484433 -0.0005107566481266196 0.00016020015157817586 0.0004228066117828482 0.0 0.0
0.0 0.00021891821759594278 8.329086301023033e-05 -0.00012271725960642864 3.942639659619841e-05 -0.000117748533378471 0.0 0.0
0.0 -3.189726032734556e-05 -1.4800029203307492e-05 2.0310081444510143e-05 -5.510052241202645e-06 2.6876010976227876e-05 0.0 0.0
0.0 5.096525743868014e-07 9.381252579871773e-11 1.5396771685514519e-09 -1.6334896943491657e-09 1.0271581062143611e-07 0.0 0.0
0.0 4.096640072979324e-07 9.90752011270457e-09 -8.396156044114786e-09 -1.5113640685919163e-09 8.098632487915903e-08 0.0 0.0
0.0 2.7178372679167366e-07 5.770463490841386e-08 -4.363388020514489e-08 -1.407075470326061e-08 -2.2406786679819965e-07 0.0 0.0
0.0 -7.200787106202985e-06 -1.8182758878365155e-06 1.413536811206354e-06 4.047390766301361e-07 1.7093138611078646e-05 0.0 0.0
0.0 2.0774394178608637e-06 -3.5073743804636784e-06 2.885108777062212e-06 6.222656034014938e-07 1.4613723364599166e-05 0.0 0.0
0.0 6.57677611934754e-05 -1.0384355538319224e-07 2.0495964227992954e-07 -1.0111608689677437e-07 -7.738743670058362e-05 0.0 0.0
0.0 0.0002112747086039445 3.811429226883887e-05 -3.354259347542302e-05 -4.571698793415786e-06 -0.0003193641903248254 0.0 0.0
0.0 0.0006072908860598463 0.00024159170549406078 -0.00021412233393831365 -2.74693715557475e-05 -0.0008349901217069307 0.0 0.0
0.0 0.001448470674450851 0.0006881619707548188 -0.0006140817624750868 -7.408020827973174e-05 -0.0016156957085880562 0.0 0.0
0.0 0.002344895625478719 0.0013819628750139422 -0.0012371366815022622 -0.0001448261935116802 -0.0026152007486291017 0.0 0.0
0.0 0.0035628222129923783 0.002230950114007867 -0.0020128042693954478 -0.00021814584461241703 -0.003669398522868839 0.0 0.0
0.0 0.005016581204287269 0.003236200809447207 -0.002948425132474921 -0.000287775676972288 -0.004770315825559433 0.0 0.0
0.0 0.006701368312202447 0.004444149354662932 -0.0040845311335006886 -0.00035961822116224094 -0.005925893031660978 0.0 0.0
0.0 0.008758955934664968 0.005948398784717759 -0.00551903481864919 -0.0004293639660685656 -0.007158111702888873 0.0 0.0
0.0 0.011357225722606256 0.007869186520959751 -0.007368637731368484 -0.0005005487895912698 -0.008435147766761738 0.0 0.0
0.0 0.014612150560549549 0.010343655068826332 -0.009776255203664439 -0.0005673998651618903 -0.009460872369676509 0.0 0.0
0.0 0.018370892617427588 0.013497718659236 -0.012871975799474538 -0.0006257428597614758 -0.00964861713758313 0.0 0.0
0.0 0.022995985885648502 0.01769075618850291 -0.01697071186298416 -0.0007200443255187324 -0.00872455503018186 0.0 0.0
0.0 0.029461782687006277 0.02140938707229872 -0.021539232922117166 0.00012984584981843694 7.977125904279347e-15 0.0 0.0
0.0 0.022995985885651226 0.017690756188501397 -0.016970711862982053 -0.000720044325519341 0.00872455503020241 0.0 0.0
0.0 0.018370892617422585 0.013497718659229897 -0.012871975799468735 -0.0006257428597611588 0.009648617137601305 0.0 0.0
0.0 0.014612150560544704 0.010343655068822562 -0.009776255203660798 -0.0005673998651617721 0.009460872369684924 0.0 0.0
0.0 0.011357225722597387 0.007869186520954502 -0.007368637731363809 -0.0005005487895906923 0.008435147766758168 0.0 0.0
0.0 0.00875895593465923 0.005948398784714244 -0.0055190348186456685 -0.00042936396606857343 0.007158111702882777 0.0 0.0
0.0 0.006701368312196346 0.0044441493546583735 -0.004084531133495937 -0.0003596182211624336 0.0059258930316562 0.0 0.0
0.0 0.005016581204280885 0.0032362008094429626 -0.002948425132471104 -0.00028777567697186056 0.00477031582555619 0.0 0.0
0.0 0.0035628222129845447 0.0022309501140030455 -0.002012804269390805 -0.00021814584461223992 0.0036693985228621116 0.0 0.0
0.0 0.0023448956254733594 0.0013819628750110248 -0.001237136681499701 -0.00014482619351132315 0.002615200748623149 0.0 0.0
0.0 0.0014484706744450175 0.0006881619707518921 -0.0006140817624722644 -7.408020827962684e-05 0.001615695708581182 0.0 0.0
0.0 0.0006072908860564973 0.00024159170549272775 -0.00021412233393709788 -2.7469371555629848e-05 0.0008349901217041323 0.0 0.0
0.0 0.00021127470860327698 3.811429226862175e-05 -3.3542593475244654e-05 -4.571698793376966e-06 0.00031936419032380163 0.0 0.0
0.0 6.576776119224397e-05 -1.0384355545494064e-07 2.049596423444435e-07 -1.0111608688957364e-07 7.738743669938341e-05 0.0 0.0
0.0 2.077439417280295e-06 -3.5073743804367606e-06 2.885108777038434e-06 6.22265603398343e-07 -1.461372336448397e-05 0.0 0.0
0.0 -7.200787106667874e-06 -1.8182758878403593e-06 1.4135368112089259e-06 4.047390766314345e-07 -1.7093138610987363e-05 0.0 0.0
0.0 2.717837264056589e-07 5.77046349150598e-08 -4.36338802094248e-08 -1.407075470563819e-08 2.2406786692639666e-07 0.0 0.0
0.0 4.096640068308793e-07 9.90752010832275e-09 -8.39615604017302e-09 -1.5113640681489081e-09 -8.098632478345155e-08 0.0 0.0
0.0 5.096525740515149e-07 9.381252618957887e-11 1.539677166806176e-09 -1.6334896929998106e-09 -1.0271581055161462e-07 0.0 0.0
0.0 -3.189726032725335e-05 -1.4800029203000834e-05 2.031008144413081e-05 -5.510052241129974e-06 -2.687601097551475e-05 0.0 0.0
0.0 0.0002189182175932072 8.329086300925419e-05 -0.00012271725960503663 3.9426396595782384e-05 0.00011774853337703858 0.0 0.0
0.0 7.846926203401617e-06 6.160215071602537e-06 -9.63150555759096e-06 3.47129048598838e-06 -9.323088042386331e-06 0.0 0.0
0.0 -8.818755831668384e-07 -8.783446904966738e-07 1.3513115644004688e-06 -4.729668739037835e-07 1.2419131500090423e-06 0.0 0.0
0.0 3.5637643855583632e-06 1.0466321526454694e-08 6.2185905963190185e-09 -1.668491212277834e-08 7.708049989247887e-07 0.0 0.0
0.0 1.2430432838262222e-06 2.2540646013473236e-08 -1.8991958876495852e-08 -3.5486871369741003e-09 2.50061087106157e-07 0.0 0.0
0.0 -4.509559827460897e-07 6.531327579736176e-08 -6.389888656621525e-08 -1.4143892311466742e-09 9.055593889406266e-07 0.0 0.0
0.0 -6.016981121587062e-06 -4.240960896892999e-08 4.818316342571231e-08 -5.773554456779159e-09 1.2996403928712497e-05 0.0 0.0
0.0 6.337996094256047e-06 -3.2532112193754005e-07 3.0161325065148914e-07 2.3707871286040318e-08 1.2252733636587871e-05 0.0 0.0
0.0 6.107981970788934e-05 -4.135669328582502e-07 4.1865842251194535e-07 -5.09148965369e-09 -0.0001071058222573697 0.0 0.0
0.0 0.00021157871161820303 -4.2224510174083864e-08 3.877220375092685e-08 3.452306423188517e-09 -0.00027926967068682526 0.0 0.0
0.0 0.000342238346393922 1.5358461898244135e-07 -9.855865406165743e-08 -5.5025964920825896e-08 -0.000580642086893699 0.0 0.0
0.0 0.0006324634776572868 -1.4830853929159092e-06 8.335943314499725e-07 6.494910614659121e-07 -0.0009673883055268828 0.0 0.0
0.0 0.0008286751271205594 1.9004175879615298e-06 -1.4461029779932178e-06 -4.5431460996822387e-07 -0.0016125400201609825 0.0 0.0
0.0 0.0011849308877258193 2.4655367936765094e-06 -1.4844347037034549e-06 -9.811020899728445e-07 -0.0024175218803383545 0.0 0.0
0.0 0.0016736721982744352 -1.1434891604120774e-05 1.4165609519707124e-05 -2.7307179155862144e-06 -0.0034095089378180137 0.0 0.0
0.0 0.002442946664901684 -8.57510823945259e-06 7.765458990561912e-06 8.096492488901086e-07 -0.004594286571091186 0.0 0.0
0.0 0.0033618556839108433 7.765277094192401e-05 -9.433871151050908e-05 1.6685940568584478e-05 -0.005945945266421973 0.0 0.0
0.0 0.004500266959000093 0.00041129006709914604 -0.00046635613970489394 5.506607260574926e-05 -0.007410502126286525 0.0 0.0
0.0 0.005841272263958396 0.0011464334123813425 -0.0013023813006331328 0.00015594788825178758 -0.008862333806905784 0.0 0.0
0.0 0.007898737807521386 0.002165531653270429 -0.0024081286892349706 0.00024259703596454357 -0.009968289999606255 0.0 0.0
0.0 0.01161701286520061 0.004795630273584895 -0.0046632459501476575 -0.0001323843234372349 -0.00993323235775651 0.0 0.0
0.0 0.020180938106845202 0.009024206238042386 -0.0096018711399331 0.0005776649018907184 8.168812848374785e-15 0.0 0.0
0.0 0.011617012865207638 0.004795630273585994 -0.004663245950148882 -0.00013238432343710933 0.009933232357773072 0.0 0.0
0.0 0.007898737807515965 0.002165531653268018 -0.0024081286892323056 0.00024259703596428976 0.009968289999607877 0.0 0.0
0.0 0.00584127226395448 0.0011464334123805408 -0.0013023813006313547 0.0001559478882508142 0.008862333806902694 0.0 0.0
0.0 0.004500266958994168 0.00041129006709898357 -0.00046635613970453973 5.506607260555497e-05 0.007410502126279522 0.0 0.0
0.0 0.003361855683909079 7.765277094343615e-05 -9.433871151232943e-05 1.6685940568894356e-05 0.005945945266417365 0.0 0.0
0.0 0.00244294666489915 -8.57510823919108e-06 7.765458990436876e-06 8.09649248753865e-07 0.0045942865710877035 0.0 0.0
0.0 0.0016736721982707216 -1.1434891603359339e-05 1.4165609519030121e-05 -2.73071791567066e-06 0.003409508937812337 0.0 0.0
0.0 0.0011849308877206215 2.465536793522146e-06 -1.484434703588665e-06 -9.811020899337455e-07 0.0024175218803295347 0.0 0.0
0.0 0.0008286751271183541 1.9004175878148237e-06 -1.4461029779216401e-06 -4.543146098931835e-07 0.0016125400201555447 0.0 0.0
0.0 0.0006324634776541765 -1.483085392913009e-06 8.335943313748559e-07 6.494910615381835e-07 0.0009673883055220104 0.0 0.0
0.0 0.0003422383463935718 1.5358461905834014e-07 -9.855865412606682e-08 -5.5025964932237746e-08 0.0005806420868924447 0.0 0.0
0.0 0.00021157871161734125 -4.222451015439332e-08 3.877220372899003e-08 3.4523064253787235e-09 0.0002792696706857056 0.0 0.0
0.0 6.107981970686731e-05 -4.135669328648186e-07 4.1865842254118805e-07 -5.091489676350835e-09 0.00010710582225630833 0.0 0.0
0.0 6.337996093531001e-06 -3.253211219230238e-07 3.0161325063451545e-07 2.3707871288517737e-08 -1.2252733637007705e-05 0.0 0.0
0.0 -6.016981121650285e-06 -4.240960900808693e-08 4.818316346535955e-08 -5.773554457278801e-09 -1.2996403927690597e-05 0.0 0.0
0.0 -4.509559834500577e-07 6.531327582053461e-08 -6.389888658649823e-08 -1.414389234033085e-09 -9.055593892175029e-07 0.0 0.0
0.0 1.2430432833310698e-06 2.2540645998156376e-08 -1.899195886363118e-08 -3.548687134526119e-09 -2.500610869379258e-07 0.0 0.0
0.0 3.5637643852961112e-06 1.0466321526893375e-08 6.218590594824565e-09 -1.6684912121708747e-08 -7.708049988575556e-07 0.0 0.0
0.0 -8.818755835511546e-07 -8.783446905032576e-07 1.3513115644113608e-06 -4.7296687390811606e-07 -1.2419131499656121e-06 0.0 0.0
0.0 7.846926202549507e-06 6.160215071774008e-06 -9.63150555784321e-06 3.4712904860693e-06 9.323088042735612e-06 0.0 0.0
0.0 1.2392568618169737e-06 -7.491151091484791e-08 1.1767598598030642e-07 -4.2764475065472074e-08 1.441325408975938e-07 0.0 0.0
0.0 1.0193361657633564e-07 1.0676732839692013e-08 -1.3945681913414806e-08 3.26894907372364e-09 3.7380425146472035e-08 0.0 0.0
0.0 -9.256098533699989e-07 -1.7908227325955027e-08 1.2459559486006907e-08 5.448667839948092e-09 -2.387111942491462e-07 0.0 0.0
0.0 1.4031808848533383e-06 6.228273946396805e-08 -5.072067325432422e-08 -1.1562066209645431e-08 4.587653257247939e-07 0.0 0.0
0.0 -2.0434890870069456e-06 2.5884147727978167e-07 -2.3709702258083023e-07 -2.1744454698949153e-08 1.6394236094535117e-06 0.0 0.0
0.0 -7.791345992145084e-06 4.921849221218993e-07 -3.307388493546391e-07 -1.6144607276722794e-07 7.468380222569855e-06 0.0 0.0
0.0 2.043297937898421e-05 4.3392165978512485e-06 -3.366782977217532e-06 -9.724336206337727e-07 2.1082597721544774e-05 0.0 0.0
0.0 7.146382086880711e-05 -1.0371468961783856e-06 8.711081720962149e-07 1.6603872408218935e-07 -8.027725224119289e-05 0.0 0.0
0.0 0.00021183775528871898 -3.861777516402007e-05 3.3969148141780716e-05 4.648627022239123e-06 -0.00032133449669779866 0.0 0.0
0.0 0.0006051579285136803 -0.00024067575209113634 0.00021325757637761258 2.741817571352402e-05 -0.0008341076776039056 0.0 0.0
0.0 0.0014509998290121895 -0.0006806442174033764 0.0006086898679400295 7.195434946334639e-05 -0.0016086305090796164 0.0 0.0
0.0 0.0023597950540759924 -0.001388422898164853 0.001242298541331853 0.0001461243568330002 -0.00261533410570383 0.0 0.0
0.0 0.00358864420343179 -0.002251570948660606 0.0020308807184396386 0.00022069023022096594 -0.003670052453747841 0.0 0.0
0.0 0.005061506440002395 -0.0032741426669899635 0.0029830820840864502 0.0002910605829035136 -0.004767049782118373 0.0 0.0
0.0 0.006696536424692626 -0.004451987325692513 0.004099718316070129 0.000352269009622385 -0.005937638720246645 0.0 0.0
0.0 0.008484167976932426 -0.005702204288407631 0.00531826006381534 0.0003839442245922886 -0.007255265802428487 0.0 0.0
0.0 0.010168638860496097 -0.006791442454351414 0.006416778341937665 0.0003746641124137502 -0.008796000894463347 0.0 0.0
0.0 0.011571620789265016 -0.007320339829333673 0.007020126021019141 0.0003002138083145237 -0.010590776138912957 0.0 0.0
0.0 0.011786987992007497 -0.006775542825996834 0.0066109607499094825 0.0001645820760873595 -0.012615774633768295 0.0 0.0
0.0 0.009845168229327572 -0.004899765230233669 0.004936981172177295 -3.721594194362263e-05 -0.014218937225513663 0.0 0.0
0.0 0.019205643374975892 -0.0026369499971804714 0.001021474582726219 0.0016154754144542531 1.1152103546185899e-14 0.0 0.0
0.0 0.009845168229332896 -0.004899765230235322 0.0049369811721792 -3.7215941943874844e-05 0.014218937225524532 0.0 0.0
0.0 0.011786987992007274 -0.006775542825995601 0.0066109607499086715 0.00016458207608693827 0.012615774633777757 0.0 0.0
0.0 0.01157162078925717 -0.007320339829328546 0.00702012602101351 0.0003002138083150309 0.010590776138913127 0.0 0.0
0.0 0.010168638860486632 -0.006791442454344807 0.0064167783419310275 0.0003746641124137769 0.00879600089445759 0.0 0.0
0.0 0.00848416797692317 -0.0057022042884005905 0.005318260063808659 0.0003839442245919298 0.007255265802422114 0.0 0.0
0.0 0.006696536424685651 -0.004451987325686602 0.004099718316064528 0.00035226900962207413 0.005937638720240647 0.0 0.0
0.0 0.005061506439993371 -0.0032741426669829756 0.0029830820840800404 0.0002910605829029351 0.004767049782112301 0.0 0.0
0.0 0.0035886442034208884 -0.002251570948652527 0.0020308807184321927 0.00022069023022033336 0.003670052453739716 0.0 0.0
0.0 0.002359795054066504 -0.0013884228981584186 0.0012422985413263884 0.00014612435683202972 0.002615334105695981 0.0 0.0
0.0 0.0014509998290031447 -0.0006806442173986084 0.0006086898679357113 7.195434946289677e-05 0.0016086305090709596 0.0 0.0
0.0 0.0006051579285084714 -0.000240675752088931 0.000213257576375545 2.741817571338589e-05 0.0008341076776001591 0.0 0.0
0.0 0.00021183775528693915 -3.861777516344057e-05 3.3969148141280946e-05 4.648627022159639e-06 0.00032133449669600236 0.0 0.0
0.0 7.146382086798188e-05 -1.037146896198285e-06 8.711081721402318e-07 1.6603872405805315e-07 8.02772522407448e-05 0.0 0.0
0.0 2.043297937712428e-05 4.339216597884614e-06 -3.3667829772533853e-06 -9.724336206312183e-07 -2.108259772188708e-05 0.0 0.0
0.0 -7.791345992302951e-06 4.921849220367605e-07 -3.307388492823989e-07 -1.6144607275435362e-07 -7.468380221987023e-06 0.0 0.0
0.0 -2.0434890871077777e-06 2.588414772012632e-07 -2.3709702251647212e-07 -2.1744454684795144e-08 -1.639423608634672e-06 0.0 0.0
0.0 1.4031808840484718e-06 6.228273949844385e-08 -5.072067328223993e-08 -1.156206621620358e-08 -4.587653260063792e-07 0.0 0.0
0.0 -9.256098534931695e-07 -1.7908227331640656e-08 1.2459559490388741e-08 5.448667841248934e-09 2.3871119432749104e-07 0.0 0.0
0.0 1.0193361634669551e-07 1.0676732833700947e-08 -1.3945681909328034e-08 3.2689490756309226e-09 -3.7380425093418424e-08 0.0 0.0
0.0 1.2392568610875138e-06 -7.491151086901853e-08 1.1767598590977797e-07 -4.276447504077999e-08 -1.441325408055337e-07 0.0 0.0
0.0 0.0 0.0 0.0 0.0 0.0 0.0 0.0
0.0 -2.421719605901748e-07 -3.2468155202972983e-09 1.8808664176063756e-09 1.3659491026902043e-09 -4.880557232414907e-08 0.0 0.0
0.0 1.998318133887098e-07 9.511641417870039e-09 -4.508940992189402e-09 -5.00270042567928e-09 1.832438896347149e-07 0.0 0.0
0.0 -6.166042537878163e-07 -1.251045368019058e-07 1.0250846599229477e-07 2.2596070809602186e-08 -7.221050046538544e-07 0.0 0.0
0.0 6.585351267830406e-06 1.3617461249743146e-07 -1.210012826287136e-07 -1.5173329868671564e-08 1.3215772651409842e-06 0.0 0.0
0.0 2.8887344428582296e-06 7.396025758708756e-06 -5.968857475780684e-06 -1.4271682829280512e-06 3.039570255810477e-05 0.0 0.0
0.0 -5.533584453074962e-06 6.527989693210877e-06 -5.155252190072252e-06 -1.3727375031385555e-06 -3.7458355090492496e-06 0.0 0.0
0.0 0.00020230974400733644 -7.430989737047344e-05 5.893477098582529e-05 1.5375126384647994e-05 -0.00017107200983598219 0.0 0.0
0.0 0.0007952651787163617 -0.0005343154603250606 0.0004304875761489222 0.00010382788417613871 -0.0008089905923681672 0.0 0.0
0.0 0.002078275327819298 -0.0014615885138820953 0.0012204769367399068 0.0002411115771421874 -0.0017516845149444479 0.0 0.0
0.0 0.0036267450199304204 -0.0027837401166070554 0.002405772100044911 0.00037796801656214403 -0.0029944736594704553 0.0 0.0
0.0 0.005647064189203159 -0.00436774889869743 0.0038809467760550095 0.000486802122642421 -0.004293489002013571 0.0 0.0
0.0 0.007905617944202192 -0.006187734051276089 0.005609301094039003 0.0005784329572370841 -0.005599320444465127 0.0 0.0
0.0 0.010487441371038804 -0.008295854379703973 0.007645685400908293 0.0006501689787956823 -0.006897166373295771 0.0 0.0
0.0 0.013516437771080548 -0.010738149154369277 0.01003427881422696 0.0007038703401423085 -0.008261963578168855 0.0 0.0
0.0 0.016932253410301405 -0.013452443025325634 0.0127183570585758 0.0007340859667498362 -0.009870006761949393 0.0 0.0
0.0 0.020397683817660987 -0.016168291440197935 0.015429103232067122 0.0007391882081308047 -0.011929527497749863 0.0 0.0
0.0 0.0232015335666338 -0.018390421598455317 0.017667048447225175 0.0007233731512301592 -0.01454546581469114 0.0 0.0
0.0 0.024794948927889873 -0.019182649057301642 0.018515100339847965 0.0006675487174536757 -0.017192529643284195 0.0 0.0
0.0 0.02295142003954202 -0.016785304885160186 0.016190141961885375 0.0005951629232747965 -0.017700292031767633 0.0 0.0
0.0 0.02378430888870442 -0.013177423964897506 0.010769618710748554 0.0024078052541489587 1.1109602821024467e-14 0.0 0.0
0.0 0.022951420039548334 -0.016785304885160696 0.01619014196188573 0.0005951629232749626 0.017700292031789654 0.0 0.0
0.0 0.024794948927887348 -0.019182649057296632 0.01851510033984315 0.0006675487174534784 0.017192529643302094 0.0 0.0
0.0 0.023201533566623148 -0.018390421598445294 0.01766704844721581 0.0007233731512294902 0.014545465814698995 0.0 0.0
0.0 0.020397683817643772 -0.016168291440184158 0.015429103232053244 0.000739188208130913 0.011929527497744976 0.0 0.0
0.0 0.016932253410285092 -0.013452443025312245 0.0127183570585626 0.0007340859667496479 0.009870006761941965 0.0 0.0
0.0 0.013516437771065185 -0.010738149154356797 0.010034278814215087 0.0007038703401417041 0.008261963578160246 0.0 0.0
0.0 0.010487441371023169 -0.008295854379690513 0.0076456854008950925 0.0006501689787954159 0.006897166373287481 0.0 0.0
0.0 0.007905617944185405 -0.006187734051262502 0.005609301094025769 0.0005784329572367311 0.005599320444456487 0.0 0.0
0.0 0.005647064189186772 -0.004367748898684817 0.003880946776043075 0.00048680212264174246 0.004293489002002419 0.0 0.0
0.0 0.0036267450199155794 -0.0027837401165956067 0.0024057721000342066 0.0003779680165614 0.0029944736594580685 0.0 0.0
0.0 0.002078275327808529 -0.001461588513874224 0.0012204769367330844 0.00024111157714113945 0.001751684514936998 0.0 0.0
0.0 0.0007952651787112966 -0.0005343154603214621 0.00043048757614612366 0.00010382788417533842 0.0008089905923647567 0.0 0.0
0.0 0.00020230974400531148 -7.430989736959437e-05 5.893477098511247e-05 1.5375126384481806e-05 0.00017107200983408724 0.0 0.0
0.0 -5.533584453841663e-06 6.527989692749266e-06 -5.155252189703689e-06 -1.372737503045589e-06 3.7458355098369945e-06 0.0 0.0
0.0 2.888734441568099e-06 7.396025758620656e-06 -5.968857475708501e-06 -1.4271682829122583e-06 -3.0395702557586437e-05 0.0 0.0
0.0 6.585351267356255e-06 1.3617461249507465e-07 -1.210012826256884e-07 -1.517332986938846e-08 -1.3215772650931446e-06 0.0 0.0
0.0 -6.166042539193956e-07 -1.2510453691781099e-07 1.025084660857497e-07 2.2596070832072726e-08 7.221050054841785e-07 0.0 0.0
0.0 1.998318128268912e-07 9.511641442776528e-09 -4.50894101449079e-09 -5.00270042828553e-09 -1.8324388973694076e-07 0.0 0.0
0.0 -2.421719603617441e-07 -3.246815517878595e-09 1.8808664168966315e-09 1.3659491009815945e-09 4.8805572277769595e-08 0.0 0.0
0.0 0.0 0.0 0.0 0.0 0.0 0.0 0.0
0.0 0.0 0.0 0.0 0.0 0.0 0.0 0.0
0.0 4.708975586266584e-08 6.631015335524161e-10 -4.066369113317879e-10 -2.56464622220512e-10 9.52065192162231e-09 0.0 0.0
0.0 -8.431200303313022e-07 -2.8996678881907022e-08 2.3017103404619397e-08 5.97957547729079e-09 -1.6687519249258124e-07 0.0 0.0
0.0 1.5763730599822493e-06 1.8201181511349118e-07 -1.5102108910952694e-07 -3.099072600397064e-08 7.540279323641289e-07 0.0 0.0
0.0 4.6456843666348274e-07 2.113430187417479e-06 -1.703231636799911e-06 -4.101985506176012e-07 6.747103493621109e-06 0.0 0.0
0.0 -1.584254683556783e-05 1.7762342825582664e-06 -1.4157071407636118e-06 -3.605271417946058e-07 -1.645482803890764e-06 0.0 0.0
0.0 8.93671420506533e-05 -2.426450040752428e-05 1.7796202572025198e-05 6.468297835498902e-06 -2.3376313259192587e-05 0.0 0.0
0.0 0.0005693771348236625 -0.00045426979474307065 0.00035372863179713976 0.00010054116294593094 -0.0005027307436611945 0.0 0.0
0.0 0.0018639778662535578 -0.00148176743127441 0.0012089269888087976 0.00027284044246561156 -0.0013695293425001697 0.0 0.0
0.0 0.004104518917429418 -0.003109318112053421 0.00266616798324235 0.0004431501288110712 -0.0026466320628676255 0.0 0.0
0.0 0.006409639080495157 -0.005210007797415372 0.0046352816199888664 0.0005747261774265061 -0.004167969180800504 0.0 0.0
0.0 0.009269767928047247 -0.007636294072355429 0.006963825428320544 0.0006724686440348809 -0.005657553886795599 0.0 0.0
0.0 0.012608137503129668 -0.010401142634434125 0.009647793898670393 0.0007533487357637288 -0.007096390578357146 0.0 0.0
0.0 0.016411454790441628 -0.013605971214831248 0.012784272635573342 0.000821698579257903 -0.008531889241120319 0.0 0.0
0.0 0.020922973822755972 -0.017337225189473168 0.016460219042319077 0.0008770061471540997 -0.010095055083770373 0.0 0.0
0.0 0.02591845444743844 -0.021561464013954746 0.020650970010576485 0.000910494003378261 -0.012025658429042975 0.0 0.0
0.0 0.031438937243194326 -0.025965125650554165 0.025049421556389048 0.0009157040941651132 -0.01470074892083441 0.0 0.0
0.0 0.036234891354723825 -0.02980745673571401 0.028927308498211273 0.0008801482375027152 -0.01825204134800221 0.0 0.0
0.0 0.03889035934419643 -0.03164898361110153 0.03084468364890576 0.0008042999621957834 -0.021718201896446403 0.0 0.0
0.0 0.03637534042512492 -0.029029572761635362 0.02837251083416336 0.0006570619274719979 -0.022808860064520986 0.0 0.0
0.0 0.03364164330766381 -0.023770347302341552 0.020635722680718168 0.0031346246216233703 1.1961785728598073e-14 0.0 0.0
0.0 0.03637534042512582 -0.029029572761631327 0.028372510834159207 0.0006570619274721158 0.02280886006454605 0.0 0.0
0.0 0.03889035934419211 -0.03164898361109374 0.030844683648898655 0.000804299962195042 0.02171820189647154 0.0 0.0
0.0 0.036234891354712084 -0.02980745673570219 0.028927308498200403 0.0008801482375017813 0.01825204134801513 0.0 0.0
0.0 0.03143893724317181 -0.025965125650535173 0.02504942155637028 0.0009157040941649042 0.014700748920831723 0.0 0.0
0.0 0.025918454447413895 -0.021561464013934262 0.020650970010555908 0.0009104940033783358 0.012025658429033307 0.0 0.0
0.0 0.020922973822733646 -0.017337225189454592 0.016460219042301036 0.0008770061471535524 0.010095055083760917 0.0 0.0
0.0 0.01641145479041855 -0.013605971214811661 0.012784272635554116 0.0008216985792575481 0.00853188924111124 0.0 0.0
0.0 0.012608137503105948 -0.010401142634414494 0.00964779389865109 0.0007533487357634058 0.007096390578346909 0.0 0.0
0.0 0.009269767928024425 -0.0076362940723369264 0.006963825428302812 0.0006724686440341131 0.0056575538867826465 0.0 0.0
0.0 0.0064096390804743875 -0.005210007797398826 0.004635281619972878 0.0005747261774259476 0.004167969180786619 0.0 0.0
0.0 0.004104518917413679 -0.0031093181120410026 0.0026661679832309165 0.00044315012881008533 0.0026466320628571326 0.0 0.0
0.0 0.0018639778662444997 -0.0014817674312675613 0.0012089269888030294 0.0002728404424645305 0.001369529342494955 0.0 0.0
0.0 0.0005693771348188022 -0.0004542697947395386 0.00035372863179435624 0.00010054116294518209 0.0005027307436577926 0.0 0.0
0.0 8.936714204847974e-05 -2.426450040664844e-05 1.7796202571348195e-05 6.468297835300394e-06 2.3376313258088734e-05 0.0 0.0
0.0 -1.584254683583614e-05 1.7762342820027004e-06 -1.4157071403338897e-06 -3.6052714166879315e-07 1.6454828051659727e-06 0.0 0.0
0.0 4.6456843580237835e-07 2.1134301872142586e-06 -1.703231636631961e-06 -4.101985505822934e-07 -6.747103492935501e-06 0.0 0.0
0.0 1.576373059459648e-06 1.8201181514177743e-07 -1.5102108913328327e-07 -3.0990726008501585e-08 -7.54027932412764e-07 0.0 0.0
0.0 -8.431200300362501e-07 -2.8996678872773777e-08 2.301710339753103e-08 5.979575475243381e-09 1.6687519243153147e-07 0.0 0.0
0.0 4.708975583477513e-08 6.631015331494612e-10 -4.066369110840808e-10 -2.5646462206536185e-10 -9.520651915847124e-09 0.0 0.0
0.0 0.0 0.0 0.0 0.0 0.0 0.0 0.0
0.0 0.0 0.0 0.0 0.0 0.0 0.0 0.0
0.0 0.0 0.0 0.0 0.0 0.0 0.0 0.0
0.0 -2.95889627028445e-07 -1.3592507698731995e-08 1.083743040721265e-08 2.7550772915178707e-09 -5.501979115714737e-08 0.0 0.0
0.0 -2.1726424571517836e-06 -2.0494791025226238e-07 1.667031501090498e-07 3.824476014321508e-08 -5.596408531963082e-07 0.0 0.0
0.0 6.09493356157749e-06 2.287950783073066e-06 -1.8396022457513967e-06 -4.483485373216639e-07 5.594436783340251e-06 0.0 0.0
0.0 1.2006071243071489e-05 1.9772018969698713e-05 -1.6069946503060503e-05 -3.7020724666382736e-06 3.6842274850985223e-05 0.0 0.0
0.0 0.00027761090307249457 -0.0002141540543754842 0.00016252420142091434 5.162985295456999e-05 -0.00018731993181205907 0.0 0.0
0.0 0.0012584096994823072 -0.001057646790206128 0.0008373310047445002 0.00022031578546162717 -0.0007739144125548476 0.0 0.0
0.0 0.0034709320911407203 -0.002660380894535587 0.0022355739375172026 0.0004248069570183828 -0.0018359967373404 0.0 0.0
0.0 0.00577916235983935 -0.004986133259378138 0.0043940061269997915 0.0005921271323783496 -0.0033321510450330136 0.0 0.0
0.0 0.009221020870983726 -0.007787691260805021 0.007083336212889433 0.0007043550479155825 -0.004886890600503767 0.0 0.0
0.0 0.01305668056965783 -0.011026950300844336 0.010234646202974488 0.0007923040978698476 -0.006414474657418983 0.0 0.0
0.0 0.01743113492973208 -0.01474378987718085 0.013871895067288115 0.0008718948098927399 -0.007900576891922435 0.0 0.0
0.0 0.022510915998781824 -0.019058694342138416 0.018113515538276406 0.000945178803862004 -0.009414470341771217 0.0 0.0
0.0 0.028379959371361285 -0.024096708838808024 0.02308794912398547 0.0010087597148225266 -0.011074318606626833 0.0 0.0
0.0 0.03539424161176893 -0.02985329425124279 0.02880341618270583 0.0010498780685369619 -0.013174795592262957 0.0 0.0
0.0 0.04231661694286824 -0.03596806877335643 0.034916291323197235 0.0010517774501591194 -0.016171008354934378 0.0 0.0
0.0 0.04915536742169784 -0.0413857619871563 0.04039082479482634 0.0009949371923299946 -0.020236802516729168 0.0 0.0
0.0 0.053039709300798425 -0.04411958856629981 0.04324692152769977 0.0008726670385999884 -0.024495070927709233 0.0 0.0
0.0 0.04986196166867569 -0.04091866341009875 0.0402610216785978 0.0006576417315009216 -0.0264360123689488 0.0 0.0
0.0 0.04435062890521982 -0.03415438361139598 0.030402671032974934 0.003751712578421037 1.3454515279676116e-14 0.0 0.0
0.0 0.049861961668676 -0.04091866341009398 0.04026102167859353 0.000657641731500433 0.026436012368978076 0.0 0.0
0.0 0.053039709300790314 -0.044119588566288954 0.043246921527689365 0.0008726670385995868 0.02449507092773876 0.0 0.0
0.0 0.049155367421678794 -0.041385761987138434 0.04039082479480846 0.000994937192329926 0.02023680251674471 0.0 0.0
0.0 0.04231661694284014 -0.03596806877333232 0.0349162913231731 0.001051777450159241 0.01617100835493293 0.0 0.0
0.0 0.0353942416117389 -0.029853294251216984 0.02880341618268048 0.001049878068536508 0.013174795592254998 0.0 0.0
0.0 0.028379959371332 -0.02409670883878293 0.02308794912396085 0.0010087597148220793 0.011074318606617005 0.0 0.0
0.0 0.02251091599875489 -0.01905869434211505 0.018113515538253574 0.0009451788038614571 0.009414470341762779 0.0 0.0
0.0 0.01743113492970264 -0.014743789877156056 0.013871895067263431 0.0008718948098926171 0.007900576891911938 0.0 0.0
0.0 0.013056680569629886 -0.011026950300820668 0.010234646202951343 0.000792304097869333 0.006414474657405641 0.0 0.0
0.0 0.00922102087095792 -0.007787691260783428 0.0070833362128681614 0.0007043550479152648 0.004886890600488697 0.0 0.0
0.0 0.005779162359818404 -0.004986133259360304 0.004394006126982699 0.0005921271323776043 0.003332151045020421 0.0 0.0
0.0 0.0034709320911260736 -0.002660380894524228 0.00223557393750713 0.00042480695701710067 0.0018359967373331944 0.0 0.0
0.0 0.001258409699474886 -0.0010576467902005048 0.0008373310047399139 0.00022031578546059067 0.0007739144125509811 0.0 0.0
0.0 0.0002776109030685612 -0.00021415405437309816 0.00016252420141911304 5.162985295398501e-05 0.00018731993181027545 0.0 0.0
0.0 1.2006071242405164e-05 1.9772018969369142e-05 -1.6069946502803632e-05 -3.7020724665655647e-06 -3.684227485043435e-05 0.0 0.0
0.0 6.094933560264864e-06 2.2879507830701697e-06 -1.839602245749627e-06 -4.483485373205187e-07 -5.594436783330756e-06 0.0 0.0
0.0 -2.1726424577186155e-06 -2.0494791028859784e-07 1.6670315013802272e-07 3.824476015057808e-08 5.596408533349889e-07 0.0 0.0
0.0 -2.9588962689353585e-07 -1.3592507692400482e-08 1.0837430402124616e-08 2.755077290274585e-09 5.50197911312241e-08 0.0 0.0
0.0 0.0 0.0 0.0 0.0 0.0 0.0 0.0
0.0 0.0 0.0 0.0 0.0 0.0 0.0 0.0
0.0 0.0 0.0 0.0 0.0 0.0 0.0 0.0
0.0 0.0 0.0 0.0 0.0 0.0 0.0 0.0
0.0 -1.336041538324973e-07 -7.0791082984345225e-09 5.607259907490537e-09 1.4718483909442396e-09 -2.3963176664436898e-08 0.0 0.0
0.0 -1.555711219258034e-07 -2.2690618974109305e-08 2.0845607799569463e-08 1.8450111745549255e-09 -5.006963119288666e-08 0.0 0.0
0.0 -1.0116356585710764e-05 4.128486661557213e-07 -3.9265018132004545e-07 -2.019848483568351e-08 1.269433128855088e-06 0.0 0.0
0.0 8.216400057435284e-05 -1.8888449190599334e-05 1.2192974383756167e-05 6.6954748068433475e-06 1.234547339430632e-05 0.0 0.0
0.0 0.0006344371844041903 -0.0005337843115604963 0.0004088863030055761 0.0001248980085549204 -0.0002944136954004942 0.0 0.0
0.0 0.002370750899283283 -0.0018234496462150528 0.001481670958963642 0.00034177868725141094 -0.0009656506756537328 0.0 0.0
0.0 0.004519959454522441 -0.0040407019279298335 0.0034868804693887236 0.0005538214585411108 -0.002182400188257871 0.0 0.0
0.0 0.008027538553243967 -0.006936759685782478 0.006240472767255122 0.00069628691852736 -0.0036173195695470934 0.0 0.0
0.0 0.012114947432678547 -0.010433045754842114 0.00963457934398859 0.0007984664108535225 -0.005109308205469394 0.0 0.0
0.0 0.01687049650115693 -0.014492482789872592 0.013607446387404624 0.0008850364024679643 -0.006585193514030713 0.0 0.0
0.0 0.02235735157142266 -0.019172797467119224 0.0182042603758319 0.0009685370912873064 -0.008041836098066532 0.0 0.0
0.0 0.028800136521781393 -0.02460829110955569 0.023560005529221033 0.0010482855803346698 -0.009553866579940212 0.0 0.0
0.0 0.03614745667315958 -0.03095411781344584 0.029832267695391948 0.0011218501180538518 -0.01122865394065163 0.0 0.0
0.0 0.04449368668293202 -0.03823165994349661 0.03705863574401381 0.0011730241994828193 -0.013277678635063695 0.0 0.0
0.0 0.05390502483940542 -0.046005211273728024 0.04483469566941653 0.0011705156043115136 -0.016160429084700955 0.0 0.0
0.0 0.06214990297007786 -0.05295829137421358 0.051870760537904174 0.0010875308363093783 -0.02030774011554995 0.0 0.0
0.0 0.06656317366525204 -0.05649972404008002 0.05558485534558273 0.0009148686944973177 -0.02520143395260876 0.0 0.0
0.0 0.06300678177885706 -0.05267358548603321 0.05202867305875039 0.0006449124272828175 -0.02882733563441237 0.0 0.0
0.0 0.05594099200367959 -0.044539563703258095 0.04022863498062714 0.00431092872263095 1.3802327336609466e-14 0.0 0.0
0.0 0.06300678177885478 -0.05267358548602691 0.052028673058744014 0.0006449124272828788 0.028827335634443084 0.0 0.0
0.0 0.06656317366523629 -0.05649972404006337 0.055584855345565794 0.0009148686944976122 0.025201433952637804 0.0 0.0
0.0 0.062149902970052906 -0.05295829137419077 0.05187076053788135 0.0010875308363093995 0.02030774011556641 0.0 0.0
0.0 0.053905024839371804 -0.04600521127369907 0.04483469566938744 0.0011705156043115535 0.016160429084700917 0.0 0.0
0.0 0.044493686682896515 -0.03823165994346579 0.03705863574398368 0.0011730241994821469 0.013277678635057747 0.0 0.0
0.0 0.03614745667312384 -0.030954117813415116 0.029832267695361674 0.0011218501180534433 0.011228653940643533 0.0 0.0
0.0 0.02880013652174924 -0.024608291109527315 0.023560005529193517 0.0010482855803338068 0.009553866579932306 0.0 0.0
0.0 0.022357351571386054 -0.01917279746708781 0.01820426037580043 0.0009685370912873748 0.008041836098056065 0.0 0.0
0.0 0.016870496501122493 -0.014492482789843181 0.01360744638737574 0.0008850364024674202 0.006585193514017866 0.0 0.0
0.0 0.012114947432648317 -0.010433045754816503 0.009634579343963365 0.0007984664108531375 0.005109308205454905 0.0 0.0
0.0 0.008027538553218383 -0.006936759685760702 0.00624047276723413 0.0006962869185265779 0.003617319569534675 0.0 0.0
0.0 0.004519959454507019 -0.004040701927915314 0.003486880469375394 0.0005538214585399184 0.002182400188250151 0.0 0.0
0.0 0.0023707508992708106 -0.0018234496462053225 0.0014816709589552 0.0003417786872501211 0.0009656506756481381 0.0 0.0
0.0 0.0006344371843993576 -0.0005337843115568822 0.0004088863030028135 0.00012489800855406926 0.0002944136953985761 0.0 0.0
0.0 8.216400057225774e-05 -1.8888449189935793e-05 1.2192974383264498e-05 6.695474806671083e-06 -1.2345473394671255e-05 0.0 0.0
0.0 -1.011635658595915e-05 4.128486655920448e-07 -3.926501808818305e-07 -2.0198484710245794e-08 -1.2694331281304814e-06 0.0 0.0
0.0 -1.5557112224163688e-07 -2.2690618993482742e-08 2.084560781404829e-08 1.8450111794521656e-09 5.006963124489742e-08 0.0 0.0
0.0 -1.3360415377959937e-07 -7.079108295548217e-09 5.6072599052097004e-09 1.4718483903391005e-09 2.396317665472527e-08 0.0 0.0
0.0 0.0 0.0 0.0 0.0 0.0 0.0 0.0
0.0 0.0 0.0 0.0 0.0 0.0 0.0 0.0
0.0 0.0 0.0 0.0 0.0 0.0 0.0 0.0
0.0 0.0 0.0 0.0 0.0 0.0 0.0 0.0
0.0 0.0 0.0 0.0 0.0 0.0 0.0 0.0
0.0 -1.5350917107087954e-06 -1.892693600690169e-07 1.5075410454428406e-07 3.8515255524709736e-08 -3.03152801213761e-07 0.0 0.0
0.0 -1.3194641335033172e-06 1.6080758446679513e-05 -1.2886770318309897e-05 -3.1939881283695634e-06 1.874729406840818e-05 0.0 0.0
0.0 0.00016544568169170386 -0.00016852538910848495 0.00012507337330928663 4.3452015799198094e-05 -7.119740360052474e-05 0.0 0.0
0.0 0.0012991314975071473 -0.0009647709015778605 0.000752994613619926 0.00021177628795793503 -0.0003474314716294156 0.0 0.0
0.0 0.003098193607412975 -0.002777485099432696 0.002318006724407136 0.00045947837502556023 -0.0011104715179058309 0.0 0.0
0.0 0.0061819915491564455 -0.005468132019529944 0.004820120960667487 0.0006480110588624624 -0.002228735574341501 0.0 0.0
0.0 0.010198237536170697 -0.008938106919289084 0.008161408770440097 0.0007766981488489835 -0.003510720554098564 0.0 0.0
0.0 0.015079406327290466 -0.0131205225183324 0.012246132407612832 0.000874390110719566 -0.004865940680301236 0.0 0.0
0.0 0.020798896613806465 -0.01800406468028229 0.017039936019794644 0.0009641286604876436 -0.0062061587827223616 0.0 0.0
0.0 0.027488428572177596 -0.02366135568815738 0.022607888884494828 0.0010534668036625448 -0.007546539495690765 0.0 0.0
0.0 0.03491899605660293 -0.030239630332904284 0.02909880598822884 0.0011408243446754465 -0.008974760285909688 0.0 0.0
0.0 0.04388326586223455 -0.0378746183843771 0.03665332251483529 0.0012212958695418286 -0.010566661834589895 0.0 0.0
0.0 0.054083415735972334 -0.0465947008364176 0.04531300687891948 0.0012816939574980526 -0.012390349090796782 0.0 0.0
0.0 0.06480726409180225 -0.0559507682913851 0.054667226308101766 0.0012835419832833385 -0.014759297632307568 0.0 0.0
0.0 0.07473798108387403 -0.06438701298017349 0.06321082554789814 0.0011761874322753496 -0.0184394747167693 0.0 0.0
0.0 0.08028108141246307 -0.0687861140121864 0.06783621186875612 0.0009499021434302673 -0.023863739037409053 0.0 0.0
0.0 0.07618885456907347 -0.06452999796416894 0.06391164681056938 0.0006183511535995396 -0.03022532670883221 0.0 0.0
0.0 0.06767271406633149 -0.05520569405268377 0.05038427965236771 0.004821414400316072 1.3100631690576847e-14 0.0 0.0
0.0 0.07618885456906606 -0.06452999796415916 0.06391164681055903 0.0006183511536001173 0.03022532670886117 0.0 0.0
0.0 0.08028108141244136 -0.06878611401216539 0.06783621186873454 0.0009499021434307371 0.023863739037436868 0.0 0.0
0.0 0.07473798108384333 -0.06438701298014606 0.06321082554787108 0.001176187432274965 0.018439474716785125 0.0 0.0
0.0 0.06480726409176597 -0.05595076829135339 0.05466722630807045 0.0012835419832829846 0.014759297632309976 0.0 0.0
0.0 0.054083415735932824 -0.04659470083638291 0.045313006878885585 0.001281693957497268 0.012390349090793132 0.0 0.0
0.0 0.04388326586219331 -0.03787461838434142 0.036653322514799906 0.001221295869541496 0.010566661834584073 0.0 0.0
0.0 0.034918996056564115 -0.030239630332870422 0.029098805988195857 0.0011408243446745393 0.008974760285902484 0.0 0.0
0.0 0.02748842857213516 -0.02366135568812048 0.022607888884457944 0.0010534668036625593 0.00754653949568135 0.0 0.0
0.0 0.020798896613767007 -0.018004064680248053 0.017039936019761073 0.0009641286604869739 0.006206158782710598 0.0 0.0
0.0 0.015079406327256866 -0.01312052251830323 0.012246132407584284 0.0008743901107189444 0.004865940680288606 0.0 0.0
0.0 0.010198237536142095 -0.00893810691926409 0.008161408770415811 0.0007766981488482711 0.0035107205540871283 0.0 0.0
0.0 0.006181991549135747 -0.00546813201951129 0.004820120960649868 0.0006480110588614216 0.0022287355743338204 0.0 0.0
0.0 0.0030981936073979834 -0.002777485099419421 0.0023180067243952314 0.0004594783750241897 0.0011104715178998745 0.0 0.0
0.0 0.0012991314974984977 -0.0009647709015713334 0.0007529946136146272 0.00021177628795670484 0.0003474314716265565 0.0 0.0
0.0 0.00016544568168886889 -0.0001685253891068318 0.0001250733733080606 4.34520157987709e-05 7.119740359998095e-05 0.0 0.0
0.0 -1.3194641341661819e-06 1.6080758446172808e-05 -1.2886770317916262e-05 -3.193988128256416e-06 -1.8747294067989755e-05 0.0 0.0
0.0 -1.5350917106255653e-06 -1.892693600834869e-07 1.5075410455540266e-07 3.851525552808529e-08 3.0315280123253713e-07 0.0 0.0
0.0 0.0 0.0 0.0 0.0 0.0 0.0 0.0
0.0 0.0 0.0 0.0 0.0 0.0 0.0 0.0
0.0 0.0 0.0 0.0 0.0 0.0 0.0 0.0
0.0 0.0 0.0 0.0 0.0 0.0 0.0 0.0
0.0 0.0 0.0 0.0 0.0 0.0 0.0 0.0
0.0 0.0 0.0 0.0 0.0 0.0 0.0 0.0
0.0 -8.828124647061565e-07 8.306286823500347e-08 -6.616914066866694e-08 -1.6893727566328076e-08 1.540832686528724e-07 0.0 0.0
0.0 1.5255463254643307e-05 1.0587696709624653e-05 -9.198964107167257e-06 -1.3887326024571842e-06 1.2687889890299078e-05 0.0 0.0
0.0 0.0004446582963547824 -0.00033988211128125343 0.0002532520712483587 8.663004003289488e-05 -5.972565172114892e-05 0.0 0.0
0.0 0.0018193531002150445 -0.001560253187939307 0.0012464319539367123 0.00031382123400259306 -0.00037414967654421887 0.0 0.0
0.0 0.0041783038819663155 -0.0037882178137196762 0.0032367379027994285 0.0005514799109202476 -0.001072707260480341 0.0 0.0
0.0 0.007769458523694835 -0.006935328693957438 0.006211994453243731 0.0007233342407137026 -0.0019787880681004346 0.0 0.0
0.0 0.012448270186823852 -0.010963059231181196 0.010121357891412512 0.0008417013397686916 -0.003045151362749917 0.0 0.0
0.0 0.018062890225191745 -0.015830674667996363 0.014891084395292863 0.0009395902727034817 -0.0041758774369148564 0.0 0.0
0.0 0.02475224446292717 -0.021545192752993728 0.02051026966017594 0.0010349230928177859 -0.005297475586635377 0.0 0.0
0.0 0.03231316417779063 -0.028198795056338877 0.027066852282046444 0.0011319427742924166 -0.006429671872732188 0.0 0.0
0.0 0.04147964221112008 -0.03592164602951985 0.03469724800168006 0.0012243980278398058 -0.00767084642569414 0.0 0.0
0.0 0.05168214273526992 -0.0448336768115079 0.04352514889307577 0.0013085279184320764 -0.009089260535294342 0.0 0.0
0.0 0.06313187082103747 -0.05489818724219287 0.05352221137855463 0.0013759758636383065 -0.01060837299102988 0.0 0.0
0.0 0.07564011326506301 -0.06564957653589847 0.06425707596494672 0.0013925005709516946 -0.0121856318423182 0.0 0.0
0.0 0.08713521714811588 -0.0755138547217363 0.07423563260712311 0.0012782221146131682 -0.01469516237142435 0.0 0.0
0.0 0.0938361889847628 -0.08101021146593528 0.08001585698440129 0.0009943544815340286 -0.020377138018108573 0.0 0.0
0.0 0.0898557161796613 -0.07672992118278668 0.0761575986625967 0.0005723225201900715 -0.03041672247789493 0.0 0.0
0.0 0.08056510951309977 -0.06644991790118296 0.06117463525045235 0.005275282650730641 1.2504754176578814e-14 0.0 0.0
0.0 0.08985571617965424 -0.07672992118277752 0.07615759866258796 0.0005723225201895554 0.030416722477921668 0.0 0.0
0.0 0.09383618898473733 -0.0810102114659117 0.08001585698437773 0.000994354481533935 0.020377138018133664 0.0 0.0
0.0 0.08713521714808056 -0.07551385472170534 0.07423563260709241 0.0012782221146129416 0.014695162371438312 0.0 0.0
0.0 0.0756401132650216 -0.06564957653586227 0.06425707596491101 0.0013925005709512295 0.012185631842321569 0.0 0.0
0.0 0.06313187082099131 -0.05489818724215273 0.05352221137851505 0.0013759758636376841 0.010608372991028046 0.0 0.0
0.0 0.0516821427352228 -0.04483367681146708 0.043525148893035506 0.001308527918431545 0.009089260535289885 0.0 0.0
0.0 0.04147964221107442 -0.03592164602947992 0.03469724800164106 0.001224398027838869 0.007670846425687564 0.0 0.0
0.0 0.03231316417774325 -0.028198795056297903 0.027066852282005796 0.001131942774292107 0.006429671872724935 0.0 0.0
0.0 0.02475224446288238 -0.02154519275295431 0.020510269660137203 0.0010349230928171217 0.005297475586626044 0.0 0.0
0.0 0.018062890225152964 -0.015830674667962466 0.014891084395259458 0.0009395902727029982 0.004175877436903936 0.0 0.0
0.0 0.012448270186790861 -0.010963059231152475 0.010121357891384282 0.0008417013397681924 0.0030451513627397964 0.0 0.0
0.0 0.0077694585236685815 -0.006935328693933962 0.0062119944532211275 0.0007233342407128289 0.001978788068093314 0.0 0.0
0.0 0.00417830388195065 -0.0037882178137050165 0.0032367379027859818 0.0005514799109190357 0.0010727072604755535 0.0 0.0
0.0 0.001819353100204373 -0.0015602531879302369 0.0012464319539290847 0.0003138212340011536 0.0003741496765413481 0.0 0.0
0.0 0.0004446582963501414 -0.0003398821112780249 0.00025325207124588434 8.663004003214031e-05 5.972565172027448e-05 0.0 0.0
0.0 1.525546325420657e-05 1.0587696709259592e-05 -9.1989641068631e-06 -1.3887326023966353e-06 -1.2687889889725865e-05 0.0 0.0
0.0 -8.828124652911689e-07 8.306286824968067e-08 -6.616914068259857e-08 -1.689372756707666e-08 -1.5408326870741392e-07 0.0 0.0
0.0 0.0 0.0 0.0 0.0 0.0 0.0 0.0
0.0 0.0 0.0 0.0 0.0 0.0 0.0 0.0
0.0 0.0 0.0 0.0 0.0 0.0 0.0 0.0
0.0 0.0 0.0 0.0 0.0 0.0 0.0 0.0
0.0 0.0 0.0 0.0 0.0 0.0 0.0 0.0
0.0 0.0 0.0 0.0 0.0 0.0 0.0 0.0
0.0 4.987253100309767e-07 2.620247137664381e-07 -2.025490633542346e-07 -5.947565041221843e-08 1.9625960381039734e-07 0.0 0.0
0.0 4.244608788432771e-05 -4.2714479706218106e-05 2.9228041737110606e-05 1.3486437969107557e-05 5.538261453915239e-06 0.0 0.0
0.0 0.0008311167679741904 -0.00062193294614767 0.0004712609600464815 0.00015067198610118796 -2.3654427007020486e-05 0.0 0.0
0.0 0.002366685325510788 -0.00225215935975293 0.0018434725367615673 0.00040868682299136376 -0.0003236122647690201 0.0 0.0
0.0 0.005329471893619485 -0.004833684290124538 0.0042052375334949935 0.0006284467566295502 -0.0008067936479688022 0.0 0.0
0.0 0.009389650659603462 -0.008419995673277511 0.007636043250388951 0.0007839524228885474 -0.001461181337191873 0.0 0.0
0.0 0.01469943376341603 -0.01299554055467458 0.01209895694504058 0.0008965836096340026 -0.002232811976229361 0.0 0.0
0.0 0.021145367626113017 -0.018545891730685007 0.017548066419505577 0.0009978253111793984 -0.0030529422806906694 0.0 0.0
0.0 0.028645682034281875 -0.025100373779510233 0.024000480581916964 0.0010998931975932829 -0.003866048258731976 0.0 0.0
0.0 0.037660927313438085 -0.03275359331491903 0.03154999279526024 0.0012036005196587821 -0.004698583066116078 0.0 0.0
0.0 0.047650581365746694 -0.04164546197738507 0.040342548200498304 0.0013029137768867174 -0.005659824612253628 0.0 0.0
0.0 0.05940035235993374 -0.05181538279100246 0.05042667251456085 0.001388710276441666 -0.006776849469144417 0.0 0.0
0.0 0.0724461568050938 -0.06310831396493186 0.061657252966997714 0.0014510609979341183 -0.007905921067381335 0.0 0.0
0.0 0.08618884082163483 -0.07500208975231265 0.07352169575411865 0.0014803939981941194 -0.008760488113107619 0.0 0.0
0.0 0.09904480067510567 -0.08613433873862485 0.08471455672374198 0.0014197820148828622 -0.009720165590461812 0.0 0.0
0.0 0.10731317765130453 -0.09310110705020039 0.09201452086219422 0.0010865861880061658 -0.014183954351531124 0.0 0.0
0.0 0.10418508217203432 -0.08954863642731453 0.08905991274893638 0.0004887236783779789 -0.028516850618711773 0.0 0.0
0.0 0.09468691497604884 -0.07871254577565052 0.07307228162711757 0.005640264148532812 8.518359628784111e-15 0.0 0.0
0.0 0.10418508217202307 -0.0895486364273027 0.08905991274892523 0.0004887236783774604 0.02851685061873285 0.0 0.0
0.0 0.10731317765127363 -0.09310110705017297 0.09201452086216641 0.0010865861880066502 0.014183954351551209 0.0 0.0
0.0 0.099044800675064 -0.08613433873858878 0.08471455672370609 0.0014197820148826351 0.00972016559047276 0.0 0.0
0.0 0.0861888408215859 -0.07500208975227023 0.07352169575407637 0.001480393998193886 0.008760488113109604 0.0 0.0
0.0 0.07244615680504031 -0.06310831396488535 0.06165725296695184 0.0014510609979335376 0.0079059210673801 0.0 0.0
0.0 0.059400352359881094 -0.05181538279095676 0.050426672514515776 0.001388710276440996 0.006776849469141439 0.0 0.0
0.0 0.047650581365693306 -0.04164546197733858 0.04034254820045279 0.0013029137768857829 0.005659824612248605 0.0 0.0
0.0 0.03766092731338316 -0.032753593314871314 0.03154999279521268 0.0012036005196586126 0.004698583066110754 0.0 0.0
0.0 0.028645682034230808 -0.025100373779466084 0.02400048058187328 0.0010998931975927473 0.0038660482587258467 0.0 0.0
0.0 0.02114536762607071 -0.018545891730647416 0.017548066419468607 0.0009978253111788196 0.003052942280682484 0.0 0.0
0.0 0.01469943376337986 -0.012995540554642315 0.012098956945008985 0.0008965836096333274 0.0022328119762221447 0.0 0.0
0.0 0.009389650659574495 -0.008419995673251376 0.007636043250363631 0.0007839524228877564 0.0014611813371865992 0.0 0.0
0.0 0.005329471893601428 -0.00483368429010777 0.004205237533479388 0.0006284467566283808 0.0008067936479652295 0.0 0.0
0.0 0.0023666853254994823 -0.0022521593597422244 0.00184347253675219 0.00040868682299003377 0.00032361226476679023 0.0 0.0
0.0 0.0008311167679684479 -0.0006219329461430208 0.00047126096004284165 0.00015067198610017863 2.3654427006365875e-05 0.0 0.0
0.0 4.2446087883607374e-05 -4.2714479706479256e-05 2.9228041737366325e-05 1.34864379691128e-05 -5.538261453314307e-06 0.0 0.0
0.0 4.987253095568759e-07 2.620247138641515e-07 -2.0254906343402446e-07 -5.947565043014781e-08 -1.9625960390735638e-07 0.0 0.0
0.0 0.0 0.0 0.0 0.0 0.0 0.0 0.0
0.0 0.0 0.0 0.0 0.0 0.0 0.0 0.0
0.0 0.0 0.0 0.0 0.0 0.0 0.0 0.0
0.0 0.0 0.0 0.0 0.0 0.0 0.0 0.0
0.0 0.0 0.0 0.0 0.0 0.0 0.0 0.0
0.0 0.0 0.0 0.0 0.0 0.0 0.0 0.0
0.0 -1.4476555421476031e-06 6.82671562141008e-07 -6.001778267796336e-07 -8.249373536137172e-08 5.072042670152216e-07 0.0 0.0
0.0 0.00018575990812203517 -0.00011265993772933832 7.902931602206735e-05 3.363062170727091e-05 3.0026807699148053e-05 0.0 0.0
0.0 0.0011894283034160071 -0.0010181201897712286 0.0007879899912705497 0.00023013019850067937 5.072371523523069e-05 0.0 0.0
0.0 0.003193555044359983 -0.0029656093279221227 0.002480855632242292 0.00048475369567982986 -0.00010681277058244198 0.0 0.0
0.0 0.006488533157715629 -0.0058965024006762 0.005204998702524457 0.0006915036981517389 -0.00035093267372466165 0.0 0.0
0.0 0.011088391914854565 -0.009903120195122427 0.009069620239454056 0.0008334999556683719 -0.0006823873187484482 0.0 0.0
0.0 0.016957129540964268 -0.015018892038974439 0.014073985161247542 0.0009449068777268802 -0.0010815785285315995 0.0 0.0
0.0 0.02415891608812969 -0.021252684734738306 0.02020180735225143 0.001050877382486895 -0.0014995455476297145 0.0 0.0
0.0 0.03284185389306507 -0.028651300641524505 0.027491752777796405 0.0011595478637280875 -0.001913347868061767 0.0 0.0
0.0 0.04254631214126694 -0.037326445376810395 0.03605582121455764 0.0012706241622527361 -0.0023802858583249053 0.0 0.0
0.0 0.05412459558738245 -0.04737170562935949 0.0459955403075349 0.0013761653218245596 -0.0029334135392205703 0.0 0.0
0.0 0.06726808204483892 -0.05877664305971875 0.05731406485047846 0.0014625782092402906 -0.003574566224306603 0.0 0.0
0.0 0.0816693205289789 -0.0712474396010876 0.0697302011516148 0.00151723844947288 -0.0042283132885374075 0.0 0.0
0.0 0.09650551951799444 -0.08406299851428276 0.082527841835943 0.0015351566783397422 -0.004631247671088679 0.0 0.0
0.0 0.11032139710049595 -0.09599788251667923 0.09446860550845612 0.0015292770082231608 -0.0046200898280691 0.0 0.0
0.0 0.1202635462945753 -0.1045914626973995 0.10321407249551871 0.0013773902018806672 -0.0062286284931973995 0.0 0.0
0.0 0.1194563458007568 -0.10327622273255525 0.10284160542436735 0.00043461730818790563 -0.020150875926273255 0.0 0.0
0.0 0.111110655927817 -0.09296926472978764 0.08732608708612395 0.005643177643663582 4.132978681514743e-15 0.0 0.0
0.0 0.11945634580073994 -0.10327622273253959 0.10284160542435189 0.0004346173081877141 0.02015087592628398 0.0 0.0
0.0 0.12026354629454 -0.10459146269736888 0.1032140724954877 0.0013773902018809807 0.0062286284932086865 0.0 0.0
0.0 0.11032139710044347 -0.09599788251663459 0.09446860550841052 0.0015292770082240602 0.0046200898280751735 0.0 0.0
0.0 0.09650551951794031 -0.08406299851423563 0.08252784183589644 0.0015351566783391797 0.004631247671089693 0.0 0.0
0.0 0.0816693205289211 -0.07124743960103726 0.06973020115156522 0.001517238449472034 0.004228313288537228 0.0 0.0
0.0 0.06726808204478006 -0.05877664305966749 0.05731406485042813 0.0014625782092393623 0.0035745662243045666 0.0 0.0
0.0 0.05412459558732104 -0.047371705629306204 0.04599554030748217 0.0013761653218239604 0.002933413539218551 0.0 0.0
0.0 0.04254631214120599 -0.0373264453767575 0.03605582121450505 0.0012706241622524623 0.0023802858583218903 0.0 0.0
0.0 0.03284185389300856 -0.02865130064147529 0.02749175277774747 0.0011595478637278114 0.0019133478680584569 0.0 0.0
0.0 0.02415891608808159 -0.02125268473469645 0.020201807352210215 0.0010508773824862306 0.00149954554762499 0.0 0.0
0.0 0.01695712954092347 -0.015018892038938216 0.014073985161212171 0.0009449068777260472 0.0010815785285278527 0.0 0.0
0.0 0.011088391914823862 -0.009903120195094641 0.00906962023942706 0.0008334999556675731 0.0006823873187457991 0.0 0.0
0.0 0.006488533157692701 -0.005896502400655139 0.005204998702504392 0.000691503698150745 0.0003509326737225227 0.0 0.0
0.0 0.0031935550443468372 -0.002965609327909552 0.0024808556322310025 0.00048475369567854763 0.00010681277058114754 0.0 0.0
0.0 0.0011894283034088592 -0.0010181201897650571 0.0007879899912655408 0.00023013019849951632 -5.072371523529874e-05 0.0 0.0
0.0 0.00018575990812034525 -0.000112659937728717 7.90293160216733e-05 3.363062170704383e-05 -3.0026807698838554e-05 0.0 0.0
0.0 -1.4476555423101149e-06 6.826715618099945e-07 -6.001778265333708e-07 -8.249373527656588e-08 -5.072042669933736e-07 0.0 0.0
0.0 0.0 0.0 0.0 0.0 0.0 0.0 0.0
0.0 0.0 0.0 0.0 0.0 0.0 0.0 0.0
0.0 0.0 0.0 0.0 0.0 0.0 0.0 0.0
0.0 0.0 0.0 0.0 0.0 0.0 0.0 0.0
0.0 0.0 0.0 0.0 0.0 0.0 0.0 0.0
0.0 0.0 0.0 0.0 0.0 0.0 0.0 0.0
0.0 -8.324405620447956e-07 2.3073955210637116e-06 -1.8347754861639305e-06 -4.7262003489965717e-07 7.622992091337633e-07 0.0 0.0
0.0 0.00038136466576587557 -0.00022480690134760525 0.0001574900384784536 6.731686286915207e-05 7.09577315839828e-05 0.0 0.0
0.0 0.0016050624157575065 -0.0013831928002458757 0.0010608277345731114 0.0003223650656727637 0.00018054800017547467 0.0 0.0
0.0 0.0038431370599647636 -0.003574861393476997 0.0029604242601869706 0.0006144371332900262 0.00021657346810219098 0.0 0.0
0.0 0.007420017923916262 -0.006773353134525257 0.005908166898803162 0.0008651862357220915 0.000242369345706683 0.0 0.0
0.0 0.012329805972903521 -0.011122246647897899 0.010052067776114995 0.0010701788717829047 0.0002552669013726372 0.0 0.0
0.0 0.018709887952065372 -0.016681250550541735 0.015410763262760835 0.001270487287780898 0.00023170109722692438 0.0 0.0
0.0 0.02658368852369968 -0.02348638756021278 0.02199178892128625 0.0014945986389265208 0.00021788686621888181 0.0 0.0
0.0 0.03569690668805252 -0.03160745051164075 0.029856163255336236 0.00175128725630452 0.00020896699104482053 0.0 0.0
0.0 0.04650566235053511 -0.04112808102266064 0.03909474710549336 0.0020333339171672332 0.0001347908826822234 0.0 0.0
0.0 0.05903652358951124 -0.052123663902260045 0.049794113450124834 0.002329550452135179 3.3322643952722435e-05 0.0 0.0
0.0 0.07323494459791757 -0.06454063192982738 0.06192538160047968 0.0026152503293476416 -0.00017026330480128873 0.0 0.0
0.0 0.08868501640571158 -0.07797424089712775 0.07511871136755054 0.0028555295295771116 -0.0004762913488816651 0.0 0.0
0.0 0.10430070395211852 -0.09150624755874694 0.08849835757481421 0.0030078899839326195 -0.0007789851795511615 0.0 0.0
0.0 0.11843243564473273 -0.10371331707060502 0.10068666284022984 0.0030266542303750746 -0.0008595993083065738 0.0 0.0
0.0 0.12898460855491084 -0.11293346741069052 0.10994285029727191 0.002990617113418692 -0.0012514508937205475 0.0 0.0
0.0 0.13125455308776207 -0.11535279873168611 0.11248881538049985 0.0028639833511862624 -0.01416805754394356 0.0 0.0
0.0 0.1270781527903212 -0.10790050990588665 0.0988908889591275 0.009009620946759073 1.85268467234323e-15 0.0 0.0
0.0 0.13125455308774425 -0.11535279873167041 0.11248881538048475 0.0028639833511855195 0.014168057543946934 0.0 0.0
0.0 0.12898460855487331 -0.11293346741065774 0.10994285029724044 0.002990617113417421 0.0012514508937233899 0.0 0.0
0.0 0.11843243564467366 -0.10371331707055428 0.10068666284017858 0.0030266542303758145 0.0008595993083084542 0.0 0.0
0.0 0.10430070395206148 -0.09150624755869652 0.08849835757476567 0.003007889983930559 0.0007789851795525441 0.0 0.0
0.0 0.0886850164056493 -0.0779742408970731 0.07511871136749763 0.0028555295295754537 0.0004762913488821005 0.0 0.0
0.0 0.073234944597854 -0.06454063192977136 0.06192538160042578 0.0026152503293455725 0.00017026330479943085 0.0 0.0
0.0 0.059036523589443314 -0.05212366390220076 0.04979411345006674 0.002329550452134007 -3.3322643953274944e-05 0.0 0.0
0.0 0.04650566235047167 -0.04112808102260494 0.03909474710543924 0.002033333917165715 -0.00013479088268324776 0.0 0.0
0.0 0.03569690668799158 -0.031607450511587684 0.029856163255284014 0.0017512872563036855 -0.00020896699104668015 0.0 0.0
0.0 0.02658368852364685 -0.02348638756016636 0.021991788921241075 0.0014945986389252824 -0.00021788686622060223 0.0 0.0
0.0 0.018709887952020957 -0.016681250550502943 0.015410763262723347 0.0012704872877796053 -0.00023170109722762695 0.0 0.0
0.0 0.012329805972871252 -0.01112224664786918 0.010052067776087359 0.0010701788717818327 -0.00025526690137324176 0.0 0.0
0.0 0.007420017923889261 -0.006773353134500636 0.005908166898779773 0.000865186235720861 -0.00024236934570667746 0.0 0.0
0.0 0.003843137059950039 -0.003574861393462902 0.002960424260174348 0.0006144371332885556 -0.0002165734681021502 0.0 0.0
0.0 0.0016050624157493518 -0.0013831928002379392 0.0010608277345667088 0.0003223650656712303 -0.0001805480001747727 0.0 0.0
0.0 0.0003813646657638582 -0.00022480690134658288 0.00015749003847780453 6.731686286877946e-05 -7.0957731583437e-05 0.0 0.0
0.0 -8.324405621728602e-07 2.3073955209757307e-06 -1.8347754861028345e-06 -4.726200348729104e-07 -7.622992091429943e-07 0.0 0.0
0.0 0.0 0.0 0.0 0.0 0.0 0.0 0.0
0.0 0.0 0.0 0.0 0.0 0.0 0.0 0.0
0.0 0.0 0.0 0.0 0.0 0.0 0.0 0.0
SCALARS Wm float 4
LOOKUP_TABLE default
10.5894025818138 1.9362173161599858 4.20571357279169 4.447471692862118
4.873858641335563 2.4110680085573555 1.0730541252898627 1.3897365074883472
0.5482845677965742 0.5433284776480477 -0.003443684497110732 0.008399774645636966
0.45501369172654405 0.4482315702552811 0.0019303016319002048 0.004851819839362705
0.8150777392298335 0.6698201298319789 0.051091511492755176 0.094166097905099
1.607328363125105 0.9006371397861657 0.2378717362116222 0.4688194871273176
3.1458631201353042 1.230977602007397 0.7677205821167142 1.1471649360111944
5.558725213117606 1.6088805056421722 1.735419092934741 2.2144256145406866
9.031521703632905 2.0570583876287674 3.2831724724878644 3.6912908435162723
13.730554773817621 2.6098818244869673 5.530978759966266 5.589694189364396
19.801065351391497 3.3101815959208345 8.57403885322073 7.916844902249936
27.304157732349644 4.189219212394447 12.418183358628548 10.696755161326672
36.51215899708132 5.248926881323873 17.301354990793797 13.961877124963648
47.56351674816398 6.490793303339113 23.328706661694046 17.74401678313083
60.45483623941535 7.827322247070622 30.593135630535315 22.034378361809384
74.87199514700467 9.091143617158675 39.03840278306144 26.742448746784582
90.00432209069285 10.06294470542414 48.26302384338883 31.678353541879893
104.60608657686146 10.5544523866628 57.57698213797492 36.474652052223696
117.22094749132555 10.56021383059812 65.98581196983662 40.674921690890834
126.02999436508935 10.085923360596041 72.17095632661781 43.77311467787547
129.00117383013367 9.309868624278176 74.64659679333663 45.04470841251891
126.02999436507426 10.085923360594709 72.17095632660839 43.77311467787121
117.22094749129408 10.560213830598421 65.9858119698153 40.674921690880396
104.60608657680059 10.5544523866442 57.576982137947084 36.4746520522093
90.00432209063717 10.06294470542179 48.263023843353814 31.678353541861533
74.87199514694517 9.091143617150422 39.038402783028474 26.742448746766332
60.45483623935978 7.827322247065232 30.59313563050357 22.034378361790953
47.56351674811562 6.490793303342561 23.328706661661812 17.744016783111213
36.51215899703216 5.248926881322324 17.30135499076488 13.961877124944976
27.304157732303214 4.189219212389934 12.418183358603759 10.69675516130953
19.8010653513523 3.3101815959159704 8.57403885320105 7.916844902235268
13.730554773787016 2.609881824482467 5.530978759951825 5.589694189352731
9.031521703612094 2.0570583876283637 3.28317247247717 3.6912908435065623
5.558725213102198 1.6088805056390232 1.7354190929287772 2.214425614534396
3.145863120126137 1.230977602005316 0.7677205821136035 1.1471649360072182
1.6073283631201443 0.9006371397845727 0.23787173621059413 0.46881948712497723
0.8150777392280071 0.6698201298312597 0.05109151149234877 0.09416609790439846
0.45501369172606 0.4482315702548213 0.0019303016318884634 0.004851819839350339
0.5482845677957429 0.5433284776472443 -0.003443684497101157 0.0083997746455997
4.8738586413311475 2.4110680085579856 1.073054125287494 1.3897365074856673
10.589402581789138 1.9362173161477891 4.205713572784965 4.447471692856392
12.365145766115761 5.545549376400986 3.2094121529462996 3.6101842367684793
1.7934133613234475 0.3978621062137712 0.5615065705045934 0.834044684605083
0.2344346319597675 0.25479908552009506 -0.005222274175862618 -0.01514217938446494
0.36248707557668675 0.36216927737280025 -6.310936551081745e-05 0.000380907569397229
0.6255439061965175 0.5511513685143405 0.021187513889612812 0.053205023792564504
1.2945603088546773 0.7833334094017088 0.17685566183771592 0.3343712376152527
2.587335823553392 1.0222547977215772 0.6077881862520089 0.9572928395798063
4.710422342955812 1.301536228271577 1.470056913093847 1.9388292015903894
7.781114364168563 1.6009225930843165 2.8710829537129867 3.3091088173712593
11.892181416091333 1.933062429064686 4.889600793291405 5.069518193735242
17.146558240046165 2.3116970359259765 7.614356663271755 7.220504540848431
23.704922793007828 2.7569435273559213 11.17145387749059 9.776525388161318
31.54678339579593 3.282016182384631 15.484062042074973 12.780705171336331
41.07573129994685 3.8751411566818805 20.93432593685161 16.266264206413354
52.23956036882348 4.497625027288571 27.499245059068073 20.242690282466835
64.81182932945974 5.050330292328957 35.13397581989223 24.627523217238547
78.16315762247811 5.404935379500454 43.549030287276516 29.209191955701126
91.24898299061505 5.466588424324515 52.09846154347658 33.68393302281397
102.6567674699457 5.197829710279228 59.837060989872 37.62187676979448
110.70124910513425 4.647066199742246 65.58369779716404 40.470485108227926
113.65938252044172 4.0676879900548 67.9625160753563 41.629178455030655
110.70124910512291 4.64706619974536 65.58369779715437 40.47048510822318
102.65676746991404 5.197829710274926 59.8370609898539 37.62187676978525
91.24898299057759 5.4665884243257485 52.098461543450966 33.683933022800844
78.1631576224312 5.404935379501169 43.54903028724562 29.20919195568441
64.8118293294105 5.050330292325731 35.13397581986268 24.627523217222087
52.23956036877442 4.497625027284812 27.49924505903953 20.242690282450077
41.07573129990027 3.875141156681438 20.93432593682315 16.266264206395693
31.546783395752573 3.2820161823845595 15.484062042048905 12.78070517131911
23.704922792967853 2.7569435273543093 11.171453877468146 9.776525388145405
17.14655824001231 2.3116970359238347 7.614356663253776 7.220504540834699
11.892181416064695 1.9330624290616596 4.889600793278581 5.069518193724452
7.781114364149409 1.6009225930831872 2.8710829537037394 3.3091088173624796
4.710422342942421 1.3015362282696925 1.4700569130883634 1.9388292015843651
2.587335823545546 1.0222547977199203 0.6077881862493816 0.9572928395762428
1.2945603088505473 0.7833334094006369 0.1768556618364988 0.3343712376134115
0.6255439061951511 0.5511513685135798 0.02118751388939965 0.05320502379217189
0.3624870755763373 0.36216927737238847 -6.31093655020199e-05 0.00038090756945093827
0.2344346319597511 0.2547990855199491 -0.005222274175821335 -0.015142179384376746
1.793413361318175 0.397862106213131 0.5615065705024368 0.8340446846026078
12.365145766092347 5.5455493763903565 3.209412152939602 3.6101842367623838
9.162332799176685 4.345071556448929 2.1649793498126235 2.65228189291513
1.0864677555737887 0.14286233260497758 0.3659121059036853 0.5776933170651255
0.14769400892171605 0.1476944453793744 -1.80369121587346e-08 -4.1842074621861334e-07
0.27376443186950705 0.2735442143757153 6.781868497150784e-05 0.00015239880882017337
0.484212588375254 0.46567468890109065 0.0038997630329399447 0.014638136441223585
1.00870858006637 0.7035218343995643 0.10214422300886684 0.2030425226579393
2.0848783419350463 0.9355840669487513 0.4235626771014639 0.7257315978848311
3.937478000818068 1.2052649675793476 1.1436827763199258 1.5885302569187936
6.633788363368314 1.4844775792341847 2.3344464127927345 2.8148643713413954
10.263333294015368 1.7830957240247916 4.08770036185233 4.392537208138245
14.867549797163251 2.1160710959036813 6.4407265725859935 6.310752128673573
20.510266139354236 2.500021995306731 9.429338781162567 8.580905362884941
27.465602454277267 2.95837399600897 13.273234894212218 11.23399356405608
35.673776537079796 3.4854972920979757 17.85956531054876 14.328713934433045
45.44771163088946 4.03927548286682 23.53963526643322 17.868800881589404
56.516567213147134 4.550859342969886 30.16806754903051 21.79764032114675
68.36263045773977 4.917587872323611 37.491876851263875 25.953165734152293
80.05702399167133 5.030666789408008 45.00561552690723 30.020741675356103
90.29261792539785 4.814415457780962 51.87467488838297 33.603527579233926
97.55681738298956 4.384853127914248 56.98401927243074 36.18794498264456
100.16383774413619 3.7090855058079577 59.16263414337159 37.2921180949567
97.55681738297591 4.38485312791394 56.98401927242203 36.187944982639884
90.29261792537442 4.814415457780774 51.874674888367636 33.603527579226004
80.05702399163381 5.030666789403539 45.00561552688582 30.020741675344464
68.36263045769873 4.917587872323143 37.49187685123777 25.953165734137823
56.51656721310303 4.5508593429654205 30.16806754900537 21.79764032113223
45.44771163085033 4.039275482868183 23.53963526640801 17.868800881574114
35.67377653703794 3.485497292094914 17.859565310525134 14.328713934417891
27.465602454237324 2.958373996005068 13.273234894190807 11.233993564041445
20.51026613931972 2.500021995306672 9.429338781142656 8.580905362870404
14.867549797133565 2.1160710959010682 6.440726572570963 6.310752128661534
10.263333293992346 1.783095724022418 4.087700361841358 4.3925372081285685
6.6337883633508925 1.484477579232195 2.3344464127849776 2.814864371333721
3.93747800080624 1.2052649675780471 1.1436827763149986 1.5885302569131954
2.08487834192871 0.9355840669477988 0.4235626770993517 0.7257315978815595
1.0087085800630051 0.7035218343984296 0.10214422300803407 0.2030425226565412
0.4842125883742545 0.4656746889001381 0.003899763032913519 0.014638136441202657
0.27376443186928223 0.2735442143754941 6.781868496996132e-05 0.00015239880881820974
0.14769400892165757 0.14769444537931564 -1.8036912141597065e-08 -4.184207459031903e-07
1.0864677555699478 0.14286233260496228 0.3659121059020064 0.5776933170629782
9.16233279915478 4.345071556439347 2.164979349806439 2.652281892908996
6.837114336183368 3.3726239456165037 1.4908302344445452 1.9736601561223202
0.7090340751136835 0.07905976102258637 0.22758538640644288 0.40238892768465434
0.10435851681343997 0.10435851681343997 0.0 0.0
0.20675052424893228 0.20673796447078804 3.7842941351643616e-06 8.775484009108305e-06
0.37761314074580266 0.3821956059991687 -0.0014174156116412092 -0.003165049641724864
0.7554928797816285 0.6036507588625502 0.04375195375598346 0.10809016716309475
1.6406583132062134 0.8562848479107656 0.2813087836057101 0.5030646816897375
3.194786021930766 1.1030026131823523 0.843786598670101 1.2479968100783128
5.530255284309206 1.363956589217682 1.8392726430990087 2.327026051992514
8.67193929931327 1.632894812361355 3.318598339202564 3.7204461477493487
12.621518174687925 1.921923899083295 5.290621677217785 5.408972598386848
17.494183016468927 2.255542137633662 7.844997927065173 7.3936429517700875
23.33435694917587 2.6477471405019504 10.977562333228887 9.709047475445034
30.504104025803976 3.103255944146201 15.001097563869973 12.399750517787819
38.865938040640714 3.5987851251443264 19.763608033003813 15.503544882492575
48.38716479833029 4.073304307948149 25.339733771557487 18.97412671882466
58.78622041474371 4.446830274682145 31.674914883928597 22.664475256132953
69.14989098420185 4.61227419447409 38.2032880215372 26.334328768190563
78.31536235210862 4.486050594749479 44.21539364500294 29.613918112356213
84.92848630448995 4.1420039909623885 48.75521926365676 32.03126304987087
87.30776804043738 3.334838686050502 50.86343505293947 33.10949430144738
84.92848630448188 4.142003990965463 48.75521926364936 32.03126304986705
78.31536235208398 4.48605059474403 44.215393644990456 29.61391811234952
69.149890984176 4.612274194476726 38.203288021518745 26.334328768180526
58.78622041470534 4.446830274676954 31.67491488390756 22.664475256120838
48.38716479829358 4.073304307945542 25.33973377153618 18.974126718811895
38.86593804060228 3.5987851251407035 19.76360803298243 15.503544882479124
30.504104025767948 3.103255944143157 15.001097563850184 12.399750517774605
23.334356949143647 2.647747140500135 10.977562333211095 9.70904747543242
17.494183016438864 2.255542137632606 7.844997927048771 7.393642951757487
12.621518174663095 1.9219238990820902 5.290621677204914 5.408972598376092
8.671939299293209 1.6328948123595857 3.3185983391929903 3.7204461477406303
5.530255284294766 1.3639565892169032 1.839272643092285 2.3270260519855777
3.194786021921004 1.1030026131807722 0.8437865986665612 1.2479968100736707
1.6406583132004262 0.8562848479095402 0.2813087836037885 0.5030646816870971
0.7554928797792987 0.6036507588614355 0.04375195375555479 0.10809016716230846
0.3776131407452546 0.38219560599847985 -0.0014174156116194823 -0.003165049641605841
0.20675052424885612 0.2067379644707337 3.784294133283476e-06 8.775483989125707e-06
0.10435851681328054 0.10435851681328054 0.0 0.0
0.709034075110369 0.07905976102256461 0.22758538640501097 0.40238892768279355
6.837114336165955 3.3726239456091758 1.4908302344398032 1.9736601561169762
5.020474115953592 2.595569539044549 0.9858258544496092 1.4390787224594326
0.5196712767929075 0.10673016866357316 0.15530374941533776 0.25763735871399684
0.09484431034550535 0.09484431034550535 0.0 0.0
0.16419873089568818 0.1641913020771699 4.1024249203392503e-07 7.018576026238409e-06
0.2978446444838317 0.30114899051288135 -0.0007820220402957833 -0.0025223239887539385
0.5632484451801547 0.5199916017868201 0.009965172086856596 0.03329167130647777
1.2380940885213634 0.7559887497326083 0.1708298973422128 0.3112754414465431
2.4942323984823385 0.995904395061383 0.5770738810824775 0.9212541223384786
4.46394105853583 1.2374162427853095 1.3784934302755303 1.8480313854749906
7.121020588838354 1.4795758248128559 2.585519576438991 3.0559251875865097
10.466554388197931 1.7327882937656711 4.218725666775304 4.515040427656955
14.543518149017242 2.016469278419769 6.3086218555428735 6.218427015054604
19.491110592321547 2.351794618515204 8.94498934856452 8.194326625241828
25.343430964063824 2.7419365297101974 12.10523050850951 10.496263925844115
32.42155846744789 3.1694546333338574 16.099092599637572 13.153011234476466
40.58141104490902 3.6074894656359713 20.8260040550144 16.14791752425865
49.43620377778879 3.989793073985956 26.06401553917517 19.38239516462767
58.479938104468104 4.214324448924204 31.629577745499798 22.636035910044086
66.66368750929118 4.186162667638901 36.87990730941659 25.597617532235688
72.7694436506369 3.9144004145994 40.995131370023735 27.859911866013743
75.00033279050902 2.959572874862492 43.06157661045536 28.979183305191196
72.76944365063304 3.9144004146073117 40.995131370016104 27.8599118660096
66.66368750927575 4.186162667638353 36.87990730940701 25.597617532230345
58.47993810444245 4.214324448923763 31.629577745483758 22.63603591003494
49.43620377775786 3.9897930739817733 26.064015539158383 19.382395164617687
40.5814110448778 3.607489465634159 20.82600405499626 16.14791752424737
32.42155846741734 3.169454633331517 16.09909259962054 13.153011234465286
25.34343096403451 2.7419365297091565 12.105230508492836 10.496263925832507
19.491110592294312 2.351794618514301 8.944989348549454 8.194326625230556
14.543518148992383 2.0164692784183638 6.308621855529868 6.218427015044149
10.466554388175307 1.73278829376288 4.218725666764714 4.515040427647715
7.121020588821651 1.4795758248124251 2.5855195764306713 3.0559251875785547
4.463941058522931 1.237416242783659 1.3784934302702359 1.848031385469037
2.4942323984744563 0.9959043950601804 0.5770738810795916 0.9212541223346837
1.238094088517077 0.7559887497313489 0.17082989734099216 0.311275441444736
0.5632484451785881 0.5199916017859052 0.009965172086654515 0.033291671306028364
0.2978446444834153 0.3011489905123643 -0.0007820220402745188 -0.0025223239886745397
0.16419873089546558 0.16419130207695154 4.1024249179030226e-07 7.018576022264267e-06
0.09484431034535155 0.09484431034535155 0.0 0.0
0.5196712767901869 0.10673016866349738 0.15530374941417058 0.25763735871251914
5.020474115940069 2.595569539038908 0.985825854446066 1.439078722455096
3.6137698553952644 1.984345899590736 0.6299498110658219 0.9994741447387075
0.3678790216242782 0.1429266567608914 0.07152288354369475 0.1534294813196917
0.10624103100978036 0.10624103100978036 0.0 0.0
0.14278307242620186 0.14278339188888214 -1.2239768657509634e-08 -3.072229116306911e-07
0.24327063401129345 0.24414305273517622 -0.00013400900710437447 -0.0007384097167783771
0.4208415458974083 0.42051645820307937 -0.0021577583811766415 0.0024828460755056013
0.8740404785720128 0.6336180635792948 0.06893388285257392 0.17148853214014417
1.8823792224846703 0.8842709656176956 0.3847904148617326 0.6133178420052418
3.4251823999683033 1.1000447388627765 0.9439984048962492 1.3811392562092775
5.635287406954523 1.3229769579730544 1.9111713925608365 2.4011390564206314
8.379856518027312 1.5431801762826147 3.2059988580244916 3.6306774837202016
11.695585722681326 1.7840313386323594 4.855065864352981 5.056488519695989
15.674493837038103 2.064933724888637 6.911076049020936 6.6984840631285305
20.49347547067173 2.392533961737189 9.493597112886942 8.6073443960476
26.204532468099018 2.766956906903103 12.613400343062281 10.824175218133632
32.83548768508851 3.1544726932980898 16.337325446389283 13.343689545401135
40.37468994004278 3.528855341815678 20.758660028578895 16.087174569648226
48.087670899435025 3.8229854628412214 25.341774313747454 18.922911122846354
55.26185405332112 3.9027698238310435 29.7712081068876 21.587876122602495
60.95746087020735 3.703235603000303 33.534362627605915 23.71986263960115
63.11167724853496 2.5905171638132765 35.62612352829802 24.895036556423662
60.957460870192314 3.703235602993556 33.534362627600636 23.719862639598084
55.261854053316306 3.9027698238419513 29.77120810687765 21.58787612259673
48.087670899410924 3.822985462835315 25.341774313736014 18.92291112283958
40.37468994001365 3.5288553418070285 20.758660028566233 16.08717456964041
32.83548768506431 3.154472693299552 16.337325446373768 13.343689545391001
26.20453246807365 2.7669569069011737 12.613400343048397 10.82417521812408
20.49347547064698 2.3925339617341788 9.493597112874419 8.607344396038378
15.674493837016005 2.064933724887806 6.9110760490089955 6.698484063119204
11.695585722660212 1.7840313386298288 4.855065864342913 5.056488519687473
8.379856518008728 1.5431801762792232 3.205998858016571 3.6306774837129354
5.635287406940716 1.3229769579729176 1.9111713925541205 2.4011390564136743
3.4251823999587807 1.1000447388616257 0.9439984048924746 1.3811392562046807
1.8823792224781168 0.8842709656164592 0.3847904148594167 0.6133178420022405
0.8740404785690294 0.633618063578187 0.06893388285189708 0.17148853213894547
0.42084154589631717 0.42051645820198336 -0.0021577583811828575 0.0024828460755167456
0.24327063401101445 0.24414305273490022 -0.00013400900710495254 -0.0007384097167808695
0.1427830724260334 0.14278339188871295 -1.2239768622387086e-08 -3.0722291093115194e-07
0.10624103100958933 0.10624103100958933 0.0 0.0
0.36787902162232156 0.14292665676075245 0.07152288354293758 0.1534294813186318
3.613769855384831 1.9843458995862728 0.6299498110632822 0.9994741447352768
2.5031629386909944 1.493919174638468 0.358790467251083 0.6504532968014424
0.28196740147813043 0.18361792713095976 0.027333411780329803 0.07101606256684097
0.12715648975433066 0.12715648975433066 0.0 0.0
0.13779228872474283 0.13779228872474283 0.0 0.0
0.20692811557957094 0.20681739364675047 9.394389369235312e-06 0.00010132754345118478
0.3254724442911941 0.3381556668117056 -0.003337499547740731 -0.00934572297277071
0.6108072211249939 0.5288565726258325 0.018390733508143756 0.0635599149910174
1.2798890950327966 0.7344466628036505 0.17890008041489552 0.3665423518142509
2.5320405389820437 0.9667102752212682 0.633427492263175 0.9319027714976003
4.1893694616192505 1.154944926503482 1.276793894970056 1.7576306401457127
6.3818686235803375 1.350786070645473 2.272253684114935 2.7588288688199274
8.981561285522574 1.5546464223587 3.5183642675316618 3.908550595632215
12.064229900935741 1.7869396490415501 5.054993373354662 5.222296878539532
15.769406906206491 2.0582540786903225 6.967475476026669 6.743677351489499
20.211246981437576 2.3710072241962092 9.320959899183682 8.519279858057681
25.551071290189174 2.720575826746908 12.273248967277649 10.557246496164609
31.393153198545853 3.0739156778441155 15.496850281815671 12.822387238886087
37.85834117264701 3.411293614202048 19.25727171798894 15.189775840456027
44.22383825440137 3.616065376874537 23.07598487161437 17.531788005912443
49.498429599843114 3.512345908296444 26.42130065799857 19.564783033548107
51.660794144816435 2.237199401607403 28.588071513559324 20.835523229649702
49.4984295998367 3.512345908292147 26.42130065799719 19.564783033547343
44.2238382543881 3.616065376875737 23.075984871605353 17.531788005906993
37.85834117263614 3.4112936142065284 19.25727171797955 15.189775840450054
31.393153198531433 3.0739156778466548 15.496850281805413 12.822387238879365
25.551071290167222 2.7205758267457716 12.273248967265339 10.55724649615611
20.21124698141772 2.371007224194091 9.320959899173493 8.519279858050133
15.769406906189763 2.058254078690054 6.967475476017451 6.743677351482264
12.064229900917656 1.7869396490398417 5.054993373345714 5.2222968785321005
8.981561285507333 1.5546464223585077 3.5183642675237174 3.9085505956251074
6.381868623566923 1.350786070644612 2.2722536841086507 2.7588288688136595
4.189369461607856 1.1549449265023723 1.276793894965141 1.7576306401403428
2.5320405389744693 0.9667102752208704 0.6334274922598859 0.9319027714937137
1.2798890950281754 0.7344466628021016 0.1789000804136707 0.36654235181240324
0.6108072211229552 0.5288565726251139 0.01839073350771019 0.06355991499013108
0.32547244429068267 0.3381556668108537 -0.0033374995476585082 -0.009345722972512464
0.20692811557922378 0.2068173936464244 9.394389365592057e-06 0.00010132754343381181
0.13779228872439725 0.13779228872439725 0.0 0.0
0.1271564897541298 0.1271564897541298 0.0 0.0
0.28196740147668165 0.1836179271306988 0.027333411779866132 0.07101606256611645
2.5031629386832233 1.4939191746349993 0.3587904672493931 0.6504532967988313
1.7183268001786738 1.1535322115494095 0.20634957413109406 0.35844501449817057
0.21538288778193207 0.19901110896326737 -0.002708878530090308 0.019080657348755043
0.15000391834422072 0.15000910379007365 -2.1719582759986377e-07 -4.968250025342334e-06
0.1439725812591811 0.1439578935994741 1.0481594009914824e-06 1.3639500306005479e-05
0.18521505215705844 0.18543890023614115 -2.4973859869336276e-05 -0.00019887421921334448
0.26599884676634594 0.272279189680174 -0.0014937831020800055 -0.004786559811748147
0.4231717282513933 0.41984961291325196 -0.002749374310863251 0.006071489649004666
0.821742832184806 0.5894129309387693 0.062029866945668956 0.17030003430036772
1.6282541884468542 0.7869439132171028 0.29652410873365115 0.5447861664961003
2.91191162132967 0.9820833747625584 0.7930060118901988 1.1368222346769112
4.4806723070164 1.1466285361233501 1.4330390662601926 1.9010047046328569
6.387595163083409 1.3178551149925453 2.2898743588974275 2.7798656891934352
8.643012628365817 1.509570112892757 3.363067789007199 3.770374726465863
11.320984477626732 1.7280767400833217 4.680912625430774 4.91199511211264
14.585483194396867 1.9884304830362103 6.349677669159419 6.247375042201239
18.459513543987576 2.2884712720104345 8.365417317278498 7.805624954698644
23.02788703484449 2.61692636451541 10.85068223952822 9.560278430800858
28.014294410345432 2.975583919107337 13.565026588181782 11.473683903056308
33.244097097590384 3.2937234932448938 16.49247688971957 13.457896714625917
38.20924298540174 3.3317781875892494 19.513876571886158 15.363588225926327
40.48538836103419 1.90348072736156 21.81360105891817 16.768306574754448
38.209242985404735 3.3317781875945633 19.513876571884673 15.363588225925493
33.244097097582284 3.293723493245137 16.4924768897145 13.457896714622656
28.014294410327633 2.9755839191019193 13.565026588174398 11.47368390305132
23.02788703482718 2.6169263645131076 10.850682239519456 9.560278430794622
18.459513543973184 2.2884712720114586 8.365417317269664 7.805624954692061
14.585483194382535 1.9884304830340163 6.34967766915265 6.247375042195874
11.320984477612011 1.728076740080596 4.680912625424247 4.911995112107166
8.643012628352997 1.5095701128912196 3.363067789001267 3.770374726460509
6.387595163071238 1.3178551149916273 2.289874358891779 2.779865689187832
4.480672307005886 1.1466285361226765 1.4330390662554842 1.901004704627725
2.911911621321881 0.9820833747616573 0.7930060118869986 1.1368222346732253
1.6282541884415533 0.7869439132166883 0.2965241087316074 0.5447861664932578
0.8217428321821884 0.5894129309379729 0.062029866945036455 0.1703000342991785
0.4231717282501915 0.41984961291256573 -0.0027493743109811395 0.006071489648606791
0.2659988467659064 0.27227918967942955 -0.0014937831020332267 -0.004786559811489917
0.18521505215682438 0.18543890023594545 -2.497385987256352e-05 -0.00019887421924848588
0.1439725812587528 0.14395789359904929 1.0481594006314481e-06 1.3639500302894402e-05
0.15000391834386023 0.1500091037897023 -2.171958270000216e-07 -4.968250015090288e-06
0.21538288778090492 0.19901110896286112 -0.0027088785302817097 0.019080657348325574
1.7183268001732452 1.1535322115470428 0.20634957412983568 0.358445014496367
1.105322451450445 0.8575655005125908 0.07453160529790151 0.1732253456399528
0.18368075501414657 0.1999768521717485 -0.007084344414709941 -0.009211752742892014
0.17032204280266494 0.17040811185926658 -7.296353753386552e-06 -7.877270284823133e-05
0.15663094964089136 0.156659251396069 -1.911838206656354e-06 -2.6389916971011686e-05
0.17622935058626918 0.17646679064731483 -3.159070592960168e-05 -0.00020584935511601537
0.2280182972229498 0.23030265573003794 -0.0006642936559410972 -0.0016200648511470635
0.31556238805542647 0.3274249056852939 -0.004098888387480772 -0.007763629242386716
0.5050803937639394 0.45924288578488326 0.008690881913668872 0.0371466260653871
0.9269876611634241 0.6011004175536158 0.09591474358908424 0.2299725000207243
1.68101659627565 0.759967000833246 0.33522207630529743 0.5858275191371072
2.6973723053280043 0.9047909277717808 0.7040877927439773 1.0884935848122468
3.9582722419961502 1.0518408371654966 1.2230329205820936 1.6833984842485608
5.434581351150003 1.2082947516949676 1.867986832612059 2.3582997668429755
7.175587902305152 1.3809113519458174 2.6622960755211924 3.1323804748381407
9.296830516024857 1.5875885502252134 3.670442915968537 4.038799049831107
11.901391609160605 1.8395068485212447 4.949200102919645 5.112684657719715
15.034580487953477 2.1432665671420787 6.522362960496187 6.368950960315204
18.605163397785223 2.4722249790595128 8.346435903563204 7.786502515162512
22.724535770815045 2.8716678557676745 10.489115808770114 9.363752106277255
27.31208793070572 3.1488090826047355 13.057309336225096 11.105969511875884
29.74493216046796 1.6198964810424268 15.3745017437808 12.750533935644732
27.312087930706948 3.1488090826084045 13.057309336223662 11.105969511874896
22.724535770812583 2.871667855770198 10.489115808767213 9.363752106275175
18.605163397772483 2.4722249790527684 8.34643590355972 7.7865025151599925
15.034580487940714 2.143266567138638 6.522362960490962 6.368950960311114
11.901391609148462 1.8395068485187502 4.949200102914346 5.112684657715365
9.296830516016692 1.5875885502249252 3.6704429159643426 4.03879904982742
7.1755879022979885 1.3809113519455396 2.6622960755176326 3.1323804748348194
5.434581351143928 1.2082947516964517 1.8679868326083808 2.358299766839096
3.958272241988042 1.0518408371639953 1.2230329205788955 1.6833984842451524
2.6973723053215677 0.9047909277717818 0.704087792741122 1.0884935848086643
1.6810165962709092 0.7599670008325857 0.33522207630354844 0.5858275191347752
0.9269876611603988 0.6011004175526689 0.09591474358830723 0.22997250001942252
0.5050803937628164 0.4592428857844345 0.008690881913478343 0.03714662606490376
0.3155623880548692 0.3274249056844823 -0.004098888387440106 -0.007763629242173011
0.22801829722251954 0.2303026557293222 -0.0006642936559033682 -0.0016200648508992175
0.17622935058592318 0.17646679064701767 -3.1590705936624465e-05 -0.0002058493551578599
0.15663094964045987 0.15665925139563353 -1.91183820609508e-06 -2.638991696751545e-05
0.1703220428023322 0.17040811185891097 -7.2963537516321735e-06 -7.877270282710897e-05
0.18368075501355816 0.19997685217121847 -0.007084344414723145 -0.009211752742937302
1.1053224514469597 0.8575655005108435 0.07453160529725295 0.173225345638863
0.714443077343162 0.6559853934357182 0.01514442001937335 0.043313263888070545
0.17124785688592342 0.1819603455155218 -0.002600519897947497 -0.008111968731650862
0.18560436757783236 0.18562176161349792 -9.224449329999089e-07 -1.6471590732581265e-05
0.17197375830988026 0.17198784176101323 -6.269657850398564e-07 -1.3456485347957748e-05
0.17776893743953318 0.1777214721276419 8.243096270954703e-06 3.922221562031248e-05
0.20826757057907985 0.21207405820540826 -0.000796338776495365 -0.0030101488498329816
0.26064938408417887 0.2650355650046695 -0.0017230589605264136 -0.0026631219599641434
0.3338981850137953 0.31863641538900545 0.0026132714027927587 0.012648498221997087
0.4652140814804002 0.39282919513818504 0.016993173629402208 0.05539171271281303
0.7345053740473327 0.49051801032931086 0.07227575001746654 0.17171161370055554
1.2090236850250011 0.6093028483543638 0.21544283753494275 0.3842779991356946
1.8062126801461789 0.7028520327558129 0.40950810494340006 0.6938525424469661
2.55692909321301 0.8026186539002474 0.6924973923580975 1.0618130469546658
3.474783008448995 0.9230416808224678 1.060795739358501 1.490945588268026
4.593947664426245 1.0697893026154108 1.5271650886854695 1.9969932731253643
6.0179534271276305 1.2636247235936868 2.1362351981220113 2.618093505411931
7.868260467560418 1.5248461926984398 2.9523109519875113 3.391103322874467
10.216740656592556 1.840163242762338 4.042821049357924 4.333756364472298
12.99132052432725 2.168473659582026 5.376206130400562 5.4466407343446654
16.758313257830057 2.7604863872696663 7.133837615494111 6.863989255066276
19.984539385234058 1.4374075049314068 9.74047001235988 8.806661867942772
16.75831325782453 2.7604863872623637 7.133837615495098 6.863989255067064
12.991320524328078 2.168473659586158 5.376206130398726 5.446640734343191
10.216740656588241 1.840163242761164 4.042821049356236 4.333756364470845
7.868260467554366 1.5248461926978305 2.9523109519846225 3.3911033228719094
6.0179534271200446 1.2636247235896945 2.1362351981202083 2.6180935054101435
4.593947664421689 1.0697893026145628 1.5271650886836943 1.9969932731234321
3.4747830084458027 0.9230416808226719 1.0607957393568634 1.490945588266266
2.5569290932085273 0.8026186539001329 0.6924973923561211 1.0618130469522726
1.80621268014312 0.7028520327555122 0.40950810494222045 0.6938525424453877
1.2090236850208802 0.6093028483531264 0.21544283753373356 0.3842779991340207
0.7345053740457014 0.4905180103287683 0.07227575001707126 0.17171161369986176
0.4652140814795685 0.3928291951376197 0.01699317362932507 0.05539171271262364
0.33389818501328977 0.31863641538880194 0.00261327140269472 0.012648498221793194
0.2606493840836382 0.26503556500410713 -0.0017230589605235296 -0.0026631219599454166
0.20826757057858725 0.21207405820489192 -0.0007963387764852518 -0.003010148849819423
0.17776893743905864 0.177721472127144 8.243096273000814e-06 3.922221564163963e-05
0.17197375830953185 0.1719878417606482 -6.269657839693201e-07 -1.3456485332418166e-05
0.18560436757747006 0.18562176161312366 -9.224449321673981e-07 -1.6471590721401528e-05
0.17124785688559985 0.18196034551496565 -0.0026005198978911554 -0.00811196873147463
0.7144430773412435 0.6559853934345289 0.015144420019151351 0.043313263887563125
0.46588547262179136 0.4622705731554744 0.0003051393536740638 0.0033097601126428223
0.16707844957107104 0.1675669341520108 -4.036855668371437e-05 -0.0004481160242560399
0.19539082707931427 0.19552480786043538 -1.105474144848618e-05 -0.00012292603967267707
0.18716721966310684 0.1872109852163485 -2.9116398130817697e-06 -4.085391342865225e-05
0.18703004979617094 0.18721780473610697 -2.820028286987868e-05 -0.00015955465706615212
0.20649979437261703 0.2094078144179849 -0.0006620941437552394 -0.0022459259016126033
0.2438788571868133 0.2472871139700848 -0.0013544959122934403 -0.0020537608709779573
0.2865332995155519 0.2638598955046962 0.004121739950580996 0.018551664060274777
0.32286461527379473 0.2548614159515645 0.019488879408454316 0.0485143199137762
0.3629951345483425 0.22036161874492488 0.042242863648503416 0.10039065215491423
0.4542570861206897 0.20454081809432778 0.08903572229395802 0.1606805457324042
0.6005586156862519 0.21212064029626054 0.1405951562682085 0.2478428191217825
0.8222828117581881 0.24837251505552624 0.22137011623731548 0.35254018046534663
1.116614760176254 0.28896165104984883 0.3314437831761478 0.49620932595025724
1.5211244759274793 0.2914472561472663 0.5042759506905989 0.7254012690896138
2.036189018367965 0.30112337957790425 0.7274429885493516 1.007622650240709
2.7096822984256694 0.331468215906009 1.0340858144649876 1.3441282680546731
3.5787618870959346 0.3926872466621793 1.4396609510232945 1.7464136894104594
4.967802832673252 0.5854138077545297 2.043356726456952 2.3390322984617704
8.008334096057204 1.518705572647912 3.0354048868622776 3.4542236365470163
13.246340942360122 1.308277648766164 5.926199264141405 6.011864029452553
8.008334096064003 1.51870557265061 3.035404886864506 3.4542236365488916
4.967802832665794 0.5854138077498479 2.0433567264555337 2.339032298460413
3.5787618870996303 0.392687246667905 1.4396609510220948 1.7464136894096312
2.7096822984230635 0.3314682159066365 1.034085814463372 1.3441282680530535
2.0361890183695803 0.3011233795808185 0.7274429885487645 1.007622650239996
1.5211244759269018 0.29144725614778133 0.5042759506899982 0.7254012690891223
1.116614760173376 0.2889616510487144 0.33144378317545836 0.49620932594920375
0.8222828117546671 0.24837251505423516 0.22137011623630054 0.3525401804641313
0.6005586156843425 0.2121206402955804 0.14059515626772462 0.24784281912103814
0.454257086119767 0.20454081809475708 0.08903572229338459 0.1606805457316249
0.36299513454818055 0.22036161874508786 0.042242863648398334 0.10039065215469453
0.3228646152736712 0.25486141595173917 0.019488879408352 0.048514319913580045
0.28653329951501316 0.26385989550443417 0.004121739950490183 0.01855166406008882
0.24387885718607688 0.24728711396945002 -0.001354495912319913 -0.0020537608710531853
0.206499794372129 0.20940781441728323 -0.000662094143716735 -0.002245925901437548
0.18703004979577106 0.18721780473576516 -2.82002828783699e-05 -0.0001595546571157566
0.18716721966282288 0.18721098521603377 -2.911639810134859e-06 -4.085391340074149e-05
0.19539082707884392 0.1955248078599533 -1.105474144691902e-05 -0.00012292603966245578
0.16707844957092263 0.16756693415185722 -4.036855668218643e-05 -0.00044811602425235466
0.46588547262064545 0.4622705731542374 0.0003051393536700817 0.0033097601127377568
0.31020100140036433 0.3102444301087595 -2.4699665670363174e-06 -4.095874182818501e-05
0.15877655081536 0.15878061830850854 -3.861226354782416e-07 -3.6813705130687944e-06
0.19926777866481124 0.19922505606710833 3.808437772510246e-06 3.8914159930373205e-05
0.20013609178125147 0.20022093252486878 -7.3670875423520075e-06 -7.747365607500191e-05
0.20169950780610413 0.20205282102397804 -5.169101564109352e-05 -0.00030162220223281603
0.22198601733173842 0.22389758316030461 -0.0006022920986388015 -0.0013092737299273886
0.267916119719694 0.2733103135336759 -0.0016546832421453451 -0.003739510571836577
0.33626636064027043 0.31997473621627265 0.00304845779610141 0.01324316662789631
0.46552936011745494 0.3925404966138144 0.01721110034029564 0.05577776316334493
0.73340792675488 0.48996231405330537 0.07204255509755894 0.17140305760401603
1.2082638026465746 0.6119751881420384 0.2144038284379747 0.3818847860665614
1.811606760287942 0.7034715212964148 0.41281194507093283 0.695323293920595
2.5711832109148918 0.80513166788945 0.6976173620556764 1.0684341809697655
3.5001407410091003 0.9269312159355344 1.0714524948931496 1.5017570301804168
4.585938658299069 1.063716903278841 1.526948718048702 1.9952730369715255
5.805035182503582 1.2161725817317963 2.0572535320757024 2.531609068696079
7.006833152717402 1.3750788326929138 2.5898117673211156 3.041942552703374
8.004183389357255 1.5377673023396505 3.0602184642459473 3.4061976227716597
8.356212787755984 1.633039034932015 3.227032695549503 3.496141057274468
6.682171058909275 0.8629461463055241 2.859912311056357 2.959312601547394
13.405965305039528 2.3433232312094545 5.3757144687577565 5.686927605072319
6.682171058915886 0.8629461463076024 2.859912311058791 2.9593126015494873
8.35621278775723 1.6330390349334527 3.22703269554939 3.4961410572743885
8.00418338934246 1.537767302330078 3.0602184642431287 3.4061976227692505
7.006833152709706 1.3750788326912984 2.5898117673179817 3.041942552700428
5.805035182495657 1.2161725817294995 2.0572535320729024 2.531609068693253
4.585938658292797 1.0637169032770935 1.5269487180465697 1.995273036969132
3.500140741004179 0.9269312159356933 1.0714524948907207 1.5017570301777643
2.57118321090923 0.8051316678898767 0.6976173620529494 1.0684341809664037
1.811606760282984 0.7034715212960977 0.4128119450689776 0.6953232939179083
1.208263802641353 0.6119751881408184 0.21440382843629285 0.3818847860642414
0.7334079267517991 0.489962314051822 0.07204255509698124 0.1714030576029961
0.4655293601163107 0.39254049661318985 0.017211100340143577 0.05577776316297714
0.3362663606398 0.3199747362159118 0.0030484577960648756 0.013243166627823124
0.2679161197189626 0.2733103135330432 -0.001654683242178654 -0.00373951057190186
0.22198601733121417 0.2238975831596579 -0.0006022920986186274 -0.0013092737298252095
0.2016995078057241 0.2020528210234365 -5.169101562202489e-05 -0.0003016222020903155
0.20013609178105848 0.20022093252473402 -7.367087548912301e-06 -7.747365612659626e-05
0.19926777866451764 0.19922505606680027 3.808437773267098e-06 3.891415994416241e-05
0.1587765508152357 0.1587806183083764 -3.861226352988379e-07 -3.681370505393053e-06
0.31020100139951273 0.3102444301078812 -2.4699665649585164e-06 -4.095874180351584e-05
0.2002782335141119 0.2002782335141119 0.0 0.0
0.1450733189884395 0.14506481153730538 4.6505239045753023e-07 8.042398743661904e-06
0.19637139673750395 0.1964055644194291 -2.368649840503254e-06 -3.1799032084663524e-05
0.2096525284423013 0.20951036476849677 1.6170007296770904e-05 0.00012599366650774727
0.21997329436663587 0.22020708531734945 -2.827085275132448e-05 -0.000205520097962199
0.2540551008552395 0.26119158934495046 -0.0014441853463318392 -0.005692303143379193
0.3267726542226914 0.32972847088938156 -0.002456635056082164 -0.000499181610607916
0.5092795583193466 0.459880527988375 0.009902836733732918 0.03949619359723885
0.9265607808983585 0.6008786644147647 0.0958196648317727 0.22986245165182112
1.678987128406002 0.7597582688256209 0.3343515063125397 0.5848773532678402
2.6967435699792524 0.9046863340244876 0.7037706509630404 1.088286584991724
3.9621471513912137 1.0523786302785945 1.2246121639955008 1.6851563571171166
5.4472650388796815 1.2096600795565473 1.87369891380849 2.363906045514646
7.197172714469317 1.382175991743075 2.6730547758535197 3.14194194687272
9.286928461770449 1.5776717027403997 3.671335296425745 4.037921462604306
11.691007041787875 1.7879125905978044 4.864036066986884 5.039058384203184
14.215562371297697 2.005850942514658 6.141727217354389 6.067984211428651
16.46814309632768 2.2420665378096443 7.252276400339204 6.973800158178841
17.657541051740985 2.3160503353381436 7.8977951883350945 7.4436955280677415
16.32100241389417 2.3054257826622226 7.231286751129172 6.784289880102772
19.727985955735033 5.149684331937554 7.433090902441137 7.145210721356331
16.321002413891424 2.3054257826551026 7.2312867511317 6.784289880104623
17.657541051734952 2.316050335333915 7.89779518833403 7.443695528067005
16.46814309632883 2.24206653781809 7.252276400335063 6.97380015817568
14.215562371282454 2.0058509425111186 6.1417272173478255 6.067984211423512
11.691007041774903 1.7879125905956272 4.864036066980999 5.039058384198274
9.286928461759482 1.577671702739328 3.6713352964204873 4.037921462599669
7.197172714458127 1.3821759917418013 2.673054775848445 3.1419419468678798
5.44726503886816 1.2096600795551076 1.8736989138034645 2.363906045509585
3.962147151379134 1.0523786302758673 1.2246121639910088 1.6851563571122576
2.6967435699699096 0.9046863340233782 0.7037706509593482 1.088286584987183
1.6789871283998692 0.7597582688246052 0.3343515063103495 0.5848773532649151
0.9265607808955282 0.6008786644140007 0.09581966483102228 0.2298624516505053
0.50927955831756 0.4598805279872414 0.009902836733528153 0.03949619359679046
0.3267726542219394 0.32972847088840374 -0.0024566350560473638 -0.0004991816104170104
0.25405510085460814 0.26119158934419856 -0.0014441853462975208 -0.005692303143292831
0.219973294366345 0.22020708531705352 -2.8270852752325254e-05 -0.00020552009795627173
0.20965252844197974 0.20951036476801432 1.6170007310721645e-05 0.00012599366665474998
0.19637139673731574 0.1964055644192632 -2.3686498430206898e-06 -3.179903210448401e-05
0.14507331898827538 0.14506481153714934 4.6505239000204435e-07 8.042398736028437e-06
0.2002782335135696 0.2002782335135696 0.0 0.0
0.12332850322060555 0.12332850322060555 0.0 0.0
0.12614801931643582 0.1261496802379046 -9.533615641300818e-08 -1.565585312364224e-06
0.18692250476595146 0.1868920435511509 2.1056555596612594e-06 2.83555592408956e-05
0.2151909890863003 0.21534630689234002 -1.6301457431157767e-05 -0.00013901634860862173
0.24148047752723953 0.2430974336383766 -0.00028058626911370505 -0.0013363698420233794
0.2968157235347421 0.29792471870959564 -0.0009441839074430138 -0.00016481126741038721
0.4407689947074158 0.43224746535907654 -0.0003810234201971495 0.008902552768536466
0.8262803647146553 0.5906193995255776 0.06369296720092466 0.17196799798815332
1.6265048238857627 0.7868681048527509 0.29579486859597587 0.543841850437036
2.9103282223755773 0.9821804710130915 0.7924935771581962 1.1356541742042892
4.480087907846009 1.1463957404735092 1.4316698036448077 1.902022363727694
6.390644909940644 1.317907781449374 2.2914413637245543 2.781295764766716
8.649646769578563 1.5100053430677591 3.3663658532869327 3.773275573223871
11.329272403134246 1.7283362902558594 4.685382403355037 4.91555370952335
14.565063669396293 1.9784597885363884 6.344083863908111 6.242520016951796
18.291525020399213 2.242059023779709 8.29646030495977 7.753005691659732
22.415217627659096 2.50682456096621 10.558003322929641 9.350389743763248
26.11423107725601 2.680924802865313 12.612682754280453 10.820623520110237
28.115026164194255 2.6672994295575636 13.81194250339831 11.635784231238384
26.028552378781285 2.3611039010290047 12.763709255703095 10.903739222049197
29.25041944709123 7.688921914175393 11.501512882470127 10.059984650445713
26.0285523787837 2.361103901030676 12.763709255703542 10.903739222049493
28.115026164195495 2.6672994295619996 13.811942503396383 11.63578423123711
26.1142310772414 2.680924802859389 12.612682754275314 10.820623520106702
22.415217627644218 2.506824560967515 10.558003322920158 9.35038974375654
18.29152502037936 2.2420590237771236 8.2964603049499 7.753005691652336
14.565063669380098 1.9784597885353785 6.3440838638996215 6.242520016945101
11.329272403120685 1.7283362902574586 4.685382403346788 4.915553709516438
8.649646769563214 1.5100053430674931 3.366365853278975 3.7732755732167447
6.390644909926542 1.3179077814491515 2.2914413637174995 2.78129576475989
4.480087907833097 1.1463957404726497 1.43166980363896 1.9020223637214866
2.910328222365317 0.9821804710112552 0.7924935771542941 1.1356541741997672
1.6265048238794384 0.786868104850668 0.2957948685941796 0.5438418504345914
0.8262803647113933 0.5906193995243357 0.06369296720021286 0.17196799798684448
0.4407689947059872 0.43224746535809855 -0.00038102342030566774 0.008902552768194117
0.29681572353407 0.2979247187086132 -0.0009441839074112754 -0.0001648112671319541
0.24148047752685642 0.24309743363784259 -0.00028058626909476745 -0.0013363698418914112
0.21519098908571088 0.2153463068917656 -1.6301457433229426e-05 -0.00013901634862146432
0.1869225047658054 0.1868920435510159 2.1056555587426653e-06 2.835555923076314e-05
0.12614801931609432 0.1261496802375621 -9.533615634106578e-08 -1.565585311427026e-06
0.12332850322035274 0.12332850322035274 0.0 0.0
0.07201832201314304 0.07201832201314304 0.0 0.0
0.10406796781229878 0.10406796781229878 0.0 0.0
0.17200964254974685 0.1719992017242979 6.169848764971448e-07 9.823840572470336e-06
0.2171691101969818 0.21704847717263853 1.4844928784088886e-05 0.00010578809555911344
0.2647986007385191 0.2662515097777991 -0.0002560722800315896 -0.0011968367592483538
0.35783246168448524 0.36982437657984846 -0.0031944433681376848 -0.008797471527225507
0.6248912689716777 0.5260339332968511 0.02306588896710527 0.07579144670772117
1.2822694661956182 0.7349072103470966 0.18003102432437523 0.3673312315241469
2.529657951566419 0.9669727925831066 0.6322025811007242 0.9304825778825883
4.188346047535578 1.1551676578608363 1.2760193724378437 1.757159017236898
6.383265354602119 1.350542473060929 2.2733228631650197 2.759400018376171
8.982609064981531 1.5538969470842559 3.5193329083477045 3.9093792095495723
12.059916399126656 1.7852381089386369 5.053643075166508 5.221035215021519
15.753371095675396 2.056341255291574 6.959682753943343 6.737347086440475
20.17811168078475 2.3667466662258567 9.304341832532163 8.507023182026732
25.474842689531073 2.703020814635191 12.238276310774765 10.533545564121129
31.039951142560966 2.978872104457232 15.341201739823555 12.719877298280194
36.2603420689861 3.063084528039593 18.49286553818495 14.704392002761528
38.997543906396444 2.830137900533013 20.34165291644786 15.825753089415588
36.21157681585079 2.431736745160397 18.870980988407144 14.908859082283248
39.68564203380429 10.123321962472657 16.263953041929355 13.29836702940229
36.2115768158545 2.4317367451637786 18.870980988407386 14.908859082283332
38.99754390638465 2.8301379005276015 20.34165291644389 15.825753089413178
36.26034206896661 3.0630845280348122 18.492865538175913 14.704392002755887
31.03995114253607 2.9788721044536186 15.341201739810778 12.719877298271673
25.47484268950953 2.703020814635688 12.23827631076174 10.533545564112101
20.178111680762864 2.3667466662249517 9.304341832520103 8.5070231820178
15.75337109565574 2.05634125529047 6.959682753932904 6.737347086432364
12.059916399106253 1.7852381089377916 5.05364307515581 5.221035215012654
8.98260906496133 1.5538969470821176 3.5193329083382183 3.9093792095409965
6.383265354585189 1.3505424730599758 2.273322863157015 2.759400018368199
4.188346047522356 1.1551676578598544 1.276019372432025 1.757159017230477
2.5296579515573927 0.966972792581435 0.6322025810973402 0.9304825778786177
1.2822694661905778 0.7349072103453506 0.18003102432304682 0.36733123152218067
0.6248912689693191 0.5260339332957407 0.02306588896667875 0.07579144670689969
0.357832461683569 0.36982437657874867 -0.0031944433680908056 -0.008797471527088856
0.26479860073803446 0.266251509777317 -0.0002560722800308121 -0.0011968367592517563
0.21716911019652171 0.2170484771721511 1.4844928785655231e-05 0.00010578809558492676
0.1720096425495277 0.17199920172408362 6.169848761276928e-07 9.823840567913113e-06
0.10406796781205385 0.10406796781205385 0.0 0.0
0.07201832201306659 0.07201832201306659 0.0 0.0
0.03959915955305181 0.03959915955305181 0.0 0.0
0.0814253164318375 0.0814253164318375 0.0 0.0
0.1533834765528559 0.15337876286772728 2.7264122338958563e-07 4.441043905202767e-06
0.21665553521417466 0.2166446500264267 2.7243248821822685e-06 8.160862865767281e-06
0.28993299437621894 0.2904278425179676 -0.00019205835779660926 -0.00030278978395218055
0.44803613937395126 0.44434313493863836 -0.0005049174050104905 0.004197921840323398
0.8862796536313671 0.6354862135923764 0.07348978791176276 0.1773036521272276
1.88245217577999 0.8847945077030153 0.38471967945786245 0.6129379886191124
3.4235508638619283 1.1005878790396968 0.9431228893482273 1.3798400954740038
5.635577710778119 1.3231876954183324 1.9111494412082222 2.4012405741515632
8.381683144703558 1.542852572979029 3.207114231380495 3.6317163403440356
11.693624325914596 1.7822138225265762 4.85499101927998 5.056419484108039
15.655316124177496 2.059709974660476 6.903286321118019 6.692319828398996
20.445228227504177 2.3865575745423864 9.469251474643544 8.589419178318249
26.157180365365765 2.7737567713865774 12.581346376590382 10.80207721738881
32.853237225304035 3.173274090460602 16.336315535806676 13.34364759903675
40.27509010635505 3.4590345902551665 20.739702948555493 16.076352567544387
46.77572667929398 3.4045935254833157 24.783461588086702 18.58767156572396
49.91755022001551 2.9037243107203556 27.02775312557401 19.986072783721145
46.662774426622924 2.5432295038770554 25.262864424655696 18.85668049809017
51.064059394163564 12.634901733284305 21.734015042442998 16.69514261843625
46.66277442661736 2.543229503873315 25.262864424654556 18.856680498089485
49.91755022000307 2.903724310720711 27.027753125565994 19.986072783716345
46.77572667927649 3.4045935254857764 24.783461588074232 18.587671565716484
40.275090106330865 3.459034590257172 20.739702948539296 16.07635256753441
32.85323722527525 3.173274090458807 16.33631553579037 13.343647599026074
26.157180365340146 2.7737567713873252 12.581346376574787 10.802077217378026
20.44522822747732 2.3865575745386165 9.469251474630243 8.589419178308457
15.655316124151348 2.059709974659665 6.903286321103822 6.692319828387858
11.693624325890998 1.7822138225258508 4.854991019267561 5.056419484097587
8.381683144683265 1.542852572977986 3.2071142313704604 3.6317163403348145
5.635577710762434 1.3231876954179702 1.911149441200619 2.4012405741438454
3.423550863850635 1.1005878790375088 0.9431228893441702 1.3798400954689567
1.8824521757721058 0.8847945077010881 0.38471967945525504 0.612937988615762
0.8862796536277863 0.6354862135906912 0.07348978791108136 0.17730365212601384
0.44803613937278264 0.4443431349377667 -0.000504917405090048 0.0041979218401058845
0.2899329943755559 0.2904278425170612 -0.0001920583577684895 -0.0003027897837367875
0.2166555352137835 0.21664465002602462 2.7243248828526515e-06 8.160862875989513e-06
0.1533834765526323 0.15337876286750562 2.726412232514537e-07 4.441043903424872e-06
0.08142531643169068 0.08142531643169068 0.0 0.0
0.03959915955303212 0.03959915955303212 0.0 0.0
0.020442445567920995 0.020442445567920995 0.0 0.0
0.06042904461368999 0.06042904461368999 0.0 0.0
0.1333126125358976 0.1333126125358976 0.0 0.0
0.21531346467164456 0.21523100305703852 8.182443805460791e-06 7.427917080050397e-05
0.3236170826027039 0.33126429985942624 -0.0016164683033224397 -0.006030748953399757
0.572449843319214 0.5040045138341183 0.014381673922302288 0.054063655562793245
1.2437257524194985 0.7569442174027111 0.1736374617901404 0.31314407322664667
2.4935967272204946 0.9965704567594602 0.5763314639853763 0.9206948064756584
4.463908631305285 1.237954343148967 1.378442814768278 1.8475114733880402
7.122722930135243 1.4797752435685634 2.586313017266576 3.0566346693001014
10.468364931215184 1.7322440455270485 4.21999588012486 4.5161250055632784
14.537333863080082 2.0133963528057572 6.306903625992543 6.217033884281781
19.45661305068571 2.342839642595052 8.93032665018273 8.183446757907927
25.26435522657148 2.731077236453199 12.065033988312742 10.468244001805541
32.34765427003508 3.1816771609360455 16.04705227618423 13.118924832914812
40.63975070516529 3.6587112843707494 20.82998003819137 16.151059382603165
49.50227743944267 3.952407647445517 26.128271782896594 19.421598009100546
57.34876856399952 3.719273034483164 31.224835766217183 22.404659763299165
61.166321429497636 2.9558845988682148 34.145185533826044 24.065251296803396
57.521617703445635 2.6568972931563444 32.01647652892599 22.848243881363306
63.10698573224152 15.211361632561793 27.590333810950593 20.30529028872913
57.52161770343671 2.656897293153497 32.01647652892213 22.848243881361075
61.1663214294819 2.9558845988705666 34.14518553381442 24.0652512967969
57.34876856397174 3.7192730344806146 31.224835766201124 22.40465976328998
49.50227743941362 3.9524076474457486 26.128271782878276 19.421598009089596
40.63975070513458 3.6587112843710177 20.82998003817228 16.15105938259129
32.347654270002025 3.1816771609342958 16.047052276165328 13.118924832902387
25.26435522653947 2.7310772364496474 12.065033988295966 10.468244001793863
19.45661305065623 2.342839642595859 8.930326650165373 8.183446757894998
14.537333863051837 2.013396352804587 6.306903625977516 6.217033884269736
10.468364931190521 1.7322440455244634 4.2199958801130615 4.516125005552995
7.122722930115679 1.479775243566865 2.5863130172574698 3.056634669291343
4.463908631291065 1.2379543431470221 1.3784428147625374 1.8475114733815043
2.4935967272113033 0.9965704567583071 0.5763314639818308 0.9206948064711659
1.243725752414386 0.7569442174012146 0.17363746178867967 0.31314407322449145
0.5724498433171825 0.5040045138328796 0.014381673922044605 0.0540636555622584
0.3236170826021458 0.33126429985864403 -0.0016164683032710092 -0.00603074895322709
0.21531346467129198 0.21523100305667947 8.182443805965816e-06 7.427917080654687e-05
0.1333126125355557 0.1333126125355557 0.0 0.0
0.06042904461358837 0.06042904461358837 0.0 0.0
0.020442445567866886 0.020442445567866886 0.0 0.0
0.0100419366417776 0.0100419366417776 0.0 0.0
0.04272267306456294 0.04272267306456294 0.0 0.0
0.11415552383859905 0.11415552383859905 0.0 0.0
0.2160827133341252 0.2161278216026083 -6.605855876927858e-06 -3.85024126061863e-05
0.3717622369109286 0.3773236006829004 -0.0016305541767234403 -0.0039308095952482365
0.7514008514928867 0.600368708719337 0.044015755291672246 0.10701638748187747
1.639887158451075 0.8555427182631364 0.28131624342873873 0.5030281967592005
3.1961423835208134 1.103484470810713 0.8444331428518841 1.248224769858215
5.532604154223398 1.3644114137609158 1.840317205205619 2.3278755352568634
8.674739492203658 1.6330299743876993 3.3200517490363826 3.7216577687795738
12.622286478494766 1.920957033907426 5.291600604917629 5.409728839669713
17.48252514622052 2.2511411765267773 7.840888834089862 7.3904951356038815
23.287622007389373 2.6363939751649292 10.95686364324182 9.694364388982619
30.403410124005823 3.0883918217955717 14.949525307723734 12.36549299448653
38.74869726410945 3.6029004106126106 19.689084411637957 15.456712441858881
48.37848670587769 4.124076386302827 25.302731242404654 18.951679077170212
58.823340021381725 4.439116540413422 31.703554904724747 22.680668576243555
68.02149421475704 4.071832205812875 37.82437829904359 26.125283709900607
72.64069570888904 3.0226492245618863 41.474131354912714 28.14391512941446
68.99323862167317 2.7284321912621996 39.32557506362655 26.93923136678443
76.25902874594948 17.801094131603637 34.30792095047935 24.15001366386646
68.99323862166943 2.7284321912643357 39.3255750636227 26.939231366782405
72.64069570887133 3.0226492245658534 41.47413135489863 28.143915129406864
68.02149421473113 4.071832205816693 37.82437829902438 26.125283709890056
58.82334002134512 4.439116540410978 31.703554904703026 22.680668576231113
48.378486705835805 4.124076386297885 25.3027312423815 18.95167907715641
38.74869726407147 3.6029004106111704 19.689084411615518 15.456712441844767
30.40341012396736 3.0883918217915123 14.949525307703084 12.365492994472763
23.287622007352862 2.636393975162734 10.956863643221755 9.694364388968367
17.482525146187278 2.2511411765251523 7.840888834072004 7.390495135590118
12.622286478465945 1.920957033904707 5.291600604903379 5.409728839657862
8.6747394921813 1.6330299743863947 3.320051749025346 3.721657768769558
5.5326041542068545 1.3644114137602785 1.8403172051978043 2.3278755352487703
3.196142383509953 1.1034844708087932 0.8444331428480889 1.248224769853072
1.6398871584449106 0.8555427182620505 0.281316243426625 0.5030281967562358
0.7514008514901673 0.6003687087182117 0.044015755291114046 0.10701638748084165
0.3717622369101911 0.3773236006819811 -0.001630554176689737 -0.003930809595100308
0.2160827133337778 0.21612782160227328 -6.605855879715479e-06 -3.850241261568651e-05
0.1141555238382841 0.1141555238382841 0.0 0.0
0.042722673064460606 0.042722673064460606 0.0 0.0
0.010041936641735921 0.010041936641735921 0.0 0.0
0.004898353947848427 0.004898353947848427 0.0 0.0
0.029231044871660727 0.029231044871660727 0.0 0.0
0.09846629511023358 0.09846629511023358 0.0 0.0
0.22335901948807602 0.22345846673833353 -1.1981541288450693e-05 -8.746570896908932e-05
0.44175621906375534 0.42669300340967237 0.002435661151663438 0.012627554502419428
0.9872200507509972 0.6953804244814658 0.09717968617222536 0.19465994009730592
2.081786404798896 0.9350948072458375 0.4216972651744889 0.7249943323785696
3.9438183355024425 1.2054247072819935 1.1479557023591414 1.5904379258613086
6.638376941110007 1.4847698171323018 2.336598015027703 2.8170091089500016
10.266791532801308 1.7831018443821802 4.089639852268176 4.394049836150955
14.86622946190334 2.114439602931913 6.440946062594442 6.310843796376979
20.492510187742948 2.4944587933124263 9.422316008501983 8.575735385928535
27.41082942111578 2.9463926155052507 13.247800084634026 11.216636720976496
35.562941049014974 3.468586994436907 17.80237647999659 14.29197757458148
45.28050697908866 4.024923016349884 23.444611376162815 17.810972586575968
56.310124285785804 4.5425616991417925 30.04283966745019 21.7247229191938
68.03383558182556 4.868334305528397 37.31601516238124 25.849486113915937
78.64835572870187 4.554694949159037 44.389281351882204 29.704379427660633
84.3679126155088 3.144072226372624 49.080489835753134 32.143350553383044
81.20116154012995 2.6820399551713496 47.319519359625076 31.199602225333493
90.61625043691491 20.257590598859956 41.96293715028147 28.39572268777347
81.20116154010695 2.6820399551581247 47.319519359618724 31.199602225330104
84.367912615482 3.144072226373006 49.08048983573535 32.14335055337369
78.64835572866158 4.554694949154555 44.38928135185885 29.70437942764817
68.03383558178064 4.8683343055246775 37.316015162354674 25.849486113901303
56.31012428574358 4.542561699143315 30.042839667422477 21.724722919177765
45.28050697904352 4.024923016346483 23.444611376136827 17.810972586560197
35.56294104897216 3.468586994435098 17.802376479971638 14.291977574565431
27.410829421073558 2.9463926155038056 13.247800084609802 11.216636720959954
20.492510187705374 2.4944587933111735 9.422316008480983 8.575735385913214
14.866229461872031 2.1144396029298913 6.440946062578207 6.3108437963639314
10.266791532775748 1.7831018443804267 4.0896398522555115 4.394049836139813
6.638376941091239 1.4847698171315642 2.3365980150186827 2.817009108940994
3.943818335489218 1.2054247072793407 1.1479557023542573 1.5904379258556196
2.0817864047910963 0.9350948072440776 0.42169726517217937 0.7249943323748385
0.9872200507476019 0.6953804244804154 0.09717968617135933 0.19465994009582724
0.44175621906272383 0.4266930034085517 0.002435661151650447 0.012627554502521725
0.22335901948766845 0.22345846673796824 -1.198154129480343e-05 -8.746570900500705e-05
0.0984662951101028 0.0984662951101028 0.0 0.0
0.029231044871546794 0.029231044871546794 0.0 0.0
0.004898353947842962 0.004898353947842962 0.0 0.0
0.0023247691371328406 0.0023247691371328406 0.0 0.0
0.019956320055000008 0.019956320055000008 0.0 0.0
0.08961475866231114 0.08961475866231114 0.0 0.0
0.24409987441153813 0.2443942579565918 -6.054746434758317e-05 -0.00023383608070605698
0.5522110294853384 0.5044204332397826 0.013268546492613298 0.03452204975294236
1.2592156968738364 0.7744459113680545 0.1645871286737088 0.3201826568320732
2.583717917634666 1.0211435505222004 0.6056990569340717 0.9568753101783938
4.7158430998841885 1.3008978659669155 1.4714009369123333 1.9435442970049412
7.789441520703872 1.6011860131263012 2.875993840588266 3.312261666989307
11.895849454828546 1.9328389322988908 4.8918308048258545 5.071179717703797
17.14243377763692 2.309248438957365 7.6134579552364485 7.219727383443107
23.68115070151326 2.7504897307955014 11.161328974610175 9.769331996107594
31.487182782893143 3.2706466328149295 15.455012146563108 12.761524003515115
40.96065600524867 3.8571744666903927 20.874459336684055 16.229022201874223
52.02025357759188 4.459930957533352 27.385299273584472 20.17502334647406
64.33523628130841 4.947294832226022 34.894365650779854 24.49357579830253
77.07453064260888 5.157662270640747 42.9973308081268 28.919537563841324
88.85138418085552 4.99352816918196 50.82706977128282 33.03078624039072
96.28404445792509 3.692666574496153 56.601860339837714 35.98951754359123
94.20040858072748 2.357541183981811 56.13011558103996 35.712751815705765
106.16143986648603 21.601768929001377 51.28707823305899 33.272592704425634
94.20040858071332 2.357541183982704 56.13011558102998 35.712751815700614
96.2840444578992 3.692666574501657 56.60186033981695 35.989517543580604
88.85138418081274 4.993528169185013 50.82706977125262 33.0307862403751
77.0745306425633 5.157662270641641 42.9973308080967 28.919537563824925
64.33523628125889 4.947294832224729 34.894365650748924 24.493575798285242
52.02025357754051 4.4599309575295685 27.38529927355451 20.17502334645642
40.96065600519969 3.8571744666894583 20.874459336654414 16.22902220185581
31.48718278284833 3.270646632816113 15.455012146535397 12.761524003496817
23.681150701470933 2.750489730794387 11.16132897458606 9.769331996090491
17.14243377759975 2.3092484389535946 7.61345795521748 7.219727383428677
11.895849454799745 1.9328389322973036 4.891830804811078 5.071179717691364
7.789441520682985 1.6011860131249778 2.8759938405782366 3.31226166697977
4.715843099868899 1.3008978659652957 1.4714009369058336 1.9435442969977734
2.5837179176257052 1.02114355052049 0.6056990569310148 0.9568753101742001
1.2592156968693144 0.7744459113667245 0.16458712867244882 0.32018265683014147
0.5522110294839393 0.504420433238675 0.013268546492507452 0.034522049752757016
0.24409987441109565 0.24439425795603886 -6.054746433942718e-05 -0.0002338360806038099
0.08961475866215099 0.08961475866215099 0.0 0.0
0.01995632005492919 0.01995632005492919 0.0 0.0
0.0023247691371240634 0.0023247691371240634 0.0 0.0
0.0006413574556436464 0.0006413574556436464 0.0 0.0
0.014322155742351073 0.014322155742351073 0.0 0.0
0.09238313544273746 0.09238313544273746 0.0 0.0
0.29082110167263997 0.29180848885312705 -0.0002389362218003295 -0.0007484509586867316
0.7150873249925043 0.6127761124488761 0.03292683844326296 0.06938437410036506
1.5968942360822964 0.9216128588024662 0.2408835222317967 0.4343978550480334
3.1434045124942998 1.2291256861754078 0.7648110698419157 1.149467756476977
5.571966521231676 1.6093560048112485 1.7424268815061787 2.220183634914248
9.040489309196078 2.0574098645726853 3.2879062482721766 3.6951731963512198
13.7337401552172 2.608985762998143 5.533341721252149 5.591412670966907
19.792897756514897 3.3054031377180406 8.572144645801805 7.915349972995051
27.272983052609863 4.179060269753445 12.40574937527387 10.68817340758255
36.445443833517615 5.234039452587349 17.2698530527821 13.941551328148167
47.43063609392995 6.4583771121021565 23.26625060338397 17.706008378443833
60.12257876765798 7.705451468066002 30.458209923088027 21.95891737650391
73.94191326279659 8.68540579191744 38.69805959793418 26.558447872944956
87.63419749110987 9.031629499594441 47.38336089934164 31.219207092173786
99.51277934331647 8.544675557539929 55.530350522609645 35.437753263166954
108.12388991226436 7.757538053043673 61.77520519986871 38.59114665935196
104.84036428781201 2.3652441135287696 63.12902479150847 39.34609538277471
152.5348791143199 53.98954745078332 60.61891213364918 37.92641952988744
104.84036428779379 2.365244113526363 63.12902479149782 39.346095382769576
108.12388991222659 7.757538053039367 61.7752051998464 38.591146659340794
99.51277934327561 8.544675557551642 55.53035052257502 35.437753263148984
87.63419749104804 9.031629499582003 47.3833608993092 31.219207092156857
73.94191326273666 8.685405791910156 38.69805959790023 26.55844787292621
60.12257876759583 7.705451468056142 30.458209923054948 21.95891737648474
47.43063609387723 6.458377112103357 23.26625060335044 17.70600837842345
36.44544383346463 5.234039452582949 17.26985305275263 13.941551328129048
27.272983052561745 4.179060269750143 12.405749375247357 10.688173407564243
19.792897756473597 3.3054031377139736 8.572144645780467 7.915349972979152
13.733740155184691 2.608985762995264 5.533341721235772 5.591412670953657
9.040489309172205 2.0574098645693764 3.2879062482613968 3.6951731963414365
5.571966521215197 1.6093560048110347 1.7424268814982498 2.2201836349059096
3.1434045124832304 1.2291256861725985 0.7648110698383077 1.1494677564723248
1.5968942360768437 0.9216128588011163 0.24088352223030376 0.43439785504542405
0.715087324990549 0.6127761124474072 0.0329268384430817 0.06938437410005989
0.2908211016721479 0.2918084888525992 -0.00023893622179051432 -0.0007484509586607641
0.09238313544260816 0.09238313544260816 0.0 0.0
0.014322155742299272 0.014322155742299272 0.0 0.0
0.0006413574556377935 0.0006413574556377935 0.0 0.0
CELL_DATA 800
SCALARS Stress float 6
LOOKUP_TABLE default
151.80257936902152 -506.13054073535193 -183.13840985249067 -106.65247130413147 0.0 0.0
395.2870423560076 -33.50802478911385 117.60874482357849 59.23853805336185 0.0 0.0
385.29076304351224 7.16298335038622 117.5399379132648 -4.866434072636036 0.0 0.0
446.3663958527186 -7.949028687367364 134.07079408311148 -13.282312299773164 0.0 0.0
519.1548132815037 -12.923272733928487 176.16447868758968 -11.153858411071948 0.0 0.0
588.0329878798415 -5.231395461882002 242.85558793093048 -9.54093861352747 0.0 0.0
654.5329814761058 2.8037516237499815 304.56691778200565 -9.56073939243354 0.0 0.0
720.9457401287001 18.92109890204059 359.23578021543847 -10.524389941380484 0.0 0.0
788.266726594147 41.41762482762137 409.53597544492163 -11.73818640680015 0.0 0.0
856.8930479364546 69.34120591179439 459.6895787904276 -12.643632608759184 0.0 0.0
926.3235637107146 101.0240670541873 510.94405858647235 -13.06994638514365 0.0 0.0
995.9579108593242 135.94308423402498 563.5766228823122 -13.013096848938243 0.0 0.0
1065.9060920996844 172.44915941328907 617.0214551857489 -12.802478336299316 0.0 0.0
1136.8123636176558 211.056774268715 671.91386829155 -12.550746798900915 0.0 0.0
1209.4143382032291 252.87711354692937 729.2148174109793 -12.20308802743359 0.0 0.0
1283.2461835884574 297.99914945270314 788.7537258280414 -11.59125681911942 0.0 0.0
1356.024403327207 345.1479531934629 848.7656438084525 -10.505783802112619 0.0 0.0
1424.198642497573 391.8918088225029 906.2427350098546 -8.89776843154896 0.0 0.0
1483.9342251421335 435.57559714116786 957.9002352241974 -7.409995192644861 0.0 0.0
1548.4386942513117 491.3319789898996 1017.516959379038 -9.02457583156276 0.0 0.0
1548.4386942511662 491.3319789897642 1017.516959378871 9.0245758315762 0.0 0.0
1483.9342251419223 435.5755971409947 957.9002352238822 7.409995192709812 0.0 0.0
1424.1986424962884 391.8918088212651 906.2427350088429 8.89776843152464 0.0 0.0
1356.0244033262388 345.14795319257246 848.7656438077065 10.505783802168049 0.0 0.0
1283.2461835880101 297.99914945235014 788.7537258276631 11.591256819077506 0.0 0.0
1209.4143382031584 252.87711354697925 729.2148174108695 12.203088027553607 0.0 0.0
1136.812363618041 211.05677426925 671.9138682917568 12.550746798944594 0.0 0.0
1065.9060920999718 172.44915941375223 617.0214551858915 12.802478336391239 0.0 0.0
995.9579108587188 135.94308423360832 563.576622881828 13.013096848887177 0.0 0.0
926.3235637100948 101.02406705376663 510.9440585860113 13.06994638517757 0.0 0.0
856.8930479360271 69.3412059115887 459.6895787901034 12.643632608745724 0.0 0.0
788.2667265940794 41.417624827795905 409.53597544482574 11.738186406783973 0.0 0.0
720.9457401281334 18.92109890170741 359.2357802150266 10.524389941395508 0.0 0.0
654.5329814756889 2.8037516235814834 304.56691778166095 9.560739392489939 0.0 0.0
588.032987879352 -5.23139546212542 242.8555879305172 9.540938613545016 0.0 0.0
519.1548132813045 -12.923272733828401 176.16447868743063 11.153858411079536 0.0 0.0
446.36639585261867 -7.949028687114695 134.07079408314524 13.282312299754512 0.0 0.0
385.29076304333546 7.162983350349696 117.53993791320391 4.866434072613954 0.0 0.0
395.28704235592767 -33.50802478911551 117.60874482351704 -59.23853805333975 0.0 0.0
151.80257936956983 -506.130540734828 -183.1384098519647 106.65247130372298 0.0 0.0
55.42765808141536 -535.8189514746441 -239.60284474246953 -149.05208039711687 0.0 0.0
245.02096133203443 -19.14370572327449 67.76317668262797 12.507280745456006 0.0 0.0
337.96894993238936 23.633711476512865 108.48030829634273 -10.35728658629844 0.0 0.0
407.00452060359396 -5.428564459466685 120.68828662753637 -32.866504461565114 0.0 0.0
489.28084487232536 -14.160109716724183 155.86482885707775 -31.8104474801766 0.0 0.0
563.0810555195148 -6.693750239249198 220.7471670234344 -28.313213185794638 0.0 0.0
633.8509500411902 1.1155945896252568 286.71064954087734 -28.67603913150939 0.0 0.0
701.2691563939992 16.366862024305597 344.63096287464737 -30.15194801018819 0.0 0.0
767.4935455757079 37.3768413706573 395.54603730857286 -31.980128889967556 0.0 0.0
833.533972991938 62.98152690754413 444.080609372381 -33.150010937845586 0.0 0.0
899.2268773855636 91.61061644762371 492.2930305385237 -33.299783565139705 0.0 0.0
964.5043139394749 121.96874753512053 540.6110627811947 -32.69760332849378 0.0 0.0
1029.5429132800843 154.4302991446176 589.6392676625426 -31.80898510386285 0.0 0.0
1095.5627641412502 188.8643056737967 640.039797008065 -30.910058573106998 0.0 0.0
1162.994909701099 225.92432863358704 692.4041994331398 -29.875216240331834 0.0 0.0
1231.308912687395 265.8442896848258 746.6097309564419 -28.287122011280996 0.0 0.0
1298.8165335082238 307.8126405611284 801.4081463001373 -25.798701397502814 0.0 0.0
1363.160563780249 350.6076744849034 854.9829041514992 -22.50325450463447 0.0 0.0
1425.2353113172003 396.5953853415963 908.8487587313896 -19.192335769378655 0.0 0.0
1469.7302719002375 431.88939219228223 948.5481637839495 -15.06958587391412 0.0 0.0
1469.7302719001723 431.8893921922262 948.5481637839622 15.069585873953919 0.0 0.0
1425.2353113170293 396.595385341465 908.8487587312749 19.192335769482238 0.0 0.0
1363.160563779932 350.60767448464037 854.9829041512052 22.503254504622294 0.0 0.0
1298.8165335077726 307.8126405607578 801.4081462997627 25.79870139761764 0.0 0.0
1231.30891268682 265.84428968433775 746.6097309559755 28.28712201120642 0.0 0.0
1162.994909700619 225.92432863322318 692.404199432751 29.875216240382606 0.0 0.0
1095.5627641408046 188.86430567348273 640.0397970077402 30.910058573074057 0.0 0.0
1029.542913279649 154.43029914433453 589.6392676622299 31.808985103848904 0.0 0.0
964.5043139390535 121.96874753487717 540.6110627808672 32.69760332848565 0.0 0.0
899.2268773854794 91.61061644775826 492.29303053840357 33.299783565138085 0.0 0.0
833.5339729914866 62.981526907298985 444.08060937202845 33.15001093779885 0.0 0.0
767.4935455751588 37.376841370320136 395.5460373081748 31.980128889964114 0.0 0.0
701.2691563935499 16.36686202411471 344.63096287429255 30.151948010233696 0.0 0.0
633.850950041092 1.1155945897942416 286.71064954070425 28.67603913150148 0.0 0.0
563.0810555190384 -6.6937502394150385 220.74716702304426 28.31321318579272 0.0 0.0
489.2808448721878 -14.160109716528314 155.86482885699692 31.81044748014803 0.0 0.0
407.0045206033668 -5.428564459460988 120.68828662747477 32.866504461509365 0.0 0.0
337.96894993223776 23.633711476363924 108.48030829625296 10.35728658631744 0.0 0.0
245.02096133221218 -19.143705723009212 67.76317668276089 -12.507280745558488 0.0 0.0
55.42765808169867 -535.8189514743224 -239.6028447421216 149.05208039686323 0.0 0.0
9.903661154299954 -537.6891080490299 -254.55604511217172 -162.9884795033738 0.0 0.0
142.489866470922 -17.97181547600328 37.35541529847562 -39.762242540168316 0.0 0.0
275.1918192015021 28.399772309384275 91.0774774532659 -31.766862147314388 0.0 0.0
360.3071159266382 1.556530192458836 108.61278712807979 -51.387620446086615 0.0 0.0
449.5453604053451 -12.228233477618682 137.05263587900947 -54.55238674892327 0.0 0.0
535.2624757522124 -10.730806996721219 194.85148419447037 -49.41054581352861 0.0 0.0
608.8162408230332 0.36245317415728806 265.51221309224513 -48.08886457901938 0.0 0.0
677.1332451552219 13.806217408490589 326.4376244989972 -49.7573858343746 0.0 0.0
742.9281184402826 33.40977564759323 378.9773995069322 -51.84932061408628 0.0 0.0
806.4810010704086 56.47956487256139 426.2392993871533 -53.02445124811533 0.0 0.0
868.4720004217281 81.62522005312533 471.37413811432725 -52.84246272684098 0.0 0.0
929.1795797865047 108.28542267642491 515.7720849819398 -51.674277163483126 0.0 0.0
989.8452171265433 136.16772595432786 560.422976302699 -50.29160170293859 0.0 0.0
1050.8823871243462 166.2963124290746 606.2391457346787 -48.82521716647 0.0 0.0
1112.9232890683204 198.46360594223057 653.496732288485 -47.14421858315051 0.0 0.0
1175.6593916345253 232.9107514489043 702.2044815088366 -44.729220923235154 0.0 0.0
1237.9773211486909 269.56813061459036 751.7647977188266 -41.15641698847612 0.0 0.0
1299.6979082386022 309.4731624091712 802.5563123474155 -36.50773621937053 0.0 0.0
1356.2214485480833 349.3568030328599 850.6467929823161 -30.368655953212677 0.0 0.0
1394.8292489740181 377.78722738056206 884.0287664591968 -20.51504990064084 0.0 0.0
1394.8292489739838 377.7872273805452 884.0287664591265 20.515049900758065 0.0 0.0
1356.2214485475552 349.35680303237234 850.6467929819429 30.36865595330302 0.0 0.0
1299.6979082376643 309.4731624082943 802.5563123466883 36.507736219507215 0.0 0.0
1237.977321147843 269.56813061383406 751.7647977181455 41.156416988612214 0.0 0.0
1175.659391633785 232.91075144822975 702.2044815082594 44.72922092309809 0.0 0.0
1112.9232890683124 198.46360594234127 653.4967322884368 47.14421858317005 0.0 0.0
1050.8823871238988 166.29631242875305 606.2391457343482 48.82521716645118 0.0 0.0
989.8452171259628 136.167725953912 560.4229763022402 50.29160170301911 0.0 0.0
929.1795797860187 108.28542267612701 515.7720849815296 51.674277163479616 0.0 0.0
868.4720004214096 81.62522005299117 471.3741381140969 52.84246272679101 0.0 0.0
806.4810010696277 56.479564871972045 426.23929938661485 53.024451248079814 0.0 0.0
742.9281184397987 33.40977564734037 378.977399506583 51.84932061405267 0.0 0.0
677.1332451549929 13.806217408540519 326.43762449876897 49.757385834420425 0.0 0.0
608.8162408230477 0.36245317447789915 265.5122130921249 48.088864578958976 0.0 0.0
535.2624757518934 -10.730806996733179 194.85148419419087 49.41054581350547 0.0 0.0
449.54536040482617 -12.22823347791033 137.05263587872724 54.55238674881295 0.0 0.0
360.30711592638465 1.5565301923037298 108.61278712796968 51.38762044592096 0.0 0.0
275.1918192015041 28.399772309372928 91.07747745326309 31.766862147222582 0.0 0.0
142.4898664711031 -17.971815475699977 37.35541529862093 39.76224253995267 0.0 0.0
9.90366115450189 -537.689108048732 -254.5560451118578 162.98847950320305 0.0 0.0
-6.512979066811312 -521.4214195103427 -244.8089433052172 -165.50479994937035 0.0 0.0
84.33295661890746 -23.497178616491258 18.250733400724865 -84.06312183161705 0.0 0.0
215.34199775964385 27.6247365163779 72.89002028280652 -59.98263754134993 0.0 0.0
310.23009239965666 6.889068497916766 95.12768345265316 -71.43605130648727 0.0 0.0
400.3064612817183 -9.106858226646613 119.13908598312871 -78.61983318737343 0.0 0.0
494.98332222582553 -12.419908774759799 167.75911499788364 -72.7086780822487 0.0 0.0
576.4316194038367 -2.0870865038089903 238.1930547841634 -68.43832187689281 0.0 0.0
648.2672251577752 11.884788156235835 304.4126440933895 -69.52849971192073 0.0 0.0
713.5983251257611 29.282115343178887 358.7980837881429 -71.3364611702321 0.0 0.0
774.9575838034616 49.71556184038017 405.4567967981541 -72.28485935327167 0.0 0.0
833.4841602025135 71.49356121197405 448.0060254371283 -71.70047452704699 0.0 0.0
890.2373750087344 94.28843243044591 488.83842040707253 -70.05111673852144 0.0 0.0
946.0045347501214 118.0188691175984 529.1157788093728 -68.1768999378732 0.0 0.0
1002.4312156136722 143.55762775065912 570.4222550975032 -66.29933386391986 0.0 0.0
1059.2126909773513 170.56720511692674 612.5249364725778 -64.07527543884588 0.0 0.0
1115.9220478182942 199.4981458837511 655.4899045324805 -60.94772178540528 0.0 0.0
1173.3296300134984 230.97795097737122 700.022997412807 -56.60796406824855 0.0 0.0
1230.4643755912002 265.6428023515797 745.921029098327 -50.64920354080375 0.0 0.0
1282.658463698224 300.01306676014127 789.1154861928081 -41.53487203650003 0.0 0.0
1319.0792361539316 324.5803691636998 819.4848785942177 -26.31199867865236 0.0 0.0
1319.0792361538356 324.58036916363375 819.4848785941374 26.31199867876707 0.0 0.0
1282.6584636978553 300.0130667598183 789.1154861925077 41.534872036659856 0.0 0.0
1230.4643755902675 265.6428023507228 745.9210290976455 50.649203540929335 0.0 0.0
1173.3296300126126 230.97795097655887 700.0229974122041 56.607964068324705 0.0 0.0
1115.9220478177062 199.4981458832315 655.4899045319576 60.94772178535138 0.0 0.0
1059.212690976808 170.56720511651062 612.5249364721356 64.07527543889498 0.0 0.0
1002.4312156128669 143.55762774997524 570.4222550969283 66.29933386391754 0.0 0.0
946.0045347502536 118.01886911789097 529.1157788094421 68.17689993789848 0.0 0.0
890.2373750086158 94.2884324305257 488.83842040696413 70.0511167385699 0.0 0.0
833.4841602020822 71.49356121174411 448.0060254367613 71.70047452707954 0.0 0.0
774.9575838035225 49.715561840694264 405.4567967981364 72.28485935329259 0.0 0.0
713.5983251256399 29.282115343309023 358.79808378800175 71.33646117024739 0.0 0.0
648.2672251574201 11.884788156151096 304.4126440930996 69.52849971194146 0.0 0.0
576.4316194033029 -2.0870865040480737 238.1930547837326 68.4383218768885 0.0 0.0
494.9833222253949 -12.419908774861451 167.75911499759377 72.70867808222008 0.0 0.0
400.30646128149004 -9.106858226336783 119.13908598314438 78.61983318739475 0.0 0.0
310.2300923996526 6.8890684982133585 95.12768345274227 71.43605130650832 0.0 0.0
215.3419977596177 27.62473651628129 72.8900202827697 59.982637541213286 0.0 0.0
84.33295661899554 -23.497178616264407 18.25073340081934 84.06312183137578 0.0 0.0
-6.5129790666659915 -521.4214195100338 -244.8089433049153 165.5047999492258 0.0 0.0
-9.190780105362691 -494.65773986817345 -221.91565862082587 -163.78591053556784 0.0 0.0
50.09769383913467 -29.614241665927043 6.145035651962285 -118.44027487876248 0.0 0.0
163.19303260415444 23.77104726181186 56.089223959789884 -88.66205308399664 0.0 0.0
257.3829753856914 10.07000451752894 80.23561622330499 -92.83442961124496 0.0 0.0
343.584422592167 -4.426838574926098 102.12424620720547 -101.41953184022205 0.0 0.0
443.30389723434484 -12.596052322994886 140.76322358754106 -98.82987127592662 0.0 0.0
536.0975661299512 -5.438506592206897 205.90857059517057 -91.25377019725578 0.0 0.0
612.9519121215719 9.557247220247742 276.59010629968907 -89.42861426270575 0.0 0.0
678.6324923907391 25.219275438719798 334.03824600931694 -90.54948506213378 0.0 0.0
738.2556937931693 42.720440996414794 380.97594493446 -90.9945670385789 0.0 0.0
793.7613240734232 61.150753203368524 421.6509915914021 -89.93189642717824 0.0 0.0
846.4175396906337 80.08897948007649 459.0996337486245 -87.79634324820137 0.0 0.0
897.9083053085072 99.76183212356364 495.50079456024184 -85.58091514829647 0.0 0.0
948.9443968800373 120.71987151078758 531.9575306923746 -83.28424084579088 0.0 0.0
1000.402031732481 142.7184689008695 568.9630060099659 -80.62586506454359 0.0 0.0
1052.1954335622672 166.05230586726353 606.7251174158117 -77.04473041389636 0.0 0.0
1103.5270717837313 191.4902321558307 645.2410128421861 -72.0649437669575 0.0 0.0
1155.2103982595413 219.9129186307353 685.3241985939817 -64.9789924374094 0.0 0.0
1203.8509826579948 248.88137572574988 724.0546332791174 -53.174603897887216 0.0 0.0
1240.212928048104 270.84428184314487 753.075611816435 -32.92884194894212 0.0 0.0
1240.2129280486315 270.84428184369665 753.075611816863 32.928841949010774 0.0 0.0
1203.8509826587358 248.88137572655464 724.0546332796804 53.17460389802554 0.0 0.0
1155.2103982589715 219.91291863027232 685.324198593632 64.97899243766943 0.0 0.0
1103.527071782667 191.49023215485843 645.2410128414496 72.06494376705972 0.0 0.0
1052.1954335615685 166.0523058666007 606.725117415322 77.04473041378007 0.0 0.0
1000.4020317323439 142.71846890083796 568.9630060097802 80.62586506450674 0.0 0.0
948.9443968801677 120.71987151107339 531.9575306923786 83.28424084588153 0.0 0.0
897.908305308485 99.76183212369597 495.5007945601587 85.58091514828732 0.0 0.0
846.4175396902317 80.08897947984617 459.0996337483144 87.79634324821632 0.0 0.0
793.7613240726872 61.15075320278012 421.65099159085776 89.93189642711019 0.0 0.0
738.2556937929354 42.720440996365724 380.9759449342505 90.99456703847565 0.0 0.0
678.6324923904983 25.219275438707832 334.03824600909735 90.54948506209129 0.0 0.0
612.9519121211953 9.557247220101154 276.5901062993103 89.42861426260404 0.0 0.0
536.0975661297944 -5.438506591966242 205.9085705949863 91.25377019730524 0.0 0.0
443.3038972339958 -12.59605232297249 140.76322358735413 98.82987127585179 0.0 0.0
343.58442259188223 -4.42683857500421 102.1242462070964 101.4195318400499 0.0 0.0
257.38297538547715 10.070004517366394 80.23561622319258 92.83442961113025 0.0 0.0
163.19303260419983 23.7710472619533 56.08922395984593 88.66205308384932 0.0 0.0
50.09769383924889 -29.61424166568899 6.1450356520679685 118.44027487858101 0.0 0.0
-9.190780105271799 -494.65773986786684 -221.91565862053545 163.78591053547302 0.0 0.0
-5.764899871293849 -460.9649983601689 -192.35859452641176 -160.67194888043704 0.0 0.0
28.10192732571614 -34.72284622459505 -1.986275669663673 -143.82734259494836 0.0 0.0
118.14560647646124 18.570384643127237 41.01479733587654 -114.3773428981916 0.0 0.0
203.87262403837008 12.114095355486072 64.79601581815683 -113.76744433334967 0.0 0.0
283.9593645826531 -0.7565847881771226 84.92778655661618 -122.75335770880623 0.0 0.0
375.9249574908304 -10.543416485565738 114.39516001578659 -125.24155197036234 0.0 0.0
478.44631318103353 -7.281175614852925 169.89097670585284 -117.32810848176771 0.0 0.0
565.7743166103721 5.519453494918279 239.9622182855548 -111.04095003681086 0.0 0.0
636.2523569937998 20.81561554187325 302.70109509922 -109.77334296861196 0.0 0.0
695.0844250998214 35.657150597291746 351.3809756937135 -109.2159375637386 0.0 0.0
747.618384554373 50.450095066354116 390.87382717046336 -107.56093716153026 0.0 0.0
796.7337354168985 65.74841873438429 425.82250042020917 -105.010937945819 0.0 0.0
843.7719850036989 81.53976719627934 458.59040520515396 -102.40650367114824 0.0 0.0
889.8983447383791 97.8226262471822 490.53441727985955 -99.8989775930059 0.0 0.0
936.1364659713579 114.79345135272312 522.5442423509601 -96.96541499480774 0.0 0.0
982.0201737037875 132.96192151655345 554.8337596977236 -92.8650255574009 0.0 0.0
1027.6516074390017 151.73145215100345 587.2418542482538 -87.46893652504467 0.0 0.0
1073.085934706291 172.55949174907545 620.4646497722879 -79.63492500826861 0.0 0.0
1117.9434811035728 195.62887926328665 654.3643720072627 -65.67249374519447 0.0 0.0
1155.9162367014685 215.5389107423976 683.1181747470594 -40.86285090169272 0.0 0.0
1155.916236701031 215.53891074198694 683.1181747467144 40.862850901843714 0.0 0.0
1117.9434811038088 195.6288792635915 654.3643720073882 65.67249374537505 0.0 0.0
1073.0859347060743 172.55949174902122 620.4646497721953 79.63492500854821 0.0 0.0
1027.6516074374613 151.73145214947473 587.241854247168 87.46893652498046 0.0 0.0
982.0201737029467 132.96192151575877 554.8337596970985 92.86502555736627 0.0 0.0
936.136465971472 114.79345135299889 522.5442423510406 96.96541499488735 0.0 0.0
889.898344738081 97.82262624706988 490.5344172796161 99.89897759312524 0.0 0.0
843.7719850031258 81.53976719583682 458.5904052046763 102.40650367117692 0.0 0.0
796.733735416216 65.74841873383411 425.8225004196984 105.01093794575837 0.0 0.0
747.61838455326 50.45009506531072 390.8738271696738 107.560937161391 0.0 0.0
695.0844250994065 35.657150597062945 351.38097569335673 109.2159375636728 0.0 0.0
636.2523569937773 20.815615542157737 302.70109509912766 109.77334296864069 0.0 0.0
565.7743166100245 5.51945349490984 239.96221828525117 111.04095003682866 0.0 0.0
478.4463131804261 -7.2811756151523035 169.89097670543092 117.32810848172913 0.0 0.0
375.92495749026256 -10.543416485931447 114.39516001548164 125.24155197020437 0.0 0.0
283.95936458243835 -0.7565847882491337 84.92778655653524 122.75335770871087 0.0 0.0
203.87262403830417 12.114095355592026 64.79601581816884 113.76744433327497 0.0 0.0
118.14560647644282 18.570384643180347 41.01479733588695 114.37734289805921 0.0 0.0
28.101927325723082 -34.72284622450058 -1.9862756696332486 143.82734259478397 0.0 0.0
-5.764899871202488 -460.96499835978886 -192.3585945261045 160.67194888039438 0.0 0.0
-0.11617388991372479 -421.69010177623204 -159.88249704731356 -157.17393048940622 0.0 0.0
11.45428287364754 -39.576996257577534 -8.436814015179 -161.49630979156873 0.0 0.0
78.25940318979018 13.37962521778865 27.49170852227364 -135.64966206117347 0.0 0.0
151.19487280607024 13.826481638050382 49.506406333236185 -132.87048005523775 0.0 0.0
220.7365483076998 1.7668073956107264 66.76939875732937 -141.95475212162634 0.0 0.0
300.85976725263316 -6.7227588401083676 89.66242530295946 -149.52827382344935 0.0 0.0
402.68174380231176 -7.599373235396905 131.96711130015373 -145.63320984663753 0.0 0.0
500.7731229947342 1.7711215772027655 195.23171935641415 -135.80731762637956 0.0 0.0
580.0228736020221 15.069257808383519 260.37762837059364 -130.04649241456784 0.0 0.0
642.2036459608273 28.33621764944907 313.5254172417863 -127.25866957862728 0.0 0.0
692.6190034841163 39.43887442420632 353.2919283108997 -124.6858414864689 0.0 0.0
738.5998082333425 51.294873889841625 386.9448399195084 -121.71328435395856 0.0 0.0
781.4298985268068 63.1248546257574 416.75288272144815 -118.79682306467554 0.0 0.0
822.5350311948661 75.19781673580138 444.70298617457155 -116.08452814826698 0.0 0.0
862.8406382915426 86.94972944834257 471.44339513690716 -113.06282520413916 0.0 0.0
904.0559000165051 99.9416271370672 498.9475016364873 -108.70074438898159 0.0 0.0
943.5690277924043 112.45650907881665 525.2713020369822 -102.6674513573778 0.0 0.0
981.4318051904827 124.59965954635835 550.48205515477 -94.48987524065893 0.0 0.0
1021.8904801327185 139.51846679849734 578.1464901270849 -79.44968382543487 0.0 0.0
1063.228131875212 157.38148283596956 607.4795809168081 -50.86654355917324 0.0 0.0
1063.2281318746902 157.38148283549225 607.4795809165286 50.86654355936952 0.0 0.0
1021.8904801328277 139.51846679867288 578.1464901271964 79.44968382563539 0.0 0.0
981.431805190369 124.5996595464481 550.4820551547211 94.4898752410304 0.0 0.0
943.569027793089 112.45650907971739 525.2713020374005 102.6674513575983 0.0 0.0
904.0559000169608 99.94162713773028 498.94750163675735 108.70074438915378 0.0 0.0
862.840638291652 86.9497294486076 471.44339513697815 113.06282520424227 0.0 0.0
822.5350311942957 75.19781673536288 444.70298617421383 116.08452814832015 0.0 0.0
781.4298985267068 63.124854625836704 416.75288272140284 118.79682306469942 0.0 0.0
738.5998082335087 51.29487389018557 386.9448399196007 121.71328435398337 0.0 0.0
692.6190034843713 39.438874424715216 353.29192831100175 124.6858414864907 0.0 0.0
642.2036459607704 28.336217649686667 313.52541724168236 127.25866957866043 0.0 0.0
580.0228736019423 15.069257808632976 260.3776283704653 130.04649241457346 0.0 0.0
500.77312299425205 1.7711215770636954 195.23171935605055 135.80731762638243 0.0 0.0
402.6817438020647 -7.599373235103549 131.96711130005875 145.6332098466444 0.0 0.0
300.8597672527162 -6.722758839366483 89.66242530318914 149.52827382333632 0.0 0.0
220.73654830760128 1.766807395733812 66.76939875734642 141.95475212144515 0.0 0.0
151.19487280601848 13.826481638150188 49.506406333250595 132.87048005504985 0.0 0.0
78.25940318980352 13.379625217940776 27.491708522323282 135.64966206095144 0.0 0.0
11.45428287365661 -39.57699625742114 -8.436814015129357 161.49630979136379 0.0 0.0
-0.1161738898656921 -421.6901017759482 -159.8824970470738 157.1739304892809 0.0 0.0
3.440445641965603 -378.41146810387664 -129.504845357132 -153.8396520263925 0.0 0.0
-4.521686949228844 -44.482836278118185 -14.701328273964094 -171.88200248652714 0.0 0.0
42.02607893173351 9.244526692322363 15.38118168721676 -152.44624178011568 0.0 0.0
99.94192045499744 15.1384992031439 34.52246913469525 -149.00104542706148 0.0 0.0
155.84071061960015 4.323177886458154 48.04949205078339 -158.3003206224063 0.0 0.0
217.81884254976686 -3.205296689140835 65.03635368455517 -169.20242010166052 0.0 0.0
303.69646141258164 -5.088321989442807 94.28948150927391 -172.96909571436316 0.0 0.0
408.80313845027894 -0.5732216197402105 143.61775826741203 -164.532973293493 0.0 0.0
500.35779628595355 8.646116443009427 203.92788319839525 -153.57139628895482 0.0 0.0
569.7409818959609 19.947894736860412 260.24609474522913 -146.0512022760628 0.0 0.0
622.7012371335367 28.025671123837192 303.2591197764822 -141.87882433560281 0.0 0.0
665.8381228739232 36.35785427145703 337.08006250291663 -138.03794474591336 0.0 0.0
704.8686239308141 44.800052171382774 365.68952187004163 -134.77164633544015 0.0 0.0
741.1478991027145 52.631044282325 390.62859125278436 -131.9352466644483 0.0 0.0
776.1709692942853 59.70961118143546 413.3291219590642 -129.01099466714834 0.0 0.0
811.1822894520764 66.65985076841767 435.1412074065456 -124.59075951574741 0.0 0.0
846.8867376327096 74.05272566848447 457.1404419430983 -117.9308521797708 0.0 0.0
877.6510905178891 77.65805208945439 474.78894077178427 -109.21349325552379 0.0 0.0
908.9855838218062 80.15172546937022 491.86175725643307 -94.43043005565033 0.0 0.0
954.2340828141167 94.20847509613306 521.0905389250679 -63.963249403549995 0.0 0.0
954.2340828140515 94.20847509609297 521.090538924976 63.9632494037016 0.0 0.0
908.9855838223821 80.15172547011787 491.86175725685035 94.43043005591497 0.0 0.0
877.6510905174389 77.6580520891884 474.7889407715347 109.21349325584474 0.0 0.0
846.8867376320976 74.05272566793963 457.140441942647 117.93085217981937 0.0 0.0
811.1822894521737 66.6598507686218 435.141207406567 124.59075951578785 0.0 0.0
776.1709692942432 59.70961118157693 413.3291219590046 129.01099466721166 0.0 0.0
741.1478991020444 52.63104428168113 390.62859125229113 131.9352466643872 0.0 0.0
704.8686239302281 44.800052170887824 365.68952186963037 134.77164633545723 0.0 0.0
665.8381228737062 36.35785427143247 337.08006250272143 138.0379447459406 0.0 0.0
622.7012371333832 28.025671123836396 303.2591197763033 141.8788243355359 0.0 0.0
569.7409818958688 19.94789473697798 260.2460947450721 146.05120227596717 0.0 0.0
500.3577962856959 8.646116443039258 203.92788319815855 153.5713962889477 0.0 0.0
408.8031384502561 -0.5732216191491233 143.61775826744744 164.5329732935601 0.0 0.0
303.6964614123526 -5.0883219889330285 94.28948150933314 172.9690957143897 0.0 0.0
217.8188425496338 -3.2052966890112344 65.03635368455167 169.2024201015064 0.0 0.0
155.8407106195197 4.323177886576092 48.049492050801405 158.30032062224976 0.0 0.0
99.94192045497252 15.138499203221578 34.52246913471189 149.00104542688678 0.0 0.0
42.026078931588856 9.244526692077365 15.381181687099863 152.4462417798851 0.0 0.0
-4.521686949306119 -44.48283627816891 -14.701328274002627 171.8820024863209 0.0 0.0
3.4404456419670346 -378.4114681035502 -129.50484535693687 153.83965202628144 0.0 0.0
-0.6267913146080062 -332.07808271319334 -106.13935282044781 -148.32272309554577 0.0 0.0
-21.984705689924027 -50.00757341001379 -21.596443440463283 -178.13461450792983 0.0 0.0
8.579075797314754 6.755794890187751 4.600165364393772 -164.7416204059814 0.0 0.0
50.20125624980914 15.935050343581926 19.839778254516887 -161.57399971086824 0.0 0.0
89.93495049920472 7.745573211455907 29.314686005963182 -170.23533981427843 0.0 0.0
131.26695512452272 -0.24563580368822047 39.593224395410594 -184.35711386640622 0.0 0.0
186.3294592144593 -2.338363471075765 56.93409094783739 -193.72960234269158 0.0 0.0
270.2488877218602 0.4506166828667544 87.50436400326562 -192.9200636238215 0.0 0.0
371.4740625018816 4.383804874249236 131.9612764853402 -182.65835561647546 0.0 0.0
455.14676360501284 10.126206356399845 181.7341427156681 -168.8682475397256 0.0 0.0
515.4077201747152 16.640326779617634 226.660359692248 -160.0780154556841 0.0 0.0
559.5677927791692 20.864884670322084 261.76078919734505 -154.8129238878525 0.0 0.0
596.40403113389 26.087631937224714 291.43696012447066 -150.7563102879772 0.0 0.0
628.6211267335925 30.37899657075694 316.1384994519678 -147.552000983391 0.0 0.0
657.9642040820816 32.86979193948167 336.56013152795606 -144.5785013653624 0.0 0.0
686.6361699970556 33.7326312018978 354.12083625477504 -140.55451186552773 0.0 0.0
718.2710975567854 34.71301437707854 371.677334628336 -133.72087769112917 0.0 0.0
750.2107057049783 34.656822264545724 388.4996766197917 -123.56340009856383 0.0 0.0
769.3126719259664 19.409634807197136 391.5988435573171 -109.68516467579389 0.0 0.0
814.5475207810405 20.960591586338523 414.27402976050945 -81.62427732579025 0.0 0.0
814.5475207816772 20.960591587120916 414.2740297609569 81.62427732606548 0.0 0.0
769.3126719265875 19.409634808020968 391.59884355774074 109.68516467614768 0.0 0.0
750.2107057041599 34.65682226404931 388.49967661928304 123.5634000990419 0.0 0.0
718.2710975555274 34.71301437572248 371.67733462741273 133.72087769107875 0.0 0.0
686.6361699964812 33.73263120127194 354.1208362543135 140.55451186551846 0.0 0.0
657.9642040817189 32.86979193920186 336.5601315277032 144.5785013653296 0.0 0.0
628.6211267336312 30.3789965709003 316.13849945198865 147.55200098342277 0.0 0.0
596.404031134511 26.08763193815102 291.43696012486066 150.7563102881685 0.0 0.0
559.5677927791788 20.864884670705578 261.7607891973416 154.8129238879952 0.0 0.0
515.4077201747274 16.640326779916073 226.660359692194 160.0780154557189 0.0 0.0
455.1467636049222 10.126206356638551 181.7341427155754 168.86824753968313 0.0 0.0
371.474062501378 4.383804874130114 131.96127648508136 182.6583556165546 0.0 0.0
270.24888772138934 0.4506166825943083 87.50436400300975 192.9200636237877 0.0 0.0
186.32945921426543 -2.338363470854606 56.93409094783789 193.7296023426096 0.0 0.0
131.26695512455856 -0.24563580341320623 39.593224395502155 184.35711386618513 0.0 0.0
89.93495049930532 7.745573211875854 29.314686006122635 170.23533981404623 0.0 0.0
50.20125624987648 15.935050343770477 19.83977825459406 161.57399971064024 0.0 0.0
8.579075797220801 6.755794890025407 4.600165364317004 164.74162040580123 0.0 0.0
-21.98470568993819 -50.007573409945856 -21.596443440447672 178.13461450781364 0.0 0.0
-0.6267913146526851 -332.07808271283506 -106.13935282030856 148.32272309536103 0.0 0.0
-9.694662304937276 -284.2006182756656 -89.08045672151985 -139.2006174675067 0.0 0.0
-38.88869525570562 -54.84170600239428 -28.116372137374576 -181.62490504267643 0.0 0.0
-22.8755996662088 5.282209094904554 -5.277864546484452 -172.88516189739082 0.0 0.0
2.0407716551780894 16.51867412289855 5.567604027553988 -170.01031083507905 0.0 0.0
24.023574344819032 11.165639257522598 10.554889510267433 -177.70363697530414 0.0 0.0
42.199722403976956 3.722479551843797 13.873110633336553 -192.19219915217428 0.0 0.0
62.253877403330115 0.040567378879643456 19.231481907070055 -205.4087063639869 0.0 0.0
91.58730675284177 0.0956460819424354 28.992149378537544 -211.74820865981093 0.0 0.0
136.27810222857335 2.4416775543246434 45.05689491276596 -206.05238257875817 0.0 0.0
194.3559401171232 4.245822448213442 66.27164089270683 -195.25584317544616 0.0 0.0
253.51491604889338 6.486811037549959 91.41372023149002 -182.02071903005134 0.0 0.0
301.0346997042945 7.355432107978942 116.26198658068606 -173.54254111714235 0.0 0.0
343.85059053743566 9.813145600230648 142.4313615365932 -168.2271577235992 0.0 0.0
382.38655339895644 8.990984154937536 167.02081469441464 -163.81371945999925 0.0 0.0
411.43742552296663 6.909025910727209 187.4701475734087 -159.46598169236654 0.0 0.0
440.5755086233729 1.4194217412616155 205.61333443798947 -155.63493005366408 0.0 0.0
476.49948419360305 -5.528240320199856 224.16769005836628 -149.7487606637389 0.0 0.0
522.5994728167937 -10.588107678011113 247.48881536853008 -139.58462163155838 0.0 0.0
563.9273152712276 -26.815041341559066 264.33265024800744 -122.34159675203348 0.0 0.0
588.2464965342225 -77.71449328714218 252.15622007552636 -102.19638027494831 0.0 0.0
588.2464965338714 -77.71449328749483 252.15622007535404 102.19638027523916 0.0 0.0
563.9273152711263 -26.81504134174233 264.3326502478962 122.34159675235375 0.0 0.0
522.5994728166748 -10.588107677762878 247.48881536857976 139.58462163191678 0.0 0.0
476.4994841930019 -5.528240321012262 224.1676900579407 149.74876066379926 0.0 0.0
440.57550862291504 1.4194217405655536 205.61333443761697 155.63493005364552 0.0 0.0
411.43742552229224 6.909025909597759 187.47014757281858 159.465981692316 0.0 0.0
382.38655339908945 8.990984155263071 167.0208146945041 163.81371946011376 0.0 0.0
343.8505905375784 9.813145600382214 142.43136153664557 168.22715772372132 0.0 0.0
301.03469970443786 7.3554321081926375 116.26198658075927 173.54254111712436 0.0 0.0
253.51491604859808 6.486811037097599 91.4137202312455 182.02071903007118 0.0 0.0
194.35594011672868 4.245822447522691 66.27164089236966 195.2558431753022 0.0 0.0
136.27810222820762 2.4416775537886917 45.05689491248106 206.05238257878295 0.0 0.0
91.58730675257044 0.09564608136819785 28.992149378279795 211.74820865973305 0.0 0.0
62.25387740343548 0.04056737929385168 19.231481907223543 205.4087063638629 0.0 0.0
42.199722404064026 3.722479552024139 13.873110633416092 192.19219915188842 0.0 0.0
24.023574344649003 11.165639257083981 10.55488951008504 177.70363697517308 0.0 0.0
2.0407716551886192 16.51867412282927 5.567604027536404 170.01031083487422 0.0 0.0
-22.87559966616532 5.2822090950319645 -5.277864546433294 172.88516189719786 0.0 0.0
-38.88869525574199 -54.84170600242122 -28.11637213739454 181.62490504254572 0.0 0.0
-9.694662305021373 -284.20061827547187 -89.08045672148546 139.20061746729928 0.0 0.0
-19.80771448712041 -237.86720442927765 -77.29206839163487 -127.85843926647217 0.0 0.0
-52.924153678999545 -56.15390649409896 -32.72118312303965 -181.29545732502035 0.0 0.0
-52.647837582257424 3.8646215638517702 -14.634436991916871 -177.13109846663093 0.0 0.0
-44.53485945266952 16.96539223394669 -8.270376084124166 -174.0808977855351 0.0 0.0
-41.28696400555492 14.266952796829292 -8.101314356001385 -179.98606614544394 0.0 0.0
-47.27285102063388 7.863913655916109 -11.921295763502538 -193.14874273197753 0.0 0.0
-63.48487103635253 2.841335010858989 -18.740903114780977 -205.54620245835122 0.0 0.0
-91.606225134346 0.3289249644931225 -28.871188585864015 -211.85665483364852 0.0 0.0
-136.00121977575213 -2.4254311257001184 -44.95961559602518 -206.0639886867597 0.0 0.0
-194.19421136161685 -4.425487082377273 -66.27533526822054 -195.21469196850782 0.0 0.0
-253.7562524152628 -5.815490184919 -91.00470919269034 -181.99530136247805 0.0 0.0
-302.06680728221113 -6.447726821172587 -116.32857731607434 -173.2316150900014 0.0 0.0
-347.0203600734669 -8.311740532812102 -143.2454886882922 -167.74773131196812 0.0 0.0
-387.90853423497936 -10.340959433369207 -169.9328109473314 -163.4736929440471 0.0 0.0
-416.34006850326966 -16.734483969031174 -193.89296402238486 -160.64692165583125 0.0 0.0
-433.48600027626924 -27.024321362792662 -214.54948754366325 -160.70372971580463 0.0 0.0
-429.054146282563 -39.84394954542189 -226.73183792312204 -162.48035574316913 0.0 0.0
-374.73486908192194 -40.80252892343101 -217.84834944897415 -163.99741119611247 0.0 0.0
-199.42426296416983 -34.98438338650709 -144.9996289519969 -165.6320144717953 0.0 0.0
23.530459504746773 -169.35155671986018 -61.99480914361753 -131.8070115730528 0.0 0.0
23.530459504599037 -169.35155672005592 -61.99480914374621 131.8070115734301 0.0 0.0
-199.42426296429113 -34.984383386678246 -144.99962895207884 165.63201447231506 0.0 0.0
-374.73486908120526 -40.802528922420635 -217.84834944836985 163.99741119639899 0.0 0.0
-429.05414628174276 -39.84394954419223 -226.73183792241744 162.48035574326065 0.0 0.0
-433.4860002756293 -27.02432136217476 -214.54948754322209 160.70372971577504 0.0 0.0
-416.3400685024396 -16.73448396799145 -193.8929640217568 160.64692165578822 0.0 0.0
-387.90853423507207 -10.340959433872584 -169.93281094741562 163.47369294413073 0.0 0.0
-347.02036007319543 -8.311740533298085 -143.2454886882166 167.74773131207624 0.0 0.0
-302.0668072820206 -6.447726821983842 -116.32857731614051 173.2316150900366 0.0 0.0
-253.756252414588 -5.8154901847897875 -91.0047091923772 181.99530136246727 0.0 0.0
-194.19421136082303 -4.425487082014918 -66.27533526785011 195.21469196842241 0.0 0.0
-136.0012197752477 -2.425431125442959 -44.95961559578067 206.0639886867295 0.0 0.0
-91.60622513401626 0.3289249645322885 -28.871188585747188 211.8566548336222 0.0 0.0
-63.48487103640554 2.841335010384314 -18.74090311493331 205.54620245821457 0.0 0.0
-47.272851020505655 7.863913655855978 -11.92129576348043 193.14874273170022 0.0 0.0
-41.286964005485444 14.26695279687745 -8.101314355966352 179.9860661452186 0.0 0.0
-44.534859452648284 16.965392233836063 -8.27037608415274 174.08089778529245 0.0 0.0
-52.64783758229559 3.8646215636500325 -14.634436991989222 177.1310984664696 0.0 0.0
-52.9241536789934 -56.1539064941628 -32.72118312305831 181.29545732490098 0.0 0.0
-19.807714487074477 -237.86720442896538 -77.29206839153073 127.85843926632776 0.0 0.0
-24.278485320464252 -193.7498298378704 -65.40849454750038 -115.11674157479787 0.0 0.0
-64.50557582067006 -54.59594664624028 -35.73010202464641 -177.08275356937537 0.0 0.0
-80.50567734934499 2.6536542496141156 -23.356074915835446 -177.22709002604526 0.0 0.0
-89.58469824462095 17.038788833488244 -21.758039792892127 -173.78302477411265 0.0 0.0
-105.20034152287681 16.76338703892195 -26.56040252910868 -176.8837536137973 0.0 0.0
-135.38577994731867 11.198466940894097 -37.67833575456193 -186.67355880512335 0.0 0.0
-187.3060339677537 5.137451420328214 -56.4138463154374 -194.6673215851432 0.0 0.0
-270.15366795282864 -0.09141311801813679 -87.38452297163404 -193.11751287983958 0.0 0.0
-371.2202211161242 -4.447206505077087 -131.8812636684317 -182.68420555331238 0.0 0.0
-454.976410765811 -10.068773757083047 -181.61878724609593 -168.8164658408039 0.0 0.0
-515.1258196070728 -16.174009984327242 -226.3720556803945 -159.92556476457491 0.0 0.0
-559.402716894216 -19.883802927593642 -261.3469746047388 -154.38815354854347 0.0 0.0
-596.85872902401 -24.901600969138784 -291.18621609802665 -149.81921816622594 0.0 0.0
-631.3920571864517 -31.5922450941832 -317.9307926348914 -146.73522600887222 0.0 0.0
-664.5457417269579 -41.44986858137918 -343.54149704134903 -145.92565684813874 0.0 0.0
-695.2127337259885 -55.17745988242444 -368.3292039488065 -148.07823619989566 0.0 0.0
-720.2065647981146 -72.23716065534524 -391.3279292783998 -154.08354673539773 0.0 0.0
-734.0223271769792 -89.29482418705373 -408.85517329847823 -163.72370989271562 0.0 0.0
-770.8088522321534 -144.24743722028379 -454.5843056646809 -173.06029070715624 0.0 0.0
-748.7896961010549 -212.87467295932316 -476.4195185347701 -185.4499869056192 0.0 0.0
-748.7896961007043 -212.87467295903423 -476.4195185345852 185.44998690585408 0.0 0.0
-770.8088522311957 -144.24743721924898 -454.5843056640514 173.0602907073398 0.0 0.0
-734.0223271775324 -89.29482418774992 -408.85517329884874 163.7237098929177 0.0 0.0
-720.2065647983031 -72.23716065589943 -391.32792927857906 154.08354673561408 0.0 0.0
-695.2127337254427 -55.17745988194335 -368.3292039484388 148.0782361998967 0.0 0.0
-664.5457417265119 -41.44986858098808 -343.5414970410068 145.9256568481224 0.0 0.0
-631.3920571863027 -31.59224509421078 -317.93079263477614 146.73522600893605 0.0 0.0
-596.8587290235761 -24.90160096888006 -291.18621609775505 149.81921816623048 0.0 0.0
-559.4027168933085 -19.88380292682419 -261.34697460411826 154.3881535484929 0.0 0.0
-515.1258196061655 -16.174009983516786 -226.3720556796976 159.92556476445003 0.0 0.0
-454.976410765437 -10.068773757173354 -181.61878724580367 168.81646584076935 0.0 0.0
-371.2202211157325 -4.447206505391767 -131.88126366828672 182.68420555343477 0.0 0.0
-270.15366795203954 -0.09141311759546422 -87.38452297124286 193.11751287991652 0.0 0.0
-187.30603396722736 5.137451420654293 -56.413846315172655 194.66732158502666 0.0 0.0
-135.3857799471029 11.198466940739292 -37.67833575453965 186.67355880490078 0.0 0.0
-105.20034152275376 16.76338703888628 -26.560402529085025 176.88375361361915 0.0 0.0
-89.58469824445504 17.03878883356831 -21.758039792818913 173.7830247740597 0.0 0.0
-80.50567734913179 2.6536542499366482 -23.356074915677304 177.22709002592876 0.0 0.0
-64.50557582058732 -54.5959466462051 -35.730102024611675 177.08275356928308 0.0 0.0
-24.278485320453186 -193.74982983770934 -65.40849454744875 115.11674157465481 0.0 0.0
-25.638914864522633 -152.81360353666247 -53.53575552035551 -101.83833382585524 0.0 0.0
-74.14914187329845 -50.54844003878056 -37.40889171802351 -168.80950268845058 0.0 0.0
-106.58301828569809 1.656626419593111 -31.474967419213034 -173.1199780542974 0.0 0.0
-132.89082678113976 16.74721746076141 -34.83231121190852 -168.9353233655745 0.0 0.0
-167.52789841659938 18.106893978130568 -44.93244313877851 -168.86291941380915 0.0 0.0
-220.7045620802953 13.131544247384939 -63.094508137026054 -173.0344672267068 0.0 0.0
-303.9240962369985 7.678716624343674 -93.71426633811934 -174.06957326570534 0.0 0.0
-408.4139375102624 0.7648946727017218 -143.45448796243767 -164.87267936435703 0.0 0.0
-500.23897697219945 -8.685730117729314 -203.86042838173972 -153.5391204460235 0.0 0.0
-569.6812599277486 -19.914185575397823 -260.2036513300386 -145.99598653404732 0.0 0.0
-622.5194003206677 -27.69987762608428 -303.0677368531084 -141.75350806083787 0.0 0.0
-665.567123143032 -35.547965051138874 -336.6264226573363 -137.58355710177537 0.0 0.0
-704.9408260607754 -43.71106231944348 -365.19953997430537 -133.6423882177682 0.0 0.0
-743.0060643197161 -53.24686125326585 -391.70247484467967 -130.60825751229316 0.0 0.0
-781.6533226649224 -66.13732258290528 -418.91958554607174 -129.71793698202245 0.0 0.0
-820.1317399002605 -83.66628776174937 -447.7117014144816 -132.21264443406406 0.0 0.0
-856.049256378912 -105.03966045275871 -477.02426822215705 -138.87482050213004 0.0 0.0
-896.9743898918787 -139.34946216040046 -515.270270283152 -146.65107384718425 0.0 0.0
-941.4878578103019 -190.45385746677502 -563.6828064614378 -154.23685411779024 0.0 0.0
-1012.3106280993717 -306.81374246977947 -654.280784091412 -165.36917762390647 0.0 0.0
-1012.310628099687 -306.81374247031295 -654.2807840917444 165.3691776242509 0.0 0.0
-941.48785781085 -190.453857467728 -563.6828064618894 154.2368541183046 0.0 0.0
-896.9743898915485 -139.34946216042678 -515.2702702829307 146.65107384754006 0.0 0.0
-856.0492563777623 -105.0396604516607 -477.02426822132236 138.87482050217662 0.0 0.0
-820.1317399001798 -83.66628776186762 -447.7117014144533 132.21264443413492 0.0 0.0
-781.6533226647766 -66.13732258288881 -418.9195855459701 129.7179369820291 0.0 0.0
-743.0060643205009 -53.24686125432958 -391.70247484516113 130.60825751243868 0.0 0.0
-704.9408260614158 -43.711062320483144 -365.19953997469736 133.64238821796854 0.0 0.0
-665.5671231430563 -35.54796505149417 -336.6264226573105 137.5835571018668 0.0 0.0
-622.5194003203827 -27.699877626037665 -303.06773685284946 141.7535080607815 0.0 0.0
-569.6812599272366 -19.91418557512083 -260.203651329628 145.99598653393377 0.0 0.0
-500.2389769712654 -8.685730117008497 -203.8604283810705 153.53912044595302 0.0 0.0
-408.4139375093149 0.7648946734045898 -143.45448796181896 164.87267936432562 0.0 0.0
-303.92409623642214 7.678716624343796 -93.7142663379117 174.06957326559808 0.0 0.0
-220.70456207988326 13.131544247362726 -63.094508136916296 173.03446722658148 0.0 0.0
-167.52789841640953 18.106893978049932 -44.932443138748965 168.86291941360645 0.0 0.0
-132.89082678096662 16.7472174606958 -34.832311211877276 168.9353233654151 0.0 0.0
-106.58301828565737 1.6566264195209928 -31.47496741922327 173.11997805415086 0.0 0.0
-74.14914187318163 -50.54844003869438 -37.40889171796284 168.8095026883405 0.0 0.0
-25.638914864524903 -152.81360353654674 -53.53575552032149 101.83833382573994 0.0 0.0
-26.278907410254064 -115.69797465625427 -42.5930646199525 -88.3169167958237 0.0 0.0
-82.6181655492144 -44.52197527467867 -38.142042247167915 -156.6391185330136 0.0 0.0
-130.9800341392803 0.9837805670606645 -38.99608413922917 -164.70477551178232 0.0 0.0
-174.51041492250624 15.722755085685538 -47.63220774859877 -159.7274962608777 0.0 0.0
-227.38240981043228 18.098177954484076 -62.937989939761096 -155.58373359448044 0.0 0.0
-301.11068988375837 15.007299570941955 -87.82311697582182 -154.12565441846593 0.0 0.0
-401.7451840520142 9.84308200139692 -131.16479976577065 -147.18774845271795 0.0 0.0
-500.44347731213156 -1.6467257426759403 -195.0248606611394 -135.99757139652823 0.0 0.0
-580.0472160849428 -15.16108988185853 -260.39534952462 -129.9676876508667 0.0 0.0
-642.1827867341929 -28.3301069955019 -313.52876082326264 -127.21408999250369 0.0 0.0
-692.5026204690068 -39.21661704986371 -353.1598709855251 -124.59021457355442 0.0 0.0
-738.4279325581253 -50.758720392957116 -386.63316798686645 -121.2714108570008 0.0 0.0
-781.3551706788662 -62.21470299226738 -416.26340042523753 -117.58892386775925 0.0 0.0
-823.3036188313762 -74.97194720772524 -444.88966929460116 -114.43240364874113 0.0 0.0
-865.8849364265966 -90.41665803852915 -474.5165469726933 -113.28363786992841 0.0 0.0
-910.955502697738 -111.89112877978987 -508.0795634429011 -115.67789420560496 0.0 0.0
-960.0048336164587 -142.75703574537988 -548.2295714070189 -121.56011432183777 0.0 0.0
-1014.8125661819352 -186.6683181153567 -597.9908804764709 -128.34842921295356 0.0 0.0
-1081.0569885465782 -254.29615460780687 -664.9940787646051 -133.2850019910284 0.0 0.0
-1165.089380259758 -373.9052187082164 -765.2516062775976 -142.4418491550257 0.0 0.0
-1165.089380259959 -373.9052187085937 -765.2516062777769 142.4418491553463 0.0 0.0
-1081.0569885461596 -254.29615460759914 -664.9940787643186 133.2850019913281 0.0 0.0
-1014.8125661812412 -186.6683181147984 -597.990880475985 128.34842921314856 0.0 0.0
-960.0048336157688 -142.75703574480283 -548.2295714064894 121.56011432196229 0.0 0.0
-910.9555026969442 -111.89112877905839 -508.07956344232105 115.67789420559708 0.0 0.0
-865.8849364268863 -90.41665803897837 -474.5165469728963 113.28363786995807 0.0 0.0
-823.3036188310678 -74.97194720753396 -444.8896692943986 114.43240364873094 0.0 0.0
-781.3551706785917 -62.21470299218195 -416.26340042510606 117.58892386779627 0.0 0.0
-738.4279325576529 -50.75872039275819 -386.6331679865599 121.27141085710376 0.0 0.0
-692.5026204688053 -39.2166170499772 -353.1598709853649 124.59021457363434 0.0 0.0
-642.1827867337315 -28.330106995316918 -313.528760822896 127.2140899924416 0.0 0.0
-580.0472160844159 -15.161089881661326 -260.395349524185 129.96768765087668 0.0 0.0
-500.4434773115735 -1.6467257425780897 -195.0248606607339 135.9975713966253 0.0 0.0
-401.7451840513707 9.843082001596551 -131.1647997653995 147.18774845265432 0.0 0.0
-301.1106898832381 15.007299571061479 -87.82311697562201 154.12565441834198 0.0 0.0
-227.38240981008212 18.098177954595332 -62.93798993962568 155.583733594359 0.0 0.0
-174.51041492229558 15.72275508565444 -47.63220774854933 159.72749626064714 0.0 0.0
-130.98003413914063 0.9837805670923401 -38.99608413917852 164.7047755116002 0.0 0.0
-82.61816554913753 -44.52197527462742 -38.14204224712948 156.63911853287271 0.0 0.0
-26.27890741022384 -115.6979746561197 -42.59306461990306 88.31691679564864 0.0 0.0
-26.905563052508597 -82.8801942950511 -32.935727204267906 -74.50757470099549 0.0 0.0
-90.4877180239834 -37.14741767111262 -38.29054070852881 -140.9867785592374 0.0 0.0
-153.914895577449 0.6760635719006487 -45.97041734564985 -152.0582369784505 0.0 0.0
-214.5569954879771 13.97136489262993 -60.15412957817007 -146.08015825702262 0.0 0.0
-284.70192413569697 17.476487968649018 -80.27033704876597 -138.42550485056086 0.0 0.0
-374.80333042518237 16.777567069151498 -112.76861523413876 -130.3963942605787 0.0 0.0
-477.02019082037475 9.003638596182025 -168.93169678420267 -118.45215856096604 0.0 0.0
-565.6587333164316 -5.514979717240202 -239.83417933953342 -111.04404677500395 0.0 0.0
-636.3815368028663 -20.95798645835555 -302.81288942987396 -109.6800103098877 0.0 0.0
-695.0999307535428 -35.64851039071192 -351.40109937536306 -109.1957199419209 0.0 0.0
-747.5816483952415 -50.33155571079246 -390.8133390807111 -107.47339267344711 0.0 0.0
-796.7397900859478 -65.52485424682158 -425.7281535215851 -104.59958828906535 0.0 0.0
-843.6522150332501 -80.91800457033598 -458.22777967245054 -101.2690741080676 0.0 0.0
-889.3510213793979 -96.65318005901975 -489.6701925970324 -98.23346993429759 0.0 0.0
-936.0253498445759 -114.77777802510622 -522.4153504877845 -96.76237450175269 0.0 0.0
-987.3752157068952 -140.95485624123478 -561.241475700226 -98.27815943318289 0.0 0.0
-1048.0180116351814 -180.47573996040904 -611.3338013323696 -103.25046682824073 0.0 0.0
-1118.3957791658668 -237.39285417629284 -675.1224746143516 -108.99710999309737 0.0 0.0
-1198.400915773531 -317.5233870190435 -755.2266349458596 -113.40295272483081 0.0 0.0
-1278.5370257475493 -431.3015720710926 -851.4587088891494 -125.36920565484456 0.0 0.0
-1278.5370257468635 -431.3015720704137 -851.4587088886547 125.3692056548899 0.0 0.0
-1198.400915773287 -317.5233870188871 -755.2266349456806 113.40295272503604 0.0 0.0
-1118.395779166055 -237.3928541766364 -675.1224746145638 108.99710999332702 0.0 0.0
-1048.0180116352517 -180.47573996064114 -611.3338013324592 103.2504668284322 0.0 0.0
-987.3752157073917 -140.95485624192605 -561.241475700512 98.27815943330829 0.0 0.0
-936.0253498448601 -114.77777802553226 -522.4153504879096 96.7623745017756 0.0 0.0
-889.3510213789934 -96.65318005879094 -489.6701925967158 98.23346993437195 0.0 0.0
-843.6522150327474 -80.91800457000853 -458.22777967203467 101.26907410809989 0.0 0.0
-796.7397900855901 -65.52485424665936 -425.7281535213399 104.59958828906596 0.0 0.0
-747.5816483951056 -50.33155571088102 -390.81333908062265 107.47339267340945 0.0 0.0
-695.0999307538289 -35.64851039129335 -351.4010993755138 109.19571994191068 0.0 0.0
-636.38153680254 -20.95798645827872 -302.81288942959327 109.68001030977412 0.0 0.0
-565.6587333156231 -5.514979716639018 -239.83417933890357 111.04404677490763 0.0 0.0
-477.0201908195512 9.00363859671678 -168.93169678361804 118.45215856088345 0.0 0.0
-374.80333042462445 16.777567069249653 -112.76861523389968 130.3963942604972 0.0 0.0
-284.70192413548375 17.47648796821838 -80.27033704883993 138.42550485046965 0.0 0.0
-214.5569954877743 13.971364892658283 -60.154129578102854 146.0801582569424 0.0 0.0
-153.91489557719447 0.6760635720922923 -45.97041734551658 152.05823697835248 0.0 0.0
-90.48771802391644 -37.14741767105951 -38.29054070849277 140.98677855914985 0.0 0.0
-26.905563052498927 -82.8801942949894 -32.93572720424649 74.50757470103179 0.0 0.0
-27.615780963616483 -54.79513305040466 -24.723274204206337 -60.28438893172249 0.0 0.0
-97.8722796013708 -28.98675867571633 -38.05771148312614 -122.25347760280084 0.0 0.0
-175.62614613801756 0.6505431891128435 -52.492680884671415 -135.2887007861027 0.0 0.0
-252.6718962141926 11.24562307837562 -72.41739053664136 -128.08876165258258 0.0 0.0
-337.31767613143415 17.27129907692042 -96.76766977289067 -117.4316125929208 0.0 0.0
-438.88578079980715 16.883862785410475 -138.87359049960045 -103.98522736175946 0.0 0.0
-534.8846390494288 6.683775668032101 -204.98801171086126 -91.9411851145758 0.0 0.0
-613.0912129682758 -9.70936733518245 -276.6502239741684 -89.23383375289394 0.0 0.0
-678.7837152147495 -25.358079173051998 -334.18157580462344 -90.48593108901962 0.0 0.0
-738.2749542402485 -42.71042483867756 -380.99017844845724 -90.98843617683345 0.0 0.0
-793.8007159441989 -61.123887598343444 -421.6598136689814 -89.83839506970595 0.0 0.0
-846.5732012545564 -80.12621023128807 -459.1951013912207 -87.42526355705164 0.0 0.0
-897.7652726469101 -99.43628641776561 -495.28295271957705 -84.66203970181493 0.0 0.0
-947.3219980098271 -118.8860821769835 -530.2731228863249 -81.90438061072622 0.0 0.0
-997.6144249797251 -139.86103395162203 -566.1434489605406 -80.00356235747097 0.0 0.0
-1055.0688423992592 -169.86391374766833 -609.848077591951 -80.34208979353988 0.0 0.0
-1125.5280667872753 -217.89928135124265 -668.9452669599129 -83.88054890604731 0.0 0.0
-1209.9611959451693 -287.7563396459125 -746.0725363299803 -89.28604409675572 0.0 0.0
-1298.92897021707 -376.66845513696614 -835.0961112671444 -95.55768551146005 0.0 0.0
-1376.862176436901 -486.97936546236946 -929.0104842198955 -112.32147154757425 0.0 0.0
-1376.862176436764 -486.9793654622626 -929.0104842199182 112.32147154764752 0.0 0.0
-1298.9289702172844 -376.6684551372683 -835.0961112674377 95.55768551165484 0.0 0.0
-1209.961195945068 -287.7563396459196 -746.0725363299364 89.2860440969117 0.0 0.0
-1125.5280667867542 -217.89928135081564 -668.9452669594233 83.88054890612185 0.0 0.0
-1055.0688423992176 -169.86391374773368 -609.8480775918879 80.34208979356525 0.0 0.0
-997.6144249794861 -139.8610339514975 -566.1434489603464 80.00356235745235 0.0 0.0
-947.3219980092927 -118.88608217656774 -530.2731228859507 81.9043806107006 0.0 0.0
-897.7652726468389 -99.43628641786171 -495.28295271952226 84.66203970184657 0.0 0.0
-846.5732012545857 -80.12621023157679 -459.19510139120564 87.4252635571481 0.0 0.0
-793.8007159437477 -61.12388759808736 -421.659813668618 89.83839506964796 0.0 0.0
-738.2749542396405 -42.71042483827895 -380.9901784479816 90.9884361767414 0.0 0.0
-678.7837152140287 -25.358079172574058 -334.18157580405955 90.48593108899985 0.0 0.0
-613.0912129676738 -9.709367334848457 -276.65022397364294 89.23383375281715 0.0 0.0
-534.8846390490523 6.683775668043962 -204.98801171052472 91.94118511457017 0.0 0.0
-438.8857807991185 16.883862785777715 -138.87359049918513 103.98522736165862 0.0 0.0
-337.31767613110617 17.27129907676247 -96.76766977284903 117.43161259275445 0.0 0.0
-252.6718962139733 11.245623078387386 -72.41739053657402 128.08876165237268 0.0 0.0
-175.62614613775446 0.6505431892500186 -52.49268088455131 135.28870078596182 0.0 0.0
-97.87227960127285 -28.98675867566216 -38.0577114830805 122.25347760263858 0.0 0.0
-27.615780963567907 -54.79513305034115 -24.723274204172714 60.284388931666975 0.0 0.0
-28.143805393340394 -31.8514669360181 -17.998581698807545 -45.58050450226067 0.0 0.0
-104.44278644017632 -20.544585425320932 -37.49621155964917 -100.77777850718668 0.0 0.0
-196.2322698664702 0.7602925484804111 -58.64159319539693 -114.3760550606712 0.0 0.0
-289.42353591425706 7.818442038012327 -84.48662192192484 -106.37275655618419 0.0 0.0
-388.82223913836503 17.28039609470118 -113.45801827206306 -93.24696302537816 0.0 0.0
-491.020176365353 15.939015517921373 -165.34563702693174 -76.98703374461024 0.0 0.0
-576.0263523324955 2.47941473374793 -237.77721870534947 -68.43562854457424 0.0 0.0
-648.5200494204682 -12.068485778055773 -304.6069885451512 -69.29604604123236 0.0 0.0
-713.7259376095233 -29.376300314691093 -358.913860830662 -71.30409267219399 0.0 0.0
-774.9959087890757 -49.72212903416839 -405.48194683221226 -72.28548160530778 0.0 0.0
-833.5796889888798 -71.54263956589776 -448.0727987728426 -71.59507327587002 0.0 0.0
-890.4331086209793 -94.46008678406673 -489.01687174741966 -69.73458854766417 0.0 0.0
-945.7731005633509 -117.84654341446611 -528.9344259953086 -67.54942715904464 0.0 0.0
-1000.4752320871197 -141.72277841638225 -568.5801405185781 -65.37776959665587 0.0 0.0
-1055.1073846068816 -166.4570832422122 -608.4615901268428 -63.23123072779348 0.0 0.0
-1115.1979643546774 -198.7939966550912 -654.6340915181139 -61.950748810556256 0.0 0.0
-1193.3392249972048 -252.82258931233886 -720.4410215592384 -63.79953986976897 0.0 0.0
-1290.0186336877887 -333.78190369026504 -809.1213416512328 -69.52734922383743 0.0 0.0
-1389.6871445355278 -433.17423708639365 -908.7657373795823 -79.1818567026786 0.0 0.0
-1469.9845694382038 -544.9268045210656 -1004.9286286067222 -101.42178603748181 0.0 0.0
-1469.984569438664 -544.9268045216043 -1004.9286286070487 101.42178603765001 0.0 0.0
-1389.687144535843 -433.1742370868004 -908.76573737983 79.18185670287446 0.0 0.0
-1290.0186336881982 -333.7819036907413 -809.1213416514695 69.52734922385696 0.0 0.0
-1193.3392249975823 -252.82258931281405 -720.4410215594262 63.799539869854875 0.0 0.0
-1115.1979643535408 -198.79399665403773 -654.6340915172354 61.95074881054401 0.0 0.0
-1055.1073846060976 -166.4570832415477 -608.461590126228 63.231230727850665 0.0 0.0
-1000.47523208648 -141.72277841590028 -568.5801405180936 65.37776959673494 0.0 0.0
-945.7731005624131 -117.8465434136821 -528.9344259946415 67.54942715903539 0.0 0.0
-890.4331086206212 -94.46008678389963 -489.01687174714266 69.73458854764031 0.0 0.0
-833.5796889881526 -71.54263956536533 -448.0727987723031 71.59507327580027 0.0 0.0
-774.9959087887707 -49.722129034058156 -405.48194683196766 72.28548160514076 0.0 0.0
-713.7259376095469 -29.376300315004762 -358.91386083062594 71.30409267221646 0.0 0.0
-648.5200494202039 -12.0684857780825 -304.60698854487134 69.2960460411873 0.0 0.0
-576.0263523325316 2.4794147332634573 -237.77721870524127 68.43562854465259 0.0 0.0
-491.0201763650346 15.939015517794138 -165.34563702670985 76.98703374459583 0.0 0.0
-388.8222391379443 17.280396094725045 -113.45801827192112 93.24696302527694 0.0 0.0
-289.42353591384745 7.818442038391748 -84.48662192169732 106.3727565561444 0.0 0.0
-196.23226986619957 0.7602925486207841 -58.641593195273636 114.37605506057298 0.0 0.0
-104.44278644009626 -20.54458542539032 -37.49621155964597 100.77777850707139 0.0 0.0
-28.143805393292624 -31.8514669360205 -17.998581698793934 45.58050450225 0.0 0.0
-27.84892864807849 -14.441443898496669 -12.687111763972547 -30.529458289021342 0.0 0.0
-109.29456066650803 -12.231645932746751 -36.45786197977643 -76.74120569958328 0.0 0.0
-215.91613825583173 0.5678711296987764 -64.60448013783989 -89.22321299535363 0.0 0.0
-325.533524494683 5.206806245760673 -96.09119562969155 -81.2173783374653 0.0 0.0
-436.075665985285 17.386713403254383 -130.78354098576227 -66.4259367092497 0.0 0.0
-532.4416068969925 12.379621959969072 -192.80900474745414 -51.8995897695368 0.0 0.0
-609.0827067637755 -0.5952018838775288 -265.70380256612384 -47.8072567358289 0.0 0.0
-677.3878215148372 -13.938158723618763 -326.65360866376375 -49.55834384491151 0.0 0.0
-743.0137942603933 -33.44806993168555 -379.04490090967795 -51.838138209098524 0.0 0.0
-806.5495966516892 -56.51755473088521 -426.2901724823355 -53.025340153376625 0.0 0.0
-868.5940003066578 -81.73006499704496 -471.48000079525707 -52.73608613757351 0.0 0.0
-929.2853627010122 -108.44499537725032 -515.9020015032878 -51.43376719210101 0.0 0.0
-989.47342932116 -135.98843846328703 -560.1660911276001 -49.93360524238348 0.0 0.0
-1049.207594300355 -164.9326500220297 -604.7590544054799 -48.34947059008993 0.0 0.0
-1109.4239562935788 -195.18639180082266 -650.1510725328308 -46.40702567529117 0.0 0.0
-1172.6795332100896 -229.90216403262147 -699.1662780443526 -43.93944538414215 0.0 0.0
-1248.8346674602285 -281.162792780939 -762.5702274123892 -43.41240725019838 0.0 0.0
-1356.8965067995512 -372.2971628351643 -861.80031247015 -49.159475016050436 0.0 0.0
-1473.474585309511 -487.3954231112964 -977.7852183718448 -63.08942623409547 0.0 0.0
-1566.334105263668 -609.7086319797198 -1085.7803996976086 -91.42743994683954 0.0 0.0
-1566.3341052626974 -609.7086319787675 -1085.7803996969146 91.42743994689417 0.0 0.0
-1473.474585308689 -487.395423110513 -977.7852183711724 63.089426234199586 0.0 0.0
-1356.8965067986908 -372.29716283435886 -861.8003124695214 49.159475016084535 0.0 0.0
-1248.8346674587951 -281.16279277957767 -762.5702274113759 43.41240725025618 0.0 0.0
-1172.679533209856 -229.90216403249423 -699.1662780441283 43.93944538415106 0.0 0.0
-1109.4239562933908 -195.1863918007703 -650.1510725326278 46.40702567535692 0.0 0.0
-1049.207594300171 -164.93265002200167 -604.7590544053334 48.34947059018765 0.0 0.0
-989.4734293206217 -135.98843846293622 -560.1660911271655 49.93360524246283 0.0 0.0
-929.2853627006251 -108.44499537706308 -515.9020015029258 51.433767192073155 0.0 0.0
-868.5940003064799 -81.73006499708208 -471.48000079510706 52.736086137541264 0.0 0.0
-806.5495966513205 -56.51755473073827 -426.2901724820931 53.02534015334052 0.0 0.0
-743.0137942601086 -33.44806993168203 -379.04490090947115 51.83813820911263 0.0 0.0
-677.3878215144504 -13.938158723481834 -326.6536086634494 49.55834384479729 0.0 0.0
-609.082706762989 -0.5952018833419608 -265.70380256549794 47.807256735737134 0.0 0.0
-532.4416068966617 12.37962195994171 -192.80900474715838 51.89958976949498 0.0 0.0
-436.0756659851242 17.386713402871145 -130.78354098576884 66.42593670925174 0.0 0.0
-325.53352449443565 5.206806245633634 -96.09119562966444 81.21737833737363 0.0 0.0
-215.91613825570414 0.5678711295338403 -64.60448013785108 89.22321299520632 0.0 0.0
-109.29456066630576 -12.231645932623447 -36.457861979678746 76.74120569945302 0.0 0.0
-27.848928648005035 -14.441443898405328 -12.687111763923106 30.52945828890178 0.0 0.0
-25.479784085328973 -2.8813980462716726 -8.508354639480192 -15.64447104844226 0.0 0.0
-110.78191863848468 -4.5992329400917775 -34.614345473572925 -50.11699873289728 0.0 0.0
-234.86916197763722 -0.026938483700110538 -70.46883013840119 -59.32250440067562 0.0 0.0
-362.8975607427435 3.781557728024679 -107.70148004688008 -52.81857177750602 0.0 0.0
-476.28748257864856 17.853732483194705 -148.81518535433784 -39.39333132373966 0.0 0.0
-561.9969564398552 6.698668549184838 -219.63441652080851 -29.163789729996573 0.0 0.0
-634.5360980789624 -1.6892930840143663 -287.35632685660335 -28.402385148021033 0.0 0.0
-701.3844919584427 -16.425400428721915 -344.7670875346961 -30.022390108447237 0.0 0.0
-767.5484432311043 -37.37023326051133 -395.57530683854543 -31.975115382947433 0.0 0.0
-833.6360890826656 -63.05849682549529 -444.1645393357752 -33.14691169798092 0.0 0.0
-899.3364341288155 -91.73757712854731 -492.4059602361342 -33.216508815861566 0.0 0.0
-964.4440114669696 -122.01747286619559 -540.6066794374066 -32.55048507683037 0.0 0.0
-1029.0365148816961 -154.16620502608703 -589.2668684911919 -31.651376573023565 0.0 0.0
-1094.4285009770235 -188.09962367823533 -639.1089237579081 -30.716083151007712 0.0 0.0
-1161.3835595389746 -224.7707933305469 -691.0341899685725 -29.3800318390083 0.0 0.0
-1229.6167234876975 -264.71091783461196 -745.1862179398272 -26.890137211883268 0.0 0.0
-1300.949165210507 -311.14665752385935 -803.9415914212418 -24.05107828098049 0.0 0.0
-1392.7213275730765 -384.6197241412887 -885.9856432635911 -27.32308458389247 0.0 0.0
-1553.7653448568167 -541.2463368080423 -1044.6885728532598 -45.07960578304289 0.0 0.0
-1676.2119935996811 -689.7851422094313 -1181.0101347775349 -81.3230754949306 0.0 0.0
-1676.2119936002723 -689.7851422100723 -1181.0101347779862 81.32307549501675 0.0 0.0
-1553.7653448574729 -541.2463368087422 -1044.6885728537732 45.07960578307327 0.0 0.0
-1392.7213275732615 -384.61972414153655 -885.9856432636975 27.323084583923787 0.0 0.0
-1300.9491652108065 -311.1466575242464 -803.9415914213328 24.05107828103477 0.0 0.0
-1229.6167234876987 -264.7109178347143 -745.1862179397394 26.890137211816786 0.0 0.0
-1161.383559538585 -224.77079333026867 -691.0341899681912 29.380031838998924 0.0 0.0
-1094.4285009767186 -188.099623678076 -639.1089237575951 30.716083151021518 0.0 0.0
-1029.036514881649 -154.16620502620722 -589.2668684910902 31.651376572968445 0.0 0.0
-964.4440114670795 -122.0174728664932 -540.6066794374492 32.55048507676377 0.0 0.0
-899.3364341281887 -91.73757712813752 -492.40596023566616 33.21650881587434 0.0 0.0
-833.6360890820096 -63.05849682507309 -444.16453933524645 33.146911697936915 0.0 0.0
-767.5484432310077 -37.37023326068877 -395.57530683840065 31.97511538298359 0.0 0.0
-701.3844919581088 -16.425400428668212 -344.76708753439135 30.02239010846089 0.0 0.0
-634.5360980784499 -1.6892930837883213 -287.3563268561518 28.402385147961546 0.0 0.0
-561.9969564392842 6.698668549470025 -219.63441652033555 29.1637897299565 0.0 0.0
-476.28748257817847 17.85373248333374 -148.8151853540803 39.393331323782526 0.0 0.0
-362.8975607423286 3.7815577281684645 -107.70148004672313 52.81857177745581 0.0 0.0
-234.8691619773337 -0.026938483435831273 -70.46883013823084 59.32250440064358 0.0 0.0
-110.78191863828799 -4.599232939970886 -34.61434547347766 50.11699873289729 0.0 0.0
-25.479784085274595 -2.881398046237311 -8.50835463945357 15.644471048474287 0.0 0.0
-18.631548904986353 2.6253334707282856 -4.8018646302774215 -2.146468700114923 0.0 0.0
-106.08964844840652 1.6591328063695538 -31.329154692611084 -20.42058574598126 0.0 0.0
-253.84453148996724 -1.4482955928483037 -76.58784812484467 -23.566921871255055 0.0 0.0
-402.4764218691122 5.202531463860432 -119.55324737850228 -21.463332308293282 0.0 0.0
-511.57227924661095 15.545000436077377 -169.3850044875498 -13.61753625023872 0.0 0.0
-588.823018561546 3.5008118610933394 -243.35732628298118 -9.381134552359086 0.0 0.0
-655.0868338542101 -3.257208191354195 -305.1507203023925 -9.483177029838458 0.0 0.0
-721.1472158192232 -18.95032232064633 -359.39966804942117 -10.463445294996152 0.0 0.0
-788.3117374092873 -41.3917776563883 -409.54952574664674 -11.726628978159049 0.0 0.0
-857.0046641755852 -69.43605033337678 -459.786027825222 -12.638149536966601 0.0 0.0
-926.3993917755848 -101.14631263887223 -511.0412679017752 -13.0349962737679 0.0 0.0
-995.7315667226221 -135.85705813744352 -563.4248636617328 -12.96727278245509 0.0 0.0
-1065.3156758730427 -172.10366764819696 -616.5588618994353 -12.764578810223869 0.0 0.0
-1136.2966498498367 -210.91096491965834 -671.5826835357901 -12.451745611169638 0.0 0.0
-1209.8147670029575 -253.91538253752395 -729.917623406741 -11.805267558902965 0.0 0.0
-1285.0974225079508 -301.16499449087723 -791.221796927676 -10.410701110650383 0.0 0.0
-1358.1061517482344 -349.9754838475363 -852.1206839437597 -7.719542111206202 0.0 0.0
-1427.6727500801062 -401.08415566853205 -912.1991700119004 -6.1722490613018 0.0 0.0
-1527.1472078605689 -491.9525012715259 -1006.5857533456626 -20.419072191737733 0.0 0.0
-1871.4214541280614 -853.9334679473388 -1360.6759478546942 -65.73058498885666 0.0 0.0
-1871.4214541271947 -853.9334679464747 -1360.6759478540475 65.73058498882699 0.0 0.0
-1527.1472078601266 -491.9525012711149 -1006.5857533452925 20.41907219170831 0.0 0.0
-1427.6727500802356 -401.08415566872134 -912.1991700119946 6.172249061282518 0.0 0.0
-1358.1061517482444 -349.97548384763496 -852.1206839437826 7.719542111264213 0.0 0.0
-1285.0974225069708 -301.164994489996 -791.221796926919 10.410701110687446 0.0 0.0
-1209.8147670022072 -253.9153825368984 -729.9176234061372 11.8052675589668 0.0 0.0
-1136.2966498499827 -210.91096491994622 -671.5826835358343 12.451745611074964 0.0 0.0
-1065.3156758729554 -172.10366764828458 -616.5588618992991 12.764578810211184 0.0 0.0
-995.7315667221435 -135.85705813716473 -563.424863661357 12.967272782477092 0.0 0.0
-926.3993917750614 -101.14631263857287 -511.0412679013806 13.034996273789885 0.0 0.0
-857.0046641752498 -69.43605033328097 -459.78602782496796 12.63814953693534 0.0 0.0
-788.3117374092288 -41.39177765659305 -409.54952574658716 11.726628978242308 0.0 0.0
-721.1472158189645 -18.950322320678424 -359.39966804920243 10.463445294987306 0.0 0.0
-655.0868338540362 -3.2572081914706565 -305.1507203021973 9.483177029773804 0.0 0.0
-588.8230185611642 3.5008118611638537 -243.3573262826189 9.381134552343095 0.0 0.0
-511.5722792463109 15.545000436063626 -169.38500448734536 13.617536250312114 0.0 0.0
-402.47642186858883 5.202531464091649 -119.55324737829665 21.463332308303563 0.0 0.0
-253.8445314898122 -1.44829559292827 -76.58784812482214 23.566921871186732 0.0 0.0
-106.08964844823234 1.659132806383198 -31.329154692554738 20.420585745902265 0.0 0.0
-18.63154890496771 2.62533347075801 -4.801864630262908 2.146468700048737 0.0 0.0
SCALARS Strain float 6
LOOKUP_TABLE default
0.009776349474529461 -0.0108512822169671 0.0 -0.00591218354197981 0.0 0.0
0.002071144057462374 -0.0011123685326814292 0.0 0.0010080125444211496 0.0 0.0
0.0017346453582660834 -0.0007146579896517569 0.0 -6.27016097306532e-05 0.0 0.0
0.0020998663702086907 -0.000954890047711765 0.0 -0.00018041294652049178 0.0 0.0
0.002974777707129549 -0.0016099856686592195 0.0 -0.00021494920361903036 0.0 0.0
0.004751446017367005 -0.003100131656669225 0.0 -0.0003019820507130788 0.0 0.0
0.007505279237194516 -0.005581471935430793 0.0 -0.00045488903458204555 0.0 0.0
0.01136289725230523 -0.00916469201381287 0.0 -0.0006775563026997222 0.0 0.0
0.016385753536759654 -0.013907312883026268 0.0 -0.000976059816756053 0.0 0.0
0.022589700131520254 -0.019817852466242902 0.0 -0.0013265470332647356 0.0 0.0
0.0300142199451836 -0.02693763656648085 0.0 -0.0016865953086162844 0.0 0.0
0.03874881600473301 -0.03535786076878167 0.0 -0.0020596789018528516 0.0 0.0
0.04889498047427968 -0.04518422706088221 0.0 -0.0024548302929820742 0.0 0.0
0.06051893426105756 -0.0564793682487017 0.0 -0.0028734427856998146 0.0 0.0
0.07352601007635251 -0.06914299753803022 0.0 -0.0033181225178962603 0.0 0.0
0.08750040012885874 -0.08276040201112034 0.0 -0.0037129985995031922 0.0 0.0
0.10162929396655819 -0.09652941796589998 0.0 -0.0038811094712764282 0.0 0.0
0.11474113503595568 -0.10929646866329579 0.0 -0.003586229095965343 0.0 0.0
0.12542969270174797 -0.11967487258673293 0.0 -0.00284966935474823 0.0 0.0
0.13196404821130517 -0.12584947294606463 0.0 -0.002552888269470477 0.0 0.0
0.13196404821129804 -0.12584947294605842 0.0 0.0025528882694743626 0.0 0.0
0.12542969270172655 -0.11967487258671294 0.0 0.0028496693547641616 0.0 0.0
0.11474113503591662 -0.10929646866326381 0.0 0.003586229095971172 0.0 0.0
0.10162929396650908 -0.09652941796585601 0.0 0.003881109471283284 0.0 0.0
0.08750040012880664 -0.0827604020110706 0.0 0.0037129985994958092 0.0 0.0
0.07352601007630027 -0.06914299753797826 0.0 0.0033181225178985363 0.0 0.0
0.06051893426100452 -0.05647936824864641 0.0 0.00287344278570012 0.0 0.0
0.04889498047422572 -0.045184227060826476 0.0 0.0024548302929833787 0.0 0.0
0.03874881600468069 -0.035357860768732374 0.0 0.002059678901847939 0.0 0.0
0.03001421994513731 -0.02693763656643755 0.0 0.0016865953086147023 0.0 0.0
0.022589700131480817 -0.019817852466205377 0.0 0.0013265470332600726 0.0 0.0
0.016385753536728803 -0.013907312882995404 0.0 0.0009760598167546375 0.0 0.0
0.01136289725228129 -0.009164692013791553 0.0 0.0006775563026981124 0.0 0.0
0.007505279237178447 -0.005581471935416582 0.0 0.00045488903458190677 0.0 0.0
0.004751446017356609 -0.0031001316566611203 0.0 0.00030198205071249595 0.0 0.0
0.002974777707124926 -0.0016099856686551117 0.0 0.00021494920361878056 0.0 0.0
0.002099866370207454 -0.0009548900477101552 0.0 0.0001804129465201587 0.0 0.0
0.0017346453582654242 -0.0007146579896516458 0.0 6.270160973037564e-05 0.0 0.0
0.002071144057461116 -0.0011123685326804578 0.0 -0.001008012544419512 0.0 0.0
0.009776349474519719 -0.010851282216954167 0.0 0.005912183541950722 0.0 0.0
0.0068042488834147985 -0.008244237159686196 0.0 -0.0070175447100735144 0.0 0.0
0.001152175600221142 -0.000564894735638366 0.0 0.00016259464969092807 0.0 0.0
0.001491663510487521 -0.0005514975710770309 0.0 -0.00013464108635743988 0.0 0.0
0.00186701914865035 -0.0008224906631070228 0.0 -0.0004299131265690648 0.0 0.0
0.002563746332219858 -0.0013017752041944997 0.0 -0.000503669621178704 0.0 0.0
0.004082881896648832 -0.0025286129520414313 0.0 -0.0007200255110326459 0.0 0.0
0.006549042811371929 -0.004705688423028542 0.0 -0.0011173458492457211 0.0 0.0
0.010040321518756744 -0.007915787556170839 0.0 -0.0016619656945167927 0.0 0.0
0.014588453650756988 -0.012187620802247112 0.0 -0.002350634366660359 0.0 0.0
0.02017932617695411 -0.017498133958410378 0.0 -0.0031323930182412807 0.0 0.0
0.026824736551845817 -0.023858475503102383 0.0 -0.0039325524786330834 0.0 0.0
0.03460541350858817 -0.0313512452600766 0.0 -0.004719987536015352 0.0 0.0
0.04365634224897534 -0.040109117288800844 0.0 -0.005570963695616132 0.0 0.0
0.0540675633969474 -0.05021862966330115 0.0 -0.006521666135590548 0.0 0.0
0.06576478331997421 -0.06160213644443857 0.0 -0.007522334426468658 0.0 0.0
0.07839232035908583 -0.07390479449242848 0.0 -0.008414988324734057 0.0 0.0
0.09123767220856409 -0.08642159756782508 0.0 -0.008825524834424947 0.0 0.0
0.10324568074742323 -0.0981081784625899 0.0 -0.00832480052396678 0.0 0.0
0.11303051704868514 -0.1075691581379048 0.0 -0.006869425805172302 0.0 0.0
0.11887640447933324 -0.11317606882358033 0.0 -0.004364675738000756 0.0 0.0
0.11887640447932596 -0.11317606882357323 0.0 0.004364675738015411 0.0 0.0
0.11303051704866479 -0.10756915813788526 0.0 0.006869425805200113 0.0 0.0
0.1032456807473895 -0.09810817846255793 0.0 0.008324800523983655 0.0 0.0
0.09123767220852175 -0.08642159756778511 0.0 0.008825524834436882 0.0 0.0
0.0783923203590397 -0.0739047944923854 0.0 0.00841498832472698 0.0 0.0
0.06576478331992736 -0.06160213644439416 0.0 0.0075223344264682135 0.0 0.0
0.054067563396899276 -0.05021862966325519 0.0 0.0065216661355886885 0.0 0.0
0.04365634224892731 -0.04010911728875488 0.0 0.005570963695614162 0.0 0.0
0.034605413508542016 -0.03135124526003241 0.0 0.0047199875360090515 0.0 0.0
0.026824736551803924 -0.02385847550306064 0.0 0.0039325524786273935 0.0 0.0
0.02017932617691892 -0.017498133958377293 0.0 0.003132393018232593 0.0 0.0
0.014588453650728889 -0.012187620802221577 0.0 0.0023506343666566676 0.0 0.0
0.01004032151873499 -0.007915787556151077 0.0 0.0016619656945132677 0.0 0.0
0.006549042811357625 -0.0047056884230144425 0.0 0.0011173458492430288 0.0 0.0
0.004082881896639884 -0.002528612952034548 0.0 0.0007200255110310083 0.0 0.0
0.00256374633221626 -0.001301775204190947 0.0 0.0005036696211775382 0.0 0.0
0.0018670191486493959 -0.0008224906631066342 0.0 0.0004299131265683709 0.0 0.0
0.001491663510487129 -0.0005514975710774195 0.0 0.00013464108635768968 0.0 0.0
0.0011521756002214334 -0.0005648947356375056 0.0 -0.00016259464969226034 0.0 0.0
0.00680424888340328 -0.00824423715967277 0.0 0.007017544710050061 0.0 0.0
0.00496785558502982 -0.006532538569043622 0.0 -0.0064754150346698625 0.0 0.0
0.0006833739326209017 -0.00035962700003411285 0.0 -0.0005169091530221881 0.0 0.0
0.0011967432213635353 -0.0004074050834352305 0.0 -0.00041296920791508707 0.0 0.0
0.001637489958426868 -0.0006965370919325142 0.0 -0.000668922150666551 0.0 0.0
0.0022007251487987864 -0.0010519856231853142 0.0 -0.0007788262964915915 0.0 0.0
0.0034343970638938404 -0.001995630757993916 0.0 -0.001042408791792404 0.0 0.0
0.0055939527743704 -0.003844570960191529 0.0 -0.0016107467036151346 0.0 0.0
0.008702272855155083 -0.0066675186810296605 0.0 -0.0024258701622140166 0.0 0.0
0.012762374768157121 -0.010451744180967504 0.0 -0.003427268056267724 0.0 0.0
0.017734447660919958 -0.015156047930259708 0.0 -0.004546342027525185 0.0 0.0
0.023607355677923297 -0.020764412960744938 0.0 -0.005693786592416483 0.0 0.0
0.0304494367899334 -0.027342962615043653 0.0 -0.0068248391643137285 0.0 0.0
0.03839839859129682 -0.03502552675252968 0.0 -0.008011517287817543 0.0 0.0
0.04757417827941844 -0.04392734258884223 0.0 -0.009359227232394324 0.0 0.0
0.057939791087781856 -0.05401002383318376 0.0 -0.01081754275353869 0.0 0.0
0.06920653086382428 -0.06498498161463973 0.0 -0.01210889133198459 0.0 0.0
0.08077615989534784 -0.07625753939638358 0.0 -0.012756207019170629 0.0 0.0
0.09170376400399524 -0.08688030923800483 0.0 -0.01220988560206665 0.0 0.0
0.10066708870685809 -0.0955546386177315 0.0 -0.010035967099063625 0.0 0.0
0.10616833344559445 -0.10085504295996683 0.0 -0.005736658667115202 0.0 0.0
0.10616833344558751 -0.10085504295996017 0.0 0.005736658667140626 0.0 0.0
0.10066708870683927 -0.09555463861771551 0.0 0.010035967099099763 0.0 0.0
0.09170376400396577 -0.0868803092379804 0.0 0.012209885602092907 0.0 0.0
0.08077615989531078 -0.07625753939635116 0.0 0.012756207019183563 0.0 0.0
0.06920653086378387 -0.06498498161460331 0.0 0.012108891331975347 0.0 0.0
0.057939791087740194 -0.05401002383314202 0.0 0.010817542753536635 0.0 0.0
0.0475741782793756 -0.0439273425888016 0.0 0.009359227232391798 0.0 0.0
0.03839839859125482 -0.0350255267524906 0.0 0.008011517287815073 0.0 0.0
0.030449436789893036 -0.027342962615005684 0.0 0.006824839164304652 0.0 0.0
0.023607355677886188 -0.02076441296070919 0.0 0.005693786592407601 0.0 0.0
0.01773444766088883 -0.015156047930232397 0.0 0.004546342027514638 0.0 0.0
0.012762374768131857 -0.010451744180944411 0.0 0.0034272680562610347 0.0 0.0
0.008702272855136056 -0.006667518681011453 0.0 0.002425870162209076 0.0 0.0
0.005593952774357841 -0.0038445709601785394 0.0 0.0016107467036106105 0.0 0.0
0.003434397063886624 -0.0019956307579879207 0.0 0.0010424087917896285 0.0 0.0
0.0022007251487960455 -0.001051985623184759 0.0 0.0007788262964895931 0.0 0.0
0.0016374899584262748 -0.0006965370919329583 0.0 0.0006689221506645804 0.0 0.0
0.0011967432213635665 -0.00040740508343528603 0.0 0.0004129692079138936 0.0 0.0
0.0006833739326211341 -0.0003596270000330859 0.0 0.0005169091530193848 0.0 0.0
0.0049678555850191375 -0.006532538569031313 0.0 0.0064754150346504336 0.0 0.0
0.003703569510863876 -0.005249056194628621 0.0 -0.0054902934194512865 0.0 0.0
0.000429534450918187 -0.0002713614281119048 0.0 -0.0010928205838110217 0.0 0.0
0.0009259378535994428 -0.000294224344481786 0.0 -0.0007797742880375491 0.0 0.0
0.0013979471362323553 -0.000573453447531902 0.0 -0.0009284808468521255 0.0 0.0
0.0018784221828740122 -0.0008577448047976111 0.0 -0.001056076010398671 0.0 0.0
0.002839480692204667 -0.0015388356353067678 0.0 -0.0012988146467450834 0.0 0.0
0.0046454104651607805 -0.0030203352897923974 0.0 -0.0019424499392597938 0.0 0.0
0.007361412271335341 -0.00543228295652054 0.0 -0.0029632185224226504 0.0 0.0
0.010920813389574971 -0.008717456341060803 0.0 -0.004198351738416317 0.0 0.0
0.015269790713248667 -0.012809530828364668 0.0 -0.005569301599317122 0.0 0.0
0.02037507807016538 -0.017669110576462144 0.0 -0.0069663782756833326 0.0 0.0
0.026288022523110542 -0.023341294067418028 0.0 -0.008348284207687628 0.0 0.0
0.0331417694202833 -0.029955491054929118 0.0 -0.009806405050362205 0.0 0.0
0.041070373995297914 -0.03763755179837425 0.0 -0.01141737564782297 0.0 0.0
0.05007923863971707 -0.04639462897458335 0.0 -0.013155797444641987 0.0 0.0
0.05996285736413432 -0.056021037167665266 0.0 -0.01476165108751365 0.0 0.0
0.07023952735536738 -0.06603086619856002 0.0 -0.015662973125021684 0.0 0.0
0.08009146238308038 -0.07560740596899818 0.0 -0.015144728798187679 0.0 0.0
0.08834988425740303 -0.0836063102241007 0.0 -0.01246050903858742 0.0 0.0
0.093674995451647 -0.08874870648382327 0.0 -0.006872813459028071 0.0 0.0
0.09367499545164025 -0.08874870648381705 0.0 0.006872813459059268 0.0 0.0
0.08834988425738641 -0.08360631022408604 0.0 0.012460509038630274 0.0 0.0
0.08009146238305415 -0.07560740596897686 0.0 0.015144728798217821 0.0 0.0
0.07023952735533523 -0.06603086619853249 0.0 0.01566297312503595 0.0 0.0
0.05996285736409954 -0.056021037167633736 0.0 0.014761651087507155 0.0 0.0
0.05007923863968053 -0.0463946289745496 0.0 0.013155797444637796 0.0 0.0
0.0410703739952607 -0.03763755179834116 0.0 0.011417375647818973 0.0 0.0
0.033141769420247214 -0.029955491054892036 0.0 0.00980640505035757 0.0 0.0
0.026288022523075383 -0.023341294067383167 0.0 0.00834828420767797 0.0 0.0
0.020375078070133557 -0.01766911057643239 0.0 0.00696637827567359 0.0 0.0
0.015269790713221404 -0.01280953082833669 0.0 0.005569301599304355 0.0 0.0
0.010920813389552725 -0.00871745634103882 0.0 0.004198351738408823 0.0 0.0
0.007361412271319007 -0.005432282956505663 0.0 0.0029632185224161 0.0 0.0
0.004645410465150046 -0.0030203352897840707 0.0 0.0019424499392557693 0.0 0.0
0.0028394806921993587 -0.001538835635303104 0.0 0.0012988146467424744 0.0 0.0
0.001878422182872097 -0.0008577448047955016 0.0 0.001056076010398671 0.0 0.0
0.0013979471362317863 -0.0005734534475305697 0.0 0.0009284808468524308 0.0 0.0
0.0009259378535995122 -0.0002942243444821746 0.0 0.0007797742880357728 0.0 0.0
0.00042953445091814535 -0.00027136142811104436 0.0 0.0010928205838078853 0.0 0.0
0.003703569510854654 -0.005249056194617886 0.0 0.005490293419435827 0.0 0.0
0.00275972166708547 -0.0042112500242741935 0.0 -0.004496389845352444 0.0 0.0
0.00028569227821662047 -0.00023243530256628064 0.0 -0.0015397235734239123 0.0 0.0
0.0006961747561883697 -0.00021006814853685718 0.0 -0.0011526066900919563 0.0 0.0
0.0011514505787274046 -0.0004560733864743538 0.0 -0.001206838786086989 0.0 0.0
0.0015805835074263752 -0.0006980198469774823 0.0 -0.0013301629812698113 0.0 0.0
0.002312419587299941 -0.0011694774503021588 0.0 -0.0015438316507158933 0.0 0.0
0.003739207456601508 -0.002266072196335678 0.0 -0.0021348393541198996 0.0 0.0
0.006022497449993697 -0.004224298918710678 0.0 -0.0032335083787515817 0.0 0.0
0.009077586079195565 -0.007001806051518011 0.0 -0.004654853537823189 0.0 0.0
0.012798945334362467 -0.010475041174914379 0.0 -0.006191680484756129 0.0 0.0
0.017141236972731393 -0.014588110834995005 0.0 -0.007753523794451267 0.0 0.0
0.022134049575333617 -0.019362837269494948 0.0 -0.009291936208614071 0.0 0.0
0.027899928042533398 -0.024913586178548774 0.0 -0.010899842710848762 0.0 0.0
0.03458048637273705 -0.03137724277457066 0.0 -0.012689561732579513 0.0 0.0
0.04222039642548617 -0.03879622941219951 0.0 -0.014600099854494564 0.0 0.0
0.05068882597722579 -0.04703888026353509 0.0 -0.016354959560274773 0.0 0.0
0.05962715282593348 -0.05574663619236997 0.0 -0.017460140928706125 0.0 0.0
0.0683954694055548 -0.06427457437458628 0.0 -0.017094040669389854 0.0 0.0
0.07601822348915592 -0.07166464950583018 0.0 -0.014209831458580013 0.0 0.0
0.08127857667166799 -0.07675031102825258 0.0 -0.007835714196079424 0.0 0.0
0.0812785766716617 -0.07675031102824326 0.0 0.007835714196111176 0.0 0.0
0.07601822348914149 -0.07166464950581153 0.0 0.014209831458621647 0.0 0.0
0.06839546940553161 -0.06427457437456585 0.0 0.017094040669424104 0.0 0.0
0.05962715282590615 -0.05574663619234821 0.0 0.01746014092872117 0.0 0.0
0.05068882597719587 -0.047038880263508887 0.0 0.016354959560268667 0.0 0.0
0.042220396425454804 -0.03879622941216887 0.0 0.014600099854488402 0.0 0.0
0.03458048637270569 -0.03137724277453846 0.0 0.01268956173257596 0.0 0.0
0.02789992804250327 -0.024913586178518576 0.0 0.010899842710843322 0.0 0.0
0.022134049575303766 -0.01936283726946697 0.0 0.009291936208603635 0.0 0.0
0.01714123697270456 -0.014588110834971912 0.0 0.007753523794438388 0.0 0.0
0.012798945334339284 -0.010475041174892175 0.0 0.00619168048474017 0.0 0.0
0.009077586079176858 -0.007001806051500248 0.0 0.004654853537813641 0.0 0.0
0.006022497449980124 -0.00422429891869891 0.0 0.0032335083787429775 0.0 0.0
0.003739207456593091 -0.002266072196327462 0.0 0.0021348393541158472 0.0 0.0
0.0023124195872961384 -0.0011694774502993832 0.0 0.0015438316507128957 0.0 0.0
0.0015805835074252095 -0.0006980198469772603 0.0 0.0013301629812675353 0.0 0.0
0.0011514505787267593 -0.00045607338647468687 0.0 0.0012068387860855179 0.0 0.0
0.0006961747561883003 -0.00021006814853630207 0.0 0.0011526066900900411 0.0 0.0
0.000285692278216676 -0.00023243530256542022 0.0 0.001539723573421553 0.0 0.0
0.0027597216670781077 -0.004211250024265457 0.0 0.004496389845340981 0.0 0.0
0.0020326009241010204 -0.00335077790961677 0.0 -0.003637737108164091 0.0 0.0
0.0001955733194699688 -0.00021278770860705398 0.0 -0.0018697554537343286 0.0 0.0
0.0005013502594138006 -0.00014588868250287046 0.0 -0.0014869054576764906 0.0 0.0
0.0009039979534313861 -0.00034243248300735996 0.0 -0.001478976776333546 0.0 0.0
0.0012928239232006117 -0.0005565627904984272 0.0 -0.0015944177565155593 0.0 0.0
0.0018410621647690709 -0.000881508762726968 0.0 -0.0017913467440265896 0.0 0.0
0.0029127285195394356 -0.001630616290995368 0.0 -0.002294660741867627 0.0 0.0
0.004716907066141959 -0.003094395089360269 0.0 -0.0033039413770279413 0.0 0.0
0.007240639376866358 -0.005321101241596571 0.0 -0.004758626796050963 0.0 0.0
0.010336551366886909 -0.008172306264105256 0.0 -0.006398390182473873 0.0 0.0
0.01391752854880638 -0.011539643935223998 0.0 -0.008034215661490818 0.0 0.0
0.018001092445220454 -0.015424483136077471 0.0 -0.009641797191830448 0.0 0.0
0.0226909462090039 -0.01992314189419364 0.0 -0.01131111652467659 0.0 0.0
0.028125723264222732 -0.025169212487691883 0.0 -0.013133723692672294 0.0 0.0
0.03438893478868481 -0.031241986469334737 0.0 -0.015091647296016086 0.0 0.0
0.04141695072290444 -0.03807731901306832 0.0 -0.01692963642798606 0.0 0.0
0.04896220675807393 -0.04542895693039739 0.0 -0.018139821851283322 0.0 0.0
0.056593917090929854 -0.052861696938474534 0.0 -0.017968943598379472 0.0 0.0
0.06359262730623344 -0.059656753841485166 0.0 -0.015245099093460002 0.0 0.0
0.06886745409946489 -0.06475830745508304 0.0 -0.008639854468311392 0.0 0.0
0.06886745409945937 -0.06475830745507993 0.0 0.008639854468343977 0.0 0.0
0.06359262730622096 -0.0596567538414714 0.0 0.015245099093502357 0.0 0.0
0.056593917090909995 -0.05286169693845544 0.0 0.01796894359841189 0.0 0.0
0.04896220675805098 -0.045428956930382736 0.0 0.01813982185129459 0.0 0.0
0.04141695072287953 -0.038077319013047894 0.0 0.016929636427980843 0.0 0.0
0.034388934788658676 -0.031241986469307648 0.0 0.015091647296009758 0.0 0.0
0.02812572326419721 -0.02516921248766768 0.0 0.01313372369266802 0.0 0.0
0.0226909462089796 -0.019923141894172325 0.0 0.011311116524671538 0.0 0.0
0.018001092445195876 -0.015424483136056377 0.0 0.009641797191819124 0.0 0.0
0.013917528548784502 -0.01153964393520801 0.0 0.008034215661477773 0.0 0.0
0.010336551366867813 -0.008172306264088158 0.0 0.006398390182458746 0.0 0.0
0.0072406393768511546 -0.005321101241581028 0.0 0.004758626796041443 0.0 0.0
0.004716907066131315 -0.003094395089350943 0.0 0.0033039413770211135 0.0 0.0
0.0029127285195330033 -0.0016306162909915933 0.0 0.0022946607418633247 0.0 0.0
0.0018410621647665937 -0.000881508762726968 0.0 0.001791346744023592 0.0 0.0
0.0012928239231998762 -0.0005565627904984272 0.0 0.0015944177565145046 0.0 0.0
0.0009039979534308795 -0.00034243248300674933 0.0 0.0014789767763325745 0.0 0.0
0.0005013502594136132 -0.0001458886825025929 0.0 0.0014869054576747698 0.0 0.0
0.00019557331946981615 -0.00021278770860663765 0.0 0.0018697554537321914 0.0 0.0
0.0020326009240954623 -0.003350777909609654 0.0 0.0036377371081561805 0.0 0.0
0.001468388341790805 -0.002631765887217724 0.0 -0.0029390950737254173 0.0 0.0
0.00012929212977737248 -0.00020241118457559049 0.0 -0.002099452027290394 0.0 0.0
0.0003299900153388574 -9.172854147915244e-05 0.0 -0.0017634456067952553 0.0 0.0
0.0006609750320734215 -0.00023191951051870774 0.0 -0.0017273162407180909 0.0 0.0
0.001001388223159816 -0.00042284271423853603 0.0 -0.0018468733367346113 0.0 0.0
0.0014147730322238428 -0.0006471741647928742 0.0 -0.002016863735955776 0.0 0.0
0.0021668131289138 -0.0011127141651796624 0.0 -0.002412120868369283 0.0 0.0
0.003494554390457566 -0.002099002462600863 0.0 -0.0032517388032808903 0.0 0.0
0.005439272374773124 -0.003728332855211125 0.0 -0.004548704703384032 0.0 0.0
0.007892947632063538 -0.005924817070359412 0.0 -0.006145131432537421 0.0 0.0
0.01071561729971783 -0.008544917687279385 0.0 -0.007791474657424746 0.0 0.0
0.013901278434143391 -0.011547599390058005 0.0 -0.009383086580885214 0.0 0.0
0.01753013198097765 -0.015007516709229618 0.0 -0.011008013801544592 0.0 0.0
0.021732200514158778 -0.019047328845948286 0.0 -0.012764743894697839 0.0 0.0
0.026609792852306274 -0.02376732532655268 0.0 -0.014638629144328341 0.0 0.0
0.03217301362195725 -0.029167123564377118 0.0 -0.016412015845490402 0.0 0.0
0.0382733487586418 -0.035110755080825395 0.0 -0.01767192119197286 0.0 0.0
0.04467861381497419 -0.04136558677519098 0.0 -0.017759040292213535 0.0 0.0
0.05098733406420314 -0.04750822319008652 0.0 -0.015514699240068597 0.0 0.0
0.05631886462856672 -0.05266268623731074 0.0 -0.009273263343037519 0.0 0.0
0.05631886462856241 -0.052662686237308964 0.0 0.009273263343068439 0.0 0.0
0.05098733406419326 -0.04750822319007586 0.0 0.01551469924011073 0.0 0.0
0.044678613814957635 -0.041365586775174545 0.0 0.01775904029224684 0.0 0.0
0.03827334875862315 -0.03511075508080275 0.0 0.017671921191984685 0.0 0.0
0.03217301362193738 -0.02916712356435447 0.0 0.016412015845485683 0.0 0.0
0.026609792852285846 -0.023767325326531363 0.0 0.014638629144321125 0.0 0.0
0.021732200514138933 -0.01904732884593119 0.0 0.01276474389469312 0.0 0.0
0.017530131980959082 -0.015007516709211188 0.0 0.011008013801538874 0.0 0.0
0.013901278434124614 -0.011547599390038021 0.0 0.009383086580874223 0.0 0.0
0.010715617299700914 -0.008544917687260734 0.0 0.007791474657411701 0.0 0.0
0.007892947632048813 -0.005924817070344535 0.0 0.006145131432523376 0.0 0.0
0.005439272374761661 -0.0037283328551995787 0.0 0.004548704703375206 0.0 0.0
0.0034945543904496 -0.0020990024625948678 0.0 0.0032517388032745065 0.0 0.0
0.002166813128909373 -0.0011127141651753325 0.0 0.002412120868365647 0.0 0.0
0.0014147730322222885 -0.0006471741647892104 0.0 0.0020168637359531394 0.0 0.0
0.001001388223159344 -0.0004228427142379809 0.0 0.0018468733367328904 0.0 0.0
0.0006609750320729912 -0.00023191951051815263 0.0 0.0017273162407156484 0.0 0.0
0.0003299900153386215 -9.17285414784863e-05 0.0 0.0017634456067923687 0.0 0.0
0.0001292921297771088 -0.0002024111845748966 0.0 0.0020994520272877293 0.0 0.0
0.0014683883417867527 -0.0026317658872125286 0.0 0.0029390950737183397 0.0 0.0
0.0010406059157281322 -0.0020495576513662184 0.0 -0.002409170082877554 0.0 0.0
6.616710480478183e-05 -0.0001935788078074041 0.0 -0.002234440860728132 0.0 0.0
0.00017319183208935884 -3.988825746681357e-05 0.0 -0.001981801143141504 0.0 0.0
0.00042518827264802217 -0.00012598249506234893 0.0 -0.0019368400998175939 0.0 0.0
0.0007006794721420712 -0.00028425271102838767 0.0 -0.0020580748458060016 0.0 0.0
0.0010117481412426632 -0.0004524483421523007 0.0 -0.0022482822547311987 0.0 0.0
0.0015004338670496636 -0.000714638625184838 0.0 -0.0025412949144111574 0.0 0.0
0.0023769755625715067 -0.0012732802123756048 0.0 -0.003125590292272107 0.0 0.0
0.003725837663222112 -0.0022999740713673944 0.0 -0.004126462463005465 0.0 0.0
0.005494783931600342 -0.0037949139888442396 0.0 -0.005472488388203078 0.0 0.0
0.0075499870566748395 -0.005642015000607126 0.0 -0.0069705595038248025 0.0 0.0
0.009844393367516371 -0.007765841288219777 0.0 -0.008462018678279004 0.0 0.0
0.012431481992634288 -0.01020076559668981 0.0 -0.009970095031224369 0.0 0.0
0.015416991480454598 -0.013048176411178947 0.0 -0.011551582612542022 0.0 0.0
0.01891325502450321 -0.01641483561963364 0.0 -0.013221622796120047 0.0 0.0
0.022983671092135977 -0.020357704396881893 0.0 -0.014829622240640716 0.0 0.0
0.02759350261614156 -0.024837342805652973 0.0 -0.016001762310940693 0.0 0.0
0.03265719589833106 -0.029796999731572793 0.0 -0.016298795074758954 0.0 0.0
0.03811530335902753 -0.035153305225932296 0.0 -0.014870502829576193 0.0 0.0
0.04348723794055517 -0.04034817174688454 0.0 -0.009702390831516194 0.0 0.0
0.04348723794055258 -0.04034817174688232 0.0 0.00970239083154184 0.0 0.0
0.038115303359020344 -0.03515330522592164 0.0 0.014870502829613164 0.0 0.0
0.03265719589831846 -0.029796999731562135 0.0 0.016298795074787376 0.0 0.0
0.02759350261612724 -0.02483734280564187 0.0 0.016001762310948853 0.0 0.0
0.02298367109212153 -0.020357704396866794 0.0 0.014829622240634555 0.0 0.0
0.018913255024488637 -0.016414835619618984 0.0 0.013221622796112276 0.0 0.0
0.015416991480440762 -0.013048176411168733 0.0 0.011551582612536748 0.0 0.0
0.012431481992621535 -0.01020076559668004 0.0 0.009970095031220538 0.0 0.0
0.009844393367503729 -0.0077658412882080086 0.0 0.008462018678270233 0.0 0.0
0.007549987056662849 -0.005642015000595801 0.0 0.006970559503812701 0.0 0.0
0.005494783931590086 -0.0037949139888342476 0.0 0.005472488388189978 0.0 0.0
0.0037258376632145207 -0.002299974071360733 0.0 0.004126462462998137 0.0 0.0
0.0023769755625664968 -0.0012732802123693876 0.0 0.003125590292267333 0.0 0.0
0.001500433867047013 -0.0007146386251815073 0.0 0.0025412949144100194 0.0 0.0
0.0010117481412417612 -0.0004524483421514125 0.0 0.0022482822547290338 0.0 0.0
0.0007006794721416271 -0.00028425271102783256 0.0 0.0020580748458046694 0.0 0.0
0.00042518827264777237 -0.00012598249506196035 0.0 0.001936840099815429 0.0 0.0
0.00017319183208917843 -3.988825746764624e-05 0.0 0.0019818011431385063 0.0 0.0
6.616710480453203e-05 -0.00019357880780748737 0.0 0.0022344408607255506 0.0 0.0
0.0010406059157254816 -0.0020495576513625217 0.0 0.002409170082873141 0.0 0.0
0.0007345389699598831 -0.0016122274236563816 0.0 -0.0020593041370077225 0.0 0.0
-2.5216803650890407e-06 -0.0001846557647157132 0.0 -0.002315367070996832 0.0 0.0
2.586046562588762e-05 1.4009606477904946e-05 0.0 -0.002141474296766671 0.0 0.0
0.00019732683587206368 -2.537466617624773e-05 0.0 -0.0021001737082918803 0.0 0.0
0.00039426666391656484 -0.00014027624448331721 0.0 -0.002214098781466889 0.0 0.0
0.0006042670188575044 -0.0002630379314250142 0.0 -0.0024367570926557003 0.0 0.0
0.0008924861347524571 -0.0004106357613700151 0.0 -0.0027175947740606665 0.0 0.0
0.0013739507499645615 -0.000657543013148576 0.0 -0.0030670288697406956 0.0 0.0
0.002144480935229398 -0.0011288426475064561 0.0 -0.0036265931896832804 0.0 0.0
0.003195028799694938 -0.0019010145743407758 0.0 -0.004503076853178134 0.0 0.0
0.004452228014278428 -0.0029348112009852656 0.0 -0.005629688680982625 0.0 0.0
0.005843041140505739 -0.004158654207212065 0.0 -0.00686381626794158 0.0 0.0
0.007400371946634177 -0.005572514700243003 0.0 -0.008177682822441024 0.0 0.0
0.009193520320830179 -0.00724324307531754 0.0 -0.009531505116130545 0.0 0.0
0.0113149239462816 -0.009260135691182558 0.0 -0.010927619748039186 0.0 0.0
0.01386851135204073 -0.011719532077133277 0.0 -0.012298121581273913 0.0 0.0
0.016943838716397805 -0.014694515823273413 0.0 -0.013387133483991842 0.0 0.0
0.020591366862734523 -0.018244632453555898 0.0 -0.013746193926946149 0.0 0.0
0.02492855382189539 -0.022567911521314432 0.0 -0.013086912914234361 0.0 0.0
0.030169299136939748 -0.02766973485268398 0.0 -0.009767933808934537 0.0 0.0
0.030169299136938596 -0.027669734852679095 0.0 0.009767933808957463 0.0 0.0
0.024928553821891145 -0.02256791152130644 0.0 0.013086912914267723 0.0 0.0
0.020591366862726 -0.018244632453551013 0.0 0.013746193926971961 0.0 0.0
0.016943838716388077 -0.014694515823270748 0.0 0.013387133483996172 0.0 0.0
0.013868511352032528 -0.011719532077128392 0.0 0.012298121581267252 0.0 0.0
0.011314923946272704 -0.009260135691175453 0.0 0.010927619748031414 0.0 0.0
0.009193520320822587 -0.007243243075309547 0.0 0.009531505116126437 0.0 0.0
0.0074003719466276124 -0.005572514700232567 0.0 0.00817768282243958 0.0 0.0
0.005843041140498745 -0.004158654207204293 0.0 0.00686381626793553 0.0 0.0
0.004452228014271614 -0.002934811200977938 0.0 0.0056296886809741875 0.0 0.0
0.0031950287996892757 -0.0019010145743350026 0.0 0.004503076853168531 0.0 0.0
0.002144480935225415 -0.0011288426475042357 0.0 0.0036265931896802828 0.0 0.0
0.001373950749962341 -0.000657543013148354 0.0 0.0030670288697383086 0.0 0.0
0.0008924861347509583 -0.0004106357613684608 0.0 0.002717594774058668 0.0 0.0
0.0006042670188570881 -0.00026303793142379295 0.0 0.002436757092652564 0.0 0.0
0.00039426666391625953 -0.00014027624448165188 0.0 0.0022140987814643076 0.0 0.0
0.00019732683587200817 -2.5374666175526084e-05 0.0 0.0021001737082890215 0.0 0.0
2.5860465625776596e-05 1.4009606477349834e-05 0.0 0.002141474296764423 0.0 0.0
-2.5216803652833297e-06 -0.00018465576471538014 0.0 0.0023153670709954444 0.0 0.0
0.0007345389699583288 -0.0016122274236539218 0.0 0.0020593041370045306 0.0 0.0
0.0005216173883497571 -0.0012875688629540027 0.0 -0.0018273921903856072 0.0 0.0
-7.000570943117845e-05 -0.00017368783735977056 0.0 -0.002360636564283175 0.0 0.0
-0.00011437575783167231 6.86332475960949e-05 0.0 -0.00224733837550109 0.0 0.0
-2.2922075937376052e-05 7.117617554863731e-05 0.0 -0.0022099210932020608 0.0 0.0
8.751830538049343e-05 3.969900844724705e-06 0.0 -0.0023089134557346958 0.0 0.0
0.00018676140676134045 -6.717078158302581e-05 0.0 -0.00254109051961543 0.0 0.0
0.0002955407116169151 -0.00013248885823835543 0.0 -0.002864123489659698 0.0 0.0
0.00045090321420451773 -0.00020955300977787417 0.0 -0.0031772729909963493 0.0 0.0
0.0006962945015477479 -0.00032874115215641986 0.0 -0.0034725226665374143 0.0 0.0
0.0010387678450809457 -0.0005090210381648586 0.0 -0.0038476935126531275 0.0 0.0
0.0014632878680244238 -0.0007604569733885569 0.0 -0.0044373511629918205 0.0 0.0
0.0019266149964827783 -0.001077310759696859 0.0 -0.005233550563997158 0.0 0.0
0.002442552536013498 -0.001450362340664979 0.0 -0.006215872597684247 0.0 0.0
0.0030386972454618105 -0.0019219005409651935 0.0 -0.007378669968608198 0.0 0.0
0.0037788540524498204 -0.0025672208544356145 0.0 -0.008722348156634696 0.0 0.0
0.004797059316366495 -0.0035018427867612445 0.0 -0.010146826648832707 0.0 0.0
0.006309268993980696 -0.004918991126117156 0.0 -0.01135602227895316 0.0 0.0
0.008544332000273852 -0.007025331639259225 0.0 -0.01182510766891609 0.0 0.0
0.011628766554533404 -0.01002587670617805 0.0 -0.011175478123406912 0.0 0.0
0.016155217319824083 -0.014629840873178868 0.0 -0.009592167792444317 0.0 0.0
0.01615521731982411 -0.014629840873180644 0.0 0.00959216779246208 0.0 0.0
0.011628766554531725 -0.010025876706177161 0.0 0.011175478123434113 0.0 0.0
0.008544332000269328 -0.00702533163925434 0.0 0.011825107668930135 0.0 0.0
0.0063092689939765745 -0.004918991126116712 0.0 0.011356022278953881 0.0 0.0
0.004797059316365218 -0.003501842786763021 0.0 0.01014682664882588 0.0 0.0
0.003778854052447253 -0.002567220854437835 0.0 0.008722348156628812 0.0 0.0
0.0030386972454600203 -0.0019219005409623069 0.0 0.0073786699686062 0.0 0.0
0.0024425525360130818 -0.0014503623406638688 0.0 0.006215872597681971 0.0 0.0
0.0019266149964818624 -0.0010773107596950826 0.0 0.005233550563989775 0.0 0.0
0.0014632878680233274 -0.0007604569733894451 0.0 0.0044373511629863804 0.0 0.0
0.0010387678450800991 -0.000509021038166857 0.0 0.0038476935126465772 0.0 0.0
0.0006962945015469291 -0.00032874115215797417 0.0 0.0034725226665353603 0.0 0.0
0.00045090321420430957 -0.00020955300977987257 0.0 0.0031772729909940733 0.0 0.0
0.0002955407116164849 -0.00013248885823657908 0.0 0.0028641234896566448 0.0 0.0
0.0001867614067613682 -6.717078158235967e-05 0.0 0.0025410905196112665 0.0 0.0
8.75183053805767e-05 3.969900843059371e-06 0.0 0.0023089134557331137 0.0 0.0
-2.292207593719564e-05 7.117617554830424e-05 0.0 0.0022099210931995072 0.0 0.0
-0.00011437575783172782 6.86332475965945e-05 0.0 0.0022473383754986753 0.0 0.0
-7.000570943128948e-05 -0.00017368783735982607 0.0 0.0023606365642816207 0.0 0.0
0.00052161738834898 -0.0012875688629529376 0.0 0.0018273921903829426 0.0 0.0
0.000373592265182382 -0.001043526239798448 0.0 -0.0016619249019257931 0.0 0.0
-0.00013130133854984127 -0.0001522971480424351 0.0 -0.0023564356468354364 0.0 0.0
-0.00024706566473203795 0.00012023035871139287 0.0 -0.0023024987006119713 0.0 0.0
-0.00023569451552517273 0.00016401482891947872 0.0 -0.002262799511595276 0.0 0.0
-0.00021565064224318697 0.00014540799111373293 0.0 -0.002340160252406437 0.0 0.0
-0.00023304729078037212 0.00013038682452393147 0.0 -0.002553089874772846 0.0 0.0
-0.00030745125833415987 0.00014868238005361079 0.0 -0.0028669180245123327 0.0 0.0
-0.0004518191123190074 0.00021152213480757354 0.0 -0.0031792098743115838 0.0 0.0
-0.0006947596533077444 0.0003279871203127893 0.0 -0.0034727256215774105 0.0 0.0
-0.001037063671268934 0.0005072736038445047 0.0 -0.003845239607564499 0.0 0.0
-0.0014622463513555006 0.0007610934477697562 0.0 -0.004432583643424193 0.0 0.0
-0.0019377381838042024 0.0010880519609652861 0.0 -0.005230657852455578 0.0 0.0
-0.002476523311947615 0.0014793681333584718 0.0 -0.006214909971091642 0.0 0.0
-0.0030936248892511065 0.001957260280019746 0.0 -0.007381918868408888 0.0 0.0
-0.003745373751454506 0.002491438718465133 0.0 -0.00874185730493593 0.0 0.0
-0.00427988962600484 0.0029297700076393873 0.0 -0.010265021017565878 0.0 0.0
-0.004392717267306723 0.003001457399804508 0.0 -0.011929465108051096 0.0 0.0
-0.0036997957318232605 0.002433024236914605 0.0 -0.013711194226225909 0.0 0.0
-0.0018916585130612368 0.0011328419624558883 0.0 -0.015181535015948266 0.0 0.0
0.0023029798535404017 -0.002718611666257864 0.0 -0.013273194039799319 0.0 0.0
0.002302979853540346 -0.0027186116662587523 0.0 0.013273194039813252 0.0 0.0
-0.001891658513061542 0.0011328419624554442 0.0 0.015181535015964198 0.0 0.0
-0.0036997957318225944 0.0024330242369186017 0.0 0.013711194226230183 0.0 0.0
-0.004392717267303434 0.0030014573998067284 0.0 0.011929465108047932 0.0 0.0
-0.00427988962599922 0.002929770007637167 0.0 0.010265021017557774 0.0 0.0
-0.003745373751450398 0.0024914387184660214 0.0 0.008741857304929712 0.0 0.0
-0.0030936248892473595 0.001957260280014639 0.0 0.007381918868405168 0.0 0.0
-0.0024765233119421193 0.0014793681333526987 0.0 0.006214909971087645 0.0 0.0
-0.0019377381837984708 0.0010880519609581807 0.0 0.0052306578524479175 0.0 0.0
-0.0014622463513508238 0.0007610934477673137 0.0 0.004432583643417365 0.0 0.0
-0.0010370636712649928 0.0005072736038436165 0.0 0.0038452396075576156 0.0 0.0
-0.00069475965330551 0.00032798712031256727 0.0 0.0034727256215746904 0.0 0.0
-0.0004518191123173698 0.0002115221348069074 0.0 0.0031792098743096964 0.0 0.0
-0.00030745125833341047 0.00014868238005150136 0.0 0.0028669180245095016 0.0 0.0
-0.0002330472907796366 0.00013038682452337635 0.0 0.0025530898747686825 0.0 0.0
-0.00021565064224299269 0.00014540799111384395 0.0 0.0023401602524039944 0.0 0.0
-0.00023569451552490905 0.00016401482891897912 0.0 0.002262799511592639 0.0 0.0
-0.0002470656647318298 0.0001202303587105602 0.0 0.0023024987006100006 0.0 0.0
-0.00013130133854968862 -0.00015229714804274042 0.0 0.0023564356468340486 0.0 0.0
0.00037359226518202115 -0.0010435262397971625 0.0 0.001661924901923989 0.0 0.0
0.0002673450599757349 -0.0008342186793874051 0.0 -0.0014965176404723723 0.0 0.0
-0.0001870355779726579 -0.00012262767101045569 0.0 -0.0023020093776005557 0.0 0.0
-0.0003714821303939658 0.00016906593436283313 0.0 -0.002303982399636584 0.0 0.0
-0.00044068445725378713 0.00025207655884573743 0.0 -0.0022582176291385814 0.0 0.0
-0.0005123222838136487 0.0002823275697875216 0.0 -0.002306037365885444 0.0 0.0
-0.0006477099940768449 0.0003239786965548719 0.0 -0.0024820353760734992 0.0 0.0
-0.0009036033813769329 0.00042643852365120694 0.0 -0.002733414646416882 0.0 0.0
-0.001374611922916269 0.0006593527148313072 0.0 -0.003071247859588788 0.0 0.0
-0.0021422307847491218 0.0011271334021698554 0.0 -0.003625687972891589 0.0 0.0
-0.0031927619438939514 0.0018994340003559707 0.0 -0.0045004853645108644 0.0 0.0
-0.004452337713413204 0.0029369939428696146 0.0 -0.005627554492626918 0.0 0.0
-0.0058534555812313205 0.004172188592378223 0.0 -0.006858099902326442 0.0 0.0
-0.007432667364222614 0.00560677427204026 0.0 -0.008155513913934709 0.0 0.0
-0.009245702646017165 0.0072838724561861135 0.0 -0.00950494983979916 0.0 0.0
-0.011285136762708509 0.009186062548009133 0.0 -0.010989477501446576 0.0 0.0
-0.013389737509176866 0.011152298714062425 0.0 -0.012712243891030373 0.0 0.0
-0.015197422580878042 0.012829879271414324 0.0 -0.014735477641141692 0.0 0.0
-0.016173312033206294 0.013708967383881276 0.0 -0.016953408801925418 0.0 0.0
-0.015419830891090655 0.012680549700856414 0.0 -0.017898209633861406 0.0 0.0
-0.010848993686423572 0.007972825911233272 0.0 -0.015495262959596079 0.0 0.0
-0.010848993686424585 0.007972825911235937 0.0 0.015495262959616563 0.0 0.0
-0.015419830891089406 0.01268054970086041 0.0 0.01789820963388855 0.0 0.0
-0.016173312033200216 0.01370896738387195 0.0 0.01695340880194096 0.0 0.0
-0.015197422580867898 0.012829879271402334 0.0 0.014735477641142303 0.0 0.0
-0.013389737509164307 0.011152298714052655 0.0 0.012712243891022212 0.0 0.0
-0.011285136762698156 0.00918606254800114 0.0 0.010989477501439526 0.0 0.0
-0.009245702646007811 0.007283872456177232 0.0 0.009504949839792776 0.0 0.0
-0.007432667364211359 0.005606774272030934 0.0 0.008155513913928547 0.0 0.0
-0.005853455581219177 0.004172188592370674 0.0 0.006858099902316006 0.0 0.0
-0.004452337713402824 0.0029369939428640635 0.0 0.0056275544926156496 0.0 0.0
-0.003192761943885028 0.001899434000348199 0.0 0.004500485364499707 0.0 0.0
-0.0021422307847433486 0.0011271334021645263 0.0 0.003625687972887315 0.0 0.0
-0.0013746119229128412 0.0006593527148310852 0.0 0.0030712478595879555 0.0 0.0
-0.0009036033813750316 0.00042643852365154 0.0 0.002733414646414717 0.0 0.0
-0.0006477099940754572 0.00032397869655365064 0.0 0.002482035376070002 0.0 0.0
-0.0005123222838130936 0.00028232756978718854 0.0 0.002306037365883612 0.0 0.0
-0.00044068445725320426 0.00025207655884579294 0.0 0.0022582176291379985 0.0 0.0
-0.00037148213039368827 0.00016906593436394335 0.0 0.002303982399635557 0.0 0.0
-0.0001870355779723526 -0.00012262767101045569 0.0 0.0023020093775994455 0.0 0.0
0.0002673450599754712 -0.0008342186793866939 0.0 0.0014965176404705127 0.0 0.0
0.00018132946426291374 -0.000645306012105995 0.0 -0.0013238983397361181 0.0 0.0
-0.00023880476227405856 -8.540818498614655e-05 0.0 -0.002194452471836472 0.0 0.0
-0.0004881065446583899 0.00021530382608775378 0.0 -0.002250077605650158 0.0 0.0
-0.0006370156117361803 0.0003350637706716064 0.0 -0.0021947498221504547 0.0 0.0
-0.000800007593278057 0.0004113006981235623 0.0 -0.0022042137135177 0.0 0.0
-0.0010494641843111774 0.0005081291323713044 0.0 -0.002315135974831295 0.0 0.0
-0.0015102691578838534 0.0007303498659823049 0.0 -0.002563731061024338 0.0 0.0
-0.0023761211083461464 0.0012739140467461496 0.0 -0.00313189755552834 0.0 0.0
-0.0037226539228642774 0.0022970836519209392 0.0 -0.0041223913854323 0.0 0.0
-0.00549333306014331 0.003793734866476939 0.0 -0.005469564483723155 0.0 0.0
-0.007551372823543581 0.0056447987939438615 0.0 -0.006968948984769352 0.0 0.0
-0.009851984081889253 0.007776501060186236 0.0 -0.00845000689510822 0.0 0.0
-0.012454581649882238 0.010226878793173189 0.0 -0.009917166267550792 0.0 0.0
-0.015457473939375688 0.013081563138540364 0.0 -0.011453471438528706 0.0 0.0
-0.01889512647552563 0.016361706013937827 0.0 -0.013232667474632365 0.0 0.0
-0.02260638378321933 0.01990336432506634 0.0 -0.015490914801312705 0.0 0.0
-0.026147559155251812 0.02327133278514415 0.0 -0.0184167054955367 0.0 0.0
-0.028684250160988564 0.025581061916317704 0.0 -0.021501255158905663 0.0 0.0
-0.02863495224501149 0.025243703201534462 0.0 -0.02309613309852937 0.0 0.0
-0.02330258347996643 0.019355773170645296 0.0 -0.019780112820413143 0.0 0.0
-0.023302583479966568 0.019355773170643076 0.0 0.019780112820439844 0.0 0.0
-0.028634952245007866 0.025243703201526912 0.0 0.02309613309856462 0.0 0.0
-0.028684250160978197 0.02558106191630838 0.0 0.021501255158928367 0.0 0.0
-0.02614755915523631 0.023271332785134824 0.0 0.01841670549554142 0.0 0.0
-0.022606383783200693 0.01990336432504769 0.0 0.015490914801304656 0.0 0.0
-0.018895126475509116 0.01636170601392184 0.0 0.013232667474623538 0.0 0.0
-0.015457473939360367 0.01308156313852038 0.0 0.011453471438520157 0.0 0.0
-0.012454581649865293 0.010226878793152094 0.0 0.00991716626754463 0.0 0.0
-0.009851984081871532 0.007776501060167806 0.0 0.00845000689509745 0.0 0.0
-0.007551372823527747 0.005644798793929207 0.0 0.006968948984754808 0.0 0.0
-0.005493333060129363 0.0037937348664653925 0.0 0.005469564483708167 0.0 0.0
-0.0037226539228545213 0.002297083651915832 0.0 0.004122391385424029 0.0 0.0
-0.002376121108340276 0.0012739140467448173 0.0 0.0031318975555239548 0.0 0.0
-0.0015102691578803978 0.0007303498659804175 0.0 0.0025637310610208963 0.0 0.0
-0.001049464184309401 0.0005081291323705273 0.0 0.002315135974829935 0.0 0.0
-0.0008000075932771133 0.00041130069812289616 0.0 0.0022042137135153683 0.0 0.0
-0.0006370156117352921 0.0003350637706709958 0.0 0.0021947498221485118 0.0 0.0
-0.00048810654465808456 0.0002153038260873652 0.0 0.0022500776056483818 0.0 0.0
-0.00023880476227369773 -8.540818498598002e-05 0.0 0.0021944524718350844 0.0 0.0
0.00018132946426267782 -0.0006453060121054642 0.0 0.0013238983397346193 0.0 0.0
0.00010604202186303979 -0.00047518191523596154 0.0 -0.001148119918345708 0.0 0.0
-0.00028909480146330213 -4.1469564678819903e-05 0.0 -0.002036308540929177 0.0 0.0
-0.0005978074641795339 0.0002598227887566362 0.0 -0.0021408171824411903 0.0 0.0
-0.0008246244062270203 0.0004117846710561812 0.0 -0.0020763022103585105 0.0 0.0
-0.0010738508387954648 0.0005294063952040462 0.0 -0.002033567485485166 0.0 0.0
-0.0014456605026988145 0.0006978074881215379 0.0 -0.002106421893817184 0.0 0.0
-0.002173539969679006 0.0011274061660462298 0.0 -0.002444335955593485 0.0 0.0
-0.0034913730134931154 0.0020971428860612207 0.0 -0.003252894225999614 0.0 0.0
-0.005436206046322223 0.00372499873533938 0.0 -0.004542438003767468 0.0 0.0
-0.007893072312809557 0.00592498900370364 0.0 -0.006142902651025628 0.0 0.0
-0.010717914856928273 0.00854815663991948 0.0 -0.007790877714725919 0.0 0.0
-0.013904326356605878 0.011552686714729976 0.0 -0.009367431760992362 0.0 0.0
-0.01753534701563958 0.015015680467446835 0.0 -0.010930977931525032 0.0 0.0
-0.02174425680546349 0.019057926334796083 0.0 -0.012592797265429723 0.0 0.0
-0.02660189111748694 0.023740254834611285 0.0 -0.014558515237786784 0.0 0.0
-0.031967448134728016 0.028905595744887158 0.0 -0.017184487011556615 0.0 0.0
-0.03726388031164231 0.03396189743010458 0.0 -0.020697966675817803 0.0 0.0
-0.041226373977338374 0.03762743044779082 0.0 -0.024533978585281113 0.0 0.0
-0.0416551847810358 0.03765449033719781 0.0 -0.026705405887479494 0.0 0.0
-0.03489649676284083 0.030288004352349684 0.0 -0.02374625756464188 0.0 0.0
-0.03489649676283925 0.030288004352346576 0.0 0.023746257564672524 0.0 0.0
-0.04165518478102953 0.03765449033719337 0.0 0.026705405887517297 0.0 0.0
-0.04122637397732423 0.037627430447780164 0.0 0.02453397858530787 0.0 0.0
-0.03726388031162228 0.03396189743008815 0.0 0.020697966675825685 0.0 0.0
-0.03196744813470427 0.028905595744867618 0.0 0.01718448701155023 0.0 0.0
-0.026601891117464388 0.02374025483458686 0.0 0.014558515237777958 0.0 0.0
-0.021744256805441883 0.019057926334775876 0.0 0.012592797265419342 0.0 0.0
-0.017535347015616834 0.015015680467425074 0.0 0.010930977931517039 0.0 0.0
-0.013904326356582827 0.011552686714708882 0.0 0.009367431760981093 0.0 0.0
-0.010717914856907124 0.00854815663989883 0.0 0.007790877714712097 0.0 0.0
-0.0078930723127911 0.005924989003687209 0.0 0.006142902651009807 0.0 0.0
-0.005436206046308359 0.0037249987353278335 0.0 0.00454243800375792 0.0 0.0
-0.0034913730134843307 0.0020971428860545593 0.0 0.0032528942259947846 0.0 0.0
-0.0021735399696736907 0.0011274061660433432 0.0 0.0024443359555889332 0.0 0.0
-0.0014456605026964692 0.0006978074881208718 0.0 0.0021064218938150747 0.0 0.0
-0.0010738508387941603 0.0005294063952039352 0.0 0.002033567485483778 0.0 0.0
-0.0008246244062261182 0.00041178467105573713 0.0 0.002076302210355929 0.0 0.0
-0.0005978074641789788 0.0002598227887565252 0.0 0.0021408171824389144 0.0 0.0
-0.00028909480146305233 -4.146956467873664e-05 0.0 0.002036308540927345 0.0 0.0
0.00010604202186291489 -0.00047518191523540816 0.0 0.001148119918343432 0.0 0.0
3.919606698643552e-05 -0.0003246390360900908 0.0 -0.0009685984711129414 0.0 0.0
-0.00033928165255045495 7.430299743205193e-06 0.0 -0.0018328281212700859 0.0 0.0
-0.0007016011758910479 0.00030318267718865144 0.0 -0.0019766431430489895 0.0 0.0
-0.0010029649037292532 0.0004814853833822186 0.0 -0.001897647538748326 0.0 0.0
-0.0013321071294417897 0.0006371155830101616 0.0 -0.001804375184285223 0.0 0.0
-0.0018640815934316823 0.0009224928362513429 0.0 -0.0018821896293997331 0.0 0.0
-0.002914618753537601 0.00164072225552081 0.0 -0.0023204148704724648 0.0 0.0
-0.004712539744042177 0.0030905239592957656 0.0 -0.0033006754236331592 0.0 0.0
-0.007238950608851047 0.005318645783468856 0.0 -0.0047508544918013484 0.0 0.0
-0.010338313738079169 0.00817401465703993 0.0 -0.00639630048217904 0.0 0.0
-0.013920266347867805 0.011542813261494311 0.0 -0.00803288776359451 0.0 0.0
-0.01799842300666843 0.015422437410959722 0.0 -0.009623697555555255 0.0 0.0
-0.022672378796735893 0.01990678279818381 0.0 -0.01122336252563827 0.0 0.0
-0.028094547069974163 0.025143198281903256 0.0 -0.012919620282227817 0.0 0.0
-0.03438060602844353 0.0312341690717286 0.0 -0.014919744882173958 0.0 0.0
-0.041399241499732384 0.038020098404435654 0.0 -0.017588986744763335 0.0 0.0
-0.048418820761337994 0.04473916565548208 0.0 -0.021226550855953152 0.0 0.0
-0.05373676374669657 0.049674941530783556 0.0 -0.02547002832474382 0.0 0.0
-0.05442567993711256 0.049883378061635675 0.0 -0.028470477098182567 0.0 0.0
-0.04610287055716013 0.04098027594374454 0.0 -0.027436193232824035 0.0 0.0
-0.0461028705571573 0.040980275943745426 0.0 0.0274361932328534 0.0 0.0
-0.05442567993710294 0.04988337806162724 0.0 0.028470477098220814 0.0 0.0
-0.05373676374667853 0.049674941530764016 0.0 0.02547002832477202 0.0 0.0
-0.048418820761313944 0.044739165655457214 0.0 0.0212265508559622 0.0 0.0
-0.041399241499703796 0.038020098404404123 0.0 0.017588986744758173 0.0 0.0
-0.034380606028415445 0.031234169071698847 0.0 0.014919744882166575 0.0 0.0
-0.028094547069946282 0.025143198281877277 0.0 0.012919620282218325 0.0 0.0
-0.022672378796707637 0.01990678279815805 0.0 0.011223362525630609 0.0 0.0
-0.017998423006639813 0.015422437410932632 0.0 0.009623697555543376 0.0 0.0
-0.013920266347841555 0.011542813261468332 0.0 0.008032887763578356 0.0 0.0
-0.010338313738056555 0.008174014657015283 0.0 0.0063963004821625535 0.0 0.0
-0.007238950608833249 0.005318645783452425 0.0 0.004750854491789219 0.0 0.0
-0.004712539744030103 0.003090523959287772 0.0 0.0033006754236250824 0.0 0.0
-0.0029146187535301626 0.0016407222555172574 0.0 0.0023204148704669136 0.0 0.0
-0.0018640815934283378 0.0009224928362497886 0.0 0.0018821896293973461 0.0 0.0
-0.001332107129440152 0.0006371155830079411 0.0 0.0018043751842843347 0.0 0.0
-0.0010029649037284344 0.00048148538338199653 0.0 0.00189764753874741 0.0 0.0
-0.0007016011758902777 0.00030318267718904 0.0 0.0019766431430477682 0.0 0.0
-0.0003392816525502537 7.4302997433162155e-06 0.0 0.001832828121268948 0.0 0.0
3.919606698635919e-05 -0.00032463903608982887 0.0 0.0009685984711134132 0.0 0.0
-1.880129393616592e-05 -0.0001954670825002891 0.0 -0.0007836970561123924 0.0 0.0
-0.00038879469276859036 5.8961193248163735e-05 0.0 -0.001589295208836411 0.0 0.0
-0.00080036752414675 0.00034543095647959765 0.0 -0.0017587531102193354 0.0 0.0
-0.0011713412965666525 0.0005436539692217357 0.0 -0.0016646374495157268 0.0 0.0
-0.0015859508621207385 0.0007523227684659295 0.0 -0.0015513407364479426 0.0 0.0
-0.0023225323920892937 0.0012007813750612994 0.0 -0.0016422032614373805 0.0 0.0
-0.0037374193721105564 0.00227104162192604 0.0 -0.0021544080876105265 0.0 0.0
-0.006019264611513725 0.0042203630029584716 0.0 -0.0032242157144072303 0.0 0.0
-0.009078056042073429 0.007001409301688577 0.0 -0.004647684980858324 0.0 0.0
-0.012801931662626415 0.010477980547571653 0.0 -0.006190311283523819 0.0 0.0
-0.017143540000149088 0.014590371165726035 0.0 -0.007750804763707264 0.0 0.0
-0.02212468352842234 0.019352894502668194 0.0 -0.00927109260624992 0.0 0.0
-0.027857233352811678 0.024872264329243166 0.0 -0.010817007538556134 0.0 0.0
-0.03450213560906254 0.03130917320291626 0.0 -0.01248665605691951 0.0 0.0
-0.04218693225598946 0.03877969444020568 0.0 -0.01435896600564146 0.0 0.0
-0.05079512994086596 0.04712556827338821 0.0 -0.01669773921555906 0.0 0.0
-0.05947931718876105 0.05545457195856418 0.0 -0.02000875561407045 0.0 0.0
-0.06610963423350494 0.061622054089662814 0.0 -0.02437770002869505 0.0 0.0
-0.06705666569487198 0.06203527862162961 0.0 -0.02869207923704864 0.0 0.0
-0.057320463460620044 0.05173475940838168 0.0 -0.031051294857118772 0.0 0.0
-0.05732046346061606 0.05173475940837813 0.0 0.03105129485714897 0.0 0.0
-0.06705666569485895 0.06203527862161495 0.0 0.028692079237086554 0.0 0.0
-0.06610963423348293 0.061622054089641054 0.0 0.024377700028723526 0.0 0.0
-0.05947931718873285 0.05545457195853887 0.0 0.020008755614079388 0.0 0.0
-0.0507951299408326 0.0471255682733549 0.0 0.01669773921555584 0.0 0.0
-0.04218693225595594 0.03877969444017326 0.0 0.014358966005636548 0.0 0.0
-0.034502135609028796 0.03130917320288518 0.0 0.0124866560569111 0.0 0.0
-0.027857233352777656 0.024872264329209193 0.0 0.010817007538548057 0.0 0.0
-0.022124683528388298 0.019352894502633555 0.0 0.00927109260623979 0.0 0.0
-0.017143540000118078 0.014590371165697169 0.0 0.007750804763691721 0.0 0.0
-0.012801931662599478 0.010477980547547672 0.0 0.006190311283508387 0.0 0.0
-0.009078056042052363 0.0070014093016710355 0.0 0.004647684980848388 0.0 0.0
-0.006019264611498147 0.004220363002945815 0.0 0.003224215714398987 0.0 0.0
-0.0037374193721010016 0.0022710416219179352 0.0 0.0021544080876048644 0.0 0.0
-0.0023225323920844643 0.001200781375059412 0.0 0.0016422032614338 0.0 0.0
-0.001585950862119094 0.0007523227684647082 0.0 0.0015513407364459164 0.0 0.0
-0.0011713412965657227 0.0005436539692214026 0.0 0.00166463744951309 0.0 0.0
-0.0008003675241458202 0.0003454309564797087 0.0 0.0017587531102175036 0.0 0.0
-0.00038879469276825035 5.8961193248219246e-05 0.0 0.0015892952088343015 0.0 0.0
-1.8801293936068775e-05 -0.0001954670825000948 0.0 0.0007836970561116707 0.0 0.0
-6.594395401446351e-05 -9.00437540418686e-05 0.0 -0.0005925465585293888 0.0 0.0
-0.00043515273672342647 0.00011018556987313355 0.0 -0.0013101111205934268 0.0 0.0
-0.0008943393983619763 0.0003861122573352027 0.0 -0.0014868887157887256 0.0 0.0
-0.0013322214301176027 0.0006000379985212634 0.0 -0.0013829557531760406 0.0 0.0
-0.0018501897770620834 0.0008801900544306296 0.0 -0.0012609421703316526 0.0 0.0
-0.002833271470073978 0.0015524178743252515 0.0 -0.0013794767740112346 0.0 0.0
-0.0046426340035538305 0.003019985690945637 0.0 -0.0019485760108417516 0.0 0.0
-0.007361963837314439 0.005431572789827088 0.0 -0.002951896763054185 0.0 0.0
-0.010923589421154678 0.008719557223644925 0.0 -0.0041926365110378505 0.0 0.0
-0.015273438008636342 0.01281303803932543 0.0 -0.005568448176245855 0.0 0.0
-0.020375540638300937 0.017669150383645693 0.0 -0.006961471880434222 0.0 0.0
-0.026271036186344077 0.02332321605203913 0.0 -0.00832532229044558 0.0 0.0
-0.03308008201258311 0.029894973872636843 0.0 -0.009740541497777366 0.0 0.0
-0.0409542845472462 0.03753272824520204 0.0 -0.01127052180207272 0.0 0.0
-0.049989285543366235 0.04632923342741435 0.0 -0.012909358990433661 0.0 0.0
-0.060055307951191184 0.056118055846135384 0.0 -0.014684009373608808 0.0 0.0
-0.07028424822197787 0.06595104255024031 0.0 -0.01710643770331688 0.0 0.0
-0.07825965235773984 0.07339380859968125 0.0 -0.021210415411052896 0.0 0.0
-0.07971629961696639 0.07425304537896338 0.0 -0.027364722078689674 0.0 0.0
-0.068878023165201 0.06283834316006898 0.0 -0.03457746467233841 0.0 0.0
-0.06887802316519605 0.06283834316006143 0.0 0.03457746467236855 0.0 0.0
-0.07971629961695055 0.07425304537894561 0.0 0.02736472207872448 0.0 0.0
-0.07825965235771373 0.07339380859965283 0.0 0.021210415411076655 0.0 0.0
-0.07028424822194489 0.06595104255020523 0.0 0.017106437703324484 0.0 0.0
-0.06005530795115308 0.05611805584610341 0.0 0.014684009373607726 0.0 0.0
-0.04998928554332747 0.04632923342737971 0.0 0.01290935899043158 0.0 0.0
-0.04095428454720682 0.03753272824516585 0.0 0.011270521802066724 0.0 0.0
-0.033080082012543456 0.029894973872601982 0.0 0.009740541497769678 0.0 0.0
-0.0262710361863047 0.023323216052001383 0.0 0.00832532229043606 0.0 0.0
-0.020375540638265147 0.017669150383613497 0.0 0.006961471880419845 0.0 0.0
-0.015273438008605499 0.012813038039295899 0.0 0.005568448176230922 0.0 0.0
-0.010923589421129969 0.008719557223619612 0.0 0.0041926365110291075 0.0 0.0
-0.007361963837295864 0.005431572789809547 0.0 0.002951896763046441 0.0 0.0
-0.004642634003541889 0.0030199856909328693 0.0 0.0019485760108375605 0.0 0.0
-0.002833271470067601 0.0015524178743197004 0.0 0.0013794767740079872 0.0 0.0
-0.0018501897770599116 0.0008801900544296304 0.0 0.0012609421703299872 0.0 0.0
-0.0013322214301166799 0.0006000379985223736 0.0 0.0013829557531758185 0.0 0.0
-0.0008943393983610187 0.00038611225733531374 0.0 0.0014868887157874489 0.0 0.0
-0.00043515273672292687 0.0001101855698726617 0.0 0.001310111120591928 0.0 0.0
-6.594395401424147e-05 -9.004375404197268e-05 0.0 0.00059254655852925 0.0 0.0
-9.855180974668865e-05 -1.1403158874406794e-05 0.0 -0.00039688295775727744 0.0 0.0
-0.0004734385414637554 0.00015747040430569292 0.0 -0.0009976356740945824 0.0 0.0
-0.000983525777766947 0.00042362028323900125 0.0 -0.0011599017689395974 0.0 0.0
-0.0014911887499572951 0.0006583529222000672 0.0 -0.0010556702153401432 0.0 0.0
-0.0021380405692793536 0.0010390955821437675 0.0 -0.0009402653061070521 0.0 0.0
-0.00341423260286422 0.001988490623495265 0.0 -0.0010972195806646101 0.0 0.0
-0.0055949879464606556 0.003844224524033102 0.0 -0.0016084087274482184 0.0 0.0
-0.008707935369061698 0.006671976191257256 0.0 -0.002415544602006825 0.0 0.0
-0.01276719807750809 0.01045618454730457 0.0 -0.003423478354111553 0.0 0.0
-0.01773807498401811 0.015159360336288286 0.0 -0.004545482844619642 0.0 0.0
-0.023604560177996448 0.02076095204579853 0.0 -0.0056871452996797855 0.0 0.0
-0.03042438034155348 0.027317115622390364 0.0 -0.006802751077831293 0.0 0.0
-0.03832509028955028 0.03495383437172617 0.0 -0.007967797636088902 0.0 0.0
-0.047436882726192064 0.04379908412873634 0.0 -0.009280838628592136 0.0 0.0
-0.057775823886760946 0.05386630104550649 0.0 -0.0106354584364593 0.0 0.0
-0.06911376238521183 0.06491026643463771 0.0 -0.01172112100788858 0.0 0.0
-0.08064147202804695 0.07605633665273981 0.0 -0.012773979936998914 0.0 0.0
-0.09006928702755644 0.08488729906334669 0.0 -0.015965263548677278 0.0 0.0
-0.09254585473395356 0.0866685442803683 0.0 -0.02411585012887002 0.0 0.0
-0.08114388969729891 0.07462024342341689 0.0 -0.037742713382522886 0.0 0.0
-0.08114388969729273 0.074620243423416 0.0 0.03774271338254709 0.0 0.0
-0.09254585473393487 0.08666854428035409 0.0 0.024115850128899774 0.0 0.0
-0.09006928702752612 0.08488729906332093 0.0 0.01596526354869987 0.0 0.0
-0.08064147202800864 0.07605633665270917 0.0 0.012773979937006075 0.0 0.0
-0.0691137623851689 0.06491026643459596 0.0 0.011721121007888496 0.0 0.0
-0.057775823886716975 0.053866301045463416 0.0 0.0106354584364583 0.0 0.0
-0.047436882726147184 0.043799084128692156 0.0 0.009280838628588362 0.0 0.0
-0.0383250902895052 0.034953834371683756 0.0 0.007967797636083407 0.0 0.0
-0.03042438034150896 0.027317115622347732 0.0 0.006802751077825159 0.0 0.0
-0.023604560177955907 0.020760952045758563 0.0 0.005687145299668128 0.0 0.0
-0.017738074983983505 0.015159360336255201 0.0 0.004545482844608428 0.0 0.0
-0.012767198077480005 0.01045618454727748 0.0 0.003423478354104448 0.0 0.0
-0.008707935369040257 0.006671976191237494 0.0 0.00241554460199922 0.0 0.0
-0.005594987946446101 0.0038442245240224437 0.0 0.0016084087274430003 0.0 0.0
-0.0034142326028564728 0.0019884906234887145 0.0 0.0010972195806614737 0.0 0.0
-0.00213804056927637 0.0010390955821403258 0.0 0.0009402653061061361 0.0 0.0
-0.001491188749956112 0.0006583529221991791 0.0 0.001055670215339144 0.0 0.0
-0.000983525777766045 0.00042362028323800205 0.0 0.0011599017689376823 0.0 0.0
-0.0004734385414630754 0.00015747040430585946 0.0 0.0009976356740928893 0.0 0.0
-9.855180974653252e-05 -1.1403158874134442e-05 0.0 0.00039688295775572313 0.0 0.0
-0.00011031429139801707 3.657521785585538e-05 0.0 -0.00020337812362974939 0.0 0.0
-0.0004950892255719264 0.0001950982314676275 0.0 -0.0006515209835276647 0.0 0.0
-0.0010686021569550341 0.000457872295755557 0.0 -0.000771192557208783 0.0 0.0
-0.0016578981085398903 0.0007242631424166923 0.0 -0.0006862179477822306 0.0 0.0
-0.002469630774316639 0.0012551329034170555 0.0 -0.0006100186543524788 0.0 0.0
-0.004056314164264108 0.0025064487554411485 0.0 -0.0007456474861301243 0.0 0.0
-0.006557318376873539 0.004710154940834377 0.0 -0.0011113775129263093 0.0 0.0
-0.010050969848561825 0.007925815888718102 0.0 -0.0016556104861397136 0.0 0.0
-0.01459490814537856 0.012193920178718232 0.0 -0.0023478146775633424 0.0 0.0
-0.02018236645992097 0.01750064820943309 0.0 -0.003131329237450464 0.0 0.0
-0.026817693525933967 0.02385073358294698 0.0 -0.003926041752040477 0.0 0.0
-0.03457265983329652 0.03131852350575537 0.0 -0.004703272763924071 0.0 0.0
-0.04357744503921043 0.04003250586241247 0.0 -0.005549186452506294 0.0 0.0
-0.053922251607414456 0.050078977510588096 0.0 -0.006494181247628239 0.0 0.0
-0.06552665484506898 0.0613722777593928 0.0 -0.007414347481350281 0.0 0.0
-0.0779939597819066 0.07351493206338233 0.0 -0.007971272339169277 0.0 0.0
-0.09045688552131959 0.08562481069300842 0.0 -0.007821399536849682 0.0 0.0
-0.1011351423812952 0.09580848899133931 0.0 -0.008711709610863871 0.0 0.0
-0.10560700773640176 0.09932760722736544 0.0 -0.01772548060416662 0.0 0.0
-0.09468154863884438 0.08758753409767106 0.0 -0.03984164995727951 0.0 0.0
-0.09468154863883667 0.08758753409765996 0.0 0.039841649957296055 0.0 0.0
-0.10560700773638017 0.09932760722734013 0.0 0.017725480604187605 0.0 0.0
-0.10113514238126034 0.09580848899130334 0.0 0.008711709610881357 0.0 0.0
-0.0904568855212755 0.08562481069296268 0.0 0.007821399536852236 0.0 0.0
-0.0779939597818587 0.07351493206333437 0.0 0.007971272339168112 0.0 0.0
-0.06552665484501935 0.061372277759345284 0.0 0.007414347481348976 0.0 0.0
-0.05392225160736427 0.05007897751053947 0.0 0.0064941812476256855 0.0 0.0
-0.043577445039159744 0.040032505862361845 0.0 0.005549186452500271 0.0 0.0
-0.0345726598332468 0.03131852350570474 0.0 0.0047032727639193805 0.0 0.0
-0.026817693525888794 0.023850733582904793 0.0 0.003926041752033038 0.0 0.0
-0.020182366459882434 0.017500648209397784 0.0 0.0031313292374428037 0.0 0.0
-0.01459490814534756 0.012193920178687367 0.0 0.0023478146775593733 0.0 0.0
-0.010050969848537792 0.007925815888695453 0.0 0.0016556104861357168 0.0 0.0
-0.006557318376856615 0.004710154940819833 0.0 0.0011113775129223957 0.0 0.0
-0.004056314164254343 0.002506448755434043 0.0 0.0007456474861277096 0.0 0.0
-0.0024696307743127966 0.001255132903414946 0.0 0.0006100186543523678 0.0 0.0
-0.0016578981085385146 0.0007242631424167478 0.0 0.000686217947781731 0.0 0.0
-0.0010686021569541685 0.0004578722957561676 0.0 0.0007711925572083667 0.0 0.0
-0.0004950892255712672 0.00019509823146779404 0.0 0.0006515209835276647 0.0 0.0
-0.00011031429139783666 3.657521785590569e-05 0.0 0.00020337812363016572 0.0 0.0
-8.989294778560808e-05 4.827678765653709e-05 0.0 -2.7904093101494e-05 0.0 0.0
-0.00048594320941267033 0.00021442386874337416 0.0 -0.00026546761469775637 0.0 0.0
-0.001152168441873297 0.0004884070914579763 0.0 -0.0003063699843263157 0.0 0.0
-0.001849863957202158 0.0008162096816346498 0.0 -0.00028185163797384005 0.0 0.0
-0.002859134351896775 0.0015283097853006078 0.0 -0.0002495822144372717 0.0 0.0
-0.004728961502827755 0.0030716024368608874 0.0 -0.0002998127747781132 0.0 0.0
-0.007521458588180735 0.005594469063484819 0.0 -0.0004534710915917728 0.0 0.0
-0.011377398922315152 0.009178404509936566 0.0 -0.0006742085010676968 0.0 0.0
-0.016393676460244422 0.013915170378619779 0.0 -0.0009736261350170583 0.0 0.0
-0.0225917003336068 0.019819246848938432 0.0 -0.0013254793087867922 0.0 0.0
-0.030002782670047745 0.026925608725415273 0.0 -0.0016828344324655298 0.0 0.0
-0.03870941821714913 0.035319391240105524 0.0 -0.002053128670007398 0.0 0.0
-0.048813063540575075 0.0451051071297337 0.0 -0.0024509777434287283 0.0 0.0
-0.06036844721004539 0.05633086661343478 0.0 -0.0028661603922817136 0.0 0.0
-0.0732138015854994 0.06882650603960494 0.0 -0.0032371943744999854 0.0 0.0
-0.0867606594480484 0.08200569102019539 0.0 -0.003346534457692063 0.0 0.0
-0.0999024797308172 0.09478207509173808 0.0 -0.0028252818812080083 0.0 0.0
-0.11105486862329667 0.10557295647177556 0.0 -0.0016318681495179899 0.0 0.0
-0.11762469265308809 0.1115733217281325 0.0 -0.0056373080615017 0.0 0.0
-0.11110752690578153 0.10293546516592134 0.0 -0.03677687180788508 0.0 0.0
-0.11110752690577283 0.10293546516591734 0.0 0.0367768718078908 0.0 0.0
-0.11762469265306386 0.11157332172811074 0.0 0.005637308061509916 0.0 0.0
-0.11105486862325621 0.10557295647173426 0.0 0.0016318681495257892 0.0 0.0
-0.09990247973076684 0.09478207509168746 0.0 0.0028252818812083136 0.0 0.0
-0.08676065944799521 0.08200569102014743 0.0 0.0033465344576930345 0.0 0.0
-0.07321380158544438 0.06882650603955387 0.0 0.003237194374500485 0.0 0.0
-0.06036844720998903 0.056330866613377495 0.0 0.0028661603922795487 0.0 0.0
-0.04881306354051908 0.04510510712967797 0.0 0.0024509777434263413 0.0 0.0
-0.03870941821709402 0.03531939124005268 0.0 0.002053128670006843 0.0 0.0
-0.030002782669997785 0.026925608725367756 0.0 0.0016828344324614497 0.0 0.0
-0.022591700333564568 0.019819246848897576 0.0 0.001325479308782851 0.0 0.0
-0.01639367646021063 0.013915170378585806 0.0 0.0009736261350163922 0.0 0.0
-0.011377398922288721 0.009178404509911031 0.0 0.0006742085010660037 0.0 0.0
-0.007521458588161577 0.005594469063466168 0.0 0.0004534710915894691 0.0 0.0
-0.0047289615028160235 0.0030716024368507844 0.0 0.00029981277477700297 0.0 0.0
-0.0028591343518920183 0.001528309785296833 0.0 0.00024958221443774353 0.0 0.0
-0.0018498639572006263 0.0008162096816350384 0.0 0.00028185163797403434 0.0 0.0
-0.0011521684418724356 0.0004884070914573102 0.0 0.0003063699843254275 0.0 0.0
-0.00048594320941190445 0.0002144238687430966 0.0 0.0002654676146967294 0.0 0.0
-8.989294778558119e-05 4.827678765663597e-05 0.0 2.7904093100633576e-05 0.0 0.0
SCALARS Statev float 8
LOOKUP_TABLE default
0.0 0.01044329741297426 0.00798343315180259 -0.008367633259015544 0.0003842001072129577 -0.0045257014150261 0.0 0.0
0.0 0.00036165313782369514 0.00022085992573403284 -0.000175484727966481 -4.537519776755191e-05 0.00023791154972744552 0.0 0.0
0.0 3.342380937738801e-05 -4.754075056001044e-06 3.773145031477424e-06 9.809300245235895e-07 5.62033213615258e-07 0.0 0.0
0.0 0.00012944048849585133 5.721703903871357e-05 -4.448911937118309e-05 -1.272791966753057e-05 -7.742886623440623e-06 0.0 0.0
0.0 0.0008599447957514767 0.0006238654496525228 -0.0005023903670359374 -0.00012147508261658581 -6.994904427509506e-05 0.0 0.0
0.0 0.0023576710724020344 0.0021677173666713703 -0.0018276418156436573 -0.0003400755510277134 -0.0001779498487372217 0.0 0.0
0.0 0.00518726013758858 0.00469367033392262 -0.004156840844662376 -0.0005368294892602448 -0.00033059942248040954 0.0 0.0
0.0 0.009322707313894509 0.008325403870337948 -0.007639025227806864 -0.0006863786425310818 -0.0005407392334617759 0.0 0.0
0.0 0.014837726917937858 0.013120850304197733 -0.012317696954105771 -0.0008031533500919561 -0.000823463393467651 0.0 0.0
0.0 0.02174992462568292 0.01909878106889131 -0.01818968455571155 -0.0009090965131797644 -0.001162179809350866 0.0 0.0
0.0 0.030125812947602103 0.026300554315091016 -0.025286855468306006 -0.0010136988467850092 -0.001516686005609417 0.0 0.0
0.0 0.039784428173417555 0.0348183060111109 -0.03369827438933934 -0.0011200316217715375 -0.0018905086428166545 0.0 0.0
0.0 0.05114672003463902 0.044749655935679825 -0.0435220815370205 -0.001227574398659285 -0.002288398074610183 0.0 0.0
0.0 0.06428520493178486 0.056159328406809685 -0.05482156277218147 -0.0013377656346281936 -0.0027102830773141026 0.0 0.0
0.0 0.079026399408029 0.06895207628177323 -0.06749943937234355 -0.0014526369094296594 -0.0031594823735396236 0.0 0.0
0.0 0.09492827704903546 0.08271429852383755 -0.08114239789425912 -0.0015719006295784664 -0.0035623122608546397 0.0 0.0
0.0 0.11102755705206975 0.09664004234542502 -0.09494797266116381 -0.0016920696842612586 -0.0037445342818489646 0.0 0.0
0.0 0.12596401196745918 0.10956734363921636 -0.10776026564114717 -0.0018070779980691597 -0.003470558106355207 0.0 0.0
0.0 0.1381265367431281 0.12010023532458533 -0.11818999888188927 -0.0019102364426960361 -0.0027533394172438467 0.0 0.0
0.0 0.14533757005302136 0.12648512814760202 -0.12445719936056861 -0.0020279287870333734 -0.0024355687836601614 0.0 0.0
0.0 0.14533757005301376 0.12648512814759516 -0.12445719936056217 -0.00202792878703296 0.002435568783663872 0.0 0.0
0.0 0.13812653674310438 0.12010023532456424 -0.11818999888186921 -0.001910236442695036 0.002753339417258934 0.0 0.0
0.0 0.12596401196741813 0.10956734363918035 -0.10776026564111243 -0.001807077998067885 0.0034705581063613515 0.0 0.0
0.0 0.11102755705201625 0.0966400423453783 -0.09494797266111796 -0.0016920696842603155 0.003744534281855099 0.0 0.0
0.0 0.09492827704897691 0.0827142985237866 -0.08114239789420884 -0.0015719006295777755 0.0035623122608478015 0.0 0.0
0.0 0.07902639940796927 0.06895207628172126 -0.06749943937229211 -0.0014526369094291411 0.003159482373540339 0.0 0.0
0.0 0.06428520493172277 0.056159328406755825 -0.05482156277212796 -0.0013377656346278475 0.00271028307731384 0.0 0.0
0.0 0.0511467200345762 0.044749655935625327 -0.04352208153696644 -0.001227574398658872 0.0022883980746102924 0.0 0.0
0.0 0.03978442817335952 0.03481830601106026 -0.033698274389289594 -0.00112003162177065 0.0018905086428124057 0.0 0.0
0.0 0.030125812947551366 0.026300554315046503 -0.025286855468262228 -0.0010136988467842642 0.0015166860056073938 0.0 0.0
0.0 0.021749924625639183 0.019098781068853217 -0.018189684555674122 -0.0009090965131790938 0.0011621798093463783 0.0 0.0
0.0 0.014837726917903641 0.013120850304167339 -0.012317696954076026 -0.0008031533500913161 0.0008234633934664458 0.0 0.0
0.0 0.009322707313870034 0.008325403870315724 -0.00763902522778535 -0.000686378642530372 0.0005407392334599708 0.0 0.0
0.0 0.0051872601375727335 0.004693670333907867 -0.004156840844648465 -0.0005368294892593995 0.00033059942247953757 0.0 0.0
0.0 0.0023576710723928573 0.002167717366662436 -0.0018276418156356895 -0.00034007555102674627 0.00017794984873641074 0.0 0.0
0.0 0.0008599447957468016 0.0006238654496488062 -0.0005023903670328671 -0.00012147508261593887 6.99490442747466e-05 0.0 0.0
0.0 0.00012944048849447372 5.721703903840618e-05 -4.448911937093587e-05 -1.2727919667470327e-05 7.742886623350033e-06 0.0 0.0
0.0 3.342380937687491e-05 -4.754075055922566e-06 3.7731450314146314e-06 9.80930024507978e-07 -5.620332136057866e-07 0.0 0.0
0.0 0.0003616531378217933 0.00022085992573308018 -0.00017548472796571327 -4.5375197767367144e-05 -0.0002379115497260952 0.0 0.0
0.0 0.010443297412958134 0.007983433151791682 -0.00836763325900362 0.0003842001072119364 0.004525701415002323 0.0 0.0
0.0 0.0074852640367219486 0.005363977898682051 -0.005841405182304557 0.0004774272836225046 -0.005079867664910994 0.0 0.0
0.0 0.0 0.0 0.0 0.0 0.0 0.0 0.0
0.0 9.430826945183483e-08 -1.020951514236367e-08 7.758883502814768e-09 2.450631639548195e-09 3.6392644398315674e-09 0.0 0.0
0.0 3.7640744171828074e-05 4.8861288844848805e-06 -3.808629962993979e-06 -1.0774989214911345e-06 -2.648568568718282e-06 0.0 0.0
0.0 0.0005240429993314723 0.0003298991865687613 -0.00026325614501677416 -6.66430415519871e-05 -9.01338039364082e-05 0.0 0.0
0.0 0.0017252527629361288 0.0015885567442275352 -0.0013194018670307616 -0.0002691548771967737 -0.0003519537396173156 0.0 0.0
0.0 0.004212589332792138 0.0038115274273617323 -0.0033304239966035674 -0.0004811034307581636 -0.0007445573405360991 0.0 0.0
0.0 0.007926580709554225 0.007075472474135177 -0.006428771687389397 -0.0006467007867457798 -0.0012699903703843464 0.0 0.0
0.0 0.012890598477733245 0.011400370240897293 -0.010629945634773976 -0.0007704246061233166 -0.0019348926910907809 0.0 0.0
0.0 0.019087883545053717 0.016772249516414303 -0.015896619719401622 -0.0008756297970126819 -0.002701442876049288 0.0 0.0
0.0 0.026530816152578813 0.023204457635397222 -0.022229248723454373 -0.0009752089119428378 -0.003499655292286267 0.0 0.0
0.0 0.035353855538815315 0.03077676165436527 -0.029703415932671198 -0.00107334572169408 -0.004294918692744933 0.0 0.0
0.0 0.04541789644710637 0.03962473203278566 -0.03845249551310999 -0.0011722365196756603 -0.005157446889265916 0.0 0.0
0.0 0.05711965654404062 0.04983310573026394 -0.048559547349946164 -0.0012735583803177542 -0.006119835374140158 0.0 0.0
0.0 0.07037149288763148 0.0613273015635688 -0.05994865942390515 -0.0013786421396636698 -0.0071339566153443435 0.0 0.0
0.0 0.08469258094259144 0.07375445682661075 -0.07226713797538685 -0.0014873188512238788 -0.008047255738587404 0.0 0.0
0.0 0.09927805030537917 0.08640742072131487 -0.08481032375091818 -0.0015970969703966592 -0.00849014171625741 0.0 0.0
0.0 0.11292525916597074 0.0982382637964766 -0.09653400163311679 -0.0017042621633597673 -0.008032258215406532 0.0 0.0
0.0 0.12401024426402972 0.1078625067082086 -0.1060510089595399 -0.0018114977486687533 -0.006619925440170379 0.0 0.0
0.0 0.13059399227561805 0.1135984094537964 -0.11170809813101545 -0.0018903113227809677 -0.0041687711216398735 0.0 0.0
0.0 0.13059399227560994 0.11359840945378938 -0.11170809813100815 -0.001890311322781213 0.00416877112165401 0.0 0.0
0.0 0.12401024426400722 0.10786250670818875 -0.10605100895952013 -0.001811497748668634 0.006619925440196845 0.0 0.0
0.0 0.11292525916593332 0.09823826379644361 -0.09653400163308443 -0.0017042621633591678 0.008032258215423565 0.0 0.0
0.0 0.0992780503053322 0.08640742072127366 -0.0848103237508776 -0.0015970969703960189 0.008490141716267854 0.0 0.0
0.0 0.08469258094253995 0.07375445682656606 -0.0722671379753429 -0.0014873188512231409 0.008047255738581297 0.0 0.0
0.0 0.07037149288757916 0.06132730156352322 -0.05994865942386022 -0.0013786421396629923 0.007133956615343239 0.0 0.0
0.0 0.057119656543986694 0.04983310573021709 -0.048559547349899784 -0.00127355838031727 0.006119835374138726 0.0 0.0
0.0 0.04541789644705262 0.03962473203273891 -0.038452495513063734 -0.0011722365196751747 0.0051574468892641254 0.0 0.0
0.0 0.03535385553876384 0.030776761654320365 -0.029703415932626917 -0.00107334572169344 0.004294918692738738 0.0 0.0
0.0 0.02653081615253134 0.02320445763535577 -0.022229248723413607 -0.0009752089119421613 0.0034996552922805985 0.0 0.0
0.0 0.019087883545015265 0.01677224951638048 -0.015896619719368517 -0.0008756297970119641 0.002701442876041208 0.0 0.0
0.0 0.01289059847770379 0.011400370240870837 -0.010629945634748178 -0.0007704246061226563 0.001934892691087134 0.0 0.0
0.0 0.007926580709531653 0.007075472474114851 -0.0064287716873698865 -0.0006467007867449658 0.0012699903703802297 0.0 0.0
0.0 0.004212589332777302 0.0038115274273479126 -0.0033304239965907196 -0.00048110343075719205 0.0007445573405335096 0.0 0.0
0.0 0.0017252527629279995 0.0015885567442201357 -0.001319401867024349 -0.00026915487719578646 0.00035195373961570295 0.0 0.0
0.0 0.000524042999327499 0.0003298991865660239 -0.00026325614501452834 -6.664304155149554e-05 9.013380393561383e-05 0.0 0.0
0.0 3.764074417122987e-05 4.8861288845822156e-06 -3.8086299630668934e-06 -1.0774989215151805e-06 2.6485685687490493e-06 0.0 0.0
0.0 9.430826938068039e-08 -1.0209515134588993e-08 7.758883496907494e-09 2.4506316376819497e-09 -3.6392644370560787e-09 0.0 0.0
0.0 0.0 0.0 0.0 0.0 0.0 0.0 0.0
0.0 0.00748526403670399 0.005363977898670121 -0.005841405182291792 0.0004774272836216722 0.005079867664890839 0.0 0.0
0.0 0.005519153575983915 0.003729969549516518 -0.00421107160473528 0.00048110205521876393 -0.0043565648011260035 0.0 0.0
0.0 0.0 0.0 0.0 0.0 0.0 0.0 0.0
0.0 0.0 0.0 0.0 0.0 0.0 0.0 0.0
0.0 4.485373157036814e-06 1.2083547744849113e-06 -9.39888312731428e-07 -2.684664617535039e-07 -8.830848674249577e-07 0.0 0.0
0.0 0.00023470199637864485 0.00014023495037414677 -0.00011094746137068895 -2.9287489003457745e-05 -6.964526875558906e-05 0.0 0.0
0.0 0.0013062519431989664 0.001034265700929402 -0.0008468057830902857 -0.0001874599178391152 -0.00040007169621653223 0.0 0.0
0.0 0.0032763122991491603 0.0029486835696548377 -0.002534890545189398 -0.00041379302446544 -0.0009855914640878828 0.0 0.0
0.0 0.0065500680583424386 0.005826972392240205 -0.005231193463590784 -0.0005957789286494172 -0.0017790241463671468 0.0 0.0
0.0 0.010974260921376048 0.009666314938687496 -0.008935934782284648 -0.0007303801564028478 -0.002753226888284602 0.0 0.0
0.0 0.016475857687779413 0.014426120951957486 -0.013589365303936172 -0.000836755648021312 -0.003857024161299686 0.0 0.0
0.0 0.02306453366331572 0.020094494713065836 -0.01916276985320648 -0.0009317248598593567 -0.005006834576967551 0.0 0.0
0.0 0.03072710623831987 0.02673962515248842 -0.02571696223127311 -0.0010226629212153045 -0.0061530735611884475 0.0 0.0
0.0 0.0397855853310778 0.03449405855904964 -0.033380963092157455 -0.0011130954668921887 -0.007357726465679341 0.0 0.0
0.0 0.0500442295198404 0.04347856953104234 -0.04227314185169907 -0.0012054276793432627 -0.008724499409230212 0.0 0.0
0.0 0.06173560924442327 0.05365311514978632 -0.05235271183085971 -0.0013004033189265992 -0.010204667911957732 0.0 0.0
0.0 0.07451766595426772 0.06473090675508826 -0.0633327395621692 -0.0013981671929190387 -0.01152741145998253 0.0 0.0
0.0 0.08762249346321752 0.07611827268210451 -0.07462076687115526 -0.0014975058109492115 -0.01222117359832044 0.0 0.0
0.0 0.09994847714929281 0.08687331867493711 -0.08527429371917167 -0.0015990249557654177 -0.011735285031214834 0.0 0.0
0.0 0.11001017977253824 0.09568598685814045 -0.0939911202706002 -0.0016948665875401658 -0.00964117457167186 0.0 0.0
0.0 0.11612836969611463 0.101086911191484 -0.09932569207371982 -0.001761219117764114 -0.005469963018406871 0.0 0.0
0.0 0.11612836969610726 0.1010869111914771 -0.09932569207371324 -0.0017612191177638393 0.005469963018430771 0.0 0.0
0.0 0.11001017977251928 0.09568598685812296 -0.09399112027058312 -0.0016948665875398236 0.009641174571706823 0.0 0.0
0.0 0.0999484771492629 0.08687331867490991 -0.08527429371914534 -0.0015990249557645043 0.011735285031239313 0.0 0.0
0.0 0.08762249346317823 0.07611827268206954 -0.07462076687112135 -0.0014975058109482123 0.012221173598331605 0.0 0.0
0.0 0.07451766595422321 0.06473090675504967 -0.0633327395621314 -0.001398167192918275 0.011527411459975071 0.0 0.0
0.0 0.06173560924437552 0.053653115149744794 -0.052352711830818605 -0.0013004033189262035 0.010204667911955425 0.0 0.0
0.0 0.05004422951979269 0.04347856953100076 -0.042273141851657994 -0.0012054276793427637 0.008724499409227933 0.0 0.0
0.0 0.03978558533103171 0.034494058559009236 -0.033380963092117855 -0.0011130954668913892 0.0073577264656758245 0.0 0.0
0.0 0.03072710623827501 0.026739625152449428 -0.025716962231234996 -0.0010226629212144297 0.006153073561179417 0.0 0.0
0.0 0.02306453366327463 0.02009449471302977 -0.019162769853170884 -0.0009317248598588837 0.005006834576959319 0.0 0.0
0.0 0.016475857687746624 0.014426120951928573 -0.013589365303907894 -0.0008367556480206746 0.0038570241612896003 0.0 0.0
0.0 0.010974260921349255 0.009666314938663748 -0.008935934782261542 -0.0007303801564022071 0.0027532268882783503 0.0 0.0
0.0 0.006550068058322284 0.005826972392222056 -0.005231193463573512 -0.0005957789286485449 0.0017790241463616105 0.0 0.0
0.0 0.0032763122991357405 0.0029486835696425065 -0.00253489054517817 -0.00041379302446433624 0.0009855914640841438 0.0 0.0
0.0 0.00130625194319155 0.0010342657009233438 -0.0008468057830851286 -0.00018745991783821427 0.0004000716962140573 0.0 0.0
0.0 0.00023470199637673467 0.00014023495037314017 -0.00011094746136987741 -2.9287489003262622e-05 6.964526875502475e-05 0.0 0.0
0.0 4.48537315675553e-06 1.2083547747612628e-06 -9.398883129454429e-07 -2.684664618158395e-07 8.830848676079358e-07 0.0 0.0
0.0 0.0 0.0 0.0 0.0 0.0 0.0 0.0
0.0 0.0 0.0 0.0 0.0 0.0 0.0 0.0
0.0 0.005519153575968231 0.0037299695495057435 -0.004211071604723687 0.00048110205521794406 0.004356564801108794 0.0 0.0
0.0 0.0040125733117461265 0.0025867888619745924 -0.00301893198063495 0.0004321431186603551 -0.0033387310201094715 0.0 0.0
0.0 0.0 0.0 0.0 0.0 0.0 0.0 0.0
0.0 0.0 0.0 0.0 0.0 0.0 0.0 0.0
0.0 1.7764958665315978e-06 -1.7819784007305854e-07 1.3787375697884427e-07 4.03240830942293e-08 1.8782013220909485e-07 0.0 0.0
0.0 8.407578663233206e-05 4.193821810014375e-05 -3.3042192767107554e-05 -8.896025333036078e-06 -3.4018178962816604e-05 0.0 0.0
0.0 0.0008127332928831625 0.0005975728904102248 -0.00048262243559740514 -0.00011495045481281973 -0.00035360183167585036 0.0 0.0
0.0 0.0024380451905506605 0.0021174113205621277 -0.0017879628459913522 -0.0003294484745707753 -0.001052751754860187 0.0 0.0
0.0 0.005213541463675591 0.0045945222939209026 -0.004062687093424972 -0.0005318352004959309 -0.0020593480261676808 0.0 0.0
0.0 0.009079877449779214 0.007934942062643148 -0.007255272304405842 -0.0006796697582373049 -0.0032709777432033 0.0 0.0
0.0 0.013881527101517263 0.012077761332189161 -0.011287487066664147 -0.0007902742655250077 -0.0046295984277245905 0.0 0.0
0.0 0.019599965696794897 0.016986906649126464 -0.016104343104062554 -0.0008825635450639104 -0.0060342721068317225 0.0 0.0
0.0 0.026270968993797116 0.022711525927323145 -0.021744122536446548 -0.0009674033908765921 -0.00743761969008685 0.0 0.0
0.0 0.03402136570631624 0.029382448718423153 -0.02833290493017787 -0.001049543788245285 -0.008920105351169853 0.0 0.0
0.0 0.04304353933781335 0.0371291877415018 -0.03599605973106078 -0.0011331280104410193 -0.010555484307592011 0.0 0.0
0.0 0.05330479250695225 0.04595781339721457 -0.04473985855899309 -0.001217954838221472 -0.01232281886393699 0.0 0.0
0.0 0.06434407125924012 0.0556657292006672 -0.05436140996855786 -0.0013043192321093345 -0.013969330704303382 0.0 0.0
0.0 0.07597354845740348 0.06576938062788516 -0.06437572701230741 -0.0013936536155777315 -0.014927069592134452 0.0 0.0
0.0 0.08704245767618676 0.07545648625229923 -0.07397104187372178 -0.0014854443785774654 -0.014486289152157229 0.0 0.0
0.0 0.09621609471688278 0.08357028476834133 -0.08199871463306485 -0.0015715701352764931 -0.01192055570211292 0.0 0.0
0.0 0.10202931362284659 0.0887956971425142 -0.08716376215751953 -0.0016319349849946419 -0.006530757476205589 0.0 0.0
0.0 0.10202931362283979 0.08879569714250773 -0.08716376215751326 -0.0016319349849944834 0.006530757476235296 0.0 0.0
0.0 0.09621609471686657 0.08357028476832562 -0.08199871463304959 -0.0015715701352760278 0.011920555702153696 0.0 0.0
0.0 0.08704245767616123 0.07545648625227536 -0.0739710418736986 -0.0014854443785767427 0.014486289152185739 0.0 0.0
0.0 0.07597354845737023 0.06576938062785531 -0.06437572701227806 -0.001393653615577264 0.01492706959214773 0.0 0.0
0.0 0.0643440712592018 0.05566572920063379 -0.0543614099685254 -0.001304319232108382 0.013969330704297588 0.0 0.0
0.0 0.05330479250691192 0.045957813397179456 -0.04473985855895874 -0.0012179548382207001 0.012322818863932161 0.0 0.0
0.0 0.04304353933777324 0.03712918774146672 -0.03599605973102635 -0.0011331280104403788 0.010555484307588046 0.0 0.0
0.0 0.03402136570627475 0.029382448718386946 -0.02833290493014195 -0.0010495437882449936 0.00892010535116489 0.0 0.0
0.0 0.026270968993757457 0.022711525927288537 -0.021744122536412426 -0.0009674033908761084 0.0074376196900765605 0.0 0.0
0.0 0.01959996569676024 0.016986906649095905 -0.016104343104032845 -0.0008825635450630675 0.006034272106821556 0.0 0.0
0.0 0.013881527101485915 0.012077761332162037 -0.011287487066637673 -0.000790274265524357 0.0046295984277115515 0.0 0.0
0.0 0.009079877449754675 0.007934942062621492 -0.007255272304384904 -0.0006796697582365856 0.003270977743195607 0.0 0.0
0.0 0.00521354146365853 0.004594522293905782 -0.004062687093410639 -0.0005318352004951415 0.0020593480261608607 0.0 0.0
0.0 0.002438045190540283 0.0021174113205530585 -0.0017879628459832775 -0.00032944847456978086 0.0010527517548562188 0.0 0.0
0.0 0.0008127332928776886 0.0005975728904064826 -0.0004826224355943139 -0.00011495045481216875 0.00035360183167361327 0.0 0.0
0.0 8.407578663096116e-05 4.193821809985794e-05 -3.304219276686607e-05 -8.896025332991954e-06 3.4018178962539265e-05 0.0 0.0
0.0 1.7764958662467406e-06 -1.7819784004332652e-07 1.3787375695581053e-07 4.032408308752122e-08 -1.8782013217738892e-07 0.0 0.0
0.0 0.0 0.0 0.0 0.0 0.0 0.0 0.0
0.0 0.0 0.0 0.0 0.0 0.0 0.0 0.0
0.0 0.004012573311732338 0.0025867888619655606 -0.0030189319806250892 0.000432143118659527 0.0033387310200958913 0.0 0.0
0.0 0.0028034410083011235 0.0017308154698787845 -0.0020846209830226088 0.0003538055131438253 -0.0023671730083900623 0.0 0.0
0.0 0.0 0.0 0.0 0.0 0.0 0.0 0.0
0.0 0.0 0.0 0.0 0.0 0.0 0.0 0.0
0.0 6.929946244958124e-08 -5.867089801559984e-09 4.478351496008589e-09 1.388738305550426e-09 8.798859195521545e-09 0.0 0.0
0.0 2.766893057924279e-05 9.207505913959285e-06 -7.322650903793215e-06 -1.8848550101660903e-06 -1.1709067346924753e-05 0.0 0.0
0.0 0.0004242070183597017 0.0002881508580250358 -0.0002303965074543556 -5.775435057068038e-05 -0.0002590433241288472 0.0 0.0
0.0 0.0017582198873466008 0.0013594247219561972 -0.0011258704582869606 -0.00023355426366923637 -0.0009485403415555744 0.0 0.0
0.0 0.00397455904127661 0.003386958919665742 -0.0029377721271800256 -0.00044918679248571585 -0.002070936393336407 0.0 0.0
0.0 0.007221617220887284 0.006223309899413924 -0.005608896321111527 -0.0006144135783023963 -0.00347771023201545 0.0 0.0
0.0 0.011329593128671657 0.009743211444292932 -0.009009795921805008 -0.0007334155224879241 -0.005008751113254603 0.0 0.0
0.0 0.016197478968160987 0.013896632969556432 -0.01307074612751461 -0.0008258868420418233 -0.00658440914089795 0.0 0.0
0.0 0.021824137228308883 0.018710744796723498 -0.017805006406736445 -0.0009057383899870574 -0.008150583746387453 0.0 0.0
0.0 0.028415913740585757 0.02430328045601657 -0.02332228168936347 -0.0009809987666531033 -0.009787290813920907 0.0 0.0
0.0 0.03593669673296302 0.030814780491641606 -0.029759489240765977 -0.001055291250875636 -0.01160686660158423 0.0 0.0
0.0 0.04465720655074558 0.038285908479190014 -0.03715577420009019 -0.001130134279099804 -0.013551963608655498 0.0 0.0
0.0 0.054395990249383255 0.046587014944339075 -0.04538076096640429 -0.0012062539779347627 -0.01535337806489412 0.0 0.0
0.0 0.0643598099928926 0.05536461433451185 -0.05408093522621024 -0.001283679108301588 -0.016523296659735676 0.0 0.0
0.0 0.07410446961642711 0.06397727309009417 -0.06261333707245967 -0.0013639360176344946 -0.016249313767703534 0.0 0.0
0.0 0.08248137819221055 0.07145837258937324 -0.07001719796055327 -0.001441174628819971 -0.01351856160790748 0.0 0.0
0.0 0.08811743824391814 0.07661339187191685 -0.0751145996276715 -0.0014987922442453025 -0.007407639250743177 0.0 0.0
0.0 0.0881174382439101 0.07661339187190938 -0.07511459962766351 -0.0014987922442458224 0.007407639250774036 0.0 0.0
0.0 0.08248137819219395 0.07145837258935715 -0.07001719796053668 -0.0014411746288204663 0.013518561607947314 0.0 0.0
0.0 0.07410446961640463 0.06397727309007262 -0.06261333707243831 -0.001363936017634295 0.0162493137677344 0.0 0.0
0.0 0.06435980999286589 0.05536461433448728 -0.05408093522618632 -0.0012836791083009605 0.01652329665974939 0.0 0.0
0.0 0.054395990249350906 0.04658701494431092 -0.045380760966376554 -0.0012062539779343566 0.015353378064889525 0.0 0.0
0.0 0.04465720655071009 0.03828590847915901 -0.037155774200059874 -0.0011301342790991287 0.013551963608649815 0.0 0.0
0.0 0.035936696732926945 0.03081478049161003 -0.02975948924073501 -0.0010552912508750313 0.011606866601579502 0.0 0.0
0.0 0.028415913740551843 0.024303280455986627 -0.02332228168933409 -0.0009809987666525221 0.009787290813915585 0.0 0.0
0.0 0.021824137228276 0.018710744796694847 -0.01780500640670838 -0.0009057383899864554 0.008150583746376823 0.0 0.0
0.0 0.01619747896813231 0.01389663296953158 -0.013070746127490495 -0.0008258868420410881 0.006584409140885956 0.0 0.0
0.0 0.01132959312864498 0.009743211444270532 -0.009009795921783224 -0.0007334155224873009 0.005008751113239986 0.0 0.0
0.0 0.007221617220866744 0.006223309899396074 -0.005608896321094394 -0.0006144135783016776 0.003477710232006454 0.0 0.0
0.0 0.003974559041261984 0.0033869589196532644 -0.0029377721271686566 -0.00044918679248460714 0.002070936393329125 0.0 0.0
0.0 0.0017582198873371652 0.0013594247219486494 -0.0011258704582804602 -0.00023355426366818954 0.000948540341550879 0.0 0.0
0.0 0.00042420701835599057 0.0002881508580227317 -0.0002303965074524959 -5.775435057023578e-05 0.00025904332412682253 0.0 0.0
0.0 2.7668930578387823e-05 9.207505913936322e-06 -7.322650903771251e-06 -1.8848550101649965e-06 1.1709067346886664e-05 0.0 0.0
0.0 6.92994622914334e-08 -5.86708978807203e-09 4.478351485713519e-09 1.3887383023585593e-09 -8.798859175293273e-09 0.0 0.0
0.0 0.0 0.0 0.0 0.0 0.0 0.0 0.0
0.0 0.0 0.0 0.0 0.0 0.0 0.0 0.0
0.0 0.002803441008290119 0.0017308154698718636 -0.002084620983014834 0.00035380551314296936 0.002367173008379832 0.0 0.0
0.0 0.0018129160273984836 0.0010814400341276186 -0.0013431381594124837 0.00026169812528486477 -0.001549001772718409 0.0 0.0
0.0 0.0 0.0 0.0 0.0 0.0 0.0 0.0
0.0 0.0 0.0 0.0 0.0 0.0 0.0 0.0
0.0 0.0 0.0 0.0 0.0 0.0 0.0 0.0
0.0 1.071207419853085e-05 -7.160970599954898e-07 5.508601513623887e-07 1.652369086331014e-07 1.3758936989216972e-06 0.0 0.0
0.0 0.00017562414550131253 0.00011721499261024989 -9.331150403921382e-05 -2.3903488571035975e-05 -0.0001632065684118793 0.0 0.0
0.0 0.001034129594528694 0.0007644116552707678 -0.000621704478090774 -0.00014270717717999336 -0.0007693953316046467 0.0 0.0
0.0 0.002821086643933858 0.0022562579907608083 -0.0019133875544909704 -0.0003428704362698385 -0.0018604090265494 0.0 0.0
0.0 0.00545965933554746 0.004544652657858999 -0.004016749141166408 -0.0005279035166925907 -0.003331573337459008 0.0 0.0
0.0 0.008832867924138772 0.00744168643082431 -0.006780893915901413 -0.0006607925149228976 -0.004978582994145271 0.0 0.0
0.0 0.01283175867417833 0.010841422509389742 -0.010084156092968515 -0.0007572664164212266 -0.006635923478390924 0.0 0.0
0.0 0.017454013096673215 0.01475478014686785 -0.013919390875993731 -0.0008353892708741217 -0.008276654998534801 0.0 0.0
0.0 0.022794281967649523 0.019282281542587557 -0.018377297144861762 -0.0009049843977258027 -0.009979831976951662 0.0 0.0
0.0 0.02901528894116092 0.024558767105821402 -0.02358767647590044 -0.000971090629920956 -0.011835036983963218 0.0 0.0
0.0 0.03623675554828452 0.030664258999383544 -0.029627932663614874 -0.001036326335768679 -0.013831096901083586 0.0 0.0
0.0 0.04410844811979746 0.03753854337620691 -0.03643684772054882 -0.001101695655658107 -0.01572239109573985 0.0 0.0
0.0 0.05273857582619994 0.044932408680477806 -0.043765273998621526 -0.001167134681856262 -0.01700272567645774 0.0 0.0
0.0 0.06127517246153076 0.05241802362968045 -0.051184168520502046 -0.0012338551091783906 -0.01693368957327198 0.0 0.0
0.0 0.06870968813689575 0.05927789977762139 -0.05797643645813535 -0.0013014633194860239 -0.014391356674772473 0.0 0.0
0.0 0.07424860013865484 0.06443585854419173 -0.06307745039162224 -0.0013584081525694978 -0.008108637406589387 0.0 0.0
0.0 0.07424860013865106 0.06443585854418726 -0.06307745039161826 -0.0013584081525690457 0.008108637406620009 0.0 0.0
0.0 0.06870968813688373 0.05927789977760839 -0.05797643645812257 -0.0013014633194858409 0.014391356674812481 0.0 0.0
0.0 0.0612751724615117 0.05241802362966144 -0.051184168520483145 -0.0012338551091783335 0.016933689573300763 0.0 0.0
0.0 0.05273857582617969 0.04493240868045864 -0.043765273998603166 -0.0011671346818554365 0.01700272567646984 0.0 0.0
0.0 0.044108448119771146 0.03753854337618408 -0.03643684772052662 -0.001101695655657434 0.015722391095735082 0.0 0.0
0.0 0.03623675554825417 0.030664258999357374 -0.029627932663588874 -0.0010363263357684967 0.013831096901076222 0.0 0.0
0.0 0.029015288941132988 0.024558767105796832 -0.023587676475876482 -0.0009710906299203542 0.011835036983957391 0.0 0.0
0.0 0.022794281967623654 0.01928228154256474 -0.018377297144839804 -0.0009049843977249379 0.009979831976946239 0.0 0.0
0.0 0.01745401309664664 0.014754780146845095 -0.013919390875971676 -0.0008353892708734167 0.008276654998524265 0.0 0.0
0.0 0.012831758674155895 0.01084142250937068 -0.010084156092950164 -0.0007572664164205132 0.00663592347837969 0.0 0.0
0.0 0.008832867924117326 0.00744168643080641 -0.006780893915884328 -0.0006607925149220797 0.004978582994131 0.0 0.0
0.0 0.005459659335530082 0.0045446526578441955 -0.0040167491411524595 -0.0005279035166917358 0.003331573337449114 0.0 0.0
0.0 0.0028210866439223664 0.0022562579907514342 -0.0019133875544825791 -0.00034287043626885454 0.0018604090265423407 0.0 0.0
0.0 0.0010341295945226088 0.0007644116552662904 -0.0006217044780870463 -0.00014270717717924393 0.000769395331600846 0.0 0.0
0.0 0.00017562414549948798 0.00011721499260960598 -9.331150403869445e-05 -2.3903488570911566e-05 0.00016320656841093501 0.0 0.0
0.0 1.0712074198019136e-05 -7.160970598863753e-07 5.508601512788279e-07 1.652369086075571e-07 -1.3758936987367078e-06 0.0 0.0
0.0 0.0 0.0 0.0 0.0 0.0 0.0 0.0
0.0 0.0 0.0 0.0 0.0 0.0 0.0 0.0
0.0 0.0 0.0 0.0 0.0 0.0 0.0 0.0
0.0 0.0018129160273901456 0.0010814400341226348 -0.0013431381594066704 0.0002616981252840356 0.0015490017727110535 0.0 0.0
0.0 0.0010644424476183184 0.0005966103130050553 -0.0007633133847424047 0.00016670307173734928 -0.0008958339773631363 0.0 0.0
0.0 0.0 0.0 0.0 0.0 0.0 0.0 0.0
0.0 0.0 0.0 0.0 0.0 0.0 0.0 0.0
0.0 0.0 0.0 0.0 0.0 0.0 0.0 0.0
0.0 4.579006995326501e-06 5.097908507270538e-07 -4.178306190459607e-07 -9.196023168109724e-08 -1.4615591534687077e-06 0.0 0.0
0.0 9.047299800667063e-05 3.488369565495374e-05 -2.7777081758943466e-05 -7.1066138960103155e-06 -7.299617625093441e-05 0.0 0.0
0.0 0.000520245676776777 0.00033995601699937617 -0.0002727440163489797 -6.721200065039646e-05 -0.0005188891403629951 0.0 0.0
0.0 0.0017452712526063881 0.00128619303688432 -0.0010638508069601544 -0.0002223422299241652 -0.001486243674137956 0.0 0.0
0.0 0.0037731462898999363 0.0029523283360314793 -0.0025430783912941193 -0.00040924994473736 -0.0028581003019946503 0.0 0.0
0.0 0.006408766838835203 0.005194721854596254 -0.0046329045638027365 -0.000561817290793517 -0.004490768728015266 0.0 0.0
0.0 0.00954376348350493 0.007841618486399908 -0.007173245661707893 -0.000668372824692015 -0.006170558718100651 0.0 0.0
0.0 0.013148674402383613 0.010865638963690704 -0.010115756787277937 -0.0007498821764127663 -0.007800813884283752 0.0 0.0
0.0 0.017315812169335365 0.014342799094364424 -0.013525866810486023 -0.0008169322838783943 -0.00946365510170381 0.0 0.0
0.0 0.022120802284942266 0.01839937656255001 -0.017522460903573137 -0.0008769156589768565 -0.011255645028770368 0.0 0.0
0.0 0.02774843330372878 0.023133179347726435 -0.022200647923651718 -0.0009325314240747082 -0.013168812416674532 0.0 0.0
0.0 0.03412917095820054 0.028551067815035056 -0.027562326597582964 -0.0009887412174520783 -0.014998906168433641 0.0 0.0
0.0 0.040987872905497 0.03451209533635348 -0.0334697771314754 -0.0010423182048780804 -0.01633724432432695 0.0 0.0
0.0 0.048096762748328914 0.04078407736107347 -0.039690714282404886 -0.0010933630786685883 -0.016530671914084968 0.0 0.0
0.0 0.05496956435816744 0.04695437909892792 -0.0458057600686893 -0.0011486190302386014 -0.014481853350337942 0.0 0.0
0.0 0.0605222573489511 0.052150015564819824 -0.05094353208230255 -0.0012064834825172683 -0.008611998276768265 0.0 0.0
0.0 0.060522257348948935 0.052150015564816986 -0.0509435320822996 -0.0012064834825173693 0.008611998276796635 0.0 0.0
0.0 0.05496956435815931 0.04695437909891792 -0.04580576006867919 -0.0011486190302387313 0.01448185335037747 0.0 0.0
0.0 0.04809676274831413 0.04078407736105754 -0.03969071428238915 -0.0010933630786683806 0.01653067191411345 0.0 0.0
0.0 0.040987872905475634 0.03451209533633338 -0.0334697771314556 -0.0010423182048777933 0.016337244324335906 0.0 0.0
0.0 0.034129170958176365 0.028551067815014305 -0.027562326597562546 -0.0009887412174517506 0.014998906168426685 0.0 0.0
0.0 0.027748433303704658 0.023133179347705965 -0.02220064792363146 -0.0009325314240745018 0.013168812416665975 0.0 0.0
0.0 0.02212080228492133 0.018399376562531822 -0.017522460903555238 -0.0008769156589765814 0.011255645028764957 0.0 0.0
0.0 0.017315812169314524 0.014342799094346407 -0.013525866810468207 -0.0008169322838781992 0.009463655101697782 0.0 0.0
0.0 0.013148674402360984 0.01086563896367175 -0.010115756787259286 -0.0007498821764124622 0.0078008138842724385 0.0 0.0
0.0 0.009543763483483826 0.007841618486382632 -0.00717324566169125 -0.0006683728246913791 0.006170558718087322 0.0 0.0
0.0 0.0064087668388171076 0.005194721854582016 -0.00463290456378929 -0.0005618172907927265 0.004490768728000791 0.0 0.0
0.0 0.003773146289886168 0.002952328336020597 -0.0025430783912841325 -0.00040924994473646385 0.0028581003019857508 0.0 0.0
0.0 0.0017452712525978498 0.0012861930368780116 -0.0010638508069547325 -0.0002223422299232794 0.0014862436741315348 0.0 0.0
0.0 0.0005202456767722953 0.0003399560169964821 -0.0002727440163466298 -6.721200064985213e-05 0.0005188891403592695 0.0 0.0
0.0 9.04729980048553e-05 3.488369565444118e-05 -2.7777081758520014e-05 -7.106613895921098e-06 7.299617624976739e-05 0.0 0.0
0.0 4.579006995180799e-06 5.097908509580147e-07 -4.1783061922849153e-07 -9.196023172952912e-08 1.461559154103662e-06 0.0 0.0
0.0 0.0 0.0 0.0 0.0 0.0 0.0 0.0
0.0 0.0 0.0 0.0 0.0 0.0 0.0 0.0
0.0 0.0 0.0 0.0 0.0 0.0 0.0 0.0
0.0 0.001064442447611806 0.0005966103130015483 -0.0007633133847381965 0.00016670307173664807 0.0008958339773576878 0.0 0.0
0.0 0.0005233977212815901 0.00026152921732679137 -0.0003465969104195848 8.506769309279354e-05 -0.0004092546065344516 0.0 0.0
0.0 1.266647607192392e-07 -7.072771973675951e-10 8.507483974345466e-10 -1.4347120006705642e-10 2.5171596720899338e-08 0.0 0.0
0.0 0.0 0.0 0.0 0.0 0.0 0.0 0.0
0.0 8.694762653476193e-07 -2.987712020632065e-08 2.159330647060148e-08 8.283813735721381e-09 1.7349073420562356e-07 0.0 0.0
0.0 3.4173130127352585e-06 3.492394993264987e-08 -3.329645510314198e-08 -1.6274948295213887e-09 -1.706777147196956e-07 0.0 0.0
0.0 5.2426188255116305e-05 1.5400513986950374e-05 -1.2139064355113488e-05 -3.2614496318368897e-06 -4.8650793409611844e-05 0.0 0.0
0.0 0.00024159499523962975 0.00011575329926650208 -9.221810085484069e-05 -2.3535198411661423e-05 -0.00029269667012443636 0.0 0.0
0.0 0.0008805767907732309 0.0005475266752916197 -0.0004417827592003674 -0.0001057439160912521 -0.0009866616394566977 0.0 0.0
0.0 0.002233450530498249 0.0015429096812544511 -0.0012867761343559184 -0.0002561335468985319 -0.002130034311249052 0.0 0.0
0.0 0.004040509950010559 0.003066370006343671 -0.002649672847566757 -0.00041669715877691365 -0.003573822758614262 0.0 0.0
0.0 0.006397061504509982 0.0049334080573576345 -0.004393202820861283 -0.0005402052364963499 -0.005126134787461966 0.0 0.0
0.0 0.008959767023395392 0.007075359628308316 -0.006443253281511803 -0.0006321063467965131 -0.0066675253965821305 0.0 0.0
0.0 0.011919239914516417 0.009522873234042354 -0.00881892863884544 -0.0007039445951969128 -0.008218063628863646 0.0 0.0
0.0 0.015387074568169117 0.012376141438243688 -0.011613666897057322 -0.0007624745411863627 -0.009836424405904194 0.0 0.0
0.0 0.019505895475533556 0.01574195827774253 -0.014929133538660792 -0.0008128247390817398 -0.01154447986544712 0.0 0.0
0.0 0.024202426540914534 0.019680461232138038 -0.018821518405436048 -0.0008589428267019874 -0.013209942366936001 0.0 0.0
0.0 0.02948354533127485 0.02415585867939539 -0.023251565664631685 -0.0009042930147637009 -0.014468661232603671 0.0 0.0
0.0 0.03502685355819223 0.029097610935033477 -0.028156629945085554 -0.0009409809899479069 -0.014879019662437144 0.0 0.0
0.0 0.040802539412489985 0.03442839566400721 -0.03345279284166179 -0.0009756028223454008 -0.013642907238852737 0.0 0.0
0.0 0.046243865554031906 0.03963901604751639 -0.03860622718975643 -0.0010327888577599652 -0.008870868589270045 0.0 0.0
0.0 0.04624386555403069 0.03963901604751392 -0.03860622718975425 -0.0010327888577596643 0.008870868589293718 0.0 0.0
0.0 0.04080253941248413 0.034428395663998884 -0.03345279284165338 -0.0009756028223455022 0.01364290723888627 0.0 0.0
0.0 0.03502685355818308 0.029097610935022354 -0.028156629945074618 -0.0009409809899477331 0.014879019662461395 0.0 0.0
0.0 0.029483545331261837 0.02415585867938263 -0.02325156566461945 -0.0009042930147631797 0.014468661232611202 0.0 0.0
0.0 0.02420242654089709 0.019680461232123442 -0.01882151840542179 -0.0008589428267016417 0.013209942366929312 0.0 0.0
0.0 0.019505895475516233 0.015741958277728296 -0.014929133538646996 -0.0008128247390812933 0.011544479865438525 0.0 0.0
0.0 0.015387074568154906 0.012376141438231498 -0.011613666897045636 -0.0007624745411858672 0.009836424405899715 0.0 0.0
0.0 0.01191923991450353 0.00952287323403117 -0.00881892863883469 -0.0007039445951964783 0.008218063628859594 0.0 0.0
0.0 0.008959767023380775 0.007075359628296428 -0.006443253281500529 -0.0006321063467958991 0.006667525396573006 0.0 0.0
0.0 0.006397061504495277 0.004933408057346142 -0.004393202820850454 -0.0005402052364956871 0.005126134787450734 0.0 0.0
0.0 0.004040509949997087 0.0030663700063338173 -0.0026496728475577263 -0.00041669715877609064 0.0035738227586024044 0.0 0.0
0.0 0.0022334505304892746 0.0015429096812478375 -0.0012867761343501477 -0.00025613354689769 0.002130034311241817 0.0 0.0
0.0 0.0008805767907673645 0.0005475266752876637 -0.00044178275919708686 -0.00010574391609057687 0.0009866616394510514 0.0 0.0
0.0 0.0002415949952377153 0.00011575329926584983 -9.221810085431355e-05 -2.3535198411536337e-05 0.00029269667012295296 0.0 0.0
0.0 5.2426188254241625e-05 1.540051398690265e-05 -1.2139064355078106e-05 -3.2614496318245243e-06 4.865079340945091e-05 0.0 0.0
0.0 3.4173130126033548e-06 3.492395009472518e-08 -3.329645523137542e-08 -1.627494863342837e-09 1.7067771542246667e-07 0.0 0.0
0.0 8.694762648168817e-07 -2.987712019000699e-08 2.1593306458356525e-08 8.283813731647456e-09 -1.7349073409897767e-07 0.0 0.0
0.0 0.0 0.0 0.0 0.0 0.0 0.0 0.0
0.0 1.2666476022059354e-07 -7.072771946710994e-10 8.50748394078545e-10 -1.4347119940746084e-10 -2.5171596621278046e-08 0.0 0.0
0.0 0.0005233977212773277 0.0002615292173249159 -0.00034659691041722535 8.506769309230956e-05 0.0004092546065314821 0.0 0.0
0.0 0.00016488030879628561 8.034677323246148e-05 -0.0001119862262929986 3.163945306053713e-05 -0.0001311087367656274 0.0 0.0
0.0 1.8030073051673429e-06 -4.177191184509683e-09 1.0378638774830307e-08 -6.201447590320216e-09 3.8291760625588695e-07 0.0 0.0
0.0 8.129603515550081e-07 -9.729788138728575e-10 -5.062304710215263e-10 1.479209284894036e-09 1.6676851108718092e-07 0.0 0.0
0.0 1.3942118126280809e-06 -1.7202479833820512e-08 1.1633862331670308e-08 5.568617502153395e-09 2.882879494068393e-07 0.0 0.0
0.0 4.076766415745482e-06 1.8230024666997268e-07 -1.2965578284495045e-07 -5.264446382502644e-08 -1.0393638812692488e-06 0.0 0.0
0.0 4.3504793319363396e-05 6.953626122474429e-06 -5.5194831266731695e-06 -1.434142995801265e-06 -4.0114612392419e-05 0.0 0.0
0.0 0.0001548031133314121 4.273242989530309e-05 -3.404861877119134e-05 -8.683811124111724e-06 -0.00019910994360567558 0.0 0.0
0.0 0.00038044504899037174 0.0001546387823844588 -0.00012316621897522103 -3.1472563409237734e-05 -0.000559068042631016 0.0 0.0
0.0 0.0009759607012168139 0.0004916282447593745 -0.00039560866339686976 -9.601958136250488e-05 -0.0012520345666690994 0.0 0.0
0.0 0.001990453708094219 0.0012070855052779756 -0.000996324246641754 -0.00021076125863622166 -0.0023077896351617016 0.0 0.0
0.0 0.0033318731719847337 0.00224014044311265 -0.0019049107150829092 -0.00033522972802974097 -0.0035486744800587323 0.0 0.0
0.0 0.004984805063338792 0.003469140687411394 -0.003030985757598904 -0.0004381549298124887 -0.004851248257399498 0.0 0.0
0.0 0.0068377974029752275 0.004894638679057269 -0.0043711913730415854 -0.0005234473060156816 -0.006217850788697321 0.0 0.0
0.0 0.009001394106373054 0.006570190931196303 -0.005977998618892985 -0.0005921923123033152 -0.007613329103346463 0.0 0.0
0.0 0.011559449395184806 0.008579247811072346 -0.00793269814746491 -0.0006465496636074353 -0.009048099230289474 0.0 0.0
0.0 0.014592192596764067 0.01101711070324046 -0.01032705972376502 -0.0006900509794754452 -0.010470912927022052 0.0 0.0
0.0 0.01817331033392887 0.013962068752122001 -0.013233158246881123 -0.0007289105052408842 -0.011648762074007163 0.0 0.0
0.0 0.022216325372539692 0.017475048082536138 -0.01670985099139147 -0.0007651970911446726 -0.01213986972566482 0.0 0.0
0.0 0.026877343207813962 0.02169850317981233 -0.020923592422125492 -0.0007749107576868406 -0.01166100577344904 0.0 0.0
0.0 0.032053715847474074 0.026749413465054817 -0.02593130548480335 -0.0008181079802514785 -0.008706818203699264 0.0 0.0
0.0 0.0320537158474729 0.02674941346505233 -0.025931305484800746 -0.000818107980251588 0.008706818203718613 0.0 0.0
0.0 0.026877343207811603 0.021698503179806847 -0.020923592422120052 -0.0007749107576867909 0.011661005773477803 0.0 0.0
0.0 0.02221632537253661 0.017475048082530198 -0.016709850991386097 -0.0007651970911441018 0.012139869725684416 0.0 0.0
0.0 0.0181733103339224 0.013962068752115144 -0.013233158246874953 -0.0007289105052401892 0.011648762074012147 0.0 0.0
0.0 0.014592192596754636 0.011017110703233501 -0.01032705972375856 -0.0006900509794749381 0.010470912927015512 0.0 0.0
0.0 0.011559449395174271 0.008579247811064467 -0.00793269814745733 -0.0006465496636071349 0.009048099230282129 0.0 0.0
0.0 0.009001394106363702 0.006570190931188765 -0.005977998618885618 -0.0005921923123031466 0.007613329103341941 0.0 0.0
0.0 0.0068377974029660855 0.004894638679049575 -0.004371191373034265 -0.0005234473060153105 0.00621785078869339 0.0 0.0
0.0 0.004984805063329631 0.0034691406874049215 -0.0030309857575930407 -0.00043815492981188163 0.004851248257391591 0.0 0.0
0.0 0.003331873171975245 0.002240140443106142 -0.0019049107150771365 -0.0003352297280290049 0.003548674480049842 0.0 0.0
0.0 0.001990453708085876 0.0012070855052729854 -0.0009963242466374492 -0.0002107612586355359 0.00230778963515265 0.0 0.0
0.0 0.000975960701213282 0.0004916282447573422 -0.00039560866339519727 -9.601958136214472e-05 0.001252034566665073 0.0 0.0
0.0 0.00038044504898853115 0.00015463878238380034 -0.00012316621897472685 -3.147256340907339e-05 0.0005590680426290682 0.0 0.0
0.0 0.00015480311333012083 4.273242989510617e-05 -3.404861877103286e-05 -8.68381112407331e-06 0.00019910994360474284 0.0 0.0
0.0 4.350479331864296e-05 6.95362612242864e-06 -5.5194831266358365e-06 -1.4341429957927887e-06 4.011461239215699e-05 0.0 0.0
0.0 4.076766415425373e-06 1.8230024673067222e-07 -1.2965578288925676e-07 -5.2644463841417294e-08 1.0393638817067341e-06 0.0 0.0
0.0 1.3942118121365584e-06 -1.7202479827439693e-08 1.1633862327329383e-08 5.568617500112952e-09 -2.8828794930130727e-07 0.0 0.0
0.0 8.12960351106587e-07 -9.729788137991681e-10 -5.062304704954294e-10 1.479209284295063e-09 -1.667685109932312e-07 0.0 0.0
0.0 1.8030073045943297e-06 -4.1771911826671024e-09 1.0378638770354691e-08 -6.201447587687759e-09 -3.8291760613307903e-07 0.0 0.0
0.0 0.00016488030879424056 8.034677323187685e-05 -0.00011198622629218813 3.163945306031121e-05 0.00013110873676483713 0.0 0.0
0.0 2.7839514505809978e-05 1.016908737866538e-05 -1.4728450115360439e-05 4.559362736695065e-06 -1.7784163308020062e-05 0.0 0.0
0.0 2.3409661729961703e-06 6.496376963596438e-10 1.3091562580591183e-08 -1.3741200276949575e-08 4.872012716183131e-07 0.0 0.0
0.0 8.28283976103979e-07 8.757322001854407e-09 -7.994197467743662e-09 -7.631245341108108e-10 1.6872916499049268e-07 0.0 0.0
0.0 1.0341171999299922e-06 3.4830124123105497e-09 -4.631541757330647e-09 1.1485293450206947e-09 2.129476539670559e-07 0.0 0.0
0.0 5.455561020512527e-06 -1.877319191668789e-08 9.400339741409076e-09 9.372852175272426e-09 1.2338249442580408e-06 0.0 0.0
0.0 3.918104302616849e-05 2.1561800192261885e-06 -1.6739297862745353e-06 -4.822502329516423e-07 -4.259193063716404e-05 0.0 0.0
0.0 0.00012916403016047947 1.3179398529189022e-05 -1.0463656167153403e-05 -2.7157423620356265e-06 -0.0001938103069278679 0.0 0.0
0.0 0.00030074038753844244 3.6598373631028885e-05 -2.9162055990517408e-05 -7.436317640511456e-06 -0.00042454627841880714 0.0 0.0
0.0 0.0005049457037728407 8.615184910551703e-05 -6.894704421603416e-05 -1.720480488948288e-05 -0.0007938416930135582 0.0 0.0
0.0 0.000869829814356496 0.00017276433950670994 -0.0001393087788911807 -3.345556061552922e-05 -0.0013093675513723274 0.0 0.0
0.0 0.0012765398789656185 0.0003425640846835167 -0.00027549807415573163 -6.706601052778517e-05 -0.0020710818156011532 0.0 0.0
0.0 0.0019190089407842789 0.0006068676259943029 -0.0004881428908092828 -0.00011872473518502008 -0.002977497529474308 0.0 0.0
0.0 0.0027071349193991388 0.0009516663440315557 -0.0007700051405550892 -0.0001816612034764666 -0.004028919547277457 0.0 0.0
0.0 0.003685014799788459 0.0013907821767410566 -0.0011427444095998246 -0.0002480377671412324 -0.005249091615628208 0.0 0.0
0.0 0.004902415664085024 0.002013235685061191 -0.0017034046243446877 -0.00030983106071650273 -0.006649290394633932 0.0 0.0
0.0 0.006441854990818945 0.002904730907518507 -0.002539656630875509 -0.0003650742766429953 -0.008123572558135074 0.0 0.0
0.0 0.008338802579271526 0.004254730747619931 -0.003840349163138203 -0.0004143815844817268 -0.009409288390324556 0.0 0.0
0.0 0.010687826709447566 0.006286685697725662 -0.005817258668591184 -0.00046942702913447686 -0.010010507587705832 0.0 0.0
0.0 0.01369897176715529 0.00916540639153694 -0.008649411551191402 -0.0005159948403455342 -0.009585037365630477 0.0 0.0
0.0 0.01804585892313292 0.013475647427335546 -0.012980664331828533 -0.000494983095507011 -0.008263614848869989 0.0 0.0
0.0 0.01804585892313566 0.013475647427336543 -0.01298066433182933 -0.0004949830955072059 0.008263614848883973 0.0 0.0
0.0 0.01369897176715768 0.009165406391535324 -0.008649411551189916 -0.0005159948403454051 0.009585037365653514 0.0 0.0
0.0 0.010687826709445401 0.006286685697722179 -0.005817258668587643 -0.00046942702913453063 0.010010507587715217 0.0 0.0
0.0 0.008338802579267592 0.004254730747616957 -0.003840349163135237 -0.000414381584481719 0.009409288390324492 0.0 0.0
0.0 0.006441854990815694 0.0029047309075179166 -0.0025396566308750505 -0.0003650742766428638 0.008123572558128487 0.0 0.0
0.0 0.004902415664080897 0.002013235685059416 -0.0017034046243431574 -0.00030983106071625786 0.006649290394628703 0.0 0.0
0.0 0.0036850147997848064 0.001390782176739224 -0.0011427444095982323 -0.0002480377671409919 0.0052490916156247205 0.0 0.0
0.0 0.0027071349193964886 0.0009516663440307314 -0.0007700051405544442 -0.000181661203476287 0.004028919547273593 0.0 0.0
0.0 0.001919008940779698 0.000606867625993101 -0.00048814289080825014 -0.00011872473518485071 0.0029774975294671584 0.0 0.0
0.0 0.00127653987896242 0.0003425640846828517 -0.00027549807415516773 -6.706601052768412e-05 0.0020710818155954547 0.0 0.0
0.0 0.0008698298143531847 0.00017276433950629425 -0.00013930877889082298 -3.34555606154713e-05 0.0013093675513676487 0.0 0.0
0.0 0.0005049457037713612 8.615184910529554e-05 -6.894704421588462e-05 -1.720480488941086e-05 0.0007938416930111822 0.0 0.0
0.0 0.0003007403875376094 3.659837363092921e-05 -2.9162055990438187e-05 -7.436317640490999e-06 0.00042454627841754383 0.0 0.0
0.0 0.00012916403015929279 1.3179398529083566e-05 -1.0463656167059816e-05 -2.7157423620237434e-06 0.0001938103069264273 0.0 0.0
0.0 3.918104302538495e-05 2.156180019208419e-06 -1.6739297862602e-06 -4.822502329482228e-07 4.259193063671729e-05 0.0 0.0
0.0 5.4555610200182124e-06 -1.87731919147807e-08 9.400339740515117e-09 9.372852174262189e-09 -1.2338249441362645e-06 0.0 0.0
0.0 1.0341171994111593e-06 3.4830124097744975e-09 -4.63154175459075e-09 1.1485293448161685e-09 -2.1294765385734702e-07 0.0 0.0
0.0 8.282839756553083e-07 8.757321996808003e-09 -7.99419746324245e-09 -7.631245335657651e-10 -1.687291648967851e-07 0.0 0.0
0.0 2.340966172321822e-06 6.496376968874008e-10 1.3091562575233056e-08 -1.3741200272117913e-08 -4.87201271473837e-07 0.0 0.0
0.0 2.783951450488519e-05 1.0169087378650765e-05 -1.4728450115338343e-05 4.559362736687527e-06 1.7784163308051765e-05 0.0 0.0
0.0 1.746363269014452e-06 -1.080716133846742e-07 1.601080298073669e-07 -5.203641642269867e-08 2.3480853834527648e-07 0.0 0.0
0.0 1.9028631458580495e-06 6.795419448546787e-09 4.3792250009357676e-09 -1.1174644449477697e-08 4.0529838982822875e-07 0.0 0.0
0.0 1.006612653282911e-06 1.8800037151531995e-08 -1.6160969127413305e-08 -2.6390680241173787e-09 2.0557945423080885e-07 0.0 0.0
0.0 1.4015521350056478e-06 2.2305962908681622e-08 -1.9985555445265962e-08 -2.320407463415533e-09 2.52159616680356e-07 0.0 0.0
0.0 7.369431445415703e-06 3.2635445829516716e-08 -9.19041274799017e-09 -2.3445033081517147e-08 -3.4139251566567206e-07 0.0 0.0
0.0 4.361017146822992e-05 -2.7691088385823364e-06 2.2760360681462985e-06 4.930727704360318e-07 -4.21562192571379e-05 0.0 0.0
0.0 0.000132341974439181 -1.3876255308280196e-05 1.1137043772615588e-05 2.739211535664599e-06 -0.00019481739255376723 0.0 0.0
0.0 0.0003015516311457531 -3.6601382079333745e-05 2.916138940479291e-05 7.439992674540771e-06 -0.0004250733614741528 0.0 0.0
0.0 0.0005045966345047628 -8.583112451157148e-05 6.867302288362392e-05 1.715810162794753e-05 -0.0007938937686495345 0.0 0.0
0.0 0.0008681810531683736 -0.0001721438479867465 0.00013869671931163502 3.344712867511155e-05 -0.0013074486119738975 0.0 0.0
0.0 0.001281023252774949 -0.00033869538834560076 0.0002730294562824216 6.56659320631791e-05 -0.0020666447257119782 0.0 0.0
0.0 0.0019225832534657734 -0.0006115686035990171 0.000492697518173721 0.00011887108542529614 -0.00297864685628556 0.0 0.0
0.0 0.002718249029890072 -0.0009687573554119365 0.0007855280628798937 0.00018322929253204246 -0.0040341894640360575 0.0 0.0
0.0 0.0037119088386695295 -0.0014244928736472607 0.0011722030594131258 0.00025228981423413427 -0.005256760860136276 0.0 0.0
0.0 0.00487631636700412 -0.0019796145809252816 0.001659761589521807 0.00031985299140347323 -0.006653447323410123 0.0 0.0
0.0 0.006136901484155863 -0.002474820337983178 0.0020928383827234524 0.0003819819552597234 -0.008175872531260418 0.0 0.0
0.0 0.0072364907813129925 -0.0026473102170967234 0.00221699817122309 0.000430312045873633 -0.009817220483389897 0.0 0.0
0.0 0.008008990058682811 -0.002214097703972258 0.001748162053735416 0.0004659356502368413 -0.011579227880676448 0.0 0.0
0.0 0.008340631857751241 -0.0011645132167481434 0.0007911280415141735 0.0003733851752339692 -0.013028318827814928 0.0 0.0
0.0 0.007889311438077242 0.0018383080072214514 -0.001929550407116869 9.12423998954173e-05 -0.01155970288934963 0.0 0.0
0.0 0.007889311438080509 0.001838308007221648 -0.0019295504071171932 9.124239989554566e-05 0.011559702889358661 0.0 0.0
0.0 0.008340631857754428 -0.0011645132167482219 0.0007911280415142806 0.00037338517523394005 0.013028318827824101 0.0 0.0
0.0 0.00800899005868261 -0.0022140977039727537 0.0017481620537363424 0.00046593565023641067 0.011579227880676998 0.0 0.0
0.0 0.007236490781308458 -0.0026473102170946347 0.0022169981712214498 0.00043031204587318505 0.009817220483385545 0.0 0.0
0.0 0.006136901484148796 -0.0024748203379791685 0.0020928383827197635 0.00038198195525940444 0.008175872531252699 0.0 0.0
0.0 0.004876316366999065 -0.0019796145809228226 0.0016597615895196842 0.00031985299140313756 0.0066534473234044645 0.0 0.0
0.0 0.0037119088386637286 -0.0014244928736439314 0.0011722030594102702 0.0002522898142336612 0.005256760860131469 0.0 0.0
0.0 0.0027182490298837793 -0.0009687573554084141 0.0007855280628770711 0.00018322929253134277 0.004034189464030655 0.0 0.0
0.0 0.0019225832534590522 -0.0006115686035955546 0.0004926975181708584 0.00011887108542469601 0.002978646856277442 0.0 0.0
0.0 0.0012810232527701608 -0.0003386953883436343 0.0002730294562808148 6.566593206281942e-05 0.0020666447257052904 0.0 0.0
0.0 0.0008681810531638054 -0.00017214384798567518 0.0001386967193106815 3.3447128674993634e-05 0.0013074486119681243 0.0 0.0
0.0 0.0005045966345030451 -8.583112451110695e-05 6.867302288323954e-05 1.7158101627867394e-05 0.000793893768647207 0.0 0.0
0.0 0.0003015516311443955 -3.660138207911085e-05 2.916138940460081e-05 7.439992674510007e-06 0.00042507336147260786 0.0 0.0
0.0 0.00013234197443793736 -1.3876255308206236e-05 1.1137043772571515e-05 2.7392115356347135e-06 0.0001948173925527122 0.0 0.0
0.0 4.361017146726131e-05 -2.7691088385449763e-06 2.2760360681173453e-06 4.930727704276424e-07 4.215621925657959e-05 0.0 0.0
0.0 7.369431444992968e-06 3.2635445801222785e-08 -9.190412720998273e-09 -2.344503308022842e-08 3.413925161526601e-07 0.0 0.0
0.0 1.4015521347620125e-06 2.2305962857356485e-08 -1.9985555402731084e-08 -2.3204074546249863e-09 -2.521596161626432e-07 0.0 0.0
0.0 1.0066126526757192e-06 1.8800037139368483e-08 -1.616096911716342e-08 -2.639068022204588e-09 -2.0557945410441137e-07 0.0 0.0
0.0 1.9028631450714174e-06 6.795419446720134e-09 4.37922499599115e-09 -1.1174644442706392e-08 -4.052983896639658e-07 0.0 0.0
0.0 1.7463632684856744e-06 -1.0807161335057875e-07 1.601080297566021e-07 -5.2036416406020456e-08 -2.3480853827189452e-07 0.0 0.0
0.0 0.0 0.0 0.0 0.0 0.0 0.0 0.0
0.0 3.3206270015814023e-07 3.228124362425176e-09 -1.4545472289870203e-09 -1.773577133437446e-09 6.641880132428198e-08 0.0 0.0
0.0 1.2916389456513122e-06 -7.374646572826582e-09 5.0347169919023295e-09 2.339929580923227e-09 -3.022929799549153e-08 0.0 0.0
0.0 4.433390297608247e-06 1.6015753021184142e-07 -1.3149237797340506e-07 -2.8665152238422848e-08 9.6169292488308e-07 0.0 0.0
0.0 1.0292586583084022e-05 -1.0160994345447732e-06 8.695185149336392e-07 1.4658091961114137e-07 -6.548568906078895e-06 0.0 0.0
0.0 5.225281758799643e-05 -1.0500897560753377e-05 8.390188297580525e-06 2.1107092631728165e-06 -5.5279111606896024e-05 0.0 0.0
0.0 0.00016293248798573463 -4.398780388082798e-05 3.517144612477921e-05 8.816357756048778e-06 -0.00020273946581002023 0.0 0.0
0.0 0.0003822966969629986 -0.00015505748728660395 0.00012350249403470385 3.155499325190008e-05 -0.0005607201921508733 0.0 0.0
0.0 0.0009732884507661414 -0.0004906223844287637 0.0003947172075184069 9.590517691035668e-05 -0.001250793300698528 0.0 0.0
0.0 0.0019873552388961647 -0.001205411231569665 0.0009948850721235257 0.00021052615944613872 -0.002305871308580414 0.0 0.0
0.0 0.003331877033269675 -0.0022405277138749227 0.0019056171798600499 0.0003349105340148727 -0.003548522150687444 0.0 0.0
0.0 0.004993263911089678 -0.003478288163058739 0.003040483069767759 0.00043780509329097975 -0.004851053906195377 0.0 0.0
0.0 0.006862868072052908 -0.004922505444703312 0.004399214859202899 0.0005232905855004101 -0.006207864077773771 0.0 0.0
0.0 0.009041492135734502 -0.006613026916678519 0.006017849406925015 0.0005951775097535049 -0.007597391901683821 0.0 0.0
0.0 0.0115347830963329 -0.008539895102507812 0.007881181032763569 0.0006587140697442396 -0.009092443962420772 0.0 0.0
0.0 0.01419610238603623 -0.01054893383629377 0.009832873106962355 0.0007160607293314133 -0.010787226820431728 0.0 0.0
0.0 0.016708173505989042 -0.012291737391788087 0.011523763333576279 0.0007679740582118094 -0.012732391533581522 0.0 0.0
0.0 0.018476561782677647 -0.013250425393549696 0.012441125254103359 0.000809300139446342 -0.014825000573320115 0.0 0.0
0.0 0.018084236629264103 -0.012464034244257334 0.011563697150112583 0.000900337094144749 -0.015648425854668375 0.0 0.0
0.0 0.013623752050428253 -0.008138986493159438 0.007199385454076151 0.0009396010390832834 -0.013084413129823029 0.0 0.0
0.0 0.013623752050435443 -0.008138986493161492 0.0071993854540781735 0.0009396010390833184 0.01308441312984046 0.0 0.0
0.0 0.01808423662927138 -0.012464034244258378 0.011563697150113786 0.0009003370941445902 0.015648425854693133 0.0 0.0
0.0 0.01847656178267241 -0.013250425393542452 0.012441125254096129 0.0008093001394463206 0.01482500057333303 0.0 0.0
0.0 0.016708173505977468 -0.0122917373917781 0.011523763333566507 0.0007679740582115915 0.01273239153357932 0.0 0.0
0.0 0.014196102386022405 -0.010548933836282666 0.009832873106951549 0.0007160607293311154 0.010787226820423556 0.0 0.0
0.0 0.011534783096321426 -0.008539895102498588 0.007881181032754802 0.000658714069743784 0.009092443962413935 0.0 0.0
0.0 0.009041492135723273 -0.0066130269166697776 0.0060178494069166675 0.0005951775097531104 0.007597391901676607 0.0 0.0
0.0 0.006862868072041049 -0.004922505444693432 0.004399214859193338 0.0005232905855000912 0.0062078640777675515 0.0 0.0
0.0 0.004993263911076567 -0.0034782881630490486 0.0030404830697586547 0.00043780509329039254 0.004851053906185598 0.0 0.0
0.0 0.0033318770332581467 -0.002240527713866818 0.0019056171798528527 0.0003349105340139647 0.0035485221506777985 0.0 0.0
0.0 0.0019873552388850486 -0.0012054112315623084 0.000994885072117205 0.00021052615944510298 0.002305871308569705 0.0 0.0
0.0 0.0009732884507606112 -0.0004906223844252038 0.00039471720751545637 9.590517690974729e-05 0.0012507933006926629 0.0 0.0
0.0 0.00038229669696131474 -0.0001550574872859006 0.00012350249403413882 3.155499325176179e-05 0.000560720192149041 0.0 0.0
0.0 0.00016293248798436786 -4.3987803880672326e-05 3.517144612466853e-05 8.816357756003744e-06 0.0002027394658093703 0.0 0.0
0.0 5.225281758667096e-05 -1.050089756064331e-05 8.39018829749039e-06 2.1107092631529083e-06 5.527911160629175e-05 0.0 0.0
0.0 1.0292586582766483e-05 -1.0160994346228735e-06 8.695185149989677e-07 1.4658091962388914e-07 6.54856890656303e-06 0.0 0.0
0.0 4.433390297146278e-06 1.6015753019507324e-07 -1.3149237795953612e-07 -2.8665152235533242e-08 -9.61692924777465e-07 0.0 0.0
0.0 1.2916389453892146e-06 -7.374646640322158e-09 5.034717046487889e-09 2.3399295938341458e-09 3.0229298482960843e-08 0.0 0.0
0.0 3.3206269971330245e-07 3.2281243589135146e-09 -1.4545472286881782e-09 -1.7735771302251563e-09 -6.64188012348373e-08 0.0 0.0
0.0 0.0 0.0 0.0 0.0 0.0 0.0 0.0
0.0 0.0 0.0 0.0 0.0 0.0 0.0 0.0
0.0 3.514827227909665e-07 4.949457227588909e-09 -3.035179226646225e-09 -1.914278000941817e-09 7.106311338534543e-08 0.0 0.0
0.0 2.3595770756542535e-06 8.103527067074457e-08 -6.628456757845172e-08 -1.4750703092293867e-08 4.821090557083344e-07 0.0 0.0
0.0 6.5906872819304125e-06 3.108815427979235e-07 -2.5702362177301864e-07 -5.385792102489637e-08 1.4093816020137892e-06 0.0 0.0
0.0 1.5576138680127523e-05 -2.6064249360319475e-06 2.0757158998426157e-06 5.307090361893448e-07 -8.995761138180765e-06 0.0 0.0
0.0 6.804991672529089e-05 -2.0885819744162566e-05 1.6772805808397752e-05 4.113013935764795e-06 -6.568790088410649e-05 0.0 0.0
0.0 0.0002544529119733162 -0.00011970200126952438 9.549873899790984e-05 2.4203262271614547e-05 -0.0003008266085701685 0.0 0.0
0.0 0.0008826591967759203 -0.0005480858107294382 0.000442286935173591 0.0001057988755558474 -0.0009885527237916988 0.0 0.0
0.0 0.002228415105794375 -0.0015402782757524837 0.0012843631944786773 0.00025591508127380556 -0.0021263828196339944 0.0 0.0
0.0 0.0040377051297605104 -0.003065103515862722 0.002648478427467247 0.0004166250883954738 -0.0035716166587805398 0.0 0.0
0.0 0.006398432526330442 -0.004934927243659032 0.004394917476313619 0.0005400097673454141 -0.005126153379978461 0.0 0.0
0.0 0.008966061461059155 -0.007082410047736807 0.006450950566741378 0.0006314594809954253 -0.00666142065278514 0.0 0.0
0.0 0.011931526908371907 -0.009543243423018983 0.008840223555717784 0.0007030198673011986 -0.008179815220719805 0.0 0.0
0.0 0.015403827714420117 -0.012409867621924024 0.0116457346360601 0.0007641329858639257 -0.009755564090868895 0.0 0.0
0.0 0.019475546172684093 -0.015714445224394486 0.014891533264535864 0.0008229119598586176 -0.011546334293866074 0.0 0.0
0.0 0.023909392601586567 -0.019302792067482373 0.018419930601902973 0.000882861465579393 -0.013772150423669872 0.0 0.0
0.0 0.02836360022278714 -0.022740408766369628 0.02179692080050634 0.0009434879658632798 -0.01661133282900901 0.0 0.0
0.0 0.03157742516948919 -0.025181307810194502 0.02415944223685716 0.001021865573337341 -0.019594791198892264 0.0 0.0
0.0 0.031905932690021344 -0.025058717951852296 0.02393821649246073 0.001120501459391574 -0.021091053994998096 0.0 0.0
0.0 0.025442290157206584 -0.019682672129311355 0.01838995476470802 0.0012927173646033333 -0.01763031351130236 0.0 0.0
0.0 0.025442290157211184 -0.01968267212931122 0.018389954764707492 0.0012927173646037227 0.01763031351132458 0.0 0.0
0.0 0.03190593269002262 -0.025058717951848043 0.023938216492456442 0.0011205014593915802 0.02109105399502666 0.0 0.0
0.0 0.03157742516948306 -0.025181307810185488 0.024159442236848794 0.001021865573336691 0.019594791198910347 0.0 0.0
0.0 0.028363600222774177 -0.02274040876635697 0.0217969208004945 0.0009434879658624773 0.01661133282901312 0.0 0.0
0.0 0.02390939260156495 -0.019302792067464273 0.018419930601885078 0.0008828614655791951 0.013772150423660902 0.0 0.0
0.0 0.019475546172664858 -0.015714445224378523 0.014891533264520163 0.0008229119598583523 0.01154633429385716 0.0 0.0
0.0 0.015403827714399602 -0.012409867621907099 0.011645734636043537 0.0007641329858635603 0.009755564090858454 0.0 0.0
0.0 0.011931526908350823 -0.009543243423000985 0.008840223555700341 0.0007030198673006385 0.00817981522071104 0.0 0.0
0.0 0.008966061461038042 -0.007082410047719458 0.0064509505667247275 0.0006314594809947269 0.006661420652773182 0.0 0.0
0.0 0.006398432526311594 -0.004934927243644164 0.004394917476299547 0.000540009767344617 0.005126153379964648 0.0 0.0
0.0 0.004037705129743909 -0.003065103515850303 0.0026484784274557 0.0004166250883946039 0.0035716166587670276 0.0 0.0
0.0 0.002228415105784974 -0.0015402782757453128 0.0012843631944723709 0.00025591508127294183 0.0021263828196266396 0.0 0.0
0.0 0.0008826591967712413 -0.0005480858107263229 0.0004422869351710937 0.0001057988755552293 0.0009885527237877216 0.0 0.0
0.0 0.00025445291197067244 -0.00011970200126863877 9.549873899719781e-05 2.4203262271440932e-05 0.0003008266085681213 0.0 0.0
0.0 6.804991672428334e-05 -2.0885819744315174e-05 1.6772805808514378e-05 4.11301393580075e-06 6.568790088437557e-05 0.0 0.0
0.0 1.55761386795651e-05 -2.60642493611439e-06 2.0757158999088215e-06 5.307090362055258e-07 8.995761138484536e-06 0.0 0.0
0.0 6.590687281374371e-06 3.1088154276881837e-07 -2.570236217490074e-07 -5.385792101982278e-08 -1.4093816018841068e-06 0.0 0.0
0.0 2.3595770750547986e-06 8.103527064889636e-08 -6.628456756069521e-08 -1.4750703088195763e-08 -4.821090555798598e-07 0.0 0.0
0.0 3.5148272258278746e-07 4.949457224581214e-09 -3.0351792247973143e-09 -1.914277999783761e-09 -7.106311334223886e-08 0.0 0.0
0.0 0.0 0.0 0.0 0.0 0.0 0.0 0.0
0.0 0.0 0.0 0.0 0.0 0.0 0.0 0.0
0.0 0.0 0.0 0.0 0.0 0.0 0.0 0.0
0.0 1.762862297087584e-06 7.425115861487428e-08 -6.029149643128876e-08 -1.3959662183589334e-08 3.448992119798501e-07 0.0 0.0
0.0 5.1516067258364184e-06 6.348939114114111e-08 -4.303837890396766e-08 -2.0451012237177232e-08 1.552410328999274e-07 0.0 0.0
0.0 2.1908610776995906e-05 -4.198507721218977e-06 3.434905806335812e-06 7.636019148831974e-07 -1.097894875692031e-05 0.0 0.0
0.0 0.00010696396388989658 -4.93307793873425e-05 3.937027997745797e-05 9.960499409884521e-06 -0.00010278838637712687 0.0 0.0
0.0 0.0005430503834865215 -0.00034679662606549504 0.0002788257803125679 6.79708457529273e-05 -0.0005308952257081518 0.0 0.0
0.0 0.0017442045734605827 -0.0012841630065381802 0.001062174007814694 0.00022198899872348583 -0.001484925797844747 0.0 0.0
0.0 0.0037677898601258773 -0.0029493046250072263 0.0025401403363343286 0.00040916428867289814 -0.0028528580643062008 0.0 0.0
0.0 0.006405652787223224 -0.005194946680866739 0.004633072217344966 0.0005618744635217713 -0.00448911948112308 0.0 0.0
0.0 0.009546532714742827 -0.007843966486636322 0.007175745987987 0.00066822049864932 -0.006171204925269711 0.0 0.0
0.0 0.013149738995693487 -0.010868274526384985 0.010118888665877273 0.0007493858605077087 -0.007790903419851352 0.0 0.0
0.0 0.017307848347146604 -0.014346288317371506 0.013530326125752015 0.0008159621916194873 -0.009402321921244162 0.0 0.0
0.0 0.02210163935108712 -0.0184075311360601 0.017530496138645744 0.0008770349974143539 -0.011105176017996089 0.0 0.0
0.0 0.027718123202710887 -0.02311986624287079 0.022181735899704996 0.0009381303431657777 -0.013085827945477715 0.0 0.0
0.0 0.034010438833511215 -0.028342626659573364 0.02733649878957515 0.0010061278699982138 -0.015680674386883753 0.0 0.0
0.0 0.04028847579039485 -0.033500336054288614 0.032413331001296265 0.0010870050529923365 -0.01911768518963391 0.0 0.0
0.0 0.045153620216883274 -0.03732929994431644 0.03614156686837999 0.0011877330759364172 -0.022865449005512718 0.0 0.0
0.0 0.04584161888632808 -0.037628835188361534 0.03630689450927007 0.0013219406790914486 -0.024972700861596125 0.0 0.0
0.0 0.03775364367149621 -0.03077978509902076 0.029262018966084734 0.0015177661329360266 -0.021894513525626547 0.0 0.0
0.0 0.03775364367149926 -0.030779785099019012 0.029262018966082944 0.001517766132936056 0.021894513525653022 0.0 0.0
0.0 0.045841618886328664 -0.03762883518835661 0.03630689450926565 0.001321940679090955 0.02497270086163003 0.0 0.0
0.0 0.04515362021687378 -0.0373292999443042 0.03614156686836832 0.0011877330759358655 0.022865449005536935 0.0 0.0
0.0 0.04028847579037567 -0.03350033605427038 0.03241333100127878 0.00108700505299159 0.019117685189640174 0.0 0.0
0.0 0.0340104388334862 -0.02834262665955162 0.027336498789554013 0.0010061278699976016 0.01568067438687747 0.0 0.0
0.0 0.02771812320268373 -0.023119866242847766 0.022181735899682076 0.0009381303431656849 0.013085827945468503 0.0 0.0
0.0 0.022101639351062546 -0.01840753113603944 0.017530496138625347 0.0008770349974140906 0.01110517601798584 0.0 0.0
0.0 0.017307848347121114 -0.014346288317349807 0.013530326125730437 0.0008159621916193702 0.009402321921235687 0.0 0.0
0.0 0.013149738995668079 -0.01086827452636354 0.010118888665856354 0.0007493858605071827 0.007790903419838744 0.0 0.0
0.0 0.00954653271471826 -0.00784396648661611 0.00717574598796746 0.0006682204986486507 0.00617120492525485 0.0 0.0
0.0 0.006405652787202106 -0.005194946680849761 0.004633072217328852 0.0005618744635209072 0.004489119481108066 0.0 0.0
0.0 0.003767789860110538 -0.002949304624995048 0.002540140336323239 0.0004091642886718091 0.0028528580642965236 0.0 0.0
0.0 0.001744204573451855 -0.0012841630065314313 0.0010621740078089886 0.00022198899872244242 0.0014849257978386556 0.0 0.0
0.0 0.0005430503834817719 -0.00034679662606254135 0.00027882578031020525 6.797084575233615e-05 0.000530895225704427 0.0 0.0
0.0 0.0001069639638882816 -4.933077938711961e-05 3.9370279977274306e-05 9.960499409845353e-06 0.00010278838637662882 0.0 0.0
0.0 2.1908610776100195e-05 -4.198507721295177e-06 3.4349058063968794e-06 7.636019148982535e-07 1.0978948757110898e-05 0.0 0.0
0.0 5.151606725355332e-06 6.348939101743949e-08 -4.303837880240621e-08 -2.0451012215043467e-08 -1.5524103248368238e-07 0.0 0.0
0.0 1.7628622966370727e-06 7.425115859493936e-08 -6.029149641515662e-08 -1.3959662179784548e-08 -3.4489921188806817e-07 0.0 0.0
0.0 0.0 0.0 0.0 0.0 0.0 0.0 0.0
0.0 0.0 0.0 0.0 0.0 0.0 0.0 0.0
0.0 0.0 0.0 0.0 0.0 0.0 0.0 0.0
0.0 0.0 0.0 0.0 0.0 0.0 0.0 0.0
0.0 6.301117771691601e-07 3.177133557320747e-08 -2.5610055499987776e-08 -6.161280073216576e-09 1.139376708674144e-07 0.0 0.0
0.0 7.479034888138472e-06 5.4592668232219e-07 -4.381286801518101e-07 -1.0779800217037303e-07 1.3945185929680183e-06 0.0 0.0
0.0 3.315797705992765e-05 -2.788282383480093e-06 2.274751390222123e-06 5.135309932579732e-07 -4.843621227931821e-06 0.0 0.0
0.0 0.00021708214563548827 -0.00013405151355325132 0.0001072470824166038 2.6804431136647538e-05 -0.00018703650401221008 0.0 0.0
0.0 0.0010518375063524007 -0.0007694098867177584 0.0006267762311330339 0.00014263365558472445 -0.0007805368091799061 0.0 0.0
0.0 0.0028175237965024124 -0.0022522698160451792 0.0019098594888980192 0.00034241032714715943 -0.0018571028155581078 0.0 0.0
0.0 0.00545577435344813 -0.004542699238669059 0.004014644076411524 0.0005280551622575375 -0.003325014357772808 0.0 0.0
0.0 0.008834276520723957 -0.007443388498960568 0.006782505663800131 0.0006608828351604334 -0.004976756122934068 0.0 0.0
0.0 0.012834601218345197 -0.010844075448078852 0.010086878558834344 0.0007571968892445047 -0.006635733658839697 0.0 0.0
0.0 0.01744835964563362 -0.0147516035678913 0.01391635976678253 0.0008352438011087717 -0.008263902907797405 0.0 0.0
0.0 0.022761248945866803 -0.019262836397933823 0.01835855282897694 0.0009042835689568739 -0.00990686456223339 0.0 0.0
0.0 0.028952348028581237 -0.024527277022061252 0.02355793236123371 0.0009693446608275357 -0.011642585173081947 0.0 0.0
0.0 0.03620508106824863 -0.03065626897198999 0.02962039691135559 0.0010358720606344 -0.013661834013651172 0.0 0.0
0.0 0.04415801037292186 -0.0375156599191101 0.03640194764853115 0.0011137122705789358 -0.01631137067213196 0.0 0.0
0.0 0.052448826455422766 -0.04436644501510125 0.043152516635832805 0.0012139283792684625 -0.01988429478718602 0.0 0.0
0.0 0.05880582442086986 -0.0495135578440532 0.04817162842099469 0.0013419294230585192 -0.024053065894833553 0.0 0.0
0.0 0.059723144623943916 -0.05004280039119226 0.048540553670651805 0.001502246720540436 -0.026996238712759767 0.0 0.0
0.0 0.05010830515051905 -0.04163432584986275 0.03994179020214495 0.0016925356477177846 -0.025806393559311056 0.0 0.0
0.0 0.05010830515052284 -0.041634325849861584 0.039941790202144216 0.0016925356477173576 0.025806393559339835 0.0 0.0
0.0 0.059723144623939226 -0.050042800391183355 0.04854055367064322 0.0015022467205401424 0.026996238712795342 0.0 0.0
0.0 0.05880582442085249 -0.04951355784403505 0.04817162842097627 0.001341929423058781 0.02405306589485877 0.0 0.0
0.0 0.05244882645539653 -0.04436644501507733 0.04315251663580885 0.0012139283792684569 0.019884294787192582 0.0 0.0
0.0 0.04415801037288769 -0.0375156599190805 0.036401947648501895 0.0011137122705785838 0.016311370672125167 0.0 0.0
0.0 0.03620508106821556 -0.030656268971961307 0.029620396911327354 0.0010358720606339596 0.013661834013643492 0.0 0.0
0.0 0.028952348028550307 -0.024527277022034576 0.023557932361207668 0.0009693446608269029 0.01164258517307149 0.0 0.0
0.0 0.02276124894583614 -0.019262836397906966 0.018358552828950922 0.0009042835689560395 0.009906864562225311 0.0 0.0
0.0 0.0174483596456017 -0.01475160356786386 0.013916359766755534 0.0008352438011083252 0.008263902907785517 0.0 0.0
0.0 0.012834601218314711 -0.01084407544805328 0.010086878558809145 0.0007571968892441333 0.006635733658824033 0.0 0.0
0.0 0.008834276520696679 -0.007443388498937622 0.006782505663777735 0.0006608828351598859 0.004976756122917715 0.0 0.0
0.0 0.005455774353428248 -0.0045426992386523556 0.0040146440763956185 0.0005280551622567384 0.0033250143577621552 0.0 0.0
0.0 0.002817523796490383 -0.002252269816035302 0.0019098594888891773 0.00034241032714612505 0.001857102815551283 0.0 0.0
0.0 0.001051837506345462 -0.0007694098867127585 0.0006267762311289196 0.00014263365558383874 0.0007805368091754288 0.0 0.0
0.0 0.00021708214563294614 -0.0001340515135521905 0.00010724708241575422 2.6804431136436308e-05 0.0001870365040108823 0.0 0.0
0.0 3.315797705905203e-05 -2.7882823836655445e-06 2.2747513903638005e-06 5.135309933016427e-07 4.84362122822937e-06 0.0 0.0
0.0 7.479034887487536e-06 5.459266822702636e-07 -4.3812868011058e-07 -1.0779800215968128e-07 -1.3945185928411796e-06 0.0 0.0
0.0 6.301117768796378e-07 3.177133555832444e-08 -2.5610055487985994e-08 -6.161280070339225e-09 -1.1393767081387647e-07 0.0 0.0
0.0 0.0 0.0 0.0 0.0 0.0 0.0 0.0
0.0 0.0 0.0 0.0 0.0 0.0 0.0 0.0
0.0 0.0 0.0 0.0 0.0 0.0 0.0 0.0
0.0 0.0 0.0 0.0 0.0 0.0 0.0 0.0
0.0 0.0 0.0 0.0 0.0 0.0 0.0 0.0
0.0 3.241628952765024e-06 2.6053331691204254e-07 -2.0807629639336721e-07 -5.2457020518637325e-08 5.164519678466237e-07 0.0 0.0
0.0 5.030375381576556e-05 -1.8607037507522804e-05 1.4838254224840138e-05 3.768783282682676e-06 -2.472977273997199e-05 0.0 0.0
0.0 0.0004539230663490666 -0.0003110880796615426 0.00024972300418513556 6.136507547640728e-05 -0.00029039530573450763 0.0 0.0
0.0 0.001767380939714288 -0.0013604525309276563 0.0011278137674454445 0.00023263876348221134 -0.000959172681121041 0.0 0.0
0.0 0.003970368418752686 -0.0033833479336363723 0.002934297684220717 0.00044905024941565495 -0.002064175875619609 0.0 0.0
0.0 0.007220709132320442 -0.006223446948466195 0.005608751761024778 0.0006146951874414154 -0.0034713678767010693 0.0 0.0
0.0 0.011332629018303923 -0.009746107796355874 0.009012634972731982 0.0007334728236238974 -0.005007461613224985 0.0 0.0
0.0 0.016199510576113695 -0.01389871197232908 0.013072799809297982 0.0008259121630310934 -0.006582905627801086 0.0 0.0
0.0 0.02181054801491087 -0.01870079948958332 0.017794873099855966 0.000905926389727337 -0.008134564180008248 0.0 0.0
0.0 0.028358713137241198 -0.02426048584828314 0.023279873423282263 0.0009806124250008722 -0.00971640102243254 0.0 0.0
0.0 0.035830908595038576 -0.030739264426608365 0.02968721093245695 0.0010520534941514093 -0.011421899108980069 0.0 0.0
0.0 0.044602612810772484 -0.03825786685545908 0.037133362799053396 0.0011245040564056826 -0.013318919694994338 0.0 0.0
0.0 0.054537921260055765 -0.046689353715879095 0.045477512462139734 0.001211841253739364 -0.01565329204824304 0.0 0.0
0.0 0.06436726608830237 -0.055181943677291415 0.05385235836469961 0.001329585312591788 -0.018918308478291835 0.0 0.0
0.0 0.07200964608864308 -0.06161057156774293 0.06012678518947965 0.001483786378263279 -0.023216981455437224 0.0 0.0
0.0 0.07332542963880798 -0.0623796676933928 0.06071758327508811 0.0016620844183046681 -0.02744982932539966 0.0 0.0
0.0 0.06274067657524472 -0.05256013735295893 0.05071084724470833 0.0018492901082505714 -0.02959111572700031 0.0 0.0
0.0 0.06274067657524501 -0.05256013735295551 0.05071084724470442 0.0018492901082510517 0.029591115727029552 0.0 0.0
0.0 0.0733254296387969 -0.06237966769337959 0.060717583275074205 0.0016620844183053596 0.027449829325435042 0.0 0.0
0.0 0.0720096460886213 -0.06161057156772137 0.060126785189458146 0.001483786378263201 0.02321698145546367 0.0 0.0
0.0 0.06436726608827287 -0.055181943677264436 0.05385235836467368 0.0013295853125907622 0.018918308478299804 0.0 0.0
0.0 0.05453792126001768 -0.04668935371584594 0.045477512462106906 0.0012118412537390128 0.01565329204823949 0.0 0.0
0.0 0.0446026128107349 -0.03825786685542627 0.037133362799021005 0.0011245040564052571 0.013318919694989665 0.0 0.0
0.0 0.03583090859500145 -0.03073926442657611 0.02968721093242515 0.001052053494150963 0.01142189910897199 0.0 0.0
0.0 0.028358713137202736 -0.024260485848249535 0.023279873423248963 0.0009806124250005606 0.009716401022424052 0.0 0.0
0.0 0.021810548014872075 -0.018700799489549544 0.017794873099822753 0.0009059263897267847 0.008134564179996863 0.0 0.0
0.0 0.016199510576079157 -0.013898711972299398 0.013072799809269058 0.0008259121630303378 0.006582905627786297 0.0 0.0
0.0 0.011332629018274547 -0.009746107796330665 0.009012634972707633 0.0007334728236230289 0.005007461613210749 0.0 0.0
0.0 0.0072207091322987185 -0.00622344694844717 0.005608751761006774 0.0006146951874403938 0.0034713678766913896 0.0 0.0
0.0 0.003970368418736832 -0.003383347933622515 0.0029342976842080823 0.0004490502494144315 0.002064175875612364 0.0 0.0
0.0 0.0017673809397039774 -0.001360452530919461 0.00112781376743835 0.0002326387634811111 0.0009591726811154521 0.0 0.0
0.0 0.0004539230663449425 -0.00031108807965898275 0.00024972300418306804 6.136507547591459e-05 0.0002903953057322381 0.0 0.0
0.0 5.030375381483028e-05 -1.860703750769274e-05 1.4838254224963103e-05 3.7687832827296528e-06 2.4729772740108534e-05 0.0 0.0
0.0 3.2416289522024286e-06 2.6053331686397295e-07 -2.080762963552667e-07 -5.245702050872393e-08 -5.164519677547741e-07 0.0 0.0
0.0 0.0 0.0 0.0 0.0 0.0 0.0 0.0
0.0 0.0 0.0 0.0 0.0 0.0 0.0 0.0
0.0 0.0 0.0 0.0 0.0 0.0 0.0 0.0
0.0 0.0 0.0 0.0 0.0 0.0 0.0 0.0
0.0 0.0 0.0 0.0 0.0 0.0 0.0 0.0
0.0 0.0 0.0 0.0 0.0 0.0 0.0 0.0
0.0 3.1423993679715253e-06 -1.0602037218607407e-07 8.055157692895039e-08 2.5468795257141758e-08 -1.0991794564632442e-07 0.0 0.0
0.0 9.903228902939857e-05 -5.034501463630114e-05 4.036768784148164e-05 9.977326794819627e-06 -4.8731651001736396e-05 0.0 0.0
0.0 0.0008328062083468162 -0.0006022805205107283 0.00048817407664721745 0.00011410644386351132 -0.00037864533533130145 0.0 0.0
0.0 0.0024385664156778997 -0.002115448947848755 0.00178688326072013 0.0003285656871286261 -0.0010589128397622864 0.0 0.0
0.0 0.005213675086043936 -0.004594376801696908 0.004062224661768938 0.0005321521399279701 -0.002051048164518164 0.0 0.0
0.0 0.009082519673767676 -0.007937394974825093 0.007257479027558102 0.0006799159472669887 -0.0032656833062993285 0.0 0.0
0.0 0.013885533103872551 -0.012081264578490535 0.01129093190106434 0.0007903326774261954 -0.004628736915376854 0.0 0.0
0.0 0.019599684254031365 -0.01698706535086465 0.0161043848498326 0.0008826805010320467 -0.006030735927847912 0.0 0.0
0.0 0.02624887167433237 -0.022694086081036412 0.021726341515406866 0.0009677445656295295 -0.007418772639325945 0.0 0.0
0.0 0.033946266107974646 -0.02932138796388102 0.028272145299871185 0.0010492426640098182 -0.008862398944709785 0.0 0.0
0.0 0.042905414084504004 -0.037017362765213044 0.03588775907837541 0.0011296036868376383 -0.010420610797316193 0.0 0.0
0.0 0.053193974794340175 -0.04587612663038541 0.044666165381524826 0.0012099612488605735 -0.012087352990972347 0.0 0.0
0.0 0.0644417657363961 -0.05575946026167761 0.054457277745601655 0.0013021825160759166 -0.013878649639071577 0.0 0.0
0.0 0.07605726603048597 -0.06577744751329923 0.06434448512696735 0.0014329623863318765 -0.016277043685009884 0.0 0.0
0.0 0.0851765390057591 -0.07352391405731315 0.07191400815512404 0.0016099059021890843 -0.02030655987114301 0.0 0.0
0.0 0.08710337493263443 -0.0747807738559877 0.07297123724152269 0.0018095366144650297 -0.02633535794155485 0.0 0.0
0.0 0.07568686196718 -0.06385288346770167 0.061850607385606916 0.0020022760820947077 -0.033258981453851144 0.0 0.0
0.0 0.07568686196717733 -0.06385288346769571 0.06185060738560088 0.0020022760820948417 0.0332589814538791 0.0 0.0
0.0 0.08710337493261877 -0.07478077385597127 0.07297123724150612 0.0018095366144651854 0.02633535794158711 0.0 0.0
0.0 0.08517653900572983 -0.07352391405728606 0.07191400815509703 0.0016099059021889382 0.020306559871166516 0.0 0.0
0.0 0.07605726603044763 -0.06577744751326534 0.06434448512693379 0.001432962386331537 0.01627704368501637 0.0 0.0
0.0 0.06444176573635609 -0.05575946026164229 0.05445727774556743 0.00130218251607481 0.013878649639070654 0.0 0.0
0.0 0.05319397479429827 -0.045876126630348645 0.04466616538148896 0.001209961248859672 0.01208735299096952 0.0 0.0
0.0 0.04290541408446069 -0.037017362765175414 0.03588775907833849 0.0011296036868368978 0.01042061079730917 0.0 0.0
0.0 0.033946266107932076 -0.029321387963843874 0.02827214529983481 0.0010492426640090647 0.008862398944702218 0.0 0.0
0.0 0.026248871674288726 -0.02269408608099816 0.021726341515369237 0.0009677445656289325 0.0074187726393167355 0.0 0.0
0.0 0.019599684253992743 -0.016987065350830888 0.01610438484979964 0.0008826805010312385 0.006030735927834442 0.0 0.0
0.0 0.013885533103838341 -0.012081264578460683 0.011290931901035082 0.0007903326774255954 0.004628736915364092 0.0 0.0
0.0 0.009082519673740054 -0.00793739497480068 0.0072574790275343765 0.0006799159472663021 0.0032656833062902936 0.0 0.0
0.0 0.005213675086024256 -0.004594376801679274 0.004062224661752346 0.0005321521399269269 0.002051048164511006 0.0 0.0
0.0 0.002438566415664722 -0.0021154489478371974 0.0017868832607098929 0.00032856568712730445 0.0010589128397570768 0.0 0.0
0.0 0.000832806208339894 -0.0006022805205058014 0.00048817407664311304 0.00011410644386268857 0.00037864533532824135 0.0 0.0
0.0 9.903228902779222e-05 -5.034501463598403e-05 4.0367687841207096e-05 9.977326794776803e-06 4.8731651001386815e-05 0.0 0.0
0.0 3.142399367612368e-06 -1.060203724006357e-07 8.055157709767232e-08 2.5468795302975968e-08 1.0991794594135296e-07 0.0 0.0
0.0 0.0 0.0 0.0 0.0 0.0 0.0 0.0
0.0 0.0 0.0 0.0 0.0 0.0 0.0 0.0
0.0 0.0 0.0 0.0 0.0 0.0 0.0 0.0
0.0 0.0 0.0 0.0 0.0 0.0 0.0 0.0
0.0 0.0 0.0 0.0 0.0 0.0 0.0 0.0
0.0 0.0 0.0 0.0 0.0 0.0 0.0 0.0
0.0 3.3572913595377957e-06 1.5228844022336455e-07 -1.1818921529780023e-07 -3.4099224925574685e-08 1.557030469057301e-07 0.0 0.0
0.0 0.00021704602141884777 -0.00012775748072669027 0.00010187320467092479 2.5884276055765413e-05 -7.672812888680605e-05 0.0 0.0
0.0 0.0012962763836844864 -0.0010226686425604849 0.0008387165962287495 0.00018395204633173557 -0.00042252491366063166 0.0 0.0
0.0 0.0032764289985075567 -0.0029490229193167797 0.0025350207694576406 0.00041400214985913987 -0.0009869143898824427 0.0 0.0
0.0 0.006556659790260836 -0.005831883912568585 0.005235604839607449 0.0005962790729611348 -0.0017712861320229752 0.0 0.0
0.0 0.010979738514039232 -0.009670868562468168 0.00894033685420789 0.0007305317082602716 -0.002749582557393272 0.0 0.0
0.0 0.016480014253151133 -0.014429538591579496 0.013592688456241675 0.0008368501353378162 -0.0038561534226257453 0.0 0.0
0.0 0.02306055161641803 -0.020091405275151613 0.019159491369130883 0.0009319139060207318 -0.00500157617989133 0.0 0.0
0.0 0.03069665689504677 -0.026714474023369225 0.025691559552970165 0.0010229144703990454 -0.0061341121043339795 0.0 0.0
0.0 0.03970054246238866 -0.034421954937330815 0.033309317283369465 0.0011126376539613305 -0.007318660767937917 0.0 0.0
0.0 0.049888510742556486 -0.04334538231133156 0.04214279740578773 0.0012025849055438236 -0.008652295510920968 0.0 0.0
0.0 0.0615473275084331 -0.05349671030179354 0.05220287046127099 0.0012938398405225521 -0.010032167102680513 0.0 0.0
0.0 0.07439051615323726 -0.06464396738227685 0.06325200853791915 0.001391958844357697 -0.011149908217894732 0.0 0.0
0.0 0.08741409381769756 -0.0759628982210358 0.07444504327433557 0.0015178549467001951 -0.012209618642746334 0.0 0.0
0.0 0.09805569087015109 -0.08513595070651665 0.08342073964861796 0.0017152110578986769 -0.015326190373468622 0.0 0.0
0.0 0.10110974661497953 -0.08737625276963072 0.08542863169040274 0.0019476210792280135 -0.02329568758782678 0.0 0.0
0.0 0.08955676570760364 -0.07585545271849657 0.07369061482587358 0.002164837892622961 -0.036554156663213974 0.0 0.0
0.0 0.08955676570760283 -0.07585545271849277 0.07369061482587042 0.0021648378926223764 0.03655415666323746 0.0 0.0
0.0 0.10110974661496286 -0.08737625276961394 0.08542863169038686 0.0019476210792270592 0.02329568758785518 0.0 0.0
0.0 0.0980556908701201 -0.08513595070648848 0.0834207396485904 0.0017152110578980326 0.015326190373490771 0.0 0.0
0.0 0.08741409381765831 -0.07596289822100111 0.07444504327430179 0.0015178549466993204 0.012209618642752744 0.0 0.0
0.0 0.07439051615318878 -0.06464396738223456 0.06325200853787746 0.0013919588443571163 0.011149908217894532 0.0 0.0
0.0 0.06154732750838332 -0.05349671030175012 0.052202870461228235 0.0012938398405218981 0.01003216710267866 0.0 0.0
0.0 0.04988851074250556 -0.043345382311287324 0.042142797405743906 0.0012025849055434083 0.008652295510915922 0.0 0.0
0.0 0.039700542462338805 -0.03442195493728724 0.033309317283326756 0.0011126376539604907 0.00731866076793139 0.0 0.0
0.0 0.030696656894997138 -0.02671447402332582 0.02569155955292772 0.0010229144703980974 0.006134112104328208 0.0 0.0
0.0 0.02306055161637266 -0.020091405275111794 0.01915949136909159 0.0009319139060201928 0.005001576179880092 0.0 0.0
0.0 0.016480014253113167 -0.014429538591546151 0.013592688456208772 0.0008368501353373777 0.0038561534226150018 0.0 0.0
0.0 0.01097973851400884 -0.009670868562441192 0.00894033685418152 0.0007305317082596697 0.0027495825573859833 0.0 0.0
0.0 0.0065566597902384114 -0.005831883912548403 0.005235604839588054 0.0005962790729603494 0.0017712861320168553 0.0 0.0
0.0 0.003276428998494109 -0.0029490229193044155 0.002535020769446423 0.0004140021498579934 0.0009869143898784175 0.0 0.0
0.0 0.001296276383676568 -0.0010226686425539892 0.000838716596223276 0.00018395204633071222 0.00042252491365803884 0.0 0.0
0.0 0.00021704602141594224 -0.00012775748072509514 0.00010187320466963055 2.5884276055464663e-05 7.672812888586344e-05 0.0 0.0
0.0 3.3572913589454885e-06 1.5228844001990506e-07 -1.1818921513915522e-07 -3.409922488074134e-08 -1.5570304671322785e-07 0.0 0.0
0.0 0.0 0.0 0.0 0.0 0.0 0.0 0.0
0.0 0.0 0.0 0.0 0.0 0.0 0.0 0.0
0.0 0.0 0.0 0.0 0.0 0.0 0.0 0.0
0.0 0.0 0.0 0.0 0.0 0.0 0.0 0.0
0.0 0.0 0.0 0.0 0.0 0.0 0.0 0.0
0.0 0.0 0.0 0.0 0.0 0.0 0.0 0.0
0.0 7.692147547716766e-06 7.098116955441128e-07 -5.432074078663526e-07 -1.6660428767773074e-07 4.234853253476549e-07 0.0 0.0
0.0 0.0004441193312151328 -0.00028463554073011063 0.00022821023910160246 5.642530162850844e-05 -9.790534714386328e-05 0.0 0.0
0.0 0.0017035089811687453 -0.0015657330040222662 0.0013005083532542285 0.0002652246507680369 -0.0003665182196401688 0.0 0.0
0.0 0.004218705123807363 -0.003818206316389654 0.0033357627688511 0.0004824435475385519 -0.0007421465060020359 0.0 0.0
0.0 0.007930736235626049 -0.0070858361207147376 0.006438715521622004 0.0006471205990927333 -0.0012653194147298995 0.0 0.0
0.0 0.012898619399701744 -0.011406584239371624 0.010636085719916314 0.000770498519455304 -0.0019321381775850256 0.0 0.0
0.0 0.019091426200464532 -0.016775020568749546 0.015899239750932905 0.0008757808178166348 -0.0027004193853767122 0.0 0.0
0.0 0.026522234035780464 -0.023197226661336914 0.022221807877042296 0.0009754187842946273 -0.0034942271374342766 0.0 0.0
0.0 0.035315872589421135 -0.030744376004417075 0.029671034833729782 0.0010733411706872853 -0.004280116457925276 0.0 0.0
0.0 0.045328489257523884 -0.039547412075077865 0.03837588181248358 0.0011715302625942847 -0.005137718557056987 0.0 0.0
0.0 0.056956239662596775 -0.04969092192368356 0.04841916949187688 0.0012717524318066528 -0.006094872166665139 0.0 0.0
0.0 0.07009779411059763 -0.061093444522322786 0.05971750510178422 0.0013759394205385808 -0.007032407067443173 0.0 0.0
0.0 0.08421385462770029 -0.07336072186812977 0.0718762822404141 0.0014844396277156717 -0.0076217005554147935 0.0 0.0
0.0 0.09830221149416876 -0.0856247720686847 0.0840232078456801 0.00160156422300466 -0.007508735519196936 0.0 0.0
0.0 0.11034001493495754 -0.09607744379453714 0.09431352715579075 0.0017639166387464086 -0.008356509511273268 0.0 0.0
0.0 0.1154791512711355 -0.10021708337660962 0.09813615803484053 0.002080925341769011 -0.017139445728987065 0.0 0.0
0.0 0.1047878696373545 -0.08910668158632642 0.08675062661615239 0.0023560549701740065 -0.03878444997584542 0.0 0.0
0.0 0.10478786963734579 -0.08910668158631739 0.08675062661614293 0.0023560549701744146 0.038784449975860835 0.0 0.0
0.0 0.11547915127110958 -0.10021708337658657 0.09813615803481697 0.002080925341769544 0.017139445729007653 0.0 0.0
0.0 0.11034001493491724 -0.09607744379450188 0.09431352715575558 0.0017639166387462908 0.008356509511290348 0.0 0.0
0.0 0.09830221149411723 -0.08562477206863983 0.0840232078456357 0.0016015642230040848 0.007508735519198784 0.0 0.0
0.0 0.0842138546276452 -0.0733607218680819 0.07187628224036678 0.0014844396277150782 0.007621700555414494 0.0 0.0
0.0 0.07009779411054189 -0.061093444522274123 0.05971750510173647 0.001375939420537676 0.00703240706744199 0.0 0.0
0.0 0.05695623966254012 -0.04969092192363418 0.048419169491828375 0.0012717524318057837 0.0060948721666624055 0.0 0.0
0.0 0.04532848925746591 -0.03954741207502745 0.038375881812433774 0.0011715302625936674 0.005137718557051681 0.0 0.0
0.0 0.03531587258936415 -0.030744376004367312 0.02967103483368042 0.001073341170686887 0.004280116457921451 0.0 0.0
0.0 0.026522234035730872 -0.023197226661293556 0.022221807876999698 0.0009754187842938418 0.0034942271374266715 0.0 0.0
0.0 0.019091426200423027 -0.016775020568712867 0.015899239750897264 0.0008757808178156085 0.002700419385369624 0.0 0.0
0.0 0.012898619399667853 -0.011406584239341155 0.010636085719886699 0.0007704985194544588 0.0019321381775805866 0.0 0.0
0.0 0.007930736235600732 -0.0070858361206918375 0.006438715521600044 0.0006471205990917914 0.0012653194147257253 0.0 0.0
0.0 0.004218705123790842 -0.003818206316374275 0.003335762768836872 0.00048244354753740164 0.0007421465059988957 0.0 0.0
0.0 0.001703508981160132 -0.0015657330040142203 0.0013005083532472636 0.00026522465076695643 0.00036651821963827505 0.0 0.0
0.0 0.0004441193312117376 -0.0002846355407280242 0.00022821023909988934 5.642530162813463e-05 9.790534714319496e-05 0.0 0.0
0.0 7.692147547020653e-06 7.098116952965137e-07 -5.432074076720575e-07 -1.6660428762450242e-07 -4.234853251945227e-07 0.0 0.0
0.0 0.0 0.0 0.0 0.0 0.0 0.0 0.0
0.0 0.0 0.0 0.0 0.0 0.0 0.0 0.0
0.0 0.0 0.0 0.0 0.0 0.0 0.0 0.0
0.0 0.0 0.0 0.0 0.0 0.0 0.0 0.0
0.0 0.0 0.0 0.0 0.0 0.0 0.0 0.0
0.0 0.0 0.0 0.0 0.0 0.0 0.0 0.0
0.0 2.478368997522369e-05 -9.00792172855956e-06 7.1525204439259665e-06 1.8554012846337397e-06 -2.8283179660274043e-06 0.0 0.0
0.0 0.0007971058429390696 -0.0005320329617409287 0.0004291488575189799 0.00010288410422194872 -7.255424318416832e-05 0.0 0.0
0.0 0.002332391093763313 -0.0021446311816528574 0.0018058278602886301 0.0003388033213642272 -0.00017785802559744504 0.0 0.0
0.0 0.00519520908742277 -0.004708636311650304 0.004170398773206687 0.000538237538443616 -0.0003301897902038728 0.0 0.0
0.0 0.009340337985659778 -0.008339187828774138 0.007652335795736832 0.000686852033037302 -0.000538183712232747 0.0 0.0
0.0 0.01484779440512681 -0.013128529728302538 0.01232533737216782 0.0008031923561347207 -0.0008211799583009905 0.0 0.0
0.0 0.021752392662323046 -0.01910051012996677 0.018191241062604106 0.0009092690673626671 -0.0011611833648062266 0.0 0.0
0.0 0.030112535959442195 -0.026289067081980793 0.025275179299093595 0.0010138877828871906 -0.001513379480906547 0.0 0.0
0.0 0.039739730315593455 -0.03477968326623478 0.03365994188521621 0.0011197413810185657 -0.0018845541238354823 0.0 0.0
0.0 0.05105463223047895 -0.04466947895553131 0.04344281366131597 0.0012266652942153173 -0.002285038218895818 0.0 0.0
0.0 0.06411407075227063 -0.05601070443347938 0.05467360243795463 0.0013371019955247085 -0.002704287699336508 0.0 0.0
0.0 0.07866069414044977 -0.068640477259401 0.06718648436667801 0.0014539928927229826 -0.0030837258962342464 0.0 0.0
0.0 0.09404290240202932 -0.08197375252263647 0.08039703716349633 0.0015767153591401384 -0.0032111953432536083 0.0 0.0
0.0 0.10896507470336819 -0.09491509322376297 0.09321661225743777 0.0016984809663251428 -0.002724927833762328 0.0 0.0
0.0 0.12157201329199677 -0.10588642986141678 0.10406856936998021 0.0018178604914365452 -0.0015516289117210665 0.0 0.0
0.0 0.12898954329148943 -0.11223676399571103 0.11023248479268077 0.002004279203030171 -0.00537186012300911 0.0 0.0
0.0 0.12264105693465438 -0.10507233375884428 0.1023569864026839 0.0027153473561603706 -0.03592237420302994 0.0 0.0
0.0 0.12264105693464769 -0.10507233375883764 0.10235698640267786 0.002715347356159734 0.035922374203036046 0.0 0.0
0.0 0.1289895432914631 -0.11223676399568784 0.11023248479265818 0.0020042792030296012 0.005371860123017708 0.0 0.0
0.0 0.1215720132919497 -0.10588642986137611 0.10406856936993952 0.0018178604914365383 0.0015516289117291165 0.0 0.0
0.0 0.10896507470331014 -0.09491509322371275 0.09321661225738759 0.0016984809663250944 0.002724927833761879 0.0 0.0
0.0 0.09404290240197127 -0.08197375252258575 0.08039703716344657 0.0015767153591391444 0.003211195343254098 0.0 0.0
0.0 0.07866069414038888 -0.06864047725934788 0.06718648436662585 0.0014539928927220272 0.0030837258962339168 0.0 0.0
0.0 0.06411407075220538 -0.05601070443342279 0.0546736024378985 0.0013371019955242792 0.0027042876993355744 0.0 0.0
0.0 0.051054632230414995 -0.044669478955475676 0.04344281366126101 0.0012266652942146362 0.002285038218893596 0.0 0.0
0.0 0.03973973031553184 -0.03477968326618108 0.03365994188516325 0.0011197413810178226 0.0018845541238346408 0.0 0.0
0.0 0.030112535959386868 -0.026289067081932405 0.025275179299045956 0.0010138877828864516 0.0015133794809021812 0.0 0.0
0.0 0.02175239266227581 -0.019100510129925693 0.018191241062563653 0.0009092690673620434 0.0011611833648026916 0.0 0.0
0.0 0.014847794405089201 -0.013128529728269254 0.012325337372135047 0.0008031923561342031 0.000821179958299242 0.0 0.0
0.0 0.009340337985631756 -0.00833918782874872 0.007652335795712173 0.0006868520330365481 0.0005381837122311688 0.0 0.0
0.0 0.005195209087402658 -0.004708636311631897 0.004170398773189171 0.0005382375384427265 0.00033018979020240963 0.0 0.0
0.0 0.0023323910937524616 -0.0021446311816423853 0.0018058278602792908 0.00033880332136309444 0.00017785802559654277 0.0 0.0
0.0 0.000797105842934063 -0.0005320329617373861 0.0004291488575160306 0.00010288410422135602 7.255424318368604e-05 0.0 0.0
0.0 2.4783689974914852e-05 -9.007921728989587e-06 7.152520444252051e-06 1.8554012847375241e-06 2.8283179660879845e-06 0.0 0.0
0.0 0.0 0.0 0.0 0.0 0.0 0.0 0.0
0.0 0.0 0.0 0.0 0.0 0.0 0.0 0.0
0.0 0.0 0.0 0.0 0.0 0.0 0.0 0.0